coord_x,coord_y,stress_xx,stress_yy,tau_xy,velocity_x,velocity_y,stress_1,eps,damage,lx,ly
5.001366e+0, 1.24077015e+2, -1399931.0, -1686290.5, -4352.354, 0.0016660843, -0.40387717, -1399864.9, 324138.22, 0.0013143772, 10.002693, 9.998895 
5.00133e+0, 1.3407435e+2, -1389156.3, -1710130.5, 16833.756, 0.010935822, -0.4906287, -1388275.9, 237754.7, 0.0008064585, 10.002438, 9.998181 
5.001152e+0, 1.4407445e+2, -1233938.8, -1413139.8, 17363.102, 0.01045986, -0.3683639, -1232271.9, 295757.1, 0.00037918316, 10.002091, 9.999709 
5.000787e+0, 1.5407325e+2, -1197930.3, -1335379.8, -4005.5571, -0.0026605478, -0.47309715, -1197813.6, 232223.3, 0.00011767186, 10.001624, 9.999796 
5.000628e+0, 1.6407259e+2, -1181241.9, -1336737.9, -5722.482, -0.0035370318, -0.49526894, -1181031.5, 151011.48, 0.000016018055, 10.001325, 9.999259 
5.0007725e+0, 1.7407241e+2, -1094304.9, -1250594.8, 3110.49, 0.01326472, -0.4381638, -1094243.0, 139805.56, 0.00000013955699, 10.001278, 9.999201 
5.000714e+0, 1.8407199e+2, -1016298.9, -1163926.4, 6141.268, 0.013899149, -0.39762738, -1016043.8, 120011.25, 0.0, 10.001148, 9.9991865 
5.0003654e+0, 1.9407138e+2, -956278.4, -1085771.3, 9273.186, -0.008212135, -0.38272044, -955617.7, 82443.695, 0.0, 10.000894, 9.999173 
5.000207e+0, 2.0407057e+2, -897045.06, -1025891.8, 9708.177, -0.01494484, -0.3705635, -896317.7, 43752.5, 0.0, 10.000711, 9.998999 
5.0003177e+0, 2.1406956e+2, -811975.6, -937018.1, -1981.7296, -0.00007826886, -0.3754094, -811944.25, 30137.725, 0.0, 10.000635, 9.998972 
5.0002944e+0, 2.2406857e+2, -742903.44, -861551.1, -6373.1265, 0.0056792535, -0.3662559, -742562.06, 1530.962, 0.0, 10.000474, 9.998895 
5.0000775e+0, 2.3406771e+2, -687801.7, -785852.75, 7880.414, -0.0015756565, -0.34658659, -687172.4, -41070.13, 0.0, 10.000186, 9.99888 
4.9999398e+0, 2.4406698e+2, -594703.94, -639846.94, 13759.916, -0.0028294881, -0.3257887, -590840.5, -42730.65, 0.0, 9.999935, 9.999331 
4.9999174e+0, 2.540665e+2, -522663.7, -551146.1, 3093.728, 0.004546856, -0.318031, -522331.53, -72216.695, 0.0, 9.999743, 9.99936 
4.9998468e+0, 2.6406565e+2, -440484.0, -442214.53, -2741.619, 0.0068780137, -0.34455368, -438474.34, -86351.87, 0.0, 9.999555, 9.999525 
4.9997076e+0, 2.740645e+2, -368082.47, -354699.8, -3733.919, 0.0021824234, -0.41582847, -353728.5, -99597.09, 0.0, 9.999372, 9.999541 
4.9995828e+0, 2.8406408e+2, -319984.16, -313323.56, -621.3568, -0.0002052199, -0.39963374, -313266.1, -157131.53, 0.000000004221918, 9.999168, 9.999249 
4.9994716e+0, 2.9406428e+2, -250629.1, -222510.75, 10369.411, -0.000023346181, -0.31003812, -219100.38, -160967.78, 0.0000065845143, 9.998943, 9.999309 
4.999357e+0, 3.0406258e+2, -139036.02, -4478.4434, 8683.553, -0.0031108737, -0.47220677, -3920.3728, -3920.3728, 0.0000754208, 9.998775, 10.000557 
4.9993187e+0, 3.140638e+2, -153035.67, -12771.66, -16751.453, -0.002501232, -0.40631336, -10798.816, -10798.816, 0.0002698707, 9.998684, 10.000544 
1.5004095e+1, 1.2407706e+2, -1362857.0, -1608437.5, -16034.294, 0.004878345, -0.40174112, -1361814.6, 362189.7, 0.0012897267, 10.002689, 9.999433 
1.5003993e+1, 1.3407499e+2, -1350233.4, -1628946.5, 7066.013, 0.032895602, -0.48398122, -1350054.4, 275968.78, 0.0007892631, 10.002437, 9.998739 
1.5003455e+1, 1.4407517e+2, -1265561.8, -1477952.9, 49.985336, 0.031332336, -0.36474866, -1265561.8, 262458.8, 0.00036879338, 10.002089, 9.999267 
1.5002361e+1, 1.5407336e+2, -1237245.0, -1416535.0, -21728.094, -0.007970196, -0.47524062, -1234649.4, 195387.89, 0.00011270428, 10.001622, 9.99924 
1.5001884e+1, 1.6407256e+2, -1171250.8, -1315400.4, -9343.886, -0.01062684, -0.4862103, -1170647.6, 161398.08, 0.000014709239, 10.001323, 9.999407 
1.5002318e+1, 1.7407295e+2, -1079018.8, -1218332.5, 1426.0563, 0.039809298, -0.39373466, -1079004.1, 155040.25, 0.00000010097208, 10.001276, 9.999424 
1.500214e+1, 1.840726e+2, -1008927.2, -1147830.6, -2763.9263, 0.041653275, -0.36376616, -1008872.25, 127176.79, 0.0, 10.001145, 9.999299 
1.5001097e+1, 1.9407137e+2, -949390.75, -1071195.8, -241.48196, -0.024661612, -0.42139056, -949390.3, 88670.12, 0.0, 10.000893, 9.999273 
1.500062e+1, 2.0407034e+2, -916812.1, -1066485.6, 6048.691, -0.044850156, -0.42272493, -916568.1, 23503.248, 0.0, 10.0007105, 9.998721 
1.5000953e+1, 2.1406974e+2, -834501.1, -983214.8, -4694.5615, -0.00020930765, -0.35641566, -834353.06, 7728.024, 0.0, 10.000633, 9.998656 
1.5000883e+1, 2.240689e+2, -719658.0, -812701.56, -16548.502, 0.016995346, -0.33063868, -716802.4, 27288.566, 0.0, 10.000472, 9.999231 
1.5000233e+1, 2.3406784e+2, -660230.75, -728363.7, -2864.8047, -0.0046856212, -0.36824352, -660110.5, -14010.909, 0.0, 10.000185, 9.999276 
1.499982e+1, 2.4406697e+2, -610772.75, -672930.9, 6037.715, -0.008547563, -0.37350103, -610191.7, -62083.793, 0.0, 9.999934, 9.999105 
1.4999753e+1, 2.5406638e+2, -542117.94, -591085.75, -4005.3865, 0.013607439, -0.34750006, -541792.5, -91677.19, 0.0, 9.999742, 9.999087 
1.499954e+1, 2.6406565e+2, -443159.1, -447290.16, -9873.118, 0.020653088, -0.34489837, -435137.75, -83014.98, 0.0, 9.999553, 9.999492 
1.4999123e+1, 2.74065e+2, -370433.72, -359027.7, -10499.153, 0.0064828247, -0.3668917, -352782.63, -98654.65, 0.0, 9.999369, 9.999514 
1.4998749e+1, 2.8406468e+2, -301759.97, -274969.1, -9147.346, -0.00052262796, -0.35101876, -272143.8, -116014.09, 0.0000000059189293, 9.9991665, 9.999515 
1.4998415e+1, 2.9406443e+2, -229231.75, -177510.77, 2236.9854, -0.00017757152, -0.33244777, -177414.2, -119284.766, 0.0000065077284, 9.998941, 9.9996195 
1.4998071e+1, 3.0406246e+2, -182324.03, -93830.31, 4736.9766, -0.009178327, -0.51032096, -93577.47, -93577.47, 0.000074264535, 9.998773, 9.999944 
1.4997953e+1, 3.140636e+2, -204115.97, -117947.45, -17346.016, -0.0078362925, -0.3826227, -114586.71, -114586.71, 0.00026634705, 9.998681, 9.999823 
2.500689e+1, 1.24077804e+2, -1358836.5, -1590078.1, 15131.807, 0.017061982, -0.38957116, -1357850.5, 366146.84, 0.0012539346, 10.002648, 9.999579 
2.500634e+1, 1.3407564e+2, -1379793.8, -1627624.9, 7262.73, 0.03718639, -0.49489576, -1379581.1, 246434.94, 0.0007642556, 10.002168, 9.998879 
2.5005484e+1, 1.4407581e+2, -1301880.1, -1509918.0, -231.21371, 0.034659304, -0.3791172, -1301879.9, 226133.61, 0.0003536966, 10.001901, 9.999138 
2.50043e+1, 1.5407415e+2, -1199005.6, -1415880.5, 8280.7295, 0.0067310925, -0.46087897, -1198689.9, 231340.53, 0.00010549485, 10.001962, 9.999082 
2.5003588e+1, 1.6407333e+2, -1104583.4, -1283935.0, 29536.299, 0.0041551106, -0.46179348, -1099844.5, 232194.8, 0.000012859098, 10.001783, 9.999401 
2.5003576e+1, 1.7407358e+2, -1080878.9, -1218380.9, 23712.045, 0.03897006, -0.3867213, -1076904.6, 157133.95, 0.00000006033416, 10.00126, 9.999432 
2.5003153e+1, 1.840731e+2, -1038918.0, -1165022.0, 12127.462, 0.038062725, -0.36834243, -1037762.3, 98281.57, 0.0, 10.000951, 9.999274 
2.500214e+1, 1.9407181e+2, -941147.6, -1070229.5, 5725.4746, -0.013115889, -0.42749676, -940894.1, 97161.61, 0.0, 10.000963, 9.999247 
2.5001538e+1, 2.0407076e+2, -902537.2, -1068818.6, 11067.023, -0.030994482, -0.42748508, -901803.9, 38263.39, 0.0, 10.000848, 9.998638 
2.5001514e+1, 2.1407008e+2, -854760.8, -1003168.06, 16834.242, -0.0026854356, -0.35705653, -852875.2, -10797.412, 0.0, 10.000538, 9.998566 
2.50012e+1, 2.2406921e+2, -739625.7, -817201.0, 4706.278, 0.009608061, -0.33195812, -739341.2, 4746.677, 0.0, 10.000312, 9.999278 
2.5000474e+1, 2.3406817e+2, -652112.0, -717864.8, -7266.5664, -0.0005927145, -0.3742038, -651318.5, -5222.617, 0.0, 10.000213, 9.999335 
2.4999912e+1, 2.4406728e+2, -596172.4, -675325.25, -6925.1484, 0.0002455703, -0.38236132, -595571.06, -47466.664, 0.0, 10.000075, 9.999021 
2.4999592e+1, 2.5406656e+2, -528425.5, -595191.25, -3021.3572, 0.016413474, -0.35793677, -528289.06, -78175.836, 0.0, 9.999882, 9.998992 
2.499912e+1, 2.6406583e+2, -430833.7, -444124.28, -2464.1448, 0.018359317, -0.34965506, -430391.53, -78270.44, 0.0, 9.99965, 9.999467 
2.4998449e+1, 2.7406535e+2, -371149.9, -362076.3, -3502.4792, 0.0019159577, -0.3551902, -360881.63, -106756.45, 0.0, 9.999376, 9.99949 
2.4997924e+1, 2.84065e+2, -297460.47, -270988.88, -6949.61, -0.00066886813, -0.3361713, -269275.3, -113148.64, 0.0000000086392555, 9.999188, 9.999532 
2.4997546e+1, 2.9406464e+2, -203586.5, -162689.1, -16392.268, 0.010566001, -0.33211425, -156929.86, -98802.695, 0.0000063841276, 9.999107, 9.999641 
2.4996987e+1, 3.0406263e+2, -172943.6, -104636.66, -11669.031, -0.0013821803, -0.5128175, -102698.22, -102698.22, 0.00007245599, 9.998904, 9.999806 
2.4996588e+1, 3.1406364e+2, -236128.83, -153941.67, 9720.634, -0.005861898, -0.38145292, -152807.63, -152807.63, 0.00026087384, 9.998551, 9.999639 
3.5009736e+1, 1.2407925e+2, -1375646.5, -1625390.4, -3968.8953, 0.035946097, -0.36832052, -1375583.4, 348398.9, 0.0012062672, 10.002649, 9.999336 
3.5008362e+1, 1.3407631e+2, -1398305.3, -1667113.0, -10769.871, 0.022258824, -0.52473235, -1397874.5, 228134.72, 0.00073077687, 10.0021715, 9.998607 
3.5007235e+1, 1.4407638e+2, -1288597.4, -1482453.8, -296.26877, 0.019305097, -0.41250873, -1288596.9, 239411.1, 0.00033350204, 10.001902, 9.999327 
3.500661e+1, 1.540756e+2, -1182400.9, -1380925.9, 10700.51, 0.040904928, -0.42868847, -1181825.8, 248190.61, 0.000095918134, 10.00196, 9.999323 
3.5005733e+1, 1.6407493e+2, -1116317.9, -1307451.6, 11712.016, 0.04000331, -0.4217159, -1115602.9, 216420.81, 0.000010539653, 10.0017805, 9.999242 
3.5004547e+1, 1.7407425e+2, -1095170.5, -1248087.1, 4001.7627, 0.009460895, -0.41791254, -1095065.9, 138965.39, 0.000000028001644, 10.00126, 9.999228 
3.5003746e+1, 1.8407346e+2, -1050196.3, -1188169.9, 10472.901, 0.0020383846, -0.41199592, -1049405.9, 86633.84, 0.0, 10.000951, 9.999116 
3.5003498e+1, 1.9407272e+2, -952293.7, -1092623.9, 6468.743, 0.0260707, -0.40060005, -951996.1, 86051.22, 0.0, 10.00096, 9.999094 
3.500296e+1, 2.0407179e+2, -895203.5, -1052804.5, 595.9591, 0.02599226, -0.38476986, -895201.25, 44856.535, 0.0, 10.000845, 9.99875 
3.5002e+1, 2.1407063e+2, -845235.5, -983223.9, 5253.4604, -0.008207191, -0.37748158, -845035.75, -2963.778, 0.0, 10.000538, 9.998703 
3.5001242e+1, 2.2406954e+2, -756791.9, -852576.0, 154.9649, -0.017472582, -0.37038678, -756791.6, -12707.712, 0.0, 10.000311, 9.999036 
3.5000798e+1, 2.340687e+2, -671739.0, -758388.25, -10825.333, 0.010087283, -0.36438042, -670407.0, -24315.848, 0.0, 10.000212, 9.999058 
3.5000217e+1, 2.4406788e+2, -592114.2, -666419.44, -14024.847, 0.022847895, -0.3525596, -589555.2, -41455.87, 0.0, 10.000073, 9.999083 
3.4999436e+1, 2.5406703e+2, -522445.94, -582242.6, -10268.748, 0.012432874, -0.34913242, -520731.66, -70623.04, 0.0, 9.99988, 9.999082 
3.499858e+1, 2.640662e+2, -432244.6, -446792.47, -12719.457, -0.0007244503, -0.35906205, -424866.06, -72748.664, 0.0, 9.999649, 9.99945 
3.4997684e+1, 2.740655e+2, -372436.16, -364196.75, -13530.493, -0.012572855, -0.3804691, -354172.7, -100049.71, 0.0, 9.999373, 9.999476 
3.4997106e+1, 2.8406513e+2, -314102.78, -304709.63, -10812.702, -0.0015516056, -0.3551835, -297617.56, -141492.17, 0.000000011844628, 9.999186, 9.999301 
3.4996864e+1, 2.9406494e+2, -222398.36, -200602.52, -19394.795, 0.031292412, -0.30857164, -189253.58, -131127.8, 0.0000061783935, 9.999104, 9.999382 
3.499611e+1, 3.0406302e+2, -149534.36, -55650.586, -24480.049, 0.020007037, -0.47985464, -49650.867, -49650.867, 0.00006980885, 9.998903, 10.000144 
3.499522e+1, 3.1406388e+2, -211336.17, -102086.68, -1034.8207, 0.0016227409, -0.40312856, -102076.875, -102076.875, 0.00025299258, 9.99855, 9.999995 
4.5012394e+1, 1.2408059e+2, -1408190.1, -1647227.5, 828.51385, 0.04683977, -0.3798063, -1408187.3, 315780.8, 0.0011480161, 10.002454, 9.999282 
4.5010677e+1, 1.3407753e+2, -1382347.4, -1668457.6, 9023.066, 0.028841358, -0.54025227, -1382063.1, 243933.3, 0.0006895071, 10.002321, 9.998527 
4.500929e+1, 1.4407757e+2, -1264397.3, -1472823.0, 25151.957, 0.025615152, -0.42426953, -1261405.0, 266590.8, 0.00030865482, 10.002077, 9.99931 
4.5008576e+1, 1.5407698e+2, -1223069.4, -1401884.0, 17639.414, 0.055096347, -0.4200361, -1221346.0, 208656.8, 0.00008435172, 10.001687, 9.999311 
4.5007497e+1, 1.6407628e+2, -1162331.6, -1336276.8, 10722.166, 0.052526806, -0.4133169, -1161673.3, 170337.16, 0.000007991499, 10.001493, 9.999183 
4.500596e+1, 1.7407526e+2, -1051306.6, -1234104.5, 13169.585, 0.0079508275, -0.43763125, -1050362.8, 183657.95, 0.000000008983813, 10.001593, 9.999164 
4.500491e+1, 1.8407436e+2, -981991.94, -1168464.9, 26906.133, -0.002912577, -0.43513784, -978187.3, 157842.97, 0.0, 10.001476, 9.998999 
4.5004547e+1, 1.940738e+2, -948797.0, -1104827.6, 24840.318, 0.03116225, -0.39346012, -944937.8, 93099.305, 0.0, 10.001044, 9.998971 
4.5003873e+1, 2.0407292e+2, -905291.0, -1057413.8, 18274.252, 0.036369655, -0.365949, -903126.56, 36920.832, 0.0, 10.000775, 9.998753 
4.5002738e+1, 2.1407165e+2, -814389.2, -966343.3, 13678.537, 0.0018141296, -0.372126, -813167.7, 28894.422, 0.0, 10.000741, 9.998721 
4.5001775e+1, 2.2407039e+2, -720938.94, -855941.9, 6652.3716, -0.012226517, -0.37230238, -720611.94, 23463.521, 0.0, 10.000647, 9.998852 
4.5001066e+1, 2.3406936e+2, -649959.1, -770772.06, 1321.4648, 0.0035872443, -0.36500973, -649944.6, -3859.4622, 0.0, 10.00046, 9.998854 
4.5000252e+1, 2.440685e+2, -569655.06, -653422.4, -3945.4626, 0.011740171, -0.347163, -569469.6, -21375.643, 0.0, 10.000218, 9.999103 
4.499927e+1, 2.5406787e+2, -516238.38, -574959.5, -5061.909, 0.0065084198, -0.32977566, -515805.22, -65703.984, 0.0, 9.999904, 9.99912 
4.4998205e+1, 2.6406693e+2, -434099.3, -453898.16, -8809.947, -0.0040407698, -0.34431726, -430746.8, -78636.64, 0.0, 9.999663, 9.999394 
4.4997102e+1, 2.7406585e+2, -355021.13, -362663.84, -12465.652, -0.015722673, -0.39850542, -345804.25, -91685.1, 0.0, 9.999523, 9.999415 
4.4996312e+1, 2.8406537e+2, -305417.53, -306670.25, -6601.292, -0.0037088396, -0.3776198, -299412.94, -143290.25, 0.000000014278152, 9.999272, 9.999247 
4.4995835e+1, 2.9406554e+2, -259454.02, -225240.3, -581.87866, 0.029374903, -0.29322365, -225230.4, -167109.42, 0.0000058442592, 9.998878, 9.999323 
4.4994828e+1, 3.0406383e+2, -183843.0, -51642.344, -3429.3184, 0.018034779, -0.44570282, -51553.445, -51553.445, 0.000066210356, 9.998579, 10.000329 
4.4993863e+1, 3.1406456e+2, -224387.22, -91396.984, 6935.915, 0.019276751, -0.4001337, -91036.23, -91036.23, 0.0002424885, 9.998386, 10.000149 
5.501486e+1, 1.2408184e+2, -1398542.9, -1628475.5, -6207.1997, 0.046919324, -0.42245254, -1398375.4, 325578.9, 0.0010818627, 10.00246, 9.999408 
5.501328e+1, 1.3407932e+2, -1375016.8, -1652554.5, 3881.8757, 0.056798246, -0.5395648, -1374962.5, 251015.17, 0.0006423977, 10.002318, 9.998637 
5.5011636e+1, 1.440794e+2, -1280562.6, -1505543.5, 11505.28, 0.052286554, -0.41419572, -1279975.8, 248001.16, 0.00028050644, 10.002073, 9.999086 
5.5010176e+1, 1.540783e+2, -1240658.4, -1439557.4, 3306.447, 0.04593058, -0.43626344, -1240603.4, 189386.4, 0.00007169208, 10.001692, 9.99905 
5.5008864e+1, 1.640774e+2, -1158998.9, -1329781.0, 12579.177, 0.039616793, -0.43765962, -1158077.3, 173922.27, 0.0000055425044, 10.001496, 9.999226 
5.500782e+1, 1.7407662e+2, -1046653.3, -1223184.9, 17136.654, 0.034752242, -0.44480538, -1045005.2, 189001.48, 0.00000000116644, 10.001588, 9.999241 
5.500664e+1, 1.8407577e+2, -988300.44, -1180302.3, 12612.13, 0.022532238, -0.4372539, -987475.5, 148540.03, 0.0, 10.001471, 9.9989195 
5.500529e+1, 1.9407502e+2, -955409.56, -1118622.6, 8703.928, 0.0002512719, -0.40662092, -954946.75, 83078.42, 0.0, 10.001045, 9.998876 
5.500427e+1, 2.0407411e+2, -912518.1, -1072378.3, 15573.501, -0.0014402143, -0.37131172, -911015.06, 29020.99, 0.0, 10.000775, 9.99865 
5.5003726e+1, 2.1407309e+2, -821867.6, -981497.1, 12680.545, 0.026381409, -0.34114304, -820866.56, 21181.693, 0.0, 10.00074, 9.998617 
5.500279e+1, 2.2407176e+2, -730084.1, -874358.56, 151.46123, 0.024366694, -0.33777007, -730083.94, 13978.454, 0.0, 10.000645, 9.998726 
5.500128e+1, 2.3407017e+2, -658920.0, -789256.1, -5535.929, -0.020714652, -0.37613818, -658685.3, -12607.316, 0.0, 10.00046, 9.998727 
5.5000013e+1, 2.4406913e+2, -571501.44, -657211.4, -15455.812, -0.03414311, -0.36618787, -568799.5, -20711.064, 0.0, 10.000218, 9.999077 
5.4999083e+1, 2.5406894e+2, -517552.28, -577324.56, -16777.295, -0.003007713, -0.2997877, -513165.13, -63074.008, 0.0, 9.999903, 9.9991045 
5.499798e+1, 2.6406807e+2, -440716.7, -466971.94, -14757.076, 0.0071558943, -0.30563104, -434093.22, -81993.75, 0.0, 9.9996605, 9.999305 
5.49967e+1, 2.7406642e+2, -362438.63, -377347.78, -17780.008, -0.008351822, -0.40883884, -350613.7, -96500.02, 0.0, 9.99952, 9.999315 
5.499554e+1, 2.8406575e+2, -297390.13, -289868.2, -20850.691, -0.008025432, -0.403729, -272441.97, -116323.31, 0.000000014996283, 9.999271, 9.999362 
5.499445e+1, 2.9406637e+2, -249557.94, -204197.6, -15019.329, 0.0033459475, -0.2859875, -199675.36, -141562.6, 0.0000053587105, 9.998876, 9.999468 
5.4993135e+1, 3.0406505e+2, -182286.48, -47846.883, -11471.935, -0.009020589, -0.41104075, -46874.992, -46874.992, 0.00006167987, 9.998577, 10.000356 
5.49925e+1, 3.1406572e+2, -228345.47, -98604.59, 1651.8668, 0.044250045, -0.37270427, -98583.56, -98583.56, 0.00022941288, 9.9983835, 10.0001 
6.5017164e+1, 1.2408348e+2, -1437958.4, -1641545.9, 16345.22, 0.047250792, -0.46253735, -1436654.5, 287282.2, 0.0010116006, 10.002163, 9.99946 
6.5015674e+1, 1.3408138e+2, -1395092.6, -1659263.4, 21417.516, 0.07167317, -0.5393787, -1393367.5, 232588.75, 0.00059264415, 10.002169, 9.998663 
6.501387e+1, 1.440815e+2, -1288578.8, -1532282.5, 21063.96, 0.066446066, -0.40484014, -1286771.5, 241184.39, 0.0002512883, 10.002118, 9.998881 
6.501201e+1, 1.5407996e+2, -1208630.4, -1449858.1, 14253.179, 0.043010235, -0.44640547, -1207791.1, 222182.33, 0.000059186506, 10.002024, 9.99882 
6.5010476e+1, 1.6407888e+2, -1109144.8, -1309525.9, 27254.506, 0.033142347, -0.45145753, -1105504.0, 226481.34, 0.0000034805446, 10.001855, 9.999192 
6.5009475e+1, 1.7407826e+2, -1048446.25, -1225267.8, 25761.26, 0.04197578, -0.44015023, -1044769.5, 189220.97, 0.00000000000024211628, 10.001581, 9.999229 
6.500816e+1, 1.8407744e+2, -1006113.6, -1198950.4, 12626.699, 0.031092558, -0.42656925, -1005290.4, 130708.87, 0.0, 10.001392, 9.998829 
6.500642e+1, 1.9407646e+2, -920177.1, -1112674.5, 7690.208, -0.005706002, -0.40717798, -919870.44, 118140.87, 0.0, 10.001335, 9.998776 
6.500515e+1, 2.0407546e+2, -854845.6, -1048940.9, 19843.176, -0.01189145, -0.37474847, -852837.75, 87185.5, 0.0, 10.00119, 9.9986105 
6.5004534e+1, 2.1407449e+2, -797902.94, -973592.2, 22576.537, 0.023924906, -0.33462638, -795048.2, 46986.258, 0.0, 10.00092, 9.998585 
6.5003455e+1, 2.2407317e+2, -732829.2, -884736.1, 12634.966, 0.025652954, -0.32779166, -731785.44, 12263.238, 0.0, 10.000665, 9.998645 
6.5001726e+1, 2.3407139e+2, -669959.1, -804052.7, 9579.568, -0.021001149, -0.37364718, -669278.2, -23212.117, 0.0, 10.000424, 9.998642 
6.50002e+1, 2.4407023e+2, -577932.75, -670198.44, -1440.5002, -0.037300076, -0.36805862, -577910.25, -29832.277, 0.0, 10.0002165, 9.998989 
6.499898e+1, 2.5406998e+2, -500919.16, -578860.25, -8265.739, -0.010828818, -0.30027175, -500052.22, -49970.855, 0.0, 10.000057, 9.99902 
6.4997655e+1, 2.6406905e+2, -418993.3, -459699.4, -6855.157, 0.0007718165, -0.3026456, -417869.88, -65780.02, 0.0, 9.999824, 9.999277 
6.499625e+1, 2.7406743e+2, -368778.9, -383420.72, -4476.3438, -0.004136362, -0.40080816, -367518.8, -113415.2, 0.0, 9.99949, 9.999289 
6.499483e+1, 2.8406674e+2, -312535.16, -291859.38, -11620.217, -0.00022894476, -0.4019277, -286644.06, -130535.086, 0.000000013847158, 9.999145, 9.99941 
6.499327e+1, 2.940672e+2, -260969.81, -202792.69, -12685.685, 0.0029645872, -0.30374458, -200146.88, -142042.67, 0.0000047556837, 9.998768, 9.99953 
6.499157e+1, 3.0406603e+2, -194710.25, -47953.047, -4333.7217, -0.017555159, -0.41881624, -47825.184, -47825.184, 0.000056396846, 9.9984665, 10.000407 
6.499084e+1, 3.1406695e+2, -243341.77, -108218.95, 13407.965, 0.045204576, -0.36308944, -106901.36, -106901.36, 0.00021408794, 9.99829, 10.000078 
7.501931e+1, 1.2408547e+2, -1438412.8, -1643477.5, 14705.987, 0.04390588, -0.5022125, -1437363.5, 286551.75, 0.00094218313, 10.002165, 9.999446 
7.501782e+1, 1.340837e+2, -1397757.3, -1667184.9, 21975.127, 0.06906771, -0.5410786, -1395976.6, 229955.69, 0.0005443152, 10.002177, 9.998604 
7.5015986e+1, 1.440838e+2, -1301125.4, -1559543.6, 17632.232, 0.065150976, -0.3969766, -1299927.8, 228005.02, 0.00022371147, 10.002124, 9.998692 
7.5014067e+1, 1.5408194e+2, -1223719.8, -1480081.4, 10849.147, 0.046895258, -0.4497333, -1223261.5, 206692.47, 0.00004811655, 10.002019, 9.998614 
7.501232e+1, 1.6408071e+2, -1117260.5, -1325250.1, 17772.031, 0.03243384, -0.4540583, -1115752.9, 216214.7, 0.0000019773436, 10.001851, 9.999085 
7.50109e+1, 1.7408018e+2, -1054692.5, -1239022.6, 15809.616, 0.026347993, -0.42401132, -1053346.4, 180625.77, 0.0, 10.001585, 9.999133 
7.500945e+1, 1.8407933e+2, -1012817.2, -1213421.0, 9686.604, 0.020059828, -0.4035003, -1012350.56, 123630.875, 0.0, 10.001395, 9.998728 
7.500794e+1, 1.9407815e+2, -927715.6, -1127564.9, 5737.7783, 0.013199243, -0.3947967, -927551.0, 110444.484, 0.0, 10.001332, 9.998675 
7.500651e+1, 2.0407696e+2, -853499.25, -1045485.3, 10471.028, 0.0047594365, -0.3759652, -852929.8, 87079.1, 0.0, 10.001187, 9.998635 
7.5005144e+1, 2.1407588e+2, -795370.75, -968118.94, 12637.502, -0.00686243, -0.3526294, -794451.1, 47569.523, 0.0, 10.00092, 9.998622 
7.5003767e+1, 2.2407457e+2, -735494.0, -890169.9, 3482.624, -0.009749137, -0.34241658, -735415.6, 8618.648, 0.0, 10.000664, 9.998609 
7.500237e+1, 2.3407307e+2, -673339.0, -810930.75, 617.6811, 0.001467064, -0.35765433, -673336.25, -27286.646, 0.0, 10.000424, 9.998595 
7.50008e+1, 2.4407181e+2, -588513.3, -691797.5, -7803.2183, 0.001301017, -0.3531164, -587927.1, -39864.375, 0.0, 10.000216, 9.998841 
7.499897e+1, 2.5407094e+2, -512043.22, -601695.7, -14218.335, -0.017692974, -0.33117384, -509842.3, -59770.32, 0.0, 10.000056, 9.998863 
7.499724e+1, 2.6406994e+2, -416729.16, -454860.5, -19115.979, -0.023754638, -0.3352981, -408796.3, -56714.95, 0.0, 9.999824, 9.9993105 
7.499573e+1, 2.7406895e+2, -365973.72, -377027.94, -16838.352, -0.004331129, -0.37462533, -353778.56, -99689.51, 0.0, 9.999488, 9.999333 
7.499416e+1, 2.840683e+2, -314144.44, -294662.38, -25765.568, 0.018091338, -0.3722877, -276857.94, -120764.27, 0.000000011324871, 9.999143, 9.999392 
7.499228e+1, 2.9406804e+2, -262529.7, -205626.67, -26965.873, 0.026778426, -0.34622532, -194878.1, -136782.89, 0.000004098041, 9.998767, 9.999511 
7.499012e+1, 3.0406684e+2, -189286.58, -36383.523, -11967.47, -0.008893973, -0.46861663, -35452.52, -35452.52, 0.000050636394, 9.998466, 10.000487 
7.498889e+1, 3.1406823e+2, -243184.31, -106703.29, 8488.186, 0.020257961, -0.37050536, -106177.41, -106177.41, 0.00019707165, 9.998286, 10.000091 
8.502161e+1, 1.2408796e+2, -1402694.6, -1636016.4, 6140.531, 0.0431736, -0.48937088, -1402533.1, 321357.75, 0.00087835814, 10.002452, 9.999359 
8.502002e+1, 1.3408594e+2, -1394651.8, -1679512.5, 9020.318, 0.06747644, -0.5416343, -1394366.4, 231544.39, 0.0005011039, 10.002258, 9.998481 
8.5018104e+1, 1.4408585e+2, -1301934.1, -1561264.6, 9123.432, 0.06439834, -0.40623894, -1301613.5, 226299.2, 0.00020010647, 10.002124, 9.99868 
8.5016173e+1, 1.5408413e+2, -1212124.6, -1474385.6, 18132.238, 0.05201391, -0.44542515, -1210876.9, 219055.31, 0.000039437622, 10.002099, 9.998615 
8.5014266e+1, 1.640829e+2, -1111944.6, -1337980.9, 25373.086, 0.037076432, -0.44380644, -1109131.4, 222814.52, 0.0000010481418, 10.001954, 9.998949 
8.5012496e+1, 1.740822e+2, -1056640.5, -1257192.1, 17842.396, 0.023983024, -0.4178339, -1055065.5, 178887.55, 0.0, 10.001646, 9.99898 
8.501084e+1, 1.8408123e+2, -1011001.25, -1215070.3, 19026.56, 0.019159952, -0.399249, -1009242.5, 126721.09, 0.0, 10.001418, 9.998706 
8.500936e+1, 1.9408002e+2, -931753.06, -1129789.5, 23244.613, 0.02338072, -0.38946983, -929061.3, 108915.87, 0.0, 10.001306, 9.9986725 
8.500774e+1, 2.0407881e+2, -861811.3, -1049349.4, 25212.719, 0.012222195, -0.37584797, -858480.8, 81509.914, 0.0, 10.00113, 9.998636 
8.50059e+1, 2.1407758e+2, -803727.8, -972208.56, 23603.518, -0.020490408, -0.36690336, -800483.5, 41520.207, 0.0, 10.000862, 9.998623 
8.5004216e+1, 2.2407626e+2, -740739.44, -894178.6, 16223.296, -0.029775914, -0.3568711, -739042.9, 4974.517, 0.0, 10.000634, 9.998595 
8.500276e+1, 2.3407497e+2, -667448.5, -809368.6, 15528.111, -0.004215794, -0.35059544, -665769.4, -19738.432, 0.0, 10.00047, 9.998584 
8.5001093e+1, 2.440737e+2, -582374.6, -696415.8, 12179.725, 0.0051106852, -0.34218502, -581088.3, -33044.195, 0.0, 10.00029, 9.998774 
8.499909e+1, 2.5407255e+2, -513224.56, -610597.06, 12123.347, -0.012503853, -0.34115636, -511737.84, -61681.766, 0.0, 10.000084, 9.998789 
8.499709e+1, 2.6407146e+2, -415131.0, -456885.8, 4034.6191, -0.022090921, -0.34831125, -414744.72, -62678.41, 0.0, 9.9998455, 9.999286 
8.4995186e+1, 2.7407068e+2, -357422.0, -374867.03, 181.10988, -0.010863226, -0.36626625, -357420.13, -103347.72, 0.0, 9.999555, 9.999316 
8.499334e+1, 2.8407001e+2, -294182.13, -290347.66, -10355.662, 0.014695583, -0.36301464, -281733.25, -125656.08, 0.000000007967864, 9.999302, 9.999346 
8.499134e+1, 2.9406947e+2, -214409.52, -188000.22, -13387.635, 0.038994417, -0.35997722, -182400.84, -124319.88, 0.0000034232567, 9.999121, 9.999462 
8.498875e+1, 3.0406833e+2, -153748.33, -7660.2324, -7950.1655, -0.0025468285, -0.4765641, -7228.8555, -7228.8555, 0.00004462947, 9.998659, 10.000591 
8.498679e+1, 3.1406978e+2, -318453.06, -137739.44, 14726.217, 0.008409462, -0.38719738, -136547.27, -136547.27, 0.00017893763, 9.9977455, 10.000137 
9.5024055e+1, 1.2409091e+2, -1413893.8, -1659368.1, -2684.9434, 0.04214507, -0.42321125, -1413864.5, 309999.25, 0.00082284986, 10.002452, 9.999199 
9.502228e+1, 1.3408802e+2, -1408166.8, -1708033.6, 1648.0068, 0.0663568, -0.5421787, -1408157.8, 217734.0, 0.00046510532, 10.00226, 9.998284 
9.502021e+1, 1.4408766e+2, -1289493.3, -1535560.9, 7613.474, 0.06258249, -0.433021, -1289257.9, 238638.06, 0.00018171112, 10.002124, 9.998856 
9.5018303e+1, 1.5408655e+2, -1196595.3, -1443063.0, 17639.89, 0.05468304, -0.43317434, -1195339.1, 234569.25, 0.000033543416, 10.002103, 9.998829 
9.5016295e+1, 1.6408546e+2, -1123915.4, -1363304.0, 14849.954, 0.044284973, -0.4208119, -1122997.8, 208922.75, 0.00000057940093, 10.001956, 9.998774 
9.501425e+1, 1.7408426e+2, -1072089.9, -1288861.1, 6360.467, 0.03489535, -0.42194805, -1071903.4, 162029.9, 0.0, 10.001644, 9.998763 
9.5012355e+1, 1.840831e+2, -1006549.94, -1205613.3, 14184.607, 0.027903285, -0.413589, -1005544.3, 130401.52, 0.0, 10.001417, 9.998772 
9.501067e+1, 1.9408214e+2, -924777.56, -1115602.0, 19276.703, 0.02325666, -0.39076927, -922849.75, 115106.445, 0.0, 10.0013075, 9.998769 
9.500883e+1, 2.04081e+2, -863462.1, -1052900.5, 15648.714, 0.0092204595, -0.3741618, -862178.2, 77790.51, 0.0, 10.00113, 9.998612 
9.500679e+1, 2.1407959e+2, -806387.06, -977628.4, 13634.918, -0.017882079, -0.37750167, -805308.2, 36675.438, 0.0, 10.000861, 9.998586 
9.5004797e+1, 2.2407824e+2, -740327.3, -893090.44, 9560.498, -0.03543529, -0.3709573, -739731.3, 4266.669, 0.0, 10.000633, 9.998603 
9.500289e+1, 2.3407705e+2, -666565.1, -807161.06, 9447.693, -0.03839138, -0.3530985, -665933.1, -19922.926, 0.0, 10.000469, 9.998599 
9.5001066e+1, 2.440759e+2, -581515.5, -694360.5, 4341.583, -0.026370015, -0.33522516, -581348.7, -33326.44, 0.0, 10.000288, 9.998788 
9.4999343e+1, 2.540748e+2, -512912.78, -609662.2, 4499.296, 0.0035593873, -0.33052602, -512704.0, -62670.336, 0.0, 10.000083, 9.9987955 
9.49972e+1, 2.6407364e+2, -421434.28, -469570.7, -6712.096, 0.004886269, -0.34157005, -420515.88, -68471.09, 0.0, 9.999845, 9.9992 
9.4994605e+1, 2.740726e+2, -363334.28, -387011.94, -10890.236, -0.025013283, -0.3755925, -359087.25, -105033.59, 0.0, 9.999554, 9.999233 
9.4992375e+1, 2.8407183e+2, -298878.75, -300246.28, -18107.496, -0.011589544, -0.37393975, -281442.13, -125382.64, 0.0000000042394483, 9.999302, 9.999277 
9.499046e+1, 2.9407147e+2, -220563.83, -200161.69, -19963.395, 0.039140005, -0.34578896, -187944.05, -129882.555, 0.000002739973, 9.999118, 9.99938 
9.498744e+1, 3.0407056e+2, -145057.3, 11606.816, -39604.73, 0.00084068987, -0.44317114, 21049.73, 21049.73, 0.000038513957, 9.998654, 10.000726 
9.498452e+1, 3.1407157e+2, -313249.88, -125594.34, -18846.717, 0.006339021, -0.41222948, -123720.24, -123720.24, 0.00016010099, 9.997741, 10.000223 
1.0502644e+2, 1.240934e+2, -1452142.6, -1673018.3, -6007.7427, 0.049677327, -0.401388, -1451979.4, 271861.34, 0.0007762847, 10.00217, 9.99924 
1.050246e+2, 1.3409053e+2, -1387099.1, -1696137.4, 15025.504, 0.065564714, -0.5212634, -1386370.3, 239498.14, 0.00043669788, 10.0023985, 9.998299 
1.0502244e+2, 1.4409004e+2, -1253833.0, -1517527.5, 16310.14, 0.060953453, -0.426001, -1252828.0, 275045.56, 0.00016867174, 10.002365, 9.998864 
1.0502043e+2, 1.540888e+2, -1215637.8, -1452062.6, 9359.951, 0.0636333, -0.43960452, -1215267.9, 214618.84, 0.000030278157, 10.00197, 9.998831 
1.0501828e+2, 1.6408768e+2, -1150423.5, -1377470.6, 7530.8516, 0.05563815, -0.42949462, -1150174.0, 181724.8, 0.0000004316036, 10.001779, 9.998763 
1.0501602e+2, 1.7408663e+2, -1039056.5, -1273831.3, 15169.348, 0.036116578, -0.41515866, -1038080.44, 195830.06, 0.0, 10.001875, 9.9987545 
1.0501387e+2, 1.8408547e+2, -955781.8, -1177966.3, 25072.943, 0.021922546, -0.4042507, -952987.56, 182935.14, 0.0, 10.001752, 9.9988 
1.050119e+2, 1.9408439e+2, -920211.3, -1110281.8, 24220.781, 0.015347608, -0.39848337, -917173.44, 120760.6, 0.0, 10.001324, 9.998798 
1.050099e+2, 2.0408322e+2, -877166.4, -1061987.5, 21694.59, 0.0059401253, -0.38426617, -874654.0, 65292.6, 0.0, 10.001046, 9.99859 
1.05007805e+2, 2.1408199e+2, -790821.25, -972410.2, 21090.592, -0.007955096, -0.36870393, -788403.9, 53556.45, 0.0, 10.000979, 9.998565 
1.0500561e+2, 2.2408067e+2, -713621.6, -874207.9, 16044.084, -0.025710689, -0.3585203, -712034.4, 31939.977, 0.0, 10.000792, 9.998657 
1.05003245e+2, 2.3407938e+2, -668404.25, -801590.4, 19032.367, -0.04821925, -0.3591168, -665737.9, -19750.404, 0.0, 10.000427, 9.998658 
1.05001114e+2, 2.4407823e+2, -596248.9, -692686.44, 20873.385, -0.043693822, -0.34713268, -591924.8, -43925.605, 0.0, 10.000149, 9.998867 
1.04999304e+2, 2.5407735e+2, -520367.06, -604025.4, 25790.492, -0.0038795609, -0.33024427, -513055.3, -63046.89, 0.0, 9.999991, 9.9988785 
1.0499702e+2, 2.6407626e+2, -432651.4, -480311.97, 16324.127, 0.0048985295, -0.33499154, -427596.4, -75577.64, 0.0, 9.999788, 9.999154 
1.0499418e+2, 2.7407512e+2, -372725.7, -398196.44, 14334.196, -0.021006031, -0.37268212, -366286.63, -112257.53, 0.0, 9.999517, 9.999175 
1.0499165e+2, 2.8407428e+2, -305147.4, -292264.13, 13804.624, -0.009985182, -0.38012573, -283472.2, -127436.586, 0.0000000012344323, 9.999211, 9.999377 
1.04989335e+2, 2.940739e+2, -252832.0, -203349.33, 26020.22, 0.028459992, -0.36270013, -192185.44, -134148.8, 0.0000020653147, 9.99884, 9.999494 
1.0498588e+2, 3.0407324e+2, -169242.27, -9125.511, -2359.8418, -0.01368441, -0.43925652, -9090.738, -9090.738, 0.00003243676, 9.998525, 10.000648 
1.04982674e+2, 3.1407404e+2, -245865.75, -109974.88, -2353.5813, 0.02154196, -0.4175209, -109934.13, -109934.13, 0.00014094144, 9.998275, 10.000074 
1.1502875e+2, 1.2409538e+2, -1434497.0, -1637895.8, -78.53395, 0.06188617, -0.42692256, -1434497.0, 289325.25, 0.0007384457, 10.002176, 9.999478 
1.15026966e+2, 1.3409342e+2, -1371941.3, -1663996.0, 23740.898, 0.062487867, -0.47760788, -1370023.9, 255816.98, 0.00041537013, 10.002395, 9.998521 
1.1502477e+2, 1.4409296e+2, -1266315.9, -1542414.6, 3708.4539, 0.057159346, -0.38408923, -1266266.1, 261579.47, 0.00016046493, 10.00236, 9.998695 
1.1502255e+2, 1.5409082e+2, -1229922.5, -1482908.1, -5166.692, 0.077152416, -0.46627873, -1229817.0, 200050.34, 0.000029173738, 10.001975, 9.998617 
1.150202e+2, 1.640895e+2, -1138043.0, -1352897.8, 9399.668, 0.069770254, -0.47055918, -1137632.5, 194248.6, 0.0000005105562, 10.001783, 9.998929 
1.150178e+2, 1.7408927e+2, -1024258.5, -1243414.5, 19024.346, 0.026124295, -0.39641085, -1022619.3, 211265.34, 0.0, 10.001876, 9.998963 
1.150154e+2, 1.8408838e+2, -957008.44, -1180201.4, 10709.791, 0.00002556777, -0.37078345, -956495.7, 179398.56, 0.0, 10.001751, 9.998785 
1.1501307e+2, 1.9408678e+2, -922887.3, -1115916.4, 8174.959, -0.0007684382, -0.41316286, -922541.7, 115369.06, 0.0, 10.001325, 9.998759 
1.150109e+2, 2.040855e+2, -878236.9, -1064096.1, 17955.846, 0.0017722902, -0.4064605, -876518.06, 63406.516, 0.0, 10.001045, 9.998577 
1.1500896e+2, 2.1408476e+2, -791365.75, -973402.5, 18755.33, 0.008713038, -0.34043884, -789453.5, 52480.402, 0.0, 10.000978, 9.998558 
1.1500665e+2, 2.240836e+2, -706748.06, -859699.25, 3256.3384, -0.0011895783, -0.31978533, -706678.75, 37267.742, 0.0, 10.00079, 9.998757 
1.1500382e+2, 2.3408192e+2, -661077.94, -786130.56, 5436.4004, -0.034287743, -0.3683667, -660842.06, -14879.277, 0.0, 10.000426, 9.998765 
1.1500123e+2, 2.4408069e+2, -586912.9, -672951.2, 14145.067, -0.04758455, -0.37747458, -584647.06, -36672.137, 0.0, 10.000148, 9.999003 
1.1499898e+2, 2.5408015e+2, -510026.25, -582280.4, 19889.41, -0.036002837, -0.34044772, -504913.13, -54932.66, 0.0, 9.99999, 9.999029 
1.1499653e+2, 2.640793e+2, -432654.8, -480171.16, 6065.0947, -0.02288735, -0.32907975, -431892.88, -79904.46, 0.0, 9.999788, 9.999155 
1.14993915e+2, 2.7407825e+2, -375158.47, -402713.78, 4165.8813, 0.0009862627, -0.35815138, -374542.44, -120543.75, 0.0, 9.999515, 9.9991455 
1.1499116e+2, 2.8407735e+2, -286893.9, -253436.05, 208.65625, 0.01955444, -0.38160563, -253434.75, -97429.29, 0.00000000006210851, 9.9992075, 9.999645 
1.1498794e+2, 2.940768e+2, -231212.9, -157920.2, 12489.832, 0.005025047, -0.41014433, -155850.28, -97844.0, 0.0000014487281, 9.998838, 9.999806 
1.14984065e+2, 3.0407637e+2, -189563.11, -51198.88, -12200.728, -0.047923006, -0.46418807, -50131.277, -50131.277, 0.000026628812, 9.998524, 10.00036 
1.14981264e+2, 3.1407723e+2, -273708.16, -166989.7, -11561.817, 0.05257298, -0.40371403, -165751.47, -165751.47, 0.00012196842, 9.998271, 9.999684 
1.2503141e+2, 1.2409796e+2, -1323378.1, -1602974.3, 38034.06, 0.06793575, -0.4548082, -1318296.6, 405499.4, 0.000709113, 10.003021, 9.999311 
1.2502947e+2, 1.3409613e+2, -1376110.1, -1689116.9, 30054.313, 0.07142614, -0.47044075, -1373250.5, 252564.28, 0.00040043768, 10.002466, 9.998314 
1.2502712e+2, 1.4409564e+2, -1281028.9, -1543486.0, 3823.6565, 0.062697165, -0.37075567, -1280973.1, 246847.14, 0.0001562618, 10.002233, 9.99875 
1.2502469e+2, 1.5409353e+2, -1153590.5, -1437086.3, 16978.094, 0.070302464, -0.4585184, -1152577.4, 277263.88, 0.000029665673, 10.0024605, 9.998698 
1.2502217e+2, 1.6409221e+2, -1055332.8, -1311281.5, 32442.61, 0.059976324, -0.4691433, -1051284.5, 280570.16, 0.0000007617598, 10.002342, 9.998946 
1.250196e+2, 1.740919e+2, -1044615.6, -1252696.3, 26084.889, 0.02632471, -0.40215474, -1041395.44, 192463.39, 0.0, 10.001732, 9.99897 
1.25017e+2, 1.8409105e+2, -1008459.4, -1203733.0, 13089.254, 0.0028968402, -0.37495, -1007585.9, 128282.48, 0.0, 10.00139, 9.998798 
1.250144e+2, 1.940896e+2, -906826.6, -1106425.0, 14866.578, -0.0058102272, -0.40245402, -905725.4, 132158.17, 0.0, 10.001428, 9.9987755 
1.2501195e+2, 2.0408839e+2, -843799.8, -1038478.1, 27374.113, -0.0066780075, -0.3928622, -840023.9, 99872.79, 0.0, 10.001244, 9.998657 
1.2500976e+2, 2.140876e+2, -818897.3, -977304.2, 34618.76, 0.0028406638, -0.34141433, -811662.06, 30244.154, 0.0, 10.000748, 9.998643 
1.2500724e+2, 2.2408646e+2, -759808.25, -882920.9, 22065.375, -0.0014453072, -0.32375476, -755972.94, -12054.374, 0.0, 10.000415, 9.998779 
1.2500428e+2, 2.3408495e+2, -676248.1, -791312.25, 17347.568, -0.024359554, -0.35952914, -673689.6, -27755.838, 0.0, 10.000314, 9.998783 
1.2500148e+2, 2.4408378e+2, -582024.94, -657264.94, 22078.164, -0.03684895, -0.36786684, -576024.9, -28079.623, 0.0, 10.000124, 9.999124 
1.24998845e+2, 2.5408322e+2, -528439.3, -576868.75, 26892.783, -0.038290612, -0.34489724, -516466.0, -66515.57, 0.0, 9.999803, 9.999158 
1.249961e+2, 2.640825e+2, -462750.9, -483595.84, 15680.665, -0.03128409, -0.33373147, -454344.9, -102387.91, 0.0, 9.999534, 9.999254 
1.249933e+2, 2.7408168e+2, -394934.22, -402056.25, 21676.914, -0.0023994234, -0.34652844, -376527.78, -122563.01, 0.0, 9.999333, 9.999238 
1.24990344e+2, 2.8408077e+2, -289559.28, -246947.52, 16080.654, 0.02038331, -0.37686545, -241560.19, -85588.914, 0.0, 9.999154, 9.999717 
1.2498688e+2, 2.9408002e+2, -203019.14, -136520.11, 10396.794, 0.0069967783, -0.4382826, -134932.53, -76958.23, 0.00000094519226, 9.999, 9.999876 
1.24982685e+2, 3.0407983e+2, -151037.72, -27244.541, -14812.947, -0.050521154, -0.47263664, -25496.719, -25496.719, 0.000021325412, 9.998767, 10.000407 
1.2497964e+2, 3.1408074e+2, -254997.78, -153473.61, 14909.343, 0.05776829, -0.41090962, -151329.39, -151329.39, 0.00010374953, 9.99838, 9.999726 
1.3503441e+2, 1.2410114e+2, -1365662.5, -1688556.4, 17701.88, 0.06666856, -0.48065063, -1364695.0, 359067.1, 0.0006877832, 10.003012, 9.998729 
1.3503213e+2, 1.3409863e+2, -1419073.0, -1781245.9, 9530.283, 0.088739805, -0.5012847, -1418822.4, 206968.2, 0.0003909241, 10.00248, 9.997677 
1.3502948e+2, 1.4409807e+2, -1259671.5, -1501675.9, 9264.906, 0.07420241, -0.38818097, -1259317.3, 268480.84, 0.00015498626, 10.002243, 9.999032 
1.3502687e+2, 1.5409695e+2, -1127293.0, -1381657.4, 25523.814, 0.042017557, -0.4148994, -1124757.1, 305050.94, 0.000031126136, 10.002457, 9.999081 
1.3502418e+2, 1.6409577e+2, -1066110.1, -1332017.6, 12158.279, 0.025516463, -0.42407316, -1065555.4, 266264.03, 0.0000011270397, 10.002336, 9.998807 
1.3502142e+2, 1.7409451e+2, -1057844.1, -1280872.1, 3216.699, 0.03515812, -0.43362632, -1057797.8, 176035.5, 0.0, 10.001736, 9.998775 
1.3501866e+2, 1.8409345e+2, -1004630.8, -1196572.3, 12305.37, 0.029125886, -0.4176692, -1003845.1, 132000.0, 0.0, 10.001393, 9.998846 
1.3501588e+2, 1.9409287e+2, -901549.25, -1095808.5, 16499.113, -0.00047912734, -0.36604348, -900157.9, 137694.48, 0.0, 10.001429, 9.998848 
1.3501306e+2, 2.040919e+2, -831888.56, -1013623.1, 10356.68, -0.020122534, -0.34341767, -831300.25, 108562.69, 0.0, 10.001243, 9.998829 
1.3501023e+2, 2.140905e+2, -806625.9, -951413.3, 15988.19, -0.026039833, -0.3715301, -804881.4, 36996.05, 0.0, 10.000746, 9.998822 
1.350074e+2, 2.2408926e+2, -764234.25, -891686.25, 16905.197, -0.02718486, -0.36994195, -762030.06, -18139.521, 0.0, 10.000413, 9.99872 
1.3500464e+2, 2.3408839e+2, -681530.44, -802152.75, 13703.578, -0.01977614, -0.3329341, -679993.25, -34092.52, 0.0, 10.000313, 9.99871 
1.3500184e+2, 2.4408746e+2, -574510.1, -641528.1, 10554.191, -0.012652073, -0.31900778, -572887.3, -24976.97, 0.0, 10.000123, 9.999232 
1.3499893e+2, 2.5408655e+2, -520332.72, -559739.8, 14936.333, -0.010839745, -0.3435701, -515311.28, -65392.93, 0.0, 9.999801, 9.999276 
1.3499574e+2, 2.6408583e+2, -449727.2, -456095.94, 7730.7427, -0.020220704, -0.348692, -444550.66, -92626.23, 0.0, 9.999532, 9.999444 
1.3499233e+2, 2.7408546e+2, -380136.16, -371059.25, 14403.585, -0.0333383, -0.33738658, -360496.03, -106568.77, 0.0, 9.999332, 9.999452 
1.349892e+2, 2.8408462e+2, -298545.84, -265367.47, 9770.319, -0.009744851, -0.36609304, -262704.13, -106771.04, 0.0, 9.999153, 9.999591 
1.3498615e+2, 2.940835e+2, -215785.45, -162114.78, 4939.882, 0.03365182, -0.4476133, -161663.89, -103723.07, 0.0000005800232, 9.998995, 9.999702 
1.3498174e+2, 3.0408356e+2, -124134.99, 29686.332, -28417.309, -0.021277888, -0.46526286, 34768.313, 34768.313, 0.000016654767, 9.998763, 10.0008 
1.3497779e+2, 3.140846e+2, -221222.6, -82101.35, -395.83368, 0.034539245, -0.43827242, -82100.23, -82100.23, 0.00008670888, 9.998376, 10.000218 
1.450375e+2, 1.24104425e+2, -1356317.3, -1696337.5, -10462.198, 0.06989636, -0.4730518, -1355995.6, 367734.7, 0.0006728006, 10.003128, 9.998619 
1.450349e+2, 1.3410178e+2, -1333996.3, -1754985.0, 18560.078, 0.0853604, -0.49484333, -1333179.6, 292580.75, 0.00038500954, 10.003127, 9.997544 
1.4503196e+2, 1.4410104e+2, -1174944.5, -1463130.5, 29259.338, 0.067347646, -0.38846982, -1172003.8, 355765.78, 0.00015511648, 10.002834, 9.999012 
1.4502904e+2, 1.5410003e+2, -1178252.5, -1407788.8, 16312.937, 0.03164529, -0.40286094, -1177098.9, 252679.69, 0.00003278088, 10.002112, 9.999067 
1.450261e+2, 1.6409892e+2, -1144193.4, -1364174.4, -4382.298, 0.014969558, -0.4089369, -1144106.1, 187683.33, 0.0000015078091, 10.001776, 9.998857 
1.4502323e+2, 1.7409764e+2, -1018605.9, -1255874.3, 4989.3823, 0.029781932, -0.4256191, -1018501.0, 215302.33, 0.0, 10.001978, 9.99883 
1.4502028e+2, 1.840966e+2, -934355.3, -1154997.5, 21965.158, 0.029414184, -0.41261265, -932189.94, 203624.83, 0.0, 10.0018425, 9.998916 
1.4501725e+2, 1.940961e+2, -926558.25, -1100303.4, 25317.85, 0.005468211, -0.3602529, -922944.1, 114876.984, 0.0, 10.001223, 9.998917 
1.4501417e+2, 2.040952e+2, -885299.7, -1029149.94, 16931.242, -0.01429336, -0.33937684, -883333.75, 56497.227, 0.0, 10.000832, 9.99892 
1.4501096e+2, 2.1409383e+2, -797032.7, -936105.0, 16196.316, -0.028059315, -0.371501, -795171.4, 46673.39, 0.0, 10.000767, 9.998917 
1.4500785e+2, 2.2409272e+2, -731157.4, -863816.75, 21851.066, -0.032346636, -0.3693932, -727650.9, 16205.937, 0.0, 10.000589, 9.998826 
1.4500491e+2, 2.3409203e+2, -682647.1, -790860.0, 32766.725, -0.02153744, -0.3263188, -673498.8, -27633.422, 0.0, 10.000254, 9.998816 
1.4500193e+2, 2.4409117e+2, -595590.0, -645444.5, 32918.9, -0.0062239715, -0.31222022, -579225.3, -31351.135, 0.0, 9.999951, 9.999288 
1.449989e+2, 2.5409022e+2, -532505.3, -560149.75, 31293.38, 0.010186336, -0.34355673, -512117.47, -62235.21, 0.0, 9.999694, 9.999325 
1.449954e+2, 2.640895e+2, -451374.97, -446987.06, 21860.361, -0.0041820016, -0.3540195, -427210.84, -75322.89, 0.0, 9.999477, 9.999533 
1.4499149e+2, 2.7408916e+2, -377499.3, -358813.56, 20645.23, -0.049097348, -0.3491686, -345495.56, -91605.586, 0.0, 9.999305, 9.999549 
1.449881e+2, 2.840884e+2, -312284.88, -268908.13, 13903.592, -0.029592618, -0.3811117, -264834.22, -108938.74, 0.0, 9.999046, 9.999618 
1.4498511e+2, 2.9408738e+2, -262476.0, -184097.73, 22485.885, 0.047379777, -0.45421955, -178104.98, -120202.06, 0.00000034163278, 9.998671, 9.999708 
1.4498055e+2, 3.040877e+2, -148448.44, 15273.519, -9356.182, -0.0076606018, -0.44324315, 15806.46, 15806.46, 0.000012640429, 9.998607, 10.000776 
1.4497627e+2, 3.1408826e+2, -139182.1, -36761.215, -18968.09, 0.019203365, -0.4616475, -33361.24, -33361.24, 0.000071064576, 9.998915, 10.000271 
1.5504068e+2, 1.2410773e+2, -1329246.4, -1642558.1, -12229.226, 0.07205619, -0.43588883, -1328769.8, 394931.66, 0.0006609735, 10.003138, 9.998984 
1.5503778e+2, 1.3410553e+2, -1308402.5, -1700629.8, 18313.451, 0.060572688, -0.44970804, -1307549.4, 318174.84, 0.00037997565, 10.003121, 9.99792 
1.5503451e+2, 1.4410461e+2, -1198891.5, -1510627.8, 4403.897, 0.04165402, -0.36956084, -1198829.4, 328905.06, 0.00015479715, 10.002826, 9.998691 
1.5503122e+2, 1.541028e+2, -1205690.9, -1465935.4, -10577.784, 0.036600646, -0.4234075, -1205261.6, 224491.17, 0.000033834087, 10.002117, 9.998665 
1.55028e+2, 1.6410163e+2, -1126821.8, -1329540.1, 95.07725, 0.025749957, -0.42519656, -1126821.6, 204943.4, 0.0000017896223, 10.001781, 9.999091 
1.55025e+2, 1.741013e+2, -997413.4, -1211627.1, 12860.522, 0.009467836, -0.37764797, -996644.06, 237124.97, 0.0, 10.001977, 9.999134 
1.5502186e+2, 1.8410051e+2, -928789.4, -1142511.4, 1209.0624, 0.0031886713, -0.35940284, -928782.56, 206994.66, 0.0, 10.001839, 9.999003 
1.5501854e+2, 1.9409929e+2, -921885.3, -1090707.5, 1920.2012, 0.0110458005, -0.38526702, -921863.5, 115926.445, 0.0, 10.001224, 9.998982 
1.5501525e+2, 2.0409827e+2, -884371.6, -1027307.75, 12564.745, 0.009921096, -0.3809251, -883275.56, 56525.355, 0.0, 10.000832, 9.998933 
1.5501197e+2, 2.1409763e+2, -796266.1, -934508.3, 14015.433, -0.004481627, -0.3415626, -794859.5, 46948.832, 0.0, 10.000766, 9.998928 
1.5500858e+2, 2.2409682e+2, -712109.25, -824069.75, 10011.113, -0.018155308, -0.3225162, -711221.1, 32596.264, 0.0, 10.000588, 9.9991 
1.5500508e+2, 2.3409581e+2, -662227.2, -748170.56, 20200.986, -0.029644443, -0.3395648, -657715.75, -11887.962, 0.0, 10.000253, 9.999109 
1.5500177e+2, 2.440949e+2, -595888.06, -645772.7, 22921.113, -0.017825833, -0.34702367, -586955.7, -39118.977, 0.0, 9.99995, 9.999287 
1.549987e+2, 2.5409427e+2, -534220.56, -563676.56, 21804.373, 0.022665787, -0.34495065, -522636.13, -72793.945, 0.0, 9.999694, 9.999301 
1.5499508e+2, 2.640936e+2, -452160.1, -448368.34, 15035.598, 0.014744195, -0.35030454, -435109.56, -83261.914, 0.0, 9.999476, 9.999523 
1.5499078e+2, 2.7409285e+2, -378585.16, -360463.78, 14265.939, -0.050114203, -0.38183525, -352624.38, -98771.37, 0.0, 9.999302, 9.999538 
1.5498705e+2, 2.840921e+2, -299817.97, -243018.86, 252.42168, -0.03893332, -0.4219533, -243017.75, -87159.28, 0.0, 9.999045, 9.999796 
1.5498377e+2, 2.940916e+2, -248819.8, -155942.25, 9088.779, 0.046813767, -0.45785102, -155061.2, -97200.65, 0.00000019535571, 9.998672, 9.999902 
1.5497911e+2, 3.0409226e+2, -180444.95, -50382.715, 709.1713, -0.01208455, -0.40678525, -50378.848, -50378.848, 0.000009261703, 9.998604, 10.000326 
1.5497507e+2, 3.1409177e+2, -167914.39, -95227.195, -8000.857, 0.006918839, -0.48170158, -94356.94, -94356.94, 0.000056915687, 9.998909, 9.99987 
1.6504401e+2, 1.241113e+2, -1245492.6, -1586176.3, -5908.335, 0.06548649, -0.39964887, -1245390.3, 478279.0, 0.000647907, 10.003643, 9.999127 
1.6504067e+2, 1.3410912e+2, -1329597.1, -1694721.9, 7216.013, 0.04833553, -0.4256235, -1329454.5, 296235.63, 0.00037279638, 10.002905, 9.998064 
1.650371e+2, 1.4410807e+2, -1250234.3, -1541241.6, -5434.49, 0.03375985, -0.36486542, -1250132.8, 277568.38, 0.0001524271, 10.002498, 9.998637 
1.6503356e+2, 1.5410621e+2, -1149786.4, -1447233.5, 3087.9355, 0.039226405, -0.41593993, -1149754.4, 279966.3, 0.000033788867, 10.002537, 9.998591 
1.6503009e+2, 1.6410507e+2, -1051126.6, -1282854.0, 24760.268, 0.03186112, -0.4140425, -1048510.44, 283222.25, 0.0000018950186, 10.002257, 9.999183 
1.6502674e+2, 1.7410488e+2, -1056556.0, -1228211.5, 22918.043, 0.0077810735, -0.36181867, -1053548.9, 180185.77, 0.0, 10.001519, 9.99924 
1.6502331e+2, 1.8410417e+2, -1020661.2, -1178238.0, 5196.319, -0.0020430484, -0.3469714, -1020490.0, 115251.914, 0.0, 10.001171, 9.99908 
1.6501981e+2, 1.9410288e+2, -895173.1, -1069769.5, 6263.9614, 0.00851028, -0.3868596, -894948.7, 142806.48, 0.0, 10.001372, 9.999055 
1.650163e+2, 2.041019e+2, -818065.3, -984994.7, 15773.569, 0.011737911, -0.38744757, -816587.94, 123177.78, 0.0, 10.001242, 9.999026 
1.6501275e+2, 2.1410142e+2, -807610.56, -929388.2, 22970.936, 0.0035229702, -0.340707, -803421.6, 38349.74, 0.0, 10.000642, 9.999023 
1.650091e+2, 2.2410074e+2, -753930.8, -829096.3, 21370.627, -0.008376177, -0.31966153, -748279.7, -4500.7803, 0.0, 10.000236, 9.999235 
1.6500531e+2, 2.3409982e+2, -673369.8, -737998.3, 20076.066, -0.024142232, -0.34146553, -667641.2, -21852.928, 0.0, 10.00011, 9.9992485 
1.6500174e+2, 2.4409899e+2, -588946.8, -634355.3, 19638.725, -0.016848916, -0.3522007, -581631.7, -33835.32, 0.0, 9.999964, 9.999358 
1.649984e+2, 2.5409842e+2, -516688.4, -547400.75, 25577.473, 0.018755123, -0.35069385, -502211.4, -52410.008, 0.0, 9.999781, 9.99937 
1.649946e+2, 2.6409784e+2, -438190.63, -433738.6, 24347.03, 0.015620249, -0.35356295, -411516.03, -59710.145, 0.0, 9.999539, 9.999594 
1.6499023e+2, 2.7409723e+2, -387143.47, -356810.28, 29088.463, -0.030396683, -0.38007382, -339171.94, -85362.1, 0.0, 9.99921, 9.999607 
1.6498627e+2, 2.8409648e+2, -303076.1, -248490.31, 14084.808, -0.020502644, -0.42324927, -245070.27, -89254.8, 0.0, 9.999041, 9.99976 
1.6498253e+2, 2.9409584e+2, -192281.73, -134413.69, 4797.6855, 0.035288487, -0.46746787, -134018.63, -76199.28, 0.00000010392393, 9.999086, 9.999848 
1.6497768e+2, 3.0409664e+2, -126146.8, -46446.766, 3631.1484, -0.03710501, -0.38705072, -46281.67, -46281.67, 0.0000064948904, 9.999072, 10.000126 
1.6497399e+2, 3.1409585e+2, -169616.69, -101579.44, 15676.387, 0.007973047, -0.47259462, -98141.21, -98141.21, 0.00004432351, 9.99892, 9.99982 
1.7504747e+2, 1.24115154e+2, -1252016.6, -1598441.0, -32246.547, 0.048445705, -0.36239353, -1249040.6, 474593.0, 0.0006289189, 10.003638, 9.999045 
1.7504355e+2, 1.3411255e+2, -1334827.0, -1706672.3, -19832.395, 0.046148147, -0.4234078, -1333772.3, 291886.25, 0.00036083558, 10.00291, 9.997979 
1.750397e+2, 1.4411141e+2, -1234759.4, -1510435.1, -6635.003, 0.041056003, -0.37584096, -1234599.8, 293070.25, 0.00014701553, 10.002503, 9.998846 
1.750361e+2, 1.5411025e+2, -1132535.9, -1411327.9, 4733.8906, 0.038240932, -0.3797905, -1132455.5, 297226.6, 0.00003249045, 10.002536, 9.998837 
1.7503235e+2, 1.6410927e+2, -1055129.6, -1290395.0, -641.9806, 0.03249571, -0.37461865, -1055127.9, 276564.47, 0.0000018022155, 10.002254, 9.999132 
1.7502841e+2, 1.7410843e+2, -1062480.9, -1240691.5, -4714.8916, 0.023324676, -0.37826028, -1062356.1, 171344.11, 0.0, 10.00152, 9.999154 
1.7502463e+2, 1.8410757e+2, -1016158.2, -1169205.4, 9718.546, 0.011934534, -0.37555605, -1015543.5, 120165.4, 0.0, 10.001172, 9.999141 
1.7502107e+2, 1.9410688e+2, -889666.06, -1058278.1, 14178.383, -0.00282907, -0.36502257, -888482.1, 149234.77, 0.0, 10.001371, 9.999134 
1.7501731e+2, 2.0410606e+2, -806344.0, -960343.4, -4294.821, -0.009418013, -0.3590025, -806224.4, 133501.08, 0.0, 10.001241, 9.999196 
1.750133e+2, 2.1410522e+2, -795361.0, -903579.06, 266.32394, -0.004751992, -0.3689647, -795360.3, 46373.473, 0.0, 10.00064, 9.999202 
1.7500937e+2, 2.241045e+2, -754253.75, -829503.56, 14969.587, -0.0037565364, -0.36052606, -751385.2, -7643.8003, 0.0, 10.000235, 9.999233 
1.750056e+2, 2.3410405e+2, -674546.56, -740572.56, 15572.132, -0.0063039404, -0.3324425, -671058.2, -25311.293, 0.0, 10.00011, 9.99923 
1.7500183e+2, 2.4410345e+2, -578780.0, -613166.3, 12888.41, -0.004594204, -0.3280954, -574485.56, -26732.258, 0.0, 9.999963, 9.999504 
1.7499797e+2, 2.5410268e+2, -505521.47, -523990.25, 18819.248, -0.0021351886, -0.3607236, -493793.1, -44033.215, 0.0, 9.99978, 9.999531 
1.7499396e+2, 2.6410225e+2, -427705.38, -412028.47, 12306.275, -0.0014450838, -0.3635929, -405276.3, -53513.65, 0.0, 9.999539, 9.9997425 
1.7498983e+2, 2.7410227e+2, -376539.78, -335020.72, 16936.66, 0.009004705, -0.34433463, -328988.3, -75227.734, 0.0, 9.99921, 9.999757 
1.7498575e+2, 2.8410146e+2, -321415.28, -286149.3, 14607.193, 0.023813937, -0.38541088, -280884.88, -125118.24, 0.0, 9.99904, 9.999502 
1.7498139e+2, 2.9410005e+2, -214065.86, -179062.05, 7205.684, 0.011005594, -0.4823451, -177636.77, -119857.38, 0.00000004563321, 9.9990835, 9.999542 
1.749763e+2, 3.041009e+2, -121720.34, -37615.99, -994.80054, -0.083998926, -0.38312733, -37604.223, -37604.223, 0.000004309572, 9.999073, 10.000187 
1.7497306e+2, 3.1410056e+2, -147344.27, -55986.69, 7354.6763, 0.021519335, -0.43235105, -55398.4, -55398.4, 0.000033325945, 9.998922, 10.000133 
1.8505092e+2, 1.24119185e+2, -1293259.4, -1627850.6, -2816.2634, 0.040990483, -0.3665551, -1293235.8, 430358.47, 0.0006001509, 10.003395, 9.99896 
1.8504658e+2, 1.3411655e+2, -1298498.6, -1697946.8, 8202.478, 0.044343118, -0.4238466, -1298330.3, 327289.63, 0.00034227368, 10.003197, 9.997901 
1.8504237e+2, 1.4411537e+2, -1185810.5, -1480818.0, 21961.664, 0.04427828, -0.37752905, -1184184.5, 343447.44, 0.00013807035, 10.002813, 9.9989 
1.850384e+2, 1.5411453e+2, -1181514.6, -1427165.1, 20678.268, 0.03381888, -0.35811344, -1179786.1, 249854.98, 0.000029920388, 10.002167, 9.998907 
1.8503433e+2, 1.6411355e+2, -1121352.6, -1321410.1, 8029.6304, 0.027997172, -0.3541973, -1121030.9, 210620.05, 0.0000015280342, 10.001795, 9.999141 
1.8503013e+2, 1.741124e+2, -1021482.06, -1220990.3, 9491.283, 0.02909435, -0.3909316, -1021031.56, 212630.0, 0.0, 10.0018015, 9.999154 
1.8502608e+2, 1.841115e+2, -954665.94, -1135671.3, 33108.383, 0.019916791, -0.39289504, -948800.06, 186870.36, 0.0, 10.001577, 9.999176 
1.8502225e+2, 1.941112e+2, -937238.8, -1076609.0, 35303.984, -0.0045643016, -0.34752116, -928806.1, 108869.02, 0.0, 10.001025, 9.999175 
1.8501824e+2, 2.041105e+2, -886469.56, -995004.0, 5585.685, -0.0132319555, -0.33354047, -886182.9, 53499.793, 0.0, 10.000673, 9.999231 
1.8501398e+2, 2.1410939e+2, -797256.7, -900866.44, -1503.7987, 0.0001389261, -0.37265134, -797234.9, 44458.39, 0.0, 10.000611, 9.999234 
1.8500978e+2, 2.2410862e+2, -722773.8, -806201.44, 12702.318, 0.0052744616, -0.37455395, -720882.7, 22818.47, 0.0, 10.000416, 9.999306 
1.8500575e+2, 2.3410843e+2, -680572.3, -734708.5, 20501.305, 0.0007806837, -0.3300425, -673684.75, -27980.402, 0.0, 10.0000305, 9.999309 
1.8500172e+2, 2.4410795e+2, -608070.75, -620841.9, 21483.623, -0.00058392267, -0.31805554, -592043.8, -44334.313, 0.0, 9.999735, 9.99956 
1.8499763e+2, 2.541072e+2, -533320.5, -531320.6, 19548.0, -0.0030949162, -0.354245, -512747.0, -63030.977, 0.0, 9.999563, 9.999585 
1.8499339e+2, 2.6410684e+2, -443383.9, -415322.0, 2993.7305, -0.0056103747, -0.35676467, -415006.2, -63287.754, 0.0, 9.9994135, 9.99978 
1.8498905e+2, 2.741069e+2, -363584.75, -324375.53, -1481.2153, 0.004849249, -0.3334358, -324319.66, -70604.1, 0.0, 9.999282, 9.999795 
1.8498483e+2, 2.841061e+2, -303650.28, -277026.47, 7698.7666, 0.022014247, -0.37734258, -274960.53, -119238.95, 0.0, 9.999159, 9.999506 
1.8498047e+2, 2.941046e+2, -219872.8, -182847.52, 23694.752, 0.014048594, -0.48160604, -171290.92, -113555.95, 0.000000013949684, 9.999048, 9.999533 
1.8497531e+2, 3.0410552e+2, -142633.88, -67267.85, 18488.572, -0.08614817, -0.3654262, -62976.625, -62976.625, 0.0000026617806, 9.999014, 10.0000105 
1.8497194e+2, 3.1410494e+2, -125738.29, -37568.78, 1468.5436, 0.013134653, -0.4249197, -37544.33, -37544.33, 0.00002394661, 9.999037, 10.000203 
1.9505432e+2, 1.2412341e+2, -1299341.9, -1640993.1, -9745.546, 0.041155238, -0.41172975, -1299064.0, 424487.06, 0.000559594, 10.003396, 9.998869 
1.9504978e+2, 1.341211e+2, -1303665.5, -1708775.9, 916.4919, 0.04193061, -0.42617935, -1303663.4, 321911.03, 0.00031629903, 10.003197, 9.997827 
1.9504517e+2, 1.4411996e+2, -1192909.8, -1495406.9, -909.5343, 0.04222662, -0.36926016, -1192907.0, 334680.06, 0.00012542125, 10.002812, 9.9988 
1.9504048e+2, 1.54119e+2, -1188784.8, -1442419.4, -3300.103, 0.025045715, -0.35090056, -1188741.9, 240855.97, 0.000026112697, 10.002167, 9.998802 
1.9503602e+2, 1.6411795e+2, -1117054.1, -1312518.3, 6184.3677, 0.01744625, -0.35284096, -1116858.6, 214749.77, 0.0000011234973, 10.001795, 9.999202 
1.950319e+2, 1.7411678e+2, -1015684.8, -1209089.8, 10091.497, 0.02458874, -0.3995653, -1015159.7, 218458.88, 0.0, 10.001802, 9.999236 
1.9502768e+2, 1.8411596e+2, -954058.8, -1134283.5, 14083.679, 0.021074956, -0.39880165, -952964.9, 182661.64, 0.0, 10.001576, 9.9991865 
1.9502334e+2, 1.9411583e+2, -937085.2, -1076189.4, 14460.944, 0.0025665816, -0.3343345, -935597.75, 102032.16, 0.0, 10.001024, 9.999178 
1.9501904e+2, 2.041152e+2, -893463.25, -1009463.25, 1566.1836, -0.0006632784, -0.31077608, -893442.06, 46195.32, 0.0, 10.000673, 9.999132 
1.9501476e+2, 2.1411397e+2, -805059.5, -916866.56, -3515.249, 0.017019086, -0.35210323, -804949.1, 36700.582, 0.0, 10.00061, 9.999125 
1.9501033e+2, 2.241131e+2, -712869.75, -785489.2, -828.7367, 0.017709779, -0.3618235, -712860.3, 30797.97, 0.0, 10.000415, 9.999448 
1.9500574e+2, 2.3411292e+2, -668705.0, -709883.1, 6071.301, -0.0035584397, -0.334588, -667828.56, -22167.762, 0.0, 10.00003, 9.999479 
1.9500141e+2, 2.4411252e+2, -610432.0, -625696.4, 14243.362, -0.0052744225, -0.32188842, -601904.9, -54239.99, 0.0, 9.999734, 9.999528 
1.9499737e+2, 2.54112e+2, -537071.0, -539238.06, 13343.713, 0.015057319, -0.33184427, -524766.94, -75097.01, 0.0, 9.999563, 9.99953 
1.9499288e+2, 2.6411158e+2, -449043.4, -427039.9, -2228.1997, 0.0022638883, -0.33349526, -426816.53, -75143.27, 0.0, 9.9994135, 9.9997 
1.9498783e+2, 2.741112e+2, -369357.22, -336207.8, -6471.1533, -0.04422193, -0.34698614, -334989.34, -81314.47, 0.0, 9.999281, 9.999715 
1.9498351e+2, 2.8411043e+2, -284794.25, -237503.78, 3359.1914, -0.026982255, -0.39835, -237266.36, -81585.9, 0.0, 9.999158, 9.999779 
1.9497983e+2, 2.9410955e+2, -199494.11, -140543.5, 20237.336, 0.04424814, -0.46584508, -134264.88, -76578.65, 0.0000000023315327, 9.999048, 9.999824 
1.9497477e+2, 3.041106e+2, -172156.72, -128497.53, 19238.729, -0.04361373, -0.3346775, -121229.7, -121229.7, 0.0000014940416, 9.999014, 9.99959 
1.9497065e+2, 3.1410897e+2, -138744.77, -64213.707, -507.9611, -0.020172862, -0.45019996, -64210.246, -64210.246, 0.000016254342, 9.999036, 10.000021 
2.0505765e+2, 1.2412804e+2, -1300810.9, -1641183.9, -10813.848, 0.03379628, -0.42791742, -1300467.6, 423037.84, 0.0005079089, 10.003386, 9.998873 
2.0505275e+2, 1.3412611e+2, -1337684.4, -1721730.4, 5818.2476, 0.032192092, -0.4088489, -1337596.3, 287929.5, 0.00028337847, 10.00295, 9.997857 
2.0504782e+2, 1.4412493e+2, -1234262.1, -1523442.8, 3198.862, 0.037989754, -0.3542928, -1234226.8, 293312.25, 0.00010934245, 10.002563, 9.998728 
2.0504266e+2, 1.541237e+2, -1186361.9, -1450317.5, 1406.6785, 0.02284954, -0.3552707, -1186354.4, 243197.95, 0.000021261263, 10.002223, 9.998721 
2.0503785e+2, 1.6412254e+2, -1096694.1, -1301256.8, 23825.643, 0.0136123495, -0.36237076, -1093955.8, 237607.9, 0.00000067965186, 10.001928, 9.999215 
2.0503353e+2, 1.7412156e+2, -1028401.25, -1212456.8, 24532.893, 0.012692609, -0.39315283, -1025187.3, 208384.58, 0.0, 10.001703, 9.999261 
2.0502907e+2, 1.8412077e+2, -978762.06, -1155416.4, 12264.862, 0.010252092, -0.38625938, -977914.56, 157665.06, 0.0, 10.001447, 9.999104 
2.0502447e+2, 1.9412047e+2, -925962.75, -1081163.1, 4114.3257, 0.005960096, -0.3299348, -925853.75, 111731.54, 0.0, 10.001145, 9.999086 
2.0501989e+2, 2.0411982e+2, -861724.8, -988381.94, 2254.275, 0.008688391, -0.30680147, -861684.7, 77908.63, 0.0, 10.000866, 9.999184 
2.0501539e+2, 2.1411875e+2, -798620.75, -906296.25, 11034.899, 0.020017186, -0.33744106, -797501.5, 44102.277, 0.0, 10.000623, 9.999192 
2.0501073e+2, 2.2411796e+2, -719582.0, -790837.56, 10157.544, 0.017281475, -0.34347656, -718162.3, 25449.387, 0.0, 10.000378, 9.999429 
2.0500581e+2, 2.3411766e+2, -655300.06, -706367.6, 1693.4772, -0.0033809342, -0.32276258, -655243.94, -9628.657, 0.0, 10.000135, 9.999454 
2.0500124e+2, 2.4411725e+2, -585880.6, -609328.75, 7690.5415, -0.0030248945, -0.31321308, -583583.3, -35963.71, 0.0, 9.999884, 9.999568 
2.0499703e+2, 2.541168e+2, -526232.1, -528772.44, 14200.71, 0.021802064, -0.32123378, -513244.88, -63621.234, 0.0, 9.999616, 9.999577 
2.0499232e+2, 2.6411635e+2, -452490.16, -437210.47, 6954.7407, 0.004650452, -0.3231654, -434519.03, -82891.95, 0.0, 9.999426, 9.999624 
2.04987e+2, 2.7411583e+2, -366532.66, -344785.22, 2324.1418, -0.058392193, -0.338964, -344539.6, -90909.4, 0.0, 9.999343, 9.999626 
2.0498255e+2, 2.8411502e+2, -277589.06, -230359.25, 923.40985, -0.040490463, -0.3919414, -230341.2, -74704.89, 0.0, 9.999191, 9.999811 
2.0497893e+2, 2.9411423e+2, -213998.95, -143748.31, -2204.22, 0.05598823, -0.45912576, -143679.22, -86038.09, 0.000000000097020676, 9.998933, 9.999858 
2.0497383e+2, 3.0411518e+2, -197462.77, -159778.78, 7398.3965, -0.033544313, -0.3294341, -158378.33, -158378.33, 0.00000072960836, 9.998922, 9.999421 
2.0496956e+2, 3.1411326e+2, -103073.91, -33956.082, 6932.435, -0.04275146, -0.45966953, -33267.625, -33267.625, 0.000010315381, 9.999224, 10.000139 
2.1506086e+2, 1.2413309e+2, -1294452.9, -1627998.8, -26002.035, 0.017056286, -0.41549322, -1292438.1, 431019.28, 0.0004482875, 10.003385, 9.998963 
2.1505553e+2, 1.3413154e+2, -1328747.0, -1702869.3, -9955.7, 0.014620384, -0.37250614, -1328482.3, 296991.72, 0.00024549337, 10.002948, 9.997988 
2.1505031e+2, 1.4413023e+2, -1237714.4, -1530339.8, -9910.208, 0.030591097, -0.33274522, -1237379.1, 290108.84, 0.00009091261, 10.0025625, 9.998682 
2.1504492e+2, 1.5412857e+2, -1190209.4, -1458529.6, -11126.435, 0.02648186, -0.37091875, -1189748.9, 239755.98, 0.000015871614, 10.002224, 9.998665 
2.1503979e+2, 1.6412733e+2, -1098933.5, -1306375.6, 15086.796, 0.015454925, -0.38244733, -1097842.1, 233674.75, 0.00000031009594, 10.00193, 9.99918 
2.1503504e+2, 1.7412671e+2, -1030545.5, -1217253.6, 16292.51, -0.0072549507, -0.37178618, -1029134.44, 204387.31, 0.0, 10.001704, 9.999228 
2.1503028e+2, 1.8412594e+2, -990930.75, -1180593.9, 1117.3275, -0.013405727, -0.35542735, -990924.1, 144605.83, 0.0, 10.001447, 9.998931 
2.150256e+2, 1.941251e+2, -938932.0, -1108169.0, -7029.4883, 0.0051596723, -0.3342736, -938640.5, 98900.85, 0.0, 10.001146, 9.9989 
2.1502084e+2, 2.0412433e+2, -847637.56, -959065.44, -7000.5825, 0.014153175, -0.32158074, -847199.5, 92351.016, 0.0, 10.000866, 9.999385 
2.1501592e+2, 2.1412374e+2, -781713.44, -871070.25, 2128.6726, 0.008554092, -0.3284159, -781662.75, 59892.773, 0.0, 10.000622, 9.999434 
2.1501096e+2, 2.2412315e+2, -732434.44, -817288.06, 926.4932, 0.0032731374, -0.31931147, -732424.3, 11137.191, 0.0, 10.000377, 9.9992485 
2.15006e+2, 2.3412268e+2, -671223.3, -739234.56, -7358.081, 0.0006984602, -0.29478735, -670436.4, -24868.375, 0.0, 10.000134, 9.999228 
2.1500121e+2, 2.4412212e+2, -578106.6, -593252.6, -2517.232, 0.005636648, -0.2920679, -577699.2, -30125.408, 0.0, 9.999884, 9.999679 
2.1499659e+2, 2.5412157e+2, -515974.5, -507205.03, 4205.7593, 0.016183272, -0.32245216, -505514.06, -55936.766, 0.0, 9.999615, 9.999726 
2.1499172e+2, 2.6412117e+2, -458075.53, -448386.47, 3185.1365, 0.00092606654, -0.32500333, -447433.2, -95853.336, 0.0, 9.999425, 9.999549 
2.1498655e+2, 2.741209e+2, -373558.7, -359412.66, -459.2377, -0.038333263, -0.30985746, -359397.78, -105816.12, 0.0, 9.999343, 9.999526 
2.1498194e+2, 2.8411993e+2, -292270.78, -261188.14, -8700.549, -0.01887543, -0.35871226, -258918.45, -103329.14, 0.0, 9.999192, 9.9996 
2.1497779e+2, 2.9411858e+2, -229939.78, -176984.84, -11963.27, 0.047747552, -0.46127257, -174407.61, -116807.805, 0.0, 9.998933, 9.99963 
2.1497251e+2, 3.0411926e+2, -191941.08, -147167.94, 17402.154, -0.05731408, -0.34878534, -141199.73, -141199.73, 0.0000002906552, 9.998919, 9.999509 
2.1496864e+2, 3.141177e+2, -73451.08, 28154.17, 14867.827, -0.056689624, -0.45440927, 30285.078, 30285.078, 0.0000060416633, 9.999222, 10.0005665 
2.2506408e+2, 1.2413862e+2, -1333936.3, -1643578.6, -15954.96, 0.014505546, -0.38685706, -1333116.4, 390287.97, 0.0003850475, 10.0031, 9.998994 
2.250582e+2, 1.3413702e+2, -1370103.4, -1715587.9, -6962.1123, 0.0030585632, -0.35519692, -1369963.1, 255458.19, 0.00020561775, 10.002634, 9.998052 
2.250527e+2, 1.441356e+2, -1262059.6, -1536611.1, 4061.7246, 0.022934232, -0.3340376, -1261999.5, 265436.66, 0.00007189719, 10.002372, 9.998732 
2.250472e+2, 1.5413398e+2, -1158928.5, -1437593.4, 11287.921, 0.021760207, -0.37393415, -1158472.0, 270979.84, 0.000010694928, 10.002414, 9.998717 
2.2504184e+2, 1.6413271e+2, -1068189.3, -1305631.9, 30474.164, 0.012667624, -0.3827303, -1064340.5, 267123.28, 0.000000092361944, 10.002202, 9.999054 
2.2503665e+2, 1.7413206e+2, -1051894.6, -1243433.9, 22530.389, -0.010711963, -0.3611724, -1049280.1, 184189.84, 0.0, 10.001626, 9.999085 
2.250316e+2, 1.8413125e+2, -1020645.1, -1195524.0, 15785.114, -0.016154844, -0.34139773, -1019231.7, 116247.24, 0.0, 10.001245, 9.998926 
2.2502674e+2, 1.9413035e+2, -938812.4, -1107249.6, 22418.025, 0.0046656225, -0.32833233, -935879.75, 101611.0, 0.0, 10.0011425, 9.998909 
2.250217e+2, 2.0412952e+2, -840720.94, -959736.4, 18830.559, 0.011530118, -0.31916836, -837812.6, 101687.63, 0.0, 10.000931, 9.99935 
2.2501639e+2, 2.1412893e+2, -793365.5, -880963.6, 6593.55, -0.0023954136, -0.322665, -792872.0, 48633.695, 0.0, 10.000562, 9.999395 
2.250112e+2, 2.2412837e+2, -739811.7, -818181.4, 6334.8047, -0.006737149, -0.30884594, -739302.94, 4208.405, 0.0, 10.000316, 9.999272 
2.2500621e+2, 2.3412798e+2, -653912.7, -728086.25, 17354.967, 0.00446201, -0.27738598, -650052.9, -4536.3, 0.0, 10.000241, 9.999253 
2.2500125e+2, 2.4412735e+2, -557318.4, -596203.5, 21145.518, 0.012760223, -0.27858943, -548035.56, -512.57794, 0.0, 10.000082, 9.999563 
2.2499627e+2, 2.541265e+2, -497733.28, -513143.13, 6283.808, 0.012066488, -0.32809362, -495495.78, -45966.07, 0.0, 9.999804, 9.999595 
2.2499119e+2, 2.64126e+2, -442152.75, -445449.53, -593.7098, -0.0020011417, -0.3309542, -442049.1, -90515.766, 0.0, 9.999555, 9.999506 
2.2498603e+2, 2.7412593e+2, -376902.34, -364691.56, 885.8328, -0.022425098, -0.2890706, -364627.63, -111094.516, 0.0, 9.999336, 9.999493 
2.249813e+2, 2.84125e+2, -302316.6, -280191.3, -1567.4977, -0.0025527694, -0.32964295, -280080.8, -124539.875, 0.0, 9.999184, 9.999474 
2.2497673e+2, 2.9412332e+2, -212930.6, -185699.7, 1002.7432, 0.039301455, -0.45239544, -185662.83, -128107.91, 0.0, 9.999122, 9.99948 
2.2497125e+2, 3.041237e+2, -201685.63, -155592.84, 31354.508, -0.07240603, -0.36028972, -139725.97, -139725.97, 0.000000085825576, 9.998867, 9.999476 
2.2496748e+2, 3.1412244e+2, -184361.03, 5270.823, 13937.961, -0.050710972, -0.43384445, 6289.7896, 6289.7896, 0.0000031779714, 9.998329, 10.00084 
2.3506728e+2, 1.2414466e+2, -1337813.0, -1650365.9, -31798.148, 0.022164656, -0.34138215, -1334610.8, 388735.56, 0.00032214387, 10.003096, 9.99895 
2.3506077e+2, 1.3414259e+2, -1371199.4, -1716622.5, -24774.725, -0.003296665, -0.35557574, -1369431.5, 255936.25, 0.00016659255, 10.002628, 9.998047 
2.35055e+2, 1.44141e+2, -1252729.0, -1516914.1, 4156.793, 0.014598711, -0.35710555, -1252663.5, 274720.2, 0.00005400246, 10.00237, 9.998868 
2.3504947e+2, 1.5413985e+2, -1147654.4, -1414798.5, 13239.699, 0.0074188462, -0.36470005, -1146999.8, 282394.0, 0.000006396683, 10.002416, 9.998874 
2.3504394e+2, 1.6413869e+2, -1083042.1, -1336413.8, 10530.187, 0.0036702298, -0.3637547, -1082605.3, 248799.53, 0.000000013163342, 10.002202, 9.998842 
2.350384e+2, 1.741376e+2, -1068939.5, -1279070.0, 924.1015, 0.0016693054, -0.361265, -1068935.5, 164481.0, 0.0, 10.001627, 9.99884 
2.3503302e+2, 1.841367e+2, -1009658.8, -1172712.5, 10568.143, 0.001152308, -0.34390312, -1008976.7, 126449.92, 0.0, 10.0012455, 9.999083 
2.3502788e+2, 1.9413617e+2, -924684.56, -1078344.9, 18835.357, 0.0038572315, -0.31208172, -922409.44, 115024.11, 0.0, 10.001144, 9.999106 
2.350225e+2, 2.0413536e+2, -859794.1, -999215.0, 5689.316, 0.000096327734, -0.29970005, -859562.4, 79880.42, 0.0, 10.00093, 9.999079 
2.3501684e+2, 2.1413428e+2, -815692.6, -927275.94, -7185.3784, -0.013648514, -0.32041097, -815231.8, 26222.473, 0.0, 10.000561, 9.999078 
2.3501144e+2, 2.2413361e+2, -723932.2, -784932.06, 2584.4287, -0.013693378, -0.3121329, -723822.9, 19638.346, 0.0, 10.000314, 9.999501 
2.3500648e+2, 2.341336e+2, -633918.3, -686409.5, 14883.211, 0.007633276, -0.27028304, -629992.06, 15469.024, 0.0, 10.00024, 9.99954 
2.3500139e+2, 2.4413295e+2, -582159.44, -647708.3, 11286.21, 0.01790689, -0.27250275, -580270.6, -32803.363, 0.0, 10.000082, 9.999209 
2.3499604e+2, 2.5413153e+2, -527280.75, -574307.0, -4128.7275, 0.008030513, -0.33846128, -526921.0, -77440.03, 0.0, 9.999803, 9.999175 
2.349907e+2, 2.641308e+2, -442508.13, -446140.97, -9389.489, -0.0052894535, -0.3414986, -434760.97, -83273.32, 0.0, 9.999554, 9.999502 
2.3498549e+2, 2.74131e+2, -373891.44, -358053.34, -7352.609, -0.0112713175, -0.2763909, -355166.28, -101681.63, 0.0, 9.999334, 9.999539 
2.349806e+2, 2.8413022e+2, -305897.97, -287393.44, -4247.5327, 0.0081447, -0.30422023, -286465.03, -130973.88, 0.0, 9.999183, 9.999426 
2.3497576e+2, 2.941284e+2, -217849.3, -196516.69, -878.78613, 0.029155828, -0.4326965, -196480.55, -138973.98, 0.0, 9.999124, 9.999405 
2.3497003e+2, 3.0412838e+2, -212424.67, -177808.8, 12288.927, -0.08028196, -0.36427465, -173889.81, -173889.81, 0.000000016806371, 9.998866, 9.999324 
2.3496605e+2, 3.1412742e+2, -176977.48, 22362.297, -10203.931, -0.027331132, -0.40026397, 22883.26, 22883.26, 0.0000014346882, 9.998322, 10.000961 
2.4507008e+2, 1.2415033e+2, -1426727.6, -1687059.8, -24360.31, 0.026545482, -0.35057035, -1424467.8, 298823.38, 0.00026278105, 10.002456, 9.999006 
2.450633e+2, 1.3414855e+2, -1377273.3, -1707482.0, -11750.669, -0.0067247967, -0.3463784, -1376855.6, 248454.02, 0.00013053669, 10.002535, 9.998156 
2.4505736e+2, 1.44147e+2, -1242364.9, -1507713.1, 20438.59, 0.012251764, -0.35234496, -1240799.9, 286525.28, 0.000038366878, 10.002424, 9.998905 
2.4505161e+2, 1.5414576e+2, -1199406.9, -1436188.6, 20299.96, -0.0021990729, -0.3703017, -1197679.1, 231656.45, 0.000003303544, 10.002046, 9.998906 
2.4504587e+2, 1.6414459e+2, -1141475.8, -1366220.3, 14427.0625, -0.0044570426, -0.37200785, -1140553.5, 190793.23, 0.00000000018007511, 10.001808, 9.998828 
2.4504015e+2, 1.7414357e+2, -1049199.5, -1271620.0, 20561.695, 0.0053846776, -0.3607827, -1047314.7, 186043.3, 0.0, 10.001773, 9.998821 
2.4503447e+2, 1.8414265e+2, -966432.0, -1157609.6, 33747.867, 0.0062152683, -0.3409789, -960649.5, 174718.83, 0.0, 10.001567, 9.999031 
2.4502893e+2, 1.9414201e+2, -931513.06, -1087346.0, 23413.268, -0.0036075953, -0.3155909, -928071.4, 109304.95, 0.0, 10.001123, 9.999054 
2.4502328e+2, 2.0414115e+2, -876412.2, -1013655.94, 9976.314, -0.010166513, -0.3017242, -875690.8, 63695.168, 0.0, 10.000844, 9.999022 
2.4501751e+2, 2.1414013e+2, -785604.4, -919636.94, 16221.059, -0.013563743, -0.3097394, -783669.2, 57727.793, 0.0, 10.000797, 9.999017 
2.4501194e+2, 2.2413938e+2, -682953.9, -778481.25, 25913.568, -0.011576983, -0.30252755, -676377.1, 67027.9, 0.0, 10.000652, 9.999383 
2.4500671e+2, 2.3413906e+2, -623939.4, -695131.4, 7560.7397, 0.00026426662, -0.2815391, -623145.3, 22262.762, 0.0, 10.000367, 9.999418 
2.4500142e+2, 2.4413829e+2, -576623.0, -649693.1, -2915.8396, 0.009235562, -0.28473586, -576506.9, -29091.637, 0.0, 10.00014, 9.999168 
2.4499594e+2, 2.541371e+2, -502344.3, -566253.8, 10447.661, 0.009448777, -0.32458374, -500679.72, -51252.78, 0.0, 9.99999, 9.99914 
2.4499041e+2, 2.6413634e+2, -411758.1, -442496.6, 18009.04, -0.0027842515, -0.32253024, -403451.63, -52017.71, 0.0, 9.999814, 9.999402 
2.4498487e+2, 2.7413625e+2, -343567.94, -355776.9, 8164.5313, -0.020871779, -0.27976653, -339478.1, -86043.83, 0.0, 9.999596, 9.99943 
2.4497968e+2, 2.841354e+2, -291145.66, -283709.47, 5013.3433, -0.006554398, -0.30290142, -281185.94, -125744.61, 0.0, 9.999299, 9.999395 
2.4497467e+2, 2.9413393e+2, -254558.38, -217300.17, 10968.96, 0.021366427, -0.39455107, -214310.72, -156856.78, 0.0, 9.998886, 9.999376 
2.4496877e+2, 3.0413368e+2, -259363.3, -211582.31, 25094.61, -0.080319285, -0.34215835, -200824.64, -200824.64, 0.0000000018495133, 9.998593, 9.999223 
2.4496445e+2, 3.141328e+2, -148996.48, 45441.24, 844.4729, -0.0254733, -0.3596047, 45444.906, 45444.906, 0.00000052479436, 9.998472, 10.001047 
2.5507256e+2, 1.24155626e+2, -1415763.4, -1662719.9, -20176.021, 0.027104225, -0.41250816, -1414125.9, 309112.97, 0.00020966213, 10.002448, 9.999178 
2.550658e+2, 1.3415486e+2, -1360348.1, -1673707.6, -8631.562, -0.010684471, -0.3292408, -1360110.5, 265136.78, 0.00009902935, 10.00254, 9.998385 
2.550598e+2, 1.4415354e+2, -1246142.0, -1516595.6, 7084.5303, 0.012285602, -0.3214677, -1245956.5, 281304.06, 0.000025643241, 10.002428, 9.998842 
2.5505358e+2, 1.5415172e+2, -1205860.6, -1449110.0, 5653.074, -0.0074885115, -0.38983297, -1205729.4, 223547.84, 0.0000014046367, 10.002044, 9.998818 
2.5504762e+2, 1.6415043e+2, -1129855.5, -1341373.6, 11882.597, -0.011778675, -0.4060953, -1129190.1, 202099.27, 0.0, 10.001805, 9.999 
2.5504187e+2, 1.7414995e+2, -1034734.56, -1242266.0, 19341.85, -0.00095586723, -0.36001486, -1032947.3, 200347.27, 0.0, 10.001775, 9.999022 
2.5503597e+2, 1.8414912e+2, -984007.5, -1194406.5, 18089.84, -0.0025483675, -0.33318728, -982463.5, 152840.73, 0.0, 10.001569, 9.998778 
2.5502992e+2, 1.9414784e+2, -952062.8, -1130300.8, 6764.449, -0.018345203, -0.33888546, -951806.5, 85512.586, 0.0, 10.001124, 9.998758 
2.5502405e+2, 2.041469e+2, -865800.75, -991494.0, 7009.307, -0.019730514, -0.32528508, -865411.1, 73918.695, 0.0, 10.000844, 9.999173 
2.550184e+2, 2.1414651e+2, -771809.8, -890940.8, 14753.233, -0.0026692625, -0.29052493, -770009.94, 71323.97, 0.0, 10.000797, 9.999214 
2.5501272e+2, 2.2414568e+2, -715989.1, -846799.56, 15916.539, -0.001091588, -0.28037786, -714080.3, 29262.525, 0.0, 10.000651, 9.998914 
2.5500688e+2, 2.3414429e+2, -661536.94, -772921.25, -3126.9102, -0.019132819, -0.3112962, -661449.25, -16091.578, 0.0, 10.000366, 9.998885 
2.550013e+2, 2.4414337e+2, -557113.0, -608975.5, -9188.214, -0.014910816, -0.3155655, -555533.3, -8166.3013, 0.0, 10.000139, 9.999448 
2.54996e+2, 2.541432e+2, -476739.94, -512967.44, 5049.9067, 0.01651789, -0.28621772, -476049.16, -26681.652, 0.0, 9.9999895, 9.999506 
2.549903e+2, 2.6414266e+2, -426483.63, -473346.6, 10147.1455, 0.0057328786, -0.27387568, -424380.84, -73008.79, 0.0, 9.999815, 9.99919 
2.5498414e+2, 2.741416e+2, -362657.84, -395841.72, 154.50018, -0.053704582, -0.2994182, -362657.13, -109275.01, 0.0, 9.999597, 9.999155 
2.5497854e+2, 2.841406e+2, -291900.8, -284844.94, -10391.659, -0.049448356, -0.32601675, -277398.66, -122007.04, 0.0, 9.999297, 9.999389 
2.549735e+2, 2.9413992e+2, -253659.97, -214092.66, -4750.133, 0.015379963, -0.3379888, -213530.39, -156133.33, 0.0, 9.998881, 9.999401 
2.5496745e+2, 3.041396e+2, -263586.06, -220218.23, 19951.832, -0.07218505, -0.29398492, -212435.77, -212435.77, 0.000000000039700524, 9.998592, 9.999166 
2.549627e+2, 3.1413862e+2, -144344.11, 53567.383, -6489.4785, -0.047090963, -0.31484726, 53779.94, 53779.94, 0.00000015406697, 9.998477, 10.0011015 
2.6507488e+2, 1.2416184e+2, -1432286.8, -1666384.9, 9421.753, 0.023997802, -0.4158838, -1431908.3, 291269.5, 0.00016490842, 10.002316, 9.999216 
2.6506817e+2, 1.3416108e+2, -1386153.3, -1676608.4, 8230.312, -0.01834307, -0.3408627, -1385920.3, 239265.72, 0.000073287774, 10.002321, 9.99847 
2.6506212e+2, 1.4415976e+2, -1272534.0, -1530563.5, 8884.036, 0.0117844585, -0.33645722, -1272228.5, 254970.66, 0.000016155976, 10.002253, 9.998832 
2.6505563e+2, 1.5415813e+2, -1199855.3, -1447606.5, 11208.558, -0.010344916, -0.38562983, -1199349.1, 229865.14, 0.00000046134082, 10.002091, 9.998806 
2.650494e+2, 1.6415687e+2, -1113519.9, -1332820.1, 20965.363, -0.017368918, -0.3970159, -1111533.6, 219692.58, 0.0, 10.001916, 9.999005 
2.650435e+2, 1.7415628e+2, -1042252.94, -1245152.6, 14171.982, -0.0111613255, -0.36409172, -1041267.8, 191964.77, 0.0, 10.001721, 9.999028 
2.6503742e+2, 1.8415537e+2, -994224.5, -1202342.9, 5048.611, -0.009835723, -0.34155452, -994102.06, 141140.64, 0.0, 10.001512, 9.998751 
2.6503116e+2, 1.9415416e+2, -931018.8, -1123685.1, 12371.11, -0.012813537, -0.34023383, -930227.75, 107029.42, 0.0, 10.001285, 9.998728 
2.6502508e+2, 2.041532e+2, -836454.44, -985738.5, 23620.088, -0.010763127, -0.32338876, -832806.3, 106461.76, 0.0, 10.001081, 9.999099 
2.6501927e+2, 2.1415271e+2, -760316.3, -893941.25, 11551.532, -0.0030285283, -0.29035795, -759325.06, 81948.19, 0.0, 10.000914, 9.999137 
2.6501334e+2, 2.2415178e+2, -715466.6, -859615.25, 8439.279, -0.0054303654, -0.27923656, -714974.2, 28309.063, 0.0, 10.000711, 9.998797 
2.650073e+2, 2.3415034e+2, -656387.3, -784013.7, 19737.752, -0.020533357, -0.30539885, -653404.56, -8105.3296, 0.0, 10.00046, 9.998765 
2.6500148e+2, 2.4414937e+2, -545892.56, -605863.4, 23627.494, -0.017310904, -0.3059274, -537702.25, 9606.825, 0.0, 10.000226, 9.999428 
2.649959e+2, 2.5414923e+2, -474135.2, -512721.06, 9810.349, 0.008095268, -0.27496538, -471784.2, -22474.791, 0.0, 10.000012, 9.999497 
2.6499e+2, 2.6414862e+2, -431709.13, -477628.13, 4725.6865, -0.004919839, -0.26682165, -431227.8, -79913.59, 0.0, 9.999786, 9.999174 
2.6498362e+2, 2.7414745e+2, -372013.78, -401917.16, 13860.346, -0.06146792, -0.30185616, -366577.7, -113252.57, 0.0, 9.99954, 9.99914 
2.6497778e+2, 2.8414643e+2, -294060.38, -302416.4, 8334.258, -0.058643684, -0.32108125, -288915.53, -133580.7, 0.0, 9.999355, 9.999239 
2.649724e+2, 2.9414585e+2, -213718.95, -213338.89, -908.27594, -0.00078856794, -0.30936408, -212600.98, -155260.66, 0.0, 9.999235, 9.999235 
2.6496604e+2, 3.041451e+2, -225218.33, -204621.03, 13195.157, -0.083464146, -0.29666865, -198181.28, -198181.28, 0.0, 9.998868, 9.999139 
2.6496103e+2, 3.1414437e+2, -184875.55, 36449.566, -14283.65, -0.0475957, -0.29049087, 37367.582, 37367.582, 0.000000038019415, 9.998191, 10.001121 
2.750771e+2, 1.2416895e+2, -1438719.5, -1680701.5, 11021.825, 0.01272585, -0.36401868, -1438218.5, 284889.6, 0.00012966055, 10.002321, 9.999115 
2.7507037e+2, 1.3416725e+2, -1390926.5, -1685125.1, 7353.2876, -0.029480895, -0.3783625, -1390742.9, 234382.44, 0.00005392466, 10.0023155, 9.998415 
2.7506435e+2, 1.4416571e+2, -1270563.5, -1524930.8, 3071.3948, 0.010601396, -0.3940522, -1270526.5, 256614.08, 0.0000098627, 10.002246, 9.998874 
2.7505767e+2, 1.5416497e+2, -1194913.0, -1438027.4, 5168.067, -0.013470328, -0.35924038, -1194803.3, 234343.86, 0.00000011248763, 10.002094, 9.99887 
2.7505127e+2, 1.6416393e+2, -1124482.4, -1356576.9, 13365.88, -0.024101464, -0.34700978, -1123715.3, 207442.16, 0.0, 10.00192, 9.99884 
2.7504507e+2, 1.7416255e+2, -1055458.5, -1272470.4, 6773.1104, -0.025635257, -0.3723053, -1055247.4, 177924.64, 0.0, 10.00172, 9.998841 
2.7503887e+2, 1.8416148e+2, -981188.3, -1174501.3, -3536.8157, -0.016054774, -0.36510038, -981123.6, 154060.11, 0.0, 10.001509, 9.998943 
2.750327e+2, 1.9416094e+2, -915119.75, -1090594.3, 3844.2063, 0.011874648, -0.319922, -915035.56, 122155.13, 0.0, 10.001284, 9.998955 
2.7502644e+2, 2.0416002e+2, -857502.44, -1029363.56, 17079.19, 0.015570003, -0.29668817, -855821.56, 83379.45, 0.0, 10.001081, 9.998799 
2.7502006e+2, 2.1415873e+2, -784727.1, -944727.0, 5494.0317, -0.015756518, -0.30941612, -784538.7, 56676.46, 0.0, 10.000914, 9.998789 
2.7501386e+2, 2.2415772e+2, -698974.4, -825110.9, -789.47095, -0.02561459, -0.2992898, -698969.44, 44256.895, 0.0, 10.0007105, 9.999035 
2.750079e+2, 2.3415716e+2, -635511.75, -740826.8, 10427.911, -0.003730036, -0.26407373, -634489.2, 10743.542, 0.0, 10.00046, 9.999061 
2.7500188e+2, 2.441563e+2, -568961.6, -653731.7, 15452.917, 0.0020107916, -0.25621313, -566232.5, -18991.023, 0.0, 10.000226, 9.9991 
2.7499565e+2, 2.541551e+2, -501862.2, -570020.8, 1798.544, -0.018440835, -0.29116896, -501814.75, -52562.055, 0.0, 10.0000105, 9.9991045 
2.749895e+2, 2.6415417e+2, -418603.16, -449770.1, -4805.1675, -0.03733848, -0.30154693, -417879.13, -66618.54, 0.0, 9.9997835, 9.999367 
2.7498335e+2, 2.7415377e+2, -354304.16, -364710.47, 4885.0483, -0.043575093, -0.28730142, -352370.34, -99107.05, 0.0, 9.999538, 9.999395 
2.749774e+2, 2.8415293e+2, -315328.06, -346564.38, 3681.5713, -0.03334046, -0.28873128, -314900.0, -159629.02, 0.0, 9.999354, 9.998937 
2.7497134e+2, 2.9415163e+2, -238574.11, -265905.4, -5434.0186, -0.029133396, -0.30911672, -237533.34, -180249.48, 0.0, 9.999238, 9.998874 
2.7496457e+2, 3.0415016e+2, -225066.39, -204522.2, -11142.206, -0.11697817, -0.3503894, -199639.61, -199639.61, 0.0, 9.998869, 9.999139 
2.7495942e+2, 3.1415007e+2, -186903.72, 33306.965, -43655.7, -0.029367099, -0.28887963, 41645.727, 41645.727, 0.00000000643165, 9.998186, 10.0011015 
2.8507945e+2, 1.24175705e+2, -1452825.3, -1694716.4, 16272.602, 0.016859826, -0.3476591, -1451735.5, 271306.88, 0.00010364884, 10.002255, 9.999051 
2.8507262e+2, 1.3417393e+2, -1400347.6, -1691652.6, 11138.429, -0.03135649, -0.36757857, -1399922.3, 225137.94, 0.000040612387, 10.002259, 9.998398 
2.8506666e+2, 1.4417228e+2, -1271292.0, -1522127.6, 5170.2783, 0.014172045, -0.39411497, -1271185.4, 255890.92, 0.0000062724685, 10.002229, 9.9989 
2.8505978e+2, 1.5417153e+2, -1181353.0, -1427453.8, 4320.666, -0.017098308, -0.3655476, -1181277.1, 247805.75, 0.000000028346124, 10.0021715, 9.998906 
2.8505316e+2, 1.641705e+2, -1120414.3, -1359607.0, 8558.977, -0.027735772, -0.3502465, -1120108.4, 210984.64, 0.0, 10.00197, 9.9987955 
2.850468e+2, 1.7416924e+2, -1080023.4, -1289746.6, 10954.839, -0.020472188, -0.35993645, -1079452.8, 153654.48, 0.0, 10.001576, 9.998792 
2.8504035e+2, 1.8416823e+2, -1005535.06, -1179202.8, 6930.814, -0.008599393, -0.34791327, -1005258.9, 129859.695, 0.0, 10.001312, 9.999005 
2.8503397e+2, 1.9416764e+2, -917901.06, -1083969.9, 2770.293, 0.013005126, -0.31128833, -917854.9, 119270.29, 0.0, 10.001231, 9.999025 
2.850275e+2, 2.0416668e+2, -858514.6, -1039752.4, 16472.873, 0.01261621, -0.29451913, -857029.56, 82106.48, 0.0, 10.001117, 9.998712 
2.8502095e+2, 2.1416524e+2, -786121.5, -956799.7, 22982.586, -0.019903116, -0.3117441, -783080.94, 58071.098, 0.0, 10.000953, 9.998687 
2.8501457e+2, 2.2416423e+2, -689311.44, -816146.25, 17381.33, -0.028945653, -0.2963169, -686972.6, 56190.684, 0.0, 10.000758, 9.999074 
2.850084e+2, 2.3416393e+2, -623349.6, -729058.8, 10187.765, -0.002976607, -0.24089678, -622376.7, 22790.39, 0.0, 10.000519, 9.999114 
2.8500214e+2, 2.4416307e+2, -563439.6, -661377.94, 15492.408, 0.0017550983, -0.23110268, -561047.4, -13871.656, 0.0, 10.000308, 9.999007 
2.8499565e+2, 2.5416154e+2, -490780.47, -576573.94, 23333.34, -0.026675751, -0.29020825, -484845.1, -35654.938, 0.0, 10.000138, 9.998998 
2.849892e+2, 2.6416042e+2, -395418.84, -440216.9, 19967.666, -0.0505875, -0.3126146, -387810.8, -36611.035, 0.0, 9.99995, 9.9993515 
2.8498283e+2, 2.7416006e+2, -327449.28, -351955.7, 9697.677, -0.057578627, -0.2910935, -324076.03, -70874.19, 0.0, 9.999724, 9.999393 
2.849767e+2, 2.8415933e+2, -300026.6, -342566.4, 9023.75, -0.04527476, -0.2795476, -298191.56, -142983.16, 0.0, 9.999475, 9.998906 
2.8497052e+2, 2.941582e+2, -245726.77, -272979.9, 24147.168, -0.033495348, -0.2846753, -231626.64, -174406.5, 0.0, 9.9992075, 9.998838 
2.8496346e+2, 3.041563e+2, -226933.3, -208571.95, 17775.809, -0.11427898, -0.3657138, -197746.02, -197746.02, 0.0, 9.998871, 9.999109 
2.8495765e+2, 3.1415612e+2, -167299.52, 21374.48, -24900.752, -0.037364457, -0.30402812, 24605.492, 24605.492, 0.00000000043435586, 9.998413, 10.000911 
2.9508188e+2, 1.2418217e+2, -1453970.1, -1698268.5, 19845.777, 0.03359, -0.3640231, -1452368.5, 270611.44, 0.000085497144, 10.00226, 9.999024 
2.950749e+2, 1.3418114e+2, -1398283.5, -1688217.1, 11124.525, -0.026971627, -0.31194723, -1397857.4, 227133.45, 0.000032281903, 10.002263, 9.99842 
2.9506892e+2, 1.441795e+2, -1271289.5, -1522243.1, 2928.1472, 0.019426974, -0.3400991, -1271255.4, 255751.36, 0.0000046245973, 10.002229, 9.9989 
2.950619e+2, 1.5417781e+2, -1182140.3, -1428456.4, 1985.9945, -0.022477359, -0.40187103, -1182124.3, 246897.19, 0.00000001715619, 10.002169, 9.9989 
2.9505512e+2, 1.6417667e+2, -1115847.3, -1348998.5, -5607.8574, -0.029419594, -0.403389, -1115712.5, 215320.28, 0.0, 10.0019655, 9.998871 
2.950486e+2, 1.7417634e+2, -1074436.3, -1277473.5, -3806.1084, 0.0025342829, -0.3281285, -1074365.0, 158673.44, 0.0, 10.0015745, 9.998878 
2.9504186e+2, 1.8417557e+2, -1010939.6, -1190132.6, 2932.154, 0.010901376, -0.29177922, -1010891.6, 124155.84, 0.0, 10.001311, 9.998931 
2.9503497e+2, 1.9417432e+2, -924067.2, -1096869.8, -25.555498, -0.009951639, -0.314022, -924067.2, 112993.43, 0.0, 10.001232, 9.998937 
2.950283e+2, 2.0417318e+2, -850142.8, -1022232.06, 10567.951, -0.019745767, -0.31628618, -849496.25, 89576.84, 0.0, 10.001116, 9.998833 
2.9502195e+2, 2.1417221e+2, -776343.94, -936296.7, 17040.752, -0.01610013, -0.29782656, -774548.6, 66535.46, 0.0, 10.000952, 9.998829 
2.9501545e+2, 2.2417133e+2, -700721.1, -839515.94, 8577.064, -0.016194668, -0.27078646, -700193.06, 42901.17, 0.0, 10.000756, 9.998914 
2.9500875e+2, 2.3417065e+2, -636845.06, -756811.94, 1278.4711, -0.019872032, -0.23602355, -636831.44, 8271.074, 0.0, 10.000517, 9.998924 
2.9500225e+2, 2.4416971e+2, -553224.8, -639867.9, 8802.139, -0.019368384, -0.2306002, -552339.6, -5227.8716, 0.0, 10.000307, 9.999155 
2.9499587e+2, 2.541685e+2, -477911.3, -549990.6, 17242.193, -0.016573496, -0.27267212, -473999.13, -24877.336, 0.0, 10.000139, 9.99918 
2.949892e+2, 2.6416737e+2, -411719.13, -473943.25, 11558.321, -0.04431691, -0.30054486, -409641.5, -58509.67, 0.0, 9.99995, 9.99912 
2.9498205e+2, 2.7416638e+2, -346496.25, -391334.28, 991.1239, -0.105999835, -0.31374893, -346474.34, -93333.44, 0.0, 9.999723, 9.999124 
2.949756e+2, 2.8416568e+2, -283134.16, -306895.84, -1313.5198, -0.09709616, -0.29358846, -283061.75, -127914.54, 0.0, 9.999473, 9.999151 
2.9496992e+2, 2.9416546e+2, -225316.33, -230037.61, 14441.93, -0.014080685, -0.23589824, -213043.38, -155894.19, 0.0, 9.999205, 9.999135 
2.9496273e+2, 3.0416346e+2, -231635.02, -218155.19, 1289.3173, -0.07493876, -0.34225273, -218032.97, -218032.97, 0.0, 9.99887, 9.999044 
2.949557e+2, 3.1416255e+2, -191321.98, -30005.1, -44189.625, -0.07400304, -0.33948576, -18693.398, -18693.398, 0.0, 9.998418, 10.000555 
3.050843e+2, 1.2418888e+2, -1415695.5, -1675301.3, 22749.24, 0.03634941, -0.35991392, -1413717.1, 309198.2, 0.000073591786, 10.002506, 9.9990635 
3.050771e+2, 1.3418798e+2, -1396568.5, -1678223.1, 12853.844, -0.032515753, -0.30065525, -1395983.1, 228941.22, 0.000027638554, 10.002236, 9.998501 
3.050711e+2, 1.4418639e+2, -1297578.3, -1534591.9, 9833.306, 0.022508224, -0.32941338, -1297171.0, 229768.88, 0.000004191702, 10.002048, 9.998902 
3.05064e+2, 1.5418471e+2, -1213577.6, -1443771.5, 8711.589, -0.017578345, -0.3911732, -1213248.5, 215706.53, 0.000000032166714, 10.001954, 9.9988985 
3.0505708e+2, 1.6418359e+2, -1137993.1, -1348120.0, -6972.824, -0.020637833, -0.39354166, -1137762.0, 193203.92, 0.0, 10.001765, 9.998973 
3.0505022e+2, 1.7418335e+2, -1083004.6, -1269421.4, -4628.2583, 0.015466156, -0.3193792, -1082889.8, 150080.5, 0.0, 10.001463, 9.998986 
3.0504322e+2, 1.841826e+2, -1018016.3, -1193416.0, 15301.032, 0.018858567, -0.2878993, -1016691.56, 118287.51, 0.0, 10.001262, 9.998932 
3.050361e+2, 1.9418125e+2, -928532.44, -1099265.4, 19113.492, -0.018805305, -0.3211075, -926418.8, 110574.43, 0.0, 10.001204, 9.998934 
3.0502927e+2, 2.0418017e+2, -852117.4, -1010431.9, 27551.1, -0.029012237, -0.3208853, -847459.75, 91545.21, 0.0, 10.001049, 9.998945 
3.0502293e+2, 2.1417955e+2, -794659.3, -931438.1, 32132.512, -0.003496277, -0.2807464, -787486.75, 53525.734, 0.0, 10.000767, 9.998951 
3.0501628e+2, 2.2417867e+2, -727692.1, -863298.9, 29523.715, -0.0017615708, -0.25505057, -721543.2, 21479.291, 0.0, 10.000618, 9.998817 
3.0500922e+2, 2.3417753e+2, -625944.44, -764686.9, 27787.273, -0.031194853, -0.25348836, -620586.1, 24448.926, 0.0, 10.0006485, 9.998807 
3.0500242e+2, 2.441765e+2, -524684.7, -617329.7, 28406.77, -0.039764866, -0.25342748, -516668.25, 30376.861, 0.0, 10.000465, 9.999234 
3.049959e+2, 2.5417572e+2, -493092.78, -546215.75, 29657.904, -0.022337308, -0.26200283, -479840.9, -30790.014, 0.0, 9.999988, 9.999279 
3.0498904e+2, 2.6417467e+2, -450886.88, -499346.1, 34241.863, -0.0442362, -0.28181967, -433169.13, -82109.195, 0.0, 9.99971, 9.999062 
3.049817e+2, 2.741734e+2, -353072.84, -402884.97, 38802.39, -0.11292458, -0.32104638, -331871.0, -78798.516, 0.0, 9.999716, 9.999048 
3.04975e+2, 2.8417265e+2, -266266.28, -289207.66, 30598.5, -0.108326964, -0.30477723, -245059.08, -89979.71, 0.0, 9.999548, 9.999236 
3.0496898e+2, 2.941728e+2, -230328.2, -220911.98, 30623.379, -0.022865959, -0.2224294, -194636.92, -137558.89, 0.0, 9.999122, 9.999238 
3.0496162e+2, 3.041709e+2, -219306.86, -193504.84, 22358.588, -0.07515437, -0.33103496, -180592.23, -180592.23, 0.0, 9.998875, 9.999211 
3.049543e+2, 3.141703e+2, -132980.14, -15414.193, -6013.7285, -0.07624173, -0.3176929, -15107.38, -15107.38, 0.0, 9.9988785, 10.000433 
3.1508663e+2, 1.24195814e+2, -1409342.6, -1662104.8, 18341.736, 0.022700563, -0.33756074, -1408018.6, 314830.03, 0.00006650563, 10.002506, 9.999153 
3.1507915e+2, 1.3419454e+2, -1386592.5, -1658818.6, 2984.4746, -0.0513023, -0.33060828, -1386559.8, 238300.77, 0.000025576577, 10.002242, 9.9986315 
3.1507313e+2, 1.4419301e+2, -1296376.1, -1532548.0, 5719.582, 0.020314243, -0.35865986, -1296237.6, 230637.58, 0.000004447986, 10.002049, 9.998917 
3.150661e+2, 1.5419216e+2, -1213677.3, -1443125.6, 5441.5464, -0.004027612, -0.33616915, -1213548.3, 215335.23, 0.00000006594377, 10.00195, 9.998905 
3.1505898e+2, 1.6419126e+2, -1130795.0, -1332013.9, -17665.287, -0.0029016887, -0.32421157, -1129255.9, 201636.89, 0.0, 10.00176, 9.999085 
3.150517e+2, 1.7419033e+2, -1074622.1, -1251919.4, -15818.359, 0.016993111, -0.3325462, -1073221.9, 159680.98, 0.0, 10.001462, 9.999106 
3.1504443e+2, 1.8418935e+2, -1012599.25, -1182208.5, 12271.077, 0.013961202, -0.33416864, -1011716.06, 123197.11, 0.0, 10.001262, 9.99901 
3.150373e+2, 1.941884e+2, -923436.56, -1088225.3, 17192.383, -0.014381261, -0.33274135, -921662.0, 115261.29, 0.0, 10.001201, 9.999011 
3.1503046e+2, 2.0418763e+2, -845168.94, -995543.4, 17681.688, -0.016056927, -0.3090263, -843117.9, 95813.91, 0.0, 10.001046, 9.999049 
3.150239e+2, 2.1418722e+2, -787483.8, -916276.94, 21740.865, 0.016722597, -0.26047486, -783912.9, 57024.473, 0.0, 10.000766, 9.999056 
3.15017e+2, 2.2418624e+2, -730137.5, -868411.7, 29922.646, 0.0134838205, -0.24892288, -723940.0, 19008.049, 0.0, 10.000617, 9.998783 
3.150098e+2, 2.3418461e+2, -629124.2, -771420.94, 29228.928, -0.03752121, -0.29367417, -623354.25, 21610.717, 0.0, 10.0006485, 9.99876 
3.1500268e+2, 2.441835e+2, -524328.3, -616555.1, 11727.033, -0.05994142, -0.29961258, -522860.53, 24115.328, 0.0, 10.000465, 9.99924 
3.1499565e+2, 2.5418323e+2, -492221.94, -544055.6, 11511.98, -0.045774028, -0.2584781, -489780.22, -40802.67, 0.0, 9.999986, 9.999295 
3.1498867e+2, 2.6418248e+2, -443161.9, -482896.88, 32820.08, -0.05155584, -0.2565568, -424664.38, -73680.24, 0.0, 9.999708, 9.999175 
3.149818e+2, 2.7418113e+2, -344588.47, -385159.56, 39507.395, -0.078440435, -0.3129487, -320463.0, -67466.43, 0.0, 9.999715, 9.999169 
3.1497484e+2, 2.8418022e+2, -272441.63, -301748.56, 15723.257, -0.07872341, -0.31295967, -265602.2, -110597.37, 0.0, 9.999547, 9.999151 
3.1496772e+2, 2.9418012e+2, -236887.42, -234762.0, 14348.385, -0.062247813, -0.24602664, -221437.03, -164430.16, 0.0, 9.999123, 9.999143 
3.1496006e+2, 3.0417857e+2, -191531.16, -135828.56, 21067.0, -0.11683192, -0.3337989, -128758.33, -128758.33, 0.0, 9.998875, 9.999608 
3.149535e+2, 3.1417924e+2, -124623.875, 2155.053, -8353.703, -0.04599268, -0.23544018, 2703.1248, 2703.1248, 0.0, 9.998878, 10.000554 
3.2508916e+2, 1.2420285e+2, -1424920.1, -1666751.5, 41588.938, 0.027574448, -0.33499965, -1417967.8, 304812.75, 0.00006287029, 10.002388, 9.999178 
3.2508135e+2, 1.3420166e+2, -1377689.9, -1647764.3, 13692.304, -0.058414742, -0.32559386, -1376997.5, 247794.1, 0.000025189593, 10.0022745, 9.998692 
3.2507518e+2, 1.4420022e+2, -1296302.4, -1522787.1, 12738.832, 0.024163712, -0.35080785, -1295588.1, 231217.33, 0.0000050024137, 10.002008, 9.999002 
3.2506797e+2, 1.5419962e+2, -1265359.3, -1457878.8, 17560.766, 0.0100111, -0.315031, -1263770.6, 165041.14, 0.000000115129794, 10.001552, 9.998996 
3.2506067e+2, 1.6419876e+2, -1187913.8, -1353738.5, 2808.0798, 0.00992277, -0.30400932, -1187866.3, 142954.23, 0.0, 10.001343, 9.999138 
3.250531e+2, 1.7419767e+2, -1070628.6, -1244150.0, -103.86768, 0.01207845, -0.3327073, -1070628.6, 162203.13, 0.0, 10.001466, 9.999158 
3.2504568e+2, 1.8419676e+2, -983944.2, -1149375.6, 24072.553, 0.0072135646, -0.338462, -980512.5, 154328.64, 0.0, 10.001378, 9.999179 
3.2503855e+2, 1.9419616e+2, -938848.2, -1076130.4, 35646.633, -0.0019514073, -0.3189002, -930144.06, 106703.26, 0.0, 10.00101, 9.9991865 
3.2503152e+2, 2.0419551e+2, -883000.3, -1020688.0, 37802.69, -0.0021089148, -0.29263467, -873304.25, 65550.586, 0.0, 10.000815, 9.998988 
3.250246e+2, 2.1419482e+2, -780164.6, -921563.4, 27925.52, 0.008434853, -0.26212716, -774849.3, 66013.97, 0.0, 10.0008545, 9.998977 
3.2501754e+2, 2.2419378e+2, -711247.2, -842674.1, 31596.883, 0.0012954148, -0.25850368, -704045.5, 38828.863, 0.0, 10.000676, 9.998931 
3.2501033e+2, 2.3419237e+2, -681831.1, -777725.44, 46706.652, -0.028814722, -0.29778874, -662842.2, -17953.84, 0.0, 10.000205, 9.998932 
3.2500303e+2, 2.4419135e+2, -600313.8, -664253.3, 36425.793, -0.0477991, -0.3008178, -583818.1, -36919.74, 0.0, 9.999991, 9.99914 
3.249956e+2, 2.5419095e+2, -479860.28, -552246.7, 25814.752, -0.053996403, -0.2594104, -471597.3, -22695.158, 0.0, 10.000132, 9.999168 
3.2498842e+2, 2.641902e+2, -394268.53, -452177.4, 37423.945, -0.061617374, -0.2548315, -375905.84, -24996.578, 0.0, 10.000013, 9.999239 
3.2498154e+2, 2.7418897e+2, -364283.38, -385108.2, 40526.086, -0.06470207, -0.3049744, -332853.44, -79933.445, 0.0, 9.999539, 9.999255 
3.249744e+2, 2.8418815e+2, -307650.13, -317073.06, 21469.19, -0.06677351, -0.307577, -290381.5, -135453.73, 0.0, 9.999298, 9.999166 
3.2496673e+2, 2.9418787e+2, -198148.14, -215318.45, 28080.889, -0.08635345, -0.25394768, -177369.36, -120438.23, 0.0, 9.999385, 9.999149 
3.249589e+2, 3.0418652e+2, -125080.22, -91191.75, 27827.371, -0.13995886, -0.3270752, -75555.78, -75555.78, 0.0, 9.999277, 9.999721 
3.2495245e+2, 3.1418747e+2, -139807.6, -25260.578, -27910.512, -0.035595242, -0.21244603, -18821.832, -18821.832, 0.0, 9.998858, 10.000376 
3.350917e+2, 1.2421004e+2, -1426332.1, -1672571.3, 45139.086, 0.045496594, -0.3493401, -1418318.4, 304392.25, 0.000061273975, 10.0024, 9.999132 
3.350837e+2, 1.3420935e+2, -1379118.9, -1649365.8, 9719.017, -0.05418729, -0.28774056, -1378769.8, 245947.7, 0.000025556885, 10.002268, 9.998684 
3.3507726e+2, 1.4420803e+2, -1287648.1, -1502662.9, -2865.1882, 0.03369995, -0.30869865, -1287609.9, 239120.53, 0.0000055599335, 10.002, 9.999145 
3.3506963e+2, 1.5420705e+2, -1253471.8, -1433931.1, 930.0654, 0.02094676, -0.32620507, -1253467.0, 175272.66, 0.00000016881297, 10.0015545, 9.999158 
3.350621e+2, 1.6420613e+2, -1187467.4, -1353943.3, 5767.0703, 0.014826678, -0.3304251, -1187267.9, 143480.89, 0.0, 10.001347, 9.999135 
3.3505446e+2, 1.742054e+2, -1071957.3, -1246482.1, 4991.627, 0.0008038432, -0.32049677, -1071814.5, 160942.55, 0.0, 10.001463, 9.999144 
3.3504698e+2, 1.8420483e+2, -967231.56, -1113591.1, 11743.106, -0.0015629121, -0.30245408, -966295.3, 168467.83, 0.0, 10.001372, 9.999427 
3.3503976e+2, 1.9420454e+2, -920325.2, -1037444.6, 21908.527, 0.017311018, -0.28018212, -916361.1, 120404.484, 0.0, 10.001009, 9.999453 
3.3503246e+2, 2.0420375e+2, -898892.8, -1053486.3, 38137.582, 0.011613677, -0.27142936, -889996.4, 48777.855, 0.0, 10.000814, 9.998763 
3.3502507e+2, 2.1420234e+2, -798956.25, -960408.7, 29793.314, -0.028936084, -0.28560457, -793633.8, 47156.56, 0.0, 10.000854, 9.998711 
3.3501783e+2, 2.242013e+2, -688210.3, -794681.9, 15231.746, -0.03887586, -0.2833563, -686074.1, 56727.387, 0.0, 10.000675, 9.999262 
3.3501074e+2, 2.3420084e+2, -654518.75, -720994.1, 29015.654, -0.0056918096, -0.2657834, -643635.56, 1169.582, 0.0, 10.000204, 9.999321 
3.3500344e+2, 2.4420004e+2, -615074.2, -694902.5, 39903.582, -0.004064163, -0.2571341, -598548.7, -51735.953, 0.0, 9.999991, 9.99893 
3.349958e+2, 2.541989e+2, -498666.84, -591204.2, 31406.348, -0.04782632, -0.26497522, -489014.6, -40189.78, 0.0, 10.000132, 9.998901 
3.3498833e+2, 2.6419783e+2, -393547.16, -450520.25, 21121.203, -0.07507417, -0.27641526, -386571.22, -35735.863, 0.0, 10.000012, 9.999251 
3.34981e+2, 2.7419692e+2, -361099.06, -378158.06, 22435.518, -0.07360293, -0.29845628, -345626.38, -92783.51, 0.0, 9.999537, 9.999304 
3.3497363e+2, 2.841963e+2, -300162.78, -301120.88, 22727.137, -0.07397991, -0.28952873, -277909.66, -123061.28, 0.0, 9.999296, 9.999276 
3.3496603e+2, 2.9419604e+2, -190170.06, -198649.06, 31894.5, -0.094986334, -0.24418266, -162234.53, -105383.91, 0.0, 9.999385, 9.999264 
3.3495814e+2, 3.0419475e+2, -137655.52, -117464.2, 13462.8955, -0.14420404, -0.30990228, -110732.15, -110732.15, 0.0, 9.999277, 9.99954 
3.3495116e+2, 3.1419495e+2, -173048.36, -94678.086, -45096.516, -0.049275126, -0.25040573, -74120.69, -74120.69, 0.0, 9.998859, 9.999898 
3.4509444e+2, 1.2421781e+2, -1363757.1, -1651680.6, 59253.617, 0.054713577, -0.33835655, -1352039.8, 370595.44, 0.000060228966, 10.00287, 9.999049 
3.4508592e+2, 1.3421719e+2, -1426645.4, -1677949.4, 10923.666, -0.0405471, -0.2661896, -1426171.4, 198470.56, 0.000025763518, 10.001965, 9.998634 
3.450792e+2, 1.4421582e+2, -1349914.6, -1528223.6, 9289.798, 0.052804507, -0.29137275, -1349431.9, 177223.58, 0.000005876301, 10.001552, 9.999185 
3.450713e+2, 1.5421474e+2, -1214956.0, -1409623.8, 6153.6284, 0.01813747, -0.32373926, -1214761.6, 213903.63, 0.0000002059256, 10.001795, 9.999209 
3.4506348e+2, 1.6421387e+2, -1130832.5, -1316404.9, 5621.275, 0.004962449, -0.32999218, -1130662.4, 200011.47, 0.0, 10.001692, 9.999226 
3.4505576e+2, 1.742134e+2, -1112473.9, -1255654.6, 12018.22, 0.001481107, -0.30339387, -1111472.1, 121207.586, 0.0, 10.00114, 9.999236 
3.4504816e+2, 1.8421294e+2, -1035866.94, -1147597.1, 19226.658, 0.0045174165, -0.2799297, -1032651.0, 102033.89, 0.0, 10.000904, 9.999419 
3.4504086e+2, 1.9421253e+2, -908748.25, -1033132.75, 8745.52, 0.023141483, -0.2671812, -908136.4, 128552.13, 0.0, 10.001095, 9.99944 
3.4503338e+2, 2.042117e+2, -865582.44, -1026796.1, 20146.363, 0.013138661, -0.26474592, -863102.94, 75594.33, 0.0, 10.000998, 9.9988575 
3.4502566e+2, 2.1421039e+2, -841460.4, -969503.5, 38712.363, -0.038022604, -0.28143194, -830666.1, 10046.157, 0.0, 10.000512, 9.998813 
3.4501818e+2, 2.2420944e+2, -747409.3, -822131.25, 29030.879, -0.04899034, -0.276452, -737456.06, 5266.395, 0.0, 10.000263, 9.999271 
3.4501106e+2, 2.3420906e+2, -635014.4, -711356.3, 13916.773, -0.0039830124, -0.24839818, -632556.5, 12168.933, 0.0, 10.000338, 9.999323 
3.4500366e+2, 2.4420829e+2, -576858.75, -673145.94, 20999.693, 0.006095656, -0.23836607, -572478.1, -25745.367, 0.0, 10.000238, 9.9989605 
3.4499598e+2, 2.542071e+2, -529077.06, -602008.1, 34880.797, -0.03351787, -0.25700742, -515080.7, -66335.43, 0.0, 9.999907, 9.998936 
3.4498826e+2, 2.64206e+2, -436502.6, -476274.72, 31582.7, -0.06859412, -0.27101293, -419066.78, -68310.734, 0.0, 9.99974, 9.999206 
3.4498048e+2, 2.7420512e+2, -326818.47, -368126.03, 25266.69, -0.092079826, -0.2862843, -314838.16, -62074.2, 0.0, 9.9998, 9.999247 
3.4497294e+2, 2.8420442e+2, -238550.7, -261296.53, 23097.424, -0.09250556, -0.28010905, -224178.05, -69408.54, 0.0, 9.999675, 9.999368 
3.4496555e+2, 2.942042e+2, -194496.6, -189165.17, 31712.479, -0.07684395, -0.24607438, -160006.56, -103235.55, 0.0, 9.999304, 9.999369 
3.449576e+2, 3.0420318e+2, -154109.67, -127690.32, 19344.754, -0.12104678, -0.29137254, -117475.33, -117475.33, 0.0, 9.999174, 9.999519 
3.449499e+2, 3.1420282e+2, -118548.08, -92288.87, -28641.53, -0.086956285, -0.28104728, -73910.95, -73910.95, 0.0, 9.999337, 9.999684 
3.5509732e+2, 1.24226145e+2, -1373471.1, -1669517.5, 35436.414, 0.054324456, -0.30477798, -1369288.5, 353266.22, 0.00005843651, 10.002859, 9.998933 
3.5508808e+2, 1.3422514e+2, -1431591.0, -1690299.1, -22624.645, -0.022168526, -0.2601962, -1429627.4, 194937.72, 0.000025162195, 10.001972, 9.998547 
3.5508102e+2, 1.4422359e+2, -1352283.6, -1535350.0, 15537.373, 0.07713228, -0.29730758, -1350974.3, 175606.22, 0.0000057861466, 10.001561, 9.999132 
3.5507292e+2, 1.5422267e+2, -1219338.1, -1417423.4, 15767.471, 0.0024880492, -0.30825064, -1218090.9, 210498.05, 0.00000020730299, 10.001788, 9.999159 
3.5506493e+2, 1.6422196e+2, -1119820.8, -1291829.6, -12745.888, -0.018957295, -0.3040995, -1118881.4, 211714.47, 0.0, 10.001684, 9.999398 
3.55057e+2, 1.7422163e+2, -1098833.1, -1227797.4, -8506.296, 0.011693765, -0.28197804, -1098274.5, 134325.23, 0.0, 10.001141, 9.999427 
3.5504925e+2, 1.8422104e+2, -1053227.0, -1184227.4, 24369.328, 0.022869308, -0.27051994, -1048840.6, 85765.74, 0.0, 10.000906, 9.9991665 
3.5504186e+2, 1.9422013e+2, -928857.44, -1074869.6, 16487.973, 0.015254719, -0.27954948, -927018.75, 109597.195, 0.0, 10.001094, 9.999154 
3.5503426e+2, 2.0421939e+2, -837372.5, -967705.75, 3861.7354, 0.0024054376, -0.27232796, -837258.2, 101365.74, 0.0, 10.000996, 9.999265 
3.5502636e+2, 2.1421891e+2, -808700.5, -901314.3, 20588.055, -0.019608993, -0.24999042, -804330.06, 36299.004, 0.0, 10.000511, 9.999282 
3.5501865e+2, 2.2421815e+2, -769537.8, -867976.56, 30224.168, -0.0303574, -0.23842339, -760998.7, -18361.285, 0.0, 10.000263, 9.998957 
3.5501117e+2, 2.3421705e+2, -662116.0, -767685.94, 16921.23, -0.02455739, -0.24572177, -659470.1, -14820.83, 0.0, 10.000338, 9.998937 
3.5500365e+2, 2.4421611e+2, -557918.8, -633557.06, 9443.596, -0.01797413, -0.2442713, -556757.6, -10099.013, 0.0, 10.000237, 9.999233 
3.549961e+2, 2.542155e+2, -505509.2, -552668.25, 22258.08, -0.011867962, -0.23582038, -496663.2, -47999.617, 0.0, 9.999905, 9.999275 
3.5498822e+2, 2.6421463e+2, -444121.03, -491789.7, 32524.18, -0.042965967, -0.23909359, -427632.94, -76961.484, 0.0, 9.999738, 9.999101 
3.5498e+2, 2.7421346e+2, -337459.75, -390304.22, 27706.773, -0.12055972, -0.26734158, -325596.22, -72913.12, 0.0, 9.9998, 9.999095 
3.549723e+2, 2.842126e+2, -233591.19, -251029.48, 10008.961, -0.12276196, -0.2784968, -229036.19, -74345.08, 0.0, 9.999675, 9.999439 
3.5496527e+2, 2.9421228e+2, -187963.08, -175078.33, 17734.107, -0.034220412, -0.26173067, -162652.67, -105960.17, 0.0, 9.999302, 9.999467 
3.5495725e+2, 3.042117e+2, -144953.2, -108063.52, 23927.111, -0.0730088, -0.27325493, -96297.125, -96297.125, 0.0, 9.999171, 9.999656 
3.5494858e+2, 3.1421113e+2, -114726.39, -84688.25, -23900.178, -0.15070948, -0.2983339, -71479.83, -71479.83, 0.0, 9.999339, 9.999736 
3.6510003e+2, 1.2423444e+2, -1440152.8, -1704313.3, 30146.348, 0.062167827, -0.27718568, -1436756.1, 285718.8, 0.000055122826, 10.002413, 9.998908 
3.6509025e+2, 1.3423325e+2, -1367285.3, -1658430.6, -31089.605, -0.024374234, -0.25206316, -1364002.5, 260484.53, 0.000023501116, 10.00241, 9.998553 
3.6508292e+2, 1.4423163e+2, -1277158.8, -1490540.1, 19510.875, 0.08416182, -0.29923677, -1275389.4, 251113.34, 0.00000526637, 10.00204, 9.999208 
3.6507452e+2, 1.5423095e+2, -1303946.1, -1448716.4, 29104.27, 0.017416334, -0.29374143, -1298314.3, 130194.26, 0.00000017249042, 10.001166, 9.999244 
3.6506635e+2, 1.6423032e+2, -1242762.6, -1354144.0, 9549.682, -0.002774937, -0.28545147, -1241949.8, 88564.88, 0.0, 10.000852, 9.999372 
3.650583e+2, 1.7422983e+2, -1078449.1, -1221716.0, -1916.5803, 0.018544625, -0.276116, -1078423.5, 154097.02, 0.0, 10.001297, 9.999393 
3.6505032e+2, 1.8422918e+2, -992395.3, -1149567.5, 27092.936, 0.02157399, -0.26922756, -987856.2, 146671.4, 0.0, 10.001301, 9.999215 
3.650427e+2, 1.9422841e+2, -981106.56, -1094115.4, 43730.23, 0.0067765894, -0.27141273, -966161.1, 70374.67, 0.0, 10.000709, 9.999208 
3.6503494e+2, 2.0422772e+2, -917767.9, -1003178.6, 33228.707, -0.0021919913, -0.2622734, -906363.2, 32179.742, 0.0, 10.000428, 9.999295 
3.6502704e+2, 2.1422723e+2, -797804.3, -892404.44, 17237.236, -0.005528837, -0.24493124, -794761.4, 45786.89, 0.0, 10.00057, 9.999314 
3.650192e+2, 2.2422649e+2, -734872.3, -855491.1, 20944.299, -0.0131764375, -0.23093602, -731339.0, 11217.571, 0.0, 10.00052, 9.9989195 
3.6501142e+2, 2.3422547e+2, -684582.25, -783546.2, 32788.99, -0.025096094, -0.22551575, -674704.44, -30136.209, 0.0, 10.000205, 9.998892 
3.6500368e+2, 2.4422452e+2, -591457.2, -643930.5, 28577.207, -0.029960668, -0.22599429, -578899.25, -32321.566, 0.0, 9.999983, 9.999285 
3.649958e+2, 2.5422373e+2, -503979.6, -545406.06, 20321.42, -0.027016189, -0.23898609, -495675.63, -47092.25, 0.0, 9.999886, 9.999334 
3.6498794e+2, 2.6422292e+2, -439645.16, -489935.3, 29228.234, -0.046904705, -0.24250968, -426234.22, -75643.41, 0.0, 9.999768, 9.999099 
3.6497995e+2, 2.7422202e+2, -361850.66, -402626.3, 35188.17, -0.09452117, -0.24405515, -341570.7, -88970.02, 0.0, 9.999635, 9.999089 
3.6497214e+2, 2.8422117e+2, -257668.2, -251752.42, 15504.489, -0.095345356, -0.25743788, -238926.2, -84317.625, 0.0, 9.999462, 9.9995365 
3.6496446e+2, 2.9422057e+2, -192540.64, -166226.17, 23390.318, -0.0421631, -0.27762225, -152546.5, -95934.625, 0.0, 9.999222, 9.999566 
3.649563e+2, 3.0422038e+2, -142114.72, -105160.4, 43639.5, -0.082649864, -0.2577944, -76247.57, -76247.57, 0.0, 9.999184, 9.99967 
3.6494806e+2, 3.1421965e+2, -100350.016, -73953.61, -14170.621, -0.14013088, -0.29666537, -67786.914, -67786.914, 0.0, 9.999419, 9.999772 
3.7510258e+2, 1.24242686e+2, -1435451.0, -1694701.1, 40720.79, 0.074644364, -0.2544864, -1429205.4, 293190.34, 0.00005010573, 10.002413, 9.998974 
3.7509245e+2, 1.3424148e+2, -1361837.1, -1644921.3, -30952.785, -0.046012487, -0.24171215, -1358492.3, 265915.47, 0.000020857056, 10.0024, 9.9986515 
3.7508485e+2, 1.4423992e+2, -1264487.1, -1462013.3, -10541.991, 0.07452187, -0.29733568, -1263926.1, 262496.3, 0.000004428325, 10.002029, 9.99941 
3.7507614e+2, 1.5423957e+2, -1288439.3, -1417626.9, -3615.3188, 0.05968205, -0.28031006, -1288338.1, 140086.03, 0.00000011962439, 10.00117, 9.999455 
3.7506774e+2, 1.6423894e+2, -1256798.8, -1384815.8, 22630.646, 0.049963854, -0.27377108, -1252916.0, 77514.43, 0.0, 10.000857, 9.999159 
3.750596e+2, 1.74238e+2, -1096024.1, -1258051.3, 15466.833, 0.021987468, -0.28551227, -1094560.9, 137881.2, 0.0, 10.001295, 9.9991455 
3.750514e+2, 1.8423739e+2, -969154.44, -1100542.1, 7853.119, 0.0005654501, -0.27598447, -968686.75, 165761.98, 0.0, 10.001297, 9.999554 
3.750433e+2, 1.9423734e+2, -953833.4, -1037744.9, 21512.984, -0.003081195, -0.24350668, -948639.44, 87808.73, 0.0, 10.000709, 9.999596 
3.7503538e+2, 2.0423672e+2, -941582.6, -1052829.6, 36562.16, -0.0017820616, -0.23535277, -930642.1, 7812.5293, 0.0, 10.000429, 9.998954 
3.7502772e+2, 2.1423534e+2, -826046.3, -950903.06, 23014.785, 0.003195925, -0.2660749, -821939.1, 18530.922, 0.0, 10.000569, 9.998914 
3.7501988e+2, 2.2423446e+2, -718441.9, -820931.1, 10341.576, 0.0017954374, -0.25342438, -717408.8, 25071.248, 0.0, 10.000517, 9.999158 
3.750118e+2, 2.3423435e+2, -663873.1, -740423.7, 20981.861, -0.006094853, -0.18819197, -658499.44, -14017.09, 0.0, 10.000204, 9.999188 
3.7500364e+2, 2.442335e+2, -603763.3, -669197.5, 24285.475, -0.030856622, -0.18438792, -595734.94, -49244.73, 0.0, 9.999981, 9.999111 
3.7499517e+2, 2.5423184e+2, -519060.1, -576958.6, 16697.383, -0.07981501, -0.26632464, -514589.84, -66085.14, 0.0, 9.9998865, 9.999118 
3.7498736e+2, 2.6423085e+2, -432553.47, -475112.4, 23922.48, -0.08080856, -0.2811328, -421815.75, -71301.58, 0.0, 9.999768, 9.999201 
3.749804e+2, 2.7423072e+2, -352571.3, -382406.28, 30198.797, -0.014962108, -0.21742742, -333806.47, -81289.79, 0.0, 9.99963, 9.99923 
3.749724e+2, 2.8423014e+2, -249231.0, -233169.64, 6454.243, -0.011814667, -0.21756224, -230897.45, -76375.49, 0.0, 9.999457, 9.999666 
3.7496307e+2, 2.9422912e+2, -184244.88, -149430.3, 14189.5625, -0.10130585, -0.29199165, -144379.69, -87850.78, 0.0, 9.999224, 9.999681 
3.749548e+2, 3.0422923e+2, -149475.27, -120748.63, 51305.56, -0.15044297, -0.24389938, -81833.766, -81833.766, 0.0, 9.999185, 9.999562 
3.749483e+2, 3.1422845e+2, -99772.125, -71265.6, -6572.12, -0.05781555, -0.27698112, -69823.375, -69823.375, 0.0, 9.9994135, 9.999793 
3.8510513e+2, 1.24251e+2, -1382134.6, -1660277.0, 61224.152, 0.07356663, -0.26443183, -1369254.5, 353060.44, 0.00004363311, 10.002742, 9.999051 
3.8509455e+2, 1.3425012e+2, -1455746.4, -1676842.3, -21656.182, -0.037625834, -0.23096329, -1453645.1, 170678.47, 0.000017489165, 10.001697, 9.998772 
3.8508666e+2, 1.4424868e+2, -1372281.5, -1503609.1, 6779.7515, 0.09231857, -0.2858804, -1371932.4, 154404.72, 0.0000034194288, 10.001244, 9.999502 
3.850776e+2, 1.5424831e+2, -1221559.4, -1375156.6, 5153.7017, 0.06847837, -0.27970198, -1221386.6, 206952.23, 0.00000006772674, 10.001585, 9.999547 
3.8506898e+2, 1.6424769e+2, -1164939.6, -1344335.0, 38173.664, 0.055848483, -0.27487957, -1157154.5, 173190.47, 0.0, 10.001504, 9.9991255 
3.8506076e+2, 1.7424682e+2, -1161586.6, -1294197.4, 46498.63, 0.030795664, -0.2753848, -1146907.3, 85448.97, 0.0, 10.000864, 9.9991045 
3.8505247e+2, 1.8424624e+2, -1066867.9, -1144722.5, 34867.805, 0.008387443, -0.26260415, -1053535.3, 80827.45, 0.0, 10.000613, 9.99958 
3.850441e+2, 1.9424614e+2, -925815.0, -1020338.06, 22017.396, -0.00096326484, -0.23845187, -920938.06, 115424.5, 0.0, 10.000885, 9.99963 
3.85036e+2, 2.0424548e+2, -884604.9, -1029576.25, 33252.9, -0.0026408324, -0.2321964, -877341.44, 61027.85, 0.0, 10.000838, 9.998917 
3.8502815e+2, 2.1424416e+2, -859619.8, -971942.4, 46038.457, 0.0032063087, -0.25447366, -843161.4, -2776.9507, 0.0, 10.00036, 9.99887 
3.8502017e+2, 2.2424328e+2, -780002.9, -850320.25, 40700.742, 0.0029313012, -0.24074736, -761377.9, -18983.291, 0.0, 10.000093, 9.99916 
3.85012e+2, 2.3424305e+2, -676113.5, -745471.2, 29757.457, -0.0037923646, -0.18528394, -665096.3, -20698.639, 0.0, 10.000116, 9.999196 
3.850037e+2, 2.442422e+2, -586308.4, -662664.06, 29548.494, -0.028449802, -0.18381456, -576209.3, -29803.508, 0.0, 10.000109, 9.999095 
3.849952e+2, 2.5424057e+2, -495188.78, -567513.2, 36475.57, -0.07844647, -0.2579164, -479987.84, -31567.975, 0.0, 10.00006, 9.999099 
3.8498715e+2, 2.642396e+2, -417876.63, -466553.03, 42063.766, -0.08182135, -0.2684756, -393617.4, -43188.477, 0.0, 9.999863, 9.999214 
3.8497984e+2, 2.742395e+2, -377001.94, -392527.06, 38985.74, -0.020165944, -0.20555797, -345013.47, -92582.32, 0.0, 9.9994545, 9.999247 
3.849717e+2, 2.8423887e+2, -275747.16, -251603.58, 13313.027, -0.018968485, -0.21019933, -245704.14, -91266.99, 0.0, 9.999298, 9.999618 
3.8496238e+2, 2.9423773e+2, -148438.19, -139323.81, 7430.1353, -0.106212094, -0.292849, -135164.64, -78718.51, 0.0, 9.999499, 9.999619 
3.849542e+2, 3.042381e+2, -110254.87, -108267.45, 38254.813, -0.14268492, -0.20993292, -70993.445, -70993.445, 0.0, 9.999481, 9.999505 
3.8494766e+2, 3.1423718e+2, -125218.74, -63512.152, -15857.728, -0.048474118, -0.2551553, -59675.484, -59675.484, 0.000000000002787424, 9.999152, 9.999972 
3.9510772e+2, 1.24259375e+2, -1378005.3, -1648510.4, 34551.652, 0.059064053, -0.30589938, -1373661.8, 348570.94, 0.0000362571, 10.002728, 9.999138 
3.9509663e+2, 1.3425916e+2, -1445514.5, -1656061.6, -61221.426, -0.0017404503, -0.21961714, -1429007.1, 195227.77, 0.000013744367, 10.001698, 9.998914 
3.9508832e+2, 1.4425789e+2, -1372883.6, -1505371.1, 15975.991, 0.13459134, -0.2652838, -1370984.4, 155262.66, 0.0000023661473, 10.0012455, 9.99949 
3.9507893e+2, 1.5425716e+2, -1223834.0, -1379205.6, 18248.04, 0.044076134, -0.29218885, -1221719.5, 206533.3, 0.000000028035489, 10.001581, 9.999521 
3.9507008e+2, 1.6425657e+2, -1155676.5, -1323980.6, 16598.004, 0.015604172, -0.28855455, -1154055.3, 176203.25, 0.0, 10.001499, 9.999268 
3.9506176e+2, 1.7425628e+2, -1150304.1, -1270941.8, 22404.084, 0.044363353, -0.24595466, -1146277.8, 85985.41, 0.0, 10.000865, 9.999265 
3.9505342e+2, 1.8425572e+2, -1086257.0, -1185283.9, 42552.723, 0.043613493, -0.22962326, -1070484.0, 63785.797, 0.0, 10.000614, 9.999301 
3.9504513e+2, 1.9425479e+2, -947924.56, -1065966.3, 32673.482, 0.012064734, -0.25621703, -939484.1, 96794.93, 0.0, 10.000883, 9.999318 
3.9503682e+2, 2.0425408e+2, -866503.5, -991283.56, 17312.367, -0.0054760776, -0.25215018, -864146.1, 74140.66, 0.0, 10.000835, 9.999181 
3.950284e+2, 2.142537e+2, -837834.0, -926573.0, 28151.223, -0.0062140753, -0.21092379, -829656.9, 10634.711, 0.0, 10.000359, 9.999182 
3.9502013e+2, 2.242529e+2, -796591.2, -884622.3, 40278.105, -0.010588055, -0.19405906, -780943.56, -38643.066, 0.0, 10.0000925, 9.998925 
3.9501196e+2, 2.3425162e+2, -695616.9, -786189.7, 30843.783, -0.018847559, -0.21659482, -686111.0, -41796.69, 0.0, 10.000117, 9.998917 
3.9500386e+2, 2.442506e+2, -576622.9, -642310.56, 27728.256, -0.023248294, -0.22389536, -566483.3, -20158.855, 0.0, 10.000108, 9.999235 
3.9499575e+2, 2.5425e+2, -483078.6, -541548.3, 34811.973, -0.023852967, -0.21415064, -466854.13, -18525.2, 0.0, 10.000056, 9.999279 
3.9498734e+2, 2.6424927e+2, -423490.6, -477235.9, 27555.11, -0.05125294, -0.20510273, -411874.0, -61538.79, 0.0, 9.999858, 9.999144 
3.949784e+2, 2.7424842e+2, -383617.56, -406804.13, 23376.166, -0.11168996, -0.2081944, -369117.75, -116773.805, 0.0, 9.999456, 9.999147 
3.9497003e+2, 2.8424737e+2, -292216.66, -285925.5, 18951.219, -0.118040994, -0.23531036, -269860.56, -115506.51, 0.0, 9.999299, 9.999381 
3.9496237e+2, 2.9424638e+2, -166574.7, -175411.77, 15216.952, -0.058190085, -0.2807545, -155147.77, -98784.12, 0.0, 9.999493, 9.999373 
3.9495453e+2, 3.0424702e+2, -111495.17, -109065.29, 26878.52, -0.06069486, -0.15595824, -83374.266, -83374.266, 0.0, 9.999475, 9.999503 
3.9494616e+2, 3.1424582e+2, -101978.25, -15344.497, -28484.488, -0.11588415, -0.23084903, -6818.1694, -6818.1694, 0.000000001718879, 9.999153, 10.000302 
4.051101e+2, 1.2426864e+2, -1491407.3, -1693383.1, 49479.465, 0.06267096, -0.28932148, -1479937.3, 242205.48, 0.000028702449, 10.001908, 9.999226 
4.050984e+2, 1.3426839e+2, -1417584.4, -1627378.5, -60244.44, 0.004825107, -0.21989946, -1401515.4, 222629.19, 0.000010028613, 10.001823, 9.999051 
4.0508983e+2, 1.4426705e+2, -1332832.8, -1498910.5, 31165.37, 0.1438853, -0.27290154, -1327177.0, 198980.22, 0.0000013962007, 10.001575, 9.999376 
4.0508026e+2, 1.542664e+2, -1302836.4, -1431825.5, 25890.357, 0.04272905, -0.27965227, -1297833.8, 130329.664, 0.000000006286357, 10.0011015, 9.999392 
4.0507123e+2, 1.6426589e+2, -1233705.5, -1346039.6, 14669.933, 0.011755157, -0.2698269, -1231821.4, 98347.305, 0.0, 10.000896, 9.999406 
4.0506276e+2, 1.7426562e+2, -1110565.3, -1233932.0, 19853.877, 0.04775374, -0.23990987, -1107448.9, 124722.88, 0.0, 10.0010605, 9.999424 
4.050543e+2, 1.84265e+2, -1046342.06, -1187818.9, 48959.37, 0.05036285, -0.22839943, -1031051.75, 103127.03, 0.0, 10.000982, 9.999106 
4.050459e+2, 1.9426392e+2, -1007885.94, -1119612.6, 45933.5, 0.017064719, -0.24895118, -991426.44, 44764.46, 0.0, 10.000579, 9.999096 
4.0503743e+2, 2.0426315e+2, -930215.94, -1014967.6, 22239.621, -0.0010730884, -0.23912169, -924734.56, 13464.8125, 0.0, 10.000368, 9.999244 
4.0502885e+2, 2.142629e+2, -823269.56, -909708.0, 15511.375, -0.0013232278, -0.19335558, -820570.3, 19632.086, 0.0, 10.000417, 9.9992695 
4.0502042e+2, 2.2426215e+2, -753428.06, -867474.2, 32206.297, -0.0069342577, -0.17773136, -744961.6, -2750.864, 0.0, 10.000405, 9.998892 
4.050122e+2, 2.3426072e+2, -670349.5, -778368.4, 40905.883, -0.018618997, -0.20904408, -656607.06, -12381.396, 0.0, 10.00031, 9.998877 
4.0500396e+2, 2.4425966e+2, -577521.2, -649796.1, 35940.6, -0.021524271, -0.21555443, -562691.56, -16455.072, 0.0, 10.000132, 9.999172 
4.0499583e+2, 2.5425914e+2, -518917.25, -565955.44, 24443.477, -0.013350573, -0.19185477, -508515.4, -60274.492, 0.0, 9.99984, 9.999216 
4.049872e+2, 2.6425838e+2, -442292.7, -485329.3, 11841.625, -0.04359226, -0.18111093, -439249.63, -89002.31, 0.0, 9.999724, 9.999152 
4.0497795e+2, 2.7425742e+2, -323894.06, -376756.03, 15532.306, -0.12351336, -0.19920973, -319668.1, -67411.57, 0.0, 9.999861, 9.999159 
4.049694e+2, 2.8425625e+2, -239594.83, -280414.47, 17613.588, -0.13365759, -0.23130257, -233045.44, -78777.65, 0.0, 9.999745, 9.999204 
4.049618e+2, 2.9425514e+2, -213425.56, -219426.9, 17725.62, -0.053595014, -0.26919344, -198448.42, -142168.97, 0.0, 9.999263, 9.999182 
4.0495396e+2, 3.042557e+2, -175690.63, -155538.14, 32679.238, -0.045723096, -0.13328186, -131416.97, -131416.97, 0.0, 9.999101, 9.999363 
4.0494525e+2, 3.1425434e+2, -47779.926, 34552.332, -34889.78, -0.1355488, -0.21553797, 47348.664, 47348.664, 0.00000001196501, 9.999423, 10.000515 
4.151122e+2, 1.24278754e+2, -1486067.0, -1681555.0, 58946.79, 0.080358624, -0.21834253, -1469668.0, 252377.55, 0.000021697306, 10.001906, 9.999308 
4.1510004e+2, 1.342778e+2, -1408241.8, -1608746.3, -63690.992, -0.01748521, -0.23289521, -1389720.9, 234331.81, 0.000006740833, 10.001825, 9.999179 
4.1509116e+2, 1.442762e+2, -1348462.4, -1530423.3, 14614.686, 0.12037518, -0.3081679, -1347296.0, 178771.72, 0.0000006540361, 10.001572, 9.999162 
4.1508156e+2, 1.5427604e+2, -1319202.9, -1465833.6, 8211.519, 0.06327961, -0.24199818, -1318744.4, 109326.26, 0.0000000002364484, 10.0011015, 9.999158 
4.150724e+2, 1.6427559e+2, -1224489.1, -1326843.5, 19020.46, 0.042395204, -0.2195204, -1221068.9, 109006.59, 0.0, 10.000896, 9.999538 
4.1506374e+2, 1.7427482e+2, -1099461.6, -1210703.0, 26350.201, 0.04010529, -0.25747114, -1093535.6, 138546.44, 0.0, 10.00106, 9.999584 
4.1505504e+2, 1.8427409e+2, -1054724.3, -1204584.5, 35301.434, 0.028061675, -0.25857216, -1046824.94, 87264.65, 0.0, 10.000979, 9.998992 
4.1504645e+2, 1.9427349e+2, -1017606.56, -1139600.3, 30990.223, 0.013670173, -0.21698636, -1010185.5, 25912.555, 0.0, 10.000578, 9.99896 
4.150379e+2, 2.0427272e+2, -939805.94, -1034991.06, 22861.47, 0.009956561, -0.19400845, -934599.9, 3507.356, 0.0, 10.000368, 9.999105 
4.1502944e+2, 2.142718e+2, -832818.8, -929553.4, 17701.037, 0.016755523, -0.20144491, -829681.5, 10435.318, 0.0, 10.000417, 9.999133 
4.15021e+2, 2.24271e+2, -741569.56, -842598.8, 28995.367, 0.012772139, -0.19120927, -733839.4, 8286.019, 0.0, 10.000404, 9.9990635 
4.1501263e+2, 2.3427036e+2, -656711.25, -749664.06, 37525.6, -0.0040248106, -0.16333006, -643453.0, 678.99384, 0.0, 10.000308, 9.999075 
4.1500407e+2, 2.4426939e+2, -596400.94, -688436.0, 25441.965, -0.024153588, -0.15969272, -589836.06, -43694.008, 0.0, 10.00013, 9.998908 
4.149953e+2, 2.54268e+2, -540090.25, -610196.2, 13327.054, -0.048208624, -0.19121505, -537642.3, -89486.38, 0.0, 9.999841, 9.998912 
4.1498676e+2, 2.64267e+2, -436175.1, -472563.75, 15533.921, -0.05978459, -0.19651929, -430445.88, -80280.57, 0.0, 9.999724, 9.99924 
4.1497844e+2, 2.7426648e+2, -316219.03, -359435.1, 21185.414, -0.056041297, -0.17863496, -307566.06, -55397.113, 0.0, 9.999855, 9.999281 
4.149698e+2, 2.8426546e+2, -248499.88, -297533.28, 827.34143, -0.06633289, -0.19808392, -248485.92, -94307.555, 0.0, 9.99974, 9.999089 
4.1496062e+2, 2.94264e+2, -222383.0, -238531.6, -1408.5284, -0.09446896, -0.2583334, -222261.06, -166067.47, 0.0, 9.999265, 9.999049 
4.1495252e+2, 3.0426416e+2, -195451.64, -196935.27, 42392.887, -0.10002661, -0.14205843, -153794.08, -153794.08, 0.0, 9.999103, 9.999078 
4.1494492e+2, 3.1426257e+2, -43297.832, 45707.07, -22935.582, -0.110167705, -0.21588984, 51269.668, 51269.668, 0.000000036873733, 9.999415, 10.000595 
4.251142e+2, 1.2428839e+2, -1488217.0, -1686246.5, 72580.74, 0.096583396, -0.20295337, -1464464.1, 257487.89, 0.000015823704, 10.00191, 9.999272 
4.2510164e+2, 1.3428746e+2, -1440266.1, -1621612.3, -73384.86, -0.028670289, -0.21756813, -1414290.4, 209668.86, 0.0000041887733, 10.001597, 9.9992 
4.2509246e+2, 1.4428584e+2, -1372952.5, -1534029.8, 8110.9004, 0.10427088, -0.2992869, -1372545.1, 153429.11, 0.00000021832761, 10.001369, 9.999233 
4.2508283e+2, 1.5428573e+2, -1292563.9, -1444238.6, 23797.97, 0.07261599, -0.2346788, -1288917.6, 139058.6, 0.0, 10.001248, 9.999235 
4.250736e+2, 1.6428524e+2, -1198856.4, -1326702.0, 50010.96, 0.05966047, -0.21413393, -1181617.5, 148363.64, 0.0, 10.001125, 9.99943 
4.2506477e+2, 1.7428434e+2, -1115949.6, -1232337.3, 36769.22, 0.039231993, -0.25474828, -1105306.8, 126682.73, 0.0, 10.001007, 9.999461 
4.250559e+2, 1.8428357e+2, -1073145.8, -1213426.0, 27315.383, 0.022176556, -0.25329724, -1068014.6, 65982.97, 0.0, 10.000854, 9.998992 
4.2504713e+2, 1.9428307e+2, -1005432.8, -1132639.1, 32654.393, 0.021012338, -0.2023748, -997540.06, 38464.88, 0.0, 10.000657, 9.998968 
4.2503852e+2, 2.0428222e+2, -918985.1, -1039860.0, 43352.293, 0.021961808, -0.18115865, -905044.44, 32970.387, 0.0, 10.000577, 9.998971 
4.2503002e+2, 2.14281e+2, -809398.5, -934247.9, 38448.258, 0.021604234, -0.20583194, -798508.06, 41519.543, 0.0, 10.000648, 9.99899 
4.2502147e+2, 2.2428009e+2, -721585.6, -832091.3, 34007.5, 0.01405107, -0.19687513, -711958.7, 30078.295, 0.0, 10.000538, 9.999071 
4.2501292e+2, 2.3427969e+2, -672677.8, -755053.7, 28006.021, -0.0010131539, -0.14761259, -664058.25, -20016.902, 0.0, 10.000189, 9.999095 
4.2500412e+2, 2.4427876e+2, -612300.06, -701054.06, 21644.365, -0.027075166, -0.13862363, -607303.0, -61251.992, 0.0, 10.000041, 9.998864 
4.2499512e+2, 2.5427717e+2, -496084.4, -594695.75, 28532.986, -0.06727386, -0.18782476, -488423.6, -40356.484, 0.0, 10.000168, 9.99886 
4.2498654e+2, 2.6427606e+2, -387172.1, -454486.0, 34971.305, -0.071240604, -0.19779359, -372292.63, -22215.07, 0.0, 10.000084, 9.99919 
4.2497852e+2, 2.7427563e+2, -340772.13, -376447.78, 27783.06, -0.028249362, -0.16501825, -325593.5, -73513.14, 0.0, 9.999708, 9.999234 
4.2496973e+2, 2.8427467e+2, -282650.1, -321328.25, 903.61505, -0.036259428, -0.17413218, -282629.0, -128539.74, 0.0, 9.9995365, 9.999023 
4.2495993e+2, 2.9427308e+2, -170762.8, -220978.72, 2400.7668, -0.10992513, -0.23641045, -170648.28, -114543.18, 0.0, 9.999651, 9.998984 
4.2495164e+2, 3.042728e+2, -159479.42, -202060.55, 53493.895, -0.11323324, -0.15403974, -123194.95, -123194.95, 0.0, 9.999446, 9.998878 
4.2494425e+2, 3.1427097e+2, -119868.11, 21739.988, -4603.19, -0.090080455, -0.23365524, 21889.465, 21889.465, 0.00000007454206, 9.998833, 10.000711 
4.3511626e+2, 1.24297604e+2, -1500012.6, -1710356.4, 75148.45, 0.10913215, -0.24007086, -1475923.5, 245938.19, 0.0000113764345, 10.001908, 9.999107 
4.3510318e+2, 1.3429736e+2, -1446690.0, -1635361.8, -84804.94, -0.030593036, -0.1742404, -1414175.0, 209688.84, 0.0000025044064, 10.001596, 9.999106 
4.3509376e+2, 1.4429596e+2, -1348888.6, -1483059.4, 3636.2017, 0.09395434, -0.24800394, -1348790.1, 177086.94, 0.000000047491298, 10.001366, 9.999585 
4.3508404e+2, 1.5429549e+2, -1265569.1, -1388601.4, 19550.229, 0.0701788, -0.25834295, -1262537.3, 165342.92, 0.0, 10.001249, 9.999617 
4.3507478e+2, 1.6429487e+2, -1223579.6, -1377911.8, 45588.855, 0.062606655, -0.2536679, -1211119.0, 118766.83, 0.0, 10.001125, 9.999078 
4.3506584e+2, 1.7429417e+2, -1144667.8, -1291601.6, 32786.066, 0.04397015, -0.2317967, -1137684.0, 94210.02, 0.0, 10.001005, 9.999055 
4.3505684e+2, 1.8429342e+2, -1065741.5, -1197403.9, 20102.264, 0.031523474, -0.21307662, -1062740.6, 71162.0, 0.0, 10.000852, 9.999103 
4.3504795e+2, 1.9429265e+2, -994719.5, -1110455.0, 25466.918, 0.03813549, -0.20469613, -989363.5, 46548.03, 0.0, 10.000658, 9.99912 
4.350392e+2, 2.0429166e+2, -928052.6, -1058842.9, 45442.496, 0.034055587, -0.20004456, -913813.94, 24108.268, 0.0, 10.000577, 9.99884 
4.3503058e+2, 2.1429045e+2, -820232.44, -956481.7, 41533.85, 0.012385403, -0.20691434, -808569.7, 31365.07, 0.0, 10.000647, 9.998837 
4.3502185e+2, 2.2428943e+2, -732830.6, -855145.1, 21980.809, -0.003716747, -0.19508407, -729000.44, 12945.28, 0.0, 10.000536, 9.998914 
4.35013e+2, 2.342887e+2, -683811.9, -778345.5, 14884.282, -0.0106028505, -0.16188583, -681523.75, -37569.844, 0.0, 10.00019, 9.998935 
4.3500412e+2, 2.4428777e+2, -600103.06, -675603.75, 25008.541, -0.031296626, -0.15220883, -592570.75, -46607.324, 0.0, 10.000041, 9.999039 
4.3499523e+2, 2.542866e+2, -482264.06, -565354.7, 33579.395, -0.07127024, -0.18149473, -470390.38, -22415.77, 0.0, 10.000165, 9.999063 
4.3498653e+2, 2.6428556e+2, -400696.13, -481979.2, 22049.5, -0.078568995, -0.18481155, -395100.1, -45115.94, 0.0, 10.000082, 9.999003 
4.349781e+2, 2.7428484e+2, -355626.66, -407645.53, 13233.06, -0.042126834, -0.15853229, -352453.8, -100462.96, 0.0, 9.99971, 9.99902 
4.349692e+2, 2.8428385e+2, -284070.56, -323981.94, 3699.0874, -0.045625787, -0.15953928, -283730.63, -129730.016, 0.0, 9.999536, 9.999005 
4.3495965e+2, 2.9428244e+2, -171410.33, -221186.89, 6931.6226, -0.10044779, -0.20340742, -170463.1, -114449.02, 0.0, 9.999646, 9.998985 
4.3495136e+2, 3.0428165e+2, -167984.25, -218427.45, 31592.232, -0.085435875, -0.16837063, -152780.64, -152780.64, 0.0, 9.99944, 9.998768 
4.3494317e+2, 3.1427938e+2, -109249.82, 44662.105, -25487.326, -0.07891486, -0.27747157, 48772.93, 48772.93, 0.0000001100893, 9.998829, 10.000871 
4.4511792e+2, 1.2430737e+2, -1528583.9, -1721408.4, 100312.15, 0.0936566, -0.2570218, -1485863.6, 235902.14, 0.000008277144, 10.001701, 9.999131 
4.4510478e+2, 1.343074e+2, -1495781.4, -1648573.4, -60251.83, -0.012991202, -0.17348774, -1474880.9, 148884.78, 0.0000015575915, 10.001213, 9.999202 
4.4509512e+2, 1.4430608e+2, -1393656.9, -1510717.0, 40430.344, 0.11122377, -0.2418374, -1381050.6, 144727.63, 0.000000013935479, 10.001084, 9.999532 
4.4508526e+2, 1.5430553e+2, -1246800.8, -1386729.9, 23558.44, 0.060669728, -0.25318226, -1242940.9, 184841.36, 0.0, 10.0014105, 9.999552 
4.4507587e+2, 1.6430485e+2, -1186832.0, -1362630.1, 29344.469, 0.04756206, -0.24997997, -1182063.1, 147725.36, 0.0, 10.001389, 9.999055 
4.4506687e+2, 1.7430413e+2, -1158455.1, -1300227.4, 44338.758, 0.05152649, -0.22998935, -1145730.5, 86066.48, 0.0, 10.00092, 9.999037 
4.450578e+2, 1.8430331e+2, -1079704.5, -1211930.0, 53686.94, 0.04592338, -0.21212967, -1060651.6, 73154.4, 0.0, 10.00079, 9.999032 
4.4504884e+2, 1.9430245e+2, -935059.4, -1089906.6, 43013.813, 0.03805095, -0.20393498, -923913.25, 111902.52, 0.0, 10.001103, 9.999046 
4.4503996e+2, 2.0430145e+2, -860667.2, -1031706.2, 47128.87, 0.027246313, -0.19667563, -848540.8, 89285.9, 0.0, 10.001063, 9.998793 
4.4503117e+2, 2.1430026e+2, -836548.56, -969430.94, 49975.24, 0.009791712, -0.19686913, -819851.56, 19987.322, 0.0, 10.000557, 9.998792 
4.4502226e+2, 2.2429912e+2, -766414.8, -880883.2, 42073.594, -0.008381785, -0.18968111, -752614.25, -10763.402, 0.0, 10.000347, 9.998828 
4.450132e+2, 2.3429811e+2, -640820.2, -767684.94, 40497.523, -0.02630524, -0.17671011, -628994.9, 14866.967, 0.0, 10.000528, 9.998845 
4.450043e+2, 2.4429712e+2, -537012.2, -645533.4, 46128.227, -0.040411554, -0.16816974, -520054.63, 25817.365, 0.0, 10.000476, 9.999036 
4.4499558e+2, 2.5429615e+2, -489062.34, -567604.1, 39520.33, -0.050287873, -0.1736481, -472619.16, -24738.5, 0.0, 10.000114, 9.999072 
4.4498676e+2, 2.6429513e+2, -431858.4, -510914.72, 21226.404, -0.056178458, -0.17274795, -426519.7, -76629.27, 0.0, 9.9999275, 9.9988785 
4.449778e+2, 2.742941e+2, -326276.94, -409088.63, 17822.611, -0.056501977, -0.16519159, -322604.06, -70703.17, 0.0, 9.999978, 9.99888 
4.4496867e+2, 2.8429306e+2, -239990.73, -304353.28, 12245.034, -0.06579013, -0.16098917, -237739.83, -83828.56, 0.0, 9.999845, 9.998992 
4.4495937e+2, 2.9429197e+2, -201371.95, -235015.48, 14632.278, -0.08290118, -0.17444547, -195898.53, -139976.72, 0.0, 9.999437, 9.998991 
4.44951e+2, 3.0429083e+2, -219274.94, -245752.14, 34620.69, -0.048833888, -0.16939399, -195448.02, -195448.02, 0.00000000000009396187, 9.999099, 9.998745 
4.44942e+2, 3.1428888e+2, -86262.1, 71868.28, -14466.8125, -0.08433614, -0.24717106, 73180.9, 73180.9, 0.00000013361628, 9.998918, 10.001015 
4.5511916e+2, 1.2431767e+2, -1514621.4, -1690613.9, 97198.51, 0.049509346, -0.25502113, -1471503.6, 250160.98, 0.0000061456926, 10.001695, 9.999346 
4.5510632e+2, 1.3431755e+2, -1474529.1, -1606405.4, -78431.766, 0.022857672, -0.2154662, -1438000.9, 185663.75, 0.0000010596042, 10.00122, 9.999489 
4.5509663e+2, 1.4431618e+2, -1424886.8, -1576948.3, 51293.613, 0.15354142, -0.2807382, -1409202.1, 116475.74, 0.000000007555667, 10.00109, 9.999074 
4.5508653e+2, 1.5431586e+2, -1282625.9, -1460751.4, 36437.703, 0.042293537, -0.2191994, -1275460.4, 152222.19, 0.0, 10.001409, 9.999045 
4.5507693e+2, 1.6431518e+2, -1165933.1, -1318121.8, 13671.751, 0.014134917, -0.20349254, -1164714.8, 164974.6, 0.0, 10.001384, 9.999363 
4.5506787e+2, 1.7431414e+2, -1132411.1, -1246632.6, 26940.523, 0.061446086, -0.24898125, -1126375.9, 105322.42, 0.0, 10.000922, 9.999404 
4.5505878e+2, 1.8431324e+2, -1097087.1, -1248497.8, 63688.15, 0.064140484, -0.25030982, -1073860.8, 59847.004, 0.0, 10.000792, 9.99878 
4.5504975e+2, 1.9431251e+2, -956218.7, -1133286.9, 55240.76, 0.019668961, -0.20044054, -940398.5, 95319.266, 0.0, 10.0011015, 9.99875 
4.5504075e+2, 2.0431156e+2, -858812.3, -1027212.25, 30024.24, 0.001018891, -0.17152661, -853619.4, 84109.19, 0.0, 10.0010605, 9.998825 
4.5503175e+2, 2.143104e+2, -832428.56, -961060.9, 30933.19, 0.013129004, -0.17539434, -825376.44, 14363.508, 0.0, 10.000557, 9.998849 
4.5502263e+2, 2.2430916e+2, -767298.3, -883096.06, 47084.1, -0.0006927806, -0.18049456, -750570.2, -8817.842, 0.0, 10.000349, 9.998812 
4.5501348e+2, 2.3430789e+2, -642300.5, -770715.9, 47408.45, -0.048368808, -0.19211961, -626694.7, 17070.707, 0.0, 10.000527, 9.998824 
4.550046e+2, 2.4430676e+2, -549960.7, -672201.4, 33783.055, -0.05475523, -0.18634684, -541245.6, 4531.1445, 0.0, 10.000474, 9.998854 
4.5499617e+2, 2.5430587e+2, -502445.03, -595155.6, 25753.021, -0.005800182, -0.16488671, -495771.75, -47986.363, 0.0, 10.0001135, 9.998883 
4.5498723e+2, 2.6430476e+2, -436643.25, -520637.13, 21841.375, -0.005299297, -0.16197038, -431303.22, -81506.63, 0.0, 9.999927, 9.998813 
4.549776e+2, 2.7430335e+2, -330646.6, -418219.63, 20170.584, -0.07191759, -0.18529887, -326224.06, -74413.48, 0.0, 9.999978, 9.998818 
4.5496818e+2, 2.843023e+2, -241350.84, -306195.22, -2016.1426, -0.09744151, -0.17833783, -241288.22, -87466.86, 0.0, 9.999841, 9.9989805 
4.5495903e+2, 2.943016e+2, -201039.69, -233661.92, -1546.7476, -0.059020083, -0.14979683, -200966.52, -145138.02, 0.0, 9.999434, 9.9990015 
4.5495054e+2, 3.0430043e+2, -215751.25, -237414.58, 26468.39, -0.0051753307, -0.15672696, -197983.95, -197983.95, 0.00000000000087855477, 9.999094, 9.998805 
4.5494068e+2, 3.1429935e+2, -77838.06, 90348.33, -17789.426, -0.10852132, -0.1518811, 92209.36, 92209.36, 0.00000014519496, 9.998914, 10.001143 
4.6512067e+2, 1.2432818e+2, -1586548.9, -1740168.6, 122645.66, 0.051390026, -0.24683921, -1518646.3, 202915.0, 0.000004581255, 10.0012665, 9.999211 
4.6510786e+2, 1.3432786e+2, -1406409.8, -1581295.5, -94117.55, 0.027963525, -0.2197649, -1365383.4, 258180.05, 0.0000007444035, 10.001721, 9.999419 
4.6509796e+2, 1.4432642e+2, -1343163.9, -1544832.3, 29597.006, 0.14756376, -0.28692773, -1338909.9, 186667.89, 0.0000000034677494, 10.001683, 9.999009 
4.650877e+2, 1.5432619e+2, -1345861.9, -1498197.9, 46592.215, 0.043219443, -0.20931986, -1332741.6, 94840.19, 0.0, 10.001005, 9.998982 
4.6507803e+2, 1.6432552e+2, -1244815.0, -1360961.5, 37967.668, 0.015497767, -0.1883925, -1233504.9, 96083.88, 0.0, 10.000863, 9.99932 
4.6506897e+2, 1.7432436e+2, -1062706.1, -1217925.3, 21523.934, 0.053959273, -0.24321584, -1059776.6, 171822.33, 0.0, 10.001422, 9.99936 
4.6505982e+2, 1.8432337e+2, -1001599.0, -1208502.1, 41896.97, 0.056131914, -0.2467043, -993437.0, 140172.14, 0.0, 10.001473, 9.998727 
4.6505076e+2, 1.9432265e+2, -994225.9, -1157568.8, 51297.223, 0.022355475, -0.18978241, -979452.4, 56166.574, 0.0, 10.000866, 9.998696 
4.6504164e+2, 2.0432168e+2, -914329.3, -1052616.0, 37884.293, 0.0039995504, -0.16080165, -904630.9, 32998.93, 0.0, 10.000673, 9.998837 
4.650324e+2, 2.1432044e+2, -764140.1, -926467.0, 35716.586, 0.002002548, -0.17364992, -756629.0, 83012.664, 0.0, 10.001019, 9.998864 
4.6502322e+2, 2.2431913e+2, -678425.2, -851598.75, 44937.08, -0.011228012, -0.18098764, -667458.8, 74195.72, 0.0, 10.001008, 9.998711 
4.650141e+2, 2.3431782e+2, -648643.3, -785662.3, 38245.71, -0.038867734, -0.1860484, -638690.8, 4977.4634, 0.0, 10.000536, 9.998717 
4.6500513e+2, 2.4431665e+2, -579205.44, -691260.6, 25956.809, -0.04172842, -0.17727426, -573484.75, -27804.555, 0.0, 10.000296, 9.998809 
4.6499634e+2, 2.543157e+2, -470403.72, -584756.06, 28864.717, -0.010055768, -0.15765224, -463530.8, -15841.363, 0.0, 10.000355, 9.998838 
4.6498725e+2, 2.6431447e+2, -392542.8, -501862.84, 32626.23, -0.00935516, -0.15964878, -383546.03, -33844.574, 0.0, 10.000239, 9.998792 
4.649777e+2, 2.7431303e+2, -343961.56, -426547.22, 33369.05, -0.05389201, -0.19001822, -332164.0, -80447.72, 0.0, 9.999895, 9.998801 
4.649681e+2, 2.84312e+2, -268191.47, -323444.03, 9323.348, -0.0818661, -0.17465617, -266660.66, -112934.15, 0.0, 9.999675, 9.998942 
4.649584e+2, 2.9431152e+2, -178834.55, -226234.28, 6072.316, -0.07567165, -0.122481786, -178068.98, -122337.13, 0.0, 9.999601, 9.998973 
4.6494967e+2, 3.043099e+2, -178021.78, -218182.55, 28321.469, -0.012168042, -0.16977924, -163384.33, -163384.33, 0.00000000000042122027, 9.999348, 9.998816 
4.6493983e+2, 3.143092e+2, -84944.46, 81022.91, -16263.299, -0.082497016, -0.12788352, 82601.55, 82601.55, 0.00000014428599, 9.998889, 10.001092 
4.7512236e+2, 1.2433889e+2, -1620037.4, -1810021.4, 152569.72, 0.09329878, -0.23336074, -1535304.6, 186151.31, 0.0000033199578, 10.001267, 9.998732 
4.751093e+2, 1.3433836e+2, -1436472.6, -1642930.1, -76922.97, 0.0021449632, -0.18633056, -1410964.0, 212498.08, 0.00000048107097, 10.001716, 9.999 
4.750991e+2, 1.4433677e+2, -1321390.3, -1498227.8, 7315.4404, 0.09388884, -0.25983235, -1321088.1, 204389.81, 0.000000000765976, 10.001677, 9.999331 
4.750889e+2, 1.543365e+2, -1318568.0, -1442939.3, 21148.463, 0.061598185, -0.2232268, -1315070.3, 112409.92, 0.0, 10.001011, 9.999359 
4.7507927e+2, 1.6433583e+2, -1271033.8, -1417179.9, 55861.17, 0.048879795, -0.20483093, -1252127.9, 77359.24, 0.0, 10.000871, 9.99893 
4.7507012e+2, 1.7433469e+2, -1094071.4, -1282693.8, 43005.418, 0.027644964, -0.2131039, -1084729.0, 146770.27, 0.0, 10.00142, 9.998916 
4.7506094e+2, 1.8433368e+2, -991833.9, -1187233.9, 21891.092, 0.021225544, -0.20162985, -989411.44, 144098.86, 0.0, 10.001469, 9.998875 
4.7505185e+2, 1.9433288e+2, -980528.9, -1129695.4, 28527.844, 0.045533318, -0.17161784, -975259.1, 60260.27, 0.0, 10.000868, 9.998886 
4.750426e+2, 2.043318e+2, -914672.3, -1053901.1, 48560.547, 0.035088513, -0.16430612, -899408.6, 38121.953, 0.0, 10.000676, 9.998827 
4.7503313e+2, 2.1433039e+2, -765968.5, -930122.8, 48894.723, -0.024468904, -0.19157079, -752508.5, 87035.5, 0.0, 10.001018, 9.998839 
4.7502393e+2, 2.2432907e+2, -691886.94, -879323.56, 28929.775, -0.040594034, -0.19104597, -687523.4, 54034.13, 0.0, 10.001006, 9.998521 
4.7501504e+2, 2.3432793e+2, -662551.9, -814164.44, 20452.64, 0.0010267757, -0.15893348, -659841.3, -16270.712, 0.0, 10.000534, 9.998523 
4.7500584e+2, 2.4432679e+2, -573208.4, -678674.4, 26709.85, -0.0024276676, -0.14121331, -566829.75, -21247.258, 0.0, 10.000295, 9.998896 
4.7499615e+2, 2.5432563e+2, -463168.13, -570100.6, 31154.414, -0.06363785, -0.15160663, -454753.53, -7160.623, 0.0, 10.000356, 9.998939 
4.7498688e+2, 2.6432437e+2, -391272.72, -499178.1, 20470.684, -0.06865322, -0.16508141, -387519.75, -37914.723, 0.0, 10.000239, 9.99881 
4.7497812e+2, 2.7432305e+2, -342860.97, -423556.84, 20398.936, -0.003493123, -0.17944326, -337997.47, -86379.39, 0.0, 9.999892, 9.998823 
4.7496837e+2, 2.8432217e+2, -273231.75, -333137.4, 5714.357, -0.020249348, -0.15028471, -272691.53, -119064.664, 0.0, 9.999671, 9.998878 
4.749574e+2, 2.943217e+2, -183242.64, -235528.48, 3332.969, -0.13488904, -0.093802676, -183031.05, -127398.96, 0.0, 9.999601, 9.998909 
4.7494844e+2, 3.0431932e+2, -181697.08, -224659.78, 11268.618, -0.07130696, -0.21007778, -178920.86, -178920.86, 0.0, 9.999343, 9.998773 
4.7493947e+2, 3.1431836e+2, -101188.16, 48534.67, -27686.768, -0.0076021934, -0.18581975, 53490.477, 53490.477, 0.00000012581201, 9.998884, 10.000871 
4.851241e+2, 1.2434905e+2, -1548890.3, -1769424.8, 125626.375, 0.11748501, -0.22537686, -1492002.4, 229354.73, 0.0000022837717, 10.001732, 9.998785 
4.851108e+2, 1.3434872e+2, -1520406.9, -1668192.1, -77802.766, 0.01248027, -0.17140809, -1486999.0, 136361.86, 0.0000002759338, 10.001075, 9.999136 
4.8510024e+2, 1.4434715e+2, -1427437.5, -1557180.0, 18529.83, 0.0787672, -0.24752983, -1424843.0, 100533.41, 0.000000000009128432, 10.000982, 9.999263 
4.850902e+2, 1.5434659e+2, -1241808.4, -1415593.5, -1709.8784, 0.06252472, -0.23288147, -1241791.5, 185590.16, 0.0, 10.001579, 9.999273 
4.850806e+2, 1.6434585e+2, -1159555.4, -1371537.4, 26791.121, 0.055950873, -0.21349207, -1156221.9, 173167.67, 0.0, 10.001671, 9.998858 
4.850714e+2, 1.7434494e+2, -1142853.3, -1314010.8, 41271.563, 0.027890544, -0.19046095, -1133421.1, 97978.85, 0.0, 10.001118, 9.998847 
4.850621e+2, 1.8434398e+2, -1063073.1, -1212948.3, 27938.258, 0.017393414, -0.17475158, -1058034.6, 75375.914, 0.0, 10.000941, 9.998953 
4.8505285e+2, 1.9434296e+2, -919650.0, -1090456.0, 26574.244, 0.04101623, -0.17564666, -915611.06, 119809.81, 0.0, 10.001243, 9.998976 
4.8504356e+2, 2.043418e+2, -836017.06, -1021496.8, 45613.29, 0.032307968, -0.17846288, -825406.8, 112025.72, 0.0, 10.001239, 9.998778 
4.8503408e+2, 2.143405e+2, -796034.8, -950954.0, 43850.043, -0.022382574, -0.18882957, -784484.2, 54961.125, 0.0, 10.000838, 9.998783 
4.8502478e+2, 2.2433925e+2, -742676.9, -899239.56, 24466.867, -0.037537467, -0.18000792, -738942.4, 2515.9297, 0.0, 10.000638, 9.998562 
4.8501566e+2, 2.3433813e+2, -635812.4, -796169.44, 33491.883, -0.00013142156, -0.15015705, -629098.44, 14372.525, 0.0, 10.000695, 9.998569 
4.8500624e+2, 2.4433696e+2, -532271.5, -667744.8, 47666.66, -0.004531636, -0.13470928, -517180.8, 28302.42, 0.0, 10.000613, 9.998817 
4.849965e+2, 2.543357e+2, -468734.9, -582328.5, 37556.063, -0.06309204, -0.14814618, -457441.1, -9945.971, 0.0, 10.00036, 9.998853 
4.8498705e+2, 2.643344e+2, -397103.6, -490028.53, 16851.107, -0.067689665, -0.16380034, -394142.16, -44634.793, 0.0, 10.000149, 9.998917 
4.8497802e+2, 2.743332e+2, -322983.84, -400963.94, 24277.363, -0.0040655844, -0.17766981, -316043.38, -64524.574, 0.0, 9.999973, 9.9989395 
4.8496813e+2, 2.8433242e+2, -252953.61, -326620.6, 20888.361, -0.018389096, -0.14573249, -247442.92, -93916.56, 0.0, 9.999825, 9.998849 
4.8495716e+2, 2.943319e+2, -168393.56, -231253.81, 20474.912, -0.12572142, -0.0856869, -162312.69, -106781.62, 0.0, 9.999715, 9.998883 
4.8494804e+2, 3.043291e+2, -159199.3, -214965.3, 20177.738, -0.053193823, -0.24550831, -152664.23, -152664.23, 0.0, 9.999501, 9.998764 
4.8493853e+2, 3.1432822e+2, -83396.62, 24760.76, -11587.863, -0.00034867853, -0.21286084, 25988.338, 25988.338, 0.00000009052117, 9.999146, 10.000582 
4.951259e+2, 1.2435869e+2, -1511545.4, -1689537.9, 114650.28, 0.12157551, -0.22148569, -1455403.6, 265860.8, 0.0000015131136, 10.001721, 9.999338 
4.9511227e+2, 1.3435894e+2, -1472500.4, -1571037.8, -102473.43, 0.05459932, -0.17501226, -1408066.9, 215193.23, 0.00000014199817, 10.001082, 9.9998 
4.9510145e+2, 1.4435753e+2, -1457986.6, -1622414.9, 38005.637, 0.0972664, -0.24975851, -1449627.0, 75646.54, 0.0, 10.00099, 9.998812 
4.9509162e+2, 1.5435642e+2, -1278999.9, -1492748.4, 20918.975, 0.045556843, -0.23731443, -1276971.9, 150314.39, 0.0, 10.001578, 9.998744 
4.9508205e+2, 1.6435555e+2, -1142902.8, -1336437.6, 8778.76, 0.03683908, -0.21319796, -1142505.4, 186790.66, 0.0, 10.001668, 9.999101 
4.9507275e+2, 1.7435509e+2, -1121487.5, -1270527.3, 20720.691, 0.052763376, -0.17501977, -1118660.4, 112640.76, 0.0, 10.0011215, 9.999144 
4.950633e+2, 1.8435423e+2, -1061932.6, -1211090.9, 37261.004, 0.042365506, -0.16596213, -1053142.6, 80167.41, 0.0, 10.000943, 9.998965 
4.9505377e+2, 1.9435287e+2, -920390.9, -1091669.6, 38218.313, 0.008236868, -0.20149894, -912250.0, 123073.47, 0.0, 10.001241, 9.998968 
4.950444e+2, 2.0435166e+2, -842314.2, -1034076.25, 32023.06, -0.00447524, -0.20283288, -837107.9, 100227.77, 0.0, 10.001237, 9.998694 
4.9503523e+2, 2.1435076e+2, -802317.7, -963769.75, 28901.252, 0.007375803, -0.1656567, -797300.06, 42045.63, 0.0, 10.000837, 9.998696 
4.9502575e+2, 2.2434968e+2, -724108.1, -860730.4, 25545.896, -0.0033960124, -0.1482183, -719487.75, 21869.283, 0.0, 10.000638, 9.998827 
4.950159e+2, 2.3434843e+2, -615685.5, -754703.2, 35660.63, -0.0426621, -0.15915889, -607071.6, 36297.82, 0.0, 10.000696, 9.998854 
4.950064e+2, 2.4434716e+2, -549647.5, -704004.2, 38559.76, -0.04819776, -0.15698503, -540551.0, 4831.47, 0.0, 10.000614, 9.998569 
4.949974e+2, 2.5434583e+2, -488620.9, -623165.56, 28111.836, -0.00956062, -0.14756161, -482983.4, -35587.227, 0.0, 10.000358, 9.998574 
4.9498782e+2, 2.6434457e+2, -383627.4, -461558.03, 9922.679, -0.007848952, -0.15628636, -382383.84, -32975.16, 0.0, 10.000146, 9.999113 
4.9497747e+2, 2.7434343e+2, -307369.78, -368677.4, 17740.867, -0.05741202, -0.18540785, -302606.16, -51187.633, 0.0, 9.999973, 9.999161 
4.9496734e+2, 2.8434268e+2, -253291.66, -327073.84, 16534.83, -0.0771016, -0.16119097, -249755.61, -96330.61, 0.0, 9.999824, 9.998847 
4.9495766e+2, 2.943422e+2, -167987.03, -230101.11, 16772.45, -0.047018275, -0.09743817, -163747.4, -108318.555, 0.0, 9.999714, 9.998893 
4.9494848e+2, 3.0433926e+2, -158119.9, -211439.47, 6894.091, 0.042697713, -0.2758118, -157242.94, -157242.94, 0.0, 9.999496, 9.998791 
4.94937e+2, 3.1433862e+2, -108125.54, -25062.145, -18591.02, -0.06769969, -0.216549, -21091.008, -21091.008, 0.000000050936965, 9.999141, 10.000242 
5.051273e+2, 1.2436868e+2, -1575727.0, -1728909.8, 164069.2, 0.113553785, -0.24308589, -1471252.3, 249913.53, 0.0000009949754, 10.001319, 9.999262 
5.0511384e+2, 1.3436902e+2, -1400738.3, -1537578.8, -113510.88, 0.07656721, -0.18721725, -1336621.5, 286539.56, 0.000000065122016, 10.001579, 9.999791 
5.0510275e+2, 1.4436772e+2, -1368877.5, -1583257.3, 27566.396, 0.10081922, -0.24766237, -1365389.5, 159784.25, 0.0, 10.001617, 9.998778 
5.050931e+2, 1.5436664e+2, -1315547.9, -1514190.9, 45729.965, 0.046728995, -0.2297182, -1305526.0, 121660.516, 0.0, 10.001344, 9.998711 
5.050835e+2, 1.6436574e+2, -1206943.8, -1364614.3, 31830.969, 0.036273334, -0.20807059, -1200760.1, 128436.48, 0.0, 10.001215, 9.999126 
5.0507396e+2, 1.743652e+2, -1098683.8, -1256323.4, 23334.055, 0.053115916, -0.18269084, -1095302.3, 135900.16, 0.0, 10.001264, 9.999174 
5.050643e+2, 1.8436432e+2, -1024930.25, -1193318.4, 39252.26, 0.04090872, -0.17492971, -1016229.9, 116981.38, 0.0, 10.001197, 9.998965 
5.050548e+2, 1.943631e+2, -958171.5, -1110241.0, 41029.02, -0.0003761014, -0.19618408, -947808.0, 87415.59, 0.0, 10.000982, 9.998966 
5.0504535e+2, 2.0436198e+2, -892194.56, -1051180.4, 32069.316, -0.012517149, -0.19408356, -885969.56, 51265.63, 0.0, 10.000863, 9.998756 
5.050361e+2, 2.1436101e+2, -793151.5, -951780.8, 39641.863, 0.010519827, -0.16830887, -783796.56, 55448.92, 0.0, 10.000867, 9.998764 
5.050266e+2, 2.2435994e+2, -695651.7, -842160.56, 40656.484, 0.0029397202, -0.15414228, -685125.7, 56130.8, 0.0, 10.000813, 9.99887 
5.0501657e+2, 2.3435882e+2, -614849.3, -749830.2, 32678.545, -0.04420095, -0.15827478, -607354.1, 35913.703, 0.0, 10.000684, 9.998894 
5.050069e+2, 2.4435759e+2, -558375.25, -701153.4, 29957.47, -0.052388232, -0.15600134, -552344.4, -7064.166, 0.0, 10.0005245, 9.9986315 
5.0499773e+2, 2.5435627e+2, -489754.63, -616829.1, 45203.258, -0.008875577, -0.15383808, -475315.47, -28021.658, 0.0, 10.0003195, 9.998635 
5.04988e+2, 2.64355e+2, -381749.22, -464591.0, 36667.094, -0.0045946985, -0.16169742, -367851.34, -18545.176, 0.0, 10.000177, 9.999077 
5.049775e+2, 2.7435395e+2, -288562.1, -364743.34, 23378.715, -0.055906408, -0.1815671, -281959.78, -30643.678, 0.0, 10.000125, 9.999115 
5.0496733e+2, 2.8435317e+2, -219706.88, -304516.84, 12570.937, -0.07361802, -0.15770818, -217882.78, -64560.168, 0.0, 10.000027, 9.998903 
5.0495756e+2, 2.9435265e+2, -144929.69, -210649.03, 18539.59, -0.034035563, -0.10217043, -140060.4, -84734.36, 0.0, 9.999838, 9.998966 
5.049482e+2, 3.0434984e+2, -129951.35, -181919.56, 9793.086, 0.062363606, -0.27951556, -128167.164, -128167.164, 0.0, 9.999622, 9.998932 
5.0493634e+2, 3.143497e+2, -89016.95, -43385.543, -1641.8899, -0.05909692, -0.1847538, -43326.543, -43326.543, 0.000000020855737, 9.999391, 9.999995 
5.151284e+2, 1.2437902e+2, -1622516.6, -1826510.9, 182548.3, 0.086986504, -0.28719074, -1515403.0, 205658.38, 0.00000067894854, 10.001321, 9.998591 
5.1511544e+2, 1.3437897e+2, -1445553.4, -1631721.3, -104138.26, 0.07955206, -0.20650095, -1398961.3, 224102.5, 0.000000029496794, 10.001583, 9.999144 
5.1510423e+2, 1.4437777e+2, -1343602.4, -1530698.9, 18756.516, 0.08909732, -0.24029069, -1341740.6, 183336.2, 0.0, 10.0016165, 9.999139 
5.150945e+2, 1.543772e+2, -1284488.1, -1450332.5, 35259.316, 0.062365267, -0.21054117, -1277303.1, 149779.48, 0.0, 10.001347, 9.999147 
5.1508486e+2, 1.6437638e+2, -1219354.5, -1390513.6, 32124.691, 0.050997447, -0.1981441, -1213523.8, 115567.81, 0.0, 10.001216, 9.998949 
5.1507497e+2, 1.743752e+2, -1114080.8, -1288489.3, 25169.934, 0.029161546, -0.21254767, -1110520.9, 120583.03, 0.0, 10.001264, 9.998953 
5.1506525e+2, 1.8437427e+2, -1025834.44, -1195408.8, 31811.207, 0.013089278, -0.20062844, -1020063.25, 113051.016, 0.0, 10.001198, 9.998951 
5.150559e+2, 1.9437365e+2, -957996.56, -1110095.3, 33090.453, 0.014033492, -0.16022645, -951109.3, 84011.99, 0.0, 10.000983, 9.998967 
5.1504636e+2, 2.0437266e+2, -877579.75, -1020771.0, 31594.738, 0.006717436, -0.15328327, -870918.4, 66212.95, 0.0, 10.000863, 9.998966 
5.1503676e+2, 2.1437125e+2, -777606.7, -919524.56, 39800.645, -0.01357164, -0.1960664, -767206.75, 71937.92, 0.0, 10.000867, 9.998985 
5.1502717e+2, 2.2437008e+2, -708203.94, -868379.5, 35897.598, -0.01912712, -0.19669692, -700526.75, 40629.875, 0.0, 10.000813, 9.998691 
5.150176e+2, 2.3436926e+2, -629291.25, -779660.8, 27976.627, -0.005613068, -0.14780322, -624254.8, 18911.36, 0.0, 10.000682, 9.99869 
5.150078e+2, 2.4436824e+2, -532372.75, -646907.44, 22304.291, -0.018267957, -0.13243887, -528182.5, 16994.082, 0.0, 10.000523, 9.999004 
5.149975e+2, 2.5436693e+2, -461128.72, -557361.6, 37472.438, -0.062062323, -0.16696246, -448258.5, -1070.4636, 0.0, 10.0003195, 9.999044 
5.1498765e+2, 2.6436573e+2, -401392.1, -505858.44, 34291.438, -0.05829129, -0.17968759, -391141.63, -41941.75, 0.0, 10.000178, 9.998794 
5.1497823e+2, 2.7436468e+2, -311073.25, -411845.44, 21819.084, 0.0005764188, -0.16563053, -306551.88, -55340.31, 0.0, 10.000126, 9.998792 
5.14968e+2, 2.8436387e+2, -212010.0, -287568.63, 5622.729, -0.008696796, -0.13484733, -211593.88, -58374.555, 0.0, 10.000024, 9.999022 
5.149568e+2, 2.943633e+2, -135593.0, -189674.92, 11407.152, -0.09117949, -0.10100828, -133285.42, -78062.49, 0.0, 9.999831, 9.999113 
5.149473e+2, 3.0436087e+2, -112731.1, -145537.3, 715.08984, 0.0027958946, -0.25787622, -112715.516, -112715.516, 0.0, 9.999619, 9.999185 
5.1493657e+2, 3.1436142e+2, -98458.18, -63541.746, -3551.3499, 0.027541582, -0.11673213, -63184.2, -63184.2, 0.0000000053166334, 9.9993925, 9.999856 
5.2513003e+2, 1.2438955e+2, -1554065.1, -1815853.6, 166613.8, 0.09277041, -0.27539685, -1473078.6, 247879.06, 0.0000005002885, 10.00189, 9.998388 
5.2511704e+2, 1.3438912e+2, -1449810.8, -1651392.4, -95217.484, 0.08485832, -0.21694408, -1411946.8, 211017.89, 0.000000016983103, 10.00163, 9.998986 
5.2510554e+2, 1.4438796e+2, -1361914.1, -1528117.6, 31498.463, 0.065313086, -0.24189354, -1356144.9, 168832.72, 0.0, 10.001442, 9.999242 
5.2509594e+2, 1.5438774e+2, -1283189.0, -1436089.0, 24296.385, 0.07107748, -0.19264533, -1279421.1, 147559.03, 0.0, 10.001297, 9.999269 
5.250862e+2, 1.6438696e+2, -1215281.4, -1390294.5, 23938.326, 0.066793844, -0.17897855, -1212066.1, 116922.07, 0.0, 10.001251, 9.998934 
5.2507615e+2, 1.7438556e+2, -1106604.5, -1287925.6, 30764.041, 0.0194043, -0.21494907, -1101527.0, 129475.96, 0.0, 10.0013275, 9.998926 
5.250663e+2, 1.8438458e+2, -1011935.7, -1184547.8, 37128.89, -0.0012779462, -0.20526406, -1004288.06, 128725.586, 0.0, 10.001275, 9.998988 
5.25057e+2, 1.9438423e+2, -944981.5, -1098943.1, 40556.742, 0.02195458, -0.14297761, -934951.44, 100067.12, 0.0, 10.001052, 9.99901 
5.250474e+2, 2.0438334e+2, -865208.8, -1009801.2, 43074.258, 0.01826463, -0.13076173, -853349.6, 83677.99, 0.0, 10.000926, 9.999011 
5.250375e+2, 2.1438181e+2, -766468.0, -909258.7, 38279.04, -0.023114454, -0.18797298, -756853.6, 82187.99, 0.0, 10.000922, 9.99903 
5.250278e+2, 2.2438061e+2, -702590.2, -858091.06, 29843.785, -0.030712213, -0.19688712, -697059.25, 43994.3, 0.0, 10.000819, 9.998758 
5.250184e+2, 2.3437987e+2, -636807.06, -775383.3, 41858.098, 0.005528899, -0.14942308, -625144.94, 17917.664, 0.0, 10.000597, 9.99876 
5.250085e+2, 2.4437894e+2, -534856.94, -639273.75, 39491.285, -0.0014590898, -0.13186947, -521603.28, 23468.744, 0.0, 10.000468, 9.999083 
5.2499795e+2, 2.543778e+2, -434962.97, -535955.25, 29239.096, -0.062260777, -0.15846239, -427108.6, 19973.256, 0.0, 10.000463, 9.999123 
5.249879e+2, 2.6437664e+2, -380382.13, -497284.3, 19940.992, -0.06289377, -0.16929975, -377074.22, -27981.084, 0.0, 10.00033, 9.998779 
5.2497834e+2, 2.743755e+2, -327843.38, -421962.56, 30610.176, 0.008460866, -0.16324832, -318763.97, -67658.14, 0.0, 10.000021, 9.998772 
5.24968e+2, 2.843746e+2, -231765.17, -293047.44, 27771.06, -0.0016853646, -0.14052871, -221052.81, -67938.41, 0.0, 9.999871, 9.999057 
5.249565e+2, 2.9437405e+2, -117728.42, -177075.17, 25129.55, -0.10293427, -0.10740074, -108517.31, -53399.34, 0.0, 9.999936, 9.999148 
5.249469e+2, 3.0437204e+2, -62897.734, -110799.8, -310.5409, -0.009065365, -0.23259258, -62895.72, -62895.72, 0.0, 9.999914, 9.999281 
5.2493626e+2, 3.1437263e+2, -62691.098, -72126.85, -10038.844, 0.03763074, -0.094569005, -56316.78, -56316.78, 0.00000000056215, 9.99975, 9.999625 
5.351323e+2, 1.2440027e+2, -1538136.0, -1783764.5, 162893.55, 0.124679916, -0.21156362, -1456946.3, 263908.16, 0.00000041209, 10.001895, 9.998606 
5.351187e+2, 1.3439947e+2, -1428815.3, -1609025.6, -105395.8, 0.089036465, -0.21856098, -1380258.3, 242605.39, 0.000000018082496, 10.001633, 9.999276 
5.351066e+2, 1.4439833e+2, -1372406.3, -1549066.1, 25160.314, 0.02658387, -0.25104034, -1368892.8, 155983.4, 0.0, 10.001438, 9.9991 
5.350973e+2, 1.5439819e+2, -1295169.9, -1461580.4, 18429.088, 0.07304719, -0.17579286, -1293153.4, 133725.47, 0.0, 10.0013, 9.999093 
5.3508765e+2, 1.6439751e+2, -1205587.9, -1370841.0, 26069.115, 0.083118096, -0.15093865, -1201573.0, 127313.69, 0.0, 10.001254, 9.999065 
5.350775e+2, 1.7439622e+2, -1095745.0, -1265280.6, 33772.0, 0.021910327, -0.1907532, -1089265.1, 141634.58, 0.0, 10.001327, 9.999083 
5.3506756e+2, 1.8439528e+2, -1006265.8, -1171879.8, 28925.86, -0.004276417, -0.18954822, -1001359.06, 131550.56, 0.0, 10.00127, 9.999078 
5.35058e+2, 1.9439486e+2, -939111.06, -1086849.5, 31932.535, 0.022728126, -0.14400744, -932504.56, 102410.72, 0.0, 10.001051, 9.999094 
5.350484e+2, 2.0439401e+2, -873458.56, -1026890.7, 42233.695, 0.021412328, -0.12544905, -862601.56, 74322.49, 0.0, 10.000926, 9.998894 
5.3503853e+2, 2.1439274e+2, -776062.3, -928613.0, 38209.64, -0.018751347, -0.14494263, -767027.0, 71909.28, 0.0, 10.000919, 9.9988985 
5.3502864e+2, 2.2439158e+2, -680895.2, -812745.0, 21814.484, -0.032569025, -0.15623623, -677379.75, 63567.727, 0.0, 10.000817, 9.99907 
5.350188e+2, 2.3439063e+2, -612917.94, -725987.3, 33495.984, -0.011562078, -0.16308707, -603740.0, 39217.1, 0.0, 10.000597, 9.999099 
5.350089e+2, 2.443897e+2, -550200.4, -671436.0, 38681.887, -0.0031559195, -0.15362154, -538909.9, 6056.6543, 0.0, 10.000469, 9.998862 
5.349989e+2, 2.5438884e+2, -452913.66, -573602.94, 29227.336, -0.010048344, -0.12808749, -446208.22, 767.1418, 0.0, 10.0004635, 9.998864 
5.349886e+2, 2.6438773e+2, -362560.56, -459885.47, 8782.211, -0.019051598, -0.13069673, -361774.44, -12788.366, 0.0, 10.000329, 9.999037 
5.34978e+2, 2.7438635e+2, -308294.06, -380212.0, 18825.23, -0.034550145, -0.17545377, -303664.38, -52665.324, 0.0, 10.000016, 9.999061 
5.3496736e+2, 2.8438538e+2, -235950.4, -301341.94, 29394.008, -0.054620814, -0.1753472, -224680.03, -71672.0, 0.0, 9.999868, 9.9990015 
5.349569e+2, 2.94385e+2, -122699.54, -188049.98, 28473.152, -0.068352185, -0.12013359, -112034.36, -57023.24, 0.0, 9.999938, 9.999073 
5.3494716e+2, 3.043833e+2, -67900.3, -120576.484, -6404.7275, 0.026958363, -0.20308667, -67132.75, -67132.75, 0.0, 9.999912, 9.999214 
5.349353e+2, 3.143833e+2, -87264.664, -120327.4, -9517.441, -0.035799105, -0.11792493, -84720.71, -84720.71, 0.0000000000003731001, 9.99974, 9.999298 
5.4513395e+2, 1.2441046e+2, -1528134.8, -1768204.5, 159935.06, 0.108690634, -0.20602773, -1448200.6, 272555.13, 0.00000036785775, 10.001917, 9.998702 
5.451206e+2, 1.3440987e+2, -1434390.8, -1596854.4, -123988.72, 0.116351925, -0.20317775, -1367393.8, 255368.63, 0.000000024396927, 10.001531, 9.999409 
5.4510796e+2, 1.444089e+2, -1384606.9, -1560325.8, 15270.506, 0.0233166, -0.22558862, -1383289.8, 141483.63, 0.0, 10.001378, 9.99905 
5.450985e+2, 1.5440844e+2, -1271552.6, -1457097.0, 15195.877, 0.0556391, -0.17537388, -1270316.4, 156463.23, 0.0, 10.001492, 9.99903 
5.450888e+2, 1.6440777e+2, -1175317.5, -1340312.9, 22929.354, 0.06752267, -0.15165709, -1172190.4, 156596.97, 0.0, 10.001393, 9.9992075 
5.4507875e+2, 1.744069e+2, -1129147.0, -1263578.1, 30308.428, 0.03137002, -0.1638489, -1122629.8, 108166.086, 0.0, 10.001022, 9.99924 
5.450688e+2, 1.844061e+2, -1062209.4, -1203730.1, 25969.916, 0.0073506804, -0.15821679, -1057594.3, 75210.36, 0.0, 10.000908, 9.999033 
5.4505897e+2, 1.9440536e+2, -934803.7, -1091207.0, 18282.697, 0.006050888, -0.136907, -932694.94, 102118.555, 0.0, 10.001109, 9.999036 
5.4504913e+2, 2.0440449e+2, -843400.7, -995474.94, 26298.758, 0.00014775543, -0.12653166, -838981.2, 97841.49, 0.0, 10.00106, 9.999044 
5.450393e+2, 2.144035e+2, -796580.6, -920104.25, 43432.74, -0.013963571, -0.13478537, -782837.94, 55993.715, 0.0, 10.0007, 9.999063 
5.450294e+2, 2.2440252e+2, -716260.44, -822235.44, 34642.266, -0.020650547, -0.13997541, -705941.0, 34899.895, 0.0, 10.000542, 9.999138 
5.450193e+2, 2.3440161e+2, -602495.9, -714002.44, 25438.363, -0.016935281, -0.14759523, -596966.7, 45883.543, 0.0, 10.000639, 9.999161 
5.450093e+2, 2.4440068e+2, -532924.7, -657320.44, 26335.08, -0.008795617, -0.14295165, -527579.2, 17280.502, 0.0, 10.000564, 9.998913 
5.4499936e+2, 2.5439978e+2, -477497.16, -579771.56, 39818.535, 0.0055607157, -0.12597094, -463822.88, -16954.064, 0.0, 10.000271, 9.998913 
5.44989e+2, 2.6439878e+2, -379756.2, -453507.16, 28565.121, -0.00047436802, -0.12939148, -369986.56, -21108.135, 0.0, 10.000148, 9.9991665 
5.44978e+2, 2.7439758e+2, -266691.94, -345252.2, 26283.06, -0.036253165, -0.16840409, -258709.73, -7820.7925, 0.0, 10.000238, 9.999194 
5.449673e+2, 2.843966e+2, -195269.4, -291128.06, 30912.75, -0.058747496, -0.17506033, -186165.25, -33266.938, 0.0, 10.000189, 9.998917 
5.449569e+2, 2.943959e+2, -127473.63, -201400.95, 27996.607, -0.05276705, -0.13357377, -118067.88, -63163.31, 0.0, 9.999955, 9.998972 
5.4494715e+2, 3.0439463e+2, -59452.273, -106940.586, 956.2478, 0.03526844, -0.17902373, -59433.027, -59433.027, 0.0, 9.999929, 9.999299 
5.449349e+2, 3.1439433e+2, -29585.08, -98270.08, 17248.383, -0.061703224, -0.13218239, -25496.941, -25496.941, 0.000000000015387011, 10.000158, 9.9992485 
5.5513525e+2, 1.2442016e+2, -1528445.6, -1768079.3, 147454.03, 0.04147319, -0.25395927, -1458265.6, 262395.63, 0.0000003291145, 10.001915, 9.998704 
5.551226e+2, 1.3442038e+2, -1433612.6, -1597441.8, -138676.25, 0.16545178, -0.17232083, -1354464.8, 268195.8, 0.000000025104656, 10.001538, 9.999402 
5.551096e+2, 1.4441964e+2, -1381921.5, -1556027.6, 18617.172, 0.05260479, -0.16833071, -1379953.0, 144716.28, 0.0, 10.001383, 9.999078 
5.550996e+2, 1.5441851e+2, -1269236.8, -1451892.8, 19628.914, 0.017613782, -0.19025183, -1267151.3, 159530.92, 0.0, 10.001489, 9.999068 
5.550897e+2, 1.644178e+2, -1165636.0, -1318664.3, 9594.291, 0.019791357, -0.1796433, -1165036.9, 163653.13, 0.0, 10.001387, 9.999359 
5.5507994e+2, 1.7441767e+2, -1118038.3, -1240883.4, 16212.019, 0.04710369, -0.13440998, -1115934.8, 114756.45, 0.0, 10.001024, 9.999395 
5.550699e+2, 1.8441702e+2, -1074251.8, -1229108.3, 32246.832, 0.032274634, -0.11211422, -1067805.1, 64893.445, 0.0, 10.00091, 9.998858 
5.550597e+2, 1.9441578e+2, -948742.8, -1119727.0, 26139.525, -0.028258387, -0.122301176, -944835.94, 89877.31, 0.0, 10.001106, 9.998842 
5.550497e+2, 2.0441477e+2, -814984.8, -935808.1, 13844.091, -0.04549163, -0.13487484, -813418.8, 123304.586, 0.0, 10.001057, 9.999456 
5.550401e+2, 2.1441408e+2, -765124.3, -854743.7, 29873.438, -0.010021656, -0.15667614, -756079.3, 82648.42, 0.0, 10.000699, 9.999512 
5.550302e+2, 2.2441341e+2, -728540.2, -847799.1, 37138.324, 0.0033887627, -0.1470172, -717920.6, 22813.26, 0.0, 10.000543, 9.998962 
5.550201e+2, 2.3441279e+2, -617730.8, -745616.06, 29148.795, -0.010968379, -0.10334579, -611400.3, 31341.783, 0.0, 10.000639, 9.998944 
5.5500984e+2, 2.444119e+2, -510262.66, -610211.8, 16004.011, -0.018650644, -0.10089158, -507762.6, 36988.992, 0.0, 10.000564, 9.999236 
5.549995e+2, 2.5441065e+2, -452548.75, -527809.1, 28902.93, -0.016581185, -0.15265125, -442729.9, 4032.351, 0.0, 10.00027, 9.99927 
5.549891e+2, 2.6440972e+2, -380246.5, -454442.7, 31105.443, -0.008622866, -0.16529553, -368931.6, -20161.318, 0.0, 10.000147, 9.999161 
5.549787e+2, 2.7440915e+2, -268406.28, -349623.84, 30082.473, 0.0029827235, -0.14197972, -258477.67, -7702.15, 0.0, 10.00024, 9.999163 
5.5496794e+2, 2.8440815e+2, -203969.33, -309044.88, 22438.559, -0.014537645, -0.13919042, -199378.23, -46592.85, 0.0, 10.000188, 9.998794 
5.5495685e+2, 2.9440686e+2, -138144.53, -221774.27, 18915.445, -0.058288544, -0.14747511, -134065.2, -79266.62, 0.0, 9.999948, 9.998836 
5.5494684e+2, 3.0440596e+2, -42940.6, -70913.79, 8439.365, 0.013668968, -0.16005039, -40591.72, -40591.72, 0.0, 9.999921, 9.999551 
5.549353e+2, 3.1440577e+2, -11620.857, -61290.06, 32055.934, -0.042068485, -0.13232262, 4095.0076, 4095.0076, 0.0000000020600701, 10.000159, 9.999502 
5.651369e+2, 1.244306e+2, -1548159.5, -1773087.1, 145841.45, 0.025964439, -0.23436558, -1476455.4, 244104.92, 0.00000027083397, 10.001761, 9.998741 
5.651243e+2, 1.3443059e+2, -1420121.1, -1588504.5, -140423.31, 0.17576607, -0.17823221, -1340584.6, 281977.16, 0.000000017878008, 10.00162, 9.999424 
5.651109e+2, 1.4443004e+2, -1364592.3, -1531947.4, 28998.605, 0.035766024, -0.16479297, -1359709.9, 164858.64, 0.0, 10.001434, 9.999218 
5.65101e+2, 1.5442915e+2, -1303884.1, -1451535.4, 38512.566, 0.023816494, -0.17567636, -1294442.5, 132136.02, 0.0, 10.00118, 9.999218 
5.650911e+2, 1.6442852e+2, -1210015.1, -1345686.9, 24668.49, 0.029650725, -0.16467915, -1205669.0, 122916.83, 0.0, 10.001108, 9.999308 
5.65081e+2, 1.7442818e+2, -1089398.3, -1234425.9, 13835.336, 0.038043015, -0.13216057, -1088090.1, 142499.17, 0.0, 10.001253, 9.999329 
5.650708e+2, 1.844275e+2, -1031263.8, -1192519.4, 31864.498, 0.019039433, -0.11490866, -1025195.7, 107401.22, 0.0, 10.001137, 9.999 
5.650606e+2, 1.9442645e+2, -997231.3, -1125739.3, 51225.902, -0.028305726, -0.121224836, -979310.7, 55298.258, 0.0, 10.0007, 9.998996 
5.650506e+2, 2.0442554e+2, -884659.94, -965868.56, 41648.125, -0.04114413, -0.1337291, -867098.3, 69519.63, 0.0, 10.000563, 9.999487 
5.6504077e+2, 2.1442483e+2, -748655.1, -844004.0, 25930.256, -0.011802944, -0.15963832, -742059.56, 96563.26, 0.0, 10.0008, 9.9995365 
5.650308e+2, 2.2442423e+2, -690386.5, -819961.1, 22934.621, 0.0029284765, -0.1489891, -686446.8, 54181.703, 0.0, 10.000765, 9.999045 
5.650207e+2, 2.3442379e+2, -647877.94, -750272.75, 37195.91, -0.0010181033, -0.09800502, -635792.56, 6842.4585, 0.0, 10.00039, 9.999032 
5.650103e+2, 2.4442297e+2, -551051.44, -617190.44, 30326.34, -0.011031045, -0.09528362, -539251.4, 5392.039, 0.0, 10.000229, 9.99935 
5.6499964e+2, 2.5442177e+2, -435406.5, -506659.28, 24667.621, -0.027078357, -0.1548112, -427700.1, 18953.477, 0.0, 10.000333, 9.999385 
5.649892e+2, 2.6442093e+2, -358806.6, -447104.34, 18201.963, -0.017951284, -0.16387194, -355201.56, -6540.7583, 0.0, 10.000308, 9.999133 
5.64979e+2, 2.7442047e+2, -288717.9, -362665.3, 16354.988, 0.018978067, -0.1251612, -285262.16, -34597.027, 0.0, 10.000117, 9.999131 
5.649683e+2, 2.8441945e+2, -223367.38, -317056.4, 12481.892, 0.0063596736, -0.12654899, -221732.95, -69057.19, 0.0, 10.00005, 9.998805 
5.6495684e+2, 2.9441795e+2, -111550.586, -209373.92, 19484.807, -0.05854048, -0.15571457, -107812.38, -53121.21, 0.0, 10.000132, 9.998833 
5.649468e+2, 3.044174e+2, -5098.1235, -55356.145, 12486.107, 0.00080317375, -0.12915933, -2167.0193, -2167.0193, 0.0, 10.000193, 9.999527 
5.6493556e+2, 3.1441694e+2, 3156.294, -45741.492, 17778.21, -0.03945427, -0.12852766, 8936.744, 8936.744, 0.000000017271022, 10.000226, 9.999577 
5.75139e+2, 1.2444175e+2, -1543362.4, -1764500.0, 137686.06, 0.05323703, -0.15435892, -1477344.3, 243108.56, 0.00000019303324, 10.001767, 9.998798 
5.7512563e+2, 1.3444059e+2, -1417314.6, -1582828.4, -145610.52, 0.14790893, -0.21807072, -1332586.8, 289878.34, 0.000000007774616, 10.001618, 9.999465 
5.751117e+2, 1.444401e+2, -1348240.5, -1496397.4, 19795.951, -0.025952984, -0.2115115, -1345641.1, 178829.56, 0.0, 10.001428, 9.999465 
5.751027e+2, 1.5444037e+2, -1285642.3, -1413922.0, 29037.426, 0.07142527, -0.13376918, -1279375.5, 147093.42, 0.0, 10.001181, 9.999476 
5.750928e+2, 1.6443987e+2, -1227925.5, -1382932.4, 29197.086, 0.09352761, -0.10959683, -1222608.4, 105866.58, 0.0, 10.001107, 9.999053 
5.750819e+2, 1.7443846e+2, -1109571.3, -1276044.6, 19700.682, 0.004009321, -0.15624589, -1107271.6, 123218.39, 0.0, 10.001251, 9.999045 
5.750714e+2, 1.8443757e+2, -1000494.75, -1128061.0, 16536.857, -0.031911075, -0.16531485, -998385.9, 134113.25, 0.0, 10.001134, 9.999444 
5.750616e+2, 1.9443741e+2, -962735.5, -1054501.0, 34660.598, 0.00441195, -0.13328375, -951115.3, 83385.32, 0.0, 10.000701, 9.999485 
5.750517e+2, 2.0443681e+2, -908674.44, -1015934.8, 48868.633, 0.011202581, -0.12301117, -889748.8, 46757.598, 0.0, 10.000564, 9.999144 
5.7504153e+2, 2.1443576e+2, -776568.2, -901552.4, 34958.336, -0.020017048, -0.1442852, -767454.8, 71062.33, 0.0, 10.000798, 9.999143 
5.750314e+2, 2.2443497e+2, -666644.25, -770409.2, 9992.135, -0.02221144, -0.14661267, -665690.8, 74834.16, 0.0, 10.000763, 9.999387 
5.750212e+2, 2.3443456e+2, -620657.44, -693985.8, 23242.39, 0.012193571, -0.1314446, -613911.1, 28617.998, 0.0, 10.00039, 9.999418 
5.750107e+2, 2.4443392e+2, -558046.4, -631970.0, 33048.402, 0.012992541, -0.12560472, -545426.25, -891.0613, 0.0, 10.00023, 9.999248 
5.749999e+2, 2.5443313e+2, -444827.2, -526395.8, 28634.16, -0.026943905, -0.13277169, -435779.03, 10763.833, 0.0, 10.000333, 9.999249 
5.749894e+2, 2.6443237e+2, -362266.38, -454431.16, 11350.8125, -0.029341456, -0.1252908, -360889.03, -12338.824, 0.0, 10.000308, 9.9990835 
5.7497907e+2, 2.7443156e+2, -291824.78, -368588.38, 9120.494, 0.010970864, -0.117576934, -290756.03, -40198.125, 0.0, 10.000114, 9.999092 
5.749683e+2, 2.8443035e+2, -213557.66, -295550.72, 14778.98, 0.0027447056, -0.13651955, -210975.14, -58405.563, 0.0, 10.000045, 9.998956 
5.74957e+2, 2.944291e+2, -101417.54, -188925.13, 22929.271, -0.055768106, -0.15984756, -95773.5, -41190.92, 0.0, 10.0001335, 9.998972 
5.749469e+2, 3.0442894e+2, -27666.627, -102346.51, 13421.675, -0.0056052767, -0.08729424, -25327.7, -25327.7, 0.00000000021282408, 10.000193, 9.999205 
5.749356e+2, 3.1442782e+2, -7465.274, -65554.375, 23855.92, -0.056406114, -0.11721312, 1075.9557, 1075.9557, 0.0000000699572, 10.000216, 9.999445 
5.8514065e+2, 1.24452405e+2, -1598703.1, -1771817.4, 151679.56, 0.069454774, -0.15232672, -1510621.1, 209728.77, 0.00000011738098, 10.001305, 9.998971 
5.8512706e+2, 1.3445151e+2, -1455202.3, -1586360.5, -120132.19, 0.14887898, -0.20206906, -1383915.1, 238444.5, 0.0000000014227642, 10.001296, 9.999596 
5.8511263e+2, 1.4445125e+2, -1373559.4, -1509323.5, 37332.73, -0.06410531, -0.17873159, -1363970.8, 160392.11, 0.0, 10.001258, 9.999457 
5.8510387e+2, 1.5445131e+2, -1288129.8, -1416991.3, 24970.637, 0.07940876, -0.120850205, -1283460.1, 142902.81, 0.0, 10.001172, 9.999458 
5.8509403e+2, 1.6445072e+2, -1233799.9, -1380414.8, 30314.14, 0.113210954, -0.10616808, -1227779.4, 100590.266, 0.0, 10.001044, 9.9991 
5.850828e+2, 1.7444938e+2, -1162533.4, -1295700.9, 45469.785, -0.0052879467, -0.1505254, -1148489.0, 81895.05, 0.0, 10.000863, 9.999096 
5.850723e+2, 1.844486e+2, -1040028.56, -1141111.3, 37657.14, -0.04824745, -0.15691121, -1027542.25, 104850.13, 0.0, 10.000837, 9.999497 
5.850625e+2, 1.944485e+2, -915811.44, -1025686.56, 23164.438, 0.008069344, -0.121454775, -911127.5, 123265.29, 0.0, 10.000998, 9.999539 
5.8505255e+2, 2.0444797e+2, -859559.6, -995449.3, 33989.113, 0.023335224, -0.10642284, -851532.3, 84865.7, 0.0, 10.000916, 9.999114 
5.8504224e+2, 2.1444695e+2, -817495.0, -925248.25, 46510.04, -0.013962337, -0.1217695, -800196.6, 38212.355, 0.0, 10.000535, 9.999106 
5.850319e+2, 2.2444613e+2, -717340.7, -788124.9, 24269.797, -0.022110425, -0.12730843, -709818.6, 30598.467, 0.0, 10.000385, 9.999447 
5.850216e+2, 2.3444563e+2, -596448.25, -674812.1, 13244.026, 0.006750931, -0.12746021, -594270.44, 48151.133, 0.0, 10.0005245, 9.999485 
5.8501107e+2, 2.44445e+2, -524748.44, -621304.9, 13649.084, 0.010200676, -0.123981, -522856.1, 21571.422, 0.0, 10.000483, 9.999199 
5.850003e+2, 2.544443e+2, -466147.22, -542446.94, 14946.843, -0.017547486, -0.11690075, -463323.7, -16888.959, 0.0, 10.000213, 9.999197 
5.8498967e+2, 2.6444352e+2, -383667.75, -463740.3, 6547.0396, -0.022008413, -0.10615247, -383135.97, -34693.914, 0.0, 10.000157, 9.999091 
5.849791e+2, 2.7444258e+2, -254858.02, -349607.6, 8379.597, -0.00013930172, -0.10943422, -254122.64, -3672.1675, 0.0, 10.000363, 9.999104 
5.849684e+2, 2.8444135e+2, -171750.55, -285758.63, 4752.511, -0.0073071667, -0.13240917, -171552.78, -19089.676, 0.0, 10.000377, 9.998863 
5.849573e+2, 2.9444006e+2, -107907.58, -204632.75, -8014.4604, -0.041943215, -0.14940207, -107248.016, -52770.918, 0.0, 10.000144, 9.998858 
5.849471e+2, 3.0444002e+2, -52520.344, -132799.69, -14896.564, 0.0019281852, -0.046876986, -49845.29, -49845.29, 0.000000006848287, 10.000101, 9.999039 
5.849357e+2, 3.144386e+2, 15464.928, -41740.7, 14584.32, -0.0702204, -0.09633608, 18968.55, 18968.55, 0.00000018333391, 10.000319, 9.999558 
5.9514195e+2, 1.244626e+2, -1579016.1, -1730675.5, 144143.02, 0.07180713, -0.22453833, -1491973.6, 228277.23, 0.000000058921596, 10.001303, 9.999253 
5.951286e+2, 1.3446334e+2, -1439162.5, -1554414.1, -120090.89, 0.17544182, -0.13388708, -1363587.1, 258658.33, 0.000000000010343272, 10.0013, 9.999813 
5.951137e+2, 1.4446345e+2, -1391582.1, -1547260.6, 34223.617, -0.081668794, -0.07171596, -1384390.9, 139854.63, 0.0, 10.001259, 9.999197 
5.9510475e+2, 1.5446201e+2, -1307868.9, -1458500.4, 22120.613, 0.048452944, -0.13564101, -1304687.6, 121572.664, 0.0, 10.001173, 9.999174 
5.9509486e+2, 1.6446112e+2, -1210419.5, -1332005.9, 23667.793, 0.089901, -0.15220685, -1205974.8, 122294.71, 0.0, 10.001044, 9.999433 
5.9508383e+2, 1.7446095e+2, -1136452.5, -1241743.4, 38589.805, 0.008550265, -0.11598283, -1123823.8, 106447.89, 0.0, 10.000863, 9.999467 
5.950732e+2, 1.844605e+2, -1063302.0, -1189138.0, 42737.29, -0.032084323, -0.0916333, -1050159.8, 82116.984, 0.0, 10.000835, 9.999168 
5.950632e+2, 1.9445975e+2, -941648.3, -1079421.9, 29327.361, -0.017631914, -0.086328015, -935665.3, 98619.93, 0.0, 10.000997, 9.999171 
5.9505314e+2, 2.0445903e+2, -839917.2, -954699.8, 20608.727, -0.004527696, -0.08443951, -836329.1, 99963.53, 0.0, 10.000915, 9.999394 
5.9504294e+2, 2.1445839e+2, -795260.56, -879176.7, 32144.393, 0.0054919934, -0.09206162, -784362.75, 53935.71, 0.0, 10.000535, 9.999423 
5.950325e+2, 2.2445771e+2, -732841.75, -820483.4, 28195.766, 0.0020282513, -0.09111205, -724554.4, 15750.635, 0.0, 10.000386, 9.999225 
5.9502184e+2, 2.34457e+2, -614664.06, -712279.2, 18465.432, -0.018256743, -0.08627082, -611287.8, 31024.516, 0.0, 10.000524, 9.9992285 
5.9501123e+2, 2.4445616e+2, -524244.4, -620093.7, 4189.5166, -0.020081654, -0.09063762, -524061.63, 20258.932, 0.0, 10.000481, 9.999208 
5.9500074e+2, 2.5445524e+2, -463930.78, -538102.94, 4932.5674, 0.000920496, -0.10673638, -463604.2, -17275.125, 0.0, 10.000213, 9.999228 
5.9499013e+2, 2.6445442e+2, -378852.03, -454091.94, 13375.441, 0.0038744332, -0.10606184, -376545.0, -28208.66, 0.0, 10.000157, 9.999158 
5.9497935e+2, 2.7445364e+2, -250477.25, -340841.28, 16367.215, -0.017083097, -0.10223978, -247604.08, 2739.0203, 0.0, 10.000363, 9.999164 
5.9496856e+2, 2.8445235e+2, -196576.95, -337090.16, -3475.0432, -0.026840985, -0.115501486, -196491.06, -44134.434, 0.0, 10.000375, 9.998511 
5.949577e+2, 2.9445082e+2, -135607.92, -260676.05, -17430.809, -0.016854737, -0.12222325, -133224.03, -78849.25, 0.0, 10.000137, 9.998477 
5.949474e+2, 3.0445072e+2, -53240.31, -132228.39, -7994.9795, 0.024674477, -0.0043136314, -52439.203, -52439.203, 0.000000033052434, 10.0000925, 9.999048 
5.9493583e+2, 3.144492e+2, 41564.758, 12871.504, 26932.771, -0.08487603, -0.06719688, 57733.7, 57733.7, 0.00000037488923, 10.000318, 9.999935 
6.051429e+2, 1.24474086e+2, -1618526.0, -1755006.4, 167479.2, 0.041881915, -0.20846435, -1505918.3, 214221.17, 0.000000021349177, 10.001058, 9.999204 
6.051302e+2, 1.3447474e+2, -1466131.4, -1583612.9, -114661.06, 0.20965134, -0.110372566, -1396040.3, 226095.42, 0.0, 10.001186, 9.999667 
6.0511506e+2, 1.4447488e+2, -1399061.5, -1547442.0, 29913.98, -0.07348456, -0.039050754, -1393257.8, 130877.984, 0.0, 10.001195, 9.999227 
6.0510564e+2, 1.5447329e+2, -1320626.3, -1459853.3, 40781.906, 0.02635812, -0.12216103, -1309560.1, 116591.33, 0.0, 10.001066, 9.999215 
6.050956e+2, 1.6447242e+2, -1228748.0, -1343661.4, 40544.895, 0.065813206, -0.13893218, -1215882.9, 112277.5, 0.0, 10.000932, 9.999407 
6.050848e+2, 1.7447244e+2, -1150400.3, -1251877.1, 25641.139, 0.02016664, -0.0800045, -1144289.4, 85871.45, 0.0, 10.000783, 9.999435 
6.050742e+2, 1.8447196e+2, -1090883.6, -1209782.9, 31514.775, -0.011113097, -0.05468194, -1083047.0, 49119.47, 0.0, 10.000678, 9.999103 
6.0506403e+2, 1.9447087e+2, -1000193.06, -1115597.3, 40031.89, -0.021120759, -0.075, -987666.4, 46511.84, 0.0, 10.000629, 9.9991 
6.050538e+2, 2.0447011e+2, -879682.44, -964807.94, 27221.184, -0.016337287, -0.077622406, -871722.1, 64463.875, 0.0, 10.000604, 9.9994755 
6.0504353e+2, 2.1446978e+2, -778621.44, -861061.94, 21358.87, 0.005738635, -0.063849315, -773416.4, 64772.25, 0.0, 10.000607, 9.999513 
6.0503304e+2, 2.2446917e+2, -717778.5, -822367.75, 19710.703, 0.0078683775, -0.055825382, -714187.2, 26007.188, 0.0, 10.000529, 9.999143 
6.050223e+2, 2.3446828e+2, -645583.56, -737741.6, 22190.3, -0.014818451, -0.061170116, -640518.8, 1684.9896, 0.0, 10.000357, 9.999134 
6.0501164e+2, 2.4446729e+2, -546355.06, -626835.8, 13368.157, -0.018385975, -0.07657946, -544192.7, 20.498795, 0.0, 10.000312, 9.999244 
6.0500103e+2, 2.5446627e+2, -430627.06, -517569.03, 14570.642, 0.0020581095, -0.10473752, -428250.16, 17971.535, 0.0, 10.0004225, 9.999268 
6.049904e+2, 2.6446545e+2, -345731.5, -450508.28, 21741.14, 0.0055735623, -0.1021904, -341399.34, 6829.629, 0.0, 10.000439, 9.999047 
6.0497975e+2, 2.7446476e+2, -262356.47, -359648.34, 10903.613, -0.013688099, -0.07875698, -261149.47, -10913.798, 0.0, 10.000339, 9.999046 
6.049689e+2, 2.844634e+2, -203168.5, -351872.63, -8928.342, -0.022838434, -0.08707111, -202634.36, -50384.207, 0.0, 10.00038, 9.998408 
6.0495806e+2, 2.944616e+2, -78913.88, -247023.1, -3511.2893, -0.014020109, -0.10827439, -78840.58, -24569.916, 0.00000000003092486, 10.000585, 9.998356 
6.049476e+2, 3.0446127e+2, -8664.2295, -135689.22, 6091.4697, 0.01792136, 0.0039029468, -8372.783, -8372.783, 0.00000008707832, 10.000506, 9.998824 
6.049361e+2, 3.144597e+2, 18981.166, 11748.013, 22498.328, -0.08620613, -0.04062383, 38151.742, 38151.742, 0.0000006525611, 10.00012, 10.000022 
6.1514324e+2, 1.2448678e+2, -1645395.1, -1810142.4, 158906.44, -0.023174087, -0.11213192, -1548780.9, 171235.34, 0.0000000039655865, 10.001054, 9.998828 
6.151318e+2, 1.344858e+2, -1501688.9, -1656874.0, -109817.15, 0.25056896, -0.12904984, -1444818.0, 177211.89, 0.0, 10.0011835, 9.999166 
6.1511654e+2, 1.4448562e+2, -1378104.4, -1503607.9, 25538.709, -0.041701287, -0.076463655, -1373106.5, 150926.64, 0.0, 10.001192, 9.999529 
6.151066e+2, 1.5448515e+2, -1296281.5, -1409001.0, 35897.734, 0.01174684, -0.08144967, -1285820.1, 140216.58, 0.0, 10.001064, 9.999566 
6.1509633e+2, 1.6448458e+2, -1255092.4, -1398398.8, 34576.21, 0.04031353, -0.06863196, -1247186.1, 80856.38, 0.0, 10.000931, 9.999031 
6.1508566e+2, 1.7448387e+2, -1178868.6, -1312156.4, 20229.844, 0.028702779, -0.042884268, -1175865.9, 54185.44, 0.0, 10.000788, 9.99902 
6.150751e+2, 1.8448298e+2, -1077481.8, -1183268.6, 29377.469, 0.013296284, -0.04535433, -1069871.0, 62190.06, 0.0, 10.000683, 9.999282 
6.150648e+2, 1.944819e+2, -985153.2, -1084503.0, 38209.023, -0.0035865451, -0.08662963, -972158.1, 61913.492, 0.0, 10.000629, 9.999313 
6.150544e+2, 2.0448123e+2, -887946.5, -981824.7, 26840.18, -0.012932622, -0.08514292, -880814.56, 55263.52, 0.0, 10.000602, 9.999359 
6.1504394e+2, 2.144811e+2, -787949.9, -880319.8, 21450.984, -0.013901804, -0.03685799, -783211.4, 54868.05, 0.0, 10.000606, 9.999381 
6.1503345e+2, 2.2448052e+2, -714040.2, -814501.0, 13393.011, -0.005047636, -0.02125668, -712285.3, 27799.758, 0.0, 10.000528, 9.999197 
6.15023e+2, 2.3447944e+2, -640437.56, -727573.7, 15823.905, 0.016536219, -0.052065186, -637652.94, 4442.953, 0.0, 10.000359, 9.999204 
6.150123e+2, 2.4447837e+2, -542272.75, -619071.44, 16860.086, 0.014484527, -0.081831016, -538734.4, 5371.0044, 0.0, 10.000315, 9.999296 
6.1500126e+2, 2.544774e+2, -427814.44, -511332.4, 18716.506, -0.016023155, -0.11161404, -423811.84, 22300.877, 0.0, 10.00042, 9.999311 
6.149906e+2, 2.6447663e+2, -366229.2, -492482.66, 18224.697, -0.018644111, -0.09463635, -363651.1, -15531.045, 0.0, 10.000436, 9.998761 
6.149803e+2, 2.7447596e+2, -283149.06, -402539.56, 7280.3384, 0.01074493, -0.036398876, -282706.75, -32578.738, 0.0, 10.000337, 9.998753 
6.149696e+2, 2.8447452e+2, -192925.14, -330577.84, -1625.8944, 0.0056041116, -0.044812437, -192905.94, -40762.438, 0.0, 10.000379, 9.998555 
6.1495835e+2, 2.9447246e+2, -68214.75, -225108.25, 4330.8022, -0.037539262, -0.110812865, -68095.29, -13930.218, 0.0000000010306047, 10.000586, 9.998507 
6.1494774e+2, 3.0447164e+2, -42803.184, -206119.23, -7786.675, -0.023213368, -0.026096523, -42432.766, -42432.766, 0.00000016756015, 10.000504, 9.9983425 
6.149363e+2, 3.1447014e+2, 1734.8817, -21158.959, 10196.449, -0.07574529, -0.018307205, 5617.6567, 5617.6567, 0.000001002472, 10.000108, 9.999803 
6.251441e+2, 1.2449853e+2, -1685377.6, -1811056.6, 117661.51, -0.026821602, -0.06479222, -1614826.6, 105077.164, 0.00000000008306351, 10.000701, 9.998991 
6.251328e+2, 1.3449721e+2, -1551520.1, -1675005.4, -97378.63, 0.25330764, -0.120148025, -1497959.9, 123959.78, 0.0, 10.000815, 9.999219 
6.2511736e+2, 1.44497e+2, -1427602.6, -1530349.5, 41464.94, -0.06079056, -0.071942866, -1412956.5, 110966.35, 0.0, 10.000865, 9.999502 
6.251076e+2, 1.5449671e+2, -1329263.6, -1428660.6, 23056.957, 0.023257695, -0.05664574, -1324175.5, 101749.586, 0.0, 10.0008545, 9.999533 
6.2509733e+2, 1.6449611e+2, -1265781.3, -1404097.4, 20248.115, 0.058527414, -0.044321004, -1262878.0, 65053.17, 0.0, 10.00086, 9.999026 
6.250864e+2, 1.7449513e+2, -1165355.5, -1306034.1, 35571.55, 0.026875678, -0.0447886, -1156872.5, 73069.51, 0.0, 10.000882, 9.999016 
6.250758e+2, 1.8449421e+2, -1059015.4, -1173506.4, 52619.598, 0.006929303, -0.050206173, -1038505.7, 93446.1, 0.0, 10.000807, 9.9992895 
6.250655e+2, 1.944934e+2, -985919.56, -1084093.9, 45902.992, 0.0027805585, -0.06643797, -967800.8, 66159.086, 0.0, 10.000622, 9.99932 
6.250551e+2, 2.044927e+2, -902731.75, -998075.4, 33280.75, -0.0038579793, -0.062225573, -892264.0, 43702.613, 0.0, 10.000541, 9.999277 
6.2504447e+2, 2.1449225e+2, -796397.2, -894211.9, 31066.46, -0.014144311, -0.038189076, -787364.44, 50606.9, 0.0, 10.00059, 9.999293 
6.250339e+2, 2.2449163e+2, -703014.2, -802402.7, 19172.994, -0.0078672, -0.027944105, -699443.75, 40533.83, 0.0, 10.000575, 9.999258 
6.250234e+2, 2.3449078e+2, -618462.75, -709094.5, 21237.902, 0.018721465, -0.040857498, -613732.9, 28252.875, 0.0, 10.000476, 9.999273 
6.250127e+2, 2.4448977e+2, -522425.28, -618830.25, 27144.518, 0.018415809, -0.06423128, -515307.75, 28686.64, 0.0, 10.000491, 9.999212 
6.2500185e+2, 2.5448862e+2, -401264.47, -508895.16, 18802.281, -0.014793898, -0.1029173, -398074.38, 47928.92, 0.0, 10.000647, 9.999219 
6.249912e+2, 2.6448765e+2, -338951.97, -493359.72, 10629.702, -0.018888963, -0.09325853, -338223.63, 9788.944, 0.0, 10.000683, 9.998636 
6.2498075e+2, 2.7448684e+2, -258516.22, -404945.53, 11717.879, 0.011720817, -0.037737302, -257584.44, -7561.7188, 0.0, 10.000567, 9.998626 
6.249701e+2, 2.8448546e+2, -171879.4, -319160.84, 12587.836, 0.0074674115, -0.031983998, -170811.3, -18773.703, 0.0, 10.000518, 9.998566 
6.24959e+2, 2.944837e+2, -71643.01, -225499.5, 7021.8247, -0.03731326, -0.070010304, -71323.2, -17267.365, 0.000000004235602, 10.000556, 9.998518 
6.2494814e+2, 3.044825e+2, -51650.72, -228760.9, -11560.803, -0.03244426, -0.022504026, -50899.28, -50899.28, 0.000000262113, 10.000523, 9.998178 
6.249365e+2, 3.1448054e+2, 50431.22, 6424.7026, 32150.943, -0.07584229, -0.041272473, 67387.26, 67387.26, 0.0000013873902, 10.000425, 9.999838 
6.351453e+2, 1.2450938e+2, -1638260.0, -1712268.0, 105147.78, 0.0221624, -0.06613813, -1563794.9, 156006.48, 0.0, 10.000695, 9.999672 
6.3513327e+2, 1.3450901e+2, -1510994.3, -1590003.9, -93350.414, 0.21910062, -0.08442552, -1449133.6, 172671.27, 0.0, 10.000812, 9.999804 
6.3511753e+2, 1.4450905e+2, -1452730.8, -1582345.5, 40416.004, -0.12862793, -0.027370539, -1441161.1, 82644.01, 0.0, 10.000863, 9.999147 
6.351088e+2, 1.54508e+2, -1357593.0, -1488233.5, 22557.201, 0.0584672, -0.04761757, -1353807.8, 72008.74, 0.0, 10.000856, 9.999123 
6.350988e+2, 1.6450705e+2, -1240868.0, -1352916.8, 20615.506, 0.116327725, -0.06421137, -1237195.4, 90630.57, 0.0, 10.000862, 9.999377 
6.350872e+2, 1.7450628e+2, -1137942.8, -1248688.3, 36117.406, 0.014594982, -0.083747566, -1127204.9, 102627.73, 0.0, 10.000879, 9.999411 
6.350762e+2, 1.8450569e+2, -1071034.0, -1198010.8, 45492.195, -0.029338064, -0.068040505, -1056417.9, 75420.625, 0.0, 10.000805, 9.999123 
6.3506603e+2, 1.9450535e+2, -999092.56, -1112212.1, 38827.19, -0.0025407427, -0.015048826, -987048.0, 46795.223, 0.0, 10.000625, 9.9991255 
6.350557e+2, 2.0450458e+2, -906044.1, -1005776.6, 34343.88, 0.009323181, -0.009898679, -895361.7, 40489.91, 0.0, 10.000544, 9.999223 
6.350453e+2, 2.1450324e+2, -799749.2, -901432.2, 32891.56, 0.003960692, -0.06789066, -790037.3, 47826.95, 0.0, 10.00059, 9.999244 
6.350346e+2, 2.2450244e+2, -698545.94, -792905.2, 15511.178, -0.0018853693, -0.07550422, -696061.5, 43810.367, 0.0, 10.000574, 9.999324 
6.350236e+2, 2.3450227e+2, -613549.4, -698823.25, 17531.863, -0.008666841, -0.027263599, -610085.6, 31787.688, 0.0, 10.000475, 9.999344 
6.350129e+2, 2.4450149e+2, -537846.0, -650683.5, 32367.174, -0.006976345, -0.023389198, -529220.8, 14659.299, 0.0, 10.00049, 9.998995 
6.350026e+2, 2.5449994e+2, -416899.66, -541811.0, 24870.33, 0.0053404216, -0.07761761, -412130.0, 33763.273, 0.0, 10.0006485, 9.998993 
6.3499206e+2, 2.6449856e+2, -336547.78, -488884.94, 6872.315, 0.0040158886, -0.09771132, -336238.38, 11668.154, 0.0, 10.000685, 9.998666 
6.349811e+2, 2.744974e+2, -256315.84, -399831.97, 7548.0713, -0.013519193, -0.0849812, -255919.95, -5999.935, 0.0, 10.000564, 9.998663 
6.3497025e+2, 2.8449625e+2, -181365.33, -337798.06, 13550.462, -0.01999269, -0.050660368, -180200.23, -28267.557, 0.0, 10.000513, 9.998441 
6.3495976e+2, 2.944954e+2, -81260.15, -244300.02, 8473.17, -0.012264744, 0.017818308, -80820.984, -26878.318, 0.000000008608103, 10.000551, 9.998391 
6.349489e+2, 3.0449373e+2, -41325.055, -207008.56, -14885.101, -0.008409232, 0.019310338, -39998.395, -39998.395, 0.00000035003856, 10.00052, 9.998329 
6.349368e+2, 3.1449082e+2, 71332.734, 50228.86, 30727.068, -0.09133929, -0.113972664, 93269.195, 93269.195, 0.0000017531552, 10.0004225, 10.000141 
6.451458e+2, 1.2452065e+2, -1700758.8, -1709830.8, 117107.13, 0.030024562, -0.049670987, -1588099.8, 131594.02, 0.0, 10.000124, 9.999965 
6.451339e+2, 1.3452052e+2, -1537339.8, -1582768.6, -93891.34, 0.21754213, -0.06260739, -1463454.4, 158239.33, 0.0, 10.0005455, 9.999982 
6.451181e+2, 1.4452058e+2, -1469142.0, -1592203.3, 26052.178, -0.15207428, -0.010515268, -1463854.0, 59838.86, 0.0, 10.00076, 9.999129 
6.4510965e+2, 1.5451935e+2, -1376169.4, -1500386.6, 34987.47, 0.065170966, -0.046273995, -1366992.6, 58713.72, 0.0, 10.000744, 9.999094 
6.4509976e+2, 1.6451842e+2, -1258652.3, -1351761.9, 38095.426, 0.13177738, -0.06457941, -1245052.1, 82663.53, 0.0, 10.000699, 9.999463 
6.4508796e+2, 1.7451787e+2, -1169812.1, -1254169.4, 30605.322, 0.01506084, -0.06999203, -1159878.1, 69841.586, 0.0, 10.000619, 9.999499 
6.4507693e+2, 1.8451732e+2, -1101184.1, -1216874.9, 32384.281, -0.033163257, -0.054380417, -1092736.0, 38989.145, 0.0, 10.000617, 9.9990835 
6.450668e+2, 1.9451678e+2, -989873.8, -1112659.1, 36183.723, 0.0015063714, -0.017354818, -980004.1, 53727.813, 0.0, 10.00071, 9.999081 
6.450565e+2, 2.0451598e+2, -883977.2, -992200.6, 39635.26, 0.017227571, -0.013250786, -871014.1, 64726.4, 0.0, 10.000683, 9.9992485 
6.450459e+2, 2.1451484e+2, -809367.3, -902926.6, 43734.68, 0.010329548, -0.05558799, -792107.5, 45643.76, 0.0, 10.000511, 9.999271 
6.4503515e+2, 2.24514e+2, -710839.3, -812847.4, 28564.518, 0.0002639707, -0.061646074, -703385.25, 36373.89, 0.0, 10.00055, 9.999198 
6.4502424e+2, 2.3451355e+2, -569042.8, -692307.6, 15173.407, -0.01384754, -0.027951747, -567202.5, 74560.875, 0.0, 10.000845, 9.99921 
6.4501363e+2, 2.4451263e+2, -483300.38, -630503.7, 22593.695, -0.011932444, -0.02542955, -479910.6, 63860.813, 0.0, 10.000891, 9.9989395 
6.450033e+2, 2.545112e+2, -423112.5, -550213.75, 27845.19, 0.009275128, -0.06573945, -417279.88, 28503.922, 0.0, 10.000629, 9.998943 
6.449927e+2, 2.6450977e+2, -354644.9, -508881.72, 16619.094, 0.007816291, -0.082452334, -352874.53, -5076.894, 0.0, 10.000609, 9.998565 
6.449817e+2, 2.745084e+2, -217274.16, -392299.13, 6719.349, -0.020701151, -0.07760158, -217016.58, 32796.605, 0.0, 10.000881, 9.998561 
6.4497095e+2, 2.8450727e+2, -118893.164, -309130.7, 6301.8164, -0.027817218, -0.040823217, -118684.64, 33141.508, 0.0, 10.000949, 9.998427 
6.4496046e+2, 2.9450646e+2, -51935.746, -231285.33, 9108.052, -0.008300141, 0.036865048, -51474.39, 2360.5374, 0.000000011710588, 10.000758, 9.998381 
6.4494944e+2, 3.045045e+2, -32030.982, -203950.06, -16250.543, -0.007744089, 0.010154822, -30508.395, -30508.395, 0.00000040808163, 10.00059, 9.998316 
6.4493734e+2, 3.14502e+2, 81155.72, 54543.164, 15532.6, -0.08841041, -0.080169044, 88302.28, 88302.28, 0.0000020409286, 10.000492, 10.000137 
6.551456e+2, 1.2453233e+2, -1706271.8, -1722109.3, 112898.625, -0.0038201823, -0.01976785, -1601014.5, 118566.56, 0.0, 10.000127, 9.999879 
6.551347e+2, 1.3453177e+2, -1552394.3, -1614729.5, -78139.9, 0.24485044, -0.054559004, -1499435.4, 122149.98, 0.0, 10.000548, 9.999761 
6.55119e+2, 1.445317e+2, -1447386.5, -1546927.4, 25340.691, -0.13606615, -0.020366022, -1441306.8, 82279.0, 0.0, 10.000759, 9.999441 
6.5511024e+2, 1.5453082e+2, -1352104.3, -1450345.5, 34226.15, 0.044351682, -0.051593024, -1341356.1, 84238.27, 0.0, 10.000742, 9.999438 
6.5510017e+2, 1.6453025e+2, -1271744.3, -1378844.1, 34768.227, 0.106815144, -0.04568073, -1261447.3, 66153.086, 0.0, 10.000698, 9.999278 
6.5508866e+2, 1.7452994e+2, -1184417.1, -1285376.4, 27493.465, 0.026216455, -0.006018056, -1177415.6, 52187.75, 0.0, 10.000622, 9.999284 
6.5507776e+2, 1.845291e+2, -1095213.9, -1204883.1, 34997.92, -0.008106831, -0.011025383, -1084997.0, 46614.625, 0.0, 10.000618, 9.999166 
6.550676e+2, 1.9452767e+2, -983162.06, -1098705.9, 39486.813, 0.0145142805, -0.07203172, -970956.8, 62669.004, 0.0, 10.00071, 9.999177 
6.5505713e+2, 2.0452693e+2, -877060.2, -977552.44, 33339.684, 0.019972939, -0.070639, -867005.3, 68627.79, 0.0, 10.000682, 9.99935 
6.5504634e+2, 2.1452701e+2, -802030.44, -888149.94, 37193.285, 0.004447587, -0.0017237106, -788191.3, 49440.953, 0.0, 10.000513, 9.999372 
6.5503573e+2, 2.2452627e+2, -732772.94, -858838.9, 38488.008, -0.0022716946, 0.01273398, -721951.44, 17687.984, 0.0, 10.000551, 9.998881 
6.550252e+2, 2.345246e+2, -592400.2, -741480.25, 26366.176, 0.0021364354, -0.04340592, -587874.5, 53781.55, 0.0, 10.000847, 9.998872 
6.550146e+2, 2.4452327e+2, -476257.03, -615900.8, 13664.733, 0.0016881914, -0.070706785, -474932.44, 68735.805, 0.0, 10.000891, 9.99904 
6.5500385e+2, 2.5452238e+2, -414844.28, -532634.44, 18040.043, -0.0041310755, -0.067866296, -412143.3, 33531.56, 0.0, 10.0006275, 9.999065 
6.549932e+2, 2.6452127e+2, -370959.2, -542138.8, 25774.594, -0.007935556, -0.047635257, -367162.5, -19476.64, 0.0, 10.000607, 9.998338 
6.549827e+2, 2.7451995e+2, -233859.92, -426787.53, 17407.494, -0.01009244, -0.013436986, -232301.86, 17400.086, 0.0, 10.000881, 9.998324 
6.5497196e+2, 2.8451848e+2, -112643.055, -296160.25, 135.5367, -0.01723271, -0.0006624319, -112642.96, 39074.88, 0.0, 10.000949, 9.998516 
6.54961e+2, 2.9451686e+2, -45356.16, -216700.28, 1887.3043, -0.02821014, -0.015876066, -45335.375, 8397.618, 0.000000011654482, 10.000753, 9.998483 
6.549498e+2, 3.0451477e+2, -45616.57, -231092.34, -20557.932, -0.032880846, -0.053235672, -43365.277, -43365.277, 0.00000041978168, 10.000585, 9.998132 
6.54938e+2, 3.1451416e+2, 59033.938, 9728.126, 12220.719, -0.06744086, 0.06348657, 61896.695, 61896.695, 0.000002202322, 10.000487, 9.999831 
6.6514546e+2, 1.245441e+2, -1701096.6, -1715707.1, 123775.81, -0.027397515, 0.00028643783, -1584410.8, 135055.86, 0.0, 10.000147, 9.999913 
6.651355e+2, 1.3454328e+2, -1562449.9, -1628649.0, -38382.56, 0.26872662, -0.051434968, -1544866.1, 76607.41, 0.0, 10.00052, 9.999679 
6.6511995e+2, 1.4454313e+2, -1454806.5, -1543676.1, 46628.188, -0.118423104, -0.023947164, -1434831.4, 88643.234, 0.0, 10.00068, 9.999501 
6.6511077e+2, 1.5454257e+2, -1367453.5, -1450603.5, 33977.93, 0.031087013, -0.030311344, -1355335.1, 70144.96, 0.0, 10.0006075, 9.999501 
6.651006e+2, 1.64542e+2, -1289423.5, -1395964.3, 29438.508, 0.08690169, -0.021169942, -1281830.5, 45655.297, 0.0, 10.000614, 9.999201 
6.6508937e+2, 1.745414e+2, -1177044.1, -1290938.3, 31266.594, 0.03035099, -0.003922413, -1169025.4, 60466.785, 0.0, 10.000713, 9.999201 
6.650786e+2, 1.8454053e+2, -1074521.9, -1183783.9, 43920.004, 0.005326224, -0.011829912, -1059056.4, 72444.336, 0.0, 10.000714, 9.999263 
6.6506827e+2, 1.9453941e+2, -992411.06, -1091730.0, 48265.555, 0.018114664, -0.053290218, -972820.06, 60691.47, 0.0, 10.000597, 9.999278 
6.650578e+2, 2.0453869e+2, -893731.94, -1000218.3, 35558.367, 0.019364212, -0.049463347, -882949.9, 52568.73, 0.0, 10.00063, 9.999218 
6.6504705e+2, 2.1453846e+2, -763002.75, -884871.6, 20896.314, 0.0068966146, 0.0030552717, -759519.3, 78001.65, 0.0, 10.00085, 9.999231 
6.6503644e+2, 2.245376e+2, -678179.3, -832150.44, 26741.396, 0.002324568, 0.012273338, -673667.2, 65862.16, 0.0, 10.000926, 9.998884 
6.650261e+2, 2.3453599e+2, -594729.4, -741470.75, 40579.965, 0.0072129, -0.036794726, -584255.0, 57289.863, 0.0, 10.000827, 9.998881 
6.650155e+2, 2.4453467e+2, -486346.94, -634501.06, 29638.008, 0.0010176944, -0.05927631, -480637.88, 62919.297, 0.0, 10.000881, 9.998917 
6.650045e+2, 2.5453365e+2, -352873.3, -517251.03, 14596.123, -0.017852137, -0.05399516, -351587.3, 93978.06, 0.0, 10.001116, 9.998936 
6.649939e+2, 2.6453248e+2, -296180.72, -507558.28, 21094.402, -0.022152722, -0.034919396, -294096.16, 53481.164, 0.0, 10.001127, 9.998323 
6.649836e+2, 2.745311e+2, -236335.48, -428581.13, 29640.96, -0.009476422, -0.0048770737, -231869.13, 17724.496, 0.0, 10.000868, 9.998318 
6.649729e+2, 2.8452963e+2, -134144.64, -309619.5, 17001.268, -0.0156589, 0.008651761, -132512.61, 19096.637, 0.0, 10.000815, 9.998487 
6.6496176e+2, 2.94528e+2, -9016.768, -201873.47, 8311.333, -0.043862563, -0.004662267, -8659.246, 44964.844, 0.000000008469742, 10.001017, 9.998457 
6.649504e+2, 3.0452564e+2, 16257.388, -214624.4, -20648.59, -0.053413764, -0.06288621, 18089.527, 18089.527, 0.00000038345433, 10.001069, 9.998011 
6.6493887e+2, 3.1452522e+2, 101191.3, -5782.206, 15883.064, -0.053125184, 0.087784424, 103499.74, 103499.74, 0.0000022156387, 10.000931, 9.99951 
6.7514545e+2, 1.2455595e+2, -1689802.8, -1693834.5, 116139.94, -0.045723952, 0.0075296112, -1575661.3, 143688.98, 0.0, 10.000153, 10.000061 
6.7513615e+2, 1.345551e+2, -1557571.0, -1619272.3, -24544.002, 0.28830883, -0.053467818, -1548998.6, 72359.13, 0.0, 10.000523, 9.999742 
6.751208e+2, 1.4455491e+2, -1468701.3, -1572554.3, 43628.926, -0.10015125, -0.022511194, -1452805.5, 70553.875, 0.0, 10.000679, 9.999303 
6.751113e+2, 1.545546e+2, -1382369.8, -1482347.0, 30988.938, 0.022644624, 0.015764702, -1373543.6, 51819.566, 0.0, 10.000609, 9.999283 
6.751011e+2, 1.6455378e+2, -1287582.9, -1391983.5, 32355.865, 0.06912142, 0.008306877, -1278368.4, 49003.227, 0.0, 10.000613, 9.9992285 
6.750901e+2, 1.7455234e+2, -1173814.9, -1284301.0, 35087.133, 0.027987182, -0.06136277, -1163614.0, 65771.51, 0.0, 10.000713, 9.999247 
6.750793e+2, 1.8455169e+2, -1067520.9, -1169176.0, 39560.61, 0.0076635545, -0.055205394, -1053939.8, 77452.15, 0.0, 10.000713, 9.999363 
6.750688e+2, 1.9455199e+2, -985207.25, -1077117.9, 43515.645, 0.010921846, 0.036398895, -967873.5, 65515.668, 0.0, 10.000598, 9.999379 
6.7505836e+2, 2.0455122e+2, -919121.9, -1053136.4, 42622.99, 0.013832282, 0.047718212, -906714.44, 28682.576, 0.0, 10.000631, 9.998856 
6.75048e+2, 2.145492e+2, -789829.25, -940771.25, 29071.207, 0.016990013, -0.04088699, -784423.75, 52993.414, 0.0, 10.00085, 9.998848 
6.750375e+2, 2.2454798e+2, -655981.2, -785898.2, 23432.98, 0.013065899, -0.061781533, -651883.8, 87544.81, 0.0, 10.000925, 9.999203 
6.7502683e+2, 2.3454776e+2, -569839.0, -690119.56, 36973.96, 0.0010444605, -0.008318351, -559382.4, 82047.48, 0.0, 10.000828, 9.999234 
6.750162e+2, 2.4454685e+2, -510488.66, -684901.75, 37755.156, -0.014144879, 0.008404323, -502666.63, 40771.625, 0.0, 10.000882, 9.99857 
6.750055e+2, 2.545451e+2, -379327.47, -572568.75, 23605.238, -0.033273943, -0.0241445, -376485.78, 68969.37, 0.0, 10.001117, 9.998555 
6.749949e+2, 2.6454338e+2, -282806.5, -479629.16, 12180.827, -0.036805596, -0.044351622, -282055.53, 65416.44, 0.0, 10.001126, 9.998516 
6.7498434e+2, 2.7454188e+2, -221555.36, -397182.72, 20044.531, -0.02012457, -0.053527374, -219296.7, 30191.65, 0.0, 10.000865, 9.998535 
6.749736e+2, 2.8454068e+2, -144921.67, -330954.2, 23626.018, -0.02372871, -0.01421514, -141968.08, 9532.453, 0.0, 10.000811, 9.9983425 
6.7496264e+2, 2.9453993e+2, -20111.26, -224335.38, 16309.452, -0.055945765, 0.07318908, -18816.98, 34690.973, 0.0000000040864183, 10.001014, 9.998304 
6.749513e+2, 3.0453712e+2, 11547.998, -224497.52, -24913.191, -0.07033853, -0.017029999, 14148.781, 14148.781, 0.0000003121116, 10.001068, 9.997944 
6.749398e+2, 3.1453523e+2, 77657.29, -54285.875, 10905.297, -0.04960515, -0.0049816268, 78552.555, 78552.555, 0.0000020914758, 10.000929, 9.999178 
6.8514574e+2, 1.245675e+2, -1652425.4, -1686901.4, 95903.625, -0.04381608, -0.0065610968, -1572222.9, 147013.6, 0.0, 10.000456, 9.999964 
6.851365e+2, 1.3456687e+2, -1599558.1, -1660214.3, -43139.44, 0.27384046, -0.02522083, -1577152.9, 44090.207, 0.0, 10.000326, 9.999556 
6.851212e+2, 1.4456655e+2, -1506521.8, -1588496.8, 23634.992, -0.116285235, -0.0016537852, -1500195.5, 23051.086, 0.0, 10.000411, 9.999323 
6.8511206e+2, 1.5456595e+2, -1355576.1, -1466370.4, 28935.947, 0.0323491, 0.0055937893, -1348474.1, 76778.02, 0.0, 10.000782, 9.999309 
6.851019e+2, 1.645651e+2, -1249420.9, -1370451.3, 31708.55, 0.08260293, -0.0064080097, -1241616.9, 85643.73, 0.0, 10.000864, 9.999254 
6.8509066e+2, 1.7456393e+2, -1189684.9, -1289306.1, 31496.17, 0.022371639, -0.050049588, -1180562.5, 48709.76, 0.0, 10.000594, 9.999269 
6.850798e+2, 1.8456335e+2, -1093422.0, -1189121.3, 35029.715, -0.0018708728, -0.03434478, -1081970.1, 49308.08, 0.0, 10.000568, 9.999296 
6.8506956e+2, 1.9456351e+2, -953773.2, -1069023.1, 26954.824, 0.0140050035, 0.04742083, -947780.56, 85496.695, 0.0, 10.000847, 9.999313 
6.850592e+2, 2.0456265e+2, -874683.94, -1029341.4, 31703.418, 0.02251501, 0.05245534, -868437.3, 66848.484, 0.0, 10.000928, 9.998875 
6.850488e+2, 2.1456061e+2, -799793.25, -943254.9, 47656.86, 0.02276433, -0.03901937, -785405.0, 51900.645, 0.0, 10.0007715, 9.998869 
6.850383e+2, 2.2455941e+2, -680145.1, -802124.06, 45802.246, 0.014546865, -0.058009077, -664861.6, 74455.35, 0.0, 10.000778, 9.999162 
6.850277e+2, 2.3455925e+2, -550790.5, -685445.4, 29334.893, -0.0030431873, 0.004390771, -544677.4, 96640.734, 0.0, 10.000978, 9.999193 
6.850171e+2, 2.445583e+2, -489052.9, -674753.44, 27326.846, -0.017995577, 0.022523057, -485115.1, 58211.61, 0.0, 10.00103, 9.998569 
6.8500656e+2, 2.5455645e+2, -410026.13, -587085.7, 41499.164, -0.03042569, -0.019127691, -400782.16, 44562.223, 0.0, 10.000906, 9.998557 
6.849959e+2, 2.6455474e+2, -313580.47, -494472.1, 34668.617, -0.03644216, -0.043014083, -307163.72, 40197.715, 0.0, 10.0009165, 9.998515 
6.8498516e+2, 2.745532e+2, -189869.33, -382057.66, 25399.387, -0.03202823, -0.04941871, -186569.25, 62808.094, 0.0, 10.001083, 9.998533 
6.849745e+2, 2.84552e+2, -98854.77, -317915.34, 27874.027, -0.03751452, -0.009130403, -95363.625, 56026.02, 0.0, 10.001167, 9.9982605 
6.849637e+2, 2.9455113e+2, -4560.247, -225656.6, 25867.143, -0.059933327, 0.076524235, -1574.251, 51823.71, 0.0000000009738006, 10.001159, 9.998225 
6.849523e+2, 3.0454823e+2, 38526.28, -193298.97, -9314.271, -0.07835847, -0.027409626, 38899.906, 38899.906, 0.00000022618863, 10.001176, 9.998106 
6.849408e+2, 3.1454632e+2, 110620.625, -49878.332, 42685.297, -0.056213982, -0.035277646, 121266.766, 121266.766, 0.0000018666766, 10.001205, 9.999075 
6.951464e+2, 1.2457881e+2, -1677110.8, -1737765.6, 69560.79, -0.027670266, -0.041392, -1631553.8, 87570.99, 0.0, 10.000454, 9.999617 
6.951363e+2, 1.3457868e+2, -1630070.8, -1723648.5, -48590.113, 0.22563075, 0.03205833, -1609404.5, 11724.388, 0.0, 10.000327, 9.99912 
6.951211e+2, 1.4457804e+2, -1489787.3, -1553903.4, 36437.492, -0.16598444, 0.037696864, -1473312.8, 49822.785, 0.0, 10.000411, 9.99956 
6.951131e+2, 1.5457666e+2, -1336319.8, -1426563.1, 43629.652, 0.05859384, -0.059428122, -1318676.0, 106470.55, 0.0, 10.000782, 9.999582 
6.951032e+2, 1.6457602e+2, -1250076.3, -1371082.9, 22082.932, 0.12460647, -0.0649726, -1246172.1, 80980.11, 0.0, 10.00086, 9.999251 
6.950911e+2, 1.7457621e+2, -1191364.8, -1292305.5, 20763.389, 0.011415018, 0.027425578, -1187260.6, 41891.68, 0.0, 10.000591, 9.999249 
6.9508016e+2, 1.8457557e+2, -1109110.4, -1221346.4, 44043.867, -0.024751501, 0.0484402, -1093890.5, 37269.066, 0.0, 10.0005665, 9.999076 
6.9507056e+2, 1.94574e+2, -969710.94, -1101939.9, 37667.566, 0.027206657, -0.01834664, -959733.56, 73441.71, 0.0, 10.000845, 9.999088 
6.950604e+2, 2.0457302e+2, -847715.0, -973198.8, 26190.63, 0.0449909, -0.032921914, -842467.94, 92716.63, 0.0, 10.000926, 9.999261 
6.9504964e+2, 2.1457271e+2, -770807.2, -883246.7, 41482.305, 0.023019806, 0.007617492, -757159.6, 80026.86, 0.0, 10.0007715, 9.999281 
6.9503903e+2, 2.2457187e+2, -707845.06, -860007.1, 52514.21, 0.005838648, 0.021829894, -691481.2, 47713.336, 0.0, 10.000779, 9.998764 
6.950286e+2, 2.3457043e+2, -581195.8, -749013.44, 36958.816, -0.005891313, 0.0012661291, -573416.9, 67792.7, 0.0, 10.000979, 9.998756 
6.950182e+2, 2.4456908e+2, -464967.22, -624748.6, 23018.465, -0.011457809, -0.016623095, -461717.25, 81505.305, 0.0, 10.00103, 9.998912 
6.950076e+2, 2.545678e+2, -383415.16, -531757.9, 36932.934, -0.009922444, -0.03918121, -374728.63, 70504.484, 0.0, 10.000905, 9.998938 
6.9499695e+2, 2.645665e+2, -327653.53, -523182.16, 40441.918, -0.021187777, -0.031459168, -319618.94, 27626.793, 0.0, 10.000914, 9.998319 
6.949861e+2, 2.7456522e+2, -205774.03, -414690.75, 31897.84, -0.04641482, 0.008282132, -201012.34, 48248.137, 0.0, 10.001082, 9.99831 
6.949754e+2, 2.8456366e+2, -100375.93, -321310.47, 27863.725, -0.058187332, 0.024453647, -96916.016, 54360.484, 0.0, 10.001168, 9.998238 
6.949648e+2, 2.945617e+2, -5627.002, -227165.47, 26055.248, -0.05704699, 0.0036887964, -2603.885, 50690.434, 0.000000000021633938, 10.001156, 9.998217 
6.949535e+2, 3.0455902e+2, 65533.543, -136029.86, -8303.31, -0.078375064, -0.09595722, 65875.016, 65875.016, 0.00000014519733, 10.001171, 9.998502 
6.9494176e+2, 3.1455863e+2, 118926.96, -31077.254, 42726.945, -0.07674936, 0.007674526, 130243.5, 130243.5, 0.0000015881137, 10.0012, 9.9992075 
7.051465e+2, 1.2458979e+2, -1781870.1, -1772286.8, 13022.549, -0.023982953, -0.03314328, -1763202.4, -44184.477, 0.0, 9.999667, 9.999759 
7.0513666e+2, 1.3458967e+2, -1584414.9, -1691865.5, -48648.473, 0.21711788, 0.03330494, -1565662.0, 55359.08, 0.0, 10.0006, 9.999205 
7.0512164e+2, 1.4458895e+2, -1425894.1, -1518297.8, 31390.256, -0.17202024, 0.022416135, -1416239.4, 106788.984, 0.0, 10.000831, 9.999601 
7.0511365e+2, 1.5458773e+2, -1407310.5, -1456579.6, 20568.398, 0.06077293, -0.06156533, -1399852.6, 25185.273, 0.0, 10.000278, 9.999618 
7.0510375e+2, 1.6458718e+2, -1343817.9, -1411765.0, -1285.3771, 0.12946838, -0.061359458, -1343793.5, -16750.584, 0.0, 10.000198, 9.99929 
7.050917e+2, 1.7458738e+2, -1175042.5, -1279343.5, 2300.5657, 0.012336975, 0.027934236, -1174991.8, 54051.17, 0.0, 10.000684, 9.999293 
7.0508087e+2, 1.845868e+2, -1068419.3, -1195150.9, 34327.914, -0.02341682, 0.047677882, -1059718.1, 71331.734, 0.0, 10.000819, 9.999133 
7.050713e+2, 1.9458528e+2, -1010982.06, -1116190.1, 47375.996, 0.034238946, -0.018718986, -992792.94, 40271.87, 0.0, 10.000537, 9.999139 
7.0506114e+2, 2.045843e+2, -902984.9, -997886.7, 37064.574, 0.0507662, -0.034964398, -890224.7, 44849.113, 0.0, 10.000538, 9.999279 
7.050504e+2, 2.1458398e+2, -753722.7, -872838.8, 23032.244, 0.019653318, 0.001798293, -749424.3, 87651.61, 0.0, 10.00088, 9.999299 
7.0503986e+2, 2.2458318e+2, -677255.5, -845524.25, 30318.635, 0.0014679268, 0.017631982, -671959.4, 67124.414, 0.0, 10.000992, 9.998761 
7.050296e+2, 2.345818e+2, -603620.9, -760482.7, 46300.324, -0.002146468, 0.004492567, -590974.2, 50124.223, 0.0, 10.00083, 9.99875 
7.050192e+2, 2.4458049e+2, -493261.13, -636022.8, 38073.66, -0.006445261, -0.009799311, -483741.84, 59369.34, 0.0, 10.000826, 9.998933 
7.050086e+2, 2.5457925e+2, -366912.0, -521599.9, 24476.857, -0.011182981, -0.032036506, -363131.34, 81990.39, 0.0, 10.001009, 9.998957 
7.049979e+2, 2.6457796e+2, -296232.6, -513673.9, 23152.12, -0.026685942, -0.02315321, -293794.78, 53339.637, 0.0, 10.001154, 9.998269 
7.0498717e+2, 2.7457663e+2, -183260.16, -409475.66, 27240.795, -0.054059837, 0.017954605, -180026.06, 69123.37, 0.0, 10.001262, 9.998259 
7.0497656e+2, 2.84575e+2, -78719.734, -304405.38, 26587.178, -0.06443417, 0.028756741, -75629.9, 75535.94, 0.0, 10.001289, 9.998295 
7.04966e+2, 2.9457298e+2, 8633.262, -213031.77, 30311.883, -0.057430442, -0.0044354503, 12703.561, 65887.71, 0.0, 10.001222, 9.9982815 
7.049546e+2, 3.0457056e+2, 85778.64, -116722.9, -6895.123, -0.085513435, -0.08578665, 86013.14, 86013.14, 0.00000008201181, 10.001269, 9.998587 
7.04943e+2, 3.1457013e+2, 143654.27, -34631.484, 16143.185, -0.08925163, 0.0065810294, 145104.19, 145104.19, 0.0000012936833, 10.001434, 9.99907 
7.1514606e+2, 1.2460051e+2, -1738084.4, -1683577.4, 29115.908, -0.033245854, 0.014555447, -1670949.9, 47965.383, 0.0, 9.999674, 10.000364 
7.1513754e+2, 1.3459995e+2, -1542800.9, -1606024.3, -12849.915, 0.24262331, -0.020638507, -1540289.0, 80630.01, 0.0, 10.000602, 9.999793 
7.1512276e+2, 1.445993e+2, -1438251.1, -1543200.1, 11743.128, -0.14012118, -0.046834823, -1436953.3, 85971.61, 0.0, 10.000828, 9.999432 
7.151137e+2, 1.5459916e+2, -1422664.6, -1487409.9, -470.37424, 0.039076213, -0.0023427138, -1422661.3, 2265.1099, 0.0, 10.000274, 9.999409 
7.151036e+2, 1.6459861e+2, -1337057.0, -1397599.3, 15578.306, 0.09832591, 0.002631431, -1333283.8, -6351.37, 0.0, 10.000197, 9.999389 
7.150926e+2, 1.7459753e+2, -1166779.4, -1262587.5, 21250.807, 0.023853865, -0.04673193, -1162277.4, 66666.26, 0.0, 10.000685, 9.999408 
7.1508193e+2, 1.8459706e+2, -1047139.06, -1150799.6, 24522.729, 0.00014436008, -0.0347041, -1041630.5, 89318.055, 0.0, 10.000817, 9.999438 
7.1507186e+2, 1.9459732e+2, -989372.4, -1071002.5, 36234.527, 0.033881538, 0.044846985, -975608.94, 57336.99, 0.0, 10.000535, 9.99945 
7.150616e+2, 2.045965e+2, -926925.94, -1047911.25, 48405.914, 0.039257884, 0.044223383, -909942.8, 25010.92, 0.0, 10.000539, 9.998936 
7.1505123e+2, 2.1459445e+2, -779684.06, -926913.44, 35952.688, 0.012307334, -0.055704936, -771373.7, 65600.04, 0.0, 10.00088, 9.998929 
7.150408e+2, 2.2459334e+2, -650027.8, -789042.94, 24633.395, 0.0009307587, -0.06889142, -645791.9, 93192.625, 0.0, 10.000991, 9.999149 
7.150305e+2, 2.3459335e+2, -574059.6, -699217.94, 40217.074, 0.0074263634, 0.013824017, -562250.8, 78733.73, 0.0, 10.00083, 9.999171 
7.1502e+2, 2.4459253e+2, -514970.6, -681170.94, 44296.004, -0.0035252958, 0.04228248, -503901.9, 39090.81, 0.0, 10.000826, 9.998623 
7.1500933e+2, 2.5459075e+2, -390854.8, -571544.6, 31429.455, -0.035053756, 0.0024923675, -385544.0, 59466.227, 0.0, 10.00101, 9.998614 
7.1499884e+2, 2.6458904e+2, -289127.6, -499302.34, 27210.531, -0.053606533, -0.0180186, -285661.9, 61365.594, 0.0, 10.001155, 9.998367 
7.149884e+2, 2.745874e+2, -175240.28, -392355.56, 31563.08, -0.0558873, -0.021197803, -170744.89, 78299.43, 0.0, 10.001259, 9.998378 
7.14978e+2, 2.8458604e+2, -69597.23, -284616.06, 24212.479, -0.05722547, 0.00322842, -66904.47, 84153.28, 0.0, 10.001286, 9.998433 
7.1496725e+2, 2.94585e+2, 18235.186, -192342.64, 28229.639, -0.061757825, 0.054315086, 21953.922, 75021.19, 0.0, 10.001219, 9.9984255 
7.1495575e+2, 3.045829e+2, 69648.12, -150624.44, -778.83264, -0.10034519, 0.0045099533, 69650.875, 69650.875, 0.00000004119849, 10.001269, 9.998355 
7.1494436e+2, 3.1458095e+2, 112542.516, -97534.664, 20773.389, -0.096899375, -0.027791109, 114576.984, 114576.984, 0.0000010048329, 10.001427, 9.998643 
7.251458e+2, 1.2461099e+2, -1668583.5, -1636114.3, 50612.426, -0.042321116, 0.009183633, -1599196.4, 119616.2, 0.0, 10.00009, 10.00049 
7.25138e+2, 1.3461053e+2, -1610370.8, -1625647.4, -8395.603, 0.25607848, -0.026947644, -1606658.8, 14156.31, 0.0, 10.000084, 9.999907 
7.2512347e+2, 1.446099e+2, -1536313.0, -1584395.8, -17808.104, -0.114480354, -0.059984438, -1530435.9, -7615.1104, 0.0, 10.000129, 9.999485 
7.2511387e+2, 1.5461013e+2, -1418979.3, -1480235.9, -12149.678, 0.030335797, 0.014163063, -1416657.5, 8162.0684, 0.0, 10.000276, 9.999455 
7.2510374e+2, 1.6460964e+2, -1313495.1, -1380463.9, 27560.973, 0.08457881, 0.022417905, -1303611.1, 23213.725, 0.0, 10.000335, 9.99944 
7.250932e+2, 1.7460835e+2, -1220957.9, -1283224.5, 28521.611, 0.04178859, -0.05302668, -1209868.4, 18969.557, 0.0, 10.000289, 9.999457 
7.250827e+2, 1.8460788e+2, -1104709.4, -1167940.0, 13637.108, 0.021928389, -0.048923314, -1101893.6, 28949.023, 0.0, 10.000377, 9.999534 
7.250723e+2, 1.9460835e+2, -968713.4, -1049841.0, 9717.493, 0.025459819, 0.04314178, -967565.6, 65272.047, 0.0, 10.000629, 9.999549 
7.250621e+2, 2.0460768e+2, -895610.6, -1031518.2, 32573.549, 0.02368039, 0.04988897, -888206.9, 46637.44, 0.0, 10.000749, 9.998946 
7.25052e+2, 2.1460563e+2, -804899.5, -938603.8, 47504.58, 0.016842082, -0.048435476, -789740.06, 47124.414, 0.0, 10.000705, 9.998933 
7.250418e+2, 2.246045e+2, -683749.7, -798787.94, 32605.514, 0.0086976895, -0.066291235, -675150.94, 63724.54, 0.0, 10.000731, 9.9992075 
7.2503126e+2, 2.3460445e+2, -567184.1, -689116.3, 20812.277, -0.0009295519, 0.0038744702, -563729.56, 77146.195, 0.0, 10.000848, 9.999231 
7.250208e+2, 2.4460366e+2, -500181.38, -682527.06, 25766.756, -0.016108228, 0.036144007, -496610.28, 46273.523, 0.0, 10.000964, 9.998548 
7.250104e+2, 2.5460204e+2, -385722.84, -577983.56, 32556.186, -0.038561113, 0.019584388, -380359.6, 64541.188, 0.0, 10.001084, 9.998534 
7.2499996e+2, 2.6460037e+2, -285313.56, -485721.88, 34523.266, -0.054614156, 0.002738246, -279533.16, 67384.5, 0.0, 10.001131, 9.998472 
7.2498953e+2, 2.7459863e+2, -191910.28, -388266.78, 37688.42, -0.06141641, -0.020942535, -184924.92, 64009.535, 0.0, 10.001092, 9.998487 
7.2497904e+2, 2.8459722e+2, -98743.93, -310471.25, 21999.133, -0.063678265, -0.0021570516, -96482.31, 54466.15, 0.0, 10.001136, 9.998327 
7.249684e+2, 2.9459623e+2, 21810.742, -202862.22, 6711.3823, -0.0658723, 0.063493334, 22011.045, 74969.945, 0.0, 10.001297, 9.998316 
7.24957e+2, 3.0459446e+2, 103809.78, -118350.945, -15717.084, -0.11087493, 0.04791539, 104916.2, 104916.2, 0.000000018939705, 10.001438, 9.998494 
7.2494566e+2, 3.1459212e+2, 133534.56, -79137.91, 33477.773, -0.110636294, -0.035310004, 138679.97, 138679.97, 0.0000007295325, 10.001536, 9.998715 
7.3514575e+2, 1.2462127e+2, -1692765.5, -1686188.5, 33622.17, -0.05701256, -0.045925666, -1655694.4, 63015.242, 0.0, 10.000088, 10.000148 
7.3513806e+2, 1.3462144e+2, -1635456.5, -1675470.1, -8673.149, 0.25867805, 0.014417236, -1633657.4, -12948.518, 0.0, 10.000075, 9.999569 
7.351238e+2, 1.4462076e+2, -1517323.0, -1544540.0, -12535.746, -0.094096996, -0.018120153, -1512429.1, 10286.827, 0.0, 10.000126, 9.999761 
7.3511416e+2, 1.546206e+2, -1396724.8, -1436127.3, -5932.552, 0.030998813, -0.011969791, -1395851.0, 28866.264, 0.0, 10.000284, 9.999755 
7.3510414e+2, 1.646203e+2, -1313326.3, -1381773.0, 25739.115, 0.084792584, -0.001530959, -1304727.4, 21992.996, 0.0, 10.00034, 9.999429 
7.350938e+2, 1.7461982e+2, -1222878.1, -1287094.8, 26514.205, 0.06570281, 0.007949341, -1213345.8, 15379.967, 0.0, 10.000288, 9.999432 
7.3508334e+2, 1.8461922e+2, -1111663.6, -1182254.9, 22305.135, 0.041634444, 0.0033983921, -1105206.4, 25525.703, 0.0, 10.000375, 9.999436 
7.3507273e+2, 1.946184e+2, -975522.8, -1064344.9, 19311.727, 0.008208466, -0.022561532, -971505.75, 61233.93, 0.0, 10.00063, 9.99945 
7.3506254e+2, 2.0461784e+2, -871111.5, -980891.06, 31019.338, 0.0031865053, -0.0160653, -862953.0, 71792.125, 0.0, 10.000749, 9.999294 
7.350529e+2, 2.1461754e+2, -779339.44, -885278.25, 45528.684, 0.032265395, 0.02249778, -762461.75, 74286.445, 0.0, 10.000703, 9.9993 
7.350427e+2, 2.2461666e+2, -702763.6, -838302.25, 36196.625, 0.023963982, 0.023493938, -693702.75, 45054.066, 0.0, 10.000731, 9.998937 
7.3503184e+2, 2.3461513e+2, -587761.56, -732161.2, 25156.172, -0.027840797, -0.024881192, -583504.56, 57267.367, 0.0, 10.000848, 9.998937 
7.350215e+2, 2.4461392e+2, -488818.25, -659180.9, 30141.162, -0.04488807, -0.02739244, -483642.78, 59141.477, 0.0, 10.000965, 9.998708 
7.350116e+2, 2.546131e+2, -373243.75, -551691.1, 37241.234, -0.022700354, 0.01903907, -365783.53, 79009.74, 0.0, 10.001081, 9.998716 
7.3500127e+2, 2.6461193e+2, -278145.34, -470435.06, 33315.793, -0.030546207, 0.038580414, -272536.7, 74268.22, 0.0, 10.001129, 9.998578 
7.3499054e+2, 2.7461034e+2, -184991.23, -373977.22, 36427.766, -0.071079396, 0.01980222, -178212.78, 70606.98, 0.0, 10.001092, 9.998586 
7.3498e+2, 2.8460854e+2, -122837.5, -360913.5, 27644.496, -0.084683046, 0.013466416, -119669.68, 31168.191, 0.0, 10.001137, 9.99798 
7.349697e+2, 2.9460663e+2, -4352.8623, -255879.27, 13494.361, -0.07175236, 0.022419598, -3630.9636, 49228.18, 0.0, 10.00129, 9.997955 
7.349583e+2, 3.0460528e+2, 138663.08, -44595.258, -11574.445, -0.119817644, 0.043925464, 139391.22, 139391.22, 0.0000000073965225, 10.001432, 9.999004 
7.3494697e+2, 3.146039e+2, 171090.52, 319.8113, 35265.758, -0.13331382, -0.0043116333, 178086.61, 178086.61, 0.0000004773962, 10.001531, 9.999265 
7.45146e+2, 1.2463188e+2, -1716369.5, -1706942.0, 10570.895, -0.032937188, -0.05809709, -1700081.5, 18523.219, 0.0, 9.999967, 10.000063 
7.451379e+2, 1.346323e+2, -1680710.5, -1705775.1, 175.92416, 0.2453333, 0.03489041, -1680709.3, -60106.688, 0.0, 9.999802, 9.999492 
7.451238e+2, 1.446315e+2, -1544746.6, -1554543.1, 12571.506, -0.0974464, -0.007372742, -1536152.9, -13541.601, 0.0, 9.999924, 9.99979 
7.451147e+2, 1.546312e+2, -1372485.9, -1420899.4, 1034.799, 0.04592151, -0.019205578, -1372463.8, 52149.93, 0.0, 10.000435, 9.999786 
7.451047e+2, 1.6463093e+2, -1276417.0, -1360884.5, 6369.0806, 0.099141285, -0.007945566, -1275939.5, 50676.89, 0.0, 10.000582, 9.999455 
7.4509394e+2, 1.746307e+2, -1218619.8, -1282628.4, 9830.816, 0.05816575, 0.023508847, -1217143.9, 11475.632, 0.0, 10.000307, 9.999453 
7.450835e+2, 1.8463013e+2, -1125489.5, -1186961.9, 26823.836, 0.03154535, 0.021457568, -1115430.8, 15194.884, 0.0, 10.000272, 9.999454 
7.4507344e+2, 1.9462915e+2, -991433.0, -1070425.6, 32313.225, 0.017617207, -0.024137907, -979898.94, 52736.098, 0.0, 10.000514, 9.999464 
7.450634e+2, 2.046286e+2, -887276.1, -981781.75, 27212.6, 0.016292816, -0.01987656, -880000.44, 54640.004, 0.0, 10.000608, 9.999355 
7.4505347e+2, 2.1462852e+2, -799012.44, -887401.94, 18720.836, 0.030573644, 0.03631277, -795210.9, 41430.41, 0.0, 10.000537, 9.999365 
7.450433e+2, 2.246278e+2, -721500.25, -845141.3, 16254.368, 0.017570255, 0.046360277, -719399.1, 19249.652, 0.0, 10.000593, 9.998957 
7.4503267e+2, 2.3462626e+2, -594807.8, -733598.9, 28350.584, -0.02736224, -0.0025787323, -589240.06, 51423.813, 0.0, 10.000792, 9.998953 
7.450224e+2, 2.4462499e+2, -496432.53, -659233.0, 37101.453, -0.041887276, -0.013767445, -488375.97, 54300.86, 0.0, 10.000898, 9.998738 
7.450126e+2, 2.5462404e+2, -398068.2, -560419.5, 32316.207, -0.021884078, 0.014794956, -391872.1, 52815.027, 0.0, 10.000897, 9.998745 
7.450023e+2, 2.6462293e+2, -295969.53, -476261.66, 20920.813, -0.034360748, 0.03819065, -293573.75, 53124.33, 0.0, 10.000995, 9.998604 
7.449916e+2, 2.7462164e+2, -164720.83, -361125.97, 18130.516, -0.08267654, 0.047670856, -163061.2, 85648.85, 0.0, 10.001218, 9.998613 
7.4498105e+2, 2.8461987e+2, -97117.91, -344448.13, 18485.334, -0.094735615, 0.037552185, -95743.96, 54984.32, 0.0, 10.001297, 9.998016 
7.4497086e+2, 2.946176e+2, -14897.856, -257174.81, 33909.168, -0.06902258, 0.007930237, -10241.412, 42511.516, 0.0, 10.001202, 9.997989 
7.449597e+2, 3.0461648e+2, 121265.086, -63676.67, 11853.439, -0.12077372, 0.056465752, 122021.71, 122021.71, 0.0000000015345106, 10.001359, 9.998908 
7.449485e+2, 3.1461495e+2, 214212.69, 22627.191, 7003.444, -0.15019153, 0.007632417, 214468.36, 214468.36, 0.00000026410652, 10.001821, 9.999277 
7.5514656e+2, 1.2464289e+2, -1708784.5, -1689358.4, -9978.723, 0.023728507, -0.026288427, -1685146.0, 33351.293, 0.0, 9.999957, 10.000189 
7.551373e+2, 1.3464314e+2, -1668883.4, -1682726.5, -6821.167, 0.213216, 0.03366569, -1666087.1, -45591.047, 0.0, 9.999808, 9.999646 
7.5512344e+2, 1.4464213e+2, -1557810.9, -1583855.3, 29782.99, -0.1260685, -0.02714734, -1538327.6, -15821.003, 0.0, 9.999932, 9.999584 
7.551154e+2, 1.5464193e+2, -1388245.3, -1452801.5, 20375.828, 0.074878626, -0.006144455, -1382352.0, 42156.56, 0.0, 10.000431, 9.99957 
7.5510556e+2, 1.6464157e+2, -1272860.0, -1352253.5, -3217.625, 0.12692578, 0.0037393372, -1272729.9, 53782.65, 0.0, 10.000576, 9.999518 
7.550939e+2, 1.7464101e+2, -1212913.9, -1271883.0, -540.9558, 0.018663958, -0.0059328596, -1212908.9, 15610.062, 0.0, 10.000311, 9.999525 
7.550834e+2, 1.8464066e+2, -1116549.8, -1169488.3, 34948.074, -0.008949017, 0.0057462635, -1099178.5, 31344.31, 0.0, 10.000276, 9.999573 
7.5507426e+2, 1.9464058e+2, -983147.75, -1053152.9, 41238.777, 0.052912682, 0.03712331, -964059.5, 68464.19, 0.0, 10.000513, 9.999584 
7.550644e+2, 2.0463993e+2, -902865.4, -1013921.8, 24236.12, 0.06188204, 0.036909975, -897806.7, 36723.566, 0.0, 10.000607, 9.999137 
7.550538e+2, 2.1463864e+2, -814993.25, -920923.56, 15770.775, 0.010752768, -0.005835833, -812695.2, 23848.371, 0.0, 10.000538, 9.999135 
7.5504357e+2, 2.2463793e+2, -699977.6, -800825.44, 23178.066, -0.011389155, 0.004085914, -694905.6, 43645.305, 0.0, 10.000594, 9.99926 
7.550337e+2, 2.3463787e+2, -572310.94, -686680.8, 35728.145, -0.00020015225, 0.06992664, -562067.25, 78484.336, 0.0, 10.000791, 9.999276 
7.5502366e+2, 2.446369e+2, -503807.3, -674487.25, 37224.023, -0.007706265, 0.07570243, -496042.3, 46519.27, 0.0, 10.000897, 9.998634 
7.550133e+2, 2.5463483e+2, -406599.38, -578301.0, 32409.79, -0.03705005, 0.0074350475, -400685.5, 43896.668, 0.0, 10.000897, 9.998622 
7.55003e+2, 2.6463336e+2, -299542.06, -483752.7, 28916.604, -0.06723767, 0.0025478506, -295109.53, 51487.47, 0.0, 10.000994, 9.998552 
7.549926e+2, 2.7463254e+2, -168301.66, -367785.63, 27118.111, -0.09775118, 0.062026355, -164680.9, 83924.46, 0.0, 10.001214, 9.9985695 
7.549824e+2, 2.846311e+2, -68273.0, -284000.38, 15588.093, -0.095494166, 0.06944675, -67152.445, 83467.26, 0.0, 10.001294, 9.998434 
7.549722e+2, 2.946291e+2, 14892.717, -195624.05, 30892.834, -0.05828893, 0.021689761, 19332.531, 71972.6, 0.0, 10.001202, 9.998412 
7.5496113e+2, 3.0462804e+2, 72289.195, -165322.67, 28637.686, -0.11501714, 0.08761123, 75691.96, 75691.96, 0.00000000001992495, 10.001359, 9.99821 
7.549501e+2, 3.1462547e+2, 174015.22, -58649.418, 22648.994, -0.16587034, 0.006843912, 176199.5, 176199.5, 0.000000109993245, 10.001811, 9.998724 
7.651464e+2, 1.2465323e+2, -1803521.3, -1732438.9, -29482.379, 0.04437679, -0.028570231, -1721802.3, -3406.223, 0.0, 9.999294, 10.000215 
7.651373e+2, 1.3465354e+2, -1599119.9, -1641666.0, -21154.197, 0.20615695, 0.03149176, -1590392.3, 30001.795, 0.0, 10.000257, 9.999712 
7.6512367e+2, 1.446525e+2, -1478667.5, -1544340.8, 2990.6025, -0.12324268, -0.03714994, -1478531.6, 43873.336, 0.0, 10.00047, 9.999597 
7.6511556e+2, 1.546524e+2, -1469478.9, -1491836.3, 9121.2295, 0.07487068, -0.004551144, -1466229.9, -41823.984, 0.0, 9.999872, 9.999573 
7.651057e+2, 1.646521e+2, -1377213.8, -1397357.5, 2009.049, 0.12312466, 0.007450578, -1377015.4, -50605.777, 0.0, 9.999835, 9.999566 
7.6509416e+2, 1.7465152e+2, -1188890.3, -1254568.3, 2924.041, 0.009612494, -0.009018015, -1188760.3, 39656.117, 0.0, 10.000451, 9.999577 
7.6508373e+2, 1.8465126e+2, -1067021.0, -1145025.1, 25100.605, -0.015184223, 0.008000148, -1059642.0, 70777.63, 0.0, 10.000613, 9.9995775 
7.6507473e+2, 1.9465135e+2, -1020908.44, -1071289.1, 22359.783, 0.05860925, 0.057679098, -1012416.25, 20002.58, 0.0, 10.000254, 9.999584 
7.6506495e+2, 2.0465071e+2, -951240.4, -1032069.56, 19202.297, 0.06850821, 0.056284167, -946910.5, -12485.222, 0.0, 10.000253, 9.999182 
7.650544e+2, 2.1464925e+2, -794341.94, -906003.8, 31019.305, 0.005509934, -0.009924718, -786303.5, 50136.598, 0.0, 10.000659, 9.999179 
7.650442e+2, 2.2464852e+2, -673712.44, -791228.44, 30768.182, -0.01802683, -0.00320548, -666144.1, 72303.766, 0.0, 10.00079, 9.999231 
7.6503444e+2, 2.3464862e+2, -601914.9, -704881.94, 16036.348, 0.0037355674, 0.082825705, -599475.1, 40972.293, 0.0, 10.000605, 9.999241 
7.650245e+2, 2.4464776e+2, -531031.1, -677697.6, 17058.473, -0.0046377718, 0.09761061, -529073.25, 13383.219, 0.0, 10.000668, 9.998723 
7.650142e+2, 2.5464576e+2, -381840.28, -555774.75, 28092.451, -0.048392892, 0.025291387, -377415.6, 67060.71, 0.0, 10.001023, 9.998715 
7.650039e+2, 2.6464432e+2, -278980.9, -470424.6, 29890.826, -0.0776379, 0.015897317, -274422.5, 72068.38, 0.0, 10.001122, 9.998582 
7.649938e+2, 2.7464342e+2, -209307.53, -384765.84, 32525.31, -0.08878638, 0.07021293, -203472.27, 45027.367, 0.0, 10.000921, 9.998593 
7.6498365e+2, 2.8464207e+2, -114106.42, -305550.06, 13519.824, -0.08559927, 0.07894194, -113156.37, 37357.438, 0.0, 10.000976, 9.998439 
7.649734e+2, 2.946401e+2, 35694.598, -185148.19, -3335.1099, -0.06933563, 0.04103307, 35744.95, 88278.15, 0.0, 10.001343, 9.998416 
7.649624e+2, 3.0463916e+2, 87993.14, -162948.34, 3068.0942, -0.12692432, 0.1186145, 88030.65, 88030.65, 0.0, 10.001489, 9.998164 
7.649519e+2, 3.1463614e+2, 121321.125, -63113.09, 46140.81, -0.14941245, -0.003445048, 132220.31, 132220.31, 0.000000028836135, 10.001357, 9.998912 
7.7514553e+2, 1.2466297e+2, -1807470.9, -1741963.4, -4565.6284, 0.025675481, -0.060608514, -1741646.6, -23346.229, 0.00000000003061157, 9.9993, 10.000147 
7.751377e+2, 1.3466357e+2, -1601418.4, -1643847.5, 15101.349, 0.22218111, 0.030118214, -1596592.5, 23703.344, 0.0, 10.000246, 9.9997015 
7.7512443e+2, 1.4466265e+2, -1465323.5, -1514722.6, -18099.506, -0.09163422, -0.036841903, -1459401.9, 62903.816, 0.0, 10.000462, 9.9998045 
7.7511513e+2, 1.5466267e+2, -1453566.5, -1460637.4, -13401.571, 0.04568028, -0.015279896, -1443241.9, -18936.516, 0.0, 9.999879, 9.9997835 
7.7510524e+2, 1.6466254e+2, -1374142.4, -1392737.5, 23139.85, 0.08767018, 0.0030285772, -1358502.0, -32194.723, 0.0, 9.999843, 9.999595 
7.750948e+2, 1.7466226e+2, -1187540.8, -1251067.1, 26049.492, 0.029606698, 0.014084803, -1178225.0, 50086.55, 0.0, 10.000447, 9.999602 
7.750846e+2, 1.8466192e+2, -1075306.8, -1160712.4, 12367.395, 0.010812516, 0.027899574, -1073551.9, 56763.875, 0.0, 10.000607, 9.999474 
7.750747e+2, 1.9466153e+2, -1028340.8, -1087312.0, 8712.587, 0.034567904, 0.03857465, -1027080.5, 5239.5205, 0.0, 10.000256, 9.999474 
7.750649e+2, 2.04661e+2, -929860.25, -988514.2, 33120.69, 0.036177307, 0.039211255, -914948.7, 19376.402, 0.0, 10.000256, 9.99948 
7.750551e+2, 2.1466035e+2, -772886.25, -861116.3, 45922.367, 0.014198153, 0.023178037, -753322.4, 83008.62, 0.0, 10.000657, 9.999488 
7.750451e+2, 2.2465952e+2, -699555.25, -844549.5, 23941.346, -0.0032797384, 0.023392677, -695704.4, 42635.203, 0.0, 10.000788, 9.998867 
7.7503484e+2, 2.3465852e+2, -628823.7, -761058.06, 9109.471, -0.016378311, 0.037300993, -628199.1, 12151.962, 0.0, 10.000606, 9.998855 
7.7502483e+2, 2.446576e+2, -511324.28, -637011.4, 29617.18, -0.033578083, 0.053472117, -504694.9, 37666.246, 0.0, 10.000669, 9.999002 
7.7501506e+2, 2.5465676e+2, -360679.72, -511546.5, 41667.125, -0.056739304, 0.06757317, -349936.84, 94432.625, 0.0, 10.001021, 9.999021 
7.7500516e+2, 2.6465574e+2, -272044.88, -455690.5, 23125.498, -0.06603139, 0.07744011, -269177.56, 77202.21, 0.0, 10.00112, 9.998684 
7.7499497e+2, 2.746544e+2, -203285.81, -372054.47, 25359.037, -0.057042006, 0.07353473, -199557.73, 48834.996, 0.0, 10.000919, 9.998682 
7.749848e+2, 2.8465268e+2, -142223.28, -363639.06, 26555.857, -0.06708543, 0.067330815, -139082.81, 11327.609, 0.0, 10.000975, 9.998041 
7.7497435e+2, 2.946507e+2, 6307.6235, -245808.17, 11404.549, -0.104508616, 0.06404278, 6822.461, 59254.96, 0.0, 10.00134, 9.998001 
7.7496356e+2, 3.0464986e+2, 130089.86, -74329.32, -483.5285, -0.15819491, 0.14861718, 130091.0, 130091.0, 0.0, 10.001483, 9.9987755 
7.7495366e+2, 3.14647e+2, 184670.25, 69496.91, 39512.406, -0.10457609, -0.022036891, 196922.36, 196922.36, 0.0000000029769756, 10.001352, 9.999826 
7.85145e+2, 1.2467303e+2, -1705556.9, -1678076.5, -4661.7915, 0.010940054, -0.06074926, -1677307.1, 40895.684, 0.0000000009851104, 9.999936, 10.000278 
7.851376e+2, 1.3467385e+2, -1714413.9, -1677715.0, 36740.125, 0.22778371, 0.0313425, -1654997.0, -34801.58, 0.0, 9.999383, 9.999886 
7.8512466e+2, 1.4467297e+2, -1611024.9, -1580294.6, 2525.9, -0.06743176, -0.040480576, -1580088.4, -57884.02, 0.0, 9.99944, 9.999847 
7.85115e+2, 1.5467313e+2, -1397614.8, -1429031.4, -5055.6343, 0.028445985, -0.00969504, -1396821.3, 27381.957, 0.0, 10.000244, 9.999825 
7.851051e+2, 1.6467305e+2, -1291325.1, -1355877.9, 20403.488, 0.0643529, 0.012616088, -1285416.9, 40788.074, 0.0, 10.000425, 9.999566 
7.850951e+2, 1.7467271e+2, -1270973.9, -1295307.4, 18469.4, 0.041168403, 0.022545513, -1261023.9, -32814.094, 0.0, 9.999891, 9.999567 
7.85085e+2, 1.8467239e+2, -1170532.3, -1193014.0, 14737.512, 0.027740078, 0.03071695, -1163238.0, -33024.133, 0.0, 9.999894, 9.999596 
7.8507495e+2, 1.9467199e+2, -982460.5, -1050802.5, 28240.178, 0.021878218, 0.030431898, -972301.3, 59916.082, 0.0, 10.000509, 9.999602 
7.850652e+2, 2.0467147e+2, -877515.3, -980179.3, 42296.176, 0.01955184, 0.033774257, -862334.6, 71887.64, 0.0, 10.0006895, 9.999328 
7.850557e+2, 2.1467085e+2, -825845.3, -905099.5, 19601.3, 0.023615895, 0.0366988, -821262.5, 14966.218, 0.0, 10.000373, 9.999323 
7.8504586e+2, 2.2466996e+2, -751034.1, -862692.4, -1941.8846, 0.009490156, 0.03677277, -751000.4, -12762.386, 0.0, 10.000406, 9.998925 
7.850355e+2, 2.346688e+2, -589544.44, -734566.94, 16185.141, -0.02689636, 0.02765462, -587760.06, 52490.426, 0.0, 10.000845, 9.99892 
7.850255e+2, 2.446679e+2, -474790.06, -621602.44, 39085.063, -0.049298726, 0.04281302, -465033.1, 77227.4, 0.0, 10.000931, 9.998981 
7.8501594e+2, 2.546673e+2, -422279.6, -544322.2, 25867.447, -0.056594647, 0.08207335, -417023.28, 27244.133, 0.0, 10.000611, 9.998993 
7.850061e+2, 2.6466635e+2, -335465.22, -482235.1, -3219.59, -0.060794488, 0.101068236, -335394.63, 10882.5205, 0.0, 10.000667, 9.99872 
7.8499603e+2, 2.7466494e+2, -166041.66, -349875.16, -5470.7515, -0.059073903, 0.08806809, -165879.0, 82411.53, 0.0, 10.001158, 9.998719 
7.849859e+2, 2.8466323e+2, -86763.8, -325724.94, 8936.593, -0.06911542, 0.073117636, -86430.055, 63878.01, 0.0, 10.0013075, 9.99814 
7.849756e+2, 2.9466125e+2, -28145.08, -251398.36, 31997.115, -0.09712916, 0.060919534, -23649.705, 28679.75, 0.0, 10.001057, 9.998098 
7.84965e+2, 3.046605e+2, 62301.1, -118844.45, 15493.793, -0.14680319, 0.14934741, 63616.76, 63616.76, 0.0, 10.001069, 9.998669 
7.8495514e+2, 3.1465778e+2, 202063.94, 95646.92, -5389.436, -0.09343964, 0.0053149983, 202336.19, 202336.19, 0.0, 10.001396, 9.999985 
7.9514474e+2, 1.2468347e+2, -1685079.6, -1634855.0, -32953.39, -0.006235976, -0.027417034, -1618536.0, 99566.58, 0.0000000034592607, 9.999931, 10.000579 
7.951369e+2, 1.3468434e+2, -1687552.5, -1624469.5, 15625.485, 0.22259288, 0.03444436, -1620811.3, -718.5378, 0.0, 9.9993925, 10.000247 
7.9512423e+2, 1.4468348e+2, -1617483.0, -1596048.6, 29899.732, -0.051288843, -0.0478802, -1575003.4, -52902.543, 0.0, 9.99945, 9.999735 
7.951152e+2, 1.5468381e+2, -1406556.0, -1446710.6, 25349.055, 0.021144252, 0.011656853, -1394296.4, 29802.71, 0.0, 10.00024, 9.999705 
7.951054e+2, 1.6468364e+2, -1298400.8, -1369166.4, 1714.0625, 0.051133826, 0.0355459, -1298359.3, 27742.914, 0.0, 10.000418, 9.999479 
7.9509497e+2, 1.7468295e+2, -1276617.3, -1308363.9, -1458.2572, 0.044309832, 0.016713701, -1276550.4, -48439.94, 0.0, 9.999896, 9.9994755 
7.95085e+2, 1.8468264e+2, -1146319.4, -1143800.1, 36173.855, 0.034930073, 0.016850527, -1108864.0, 21249.541, 0.0, 9.999898, 9.999931 
7.950754e+2, 1.9468275e+2, -958296.7, -1000005.4, 51022.176, 0.01919066, 0.032625742, -924031.5, 108079.25, 0.0, 10.000506, 9.999952 
7.950659e+2, 2.0468217e+2, -919812.56, -1067214.0, 30669.568, 0.017354177, 0.03936849, -913685.8, 20430.957, 0.0, 10.000686, 9.998733 
7.9505616e+2, 2.146808e+2, -869261.0, -995926.1, 7499.2905, 0.032972075, 0.031416126, -868818.5, -32685.668, 0.0, 10.000376, 9.998698 
7.950463e+2, 2.246799e+2, -717674.9, -794414.7, 13389.14, 0.019246051, 0.0374805, -715405.9, 22736.828, 0.0, 10.00041, 9.9993925 
7.9503626e+2, 2.3467949e+2, -554298.5, -661313.1, 32618.547, -0.028419118, 0.053110007, -545140.06, 95005.65, 0.0, 10.000844, 9.999424 
7.9502636e+2, 2.4467865e+2, -497821.56, -669154.0, 27781.904, -0.052308813, 0.065043174, -493429.28, 48725.277, 0.0, 10.000928, 9.998656 
7.950166e+2, 2.5467736e+2, -447296.28, -595933.1, 14146.242, -0.049741294, 0.069650926, -445961.9, -1791.9478, 0.0, 10.000609, 9.99864 
7.950067e+2, 2.6467618e+2, -337721.47, -486978.88, 14230.733, -0.06376594, 0.08771142, -336376.78, 9806.025, 0.0, 10.000666, 9.998689 
7.949968e+2, 2.7467513e+2, -167192.67, -352670.03, 13426.577, -0.09614082, 0.11245913, -166225.78, 81967.34, 0.0, 10.001159, 9.9987 
7.9498696e+2, 2.8467366e+2, -45728.094, -239927.75, 731.0613, -0.09226871, 0.09543893, -45725.344, 104481.52, 0.0, 10.001305, 9.998732 
7.949772e+2, 2.946718e+2, 13457.197, -163678.52, 23127.139, -0.049593385, 0.033258576, 16426.928, 68650.88, 0.0, 10.001051, 9.998704 
7.949666e+2, 3.0467096e+2, 3697.2974, -239559.16, 27196.932, -0.09568372, 0.12293485, 6700.923, 6700.923, 0.0, 10.001064, 9.997843 
7.949563e+2, 3.1466833e+2, 159772.7, 7233.919, 5571.6353, -0.12051651, 0.07298322, 159975.94, 159975.94, 0.0, 10.001397, 9.999377 
8.051444e+2, 1.2469426e+2, -1781400.5, -1691412.1, -5111.146, 0.004458342, -0.0015294539, -1691122.8, 26874.963, 0.0000000057252847, 9.9993105, 10.000492 
8.0513644e+2, 1.3469492e+2, -1609999.3, -1589760.4, 20732.342, 0.20844547, 0.04268872, -1576809.6, 43180.03, 0.0, 9.999938, 10.000221 
8.0512404e+2, 1.4469397e+2, -1522785.4, -1554604.5, 30606.406, -0.047362093, -0.046666056, -1504200.5, 17798.303, 0.0, 10.00012, 9.999695 
8.051153e+2, 1.5469436e+2, -1468417.4, -1481582.8, 32082.756, 0.032807134, 0.025405705, -1442248.9, -18252.564, 0.0, 9.999837, 9.9996605 
8.0510557e+2, 1.6469419e+2, -1380621.5, -1404440.8, 3554.0125, 0.059841003, 0.04731906, -1380102.5, -54103.047, 0.0, 9.999835, 9.999518 
8.0509496e+2, 1.7469335e+2, -1235374.4, -1283614.1, 9129.073, 0.036741074, 0.010881415, -1233704.5, -5695.9497, 0.0, 10.00016, 9.999517 
8.0508494e+2, 1.8469298e+2, -1103098.1, -1139697.4, 46551.688, 0.026286883, 0.011401206, -1071378.4, 58633.832, 0.0, 10.000268, 9.999781 
8.050759e+2, 1.9469315e+2, -1025134.44, -1050164.4, 24191.691, 0.02715538, 0.04765053, -1010412.25, 21597.486, 0.0, 10.000125, 9.999791 
8.050664e+2, 2.0469254e+2, -971282.44, -1084122.8, 4400.3706, 0.024621984, 0.054740164, -971111.1, -37094.793, 0.0, 10.000299, 9.998802 
8.0505663e+2, 2.1469101e+2, -797392.06, -952338.25, 32475.8, 0.01880498, 0.023749305, -790860.7, 45172.5, 0.0, 10.000833, 9.998776 
8.050468e+2, 2.2469008e+2, -648814.6, -771860.0, 41190.496, 0.0035871025, 0.029627189, -636298.8, 101744.23, 0.0, 10.00093, 9.999296 
8.05037e+2, 2.3468983e+2, -606745.2, -698243.1, 14920.267, -0.022169087, 0.07126864, -604373.7, 35671.52, 0.0, 10.000534, 9.99932 
8.050272e+2, 2.4468902e+2, -564837.7, -702010.4, -2392.1743, -0.041172214, 0.08966623, -564796.0, -22741.764, 0.0, 10.000471, 9.998651 
8.0501723e+2, 2.5468755e+2, -421351.0, -583623.94, 9292.302, -0.053263422, 0.07815055, -420820.63, 23250.457, 0.0, 10.00079, 9.998636 
8.0500746e+2, 2.6468632e+2, -299245.8, -467543.8, 32191.887, -0.07008113, 0.088038474, -293298.38, 52786.195, 0.0, 10.000928, 9.998695 
8.0499786e+2, 2.7468526e+2, -209592.6, -372537.7, 33276.145, -0.09168356, 0.11464393, -203059.03, 45035.53, 0.0, 10.000865, 9.998705 
8.0498815e+2, 2.846839e+2, -88297.8, -256457.86, -4923.196, -0.0862288, 0.1035356, -88153.79, 61953.504, 0.0, 10.000996, 9.998766 
8.049783e+2, 2.9468215e+2, 57769.05, -138311.38, -26702.62, -0.05179193, 0.050516512, 61340.418, 113463.11, 0.0, 10.001339, 9.998739 
8.049678e+2, 3.0468103e+2, 38654.445, -252930.47, -22979.988, -0.09364834, 0.122498274, 40454.402, 40454.402, 0.0, 10.001434, 9.997572 
8.049578e+2, 3.1467828e+2, 132777.53, -13012.266, -2792.613, -0.099981405, 0.08901404, 132831.02, 132831.02, 0.0, 10.001244, 9.999311 
8.1514406e+2, 1.2470542e+2, -1812119.1, -1755897.0, 12175.734, 0.034464985, 0.01947785, -1753373.4, -35485.434, 0.000000004999778, 9.999314, 10.000048 
8.1513613e+2, 1.347056e+2, -1638416.3, -1646753.1, 43650.45, 0.18389106, 0.05552464, -1598735.6, 21150.35, 0.0, 9.999931, 9.999833 
8.151241e+2, 1.4470443e+2, -1521166.6, -1551142.5, 20612.844, -0.056798905, -0.03717322, -1510668.8, 11228.943, 0.0, 10.000117, 9.999722 
8.151154e+2, 1.5470485e+2, -1464704.3, -1476418.9, 22030.287, 0.061996188, 0.032178875, -1447765.9, -23871.467, 0.0, 9.9998455, 9.999693 
8.1510574e+2, 1.6470468e+2, -1369144.6, -1381979.5, 14570.734, 0.08827787, 0.04832112, -1359640.6, -33744.203, 0.0, 9.999841, 9.999669 
8.150949e+2, 1.7470394e+2, -1224428.9, -1260201.5, 21083.12, 0.017321827, 0.0042002522, -1214667.1, 13236.859, 0.0, 10.000157, 9.99968 
8.15085e+2, 1.8470344e+2, -1147270.8, -1230864.0, 41321.07, 0.00114536, 0.013622564, -1130293.3, -383.62143, 0.0, 10.000265, 9.999157 
8.150762e+2, 1.9470322e+2, -1070080.1, -1144764.9, 18799.66, 0.045144707, 0.075826705, -1065614.9, -33701.008, 0.0, 10.00013, 9.99914 
8.150668e+2, 2.0470257e+2, -920714.2, -979998.1, 23354.895, 0.040194757, 0.079580836, -912618.94, 21301.443, 0.0, 10.000302, 9.999516 
8.1505704e+2, 2.1470146e+2, -744676.06, -842305.5, 52162.8, -0.019409213, 0.013554, -722049.7, 113879.836, 0.0, 10.00083, 9.999534 
8.150474e+2, 2.2470054e+2, -694987.7, -867354.7, 26551.025, -0.03768184, 0.013358851, -690990.5, 46948.434, 0.0, 10.000927, 9.998642 
8.1503767e+2, 2.3469988e+2, -655495.06, -799822.8, -13.520106, -0.009136078, 0.08251775, -655495.06, -15546.296, 0.0, 10.000535, 9.998622 
8.150279e+2, 2.4469899e+2, -543262.4, -658084.8, 8733.781, -0.017404458, 0.11694968, -542601.9, -642.5792, 0.0, 10.000473, 9.998952 
8.150179e+2, 2.546979e+2, -397661.03, -534914.75, 21328.408, -0.06767668, 0.106872655, -394423.13, 49547.637, 0.0, 10.000791, 9.998971 
8.150083e+2, 2.646967e+2, -296632.88, -462012.66, 30208.508, -0.07987671, 0.10201473, -291287.7, 54694.746, 0.0, 10.000927, 9.9987335 
8.1499916e+2, 2.7469537e+2, -208299.25, -368785.63, 31506.346, -0.048255593, 0.09592094, -202335.6, 45659.152, 0.0, 10.00086, 9.9987335 
8.149895e+2, 2.8469387e+2, -125107.984, -332751.28, 7627.4717, -0.05404449, 0.0984624, -124828.17, 25181.08, 0.0, 10.000994, 9.998244 
8.1497914e+2, 2.9469225e+2, 20697.17, -216772.8, -13291.924, -0.10610366, 0.110474944, 21438.844, 73464.81, 0.0, 10.001343, 9.998199 
8.1496876e+2, 3.046906e+2, 58085.793, -211843.3, -29054.127, -0.1418138, 0.14645723, 61177.652, 61177.652, 0.0, 10.001432, 9.997855 
8.149597e+2, 3.146875e+2, 164750.4, 55836.934, -11505.098, -0.036573824, 0.04473333, 165952.48, 165952.48, 0.0000000016901937, 10.001233, 9.999789 
8.251437e+2, 1.24715775e+2, -1790580.6, -1754940.6, -17065.836, 0.057927325, 0.02049713, -1748086.9, -30300.408, 0.0000000017683296, 9.999505, 9.99996 
8.251358e+2, 1.3471597e+2, -1672739.6, -1668788.6, 41959.316, 0.17097622, 0.06197739, -1628758.4, -8973.268, 0.0, 9.999719, 9.9997835 
8.25124e+2, 1.4471482e+2, -1555661.5, -1558787.0, 15122.723, -0.058905896, -0.032289732, -1542021.0, -20224.129, 0.0, 9.999842, 9.999802 
8.251154e+2, 1.5471517e+2, -1447496.1, -1458124.1, 19166.797, 0.06945297, 0.023359839, -1432920.4, -9127.067, 0.0, 9.999923, 9.999781 
8.251057e+2, 1.6471504e+2, -1347587.8, -1382834.3, 17035.674, 0.09804011, 0.043970663, -1340700.0, -14905.16, 0.0, 10.000039, 9.999567 
8.250951e+2, 1.7471445e+2, -1227809.6, -1274603.3, 4182.3896, 0.021817042, 0.02643593, -1227438.8, 362.7959, 0.0, 10.000189, 9.999565 
8.250853e+2, 1.8471386e+2, -1147282.1, -1241412.3, 24527.861, 0.00058589247, 0.035197083, -1141274.3, -11465.654, 0.0, 10.000311, 9.999062 
8.2507634e+2, 1.947132e+2, -1035619.75, -1138478.1, 42197.7, 0.03905682, 0.06530508, -1020523.75, 11292.902, 0.0, 10.000412, 9.999046 
8.2506716e+2, 2.0471253e+2, -899454.6, -970587.3, 51454.62, 0.035136208, 0.06965973, -872470.6, 61353.016, 0.0, 10.000453, 9.999507 
8.2505774e+2, 2.1471177e+2, -804914.9, -872092.2, 24073.268, -0.015628358, 0.041005958, -797178.94, 38650.582, 0.0, 10.000419, 9.999527 
8.250481e+2, 2.2471093e+2, -755984.6, -902468.6, -19973.58, -0.035359826, 0.049206402, -753310.0, -15471.415, 0.0, 10.000533, 9.99859 
8.2503825e+2, 2.3470995e+2, -619025.7, -787975.06, 316.60004, -0.020267295, 0.094535746, -619025.1, 20826.088, 0.0, 10.000812, 9.9985695 
8.250285e+2, 2.4470893e+2, -478372.4, -630385.0, 28768.102, -0.025793921, 0.118415534, -473110.25, 68752.77, 0.0, 10.000936, 9.998919 
8.250189e+2, 2.547078e+2, -384313.0, -532077.9, 13890.466, -0.05527583, 0.11173931, -383018.56, 60855.484, 0.0, 10.000898, 9.998939 
8.250094e+2, 2.6470664e+2, -289299.75, -455230.25, 4851.384, -0.06582622, 0.10821842, -289158.03, 56727.242, 0.0, 10.000964, 9.998762 
8.250001e+2, 2.7470532e+2, -166241.92, -345053.8, 5415.3433, -0.053296916, 0.10263678, -166078.06, 81818.86, 0.0, 10.001136, 9.998763 
8.249905e+2, 2.847038e+2, -109499.52, -344042.7, -2332.0027, -0.05777285, 0.10499217, -109476.34, 40435.8, 0.0, 10.001183, 9.998075 
8.2498056e+2, 2.9470193e+2, -26656.697, -259031.83, 3637.1018, -0.08590397, 0.11419342, -26599.783, 25331.53, 0.0, 10.001102, 9.998024 
8.249702e+2, 3.0469996e+2, 20329.398, -225868.08, -12263.437, -0.122924544, 0.12168405, 20938.748, 20938.748, 0.0, 10.001155, 9.997891 
8.249608e+2, 3.1469727e+2, 187032.58, 82365.445, -18291.928, -0.047933906, 0.059671976, 190137.23, 190137.23, 0.000000023716037, 10.001319, 9.999929 
8.351433e+2, 1.2472543e+2, -1772755.9, -1719440.6, -11656.607, 0.06802338, 0.0027586592, -1717003.5, 688.679, 0.000000000051048894, 9.999507, 10.000204 
8.351355e+2, 1.347261e+2, -1651739.0, -1627500.0, 50696.75, 0.16703099, 0.062484328, -1587494.3, 32192.016, 0.0, 9.999726, 10.000064 
8.351239e+2, 1.4472513e+2, -1547337.6, -1542598.4, 16999.404, -0.055739213, -0.03196557, -1527804.3, -6108.4414, 0.0, 9.999846, 9.99991 
8.351152e+2, 1.5472536e+2, -1439135.9, -1440184.0, 21856.63, 0.055671766, -0.0010216004, -1417797.0, 5895.605, 0.0, 9.999921, 9.999905 
8.351057e+2, 1.6472529e+2, -1371022.1, -1432155.9, 22650.191, 0.089313455, 0.034813803, -1363544.8, -37850.582, 0.0, 10.00004, 9.9992285 
8.350956e+2, 1.7472494e+2, -1252324.1, -1327334.1, 10309.9375, 0.048141964, 0.07738187, -1250932.9, -23232.115, 0.0, 10.0001955, 9.999201 
8.350858e+2, 1.8472423e+2, -1118198.1, -1181682.5, 28047.078, 0.021976782, 0.07543686, -1107582.3, 22126.275, 0.0, 10.000314, 9.99947 
8.3507645e+2, 1.9472314e+2, -1005340.75, -1075078.6, 45580.934, 0.008612652, 0.016661875, -982820.94, 48896.914, 0.0, 10.000409, 9.999483 
8.350674e+2, 2.0472237e+2, -949581.56, -1074783.9, 49681.19, 0.009553958, 0.025924854, -932263.2, 1462.8018, 0.0, 10.000452, 9.998793 
8.3505857e+2, 2.1472196e+2, -856971.9, -980993.5, 22448.16, 0.02848889, 0.105706185, -853033.8, -17300.883, 0.0, 10.000422, 9.998778 
8.350491e+2, 2.2472121e+2, -718044.56, -824518.9, -10249.425, 0.008555695, 0.13611212, -717066.94, 20674.72, 0.0, 10.000536, 9.9991255 
8.350387e+2, 2.3472008e+2, -578598.44, -704449.3, 10510.651, -0.055680037, 0.10749187, -577726.7, 62025.707, 0.0, 10.000812, 9.999144 
8.3502907e+2, 2.4471879e+2, -504092.84, -684030.7, 27244.416, -0.066183046, 0.09482121, -500058.22, 41707.07, 0.0, 10.0009365, 9.99855 
8.350201e+2, 2.5471732e+2, -412523.56, -590093.75, 12883.306, -0.01784294, 0.09308738, -411593.72, 32187.139, 0.0, 10.0008955, 9.998542 
8.350107e+2, 2.6471612e+2, -288662.88, -454065.28, 11221.689, -0.03013421, 0.107033044, -287905.0, 57887.918, 0.0, 10.000963, 9.998771 
8.350007e+2, 2.747152e+2, -164217.56, -341645.75, 11989.573, -0.10822293, 0.1336744, -163411.05, 84390.16, 0.0, 10.001137, 9.998786 
8.349913e+2, 2.847136e+2, -97223.516, -318469.0, -4902.8643, -0.097933486, 0.12240394, -97114.92, 52701.152, 0.0, 10.001183, 9.99825 
8.349825e+2, 2.9471123e+2, -14987.114, -233163.2, 1486.7366, 0.0074058156, 0.0622774, -14976.983, 36861.77, 0.0, 10.001096, 9.998205 
8.349722e+2, 3.0470905e+2, 4744.7935, -257008.8, -5766.521, -0.03908676, 0.049021218, 4871.7705, 4871.7705, 0.0, 10.001148, 9.997682 
8.3496124e+2, 3.147075e+2, 174187.78, 55308.06, -12822.623, -0.14077228, 0.122229695, 175555.13, 175555.13, 0.00000010288848, 10.001319, 9.999744 
8.451428e+2, 1.2473514e+2, -1759364.6, -1704237.6, 4495.626, 0.06302169, -0.026997382, -1703873.4, 13723.347, 0.0, 9.999561, 10.000281 
8.4513515e+2, 1.347363e+2, -1679591.6, -1627147.1, 53988.19, 0.16946788, 0.07042773, -1593350.0, 26236.467, 0.0, 9.99948, 10.000183 
8.451238e+2, 1.4473553e+2, -1570567.1, -1551176.8, 19935.37, -0.037125144, -0.01055627, -1538704.0, -17110.025, 0.0, 9.999678, 9.999931 
8.451152e+2, 1.5473557e+2, -1396143.8, -1417233.3, 18900.146, 0.05268757, -0.001694753, -1385045.8, 38546.777, 0.0, 10.000206, 9.999924 
8.451058e+2, 1.6473538e+2, -1324490.3, -1419461.9, 13851.033, 0.08191235, 0.025340868, -1322511.4, 3083.955, 0.0, 10.0004015, 9.999141 
8.450958e+2, 1.7473498e+2, -1252235.3, -1337085.6, 19961.48, 0.054707803, 0.07285326, -1247773.8, -20171.19, 0.0, 10.000239, 9.999112 
8.4508616e+2, 1.8473431e+2, -1127869.9, -1187581.4, 38819.08, 0.031841837, 0.07910689, -1108753.4, 20856.836, 0.0, 10.000252, 9.999459 
8.450769e+2, 1.9473334e+2, -1000093.1, -1073281.8, 24181.242, 0.009589573, 0.032622535, -992825.44, 38792.85, 0.0, 10.000448, 9.999476 
8.450678e+2, 2.0473251e+2, -942896.1, -1086907.6, 27554.613, 0.006714486, 0.042065907, -937803.94, -4176.7773, 0.0, 10.000565, 9.998655 
8.450591e+2, 2.1473183e+2, -841694.3, -989313.1, 44790.676, 0.027790306, 0.108170435, -829167.0, 6470.085, 0.0, 10.000595, 9.998637 
8.450497e+2, 2.2473092e+2, -701784.25, -821097.8, 21616.078, 0.012431115, 0.13334653, -697988.75, 39658.47, 0.0, 10.000669, 9.9990835 
8.450396e+2, 2.3472978e+2, -584072.94, -711572.8, -3581.9744, -0.045247357, 0.108432494, -583972.4, 55685.344, 0.0, 10.000793, 9.999103 
8.4503e+2, 2.447285e+2, -512510.16, -687306.1, -4567.5195, -0.058474347, 0.09707187, -512390.9, 29279.428, 0.0, 10.000875, 9.998556 
8.4502095e+2, 2.5472704e+2, -410726.06, -588318.5, 10169.57, -0.022368038, 0.09464451, -410145.6, 33539.91, 0.0, 10.000905, 9.9985485 
8.4501165e+2, 2.6472574e+2, -295159.2, -470426.63, 25357.063, -0.032445543, 0.104442336, -291564.38, 54134.28, 0.0, 10.0009775, 9.998651 
8.4500194e+2, 2.747246e+2, -177229.25, -361804.25, 14632.945, -0.09306764, 0.123709716, -176076.36, 71633.2, 0.0, 10.001109, 9.99866 
8.4499264e+2, 2.8472307e+2, -87593.27, -295675.6, -16711.238, -0.082937516, 0.119943745, -86259.73, 63463.793, 0.0, 10.001171, 9.998411 
8.4498364e+2, 2.9472113e+2, 1775.42, -205941.73, -11934.627, 0.004857411, 0.08181477, 2458.889, 54200.426, 0.0, 10.001129, 9.998375 
8.449734e+2, 3.047187e+2, 23.013382, -266035.2, -6665.5396, -0.038339674, 0.039349884, 189.90004, 189.90004, 0.00000000024035085, 10.001145, 9.99762 
8.449627e+2, 3.147172e+2, 153588.42, 33334.11, -5116.001, -0.12004277, 0.12608027, 153805.67, 153805.67, 0.00000026211356, 10.001229, 9.999637 
8.5514206e+2, 1.2474496e+2, -1765656.4, -1718883.5, 1295.4148, 0.034949556, -0.06779776, -1718847.6, -1347.7616, 0.0, 9.999567, 10.000179 
8.551347e+2, 1.3474661e+2, -1683900.5, -1636690.9, 50230.676, 0.17929786, 0.08620801, -1604795.3, 14690.098, 0.0, 9.999482, 10.000116 
8.551238e+2, 1.4474607e+2, -1572700.9, -1556844.5, 38818.45, -0.0039061562, 0.031906463, -1525152.9, -3661.6797, 0.0, 9.999681, 9.999892 
8.551154e+2, 1.5474583e+2, -1399147.4, -1425180.4, 39493.14, 0.05669514, 0.020794705, -1370581.0, 52911.605, 0.0, 10.000212, 9.9998665 
8.551061e+2, 1.6474536e+2, -1314728.4, -1399834.6, 7965.801, 0.072752744, 0.015190357, -1313989.3, 11508.539, 0.0, 10.000404, 9.999275 
8.550959e+2, 1.7474464e+2, -1241082.4, -1314132.5, 13525.652, 0.042341117, 0.014545406, -1238658.5, -11151.798, 0.0, 10.000239, 9.9992695 
8.5508645e+2, 1.8474412e+2, -1156063.0, -1246919.6, 45530.188, 0.03058755, 0.04794873, -1137173.9, -7660.648, 0.0, 10.000255, 9.999052 
8.550776e+2, 1.9474384e+2, -1029655.2, -1135681.1, 31340.387, 0.039799113, 0.11182948, -1021084.1, 10433.495, 0.0, 10.000452, 9.999047 
8.5506856e+2, 2.0474294e+2, -912609.1, -1024610.56, 28189.709, 0.024612723, 0.116007484, -905914.25, 27612.697, 0.0, 10.000566, 9.999083 
8.550592e+2, 2.1474136e+2, -809867.56, -923441.25, 45370.54, -0.01751316, 0.04991357, -793968.56, 41573.08, 0.0, 10.000595, 9.99909 
8.5504997e+2, 2.2474009e+2, -744777.94, -910978.6, 25417.994, -0.023542523, 0.043623537, -740977.5, -3422.4792, 0.0, 10.0006695, 9.9984665 
8.5504097e+2, 2.347391e+2, -628992.7, -805329.9, 1239.6237, 0.009500516, 0.09733199, -628984.0, 10582.991, 0.0, 10.000795, 9.998459 
8.5503143e+2, 2.4473806e+2, -486585.8, -634088.9, -3345.017, -0.0045553627, 0.12454319, -486510.0, 55067.92, 0.0, 10.000876, 9.998922 
8.5502136e+2, 2.5473693e+2, -382657.63, -530753.94, 11292.588, -0.069703974, 0.1165459, -381801.47, 61786.43, 0.0, 10.000907, 9.998944 
8.550122e+2, 2.6473543e+2, -312687.03, -507429.22, 29980.37, -0.072906464, 0.100961134, -308176.06, 37426.313, 0.0, 10.000978, 9.998397 
8.550039e+2, 2.7473354e+2, -196884.48, -402110.88, 20213.244, -0.008736751, 0.07313808, -194912.58, 52709.383, 0.0, 10.001106, 9.998384 
8.549944e+2, 2.8473228e+2, -78280.85, -275940.94, -17650.826, -0.014467257, 0.09852188, -76717.02, 72917.414, 0.0, 10.001168, 9.9985485 
8.5498375e+2, 2.947316e+2, 12650.971, -183412.69, -12924.461, -0.09779411, 0.17272805, 13499.277, 65139.035, 0.0, 10.001129, 9.99853 
8.549737e+2, 3.047289e+2, 5262.7666, -254757.97, -3173.265, -0.12349728, 0.09185172, 5301.487, 5301.487, 0.0000000059514194, 10.001143, 9.997699 
8.5496527e+2, 3.1472626e+2, 151411.9, 29954.8, -2431.56, 0.0139814075, 0.058172114, 151460.56, 151460.56, 0.0000005093443, 10.0012245, 9.999616 
8.651415e+2, 1.2475527e+2, -1769144.4, -1727765.9, 1688.1777, 0.02536937, -0.047744628, -1727697.1, -10298.184, 0.00000000000000000000885557, 9.9995775, 10.000112 
8.6513436e+2, 1.3475649e+2, -1624498.1, -1613093.6, 51376.31, 0.17566058, 0.0652914, -1567104.1, 52283.996, 0.0, 9.999913, 10.00007 
8.651238e+2, 1.4475589e+2, -1530186.1, -1546994.3, 41186.84, 0.006375003, 0.013250901, -1496554.6, 24839.867, 0.0, 10.00002, 9.999796 
8.651154e+2, 1.5475588e+2, -1452196.5, -1461549.5, 37101.086, 0.049133003, 0.03324321, -1419478.4, 3916.3916, 0.0, 9.999895, 9.99977 
8.651063e+2, 1.6475542e+2, -1362814.5, -1417965.0, -541.87256, 0.063845, 0.03307045, -1362809.1, -37409.34, 0.0, 10.000051, 9.999322 
8.650964e+2, 1.7475453e+2, -1197463.9, -1286914.6, -1535.4135, 0.048861098, 0.01116053, -1197437.5, 29971.932, 0.0, 10.000512, 9.999326 
8.65087e+2, 1.8475391e+2, -1104029.0, -1236957.0, 32112.201, 0.040171027, 0.036681585, -1096678.0, 32739.107, 0.0, 10.000678, 9.998916 
8.6507815e+2, 1.9475354e+2, -1029937.4, -1151845.3, 38169.25, 0.039677743, 0.10695879, -1018972.8, 12450.021, 0.0, 10.000519, 9.998903 
8.650691e+2, 2.0475264e+2, -914415.8, -1023310.7, 35319.973, 0.021882411, 0.11810621, -903963.1, 29469.09, 0.0, 10.000545, 9.999102 
8.6505985e+2, 2.1475118e+2, -782868.06, -907705.44, 20609.69, -0.016444378, 0.06033026, -779553.56, 55891.957, 0.0, 10.000769, 9.999114 
8.650508e+2, 2.2474982e+2, -718492.06, -906232.44, 1723.7358, -0.020261534, 0.047359645, -718476.25, 18983.193, 0.0, 10.000884, 9.998395 
8.650418e+2, 2.3474851e+2, -621580.1, -809569.9, 19140.576, 0.014574064, 0.077298015, -619651.06, 19823.117, 0.0, 10.000881, 9.998387 
8.6503243e+2, 2.447474e+2, -478466.66, -633121.8, 23314.898, 0.0020454815, 0.1037161, -475028.28, 66457.39, 0.0, 10.000947, 9.998895 
8.650225e+2, 2.547465e+2, -357317.84, -521658.75, 5963.6543, -0.06312162, 0.12055807, -357101.72, 86392.0, 0.0, 10.001096, 9.998915 
8.650133e+2, 2.647451e+2, -301209.78, -497908.47, 12576.841, -0.06459029, 0.11020802, -300408.9, 45098.81, 0.0, 10.001041, 9.99843 
8.6500496e+2, 2.7474308e+2, -245376.05, -421581.4, 25319.715, 0.004838618, 0.06621945, -241809.9, 5718.4517, 0.0, 10.000757, 9.998419 
8.649956e+2, 2.8474176e+2, -126811.664, -305609.72, 4620.0493, -0.0049688527, 0.09062493, -126692.37, 22848.719, 0.0, 10.000863, 9.998491 
8.649849e+2, 2.9474118e+2, 48896.66, -171973.63, -7340.407, -0.10464444, 0.1799723, 49140.34, 100686.1, 0.0, 10.001405, 9.998475 
8.64975e+2, 3.047383e+2, 63377.117, -207092.7, -19084.574, -0.124107435, 0.07875441, 64717.1, 64717.1, 0.000000027135602, 10.001459, 9.997874 
8.6496663e+2, 3.14736e+2, 111626.164, 14641.774, -12634.637, 0.040772308, 0.061355233, 113245.12, 113245.12, 0.00000083365, 10.000935, 9.999649 
8.751411e+2, 1.2476613e+2, -1769650.5, -1730272.8, 13957.201, 0.02656233, 0.030656125, -1725827.5, -8533.806, 0.0000000055054987, 9.999581, 10.000093 
8.7513405e+2, 1.3476598e+2, -1624071.6, -1613556.5, 63743.773, 0.15441419, 0.008512214, -1554853.9, 64440.336, 0.0, 9.999918, 10.000065 
8.751237e+2, 1.4476506e+2, -1542535.4, -1574001.4, 36204.223, -0.009532632, -0.0647411, -1518793.4, 2509.993, 0.0, 10.000025, 9.999609 
8.751151e+2, 1.547657e+2, -1463227.5, -1485528.6, 32130.916, 0.03171351, 0.036985155, -1440367.4, -17068.56, 0.0, 9.999899, 9.999604 
8.751063e+2, 1.647656e+2, -1363536.0, -1420615.9, 15441.914, 0.056213006, 0.079584874, -1359626.3, -34325.08, 0.0, 10.000054, 9.999303 
8.750971e+2, 1.7476471e+2, -1199003.6, -1290903.3, 15640.326, 0.07118953, 0.06107606, -1196414.8, 30895.914, 0.0, 10.000515, 9.999297 
8.7508786e+2, 1.847637e+2, -1095540.8, -1219563.3, 26087.537, 0.057736773, 0.04427178, -1090276.8, 39044.44, 0.0, 10.000677, 9.999036 
8.750783e+2, 1.9476253e+2, -1020559.25, -1132826.9, 31660.836, 0.009582077, 0.020621564, -1012246.06, 19087.328, 0.0, 10.00052, 9.999034 
8.750694e+2, 2.047617e+2, -940883.1, -1079027.4, 42635.59, -0.001388259, 0.05131255, -928784.1, 4558.465, 0.0, 10.000546, 9.998718 
8.750611e+2, 2.1476129e+2, -810401.06, -965165.0, 28655.982, 0.029047363, 0.13763231, -805265.56, 30082.85, 0.0, 10.00077, 9.99872 
8.750521e+2, 2.2476012e+2, -685959.56, -839203.7, 1198.7861, 0.020516137, 0.14164576, -685950.2, 51410.16, 0.0, 10.000885, 9.998856 
8.7504226e+2, 2.3475808e+2, -587417.06, -739285.7, 18756.379, -0.02994146, 0.048917755, -585134.9, 54244.234, 0.0, 10.000883, 9.99887 
8.750329e+2, 2.4475662e+2, -507584.1, -694157.94, 28264.426, -0.038768418, 0.036535043, -503396.25, 37997.105, 0.0, 10.000948, 9.998475 
8.750242e+2, 2.5475582e+2, -388549.22, -586552.06, 11879.386, -0.0037819317, 0.106832884, -387839.03, 55563.727, 0.0, 10.001095, 9.99847 
8.750149e+2, 2.6475468e+2, -279340.6, -452682.53, 2689.9297, -0.00885629, 0.13190345, -279298.88, 66115.59, 0.0, 10.001041, 9.998742 
8.750051e+2, 2.7475315e+2, -221686.83, -372648.16, 15163.319, -0.054813564, 0.10267171, -220178.81, 27249.973, 0.0, 10.000757, 9.998755 
8.749959e+2, 2.8475156e+2, -145170.58, -343863.72, 24346.578, -0.05632567, 0.095859125, -142230.8, 7212.7734, 0.0, 10.000863, 9.99823 
8.7498724e+2, 2.9474986e+2, 29595.229, -211963.67, 13885.764, -0.014174886, 0.102627255, 30390.816, 81850.54, 0.0, 10.001404, 9.998201 
8.7497723e+2, 3.04747e+2, 81969.336, -167565.52, -36969.69, -0.03953381, -0.000056644683, 87331.34, 87331.34, 0.00000006425192, 10.001454, 9.998147 
8.749667e+2, 3.1474644e+2, 118312.38, 30015.166, -32056.352, -0.048511744, 0.1256294, 128723.0, 128723.0, 0.0000011924308, 10.000928, 9.999758 
8.85141e+2, 1.2477602e+2, -1734621.9, -1726982.5, -6024.5454, 0.041798547, 0.057837393, -1723668.9, -6471.445, 0.00000006865042, 9.999881, 9.999972 
8.851337e+2, 1.3477561e+2, -1629599.5, -1629465.1, 31409.469, 0.12598787, 0.019633261, -1598122.8, 21078.053, 0.0, 9.999938, 9.999947 
8.851235e+2, 1.447746e+2, -1543125.4, -1571338.3, 658.3788, -0.028457677, -0.05834505, -1543110.0, -21899.115, 0.0, 10.000008, 9.999636 
8.8511527e+2, 1.5477519e+2, -1427286.5, -1464181.3, 12417.16, 0.048150584, 0.035885103, -1423496.8, -290.6418, 0.0, 10.00013, 9.999639 
8.8510656e+2, 1.647751e+2, -1338504.6, -1410244.9, 13662.628, 0.074131, 0.07969953, -1335990.8, -10782.621, 0.0, 10.0002365, 9.999285 
8.850973e+2, 1.7477429e+2, -1230566.8, -1309312.8, 12762.817, 0.055137515, 0.07100041, -1228549.9, -1332.577, 0.0, 10.000311, 9.9992695 
8.850882e+2, 1.847733e+2, -1127808.4, -1236041.8, 10600.263, 0.036792245, 0.056693174, -1126780.0, 2447.8992, 0.0, 10.00046, 9.999028 
8.8507897e+2, 1.9477206e+2, -995873.94, -1121240.4, 5841.857, 0.012978775, 0.028319947, -995602.25, 35638.086, 0.0, 10.000691, 9.999031 
8.850702e+2, 2.0477115e+2, -909775.0, -1068242.0, 25966.473, 0.012232138, 0.05230371, -905628.6, 27621.668, 0.0, 10.00078, 9.998679 
8.85062e+2, 2.1477062e+2, -821952.0, -975093.6, 37731.06, 0.03880066, 0.129438, -813160.5, 22096.834, 0.0, 10.00071, 9.998679 
8.85053e+2, 2.247695e+2, -696315.94, -837514.25, 10861.144, 0.024938645, 0.13966824, -695485.4, 41783.227, 0.0, 10.000787, 9.998915 
8.8504314e+2, 2.3476776e+2, -562415.25, -720523.9, -3751.0393, -0.03381916, 0.071194366, -562326.3, 76958.266, 0.0, 10.001026, 9.99893 
8.8503397e+2, 2.4476631e+2, -491934.66, -684310.7, -142.42856, -0.038689263, 0.055237498, -491934.53, 49363.992, 0.0, 10.001047, 9.998495 
8.8502526e+2, 2.5476518e+2, -425112.22, -601834.25, 17174.898, 0.014425667, 0.09111867, -423458.53, 19852.006, 0.0, 10.000834, 9.99849 
8.85016e+2, 2.6476395e+2, -299578.72, -465881.38, 16871.596, 0.007961636, 0.10967234, -297884.34, 47438.4, 0.0, 10.000917, 9.998711 
8.850061e+2, 2.7476263e+2, -142208.13, -337836.0, 1299.9761, -0.062023357, 0.10517806, -142199.5, 105135.72, 0.0, 10.001319, 9.998723 
8.8499695e+2, 2.8476113e+2, -83536.44, -307399.63, 5493.736, -0.057141356, 0.10203636, -83401.7, 65947.695, 0.0, 10.001259, 9.998288 
8.849887e+2, 2.9475927e+2, -70703.25, -253398.16, 20095.367, 0.026728084, 0.08908468, -68518.99, -17152.625, 0.0, 10.000685, 9.998262 
8.849788e+2, 3.047563e+2, -6864.095, -204676.94, -18847.676, -0.004044136, -0.03010625, -5084.296, -5084.296, 0.00000010587227, 10.000819, 9.998199 
8.849676e+2, 3.1475607e+2, 221053.58, 62624.89, -33921.57, -0.079940595, 0.122708715, 228011.06, 228011.06, 0.0000015115112, 10.001707, 9.999608 
8.9514107e+2, 1.2478506e+2, -1752137.5, -1763078.1, -1417.3, 0.057835683, 0.034435913, -1751956.9, -34847.598, 0.00000033535434, 9.999879, 9.999726 
8.951333e+2, 1.347854e+2, -1647021.0, -1666410.6, 33137.72, 0.09237212, 0.09772967, -1622189.0, -3081.5955, 0.00000000007521531, 9.999941, 9.999691 
8.951233e+2, 1.447845e+2, -1524147.8, -1534149.6, 3404.9517, -0.0483966, 0.031526346, -1523098.6, -1982.2316, 0.0, 10.000015, 9.999888 
8.951159e+2, 1.547844e+2, -1408973.9, -1426971.4, 16626.844, 0.093631536, 0.029784394, -1399066.9, 24049.266, 0.0, 10.000132, 9.999894 
8.9510715e+2, 1.6478401e+2, -1341207.9, -1416229.6, 16432.418, 0.11264452, 0.033923954, -1337766.5, -12646.282, 0.0, 10.0002365, 9.999244 
8.950972e+2, 1.7478333e+2, -1232489.8, -1314355.3, 15374.192, 0.0017122738, 0.04252565, -1229697.6, -2568.9553, 0.0, 10.000315, 9.999233 
8.950881e+2, 1.8478273e+2, -1136509.3, -1255367.0, 18322.13, -0.021738961, 0.07495075, -1133749.0, -4612.52, 0.0, 10.0004635, 9.998894 
8.9508003e+2, 1.9478217e+2, -1005251.06, -1141012.9, 14024.45, 0.048271112, 0.12733416, -1003817.5, 27326.049, 0.0, 10.000692, 9.998896 
8.9507145e+2, 2.0478101e+2, -889111.44, -1025642.0, 22643.348, 0.06104093, 0.11872533, -885454.06, 47701.11, 0.0, 10.00078, 9.998973 
8.950624e+2, 2.1477918e+2, -800491.5, -930973.4, 34412.883, 0.012398269, 0.038124032, -791971.8, 43200.117, 0.0, 10.0007105, 9.998982 
8.950534e+2, 2.2477804e+2, -719984.9, -887062.4, 18903.676, -0.0077372324, 0.045079127, -717872.75, 19311.04, 0.0, 10.000788, 9.998575 
8.9504457e+2, 2.347776e+2, -587522.9, -772592.0, 5289.9097, 0.0019538417, 0.14306511, -587371.8, 51818.523, 0.0, 10.001025, 9.998573 
8.950353e+2, 2.447765e+2, -460598.5, -619609.7, -7856.6367, 0.00124772, 0.15747458, -460211.25, 80989.87, 0.0, 10.001047, 9.9989395 
8.9502585e+2, 2.5477463e+2, -392036.47, -533681.4, 9511.452, -0.009627928, 0.07320694, -391400.63, 51816.313, 0.0, 10.000835, 9.998959 
8.9501673e+2, 2.6477298e+2, -325901.4, -520488.97, 31347.324, -0.015297735, 0.04445308, -320976.13, 24256.313, 0.0, 10.0009165, 9.998337 
8.9500785e+2, 2.747716e+2, -170150.33, -395689.97, 16866.734, -0.016421124, 0.07382448, -168895.95, 78351.65, 0.0, 10.001318, 9.998327 
8.949987e+2, 2.847705e+2, -57138.477, -252895.73, -14607.156, -0.007422157, 0.1095682, -56054.51, 93203.95, 0.0, 10.001259, 9.998664 
8.9498925e+2, 2.9476947e+2, -43053.41, -195879.55, -454.27942, 0.013875904, 0.1401567, -43052.06, 8213.545, 0.0, 10.000683, 9.99866 
8.9497936e+2, 3.0476627e+2, -20735.205, -232002.84, 13879.676, -0.021547528, -0.01176678, -19827.252, -19827.252, 0.00000013409642, 10.000813, 9.998014 
8.949696e+2, 3.1476483e+2, 191714.9, 2926.7373, -66.432, -0.053470578, 0.04038169, 191714.94, 191714.94, 0.0000016978646, 10.001702, 9.999199 
9.0514076e+2, 1.247938e+2, -1759435.8, -1767588.6, -21044.793, 0.04556826, 0.02083877, -1742076.3, -25052.787, 0.0000010631732, 9.99983, 9.999721 
9.051333e+2, 1.3479428e+2, -1651910.4, -1668916.4, 28561.117, 0.10176965, 0.09883597, -1630613.5, -11592.725, 0.000000007369457, 9.999909, 9.999689 
9.051235e+2, 1.4479356e+2, -1523312.6, -1524434.3, 2840.8643, -0.031229483, 0.04376316, -1520977.8, 50.60795, 0.0, 9.999984, 9.999969 
9.0511584e+2, 1.547934e+2, -1417402.4, -1422548.6, 1693.9706, 0.081183255, 0.030860614, -1416894.8, 6133.454, 0.0, 10.000037, 9.99997 
9.051072e+2, 1.6479304e+2, -1347518.6, -1418711.4, 569.53845, 0.09172546, 0.034110475, -1347514.1, -22482.117, 0.0, 10.000192, 9.9992485 
9.050974e+2, 1.747925e+2, -1208194.5, -1301360.3, 2557.9094, -0.00839731, 0.053377815, -1208124.4, 18915.324, 0.0, 10.000479, 9.999242 
9.0508854e+2, 1.8479191e+2, -1115446.5, -1244020.3, 9026.513, -0.025693782, 0.08697023, -1114815.9, 14231.471, 0.0, 10.000607, 9.998902 
9.050806e+2, 1.9479124e+2, -1025949.75, -1150648.0, 14808.016, 0.047526915, 0.13043636, -1024215.4, 6839.832, 0.0, 10.000549, 9.998898 
9.0507215e+2, 2.0479013e+2, -907794.9, -1023058.75, 20782.635, 0.0599998, 0.12054973, -904162.1, 28904.191, 0.0, 10.000603, 9.999076 
9.0506303e+2, 2.147885e+2, -783143.8, -910886.9, 16933.502, 0.005457647, 0.046922456, -780937.25, 54143.813, 0.0, 10.00078, 9.999087 
9.050542e+2, 2.2478738e+2, -720309.9, -888033.7, 4764.946, -0.010390892, 0.053026687, -720174.6, 16917.908, 0.0, 10.00079, 9.998567 
9.0504545e+2, 2.3478685e+2, -646968.3, -802386.44, 16259.958, 0.01533489, 0.1421725, -645285.44, -6184.9976, 0.0, 10.000623, 9.998562 
9.050364e+2, 2.4478577e+2, -505367.34, -632030.25, 4305.474, 0.014394334, 0.15626274, -505221.16, 35889.805, 0.0, 10.000701, 9.999021 
9.0502673e+2, 2.5478405e+2, -356432.22, -507187.7, -7491.728, -0.014876072, 0.08068469, -356060.8, 87063.85, 0.0, 10.00104, 9.999041 
9.050177e+2, 2.6478246e+2, -303774.25, -506223.53, 13305.042, -0.015451074, 0.049646344, -302903.6, 42235.863, 0.0, 10.001054, 9.998368 
9.0500915e+2, 2.74781e+2, -255615.0, -433702.06, 30084.906, 0.014217302, 0.06527504, -250669.95, -3514.6116, 0.0, 10.000717, 9.998355 
9.05e+2, 2.847798e+2, -119600.234, -285229.56, -93.687805, 0.017707797, 0.09738864, -119600.19, 29566.354, 0.0, 10.000838, 9.998645 
9.0499014e+2, 2.9477885e+2, 66192.23, -144744.22, -18023.125, -0.006203289, 0.1358639, 67721.1, 118894.53, 0.0, 10.001442, 9.998645 
9.049804e+2, 3.0477577e+2, 95919.2, -163118.11, 625.11395, -0.036875345, -0.00946046, 95920.72, 95920.72, 0.0000001316986, 10.00156, 9.998127 
9.0497136e+2, 3.147745e+2, 104493.375, -50393.617, 9198.711, -0.018460793, 0.050219648, 105037.77, 105037.77, 0.0000016698094, 10.00115, 9.999099 
9.1514015e+2, 1.2480234e+2, -1738643.6, -1729279.4, -15977.353, 0.00038753494, 0.019670796, -1717312.3, -373.2451, 0.0000026057617, 9.999849, 9.999975 
9.1513366e+2, 1.3480237e+2, -1634037.6, -1630901.1, 30699.229, 0.14850858, 0.025195085, -1601730.1, 17209.605, 0.00000007607973, 9.999904, 9.999953 
9.151239e+2, 1.448018e+2, -1532092.0, -1541147.3, 5132.95, 0.016589915, -0.02043496, -1529775.3, -8829.172, 0.0, 9.999977, 9.999858 
9.151152e+2, 1.5480228e+2, -1424574.5, -1438473.9, 3768.0164, 0.012891246, 0.039767846, -1423618.8, -677.06244, 0.0, 10.000041, 9.999859 
9.1510665e+2, 1.6480228e+2, -1342796.5, -1411397.9, 9974.454, 0.014253289, 0.08080784, -1341375.6, -16432.674, 0.0, 10.0002, 9.999296 
9.150982e+2, 1.7480178e+2, -1204618.3, -1294012.4, 12937.176, 0.022520922, 0.1027274, -1202783.6, 24166.008, 0.0, 10.000478, 9.999294 
9.150896e+2, 1.8480086e+2, -1105958.3, -1223838.0, 6606.3945, 0.021591542, 0.092583716, -1105589.1, 23370.863, 0.0, 10.000603, 9.9990425 
9.150808e+2, 1.947994e+2, -1015768.25, -1130052.9, 12132.53, 0.010356754, 0.04048659, -1014494.44, 16480.35, 0.0, 10.000551, 9.999039 
9.150722e+2, 2.047986e+2, -914238.75, -1037209.1, 26387.816, 0.008973421, 0.060530372, -908815.5, 24167.664, 0.0, 10.000605, 9.998979 
9.15064e+2, 2.1479852e+2, -790366.5, -925559.94, 23017.012, 0.017641677, 0.15329936, -786555.25, 48429.34, 0.0, 10.000778, 9.998988 
9.150552e+2, 2.2479752e+2, -698419.06, -842612.3, -2065.0122, 0.01644322, 0.16035472, -698389.5, 38605.344, 0.0, 10.000789, 9.998879 
9.1504604e+2, 2.3479551e+2, -623955.56, -755231.9, 9826.81, 0.0053727543, 0.06992431, -623224.0, 15790.635, 0.0, 10.000624, 9.998886 
9.150369e+2, 2.4479418e+2, -524831.06, -672792.8, 16567.77, -0.0006606869, 0.05448916, -522998.63, 18029.012, 0.0, 10.000702, 9.998741 
9.15028e+2, 2.5479352e+2, -377415.28, -550668.5, 5542.3887, -0.001680866, 0.11369644, -377238.16, 65795.34, 0.0, 10.00104, 9.998743 
9.15019e+2, 2.6479238e+2, -273386.28, -443749.78, 1456.3018, 0.007122681, 0.12428785, -273373.84, 71669.8, 0.0, 10.001056, 9.998797 
9.1501004e+2, 2.7479073e+2, -224083.89, -368793.72, 18140.861, 0.027580649, 0.07881723, -221844.4, 25214.053, 0.0, 10.000718, 9.998801 
9.1500086e+2, 2.8478912e+2, -150015.8, -347041.78, 21898.023, 0.015799329, 0.0651976, -147611.34, 1462.3258, 0.0, 10.0008335, 9.998222 
9.1499126e+2, 2.9478744e+2, 34937.918, -208518.02, 5197.9595, -0.033220746, 0.075763635, 35048.848, 86138.78, 0.0, 10.001437, 9.998209 
9.149819e+2, 3.0478483e+2, 125162.086, -102410.6, -13490.731, -0.049507122, -0.023469634, 125959.04, 125959.04, 0.00000009563079, 10.001559, 9.998546 
9.1497296e+2, 3.1478506e+2, 120806.07, -16754.527, -5204.232, 0.01952492, 0.14356439, 121002.68, 121002.68, 0.0000014046396, 10.001149, 9.999331 
9.251399e+2, 1.248107e+2, -1719986.1, -1708037.4, -14889.856, -0.010174653, 0.004002407, -1697968.0, 18888.656, 0.000005355975, 9.999928, 10.00008 
9.2513335e+2, 1.3481084e+2, -1659457.8, -1632232.4, 14900.748, 0.14244342, 0.010812009, -1625662.5, -6806.3784, 0.00000033393198, 9.999683, 10.00005 
9.251237e+2, 1.4481045e+2, -1571102.5, -1564013.0, -1495.4839, 0.013157123, -0.019953357, -1563710.5, -42849.51, 0.0, 9.999728, 9.999821 
9.2511505e+2, 1.5481102e+2, -1416580.0, -1438134.6, 2405.1785, -0.006035523, 0.051715266, -1416314.9, 6541.861, 0.0, 10.000114, 9.999825 
9.2510664e+2, 1.64811e+2, -1329556.1, -1396836.3, 6860.9067, -0.002497945, 0.09126866, -1328863.6, -4005.5212, 0.0, 10.000259, 9.999366 
9.250986e+2, 1.7481044e+2, -1250234.8, -1308473.8, 10533.426, 0.027996961, 0.09822132, -1248388.3, -21523.18, 0.0, 10.0001335, 9.99936 
9.250901e+2, 1.8480957e+2, -1149858.4, -1236991.3, 6688.544, 0.026562845, 0.086992964, -1149347.9, -20473.176, 0.0, 10.000268, 9.999113 
9.250812e+2, 1.9480832e+2, -989823.56, -1108918.6, 6290.9175, -0.011686816, 0.048643716, -989492.2, 41395.566, 0.0, 10.000694, 9.999114 
9.2507267e+2, 2.0480758e+2, -892205.44, -1026607.2, 11854.98, -0.011438296, 0.07168377, -891167.75, 41727.953, 0.0, 10.000758, 9.998976 
9.250647e+2, 2.1480744e+2, -841686.56, -950825.1, 15077.605, 0.030540677, 0.15670711, -839641.9, -4743.7275, 0.0, 10.000428, 9.998982 
9.2505604e+2, 2.248065e+2, -739334.0, -845970.44, -5468.954, 0.03518966, 0.16438195, -739054.25, -2146.6628, 0.0, 10.000439, 9.999024 
9.250467e+2, 2.3480473e+2, -586124.0, -720131.8, -7520.155, 0.00000073455897, 0.08244775, -585703.3, 53221.484, 0.0, 10.000813, 9.999036 
9.250377e+2, 2.4480347e+2, -495159.34, -661983.56, 616.42737, -0.0084537845, 0.06931907, -495157.06, 45779.906, 0.0, 10.000921, 9.998709 
9.250289e+2, 2.5480276e+2, -421521.6, -575967.8, 8468.93, 0.011106704, 0.1260722, -421058.6, 21885.19, 0.0, 10.000754, 9.998707 
9.2502004e+2, 2.6480156e+2, -306349.38, -445223.28, -2015.2483, 0.022820303, 0.12844378, -306320.16, 38633.88, 0.0, 10.000767, 9.998926 
9.2501086e+2, 2.747999e+2, -179313.53, -332031.44, -9468.395, 0.027566776, 0.06761222, -178728.73, 68239.3, 0.0, 10.000961, 9.998937 
9.2500174e+2, 2.8479838e+2, -118269.93, -335279.56, 11153.257, 0.016409138, 0.05499621, -117698.21, 31284.39, 0.0, 10.001068, 9.99819 
9.2499274e+2, 2.9479688e+2, -19311.635, -238472.34, 24127.219, -0.014269981, 0.085066326, -16686.924, 34311.414, 0.0, 10.0010805, 9.998175 
9.249834e+2, 3.0479443e+2, 88038.52, -109841.2, -3491.9912, -0.03292778, 0.0018371253, 88100.13, 88100.13, 0.00000004550982, 10.00126, 9.998639 
9.2497414e+2, 3.147946e+2, 181085.75, 3118.4766, -21373.172, 0.003776971, 0.1539891, 183616.6, 183616.6, 0.0000009683944, 10.001605, 9.9992485 
9.3513995e+2, 1.2481891e+2, -1725849.5, -1718296.9, -20554.242, -0.00043576074, -0.033058483, -1701174.9, 15601.376, 0.000009813605, 9.999919, 10.000014 
9.351325e+2, 1.3481979e+2, -1663745.3, -1643601.4, 5702.4746, 0.085641526, 0.05568762, -1642099.1, -23330.082, 0.0000009955157, 9.999695, 9.999966 
9.351229e+2, 1.448196e+2, -1565645.4, -1557516.8, 11340.697, -0.038975865, 0.046461515, -1549534.1, -28761.844, 0.00000000002439963, 9.999746, 9.999858 
9.3511546e+2, 1.5481968e+2, -1414067.0, -1432595.5, 16587.416, 0.021141296, 0.06691827, -1404332.1, 18440.418, 0.0, 10.000111, 9.999866 
9.351073e+2, 1.6481933e+2, -1324810.1, -1385527.5, 2157.1123, 0.036860067, 0.06611814, -1324733.6, 43.23442, 0.0, 10.000253, 9.999447 
9.350985e+2, 1.7481855e+2, -1244345.0, -1296817.6, 5498.717, 0.007751894, 0.041552357, -1243775.0, -16989.85, 0.0, 10.000135, 9.999439 
9.3508995e+2, 1.848181e+2, -1149683.0, -1237849.4, 21563.213, -0.010588129, 0.07126605, -1144691.8, -15900.853, 0.0, 10.000272, 9.999106 
9.350818e+2, 1.9481803e+2, -990068.9, -1109344.9, 21793.078, -0.018923417, 0.15215263, -986211.75, 44582.18, 0.0, 10.000692, 9.999112 
9.3507355e+2, 2.0481712e+2, -886177.5, -1013838.7, -1032.8126, -0.002219493, 0.15161803, -886169.1, 46634.74, 0.0, 10.000756, 9.999065 
9.3506527e+2, 2.1481527e+2, -835374.44, -938017.1, 2117.6536, 0.042404912, 0.060049605, -835330.8, -509.6741, 0.0, 10.000429, 9.999071 
9.3505657e+2, 2.2481439e+2, -740878.0, -849847.2, 7520.258, 0.044017382, 0.068660945, -740361.5, -3531.2783, 0.0, 10.000441, 9.998998 
9.350475e+2, 2.3481451e+2, -588411.5, -724695.6, 6367.483, -0.0008937624, 0.1783791, -588114.6, 50716.07, 0.0, 10.000811, 9.999005 
9.3503857e+2, 2.4481368e+2, -480261.53, -631412.9, -5615.2656, -0.009126825, 0.19845884, -480053.22, 60785.7, 0.0, 10.000921, 9.9989195 
9.350298e+2, 2.548118e+2, -405769.9, -544117.9, 2596.27, 0.02171132, 0.117125705, -405721.2, 37134.246, 0.0, 10.000757, 9.998925 
9.3502086e+2, 2.648101e+2, -318473.22, -470130.63, 5083.8735, 0.02979637, 0.062309243, -318303.0, 26567.47, 0.0, 10.000766, 9.998755 
9.350117e+2, 2.7480853e+2, -192332.63, -358369.84, -1776.4083, 0.0135466615, 0.031904895, -192313.63, 54570.3, 0.0, 10.000958, 9.998757 
9.3500286e+2, 2.8480756e+2, -93390.09, -283989.03, 12177.86, 0.018926296, 0.06721868, -92615.17, 56278.043, 0.0, 10.001067, 9.998544 
9.3499446e+2, 2.9480708e+2, 6851.219, -185267.13, 25416.611, 0.047902815, 0.16429137, 10156.873, 61055.402, 0.0, 10.001083, 9.998541 
9.349851e+2, 3.0480456e+2, 69836.08, -145495.72, 9172.405, 0.010028873, 0.0660953, 70226.086, 70226.086, 0.000000010385675, 10.001251, 9.998397 
9.34975e+2, 3.14803e+2, 151089.73, -55853.23, -7249.9194, -0.070565276, 0.07164947, 151343.42, 151343.42, 0.00000050425, 10.001592, 9.998849 
9.451399e+2, 1.248277e+2, -1752388.6, -1743388.0, -17946.8, 0.011235542, -0.003935829, -1729385.9, -12694.915, 0.000016619406, 9.999791, 9.999904 
9.4513214e+2, 1.3482821e+2, -1624287.1, -1637989.8, -661.6116, 0.06550855, 0.061449446, -1624255.3, -5568.437, 0.0000023427797, 10.000025, 9.999845 
9.451226e+2, 1.4482792e+2, -1529154.5, -1544350.1, 2119.0283, -0.056493483, 0.04945636, -1528864.5, -8173.2524, 0.0000000053592455, 10.000019, 9.999814 
9.4511557e+2, 1.54828e+2, -1468356.6, -1463265.8, 782.58685, 0.034146864, 0.07487484, -1463148.1, -40456.11, 0.0, 9.99976, 9.999824 
9.4510746e+2, 1.648277e+2, -1373774.1, -1393033.8, -9417.115, 0.05022992, 0.07436488, -1369934.9, -45239.152, 0.0, 9.999849, 9.999589 
9.450985e+2, 1.7482701e+2, -1207259.4, -1261879.0, -1797.5171, -0.012846777, 0.04479569, -1207200.3, 19502.049, 0.0, 10.0003195, 9.999589 
9.450902e+2, 1.8482663e+2, -1126964.4, -1228570.6, 13146.249, -0.032971546, 0.07381106, -1125291.0, 3416.2627, 0.0, 10.000438, 9.999089 
9.450823e+2, 1.948266e+2, -1066801.1, -1148866.3, 11772.593, -0.008190057, 0.15946685, -1065145.8, -34434.902, 0.0, 10.000178, 9.999089 
9.450742e+2, 2.0482577e+2, -951367.25, -1025368.75, -10491.872, 0.013593832, 0.1614539, -949908.5, -17188.588, 0.0, 10.000223, 9.999243 
9.450657e+2, 2.1482411e+2, -798071.9, -899424.06, -1333.0334, 0.03260609, 0.06956367, -798054.3, 36680.563, 0.0, 10.000598, 9.999253 
9.4505703e+2, 2.2482324e+2, -707411.5, -841607.5, 8399.019, 0.032226257, 0.0737333, -706887.9, 29855.746, 0.0, 10.000706, 9.998926 
9.450483e+2, 2.3482321e+2, -634594.8, -755802.5, 3374.7756, 0.010654825, 0.17598045, -634500.94, 4244.878, 0.0, 10.000532, 9.998926 
9.4503945e+2, 2.4482237e+2, -525698.25, -639547.1, -16056.76, 0.0044329446, 0.1953779, -523477.0, 17276.91, 0.0, 10.000551, 9.9990425 
9.450305e+2, 2.5482067e+2, -395163.0, -524597.4, -15604.565, 0.014829718, 0.11925062, -393308.28, 49460.3, 0.0, 10.000769, 9.999053 
9.450216e+2, 2.6481903e+2, -298945.38, -468319.63, -8502.728, 0.020258958, 0.068756305, -298519.6, 46263.477, 0.0, 10.000934, 9.998687 
9.4501275e+2, 2.7481747e+2, -184927.8, -362708.13, -7763.1963, 0.01986557, 0.043030236, -184589.45, 62207.832, 0.0, 10.001043, 9.998686 
9.450041e+2, 2.848165e+2, -89137.945, -270411.03, -6011.1855, 0.03546903, 0.07768226, -88938.83, 59867.746, 0.0, 10.001048, 9.998646 
9.4499564e+2, 2.9481608e+2, -8306.396, -180370.67, -12653.943, 0.06967527, 0.16951655, -7380.7803, 43430.21, 0.0, 10.000928, 9.998649 
9.449865e+2, 3.0481368e+2, 68759.93, -141152.13, -6016.9517, 0.02567153, 0.07610414, 68932.26, 68932.26, 0.00000000032400083, 10.001224, 9.99844 
9.449767e+2, 3.1481192e+2, 198222.02, -42723.7, -1697.637, -0.08039226, 0.05445503, 198233.97, 198233.97, 0.00000016973306, 10.001957, 9.998763 
9.551397e+2, 1.2483712e+2, -1760601.0, -1765019.3, -5068.076, 0.012164326, 0.09047499, -1757281.5, -40681.727, 0.000026449812, 9.999808, 9.999748 
9.551323e+2, 1.3483623e+2, -1635883.8, -1661397.9, 7760.886, 0.07914067, 0.029038668, -1633708.5, -15100.084, 0.0000047469885, 10.00002, 9.999687 
9.551228e+2, 1.448355e+2, -1539791.8, -1564894.4, -7331.3984, -0.042352855, -0.009649131, -1537807.4, -17190.455, 0.000000046136613, 10.000012, 9.999677 
9.5511526e+2, 1.5483606e+2, -1477255.5, -1482696.5, -8813.52, 0.03263389, 0.0761766, -1470752.1, -48137.703, 0.0, 9.9997635, 9.999688 
9.5510715e+2, 1.648362e+2, -1358461.9, -1363337.6, 7508.963, 0.037205342, 0.11587892, -1353005.0, -28390.777, 0.0, 9.999856, 9.99979 
9.550986e+2, 1.748359e+2, -1192077.0, -1231121.3, 15774.35, -0.03442397, 0.106264435, -1186500.5, 40115.38, 0.0, 10.00032, 9.999801 
9.5509046e+2, 1.8483523e+2, -1129468.9, -1234064.6, 3012.0557, -0.04219553, 0.094331734, -1129382.3, -758.7227, 0.0, 10.000439, 9.999051 
9.550828e+2, 1.9483405e+2, -1069783.0, -1155469.4, 1446.0223, 0.018936124, 0.07404896, -1069758.6, -39121.0, 0.0, 10.000179, 9.999043 
9.5507467e+2, 2.0483363e+2, -933120.94, -988074.56, 2310.943, 0.034513753, 0.10392984, -933023.94, -380.81836, 0.0, 10.000224, 9.999499 
9.550659e+2, 2.1483395e+2, -779569.9, -861014.8, 12003.648, 0.0012543336, 0.18253635, -777837.56, 56801.76, 0.0, 10.000597, 9.999518 
9.550574e+2, 2.2483306e+2, -715649.6, -858999.0, 1185.6327, -0.000025793712, 0.17685342, -715639.9, 21008.037, 0.0, 10.000706, 9.998807 
9.5504904e+2, 2.3483086e+2, -642739.2, -773527.9, -3175.6943, 0.03292231, 0.07635674, -642662.1, -3992.506, 0.0, 10.000535, 9.998804 
9.550402e+2, 2.4482964e+2, -523544.2, -635617.9, -8145.0957, 0.030417545, 0.06207253, -522955.3, 17726.115, 0.0, 10.000552, 9.999069 
9.55031e+2, 2.5482947e+2, -393414.16, -520743.47, -7170.2783, -0.0098998705, 0.13355707, -393011.63, 49671.25, 0.0, 10.000768, 9.999081 
9.550223e+2, 2.648285e+2, -296740.56, -464193.03, -4224.0415, -0.0061375373, 0.14872053, -296634.06, 48057.543, 0.0, 10.000934, 9.998716 
9.5501405e+2, 2.7482677e+2, -182019.92, -357806.3, -3155.6082, 0.044370502, 0.100131296, -181963.3, 64744.777, 0.0, 10.001047, 9.998719 
9.550054e+2, 2.848252e+2, -100022.375, -292387.13, -10293.856, 0.063972786, 0.084747665, -99473.09, 49249.68, 0.0, 10.001045, 9.998496 
9.5499635e+2, 2.9482386e+2, -19907.43, -202783.64, -16283.3545, 0.049455095, 0.09892984, -18468.871, 32266.938, 0.0, 10.000921, 9.998498 
9.549875e+2, 3.0482182e+2, 90128.88, -95157.09, 21776.674, 0.012528997, 0.03139667, 92653.89, 92653.89, 0.0, 10.001216, 9.998761 
9.549791e+2, 3.148213e+2, 214395.45, -8735.921, 27567.238, -0.029761804, 0.10283284, 217750.84, 217750.84, 0.000000027453995, 10.001954, 9.998999 
9.6513945e+2, 1.248452e+2, -1765619.3, -1752201.3, -27597.094, 0.008680932, 0.10186611, -1730509.4, -13988.295, 0.00003990401, 9.999711, 9.999882 
9.6513236e+2, 1.348442e+2, -1656835.8, -1658233.1, -1145.2303, 0.09310167, 0.017889047, -1656192.9, -37662.73, 0.000008636752, 9.999822, 9.999803 
9.651229e+2, 1.4484353e+2, -1558794.1, -1578976.9, -11560.29, -0.030364005, -0.017578145, -1553540.3, -33002.293, 0.00000019058375, 9.999905, 9.999631 
9.65115e+2, 1.548442e+2, -1452862.8, -1475814.1, -8067.288, 0.01902981, 0.08188685, -1450310.9, -27775.83, 0.0, 9.999953, 9.999642 
9.65107e+2, 1.6484438e+2, -1334958.0, -1351673.9, 18408.746, 0.022871073, 0.12838545, -1323098.8, 1436.0837, 0.0, 10.000018, 9.999791 
9.650989e+2, 1.7484409e+2, -1223110.1, -1245578.4, 11444.679, -0.02504566, 0.11878135, -1218307.3, 8229.537, 0.0, 10.000107, 9.999804 
9.650909e+2, 1.8484342e+2, -1152115.5, -1225671.5, -14408.981, -0.030989775, 0.09997994, -1149393.6, -20849.754, 0.0, 10.0002, 9.999223 
9.6508294e+2, 1.948423e+2, -1040121.56, -1121064.8, -492.214, 0.009164114, 0.06537332, -1040118.56, -9561.765, 0.0, 10.000298, 9.999221 
9.650748e+2, 2.0484194e+2, -921481.94, -991906.94, 6557.354, 0.020182172, 0.09772776, -920876.56, 11684.975, 0.0, 10.000347, 9.999413 
9.6506643e+2, 2.1484236e+2, -822751.56, -892222.94, -10174.672, -0.000677963, 0.19679439, -821292.06, 13265.528, 0.0, 10.000345, 9.999425 
9.6505797e+2, 2.2484148e+2, -747377.9, -857760.0, -31840.469, 0.0019070638, 0.18913557, -738851.8, -2285.808, 0.0, 10.000417, 9.998955 
9.650495e+2, 2.3483916e+2, -627609.3, -748775.0, -17041.354, 0.029643886, 0.061709985, -625258.1, 13329.663, 0.0, 10.000565, 9.998959 
9.650408e+2, 2.4483794e+2, -510497.38, -641587.44, -10481.058, 0.027072133, 0.043488838, -509664.66, 30935.004, 0.0, 10.000696, 9.998958 
9.650318e+2, 2.5483784e+2, -394953.75, -534150.75, -20298.371, -0.00778997, 0.13734192, -392054.16, 50546.824, 0.0, 10.0008135, 9.998966 
9.650233e+2, 2.64837e+2, -305400.34, -462914.22, -26634.24, 0.0011702128, 0.16699216, -301018.6, 43590.715, 0.0, 10.000853, 9.998764 
9.6501505e+2, 2.7483535e+2, -214280.83, -367662.9, -24792.85, 0.05702247, 0.123637185, -210372.86, 36252.36, 0.0, 10.000802, 9.998769 
9.6500653e+2, 2.8483376e+2, -103246.44, -291976.25, -19725.37, 0.07316633, 0.101899296, -101206.85, 47433.344, 0.0, 10.001015, 9.998513 
9.6499753e+2, 2.948323e+2, 66898.48, -158868.25, -14474.9795, 0.045741398, 0.0977698, 67822.75, 118477.09, 0.0, 10.00151, 9.998516 
9.64989e+2, 3.0483037e+2, 159635.69, -55864.383, 23551.174, 0.015076799, 0.04308432, 162179.47, 162179.47, 0.0, 10.001669, 9.998813 
9.6498114e+2, 3.1483006e+2, 143370.38, -43991.566, 9163.299, -0.0035666227, 0.13077739, 143817.45, 143817.45, 0.00000000015790982, 10.0014715, 9.998989 
9.7513896e+2, 1.2485204e+2, -1737567.6, -1693538.4, -16231.724, -0.010838782, 0.0287342, -1688201.4, 28252.432, 0.000057479218, 9.999709, 10.000285 
9.7513235e+2, 1.3485223e+2, -1630844.9, -1604236.1, 3372.1003, 0.10513764, 0.027826225, -1603815.4, 14635.871, 0.000014404859, 9.999821, 10.0001745 
9.7512287e+2, 1.448521e+2, -1556548.4, -1574615.9, -9978.955, -0.023644883, 0.024618546, -1552121.5, -31667.623, 0.0000005546723, 9.999905, 9.999661 
9.751147e+2, 1.5485246e+2, -1450188.1, -1471312.6, -6154.7104, -0.007060702, 0.091869906, -1448525.8, -26072.346, 0.0, 9.999956, 9.999673 
9.751069e+2, 1.648523e+2, -1348236.6, -1380507.1, 21290.318, 0.0065853046, 0.11326112, -1337658.1, -13201.364, 0.0, 10.000023, 9.999592 
9.7509944e+2, 1.7485163e+2, -1237420.6, -1275471.3, 14594.289, 0.01362398, 0.08455678, -1232467.8, -6003.6655, 0.0, 10.000107, 9.999599 
9.750914e+2, 1.8485129e+2, -1125686.4, -1170950.5, -11458.2705, -0.0012388204, 0.091254964, -1122951.0, 5516.852, 0.0, 10.000199, 9.999599 
9.7508276e+2, 1.9485131e+2, -1012097.7, -1064149.3, 2508.886, -0.037472837, 0.1304484, -1011977.06, 18491.094, 0.0, 10.000301, 9.99961 
9.750746e+2, 2.048507e+2, -950473.44, -1053559.1, 5390.3267, -0.029355157, 0.14091809, -950192.4, -17717.379, 0.0, 10.000352, 9.998987 
9.7506696e+2, 2.1484944e+2, -853152.25, -955850.94, -10682.529, 0.025133997, 0.11515759, -852052.9, -17563.977, 0.0, 10.000347, 9.998988 
9.7505873e+2, 2.2484858e+2, -719350.25, -799754.6, -27080.367, 0.036190797, 0.11317752, -711080.2, 25417.154, 0.0, 10.000417, 9.999353 
9.750498e+2, 2.3484816e+2, -598691.56, -688884.6, -11801.241, 0.0011703984, 0.13168754, -597173.0, 41327.08, 0.0, 10.000565, 9.99937 
9.750412e+2, 2.4484725e+2, -527511.75, -677542.0, -6505.7607, -0.0052343546, 0.13916096, -527230.1, 13278.256, 0.0, 10.000698, 9.998711 
9.750329e+2, 2.548459e+2, -412278.6, -570939.7, -15659.865, 0.018966557, 0.12896273, -410747.72, 31775.072, 0.0, 10.000815, 9.9987135 
9.7502446e+2, 2.6484457e+2, -301077.97, -454132.72, -28055.428, 0.04009329, 0.121490195, -296097.4, 48438.81, 0.0, 10.000853, 9.998824 
9.750159e+2, 2.7484336e+2, -209833.84, -358359.63, -25802.73, 0.057146735, 0.11330524, -205478.94, 41069.574, 0.0, 10.000801, 9.998834 
9.750075e+2, 2.8484225e+2, -91774.266, -268143.38, -872.6153, 0.062037632, 0.1308081, -91769.95, 56788.62, 0.0, 10.001014, 9.998678 
9.749991e+2, 2.9484135e+2, 78991.61, -134043.98, 4878.411, 0.05530005, 0.16802599, 79103.26, 129669.75, 0.0, 10.001509, 9.998688 
9.7499084e+2, 3.048394e+2, 143649.03, -87757.016, 16616.918, 0.030167969, 0.11171376, 144836.19, 144836.19, 0.0, 10.001662, 9.998597 
9.7498256e+2, 3.1483817e+2, 123838.62, -81786.305, 3523.44, -0.0061953343, 0.12574066, 123898.98, 123898.98, 0.0, 10.001458, 9.998736 
9.8513865e+2, 1.2485946e+2, -1708912.8, -1678590.0, 1449.2583, -0.01666079, -0.005292801, -1678520.9, 37859.836, 0.00007951568, 9.999901, 10.000296 
9.8513186e+2, 1.3486013e+2, -1698100.5, -1639049.0, -17090.465, 0.09971018, 0.042153213, -1634459.4, -16084.526, 0.000022398126, 9.99937, 10.000153 
9.8512244e+2, 1.4486021e+2, -1613049.8, -1578774.4, -16871.324, -0.0283279, 0.053138733, -1571863.4, -51488.176, 0.0000013019285, 9.999418, 9.999867 
9.851147e+2, 1.5486044e+2, -1416549.8, -1431086.6, 299.34253, -0.006465815, 0.08657405, -1416543.6, 5830.8228, 0.0, 10.000086, 9.999886 
9.85107e+2, 1.6486022e+2, -1317918.3, -1380730.4, 20081.771, 0.008559674, 0.09640416, -1312046.6, 12331.781, 0.0, 10.000295, 9.999458 
9.850995e+2, 1.7485951e+2, -1261129.3, -1302198.0, 17326.047, 0.013699112, 0.07912476, -1254796.3, -28409.129, 0.0, 10.0000105, 9.999461 
9.850915e+2, 1.8485926e+2, -1145313.8, -1173091.1, -4589.334, -0.0005970795, 0.09871616, -1144575.1, -16184.556, 0.0, 10.000034, 9.999664 
9.850831e+2, 1.9485949e+2, -994311.3, -1048185.0, -14434.855, -0.035454214, 0.15252177, -990687.44, 39700.98, 0.0, 10.000392, 9.999677 
9.8507506e+2, 2.0485885e+2, -924025.9, -1042981.7, -18529.924, -0.027705288, 0.15649845, -921206.25, 11189.188, 0.0, 10.000544, 9.998968 
9.8506737e+2, 2.1485728e+2, -835537.7, -949217.6, -4644.858, 0.024959516, 0.10090872, -835348.2, -935.85614, 0.0, 10.000477, 9.99897 
9.8505914e+2, 2.2485642e+2, -711225.25, -802988.6, -15718.085, 0.033504486, 0.102094464, -708607.6, 27813.55, 0.0, 10.000505, 9.999288 
9.850504e+2, 2.3485631e+2, -593735.0, -694051.75, -36473.87, -0.004746104, 0.1604178, -581875.56, 56545.73, 0.0, 10.000632, 9.999301 
9.8504186e+2, 2.4485546e+2, -521696.34, -665914.8, -39956.62, -0.0071013686, 0.17234313, -511366.06, 29063.06, 0.0, 10.000701, 9.998789 
9.8503375e+2, 2.548538e+2, -422780.3, -567042.2, -25377.79, 0.028072596, 0.1272091, -418446.22, 23999.156, 0.0, 10.000706, 9.998793 
9.850254e+2, 2.648524e+2, -305135.97, -462379.4, -27606.717, 0.049488623, 0.1102847, -300430.0, 44029.445, 0.0, 10.000853, 9.998767 
9.850168e+2, 2.7485132e+2, -162497.98, -341677.2, -35737.555, 0.0558942, 0.120761596, -155633.1, 90837.93, 0.0, 10.001155, 9.998776 
9.850086e+2, 2.848503e+2, -42508.863, -243469.84, -15213.1875, 0.05954767, 0.14646037, -41363.715, 107117.086, 0.0, 10.00135, 9.998685 
9.8500067e+2, 2.9484937e+2, 66464.14, -139167.9, -21214.45, 0.062274914, 0.18140532, 68629.96, 119118.83, 0.0, 10.001421, 9.998694 
9.8499256e+2, 3.0484754e+2, 124043.75, -98168.52, -19043.828, 0.043733653, 0.13620792, 125664.016, 125664.016, 0.0, 10.0015335, 9.998587 
9.849843e+2, 3.1484628e+2, 154761.61, -71526.69, -18664.72, 0.008032362, 0.14921406, 156290.78, 156290.78, 0.0, 10.001691, 9.998694 
9.951385e+2, 1.2486749e+2, -1736439.0, -1734218.6, -9916.594, -0.020207198, -0.0036902495, -1725350.3, -9048.869, 0.00010622788, 9.999893, 9.999918 
9.9513096e+2, 1.3486792e+2, -1725328.9, -1697331.1, -36572.137, 0.07784432, 0.060557205, -1672170.3, -53870.035, 0.00003292342, 9.999377, 9.99975 
9.951217e+2, 1.4486797e+2, -1585821.1, -1524532.6, 7527.5557, -0.043582343, 0.06888704, -1523621.6, -3320.6768, 0.0000026281716, 9.999427, 10.000236 
9.95115e+2, 1.5486823e+2, -1389665.5, -1375204.5, 25367.553, 0.017838659, 0.06628059, -1356057.1, 66240.516, 0.00000000019976186, 10.000084, 10.000271 
9.951075e+2, 1.6486816e+2, -1323657.0, -1391999.1, 9106.271, 0.026039153, 0.07723421, -1322464.5, 1834.8386, 0.0, 10.000291, 9.999384 
9.950991e+2, 1.748678e+2, -1265297.9, -1312768.0, 6165.907, -0.024741363, 0.10112616, -1264510.1, -38204.402, 0.0, 10.000017, 9.999387 
9.9509126e+2, 1.848674e+2, -1161322.1, -1208498.0, 7646.0977, -0.029626198, 0.1221093, -1160113.8, -31802.295, 0.0, 10.000043, 9.999417 
9.95084e+2, 1.9486696e+2, -1011649.75, -1084456.0, -1553.6721, 0.013513879, 0.1339375, -1011616.6, 18700.174, 0.0, 10.000392, 9.999428 
9.950761e+2, 2.0486645e+2, -898097.44, -989012.25, -21863.95, 0.023370422, 0.14571315, -893112.7, 39209.547, 0.0, 10.000542, 9.99934 
9.9506766e+2, 2.148659e+2, -808304.75, -893338.8, -7983.3047, -0.0014880857, 0.15216142, -807561.75, 26766.1, 0.0, 10.000479, 9.999352 
9.9505925e+2, 2.2486496e+2, -747362.6, -879146.06, -12004.177, -0.0063241567, 0.15448824, -746278.06, -9940.713, 0.0, 10.000509, 9.998763 
9.950511e+2, 2.3486368e+2, -630896.0, -771871.25, -31740.879, 0.010199595, 0.1474513, -624079.06, 14272.057, 0.0, 10.000634, 9.998767 
9.950428e+2, 2.448626e+2, -494390.8, -609404.2, -39740.85, 0.019386314, 0.1423542, -481995.03, 58366.414, 0.0, 10.000701, 9.999177 
9.9503434e+2, 2.5486168e+2, -394202.88, -508593.1, -24739.955, 0.01978313, 0.13318987, -389081.5, 53286.777, 0.0, 10.000709, 9.999192 
9.9502605e+2, 2.6486063e+2, -317860.28, -489998.25, -16257.481, 0.029615914, 0.13612337, -316338.3, 28040.295, 0.0, 10.000856, 9.998576 
9.9501795e+2, 2.748593e+2, -176296.56, -370268.78, -23954.47, 0.05006767, 0.14686662, -173382.11, 73010.58, 0.0, 10.001153, 9.998582 
9.9500996e+2, 2.8485787e+2, -53118.777, -264414.53, -11807.788, 0.06220904, 0.1476623, -52460.973, 95946.12, 0.0, 10.001345, 9.998545 
9.9500215e+2, 2.948563e+2, 56811.785, -159284.6, -16938.688, 0.06596895, 0.13469957, 58131.465, 108553.15, 0.0, 10.00142, 9.998556 
9.949942e+2, 3.0485478e+2, 135745.64, -73769.38, -11947.84, 0.05493716, 0.114747755, 136424.78, 136424.78, 0.0, 10.001532, 9.998755 
9.949862e+2, 3.148544e+2, 163492.03, -50799.37, -10547.375, 0.034106795, 0.20009787, 164009.9, 164009.9, 0.0, 10.001679, 9.998843 
1.0051384e+3, 1.2487559e+2, -1824393.6, -1771854.5, -8482.417, 0.004717679, 0.021107243, -1770519.0, -54295.98, 0.00013782152, 9.9992695, 9.999962 
1.00513056e+3, 1.3487585e+2, -1640518.3, -1654097.3, -12864.537, 0.06724727, 0.06685749, -1632761.5, -14538.833, 0.000046236724, 9.9999485, 9.999772 
1.00512125e+3, 1.4487576e+2, -1495519.9, -1497554.5, 30817.777, -0.0648014, 0.068554275, -1465702.6, 54521.906, 0.00000474816, 10.000118, 10.000088 
1.00511484e+3, 1.548758e+2, -1451795.6, -1422327.3, 8530.383, 0.013179494, 0.05809034, -1420036.0, 2187.9285, 0.000000004412824, 9.999731, 10.000118 
1.0051075e+3, 1.6487578e+2, -1385544.8, -1403712.5, -18340.658, 0.025646765, 0.07328442, -1374161.6, -49936.574, 0.0, 9.999788, 9.999545 
1.0050991e+3, 1.7487577e+2, -1208395.9, -1266545.8, -3863.2222, -0.03645036, 0.11491986, -1208140.3, 18087.082, 0.0, 10.000327, 9.999554 
1.00509144e+3, 1.8487535e+2, -1103389.0, -1194179.4, 8636.526, -0.041062336, 0.13263884, -1102574.8, 25658.404, 0.0, 10.0005, 9.999295 
1.0050844e+3, 1.9487453e+2, -1036879.0, -1110487.3, 8131.834, 0.01613704, 0.118474, -1035991.4, -5748.519, 0.0, 10.000279, 9.999303 
1.0050766e+3, 2.0487402e+2, -927557.8, -996920.75, -16340.79, 0.02696194, 0.1333632, -923900.94, 8347.566, 0.0, 10.000314, 9.999393 
1.00506805e+3, 2.1487385e+2, -783652.94, -875400.2, -27055.104, -0.011712064, 0.17491195, -776269.0, 57980.934, 0.0, 10.000623, 9.999407 
1.0050598e+3, 2.2487295e+2, -715279.56, -875961.4, -30353.031, -0.016188864, 0.18129708, -709737.0, 26522.412, 0.0, 10.000783, 9.998652 
1.0050519e+3, 2.3487124e+2, -616277.1, -777103.3, -19915.164, 0.015301178, 0.14322284, -613847.75, 24429.883, 0.0, 10.000789, 9.998655 
1.0050437e+3, 2.4486998e+2, -473117.8, -605577.2, -27731.375, 0.029070068, 0.13044354, -467546.38, 72743.234, 0.0, 10.000876, 9.999118 
1.0050353e+3, 2.5486922e+2, -348488.2, -492514.6, -47565.082, 0.023725895, 0.14078313, -334197.63, 108097.375, 0.0, 10.001051, 9.999136 
1.0050271e+3, 2.6486817e+2, -271133.03, -469187.34, -46191.32, 0.028222237, 0.14880644, -260889.8, 83415.14, 0.0, 10.001187, 9.998558 
1.005019e+3, 2.7486673e+2, -159697.77, -364197.3, -40512.516, 0.04326167, 0.1480142, -151964.45, 94355.43, 0.0, 10.001277, 9.998564 
1.0050112e+3, 2.848652e+2, -61619.043, -276172.16, -24718.803, 0.05743086, 0.14327079, -58808.004, 89527.37, 0.0, 10.001321, 9.998474 
1.0050035e+3, 2.9486358e+2, 37847.99, -175705.11, -27217.525, 0.071149126, 0.1313585, 41262.297, 91613.48, 0.0, 10.001323, 9.998489 
1.00499585e+3, 3.0486205e+2, 138209.42, -73306.8, -16803.104, 0.06612404, 0.11751028, 139535.95, 139535.95, 0.0, 10.001553, 9.998749 
1.0049882e+3, 3.1486157e+2, 210206.8, -30250.783, -27632.002, 0.046412975, 0.19317728, 213341.25, 213341.25, 0.0, 10.002011, 9.998823 
1.015138e+3, 1.2488373e+2, -1792782.9, -1706242.1, 24845.64, 0.040591616, 0.06187492, -1699616.4, 16529.115, 0.00017450533, 9.999269, 10.000412 
1.0151304e+3, 1.3488396e+2, -1610428.8, -1590944.5, 12453.103, 0.06392813, 0.060762398, -1584875.6, 33266.11, 0.000062540406, 9.999945, 10.000207 
1.0151211e+3, 1.4488366e+2, -1541907.8, -1593646.0, 15911.834, -0.09431302, 0.05219898, -1537405.9, -17260.557, 0.000007860604, 10.000115, 9.999431 
1.01511426e+3, 1.5488324e+2, -1497484.1, -1518995.4, -6214.0366, -0.019761806, 0.062005736, -1495818.1, -73665.484, 0.000000028517778, 9.999738, 9.999452 
1.0151071e+3, 1.6488315e+2, -1357572.5, -1347973.9, 909.39606, 0.007028702, 0.08536119, -1347888.5, -23733.639, 0.0, 9.999797, 9.999925 
1.0150996e+3, 1.7488347e+2, -1180644.4, -1208992.8, 15956.577, -0.023233067, 0.12100958, -1173475.6, 52675.883, 0.0, 10.000327, 9.999949 
1.015092e+3, 1.8488318e+2, -1103981.0, -1195128.1, -466.03424, -0.03592158, 0.13016404, -1103978.6, 24176.518, 0.0, 10.000497, 9.999291 
1.01508416e+3, 1.9488223e+2, -1036667.25, -1111044.8, -1040.3679, -0.027549298, 0.10538077, -1036652.7, -6486.519, 0.0, 10.000283, 9.999298 
1.0150765e+3, 2.048816e+2, -945148.75, -1034916.94, -6164.469, -0.017419316, 0.11947707, -944727.4, -12553.499, 0.0, 10.0003195, 9.99913 
1.01506874e+3, 2.1488124e+2, -802326.4, -914317.8, -16014.184, -0.006777302, 0.16999276, -800081.44, 34096.63, 0.0, 10.000623, 9.99914 
1.0150608e+3, 2.2488041e+2, -695396.25, -834456.25, -30885.057, 0.0024916, 0.18280055, -688845.4, 47341.383, 0.0, 10.000781, 9.9989395 
1.01505265e+3, 2.3487903e+2, -594918.6, -733949.7, -19979.379, 0.010626833, 0.14847982, -592104.44, 46095.89, 0.0, 10.0007925, 9.99895 
1.0150445e+3, 2.448777e+2, -507828.88, -679010.2, -21673.186, 0.021925712, 0.13845564, -505127.47, 35085.785, 0.0, 10.000881, 9.998611 
1.0150364e+3, 2.5487643e+2, -384669.6, -567477.7, -40764.938, 0.037278444, 0.149565, -375991.28, 66234.11, 0.0, 10.001048, 9.998624 
1.01502836e+3, 2.6487508e+2, -260641.17, -446489.88, -42218.188, 0.0423376, 0.14620431, -251500.3, 92738.15, 0.0, 10.001183, 9.998717 
1.0150202e+3, 2.7487358e+2, -147154.77, -339350.03, -35906.39, 0.035368845, 0.122830905, -140665.73, 105586.76, 0.0, 10.001281, 9.998733 
1.0150125e+3, 2.848723e+2, -62780.844, -280392.72, -23898.059, 0.04519796, 0.13370126, -60187.277, 88078.13, 0.0, 10.001327, 9.998444 
1.0150049e+3, 2.9487115e+2, 34243.332, -181489.83, -26265.723, 0.0740071, 0.1751871, 37395.164, 87672.33, 0.0, 10.001314, 9.998455 
1.0149975e+3, 3.048694e+2, 124377.05, -98683.96, 1036.5634, 0.07290291, 0.1478775, 124381.87, 124381.87, 0.0, 10.001538, 9.998581 
1.0149901e+3, 3.1486773e+2, 197618.38, -55820.816, -8029.945, 0.041078873, 0.119866446, 197872.53, 197872.53, 0.0, 10.002008, 9.998649 
1.02513745e+3, 1.2489136e+2, -1747031.9, -1675381.0, 24040.04, 0.038593348, 0.08612133, -1668062.6, 48009.11, 0.0002164286, 9.999546, 10.000488 
1.0251304e+3, 1.3489138e+2, -1661048.0, -1609811.1, -25685.586, 0.077679545, 0.05767719, -1599152.1, 18917.31, 0.00008198819, 9.999574, 10.000257 
1.0251211e+3, 1.4489105e+2, -1596408.4, -1627649.9, -27065.666, -0.084426574, 0.04813945, -1580779.3, -60706.254, 0.000012107449, 9.999776, 9.999361 
1.025114e+3, 1.5489072e+2, -1439692.3, -1498959.5, -6679.485, -0.034429945, 0.07391914, -1438948.8, -16868.87, 0.00000009714164, 10.000169, 9.999381 
1.02510706e+3, 1.6489057e+2, -1287437.3, -1312134.3, 15307.672, -0.008766751, 0.095479995, -1280118.3, 43964.25, 0.0, 10.000271, 9.999941 
1.0250998e+3, 1.748907e+2, -1218258.4, -1225553.6, 2212.939, -0.0140960645, 0.11029986, -1217639.5, 8440.912, 0.0, 10.000062, 9.999964 
1.0250923e+3, 1.8489042e+2, -1158836.4, -1218786.8, -30300.455, -0.028545706, 0.11849285, -1146189.6, -18105.793, 0.0, 10.00011, 9.999314 
1.0250843e+3, 1.9488971e+2, -1011299.44, -1096022.5, -29228.498, -0.051799074, 0.114014454, -1002194.4, 27898.5, 0.0, 10.000446, 9.999322 
1.02507666e+3, 2.0488904e+2, -904105.75, -1015441.06, -21115.146, -0.04396373, 0.124698035, -900235.75, 31864.969, 0.0, 10.000604, 9.999127 
1.02506936e+3, 2.1488841e+2, -809612.25, -918056.3, -11980.235, -0.0046797288, 0.14626563, -808304.5, 25802.697, 0.0, 10.000574, 9.999136 
1.0250617e+3, 2.2488755e+2, -710883.1, -847268.0, -28648.06, 0.013670284, 0.1593049, -705109.9, 31006.21, 0.0, 10.0007, 9.998889 
1.0250535e+3, 2.3488644e+2, -570221.3, -727460.44, -43948.5, 0.010215005, 0.15823929, -558771.44, 79356.18, 0.0, 10.000988, 9.998899 
1.02504544e+3, 2.4488513e+2, -480064.22, -678688.44, -47265.85, 0.016653355, 0.15761723, -469390.16, 70750.61, 0.0, 10.001129, 9.998493 
1.0250375e+3, 2.548836e+2, -383777.44, -580439.1, -37838.848, 0.03344929, 0.15135778, -376748.25, 65407.563, 0.0, 10.001113, 9.998503 
1.0250296e+3, 2.6488206e+2, -261139.92, -446799.66, -28453.611, 0.04438903, 0.138427, -256877.1, 87293.21, 0.0, 10.001181, 9.998714 
1.02502175e+3, 2.7488056e+2, -139170.9, -334699.16, -36107.363, 0.04848619, 0.11417781, -132716.2, 113467.875, 0.0, 10.001335, 9.998736 
1.0250139e+3, 2.848793e+2, -46134.61, -283455.4, -35519.81, 0.053892877, 0.13488325, -40932.395, 107264.195, 0.0, 10.001491, 9.998342 
1.02500625e+3, 2.948783e+2, 75161.06, -173222.17, -42410.79, 0.0619097, 0.19705187, 82202.95, 132410.83, 0.0, 10.001645, 9.998351 
1.024999e+3, 3.0487648e+2, 155329.06, -72727.836, -1519.5736, 0.063727476, 0.16369733, 155339.19, 155339.19, 0.0, 10.001704, 9.998678 
1.0249922e+3, 3.1487438e+2, 151141.39, -68631.0, 7159.0303, 0.05769666, 0.084848136, 151374.34, 151374.34, 0.0, 10.001647, 9.998734 
1.0351365e+3, 1.24898545e+2, -1768035.3, -1719360.0, 32688.729, -0.011782591, 0.09190223, -1702943.8, 13057.384, 0.0002637313, 9.999548, 10.000186 
1.03513025e+3, 1.3489817e+2, -1683085.9, -1655554.4, -24514.139, 0.10746498, 0.058381088, -1641205.4, -23200.926, 0.00010469639, 9.999574, 9.999943 
1.0351213e+3, 1.4489804e+2, -1562485.0, -1557515.4, -12847.506, -0.038072467, 0.057532113, -1546914.6, -26908.166, 0.000017566988, 9.999775, 9.999843 
1.0351142e+3, 1.5489829e+2, -1404915.5, -1426758.4, 8069.097, -0.033463832, 0.093211, -1402258.0, 19747.295, 0.00000023822265, 10.000168, 9.999877 
1.03510715e+3, 1.6489811e+2, -1310822.1, -1361610.3, 6712.7617, -0.022745982, 0.10265695, -1309949.9, 14057.739, 0.0, 10.000273, 9.999601 
1.0351e+3, 1.7489755e+2, -1242087.6, -1275960.5, -6170.3906, -0.010172858, 0.083342, -1240998.6, -14985.279, 0.0, 10.000065, 9.999617 
1.03509255e+3, 1.8489718e+2, -1155446.1, -1213059.8, -18849.441, -0.02157587, 0.099073045, -1149827.1, -21808.9, 0.0, 10.000114, 9.9993515 
1.0350847e+3, 1.9489703e+2, -1008195.0, -1089711.6, -17196.432, -0.057412732, 0.14454404, -1004715.75, 25306.533, 0.0, 10.000445, 9.999366 
1.0350771e+3, 2.0489644e+2, -886810.1, -979825.6, -23158.934, -0.05280876, 0.14877056, -881363.0, 50665.445, 0.0, 10.000603, 9.9993725 
1.0350698e+3, 2.1489538e+2, -791497.0, -881427.44, -13853.396, -0.0064076437, 0.10395659, -789411.3, 44625.547, 0.0, 10.000578, 9.999387 
1.0350624e+3, 2.248944e+2, -737122.44, -902953.56, -18881.305, 0.015816843, 0.112186864, -734999.8, 1047.2725, 0.0, 10.000704, 9.998506 
1.0350545e+3, 2.3489353e+2, -597677.8, -784702.06, -33176.92, 0.012902861, 0.17168182, -591966.8, 46092.207, 0.0, 10.000987, 9.9985075 
1.0350465e+3, 2.4489228e+2, -462205.4, -641122.3, -47760.617, 0.011644362, 0.1857277, -450254.34, 89817.63, 0.0, 10.001126, 9.998753 
1.03503846e+3, 2.5489068e+2, -364186.6, -541280.44, -37925.934, 0.011901829, 0.1459776, -356406.3, 85679.695, 0.0, 10.001119, 9.99877 
1.0350306e+3, 2.6488912e+2, -272759.16, -472582.97, -22376.467, 0.034231126, 0.12708911, -270284.1, 73816.06, 0.0, 10.001186, 9.998536 
1.0350233e+3, 2.7488765e+2, -152707.7, -361751.88, -29713.799, 0.08007888, 0.12446291, -148566.19, 97548.17, 0.0, 10.001328, 9.998554 
1.0350157e+3, 2.8488627e+2, -58549.906, -306771.0, -29115.316, 0.08030693, 0.14789386, -55180.535, 92948.29, 0.0, 10.001479, 9.998187 
1.0350075e+3, 2.9488495e+2, 65421.39, -194454.77, -34824.7, 0.03341701, 0.19340141, 70007.16, 120150.64, 0.0, 10.00165, 9.998203 
1.03500046e+3, 3.048832e+2, 180122.34, -23435.041, -1998.5883, 0.03768785, 0.16134053, 180141.95, 180141.95, 0.0, 10.001711, 9.999015 
1.0349941e+3, 3.1488156e+2, 173036.67, -22038.584, 7024.025, 0.09349357, 0.08998545, 173289.27, 173289.27, 0.0, 10.001639, 9.99906 
1.0451361e+3, 1.24905325e+2, -1726843.4, -1710528.5, 34964.246, -0.013022586, 0.06693119, -1682782.8, 33151.4, 0.00031664252, 9.999877, 10.000088 
1.04512975e+3, 1.3490519e+2, -1675853.1, -1664583.3, -17194.734, 0.097937025, 0.06560325, -1652123.6, -34187.074, 0.00013079311, 9.999676, 9.999831 
1.0451211e+3, 1.4490518e+2, -1560405.8, -1537709.9, 7187.6787, -0.04240859, 0.07796214, -1535625.1, -15687.939, 0.000024312307, 9.99971, 10.00001 
1.0451144e+3, 1.5490542e+2, -1420103.4, -1415482.1, 3625.4314, -0.024140999, 0.09538343, -1413493.5, 8441.615, 0.0000004785213, 9.999983, 10.000044 
1.0451074e+3, 1.6490519e+2, -1335096.4, -1386275.8, -15537.617, -0.014316259, 0.096361905, -1330748.6, -6810.6543, 0.0, 10.000163, 9.999484 
1.0451001e+3, 1.7490454e+2, -1220496.9, -1278521.3, -12596.53, -0.020090159, 0.079785496, -1217880.3, 8064.763, 0.0, 10.00027, 9.999499 
1.04509264e+3, 1.8490416e+2, -1119520.0, -1190529.4, -7727.366, -0.029871479, 0.09771091, -1118688.9, 9261.345, 0.0, 10.00034, 9.999396 
1.0450852e+3, 1.9490406e+2, -1015470.1, -1088133.9, -6030.8613, -0.04247576, 0.14499581, -1014972.94, 14980.396, 0.0, 10.000375, 9.99941 
1.0450779e+3, 2.0490348e+2, -899378.75, -985068.44, -22634.771, -0.037132606, 0.14873575, -893767.3, 38191.79, 0.0, 10.000515, 9.999377 
1.04507044e+3, 2.1490242e+2, -762192.3, -866500.0, -32061.266, -0.01421553, 0.101939, -753125.6, 80841.766, 0.0, 10.000777, 9.9993925 
1.045063e+3, 2.249014e+2, -711392.7, -898310.7, -33842.215, 0.0021761735, 0.10846438, -705454.06, 30524.047, 0.0, 10.000915, 9.998436 
1.0450554e+3, 2.3490041e+2, -612078.56, -799464.75, -25284.334, 0.01154085, 0.16609417, -608726.9, 29264.465, 0.0, 10.000922, 9.998437 
1.04504764e+3, 2.4489917e+2, -469912.6, -641081.75, -36603.277, 0.014046853, 0.17949897, -462413.78, 77590.87, 0.0, 10.001058, 9.998785 
1.0450395e+3, 2.548976e+2, -331462.7, -521295.97, -44824.957, 0.00928819, 0.14133723, -321410.53, 120607.5, 0.0, 10.001327, 9.998805 
1.045032e+3, 2.6489612e+2, -238625.0, -461805.63, -36442.406, 0.028448815, 0.13019098, -232825.16, 111206.3, 0.0, 10.001447, 9.998484 
1.0450247e+3, 2.7489474e+2, -144547.28, -363975.7, -34368.895, 0.07292844, 0.1411351, -139290.06, 106754.89, 0.0, 10.001411, 9.998499 
1.0450171e+3, 2.8489318e+2, -60593.25, -314043.78, -20051.635, 0.07593284, 0.153969, -59016.68, 89044.266, 0.0, 10.0014925, 9.99813 
1.0450093e+3, 2.9489145e+2, 67219.3, -199255.63, -20551.889, 0.036592867, 0.16426484, 68795.05, 118874.38, 0.0, 10.001688, 9.998151 
1.0450022e+3, 3.048898e+2, 177368.72, -28191.795, -9361.021, 0.040845007, 0.14262693, 177794.13, 177794.13, 0.0, 10.001708, 9.998982 
1.0449957e+3, 3.148886e+2, 158641.67, -32990.695, -27637.965, 0.088342905, 0.123517446, 162548.1, 162548.1, 0.0, 10.00156, 9.999021 
1.0551363e+3, 1.249118e+2, -1721142.8, -1697426.3, 36279.297, 0.020264218, 0.010858508, -1671116.4, 44753.344, 0.0003754383, 9.99987, 10.000181 
1.0551289e+3, 1.3491242e+2, -1669348.4, -1652499.9, -24796.184, 0.049243253, 0.07924055, -1634736.0, -16870.88, 0.00016041061, 9.999681, 9.999911 
1.0551202e+3, 1.4491257e+2, -1568862.5, -1557957.0, 16612.96, -0.09640553, 0.10847432, -1545924.9, -26060.21, 0.000032450233, 9.99972, 9.9998665 
1.0551145e+3, 1.5491222e+2, -1430556.6, -1436773.5, 13539.314, -0.0076780375, 0.08155996, -1419773.5, 2095.2256, 0.0000008393984, 9.999981, 9.999899 
1.0551079e+3, 1.6491193e+2, -1329297.6, -1373958.1, -12221.755, 0.01309991, 0.0789989, -1326171.9, -2299.5752, 0.0, 10.000161, 9.999571 
1.0551001e+3, 1.7491172e+2, -1213804.4, -1265049.6, -8903.013, -0.04384525, 0.09954955, -1212301.8, 13573.087, 0.0, 10.000272, 9.999592 
1.0550927e+3, 1.8491137e+2, -1115507.6, -1183608.4, -7432.0244, -0.052663114, 0.11379783, -1114706.0, 13173.267, 0.0, 10.000344, 9.999443 
1.05508596e+3, 1.9491087e+2, -1011665.5, -1081123.1, -5508.0083, -0.009153362, 0.115544, -1011231.44, 18654.13, 0.0, 10.000378, 9.999457 
1.0550787e+3, 2.0491026e+2, -915468.06, -1019479.9, -13955.012, -0.00034293626, 0.12564209, -913628.3, 18263.633, 0.0, 10.000519, 9.99914 
1.0550711e+3, 2.1490957e+2, -779046.7, -901729.94, -22768.238, -0.028362216, 0.13922645, -774957.5, 58940.824, 0.0, 10.000777, 9.999151 
1.0550636e+3, 2.2490856e+2, -694910.44, -864437.8, -34257.766, -0.027142892, 0.146646, -688249.44, 47659.57, 0.0, 10.000915, 9.998669 
1.0550563e+3, 2.349072e+2, -594561.2, -764162.5, -25177.7, 0.005217061, 0.14182925, -590902.44, 47021.734, 0.0, 10.000926, 9.998678 
1.05504885e+3, 2.4490581e+2, -483025.6, -669410.9, -26708.111, 0.02258265, 0.14069119, -479273.94, 60664.434, 0.0, 10.001061, 9.99859 
1.055041e+3, 2.549044e+2, -345465.3, -550411.7, -34244.676, 0.024258774, 0.1380459, -339894.75, 102056.875, 0.0, 10.001325, 9.998607 
1.05503336e+3, 2.6490307e+2, -233754.27, -450989.0, -37290.29, 0.025493823, 0.14670403, -227531.31, 116432.805, 0.0, 10.001442, 9.99856 
1.0550256e+3, 2.749018e+2, -138242.08, -352004.5, -34671.816, 0.025479939, 0.16171367, -132759.03, 113216.78, 0.0, 10.001415, 9.99858 
1.0550183e+3, 2.8490007e+2, -58815.805, -311625.03, -11958.669, 0.03952249, 0.15155962, -58251.383, 89741.484, 0.0, 10.001496, 9.998145 
1.0550114e+3, 2.9489785e+2, 67417.266, -197913.56, -12236.782, 0.07020064, 0.11253805, 67980.42, 117995.6, 0.0, 10.001681, 9.998164 
1.05500415e+3, 3.048962e+2, 148854.67, -85138.22, -14656.438, 0.07141208, 0.111009955, 149769.13, 149769.13, 0.0, 10.0016985, 9.998596 
1.0549967e+3, 3.1489557e+2, 132281.97, -88588.83, -31515.092, 0.0372129, 0.18573363, 136690.72, 136690.72, 0.0, 10.001563, 9.998637 
1.0651362e+3, 1.24918565e+2, -1770374.6, -1714668.4, 39748.598, 0.034484707, 0.0058331946, -1693985.5, 21817.646, 0.00044023, 9.999508, 10.000237 
1.0651285e+3, 1.3491921e+2, -1614902.9, -1622041.4, -33904.457, 0.030621048, 0.07205738, -1584380.4, 33418.03, 0.0001936281, 10.000036, 9.99995 
1.06512e+3, 1.4491938e+2, -1509551.5, -1538699.4, 2272.763, -0.118706316, 0.10703124, -1509375.4, 10422.408, 0.00004209593, 10.000169, 9.999781 
1.0651144e+3, 1.5491901e+2, -1446977.5, -1454137.9, 2336.2463, -0.013772852, 0.08628507, -1446282.8, -24480.367, 0.0000013547506, 9.99991, 9.999813 
1.0651079e+3, 1.6491872e+2, -1355032.0, -1373686.5, -12006.305, 0.017393682, 0.08293781, -1349155.6, -25349.91, 0.0, 9.999932, 9.999681 
1.0651004e+3, 1.7491855e+2, -1209117.0, -1250380.9, -7223.7114, -0.034527462, 0.095286086, -1207889.0, 17918.6, 0.0, 10.000251, 9.9997015 
1.0650933e+3, 1.8491821e+2, -1101901.1, -1184828.6, -13737.926, -0.04348154, 0.10732225, -1099684.5, 28127.285, 0.0, 10.000473, 9.999372 
1.0650864e+3, 1.9491766e+2, -982941.44, -1075082.4, -21284.74, -0.007224828, 0.11370268, -978262.25, 51556.395, 0.0, 10.00061, 9.999386 
1.06507935e+3, 2.0491704e+2, -897768.8, -1016940.9, -26273.184, -0.0019795906, 0.12743929, -892233.6, 39591.973, 0.0, 10.000667, 9.999085 
1.06507175e+3, 2.1491632e+2, -801971.94, -918890.8, -21767.139, -0.029622128, 0.14405201, -798051.0, 35781.77, 0.0, 10.000647, 9.999096 
1.06506445e+3, 2.2491531e+2, -710862.2, -856655.2, -29810.965, -0.0307535, 0.1496852, -705002.1, 30840.887, 0.0, 10.000739, 9.998806 
1.06505714e+3, 2.3491403e+2, -580899.44, -741665.0, -28843.979, -0.0037800425, 0.13838562, -575881.0, 61975.523, 0.0, 10.000952, 9.998819 
1.0650498e+3, 2.4491268e+2, -476499.16, -673102.3, -25741.61, 0.015249236, 0.13611796, -473184.63, 66685.66, 0.0, 10.001136, 9.9985285 
1.0650424e+3, 2.5491124e+2, -354735.97, -561818.9, -23939.744, 0.025589755, 0.13757028, -352004.44, 89879.79, 0.0, 10.001291, 9.998545 
1.0650348e+3, 2.6490986e+2, -232323.75, -449499.0, -29852.824, 0.023460453, 0.14307483, -228294.94, 115602.555, 0.0, 10.001449, 9.998567 
1.0650268e+3, 2.749085e+2, -110132.71, -337146.13, -33317.79, 0.008024783, 0.14813158, -105343.82, 140566.08, 0.0, 10.001604, 9.99859 
1.0650197e+3, 2.849068e+2, -33029.883, -300463.88, -13200.67, 0.020387195, 0.14283162, -32379.871, 115546.45, 0.0, 10.00168, 9.998133 
1.06501296e+3, 2.949048e+2, 67574.41, -199300.9, -15504.618, 0.06297743, 0.12373265, 68472.16, 118418.84, 0.0, 10.00169, 9.99815 
1.0650059e+3, 3.04903e+2, 151474.67, -101125.7, -12634.793, 0.06494056, 0.11931579, 152105.08, 152105.08, 0.0, 10.001791, 9.998441 
1.0649983e+3, 3.1490213e+2, 179682.27, -82619.7, -14766.934, 0.021421, 0.18247023, 180510.98, 180510.98, 0.0, 10.001964, 9.998486 
1.0751356e+3, 1.2492568e+2, -1767330.5, -1711033.1, 68097.16, 0.021339906, 0.04858134, -1665496.1, 50237.453, 0.00051082077, 9.999519, 10.000256 
1.0751288e+3, 1.3492563e+2, -1615621.9, -1621840.3, -14445.206, 0.03994127, 0.045621395, -1603955.0, 13780.301, 0.00023041679, 10.00003, 9.999955 
1.0751203e+3, 1.4492574e+2, -1513482.4, -1545383.6, -8016.7324, -0.11298351, 0.07631007, -1511581.1, 8154.2275, 0.000053336094, 10.000161, 9.999739 
1.075114e+3, 1.5492587e+2, -1449041.3, -1459862.5, -7652.716, -0.042496614, 0.109549604, -1445079.6, -23344.236, 0.0000020676762, 9.999916, 9.999771 
1.0751077e+3, 1.6492565e+2, -1344261.5, -1353896.6, -1099.2838, -0.0011535998, 0.107233666, -1344137.6, -20399.71, 0.0000000000166348, 9.999942, 9.999813 
1.07510105e+3, 1.7492509e+2, -1199752.4, -1231229.4, 4249.4063, 0.0055591105, 0.067415945, -1199188.8, 26553.861, 0.0, 10.000251, 9.999833 
1.0750941e+3, 1.849247e+2, -1115862.8, -1213551.8, -9666.155, -0.0064079715, 0.07975776, -1114915.5, 12831.803, 0.0, 10.000471, 9.999176 
1.0750868e+3, 1.9492452e+2, -996875.8, -1104079.1, -16798.914, -0.035895407, 0.13940796, -994305.06, 35446.938, 0.0, 10.000609, 9.999187 
1.0750796e+3, 2.0492384e+2, -888896.7, -999518.44, -28135.574, -0.04052656, 0.1537876, -882151.94, 49607.684, 0.0, 10.0006695, 9.999205 
1.0750725e+3, 2.1492271e+2, -793103.94, -901049.5, -23231.98, -0.019795965, 0.11687884, -788316.3, 45453.875, 0.0, 10.000648, 9.999218 
1.0750653e+3, 2.2492175e+2, -707663.3, -850622.5, -22677.771, -0.011325607, 0.118823156, -704152.1, 31627.594, 0.0, 10.00074, 9.998847 
1.075058e+3, 2.34921e+2, -577750.94, -735977.9, -20902.41, -0.015717512, 0.15535262, -575036.25, 62751.953, 0.0, 10.000955, 9.998858 
1.0750507e+3, 2.4491982e+2, -471574.1, -663539.44, -20021.105, -0.008230348, 0.16451976, -469508.22, 70291.91, 0.0, 10.001138, 9.998594 
1.0750436e+3, 2.549182e+2, -349770.6, -551997.5, -17680.111, 0.011677867, 0.13920297, -348236.5, 93579.18, 0.0, 10.001292, 9.998612 
1.07503615e+3, 2.6491654e+2, -236836.42, -459474.28, -23530.11, 0.021045336, 0.11953564, -234376.75, 109454.6, 0.0, 10.001451, 9.998499 
1.0750287e+3, 2.749149e+2, -115071.016, -347382.2, -26709.63, 0.019812696, 0.10160663, -112039.67, 133807.28, 0.0, 10.001602, 9.998522 
1.07502125e+3, 2.8491345e+2, -35973.637, -305767.13, -12712.799, 0.017283736, 0.128384, -35375.926, 112485.22, 0.0, 10.001677, 9.998098 
1.0750142e+3, 2.9491225e+2, 65642.26, -203808.69, -13916.274, 0.012506854, 0.1949862, 66359.086, 116232.984, 0.0, 10.001691, 9.998118 
1.0750072e+3, 3.0491024e+2, 155473.89, -93518.35, -4704.2114, 0.0196084, 0.1647363, 155562.75, 155562.75, 0.0, 10.001793, 9.998493 
1.0750005e+3, 3.1490833e+2, 183753.27, -74261.21, -6871.1274, 0.039093066, 0.11949153, 183936.11, 183936.11, 0.0, 10.001962, 9.998544 
1.0851353e+3, 1.2493226e+2, -1635289.0, -1668364.5, 59977.137, -0.010325925, 0.059745044, -1589611.4, 126058.23, 0.0005868495, 10.000519, 10.000066 
1.0851288e+3, 1.3493212e+2, -1673329.1, -1672965.5, -49550.227, 0.052368566, 0.068353206, -1623596.8, -5923.755, 0.00027068684, 9.999735, 9.999745 
1.0851204e+3, 1.4493217e+2, -1584709.1, -1566394.9, -32471.666, -0.08610519, 0.09485595, -1541813.9, -22140.086, 0.00006622561, 9.999618, 9.999856 
1.0851141e+3, 1.5493208e+2, -1397639.0, -1422074.3, -20916.572, -0.045344286, 0.09707035, -1385633.3, 36041.555, 0.000003027, 10.000215, 9.999886 
1.0851078e+3, 1.6493188e+2, -1275308.8, -1320568.4, -17813.305, -0.012467639, 0.093532704, -1269138.9, 54537.8, 0.000000000186287, 10.000417, 9.999812 
1.0851013e+3, 1.7493165e+2, -1205008.8, -1233430.6, -23098.785, 0.006663327, 0.08411155, -1192099.5, 33579.25, 0.0, 10.0002165, 9.999834 
1.0850945e+3, 1.8493132e+2, -1151795.3, -1225461.3, -28679.28, -0.0014268111, 0.09905738, -1141946.6, -14263.717, 0.0, 10.000203, 9.999223 
1.0850873e+3, 1.949309e+2, -1025762.7, -1112912.5, -17845.783, -0.035995003, 0.13218579, -1022250.0, 7439.4023, 0.0, 10.00039, 9.999232 
1.0850802e+3, 2.0493022e+2, -903601.2, -1001316.6, -26617.408, -0.03960847, 0.14058036, -896821.1, 34875.934, 0.0, 10.000547, 9.999251 
1.0850733e+3, 2.1492928e+2, -785687.8, -891973.75, -28037.822, -0.012205833, 0.11920391, -778745.06, 54960.887, 0.0, 10.000676, 9.999267 
1.0850662e+3, 2.2492841e+2, -692922.2, -840748.8, -25528.383, -0.0030520174, 0.12559609, -688637.8, 47076.86, 0.0, 10.000831, 9.998872 
1.085059e+3, 2.349276e+2, -567582.0, -728173.0, -25798.102, -0.013321466, 0.15523851, -563539.44, 74183.92, 0.0, 10.001013, 9.998883 
1.08505175e+3, 2.4492644e+2, -468046.06, -649396.56, -28348.291, -0.013401343, 0.15987825, -463718.03, 76016.836, 0.0, 10.001109, 9.998704 
1.0850446e+3, 2.549249e+2, -367572.4, -547871.94, -23070.3, -0.0023883644, 0.13250156, -364667.25, 77082.0, 0.0, 10.001116, 9.998725 
1.08503744e+3, 2.649233e+2, -266300.47, -477503.03, -20525.266, 0.0081978, 0.11493975, -264324.28, 79440.06, 0.0, 10.001266, 9.998463 
1.08503014e+3, 2.749217e+2, -122694.03, -355192.25, -21780.834, 0.018189358, 0.10339435, -120671.17, 125108.79, 0.0, 10.001568, 9.998484 
1.085023e+3, 2.8492022e+2, -27724.395, -299612.34, -13000.267, 0.012616861, 0.12810421, -27104.205, 120690.25, 0.0, 10.001723, 9.998118 
1.0850156e+3, 2.9491895e+2, 71157.39, -198631.4, -11296.336, -0.008907185, 0.18445507, 71629.555, 121437.3, 0.0, 10.0017185, 9.99814 
1.08500876e+3, 3.0491686e+2, 150722.4, -91301.98, 3752.2842, -0.0034783639, 0.14432558, 150780.58, 150780.58, 0.0, 10.001741, 9.998533 
1.08500235e+3, 3.1491518e+2, 166430.48, -76018.44, 242.55902, 0.029639218, 0.120442055, 166430.72, 166430.72, 0.0, 10.001815, 9.998603 
1.0951353e+3, 1.2493839e+2, -1665311.8, -1726944.3, 40680.133, -0.0647608, 0.03913139, -1645093.5, 70516.48, 0.00066827383, 10.000503, 9.999671 
1.0951285e+3, 1.3493873e+2, -1702056.0, -1734513.9, -79119.69, 0.06594634, 0.13939126, -1637518.0, -19907.576, 0.00031450897, 9.9997425, 9.99932 
1.0951204e+3, 1.4493866e+2, -1564132.5, -1526627.9, -10836.453, -0.040686604, 0.16129294, -1523721.9, -4109.6953, 0.000080840386, 9.999629, 10.000124 
1.0951145e+3, 1.5493771e+2, -1379533.9, -1383900.0, 1569.9784, -0.024049146, 0.049807917, -1379027.9, 42591.69, 0.0000043066148, 10.000211, 10.000151 
1.0951082e+3, 1.6493756e+2, -1285640.0, -1340764.1, -25828.832, -0.018856818, 0.0437037, -1275429.1, 48191.785, 0.0000000006358386, 10.00041, 9.999678 
1.0951012e+3, 1.7493826e+2, -1214254.6, -1253616.5, -30971.291, -0.030456007, 0.14447498, -1197240.0, 28375.365, 0.0, 10.00022, 9.999694 
1.09509446e+3, 1.8493804e+2, -1131154.5, -1184486.0, -22661.523, -0.028055059, 0.16360232, -1122825.9, 4792.5513, 0.0, 10.00021, 9.999501 
1.0950879e+3, 1.9493687e+2, -1005797.6, -1071828.5, -11431.39, -0.00927505, 0.092619516, -1003874.6, 25755.67, 0.0, 10.00039, 9.999516 
1.0950812e+3, 2.049362e+2, -906054.7, -1006369.8, -22777.92, -0.0020043454, 0.089311555, -901124.94, 30512.469, 0.0, 10.0005455, 9.999218 
1.095074e+3, 2.1493606e+2, -787753.1, -897054.94, -23774.59, -0.007391343, 0.15052344, -782805.75, 50833.88, 0.0, 10.000678, 9.999231 
1.09506704e+3, 2.249353e+2, -692110.3, -840172.8, -19642.105, -0.0061122235, 0.16916203, -689548.9, 46098.777, 0.0, 10.0008335, 9.998875 
1.0950602e+3, 2.3493388e+2, -567223.5, -727585.0, -19137.824, 0.0020184314, 0.13824181, -564971.2, 72690.55, 0.0, 10.001012, 9.998888 
1.09505296e+3, 2.449326e+2, -457068.53, -626932.3, -28113.463, -0.0016553549, 0.12270298, -452536.5, 87137.58, 0.0, 10.00111, 9.998859 
1.0950455e+3, 2.5493145e+2, -356277.4, -524983.6, -22451.48, -0.017259957, 0.11763452, -353340.7, 88343.96, 0.0, 10.001118, 9.998882 
1.0950384e+3, 2.6493022e+2, -266710.7, -478606.44, -8968.955, -0.015864229, 0.12911828, -266331.75, 77364.48, 0.0, 10.001266, 9.998456 
1.09503165e+3, 2.7492893e+2, -123053.63, -356250.34, -9475.787, 0.0020016846, 0.15260075, -122669.23, 123039.516, 0.0, 10.001569, 9.998477 
1.09502465e+3, 2.8492716e+2, -23427.582, -290947.22, -12304.309, 0.0056769913, 0.14198431, -22862.85, 124863.24, 0.0, 10.001723, 9.9981785 
1.0950175e+3, 2.9492486e+2, 75295.195, -190009.45, -10418.616, -0.0026359698, 0.09232971, 75703.71, 125451.89, 0.0, 10.001718, 9.998201 
1.0950105e+3, 3.049229e+2, 152596.98, -86889.78, 6441.6147, -0.0065061273, 0.057846107, 152770.13, 152770.13, 0.0, 10.001738, 9.998566 
1.0950036e+3, 3.1492278e+2, 171494.63, -65986.36, 4559.755, -0.010240006, 0.18674998, 171582.14, 171582.14, 0.0, 10.001815, 9.9986725 
1.1051354e+3, 1.2494452e+2, -1771148.3, -1760848.0, 20482.396, -0.059423514, 0.0652655, -1744878.1, -29326.754, 0.00075577793, 9.999702, 9.9998255 
1.1051285e+3, 1.3494463e+2, -1594893.6, -1667982.6, -71209.17, 0.055519756, 0.12824826, -1551399.1, 66153.75, 0.00036234639, 10.000411, 9.999455 
1.1051205e+3, 1.449446e+2, -1449457.0, -1479292.9, 5697.797, -0.03838031, 0.15132424, -1448406.0, 71147.91, 0.00009737699, 10.000452, 10.0000515 
1.1051146e+3, 1.5494381e+2, -1441628.5, -1421813.0, -7612.8564, -0.0096852835, 0.062789515, -1419226.0, 2334.3604, 0.0000060098255, 9.999821, 10.000077 
1.10510826e+3, 1.6494367e+2, -1372514.5, -1371921.3, -30547.52, -0.008063636, 0.057448898, -1341669.0, -18107.379, 0.0000000015512864, 9.99977, 9.999771 
1.1051013e+3, 1.7494425e+2, -1191665.6, -1232263.4, -18631.393, -0.03962627, 0.13596782, -1184411.4, 41145.664, 0.0, 10.000331, 9.999786 
1.1050947e+3, 1.849441e+2, -1075945.8, -1145893.4, -14200.512, -0.037303016, 0.15161517, -1073172.8, 54386.434, 0.0, 10.000538, 9.999608 
1.1050884e+3, 1.9494319e+2, -999477.8, -1056441.1, -16502.748, 0.0011054906, 0.09684246, -995042.2, 34525.863, 0.0, 10.000382, 9.999624 
1.1050818e+3, 2.049426e+2, -928563.9, -1020726.8, -27937.021, 0.011517753, 0.09803746, -920756.75, 10817.6045, 0.0, 10.000407, 9.999186 
1.1050747e+3, 2.1494234e+2, -798647.6, -906004.9, -29279.986, -0.007672266, 0.15141226, -791181.25, 42396.773, 0.0, 10.000621, 9.999197 
1.1050677e+3, 2.2494152e+2, -698386.06, -832089.2, -24199.027, -0.009137047, 0.16209939, -694141.0, 41445.426, 0.0, 10.000745, 9.998972 
1.105061e+3, 2.3494014e+2, -594452.6, -729679.0, -17367.148, 0.007894662, 0.12286382, -592257.8, 45342.105, 0.0, 10.000778, 9.998986 
1.1050541e+3, 2.4493897e+2, -478582.5, -637646.44, -26109.496, 0.0035032872, 0.11361127, -474406.4, 65204.816, 0.0, 10.000964, 9.998856 
1.1050467e+3, 2.54938e+2, -328598.5, -512104.13, -33405.8, -0.023377145, 0.13018093, -322706.4, 118913.84, 0.0, 10.00131, 9.998878 
1.10503964e+3, 2.649368e+2, -241228.17, -456891.44, -27261.9, -0.026968718, 0.13997501, -237835.38, 105796.3, 0.0, 10.0014, 9.998539 
1.1050329e+3, 2.7493536e+2, -166788.34, -367749.06, -21406.252, -0.0068346667, 0.13823909, -164533.45, 81111.945, 0.0, 10.001228, 9.998561 
1.105026e+3, 2.8493363e+2, -82959.266, -312245.88, -17450.662, -0.0020705005, 0.12553886, -81638.73, 66023.25, 0.0, 10.001284, 9.998243 
1.1050189e+3, 2.9493165e+2, 59623.3, -190460.77, -15607.13, -0.011128093, 0.09703901, 60593.54, 110274.9, 0.0, 10.001579, 9.998263 
1.1050121e+3, 3.0492955e+2, 155249.22, -87890.414, -3247.1636, -0.017615484, 0.05080291, 155292.58, 155292.58, 0.0, 10.001767, 9.998544 
1.1050054e+3, 3.1492937e+2, 178494.22, -59394.93, -11511.15, -0.02414724, 0.17235705, 179049.94, 179049.94, 0.0, 10.001852, 9.998698 
1.1151358e+3, 1.24950685e+2, -1721598.3, -1659756.8, 59592.742, -0.0006178468, 0.1319095, -1623540.4, 91952.99, 0.00085057894, 9.99971, 10.000515 
1.1151287e+3, 1.349499e+2, -1548781.3, -1570802.1, -44640.965, 0.020773659, 0.03812317, -1513813.0, 103686.44, 0.00041499882, 10.000404, 10.000126 
1.1151205e+3, 1.4495006e+2, -1478671.8, -1538130.3, -18984.736, -0.07845089, 0.068112455, -1473127.1, 46370.71, 0.00011616446, 10.0004425, 9.999653 
1.1151145e+3, 1.5495041e+2, -1469248.0, -1480696.3, -31635.79, -0.0035317205, 0.1343389, -1442822.6, -21326.344, 0.000008247579, 9.999827, 9.99967 
1.1151084e+3, 1.6495025e+2, -1349019.9, -1325674.9, -10264.127, 0.01739796, 0.13257948, -1321803.9, 1694.3044, 0.0000000033697685, 9.99978, 10.000084 
1.1151018e+3, 1.7494966e+2, -1169378.6, -1186056.0, 2109.4197, -0.022428066, 0.060754303, -1169115.9, 56387.168, 0.0, 10.00033, 10.000105 
1.1150953e+3, 1.8494952e+2, -1081382.8, -1156149.8, -21022.877, -0.03083967, 0.066116825, -1075877.0, 51627.43, 0.0, 10.000532, 9.999541 
1.11508876e+3, 1.9494988e+2, -1003825.2, -1066459.9, -23140.611, -0.005509232, 0.14384702, -996203.25, 33299.03, 0.0, 10.000385, 9.999555 
1.11508206e+3, 2.0494944e+2, -930133.06, -1025595.94, -21228.965, 0.00063194724, 0.16469948, -925625.06, 5882.5415, 0.0, 10.000413, 9.99915 
1.1150752e+3, 2.1494818e+2, -801046.4, -910971.75, -21923.18, -0.013392106, 0.12229312, -796835.4, 36685.156, 0.0, 10.000619, 9.999165 
1.1150685e+3, 2.2494717e+2, -685772.5, -805636.75, -23694.152, -0.012742892, 0.10545998, -681258.75, 54271.816, 0.0, 10.000743, 9.999155 
1.1150618e+3, 2.349464e+2, -581188.4, -702582.6, -16334.844, 0.0035368756, 0.10957189, -579028.75, 58508.73, 0.0, 10.000779, 9.999172 
1.1150551e+3, 2.4494556e+2, -490215.13, -661998.75, -13325.987, 0.00091917784, 0.13279815, -489187.53, 50358.39, 0.0, 10.000964, 9.998689 
1.1150481e+3, 2.5494465e+2, -340532.94, -537057.2, -19809.07, -0.02151627, 0.1697329, -338556.13, 102999.71, 0.0, 10.00131, 9.998707 
1.11504115e+3, 2.6494312e+2, -229139.38, -432430.44, -33349.277, -0.025378743, 0.14711891, -223808.33, 119762.18, 0.0, 10.001402, 9.998708 
1.1150341e+3, 2.7494097e+2, -155107.0, -343313.6, -27248.906, -0.010187597, 0.059624672, -151241.25, 94348.59, 0.0, 10.001226, 9.998731 
1.1150272e+3, 2.849397e+2, -78259.83, -301741.53, -5924.672, -0.013272737, 0.07842831, -78102.87, 69499.16, 0.0, 10.00128, 9.998318 
1.1150203e+3, 2.9493925e+2, 65358.0, -179585.13, -2898.3604, -0.03501529, 0.1992157, 65392.29, 114999.266, 0.0, 10.001583, 9.998338 
1.11501366e+3, 3.049369e+2, 148813.56, -102595.56, 771.84204, -0.036339324, 0.12484211, 148815.92, 148815.92, 0.0, 10.001772, 9.998442 
1.1150073e+3, 3.1493494e+2, 175080.84, -65937.04, -7027.593, -0.015201064, 0.08229575, 175285.58, 175285.58, 0.0, 10.001848, 9.998656 
1.125136e+3, 1.24956444e+2, -1592011.3, -1602593.8, 100954.55, 0.014003502, 0.11664096, -1496209.4, 219226.7, 0.00095378526, 10.000625, 10.000466 
1.12512864e+3, 1.3495567e+2, -1648001.6, -1624327.6, -68263.086, 0.015192838, 0.031325962, -1566882.8, 50559.734, 0.00047316175, 9.999748, 10.000074 
1.1251206e+3, 1.4495598e+2, -1588583.0, -1578872.0, -44496.957, -0.072914556, 0.07264895, -1538966.5, -19526.834, 0.00013752929, 9.999638, 9.999761 
1.1251146e+3, 1.5495636e+2, -1387596.4, -1429831.5, -20160.336, -0.006018044, 0.1309075, -1379518.3, 41919.227, 0.00001111389, 10.000338, 9.999774 
1.1251085e+3, 1.6495621e+2, -1255688.1, -1290941.5, 5366.877, 0.018517291, 0.12834413, -1254889.3, 68550.266, 0.0000000061074554, 10.000464, 9.999992 
1.1251022e+3, 1.7495558e+2, -1223397.0, -1222094.0, -13119.75, -0.004979385, 0.06327214, -1209609.6, 15835.704, 0.0, 10.000003, 10.000014 
1.1250957e+3, 1.8495546e+2, -1161233.8, -1188096.4, -43176.566, -0.017143236, 0.07060505, -1129447.6, -2000.8888, 0.0, 9.999957, 9.9995985 
1.125089e+3, 1.9495583e+2, -1006131.5, -1061162.3, -36339.246, -0.017010937, 0.14523773, -988065.75, 41378.137, 0.0, 10.000342, 9.999611 
1.1250824e+3, 2.0495538e+2, -910480.6, -1011752.6, -27714.629, -0.011968063, 0.1606269, -903392.25, 28056.818, 0.0, 10.00053, 9.999187 
1.1250759e+3, 2.149541e+2, -813203.8, -912464.9, -23877.53, -0.002419867, 0.11017918, -807758.75, 25703.676, 0.0, 10.000518, 9.999203 
1.1250692e+3, 2.2495314e+2, -704764.8, -810922.6, -27943.115, -0.0016548322, 0.096252136, -697858.8, 37612.895, 0.0, 10.000596, 9.999189 
1.1250625e+3, 2.3495254e+2, -580504.44, -697972.4, -32995.117, -0.009758615, 0.115331456, -571871.06, 65605.75, 0.0, 10.000767, 9.999209 
1.1250558e+3, 2.4495174e+2, -499730.16, -661998.44, -24697.809, -0.015465299, 0.1371384, -496054.3, 43430.688, 0.0, 10.000881, 9.998728 
1.1250492e+3, 2.5495067e+2, -392892.75, -557916.4, -16124.097, -0.019074835, 0.15541784, -391332.06, 50164.38, 0.0, 10.000934, 9.998744 
1.1250424e+3, 2.649492e+2, -278917.1, -451073.44, -34169.33, -0.021896308, 0.13325956, -272383.22, 71127.63, 0.0, 10.001039, 9.998754 
1.1250351e+3, 2.749473e+2, -155676.22, -338467.75, -37929.484, -0.023906304, 0.06593406, -148118.3, 97409.77, 0.0, 10.001201, 9.9987755 
1.12502836e+3, 2.849461e+2, -64215.34, -289837.1, -13648.248, -0.028164191, 0.09074432, -63392.73, 84146.45, 0.0, 10.001355, 9.9983635 
1.1250219e+3, 2.9494566e+2, 57566.816, -177994.05, -14003.757, -0.034459252, 0.20383188, 58396.4, 107940.445, 0.0, 10.001508, 9.9983835 
1.1250155e+3, 3.049431e+2, 132877.25, -120050.01, -13564.45, -0.033133723, 0.1142926, 133602.63, 133602.63, 0.0, 10.001705, 9.998353 
1.1250091e+3, 3.1494123e+2, 188185.81, -61131.895, -20277.379, -0.019495402, 0.08610158, 189824.23, 189824.23, 0.0, 10.001945, 9.998643 
1.1351363e+3, 1.2496188e+2, -1645924.0, -1712589.0, 76965.14, -0.015076285, 0.023220638, -1595383.5, 119995.43, 0.0010657869, 10.000617, 9.999715 
1.1351285e+3, 1.3496205e+2, -1699355.6, -1732283.9, -101812.945, 0.035166707, 0.105437376, -1612684.3, 4697.3687, 0.00053702114, 9.999754, 9.999332 
1.1351208e+3, 1.4496243e+2, -1546104.1, -1492675.1, -18792.799, -0.02597142, 0.16217837, -1486727.1, 32651.502, 0.00016162105, 9.999644, 10.00035 
1.1351149e+3, 1.5496175e+2, -1346187.6, -1343761.1, 6017.734, -0.017726842, 0.055099707, -1338835.6, 82547.26, 0.000014669085, 10.000337, 10.000365 
1.1351088e+3, 1.649616e+2, -1290315.9, -1362339.5, -12855.434, -0.0045983223, 0.048015352, -1288090.0, 35294.52, 0.000000009421829, 10.000462, 9.999505 
1.1351023e+3, 1.7496207e+2, -1256810.0, -1293263.9, -30977.055, 0.011263371, 0.14100389, -1239095.4, -13712.025, 0.0, 10.00001, 9.999523 
1.1350958e+3, 1.8496192e+2, -1147572.5, -1162173.4, -29741.586, 0.0017957701, 0.16153036, -1124248.5, 3137.285, 0.0, 9.999966, 9.999772 
1.13508925e+3, 1.9496113e+2, -993435.75, -1035116.3, -22411.172, -0.033310626, 0.10228181, -983672.44, 45719.594, 0.0, 10.000342, 9.99979 
1.1350828e+3, 2.0496053e+2, -903936.75, -997599.94, -29154.47, -0.026397172, 0.08831179, -895603.3, 35794.527, 0.0, 10.000526, 9.999288 
1.13507666e+3, 2.1496011e+2, -805909.94, -897947.4, -24940.416, 0.023044256, 0.11524023, -799586.06, 33817.01, 0.0, 10.000519, 9.999302 
1.1350701e+3, 2.2495948e+2, -712776.4, -828058.56, -22545.053, 0.021617144, 0.13378353, -708524.2, 26885.465, 0.0, 10.000597, 9.999072 
1.135063e+3, 2.3495863e+2, -588609.75, -715074.4, -26742.86, -0.031748954, 0.13893846, -583187.1, 54230.49, 0.0, 10.000768, 9.999092 
1.1350564e+3, 2.4495752e+2, -483008.44, -627580.2, -22902.156, -0.045170978, 0.1255761, -479467.16, 59961.125, 0.0, 10.000881, 9.998964 
1.1350502e+3, 2.5495613e+2, -376536.72, -523210.47, -13822.27, -0.017862115, 0.08803735, -375245.5, 66196.266, 0.0, 10.00093, 9.998985 
1.1350434e+3, 2.6495507e+2, -284755.7, -462099.7, -27581.387, -0.018832175, 0.099952556, -280565.13, 62887.176, 0.0, 10.001034, 9.998681 
1.1350361e+3, 2.7495438e+2, -160137.52, -348889.72, -30482.035, -0.048444938, 0.1576815, -155336.98, 90122.75, 0.0, 10.001205, 9.998703 
1.1350296e+3, 2.8495294e+2, -63425.523, -290215.34, -7451.574, -0.046665285, 0.1625581, -63180.953, 84292.27, 0.0, 10.001362, 9.998358 
1.1350235e+3, 2.949508e+2, 56540.59, -179231.0, -7411.8315, -0.012467146, 0.10841947, 56773.363, 106266.2, 0.0, 10.001503, 9.998379 
1.13501735e+3, 3.049482e+2, 127962.74, -128074.37, -3830.1353, -0.011491821, 0.017403254, 128020.03, 128020.03, 0.0, 10.001695, 9.998303 
1.135011e+3, 3.1494832e+2, 192709.63, -53304.07, -8976.152, -0.039967295, 0.19465151, 193036.7, 193036.7, 0.0, 10.00195, 9.998694 
1.1451366e+3, 1.2496762e+2, -1721583.0, -1758232.0, 45116.973, -0.0286853, 0.005942224, -1691211.3, 24110.3, 0.001186206, 10.000139, 9.999631 
1.1451285e+3, 1.3496788e+2, -1604934.5, -1693708.5, -94642.21, 0.02622805, 0.10478283, -1544787.5, 72536.41, 0.00060623896, 10.000431, 9.999271 
1.145121e+3, 1.4496839e+2, -1442741.5, -1442019.8, 7901.342, -0.0028151812, 0.17485987, -1434471.0, 84849.23, 0.00018835878, 10.000351, 10.000357 
1.1451151e+3, 1.5496752e+2, -1407924.3, -1372864.4, -10746.655, -0.0072607514, 0.05001492, -1369832.5, 51493.746, 0.000018936791, 9.999911, 10.00037 
1.1451089e+3, 1.6496736e+2, -1374122.4, -1407334.9, -38889.84, -0.0038789464, 0.04272559, -1348441.6, -25113.447, 0.000000013934886, 9.999907, 9.999463 
1.1451025e+3, 1.7496796e+2, -1209623.1, -1275457.0, -24346.346, 0.006017106, 0.15374118, -1201597.9, 23728.07, 0.0, 10.000355, 9.999479 
1.14509605e+3, 1.8496777e+2, -1075373.5, -1130047.1, -10696.114, 0.0015193237, 0.17472945, -1073355.4, 53973.336, 0.0, 10.000475, 9.999747 
1.1450896e+3, 1.949668e+2, -1006896.4, -1044193.9, -19109.582, -0.01771153, 0.098091565, -998844.0, 30493.059, 0.0, 10.000263, 9.999766 
1.1450832e+3, 2.0496617e+2, -945183.94, -1016547.94, -36306.645, -0.013033208, 0.08380118, -929960.4, 1382.5952, 0.0, 10.00024, 9.999294 
1.14507705e+3, 2.1496594e+2, -821334.2, -904048.94, -39532.156, 0.015265579, 0.12837264, -805479.44, 27866.992, 0.0, 10.00041, 9.999312 
1.1450706e+3, 2.2496535e+2, -716245.6, -822354.94, -31893.607, 0.009198132, 0.14715873, -707397.2, 27955.332, 0.0, 10.000544, 9.999135 
1.1450637e+3, 2.3496439e+2, -602504.06, -714801.06, -23067.025, -0.032345854, 0.13422327, -597950.44, 39410.79, 0.0, 10.000644, 9.999153 
1.14505716e+3, 2.4496327e+2, -510910.78, -634342.56, -24634.605, -0.04252899, 0.11522631, -506175.84, 33195.84, 0.0, 10.000662, 9.999023 
1.1450509e+3, 2.5496203e+2, -420145.0, -537480.44, -30154.26, -0.02042074, 0.08536365, -412849.22, 28534.479, 0.0, 10.000602, 9.999044 
1.1450442e+3, 2.6496106e+2, -322860.88, -482655.28, -37606.234, -0.024255076, 0.104460485, -314452.97, 28940.512, 0.0, 10.000782, 9.998661 
1.1450373e+3, 2.749604e+2, -161124.3, -351500.2, -37207.176, -0.055233024, 0.16859013, -154110.88, 91290.03, 0.0, 10.001209, 9.998682 
1.14503086e+3, 2.8495893e+2, -64137.035, -290209.88, -23174.418, -0.050187577, 0.16852379, -61785.906, 85629.03, 0.0, 10.001357, 9.99836 
1.14502504e+3, 2.949566e+2, 14808.587, -199702.95, -22603.096, -0.006945803, 0.0975008, 17164.404, 66600.17, 0.0, 10.001218, 9.998376 
1.1450189e+3, 3.0495396e+2, 85269.97, -154598.69, -3241.4438, -0.011651386, 0.0018135915, 85313.766, 85313.766, 0.0, 10.001429, 9.998249 
1.1450127e+3, 3.149544e+2, 205954.0, -38572.887, -11910.413, -0.05894073, 0.2206983, 206532.77, 206532.77, 0.0, 10.002009, 9.998766 
1.15513675e+3, 1.2497371e+2, -1684763.9, -1679316.9, 63634.266, -0.030721826, 0.061300505, -1618347.8, 96915.38, 0.0013141764, 10.000129, 10.000177 
1.1551286e+3, 1.3497329e+2, -1564291.3, -1608601.5, -84017.5, -0.0120057445, 0.032509707, -1499556.9, 117711.76, 0.0006802459, 10.000427, 9.999858 
1.1551213e+3, 1.4497392e+2, -1481248.4, -1522964.9, -9836.036, -0.003233719, 0.1147884, -1479045.5, 40218.086, 0.00021757523, 10.000354, 9.999802 
1.1551152e+3, 1.5497373e+2, -1446253.1, -1454240.4, -27631.521, 0.02329454, 0.11354519, -1422328.1, -1061.354, 0.000023929451, 9.999918, 9.999809 
1.155109e+3, 1.6497353e+2, -1345989.9, -1350871.8, -22695.793, 0.017938288, 0.11001647, -1325604.1, -2334.2615, 0.000000023716384, 9.999914, 9.999847 
1.15510255e+3, 1.7497334e+2, -1182659.1, -1219039.5, -7905.66, -0.020557156, 0.103753895, -1181015.5, 44256.805, 0.0, 10.000353, 9.999868 
1.1550963e+3, 1.8497312e+2, -1091792.3, -1163645.9, -19471.928, -0.017868249, 0.113313995, -1086854.8, 40420.348, 0.0, 10.000471, 9.999519 
1.1550903e+3, 1.9497286e+2, -1022065.94, -1077212.5, -27626.111, 0.026961612, 0.13144177, -1010607.3, 18671.133, 0.0, 10.000268, 9.999537 
1.15508385e+3, 2.0497236e+2, -950326.5, -1029061.0, -30998.49, 0.024991117, 0.1447878, -939587.0, -8302.847, 0.0, 10.000248, 9.999206 
1.155077e+3, 2.1497162e+2, -827010.1, -916376.44, -33748.266, -0.024519764, 0.14873306, -815697.5, 17594.607, 0.0, 10.000411, 9.999228 
1.1550706e+3, 2.2497079e+2, -699732.2, -787979.5, -28896.63, -0.03752407, 0.13630913, -691112.0, 44187.8, 0.0, 10.000543, 9.9993725 
1.15506455e+3, 2.3496987e+2, -585946.5, -680416.06, -19505.563, -0.013644021, 0.10244104, -582077.5, 55229.773, 0.0, 10.000642, 9.999391 
1.1550581e+3, 2.4496904e+2, -519765.1, -652508.0, -27119.166, -0.010451842, 0.10729504, -514438.44, 24876.314, 0.0, 10.00066, 9.9989 
1.1550514e+3, 2.5496837e+2, -427990.88, -555156.0, -32019.67, -0.027420752, 0.14625207, -420383.53, 20938.523, 0.0, 10.000607, 9.998921 
1.15504496e+3, 2.6496714e+2, -320696.66, -479876.2, -21378.775, -0.03880075, 0.14473204, -317875.34, 25458.982, 0.0, 10.000789, 9.998677 
1.15503855e+3, 2.749654e+2, -160542.8, -349319.16, -20669.188, -0.04625231, 0.097943045, -158306.22, 87045.33, 0.0, 10.0012045, 9.9987 
1.1550324e+3, 2.8496405e+2, -63219.184, -286363.9, -27514.07, -0.040792853, 0.10927403, -59876.727, 87487.41, 0.0, 10.0013485, 9.998391 
1.1550261e+3, 2.949631e+2, 17668.771, -195377.0, -25774.113, -0.02052638, 0.17277566, 20742.557, 70114.83, 0.0, 10.0012245, 9.998403 
1.15502015e+3, 3.0496034e+2, 78891.97, -170514.6, 19152.313, -0.035801265, 0.06848309, 80354.13, 80354.13, 0.0, 10.001438, 9.9981365 
1.15501456e+3, 3.1495947e+2, 208342.45, -33810.996, 10858.097, -0.07920933, 0.1666947, 208828.36, 208828.36, 0.0, 10.0020075, 9.998801 
1.16513684e+3, 1.249794e+2, -1677951.3, -1659755.4, 80891.22, -0.027776763, 0.071795, -1587452.0, 127755.29, 0.0014487223, 10.000107, 10.000323 
1.16512865e+3, 1.3497865e+2, -1608668.9, -1606775.1, -101244.984, -0.024766605, -0.008670145, -1506472.6, 110741.766, 0.0007585872, 10.000022, 10.000066 
1.1651217e+3, 1.4497945e+2, -1526469.1, -1556018.1, -31077.91, 0.011518146, 0.08251221, -1506832.5, 12375.425, 0.00024917058, 10.0000925, 9.9997 
1.1651154e+3, 1.5497963e+2, -1392421.1, -1440300.8, -16172.864, 0.019429203, 0.1290432, -1387470.1, 33738.805, 0.000029664654, 10.000339, 9.999702 
1.1651091e+3, 1.6497943e+2, -1280270.9, -1310249.9, 1138.3297, 0.013114209, 0.12854752, -1280227.8, 42984.344, 0.00000004774233, 10.000328, 9.999927 
1.1651029e+3, 1.749789e+2, -1218979.5, -1227633.0, -7541.2583, -0.0064654555, 0.079128526, -1214612.0, 10604.936, 0.0, 10.000066, 9.999947 
1.1650968e+3, 1.8497865e+2, -1155371.9, -1207139.1, -26608.146, -0.0010480691, 0.087842986, -1144134.6, -16914.555, 0.0, 10.000091, 9.999404 
1.1650907e+3, 1.949787e+2, -1009138.6, -1083690.8, -26699.246, 0.028161572, 0.14915116, -1000563.25, 28658.426, 0.0, 10.000412, 9.999423 
1.16508424e+3, 2.0497826e+2, -904419.6, -1002121.44, -21238.627, 0.01889194, 0.17173304, -900002.44, 31224.658, 0.0, 10.000544, 9.999247 
1.16507754e+3, 2.1497731e+2, -812938.2, -905088.0, -15153.369, -0.028943758, 0.14969373, -810510.3, 22725.975, 0.0, 10.000489, 9.999267 
1.16507106e+3, 2.2497636e+2, -716845.75, -806791.44, -17624.488, -0.037872937, 0.12789471, -713515.56, 21729.463, 0.0, 10.000471, 9.999277 
1.1650652e+3, 2.349754e+2, -614640.25, -704431.44, -34073.65, -0.0074525997, 0.10216319, -603174.25, 34079.03, 0.0, 10.000491, 9.999297 
1.1650588e+3, 2.4497464e+2, -522449.13, -654878.1, -47666.094, -0.0075822123, 0.1163524, -507076.75, 32183.723, 0.0, 10.0006485, 9.998889 
1.165052e+3, 2.5497404e+2, -380066.28, -533236.6, -44551.23, -0.039145675, 0.1649177, -368050.66, 73215.97, 0.0, 10.000943, 9.998909 
1.1650458e+3, 2.6497266e+2, -292737.28, -472154.13, -32504.365, -0.043218963, 0.15067302, -287030.1, 56250.145, 0.0, 10.001006, 9.998625 
1.1650399e+3, 2.749705e+2, -217764.7, -383089.9, -37480.52, -0.019567134, 0.06934858, -209664.45, 35636.766, 0.0, 10.000838, 9.998645 
1.1650336e+3, 2.8496924e+2, -110250.445, -300236.16, -43427.41, -0.02539348, 0.088737175, -100794.35, 46518.543, 0.0, 10.000988, 9.998469 
1.16502695e+3, 2.9496887e+2, 57550.117, -167283.83, -39831.45, -0.06037932, 0.20222948, 64398.06, 113713.54, 0.0, 10.001462, 9.998481 
1.1650212e+3, 3.04966e+2, 90333.97, -165082.3, 8313.773, -0.0709004, 0.08297524, 90604.3, 90604.3, 0.0, 10.001519, 9.998134 
1.16501644e+3, 3.1496456e+2, 93781.61, -71792.14, 9379.73, -0.04424201, 0.122867234, 94311.27, 94311.27, 0.0, 10.001147, 9.998955 
1.17513694e+3, 1.2498479e+2, -1694125.8, -1694663.5, 80044.13, -0.022206172, 0.041401308, -1614350.0, 100802.97, 0.001589411, 10.000112, 10.000082 
1.1751288e+3, 1.349841e+2, -1618890.4, -1628734.4, -104768.51, -0.014458022, -0.019561762, -1518928.3, 98232.125, 0.0008411694, 10.000023, 9.999916 
1.17512204e+3, 1.4498504e+2, -1503522.0, -1508544.6, -22606.146, 0.039409377, 0.07749954, -1483288.1, 35864.48, 0.0002831922, 10.0000925, 10.000026 
1.1751153e+3, 1.549853e+2, -1369372.6, -1392132.6, -7300.348, -0.01854468, 0.09865585, -1367232.4, 53919.7, 0.000036181405, 10.000338, 10.000033 
1.17510915e+3, 1.6498516e+2, -1295641.8, -1343354.0, -9594.656, -0.018477831, 0.10035848, -1293784.6, 29369.637, 0.00000010132158, 10.000331, 9.999699 
1.1751035e+3, 1.7498468e+2, -1233763.1, -1260360.1, -17898.117, 0.045609344, 0.079028875, -1224763.9, 395.35806, 0.0, 10.0000725, 9.99972 
1.1750974e+3, 1.8498442e+2, -1154849.8, -1207872.1, -15620.673, 0.048553802, 0.097711176, -1150590.0, -23426.822, 0.0, 10.000097, 9.999395 
1.1750907e+3, 1.9498439e+2, -1009583.6, -1084767.8, -15224.538, -0.012404102, 0.15208545, -1006617.7, 22548.457, 0.0, 10.000412, 9.999415 
1.17508434e+3, 2.0498393e+2, -893156.06, -978962.94, -24288.113, -0.029577548, 0.16570386, -886758.2, 44413.086, 0.0, 10.000544, 9.999406 
1.1750782e+3, 2.1498303e+2, -801340.75, -881706.44, -17920.389, -0.0010331095, 0.13163581, -797525.9, 35652.734, 0.0, 10.000491, 9.999427 
1.17507204e+3, 2.2498207e+2, -746584.94, -869400.0, -17934.623, 0.004264113, 0.122100644, -744019.56, -8831.676, 0.0, 10.000474, 9.998847 
1.17506556e+3, 2.3498105e+2, -643824.44, -766350.56, -33689.4, -0.013612151, 0.1322578, -635172.3, 2026.629, 0.0, 10.000495, 9.998871 
1.1750592e+3, 2.4498005e+2, -515366.44, -640934.3, -36929.62, -0.033520617, 0.14095534, -505310.7, 33897.977, 0.0, 10.00065, 9.998984 
1.1750528e+3, 2.549791e+2, -373663.63, -519379.94, -33186.16, -0.056259573, 0.1421712, -366461.63, 74755.49, 0.0, 10.000939, 9.999006 
1.1750468e+3, 2.6497766e+2, -301253.97, -489339.28, -38307.445, -0.03825877, 0.12390209, -293751.16, 49479.63, 0.0, 10.001002, 9.998509 
1.1750411e+3, 2.749758e+2, -225375.81, -399895.38, -42558.9, 0.02133381, 0.08283519, -215550.44, 29699.117, 0.0, 10.000841, 9.9985285 
1.1750348e+3, 2.8497455e+2, -103398.7, -287229.16, -25002.639, -0.008220446, 0.10575139, -100058.8, 47202.277, 0.0, 10.000992, 9.998557 
1.17502786e+3, 2.9497394e+2, 63658.266, -154126.94, -21457.158, -0.12717952, 0.1843131, 65752.19, 115017.84, 0.0, 10.001458, 9.998573 
1.17502235e+3, 3.0497095e+2, 100298.44, -143487.31, -4739.522, -0.11669586, 0.044543114, 100390.55, 100390.55, 0.0, 10.001514, 9.998285 
1.1750184e+3, 3.1496978e+2, 117107.75, -24445.324, -1894.7329, 0.04006712, 0.094899096, 117133.11, 117133.11, 0.0, 10.001151, 9.999278 
1.1851373e+3, 1.24990396e+2, -1680213.9, -1699931.3, 90144.914, -0.0074255737, 0.0200639, -1599390.1, 115707.11, 0.0017368259, 10.00026, 9.999972 
1.1851288e+3, 1.3498993e+2, -1597383.0, -1619701.4, -86825.66, -0.02787236, -0.015715059, -1521002.4, 96100.11, 0.00092832, 10.000176, 9.999904 
1.1851223e+3, 1.4499088e+2, -1494612.4, -1507764.9, -2940.121, 0.058230877, 0.08481942, -1493985.1, 25109.494, 0.0003198089, 10.000171, 9.999992 
1.1851157e+3, 1.5499082e+2, -1384749.1, -1403260.0, -14965.378, -0.009797549, 0.07871759, -1376408.4, 44688.824, 0.0000435681, 10.000249, 9.999998 
1.1851095e+3, 1.6499066e+2, -1301224.1, -1352932.1, -33785.74, -0.015621425, 0.07973054, -1284535.1, 38565.086, 0.00000019883093, 10.000323, 9.999637 
1.1851037e+3, 1.7499039e+2, -1190181.1, -1245839.0, -30242.041, 0.04860571, 0.08590227, -1176912.3, 48190.83, 0.0, 10.0004015, 9.9996605 
1.1850976e+3, 1.8499012e+2, -1109984.1, -1186500.1, -13397.334, 0.049435705, 0.108128354, -1107706.3, 19400.723, 0.0, 10.000408, 9.999392 
1.1850911e+3, 1.9498989e+2, -1019080.94, -1089753.6, -13380.132, -0.0165904, 0.14079851, -1016632.56, 12479.276, 0.0, 10.000349, 9.999412 
1.1850848e+3, 2.0498928e+2, -919116.75, -1005221.5, -34154.043, -0.029765267, 0.14804982, -907214.56, 23903.7, 0.0, 10.000424, 9.999283 
1.18507884e+3, 2.1498837e+2, -788656.44, -888611.25, -49200.797, 0.011409524, 0.12401381, -768502.1, 64624.01, 0.0, 10.000636, 9.999309 
1.18507266e+3, 2.2498743e+2, -712791.2, -861125.06, -48880.41, 0.013365858, 0.12509875, -698132.3, 37003.25, 0.0, 10.000743, 9.998774 
1.185066e+3, 2.3498644e+2, -612753.2, -759537.6, -38742.367, -0.024881614, 0.14571697, -603155.1, 33991.324, 0.0, 10.000745, 9.998797 
1.18505985e+3, 2.4498531e+2, -508462.03, -646506.94, -30836.979, -0.043718465, 0.14848767, -501886.75, 37270.79, 0.0, 10.000737, 9.998903 
1.1850538e+3, 2.5498405e+2, -410550.03, -546091.3, -41333.4, -0.042655233, 0.12785436, -398939.88, 42228.965, 0.0, 10.000726, 9.998925 
1.1850477e+3, 2.6498264e+2, -324495.8, -497763.63, -52333.203, -0.030354943, 0.114489675, -309916.1, 33266.15, 0.0, 10.000833, 9.998533 
1.18504174e+3, 2.7498108e+2, -192290.4, -381030.34, -47243.21, -0.0077760653, 0.104314014, -181125.5, 64072.195, 0.0, 10.001058, 9.998553 
1.1850356e+3, 2.8497982e+2, -91393.77, -280273.5, -23270.691, -0.027478993, 0.12241484, -88568.98, 58640.4, 0.0, 10.001071, 9.998566 
1.18502945e+3, 2.9497883e+2, -20688.582, -194046.58, -25372.596, -0.08792835, 0.16121808, -17051.373, 32166.156, 0.0, 10.000876, 9.998578 
1.1850239e+3, 3.049758e+2, 18606.125, -172795.39, -21531.693, -0.08064563, 0.0151651, 20998.428, 20998.428, 0.0, 10.000911, 9.998374 
1.1850194e+3, 3.1497496e+2, 138399.61, 17080.34, -26546.361, 0.014491197, 0.090763, 143954.03, 143954.03, 0.0, 10.0011635, 9.999557 
1.1951378e+3, 1.2499625e+2, -1680682.1, -1698618.6, 85670.59, 0.013493233, 0.0056232098, -1603511.6, 111527.87, 0.0018922538, 10.000251, 9.999986 
1.19512856e+3, 1.3499624e+2, -1588767.0, -1602566.8, -90249.984, -0.06531135, 0.002859043, -1505153.5, 111886.234, 0.00102056, 10.000179, 10.00002 
1.1951225e+3, 1.4499708e+2, -1520257.0, -1563557.8, -782.5849, 0.06683711, 0.10463213, -1520242.9, -1209.6135, 0.0003592124, 10.000179, 9.999606 
1.1951165e+3, 1.5499632e+2, -1411182.9, -1459973.1, -12324.803, 0.04300633, 0.068994276, -1408246.3, 12797.517, 0.00005194898, 10.000255, 9.999607 
1.1951101e+3, 1.6499597e+2, -1294015.3, -1339161.9, -31443.744, 0.018720223, 0.06765337, -1277881.1, 45167.68, 0.00000035173326, 10.000328, 9.999729 
1.19510375e+3, 1.7499606e+2, -1182592.8, -1231169.6, -27671.307, 0.0039975354, 0.099687025, -1170062.4, 54985.426, 0.0, 10.000405, 9.99976 
1.1950976e+3, 1.8499582e+2, -1109618.5, -1187468.5, -16388.768, 0.002615537, 0.11811103, -1106309.1, 20741.635, 0.0, 10.000414, 9.999382 
1.1950917e+3, 1.9499521e+2, -1018641.7, -1090460.3, -16298.397, 0.012623434, 0.11504836, -1015116.06, 13942.104, 0.0, 10.000355, 9.999405 
1.1950857e+3, 2.0499438e+2, -946735.0, -1063582.6, -27202.346, 0.014371534, 0.119791366, -940712.6, -9645.283, 0.0, 10.000428, 9.998881 
1.19507946e+3, 2.1499337e+2, -816362.75, -946954.7, -41837.934, 0.009119473, 0.1272066, -804108.9, 28969.387, 0.0, 10.000638, 9.998908 
1.1950733e+3, 2.2499245e+2, -693041.7, -820926.1, -49426.504, -0.009512449, 0.13673438, -676165.7, 58921.957, 0.0, 10.000745, 9.999048 
1.19506665e+3, 2.349916e+2, -593203.5, -719445.1, -38816.57, -0.04187212, 0.14288712, -582223.25, 54872.16, 0.0, 10.000746, 9.999072 
1.1950605e+3, 2.4499042e+2, -526679.25, -685022.4, -31556.29, -0.03963942, 0.13970649, -520622.06, 18484.66, 0.0, 10.000738, 9.998639 
1.19505495e+3, 2.549889e+2, -428595.97, -584252.6, -41342.477, -0.0014495013, 0.121337116, -418296.84, 22824.744, 0.0, 10.000727, 9.998664 
1.1950487e+3, 2.649876e+2, -314403.7, -477253.56, -43419.33, -0.022635195, 0.12106055, -303550.47, 39584.055, 0.0, 10.0008335, 9.998674 
1.1950418e+3, 2.749864e+2, -182203.88, -360242.7, -38251.957, -0.10505025, 0.13379449, -174333.31, 70812.33, 0.0, 10.001058, 9.998696 
1.1950361e+3, 2.8498504e+2, -94627.21, -287327.8, -30020.25, -0.08157977, 0.13941033, -90058.75, 57098.95, 0.0, 10.001072, 9.998517 
1.1950316e+3, 2.9498357e+2, -25061.607, -202584.2, -31003.65, 0.05016905, 0.1327028, -19802.725, 29368.1, 0.0, 10.000874, 9.998522 
1.1950259e+3, 3.0498055e+2, 16199.46, -177564.52, -11013.275, 0.029214252, -0.005857901, 16823.43, 16823.43, 0.0, 10.000909, 9.998343 
1.1950192e+3, 3.149802e+2, 150561.53, 41344.36, -15658.299, -0.120128594, 0.11600801, 152762.1, 152762.1, 0.0, 10.001166, 9.9997225 
1.20513804e+3, 1.2500231e+2, -1707945.1, -1716927.9, 87938.875, 0.026204724, 0.017255614, -1624383.0, 90596.74, 0.0020569195, 10.000087, 9.999938 
1.2051288e+3, 1.3500212e+2, -1542210.3, -1576236.5, -92011.07, -0.080993935, -0.0051105185, -1465652.6, 151328.83, 0.0011183886, 10.000483, 10.000054 
1.20512314e+3, 1.4500283e+2, -1471991.0, -1557720.0, -5061.501, 0.08501536, 0.08989611, -1471693.3, 47282.957, 0.00040151636, 10.000587, 9.999449 
1.20511696e+3, 1.550021e+2, -1400899.3, -1472315.3, -326.86633, 0.053203482, 0.07142593, -1400897.8, 20089.09, 0.000061428385, 10.000402, 9.99945 
1.2051105e+3, 1.6500168e+2, -1280977.1, -1336471.6, -6886.2944, 0.017708402, 0.07260979, -1280135.4, 42857.28, 0.00000057087306, 10.000435, 9.999695 
1.20510414e+3, 1.7500159e+2, -1143491.6, -1216523.6, -13541.862, -0.008885826, 0.09111415, -1141061.5, 83931.8, 0.0, 10.000692, 9.999721 
1.2050981e+3, 1.8500125e+2, -1065325.9, -1180562.9, -20502.426, -0.003557559, 0.108360544, -1061786.9, 65210.46, 0.0, 10.000781, 9.999253 
1.2050924e+3, 1.9500062e+2, -978350.44, -1084785.1, -29732.43, 0.030131478, 0.11736823, -970607.94, 58396.926, 0.0, 10.000692, 9.99928 
1.2050863e+3, 2.0499973e+2, -921178.3, -1061546.6, -26659.203, 0.029566988, 0.12480502, -916285.6, 14729.295, 0.0, 10.000649, 9.998788 
1.2050801e+3, 2.1499857e+2, -820719.0, -959615.0, -19042.908, -0.0041548763, 0.12536867, -818155.5, 14872.1455, 0.0, 10.000654, 9.998813 
1.20507374e+3, 2.249975e+2, -700303.3, -830016.94, -29046.03, -0.024217939, 0.1312832, -694096.2, 40941.918, 0.0, 10.000719, 9.998999 
1.2050675e+3, 2.3499662e+2, -581433.4, -718737.94, -43430.7, -0.030608147, 0.13746244, -568849.2, 68197.12, 0.0, 10.000849, 9.999026 
1.2050615e+3, 2.4499545e+2, -505080.4, -677510.94, -42684.09, -0.025782704, 0.13847315, -495092.75, 43964.77, 0.0, 10.000901, 9.998611 
1.20505564e+3, 2.5499398e+2, -409326.7, -577511.56, -35536.473, -0.009461978, 0.12729257, -402126.3, 38945.51, 0.0, 10.000872, 9.998639 
1.20504946e+3, 2.649926e+2, -310384.63, -473157.5, -28521.018, -0.03398381, 0.123248875, -305531.84, 37553.137, 0.0, 10.0008545, 9.998692 
1.2050428e+3, 2.749913e+2, -210082.4, -371357.78, -32886.26, -0.1001079, 0.12213197, -203634.25, 41462.754, 0.0, 10.000857, 9.998716 
1.2050371e+3, 2.8498998e+2, -127679.39, -302188.75, -36617.05, -0.07506219, 0.1271371, -120307.5, 26801.432, 0.0, 10.000841, 9.998526 
1.2050323e+3, 2.9498857e+2, -36429.117, -207177.16, -35030.48, 0.042832475, 0.13204427, -29521.73, 19599.26, 0.0, 10.000793, 9.998528 
1.2050266e+3, 3.049857e+2, -6667.0737, -199865.84, -3822.1406, 0.022363814, 0.004644042, -6591.4883, -6591.4883, 0.0, 10.000802, 9.99824 
1.2050204e+3, 3.1498504e+2, 112579.195, 33032.508, -12509.528, -0.1061327, 0.112300634, 114500.06, 114500.06, 0.0, 10.000864, 9.99981 
1.2151382e+3, 1.2500863e+2, -1715375.8, -1734152.4, 94569.98, 0.028282939, 0.055177853, -1629729.3, 85188.055, 0.0022312584, 10.0000925, 9.999818 
1.2151293e+3, 1.3500768e+2, -1545590.8, -1584308.4, -77659.66, -0.07726614, -0.03908416, -1484913.4, 132013.3, 0.0012220372, 10.000485, 9.999998 
1.21512406e+3, 1.4500824e+2, -1467319.0, -1548493.6, -12902.954, 0.11049443, 0.041794114, -1465317.4, 53605.188, 0.0004466493, 10.000588, 9.999512 
1.215117e+3, 1.550082e+2, -1394937.8, -1461856.0, -7491.568, 0.021992452, 0.08516102, -1394109.4, 26816.477, 0.00007201624, 10.000409, 9.999519 
1.2151106e+3, 1.650078e+2, -1292108.3, -1361642.1, 1859.6925, -0.018443955, 0.092746474, -1292058.5, 30872.863, 0.0000008702971, 10.0004425, 9.999518 
1.215105e+3, 1.7500703e+2, -1155802.4, -1242836.4, -4379.6377, 0.0076141055, 0.061001394, -1155582.5, 69356.69, 0.0, 10.000694, 9.99954 
1.21509925e+3, 1.850065e+2, -1082657.3, -1216535.5, -24732.373, 0.027702173, 0.0814339, -1078234.3, 48711.53, 0.0, 10.000779, 9.999007 
1.2150931e+3, 1.950062e+2, -994590.1, -1120036.4, -33420.887, 0.036350783, 0.14742334, -986241.9, 42709.43, 0.0, 10.000698, 9.999036 
1.2150869e+3, 2.0500536e+2, -905888.3, -1031987.9, -27449.975, 0.016384002, 0.16120782, -900172.0, 30788.668, 0.0, 10.000657, 9.998987 
1.2150805e+3, 2.1500394e+2, -806242.1, -930223.2, -19519.322, -0.029525748, 0.11772989, -803241.6, 29732.326, 0.0, 10.000655, 9.999015 
1.2150744e+3, 2.2500268e+2, -726501.6, -884798.44, -24985.205, -0.032463606, 0.10904879, -722651.6, 12335.037, 0.0, 10.000719, 9.998623 
1.21506885e+3, 2.3500153e+2, -607346.9, -773364.0, -38617.426, 0.007279499, 0.12976493, -598803.7, 38195.1, 0.0, 10.000852, 9.9986515 
1.2150626e+3, 2.450004e+2, -490351.8, -647774.06, -43867.465, -0.0035404111, 0.14457569, -478953.03, 60056.57, 0.0, 10.000903, 9.998816 
1.2150559e+3, 2.5499928e+2, -394448.03, -547583.44, -36193.246, -0.06535167, 0.14615145, -386324.75, 54694.566, 0.0, 10.0008745, 9.998844 
1.2150499e+3, 2.6499775e+2, -317462.66, -488827.78, -28085.326, -0.06379352, 0.121954195, -312977.13, 30056.271, 0.0, 10.000856, 9.998583 
1.2150447e+3, 2.7499586e+2, -218042.14, -387254.03, -31707.18, 0.000870723, 0.069014736, -212295.94, 32755.734, 0.0, 10.000854, 9.998609 
1.2150386e+3, 2.8499457e+2, -125451.18, -297287.88, -37520.777, -0.014052518, 0.08460004, -117615.75, 29447.371, 0.0, 10.000838, 9.998561 
1.21503174e+3, 2.949939e+2, -32968.855, -201709.39, -36277.11, -0.10697924, 0.1588945, -25500.291, 23568.014, 0.0, 10.000799, 9.998563 
1.2150262e+3, 3.0499113e+2, -15544.072, -219717.9, -690.5341, -0.09858858, 0.047396455, -15541.737, -15541.737, 0.0, 10.000807, 9.998101 
1.2150227e+3, 3.1498966e+2, 114262.34, 38490.344, -7376.0024, 0.046993338, 0.08457207, 114973.68, 114973.68, 0.0, 10.000855, 9.999852 
1.2251387e+3, 1.2501432e+2, -1665667.5, -1727270.0, 91855.625, 0.044729076, 0.029627994, -1599586.5, 115273.86, 0.002414319, 10.000511, 9.999661 
1.2251297e+3, 1.3501352e+2, -1580549.1, -1611492.0, -74739.984, -0.08511508, -0.037108585, -1519696.1, 97172.695, 0.0013311396, 10.000292, 9.999904 
1.2251246e+3, 1.45014e+2, -1485722.4, -1551276.6, -8408.912, 0.12260396, 0.036609992, -1484661.0, 34204.48, 0.0004943066, 10.000439, 9.999563 
1.22511744e+3, 1.5501381e+2, -1314588.3, -1417752.6, -5729.556, -0.0016343879, 0.05991973, -1314271.0, 106598.33, 0.000083587045, 10.000939, 9.999565 
1.2251111e+3, 1.6501337e+2, -1226299.4, -1354187.4, -7501.0767, -0.04266386, 0.07217241, -1225860.9, 97014.57, 0.0000012652538, 10.0009985, 9.999301 
1.2251058e+3, 1.750127e+2, -1183255.6, -1279357.8, -16903.611, 0.021993624, 0.07112619, -1180369.1, 44514.527, 0.0, 10.000608, 9.99933 
1.2251e+3, 1.850121e+2, -1114204.8, -1233179.8, -22151.203, 0.044113558, 0.09672962, -1110214.4, 16676.834, 0.0, 10.000571, 9.998992 
1.22509375e+3, 1.9501159e+2, -966932.8, -1108307.5, -14493.829, 0.015505254, 0.14138398, -965462.2, 63436.258, 0.0, 10.0008955, 9.999021 
1.2250875e+3, 2.0501067e+2, -854258.25, -1011513.56, -14586.418, -0.006481743, 0.15167919, -852916.75, 77991.62, 0.0, 10.001032, 9.998947 
1.2250814e+3, 2.1500936e+2, -761987.94, -912687.7, -24877.816, -0.01805776, 0.12264425, -757987.25, 74933.42, 0.0, 10.000977, 9.99898 
1.2250754e+3, 2.2500809e+2, -698580.9, -879844.6, -24495.52, -0.015264379, 0.11909123, -695328.94, 39604.555, 0.0, 10.00095, 9.998545 
1.2250696e+3, 2.3500684e+2, -598768.5, -777765.94, -16955.455, 0.00083843945, 0.13572256, -597176.56, 39770.242, 0.0, 10.000948, 9.998573 
1.2250635e+3, 2.4500556e+2, -490339.16, -654353.25, -24515.564, -0.016086293, 0.1439356, -486753.16, 52205.83, 0.0, 10.000933, 9.998755 
1.2250569e+3, 2.5500432e+2, -392276.97, -552647.6, -37233.426, -0.06640012, 0.13739826, -384054.06, 56915.977, 0.0, 10.000917, 9.998788 
1.2250509e+3, 2.6500276e+2, -319878.0, -491802.6, -37597.83, -0.05652774, 0.116020955, -312015.4, 30968.742, 0.0, 10.00085, 9.998565 
1.2250456e+3, 2.7500096e+2, -239537.58, -399327.3, -35731.473, 0.013660072, 0.07548046, -231911.44, 13089.828, 0.0, 10.000714, 9.998591 
1.22503944e+3, 2.8499964e+2, -141283.58, -302012.25, -33345.27, -0.008933862, 0.085077316, -134640.25, 12372.913, 0.0, 10.000719, 9.998585 
1.22503236e+3, 2.9499876e+2, -20186.348, -192962.73, -33113.13, -0.123460636, 0.13671449, -14057.519, 34962.727, 0.0, 10.000877, 9.998585 
1.22502685e+3, 3.0499616e+2, -27236.89, -222516.67, -3240.1543, -0.11079166, 0.043118533, -27183.145, -27183.145, 0.0, 10.000715, 9.998126 
1.2250236e+3, 3.1499478e+2, 32532.666, 19875.916, 563.1946, 0.07226184, 0.08442801, 32557.678, 32557.678, 0.0, 10.000205, 10.000036 
1.2351394e+3, 1.2501945e+2, -1679571.3, -1755332.0, 70227.95, 0.071104735, -0.058378972, -1637658.8, 77149.15, 0.0026041293, 10.000506, 9.999472 
1.2351296e+3, 1.3501976e+2, -1588282.9, -1630170.3, -82906.36, -0.10446479, -0.0006892959, -1523715.8, 93091.195, 0.0014447866, 10.000301, 9.999771 
1.23512514e+3, 1.4502019e+2, -1482817.1, -1548055.9, 9668.503, 0.12112579, 0.07252136, -1481414.4, 37389.83, 0.00054404186, 10.000449, 9.999581 
1.2351181e+3, 1.5501903e+2, -1313678.9, -1416673.8, 12476.188, -0.019624269, -0.0023627284, -1312189.1, 108627.48, 0.00009593835, 10.000941, 9.999573 
1.23511195e+3, 1.650185e+2, -1244351.0, -1391340.4, -23045.836, -0.057342507, 0.0135377785, -1240822.5, 82001.516, 0.0000017602412, 10.000997, 9.999048 
1.2351066e+3, 1.7501864e+2, -1199148.3, -1314717.1, -31900.26, 0.033816654, 0.11930927, -1190927.6, 33898.316, 0.0, 10.000617, 9.9990835 
1.23510055e+3, 1.8501808e+2, -1098445.4, -1203141.6, -11109.2, 0.044828597, 0.1505363, -1097279.5, 29553.662, 0.0, 10.000582, 9.999194 
1.23509414e+3, 1.9501682e+2, -952529.3, -1078998.3, -3079.0876, -0.032615766, 0.10027949, -952454.4, 76391.54, 0.0, 10.000896, 9.999222 
1.2350881e+3, 2.0501575e+2, -873904.3, -1052207.9, -17679.41, -0.039410137, 0.09883218, -872168.25, 58689.082, 0.0, 10.00103, 9.99867 
1.23508275e+3, 2.1501487e+2, -780919.2, -952884.3, -27502.277, 0.028139645, 0.1404858, -776627.9, 56239.46, 0.0, 10.000979, 9.998703 
1.2350768e+3, 2.2501379e+2, -683026.0, -848900.3, -25254.305, 0.025302993, 0.16078363, -679266.25, 55612.07, 0.0, 10.000954, 9.998756 
1.2350701e+3, 2.3501253e+2, -583834.9, -747299.2, -17087.67, -0.0492275, 0.15475585, -582067.75, 54822.492, 0.0, 10.000949, 9.998783 
1.2350638e+3, 2.4501094e+2, -513191.44, -702229.1, -25487.697, -0.06307939, 0.13673323, -509815.25, 29090.19, 0.0, 10.000933, 9.998426 
1.2350582e+3, 2.5500906e+2, -415529.84, -600651.44, -37279.563, -0.016239777, 0.10109516, -408304.53, 32619.295, 0.0, 10.000915, 9.99846 
1.2350521e+3, 2.6500762e+2, -315442.97, -482852.44, -41879.695, -0.015244834, 0.1049252, -305550.75, 37386.457, 0.0, 10.000848, 9.998629 
1.23504564e+3, 2.7500665e+2, -234307.06, -390094.3, -39851.33, -0.059765995, 0.14141887, -224704.72, 20241.111, 0.0, 10.00072, 9.998653 
1.2350397e+3, 2.8500515e+2, -139789.08, -300157.56, -26880.523, -0.05911868, 0.12959653, -135403.38, 11555.679, 0.0, 10.000724, 9.998595 
1.2350343e+3, 2.9500315e+2, -20592.516, -192297.73, -25681.473, -0.013117768, 0.065175444, -16833.693, 32143.195, 0.0, 10.00087, 9.998592 
1.2350286e+3, 3.050008e+2, -17139.36, -200435.3, -21194.236, -0.020384727, -0.008717698, -14720.619, -14720.619, 0.0, 10.000709, 9.9982815 
1.2350227e+3, 3.1500044e+2, 52772.953, 60951.863, -16098.039, -0.029821174, 0.11831842, 73471.76, 73471.76, 0.0, 10.000207, 10.000319 
1.2451398e+3, 1.2502524e+2, -1717895.8, -1773245.0, 61415.477, 0.070587166, -0.065765895, -1678207.6, 36543.188, 0.0027991196, 10.000242, 9.999475 
1.24513015e+3, 1.3502553e+2, -1481526.1, -1575726.8, -67477.305, -0.13178602, -0.013622785, -1446336.5, 170412.8, 0.0015621701, 10.001024, 9.999796 
1.245126e+3, 1.4502582e+2, -1394716.5, -1531441.8, 9647.942, 0.12680496, 0.0567416, -1394039.0, 124709.2, 0.00059554225, 10.001166, 9.999349 
1.24511905e+3, 1.5502466e+2, -1373871.9, -1470793.6, -5925.086, -0.009661469, 0.005849646, -1373511.0, 47250.56, 0.00010892916, 10.000639, 9.999346 
1.24511264e+3, 1.6502401e+2, -1298592.3, -1413693.0, -36313.832, -0.056094646, 0.021609955, -1288093.1, 34677.137, 0.0000023447426, 10.00061, 9.999079 
1.2451072e+3, 1.7502396e+2, -1128884.1, -1277451.8, -25499.729, 0.016555773, 0.102598935, -1124629.3, 100144.29, 0.0, 10.001086, 9.999112 
1.2451013e+3, 1.8502337e+2, -1011642.06, -1167819.1, -4996.13, 0.028286945, 0.1306471, -1011482.44, 115298.586, 0.0, 10.001206, 9.999135 
1.24509506e+3, 1.9502221e+2, -948181.6, -1083068.8, -16593.795, -0.029970251, 0.09916622, -946170.25, 82622.414, 0.0, 10.000955, 9.999165 
1.2450891e+3, 2.0502114e+2, -897788.75, -1063728.9, -30732.197, -0.036072623, 0.10195423, -892280.0, 38524.105, 0.0, 10.000867, 9.998668 
1.2450836e+3, 2.1502016e+2, -785869.6, -955125.56, -21171.545, 0.012871511, 0.13324548, -783261.56, 49553.66, 0.0, 10.000946, 9.998702 
1.24507755e+3, 2.250191e+2, -677604.5, -842184.7, -16395.813, 0.008683517, 0.15251414, -675987.0, 58839.05, 0.0, 10.000975, 9.998792 
1.2450711e+3, 2.3501796e+2, -579880.5, -740583.75, -21809.553, -0.049971204, 0.15436263, -576973.25, 59863.242, 0.0, 10.000957, 9.998824 
1.24506496e+3, 2.4501638e+2, -526908.56, -719310.06, -30299.844, -0.054591626, 0.14006622, -522249.66, 16602.035, 0.0, 10.000885, 9.998332 
1.2450592e+3, 2.550144e+2, -445532.03, -625570.1, -25879.521, -0.004576551, 0.10373841, -441885.8, -1014.1614, 0.0, 10.000754, 9.998365 
1.245053e+3, 2.6501292e+2, -324691.28, -482866.4, -19197.57, -0.012245626, 0.10435384, -322394.66, 20490.89, 0.0, 10.000767, 9.998666 
1.24504626e+3, 2.7501193e+2, -200044.31, -368808.25, -19406.96, -0.07829799, 0.13567019, -197841.36, 47052.125, 0.0, 10.000936, 9.998694 
1.2450404e+3, 2.8501043e+2, -132730.05, -300173.8, -16377.986, -0.065262586, 0.12352036, -131143.13, 15763.617, 0.0, 10.000788, 9.998564 
1.2450353e+3, 2.9500845e+2, -105626.37, -236400.28, -20091.117, 0.028059479, 0.064282715, -102609.32, -53684.105, 0.0, 10.0003, 9.998563 
1.2450293e+3, 3.0500633e+2, -94135.664, -228515.66, -18470.96, 0.011010036, 0.008718537, -91643.01, -91643.01, 0.0, 10.000142, 9.99836 
1.2450227e+3, 3.1500554e+2, 81105.38, 93876.695, -17755.379, -0.059114277, 0.08915957, 106359.8, 106359.8, 0.0, 10.0003195, 10.00049 
1.2551397e+3, 1.2503177e+2, -1704849.1, -1749084.0, 73350.94, 0.042978782, 0.005776687, -1650353.6, 64334.14, 0.0029989923, 10.000253, 9.999637 
1.2551308e+3, 1.3503088e+2, -1471122.0, -1554319.9, -38822.805, -0.16855955, -0.07408098, -1455820.4, 160874.69, 0.001683169, 10.001022, 9.999945 
1.2551272e+3, 1.4503096e+2, -1427449.9, -1598945.0, -10982.081, 0.13688548, -0.00961076, -1426749.4, 91947.0, 0.0006488858, 10.001163, 9.998888 
1.2551202e+3, 1.5503076e+2, -1403887.8, -1535484.0, -25809.496, 0.026835121, 0.08021645, -1399006.9, 21697.04, 0.00012258759, 10.000648, 9.9988985 
1.2551135e+3, 1.6503002e+2, -1276826.8, -1371379.1, -19294.932, -0.040344514, 0.092130184, -1273040.9, 49672.883, 0.0000030126384, 10.000621, 9.999365 
1.2551078e+3, 1.7502873e+2, -1108350.6, -1236300.0, -8112.41, -0.02991375, 0.024333546, -1107838.3, 116887.23, 0.0, 10.001091, 9.999393 
1.2551022e+3, 1.8502802e+2, -1033405.8, -1213315.3, -15211.359, -0.005714109, 0.04137916, -1032128.75, 94604.92, 0.0, 10.001206, 9.998823 
1.2550965e+3, 1.9502783e+2, -968953.0, -1127659.3, -26466.73, 0.020638518, 0.13637212, -964655.6, 64082.633, 0.0, 10.000959, 9.9988575 
1.2550904e+3, 2.0502691e+2, -878846.25, -1025929.9, -28714.658, 0.00039130717, 0.15781201, -873439.1, 57309.32, 0.0, 10.000873, 9.998925 
1.2550838e+3, 2.1502534e+2, -767483.4, -917667.75, -18686.477, -0.06237928, 0.10143362, -765193.3, 67570.73, 0.0, 10.000948, 9.99896 
1.2550779e+3, 2.2502407e+2, -687167.9, -862313.9, -18004.275, -0.0634377, 0.09601394, -685336.25, 49440.05, 0.0, 10.000974, 9.998654 
1.2550724e+3, 2.3502316e+2, -589206.6, -760192.9, -22644.066, -0.004024531, 0.13531901, -586258.6, 50526.594, 0.0, 10.000957, 9.998691 
1.2550664e+3, 2.4502192e+2, -517637.6, -700698.6, -35182.926, 0.0063189254, 0.15363891, -511108.6, 27689.023, 0.0, 10.000886, 9.99846 
1.2550597e+3, 2.5502035e+2, -436000.28, -606973.1, -30199.84, -0.030885182, 0.14503218, -430822.72, 9990.761, 0.0, 10.000758, 9.998492 
1.2550534e+3, 2.650186e+2, -323713.4, -481731.6, -12519.0, -0.047545012, 0.115312286, -322727.72, 20101.316, 0.0, 10.00077, 9.998673 
1.2550475e+3, 2.7501675e+2, -199663.19, -367476.97, -11938.613, -0.04563159, 0.059135456, -198818.11, 46026.152, 0.0, 10.000932, 9.998706 
1.2550415e+3, 2.8501543e+2, -139235.31, -313710.97, -33645.496, -0.03023631, 0.06674419, -132972.03, 13884.402, 0.0, 10.000786, 9.998473 
1.2550354e+3, 2.950146e+2, -111203.44, -249542.2, -37414.39, 0.00061379763, 0.13314894, -101732.88, -52867.25, 0.0, 10.000305, 9.998471 
1.2550291e+3, 3.0501264e+2, -92445.97, -225924.22, -11192.56, -0.017134726, 0.09551144, -91513.945, -91513.945, 0.0, 10.000145, 9.998377 
1.2550233e+3, 3.1501016e+2, 84764.13, 103126.48, -7689.646, -0.02159936, 0.003976093, 105921.305, 105921.305, 0.0, 10.000311, 10.000558 
1.2651403e+3, 1.2503758e+2, -1631172.9, -1710233.1, 49659.19, 0.04625592, 0.035206605, -1607231.1, 107400.78, 0.0032043438, 10.000746, 9.999665 
1.2651314e+3, 1.3503647e+2, -1525065.4, -1578317.3, -54175.26, -0.18628693, -0.069971256, -1491326.6, 125314.43, 0.0018082228, 10.000645, 9.999961 
1.2651281e+3, 1.4503644e+2, -1479833.9, -1621614.5, -27710.06, 0.13539448, -0.017897666, -1474610.6, 44032.566, 0.0007044779, 10.000794, 9.998908 
1.2651208e+3, 1.5503643e+2, -1328689.8, -1497617.4, -9704.576, 0.016553074, 0.09062603, -1328134.1, 92514.51, 0.00013709594, 10.001158, 9.998911 
1.2651142e+3, 1.6503572e+2, -1186563.9, -1334979.0, 9394.148, -0.05298715, 0.1093449, -1185971.6, 136686.47, 0.0000037895563, 10.001272, 9.999301 
1.2651089e+3, 1.7503433e+2, -1106480.3, -1241858.9, -5252.003, -0.034119893, 0.036360674, -1106276.8, 118394.4, 0.0, 10.001133, 9.999333 
1.2651032e+3, 1.8503352e+2, -1055160.1, -1225016.5, -24160.354, -0.005959491, 0.046490792, -1051790.4, 74889.86, 0.0, 10.001064, 9.998811 
1.2650976e+3, 1.9503322e+2, -954209.2, -1121793.1, -14218.923, 0.016965944, 0.13254285, -953011.3, 75674.26, 0.0, 10.001068, 9.998844 
1.2650913e+3, 2.0503233e+2, -851950.75, -1011417.0, -9523.179, -0.0054513738, 0.15623271, -851384.06, 79311.375, 0.0, 10.001052, 9.998938 
1.2650847e+3, 2.1503088e+2, -757802.4, -911404.94, -18406.43, -0.06793671, 0.11284558, -755627.5, 77082.19, 0.0, 10.001009, 9.998972 
1.2650788e+3, 2.250296e+2, -695662.1, -865359.0, -25027.03, -0.06334612, 0.103558846, -692048.06, 42674.082, 0.0, 10.000913, 9.998662 
1.2650734e+3, 2.350285e+2, -617008.44, -772535.0, -19903.969, 0.0064251292, 0.12217941, -614501.56, 22231.27, 0.0, 10.000761, 9.998699 
1.2650673e+3, 2.4502727e+2, -529263.6, -699251.44, -25567.094, 0.016427787, 0.13856429, -525501.44, 13243.401, 0.0, 10.000776, 9.998522 
1.2650606e+3, 2.5502592e+2, -401770.28, -582979.94, -26368.07, -0.0326533, 0.14683606, -398011.4, 42746.91, 0.0, 10.000962, 9.998558 
1.2650542e+3, 2.6502427e+2, -312433.2, -467353.1, -16056.284, -0.045294717, 0.115579225, -310786.6, 31986.496, 0.0, 10.000809, 9.998753 
1.2650484e+3, 2.7502227e+2, -284438.94, -399205.9, -11053.724, -0.02217287, 0.038827926, -283384.0, -38594.742, 0.0, 10.000311, 9.998787 
1.2650423e+3, 2.8502098e+2, -212731.8, -346465.34, -20114.828, -0.01149026, 0.043085113, -209771.84, -62970.48, 0.0, 10.000271, 9.998495 
1.2650357e+3, 2.9502028e+2, -53773.023, -219290.28, -16008.418, -0.012356296, 0.12469121, -52238.95, -3429.6155, 0.0, 10.0006895, 9.998494 
1.2650293e+3, 3.0501866e+2, -47163.215, -205984.25, 915.9849, -0.027484778, 0.12103336, -47157.93, -47157.93, 0.0, 10.000464, 9.99836 
1.2650236e+3, 3.1501582e+2, -21211.672, 50296.21, 2044.203, 0.011503525, -0.008783277, 50354.6, 50354.6, 0.0, 9.999591, 10.00054 
1.2751414e+3, 1.2504281e+2, -1637739.1, -1723237.1, 24279.668, 0.075166024, 0.02607404, -1631325.4, 83256.664, 0.0034160875, 10.000742, 9.999578 
1.2751321e+3, 1.3504232e+2, -1531026.8, -1592300.6, -57388.7, -0.1857739, -0.004263762, -1496609.1, 119977.26, 0.0019378624, 10.000651, 9.999863 
1.2751287e+3, 1.4504232e+2, -1445747.6, -1553797.4, -14385.519, 0.12236289, 0.029594323, -1443865.1, 74722.34, 0.0007627392, 10.000804, 9.999371 
1.2751214e+3, 1.5504178e+2, -1297106.0, -1433332.0, 3327.3472, -0.040358234, 0.04065202, -1297024.8, 123570.02, 0.0001526722, 10.001161, 9.999352 
1.2751152e+3, 1.6504124e+2, -1214927.8, -1393838.3, 3211.9246, -0.094354376, 0.075834915, -1214870.1, 107732.49, 0.000004722807, 10.00127, 9.9988985 
1.2751104e+3, 1.7504077e+2, -1133867.1, -1299117.8, -10990.153, 0.0015587532, 0.13426691, -1133139.4, 91470.84, 0.0, 10.001134, 9.998941 
1.2751047e+3, 1.8503986e+2, -1035759.6, -1185439.9, -24976.717, 0.024536995, 0.14084223, -1031701.8, 94918.82, 0.0, 10.001066, 9.999082 
1.275098e+3, 1.9503845e+2, -934723.3, -1082459.5, -14617.365, -0.039309777, 0.08926724, -933290.9, 95343.04, 0.0, 10.001072, 9.999113 
1.2750919e+3, 2.0503746e+2, -868042.56, -1045692.75, -12026.715, -0.051827557, 0.09970011, -867232.06, 63412.395, 0.0, 10.001055, 9.998702 
1.2750863e+3, 2.1503688e+2, -774131.7, -945599.25, -20484.63, -0.0075074113, 0.16617478, -771718.4, 60933.59, 0.0, 10.001009, 9.998738 
1.2750803e+3, 2.2503571e+2, -685375.9, -844096.3, -31395.06, 0.004356835, 0.17285334, -679391.56, 55272.05, 0.0, 10.000912, 9.99881 
1.2750739e+3, 2.3503397e+2, -606277.0, -751199.7, -25561.424, -0.01783194, 0.11468579, -601900.6, 34778.457, 0.0, 10.000764, 9.998845 
1.2750678e+3, 2.4503246e+2, -529957.6, -701303.9, -18731.568, -0.023234867, 0.09597209, -527933.8, 10759.424, 0.0, 10.000778, 9.998508 
1.2750617e+3, 2.5503117e+2, -402662.88, -584461.4, -18813.549, -0.012069603, 0.11017174, -400736.38, 39969.61, 0.0, 10.000958, 9.99855 
1.2750554e+3, 2.6502982e+2, -302254.28, -446392.78, -34080.492, -0.007473263, 0.10484425, -294602.4, 48115.31, 0.0, 10.000808, 9.998898 
1.2750489e+3, 2.7502844e+2, -273658.47, -378001.4, -28690.205, -0.008311095, 0.073673725, -266290.13, -21561.508, 0.0, 10.000314, 9.998932 
1.2750424e+3, 2.85027e+2, -203122.39, -327259.7, -3708.5354, -0.010082041, 0.05265466, -203011.7, -56270.12, 0.0, 10.000272, 9.998627 
1.2750363e+3, 2.950256e+2, -45292.906, -200537.0, 871.41724, -0.013725709, 0.04082955, -45288.016, 3468.256, 0.0, 10.000683, 9.998626 
1.27503e+3, 3.0502445e+2, -52299.035, -215930.84, -30735.928, -0.021919869, 0.08680807, -46716.203, -46716.203, 0.0, 10.00046, 9.998294 
1.2750235e+3, 3.1502253e+2, -30134.21, 31512.648, -26824.225, 0.03820909, 0.05701824, 41550.24, 41550.24, 0.0, 9.999592, 10.000412 
1.2851422e+3, 1.250482e+2, -1657854.6, -1747174.6, 30641.982, 0.07246573, 0.009097301, -1648353.3, 66175.586, 0.0036351434, 10.000666, 9.999451 
1.2851328e+3, 1.3504797e+2, -1493326.6, -1588920.3, -32781.18, -0.1929687, 0.018223826, -1483165.3, 133366.95, 0.002072395, 10.000976, 9.999728 
1.28513e+3, 1.4504793e+2, -1386021.4, -1505502.1, -810.251, 0.12679203, 0.047526754, -1386015.9, 132517.36, 0.00082385907, 10.001132, 9.999543 
1.2851226e+3, 1.5504718e+2, -1297380.0, -1414294.5, -4429.336, -0.04431004, 0.019652344, -1297212.5, 123328.27, 0.00016942424, 10.001079, 9.999521 
1.2851162e+3, 1.6504665e+2, -1260708.1, -1430008.1, -12924.275, -0.100625426, 0.052191082, -1259727.3, 62821.273, 0.00000585612, 10.0010195, 9.99877 
1.2851115e+3, 1.750464e+2, -1168386.4, -1329915.4, -8051.451, 0.0022109842, 0.14547043, -1167986.0, 56569.453, 0.0, 10.000959, 9.998814 
1.2851056e+3, 1.8504554e+2, -1041611.6, -1179151.8, -13553.987, 0.024335166, 0.1619695, -1040288.7, 86276.93, 0.0, 10.000988, 9.999162 
1.285099e+3, 1.9504409e+2, -925004.75, -1068561.4, -17710.883, -0.049164835, 0.09509802, -922852.0, 105726.914, 0.0, 10.001101, 9.999194 
1.2850928e+3, 2.0504302e+2, -870027.8, -1048111.4, -21030.977, -0.05627486, 0.095604576, -867577.9, 63011.88, 0.0, 10.001049, 9.998687 
1.2850875e+3, 2.1504237e+2, -800367.5, -959324.1, -13873.576, 0.007882763, 0.1575617, -799165.75, 33432.15, 0.0, 10.000835, 9.998727 
1.2850814e+3, 2.2504127e+2, -701002.7, -848553.8, -16567.066, 0.021132706, 0.17045629, -699165.44, 35443.58, 0.0, 10.0007925, 9.998836 
1.2850747e+3, 2.3503974e+2, -582348.1, -736329.7, -20519.463, -0.018440288, 0.12876488, -579660.6, 56962.31, 0.0, 10.000916, 9.998874 
1.2850684e+3, 2.4503823e+2, -522072.63, -680842.44, -16517.883, -0.026864523, 0.1016457, -520372.38, 18264.363, 0.0, 10.000761, 9.998656 
1.2850624e+3, 2.5503674e+2, -483483.2, -606874.44, -5659.7686, -0.0041790223, 0.08301973, -483224.13, -42573.9, 0.0, 10.000333, 9.998697 
1.285056e+3, 2.650355e+2, -387269.97, -489922.28, -21680.725, 0.005202634, 0.08412091, -382878.72, -40217.81, 0.0, 10.000236, 9.998875 
1.2850493e+3, 2.7503458e+2, -252886.05, -370360.1, -29491.52, 0.0019253138, 0.09767716, -245897.98, -1228.976, 0.0, 10.000467, 9.99891 
1.2850429e+3, 2.8503317e+2, -176446.0, -295588.28, -4761.373, 0.00309884, 0.07075012, -176256.03, -29574.078, 0.0, 10.000375, 9.998795 
1.285037e+3, 2.9503134e+2, -139518.47, -226854.48, 1279.1731, 0.008333612, 0.0045245574, -139499.73, -90800.56, 0.0, 9.999954, 9.9987955 
1.2850301e+3, 3.0503064e+2, -128396.82, -245565.95, -33138.74, -0.009774646, 0.080542624, -119673.68, -119673.68, 0.0, 9.999908, 9.998355 
1.2850232e+3, 3.1502905e+2, 60342.145, 68369.5, -17878.95, 0.025669545, 0.07849525, 82679.75, 82679.75, 0.0, 10.000242, 10.000352 
1.2951423e+3, 1.2505387e+2, -1669786.4, -1774317.3, 19137.486, 0.03710664, -0.0139124915, -1666392.9, 48078.7, 0.0038618036, 10.000673, 9.999262 
1.2951335e+3, 1.350535e+2, -1506083.1, -1615961.9, -21225.371, -0.20866589, -0.00030750493, -1502125.5, 114352.09, 0.0022117733, 10.0009775, 9.999542 
1.2951311e+3, 1.450534e+2, -1392478.6, -1519916.0, -3117.9358, 0.14582986, 0.037258565, -1392402.4, 126077.375, 0.000887706, 10.001135, 9.999444 
1.295124e+3, 1.5505274e+2, -1302819.5, -1426913.3, -6864.4023, 0.0017608281, 0.02620984, -1302441.0, 118044.9, 0.0001872894, 10.001082, 9.9994335 
1.2951176e+3, 1.65052e+2, -1250914.4, -1411363.6, -16180.779, -0.07423967, 0.0379443, -1249298.9, 73196.055, 0.0000072252774, 10.001024, 9.998897 
1.295112e+3, 1.750513e+2, -1158910.8, -1312281.1, -10871.097, -0.031387873, 0.07335027, -1158144.0, 66362.125, 0.0, 10.000966, 9.998932 
1.2951064e+3, 1.8505068e+2, -1048550.5, -1195112.4, -10258.628, -0.0061045117, 0.112808146, -1047835.94, 78678.57, 0.0, 10.000994, 9.99905 
1.2951005e+3, 1.9505012e+2, -932557.2, -1084543.8, -14105.745, -0.015357369, 0.1486253, -931259.1, 97261.016, 0.0, 10.001101, 9.999085 
1.2950942e+3, 2.0504904e+2, -856544.25, -1019837.7, -30045.727, -0.022210691, 0.14205009, -851191.4, 79339.72, 0.0, 10.001046, 9.998883 
1.2950881e+3, 2.1504743e+2, -786173.06, -930663.5, -22394.652, -0.020396648, 0.08838932, -782781.75, 49765.23, 0.0, 10.000837, 9.998923 
1.2950818e+3, 2.2504635e+2, -707462.5, -862581.75, -12601.468, -0.011427899, 0.09818475, -706445.44, 28112.572, 0.0, 10.000793, 9.998739 
1.2950759e+3, 2.3504579e+2, -589274.94, -750254.5, -15880.892, 0.0026991891, 0.16403493, -587723.2, 48841.05, 0.0, 10.000912, 9.998781 
1.2950695e+3, 2.4504456e+2, -501531.13, -637723.7, -32700.836, 0.0028458892, 0.15412422, -494086.38, 44488.992, 0.0, 10.000758, 9.998955 
1.2950628e+3, 2.5504267e+2, -462318.03, -563781.8, -21238.11, -0.009058736, 0.065196335, -458051.9, -17460.87, 0.0, 10.000335, 9.998993 
1.2950562e+3, 2.6504138e+2, -400387.13, -518260.6, -12395.67, -0.0073544495, 0.054086365, -399097.7, -56495.055, 0.0, 10.000238, 9.998679 
1.2950498e+3, 2.750407e+2, -266577.66, -398097.53, -19647.469, 0.006380388, 0.1118362, -263705.3, -19094.984, 0.0, 10.0004635, 9.998723 
1.2950435e+3, 2.850394e+2, -163322.27, -268220.9, -19490.695, 0.026190287, 0.09772918, -159817.88, -13195.418, 0.0, 10.000372, 9.998985 
1.2950374e+3, 2.950376e+2, -125281.05, -198470.73, -13342.333, 0.053134, 0.014883445, -122924.63, -74286.34, 0.0, 9.999958, 9.99899 
1.2950303e+3, 3.050372e+2, -114400.36, -217218.86, -19874.693, 0.008330773, 0.10118747, -110692.33, -110692.33, 0.0, 9.99991, 9.998549 
1.295023e+3, 3.1503546e+2, 59343.074, 69225.35, -1050.1559, -0.030164322, 0.06418369, 69335.72, 69335.72, 0.0, 10.00023, 10.000363 
1.305143e+3, 1.2505937e+2, -1662889.6, -1774383.8, -11483.126, 0.027217632, -0.016008925, -1661719.3, 52698.273, 0.004094851, 10.000737, 9.999229 
1.3051346e+3, 1.3505894e+2, -1475786.8, -1603851.9, -18804.406, -0.21372598, -0.0048483317, -1473082.6, 143341.72, 0.0023553874, 10.001198, 9.999518 
1.3051325e+3, 1.4505883e+2, -1366278.1, -1514172.9, -11911.003, 0.1479261, 0.035041705, -1365325.0, 153101.73, 0.00095388794, 10.001347, 9.99938 
1.3051252e+3, 1.5505819e+2, -1300051.6, -1432525.6, -15290.808, 0.009090927, 0.035308212, -1298309.6, 122122.94, 0.0002061118, 10.001133, 9.99937 
1.3051187e+3, 1.6505744e+2, -1234643.9, -1393164.1, -18793.95, -0.07156721, 0.04112255, -1232446.1, 89995.586, 0.000008878666, 10.001093, 9.998987 
1.305113e+3, 1.7505659e+2, -1113867.9, -1279806.4, -15728.832, -0.04084449, 0.053280514, -1112390.1, 112063.49, 0.0, 10.001231, 9.999026 
1.3051075e+3, 1.8505597e+2, -1026225.75, -1189350.1, -17954.89, -0.013638455, 0.09090666, -1024272.9, 102189.12, 0.0, 10.00117, 9.999004 
1.3051015e+3, 1.9505559e+2, -963420.6, -1103838.4, -17742.33, -0.008823488, 0.14682926, -961213.5, 67253.33, 0.0, 10.000909, 9.999043 
1.3050953e+3, 2.0505464e+2, -886511.9, -1017936.06, -34053.79, -0.014510754, 0.15086065, -878212.25, 52264.21, 0.0, 10.0007715, 9.999028 
1.3050887e+3, 2.150532e+2, -788307.44, -915227.25, -30926.506, -0.024212446, 0.09817154, -781172.7, 51317.723, 0.0, 10.000753, 9.999069 
1.3050826e+3, 2.2505212e+2, -733126.7, -871719.5, -17367.281, -0.015440611, 0.099495396, -730983.5, 3517.7864, 0.0, 10.000605, 9.998768 
1.3050765e+3, 2.3505142e+2, -672179.6, -786610.9, -12474.427, 0.009371176, 0.14751177, -670835.56, -34326.42, 0.0, 10.000329, 9.998812 
1.30507e+3, 2.4505036e+2, -558247.1, -644870.06, -30679.465, 0.012891511, 0.14429559, -548482.1, -9963.56, 0.0, 10.000282, 9.999135 
1.305063e+3, 2.5504896e+2, -431913.9, -528989.7, -28641.809, -0.0029432785, 0.08581748, -424093.3, 16436.12, 0.0, 10.000458, 9.999172 
1.3050565e+3, 2.6504776e+2, -384195.4, -517714.25, -16865.05, -0.0012173238, 0.07835257, -382098.1, -39557.71, 0.0, 10.000382, 9.998612 
1.3050501e+3, 2.7504677e+2, -329406.06, -435525.28, -15808.449, 0.016322156, 0.11283564, -327101.16, -82549.55, 0.0, 10.000064, 9.998657 
1.3050438e+3, 2.8504544e+2, -215502.0, -281344.7, -17516.129, 0.03550791, 0.094848804, -211132.19, -64568.188, 0.0, 9.999964, 9.999091 
1.3050374e+3, 2.9504392e+2, -99997.62, -174059.53, -18277.531, 0.057707123, 0.027391318, -95732.57, -47155.7, 0.0, 10.000079, 9.999099 
1.3050303e+3, 3.0504376e+2, -87383.61, -187903.98, -22355.748, 0.013381184, 0.12613721, -82635.93, -82635.93, 0.0, 10.000028, 9.998694 
1.3050231e+3, 3.150417e+2, -6430.5293, 28060.17, -6633.743, -0.020372093, 0.04309745, 29292.068, 29292.068, 0.0, 9.999818, 10.00028 
1.3151439e+3, 1.2506482e+2, -1654851.6, -1757879.6, -16763.615, 0.038500037, 0.0050972556, -1652192.6, 62172.95, 0.0043321527, 10.000736, 9.999344 
1.3151358e+3, 1.3506441e+2, -1466208.0, -1584593.8, -1001.7855, -0.20958896, 0.0035981808, -1466199.6, 150171.97, 0.0025021203, 10.001201, 9.99965 
1.3151337e+3, 1.450643e+2, -1368409.0, -1520104.1, -20055.818, 0.13194577, 0.040388938, -1365802.1, 152571.44, 0.0010219518, 10.001351, 9.999338 
1.3151261e+3, 1.5506367e+2, -1303542.8, -1440346.9, -23770.43, -0.021111375, 0.046540238, -1299530.1, 120849.72, 0.000225761, 10.001134, 9.999317 
1.3151196e+3, 1.65063e+2, -1230509.3, -1385088.5, -14470.271, -0.092441395, 0.060894135, -1229166.4, 93221.75, 0.000010883995, 10.001094, 9.999043 
1.3151143e+3, 1.7506231e+2, -1109703.5, -1270923.1, -10932.291, -0.028152546, 0.08357604, -1108965.6, 115431.82, 0.0, 10.001228, 9.999089 
1.3151088e+3, 1.850615e+2, -1025499.8, -1187303.6, -28495.643, -0.0008606818, 0.09556293, -1020628.06, 105779.53, 0.0, 10.001166, 9.999022 
1.3151021e+3, 1.950605e+2, -961921.44, -1101564.8, -27908.89, -0.028864378, 0.09063565, -956550.2, 71868.35, 0.0, 10.000911, 9.99906 
1.3150959e+3, 2.050599e+2, -879517.75, -1004481.2, -35529.473, -0.032682985, 0.12235826, -870122.44, 60302.96, 0.0, 10.000775, 9.99912 
1.3150896e+3, 2.150597e+2, -782201.4, -902555.8, -31946.547, -0.0054558627, 0.18477447, -774247.25, 58180.727, 0.0, 10.0007515, 9.999158 
1.3150832e+3, 2.250586e+2, -723398.2, -851245.4, -28433.953, 0.00644987, 0.17240116, -717359.5, 17079.223, 0.0, 10.000602, 9.99891 
1.3150768e+3, 2.3505662e+2, -661723.0, -765913.4, -22779.143, 0.001676893, 0.08030446, -656960.5, -20503.201, 0.0, 10.000332, 9.998953 
1.3150702e+3, 2.4505562e+2, -553472.8, -635764.56, -24044.045, 0.0033998492, 0.07333414, -546962.6, -8496.462, 0.0, 10.000284, 9.999197 
1.3150637e+3, 2.5505558e+2, -427938.4, -519976.63, -21492.51, 0.012218267, 0.14451009, -423166.9, 17298.352, 0.0, 10.000454, 9.999237 
1.3150571e+3, 2.650546e+2, -381385.9, -511484.3, -28273.912, 0.021490304, 0.15570267, -375506.88, -33032.668, 0.0, 10.000379, 9.998658 
1.3150504e+3, 2.750528e+2, -325647.2, -429029.84, -26535.273, 0.0313351, 0.10079897, -319234.16, -74741.2, 0.0, 10.000068, 9.998701 
1.3150437e+3, 2.850513e+2, -212977.55, -277788.63, -12481.0625, 0.030480886, 0.06287595, -210657.06, -64150.34, 0.0, 9.9999695, 9.999113 
1.3150372e+3, 2.9505026e+2, -99539.48, -170808.08, -12632.242, 0.019003699, 0.043161098, -97366.67, -48851.77, 0.0, 10.000069, 9.999127 
1.3150302e+3, 3.050503e+2, -83261.08, -177494.45, -28986.846, 0.002147514, 0.15591426, -75058.516, -75058.516, 0.0, 10.000018, 9.998772 
1.3150238e+3, 3.1504783e+2, -19308.783, 688.98376, -9865.245, 0.053710148, 0.022892788, 4736.4785, 4736.4785, 0.0, 9.99982, 10.000092 
1.3251448e+3, 1.2507017e+2, -1623855.3, -1735029.0, -19343.4, 0.0480449, 0.012355781, -1620585.9, 93728.66, 0.0045723, 10.000917, 9.9994135 
1.325137e+3, 1.3506998e+2, -1479582.8, -1578645.3, 14954.404, -0.21044928, 0.023202552, -1477374.5, 138943.05, 0.0026508812, 10.001057, 9.999759 
1.3251348e+3, 1.4506991e+2, -1395738.4, -1530242.8, -18162.807, 0.11714635, 0.056969136, -1393329.0, 124990.01, 0.0010914269, 10.001153, 9.999364 
1.3251272e+3, 1.5506919e+2, -1300898.3, -1436868.9, -17631.777, -0.02738623, 0.050068196, -1298649.1, 121677.55, 0.00024614425, 10.001144, 9.999335 
1.3251205e+3, 1.6506849e+2, -1238423.4, -1382036.1, -3239.075, -0.09368855, 0.06146053, -1238350.4, 83984.26, 0.000013287297, 10.001011, 9.999104 
1.3251154e+3, 1.7506798e+2, -1174142.3, -1294752.9, -807.418, -0.025526673, 0.09344324, -1174136.9, 50205.035, 0.0, 10.000756, 9.999152 
1.3251096e+3, 1.850672e+2, -1095391.3, -1214375.0, -17868.719, 0.0014134266, 0.10468189, -1092765.8, 33585.58, 0.0, 10.000659, 9.99908 
1.325103e+3, 1.9506617e+2, -985662.75, -1106103.9, -14161.616, -0.03284037, 0.08771935, -984020.0, 44342.89, 0.0, 10.000719, 9.999121 
1.3250965e+3, 2.0506553e+2, -895324.2, -1014392.6, -24070.346, -0.03438341, 0.11548187, -890642.3, 39727.836, 0.0, 10.000677, 9.999098 
1.3250904e+3, 2.1506536e+2, -815828.2, -920402.94, -29622.871, 0.003908745, 0.1830206, -808019.94, 24352.988, 0.0, 10.000529, 9.999142 
1.3250838e+3, 2.250644e+2, -729502.4, -828925.75, -28781.203, 0.012761469, 0.1740901, -721771.9, 12610.163, 0.0, 10.000453, 9.999134 
1.325077e+3, 2.3506267e+2, -629575.25, -725008.6, -17584.629, -0.009287021, 0.083246864, -626438.25, 9959.014, 0.0, 10.000444, 9.999179 
1.3250704e+3, 2.4506168e+2, -560927.06, -650575.25, -19610.842, -0.004682557, 0.07135748, -556824.9, -18418.81, 0.0, 10.000283, 9.999095 
1.3250642e+3, 2.5506142e+2, -504806.1, -567529.06, -30362.656, 0.026221648, 0.13168086, -492516.3, -52108.016, 0.0, 9.999973, 9.999142 
1.3250574e+3, 2.6506057e+2, -431412.2, -509596.66, -35465.81, 0.03692449, 0.14589545, -417721.6, -75305.25, 0.0, 9.999926, 9.998889 
1.3250504e+3, 2.750591e+2, -300188.8, -391127.8, -20475.602, 0.02883218, 0.10703548, -295791.22, -51360.91, 0.0, 10.0001335, 9.998929 
1.3250439e+3, 2.8505772e+2, -199051.64, -281926.3, -5090.8, 0.029193832, 0.06894255, -198740.1, -52296.652, 0.0, 10.000114, 9.999015 
1.3250372e+3, 2.9505643e+2, -134456.06, -197142.11, -16020.84, 0.03733552, 0.033746555, -130598.91, -82144.01, 0.0, 9.999871, 9.999041 
1.3250303e+3, 3.050565e+2, -98343.47, -162590.5, -29549.664, 0.024520496, 0.14492081, -86819.5, -86819.5, 0.0, 9.999822, 9.998967 
1.3250236e+3, 3.1505427e+2, -3871.533, -1501.0076, 1066.7628, 0.0608454, 0.018462405, -1091.6448, -1091.6448, 0.0, 9.9999695, 10.000004 
1.3351457e+3, 1.2507549e+2, -1622420.5, -1734132.8, -34692.492, 0.051991474, 0.0055418643, -1612523.5, 101739.92, 0.0048153205, 10.000924, 9.999418 
1.335138e+3, 1.3507575e+2, -1474765.1, -1568056.9, 20743.559, -0.21495855, 0.054493092, -1470360.8, 145900.84, 0.0028011485, 10.001054, 9.999834 
1.3351357e+3, 1.4507572e+2, -1389788.6, -1517546.6, -18491.734, 0.1028018, 0.08528111, -1387166.0, 131096.2, 0.001161807, 10.00115, 9.999453 
1.3351284e+3, 1.5507478e+2, -1294075.0, -1423504.5, -18267.389, -0.012986878, 0.045922045, -1291546.1, 128725.945, 0.00026710884, 10.001146, 9.999426 
1.3351217e+3, 1.6507402e+2, -1234297.3, -1374709.6, -13590.852, -0.07832814, 0.043735635, -1232993.9, 89286.836, 0.000016044773, 10.001015, 9.999153 
1.335116e+3, 1.7507362e+2, -1169752.6, -1287405.4, -10857.311, -0.032890163, 0.08322644, -1168759.1, 55527.508, 0.00000000003443261, 10.000762, 9.999201 
1.3351102e+3, 1.8507315e+2, -1087283.4, -1199304.1, -16588.576, -0.007305762, 0.117350146, -1084878.5, 41414.355, 0.0, 10.000665, 9.999181 
1.3351038e+3, 1.9507258e+2, -978392.9, -1091819.8, -12462.596, -0.022067405, 0.1364981, -977039.7, 51259.977, 0.0, 10.000721, 9.999218 
1.3350974e+3, 2.0507158e+2, -904798.94, -1034200.06, -30502.984, -0.021265183, 0.1300783, -897969.1, 32341.35, 0.0, 10.000676, 9.998963 
1.335091e+3, 2.1507025e+2, -824710.06, -939753.56, -35558.19, 0.0031389655, 0.095204405, -814606.9, 17717.813, 0.0, 10.000532, 9.999008 
1.3350843e+3, 2.2506957e+2, -707590.75, -784254.56, -29707.857, 0.0030456253, 0.10587298, -697426.4, 36904.445, 0.0, 10.000455, 9.999441 
1.3350774e+3, 2.3506954e+2, -608762.25, -681560.2, -17919.951, -0.024172649, 0.15447438, -604590.1, 31738.725, 0.0, 10.000442, 9.999479 
1.3350707e+3, 2.450685e+2, -580190.44, -690216.8, -31360.17, -0.012388709, 0.13648193, -571879.8, -33541.53, 0.0, 10.00028, 9.998825 
1.3350642e+3, 2.550665e+2, -523100.63, -606667.25, -41320.01, 0.03841094, 0.04921397, -506120.1, -65761.77, 0.0, 9.999976, 9.998872 
1.3350575e+3, 2.650656e+2, -401838.72, -449601.88, -27093.182, 0.04448126, 0.051159177, -389604.22, -47237.56, 0.0, 9.99993, 9.999299 
1.3350505e+3, 2.7506572e+2, -272771.9, -332276.25, -11563.274, 0.006576606, 0.13123439, -270603.84, -26240.037, 0.0, 10.000124, 9.999338 
1.3350438e+3, 2.850646e+2, -216749.47, -317189.28, -13294.622, 0.029148739, 0.11243753, -215019.53, -68645.14, 0.0, 10.000106, 9.998777 
1.3350378e+3, 2.950623e+2, -149491.36, -230097.11, -23811.54, 0.11167879, 0.0011290017, -142982.78, -94585.76, 0.0, 9.999877, 9.998813 
1.3350306e+3, 3.050623e+2, -74273.18, -114776.61, -23104.787, 0.07844332, 0.09470277, -63800.914, -63800.914, 0.0, 9.999829, 9.999292 
1.3350229e+3, 3.1506103e+2, -4142.15, 1540.16, 11197.144, -0.004447392, 0.034372978, 10250.983, 10250.983, 0.0, 9.999954, 10.000032 
1.3451464e+3, 1.2508126e+2, -1602360.4, -1722054.5, -23987.977, 0.036472823, 0.012615648, -1597731.9, 116475.24, 0.0050627007, 10.001054, 9.999437 
1.3451393e+3, 1.3508138e+2, -1467071.9, -1556066.0, 49684.355, -0.1973291, 0.04101392, -1444871.8, 171334.02, 0.002953265, 10.001073, 9.999907 
1.3451369e+3, 1.450813e+2, -1404336.5, -1529998.5, 1682.5131, 0.10780165, 0.06412768, -1404314.0, 113893.08, 0.0012327734, 10.001075, 9.999403 
1.3451295e+3, 1.5508053e+2, -1319551.1, -1441387.9, -10566.724, -0.0125876, 0.048538867, -1318641.5, 101574.58, 0.00028840025, 10.000997, 9.999375 
1.3451228e+3, 1.6507983e+2, -1237094.5, -1364013.8, -12130.557, -0.08226648, 0.050271906, -1235945.5, 86278.5, 0.00001901083, 10.000945, 9.99926 
1.3451168e+3, 1.7507939e+2, -1137629.8, -1259793.1, -5057.6563, -0.040995795, 0.074051514, -1137420.8, 86808.77, 0.0000000014653116, 10.000932, 9.999309 
1.345111e+3, 1.8507893e+2, -1062396.0, -1188740.4, -9979.016, -0.01188971, 0.10612333, -1061612.8, 64622.617, 0.0, 10.000843, 9.9991665 
1.3451046e+3, 1.9507848e+2, -986387.3, -1096506.3, -15312.616, -0.015709585, 0.13787499, -984297.7, 43943.78, 0.0, 10.000671, 9.999209 
1.345098e+3, 2.050775e+2, -915664.2, -1033258.44, -30630.496, -0.015546331, 0.13060977, -908164.06, 22088.043, 0.0, 10.000577, 9.999018 
1.3450915e+3, 2.1507606e+2, -816900.9, -929583.8, -21989.44, -0.0038275921, 0.080264814, -812761.8, 19505.055, 0.0, 10.000559, 9.999064 
1.3450846e+3, 2.2507541e+2, -714993.5, -788696.06, -23493.25, -0.002144434, 0.091158934, -708141.8, 26130.922, 0.0, 10.000409, 9.999432 
1.3450778e+3, 2.3507555e+2, -654332.5, -703634.1, -36307.01, -0.013413943, 0.1562495, -635098.7, 1171.0588, 0.0, 10.000132, 9.9994755 
1.3450709e+3, 2.4507456e+2, -607747.3, -699054.0, -46601.19, -0.004247376, 0.14098047, -588163.4, -49884.52, 0.0, 10.000075, 9.998861 
1.3450642e+3, 2.5507247e+2, -483320.53, -583028.06, -34313.22, 0.026406677, 0.042138055, -472653.28, -32353.725, 0.0, 10.000234, 9.998909 
1.3450573e+3, 2.6507157e+2, -373994.66, -429602.53, -23953.193, 0.038353287, 0.03796314, -365099.63, -22791.662, 0.0, 10.000096, 9.999355 
1.3450505e+3, 2.7507174e+2, -334445.56, -354853.16, -36236.227, 0.031330213, 0.11748148, -307003.88, -62699.395, 0.0, 9.999673, 9.999399 
1.3450441e+3, 2.8507075e+2, -284028.63, -349050.97, -34644.723, 0.055078536, 0.10772717, -269029.44, -122715.4, 0.0, 9.999645, 9.998779 
1.3450378e+3, 2.9506862e+2, -130173.9, -219398.39, -27731.61, 0.1101692, 0.014574441, -122257.15, -73921.84, 0.0, 10.000008, 9.998821 
1.3450307e+3, 3.0506855e+2, -22342.246, -77787.71, -29402.111, 0.072380535, 0.09428477, -9654.164, -9654.164, 0.0, 10.000136, 9.999398 
1.3450229e+3, 3.1506747e+2, -4578.2603, -15352.061, -10835.751, -0.0018070228, 0.044839412, 2135.7568, 2135.7568, 0.0, 10.000025, 9.999882 
1.3551472e+3, 1.2508751e+2, -1600811.3, -1718656.1, -40236.293, 0.0014626227, 0.03368209, -1588383.8, 125761.336, 0.00531726, 10.001051, 9.999464 
1.3551407e+3, 1.3508692e+2, -1460992.9, -1544421.9, 50616.234, -0.16140233, -0.01637417, -1437117.0, 179032.44, 0.003108456, 10.001078, 9.999985 
1.3551381e+3, 1.4508668e+2, -1417228.1, -1559033.6, -1332.2909, 0.12707625, -0.0050087203, -1417215.6, 100937.125, 0.0013043365, 10.001082, 9.999201 
1.3551304e+3, 1.5508649e+2, -1333026.0, -1470562.1, -13996.126, -0.025311872, 0.058637377, -1331616.1, 88541.54, 0.00030973944, 10.001, 9.999174 
1.3551232e+3, 1.6508599e+2, -1225066.9, -1339894.6, -13814.159, -0.10463629, 0.080561966, -1223428.4, 98735.62, 0.000021994929, 10.000947, 9.999425 
1.3551177e+3, 1.750853e+2, -1125762.4, -1236026.5, -6242.1685, -0.050922886, 0.06515193, -1125410.1, 98760.14, 0.0000000068048798, 10.000934, 9.999472 
1.3551117e+3, 1.8508463e+2, -1071313.8, -1207800.3, -17446.1, -0.014174857, 0.072283804, -1069119.0, 57059.22, 0.0, 10.000844, 9.999037 
1.3551052e+3, 1.9508395e+2, -994501.3, -1114525.9, -22315.037, -0.014813901, 0.09363102, -990486.8, 37700.805, 0.0, 10.000675, 9.999085 
1.3550986e+3, 2.0508331e+2, -898164.3, -998301.3, -32288.809, -0.018257068, 0.11650162, -888655.8, 41538.938, 0.0, 10.000582, 9.999256 
1.3550918e+3, 2.1508282e+2, -800249.44, -895382.06, -23314.617, -0.017142965, 0.13586323, -794842.9, 37356.51, 0.0, 10.000559, 9.999301 
1.3550851e+3, 2.2508194e+2, -737716.8, -835891.44, -34566.67, -0.0031315547, 0.12855044, -726767.3, 7440.461, 0.0, 10.000408, 9.999108 
1.3550782e+3, 2.3508072e+2, -676412.7, -750300.44, -46640.695, 0.021043263, 0.0905961, -653856.94, -17637.498, 0.0, 10.000134, 9.999155 
1.3550712e+3, 2.4507985e+2, -583411.8, -649449.1, -40733.41, 0.017890126, 0.08616301, -563995.3, -25767.732, 0.0, 10.000078, 9.999202 
1.355064e+3, 2.5507933e+2, -460085.84, -534175.7, -27895.865, -0.010871679, 0.108528025, -450757.22, -10525.073, 0.0, 10.00023, 9.999247 
1.3550572e+3, 2.650784e+2, -396079.9, -475079.22, -39307.78, 0.017610585, 0.10407365, -379854.13, -37613.656, 0.0, 10.0000925, 9.999045 
1.355051e+3, 2.7507713e+2, -355053.56, -399244.38, -50811.96, 0.10078143, 0.06798214, -321740.8, -77488.53, 0.0, 9.999679, 9.999093 
1.3550442e+3, 2.8507608e+2, -266102.16, -313799.53, -20303.355, 0.103913516, 0.057702105, -258630.14, -112367.73, 0.0, 9.999652, 9.999019 
1.355037e+3, 2.950753e+2, -115086.38, -185885.5, -12549.887, 0.030491164, 0.07200168, -112927.61, -64657.29, 0.0, 9.999997, 9.999058 
1.3550301e+3, 3.0507514e+2, -32301.865, -96720.87, -32612.738, 0.004405566, 0.14091842, -18674.232, -18674.232, 0.0, 10.000128, 9.999274 
1.3550237e+3, 3.1507358e+2, -27336.873, -63367.723, -11153.911, 0.06538403, 0.052602742, -24163.498, -24163.498, 0.0, 10.000027, 9.999552 
1.3651484e+3, 1.2509362e+2, -1601217.6, -1737627.1, -38149.43, 0.00841597, 0.024291104, -1591273.4, 122811.234, 0.005582378, 10.00113, 9.999295 
1.3651419e+3, 1.3509306e+2, -1454590.1, -1555125.3, 51964.363, -0.15619428, -0.011080375, -1432558.9, 183530.58, 0.0032685762, 10.001183, 9.99986 
1.365139e+3, 1.4509265e+2, -1404003.9, -1555337.3, -5220.163, 0.104981646, -0.0070199296, -1403824.0, 114270.47, 0.0013768864, 10.001186, 9.999176 
1.3651314e+3, 1.5509248e+2, -1318221.9, -1466534.9, -6068.617, -0.027785018, 0.06142858, -1317974.0, 102125.01, 0.00033094976, 10.001117, 9.9991455 
1.3651244e+3, 1.6509193e+2, -1223488.5, -1345554.4, -8831.314, -0.1001659, 0.08260394, -1222852.9, 99252.79, 0.000024852021, 10.000986, 9.999367 
1.3651185e+3, 1.7509116e+2, -1150550.4, -1254109.9, -18088.85, -0.051220734, 0.06154299, -1147481.8, 76631.49, 0.000000016360648, 10.000791, 9.999415 
1.3651124e+3, 1.8509045e+2, -1095074.6, -1215418.6, -30985.537, -0.018971397, 0.06829507, -1087565.1, 38556.11, 0.0, 10.000665, 9.99907 
1.3651058e+3, 1.9508982e+2, -1000577.8, -1113624.3, -24270.479, -0.025423778, 0.09286761, -995587.4, 32542.729, 0.0, 10.000617, 9.999119 
1.3650991e+3, 2.0508924e+2, -899313.4, -990717.75, -33221.496, -0.02492802, 0.11528821, -888514.6, 41621.797, 0.0, 10.00054, 9.999328 
1.3650924e+3, 2.150888e+2, -814037.9, -893603.1, -37377.54, -0.0097003905, 0.13215508, -799233.56, 32906.355, 0.0, 10.00043, 9.999373 
1.3650855e+3, 2.2508791e+2, -747023.3, -849372.25, -48100.75, 0.0077247294, 0.12377259, -727965.94, 6182.5977, 0.0, 10.000386, 9.999025 
1.3650785e+3, 2.3508659e+2, -643493.94, -743777.2, -43019.223, 0.024633374, 0.084806345, -627568.7, 8593.365, 0.0, 10.000402, 9.99907 
1.3650714e+3, 2.4508578e+2, -552842.25, -626658.25, -36815.957, 0.021407489, 0.085993946, -537619.5, 550.48474, 0.0, 10.000256, 9.999271 
1.3650642e+3, 2.5508544e+2, -495674.84, -542978.3, -45316.188, -0.0005429859, 0.12014743, -468209.44, -28037.088, 0.0, 9.999952, 9.999318 
1.3650574e+3, 2.6508453e+2, -422513.56, -496841.9, -57400.652, 0.026982367, 0.11807249, -391296.38, -49115.75, 0.0, 9.999954, 9.998961 
1.365051e+3, 2.7508312e+2, -277580.2, -370809.97, -53071.645, 0.10165335, 0.07610062, -253558.36, -9363.941, 0.0, 10.000253, 9.999009 
1.365044e+3, 2.850821e+2, -189221.9, -270325.4, -22181.05, 0.09845027, 0.06816686, -183551.98, -37347.61, 0.0, 10.0001545, 9.999074 
1.3650368e+3, 2.950814e+2, -159605.58, -199894.56, -29022.574, 0.022157952, 0.08975977, -144421.47, -96211.24, 0.0, 9.999661, 9.999122 
1.36503e+3, 3.0508095e+2, -95756.766, -137042.4, -40407.598, 0.0066037225, 0.13019778, -71024.484, -71024.484, 0.0, 9.999735, 9.999185 
1.3650239e+3, 3.1507975e+2, 7293.014, -71676.016, -15607.422, 0.07583821, 0.083241306, 10265.755, 10265.755, 0.0, 10.000371, 9.99933 
1.37515e+3, 1.2509964e+2, -1625790.1, -1790396.1, -50005.684, 0.050838668, -0.016322669, -1611789.6, 102235.47, 0.0058605294, 10.001135, 9.998932 
1.3751428e+3, 1.3509983e+2, -1476990.3, -1601456.8, 53948.547, -0.17885567, 0.056014776, -1456862.0, 159163.19, 0.0034352848, 10.001182, 9.999541 
1.3751397e+3, 1.4509928e+2, -1393864.1, -1535355.9, -8204.981, 0.044430368, 0.05630661, -1393389.9, 124641.81, 0.0014510443, 10.001189, 9.999312 
1.3751325e+3, 1.5509857e+2, -1308040.8, -1446889.3, -9048.938, -0.022399593, 0.055603266, -1307453.5, 112586.05, 0.0003520353, 10.0011215, 9.999279 
1.3751256e+3, 1.6509774e+2, -1241973.6, -1385393.5, -16835.693, -0.072659306, 0.05696082, -1240023.9, 82024.78, 0.000027536262, 10.000991, 9.999092 
1.3751194e+3, 1.7509697e+2, -1168665.6, -1292915.1, -25661.273, -0.04310187, 0.06381235, -1163574.5, 60482.984, 0.000000027808229, 10.000794, 9.999148 
1.375113e+3, 1.8509646e+2, -1081574.1, -1188541.4, -33537.824, -0.02736555, 0.09252895, -1071928.6, 54135.426, 0.0, 10.000669, 9.999253 
1.3751063e+3, 1.9509616e+2, -987291.44, -1087193.1, -26456.969, -0.047247816, 0.13324602, -980717.44, 47351.207, 0.0, 10.000621, 9.999299 
1.3750994e+3, 2.0509535e+2, -905594.1, -1004448.25, -38066.89, -0.035174068, 0.12673727, -892634.3, 37442.492, 0.0, 10.000541, 9.999233 
1.375093e+3, 2.1509409e+2, -819930.5, -906909.8, -41631.504, 0.016333722, 0.07125622, -803216.06, 28871.727, 0.0, 10.000433, 9.999282 
1.375086e+3, 2.2509335e+2, -736401.06, -828241.5, -47888.086, 0.02784688, 0.07733428, -715974.2, 18120.541, 0.0, 10.000388, 9.99917 
1.3750786e+3, 2.3509318e+2, -633267.3, -723061.56, -42331.656, -0.0023803792, 0.13740018, -616457.7, 19639.814, 0.0, 10.000403, 9.999212 
1.3750716e+3, 2.4509232e+2, -567160.0, -656771.3, -48152.348, 0.0066724024, 0.13898839, -546191.8, -8085.7095, 0.0, 10.000256, 9.999065 
1.3750647e+3, 2.5509083e+2, -509768.06, -572729.3, -55881.832, 0.05481334, 0.07944807, -477109.72, -36989.836, 0.0, 9.999953, 9.999114 
1.3750577e+3, 2.6508996e+2, -413019.88, -477908.38, -45646.156, 0.063705906, 0.08215021, -389462.34, -47334.027, 0.0, 9.999956, 9.999091 
1.3750504e+3, 2.7508965e+2, -268879.16, -352583.53, -40770.203, 0.033050027, 0.13885497, -252303.48, -8172.0776, 0.0, 10.000251, 9.999136 
1.3750435e+3, 2.8508866e+2, -198503.28, -289737.47, -39853.273, 0.037794467, 0.13628271, -183546.42, -37405.918, 0.0, 10.000154, 9.998942 
1.375037e+3, 2.9508704e+2, -168107.17, -218026.05, -45878.23, 0.08042044, 0.07316392, -140838.39, -92683.51, 0.0, 9.999661, 9.998999 
1.3750304e+3, 3.0508602e+2, -99585.96, -145789.25, -15411.589, 0.07320222, 0.067151874, -94917.06, -94917.06, 0.0, 9.999738, 9.999125 
1.3750239e+3, 3.1508583e+2, -1727.4095, -88644.89, 11858.395, 0.026319774, 0.12985884, -138.57927, -138.57927, 0.0, 10.000363, 9.999217 
1.385151e+3, 1.2510607e+2, -1599984.4, -1784235.5, -56303.035, 0.030039905, -0.011570635, -1584141.6, 129821.164, 0.006152381, 10.001343, 9.998874 
1.3851441e+3, 1.3510638e+2, -1455617.9, -1596680.0, 76763.25, -0.16233306, 0.07947845, -1421902.9, 194058.69, 0.0036092806, 10.001354, 9.999492 
1.3851409e+3, 1.4510566e+2, -1378835.8, -1530195.3, 13349.776, 0.039735764, 0.06495837, -1377667.4, 140302.42, 0.0015272575, 10.001303, 9.999292 
1.3851337e+3, 1.551049e+2, -1304177.9, -1447121.0, 112.47262, -0.024505163, 0.06179989, -1304177.9, 115800.055, 0.0003731033, 10.001158, 9.99926 
1.3851266e+3, 1.6510406e+2, -1249119.6, -1394572.5, -8202.343, -0.07286224, 0.063619725, -1248658.5, 73328.68, 0.000030085705, 10.000968, 9.99904 
1.3851203e+3, 1.7510326e+2, -1178003.0, -1303260.0, -1461.3401, -0.044187557, 0.07297746, -1177986.0, 46010.53, 0.000000039188958, 10.000757, 9.999095 
1.3851136e+3, 1.8510267e+2, -1087042.0, -1192575.6, -2788.3506, -0.025638346, 0.10003633, -1086968.4, 39035.17, 0.0, 10.000638, 9.99924 
1.3851069e+3, 1.9510233e+2, -990848.9, -1090016.4, -10661.152, -0.03828521, 0.13675782, -989715.7, 38292.586, 0.0, 10.000603, 9.999288 
1.3851002e+3, 2.0510146e+2, -895351.9, -998460.9, -24919.79, -0.025987059, 0.12395858, -889645.0, 40371.703, 0.0, 10.000608, 9.999241 
1.3850936e+3, 2.151001e+2, -787487.75, -890510.75, -21619.508, 0.018035414, 0.058272053, -783134.8, 48893.57, 0.0, 10.000654, 9.999287 
1.3850865e+3, 2.2509937e+2, -712080.2, -821867.7, -33697.36, 0.027830612, 0.066717535, -702562.5, 31472.86, 0.0, 10.00058, 9.999121 
1.3850792e+3, 2.3509929e+2, -638180.25, -729936.8, -43337.633, 0.0015075335, 0.1416363, -620947.8, 15089.646, 0.0, 10.000391, 9.999169 
1.3850719e+3, 2.450984e+2, -563860.56, -660035.06, -52370.14, 0.01423128, 0.14472371, -540849.2, -2802.7517, 0.0, 10.000302, 9.999019 
1.3850649e+3, 2.5509676e+2, -461242.66, -554358.0, -48742.246, 0.06546408, 0.07355675, -440395.4, -333.7043, 0.0, 10.00031, 9.999067 
1.3850579e+3, 2.6509583e+2, -374679.6, -459236.88, -30296.549, 0.06473345, 0.07260843, -364945.1, -22874.463, 0.0, 10.00022, 9.99909 
1.3850504e+3, 2.7509558e+2, -300545.03, -367555.84, -36227.02, 0.013084874, 0.13260292, -284704.63, -40631.324, 0.0, 10.000033, 9.999137 
1.3850434e+3, 2.8509456e+2, -224723.06, -309753.47, -45566.684, 0.023688864, 0.1353455, -204917.61, -58835.438, 0.0, 10.000008, 9.998874 
1.3850372e+3, 2.9509297e+2, -100659.09, -192075.31, -48071.293, 0.0971153, 0.078445435, -80034.1, -31937.58, 0.0, 10.000156, 9.998937 
1.3850304e+3, 3.0509153e+2, -49117.324, -122090.99, -1287.9203, 0.092028484, 0.0337153, -49094.6, -49094.6, 0.0, 10.00009, 9.999117 
1.3850237e+3, 3.1509167e+2, -84142.016, -122123.78, 31169.85, 0.0042033177, 0.13355325, -66633.41, -66633.41, 0.0, 9.999774, 9.999269 
1.3951515e+3, 1.2511298e+2, -1583657.4, -1751221.8, -63987.906, -0.04921038, 0.035329115, -1562017.1, 151879.89, 0.006457894, 10.001345, 9.999101 
1.3951461e+3, 1.3511284e+2, -1442185.0, -1568465.3, 77134.59, -0.11087487, 0.060596634, -1405643.5, 210254.53, 0.0037909818, 10.001352, 9.999686 
1.3951425e+3, 1.4511187e+2, -1390596.9, -1555294.6, 7147.3164, 0.08396298, 0.020720845, -1390287.4, 127621.055, 0.0016060187, 10.001304, 9.999121 
1.3951348e+3, 1.5511157e+2, -1315690.6, -1471062.8, -6101.4595, -0.034038603, 0.080861725, -1315451.5, 104461.97, 0.00039434384, 10.001157, 9.999097 
1.3951273e+3, 1.6511092e+2, -1237944.5, -1372804.6, -17159.375, -0.099673465, 0.10245908, -1235795.4, 86125.62, 0.000032562886, 10.000973, 9.999188 
1.3951209e+3, 1.7511003e+2, -1166385.1, -1281652.0, -9866.85, -0.05466015, 0.08769901, -1165546.6, 58383.54, 0.00000005013657, 10.000766, 9.99924 
1.3951144e+3, 1.8510918e+2, -1100099.5, -1221879.3, -4908.3745, -0.015020172, 0.09109431, -1099902.0, 26037.354, 0.0, 10.000646, 9.999036 
1.395108e+3, 1.9510841e+2, -1003854.2, -1118921.9, -12247.642, -0.0010036138, 0.10515991, -1002565.0, 25383.457, 0.0, 10.000609, 9.999087 
1.3951011e+3, 2.0510761e+2, -887810.3, -983961.7, -23728.771, -0.00031322017, 0.10670504, -882273.3, 47682.707, 0.0, 10.000612, 9.999339 
1.395094e+3, 2.1510687e+2, -780399.2, -876845.0, -20269.49, -0.0041015637, 0.09149424, -776312.44, 55649.277, 0.0, 10.000657, 9.99938 
1.3950871e+3, 2.2510597e+2, -728577.7, -856860.94, -41197.99, 0.008703227, 0.09078786, -716486.6, 17483.744, 0.0, 10.000581, 9.99888 
1.3950798e+3, 2.35105e+2, -654395.56, -764422.94, -50086.105, 0.03435539, 0.09921168, -635010.8, 970.6749, 0.0, 10.000393, 9.998933 
1.3950725e+3, 2.4510406e+2, -555779.8, -643990.06, -51966.582, 0.041416932, 0.10416303, -531724.94, 6265.89, 0.0, 10.000303, 9.999129 
1.3950649e+3, 2.551032e+2, -453318.6, -538775.94, -47838.51, 0.030956576, 0.100921914, -431904.75, 8093.2344, 0.0, 10.000312, 9.999174 
1.3950577e+3, 2.6510215e+2, -383648.9, -478905.75, -36459.156, 0.02979998, 0.08814671, -371296.2, -29288.316, 0.0, 10.000223, 9.998955 
1.3950506e+3, 2.751009e+2, -309830.44, -386770.03, -41865.566, 0.03826858, 0.06202169, -291443.8, -47423.996, 0.0, 10.000031, 9.999007 
1.3950439e+3, 2.850999e+2, -226135.81, -312855.7, -39201.715, 0.05192662, 0.06961432, -211041.84, -65012.68, 0.0, 10.000008, 9.998853 
1.395037e+3, 2.9509908e+2, -102823.59, -196828.94, -40963.74, 0.070625514, 0.101279065, -87478.22, -39442.223, 0.0, 10.000156, 9.998905 
1.3950303e+3, 3.0509737e+2, -44746.797, -113639.17, -12212.406, 0.061772376, 0.026034836, -42645.99, -42645.99, 0.0, 10.00009, 9.999175 
1.3950235e+3, 3.1509727e+2, -68464.1, -88997.25, 21500.566, 0.003978274, 0.092198536, -54904.707, -54904.707, 0.0, 9.999769, 9.999499 
1.405153e+3, 1.2511982e+2, -1569014.4, -1732351.4, -54404.81, -0.041341215, 0.05560567, -1552552.3, 161278.94, 0.0067786416, 10.001395, 9.999206 
1.4051475e+3, 1.3511954e+2, -1451598.8, -1567218.6, 81255.13, -0.10158074, 0.06210899, -1409687.1, 206145.56, 0.0039822184, 10.001264, 9.999738 
1.4051436e+3, 1.4511837e+2, -1419901.3, -1572757.8, 8480.958, 0.06466401, 0.0016321122, -1419432.3, 98412.53, 0.0016886669, 10.001119, 9.999089 
1.4051358e+3, 1.5511827e+2, -1344383.4, -1488090.9, 4644.7524, -0.028165394, 0.08400287, -1344233.5, 75614.79, 0.0004161435, 10.000975, 9.999067 
1.4051284e+3, 1.6511768e+2, -1239105.6, -1372316.0, -3158.433, -0.08587688, 0.11367485, -1239030.8, 82824.516, 0.000035020938, 10.000961, 9.999196 
1.4051218e+3, 1.7511673e+2, -1121093.9, -1258786.4, -6779.0923, -0.05049768, 0.0931697, -1120760.9, 103103.664, 0.00000006103049, 10.001074, 9.9992485 
1.4051154e+3, 1.851158e+2, -1046335.8, -1200545.3, -2880.3157, -0.012694387, 0.08833589, -1046282.0, 79592.39, 0.0, 10.001037, 9.998993 
1.4051086e+3, 1.9511487e+2, -969247.56, -1107025.1, 943.25836, 0.0059330934, 0.0920185, -969241.1, 58643.492, 0.0, 10.000869, 9.9990425 
1.4051019e+3, 2.0511411e+2, -874462.3, -988459.94, -8738.584, 0.0034701885, 0.10226584, -873796.3, 56095.883, 0.0, 10.000752, 9.99924 
1.4050946e+3, 2.1511352e+2, -782763.8, -888468.3, -20181.242, -0.010786067, 0.11439437, -779041.8, 52855.133, 0.0, 10.000689, 9.999284 
1.4050876e+3, 2.2511251e+2, -717516.2, -849125.8, -42006.867, 0.0031117988, 0.10668098, -705251.44, 28655.09, 0.0, 10.0006485, 9.9989 
1.4050803e+3, 2.3511116e+2, -618934.4, -745467.75, -32435.914, 0.040492326, 0.07458256, -611104.2, 24816.303, 0.0, 10.000629, 9.998948 
1.405073e+3, 2.4511021e+2, -515937.84, -631786.75, -27849.33, 0.04448533, 0.080741934, -509590.8, 28338.967, 0.0, 10.0006075, 9.999066 
1.4050654e+3, 2.551097e+2, -418236.84, -528882.56, -37380.223, 0.017158182, 0.1175213, -406792.2, 33142.02, 0.0, 10.000584, 9.999111 
1.405058e+3, 2.6510853e+2, -363877.78, -479959.4, -40293.023, 0.022997646, 0.10258908, -351262.66, -9317.444, 0.0, 10.000405, 9.998858 
1.4050509e+3, 2.7510676e+2, -307952.4, -395781.28, -43858.25, 0.06064533, 0.03567223, -289802.16, -45840.43, 0.0, 10.00009, 9.998916 
1.4050438e+3, 2.8510574e+2, -236619.38, -319427.97, -26842.242, 0.06639413, 0.047138657, -228679.77, -82708.45, 0.0, 9.999943, 9.998838 
1.4050367e+3, 2.9510537e+2, -134079.39, -213898.3, -28116.42, 0.04310871, 0.12172882, -125169.81, -77195.21, 0.0, 9.999949, 9.998887 
1.40503e+3, 3.051034e+2, -73351.234, -130145.02, -11904.201, 0.040214647, 0.023489945, -70957.0, -70957.0, 0.0, 9.999906, 9.99915 
1.4050233e+3, 3.1510326e+2, -44132.438, -52710.16, 13202.511, 0.013577792, 0.091101825, -34539.637, -34539.637, 0.0, 9.999831, 9.999719 
1.4151552e+3, 1.2512663e+2, -1570060.4, -1734675.8, -64298.773, 0.045592982, 0.048909582, -1547922.5, 165842.4, 0.0071187555, 10.001394, 9.999191 
1.4151484e+3, 1.3512656e+2, -1457773.8, -1579705.0, 75676.76, -0.13215975, 0.08484902, -1421560.3, 194204.5, 0.0041865646, 10.001263, 9.999652 
1.4151439e+3, 1.4512524e+2, -1411760.4, -1558398.9, 1913.7915, -0.014795747, 0.008566409, -1411735.4, 106042.78, 0.001777482, 10.001127, 9.999186 
1.415137e+3, 1.5512505e+2, -1336377.4, -1473796.4, -1116.6394, -0.009179551, 0.07159202, -1336368.3, 83413.56, 0.00043918352, 10.000982, 9.999162 
1.4151299e+3, 1.651244e+2, -1247143.0, -1391457.4, 175.78313, -0.03561333, 0.098474756, -1247142.9, 74646.414, 0.000037541082, 10.00097, 9.999061 
1.415123e+3, 1.7512344e+2, -1129407.3, -1277482.3, -3161.313, -0.033169698, 0.0899494, -1129339.9, 94459.375, 0.00000007226826, 10.001078, 9.999119 
1.4151162e+3, 1.8512256e+2, -1038442.2, -1185346.8, -9997.611, -0.019857477, 0.09151519, -1037764.94, 88043.445, 0.0, 10.00104, 9.999096 
1.4151093e+3, 1.9512175e+2, -961603.3, -1092685.6, -5749.309, -0.016517699, 0.09623446, -961351.6, 66464.93, 0.0, 10.000874, 9.99914 
1.4151023e+3, 2.051209e+2, -894083.75, -1030613.44, -11915.52, -0.013708717, 0.109950215, -893051.6, 36773.574, 0.0, 10.000756, 9.998949 
1.4150955e+3, 2.1512009e+2, -802266.9, -929922.7, -22657.168, -0.0038543008, 0.12717687, -798364.8, 33469.03, 0.0, 10.00069, 9.999 
1.4150883e+3, 2.2511904e+2, -698802.56, -810633.6, -42822.55, 0.008319429, 0.11388356, -684288.56, 49555.223, 0.0, 10.0006485, 9.999166 
1.4150809e+3, 2.3511778e+2, -600133.7, -707618.6, -32916.625, 0.020021787, 0.067068525, -590854.25, 45000.207, 0.0, 10.000633, 9.9992075 
1.4150734e+3, 2.4511683e+2, -532019.7, -666290.3, -28488.09, 0.023874268, 0.073653795, -526225.44, 11637.948, 0.0, 10.00061, 9.998829 
1.415066e+3, 2.5511625e+2, -434885.97, -563351.94, -37744.574, 0.02216439, 0.12512566, -424617.1, 15253.101, 0.0, 10.000582, 9.998877 
1.4150585e+3, 2.65115e+2, -368273.84, -489780.66, -51578.31, 0.041411303, 0.1170789, -349332.22, -7449.6313, 0.0, 10.000406, 9.998792 
1.4150512e+3, 2.7511317e+2, -312207.44, -406099.8, -54449.74, 0.07820417, 0.050424963, -287259.8, -43360.33, 0.0, 10.000093, 9.998844 
1.4150438e+3, 2.8511214e+2, -235406.13, -318143.25, -25693.486, 0.065535836, 0.06521791, -228076.5, -82167.44, 0.0, 9.999947, 9.998846 
1.4150363e+3, 2.951118e+2, -134163.34, -213725.6, -26298.377, 0.011154561, 0.1434731, -126256.5, -78344.43, 0.0, 9.999947, 9.998891 
1.4150298e+3, 3.0510962e+2, -82767.305, -150064.06, -13634.175, 0.023236299, 0.030843386, -80109.984, -80109.984, 0.0, 9.999906, 9.999014 
1.4150234e+3, 3.1510958e+2, -31921.662, -27764.09, 11635.613, 0.029862856, 0.11880788, -18023.027, -18023.027, 0.0, 9.999832, 9.99989 
1.4251567e+3, 1.251336e+2, -1566632.4, -1738631.1, -49236.207, 0.050033715, 0.034187753, -1553535.3, 160161.36, 0.007483504, 10.001445, 9.999139 
1.4251499e+3, 1.3513373e+2, -1461226.6, -1598665.9, 87254.1, -0.109119505, 0.10615822, -1418880.3, 196815.08, 0.004407692, 10.001314, 9.999496 
1.425145e+3, 1.4513229e+2, -1386708.0, -1542325.9, 11607.78, -0.02015661, 0.024006724, -1385846.9, 131863.14, 0.0018747556, 10.001285, 9.999218 
1.4251381e+3, 1.55132e+2, -1279409.5, -1442237.4, 3411.3455, -0.009764591, 0.07281729, -1279338.0, 140376.22, 0.0004643644, 10.001358, 9.999197 
1.4251311e+3, 1.651313e+2, -1204947.4, -1377330.4, 5328.59, -0.03057383, 0.09592585, -1204782.9, 116939.13, 0.000040275583, 10.001289, 9.999002 
1.4251243e+3, 1.7513034e+2, -1130223.0, -1284138.4, 6649.664, -0.024187082, 0.092671834, -1129936.3, 93795.766, 0.00000008454083, 10.0011015, 9.99906 
1.4251173e+3, 1.8512942e+2, -1050972.5, -1196892.9, -5970.978, -0.013615273, 0.09742408, -1050728.6, 75012.75, 0.0, 10.000979, 9.999045 
1.4251103e+3, 1.9512859e+2, -957280.25, -1095594.9, -13209.647, -0.018579936, 0.10424165, -956030.0, 71719.73, 0.0, 10.000928, 9.999092 
1.4251031e+3, 2.0512766e+2, -882640.4, -1029975.6, -14328.86, -0.016054548, 0.1126489, -881259.8, 48499.49, 0.0, 10.000858, 9.998904 
1.4250962e+3, 2.1512666e+2, -793372.75, -930524.3, -7683.0977, 0.000012914737, 0.11747841, -792943.7, 38825.875, 0.0, 10.000773, 9.998955 
1.425089e+3, 2.2512561e+2, -682625.75, -799866.25, -24779.541, 0.009549553, 0.10573863, -677603.56, 56175.715, 0.0, 10.000747, 9.999191 
1.4250815e+3, 2.3512453e+2, -577171.44, -693387.3, -33279.313, 0.010531271, 0.07368039, -568316.4, 67471.56, 0.0, 10.000778, 9.999235 
1.4250739e+3, 2.4512357e+2, -525533.2, -673206.56, -36331.867, 0.013591426, 0.079923265, -517078.56, 20718.625, 0.0, 10.000699, 9.998737 
1.4250664e+3, 2.5512272e+2, -450325.72, -580412.5, -35321.492, 0.01982972, 0.11622542, -441353.9, -1547.1647, 0.0, 10.000518, 9.998789 
1.425059e+3, 2.6512143e+2, -361561.84, -493707.56, -43239.945, 0.038567822, 0.11284703, -348670.7, -6851.0264, 0.0, 10.0004835, 9.998728 
1.4250514e+3, 2.7511978e+2, -243748.55, -380560.13, -46406.71, 0.06711946, 0.06969316, -229492.77, 14342.23, 0.0, 10.000594, 9.998778 
1.4250438e+3, 2.851187e+2, -167192.88, -294642.78, -23692.816, 0.051564578, 0.08667713, -162930.92, -17085.686, 0.0, 10.000456, 9.998761 
1.4250362e+3, 2.9511812e+2, -119289.16, -216266.1, -32481.184, -0.0008018418, 0.1462738, -109415.32, -61564.344, 0.0, 10.0000925, 9.998801 
1.4250296e+3, 3.0511582e+2, -100177.32, -172975.03, -20167.887, 0.018591398, 0.03198412, -94963.43, -94963.43, 0.0, 9.999849, 9.998883 
1.4250231e+3, 3.151159e+2, -36218.45, -6993.1313, 4178.606, 0.019644605, 0.14682297, -6407.417, -6407.417, 0.0, 9.999704, 10.000094 
1.4351574e+3, 1.2514079e+2, -1572037.3, -1752297.3, -55585.984, -0.023149507, 0.010921431, -1556274.8, 157351.23, 0.007877122, 10.001452, 9.9990425 
1.435152e+3, 1.3514115e+2, -1476604.4, -1631029.3, 81918.31, -0.037392914, 0.12668851, -1441245.3, 174378.42, 0.00464788, 10.001316, 9.999273 
1.435147e+3, 1.451396e+2, -1388774.1, -1548184.0, 13159.566, 0.04166386, 0.04788027, -1387695.1, 129944.76, 0.0019819823, 10.00129, 9.999177 
1.4351395e+3, 1.5513918e+2, -1280994.1, -1446356.4, 5310.6563, -0.029447585, 0.08719277, -1280823.8, 138821.34, 0.00049257313, 10.00136, 9.999168 
1.435132e+3, 1.6513842e+2, -1203386.6, -1376147.3, -2882.364, -0.06908158, 0.10648373, -1203338.5, 118314.375, 0.000043431377, 10.001296, 9.999009 
1.4351253e+3, 1.7513745e+2, -1129168.4, -1283932.6, -871.89557, -0.023988096, 0.10086656, -1129163.4, 94499.17, 0.00000010052836, 10.001108, 9.999059 
1.4351185e+3, 1.8513642e+2, -1063775.1, -1225616.9, -8662.668, 0.0041597905, 0.10590706, -1063312.9, 62360.21, 0.0, 10.000987, 9.998845 
1.4351113e+3, 1.9513544e+2, -969943.5, -1123718.1, -15385.946, -0.0022292184, 0.11574135, -968419.2, 59264.566, 0.0, 10.000934, 9.998898 
1.4351042e+3, 2.0513436e+2, -868840.75, -1002653.75, -17768.414, -0.005903106, 0.110400125, -866521.56, 63172.61, 0.0, 10.000862, 9.99909 
1.4350969e+3, 2.1513325e+2, -779772.56, -904071.3, -10768.976, 0.00036334535, 0.08559368, -778846.5, 52857.555, 0.0, 10.000779, 9.999135 
1.4350897e+3, 2.2513226e+2, -696561.2, -830145.94, -23825.072, 0.0066833682, 0.08198343, -692439.2, 41273.863, 0.0, 10.0007515, 9.998982 
1.4350821e+3, 2.3513143e+2, -591557.4, -723950.2, -31926.594, 0.010647314, 0.09453798, -584260.44, 51460.277, 0.0, 10.000779, 9.999025 
1.4350747e+3, 2.4513036e+2, -521554.8, -665618.44, -42860.445, 0.011202282, 0.09945394, -509767.78, 27963.443, 0.0, 10.0007, 9.99879 
1.4350668e+3, 2.5512913e+2, -446494.06, -573332.5, -41270.145, 0.009018943, 0.09025524, -434248.1, 5495.889, 0.0, 10.00052, 9.998837 
1.4350592e+3, 2.6512784e+2, -365078.97, -501750.88, -38189.52, 0.014403611, 0.08961393, -355131.84, -13375.277, 0.0, 10.000485, 9.9986725 
1.4350517e+3, 2.7512664e+2, -247951.53, -388800.16, -41072.383, 0.026613854, 0.095394574, -236849.63, 6918.4517, 0.0, 10.000591, 9.998724 
1.4350441e+3, 2.8512546e+2, -180620.42, -323326.28, -36263.76, 0.021911707, 0.113118775, -171933.98, -26154.266, 0.0, 10.000457, 9.998565 
1.4350364e+3, 2.951242e+2, -134061.25, -248010.83, -44405.363, 0.0038114197, 0.1273474, -118800.58, -71008.664, 0.0, 10.000094, 9.998583 
1.4350295e+3, 3.0512187e+2, -107353.08, -187870.39, -25115.715, 0.023766974, 0.025339436, -100161.15, -100161.15, 0.0, 9.999849, 9.998781 
1.4350224e+3, 3.1512222e+2, -20131.584, 27647.324, -1621.7329, -0.019307021, 0.17524934, 27702.307, 27702.307, 0.0, 9.999699, 10.000336 
1.4451589e+3, 1.2514842e+2, -1537819.1, -1735093.8, -54667.883, -0.031223217, 0.03168049, -1523682.8, 189868.97, 0.008301398, 10.00169, 9.999044 
1.4451535e+3, 1.3514847e+2, -1452875.0, -1633770.6, 87869.34, -0.017258516, 0.1270673, -1417220.4, 198331.95, 0.0049079615, 10.001542, 9.999145 
1.4451483e+3, 1.4514673e+2, -1376648.3, -1554333.8, 25511.785, 0.041780323, 0.042618115, -1373057.9, 144512.6, 0.0020998851, 10.001429, 9.999066 
1.4451407e+3, 1.5514642e+2, -1286559.6, -1460121.0, 11667.386, -0.027106022, 0.10413373, -1285778.8, 133796.16, 0.00052445993, 10.001372, 9.999066 
1.4451332e+3, 1.6514571e+2, -1197339.0, -1366834.0, -2075.0317, -0.063382566, 0.1286742, -1197313.6, 124268.74, 0.000047180834, 10.001313, 9.999063 
1.4451265e+3, 1.7514467e+2, -1103345.6, -1265421.6, 2858.0103, -0.01665335, 0.11125252, -1103295.3, 120296.93, 0.00000012546444, 10.001263, 9.99911 
1.4451197e+3, 1.8514355e+2, -1036165.1, -1221176.9, 3854.6792, 0.012480616, 0.1060868, -1036084.8, 89518.68, 0.0, 10.001218, 9.998763 
1.4451124e+3, 1.9514237e+2, -939553.6, -1118011.8, 4953.841, 0.0060112705, 0.1094022, -939416.2, 88199.52, 0.0, 10.001183, 9.998816 
1.4451051e+3, 2.0514129e+2, -833818.5, -982989.06, -1916.0826, -0.0004221417, 0.10535255, -833793.94, 95832.33, 0.0, 10.001092, 9.999114 
1.4450978e+3, 2.1514028e+2, -753315.94, -888528.9, -7308.0737, 0.00074708194, 0.0884084, -752922.1, 78712.695, 0.0, 10.000952, 9.999157 
1.4450905e+3, 2.2513925e+2, -687402.1, -837113.44, -18353.33, 0.0031700598, 0.084935606, -685185.0, 48459.258, 0.0, 10.000865, 9.998879 
1.4450829e+3, 2.3513824e+2, -591944.3, -735539.8, -19119.93, 0.00362276, 0.09041778, -589442.06, 46212.035, 0.0, 10.000826, 9.998922 
1.4450751e+3, 2.4513716e+2, -506903.6, -652177.6, -30109.012, 0.003943578, 0.09523813, -500910.53, 36754.3, 0.0, 10.000773, 9.998847 
1.4450674e+3, 2.5513604e+2, -414909.78, -551985.7, -29128.832, 0.0047909967, 0.09187418, -408976.66, 30699.395, 0.0, 10.00071, 9.998893 
1.4450596e+3, 2.6513475e+2, -351514.1, -501857.44, -22382.55, 0.00382217, 0.0910931, -348252.63, -6564.06, 0.0, 10.0006075, 9.998612 
1.4450519e+3, 2.7513343e+2, -269852.47, -405363.13, -26471.102, 0.0005863006, 0.09160571, -264865.06, -21163.799, 0.0, 10.000468, 9.998669 
1.4450441e+3, 2.851321e+2, -206099.52, -343817.13, -25391.023, -0.0011733071, 0.10413797, -201567.33, -55853.24, 0.0, 10.000319, 9.99849 
1.4450365e+3, 2.9513076e+2, -129064.79, -255368.58, -24820.326, 0.0016048418, 0.112700544, -124362.35, -76634.87, 0.0, 10.000171, 9.998496 
1.4450295e+3, 3.0512843e+2, -101454.75, -210929.06, -1618.8735, 0.025615554, 0.029543234, -101430.81, -101430.81, 0.0, 10.000002, 9.9985485 
1.4450218e+3, 3.151283e+2, 1825.922, 45364.266, 8253.491, -0.044339422, 0.15294431, 46876.35, 46876.35, 0.0, 9.999821, 10.000396 
1.4551611e+3, 1.2515658e+2, -1531961.1, -1723630.4, -60231.258, 0.020044481, 0.09475224, -1514605.3, 198868.05, 0.008755289, 10.001692, 9.999124 
1.4551549e+3, 1.3515577e+2, -1456123.4, -1641302.9, 81114.055, -0.046292625, 0.108455874, -1425618.3, 189862.31, 0.0051877103, 10.001546, 9.999091 
1.4551492e+3, 1.4515378e+2, -1388160.1, -1580612.4, 21282.086, -0.016897462, 0.010975696, -1385834.8, 131666.16, 0.0022286694, 10.001436, 9.998883 
1.4551423e+3, 1.5515381e+2, -1298592.1, -1485252.9, 8748.747, -0.0052020987, 0.123799846, -1298182.9, 121320.41, 0.0005603208, 10.001371, 9.998895 
1.4551352e+3, 1.651532e+2, -1190564.0, -1354042.4, -5092.5625, -0.018006267, 0.16300228, -1190405.5, 131104.52, 0.00005156165, 10.001317, 9.999149 
1.4551279e+3, 1.7515202e+2, -1096309.1, -1252502.6, 351.85266, -0.0033606703, 0.123739175, -1096308.3, 127212.04, 0.00000016567238, 10.001268, 9.999197 
1.4551209e+3, 1.8515076e+2, -1033425.25, -1217261.6, 1641.1677, 0.010410007, 0.09887664, -1033410.6, 92121.87, 0.0, 10.001224, 9.998789 
1.4551136e+3, 1.9514947e+2, -937192.44, -1114859.4, 3304.9038, 0.005865235, 0.08520408, -937131.0, 90414.625, 0.0, 10.001188, 9.998836 
1.4551061e+3, 2.0514846e+2, -842979.1, -1003363.5, -7911.017, -0.00018518885, 0.096610926, -842589.9, 86965.62, 0.0, 10.001096, 9.998973 
1.4550987e+3, 2.1514776e+2, -762497.75, -908633.9, -12690.463, -0.000013176375, 0.1251296, -761403.9, 70157.98, 0.0, 10.000954, 9.999019 
1.4550912e+3, 2.2514659e+2, -687511.6, -837634.44, -19831.559, -0.0027936136, 0.11420906, -684936.06, 48636.97, 0.0, 10.000864, 9.998877 
1.4550836e+3, 2.35145e+2, -591638.7, -735505.8, -19990.78, -0.010913314, 0.061446, -588912.56, 46675.504, 0.0, 10.000827, 9.998923 
1.4550759e+3, 2.4514395e+2, -502928.84, -644532.5, -32053.15, -0.008089865, 0.06679454, -496011.28, 41586.855, 0.0, 10.000774, 9.9989 
1.4550681e+3, 2.5514343e+2, -411345.0, -544850.75, -30663.824, 0.00585225, 0.1208632, -404638.94, 34964.14, 0.0, 10.00071, 9.998943 
1.4550602e+3, 2.651421e+2, -356393.22, -512260.63, -26835.156, 0.0041956203, 0.11757326, -351902.5, -10286.692, 0.0, 10.0006075, 9.998542 
1.4550522e+3, 2.7514014e+2, -274991.22, -416002.53, -30548.258, -0.013047317, 0.058538165, -268657.78, -25022.94, 0.0, 10.000466, 9.998597 
1.4550443e+3, 2.851387e+2, -201610.52, -335127.6, -30215.973, -0.0183532, 0.059774086, -195090.77, -49442.156, 0.0, 10.0003195, 9.99855 
1.4550366e+3, 2.9513776e+2, -126113.76, -249769.7, -29085.504, -0.008757913, 0.10201918, -119614.1, -71956.195, 0.0, 10.000171, 9.998535 
1.4550294e+3, 3.051355e+2, -127431.37, -265596.84, -7146.713, 0.02056889, 0.045624014, -127062.68, -127062.68, 0.0, 10.000004, 9.998172 
1.4550215e+3, 3.1513417e+2, -10733.059, 19277.959, 44.228405, -0.05953989, 0.08348607, 19278.025, 19278.025, 0.0, 9.999819, 10.000218 
1.4651628e+3, 1.2516385e+2, -1537801.3, -1713454.6, -79990.1, 0.036225095, 0.10650652, -1506834.3, 206568.78, 0.009235504, 10.001597, 9.999239 
1.4651565e+3, 1.3516305e+2, -1436932.3, -1631632.1, 61290.664, -0.039861158, 0.12078122, -1419245.0, 196164.22, 0.0054858825, 10.001678, 9.999092 
1.4651506e+3, 1.4516102e+2, -1376430.3, -1576326.3, 2818.6646, -0.029845387, 0.01752012, -1376390.5, 141039.38, 0.002367959, 10.001527, 9.998867 
1.4651439e+3, 1.5516081e+2, -1326080.8, -1499309.8, 1965.7906, 0.007857357, 0.10927901, -1326058.5, 93375.83, 0.0006001031, 10.001188, 9.998886 
1.4651364e+3, 1.6516016e+2, -1217948.8, -1367443.6, 1192.7052, 0.0023444153, 0.14554296, -1217939.3, 103502.07, 0.00005646771, 10.001132, 9.9991455 
1.4651294e+3, 1.7515913e+2, -1085403.4, -1247325.3, -1323.7292, 0.0040286034, 0.12100051, -1085392.6, 138057.94, 0.00000022299002, 10.001346, 9.999194 
1.4651223e+3, 1.8515795e+2, -1011723.44, -1197810.6, -9191.306, 0.012645583, 0.1017433, -1011270.56, 114191.195, 0.0, 10.001336, 9.998867 
1.4651148e+3, 1.9515671e+2, -940942.8, -1107839.8, -3807.9065, 0.010398388, 0.0848378, -940856.0, 86618.17, 0.0, 10.001127, 9.998912 
1.4651074e+3, 2.0515572e+2, -859393.94, -1017399.25, -8694.05, 0.0025499568, 0.09610766, -858916.94, 70567.1, 0.0, 10.001012, 9.998917 
1.4650998e+3, 2.1515502e+2, -762735.1, -914894.6, -8065.8906, -0.0038081596, 0.12867074, -762308.75, 69182.375, 0.0, 10.00098, 9.998962 
1.465092e+3, 2.2515386e+2, -680431.4, -825872.25, -10152.802, -0.0075847055, 0.11932282, -679726.06, 53775.95, 0.0, 10.000878, 9.998951 
1.4650844e+3, 2.3515233e+2, -603857.6, -732967.7, -5803.145, -0.011444826, 0.064461656, -603597.3, 31918.729, 0.0, 10.000709, 9.998997 
1.4650765e+3, 2.4515124e+2, -525320.2, -660544.56, -15967.069, -0.009699407, 0.06498812, -523460.4, 14065.894, 0.0, 10.000645, 9.998852 
1.4650688e+3, 2.5515062e+2, -419817.75, -553942.75, -22694.625, -0.002115361, 0.1121338, -416081.78, 23450.797, 0.0, 10.000674, 9.998896 
1.4650607e+3, 2.6514933e+2, -361408.13, -512098.8, -25260.242, -0.0058645736, 0.11176243, -357286.5, -15741.22, 0.0, 10.000563, 9.998564 
1.4650525e+3, 2.7514747e+2, -294186.84, -422854.84, -23087.531, -0.020622136, 0.06427948, -290169.56, -46606.48, 0.0, 10.000324, 9.998618 
1.4650446e+3, 2.85146e+2, -209815.22, -340441.94, -15322.333, -0.030509025, 0.061424315, -208042.0, -62464.656, 0.0, 10.00027, 9.998538 
1.4650366e+3, 2.9514486e+2, -95807.56, -237048.88, -20377.549, -0.032750245, 0.08739706, -92926.37, -45337.883, 0.0, 10.000389, 9.998516 
1.4650294e+3, 3.051429e+2, -103726.734, -257930.28, 982.70087, 0.006486853, 0.06772799, -103720.48, -103720.48, 0.0, 10.000182, 9.998138 
1.4650214e+3, 3.1514123e+2, -25438.063, 18649.041, 29006.277, -0.050856076, 0.06855994, 33037.375, 33037.375, 0.0, 9.999691, 10.000275 
1.4751643e+3, 1.2517042e+2, -1526474.1, -1691696.0, -75155.86, 0.020135958, 0.071643926, -1497402.6, 215936.83, 0.00973839, 10.001604, 9.999387 
1.4751586e+3, 1.3517044e+2, -1433877.1, -1624296.1, 63033.402, -0.0015115081, 0.16307986, -1414902.3, 200435.16, 0.005800612, 10.001675, 9.9991455 
1.4751524e+3, 1.451685e+2, -1366987.4, -1557682.1, -11459.48, -0.00255368, 0.061681714, -1366301.1, 151055.19, 0.0025169705, 10.001529, 9.998995 
1.475145e+3, 1.5516753e+2, -1315834.9, -1479893.6, -11089.397, 0.011586682, 0.062113013, -1315088.6, 104278.47, 0.000643619, 10.001195, 9.999017 
1.4751376e+3, 1.6516672e+2, -1223574.3, -1381657.1, 7952.739, -0.0019460496, 0.07963448, -1223175.1, 98200.62, 0.00006177202, 10.001141, 9.999044 
1.4751308e+3, 1.7516606e+2, -1091758.5, -1261768.8, 5974.105, 0.005062403, 0.10342351, -1091548.9, 131833.44, 0.0000002932695, 10.001349, 9.999094 
1.4751235e+3, 1.851652e+2, -1002490.0, -1179613.6, -17800.363, 0.017308706, 0.113941245, -1000718.9, 124672.09, 0.0, 10.001339, 9.998991 
1.475116e+3, 1.9516419e+2, -931913.7, -1090218.3, -11951.982, 0.018635157, 0.10786542, -931016.4, 96384.695, 0.0, 10.00113, 9.999032 
1.4751083e+3, 2.051631e+2, -857992.4, -1014971.56, -10352.287, 0.00661127, 0.10436876, -857312.6, 72099.164, 0.0, 10.001012, 9.998934 
1.4751005e+3, 2.1516205e+2, -761076.3, -912432.44, -9173.515, -0.011476633, 0.09901603, -760522.3, 70900.15, 0.0, 10.000983, 9.998979 
1.4750929e+3, 2.2516106e+2, -670666.3, -806147.7, -16672.637, -0.012109834, 0.09940282, -668644.75, 64786.668, 0.0, 10.000878, 9.999086 
1.4750852e+3, 2.351602e+2, -594407.0, -714103.94, -11681.105, 0.0009011764, 0.09929424, -593277.75, 42160.402, 0.0, 10.0007105, 9.999126 
1.4750773e+3, 2.45159e+2, -535714.56, -682349.9, -14562.594, -0.0026081107, 0.089982264, -534282.3, 3167.169, 0.0, 10.000645, 9.998703 
1.4750692e+3, 2.5515753e+2, -430234.9, -575403.6, -20863.877, -0.020010035, 0.06637776, -427295.8, 12168.795, 0.0, 10.000672, 9.998751 
1.475061e+3, 2.6515627e+2, -353534.53, -496400.3, -33431.785, -0.026274, 0.073925994, -346098.28, -4621.1714, 0.0, 10.000564, 9.9986725 
1.4750528e+3, 2.7515537e+2, -286939.9, -408134.03, -30576.922, -0.02371079, 0.107806675, -279662.44, -36176.17, 0.0, 10.000323, 9.998721 
1.4750446e+3, 2.8515393e+2, -216572.0, -354123.03, -9906.687, -0.040745463, 0.10873898, -215862.17, -70361.56, 0.0, 10.000267, 9.998445 
1.4750366e+3, 2.9515204e+2, -103018.79, -251745.73, -15018.17, -0.07146293, 0.068823576, -101517.44, -53997.82, 0.0, 10.000387, 9.998417 
1.4750293e+3, 3.051507e+2, -80579.99, -210964.03, -17192.326, -0.016189933, 0.09576973, -78351.125, -78351.125, 0.0, 10.000185, 9.998461 
1.4750214e+3, 3.1514955e+2, -6374.8716, 57228.992, 8213.75, -0.021518545, 0.12022451, 58272.586, 58272.586, 0.0, 9.999692, 10.000541 
1.4851658e+3, 1.2517731e+2, -1504952.1, -1668674.6, -63030.848, 0.001800435, 0.05961052, -1483497.6, 229773.7, 0.010262846, 10.001701, 9.999497 
1.4851604e+3, 1.3517731e+2, -1471622.0, -1638908.6, 68988.516, 0.029730268, 0.1428402, -1446842.0, 168427.67, 0.0061310735, 10.001398, 9.999178 
1.4851539e+3, 1.451755e+2, -1395374.5, -1566839.8, -8453.118, 0.018530438, 0.052957907, -1394958.8, 122328.26, 0.0026753244, 10.001316, 9.999034 
1.4851463e+3, 1.5517463e+2, -1273563.4, -1454022.5, -14994.33, 0.008412019, 0.05714504, -1272325.9, 146970.9, 0.00069087674, 10.001464, 9.9990635 
1.4851388e+3, 1.6517384e+2, -1185205.3, -1358163.5, 8353.556, -0.007047776, 0.0738097, -1184802.8, 136502.42, 0.00006744942, 10.001386, 9.999086 
1.4851321e+3, 1.7517318e+2, -1123783.9, -1272325.6, 16044.481, 0.015657168, 0.09243654, -1122070.6, 101241.27, 0.00000037325287, 10.00111, 9.999135 
1.4851248e+3, 1.8517235e+2, -1050747.9, -1199403.3, -8401.503, 0.030888667, 0.104290865, -1050274.6, 75045.8, 0.0, 10.000994, 9.999021 
1.4851172e+3, 1.9517146e+2, -945349.7, -1093045.6, -10047.978, 0.023969417, 0.10728424, -944669.25, 82660.39, 0.0, 10.001024, 9.999063 
1.4851093e+3, 2.0517048e+2, -859195.25, -1005875.2, -9211.434, 0.008170039, 0.10775656, -858619.0, 70720.52, 0.0, 10.000964, 9.999019 
1.4851016e+3, 2.1516947e+2, -778909.3, -911452.75, -3979.2334, -0.010447112, 0.0997658, -778789.94, 52559.61, 0.0, 10.000821, 9.999063 
1.4850937e+3, 2.2516853e+2, -689233.56, -810086.7, -13243.347, -0.010541646, 0.09667714, -687799.3, 45558.74, 0.0, 10.000731, 9.999129 
1.485086e+3, 2.3516768e+2, -595139.8, -709871.06, -15754.38, 0.004004597, 0.093171485, -593015.8, 42348.78, 0.0, 10.000688, 9.999166 
1.4850779e+3, 2.451665e+2, -538258.25, -681528.4, -13013.338, -0.001181334, 0.08254231, -537085.8, 289.99408, 0.0, 10.00062, 9.998719 
1.4850698e+3, 2.5516504e+2, -450235.8, -583274.4, -8492.514, -0.023147702, 0.059002385, -449695.88, -10304.859, 0.0, 10.000529, 9.998764 
1.4850615e+3, 2.651639e+2, -369087.7, -501131.25, -23171.855, -0.031031141, 0.075894855, -365139.4, -23736.682, 0.0, 10.000446, 9.998695 
1.4850532e+3, 2.7516317e+2, -278238.13, -401012.22, -27069.633, -0.028489403, 0.12652718, -272534.7, -29124.33, 0.0, 10.000373, 9.998745 
1.4850448e+3, 2.8516173e+2, -212217.53, -344582.53, 2582.9954, -0.05174148, 0.12276001, -212167.14, -66742.234, 0.0, 10.000267, 9.998509 
1.4850366e+3, 2.951597e+2, -136584.05, -260963.3, 7615.8623, -0.09279175, 0.06130696, -136119.45, -88674.0, 0.0, 10.000129, 9.998477 
1.4850292e+3, 3.0515882e+2, -102420.69, -203288.53, -6339.895, -0.034908, 0.12576601, -102023.766, -102023.766, 0.0, 9.999959, 9.998622 
1.485021e+3, 3.1515765e+2, 5567.7983, 63603.02, 2835.5193, -0.025795145, 0.13000602, 63741.23, 63741.23, 0.0, 9.999774, 10.000545 
1.4951672e+3, 1.2518463e+2, -1500447.9, -1660218.1, -71318.47, -0.02027765, 0.0697917, -1473244.4, 239953.42, 0.010811674, 10.001704, 9.999556 
1.4951621e+3, 1.3518374e+2, -1471154.4, -1638975.9, 56767.395, 0.053536262, 0.06364855, -1453755.9, 161448.98, 0.0064788726, 10.001403, 9.999175 
1.4951554e+3, 1.4518213e+2, -1397237.6, -1573128.4, -4750.9434, 0.03342735, -0.004384201, -1397109.4, 120111.65, 0.00284381, 10.001324, 9.998987 
1.4951476e+3, 1.5518212e+2, -1275821.9, -1459163.9, -10381.705, -0.0023005113, 0.09239956, -1275235.9, 143987.16, 0.00074233697, 10.001464, 9.999029 
1.4951402e+3, 1.6518158e+2, -1172880.6, -1333562.3, -3028.2417, -0.015221786, 0.12530892, -1172823.6, 148405.63, 0.000073667885, 10.001388, 9.999255 
1.4951333e+3, 1.7518052e+2, -1111893.5, -1248953.6, 5214.3354, 0.03454626, 0.08758546, -1111695.5, 111543.74, 0.00000046463128, 10.001114, 9.999295 
1.495126e+3, 1.8517949e+2, -1054879.4, -1208975.6, -8024.4155, 0.052113518, 0.07475669, -1054462.6, 70787.03, 0.0, 10.000997, 9.998954 
1.4951181e+3, 1.9517858e+2, -948725.94, -1101695.1, -9187.054, 0.025430072, 0.08322549, -948176.1, 79083.484, 0.0, 10.001029, 9.999002 
1.4951102e+3, 2.0517787e+2, -849033.3, -985802.4, -14949.073, 0.0060053957, 0.104767196, -847418.44, 81848.79, 0.0, 10.000967, 9.999156 
1.4951023e+3, 2.1517734e+2, -768923.0, -891605.44, -9329.988, -0.0014424557, 0.13073406, -768217.5, 63054.76, 0.0, 10.000823, 9.999199 
1.4950944e+3, 2.2517627e+2, -692792.06, -817613.2, -15052.416, -0.0038886617, 0.11137437, -691002.5, 42279.477, 0.0, 10.000731, 9.999079 
1.4950866e+3, 2.3517475e+2, -598147.44, -716682.25, -17006.809, -0.003050755, 0.046561364, -595755.6, 39539.63, 0.0, 10.000689, 9.999119 
1.4950785e+3, 2.451737e+2, -526852.0, -658263.25, -15936.008, -0.0063135293, 0.042505328, -524947.06, 12358.333, 0.0, 10.000621, 9.998879 
1.4950705e+3, 2.551731e+2, -439472.78, -560986.8, -10899.109, -0.012828307, 0.089505084, -438502.94, 809.09534, 0.0, 10.000528, 9.998919 
1.495062e+3, 2.6517212e+2, -373535.72, -510032.94, -25306.932, -0.022108156, 0.11701481, -368994.8, -27672.428, 0.0, 10.000444, 9.998635 
1.4950535e+3, 2.7517086e+2, -282083.47, -409333.88, -28741.486, -0.035472963, 0.12061715, -275892.9, -32557.29, 0.0, 10.000374, 9.998688 
1.495045e+3, 2.8516936e+2, -196710.33, -313702.03, -1804.605, -0.06353245, 0.103674054, -196682.5, -51331.87, 0.0, 10.00027, 9.998721 
1.4950368e+3, 2.9516774e+2, -123007.04, -232692.61, 3333.0527, -0.100507595, 0.06451644, -122905.85, -75539.37, 0.0, 10.000125, 9.998674 
1.495029e+3, 3.0516726e+2, -102705.44, -202349.16, -12756.197, -0.054407142, 0.15718411, -101098.336, -101098.336, 0.0, 9.999952, 9.9986315 
1.4950204e+3, 3.1516558e+2, -13899.401, 23079.76, -6139.809, -0.064362794, 0.11150431, 24072.527, 24072.527, 0.0, 9.999774, 10.000266 
1.5051691e+3, 1.2519178e+2, -1518328.6, -1685073.1, -58603.438, -0.0069674295, 0.04866929, -1499792.6, 213333.44, 0.011389687, 10.001652, 9.999409 
1.5051636e+3, 1.3519087e+2, -1443920.6, -1644084.3, 52602.92, 0.044887282, 0.056854926, -1430938.5, 184196.25, 0.006846775, 10.001672, 9.99901 
1.5051566e+3, 1.4518939e+2, -1365729.1, -1546096.6, -7096.197, 0.015827045, 0.006174399, -1365450.4, 151699.52, 0.0030239136, 10.0014925, 9.999091 
1.505149e+3, 1.5518935e+2, -1311949.1, -1464534.1, -2714.5354, 0.011641431, 0.08671256, -1311900.9, 107250.75, 0.000798702, 10.001164, 9.999136 
1.5051414e+3, 1.651888e+2, -1224078.6, -1358033.9, 2905.8442, 0.005470023, 0.11498462, -1224015.6, 97142.02, 0.0000807338, 10.001036, 9.999256 
1.5051346e+3, 1.7518781e+2, -1115242.6, -1250075.6, -1663.8635, 0.037160758, 0.084346175, -1115222.1, 107945.39, 0.00000057502143, 10.00109, 9.999298 
1.5051271e+3, 1.8518691e+2, -1039425.25, -1186988.4, -11128.3, 0.051366642, 0.076205656, -1038590.75, 86586.22, 0.0, 10.001041, 9.999083 
1.5051192e+3, 1.9518614e+2, -958222.5, -1091963.4, 837.3887, 0.03450401, 0.086710714, -958217.25, 68967.98, 0.0, 10.000904, 9.999128 
1.5051112e+3, 2.0518544e+2, -874531.9, -993637.0, -5114.4297, 0.016489962, 0.10299643, -874312.7, 54879.777, 0.0, 10.000774, 9.999194 
1.5051031e+3, 2.1518484e+2, -792257.2, -898494.4, -7389.3267, 0.002725386, 0.11821572, -791745.7, 39452.445, 0.0, 10.000646, 9.999236 
1.5050952e+3, 2.2518383e+2, -708724.0, -825226.3, -9350.235, -0.0052449964, 0.102626525, -707978.3, 25229.438, 0.0, 10.000624, 9.999077 
1.5050872e+3, 2.3518248e+2, -597010.44, -716113.25, -8894.81, -0.009235492, 0.05410289, -596349.9, 38870.477, 0.0, 10.000698, 9.999118 
1.5050791e+3, 2.4518155e+2, -518893.5, -636626.2, -13372.142, -0.011645239, 0.055662777, -517393.8, 19835.377, 0.0, 10.0006, 9.999037 
1.5050708e+3, 2.5518107e+2, -456259.25, -551618.94, -9585.259, -0.013037573, 0.09828129, -455305.3, -16071.388, 0.0, 10.0003395, 9.999073 
1.5050624e+3, 2.6518008e+2, -396436.8, -523172.34, -14225.898, -0.024922827, 0.11848911, -394859.6, -53615.375, 0.0, 10.0002985, 9.998615 
1.5050536e+3, 2.7517867e+2, -271358.4, -406216.38, -15413.849, -0.04690322, 0.1109773, -269619.1, -26359.926, 0.0, 10.000458, 9.998668 
1.5050451e+3, 2.8517726e+2, -183802.73, -296868.78, -3756.8896, -0.07724152, 0.094993584, -183678.03, -38404.32, 0.0, 10.000315, 9.998815 
1.5050367e+3, 2.951759e+2, -150088.25, -234794.27, -8112.8496, -0.11216031, 0.07253985, -149318.22, -102031.5, 0.0, 9.999894, 9.998771 
1.5050288e+3, 3.0517557e+2, -115228.81, -198411.11, -11815.577, -0.06597153, 0.1726972, -113583.04, -113583.04, 0.0, 9.999824, 9.998721 
1.5050204e+3, 3.1517357e+2, 13729.699, 9307.125, -3678.3604, -0.0663846, 0.0840197, 15810.279, 15810.279, 0.0, 10.000081, 10.000023 
1.5151712e+3, 1.2519887e+2, -1540105.0, -1732545.3, -57039.04, 0.040163767, 0.0032553247, -1524469.1, 188585.58, 0.012000226, 10.001659, 9.99908 
1.5151648e+3, 1.3519871e+2, -1465943.1, -1689538.4, 52170.207, 0.0040581455, 0.11821971, -1454369.6, 160689.33, 0.0072362158, 10.001669, 9.9987 
1.5151575e+3, 1.4519735e+2, -1349010.8, -1512394.4, -20665.691, -0.034882296, 0.08139892, -1346437.4, 170635.67, 0.003216304, 10.001495, 9.999322 
1.5151507e+3, 1.5519634e+2, -1295352.0, -1431918.9, -15315.576, 0.048045587, 0.04241448, -1293655.5, 125426.195, 0.00086027547, 10.001171, 9.999357 
1.515143e+3, 1.6519558e+2, -1233789.9, -1380537.0, 3926.5002, 0.052776836, 0.04763068, -1233684.9, 87404.54, 0.00008890055, 10.001044, 9.999099 
1.5151353e+3, 1.751951e+2, -1124931.6, -1271665.1, -129.00648, 0.023044502, 0.0820239, -1124931.5, 98164.85, 0.00000071310234, 10.001095, 9.999149 
1.5151279e+3, 1.8519458e+2, -1017827.2, -1143027.8, -16845.592, 0.027805107, 0.105834074, -1015600.25, 109502.016, 0.0, 10.001043, 9.999385 
1.5151204e+3, 1.9519414e+2, -937530.5, -1049574.0, -4710.5933, 0.050538823, 0.11696532, -937332.8, 89773.59, 0.0, 10.000905, 9.99942 
1.5151124e+3, 2.0519325e+2, -878801.2, -1002787.44, -10533.06, 0.038819194, 0.103560805, -877912.75, 51202.266, 0.0, 10.000773, 9.999132 
1.5151037e+3, 2.1519203e+2, -796144.56, -907595.4, -12110.588, 0.00074219203, 0.062988654, -794843.75, 36283.19, 0.0, 10.0006485, 9.999173 
1.5150957e+3, 2.2519122e+2, -706053.06, -820279.2, -6506.1265, -0.015922613, 0.069823295, -705683.7, 27451.705, 0.0, 10.000625, 9.999111 
1.5150878e+3, 2.3519084e+2, -594422.25, -711098.06, -5801.798, -0.014842558, 0.11494239, -594134.5, 41005.406, 0.0, 10.000698, 9.999153 
1.5150796e+3, 2.4519005e+2, -508620.38, -615298.94, -22913.98, -0.017953232, 0.12058603, -503906.84, 33240.56, 0.0, 10.000599, 9.999186 
1.5150711e+3, 2.5518894e+2, -445759.06, -530368.25, -18428.258, -0.02431304, 0.084976494, -441919.53, -2762.5825, 0.0, 10.00034, 9.999219 
1.5150625e+3, 2.6518777e+2, -395506.75, -521591.94, -7370.871, -0.03997476, 0.08076143, -395077.3, -53908.9, 0.0, 10.0002985, 9.998627 
1.515054e+3, 2.7518666e+2, -271205.34, -405616.34, -8458.565, -0.06491004, 0.09801008, -270675.13, -27493.92, 0.0, 10.000455, 9.998674 
1.5150453e+3, 2.8518534e+2, -185310.2, -299947.38, -19048.209, -0.095383234, 0.097103044, -182228.0, -37033.51, 0.0, 10.000314, 9.9987955 
1.5150364e+3, 2.9518408e+2, -150166.52, -236759.77, -22593.357, -0.12767619, 0.084988855, -144626.08, -97419.52, 0.0, 9.9999, 9.998755 
1.5150286e+3, 3.0518368e+2, -102370.555, -173589.75, -1164.0847, -0.069893636, 0.16930467, -102351.53, -102351.53, 0.0, 9.99983, 9.998889 
1.5150207e+3, 3.1518158e+2, -809.47906, -20113.246, 4939.173, -0.03778324, 0.05634074, 380.8827, 380.8827, 0.0, 10.000075, 9.9998255 
1.5251729e+3, 1.2520628e+2, -1514249.5, -1718124.8, -68375.984, 0.03380656, 0.0041372688, -1493441.3, 219540.64, 0.01264397, 10.001835, 9.999093 
1.5251663e+3, 1.3520615e+2, -1492237.5, -1697524.4, 62748.637, 0.0068167495, 0.116711445, -1474576.9, 140408.92, 0.007646962, 10.001469, 9.998742 
1.525159e+3, 1.4520487e+2, -1374715.0, -1524860.1, -4156.957, -0.033911664, 0.08732779, -1374600.0, 142398.86, 0.0034202072, 10.00132, 9.999321 
1.525152e+3, 1.5520364e+2, -1264850.9, -1416871.4, -15945.454, 0.054502953, 0.026514094, -1263196.4, 155813.08, 0.0009266569, 10.00138, 9.99936 
1.5251443e+3, 1.6520289e+2, -1202772.8, -1363227.5, 2149.352, 0.060046643, 0.030265521, -1202743.9, 118273.5, 0.000098221106, 10.001249, 9.999118 
1.5251365e+3, 1.752026e+2, -1144826.3, -1279095.4, 10128.902, 0.023706531, 0.08316543, -1144066.5, 78956.25, 0.0000008739153, 10.00095, 9.999167 
1.5251288e+3, 1.8520215e+2, -1056741.6, -1152706.5, -9376.755, 0.026089028, 0.10967315, -1055834.0, 69193.9, 0.0, 10.000738, 9.999464 
1.525121e+3, 1.9520168e+2, -975343.2, -1058948.9, -13556.474, 0.051375467, 0.109911, -973200.0, 53832.08, 0.0, 10.000608, 9.999497 
1.525113e+3, 2.0520084e+2, -899403.2, -1007443.1, -18171.957, 0.042110756, 0.095463, -896428.6, 32611.676, 0.0, 10.000611, 9.999177 
1.5251045e+3, 2.1519975e+2, -779758.06, -894791.8, -13018.831, 0.0057062637, 0.062425576, -778303.1, 52748.508, 0.0, 10.000742, 9.999215 
1.5250963e+3, 2.2519909e+2, -696426.8, -808279.94, -6502.7207, -0.012154784, 0.0789354, -696050.06, 37008.95, 0.0, 10.00066, 9.999176 
1.5250884e+3, 2.3519889e+2, -635930.8, -723644.5, -4359.301, -0.01579475, 0.13573141, -635714.7, -652.54004, 0.0, 10.000383, 9.999218 
1.5250799e+3, 2.4519813e+2, -545875.8, -625524.44, -22185.898, -0.022086933, 0.13955688, -540112.94, -3043.7375, 0.0, 10.000312, 9.999252 
1.5250714e+3, 2.5519696e+2, -428462.9, -514722.84, -24307.77, -0.029251484, 0.09037543, -422084.66, 16994.52, 0.0, 10.00043, 9.999284 
1.5250628e+3, 2.6519582e+2, -379609.4, -506057.1, -12826.858, -0.049105927, 0.08362928, -378321.38, -37231.336, 0.0, 10.000375, 9.998696 
1.5250541e+3, 2.7519482e+2, -310048.3, -416202.06, -10647.356, -0.08226526, 0.10707458, -308990.9, -65889.484, 0.0, 10.000155, 9.998746 
1.5250455e+3, 2.8519356e+2, -204628.92, -307360.44, -18887.402, -0.10644193, 0.10517475, -201266.48, -56152.25, 0.0, 10.0001745, 9.998812 
1.5250367e+3, 2.9519227e+2, -73453.44, -196805.42, -20015.564, -0.11900042, 0.0880394, -70286.92, -23160.44, 0.0, 10.000416, 9.998781 
1.5250286e+3, 3.0519176e+2, -22846.934, -125222.586, 674.8759, -0.067315, 0.15251912, -22842.484, -22842.484, 0.0, 10.000336, 9.998977 
1.5250206e+3, 3.1518996e+2, -33823.97, -59521.816, -2023.0123, -0.048278414, 0.065401345, -33665.688, -33665.688, 0.0, 9.999953, 9.999612 
1.5351743e+3, 1.2521404e+2, -1492300.8, -1672596.8, -80724.8, -0.023415236, 0.049945813, -1461439.9, 251466.98, 0.013320751, 10.001836, 9.999409 
1.5351681e+3, 1.3521323e+2, -1466903.3, -1645532.3, 48595.07, 0.04953932, 0.057002436, -1454539.0, 160375.75, 0.008079103, 10.0014715, 9.999098 
1.5351608e+3, 1.4521204e+2, -1388674.8, -1556267.6, -3319.9883, 0.014877271, 0.029583022, -1388609.0, 128317.82, 0.0036348698, 10.0013275, 9.999103 
1.5351531e+3, 1.5521127e+2, -1278801.1, -1446416.4, -14243.632, 0.031264387, 0.03677679, -1277599.4, 141335.47, 0.0009972175, 10.001381, 9.999158 
1.5351452e+3, 1.6521071e+2, -1189983.9, -1337897.3, -9539.663, 0.02722811, 0.059907284, -1189371.3, 131570.13, 0.000108598695, 10.001252, 9.999291 
1.5351376e+3, 1.7521034e+2, -1132421.4, -1255031.5, -1042.0339, 0.038024552, 0.08829025, -1132412.5, 90533.625, 0.0000010362653, 10.000956, 9.9993305 
1.5351297e+3, 1.8520968e+2, -1065146.0, -1172029.6, -14796.569, 0.044696163, 0.090618886, -1063135.4, 61817.938, 0.0, 10.000745, 9.99933 
1.5351215e+3, 1.9520882e+2, -983408.06, -1077667.1, -18218.396, 0.03598786, 0.06634627, -980009.4, 46952.47, 0.0, 10.000615, 9.999367 
1.5351135e+3, 2.0520824e+2, -889365.25, -987926.94, -13436.996, 0.02515646, 0.07732653, -887566.25, 41401.98, 0.0, 10.000615, 9.9993105 
1.5351054e+3, 2.1520798e+2, -770558.75, -875878.44, -8116.832, 0.017010638, 0.11510067, -769936.9, 61035.19, 0.0, 10.000741, 9.999347 
1.5350972e+3, 2.2520742e+2, -690276.06, -795373.06, -17071.523, 0.004988343, 0.12924574, -687572.56, 45406.094, 0.0, 10.000658, 9.999267 
1.5350887e+3, 2.352066e+2, -629490.75, -711123.8, -13984.318, -0.013076708, 0.11682471, -627161.56, 7825.478, 0.0, 10.000385, 9.999304 
1.5350804e+3, 2.452058e+2, -546564.5, -627766.75, -17327.383, -0.024877142, 0.1133096, -543021.7, -6027.0244, 0.0, 10.000314, 9.999237 
1.5350717e+3, 2.5520512e+2, -429812.2, -518024.8, -19121.443, -0.029610299, 0.11504184, -425845.7, 13154.987, 0.0, 10.00043, 9.999262 
1.5350631e+3, 2.6520425e+2, -370473.4, -487795.8, -20207.457, -0.05463632, 0.12595731, -367090.44, -26081.066, 0.0, 10.000376, 9.998822 
1.5350541e+3, 2.7520323e+2, -300667.72, -398032.22, -17419.809, -0.099728964, 0.13503553, -297644.9, -54624.66, 0.0, 10.000159, 9.99887 
1.5350455e+3, 2.8520188e+2, -201139.17, -300580.34, -8805.138, -0.111171424, 0.11728987, -200365.53, -55332.125, 0.0, 10.000175, 9.998858 
1.5350373e+3, 2.9520047e+2, -70637.64, -190092.55, -10184.801, -0.08930487, 0.083767325, -69775.5, -22728.852, 0.0, 10.000411, 9.998831 
1.5350291e+3, 3.051997e+2, -22480.605, -124248.65, -12708.275, -0.06074089, 0.12317226, -20917.664, -20917.664, 0.0, 10.000332, 9.998986 
1.53502e+3, 3.1519863e+2, -46993.918, -88406.52, -14905.111, -0.1015373, 0.106181316, -42187.22, -42187.22, 0.0, 9.999958, 9.999413 
1.5451758e+3, 1.252218e+2, -1507792.1, -1668849.3, -48773.375, -0.041455414, 0.04522379, -1494173.5, 218656.9, 0.014032979, 10.00168, 9.99951 
1.54517e+3, 1.352209e+2, -1441383.3, -1614978.1, 63990.785, 0.067635655, 0.026010036, -1420344.6, 194493.48, 0.008535393, 10.001573, 9.999259 
1.5451623e+3, 1.4521988e+2, -1384612.8, -1563756.6, 16097.922, 0.033098135, 0.013728982, -1383177.6, 133670.72, 0.0038615032, 10.001399, 9.999016 
1.5451543e+3, 1.5521926e+2, -1312830.9, -1472088.5, 13488.678, 0.020745158, 0.041929517, -1311696.5, 107159.76, 0.0010719306, 10.001188, 9.999074 
1.5451463e+3, 1.6521865e+2, -1217288.1, -1347983.1, 13259.607, 0.014122234, 0.06617216, -1215956.4, 104906.836, 0.000119982535, 10.001053, 9.999318 
1.5451385e+3, 1.7521816e+2, -1125953.0, -1248899.9, 10505.379, 0.045345668, 0.0787005, -1125061.9, 97807.04, 0.0000011877057, 10.000989, 9.999356 
1.5451306e+3, 1.8521744e+2, -1041770.2, -1165277.1, -1893.8379, 0.052281775, 0.075406626, -1041741.1, 83135.53, 0.0, 10.000926, 9.999288 
1.5451223e+3, 1.9521657e+2, -949576.5, -1066047.8, 824.4209, 0.024461702, 0.05486324, -949570.7, 77314.88, 0.0, 10.000869, 9.999324 
1.545114e+3, 2.052161e+2, -878602.3, -981695.06, 4263.1123, 0.016509008, 0.07775388, -878426.3, 50465.152, 0.0, 10.000687, 9.999318 
1.545106e+3, 2.1521606e+2, -820722.8, -898888.7, -191.06445, 0.030899454, 0.13561727, -820722.3, 10171.62, 0.0, 10.000393, 9.999355 
1.5450978e+3, 2.252155e+2, -732855.0, -805783.75, -13226.588, 0.019235576, 0.14751443, -730530.3, 2369.9966, 0.0, 10.000324, 9.999355 
1.5450892e+3, 2.3521456e+2, -612770.3, -693943.0, -10678.347, -0.01798359, 0.11185009, -611389.06, 23520.516, 0.0, 10.000462, 9.999384 
1.5450805e+3, 2.4521379e+2, -524176.5, -619453.75, -11747.741, -0.03707533, 0.10970866, -522749.38, 14167.5625, 0.0, 10.00048, 9.999213 
1.5450722e+3, 2.5521332e+2, -437627.16, -524061.63, -15136.1045, -0.03995086, 0.135417, -435053.22, 3868.389, 0.0, 10.000388, 9.99924 
1.5450634e+3, 2.652125e+2, -374368.8, -470465.1, -21265.582, -0.06049723, 0.14486739, -369873.16, -28943.639, 0.0, 10.000269, 9.998992 
1.5450543e+3, 2.752114e+2, -293558.7, -376476.25, -15687.794, -0.09744794, 0.12928039, -290689.84, -47749.684, 0.0, 10.000132, 9.99903 
1.5450457e+3, 2.8521016e+2, -216021.17, -309237.97, 3323.7688, -0.10735453, 0.11619824, -215902.8, -70950.664, 0.0, 10.000082, 9.998843 
1.5450376e+3, 2.9520905e+2, -115867.914, -212065.2, -4220.133, -0.09012234, 0.11467249, -115683.13, -68719.83, 0.0, 10.000104, 9.998827 
1.5450291e+3, 3.0520803e+2, -42337.996, -120558.4, -14723.704, -0.0752153, 0.12035209, -39658.3, -39658.3, 0.0, 10.000141, 9.999103 
1.5450199e+3, 3.1520733e+2, -10124.837, -65842.81, -9201.395, -0.12040046, 0.13125019, -8644.622, -8644.622, 0.0, 10.000194, 9.999453 
1.5551776e+3, 1.2522966e+2, -1513115.1, -1681529.3, -53284.605, -0.022811173, -0.004099614, -1497672.4, 215079.56, 0.014788676, 10.001687, 9.999419 
1.5551715e+3, 1.3522917e+2, -1441883.6, -1617129.3, 58891.68, 0.061318804, 0.02119933, -1423931.9, 190823.75, 0.009022213, 10.001577, 9.999242 
1.5551637e+3, 1.4522846e+2, -1381725.8, -1560065.3, 7197.751, 0.02060171, 0.038096756, -1381435.8, 135327.61, 0.0041039125, 10.001408, 9.999039 
1.5551554e+3, 1.5522762e+2, -1310599.0, -1469614.0, 5349.7905, 0.021326827, 0.043528475, -1310419.3, 108354.33, 0.0011519974, 10.001196, 9.999088 
1.5551473e+3, 1.652268e+2, -1224151.3, -1364617.3, 9968.865, 0.01866431, 0.05165286, -1223447.4, 97335.516, 0.00013256267, 10.0010605, 9.999201 
1.5551396e+3, 1.7522609e+2, -1133281.9, -1265543.6, 7829.892, 0.04438672, 0.054017127, -1132819.9, 89970.71, 0.0000013544981, 10.000993, 9.999241 
1.5551315e+3, 1.8522544e+2, -1038597.75, -1159538.8, -4346.3027, 0.04673267, 0.06308838, -1038441.75, 86355.914, 0.0, 10.000928, 9.999327 
1.5551229e+3, 1.9522494e+2, -946631.4, -1060881.9, -1433.4536, 0.016626894, 0.07492518, -946613.4, 80189.875, 0.0, 10.000872, 9.999359 
1.5551147e+3, 2.0522441e+2, -886715.3, -999613.3, -7069.8506, 0.01584891, 0.09725552, -886274.3, 42535.723, 0.0, 10.0006895, 9.999195 
1.5551066e+3, 2.1522394e+2, -828655.94, -916332.94, -10750.632, 0.04569905, 0.12470398, -827357.0, 3460.137, 0.0, 10.000396, 9.999235 
1.5550983e+3, 2.2522335e+2, -726455.6, -793684.1, -7807.021, 0.02889204, 0.13393408, -725560.9, 7263.0264, 0.0, 10.000327, 9.999437 
1.5550895e+3, 2.3522271e+2, -607016.5, -682820.25, -4943.014, -0.031134767, 0.121117994, -606695.5, 28134.273, 0.0, 10.0004635, 9.999461 
1.5550809e+3, 2.4522208e+2, -526952.2, -625783.06, -14649.95, -0.0599871, 0.12831354, -524826.3, 12009.951, 0.0, 10.000481, 9.999171 
1.5550722e+3, 2.5522152e+2, -439667.72, -529098.5, -17686.428, -0.06067628, 0.14995107, -436296.97, 2545.3572, 0.0, 10.00039, 9.999206 
1.5550636e+3, 2.6522058e+2, -359043.8, -439593.22, -25652.33, -0.06654314, 0.14013149, -351568.2, -10717.371, 0.0, 10.000271, 9.999204 
1.5550546e+3, 2.7521935e+2, -279917.94, -348512.97, -19381.826, -0.07778975, 0.092155665, -274820.34, -31959.158, 0.0, 10.000131, 9.999224 
1.5550458e+3, 2.8521845e+2, -221546.33, -321141.1, 5291.233, -0.097917154, 0.10330453, -221266.0, -76395.38, 0.0, 10.000082, 9.998763 
1.5550373e+3, 2.95218e+2, -120094.86, -222077.56, -1976.7676, -0.12418034, 0.17707524, -120056.555, -73179.42, 0.0, 10.000107, 9.998758 
1.555029e+3, 3.052166e+2, -28189.65, -91796.305, -11977.562, -0.113527335, 0.13993132, -26008.957, -26008.957, 0.0, 10.000142, 9.999301 
1.5550202e+3, 3.152159e+2, 10135.972, -24240.924, -4258.488, -0.10724516, 0.12669438, 10655.643, 10655.643, 0.0, 10.000194, 9.99974 
1.5651795e+3, 1.2523815e+2, -1491918.6, -1690785.8, -35717.855, -0.010707737, -0.013582589, -1485698.1, 226969.16, 0.015601244, 10.0019245, 9.999239 
1.565173e+3, 1.3523754e+2, -1429011.9, -1621748.4, 68127.12, 0.047661472, 0.009708112, -1407362.6, 207310.44, 0.009548585, 10.001716, 9.999144 
1.565165e+3, 1.452369e+2, -1366307.1, -1551572.9, 11349.71, 0.010317423, 0.03797437, -1365614.5, 151065.89, 0.0043674232, 10.001512, 9.999046 
1.5651569e+3, 1.5523602e+2, -1291264.4, -1459091.1, 8422.068, 0.03934386, 0.039317537, -1290842.9, 127847.88, 0.0012395727, 10.001327, 9.999097 
1.5651485e+3, 1.6523518e+2, -1210467.1, -1361898.4, 19515.418, 0.0340092, 0.045611706, -1207992.5, 112707.734, 0.00014677673, 10.001175, 9.999164 
1.5651403e+3, 1.7523447e+2, -1127787.0, -1267370.0, 22033.557, 0.027041845, 0.050496046, -1124391.5, 98316.805, 0.0000015913902, 10.001052, 9.999199 
1.5651321e+3, 1.8523382e+2, -1050069.3, -1172390.3, 7389.5464, 0.029946981, 0.06524877, -1049624.4, 75091.31, 0.0, 10.000882, 9.99926 
1.565124e+3, 1.9523333e+2, -979712.25, -1084051.4, 1757.7908, 0.03080276, 0.08556025, -979682.6, 47038.945, 0.0, 10.000677, 9.999292 
1.5651155e+3, 2.0523274e+2, -898214.0, -1003717.7, -2176.0942, 0.030630548, 0.104440704, -898169.1, 30559.877, 0.0, 10.000606, 9.999207 
1.5651071e+3, 2.1523213e+2, -790420.94, -897513.0, 3363.338, 0.03323535, 0.117318, -790315.44, 40421.59, 0.0, 10.000658, 9.999238 
1.5650985e+3, 2.2523153e+2, -692200.06, -784976.56, 8892.087, 0.011757234, 0.12836707, -691355.5, 41388.414, 0.0, 10.000599, 9.999366 
1.5650898e+3, 2.3523097e+2, -615397.9, -694714.56, -1136.6274, -0.0335219, 0.13298163, -615381.6, 19367.467, 0.0, 10.000442, 9.999389 
1.5650812e+3, 2.4523029e+2, -550341.7, -637353.0, -17288.885, -0.060817115, 0.13966879, -547032.3, -10276.164, 0.0, 10.000323, 9.9991665 
1.5650725e+3, 2.5522956e+2, -461370.06, -539880.6, -18289.037, -0.07121515, 0.1438912, -457318.7, -18554.52, 0.0, 10.000244, 9.999201 
1.5650637e+3, 2.6522866e+2, -362113.75, -429694.75, -29426.393, -0.07274313, 0.13358505, -351096.78, -10324.636, 0.0, 10.000204, 9.999304 
1.5650548e+3, 2.7522773e+2, -265122.56, -330652.88, -32243.352, -0.06702336, 0.10079389, -251918.3, -9138.527, 0.0, 10.00019, 9.999318 
1.565046e+3, 2.8522688e+2, -223755.44, -319175.13, -7646.652, -0.0916253, 0.1154684, -223146.55, -78358.4, 0.0, 10.000055, 9.998788 
1.565037e+3, 2.952264e+2, -159578.25, -237255.69, -7293.742, -0.14350161, 0.18312564, -158899.33, -112104.3, 0.0, 9.999822, 9.99879 
1.5650287e+3, 3.0522472e+2, -61691.54, -101409.76, -7998.01, -0.13582067, 0.11284502, -60141.484, -60141.484, 0.0, 9.999885, 9.999358 
1.5650207e+3, 3.1522444e+2, 30386.955, 13826.64, -9042.671, -0.09450243, 0.13846815, 34367.75, 34367.75, 0.0, 10.000212, 9.999992 
1.5751815e+3, 1.2524736e+2, -1511485.0, -1732690.3, -46490.113, -0.0072459867, 0.015038227, -1502111.5, 210464.38, 0.016485114, 10.001927, 9.99895 
1.5751745e+3, 1.3524611e+2, -1442334.0, -1650977.3, 59375.133, 0.025930738, -0.0066899583, -1426620.6, 187968.8, 0.010123526, 10.00172, 9.99894 
1.5751664e+3, 1.4524528e+2, -1365098.8, -1551509.9, 3051.0967, 0.0013127746, 0.016067136, -1365048.9, 151549.77, 0.004657013, 10.001521, 9.9990425 
1.5751585e+3, 1.5524454e+2, -1290382.5, -1459418.0, 1458.5531, 0.07267199, 0.028954284, -1290369.9, 128237.42, 0.00133678, 10.001334, 9.999091 
1.57515e+3, 1.6524383e+2, -1206868.1, -1356953.3, 14484.606, 0.05717425, 0.048056528, -1205483.0, 115132.234, 0.00016297578, 10.0011835, 9.999194 
1.5751411e+3, 1.7524327e+2, -1125381.1, -1264482.9, 17150.725, -0.006083092, 0.067392886, -1123297.8, 99324.16, 0.0000019381066, 10.00106, 9.999216 
1.5751328e+3, 1.8524253e+2, -1061514.5, -1198034.4, -761.4003, 0.002079877, 0.08142266, -1061510.3, 63120.453, 0.0, 10.000889, 9.999082 
1.5751249e+3, 1.9524173e+2, -991173.8, -1109110.5, -5788.284, 0.06408191, 0.08683809, -990890.4, 35750.125, 0.0, 10.000681, 9.99912 
1.5751164e+3, 2.0524105e+2, -888386.8, -984249.2, -327.97986, 0.05774423, 0.09948026, -888385.7, 40262.656, 0.0, 10.0006075, 9.99934 
1.5751073e+3, 2.152406e+2, -781334.06, -879724.6, 5515.2344, -0.005896861, 0.11363988, -781025.8, 49627.76, 0.0, 10.000661, 9.999359 
1.5750986e+3, 2.2523999e+2, -708176.1, -819467.4, 3159.2314, -0.031849615, 0.13114624, -708086.56, 24573.84, 0.0, 10.000602, 9.999128 
1.5750903e+3, 2.3523931e+2, -630987.1, -728185.7, -6439.325, -0.025929118, 0.14681199, -630562.4, 4105.272, 0.0, 10.000444, 9.999158 
1.5750816e+3, 2.4523844e+2, -547778.4, -632989.94, -19734.363, -0.040711496, 0.14359993, -543429.94, -6752.991, 0.0, 10.000325, 9.999196 
1.5750727e+3, 2.5523743e+2, -459768.97, -536650.25, -20086.15, -0.07361635, 0.118967645, -454837.53, -16150.31, 0.0, 10.000242, 9.999225 
1.5750639e+3, 2.6523677e+2, -363661.16, -433234.88, -28730.328, -0.08178326, 0.12582766, -353330.88, -12637.124, 0.0, 10.000203, 9.999281 
1.5750551e+3, 2.7523634e+2, -265447.2, -333108.56, -31629.191, -0.066789836, 0.15150891, -252964.58, -10267.969, 0.0, 10.000195, 9.9993 
1.575046e+3, 2.8523538e+2, -213945.34, -300453.75, -15703.693, -0.08988661, 0.15016738, -211182.9, -66477.49, 0.0, 10.00006, 9.998916 
1.5750368e+3, 2.952342e+2, -150662.3, -219993.22, -14366.702, -0.14914227, 0.13393313, -147803.14, -101085.7, 0.0, 9.999824, 9.998909 
1.5750284e+3, 3.0523232e+2, -67564.18, -113602.07, 5259.756, -0.143808, 0.041272353, -66970.91, -66970.91, 0.0, 9.999884, 9.999275 
1.5750208e+3, 3.1523272e+2, 46477.19, 46808.83, 8787.22, -0.09129092, 0.14561713, 55431.793, 55431.793, 0.0, 10.000212, 10.00022 
1.5851833e+3, 1.2525624e+2, -1553611.9, -1764693.3, -40831.24, -0.01301064, 0.005198392, -1545988.9, 166499.03, 0.017450042, 10.001686, 9.998845 
1.5851761e+3, 1.35255e+2, -1432836.8, -1648744.0, 78986.125, 0.021501238, -0.014986519, -1407026.5, 207475.7, 0.010752754, 10.001801, 9.998916 
1.5851681e+3, 1.4525422e+2, -1331958.8, -1535209.6, 23915.348, 0.001504979, 0.015253228, -1329182.8, 187328.25, 0.0049755895, 10.001753, 9.999041 
1.5851599e+3, 1.5525346e+2, -1257248.1, -1444033.8, 20698.5, 0.07030079, 0.025884325, -1254981.9, 163537.69, 0.0014447373, 10.001568, 9.999083 
1.5851513e+3, 1.6525272e+2, -1190547.8, -1360385.4, 28633.816, 0.0535701, 0.046761625, -1185850.3, 134677.9, 0.00018110967, 10.001347, 9.999091 
1.5851422e+3, 1.7525211e+2, -1126507.9, -1276219.5, 21270.629, -0.010144804, 0.07119992, -1123544.5, 98991.41, 0.000002389593, 10.001102, 9.999113 
1.5851337e+3, 1.8525133e+2, -1055144.4, -1200011.8, 5402.211, -0.0038942392, 0.08912981, -1054943.3, 69602.055, 0.0, 10.0009575, 9.999034 
1.5851255e+3, 1.952505e+2, -963691.56, -1101703.9, 9207.996, 0.05457477, 0.09837224, -963079.9, 63475.387, 0.0, 10.000897, 9.999065 
1.585117e+3, 2.0524974e+2, -865759.5, -985217.1, 13989.128, 0.04950223, 0.10985078, -864143.1, 64420.797, 0.0, 10.000816, 9.999231 
1.5851079e+3, 2.1524912e+2, -780553.25, -891130.0, 891.4655, -0.009428948, 0.118098825, -780546.06, 50024.53, 0.0, 10.000719, 9.999252 
1.5850993e+3, 2.2524837e+2, -710797.1, -832060.2, -8059.044, -0.031348635, 0.13368206, -710263.8, 22314.74, 0.0, 10.000634, 9.999025 
1.5850909e+3, 2.3524763e+2, -620037.3, -734089.06, -8024.6577, -0.021744056, 0.15078802, -619475.5, 15111.566, 0.0, 10.00057, 9.999057 
1.5850821e+3, 2.4524671e+2, -537915.9, -628987.6, -20884.893, -0.035524353, 0.15029106, -533354.9, 3241.794, 0.0, 10.0004, 9.9991865 
1.5850729e+3, 2.5524575e+2, -477685.03, -546527.7, -25127.814, -0.07095301, 0.13013783, -469489.06, -30882.635, 0.0, 10.000128, 9.99921 
1.585064e+3, 2.6524502e+2, -384707.3, -444087.8, -25570.334, -0.083046384, 0.13699137, -375213.97, -34600.855, 0.0, 10.000063, 9.999272 
1.5850551e+3, 2.7524456e+2, -266267.6, -333518.94, -28550.23, -0.072669245, 0.15949045, -255782.03, -13165.446, 0.0, 10.000193, 9.999296 
1.5850462e+3, 2.8524366e+2, -187361.14, -276582.1, -22042.824, -0.091917716, 0.15318976, -182212.39, -37587.414, 0.0, 10.000198, 9.999011 
1.5850368e+3, 2.9524246e+2, -107554.03, -188790.33, -23652.467, -0.14009343, 0.129563, -101169.27, -54533.51, 0.0, 10.000079, 9.998999 
1.5850285e+3, 3.0524048e+2, -79462.45, -140292.64, -896.4861, -0.13757911, 0.029767483, -79449.24, -79449.24, 0.0, 9.999894, 9.999086 
1.5850207e+3, 3.1524062e+2, -25376.963, 27007.846, -1298.3905, -0.09845724, 0.12888318, 27040.008, 27040.008, 0.0, 9.999657, 10.000349 
1.5951848e+3, 1.2526496e+2, -1546326.5, -1753132.5, -39754.684, -0.02751486, -0.03581632, -1538947.8, 173454.23, 0.01849943, 10.001702, 9.998918 
1.5951781e+3, 1.3526423e+2, -1422474.1, -1628525.1, 82303.83, 0.031917367, -0.016594017, -1393635.4, 220775.63, 0.011438222, 10.001807, 9.999053 
1.5951699e+3, 1.4526375e+2, -1332163.8, -1537316.5, 15419.554, 0.008407616, 0.033973716, -1331011.3, 185405.95, 0.0053240876, 10.001759, 9.999024 
1.5951611e+3, 1.5526278e+2, -1258249.5, -1448053.3, 12862.355, 0.033561658, 0.02961786, -1257381.8, 161045.64, 0.0015636364, 10.001574, 9.999054 
1.5951522e+3, 1.6526183e+2, -1205873.0, -1394385.1, 18430.62, 0.024064291, 0.04207929, -1204087.9, 116350.7, 0.0002008773, 10.001355, 9.998855 
1.5951434e+3, 1.7526096e+2, -1141882.4, -1309649.0, 12106.627, 0.0118462825, 0.06304487, -1141013.3, 81436.78, 0.000002909139, 10.001108, 9.998881 
1.5951347e+3, 1.8526019e+2, -1049142.0, -1189200.1, 2691.783, 0.008525287, 0.089928076, -1049090.4, 75369.086, 0.0, 10.000962, 9.999106 
1.595126e+3, 1.9525965e+2, -958345.25, -1093149.4, 6999.5225, 0.003975629, 0.11920224, -957982.75, 68483.29, 0.0, 10.000906, 9.999121 
1.5951173e+3, 2.0525876e+2, -889284.6, -1036466.3, 10228.604, 0.0069787255, 0.13415457, -888577.2, 39898.785, 0.0, 10.000825, 9.998877 
1.595109e+3, 2.1525764e+2, -804399.7, -941416.94, -2470.573, 0.0201564, 0.13069074, -804355.1, 26132.822, 0.0, 10.00072, 9.998907 
1.5951003e+3, 2.2525667e+2, -708629.9, -828104.7, -10447.5205, 0.010070939, 0.13644096, -707723.2, 24775.455, 0.0, 10.000635, 9.999053 
1.5950914e+3, 2.3525585e+2, -618220.1, -730793.06, -9648.822, -0.022149595, 0.14561878, -617399.06, 17108.201, 0.0, 10.00057, 9.99908 
1.5950824e+3, 2.4525508e+2, -542184.0, -638834.3, -30344.436, -0.04660646, 0.16021574, -533446.9, 3068.6274, 0.0, 10.0004015, 9.999119 
1.5950732e+3, 2.552544e+2, -481163.78, -555754.6, -33850.664, -0.063955374, 0.17529741, -468092.38, -29569.969, 0.0, 10.000134, 9.9991455 
1.5950641e+3, 2.6525348e+2, -383605.7, -443693.1, -19836.568, -0.0770073, 0.16600028, -377647.8, -37116.953, 0.0, 10.00007, 9.999273 
1.5950553e+3, 2.752524e+2, -266675.4, -334252.88, -22702.29, -0.08592952, 0.12662427, -259756.98, -17216.87, 0.0, 10.00019, 9.999293 
1.5950462e+3, 2.8525156e+2, -183670.08, -268385.7, -25377.635, -0.10008221, 0.12552801, -176649.67, -32102.22, 0.0, 10.000195, 9.99907 
1.5950373e+3, 2.952511e+2, -103334.51, -182196.9, -27157.48, -0.1208096, 0.1661174, -94887.234, -48336.113, 0.0, 10.000086, 9.999042 
1.5950285e+3, 3.0524907e+2, -100559.6, -184756.36, -9643.059, -0.121140994, 0.07721958, -99469.305, -99469.305, 0.0, 9.999896, 9.998781 
1.5950201e+3, 3.1524795e+2, -26200.908, 25185.857, -4089.5603, -0.118492976, 0.07817733, 25509.285, 25509.285, 0.0, 9.999655, 10.000339 
1.6051869e+3, 1.2527429e+2, -1453794.6, -1710921.1, -37767.39, -0.021809429, -0.028454985, -1448362.0, 263948.84, 0.019635098, 10.002367, 9.998886 
1.6051798e+3, 1.3527349e+2, -1430088.8, -1629299.5, 76179.984, 0.029770967, -0.019805659, -1404296.3, 210024.36, 0.012182242, 10.001744, 9.999077 
1.6051716e+3, 1.4527306e+2, -1368430.4, -1555736.6, 14606.355, 0.0045874394, 0.036352657, -1367298.1, 149028.0, 0.0057041305, 10.001515, 9.999014 
1.6051626e+3, 1.5527217e+2, -1246822.3, -1443918.3, 12579.2705, 0.016449902, 0.040520754, -1246022.6, 172312.98, 0.0016940435, 10.001662, 9.999038 
1.6051535e+3, 1.6527112e+2, -1185202.3, -1402332.4, 11689.375, 0.010307429, 0.05149199, -1184574.8, 135773.31, 0.00022220024, 10.001577, 9.998691 
1.6051447e+3, 1.7527e+2, -1128778.5, -1321249.6, 9387.521, 0.016459618, 0.06539099, -1128321.8, 94040.555, 0.000003466771, 10.001278, 9.998718 
1.6051358e+3, 1.8526916e+2, -1026257.75, -1182555.8, 7366.462, 0.012485352, 0.09471209, -1025911.3, 98461.21, 0.0, 10.001141, 9.999065 
1.6051269e+3, 1.9526866e+2, -925239.94, -1082161.4, 2698.5747, -0.010976255, 0.1331361, -925193.56, 101184.84, 0.0, 10.001158, 9.999073 
1.6051182e+3, 2.0526767e+2, -865549.5, -1041506.75, 4673.8433, -0.0055800923, 0.14869061, -865425.44, 62963.688, 0.0, 10.001061, 9.998727 
1.6051099e+3, 2.1526636e+2, -794238.2, -953416.94, 6582.721, 0.029590525, 0.13915905, -793966.44, 36436.797, 0.0, 10.000865, 9.998754 
1.6051011e+3, 2.2526522e+2, -707445.3, -838760.0, 2153.4246, 0.019120859, 0.14128508, -707410.0, 25005.664, 0.0, 10.000694, 9.99895 
1.605092e+3, 2.3526429e+2, -629673.2, -747745.9, -8584.692, -0.034463853, 0.14909065, -629052.25, 5373.3716, 0.0, 10.000543, 9.998976 
1.6050828e+3, 2.4526347e+2, -532227.1, -631545.6, -31788.297, -0.058153663, 0.16540508, -522924.2, 13509.687, 0.0, 10.000461, 9.99914 
1.6050735e+3, 2.5526285e+2, -434108.72, -530419.9, -29386.602, -0.055119544, 0.18515673, -425850.38, 12589.254, 0.0, 10.000449, 9.9991665 
1.6050643e+3, 2.652619e+2, -366438.66, -440146.72, -15397.327, -0.06576079, 0.17313161, -363351.53, -22903.234, 0.0, 10.000212, 9.999226 
1.6050552e+3, 2.7526072e+2, -331728.97, -371066.84, -22147.29, -0.088360004, 0.12457567, -321777.5, -79318.4, 0.0, 9.999769, 9.999241 
1.6050462e+3, 2.8525978e+2, -254912.23, -297673.66, -18745.125, -0.097158216, 0.11840357, -247858.56, -103391.555, 0.0, 9.999685, 9.999113 
1.6050373e+3, 2.9525936e+2, -126113.96, -187988.19, -23527.836, -0.09595094, 0.15915385, -118183.81, -71713.68, 0.0, 9.99991, 9.999084 
1.6050285e+3, 3.0525765e+2, -114880.62, -201438.17, -9091.105, -0.095841005, 0.10499322, -113936.09, -113936.09, 0.0, 9.999841, 9.998692 
1.6050197e+3, 3.152562e+2, -38349.13, 27299.793, 16164.856, -0.1281179, 0.07950138, 31064.234, 31064.234, 0.0, 9.999539, 10.000407 
1.6151895e+3, 1.2528427e+2, -1465095.6, -1732939.1, -66989.82, 0.00052852405, 0.02221415, -1449275.4, 262939.13, 0.02086322, 10.002358, 9.998741 
1.6151814e+3, 1.352828e+2, -1435737.6, -1643546.3, 52454.67, 0.014790581, -0.02320673, -1423247.8, 190982.6, 0.0129916845, 10.001754, 9.998975 
1.6151729e+3, 1.4528225e+2, -1366507.6, -1555306.1, 18606.314, -0.010126609, 0.025258165, -1364691.5, 151545.52, 0.0061206263, 10.00153, 9.999011 
1.6151643e+3, 1.5528166e+2, -1246978.1, -1445501.9, 17403.766, 0.016073167, 0.058287945, -1245464.0, 172779.63, 0.0018382268, 10.001666, 9.999025 
1.6151552e+3, 1.652806e+2, -1191869.3, -1417674.8, -310.5654, 0.009237979, 0.074721836, -1191868.8, 128387.4, 0.00024563554, 10.001582, 9.998584 
1.6151458e+3, 1.7527923e+2, -1134885.0, -1337115.5, -1704.9412, 0.0040062787, 0.076684795, -1134870.6, 87401.99, 0.0000040686878, 10.001289, 9.998606 
1.615137e+3, 1.852782e+2, -1035837.75, -1205106.5, 7556.083, 0.007518044, 0.101908684, -1035501.1, 88783.625, 0.0, 10.001151, 9.998906 
1.6151282e+3, 1.9527757e+2, -935867.25, -1105138.3, 3143.0996, 0.007080745, 0.1416435, -935808.94, 90483.28, 0.0, 10.001161, 9.998915 
1.6151194e+3, 2.0527652e+2, -862240.7, -1035228.7, -3049.2095, 0.009053075, 0.15570536, -862187.0, 66116.29, 0.0, 10.001061, 9.998771 
1.6151106e+3, 2.1527523e+2, -791102.94, -948206.4, -97.76378, 0.018354377, 0.142969, -791102.9, 39213.68, 0.0, 10.000869, 9.998789 
1.6151015e+3, 2.2527397e+2, -724211.2, -875218.25, -3130.0537, -0.0047034067, 0.14740695, -724146.3, 8183.5767, 0.0, 10.000699, 9.998699 
1.6150922e+3, 2.3527285e+2, -646171.0, -783188.06, -13314.118, -0.058367405, 0.16116625, -644889.25, -10546.758, 0.0, 10.0005455, 9.998732 
1.615083e+3, 2.4527188e+2, -524708.6, -616842.7, -31737.354, -0.070472166, 0.16642825, -514834.34, 21517.873, 0.0, 10.000463, 9.999241 
1.615074e+3, 2.552711e+2, -427701.53, -516960.3, -29030.014, -0.04609486, 0.16111583, -419090.7, 19267.709, 0.0, 10.000446, 9.999261 
1.6150647e+3, 2.6527026e+2, -373976.06, -456175.75, -30996.404, -0.051759895, 0.15992212, -363598.03, -23232.143, 0.0, 10.000212, 9.999118 
1.615055e+3, 2.7526936e+2, -338221.4, -387016.97, -36870.48, -0.08236048, 0.1523942, -318407.38, -76033.05, 0.0, 9.999778, 9.999128 
1.615046e+3, 2.8526825e+2, -252621.6, -295175.5, -9564.81, -0.08498672, 0.13082434, -250570.58, -106186.02, 0.0, 9.999693, 9.999127 
1.6150376e+3, 2.952672e+2, -124248.11, -185021.23, -15281.99, -0.066516146, 0.10775435, -120621.7, -74227.84, 0.0, 9.999911, 9.999105 
1.6150288e+3, 3.0526614e+2, -106179.57, -182482.28, -20220.848, -0.063325725, 0.11355675, -101152.13, -101152.13, 0.0, 9.999837, 9.998824 
1.6150191e+3, 3.1526533e+2, -30992.855, 42332.64, 10360.489, -0.13626662, 0.13913819, 43768.41, 43768.41, 0.0, 9.999539, 10.000511 
1.6251914e+3, 1.2529376e+2, -1594810.4, -1794810.9, -78148.46, 0.005369402, 0.04211457, -1567896.4, 144226.44, 0.022194505, 10.001448, 9.998755 
1.6251832e+3, 1.352923e+2, -1390988.9, -1617174.6, 55622.504, 0.003742738, -0.00688157, -1378050.6, 236087.5, 0.013876058, 10.002049, 9.999013 
1.6251747e+3, 1.4529169e+2, -1293367.0, -1529608.4, 16562.502, -0.012261335, 0.03616981, -1292211.4, 223933.98, 0.0065799933, 10.00208, 9.99892 
1.625166e+3, 1.5529089e+2, -1260959.9, -1461880.9, 7822.975, 0.019914804, 0.059028365, -1260655.8, 157498.45, 0.0019995468, 10.001615, 9.998936 
1.6251566e+3, 1.6528982e+2, -1204686.3, -1419883.9, -3548.0095, 0.010218083, 0.07862575, -1204627.8, 115538.805, 0.00027234203, 10.001479, 9.998617 
1.6251472e+3, 1.7528865e+2, -1081900.4, -1308779.0, 4677.1367, -0.0052931514, 0.09505479, -1081804.0, 140376.88, 0.0000047643325, 10.001644, 9.998628 
1.6251382e+3, 1.852875e+2, -994543.9, -1208631.5, 12159.422, 0.0011368959, 0.11715097, -993855.44, 130338.78, 0.0, 10.001538, 9.998693 
1.6251294e+3, 1.9528647e+2, -947342.7, -1133760.3, 3305.4814, 0.015279984, 0.13928808, -947284.1, 78921.805, 0.0, 10.0011835, 9.998706 
1.6251205e+3, 2.0528533e+2, -869970.06, -1034423.9, -2822.729, 0.014825733, 0.15166399, -869921.6, 58296.344, 0.0, 10.000992, 9.998809 
1.6251114e+3, 2.1528417e+2, -778173.8, -938114.0, -1855.6338, 0.005524417, 0.15047833, -778152.3, 52077.004, 0.0, 10.000943, 9.998821 
1.6251022e+3, 2.2528292e+2, -711314.25, -878051.56, -474.5806, -0.01647509, 0.15736645, -711312.9, 20929.523, 0.0, 10.000828, 9.998616 
1.6250929e+3, 2.3528168e+2, -635445.9, -786976.4, 1690.2714, -0.05157511, 0.16552126, -635427.06, -1170.7795, 0.0, 10.00066, 9.998649 
1.6250837e+3, 2.4528053e+2, -534772.5, -629972.8, -17458.883, -0.062116712, 0.16380253, -531671.7, 4595.6816, 0.0, 10.000432, 9.999164 
1.6250741e+3, 2.5527963e+2, -476865.03, -549378.4, -29244.107, -0.051434934, 0.15162827, -466540.97, -28266.088, 0.0, 10.000148, 9.999181 
1.6250648e+3, 2.652788e+2, -398257.5, -471141.56, -35442.215, -0.05142308, 0.15467958, -383864.78, -43582.24, 0.0, 10.00006, 9.999086 
1.6250552e+3, 2.7527794e+2, -287361.97, -364964.9, -35579.457, -0.059541006, 0.15980934, -273518.84, -31228.666, 0.0, 10.000141, 9.999103 
1.6250461e+3, 2.852768e+2, -204853.45, -266217.53, 27.916239, -0.064076304, 0.13367994, -204853.45, -60552.64, 0.0, 9.999998, 9.999178 
1.6250373e+3, 2.9527563e+2, -159162.86, -195283.72, -4855.87, -0.06895706, 0.09340153, -158521.45, -112210.07, 0.0, 9.999646, 9.999161 
1.6250284e+3, 3.0527508e+2, -150939.14, -181690.95, -9477.4375, -0.05544358, 0.13392815, -148252.92, -148252.92, 0.0, 9.9994335, 9.999023 
1.6250187e+3, 3.152743e+2, -54756.355, 33312.645, 27962.188, -0.12714244, 0.14394158, 41440.594, 41440.594, 0.0, 9.999365, 10.000533 
1.6351926e+3, 1.2530296e+2, -1581524.8, -1770907.4, -60814.375, -0.009277138, 0.037980754, -1563677.9, 148356.42, 0.023638725, 10.001464, 9.998912 
1.6351852e+3, 1.3530207e+2, -1379251.6, -1593407.6, 76132.85, -0.0058769993, 0.026478913, -1354945.0, 259098.44, 0.014842009, 10.002052, 9.999176 
1.6351767e+3, 1.4530137e+2, -1306324.0, -1557406.4, -2502.087, -0.004561511, 0.066527605, -1306299.1, 209752.11, 0.0070861573, 10.002082, 9.99873 
1.6351676e+3, 1.5529995e+2, -1271981.6, -1487578.5, -9417.262, 0.027112331, 0.044091824, -1271571.1, 146495.64, 0.00218032, 10.001624, 9.998756 
1.6351582e+3, 1.652989e+2, -1191931.9, -1395957.6, 1827.2708, 0.012325848, 0.064743906, -1191915.5, 128163.22, 0.00030356596, 10.001489, 9.998777 
1.6351488e+3, 1.7529826e+2, -1071299.8, -1288064.5, 10032.446, -0.012698204, 0.1206314, -1070836.4, 151250.38, 0.000005612588, 10.001648, 9.998769 
1.6351396e+3, 1.8529703e+2, -1012921.3, -1247549.0, -1550.9316, -0.008095759, 0.14104116, -1012911.06, 111189.92, 0.0, 10.001539, 9.998426 
1.6351306e+3, 1.9529535e+2, -964558.3, -1171155.3, -9308.436, 0.012921894, 0.12561096, -964139.75, 61979.895, 0.0, 10.001188, 9.998448 
1.6351214e+3, 2.0529406e+2, -867909.44, -1031936.25, -4448.059, 0.01062062, 0.13544048, -867788.94, 60344.395, 0.0, 10.000998, 9.998824 
1.6351122e+3, 2.1529321e+2, -777079.9, -936740.1, -3417.5366, -0.008919318, 0.1627581, -777006.75, 53134.754, 0.0, 10.000945, 9.99883 
1.6351031e+3, 2.2529204e+2, -705043.06, -865795.75, -6783.82, -0.016921373, 0.17302907, -704757.25, 27396.006, 0.0, 10.000829, 9.998701 
1.6350938e+3, 2.3529068e+2, -630151.7, -776508.6, -3996.0747, -0.016507946, 0.16199128, -630042.6, 4124.726, 0.0, 10.000661, 9.998722 
1.6350843e+3, 2.4528942e+2, -553210.56, -668944.2, -27337.676, -0.03581584, 0.15753508, -547078.0, -10898.196, 0.0, 10.000432, 9.998897 
1.6350742e+3, 2.5528833e+2, -494546.75, -587746.6, -38239.035, -0.071690366, 0.15646173, -480865.84, -42676.168, 0.0, 10.000153, 9.998916 
1.6350646e+3, 2.6528734e+2, -394533.1, -465220.34, -31455.81, -0.06506033, 0.15685983, -382562.44, -42363.535, 0.0, 10.000066, 9.9991255 
1.6350558e+3, 2.752864e+2, -284328.84, -359353.4, -31844.652, -0.020621566, 0.14665696, -272634.9, -30427.518, 0.0, 10.000141, 9.999143 
1.6350465e+3, 2.852854e+2, -199600.16, -255203.19, -12457.216, -0.036239933, 0.12749304, -196936.84, -52720.22, 0.0, 9.999995, 9.999255 
1.6350366e+3, 2.952846e+2, -152885.92, -183616.13, -17268.74, -0.1073606, 0.11685244, -145136.19, -98912.55, 0.0, 9.99965, 9.99924 
1.6350277e+3, 3.052843e+2, -131787.75, -142684.16, -11890.1875, -0.07507286, 0.16615425, -124156.98, -124156.98, 0.0, 9.999435, 9.999291 
1.6350183e+3, 3.1528315e+2, -60259.2, 21230.996, 26481.451, -0.10026081, 0.111674376, 29080.45, 29080.45, 0.0, 9.999366, 10.000451 
1.6451943e+3, 1.253122e+2, -1505117.4, -1732708.4, -52154.008, -0.012136552, 0.03645884, -1493735.1, 218208.92, 0.025201252, 10.002003, 9.998913 
1.6451871e+3, 1.3531137e+2, -1414626.0, -1610844.5, 74072.18, -0.00842744, 0.031110566, -1389803.9, 224148.97, 0.015891703, 10.001811, 9.999172 
1.6451788e+3, 1.453107e+2, -1352232.4, -1583536.0, -17447.295, 0.005318163, 0.07543418, -1350923.8, 165036.86, 0.007640092, 10.001784, 9.9986925 
1.6451694e+3, 1.5530922e+2, -1232110.3, -1472849.6, -13864.954, 0.026243966, 0.052117128, -1231314.4, 186662.5, 0.002381096, 10.00192, 9.998714 
1.6451597e+3, 1.6530815e+2, -1138356.8, -1368280.8, 367.89746, 0.009404827, 0.072991416, -1138356.1, 181632.94, 0.00034007852, 10.00185, 9.998792 
1.6451505e+3, 1.7530756e+2, -1078603.4, -1290173.3, -2722.7468, -0.008896749, 0.13112861, -1078568.4, 143428.25, 0.000006640927, 10.001594, 9.998779 
1.6451411e+3, 1.8530634e+2, -1030292.94, -1255848.6, -15417.781, -0.004515505, 0.15141577, -1029243.94, 94766.57, 0.0, 10.001422, 9.9984255 
1.6451317e+3, 1.9530462e+2, -945491.8, -1162736.1, -4991.1934, 0.008591571, 0.13253121, -945377.2, 80652.01, 0.0, 10.001325, 9.998439 
1.6451225e+3, 2.0530325e+2, -847696.6, -1030898.2, 8771.715, 0.003275504, 0.13964488, -847277.56, 80765.97, 0.0, 10.001175, 9.998745 
1.6451131e+3, 2.153023e+2, -777375.5, -945871.44, 2204.6433, -0.0144583, 0.16605692, -777346.6, 52706.26, 0.0, 10.000983, 9.998748 
1.6451037e+3, 2.253011e+2, -716048.0, -870486.44, -10681.422, -0.016426906, 0.17715041, -715312.7, 16752.172, 0.0, 10.000753, 9.998704 
1.6450946e+3, 2.3529978e+2, -655055.7, -788611.5, -15355.805, -0.006694712, 0.1684771, -653312.9, -19234.547, 0.0, 10.000491, 9.998719 
1.6450848e+3, 2.4529845e+2, -567698.7, -683133.7, -31188.139, -0.024447301, 0.16088611, -559811.25, -23719.965, 0.0, 10.000364, 9.998831 
1.6450745e+3, 2.552972e+2, -469666.84, -582743.75, -27732.893, -0.06646227, 0.15126957, -463231.4, -25128.705, 0.0, 10.000355, 9.998851 
1.645065e+3, 2.6529616e+2, -382230.44, -456263.3, -14893.677, -0.05818696, 0.14956737, -379346.53, -39234.207, 0.0, 10.000139, 9.99915 
1.6450559e+3, 2.7529532e+2, -340191.9, -383872.22, -17045.348, -0.0046235174, 0.14408654, -334327.63, -92207.58, 0.0, 9.999749, 9.999162 
1.6450463e+3, 2.8529438e+2, -257793.89, -281062.5, -973.91846, -0.023525646, 0.12956055, -257753.2, -113624.61, 0.0, 9.999588, 9.999273 
1.6450362e+3, 2.9529363e+2, -157899.53, -181672.72, -11081.392, -0.108418435, 0.1246043, -153535.33, -107400.53, 0.0, 9.9995985, 9.999276 
1.6450274e+3, 3.0529332e+2, -123668.77, -113569.62, -10478.196, -0.05776575, 0.15916853, -106987.734, -106987.734, 0.0, 9.999384, 9.999515 
1.6450176e+3, 3.152921e+2, -122783.164, -23518.709, 20249.62, -0.087801084, 0.07741025, -19546.785, -19546.785, 0.0, 9.9990015, 10.000318 
1.6551964e+3, 1.2532152e+2, -1514913.9, -1754255.9, -64895.563, -0.0069130603, 0.037538107, -1498450.5, 213401.28, 0.026885493, 10.002007, 9.998765 
1.655189e+3, 1.353203e+2, -1424692.5, -1634025.6, 66818.1, -0.005125365, 0.0102583645, -1405182.8, 208682.77, 0.017026437, 10.00182, 9.999009 
1.6551808e+3, 1.4531972e+2, -1344805.8, -1569704.6, -13579.779, 0.016036656, 0.06488792, -1343988.8, 171884.3, 0.008242797, 10.00179, 9.998786 
1.6551712e+3, 1.553187e+2, -1225939.8, -1461293.1, -9497.86, 0.015691398, 0.08061161, -1225557.0, 192327.39, 0.002602117, 10.001924, 9.998793 
1.6551617e+3, 1.6531762e+2, -1146822.9, -1386829.1, -9757.141, -0.0002472692, 0.101629406, -1146426.8, 173470.45, 0.00038217273, 10.001852, 9.998665 
1.6551523e+3, 1.7531659e+2, -1086081.0, -1306869.8, -12039.839, 0.0048286775, 0.1275059, -1085426.4, 136483.42, 0.000007868034, 10.001596, 9.998665 
1.6551428e+3, 1.8531543e+2, -1013110.1, -1221483.4, -19358.313, 0.009925834, 0.14896367, -1011327.0, 112595.6, 0.0, 10.001426, 9.99866 
1.655133e+3, 1.9531426e+2, -929474.4, -1130982.9, -8813.05, 0.0019154001, 0.16006564, -929089.6, 96845.04, 0.0, 10.001329, 9.998655 
1.6551234e+3, 2.0531288e+2, -858758.3, -1055513.8, 1282.1637, -0.0076614153, 0.16485137, -858749.94, 69198.9, 0.0, 10.001181, 9.998574 
1.655114e+3, 2.1531145e+2, -788961.7, -970775.7, -4660.4595, -0.013243873, 0.15958826, -788842.3, 41121.383, 0.0, 10.000985, 9.998577 
1.6551045e+3, 2.253101e+2, -721813.2, -883457.4, -20233.625, -0.017356923, 0.16890086, -719318.94, 12658.58, 0.0, 10.000755, 9.998615 
1.6550949e+3, 2.3530893e+2, -660651.2, -801457.2, -23888.55, -0.021474533, 0.18522048, -656708.75, -22719.352, 0.0, 10.000494, 9.9986315 
1.6550851e+3, 2.4530758e+2, -558327.9, -664822.94, -30757.977, -0.027979296, 0.17441699, -550082.7, -14080.551, 0.0, 10.000367, 9.998957 
1.6550753e+3, 2.553062e+2, -460986.72, -565337.75, -27387.898, -0.037132513, 0.1361369, -454235.34, -16220.876, 0.0, 10.000356, 9.998972 
1.6550653e+3, 2.6530522e+2, -382024.22, -456596.28, -28735.168, -0.032454602, 0.13387164, -372236.28, -32212.977, 0.0, 10.00014, 9.999148 
1.6550556e+3, 2.753046e+2, -339905.16, -385344.38, -29699.576, -0.01394051, 0.1524195, -325231.66, -83202.78, 0.0, 9.999755, 9.99915 
1.6550457e+3, 2.8530362e+2, -260437.11, -287987.66, 352.73874, -0.028108532, 0.13950299, -260432.6, -116395.04, 0.0, 9.999592, 9.999225 
1.6550362e+3, 2.9530266e+2, -159452.53, -185183.48, -10621.533, -0.07211056, 0.115822665, -155634.56, -109588.72, 0.0, 9.999598, 9.999254 
1.6550273e+3, 3.0530205e+2, -111598.664, -87586.734, -24406.813, -0.003991298, 0.11002623, -72392.78, -72392.78, 0.0, 9.999378, 9.999696 
1.6550165e+3, 3.1530127e+2, -135487.52, -50230.703, 1101.7167, -0.09325045, 0.06158014, -50216.47, -50216.47, 0.0, 9.999002, 10.0001335 
1.6651987e+3, 1.253306e+2, -1527023.0, -1763329.8, -80311.05, 0.009772422, 0.026947498, -1502312.5, 209450.67, 0.028695665, 10.00194, 9.998734 
1.6651906e+3, 1.3532954e+2, -1413154.0, -1634733.6, 61771.46, -0.012777697, 0.022978643, -1397097.0, 216678.95, 0.018249702, 10.001931, 9.998949 
1.6651826e+3, 1.4532901e+2, -1329298.5, -1553973.8, -12218.96, 0.0148244025, 0.081951074, -1328636.0, 187147.1, 0.008897193, 10.0018635, 9.9988575 
1.665173e+3, 1.5532799e+2, -1246168.1, -1463598.1, -9855.356, 0.007158653, 0.08835238, -1245722.4, 172071.94, 0.002844578, 10.001754, 9.998858 
1.6651632e+3, 1.653269e+2, -1180466.4, -1408898.0, -14649.871, -0.009343186, 0.1089182, -1179530.6, 140276.42, 0.00043000115, 10.001648, 9.998611 
1.6651537e+3, 1.7532589e+2, -1097994.9, -1318639.3, -12749.071, 0.0025770173, 0.14251609, -1097260.6, 124559.39, 0.000009349905, 10.001541, 9.99861 
1.6651441e+3, 1.853247e+2, -998517.56, -1204212.1, -18720.873, 0.00818327, 0.1596177, -996827.56, 127005.15, 0.0, 10.001483, 9.998751 
1.6651344e+3, 1.9532345e+2, -903384.44, -1108890.5, -19331.154, -0.005651884, 0.15600385, -901581.8, 124262.65, 0.0, 10.00147, 9.998739 
1.6651246e+3, 2.0532212e+2, -850984.8, -1059116.0, -18583.834, -0.010164449, 0.16378887, -849338.5, 78519.8, 0.0, 10.001267, 9.998507 
1.665115e+3, 2.153208e+2, -806655.1, -986619.7, -18072.46, -0.0015852194, 0.17615007, -804858.2, 25014.64, 0.0, 10.000896, 9.99851 
1.6651054e+3, 2.2531942e+2, -729548.4, -882054.94, -20718.809, -0.0049331957, 0.18291259, -726783.75, 5103.23, 0.0, 10.000682, 9.99866 
1.6650954e+3, 2.3531808e+2, -641942.7, -787646.9, -15450.266, -0.020370541, 0.18010105, -640322.4, -6422.7017, 0.0, 10.000604, 9.9986725 
1.6650854e+3, 2.4531677e+2, -558557.4, -659171.56, -22178.52, -0.02685003, 0.16729875, -553885.44, -17973.498, 0.0, 10.000342, 9.999006 
1.6650754e+3, 2.5531557e+2, -520134.7, -588563.25, -25296.096, -0.025381282, 0.14254557, -511798.88, -73876.1, 0.0, 9.999928, 9.999018 
1.6650654e+3, 2.6531464e+2, -425217.03, -475092.66, -24499.916, -0.020265227, 0.14185365, -415195.72, -75264.516, 0.0, 9.999834, 9.999168 
1.6650555e+3, 2.7531394e+2, -301489.78, -364641.88, -24385.746, -0.011870911, 0.15127382, -293169.56, -51232.285, 0.0, 10.0000105, 9.999168 
1.6650455e+3, 2.85313e+2, -238648.75, -269772.63, 2283.5852, -0.024523385, 0.13836496, -238482.1, -94536.86, 0.0, 9.99971, 9.999291 
1.6650356e+3, 2.9531217e+2, -241279.33, -215095.97, -932.0073, -0.054157645, 0.120895736, -215062.83, -169110.98, 0.0, 9.998997, 9.999336 
1.6650267e+3, 3.0531117e+2, -166120.83, -109812.164, -121.109085, 0.032180257, 0.07045008, -109811.91, -109811.91, 0.0, 9.998988, 9.99973 
1.665016e+3, 3.153109e+2, -63845.777, -30109.803, 4084.7131, -0.08127454, 0.06745693, -29622.275, -29622.275, 0.0, 9.999559, 10.000003 
1.6752006e+3, 1.2533945e+2, -1521864.6, -1752441.5, -85409.836, 0.03210436, 0.0063698357, -1493673.9, 218003.78, 0.03063352, 10.001942, 9.998811 
1.6751926e+3, 1.3533908e+2, -1410197.8, -1630033.3, 60578.37, -0.032549527, 0.066252574, -1394610.0, 219074.25, 0.019565674, 10.001939, 9.998979 
1.6751842e+3, 1.4533857e+2, -1325033.0, -1546986.0, -17131.01, 0.0007093128, 0.12453301, -1323718.5, 191972.2, 0.009607708, 10.001871, 9.998903 
1.6751747e+3, 1.5533707e+2, -1241660.6, -1455913.4, -13818.622, 0.0004972434, 0.07698126, -1240773.0, 176932.77, 0.0031109226, 10.001759, 9.998909 
1.6751648e+3, 1.6533598e+2, -1179570.3, -1408258.8, -19121.098, -0.01862412, 0.0964798, -1177982.6, 141735.67, 0.00048388963, 10.001651, 9.998615 
1.675155e+3, 1.7533542e+2, -1097557.0, -1319182.0, -16756.45, -0.016405663, 0.17491657, -1096297.3, 125429.875, 0.0000111741165, 10.001546, 9.998605 
1.6751453e+3, 1.8533412e+2, -1001299.44, -1211067.4, -19401.557, -0.010492728, 0.18248598, -999520.06, 124220.92, 0.0, 10.001485, 9.998704 
1.6751358e+3, 1.9533226e+2, -906731.5, -1116159.9, -19796.156, -0.014844627, 0.12146154, -904876.75, 120881.664, 0.0, 10.001469, 9.998691 
1.675126e+3, 2.0533098e+2, -849478.06, -1056322.5, -32500.73, -0.0058853813, 0.13747616, -844491.56, 83280.18, 0.0, 10.001267, 9.998527 
1.6751163e+3, 2.1533033e+2, -804752.8, -983773.5, -30978.06, 0.019965144, 0.21604046, -799543.9, 30236.533, 0.0, 10.0009, 9.998529 
1.6751063e+3, 2.2532903e+2, -716981.9, -857227.25, -23129.344, 0.019951459, 0.21988511, -713265.8, 18527.705, 0.0, 10.000685, 9.99883 
1.6750962e+3, 2.3532723e+2, -630594.7, -764614.9, -17734.72, -0.0051496257, 0.15295964, -628287.56, 5521.91, 0.0, 10.000605, 9.998832 
1.6750859e+3, 2.4532597e+2, -560542.94, -664040.75, -37199.633, -0.022703445, 0.13977076, -548559.9, -12738.621, 0.0, 10.000343, 9.998974 
1.6750753e+3, 2.553253e+2, -521992.97, -594081.7, -38828.777, -0.03208025, 0.17014167, -505057.4, -67229.19, 0.0, 9.999932, 9.998979 
1.6750652e+3, 2.6532438e+2, -422084.97, -469893.88, -16593.434, -0.022611415, 0.17215092, -416890.22, -77053.51, 0.0, 9.999838, 9.999204 
1.6750555e+3, 2.753233e+2, -298417.84, -359080.25, -17548.979, 0.0017606787, 0.1394059, -293706.94, -51860.895, 0.0, 10.000012, 9.9992075 
1.6750453e+3, 2.853225e+2, -226605.63, -245023.45, -23889.707, -0.012952862, 0.12666462, -210211.38, -66359.06, 0.0, 9.999709, 9.999463 
1.6750346e+3, 2.9532215e+2, -228917.94, -190343.31, -24517.213, -0.058425326, 0.1427525, -178436.17, -132582.81, 0.0, 9.998998, 9.999508 
1.6750258e+3, 3.0532065e+2, -174945.2, -128923.984, 22639.943, 0.04699095, 0.04006986, -119653.72, -119653.72, 0.0, 9.99899, 9.999599 
1.6750158e+3, 3.1532073e+2, -67127.05, -38046.613, 13340.648, -0.046314348, 0.09097783, -32853.844, -32853.844, 0.0, 9.999563, 9.999947 
1.6852026e+3, 1.2534888e+2, -1511963.0, -1737701.9, -79765.08, 0.02775559, 0.03294511, -1486622.5, 224964.47, 0.032695845, 10.001975, 9.998895 
1.6851942e+3, 1.3534847e+2, -1406966.5, -1626333.6, 66988.11, -0.04938514, 0.08650965, -1388128.1, 225465.22, 0.020976465, 10.001955, 9.998997 
1.6851862e+3, 1.4534788e+2, -1323507.6, -1544568.5, -15797.077, 0.0021591655, 0.13682653, -1322384.5, 193215.7, 0.010378638, 10.001876, 9.998918 
1.6851763e+3, 1.5534635e+2, -1240052.6, -1453765.5, -16287.836, 0.0011080469, 0.08560674, -1238818.4, 178797.05, 0.0034044879, 10.001765, 9.99892 
1.6851664e+3, 1.6534524e+2, -1175782.5, -1402785.3, -21566.822, -0.02243191, 0.09902087, -1173751.6, 145876.34, 0.00054462755, 10.001661, 9.998648 
1.6851565e+3, 1.753446e+2, -1093662.0, -1313771.3, -16967.463, -0.026274566, 0.1683109, -1092361.8, 129275.17, 0.000013478055, 10.001558, 9.998635 
1.6851468e+3, 1.8534334e+2, -1013559.8, -1216164.8, -16939.807, -0.014121716, 0.17715432, -1012153.25, 111497.21, 0.0, 10.001399, 9.99871 
1.6851372e+3, 1.953416e+2, -947908.75, -1135720.1, -14625.828, -0.0029439623, 0.12735017, -946776.56, 78890.516, 0.0, 10.001184, 9.998693 
1.6851272e+3, 2.0534033e+2, -874739.25, -1062472.5, -27168.209, 0.0030623074, 0.14170545, -870886.6, 56793.74, 0.0, 10.001069, 9.99858 
1.685117e+3, 2.1533962e+2, -780231.44, -965198.8, -24034.799, 0.010505828, 0.2080078, -777159.4, 52530.105, 0.0, 10.001041, 9.998588 
1.6851069e+3, 2.253384e+2, -695953.44, -828686.56, -19194.572, 0.013212309, 0.20890525, -693233.44, 38468.0, 0.0, 10.000752, 9.998992 
1.6850968e+3, 2.3533681e+2, -673551.3, -768016.8, -14811.253, 0.008519077, 0.14699686, -671283.5, -37568.527, 0.0, 10.000237, 9.998983 
1.6850862e+3, 2.4533568e+2, -604154.2, -686527.25, -28443.57, -0.0052994727, 0.14121117, -595287.06, -59561.477, 0.0, 10.000052, 9.998959 
1.6850753e+3, 2.553351e+2, -491084.16, -580756.44, -29592.582, -0.025208436, 0.18055835, -482198.78, -44466.324, 0.0, 10.000154, 9.998963 
1.6850652e+3, 2.653341e+2, -400412.16, -450033.5, -4479.958, -0.013014059, 0.17349812, -400010.94, -60269.41, 0.0, 9.999948, 9.999287 
1.6850555e+3, 2.753329e+2, -370116.25, -384624.53, -2666.0361, 0.025385762, 0.118825786, -369641.84, -127890.09, 0.0, 9.999483, 9.999286 
1.685045e+3, 2.853322e+2, -282223.4, -272937.3, -19818.906, 0.006108073, 0.119215265, -257224.84, -113468.44, 0.0, 9.999332, 9.999452 
1.6850339e+3, 2.9533225e+2, -164423.72, -160146.56, -33685.477, -0.057673324, 0.17226508, -128531.84, -82777.516, 0.0, 9.999447, 9.999498 
1.6850251e+3, 3.0533022e+2, -131281.33, -123838.47, 21826.547, 0.055536855, 0.024007916, -105418.37, -105418.37, 0.0, 9.999358, 9.999457 
1.6850156e+3, 3.1533045e+2, -132679.45, -53392.797, -4237.5415, -0.017817913, 0.10175549, -53166.96, -53166.96, 0.0, 9.9990425, 10.0000925 
1.6952044e+3, 1.2535885e+2, -1507166.0, -1726868.9, -83271.98, -0.0052179634, 0.10369667, -1479171.4, 232319.78, 0.03487983, 10.001975, 9.998971 
1.695196e+3, 1.3535772e+2, -1406168.8, -1625191.3, 65654.61, -0.06434401, 0.084219, -1387995.9, 225507.17, 0.022483114, 10.001959, 9.999003 
1.6951881e+3, 1.4535698e+2, -1325834.0, -1550229.1, -21032.137, 0.01663174, 0.11968666, -1323879.8, 191631.5, 0.011213223, 10.001879, 9.9988785 
1.6951782e+3, 1.5535586e+2, -1242053.1, -1459028.0, -20654.723, 0.006238683, 0.1132149, -1240104.4, 177418.72, 0.0037287846, 10.001768, 9.998884 
1.695168e+3, 1.6535464e+2, -1170552.6, -1393268.9, -25636.58, -0.023144193, 0.11613768, -1167639.8, 151896.4, 0.0006135235, 10.001665, 9.998713 
1.695158e+3, 1.7535348e+2, -1088346.8, -1304303.0, -20655.383, -0.027689392, 0.12457696, -1086388.9, 135160.28, 0.000016459384, 10.001563, 9.998699 
1.6951483e+3, 1.8535239e+2, -1009999.3, -1209728.4, -24950.588, -0.0041142944, 0.14549974, -1006929.6, 116631.336, 0.0, 10.001401, 9.9987545 
1.6951387e+3, 1.9535145e+2, -944465.75, -1129576.9, -22137.117, 0.028065378, 0.17224522, -941855.25, 83715.54, 0.0, 10.001187, 9.998735 
1.6951284e+3, 2.0535015e+2, -868956.94, -1051046.0, -28160.318, 0.015403191, 0.17522599, -864701.4, 62883.07, 0.0, 10.001069, 9.998659 
1.6951178e+3, 2.1534862e+2, -774831.6, -953714.06, -25061.176, -0.0298714, 0.1529689, -771386.9, 58213.344, 0.0, 10.001039, 9.99867 
1.6951074e+3, 2.2534749e+2, -685359.06, -806678.06, -38327.707, -0.025146311, 0.15136105, -674264.9, 57346.188, 0.0, 10.000751, 9.999145 
1.6950971e+3, 2.3534676e+2, -663068.44, -747748.75, -32371.947, 0.020642726, 0.16200228, -652111.0, -18494.416, 0.0, 10.000241, 9.999122 
1.6950865e+3, 2.4534586e+2, -604041.56, -687512.2, -23708.383, 0.024685428, 0.17105696, -597777.7, -62152.254, 0.0, 10.000056, 9.998951 
1.6950756e+3, 2.5534487e+2, -491119.3, -581562.94, -25275.457, -0.005916401, 0.17408256, -484535.13, -46899.11, 0.0, 10.0001545, 9.998959 
1.6950653e+3, 2.653438e+2, -391441.4, -432214.78, -21195.898, 0.0073927185, 0.14710572, -382419.2, -42772.953, 0.0, 9.9999485, 9.999409 
1.6950554e+3, 2.7534264e+2, -361833.63, -369136.63, -18192.676, 0.05618968, 0.09005873, -346929.63, -105274.51, 0.0, 9.999488, 9.999391 
1.6950445e+3, 2.853422e+2, -295593.84, -301706.4, -14577.836, 0.030469684, 0.11540508, -283755.34, -140096.97, 0.0, 9.999335, 9.999254 
1.6950333e+3, 2.9534242e+2, -178649.73, -189899.5, -27761.154, -0.05143549, 0.20749198, -155949.34, -110293.52, 0.0, 9.999445, 9.999296 
1.6950245e+3, 3.053398e+2, -142351.02, -147229.11, 11082.395, 0.056529127, 0.020679248, -133442.45, -133442.45, 0.0, 9.999358, 9.999297 
1.6950148e+3, 3.153397e+2, -105762.24, 1736.0194, -31864.842, 0.004008852, 0.08611082, 10471.585, 10471.585, 0.0, 9.999044, 10.000471 
1.7052063e+3, 1.2536822e+2, -1509896.9, -1713430.5, -82797.04, 0.0003828165, 0.112443954, -1480469.8, 230930.17, 0.037186548, 10.001896, 9.999103 
1.705198e+3, 1.3536696e+2, -1416418.4, -1624096.1, 68949.55, -0.06523787, 0.072923556, -1395611.5, 217800.78, 0.02408674, 10.001864, 9.999057 
1.7051901e+3, 1.4536619e+2, -1341636.5, -1557991.6, -18107.432, 0.027281638, 0.1044899, -1340131.5, 175289.16, 0.012113362, 10.001772, 9.998877 
1.7051798e+3, 1.5536529e+2, -1261427.9, -1468621.8, -15229.919, -0.0069924355, 0.12232371, -1260314.4, 157116.58, 0.0040865135, 10.0016365, 9.998881 
1.7051695e+3, 1.6536413e+2, -1178495.9, -1385114.3, -15100.24, -0.037061416, 0.12345018, -1177398.1, 142045.25, 0.000691961, 10.001559, 9.998819 
1.7051597e+3, 1.7536283e+2, -1085624.0, -1292227.8, -8769.007, -0.020415626, 0.10754956, -1085252.5, 136204.14, 0.000020346932, 10.001534, 9.998796 
1.7051497e+3, 1.8536177e+2, -1012165.7, -1215107.8, -20590.135, 0.0033161084, 0.13068712, -1010097.75, 113370.39, 0.0, 10.001406, 9.998715 
1.7051397e+3, 1.9536105e+2, -946943.0, -1133925.3, -24130.68, 0.016436253, 0.18263464, -943879.06, 81598.01, 0.0, 10.001186, 9.998705 
1.7051293e+3, 2.0535979e+2, -879471.1, -1035454.8, -27517.148, 0.004798076, 0.18262519, -874759.2, 52730.875, 0.0, 10.000911, 9.998841 
1.7051187e+3, 2.1535817e+2, -829673.5, -961083.6, -18022.953, -0.02278837, 0.13316028, -827246.5, 2258.9663, 0.0, 10.000581, 9.998838 
1.705108e+3, 2.2535709e+2, -728659.25, -825669.75, -35339.64, -0.018480362, 0.1283035, -717150.75, 14364.791, 0.0, 10.000447, 9.99916 
1.7050974e+3, 2.3535658e+2, -626764.2, -728201.5, -40739.67, 0.011632799, 0.15727855, -612428.25, 21091.646, 0.0, 10.000484, 9.999138 
1.7050868e+3, 2.4535576e+2, -562489.0, -657014.56, -29494.229, 0.026383188, 0.1705684, -554041.06, -18513.037, 0.0, 10.000298, 9.999043 
1.7050761e+3, 2.553548e+2, -519843.16, -585204.9, -24165.553, 0.029132834, 0.16448967, -511879.06, -74340.59, 0.0, 9.999916, 9.999046 
1.7050654e+3, 2.6535377e+2, -424776.38, -446770.7, -24909.367, 0.036261123, 0.14060214, -408544.63, -68996.5, 0.0, 9.999717, 9.99942 
1.7050548e+3, 2.7535278e+2, -335447.8, -355417.28, -31003.727, 0.044211864, 0.098888434, -312860.7, -71304.81, 0.0, 9.999667, 9.999397 
1.7050439e+3, 2.8535235e+2, -277987.47, -292831.5, -17875.867, 0.023585847, 0.12693198, -266054.03, -122494.92, 0.0, 9.999457, 9.999256 
1.705033e+3, 2.9535243e+2, -227371.23, -215206.89, -15675.487, -0.011274178, 0.20386931, -204474.97, -158916.9, 0.0, 9.999121, 9.999278 
1.705024e+3, 3.0534977e+2, -200247.97, -197763.31, 28053.918, 0.08065367, 0.020812845, -170924.22, -170924.22, 0.0, 9.999059, 9.999095 
1.7050138e+3, 3.1534967e+2, -63398.934, 63815.84, -35777.844, -0.001612417, 0.10338147, 73187.586, 73187.586, 0.0, 9.99916, 10.00084 
1.7152084e+3, 1.2537704e+2, -1498079.4, -1688651.3, -84872.64, 0.036545325, 0.06343893, -1465761.4, 245551.52, 0.039617054, 10.001899, 9.999274 
1.7152e+3, 1.3537619e+2, -1409332.9, -1610250.3, 67111.14, -0.054440137, 0.055991966, -1388978.3, 224342.45, 0.02578764, 10.00187, 9.99915 
1.7151919e+3, 1.4537555e+2, -1338957.6, -1553887.9, -23792.08, 0.032676496, 0.09376591, -1336355.5, 178972.75, 0.013079771, 10.001778, 9.998902 
1.7151812e+3, 1.5537469e+2, -1258528.6, -1464372.4, -20030.795, -0.03821981, 0.11237804, -1256597.5, 160741.34, 0.0044793175, 10.001643, 9.998908 
1.7151707e+3, 1.6537367e+2, -1168434.9, -1365609.1, -16292.102, -0.0642413, 0.12041796, -1167097.8, 152251.94, 0.0007811272, 10.001563, 9.998953 
1.7151614e+3, 1.7537262e+2, -1076825.1, -1274626.5, -9973.169, -0.006374049, 0.11624707, -1076323.5, 145036.13, 0.000025375884, 10.001535, 9.998918 
1.7151512e+3, 1.8537149e+2, -1020722.0, -1233156.0, -29081.41, 0.0063696476, 0.13211934, -1016812.8, 106559.35, 0.0, 10.001405, 9.998592 
1.7151403e+3, 1.9537039e+2, -954421.56, -1149895.9, -32200.313, -0.03622276, 0.1594692, -949253.9, 76131.99, 0.0, 10.001186, 9.998596 
1.7151299e+3, 2.0536928e+2, -859857.6, -995272.6, -39683.855, -0.028172402, 0.16513307, -849085.1, 78312.086, 0.0, 10.000912, 9.999118 
1.7151198e+3, 2.1536826e+2, -811129.0, -924124.75, -29295.86, 0.029338988, 0.14754859, -803985.25, 25420.209, 0.0, 10.000586, 9.999091 
1.7151089e+3, 2.2536719e+2, -737606.94, -845421.25, -33508.156, 0.03049033, 0.138608, -728041.44, 3373.8806, 0.0, 10.00045, 9.999023 
1.7150976e+3, 2.353662e+2, -635306.75, -746275.9, -38933.316, -0.019052425, 0.13296692, -623009.75, 10415.525, 0.0, 10.0004835, 9.999015 
1.7150868e+3, 2.4536535e+2, -549486.7, -629856.9, -43166.805, -0.00061392353, 0.14006166, -530695.4, 4738.5527, 0.0, 10.000296, 9.999231 
1.7150766e+3, 2.5536472e+2, -507336.6, -560249.06, -36858.06, 0.07850617, 0.15174784, -488422.7, -50982.254, 0.0, 9.999919, 9.999217 
1.7150655e+3, 2.65364e+2, -431637.94, -462356.5, -25863.496, 0.072716415, 0.15316917, -416916.84, -77468.93, 0.0, 9.999721, 9.999312 
1.7150538e+3, 2.7536324e+2, -342390.97, -370342.28, -32278.172, -0.010649234, 0.14484076, -321192.78, -79737.945, 0.0, 9.999667, 9.999297 
1.715043e+3, 2.8536266e+2, -264503.16, -264788.0, -29849.734, -0.0153242415, 0.15340273, -234795.5, -91336.07, 0.0, 9.999455, 9.99945 
1.7150329e+3, 2.9536223e+2, -216029.08, -193398.34, -25218.64, 0.060078822, 0.16102979, -177072.84, -131610.77, 0.0, 9.999126, 9.999426 
1.7150234e+3, 3.0536e+2, -217793.36, -235977.0, 32749.576, 0.12426377, 0.027096368, -192897.0, -192897.0, 0.0, 9.999064, 9.99883 
1.7150126e+3, 3.1535998e+2, -42864.33, 107634.6, -46624.246, -0.034368128, 0.14265695, 120908.02, 120908.02, 0.0, 9.999154, 10.001145 
1.7252104e+3, 1.2538649e+2, -1488237.3, -1679361.0, -52696.76, 0.03466768, 0.031969115, -1474670.6, 236548.45, 0.042172503, 10.001958, 9.999309 
1.7252016e+3, 1.3538587e+2, -1413642.9, -1616846.5, 88291.35, -0.06371426, 0.050675783, -1380640.5, 232584.55, 0.027585778, 10.0018635, 9.99911 
1.7251937e+3, 1.4538522e+2, -1339265.1, -1552014.4, -7933.151, 0.0407777, 0.0892843, -1338969.8, 176263.16, 0.014112073, 10.00177, 9.998919 
1.7251827e+3, 1.5538439e+2, -1246035.1, -1456885.8, -5714.112, -0.045054726, 0.10865465, -1245880.5, 171363.13, 0.004907627, 10.001726, 9.9989195 
1.7251723e+3, 1.653834e+2, -1167450.4, -1362743.0, -8776.891, -0.07601333, 0.1183839, -1167056.8, 152197.38, 0.0008819792, 10.001562, 9.998972 
1.7251627e+3, 1.7538238e+2, -1112429.6, -1289923.1, -11039.034, -0.0129715735, 0.11509118, -1111745.6, 109517.84, 0.000031776486, 10.001286, 9.998932 
1.7251524e+3, 1.8538122e+2, -1067340.9, -1257177.6, -30450.459, 0.0043176156, 0.12940846, -1062576.1, 60700.168, 0.0, 10.001093, 9.998577 
1.7251414e+3, 1.9538009e+2, -986765.5, -1167513.4, -27199.318, -0.035294943, 0.15513098, -982761.2, 42529.676, 0.0, 10.000973, 9.998578 
1.7251307e+3, 2.0537904e+2, -857014.8, -983671.7, -39221.883, -0.029258965, 0.16389832, -845852.7, 81448.945, 0.0, 10.000888, 9.999208 
1.7251204e+3, 2.1537818e+2, -768780.3, -893650.7, -43291.3, 0.02238216, 0.15279903, -755239.94, 74068.08, 0.0, 10.000836, 9.999178 
1.7251095e+3, 2.2537714e+2, -715015.3, -831811.44, -47563.375, 0.031838357, 0.14181066, -698096.6, 33220.844, 0.0, 10.000596, 9.999044 
1.725098e+3, 2.3537609e+2, -677063.7, -763564.4, -42013.79, 0.0018873259, 0.12746727, -660016.8, -26688.486, 0.0, 10.000188, 9.999037 
1.725087e+3, 2.4537528e+2, -590322.0, -640962.9, -45842.992, 0.015316756, 0.13426942, -563271.6, -27934.893, 0.0, 9.999982, 9.999305 
1.7250763e+3, 2.553748e+2, -497978.9, -547990.6, -49044.47, 0.06892283, 0.15211742, -467933.4, -30591.37, 0.0, 9.999952, 9.999284 
1.7250651e+3, 2.653742e+2, -416935.22, -448214.4, -34056.516, 0.06418014, 0.16188298, -395098.9, -55750.61, 0.0, 9.999793, 9.999373 
1.7250536e+3, 2.7537364e+2, -359426.6, -371438.0, -28559.592, 0.0042604683, 0.16524683, -336248.1, -94894.3, 0.0, 9.999522, 9.999357 
1.7250426e+3, 2.85373e+2, -266232.63, -255977.5, -23884.785, 0.0018489836, 0.16257483, -236676.1, -93317.35, 0.0, 9.999405, 9.999534 
1.7250322e+3, 2.953723e+2, -170767.36, -166096.48, -27282.045, 0.06290808, 0.13604017, -141050.1, -95686.555, 0.0, 9.999417, 9.999472 
1.7250223e+3, 3.053706e+2, -205714.77, -245405.02, 31445.781, 0.09882396, 0.062716044, -188375.67, -188375.67, 0.0, 9.999215, 9.998693 
1.7250119e+3, 3.1537014e+2, -86416.43, 105464.734, -50712.055, -0.004369285, 0.14012444, 118042.85, 118042.85, 0.0, 9.9987755, 10.001312 
1.7352119e+3, 1.2539661e+2, -1496715.3, -1696178.6, -56343.523, -0.0075299703, 0.019899303, -1481900.0, 229218.42, 0.04485813, 10.001959, 9.999188 
1.7352033e+3, 1.3539596e+2, -1424947.9, -1641598.3, 83497.15, -0.092815064, 0.053623974, -1396502.8, 216622.8, 0.029481819, 10.001869, 9.998937 
1.7351957e+3, 1.4539517e+2, -1338881.6, -1552752.6, -10886.8545, 0.049962107, 0.08811532, -1338328.9, 176806.08, 0.015208748, 10.001776, 9.998912 
1.7351846e+3, 1.5539439e+2, -1245546.0, -1457631.6, -7838.3013, -0.030461254, 0.11281392, -1245256.8, 171888.3, 0.0053705308, 10.001732, 9.998913 
1.7351738e+3, 1.6539332e+2, -1172952.8, -1375652.0, -19441.918, -0.075247504, 0.11988662, -1171104.8, 148051.58, 0.0009949692, 10.001566, 9.998882 
1.7351636e+3, 1.7539208e+2, -1117939.1, -1302742.3, -21085.771, -0.039663155, 0.10361586, -1115563.9, 105604.336, 0.000039781222, 10.001289, 9.998843 
1.7351535e+3, 1.8539098e+2, -1061745.3, -1246541.4, -34767.297, -0.0032545195, 0.122198544, -1055420.6, 67760.0, 0.0, 10.001095, 9.99865 
1.7351429e+3, 1.9539012e+2, -981568.75, -1158097.6, -30932.25, 0.01541812, 0.16864967, -976305.56, 48886.76, 0.0, 10.000977, 9.998642 
1.7351319e+3, 2.0538905e+2, -863850.75, -998441.1, -40942.79, -0.0017262823, 0.17803833, -852374.44, 74829.12, 0.0, 10.000889, 9.999107 
1.7351204e+3, 2.1538791e+2, -775542.3, -907374.6, -44928.137, -0.0421329, 0.14882953, -761687.06, 67526.24, 0.0, 10.000833, 9.999086 
1.7351097e+3, 2.2538692e+2, -702988.2, -806430.4, -62244.094, -0.013233306, 0.13807261, -673780.94, 57441.418, 0.0, 10.000593, 9.999222 
1.735099e+3, 2.353862e+2, -665324.2, -740164.06, -55646.62, 0.07197353, 0.14034963, -635685.94, -2456.4685, 0.0, 10.00019, 9.999198 
1.7350876e+3, 2.453855e+2, -593598.5, -648686.94, -46127.89, 0.071751095, 0.15242034, -567416.9, -32179.93, 0.0, 9.999984, 9.999251 
1.7350756e+3, 2.5538492e+2, -501112.03, -554810.75, -49280.695, 0.0007253455, 0.16486637, -471841.22, -34597.313, 0.0, 9.999952, 9.999239 
1.7350644e+3, 2.6538432e+2, -402165.97, -417571.8, -43460.75, 0.01054705, 0.16659282, -365730.78, -26480.814, 0.0, 9.999791, 9.999585 
1.735054e+3, 2.753839e+2, -344365.28, -341903.63, -37416.836, 0.08500923, 0.16124626, -305697.38, -64443.83, 0.0, 9.999528, 9.999558 
1.7350428e+3, 2.853833e+2, -266498.0, -258796.73, -23086.512, 0.07187372, 0.15454207, -239241.94, -95983.93, 0.0, 9.999413, 9.999512 
1.7350309e+3, 2.9538256e+2, -174906.39, -175722.61, -25839.605, -0.0030006692, 0.12641914, -149471.67, -104207.95, 0.0, 9.999418, 9.999407 
1.7350206e+3, 3.0538157e+2, -206529.08, -246259.38, 15884.665, 0.0022281737, 0.1290444, -200959.08, -200959.08, 0.0, 9.99921, 9.99869 
1.7350115e+3, 3.1538025e+2, -89044.484, 99701.914, -71347.84, 0.08257238, 0.119696505, 123636.85, 123636.85, 0.0, 9.998776, 10.001272 
1.7452142e+3, 1.254071e+2, -1479722.4, -1702369.6, -49292.973, 0.0014140646, 0.035981018, -1469297.3, 241717.61, 0.047677938, 10.002155, 9.999048 
1.7452051e+3, 1.3540605e+2, -1422978.1, -1661033.3, 85903.766, -0.10781239, 0.04889495, -1395216.6, 217809.61, 0.031474058, 10.001978, 9.99875 
1.7451975e+3, 1.4540502e+2, -1335716.5, -1553346.4, -7141.3887, 0.05652943, 0.06997628, -1335482.5, 179555.75, 0.016366446, 10.001812, 9.998889 
1.7451864e+3, 1.5540446e+2, -1251451.1, -1463158.4, -6521.386, -0.020248432, 0.11764405, -1251250.4, 165795.86, 0.005865922, 10.001705, 9.998886 
1.7451754e+3, 1.6540341e+2, -1178261.8, -1379482.1, -22313.701, -0.07071914, 0.12903671, -1175817.0, 143240.39, 0.0011198252, 10.001537, 9.998869 
1.745165e+3, 1.7540203e+2, -1115208.8, -1302953.3, -19400.895, -0.04695297, 0.100378186, -1113224.9, 107845.86, 0.00004956382, 10.001316, 9.998828 
1.7451546e+3, 1.8540087e+2, -1049600.0, -1231042.3, -25595.563, -0.0090772575, 0.11165876, -1046058.4, 77024.87, 0.0000000000000006446772, 10.001139, 9.998734 
1.745144e+3, 1.9540009e+2, -972844.7, -1144914.9, -21853.852, 0.02081264, 0.15494716, -970112.5, 54981.21, 0.0, 10.001001, 9.998718 
1.7451328e+3, 2.0539908e+2, -884854.9, -1011746.8, -31248.758, 0.0046100896, 0.16842723, -877576.9, 49527.6, 0.0, 10.000761, 9.999076 
1.745121e+3, 2.1539801e+2, -836840.8, -940426.75, -30898.01, -0.043645043, 0.15049529, -828324.56, 789.9356, 0.0, 10.000428, 9.999053 
1.74511e+3, 2.2539708e+2, -745601.75, -822297.94, -51420.203, -0.017420562, 0.14572708, -719804.6, 11318.793, 0.0, 10.000282, 9.999262 
1.7450991e+3, 2.3539641e+2, -647095.5, -727077.75, -55962.395, 0.0694204, 0.14889097, -618303.8, 14826.191, 0.0, 10.000299, 9.999234 
1.7450877e+3, 2.4539573e+2, -572514.3, -634206.7, -47805.734, 0.07334639, 0.15998918, -546466.94, -11329.809, 0.0, 10.000113, 9.999288 
1.7450756e+3, 2.5539517e+2, -528781.7, -563899.2, -44667.023, 0.00814881, 0.17046747, -498346.16, -61202.29, 0.0, 9.999747, 9.999273 
1.7450643e+3, 2.653946e+2, -434095.44, -429737.6, -41022.85, 0.015818993, 0.17317292, -390835.84, -51686.246, 0.0, 9.999562, 9.999611 
1.7450535e+3, 2.7539423e+2, -342877.3, -338229.13, -49227.742, 0.08210425, 0.16973233, -291270.66, -50117.844, 0.0, 9.999529, 9.999581 
1.745042e+3, 2.8539363e+2, -264327.63, -253011.23, -37396.29, 0.072184466, 0.15575464, -220847.52, -77689.695, 0.0, 9.99941, 9.999552 
1.7450304e+3, 2.953928e+2, -205274.88, -188259.22, -36223.46, 0.0092195505, 0.1179521, -159557.88, -114393.56, 0.0, 9.999204, 9.999423 
1.7450194e+3, 3.0539244e+2, -216704.83, -233040.06, 11267.015, -0.022640094, 0.17652163, -210956.42, -210956.42, 0.0, 9.9990635, 9.998852 
1.7450106e+3, 3.153906e+2, -68148.41, 93676.09, -64557.266, 0.106414594, 0.09359392, 116274.39, 116274.39, 0.0, 9.998991, 10.001127 
1.7552169e+3, 1.2541796e+2, -1490841.5, -1727471.0, -53489.844, 0.051368684, 0.0766147, -1479312.0, 231596.44, 0.05062381, 10.002163, 9.998874 
1.755207e+3, 1.3541622e+2, -1435842.1, -1689019.1, 78340.234, -0.1108357, 0.039698128, -1413562.1, 199364.5, 0.03355527, 10.001982, 9.998556 
1.7551993e+3, 1.4541487e+2, -1339346.9, -1561573.9, -12055.463, 0.05903828, 0.039654333, -1338694.8, 176247.11, 0.017580096, 10.001815, 9.998833 
1.7551881e+3, 1.5541458e+2, -1254733.1, -1471213.9, -10587.5205, -0.015030244, 0.121427216, -1254216.6, 162730.63, 0.0063910303, 10.00171, 9.99883 
1.755177e+3, 1.6541363e+2, -1174399.0, -1372571.4, -30751.51, -0.063694954, 0.14367637, -1169736.8, 149220.64, 0.0012556869, 10.00154, 9.998917 
1.7551664e+3, 1.7541221e+2, -1110649.0, -1295382.6, -27377.914, -0.037245695, 0.10547932, -1106677.0, 114294.29, 0.00006111771, 10.001322, 9.9988785 
1.7551556e+3, 1.8541095e+2, -1042818.2, -1218257.4, -30634.693, -0.015432959, 0.09869159, -1037622.75, 85361.47, 0.0000000010737394, 10.0011425, 9.998821 
1.7551446e+3, 1.9540995e+2, -966924.44, -1133393.5, -26684.914, -0.017188044, 0.115364425, -962751.44, 62243.656, 0.0, 10.001002, 9.998798 
1.7551334e+3, 2.054091e+2, -882772.94, -1007701.7, -43295.137, -0.009404501, 0.1366852, -869235.56, 57769.184, 0.0, 10.00076, 9.999105 
1.7551222e+3, 2.1540843e+2, -834837.2, -937405.2, -41884.574, 0.014118728, 0.15729535, -819906.6, 9105.358, 0.0, 10.000431, 9.999074 
1.7551106e+3, 2.2540757e+2, -752491.44, -837678.2, -49982.203, 0.015639337, 0.16366227, -729415.8, 1605.2499, 0.0, 10.000285, 9.999155 
1.7550987e+3, 2.3540667e+2, -653715.0, -741835.3, -54597.625, -0.004066722, 0.15279177, -627616.8, 5413.6157, 0.0, 10.000301, 9.999132 
1.7550872e+3, 2.4540593e+2, -563999.5, -617090.56, -60912.027, 0.021370525, 0.15718181, -524100.03, 10937.893, 0.0, 10.000113, 9.999406 
1.755076e+3, 2.5540552e+2, -520345.56, -548106.2, -56861.33, 0.087194756, 0.16972351, -475694.9, -38652.297, 0.0, 9.999752, 9.99938 
1.7550643e+3, 2.65405e+2, -444279.38, -452789.53, -41518.36, 0.076063864, 0.18171452, -406798.63, -67750.74, 0.0, 9.999568, 9.99945 
1.755052e+3, 2.7540454e+2, -353763.5, -361616.78, -49334.723, -0.00357582, 0.18922344, -308199.4, -67146.95, 0.0, 9.999531, 9.999421 
1.7550407e+3, 2.8540382e+2, -258039.33, -240206.1, -44592.035, 0.0036679504, 0.16570166, -203647.92, -60588.855, 0.0, 9.999409, 9.999641 
1.7550305e+3, 2.9540294e+2, -197668.36, -175553.97, -43496.44, 0.09456688, 0.11155799, -141731.3, -96665.016, 0.0, 9.999215, 9.999506 
1.755019e+3, 3.0540314e+2, -191678.84, -183403.0, 8726.313, 0.017941171, 0.20496272, -177883.23, -177883.23, 0.0, 9.999072, 9.999188 
1.7550091e+3, 3.1540152e+2, -89412.805, 50529.707, -55991.547, 0.060045857, 0.11347795, 70174.47, 70174.47, 0.0, 9.998984, 10.000835 
1.765219e+3, 1.254283e+2, -1456856.5, -1712604.8, -59419.984, 0.048729654, 0.06983695, -1443725.1, 267082.4, 0.053677697, 10.002429, 9.998848 
1.7652091e+3, 1.3542677e+2, -1429745.1, -1689304.8, 75402.76, -0.10069206, 0.058336627, -1409430.4, 203393.39, 0.035715524, 10.002045, 9.998524 
1.7652014e+3, 1.4542523e+2, -1346199.5, -1565423.4, -1107.9924, 0.0891344, 0.041467655, -1346193.9, 168646.73, 0.018844124, 10.001774, 9.998824 
1.7651898e+3, 1.554247e+2, -1260398.0, -1475012.0, 4205.1235, -0.017740387, 0.10094167, -1260315.6, 156532.05, 0.0069425246, 10.001679, 9.998817 
1.7651784e+3, 1.6542381e+2, -1173565.0, -1371376.6, -18945.611, -0.0723663, 0.12958023, -1171766.9, 147090.63, 0.0014012909, 10.001546, 9.9989195 
1.7651677e+3, 1.7542268e+2, -1102482.9, -1290501.3, -20359.38, -0.028941674, 0.12140863, -1100303.5, 120565.54, 0.0000742067, 10.001378, 9.998883 
1.7651568e+3, 1.8542147e+2, -1036252.8, -1202759.6, -25738.572, -0.008359911, 0.11286019, -1032364.94, 90516.54, 0.000000009428086, 10.001137, 9.99893 
1.7651454e+3, 1.9542032e+2, -984359.75, -1130714.8, -21086.229, -0.02720523, 0.10205653, -981382.3, 43510.73, 0.0, 10.000836, 9.998897 
1.765134e+3, 2.0541944e+2, -904232.4, -1021386.0, -39419.56, -0.017517904, 0.118436046, -892203.7, 34699.07, 0.0, 10.000628, 9.999074 
1.7651227e+3, 2.1541889e+2, -827148.7, -936501.6, -43445.336, 0.023473414, 0.15266065, -811989.56, 16920.025, 0.0, 10.000499, 9.999046 
1.765111e+3, 2.254181e+2, -737447.8, -825837.4, -41538.074, 0.020016208, 0.16715974, -720991.2, 9926.783, 0.0, 10.000371, 9.999194 
1.7650987e+3, 2.3541725e+2, -660929.0, -741834.4, -36123.992, -0.02389783, 0.1597089, -647147.4, -14220.799, 0.0, 10.000238, 9.999162 
1.7650871e+3, 2.4541646e+2, -568985.56, -628359.8, -51544.24, 0.007287204, 0.15973443, -539190.44, -4255.645, 0.0, 10.000118, 9.999326 
1.765076e+3, 2.5541586e+2, -488537.22, -541669.44, -62957.79, 0.103664696, 0.16270642, -446770.0, -9828.713, 0.0, 10.0000105, 9.999299 
1.7650642e+3, 2.6541534e+2, -415463.84, -443217.38, -48226.555, 0.08729856, 0.18012503, -379157.28, -40210.406, 0.0, 9.999785, 9.999411 
1.7650513e+3, 2.75415e+2, -366895.0, -372219.3, -47163.88, -0.02643647, 0.2025071, -322318.22, -81367.44, 0.0, 9.99946, 9.999381 
1.76504e+3, 2.8541425e+2, -280742.9, -253397.8, -40507.457, -0.0064344457, 0.17898555, -224317.66, -81359.64, 0.0, 9.999264, 9.9996195 
1.76503e+3, 2.954133e+2, -205875.03, -180474.28, -48336.832, 0.1334208, 0.120978534, -143197.17, -98231.125, 0.0, 9.999166, 9.999495 
1.765018e+3, 3.054136e+2, -177120.61, -142715.19, 1404.7002, 0.012301355, 0.21055184, -142657.94, -142657.94, 0.0, 9.99903, 9.999487 
1.765008e+3, 3.1541243e+2, -118036.95, 8352.066, -49723.938, 0.047014505, 0.13295646, 25569.098, 25569.098, 0.0, 9.998912, 10.000579 
1.775221e+3, 1.2543823e+2, -1453460.5, -1702686.5, -67071.85, -0.007709564, 0.023609675, -1436556.6, 274154.3, 0.056830134, 10.002423, 9.998921 
1.7752112e+3, 1.3543768e+2, -1422431.3, -1675416.3, 60221.71, -0.079676114, 0.10153501, -1408827.4, 203890.38, 0.037950285, 10.002054, 9.998614 
1.7752038e+3, 1.4543608e+2, -1342594.6, -1559652.1, -6124.0894, 0.14283213, 0.07192566, -1342422.0, 172312.67, 0.020155376, 10.001781, 9.998861 
1.7751914e+3, 1.5543486e+2, -1257687.3, -1470213.5, 845.1195, -0.029082764, 0.058748722, -1257683.9, 159063.48, 0.007517709, 10.001681, 9.99885 
1.7751797e+3, 1.65434e+2, -1176934.0, -1379127.0, -25090.293, -0.09750598, 0.09021305, -1173867.0, 144890.14, 0.0015554583, 10.001548, 9.998867 
1.7751692e+3, 1.7543346e+2, -1105326.4, -1297746.8, -26321.46, -0.022468552, 0.1471405, -1101790.8, 118973.66, 0.000088497945, 10.001382, 9.998833 
1.775158e+3, 1.8543242e+2, -1027604.9, -1185590.6, -36684.465, 0.010572374, 0.15232189, -1019502.25, 103273.07, 0.000000028818846, 10.001138, 9.999048 
1.7751464e+3, 1.9543111e+2, -975890.6, -1114525.5, -31519.229, -0.011792719, 0.11300073, -969061.0, 55726.895, 0.0, 10.00084, 9.999006 
1.7751345e+3, 2.0543005e+2, -910616.9, -1036120.06, -43845.504, -0.021991314, 0.11222889, -896816.6, 29982.32, 0.0, 10.000632, 9.998972 
1.7751227e+3, 2.1542929e+2, -832650.7, -949861.06, -47349.305, -0.014346447, 0.13716605, -815913.2, 12894.409, 0.0, 10.0005045, 9.998953 
1.7751111e+3, 2.2542863e+2, -724210.9, -799709.1, -45861.156, -0.0035859095, 0.15762115, -702561.0, 28253.578, 0.0, 10.000374, 9.999373 
1.7750993e+3, 2.3542814e+2, -649130.6, -718660.94, -40056.336, 0.007102819, 0.1694714, -630856.8, 1962.1542, 0.0, 10.000242, 9.999321 
1.7750876e+3, 2.4542725e+2, -588551.2, -669834.1, -54856.94, 0.027962923, 0.16639258, -560921.0, -26092.559, 0.0, 10.00012, 9.999041 
1.7750756e+3, 2.5542614e+2, -507696.97, -582444.5, -66179.67, 0.058895823, 0.148181, -469067.13, -32226.453, 0.0, 10.000012, 9.99902 
1.7750634e+3, 2.6542556e+2, -409953.88, -432812.03, -59723.008, 0.050645206, 0.16828083, -360576.2, -21728.855, 0.0, 9.999788, 9.999481 
1.7750512e+3, 2.754255e+2, -360636.4, -361754.16, -57880.715, 0.0078268, 0.21069151, -303311.88, -62463.363, 0.0, 9.999469, 9.999451 
1.7750397e+3, 2.8542477e+2, -288336.6, -271398.53, -43825.99, 0.035928037, 0.19582589, -235230.78, -92375.32, 0.0, 9.999272, 9.999493 
1.775029e+3, 2.954238e+2, -213046.66, -196777.58, -51820.535, 0.12746611, 0.14477377, -152457.02, -107592.42, 0.0, 9.999169, 9.999382 
1.7750165e+3, 3.0542374e+2, -159139.66, -104882.01, -3110.6282, -0.037101958, 0.18929543, -104704.26, -104704.26, 0.0, 9.999027, 9.999748 
1.775007e+3, 3.1542355e+2, -129682.15, -18368.785, -25416.057, 0.05069556, 0.18667419, -12840.157, -12840.157, 0.0, 9.9989195, 10.000393 
1.7852235e+3, 1.254491e+2, -1467718.4, -1715793.5, -36143.434, 0.021954788, 0.031490453, -1462559.8, 248045.58, 0.060091246, 10.0023575, 9.998857 
1.7852134e+3, 1.3544853e+2, -1394162.5, -1663909.0, 72533.76, -0.09616636, 0.109025195, -1375895.5, 236716.9, 0.04026372, 10.002274, 9.998588 
1.7852056e+3, 1.4544688e+2, -1309639.8, -1531531.0, 4343.0073, 0.14379561, 0.07170155, -1309554.8, 205074.66, 0.02151503, 10.001967, 9.998963 
1.7851931e+3, 1.5544584e+2, -1268152.0, -1465117.8, 15648.891, -0.013532532, 0.06656686, -1266916.5, 149723.27, 0.008116559, 10.001569, 9.998938 
1.7851815e+3, 1.6544497e+2, -1208890.0, -1401118.1, -4085.9895, -0.08125004, 0.096376024, -1208803.1, 109846.51, 0.0017178453, 10.001359, 9.998806 
1.7851706e+3, 1.7544428e+2, -1121890.8, -1312856.9, -6988.9937, -0.015734537, 0.14306805, -1121635.4, 99023.68, 0.00010376792, 10.001301, 9.998767 
1.7851593e+3, 1.8544324e+2, -1034696.0, -1197503.4, -31383.645, 0.015021775, 0.15770622, -1028855.8, 93814.52, 0.0000000562377, 10.001129, 9.998969 
1.7851473e+3, 1.9544211e+2, -977804.06, -1123292.4, -41264.668, -0.004872068, 0.14470746, -966915.2, 57766.465, 0.0, 10.000865, 9.998933 
1.7851353e+3, 2.0544101e+2, -892737.06, -1022118.8, -46984.887, -0.022233982, 0.14008862, -877474.9, 49217.926, 0.0, 10.000734, 9.999018 
1.7851233e+3, 2.1544002e+2, -799801.56, -930282.8, -40515.617, -0.029748086, 0.13638417, -788244.75, 40458.055, 0.0, 10.000715, 9.998985 
1.7851114e+3, 2.2543924e+2, -707821.7, -805887.6, -51372.887, -0.014887443, 0.15090546, -685837.7, 44873.07, 0.0, 10.000548, 9.999247 
1.7850998e+3, 2.3543876e+2, -655437.06, -734425.0, -68973.51, 0.016036293, 0.17514805, -615450.75, 17265.12, 0.0, 10.000256, 9.999205 
1.7850876e+3, 2.4543786e+2, -596980.1, -669480.0, -78003.79, 0.035007667, 0.17691298, -547214.7, -12489.401, 0.0, 10.000044, 9.99908 
1.7850754e+3, 2.5543678e+2, -522689.0, -586467.25, -65761.625, 0.04548409, 0.15757987, -481492.5, -44755.688, 0.0, 9.999896, 9.999047 
1.7850631e+3, 2.6543614e+2, -424058.3, -445403.2, -57553.64, 0.0376146, 0.17309466, -376195.97, -37451.89, 0.0, 9.999717, 9.999429 
1.7850506e+3, 2.7543595e+2, -358336.94, -366629.47, -64946.574, 0.012945555, 0.20665704, -297404.4, -56657.47, 0.0, 9.999512, 9.999396 
1.7850392e+3, 2.854353e+2, -270790.94, -269588.4, -45370.723, 0.041117188, 0.20662855, -224814.97, -82061.53, 0.0, 9.999422, 9.999433 
1.7850283e+3, 2.9543465e+2, -179578.44, -183952.81, -50740.598, 0.1165063, 0.1962053, -130977.91, -86218.36, 0.0, 9.999414, 9.9993515 
1.7850153e+3, 3.0543408e+2, -146778.88, -93278.18, -15649.833, -0.06451574, 0.18530934, -89036.625, -89036.625, 0.0, 9.999088, 9.999798 
1.7850058e+3, 3.1543437e+2, -181873.58, -48430.53, -21256.742, 0.057525683, 0.22597574, -45126.27, -45126.27, 0.0, 9.998585, 10.000346 
1.795227e+3, 1.2546091e+2, -1479516.9, -1743600.5, -29468.76, 0.123071976, 0.0895281, -1476268.5, 234222.48, 0.06348081, 10.002373, 9.998659 
1.7952152e+3, 1.3545936e+2, -1403202.6, -1682785.9, 67703.15, -0.14774375, 0.08385269, -1387670.6, 224836.86, 0.042666107, 10.0022745, 9.998458 
1.795207e+3, 1.454577e+2, -1300325.8, -1511289.4, -11744.63, 0.09538988, 0.044114303, -1299673.9, 214850.48, 0.022929061, 10.001965, 9.9991045 
1.795195e+3, 1.5545762e+2, -1258047.0, -1446205.5, 1470.3743, 0.025985057, 0.12058649, -1258035.5, 158489.67, 0.008742895, 10.001577, 9.999064 
1.7951833e+3, 1.654567e+2, -1213222.1, -1412708.1, -6322.2236, -0.02778235, 0.144784, -1213022.0, 105513.28, 0.0018895128, 10.001368, 9.998723 
1.795172e+3, 1.7545511e+2, -1126594.4, -1325213.6, -9297.943, -0.009688013, 0.11062117, -1126160.0, 94393.06, 0.00012002824, 10.00131, 9.998679 
1.7951603e+3, 1.8545395e+2, -1052598.8, -1237190.3, -41199.06, 0.004093423, 0.13095383, -1043820.94, 78745.516, 0.000000085167756, 10.001138, 9.998693 
1.7951481e+3, 1.9545335e+2, -994047.44, -1160284.5, -49781.95, -0.006896626, 0.19652861, -980279.8, 44294.727, 0.0, 10.000876, 9.998674 
1.795136e+3, 2.054523e+2, -878734.9, -995184.7, -46786.906, -0.018993739, 0.20083018, -862266.0, 64318.758, 0.0, 10.000741, 9.999201 
1.795124e+3, 2.1545099e+2, -788570.94, -908097.75, -40352.254, -0.024217468, 0.1485959, -776223.56, 52372.203, 0.0, 10.000718, 9.999137 
1.7951119e+3, 2.2544987e+2, -737975.4, -869216.5, -61451.168, -0.015584392, 0.14516646, -713694.3, 16912.822, 0.0, 10.000549, 9.998812 
1.7950997e+3, 2.3544903e+2, -682706.2, -792931.44, -78379.3, 0.00258323, 0.1764307, -642002.75, -9385.176, 0.0, 10.000261, 9.998801 
1.7950876e+3, 2.4544828e+2, -571387.94, -617670.1, -82411.016, 0.027926873, 0.1918758, -508930.66, 25695.025, 0.0, 10.000048, 9.999434 
1.7950754e+3, 2.5544775e+2, -498379.75, -537325.0, -69932.484, 0.059971344, 0.19150405, -445259.44, -8629.195, 0.0, 9.9999, 9.999385 
1.7950629e+3, 2.6544702e+2, -435827.63, -471380.34, -64334.543, 0.045180097, 0.19344713, -386858.72, -48220.926, 0.0, 9.999722, 9.999249 
1.79505e+3, 2.7544627e+2, -370260.53, -393769.56, -70785.34, -0.00909074, 0.18683033, -310260.38, -69613.28, 0.0, 9.999519, 9.9992075 
1.7950381e+3, 2.8544578e+2, -269578.53, -268708.1, -44784.188, 0.010945911, 0.21007869, -224357.02, -81704.28, 0.0, 9.999427, 9.999437 
1.7950274e+3, 2.954459e+2, -176271.78, -178566.33, -51801.58, 0.09196482, 0.27811515, -125604.77, -80953.35, 0.0, 9.999417, 9.999388 
1.7950141e+3, 3.0544454e+2, -159464.06, -119707.85, -36178.344, -0.07760656, 0.19709922, -98306.28, -98306.28, 0.0, 9.999088, 9.999617 
1.7950045e+3, 3.1544456e+2, -169697.6, -26451.328, -2952.827, 0.059883017, 0.23180114, -26390.486, -26390.486, 0.0, 9.998596, 10.000493 
1.8052301e+3, 1.2547259e+2, -1375665.0, -1692582.6, -20794.564, 0.16368726, 0.117513835, -1374306.4, 336071.94, 0.06701591, 10.003153, 9.998639 
1.8052173e+3, 1.3547096e+2, -1416953.1, -1686287.8, 73253.04, -0.15454566, 0.10085862, -1398319.1, 214075.95, 0.04517134, 10.002168, 9.998486 
1.8052089e+3, 1.4546922e+2, -1339282.6, -1535923.5, 6662.466, 0.09598301, 0.054104384, -1339057.1, 175355.36, 0.024407428, 10.00172, 9.999052 
1.8051969e+3, 1.5546915e+2, -1227218.6, -1437896.4, 6676.069, 0.032087527, 0.13656218, -1227007.3, 189406.06, 0.009402774, 10.001823, 9.9990015 
1.8051848e+3, 1.6546816e+2, -1167263.0, -1401532.1, -8781.482, -0.019574653, 0.1615605, -1166934.4, 151490.03, 0.0020725057, 10.001735, 9.998621 
1.8051735e+3, 1.7546642e+2, -1108270.9, -1327019.1, -14486.871, -0.0040137353, 0.124109626, -1107315.6, 113128.08, 0.00013754408, 10.001485, 9.998581 
1.8051617e+3, 1.8546523e+2, -1019148.2, -1219823.8, -35390.754, 0.007212689, 0.14358164, -1013089.7, 109367.914, 0.00000010953618, 10.001365, 9.998702 
1.8051493e+3, 1.9546461e+2, -924511.44, -1126457.6, -24374.947, -0.006219637, 0.21061903, -921611.06, 102854.21, 0.0, 10.001354, 9.998675 
1.805137e+3, 2.0546354e+2, -832767.94, -983767.94, -27002.701, -0.015826441, 0.21843684, -828084.4, 98391.3, 0.0, 10.001105, 9.999103 
1.8051247e+3, 2.1546221e+2, -804222.1, -925687.75, -41823.426, -0.014904054, 0.17106658, -791214.4, 37272.92, 0.0, 10.000657, 9.999044 
1.8051125e+3, 2.2546096e+2, -752332.3, -878798.0, -51916.41, -0.008120514, 0.16115038, -733750.06, -3250.338, 0.0, 10.0004635, 9.998787 
1.8051001e+3, 2.3545994e+2, -653076.8, -781941.1, -39318.945, 0.001409618, 0.17721474, -642027.25, -9515.65, 0.0, 10.00048, 9.998772 
1.8050878e+3, 2.4545918e+2, -531545.5, -596203.6, -46648.707, 0.018971054, 0.19309652, -507118.34, 27401.164, 0.0, 10.000312, 9.9994545 
1.8050753e+3, 2.554588e+2, -484462.2, -528289.5, -59686.34, 0.04318961, 0.20568447, -442793.88, -6271.4136, 0.0, 9.999987, 9.999404 
1.8050624e+3, 2.6545808e+2, -438645.7, -480598.25, -59756.195, 0.031877805, 0.20764698, -396291.03, -57760.766, 0.0, 9.999737, 9.999179 
1.8050496e+3, 2.7545708e+2, -372013.44, -403459.88, -58092.617, -0.006785198, 0.18951029, -327553.84, -87012.32, 0.0, 9.999545, 9.999128 
1.8050376e+3, 2.8545654e+2, -286576.34, -287901.66, -28049.701, 0.010205049, 0.21604681, -259181.48, -116633.55, 0.0, 9.999357, 9.999339 
1.8050265e+3, 2.9545677e+2, -217454.11, -206391.58, -44637.996, 0.067871295, 0.30086523, -166943.45, -122397.266, 0.0, 9.999171, 9.999315 
1.8050131e+3, 3.0545506e+2, -206986.53, -166451.34, -45507.285, -0.07885349, 0.19773753, -136902.39, -136902.39, 0.0, 9.998868, 9.999401 
1.805003e+3, 3.154551e+2, -156491.77, 7684.217, 19852.098, 0.055505015, 0.26054782, 10050.616, 10050.616, 0.0, 9.998567, 10.000743 
1.8152331e+3, 1.2548424e+2, -1369921.9, -1676394.1, -41586.215, 0.14437696, 0.11894626, -1364379.1, 345887.38, 0.070709445, 10.003144, 9.998764 
1.8152197e+3, 1.3548332e+2, -1405202.4, -1661672.1, 37269.83, -0.12280808, 0.1559186, -1399896.3, 212379.28, 0.04779401, 10.002175, 9.998649 
1.815211e+3, 1.4548141e+2, -1354691.6, -1571389.4, 8594.017, 0.1380523, 0.098509334, -1354351.4, 159942.9, 0.025961049, 10.001731, 9.998804 
1.8151984e+3, 1.5548046e+2, -1242892.4, -1473140.4, 9953.32, 0.0063877865, 0.11698766, -1242463.0, 173840.97, 0.010102001, 10.001833, 9.998756 
1.8151863e+3, 1.6547936e+2, -1175278.8, -1420083.0, -18232.344, -0.054342683, 0.14934792, -1173928.3, 144388.25, 0.0022691044, 10.00174, 9.998492 
1.815175e+3, 1.7547818e+2, -1115031.6, -1342929.5, -22790.223, 0.00049171137, 0.18118048, -1112774.9, 107556.19, 0.00015675182, 10.001491, 9.998469 
1.815163e+3, 1.8547699e+2, -1000160.25, -1181517.5, -35240.313, 0.022390448, 0.19333346, -993553.25, 128790.77, 0.00000012908751, 10.001368, 9.998965 
1.8151507e+3, 1.9547594e+2, -907617.0, -1092452.6, -24855.766, -0.0034496656, 0.18795301, -904332.9, 120021.39, 0.0, 10.001357, 9.998909 
1.815138e+3, 2.0547476e+2, -858519.8, -1038257.8, -43377.18, -0.013850884, 0.1942581, -848599.0, 77767.02, 0.0, 10.001107, 9.998729 
1.8151256e+3, 2.1547362e+2, -826897.06, -975099.94, -56605.535, -0.003680439, 0.20393007, -807750.4, 20627.479, 0.0, 10.000665, 9.998703 
1.8151131e+3, 2.2547247e+2, -725858.4, -825295.2, -50200.547, 0.005621883, 0.19885643, -704922.56, 25466.625, 0.0, 10.000468, 9.999153 
1.8151008e+3, 2.3547143e+2, -629114.56, -733402.3, -37817.074, 0.0116365915, 0.17711714, -616844.8, 15553.936, 0.0, 10.000483, 9.9991045 
1.815088e+3, 2.4547052e+2, -553154.56, -642141.9, -57883.293, 0.0075897505, 0.1792224, -524640.3, 9767.372, 0.0, 10.000315, 9.999139 
1.8150747e+3, 2.554699e+2, -504742.22, -572680.8, -70477.375, -0.004794236, 0.1991431, -460474.88, -24060.523, 0.0, 9.999994, 9.999097 
1.8150619e+3, 2.6546916e+2, -435262.25, -474954.72, -66112.48, -0.0023283288, 0.21568519, -386081.44, -47659.117, 0.0, 9.999741, 9.999217 
1.8150494e+3, 2.754684e+2, -369925.3, -399365.63, -63782.594, 0.015233333, 0.21656527, -319186.3, -78755.47, 0.0, 9.999544, 9.999158 
1.8150373e+3, 2.854676e+2, -299728.72, -316923.38, -34131.77, 0.03378526, 0.22482769, -273128.16, -130688.34, 0.0, 9.999362, 9.999139 
1.8150254e+3, 2.9546714e+2, -227914.23, -233148.05, -51923.313, 0.04548891, 0.26019278, -178541.92, -134096.81, 0.0, 9.999189, 9.999125 
1.8150122e+3, 3.054655e+2, -224185.63, -204080.75, -58992.508, -0.06372965, 0.18598329, -154290.34, -154290.34, 0.0, 9.998877, 9.999138 
1.815001e+3, 3.1546554e+2, -132407.13, 57987.8, 39389.55, 0.026851576, 0.27725738, 65815.06, 65815.06, 0.0, 9.998563, 10.001092 
1.8252358e+3, 1.254963e+2, -1423944.9, -1714326.8, -25122.887, 0.12769735, 0.13267031, -1421787.3, 288362.4, 0.07457094, 10.002811, 9.998648 
1.8252222e+3, 1.3549538e+2, -1359992.9, -1647273.3, 18396.338, -0.104473, 0.17633738, -1358819.6, 253339.34, 0.050543215, 10.002545, 9.998568 
1.8252134e+3, 1.4549337e+2, -1292970.9, -1554016.8, 5330.1123, 0.17059572, 0.11988649, -1292862.1, 221316.69, 0.02759675, 10.002229, 9.998682 
1.8252003e+3, 1.554922e+2, -1229271.9, -1479941.6, 15529.877, 0.005569107, 0.13143522, -1228313.4, 187877.1, 0.010844452, 10.001988, 9.998633 
1.8251878e+3, 1.6549103e+2, -1171831.8, -1417985.8, -9716.205, -0.062655635, 0.16235735, -1171448.9, 146754.81, 0.0024812517, 10.001766, 9.998493 
1.8251765e+3, 1.7548992e+2, -1107472.3, -1339309.3, -6058.8447, 0.0048594233, 0.19841829, -1107314.0, 112903.5, 0.00017806876, 10.001545, 9.9984665 
1.8251646e+3, 1.8548869e+2, -1005345.2, -1181988.3, -19967.305, 0.028100237, 0.20783755, -1003116.25, 119114.25, 0.00000015151502, 10.001326, 9.9989805 
1.8251519e+3, 1.9548756e+2, -943090.8, -1108061.4, -28781.148, -0.005985217, 0.1940707, -938213.75, 86027.44, 0.0, 10.00111, 9.998919 
1.8251392e+3, 2.054864e+2, -876274.94, -1049442.9, -45947.656, -0.012385371, 0.20172684, -864838.6, 61414.348, 0.0, 10.000999, 9.998703 
1.8251264e+3, 2.1548532e+2, -784006.94, -956697.44, -34450.457, 0.011674208, 0.2211659, -777388.0, 50876.51, 0.0, 10.000971, 9.99868 
1.8251139e+3, 2.2548416e+2, -678198.7, -794217.94, -26178.518, 0.017503923, 0.2140113, -672565.3, 57710.18, 0.0, 10.000762, 9.999225 
1.8251011e+3, 2.3548308e+2, -636828.3, -729607.9, -36361.715, 0.005504635, 0.17979646, -624275.9, 8008.7217, 0.0, 10.000401, 9.999169 
1.825088e+3, 2.454821e+2, -572713.4, -665016.25, -57498.18, -0.006707683, 0.17833726, -545135.6, -10841.562, 0.0, 10.000239, 9.999017 
1.8250747e+3, 2.554814e+2, -477635.0, -573841.0, -56127.83, -0.018603515, 0.20180802, -451817.56, -15515.425, 0.0, 10.000242, 9.998969 
1.8250616e+3, 2.6548058e+2, -402093.06, -470563.53, -56327.563, -0.012227902, 0.22332075, -370412.84, -32101.783, 0.0, 10.000019, 9.999112 
1.8250488e+3, 2.7547982e+2, -369073.94, -409743.22, -65027.535, 0.010973312, 0.23157467, -321275.78, -80955.85, 0.0, 9.9995985, 9.999059 
1.8250366e+3, 2.8547886e+2, -295922.34, -319240.4, -25328.613, 0.022563603, 0.23163943, -279698.2, -137367.95, 0.0, 9.999407, 9.999102 
1.8250245e+3, 2.9547808e+2, -200642.11, -223693.08, -33235.766, 0.020177476, 0.24187243, -176990.16, -132652.06, 0.0, 9.9993925, 9.999091 
1.8250115e+3, 3.0547678e+2, -222066.2, -225737.52, -47069.098, -0.02805428, 0.2132414, -176796.98, -176796.98, 0.0, 9.99899, 9.998934 
1.8249993e+3, 3.1547624e+2, -153147.05, 60105.84, 74976.6, -0.011651263, 0.26486132, 83827.734, 83827.734, 0.0, 9.998368, 10.0012 
1.8352383e+3, 1.2550877e+2, -1448643.0, -1765963.5, -18468.145, 0.10212889, 0.15690757, -1447571.9, 262456.1, 0.078607194, 10.002805, 9.998297 
1.835225e+3, 1.3550717e+2, -1379938.5, -1692018.6, 6844.069, -0.09738535, 0.16580704, -1379788.5, 232256.48, 0.053423084, 10.002556, 9.998256 
1.8352158e+3, 1.4550515e+2, -1292708.5, -1555838.8, -5332.706, 0.19521756, 0.12201537, -1292600.5, 221465.08, 0.029318087, 10.00224, 9.998666 
1.8352026e+3, 1.5550439e+2, -1229930.3, -1481606.5, 6854.998, 0.025936475, 0.17692405, -1229743.8, 186329.31, 0.011632793, 10.001989, 9.998623 
1.8351898e+3, 1.6550317e+2, -1164820.3, -1403319.9, -17830.502, -0.0490389, 0.19786294, -1163494.5, 154591.55, 0.0027105468, 10.001763, 9.998596 
1.8351781e+3, 1.7550159e+2, -1100173.1, -1326411.3, -14087.413, 0.008080403, 0.17754862, -1099299.3, 120804.1, 0.00020187897, 10.001553, 9.998553 
1.8351658e+3, 1.8550032e+2, -1019956.44, -1214867.3, -27925.787, 0.023754144, 0.18957485, -1016034.3, 106082.86, 0.00000018976193, 10.001334, 9.998752 
1.8351528e+3, 1.9549948e+2, -956219.94, -1137741.3, -35536.293, -0.014561865, 0.22814015, -949511.0, 74615.305, 0.0, 10.001118, 9.998713 
1.8351401e+3, 2.0549841e+2, -854585.75, -1005804.75, -46084.89, -0.012333742, 0.23937042, -841648.06, 84489.02, 0.0, 10.001003, 9.9990015 
1.8351276e+3, 2.1549727e+2, -764093.5, -916764.5, -34957.17, 0.030721996, 0.22226344, -756470.0, 71677.9, 0.0, 10.000975, 9.998954 
1.8351148e+3, 2.2549604e+2, -693394.5, -826645.2, -39012.355, 0.026922043, 0.2059775, -682812.94, 47346.35, 0.0, 10.000764, 9.9990015 
1.8351012e+3, 2.3549485e+2, -650444.0, -760066.4, -48020.668, -0.017906293, 0.18526587, -632383.75, -213.8852, 0.0, 10.000407, 9.998958 
1.8350881e+3, 2.4549387e+2, -567607.56, -655385.75, -56382.457, -0.025017755, 0.19039452, -540045.75, -5866.34, 0.0, 10.000242, 9.999083 
1.8350752e+3, 2.5549322e+2, -473969.13, -566593.1, -55272.016, -0.0006725376, 0.21344668, -448171.5, -11984.866, 0.0, 10.000242, 9.99902 
1.8350618e+3, 2.654923e+2, -419848.7, -508518.63, -71098.27, -0.00008070927, 0.22976339, -380394.9, -42197.523, 0.0, 10.000021, 9.998852 
1.835048e+3, 2.7549118e+2, -384715.84, -445397.84, -78851.66, -0.019129068, 0.2334412, -330569.2, -90359.37, 0.0, 9.999609, 9.998811 
1.8350354e+3, 2.8549019e+2, -285605.2, -299926.44, -25436.914, -0.022883404, 0.23495142, -266340.22, -124119.88, 0.0, 9.999414, 9.99923 
1.8350236e+3, 2.9548952e+2, -192349.1, -206510.1, -35189.32, -0.014281725, 0.24493764, -163535.0, -119308.81, 0.0, 9.999392, 9.99921 
1.835011e+3, 3.0548888e+2, -232750.58, -248458.92, -71841.836, 0.02385818, 0.2834826, -168334.86, -168334.86, 0.0, 9.99899, 9.998778 
1.8349972e+3, 3.1548718e+2, -167595.67, 23831.822, 56144.33, -0.05503414, 0.23692708, 39083.414, 39083.414, 0.0, 9.998391, 10.000941 
1.845241e+3, 1.2552074e+2, -1444223.6, -1766315.1, -13883.949, 0.09256754, 0.14877972, -1443626.3, 266284.97, 0.08282543, 10.002863, 9.998264 
1.8452276e+3, 1.3551931e+2, -1346749.0, -1678008.5, 9339.293, -0.0889828, 0.1782517, -1346485.9, 265440.94, 0.056440935, 10.002819, 9.998223 
1.8452184e+3, 1.4551733e+2, -1272103.6, -1554002.5, -5344.9277, 0.21194369, 0.14503157, -1272002.4, 241945.06, 0.031130945, 10.00243, 9.998586 
1.8452045e+3, 1.5551643e+2, -1256387.4, -1502814.0, 2226.9587, 0.041550193, 0.19316234, -1256367.3, 159589.5, 0.012470454, 10.001844, 9.998546 
1.8451917e+3, 1.6551518e+2, -1182591.9, -1400682.0, -13312.356, -0.03549022, 0.21054272, -1181782.3, 136187.67, 0.0029586433, 10.0015955, 9.998694 
1.8451796e+3, 1.755137e+2, -1084958.1, -1309290.4, -10962.651, 0.0138025945, 0.1907499, -1084423.8, 135561.78, 0.00022870715, 10.001617, 9.998638 
1.8451673e+3, 1.8551244e+2, -1000098.8, -1210074.6, -22916.342, 0.028884476, 0.20082277, -997626.9, 124372.25, 0.00000025167606, 10.001493, 9.998707 
1.8451542e+3, 1.955115e+2, -939938.7, -1134333.6, -18151.963, -0.0028043229, 0.23531231, -938258.25, 85751.17, 0.0, 10.001251, 9.998671 
1.8451412e+3, 2.0551042e+2, -842704.2, -991439.2, -27152.42, -0.0058419914, 0.24365543, -837902.4, 88117.81, 0.0, 10.00105, 9.999077 
1.8451285e+3, 2.1550934e+2, -773149.44, -913469.1, -33255.625, 0.021609591, 0.22486143, -765666.94, 62363.15, 0.0, 10.000882, 9.99902 
1.8451154e+3, 2.2550815e+2, -694608.9, -831057.3, -41234.984, 0.014482942, 0.21163528, -683115.7, 46925.414, 0.0, 10.000774, 9.998965 
1.8451017e+3, 2.35507e+2, -609365.7, -744553.8, -37410.19, -0.023540543, 0.1981801, -599703.8, 32347.78, 0.0, 10.0007105, 9.998917 
1.8450885e+3, 2.45506e+2, -537774.1, -641476.3, -42786.33, -0.030893669, 0.20187081, -522400.2, 11661.396, 0.0, 10.000451, 9.999077 
1.8450752e+3, 2.5550523e+2, -506623.84, -582785.2, -47851.453, -0.011957244, 0.21542189, -483549.8, -47480.156, 0.0, 10.000023, 9.999013 
1.8450616e+3, 2.6550427e+2, -448249.25, -526757.75, -55953.43, -0.0067741317, 0.23421319, -419153.8, -81073.5, 0.0, 9.999849, 9.998808 
1.8450479e+3, 2.7550328e+2, -347441.84, -432821.28, -47947.08, -0.014588441, 0.2512763, -325933.97, -85842.086, 0.0, 9.99989, 9.99876 
1.8450348e+3, 2.8550214e+2, -270769.38, -300000.84, -1151.0719, -0.03757117, 0.24502383, -270724.13, -128620.38, 0.0, 9.999549, 9.999165 
1.8450221e+3, 2.9550117e+2, -272880.1, -250934.22, -27645.318, -0.06651462, 0.22666551, -232163.77, -188050.73, 0.0, 9.998866, 9.999157 
1.84501e+3, 3.0550098e+2, -275994.3, -256761.4, -54257.273, 0.057688717, 0.3097891, -211274.98, -211274.98, 0.0, 9.998641, 9.998888 
1.8449956e+3, 3.15499e+2, -119126.96, 23814.057, 79355.54, -0.07454956, 0.22721623, 59139.313, 59139.313, 0.0, 9.998827, 10.0007305 
1.855244e+3, 1.255323e+2, -1425703.0, -1727367.0, 3337.2693, 0.093961105, 0.11439447, -1425666.1, 284132.44, 0.08723424, 10.002887, 9.998521 
1.8552305e+3, 1.355318e+2, -1334041.5, -1646289.3, 5201.0054, -0.08341499, 0.20952773, -1333955.0, 277849.88, 0.059608437, 10.00281, 9.998446 
1.8552208e+3, 1.4552991e+2, -1285537.8, -1578965.0, -28085.56, 0.2163348, 0.1842761, -1282873.6, 230951.06, 0.033044614, 10.002415, 9.998423 
1.8552065e+3, 1.5552835e+2, -1266160.0, -1525428.6, -18130.258, 0.052266058, 0.18281898, -1264898.4, 150943.19, 0.01336274, 10.001853, 9.998387 
1.8551934e+3, 1.6552712e+2, -1174361.9, -1387215.9, -12424.381, -0.022026666, 0.20496795, -1173639.1, 144215.63, 0.0032280337, 10.001609, 9.998781 
1.8551815e+3, 1.7552623e+2, -1077995.9, -1296325.9, -10173.896, 0.021180969, 0.2361553, -1077522.8, 142341.23, 0.000259364, 10.001621, 9.998727 
1.8551688e+3, 1.8552499e+2, -992335.75, -1194214.9, -31649.62, 0.041476462, 0.23860745, -987490.2, 134386.66, 0.0000003514084, 10.0014925, 9.998817 
1.8551557e+3, 1.955236e+2, -932223.56, -1119975.1, -26422.52, 0.027314603, 0.21611509, -928575.94, 95314.96, 0.0, 10.001256, 9.998768 
1.8551423e+3, 2.055224e+2, -852047.1, -1012502.3, -32997.1, 0.0058048842, 0.21613255, -845526.4, 80376.38, 0.0, 10.001055, 9.998931 
1.855129e+3, 2.1552148e+2, -781850.1, -933083.8, -38032.31, -0.015697474, 0.22920844, -772824.44, 55087.043, 0.0, 10.000886, 9.998884 
1.8551157e+3, 2.2552045e+2, -685251.25, -811895.94, -42528.215, -0.019737445, 0.23048778, -672295.4, 57625.965, 0.0, 10.000773, 9.999098 
1.8551025e+3, 2.3551944e+2, -600964.94, -727645.9, -39012.824, -0.012196128, 0.21745223, -589914.44, 42016.22, 0.0, 10.0007105, 9.999034 
1.8550889e+3, 2.4551834e+2, -543950.4, -654731.8, -57953.465, -0.025619153, 0.21150963, -519174.16, 14767.392, 0.0, 10.000451, 9.998986 
1.8550748e+3, 2.555173e+2, -510842.63, -593618.4, -61937.625, -0.053406056, 0.20793729, -477737.38, -41785.367, 0.0, 10.00003, 9.998937 
1.8550614e+3, 2.6551652e+2, -436118.84, -503009.13, -53682.12, -0.032275677, 0.23665343, -406315.7, -68354.9, 0.0, 9.999853, 9.99897 
1.8550482e+3, 2.75516e+2, -337595.47, -413111.13, -46296.832, 0.022523288, 0.28447935, -315611.78, -75644.64, 0.0, 9.999891, 9.998897 
1.8550344e+3, 2.855146e+2, -289467.22, -339905.03, -26512.875, -0.02485529, 0.2615612, -278094.78, -136113.19, 0.0, 9.999551, 9.998891 
1.8550202e+3, 2.9551277e+2, -288413.22, -286086.63, -52091.24, -0.13831517, 0.18693756, -235145.69, -191145.77, 0.0, 9.998875, 9.998913 
1.8550089e+3, 3.0551288e+2, -246559.16, -199036.0, -47193.402, 0.07396857, 0.28937352, -169959.81, -169959.81, 0.0, 9.998654, 9.999279 
1.8549946e+3, 3.155123e+2, -135018.66, -11812.001, 50907.004, -0.054615907, 0.3079013, 6500.2085, 6500.2085, 0.0, 9.998837, 10.000481 
1.8652473e+3, 1.2554461e+2, -1342372.5, -1682302.6, 29529.584, 0.09870249, 0.11497682, -1339826.4, 369852.22, 0.09184, 10.003517, 9.998545 
1.8652332e+3, 1.355442e+2, -1377610.5, -1668694.9, -6213.347, -0.08661727, 0.22082794, -1377478.0, 234206.17, 0.06293432, 10.0025015, 9.998441 
1.8652229e+3, 1.4554232e+2, -1337168.1, -1601796.1, -29140.867, 0.20303614, 0.19602063, -1333997.1, 179706.89, 0.035067134, 10.002041, 9.9984455 
1.8652084e+3, 1.5554073e+2, -1232687.8, -1507391.4, -5772.637, 0.057529, 0.19085643, -1232566.5, 183154.58, 0.0143153975, 10.002082, 9.9984 
1.8651952e+3, 1.655395e+2, -1134242.8, -1367416.5, 4782.184, -0.00539822, 0.21166152, -1134144.6, 183589.56, 0.0035219262, 10.001886, 9.998782 
1.8651831e+3, 1.7553861e+2, -1094760.6, -1304054.3, -764.2816, 0.03731122, 0.24284062, -1094757.9, 124985.59, 0.00029482722, 10.001507, 9.998728 
1.8651704e+3, 1.8553738e+2, -1017705.0, -1201418.3, -26648.887, 0.052388705, 0.24532822, -1013917.5, 107838.5, 0.00000050835786, 10.001299, 9.99886 
1.865157e+3, 1.9553606e+2, -934053.75, -1116143.4, -26973.514, 0.03080813, 0.22355483, -930142.1, 93627.41, 0.0, 10.001225, 9.998808 
1.8651435e+3, 2.0553488e+2, -841991.7, -1000140.6, -28178.162, 0.0065424093, 0.2205454, -837121.06, 88659.89, 0.0, 10.001094, 9.998996 
1.8651299e+3, 2.1553397e+2, -773651.1, -922360.25, -19330.78, -0.01506039, 0.2279087, -771179.4, 56609.91, 0.0, 10.0009165, 9.998942 
1.8651165e+3, 2.2553298e+2, -702130.9, -817462.1, -22407.842, -0.018646624, 0.23042287, -697930.25, 31868.537, 0.0, 10.0006485, 9.999119 
1.8651031e+3, 2.3553206e+2, -658381.25, -752620.6, -27583.719, -0.010329707, 0.22449133, -650901.25, -19093.553, 0.0, 10.000307, 9.999056 
1.8650891e+3, 2.4553102e+2, -575167.44, -659059.6, -41299.38, -0.029740972, 0.21978477, -558248.3, -24430.52, 0.0, 10.000194, 9.99908 
1.8650746e+3, 2.5553006e+2, -471829.7, -565491.25, -32952.637, -0.06760139, 0.2120407, -461397.94, -25570.652, 0.0, 10.00026, 9.999017 
1.865061e+3, 2.6552922e+2, -407188.8, -490421.63, -26751.371, -0.04320179, 0.23322159, -399332.4, -61496.152, 0.0, 10.00006, 9.998956 
1.8650478e+3, 2.7552855e+2, -376336.1, -432225.4, -33527.543, 0.02251818, 0.27233887, -360634.44, -120790.96, 0.0, 9.999631, 9.998889 
1.8650337e+3, 2.855273e+2, -328657.25, -359186.03, -17326.41, -0.036295988, 0.25937253, -320830.4, -178973.25, 0.0, 9.999288, 9.998883 
1.8650189e+3, 2.9552564e+2, -265950.47, -276432.4, -21328.748, -0.16849044, 0.20424797, -249228.22, -205354.2, 0.0, 9.999038, 9.9988985 
1.8650079e+3, 3.0552548e+2, -196734.61, -163052.25, -2343.515, 0.09029333, 0.2762897, -162889.97, -162889.97, 0.0, 9.998947, 9.999384 
1.8649931e+3, 3.155251e+2, -152968.33, -44287.98, 27511.232, -0.07509664, 0.30929855, -37720.664, -37720.664, 0.0, 9.99882, 10.000264 
1.8752508e+3, 1.2555756e+2, -1361395.4, -1712927.1, 11737.7, 0.09785875, 0.1438728, -1361003.9, 348548.25, 0.09664733, 10.003489, 9.99833 
1.8752354e+3, 1.3555658e+2, -1393346.8, -1703013.1, -41694.156, -0.097956836, 0.21663046, -1387831.3, 223732.81, 0.06642349, 10.002505, 9.998206 
1.8752246e+3, 1.4555466e+2, -1322347.3, -1573126.4, -27710.459, 0.17267343, 0.1879987, -1319321.8, 194262.53, 0.03720382, 10.002056, 9.998636 
1.8752106e+3, 1.555536e+2, -1220344.0, -1481796.1, -4733.4785, 0.055981014, 0.2146576, -1220258.3, 195337.27, 0.015333298, 10.002083, 9.998576 
1.8751973e+3, 1.6555227e+2, -1141635.9, -1382561.8, -9608.185, 0.011848809, 0.22626112, -1141253.3, 176355.8, 0.003843571, 10.0018835, 9.998681 
1.8751848e+3, 1.7555086e+2, -1100906.8, -1318709.1, -13914.092, 0.060610585, 0.21319745, -1100021.4, 119602.29, 0.00033613745, 10.001513, 9.998626 
1.8751718e+3, 1.8554965e+2, -1018199.9, -1204496.8, -28893.316, 0.060433995, 0.22516632, -1013821.6, 107814.75, 0.000000733184, 10.001305, 9.998837 
1.875158e+3, 1.9554883e+2, -934156.25, -1117829.6, -28957.955, 0.008330045, 0.25646415, -929698.9, 93946.67, 0.0, 10.001229, 9.9987955 
1.8751444e+3, 2.055478e+2, -824250.3, -963998.25, -33989.188, -0.0037375554, 0.25453648, -816422.06, 109233.31, 0.0, 10.001095, 9.999245 
1.8751313e+3, 2.1554673e+2, -757288.56, -889404.3, -25145.76, 0.021315927, 0.22052334, -752664.4, 74999.836, 0.0, 10.000918, 9.999168 
1.8751174e+3, 2.2554567e+2, -708138.56, -830694.6, -34484.895, 0.015094155, 0.21186638, -699101.5, 30572.6, 0.0, 10.00065, 9.999028 
1.8751033e+3, 2.355448e+2, -662631.8, -763020.7, -38183.37, -0.019274237, 0.21973759, -649759.25, -18075.871, 0.0, 10.000312, 9.998983 
1.8750893e+3, 2.4554397e+2, -556495.5, -621501.44, -37699.754, -0.043634918, 0.22637345, -539221.8, -5530.662, 0.0, 10.000196, 9.999337 
1.8750753e+3, 2.5554335e+2, -455686.22, -533409.25, -30211.703, -0.05599313, 0.22681431, -445324.13, -9627.673, 0.0, 10.000264, 9.999236 
1.8750611e+3, 2.6554224e+2, -420450.88, -519050.75, -42374.074, -0.041216753, 0.22348094, -404742.75, -67035.05, 0.0, 10.000063, 9.998758 
1.8750471e+3, 2.7554092e+2, -386343.88, -455480.72, -48908.203, -0.01580695, 0.21498871, -361020.84, -121298.86, 0.0, 9.9996395, 9.998726 
1.8750326e+3, 2.8554007e+2, -309796.75, -321746.03, -26926.225, -0.07215029, 0.23938973, -288190.28, -146458.8, 0.0, 9.999293, 9.999139 
1.875018e+3, 2.9553965e+2, -251126.25, -246317.0, -28019.174, -0.1580509, 0.2806982, -220599.45, -176863.22, 0.0, 9.999038, 9.999106 
1.875007e+3, 3.055386e+2, -208935.77, -191355.69, -3934.6643, 0.10293662, 0.26538128, -190515.23, -190515.23, 0.0, 9.998956, 9.999187 
1.8749917e+3, 3.1553787e+2, -159927.7, -64747.133, -31241.506, -0.11303795, 0.28027782, -55408.81, -55408.81, 0.0, 9.998844, 10.000113 
1.8852538e+3, 1.2557052e+2, -1458398.5, -1749263.8, 10616.876, 0.096385695, 0.17487001, -1458011.5, 251415.36, 0.1016649, 10.002701, 9.99846 
1.8852381e+3, 1.3556942e+2, -1382305.1, -1684724.4, -36600.09, -0.08496765, 0.22466795, -1377938.6, 233500.27, 0.07008103, 10.002542, 9.998313 
1.8852267e+3, 1.4556743e+2, -1284235.6, -1552216.9, -1648.4547, 0.16272421, 0.18242624, -1284225.5, 229234.03, 0.039458163, 10.002327, 9.998648 
1.8852127e+3, 1.5556645e+2, -1217720.6, -1479814.0, 7332.0874, 0.056397293, 0.2184254, -1217515.6, 197954.03, 0.016419558, 10.002102, 9.99858 
1.8851992e+3, 1.655652e+2, -1148011.9, -1388447.1, -8242.001, 0.02145943, 0.23410082, -1147729.6, 169753.42, 0.004195435, 10.001854, 9.998654 
1.8851866e+3, 1.7556374e+2, -1093289.5, -1318114.1, -7629.061, 0.07056677, 0.22180764, -1093030.9, 126467.31, 0.00038428378, 10.00158, 9.998596 
1.885173e+3, 1.855625e+2, -1006998.5, -1192180.6, -10284.694, 0.069283135, 0.22934459, -1006429.06, 115081.91, 0.0000010250507, 10.001354, 9.998897 
1.8851592e+3, 1.9556165e+2, -938305.1, -1113426.6, -5704.537, 0.016864782, 0.25212213, -938119.5, 85400.5, 0.0, 10.001175, 9.998851 
1.8851455e+3, 2.0556071e+2, -837619.25, -962483.44, -18003.455, 0.0036103877, 0.25482848, -835075.25, 90453.58, 0.0, 10.000971, 9.999314 
1.885132e+3, 2.1555986e+2, -777823.4, -891551.56, -23195.71, 0.026033549, 0.23578596, -773274.4, 54261.65, 0.0, 10.000746, 9.999236 
1.885118e+3, 2.2555885e+2, -712848.8, -823014.56, -32045.012, 0.018270187, 0.22416654, -704205.6, 25339.885, 0.0, 10.000578, 9.999115 
1.8851036e+3, 2.3555791e+2, -636297.06, -740717.25, -23357.771, -0.016737048, 0.21528845, -631310.25, 244.90735, 0.0, 10.000454, 9.999066 
1.8850894e+3, 2.4555717e+2, -554007.94, -613865.44, -22690.51, -0.04174633, 0.2234181, -546378.9, -12816.666, 0.0, 10.000189, 9.999392 
1.8850751e+3, 2.5555673e+2, -518471.44, -557484.06, -30469.729, -0.054053605, 0.23909889, -501799.03, -66233.234, 0.0, 9.999809, 9.999289 
1.885061e+3, 2.6555562e+2, -464833.34, -526255.0, -35318.258, -0.042845257, 0.22609238, -448741.03, -111164.195, 0.0, 9.9997, 9.998883 
1.8850468e+3, 2.7555418e+2, -354807.56, -426376.97, -19889.291, -0.02643388, 0.19083765, -349651.7, -110059.93, 0.0, 9.9998, 9.998848 
1.8850319e+3, 2.8555351e+2, -276696.75, -297572.78, -4877.508, -0.083678946, 0.22690758, -275613.38, -134014.28, 0.0, 9.999488, 9.999209 
1.885017e+3, 2.9555354e+2, -273089.72, -253076.11, -16614.912, -0.15352155, 0.30278927, -243687.27, -200087.1, 0.0, 9.998875, 9.999137 
1.8850055e+3, 3.05552e+2, -246177.98, -222737.63, 18247.324, 0.07497904, 0.24841116, -212770.78, -212770.78, 0.0, 9.998759, 9.999066 
1.8849905e+3, 3.155512e+2, -154271.83, -39276.363, -53747.51, -0.120210774, 0.2617702, -18067.145, -18067.145, 0.0, 9.99879, 10.000312 
1.8952565e+3, 1.2558359e+2, -1431384.0, -1689166.0, 19322.666, 0.08663225, 0.21313275, -1429943.6, 279357.94, 0.10690314, 10.002715, 9.998882 
1.895241e+3, 1.3558272e+2, -1356901.0, -1625914.3, -42015.19, -0.051234584, 0.24148151, -1350491.6, 260817.39, 0.07391051, 10.002541, 9.998719 
1.895229e+3, 1.4558056e+2, -1295915.6, -1576287.6, -10579.222, 0.16935247, 0.17471233, -1295517.0, 217813.27, 0.04183094, 10.002324, 9.998486 
1.8952148e+3, 1.5557937e+2, -1228225.8, -1503612.1, -846.12585, 0.057033747, 0.20501372, -1228223.3, 187119.97, 0.017575104, 10.002109, 9.998415 
1.895201e+3, 1.6557823e+2, -1144487.3, -1383581.3, -18132.854, 0.02177982, 0.24063894, -1143119.9, 174235.78, 0.004578995, 10.001863, 9.998685 
1.895188e+3, 1.755772e+2, -1089656.6, -1312769.3, -17184.219, 0.06716682, 0.265532, -1088340.8, 131026.516, 0.00044013254, 10.001587, 9.998631 
1.8951745e+3, 1.8557586e+2, -997410.6, -1173849.5, -16735.783, 0.077962905, 0.2536347, -995837.2, 125543.375, 0.0000013628122, 10.001358, 9.999022 
1.8951608e+3, 1.9557448e+2, -929741.3, -1097378.5, -11640.548, 0.053950977, 0.21240385, -928936.8, 94456.39, 0.0, 10.00118, 9.9989605 
1.8951467e+3, 2.0557362e+2, -845083.6, -979172.25, -25638.361, 0.026360108, 0.22422858, -840348.6, 85053.04, 0.0, 10.000974, 9.999199 
1.8951325e+3, 2.1557334e+2, -784561.1, -906271.1, -29969.451, -0.0009549023, 0.27264726, -777581.75, 49823.625, 0.0, 10.000747, 9.999136 
1.8951184e+3, 2.2557247e+2, -694596.2, -785705.3, -35759.73, -0.008647918, 0.26533523, -682237.25, 47176.47, 0.0, 10.000578, 9.9993725 
1.8951042e+3, 2.3557131e+2, -620008.5, -707953.06, -27250.254, -0.003501984, 0.21104813, -612249.4, 19174.549, 0.0, 10.000456, 9.999291 
1.8950897e+3, 2.4557053e+2, -564054.7, -635944.94, -36030.703, -0.02528848, 0.21181744, -549105.2, -15673.556, 0.0, 10.000192, 9.99924 
1.895075e+3, 2.5557014e+2, -525426.1, -574094.4, -42435.414, -0.06283415, 0.24858171, -500842.84, -65406.766, 0.0, 9.999816, 9.999173 
1.8950607e+3, 2.6556924e+2, -433123.34, -462443.44, -30597.082, -0.048967164, 0.23957765, -413855.56, -76410.984, 0.0, 9.999706, 9.999319 
1.8950467e+3, 2.755682e+2, -326419.25, -369765.2, -17527.977, -0.012273896, 0.19828905, -320218.44, -80764.47, 0.0, 9.999806, 9.999234 
1.8950315e+3, 2.855675e+2, -284279.63, -314544.47, -28014.271, -0.07250663, 0.2210889, -267572.0, -126110.89, 0.0, 9.999492, 9.999092 
1.8950158e+3, 2.955671e+2, -283131.75, -276514.2, -34167.816, -0.15423897, 0.2705263, -245495.31, -202028.38, 0.0, 9.998882, 9.998974 
1.8950035e+3, 3.055656e+2, -249117.75, -232307.27, 23156.588, 0.00210352, 0.22670002, -216077.67, -216077.67, 0.0, 9.998771, 9.998997 
1.8949895e+3, 3.1556487e+2, -112146.35, 46918.5, -91555.76, -0.0925163, 0.25398278, 88662.055, 88662.055, 0.0, 9.998794, 10.000902 
1.9052592e+3, 1.2559679e+2, -1383670.1, -1667356.8, 59594.574, 0.06525664, 0.20755519, -1371659.5, 337512.88, 0.11235553, 10.003107, 9.998863 
1.9052438e+3, 1.3559605e+2, -1329242.5, -1605708.6, -37965.39, -0.031530842, 0.24459857, -1324123.8, 287054.53, 0.07790365, 10.002734, 9.998764 
1.9052315e+3, 1.4559387e+2, -1277860.6, -1565857.4, -9352.505, 0.16323619, 0.17041437, -1277557.3, 235642.55, 0.04431639, 10.002455, 9.998493 
1.9052169e+3, 1.5559272e+2, -1214847.4, -1497672.5, 10338.695, 0.060488705, 0.20640224, -1214470.0, 200742.31, 0.018797748, 10.002208, 9.998407 
1.9052032e+3, 1.6559158e+2, -1128185.5, -1378929.6, -3637.0415, 0.029869718, 0.24466844, -1128132.8, 189092.2, 0.004994357, 10.001992, 9.998653 
1.9051898e+3, 1.7559049e+2, -1057325.3, -1299645.1, -8232.795, 0.067564785, 0.26709005, -1057045.9, 162191.64, 0.0005042276, 10.0018215, 9.998607 
1.905176e+3, 1.8558918e+2, -958784.25, -1140026.3, -10619.767, 0.078598425, 0.2524398, -958164.1, 163086.16, 0.000001731659, 10.00156, 9.999156 
1.905162e+3, 1.9558792e+2, -915578.56, -1076976.5, -5914.3486, 0.06351287, 0.20994578, -915362.1, 107898.79, 0.0, 10.001221, 9.99908 
1.9051477e+3, 2.055871e+2, -852126.9, -986218.9, -15587.48, 0.033773225, 0.22086969, -850338.75, 74930.49, 0.0, 10.000943, 9.999165 
1.9051331e+3, 2.1558675e+2, -790459.06, -911700.8, -14993.664, -0.005796645, 0.2680437, -788632.4, 38641.957, 0.0, 10.000719, 9.999111 
1.9051188e+3, 2.2558603e+2, -703749.06, -772038.56, -21660.12, -0.015688607, 0.26864493, -697458.4, 31822.994, 0.0, 10.00044, 9.999532 
1.9051045e+3, 2.3558518e+2, -659501.0, -710683.9, -20539.285, -0.00461465, 0.22982861, -652278.06, -20989.758, 0.0, 10.000116, 9.999435 
1.9050899e+3, 2.4558447e+2, -593828.56, -651148.44, -24465.752, -0.021477075, 0.2309251, -584806.1, -51510.465, 0.0, 9.999993, 9.99923 
1.905075e+3, 2.5558397e+2, -495094.13, -558868.8, -21307.934, -0.053904176, 0.25555426, -488630.06, -53327.984, 0.0, 10.000025, 9.999176 
1.9050604e+3, 2.6558322e+2, -410431.38, -425438.8, -14740.88, -0.046688635, 0.25098258, -401394.25, -64085.43, 0.0, 9.999753, 9.99955 
1.905046e+3, 2.7558255e+2, -394769.63, -378096.0, -17334.104, -0.027374864, 0.22704516, -367198.13, -127884.625, 0.0, 9.999234, 9.999452 
1.9050308e+3, 2.8558186e+2, -347825.25, -337886.5, -28216.12, -0.075963415, 0.23355594, -314205.5, -172884.94, 0.0, 9.999026, 9.999155 
1.9050153e+3, 2.955811e+2, -254928.11, -262051.98, -18463.365, -0.11922755, 0.24248444, -239686.23, -196356.5, 0.0, 9.999076, 9.998979 
1.9050018e+3, 3.0558002e+2, -221502.19, -214310.4, 52441.047, -0.05104302, 0.24397798, -165342.11, -165342.11, 0.0, 9.998941, 9.999038 
1.9049883e+3, 3.1557915e+2, -143010.55, 59847.28, -78186.98, -0.07875452, 0.24008559, 86484.86, 86484.86, 0.0, 9.9984665, 10.001146 
1.9152619e+3, 1.2561013e+2, -1410455.0, -1722851.6, 55211.18, 0.028116118, 0.15925802, -1400984.4, 308055.13, 0.117977716, 10.003112, 9.998453 
1.9152465e+3, 1.356095e+2, -1346400.0, -1645545.6, -50008.516, -0.027374797, 0.23769796, -1338261.5, 272784.72, 0.08203135, 10.0027485, 9.998486 
1.9152336e+3, 1.4560737e+2, -1266858.0, -1544197.9, -17263.56, 0.14190456, 0.17351176, -1265787.5, 247280.2, 0.046899557, 10.002468, 9.998636 
1.9152193e+3, 1.5560646e+2, -1206114.5, -1479590.9, 1324.5511, 0.06596313, 0.22020847, -1206108.0, 208969.22, 0.02008164, 10.002211, 9.99853 
1.9152053e+3, 1.6560517e+2, -1135245.6, -1393346.8, -10189.791, 0.044679202, 0.24282224, -1134844.0, 182247.44, 0.005439926, 10.001988, 9.998557 
1.9151916e+3, 1.7560361e+2, -1063163.1, -1312397.8, -14064.602, 0.07027087, 0.2294779, -1062371.9, 156736.94, 0.0005767601, 10.001822, 9.99852 
1.9151776e+3, 1.8560247e+2, -949400.3, -1121300.3, -22669.611, 0.069311306, 0.23003027, -946461.0, 174658.88, 0.0000021934447, 10.001561, 9.999286 
1.9151631e+3, 1.9560191e+2, -906698.2, -1059725.6, -17690.898, 0.045995113, 0.24317193, -904679.6, 118444.05, 0.0, 10.001224, 9.999198 
1.9151485e+3, 2.0560104e+2, -849491.8, -981686.9, -23172.98, 0.026220687, 0.24235724, -845547.44, 79584.875, 0.0, 10.000945, 9.999195 
1.915134e+3, 2.1560007e+2, -787929.6, -907164.8, -22262.629, 0.009911852, 0.2236478, -783908.56, 43234.81, 0.0, 10.00072, 9.999143 
1.9151194e+3, 2.2559951e+2, -699110.6, -763211.4, -32758.082, -0.004734377, 0.23625387, -685331.8, 43817.344, 0.0, 10.000441, 9.999593 
1.9151045e+3, 2.3559947e+2, -654280.7, -701307.6, -30491.232, -0.020761598, 0.27055016, -639289.6, -8140.539, 0.0, 10.000121, 9.999499 
1.9150898e+3, 2.4559891e+2, -584963.75, -634027.0, -22133.775, -0.03066038, 0.27822283, -576454.4, -43299.18, 0.0, 9.999997, 9.999347 
1.9150752e+3, 2.555981e+2, -487176.66, -543762.0, -20141.184, -0.02956437, 0.26006305, -480739.78, -45575.086, 0.0, 10.000028, 9.999279 
1.9150601e+3, 2.6559746e+2, -407704.78, -421334.97, -33630.355, -0.037794095, 0.2619106, -380205.94, -43035.535, 0.0, 9.999757, 9.9995775 
1.9150448e+3, 2.755972e+2, -389919.47, -370999.16, -34888.6, -0.07194618, 0.27653104, -344310.88, -105139.5, 0.0, 9.999244, 9.999497 
1.9150296e+3, 2.8559646e+2, -329597.38, -302517.88, -26064.229, -0.09402486, 0.2620592, -286686.4, -145507.83, 0.0, 9.999036, 9.999394 
1.915015e+3, 2.955954e+2, -241724.28, -238551.83, -14886.179, -0.050926022, 0.21480744, -225167.61, -181977.58, 0.0, 9.99909, 9.999135 
1.9150004e+3, 3.055953e+2, -209609.66, -192853.75, 37988.668, -0.089101516, 0.30388963, -162330.17, -162330.17, 0.0, 9.998953, 9.999182 
1.9149865e+3, 3.155941e+2, -154169.27, 35331.78, -89604.19, -0.10605178, 0.25187123, 70990.51, 70990.51, 0.0, 9.998469, 10.000978 
1.925265e+3, 1.2562396e+2, -1383995.8, -1729258.3, 67133.37, 0.0118312845, 0.1352517, -1371401.6, 337501.22, 0.123685755, 10.003428, 9.998259 
1.9252497e+3, 1.3562341e+2, -1300580.5, -1626156.6, -27486.172, -0.021678284, 0.22941671, -1298276.3, 312632.78, 0.0862435, 10.003129, 9.998431 
1.925236e+3, 1.4562128e+2, -1231903.3, -1533830.1, 4240.102, 0.11326749, 0.17251387, -1231843.8, 281087.2, 0.049555115, 10.002763, 9.998564 
1.9252214e+3, 1.5562035e+2, -1198307.4, -1484305.3, 6843.2666, 0.061453346, 0.22227542, -1198143.6, 216797.52, 0.021415824, 10.002307, 9.998451 
1.9252072e+3, 1.6561899e+2, -1140194.1, -1393621.4, -2141.403, 0.051190022, 0.24097385, -1140176.0, 176780.05, 0.005912063, 10.001948, 9.998573 
1.9251932e+3, 1.7561735e+2, -1085412.0, -1321166.1, 552.532, 0.06824112, 0.21975218, -1085410.8, 133563.2, 0.0006577095, 10.001664, 9.998535 
1.9251788e+3, 1.8561631e+2, -965056.3, -1125046.3, -9586.5625, 0.058494195, 0.22673695, -964483.94, 156500.36, 0.000002911813, 10.00144, 9.999317 
1.9251642e+3, 1.9561595e+2, -898063.5, -1052300.5, -12513.648, 0.029141542, 0.2567761, -897054.8, 125931.87, 0.0, 10.001271, 9.999226 
1.9251494e+3, 2.0561512e+2, -841135.4, -967108.1, -21172.896, 0.01902922, 0.25281915, -837671.94, 87322.98, 0.0, 10.000959, 9.999287 
1.9251348e+3, 2.1561405e+2, -808800.44, -907293.4, -17096.465, 0.023258738, 0.21554616, -805917.25, 21089.17, 0.0, 10.000537, 9.9992285 
1.9251199e+3, 2.2561353e+2, -712072.7, -760799.6, -20353.555, 0.007372362, 0.22519659, -704689.56, 24322.047, 0.0, 10.000317, 9.999668 
1.9251046e+3, 2.3561363e+2, -629420.44, -681109.3, -17507.902, -0.026210163, 0.26745397, -624048.5, 6961.7666, 0.0, 10.0002575, 9.999572 
1.9250897e+3, 2.4561317e+2, -578145.2, -619015.3, -9552.64, -0.034187462, 0.2772218, -576022.6, -43007.266, 0.0, 9.999995, 9.99945 
1.925075e+3, 2.5561246e+2, -547257.06, -562193.7, -9402.56, -0.01682004, 0.2600345, -542717.75, -107694.016, 0.0, 9.999573, 9.999371 
1.9250599e+3, 2.6561198e+2, -457139.66, -442415.44, -24339.465, -0.034308136, 0.2678221, -424349.03, -87320.44, 0.0, 9.999409, 9.999599 
1.9250439e+3, 2.756118e+2, -358607.34, -352337.44, -26477.309, -0.09477572, 0.286249, -328810.13, -89780.63, 0.0, 9.999447, 9.999526 
1.9250286e+3, 2.85611e+2, -287562.13, -269167.0, -21227.553, -0.103037976, 0.2618356, -255230.08, -114193.26, 0.0, 9.99927, 9.99951 
1.9250143e+3, 2.9560998e+2, -262148.25, -236450.47, -17935.752, -0.020429397, 0.20981014, -227236.16, -184189.23, 0.0, 9.998902, 9.999239 
1.9249988e+3, 3.0561033e+2, -232796.14, -172060.25, 36791.82, -0.13213511, 0.32096764, -154722.33, -154722.33, 0.0, 9.998658, 9.999464 
1.924985e+3, 3.15609e+2, -179163.89, -15481.81, -63630.3, -0.09063179, 0.2300276, 6343.7856, 6343.7856, 0.0, 9.9984665, 10.00063 
1.9352685e+3, 1.2563823e+2, -1385423.4, -1730241.1, 57885.836, 0.009289601, 0.12938292, -1375965.3, 332797.16, 0.12938987, 10.003439, 9.998245 
1.9352528e+3, 1.3563779e+2, -1293482.8, -1607204.8, -37234.47, -0.015767569, 0.21917303, -1289124.1, 321643.2, 0.09048304, 10.003129, 9.998563 
1.9352384e+3, 1.4563562e+2, -1250788.6, -1574219.9, -11699.296, 0.076766655, 0.16659997, -1250366.0, 262423.9, 0.052251335, 10.002764, 9.998288 
1.9352235e+3, 1.5563439e+2, -1214704.9, -1521785.6, -8734.697, 0.045676086, 0.21422872, -1214456.6, 200347.39, 0.022785332, 10.002318, 9.99819 
1.935209e+3, 1.6563304e+2, -1131246.4, -1378203.3, -12132.759, 0.046772975, 0.24175473, -1130651.8, 186166.9, 0.006405909, 10.00196, 9.998675 
1.9351949e+3, 1.7563167e+2, -1077843.5, -1307682.1, -9038.112, 0.06093185, 0.23619935, -1077488.6, 141344.77, 0.00074702007, 10.001671, 9.998626 
1.9351801e+3, 1.856306e+2, -969564.3, -1135080.3, -15318.378, 0.045939356, 0.23956618, -968158.56, 152685.81, 0.0000041218373, 10.00144, 9.9992485 
1.9351652e+3, 1.9562997e+2, -901940.9, -1060390.3, -18151.104, 0.012147383, 0.25074208, -899888.2, 122962.125, 0.0, 10.001269, 9.999171 
1.9351503e+3, 2.0562924e+2, -832126.1, -948668.8, -36102.582, 0.010721575, 0.25292748, -821848.6, 103008.93, 0.0, 10.000958, 9.999415 
1.9351354e+3, 2.1562856e+2, -799564.5, -889374.2, -30554.832, 0.032982677, 0.24305837, -790155.06, 36709.133, 0.0, 10.00054, 9.9993515 
1.9351202e+3, 2.2562799e+2, -705446.06, -748653.4, -21402.5, 0.019563692, 0.23459817, -696639.44, 32230.15, 0.0, 10.000321, 9.99975 
1.9351049e+3, 2.3562762e+2, -623232.8, -669330.8, -19051.045, -0.022593373, 0.22220638, -616378.7, 14493.83, 0.0, 10.000259, 9.999652 
1.9350897e+3, 2.4562722e+2, -572488.25, -608611.94, -24682.293, -0.03339242, 0.2305052, -559965.0, -27088.234, 0.0, 9.999998, 9.999521 
1.9350746e+3, 2.55627e+2, -540892.8, -551608.7, -23364.244, -0.015862403, 0.25403088, -522280.03, -87399.8, 0.0, 9.999581, 9.999441 
1.9350591e+3, 2.6562658e+2, -455439.88, -440525.2, -22351.285, -0.036314607, 0.2664786, -424420.03, -87535.445, 0.0, 9.9994135, 9.99961 
1.9350433e+3, 2.7562612e+2, -358519.9, -353227.44, -24933.129, -0.099584505, 0.25743002, -330800.5, -91911.65, 0.0, 9.999449, 9.99952 
1.9350278e+3, 2.8562534e+2, -287373.66, -271176.53, -34910.54, -0.106471375, 0.23455177, -243437.52, -102541.234, 0.0, 9.999277, 9.999495 
1.9350131e+3, 2.9562476e+2, -255221.55, -228066.77, -30780.314, -0.028200418, 0.2264332, -208002.31, -165100.5, 0.0, 9.998923, 9.999288 
1.934997e+3, 3.056249e+2, -199654.6, -106190.85, 30572.89, -0.17873405, 0.29259714, -97078.56, -97078.56, 0.0, 9.998671, 9.999911 
1.9349836e+3, 3.1562436e+2, -212650.1, -87653.63, -26393.043, -0.07054006, 0.23638414, -82309.24, -82309.24, 0.0, 9.998475, 10.000133 
1.9452718e+3, 1.2565322e+2, -1353647.3, -1731709.1, 70496.836, -0.006277228, 0.15184341, -1340929.5, 367686.06, 0.13503863, 10.003796, 9.998066 
1.945256e+3, 1.356525e+2, -1283611.6, -1605727.1, -33314.6, -0.010258939, 0.21596676, -1280202.3, 330421.22, 0.09470778, 10.003235, 9.998522 
1.9452408e+3, 1.4565033e+2, -1235848.5, -1574445.9, -2447.2554, 0.04878788, 0.16838543, -1235830.9, 276815.13, 0.054959312, 10.002914, 9.998213 
1.9452259e+3, 1.5564892e+2, -1169331.9, -1506652.5, 11746.954, 0.04048974, 0.20766415, -1168923.3, 245738.38, 0.024175247, 10.002675, 9.998119 
1.9452113e+3, 1.6564757e+2, -1077599.8, -1347234.9, 11578.088, 0.04607469, 0.23617104, -1077103.5, 239572.63, 0.006916625, 10.0023155, 9.998714 
1.9451964e+3, 1.7564633e+2, -1044792.56, -1288429.6, 10092.561, 0.044001017, 0.2404696, -1044375.2, 174313.89, 0.00084444886, 10.001887, 9.998652 
1.9451815e+3, 1.8564524e+2, -977117.2, -1150116.3, 1828.7441, 0.033620644, 0.24575208, -977097.8, 143602.9, 0.0000060577904, 10.00144, 9.999145 
1.9451664e+3, 1.9564445e+2, -951453.7, -1093977.3, -4552.611, 0.022040475, 0.2521957, -951308.4, 71400.85, 0.0, 10.000974, 9.999082 
1.9451512e+3, 2.0564377e+2, -849007.5, -940733.8, -19292.912, 0.019352386, 0.25522202, -845114.8, 79601.266, 0.0, 10.000775, 9.999557 
1.945136e+3, 2.1564329e+2, -754613.8, -853952.4, -14072.488, 0.021331605, 0.2505427, -752658.75, 74061.24, 0.0, 10.000791, 9.999473 
1.9451205e+3, 2.2564271e+2, -682914.7, -746900.8, -14106.221, 0.008845752, 0.2421034, -679942.94, 48782.402, 0.0, 10.000518, 9.999666 
1.945105e+3, 2.3564222e+2, -663284.25, -696100.7, -24388.701, -0.015347954, 0.22547683, -650297.94, -19567.766, 0.0, 10.000021, 9.999581 
1.9450895e+3, 2.4564183e+2, -590436.7, -599642.7, -29155.494, -0.02769393, 0.22907218, -565523.06, -32788.777, 0.0, 9.999804, 9.999676 
1.9450742e+3, 2.556417e+2, -498886.34, -515572.44, -22100.475, -0.027918162, 0.24748543, -483606.56, -48870.594, 0.0, 9.999804, 9.999579 
1.9450584e+3, 2.6564133e+2, -443936.4, -435473.28, -21625.422, -0.04970636, 0.2584998, -417669.3, -80929.53, 0.0, 9.999496, 9.999604 
1.9450425e+3, 2.7564088e+2, -434450.4, -390830.63, -25385.48, -0.09802657, 0.24933162, -379172.72, -140428.06, 0.0, 9.998936, 9.999508 
1.9450268e+3, 2.856402e+2, -352929.2, -299853.63, -26139.09, -0.10234112, 0.23844552, -289142.16, -148391.16, 0.0, 9.998817, 9.999517 
1.9450119e+3, 2.9564e+2, -230356.44, -204315.2, -19918.557, -0.040777415, 0.2628669, -193539.06, -150786.17, 0.0, 9.999047, 9.99939 
1.9449955e+3, 3.056394e+2, -175121.2, -83178.35, 16705.135, -0.2009412, 0.2398174, -80237.266, -80237.266, 0.0, 9.998794, 10.000009 
1.9449821e+3, 3.156398e+2, -270145.28, -125827.04, -24424.195, -0.047578268, 0.2806385, -121805.586, -121805.586, 0.0, 9.998128, 10.000035 
1.9552752e+3, 1.2566887e+2, -1376872.1, -1781092.3, 45681.977, -0.041260917, 0.19468135, -1371773.8, 336689.4, 0.14063214, 10.003793, 9.997723 
1.9552593e+3, 1.3566753e+2, -1296210.8, -1634100.1, -50206.406, -0.006538711, 0.21934879, -1288908.4, 321568.8, 0.09890805, 10.003244, 9.998325 
1.9552436e+3, 1.4566538e+2, -1229477.6, -1561662.6, -9743.315, 0.027223239, 0.17803313, -1229192.0, 283307.22, 0.057666935, 10.002924, 9.998297 
1.9552287e+3, 1.556639e+2, -1163599.4, -1494827.1, 2598.189, 0.04396174, 0.20231032, -1163579.0, 250935.61, 0.02557713, 10.002679, 9.9982 
1.9552137e+3, 1.6566253e+2, -1078926.9, -1350341.4, -4296.2275, 0.047889043, 0.22408004, -1078858.9, 237670.16, 0.0074404846, 10.0023155, 9.998694 
1.955198e+3, 1.756613e+2, -1046222.06, -1293060.5, -5144.0454, 0.017197937, 0.23278862, -1046114.9, 172426.72, 0.00094927935, 10.001892, 9.998619 
1.9551827e+3, 1.8566018e+2, -986666.25, -1171787.1, -14619.737, 0.019462211, 0.24609414, -985518.75, 135035.13, 0.000008849083, 10.001446, 9.998994 
1.9551677e+3, 1.9565937e+2, -959264.9, -1112887.0, -19493.025, 0.055925272, 0.26219422, -956830.0, 65733.95, 0.0, 10.000983, 9.998948 
1.9551523e+3, 2.0565861e+2, -838337.56, -920826.94, -17574.11, 0.042991694, 0.25978833, -834749.56, 89821.6, 0.0, 10.000783, 9.999691 
1.9551365e+3, 2.156581e+2, -746639.8, -838011.75, -13299.48, -0.011628033, 0.23789757, -744743.4, 81831.21, 0.0, 10.000792, 9.999583 
1.9551207e+3, 2.2565763e+2, -700138.1, -783301.8, -31868.266, -0.024628589, 0.24720185, -689330.7, 39248.87, 0.0, 10.000518, 9.999417 
1.9551052e+3, 2.3565733e+2, -677909.75, -728148.75, -40473.016, -0.0052070725, 0.27554587, -655394.7, -24810.447, 0.0, 10.000026, 9.99936 
1.9550894e+3, 2.4565688e+2, -573895.6, -567038.44, -27996.912, -0.01825601, 0.2709454, -542260.94, -9672.025, 0.0, 9.999808, 9.999898 
1.9550738e+3, 2.5565648e+2, -484339.3, -486523.44, -22310.936, -0.055240966, 0.24123421, -463093.75, -28502.006, 0.0, 9.999806, 9.999779 
1.9550577e+3, 2.656561e+2, -446269.28, -441406.63, -42319.305, -0.07610733, 0.24561635, -401448.88, -64853.805, 0.0, 9.999498, 9.999564 
1.9550414e+3, 2.7565584e+2, -434756.3, -395823.06, -44260.656, -0.09015317, 0.25836337, -366937.28, -128338.78, 0.0, 9.998951, 9.999468 
1.955026e+3, 2.8565544e+2, -347033.8, -290760.28, -18439.332, -0.09110898, 0.27122593, -285256.5, -144653.95, 0.0, 9.998829, 9.999575 
1.9550107e+3, 2.9565552e+2, -220147.48, -184213.03, -13131.734, -0.06346688, 0.3224283, -179925.73, -137324.55, 0.0, 9.999049, 9.999528 
1.9549942e+3, 3.0565345e+2, -194415.73, -124169.64, -9196.096, -0.19991244, 0.15608703, -122985.71, -122985.71, 0.0, 9.998796, 9.999727 
1.9549805e+3, 3.1565446e+2, -233474.05, -59137.785, -6847.775, -0.039334834, 0.29031837, -58869.223, -58869.223, 0.0, 9.998164, 10.000479 
1.965279e+3, 1.2568459e+2, -1378273.9, -1782467.4, 35477.81, -0.048562124, 0.22661684, -1375183.5, 333126.75, 0.14620154, 10.003807, 9.997704 
1.9652629e+3, 1.356828e+2, -1267545.8, -1616127.3, -35753.49, 0.018480092, 0.20715103, -1263916.4, 346411.72, 0.10310407, 10.003473, 9.998334 
1.9652465e+3, 1.4568084e+2, -1198698.4, -1539230.0, 12890.948, 0.016616862, 0.18277314, -1198211.1, 314136.56, 0.060382523, 10.003136, 9.998345 
1.9652312e+3, 1.5567937e+2, -1156643.0, -1487016.8, 20084.146, 0.029378507, 0.20377684, -1155426.5, 258936.03, 0.026990993, 10.002714, 9.998236 
1.9652158e+3, 1.6567793e+2, -1082294.3, -1356348.8, 8939.147, 0.039985042, 0.21932779, -1082003.0, 234374.47, 0.007974863, 10.002315, 9.998652 
1.9652e+3, 1.7567661e+2, -1043010.25, -1295623.4, 5723.703, 0.018096916, 0.22224505, -1042880.6, 175510.23, 0.0010600544, 10.001936, 9.998578 
1.9651844e+3, 1.8567547e+2, -961102.0, -1166513.9, 998.4236, 0.016326908, 0.23711786, -961097.1, 159306.58, 0.000012480936, 10.001656, 9.998927 
1.9651689e+3, 1.9567464e+2, -896100.75, -1090239.5, 1476.3011, 0.04141627, 0.26004806, -896089.56, 126324.7, 0.0, 10.001453, 9.998876 
1.965153e+3, 2.0567389e+2, -800309.2, -909934.3, 660.7432, 0.03224204, 0.26473954, -800305.2, 124116.66, 0.0, 10.001079, 9.999621 
1.9651371e+3, 2.1567337e+2, -783778.5, -863390.3, -10874.293, -0.0084263, 0.24961784, -782319.9, 44105.766, 0.0, 10.000572, 9.999513 
1.9651212e+3, 2.2567286e+2, -733524.94, -806043.44, -28833.64, -0.02093331, 0.26083288, -723458.06, 4973.343, 0.0, 10.000321, 9.999354 
1.9651052e+3, 2.3567249e+2, -647140.94, -720504.5, -24920.006, -0.010313449, 0.28796402, -639476.8, -9039.713, 0.0, 10.000269, 9.999294 
1.9650893e+3, 2.4567206e+2, -561596.94, -565461.25, -18298.195, -0.023384796, 0.29277307, -545129.2, -12687.439, 0.0, 9.999913, 9.999857 
1.9650732e+3, 2.556718e+2, -558404.56, -524789.25, -32390.172, -0.054504886, 0.28049123, -505105.53, -70661.984, 0.0, 9.999314, 9.999751 
1.965057e+3, 2.6567134e+2, -486791.8, -445829.4, -48758.395, -0.07566592, 0.27044198, -413425.25, -76977.98, 0.0, 9.999161, 9.999694 
1.9650407e+3, 2.7567083e+2, -370419.13, -351290.03, -38581.75, -0.09096872, 0.24777523, -321104.97, -82653.07, 0.0, 9.999338, 9.999585 
1.9650248e+3, 2.8567058e+2, -316014.47, -275011.53, -10296.817, -0.091005504, 0.27102548, -272571.0, -132116.81, 0.0, 9.999041, 9.999579 
1.9650094e+3, 2.9567105e+2, -312615.16, -222983.02, -8423.559, -0.07102553, 0.35655418, -222198.25, -179748.36, 0.0, 9.998393, 9.999576 
1.964993e+3, 3.0566847e+2, -313645.6, -215639.17, -16869.996, -0.1673242, 0.15576282, -212816.61, -212816.61, 0.0, 9.998126, 9.999421 
1.9649784e+3, 3.1566942e+2, -190690.42, 44416.73, 14078.857, -0.058979496, 0.31318069, 45256.81, 45256.81, 0.0, 9.998103, 10.001219 
1.975283e+3, 1.2570035e+2, -1362775.3, -1741424.9, 12239.417, -0.03216014, 0.24215947, -1362380.1, 345777.16, 0.15179259, 10.003815, 9.99798 
1.9752668e+3, 1.3569835e+2, -1257316.3, -1589912.0, -45218.4, 0.059906974, 0.18140551, -1251278.1, 358897.53, 0.10732765, 10.003469, 9.99853 
1.9752496e+3, 1.4569676e+2, -1200392.9, -1541273.3, -242.03065, 0.012180783, 0.18401146, -1200392.6, 311798.63, 0.06312284, 10.003135, 9.998334 
1.9752337e+3, 1.5569536e+2, -1156451.8, -1489125.1, 5671.521, -0.0027369761, 0.21156313, -1156355.0, 257850.7, 0.028421657, 10.002727, 9.998217 
1.975218e+3, 1.6569379e+2, -1086003.1, -1366905.9, -5234.5444, 0.021852344, 0.22178559, -1085905.6, 230315.97, 0.00851848, 10.002325, 9.998576 
1.9752021e+3, 1.7569226e+2, -1046817.3, -1305557.3, -7356.031, 0.04360469, 0.20958391, -1046608.4, 171628.8, 0.001174899, 10.001943, 9.998508 
1.975186e+3, 1.8569103e+2, -960452.06, -1166376.8, -5755.252, 0.02230229, 0.21943446, -960291.3, 159959.44, 0.000016759132, 10.001658, 9.998928 
1.9751696e+3, 1.9569021e+2, -896826.7, -1092854.0, -5707.0186, -0.01937619, 0.2455459, -896660.6, 125600.266, 0.0, 10.001456, 9.998858 
1.9751537e+3, 2.0568952e+2, -818482.4, -949233.0, -17388.8, -0.011675219, 0.26922438, -816209.3, 108059.61, 0.0, 10.001083, 9.9993515 
1.975138e+3, 2.1568903e+2, -799972.56, -899298.94, -27100.256, 0.028231036, 0.28553057, -793059.6, 33214.043, 0.0, 10.000579, 9.999264 
1.9751218e+3, 2.2568831e+2, -725409.3, -791554.4, -29309.908, 0.016816262, 0.28330725, -714290.6, 13990.713, 0.0, 10.000328, 9.999452 
1.9751054e+3, 2.3568758e+2, -641647.75, -710559.5, -26601.2, -0.03187409, 0.2634921, -632573.94, -2284.3481, 0.0, 10.000273, 9.999362 
1.975089e+3, 2.4568729e+2, -582464.0, -610054.1, -40180.48, -0.043326177, 0.2957632, -553776.44, -21482.85, 0.0, 9.999916, 9.999551 
1.9750729e+3, 2.5568753e+2, -575644.25, -563565.7, -52192.24, -0.027364545, 0.363281, -517064.5, -82771.81, 0.0, 9.999324, 9.999481 
1.9750565e+3, 2.656869e+2, -464603.44, -402612.97, -41953.49, -0.05031082, 0.3306268, -381446.94, -45149.08, 0.0, 9.99917, 9.999987 
1.97504e+3, 2.7568576e+2, -350958.94, -312814.06, -34236.004, -0.10275189, 0.2174628, -292696.44, -54390.457, 0.0, 9.999344, 9.999848 
1.9750237e+3, 2.8568557e+2, -320112.5, -284263.22, -35334.78, -0.104076125, 0.23933443, -262566.66, -122259.55, 0.0, 9.999042, 9.9995165 
1.9750078e+3, 2.9568633e+2, -314245.28, -231611.83, -29867.498, -0.066673316, 0.36272204, -221946.81, -179645.97, 0.0, 9.998413, 9.999509 
1.9749919e+3, 3.0568436e+2, -337257.9, -269563.34, -21813.053, -0.10221287, 0.24107476, -263143.4, -263143.4, 0.0, 9.998144, 9.9990425 
1.974976e+3, 3.156832e+2, -122520.05, 182087.9, 14891.46, -0.1034726, 0.22632946, 182814.19, 182814.19, 0.0, 9.9981165, 10.00216 
1.985287e+3, 1.257167e+2, -1360131.3, -1727686.8, 40556.26, 0.004555452, 0.23443554, -1355709.4, 352287.03, 0.15745445, 10.00381, 9.998079 
1.9852701e+3, 1.3571455e+2, -1265321.1, -1599124.8, -18637.346, 0.057504825, 0.16090593, -1264283.9, 345732.8, 0.11160603, 10.00345, 9.998468 
1.9852525e+3, 1.4571312e+2, -1189705.4, -1539947.9, 19458.984, -0.01907626, 0.18730159, -1188627.6, 323402.8, 0.06590016, 10.003241, 9.998292 
1.9852364e+3, 1.5571164e+2, -1121291.4, -1475514.8, 21179.809, -0.0050883195, 0.21200763, -1120029.4, 294016.2, 0.029873334, 10.003, 9.998176 
1.9852205e+3, 1.6570996e+2, -1050306.9, -1356436.0, 6121.912, 0.025254417, 0.2164884, -1050184.5, 265878.22, 0.009071207, 10.00261, 9.9985075 
1.985204e+3, 1.7570831e+2, -1025036.25, -1302644.6, 3972.0234, 0.032955065, 0.19889103, -1024979.44, 193100.13, 0.0012922568, 10.00213, 9.998437 
1.9851875e+3, 1.8570705e+2, -956306.7, -1170258.4, 8543.285, 0.010655174, 0.21226275, -955966.06, 164127.44, 0.000021359581, 10.001715, 9.998873 
1.985171e+3, 1.9570626e+2, -916511.9, -1108993.9, 3903.257, -0.022717461, 0.2470215, -916432.75, 105670.625, 0.0, 10.001352, 9.9987955 
1.9851547e+3, 2.0570548e+2, -821330.56, -969683.5, -6411.874, -0.018118836, 0.27483463, -821054.0, 103058.65, 0.0, 10.001149, 9.999178 
1.9851387e+3, 2.1570484e+2, -740742.2, -888981.9, -10488.505, 0.010540122, 0.29271767, -740003.75, 86116.0, 0.0, 10.001067, 9.999099 
1.9851223e+3, 2.2570407e+2, -671973.1, -766233.3, -14986.359, 0.005635964, 0.29316935, -669647.8, 58480.305, 0.0, 10.000699, 9.999446 
1.9851056e+3, 2.3570335e+2, -666366.75, -722987.06, -19847.146, -0.022836233, 0.27686352, -660102.75, -29967.13, 0.0, 10.00011, 9.999353 
1.985089e+3, 2.4570297e+2, -608260.1, -631458.7, -28476.738, -0.031927913, 0.3037875, -589110.94, -56970.44, 0.0, 9.999783, 9.999465 
1.9850723e+3, 2.55703e+2, -532742.75, -551856.3, -23456.348, -0.027857084, 0.35758922, -516971.03, -82829.09, 0.0, 9.99966, 9.999399 
1.9850557e+3, 2.657024e+2, -444737.38, -393960.22, -12486.53, -0.04831472, 0.33335868, -391055.8, -54908.957, 0.0, 9.999312, 9.999976 
1.9850391e+3, 2.7570155e+2, -433868.4, -352955.63, -28846.447, -0.08391371, 0.25177395, -343724.63, -105572.516, 0.0, 9.998781, 9.999841 
1.9850226e+3, 2.857012e+2, -380722.34, -307728.34, -37739.418, -0.09281396, 0.25207162, -291724.94, -151569.89, 0.0, 9.998606, 9.999563 
1.985006e+3, 2.957012e+2, -276138.63, -212886.38, -24332.232, -0.08733095, 0.29809457, -204609.25, -162453.66, 0.0, 9.998677, 9.999508 
1.9849904e+3, 3.0570045e+2, -333219.78, -282028.13, -11657.166, -0.06307959, 0.30592388, -279498.6, -279498.6, 0.0, 9.998236, 9.998913 
1.9849737e+3, 3.1569818e+2, -207290.58, 161953.86, 30395.1, -0.11671724, 0.1890606, 164439.16, 164439.16, 0.0, 9.997447, 10.002342 
1.9952914e+3, 1.2573364e+2, -1371395.1, -1745570.9, 13638.292, 0.04885193, 0.20338565, -1370898.8, 336929.63, 0.1632205, 10.003793, 9.997962 
1.9952732e+3, 1.3573132e+2, -1283949.1, -1643759.4, -28178.584, 0.0140718995, 0.1466644, -1281755.6, 328095.44, 0.1159594, 10.003475, 9.998144 
1.995255e+3, 1.4572991e+2, -1191807.4, -1549219.6, 11806.924, -0.07450403, 0.19448915, -1191417.8, 320447.5, 0.068724915, 10.003266, 9.998217 
1.9952397e+3, 1.5572824e+2, -1125668.5, -1484719.5, 11549.528, 0.01903557, 0.20527564, -1125297.4, 288585.06, 0.031350326, 10.003001, 9.998114 
1.9952233e+3, 1.6572644e+2, -1056472.3, -1368765.8, -11362.31, 0.0462941, 0.20380348, -1056059.4, 259841.47, 0.009633983, 10.002606, 9.998426 
1.9952059e+3, 1.7572473e+2, -1029584.44, -1314862.6, -12558.508, -0.01219598, 0.18995728, -1029032.6, 188885.78, 0.0014115352, 10.002139, 9.998349 
1.9951889e+3, 1.8572348e+2, -962519.9, -1186010.0, -4364.852, -0.018496651, 0.21453951, -962434.6, 157497.81, 0.000025947349, 10.001725, 9.998761 
1.9951728e+3, 1.9572273e+2, -923340.7, -1125217.9, -7611.1855, 0.027122246, 0.264106, -923054.1, 98888.03, 0.0, 10.001359, 9.998682 
1.9951561e+3, 2.0572174e+2, -827908.1, -984790.5, -8296.077, 0.009493521, 0.28199843, -827470.6, 96482.97, 0.0, 10.001153, 9.999074 
1.995139e+3, 2.1572071e+2, -748003.4, -904535.1, -13136.971, -0.06028582, 0.2723939, -746908.5, 79056.21, 0.0, 10.001066, 9.998994 
1.9951223e+3, 2.2572002e+2, -678615.3, -780970.6, -36081.61, -0.052721262, 0.2908005, -667174.8, 60797.664, 0.0, 10.0007, 9.999346 
1.995106e+3, 2.3571973e+2, -671784.75, -736195.44, -39300.785, 0.01520378, 0.32667553, -653179.3, -23203.2, 0.0, 10.000115, 9.999262 
1.995089e+3, 2.45719e+2, -599071.44, -614480.25, -32381.322, 0.008137649, 0.31609067, -573490.56, -41507.04, 0.0, 9.999789, 9.999579 
1.9950716e+3, 2.5571805e+2, -525374.5, -538527.9, -28150.318, -0.057443973, 0.26434276, -503042.8, -69050.41, 0.0, 9.999665, 9.999489 
1.9950548e+3, 2.6571774e+2, -466912.16, -441647.56, -32625.018, -0.06917475, 0.2812067, -419294.63, -83299.32, 0.0, 9.999317, 9.999648 
1.9950384e+3, 2.757181e+2, -453010.1, -397101.94, -47290.14, -0.036826517, 0.35093692, -370121.63, -132129.95, 0.0, 9.998796, 9.999532 
1.9950216e+3, 2.857172e+2, -367875.1, -284407.9, -36158.67, -0.060599882, 0.30655646, -270922.44, -130922.695, 0.0, 9.998618, 9.999719 
1.9950043e+3, 2.9571542e+2, -270297.53, -203470.47, -25899.39, -0.13561065, 0.1566582, -194608.2, -152591.92, 0.0, 9.998687, 9.999569 
1.9949886e+3, 3.0571663e+2, -323372.56, -263203.63, -43580.113, -0.05087924, 0.35741088, -240332.45, -240332.45, 0.0, 9.99824, 9.999041 
1.9949716e+3, 3.1571534e+2, -268285.2, 33621.53, -41091.516, -0.05778247, 0.31651816, 39114.42, 39114.42, 0.0, 9.997455, 10.001456 
2.005295e+3, 1.2575078e+2, -1383195.9, -1744485.4, 7446.3354, 0.043854635, 0.17959955, -1383042.5, 324616.9, 0.16910756, 10.003686, 9.99802 
2.005277e+3, 1.3574848e+2, -1224938.5, -1630523.0, -8732.729, 0.022160487, 0.14424351, -1224750.6, 384931.63, 0.12040824, 10.004039, 9.99796 
2.0052586e+3, 1.4574698e+2, -1127317.9, -1523021.0, 16760.598, -0.07551449, 0.19499028, -1126609.3, 385088.38, 0.07161315, 10.003791, 9.99814 
2.0052426e+3, 1.5574512e+2, -1132254.6, -1495748.5, 13254.253, 0.0050251987, 0.19557664, -1131772.0, 281944.75, 0.032860015, 10.002995, 9.998039 
2.0052257e+3, 1.6574329e+2, -1066750.9, -1379987.8, -1049.9978, 0.03389708, 0.19862503, -1066747.4, 248988.28, 0.010208714, 10.002564, 9.998368 
2.005208e+3, 1.7574167e+2, -992606.6, -1303553.0, -1791.3605, -0.012112145, 0.19894545, -992596.3, 225156.44, 0.0015329993, 10.002425, 9.998288 
2.0051908e+3, 1.8574034e+2, -916103.94, -1172996.5, 3304.6501, -0.015497176, 0.22427262, -916061.44, 203706.05, 0.000030288733, 10.002088, 9.998673 
2.0051743e+3, 1.9573942e+2, -894986.9, -1120982.4, 1523.4501, 0.025997773, 0.26593563, -894976.6, 126802.0, 0.0, 10.001598, 9.998594 
2.0051573e+3, 2.0573834e+2, -833338.4, -993858.3, 9423.592, 0.008999241, 0.28239805, -832787.0, 91003.94, 0.0, 10.001145, 9.999014 
2.0051399e+3, 2.1573728e+2, -802782.56, -937887.9, 6565.71, -0.057079334, 0.27512714, -802464.25, 23338.371, 0.0, 10.000723, 9.998929 
2.0051229e+3, 2.257365e+2, -719989.8, -809700.2, -17879.516, -0.05393829, 0.2926191, -716557.7, 11253.668, 0.0, 10.000457, 9.999264 
2.0051062e+3, 2.357361e+2, -648167.2, -733211.9, -20324.252, 0.0037009164, 0.32581702, -643559.7, -13743.59, 0.0, 10.000316, 9.999185 
2.0050889e+3, 2.4573529e+2, -570916.0, -596144.56, -14030.01, 0.0020528852, 0.3100763, -564663.3, -32839.5, 0.0, 9.999963, 9.999621 
2.0050713e+3, 2.5573435e+2, -556395.7, -549432.75, -15836.478, -0.045547504, 0.25209856, -536699.56, -102867.32, 0.0, 9.999438, 9.999521 
2.005054e+3, 2.6573405e+2, -504496.97, -476345.53, -15406.205, -0.057676848, 0.27652302, -469553.16, -133717.83, 0.0, 9.999135, 9.9994955 
2.0050372e+3, 2.7573436e+2, -433362.47, -403444.47, -15752.3955, -0.03978391, 0.3624961, -396679.97, -158847.34, 0.0, 9.999003, 9.999387 
2.0050201e+3, 2.857334e+2, -360621.25, -277727.78, -1335.5011, -0.06367553, 0.31463528, -277706.28, -137864.3, 0.0, 9.998657, 9.999743 
2.0050028e+3, 2.9573157e+2, -358734.7, -245878.11, -3646.648, -0.12631743, 0.15504356, -245760.39, -203901.23, 0.0, 9.998083, 9.999566 
2.0049869e+3, 3.0573332e+2, -341975.4, -219106.86, -8054.6157, -0.04416672, 0.3882979, -218581.1, -218581.1, 0.0, 9.997885, 9.999514 
2.0049694e+3, 3.1573185e+2, -224048.88, -14576.442, -20976.217, -0.06827744, 0.28187475, -12496.57, -12496.57, 0.0, 9.998065, 10.000829 
2.0152982e+3, 1.2576815e+2, -1368780.0, -1709946.4, 2462.6843, -0.009733394, 0.17026825, -1368762.3, 338726.63, 0.17515534, 10.003717, 9.998243 
2.0152815e+3, 1.3576597e+2, -1231329.8, -1637558.6, 1764.0443, 0.07538641, 0.14922975, -1231322.1, 378187.97, 0.124987945, 10.004023, 9.99792 
2.015263e+3, 1.4576425e+2, -1138126.1, -1540707.0, -9854.045, -0.030171823, 0.18587123, -1137885.0, 373642.78, 0.07458999, 10.003772, 9.99803 
2.015245e+3, 1.5576227e+2, -1138093.1, -1510832.8, -13494.195, -0.045843236, 0.18441206, -1137605.3, 275943.38, 0.034415293, 10.003008, 9.9979315 
2.0152278e+3, 1.6576052e+2, -1067889.5, -1386258.9, -6146.7397, -0.010759399, 0.20277803, -1067770.9, 247796.34, 0.010800258, 10.002581, 9.99832 
2.0152108e+3, 1.7575905e+2, -995917.44, -1311544.0, -7195.0093, 0.029502815, 0.22422132, -995753.5, 221829.52, 0.0016580658, 10.002427, 9.998233 
2.0151933e+3, 1.8575756e+2, -920987.1, -1183540.8, -14209.413, 0.016254783, 0.24055119, -920220.4, 199378.78, 0.00003433834, 10.002088, 9.998603 
2.0151754e+3, 1.957563e+2, -898798.56, -1131070.0, -15506.234, -0.024001122, 0.25388053, -897767.94, 123845.33, 0.0, 10.001605, 9.998524 
2.0151582e+3, 2.0575523e+2, -833896.7, -997570.1, -5366.8574, -0.018619673, 0.27611843, -833720.9, 89904.516, 0.0, 10.001154, 9.998985 
2.0151414e+3, 2.1575445e+2, -804544.3, -943148.9, -7131.597, 0.015794283, 0.29938352, -804178.3, 21456.127, 0.0, 10.000728, 9.998892 
2.015124e+3, 2.2575341e+2, -724739.7, -821043.06, -22121.738, -0.0022488558, 0.29844046, -719901.2, 7744.339, 0.0, 10.000461, 9.999186 
2.0151058e+3, 2.3575237e+2, -652607.4, -744022.4, -25397.61, -0.057340305, 0.27620506, -646025.1, -16368.743, 0.0, 10.0003195, 9.99911 
2.0150883e+3, 2.4575178e+2, -572464.8, -601276.9, -32889.313, -0.04883385, 0.28707394, -550964.9, -19302.584, 0.0, 9.999969, 9.999585 
2.0150714e+3, 2.557517e+2, -558041.3, -555863.3, -34039.266, 0.0057249255, 0.31894323, -522895.63, -89232.91, 0.0, 9.999448, 9.999475 
2.0150538e+3, 2.657511e+2, -502165.53, -473905.6, -20853.035, -0.016663235, 0.31771734, -462846.16, -127177.85, 0.0, 9.999144, 9.999509 
2.0150356e+3, 2.7575028e+2, -430559.25, -400735.78, -20921.117, -0.09451598, 0.2846053, -389956.0, -152279.53, 0.0, 9.999014, 9.999401 
2.0150183e+3, 2.8574967e+2, -368100.34, -295249.56, -23696.555, -0.10132883, 0.2768341, -288219.97, -148536.95, 0.0, 9.998664, 9.999621 
2.0150015e+3, 2.957495e+2, -362989.8, -257440.0, -26888.955, -0.060082927, 0.29742548, -250984.78, -209299.52, 0.0, 9.998091, 9.999484 
2.0149846e+3, 3.0575025e+2, -281460.0, -96066.55, -1745.3643, -0.050481517, 0.3901571, -96050.12, -96050.12, 0.0, 9.997894, 10.000356 
2.0149672e+3, 3.1574938e+2, -241990.72, -54794.64, -48461.668, -0.09162896, 0.26298717, -42992.84, -42992.84, 0.0, 9.998079, 10.000545 
2.025302e+3, 1.2578586e+2, -1294969.9, -1663470.0, -3195.281, -0.015362566, 0.17272048, -1294942.3, 412373.53, 0.18144652, 10.004312, 9.998341 
2.0252852e+3, 1.3578375e+2, -1289946.3, -1674490.6, 6050.344, 0.07389993, 0.16505198, -1289851.1, 319485.2, 0.12975317, 10.003601, 9.997869 
2.0252664e+3, 1.4578174e+2, -1194563.8, -1571448.1, -6700.7197, -0.024824798, 0.17590612, -1194444.6, 316912.13, 0.077687964, 10.00337, 9.998011 
2.0252481e+3, 1.5577976e+2, -1085532.9, -1487810.8, -6499.6226, -0.056799956, 0.18049051, -1085427.9, 327949.25, 0.03603443, 10.003403, 9.997897 
2.0252305e+3, 1.6577806e+2, -1003997.8, -1360348.5, 1757.7014, -0.025345374, 0.20656766, -1003989.1, 311406.22, 0.011417583, 10.003052, 9.998267 
2.0252132e+3, 1.757766e+2, -999692.4, -1318909.8, 75.33543, 0.024155002, 0.23407255, -999692.4, 217718.86, 0.0017896852, 10.002429, 9.998179 
2.0251954e+3, 1.8577503e+2, -934616.25, -1197424.5, -5480.701, 0.0130198095, 0.2470365, -934502.0, 184926.25, 0.000038280064, 10.002028, 9.998535 
2.025177e+3, 1.9577359e+2, -876722.8, -1128446.4, -8111.706, -0.032890394, 0.25025323, -876461.7, 144982.33, 0.0, 10.001793, 9.998449 
2.0251594e+3, 2.0577246e+2, -804367.44, -991311.5, -4228.9624, -0.022982614, 0.2739688, -804271.8, 119185.016, 0.0, 10.001393, 9.998912 
2.0251422e+3, 2.157717e+2, -788749.7, -942662.75, -9594.695, 0.02468737, 0.3074913, -788153.9, 37311.887, 0.0, 10.000869, 9.998826 
2.0251244e+3, 2.2577068e+2, -725155.1, -820134.3, -13543.483, 0.0081315115, 0.30931887, -723261.7, 4215.288, 0.0, 10.000455, 9.999193 
2.0251061e+3, 2.3576961e+2, -681925.06, -757847.9, -11404.346, -0.05466971, 0.2832255, -680249.0, -50760.94, 0.0, 10.000119, 9.99911 
2.0250882e+3, 2.4576898e+2, -600604.44, -622936.94, -23376.93, -0.049455184, 0.2954838, -585863.8, -54369.414, 0.0, 9.999813, 9.99951 
2.0250708e+3, 2.557689e+2, -551202.1, -560409.56, -27256.488, 0.005520537, 0.3352003, -528163.3, -94668.16, 0.0, 9.999532, 9.999401 
2.0250528e+3, 2.6576826e+2, -493534.06, -463131.03, -8035.9917, -0.02026886, 0.32992348, -461137.7, -125636.555, 0.0, 9.999176, 9.999567 
2.0250344e+3, 2.757673e+2, -465209.56, -410314.63, -5276.042, -0.10352207, 0.2794797, -409812.16, -172302.06, 0.0, 9.998747, 9.999463 
2.025017e+3, 2.8576684e+2, -406150.4, -305062.16, -5250.825, -0.0937173, 0.28116506, -304790.16, -165275.36, 0.0, 9.998368, 9.999695 
2.025e+3, 2.9576716e+2, -364776.63, -244706.42, 5738.4233, -0.018978668, 0.3432356, -244432.8, -202920.64, 0.0, 9.998024, 9.999602 
2.024982e+3, 3.057671e+2, -301875.94, -71865.91, 30719.715, -0.08973992, 0.32893994, -67833.73, -67833.73, 0.0, 9.997607, 10.00066 
2.0249651e+3, 3.157676e+2, -370201.53, -99204.305, -60631.74, -0.06377505, 0.3105214, -86257.37, -86257.37, 0.0, 9.9971285, 10.000695 
2.0353067e+3, 1.258039e+2, -1305885.6, -1672543.3, -35869.49, 0.015367617, 0.18890436, -1302409.6, 404729.9, 0.18806621, 10.0042715, 9.998287 
2.0352884e+3, 1.3580184e+2, -1296052.1, -1686906.6, -13784.692, 0.018617561, 0.19492419, -1295566.5, 313593.63, 0.13476127, 10.003608, 9.997782 
2.0352696e+3, 1.4579947e+2, -1190046.5, -1562785.4, -4486.801, -0.059070244, 0.1713013, -1189992.5, 321191.38, 0.08094294, 10.003385, 9.998065 
2.0352517e+3, 1.557976e+2, -1084788.8, -1483738.0, -6894.273, -0.031723384, 0.18059391, -1084669.6, 328533.03, 0.03773951, 10.003394, 9.997931 
2.0352337e+3, 1.6579586e+2, -1009794.7, -1370185.8, -20936.09, -0.013413544, 0.2065166, -1008582.56, 306638.28, 0.012072378, 10.00304, 9.998207 
2.035215e+3, 1.757943e+2, -1003217.56, -1327931.8, -21064.242, -0.025868278, 0.22993779, -1001856.8, 215380.72, 0.0019321509, 10.002434, 9.998117 
2.0351969e+3, 1.8579268e+2, -939360.56, -1208979.6, -13465.667, -0.024208972, 0.24515806, -938689.7, 180565.53, 0.000042609576, 10.002033, 9.998454 
2.0351791e+3, 1.9579123e+2, -882982.9, -1141616.8, -16377.489, -0.0038511897, 0.2547149, -881949.9, 139321.56, 0.0, 10.001792, 9.998362 
2.035161e+3, 2.0578997e+2, -813019.06, -1009754.56, -22836.322, -0.0063562985, 0.27596676, -810403.06, 112882.78, 0.0, 10.001393, 9.998787 
2.0351426e+3, 2.15789e+2, -795353.6, -958241.56, -26935.885, -0.028631048, 0.3010304, -791014.94, 34282.24, 0.0, 10.0008745, 9.998717 
2.0351245e+3, 2.2578819e+2, -717794.3, -807220.06, -24920.615, -0.021494428, 0.3252183, -711318.56, 15987.7705, 0.0, 10.000463, 9.99928 
2.0351069e+3, 2.3578766e+2, -676385.8, -747987.8, -22486.752, 0.008978615, 0.3438992, -669909.56, -40597.285, 0.0, 10.000124, 9.999177 
2.0350885e+3, 2.4578676e+2, -608857.6, -641626.9, -33468.84, -0.0025755134, 0.3338123, -587978.06, -56656.824, 0.0, 9.999818, 9.999381 
2.0350698e+3, 2.5578582e+2, -557431.1, -575779.3, -37422.715, -0.04677319, 0.3014862, -528074.4, -94743.92, 0.0, 9.999539, 9.999294 
2.0350516e+3, 2.6578537e+2, -485002.44, -448036.2, -24249.902, -0.06810922, 0.31304413, -436028.6, -100693.766, 0.0, 9.999184, 9.999668 
2.0350336e+3, 2.7578536e+2, -456315.53, -395130.0, -21327.129, -0.069596894, 0.34571812, -388429.8, -151095.2, 0.0, 9.998758, 9.999563 
2.0350158e+3, 2.8578487e+2, -387244.9, -267449.56, -19105.299, -0.042822044, 0.3281017, -264476.38, -125137.92, 0.0, 9.998374, 9.999951 
2.0349982e+3, 2.9578447e+2, -341716.13, -200457.39, -8353.474, -0.002331968, 0.2933111, -199965.11, -158624.16, 0.0, 9.998037, 9.999902 
2.0349787e+3, 3.0578366e+2, -318129.34, -108059.74, 10756.765, -0.16755594, 0.19910917, -107510.37, -107510.37, 0.0, 9.997615, 10.000409 
2.0349628e+3, 3.1578502e+2, -305599.53, 32803.516, -41270.516, 0.0018308677, 0.3006387, 37764.02, 37764.02, 0.0, 9.997133, 10.001602 
2.0453107e+3, 1.2582174e+2, -1414667.4, -1724741.6, -40338.23, 0.035276525, 0.17605513, -1409505.6, 297460.03, 0.19504677, 10.003357, 9.9983225 
2.0452918e+3, 1.3582025e+2, -1262183.5, -1656512.9, 1074.5269, -0.015520413, 0.23051327, -1262180.6, 346800.13, 0.14004348, 10.00385, 9.997873 
2.0452729e+3, 1.458177e+2, -1153202.9, -1543286.4, 4556.7363, -0.072073735, 0.18604138, -1153149.6, 357856.38, 0.084381156, 10.003674, 9.998058 
2.045255e+3, 1.5581577e+2, -1145880.3, -1515187.8, -3083.1313, -0.017237721, 0.18887794, -1145854.5, 267170.84, 0.039549183, 10.002969, 9.997918 
2.0452365e+3, 1.6581392e+2, -1068483.9, -1399936.0, -14782.934, -0.002932626, 0.20614652, -1067825.9, 247218.3, 0.012775173, 10.002641, 9.998195 
2.0452176e+3, 1.7581223e+2, -980663.7, -1319014.0, -13021.489, -0.038480695, 0.21733744, -980163.25, 236898.7, 0.0020902138, 10.002599, 9.998098 
2.0451988e+3, 1.8581063e+2, -915708.75, -1202372.1, -7129.4023, -0.03665882, 0.23724422, -915531.56, 203547.86, 0.00004822457, 10.002217, 9.99841 
2.0451808e+3, 1.9580929e+2, -916549.94, -1161979.4, -7428.646, -0.00027031917, 0.26457563, -916325.25, 104769.23, 0.0, 10.001581, 9.998321 
2.0451622e+3, 2.0580797e+2, -843827.06, -1028731.0, -6018.936, -0.0031916013, 0.28331327, -843631.3, 79478.22, 0.0, 10.001203, 9.998747 
2.0451434e+3, 2.1580678e+2, -778467.0, -954615.9, -5315.9136, -0.03810047, 0.2907902, -778306.75, 46816.203, 0.0, 10.001013, 9.998675 
2.045125e+3, 2.2580597e+2, -701160.3, -802785.25, -9826.399, -0.030765686, 0.31898063, -700218.9, 26913.377, 0.0, 10.000595, 9.999246 
2.0451069e+3, 2.358056e+2, -695038.4, -760392.0, -15948.983, 0.010169063, 0.35809594, -691353.9, -62217.05, 0.0, 10.000013, 9.999144 
2.0450883e+3, 2.4580473e+2, -634003.4, -657035.4, -18013.969, 0.0031903652, 0.35281348, -624138.94, -92993.08, 0.0, 9.9996605, 9.99935 
2.0450693e+3, 2.5580367e+2, -568611.44, -583690.94, -15281.342, -0.0409751, 0.31273177, -559111.0, -125954.71, 0.0, 9.9994755, 9.9992695 
2.0450507e+3, 2.6580316e+2, -490660.84, -445180.06, -9363.966, -0.06335803, 0.3170225, -443327.56, -108166.45, 0.0, 9.999124, 9.999716 
2.0450322e+3, 2.7580315e+2, -470497.63, -395785.5, -10459.618, -0.064889856, 0.34643698, -394348.78, -157188.27, 0.0, 9.998638, 9.999616 
2.0450142e+3, 2.8580275e+2, -396070.63, -258385.53, -9870.016, -0.032122817, 0.32928005, -257681.6, -118518.4, 0.0, 9.998258, 10.000069 
2.0449963e+3, 2.9580247e+2, -345402.25, -187384.67, -11345.762, 0.014626243, 0.29180005, -186574.2, -145409.69, 0.0, 9.99795, 10.000032 
2.044976e+3, 3.058017e+2, -377900.5, -162053.0, -10585.089, -0.17787299, 0.20725325, -161535.14, -161535.14, 0.0, 9.997316, 10.00018 
2.0449603e+3, 3.1580284e+2, -361984.78, 61435.72, -11496.155, 0.059027817, 0.3091686, 61747.617, 61747.617, 0.0, 9.996508, 10.002099 
2.0553142e+3, 1.2583952e+2, -1408729.5, -1706426.4, -28034.025, 0.037110176, 0.15176173, -1406112.5, 300680.0, 0.20235506, 10.003374, 9.998437 
2.0552954e+3, 1.3583888e+2, -1250328.1, -1620624.9, 15269.08, -0.031410754, 0.26471362, -1249699.5, 359099.3, 0.14558923, 10.003841, 9.998125 
2.0552766e+3, 1.4583634e+2, -1160165.4, -1554193.9, -19702.71, -0.06656198, 0.21117447, -1159182.6, 351641.6, 0.088007055, 10.003662, 9.997992 
2.055258e+3, 1.5583424e+2, -1149441.9, -1523911.6, -25910.803, -0.014569806, 0.20639554, -1147657.5, 265187.66, 0.041472405, 10.0029745, 9.997858 
2.0552392e+3, 1.6583225e+2, -1066363.3, -1397133.5, -15288.222, 0.0033082839, 0.20920135, -1065658.1, 249207.22, 0.013533407, 10.002647, 9.998212 
2.0552202e+3, 1.7583032e+2, -980149.9, -1318366.3, -15206.847, -0.017829178, 0.19689359, -979467.5, 237417.28, 0.002268335, 10.002599, 9.998104 
2.0552012e+3, 1.8582878e+2, -916212.2, -1203882.4, -30076.486, -0.026883671, 0.22268151, -913101.25, 205800.22, 0.000056267494, 10.002216, 9.998402 
2.0551822e+3, 1.9582774e+2, -915757.06, -1162555.1, -28639.209, -0.021479681, 0.2791658, -912477.25, 108436.47, 0.0, 10.001589, 9.998315 
2.0551634e+3, 2.0582639e+2, -840595.8, -1024298.94, -12047.936, -0.013419608, 0.29545155, -839809.0, 83119.62, 0.0, 10.00121, 9.998775 
2.0551448e+3, 2.1582498e+2, -777867.44, -953637.8, -12026.968, -0.006498726, 0.27675667, -777048.3, 47895.63, 0.0, 10.001011, 9.998684 
2.0551257e+3, 2.2582394e+2, -712179.06, -826474.56, -30542.943, -0.02154879, 0.29184663, -704529.2, 22426.291, 0.0, 10.000596, 9.9990835 
2.0551062e+3, 2.358234e+2, -703871.75, -781060.5, -35201.465, -0.050581034, 0.32824236, -690229.5, -61267.008, 0.0, 10.000021, 9.999 
2.0550877e+3, 2.458228e+2, -628654.2, -648347.7, -24409.385, -0.031401064, 0.35372263, -612180.3, -81211.164, 0.0, 9.999669, 9.999407 
2.0550694e+3, 2.5582233e+2, -564061.2, -576383.0, -22606.781, 0.020764418, 0.36699885, -546790.8, -113816.96, 0.0, 9.999481, 9.999318 
2.0550503e+3, 2.6582155e+2, -491274.9, -447826.7, -27938.115, -0.008193308, 0.3415854, -434160.47, -99179.234, 0.0, 9.999127, 9.999698 
2.0550305e+3, 2.7582064e+2, -469670.63, -396662.13, -28599.85, -0.09121371, 0.2828184, -386792.78, -149803.88, 0.0, 9.998646, 9.999607 
2.0550121e+3, 2.858204e+2, -396253.63, -261704.89, -22399.621, -0.06289574, 0.28345048, -258073.8, -119083.39, 0.0, 9.998267, 10.000043 
2.0549944e+3, 2.9582095e+2, -345583.3, -192840.36, -25107.012, 0.029658195, 0.33212468, -188819.27, -147834.55, 0.0, 9.997968, 9.999988 
2.0549741e+3, 3.0582118e+2, -394561.16, -195734.61, -46933.73, -0.11782911, 0.36346123, -185212.56, -185212.56, 0.0, 9.9973135, 9.999949 
2.0549563e+3, 3.158199e+2, -372819.38, 38420.617, 15790.406, 0.024055792, 0.24307343, 39026.03, 39026.03, 0.0, 9.996504, 10.0019455 
2.0653173e+3, 1.2585816e+2, -1345350.3, -1680008.1, -4297.5894, 0.010425364, 0.1692429, -1345295.1, 361315.88, 0.20991808, 10.0039835, 9.998367 
2.065299e+3, 1.3585745e+2, -1290015.5, -1628175.4, 30430.053, -0.035027333, 0.26341873, -1287299.0, 321318.66, 0.15135299, 10.00348, 9.998249 
2.0652802e+3, 1.458549e+2, -1215709.9, -1576105.3, -12942.909, -0.04536991, 0.20079787, -1215245.6, 295397.22, 0.09180123, 10.003226, 9.998051 
2.065261e+3, 1.5585306e+2, -1114912.0, -1500997.8, -11619.745, -0.018923473, 0.21637043, -1114562.6, 298098.88, 0.043505892, 10.003204, 9.997904 
2.065242e+3, 1.6585116e+2, -1027535.6, -1378795.0, 4421.6626, -0.006080889, 0.22664993, -1027479.94, 287200.72, 0.014349492, 10.002922, 9.998205 
2.0652229e+3, 1.7584923e+2, -1004308.94, -1330523.1, 3013.8027, -0.0123630185, 0.2132117, -1004281.06, 212419.14, 0.0024691073, 10.002436, 9.998097 
2.0652033e+3, 1.8584755e+2, -933785.75, -1214694.6, -17863.754, -0.02150877, 0.22859734, -932654.3, 186063.52, 0.00006770486, 10.00211, 9.998378 
2.0651838e+3, 1.9584632e+2, -872882.94, -1144485.6, -18910.34, -0.029844312, 0.26815516, -871572.6, 149159.02, 0.0, 10.001896, 9.99829 
2.0651646e+3, 2.0584495e+2, -809510.5, -1010768.94, -4811.443, -0.021485236, 0.2858596, -809395.5, 113350.92, 0.0, 10.001431, 9.99876 
2.0651458e+3, 2.1584366e+2, -811749.3, -971048.4, -8708.889, -0.0021101264, 0.28080037, -811274.6, 13485.906, 0.0, 10.000786, 9.998671 
2.0651262e+3, 2.2584261e+2, -734979.5, -836835.5, -18607.441, -0.017193338, 0.2927326, -731686.6, -4914.411, 0.0, 10.000441, 9.999086 
2.0651065e+3, 2.358419e+2, -661640.8, -760712.75, -12374.089, -0.056114253, 0.31537664, -660118.7, -31338.36, 0.0, 10.000314, 9.998997 
2.0650874e+3, 2.4584125e+2, -595425.06, -632984.9, -704.54205, -0.036138162, 0.335557, -595411.8, -64624.4, 0.0, 9.999902, 9.999398 
2.0650688e+3, 2.5584078e+2, -594368.75, -591137.75, -3976.7153, 0.02513262, 0.3493738, -588460.9, -155668.7, 0.0, 9.999277, 9.999313 
2.0650493e+3, 2.6584008e+2, -532670.8, -464494.88, -8525.672, 0.0039508627, 0.33350977, -463444.88, -128646.15, 0.0, 9.998831, 9.999725 
2.0650293e+3, 2.758394e+2, -488009.63, -403802.25, -6176.6816, -0.07081666, 0.29172766, -403351.6, -166546.63, 0.0, 9.998514, 9.999621 
2.0650105e+3, 2.8583908e+2, -430245.6, -292876.16, -3573.32, -0.05564602, 0.29047984, -292783.28, -153975.58, 0.0, 9.998099, 9.999909 
2.0649919e+3, 2.9583925e+2, -411627.78, -238899.95, -16302.06, 0.005447834, 0.32057437, -237374.83, -196569.3, 0.0, 9.997581, 9.999856 
2.0649719e+3, 3.0583975e+2, -411048.13, -208931.16, -38328.42, -0.06568806, 0.38362703, -201906.86, -201906.86, 0.0, 9.997227, 9.999899 
2.0649529e+3, 3.158379e+2, -300383.13, 54946.918, 65544.38, 0.009376696, 0.21186711, 66651.71, 66651.71, 0.0, 9.997079, 10.001783 
2.0753208e+3, 1.2587756e+2, -1360214.8, -1704726.0, -16334.426, -0.04458751, 0.22317177, -1359442.0, 346979.84, 0.21765979, 10.003986, 9.998153 
2.0753025e+3, 1.35876e+2, -1290551.0, -1625757.4, 16128.286, -0.031468548, 0.23475082, -1289776.8, 318659.72, 0.15728052, 10.003486, 9.998261 
2.0752837e+3, 1.4587347e+2, -1206779.5, -1554929.9, -13365.781, -0.015124582, 0.16507752, -1206267.1, 304194.22, 0.095732905, 10.003232, 9.998195 
2.0752642e+3, 1.5587215e+2, -1106813.6, -1483203.0, -12877.633, -0.031764895, 0.21762297, -1106373.6, 306101.34, 0.04563651, 10.003206, 9.998027 
2.0752446e+3, 1.6587055e+2, -1028824.94, -1381655.3, -13074.374, -0.030744532, 0.25357127, -1028341.1, 286150.2, 0.015219454, 10.002922, 9.998187 
2.0752251e+3, 1.7586882e+2, -1005441.7, -1333361.5, -13379.524, -0.021514142, 0.262192, -1004896.7, 211612.4, 0.0026920678, 10.002436, 9.99808 
2.0752056e+3, 1.8586686e+2, -937771.75, -1223048.4, -24861.549, -0.021627229, 0.2536204, -935621.3, 182907.77, 0.00008301991, 10.002107, 9.9983225 
2.0751855e+3, 1.9586499e+2, -877215.8, -1153545.1, -26868.271, -0.027488003, 0.23447895, -874627.56, 145920.9, 0.0, 10.001894, 9.99823 
2.075166e+3, 2.0586361e+2, -813403.44, -1019723.3, -27964.73, -0.028136073, 0.25663754, -809680.25, 112883.13, 0.0, 10.001433, 9.998699 
2.0751463e+3, 2.1586277e+2, -814434.4, -977862.56, -29782.51, -0.024971148, 0.30208018, -809176.06, 15397.395, 0.0, 10.000789, 9.998624 
2.0751268e+3, 2.2586183e+2, -723731.06, -815302.56, -22145.113, -0.018421823, 0.32085776, -718656.8, 7926.689, 0.0, 10.000445, 9.999232 
2.0751072e+3, 2.3586102e+2, -652564.44, -742996.75, -17475.033, -0.009141282, 0.3179104, -649305.06, -20713.518, 0.0, 10.000316, 9.999119 
2.0750874e+3, 2.4585997e+2, -600655.5, -644730.75, -23884.992, -0.013144607, 0.29815271, -590194.7, -59592.74, 0.0, 9.999904, 9.999319 
2.0750676e+3, 2.5585893e+2, -598269.44, -600934.94, -26630.37, -0.028922375, 0.26194617, -572938.44, -140326.25, 0.0, 9.999282, 9.999246 
2.0750478e+3, 2.658587e+2, -527505.25, -455652.9, -21002.453, -0.026194843, 0.2940542, -449964.25, -115349.48, 0.0, 9.9988365, 9.9997835 
2.0750286e+3, 2.7585927e+2, -484048.28, -398788.2, -18693.799, -0.0034572806, 0.3707661, -394869.56, -158259.33, 0.0, 9.998526, 9.999652 
2.0750087e+3, 2.858586e+2, -447531.88, -331397.94, -24943.328, -0.012783411, 0.3491806, -326267.28, -187650.7, 0.0, 9.998108, 9.999642 
2.0749888e+3, 2.9585737e+2, -427395.22, -274391.34, -38079.063, -0.06568712, 0.25935107, -265438.25, -224809.95, 0.0, 9.997588, 9.99961 
2.0749694e+3, 3.0585718e+2, -399256.56, -184496.81, -47583.598, -0.016679479, 0.2611729, -174426.13, -174426.13, 0.0, 9.997228, 10.000067 
2.0749502e+3, 3.1585854e+2, -319636.97, 8868.884, 39985.367, 0.015795879, 0.39751515, 13665.812, 13665.812, 0.0, 9.997101, 10.001458 
2.085325e+3, 1.2589711e+2, -1337556.6, -1713079.1, 7831.922, -0.04978811, 0.23056236, -1337393.4, 368837.34, 0.22552472, 10.004326, 9.997929 
2.0853059e+3, 1.3589552e+2, -1268693.9, -1618558.8, 30575.805, -0.05278381, 0.24538669, -1266041.9, 342204.38, 0.16332942, 10.003714, 9.998203 
2.0852868e+3, 1.4589308e+2, -1196500.5, -1548515.0, 9794.45, -0.019327214, 0.18739463, -1196228.3, 314042.03, 0.099770404, 10.003321, 9.998195 
2.0852673e+3, 1.5589155e+2, -1115527.0, -1486535.5, 2642.298, -0.030178024, 0.22078553, -1115508.1, 296777.22, 0.04784339, 10.003148, 9.998031 
2.0852473e+3, 1.6588992e+2, -1041498.94, -1386915.4, -11775.015, -0.031186178, 0.2527496, -1041098.0, 273203.97, 0.016132781, 10.002834, 9.998193 
2.0852275e+3, 1.758883e+2, -1009333.1, -1335179.9, -12082.491, -0.027150579, 0.27351105, -1008885.75, 207432.92, 0.002933817, 10.00241, 9.99808 
2.0852076e+3, 1.8588634e+2, -951163.1, -1233408.1, -16155.851, -0.022482133, 0.2647015, -950241.4, 168097.4, 0.00010212097, 10.002032, 9.998288 
2.0851874e+3, 1.958843e+2, -909282.9, -1171910.5, -17797.107, -0.017031033, 0.23406106, -908082.4, 112276.97, 0.0, 10.001688, 9.998202 
2.0851672e+3, 2.0588289e+2, -826540.7, -1023275.5, -22664.918, -0.020137202, 0.25209934, -823963.3, 98410.97, 0.0, 10.001334, 9.99872 
2.0851469e+3, 2.158821e+2, -787175.1, -963056.7, -18799.658, -0.029455848, 0.30084077, -785188.1, 39195.414, 0.0, 10.000973, 9.998635 
2.0851272e+3, 2.2588108e+2, -716582.0, -819776.6, -11279.601, -0.016480252, 0.31744114, -715363.5, 11030.581, 0.0, 10.000532, 9.999159 
2.0851074e+3, 2.3588014e+2, -697436.06, -770445.3, -23908.877, 0.013303558, 0.30653366, -690303.3, -61899.49, 0.0, 10.000036, 9.9990635 
2.0850874e+3, 2.4587911e+2, -637960.44, -646334.75, -34112.688, 0.0045534815, 0.28467035, -607778.9, -77365.24, 0.0, 9.999579, 9.999462 
2.0850666e+3, 2.5587824e+2, -608692.75, -592146.6, -19793.271, -0.033022225, 0.25305462, -578967.0, -146545.38, 0.0, 9.999153, 9.999367 
2.0850466e+3, 2.6587805e+2, -544172.4, -473064.53, -6897.53, -0.02512991, 0.28642437, -472401.66, -137977.23, 0.0, 9.998764, 9.999699 
2.0850274e+3, 2.7587852e+2, -508029.5, -417646.22, -15748.254, 0.020547409, 0.36127105, -414980.84, -178558.89, 0.0, 9.998394, 9.999584 
2.0850071e+3, 2.8587806e+2, -454444.22, -316114.9, -12522.812, -0.0010507326, 0.35409912, -314990.38, -176564.05, 0.0, 9.997981, 9.999808 
2.0849861e+3, 2.9587722e+2, -429022.25, -262466.56, 6936.415, -0.08474953, 0.29311368, -262178.2, -221745.16, 0.0, 9.997522, 9.999724 
2.084967e+3, 3.0587608e+2, -423198.5, -230324.92, 119.220146, 0.012653687, 0.20782648, -230324.84, -230324.84, 0.0, 9.9972105, 9.999761 
2.0849468e+3, 3.1587803e+2, -344366.06, -1403.6455, 15413.354, -0.018641466, 0.43136588, -712.33484, -712.33484, 0.0, 9.996926, 10.001471 
2.0953296e+3, 1.2591682e+2, -1354081.3, -1749545.6, -3352.0847, -0.01572587, 0.19579233, -1354052.9, 351984.72, 0.23349412, 10.004333, 9.997677 
2.095309e+3, 1.3591585e+2, -1279833.3, -1642431.0, 11750.286, -0.09831044, 0.28881025, -1279452.9, 328595.53, 0.16947927, 10.003722, 9.998034 
2.0952898e+3, 1.4591353e+2, -1203654.8, -1564126.5, 3467.4268, -0.056064278, 0.25816077, -1203621.5, 306449.75, 0.103889376, 10.003328, 9.998085 
2.0952705e+3, 1.5591125e+2, -1121601.8, -1499398.5, -3122.9578, -0.016647032, 0.22568645, -1121575.9, 290517.03, 0.050104514, 10.00315, 9.997942 
2.0952505e+3, 1.6590929e+2, -1041507.4, -1387151.3, -26441.213, -0.0117959585, 0.22853133, -1039496.4, 274616.13, 0.017076368, 10.002834, 9.998193 
2.0952298e+3, 1.759077e+2, -1008946.1, -1336164.0, -26590.783, -0.031792115, 0.2517809, -1006799.4, 209329.66, 0.0031894369, 10.002416, 9.998072 
2.0952095e+3, 1.8590592e+2, -951423.06, -1235656.0, -28041.326, -0.025301313, 0.263257, -948683.0, 169464.27, 0.00012447778, 10.002037, 9.998271 
2.0951894e+3, 1.9590418e+2, -910081.7, -1173936.4, -29203.664, 0.00024229848, 0.26343858, -906888.06, 113276.95, 0.0, 10.001687, 9.99819 
2.095169e+3, 2.059027e+2, -819839.6, -1010136.1, -35098.95, 0.0006519979, 0.27034938, -813572.25, 108607.77, 0.0, 10.001335, 9.998812 
2.0951483e+3, 2.1590158e+2, -782706.7, -954923.3, -30979.69, -0.017644785, 0.278494, -777303.4, 46887.965, 0.0, 10.000975, 9.998692 
2.0951277e+3, 2.2590032e+2, -736733.3, -862985.94, -28722.16, -0.012160884, 0.28385648, -730506.2, -4301.538, 0.0, 10.000535, 9.998861 
2.0951074e+3, 2.3589917e+2, -713992.0, -806058.8, -40893.34, 0.010651272, 0.28196326, -698451.56, -70233.78, 0.0, 10.000039, 9.998819 
2.0950869e+3, 2.4589859e+2, -612323.44, -594937.06, -49937.805, 0.016474457, 0.29607892, -552941.44, -22718.004, 0.0, 9.999585, 9.999814 
2.0950662e+3, 2.5589862e+2, -586439.94, -548580.6, -35663.004, 0.010259545, 0.32031778, -527134.75, -94912.984, 0.0, 9.999162, 9.999663 
2.0950456e+3, 2.65898e+2, -559295.44, -506944.25, -21768.494, 0.0046676663, 0.308033, -499075.34, -164846.25, 0.0, 9.998773, 9.999463 
2.0950253e+3, 2.7589697e+2, -518093.84, -441691.97, -30621.81, -0.0004366108, 0.26162407, -430933.66, -194692.23, 0.0, 9.998405, 9.999414 
2.0950049e+3, 2.858973e+2, -412080.63, -229509.27, -31322.447, -0.02026675, 0.30723354, -224285.0, -86046.98, 0.0, 9.997985, 10.000402 
2.0949839e+3, 2.9589888e+2, -395585.78, -194391.53, -10460.64, -0.051236268, 0.42583275, -193849.11, -153628.64, 0.0, 9.997526, 10.000192 
2.0949644e+3, 3.0589622e+2, -480675.4, -352060.25, -10072.685, 0.01797148, 0.21315019, -351276.2, -351276.2, 0.0, 9.997218, 9.998922 
2.0949437e+3, 3.1589606e+2, -297773.16, 90532.8, -56026.168, -0.02195997, 0.30594763, 98454.83, 98454.83, 0.0, 9.996947, 10.002092 
2.1053338e+3, 1.2593725e+2, -1342530.0, -1749127.8, 3118.7256, -0.039073054, 0.20998289, -1342506.0, 363331.78, 0.24158992, 10.004513, 9.997591 
2.105313e+3, 1.35936e+2, -1238860.3, -1630587.4, 13056.969, -0.093572155, 0.28836083, -1238425.5, 369425.72, 0.17572571, 10.004144, 9.9979105 
2.1052934e+3, 1.4593373e+2, -1164592.5, -1548290.0, 13056.434, -0.04654509, 0.26997325, -1164148.8, 345724.94, 0.108068846, 10.003669, 9.998029 
2.1052738e+3, 1.5593128e+2, -1121994.9, -1503426.5, 8803.917, -0.018567275, 0.22415553, -1121791.8, 290105.25, 0.05239727, 10.003172, 9.997903 
2.1052532e+3, 1.6592927e+2, -1048186.5, -1392207.0, -13932.344, -0.011623374, 0.22666624, -1047623.2, 266293.78, 0.018035803, 10.002798, 9.998175 
2.1052325e+3, 1.7592776e+2, -996072.3, -1330857.1, -15234.708, -0.019993484, 0.26041046, -995380.5, 220552.33, 0.0034529725, 10.002511, 9.998061 
2.1052116e+3, 1.8592598e+2, -936217.75, -1221121.3, -15887.768, -0.017662743, 0.2684214, -935334.5, 182616.31, 0.00014922666, 10.002113, 9.998333 
2.1051909e+3, 1.9592416e+2, -913999.6, -1170016.9, -12080.349, -0.007856147, 0.2554519, -913430.8, 106537.766, 0.0, 10.001637, 9.99824 
2.1051702e+3, 2.0592265e+2, -832136.06, -1022289.4, -18288.135, -0.0016491801, 0.2599264, -830393.2, 91590.68, 0.0, 10.00128, 9.9987545 
2.1051492e+3, 2.159215e+2, -781813.2, -960100.0, -26714.625, 0.0017057515, 0.2716904, -777896.3, 46099.33, 0.0, 10.001007, 9.99864 
2.1051285e+3, 2.2592026e+2, -730296.06, -856831.25, -22511.508, 0.0029141537, 0.27667522, -726410.44, -401.27097, 0.0, 10.000568, 9.998886 
2.1051075e+3, 2.359191e+2, -716779.6, -804946.44, -11277.53, 0.0031373664, 0.2739274, -715359.94, -87337.875, 0.0, 10.000012, 9.998837 
2.1050864e+3, 2.4591862e+2, -619132.9, -601455.5, -21876.346, 0.014159964, 0.2980675, -586699.75, -56672.46, 0.0, 9.999555, 9.999783 
2.1050657e+3, 2.559188e+2, -587958.9, -551120.0, -36143.523, 0.033700198, 0.33928752, -528973.06, -96948.01, 0.0, 9.999162, 9.999645 
2.1050447e+3, 2.659182e+2, -564152.56, -489146.84, -18076.402, 0.020811873, 0.32120442, -485017.72, -150985.72, 0.0, 9.998653, 9.999641 
2.1050234e+3, 2.759171e+2, -556011.0, -440724.88, 4030.8274, -0.01644649, 0.25180483, -440584.1, -204539.92, 0.0, 9.998064, 9.999585 
2.1050027e+3, 2.859176e+2, -437419.72, -231388.03, 2458.558, -0.024928907, 0.30008692, -231358.7, -93319.375, 0.0, 9.997767, 10.000493 
2.104982e+3, 2.9591954e+2, -367867.13, -174096.28, -15067.27, -0.00555455, 0.44701868, -172931.67, -132912.95, 0.0, 9.997688, 10.000252 
2.1049611e+3, 3.0591682e+2, -475678.44, -343562.34, -1144.3859, -0.0044416105, 0.2262821, -343552.44, -343552.44, 0.0, 9.997227, 9.998977 
2.1049401e+3, 3.1591675e+2, -357481.6, 112087.52, -11180.491, -0.020524647, 0.31865454, 112353.58, 112353.58, 0.0, 9.996325, 10.002539 
2.1153377e+3, 1.259583e+2, -1343868.3, -1739381.5, -597.4368, -0.11149756, 0.26404503, -1343867.4, 361764.88, 0.24984622, 10.004501, 9.9976635 
2.1153176e+3, 1.3595606e+2, -1246497.4, -1642644.6, 1132.0588, -0.04662265, 0.24971378, -1246494.1, 361160.34, 0.18206032, 10.004142, 9.9978285 
2.1152976e+3, 1.4595371e+2, -1167512.4, -1553120.4, -3953.2292, 0.00040506243, 0.23130049, -1167471.9, 342205.44, 0.11228076, 10.003674, 9.997994 
2.1152766e+3, 1.5595157e+2, -1123434.1, -1507099.0, -8043.454, -0.037067253, 0.21762481, -1123265.5, 288432.5, 0.05469549, 10.003178, 9.997877 
2.1152559e+3, 1.6594978e+2, -1050072.3, -1396829.4, -23991.488, -0.030248921, 0.24465878, -1048420.1, 265296.06, 0.01899568, 10.002801, 9.998142 
2.1152352e+3, 1.7594843e+2, -996962.1, -1333285.1, -25423.863, 0.006632589, 0.2957144, -995051.06, 220679.89, 0.0037182553, 10.002512, 9.998045 
2.1152139e+3, 1.8594643e+2, -926984.56, -1202974.8, -32903.086, -0.0015194349, 0.27913564, -923116.1, 194634.0, 0.00017539466, 10.002115, 9.998458 
2.1151921e+3, 1.9594423e+2, -906396.75, -1155995.1, -27863.486, -0.041097637, 0.21375786, -903324.1, 116446.41, 0.00000000000010610821, 10.001643, 9.998336 
2.1151711e+3, 2.0594269e+2, -845973.94, -1052888.1, -27275.613, -0.025954584, 0.22316007, -842438.9, 79347.484, 0.0, 10.001285, 9.998543 
2.1151504e+3, 2.1594179e+2, -793604.6, -984509.4, -35968.8, 0.027042542, 0.27978286, -787052.56, 36744.73, 0.0, 10.001004, 9.998475 
2.1151291e+3, 2.2594075e+2, -707696.7, -810387.56, -42144.34, 0.02687325, 0.29623938, -692615.5, 33192.97, 0.0, 10.000568, 9.999207 
2.1151072e+3, 2.3593979e+2, -697704.3, -767269.44, -30579.0, -0.010258365, 0.2813425, -686173.8, -58355.887, 0.0, 10.000018, 9.999095 
2.1150859e+3, 2.4593903e+2, -647030.5, -661021.2, -36509.934, -0.0026166588, 0.28856143, -616851.8, -87025.25, 0.0, 9.999559, 9.9993725 
2.1150647e+3, 2.559386e+2, -610218.7, -599466.06, -51630.934, 0.036722686, 0.30969718, -552932.3, -121099.72, 0.0, 9.999168, 9.9993105 
2.1150433e+3, 2.6593852e+2, -522374.94, -404690.38, -41188.906, 0.023136133, 0.32853794, -391706.9, -57872.867, 0.0, 9.998661, 10.000219 
2.1150215e+3, 2.7593875e+2, -519111.72, -366989.44, -17813.162, -0.03061899, 0.33329046, -364931.4, -129100.12, 0.0, 9.998073, 10.000089 
2.1150005e+3, 2.859387e+2, -465828.53, -291994.44, -1975.3953, -0.017267393, 0.32895964, -291972.0, -154140.16, 0.0, 9.997773, 10.000075 
2.1149802e+3, 2.9593894e+2, -390003.3, -224107.33, -19904.795, 0.054504234, 0.3450545, -221752.5, -181922.34, 0.0, 9.997703, 9.999903 
2.1149577e+3, 3.0593795e+2, -408094.8, -205218.23, -34404.445, -0.060478386, 0.26531827, -199542.61, -199542.61, 0.0, 9.997233, 9.999925 
2.1149366e+3, 3.1593904e+2, -348257.75, 132960.4, -30569.205, -0.021505412, 0.37431172, 134894.53, 134894.53, 0.0, 9.996317, 10.0026865 
2.125342e+3, 1.2597893e+2, -1344723.6, -1722208.5, 4879.066, -0.12160066, 0.2609577, -1344660.6, 360769.75, 0.25824624, 10.004463, 9.9978 
2.125322e+3, 1.3597664e+2, -1249534.6, -1642606.0, 2506.6025, -0.01824794, 0.23927148, -1249518.8, 357933.9, 0.18844107, 10.004141, 9.997828 
2.1253015e+3, 1.4597434e+2, -1162834.3, -1552502.8, -3058.826, 0.01877542, 0.22633821, -1162810.3, 346664.78, 0.11648061, 10.003737, 9.997967 
2.1252798e+3, 1.5597226e+2, -1109281.0, -1501430.9, -6299.4854, -0.03244089, 0.22436033, -1109179.8, 302315.25, 0.05696874, 10.003298, 9.997856 
2.1252586e+3, 1.6597044e+2, -1036914.5, -1387387.4, -15617.896, -0.030718105, 0.24804038, -1036219.94, 277293.63, 0.019941026, 10.002887, 9.998164 
2.1252376e+3, 1.7596896e+2, -997383.94, -1330635.3, -15030.196, 0.006044631, 0.28513592, -996707.44, 218821.97, 0.0039799227, 10.0025, 9.998068 
2.1252161e+3, 1.8596704e+2, -920689.94, -1194421.8, -26837.607, 0.0013618266, 0.27063525, -918083.5, 199464.5, 0.00020211155, 10.002137, 9.998506 
2.125194e+3, 1.9596499e+2, -881198.0, -1138891.3, -28401.64, -0.032153793, 0.21705592, -878104.9, 141461.95, 0.0000000000129771185, 10.001796, 9.998378 
2.1251726e+3, 2.0596349e+2, -835407.2, -1046878.44, -20582.898, -0.02041976, 0.2267868, -833422.44, 88160.01, 0.0, 10.001356, 9.9985485 
2.1251513e+3, 2.1596253e+2, -815819.56, -993598.6, -14910.715, 0.022576656, 0.27807656, -814577.7, 9016.3125, 0.0, 10.000848, 9.9984865 
2.1251297e+3, 2.2596154e+2, -726345.94, -809677.2, -27203.248, 0.025979294, 0.2943178, -718251.7, 7352.8584, 0.0, 10.0004015, 9.999291 
2.1251073e+3, 2.3596068e+2, -695575.7, -757869.0, -33418.656, 0.0019280943, 0.28038162, -681039.5, -53426.605, 0.0, 9.999998, 9.999168 
2.1250854e+3, 2.4595991e+2, -652228.7, -663553.44, -27706.184, 0.0058290157, 0.2860308, -629612.2, -99990.67, 0.0, 9.999525, 9.999371 
2.1250637e+3, 2.5595948e+2, -634804.44, -610694.9, -12778.425, 0.03046551, 0.30627453, -605182.5, -173554.4, 0.0, 9.999, 9.999313 
2.1250418e+3, 2.6595944e+2, -533266.56, -406279.0, -13182.777, 0.016706493, 0.32917413, -404924.94, -71295.836, 0.0, 9.998573, 10.00025 
2.1250196e+3, 2.759598e+2, -497681.4, -352983.1, -30656.674, -0.027152993, 0.3387781, -346755.97, -111130.55, 0.0, 9.998207, 10.000119 
2.1249983e+3, 2.8595975e+2, -467684.28, -287363.16, -5328.2075, 0.0007784405, 0.33164173, -287205.88, -149579.84, 0.0, 9.997739, 10.000122 
2.124978e+3, 2.9596e+2, -455415.6, -245413.06, 11959.417, 0.0901787, 0.34935558, -244734.19, -205110.08, 0.0, 9.997214, 9.99999 
2.1249546e+3, 3.059594e+2, -428397.3, -157465.92, -14579.805, -0.090216845, 0.2725825, -156683.58, -156683.58, 0.0, 9.996847, 10.000438 
2.1249333e+3, 3.1596074e+2, -353767.16, 78112.07, -7962.3213, 0.013912836, 0.36209056, 78258.81, 78258.81, 0.0, 9.996504, 10.002219 
2.135347e+3, 1.2599924e+2, -1341560.4, -1700065.6, -1739.5504, -0.07771481, 0.20849471, -1341551.9, 363679.25, 0.26667964, 10.004448, 9.997971 
2.1353264e+3, 1.359977e+2, -1250418.4, -1638787.6, -8123.323, -0.008017461, 0.25542432, -1250248.5, 356997.66, 0.19478191, 10.004143, 9.997853 
2.1353051e+3, 1.4599548e+2, -1164319.6, -1553812.3, -17917.547, 0.010992276, 0.25131097, -1163497.1, 345770.53, 0.12061246, 10.003741, 9.997957 
2.1352835e+3, 1.5599333e+2, -1110171.6, -1502717.6, -21097.969, -0.007743036, 0.24224156, -1109041.0, 302247.53, 0.05918841, 10.003299, 9.9978485 
2.1352617e+3, 1.6599126e+2, -1033285.0, -1380191.3, -28893.807, -0.016502764, 0.23809017, -1030894.94, 282414.34, 0.020860394, 10.002889, 9.998215 
2.1352397e+3, 1.759894e+2, -994079.56, -1324676.9, -28066.566, -0.021387227, 0.23388068, -991713.75, 223614.34, 0.0042342423, 10.0025015, 9.998109 
2.1352181e+3, 1.8598774e+2, -923020.44, -1200093.8, -38483.934, -0.008935461, 0.24520572, -917774.56, 199570.2, 0.00022873028, 10.002138, 9.998467 
2.1351963e+3, 1.9598638e+2, -882707.8, -1141681.1, -40005.023, 0.015691005, 0.26249367, -876668.8, 142689.48, 0.0000000000136278775, 10.001792, 9.998362 
2.1351741e+3, 2.0598492e+2, -821238.3, -1017815.94, -38342.91, 0.011917624, 0.26886067, -814024.2, 107348.89, 0.0, 10.001354, 9.99875 
2.1351519e+3, 2.1598363e+2, -803294.7, -969067.94, -31797.396, -0.011231603, 0.2663869, -797404.8, 25981.89, 0.0, 10.000851, 9.998654 
2.1351296e+3, 2.259825e+2, -736484.94, -832441.8, -41122.01, 0.0011126638, 0.27006733, -721273.56, 4125.036, 0.0, 10.000406, 9.999133 
2.1351077e+3, 2.3598164e+2, -702906.75, -774197.9, -47653.53, 0.037723187, 0.27176136, -679042.06, -51634.246, 0.0, 10.0, 9.999056 
2.1350852e+3, 2.459812e+2, -624386.94, -607170.94, -47399.027, 0.037560184, 0.29288113, -567604.6, -38191.688, 0.0, 9.999529, 9.999757 
2.1350625e+3, 2.559813e+2, -611681.2, -565219.0, -32182.275, 0.013043331, 0.32811156, -548759.0, -117346.12, 0.0, 9.999008, 9.999623 
2.1350403e+3, 2.6598084e+2, -568018.1, -480415.72, -28120.715, 0.00003917879, 0.32059318, -472165.8, -138747.11, 0.0, 9.99858, 9.999739 
2.1350178e+3, 2.7598003e+2, -525985.3, -414925.53, -46304.703, -0.006773421, 0.26687893, -398152.63, -162724.64, 0.0, 9.998219, 9.999689 
2.1349964e+3, 2.8598052e+2, -432612.1, -217394.48, -27443.496, 0.029510485, 0.30912602, -213950.14, -76527.086, 0.0, 9.997748, 10.0006 
2.1349753e+3, 2.9598263e+2, -418530.25, -172026.33, -7486.8037, 0.09744701, 0.4600882, -171799.14, -132397.16, 0.0, 9.997224, 10.000491 
2.1349514e+3, 3.0598092e+2, -418796.28, -136887.84, -29116.941, -0.09596632, 0.24289209, -133911.9, -133911.9, 0.0, 9.996844, 10.000581 
2.1349297e+3, 3.159824e+2, -436257.78, -97071.25, 50619.35, 0.0063104965, 0.34094775, -89678.086, -89678.086, 0.0, 9.996516, 10.001012 
2.1453516e+3, 1.2602052e+2, -1363987.3, -1702983.5, 9256.345, -0.03722713, 0.22557338, -1363734.6, 341288.53, 0.27495748, 10.00424, 9.998042 
2.1453306e+3, 1.3601884e+2, -1237911.4, -1625365.5, 700.2452, 0.006567602, 0.25814492, -1237910.1, 369128.72, 0.2009637, 10.004257, 9.9978895 
2.1453089e+3, 1.4601651e+2, -1137080.3, -1524432.4, -14392.89, 0.0010514384, 0.23384859, -1136546.1, 372515.0, 0.12461299, 10.003913, 9.998075 
2.1452868e+3, 1.560146e+2, -1100794.6, -1484746.9, -10184.596, 0.00032768177, 0.23742741, -1100524.6, 310554.8, 0.06132628, 10.003321, 9.997959 
2.1452646e+3, 1.660126e+2, -1035498.6, -1376734.9, -10075.645, -0.006171856, 0.23368149, -1035201.4, 277897.97, 0.021743631, 10.002859, 9.99825 
2.1452424e+3, 1.7601067e+2, -993304.94, -1320814.5, -11111.627, -0.022595821, 0.21797808, -992928.4, 222190.63, 0.004478461, 10.002495, 9.998137 
2.1452202e+3, 1.8600908e+2, -930733.56, -1201917.5, -20584.227, -0.00792822, 0.23454702, -929180.0, 187955.3, 0.00025483372, 10.00208, 9.998481 
2.145198e+3, 1.960079e+2, -904367.94, -1149429.5, -19456.156, 0.029475395, 0.27073377, -902832.9, 116314.63, 0.000000000027357056, 10.001636, 9.998383 
2.1451755e+3, 2.0600651e+2, -833420.1, -1012191.25, -22307.557, 0.018299324, 0.27636853, -830678.56, 90483.086, 0.0, 10.0012245, 9.99885 
2.1451525e+3, 2.1600515e+2, -799529.1, -957300.06, -24204.762, -0.026398573, 0.25722927, -795899.2, 27276.266, 0.0, 10.000835, 9.998742 
2.1451299e+3, 2.2600405e+2, -737935.56, -831109.2, -29123.322, -0.012979645, 0.25937587, -729581.5, -4394.4688, 0.0, 10.000389, 9.99915 
2.1451077e+3, 2.3600331e+2, -716421.94, -778483.2, -23449.14, 0.040802907, 0.2723723, -708558.3, -81363.07, 0.0, 9.999901, 9.999074 
2.1450847e+3, 2.4600291e+2, -640854.56, -614582.06, -35448.62, 0.04409337, 0.2960584, -589914.0, -60713.98, 0.0, 9.999416, 9.999759 
2.1450615e+3, 2.5600296e+2, -622167.1, -569773.0, -47985.676, 0.012453671, 0.325399, -541299.1, -110098.8, 0.0, 9.998936, 9.999625 
2.1450388e+3, 2.6600242e+2, -576063.0, -489449.88, -29556.66, 0.00055243034, 0.3142368, -480325.03, -147118.14, 0.0, 9.998548, 9.999691 
2.145016e+3, 2.7600157e+2, -531310.1, -423527.94, -14008.957, 0.005575025, 0.2625766, -421736.9, -186520.11, 0.0, 9.99821, 9.999633 
2.1449941e+3, 2.8600216e+2, -434233.56, -223414.36, -9563.235, 0.035324637, 0.3155638, -222981.45, -85769.805, 0.0, 9.997762, 10.00055 
2.1449724e+3, 2.9600424e+2, -415634.84, -171979.08, -28684.49, 0.07151462, 0.4716625, -168647.72, -129456.96, 0.0, 9.9972515, 10.000477 
2.1449485e+3, 3.060025e+2, -415862.25, -132365.13, -68940.164, -0.06622816, 0.24628066, -116489.445, -116489.445, 0.0, 9.996854, 10.000605 
2.1449263e+3, 3.1600443e+2, -439181.4, -109005.85, 54786.31, 0.01227081, 0.39342567, -100152.51, -100152.51, 0.0, 9.996547, 10.000912 
2.1553563e+3, 1.2604263e+2, -1366620.3, -1704334.3, 8040.625, 0.0027588168, 0.3017894, -1366428.9, 338378.53, 0.28288317, 10.00426, 9.99802 
2.155335e+3, 1.3604012e+2, -1240631.8, -1621242.0, 301.68362, 0.022043673, 0.24844049, -1240631.5, 366198.94, 0.20686193, 10.004237, 9.997928 
2.1553124e+3, 1.4603746e+2, -1127468.3, -1496175.1, -32742.959, -0.013825545, 0.1792715, -1124583.1, 384272.13, 0.12841605, 10.003895, 9.99829 
2.1552901e+3, 1.560361e+2, -1087433.3, -1455687.4, -29346.08, -0.007568123, 0.2134935, -1085109.4, 325758.63, 0.0633528, 10.003326, 9.9981575 
2.1552676e+3, 1.6603443e+2, -1033780.94, -1374774.6, -23058.53, 0.00017347596, 0.2348645, -1032228.75, 280655.8, 0.022580506, 10.002866, 9.998261 
2.1552451e+3, 1.7603265e+2, -992248.25, -1318896.9, -24024.57, -0.00019130108, 0.23450245, -990490.7, 224412.3, 0.004710469, 10.002495, 9.998152 
2.1552224e+3, 1.8603095e+2, -927074.8, -1195281.6, -36026.934, 0.0022866293, 0.23730263, -922319.8, 194600.64, 0.00028024003, 10.002081, 9.998528 
2.1551995e+3, 1.9602954e+2, -899963.7, -1142468.8, -34300.645, 0.010365467, 0.2441206, -895205.5, 123729.43, 0.00000000007381513, 10.001642, 9.998429 
2.1551766e+3, 2.0602818e+2, -832964.75, -1013267.0, -35666.848, -0.0002171964, 0.2509715, -826165.6, 94783.19, 0.0, 10.00123, 9.998841 
2.1551533e+3, 2.16027e+2, -799241.7, -956671.06, -37258.18, -0.024586122, 0.2516554, -790869.25, 32091.785, 0.0, 10.000833, 9.998749 
2.1551304e+3, 2.260261e+2, -725924.6, -806425.94, -46019.93, -0.017821318, 0.2636209, -705036.5, 19934.068, 0.0, 10.000387, 9.999322 
2.1551071e+3, 2.3602557e+2, -706937.4, -760782.06, -40931.72, 0.011207903, 0.28094837, -684867.7, -57891.26, 0.0, 9.999907, 9.999194 
2.155084e+3, 2.4602492e+2, -666012.44, -669047.7, -53914.38, 0.025464261, 0.29320046, -613594.3, -84610.125, 0.0, 9.999424, 9.999383 
2.1550606e+3, 2.5602436e+2, -641779.6, -613379.3, -65641.87, 0.026880493, 0.29888263, -560419.25, -129427.74, 0.0, 9.998945, 9.999323 
2.1550374e+3, 2.6602414e+2, -545410.7, -428613.5, -43101.055, 0.017394267, 0.31108305, -414430.44, -81435.9, 0.0, 9.998558, 10.000105 
2.1550144e+3, 2.760243e+2, -508359.84, -378241.16, -28662.39, 0.008415553, 0.32253355, -372207.25, -137214.02, 0.0, 9.998218, 9.999942 
2.1549916e+3, 2.8602448e+2, -475377.53, -309601.75, -30653.186, 0.015502538, 0.35088846, -304115.3, -167122.33, 0.0, 9.997764, 9.999959 
2.154969e+3, 2.960248e+2, -452872.13, -251592.2, -48279.45, 0.008383653, 0.39124358, -240610.9, -201619.89, 0.0, 9.997259, 9.9999275 
2.154946e+3, 3.0602375e+2, -425015.13, -154165.94, -85268.6, 0.005147809, 0.267934, -129557.555, -129557.555, 0.0, 9.996862, 10.000453 
2.1549226e+3, 3.1602603e+2, -349440.66, 69289.41, 53394.52, -0.011083077, 0.45588592, 75990.78, 75990.78, 0.0, 9.996573, 10.002128 
2.165361e+3, 1.2606446e+2, -1286984.8, -1665075.8, 15842.964, 0.026378209, 0.29317304, -1286322.1, 418270.97, 0.29030612, 10.005071, 9.998007 
2.1653391e+3, 1.3606212e+2, -1282493.0, -1635265.1, 18253.416, 0.040135548, 0.24861136, -1281551.0, 325063.38, 0.21236947, 10.003851, 9.998019 
2.1653162e+3, 1.4605945e+2, -1186386.1, -1519159.9, -4953.5557, -0.01694788, 0.16895811, -1186312.4, 322327.3, 0.13195856, 10.003413, 9.99835 
2.1652934e+3, 1.5605815e+2, -1065254.8, -1438036.6, -12430.106, -0.00642855, 0.20773493, -1064840.8, 345811.1, 0.065238625, 10.003471, 9.998207 
2.1652704e+3, 1.6605665e+2, -995950.4, -1349889.0, -17088.764, 0.006031553, 0.2377759, -995127.25, 317539.97, 0.023361197, 10.00311, 9.998314 
2.1652475e+3, 1.7605501e+2, -990432.4, -1311559.3, -15200.802, 0.0083666975, 0.2457136, -989714.44, 224969.88, 0.0049284077, 10.002482, 9.998206 
2.1652244e+3, 1.860533e+2, -925888.94, -1187520.3, -20531.213, 0.0016582004, 0.24254276, -924287.56, 192414.05, 0.00030483707, 10.002061, 9.998589 
2.1652009e+3, 1.9605179e+2, -876115.06, -1124867.6, -19487.768, -0.0070246714, 0.23476984, -874597.6, 144119.13, 0.000000000201105, 10.001781, 9.998482 
2.1651778e+3, 2.0605049e+2, -819985.75, -1004376.75, -24477.658, -0.010072278, 0.24440739, -816791.7, 103938.45, 0.0, 10.00131, 9.998862 
2.1651544e+3, 2.1604948e+2, -815273.25, -961580.94, -24553.873, -0.010809721, 0.25961706, -811262.5, 11478.3955, 0.0, 10.000714, 9.998771 
2.1651307e+3, 2.260486e+2, -747943.1, -821169.3, -38395.22, -0.0063086045, 0.2736933, -731502.4, -6751.9233, 0.0, 10.0002575, 9.999282 
2.1651071e+3, 2.3604795e+2, -711355.06, -766849.5, -48469.01, 0.0038000392, 0.2846321, -683252.9, -56495.58, 0.0, 9.999895, 9.999157 
2.1650834e+3, 2.4604723e+2, -650232.8, -662669.94, -50780.133, 0.014858238, 0.2916473, -605291.9, -76526.05, 0.0, 9.999538, 9.999371 
2.1650596e+3, 2.5604656e+2, -609353.1, -599728.2, -35828.723, 0.023136953, 0.2920345, -568390.2, -137616.52, 0.0, 9.999178, 9.999304 
2.1650359e+3, 2.660464e+2, -530426.5, -433837.75, -26170.871, 0.016882064, 0.316177, -427202.53, -94425.945, 0.0, 9.998715, 9.999992 
2.1650127e+3, 2.7604678e+2, -519304.97, -394591.8, -51060.598, 0.01165157, 0.35526562, -376353.53, -141579.33, 0.0, 9.998192, 9.999842 
2.1649893e+3, 2.8604668e+2, -482347.8, -310618.1, -43046.293, 0.0023273502, 0.3640137, -300432.16, -163655.92, 0.0, 9.997706, 9.999979 
2.1649656e+3, 2.960464e+2, -470008.94, -266167.56, -16335.603, -0.042082965, 0.3392106, -264866.75, -226086.53, 0.0, 9.997171, 9.999869 
2.1649434e+3, 3.0604628e+2, -463142.2, -213357.86, -36068.98, 0.06376375, 0.3348411, -208253.78, -208253.78, 0.0, 9.996781, 10.000084 
2.1649186e+3, 3.1604713e+2, -323745.25, 99628.055, 59170.77, -0.06285628, 0.40852123, 107742.266, 107742.266, 0.0, 9.9966755, 10.002286 
2.1753663e+3, 1.2608609e+2, -1296205.6, -1669951.4, -22485.498, 0.03484538, 0.20905097, -1294857.6, 409522.0, 0.29713315, 10.005031, 9.997982 
2.1753433e+3, 1.3608481e+2, -1275142.9, -1614824.4, -12625.031, 0.058998432, 0.25752798, -1274674.3, 331717.1, 0.21741456, 10.003868, 9.998151 
2.1753196e+3, 1.4608234e+2, -1190874.0, -1532158.3, -1966.6427, -0.0108350385, 0.1972515, -1190862.6, 317552.88, 0.13519588, 10.003433, 9.998253 
2.1752968e+3, 1.5608077e+2, -1073126.8, -1452231.5, -11643.643, 0.0014835038, 0.2183028, -1072769.5, 337661.97, 0.06696355, 10.003461, 9.998116 
2.1752737e+3, 1.660792e+2, -992037.2, -1339493.3, -38997.566, 0.009681369, 0.24260841, -987714.0, 324733.5, 0.024079818, 10.0031, 9.998392 
2.17525e+3, 1.7607765e+2, -983599.0, -1299698.1, -35919.254, 0.0035369596, 0.25228837, -979568.75, 234894.53, 0.005131369, 10.002491, 9.998285 
2.1752264e+3, 1.8607603e+2, -920047.75, -1177585.1, -29512.97, -0.009629885, 0.24979581, -916708.94, 199770.56, 0.00032857415, 10.0020685, 9.998654 
2.1752027e+3, 1.9607459e+2, -872944.9, -1117684.9, -29311.063, -0.023185153, 0.24218135, -869483.44, 149010.31, 0.0000000007393769, 10.001777, 9.998534 
2.175179e+3, 2.0607336e+2, -817385.6, -999246.2, -45341.53, -0.012361737, 0.2564054, -806708.0, 113798.31, 0.0, 10.001308, 9.998899 
2.175155e+3, 2.1607248e+2, -813435.75, -960146.7, -44453.285, 0.012823019, 0.2795176, -801017.56, 21498.492, 0.0, 10.000721, 9.998778 
2.1751311e+3, 2.260714e+2, -763338.8, -855784.9, -50744.484, 0.0194616, 0.28809372, -740921.0, -16393.246, 0.0, 10.000266, 9.999041 
2.1751072e+3, 2.360704e+2, -723584.75, -793691.5, -60741.867, 0.016553942, 0.2844157, -688507.44, -61968.652, 0.0, 9.999899, 9.998972 
2.1750827e+3, 2.4606974e+2, -626161.06, -614050.7, -64003.38, 0.011347075, 0.29242596, -555816.7, -27271.04, 0.0, 9.999542, 9.999704 
2.1750586e+3, 2.5606954e+2, -591745.94, -565349.44, -50561.605, 0.00007921064, 0.30366626, -526291.9, -95743.76, 0.0, 9.999186, 9.999537 
2.1750344e+3, 2.6606914e+2, -574533.94, -527053.5, -47029.516, -0.0020004099, 0.32835963, -498111.9, -165557.63, 0.0, 9.99872, 9.9993515 
2.1750107e+3, 2.760688e+2, -552289.0, -466251.97, -70089.555, 0.013256103, 0.36133015, -427032.16, -192471.31, 0.0, 9.998202, 9.999346 
2.1749867e+3, 2.860687e+2, -436351.94, -218139.0, -64950.844, -0.005685512, 0.35338724, -200269.73, -63707.113, 0.0, 9.997717, 10.00061 
2.1749625e+3, 2.9606885e+2, -439334.13, -204507.33, -40707.773, -0.082203455, 0.31078577, -197650.75, -159090.94, 0.0, 9.997177, 10.000291 
2.1749407e+3, 3.0607e+2, -508250.3, -307583.13, -42670.273, 0.10901654, 0.45727047, -298886.53, -298886.53, 0.0, 9.996781, 9.999437 
2.1749152e+3, 3.1606886e+2, -389111.03, -37920.94, -23397.176, -0.073167585, 0.38746986, -36369.02, -36369.02, 0.0, 9.996682, 10.001338 
2.185371e+3, 1.2610911e+2, -1368917.3, -1718322.5, -1412.5093, 0.06585162, 0.18075226, -1368911.5, 335241.63, 0.30332217, 10.004413, 9.997849 
2.1853474e+3, 1.3610813e+2, -1206396.0, -1578800.6, 11404.376, 0.055570994, 0.25908074, -1206047.0, 400116.0, 0.22196671, 10.004494, 9.998149 
2.1853232e+3, 1.4610583e+2, -1122987.1, -1504240.5, 23406.492, -0.021798624, 0.21999799, -1121555.5, 386630.8, 0.13810866, 10.00403, 9.998159 
2.1853003e+3, 1.5610413e+2, -1114612.6, -1482694.6, 15178.688, 0.014246124, 0.24059339, -1113987.8, 296215.9, 0.068518326, 10.003202, 9.99803 
2.1852766e+3, 1.6610248e+2, -1031128.0, -1349406.9, -8593.708, 0.022673583, 0.25685793, -1030896.2, 281324.38, 0.024733841, 10.0027895, 9.998472 
2.1852525e+3, 1.7610091e+2, -955282.2, -1277131.4, -6260.913, 0.0008276858, 0.25517988, -955160.44, 259075.78, 0.0053191404, 10.00265, 9.998363 
2.1852283e+3, 1.8609935e+2, -897984.9, -1160808.6, -4749.8384, -0.016252488, 0.2529848, -897899.06, 218352.36, 0.0003514255, 10.002196, 9.998707 
2.185204e+3, 1.9609803e+2, -904930.75, -1128409.5, -5717.4937, -0.02590818, 0.2523018, -904784.56, 113479.586, 0.000000002893483, 10.00154, 9.998573 
2.1851802e+3, 2.0609675e+2, -847756.25, -1025117.4, -24379.12, -0.012331974, 0.26544702, -844466.3, 75811.14, 0.0, 10.001152, 9.998796 
2.185156e+3, 2.160957e+2, -787109.94, -956414.25, -34468.85, 0.014786575, 0.28299502, -780361.4, 41927.93, 0.0, 10.000943, 9.998696 
2.1851316e+3, 2.2609459e+2, -720553.2, -824715.06, -32708.137, 0.018242607, 0.2864232, -711134.2, 13166.877, 0.0, 10.000517, 9.999132 
2.1851069e+3, 2.3609361e+2, -712400.2, -780107.4, -18524.553, 0.008991084, 0.27755904, -707663.3, -81352.414, 0.0, 9.999943, 9.9990425 
2.1850823e+3, 2.46093e+2, -636214.0, -629390.8, -25601.602, 0.001148471, 0.2912145, -606974.5, -78656.805, 0.0, 9.99952, 9.999608 
2.1850576e+3, 2.5609285e+2, -596150.3, -575974.44, -44589.395, -0.009492393, 0.31647724, -540346.06, -110025.43, 0.0, 9.999194, 9.99946 
2.1850333e+3, 2.6609245e+2, -573760.75, -514998.78, -28238.416, -0.0091697145, 0.33955592, -503628.7, -171302.0, 0.0, 9.998677, 9.9994545 
2.1850088e+3, 2.7609205e+2, -570424.3, -465383.13, 5099.81, 0.0087486645, 0.35570145, -465136.13, -230802.8, 0.0, 9.998038, 9.99943 
2.1849844e+3, 2.8609192e+2, -460002.6, -232464.3, 4975.1436, -0.012014396, 0.34798062, -232355.58, -96020.65, 0.0, 9.99757, 10.000582 
2.1849595e+3, 2.9609233e+2, -438634.5, -203762.27, -23429.924, -0.08906007, 0.33471015, -201447.8, -163117.81, 0.0, 9.997183, 10.000293 
2.1849373e+3, 3.0609342e+2, -511881.16, -303822.6, 3416.545, 0.09971028, 0.4683202, -303766.53, -303766.53, 0.0, 9.996732, 9.999489 
2.1849114e+3, 3.1609172e+2, -456891.03, -71679.12, 7831.906, -0.09890702, 0.34084666, -71519.95, -71519.95, 0.0, 9.996223, 10.001327 
2.195376e+3, 1.261333e+2, -1382057.4, -1751917.4, -7476.3945, 0.111188374, 0.19254124, -1381906.4, 322009.5, 0.3088985, 10.004422, 9.997615 
2.1953516e+3, 1.3613202e+2, -1217012.3, -1593210.5, 11991.045, 0.030655408, 0.25514457, -1216630.5, 389299.2, 0.2260471, 10.004475, 9.998031 
2.1953268e+3, 1.4612983e+2, -1132170.4, -1521002.5, -2789.1035, -0.04985769, 0.23946518, -1132150.4, 375801.88, 0.14070795, 10.004017, 9.998049 
2.1953037e+3, 1.5612817e+2, -1119038.1, -1494984.8, -10099.944, 0.029994255, 0.272991, -1118767.0, 291202.6, 0.06990591, 10.003214, 9.997942 
2.1952796e+3, 1.6612642e+2, -1024420.94, -1337946.8, -12359.083, 0.04289995, 0.27872384, -1023934.5, 288052.66, 0.025323706, 10.0028, 9.998547 
2.1952552e+3, 1.7612469e+2, -951186.75, -1268312.6, -12261.093, -0.0006103455, 0.2549821, -950713.4, 263290.4, 0.0054919836, 10.002647, 9.9984255 
2.1952304e+3, 1.8612318e+2, -895863.7, -1156756.3, -28344.773, -0.019567482, 0.25318477, -892819.7, 223198.47, 0.00037343724, 10.002195, 9.998736 
2.1952058e+3, 1.96122e+2, -902861.7, -1126912.5, -27271.516, -0.017494136, 0.26505387, -899589.94, 118439.016, 0.000000010094747, 10.001549, 9.998581 
2.1951811e+3, 2.0612057e+2, -862856.4, -1059118.9, -30998.35, -0.011226851, 0.27153826, -858076.8, 61967.69, 0.0, 10.001161, 9.99856 
2.1951568e+3, 2.161191e+2, -799171.94, -981697.8, -41580.063, -0.0041342676, 0.27138224, -790146.1, 31915.08, 0.0, 10.000942, 9.998525 
2.1951318e+3, 2.2611807e+2, -692396.2, -766980.06, -52796.656, -0.008827282, 0.26992756, -665049.3, 59021.848, 0.0, 10.000518, 9.99953 
2.1951064e+3, 2.3611751e+2, -690574.1, -737213.9, -38293.945, -0.019508919, 0.26369283, -669058.3, -42983.383, 0.0, 9.99995, 9.999335 
2.1950816e+3, 2.4611685e+2, -671485.3, -704849.9, -38297.355, -0.016846927, 0.28766927, -646394.56, -118311.36, 0.0, 9.999528, 9.999088 
2.1950568e+3, 2.5611636e+2, -621600.06, -630908.2, -58680.836, -0.0076746973, 0.330778, -567389.06, -137296.84, 0.0, 9.9992, 9.999081 
2.1950318e+3, 2.661162e+2, -514381.16, -393485.75, -53537.855, -0.0057598082, 0.34991845, -373185.53, -41090.73, 0.0, 9.998682, 10.000288 
2.1950069e+3, 2.7611634e+2, -523894.03, -370144.0, -18384.717, -0.0023778214, 0.3384072, -367976.2, -133883.55, 0.0, 9.998042, 10.000084 
2.1949819e+3, 2.8611627e+2, -510427.63, -338333.66, -11052.735, -0.017033244, 0.34735075, -337626.7, -201532.31, 0.0, 9.997572, 9.999855 
2.1949568e+3, 2.9611674e+2, -466022.1, -264984.8, -40711.055, -0.06385582, 0.4084806, -257053.52, -218961.11, 0.0, 9.997198, 9.9998665 
2.1949331e+3, 3.0611637e+2, -450808.9, -181465.73, -15637.845, 0.025695669, 0.36436495, -180560.84, -180560.84, 0.0, 9.996748, 10.000322 
2.1949083e+3, 3.161162e+2, -381684.9, 85952.99, -48787.066, -0.033386424, 0.324126, 90988.555, 90988.555, 0.0, 9.996219, 10.002411 
2.2053806e+3, 1.2615798e+2, -1321777.6, -1720318.3, -1147.8246, 0.08638884, 0.21274716, -1321774.3, 381900.72, 0.31397158, 10.005103, 9.997502 
2.2053559e+3, 1.3615657e+2, -1231349.9, -1608172.9, 25769.012, 0.034888145, 0.27070084, -1229595.9, 376094.94, 0.22973174, 10.004406, 9.997942 
2.205331e+3, 1.4615445e+2, -1145842.4, -1523812.4, 11116.905, -0.034381043, 0.2649784, -1145515.8, 362196.66, 0.14303409, 10.003899, 9.998085 
2.2053072e+3, 1.5615267e+2, -1077816.0, -1471254.5, 14483.6045, 0.030909643, 0.28191394, -1077283.5, 332446.9, 0.07114002, 10.003514, 9.997959 
2.2052824e+3, 1.6615081e+2, -998035.3, -1334658.3, 17460.607, 0.040240422, 0.28178605, -997132.06, 314616.84, 0.02585131, 10.003033, 9.998456 
2.2052576e+3, 1.7614901e+2, -979690.94, -1290557.5, 5283.738, 0.0012781015, 0.26114345, -979601.1, 234165.19, 0.005649629, 10.00249, 9.998347 
2.2052327e+3, 1.8614751e+2, -906987.4, -1159700.1, -18543.727, -0.012569017, 0.2616284, -905633.94, 210146.75, 0.00039457594, 10.0021105, 9.998756 
2.2052075e+3, 1.9614637e+2, -859359.6, -1103802.3, -18525.879, -0.0058719935, 0.27497315, -857963.56, 159827.42, 0.000000028477277, 10.001842, 9.998597 
2.2051823e+3, 2.0614487e+2, -836194.1, -1048039.06, -12604.1, -0.008182988, 0.2777792, -835446.9, 84359.86, 0.0, 10.001354, 9.998542 
2.2051573e+3, 2.1614331e+2, -831565.7, -998704.25, -8795.501, -0.01720787, 0.27059752, -831104.1, -9279.955, 0.0, 10.000729, 9.998509 
2.2051321e+3, 2.2614227e+2, -714215.4, -778663.3, -29361.264, -0.024180094, 0.2697763, -702845.0, 20989.13, 0.0, 10.000376, 9.9995165 
2.2051065e+3, 2.3614176e+2, -654833.56, -720033.94, -44387.37, -0.028613755, 0.26961344, -632360.94, -6523.4497, 0.0, 10.000199, 9.999331 
2.205081e+3, 2.4614115e+2, -648346.25, -688353.9, -36076.89, -0.025265034, 0.29493728, -627098.5, -99253.06, 0.0, 9.999666, 9.999133 
2.2050557e+3, 2.5614065e+2, -662305.25, -644808.5, -14813.577, -0.017686978, 0.33563444, -636352.94, -206498.77, 0.0, 9.9988985, 9.999129 
2.2050303e+3, 2.661405e+2, -540286.3, -393823.8, -22477.232, -0.019111048, 0.34754595, -390451.94, -58595.59, 0.0, 9.998455, 10.000394 
2.2050047e+3, 2.761407e+2, -495296.72, -345400.78, -42119.676, -0.021592883, 0.32809335, -334376.28, -100523.016, 0.0, 9.998194, 10.000179 
2.2049795e+3, 2.8614068e+2, -490548.72, -327696.8, -21225.928, -0.023586508, 0.3398087, -324975.72, -189121.48, 0.0, 9.997705, 9.999864 
2.204954e+3, 2.9614118e+2, -466373.3, -254210.88, 4376.205, -0.03937385, 0.40285563, -254120.66, -216268.28, 0.0, 9.99715, 9.999963 
2.2049291e+3, 3.061409e+2, -460844.5, -156113.66, 12300.783, -0.03771378, 0.3452404, -155617.92, -155617.92, 0.0, 9.996551, 10.00059 
2.2049049e+3, 3.161421e+2, -421922.13, 114792.53, -57252.047, 0.033255093, 0.42474866, 120831.73, 120831.73, 0.0, 9.99574, 10.002838 
2.2153847e+3, 1.2618314e+2, -1328528.5, -1729062.3, -25271.729, -0.0054994323, 0.23740056, -1326940.4, 376490.72, 0.31871197, 10.005084, 9.997456 
2.2153606e+3, 1.3618168e+2, -1237974.8, -1619840.6, 8319.895, 0.06119691, 0.303172, -1237793.6, 367653.2, 0.23313256, 10.0044, 9.997861 
2.2153355e+3, 1.4617963e+2, -1136038.5, -1501352.5, -379.43018, 0.01522289, 0.29608673, -1136038.1, 371429.13, 0.14514741, 10.003905, 9.998244 
2.2153103e+3, 1.5617757e+2, -1070301.5, -1455293.5, 1265.178, 0.017531293, 0.27059022, -1070297.3, 339189.47, 0.07224434, 10.003519, 9.998068 
2.2152855e+3, 1.6617559e+2, -1014806.25, -1371781.0, -1549.055, 0.016552541, 0.26917627, -1014799.5, 296706.78, 0.026320904, 10.003037, 9.9982 
2.2152603e+3, 1.761738e+2, -993551.5, -1322394.3, -12668.4, 0.0051519237, 0.2737313, -993064.2, 220460.34, 0.005791282, 10.002501, 9.998125 
2.215235e+3, 1.8617225e+2, -904586.1, -1157532.1, -27327.348, 0.0025812655, 0.27753994, -901667.5, 213872.22, 0.00041450874, 10.00212, 9.998768 
2.2152095e+3, 1.9617102e+2, -857257.1, -1100693.5, -28377.543, 0.008052163, 0.28215337, -853992.9, 163557.83, 0.00000006498394, 10.001844, 9.998618 
2.2151838e+3, 2.0616962e+2, -823468.3, -1023459.2, -34924.574, -0.0035282518, 0.28446016, -817544.9, 102019.94, 0.0, 10.001359, 9.99871 
2.2151579e+3, 2.1616825e+2, -822909.94, -983287.7, -28898.23, -0.026414892, 0.2800599, -817861.7, 3717.4788, 0.0, 10.000736, 9.998612 
2.2151323e+3, 2.261671e+2, -741286.8, -836842.06, -34672.832, -0.029607935, 0.28560144, -730031.3, -6440.2095, 0.0, 10.000381, 9.999116 
2.2151066e+3, 2.3616628e+2, -674872.25, -762341.8, -52306.58, -0.019757481, 0.29477867, -650425.56, -24826.04, 0.0, 10.0002, 9.9990425 
2.2150809e+3, 2.4616578e+2, -607009.7, -603478.06, -65213.727, -0.024504794, 0.31216714, -540006.25, -12400.954, 0.0, 9.999668, 9.999717 
2.2150545e+3, 2.5616565e+2, -629984.06, -580105.56, -41940.586, -0.040039305, 0.33049554, -556249.5, -126641.79, 0.0, 9.998906, 9.999572 
2.2150283e+3, 2.6616526e+2, -582457.2, -483587.22, -33413.176, -0.050212096, 0.33215934, -473354.28, -141741.75, 0.0, 9.998462, 9.999776 
2.2150025e+3, 2.7616495e+2, -525815.25, -411600.66, -56234.35, -0.05316484, 0.32442036, -388560.94, -154944.47, 0.0, 9.998203, 9.999722 
2.214977e+3, 2.8616506e+2, -437398.63, -218714.92, -44718.04, -0.033412293, 0.3258581, -209924.05, -74308.41, 0.0, 9.997709, 10.000611 
2.2149517e+3, 2.9616556e+2, -423213.75, -164992.92, -14111.631, -0.0111457165, 0.31606615, -164224.02, -126613.0, 0.0, 9.997149, 10.000578 
2.214925e+3, 3.061669e+2, -482955.94, -203273.88, -20221.13, -0.09331947, 0.41273132, -201819.44, -201819.44, 0.0, 9.9965515, 10.000268 
2.2149004e+3, 3.161666e+2, -462422.03, 23755.477, -31906.363, 0.019284971, 0.372009, 25840.455, 25840.455, 0.0, 9.995765, 10.002202 
2.2253896e+3, 1.262093e+2, -1296470.6, -1699393.0, -9397.877, -0.03996463, 0.27902347, -1296251.6, 406925.6, 0.3232789, 10.005407, 9.997511 
2.2253652e+3, 1.3620737e+2, -1220277.0, -1616751.6, 34883.523, 0.06427306, 0.30255833, -1217231.3, 387965.2, 0.23635374, 10.004608, 9.997787 
2.2253396e+3, 1.4620519e+2, -1119066.9, -1501146.8, 31665.684, 0.036892645, 0.2939433, -1116460.3, 390757.16, 0.1471063, 10.004096, 9.998153 
2.225314e+3, 1.562032e+2, -1042879.75, -1450513.0, 18501.416, 0.012058852, 0.28595343, -1042041.75, 367194.5, 0.073244445, 10.003769, 9.997979 
2.2252883e+3, 1.6620113e+2, -984017.94, -1367645.9, 10629.048, 0.008742365, 0.28305417, -983723.6, 327533.16, 0.026738472, 10.003305, 9.998099 
2.225263e+3, 1.7619912e+2, -962753.5, -1317429.0, 10825.576, 0.012957654, 0.2760598, -962423.4, 250853.58, 0.0059161475, 10.002758, 9.9980345 
2.225237e+3, 1.8619749e+2, -884978.3, -1152967.6, 3917.4128, 0.01132211, 0.28178555, -884921.06, 230371.73, 0.00043255757, 10.002278, 9.998722 
2.2252114e+3, 1.9619633e+2, -859360.06, -1105280.6, -2988.5095, 0.0076953648, 0.29608026, -859323.75, 157979.95, 0.000000118630574, 10.001847, 9.998585 
2.2251853e+3, 2.061949e+2, -806244.0, -1008982.75, -20293.057, -0.0049030557, 0.29523662, -804232.75, 115084.86, 0.0, 10.001453, 9.998762 
2.225159e+3, 2.1619348e+2, -769409.56, -952117.9, -22600.871, -0.023521036, 0.27989802, -766655.4, 54676.434, 0.0, 10.001084, 9.998657 
2.2251329e+3, 2.2619236e+2, -724978.3, -835381.25, -14141.0, -0.027256846, 0.28767386, -723195.9, 147.96754, 0.0, 10.0005245, 9.999056 
2.2251067e+3, 2.3619157e+2, -729982.56, -793404.3, -7821.4614, -0.020278124, 0.30810025, -729032.2, -103679.72, 0.0, 9.999844, 9.998999 
2.2250801e+3, 2.4619102e+2, -633628.2, -607660.4, -34591.336, -0.028315239, 0.3190243, -583696.44, -56338.07, 0.0, 9.999451, 9.999791 
2.2250532e+3, 2.5619078e+2, -578372.25, -547960.9, -47724.06, -0.04734207, 0.31766653, -513078.63, -83717.7, 0.0, 9.999233, 9.999633 
2.2250268e+3, 2.6619035e+2, -547108.75, -477945.44, -28444.209, -0.061430592, 0.31942612, -467750.25, -136384.31, 0.0, 9.998756, 9.99967 
2.2250006e+3, 2.7619013e+2, -544579.5, -430254.97, -15478.667, -0.06754125, 0.33125824, -428196.34, -194826.81, 0.0, 9.998119, 9.999632 
2.2249746e+3, 2.8619015e+2, -461690.47, -230108.6, -26470.168, -0.041107796, 0.32908583, -227121.55, -91751.93, 0.0, 9.997545, 10.00061 
2.2249487e+3, 2.9619023e+2, -451289.6, -183001.55, -51608.305, -0.007864641, 0.27902457, -173416.53, -136047.7, 0.0, 9.996981, 10.000532 
2.2249216e+3, 3.061925e+2, -466510.8, -160312.81, -57633.543, -0.099538535, 0.45019707, -149824.14, -149824.14, 0.0, 9.996519, 10.000576 
2.2248966e+3, 3.1619087e+2, -439534.22, -31219.816, 23188.787, 0.028059823, 0.2460976, -29907.111, -29907.111, 0.0, 9.996211, 10.001608 
2.235395e+3, 1.2623645e+2, -1298632.8, -1688805.5, -34151.02, -0.038122557, 0.34757513, -1295666.1, 407247.28, 0.32775077, 10.005346, 9.997647 
2.2353697e+3, 1.3623354e+2, -1224842.4, -1624579.0, 13675.923, 0.045918416, 0.27343503, -1224375.1, 380565.0, 0.23946145, 10.004608, 9.997728 
2.2353438e+3, 1.4623113e+2, -1136933.3, -1547414.0, 21171.523, 0.03409611, 0.26398382, -1135844.3, 371119.06, 0.14895758, 10.004115, 9.997822 
2.2353177e+3, 1.5622951e+2, -1061071.6, -1491844.5, 6481.0034, 0.011153141, 0.32576275, -1060974.1, 348005.44, 0.0741658, 10.003772, 9.997696 
2.2352917e+3, 1.6622731e+2, -981339.4, -1362193.8, -8902.922, 0.011579426, 0.32090864, -981131.4, 329869.84, 0.027113441, 10.003305, 9.998138 
2.2352657e+3, 1.762249e+2, -960513.75, -1314492.5, -7973.3296, 0.023112603, 0.26876336, -960334.25, 252690.17, 0.0060258666, 10.002764, 9.998054 
2.2352394e+3, 1.8622322e+2, -891542.2, -1169286.9, -11222.219, 0.014153427, 0.27565306, -891089.5, 223951.2, 0.00044846584, 10.002288, 9.998607 
2.235213e+3, 1.9622222e+2, -865592.9, -1120700.9, -17637.654, -0.0067402828, 0.31708667, -864379.2, 152671.52, 0.0000001807627, 10.001855, 9.998476 
2.2351865e+3, 2.0622066e+2, -809205.9, -1016763.06, -32966.707, -0.012596747, 0.31053513, -804095.56, 114970.414, 0.0, 10.001458, 9.998709 
2.2351602e+3, 2.1621893e+2, -770615.75, -954941.7, -35758.645, -0.009859636, 0.27063203, -763921.8, 57160.84, 0.0, 10.001083, 9.99864 
2.2351333e+3, 2.2621791e+2, -706984.5, -799013.56, -38488.406, -0.017848196, 0.27654484, -693009.9, 30083.17, 0.0, 10.000526, 9.999306 
2.2351064e+3, 2.3621751e+2, -716951.75, -768514.25, -30781.285, -0.031420927, 0.30964434, -702581.3, -77483.72, 0.0, 9.99985, 9.999168 
2.2350796e+3, 2.4621676e+2, -662239.2, -668992.94, -43119.94, -0.037490472, 0.31584415, -622364.1, -95258.336, 0.0, 9.999457, 9.999368 
2.2350524e+3, 2.562159e+2, -599513.56, -593833.5, -58549.926, -0.04147108, 0.297835, -538054.75, -108939.99, 0.0, 9.99924, 9.999316 
2.2350256e+3, 2.6621568e+2, -519479.84, -421581.53, -54068.73, -0.053413652, 0.30948386, -397596.13, -66478.52, 0.0, 9.998759, 10.000057 
2.2349985e+3, 2.7621606e+2, -525791.4, -392477.3, -40007.39, -0.06372804, 0.34700748, -381392.78, -148278.88, 0.0, 9.998122, 9.999892 
2.234972e+3, 2.8621584e+2, -515178.63, -342606.47, -50027.973, -0.047874175, 0.3485291, -329152.47, -194034.78, 0.0, 9.997549, 9.999837 
2.2349453e+3, 2.9621512e+2, -500944.22, -289425.03, -75540.76, -0.037348274, 0.2941609, -265217.34, -228090.11, 0.0, 9.996992, 9.999798 
2.2349185e+3, 3.0621734e+2, -401203.1, -25421.752, -74742.31, -0.052888494, 0.45467272, -11101.354, -11101.354, 0.0, 9.996521, 10.001502 
2.2348924e+3, 3.1621796e+2, -480446.2, -121959.82, 32127.549, -0.017386049, 0.36804292, -119103.305, -119103.305, 0.0, 9.996228, 10.00098 
2.2454001e+3, 1.2626328e+2, -1380769.4, -1734239.3, -26327.459, -0.001692949, 0.36845636, -1378819.3, 323832.84, 0.33209914, 10.0045, 9.9977045 
2.2453743e+3, 1.3626023e+2, -1171819.4, -1595216.0, 20374.096, 0.02331158, 0.28111732, -1170841.3, 433837.44, 0.2424661, 10.005114, 9.997705 
2.245348e+3, 1.4625749e+2, -1065884.0, -1531622.1, 16126.068, 0.023970908, 0.2526557, -1065326.3, 441378.72, 0.15072691, 10.0048065, 9.997596 
2.2453216e+3, 1.5625581e+2, -1053458.5, -1508247.0, 8028.7676, 0.01497126, 0.32930216, -1053316.8, 355406.0, 0.07502921, 10.0039215, 9.99751 
2.2452949e+3, 1.6625361e+2, -970352.2, -1345960.0, 2969.4514, 0.014536541, 0.32895198, -970328.7, 340415.34, 0.027456358, 10.00334, 9.998231 
2.2452685e+3, 1.7625125e+2, -928037.06, -1290830.1, 6463.7773, 0.019135917, 0.27249023, -927921.94, 284844.16, 0.006124547, 10.002956, 9.998122 
2.2452417e+3, 1.862495e+2, -866403.0, -1168966.3, 4865.2246, 0.010081871, 0.27436975, -866324.8, 248458.31, 0.00046284508, 10.002514, 9.998499 
2.2452149e+3, 1.9624834e+2, -845418.4, -1119798.9, -1517.4564, -0.007999736, 0.31126654, -845410.0, 171385.05, 0.0000002419392, 10.002034, 9.998395 
2.245188e+3, 2.0624681e+2, -796476.2, -996831.94, -9905.411, -0.010991242, 0.3055688, -795987.6, 122822.125, 0.0, 10.001489, 9.998829 
2.2451611e+3, 2.1624523e+2, -789097.06, -952447.7, -1929.1863, -0.004458576, 0.2697785, -789074.25, 31750.254, 0.0, 10.000909, 9.99874 
2.2451338e+3, 2.2624424e+2, -720186.06, -809234.4, -13928.41, -0.01747269, 0.27596524, -718058.3, 4776.454, 0.0, 10.000454, 9.999269 
2.2451063e+3, 2.3624378e+2, -686462.06, -756508.44, -25465.316, -0.041415807, 0.3068571, -678182.75, -53342.63, 0.0, 10.000075, 9.999141 
2.2450788e+3, 2.4624299e+2, -635620.0, -653663.8, -19474.223, -0.046368662, 0.30882862, -623179.4, -96330.84, 0.0, 9.999633, 9.999387 
2.2450517e+3, 2.5624213e+2, -613242.5, -599076.1, -4144.1553, -0.041449692, 0.2870957, -597952.9, -169095.7, 0.0, 9.999143, 9.999325 
2.2450241e+3, 2.6624185e+2, -538091.56, -436571.56, -14081.291, -0.049880292, 0.30006796, -434654.63, -103794.375, 0.0, 9.998662, 9.999999 
2.2449969e+3, 2.762422e+2, -520646.0, -395563.78, -32329.459, -0.05926001, 0.33691928, -387701.88, -154844.31, 0.0, 9.998186, 9.999837 
2.2449695e+3, 2.86242e+2, -490612.1, -334731.4, -20880.027, -0.058185715, 0.34661353, -331983.03, -197121.89, 0.0, 9.997738, 9.999797 
2.2449422e+3, 2.9624152e+2, -466032.47, -281392.53, 6519.025, -0.07260814, 0.32247558, -281162.66, -244294.45, 0.0, 9.997273, 9.999716 
2.2449155e+3, 3.0624288e+2, -380564.63, -32128.387, -8230.311, -0.023783928, 0.41299063, -31934.09, -31934.09, 0.0, 9.9967375, 10.001351 
2.244888e+3, 3.162441e+2, -502292.03, -149109.27, 13733.809, -0.054666273, 0.39885563, -148576.02, -148576.02, 0.0, 9.996153, 10.000829 
2.2554053e+3, 1.2629014e+2, -1380341.3, -1734490.4, -8988.294, 0.056868028, 0.37248534, -1380113.4, 322276.38, 0.3362168, 10.004536, 9.99768 
2.255379e+3, 1.3628745e+2, -1178166.3, -1600084.5, 32934.715, -0.009502415, 0.3224386, -1175610.9, 428801.53, 0.24532288, 10.005084, 9.997676 
2.2553526e+3, 1.4628425e+2, -1078697.6, -1553636.9, -12570.465, 0.0006582109, 0.2584975, -1078365.1, 428077.8, 0.1524116, 10.004772, 9.997463 
2.2553255e+3, 1.5628208e+2, -1060940.5, -1523574.6, -20045.113, 0.022241985, 0.30032718, -1060073.5, 348392.13, 0.075845785, 10.003916, 9.99741 
2.2552983e+3, 1.6628003e+2, -961055.56, -1328221.6, -9988.499, 0.018456403, 0.3103069, -960784.06, 349701.4, 0.027775653, 10.003346, 9.998351 
2.2552712e+3, 1.7627813e+2, -920648.5, -1277414.6, -7488.4067, 0.0012369518, 0.28713048, -920491.44, 292011.22, 0.006216347, 10.002962, 9.998213 
2.2552441e+3, 1.8627624e+2, -873574.2, -1184470.6, -12226.589, -0.002255118, 0.27840346, -873094.06, 241426.66, 0.0004765749, 10.002513, 9.998395 
2.255217e+3, 1.9627462e+2, -849614.9, -1128061.3, -18380.67, 0.0015703132, 0.28056154, -848406.8, 168130.25, 0.00000029306102, 10.002029, 9.998342 
2.2551894e+3, 2.062733e+2, -778047.4, -959356.0, -30227.13, -0.0011176886, 0.28150308, -773140.75, 145408.94, 0.0, 10.00149, 9.999086 
2.2551619e+3, 2.162723e+2, -774929.9, -924748.0, -21441.023, -0.008019238, 0.27662623, -771921.75, 48636.754, 0.0, 10.000914, 9.99893 
2.255134e+3, 2.2627123e+2, -741610.0, -854963.25, -27193.752, -0.026357507, 0.2854405, -735423.75, -12853.838, 0.0, 10.000458, 9.998955 
2.2551063e+3, 2.362703e+2, -701068.2, -788296.0, -39411.47, -0.05096627, 0.29962784, -685899.1, -61318.086, 0.0, 10.000079, 9.998922 
2.2550784e+3, 2.4626961e+2, -604811.2, -590928.7, -38233.516, -0.055334754, 0.29806393, -559011.44, -32423.889, 0.0, 9.999636, 9.999817 
2.2550508e+3, 2.5626925e+2, -590562.1, -554374.8, -23597.889, -0.049236074, 0.28490153, -542732.3, -114142.945, 0.0, 9.999151, 9.999629 
2.255023e+3, 2.6626876e+2, -572780.6, -510224.53, -33924.41, -0.052239146, 0.29075468, -495359.53, -164764.44, 0.0, 9.998666, 9.999493 
2.2549948e+3, 2.762683e+2, -546306.9, -450252.3, -51337.73, -0.05572747, 0.3008904, -427978.94, -195377.16, 0.0, 9.998189, 9.999461 
2.2549671e+3, 2.8626847e+2, -441828.88, -234888.58, -40256.96, -0.07289813, 0.32313836, -227333.08, -92731.82, 0.0, 9.997742, 10.0004835 
2.254939e+3, 2.9626933e+2, -424966.56, -199777.03, -14223.532, -0.11538203, 0.36398515, -198882.19, -162289.28, 0.0, 9.997286, 10.000272 
2.2549124e+3, 3.0626893e+2, -469568.56, -219107.39, -31285.666, -0.011520902, 0.31886888, -215258.58, -215258.58, 0.0, 9.996745, 10.000064 
2.2548842e+3, 3.1626922e+2, -435933.8, -13887.937, -34361.574, -0.050619744, 0.3451922, -11108.634, -11108.634, 0.0, 9.996159, 10.001757 
2.2654104e+3, 1.2631695e+2, -1275331.4, -1676921.0, 4114.5835, 0.05830061, 0.34552708, -1275289.3, 426837.4, 0.33995333, 10.005678, 9.997611 
2.265384e+3, 1.3631472e+2, -1197869.4, -1605810.0, 44869.484, -0.0017537891, 0.33708197, -1192992.5, 411152.4, 0.2479433, 10.00489, 9.997732 
2.2653572e+3, 1.4631143e+2, -1136000.8, -1578472.3, -3879.718, 0.023077095, 0.25729957, -1135966.8, 370209.84, 0.15397733, 10.004285, 9.997525 
2.2653294e+3, 1.563092e+2, -1069095.9, -1521582.4, 1716.4354, 0.027959468, 0.28747186, -1069089.4, 339110.5, 0.07661144, 10.003833, 9.997461 
2.2653018e+3, 1.6630721e+2, -949016.6, -1325477.1, 19894.293, 0.019826574, 0.30437964, -947968.2, 362250.84, 0.028074041, 10.003449, 9.99832 
2.2652742e+3, 1.7630543e+2, -901696.5, -1270520.8, 11202.888, 0.00750944, 0.29821837, -901356.56, 310878.56, 0.0063027926, 10.003106, 9.99819 
2.2652465e+3, 1.8630351e+2, -867274.9, -1176341.1, 1168.9323, 0.0048096757, 0.2846601, -867270.5, 246982.97, 0.0004899323, 10.002539, 9.998437 
2.265219e+3, 1.9630177e+2, -875229.3, -1136031.4, 3741.1006, 0.006542657, 0.26904425, -875175.6, 141095.16, 0.00000031998934, 10.001838, 9.998379 
2.265191e+3, 2.0630048e+2, -800721.8, -972940.75, -12827.471, -0.00078353094, 0.2747602, -799771.56, 118511.62, 0.0, 10.001348, 9.999061 
2.2651629e+3, 2.1629965e+2, -765429.7, -921234.75, -24415.361, -0.013266209, 0.28905687, -761693.3, 58597.656, 0.0, 10.000987, 9.998917 
2.2651345e+3, 2.2629859e+2, -727931.1, -842544.2, -20763.28, -0.029871773, 0.29652196, -724285.6, -1983.371, 0.0, 10.000529, 9.999003 
2.2651061e+3, 2.3629756e+2, -707988.2, -785928.94, -7017.3447, -0.047958378, 0.2966677, -707361.44, -83047.52, 0.0, 10.000009, 9.998971 
2.2650778e+3, 2.4629693e+2, -609909.5, -586656.06, -11408.848, -0.055185374, 0.2953848, -581993.44, -55673.75, 0.0, 9.999575, 9.999875 
2.2650498e+3, 2.5629672e+2, -581837.9, -544046.0, -24120.105, -0.057329252, 0.29241925, -532301.5, -103981.67, 0.0, 9.999187, 9.999681 
2.2650215e+3, 2.6629618e+2, -561677.94, -501130.06, -21898.791, -0.05807614, 0.28939617, -494040.0, -163714.19, 0.0, 9.998729, 9.999522 
2.2649932e+3, 2.7629557e+2, -544132.06, -446100.56, -299.3642, -0.051455144, 0.27705395, -446099.66, -213765.53, 0.0, 9.998195, 9.999485 
2.2649646e+3, 2.862958e+2, -452044.53, -234384.38, -2032.2246, -0.07859944, 0.30661324, -234365.39, -100033.07, 0.0, 9.997652, 10.000528 
2.2649358e+3, 2.96297e+2, -440522.88, -198665.31, -24984.227, -0.14383742, 0.38016567, -196111.38, -159791.33, 0.0, 9.997147, 10.000343 
2.264909e+3, 3.062958e+2, -495256.94, -251033.84, -13806.947, -0.017097449, 0.2592789, -250255.75, -250255.75, 0.0, 9.996656, 9.999885 
2.2648804e+3, 3.1629723e+2, -420847.4, 48179.313, 48780.254, -0.03961474, 0.41667977, 53198.895, 53198.895, 0.0, 9.996029, 10.002244 
2.2754155e+3, 1.2634395e+2, -1280180.1, -1682537.9, -10268.104, -0.0005765251, 0.31295002, -1279918.3, 421942.34, 0.3431512, 10.005675, 9.997555 
2.2753891e+3, 1.363421e+2, -1192560.1, -1589370.0, 24206.418, 0.040105563, 0.32923272, -1191088.9, 412787.16, 0.25022632, 10.004883, 9.99787 
2.275362e+3, 1.4633898e+2, -1123934.3, -1548620.9, -18212.588, 0.084709965, 0.24987212, -1123154.6, 382751.38, 0.15537596, 10.004287, 9.997731 
2.2753333e+3, 1.5633707e+2, -1058035.4, -1498366.6, -12890.05, 0.029565966, 0.28935838, -1057658.4, 350267.72, 0.07731305, 10.0038395, 9.997619 
2.2753052e+3, 1.6633508e+2, -960282.6, -1350031.1, 8164.5967, 0.015821565, 0.31087542, -960111.6, 349833.84, 0.0283505, 10.003449, 9.998152 
2.2752775e+3, 1.7633316e+2, -911047.5, -1288866.4, -1907.8262, 0.034398343, 0.3056742, -911037.9, 300926.03, 0.00638387, 10.0030985, 9.998069 
2.2752492e+3, 1.8633127e+2, -857264.44, -1155917.4, -24012.03, 0.029157504, 0.29169753, -855346.1, 258635.77, 0.00050285814, 10.002537, 9.998579 
2.2752208e+3, 1.9632965e+2, -868093.4, -1123588.0, -19779.664, 0.006238765, 0.27487138, -866571.2, 149426.13, 0.00000031187102, 10.001844, 9.998462 
2.2751921e+3, 2.0632827e+2, -819703.4, -1014010.25, -25234.99, -0.01005638, 0.28494072, -816479.56, 101531.62, 0.0, 10.001351, 9.998778 
2.2751635e+3, 2.1632724e+2, -779092.75, -950279.75, -36420.01, -0.021137444, 0.30605388, -771666.56, 48355.82, 0.0, 10.000987, 9.998718 
2.275135e+3, 2.2632624e+2, -701555.2, -788516.25, -38819.066, -0.028997216, 0.30883968, -686747.8, 35284.555, 0.0, 10.00053, 9.999375 
2.2751062e+3, 2.3632549e+2, -686665.25, -743538.3, -25226.172, -0.034915023, 0.29769626, -677088.7, -53048.895, 0.0, 10.000014, 9.999261 
2.2750777e+3, 2.4632482e+2, -631217.75, -632350.06, -26631.02, -0.04751422, 0.30029202, -605146.9, -79100.84, 0.0, 9.999578, 9.99956 
2.2750488e+3, 2.5632444e+2, -594762.94, -573023.0, -39660.707, -0.06667426, 0.3082406, -542769.6, -114719.945, 0.0, 9.999194, 9.99948 
2.27502e+3, 2.6632404e+2, -522453.5, -421167.84, -43659.844, -0.06706469, 0.29572457, -404946.03, -74892.59, 0.0, 9.998733, 10.000072 
2.2749914e+3, 2.7632377e+2, -514309.16, -386637.3, -22974.662, -0.048945464, 0.26739785, -382628.84, -150573.33, 0.0, 9.998202, 9.999891 
2.2749622e+3, 2.8632385e+2, -495039.3, -324828.88, -23850.324, -0.07769243, 0.2967815, -321550.06, -187494.39, 0.0, 9.997655, 9.999907 
2.2749326e+3, 2.9632437e+2, -471023.72, -261954.42, -45007.96, -0.15962547, 0.3616792, -252676.9, -216624.81, 0.0, 9.997144, 9.999912 
2.2749053e+3, 3.0632365e+2, -424745.3, -105883.16, -36402.676, -0.04194862, 0.25048393, -101780.07, -101780.07, 0.0, 9.996658, 10.000882 
2.2748765e+3, 3.163256e+2, -467256.63, -50544.586, 14352.5205, -0.029520806, 0.36956653, -50050.84, -50050.84, 0.0, 9.9960375, 10.001562 
2.2854212e+3, 1.2637196e+2, -1227714.5, -1675688.5, 13951.329, -0.01846816, 0.27979863, -1227280.5, 474304.0, 0.34568727, 10.006371, 9.99729 
2.285394e+3, 1.3637032e+2, -1195773.3, -1591655.5, 38519.58, 0.045419488, 0.32328922, -1192060.0, 411538.94, 0.25208429, 10.0048685, 9.997855 
2.2853665e+3, 1.4636736e+2, -1125601.3, -1541600.0, 16579.791, 0.10166039, 0.25359222, -1124941.5, 380686.28, 0.15655477, 10.004247, 9.997796 
2.2853372e+3, 1.5636544e+2, -1004686.94, -1465310.1, 13819.702, 0.027998053, 0.2872303, -1004272.7, 403374.4, 0.07792728, 10.004221, 9.99766 
2.2853085e+3, 1.6636337e+2, -931975.8, -1346460.6, 23444.291, 0.011893717, 0.30530772, -930653.94, 379013.56, 0.028598672, 10.003699, 9.9980545 
2.2852805e+3, 1.7636134e+2, -948693.1, -1315295.0, 16932.352, 0.039567843, 0.2991496, -947912.75, 263774.94, 0.006458756, 10.002877, 9.9979925 
2.2852519e+3, 1.8635952e+2, -878202.5, -1158183.9, -4136.0845, 0.038469143, 0.29216367, -878141.44, 235563.7, 0.00051549356, 10.002362, 9.998646 
2.2852227e+3, 1.9635808e+2, -836806.3, -1102654.0, -5416.1646, 0.015516813, 0.28699327, -836696.0, 179022.56, 0.00000027835299, 10.002039, 9.99851 
2.2851937e+3, 2.0635663e+2, -796928.8, -1011982.3, -2948.036, -0.0045619616, 0.29254338, -796888.44, 120844.875, 0.0, 10.001551, 9.998694 
2.2851646e+3, 2.1635538e+2, -786843.5, -960599.9, -1658.3812, -0.021022493, 0.29991844, -786827.7, 32919.402, 0.0, 10.000964, 9.998657 
2.2851355e+3, 2.2635445e+2, -699344.9, -775042.7, -9707.397, -0.030864, 0.30496567, -698119.8, 23636.605, 0.0, 10.000494, 9.999485 
2.2851062e+3, 2.363539e+2, -669610.9, -724633.9, -15204.473, -0.035754077, 0.3061668, -665689.0, -41927.785, 0.0, 10.000089, 9.999352 
2.2850771e+3, 2.4635325e+2, -639843.5, -640601.44, -12058.638, -0.041144975, 0.30848485, -628157.9, -102390.45, 0.0, 9.999538, 9.999521 
2.285048e+3, 2.5635275e+2, -639308.75, -595364.7, -4447.239, -0.04965476, 0.30768093, -594919.1, -167146.34, 0.0, 9.998895, 9.99947 
2.2850186e+3, 2.663524e+2, -560886.75, -426519.97, -18304.053, -0.06207333, 0.29495016, -424071.13, -94295.17, 0.0, 9.998415, 10.000187 
2.2849892e+3, 2.7635232e+2, -531996.94, -383922.94, -30811.62, -0.06580999, 0.2756422, -377767.47, -145991.83, 0.0, 9.9980345, 9.99999 
2.2849597e+3, 2.8635246e+2, -518064.72, -339121.22, -20304.018, -0.08189633, 0.3044979, -336846.34, -203070.94, 0.0, 9.997512, 9.999876 
2.2849299e+3, 2.963527e+2, -516306.13, -285443.47, 1637.2256, -0.13947909, 0.347771, -285431.84, -249657.67, 0.0, 9.996842, 9.999894 
2.2849016e+3, 3.0635223e+2, -429469.97, -82532.016, 2400.8923, -0.04796771, 0.25288814, -82515.4, -82515.4, 0.0, 9.996518, 10.001109 
2.2848728e+3, 3.1635362e+2, -415272.28, -84362.58, -19021.234, -0.036458038, 0.28778818, -83272.79, -83272.79, 0.0, 9.996654, 10.00103 
2.2954275e+3, 1.2640092e+2, -1252778.3, -1726517.5, -17297.365, -0.014578815, 0.24993677, -1252147.5, 449151.06, 0.34749126, 10.006321, 9.996875 
2.2953987e+3, 1.3639936e+2, -1203167.4, -1609756.3, 1461.4702, 0.016871037, 0.31970087, -1203162.1, 400152.06, 0.2534535, 10.004884, 9.997697 
2.2953704e+3, 1.4639647e+2, -1126550.6, -1550270.5, 15552.941, 0.077738605, 0.2676353, -1125980.5, 379361.72, 0.15745987, 10.004274, 9.9977255 
2.2953413e+3, 1.5639426e+2, -1009027.1, -1475215.5, 9694.16, 0.02186514, 0.2806671, -1008825.6, 398537.88, 0.07841894, 10.00422, 9.997594 
2.2953123e+3, 1.6639204e+2, -936727.9, -1356342.1, -6194.4443, 0.006537096, 0.28763336, -936636.5, 372749.13, 0.028805127, 10.003696, 9.99799 
2.2952832e+3, 1.7638992e+2, -951476.1, -1323120.0, -10491.667, 0.024219919, 0.28063512, -951180.2, 260226.83, 0.006525448, 10.002883, 9.997937 
2.2952542e+3, 1.8638822e+2, -877848.25, -1159007.8, -15229.732, 0.033336427, 0.28809965, -877025.7, 236397.97, 0.0005282491, 10.002366, 9.998639 
2.2952248e+3, 1.9638698e+2, -836199.56, -1101449.9, -17069.922, 0.032854658, 0.30357507, -835105.5, 180329.84, 0.0000002503307, 10.002036, 9.998521 
2.2951953e+3, 2.0638546e+2, -791335.5, -1001011.3, -23421.516, 0.013755963, 0.29619375, -788751.1, 128699.45, 0.0, 10.001551, 9.998771 
2.2951655e+3, 2.1638396e+2, -782461.94, -953088.75, -20903.223, -0.015249415, 0.27142128, -779938.44, 39527.637, 0.0, 10.000968, 9.998709 
2.2951357e+3, 2.2638306e+2, -709599.9, -797350.44, -23612.135, -0.03631817, 0.28613004, -703649.75, 17825.69, 0.0, 10.000496, 9.999331 
2.2951062e+3, 2.3638271e+2, -676237.56, -739602.56, -30849.1, -0.050920382, 0.32100263, -663699.6, -40220.414, 0.0, 10.000091, 9.99925 
2.2950767e+3, 2.4638212e+2, -623808.3, -608248.5, -37144.56, -0.036030006, 0.3195891, -578077.9, -52592.914, 0.0, 9.999541, 9.999743 
2.2950473e+3, 2.5638157e+2, -626923.4, -571406.3, -28532.389, -0.009806321, 0.29210505, -559357.4, -131867.28, 0.0, 9.998899, 9.999633 
2.2950171e+3, 2.6638117e+2, -582469.44, -472988.1, -34130.477, -0.046030696, 0.2869544, -463219.63, -133725.19, 0.0, 9.998419, 9.9998665 
2.2949868e+3, 2.763811e+2, -544746.9, -412897.38, -46527.113, -0.10328452, 0.29818666, -398132.34, -166636.38, 0.0, 9.998042, 9.999789 
2.2949573e+3, 2.8638148e+2, -478989.38, -259120.11, -47716.06, -0.089728944, 0.33019885, -249211.31, -115718.83, 0.0, 9.997515, 10.000426 
2.2949272e+3, 2.9638204e+2, -490476.56, -232029.94, -26148.143, -0.08439712, 0.35010615, -229410.97, -193924.8, 0.0, 9.9968405, 10.000264 
2.2948982e+3, 3.063813e+2, -469489.28, -166495.75, 2502.5352, -0.039996963, 0.24671437, -166475.08, -166475.08, 0.0, 9.996518, 10.000534 
2.2948694e+3, 3.1638303e+2, -416253.44, -91813.36, -50707.695, -0.039552465, 0.3661192, -84072.78, -84072.78, 0.0, 9.9966755, 10.000969 
2.3054339e+3, 1.2643065e+2, -1314898.9, -1796166.4, -8950.196, 0.022392632, 0.2585881, -1314732.5, 386274.03, 0.34848636, 10.005773, 9.996661 
2.3054035e+3, 1.364288e+2, -1107877.3, -1566084.1, 9857.684, -0.023333808, 0.30728865, -1107665.4, 495359.84, 0.25426197, 10.005791, 9.997643 
2.3053747e+3, 1.4642599e+2, -1028162.6, -1510972.4, 29462.465, 0.038530886, 0.273364, -1026371.4, 478681.1, 0.15802501, 10.005157, 9.997568 
2.3053454e+3, 1.5642345e+2, -1018400.94, -1494112.8, 18545.588, 0.025896478, 0.2680877, -1017679.06, 389397.66, 0.07873936, 10.004215, 9.997464 
2.3053159e+3, 1.6642115e+2, -950259.6, -1357410.6, 1352.6573, 0.017316835, 0.26979434, -950255.1, 358844.28, 0.028947033, 10.00358, 9.998035 
2.3052861e+3, 1.7641914e+2, -913690.5, -1299743.4, 4884.1123, 0.01932114, 0.269855, -913628.7, 297490.94, 0.0065782, 10.003127, 9.997978 
2.3052566e+3, 1.8641746e+2, -847190.44, -1145315.6, 7663.7695, 0.029774936, 0.27979118, -846993.56, 266142.7, 0.00054095313, 10.002586, 9.998625 
2.305227e+3, 1.964162e+2, -842178.1, -1103934.8, 2875.1948, 0.041101016, 0.29390997, -842146.56, 173002.19, 0.00000026008487, 10.001996, 9.998522 
2.3051968e+3, 2.0641474e+2, -791450.25, -990132.9, -4463.731, 0.02230326, 0.2889949, -791350.06, 125813.09, 0.0, 10.001506, 9.998866 
2.3051666e+3, 2.164134e+2, -762234.44, -934422.4, -1258.9468, -0.012499375, 0.2696019, -762225.25, 56951.582, 0.0, 10.001073, 9.998784 
2.3051362e+3, 2.2641246e+2, -714644.25, -807298.56, -455.41412, -0.032938283, 0.28204617, -714642.06, 6544.6636, 0.0, 10.000497, 9.999261 
2.3051062e+3, 2.3641197e+2, -717401.75, -764996.25, -1540.9027, -0.042869683, 0.31116936, -717351.9, -94159.51, 0.0, 9.999835, 9.999198 
2.3050761e+3, 2.4641144e+2, -649730.0, -612197.75, -11488.566, -0.026362248, 0.3130514, -608960.4, -83762.516, 0.0, 9.999328, 9.999819 
2.3050462e+3, 2.5641105e+2, -622643.6, -561867.9, -13898.949, 0.0006055315, 0.29454464, -558840.1, -131638.63, 0.0, 9.998898, 9.999699 
2.3050156e+3, 2.6641077e+2, -586252.6, -472752.5, -5923.904, -0.04283511, 0.297921, -472444.16, -143239.19, 0.0, 9.998386, 9.999883 
2.3049846e+3, 2.7641076e+2, -573260.7, -422767.9, 7313.4214, -0.110687055, 0.31537524, -422413.3, -191207.1, 0.0, 9.997832, 9.999821 
2.3049545e+3, 2.8641108e+2, -476797.47, -244202.02, -6382.9316, -0.08546612, 0.33485547, -244026.98, -110823.88, 0.0, 9.997472, 10.000547 
2.3049246e+3, 2.9641163e+2, -438404.66, -197838.92, -20070.783, -0.055427253, 0.33768582, -196175.88, -160979.02, 0.0, 9.99716, 10.000344 
2.3048945e+3, 3.064113e+2, -470212.22, -192312.44, 27939.56, -0.07020908, 0.2857611, -189531.27, -189531.27, 0.0, 9.996622, 10.000307 
2.3048654e+3, 3.1641263e+2, -462118.5, -79292.836, -33183.133, -0.07134686, 0.38579166, -76437.836, -76437.836, 0.0, 9.996218, 10.001272 
2.3154402e+3, 1.2646091e+2, -1313012.8, -1793660.5, -2001.5493, 0.08123933, 0.28519806, -1313004.4, 387705.75, 0.3485113, 10.005788, 9.996671 
2.3154087e+3, 1.3645868e+2, -1107369.8, -1562591.1, 5504.4556, -0.078307144, 0.28745455, -1107303.1, 495428.8, 0.25438246, 10.005777, 9.997682 
2.3153794e+3, 1.4645591e+2, -1044491.94, -1549700.8, -1224.535, -0.017104505, 0.27162957, -1044488.94, 460269.6, 0.15815587, 10.00515, 9.997305 
2.3153499e+3, 1.5645297e+2, -1030453.5, -1522927.0, -11328.497, 0.038412087, 0.25147533, -1030193.06, 376593.72, 0.078827314, 10.00422, 9.997266 
2.3153196e+3, 1.6645065e+2, -939718.25, -1336978.6, -14170.655, 0.041682277, 0.2526032, -939213.4, 369595.84, 0.028993675, 10.003587, 9.998175 
2.3152894e+3, 1.764489e+2, -905709.0, -1283650.0, -11732.483, 0.02274786, 0.26393205, -905345.1, 305481.3, 0.00660685, 10.003126, 9.99809 
2.315259e+3, 1.8644717e+2, -850421.2, -1152969.3, -13645.628, 0.026154738, 0.26600623, -849807.0, 263036.88, 0.000552297, 10.002587, 9.998573 
2.315229e+3, 1.9644566e+2, -843827.9, -1108463.1, -17329.02, 0.03920357, 0.26115865, -842697.94, 172161.44, 0.0000003305962, 10.001998, 9.99849 
2.3151982e+3, 2.0644444e+2, -783467.56, -974286.2, -19471.018, 0.021424748, 0.27369347, -781501.06, 135370.64, 0.0, 10.001506, 9.998976 
2.3151675e+3, 2.1644355e+2, -755923.06, -920960.0, -16926.504, -0.013216451, 0.29117355, -754204.94, 64675.598, 0.0, 10.001068, 9.99888 
2.315137e+3, 2.2644253e+2, -715387.8, -808994.6, -24119.965, -0.021736678, 0.29062644, -709538.25, 11353.16, 0.0, 10.000495, 9.999251 
2.3151062e+3, 2.3644163e+2, -717577.0, -766836.4, -24628.904, -0.01491266, 0.27732435, -707375.6, -84473.95, 0.0, 9.999838, 9.999186 
2.3150757e+3, 2.4644113e+2, -654595.06, -623988.1, -28207.906, -0.013968441, 0.28960535, -607199.8, -82292.62, 0.0, 9.999332, 9.999736 
2.3150449e+3, 2.5644106e+2, -623423.75, -566296.06, -31767.871, -0.019311959, 0.3146415, -552138.8, -125230.72, 0.0, 9.998907, 9.999664 
2.3150139e+3, 2.6644108e+2, -561851.94, -423514.44, -29247.617, -0.051734988, 0.32790154, -417585.0, -88676.375, 0.0, 9.998389, 10.000221 
2.3149827e+3, 2.7644125e+2, -555400.3, -385760.97, -12791.854, -0.091039754, 0.3285465, -384801.8, -153894.47, 0.0, 9.99783, 10.000077 
2.3149522e+3, 2.864412e+2, -498227.03, -289365.97, -18625.328, -0.072392024, 0.317514, -287718.06, -154809.72, 0.0, 9.997472, 10.000239 
2.3149216e+3, 2.964413e+2, -450470.06, -227583.55, -36835.332, -0.052587483, 0.30491802, -221653.72, -186745.92, 0.0, 9.997176, 10.0001335 
2.3148903e+3, 3.064422e+2, -463496.9, -180397.6, 3702.5774, -0.14157061, 0.37936464, -180349.17, -180349.17, 0.0, 9.996628, 10.000388 
2.3148619e+3, 3.1644258e+2, -400802.38, 50507.863, -74256.34, -0.052680176, 0.37643826, 62411.656, 62411.656, 0.0, 9.996203, 10.002173 
2.3254459e+3, 1.264914e+2, -1253275.9, -1757566.6, 15690.483, 0.032051954, 0.29463062, -1252788.3, 447622.78, 0.34729496, 10.00644, 9.996606 
2.3254149e+3, 1.364888e+2, -1108621.1, -1571363.0, 5485.228, -0.051815223, 0.27187654, -1108556.1, 493880.34, 0.2536082, 10.005805, 9.997588 
2.3253845e+3, 1.4648627e+2, -1046172.3, -1545947.5, -6417.7104, 0.0044895583, 0.2813272, -1046089.94, 458370.8, 0.1577151, 10.0051155, 9.997346 
2.325354e+3, 1.564832e+2, -995479.0, -1499727.8, 2149.6404, 0.018556306, 0.2440896, -995469.8, 411020.2, 0.07860445, 10.004463, 9.997305 
2.3253232e+3, 1.6648078e+2, -906753.5, -1322570.0, 6970.0396, 0.027225794, 0.23500879, -906636.7, 401876.63, 0.02890764, 10.003833, 9.998152 
2.3252925e+3, 1.7647898e+2, -895291.94, -1279662.8, -2095.658, 0.039310187, 0.24542822, -895280.5, 315250.13, 0.006598296, 10.003207, 9.9980755 
2.3252617e+3, 1.8647736e+2, -847763.3, -1151757.6, -6859.497, 0.0402087, 0.25695875, -847608.56, 264938.97, 0.0005600253, 10.00261, 9.9985695 
2.3252307e+3, 1.9647597e+2, -837787.6, -1103299.0, -7381.623, 0.032140274, 0.26557603, -837582.56, 176979.94, 0.000000474156, 10.002034, 9.998507 
2.3251997e+3, 2.0647483e+2, -782909.4, -960575.2, -5816.2305, 0.018312652, 0.27814564, -782719.2, 133854.94, 0.0, 10.001455, 9.999092 
2.3251687e+3, 2.16474e+2, -776836.44, -919473.56, -4593.0474, 0.002124175, 0.29010227, -776688.7, 41893.395, 0.0, 10.000877, 9.9989805 
2.3251374e+3, 2.2647302e+2, -735755.2, -819880.44, -13284.791, -0.003165663, 0.2914326, -733707.2, -13114.486, 0.0, 10.000361, 9.99924 
2.3251063e+3, 2.3647214e+2, -712318.8, -763096.94, -12977.343, -0.0009368549, 0.28337973, -709194.44, -86591.33, 0.0, 9.999872, 9.999193 
2.325075e+3, 2.4647173e+2, -645848.06, -608021.94, -4420.884, -0.008127873, 0.29737872, -607512.1, -82904.12, 0.0, 9.999345, 9.999838 
2.3250437e+3, 2.564718e+2, -634566.94, -562376.1, 5357.359, -0.021215843, 0.32436326, -561980.7, -135373.06, 0.0, 9.998795, 9.999744 
2.3250122e+3, 2.6647183e+2, -574814.9, -429159.7, -3909.1394, -0.04942164, 0.33815786, -429054.84, -100446.945, 0.0, 9.998301, 10.000223 
2.3249805e+3, 2.7647194e+2, -558403.44, -385459.06, -12552.881, -0.08206207, 0.33285826, -384552.7, -153945.3, 0.0, 9.997804, 10.000092 
2.3249497e+3, 2.86472e+2, -505576.0, -280662.16, -848.55817, -0.06359285, 0.32255253, -280658.97, -148051.42, 0.0, 9.997372, 10.000345 
2.324919e+3, 2.9647237e+2, -465733.34, -224233.03, 8324.915, -0.029326702, 0.3329098, -223946.39, -189342.98, 0.0, 9.997031, 10.000224 
2.3248862e+3, 3.0647275e+2, -473855.66, -186556.17, 44478.87, -0.19820184, 0.3506895, -179827.67, -179827.67, 0.0, 9.996565, 10.000375 
2.3248579e+3, 3.1647328e+2, -419835.28, 86428.26, -34465.87, -0.035288766, 0.36367747, 88763.875, 88763.875, 0.0, 9.995878, 10.002577 
2.3354506e+3, 1.265219e+2, -1259947.3, -1781488.0, 5021.3115, -0.114124544, 0.26775837, -1259899.0, 440212.0, 0.3445203, 10.006428, 9.996445 
2.3354214e+3, 1.365192e+2, -1121500.5, -1595854.1, -11980.169, 0.04335874, 0.2609628, -1121198.1, 480940.16, 0.25169143, 10.005779, 9.997374 
2.3353906e+3, 1.4651704e+2, -1029525.0, -1505821.8, -26696.268, 0.08994283, 0.30146265, -1028033.3, 476125.7, 0.15654339, 10.005106, 9.99763 
2.335358e+3, 1.5651405e+2, -979873.94, -1467346.4, -19742.9, -0.032006394, 0.24380563, -979075.7, 427111.44, 0.077988125, 10.004468, 9.997527 
2.3353264e+3, 1.6651145e+2, -917742.44, -1348352.8, -14724.934, -0.022507973, 0.21671885, -917239.5, 390972.72, 0.028653989, 10.0038395, 9.997973 
2.3352958e+3, 1.7650938e+2, -904709.0, -1300445.3, -23549.59, 0.067014396, 0.21744312, -903312.5, 306919.84, 0.006540823, 10.003209, 9.997933 
2.3352647e+3, 1.8650796e+2, -844985.5, -1147084.9, -27137.357, 0.06953635, 0.2536048, -842567.1, 269680.66, 0.0005615798, 10.002612, 9.998602 
2.3352326e+3, 1.9650699e+2, -834224.9, -1096838.0, -27323.92, 0.019554475, 0.30136332, -831412.06, 182847.13, 0.0000006857514, 10.002035, 9.998552 
2.3352012e+3, 2.0650576e+2, -774801.44, -945216.75, -26251.787, 0.012339451, 0.29896453, -770849.1, 145422.33, 0.0, 10.001459, 9.999197 
2.3351696e+3, 2.1650462e+2, -770160.0, -907000.06, -23908.332, 0.03019112, 0.2680608, -766103.06, 52179.043, 0.0, 10.000881, 9.999066 
2.3351379e+3, 2.2650385e+2, -736398.5, -822701.4, -30833.922, 0.021402387, 0.28671452, -726514.3, -6223.1416, 0.0, 10.000365, 9.99922 
2.335106e+3, 2.3650345e+2, -709951.7, -759558.3, -31367.373, -0.0018529228, 0.32777455, -694766.06, -72468.305, 0.0, 9.999875, 9.999217 
2.3350742e+3, 2.4650313e+2, -626234.9, -568551.25, -26271.338, -0.008893715, 0.334646, -558379.8, -34078.438, 0.0, 9.999348, 10.000109 
2.3350425e+3, 2.5650308e+2, -621182.56, -535918.5, -15658.661, -0.007820654, 0.3233091, -533133.75, -106832.55, 0.0, 9.998797, 9.999926 
2.3350105e+3, 2.665029e+2, -598531.25, -479419.7, -24164.44, -0.037639968, 0.32887015, -474704.1, -146400.17, 0.0, 9.998302, 9.999879 
2.3349783e+3, 2.7650276e+2, -572643.75, -418391.84, -33160.813, -0.08545622, 0.32913014, -411565.13, -181257.69, 0.0, 9.997815, 9.999861 
2.334947e+3, 2.8650326e+2, -470274.9, -209451.0, -16836.682, -0.05973185, 0.34979096, -208368.64, -76066.7, 0.0, 9.997378, 10.000833 
2.3349163e+3, 2.9650474e+2, -440277.66, -170831.84, -5873.556, 0.011421134, 0.41949424, -170703.88, -136418.55, 0.0, 9.9970255, 10.000595 
2.3348823e+3, 3.0650285e+2, -477176.7, -192814.64, 18154.049, -0.23940578, 0.19837558, -191660.34, -191660.34, 0.0, 9.996559, 10.000336 
2.3348533e+3, 3.1650415e+2, -462826.3, -6461.0996, -12588.383, -0.08682152, 0.3002122, -6114.1255, -6114.1255, 0.0, 9.995891, 10.001934 
2.3454572e+3, 1.2655336e+2, -1202215.4, -1726049.9, 13964.679, -0.13280192, 0.26698157, -1201843.4, 497958.7, 0.3399465, 10.006926, 9.996588 
2.345427e+3, 1.3655025e+2, -1155336.4, -1622398.5, 8105.8296, 0.052531045, 0.22530478, -1155195.8, 446637.13, 0.24843648, 10.005474, 9.997324 
2.3453955e+3, 1.4654833e+2, -1057783.9, -1514390.4, 11629.361, 0.09328196, 0.28893772, -1057487.9, 446363.63, 0.1545163, 10.00484, 9.997694 
2.3453623e+3, 1.5654558e+2, -947573.0, -1444401.6, 5166.1943, -0.03757695, 0.24992362, -947519.3, 458358.7, 0.07691867, 10.004683, 9.997579 
2.3453303e+3, 1.6654299e+2, -883141.6, -1333113.4, 1699.1736, -0.030246735, 0.22487791, -883135.2, 424767.78, 0.028210497, 10.004094, 9.997953 
2.3452991e+3, 1.7654088e+2, -897342.06, -1299593.6, 3860.8638, 0.05969377, 0.22093676, -897305.06, 312618.66, 0.006426766, 10.003276, 9.997906 
2.3452671e+3, 1.8653935e+2, -843153.56, -1152761.5, 5455.6045, 0.06503826, 0.25438714, -843057.5, 268882.53, 0.00055449124, 10.002657, 9.998539 
2.3452346e+3, 1.9653831e+2, -822176.9, -1096581.3, -2964.238, 0.019983975, 0.29971644, -822144.9, 191807.67, 0.0000009107791, 10.002146, 9.998499 
2.3452026e+3, 2.065371e+2, -758162.4, -940550.56, -11536.919, 0.013706703, 0.30214828, -757435.5, 158529.64, 0.0, 10.001591, 9.999165 
2.3451707e+3, 2.1653602e+2, -752466.94, -899318.44, -19589.072, 0.031259857, 0.28122246, -749898.8, 68076.83, 0.0, 10.00101, 9.999055 
2.3451385e+3, 2.2653529e+2, -723490.3, -804570.5, -22994.691, 0.025197897, 0.30083323, -717422.94, 2561.1157, 0.0, 10.000406, 9.999324 
2.345106e+3, 2.3653495e+2, -716294.6, -752574.1, -14379.572, 0.0066401395, 0.33874053, -711286.56, -89296.91, 0.0, 9.999791, 9.999304 
2.3450735e+3, 2.4653472e+2, -640834.0, -578116.8, -18073.838, -0.0010192873, 0.35040984, -573281.1, -49288.33, 0.0, 9.999261, 10.000084 
2.3450412e+3, 2.5653473e+2, -626148.1, -538465.7, -28522.834, -0.0016131506, 0.34670815, -530003.94, -104011.27, 0.0, 9.998767, 9.999922 
2.3450089e+3, 2.665345e+2, -593535.44, -470270.28, -23103.678, -0.034070324, 0.34526694, -466082.25, -138086.7, 0.0, 9.998312, 9.999935 
2.344976e+3, 2.765343e+2, -560795.7, -406181.25, -3202.8206, -0.08509685, 0.33479765, -406114.9, -176115.89, 0.0, 9.997873, 9.999915 
2.3449443e+3, 2.8653485e+2, -465392.16, -210206.06, 1801.0557, -0.057433724, 0.3600225, -210193.36, -78200.49, 0.0, 9.997428, 10.000802 
2.3449133e+3, 2.9653633e+2, -456123.6, -184309.75, -26217.05, 0.02160642, 0.4305194, -181804.16, -147827.6, 0.0, 9.996944, 10.000542 
2.3448786e+3, 3.0653438e+2, -474776.78, -151917.2, -7075.904, -0.2537863, 0.19473912, -151762.2, -151762.2, 0.0, 9.996408, 10.000688 
2.3448496e+3, 3.1653705e+2, -489575.56, -45305.195, 34582.258, -0.025710491, 0.38828427, -42629.41, -42629.41, 0.0, 9.995828, 10.001694 
2.3554648e+3, 1.2658551e+2, -1185476.1, -1681036.1, -21186.346, -0.0548459, 0.2746049, -1184572.0, 514914.8, 0.3335568, 10.006854, 9.99699 
2.3554319e+3, 1.3658193e+2, -1146281.5, -1606563.4, -27531.197, -0.014995625, 0.16722909, -1144640.6, 456879.94, 0.24381483, 10.005478, 9.997434 
2.3553997e+3, 1.4658013e+2, -1063656.4, -1537569.0, 6956.696, 0.026151484, 0.2483502, -1063554.4, 439984.25, 0.15161131, 10.004858, 9.997528 
2.3553672e+3, 1.5657774e+2, -955708.7, -1462166.6, -3365.283, -0.0039415634, 0.26243848, -955686.3, 449876.78, 0.075385794, 10.00467, 9.997465 
2.3553348e+3, 1.6657536e+2, -877346.44, -1319135.6, -27827.482, -0.0027508375, 0.2568113, -875600.5, 431985.84, 0.027573172, 10.004081, 9.998057 
2.355302e+3, 1.7657332e+2, -892857.75, -1291254.1, -24092.838, 0.019200418, 0.2510595, -891406.0, 318199.78, 0.0062531917, 10.003277, 9.997964 
2.3552693e+3, 1.8657148e+2, -853777.9, -1176771.6, -12792.675, 0.029403437, 0.25788194, -853272.0, 258353.23, 0.0005369736, 10.002662, 9.998373 
2.3552369e+3, 1.9656987e+2, -833123.25, -1120462.8, -21064.637, 0.03133152, 0.26470825, -831587.25, 182055.83, 0.0000010540285, 10.002148, 9.998335 
2.3552041e+3, 2.0656873e+2, -769310.9, -964888.5, -31988.834, 0.021253902, 0.29112872, -764211.75, 151444.0, 0.0, 10.001594, 9.998998 
2.3551714e+3, 2.1656804e+2, -760401.25, -915993.7, -39706.78, 0.005411912, 0.32602328, -750854.06, 66809.54, 0.0, 10.001007, 9.998943 
2.3551387e+3, 2.2656725e+2, -708006.56, -773692.1, -44832.29, 0.008801238, 0.33124438, -685274.4, 34397.883, 0.0, 10.000409, 9.999536 
2.3551057e+3, 2.3656662e+2, -705926.25, -733451.75, -36391.96, 0.021843238, 0.3173714, -680781.56, -59102.02, 0.0, 9.999799, 9.9994335 
2.355073e+3, 2.465664e+2, -662244.56, -624664.25, -37528.89, 0.0140394755, 0.34684694, -601484.3, -77801.234, 0.0, 9.999268, 9.999763 
2.35504e+3, 2.565666e+2, -638262.06, -566284.8, -47866.805, -0.0052648266, 0.3954042, -542386.8, -116703.97, 0.0, 9.9987755, 9.999728 
2.3550071e+3, 2.6656651e+2, -561753.1, -405805.34, -41717.38, -0.039653685, 0.38626292, -395346.97, -67663.086, 0.0, 9.998317, 10.000377 
2.3549739e+3, 2.7656648e+2, -538360.6, -359833.47, -20988.742, -0.08116389, 0.34701246, -357399.1, -127715.586, 0.0, 9.997872, 10.000235 
2.354942e+3, 2.8656667e+2, -503997.2, -290397.44, -18094.8, -0.057350457, 0.354665, -288875.4, -157194.17, 0.0, 9.997426, 10.000255 
2.35491e+3, 2.9656705e+2, -488765.9, -255884.3, -46780.734, -0.005545509, 0.3722688, -246838.45, -213160.78, 0.0, 9.996957, 10.000046 
2.3548752e+3, 3.065672e+2, -426040.06, -52640.203, -31005.408, -0.23980525, 0.33029214, -50083.168, -50083.168, 0.0, 9.996414, 10.0013685 
2.3548454e+3, 3.1656992e+2, -478928.9, -23526.96, 30030.293, -0.012352935, 0.45309094, -21555.229, -21555.229, 0.0, 9.995825, 10.001846 
2.3654719e+3, 1.2661822e+2, -1274485.4, -1714990.6, -2918.119, 0.022739928, 0.27844104, -1274466.1, 424700.94, 0.32559687, 10.0057745, 9.997216 
2.365437e+3, 1.3661462e+2, -1081143.9, -1576097.8, -19437.906, -0.07501256, 0.16906834, -1080381.6, 520818.63, 0.23799531, 10.006038, 9.997423 
2.365404e+3, 1.4661276e+2, -996001.1, -1509741.4, 12973.452, -0.038958922, 0.250505, -995673.7, 507545.16, 0.1479209, 10.005433, 9.99744 
2.3653719e+3, 1.5661034e+2, -998393.25, -1491199.1, 7272.2314, 0.014653944, 0.269547, -998285.94, 406958.1, 0.07342731, 10.004378, 9.997403 
2.3653387e+3, 1.6660799e+2, -916536.8, -1330236.6, -15180.014, 0.018391458, 0.26473516, -915980.56, 391286.63, 0.026752058, 10.003771, 9.998128 
2.365305e+3, 1.7660598e+2, -870908.3, -1274223.4, -14192.166, -0.0033114583, 0.25735173, -870409.56, 338876.56, 0.006020617, 10.003405, 9.998017 
2.365272e+3, 1.866041e+2, -830233.9, -1171222.8, 971.0845, 0.006421879, 0.26136357, -830231.06, 281074.63, 0.00050837, 10.002852, 9.998318 
2.365239e+3, 1.9660242e+2, -829640.56, -1124668.4, -718.92163, 0.032449327, 0.26594275, -829638.8, 183685.33, 0.0000010408802, 10.002201, 9.99828 
2.3652059e+3, 2.0660123e+2, -774991.1, -974446.2, -4635.632, 0.024817105, 0.29316163, -774883.44, 140454.1, 0.0, 10.001587, 9.998934 
2.3651724e+3, 2.166005e+2, -765927.5, -923968.06, -5763.0967, -0.000011914175, 0.33083615, -765717.6, 51628.664, 0.0, 10.000995, 9.998893 
2.365139e+3, 2.2659968e+2, -695660.3, -767440.56, -15332.461, 0.0006799663, 0.33612892, -692522.44, 26832.768, 0.0, 10.000495, 9.9995365 
2.3651057e+3, 2.3659903e+2, -671459.94, -717061.4, -21403.617, 0.016363066, 0.32083878, -662987.8, -41625.52, 0.0, 10.00004, 9.999428 
2.3650722e+3, 2.4659875e+2, -639595.1, -621189.6, -16857.348, 0.012551622, 0.3475581, -611186.6, -87820.0, 0.0, 9.999458, 9.999693 
2.3650388e+3, 2.565989e+2, -638993.06, -572116.2, -8388.518, -0.0030243166, 0.39415193, -571080.06, -145712.45, 0.0, 9.998797, 9.999676 
2.3650053e+3, 2.6659885e+2, -560405.56, -401058.34, -10555.778, -0.038194597, 0.39498305, -400362.13, -72994.36, 0.0, 9.998312, 10.00041 
2.364972e+3, 2.7659896e+2, -530222.44, -352477.63, -20860.434, -0.07601951, 0.36977383, -350062.25, -120696.734, 0.0, 9.997918, 10.00026 
2.3649392e+3, 2.8659895e+2, -508756.25, -295120.44, -9570.7705, -0.056023, 0.35364875, -294692.5, -163326.77, 0.0, 9.997409, 10.000227 
2.3649065e+3, 2.965989e+2, -511058.38, -264829.78, -804.37164, -0.02746543, 0.33299682, -264827.16, -231460.64, 0.0, 9.996802, 10.000055 
2.3648718e+3, 3.066002e+2, -460654.28, -79477.37, 5550.541, -0.20725644, 0.4102123, -79396.56, -79396.56, 0.0, 9.9962225, 10.001276 
2.3648405e+3, 3.1660032e+2, -516445.13, -80025.7, -4364.086, -0.08333713, 0.28275543, -79982.06, -79982.06, 0.0, 9.995736, 10.0015 
2.3754783e+3, 1.2665145e+2, -1268090.9, -1715730.3, 4093.5408, 0.0959791, 0.27454427, -1268053.4, 430789.47, 0.31647837, 10.005788, 9.997204 
2.3754424e+3, 1.3664828e+2, -1088032.6, -1594490.1, -17907.092, -0.13449395, 0.22443607, -1087400.3, 513472.06, 0.23126708, 10.006009, 9.997271 
2.3754087e+3, 1.466462e+2, -996332.0, -1515083.6, -21716.271, -0.10748115, 0.2925109, -995424.5, 507468.22, 0.14360984, 10.00542, 9.997413 
2.3753762e+3, 1.5664336e+2, -997354.4, -1494170.5, -25426.01, 0.01919989, 0.2714817, -996056.56, 408864.6, 0.071115315, 10.004388, 9.99738 
2.3753425e+3, 1.6664083e+2, -913103.2, -1326045.4, -27746.645, 0.034278855, 0.25041187, -911247.2, 395698.53, 0.025770927, 10.003778, 9.998155 
2.3753083e+3, 1.7663886e+2, -869276.06, -1270659.3, -28768.229, -0.009903605, 0.24160013, -867224.6, 341740.16, 0.0057346774, 10.003401, 9.998045 
2.3752744e+3, 1.866372e+2, -828791.1, -1167478.9, -22831.592, -0.00613452, 0.26565447, -827258.94, 283723.03, 0.00046961068, 10.002847, 9.998347 
2.3752409e+3, 1.9663583e+2, -828963.2, -1122329.1, -23452.19, 0.022359192, 0.299446, -827100.2, 185896.6, 0.00000087333115, 10.002194, 9.998301 
2.3752072e+3, 2.0663446e+2, -772946.9, -970741.8, -25809.646, 0.024070611, 0.30636597, -769634.56, 145377.16, 0.0, 10.001586, 9.998961 
2.3751733e+3, 2.166333e+2, -766387.7, -926115.2, -25579.713, 0.011282614, 0.29833195, -762391.2, 54633.316, 0.0, 10.000998, 9.998879 
2.3751394e+3, 2.266325e+2, -709054.4, -796934.5, -31452.787, -0.0007955113, 0.31872207, -698957.4, 20076.182, 0.0, 10.0005, 9.999332 
2.3751052e+3, 2.366321e+2, -681175.4, -738300.1, -39165.477, -0.01070197, 0.34787065, -661263.56, -40224.684, 0.0, 10.000042, 9.999283 
2.3750715e+3, 2.4663162e+2, -627511.8, -597188.8, -42766.223, -0.0051526935, 0.35107765, -566976.1, -43931.563, 0.0, 9.999461, 9.999857 
2.3750377e+3, 2.5663134e+2, -633080.4, -561892.1, -33057.223, 0.0035167895, 0.34387305, -548909.25, -123861.336, 0.0, 9.998804, 9.999743 
2.3750037e+3, 2.6663142e+2, -586808.6, -457080.88, -27212.336, -0.030685287, 0.3730542, -451603.94, -124555.836, 0.0, 9.998314, 10.000026 
2.3749697e+3, 2.766317e+2, -548530.5, -392820.13, -37735.33, -0.07554019, 0.40299517, -384157.2, -155111.05, 0.0, 9.997926, 9.999982 
2.3749365e+3, 2.866315e+2, -474649.6, -225616.27, -34998.33, -0.05594095, 0.35410252, -220791.2, -89743.38, 0.0, 9.997413, 10.000704 
2.3749033e+3, 2.9663175e+2, -475157.4, -190036.67, -26779.742, -0.038223002, 0.31210166, -187543.2, -154498.89, 0.0, 9.996799, 10.000572 
2.3748684e+3, 3.0663335e+2, -522155.3, -204924.66, -15909.444, -0.15895942, 0.43616748, -204128.78, -204128.78, 0.0, 9.99621, 10.000422 
2.3748362e+3, 3.166313e+2, -492219.9, -31380.738, -51114.7, -0.0832959, 0.19369249, -25779.354, -25779.354, 0.0, 9.995742, 10.001833 
2.3854844e+3, 1.2668528e+2, -1191560.4, -1679996.0, 13102.78, 0.07705464, 0.29916003, -1191209.1, 507303.72, 0.30664575, 10.006503, 9.997161 
2.3854485e+3, 1.3668214e+2, -1104661.9, -1618909.8, -7205.0586, -0.10615287, 0.2683808, -1104561.0, 495981.53, 0.22393852, 10.005875, 9.997155 
2.3854142e+3, 1.4667983e+2, -1003498.7, -1506676.0, -19735.434, -0.09323864, 0.3125102, -1002725.8, 499838.72, 0.1388579, 10.005285, 9.997532 
2.3853806e+3, 1.5667684e+2, -949497.94, -1460784.9, -14863.402, 0.00029171567, 0.2652152, -949066.2, 455527.3, 0.068537034, 10.004696, 9.997459 
2.3853461e+3, 1.6667439e+2, -882382.9, -1323698.3, -11240.331, 0.01856748, 0.25326815, -882096.75, 424521.03, 0.024665808, 10.004049, 9.998038 
2.3853117e+3, 1.7667255e+2, -876576.4, -1281564.6, -22975.063, -0.00473118, 0.27036566, -875277.2, 333359.2, 0.0054073776, 10.003385, 9.997975 
2.3852773e+3, 1.8667087e+2, -836973.0, -1151227.9, -18642.502, -0.0024267964, 0.28529605, -835870.94, 274782.22, 0.00042333477, 10.0027075, 9.998524 
2.3852432e+3, 1.966694e+2, -844174.1, -1113870.6, -9126.837, 0.013937614, 0.29200515, -843865.56, 168802.13, 0.00000061647575, 10.002025, 9.998438 
2.3852088e+3, 2.0666806e+2, -788556.1, -982140.7, -5662.0073, 0.017573744, 0.29835948, -788390.7, 126291.51, 0.0, 10.001498, 9.998923 
2.3851743e+3, 2.16667e+2, -760934.0, -927398.44, -11204.601, 0.014128039, 0.30424994, -760183.25, 56511.195, 0.0, 10.001055, 9.998841 
2.3851396e+3, 2.2666618e+2, -713341.5, -803313.9, -11660.271, 0.0018318035, 0.32595608, -711854.9, 6848.965, 0.0, 10.000491, 9.999291 
2.3851052e+3, 2.3666567e+2, -710849.25, -757345.75, -7203.6094, -0.012107667, 0.35101637, -709758.8, -89048.66, 0.0, 9.999861, 9.999238 
2.3850708e+3, 2.4666512e+2, -632845.06, -603367.6, -13135.834, -0.011363904, 0.3509477, -598363.5, -75647.125, 0.0, 9.999443, 9.999823 
2.3850363e+3, 2.5666475e+2, -588851.25, -545795.8, -18945.77, -0.0056261006, 0.33942857, -538646.3, -113925.99, 0.0, 9.999135, 9.999693 
2.385002e+3, 2.6666474e+2, -569026.0, -460808.66, -9237.634, -0.035337493, 0.36703908, -460025.78, -133303.97, 0.0, 9.998494, 9.999911 
2.3849675e+3, 2.7666494e+2, -595150.56, -425602.75, 75.61024, -0.072646715, 0.40045068, -425602.72, -196881.38, 0.0, 9.997654, 9.9998865 
2.3849335e+3, 2.866649e+2, -512309.7, -238802.83, -4503.4507, -0.05760309, 0.3740543, -238728.7, -108007.5, 0.0, 9.997137, 10.000745 
2.3848999e+3, 2.9666543e+2, -466819.0, -177885.95, -31544.162, -0.046411853, 0.35544753, -174482.23, -141767.3, 0.0, 9.996827, 10.00064 
2.3848647e+3, 3.0666617e+2, -534721.56, -201853.45, -14778.056, -0.12711254, 0.38178325, -201198.66, -201198.66, 0.0, 9.996087, 10.000501 
2.3848313e+3, 3.1666782e+2, -507255.28, 117218.15, 32192.332, -0.11126398, 0.5072089, 118873.31, 118873.31, 0.0, 9.994972, 10.003222 
2.3954898e+3, 1.2671964e+2, -1183362.8, -1679385.1, -4625.6563, -0.028864678, 0.34817776, -1183319.6, 514858.1, 0.29651347, 10.006514, 9.997157 
2.3954554e+3, 1.3671623e+2, -1106074.4, -1629296.6, -23196.373, -0.0027501786, 0.2976778, -1105048.0, 495162.63, 0.21629415, 10.005846, 9.9971 
2.3954202e+3, 1.4671367e+2, -990392.56, -1481223.4, -37655.332, -0.008795121, 0.30790842, -987520.56, 514714.1, 0.13383488, 10.005263, 9.997741 
2.3953848e+3, 1.5671079e+2, -940046.7, -1442062.3, -35293.895, -0.041844618, 0.25131816, -937577.5, 466683.97, 0.06578245, 10.004689, 9.997594 
2.3953499e+3, 1.6670859e+2, -898947.2, -1360205.9, -34583.86, -0.027310517, 0.27342558, -896368.6, 409915.22, 0.02347916, 10.004046, 9.997791 
2.3953152e+3, 1.76707e+2, -888667.44, -1306373.4, -45945.164, 0.009134255, 0.34071293, -883673.44, 324627.8, 0.0050551225, 10.00338, 9.997809 
2.39528e+3, 1.8670505e+2, -815720.6, -1107601.3, -42917.844, 0.015143968, 0.31863588, -809540.9, 300778.97, 0.00037348678, 10.002707, 9.998825 
2.3952448e+3, 1.9670309e+2, -827053.2, -1080189.6, -32180.521, 0.0059606875, 0.24587964, -823026.2, 189311.13, 0.00000034817865, 10.00203, 9.998668 
2.39521e+3, 2.0670196e+2, -795361.94, -997997.75, -21432.023, 0.005158847, 0.27151832, -793119.94, 121229.55, 0.0, 10.001504, 9.998814 
2.3951752e+3, 2.1670146e+2, -766780.3, -939223.8, -27259.418, 0.007979691, 0.34526336, -762573.8, 53783.22, 0.0, 10.001051, 9.998764 
2.3951404e+3, 2.2670057e+2, -705678.0, -788048.6, -34584.277, 0.008206322, 0.35567608, -693083.2, 25284.004, 0.0, 10.000492, 9.999397 
2.3951052e+3, 2.3669967e+2, -706909.94, -751341.0, -29065.764, 0.0076785325, 0.33195895, -692542.06, -72165.25, 0.0, 9.999867, 9.999278 
2.3950703e+3, 2.4669915e+2, -648794.4, -638441.3, -25725.078, -0.008136491, 0.34876102, -617377.06, -94994.195, 0.0, 9.999449, 9.99958 
2.3950352e+3, 2.56699e+2, -600695.4, -572161.94, -34635.58, -0.033011913, 0.3793366, -548969.9, -124584.08, 0.0, 9.99914, 9.999512 
2.3950003e+3, 2.6669866e+2, -558837.6, -440290.94, -42892.95, -0.05307008, 0.3758958, -426399.16, -100009.18, 0.0, 9.998495, 10.000052 
2.3949651e+3, 2.766986e+2, -588687.8, -413522.84, -30836.303, -0.06709397, 0.36591357, -408252.94, -179861.28, 0.0, 9.997657, 9.999969 
2.3949307e+3, 2.866991e+2, -542965.9, -302392.03, -18550.607, -0.059938688, 0.41518852, -300970.0, -170583.2, 0.0, 9.997134, 10.00031 
2.3948964e+3, 2.9669967e+2, -495978.47, -238764.03, -46010.24, -0.055763356, 0.44821668, -230781.52, -198400.23, 0.0, 9.996825, 10.000224 
2.3948608e+3, 3.0669865e+2, -459009.97, -43972.047, -61089.055, -0.12356309, 0.26023468, -35167.195, -35167.195, 0.0, 9.99608, 10.001591 
2.394826e+3, 3.167032e+2, -573357.2, -19125.033, 41586.832, -0.13964117, 0.55919784, -16021.9375, -16021.9375, 0.0, 9.994965, 10.002292 
2.4054958e+3, 1.2675427e+2, -1133728.1, -1661117.0, 8668.822, -0.07106343, 0.33357733, -1133585.6, 564252.4, 0.28641078, 10.00693, 9.99713 
2.4054614e+3, 1.3675101e+2, -1148866.1, -1663957.5, -1154.1195, 0.038357127, 0.30433777, -1148863.6, 451007.06, 0.20856893, 10.005454, 9.997049 
2.4054256e+3, 1.4674842e+2, -1031070.4, -1498948.1, 1546.1313, 0.026658043, 0.31334612, -1031065.25, 470829.88, 0.12868851, 10.004906, 9.99777 
2.4053894e+3, 1.5674569e+2, -920534.1, -1430025.0, -7217.339, -0.050890114, 0.2687291, -920431.94, 483488.63, 0.06293411, 10.004814, 9.997613 
2.4053538e+3, 1.6674341e+2, -877629.4, -1350299.8, -12714.156, -0.040108494, 0.28450406, -877287.6, 428655.66, 0.022250868, 10.004197, 9.997785 
2.4053183e+3, 1.7674164e+2, -897822.9, -1312216.9, -6895.9736, 0.013745288, 0.33446565, -897708.1, 310254.06, 0.0046938765, 10.003323, 9.997795 
2.4052827e+3, 1.8673971e+2, -812790.06, -1110130.0, -6243.587, 0.017911425, 0.31714505, -812659.0, 297321.72, 0.000324155, 10.002747, 9.998788 
2.4052471e+3, 1.9673789e+2, -787307.7, -1063808.1, -19953.31, -0.00329981, 0.26247883, -785875.2, 226122.02, 0.0000001406684, 10.002319, 9.99864 
2.4052115e+3, 2.0673673e+2, -774630.0, -986141.4, -14403.543, -0.0016906913, 0.2849142, -773653.6, 140355.88, 0.0, 10.001641, 9.998827 
2.4051763e+3, 2.1673608e+2, -797834.44, -953695.56, -11580.672, 0.012567778, 0.34375462, -796978.7, 19039.305, 0.0, 10.000838, 9.998765 
2.4051407e+3, 2.2673513e+2, -724232.5, -800444.4, -16442.268, 0.012135016, 0.34994546, -720836.5, -2807.7568, 0.0, 10.000381, 9.999364 
2.4051052e+3, 2.3673423e+2, -675096.7, -738605.06, -20539.17, 0.00520774, 0.32923105, -669033.06, -48994.45, 0.0, 10.0001, 9.999251 
2.4050696e+3, 2.4673381e+2, -631358.4, -626916.3, -8451.416, -0.018336842, 0.35657063, -620398.94, -98355.234, 0.0, 9.9995575, 9.999606 
2.405034e+3, 2.567338e+2, -641052.94, -590511.94, 867.72125, -0.049895346, 0.39862326, -590497.06, -166451.72, 0.0, 9.998859, 9.999519 
2.4049985e+3, 2.6673332e+2, -582586.56, -454327.7, -12636.034, -0.060495757, 0.38271925, -453094.63, -127043.83, 0.0, 9.998345, 10.000028 
2.404963e+3, 2.76733e+2, -550898.8, -398168.78, -13744.171, -0.05700287, 0.35673967, -396941.78, -168887.61, 0.0, 9.997934, 9.999938 
2.4049278e+3, 2.867337e+2, -532243.9, -306492.1, 11563.849, -0.06814836, 0.4248957, -305901.28, -175852.89, 0.0, 9.9972515, 10.000224 
2.4048929e+3, 2.967342e+2, -559481.94, -277499.47, 12937.9795, -0.092279755, 0.46258035, -276907.1, -244863.14, 0.0, 9.996427, 10.00015 
2.4048574e+3, 3.0673325e+2, -443787.28, -5632.959, -29411.764, -0.081945285, 0.27203754, -3667.467, -3667.467, 0.0, 9.996055, 10.001864 
2.4048215e+3, 3.1673503e+2, -578319.56, -187413.47, 33476.01, -0.10122271, 0.26793295, -184567.4, -184567.4, 0.0, 9.995655, 10.000797 
2.415503e+3, 1.2678903e+2, -1139184.0, -1670317.8, -34530.7, -0.06653618, 0.2515982, -1136948.5, 560547.1, 0.2765286, 10.006827, 9.997087 
2.4154666e+3, 1.3678649e+2, -1146356.5, -1672944.9, -37593.453, 0.021966806, 0.29977682, -1143686.3, 455836.3, 0.20092209, 10.00547, 9.9969845 
2.4154304e+3, 1.4678408e+2, -1032536.9, -1515417.1, -94.13102, 0.016181663, 0.33615267, -1032536.9, 469009.4, 0.123537265, 10.0049305, 9.997645 
2.4153943e+3, 1.5678144e+2, -927311.9, -1443315.1, -14066.096, -0.033327304, 0.3134978, -926928.7, 476642.88, 0.0600656, 10.004789, 9.997536 
2.415358e+3, 1.667788e+2, -866960.06, -1324446.0, -44122.43, -0.024684928, 0.28439403, -862743.5, 442853.5, 0.021016944, 10.004175, 9.997974 
2.4153218e+3, 1.7677642e+2, -890369.7, -1297718.8, -35574.36, 0.0098055815, 0.25642663, -887286.3, 320333.63, 0.00433748, 10.003324, 9.997896 
2.4152854e+3, 1.8677479e+2, -836784.5, -1161257.1, -20984.166, 0.0064413655, 0.284776, -835433.0, 274203.53, 0.00027860896, 10.002749, 9.998437 
2.415249e+3, 1.967737e+2, -807310.1, -1104641.1, -36563.715, -0.015554973, 0.3375149, -802879.8, 208768.5, 0.00000003428923, 10.002314, 9.9983635 
2.4152128e+3, 2.0677225e+2, -766345.06, -969542.1, -43491.02, -0.003962891, 0.33544755, -757427.9, 156235.22, 0.0, 10.001642, 9.998942 
2.415177e+3, 2.167708e+2, -792884.3, -944954.94, -36733.25, 0.02423232, 0.30273536, -784476.1, 31201.578, 0.0, 10.000842, 9.998825 
2.4151412e+3, 2.2676979e+2, -735271.2, -825655.8, -25549.645, 0.012156773, 0.31222114, -728548.9, -10859.942, 0.0, 10.000389, 9.999188 
2.415105e+3, 2.3676921e+2, -681402.75, -753477.56, -32915.598, -0.019717922, 0.34169975, -668633.06, -48936.605, 0.0, 10.000105, 9.999148 
2.4150689e+3, 2.4676898e+2, -611758.3, -586713.06, -35845.438, -0.041320134, 0.37280494, -561265.8, -39565.957, 0.0, 9.9995575, 9.999883 
2.4150327e+3, 2.5676903e+2, -627205.9, -563291.9, -25186.873, -0.059046492, 0.3983813, -554559.44, -130859.77, 0.0, 9.998863, 9.999706 
2.4149968e+3, 2.6676857e+2, -596795.1, -485186.3, -29846.832, -0.058660306, 0.3883003, -477705.94, -152000.83, 0.0, 9.998348, 9.999816 
2.414961e+3, 2.7676815e+2, -561859.8, -422059.78, -33229.086, -0.045961466, 0.37102374, -414563.53, -186853.4, 0.0, 9.997936, 9.999775 
2.4149248e+3, 2.8676853e+2, -511740.28, -263844.78, -21912.107, -0.08538866, 0.40085232, -261922.81, -132215.73, 0.0, 9.99725, 10.000519 
2.4148884e+3, 2.9676905e+2, -539185.75, -236050.19, -13160.616, -0.15739709, 0.40608364, -235479.89, -203777.38, 0.0, 9.996427, 10.000436 
2.4148543e+3, 3.0676982e+2, -495399.16, -114036.266, -39194.39, 0.009286882, 0.41349098, -110049.75, -110049.75, 0.0, 9.996057, 10.00112 
2.4148169e+3, 3.1677085e+2, -541523.06, -116952.26, 35770.06, -0.13572669, 0.42268813, -113959.72, -113959.72, 0.0, 9.995674, 10.001275 
2.4255095e+3, 1.2682506e+2, -1252113.0, -1731723.3, -21294.156, -0.020299323, 0.24422382, -1251169.5, 445973.38, 0.26690626, 10.005661, 9.997161 
2.425472e+3, 1.3682275e+2, -1069172.5, -1625256.0, -15472.987, -0.0034168256, 0.30906555, -1068742.4, 530425.25, 0.19342393, 10.006073, 9.997019 
2.4254353e+3, 1.4682026e+2, -975646.0, -1497324.1, 18125.97, -0.005810773, 0.34326944, -975016.94, 526175.44, 0.11845818, 10.005402, 9.997544 
2.425399e+3, 1.5681762e+2, -1010917.0, -1493134.9, 7631.279, -0.010411768, 0.32978687, -1010796.3, 392422.03, 0.05723454, 10.004198, 9.997478 
2.425362e+3, 1.6681497e+2, -924052.3, -1335451.1, -15504.306, -0.0068008164, 0.2944739, -923468.8, 381774.44, 0.01980724, 10.003699, 9.998126 
2.4253249e+3, 1.7681259e+2, -851142.5, -1268919.9, -9914.002, -0.0028345676, 0.25130442, -850907.4, 356358.0, 0.0039967997, 10.003555, 9.99798 
2.4252881e+3, 1.8681088e+2, -814134.8, -1175470.8, 5778.6245, -0.0039984067, 0.28300548, -814042.44, 295240.63, 0.00023879341, 10.003016, 9.998209 
2.4252515e+3, 1.9680968e+2, -824823.6, -1133707.9, -3010.9702, -0.0061201956, 0.34833726, -824794.25, 186502.56, 0.000000003872902, 10.002283, 9.998178 
2.4252146e+3, 2.0680815e+2, -754160.2, -959737.9, -12424.953, 0.00040622504, 0.34541026, -753411.94, 159900.38, 0.0, 10.00171, 9.998975 
2.425178e+3, 2.1680667e+2, -737133.94, -915351.1, -11257.539, 0.011456486, 0.3068146, -736425.6, 78901.16, 0.0, 10.001217, 9.998845 
2.4251413e+3, 2.2680564e+2, -706500.06, -816295.0, 9917.066, 0.0022038221, 0.31704676, -705611.5, 11726.382, 0.0, 10.000609, 9.9991455 
2.425105e+3, 2.3680505e+2, -708245.3, -770384.1, 11019.382, -0.015408434, 0.34885877, -706349.06, -87003.516, 0.0, 9.999941, 9.99911 
2.4250683e+3, 2.4680471e+2, -647104.7, -605397.6, -6850.1724, -0.035656713, 0.37336278, -604301.4, -82951.47, 0.0, 9.999325, 9.999866 
2.4250315e+3, 2.5680467e+2, -645549.44, -571469.06, -16284.5, -0.05731494, 0.39124852, -568047.4, -144696.63, 0.0, 9.998739, 9.999708 
2.4249952e+3, 2.668043e+2, -610041.5, -482784.28, -8132.1943, -0.05412388, 0.38833684, -482266.7, -156911.9, 0.0, 9.998222, 9.999892 
2.4249588e+3, 2.7680403e+2, -594046.1, -433701.72, 6644.711, -0.033711396, 0.37431756, -433426.84, -206068.36, 0.0, 9.997698, 9.999809 
2.4249218e+3, 2.8680423e+2, -528613.8, -274714.1, 3910.0354, -0.08787737, 0.39058277, -274653.88, -145296.64, 0.0, 9.997148, 10.000492 
2.4248846e+3, 2.9680488e+2, -511965.2, -225190.52, -9621.144, -0.18669449, 0.41274276, -224868.1, -193516.16, 0.0, 9.996629, 10.000409 
2.4248506e+3, 3.0680558e+2, -549170.06, -193269.66, -34507.637, 0.054824803, 0.43803647, -189954.72, -189954.72, 0.0, 9.99592, 10.000641 
2.4248117e+3, 3.1680596e+2, -541088.0, 55937.324, 83416.45, -0.17534909, 0.42507792, 67373.23, 67373.23, 0.0, 9.994929, 10.002824 
2.4355157e+3, 1.2686229e+2, -1239306.9, -1711150.5, -10751.981, 0.050904293, 0.30737162, -1239062.0, 457717.97, 0.2574793, 10.005662, 9.997297 
2.4354778e+3, 1.368596e+2, -1063242.6, -1613786.4, -11422.361, -0.040262144, 0.32129827, -1063005.8, 535801.5, 0.18607624, 10.006037, 9.997114 
2.4354401e+3, 1.4685683e+2, -980611.5, -1512141.6, -22989.693, -0.039054606, 0.32852158, -979619.0, 521215.7, 0.11348772, 10.005382, 9.997453 
2.4354033e+3, 1.5685414e+2, -1011516.6, -1499620.8, -28076.123, 0.016236674, 0.32113278, -1009906.94, 392954.22, 0.054476965, 10.004206, 9.997432 
2.4353659e+3, 1.6685186e+2, -915015.94, -1318671.8, -19347.822, 0.011388931, 0.31679916, -914090.7, 390791.9, 0.018641748, 10.003703, 9.998241 
2.435328e+3, 1.7685e+2, -848735.25, -1261070.9, -18196.598, -0.026154263, 0.31396815, -847933.8, 358965.75, 0.0036784138, 10.00354, 9.998043 
2.435291e+3, 1.8684787e+2, -825251.7, -1196664.1, -21059.668, -0.014463588, 0.30860037, -824061.4, 284859.75, 0.00020527234, 10.003005, 9.99807 
2.4352539e+3, 1.9684578e+2, -833610.7, -1151988.5, -27242.924, 0.021790385, 0.29865378, -831296.4, 179647.02, 0.0000000002134854, 10.00228, 9.998055 
2.4352163e+3, 2.068444e+2, -757217.44, -967252.94, -29741.982, 0.009825043, 0.318623, -753087.06, 159870.73, 0.0, 10.001713, 9.998923 
2.4351788e+3, 2.1684358e+2, -739392.1, -920870.25, -29382.984, -0.025844352, 0.35226995, -734753.4, 80212.94, 0.0, 10.001218, 9.998809 
2.4351417e+3, 2.268426e+2, -700838.4, -805561.75, -14469.546, -0.017084433, 0.36079118, -698875.94, 18100.814, 0.0, 10.000611, 9.999219 
2.435105e+3, 2.3684165e+2, -707839.1, -770007.5, -13656.264, 0.014005492, 0.3523415, -704971.56, -85984.94, 0.0, 9.99994, 9.999115 
2.4350679e+3, 2.4684095e+2, -668611.8, -651039.8, -30179.729, -0.0038834892, 0.36033913, -628393.2, -107398.62, 0.0, 9.999327, 9.999552 
2.4350303e+3, 2.5684065e+2, -657858.5, -599236.44, -38339.5, -0.047590066, 0.37813964, -580287.2, -157287.83, 0.0, 9.998746, 9.999516 
2.4349932e+3, 2.668405e+2, -584322.56, -430630.16, -29202.828, -0.04718986, 0.3827222, -425268.44, -100267.695, 0.0, 9.998225, 10.00025 
2.4349566e+3, 2.768405e+2, -576901.06, -400334.94, -15221.8545, -0.01970652, 0.36796275, -399032.28, -172032.42, 0.0, 9.9977045, 10.000037 
2.4349192e+3, 2.8684068e+2, -557357.0, -335943.16, -18417.777, -0.07585945, 0.3937191, -334421.56, -205421.61, 0.0, 9.997151, 10.000072 
2.434881e+3, 2.9684153e+2, -539279.8, -282165.06, -32097.219, -0.187851, 0.47745845, -278218.75, -247224.25, 0.0, 9.996628, 10.00002 
2.4348465e+3, 3.0684042e+2, -556660.8, -205059.8, -72628.86, 0.053777717, 0.34578675, -190647.86, -190647.86, 0.0, 9.995903, 10.000569 
2.4348068e+3, 3.1684083e+2, -480442.34, 190228.95, 21899.393, -0.15213808, 0.3224991, 190943.28, 190943.28, 0.0, 9.994895, 10.003763 
2.4455218e+3, 1.268995e+2, -1182968.4, -1678589.6, 5303.9287, 0.05933075, 0.33205608, -1182911.6, 513505.63, 0.24814244, 10.006095, 9.997353 
2.4454834e+3, 1.3689677e+2, -1111470.1, -1635203.1, 1652.0464, -0.029917974, 0.33533376, -1111465.0, 486979.34, 0.17884457, 10.00555, 9.997201 
2.4454454e+3, 1.4689402e+2, -1014955.75, -1517429.1, -20651.29, -0.036676284, 0.3330207, -1014108.4, 486362.78, 0.10863022, 10.005038, 9.997578 
2.4454075e+3, 1.5689145e+2, -952970.8, -1460808.1, -12230.868, 0.007794032, 0.32575494, -952676.44, 449819.66, 0.0518052, 10.004584, 9.997514 
2.4453697e+3, 1.6688924e+2, -884908.2, -1314644.1, 2045.3893, 0.008872814, 0.32872823, -884898.5, 419618.8, 0.017527256, 10.003956, 9.998147 
2.4453315e+3, 1.7688736e+2, -895614.6, -1290499.5, -12052.488, -0.014734869, 0.3354103, -895247.06, 311287.78, 0.0033834113, 10.0032425, 9.997985 
2.4452937e+3, 1.8688521e+2, -855327.06, -1195539.4, -10204.459, -0.008909879, 0.32321098, -855021.25, 253535.06, 0.00017744735, 10.002733, 9.998208 
2.4452561e+3, 1.968831e+2, -821182.7, -1135846.4, 2113.4973, 0.01264382, 0.29976013, -821168.5, 189409.36, 0.00000000008671795, 10.002329, 9.99814 
2.445218e+3, 2.068817e+2, -754417.75, -986615.0, 1092.9735, 0.00080634357, 0.32401302, -754412.6, 158180.31, 0.0, 10.001826, 9.998734 
2.44518e+3, 2.1688081e+2, -741437.2, -936898.7, -9448.437, -0.026773091, 0.36982605, -740981.56, 73621.445, 0.0, 10.00127, 9.9986725 
2.4451423e+3, 2.268798e+2, -689150.94, -787056.94, -588.2845, -0.018807238, 0.37802306, -689147.44, 27465.668, 0.0, 10.000639, 9.999331 
2.445105e+3, 2.3687892e+2, -698500.25, -756763.44, 4032.7837, 0.008703777, 0.36366478, -698222.44, -79600.8, 0.0, 9.99997, 9.999189 
2.4450672e+3, 2.4687812e+2, -665898.0, -661717.44, 2914.202, -0.0007644438, 0.36282098, -660221.4, -139590.7, 0.0, 9.999398, 9.999444 
2.445029e+3, 2.5687757e+2, -648147.75, -604417.25, 9151.127, -0.029071186, 0.370268, -602579.5, -179941.75, 0.0, 9.998856, 9.999427 
2.4449915e+3, 2.6687744e+2, -575556.9, -427067.28, 5620.1035, -0.0352821, 0.38219744, -426854.88, -102215.99, 0.0, 9.998289, 10.000242 
2.444954e+3, 2.7687758e+2, -573518.44, -398591.3, -7282.837, -0.024344197, 0.381003, -398288.63, -171651.86, 0.0, 9.997732, 10.000033 
2.4449162e+3, 2.868776e+2, -554280.06, -338368.25, -917.3912, -0.06961745, 0.39250937, -338364.38, -209725.9, 0.0, 9.9971895, 10.000036 
2.4448779e+3, 2.9687816e+2, -555113.2, -298070.03, 10938.387, -0.1570069, 0.45567688, -297605.38, -266969.88, 0.0, 9.996551, 9.99995 
2.444842e+3, 3.0687755e+2, -576546.5, -207825.8, -21435.77, 0.033295862, 0.37424985, -206583.8, -206583.8, 0.0, 9.995736, 10.00063 
2.4448015e+3, 3.168794e+2, -466275.03, 152009.11, 56826.15, -0.1704015, 0.48485914, 157188.58, 157188.58, 0.0, 9.995193, 10.003353 
2.455527e+3, 1.2693664e+2, -1172996.6, -1668327.3, -9329.379, 0.014142945, 0.3176807, -1172821.0, 523234.1, 0.23881632, 10.0060835, 9.997446 
2.4554895e+3, 1.3693438e+2, -1103373.0, -1619503.4, -13750.845, 0.015420691, 0.35773292, -1103006.9, 495070.78, 0.17169265, 10.005525, 9.997321 
2.4554507e+3, 1.4693189e+2, -997550.5, -1483480.0, -34838.48, -0.009192106, 0.36051705, -995065.44, 505035.94, 0.103873275, 10.005027, 9.99783 
2.4554116e+3, 1.5692946e+2, -942247.94, -1438806.0, -29263.61, -0.034254223, 0.34220296, -940529.3, 461594.53, 0.04921418, 10.004575, 9.997671 
2.4553733e+3, 1.6692697e+2, -905338.75, -1358288.4, -23825.006, -0.01307336, 0.32926622, -904089.06, 400059.1, 0.016460141, 10.003951, 9.997851 
2.4553353e+3, 1.7692462e+2, -907148.8, -1315673.0, -35253.043, 0.026541177, 0.3178493, -904129.0, 302042.56, 0.0031088777, 10.003244, 9.997812 
2.4552967e+3, 1.8692286e+2, -828391.7, -1140303.8, -24385.004, 0.009902393, 0.32858276, -826496.8, 281691.94, 0.0001540495, 10.002733, 9.998589 
2.4552578e+3, 1.9692157e+2, -805120.8, -1100587.6, -13337.013, -0.032293517, 0.3486105, -804520.06, 205681.17, 0.00000000016280782, 10.002317, 9.998389 
2.4552195e+3, 2.0691994e+2, -777832.75, -1034038.44, -18870.826, -0.025134947, 0.35912174, -776450.3, 135768.55, 0.0, 10.001819, 9.998414 
2.4551813e+3, 2.169183e+2, -758815.75, -971854.75, -28813.764, 0.0045203143, 0.3617179, -754987.44, 59249.824, 0.0, 10.001263, 9.998438 
2.4551429e+3, 2.269173e+2, -680114.56, -768835.75, -24212.105, -0.005552136, 0.37149796, -673937.2, 42310.105, 0.0, 10.000639, 9.999458 
2.4551044e+3, 2.3691678e+2, -689449.4, -740372.7, -19934.96, -0.032888014, 0.3822398, -682573.8, -64322.223, 0.0, 9.999978, 9.9993 
2.4550661e+3, 2.4691604e+2, -658936.0, -648812.56, -18972.244, -0.025618998, 0.37926784, -634238.44, -113979.21, 0.0, 9.999403, 9.999532 
2.4550281e+3, 2.569154e+2, -647512.1, -604224.8, -13265.1045, -0.0035850315, 0.36916763, -600483.25, -178216.63, 0.0, 9.9988575, 9.999429 
2.45499e+3, 2.669151e+2, -602349.56, -483275.2, -17476.045, -0.019856863, 0.38612586, -480763.28, -156493.11, 0.0, 9.99829, 9.999858 
2.4549517e+3, 2.7691513e+2, -589782.6, -433018.9, -28045.885, -0.051514633, 0.41015324, -428152.4, -201881.9, 0.0, 9.997732, 9.999799 
2.4549133e+3, 2.8691497e+2, -525412.6, -279054.72, -25087.654, -0.069436096, 0.39006504, -276525.9, -148252.9, 0.0, 9.997189, 10.000445 
2.4548753e+3, 2.9691502e+2, -532422.1, -253647.94, -17694.67, -0.08895816, 0.36211705, -252529.3, -222256.03, 0.0, 9.996558, 10.000254 
2.4548371e+3, 3.069168e+2, -570500.2, -195601.47, -49340.17, -0.01548591, 0.501636, -189216.58, -189216.58, 0.0, 9.995735, 10.000716 
2.4547966e+3, 3.1691638e+2, -554054.2, -31671.031, 29052.27, -0.1876147, 0.38823092, -30060.26, -30060.26, 0.0, 9.995197, 10.0020895 
2.4655332e+3, 1.2697518e+2, -1156535.3, -1677406.5, 25984.38, 0.0145403305, 0.34433338, -1155242.1, 540436.8, 0.22945812, 10.0062475, 9.997284 
2.4654949e+3, 1.3697273e+2, -1092933.4, -1627394.0, 6743.9785, 0.0111614335, 0.382817, -1092848.3, 504855.63, 0.16457792, 10.005623, 9.997219 
2.4654555e+3, 1.4697015e+2, -992786.06, -1473432.4, -21677.54, -0.009577794, 0.37630534, -991810.4, 507917.78, 0.099181645, 10.005001, 9.997919 
2.4654162e+3, 1.5696767e+2, -959707.4, -1439999.6, -25536.818, -0.026079504, 0.34388068, -958353.4, 443397.16, 0.046679974, 10.004406, 9.997745 
2.4653772e+3, 1.6696525e+2, -910006.8, -1357764.6, -10328.534, -0.011833456, 0.33393472, -909768.7, 394005.38, 0.015427706, 10.003906, 9.997874 
2.4653384e+3, 1.7696303e+2, -875350.4, -1296227.5, -837.21814, 0.0137903, 0.33316728, -875348.75, 330447.66, 0.0028494168, 10.003451, 9.997844 
2.4652994e+3, 1.869613e+2, -819128.8, -1134380.9, -310.01736, 0.0006954548, 0.34477025, -819128.5, 288684.9, 0.00013361072, 10.002793, 9.998599 
2.46526e+3, 1.9695996e+2, -842760.25, -1116680.1, -14263.526, -0.02999013, 0.36165106, -842019.5, 167806.6, 0.00000000021615258, 10.002048, 9.99841 
2.4652211e+3, 2.0695837e+2, -814886.44, -1040303.7, -5690.599, -0.02317247, 0.36943924, -814742.9, 97100.28, 0.0, 10.001515, 9.998517 
2.4651824e+3, 2.1695682e+2, -778768.56, -971291.6, 10293.089, 0.0020166913, 0.36928037, -778219.8, 35640.832, 0.0, 10.001088, 9.998523 
2.4651434e+3, 2.269558e+2, -702650.94, -783876.9, 12220.142, -0.007916998, 0.377526, -700852.3, 15018.48, 0.0, 10.000505, 9.999418 
2.4651043e+3, 2.3695523e+2, -710732.25, -752632.94, 7711.203, -0.032299254, 0.38756728, -709358.1, -91482.484, 0.0, 9.999843, 9.999279 
2.4650654e+3, 2.4695453e+2, -664211.06, -644982.44, 9652.75, -0.02620704, 0.3856702, -640972.9, -121089.97, 0.0, 9.999342, 9.999586 
2.4650268e+3, 2.5695392e+2, -635820.8, -592640.9, 11993.083, -0.006737708, 0.37541777, -589533.44, -167643.88, 0.0, 9.998916, 9.999478 
2.4649881e+3, 2.6695365e+2, -593472.2, -476508.66, 23302.52, -0.022411233, 0.38931426, -472037.06, -148143.89, 0.0, 9.998341, 9.99988 
2.4649492e+3, 2.7695367e+2, -598093.4, -434788.66, 42166.4, -0.04855658, 0.41411686, -424543.72, -198650.2, 0.0, 9.9976635, 9.999821 
2.4649104e+3, 2.8695363e+2, -547076.8, -281783.53, 35007.12, -0.061334856, 0.40060097, -277241.84, -149347.05, 0.0, 9.997008, 10.000513 
2.4648716e+3, 2.9695365e+2, -551494.1, -247386.27, 13954.918, -0.082630225, 0.36218202, -246747.25, -216852.17, 0.0, 9.996367, 10.000385 
2.4648328e+3, 3.0695564e+2, -522905.78, -141122.25, -4485.5645, -0.031320166, 0.4998591, -141069.56, -141069.56, 0.0, 9.995933, 10.000992 
2.4647924e+3, 3.1695497e+2, -572927.94, -125527.45, 44465.56, -0.117174, 0.34883776, -121150.99, -121150.99, 0.0, 9.995433, 10.001331 
2.4755397e+3, 1.2701492e+2, -1175699.0, -1735601.1, 8538.101, 0.045237396, 0.40595055, -1175568.8, 519721.78, 0.22000973, 10.006228, 9.996856 
2.4755e+3, 1.3701172e+2, -1111984.0, -1679496.4, -11961.511, -0.0405188, 0.40919587, -1111732.0, 485591.94, 0.1574228, 10.0056, 9.996873 
2.4754602e+3, 1.4700876e+2, -993193.9, -1479747.0, -41115.63, -0.0357617, 0.3809996, -989743.9, 509608.2, 0.094487414, 10.004996, 9.997874 
2.4754208e+3, 1.5700607e+2, -956522.2, -1437592.0, -44368.81, 0.024870435, 0.3342977, -952464.3, 448911.78, 0.044160295, 10.004411, 9.997761 
2.475381e+3, 1.6700405e+2, -889180.06, -1314738.5, -25479.418, 0.007986657, 0.34472886, -887659.94, 415735.25, 0.014410757, 10.003903, 9.998173 
2.4753411e+3, 1.7700247e+2, -864408.75, -1270141.0, -18790.371, -0.048775382, 0.3796831, -863540.4, 341870.0, 0.0025988773, 10.003434, 9.998033 
2.4753015e+3, 1.8700041e+2, -844138.06, -1184477.1, -27081.889, -0.034106143, 0.3700735, -841996.56, 265434.56, 0.00011496107, 10.002782, 9.998262 
2.4752624e+3, 1.969983e+2, -856077.2, -1144375.6, -37567.91, 0.014044677, 0.3399189, -851262.1, 158190.52, 0.00000000023303823, 10.002045, 9.998222 
2.475223e+3, 2.0699698e+2, -782044.75, -972662.4, -20093.893, 0.003035911, 0.35714844, -779949.56, 131516.53, 0.0, 10.001514, 9.998982 
2.4751832e+3, 2.1699624e+2, -755967.0, -922992.9, -6220.9575, -0.035051774, 0.39275107, -755735.6, 57738.563, 0.0, 10.0010805, 9.99886 
2.4751435e+3, 2.269952e+2, -715502.75, -810831.75, -12325.603, -0.024986554, 0.39557043, -713934.9, 1549.8135, 0.0, 10.000504, 9.999235 
2.4751045e+3, 2.369942e+2, -720673.94, -774038.3, -15423.149, 0.008351074, 0.3810176, -716537.1, -99042.49, 0.0, 9.999844, 9.999133 
2.475065e+3, 2.4699347e+2, -663156.25, -644037.0, -7077.487, -0.0041904333, 0.38245046, -641702.2, -122199.83, 0.0, 9.999345, 9.999592 
2.4750254e+3, 2.5699306e+2, -628877.94, -580901.1, -6316.5303, -0.042043626, 0.38828307, -580083.44, -158575.95, 0.0, 9.998924, 9.999557 
2.474986e+3, 2.6699296e+2, -563621.7, -415204.66, -3885.7197, -0.043254916, 0.3922073, -415103.0, -91594.36, 0.0, 9.998341, 10.000301 
2.474947e+3, 2.769932e+2, -579646.06, -396738.44, 15787.105, -0.014831793, 0.3977697, -395385.84, -169879.9, 0.0, 9.997662, 10.000084 
2.4749075e+3, 2.869934e+2, -570846.1, -331562.66, 8310.416, -0.047432423, 0.42113942, -331274.38, -203769.23, 0.0, 9.997006, 10.000174 
2.4748673e+3, 2.969937e+2, -556438.56, -257964.97, -11301.606, -0.14767781, 0.4393629, -257537.66, -228033.53, 0.0, 9.996366, 10.000315 
2.4748288e+3, 3.069942e+2, -484965.75, -59998.34, -18333.648, -0.0038190198, 0.3969623, -59208.87, -59208.87, 0.0, 9.995922, 10.0015545 
2.4747881e+3, 3.1699628e+2, -569578.25, -127196.086, -27974.178, -0.09199791, 0.47814634, -125434.15, -125434.15, 0.0, 9.995451, 10.001322 
2.4855459e+3, 1.2705451e+2, -1147166.0, -1715982.4, 2846.815, 0.043100372, 0.42277458, -1147151.8, 547752.06, 0.2103567, 10.006389, 9.996917 
2.4855056e+3, 1.3705118e+2, -1104629.3, -1672780.3, 11995.5205, -0.026112571, 0.40689752, -1104376.1, 492561.7, 0.15011126, 10.005604, 9.996917 
2.4854653e+3, 1.4704828e+2, -991800.2, -1485257.6, -905.1135, -0.028942823, 0.388021, -991798.5, 507167.1, 0.08970105, 10.005016, 9.997819 
2.4854253e+3, 1.5704578e+2, -938400.1, -1431081.4, -5302.532, 0.015468747, 0.3643078, -938343.06, 462645.72, 0.041604757, 10.004544, 9.997738 
2.4853848e+3, 1.670437e+2, -889801.2, -1303308.9, 1926.9575, -0.0017055384, 0.36576828, -889792.2, 413215.9, 0.013389348, 10.003845, 9.99828 
2.4853443e+3, 1.77042e+2, -912716.7, -1283032.5, -3858.896, -0.052334204, 0.37860945, -912676.44, 292347.47, 0.0023520829, 10.003054, 9.998129 
2.4853042e+3, 1.8704006e+2, -880373.44, -1194377.1, 3737.417, -0.032376874, 0.37264994, -880328.94, 226714.55, 0.00009743898, 10.002503, 9.998328 
2.4852644e+3, 1.9703813e+2, -849026.8, -1132944.0, 19621.922, 0.021866776, 0.35594338, -847677.1, 161386.16, 0.00000000017417703, 10.002066, 9.998287 
2.4852243e+3, 2.0703681e+2, -788541.25, -972983.9, 26438.111, 0.009130346, 0.36846167, -784826.4, 126250.31, 0.0, 10.001462, 9.999003 
2.4851838e+3, 2.1703596e+2, -798116.7, -940773.0, 10417.747, -0.034528397, 0.39241195, -797359.94, 15725.532, 0.0, 10.000781, 9.998881 
2.485144e+3, 2.2703497e+2, -746404.06, -823003.06, 4678.932, -0.02535105, 0.39847314, -746119.3, -31023.604, 0.0, 10.000282, 9.999257 
2.4851042e+3, 2.370341e+2, -715121.7, -766966.25, 15052.242, 0.011138895, 0.39411128, -711068.4, -93963.414, 0.0, 9.9998665, 9.999169 
2.4850643e+3, 2.4703346e+2, -671973.4, -639188.44, 31899.215, -0.00040345598, 0.39880717, -619716.25, -100604.36, 0.0, 9.999247, 9.999672 
2.4850242e+3, 2.570331e+2, -681225.44, -596066.5, 38011.656, -0.037902206, 0.4041366, -581568.0, -160451.86, 0.0, 9.998524, 9.999643 
2.4849844e+3, 2.6703304e+2, -606751.94, -422397.78, 26957.67, -0.04305249, 0.40399843, -418536.7, -95420.02, 0.0, 9.997989, 10.00042 
2.4849446e+3, 2.7703336e+2, -591271.75, -389181.88, 23684.72, -0.018129474, 0.40339768, -386443.2, -161329.75, 0.0, 9.99753, 10.000197 
2.4849045e+3, 2.870338e+2, -571294.06, -322998.06, 30553.752, -0.049031384, 0.43976486, -319293.6, -192183.1, 0.0, 9.996968, 10.000249 
2.4848635e+3, 2.9703435e+2, -549211.6, -244226.69, 41691.14, -0.15028632, 0.4777429, -238630.23, -209523.36, 0.0, 9.996371, 10.000407 
2.4848247e+3, 3.0703434e+2, -493620.1, -51828.28, 17269.223, -0.007510176, 0.37346444, -51154.273, -51154.273, 0.0, 9.995812, 10.001661 
2.484783e+3, 3.1703627e+2, -570195.0, -68248.805, -32139.521, -0.13549815, 0.43048224, -66199.29, -66199.29, 0.0, 9.9951935, 10.001849 
2.495552e+3, 1.2709405e+2, -1114706.9, -1651413.9, -20221.03, 0.014135396, 0.40839237, -1113946.1, 580571.75, 0.20036696, 10.006351, 9.997449 
2.4955118e+3, 1.3709113e+2, -1077794.4, -1615294.4, -11433.888, 0.039580636, 0.38375667, -1077551.3, 518994.44, 0.1425358, 10.0055895, 9.997318 
2.4954705e+3, 1.4708868e+2, -996235.56, -1499312.8, -16572.348, 0.0012599579, 0.398622, -995690.25, 502879.4, 0.08475077, 10.005008, 9.99772 
2.4954292e+3, 1.570866e+2, -945669.56, -1444966.8, -23716.324, -0.047989815, 0.4272037, -944545.6, 456044.56, 0.03897803, 10.004522, 9.997655 
2.4953882e+3, 1.6708411e+2, -896445.7, -1315577.0, -26447.979, -0.0369798, 0.39413795, -894783.4, 407830.5, 0.012352414, 10.003831, 9.998204 
2.4953477e+3, 1.7708163e+2, -911789.7, -1281483.9, -29195.137, -0.0046080025, 0.33527842, -909498.3, 295138.7, 0.0021068347, 10.003052, 9.998141 
2.4953069e+3, 1.8708019e+2, -851222.7, -1134421.9, -11381.168, 0.00027077654, 0.3566859, -850766.06, 255884.83, 0.00008074701, 10.002502, 9.998741 
2.495266e+3, 1.9707936e+2, -831592.06, -1095606.3, 2092.284, -0.0049871136, 0.4093984, -831575.5, 177083.72, 0.00000000005180779, 10.002057, 9.998549 
2.4952255e+3, 2.0707773e+2, -815456.25, -1028647.8, 1369.5377, -0.0029662608, 0.40182292, -815447.44, 95228.695, 0.0, 10.001458, 9.998625 
2.495185e+3, 2.1707591e+2, -816636.2, -979660.56, -11127.605, 0.00034354386, 0.36679593, -815880.2, -3185.1213, 0.0, 10.00078, 9.998617 
2.4951443e+3, 2.2707506e+2, -733091.1, -796517.44, -9309.22, -0.011247195, 0.3859835, -731753.06, -17048.684, 0.0, 10.000284, 9.999438 
2.4951035e+3, 2.3707482e+2, -702555.2, -742465.06, -2768.4802, -0.026661756, 0.4273276, -702364.06, -85656.47, 0.0, 9.999869, 9.999337 
2.4950632e+3, 2.4707438e+2, -660315.9, -615969.75, 2871.1797, -0.014849765, 0.43501878, -615784.6, -97072.234, 0.0, 9.9992485, 9.999831 
2.495023e+3, 2.57074e+2, -674571.56, -583292.1, 11552.843, 0.004811531, 0.42475924, -581852.6, -161136.45, 0.0, 9.998526, 9.999732 
2.4949825e+3, 2.6707387e+2, -620090.06, -451593.28, 8419.766, -0.022803718, 0.4243557, -451173.6, -128455.49, 0.0, 9.9979925, 10.000219 
2.4949417e+3, 2.7707407e+2, -592420.9, -394476.44, 3643.67, -0.06192425, 0.4289072, -394409.38, -169692.31, 0.0, 9.9975395, 10.000157 
2.4949011e+3, 2.870747e+2, -535804.75, -249071.34, 5887.2783, -0.066149406, 0.45724052, -248950.52, -122239.06, 0.0, 9.996964, 10.00076 
2.4948603e+3, 2.9707566e+2, -534380.3, -210022.39, 20403.188, -0.08671879, 0.4853599, -208744.0, -180041.13, 0.0, 9.996354, 10.000651 
2.4948198e+3, 3.0707577e+2, -525537.25, -119101.805, -7412.3237, -0.05111222, 0.41532123, -118966.664, -118966.664, 0.0, 9.995814, 10.001201 
2.4947786e+3, 3.1707793e+2, -535979.5, 704.15765, -44718.758, -0.08706268, 0.526499, 4404.7964, 4404.7964, 0.0, 9.995208, 10.002313 
2.505558e+3, 1.2713462e+2, -1130194.9, -1656959.4, 11163.903, 0.012127347, 0.40782025, -1129958.4, 564162.2, 0.18996175, 10.006125, 9.997505 
2.5055173e+3, 1.371317e+2, -1076176.6, -1609268.3, -5313.6367, 0.04794967, 0.3757717, -1076123.6, 520024.84, 0.13465169, 10.005528, 9.99739 
2.5054753e+3, 1.4712942e+2, -1008002.2, -1495322.3, -7620.225, 0.0069742054, 0.39862683, -1007883.06, 490288.0, 0.07961593, 10.004851, 9.997823 
2.5054333e+3, 1.5712757e+2, -988843.44, -1455105.5, -2403.2153, -0.05067274, 0.44158626, -988831.06, 411358.63, 0.036274586, 10.004155, 9.99776 
2.5053918e+3, 1.6712523e+2, -926665.5, -1317567.1, 6332.717, -0.0349331, 0.41265443, -926562.94, 375649.06, 0.011301223, 10.003566, 9.998315 
2.5053507e+3, 1.7712283e+2, -908995.6, -1269687.4, 16530.875, 0.008532911, 0.3517274, -908239.56, 295994.63, 0.0018639815, 10.00303, 9.998229 
2.5053093e+3, 1.8712138e+2, -858508.4, -1137776.3, 23001.137, 0.006700169, 0.36864847, -856626.6, 249621.53, 0.00006485423, 10.002455, 9.998739 
2.505268e+3, 1.9712052e+2, -858667.8, -1107010.6, 7690.33, -0.013349553, 0.41825357, -858429.94, 149826.98, 0.0000000000010010511, 10.001864, 9.998564 
2.5052267e+3, 2.0711893e+2, -832165.44, -1029693.06, 15876.3125, -0.0077135316, 0.41086662, -830897.5, 79375.8, 0.0, 10.001315, 9.998686 
2.505186e+3, 2.1711718e+2, -812949.44, -972096.25, 32454.053, 0.0090695545, 0.376414, -806585.7, 5705.815, 0.0, 10.000785, 9.998664 
2.5051445e+3, 2.2711633e+2, -743767.25, -804578.7, 37675.402, -0.007163898, 0.39802253, -725758.7, -11457.846, 0.0, 10.000227, 9.99941 
2.5051033e+3, 2.371161e+2, -734991.9, -757704.06, 30373.785, -0.035485566, 0.44245648, -713920.7, -97616.26, 0.0, 9.999648, 9.999338 
2.5050622e+3, 2.471157e+2, -670147.0, -610411.5, 25087.023, -0.024361502, 0.45055065, -601273.6, -82964.9, 0.0, 9.99914, 9.999921 
2.5050214e+3, 2.5711542e+2, -652369.56, -564555.2, 28335.635, 0.0031195818, 0.44038486, -556205.75, -135894.2, 0.0, 9.998647, 9.999801 
2.5049803e+3, 2.6711532e+2, -611741.75, -450239.06, 35177.008, -0.023719931, 0.44161287, -442909.75, -120596.414, 0.0, 9.998063, 10.000194 
2.5049388e+3, 2.7711546e+2, -607281.0, -401644.66, 41043.27, -0.068294235, 0.44581285, -393755.44, -169442.55, 0.0, 9.997438, 10.000156 
2.504898e+3, 2.8711608e+2, -551721.94, -249908.48, 21239.92, -0.07222181, 0.46967015, -248421.08, -122113.66, 0.0, 9.996828, 10.000819 
2.5048566e+3, 2.971171e+2, -551706.44, -217463.75, 5130.2993, -0.07639766, 0.49986136, -217385.03, -189086.98, 0.0, 9.996233, 10.000657 
2.5048158e+3, 3.0711734e+2, -522087.2, -121042.02, -4996.2627, -0.044892635, 0.44374654, -120979.79, -120979.79, 0.0, 9.995852, 10.001168 
2.5047737e+3, 3.1711912e+2, -523785.3, -40929.58, 6893.6123, -0.09162981, 0.5167566, -40831.18, -40831.18, 0.0, 9.995504, 10.001879 
2.5155643e+3, 1.2717612e+2, -1148599.3, -1703393.1, -7484.9946, 0.023265649, 0.41502905, -1148498.3, 545215.44, 0.17915238, 10.006084, 9.997145 
2.5155222e+3, 1.3717283e+2, -1089092.5, -1643913.6, -23956.314, 0.008713195, 0.38100365, -1088060.1, 507686.3, 0.12649564, 10.005497, 9.997167 
2.51548e+3, 1.471705e+2, -989863.0, -1460832.9, -30700.096, -0.006176698, 0.39161754, -987870.25, 509899.3, 0.07433304, 10.004834, 9.998089 
2.515438e+3, 1.5716876e+2, -971675.75, -1417701.8, -25540.418, -0.003333099, 0.4166022, -970218.0, 429569.0, 0.033517934, 10.004139, 9.998027 
2.515396e+3, 1.6716704e+2, -909547.3, -1280625.8, -13082.893, -0.003346296, 0.42425513, -909086.6, 392716.4, 0.010246722, 10.003554, 9.998576 
2.5153536e+3, 1.7716546e+2, -900350.1, -1250897.4, -3940.4727, -0.009905071, 0.4211106, -900305.8, 303511.25, 0.0016265179, 10.003023, 9.9983635 
2.5153115e+3, 1.871635e+2, -885482.6, -1193542.4, 1311.3345, -0.010121787, 0.40407413, -885477.0, 220359.53, 0.000050066847, 10.00245, 9.998361 
2.5152698e+3, 1.9716156e+2, -874111.5, -1138396.0, -12254.326, -0.0062573054, 0.38341433, -873544.5, 134311.88, 0.0, 10.001859, 9.998352 
2.515228e+3, 2.0716037e+2, -801396.75, -966252.2, -2999.8672, -0.006785926, 0.39754224, -801342.1, 108526.22, 0.0, 10.001314, 9.999123 
2.5151864e+3, 2.1715966e+2, -792167.8, -929073.0, 12994.507, -0.009385927, 0.42296174, -790945.3, 20930.27, 0.0, 10.000782, 9.998962 
2.5151446e+3, 2.2715871e+2, -758308.8, -835902.8, 16368.328, -0.012962004, 0.43506166, -754997.3, -41111.25, 0.0, 10.000229, 9.999195 
2.515103e+3, 2.3715785e+2, -745191.0, -781124.4, 9536.546, -0.017331656, 0.4387049, -742816.94, -126920.695, 0.0, 9.999656, 9.999175 
2.5150612e+3, 2.4715737e+2, -669550.3, -610707.3, 5879.087, -0.029758291, 0.44417483, -610125.6, -92224.016, 0.0, 9.999144, 9.999918 
2.5150195e+3, 2.5715727e+2, -649209.9, -560005.8, 7596.934, -0.04563863, 0.4506619, -559363.5, -139460.47, 0.0, 9.998652, 9.999831 
2.514978e+3, 2.671573e+2, -601099.9, -428471.38, 9790.624, -0.046437345, 0.45557886, -427917.88, -106014.766, 0.0, 9.998062, 10.000344 
2.5149366e+3, 2.7715755e+2, -606023.4, -397918.06, 16437.82, -0.03905948, 0.4545585, -396627.7, -172726.33, 0.0, 9.997432, 10.000187 
2.514895e+3, 2.871579e+2, -581350.2, -310970.53, -2392.1978, -0.06776765, 0.47753325, -310949.34, -185050.4, 0.0, 9.996823, 10.000403 
2.5148526e+3, 2.971587e+2, -565496.1, -249063.4, -14652.645, -0.11658192, 0.52415824, -248386.36, -220493.42, 0.0, 9.996243, 10.000437 
2.514812e+3, 3.0715898e+2, -492859.3, -61613.652, -19812.7, 0.0045630513, 0.45383117, -60705.313, -60705.313, 0.0, 9.995855, 10.001576 
2.5147682e+3, 3.1715947e+2, -590242.4, -177971.48, 51016.656, -0.16705233, 0.3755443, -171752.22, -171752.22, 0.0, 9.9955, 10.00094 
2.5255707e+3, 1.2721817e+2, -1136536.0, -1691895.0, 4692.885, 0.047902904, 0.41814205, -1136496.4, 556806.3, 0.16801497, 10.00608, 9.99723 
2.5255275e+3, 1.3721524e+2, -1118414.8, -1653682.1, 14263.822, -0.0076325503, 0.4118682, -1118034.9, 477297.25, 0.11814776, 10.005191, 9.997247 
2.5254846e+3, 1.4721286e+2, -1035092.2, -1476252.5, 10822.668, -0.008896346, 0.41157985, -1034826.9, 462528.6, 0.068963714, 10.004449, 9.998155 
2.5254422e+3, 1.572109e+2, -1015412.44, -1434166.9, 4864.455, 0.03038354, 0.4097692, -1015355.94, 384018.63, 0.030742848, 10.0037985, 9.998075 
2.525399e+3, 1.6720924e+2, -943617.5, -1298192.9, 7748.155, 0.020484932, 0.4233564, -943448.3, 357941.88, 0.009202999, 10.003323, 9.998565 
2.525356e+3, 1.7720789e+2, -913371.0, -1255792.9, -2320.3428, -0.015076643, 0.4413443, -913355.25, 290047.47, 0.001398367, 10.002931, 9.998373 
2.5253138e+3, 1.8720593e+2, -896100.9, -1192323.9, 12282.366, -0.013969813, 0.42205444, -895592.5, 209829.5, 0.00003693245, 10.002354, 9.998413 
2.5252715e+3, 1.9720389e+2, -893968.5, -1142509.4, 27768.717, 0.0041044573, 0.3868463, -890903.75, 116538.67, 0.0, 10.001702, 9.998397 
2.5252292e+3, 2.0720273e+2, -813045.6, -969648.7, 30735.2, -0.0052395277, 0.4018478, -807229.5, 102224.64, 0.0, 10.001227, 9.999139 
2.5251868e+3, 2.172021e+2, -784185.0, -922036.1, 16623.748, -0.025286775, 0.43641636, -782208.6, 29251.771, 0.0, 10.000826, 9.998988 
2.5251445e+3, 2.2720118e+2, -748501.06, -826636.06, 19471.516, -0.023683194, 0.4456724, -743917.56, -30446.906, 0.0, 10.00028, 9.999232 
2.5251025e+3, 2.3720028e+2, -740860.44, -774166.2, 30671.01, -0.011868304, 0.4413374, -722613.0, -107131.914, 0.0, 9.999668, 9.999215 
2.5250602e+3, 2.4719982e+2, -680379.1, -614730.06, 35394.582, -0.031544264, 0.44746324, -599282.2, -81795.85, 0.0, 9.999067, 9.999926 
2.525018e+3, 2.5719973e+2, -675025.7, -570959.0, 37669.22, -0.064974174, 0.45761093, -558755.0, -139267.48, 0.0, 9.998472, 9.999841 
2.5249758e+3, 2.6719978e+2, -615183.9, -435917.53, 31337.896, -0.059848446, 0.46429834, -430597.2, -109109.42, 0.0, 9.997972, 10.000335 
2.524934e+3, 2.7720004e+2, -598951.7, -396097.38, 24274.041, -0.033363562, 0.46686003, -393233.13, -169746.98, 0.0, 9.99749, 10.000169 
2.5248915e+3, 2.872005e+2, -585042.44, -316129.84, 17831.855, -0.06551103, 0.5006671, -314952.56, -189469.42, 0.0, 9.996817, 10.000369 
2.5248483e+3, 2.9720128e+2, -594764.75, -266174.66, 37258.586, -0.13025711, 0.55007404, -262002.9, -234525.61, 0.0, 9.996061, 10.000403 
2.5248078e+3, 3.0720112e+2, -501359.3, -73575.67, 29282.621, 0.008181505, 0.4447881, -71580.52, -71580.52, 0.0, 9.995836, 10.0015 
2.5247645e+3, 3.1720358e+2, -556658.0, -131410.73, 35753.97, -0.099037394, 0.56877613, -128425.57, -128425.57, 0.0, 9.995598, 10.001214 
2.5355768e+3, 1.2726076e+2, -1108993.3, -1638475.9, -22165.912, 0.07916267, 0.42031977, -1108066.9, 584820.56, 0.15665203, 10.006022, 9.997689 
2.5355324e+3, 1.3725877e+2, -1095141.1, -1606467.0, -12966.533, -0.0076815463, 0.46384734, -1094812.5, 500094.25, 0.10968943, 10.005176, 9.997578 
2.535489e+3, 1.4725634e+2, -1039042.4, -1493312.3, -12093.07, -0.005075682, 0.45353028, -1038720.7, 458209.4, 0.06356494, 10.00446, 9.998025 
2.535446e+3, 1.5725392e+2, -1023043.8, -1455929.4, -16445.32, 0.050966173, 0.41755655, -1022419.94, 376533.5, 0.027981823, 10.003809, 9.997922 
2.5354025e+3, 1.6725184e+2, -959800.75, -1335174.9, -5281.756, 0.03738565, 0.41137835, -959726.44, 341247.2, 0.0081839785, 10.003329, 9.998309 
2.5353593e+3, 1.7725013e+2, -920784.4, -1271597.9, -17237.703, -0.009651908, 0.41869536, -919939.4, 283051.16, 0.0011838797, 10.002929, 9.998266 
2.535316e+3, 1.8724866e+2, -866602.7, -1131683.4, -11285.3955, -0.007511575, 0.42554095, -866123.1, 238881.34, 0.000025994234, 10.002354, 9.998831 
2.535273e+3, 1.972474e+2, -876146.0, -1106723.3, 5811.0776, 0.015571049, 0.42802057, -875999.6, 131016.41, 0.0, 10.001705, 9.998643 
2.5352305e+3, 2.0724592e+2, -838258.3, -1023450.8, 16299.658, -0.0035267996, 0.4231905, -836834.7, 72196.63, 0.0, 10.001231, 9.99877 
2.5351876e+3, 2.172445e+2, -800182.44, -956013.7, 1433.3494, -0.040514097, 0.4152149, -800169.25, 10877.065, 0.0, 10.000827, 9.998756 
2.5351447e+3, 2.2724369e+2, -730349.94, -789741.7, -2605.7395, -0.039508834, 0.42976463, -730235.9, -17180.742, 0.0, 10.000281, 9.999486 
2.535102e+3, 2.372433e+2, -726224.4, -744682.25, 7390.733, -0.020648833, 0.45188144, -723629.75, -108570.17, 0.0, 9.999669, 9.999418 
2.5350595e+3, 2.4724299e+2, -678643.5, -611775.94, 11586.142, -0.030459372, 0.46158332, -609825.3, -92761.89, 0.0, 9.999068, 9.999947 
2.5350162e+3, 2.5724283e+2, -675709.3, -573903.7, 15510.729, -0.05722673, 0.46223158, -571593.0, -152527.42, 0.0, 9.998476, 9.99982 
2.5349736e+3, 2.6724273e+2, -628698.44, -464775.88, 12327.632, -0.06415083, 0.46735182, -463853.97, -142785.86, 0.0, 9.9979725, 10.000138 
2.5349313e+3, 2.7724293e+2, -604301.7, -408762.9, 2742.8132, -0.05076011, 0.4819953, -408724.44, -185656.16, 0.0, 9.997494, 10.000081 
2.534888e+3, 2.8724378e+2, -562359.56, -269545.47, -14216.941, -0.06774804, 0.53925496, -268856.8, -143795.83, 0.0, 9.996817, 10.00069 
2.5348446e+3, 2.9724473e+2, -587277.06, -249303.31, 11807.946, -0.12933813, 0.57485884, -248891.27, -221838.83, 0.0, 9.996053, 10.0005245 
2.5348032e+3, 3.072438e+2, -539840.56, -151442.44, 29250.84, -0.018317837, 0.42212778, -149251.86, -149251.86, 0.0, 9.995826, 10.000972 
2.5347605e+3, 3.1724754e+2, -480310.03, 18115.914, -116077.95, -0.06059394, 0.70588267, 43823.285, 43823.285, 0.0, 9.995617, 10.002242 
2.5455827e+3, 1.2730448e+2, -1155876.8, -1662204.1, 21537.436, 0.0853928, 0.42934328, -1154962.3, 537497.44, 0.14516538, 10.00557, 9.997712 
2.5455377e+3, 1.3730247e+2, -1081037.4, -1599967.0, 7598.971, 0.0018300071, 0.47039688, -1080926.1, 513553.13, 0.10118923, 10.005239, 9.997593 
2.5454935e+3, 1.4730005e+2, -1004962.75, -1482047.1, 4136.7095, 0.000073287796, 0.4620084, -1004926.9, 491575.78, 0.058182184, 10.004713, 9.997982 
2.54545e+3, 1.5729761e+2, -979966.75, -1439222.4, 5942.913, 0.049235478, 0.42971978, -979889.9, 418636.28, 0.025261777, 10.004127, 9.997882 
2.545406e+3, 1.6729546e+2, -936814.0, -1328088.4, 31971.578, 0.04057969, 0.42015526, -934218.75, 366328.3, 0.0072021238, 10.003506, 9.998272 
2.545362e+3, 1.7729364e+2, -930405.2, -1279355.8, 32786.043, 0.0029116299, 0.42138013, -927351.44, 275213.6, 0.0009868774, 10.002877, 9.998238 
2.5453183e+3, 1.8729217e+2, -863838.44, -1128948.6, 22434.342, -0.0010606776, 0.43028957, -861953.4, 242625.5, 0.000017543054, 10.002369, 9.99884 
2.5452748e+3, 1.9729099e+2, -845911.1, -1091750.5, 12117.623, 0.010909579, 0.43956074, -845315.25, 161274.39, 0.0, 10.001915, 9.998643 
2.5452316e+3, 2.0728944e+2, -830019.9, -1026109.06, 29666.02, -0.0048030587, 0.43398765, -825630.0, 82975.49, 0.0, 10.00132, 9.998708 
2.5451884e+3, 2.1728793e+2, -825122.75, -970224.06, 34548.0, -0.032556828, 0.42146128, -817316.94, -6695.1714, 0.0, 10.000669, 9.998733 
2.545145e+3, 2.2728714e+2, -747175.44, -788360.06, 27781.06, -0.03908061, 0.43371087, -733186.94, -20556.744, 0.0, 10.000128, 9.999568 
2.5451016e+3, 2.372868e+2, -729212.1, -740161.7, 25751.691, -0.033577185, 0.45540413, -708359.7, -93726.03, 0.0, 9.999626, 9.999469 
2.545058e+3, 2.4728651e+2, -683286.1, -621116.06, 20803.54, -0.035347994, 0.46972927, -614797.0, -98159.484, 0.0, 9.999069, 9.999881 
2.545015e+3, 2.5728634e+2, -679266.25, -580692.75, 18081.693, -0.044092912, 0.47739965, -577480.6, -158840.42, 0.0, 9.998477, 9.999771 
2.5449717e+3, 2.6728627e+2, -646770.56, -473758.78, 23928.41, -0.058547314, 0.4871522, -470510.34, -149867.53, 0.0, 9.997853, 10.000133 
2.5449285e+3, 2.7728647e+2, -643717.3, -425776.2, 28101.523, -0.062254023, 0.503301, -422211.06, -199567.98, 0.0, 9.997218, 10.000095 
2.5448847e+3, 2.8728732e+2, -560956.5, -260246.25, 2783.0735, -0.07183302, 0.55423343, -260220.48, -135584.77, 0.0, 9.996791, 10.000766 
2.5448406e+3, 2.972883e+2, -526954.1, -215777.53, 12898.627, -0.12013518, 0.58643174, -215243.78, -188617.22, 0.0, 9.996448, 10.000566 
2.544799e+3, 3.0728742e+2, -530960.0, -157428.08, 54712.473, -0.031915672, 0.44054806, -149579.08, -149579.08, 0.0, 9.995934, 10.000876 
2.544755e+3, 3.1728855e+2, -524873.8, -9811.186, -101776.28, -0.11760621, 0.4709715, 9570.462, 9570.462, 0.0, 9.99535, 10.002172 
2.555588e+3, 1.273492e+2, -1169331.3, -1704334.3, 11135.04, 0.068023995, 0.4463099, -1169099.6, 522921.38, 0.13365501, 10.005565, 9.997389 
2.555543e+3, 1.373464e+2, -1096765.9, -1637871.9, -4094.0251, 0.01593102, 0.440235, -1096735.0, 497314.22, 0.0927148, 10.005199, 9.997351 
2.5554982e+3, 1.4734401e+2, -1003560.8, -1482414.0, -15774.319, 0.0039914786, 0.44328874, -1003041.75, 493031.06, 0.052859433, 10.004696, 9.99799 
2.5554535e+3, 1.5734193e+2, -975879.25, -1433581.3, -14724.881, 0.027356805, 0.44612184, -975406.06, 422686.97, 0.022608116, 10.004125, 9.997924 
2.5554094e+3, 1.6734e+2, -926855.7, -1308484.6, 9272.672, 0.031208258, 0.44776067, -926630.5, 373480.84, 0.006268547, 10.003506, 9.998407 
2.555365e+3, 1.7733829e+2, -929314.94, -1277186.6, 10853.83, 0.020413091, 0.44760582, -928976.6, 273150.84, 0.0008097287, 10.002874, 9.998255 
2.555321e+3, 1.873364e+2, -888514.5, -1181655.8, 6193.1333, 0.004771958, 0.43644166, -888383.7, 215762.2, 0.000011470139, 10.002373, 9.998479 
2.5552768e+3, 1.9733463e+2, -861029.2, -1124887.3, -5111.903, -0.009901234, 0.42169037, -860930.2, 145233.22, 0.0, 10.00192, 9.998415 
2.5552326e+3, 2.0733331e+2, -815008.9, -996526.2, 6089.75, -0.009042133, 0.43472466, -814804.8, 93372.12, 0.0, 10.001324, 9.99891 
2.5551888e+3, 2.1733233e+2, -814997.8, -949741.1, 12585.859, -0.00412325, 0.4554543, -813832.25, -3644.994, 0.0, 10.000668, 9.998875 
2.555145e+3, 2.2733143e+2, -752812.0, -800952.06, 9761.142, -0.024349289, 0.4577637, -750908.06, -38711.46, 0.0, 10.00013, 9.999482 
2.555101e+3, 2.3733073e+2, -735412.44, -755332.06, 6179.617, -0.052874833, 0.4510662, -733651.1, -119447.2, 0.0, 9.999633, 9.999362 
2.555057e+3, 2.4733035e+2, -694393.3, -645534.25, -2258.479, -0.045930233, 0.47088274, -645430.06, -129220.71, 0.0, 9.999073, 9.999713 
2.5550133e+3, 2.5733027e+2, -685205.94, -594316.3, -5555.1177, -0.026866727, 0.5019067, -593978.06, -175765.86, 0.0, 9.99848, 9.999678 
2.5549695e+3, 2.673304e+2, -633768.75, -447301.56, -1712.1796, -0.04464362, 0.52464527, -447285.84, -127073.4, 0.0, 9.997853, 10.000316 
2.5549257e+3, 2.7733073e+2, -635203.2, -409013.72, 5307.966, -0.071399085, 0.5345912, -408889.25, -186678.53, 0.0, 9.99722, 10.000212 
2.5548816e+3, 2.8733107e+2, -572718.56, -285082.66, -10817.322, -0.07607709, 0.54261416, -284676.4, -160468.25, 0.0, 9.996789, 10.000598 
2.5548372e+3, 2.9733187e+2, -528987.75, -220761.64, -733.4153, -0.09363462, 0.5760733, -220759.89, -194559.02, 0.0, 9.996448, 10.000533 
2.5547945e+3, 3.0733198e+2, -515637.3, -128116.53, 27275.621, -0.052856795, 0.5129793, -126206.16, -126206.16, 0.0, 9.995941, 10.001077 
2.55475e+3, 3.1733245e+2, -550792.0, -61630.223, -25037.488, -0.1414786, 0.4720383, -60352.03, -60352.03, 0.0, 9.995347, 10.001815 
2.565593e+3, 1.2739415e+2, -1123967.5, -1683775.8, 11089.012, 0.037315212, 0.45256987, -1123747.9, 567832.94, 0.12224409, 10.0058565, 9.9974 
2.565548e+3, 1.3739121e+2, -1135983.3, -1659127.3, 17317.717, 0.043934353, 0.42968422, -1135410.6, 458199.8, 0.08435033, 10.004862, 9.997368 
2.5655028e+3, 1.4738894e+2, -1043731.8, -1500951.9, 21320.146, 0.02460372, 0.4427488, -1042739.8, 452893.4, 0.04764783, 10.004379, 9.99801 
2.5654575e+3, 1.5738705e+2, -975746.94, -1434010.3, 20547.328, 0.012217997, 0.46653864, -974827.44, 422824.1, 0.02004712, 10.00412, 9.997923 
2.5654125e+3, 1.6738503e+2, -925138.1, -1316338.4, 27477.12, 0.015063283, 0.46359915, -923217.6, 376453.2, 0.005392662, 10.003553, 9.998329 
2.5653678e+3, 1.7738308e+2, -934328.2, -1287015.1, 17492.225, 0.018593058, 0.44871736, -933462.75, 268226.16, 0.00065313, 10.002873, 9.998186 
2.565323e+3, 1.8738115e+2, -892593.9, -1189387.0, 30251.473, 0.0061744163, 0.4387551, -889541.8, 214166.19, 0.000007326987, 10.002372, 9.9984255 
2.5652784e+3, 1.973794e+2, -858931.2, -1125738.1, 37045.188, -0.01026846, 0.43177375, -853883.1, 151842.55, 0.0, 10.001944, 9.998397 
2.565234e+3, 2.0737812e+2, -801062.3, -979786.8, 42311.805, -0.009225038, 0.44380972, -791551.44, 116187.1, 0.0, 10.00138, 9.998996 
2.5651896e+3, 2.1737717e+2, -798860.94, -937423.56, 40634.266, -0.0023902976, 0.46105573, -787823.9, 21924.143, 0.0, 10.000762, 9.998913 
2.565145e+3, 2.273762e+2, -748134.06, -812662.7, 37513.004, -0.023050508, 0.46168864, -730919.0, -19160.615, 0.0, 10.000225, 9.999355 
2.5651002e+3, 2.3737535e+2, -729734.6, -762659.9, 31290.12, -0.05233755, 0.45455474, -710840.6, -97073.08, 0.0, 9.99972, 9.999269 
2.565056e+3, 2.4737498e+2, -676913.2, -639453.8, 28464.217, -0.04939632, 0.48105696, -624109.9, -108336.82, 0.0, 9.999207, 9.999688 
2.5650117e+3, 2.5737497e+2, -658105.7, -583213.0, 34383.74, -0.035172407, 0.52193123, -569821.7, -152046.45, 0.0, 9.998677, 9.999658 
2.5649673e+3, 2.67375e+2, -599863.75, -432115.97, 29026.201, -0.05292695, 0.5360083, -427235.44, -107459.125, 0.0, 9.998094, 10.000303 
2.5649226e+3, 2.7737513e+2, -598523.06, -392668.78, 22511.943, -0.07611058, 0.5290928, -390235.66, -168459.58, 0.0, 9.997479, 10.000197 
2.5648782e+3, 2.873755e+2, -552567.9, -278219.28, 14541.582, -0.07352747, 0.54369104, -277450.66, -153677.52, 0.0, 9.996944, 10.000567 
2.5648338e+3, 2.973765e+2, -535698.8, -224530.25, 32576.955, -0.08190166, 0.5989924, -221156.28, -195392.13, 0.0, 9.99641, 10.000522 
2.5647897e+3, 3.073764e+2, -539359.5, -136103.8, 45949.35, -0.08950855, 0.5150449, -130934.32, -130934.32, 0.0, 9.995767, 10.001104 
2.5647458e+3, 3.1737947e+2, -536173.8, -5549.8057, 19542.895, -0.10674873, 0.72920036, -4831.014, -4831.014, 0.0, 9.995235, 10.002255 
2.5755984e+3, 1.2743935e+2, -1109182.5, -1648727.8, -22179.613, -0.0071460293, 0.4486509, -1108272.3, 582867.0, 0.11109418, 10.00577, 9.997708 
2.5755534e+3, 1.374368e+2, -1118555.4, -1627455.5, -11237.525, 0.08068431, 0.438604, -1118307.3, 474856.47, 0.076203465, 10.004855, 9.997589 
2.5755075e+3, 1.4743473e+2, -1038976.44, -1498900.1, 12169.854, 0.056302283, 0.4607498, -1038654.6, 456529.97, 0.04260911, 10.004389, 9.998021 
2.5754616e+3, 1.5743293e+2, -980091.75, -1443241.3, 7217.7896, 0.0016285724, 0.49092287, -979979.3, 417223.28, 0.017607441, 10.004107, 9.997867 
2.5754157e+3, 1.674305e+2, -944381.8, -1356562.5, 1876.7628, -0.0075805774, 0.46834627, -944373.25, 354852.56, 0.0045827776, 10.003549, 9.998057 
2.5753704e+3, 1.7742804e+2, -943358.06, -1308104.4, -5229.6733, -0.0019836947, 0.42621365, -943283.1, 257966.17, 0.0005169369, 10.002881, 9.99804 
2.5753254e+3, 1.8742639e+2, -876912.9, -1158691.5, 15119.368, 0.0030454702, 0.43793902, -876103.94, 227161.4, 0.0000045842844, 10.002377, 9.998635 
2.5752807e+3, 1.9742523e+2, -849117.8, -1104660.5, 20180.395, 0.007570034, 0.46903473, -847534.0, 157743.06, 0.0, 10.001939, 9.998546 
2.5752354e+3, 2.0742378e+2, -803862.94, -985777.44, 19231.693, -0.00638196, 0.46185815, -801852.06, 105439.01, 0.0, 10.001379, 9.998957 
2.57519e+3, 2.1742238e+2, -803243.7, -947873.8, 19067.693, -0.028054189, 0.43805152, -800772.1, 8532.416, 0.0, 10.000765, 9.998841 
2.575145e+3, 2.2742134e+2, -759443.0, -837948.3, 19083.902, -0.034504637, 0.44595784, -755049.75, -43733.707, 0.0, 10.00023, 9.999181 
2.5751004e+3, 2.374206e+2, -736557.0, -777937.3, 11919.554, -0.03354829, 0.46527538, -733369.1, -120044.04, 0.0, 9.999722, 9.999165 
2.575055e+3, 2.4742036e+2, -669593.56, -624218.7, 7585.158, -0.04734071, 0.50081855, -622984.25, -107655.21, 0.0, 9.999206, 9.999794 
2.57501e+3, 2.5742042e+2, -654637.2, -577271.3, 12942.167, -0.07149729, 0.5389576, -575163.7, -157834.06, 0.0, 9.99868, 9.999698 
2.5749648e+3, 2.6742e+2, -615036.06, -464552.84, 4593.6387, -0.082659595, 0.5193972, -464412.75, -145077.69, 0.0, 9.998094, 10.000082 
2.57492e+3, 2.7741957e+2, -609249.25, -415436.38, -228.72334, -0.07589589, 0.4806355, -415436.1, -194095.72, 0.0, 9.997479, 10.000043 
2.5748754e+3, 2.8742063e+2, -546515.6, -266751.3, -6865.895, -0.067991525, 0.56182647, -266582.94, -143251.98, 0.0, 9.996946, 10.000647 
2.5748298e+3, 2.9742226e+2, -535266.0, -225999.25, 8370.51, -0.09615912, 0.6719589, -225772.86, -200457.2, 0.0, 9.996417, 10.00051 
2.574785e+3, 3.0742037e+2, -542868.4, -140929.5, 20323.596, -0.12591292, 0.41875386, -139904.47, -139904.47, 0.0, 9.995754, 10.001079 
2.5747412e+3, 3.1742376e+2, -535713.56, -2562.514, -73063.53, -0.06515972, 0.65705156, 7268.8887, 7268.8887, 0.0, 9.995216, 10.002291 
2.585604e+3, 1.2748547e+2, -1168646.8, -1676574.6, 1670.1559, 0.022540476, 0.47159743, -1168641.3, 522047.53, 0.10036664, 10.005237, 9.997754 
2.585558e+3, 1.3748288e+2, -1095378.4, -1612656.9, -1813.8014, 0.05454341, 0.45069653, -1095372.0, 497341.5, 0.06838446, 10.004975, 9.997633 
2.5855115e+3, 1.4748074e+2, -1028215.75, -1496390.1, 20218.867, 0.036052354, 0.4700053, -1027344.2, 467390.2, 0.037806865, 10.004459, 9.998003 
2.5854653e+3, 1.5747894e+2, -1014306.6, -1462151.0, 12648.334, 0.010867992, 0.50070536, -1013949.7, 382802.8, 0.015317316, 10.003872, 9.997849 
2.5854194e+3, 1.6747648e+2, -964546.1, -1367075.8, 17059.164, 0.00432306, 0.47374138, -963824.5, 334951.7, 0.0038459573, 10.003413, 9.99805 
2.5853732e+3, 1.7747392e+2, -925908.2, -1299362.3, 26190.22, 0.0022732415, 0.4254752, -924080.44, 276719.75, 0.00040077142, 10.003001, 9.998041 
2.5853276e+3, 1.8747228e+2, -871667.9, -1154802.6, 40048.336, 0.004859273, 0.43892282, -866112.25, 236703.81, 0.00000279495, 10.00241, 9.998645 
2.5852823e+3, 1.9747117e+2, -875075.9, -1116437.8, 30471.395, 0.009049607, 0.4748507, -871288.4, 133538.89, 0.0, 10.001759, 9.99855 
2.5852364e+3, 2.0746973e+2, -820026.25, -993773.9, 28858.094, -0.0071253465, 0.4668051, -815358.56, 91482.79, 0.0, 10.001271, 9.998953 
2.5851905e+3, 2.1746829e+2, -793388.06, -945507.3, 30678.813, -0.030886743, 0.4408055, -787433.9, 21421.13, 0.0, 10.000848, 9.998816 
2.5851452e+3, 2.2746722e+2, -754546.56, -849831.2, 32970.246, -0.037476994, 0.45563194, -744250.75, -33383.66, 0.0, 10.000329, 9.999049 
2.5851e+3, 2.3746647e+2, -736991.25, -788743.6, 28794.432, -0.035530817, 0.4860855, -724154.44, -111277.62, 0.0, 9.999767, 9.999067 
2.5850543e+3, 2.4746606e+2, -669353.25, -622979.5, 19950.818, -0.049414583, 0.5110776, -615577.7, -100695.93, 0.0, 9.999204, 9.999803 
2.5850084e+3, 2.5746593e+2, -661762.6, -580927.4, 18010.135, -0.072763935, 0.5298481, -577096.25, -160212.72, 0.0, 9.998635, 9.999693 
2.5849628e+3, 2.6746547e+2, -611467.3, -470954.4, 15186.703, -0.08398436, 0.5120996, -469331.75, -150442.6, 0.0, 9.998157, 10.000006 
2.5849175e+3, 2.774651e+2, -582874.75, -410058.06, 20569.914, -0.07741096, 0.48552954, -407643.44, -186749.33, 0.0, 9.997695, 9.999975 
2.584872e+3, 2.874661e+2, -522630.66, -260229.16, 9682.751, -0.08160956, 0.5652755, -259872.34, -136987.11, 0.0, 9.997132, 10.000602 
2.584826e+3, 2.9746753e+2, -519299.56, -219118.22, 14727.111, -0.12277065, 0.659034, -218397.44, -193525.67, 0.0, 9.99653, 10.000504 
2.5847813e+3, 3.074658e+2, -503548.66, -99289.305, 36175.33, -0.09591211, 0.4083239, -96077.66, -96077.66, 0.0, 9.99593, 10.001279 
2.584736e+3, 3.1746802e+2, -581487.25, -97228.06, -55915.563, -0.08743356, 0.5153598, -90855.56, -90855.56, 0.0, 9.995224, 10.001633 
2.59561e+3, 1.2753245e+2, -1179232.9, -1700784.6, -8166.1636, 0.10223521, 0.51979786, -1179105.1, 511125.0, 0.09017109, 10.005193, 9.997594 
2.595562e+3, 1.3752934e+2, -1103074.9, -1632518.6, -14747.633, -0.024351725, 0.462605, -1102664.4, 489595.3, 0.06097931, 10.004951, 9.997508 
2.5955153e+3, 1.4752701e+2, -1030467.5, -1505015.1, -1933.6487, -0.025679845, 0.4694285, -1030459.6, 463822.8, 0.033295553, 10.004451, 9.997951 
2.5954694e+3, 1.5752515e+2, -1013187.8, -1460112.0, -7228.112, 0.034055356, 0.49854895, -1013070.94, 383230.0, 0.013201487, 10.003862, 9.9978695 
2.5954232e+3, 1.675229e+2, -949742.0, -1336285.6, 2556.159, 0.04357069, 0.48080188, -949725.06, 348596.72, 0.003187757, 10.003408, 9.998265 
2.5953764e+3, 1.7752069e+2, -918348.5, -1284123.6, 9175.758, 0.028335992, 0.44541094, -918118.44, 282223.66, 0.00030400298, 10.003001, 9.998147 
2.5953302e+3, 1.8751882e+2, -884605.7, -1183742.8, 15558.454, 0.010214266, 0.4422749, -883798.7, 218561.78, 0.0000016192165, 10.002416, 9.998445 
2.5952837e+3, 1.9751723e+2, -883011.25, -1135502.6, 8507.576, -0.0072777574, 0.4506726, -882724.9, 121651.59, 0.0, 10.001767, 9.998417 
2.5952375e+3, 2.0751591e+2, -816230.4, -988961.94, 13589.836, -0.011640281, 0.45929244, -815167.7, 91221.78, 0.0, 10.001282, 9.998982 
2.5951916e+3, 2.1751484e+2, -793034.56, -946034.56, 14563.769, -0.012341958, 0.46675724, -791660.6, 16739.357, 0.0, 10.000851, 9.998813 
2.5951454e+3, 2.2751379e+2, -761977.25, -865513.06, 12370.327, -0.03314229, 0.49020812, -760519.75, -50107.777, 0.0, 10.000329, 9.998942 
2.5950995e+3, 2.3751289e+2, -743291.6, -803183.25, 7497.6675, -0.06003148, 0.5164215, -742367.25, -129944.1, 0.0, 9.999771, 9.998967 
2.5950533e+3, 2.4751209e+2, -675536.25, -637160.06, -2341.338, -0.05517425, 0.5108014, -637017.75, -122586.0, 0.0, 9.999207, 9.999705 
2.5950074e+3, 2.575115e+2, -665739.75, -590583.25, -2983.5396, -0.040761337, 0.49314097, -590465.0, -174027.42, 0.0, 9.998639, 9.999627 
2.5949612e+3, 2.6751146e+2, -607332.4, -462438.84, -3118.9277, -0.059259143, 0.516237, -462371.75, -143932.86, 0.0, 9.998156, 10.000066 
2.594915e+3, 2.7751175e+2, -581966.75, -409337.22, 776.84924, -0.08544797, 0.55060726, -409333.72, -188896.52, 0.0, 9.997697, 9.99998 
2.5948685e+3, 2.875118e+2, -533744.75, -283936.97, -14345.507, -0.11264873, 0.5492204, -283115.84, -160678.84, 0.0, 9.997132, 10.000441 
2.594822e+3, 2.9751208e+2, -518762.53, -216651.06, -7563.007, -0.15214588, 0.5416408, -216461.84, -192027.2, 0.0, 9.996521, 10.000526 
2.594778e+3, 3.0751288e+2, -476389.47, -45655.19, 11479.078, -0.015500244, 0.5152457, -45349.49, -45349.49, 0.0, 9.995936, 10.001647 
2.594731e+3, 3.1751484e+2, -618462.06, -178550.05, 10030.497, -0.14232624, 0.58093715, -178321.45, -178321.45, 0.0, 9.995244, 10.001064 
2.605615e+3, 1.2757939e+2, -1168743.5, -1689981.6, 9124.337, 0.0935432, 0.52961713, -1168583.9, 521187.38, 0.080558054, 10.005189, 9.997673 
2.605567e+3, 1.3757649e+2, -1106672.5, -1629765.8, 14490.03, -0.016329605, 0.48578912, -1106271.5, 485527.34, 0.05404055, 10.00487, 9.997566 
2.6055196e+3, 1.4757405e+2, -1047022.8, -1516875.1, 23970.143, -0.017697986, 0.4825615, -1045803.1, 448019.28, 0.029113192, 10.004337, 9.997922 
2.605473e+3, 1.5757197e+2, -1029187.06, -1467600.0, 19604.86, 0.039383132, 0.4932384, -1028312.1, 367530.72, 0.011277889, 10.003747, 9.997873 
2.6054263e+3, 1.6756986e+2, -956955.2, -1329106.1, 29005.96, 0.049138904, 0.48219842, -954707.94, 343154.53, 0.002611381, 10.003314, 9.998359 
2.6053795e+3, 1.7756787e+2, -922771.8, -1280163.8, 25295.201, 0.033990923, 0.4622965, -920990.4, 278890.06, 0.00022568276, 10.002946, 9.998199 
2.605332e+3, 1.8756595e+2, -874087.3, -1184697.1, 32457.375, 0.008981586, 0.45609966, -870731.9, 231167.33, 0.00000086705097, 10.002519, 9.998387 
2.6052853e+3, 1.9756421e+2, -843563.56, -1121813.4, 35083.34, -0.01636025, 0.45412946, -839208.25, 164708.55, 0.0, 10.002067, 9.998364 
2.605239e+3, 2.0756283e+2, -788534.8, -983796.2, 37772.406, -0.01577005, 0.4651948, -781482.6, 124447.9, 0.0, 10.001511, 9.998906 
2.6051924e+3, 2.1756177e+2, -786764.7, -949444.6, 29790.584, -0.0071539106, 0.48177654, -781480.94, 26460.309, 0.0, 10.000922, 9.998754 
2.605146e+3, 2.2756068e+2, -745770.3, -856299.6, 32094.43, -0.029455908, 0.5026389, -737127.0, -27173.559, 0.0, 10.000435, 9.998954 
2.605099e+3, 2.375597e+2, -714191.44, -789399.06, 35390.543, -0.06019083, 0.52166194, -700156.7, -88191.96, 0.0, 9.999975, 9.998961 
2.6050526e+3, 2.4755882e+2, -650440.3, -636664.06, 25900.22, -0.054753277, 0.513794, -616751.7, -102777.445, 0.0, 9.999433, 9.9995985 
2.605006e+3, 2.5755814e+2, -641156.44, -586208.1, 24908.041, -0.037536867, 0.49696586, -576598.06, -160616.81, 0.0, 9.998843, 9.999557 
2.6049596e+3, 2.6755813e+2, -589674.1, -450140.44, 24931.889, -0.05870547, 0.5252841, -445819.44, -127837.64, 0.0, 9.998262, 10.000097 
2.6049125e+3, 2.775585e+2, -583519.56, -407789.1, 26366.953, -0.087489136, 0.56347144, -403918.22, -183939.27, 0.0, 9.997679, 9.999998 
2.6048657e+3, 2.8755817e+2, -530446.8, -285174.0, 16950.89, -0.10539063, 0.52511835, -284008.06, -162025.63, 0.0, 9.997172, 10.000411 
2.604819e+3, 2.97558e+2, -501541.7, -210436.64, 29656.863, -0.1347799, 0.47777843, -207446.02, -183461.69, 0.0, 9.996654, 10.000503 
2.6047733e+3, 3.075603e+2, -499293.53, -75166.18, 15627.568, -0.032037083, 0.61302406, -74591.14, -74591.14, 0.0, 9.995861, 10.00148 
2.604726e+3, 3.1756175e+2, -587686.9, -104058.12, 37083.316, -0.12898506, 0.63914496, -101231.195, -101231.195, 0.0, 9.995201, 10.001595 
2.6156193e+3, 1.2762637e+2, -1146175.4, -1648184.1, -1873.4355, 0.018214576, 0.5055918, -1146168.4, 543143.2, 0.07154935, 10.00517, 9.997988 
2.6155722e+3, 1.3762434e+2, -1094915.9, -1601369.8, 192.53322, 0.05484524, 0.5188693, -1094915.9, 496414.6, 0.047593802, 10.0048275, 9.997782 
2.6155245e+3, 1.4762187e+2, -1051444.6, -1527081.1, 1360.1504, 0.041684613, 0.50762296, -1051440.8, 441913.56, 0.025278455, 10.00432, 9.997862 
2.6154768e+3, 1.576194e+2, -1030775.4, -1474581.0, -392.23, 0.029608166, 0.48598796, -1030775.0, 364603.5, 0.00955433, 10.003755, 9.997823 
2.6154292e+3, 1.6761729e+2, -957566.5, -1333401.8, 15251.018, 0.026172614, 0.4794583, -956948.6, 340449.75, 0.0021165798, 10.003323, 9.998326 
2.615382e+3, 1.7761546e+2, -922660.7, -1280262.4, 10496.631, 0.01884644, 0.4771889, -922352.8, 277062.5, 0.00016455278, 10.002945, 9.998201 
2.6153347e+3, 1.8761367e+2, -868232.6, -1173745.3, 15888.423, 0.0009375681, 0.4783832, -867408.56, 234024.14, 0.00000042407203, 10.002521, 9.998463 
2.6152873e+3, 1.9761202e+2, -843067.06, -1121528.5, 17721.594, -0.017893642, 0.48066044, -841943.75, 161505.11, 0.0, 10.002068, 9.998367 
2.6152402e+3, 2.0761046e+2, -802857.8, -1014050.8, 16144.595, -0.019886175, 0.48417512, -801630.8, 103833.984, 0.0, 10.001511, 9.998699 
2.615193e+3, 2.1760905e+2, -795218.5, -967158.2, 10097.488, -0.017653791, 0.48631558, -794627.5, 12851.767, 0.0, 10.000921, 9.998634 
2.6151463e+3, 2.2760785e+2, -736786.5, -838894.44, 15788.297, -0.026993234, 0.49356762, -734401.0, -24909.201, 0.0, 10.000439, 9.999073 
2.6150993e+3, 2.3760688e+2, -709271.9, -780824.94, 16819.652, -0.038556274, 0.5011756, -705515.4, -94013.28, 0.0, 9.99998, 9.99902 
2.615052e+3, 2.476062e+2, -659406.4, -655080.06, 2747.684, -0.049689345, 0.520963, -653746.25, -140236.52, 0.0, 9.999431, 9.999474 
2.6150048e+3, 2.5760576e+2, -646520.7, -598238.5, 2098.0679, -0.06564108, 0.542842, -598147.5, -182632.63, 0.0, 9.998845, 9.999475 
2.6149574e+3, 2.676054e+2, -589848.9, -450988.56, 1869.7257, -0.08132192, 0.5372347, -450963.4, -133444.86, 0.0, 9.998262, 10.000093 
2.6149103e+3, 2.7760524e+2, -581559.2, -404002.84, 4930.058, -0.08221988, 0.5195194, -403866.06, -184345.78, 0.0, 9.997678, 10.000026 
2.6148632e+3, 2.876051e+2, -524878.44, -273886.72, -2959.3403, -0.061695807, 0.4958837, -273851.8, -152330.16, 0.0, 9.99717, 10.000491 
2.6148158e+3, 2.9760534e+2, -508998.84, -227493.2, 4800.791, -0.0821682, 0.48176542, -227411.36, -203891.3, 0.0, 9.996658, 10.000384 
2.614768e+3, 3.0760783e+2, -550666.0, -179603.1, -19411.727, -0.13705036, 0.68466365, -178590.36, -178590.36, 0.0, 9.99585, 10.000769 
2.614721e+3, 3.176071e+2, -510824.56, 56844.195, -17209.893, -0.122754, 0.5399811, 57365.465, 57365.465, 0.0, 9.995189, 10.00271 
2.6256242e+3, 1.2767406e+2, -1143063.6, -1657246.4, 35239.5, 0.009192817, 0.47809103, -1140659.8, 548183.8, 0.06315834, 10.005191, 9.997911 
2.625577e+3, 1.3767233e+2, -1105958.1, -1611681.1, 11870.408, 0.06423722, 0.52998674, -1105679.8, 485181.22, 0.04164431, 10.00474, 9.997753 
2.625529e+3, 1.4766997e+2, -1044321.56, -1511078.0, 12835.988, 0.048647653, 0.5234043, -1043968.9, 448915.0, 0.02179135, 10.004308, 9.997974 
2.6254806e+3, 1.5766752e+2, -1005602.1, -1454979.4, 21870.156, 0.027357666, 0.49269724, -1004540.25, 390367.16, 0.008027403, 10.003897, 9.997886 
2.6254323e+3, 1.6766539e+2, -942032.6, -1333210.5, 41069.465, 0.016726995, 0.48710334, -937767.3, 359160.38, 0.0016990979, 10.003466, 9.998257 
2.6253846e+3, 1.7766353e+2, -911796.94, -1276347.9, 32652.611, 0.0041248263, 0.48926654, -908895.3, 290049.9, 0.00011854705, 10.003032, 9.998184 
2.625337e+3, 1.8766174e+2, -863611.44, -1159957.5, 34528.277, -0.004009432, 0.487109, -859641.56, 241320.78, 0.00000019125741, 10.002507, 9.998562 
2.6252893e+3, 1.9766016e+2, -855432.94, -1122131.6, 36066.246, -0.008462319, 0.48514527, -850641.7, 152336.19, 0.0, 10.001962, 9.998414 
2.6252416e+3, 2.076586e+2, -804929.06, -1024821.3, 41798.895, -0.015622618, 0.4947964, -797251.6, 107742.11, 0.0, 10.001541, 9.99861 
2.6251942e+3, 2.176572e+2, -764766.3, -957782.2, 42391.12, -0.02396232, 0.5051488, -755866.5, 51142.06, 0.0, 10.001159, 9.998581 
2.6251465e+3, 2.2765584e+2, -722314.1, -829739.3, 41986.844, -0.030499475, 0.4987434, -707850.94, 1171.2002, 0.0, 10.000531, 9.999089 
2.6250988e+3, 2.376547e+2, -731650.4, -790105.25, 37616.063, -0.03381779, 0.4875838, -713241.6, -102208.086, 0.0, 9.999822, 9.999031 
2.625051e+3, 2.4765407e+2, -666737.25, -659583.0, 31469.824, -0.048042774, 0.5132198, -631487.6, -118447.06, 0.0, 9.999386, 9.999464 
2.6250032e+3, 2.5765377e+2, -620915.9, -587519.8, 36782.047, -0.07027963, 0.5489152, -563823.0, -148778.28, 0.0, 9.999029, 9.999458 
2.6249555e+3, 2.6765332e+2, -571205.06, -448311.88, 29750.28, -0.087496184, 0.54033905, -441488.66, -124439.555, 0.0, 9.998421, 10.000033 
2.6249078e+3, 2.7765298e+2, -580255.56, -407810.44, 30620.338, -0.084677584, 0.5138304, -402534.72, -183482.52, 0.0, 9.99771, 9.999982 
2.6248607e+3, 2.8765288e+2, -507728.22, -268127.1, 21945.006, -0.055226777, 0.4970009, -266133.75, -145080.58, 0.0, 9.997302, 10.000465 
2.6248127e+3, 2.9765317e+2, -469296.06, -216317.13, 14884.097, -0.07260417, 0.49007258, -215444.42, -192393.31, 0.0, 9.996966, 10.000312 
2.6247635e+3, 3.0765516e+2, -548532.1, -195651.39, -428.54865, -0.17032395, 0.65724856, -195650.88, -195650.88, 0.0, 9.995944, 10.00061 
2.624716e+3, 3.1765386e+2, -531231.3, 75019.55, 56703.34, -0.16019723, 0.46352956, 80277.47, 80277.47, 0.0, 9.994934, 10.002955 
2.6356298e+3, 1.2772244e+2, -1168121.0, -1716230.3, 18229.762, 0.046708535, 0.44964674, -1167515.4, 520852.16, 0.055391483, 10.005178, 9.997496 
2.6355812e+3, 1.3772058e+2, -1121044.0, -1647974.1, -4353.166, 0.018921463, 0.5274397, -1121008.0, 469381.06, 0.036186885, 10.004731, 9.997508 
2.6355326e+3, 1.4771841e+2, -1024717.94, -1475505.4, -2927.8328, 0.011316092, 0.5336826, -1024698.94, 467711.3, 0.018642958, 10.004314, 9.99822 
2.635484e+3, 1.5771626e+2, -994126.56, -1432641.4, 5565.2305, 0.029582301, 0.5111904, -994055.94, 400374.0, 0.0066879024, 10.003897, 9.998041 
2.6354358e+3, 1.6771409e+2, -950201.6, -1349853.1, 24780.518, 0.01739148, 0.5016171, -948670.94, 347779.78, 0.0013522495, 10.003461, 9.998146 
2.6353875e+3, 1.7771207e+2, -916789.44, -1285253.4, 15531.16, -0.010459118, 0.49649706, -916136.0, 282334.4, 0.00008496919, 10.003022, 9.998128 
2.6353395e+3, 1.8771023e+2, -858634.56, -1148801.5, 14220.095, -0.0069882236, 0.48510215, -857939.4, 242548.75, 0.00000008629741, 10.002501, 9.998643 
2.6352912e+3, 1.9770859e+2, -851625.25, -1113294.5, 17587.133, 0.008015457, 0.47200492, -850448.5, 152055.3, 0.0, 10.001955, 9.998479 
2.6352432e+3, 2.0770724e+2, -803321.56, -1021986.0, 28248.3, -0.004665045, 0.49800462, -799731.25, 104786.52, 0.0, 10.001541, 9.99863 
2.635195e+3, 2.177061e+2, -765137.56, -959069.1, 25912.627, -0.027610835, 0.5338071, -761734.9, 44795.152, 0.0, 10.001158, 9.998574 
2.6351467e+3, 2.2770458e+2, -728979.75, -843651.7, 15512.597, -0.040074896, 0.51690376, -726918.25, -18373.268, 0.0, 10.00053, 9.998996 
2.6350987e+3, 2.377031e+2, -734053.6, -795866.1, 14462.068, -0.047358207, 0.48082456, -730837.4, -120277.95, 0.0, 9.999823, 9.998992 
2.6350504e+3, 2.4770236e+2, -660005.5, -646250.75, 18235.563, -0.049421746, 0.49000135, -633638.8, -121071.58, 0.0, 9.999387, 9.999556 
2.6350024e+3, 2.5770202e+2, -617555.2, -582727.7, 19616.041, -0.054312397, 0.5153796, -573911.2, -159339.95, 0.0, 9.999037, 9.999489 
2.634954e+3, 2.677018e+2, -579996.75, -466890.8, 1372.9404, -0.07946528, 0.536121, -466874.16, -150300.28, 0.0, 9.99842, 9.9999075 
2.6349053e+3, 2.7770177e+2, -589712.94, -427763.63, 6831.0884, -0.099228166, 0.5506682, -427476.0, -208901.1, 0.0, 9.997709, 9.999846 
2.6348573e+3, 2.877015e+2, -516995.13, -288062.7, 9475.458, -0.0865535, 0.5279776, -287671.2, -167093.56, 0.0, 9.997303, 10.000329 
2.634809e+3, 2.977014e+2, -469973.44, -218808.36, -7496.8467, -0.10167188, 0.49741286, -218584.78, -196006.17, 0.0, 9.996968, 10.000296 
2.6347598e+3, 3.0770224e+2, -520679.88, -139588.06, -49918.645, -0.13835493, 0.52788466, -133157.8, -133157.8, 0.0, 9.995947, 10.000997 
2.634711e+3, 3.177033e+2, -558331.3, 14001.748, 107103.34, -0.12769736, 0.5429974, 33387.848, 33387.848, 0.0, 9.994947, 10.002533 
2.645635e+3, 1.2777154e+2, -1128278.0, -1721156.6, 22408.264, 0.043601874, 0.46098828, -1127432.3, 560454.06, 0.04824509, 10.005532, 9.9972925 
2.6455858e+3, 1.3776934e+2, -1115618.9, -1658641.6, 15529.992, 0.012505194, 0.52529675, -1115175.1, 474736.9, 0.031215005, 10.004806, 9.997398 
2.6455367e+3, 1.4776726e+2, -1010472.9, -1457024.5, 20774.62, 0.0025689888, 0.5369279, -1009508.5, 482423.97, 0.015824372, 10.004358, 9.998324 
2.645488e+3, 1.5776533e+2, -968875.56, -1411108.6, 17064.021, 0.021019096, 0.5263368, -968218.1, 425731.6, 0.0055256295, 10.004031, 9.998122 
2.6454392e+3, 1.6776313e+2, -951760.94, -1348026.9, 34106.25, 0.015664114, 0.5094438, -948846.9, 347123.97, 0.0010684335, 10.003442, 9.998165 
2.6453903e+3, 1.7776099e+2, -951690.06, -1298625.3, 33007.594, -0.0036237654, 0.49198696, -948577.6, 249414.06, 0.000061065744, 10.002771, 9.998156 
2.6453418e+3, 1.877593e+2, -879681.6, -1154184.9, 34622.844, -0.0016727328, 0.4925159, -875382.0, 224626.22, 0.000000036839044, 10.00234, 9.998681 
2.6452932e+3, 1.9775788e+2, -841211.6, -1100122.6, 34739.766, 0.008970485, 0.49763384, -836631.44, 165390.69, 0.0, 10.001997, 9.998546 
2.6452446e+3, 2.0775653e+2, -804182.75, -1007742.3, 48975.49, -0.005247011, 0.512419, -793012.5, 111023.375, 0.0, 10.001476, 9.998757 
2.645196e+3, 2.1775533e+2, -796463.94, -963463.1, 52621.063, -0.028045107, 0.5302999, -781266.2, 24781.963, 0.0, 10.000899, 9.998668 
2.645147e+3, 2.2775388e+2, -728952.4, -844023.56, 48393.84, -0.041868612, 0.51731527, -711306.1, -3243.6255, 0.0, 10.000533, 9.99899 
2.6450983e+3, 2.3775248e+2, -675404.44, -766060.06, 53331.645, -0.049608056, 0.49193364, -650740.25, -40664.188, 0.0, 10.000222, 9.999002 
2.6450497e+3, 2.4775174e+2, -628551.06, -627301.2, 54652.45, -0.047916513, 0.49795216, -573270.1, -61186.33, 0.0, 9.999589, 9.999587 
2.645001e+3, 2.5775138e+2, -646636.0, -596049.56, 52612.46, -0.045666527, 0.515306, -562966.25, -148878.3, 0.0, 9.998837, 9.999492 
2.6449522e+3, 2.6775104e+2, -577245.5, -474455.8, 37683.855, -0.07400206, 0.5322254, -462120.72, -146029.19, 0.0, 9.998479, 9.999826 
2.644903e+3, 2.7775085e+2, -520330.03, -402399.53, 45187.215, -0.10220768, 0.5444226, -387076.25, -168982.48, 0.0, 9.998222, 9.999773 
2.6448545e+3, 2.877507e+2, -492498.47, -283656.1, 50128.164, -0.09907608, 0.53979737, -272247.16, -152151.55, 0.0, 9.997506, 10.000259 
2.6448056e+3, 2.9775077e+2, -523848.13, -253182.52, 33686.438, -0.112261616, 0.5326264, -249052.98, -226957.77, 0.0, 9.99664, 10.000216 
2.6447558e+3, 3.077507e+2, -495439.53, -133271.42, -40079.34, -0.12812406, 0.4792829, -128889.06, -128889.06, 0.0, 9.996148, 10.00094 
2.6447067e+3, 3.1775257e+2, -483581.75, 38498.438, 129776.516, -0.08908765, 0.5814469, 68978.28, 68978.28, 0.0, 9.995517, 10.002424 
2.65564e+3, 1.2782133e+2, -1127562.5, -1722193.6, -4531.163, 0.0020863141, 0.50467783, -1127528.0, 559871.75, 0.041704826, 10.005512, 9.9972925 
2.6555908e+3, 1.3781866e+2, -1114390.4, -1658500.5, -7051.634, 0.037009265, 0.52060086, -1114299.1, 475130.7, 0.026718577, 10.004795, 9.997404 
2.655541e+3, 1.4781655e+2, -1013115.5, -1464362.3, 9518.071, 0.016739076, 0.5327389, -1012914.8, 478535.44, 0.013324155, 10.004352, 9.998278 
2.6554918e+3, 1.5781474e+2, -971080.75, -1412779.9, 2360.7295, 0.00024716873, 0.53881514, -971068.1, 422398.25, 0.0045284485, 10.004012, 9.998121 
2.6554424e+3, 1.6781253e+2, -945340.4, -1332931.4, 9372.964, 0.009478977, 0.51382816, -945113.8, 350373.7, 0.00083937054, 10.00343, 9.998276 
2.6553932e+3, 1.7781033e+2, -946443.1, -1288016.5, 11796.474, 0.019975098, 0.48041645, -946036.25, 251472.58, 0.000044250475, 10.00277, 9.998231 
2.655344e+3, 1.8780893e+2, -879725.1, -1155483.4, 22894.19, 0.009830902, 0.5076557, -877837.3, 221685.78, 0.000000014947995, 10.002343, 9.998672 
2.6552948e+3, 1.9780792e+2, -837433.1, -1092204.1, 20524.125, -0.0052701193, 0.55236775, -835790.3, 165743.53, 0.0, 10.001994, 9.998603 
2.655246e+3, 2.0780641e+2, -790181.9, -977869.94, 27708.38, -0.016413735, 0.53584003, -786176.75, 117371.695, 0.0, 10.001471, 9.998966 
2.6551968e+3, 2.1780485e+2, -785871.56, -939242.25, 34724.668, -0.02741898, 0.49796066, -778375.9, 27187.19, 0.0, 10.000887, 9.998841 
2.6551476e+3, 2.2780368e+2, -724723.6, -834667.8, 38246.652, -0.03691674, 0.502135, -712727.56, -5152.713, 0.0, 10.00053, 9.999057 
2.6550987e+3, 2.3780277e+2, -671642.75, -759825.0, 37438.305, -0.044609673, 0.51994884, -657892.25, -48307.992, 0.0, 10.000226, 9.999044 
2.6550493e+3, 2.4780214e+2, -630355.7, -631382.2, 24732.469, -0.045130156, 0.5361608, -606131.1, -94540.3, 0.0, 9.999588, 9.99956 
2.655e+3, 2.578017e+2, -648302.9, -600280.7, 28884.617, -0.046397783, 0.5489088, -586730.44, -173135.1, 0.0, 9.998838, 9.999463 
2.6549506e+3, 2.6780093e+2, -580304.06, -481335.47, 28659.715, -0.06987134, 0.526675, -473635.22, -158032.58, 0.0, 9.99848, 9.99978 
2.654901e+3, 2.7780026e+2, -520178.28, -404450.1, 29253.262, -0.0940672, 0.49369985, -397475.88, -179866.6, 0.0, 9.99823, 9.999757 
2.654852e+3, 2.8780055e+2, -493260.44, -285622.13, 15466.122, -0.095205046, 0.5342392, -284476.44, -164869.23, 0.0, 9.997505, 10.000248 
2.6548022e+3, 2.9780132e+2, -537975.8, -279639.38, 5702.4897, -0.11240844, 0.6029487, -279513.56, -257913.1, 0.0, 9.996624, 10.000043 
2.6547518e+3, 3.078005e+2, -531475.2, -209963.25, -54740.406, -0.1305641, 0.5152345, -200898.73, -200898.73, 0.0, 9.996153, 10.000414 
2.6547015e+3, 3.17801e+2, -481115.9, 41568.457, 70970.47, -0.12264545, 0.52289397, 51033.484, 51033.484, 0.0, 9.995523, 10.002442 
2.6656452e+3, 1.2787142e+2, -1138611.3, -1723043.6, 12800.709, -0.009582572, 0.52743804, -1138331.0, 548579.5, 0.03574645, 10.005378, 9.9973545 
2.6655954e+3, 1.3786867e+2, -1083153.1, -1636866.0, 13473.824, 0.030012606, 0.5296028, -1082825.5, 506114.9, 0.02267417, 10.004971, 9.997468 
2.665545e+3, 1.4786656e+2, -1010649.9, -1459533.8, 36228.652, 0.010180229, 0.537739, -1007744.75, 483216.0, 0.011120352, 10.004348, 9.99831 
2.6654953e+3, 1.5786478e+2, -1016039.0, -1428354.4, 33256.152, -0.0064759348, 0.5433732, -1013373.9, 379603.0, 0.0036791612, 10.003675, 9.998175 
2.6654455e+3, 1.6786268e+2, -964532.25, -1330553.0, 40918.06, 0.005328722, 0.5219772, -960013.75, 334983.16, 0.00065566646, 10.003252, 9.998376 
2.665396e+3, 1.7786063e+2, -919357.7, -1264427.9, 42263.668, 0.019605262, 0.49278575, -914256.7, 282760.2, 0.000032246808, 10.002914, 9.998321 
2.6653463e+3, 1.8785928e+2, -874801.1, -1146059.6, 57138.344, 0.007296957, 0.51997995, -863256.75, 235773.94, 0.0000000057994387, 10.002351, 9.998731 
2.6652965e+3, 1.9785833e+2, -872470.75, -1100852.6, 58721.027, -0.01119951, 0.5656003, -858257.1, 142783.86, 0.0, 10.001721, 9.998673 
2.665247e+3, 2.0785688e+2, -811519.75, -979493.2, 59734.44, -0.01606405, 0.54757553, -792443.5, 110611.51, 0.0, 10.001289, 9.999041 
2.6651976e+3, 2.1785535e+2, -774661.2, -923083.3, 56811.99, -0.017016621, 0.5063442, -755411.6, 49657.508, 0.0, 10.00092, 9.998934 
2.665148e+3, 2.2785434e+2, -736215.75, -825776.7, 62677.344, -0.02867149, 0.51480013, -703965.44, 3113.9712, 0.0, 10.000391, 9.999184 
2.6650986e+3, 2.3785363e+2, -724917.44, -774093.44, 66768.65, -0.040658582, 0.5404788, -678353.3, -69266.375, 0.0, 9.999815, 9.999144 
2.6650488e+3, 2.4785297e+2, -637556.25, -633357.4, 56352.777, -0.04661873, 0.54996055, -579064.94, -67971.36, 0.0, 9.999535, 9.999572 
2.6649988e+3, 2.5785238e+2, -578208.94, -565983.5, 62747.195, -0.05234895, 0.55069774, -509051.97, -95953.12, 0.0, 9.999319, 9.999466 
2.664949e+3, 2.6785162e+2, -554220.5, -474028.5, 62299.8, -0.0670854, 0.5295463, -440037.03, -124930.664, 0.0, 9.998684, 9.99973 
2.6648995e+3, 2.7785093e+2, -571228.56, -433448.06, 60088.86, -0.07555742, 0.5004264, -410924.22, -193810.94, 0.0, 9.997902, 9.999714 
2.6648495e+3, 2.8785115e+2, -509991.0, -297563.75, 39171.367, -0.09455519, 0.538205, -290570.8, -171458.84, 0.0, 9.99741, 10.000211 
2.6647985e+3, 2.9785186e+2, -488480.88, -263734.9, 31739.002, -0.14291388, 0.6040634, -259338.67, -238232.63, 0.0, 9.997, 9.9999695 
2.6647484e+3, 3.0785114e+2, -482767.34, -210185.67, -1809.2971, -0.075499505, 0.54069227, -210173.67, -210173.67, 0.0, 9.9965925, 10.000199 
2.6646966e+3, 3.178511e+2, -440788.94, 44918.734, 66777.17, -0.17221028, 0.5191259, 53932.277, 53932.277, 0.0, 9.995875, 10.002293 
2.6756504e+3, 1.2792185e+2, -1132817.6, -1708066.1, -1188.3091, 0.0012127489, 0.5336662, -1132815.3, 553602.8, 0.030335914, 10.0053425, 9.997472 
2.6755998e+3, 1.3791938e+2, -1078928.0, -1624333.9, -2277.2253, -0.008646625, 0.5532723, -1078918.5, 509525.4, 0.019044094, 10.004937, 9.99757 
2.675549e+3, 1.4791729e+2, -1006152.0, -1449404.1, 11575.775, -0.017849633, 0.55226934, -1005849.9, 484614.3, 0.009181237, 10.004332, 9.99839 
2.6754987e+3, 1.5791541e+2, -1011631.8, -1417865.5, 11809.042, -0.0022156388, 0.54194486, -1011288.8, 381192.63, 0.0029566772, 10.003664, 9.998254 
2.6754487e+3, 1.679135e+2, -960748.2, -1321216.4, 29165.146, 0.0029859887, 0.5318044, -958403.7, 336096.03, 0.0005076618, 10.003243, 9.9984455 
2.6753983e+3, 1.7791171e+2, -914621.8, -1251838.3, 27163.053, -0.0030827855, 0.5220055, -912447.8, 284069.25, 0.000023462153, 10.0029, 9.998415 
2.6753485e+3, 1.8791029e+2, -867854.6, -1129937.8, 33931.227, -0.008257955, 0.52975035, -863532.9, 234998.55, 0.000000001728097, 10.00234, 9.998848 
2.6752982e+3, 1.9790913e+2, -869386.9, -1092966.0, 38791.4, -0.010970766, 0.5439561, -862847.75, 137695.69, 0.0, 10.001712, 9.998733 
2.6752484e+3, 2.0790789e+2, -816823.0, -990519.9, 46903.93, -0.0062118256, 0.5499658, -804966.7, 97589.23, 0.0, 10.001287, 9.998967 
2.6751986e+3, 2.1790673e+2, -774300.5, -922413.6, 41692.08, -0.0016292365, 0.5501991, -763371.1, 41196.273, 0.0, 10.000918, 9.99894 
2.6751485e+3, 2.2790578e+2, -723015.7, -798437.56, 40754.805, -0.018227357, 0.55233186, -705201.25, 1375.6068, 0.0, 10.000389, 9.999373 
2.6750982e+3, 2.3790501e+2, -714658.56, -752688.56, 48924.316, -0.039181992, 0.55361354, -681183.94, -72599.48, 0.0, 9.999812, 9.999293 
2.675048e+3, 2.4790418e+2, -635167.5, -628530.4, 49247.895, -0.051817995, 0.53954357, -582489.4, -71897.086, 0.0, 9.999534, 9.999606 
2.674998e+3, 2.579035e+2, -575351.7, -562873.44, 48761.01, -0.067565575, 0.52302223, -519954.03, -107355.36, 0.0, 9.99933, 9.999483 
2.6749477e+3, 2.679031e+2, -557856.06, -482200.75, 31031.822, -0.06862893, 0.54278535, -471100.88, -156497.98, 0.0, 9.998684, 9.999675 
2.6748973e+3, 2.7790287e+2, -577630.56, -445651.94, 34100.91, -0.05077296, 0.5680781, -437361.66, -220755.9, 0.0, 9.997894, 9.999635 
2.6748464e+3, 2.8790244e+2, -515316.94, -309204.9, 23518.893, -0.094472624, 0.54889554, -306555.3, -187944.83, 0.0, 9.997409, 10.000133 
2.6747948e+3, 2.9790223e+2, -483679.72, -258118.16, 15638.606, -0.19718866, 0.52989084, -257039.06, -236426.17, 0.0, 9.997016, 10.000002 
2.6747462e+3, 3.0790251e+2, -474534.1, -193980.06, -18064.781, 0.022466455, 0.5594743, -192821.67, -192821.67, 0.0, 9.9965925, 10.000312 
2.674692e+3, 3.179029e+2, -464026.06, -4766.1245, -41740.066, -0.20680615, 0.574398, -1003.38617, -1003.38617, 0.0, 9.9958725, 10.001957 
2.6856557e+3, 1.2797287e+2, -1139457.5, -1677645.9, 19174.764, 0.004008824, 0.54383767, -1138775.3, 547144.4, 0.025428679, 10.005117, 9.997792 
2.6856044e+3, 1.379706e+2, -1113535.6, -1618540.3, 28777.404, -0.012581809, 0.55213517, -1111901.0, 476040.8, 0.015786327, 10.004581, 9.997782 
2.685553e+3, 1.4796855e+2, -1053279.4, -1479327.6, 36106.082, -0.02185013, 0.5548684, -1050241.1, 439720.78, 0.007473826, 10.004032, 9.998325 
2.6855022e+3, 1.5796672e+2, -1035724.5, -1427541.6, 29439.54, -0.0029817645, 0.55275905, -1033524.9, 358455.13, 0.0023404944, 10.00349, 9.998269 
2.6854518e+3, 1.6796492e+2, -986127.6, -1311309.0, 56770.902, 0.00090941554, 0.54182607, -976501.44, 317495.6, 0.00038708578, 10.002975, 9.998641 
2.685401e+3, 1.7796329e+2, -963825.44, -1258108.6, 61615.242, -0.007593631, 0.5294788, -951445.6, 244566.72, 0.000016815515, 10.00249, 9.998569 
2.6853505e+3, 1.8796194e+2, -900247.25, -1142766.5, 61881.727, -0.008368494, 0.53731525, -885370.0, 212655.97, 0.0000000002885943, 10.002109, 9.99887 
2.6852998e+3, 1.9796078e+2, -861128.2, -1085057.0, 59349.58, -0.004074948, 0.55058813, -846370.8, 153667.28, 0.0, 10.001755, 9.998765 
2.6852494e+3, 2.0795956e+2, -819875.7, -984405.94, 74771.94, -0.0031515157, 0.5544731, -790972.5, 111077.76, 0.0, 10.001237, 9.999031 
2.685199e+3, 2.1795845e+2, -805202.1, -928701.0, 79230.73, -0.003909978, 0.55491626, -766500.06, 37561.105, 0.0, 10.000673, 9.999013 
2.6851487e+3, 2.279576e+2, -734834.6, -796623.0, 73404.02, -0.018722773, 0.5605708, -686088.4, 19981.355, 0.0, 10.000278, 9.999437 
2.6850978e+3, 2.3795694e+2, -695121.4, -736994.3, 74011.45, -0.034386832, 0.56494117, -639142.1, -31065.547, 0.0, 9.999922, 9.999347 
2.6850477e+3, 2.479561e+2, -646614.44, -634301.1, 73763.62, -0.044392243, 0.5495072, -566437.7, -56353.164, 0.0, 9.999458, 9.999601 
2.684997e+3, 2.5795534e+2, -628155.44, -585456.1, 68216.91, -0.056691006, 0.5300356, -535326.0, -123234.5, 0.0, 9.998958, 9.999506 
2.6849464e+3, 2.679551e+2, -561240.8, -473654.78, 51275.375, -0.061763894, 0.5556527, -450016.4, -135921.81, 0.0, 9.99862, 9.9997635 
2.6848954e+3, 2.7795506e+2, -515199.1, -408035.66, 65738.016, -0.049366076, 0.58844703, -376808.84, -160712.98, 0.0, 9.998293, 9.9997 
2.684844e+3, 2.879546e+2, -467435.9, -287232.3, 64319.15, -0.10382293, 0.567044, -266630.5, -148529.97, 0.0, 9.997746, 10.000119 
2.6847917e+3, 2.9795426e+2, -464703.6, -243896.58, 60100.33, -0.21320727, 0.53716785, -228598.13, -208494.25, 0.0, 9.9971285, 10.000043 
2.6847428e+3, 3.079545e+2, -466037.78, -169668.31, 26516.11, 0.048615932, 0.5467273, -167314.61, -167314.61, 0.0, 9.996569, 10.000487 
2.6846877e+3, 3.1795534e+2, -434318.22, 2831.1765, -19422.676, -0.21306275, 0.5982322, 3692.4348, 3692.4348, 0.0, 9.996111, 10.001891 
2.6956603e+3, 1.2802444e+2, -1104268.5, -1607599.9, 1256.3536, -0.0060202046, 0.5578957, -1104265.4, 581150.25, 0.020979421, 10.005112, 9.998283 
2.695609e+3, 1.3802226e+2, -1096300.0, -1578342.3, 9637.726, 0.011707104, 0.53120536, -1096107.4, 491327.2, 0.012864749, 10.00455, 9.998074 
2.6955572e+3, 1.4802034e+2, -1068474.1, -1509088.0, 16527.617, -0.006081239, 0.54743725, -1067855.0, 421599.22, 0.0059708273, 10.004015, 9.998131 
2.6955056e+3, 1.5801862e+2, -1038658.7, -1432926.3, 11158.144, -0.011004569, 0.57309395, -1038343.2, 353129.84, 0.0018140906, 10.003484, 9.998237 
2.6954544e+3, 1.6801691e+2, -965223.3, -1267664.3, 39806.77, -0.0026830197, 0.55195177, -960071.75, 333417.16, 0.0002879219, 10.002972, 9.998943 
2.6954037e+3, 1.7801535e+2, -952045.56, -1232835.5, 45614.516, 0.0024296097, 0.5191835, -944821.3, 250681.17, 0.000011615146, 10.002483, 9.998746 
2.6953524e+3, 1.8801416e+2, -907593.94, -1157774.4, 49457.746, 0.0037970513, 0.54338217, -898171.6, 199343.2, 0.000000000007316074, 10.002106, 9.99877 
2.6953015e+3, 1.9801317e+2, -861916.06, -1085700.3, 44340.887, 0.0054007755, 0.58127594, -853450.56, 146075.33, 0.0, 10.001748, 9.998765 
2.6952505e+3, 2.0801184e+2, -805894.4, -954839.4, 53742.188, -0.0066059823, 0.5601759, -788528.0, 113010.664, 0.0, 10.001232, 9.999237 
2.6951995e+3, 2.1801054e+2, -797951.8, -911289.9, 61369.188, -0.023776693, 0.5226359, -771089.06, 32461.525, 0.0, 10.000661, 9.99914 
2.6951486e+3, 2.2800982e+2, -740797.94, -808472.3, 61344.93, -0.029967742, 0.5415725, -704576.9, 981.28156, 0.0, 10.000275, 9.999358 
2.695098e+3, 2.3800938e+2, -698219.25, -745294.5, 59181.863, -0.031673253, 0.5766363, -658066.1, -50502.7, 0.0, 9.9999275, 9.999288 
2.6950473e+3, 2.480087e+2, -648804.56, -639749.1, 53528.254, -0.026266245, 0.5800152, -590557.44, -80986.695, 0.0, 9.99946, 9.999564 
2.6949963e+3, 2.5800806e+2, -626157.8, -581670.9, 51244.758, -0.021922726, 0.57252425, -548050.25, -136472.6, 0.0, 9.998957, 9.999534 
2.6949447e+3, 2.680076e+2, -546043.0, -442200.06, 39776.215, -0.044985082, 0.56641227, -428715.22, -115133.305, 0.0, 9.998618, 9.999981 
2.6948932e+3, 2.7800742e+2, -499779.94, -378809.5, 50126.914, -0.072558045, 0.5629275, -360737.94, -145154.11, 0.0, 9.998303, 9.999897 
2.6948413e+3, 2.8800762e+2, -462189.63, -278137.25, 39887.77, -0.12800989, 0.5961052, -269864.6, -152282.67, 0.0, 9.99775, 10.000181 
2.694789e+3, 2.9800802e+2, -463006.06, -239613.23, 38055.66, -0.20158027, 0.63191867, -233308.28, -213729.77, 0.0, 9.997122, 10.000077 
2.6947388e+3, 3.0800688e+2, -452394.56, -142620.47, 4794.0684, 0.015396976, 0.49741712, -142546.3, -142546.3, 0.0, 9.996572, 10.000672 
2.694684e+3, 3.1800863e+2, -419288.8, 30072.896, -6519.3164, -0.2021922, 0.6139707, 30167.459, 30167.459, 0.0, 9.996121, 10.002077 
2.7056655e+3, 1.2807696e+2, -1077899.5, -1593168.1, 33870.582, -0.019006884, 0.5654858, -1075682.5, 609219.06, 0.016960328, 10.005263, 9.99831 
2.7056134e+3, 1.3807477e+2, -1159206.6, -1602510.4, 22650.846, 0.018541338, 0.5343617, -1158052.3, 428868.38, 0.0102555975, 10.004074, 9.998136 
2.705561e+3, 1.4807291e+2, -1122158.4, -1523586.5, 51420.72, 0.0032340002, 0.5492772, -1115676.4, 373263.34, 0.0046531516, 10.003593, 9.998232 
2.705509e+3, 1.5807128e+2, -1050348.3, -1428502.6, 60847.594, -0.0056434395, 0.57513857, -1040798.7, 350158.94, 0.0013661424, 10.00336, 9.998324 
2.7054572e+3, 1.6806972e+2, -971043.2, -1264932.5, 76612.21, -0.0033135095, 0.5642187, -952270.75, 340701.44, 0.00020647723, 10.00291, 9.99899 
2.7054057e+3, 1.7806831e+2, -962149.8, -1232024.9, 67300.36, -0.0034442444, 0.5428525, -946297.8, 248686.7, 0.0000075413723, 10.002393, 9.998794 
2.7053544e+3, 1.8806705e+2, -929306.25, -1162703.9, 78626.8, 0.0013456447, 0.5555946, -905289.8, 191707.64, 0.0, 10.001936, 9.998816 
2.705303e+3, 1.9806594e+2, -892737.06, -1092077.0, 82102.66, 0.009561298, 0.57688606, -863275.5, 135733.89, 0.0, 10.001503, 9.998837 
2.7052516e+3, 2.0806476e+2, -824574.0, -953003.2, 83841.0, -0.0033345933, 0.56219566, -783181.6, 117839.02, 0.0, 10.00106, 9.999331 
2.7052e+3, 2.1806368e+2, -799814.5, -904018.6, 83830.15, -0.022486044, 0.5372543, -753214.4, 49816.15, 0.0, 10.000615, 9.99921 
2.705149e+3, 2.2806293e+2, -752278.06, -813024.4, 90813.39, -0.024307752, 0.55007035, -686893.2, 18145.268, 0.0, 10.000195, 9.999365 
2.7050978e+3, 2.3806238e+2, -718862.9, -754153.0, 94541.66, -0.018051082, 0.57410765, -640333.75, -33288.957, 0.0, 9.999784, 9.999294 
2.7050465e+3, 2.4806179e+2, -658984.4, -644820.0, 89536.68, -0.018925553, 0.58999836, -562085.9, -53034.383, 0.0, 9.999394, 9.999559 
2.704995e+3, 2.5806132e+2, -619440.4, -572832.94, 90414.34, -0.023468405, 0.599301, -502767.4, -91710.06, 0.0, 9.998982, 9.99958 
2.7049434e+3, 2.680609e+2, -552560.4, -431661.1, 76491.48, -0.049972482, 0.5826184, -394616.6, -81555.17, 0.0, 9.998518, 10.000099 
2.7048913e+3, 2.780606e+2, -531574.94, -383795.44, 77733.87, -0.076899566, 0.5607039, -350436.66, -135373.11, 0.0, 9.998044, 9.999986 
2.7048388e+3, 2.8806096e+2, -461649.34, -275010.13, 60033.09, -0.121916965, 0.6067532, -257367.92, -140307.84, 0.0, 9.997745, 10.000204 
2.704786e+3, 2.9806158e+2, -412537.1, -213615.42, 54511.668, -0.18567005, 0.66311365, -199656.78, -180602.08, 0.0, 9.997464, 10.00009 
2.704735e+3, 3.0806008e+2, -386075.75, -115701.94, 11042.871, -0.010287301, 0.49303347, -115251.664, -115251.664, 0.0, 9.99705, 10.000627 
2.7046803e+3, 3.18062e+2, -355132.3, 67361.84, 2859.1135, -0.18295228, 0.63116366, 67381.195, 67381.195, 0.0, 9.996538, 10.0021305 
2.7156705e+3, 1.2813026e+2, -1107084.5, -1641847.3, -11140.885, -0.03591243, 0.56808496, -1106852.5, 577526.56, 0.013368782, 10.0051985, 9.997998 
2.715617e+3, 1.3812801e+2, -1165076.4, -1618337.0, -9646.365, 0.007621025, 0.55701655, -1164871.1, 421529.34, 0.007950744, 10.004081, 9.998024 
2.7155644e+3, 1.4812618e+2, -1096597.5, -1475973.3, 44038.1, 0.0048747365, 0.55839366, -1091552.6, 396865.94, 0.0035118083, 10.00361, 9.998552 
2.7155122e+3, 1.5812463e+2, -1039572.1, -1405357.9, 49185.13, 0.009867445, 0.562499, -1033073.94, 357360.56, 0.0009908006, 10.003353, 9.998488 
2.71546e+3, 1.6812329e+2, -985213.9, -1293134.4, 57098.58, -0.002408987, 0.5792331, -974966.94, 317480.78, 0.00014094682, 10.002903, 9.9988 
2.7154076e+3, 1.781221e+2, -967265.3, -1242236.1, 49134.75, -0.02490684, 0.5962531, -958749.1, 235710.1, 0.0000045032148, 10.00239, 9.998726 
2.715356e+3, 1.8812056e+2, -916168.5, -1136066.3, 63055.55, -0.013996915, 0.572124, -899370.56, 197103.69, 0.0, 10.001936, 9.999 
2.7153045e+3, 1.9811907e+2, -884745.25, -1074432.0, 66163.0, 0.0077411393, 0.53850293, -863947.75, 134541.14, 0.0, 10.001496, 9.998963 
2.7152526e+3, 2.0811829e+2, -827792.0, -959499.25, 67357.52, 0.004889966, 0.5613068, -799445.1, 101051.516, 0.0, 10.001058, 9.999289 
2.7152008e+3, 2.181178e+2, -799641.4, -903928.56, 67708.57, -0.006579531, 0.59836394, -766325.0, 36176.5, 0.0, 10.000615, 9.999212 
2.7151492e+3, 2.2811686e+2, -744366.75, -798204.56, 75165.984, -0.003407354, 0.58490336, -691444.9, 13066.227, 0.0, 10.000199, 9.999465 
2.7150977e+3, 2.3811588e+2, -714212.94, -744310.44, 79374.016, 0.004501457, 0.55743456, -648473.7, -41952.66, 0.0, 9.999782, 9.999364 
2.7150455e+3, 2.4811539e+2, -658608.2, -643660.4, 74735.18, -0.022550773, 0.5786435, -576026.3, -67499.34, 0.0, 9.999392, 9.999569 
2.7149934e+3, 2.5811517e+2, -615011.56, -566443.25, 73916.32, -0.06589889, 0.6140702, -512924.16, -102393.74, 0.0, 9.998993, 9.99962 
2.7149415e+3, 2.6811486e+2, -550464.5, -428686.84, 56892.094, -0.07905677, 0.60589045, -406244.03, -93710.78, 0.0, 9.998521, 10.00012 
2.7148893e+3, 2.7811456e+2, -533761.7, -387518.44, 62331.785, -0.06570354, 0.5822843, -364556.66, -150021.36, 0.0, 9.998037, 9.999965 
2.714837e+3, 2.881146e+2, -465260.34, -282401.13, 50169.094, -0.08088192, 0.595464, -269541.2, -153005.61, 0.0, 9.997743, 10.000155 
2.7147835e+3, 2.9811493e+2, -411880.97, -215054.1, 41262.094, -0.15732034, 0.6286253, -206754.06, -188221.0, 0.0, 9.997474, 10.000077 
2.7147317e+3, 3.0811417e+2, -398652.94, -145087.64, -6368.8164, -0.048865348, 0.5419981, -144927.77, -144927.77, 0.0, 9.99706, 10.000422 
2.714677e+3, 3.1811538e+2, -368454.84, 42164.51, -1360.2587, -0.17059232, 0.63384145, 42169.02, 42169.02, 0.0, 9.9965315, 10.001958 
2.7256754e+3, 1.2818421e+2, -1203788.4, -1699685.3, 10835.093, -0.021953853, 0.56530124, -1203551.8, 480298.66, 0.010217787, 10.004556, 9.99791 
2.7256212e+3, 1.3818209e+2, -1138671.1, -1610370.0, 27075.762, -0.0025276819, 0.57754666, -1137122.0, 448749.5, 0.0059553655, 10.004276, 9.997984 
2.7255678e+3, 1.481802e+2, -1076193.0, -1461699.9, 76536.83, -0.008966809, 0.5719904, -1061553.6, 426336.3, 0.0025472597, 10.003731, 9.9985895 
2.7255154e+3, 1.5817852e+2, -1070878.8, -1417674.4, 64456.34, 0.00018475388, 0.5607799, -1059286.3, 330620.13, 0.00068596756, 10.003128, 9.99851 
2.7254626e+3, 1.6817719e+2, -1016422.1, -1310990.5, 76419.62, -0.004704364, 0.5789382, -997776.9, 294143.03, 0.000090375084, 10.002704, 9.998773 
2.7254102e+3, 1.7817606e+2, -974054.6, -1244341.1, 77828.14, -0.01966626, 0.6042603, -953246.2, 240685.28, 0.0000024128854, 10.00234, 9.998734 
2.725358e+3, 1.8817464e+2, -917876.0, -1128938.9, 87152.805, -0.014586875, 0.58797884, -886540.75, 209404.63, 0.0, 10.001893, 9.999067 
2.7253056e+3, 1.9817328e+2, -890118.4, -1069892.1, 82072.76, -0.0007967389, 0.559811, -858286.0, 139672.78, 0.0, 10.001432, 9.9990225 
2.7252534e+3, 2.0817241e+2, -830031.1, -957990.4, 86066.56, 0.0029277601, 0.57170445, -786768.75, 113198.29, 0.0, 10.001034, 9.999309 
2.7252015e+3, 2.181718e+2, -792418.6, -897405.4, 91330.9, 0.0032035615, 0.59515023, -739570.25, 62402.656, 0.0, 10.000653, 9.999237 
2.725149e+3, 2.2817096e+2, -728664.4, -788119.4, 95482.734, 0.0003179348, 0.5914411, -658388.5, 45593.043, 0.0, 10.0002985, 9.999485 
2.7250972e+3, 2.3817015e+2, -690269.75, -729891.44, 93450.02, -0.0008514103, 0.57845926, -614553.75, -8563.542, 0.0, 9.999937, 9.999387 
2.7250448e+3, 2.4816962e+2, -644734.6, -637192.9, 85806.96, -0.024422925, 0.59475017, -555073.94, -47077.336, 0.0, 9.999491, 9.999564 
2.7249923e+3, 2.5816932e+2, -611393.1, -564603.9, 83640.53, -0.060202297, 0.62031657, -501147.78, -91146.74, 0.0, 9.999022, 9.999618 
2.7249396e+3, 2.6816905e+2, -522358.7, -415268.9, 64633.164, -0.083143026, 0.61911255, -384882.28, -72878.84, 0.0, 9.998719, 10.000114 
2.724887e+3, 2.7816883e+2, -477633.28, -362747.5, 68802.02, -0.078111425, 0.60366845, -330561.13, -116556.13, 0.0, 9.998437, 9.99994 
2.724835e+3, 2.881687e+2, -438616.53, -278577.44, 54415.27, -0.055977613, 0.61012185, -261828.47, -145821.94, 0.0, 9.99797, 10.00007 
2.7247816e+3, 2.981689e+2, -421280.0, -221921.13, 41775.504, -0.09905463, 0.63433266, -213521.03, -195515.45, 0.0, 9.997426, 10.00005 
2.7247277e+3, 3.0816838e+2, -380411.72, -125483.984, 8845.596, -0.13663696, 0.5690439, -125177.42, -125177.42, 0.0, 9.997146, 10.000511 
2.7246734e+3, 3.1816933e+2, -302818.2, 17373.053, 23680.586, -0.17356299, 0.63136595, 19114.936, 19114.936, 0.0, 9.997231, 10.001448 
2.73568e+3, 1.2823874e+2, -1200707.1, -1687658.3, 806.819, 0.009648687, 0.5601354, -1200705.8, 482610.3, 0.0075237234, 10.004526, 9.998003 
2.7356252e+3, 1.3823694e+2, -1139109.8, -1610798.8, 13226.245, -0.013913863, 0.59630597, -1138739.1, 446595.5, 0.004279999, 10.004268, 9.997985 
2.7355713e+3, 1.482349e+2, -1089486.5, -1491604.6, 53131.277, -0.035703123, 0.588728, -1082584.9, 404769.7, 0.001762924, 10.003736, 9.9983835 
2.735518e+3, 1.5823294e+2, -1077315.9, -1431877.5, 44890.496, -0.031965613, 0.5674696, -1071720.8, 317652.88, 0.00044961544, 10.003129, 9.998413 
2.7354652e+3, 1.6823143e+2, -1009506.25, -1297081.9, 63619.402, -0.010589222, 0.56526154, -996060.56, 295328.1, 0.000053713382, 10.002704, 9.998869 
2.7354127e+3, 1.782302e+2, -970803.4, -1236419.1, 62874.215, 0.0067588594, 0.5724024, -956672.1, 236729.08, 0.0000011019603, 10.002334, 9.998793 
2.7353597e+3, 1.8822926e+2, -922525.3, -1137442.3, 69720.11, -0.0036904784, 0.60453427, -901889.2, 193521.81, 0.0, 10.001886, 9.999013 
2.735307e+3, 1.9822846e+2, -891795.3, -1072264.3, 66146.07, -0.018319339, 0.6377004, -870147.9, 127271.6, 0.0, 10.001426, 9.99901 
2.7352545e+3, 2.0822708e+2, -823398.7, -945592.94, 71983.805, -0.00817872, 0.5920378, -790079.0, 109353.15, 0.0, 10.001039, 9.999393 
2.735202e+3, 2.1822566e+2, -790013.75, -891692.06, 77696.65, 0.005540507, 0.5288233, -748001.44, 53443.35, 0.0, 10.0006485, 9.99928 
2.7351493e+3, 2.2822525e+2, -734481.9, -799856.8, 82692.945, -0.01337828, 0.57060146, -678250.3, 25199.652, 0.0, 10.000297, 9.999406 
2.7350968e+3, 2.382252e+2, -692699.9, -736532.7, 78334.336, -0.038140085, 0.64055485, -633273.8, -27821.484, 0.0, 9.999942, 9.999339 
2.735044e+3, 2.4822447e+2, -644786.0, -638836.3, 66729.2, -0.024543349, 0.6392937, -575015.7, -67555.12, 0.0, 9.999495, 9.999553 
2.734992e+3, 2.5822365e+2, -614158.1, -570630.7, 68228.68, -0.008714503, 0.61865634, -520778.66, -111309.37, 0.0, 9.999021, 9.9995775 
2.7349386e+3, 2.6822338e+2, -526703.06, -423908.9, 54826.598, -0.062134236, 0.62067807, -400155.38, -88683.1, 0.0, 9.998717, 10.000057 
2.7348852e+3, 2.7822337e+2, -479878.7, -369588.16, 55466.99, -0.115302265, 0.62868994, -346518.4, -133045.75, 0.0, 9.998445, 9.99989 
2.7348328e+3, 2.8822336e+2, -446345.6, -296690.97, 32101.584, -0.05139496, 0.65459055, -290095.7, -174622.63, 0.0, 9.997973, 9.999946 
2.7347797e+3, 2.982234e+2, -424767.2, -228826.47, 22531.635, -0.020733042, 0.6818047, -226268.89, -208796.22, 0.0, 9.997421, 10.000006 
2.7347234e+3, 3.082226e+2, -360207.9, -80364.2, 1532.8507, -0.26390514, 0.5658184, -80355.805, -80355.805, 0.0, 9.997132, 10.000828 
2.7346712e+3, 3.1822366e+2, -358978.56, -119457.47, 5705.355, -0.11598993, 0.6299891, -119321.64, -119321.64, 0.0, 9.997293, 10.00049 
2.745684e+3, 1.282938e+2, -1243849.6, -1705046.3, 25109.807, 0.009148191, 0.56632805, -1242486.5, 440290.2, 0.005295913, 10.004196, 9.998047 
2.7456293e+3, 1.3829184e+2, -1161276.8, -1618582.1, 30109.049, -0.013179538, 0.5837741, -1159302.9, 425493.8, 0.0029287226, 10.004098, 9.9980135 
2.7455747e+3, 1.4828984e+2, -1101009.0, -1502277.8, 66699.59, -0.040734217, 0.58202416, -1090212.5, 396603.8, 0.0011556303, 10.003681, 9.998335 
2.745521e+3, 1.5828793e+2, -1072337.3, -1432395.3, 68045.23, -0.04298986, 0.5733075, -1059907.0, 328927.94, 0.00027635533, 10.003179, 9.998384 
2.7454674e+3, 1.6828643e+2, -1021308.3, -1305249.9, 85544.234, -0.018187055, 0.57309115, -997527.7, 293322.56, 0.000029153769, 10.002636, 9.998845 
2.7454147e+3, 1.7828514e+2, -1003498.44, -1250156.8, 77907.23, 0.0058867955, 0.5769576, -980952.25, 211911.19, 0.00000039166414, 10.002103, 9.998807 
2.7453613e+3, 1.882842e+2, -942190.8, -1138915.4, 90025.52, -0.0034048844, 0.60384387, -907212.44, 187660.63, 0.0, 10.00172, 9.999081 
2.745308e+3, 1.9828343e+2, -896386.8, -1071548.8, 94622.766, -0.018551882, 0.63462955, -855034.06, 141846.83, 0.0, 10.001385, 9.999035 
2.7452552e+3, 2.0828204e+2, -823514.6, -953981.1, 95223.336, -0.008195852, 0.59318495, -773323.2, 125570.74, 0.0, 10.001076, 9.999316 
2.7452025e+3, 2.182806e+2, -775414.75, -890035.94, 88282.82, 0.0075694355, 0.53356093, -727471.56, 73435.77, 0.0, 10.000775, 9.9992285 
2.7451494e+3, 2.282802e+2, -733597.25, -803277.06, 91011.586, -0.016188985, 0.5814731, -670985.0, 31927.55, 0.0, 10.000321, 9.99937 
2.7450964e+3, 2.3828016e+2, -710738.75, -747566.9, 90596.66, -0.045662735, 0.6579841, -636703.75, -31788.928, 0.0, 9.999831, 9.999316 
2.7450436e+3, 2.4827933e+2, -642645.1, -638165.75, 80045.445, -0.027531816, 0.64671046, -560328.6, -53404.83, 0.0, 9.999515, 9.999546 
2.744991e+3, 2.5827834e+2, -587523.2, -562582.56, 82461.695, -0.002805317, 0.6105419, -491653.6, -82719.72, 0.0, 9.999227, 9.999532 
2.7449372e+3, 2.6827818e+2, -512803.63, -433189.56, 66435.99, -0.05544533, 0.63191605, -395547.63, -84610.94, 0.0, 9.998886, 9.999909 
2.7448836e+3, 2.7827826e+2, -474887.94, -374206.38, 59175.754, -0.110731065, 0.6671747, -346855.7, -133919.1, 0.0, 9.998515, 9.999822 
2.7448305e+3, 2.8827798e+2, -408055.88, -267635.84, 42999.83, -0.058400024, 0.66399777, -255514.63, -140575.31, 0.0, 9.998197, 10.000035 
2.7447772e+3, 2.9827774e+2, -356170.84, -198962.95, 50361.613, -0.032982796, 0.65310603, -184213.42, -167271.89, 0.0, 9.99791, 9.999973 
2.744721e+3, 3.082779e+2, -297559.2, -77131.64, 5675.3057, -0.23596646, 0.65164274, -76985.62, -76985.62, 0.0, 9.997682, 10.000585 
2.744669e+3, 3.1827807e+2, -386592.56, -125154.56, 4056.9722, -0.05008095, 0.64660776, -125091.625, -125091.625, 0.0, 9.997075, 10.000555 
2.755688e+3, 1.2834927e+2, -1240463.5, -1700268.9, 21191.75, -0.016772496, 0.57861376, -1239488.9, 442744.0, 0.003527426, 10.004203, 9.998075 
2.7556333e+3, 1.3834687e+2, -1161604.1, -1614373.8, 21415.986, -0.0068559893, 0.54736835, -1160593.4, 423663.5, 0.0018890979, 10.004072, 9.998055 
2.7555785e+3, 1.4834505e+2, -1098981.3, -1495147.4, 47742.777, -0.03130213, 0.55838555, -1093309.0, 392966.16, 0.00070998265, 10.003665, 9.998393 
2.755524e+3, 1.5834352e+2, -1072137.9, -1431268.1, 48663.254, -0.038411975, 0.5801888, -1065660.8, 322629.88, 0.0001569409, 10.003174, 9.998396 
2.75547e+3, 1.683421e+2, -1030622.0, -1324525.4, 65176.957, -0.027527908, 0.59805286, -1016816.6, 273488.63, 0.000014099469, 10.002634, 9.9987135 
2.7554163e+3, 1.7834081e+2, -1006186.25, -1255497.5, 60673.36, -0.018960346, 0.6112517, -992204.6, 200114.23, 0.00000009505926, 10.002101, 9.998773 
2.7553627e+3, 1.8833944e+2, -929902.0, -1115180.9, 77677.805, -0.01306097, 0.58718485, -901645.2, 192686.36, 0.0, 10.001728, 9.999242 
2.7553096e+3, 1.9833821e+2, -892949.25, -1065374.3, 81894.92, -0.0058474676, 0.557728, -860252.6, 136090.22, 0.0, 10.001388, 9.999077 
2.7552563e+3, 2.0833729e+2, -839920.94, -988449.0, 84116.766, 0.0008702521, 0.5779256, -801976.3, 96375.93, 0.0, 10.001077, 9.999081 
2.7552032e+3, 2.1833655e+2, -786530.56, -912521.2, 75075.53, 0.004941785, 0.6099763, -751522.06, 48838.47, 0.0, 10.000771, 9.999077 
2.7551496e+3, 2.2833577e+2, -731780.44, -801612.1, 72062.28, -0.008955388, 0.6233026, -686620.75, 15748.62, 0.0, 10.000329, 9.999378 
2.7550963e+3, 2.3833506e+2, -710770.06, -748052.06, 74434.234, -0.026113492, 0.6305813, -652678.1, -48300.48, 0.0, 9.999831, 9.999314 
2.755043e+3, 2.4833417e+2, -644529.56, -641371.6, 69957.81, -0.034587868, 0.6154494, -572974.94, -66588.3, 0.0, 9.999511, 9.999526 
2.7549896e+3, 2.5833338e+2, -591348.2, -572855.56, 70922.8, -0.046205416, 0.59962654, -510578.88, -102184.24, 0.0, 9.999236, 9.999457 
2.754936e+3, 2.6833332e+2, -528725.1, -468317.03, 51547.375, -0.06361798, 0.6550881, -438776.47, -128379.74, 0.0, 9.998891, 9.999668 
2.7548823e+3, 2.783335e+2, -479680.34, -384857.38, 45077.168, -0.06841096, 0.71871036, -366848.66, -154451.53, 0.0, 9.998516, 9.999749 
2.7548286e+3, 2.8833255e+2, -388031.66, -224609.27, 31343.178, -0.07780889, 0.63241935, -218804.1, -104398.1, 0.0, 9.99819, 10.000334 
2.7547738e+3, 2.983318e+2, -360581.06, -206943.22, 42250.316, -0.13222557, 0.54248303, -196090.97, -179678.05, 0.0, 9.997904, 9.999923 
2.7547204e+3, 3.083344e+2, -353123.44, -200286.28, -5709.0405, -0.048733387, 0.84881455, -200073.33, -200073.33, 0.0, 9.997709, 9.999729 
2.7546653e+3, 3.1833217e+2, -305413.13, 57474.04, 12943.912, -0.10764886, 0.65200746, 57935.152, 57935.152, 0.0, 9.997033, 10.00182 
2.7656922e+3, 1.2840506e+2, -1224625.1, -1689055.0, 29159.018, -0.013704531, 0.5933161, -1222801.5, 458885.53, 0.0021919068, 10.004289, 9.998112 
2.7656367e+3, 1.3840255e+2, -1209826.3, -1629066.6, 28327.61, -0.015524501, 0.5491924, -1207920.8, 375790.9, 0.0011311196, 10.003702, 9.998133 
2.7655816e+3, 1.4840089e+2, -1148742.3, -1505112.8, 56751.16, -0.035607368, 0.5645997, -1139923.1, 345805.38, 0.00040111932, 10.003263, 9.998518 
2.7655268e+3, 1.5839955e+2, -1108317.4, -1439746.3, 60840.992, -0.032721147, 0.5947957, -1097501.6, 290240.53, 0.000080078404, 10.002888, 9.998475 
2.7654725e+3, 1.6839808e+2, -1041177.5, -1330599.5, 84266.37, -0.027417066, 0.60488504, -1018430.75, 271326.44, 0.000005757098, 10.00257, 9.998701 
2.7654183e+3, 1.7839667e+2, -983622.56, -1246615.3, 87619.555, -0.029254118, 0.60818094, -957104.75, 234666.86, 0.00000000965895, 10.00227, 9.998751 
2.7653643e+3, 1.8839528e+2, -908877.56, -1114758.9, 95215.55, -0.023995843, 0.5878514, -871594.2, 222190.58, 0.0, 10.001916, 9.999153 
2.7653107e+3, 1.98394e+2, -872429.1, -1061075.9, 83195.12, -0.012097436, 0.5617882, -840981.56, 154815.31, 0.0, 10.001554, 9.999025 
2.765257e+3, 2.083931e+2, -833993.06, -986157.75, 92982.36, -0.0045463797, 0.5855702, -789932.8, 107873.484, 0.0, 10.001122, 9.999073 
2.7652037e+3, 2.183924e+2, -801810.3, -923223.56, 99517.98, -0.00073976343, 0.62429065, -745944.56, 53869.65, 0.0, 10.000684, 9.999044 
2.7651498e+3, 2.2839151e+2, -717135.6, -805005.94, 94839.69, -0.009879438, 0.6353449, -656548.7, 45275.46, 0.0, 10.000478, 9.999282 
2.765096e+3, 2.3839062e+2, -644836.3, -722591.4, 89176.07, -0.019306302, 0.6345458, -586431.6, 17402.559, 0.0, 10.000314, 9.999255 
2.7650425e+3, 2.4838968e+2, -592887.0, -617598.0, 81782.02, -0.036165047, 0.6173365, -522532.44, -16689.174, 0.0, 9.999874, 9.999513 
2.7649885e+3, 2.5838888e+2, -575745.5, -567415.7, 84424.234, -0.05816017, 0.60191065, -487053.7, -79202.82, 0.0, 9.999357, 9.999434 
2.764935e+3, 2.6838872e+2, -514139.47, -469043.78, 75947.72, -0.06677147, 0.6545406, -412367.5, -102513.586, 0.0, 9.999028, 9.999596 
2.764881e+3, 2.783888e+2, -454801.8, -382425.8, 79418.555, -0.057531368, 0.7139341, -331339.1, -119483.24, 0.0, 9.998731, 9.999661 
2.7648267e+3, 2.883879e+2, -375248.3, -232967.27, 41803.027, -0.08433895, 0.64419454, -221594.36, -107729.67, 0.0, 9.998345, 10.000199 
2.7647716e+3, 2.9838717e+2, -365651.13, -218395.47, 26325.686, -0.15883142, 0.57305163, -213830.6, -197959.2, 0.0, 9.997912, 9.999837 
2.7647185e+3, 3.083894e+2, -366304.3, -213004.25, 24269.57, 0.012343089, 0.8442505, -209253.8, -209253.8, 0.0, 9.997648, 9.999669 
2.7646616e+3, 3.183872e+2, -218269.16, 111356.734, 51198.824, -0.18348056, 0.6566137, 119126.016, 119126.016, 0.0, 9.997589, 10.001918 
2.7756965e+3, 1.2846118e+2, -1227874.0, -1685906.9, 6784.562, 0.008365708, 0.6122021, -1227773.6, 453365.1, 0.0012455396, 10.004247, 9.998152 
2.7756402e+3, 1.3845886e+2, -1207956.0, -1618013.4, 9752.6875, -0.03972305, 0.580978, -1207724.3, 375437.34, 0.000614039, 10.00367, 9.998224 
2.7755845e+3, 1.4845729e+2, -1139314.6, -1483038.1, 42325.387, -0.051117584, 0.59213865, -1134179.5, 350997.66, 0.00020190683, 10.003249, 9.998677 
2.77553e+3, 1.5845601e+2, -1099856.6, -1420985.5, 46709.742, -0.025399333, 0.6127261, -1093200.5, 293989.53, 0.00003484893, 10.002881, 9.998608 
2.7754748e+3, 1.684544e+2, -1035478.44, -1318835.4, 72897.305, -0.02124883, 0.5978869, -1017824.56, 271381.2, 0.0000017161015, 10.002569, 9.998783 
2.7754205e+3, 1.7845279e+2, -986526.44, -1252228.9, 75140.46, -0.03134695, 0.57720834, -966748.94, 224472.2, 0.00000000000031198744, 10.002267, 9.998714 
2.775366e+3, 1.8845168e+2, -931717.8, -1160606.4, 81815.62, -0.03677686, 0.6046766, -905480.56, 187752.33, 0.0, 10.001907, 9.998843 
2.775312e+3, 1.9845071e+2, -884072.6, -1081996.0, 69048.14, -0.036434513, 0.639257, -862365.06, 132878.28, 0.0, 10.001538, 9.99889 
2.7752578e+3, 2.0844941e+2, -820561.7, -958343.5, 76067.99, -0.023606503, 0.61303014, -786825.6, 110430.52, 0.0, 10.0011215, 9.999264 
2.7752042e+3, 2.1844812e+2, -797463.0, -914544.44, 86215.22, -0.011062937, 0.5776717, -751792.0, 47476.402, 0.0, 10.000684, 9.9991045 
2.7751502e+3, 2.2844742e+2, -731292.4, -835072.94, 89837.266, -0.019026736, 0.6183424, -679436.2, 21840.781, 0.0, 10.000479, 9.999076 
2.7750963e+3, 2.384469e+2, -653510.3, -741290.4, 78716.37, -0.03004275, 0.6740647, -607274.9, -3990.831, 0.0, 10.000315, 9.999126 
2.7750424e+3, 2.484459e+2, -593056.1, -618714.2, 61267.504, -0.032700498, 0.65440893, -543288.9, -37995.367, 0.0, 9.999875, 9.999506 
2.774988e+3, 2.5844488e+2, -573856.2, -563550.1, 67731.164, -0.040640816, 0.61766136, -500776.25, -93473.6, 0.0, 9.999355, 9.999463 
2.7749336e+3, 2.684444e+2, -508799.72, -456832.3, 65305.066, -0.06568753, 0.62689185, -412531.56, -103222.97, 0.0, 9.999023, 9.999681 
2.7748793e+3, 2.784441e+2, -463529.7, -400628.6, 67346.87, -0.07871925, 0.651729, -357750.56, -146437.8, 0.0, 9.998731, 9.999537 
2.7748248e+3, 2.8844407e+2, -417574.97, -322225.84, 24703.52, -0.0777153, 0.7067714, -316205.66, -202890.7, 0.0, 9.998348, 9.999587 
2.7747697e+3, 2.98444e+2, -369240.5, -229334.47, 10208.963, -0.11974612, 0.7568077, -228593.44, -213276.95, 0.0, 9.997925, 9.999758 
2.7747154e+3, 3.0844247e+2, -309581.22, -90696.4, 17558.857, -0.06298422, 0.5965064, -89296.78, -89296.78, 0.0, 9.997629, 10.000518 
2.774659e+3, 3.184442e+2, -307363.38, -84134.73, 2049.7952, -0.16321503, 0.75062716, -84115.91, -84115.91, 0.0, 9.997611, 10.000577 
2.7857006e+3, 1.2851752e+2, -1311276.0, -1694024.3, 6835.764, 0.04370438, 0.62680656, -1311154.0, 369434.4, 0.0006298635, 10.003529, 9.998445 
2.7856433e+3, 1.3851555e+2, -1271996.5, -1628735.6, 27465.879, -0.05085336, 0.60368633, -1269894.3, 312712.8, 0.00029206782, 10.003141, 9.998405 
2.7855873e+3, 1.4851393e+2, -1186903.9, -1511917.5, 59902.395, -0.0627525, 0.6083966, -1176215.0, 308408.1, 0.00008601583, 10.002952, 9.998621 
2.7855325e+3, 1.585125e+2, -1107246.8, -1421957.9, 50329.875, -0.0236907, 0.6189498, -1099393.8, 287243.84, 0.000011710244, 10.002824, 9.998628 
2.7854773e+3, 1.6851099e+2, -1041314.5, -1309071.5, 71888.28, -0.023179023, 0.6057137, -1023234.56, 265417.47, 0.00000025139548, 10.002475, 9.998896 
2.7854225e+3, 1.7850952e+2, -1010577.3, -1258304.4, 75186.45, -0.0396853, 0.58824164, -989543.75, 201122.11, 0.0, 10.002074, 9.998767 
2.7853677e+3, 1.8850838e+2, -969110.44, -1184124.9, 95047.41, -0.044169363, 0.61586297, -933119.2, 159558.7, 0.0, 10.001678, 9.998791 
2.785313e+3, 1.9850738e+2, -922387.2, -1105353.4, 99825.586, -0.042565487, 0.6532818, -878466.06, 116222.875, 0.0, 10.001304, 9.998839 
2.785259e+3, 2.0850605e+2, -824870.94, -970868.0, 97540.77, -0.02954581, 0.63193953, -776037.7, 120664.67, 0.0, 10.001141, 9.999168 
2.7852046e+3, 2.1850468e+2, -752791.9, -898906.1, 88683.76, -0.013952508, 0.5980045, -710948.4, 87767.266, 0.0, 10.001017, 9.999051 
2.7851504e+3, 2.2850391e+2, -715109.0, -826380.5, 98259.64, -0.025308479, 0.6312421, -657827.56, 42897.113, 0.0, 10.000588, 9.999082 
2.7850962e+3, 2.385033e+2, -684625.2, -755385.2, 102094.96, -0.03987258, 0.67917764, -611953.7, -9221.647, 0.0, 10.000101, 9.999131 
2.785042e+3, 2.4850234e+2, -582268.0, -616536.6, 87134.11, -0.03275423, 0.6658391, -510599.5, -5858.4927, 0.0, 9.999964, 9.999477 
2.7849877e+3, 2.5850135e+2, -503150.94, -538742.6, 88939.95, -0.027538411, 0.63667226, -430243.94, -23494.035, 0.0, 9.999882, 9.999379 
2.784933e+3, 2.685006e+2, -461519.88, -455450.28, 65843.62, -0.061325148, 0.6362311, -392571.56, -83813.195, 0.0, 9.999445, 9.999486 
2.784878e+3, 2.7850005e+2, -449379.63, -411590.6, 50143.203, -0.08500185, 0.64926255, -376900.2, -166134.64, 0.0, 9.998911, 9.9993725 
2.7848232e+3, 2.8850004e+2, -389131.78, -323846.56, 33015.61, -0.0752393, 0.7256288, -310061.06, -197293.88, 0.0, 9.998612, 9.999447 
2.7847674e+3, 2.985001e+2, -311927.84, -213574.13, 48945.688, -0.10813411, 0.79859656, -193367.67, -178599.63, 0.0, 9.998372, 9.999649 
2.7847126e+3, 3.0849764e+2, -246422.92, -63757.18, 6691.2207, -0.1023812, 0.55268556, -63512.4, -63512.4, 0.0, 9.998082, 10.000483 
2.7846572e+3, 3.1850007e+2, -294541.97, -122453.09, -33760.668, -0.113518976, 0.78903913, -116066.87, -116066.87, 0.0, 9.997896, 10.000174 
2.7957043e+3, 1.2857404e+2, -1283259.9, -1622948.3, -7462.0366, 0.08638829, 0.63766277, -1283096.1, 396940.16, 0.00027310598, 10.003474, 9.998957 
2.7956462e+3, 1.385726e+2, -1249926.6, -1589394.1, 15282.913, -0.05255884, 0.6206196, -1249239.9, 332808.66, 0.00011560371, 10.003169, 9.998663 
2.7955902e+3, 1.4857087e+2, -1199595.5, -1543411.5, 55478.598, -0.07356901, 0.6180469, -1190865.1, 293200.97, 0.00002830601, 10.002972, 9.998396 
2.795535e+3, 1.5856914e+2, -1116138.9, -1436063.4, 43412.0, -0.032658495, 0.61842436, -1110352.8, 275731.2, 0.000002446046, 10.002804, 9.998541 
2.7954796e+3, 1.6856785e+2, -1035809.5, -1293759.1, 57379.863, -0.032520115, 0.6247194, -1023621.44, 264474.7, 0.0000000042322403, 10.002457, 9.999011 
2.7954242e+3, 1.7856675e+2, -1002615.7, -1239697.8, 59855.637, -0.05078537, 0.6314858, -988361.1, 201745.3, 0.0, 10.002065, 9.998899 
2.795369e+3, 1.885654e+2, -956153.06, -1158718.1, 79968.2, -0.04775798, 0.62132764, -928388.9, 163731.03, 0.0, 10.001684, 9.998962 
2.7953142e+3, 1.9856407e+2, -921448.1, -1105367.1, 88282.59, -0.03647274, 0.61145, -885930.7, 108202.664, 0.0, 10.001311, 9.9988365 
2.7952597e+3, 2.0856303e+2, -848907.75, -1022378.2, 93921.54, -0.024175594, 0.6445197, -807798.3, 88346.62, 0.0, 10.001145, 9.998813 
2.7952057e+3, 2.185621e+2, -764520.56, -922315.44, 80085.48, -0.014270492, 0.6843739, -730996.94, 67158.695, 0.0, 10.001012, 9.998894 
2.795151e+3, 2.2856095e+2, -700989.4, -797691.9, 79207.85, -0.029825374, 0.6729629, -656541.2, 43626.082, 0.0, 10.000589, 9.999279 
2.7950963e+3, 2.3855983e+2, -676336.6, -738923.1, 88898.52, -0.04927798, 0.64964473, -613384.4, -11206.059, 0.0, 10.000103, 9.999245 
2.7950418e+3, 2.4855901e+2, -586763.7, -625807.06, 85363.766, -0.03646931, 0.64997494, -518717.84, -14531.715, 0.0, 9.999963, 9.999414 
2.7949873e+3, 2.5855833e+2, -516754.6, -568929.2, 80349.54, -0.02364482, 0.66038257, -458363.5, -52170.832, 0.0, 9.999889, 9.999168 
2.794932e+3, 2.6855743e+2, -496114.03, -528287.9, 44241.465, -0.054506637, 0.6857701, -465125.53, -156922.23, 0.0, 9.999446, 9.998986 
2.7948767e+3, 2.7855653e+2, -462843.7, -440323.2, 32750.422, -0.08035586, 0.7091172, -416951.3, -206736.9, 0.0, 9.998913, 9.999175 
2.7948216e+3, 2.885558e+2, -364658.7, -272246.84, 23351.363, -0.07806391, 0.69437337, -266681.4, -154459.16, 0.0, 9.99861, 9.999803 
2.7947658e+3, 2.9855528e+2, -326771.78, -242285.4, 39674.496, -0.11897885, 0.6876185, -226575.58, -212348.47, 0.0, 9.998363, 9.999457 
2.7947104e+3, 3.0855513e+2, -321227.7, -220930.44, -7990.781, -0.10827242, 0.7513465, -220297.78, -220297.78, 0.0, 9.998086, 9.999403 
2.7946553e+3, 3.1855378e+2, -252665.27, -33810.305, 19163.256, -0.10607145, 0.68823886, -32145.014, -32145.014, 0.0, 9.997897, 10.000777 
2.8057072e+3, 1.2863094e+2, -1355863.4, -1665101.9, 33827.77, 0.065979086, 0.6270919, -1352206.3, 327272.3, 0.00009545869, 10.003003, 9.998896 
2.8056493e+3, 1.3862966e+2, -1236247.6, -1582727.1, 16564.445, -0.03214869, 0.6310622, -1235457.5, 346033.0, 0.0000345017, 10.003262, 9.998665 
2.805593e+3, 1.4862798e+2, -1208278.3, -1535507.6, 54965.047, -0.059684634, 0.62727916, -1199292.5, 284215.0, 0.0000060034013, 10.002861, 9.998504 
2.8055373e+3, 1.5862627e+2, -1180145.9, -1458680.5, 62691.266, -0.035347126, 0.6211115, -1166686.0, 218838.84, 0.00000016363987, 10.002328, 9.998616 
2.8054816e+3, 1.6862507e+2, -1082823.1, -1313790.0, 81041.99, -0.034899853, 0.6326312, -1057224.3, 230312.02, 0.0, 10.002127, 9.999031 
2.805426e+3, 1.7862406e+2, -1006980.4, -1237407.4, 78205.38, -0.050432142, 0.6471692, -982945.06, 206600.53, 0.0, 10.002024, 9.998932 
2.8053707e+3, 1.8862265e+2, -934287.44, -1150950.3, 84595.43, -0.05093263, 0.6307961, -905170.4, 186389.27, 0.0, 10.001847, 9.998938 
2.8053156e+3, 1.986212e+2, -872943.2, -1082787.3, 81994.36, -0.04058443, 0.6108772, -844704.75, 148869.47, 0.0, 10.001643, 9.998834 
2.805261e+3, 2.0862024e+2, -823837.7, -1005943.75, 106903.94, -0.027446097, 0.6479149, -774466.0, 121119.086, 0.0, 10.001301, 9.998851 
2.8052062e+3, 2.1861942e+2, -775078.6, -924877.1, 116364.51, -0.017438935, 0.69597006, -711592.2, 86002.46, 0.0, 10.000934, 9.998912 
2.8051513e+3, 2.2861817e+2, -682193.44, -792985.7, 105338.336, -0.030155007, 0.67871135, -618573.2, 81033.805, 0.0, 10.000741, 9.999237 
2.8050965e+3, 2.3861691e+2, -612129.7, -713395.7, 100490.29, -0.0439011, 0.64592254, -550237.1, 51382.1, 0.0, 10.000568, 9.999195 
2.8050417e+3, 2.4861608e+2, -559745.44, -621820.25, 93859.0, -0.038320184, 0.6546927, -491925.22, 11702.015, 0.0, 10.00019, 9.999331 
2.8049868e+3, 2.5861543e+2, -541730.94, -590047.7, 87918.31, -0.03284108, 0.67755085, -474712.25, -69078.42, 0.0, 9.999761, 9.9990835 
2.8049314e+3, 2.6861444e+2, -476144.16, -531428.4, 73332.62, -0.05639025, 0.7012985, -425416.9, -117771.42, 0.0, 9.999639, 9.998873 
2.804876e+3, 2.7861333e+2, -378129.4, -411015.56, 84536.98, -0.07108156, 0.7169387, -308451.22, -98792.88, 0.0, 9.99954, 9.999075 
2.8048202e+3, 2.8861237e+2, -325261.63, -261923.36, 48769.137, -0.06852454, 0.688345, -235443.0, -123774.555, 0.0, 9.998919, 9.999724 
2.804764e+3, 2.986117e+2, -360819.25, -278881.38, 46162.445, -0.11378594, 0.6737732, -258129.77, -244454.61, 0.0, 9.998219, 9.999273 
2.8047088e+3, 3.0861196e+2, -284765.72, -245469.08, 53174.8, -0.098859444, 0.8126095, -208428.63, -208428.63, 0.0, 9.998517, 9.999027 
2.8046528e+3, 3.186094e+2, -209200.14, 7720.707, 48711.03, -0.12689826, 0.65171987, 18156.994, 18156.994, 0.0, 9.99811, 10.0009575 
2.815709e+3, 1.2868817e+2, -1386350.6, -1738160.5, 44115.418, -0.007893669, 0.5999862, -1380903.1, 298012.94, 0.000023604834, 10.00305, 9.998369 
2.8156528e+3, 1.3868672e+2, -1261370.0, -1617845.3, 17124.82, 0.002551, 0.63500625, -1260549.3, 320383.03, 0.0000064184533, 10.00319, 9.998458 
2.815596e+3, 1.4868526e+2, -1190105.5, -1489104.1, 33822.977, -0.026543735, 0.63541514, -1186327.3, 296619.97, 0.00000052844416, 10.002821, 9.998843 
2.8155395e+3, 1.5868384e+2, -1163104.6, -1426504.3, 46944.57, -0.031002093, 0.62700146, -1154988.0, 229973.1, 0.0000000005064632, 10.00234, 9.998832 
2.8154835e+3, 1.6868265e+2, -1082226.4, -1316745.5, 77197.32, -0.03399277, 0.6323807, -1059096.4, 227875.98, 0.0, 10.002144, 9.999003 
2.815428e+3, 1.7868155e+2, -1013027.3, -1249973.9, 73275.94, -0.047234558, 0.64078265, -992197.75, 196785.02, 0.0, 10.002023, 9.998847 
2.8153723e+3, 1.8868016e+2, -950266.8, -1182333.3, 77897.05, -0.05480934, 0.6442067, -926544.3, 164452.75, 0.0, 10.001838, 9.998727 
2.815317e+3, 1.9867876e+2, -874774.94, -1082962.1, 72932.35, -0.05431733, 0.64633507, -851767.75, 141243.92, 0.0, 10.001627, 9.998841 
2.815262e+3, 2.0867765e+2, -797928.1, -951032.44, 92808.27, -0.03888232, 0.64176184, -754174.0, 140848.86, 0.0, 10.001295, 9.99923 
2.815207e+3, 2.1867663e+2, -765508.44, -903440.25, 104705.12, -0.02452344, 0.6370878, -709097.06, 87935.68, 0.0, 10.000925, 9.9990635 
2.815152e+3, 2.2867557e+2, -700713.2, -832041.25, 99699.34, -0.026843261, 0.6507835, -646996.6, 52047.29, 0.0, 10.000743, 9.998968 
2.815097e+3, 2.3867457e+2, -625564.4, -742825.3, 90785.67, -0.03138087, 0.6694157, -576122.75, 24932.027, 0.0, 10.000574, 9.998991 
2.8150418e+3, 2.4867363e+2, -567297.25, -637895.25, 76635.22, -0.03964956, 0.6808635, -518222.22, -15157.93, 0.0, 10.00019, 9.999223 
2.8149864e+3, 2.5867277e+2, -539302.2, -585080.6, 76401.03, -0.05579915, 0.68928987, -482435.3, -77362.12, 0.0, 9.99976, 9.99912 
2.814931e+3, 2.6867163e+2, -457094.9, -491937.78, 71839.76, -0.06740366, 0.6808381, -400594.38, -93509.29, 0.0, 9.999639, 9.999144 
2.8148755e+3, 2.786705e+2, -377509.88, -411978.75, 73163.5, -0.05821327, 0.67169076, -319578.34, -110481.24, 0.0, 9.999549, 9.999065 
2.8148192e+3, 2.8866982e+2, -364101.84, -343081.25, 18774.898, -0.04619447, 0.71072567, -332074.97, -220969.53, 0.0, 9.998919, 9.999168 
2.8147623e+3, 2.986693e+2, -370127.0, -298766.8, 35471.53, -0.09937681, 0.7603029, -284134.9, -271022.78, 0.0, 9.9982195, 9.999138 
2.8147072e+3, 3.0866808e+2, -252314.66, -181572.97, 76569.86, -0.073010385, 0.7208546, -132599.05, -132599.05, 0.0, 9.998531, 9.99946 
2.8146505e+3, 3.186673e+2, -230353.28, -33023.945, -139243.98, -0.15270074, 0.7114336, 38967.78, 38967.78, 0.0, 9.998085, 10.000695 
2.8257123e+3, 1.2874565e+2, -1357303.9, -1722433.6, 26648.918, -0.02563225, 0.6060935, -1355369.1, 322984.16, 0.0000033256797, 10.003239, 9.998388 
2.8256556e+3, 1.3874424e+2, -1366522.0, -1661132.9, 33561.88, 0.015518614, 0.6403407, -1362747.1, 217622.75, 0.00000050691085, 10.002436, 9.998524 
2.8255984e+3, 1.4874294e+2, -1257170.6, -1507651.1, 52805.715, -0.016626317, 0.64946854, -1246493.4, 235889.48, 0.0000000023756648, 10.002305, 9.998962 
2.8255418e+3, 1.5874173e+2, -1153807.3, -1411587.5, 52444.98, -0.03237607, 0.6492846, -1143545.9, 240848.73, 0.0, 10.002362, 9.998922 
2.8254855e+3, 1.6874044e+2, -1083376.9, -1320148.6, 77944.055, -0.034178987, 0.64183664, -1060021.8, 226385.2, 0.0, 10.002147, 9.99898 
2.8254297e+3, 1.7873915e+2, -1034491.9, -1258856.9, 73962.266, -0.040597554, 0.6355436, -1012304.25, 176114.89, 0.0, 10.001864, 9.998865 
2.825374e+3, 1.8873791e+2, -979318.6, -1183882.5, 95967.37, -0.046302762, 0.6452844, -941346.0, 149085.81, 0.0, 10.001587, 9.998836 
2.8253183e+3, 1.9873671e+2, -912805.44, -1091220.5, 110470.71, -0.048175734, 0.6575351, -860020.8, 132423.42, 0.0, 10.00133, 9.998923 
2.8252628e+3, 2.0873556e+2, -814831.8, -960333.0, 112377.76, -0.037575617, 0.64726716, -753711.5, 140744.16, 0.0, 10.001187, 9.999217 
2.825208e+3, 2.1873444e+2, -744850.25, -892494.5, 100814.02, -0.024621977, 0.6333776, -693719.7, 102746.89, 0.0, 10.001063, 9.999072 
2.8251526e+3, 2.2873342e+2, -694891.1, -826782.0, 106364.336, -0.028076325, 0.64923114, -635687.94, 62789.293, 0.0, 10.000773, 9.998989 
2.825097e+3, 2.3873249e+2, -644960.7, -753021.9, 116069.484, -0.03169472, 0.6735254, -570962.25, 29525.125, 0.0, 10.000447, 9.9989805 
2.8250417e+3, 2.487315e+2, -556782.8, -641432.25, 106589.336, -0.03679038, 0.6843912, -484422.44, 18075.223, 0.0, 10.0003, 9.999145 
2.824986e+3, 2.587305e+2, -481857.84, -560629.1, 107228.414, -0.05022549, 0.6892815, -407010.56, -2502.7314, 0.0, 10.000166, 9.999093 
2.8249305e+3, 2.6872933e+2, -441346.16, -476969.7, 89544.62, -0.06698303, 0.67564636, -367858.97, -61339.2, 0.0, 9.999717, 9.999208 
2.8248748e+3, 2.7872825e+2, -427258.66, -433065.94, 76694.77, -0.057643425, 0.6642175, -353412.6, -144881.34, 0.0, 9.999202, 9.999085 
2.8248185e+3, 2.8872776e+2, -342815.88, -344784.53, 45300.89, -0.028302295, 0.7274847, -298488.63, -187950.72, 0.0, 9.999117, 9.999062 
2.824761e+3, 2.9872733e+2, -243826.92, -235839.28, 96947.266, -0.070080705, 0.7955768, -142803.61, -130259.77, 0.0, 9.999075, 9.99916 
2.8247052e+3, 3.087252e+2, -247743.27, -157622.73, 133352.1, -0.1233297, 0.65424573, -61923.6, -61923.6, 0.0, 9.998471, 9.999652 
2.8246486e+3, 3.187256e+2, -211056.72, -29968.773, -164107.55, -0.12927286, 0.7472018, 66915.9, 66915.9, 0.0, 9.998251, 10.000633 
2.8357154e+3, 1.288034e+2, -1335953.8, -1659133.3, -5516.304, 0.0047755386, 0.6407505, -1335859.6, 341930.28, 0.00000016214108, 10.0031595, 9.998859 
2.8356576e+3, 1.3880219e+2, -1342366.4, -1617030.9, 13951.679, 0.0007756617, 0.65165484, -1341659.5, 238143.5, 0.0000000020979667, 10.002462, 9.998814 
2.8356004e+3, 1.4880104e+2, -1256398.9, -1513533.8, 55847.918, -0.03409392, 0.6687238, -1244792.9, 237021.64, 0.0, 10.002336, 9.998909 
2.835544e+3, 1.5879992e+2, -1157758.3, -1418454.3, 51029.73, -0.042068403, 0.6821137, -1148125.4, 235700.28, 0.0, 10.002355, 9.998879 
2.8354874e+3, 1.6879842e+2, -1089547.9, -1329199.5, 67687.87, -0.033316787, 0.65913635, -1071751.5, 214088.69, 0.0, 10.00213, 9.998926 
2.8354317e+3, 1.787969e+2, -1028833.3, -1242641.5, 63410.51, -0.028532442, 0.63212353, -1011441.9, 176412.72, 0.0, 10.001845, 9.998986 
2.8353754e+3, 1.8879591e+2, -951541.3, -1125870.4, 85762.445, -0.028576361, 0.63545763, -916424.0, 173440.0, 0.0, 10.001585, 9.999236 
2.83532e+3, 1.9879507e+2, -905074.75, -1074325.9, 101813.195, -0.028510218, 0.64672726, -857309.2, 134562.95, 0.0, 10.001326, 9.999042 
2.8352642e+3, 2.0879397e+2, -840407.44, -1013596.6, 108141.76, -0.025916766, 0.66431266, -788462.3, 105421.61, 0.0, 10.001186, 9.998853 
2.8352088e+3, 2.1879283e+2, -753749.2, -909423.7, 94155.945, -0.02460399, 0.68077165, -709422.7, 86473.48, 0.0, 10.001056, 9.99896 
2.835153e+3, 2.2879173e+2, -675635.94, -786013.7, 94029.44, -0.03441341, 0.67203873, -621795.7, 76111.195, 0.0, 10.000769, 9.999272 
2.8350973e+3, 2.3879066e+2, -634984.56, -731231.25, 106534.336, -0.042927276, 0.65927804, -566208.75, 33708.25, 0.0, 10.000442, 9.999133 
2.835042e+3, 2.4878964e+2, -561396.4, -651410.1, 102704.17, -0.030040616, 0.6655584, -494270.44, 7657.126, 0.0, 10.000301, 9.999075 
2.8349864e+3, 2.5878868e+2, -486159.25, -572713.2, 96621.94, -0.023476636, 0.67871165, -423565.1, -19627.236, 0.0, 10.000178, 9.999004 
2.8349298e+3, 2.687876e+2, -451299.94, -498006.34, 68127.695, -0.0562614, 0.6870472, -402634.0, -96684.46, 0.0, 9.999716, 9.999066 
2.8348735e+3, 2.787866e+2, -422569.4, -423112.1, 63877.113, -0.07339016, 0.6944609, -358963.06, -151002.2, 0.0, 9.9992, 9.999155 
2.8348175e+3, 2.887862e+2, -316293.16, -290141.1, 47175.414, -0.017490001, 0.7382988, -254263.03, -144297.48, 0.0, 9.999119, 9.999436 
2.8347602e+3, 2.9878587e+2, -230343.08, -209992.94, 87892.78, -0.024227347, 0.7820213, -131688.22, -119718.96, 0.0, 9.999083, 9.999334 
2.834702e+3, 3.087834e+2, -258835.34, -176007.34, 104111.95, -0.25539076, 0.6078468, -105374.85, -105374.85, 0.0, 9.99845, 9.999537 
2.8346476e+3, 3.187846e+2, -208729.61, -26973.91, -98413.945, -0.044740353, 0.79055285, 16103.785, 16103.785, 0.0, 9.998259, 10.00065 
2.8457183e+3, 1.288615e+2, -1451611.5, -1697654.5, 11063.208, 0.030107584, 0.67585766, -1451115.1, 226107.69, 0.00000000032983427, 10.002287, 9.999018 
2.84566e+3, 1.3886023e+2, -1313583.0, -1585491.6, 11050.216, -0.01750103, 0.66694397, -1313134.6, 266100.84, 0.0, 10.002582, 9.998974 
2.8456026e+3, 1.4885911e+2, -1246498.6, -1495969.9, 58228.273, -0.04463786, 0.67310554, -1233577.0, 247669.36, 0.0, 10.002349, 9.999023 
2.845546e+3, 1.5885805e+2, -1202130.8, -1429700.1, 62555.266, -0.03135027, 0.6814465, -1186068.9, 197187.78, 0.0, 10.002007, 9.998971 
2.8454894e+3, 1.6885677e+2, -1144758.6, -1348377.6, 86149.625, -0.02143291, 0.67328036, -1113200.5, 172068.78, 0.0, 10.001722, 9.998988 
2.845433e+3, 1.7885545e+2, -1077259.4, -1256487.5, 90515.25, -0.022445088, 0.6602902, -1039501.1, 147780.89, 0.0, 10.001477, 9.999064 
2.845377e+3, 1.8885443e+2, -980351.25, -1134706.1, 96178.2, -0.021988109, 0.65448344, -934213.6, 155078.05, 0.0, 10.001367, 9.999281 
2.845321e+3, 1.9885351e+2, -907093.3, -1070135.5, 91651.9, -0.01662055, 0.6544565, -865953.25, 125347.125, 0.0, 10.0012865, 9.999092 
2.8452653e+3, 2.0885247e+2, -849267.1, -1012222.2, 116329.36, -0.01967002, 0.6721219, -788719.6, 104591.89, 0.0, 10.0011015, 9.998903 
2.8452095e+3, 2.1885142e+2, -772990.5, -911467.25, 126881.13, -0.026683738, 0.69213784, -697685.56, 97637.42, 0.0, 10.0008955, 9.9990225 
2.8451538e+3, 2.288504e+2, -676177.0, -779597.94, 116501.95, -0.03690124, 0.68443984, -600425.0, 96907.93, 0.0, 10.000738, 9.99933 
2.8450978e+3, 2.3884937e+2, -612346.94, -714972.06, 116210.79, -0.042087227, 0.6708858, -536624.3, 62718.12, 0.0, 10.000575, 9.99918 
2.8450423e+3, 2.488483e+2, -557578.3, -647959.06, 115271.1, -0.02861274, 0.67107874, -478955.94, 22397.309, 0.0, 10.000321, 9.999089 
2.8449863e+3, 2.5884727e+2, -506920.47, -578294.56, 114237.875, -0.018386327, 0.67804664, -422925.2, -19561.26, 0.0, 10.000021, 9.999041 
2.8449297e+3, 2.6884627e+2, -416316.03, -475333.25, 96516.33, -0.05951932, 0.68904996, -344898.13, -39523.203, 0.0, 9.99993, 9.99912 
2.8448728e+3, 2.7884537e+2, -324630.2, -371452.75, 103533.01, -0.087222904, 0.7011292, -241894.53, -34509.098, 0.0, 9.9998455, 9.999204 
2.8448164e+3, 2.888451e+2, -276277.78, -268440.84, 67957.875, -0.02259901, 0.7531942, -204288.55, -94899.82, 0.0, 9.999382, 9.999459 
2.8447592e+3, 2.988448e+2, -261490.08, -222904.53, 82560.16, -0.019241763, 0.8000433, -157412.92, -146021.27, 0.0, 9.998867, 9.999347 
2.8447008e+3, 3.0884176e+2, -207146.77, -152029.44, 98418.24, -0.25613052, 0.56724894, -77384.23, -77384.23, 0.0, 9.998814, 9.999527 
2.844646e+3, 3.188438e+2, -146329.1, 28986.688, -64785.91, -0.022503484, 0.8314432, 50329.348, 50329.348, 0.0, 9.998574, 10.000884 
2.8557205e+3, 1.2891985e+2, -1459446.4, -1711810.1, 22510.635, 0.032530714, 0.7095357, -1457454.1, 219198.56, 0.0, 10.002283, 9.9989195 
2.8556624e+3, 1.3891837e+2, -1313640.8, -1579648.1, 13353.961, -0.031189466, 0.6847359, -1312972.0, 265695.22, 0.0, 10.002558, 9.999024 
2.8556046e+3, 1.4891723e+2, -1232590.3, -1461994.6, 44179.906, -0.042193715, 0.6682807, -1224376.0, 256301.77, 0.0, 10.002325, 9.9992695 
2.855548e+3, 1.589162e+2, -1190199.0, -1398775.8, 49718.703, -0.0055390853, 0.6580986, -1178953.8, 203733.1, 0.0, 10.001979, 9.999196 
2.8554913e+3, 1.6891545e+2, -1132782.5, -1322376.0, 76052.14, -0.0067522596, 0.6838505, -1106046.0, 178648.64, 0.0, 10.001717, 9.99917 
2.8554344e+3, 1.7891473e+2, -1076207.6, -1255105.1, 83373.164, -0.027469747, 0.71203226, -1043377.3, 143325.11, 0.0, 10.001479, 9.999074 
2.855378e+3, 1.8891342e+2, -1000028.56, -1175692.3, 94041.914, -0.025140135, 0.69831747, -959181.3, 129534.07, 0.0, 10.001365, 9.9990015 
2.855322e+3, 1.9891205e+2, -909315.56, -1071444.1, 87805.83, -0.013445361, 0.6773469, -870875.5, 119853.32, 0.0, 10.001272, 9.999089 
2.855266e+3, 2.0891106e+2, -820601.0, -951526.8, 108901.73, -0.01835243, 0.67091125, -759001.0, 133737.45, 0.0, 10.001097, 9.999322 
2.8552103e+3, 2.1891019e+2, -761088.06, -883303.56, 119484.71, -0.03027719, 0.6703031, -687991.7, 106755.31, 0.0, 10.000879, 9.999224 
2.8551543e+3, 2.2890936e+2, -687770.5, -803548.75, 110908.93, -0.037298854, 0.68853164, -620551.9, 76203.53, 0.0, 10.000737, 9.9991665 
2.8550982e+3, 2.3890856e+2, -614056.75, -721236.0, 108742.37, -0.040612902, 0.7084887, -546416.25, 52347.715, 0.0, 10.000585, 9.999133 
2.8550422e+3, 2.4890748e+2, -549798.4, -631664.5, 103665.62, -0.033580486, 0.70014924, -479277.06, 21497.764, 0.0, 10.0003195, 9.999203 
2.8549862e+3, 2.5890633e+2, -495273.38, -554864.0, 106398.79, -0.033965953, 0.6857989, -414576.78, -11790.82, 0.0, 10.000023, 9.999202 
2.8549293e+3, 2.689054e+2, -399931.4, -442147.8, 95690.33, -0.07758672, 0.6810651, -323048.8, -18252.969, 0.0, 9.999933, 9.999347 
2.8548723e+3, 2.7890462e+2, -321918.84, -368591.25, 93774.35, -0.102118194, 0.68672293, -248620.64, -41816.094, 0.0, 9.999856, 9.999219 
2.8548154e+3, 2.8890443e+2, -302345.53, -321596.63, 46269.906, -0.044817418, 0.77260596, -264710.6, -155903.11, 0.0, 9.999376, 9.999098 
2.8547576e+3, 2.989041e+2, -271955.94, -243760.72, 70943.586, -0.06382317, 0.8467112, -185527.6, -174715.94, 0.0, 9.998863, 9.999206 
2.8547007e+3, 3.0890033e+2, -194956.27, -130510.57, 101569.14, -0.12242305, 0.5351223, -56175.44, -56175.44, 0.0, 9.99883, 9.999668 
2.8546435e+3, 3.1890282e+2, -113992.125, 102997.305, -104150.67, -0.1119892, 0.8232421, 144896.95, 144896.95, 0.0, 9.998548, 10.001405 
2.8657222e+3, 1.2897801e+2, -1444015.4, -1686492.9, 20346.104, 0.006685436, 0.72447187, -1442320.0, 233764.36, 0.0, 10.002306, 9.999085 
2.8656647e+3, 1.3897654e+2, -1403147.0, -1602670.3, 24093.936, -0.008840326, 0.68508714, -1400278.8, 177819.02, 0.0, 10.001855, 9.999206 
2.8656065e+3, 1.4897561e+2, -1324866.3, -1486852.4, 49817.797, -0.023230601, 0.6741184, -1310771.5, 169334.53, 0.0, 10.001609, 9.999441 
2.8655496e+3, 1.5897486e+2, -1257386.6, -1410886.1, 52581.277, -0.0005274689, 0.6708069, -1241102.5, 141010.47, 0.0, 10.001432, 9.999374 
2.8654927e+3, 1.6897416e+2, -1171664.6, -1323153.8, 78577.52, -0.0025324447, 0.6859845, -1138268.6, 145851.19, 0.0, 10.001372, 9.9993305 
2.8654358e+3, 1.7897348e+2, -1087787.3, -1247079.4, 85481.76, -0.018511284, 0.70547986, -1050597.5, 135529.38, 0.0, 10.001339, 9.999198 
2.8653795e+3, 1.8897237e+2, -1017205.94, -1176351.6, 115629.73, -0.01936781, 0.70069146, -956414.7, 131723.52, 0.0, 10.001216, 9.999067 
2.865323e+3, 1.9897115e+2, -933726.25, -1075110.9, 129263.586, -0.014516777, 0.6893312, -857087.4, 133062.98, 0.0, 10.001073, 9.999158 
2.865267e+3, 2.089702e+2, -847966.6, -960031.56, 130144.35, -0.018061975, 0.68187064, -762305.1, 129854.71, 0.0, 10.000892, 9.999361 
2.865211e+3, 2.1896935e+2, -781176.4, -883907.56, 118499.48, -0.022968821, 0.6792817, -703388.75, 90779.516, 0.0, 10.000703, 9.999304 
2.8651547e+3, 2.2896864e+2, -715227.8, -803950.7, 121875.7, -0.029220995, 0.69671607, -629891.06, 66284.586, 0.0, 10.000493, 9.999281 
2.8650987e+3, 2.3896793e+2, -651603.44, -727510.5, 138064.05, -0.031925477, 0.717652, -546371.25, 51811.64, 0.0, 10.000279, 9.999236 
2.865042e+3, 2.4896692e+2, -568259.94, -634114.94, 131576.11, -0.035136458, 0.7100435, -465553.78, 34639.227, 0.0, 10.000167, 9.999259 
2.8649858e+3, 2.5896585e+2, -488822.9, -545220.2, 129791.19, -0.046280492, 0.6956918, -384202.44, 18001.21, 0.0, 10.000037, 9.999261 
2.8649288e+3, 2.6896498e+2, -421335.84, -445778.75, 108040.12, -0.07685702, 0.6904263, -324828.13, -20615.33, 0.0, 9.999758, 9.999406 
2.8648722e+3, 2.789642e+2, -383546.28, -398521.88, 95514.84, -0.08326411, 0.69552684, -295226.2, -89005.336, 0.0, 9.999441, 9.999209 
2.8648144e+3, 2.8896376e+2, -265664.16, -318607.4, 64819.188, -0.061409872, 0.76795614, -222119.55, -113893.61, 0.0, 9.999695, 9.998964 
2.8647563e+3, 2.989632e+2, -121148.74, -187738.78, 93853.48, -0.10774603, 0.82928807, -54859.457, -44626.676, 0.0, 9.9999695, 9.999061 
2.8647e+3, 3.0895966e+2, -221863.06, -173526.67, 88929.92, -0.052011352, 0.5626192, -105539.39, -105539.39, 0.0, 9.998776, 9.999399 
2.8646415e+3, 3.1896132e+2, -96722.61, 124052.74, -59671.465, -0.15638275, 0.78685063, 139148.63, 139148.63, 0.0, 9.99862, 10.00151 
2.8757238e+3, 1.2903607e+2, -1419500.0, -1628427.0, 2879.6536, -0.034533497, 0.7288745, -1419460.4, 256056.31, 0.0, 10.002279, 9.999494 
2.8756666e+3, 1.3903481e+2, -1387593.5, -1562487.6, 11361.842, 0.03245295, 0.6708299, -1386858.5, 190668.25, 0.0, 10.0018215, 9.999496 
2.8756085e+3, 1.490343e+2, -1318737.3, -1472662.5, 42846.633, -0.0004452122, 0.68463796, -1307614.1, 171917.19, 0.0, 10.001601, 9.999542 
2.8755507e+3, 1.5903391e+2, -1248790.9, -1394658.9, 48084.504, -0.016622651, 0.7090138, -1234366.5, 147168.86, 0.0, 10.001439, 9.999483 
2.8754938e+3, 1.6903292e+2, -1163882.5, -1306532.3, 77901.945, -0.0042391284, 0.6824438, -1129585.6, 153958.89, 0.0, 10.0013685, 9.999447 
2.875437e+3, 1.7903188e+2, -1075332.6, -1216070.0, 82644.59, 0.004318613, 0.6522388, -1037156.94, 148397.23, 0.0, 10.001317, 9.999421 
2.8753805e+3, 1.8903127e+2, -992308.8, -1122227.6, 110060.06, -0.00800015, 0.6672128, -929467.8, 158092.17, 0.0, 10.0012045, 9.999444 
2.875324e+3, 1.9903074e+2, -928590.94, -1060718.6, 122651.84, -0.02316426, 0.69013816, -855342.5, 134223.05, 0.0, 10.001056, 9.999266 
2.875268e+3, 2.0902982e+2, -870391.75, -1005427.5, 123257.89, -0.020345386, 0.70438135, -797370.75, 94205.25, 0.0, 10.000884, 9.999055 
2.8752115e+3, 2.1902886e+2, -784773.2, -888066.7, 111474.484, -0.014263153, 0.7148293, -713562.5, 80024.52, 0.0, 10.000689, 9.999283 
2.8751552e+3, 2.2902815e+2, -688733.4, -748068.1, 114065.77, -0.01280161, 0.70721066, -600540.06, 95053.555, 0.0, 10.00049, 9.999666 
2.875099e+3, 2.390275e+2, -634811.06, -693208.3, 132085.3, -0.013057546, 0.6972825, -528735.56, 68863.766, 0.0, 10.000281, 9.999472 
2.8750423e+3, 2.4902667e+2, -569522.9, -638202.25, 127717.55, -0.0354458, 0.7021056, -471609.1, 27998.684, 0.0, 10.000172, 9.999229 
2.8749856e+3, 2.590258e+2, -490052.2, -551235.1, 122135.12, -0.06633804, 0.71148795, -394735.7, 6881.106, 0.0, 10.000051, 9.999213 
2.8749287e+3, 2.6902497e+2, -429123.56, -460722.8, 94294.44, -0.057688985, 0.71833634, -349314.25, -45688.5, 0.0, 9.999753, 9.999306 
2.8748718e+3, 2.7902415e+2, -383701.6, -400543.53, 91571.61, -0.032826398, 0.72437555, -300164.56, -94529.99, 0.0, 9.999446, 9.999194 
2.874814e+3, 2.8902316e+2, -255926.83, -302416.03, 82690.86, -0.077803314, 0.73560417, -193275.63, -85631.35, 0.0, 9.999709, 9.99907 
2.8747556e+3, 2.9902214e+2, -128970.36, -208128.34, 78904.75, -0.15583822, 0.74614257, -80274.46, -70619.734, 0.0, 9.99999, 9.99891 
2.8746986e+3, 3.0901998e+2, -278861.47, -281051.53, 30481.607, -0.034878917, 0.67022884, -249455.22, -249455.22, 0.0, 9.998737, 9.998676 
2.8746405e+3, 3.1901947e+2, -121243.47, 60956.152, 138161.33, -0.12327228, 0.7420742, 135348.72, 135348.72, 0.0, 9.99866, 10.001064 
2.8857258e+3, 1.2909459e+2, -1474686.5, -1626045.5, 16219.771, -0.027962342, 0.73086935, -1472967.9, 201976.25, 0.0, 10.001769, 9.999759 
2.885668e+3, 1.3909364e+2, -1454175.8, -1573130.6, 23363.188, 0.03690473, 0.679746, -1449751.8, 127198.87, 0.0, 10.001271, 9.999687 
2.8856096e+3, 1.490932e+2, -1368810.6, -1492241.6, 59935.73, 0.00043203044, 0.69166565, -1344496.5, 134458.23, 0.0, 10.00124, 9.99958 
2.885552e+3, 1.5909281e+2, -1262838.3, -1391257.1, 59575.773, -0.017967435, 0.71352714, -1239457.0, 141501.86, 0.0, 10.001299, 9.999574 
2.8854948e+3, 1.6909198e+2, -1187842.4, -1300299.4, 88706.414, 0.0026373088, 0.68699956, -1139044.9, 143921.58, 0.0, 10.001128, 9.999605 
2.8854382e+3, 1.7909107e+2, -1123550.1, -1220790.3, 95996.26, 0.018247034, 0.65393066, -1064563.5, 120410.82, 0.0, 10.000907, 9.999584 
2.8853813e+3, 1.8909062e+2, -1045047.94, -1128869.4, 110955.33, 0.00032640927, 0.6677817, -968351.75, 118626.79, 0.0, 10.000764, 9.99961 
2.8853247e+3, 1.9909027e+2, -978108.44, -1067873.0, 111861.016, -0.018369216, 0.69301987, -902461.44, 86520.84, 0.0, 10.000643, 9.999416 
2.8852683e+3, 2.0908947e+2, -916999.75, -1013368.6, 133889.45, -0.017793149, 0.7057243, -822888.25, 68103.32, 0.0, 10.000501, 9.999186 
2.885212e+3, 2.1908861e+2, -823193.56, -895273.2, 150594.34, -0.014212389, 0.71501553, -704386.56, 88615.05, 0.0, 10.000377, 9.999383 
2.8851554e+3, 2.29088e+2, -695553.44, -745443.06, 139968.16, -0.017733535, 0.71014786, -578324.6, 116683.03, 0.0, 10.000419, 9.999719 
2.885099e+3, 2.3908743e+2, -600139.25, -662389.9, 135469.1, -0.01997926, 0.7036638, -492265.78, 104747.04, 0.0, 10.000458, 9.999598 
2.8850424e+3, 2.4908683e+2, -552008.44, -606982.06, 136334.17, -0.030776877, 0.71116614, -440417.8, 58601.18, 0.0, 10.0001955, 9.999431 
2.8849855e+3, 2.590862e+2, -506111.47, -546661.44, 149799.75, -0.045288097, 0.72409356, -375220.84, 25804.77, 0.0, 9.999895, 9.999315 
2.8849286e+3, 2.6908526e+2, -408553.97, -462058.97, 124799.586, -0.05518054, 0.7269657, -307671.7, -4636.156, 0.0, 9.999948, 9.999199 
2.884871e+3, 2.7908427e+2, -319304.6, -365759.53, 119439.61, -0.050809972, 0.7261641, -220854.88, -15808.698, 0.0, 9.999873, 9.999226 
2.8848135e+3, 2.8908342e+2, -287702.47, -312913.97, 125192.914, -0.05676735, 0.7432083, -174482.25, -67427.98, 0.0, 9.999475, 9.999108 
2.8847557e+3, 2.990825e+2, -235470.16, -283105.97, 109583.805, -0.097517245, 0.76443905, -147145.73, -138082.13, 0.0, 9.999367, 9.998694 
2.8846973e+3, 3.090797e+2, -104097.94, -274490.6, 48656.613, -0.11032307, 0.67858136, -91182.69, -91182.69, 0.0, 10.000283, 9.997983 
2.8846395e+3, 3.1907886e+2, 5754.149, 114127.65, 148847.2, -0.077486016, 0.77775145, 218344.48, 218344.48, 0.0, 9.999564, 10.001008 
2.8957278e+3, 1.2915348e+2, -1472444.8, -1607088.5, -3474.1914, 0.008585849, 0.72790784, -1472355.1, 202012.69, 0.0, 10.001715, 9.999911 
2.895669e+3, 1.3915299e+2, -1446216.9, -1559152.3, 13377.434, 0.0105274245, 0.70906544, -1444653.9, 131715.88, 0.0, 10.001284, 9.999777 
2.8956106e+3, 1.4915234e+2, -1369109.0, -1496079.3, 62917.176, -0.013663492, 0.69909143, -1343213.4, 135162.69, 0.0, 10.001252, 9.99955 
2.895553e+3, 1.5915169e+2, -1259269.9, -1381207.1, 58415.3, -0.0054593873, 0.693702, -1235802.0, 144580.69, 0.0, 10.0012865, 9.999649 
2.8954962e+3, 1.6915129e+2, -1173993.4, -1271118.4, 80277.9, 0.012672095, 0.6953241, -1128732.3, 153653.55, 0.0, 10.001125, 9.999807 
2.895439e+3, 1.7915091e+2, -1116361.0, -1206434.9, 88866.984, 0.018300502, 0.6975828, -1061770.4, 122618.266, 0.0, 10.000909, 9.999682 
2.895382e+3, 1.8915033e+2, -1046680.94, -1133248.3, 106598.4, 0.00582477, 0.6972942, -974913.75, 111480.46, 0.0, 10.000765, 9.99958 
2.895325e+3, 1.9914974e+2, -966468.8, -1040481.75, 106948.766, -0.0046905107, 0.69689715, -890305.0, 98095.23, 0.0, 10.000628, 9.999611 
2.8952688e+3, 2.0914915e+2, -879822.7, -936123.2, 128156.25, -0.011093455, 0.68753153, -776761.44, 113644.93, 0.0, 10.000501, 9.999716 
2.8952122e+3, 2.1914858e+2, -810145.25, -867485.8, 147912.92, -0.022589684, 0.6804934, -688149.6, 104262.76, 0.0, 10.000373, 9.999577 
2.8951555e+3, 2.2914815e+2, -714533.2, -784747.1, 142942.77, -0.04618304, 0.70775443, -602449.3, 91968.64, 0.0, 10.000417, 9.99945 
2.895099e+3, 2.3914777e+2, -598619.94, -659110.2, 131233.64, -0.06286621, 0.7375344, -494191.25, 102231.984, 0.0, 10.000457, 9.99962 
2.8950426e+3, 2.4914736e+2, -522435.75, -544157.7, 123331.016, -0.019865748, 0.7359239, -409488.38, 88938.38, 0.0, 10.000191, 9.999865 
2.894986e+3, 2.591469e+2, -487228.5, -510230.22, 146310.97, 0.015729427, 0.72988564, -351967.1, 48463.445, 0.0, 9.999907, 9.99956 
2.894928e+3, 2.6914585e+2, -416185.3, -479849.97, 126417.96, -0.073688954, 0.71579665, -317653.56, -15211.396, 0.0, 9.999953, 9.999074 
2.8948697e+3, 2.7914464e+2, -311447.8, -353959.44, 104717.08, -0.14497453, 0.70206004, -225851.05, -21395.803, 0.0, 9.999889, 9.999299 
2.8948134e+3, 2.8914464e+2, -293490.28, -316922.97, 116804.55, 0.00863335, 0.7930909, -187815.94, -81360.414, 0.0, 9.999448, 9.999088 
2.8947565e+3, 2.991443e+2, -258706.75, -323759.9, 125390.21, 0.071604356, 0.882223, -161693.05, -153233.92, 0.0, 9.999337, 9.998427 
2.8946954e+3, 3.091382e+2, -148844.75, -375948.38, 91041.58, -0.31421342, 0.523626, -116854.19, -116854.19, 0.0, 10.000326, 9.997267 
2.89464e+3, 3.1913936e+2, 27562.305, 168247.69, -127498.61, 0.009195328, 0.88017297, 243520.89, 243520.89, 0.0, 9.999527, 10.001401 
2.905729e+3, 1.2921278e+2, -1585289.5, -1670296.0, 17173.973, 0.021922996, 0.7344353, -1581950.9, 91835.836, 0.0, 10.000971, 9.99984 
2.9056698e+3, 1.3921233e+2, -1444548.4, -1561612.6, 21041.371, -0.0066060894, 0.72383493, -1440881.3, 134908.22, 0.0, 10.001307, 9.99975 
2.9056117e+3, 1.4921165e+2, -1379412.6, -1498866.5, 67652.58, -0.011584451, 0.70974886, -1348894.4, 128901.47, 0.0, 10.001171, 9.999569 
2.9055545e+3, 1.5921094e+2, -1305933.0, -1396506.4, 65416.33, 0.021889778, 0.696753, -1271657.3, 108145.54, 0.0, 10.000935, 9.999713 
2.905497e+3, 1.6921073e+2, -1197286.1, -1266367.0, 83806.06, 0.024905536, 0.7060329, -1141181.8, 140622.25, 0.0, 10.000897, 9.999949 
2.9054397e+3, 1.7921059e+2, -1113729.8, -1195188.5, 87954.16, 0.011688588, 0.7182622, -1057532.3, 126272.164, 0.0, 10.000882, 9.999774 
2.9053825e+3, 1.8920991e+2, -1058875.9, -1137477.6, 105116.81, 0.0024226808, 0.70496327, -985953.3, 99857.53, 0.0, 10.000672, 9.999597 
2.9053256e+3, 1.9920918e+2, -988085.06, -1042170.7, 109151.99, -0.0019447407, 0.6881379, -902675.8, 85142.26, 0.0, 10.00044, 9.999691 
2.905269e+3, 2.0920882e+2, -878700.25, -914961.0, 113245.14, -0.008934645, 0.6856132, -782143.4, 107678.734, 0.0, 10.000419, 9.999901 
2.9052123e+3, 2.1920854e+2, -790485.4, -838195.9, 112939.586, -0.020647652, 0.69023734, -698909.2, 92915.945, 0.0, 10.000421, 9.999755 
2.9051557e+3, 2.2920829e+2, -737428.3, -774245.94, 128965.19, -0.04623131, 0.7159502, -625564.7, 68264.36, 0.0, 10.000166, 9.999643 
2.9050988e+3, 2.3920806e+2, -671285.2, -680338.56, 147678.03, -0.061777808, 0.74359983, -528064.5, 67768.41, 0.0, 9.999901, 9.9997425 
2.9050425e+3, 2.4920775e+2, -523528.28, -533924.9, 124965.43, -0.023621887, 0.74319994, -403653.1, 94182.7, 0.0, 10.000137, 9.999961 
2.9049858e+3, 2.5920746e+2, -408509.34, -442225.22, 123215.86, 0.0063245613, 0.7385805, -301003.53, 98834.8, 0.0, 10.000318, 9.999828 
2.9049277e+3, 2.6920682e+2, -423398.4, -421947.1, 126608.06, -0.070983894, 0.7239832, -296062.63, 5782.4336, 0.0, 9.999639, 9.999621 
2.9048693e+3, 2.7920616e+2, -407578.78, -356062.34, 160251.25, -0.11963878, 0.7111863, -219512.36, -15659.763, 0.0, 9.99905, 9.999683 
2.9048124e+3, 2.8920648e+2, -324403.8, -274162.66, 172855.84, -0.008259899, 0.79913646, -124611.58, -18761.385, 0.0, 9.998991, 9.999602 
2.91573e+3, 1.2927246e+2, -1603149.0, -1702898.6, 29268.373, 0.015822498, 0.7514712, -1595195.3, 78006.555, 0.0, 10.0009575, 9.9996195 
2.915671e+3, 1.3927166e+2, -1454743.4, -1578030.8, 26415.615, -0.01883048, 0.72706515, -1449322.0, 125887.33, 0.0, 10.001288, 9.999646 
2.9156128e+3, 1.4927106e+2, -1376491.1, -1492019.0, 57824.41, 0.00039760253, 0.7205445, -1352521.8, 124692.99, 0.0, 10.001166, 9.999619 
2.9155555e+3, 1.592705e+2, -1301774.8, -1388366.1, 60234.477, 0.05730071, 0.71701956, -1270890.1, 108329.6, 0.0, 10.0009365, 9.999768 
2.9154977e+3, 1.692703e+2, -1190783.5, -1253778.3, 84294.95, 0.039614856, 0.7200778, -1132293.5, 148927.16, 0.0, 10.000899, 10.000035 
2.9154402e+3, 1.7927016e+2, -1110308.8, -1185461.3, 83654.36, -0.0009243756, 0.7217848, -1056178.9, 127042.41, 0.0, 10.000872, 9.9998455 
2.9153827e+3, 1.8926938e+2, -1054805.9, -1129290.8, 94994.42, -0.010556227, 0.69311863, -990014.25, 95214.08, 0.0, 10.000673, 9.999653 
2.915326e+3, 1.9926858e+2, -990035.56, -1046726.1, 103829.07, -0.01170542, 0.6657426, -910752.2, 76483.85, 0.0, 10.000442, 9.99966 
2.9152694e+3, 2.0926847e+2, -887472.8, -933694.56, 114492.41, -0.012953793, 0.6996111, -793782.06, 95456.54, 0.0, 10.00042, 9.999772 
2.9152125e+3, 2.1926852e+2, -780379.3, -813672.4, 108863.65, -0.016008511, 0.74056596, -686896.8, 104342.83, 0.0, 10.000405, 9.999931 
2.915156e+3, 2.292684e+2, -693214.0, -682049.56, 117020.22, -0.017985469, 0.732979, -570478.5, 122762.35, 0.0, 10.000164, 10.000278 
2.9150993e+3, 2.3926829e+2, -655874.5, -650530.5, 146032.58, -0.02046221, 0.7204559, -507145.47, 88096.46, 0.0, 9.999911, 9.999942 
2.9150423e+3, 2.4926801e+2, -541029.8, -569034.2, 137680.63, -0.047436707, 0.7350325, -416641.2, 80604.69, 0.0, 10.0001335, 9.99972 
2.914985e+3, 2.5926784e+2, -386740.1, -401905.47, 113153.516, -0.08289893, 0.7520774, -280915.47, 118333.52, 0.0, 10.000335, 10.000099 
2.9149276e+3, 2.692682e+2, -338737.28, -248143.02, 93223.73, -0.046499897, 0.7523287, -189794.14, 111450.39, 0.0, 9.999642, 10.000816 
2.9148695e+3, 2.7926874e+2, -365665.25, -264986.7, 166710.67, 0.013192479, 0.7547924, -141180.94, 62057.7, 0.0, 9.999042, 10.000313 
2.9148102e+3, 2.8926888e+2, -255191.27, -131396.88, 141036.08, -0.11944913, 0.75884336, -39273.168, 65965.79, 0.0, 9.999012, 10.000569 
2.9257303e+3, 1.2933171e+2, -1632560.9, -1712384.4, 17850.152, 0.021531569, 0.7615527, -1628751.0, 43870.18, 0.0, 10.000735, 9.9996605 
2.9256722e+3, 1.3933091e+2, -1510240.9, -1597278.3, 23487.871, 0.008375324, 0.73198587, -1504307.0, 70322.26, 0.0, 10.000872, 9.999716 
2.9256138e+3, 1.4933038e+2, -1408382.1, -1493203.3, 51791.086, 0.009652508, 0.7220182, -1383852.6, 92781.09, 0.0, 10.000887, 9.999746 
2.925556e+3, 1.5932992e+2, -1312290.8, -1390218.4, 59343.56, 0.04614664, 0.7183844, -1280262.8, 98374.625, 0.0, 10.000847, 9.999801 
2.9254985e+3, 1.6932969e+2, -1222270.1, -1279090.5, 74373.766, 0.03362131, 0.7221433, -1171065.0, 109574.234, 0.0, 10.000723, 9.999948 
2.925441e+3, 1.7932947e+2, -1152504.0, -1205247.4, 63419.29, 0.0023941537, 0.72466946, -1110191.9, 72449.06, 0.0, 10.000573, 9.999855 
2.9253834e+3, 1.893288e+2, -1057284.0, -1111464.1, 78584.01, -0.008070205, 0.69559413, -1001251.75, 83394.96, 0.0, 10.000572, 9.999825 
2.9253262e+3, 1.9932818e+2, -960680.94, -1017993.0, 96428.3, -0.01148, 0.66836756, -888740.8, 97911.61, 0.0, 10.000579, 9.999791 
2.9252693e+3, 2.0932822e+2, -893771.5, -927852.4, 119168.77, -0.017355282, 0.70826256, -790431.0, 98222.67, 0.0, 10.000337, 9.999853 
2.9252127e+3, 2.1932842e+2, -823803.1, -825946.5, 125095.625, -0.021579176, 0.7563466, -699774.6, 90878.91, 0.0, 10.000069, 10.00001 
2.9251558e+3, 2.2932833e+2, -705071.44, -674994.2, 103209.234, -0.017020136, 0.7424567, -585733.7, 106920.71, 0.0, 10.000027, 10.000394 
2.9250988e+3, 2.3932828e+2, -629914.2, -619655.5, 105583.56, -0.014674097, 0.7210963, -519076.78, 75578.17, 0.0, 10.000006, 10.000111 
2.925042e+3, 2.4932821e+2, -570163.5, -546701.1, 128816.98, -0.05437971, 0.7315568, -429082.28, 67574.18, 0.0, 9.999772, 10.00005 
2.9249847e+3, 2.5932834e+2, -497674.25, -432302.72, 130282.83, -0.09862732, 0.7498929, -330668.06, 67988.29, 0.0, 9.999466, 10.000314 
2.924927e+3, 2.6932907e+2, -345155.4, -223128.0, 50310.527, -0.04370648, 0.76456183, -205060.6, 95588.375, 0.0, 9.999473, 10.001072 
2.9248688e+3, 2.7932996e+2, -273754.53, -182656.47, 81193.84, 0.036404036, 0.7704067, -135107.94, 67532.195, 0.0, 9.99949, 10.000676 
2.924809e+3, 2.8933018e+2, -134594.66, -15942.209, 24587.14, -0.15046367, 0.7326497, -11049.057, 93589.73, 0.0, 9.999578, 10.001103 
2.935731e+3, 1.2939061e+2, -1617335.8, -1678074.0, 23124.105, 0.034716178, 0.76318717, -1609534.1, 62510.06, 0.0, 10.00073, 9.999897 
2.9356733e+3, 1.3939005e+2, -1497591.1, -1568238.4, 26952.775, 0.06430314, 0.7360766, -1488482.6, 85566.945, 0.0, 10.000862, 9.999919 
2.9356146e+3, 1.4938961e+2, -1396548.9, -1467385.3, 49799.47, 0.015195037, 0.71445215, -1370857.0, 105195.83, 0.0, 10.00088, 9.9999275 
2.9355565e+3, 1.5938921e+2, -1314828.9, -1392036.1, 55746.426, -0.0045000864, 0.7033219, -1285624.6, 92431.055, 0.0, 10.000833, 9.999795 
2.9354987e+3, 1.6938886e+2, -1240213.5, -1314806.1, 68047.414, 0.008971329, 0.7120417, -1199911.8, 80147.96, 0.0, 10.000717, 9.999706 
2.9354414e+3, 1.7938854e+2, -1154899.0, -1209803.9, 60407.813, 0.017891487, 0.72589743, -1115998.3, 66065.05, 0.0, 10.000571, 9.9998255 
2.935384e+3, 1.8938823e+2, -1038531.0, -1072158.3, 79893.266, 0.0063366937, 0.7110342, -973701.3, 110364.42, 0.0, 10.000568, 10.000097 
2.9353267e+3, 1.9938795e+2, -944497.2, -979373.1, 92127.766, -0.0080888765, 0.6916346, -868171.56, 117896.04, 0.0, 10.000558, 10.000067 
2.9352695e+3, 2.0938805e+2, -875293.2, -887569.6, 107314.336, -0.021894922, 0.71029365, -773941.6, 114125.91, 0.0, 10.000328, 10.0001335 
2.9352123e+3, 2.1938825e+2, -826105.9, -829780.0, 118581.73, -0.03703083, 0.7377004, -709347.0, 80719.88, 0.0, 10.000065, 9.999985 
2.9351556e+3, 2.2938812e+2, -733191.94, -730799.3, 102984.414, -0.04565579, 0.74738294, -629004.25, 63065.188, 0.0, 10.000016, 10.000014 
2.9350984e+3, 2.39388e+2, -619521.5, -598973.2, 101563.98, -0.04791063, 0.7470319, -507165.03, 86906.766, 0.0, 10.000008, 10.000254 
2.9350418e+3, 2.4938835e+2, -506542.44, -418033.16, 117859.5, -0.042492483, 0.7327127, -336393.66, 159673.97, 0.0, 9.9997835, 10.000931 
2.9349843e+3, 2.59389e+2, -482195.94, -405052.63, 123315.57, -0.049319692, 0.73301053, -314417.06, 83643.28, 0.0, 9.999488, 10.000488 
2.934926e+3, 2.6938942e+2, -394954.38, -327730.2, 52578.727, -0.07065965, 0.7621805, -298938.0, 1120.2023, 0.0, 9.999481, 10.000345 
2.934867e+3, 2.7938962e+2, -255525.44, -169680.03, 72175.06, -0.070503615, 0.7561069, -128628.93, 73429.64, 0.0, 9.999585, 10.000725 
2.9348087e+3, 2.8939074e+2, -93702.43, 59357.586, 38472.5, -0.107638046, 0.7657081, 68483.73, 172529.02, 0.0, 9.999614, 10.001606 
2.945732e+3, 1.2944905e+2, -1627658.0, -1676489.6, 14407.961, 0.03848248, 0.73137534, -1623723.8, 47747.836, 0.0, 10.000621, 9.999967 
2.9456738e+3, 1.3944891e+2, -1522131.6, -1565163.1, 11508.643, 0.06203609, 0.73739, -1519247.0, 54226.016, 0.0, 10.0006275, 10.000054 
2.945615e+3, 1.4944872e+2, -1431743.0, -1470965.9, 24404.701, 0.013519234, 0.72742534, -1420046.4, 55427.69, 0.0, 10.000579, 10.00005 
2.945557e+3, 1.594484e+2, -1362065.0, -1409990.0, 28398.684, -0.0064423624, 0.7142347, -1348870.0, 28606.256, 0.0, 10.000485, 9.999841 
2.945499e+3, 1.69448e+2, -1268206.9, -1325371.4, 53986.97, 0.0074927593, 0.7172733, -1235702.9, 43777.723, 0.0, 10.000509, 9.999736 
2.9454416e+3, 1.7944767e+2, -1165935.6, -1208260.1, 60498.953, 0.014943378, 0.723536, -1123004.5, 58480.164, 0.0, 10.000464, 9.999889 
2.945384e+3, 1.894476e+2, -1079402.5, -1081035.5, 72336.36, 0.003076569, 0.7257626, -1007878.06, 75606.805, 0.0, 10.0002365, 10.000199 
2.945327e+3, 1.9944765e+2, -1014352.6, -1001830.5, 74435.07, -0.0072061736, 0.72652507, -933393.6, 52090.277, 0.0, 10.000021, 10.0001745 
2.9452696e+3, 2.0944764e+2, -910616.1, -895919.06, 75792.71, -0.016414113, 0.7251325, -827119.5, 60365.348, 0.0, 10.000042, 10.000217 
2.9452124e+3, 2.1944769e+2, -813006.4, -819584.9, 78897.59, -0.030290348, 0.73201865, -737329.5, 52155.777, 0.0, 10.000131, 10.000028 
2.9451552e+3, 2.294478e+2, -723417.0, -723595.2, 85015.836, -0.04694663, 0.76126033, -638490.25, 52995.48, 0.0, 10.000065, 10.000044 
2.9450983e+3, 2.3944789e+2, -630778.56, -596213.9, 104491.48, -0.054037347, 0.7785008, -507585.2, 85900.95, 0.0, 9.999891, 10.000329 
2.9450414e+3, 2.494482e+2, -511175.63, -402324.6, 77650.836, -0.043199193, 0.7451911, -361925.06, 133557.06, 0.0, 9.999671, 10.001095 
2.9449838e+3, 2.5944892e+2, -470700.47, -384533.63, 46567.133, -0.043886233, 0.73247236, -364176.7, 33297.383, 0.0, 9.999503, 10.000624 
2.9449254e+3, 2.6944956e+2, -354850.1, -314071.22, 26885.46, -0.07670356, 0.78128153, -300718.16, -1248.1875, 0.0, 9.999773, 10.000306 
2.9448667e+3, 2.7944946e+2, -200432.38, -161578.56, 73774.445, -0.09361064, 0.76198405, -104716.06, 96757.27, 0.0, 10.000045, 10.000553 
2.9448086e+3, 2.8945076e+2, -57383.656, 68676.414, -9951.945, -0.088378266, 0.8104465, 69457.25, 172915.27, 0.0, 9.999888, 10.00153 
2.955732e+3, 1.2950717e+2, -1636726.3, -1681751.9, 13368.589, 0.028335543, 0.6850415, -1633056.1, 37845.773, 0.0, 10.000568, 9.999953 
2.955674e+3, 1.3950764e+2, -1519148.9, -1555430.4, 13296.199, 0.012837893, 0.7474128, -1514798.0, 58100.156, 0.0, 10.000615, 10.000126 
2.9556155e+3, 1.4950778e+2, -1427762.6, -1462112.4, 20368.666, 0.0070992624, 0.76445615, -1418294.3, 56601.957, 0.0, 10.000576, 10.000112 
2.9555577e+3, 1.5950753e+2, -1356308.1, -1396109.8, 27655.648, 0.031088205, 0.7526302, -1342137.3, 34760.85, 0.0, 10.000477, 9.999941 
2.9555e+3, 1.6950715e+2, -1250847.6, -1287371.1, 54832.727, 0.022653751, 0.7355326, -1211315.6, 67586.16, 0.0, 10.0005, 10.000002 
2.9554418e+3, 1.7950678e+2, -1160517.6, -1192460.1, 53278.29, -0.007948459, 0.7155634, -1120868.3, 60037.332, 0.0, 10.000445, 10.000007 
2.955384e+3, 1.8950693e+2, -1083625.9, -1087881.6, 62494.26, -0.014699119, 0.73968965, -1023223.25, 59680.926, 0.0, 10.000228, 10.000155 
2.9553267e+3, 1.995073e+2, -1017261.7, -1007690.25, 70674.64, -0.005936043, 0.77492213, -941639.5, 43261.46, 0.0, 10.00002, 10.000135 
2.9552695e+3, 2.0950702e+2, -917905.6, -911755.9, 77912.586, -0.004017958, 0.7558034, -836857.5, 50047.38, 0.0, 10.000044, 10.000109 
2.9552126e+3, 2.1950679e+2, -807070.56, -804261.7, 80140.44, -0.010740025, 0.73951703, -725513.4, 63395.047, 0.0, 10.000117, 10.000139 
2.9551554e+3, 2.2950737e+2, -694786.44, -662485.5, 79850.45, -0.02207137, 0.7832783, -597168.6, 93734.62, 0.0, 10.000058, 10.000466 
2.9550982e+3, 2.3950794e+2, -627575.25, -591992.3, 95674.75, -0.03533095, 0.8153957, -512468.84, 80429.19, 0.0, 9.999901, 10.000354 
2.9550406e+3, 2.4950777e+2, -546997.06, -476938.06, 68506.4, -0.060894877, 0.7699255, -435024.78, 59875.11, 0.0, 9.99967, 10.000583 
2.9549825e+3, 2.5950804e+2, -460828.66, -366977.3, 47742.523, -0.08707294, 0.7516919, -346959.97, 49937.254, 0.0, 9.999515, 10.000739 
2.954925e+3, 2.6950952e+2, -301153.25, -208919.13, 46997.35, -0.062155258, 0.8237833, -189191.4, 109692.02, 0.0, 9.9998, 10.001016 
2.9548672e+3, 2.795097e+2, -220345.6, -218533.5, 70850.16, -0.045186963, 0.7927316, -148583.6, 52298.785, 0.0, 10.000103, 10.000137 
2.954808e+3, 2.8950915e+2, -116215.68, -63530.883, -11716.669, -0.13612716, 0.7656767, -61042.703, 41845.168, 0.0, 9.9999275, 10.000605 
2.9657325e+3, 1.2956609e+2, -1670307.5, -1676414.6, 9862.251, 0.044446852, 0.7242845, -1663036.9, 7288.7275, 0.0, 10.000245, 10.000144 
2.965674e+3, 1.3956633e+2, -1530873.1, -1559517.9, 16218.35, 0.009279381, 0.75496626, -1523558.4, 48764.57, 0.0, 10.000524, 10.000146 
2.9656157e+3, 1.4956638e+2, -1436746.4, -1463306.4, 9295.739, -0.007895663, 0.7610132, -1433816.3, 40506.227, 0.0, 10.0005, 10.000141 
2.9655576e+3, 1.5956636e+2, -1371643.8, -1390441.6, 21815.887, 0.016273908, 0.7642364, -1357288.3, 19034.447, 0.0, 10.000312, 10.000061 
2.9654995e+3, 1.6956599e+2, -1297669.4, -1302451.1, 40967.55, 0.00087368226, 0.740126, -1259023.0, 19303.188, 0.0, 10.000141, 10.000073 
2.9654416e+3, 1.795657e+2, -1222380.6, -1213644.8, 29169.918, -0.027680106, 0.7206252, -1188517.5, -8188.5557, 0.0, 9.999976, 10.000092 
2.965384e+3, 1.895659e+2, -1092149.6, -1084759.6, 46047.164, -0.020169938, 0.7410034, -1042259.5, 40067.645, 0.0, 10.000135, 10.000223 
2.9653266e+3, 1.9956614e+2, -979684.2, -999982.3, 54654.74, -0.006895112, 0.76351696, -934244.2, 50080.94, 0.0, 10.000322, 10.000043 
2.9652694e+3, 2.0956597e+2, -899628.1, -915940.56, 59316.977, -0.011511714, 0.765147, -847909.25, 38419.047, 0.0, 10.000223, 9.999994 
2.9652125e+3, 2.1956585e+2, -805613.56, -804811.25, 63699.313, -0.01660662, 0.7703547, -741511.8, 46818.887, 0.0, 10.00013, 10.000131 
2.9651552e+3, 2.2956628e+2, -684666.0, -651676.56, 39106.082, -0.022649758, 0.79084873, -625728.8, 64598.043, 0.0, 10.000094, 10.000527 
2.965098e+3, 2.3956671e+2, -609756.8, -582914.75, 32814.07, -0.034983966, 0.80120564, -560883.2, 31439.557, 0.0, 10.000011, 10.000369 
2.96504e+3, 2.4956664e+2, -509954.7, -484444.88, 23395.582, -0.07223838, 0.78116256, -470553.2, 23771.15, 0.0, 10.000023, 10.000369 
2.964982e+3, 2.59567e+2, -379819.94, -333810.5, 20979.51, -0.10236598, 0.78694814, -325680.72, 70641.37, 0.0, 10.000089, 10.000696 
2.964925e+3, 2.6956844e+2, -268967.44, -183603.45, -12190.328, -0.062383458, 0.84893215, -181896.75, 116410.98, 0.0, 9.99998, 10.001103 
2.964867e+3, 2.795686e+2, -255460.66, -242254.03, -15648.381, -0.04006671, 0.80764943, -231872.77, -31566.723, 0.0, 9.999903, 10.000075 
2.9648077e+3, 2.895677e+2, -41252.473, -49018.86, -25309.098, -0.15535152, 0.77449584, -19530.4, 82785.29, 0.0, 10.000566, 10.000399 
2.975733e+3, 1.2962525e+2, -1659066.0, -1641141.9, 11318.504, 0.08446888, 0.79744434, -1635667.0, 34080.793, 0.0, 10.000198, 10.000407 
2.975675e+3, 1.3962463e+2, -1534632.6, -1562457.6, 21280.133, 0.037162174, 0.7284254, -1523120.8, 48630.715, 0.0, 10.0005045, 10.0001335 
2.975616e+3, 1.4962435e+2, -1424279.5, -1454011.6, -718.8774, -0.03422873, 0.7021418, -1424262.1, 49492.32, 0.0, 10.000572, 10.000171 
2.975557e+3, 1.5962477e+2, -1347886.3, -1363240.5, 11983.155, -0.045855988, 0.7383022, -1341331.9, 34419.152, 0.0, 10.000409, 10.0002 
2.975499e+3, 1.6962455e+2, -1297700.9, -1312132.8, 32580.361, -0.051476177, 0.72929925, -1271546.9, 6206.7017, 0.0, 10.000183, 9.999987 
2.9754412e+3, 1.7962454e+2, -1218316.1, -1206193.9, 27972.95, -0.042557683, 0.7420782, -1183632.9, -3878.9446, 0.0, 9.99998, 10.00014 
2.975384e+3, 1.8962455e+2, -1081502.5, -1064568.3, 53839.28, -0.019620476, 0.72870076, -1018534.4, 63219.117, 0.0, 10.000143, 10.000359 
2.9753268e+3, 1.9962415e+2, -988820.75, -1020629.5, 54562.875, -0.020083185, 0.6897206, -947891.56, 35865.41, 0.0, 10.00033, 9.999897 
2.9752693e+3, 2.0962445e+2, -905261.7, -928307.44, 52924.105, -0.03673077, 0.75037414, -862620.6, 23134.727, 0.0, 10.000227, 9.9999075 
2.975212e+3, 2.1962492e+2, -814891.1, -822345.25, 62641.066, -0.042172056, 0.8208079, -755866.3, 31885.877, 0.0, 10.000122, 10.000014 
2.975155e+3, 2.2962458e+2, -703688.44, -691420.25, 37476.297, -0.048171263, 0.78858095, -659579.4, 30176.44, 0.0, 10.000093, 10.000256 
2.9750976e+3, 2.396243e+2, -611513.06, -584663.0, 29911.68, -0.058376994, 0.74568623, -565301.75, 26457.148, 0.0, 10.000004, 10.000361 
2.97504e+3, 2.4962491e+2, -505707.9, -476962.38, 27122.727, -0.07822094, 0.78387564, -460639.56, 33115.266, 0.0, 10.000029, 10.000417 
2.9749823e+3, 2.5962573e+2, -391301.34, -361888.0, 19158.969, -0.093786776, 0.84162533, -352442.0, 43306.473, 0.0, 10.000107, 10.000494 
2.9749244e+3, 2.6962632e+2, -303412.94, -258748.92, -16733.379, -0.083824836, 0.8535646, -253175.3, 44568.086, 0.0, 9.999994, 10.000582 
2.9748663e+3, 2.7962622e+2, -226682.55, -187511.72, -9571.081, -0.09289465, 0.8134961, -185298.19, 14445.89, 0.0, 9.999938, 10.000432 
2.9748085e+3, 2.896268e+2, -10142.278, 10248.929, 16426.037, -0.1149392, 0.8564573, 19386.328, 121124.06, 0.0, 10.000616, 10.000771 
2.9857326e+3, 1.2968373e+2, -1494853.6, -1571744.3, 13.431505, -0.022477927, 0.8094199, -1494853.6, 174321.84, 0.0, 10.001362, 10.000332 
2.985675e+3, 1.3968253e+2, -1533546.3, -1546492.8, 24047.154, 0.04600373, 0.67626196, -1515116.3, 56068.33, 0.0, 10.000451, 10.000269 
2.9856166e+3, 1.4968336e+2, -1498408.1, -1512676.6, -16775.445, 0.03743022, 0.76681256, -1487312.9, -14135.601, 0.0, 10.000169, 9.999959 
2.985558e+3, 1.5968366e+2, -1514974.5, -1468438.9, -49257.977, 0.04530476, 0.81929535, -1437229.8, -62054.195, 0.0, 9.99938, 9.999969 
2.9854998e+3, 1.6968378e+2, -1464191.8, -1372843.9, -16991.432, 0.06696582, 0.838809, -1369785.8, -92611.555, 0.0, 9.998967, 10.00015 
2.9854414e+3, 1.7968345e+2, -1387125.8, -1291030.4, -1236.004, 0.04628272, 0.80714905, -1291014.5, -111837.445, 0.0, 9.998847, 10.000099 
2.985384e+3, 1.8968299e+2, -1212408.5, -1154024.0, 18473.45, -0.0051267203, 0.7695164, -1148669.9, -67488.55, 0.0, 9.999361, 10.000121 
2.9853266e+3, 1.9968298e+2, -1003917.8, -1016317.94, 12926.638, -0.02388089, 0.7764072, -995781.25, -12599.847, 0.0, 10.000173, 10.000008 
2.9852694e+3, 2.0968306e+2, -880007.4, -902297.25, 8726.935, -0.020683596, 0.80199564, -876997.1, 8184.2954, 0.0, 10.000336, 10.000037 
2.9852122e+3, 2.1968313e+2, -824743.2, -829056.0, 26915.654, -0.030540083, 0.8235106, -799897.7, -12715.918, 0.0, 10.000058, 10.000002 
2.985155e+3, 2.2968273e+2, -717186.3, -707553.6, 21985.723, -0.0453633, 0.79116446, -689862.9, -676.3752, 0.0, 10.000043, 10.00017 
2.9850975e+3, 2.3968244e+2, -583233.25, -585157.6, 19321.734, -0.06617876, 0.7588259, -564849.75, 26340.598, 0.0, 10.000259, 10.000234 
2.9850397e+3, 2.4968308e+2, -479119.72, -475402.28, 3145.088, -0.092186265, 0.8103624, -473607.75, 19578.713, 0.0, 10.00026, 10.000316 
2.984982e+3, 2.5968385e+2, -382745.2, -373192.9, -9904.94, -0.10249012, 0.8719861, -366972.72, 28208.518, 0.0, 10.000224, 10.000366 
2.9849243e+3, 2.6968396e+2, -273314.75, -268204.6, -28061.637, -0.08233597, 0.8579239, -242581.94, 54597.906, 0.0, 10.000287, 10.000387 
2.984866e+3, 2.7968398e+2, -157301.95, -149987.77, -2983.3567, -0.102677144, 0.83445686, -148925.25, 50254.094, 0.0, 10.000393, 10.000495 
2.984809e+3, 2.8968418e+2, -53164.992, -85103.2, -18683.666, -0.1047181, 0.8544317, -44555.82, 56621.473, 0.0, 10.000577, 10.000215 
2.995735e+3, 1.2974179e+2, -1769169.5, -1719530.1, -39341.11, 0.10789622, 0.77918524, -1697833.9, -29226.799, 0.0, 9.999549, 10.00019 
2.995675e+3, 1.3974193e+2, -1574009.9, -1536401.3, 22156.684, -0.007220281, 0.7674878, -1526144.9, 44458.902, 0.0, 10.000036, 10.000543 
2.9956168e+3, 1.497423e+2, -1389401.8, -1513709.5, 11142.539, 0.0492987, 0.8305938, -1388410.9, 84190.51, 0.0, 10.001122, 9.999505 
2.9955563e+3, 1.5974082e+2, -1274538.0, -1414615.6, 70616.93, -0.022190912, 0.76984257, -1245117.4, 129499.86, 0.0, 10.001268, 9.999442 
2.9954976e+3, 1.6974035e+2, -1082503.1, -1163644.9, 81812.83, -0.02584858, 0.73186445, -1031754.06, 244865.89, 0.0, 10.001452, 10.000401 
2.9954395e+3, 1.7974089e+2, -1022259.44, -1137347.4, 15144.866, -0.0064003905, 0.77238154, -1020299.8, 158312.95, 0.0, 10.001423, 9.999924 
2.9953828e+3, 1.8973958e+2, -986023.7, -1104494.0, 42601.938, -0.019513123, 0.69255835, -972295.0, 108331.92, 0.0, 10.001149, 9.999609 
2.9953268e+3, 1.9974057e+2, -937109.8, -955772.9, 7768.366, -0.010073496, 0.810622, -934299.44, 48319.2, 0.0, 10.000493, 10.000275 
2.99527e+3, 2.0974049e+2, -832833.75, -846179.56, -21217.813, 0.011879064, 0.78786016, -817264.25, 67355.06, 0.0, 10.000508, 10.000341 
2.9952115e+3, 2.1973996e+2, -723796.9, -772280.94, -17847.322, -0.10855799, 0.72933704, -717935.7, 68688.75, 0.0, 10.000716, 10.000073 
2.9951543e+3, 2.297406e+2, -739314.2, -705899.94, -27128.26, -0.10392781, 0.7906102, -690746.9, -2127.2048, 0.0, 9.99984, 10.000277 
2.9950973e+3, 2.3974091e+2, -597760.06, -616877.06, -2163.626, -0.07862387, 0.8229503, -597518.25, -6899.6465, 0.0, 10.000269, 10.000008 
2.9950395e+3, 2.4974117e+2, -487048.06, -502265.94, -1988.7994, -0.12008226, 0.85682994, -486792.44, 5826.4634, 0.0, 10.000308, 10.000103 
2.994982e+3, 2.5974134e+2, -383101.0, -382078.94, -8218.007, -0.12566453, 0.8769562, -374356.1, 20263.49, 0.0, 10.000251, 10.000297 
2.9949245e+3, 2.697415e+2, -261541.19, -256295.45, -20287.09, -0.06257883, 0.8635177, -238462.38, 58154.3, 0.0, 10.000325, 10.00046 
2.9948664e+3, 2.797418e+2, -188783.4, -192805.06, -676.06696, -0.08968538, 0.8611825, -188672.8, 9939.757, 0.0, 10.0003395, 10.000203 
2.9948086e+3, 2.8974095e+2, -152901.8, -239968.17, 8376.279, -0.15131286, 0.84178317, -152103.28, -51479.45, 0.0, 10.000414, 9.999202 
