coord_x,coord_y,stress_xx,stress_yy,tau_xy,velocity_x,velocity_y,stress_1,eps,damage,lx,ly
4.9996266e+0, 1.2519546e+2, -1770538.8, -1679760.4, -11332.897, -0.0037574186, -0.33551165, -1678367.0, 34679.54, 0.0027102246, 9.999153, 10.000643 
4.999582e+0, 1.3519514e+2, -1692557.6, -1547772.6, -38325.504, 0.008575476, -0.5774936, -1538253.5, 76795.46, 0.0016001622, 9.9989, 10.000984 
4.999485e+0, 1.451993e+2, -1630679.4, -1485523.8, -25453.729, 0.0056553236, -0.23874663, -1481189.8, 35819.406, 0.00071385584, 9.998755, 10.000793 
4.9991354e+0, 1.5520027e+2, -1538002.4, -1393399.1, -40694.684, -0.027797299, -0.30044463, -1382733.4, 36269.402, 0.00020880907, 9.998735, 10.000766 
4.9992052e+0, 1.6520123e+2, -1480897.5, -1400822.5, -5332.73, -0.025066117, -0.23584317, -1400469.0, -79472.28, 0.00003056022, 9.99883, 9.999998 
4.999643e+0, 1.7520149e+2, -1366779.0, -1310129.6, 14418.279, 0.009872521, -0.26924452, -1306671.1, -83673.266, 0.0000010193884, 9.999005, 9.999865 
4.9997878e+0, 1.8520218e+2, -1213638.0, -1098002.4, 28834.67, 0.023271564, -0.21927911, -1091211.1, 33782.363, 0.0, 9.999021, 10.000635 
4.999639e+0, 1.9520298e+2, -1143604.1, -1029230.1, -1959.781, 0.015130884, -0.26456335, -1029196.56, -2209.5225, 0.0, 9.998893, 10.000502 
4.9996263e+0, 2.0520395e+2, -1014316.44, -856595.4, -1274.558, 0.015665751, -0.23655698, -856585.06, 72391.016, 0.0, 9.998857, 10.001024 
4.9996907e+0, 2.152046e+2, -918324.3, -778696.56, -31381.613, 0.018736372, -0.33617643, -771967.75, 58998.066, 0.0, 9.998923, 10.000856 
4.9998292e+0, 2.252048e+2, -902022.7, -1005907.9, 19592.566, -0.0008230078, -0.26474366, -898450.4, -165484.17, 0.0, 9.999599, 9.998298 
5.000066e+0, 2.3520422e+2, -630567.75, -831918.4, 47287.06, -0.038756732, -0.21482922, -620015.44, 14964.072, 0.0, 10.00082, 9.998233 
5.0000864e+0, 2.452037e+2, -473946.75, -645914.56, 32103.314, -0.043189824, -0.11279611, -468149.1, 68838.9, 0.0, 10.000961, 9.998768 
4.9999076e+0, 2.5520265e+2, -514753.8, -636414.25, 4895.7754, -0.018378073, -0.15258577, -514557.13, -75559.87, 0.000000000017365094, 10.000096, 9.998582 
4.999857e+0, 2.6520166e+2, -445443.25, -498769.06, 32820.72, -0.0017755359, -0.12562837, -429820.13, -88814.2, 0.000000288742, 9.999671, 9.99905 
4.999931e+0, 2.752007e+2, -356438.38, -412818.4, 26022.64, 0.006436058, -0.18983579, -346263.66, -103249.82, 0.0000033591298, 9.999641, 9.998981 
4.9999577e+0, 2.8519982e+2, -291021.1, -437333.2, 44322.54, -0.002420178, -0.1230498, -278641.8, -133617.81, 0.000018802597, 9.999881, 9.998018 
4.9998513e+0, 2.9519737e+2, -98285.984, -273089.78, 26396.865, -0.041767985, -0.24313897, -94386.81, -47333.89, 0.000081046455, 10.000419, 9.9982195 
4.9998552e+0, 3.0519852e+2, -54899.01, -230010.14, -3482.5488, -0.038551822, 0.036993235, -54829.777, -54829.777, 0.0003038914, 10.000388, 9.998196 
4.9999538e+0, 3.151955e+2, 43658.313, 158544.58, -25759.955, 0.009616899, -0.12771265, 164056.1, 164056.1, 0.00078894256, 9.999501, 10.001317 
1.4998859e+1, 1.2519501e+2, -1822318.8, -1692082.1, -65368.36, -0.009242578, -0.35629696, -1664932.3, 48122.563, 0.0026043395, 9.998807, 10.000747 
1.4998826e+1, 1.3519503e+2, -1719698.9, -1551588.8, -33367.016, 0.03784447, -0.50085914, -1545208.3, 69846.086, 0.0015429672, 9.998725, 10.001067 
1.4998442e+1, 1.4519852e+2, -1656202.1, -1475747.8, -40402.906, 0.018130284, -0.2451839, -1467114.8, 49905.67, 0.0006869522, 9.998515, 10.000992 
1.4997387e+1, 1.5519825e+2, -1557379.3, -1381507.0, -24858.654, -0.08332788, -0.40738085, -1378060.9, 40962.78, 0.0001968844, 9.998542, 10.000953 
1.499763e+1, 1.6519903e+2, -1443815.0, -1266780.5, -12536.734, -0.07118782, -0.42409787, -1265897.1, 55119.84, 0.000026649353, 9.998617, 10.001033 
1.4998966e+1, 1.7520049e+2, -1320677.5, -1166812.4, 35227.137, 0.034215152, -0.40670222, -1159130.6, 63873.02, 0.00000066228677, 9.998821, 10.000952 
1.4999329e+1, 1.8520178e+2, -1274189.4, -1158982.3, 10393.089, 0.06953781, -0.33704922, -1158052.1, -33059.28, 0.0, 9.998781, 10.000339 
1.4998908e+1, 1.9520271e+2, -1199490.8, -1085842.8, 9150.6, 0.047716085, -0.30235204, -1085110.6, -58124.113, 0.0, 9.99867, 10.000232 
1.4998856e+1, 2.0520367e+2, -1072399.0, -916531.56, -10656.009, 0.046314344, -0.24872372, -915806.44, 13171.709, 0.0, 9.99863, 10.000731 
1.4999051e+1, 2.1520449e+2, -969358.94, -826252.9, -11976.21, 0.055034406, -0.26824424, -825257.5, 5711.825, 0.0, 9.998702, 10.000646 
1.4999475e+1, 2.2520497e+2, -847398.1, -832522.06, 50168.9, 0.0005217449, -0.22791831, -789242.8, -56277.48, 0.0, 9.999377, 9.999606 
1.5000167e+1, 2.3520502e+2, -579958.5, -663027.5, 106929.04, -0.11608224, -0.20981565, -506780.63, 128186.13, 0.0, 10.000582, 9.999515 
1.5000266e+1, 2.452041e+2, -526500.94, -703710.4, -14779.227, -0.12717536, -0.19446176, -525276.8, 11700.002, 0.0, 10.000771, 9.998475 
1.4999714e+1, 2.5520208e+2, -563858.44, -673654.3, -14134.113, -0.05265655, -0.27311316, -562068.1, -123071.02, 0.0, 9.999849, 9.998457 
1.4999573e+1, 2.6520118e+2, -452117.25, -461625.38, 18689.566, -0.0039688544, -0.25267833, -437586.56, -96580.86, 0.00000013049092, 9.999486, 9.999406 
1.4999808e+1, 2.752013e+2, -374874.53, -390347.47, 36114.324, 0.021482103, -0.20544781, -345677.3, -102673.57, 0.0000024373799, 9.999406, 9.999262 
1.499983e+1, 2.8520018e+2, -323822.53, -455332.94, 52209.414, -0.008836311, -0.17629878, -305616.03, -160599.72, 0.000015368285, 9.999701, 9.997995 
1.4999531e+1, 2.9519695e+2, -141730.28, -292270.78, 68348.555, -0.12824507, -0.33170244, -115328.83, -68277.97, 0.000069496324, 10.000134, 9.99824 
1.4999647e+1, 3.0519825e+2, -103034.58, -253238.2, -47045.47, -0.099247485, -0.03116803, -89516.086, -89516.086, 0.00026841622, 10.000146, 9.998174 
1.4999811e+1, 3.1519404e+2, -99010.24, -2369.5254, -3067.1482, 0.03385727, -0.2561319, -2272.279, -2272.279, 0.0007052667, 9.99901, 10.000468 
2.4998043e+1, 1.2519597e+2, -1823545.9, -1737362.0, 85160.26, 0.034378167, -0.3391975, -1685011.9, 28033.285, 0.0024837567, 9.99903, 10.000295 
2.4998434e+1, 1.3519593e+2, -1607527.5, -1564203.0, 36055.645, 0.08533936, -0.44734862, -1543802.6, 71245.51, 0.0014731403, 9.999825, 10.00043 
2.4998026e+1, 1.4519869e+2, -1513770.5, -1415987.3, 19046.799, 0.084798954, -0.22761825, -1412408.3, 104613.65, 0.00065158884, 9.999559, 10.000878 
2.4996409e+1, 1.5519819e+2, -1586106.6, -1411485.8, -4248.6187, -0.019708188, -0.4138612, -1411382.4, 7643.5977, 0.0001815959, 9.998434, 10.000784 
2.4996391e+1, 1.6519895e+2, -1467397.3, -1283450.9, 53036.477, -0.04063145, -0.41461706, -1269254.6, 51764.07, 0.000022322774, 9.998488, 10.000965 
2.4997929e+1, 1.7520073e+2, -1210431.1, -1114906.0, 1185.7382, 0.018485392, -0.3751462, -1114891.3, 108111.94, 0.00000035252413, 9.999607, 10.00091 
2.4998462e+1, 1.8520206e+2, -1122776.4, -1097017.3, -50514.996, 0.059954047, -0.29646155, -1057765.8, 67225.83, 0.0, 9.999856, 10.00024 
2.4998192e+1, 1.9520281e+2, -1132978.8, -1062435.3, -48756.008, 0.09399647, -0.28269064, -1037530.25, -10545.175, 0.0, 9.999165, 10.000138 
2.4998073e+1, 2.0520334e+2, -1059885.5, -984965.75, -6484.7793, 0.092972465, -0.2346018, -984408.56, -55427.234, 0.0, 9.999041, 10.000056 
2.4998046e+1, 2.152034e+2, -919155.25, -878584.7, -50807.51, 0.058498047, -0.26935673, -844162.56, -13180.22, 0.0, 9.999381, 9.999953 
2.4998835e+1, 2.2520387e+2, -792783.5, -740777.5, 23083.7, 0.0014994754, -0.2246576, -732009.6, 968.5003, 0.0, 9.999465, 10.000175 
2.500044e+1, 2.3520452e+2, -734687.8, -680331.8, 13770.33, -0.07341682, -0.21568462, -677042.4, -42071.574, 0.0, 9.999259, 10.000022 
2.500067e+1, 2.452039e+2, -710500.0, -744765.4, -92038.46, -0.083856456, -0.21531644, -634013.2, -97037.21, 0.0, 9.999323, 9.99887 
2.4999572e+1, 2.5520185e+2, -566867.0, -632696.56, -57507.563, -0.03262867, -0.34457272, -533520.94, -94525.69, 0.0, 9.999656, 9.998812 
2.4999365e+1, 2.65201e+2, -412393.06, -485354.2, 24058.07, 0.011236812, -0.3199211, -405174.38, -64170.023, 0.00000003137998, 9.999963, 9.9990015 
2.4999964e+1, 2.7520108e+2, -279937.97, -388011.9, -29077.627, 0.06267527, -0.24223742, -272611.25, -29606.236, 0.0000016497497, 10.000259, 9.998858 
2.5000104e+1, 2.851999e+2, -187190.88, -332139.3, 33835.2, 0.022889884, -0.2197949, -179681.77, -34664.58, 0.000012071121, 10.000402, 9.998491 
2.4999891e+1, 2.9519713e+2, -90456.44, -221313.58, 70750.37, -0.102229156, -0.39501086, -59518.457, -12473.676, 0.00005739791, 10.000319, 9.998624 
2.500016e+1, 3.051989e+2, -78678.76, -261732.23, -1463.0114, -0.058847472, -0.04897103, -78667.06, -78667.06, 0.00023072664, 10.000415, 9.997985 
2.5000152e+1, 3.151945e+2, 52958.69, -48768.95, -340.44806, 0.11392177, -0.30609256, 52959.83, 52959.83, 0.000617959, 10.000596, 9.999362 
3.4996805e+1, 1.2519814e+2, -1912221.8, -1872953.0, 67793.92, -0.06326752, -0.3576912, -1822007.5, -108988.36, 0.0023583595, 9.998842, 9.999452 
3.4997976e+1, 1.3519779e+2, -1678970.1, -1688581.0, 74435.055, 0.02048588, -0.39115563, -1609185.5, 5845.008, 0.0013953737, 9.999747, 9.999605 
3.4997836e+1, 1.4519966e+2, -1544376.4, -1446694.6, -40561.316, 0.06687201, -0.21091375, -1432048.1, 84967.1, 0.0006105934, 9.999425, 10.000729 
3.4995782e+1, 1.5519999e+2, -1604788.0, -1426148.1, -29252.914, 0.035630036, -0.29494143, -1421479.9, -2469.4885, 0.00016453842, 9.998348, 10.000717 
3.499523e+1, 1.65201e+2, -1540291.0, -1412227.4, 77723.39, -0.041865133, -0.23459128, -1375556.6, -54553.668, 0.000017966355, 9.9983835, 10.000141 
3.4996185e+1, 1.7520203e+2, -1279506.1, -1243860.5, 57619.727, -0.15273666, -0.17302458, -1201370.1, 21628.361, 0.00000014192928, 9.99954, 10.000063 
3.499685e+1, 1.8520279e+2, -1113185.1, -1040522.56, -90738.06, -0.11937516, -0.12948608, -979112.56, 145878.8, 0.0, 9.999707, 10.000695 
3.4997138e+1, 1.9520321e+2, -1119931.6, -1004311.7, -59494.723, 0.038792487, -0.18982516, -979166.2, 47816.83, 0.0, 9.999037, 10.000597 
3.499697e+1, 2.0520282e+2, -1138366.8, -1109077.1, -10354.277, 0.050251182, -0.21732968, -1105786.5, -176799.8, 0.0, 9.998881, 9.999281 
3.499636e+1, 2.1520132e+2, -995681.3, -997143.4, -23682.97, -0.07827108, -0.32267419, -972718.06, -141713.34, 0.0, 9.999214, 9.999219 
3.4997588e+1, 2.2520141e+2, -811987.5, -730645.6, 5189.4155, -0.09924244, -0.28703833, -730315.9, 2689.416, 0.0, 9.999264, 10.000338 
3.5000518e+1, 2.3520286e+2, -748066.8, -658688.1, 21115.873, -0.023641372, -0.20776966, -653950.56, -18960.049, 0.0, 9.999063, 10.000259 
3.5001007e+1, 2.4520314e+2, -641522.06, -570667.25, -92266.31, -0.011687093, -0.19453743, -507260.6, 29724.656, 0.0, 9.999187, 10.000135 
3.4999177e+1, 2.552021e+2, -506645.63, -467768.72, -29945.135, -0.06970466, -0.3437436, -451506.13, -12515.171, 0.0, 9.999488, 10.000026 
3.4998918e+1, 2.6520115e+2, -490492.47, -625289.6, 22735.6, -0.05826201, -0.33867955, -486761.03, -145760.05, 0.0000000045955626, 9.9998665, 9.998085 
3.499997e+1, 2.7520013e+2, -358982.3, -517148.03, -559.4918, 0.003774677, -0.27798542, -358980.34, -115964.12, 0.0000011896407, 10.000111, 9.998041 
3.500049e+1, 2.8519917e+2, -110063.21, -149226.95, 17914.322, -0.010898217, -0.26455382, -103105.06, 41921.066, 0.000009641755, 10.000314, 9.999791 
3.500056e+1, 2.951978e+2, -36539.137, -73576.44, 81307.35, -0.106618755, -0.41349787, 28331.816, 75366.9, 0.0000464018, 10.0001745, 9.99971 
3.50009e+1, 3.0520025e+2, -84033.195, -264475.7, -6082.0786, -0.056524955, -0.048829842, -83828.42, -83828.42, 0.00019513248, 10.000359, 9.99799 
3.5000184e+1, 3.1519738e+2, -41831.77, -226535.28, 52296.664, -0.014627856, -0.16473134, -28052.531, -28052.531, 0.00053834624, 10.000494, 9.998189 
4.4996753e+1, 1.2519854e+2, -1823983.3, -1792773.1, -16642.555, 0.054574344, -0.37059936, -1785563.9, -72547.29, 0.0022337737, 9.999311, 9.999757 
4.499707e+1, 1.3519932e+2, -1904691.9, -1774182.3, 1171.3707, 0.059319515, -0.3145058, -1774171.8, -159154.73, 0.0013153872, 9.998106, 9.999804 
4.4996995e+1, 1.4520045e+2, -1717039.3, -1565630.8, -16979.424, 0.11086629, -0.20438433, -1563750.0, -46740.887, 0.00056916923, 9.998376, 10.000436 
4.499536e+1, 1.5520039e+2, -1372198.5, -1354249.9, -57379.395, 0.08694924, -0.29029313, -1305147.3, 113860.99, 0.00014812649, 10.000097, 10.00039 
4.4994903e+1, 1.6520122e+2, -1291303.5, -1329675.8, 79715.18, 0.0065763183, -0.21130139, -1228498.0, 92504.93, 0.000013959289, 10.000267, 9.999798 
4.4995666e+1, 1.7520222e+2, -1377045.0, -1328620.8, 66521.67, -0.12161299, -0.1179699, -1282041.9, -59041.996, 0.000000037538413, 9.999039, 9.999725 
4.4996312e+1, 1.8520264e+2, -1240020.4, -1102179.8, -48646.813, -0.0881946, -0.09050713, -1086740.5, 38255.74, 0.0, 9.998843, 10.000697 
4.4996724e+1, 1.9520251e+2, -1057685.3, -976572.56, -77462.72, 0.083593205, -0.2026598, -929691.56, 97300.41, 0.0, 9.999473, 10.000586 
4.4996557e+1, 2.0520204e+2, -1012968.94, -1048080.1, 19780.244, 0.090101704, -0.23615885, -1004077.3, -75081.69, 0.0, 9.999726, 9.9993 
4.4995853e+1, 2.1520099e+2, -946361.94, -970946.1, 37042.418, -0.053281266, -0.30207938, -919625.4, -88616.22, 0.0, 9.999533, 9.9992485 
4.4996926e+1, 2.2520114e+2, -842021.75, -730452.94, 103637.05, -0.06583662, -0.2701255, -668540.5, 64467.957, 0.0, 9.99899, 10.000481 
4.4999668e+1, 2.3520224e+2, -881641.0, -710731.25, 92264.195, 0.045678385, -0.2362184, -670427.56, -35431.496, 0.0, 9.998091, 10.000383 
4.5000446e+1, 2.4520275e+2, -744680.06, -606284.1, 14103.858, 0.06362483, -0.2105465, -604861.44, -67872.85, 0.0, 9.998425, 10.000255 
4.4999358e+1, 2.5520238e+2, -437244.2, -426445.63, -37656.6, -0.011985426, -0.30375195, -393803.2, 45185.855, 0.0, 9.999922, 10.000103 
4.4999328e+1, 2.652016e+2, -407964.1, -572450.0, 5800.623, -0.019774403, -0.2886474, -407759.8, -66762.33, 0.000000013083459, 10.000387, 9.99819 
4.500035e+1, 2.752004e+2, -365187.2, -510415.2, 32663.955, 0.046893526, -0.2557346, -358178.78, -115164.97, 0.0000010541644, 10.0000305, 9.998128 
4.500085e+1, 2.8519946e+2, -202067.31, -197907.2, 56284.07, 0.035809964, -0.24119997, -143664.77, 1358.6713, 0.000008106713, 9.9997, 9.999761 
4.500073e+1, 2.9519838e+2, -160296.38, -142979.17, -8504.499, -0.05407384, -0.3579095, -139501.14, -92470.88, 0.000037622078, 9.999362, 9.999632 
4.5001316e+1, 3.051999e+2, -75690.86, -187761.98, -30225.379, -0.024858564, -0.115224816, -68058.87, -68058.87, 0.00016443121, 10.000101, 9.998632 
4.5001578e+1, 3.151987e+2, 152721.25, -117982.79, 29331.201, 0.02769463, -0.13643293, 155862.88, 155862.88, 0.00047154687, 10.001765, 9.998316 
5.49964e+1, 1.2519747e+2, -1731797.5, -1621738.0, -108699.28, -0.0068110814, -0.37698776, -1554932.5, 158102.38, 0.0021078985, 9.999369, 10.000915 
5.499521e+1, 1.3520057e+2, -1806859.5, -1594822.1, -26931.633, 0.00957222, -0.21143912, -1591454.9, 23552.219, 0.0012334009, 9.998189, 10.000999 
5.499511e+1, 1.4520103e+2, -1748603.6, -1632265.0, 26425.975, 0.030699171, -0.20534343, -1626543.8, -109540.195, 0.00052778376, 9.998378, 9.999979 
5.499466e+1, 1.5519947e+2, -1406809.4, -1428652.5, 20671.076, -0.037320204, -0.39394888, -1394352.1, 24666.203, 0.00013278752, 10.000102, 9.999878 
5.499475e+1, 1.6519979e+2, -1299304.3, -1329108.0, 18161.895, -0.07551619, -0.3408276, -1290713.1, 30304.326, 0.0000106646075, 10.0001955, 9.99983 
5.499578e+1, 1.7520128e+2, -1374701.5, -1316293.1, 35767.25, -0.054876357, -0.2084053, -1299321.9, -76313.73, 0.000000007551507, 9.99901, 9.999818 
5.4996395e+1, 1.8520157e+2, -1282907.9, -1171182.0, -41214.234, 0.00030901318, -0.17941362, -1157623.9, -32617.582, 0.0, 9.998755, 10.000268 
5.4996467e+1, 1.9520068e+2, -1098016.1, -1040684.44, -41848.457, 0.07436473, -0.321509, -1018625.25, 8387.133, 0.0, 9.999391, 10.000185 
5.4996336e+1, 2.0520109e+2, -976139.75, -934015.8, 832.89197, 0.06474735, -0.2934293, -933999.3, -4991.651, 0.0, 9.999573, 10.000153 
5.499602e+1, 2.152024e+2, -905944.75, -857356.44, 43300.6, -0.02432831, -0.2043741, -832000.3, -1004.7851, 0.0, 9.999409, 10.000087 
5.499638e+1, 2.2520302e+2, -851320.9, -719950.06, 57378.0, -0.052399263, -0.17519352, -698418.5, 34569.31, 0.0, 9.998865, 10.000612 
5.499746e+1, 2.3520277e+2, -894818.8, -707283.44, 74923.305, -0.016285166, -0.2880125, -681026.6, -46040.684, 0.0, 9.99796, 10.00047 
5.499847e+1, 2.4520275e+2, -833042.94, -767187.1, 60268.418, -0.010888191, -0.2654905, -731438.06, -194452.23, 0.0, 9.998334, 9.99919 
5.49995e+1, 2.552027e+2, -532033.9, -578912.56, 31334.102, -0.02693963, -0.22090834, -516342.28, -77352.98, 0.0, 9.999748, 9.999129 
5.5000204e+1, 2.6520246e+2, -336773.25, -417996.03, -21520.828, -0.0076833954, -0.16191764, -331423.44, 9569.598, 0.000000016276152, 10.000345, 9.999279 
5.5000746e+1, 2.752019e+2, -305732.94, -369084.0, 34013.81, 0.046198837, -0.17790778, -290929.66, -47931.035, 0.00000094951764, 9.999939, 9.999151 
5.500064e+1, 2.8520077e+2, -301396.9, -391077.28, 30270.336, 0.00973264, -0.16096152, -292135.94, -147125.83, 0.0000068871877, 9.999652, 9.99845 
5.4999834e+1, 2.951989e+2, -262108.88, -329189.44, -4986.63, -0.12262015, -0.22750056, -261740.2, -214709.95, 0.00003070153, 9.99925, 9.998405 
5.500095e+1, 3.051978e+2, 12426.827, 14130.612, 25133.273, -0.105106756, -0.25404397, 38426.426, 38426.426, 0.00013855331, 10.000031, 10.000055 
5.5003494e+1, 3.1519818e+2, 234541.36, 87065.0, 135271.03, -0.028799646, -0.2510037, 314866.72, 314866.72, 0.0004144919, 10.001628, 9.999788 
6.4995056e+1, 1.2519774e+2, -2016366.0, -1737741.3, -16858.107, 0.04853266, -0.33670112, -1736724.9, -23687.664, 0.0019834668, 9.997287, 10.001145 
6.499378e+1, 1.3520107e+2, -1689151.9, -1490374.8, -41375.23, 0.03526578, -0.18604241, -1482106.4, 132897.42, 0.001149572, 9.998766, 10.001455 
6.499429e+1, 1.4520107e+2, -1599227.6, -1569095.9, 69974.37, 0.0697532, -0.24492285, -1512583.9, 4420.1045, 0.00048384682, 9.999457, 9.999885 
6.4994466e+1, 1.5520026e+2, -1477582.9, -1470475.4, 53105.31, -0.031307597, -0.34678125, -1420805.0, -1791.9983, 0.00011744106, 9.999676, 9.999781 
6.4994895e+1, 1.652007e+2, -1384388.1, -1348209.9, 35230.336, -0.0343958, -0.28771707, -1326696.1, -5685.319, 0.000008467286, 9.999515, 10.00003 
6.4995843e+1, 1.752016e+2, -1387561.3, -1305347.6, 34439.22, 0.06855783, -0.23122448, -1292827.8, -69822.97, 0.000000004638606, 9.99885, 9.999972 
6.499631e+1, 1.852019e+2, -1255853.9, -1167563.6, 61415.516, 0.115872614, -0.20246515, -1136073.8, -11071.028, 0.0, 9.998991, 10.000171 
6.49962e+1, 1.9520158e+2, -1042329.7, -1025070.44, 54378.43, 0.09804166, -0.28169796, -978641.2, 48364.02, 0.0, 9.999825, 10.000081 
6.499601e+1, 2.0520213e+2, -917486.9, -894033.8, 62925.906, 0.06807746, -0.23673221, -841751.1, 87247.836, 0.0, 9.99992, 10.000258 
6.4995736e+1, 2.1520333e+2, -932275.25, -856200.44, 26087.975, 0.02756761, -0.17181268, -848113.8, -17127.28, 0.0, 9.999175, 10.0002 
6.4995956e+1, 2.2520357e+2, -806154.25, -729233.44, 39018.773, 0.007065413, -0.17100516, -712906.4, 20074.844, 0.0, 9.999296, 10.000345 
6.4996696e+1, 2.3520276e+2, -587215.7, -585896.7, 922.6901, 0.010733469, -0.31626686, -585422.06, 49561.934, 0.0, 10.000175, 10.000236 
6.499783e+1, 2.4520232e+2, -578409.3, -687015.3, 42179.383, 0.0069013895, -0.30691546, -563952.5, -26964.188, 0.0, 10.000245, 9.998843 
6.4999366e+1, 2.5520203e+2, -583212.25, -641554.25, 38834.227, 0.0064295754, -0.25063533, -563813.25, -124817.586, 0.0, 9.999543, 9.998821 
6.5000325e+1, 2.6520178e+2, -453281.8, -451857.8, -7612.694, 0.023807123, -0.18327662, -444923.9, -103924.26, 0.00000000394634, 9.999451, 9.999484 
6.5000826e+1, 2.7520153e+2, -275639.9, -327135.97, -44294.69, 0.065977484, -0.18662831, -250153.36, -7151.9, 0.0000007712445, 10.000043, 9.999382 
6.5000945e+1, 2.8520054e+2, -216146.45, -393623.2, -21724.918, 0.04769015, -0.15242931, -213525.8, -68513.72, 0.000006042053, 10.000425, 9.998059 
6.500074e+1, 2.9519856e+2, -101013.21, -282199.88, -17345.787, -0.0071286773, -0.19193912, -99367.57, -52333.684, 0.000026519589, 10.000509, 9.998113 
6.500195e+1, 3.0519637e+2, 98187.55, 50294.613, 59315.977, -0.02325253, -0.31615257, 138208.4, 138208.4, 0.00012024143, 10.000631, 10.000022 
6.500492e+1, 3.151972e+2, 92229.79, 28268.555, 11421.657, 0.023075093, -0.25211102, 94208.18, 94208.18, 0.00036921015, 10.000577, 9.999914 
7.4991846e+1, 1.2519914e+2, -2039923.6, -1795017.0, -17670.729, -0.086018115, -0.24559405, -1793748.6, -80722.836, 0.0018629195, 9.997334, 10.000723 
7.499216e+1, 1.3520063e+2, -1699790.8, -1523135.0, 20019.25, -0.048133805, -0.25509793, -1520894.8, 94113.93, 0.0010666472, 9.998813, 10.001207 
7.4993724e+1, 1.4520052e+2, -1587931.6, -1535040.4, 61976.18, 0.021668725, -0.32823795, -1494103.4, 22907.418, 0.0004391749, 9.999413, 10.00014 
7.499435e+1, 1.5520267e+2, -1455309.5, -1437034.9, 77944.72, -0.05543296, -0.15742952, -1367693.8, 51299.78, 0.00010226521, 9.999718, 9.999997 
7.4994856e+1, 1.6520384e+2, -1369888.8, -1303503.9, -5529.6836, -0.02753256, -0.053859726, -1303046.4, 17937.322, 0.000007138289, 9.999458, 10.00036 
7.499543e+1, 1.752032e+2, -1372154.9, -1264472.6, 22725.44, 0.10360847, -0.18605687, -1259873.0, -36883.28, 0.00000003688298, 9.998811, 10.000271 
7.4995613e+1, 1.852036e+2, -1255302.6, -1149936.5, 79514.46, 0.112295285, -0.16975024, -1107235.9, 17749.836, 0.0, 9.998913, 10.000338 
7.499546e+1, 1.9520499e+2, -1034585.9, -1000497.75, 98191.13, 0.0044589373, -0.09480335, -917882.4, 109089.54, 0.0, 9.999784, 10.000272 
7.4995154e+1, 2.052051e+2, -974908.94, -990213.8, 22800.146, -0.04223241, -0.074545436, -958511.25, -29541.045, 0.0, 9.999822, 9.999645 
7.4994576e+1, 2.1520369e+2, -991428.0, -955096.2, 12211.632, -0.04052609, -0.21131012, -951373.2, -120390.445, 0.0, 9.999064, 9.999578 
7.4995196e+1, 2.2520277e+2, -869955.2, -831022.3, 60439.023, -0.028362961, -0.26299962, -786992.1, -54003.184, 0.0, 9.9991665, 9.999707 
7.4996984e+1, 2.3520216e+2, -652681.9, -689081.8, 48521.79, -0.011420251, -0.3265199, -619059.06, 15931.77, 0.0, 10.000029, 9.9996 
7.4998045e+1, 2.4520148e+2, -566121.9, -639410.8, 3101.2139, -0.024150567, -0.32930538, -565990.9, -28994.88, 0.0, 10.000153, 9.99921 
7.4998534e+1, 2.5520042e+2, -581624.44, -607703.4, 26811.506, -0.06319411, -0.38709098, -564849.75, -125842.59, 0.0, 9.999405, 9.999121 
7.499915e+1, 2.6519978e+2, -516837.1, -557848.2, 2339.0803, -0.06963482, -0.34066176, -516704.13, -175688.5, 0.00000000015133415, 9.9993515, 9.998798 
7.5000024e+1, 2.7519944e+2, -343066.28, -435016.7, -4840.9785, -0.055413015, -0.28314504, -342812.13, -99790.16, 0.00000065427645, 9.99991, 9.998701 
7.5001365e+1, 2.8519878e+2, -179270.84, -309627.88, -30311.129, 0.012574803, -0.21156746, -172567.48, -27538.52, 0.0000058927376, 10.000386, 9.998659 
7.500298e+1, 2.9519734e+2, -71928.9, -201422.08, 3130.62, 0.124555185, -0.25865334, -71853.26, -24811.773, 0.000025865007, 10.000403, 9.998729 
7.500381e+1, 3.0519542e+2, -22073.326, -177296.64, 54707.063, 0.066113204, -0.3102782, -4730.0874, -4730.0874, 0.00011203884, 10.000551, 9.998485 
7.5004923e+1, 3.1519556e+2, -12194.011, -145517.17, 53893.52, -0.10345202, -0.16059756, 6866.5034, 6866.5034, 0.00034091447, 10.000401, 9.998796 
8.498996e+1, 1.2519923e+2, -1886160.8, -1732920.8, -12910.689, -0.04797203, -0.19774027, -1731840.6, -18811.797, 0.0017451695, 9.998458, 10.000596 
8.4991217e+1, 1.3520083e+2, -1684044.9, -1500803.3, -12232.834, -0.009734534, -0.20548038, -1499990.1, 115020.14, 0.0009891815, 9.998877, 10.001318 
8.4993225e+1, 1.4520052e+2, -1643018.5, -1534195.3, 46794.523, 0.070751354, -0.31599677, -1516841.0, 172.61478, 0.000399723, 9.998894, 10.000408 
8.4993696e+1, 1.5520321e+2, -1590398.6, -1474693.6, 33477.473, -0.028659053, -0.11639706, -1465705.6, -46714.99, 0.00008899464, 9.998671, 10.000245 
8.499409e+1, 1.6520445e+2, -1437851.5, -1324648.5, -30569.648, -0.014414862, -0.020265674, -1316920.9, 4057.9336, 0.000006071428, 9.998946, 10.000461 
8.4994614e+1, 1.7520344e+2, -1258343.6, -1194356.5, -48207.848, 0.11573046, -0.19985548, -1168491.8, 54494.957, 0.000000076650345, 9.999536, 10.000399 
8.499495e+1, 1.852037e+2, -1157397.3, -1107270.8, 28957.186, 0.13171436, -0.20137033, -1094036.6, 30946.557, 0.0, 9.999595, 10.000305 
8.4995186e+1, 1.9520527e+2, -1145239.4, -1059571.3, 5585.4365, 0.045104254, -0.10375584, -1059208.6, -32240.527, 0.0, 9.9990425, 10.000226 
8.4995085e+1, 2.0520522e+2, -1047732.56, -1050990.0, -38889.71, -0.0036424666, -0.085106544, -1010437.5, -81469.19, 0.0, 9.999438, 9.999412 
8.499451e+1, 2.1520339e+2, -776234.8, -880897.9, -52588.63, -0.024049528, -0.2377367, -754376.4, 76608.91, 0.0, 10.000673, 9.999316 
8.499515e+1, 2.2520228e+2, -668952.5, -788461.6, 27102.15, -0.022682998, -0.2707201, -663093.5, 69901.36, 0.0, 10.000794, 9.999207 
8.499699e+1, 2.3520173e+2, -715715.9, -770684.9, -2365.9063, 0.005048986, -0.2741583, -715614.25, -80616.0, 0.0, 9.999835, 9.999124 
8.499804e+1, 2.4520104e+2, -647203.8, -651216.1, -29169.055, 0.0024037873, -0.2688581, -619972.0, -82968.26, 0.0, 9.99947, 9.999449 
8.499842e+1, 2.5519994e+2, -524357.7, -551702.06, -40428.223, -0.018178824, -0.35433403, -495352.34, -56339.31, 0.0, 9.999685, 9.999357 
8.499913e+1, 2.6519912e+2, -422149.88, -545934.6, 6568.3735, -0.03447419, -0.32478964, -421802.3, -80779.97, 0.0000000019213902, 10.00011, 9.998529 
8.500035e+1, 2.751984e+2, -271396.34, -430250.47, 1834.0691, -0.033404857, -0.28286546, -271375.16, -28342.143, 0.0000006294421, 10.000502, 9.998463 
8.500194e+1, 2.8519744e+2, -137383.06, -277383.9, -14381.074, 0.03006411, -0.23324317, -135921.1, 9121.255, 0.0000062489003, 10.00062, 9.998766 
8.5003775e+1, 2.95196e+2, -11106.916, -156585.83, -45647.785, 0.15917912, -0.29142362, 2029.9851, 49083.785, 0.000027811611, 10.000761, 9.998858 
8.5004514e+1, 3.0519515e+2, -39746.51, -253861.48, 35530.37, 0.087576516, -0.21298353, -34004.563, -34004.563, 0.00011222166, 10.000694, 9.997908 
8.500574e+1, 3.1519353e+2, -109207.59, -205560.61, 56588.76, -0.011689091, -0.18199882, -83065.44, -83065.44, 0.00032900518, 9.9997835, 9.998676 
9.4988465e+1, 1.2519817e+2, -1883210.5, -1719419.6, -38248.184, -0.121026866, -0.18253477, -1710928.1, 2116.978, 0.0016362383, 9.998425, 10.000703 
9.499035e+1, 1.3520156e+2, -1642879.0, -1441748.9, 14811.943, -0.026948381, -0.046031173, -1440663.9, 174345.13, 0.0009229167, 9.998979, 10.001677 
9.4992375e+1, 1.4520107e+2, -1622494.5, -1490273.6, 23375.635, 0.05375553, -0.21031523, -1486262.8, 30749.627, 0.00036888671, 9.998891, 10.0007105 
9.4992083e+1, 1.552019e+2, -1572605.6, -1441132.8, 41445.56, -0.09842837, -0.22195491, -1429158.1, -10154.253, 0.00007923838, 9.998682, 10.000471 
9.499224e+1, 1.6520263e+2, -1454055.1, -1347065.8, -19999.877, -0.12798315, -0.18136789, -1343449.4, -22454.291, 0.0000051224774, 9.998892, 10.000336 
9.49929e+1, 1.752024e+2, -1265576.4, -1211308.4, -10648.53, -0.048679434, -0.27316946, -1209293.6, 13701.17, 0.00000007826353, 9.999538, 10.000282 
9.4993854e+1, 1.852023e+2, -1186549.4, -1153955.0, -3965.9353, 0.029379623, -0.2902092, -1153479.4, -28484.75, 0.0, 9.999532, 10.000014 
9.4994974e+1, 1.9520244e+2, -1175118.6, -1106401.1, 736.93536, 0.08341309, -0.3119769, -1106393.3, -79399.46, 0.0, 9.998972, 9.999938 
9.4995385e+1, 2.0520255e+2, -1062989.6, -1055537.1, -5240.4297, 0.051617436, -0.26416156, -1052833.3, -123840.37, 0.0, 9.999315, 9.999442 
9.499509e+1, 2.152023e+2, -790546.75, -885504.9, 8444.92, -0.066851266, -0.26383978, -789801.56, 41193.727, 0.0, 10.000559, 9.999342 
9.499534e+1, 2.2520192e+2, -714830.75, -856221.75, -19605.984, -0.11537784, -0.20383076, -712162.44, 20837.723, 0.0, 10.000676, 9.998796 
9.4996226e+1, 2.3520125e+2, -760544.2, -840721.9, -25125.088, -0.089512795, -0.18239969, -753321.44, -118312.57, 0.0, 9.999725, 9.998698 
9.4997346e+1, 2.4520083e+2, -652357.2, -636456.2, -34174.496, -0.04524352, -0.1352783, -609319.56, -72306.516, 0.0, 9.99936, 9.999603 
9.499864e+1, 2.5520045e+2, -525488.25, -537589.7, -13978.738, -0.0008401173, -0.16863549, -516306.88, -77292.03, 0.0, 9.999599, 9.999501 
9.4999903e+1, 2.651996e+2, -421460.3, -521738.34, 8623.532, 0.0019394367, -0.15629508, -420724.13, -79702.01, 0.0000000017799018, 10.000025, 9.998729 
9.5001304e+1, 2.7519816e+2, -278418.7, -414091.06, 28836.684, -0.022415588, -0.20613006, -272543.94, -29507.48, 0.0000005677249, 10.000372, 9.9986315 
9.5002204e+1, 2.8519648e+2, -177540.94, -345712.22, -24525.182, -0.03886021, -0.21672854, -174037.31, -28984.725, 0.0000064583187, 10.000557, 9.998323 
9.500263e+1, 2.9519442e+2, -64786.125, -237635.31, -16633.566, -0.07215593, -0.2926246, -63200.004, -16128.237, 0.000029725905, 10.000625, 9.998366 
9.50036e+1, 3.0519554e+2, -14244.372, -183379.48, -1917.546, -0.10396199, -0.02337797, -14222.635, -14222.635, 0.0001135958, 10.000625, 9.998415 
9.500645e+1, 3.1519136e+2, -75430.805, -100878.984, 56443.82, 0.00895938, -0.30537963, -30294.65, -30294.65, 0.00032168903, 9.999635, 9.999464 
1.0498729e+2, 1.251986e+2, -1903089.5, -1790096.6, 94826.09, -0.066399924, -0.14413638, -1736212.6, -23172.271, 0.0015480418, 9.998527, 10.000178 
1.0498931e+2, 1.3520144e+2, -1793737.4, -1556465.3, 30507.78, 0.027927583, -0.020290319, -1552605.4, 62406.91, 0.00087241904, 9.998117, 10.001309 
1.0499159e+2, 1.4520091e+2, -1713360.9, -1512528.8, 49213.21, 0.13097541, -0.18314748, -1501117.6, 15898.685, 0.0003471946, 9.998196, 10.00088 
1.0499128e+2, 1.5520146e+2, -1536448.4, -1417665.4, 25198.676, -0.044809397, -0.22930601, -1412540.9, 6468.056, 0.000073446034, 9.998903, 10.000527 
1.0499136e+2, 1.6520208e+2, -1429868.9, -1333210.5, -8285.712, -0.10362764, -0.20446642, -1332505.4, -11505.062, 0.000004420773, 9.999061, 10.0003395 
1.04992084e+2, 1.7520198e+2, -1389794.3, -1275133.8, -19475.385, -0.034081522, -0.28206143, -1271916.1, -48917.61, 0.000000050630582, 9.998713, 10.000237 
1.0499325e+2, 1.8520175e+2, -1264384.0, -1225142.8, 19256.861, 0.04165087, -0.29673794, -1217271.6, -92271.87, 0.0, 9.999156, 9.999701 
1.04994714e+2, 1.9520144e+2, -1029640.2, -1068052.3, -10401.6455, 0.111832716, -0.32981652, -1027004.4, -1.0227339, 0.0, 10.000127, 9.999633 
1.0499546e+2, 2.0520146e+2, -920596.2, -997284.56, 9207.034, 0.085839, -0.2724883, -919506.25, 9497.781, 0.0, 10.000342, 9.999345 
1.0499562e+2, 2.1520147e+2, -917737.75, -953712.94, -16547.742, -0.018999241, -0.23616414, -911283.94, -80279.164, 0.0, 9.999723, 9.999272 
1.0499587e+2, 2.2520116e+2, -856671.75, -902162.25, -23643.797, -0.0674719, -0.17545602, -846608.9, -113600.21, 0.0, 9.999595, 9.99902 
1.04996346e+2, 2.3520045e+2, -723081.2, -798426.06, -7682.286, -0.048800085, -0.1756508, -722305.9, -87289.32, 0.0, 9.999882, 9.998923 
1.049972e+2, 2.4519995e+2, -559444.8, -630680.25, 35192.13, -0.02889782, -0.12883674, -544991.5, -7969.692, 0.0, 10.000172, 9.999253 
1.0499851e+2, 2.5519946e+2, -432385.53, -526736.4, -9131.807, -0.007781044, -0.13956633, -431509.84, 7516.603, 0.0, 10.000409, 9.999178 
1.0500022e+2, 2.6519865e+2, -362459.56, -473686.66, 10789.307, 0.023480885, -0.11662344, -361422.66, -20389.348, 0.00000000014537505, 10.000362, 9.998891 
1.05002575e+2, 2.7519736e+2, -308727.8, -411912.28, -384.76486, 0.09019219, -0.1641246, -308726.38, -65681.92, 0.00000042821608, 10.000108, 9.998772 
1.0500332e+2, 2.8519535e+2, -220302.28, -365470.13, -2561.1824, 0.0414569, -0.21558334, -220257.11, -75194.266, 0.0000059800022, 10.000234, 9.998358 
1.0500259e+2, 2.9519263e+2, -70416.41, -243184.13, 8161.64, -0.12453085, -0.36603937, -70031.695, -22943.418, 0.000029321069, 10.00058, 9.998361 
1.0500382e+2, 3.0519453e+2, 27038.973, -157053.66, 35693.4, -0.14507014, -0.016597908, 33717.24, 33717.24, 0.000109980174, 10.000893, 9.998462 
1.05007865e+2, 3.1518945e+2, 165667.4, 49915.258, 2384.5542, 0.12616216, -0.3955943, 165716.5, 165716.5, 0.0003078243, 10.001146, 9.999771 
1.14985526e+2, 1.2520036e+2, -1979369.4, -1966002.8, 40757.477, -0.1780685, -0.09170113, -1931384.3, -218367.72, 0.0014882531, 9.99859, 9.998947 
1.1498767e+2, 1.3520037e+2, -1863481.0, -1711247.3, 23931.65, 0.012652475, -0.13630186, -1707573.8, -92552.63, 0.000840427, 9.998158, 10.000226 
1.1499052e+2, 1.4519991e+2, -1722977.1, -1518273.1, 58545.695, 0.16280358, -0.23958811, -1502711.9, 14315.015, 0.00033535642, 9.998131, 10.000874 
1.1499064e+2, 1.5520188e+2, -1535615.6, -1416373.6, 69215.33, -0.04000382, -0.14383526, -1384641.3, 34364.56, 0.0000716502, 9.998916, 10.0005245 
1.14991e+2, 1.6520284e+2, -1428303.5, -1328017.6, -33874.26, -0.08361245, -0.08722919, -1317648.0, 3346.4155, 0.0000041980056, 9.9990425, 10.000391 
1.14991836e+2, 1.7520215e+2, -1385061.9, -1262633.0, -18197.125, 0.033414073, -0.23252115, -1259985.5, -36987.156, 0.000000024917117, 9.998701, 10.000329 
1.1499285e+2, 1.85202e+2, -1308768.9, -1288983.9, 42516.766, 0.05747007, -0.22294362, -1255224.0, -130224.8, 0.0, 9.999036, 9.999323 
1.1499391e+2, 1.9520225e+2, -1063942.1, -1125796.8, 39164.23, -0.019884957, -0.16331033, -1044966.1, -17968.287, 0.0, 10.000068, 9.999268 
1.1499486e+2, 2.0520191e+2, -955897.25, -1045197.7, -28702.977, -0.039733786, -0.10744939, -947467.3, -18464.959, 0.0, 10.00023, 9.999072 
1.1499568e+2, 2.1520075e+2, -952974.9, -999060.7, -27741.9, -0.015363082, -0.16308178, -939954.1, -108938.93, 0.0, 9.999598, 9.999024 
1.1499635e+2, 2.2519995e+2, -817804.25, -788401.4, -25881.104, -0.004964415, -0.18198536, -773337.7, -40316.688, 0.0, 9.999457, 9.999864 
1.1499691e+2, 2.351993e+2, -683667.1, -687648.7, 18157.242, -0.011406413, -0.26538533, -667391.9, -32369.73, 0.0, 9.999748, 9.99975 
1.14997245e+2, 2.4519834e+2, -639128.0, -765163.4, 30773.654, -0.072093435, -0.26026827, -632015.5, -94984.73, 0.0, 10.000051, 9.998384 
1.1499748e+2, 2.5519687e+2, -511964.53, -660201.9, 9730.149, -0.18328202, -0.2754427, -511328.56, -72280.15, 0.0, 10.000276, 9.998325 
1.1499968e+2, 2.651962e+2, -364446.22, -461923.75, -10644.809, -0.0956308, -0.20679669, -363297.3, -22240.975, 0.0, 10.000292, 9.999013 
1.1500373e+2, 2.7519596e+2, -316182.53, -402253.63, 8817.896, 0.16259935, -0.15986419, -315288.44, -72230.914, 0.0000002594802, 9.999989, 9.998904 
1.1500482e+2, 2.8519404e+2, -197887.28, -296453.63, 227.78073, 0.13700227, -0.23711836, -197886.75, -52813.0, 0.000005001763, 10.000147, 9.998873 
1.1500321e+2, 2.9519048e+2, -68834.52, -200240.84, 35203.465, -0.15790114, -0.51303685, -59997.836, -12893.898, 0.000026475647, 10.000416, 9.998736 
1.150048e+2, 3.0519208e+2, -12739.61, -215305.27, 42751.695, -0.16717476, -0.18637657, -4086.463, -4086.463, 0.000100772006, 10.000811, 9.998094 
1.15009084e+2, 3.1518784e+2, 134924.25, 23353.012, 47311.86, 0.061710462, -0.4585878, 152285.38, 152285.38, 0.00028477798, 10.0009985, 9.999657 
1.2498493e+2, 1.2519923e+2, -1979644.0, -1949585.0, -49198.96, -0.081383176, -0.14641152, -1913171.1, -200145.38, 0.0014562852, 9.998543, 9.999069 
1.24986425e+2, 1.351992e+2, -1669276.3, -1630755.0, -45557.22, 0.018349227, -0.182524, -1600554.3, 14476.711, 0.0008261713, 9.999548, 10.00011 
1.24989174e+2, 1.4519921e+2, -1568400.8, -1449183.8, 42809.66, 0.17558925, -0.23266833, -1435404.0, 81629.0, 0.00033346904, 9.999214, 10.000823 
1.2498955e+2, 1.5520118e+2, -1675768.5, -1490245.1, 14794.476, 0.015476374, -0.13092715, -1489072.8, -70059.93, 0.00007407354, 9.99798, 10.0004635 
1.2499033e+2, 1.6520211e+2, -1552202.8, -1410406.4, -40168.742, -0.0102796145, -0.06448402, -1399817.9, -78815.36, 0.000004716059, 9.998275, 10.000209 
1.2499162e+2, 1.7520154e+2, -1234590.6, -1214913.6, -70231.234, 0.09471609, -0.17781131, -1153835.1, 69171.234, 0.000000012759114, 9.999816, 10.000135 
1.2499274e+2, 1.8520114e+2, -1155674.0, -1227404.9, 1816.637, 0.098668136, -0.17737862, -1155628.0, -30618.736, 0.0, 10.000134, 9.999209 
1.2499371e+2, 1.9520095e+2, -1190288.1, -1202277.0, -11309.195, 0.0038923272, -0.14865002, -1183482.9, -156471.78, 0.0, 9.999262, 9.999131 
1.2499455e+2, 2.0520042e+2, -1127769.3, -1123891.0, -42717.14, -0.024820358, -0.107309915, -1083069.0, -154052.03, 0.0, 9.999037, 9.999104 
1.24995284e+2, 2.1519937e+2, -994182.7, -1014816.6, -47089.926, 0.008846231, -0.15510607, -956292.8, -125264.12, 0.0, 9.999303, 9.999053 
1.2499623e+2, 2.2519845e+2, -805614.44, -786864.3, -26169.885, 0.041342467, -0.1866448, -768440.94, -35405.535, 0.0, 9.9995575, 9.999817 
1.2499745e+2, 2.3519753e+2, -680892.9, -686593.5, -78250.29, 0.07605262, -0.29101753, -605441.0, 29597.434, 0.0, 9.999791, 9.99972 
1.249979e+2, 2.4519648e+2, -665067.56, -771855.0, -43139.01, 0.0084544355, -0.29861036, -649818.25, -112770.72, 0.0, 9.999836, 9.9984455 
1.2499783e+2, 2.5519508e+2, -590479.06, -696584.1, -19053.002, -0.137, -0.31517768, -587161.5, -148097.05, 0.0, 9.999709, 9.99836 
1.24999695e+2, 2.651944e+2, -427725.88, -485227.0, 17632.234, -0.09177205, -0.24866644, -422749.72, -81677.67, 0.0, 9.99983, 9.999063 
1.2500341e+2, 2.751942e+2, -281220.88, -375351.13, 3476.4773, 0.13118295, -0.20799045, -281092.66, -38019.305, 0.00000012209664, 10.000208, 9.998965 
1.2500502e+2, 2.8519258e+2, -122052.21, -235625.53, 20712.432, 0.13119347, -0.26430458, -118392.78, 26693.41, 0.000003888246, 10.000578, 9.999076 
1.250049e+2, 2.951898e+2, 21825.77, -130170.05, 4512.4883, -0.045139756, -0.48892078, 21959.62, 69068.57, 0.00002250982, 10.000937, 9.998959 
1.250068e+2, 3.0519056e+2, -3158.9604, -238521.3, 36869.715, -0.041434627, -0.24437718, 2481.5364, 2481.5364, 0.000088219014, 10.000945, 9.997903 
1.2500949e+2, 3.1518722e+2, 29676.926, -51939.785, -6840.9824, 0.05043642, -0.40935898, 30246.354, 30246.354, 0.00025421134, 10.00037, 9.999454 
1.3498461e+2, 1.2519507e+2, -1887603.6, -1753219.6, -62281.855, -0.041936472, -0.32184303, -1728794.0, -15724.658, 0.0014504807, 9.998518, 10.000429 
1.34985e+2, 1.3519801e+2, -1595265.5, -1486336.9, 485.64014, -0.11778223, -0.16099772, -1486334.8, 128706.56, 0.0008289551, 9.999596, 10.001073 
1.3498709e+2, 1.4519894e+2, -1577352.3, -1480423.3, -22943.469, 0.00025312495, -0.15277924, -1475266.8, 41766.35, 0.0003411424, 9.999252, 10.000598 
1.3498765e+2, 1.5519935e+2, -1691263.6, -1520732.3, -15928.996, -0.008621149, -0.1908208, -1519257.1, -100226.8, 0.00008049032, 9.997963, 10.000269 
1.3498884e+2, 1.651999e+2, -1597982.0, -1474019.6, 2887.9927, -0.015352567, -0.13265601, -1473952.4, -152927.19, 0.0000062176173, 9.998154, 9.999824 
1.3499077e+2, 1.7520012e+2, -1269332.5, -1273796.9, 3020.7617, -0.006028788, -0.124623, -1267808.6, -44786.133, 0.000000017143847, 9.999776, 9.9997425 
1.3499236e+2, 1.8519934e+2, -1155148.0, -1218012.1, -43898.55, 0.008944538, -0.14883246, -1132588.9, -7560.224, 0.0, 10.000082, 9.999306 
1.3499357e+2, 1.9519757e+2, -1191276.5, -1190742.3, -27646.646, 0.023865689, -0.2914573, -1163361.5, -136318.0, 0.0, 9.999195, 9.999245 
1.3499409e+2, 2.0519699e+2, -1122629.0, -1088694.3, -47975.51, -0.004453388, -0.27617246, -1054774.1, -125725.945, 0.0, 9.998926, 9.999403 
1.3499393e+2, 2.1519724e+2, -993897.2, -983211.25, -21261.361, -0.08908752, -0.22446842, -966631.8, -135585.72, 0.0, 9.999165, 9.999339 
1.349951e+2, 2.2519663e+2, -891165.7, -938679.75, -31710.629, -0.059057806, -0.18760458, -875300.0, -142248.17, 0.0, 9.999437, 9.998835 
1.3499744e+2, 2.3519507e+2, -765124.56, -831898.75, -55727.2, 0.06378827, -0.2613805, -733548.44, -98481.96, 0.0, 9.999656, 9.998788 
1.3499875e+2, 2.4519424e+2, -607753.94, -629453.2, -60225.89, 0.078862675, -0.25292313, -557408.2, -20334.797, 0.0, 9.999736, 9.999471 
1.3499914e+2, 2.5519395e+2, -540379.5, -559996.44, -7293.1343, -0.008578625, -0.26389042, -537965.25, -98890.44, 0.0, 9.99957, 9.999362 
1.349999e+2, 2.6519322e+2, -445297.78, -502238.03, 18754.84, -0.08589731, -0.24432641, -439675.5, -98594.94, 0.0, 9.99975, 9.998981 
1.3500106e+2, 2.751919e+2, -305858.9, -393021.84, 30811.758, -0.15792176, -0.3098394, -296067.06, -52973.887, 0.000000046518082, 10.00007, 9.998907 
1.350035e+2, 2.8519088e+2, -129128.34, -243484.9, 21465.416, -0.111530125, -0.3015645, -125231.914, 19869.617, 0.0000029362805, 10.000542, 9.99904 
1.3500714e+2, 2.9519024e+2, 9739.947, -135056.28, 34522.063, 0.04529175, -0.31091863, 17549.438, 64655.13, 0.000019015239, 10.000837, 9.998978 
1.3500929e+2, 3.0518985e+2, -8973.572, -229382.84, 6263.719, 0.08850637, -0.19436236, -8795.71, -8795.71, 0.000075927965, 10.000869, 9.9979925 
1.3500823e+2, 3.151875e+2, -18270.537, -114386.38, 13128.094, -0.18241362, -0.25694036, -16509.68, -16509.68, 0.0002226974, 10.0002165, 9.999097 
1.4498405e+2, 1.2519363e+2, -1822776.9, -1642800.5, 45121.133, 0.06351849, -0.3083897, -1632122.0, 80964.54, 0.0014659849, 9.998638, 10.001127 
1.4498337e+2, 1.3519683e+2, -1836806.4, -1565398.4, -4730.853, -0.13887826, -0.15600123, -1565316.0, 49737.043, 0.0008466132, 9.9977865, 10.001393 
1.4498547e+2, 1.4519773e+2, -1773166.3, -1599811.0, -16607.676, -0.015905753, -0.15414612, -1598234.4, -81190.47, 0.00035647568, 9.998014, 10.000378 
1.4498666e+2, 1.5519774e+2, -1502764.6, -1450910.5, -38923.473, 0.03811779, -0.21250686, -1430069.6, -11024.209, 0.00008921642, 9.999345, 10.000085 
1.4498827e+2, 1.6519801e+2, -1372484.5, -1389247.8, 41901.098, 0.040505968, -0.16343282, -1338135.0, -17091.39, 0.000008328298, 9.999804, 9.999605 
1.449905e+2, 1.751982e+2, -1336755.0, -1331323.0, 23171.879, 0.016242182, -0.1394727, -1310708.5, -87666.37, 0.0000000715251, 9.999415, 9.999521 
1.4499216e+2, 1.8519746e+2, -1257907.9, -1258321.8, -29588.152, 0.02717846, -0.15103212, -1228526.0, -103478.0, 0.0, 9.999343, 9.999394 
1.4499311e+2, 1.9519573e+2, -1139298.0, -1160874.4, -44720.223, 0.055432454, -0.29192477, -1104083.1, -77021.125, 0.0, 9.999521, 9.9993105 
1.4499381e+2, 2.0519508e+2, -1015954.7, -1032168.1, -29743.822, 0.045734923, -0.28841832, -993232.6, -64165.844, 0.0, 9.9996395, 9.99944 
1.4499417e+2, 2.1519524e+2, -923898.1, -946203.1, -54637.16, 0.0046578883, -0.25100964, -879286.9, -48222.113, 0.0, 9.999639, 9.999358 
1.4499515e+2, 2.2519474e+2, -869515.3, -929952.0, -12054.529, 0.0012740374, -0.20417556, -867199.6, -134130.02, 0.0, 9.999609, 9.998811 
1.4499669e+2, 2.351934e+2, -780351.2, -845609.25, 3997.3833, 0.03596038, -0.24832551, -780107.25, -145024.36, 0.0, 9.999578, 9.998737 
1.449984e+2, 2.4519269e+2, -594628.0, -619236.0, 24003.143, 0.07510413, -0.22785321, -579959.06, -42870.164, 0.0, 9.999806, 9.999512 
1.450003e+2, 2.5519237e+2, -432142.25, -500779.63, -26445.266, 0.12335485, -0.24330126, -423135.16, 15954.741, 0.0, 10.000289, 9.999421 
1.4500105e+2, 2.6519153e+2, -358747.66, -456618.25, -9420.203, 0.033571485, -0.24392937, -357849.2, -16752.229, 0.0, 10.00032, 9.99903 
1.4500079e+2, 2.7518994e+2, -319225.06, -400229.47, -16400.059, -0.17814113, -0.334045, -316030.72, -72918.75, 0.00000002138944, 9.99996, 9.998931 
1.4500324e+2, 2.8518915e+2, -223671.39, -295323.38, 17986.39, -0.1514989, -0.30393937, -219409.83, -74290.76, 0.0000023054517, 9.99991, 9.998989 
1.450083e+2, 2.951892e+2, -77722.29, -169864.77, -6083.4443, 0.1188097, -0.23951052, -77322.38, -30204.895, 0.000016570593, 10.000212, 9.999028 
1.4501083e+2, 3.0518836e+2, -38683.25, -206350.75, -11280.06, 0.1855514, -0.18978207, -37927.773, -37927.773, 0.0000664134, 10.000529, 9.9983015 
1.4500861e+2, 3.1518668e+2, 52403.14, -61734.07, -35498.73, -0.17029788, -0.20869552, 62543.06, 62543.06, 0.0001967113, 10.000638, 9.99925 
1.5498246e+2, 1.2519535e+2, -1809613.9, -1645324.6, -22320.05, -0.03947945, -0.06448677, -1642346.4, 70726.41, 0.0014879738, 9.998748, 10.001069 
1.549811e+2, 1.3519578e+2, -1861484.0, -1622408.4, -29173.229, -0.18121777, -0.1517605, -1618900.0, -3834.9077, 0.0008684092, 9.997803, 10.001003 
1.5498377e+2, 1.451956e+2, -1788691.1, -1619015.8, 15314.006, -0.0249453, -0.23120454, -1617644.6, -100579.51, 0.00037251608, 9.997967, 10.000263 
1.5498601e+2, 1.5519644e+2, -1514775.3, -1464981.9, 25474.553, -0.0016327384, -0.19518784, -1454258.4, -35201.254, 0.00009664872, 9.9993105, 9.999996 
1.549882e+2, 1.6519663e+2, -1385352.1, -1405249.1, 13247.681, 0.017755099, -0.14736737, -1378733.4, -57677.574, 0.000009881803, 9.999752, 9.999528 
1.5499048e+2, 1.7519587e+2, -1351283.5, -1345798.6, 24513.621, 0.038165934, -0.20609276, -1323874.5, -100810.8, 0.00000020107916, 9.999348, 9.999458 
1.5499175e+2, 1.8519555e+2, -1268355.9, -1262521.1, -36664.656, 0.020593187, -0.17370011, -1228658.0, -103591.35, 0.0, 9.999264, 9.999405 
1.5499195e+2, 1.9519544e+2, -1152428.4, -1166184.4, -21480.459, -0.044023827, -0.15634383, -1136751.6, -109684.78, 0.0, 9.999435, 9.999311 
1.5499328e+2, 2.0519476e+2, -1049436.5, -1077192.5, -41805.363, -0.0011608255, -0.14151762, -1019265.75, -90193.4, 0.0, 9.999527, 9.999192 
1.549955e+2, 2.1519344e+2, -959390.7, -986081.4, -40561.195, 0.14024787, -0.22731493, -930035.8, -98951.51, 0.0, 9.999495, 9.999155 
1.5499596e+2, 2.2519277e+2, -827119.6, -819617.75, -26907.68, 0.09175623, -0.22820514, -796200.8, -63112.26, 0.0, 9.999501, 9.999625 
1.5499483e+2, 2.3519252e+2, -743415.06, -742493.56, 18134.754, -0.13942896, -0.24845251, -724813.75, -89725.87, 0.0, 9.9994545, 9.99951 
1.5499645e+2, 2.4519177e+2, -673402.8, -761043.7, 27700.285, -0.12862803, -0.22224273, -665381.8, -128287.36, 0.0, 9.999712, 9.998583 
1.5500079e+2, 2.551903e+2, -517354.34, -646678.56, 7094.746, 0.11221059, -0.25871703, -516966.28, -77855.83, 0.0, 10.000148, 9.99849 
1.5500264e+2, 2.6518923e+2, -359186.5, -439042.53, -35850.332, 0.12927881, -0.24364176, -345453.63, -4332.3223, 0.0, 10.000245, 9.999183 
1.5500209e+2, 2.7518827e+2, -332222.25, -397703.7, -12093.618, -0.07192311, -0.29055282, -330060.1, -86929.79, 0.000000019825112, 9.999831, 9.999008 
1.5500383e+2, 2.8518727e+2, -236277.27, -312122.84, 17872.313, -0.11703778, -0.2766822, -232276.83, -87137.63, 0.0000019865888, 9.999866, 9.998898 
1.5500791e+2, 2.951865e+2, -92459.22, -176982.52, 22280.783, 0.015468352, -0.2866964, -86945.555, -39799.652, 0.000014949104, 10.0001, 9.99904 
1.5501097e+2, 3.0518606e+2, -13807.798, -130192.08, -15946.348, 0.11855482, -0.22616196, -11662.461, -11662.461, 0.000059797247, 10.000448, 9.998846 
1.5500961e+2, 3.1518465e+2, 69554.3, 19891.416, 12657.338, -0.19741262, -0.27038506, 72594.14, 72594.14, 0.00017773658, 10.000463, 9.999879 
1.6498229e+2, 1.2519516e+2, -1845069.6, -1737114.6, 30620.459, 0.07769499, -0.026694825, -1729034.3, -15962.182, 0.0014964563, 9.998827, 10.000393 
1.6498007e+2, 1.3519454e+2, -1666150.3, -1628890.8, -71042.836, -0.1403893, -0.1360917, -1574075.6, 41002.137, 0.0008776996, 9.9995575, 10.00012 
1.6498262e+2, 1.4519349e+2, -1573472.6, -1506678.4, 11932.96, -0.00062896556, -0.261907, -1504610.5, 12476.178, 0.00037921302, 9.99943, 10.000321 
1.6498506e+2, 1.5519461e+2, -1587316.0, -1495157.8, 465.98776, 0.009321695, -0.2023898, -1495155.4, -76081.7, 0.00009882513, 9.9987955, 10.000038 
1.649876e+2, 1.6519482e+2, -1498599.1, -1462372.3, 23455.02, 0.030846346, -0.15053463, -1450850.8, -129779.47, 0.000009884257, 9.998981, 9.999503 
1.6499025e+2, 1.7519397e+2, -1274443.5, -1310287.6, 7584.951, 0.06438122, -0.22167665, -1272904.5, -49823.617, 0.0000002904704, 9.999872, 9.999446 
1.6499157e+2, 1.8519382e+2, -1182774.4, -1209650.9, -40238.547, 0.05948783, -0.1762069, -1153789.5, -28706.87, 0.0, 9.999819, 9.999479 
1.6499165e+2, 1.9519417e+2, -1225911.0, -1190690.9, -46599.285, 0.017308487, -0.123950385, -1158485.3, -131406.55, 0.0, 9.998892, 9.999385 
1.6499309e+2, 2.0519339e+2, -1155763.1, -1144730.6, -1954.4465, 0.06748248, -0.11562235, -1144394.6, -215309.44, 0.0, 9.998886, 9.999035 
1.649957e+2, 2.1519147e+2, -933988.3, -992086.06, -24330.03, 0.20797893, -0.24265108, -925145.4, -94042.94, 0.0, 9.999749, 9.998995 
1.6499622e+2, 2.2519054e+2, -751557.9, -781806.56, -33899.746, 0.14982308, -0.2617798, -729561.6, 3547.3337, 0.0, 10.000014, 9.999638 
1.6499472e+2, 2.3519045e+2, -706898.5, -719921.3, -77783.79, -0.09712274, -0.26701987, -635354.06, -247.6804, 0.0, 9.999692, 9.999548 
1.6499624e+2, 2.451897e+2, -684477.56, -760935.4, -11747.654, -0.1105632, -0.2436299, -682713.25, -145600.55, 0.0, 9.999619, 9.998625 
1.6500062e+2, 2.551882e+2, -560922.06, -657790.94, 9769.834, 0.10573045, -0.28877997, -559946.56, -120817.89, 0.0, 9.999817, 9.998566 
1.6500281e+2, 2.6518726e+2, -417240.84, -507579.13, -2477.7617, 0.14285426, -0.2471355, -417172.94, -76033.73, 0.0, 10.0, 9.998835 
1.6500293e+2, 2.7518648e+2, -294849.28, -409198.1, -44951.395, 0.019728523, -0.24359077, -279294.47, -36146.094, 0.000000024295247, 10.000216, 9.998731 
1.6500469e+2, 2.8518516e+2, -149272.19, -271837.94, 22441.303, -0.038096447, -0.24925728, -145292.48, -131.06206, 0.0000019697127, 10.000485, 9.998874 
1.6500844e+2, 2.9518363e+2, 33112.29, -109873.32, 224.77617, 0.025555724, -0.33166257, 33112.64, 80287.664, 0.000013995548, 10.000938, 9.999101 
1.6501172e+2, 3.0518386e+2, 40772.355, -100672.18, -48230.14, 0.14628206, -0.21336567, 55652.574, 55652.574, 0.000055183133, 10.000761, 9.998921 
1.6501063e+2, 3.1518158e+2, 20885.248, 42292.95, -84273.195, -0.09587524, -0.35018727, 116539.34, 116539.34, 0.00016346599, 9.999879, 10.000333 
1.7498253e+2, 1.251931e+2, -1937261.1, -1926013.6, 24501.076, 0.14631517, -0.19995615, -1906499.1, -193414.63, 0.0014785845, 9.998817, 9.999096 
1.7497972e+2, 1.3519324e+2, -1767519.8, -1825473.3, -36655.64, -0.16700885, -0.10172558, -1749770.8, -134681.05, 0.00086354057, 9.999517, 9.998776 
1.749816e+2, 1.4519149e+2, -1567251.8, -1490296.6, -28077.71, -0.08600741, -0.23488726, -1481141.4, 35965.895, 0.00037008742, 9.999398, 10.000457 
1.7498341e+2, 1.5519224e+2, -1575667.9, -1467525.4, -6044.073, -0.071920425, -0.23271915, -1467188.6, -48093.746, 0.000094032526, 9.998779, 10.0002365 
1.7498602e+2, 1.651927e+2, -1497021.9, -1455452.0, 42861.617, -0.058088604, -0.1701338, -1428601.5, -107512.35, 0.000008393363, 9.998953, 9.999572 
1.749894e+2, 1.7519252e+2, -1275789.1, -1303298.0, 54725.566, -0.044128705, -0.177175, -1233116.0, -10022.992, 0.00000020811186, 9.99983, 9.999516 
1.7499126e+2, 1.8519236e+2, -1179883.8, -1190935.6, -87697.93, 0.013061474, -0.14621837, -1097537.9, 27556.861, 0.0, 9.999754, 9.999645 
1.7499171e+2, 1.9519201e+2, -1227453.6, -1170396.1, -66412.06, 0.09975647, -0.17946748, -1126644.5, -99548.22, 0.0, 9.998791, 9.999575 
1.7499276e+2, 2.0519103e+2, -1180436.5, -1170740.9, 13743.285, 0.118024126, -0.19640695, -1161015.5, -231911.19, 0.0, 9.99877, 9.998914 
1.7499436e+2, 2.1518922e+2, -964762.3, -1024884.3, 21755.64, 0.07231231, -0.29973334, -957715.75, -126595.46, 0.0, 9.999617, 9.998833 
1.7499547e+2, 2.25188e+2, -820975.75, -899509.56, -60000.79, 0.044891648, -0.30274075, -788535.0, -55403.855, 0.0, 9.999896, 9.998886 
1.7499594e+2, 2.351871e+2, -776985.3, -835256.7, -75574.81, 0.025095291, -0.31308493, -725124.44, -89985.164, 0.0, 9.999556, 9.998821 
1.7499724e+2, 2.4518648e+2, -630417.75, -628819.06, -17361.023, 0.00041813627, -0.2913466, -612239.0, -75095.49, 0.0, 9.999533, 9.999571 
1.7499937e+2, 2.55186e+2, -519544.75, -538713.5, 30598.055, -0.030951217, -0.33092436, -497065.1, -57920.043, 0.0, 9.999676, 9.999452 
1.7500134e+2, 2.651855e+2, -472244.3, -616960.1, -9699.561, -0.0361852, -0.2494772, -471597.1, -130445.805, 0.0, 9.9999695, 9.998101 
1.750029e+2, 2.7518466e+2, -358105.53, -519995.0, -23687.098, -0.039682012, -0.18318386, -354710.9, -111544.95, 0.000000035492793, 10.000118, 9.998022 
1.7500535e+2, 2.851829e+2, -148883.48, -264777.72, 24307.094, -0.054750282, -0.20249099, -143991.9, 1192.9385, 0.0000021240596, 10.000462, 9.998927 
1.7500913e+2, 2.951806e+2, 18093.957, -110941.67, 32867.438, -0.036403656, -0.3673509, 25983.441, 73188.01, 0.000013429294, 10.000823, 9.99914 
1.7501266e+2, 3.0518168e+2, 18127.227, -143932.38, -90829.3, 0.13602437, -0.15371189, 58817.555, 58817.555, 0.000050919698, 10.000741, 9.998637 
1.7501079e+2, 3.1517786e+2, 27918.607, 95875.484, -32627.37, -0.13830657, -0.41241953, 109004.16, 109004.16, 0.00014908816, 9.999739, 10.000756 
1.8498123e+2, 1.2518957e+2, -2013631.9, -1945172.3, -79049.14, 0.17715807, -0.28212726, -1893260.1, -180142.08, 0.0014297328, 9.998209, 9.999258 
1.8497941e+2, 1.3519087e+2, -1751736.9, -1781664.9, -81195.21, -0.13397095, -0.09857887, -1684138.3, -69027.58, 0.00082590414, 9.99947, 9.999096 
1.8498181e+2, 1.45189e+2, -1525447.4, -1525524.1, -41980.594, -0.019494433, -0.23778673, -1483505.1, 33624.758, 0.00034715154, 9.999915, 9.99996 
1.8498343e+2, 1.5518922e+2, -1453682.4, -1460219.9, -99737.84, 0.00893529, -0.24317487, -1357159.8, 61964.563, 0.0000844504, 9.999825, 9.999784 
1.8498556e+2, 1.651895e+2, -1440544.4, -1390107.6, -26537.291, -0.005189567, -0.19156915, -1378717.4, -57597.535, 0.000006352812, 9.99921, 9.999878 
1.8498829e+2, 1.7518942e+2, -1493562.3, -1375897.5, -22442.092, -0.048610628, -0.22100684, -1371762.4, -148641.39, 0.000000056960435, 9.998211, 9.999788 
1.8499038e+2, 1.8518922e+2, -1351812.5, -1280223.5, -123505.945, 0.012619834, -0.2028955, -1187429.6, -62306.992, 0.0, 9.998615, 9.999578 
1.849917e+2, 1.9518888e+2, -1020205.4, -1077079.9, -149549.4, 0.1552035, -0.2300179, -896413.56, 130711.664, 0.0, 10.000248, 9.999516 
1.8499275e+2, 2.0518799e+2, -911609.1, -1031097.5, -56471.0, 0.15940712, -0.239057, -889144.2, 39988.223, 0.0, 10.000557, 9.999012 
1.8499352e+2, 2.1518642e+2, -959565.3, -1012527.1, -56857.41, 0.032722052, -0.33013618, -923324.56, -92178.76, 0.0, 9.999592, 9.998932 
1.8499498e+2, 2.2518532e+2, -861164.9, -942778.25, -65901.195, 0.020979386, -0.31602, -824459.3, -91303.305, 0.0, 9.999731, 9.998668 
1.84997e+2, 2.3518445e+2, -596981.3, -773321.2, -69118.5, 0.11757257, -0.30150294, -573118.6, 62046.426, 0.0, 10.000902, 9.998596 
1.8499823e+2, 2.4518342e+2, -437437.0, -568601.2, -41467.57, 0.07914867, -0.2911867, -425426.75, 111746.875, 0.0, 10.000996, 9.999282 
1.8499877e+2, 2.5518215e+2, -481567.28, -549400.06, -111746.55, -0.07026891, -0.3818567, -398703.47, 40479.5, 0.0, 10.000054, 9.999195 
1.8500072e+2, 2.6518163e+2, -459773.0, -590990.1, -103016.69, -0.08846948, -0.30093697, -403246.72, -62057.367, 0.0, 9.999994, 9.998262 
1.8500382e+2, 2.751814e+2, -235480.2, -441274.97, -79402.516, 0.010812227, -0.17935751, -208405.94, 34790.43, 0.000000044067633, 10.00089, 9.998193 
1.8500638e+2, 2.8517973e+2, -121479.51, -260540.61, -16295.694, 0.00011301667, -0.197359, -119595.445, 25619.086, 0.000002141611, 10.000657, 9.998878 
1.8500888e+2, 2.9517698e+2, -214226.94, -234867.23, -50657.465, -0.0551906, -0.40286437, -172849.08, -125609.21, 0.000012353572, 9.999247, 9.999064 
1.850127e+2, 3.0517888e+2, -207029.88, -269165.56, -109309.71, 0.15051132, -0.0936221, -124458.71, -124458.71, 0.00004451732, 9.999268, 9.998482 
1.8501237e+2, 3.1517464e+2, 168369.28, 130882.46, -46680.125, 0.007470122, -0.37278834, 199928.45, 199928.45, 0.00012893318, 10.000791, 10.000519 
1.9497755e+2, 1.2518471e+2, -1912985.6, -1714229.4, -66352.85, -0.08680915, -0.25236267, -1694114.0, 19057.12, 0.0013506947, 9.998131, 10.000875 
1.949788e+2, 1.3518748e+2, -1622464.9, -1498358.9, -27732.541, -0.17520475, -0.12367382, -1492443.8, 122696.695, 0.00077082973, 9.999428, 10.001055 
1.9498281e+2, 1.4518596e+2, -1605637.6, -1682530.1, -63541.473, 0.046841606, -0.26800245, -1569816.6, -52661.813, 0.0003170448, 9.9998665, 9.99891 
1.9498466e+2, 1.5518565e+2, -1530463.8, -1612057.4, -91261.48, 0.11358605, -0.22009803, -1471295.4, -52135.266, 0.000073711046, 9.999793, 9.998757 
1.9498578e+2, 1.651854e+2, -1408772.0, -1317460.1, -76097.23, 0.062212903, -0.19810843, -1274373.4, 46788.19, 0.0000047225935, 9.999166, 10.000407 
1.9498654e+2, 1.751847e+2, -1462882.9, -1302094.0, -42012.42, -0.07938703, -0.34586465, -1291778.5, -68613.8, 0.0000000036456946, 9.998162, 10.000323 
1.9498846e+2, 1.8518445e+2, -1385552.0, -1332773.1, -75656.7, -0.07058329, -0.34219745, -1279035.5, -153869.34, 0.0, 9.998533, 9.999264 
1.9499126e+2, 1.9518463e+2, -1055645.4, -1130376.6, -75612.336, 0.055551454, -0.28325868, -1008669.94, 18496.35, 0.0, 10.000156, 9.999199 
1.9499263e+2, 2.0518428e+2, -907319.94, -986972.9, -103731.625, 0.063936025, -0.24195758, -836032.06, 93137.33, 0.0, 10.000411, 9.999381 
1.9499268e+2, 2.1518312e+2, -953251.75, -966871.2, -78316.93, -0.039254356, -0.3284203, -881449.06, -50270.637, 0.0, 9.999452, 9.999312 
1.9499435e+2, 2.2518258e+2, -865425.44, -915498.44, -35923.08, -0.040599238, -0.28955677, -846675.0, -113492.43, 0.0, 9.999584, 9.998923 
1.949975e+2, 2.3518248e+2, -603969.8, -748168.44, -12921.873, 0.048384044, -0.22347513, -602821.0, 32362.451, 0.0, 10.00074, 9.998843 
1.9499882e+2, 2.4518056e+2, -557967.8, -792274.6, -90252.65, 0.010282686, -0.24117166, -527234.56, 9968.42, 0.0, 10.000883, 9.9978 
1.9499831e+2, 2.5517678e+2, -604897.8, -769268.1, -133038.03, -0.15284751, -0.43494502, -530706.75, -91465.266, 0.0, 9.999902, 9.997757 
1.9500053e+2, 2.6517576e+2, -395812.78, -449108.75, -83337.7, -0.13658397, -0.38598758, -334966.28, 6285.4624, 0.0, 9.999947, 9.999267 
1.9500527e+2, 2.7517682e+2, -180840.48, -311213.53, -28838.11, 0.034710895, -0.23423146, -174746.44, 68493.43, 0.000000036761158, 10.000809, 9.999134 
1.9500743e+2, 2.851756e+2, -143557.4, -291977.38, -80745.836, 0.008123566, -0.23819238, -108099.66, 37152.105, 0.0000018181237, 10.000599, 9.998688 
1.9500735e+2, 2.9517284e+2, -247731.63, -269426.72, -86607.14, -0.16960382, -0.42605504, -171295.34, -124015.25, 0.000010151812, 9.999107, 9.99889 
1.9501142e+2, 3.051756e+2, -214165.95, -272616.16, -63872.867, 0.064204775, -0.022498583, -173149.69, -173149.69, 0.00003534469, 9.999229, 9.998468 
1.9501455e+2, 3.1517234e+2, 104874.3, 39147.367, 95948.54, 0.08012725, -0.21275127, 173431.39, 173431.39, 0.000103030594, 10.0006485, 9.999937 
2.0497641e+2, 1.25181e+2, -1788230.4, -1654053.5, 105961.98, -0.040563077, -0.23095727, -1595727.4, 117479.55, 0.0012481128, 9.998999, 10.000873 
2.0497853e+2, 1.3518335e+2, -1627821.5, -1463502.8, -51427.984, -0.12058281, -0.17865032, -1448734.3, 166444.6, 0.0007037624, 9.999213, 10.001415 
2.0498306e+2, 1.4518219e+2, -1665336.5, -1686850.9, -79600.125, 0.12043883, -0.31409347, -1595770.0, -78580.54, 0.00028324383, 9.999364, 9.999121 
2.0498478e+2, 1.5518236e+2, -1515436.3, -1582623.0, -51921.13, 0.15528147, -0.23777963, -1487188.5, -67997.57, 0.000063005726, 9.999808, 9.99895 
2.049856e+2, 1.6518232e+2, -1321754.1, -1295453.3, -23700.594, 0.10334831, -0.1959273, -1281499.3, 39691.824, 0.0000035155435, 9.999852, 10.000231 
2.0498593e+2, 1.7518157e+2, -1293653.1, -1243561.3, -73877.53, -0.010762106, -0.32477665, -1190599.5, 32595.662, 0.0000000004928599, 9.99942, 10.000126 
2.0498794e+2, 1.8518119e+2, -1248152.3, -1259600.9, -25545.752, -0.0130416285, -0.32869315, -1227697.3, -102498.93, 0.0, 9.999444, 9.999323 
2.0499139e+2, 1.9518113e+2, -1090554.0, -1143116.5, -27057.322, 0.07370641, -0.2977984, -1079115.3, -51914.363, 0.0, 9.999889, 9.999238 
2.0499279e+2, 2.0518096e+2, -974482.25, -1009225.0, -87054.47, 0.070426255, -0.24661765, -903082.9, 26119.816, 0.0, 9.9999075, 9.999474 
2.049924e+2, 2.1518038e+2, -946779.25, -952355.6, -106840.52, -0.005093684, -0.281845, -842690.5, -11484.236, 0.0, 9.999457, 9.999409 
2.0499416e+2, 2.251799e+2, -881912.06, -926313.44, -2731.7322, -0.0048159542, -0.24150856, -881744.6, -148534.5, 0.0, 9.999469, 9.998907 
2.0499796e+2, 2.3517929e+2, -732423.1, -816518.4, -28284.346, 0.07108685, -0.22544938, -723795.25, -88579.305, 0.0, 9.9998665, 9.998802 
2.0499949e+2, 2.4517733e+2, -664353.6, -874758.44, -82406.94, 0.029020203, -0.23147784, -635920.5, -98683.766, 0.0, 10.000288, 9.997519 
2.049989e+2, 2.5517395e+2, -495936.66, -747897.56, -62688.64, -0.118972756, -0.3548775, -481201.3, -41928.38, 0.0, 10.00079, 9.997475 
2.0500109e+2, 2.6517278e+2, -269508.6, -363210.84, 40168.01, -0.10567371, -0.3171573, -254646.69, 86636.66, 0.0, 10.000706, 9.999486 
2.0500582e+2, 2.7517322e+2, -276817.94, -332012.44, 3921.5881, 0.05655165, -0.25535712, -276540.72, -33266.617, 0.00000002096579, 10.000046, 9.999349 
2.0500796e+2, 2.8517157e+2, -221192.84, -361025.22, -58929.824, 0.029179206, -0.29591003, -199670.55, -54381.727, 0.0000012828043, 10.000223, 9.998387 
2.050077e+2, 2.951687e+2, 50479.598, -154800.89, -100743.734, -0.14286382, -0.46621153, 91659.8, 138979.03, 0.000007381431, 10.001291, 9.998621 
2.0501135e+2, 3.0517188e+2, 47544.7, -110052.85, -40833.383, 0.063135445, -0.024921112, 57496.203, 57496.203, 0.00002618385, 10.000868, 9.998811 
2.0501535e+2, 3.1516895e+2, -154762.7, -95440.22, 121806.82, 0.19613962, -0.21054018, 264.76514, 264.76514, 0.000078949044, 9.998937, 9.999834 
2.1497677e+2, 1.2517835e+2, -1912356.0, -1899890.9, 87194.445, 0.023458922, -0.22830947, -1818706.5, -105479.88, 0.0011286415, 9.998944, 9.999214 
2.1497825e+2, 1.351786e+2, -1704344.3, -1633469.9, -30955.654, -0.10597768, -0.26165837, -1621853.4, -6628.322, 0.00062779407, 9.999255, 10.000229 
2.1498215e+2, 1.4517789e+2, -1573559.6, -1491765.8, -80837.5, 0.050796773, -0.36287445, -1442068.8, 75163.08, 0.00024660726, 9.999339, 10.000472 
2.1498339e+2, 1.5517944e+2, -1419183.5, -1388777.0, -20185.105, -0.004179989, -0.286733, -1378710.3, 40505.28, 0.000052325075, 9.999825, 10.000273 
2.149846e+2, 1.6518024e+2, -1398529.1, -1440535.8, -53651.01, -0.0151680745, -0.17654979, -1361916.8, -40708.617, 0.000002586899, 9.99979, 9.999263 
2.1498604e+2, 1.7517996e+2, -1367367.6, -1380272.1, -74335.11, 0.02588966, -0.1656564, -1299205.3, -75992.305, 0.000000000052014764, 9.999356, 9.999211 
2.1498841e+2, 1.8517938e+2, -1235632.4, -1212344.4, -20625.209, 0.058814812, -0.16364448, -1200303.4, -75083.76, 0.0, 9.999345, 9.999698 
2.1499166e+2, 1.9517834e+2, -1070047.0, -1087873.8, 4755.651, 0.077597424, -0.2739316, -1068857.6, -41628.125, 0.0, 9.999828, 9.999647 
2.1499285e+2, 2.0517801e+2, -1001751.75, -1041056.3, -117935.82, 0.056503695, -0.24937615, -901842.06, 27390.277, 0.0, 9.9998, 9.999306 
2.1499223e+2, 2.1517813e+2, -977062.44, -984952.4, -111814.88, 0.0012728, -0.1999079, -869122.94, -37892.46, 0.0, 9.999324, 9.9992485 
2.1499397e+2, 2.2517714e+2, -926617.9, -979198.2, -643.1039, 0.005960388, -0.18755232, -926610.0, -193370.05, 0.0, 9.999306, 9.998618 
2.1499792e+2, 2.3517492e+2, -777280.8, -865940.9, 2194.3813, 0.05405763, -0.30555093, -777226.5, -141964.61, 0.0, 9.999685, 9.998544 
2.1499994e+2, 2.4517384e+2, -616411.44, -756147.8, -77139.99, 0.015466974, -0.25412178, -582202.06, -44928.383, 0.0, 10.000202, 9.998377 
2.1500018e+2, 2.551737e+2, -455743.13, -632742.3, -29397.76, -0.10264003, -0.13758913, -450988.2, -11711.324, 0.0, 10.000652, 9.998333 
2.1500197e+2, 2.6517275e+2, -322604.34, -454182.4, 1118.0125, -0.1196406, -0.09144873, -322594.84, 18689.135, 0.0, 10.000624, 9.998897 
2.1500504e+2, 2.751705e+2, -339138.9, -430519.97, -5034.6416, -0.060275882, -0.23929328, -338862.38, -95562.62, 0.00000000626477, 9.999912, 9.998735 
2.1500754e+2, 2.8516755e+2, -246408.73, -406246.0, -33234.805, -0.0685063, -0.3688966, -239773.67, -94447.19, 0.00000075455597, 10.000193, 9.998092 
2.1500966e+2, 2.9516453e+2, 12647.312, -215969.02, -47813.957, -0.11440473, -0.5185911, 22244.477, 69601.49, 0.0000049684672, 10.001214, 9.9982395 
2.1501215e+2, 3.0516768e+2, 86584.664, -30051.605, -125793.234, 0.02880762, -0.0879765, 166920.56, 166920.56, 0.000019575336, 10.000867, 9.999365 
2.150141e+2, 3.1516448e+2, -161197.03, -85497.21, 113639.32, 0.109881565, -0.3571448, -3570.199, -3570.199, 0.00006230811, 9.998835, 9.999956 
2.2497742e+2, 1.2517513e+2, -1757189.1, -1862204.8, 121055.78, 0.14912085, -0.26622736, -1677744.0, 35512.12, 0.0009987325, 10.000144, 9.998899 
2.249784e+2, 1.3517536e+2, -1713503.6, -1655661.8, 97.33259, -0.0041395146, -0.2857675, -1655661.6, -40405.918, 0.0005469882, 9.999281, 10.000052 
2.2498171e+2, 1.451753e+2, -1606586.1, -1488823.6, 10963.318, 0.09505443, -0.32417205, -1487811.6, 29444.416, 0.00020906689, 9.999038, 10.000644 
2.2498277e+2, 1.551762e+2, -1445228.1, -1384270.0, -47728.766, -0.02672211, -0.3246245, -1358118.6, 61126.094, 0.000042237294, 9.999583, 10.000425 
2.2498424e+2, 1.6517691e+2, -1382174.6, -1435359.8, -84295.74, -0.028535534, -0.23027016, -1320376.4, 861.7717, 0.0000020119714, 9.999916, 9.999227 
2.2498621e+2, 1.7517704e+2, -1277860.6, -1344043.8, -68098.15, 0.08224815, -0.17668211, -1235239.5, -11999.496, 0.0, 10.000002, 9.999141 
2.2498858e+2, 1.851767e+2, -1189738.6, -1181396.3, 30539.617, 0.13529742, -0.15203534, -1154744.3, -29499.303, 0.0, 9.999621, 9.999778 
2.2499137e+2, 1.9517581e+2, -1233695.3, -1157942.0, 2632.3403, 0.13039854, -0.25275835, -1157850.6, -130596.72, 0.0, 9.998683, 9.99972 
2.2499268e+2, 2.0517546e+2, -1098691.3, -1084416.3, -69371.27, 0.10045212, -0.23446354, -1021816.25, -92559.29, 0.0, 9.999112, 9.999352 
2.2499268e+2, 2.1517536e+2, -771556.56, -883500.0, -70652.31, 0.0529667, -0.21115647, -737391.8, 93865.25, 0.0, 10.000715, 9.999284 
2.2499454e+2, 2.2517425e+2, -662473.56, -870846.4, 52732.617, 0.04359557, -0.20310885, -649888.7, 83379.445, 0.0, 10.001191, 9.998456 
2.2499812e+2, 2.3517203e+2, -661804.3, -826122.7, 36442.234, 0.07063892, -0.30549568, -654084.9, -18793.521, 0.0, 10.000549, 9.998401 
2.250005e+2, 2.4517116e+2, -569026.3, -689265.75, -12052.11, 0.052043043, -0.24690765, -567830.2, -30529.666, 0.0, 10.000335, 9.998772 
2.2500171e+2, 2.5517136e+2, -441793.84, -588795.56, -29183.203, -0.001949569, -0.13767432, -436212.25, 3086.1138, 0.0, 10.000569, 9.998683 
2.250032e+2, 2.6517013e+2, -360026.1, -531599.75, -11425.436, -0.05028495, -0.10551257, -359268.6, -17960.889, 0.0, 10.00063, 9.998359 
2.2500497e+2, 2.7516726e+2, -268197.97, -452628.9, -41321.457, -0.085404105, -0.26470175, -259363.19, -16031.723, 0.00000000006385136, 10.000644, 9.998229 
2.2500792e+2, 2.851641e+2, -182631.42, -360353.3, 7268.0703, -0.05868526, -0.39671716, -182334.69, -36974.914, 0.00000032397858, 10.000557, 9.998234 
2.2501189e+2, 2.9516125e+2, -114701.49, -270187.44, -6195.763, 0.04084483, -0.54492605, -114454.99, -67068.49, 0.000003287384, 10.000317, 9.998292 
2.2501288e+2, 3.051636e+2, -37555.613, -135908.48, -122072.29, 0.05984625, -0.17000347, 44873.29, 44873.29, 0.00001601569, 10.000214, 9.998947 
2.2501276e+2, 3.1516048e+2, 21387.525, -13691.478, 13230.686, 0.044999238, -0.4051933, 25818.121, 25818.121, 0.000054019332, 10.000147, 9.999818 
2.3497769e+2, 1.251713e+2, -1690279.9, -1720174.0, 57975.81, 0.08729048, -0.35868698, -1645355.4, 67940.68, 0.0008678289, 10.000138, 9.999879 
2.3497851e+2, 1.3517356e+2, -1653548.6, -1543670.5, -30172.807, 0.04533188, -0.24675195, -1535930.3, 79341.81, 0.00046623294, 9.999319, 10.000814 
2.3498112e+2, 1.4517419e+2, -1685933.5, -1627651.0, 14345.715, 0.101385064, -0.20748754, -1624311.3, -107046.84, 0.00017258529, 9.998936, 9.999741 
2.3498255e+2, 1.5517256e+2, -1512697.4, -1519109.3, -10545.038, -0.0421178, -0.36484927, -1504881.8, -85601.85, 0.000033446406, 9.999562, 9.999513 
2.3498414e+2, 1.6517217e+2, -1339041.5, -1325222.4, -96456.06, -0.062618226, -0.37310633, -1235428.8, 85854.195, 0.0000017722703, 9.999833, 10.000025 
2.3498608e+2, 1.7517261e+2, -1225957.1, -1224162.0, -51936.492, 0.037229326, -0.37121165, -1173115.3, 50162.766, 0.0000000001389195, 9.9999485, 9.999993 
2.3498806e+2, 1.8517308e+2, -1227262.5, -1232009.9, -18173.34, 0.09236263, -0.2935529, -1211308.5, -86033.46, 0.0, 9.999509, 9.999486 
2.3499002e+2, 1.9517344e+2, -1265175.8, -1207003.4, -18650.43, 0.09861999, -0.2362111, -1201537.5, -174262.56, 0.0, 9.9986105, 9.999421 
2.3499176e+2, 2.0517316e+2, -1100772.5, -1050866.0, -22093.053, 0.07419434, -0.21023023, -1042491.06, -113213.164, 0.0, 9.998954, 9.999655 
2.3499334e+2, 2.1517202e+2, -774296.06, -850494.8, 4454.2134, 0.018190976, -0.32450384, -774036.56, 57249.785, 0.0, 10.000548, 9.99959 
2.3499547e+2, 2.2517125e+2, -691978.25, -893046.7, 18369.709, -0.0089736665, -0.2947879, -690313.75, 42980.637, 0.0, 10.001029, 9.998383 
2.3499815e+2, 2.3517063e+2, -686425.44, -846388.94, 28449.205, -0.0131593095, -0.22420067, -681516.5, -46212.523, 0.0, 10.000416, 9.998329 
2.3500067e+2, 2.4516921e+2, -587074.56, -706485.8, -16873.02, 0.0030703226, -0.21471727, -584736.2, -47418.16, 0.0, 10.000244, 9.998698 
2.35003e+2, 2.5516683e+2, -467289.97, -608995.6, -6813.4517, 0.036600173, -0.35696366, -466963.1, -27625.17, 0.0, 10.000426, 9.998613 
2.3500444e+2, 2.6516506e+2, -406844.78, -608270.4, -24802.29, -0.019686366, -0.35238186, -403835.75, -62482.11, 0.0, 10.000547, 9.997873 
2.3500526e+2, 2.7516344e+2, -317777.8, -528352.56, -23918.816, -0.15239255, -0.33111987, -315095.1, -71725.734, 0.0, 10.000522, 9.997772 
2.3500858e+2, 2.8516132e+2, -147830.39, -274913.25, -13658.53, -0.08063018, -0.3722288, -146378.98, -990.6698, 0.00000009734078, 10.000503, 9.998845 
2.3501387e+2, 2.9515886e+2, -97534.22, -212361.52, -18.914179, 0.16655329, -0.5379304, -97534.21, -50126.363, 0.0000024854203, 10.000211, 9.998747 
2.3501302e+2, 3.0515972e+2, -125590.9, -312183.5, -133455.4, 0.022269502, -0.26840034, -56054.33, -56054.33, 0.000014818684, 10.00019, 9.997748 
2.3501061e+2, 3.1515718e+2, -13598.684, -67612.59, 49832.426, -0.25289902, -0.33442762, 16074.572, 16074.572, 0.00005156838, 10.000059, 9.9994955 
2.4497803e+2, 1.2516958e+2, -1723477.0, -1707074.3, 109343.2, 0.13718022, -0.24891438, -1605625.3, 107692.55, 0.00074233726, 9.999821, 10.000114 
2.4497908e+2, 1.351707e+2, -1491002.5, -1482641.5, -110877.23, 0.12161998, -0.23253757, -1375866.0, 239437.06, 0.00038816038, 10.000528, 10.000649 
2.4498105e+2, 1.4517136e+2, -1487584.4, -1521294.9, -30555.479, 0.14397451, -0.1889452, -1469543.6, 47750.52, 0.00013769997, 10.000236, 9.999842 
2.4498256e+2, 1.551699e+2, -1560030.3, -1531531.5, -8736.698, 0.030713627, -0.3412142, -1529066.4, -109759.516, 0.000025817635, 9.999201, 9.999593 
2.449841e+2, 1.651694e+2, -1446089.8, -1352418.1, -30254.283, 0.00017639589, -0.37587622, -1343496.4, -22186.428, 0.0000016011192, 9.998984, 10.000259 
2.4498603e+2, 1.7516951e+2, -1290389.0, -1228976.4, -57797.316, 0.07342296, -0.42783555, -1194234.9, 29071.756, 0.0000000006420841, 9.9993925, 10.000235 
2.4498785e+2, 1.8516992e+2, -1167359.6, -1216711.0, -25813.88, 0.10343114, -0.3604528, -1156324.8, -31021.248, 0.0, 9.9999895, 9.999351 
2.4498948e+2, 1.9517046e+2, -974243.94, -1081132.8, -38922.004, 0.08802119, -0.2753544, -961573.1, 65729.016, 0.0, 10.000684, 9.999274 
2.4499135e+2, 2.0517024e+2, -848773.4, -938468.75, -5530.8237, 0.05814836, -0.2321917, -848433.6, 80871.57, 0.0, 10.0007305, 9.999564 
2.4499366e+2, 2.1516912e+2, -855911.75, -898141.7, -40002.547, 0.030575437, -0.3344302, -831793.5, -478.90787, 0.0, 10.000035, 9.999504 
2.4499616e+2, 2.2516856e+2, -837944.06, -945582.44, -26261.533, 0.01962275, -0.28793904, -831878.56, -98557.375, 0.0, 9.999952, 9.99854 
2.449989e+2, 2.3516835e+2, -673289.6, -820899.9, -21775.055, 0.02819123, -0.19363676, -670144.44, -34817.543, 0.0, 10.000433, 9.998494 
2.4500147e+2, 2.4516694e+2, -544277.4, -693300.2, -25977.54, 0.04909274, -0.1842663, -539878.8, -2538.0894, 0.0, 10.00057, 9.998639 
2.4500379e+2, 2.551643e+2, -477513.8, -616108.1, -42467.355, 0.08569532, -0.34750697, -465536.3, -26172.855, 0.0, 10.000382, 9.998585 
2.4500535e+2, 2.651624e+2, -429206.5, -618727.06, -12214.449, 0.033896066, -0.3539874, -428422.53, -87041.53, 0.0, 10.00037, 9.997897 
2.4500644e+2, 2.7516103e+2, -318244.44, -520792.88, 646.7667, -0.075550646, -0.31584507, -318242.38, -74846.49, 0.0, 10.000487, 9.997841 
2.450096e+2, 2.8515947e+2, -151596.17, -261022.52, 33921.44, -0.014093234, -0.30940005, -141933.92, 3475.2617, 0.00000009803459, 10.000406, 9.998994 
2.450142e+2, 2.951576e+2, -94652.34, -194079.19, -15552.45, 0.19103089, -0.4322675, -92276.38, -44854.652, 0.0000023443192, 10.000161, 9.9988985 
2.4501273e+2, 3.0515698e+2, -134484.84, -376143.75, -81769.89, -0.024616739, -0.2897599, -109416.83, -109416.83, 0.000014153015, 10.000389, 9.997212 
2.4501207e+2, 3.1515488e+2, 90957.71, -6760.909, 75830.35, -0.13111283, -0.2620134, 132306.36, 132306.36, 0.00004937861, 10.000764, 9.999559 
2.5497743e+2, 1.2517013e+2, -1765680.6, -1789133.3, 98171.305, 0.0279209, 0.077401824, -1678537.8, 34781.723, 0.00062344765, 9.999795, 9.999567 
2.5497976e+2, 1.3516667e+2, -1556893.5, -1617807.3, -75520.305, 0.10617149, -0.26158592, -1505919.8, 109430.43, 0.0003143659, 10.000528, 9.999721 
2.549812e+2, 1.4516667e+2, -1423120.1, -1375260.1, -88611.78, 0.095152274, -0.28701583, -1307404.0, 209941.88, 0.00010539114, 10.000186, 10.000863 
2.5498217e+2, 1.5516813e+2, -1492982.6, -1381924.4, -33760.043, 0.038408827, -0.25558576, -1372467.1, 46859.344, 0.000019009012, 9.99916, 10.000634 
2.5498363e+2, 1.6516855e+2, -1478274.1, -1398768.9, -29075.295, 0.024138108, -0.23733352, -1389270.8, -67951.43, 0.0000013062046, 9.9988985, 9.999982 
2.549856e+2, 1.7516781e+2, -1316844.8, -1273805.6, -26105.766, 0.057323847, -0.34178224, -1261493.3, -38168.227, 0.000000000635992, 9.999352, 9.999944 
2.5498748e+2, 1.8516733e+2, -1178701.6, -1219158.3, -11242.984, 0.0382591, -0.35178483, -1175787.1, -50457.496, 0.0, 9.999896, 9.999379 
2.5498927e+2, 1.9516677e+2, -983437.56, -1079738.5, 1333.0736, -0.035974417, -0.38250965, -983419.1, 43916.918, 0.0, 10.000591, 9.999328 
2.5499114e+2, 2.0516656e+2, -915431.06, -1036693.94, -43185.914, -0.062642686, -0.31142417, -901623.3, 27716.463, 0.0, 10.000562, 9.99897 
2.5499323e+2, 2.151665e+2, -915673.44, -989759.06, -52182.32, -0.044243056, -0.24903911, -888722.75, -57379.777, 0.0, 9.999898, 9.9989395 
2.5499618e+2, 2.2516605e+2, -826083.75, -891358.06, -22540.012, -0.0003296953, -0.183517, -819056.8, -85707.375, 0.0, 9.999824, 9.998975 
2.5499994e+2, 2.3516503e+2, -664417.4, -768911.9, 10334.964, 0.061088294, -0.21816207, -663405.0, -28043.688, 0.0, 10.000284, 9.998923 
2.550025e+2, 2.4516428e+2, -564112.06, -708973.0, -47495.64, 0.06769096, -0.162756, -549928.4, -12558.68, 0.0, 10.000466, 9.998579 
2.5500375e+2, 2.5516355e+2, -503108.63, -636125.6, -38130.97, 0.012944643, -0.12478385, -492953.25, -53576.223, 0.0, 10.000237, 9.998518 
2.5500554e+2, 2.6516214e+2, -403362.56, -538098.1, -22155.8, -0.014090006, -0.11377539, -399812.8, -58421.926, 0.0, 10.000264, 9.998499 
2.5500804e+2, 2.751598e+2, -294865.94, -443881.56, 19585.809, 0.00395466, -0.22665599, -292334.7, -48922.027, 0.0, 10.000361, 9.998433 
2.5501058e+2, 2.851584e+2, -181959.75, -307531.03, 9573.507, 0.01227823, -0.21920602, -181234.06, -35810.137, 0.00000013920514, 10.00034, 9.998703 
2.550124e+2, 2.951574e+2, -136944.69, -244504.38, -11005.596, -0.040404316, -0.23034707, -135830.13, -88400.87, 0.0000022917138, 10.000006, 9.998625 
2.550115e+2, 3.0515522e+2, -131888.61, -356589.22, -73288.2, -0.21419188, -0.23928982, -110098.125, -110098.125, 0.0000129202135, 10.000333, 9.997367 
2.550162e+2, 3.1515306e+2, 92232.195, 19241.059, 102287.625, 0.13786674, -0.22077551, 164339.97, 164339.97, 0.000045825393, 10.000666, 9.999784 
2.6497748e+2, 1.2516761e+2, -1658051.0, -1724272.0, 155036.52, 0.03623898, 0.060190618, -1532628.8, 180714.66, 0.00051409315, 10.000429, 9.999718 
2.649806e+2, 1.3516447e+2, -1728727.9, -1727462.6, -6294.6597, 0.20883955, -0.23545623, -1721768.9, -106396.2, 0.0002486299, 9.999415, 9.999519 
2.6498145e+2, 1.4516436e+2, -1567833.8, -1440830.5, 12476.503, 0.16242695, -0.26533377, -1439616.5, 77753.984, 0.00007773356, 9.999186, 10.000894 
2.6498225e+2, 1.5516579e+2, -1341115.5, -1306811.5, -41288.695, 0.08898553, -0.24095616, -1279254.0, 140097.36, 0.000013419433, 10.000181, 10.000667 
2.6498365e+2, 1.6516632e+2, -1252697.9, -1295462.9, -30918.64, 0.06675652, -0.20988014, -1236488.1, 84854.74, 0.0000010267595, 10.000474, 9.999927 
2.649855e+2, 1.7516595e+2, -1218211.1, -1231922.4, -40429.15, 0.087702714, -0.27464575, -1184060.5, 39284.684, 0.0000000012219834, 10.000054, 9.999887 
2.6498744e+2, 1.8516533e+2, -1163566.8, -1198768.8, 26263.19, 0.048477493, -0.30098194, -1149552.1, -24201.922, 0.0, 9.999947, 9.999499 
2.6498944e+2, 1.9516422e+2, -1061307.9, -1105908.9, 12648.27, -0.03878773, -0.39496785, -1057970.8, -30610.785, 0.0, 10.000006, 9.999436 
2.6499158e+2, 2.051638e+2, -971926.8, -1088998.8, -5817.1196, -0.05171683, -0.34061626, -971638.44, -42273.15, 0.0, 10.000271, 9.998755 
2.649939e+2, 2.1516384e+2, -829105.56, -974575.1, -13579.625, 0.0062810117, -0.24252664, -827848.8, 3519.318, 0.0, 10.000602, 9.99871 
2.6499686e+2, 2.2516324e+2, -722829.9, -836608.44, 46814.324, 0.057755876, -0.18524149, -706044.44, 27332.074, 0.0, 10.000504, 9.999027 
2.6500046e+2, 2.3516183e+2, -707178.4, -786537.06, 17692.256, 0.10745869, -0.26301396, -703412.75, -68021.086, 0.0, 9.99997, 9.998958 
2.6500297e+2, 2.4516119e+2, -631574.7, -724044.3, -12915.17, 0.10137586, -0.20314564, -629804.75, -92405.61, 0.0, 9.999938, 9.998727 
2.6500428e+2, 2.5516114e+2, -466756.63, -600349.4, -11248.088, 0.041951116, -0.11521952, -465816.2, -26415.0, 0.0, 10.000417, 9.9986725 
2.6500615e+2, 2.6516008e+2, -341952.94, -482753.1, 21262.475, 0.016115412, -0.08375506, -338812.13, 2599.6272, 0.0, 10.00057, 9.998732 
2.6500887e+2, 2.7515814e+2, -263807.78, -396741.6, 4937.3257, 0.055989277, -0.187443, -263624.66, -20194.455, 0.0, 10.000452, 9.998705 
2.6501158e+2, 2.8515682e+2, -152579.95, -318592.4, 17243.041, 0.06992368, -0.17184028, -150807.9, -5366.806, 0.00000017298198, 10.000646, 9.998478 
2.6501337e+2, 2.9515553e+2, 21681.117, -183793.53, -23844.39, 0.007615965, -0.19300058, 24411.857, 71862.77, 0.000002277503, 10.001149, 9.998493 
2.6501212e+2, 3.0515313e+2, -5128.1265, -266140.34, -55778.836, -0.20704554, -0.23399961, 6292.235, 6292.235, 0.000011809922, 10.001052, 9.997664 
2.6501706e+2, 3.1515092e+2, -26138.324, -10939.905, 54424.598, 0.21826173, -0.24557637, 36413.457, 36413.457, 0.000042458643, 9.999696, 10.000062 
2.7497754e+2, 1.2516202e+2, -1594076.3, -1595571.5, 58630.777, -0.079340905, -0.3099344, -1536188.3, 177201.47, 0.00042131313, 10.000434, 10.000605 
2.7498093e+2, 1.351643e+2, -1683752.4, -1634857.5, -39256.215, 0.26101944, -0.1291438, -1613058.5, 2309.998, 0.0001952308, 9.99942, 10.000152 
2.7498123e+2, 1.4516456e+2, -1641251.9, -1584116.6, 28802.354, 0.17956327, -0.1042712, -1572117.3, -54751.324, 0.000056360343, 9.999148, 9.99993 
2.7498248e+2, 1.5516296e+2, -1411425.9, -1442852.1, 11871.141, 0.05786438, -0.2862232, -1407445.6, 11934.3955, 0.000009372096, 10.000147, 9.999748 
2.7498385e+2, 1.651628e+2, -1245538.6, -1270473.6, -59890.81, 0.006574344, -0.28896478, -1196831.4, 124548.47, 0.0000008660051, 10.00043, 10.000117 
2.7498525e+2, 1.7516384e+2, -1214767.4, -1212074.3, -41898.016, 0.019931473, -0.2311836, -1171501.1, 51866.62, 0.000000004874734, 10.000003, 10.000047 
2.7498722e+2, 1.8516384e+2, -1170428.0, -1185729.4, 14500.561, 0.0029543657, -0.20832108, -1161683.6, -36317.83, 0.0, 9.999831, 9.999642 
2.7498963e+2, 1.9516273e+2, -1063509.5, -1088723.0, 31621.78, -0.05335339, -0.31768763, -1042074.06, -14699.561, 0.0, 9.999918, 9.999594 
2.749923e+2, 2.0516197e+2, -979358.3, -1074411.3, -6690.0435, -0.035107333, -0.31258753, -978889.8, -49508.266, 0.0, 10.000145, 9.998916 
2.7499524e+2, 2.1516119e+2, -841572.9, -960060.9, 12980.057, 0.048778374, -0.31626815, -840167.6, -8777.566, 0.0, 10.000433, 9.998887 
2.749978e+2, 2.2516012e+2, -776799.4, -909117.3, 13642.112, 0.07404057, -0.29334784, -775407.5, -42005.367, 0.0, 10.000333, 9.998614 
2.75e+2, 2.3515856e+2, -758861.56, -856899.1, 11094.763, 0.035638288, -0.340834, -757621.7, -122202.24, 0.0, 9.999807, 9.998557 
2.750024e+2, 2.451576e+2, -621369.44, -676172.56, -7589.522, 0.02533796, -0.3159106, -620337.8, -82907.75, 0.0, 9.9998255, 9.999108 
2.750049e+2, 2.5515687e+2, -459822.03, -557813.94, 21598.385, 0.030405337, -0.33232984, -455272.75, -15835.565, 0.0, 10.000286, 9.999031 
2.7500686e+2, 2.6515624e+2, -366231.06, -508195.1, 217.6233, -0.0017038549, -0.27023342, -366230.75, -24786.646, 0.0, 10.000473, 9.998599 
2.7500856e+2, 2.751557e+2, -296964.9, -433844.97, 13750.613, -0.054194655, -0.21552052, -295597.22, -52146.38, 0.00000000009324417, 10.000319, 9.998515 
2.7501217e+2, 2.8515443e+2, -168128.28, -336331.44, 21035.037, 0.033372503, -0.18211843, -165537.6, -20073.89, 0.00000023612336, 10.000586, 9.998381 
2.750166e+2, 2.9515186e+2, 6646.587, -194314.13, 15046.497, 0.17252514, -0.32218638, 7766.915, 55254.89, 0.0000024951785, 10.00105, 9.998472 
2.7501407e+2, 3.0515084e+2, 30121.826, -170292.1, -110610.24, -0.14521281, -0.26364264, 79166.53, 79166.53, 0.0000116764495, 10.000985, 9.998339 
2.7501374e+2, 3.1514868e+2, -38718.305, 18343.38, 10476.323, -0.15398228, -0.3230998, 20205.996, 20205.996, 0.000040637482, 9.999484, 10.000356 
2.849781e+2, 1.2515801e+2, -1833666.9, -1673344.0, 2250.2412, 0.037598632, -0.43953767, -1673312.4, 40113.277, 0.00034670465, 9.99867, 10.000898 
2.849805e+2, 1.3516189e+2, -1648079.1, -1572998.1, -151692.67, 0.28734457, -0.13710347, -1454269.8, 161119.47, 0.00015383656, 9.999506, 10.000517 
2.8498033e+2, 1.451622e+2, -1560587.9, -1594985.0, -6936.5474, 0.14493276, -0.10202776, -1559241.8, -41854.34, 0.00004093297, 9.999913, 9.999488 
2.8498274e+2, 1.5516032e+2, -1441197.4, -1501900.8, -16412.377, 0.08171779, -0.26891845, -1437044.1, -17637.623, 0.0000066741927, 10.000126, 9.999356 
2.8498444e+2, 1.6515982e+2, -1325073.0, -1332632.6, -92780.97, 0.05114373, -0.27642134, -1235994.9, 85416.24, 0.00000074756446, 9.999995, 9.999905 
2.8498533e+2, 1.7516038e+2, -1289159.9, -1275502.4, -132499.03, 0.054353993, -0.24052097, -1149656.3, 73748.05, 0.000000006090155, 9.999605, 9.999815 
2.8498742e+2, 1.8516049e+2, -1178441.4, -1180525.9, -34403.01, 0.055004828, -0.20005654, -1145064.9, -19663.586, 0.0, 9.999743, 9.999715 
2.8499067e+2, 1.9516e+2, -998482.7, -1051318.4, -50898.9, 0.047816988, -0.2536759, -967554.2, 59849.047, 0.0, 10.000334, 9.999648 
2.8499347e+2, 2.0515914e+2, -924668.8, -1053510.3, -89251.73, 0.054468047, -0.2578554, -879017.3, 50393.566, 0.0, 10.00056, 9.998851 
2.8499582e+2, 2.151577e+2, -862817.4, -977700.44, -116745.414, 0.07869776, -0.3218486, -790147.3, 41278.965, 0.0, 10.000326, 9.998815 
2.84998e+2, 2.251566e+2, -774576.2, -878196.1, -80695.48, 0.07146322, -0.30950606, -730490.25, 2947.9927, 0.0, 10.000227, 9.998874 
2.849999e+2, 2.3515575e+2, -675373.5, -785020.25, -59414.668, 0.032784447, -0.31492773, -649353.2, -13905.3, 0.0, 10.000254, 9.998831 
2.850024e+2, 2.4515496e+2, -542855.0, -604894.94, -10109.045, 0.03372431, -0.29860124, -541249.4, -3793.794, 0.0, 10.000208, 9.999412 
2.8500545e+2, 2.5515413e+2, -464227.38, -521634.1, -15461.304, 0.07594855, -0.35846066, -460328.06, -20865.375, 0.0, 10.000105, 9.999357 
2.8500754e+2, 2.6515362e+2, -413818.4, -536248.7, -11619.395, 0.04010674, -0.3012926, -412725.4, -71257.25, 0.0, 10.000163, 9.998561 
2.8500906e+2, 2.7515316e+2, -295397.06, -437637.25, -17919.482, -0.024734104, -0.23426802, -293174.28, -49700.31, 0.0000000018932573, 10.000326, 9.998494 
2.8501272e+2, 2.8515166e+2, -264605.8, -371895.78, 32319.86, 0.075112455, -0.2252786, -255622.08, -110132.29, 0.00000028816427, 9.999876, 9.998482 
2.850175e+2, 2.9514906e+2, -271311.13, -306358.3, 14671.721, 0.26680985, -0.38297993, -265980.06, -218463.2, 0.0000027347362, 9.999068, 9.998647 
2.8501526e+2, 3.051494e+2, -103318.32, -230694.75, -86089.445, -0.062315103, -0.20001309, -59919.742, -59919.742, 0.000012525966, 10.000025, 9.998391 
2.8501418e+2, 3.1514707e+2, 302446.66, 203449.38, -77610.37, -0.15035126, -0.28369245, 344999.53, 344999.53, 0.00004059471, 10.001731, 10.000541 
2.94978e+2, 1.2515582e+2, -1851015.1, -1725624.3, -48543.914, 0.07773644, -0.30626306, -1709027.6, 4421.171, 0.00028489743, 9.998725, 10.000518 
2.9497898e+2, 1.3515715e+2, -1646404.4, -1576520.3, -112347.945, 0.14695412, -0.2649178, -1493806.0, 121629.58, 0.000121053716, 9.999536, 10.000478 
2.9497832e+2, 1.4515714e+2, -1550570.0, -1576794.1, -20272.654, -0.08902808, -0.26324287, -1539538.6, -22102.338, 0.000029834508, 9.999913, 9.999618 
2.9498252e+2, 1.5515782e+2, -1437590.3, -1487421.1, 2792.0344, 0.009300009, -0.1906313, -1437434.4, -18003.252, 0.000004731658, 10.000096, 9.999471 
2.9498485e+2, 1.651574e+2, -1379577.4, -1427093.0, -119919.28, 0.060438823, -0.16406302, -1281085.1, 40351.33, 0.00000054097734, 9.999927, 9.999282 
2.9498526e+2, 1.7515576e+2, -1337794.9, -1361260.1, -128550.39, 0.052275315, -0.2905025, -1220442.9, 3010.3757, 0.0000000012704189, 9.999555, 9.99924 
2.9498774e+2, 1.851554e+2, -1192283.4, -1192364.6, -26714.127, 0.07612415, -0.26595274, -1165609.9, -40154.484, 0.0, 9.999664, 9.999677 
2.949921e+2, 1.9515598e+2, -1015166.94, -1063853.0, -16189.594, 0.123447806, -0.21026696, -1010274.94, 17171.814, 0.0, 10.000238, 9.999608 
2.9499462e+2, 2.0515527e+2, -969707.1, -1109984.3, -111464.83, 0.08687811, -0.18107848, -908149.75, 21304.367, 0.0, 10.0004015, 9.998538 
2.949952e+2, 2.1515323e+2, -909694.44, -1034025.9, -109916.625, -0.04505329, -0.27092165, -845581.75, -14103.627, 0.0, 10.000152, 9.99851 
2.9499695e+2, 2.2515264e+2, -736098.06, -755597.06, -93934.305, -0.0809536, -0.23923805, -651408.7, 82076.31, 0.0, 10.00005, 9.999798 
2.949998e+2, 2.3515327e+2, -636770.0, -664104.7, -42936.406, -0.02776741, -0.18886286, -605378.2, 30099.193, 0.0, 10.000084, 9.99974 
2.9500276e+2, 2.4515337e+2, -538374.3, -573386.4, -29554.576, 0.014137756, -0.14426388, -521530.2, 15944.826, 0.0, 10.000108, 9.99968 
2.9500547e+2, 2.5515282e+2, -464712.28, -494999.5, -6702.681, 0.034861904, -0.20103082, -463295.25, -23816.223, 0.0, 9.999981, 9.999606 
2.9500774e+2, 2.6515195e+2, -415122.84, -520987.06, -17491.94, 0.013141286, -0.19598961, -412307.53, -70821.21, 0.0, 10.000089, 9.998699 
2.9500985e+2, 2.7515045e+2, -304350.8, -422955.0, 482.27634, -0.011899136, -0.24868125, -304348.84, -60848.984, 0.0000000016821552, 10.000189, 9.998659 
2.9501277e+2, 2.8514877e+2, -246226.55, -326268.1, -13204.12, 0.058563337, -0.28711155, -244104.58, -98586.98, 0.00000022409213, 9.999839, 9.998817 
2.9501566e+2, 2.9514697e+2, -266926.66, -286774.78, 12098.4, 0.1315052, -0.38591024, -261202.77, -213664.39, 0.0000026534976, 9.999003, 9.998825 
2.9501525e+2, 3.0514866e+2, -142192.16, -295132.88, -21374.617, -0.09594956, -0.05463686, -139261.06, -139261.06, 0.00001292508, 9.999965, 9.99797 
2.9501736e+2, 3.1514582e+2, 289246.2, 202935.72, 30324.861, -0.08005391, -0.15637356, 298835.38, 298835.38, 0.000040888393, 10.001615, 10.000589 
3.049777e+2, 1.2515317e+2, -1795499.9, -1743200.3, 7260.755, 0.15915671, -0.24378471, -1742211.0, -28735.098, 0.00023189843, 9.999308, 10.00012 
3.0497894e+2, 1.351537e+2, -1493368.6, -1512425.9, -83432.63, 0.14902821, -0.27081603, -1418922.3, 196547.98, 0.000094942065, 10.000618, 10.0004015 
3.0497834e+2, 1.4515354e+2, -1451305.1, -1504230.5, -13087.689, -0.10145455, -0.29268748, -1448245.5, 69226.71, 0.000021738364, 10.000517, 9.999809 
3.0498257e+2, 1.5515451e+2, -1529560.9, -1512634.3, -25492.734, 0.05446136, -0.20651574, -1494236.6, -74772.99, 0.0000030875526, 9.99939, 9.999631 
3.0498514e+2, 1.6515435e+2, -1431440.0, -1457203.6, -55437.977, 0.12808086, -0.16004294, -1387406.9, -65940.54, 0.0000002653173, 9.999565, 9.999257 
3.0498594e+2, 1.7515297e+2, -1147477.4, -1274167.0, -51558.74, 0.107458554, -0.25863796, -1129146.8, 94334.23, 0.0, 10.00086, 9.999218 
3.0498838e+2, 1.8515226e+2, -990902.8, -1129737.4, 71192.195, 0.10674467, -0.25368097, -960886.25, 164600.86, 0.0, 10.001188, 9.999379 
3.0499238e+2, 1.9515188e+2, -996852.3, -1096778.9, 32511.492, 0.12096391, -0.25850502, -987205.8, 40282.547, 0.0, 10.000519, 9.999265 
3.0499488e+2, 2.051513e+2, -956837.7, -1067889.6, -15388.525, 0.08407084, -0.21771005, -954744.7, -25249.744, 0.0, 10.000326, 9.99887 
3.049959e+2, 2.1515039e+2, -824498.1, -961696.44, 3234.8337, -0.0017667428, -0.22614738, -824421.9, 7085.7207, 0.0, 10.000584, 9.998808 
3.049976e+2, 2.251502e+2, -669200.8, -715878.3, 30313.766, -0.032283664, -0.1756316, -654282.25, 79228.36, 0.0, 10.000469, 9.999872 
3.0500004e+2, 2.3515046e+2, -644293.1, -659833.1, -10278.858, -0.000576966, -0.1698902, -639177.94, -3671.5164, 0.0, 9.999993, 9.999816 
3.050027e+2, 2.4515049e+2, -622490.94, -613292.1, -8024.05, 0.034775123, -0.13314535, -608642.75, -71138.125, 0.0, 9.999559, 9.99966 
3.0500537e+2, 2.5515014e+2, -556457.5, -535894.56, -34034.652, 0.06743242, -0.16602144, -510622.34, -71115.51, 0.0, 9.999359, 9.999617 
3.0500802e+2, 2.6514924e+2, -473805.4, -525558.6, -2852.9348, 0.066733144, -0.17897205, -473648.63, -132134.77, 0.0, 9.999581, 9.998912 
3.0501089e+2, 2.7514747e+2, -275140.03, -384745.47, -7384.0293, 0.0758721, -0.2808311, -274644.8, -31116.4, 0.00000000014964384, 10.000288, 9.998869 
3.0501345e+2, 2.85146e+2, -148939.36, -296815.75, -40838.773, 0.11281295, -0.29808637, -138410.63, 7133.816, 0.00000013461268, 10.000604, 9.998643 
3.0501506e+2, 2.9514506e+2, -72284.63, -209562.19, -79134.61, 0.10908833, -0.29848728, -36168.61, 11391.173, 0.0000024184974, 10.000447, 9.998642 
3.0501518e+2, 3.0514655e+2, -83605.18, -244913.3, -29525.234, -0.10427649, 0.017718993, -78370.84, -78370.84, 0.00001259153, 10.000254, 9.998192 
3.0501893e+2, 3.1514314e+2, -3394.4084, 71704.96, 22770.99, 0.033804238, -0.16824232, 78069.93, 78069.93, 0.000039642433, 9.9995365, 10.000713 
3.1497642e+2, 1.2515014e+2, -1818199.5, -1795855.1, -35386.35, 0.026090726, -0.24032257, -1769919.1, -56413.3, 0.0001887222, 9.999337, 9.999742 
3.1497985e+2, 1.3515176e+2, -1510874.0, -1534124.6, -26366.508, 0.14466283, -0.14153902, -1493683.6, 121807.4, 0.00007509751, 10.000575, 10.000268 
3.149797e+2, 1.4515151e+2, -1446189.1, -1489595.6, -73015.73, -0.058280006, -0.17296778, -1391719.4, 125774.55, 0.00001598166, 10.00049, 9.999923 
3.1498253e+2, 1.5515032e+2, -1523830.5, -1497827.4, -51541.73, 0.072775066, -0.31751174, -1457672.6, -38167.73, 0.00000170519, 9.999379, 9.999734 
3.149851e+2, 1.6515058e+2, -1399336.0, -1380386.3, -27323.008, 0.13327141, -0.26075175, -1360941.9, -39440.06, 0.000000057148895, 9.999513, 9.999815 
3.1498697e+2, 1.7515194e+2, -1114647.4, -1194666.0, 6693.44, 0.091120586, -0.14267012, -1114091.3, 109396.78, 0.0, 10.00081, 9.999789 
3.1498885e+2, 1.8515107e+2, -1045879.1, -1220155.8, 31713.936, 0.009304829, -0.15305628, -1040287.4, 85208.68, 0.0, 10.001083, 9.99881 
3.14991e+2, 1.9514783e+2, -1047474.44, -1177896.3, 22921.977, -0.10291524, -0.39253372, -1043563.1, -16035.687, 0.0, 10.000419, 9.9987545 
3.1499383e+2, 2.0514736e+2, -917888.06, -946384.0, -19904.348, -0.07700967, -0.36017355, -907657.75, 21874.33, 0.0, 10.000157, 9.999785 
3.149975e+2, 2.1514933e+2, -786689.75, -841932.56, 28330.002, 0.0722609, -0.17343368, -774744.4, 56769.016, 0.0, 10.000411, 9.999712 
3.1499952e+2, 2.2514935e+2, -738707.1, -827677.8, -606.52136, 0.08485906, -0.108527824, -738703.0, -5189.1587, 0.0, 10.000327, 9.999177 
3.15e+2, 2.3514736e+2, -715712.3, -772127.75, -13445.11, -0.029997637, -0.25404903, -712671.9, -77137.62, 0.0, 9.999837, 9.9991255 
3.150018e+2, 2.4514633e+2, -658252.2, -671952.2, -29383.457, -0.041689772, -0.27151635, -634930.9, -97386.22, 0.0, 9.999486, 9.999293 
3.150047e+2, 2.551461e+2, -601734.94, -597381.94, -29079.059, 0.035210837, -0.25790977, -570398.06, -130851.34, 0.0, 9.999214, 9.999268 
3.1500798e+2, 2.651455e+2, -459327.2, -478970.75, 10094.52, 0.07637976, -0.23879217, -455064.7, -113514.21, 0.0, 9.99951, 9.999268 
3.1501177e+2, 2.751442e+2, -266977.8, -344877.0, 33724.832, 0.10274524, -0.33016974, -254406.19, -10846.324, 0.00000000001473293, 10.000182, 9.999198 
3.1501424e+2, 2.8514335e+2, -208446.13, -405218.47, -61614.637, 0.102679215, -0.2656666, -190745.25, -45174.21, 0.000000108201135, 10.000543, 9.997923 
3.1501505e+2, 2.9514298e+2, -142710.78, -327281.53, -66274.15, 0.02272736, -0.13472387, -121379.02, -73795.56, 0.0000023186144, 10.000317, 9.997899 
3.1501448e+2, 3.0514294e+2, -22005.86, -104655.03, -62939.87, -0.22747457, 0.015184758, 11963.306, 11963.306, 0.000012381474, 10.000203, 9.999177 
3.150182e+2, 3.1513867e+2, 12252.609, 117390.78, 52942.83, -0.065521404, -0.36079806, 139430.36, 139430.36, 0.000038038284, 9.999476, 10.001055 
3.2497588e+2, 1.2514712e+2, -1758660.6, -1766636.8, -15657.927, 0.035627775, -0.24350953, -1746490.9, -32954.906, 0.0001575099, 9.999715, 9.999767 
3.249803e+2, 1.3514861e+2, -1658707.5, -1610076.9, -15815.775, 0.19598335, -0.15752743, -1605385.8, 10136.563, 0.00006189271, 9.999544, 10.000256 
3.249806e+2, 1.4514877e+2, -1573328.0, -1552562.9, -48114.78, 0.035899743, -0.14672355, -1513723.3, 3798.0046, 0.000012633238, 9.999605, 9.99993 
3.2498252e+2, 1.5514751e+2, -1386249.9, -1429136.6, -61219.156, 0.09506517, -0.30152848, -1342827.3, 76706.06, 0.0000008198343, 10.000292, 9.999778 
3.2498503e+2, 1.6514765e+2, -1268177.3, -1315431.5, -1265.1724, 0.1362182, -0.25881216, -1268143.4, 53388.08, 0.000000004124255, 10.000442, 9.999799 
3.2498762e+2, 1.7514892e+2, -1219539.5, -1250217.8, -46855.28, 0.1178835, -0.14308363, -1185576.5, 37942.105, 0.0, 10.000127, 9.999732 
3.249897e+2, 1.8514827e+2, -1193948.3, -1277963.8, -24958.998, 0.046403978, -0.13475977, -1187093.0, -61567.934, 0.0, 10.000013, 9.998919 
3.249915e+2, 1.9514562e+2, -1102541.6, -1186884.9, -16883.78, -0.06300018, -0.3260552, -1099287.4, -71735.98, 0.0, 9.9999895, 9.998885 
3.249942e+2, 2.0514518e+2, -920074.8, -920622.9, -16216.008, -0.040231142, -0.3118875, -904130.5, 25424.172, 0.0, 10.000007, 10.000039 
3.2499787e+2, 2.1514662e+2, -840659.7, -837901.1, -42241.383, 0.102229394, -0.20454337, -797016.5, 34521.734, 0.0, 9.9999075, 9.999983 
3.2499987e+2, 2.2514655e+2, -818661.6, -889739.9, -58952.44, 0.11747787, -0.15395318, -785364.56, -51825.273, 0.0, 9.999882, 9.998962 
3.2500035e+2, 2.3514481e+2, -711586.44, -793523.75, -61433.324, 0.020361263, -0.255479, -678714.2, -43155.18, 0.0, 9.999967, 9.998912 
3.250021e+2, 2.451437e+2, -571129.8, -654382.44, -13960.935, 0.01494644, -0.26149467, -568851.06, -31279.8, 0.0, 10.000168, 9.999097 
3.2500508e+2, 2.5514302e+2, -412208.88, -527133.75, -21305.258, 0.094341055, -0.27458042, -408386.38, 31191.496, 0.0, 10.00058, 9.999097 
3.250082e+2, 2.651424e+2, -319272.5, -417508.63, 37233.395, 0.10431478, -0.24219863, -306755.28, 34826.65, 0.0, 10.000499, 9.999219 
3.2501152e+2, 2.7514163e+2, -298084.2, -362640.0, 2004.2229, 0.07882151, -0.27935314, -298022.03, -54434.863, 0.00000000010851988, 9.999988, 9.999169 
3.2501417e+2, 2.851406e+2, -309442.94, -466266.2, -55516.34, 0.080668606, -0.22309302, -291779.34, -146180.05, 0.00000014604628, 9.999884, 9.997832 
3.2501578e+2, 2.9513952e+2, -170827.92, -345480.53, -39575.746, 0.084655374, -0.15875906, -162278.66, -114661.84, 0.0000023415487, 10.000141, 9.997861 
3.2501504e+2, 3.05139e+2, 49113.7, -66176.39, -20430.49, -0.20239244, -0.056214865, 52627.105, 52627.105, 0.000012312151, 10.0007105, 9.999181 
3.2501885e+2, 3.1513515e+2, 201982.45, 113316.65, -50776.81, -0.021267643, -0.38968578, 225056.45, 225056.45, 0.000036624067, 10.001234, 10.00016 
3.349751e+2, 1.2514415e+2, -1738796.1, -1710075.1, -100327.68, -0.09014858, -0.23472387, -1623085.4, 90480.15, 0.00013854062, 9.999666, 10.000172 
3.3497983e+2, 1.3514438e+2, -1655910.3, -1588910.6, -19745.521, 0.15962501, -0.29377505, -1583524.4, 32038.578, 0.000055370125, 9.999508, 10.0004015 
3.349806e+2, 1.4514539e+2, -1579597.6, -1553998.3, -44478.78, 0.03809185, -0.20253687, -1520514.1, -2960.4497, 0.000011804474, 9.999556, 9.999946 
3.3498207e+2, 1.551463e+2, -1383247.0, -1416321.4, -21727.057, -0.016919766, -0.14411393, -1372479.5, 47066.605, 0.00000057438905, 10.000268, 9.999876 
3.349844e+2, 1.6514577e+2, -1324798.0, -1422945.5, -27561.977, -0.0027143604, -0.13997717, -1317587.8, 3964.908, 0.00000000201948, 10.000395, 9.999086 
3.3498746e+2, 1.751438e+2, -1273868.8, -1357973.8, -42151.37, 0.052701328, -0.27548164, -1256380.0, -32806.895, 0.0, 10.000099, 9.999009 
3.349904e+2, 1.851437e+2, -1162183.3, -1182356.6, -42352.184, 0.084163964, -0.21277648, -1128733.3, -3158.0435, 0.0, 9.999887, 9.999636 
3.3499348e+2, 1.9514509e+2, -1066936.5, -1089096.0, -4835.6704, 0.1054694, -0.07289143, -1065927.3, -38365.164, 0.0, 9.999889, 9.999602 
3.349955e+2, 2.0514464e+2, -964961.25, -978893.75, -35550.69, 0.06654413, -0.077184334, -935700.7, -6136.4434, 0.0, 9.999862, 9.999708 
3.3499658e+2, 2.1514222e+2, -888758.25, -894402.94, -32439.377, -0.042182174, -0.32357377, -859018.7, -27435.572, 0.0, 9.999724, 9.999681 
3.3499825e+2, 2.2514167e+2, -826060.2, -867325.8, -70886.03, -0.056996543, -0.3155567, -772865.25, -39277.22, 0.0, 9.9997225, 9.99919 
3.3500057e+2, 2.3514277e+2, -721731.1, -768543.4, -47337.816, 0.022407781, -0.16126743, -692328.94, -56747.93, 0.0, 9.999778, 9.999169 
3.3500326e+2, 2.4514256e+2, -571992.0, -643080.2, -12356.966, 0.0838726, -0.09525908, -569905.3, -32320.793, 0.0, 10.000103, 9.9992075 
3.350062e+2, 2.5514093e+2, -425003.47, -523019.03, 6672.2944, 0.11665171, -0.21457674, -424551.34, 15048.551, 0.0, 10.000448, 9.999188 
3.350083e+2, 2.6514015e+2, -366422.66, -498359.22, 3047.0886, 0.036724333, -0.18297988, -366352.3, -24745.16, 0.0, 10.000431, 9.998692 
3.3500963e+2, 2.7513972e+2, -355079.94, -446544.4, -2370.4587, -0.14102961, -0.12766549, -355018.53, -111407.96, 0.000000000044508567, 9.999844, 9.998659 
3.3501273e+2, 2.8513786e+2, -265718.66, -370580.88, -59210.33, -0.0834003, -0.16843575, -239061.94, -93433.41, 0.00000018851506, 9.999849, 9.998511 
3.3501685e+2, 2.9513478e+2, -134102.89, -259961.22, -11319.865, 0.13560344, -0.36772195, -133092.88, -85434.29, 0.0000023038672, 10.00008, 9.998488 
3.3501637e+2, 3.0513456e+2, -37667.098, -236207.92, -8139.256, -0.17118798, -0.2085023, -37333.984, -37333.984, 0.000011796056, 10.000674, 9.998026 
3.3501983e+2, 3.1513235e+2, 24410.807, -220744.94, -19751.014, -0.11334186, -0.25799286, 25991.854, 25991.854, 0.000034748333, 10.001078, 9.997948 
3.4497648e+2, 1.2514229e+2, -1685293.5, -1658471.9, -34265.67, 0.08760636, -0.1882309, -1635086.1, 78498.96, 0.00012841672, 9.999934, 10.000392 
3.449792e+2, 1.3514145e+2, -1641326.4, -1597582.6, -14717.594, 0.15275213, -0.34341314, -1593091.9, 22499.596, 0.00005393956, 9.999653, 10.000293 
3.4498042e+2, 1.4514244e+2, -1568279.6, -1529597.9, 31166.803, 0.074404895, -0.25511637, -1512258.6, 5323.3164, 0.00001321429, 9.999566, 10.000098 
3.4498253e+2, 1.5514421e+2, -1419825.8, -1423332.9, 17075.98, 0.030453626, -0.12361815, -1404413.5, 15153.05, 0.00000089811203, 9.999979, 9.999963 
3.44985e+2, 1.651437e+2, -1348228.5, -1471257.4, 34918.617, 0.030204711, -0.10706093, -1339008.8, -17434.867, 0.0000000015154811, 10.000375, 9.99877 
3.4498763e+2, 1.7514095e+2, -1209302.8, -1358565.1, 25479.922, 0.042298846, -0.29079056, -1205073.0, 18530.1, 0.0, 10.00068, 9.998724 
3.449907e+2, 1.8514086e+2, -1038365.5, -1116527.0, 39156.957, 0.088840276, -0.2138386, -1022123.8, 103481.38, 0.0, 10.000704, 9.999702 
3.449943e+2, 1.9514295e+2, -990815.25, -1049567.8, 2336.5583, 0.18338585, -0.008818658, -990722.44, 36862.6, 0.0, 10.000384, 9.999646 
3.449961e+2, 2.0514238e+2, -939474.2, -989922.5, -24212.662, 0.13181885, -0.016992172, -929733.94, -145.35971, 0.0, 10.000144, 9.999493 
3.449961e+2, 2.1513906e+2, -876673.56, -914515.6, -44692.176, -0.065286994, -0.33122748, -847062.2, -15445.56, 0.0, 9.999919, 9.999449 
3.4499773e+2, 2.2513838e+2, -756056.2, -782557.56, -31538.434, -0.0877509, -0.34804392, -735097.9, -1476.3798, 0.0, 9.99998, 9.999653 
3.4500095e+2, 2.3514001e+2, -614926.2, -668110.6, -17653.285, 0.06469868, -0.18311267, -609600.0, 26006.453, 0.0, 10.000285, 9.999623 
3.4500396e+2, 2.4514012e+2, -542172.7, -645851.1, 38128.38, 0.13453904, -0.10078129, -529660.75, 7945.9204, 0.0, 10.000397, 9.9990425 
3.4500661e+2, 2.5513852e+2, -446564.28, -557094.9, 4826.9033, 0.12428829, -0.19880171, -446353.9, -6729.91, 0.0, 10.000399, 9.998983 
3.450086e+2, 2.6513764e+2, -387228.3, -505590.13, 17784.75, 0.03942106, -0.16369389, -384613.78, -42980.773, 0.0, 10.000283, 9.998711 
3.4501e+2, 2.7513713e+2, -318530.03, -422859.22, 25533.346, -0.09289476, -0.118670896, -312616.25, -68978.836, 0.0, 10.000079, 9.998705 
3.4501305e+2, 2.8513524e+2, -217226.88, -332504.13, 21105.037, -0.03925097, -0.16889912, -213484.45, -67829.17, 0.00000016974016, 10.00015, 9.998615 
3.4501725e+2, 2.9513222e+2, -53297.816, -208777.56, -2980.2783, 0.15092744, -0.36971682, -53240.71, -5556.5225, 0.0000020169734, 10.000601, 9.998583 
3.450169e+2, 3.0513242e+2, -26260.72, -248584.25, 45405.684, -0.17596492, -0.1656891, -17344.951, -17344.951, 0.0000103175025, 10.000794, 9.997898 
3.4502137e+2, 3.1513032e+2, -118228.42, -313264.44, 30394.094, -0.0062384806, -0.2008061, -113601.62, -113601.62, 0.000031962787, 10.000181, 9.997739 
3.5497922e+2, 1.2514149e+2, -1690058.9, -1663774.3, -93602.83, 0.28543302, -0.10720279, -1582395.6, 131199.4, 0.00012227354, 9.999913, 10.000365 
3.5497785e+2, 1.3513987e+2, -1653605.4, -1624249.1, -13197.973, 0.01683689, -0.31146297, -1619188.1, -3580.387, 0.00005490219, 9.999674, 10.000091 
3.549795e+2, 1.4514016e+2, -1559772.1, -1516419.3, 29129.42, -0.021115514, -0.29334286, -1501786.1, 15817.903, 0.000015641235, 9.999577, 10.000192 
3.5498357e+2, 1.5514119e+2, -1414826.8, -1422161.6, 47294.016, 0.096741326, -0.23693436, -1371058.3, 48536.87, 0.0000017221555, 10.00001, 9.999963 
3.549864e+2, 1.6514133e+2, -1345768.1, -1448374.6, 29107.635, 0.094983965, -0.16184768, -1338086.0, -16490.086, 0.000000007086625, 10.0003, 9.9989605 
3.5498768e+2, 1.7514043e+2, -1201588.3, -1331461.3, 52012.914, -0.05556759, -0.1829344, -1183325.6, 40282.08, 0.0, 10.00063, 9.998935 
3.5498998e+2, 1.8513986e+2, -1097685.0, -1212591.0, 15902.76, -0.080042936, -0.13536786, -1095524.6, 30089.88, 0.0, 10.000588, 9.999097 
3.5499355e+2, 1.9513945e+2, -1047726.3, -1143648.1, 5868.482, 0.038685396, -0.11985599, -1047368.6, -19750.346, 0.0, 10.00028, 9.99905 
3.5499558e+2, 2.0513862e+2, -974225.2, -1028014.7, -46397.72, 0.037985783, -0.114866294, -947490.9, -17865.305, 0.0, 9.999993, 9.999307 
3.5499606e+2, 2.1513718e+2, -911002.4, -950281.44, -37863.355, -0.08796699, -0.22343132, -887988.1, -56349.867, 0.0, 9.9997635, 9.999281 
3.5499793e+2, 2.2513665e+2, -728964.94, -692369.2, -30666.14, -0.09269479, -0.25087452, -674956.75, 58683.09, 0.0, 9.999836, 10.00034 
3.55001e+2, 2.3513676e+2, -594232.9, -584810.7, 7888.3965, 0.016465375, -0.30696997, -580333.7, 55299.76, 0.0, 10.000115, 10.000276 
3.5500365e+2, 2.4513651e+2, -600483.3, -735685.1, 26067.666, 0.03857365, -0.26236793, -595631.44, -57995.164, 0.0, 10.00027, 9.998483 
3.550059e+2, 2.551357e+2, -507038.34, -648246.94, 18690.463, -0.01988635, -0.22644936, -504606.34, -64956.0, 0.0, 10.0002575, 9.998424 
3.550087e+2, 2.6513496e+2, -352416.63, -419341.3, -1576.5098, -0.007990148, -0.18146063, -352379.5, -10720.353, 0.0, 10.000219, 9.999333 
3.5501215e+2, 2.75134e+2, -294408.84, -347874.53, 34897.71, 0.08047218, -0.24533436, -277181.53, -33515.234, 0.0, 9.99997, 9.999272 
3.5501477e+2, 2.8513283e+2, -263616.72, -416674.38, 25186.03, 0.08437562, -0.22163446, -259578.83, -113899.58, 0.00000011654808, 10.0001, 9.998061 
3.5501647e+2, 2.951317e+2, -108831.76, -298936.66, 34990.293, -0.028357472, -0.17913562, -102596.06, -54900.957, 0.0000016052002, 10.000495, 9.998016 
3.5501626e+2, 3.0513254e+2, 52039.207, -83982.83, 17350.646, -0.3518729, 0.059632808, 54217.53, 54217.53, 0.000008325357, 10.000778, 9.999041 
3.550224e+2, 3.1512997e+2, -11846.759, -69899.36, -2332.788, 0.0005917734, -0.13841571, -11753.168, -11753.168, 0.000028551576, 10.000078, 9.999466 
3.6497986e+2, 1.2513962e+2, -1801212.9, -1727438.0, -23253.787, 0.4113774, -0.15225255, -1720720.1, -7106.589, 0.000118926524, 9.999174, 10.0002985 
3.6497742e+2, 1.3513896e+2, -1650155.5, -1643373.6, -11779.61, 0.016847488, -0.24110413, -1634506.6, -18889.055, 0.000056465244, 9.999782, 9.999908 
3.649799e+2, 1.451388e+2, -1531304.5, -1548616.6, 51157.94, 0.05249531, -0.23961236, -1488075.5, 29543.336, 0.00001794202, 9.999968, 9.9997835 
3.649839e+2, 1.5513873e+2, -1455386.9, -1481638.6, 5073.232, 0.14290982, -0.25185388, -1454440.5, -34819.703, 0.000002788093, 9.9999075, 9.999603 
3.6498684e+2, 1.6513887e+2, -1374452.4, -1421149.6, 15500.977, 0.13803358, -0.1771447, -1369775.4, -48154.285, 0.00000008230677, 9.999924, 9.999331 
3.6498836e+2, 1.7513901e+2, -1280435.4, -1326479.5, 16474.33, -0.006945916, -0.13085578, -1275148.1, -51526.945, 0.0, 9.999905, 9.999318 
3.6499056e+2, 1.8513824e+2, -1170416.9, -1271239.1, 26624.64, -0.05345663, -0.111820824, -1163817.9, -38189.11, 0.0, 10.000197, 9.998883 
3.6499375e+2, 1.9513638e+2, -999995.4, -1143738.4, 18685.447, 0.017235538, -0.21812208, -997606.1, 30039.898, 0.0, 10.000714, 9.99884 
3.649957e+2, 2.0513552e+2, -889222.9, -1008570.9, -9325.779, 0.027474951, -0.19670387, -888498.56, 41156.277, 0.0, 10.000663, 9.999122 
3.649965e+2, 2.1513535e+2, -887766.8, -959022.44, -31149.879, -0.024065364, -0.16124375, -876069.6, -44411.41, 0.0, 10.000004, 9.999107 
3.6499828e+2, 2.2513488e+2, -746812.8, -723498.5, -4439.4688, -0.029162101, -0.16639623, -722681.75, 10978.717, 0.0, 9.99981, 10.000142 
3.6500108e+2, 2.3513389e+2, -616371.0, -615971.56, -60201.332, 0.02309923, -0.31026527, -555969.6, 79694.23, 0.0, 10.000054, 10.000092 
3.6500347e+2, 2.4513336e+2, -614000.06, -719423.06, -30879.611, 0.012464418, -0.29609174, -605621.0, -67952.445, 0.0, 10.000055, 9.998714 
3.6500546e+2, 2.5513312e+2, -558386.9, -640125.3, -2866.6387, -0.053550433, -0.2263384, -558286.44, -118610.38, 0.0, 9.9997635, 9.998719 
3.650085e+2, 2.6513264e+2, -409396.38, -466721.22, 14414.288, -0.025889365, -0.16451725, -405976.0, -64292.676, 0.0, 9.999927, 9.999143 
3.6501265e+2, 2.7513146e+2, -220335.33, -332599.34, -39106.035, 0.11347384, -0.22563502, -208056.19, 35638.39, 0.0, 10.000574, 9.999086 
3.650155e+2, 2.8513056e+2, -168171.77, -339052.4, -21989.664, 0.13127393, -0.18104611, -165387.4, -19681.963, 0.000000055764154, 10.000594, 9.998366 
3.6501694e+2, 2.951302e+2, -165930.42, -292587.84, 24998.709, 0.008648795, -0.09980742, -161174.9, -113461.66, 0.0000011855267, 9.999956, 9.998317 
3.6501718e+2, 3.0513066e+2, -41135.53, -64738.918, 44992.574, -0.27969855, 0.06125288, -6422.583, -6422.583, 0.0000067298934, 9.999891, 9.99959 
3.650225e+2, 3.151291e+2, 52770.53, 76689.64, -108211.36, 0.021694377, -0.09207103, 173600.33, 173600.33, 0.00002565761, 10.000051, 10.000484 
3.749773e+2, 1.2513697e+2, -1801475.3, -1730367.4, 620.83527, 0.16297793, -0.27317417, -1730362.0, -16724.12, 0.0001191897, 9.999182, 10.000267 
3.7497744e+2, 1.3513874e+2, -1653638.1, -1652395.6, 19263.154, 0.0019739557, -0.12165289, -1633743.6, -18122.79, 0.00005856906, 9.999789, 9.999836 
3.7498116e+2, 1.4513837e+2, -1599426.0, -1673771.6, 29159.979, 0.14095353, -0.09526804, -1589353.4, -71727.25, 0.000020069963, 9.999902, 9.998955 
3.7498304e+2, 1.5513681e+2, -1506830.3, -1593800.4, 19759.75, 0.027460102, -0.1744878, -1502551.3, -82906.99, 0.0000038584762, 9.999927, 9.998828 
3.7498593e+2, 1.6513631e+2, -1347186.1, -1350401.3, 1640.0349, 0.021134397, -0.15267746, -1346497.1, -24847.691, 0.00000020238203, 9.999866, 9.999842 
3.749892e+2, 1.7513679e+2, -1254681.6, -1263515.6, 31240.984, 0.054226343, -0.12249634, -1227546.9, -3904.3303, 0.0, 9.999859, 9.999772 
3.7499198e+2, 1.8513599e+2, -1170932.8, -1246722.0, 32340.938, 0.03576656, -0.14125282, -1159008.4, -33359.918, 0.0, 10.000087, 9.999103 
3.7499446e+2, 1.9513369e+2, -1001689.0, -1119715.0, 53510.863, -0.013710316, -0.31625262, -981040.56, 46628.523, 0.0, 10.000599, 9.999058 
3.7499613e+2, 2.0513299e+2, -926296.2, -1052523.5, -47117.227, -0.024520809, -0.27506498, -910648.4, 19028.871, 0.0, 10.000519, 9.998891 
3.749969e+2, 2.1513362e+2, -930829.25, -1004463.1, -42852.43, -0.014264234, -0.13533981, -911150.0, -79473.97, 0.0, 9.99982, 9.998881 
3.7499845e+2, 2.2513308e+2, -844478.44, -893512.9, -12240.847, -0.020437775, -0.07946165, -841592.5, -107909.72, 0.0, 9.99966, 9.999051 
3.7500075e+2, 2.351312e+2, -710328.3, -780953.2, -38897.027, -0.047323015, -0.2055412, -693105.56, -57406.24, 0.0, 9.999913, 9.99903 
3.7500295e+2, 2.4513057e+2, -551120.2, -565045.75, -54639.855, -0.07101262, -0.20630267, -503001.25, 34702.965, 0.0, 9.999953, 9.999823 
3.7500492e+2, 2.5513083e+2, -503874.13, -497257.06, 1887.1427, -0.115795195, -0.19493847, -496756.7, -57055.996, 0.0, 9.99963, 9.999766 
3.750076e+2, 2.6513052e+2, -490157.97, -619054.1, 26559.861, -0.13973716, -0.11430149, -484899.63, -143193.23, 0.0, 9.999858, 9.99813 
3.7501106e+2, 2.7512938e+2, -300653.1, -479434.63, 1652.9764, -0.1355131, -0.07561203, -300637.8, -56913.918, 0.0, 10.000482, 9.998126 
3.750147e+2, 2.8512844e+2, -84366.45, -156045.27, -56829.082, -0.042115137, -0.050972197, -53019.492, 92714.66, 0.00000003400916, 10.000552, 9.999646 
3.7501815e+2, 2.9512775e+2, -98857.27, -131802.08, 18882.27, 0.0955413, -0.12572129, -90272.14, -42534.277, 0.000000899484, 9.999851, 9.999478 
3.7501913e+2, 3.051268e+2, -57639.3, -83848.68, 47648.945, -0.10175777, -0.15392892, -21325.828, -21325.828, 0.000005766145, 9.999834, 9.999485 
3.7502086e+2, 3.151271e+2, 45582.33, 84706.195, -74637.03, -0.21670516, -0.11540478, 142302.25, 142302.25, 0.000023929499, 9.99995, 10.000591 
3.8497683e+2, 1.2513468e+2, -1654347.3, -1718179.5, 50000.11, 0.1480843, -0.2883883, -1626945.1, 86713.85, 0.00012316402, 10.000455, 9.999738 
3.8497847e+2, 1.3513638e+2, -1604524.8, -1678891.6, -70815.95, 0.11374695, -0.099103354, -1561723.8, 53922.0, 0.000061385945, 10.000326, 9.99941 
3.8498256e+2, 1.4513573e+2, -1555223.6, -1650236.4, -14726.273, 0.284528, -0.08061673, -1552993.5, -35338.6, 0.000022093489, 10.000202, 9.998967 
3.849827e+2, 1.551344e+2, -1462768.8, -1568897.8, -5059.7305, -0.0042342576, -0.1400896, -1462528.0, -42858.453, 0.000004863891, 10.00023, 9.998843 
3.8498545e+2, 1.6513368e+2, -1297036.1, -1355860.5, 6438.5815, -0.027426474, -0.12810697, -1296339.6, 25337.018, 0.00000029520132, 10.000319, 9.9995985 
3.8499e+2, 1.7513359e+2, -1191252.5, -1257197.3, -42904.918, 0.13320662, -0.13255209, -1170113.9, 53562.223, 0.0, 10.00039, 9.999565 
3.849929e+2, 1.8513298e+2, -1160518.4, -1196748.6, -39374.22, 0.134639, -0.14153573, -1135292.0, -9611.95, 0.0, 9.999955, 9.999511 
3.8499445e+2, 1.9513148e+2, -1205899.1, -1177628.5, -35759.98, 0.013442593, -0.27769378, -1153311.5, -125618.93, 0.0, 9.9990015, 9.999437 
3.84996e+2, 2.051311e+2, -1100574.6, -1126894.8, -65211.633, -0.019298164, -0.22971112, -1047208.44, -117510.39, 0.0, 9.999284, 9.998976 
3.8499743e+2, 2.1513158e+2, -795536.9, -935491.56, -62600.277, 0.022390462, -0.11165173, -771622.6, 60076.17, 0.0, 10.000717, 9.998934 
3.849991e+2, 2.2513114e+2, -666187.2, -822852.75, 22457.955, 0.022642136, -0.041461844, -663031.44, 70674.086, 0.0, 10.000957, 9.998903 
3.8500094e+2, 2.3512967e+2, -692437.94, -785605.25, 37082.336, -0.017042942, -0.11491751, -679480.56, -43761.18, 0.0, 10.000106, 9.998897 
3.850031e+2, 2.45129e+2, -577630.8, -564666.1, 49531.727, -0.035559338, -0.11889298, -521194.38, 16529.926, 0.0, 9.999734, 9.99991 
3.850053e+2, 2.5512877e+2, -465316.1, -475253.63, -834.3668, -0.043588005, -0.16569819, -465246.5, -25522.54, 0.0, 9.999875, 9.999795 
3.8500798e+2, 2.651283e+2, -466600.38, -589795.1, 75688.24, -0.085320845, -0.10679422, -430612.16, -88882.32, 0.0, 9.999934, 9.998302 
3.8501117e+2, 2.7512756e+2, -368230.1, -487811.1, 110660.87, -0.1353733, -0.04775152, -302240.1, -58497.348, 0.0, 9.99992, 9.998336 
3.8501444e+2, 2.8512684e+2, -186916.1, -190800.84, 51364.965, -0.07543646, -0.023835456, -137456.78, 8293.508, 0.000000026095549, 9.999793, 9.99977 
3.8501745e+2, 2.9512587e+2, -140419.38, -134145.02, 15382.869, 0.066231176, -0.13647544, -121582.69, -73827.77, 0.00000066980994, 9.9995, 9.999626 
3.8501975e+2, 3.051241e+2, -118725.24, -133675.4, 63724.863, 0.008350292, -0.24461056, -62038.535, -62038.535, 0.000005131084, 9.999494, 9.999305 
3.8502172e+2, 3.1512547e+2, -43178.098, 16735.883, -117875.47, -0.08446993, -0.09116687, 108401.45, 108401.45, 0.000023471404, 9.999458, 10.000354 
3.9497793e+2, 1.2513284e+2, -1748990.8, -1886339.5, 61569.863, 0.13621463, -0.19831762, -1725431.6, -11755.843, 0.0001272644, 10.000375, 9.998614 
3.9498016e+2, 1.3513198e+2, -1670717.6, -1799062.6, -62346.31, 0.21341164, -0.18047084, -1645418.5, -29726.973, 0.00006380605, 10.000283, 9.998598 
3.9498356e+2, 1.4513095e+2, -1514256.5, -1556520.4, -32033.91, 0.32246706, -0.19105509, -1497012.3, 20691.752, 0.000023677207, 10.000149, 9.99964 
3.9498228e+2, 1.551314e+2, -1414119.1, -1470165.0, 10142.433, -0.107351, -0.14592302, -1412340.1, 7357.613, 0.000005569423, 10.000234, 9.999519 
3.94985e+2, 1.6513081e+2, -1366878.5, -1483500.8, -9120.052, -0.13913809, -0.111254744, -1366169.6, -44465.37, 0.00000035120044, 10.000252, 9.9987545 
3.9499047e+2, 1.7512934e+2, -1259864.0, -1378973.8, -25815.72, 0.10849248, -0.16777222, -1254509.5, -30787.338, 0.0, 10.00031, 9.998767 
3.9499307e+2, 1.8512915e+2, -1137603.6, -1124068.4, -88900.65, 0.12713727, -0.12253765, -1041678.1, 84046.55, 0.0, 9.999841, 10.000072 
3.9499325e+2, 1.9512992e+2, -1184226.5, -1099846.5, -57185.668, -0.0363694, -0.08570119, -1070971.8, -43256.266, 0.0, 9.998864, 10.000036 
3.949949e+2, 2.0512998e+2, -1092686.1, -1070981.3, -25744.73, -0.081539266, -0.046689477, -1053895.1, -124179.305, 0.0, 9.999116, 9.99944 
3.9499778e+2, 2.1512921e+2, -792575.25, -879557.4, 7485.948, -0.04319841, -0.09935641, -791935.7, 39790.93, 0.0, 10.000512, 9.999412 
3.9499992e+2, 2.2512905e+2, -631829.6, -717218.6, -21051.115, -0.018863754, -0.06408262, -626921.9, 106806.37, 0.0, 10.000804, 9.999705 
3.9500138e+2, 2.3512924e+2, -661104.06, -683610.8, 21902.91, -0.01510874, -0.048625335, -647732.75, -12008.782, 0.0, 9.999948, 9.999674 
3.9500347e+2, 2.451286e+2, -659171.8, -711515.75, 41876.523, -0.00082235987, -0.039033283, -635961.44, -98232.14, 0.0, 9.999633, 9.998959 
3.9500615e+2, 2.5512686e+2, -545721.0, -614480.56, 19174.242, 0.021081256, -0.13974914, -540735.56, -100988.98, 0.0, 9.99975, 9.998905 
3.950092e+2, 2.651261e+2, -381796.4, -397815.3, 62609.445, 0.014885864, -0.13851833, -326686.2, 15067.022, 0.0, 9.999861, 9.9996605 
3.9501256e+2, 2.7512607e+2, -291916.06, -307940.72, 124956.4, -0.02395863, -0.14053895, -174715.38, 69036.164, 0.0, 9.999816, 9.999629 
3.9501432e+2, 2.851256e+2, -266492.5, -332676.34, 27291.19, -0.09630039, -0.10313535, -256690.55, -110935.77, 0.000000010243951, 9.999708, 9.998831 
3.9501438e+2, 2.9512453e+2, -224503.97, -270828.0, 24150.896, -0.23006003, -0.12986776, -214203.4, -166438.6, 0.0000005130985, 9.999349, 9.998759 
3.950187e+2, 3.0512255e+2, -135305.3, -163149.47, 55611.008, -0.07712296, -0.2109547, -91900.18, -91900.18, 0.0000059963604, 9.999467, 9.999116 
3.950242e+2, 3.1512362e+2, -101663.4, -76050.414, -56289.492, 0.1505756, -0.05326832, -31128.984, -31128.984, 0.000027747768, 9.999338, 9.999773 
4.0497875e+2, 1.2512967e+2, -1750164.1, -1898279.4, 88097.49, 0.20342647, -0.16570753, -1709131.8, 4578.0464, 0.0001282802, 10.000378, 9.998545 
4.0498063e+2, 1.3512866e+2, -1685866.9, -1792297.5, -78355.266, 0.25661722, -0.17758323, -1644364.6, -28638.232, 0.00006493345, 10.000109, 9.998731 
4.0498352e+2, 1.4512785e+2, -1520675.9, -1553069.5, 21580.145, 0.3186117, -0.17694698, -1509890.5, 7845.807, 0.00002457309, 10.00007, 9.999704 
4.0498337e+2, 1.5512826e+2, -1406205.8, -1462101.9, -16978.398, -0.012387033, -0.14338946, -1401452.8, 18277.287, 0.000005781208, 10.000249, 9.999576 
4.04986e+2, 1.6512777e+2, -1402882.9, -1476644.9, -2284.5112, -0.03718334, -0.111486286, -1402812.1, -81076.63, 0.0000003430959, 9.999904, 9.998963 
4.0499e+2, 1.7512651e+2, -1423171.1, -1436812.1, 25999.184, 0.09679505, -0.16713859, -1403112.6, -179361.19, 0.0, 9.999089, 9.998958 
4.0499225e+2, 1.8512668e+2, -1221048.4, -1151327.4, 25134.848, 0.10021133, -0.10276189, -1143211.0, -17459.88, 0.0, 9.9992285, 10.000173 
4.049933e+2, 1.9512786e+2, -981864.06, -992339.9, -736.70905, 0.023247981, -0.032356244, -981812.56, 45926.125, 0.0, 10.000219, 10.000121 
4.0499523e+2, 2.0512806e+2, -920621.2, -964748.6, 34754.734, -0.0038620853, 0.0060963123, -901518.2, 28219.488, 0.0, 10.000197, 9.999642 
4.0499792e+2, 2.1512714e+2, -970073.44, -944189.5, 16588.197, -0.002653984, -0.083638206, -936091.9, -104342.35, 0.0, 9.999202, 9.999596 
4.0500012e+2, 2.2512715e+2, -857190.75, -792064.1, -23361.852, 0.014831023, -0.056430783, -784550.7, -50801.47, 0.0, 9.999113, 10.000008 
4.0500182e+2, 2.351278e+2, -652009.4, -652778.1, -42913.223, 0.049866952, -0.022785418, -609478.8, 26261.115, 0.0, 9.999882, 9.999926 
4.0500396e+2, 2.4512717e+2, -601690.4, -731496.7, 11964.512, 0.065110534, -0.002926063, -600596.8, -62851.055, 0.0, 10.000232, 9.998533 
4.0500647e+2, 2.5512516e+2, -504199.47, -630931.3, 4234.5728, 0.061792117, -0.09153493, -504058.16, -64290.918, 0.0, 10.000219, 9.998555 
4.0500936e+2, 2.6512423e+2, -359986.66, -357590.97, 37801.973, 0.056171857, -0.10645859, -320967.84, 20807.295, 0.0, 9.999869, 9.9999275 
4.0501267e+2, 2.7512398e+2, -371460.56, -320712.5, -4943.547, 0.051793747, -0.15790704, -320235.44, -76462.13, 0.0, 9.999141, 9.999865 
4.0501425e+2, 2.8512353e+2, -353509.44, -402907.28, -56826.387, -0.038544074, -0.11962857, -316246.47, -170470.83, 0.0000000008315615, 9.999216, 9.998588 
4.050143e+2, 2.9512265e+2, -125499.695, -239960.78, -37192.383, -0.1952097, -0.10706909, -114476.24, -66692.05, 0.0000007104038, 10.00009, 9.99861 
4.0501913e+2, 3.051204e+2, -39216.59, -131403.9, 29051.994, -0.0018763875, -0.20199372, -30824.986, -30824.986, 0.000009515816, 10.000183, 9.998996 
4.0502375e+2, 3.1512058e+2, -113464.77, -100240.83, -73326.26, 0.18885003, -0.120361015, -33229.043, -33229.043, 0.000039448827, 9.999293, 9.999644 
4.1497844e+2, 1.2512486e+2, -1661452.9, -1730759.8, 84125.016, 0.05631287, -0.2035867, -1605123.5, 108640.65, 0.00012596608, 10.000432, 9.999666 
4.1497937e+2, 1.3512649e+2, -1589360.9, -1617958.9, -78519.35, 0.080271915, -0.07864221, -1523849.1, 91900.8, 0.00006410072, 10.000188, 9.999894 
4.1498196e+2, 1.4512637e+2, -1559334.6, -1622598.9, 14436.592, 0.114271075, -0.043420993, -1556196.0, -38443.88, 0.00002430965, 10.000041, 9.999238 
4.1498566e+2, 1.5512505e+2, -1445881.5, -1528005.3, 6869.2983, 0.15609519, -0.13139752, -1445310.9, -25545.266, 0.0000053776803, 10.000195, 9.9991455 
4.1498807e+2, 1.6512465e+2, -1335198.6, -1314077.1, -47124.28, 0.14655298, -0.12826163, -1276344.8, 45424.914, 0.0000002359893, 9.999808, 10.000122 
4.14988e+2, 1.7512527e+2, -1351823.4, -1272596.0, 11548.225, -0.04678495, -0.114604704, -1270947.0, -47184.22, 0.0, 9.999022, 10.000114 
4.1498986e+2, 1.8512559e+2, -1258306.8, -1206255.8, 48103.813, -0.09152551, -0.075505845, -1177588.5, -51829.246, 0.0, 9.999135, 9.999836 
4.149941e+2, 1.9512528e+2, -1021320.6, -1046946.44, 48521.586, 0.049920857, -0.12265365, -983948.7, 43813.242, 0.0, 10.000112, 9.999791 
4.1499665e+2, 2.0512527e+2, -947890.44, -994626.06, -16357.725, 0.08786438, -0.0801884, -942734.0, -12970.007, 0.0, 10.000069, 9.999507 
4.149975e+2, 2.1512538e+2, -1004158.94, -970143.06, -7927.3813, 0.0073366803, -0.05509192, -968386.3, -136618.94, 0.0, 9.999007, 9.999512 
4.149993e+2, 2.2512548e+2, -898386.4, -835898.1, -7491.1133, -0.004609155, -0.0058289026, -835012.6, -101244.945, 0.0, 9.998936, 9.999793 
4.1500193e+2, 2.3512529e+2, -688705.1, -692919.9, 339.42346, 0.04243103, -0.036193773, -688678.0, -52910.17, 0.0, 9.999729, 9.999723 
4.1500404e+2, 2.4512468e+2, -604146.75, -713917.44, 182.78496, 0.019558754, -0.011893126, -604146.44, -66372.63, 0.0, 10.000131, 9.998701 
4.150057e+2, 2.5512347e+2, -510873.2, -617485.7, 19161.17, -0.06824753, -0.037699793, -507533.97, -67746.47, 0.0, 10.000097, 9.998706 
4.1500813e+2, 2.6512247e+2, -425269.75, -469934.03, -1084.9652, -0.08531897, -0.03032729, -425243.4, -83445.66, 0.0, 9.999782, 9.999192 
4.1501114e+2, 2.7512136e+2, -441277.78, -433645.97, -17379.99, -0.05323838, -0.09327052, -419667.9, -175860.47, 0.0, 9.999019, 9.99914 
4.1501388e+2, 2.8512067e+2, -319814.84, -337211.1, -39456.01, -0.03349183, -0.06719392, -288109.56, -142297.45, 0.00000000001177225, 9.999216, 9.999049 
4.1501665e+2, 2.9512024e+2, -106877.79, -180010.89, 9545.667, -0.014336676, -0.057577815, -105652.375, -57839.4, 0.0000013022876, 9.999986, 9.999079 
4.150205e+2, 3.051177e+2, -37867.914, -114258.56, -12181.543, 0.08435956, -0.21217184, -35972.43, -35972.43, 0.000014575742, 10.000138, 9.999125 
4.1501957e+2, 3.151169e+2, -105559.57, -40365.277, 1336.9681, -0.22778234, -0.2403823, -40337.87, -40337.87, 0.000055427667, 9.999132, 10.000121 
4.2497885e+2, 1.2512167e+2, -1611452.4, -1645689.4, 177771.3, 0.06250326, -0.14532126, -1449977.3, 263823.28, 0.00012015749, 10.000501, 10.000217 
4.2498004e+2, 1.3512367e+2, -1514793.3, -1524408.8, -99477.95, 0.12656038, -0.036553677, -1420006.9, 195772.67, 0.00006079175, 10.000452, 10.000401 
4.249813e+2, 1.4512406e+2, -1510650.8, -1572093.3, 25553.707, 0.039930575, 0.012213667, -1501412.3, 16363.49, 0.00002257458, 10.000261, 9.9994755 
4.2498586e+2, 1.5512286e+2, -1517180.4, -1533171.4, 28471.926, 0.19927253, -0.09037056, -1495602.6, -75813.79, 0.0000044461326, 9.999588, 9.999397 
4.2498854e+2, 1.6512263e+2, -1367986.9, -1318594.8, -2902.2893, 0.23438731, -0.0847989, -1318424.9, 3366.3848, 0.00000009724189, 9.999546, 10.000216 
4.2498815e+2, 1.7512332e+2, -1187633.3, -1181136.4, -51842.105, 0.022752067, -0.07231332, -1132441.0, 91342.55, 0.0, 10.000103, 10.000222 
4.2498973e+2, 1.851235e+2, -1136863.5, -1137742.9, -5306.408, -0.05246809, -0.059160005, -1131978.6, -6197.53, 0.0, 9.999908, 9.999944 
4.249935e+2, 1.9512282e+2, -1181754.8, -1114899.3, 2025.8147, 0.04681044, -0.15327431, -1114837.9, -87050.836, 0.0, 9.99895, 9.999893 
4.2499608e+2, 2.0512308e+2, -1104165.1, -1038656.5, -11406.331, 0.08820662, -0.106044896, -1036727.25, -106941.44, 0.0, 9.998873, 9.999776 
4.2499718e+2, 2.1512397e+2, -903770.44, -897129.7, -1442.569, 0.05467485, -0.025316972, -896829.9, -65049.62, 0.0, 9.999592, 9.999733 
4.2499918e+2, 2.2512385e+2, -777914.56, -828471.4, 50241.063, 0.04814382, 0.016405625, -746950.94, -13167.761, 0.0, 9.999988, 9.9993305 
4.2500192e+2, 2.3512265e+2, -674736.06, -732171.8, 7468.3013, 0.06103067, -0.06978927, -673780.9, -37985.098, 0.0, 10.000037, 9.999299 
4.25004e+2, 2.4512224e+2, -605873.06, -658937.8, 14386.783, 0.020918608, -0.030107448, -602223.5, -64422.918, 0.0, 9.999874, 9.999208 
4.2500553e+2, 2.5512227e+2, -557995.94, -589405.3, 30725.586, -0.058568686, 0.02104597, -539194.1, -99393.04, 0.0, 9.999539, 9.999177 
4.2500785e+2, 2.6512152e+2, -480685.1, -546045.0, 62457.18, -0.07344804, 0.05253358, -442874.75, -101065.086, 0.0, 9.99961, 9.998765 
4.2501083e+2, 2.751197e+2, -322469.2, -422145.13, 43180.01, -0.026843878, -0.03638208, -306365.22, -62536.64, 0.0, 10.000034, 9.998737 
4.250141e+2, 2.851189e+2, -167618.36, -240787.78, 70192.01, 0.027056927, -0.009023485, -125049.055, 20785.709, 0.0000000012455732, 10.000197, 9.999219 
4.2501804e+2, 2.951189e+2, -75805.9, -148177.63, 61057.11, 0.12801126, 0.027707972, -41017.21, 6813.4995, 0.0000019825331, 10.000136, 9.999222 
4.250212e+2, 3.0511618e+2, -69692.555, -133016.27, 18299.445, 0.16531438, -0.15164325, -64784.715, -64784.715, 0.000019679212, 9.999939, 9.999091 
4.250188e+2, 3.1511527e+2, -46081.58, -28196.955, 17757.652, -0.22606672, -0.18916926, -17257.135, -17257.135, 0.00007104561, 9.9996, 9.999982 
4.349792e+2, 1.251201e+2, -1617364.4, -1639879.8, 115774.98, -0.028421463, 0.00451691, -1512301.0, 201517.78, 0.00011272219, 10.000457, 10.000271 
4.3498233e+2, 1.3512029e+2, -1522865.1, -1541871.1, -82865.04, 0.26975772, -0.05284671, -1448960.0, 166854.78, 0.00005585788, 10.000471, 10.000271 
4.3498096e+2, 1.4512083e+2, -1453945.3, -1449311.0, -10528.871, -0.0617978, -0.023673004, -1440847.3, 76960.81, 0.000019900395, 10.000229, 10.000338 
4.349834e+2, 1.5512164e+2, -1450913.3, -1404177.9, 19042.434, -0.04395389, -0.015743135, -1397401.5, 22398.361, 0.0000034951138, 9.999611, 10.000277 
4.3498686e+2, 1.6512161e+2, -1445830.6, -1459576.5, 3453.7996, 0.078434214, 0.011755029, -1445011.6, -123210.125, 0.000000032016867, 9.999467, 9.999281 
4.3499005e+2, 1.7512067e+2, -1263089.6, -1319401.5, -17159.264, 0.1672512, -0.045992825, -1258272.9, -34459.06, 0.0, 10.0000305, 9.999304 
4.3499127e+2, 1.8512042e+2, -1116595.6, -1067354.8, -55096.6, 0.084405914, -0.05628644, -1031627.9, 94188.734, 0.0, 9.999789, 10.000486 
4.3499112e+2, 1.951206e+2, -1160552.5, -1041051.0, -18208.71, -0.1185368, -0.118589714, -1038338.06, -10525.399, 0.0, 9.998826, 10.000461 
4.3499297e+2, 2.051215e+2, -1084687.6, -961786.7, 1591.1947, -0.13461101, -0.065518424, -961766.06, -31963.71, 0.0, 9.998715, 10.000378 
4.3499655e+2, 2.1512282e+2, -887291.3, -826239.5, 38923.957, 0.0022814136, -0.0041943784, -807299.25, 24489.44, 0.0, 9.999434, 10.000295 
4.3499935e+2, 2.2512236e+2, -853633.3, -948373.5, 39228.63, 0.039391447, 0.012673651, -839498.8, -105703.664, 0.0, 9.999827, 9.998585 
4.3500137e+2, 2.3511994e+2, -748113.75, -847341.25, 23438.572, -0.024528584, -0.121883415, -742855.9, -107032.38, 0.0, 9.999875, 9.998586 
4.3500343e+2, 2.4511983e+2, -570390.2, -556510.44, -11846.443, -0.0511275, -0.054113, -549720.75, -11894.541, 0.0, 9.999757, 9.999962 
4.3500546e+2, 2.551217e+2, -524856.75, -488852.6, 32832.98, -0.049887225, 0.099610016, -469410.34, -29603.367, 0.0, 9.999411, 9.999923 
4.350081e+2, 2.6512152e+2, -494153.88, -563861.4, 66942.625, -0.03756154, 0.15763858, -453535.13, -111725.68, 0.0, 9.999561, 9.998669 
4.350112e+2, 2.7511904e+2, -340943.2, -440074.2, 75970.33, -0.025809007, 0.012914823, -299799.1, -55963.48, 0.0, 9.999939, 9.998663 
4.3501434e+2, 2.8511825e+2, -190399.48, -271873.16, 56445.68, -0.0001920402, 0.050972886, -161525.94, -15682.535, 0.000000012355592, 10.00014, 9.999027 
4.3501812e+2, 2.9511875e+2, -109427.88, -192612.7, 73959.17, 0.0832001, 0.15899411, -66168.14, -18332.045, 0.0000027662056, 10.000037, 9.9989605 
4.3502086e+2, 3.0511588e+2, -89009.93, -173694.75, -5816.5737, 0.106748365, -0.0093594715, -88612.28, -88612.28, 0.000024180765, 9.999932, 9.998818 
4.3502036e+2, 3.151154e+2, -128688.9, -172008.31, 89775.4, -0.102022156, 0.022295022, -57997.297, -57997.297, 0.00008333817, 9.999483, 9.999051 
4.4497976e+2, 1.2511715e+2, -1757604.3, -1673834.5, 79122.32, 0.056310195, 0.049522586, -1626194.6, 87654.445, 0.00010688196, 9.999397, 10.000535 
4.4498363e+2, 1.3511671e+2, -1648498.8, -1579938.9, -101487.45, 0.4169767, -0.08685431, -1507098.3, 108752.39, 0.000051033883, 9.9995365, 10.000464 
4.4498056e+2, 1.4511733e+2, -1487878.0, -1426607.4, -8114.863, -0.09326722, -0.07619892, -1425550.9, 92291.83, 0.000017295639, 9.999822, 10.000688 
4.4498295e+2, 1.5511881e+2, -1380694.5, -1329701.6, -59599.938, -0.057765145, -0.040970303, -1290373.5, 129453.94, 0.0000027656245, 9.999915, 10.000637 
4.4498667e+2, 1.6511926e+2, -1395129.6, -1418843.4, -5539.0605, 0.110541105, 0.008011534, -1393899.6, -72075.164, 0.000000035556127, 9.999714, 9.999459 
4.4499043e+2, 1.7511863e+2, -1365130.9, -1350209.8, 32599.93, 0.25006476, -0.036500923, -1324227.6, -100393.19, 0.0, 9.999234, 9.999487 
4.4499147e+2, 1.8511862e+2, -1226769.5, -1116935.5, 25602.629, 0.17051421, -0.032535728, -1111260.8, 14574.872, 0.0, 9.99904, 10.000493 
4.4499052e+2, 1.9511883e+2, -1130957.1, -1026813.9, -10105.776, -0.06288874, -0.0905887, -1025842.3, 1989.528, 0.0, 9.999042, 10.000443 
4.4499218e+2, 2.051195e+2, -978834.06, -920531.94, 35504.99, -0.11466324, -0.053176086, -903744.06, 26079.71, 0.0, 9.999505, 10.000272 
4.4499624e+2, 2.1512036e+2, -757221.1, -771883.4, -9438.058, -0.010097892, -0.025496203, -752601.44, 79212.45, 0.0, 10.000376, 10.000206 
4.449992e+2, 2.2512004e+2, -803483.56, -900867.1, -27090.174, 0.034358438, -0.001906649, -796454.94, -62636.39, 0.0, 10.0000725, 9.998789 
4.4500107e+2, 2.3511828e+2, -918475.7, -910905.25, 591.42267, 0.028765388, -0.087943114, -910859.3, -275019.3, 0.0, 9.998623, 9.998752 
4.450032e+2, 2.4511811e+2, -717665.44, -632902.44, 44553.445, 0.009495126, -0.03473241, -613792.44, -75949.47, 0.0, 9.998767, 9.999915 
4.450056e+2, 2.5511923e+2, -385591.9, -424541.94, 665.0097, -0.021678168, 0.049272075, -385580.56, 54249.71, 0.0, 10.000384, 9.999893 
4.4500837e+2, 2.651191e+2, -324269.34, -454565.25, 7887.6323, -0.01277261, 0.10202454, -323793.6, 18038.145, 0.0, 10.000617, 9.998902 
4.4501138e+2, 2.7511752e+2, -374445.4, -432858.5, 10901.689, 0.024643049, 0.020841219, -372477.16, -128627.54, 0.0, 9.99961, 9.998868 
4.4501448e+2, 2.851168e+2, -301842.03, -331659.63, 51991.914, 0.04247689, 0.062841035, -262663.56, -116806.57, 0.00000003062236, 9.999385, 9.998991 
4.450182e+2, 2.951167e+2, -156655.77, -210033.23, 45677.777, 0.11396729, 0.11361937, -130441.31, -82584.56, 0.0000032986038, 9.999703, 9.998997 
4.4502032e+2, 3.0511487e+2, -55988.785, -149245.92, 27469.275, 0.062265493, 0.04298725, -48499.105, -48499.105, 0.000027227657, 10.000121, 9.998886 
4.4502175e+2, 3.1511515e+2, 40277.38, -121813.93, 121068.48, 0.038032036, 0.14028704, 104923.09, 104923.09, 0.000091368296, 10.00079, 9.9987545 
4.5497948e+2, 1.2511271e+2, -1730271.1, -1623328.0, -42720.918, 0.009045777, -0.028609421, -1608357.8, 105534.38, 0.000102696926, 9.999417, 10.000873 
4.5498335e+2, 1.3511287e+2, -1608771.4, -1516604.4, -78130.49, 0.3965451, -0.14673193, -1471979.1, 143908.44, 0.000047349753, 9.9995985, 10.000875 
4.549796e+2, 1.4511338e+2, -1504745.0, -1450400.3, -11432.564, -0.21698834, -0.1612887, -1448093.1, 69788.07, 0.000015080613, 9.9997835, 10.00054 
4.5498407e+2, 1.5511422e+2, -1395787.0, -1353915.6, -39899.656, 0.025410423, -0.17004319, -1329792.6, 90080.12, 0.0000021144335, 9.999893, 10.000479 
4.549876e+2, 1.6511554e+2, -1305453.1, -1221361.8, -41338.996, 0.19535653, -0.09659836, -1204443.4, 117417.07, 0.00000004449902, 9.999658, 10.000841 
4.5498887e+2, 1.7511722e+2, -1273178.4, -1156386.0, 29922.393, 0.13606665, -0.04806929, -1149166.3, 74678.99, 0.0, 9.999214, 10.000828 
4.5498985e+2, 1.8511802e+2, -1283593.5, -1212220.3, 11617.912, 0.07414279, 0.0014186114, -1210376.8, -84538.18, 0.0, 9.998944, 9.999882 
4.5499122e+2, 1.9511756e+2, -1196308.3, -1128133.1, 2024.8956, 0.0715454, -0.06545732, -1128073.0, -100228.7, 0.0, 9.998899, 9.999812 
4.5499325e+2, 2.0511718e+2, -1060275.4, -1053621.6, 53797.38, 0.013104415, -0.05921393, -1003048.3, -73199.16, 0.0, 9.999346, 9.999436 
4.5499578e+2, 2.1511668e+2, -839755.8, -896522.1, 36659.75, -0.12140071, -0.08627458, -821775.9, 10079.128, 0.0, 10.000178, 9.999442 
4.5499825e+2, 2.2511698e+2, -748868.94, -752013.4, -94135.49, -0.09231439, -0.019121971, -656292.56, 77560.01, 0.0, 9.999911, 9.999895 
4.5500055e+2, 2.3511773e+2, -860407.6, -759324.7, -37334.867, 0.08154226, 0.032534875, -747030.4, -111185.195, 0.0, 9.998483, 9.999862 
4.550029e+2, 2.4511711e+2, -794874.25, -760384.4, 93217.29, 0.07544331, 0.02871699, -682830.3, -144979.67, 0.0, 9.998634, 9.999107 
4.5500547e+2, 2.5511485e+2, -459937.94, -545891.06, 76326.555, -0.10115589, -0.13938059, -415320.4, 24550.87, 0.0, 10.000241, 9.999134 
4.5500824e+2, 2.6511422e+2, -307810.4, -396064.2, -40753.547, -0.11715576, -0.124358706, -291870.38, 50007.207, 0.0, 10.00052, 9.999344 
4.55011e+2, 2.7511492e+2, -363728.2, -382383.44, -7532.7446, -0.008436776, -0.022493042, -361066.34, -117194.53, 0.0, 9.999494, 9.999264 
4.5501402e+2, 2.851146e+2, -295806.44, -312245.25, 51648.234, 0.026879968, 0.030626798, -251727.66, -105852.414, 0.000000022691747, 9.999344, 9.999148 
4.5501778e+2, 2.9511276e+2, -145120.05, -180241.86, 73654.516, 0.058349892, -0.109285, -86961.914, -39069.434, 0.0000033720132, 9.999654, 9.999237 
4.5501903e+2, 3.0511308e+2, -31813.174, -84823.98, 44075.793, -0.1125451, -0.0054883915, -6886.953, -6886.953, 0.000028360193, 10.000077, 9.999339 
4.550222e+2, 3.151142e+2, 44483.504, -87978.086, 181179.78, -0.06739916, 0.13538724, 171158.47, 171158.47, 0.00009465621, 10.000685, 9.999034 
4.6497914e+2, 1.2511046e+2, -1825543.1, -1678699.6, 8184.019, 0.08182152, -0.04505151, -1678244.9, 35669.54, 0.00009773488, 9.998764, 10.000805 
4.6498328e+2, 1.3511097e+2, -1632552.1, -1537198.6, 6474.973, 0.4516837, -0.12994821, -1536760.9, 79146.87, 0.000043477085, 9.999433, 10.000823 
4.6497962e+2, 1.451115e+2, -1507924.0, -1458912.6, 84626.05, -0.18414617, -0.13782094, -1395315.6, 122586.1, 0.000012657647, 9.99979, 10.000483 
4.649847e+2, 1.5511218e+2, -1427601.0, -1373602.3, 26732.982, 0.11851629, -0.15715054, -1362606.6, 57287.75, 0.0000014631825, 9.999697, 10.0004425 
4.6498767e+2, 1.6511348e+2, -1333868.8, -1218609.4, -1888.5032, 0.25960365, -0.09080654, -1218578.5, 103303.414, 0.000000030371112, 9.999412, 10.00097 
4.6498758e+2, 1.7511518e+2, -1301862.5, -1155410.4, -56064.707, 0.107001066, -0.053967323, -1136412.3, 87453.89, 0.0, 9.998964, 10.000951 
4.6498868e+2, 1.8511616e+2, -1217483.3, -1198653.3, -33701.645, 0.046673205, 0.0127741145, -1173076.3, -47217.813, 0.0, 9.999453, 9.999745 
4.6499145e+2, 1.9511609e+2, -931285.94, -1016049.4, -32367.535, 0.123258255, 0.00076950045, -920339.7, 107521.6, 0.0, 10.000761, 9.999701 
4.6499392e+2, 2.0511568e+2, -887081.9, -978412.25, 58760.484, 0.094683014, 0.010917688, -858328.6, 71538.555, 0.0, 10.000558, 9.999372 
4.6499598e+2, 2.1511465e+2, -1030452.6, -1001747.75, 65894.45, -0.050660145, -0.059948053, -948660.8, -116782.266, 0.0, 9.998915, 9.999336 
4.6499792e+2, 2.2511496e+2, -876644.7, -761535.6, -22183.59, -0.05139267, -0.008018979, -757408.44, -23533.445, 0.0, 9.998825, 10.0003395 
4.6499985e+2, 2.3511632e+2, -573925.75, -571780.7, -45921.625, 0.0831033, 0.059356056, -526919.06, 108940.42, 0.0, 10.000252, 10.000289 
4.6500233e+2, 2.4511565e+2, -555884.7, -662806.7, 119542.01, 0.076467335, 0.037021562, -478393.88, 59470.13, 0.0, 10.000339, 9.998952 
4.650055e+2, 2.551128e+2, -634009.75, -648564.6, 123618.086, -0.055565275, -0.17766665, -517455.1, -77564.95, 0.0, 9.999121, 9.998964 
4.6500838e+2, 2.651119e+2, -521274.3, -504870.0, 28249.611, -0.07260878, -0.17822699, -483655.9, -141757.36, 0.0, 9.999057, 9.999316 
4.6501076e+2, 2.7511266e+2, -293525.16, -351387.88, 2910.9175, 0.0035299493, -0.06757796, -293379.1, -49487.266, 0.0, 9.999976, 9.999255 
4.6501383e+2, 2.851123e+2, -166878.03, -252572.48, 75761.12, 0.039895874, -0.016346874, -122687.15, 23208.328, 0.00000001636591, 10.000244, 9.999121 
4.6501815e+2, 2.9511034e+2, -92549.945, -144138.98, 39669.836, 0.1225931, -0.16563423, -71025.83, -23112.164, 0.0000038591365, 9.999982, 9.999315 
4.6501884e+2, 3.051111e+2, -45849.29, -71224.37, 32454.469, -0.11702249, -0.03484612, -23690.506, -23690.506, 0.000029778155, 9.999849, 9.9995775 
4.650229e+2, 3.1511083e+2, -60779.773, -54242.594, 86982.65, 0.0049098586, -0.047140613, 29532.854, 29532.854, 0.00009717631, 9.999578, 9.999818 
4.7497767e+2, 1.2511036e+2, -1868257.8, -1733501.9, -136574.61, -0.025798868, 0.0056965603, -1648589.3, 65327.277, 0.00009217974, 9.998654, 10.000466 
4.7498304e+2, 1.3511102e+2, -1658718.6, -1584374.6, 50510.535, 0.44405344, -0.0286447, -1558832.4, 57078.934, 0.00003847725, 9.999428, 10.000487 
4.7498012e+2, 1.4511174e+2, -1505586.1, -1452116.0, 66143.31, -0.1606364, -0.0009848437, -1407508.9, 110395.02, 0.000009911169, 9.999766, 10.000548 
4.749843e+2, 1.5511268e+2, -1415859.0, -1357790.4, 37424.03, 0.06780366, -0.0047400813, -1339458.5, 80433.875, 0.0000009593812, 9.999721, 10.000546 
4.7498655e+2, 1.6511302e+2, -1423297.3, -1389969.9, -32981.773, 0.17337985, 0.017428914, -1369681.1, -47791.688, 0.000000014696447, 9.999352, 9.9998255 
4.7498617e+2, 1.7511244e+2, -1390741.4, -1326582.8, -56215.406, 0.03778219, -0.05429846, -1293937.6, -70039.44, 0.0, 9.998911, 9.999806 
4.7498745e+2, 1.8511301e+2, -1200147.9, -1142927.9, 3118.4028, -0.050482195, 0.010133301, -1142758.5, -16863.596, 0.0, 9.999362, 10.0001745 
4.7499084e+2, 1.9511446e+2, -914292.75, -961389.8, 31793.594, -0.045237176, 0.1056444, -898276.56, 129606.0, 0.0, 10.00067, 10.000125 
4.7499382e+2, 2.0511498e+2, -862537.9, -893162.06, -15870.155, 0.000176303, 0.1553899, -855797.25, 74080.875, 0.0, 10.000417, 10.00002 
4.749963e+2, 2.1511433e+2, -1011322.44, -918863.56, 20541.266, 0.0647895, 0.055594534, -914505.44, -82621.41, 0.0, 9.998735, 9.999986 
4.7499782e+2, 2.2511402e+2, -914747.44, -812505.8, 18546.5, 0.02718121, 0.027048996, -809245.5, -75359.98, 0.0, 9.99869, 10.000063 
4.7499853e+2, 2.3511384e+2, -614392.94, -621355.0, 21569.16, -0.101998344, -0.028148316, -596025.7, 39858.887, 0.0, 10.000096, 10.000029 
4.75001e+2, 2.4511357e+2, -540465.5, -604360.0, 62014.22, -0.11998634, -0.02351964, -502653.22, 35231.508, 0.0, 10.000219, 9.999413 
4.7500524e+2, 2.551129e+2, -622496.0, -600314.94, 94672.47, -0.02841772, -0.07103711, -516085.63, -76196.99, 0.0, 9.9990015, 9.999358 
4.750084e+2, 2.6511207e+2, -565015.8, -569582.56, 49576.977, -0.0077386, -0.062244743, -517669.7, -175773.92, 0.0, 9.998955, 9.998916 
4.7501022e+2, 2.7511072e+2, -335480.2, -411080.94, 53391.438, -0.08201459, -0.11963409, -307862.56, -63953.063, 0.0, 9.999869, 9.998892 
4.7501355e+2, 2.851098e+2, -192971.44, -301486.22, 50709.063, -0.047379747, -0.08850123, -172963.94, -27045.592, 0.0000000367379, 10.000213, 9.998804 
4.7501877e+2, 2.9510915e+2, -130149.78, -204557.33, 46060.32, 0.14695443, -0.07852365, -108144.83, -60221.06, 0.000004901276, 9.999884, 9.998959 
4.7501925e+2, 3.051088e+2, -51764.76, -57675.195, 9351.3, -0.08201803, -0.049665783, -44912.832, -44912.832, 0.000032907166, 9.999757, 9.999704 
4.7502288e+2, 3.1510505e+2, 16975.846, 129614.76, 77660.27, -0.025878072, -0.41826478, 169227.56, 169227.56, 0.00010232853, 9.999497, 10.00111 
4.849767e+2, 1.2510966e+2, -2012554.8, -1795118.1, -181016.16, 0.083373256, 0.02799921, -1692681.3, 21243.775, 0.00008688649, 9.997632, 10.000551 
4.8498255e+2, 1.3511074e+2, -1635226.9, -1577810.4, 78240.42, 0.4582797, 0.04194868, -1523177.6, 92738.39, 0.000032757685, 9.999601, 10.000468 
4.8498124e+2, 1.4511144e+2, -1467087.0, -1458865.5, 72350.87, -0.031585652, 0.080917, -1390508.8, 127400.48, 0.000007215262, 10.000149, 10.00031 
4.8498437e+2, 1.5511173e+2, -1459189.9, -1409424.0, -20831.645, 0.124952726, 0.03593711, -1401855.1, 18049.592, 0.00000059770906, 9.999554, 10.00027 
4.8498604e+2, 1.6511159e+2, -1387243.5, -1401674.4, -15858.33, 0.17631654, 0.037245717, -1377036.3, -55130.14, 0.0000000048834687, 9.999735, 9.999556 
4.8498574e+2, 1.7511074e+2, -1152752.8, -1238418.9, 3421.7473, 0.024741124, -0.03608442, -1152616.3, 71299.9, 0.0, 10.000677, 9.999546 
4.8498714e+2, 1.8511099e+2, -1065757.4, -1101015.3, 86296.13, -0.060954075, 0.019178545, -995307.94, 130608.13, 0.0, 10.000406, 9.999941 
4.8499057e+2, 1.9511208e+2, -1181634.0, -1108537.5, 39141.85, -0.044310696, 0.09656281, -1091533.4, -63624.758, 0.0, 9.998942, 9.999925 
4.8499346e+2, 2.0511279e+2, -1097629.0, -969380.8, -32348.979, 0.020258354, 0.15794335, -961683.2, -31780.773, 0.0, 9.998627, 10.000379 
4.849959e+2, 2.1511284e+2, -912384.3, -827973.9, -38621.79, 0.1359601, 0.094658256, -812969.6, 18930.496, 0.0, 9.999223, 10.000385 
4.8499757e+2, 2.2511263e+2, -820424.06, -804065.7, 17550.016, 0.09568517, 0.07148797, -792882.44, -58981.758, 0.0, 9.999496, 9.999736 
4.8499835e+2, 2.3511188e+2, -731233.06, -718120.2, -13126.423, -0.08937086, -0.007211075, -710003.9, -74097.12, 0.0, 9.999453, 9.9996805 
4.8500094e+2, 2.451116e+2, -623280.25, -620039.4, -79.835, -0.105805136, 0.0064230934, -620037.44, -82130.43, 0.0, 9.999548, 9.999629 
4.8500526e+2, 2.5511163e+2, -502355.1, -515412.66, -17306.664, 0.04429683, 0.012293455, -490386.7, -50483.426, 0.0, 9.999726, 9.999588 
4.8500836e+2, 2.6511094e+2, -453602.16, -516092.53, 6760.7227, 0.06543832, 0.021165669, -452879.1, -110970.875, 0.0, 9.999715, 9.998917 
4.8501024e+2, 2.7510905e+2, -386846.75, -437671.66, 9827.676, -0.042279854, -0.09258838, -385012.63, -141086.61, 0.0, 9.999512, 9.998888 
4.850137e+2, 2.8510767e+2, -286093.78, -380657.25, 45970.684, -0.02164702, -0.09148829, -267429.56, -121491.06, 0.00000008825205, 9.999716, 9.998498 
4.850191e+2, 2.9510698e+2, -95059.39, -225691.58, 5588.2524, 0.1780966, -0.05640128, -94820.766, -46876.254, 0.0000056092463, 10.000289, 9.998614 
4.8501945e+2, 3.051055e+2, -10257.548, -100447.74, -39256.176, -0.052453402, -0.08881854, 4435.4404, 4435.4404, 0.000035389916, 10.000305, 9.99914 
4.8502383e+2, 3.1510177e+2, 34427.805, 119382.414, -102190.36, 0.12468389, -0.40457067, 187572.13, 187572.13, 0.00010599746, 9.999688, 10.000946 
4.9497482e+2, 1.2510832e+2, -1970445.8, -1722302.5, -249790.19, 0.04979629, 0.024005858, -1567467.5, 146473.38, 0.00007926606, 9.997691, 10.001022 
4.9498126e+2, 1.3511012e+2, -1606497.6, -1525373.3, 162445.05, 0.33821556, 0.07270905, -1398502.9, 217419.06, 0.000026309035, 9.999628, 10.000814 
4.949826e+2, 1.4511059e+2, -1522850.9, -1559480.6, 34086.29, 0.048885528, 0.10580415, -1502470.8, 15446.622, 0.0000047383246, 10.000086, 9.999649 
4.9498454e+2, 1.5510939e+2, -1509360.6, -1506851.3, -27169.152, 0.14651775, -0.022982644, -1480907.9, -60977.242, 0.0000002991547, 9.999529, 9.999612 
4.9498564e+2, 1.6510929e+2, -1345556.1, -1306193.9, 4252.175, 0.12783365, -0.017773075, -1305739.8, 16190.988, 0.0000000005507737, 9.999689, 10.000235 
4.9498597e+2, 1.7511006e+2, -1112114.9, -1144360.6, 49953.473, -0.056297578, 0.0011899903, -1075746.8, 148173.75, 0.0, 10.000631, 10.000216 
4.9498743e+2, 1.8511e+2, -1141854.3, -1235718.0, 18141.873, -0.1054271, 0.03653843, -1138469.9, -12546.886, 0.0, 10.000309, 9.999062 
4.9499017e+2, 1.9510886e+2, -1257581.5, -1243115.3, -3339.3928, -0.01149258, -0.021030923, -1242381.6, -214441.05, 0.0, 9.998839, 9.999051 
4.9499246e+2, 2.0510906e+2, -1105009.8, -952651.3, -25791.225, 0.03337286, 0.02241003, -948403.8, -18463.244, 0.0, 9.998481, 10.000567 
4.9499434e+2, 2.1511029e+2, -921113.9, -817078.5, -1385.6632, 0.02838276, 0.058181226, -817060.06, 14866.087, 0.0, 9.9990835, 10.000534 
4.949965e+2, 2.2511075e+2, -877247.56, -882504.94, 4885.438, 0.014232092, 0.120871425, -874328.5, -140407.47, 0.0, 9.999335, 9.9992695 
4.9499887e+2, 2.3511027e+2, -787639.6, -794600.0, 2679.9932, -0.013724316, 0.11246102, -786727.3, -150800.36, 0.0, 9.99928, 9.999236 
4.950017e+2, 2.451098e+2, -646329.25, -635491.56, -6308.7817, -0.013138044, 0.12902147, -632593.9, -94663.33, 0.0, 9.999416, 9.999584 
4.9500504e+2, 2.5510898e+2, -520764.8, -529389.5, 5364.271, 0.017156407, 0.05651008, -518194.44, -78259.07, 0.0, 9.9996195, 9.999543 
4.9500793e+2, 2.6510835e+2, -441072.47, -465002.56, -16286.7705, 0.018367875, 0.054360643, -432828.06, -90889.87, 0.0, 9.999618, 9.99931 
4.9501026e+2, 2.7510753e+2, -382940.47, -393788.7, 18577.996, -0.021926807, 0.010435434, -369010.94, -125069.07, 0.0, 9.999368, 9.999252 
4.9501374e+2, 2.851061e+2, -314855.7, -423369.25, 56301.965, -0.023563081, -0.00512674, -290922.25, -144968.36, 0.00000018947561, 9.999647, 9.998236 
4.9501857e+2, 2.951038e+2, -126231.31, -275155.66, 45601.977, 0.05822158, -0.09914492, -113377.07, -65401.445, 0.000005650319, 10.000228, 9.998301 
4.950191e+2, 3.0510128e+2, -95955.05, -278701.66, -69155.37, -0.15063506, -0.15674599, -72735.4, -72735.4, 0.00003451672, 10.0002985, 9.99792 
4.9502465e+2, 3.151008e+2, -88292.45, -117282.25, -100867.164, 0.16336697, -0.033009283, -884.0328, -884.0328, 0.00010176044, 9.999605, 9.999357 
5.0497466e+2, 1.2510662e+2, -1722849.8, -1604241.6, -213083.27, 0.19397593, -0.024398597, -1442363.8, 271591.84, 0.000066640154, 9.999421, 10.000981 
5.049795e+2, 1.3510834e+2, -1680913.5, -1584012.1, 134396.97, 0.23077081, 0.034964498, -1489599.3, 126338.37, 0.0000195532, 9.999214, 10.000609 
5.049833e+2, 1.451087e+2, -1680568.1, -1661852.6, 8179.672, 0.16854237, 0.08234608, -1658781.5, -140846.42, 0.0000028130235, 9.999132, 9.9994 
5.0498444e+2, 1.5510751e+2, -1511172.1, -1529937.0, -57712.035, 0.19024381, -0.020609844, -1462084.8, -42134.47, 0.00000011765629, 9.999633, 9.999394 
5.049854e+2, 1.6510753e+2, -1334470.4, -1293017.8, 10018.0625, 0.14184135, 0.00058821164, -1290723.6, 31226.924, 0.000000000026416515, 9.999718, 10.000317 
5.049864e+2, 1.7510842e+2, -1295874.0, -1224767.9, -17872.475, 0.0016415648, 0.024248052, -1220528.4, 3410.7327, 0.0, 9.999318, 10.000302 
5.0498796e+2, 1.8510844e+2, -1260869.6, -1268923.6, -28775.982, -0.028783249, 0.053986978, -1235840.3, -109900.61, 0.0, 9.999375, 9.999294 
5.049901e+2, 1.9510742e+2, -1098214.9, -1141574.6, 10821.9795, 0.05803833, -0.009540244, -1095663.9, -67709.73, 0.0, 9.999822, 9.999283 
5.0499195e+2, 2.0510752e+2, -901117.1, -901291.06, 59506.285, 0.062185753, 0.036230035, -841697.75, 88257.266, 0.0, 10.00011, 10.000113 
5.0499356e+2, 2.1510845e+2, -800721.9, -807785.1, -247.25363, -0.006368947, 0.084673695, -800713.25, 31231.992, 0.0, 10.000149, 10.000066 
5.04996e+2, 2.2510849e+2, -765801.9, -857641.1, 6918.5513, -0.0012591479, 0.14096034, -765283.6, -31338.977, 0.0, 10.000216, 9.999024 
5.0499946e+2, 2.3510753e+2, -674387.06, -761011.5, -9328.307, 0.08130751, 0.107694425, -673393.94, -37439.555, 0.0, 10.000167, 9.999032 
5.050024e+2, 2.4510674e+2, -579134.8, -628996.1, 13611.425, 0.09333451, 0.11313602, -575661.06, -37700.184, 0.0, 9.99998, 9.99936 
5.05005e+2, 2.5510576e+2, -524650.4, -554751.06, -13947.287, 0.05275847, 0.046242334, -519181.47, -79213.664, 0.0, 9.999692, 9.999336 
5.0500774e+2, 2.6510495e+2, -382289.63, -468383.0, -16783.31, 0.021915805, 0.052594442, -379133.53, -37160.813, 0.0, 10.000148, 9.999042 
5.050106e+2, 2.7510408e+2, -131078.86, -302464.47, -68264.21, -0.0054245475, 0.026469203, -107212.28, 136765.75, 0.00000000061010413, 10.00122, 9.998991 
5.050143e+2, 2.8510267e+2, -121854.414, -321059.34, -44926.83, 0.017577786, 0.023510851, -112190.83, 33799.188, 0.00000027597625, 10.00093, 9.998328 
5.0501895e+2, 2.9510048e+2, -256096.5, -331074.66, -62483.363, 0.12562133, -0.062131356, -220718.56, -172708.3, 0.0000049916057, 9.999308, 9.998369 
5.0501937e+2, 3.0509812e+2, -185026.13, -299948.75, -32883.92, -0.107200325, -0.118654646, -176282.05, -176282.05, 0.000030276777, 9.9995985, 9.998112 
5.050254e+2, 3.1509838e+2, 144950.34, -35795.992, -40944.344, 0.19836262, 0.055783074, 153792.84, 153792.84, 0.000090633286, 10.001343, 9.999082 
5.1497513e+2, 1.251047e+2, -1760175.3, -1696167.9, -256164.45, 0.21764024, -0.10383068, -1470015.6, 243952.08, 0.000052165007, 9.999468, 10.000332 
5.149767e+2, 1.3510542e+2, -1728986.0, -1696347.8, 138115.55, -0.004408987, -0.071461834, -1573590.5, 42371.945, 0.000013925394, 9.99926, 9.999818 
5.1498294e+2, 1.4510578e+2, -1672591.6, -1643536.3, 6410.282, 0.16854104, 0.0078041605, -1642184.9, -124222.44, 0.000001645238, 9.99912, 9.9995365 
5.149838e+2, 1.5510602e+2, -1505106.9, -1511686.4, -22659.17, 0.12205628, 0.034748357, -1485499.9, -65535.316, 0.00000003629146, 9.999606, 9.999537 
5.1498485e+2, 1.6510618e+2, -1383859.6, -1374719.9, -17135.494, 0.08596887, 0.08857551, -1361555.4, -39589.145, 0.0, 9.999633, 9.999791 
5.1498663e+2, 1.7510585e+2, -1342622.9, -1305887.4, -17918.281, 0.056510527, 0.041025642, -1298595.0, -74623.94, 0.0, 9.999259, 9.999768 
5.1498824e+2, 1.851065e+2, -1175107.0, -1071525.3, -25840.055, 0.031604536, 0.08923498, -1065436.9, 60527.375, 0.0, 9.999288, 10.000689 
5.149899e+2, 1.9510786e+2, -1010806.44, -947616.4, 42827.5, 0.020907855, 0.12096546, -925990.75, 101958.086, 0.0, 9.999756, 10.000648 
5.149915e+2, 2.0510814e+2, -1015057.1, -1099306.0, 47246.777, -0.022526324, 0.18136038, -993882.9, -63936.316, 0.0, 9.999945, 9.998834 
5.149931e+2, 2.1510716e+2, -909648.06, -998069.8, 14459.169, -0.09835985, 0.16280694, -907343.6, -75384.484, 0.0, 9.9999895, 9.998837 
5.149958e+2, 2.2510566e+2, -783401.4, -865947.4, -11037.526, -0.068278864, 0.12438226, -781951.0, -47977.816, 0.0, 10.000085, 9.999037 
5.1499957e+2, 2.3510346e+2, -693830.2, -772268.6, 3444.9497, 0.049680002, -0.031986605, -693679.1, -57688.69, 0.0, 10.000034, 9.999025 
5.150024e+2, 2.451023e+2, -615490.06, -681379.06, -10894.827, 0.071358845, -0.045320902, -613735.3, -75736.49, 0.0, 9.999883, 9.999044 
5.1500446e+2, 2.551019e+2, -566059.75, -611205.8, -7888.3345, 0.00044749313, -0.026634134, -564721.1, -124719.984, 0.0, 9.9995575, 9.999015 
5.150073e+2, 2.6510078e+2, -463669.22, -614841.4, 10209.904, -0.06240372, 0.012963961, -462982.78, -120970.836, 0.0, 10.000057, 9.99808 
5.15011e+2, 2.750985e+2, -210049.94, -447919.5, -7868.808, -0.12385029, -0.05151485, -209789.92, 34245.48, 0.0000000018853024, 10.001131, 9.998042 
5.1501507e+2, 2.850973e+2, -100287.45, -263781.97, -120330.39, -0.035333812, -0.00580348, -36563.004, 109484.53, 0.00000034894228, 10.000884, 9.998738 
5.150195e+2, 2.9509702e+2, -242924.95, -283863.78, -100938.85, 0.2067779, 0.04897658, -160400.92, -112351.21, 0.000004315403, 9.999218, 9.998735 
5.1501966e+2, 3.050959e+2, -78701.41, -62821.973, 27885.242, -0.07308509, 0.01837212, -41768.14, -41768.14, 0.000026122347, 9.999548, 9.999763 
5.150251e+2, 3.1509417e+2, 196899.63, 105599.36, 44883.77, -0.034957647, -0.16319025, 215268.92, 215268.92, 0.000081293096, 10.001218, 10.000111 
5.249752e+2, 1.2510255e+2, -1754016.5, -1748418.3, -220600.42, 0.27346894, -0.13611701, -1530599.3, 183387.03, 0.000041919076, 9.999745, 9.999834 
5.2497494e+2, 1.3510282e+2, -1725570.9, -1752193.9, 62335.29, -0.11252582, -0.09586643, -1675141.6, -59154.09, 0.000010470756, 9.9995365, 9.999294 
5.2498317e+2, 1.45103e+2, -1652153.9, -1598557.6, 6841.672, 0.29328662, -0.024031404, -1597698.0, -79708.19, 0.0000009776196, 9.999105, 9.999853 
5.24983e+2, 1.5510398e+2, -1567133.8, -1504204.1, -39155.316, 0.1259962, 0.042752177, -1485437.8, -65453.766, 0.000000005050013, 9.999015, 9.99987 
5.249839e+2, 1.6510439e+2, -1486480.8, -1442400.6, 4335.5386, 0.06681356, 0.11342443, -1441978.3, -119994.79, 0.0, 9.999006, 9.999636 
5.249864e+2, 1.7510384e+2, -1382017.6, -1343853.3, -235.02043, 0.12696987, 0.06163123, -1343851.8, -119859.945, 0.0, 9.999056, 9.999616 
5.249882e+2, 1.8510437e+2, -1177075.3, -1071023.6, -1197.1654, 0.10165242, 0.10532089, -1071010.1, 54976.223, 0.0, 9.999275, 10.000704 
5.2498925e+2, 1.9510572e+2, -1047027.2, -960191.2, -70174.77, -0.0035652567, 0.1392962, -921088.75, 106880.96, 0.0, 9.999516, 10.000674 
5.249911e+2, 2.0510566e+2, -1051459.1, -1143348.0, -53825.59, -0.04342482, 0.17769372, -1026635.75, -96666.01, 0.0, 9.999794, 9.998608 
5.249938e+2, 2.15104e+2, -917733.94, -1030879.4, -32512.451, -0.018531172, 0.11483283, -909056.9, -77068.46, 0.0, 10.000043, 9.998592 
5.249967e+2, 2.2510238e+2, -738548.7, -833111.25, 9413.649, 0.006150854, 0.072476, -737620.6, -3617.6265, 0.0, 10.000371, 9.999105 
5.2499974e+2, 2.3510051e+2, -575853.2, -711122.44, -3701.2788, 0.029443959, -0.056644134, -575752.0, 60264.69, 0.0, 10.0008335, 9.999055 
5.250026e+2, 2.450992e+2, -482838.75, -672718.7, -13909.086, 0.05025969, -0.06185781, -481825.28, 56201.652, 0.0, 10.001029, 9.998559 
5.250054e+2, 2.5509828e+2, -400774.0, -583995.2, -52362.227, 0.07518167, -0.043669894, -386865.38, 53169.86, 0.0, 10.000927, 9.998543 
5.2500826e+2, 2.6509687e+2, -385536.97, -596710.3, 41843.53, -0.000564531, -0.0027911202, -377548.0, -35497.902, 0.0, 10.000675, 9.997901 
5.250113e+2, 2.7509457e+2, -349086.16, -524242.66, 51709.188, -0.15455098, -0.055554446, -334959.97, -90885.36, 0.00000000009174081, 10.000244, 9.997925 
5.250153e+2, 2.850935e+2, -217944.97, -286644.06, -47800.633, -0.04068611, -0.009494489, -193432.03, -47346.38, 0.00000033351301, 9.999932, 9.999034 
5.250201e+2, 2.950934e+2, -151383.02, -204873.16, -68662.63, 0.33322635, 0.03344498, -104440.53, -56355.34, 0.0000041082662, 9.9997, 9.99904 
5.2502054e+2, 3.050929e+2, -10451.164, -22533.313, 106946.26, 0.05793477, 0.0442887, 90624.51, 90624.51, 0.000024723933, 9.999973, 9.9998455 
5.250256e+2, 3.150903e+2, 52794.82, 53700.258, -91521.125, -0.027534438, -0.22407104, 144769.78, 144769.78, 0.00007789345, 10.000149, 10.0002775 
5.349739e+2, 1.2510006e+2, -1760784.8, -1776779.3, -166720.89, 0.0876146, -0.13409728, -1601869.5, 112142.836, 0.000035694404, 9.999816, 9.999603 
5.3497356e+2, 1.3510062e+2, -1752444.8, -1802343.6, 57205.73, -0.22591053, -0.028592497, -1714984.5, -98972.836, 0.000008273398, 9.999515, 9.998967 
5.349836e+2, 1.4510049e+2, -1622880.3, -1525990.4, -14550.635, 0.38029215, 0.003422714, -1523852.4, -5836.2383, 0.00000061502607, 9.999053, 10.000371 
5.3498167e+2, 1.5510151e+2, -1536420.8, -1437544.0, -27616.604, 0.061214954, 0.015322547, -1430353.5, -10345.757, 0.00000000036285042, 9.998999, 10.000335 
5.3498214e+2, 1.6510215e+2, -1480426.5, -1419088.6, -10811.825, -0.046753824, 0.0798011, -1417238.6, -95236.12, 0.0, 9.99896, 9.99982 
5.349854e+2, 1.7510228e+2, -1374898.4, -1322804.3, 16590.059, 0.08596269, 0.07864012, -1317969.6, -93967.52, 0.0, 9.999024, 9.99978 
5.349872e+2, 1.8510196e+2, -1290079.9, -1286072.3, -5129.268, 0.049596418, 0.10012063, -1282569.3, -156563.11, 0.0, 9.999193, 9.999265 
5.349876e+2, 1.9510087e+2, -1162895.5, -1181078.0, -46043.047, -0.14859773, 0.033968057, -1125054.8, -97037.016, 0.0, 9.999423, 9.999207 
5.3499025e+2, 2.0510003e+2, -1013187.44, -1022893.9, -57609.85, -0.13391523, 0.020892125, -960226.75, -30201.662, 0.0, 9.999625, 9.99951 
5.349953e+2, 2.150992e+2, -879908.4, -913071.7, -10414.03, 0.09894718, -0.05021392, -876909.4, -44878.61, 0.0, 9.999874, 9.999479 
5.349983e+2, 2.2509882e+2, -760948.5, -846304.06, 13168.191, 0.10243953, -0.011612597, -758963.1, -24930.447, 0.0, 10.000221, 9.99909 
5.349994e+2, 2.3509866e+2, -599936.75, -719983.3, 28485.316, -0.11699379, 0.028487634, -593520.5, 42512.727, 0.0, 10.000655, 9.999077 
5.350025e+2, 2.4509734e+2, -549122.9, -781074.1, -30730.799, -0.093751356, 0.05517944, -545120.5, -7074.4272, 0.0, 10.00091, 9.99787 
5.350073e+2, 2.5509468e+2, -465661.25, -692988.06, -39868.074, 0.14355718, -0.032968506, -458872.06, -18799.201, 0.0, 10.000817, 9.997847 
5.350101e+2, 2.650931e+2, -348401.2, -502243.47, 10345.361, 0.08467307, -0.005693275, -347708.63, -5620.2, 0.0, 10.000602, 9.998585 
5.3501093e+2, 2.7509215e+2, -316549.38, -435946.3, 51716.332, -0.25388387, 0.009279233, -297263.75, -53166.836, 0.0, 10.000144, 9.998589 
5.3501457e+2, 2.85091e+2, -206674.16, -252475.11, -68394.055, -0.1423464, 0.000825483, -157448.5, -11341.956, 0.00000019037492, 9.999891, 9.999287 
5.350206e+2, 2.9508945e+2, -150820.16, -183167.64, -52976.984, 0.36230826, -0.12249763, -111603.01, -63484.645, 0.0000040138116, 9.999607, 9.999237 
5.350217e+2, 3.050889e+2, -124915.57, -256566.11, 110432.74, 0.14871143, -0.04475409, -62178.19, -62178.19, 0.000024880646, 9.999954, 9.998244 
5.3502595e+2, 3.150866e+2, -1244.1105, -66100.62, -67090.13, -0.09197059, -0.1287258, 40843.93, 40843.93, 0.00007745561, 10.000163, 9.999452 
5.449747e+2, 1.2509789e+2, -1685520.5, -1749099.4, -33425.863, 0.16792877, -0.08991799, -1671181.3, 42855.695, 0.00003031358, 10.000356, 9.999573 
5.449728e+2, 1.3509835e+2, -1722013.8, -1766279.1, 30961.96, -0.24785653, -0.0021668335, -1706087.4, -90052.43, 0.000006366235, 9.999642, 9.999158 
5.4498297e+2, 1.450979e+2, -1645937.4, -1569342.6, 14250.103, 0.42801213, 0.0043518497, -1566777.4, -48735.9, 0.00000037085837, 9.99903, 10.000093 
5.4498106e+2, 1.550987e+2, -1514396.4, -1453857.6, -89297.69, 0.09622035, 0.024395313, -1389838.5, 30196.957, 0.00000000007720086, 9.999262, 10.0001 
5.4498136e+2, 1.6509913e+2, -1390470.4, -1373739.4, -66281.72, -0.03538624, 0.077493936, -1315297.3, 6734.6367, 0.0, 9.999599, 9.999805 
5.449847e+2, 1.7509903e+2, -1244016.4, -1257645.9, -87997.63, 0.07335263, 0.05657023, -1162570.0, 61462.36, 0.0, 9.999951, 9.999764 
5.449869e+2, 1.850983e+2, -1199465.0, -1313763.1, -62177.15, 0.062694736, 0.07127813, -1172162.9, -46122.2, 0.0, 10.000104, 9.998646 
5.449881e+2, 1.9509679e+2, -1107925.9, -1218672.5, -67118.086, -0.06131339, 0.01777713, -1076287.5, -48228.844, 0.0, 10.000064, 9.99864 
5.4499096e+2, 2.0509581e+2, -914163.8, -953059.0, -38222.11, -0.045813065, 0.009243389, -890726.25, 39341.305, 0.0, 10.000207, 9.999721 
5.4499555e+2, 2.1509509e+2, -793696.06, -842177.25, -69040.984, 0.122610085, -0.068451956, -744763.8, 87306.78, 0.0, 10.000356, 9.999732 
5.449985e+2, 2.2509502e+2, -754910.6, -846434.06, -52035.32, 0.109047405, -0.011494536, -731377.25, 2692.355, 0.0, 10.0002575, 9.999079 
5.45e+2, 2.3509526e+2, -713868.9, -781434.4, -68003.17, -0.07842139, 0.0727802, -671719.4, -35651.695, 0.0, 9.999887, 9.999037 
5.450033e+2, 2.4509405e+2, -629092.3, -802626.7, -48982.418, -0.06426021, 0.10377375, -616221.06, -78141.17, 0.0, 10.000287, 9.998023 
5.450083e+2, 2.5509116e+2, -364642.97, -628817.56, -28087.375, 0.13566555, -0.019967748, -361689.7, 78418.27, 0.0, 10.001443, 9.997989 
5.4501104e+2, 2.6508966e+2, -234500.38, -422381.1, 13110.032, 0.0967588, -0.0036472208, -233589.98, 108532.055, 0.0, 10.001287, 9.998796 
5.450119e+2, 2.7508906e+2, -332744.1, -417440.8, -11264.23, -0.14883874, 0.019206285, -331271.63, -87145.14, 0.0, 9.9999275, 9.9988165 
5.450152e+2, 2.8508773e+2, -233061.63, -304992.63, -90963.49, -0.06419032, 0.0057557714, -171211.63, -25074.105, 0.00000011177434, 9.999889, 9.99893 
5.450204e+2, 2.950858e+2, 43955.355, -122062.234, -149030.36, 0.32363355, -0.12500271, 131535.27, 179690.13, 0.0000045059896, 10.001118, 9.998917 
5.450225e+2, 3.0508503e+2, 56113.465, -238373.9, 38219.06, 0.15816829, -0.01827662, 60992.75, 60992.75, 0.000026381855, 10.001489, 9.9976225 
5.4502726e+2, 3.150835e+2, 8641.528, -83310.98, -148705.34, 0.028909065, 0.027160753, 118315.836, 118315.836, 0.00007890932, 10.00034, 9.999229 
5.5497676e+2, 1.2509628e+2, -1656935.3, -1688682.1, 34790.723, 0.27210292, 0.037298046, -1634567.9, 79489.79, 0.000026661766, 10.000357, 9.999982 
5.549721e+2, 1.3509601e+2, -1678028.0, -1678651.8, 5934.5063, -0.3157358, -0.009786496, -1672397.3, -56340.008, 0.0000052899522, 9.999648, 9.999765 
5.5498105e+2, 1.450951e+2, -1721452.4, -1711061.0, 785.35345, 0.2981231, -0.032655362, -1711002.0, -192934.81, 0.00000021782215, 9.998982, 9.999138 
5.549807e+2, 1.550956e+2, -1587878.9, -1599129.6, -62135.684, 0.099532664, 0.06166612, -1531114.5, -111047.52, 0.00000000000011946363, 9.999233, 9.99912 
5.5498135e+2, 1.6509539e+2, -1412393.6, -1414630.8, -67333.09, -0.036960535, 0.10971669, -1346169.8, -24098.674, 0.0, 9.999577, 9.9995365 
5.5498374e+2, 1.7509402e+2, -1271446.0, -1304087.0, -62489.832, -0.042127497, -0.008641473, -1223180.6, 902.7353, 0.0, 9.999902, 9.999474 
5.549869e+2, 1.8509345e+2, -1191992.9, -1275695.8, -78225.18, 0.021105763, 0.018956788, -1145127.3, -19037.455, 0.0, 10.000006, 9.998957 
5.549904e+2, 1.9509338e+2, -1101265.0, -1186258.5, -53542.934, 0.13072544, 0.08602313, -1075403.8, -47310.848, 0.0, 9.999974, 9.998916 
5.5499274e+2, 2.0509288e+2, -966309.3, -1024181.94, -45745.566, 0.089265406, 0.13264763, -941116.44, -11018.396, 0.0, 10.000056, 9.9993 
5.5499417e+2, 2.1509168e+2, -849175.1, -917981.44, -48464.508, -0.08508324, 0.047614474, -824144.44, 7963.7295, 0.0, 10.000183, 9.999295 
5.5499697e+2, 2.2509088e+2, -785747.3, -868622.94, -79721.34, -0.10334181, 0.058427278, -737337.56, -3222.6245, 0.0, 10.000081, 9.999013 
5.550011e+2, 2.350903e+2, -746071.06, -801265.75, -66109.6, 0.014904373, 0.06635126, -702029.8, -65909.41, 0.0, 9.999689, 9.998994 
5.550047e+2, 2.4508935e+2, -581196.4, -674533.1, -17499.254, 0.019340089, 0.0810818, -578023.4, -39895.27, 0.0, 10.0001545, 9.998974 
5.5500776e+2, 2.550878e+2, -316325.22, -497755.78, 32170.105, -0.09378413, -0.0061776387, -310789.9, 129350.836, 0.0, 10.001305, 9.9989605 
5.5501074e+2, 2.6508653e+2, -264511.3, -464317.78, -51650.45, -0.0916082, -0.004426702, -251949.31, 90202.15, 0.0, 10.001205, 9.998546 
5.5501384e+2, 2.750851e+2, -369753.38, -472603.1, -46044.516, 0.022791956, -0.035379052, -352152.06, -107987.46, 0.0, 9.999833, 9.998486 
5.5501676e+2, 2.850836e+2, -306327.38, -447130.84, -60097.707, 0.078907125, 0.0005232279, -284164.88, -137984.84, 0.00000024371042, 9.999842, 9.997981 
5.5501914e+2, 2.950821e+2, -28106.563, -263300.66, -83359.7, 0.045656413, 0.00996744, -1558.1765, 46639.285, 0.0000058589785, 10.001064, 9.997982 
5.5502206e+2, 3.0508113e+2, 74081.76, -178645.75, -10378.926, -0.06204954, 0.117084146, 74507.28, 74507.28, 0.000029984647, 10.001411, 9.99806 
5.550288e+2, 3.1508067e+2, 10437.893, -46966.273, -174190.56, 0.073773056, 0.22539185, 158275.2, 158275.2, 0.00008416486, 10.0002, 9.999548 
5.649769e+2, 1.2509355e+2, -1752238.6, -1718064.3, 138328.8, 0.3018117, 0.103078976, -1595771.3, 118315.86, 0.000022362967, 9.99962, 10.000121 
5.649726e+2, 1.3509318e+2, -1702404.0, -1647573.3, -95805.484, -0.19899276, 0.005483732, -1575337.8, 40748.01, 0.000004259607, 9.999304, 10.000122 
5.6498003e+2, 1.4509211e+2, -1671003.6, -1708575.5, -1880.1111, 0.2877585, -0.042867996, -1670909.8, -152814.08, 0.00000013010742, 9.99939, 9.998976 
5.649805e+2, 1.5509215e+2, -1449514.9, -1544355.8, -26548.65, 0.115832865, 0.016198926, -1442588.9, -22489.955, 0.0, 10.000226, 9.999023 
5.649814e+2, 1.6509172e+2, -1339712.0, -1424010.8, 4324.508, -0.012152179, 0.069719754, -1339490.8, -17385.38, 0.0, 10.000248, 9.999159 
5.6498367e+2, 1.7509039e+2, -1344635.1, -1377472.8, -23412.58, -0.019661412, -0.012482564, -1332458.0, -108338.914, 0.0, 9.999547, 9.999142 
5.6498706e+2, 1.850899e+2, -1220581.8, -1258508.4, 7165.3193, 0.06511511, 0.025986902, -1219273.3, -93148.57, 0.0, 9.999687, 9.999215 
5.649915e+2, 1.9509004e+2, -1006129.9, -1105750.3, 3628.8223, 0.22109096, 0.08284862, -1005997.9, 22126.111, 0.0, 10.000496, 9.999197 
5.649938e+2, 2.0508951e+2, -920739.9, -1071054.6, 11928.448, 0.16098553, 0.14300542, -919799.1, 10331.157, 0.0, 10.000668, 9.998679 
5.649943e+2, 2.1508814e+2, -894729.0, -1005169.0, -31793.873, -0.08047831, 0.105206065, -886230.1, -54084.684, 0.0, 10.00016, 9.998702 
5.64997e+2, 2.2508703e+2, -762930.2, -842120.25, -23347.031, -0.10064603, 0.10550693, -756559.5, -22403.635, 0.0, 10.000181, 9.999143 
5.6500196e+2, 2.3508586e+2, -594908.7, -711953.1, -22885.705, 0.095056996, 0.041057494, -590593.0, 45571.695, 0.0, 10.000663, 9.999133 
5.650057e+2, 2.4508499e+2, -516985.3, -613535.44, 39900.19, 0.09808725, 0.042905916, -502630.44, 35540.254, 0.0, 10.000493, 9.999208 
5.650083e+2, 2.550841e+2, -523821.88, -572907.3, 867.3035, -0.08256949, 0.0005486853, -523806.56, -83629.49, 0.0, 9.999788, 9.999162 
5.6501144e+2, 2.6508301e+2, -436491.6, -555225.4, -85122.484, -0.08050973, 0.015870478, -392078.6, -49892.254, 0.0, 10.000048, 9.998483 
5.6501514e+2, 2.750815e+2, -172858.56, -379681.94, -89953.96, 0.108355805, -0.022714619, -139209.34, 104991.64, 0.0, 10.001197, 9.998462 
5.650179e+2, 2.850798e+2, -103390.48, -379323.56, -19511.846, 0.13567442, 0.0072688786, -102017.58, 44200.816, 0.00000046127252, 10.001339, 9.997733 
5.650194e+2, 2.9507807e+2, -125094.81, -340896.63, -16764.75, -0.002445395, 0.017116714, -123800.195, -75562.22, 0.000007820285, 10.000516, 9.997718 
5.6502295e+2, 3.0507693e+2, -84185.18, -227186.73, 79149.92, -0.03520665, 0.10916107, -49022.598, -49022.598, 0.00003595913, 10.000189, 9.998325 
5.650292e+2, 3.1507677e+2, -13209.993, -30857.648, -160549.98, 0.12523383, 0.21566749, 138758.47, 138758.47, 0.000094486146, 9.999907, 9.999805 
5.7497466e+2, 1.2508938e+2, -1760993.0, -1723819.5, 173596.89, 0.04159233, 0.073219, -1567817.1, 146311.39, 0.000015098279, 9.999579, 10.000093 
5.749737e+2, 1.3508971e+2, -1703375.5, -1647223.8, -105252.22, -0.05258709, 0.04025443, -1566367.1, 49755.203, 0.0000026568694, 9.999292, 10.000129 
5.7497954e+2, 1.4508887e+2, -1618650.4, -1591073.4, 5901.5, 0.25653985, -0.025655188, -1589863.6, -71735.54, 0.000000050157187, 9.999358, 9.999795 
5.7498e+2, 1.5508828e+2, -1401560.3, -1435496.4, 19045.92, 0.014133205, -0.108049154, -1393020.3, 27111.824, 0.0, 10.000188, 9.999792 
5.749812e+2, 1.6508813e+2, -1373037.1, -1478520.9, -39565.734, -0.08970476, -0.045792304, -1359846.1, -37711.137, 0.0, 10.000183, 9.998814 
5.749838e+2, 1.7508815e+2, -1377884.6, -1436443.0, -35275.305, 0.0030746579, 0.040547878, -1361320.4, -137180.75, 0.0, 9.999498, 9.998762 
5.7498705e+2, 1.8508779e+2, -1213472.1, -1222999.1, 25641.998, 0.06328605, 0.09624708, -1192154.9, -66010.57, 0.0, 9.999602, 9.999497 
5.749908e+2, 1.9508673e+2, -1005208.25, -1073504.3, 48357.22, 0.07115735, 0.009833749, -980157.4, 47994.69, 0.0, 10.000368, 9.999479 
5.749936e+2, 2.0508574e+2, -1000576.8, -1195983.9, -23147.166, 0.05192177, 0.047406036, -997872.3, -67708.47, 0.0, 10.000491, 9.997907 
5.749955e+2, 2.150846e+2, -978093.8, -1133677.4, -37202.004, 0.0008759625, 0.11042902, -969655.94, -137474.33, 0.0, 9.999968, 9.997912 
5.749984e+2, 2.2508346e+2, -758638.6, -797312.75, -19220.855, -0.011317164, 0.12869139, -750711.0, -16518.457, 0.0, 10.000018, 9.999532 
5.750021e+2, 2.3508202e+2, -591507.94, -667302.5, 10355.963, 0.012019651, -0.0011213825, -590118.5, 46081.477, 0.0, 10.000497, 9.999521 
5.750059e+2, 2.4508095e+2, -571168.56, -706943.94, -2334.123, 0.031628735, -0.008388495, -571128.44, -32920.906, 0.0, 10.000396, 9.998623 
5.750096e+2, 2.5507998e+2, -582341.0, -667114.3, -8674.485, 0.03339786, -0.0020781504, -581462.5, -141244.28, 0.0, 9.99966, 9.998584 
5.750127e+2, 2.6507914e+2, -429882.4, -530212.5, -56063.66, 0.010465042, 0.05543184, -404816.7, -62589.62, 0.0, 9.999989, 9.998689 
5.750152e+2, 2.750781e+2, -164544.44, -350492.88, -34503.82, -0.040589537, 0.049617466, -158348.5, 85888.5, 0.0, 10.001126, 9.998705 
5.750178e+2, 2.8507635e+2, -72346.08, -299393.38, -65873.516, -0.032782305, 0.027328236, -54618.293, 91634.805, 0.0000006054728, 10.001276, 9.998313 
5.750205e+2, 2.9507366e+2, -101827.55, -271159.53, -27026.184, 0.016544128, -0.11138393, -97618.66, -49341.668, 0.000009307056, 10.000425, 9.998241 
5.750249e+2, 3.0507258e+2, -86768.65, -216758.36, 63086.8, 0.11072375, -0.04530838, -61186.05, -61186.05, 0.000040671366, 10.00013, 9.998426 
5.7502794e+2, 3.1507146e+2, -19136.426, -18967.115, -114510.836, -0.062200803, -0.04177273, 95459.1, 95459.1, 0.000103750725, 9.9998045, 9.999941 
5.8497417e+2, 1.250856e+2, -1681898.9, -1716505.1, 274586.3, 0.023225058, 0.02408936, -1424071.0, 290091.88, 0.000008007214, 10.000223, 9.999851 
5.849748e+2, 1.35086e+2, -1601370.4, -1620452.5, -107020.71, 0.10345837, 0.022071004, -1503466.3, 112692.164, 0.0000012151539, 10.000081, 9.99994 
5.849786e+2, 1.4508553e+2, -1510398.8, -1514093.1, 44679.527, 0.19829291, -0.007282019, -1467528.3, 50633.375, 0.000000012980553, 10.0000305, 9.999972 
5.849804e+2, 1.5508515e+2, -1345434.0, -1383872.8, -26345.13, 0.022806969, -0.09009722, -1332042.8, 88120.39, 0.0, 10.00049, 9.999974 
5.84982e+2, 1.6508514e+2, -1309321.0, -1432797.6, -98284.516, -0.038528357, -0.03197516, -1254992.6, 67171.68, 0.0, 10.00055, 9.998953 
5.849842e+2, 1.7508529e+2, -1257483.6, -1357824.5, -82146.086, 0.06865088, 0.055031348, -1211399.0, 12768.088, 0.0, 10.0002365, 9.998945 
5.8498716e+2, 1.8508483e+2, -1150485.5, -1202034.6, 44537.195, 0.10307585, 0.0967301, -1124802.4, 1369.7219, 0.0, 10.000067, 9.999428 
5.849908e+2, 1.9508344e+2, -1068950.0, -1117085.0, 11668.62, 0.05948767, -0.015681233, -1066270.5, -38087.313, 0.0, 9.999968, 9.99939 
5.8499384e+2, 2.0508239e+2, -1026056.06, -1189150.0, -18399.781, 0.04887216, 0.010063366, -1024006.0, -93810.95, 0.0, 10.000227, 9.998078 
5.849966e+2, 2.1508144e+2, -837760.75, -1050929.9, 13124.521, 0.0729467, 0.07504929, -836955.75, -4745.8223, 0.0, 10.000853, 9.998059 
5.849996e+2, 2.2508033e+2, -644635.1, -793459.7, 65506.85, 0.07532465, 0.11084894, -619909.44, 114311.914, 0.0, 10.001032, 9.999071 
5.850031e+2, 2.350787e+2, -583259.5, -719802.56, -1879.3314, 0.054116063, 0.01346601, -583233.7, 52998.89, 0.0, 10.000792, 9.999027 
5.850066e+2, 2.4507742e+2, -555009.6, -704895.2, -17788.582, 0.065204516, 0.012124703, -552927.4, -14684.363, 0.0, 10.000533, 9.998562 
5.850102e+2, 2.5507623e+2, -481434.13, -621741.6, -13883.344, 0.10147306, 0.0009073401, -480073.56, -39818.566, 0.0, 10.000375, 9.998537 
5.850133e+2, 2.6507533e+2, -411619.38, -506759.28, 18966.906, 0.07182697, 0.049335092, -407977.56, -65713.055, 0.0, 10.000072, 9.9988 
5.850159e+2, 2.7507442e+2, -368029.06, -432420.03, 3268.7842, -0.007629673, 0.04543276, -367863.53, -123589.41, 0.0, 9.99969, 9.998821 
5.850185e+2, 2.8507316e+2, -217016.2, -309256.3, -18904.168, -0.025581015, 0.036488816, -213292.23, -67007.21, 0.00000055145284, 10.000026, 9.998841 
5.8502126e+2, 2.9507115e+2, 1660.1654, -163145.55, -16726.293, 0.029685713, -0.08411108, 3340.5986, 51640.355, 0.000008783807, 10.000883, 9.998759 
5.8502614e+2, 3.0506977e+2, -16874.303, -191642.77, 73128.586, 0.20714532, -0.06935154, 9687.92, 9687.92, 0.000039667964, 10.000647, 9.998342 
5.850277e+2, 3.1506795e+2, -107842.56, -47146.203, -142893.64, -0.019942082, -0.13623793, 68586.44, 68586.44, 0.00010388018, 9.999144, 10.000049 
5.9497505e+2, 1.2508227e+2, -1689941.1, -1737210.6, 201430.9, 0.0048001953, -0.032438092, -1510763.1, 203426.63, 0.0000033727015, 10.000261, 9.9996805 
5.949756e+2, 1.3508208e+2, -1628809.1, -1675456.6, -106189.875, 0.13674895, -0.055027373, -1543411.8, 72782.21, 0.00000044999516, 10.000081, 9.999562 
5.9497666e+2, 1.4508207e+2, -1547292.3, -1583246.0, 41617.05, -0.0363083, 0.0017573746, -1519935.4, -1738.8114, 0.000000014541682, 10.0, 9.999509 
5.9498096e+2, 1.5508275e+2, -1384706.3, -1459066.4, 4358.207, -0.004227773, 0.07175041, -1384451.8, 35740.945, 0.0, 10.000462, 9.999475 
5.9498334e+2, 1.6508281e+2, -1269423.5, -1334541.9, -125436.445, 0.011098497, 0.12728088, -1172389.5, 149803.3, 0.0, 10.000495, 9.999649 
5.949846e+2, 1.7508191e+2, -1216294.1, -1257114.9, -79430.59, 0.050739117, 0.03866409, -1154693.5, 69507.04, 0.0, 10.000178, 9.999661 
5.949871e+2, 1.8508106e+2, -1194535.5, -1273196.8, 24093.266, 0.058236092, 0.029286813, -1187742.6, -61534.473, 0.0, 9.999979, 9.998982 
5.949908e+2, 1.9508007e+2, -1120147.0, -1189758.0, 21534.658, 0.03271391, -0.0012696756, -1114023.8, -85805.63, 0.0, 9.999828, 9.998955 
5.94994e+2, 2.0507942e+2, -966323.75, -1029202.06, -8288.557, 0.014374703, 0.028041398, -965249.5, -35025.49, 0.0, 10.000071, 9.999253 
5.9499705e+2, 2.1507882e+2, -781854.2, -894231.94, 51689.92, 0.006693184, 0.008984567, -761694.94, 70534.2, 0.0, 10.000681, 9.999218 
5.9500057e+2, 2.2507773e+2, -758628.75, -1001866.5, 40627.47, 0.03459556, 0.061054654, -752022.25, -17781.162, 0.0, 10.000898, 9.997712 
5.9500444e+2, 2.3507589e+2, -703824.44, -931824.6, 4551.0195, 0.08528419, 0.07882553, -703733.6, -67470.89, 0.0, 10.000619, 9.997662 
5.950074e+2, 2.4507438e+2, -537935.5, -643951.8, -36749.234, 0.06303175, 0.09577703, -526442.7, 11834.725, 0.0, 10.000418, 9.99904 
5.9500957e+2, 2.5507292e+2, -463800.56, -556238.25, -7143.571, -0.02912315, 0.009611905, -463251.78, -22964.404, 0.0, 10.000249, 9.999048 
5.950127e+2, 2.6507172e+2, -420073.25, -508693.4, -11633.204, -0.025225718, 0.0014201842, -418571.6, -76273.56, 0.0, 10.000005, 9.998822 
5.950166e+2, 2.750705e+2, -382017.34, -441371.13, 6367.404, 0.06021328, -0.038347986, -381341.97, -137029.55, 0.0, 9.999601, 9.998807 
5.9501934e+2, 2.8507015e+2, -194228.06, -244797.0, 1588.5225, 0.025996746, 0.02952029, -194178.22, -47863.78, 0.0000003359344, 9.999957, 9.999315 
5.9502095e+2, 2.9507047e+2, 21971.592, -93572.27, 31115.816, -0.12723602, 0.08671716, 29818.182, 78125.51, 0.000006914508, 10.000772, 9.999287 
5.9502625e+2, 3.050685e+2, -40722.918, -233973.75, 7070.924, 0.12357792, 0.028416209, -40464.543, -40464.543, 0.000035638073, 10.000606, 9.998075 
5.950274e+2, 3.150661e+2, -104705.48, -22143.203, -102708.31, -0.049096067, -0.064235464, 47269.52, 47269.52, 0.00009897654, 9.999063, 10.000258 
6.0497534e+2, 1.2507848e+2, -1828469.3, -1778960.9, 144704.45, 0.07966031, -0.07260518, -1656908.5, 57316.2, 0.0000011596172, 9.999199, 9.999914 
6.049766e+2, 1.3507888e+2, -1549483.3, -1607194.3, -112532.4, 0.22626491, -0.057147, -1462165.8, 154058.11, 0.00000014603442, 10.000518, 9.999807 
6.049757e+2, 1.4507914e+2, -1492520.8, -1544811.9, 79435.67, -0.13435681, 0.008881008, -1435038.5, 83185.53, 0.0000000031309833, 10.000298, 9.999654 
6.049812e+2, 1.5507992e+2, -1594408.4, -1544085.1, 52826.426, 0.06064374, 0.07855529, -1510734.0, -90514.82, 0.0, 9.998939, 9.999641 
6.049842e+2, 1.6507988e+2, -1457927.6, -1414232.6, -176.46042, 0.12978022, 0.111520134, -1414231.9, -92012.164, 0.0, 9.999131, 9.999775 
6.0498554e+2, 1.7507873e+2, -1122989.8, -1198966.9, -24779.367, 0.10511484, -0.01401572, -1115622.5, 108606.06, 0.0, 10.000749, 9.999796 
6.049878e+2, 1.8507786e+2, -1034923.6, -1217831.0, 53679.52, 0.07677664, -0.02350222, -1020333.6, 105902.695, 0.0, 10.001188, 9.998772 
6.0499096e+2, 1.9507702e+2, -1035403.1, -1169750.4, 37771.45, 0.047249623, -0.017309802, -1025512.0, 2733.6497, 0.0, 10.000517, 9.998757 
6.0499424e+2, 2.050764e+2, -919238.1, -1007885.7, 34111.094, 0.021974886, 0.026541112, -907631.94, 22619.37, 0.0, 10.0004015, 9.99925 
6.049977e+2, 2.1507566e+2, -774219.44, -893783.1, -24374.484, 0.0055028703, -0.0030655274, -769441.3, 62815.867, 0.0, 10.000741, 9.999202 
6.0500133e+2, 2.250745e+2, -789580.7, -1025067.06, -30360.568, 0.04039318, 0.04615015, -785729.4, -51458.816, 0.0, 10.000739, 9.997613 
6.0500526e+2, 2.3507266e+2, -734445.75, -948526.06, -457.52463, 0.1201565, 0.071980104, -734444.75, -98151.09, 0.0, 10.000446, 9.997608 
6.050081e+2, 2.4507123e+2, -556045.94, -632430.8, 30194.023, 0.10599334, 0.092494205, -545552.25, -7244.539, 0.0, 10.00022, 9.999214 
6.050101e+2, 2.5506994e+2, -477434.47, -546448.56, 8919.465, 0.008105739, 0.0065538664, -476300.34, -35984.91, 0.0, 10.000089, 9.9992 
6.050131e+2, 2.650687e+2, -407536.75, -517726.88, 14812.997, 0.0135317, -0.003991381, -405580.16, -63253.895, 0.0, 10.0001545, 9.998691 
6.05017e+2, 2.7506727e+2, -277135.53, -407694.94, -10670.606, 0.119472675, -0.048571646, -276269.2, -31925.963, 0.0, 10.00038, 9.99867 
6.050198e+2, 2.8506696e+2, -151832.66, -233255.08, 1960.3076, 0.069163084, 0.03288948, -151785.48, -5439.2534, 0.00000016006682, 10.000295, 9.999231 
6.050213e+2, 2.950676e+2, -102325.695, -157350.8, -42823.652, -0.117960736, 0.13070603, -78938.3, -30600.63, 0.0000052467194, 9.999944, 9.9992485 
6.0502654e+2, 3.0506536e+2, -144052.94, -219230.98, -70905.16, 0.15651564, 0.02174746, -101389.375, -101389.375, 0.000031333126, 9.999625, 9.99865 
6.0502726e+2, 3.1506386e+2, -97090.54, 5942.308, -128612.63, 0.04932044, -0.032108616, 92972.45, 92972.45, 0.00009226463, 9.998994, 10.0005045 
6.149743e+2, 1.2507422e+2, -1767494.4, -1648400.1, 46027.58, -0.021271043, -0.091730565, -1632685.0, 81583.13, 0.000000319301, 9.999194, 10.000803 
6.1497754e+2, 1.3507639e+2, -1496762.1, -1497283.0, -52446.023, 0.2308898, 0.023533309, -1444575.9, 171671.92, 0.000000018009526, 10.000523, 10.000558 
6.1497533e+2, 1.4507677e+2, -1438501.3, -1439032.3, 3446.9822, -0.25027058, 0.029951494, -1435309.6, 82933.79, 0.0, 10.000317, 10.000371 
6.1498076e+2, 1.5507655e+2, -1540860.9, -1441046.6, 13691.739, 0.08484914, -0.073126726, -1439202.5, -18959.014, 0.0, 9.998956, 10.000348 
6.1498433e+2, 1.6507632e+2, -1492898.8, -1471994.9, 45438.527, 0.18599704, -0.078594826, -1435821.8, -113576.51, 0.0, 9.999073, 9.999406 
6.149866e+2, 1.7507575e+2, -1158536.3, -1264662.4, 50486.72, 0.09851724, -0.10761745, -1138355.9, 85895.49, 0.0, 10.000709, 9.999368 
6.1498874e+2, 1.8507521e+2, -1050063.9, -1226016.0, 14918.562, 0.027285062, -0.06251693, -1048807.9, 77449.01, 0.0, 10.001088, 9.998761 
6.1499107e+2, 1.9507441e+2, -1050579.6, -1182864.8, 29408.174, -0.02624662, -0.051921446, -1044336.6, -16072.044, 0.0, 10.000431, 9.998711 
6.149941e+2, 2.0507345e+2, -1022215.8, -1188048.3, 33229.92, -0.059736766, 0.019072436, -1015805.0, -85529.234, 0.0, 10.000259, 9.998079 
6.14998e+2, 2.1507199e+2, -883213.0, -1078010.1, 2341.1006, -0.063853316, 0.035549343, -883184.8, -50890.99, 0.0, 10.000559, 9.998026 
6.1500156e+2, 2.250706e+2, -733809.56, -869815.94, -52175.457, -0.038390744, 0.0633228, -716099.8, 18209.664, 0.0, 10.000571, 9.998758 
6.1500496e+2, 2.3506905e+2, -681373.06, -794630.7, 3985.7405, 0.017316142, -0.0010084199, -681232.94, -44908.02, 0.0, 10.00026, 9.998753 
6.150081e+2, 2.4506803e+2, -581430.4, -659413.25, 8355.355, 0.056302696, 0.0090866815, -580545.25, -42211.355, 0.0, 10.000106, 9.999084 
6.1501104e+2, 2.5506726e+2, -506679.78, -580772.06, 18040.9, 0.06961567, -0.011777643, -502520.44, -62181.23, 0.0, 9.999969, 9.999025 
6.150139e+2, 2.6506627e+2, -442163.84, -571798.9, 9701.587, 0.055584565, 0.027408643, -441441.8, -99092.64, 0.0, 10.000076, 9.998356 
6.150167e+2, 2.750648e+2, -319072.16, -465304.72, 15120.371, 0.015681177, 0.00980169, -317525.1, -73158.51, 0.0, 10.000253, 9.998332 
6.150194e+2, 2.850636e+2, -205709.4, -333069.06, -26734.488, -0.035579763, 0.050556537, -200325.11, -53945.156, 0.00000012615395, 10.000237, 9.998572 
6.150217e+2, 2.9506266e+2, -157115.13, -249469.34, -37305.895, -0.11810572, 0.0516242, -143928.48, -95538.79, 0.000004351736, 9.999855, 9.998652 
6.1502665e+2, 3.0506045e+2, -54233.742, -32708.912, -104175.914, 0.16559255, -0.09270258, 61259.043, 61259.043, 0.000027327982, 9.999616, 9.999949 
6.1502624e+2, 3.1506148e+2, -90243.8, 44431.92, -59290.707, -0.02727496, -0.010441523, 66814.6, 66814.6, 0.00008384043, 9.99889, 10.000826 
6.2497324e+2, 1.2507072e+2, -1814132.6, -1661375.0, 78013.23, -0.006034732, -0.12501632, -1628576.0, 85724.72, 0.00000004128188, 9.998823, 10.000906 
6.2497854e+2, 1.3507317e+2, -1557215.3, -1508380.5, -14566.076, 0.31355548, 0.005289663, -1504365.9, 111911.414, 0.000000000001578113, 10.000009, 10.000745 
6.249761e+2, 1.450733e+2, -1432937.9, -1437349.5, -35347.97, -0.1971033, -0.022137221, -1399727.0, 118547.484, 0.0, 10.000359, 10.000364 
6.2498075e+2, 1.5507281e+2, -1327098.6, -1327265.3, -102550.086, 0.12820679, -0.15376143, -1224631.9, 195643.78, 0.0, 10.000405, 10.000414 
6.2498426e+2, 1.6507266e+2, -1281210.9, -1388490.0, 2573.9136, 0.20703918, -0.14634348, -1281149.1, 41127.58, 0.0, 10.00063, 9.999213 
6.2498724e+2, 1.750725e+2, -1137417.5, -1269423.9, -17702.898, 0.09341037, -0.11609905, -1135084.6, 89195.945, 0.0, 10.000952, 9.999201 
6.249899e+2, 1.8507197e+2, -1038326.44, -1234119.9, -65200.15, 0.038444597, -0.055707466, -1018601.6, 107684.84, 0.0, 10.001192, 9.998669 
6.2499243e+2, 1.9507077e+2, -934964.5, -1133594.6, -79426.01, 0.0351274, -0.079046376, -907110.5, 121186.88, 0.0, 10.001234, 9.998664 
6.249952e+2, 2.0506936e+2, -936999.75, -1177179.8, -8257.669, -0.0051750313, -0.036427863, -936716.2, -6403.262, 0.0, 10.000962, 9.997822 
6.2499833e+2, 2.1506748e+2, -924499.3, -1117365.4, 3109.7424, -0.064683065, -0.04086317, -924449.2, -92112.85, 0.0, 10.000364, 9.997845 
6.250018e+2, 2.2506632e+2, -766175.25, -819157.0, -11622.912, -0.043995976, -0.01173368, -763737.6, -29388.37, 0.0, 10.000056, 9.999363 
6.250054e+2, 2.350656e+2, -675942.06, -731105.2, -22071.86, 0.065197684, -0.04805112, -668197.9, -31842.936, 0.0, 10.000015, 9.999324 
6.2500876e+2, 2.4506496e+2, -599705.6, -691859.94, -4290.668, 0.119342685, -0.01673438, -599506.3, -61145.574, 0.0, 10.000068, 9.998889 
6.250116e+2, 2.5506416e+2, -474749.22, -583213.06, -31252.77, 0.11601176, -0.018775484, -466388.5, -26019.639, 0.0, 10.000263, 9.998865 
6.2501425e+2, 2.6506323e+2, -415098.9, -543773.9, -893.8772, 0.08267555, 0.025572054, -415092.7, -72713.96, 0.0, 10.000181, 9.9985 
6.250168e+2, 2.750618e+2, -380807.78, -480713.3, 8226.387, 0.032653354, -0.0032792967, -380134.94, -135740.9, 0.0, 9.999753, 9.998469 
6.250195e+2, 2.850605e+2, -298665.97, -377829.56, 44054.5, -0.013439648, 0.019687152, -279023.47, -132615.06, 0.000000116905284, 9.999596, 9.998583 
6.25022e+2, 2.9505923e+2, -181187.67, -269907.53, 47722.395, -0.057919685, -0.005297466, -160392.17, -111969.625, 0.000004287332, 9.999695, 9.998611 
6.2502646e+2, 3.050579e+2, -58123.02, 18273.836, -21274.71, 0.21295267, -0.079839826, 23798.78, 23798.78, 0.000025852014, 9.9993925, 10.000387 
6.25026e+2, 3.1505954e+2, -140339.47, 34608.3, -64009.64, 0.096798606, 0.012439775, 55526.824, 55526.824, 0.00007870898, 9.998513, 10.000923 
6.3497126e+2, 1.2506798e+2, -1847446.6, -1751645.5, -54042.742, -0.17066991, -0.16111214, -1727330.5, -13008.105, 0.000000010756334, 9.998909, 10.00025 
6.349791e+2, 1.3506906e+2, -1591040.5, -1584007.8, 30130.285, 0.33845586, -0.11530624, -1557189.4, 59124.457, 0.0, 10.000021, 10.000229 
6.3497764e+2, 1.4506869e+2, -1476055.0, -1511016.6, -55667.457, -0.11688846, -0.14334138, -1435188.3, 83129.31, 0.0, 10.0003, 9.999883 
6.349809e+2, 1.5506876e+2, -1365688.6, -1406980.0, -82704.805, 0.06125415, -0.16924925, -1301091.5, 119223.555, 0.0, 10.000402, 9.999869 
6.3498384e+2, 1.6506888e+2, -1292190.5, -1406778.6, -1768.9254, 0.066581376, -0.10082223, -1292163.3, 30151.215, 0.0, 10.000603, 9.9991045 
6.3498724e+2, 1.7506883e+2, -1147758.9, -1289617.1, 8792.556, -0.0374359, -0.048064917, -1147216.0, 77101.7, 0.0, 10.000931, 9.999083 
6.349909e+2, 1.8506797e+2, -1056355.4, -1247603.9, -79190.97, -0.022818822, -0.012716787, -1027821.6, 98505.31, 0.0, 10.001098, 9.998618 
6.3499457e+2, 1.9506595e+2, -957589.1, -1153419.6, -65884.2, 0.09313177, -0.110795796, -937486.9, 90858.79, 0.0, 10.001116, 9.998585 
6.34997e+2, 2.0506409e+2, -913856.2, -1089380.4, -45632.516, 0.05629166, -0.14421412, -902701.56, 27662.363, 0.0, 10.000791, 9.998505 
6.3499826e+2, 2.1506207e+2, -903611.3, -1030600.5, -3763.2693, -0.13242286, -0.23067409, -903499.9, -71115.2, 0.0, 10.000174, 9.998532 
6.350014e+2, 2.250616e+2, -787642.7, -821308.0, -26846.566, -0.10563574, -0.17145209, -772788.2, -38398.074, 0.0, 9.999879, 9.99943 
6.3500637e+2, 2.3506229e+2, -699996.06, -736934.7, -6507.024, 0.12573023, -0.076467544, -698883.4, -62499.383, 0.0, 9.999828, 9.999372 
6.350096e+2, 2.4506205e+2, -641330.9, -748531.56, -9587.122, 0.16314791, 0.00982363, -640480.25, -102092.18, 0.0, 9.999945, 9.998556 
6.3501114e+2, 2.5506067e+2, -518782.94, -641081.2, -9979.977, 0.009308001, -0.015912307, -517973.9, -77569.52, 0.0, 10.00012, 9.998537 
6.3501364e+2, 2.6505962e+2, -385268.25, -457795.06, -32931.004, -0.030265253, -0.0019680792, -372547.1, -30132.078, 0.0, 10.000085, 9.999133 
6.350169e+2, 2.750584e+2, -354935.13, -398177.44, 8946.505, 0.029098991, -0.07618508, -353157.25, -108732.56, 0.0, 9.999633, 9.999092 
6.3501954e+2, 2.8505763e+2, -258505.33, -279017.34, 31275.543, 0.0018007086, -0.061941605, -235847.13, -89415.64, 0.0000001448745, 9.999536, 9.99929 
6.350216e+2, 2.950575e+2, -160986.92, -190017.5, 73160.14, -0.10784942, -0.042262267, -100916.02, -52481.43, 0.000005079309, 9.999553, 9.999223 
6.350255e+2, 3.0505803e+2, -101154.26, -78329.43, -60997.36, 0.13834408, 0.0764952, -27686.055, -27686.055, 0.000027855136, 9.9993925, 9.999739 
6.3502544e+2, 3.1505808e+2, -186439.38, -42936.773, -25146.693, 0.11170832, 0.05691099, -38657.785, -38657.785, 0.00008149468, 9.998417, 10.000443 
6.449714e+2, 1.2506558e+2, -1886645.0, -1818552.5, -77692.86, -0.030205008, -0.136159, -1767773.4, -53429.355, 0.0000000047013002, 9.998855, 9.999814 
6.44979e+2, 1.3506573e+2, -1584764.8, -1607431.6, 53775.09, 0.3292696, -0.15427263, -1541141.8, 75202.31, 0.0, 10.000212, 9.999958 
6.449786e+2, 1.4506508e+2, -1445460.0, -1559174.8, -30091.564, -0.0658993, -0.16908306, -1437988.1, 80363.38, 0.0, 10.000781, 9.99932 
6.449814e+2, 1.5506504e+2, -1336345.4, -1456173.9, -97855.6, 0.054509863, -0.14891443, -1281518.9, 138833.2, 0.0, 10.000864, 9.999314 
6.449843e+2, 1.6506495e+2, -1262859.9, -1387477.9, 19408.012, 0.05579169, -0.07695402, -1259907.3, 62446.84, 0.0, 10.000778, 9.999157 
6.449883e+2, 1.7506461e+2, -1197256.6, -1303532.0, 17473.31, 0.00088709436, -0.05903425, -1194457.5, 29901.516, 0.0, 10.000552, 9.999167 
6.4499205e+2, 1.8506384e+2, -1127904.5, -1249064.5, -23331.682, 0.030078635, -0.031232517, -1123566.8, 2800.3215, 0.0, 10.000469, 9.998909 
6.449957e+2, 1.950624e+2, -1035863.56, -1154149.9, -16068.764, 0.13412453, -0.102448545, -1033719.5, -5338.0947, 0.0, 10.000439, 9.998899 
6.4499795e+2, 2.0506115e+2, -924395.9, -1015962.2, 35495.94, 0.09737781, -0.12581684, -912247.56, 18145.297, 0.0, 10.000386, 9.999197 
6.449991e+2, 2.1505977e+2, -849740.5, -930966.25, 45055.74, -0.067979395, -0.21899748, -829695.1, 2709.8499, 0.0, 10.000227, 9.999186 
6.450019e+2, 2.2505942e+2, -766918.9, -841349.7, 51818.844, -0.05095062, -0.16669157, -740336.3, -5927.8223, 0.0, 10.000122, 9.999181 
6.450065e+2, 2.3505978e+2, -677313.44, -749377.8, 17475.744, 0.15066293, -0.08494492, -673299.2, -36892.363, 0.0, 10.000071, 9.9991665 
6.4500976e+2, 2.450593e+2, -624206.06, -755920.8, 52978.773, 0.18539593, -0.005842789, -605541.56, -67127.336, 0.0, 10.000148, 9.998408 
6.4501184e+2, 2.5505775e+2, -490825.6, -640871.56, 40884.23, 0.07085676, -0.03380149, -480408.72, -39975.832, 0.0, 10.000381, 9.998412 
6.450143e+2, 2.6505667e+2, -357630.2, -438391.44, 10491.246, 0.030890066, -0.01358871, -356289.6, -13845.729, 0.0, 10.000254, 9.999185 
6.45017e+2, 2.7505574e+2, -323827.97, -377115.88, -27765.375, 0.080493204, -0.06192803, -311990.53, -67539.22, 0.000000000000000000046744374, 9.999825, 9.999148 
6.450194e+2, 2.8505522e+2, -268338.8, -243297.4, -5599.005, 0.0576864, -0.046717916, -242102.55, -95647.234, 0.00000034821963, 9.999295, 9.999646 
6.4502126e+2, 2.950551e+2, -287052.03, -219004.7, -26259.467, -0.03305783, -0.06194407, -210049.66, -161593.0, 0.0000068469953, 9.998548, 9.999503 
6.450246e+2, 3.0505565e+2, -249573.61, -180001.33, -109196.38, 0.17004979, 0.060420122, -100184.13, -100184.13, 0.00003364889, 9.998522, 9.99944 
6.450245e+2, 3.150551e+2, -65019.867, 36649.38, -96036.7, 0.15192784, 0.010447752, 94475.73, 94475.73, 0.000093661416, 9.999164, 10.000617 
6.549724e+2, 1.2506337e+2, -1888272.8, -1826045.4, -133529.52, 0.11451236, -0.06473955, -1720052.6, -5685.4355, 0.000000001405694, 9.998873, 9.99975 
6.549776e+2, 1.3506326e+2, -1577449.9, -1597863.3, 111504.03, 0.1336314, -0.11318179, -1475686.4, 140680.95, 0.0, 10.000237, 10.000005 
6.549786e+2, 1.4506255e+2, -1501517.1, -1669605.4, -46732.164, -0.18786107, -0.10025135, -1489398.4, 28977.072, 0.0, 10.000752, 9.998581 
6.5498173e+2, 1.550617e+2, -1392969.9, -1567665.3, -80024.55, -0.030637385, -0.08612203, -1361854.3, 58532.215, 0.0, 10.000832, 9.998571 
6.5498525e+2, 1.6506082e+2, -1248328.5, -1344275.4, -6686.7427, 0.031958703, -0.07161002, -1247864.8, 74531.42, 0.0, 10.000722, 9.999476 
6.549897e+2, 1.7505974e+2, -1181338.3, -1261745.8, 23707.113, 0.06322771, -0.15955304, -1174869.0, 49536.31, 0.0, 10.000516, 9.999468 
6.5499324e+2, 1.8505967e+2, -1095567.8, -1160628.6, -39492.75, 0.06783353, -0.11299657, -1076932.6, 49474.03, 0.0, 10.000378, 9.99956 
6.549953e+2, 1.9506016e+2, -1003218.75, -1062069.6, 17.45877, 0.022374973, -0.053800818, -1003218.75, 25185.11, 0.0, 10.000336, 9.999582 
6.549976e+2, 2.0506053e+2, -900288.25, -932663.7, 14567.999, -0.0056944904, 0.017231902, -894698.25, 35701.72, 0.0, 10.000243, 9.999843 
6.5500015e+2, 2.1506041e+2, -833115.3, -849472.4, 53424.918, -0.012112721, -0.011988163, -787246.56, 45151.85, 0.0, 10.0000305, 9.999841 
6.550028e+2, 2.2505972e+2, -832595.4, -931244.25, 35883.246, -0.003770193, -0.00053748884, -820923.9, -86518.96, 0.0, 9.9999275, 9.998652 
6.5500534e+2, 2.3505813e+2, -742160.8, -838501.94, 29719.154, -0.00039002454, -0.060852744, -733730.75, -97307.82, 0.0, 9.999881, 9.998642 
6.5500885e+2, 2.4505673e+2, -637847.44, -754153.8, 45361.297, 0.053961024, -0.050049257, -622248.06, -83809.43, 0.0, 10.00002, 9.99848 
6.550134e+2, 2.5505525e+2, -507178.4, -639301.56, 66344.32, 0.15114143, -0.0810518, -479614.7, -39159.766, 0.0, 10.000234, 9.99849 
6.5501595e+2, 2.650544e+2, -406597.94, -526433.6, -20275.947, 0.13759767, -0.013857801, -403260.25, -60795.113, 0.0, 10.000186, 9.998615 
6.550167e+2, 2.7505392e+2, -376023.75, -468746.16, -23574.86, 0.02662871, 0.044036437, -370374.03, -125901.44, 0.0000000002377775, 9.99974, 9.998566 
6.550184e+2, 2.8505328e+2, -281323.6, -246272.55, -48242.582, -0.011943261, 0.072844654, -212470.78, -65991.94, 0.0000008000927, 9.999206, 9.9996605 
6.550206e+2, 2.9505205e+2, -308413.3, -229325.94, -36933.72, -0.00023962326, -0.057546996, -214760.45, -166272.61, 0.000010270006, 9.998411, 9.999492 
6.550234e+2, 3.0505082e+2, -251463.8, -184964.61, -94095.586, 0.15632609, -0.1118218, -118416.836, -118416.836, 0.00004390313, 9.998516, 9.999416 
6.550223e+2, 3.1505004e+2, -22225.963, 147459.66, -9780.956, -0.055507317, -0.18587258, 148021.58, 148021.58, 0.00011355634, 9.99907, 10.001426 
6.649723e+2, 1.2505947e+2, -1683019.5, -1702367.6, -170776.08, 0.17294315, -0.052815136, -1521643.6, 192764.1, 0.00000000035571668, 10.000179, 9.999958 
6.649771e+2, 1.3505965e+2, -1562744.4, -1586380.4, 41281.594, 0.06911227, -0.08442616, -1531622.5, 84781.805, 0.0, 10.0002985, 10.000064 
6.6498005e+2, 1.4505924e+2, -1578537.0, -1678559.8, -66590.42, -0.06862446, -0.056234572, -1545269.1, -26860.479, 0.0, 10.00011, 9.998824 
6.6498274e+2, 1.5505818e+2, -1468950.0, -1573405.8, -58480.38, 0.029952813, -0.091878414, -1442770.5, -22349.232, 0.0, 10.000193, 9.998829 
6.649858e+2, 1.6505732e+2, -1334706.1, -1361154.1, 69524.29, 0.060223665, -0.099684, -1277159.4, 45270.523, 0.0, 10.000028, 9.999695 
6.6499007e+2, 1.7505641e+2, -1314132.6, -1301006.3, 59996.23, 0.098214254, -0.19137089, -1247215.3, -22778.734, 0.0, 9.999494, 9.999691 
6.649933e+2, 1.850566e+2, -1213918.3, -1183391.6, 31357.479, 0.09472792, -0.14467426, -1163780.0, -37345.09, 0.0, 9.9994335, 9.999856 
6.649953e+2, 1.9505745e+2, -1058490.1, -1060503.0, 10912.405, 0.02538042, -0.08029695, -1048537.9, -20108.885, 0.0, 9.999827, 9.999841 
6.649977e+2, 2.0505808e+2, -932202.94, -940305.94, 4848.8477, 0.0014318246, 0.0028396053, -929935.75, 486.71765, 0.0, 9.999985, 9.999923 
6.650005e+2, 2.1505827e+2, -854987.6, -852957.44, -30157.838, 0.038442302, -0.0029714247, -823797.56, 8620.446, 0.0, 9.999844, 9.999916 
6.650032e+2, 2.2505751e+2, -823946.0, -936103.06, -8321.251, 0.044842463, 0.0025344035, -823331.94, -88906.39, 0.0, 10.000041, 9.99857 
6.6500556e+2, 2.3505557e+2, -651689.06, -805864.94, -10217.422, 0.012409773, -0.07897772, -651014.9, -14567.397, 0.0, 10.000563, 9.998543 
6.6500896e+2, 2.450543e+2, -558405.6, -674212.94, 39488.727, 0.057446655, -0.06928743, -546222.25, -7760.752, 0.0, 10.000355, 9.9988785 
6.650134e+2, 2.5505343e+2, -609600.5, -648442.5, 49500.29, 0.18414892, -0.08170187, -575847.7, -135377.06, 0.0, 9.999326, 9.998877 
6.65016e+2, 2.6505274e+2, -571219.9, -606874.5, 40966.04, 0.1871481, -0.019256674, -544370.25, -201891.06, 0.0, 9.999055, 9.998612 
6.6501683e+2, 2.750521e+2, -401704.66, -474464.8, 49356.836, 0.08397667, 0.021443414, -376769.1, -132280.3, 0.0000000023427176, 9.999555, 9.998604 
6.6501826e+2, 2.850514e+2, -224338.69, -250835.02, 54919.207, 0.04124687, 0.05690722, -181092.31, -34596.33, 0.0000014418595, 9.999712, 9.999397 
6.650199e+2, 2.9505005e+2, -180923.7, -189363.39, 11380.313, 0.059729695, -0.060997844, -173006.06, -124499.89, 0.000014823799, 9.9993725, 9.999305 
6.650227e+2, 3.050483e+2, -128894.21, -151316.66, 11940.387, 0.19210309, -0.14825603, -123726.66, -123726.66, 0.000057815294, 9.999471, 9.9991865 
6.650227e+2, 3.1504798e+2, 42406.84, 133645.14, 25628.953, 0.04702082, -0.14860645, 140351.4, 140351.4, 0.00014076945, 9.999696, 10.001035 
6.749703e+2, 1.2505406e+2, -1661657.8, -1657711.0, -199142.39, -0.120436676, -0.10046495, -1460532.3, 253931.89, 0.0000000023126079, 10.000189, 10.0002575 
6.7497706e+2, 1.350549e+2, -1560882.8, -1579803.3, 51821.707, 0.0030653195, -0.07360583, -1517664.9, 98790.305, 0.0, 10.000298, 10.000109 
6.7498267e+2, 1.4505523e+2, -1496225.1, -1494793.6, -84783.79, 0.13742872, -0.034298826, -1410722.6, 107728.08, 0.0, 10.000058, 10.000108 
6.749838e+2, 1.5505464e+2, -1376825.5, -1380573.6, -38307.09, 0.07634046, -0.14865018, -1340346.6, 80108.02, 0.0, 10.000192, 10.000151 
6.749856e+2, 1.6505459e+2, -1328767.1, -1344931.3, 33681.223, 0.004269053, -0.14758642, -1302211.9, 20241.88, 0.0, 10.000004, 9.999822 
6.749887e+2, 1.7505477e+2, -1311947.3, -1284653.3, 53904.582, -0.022289213, -0.14550975, -1242695.0, -18244.11, 0.0, 9.999443, 9.999826 
6.7499197e+2, 1.8505475e+2, -1233092.1, -1203533.4, 27324.986, -0.017037641, -0.12135535, -1187247.0, -60796.004, 0.0, 9.999344, 9.999765 
6.749952e+2, 1.950543e+2, -1086399.4, -1082318.8, 39633.78, -0.0025296314, -0.17436078, -1044672.8, -16216.852, 0.0, 9.999679, 9.9997635 
6.7499775e+2, 2.0505396e+2, -992808.1, -1032311.75, -14801.798, -0.013863933, -0.1576032, -987877.4, -57418.43, 0.0, 9.999826, 9.9993725 
6.749997e+2, 2.1505342e+2, -918178.0, -941639.6, -21951.662, -0.053393498, -0.18377598, -905019.3, -72556.16, 0.0, 9.999659, 9.999395 
6.750027e+2, 2.2505291e+2, -826966.3, -900589.0, -4157.4224, -0.026717015, -0.14471278, -826732.25, -92262.9, 0.0, 9.99986, 9.998903 
6.7500675e+2, 2.3505212e+2, -657649.0, -769736.44, 26131.988, 0.05226895, -0.14465414, -651856.0, -15375.539, 0.0, 10.000356, 9.99889 
6.750098e+2, 2.4505208e+2, -534935.3, -586879.9, -11099.396, 0.07265268, -0.06569917, -532663.0, 5819.2373, 0.0, 10.000194, 9.999554 
6.7501146e+2, 2.5505236e+2, -587349.06, -567518.1, 26905.371, 0.025807768, -0.026001358, -548759.3, -108280.51, 0.0, 9.999172, 9.999506 
6.7501384e+2, 2.6505175e+2, -548463.75, -530955.56, 43725.047, 0.04351494, -0.014972572, -495116.9, -152632.48, 0.0, 9.998937, 9.999188 
6.75017e+2, 2.7505007e+2, -377147.44, -399189.97, 85598.5, 0.11462093, -0.13458765, -301863.6, -57362.73, 0.0000000015372758, 9.999448, 9.999175 
6.7501885e+2, 2.8504944e+2, -261469.42, -315507.84, 28134.213, 0.09713539, -0.10117933, -249481.3, -102973.91, 0.0000017821444, 9.999663, 9.998973 
6.750189e+2, 2.9504928e+2, -225697.52, -252576.89, 20092.47, -0.02773262, -0.05568831, -214964.23, -166455.14, 0.000019076204, 9.999248, 9.998929 
6.750216e+2, 3.0504802e+2, -179111.3, -238176.45, 11774.439, 0.11161391, -0.050908674, -176850.63, -176850.63, 0.000073988194, 9.999403, 9.998619 
6.7502415e+2, 3.1504878e+2, -78724.53, -83972.24, 89082.41, 0.15687557, 0.12518518, 7772.6514, 7772.6514, 0.00017626988, 9.999565, 9.999595 
6.849706e+2, 1.2505035e+2, -1670105.6, -1656838.8, -15094.773, -0.083680555, -0.14276859, -1646984.1, 67516.12, 0.0000000036242784, 10.000078, 10.000337 
6.849765e+2, 1.3505124e+2, -1727603.3, -1668026.6, 120805.33, -0.010276029, -0.09621972, -1573391.3, 43100.168, 0.0, 9.999214, 10.000013 
6.849833e+2, 1.45052e+2, -1624684.0, -1504113.4, 21993.98, 0.26672632, -0.033629693, -1500226.6, 18256.178, 0.0, 9.9989395, 10.000587 
6.849844e+2, 1.5505216e+2, -1432447.6, -1357126.5, -22665.502, 0.15708573, -0.12256823, -1350832.1, 69647.09, 0.0, 9.999572, 10.000625 
6.849858e+2, 1.650524e+2, -1349645.0, -1358329.6, 16982.453, 0.046711374, -0.11534116, -1336458.5, -13982.856, 0.0, 9.999867, 9.999802 
6.849882e+2, 1.7505245e+2, -1262342.4, -1270175.4, -5496.9893, -0.0205478, -0.12244479, -1259509.4, -35034.508, 0.0, 9.999811, 9.999763 
6.849915e+2, 1.8505235e+2, -1162674.8, -1169819.0, 16693.809, -0.011746169, -0.09917171, -1149175.1, -22699.871, 0.0, 9.999823, 9.999762 
6.849953e+2, 1.950518e+2, -1065862.0, -1071394.6, 6810.6865, 0.0501435, -0.16403192, -1061277.3, -32797.43, 0.0, 9.999806, 9.999771 
6.8499815e+2, 2.050512e+2, -996316.4, -1041825.25, -6289.3994, 0.049590524, -0.17274587, -995463.2, -64978.105, 0.0, 9.999874, 9.999259 
6.849999e+2, 2.1505015e+2, -863429.3, -929957.25, -11529.355, -0.013195456, -0.23628673, -861487.94, -28993.443, 0.0, 10.000111, 9.999247 
6.850028e+2, 2.2504967e+2, -785853.1, -852986.56, 46298.95, -0.00037783707, -0.19859435, -762233.2, -27733.03, 0.0, 10.000004, 9.999161 
6.85007e+2, 2.3504953e+2, -762258.5, -793373.25, 39728.883, 0.08628599, -0.16011249, -735149.56, -98645.18, 0.0, 9.999499, 9.999145 
6.850097e+2, 2.4504973e+2, -649753.6, -624461.3, -3723.1057, 0.09795309, -0.077017196, -623924.7, -85421.13, 0.0, 9.999346, 9.999689 
6.8501085e+2, 2.5504997e+2, -506570.25, -508116.4, -34290.453, 0.032551736, -0.056354128, -473044.16, -32543.557, 0.0, 9.999668, 9.999658 
6.850131e+2, 2.6504955e+2, -422018.03, -423439.66, 2154.9438, 0.04876298, -0.05462702, -420459.7, -77955.945, 0.0, 9.999591, 9.999613 
6.850167e+2, 2.7504826e+2, -417766.9, -373157.88, -6.7947774, 0.16532025, -0.18328272, -373157.88, -128642.35, 0.00000000039754933, 9.998951, 9.9995985 
6.8501884e+2, 2.8504765e+2, -348516.66, -391948.9, -7843.034, 0.1636547, -0.14927241, -347143.75, -200622.23, 0.000001935021, 9.999217, 9.998659 
6.8501943e+2, 2.9504737e+2, -51544.223, -199987.88, -41869.746, 0.043153465, -0.08348187, -40548.945, 7977.1523, 0.000022833043, 10.00057, 9.998653 
6.8502164e+2, 3.050464e+2, 15518.076, -168722.47, -34738.383, 0.116714776, -0.021215895, 21850.33, 21850.33, 0.00009092674, 10.000853, 9.998396 
6.8502384e+2, 3.1504637e+2, -127556.27, -160641.25, 32082.28, 0.19158812, 0.09943538, -108002.69, -108002.69, 0.00021663251, 9.99943, 9.99915 
6.9497275e+2, 1.2504855e+2, -1665479.1, -1650692.3, -23721.787, 0.04072584, -0.16342945, -1633238.4, 81275.836, 0.00000000017840025, 10.000109, 10.000352 
6.94975e+2, 1.3504879e+2, -1743739.9, -1705825.8, 98028.94, -0.114525765, -0.15189837, -1624937.8, -8426.036, 0.0, 9.999237, 9.99974 
6.9498175e+2, 1.450495e+2, -1647391.1, -1548591.8, 29012.03, 0.1717311, -0.07016433, -1540702.5, -22197.102, 0.0, 9.998924, 10.000292 
6.949842e+2, 1.5505065e+2, -1457472.1, -1411998.8, 17875.07, 0.1446679, -0.028549097, -1405813.6, 14681.792, 0.0, 9.999574, 10.000254 
6.949861e+2, 1.650507e+2, -1373481.3, -1391785.8, 604.2402, 0.051197886, -0.009568389, -1373461.4, -50965.793, 0.0, 9.99981, 9.999592 
6.949882e+2, 1.7504959e+2, -1286471.4, -1304092.0, 11378.13, -0.0326427, -0.11106862, -1280891.3, -56384.59, 0.0, 9.999746, 9.9995575 
6.9499147e+2, 1.8504955e+2, -1170192.0, -1160721.0, 3713.856, -0.024653662, -0.080166444, -1159438.4, -32931.94, 0.0, 9.999719, 9.999869 
6.949954e+2, 1.9505014e+2, -1078585.8, -1068033.8, 20199.291, 0.04858374, -0.04324983, -1052432.8, -23933.787, 0.0, 9.999689, 9.999843 
6.949984e+2, 2.0504981e+2, -996421.44, -1014699.6, -13976.728, 0.06352464, -0.036450725, -988861.06, -58360.805, 0.0, 9.999745, 9.999511 
6.9500065e+2, 2.1504836e+2, -873481.5, -906668.44, 11440.298, 0.02474799, -0.16631313, -869919.94, -37407.336, 0.0, 9.999919, 9.999498 
6.950031e+2, 2.2504783e+2, -799884.7, -838716.9, 13633.654, 0.000012466326, -0.15812351, -795576.1, -61058.52, 0.0, 9.999816, 9.999347 
6.9500566e+2, 2.3504783e+2, -775561.1, -779566.94, 34365.92, -0.021446291, -0.12523195, -743139.8, -106621.0, 0.0, 9.999325, 9.999317 
6.9500834e+2, 2.4504739e+2, -691085.1, -685741.3, -5366.335, 0.000942765, -0.09480387, -682418.5, -143894.38, 0.0, 9.999232, 9.999325 
6.950112e+2, 2.5504622e+2, -546594.7, -566261.44, -5151.228, 0.062441707, -0.1820749, -545327.1, -104790.664, 0.0, 9.999551, 9.999318 
6.9501334e+2, 2.650461e+2, -420095.8, -392092.94, -33607.95, 0.08485031, -0.15098792, -369686.5, -27148.588, 0.0, 9.999481, 9.999878 
6.950151e+2, 2.7504656e+2, -419453.66, -347366.72, -7611.148, 0.07699988, -0.12394535, -346571.88, -102039.37, 0.0000000054780975, 9.998832, 9.99983 
6.950177e+2, 2.8504604e+2, -374869.03, -431178.16, 26391.58, 0.09446586, -0.08302989, -364433.5, -217895.34, 0.000002364329, 9.999151, 9.998418 
6.950209e+2, 2.950443e+2, -85432.51, -242721.83, 32837.004, 0.09657283, -0.14214736, -78852.45, -30295.54, 0.000027093956, 10.000455, 9.998412 
6.9502234e+2, 3.050435e+2, 18370.082, -155965.61, -92824.984, 0.06833953, -0.063504, 58539.23, 58539.23, 0.00010798756, 10.000816, 9.998499 
6.950211e+2, 3.1504115e+2, -110527.984, -105127.23, 43312.75, -0.104869105, -0.17952307, -64430.758, -64430.758, 0.00025661878, 9.99934, 9.999573 
7.0497507e+2, 1.2504706e+2, -1532526.8, -1620678.6, 2197.5737, 0.22925876, -0.103776835, -1532472.0, 182057.89, 0.0, 10.001135, 10.000082 
7.049749e+2, 1.3504669e+2, -1559600.5, -1655810.8, 6202.9243, -0.102803, -0.12015987, -1559202.3, 57330.93, 0.0, 10.000634, 9.999417 
7.049809e+2, 1.450466e+2, -1529199.9, -1516477.4, 6669.5557, 0.16379158, -0.09061161, -1513621.9, 4912.9883, 0.0, 9.999847, 10.00006 
7.04984e+2, 1.5504771e+2, -1495235.1, -1447068.3, -29006.877, 0.18311466, -0.029440293, -1433450.1, -12924.312, 0.0, 9.999413, 10.000071 
7.0498616e+2, 1.6504796e+2, -1399386.5, -1392510.6, 14070.1455, 0.10064258, 0.012826941, -1381464.5, -58940.055, 0.0, 9.999592, 9.999682 
7.0498854e+2, 1.750471e+2, -1212913.1, -1252666.8, 13887.23, 0.0054879775, -0.07445207, -1208542.5, 15990.646, 0.0, 10.000195, 9.99968 
7.0499176e+2, 1.8504705e+2, -1107038.4, -1134729.5, 18100.805, 0.017694524, -0.051688783, -1098094.9, 28437.97, 0.0, 10.000171, 9.999833 
7.049957e+2, 1.950473e+2, -1101812.8, -1085805.9, -5101.8643, 0.11715611, -0.040924396, -1084318.0, -55789.51, 0.0, 9.999547, 9.999801 
7.049986e+2, 2.0504703e+2, -1024426.3, -1017927.0, 6172.655, 0.12651864, -0.032844376, -1014200.8, -83671.59, 0.0, 9.999486, 9.999625 
7.0500076e+2, 2.15046e+2, -869967.44, -890929.8, -7288.1763, 0.050126944, -0.13010283, -867682.56, -35145.434, 0.0, 9.999865, 9.9996395 
7.0500314e+2, 2.2504562e+2, -767785.0, -797635.8, -3541.7751, 0.019820096, -0.12428405, -767370.5, -32830.64, 0.0, 9.99994, 9.999562 
7.050056e+2, 2.3504554e+2, -691296.7, -712523.2, -10025.265, 0.02226092, -0.123326026, -687310.4, -50769.543, 0.0, 9.999804, 9.999543 
7.050081e+2, 2.4504511e+2, -627747.6, -630330.0, 10728.08, 0.04288551, -0.114671245, -618233.3, -79688.07, 0.0, 9.99955, 9.999561 
7.0501065e+2, 2.5504404e+2, -590429.7, -560590.56, 27194.088, 0.09046607, -0.21290118, -544492.2, -103936.31, 0.0, 9.999127, 9.999571 
7.0501274e+2, 2.650441e+2, -470604.25, -443299.16, 32994.246, 0.09852574, -0.16532795, -421244.38, -78688.08, 0.0, 9.9992485, 9.999644 
7.050144e+2, 2.7504486e+2, -276577.1, -300412.94, -11711.014, 0.07971085, -0.08709029, -271786.2, -27236.096, 0.000000016182126, 9.999914, 9.999628 
7.050173e+2, 2.8504437e+2, -211650.67, -313317.88, 76742.766, 0.10366152, -0.049796283, -170432.63, -23877.254, 0.0000030357212, 10.000085, 9.99879 
7.050214e+2, 2.950425e+2, -189437.4, -254047.14, 97393.52, 0.1499709, -0.15906918, -119130.86, -70557.164, 0.000031540207, 9.999556, 9.998778 
7.0502245e+2, 3.0504152e+2, -159115.27, -228611.25, -2052.8755, 0.07852542, -0.12022033, -159054.67, -159054.67, 0.00012311795, 9.999542, 9.998607 
7.05021e+2, 3.150396e+2, 12216.278, 36665.832, 77672.14, -0.057457294, -0.21350525, 103069.336, 103069.336, 0.0002906225, 9.9998455, 10.000285 
7.1497697e+2, 1.250458e+2, -1550115.9, -1660282.4, -7851.3574, 0.22834311, 0.047175173, -1549559.3, 164988.55, 0.0, 10.001153, 9.999794 
7.1497583e+2, 1.3504478e+2, -1572253.8, -1696748.6, -7050.9414, -0.114690185, -0.011201292, -1571855.6, 44701.453, 0.0, 10.000688, 9.999115 
7.1498054e+2, 1.450433e+2, -1537270.9, -1534089.8, -31868.861, 0.09124516, -0.09824244, -1503771.8, 14799.5205, 0.0, 9.999858, 9.999928 
7.149833e+2, 1.5504345e+2, -1505327.1, -1466825.4, -28678.857, 0.13126193, -0.12157883, -1451535.4, -30965.715, 0.0, 9.999404, 9.999939 
7.149857e+2, 1.6504414e+2, -1381378.1, -1335758.6, 21682.77, 0.064587034, -0.050836198, -1327097.4, -4534.641, 0.0, 9.999518, 10.000103 
7.1498865e+2, 1.7504497e+2, -1194789.9, -1200855.0, 50015.63, -0.03639341, -0.012986425, -1147715.0, 76839.38, 0.0, 10.000142, 10.000058 
7.1499187e+2, 1.8504478e+2, -1129290.9, -1164615.9, -21556.168, -0.01512477, -0.010493621, -1119085.3, 7469.949, 0.0, 10.000098, 9.999668 
7.1499556e+2, 1.9504336e+2, -1134137.1, -1118819.0, -12044.361, 0.11864071, -0.15281914, -1112204.8, -83637.05, 0.0, 9.999404, 9.999646 
7.149981e+2, 2.0504293e+2, -1051805.3, -1029373.1, 7238.5776, 0.102051735, -0.1527507, -1027240.1, -96669.53, 0.0, 9.999303, 9.99963 
7.149997e+2, 2.1504319e+2, -906066.0, -908101.44, 20050.469, -0.06510456, -0.12401764, -887007.44, -54440.332, 0.0, 9.999634, 9.999628 
7.150024e+2, 2.250432e+2, -774560.1, -774738.2, -25411.758, -0.0682082, -0.0864023, -749237.25, -14671.459, 0.0, 9.999775, 9.999803 
7.1500623e+2, 2.3504272e+2, -701943.0, -691752.6, -498.81158, 0.08106284, -0.14727695, -691728.3, -55158.684, 0.0, 9.999616, 9.999779 
7.150085e+2, 2.4504292e+2, -595076.44, -523617.94, -20308.02, 0.096308015, -0.1299956, -518249.8, 20316.479, 0.0, 9.999385, 10.000376 
7.15009e+2, 2.5504345e+2, -557282.7, -454512.0, 26365.604, -0.02693231, -0.14936076, -448142.72, -7583.637, 0.0, 9.998976, 10.000371 
7.150109e+2, 2.6504362e+2, -526663.06, -550955.9, 41266.152, -0.046934076, -0.0907194, -495792.84, -153234.14, 0.0, 9.999203, 9.998932 
7.1501416e+2, 2.750431e+2, -342003.0, -411586.63, 31203.645, 0.031819217, -0.07225738, -330060.06, -85491.54, 0.000000020828322, 9.999802, 9.998925 
7.150174e+2, 2.850426e+2, -153706.03, -168025.98, 43359.617, 0.06848177, -0.05259002, -116919.2, 29654.564, 0.0000037854625, 9.999992, 9.999825 
7.150202e+2, 2.9504195e+2, -141168.55, -120893.68, 100286.71, 0.031859417, -0.14038588, -30233.334, 18343.36, 0.000035842306, 9.999434, 9.9997425 
7.1502155e+2, 3.0504072e+2, -153934.48, -224805.23, -752.0725, -0.010682612, -0.17399006, -153926.52, -153926.52, 0.000135526, 9.999556, 9.998637 
7.150227e+2, 3.1504074e+2, 48607.05, 134888.45, 132370.53, 0.047725152, -0.08240829, 230970.88, 230970.88, 0.00031586387, 9.99973, 10.001031 
7.2497785e+2, 1.2504357e+2, -1528006.0, -1680845.3, 47460.395, 0.201011, 0.07050518, -1514467.5, 200104.98, 0.0, 10.001412, 9.9995575 
7.249771e+2, 1.3504286e+2, -1702822.3, -1746981.1, -32773.54, -0.0050659864, 0.045853686, -1685384.5, -68805.0, 0.0, 9.99977, 9.999206 
7.2498083e+2, 1.4504123e+2, -1584229.8, -1551501.9, 53951.09, 0.16749261, -0.06399731, -1511487.6, 7107.093, 0.0, 9.999501, 9.999997 
7.249834e+2, 1.550413e+2, -1300151.5, -1356621.8, 42414.75, 0.14506458, -0.099674314, -1277433.4, 143158.77, 0.0, 10.000757, 10.0000515 
7.2498584e+2, 1.6504183e+2, -1226473.0, -1267087.0, 82748.37, 0.08206572, -0.04855125, -1161576.4, 161009.42, 0.0, 10.000569, 10.000093 
7.2498876e+2, 1.7504242e+2, -1372390.9, -1284718.3, 51852.66, 0.034560952, -0.03366726, -1260655.3, -36075.77, 0.0, 9.998898, 10.000095 
7.24992e+2, 1.8504234e+2, -1303382.0, -1232853.5, 41413.32, 0.05875088, -0.02983849, -1213724.5, -87145.06, 0.0, 9.998832, 9.999807 
7.2499543e+2, 1.950413e+2, -993565.3, -1032513.44, 41737.88, 0.1356592, -0.14721498, -966981.94, 61606.77, 0.0, 10.000288, 9.999808 
7.2499806e+2, 2.0504107e+2, -848117.9, -933954.44, 80842.59, 0.10398636, -0.13737366, -799507.44, 131082.94, 0.0, 10.000727, 9.999604 
7.249999e+2, 2.1504118e+2, -836103.4, -879569.06, 64960.62, -0.025208857, -0.11635263, -789336.6, 43251.855, 0.0, 10.000135, 9.999588 
7.2500265e+2, 2.2504106e+2, -750632.6, -756602.4, 46875.54, -0.02246352, -0.094576, -706647.06, 27941.139, 0.0, 9.999908, 9.999872 
7.2500634e+2, 2.3504043e+2, -636164.0, -652893.56, 27291.088, 0.119813874, -0.17544235, -615984.5, 20607.771, 0.0, 10.000031, 9.999854 
7.250082e+2, 2.4504076e+2, -524363.75, -509547.25, -13066.022, 0.11153303, -0.13931209, -501935.4, 36652.348, 0.0, 9.999971, 10.000179 
7.2500795e+2, 2.550417e+2, -444471.0, -423883.84, -71587.06, -0.05831462, -0.09752928, -361854.1, 78723.83, 0.0, 9.999852, 10.000155 
7.2500986e+2, 2.6504165e+2, -470039.34, -513659.44, -21384.887, -0.07641898, -0.051930018, -461304.5, -118725.18, 0.0, 9.999566, 9.999002 
7.2501403e+2, 2.7504036e+2, -428731.44, -446415.25, -7483.054, 0.077495955, -0.11789014, -425989.94, -181394.75, 0.000000011844985, 9.999171, 9.99899 
7.250173e+2, 2.8504008e+2, -281464.6, -216684.22, 26398.959, 0.122330345, -0.08743114, -207288.89, -60690.61, 0.000004675658, 9.999076, 9.999925 
7.250196e+2, 2.950405e+2, -154001.92, -113939.53, -24940.605, 0.042121302, -0.07881524, -101981.94, -53390.25, 0.000040333267, 9.999299, 9.99985 
7.2502065e+2, 3.050388e+2, -142997.67, -191570.58, -101450.984, -0.04302467, -0.16978614, -62966.66, -62966.66, 0.00014552829, 9.999521, 9.998891 
7.250238e+2, 3.1503966e+2, 1995.4281, 109366.21, -29190.635, 0.2174652, -0.018585611, 116789.04, 116789.04, 0.00033116215, 9.999432, 10.001001 
7.349772e+2, 1.2504047e+2, -1533966.9, -1691040.6, -35082.656, -0.07498561, -0.013668788, -1526487.3, 188115.75, 0.0, 10.001414, 9.999477 
7.349781e+2, 1.3504094e+2, -1686843.3, -1717362.4, -89334.85, 0.08791469, 0.054856423, -1611474.0, 5126.1187, 0.0, 9.999771, 9.999413 
7.3498136e+2, 1.4504014e+2, -1575288.5, -1510171.1, 81934.4, 0.23254743, 0.00025321302, -1454563.4, 64043.855, 0.0, 9.999415, 10.000311 
7.3498386e+2, 1.5504107e+2, -1285665.6, -1325903.0, 107952.75, 0.082818836, 0.017761186, -1195972.8, 224622.22, 0.0, 10.000753, 10.000264 
7.349861e+2, 1.65041e+2, -1249984.3, -1312703.1, 2680.14, 0.019045262, 0.016116425, -1249870.0, 72723.89, 0.0, 10.000557, 9.999783 
7.349886e+2, 1.7503965e+2, -1404132.5, -1335759.6, 6452.0903, 0.0936579, -0.13221921, -1335156.0, -110549.34, 0.0, 9.99883, 9.999782 
7.349916e+2, 1.8503986e+2, -1296192.4, -1184435.0, 82984.47, 0.10439857, -0.10354748, -1140269.4, -13665.024, 0.0, 9.998695, 10.0002 
7.34995e+2, 1.950413e+2, -988993.94, -987191.25, 109742.05, 0.032869924, -0.011934866, -878346.9, 150243.4, 0.0, 10.000145, 10.000182 
7.3499805e+2, 2.0504151e+2, -871076.3, -949926.0, 42103.797, 0.008667141, 0.028688068, -852820.56, 77767.016, 0.0, 10.000586, 9.999563 
7.350008e+2, 2.1504018e+2, -866403.6, -894538.75, 57542.08, 0.025736623, -0.095433556, -821234.5, 11364.894, 0.0, 9.99993, 9.99958 
7.350033e+2, 2.2503933e+2, -790533.5, -790322.44, 36202.094, 0.027556548, -0.13935034, -754225.75, -19620.418, 0.0, 9.9997, 9.999739 
7.350055e+2, 2.3503867e+2, -676737.3, -685575.4, 48270.46, 0.005336581, -0.2127154, -632684.0, 3924.562, 0.0, 9.99982, 9.999726 
7.3500687e+2, 2.4503864e+2, -621505.44, -687980.25, -31538.19, -0.04588523, -0.14460099, -608923.8, -70314.516, 0.0, 9.999864, 9.999007 
7.350074e+2, 2.5503892e+2, -551733.94, -607562.44, -61143.406, -0.13278994, -0.05287792, -512434.2, -71823.07, 0.0, 9.999682, 9.998978 
7.3500955e+2, 2.6503846e+2, -430969.47, -405044.44, -47965.617, -0.102747574, -0.033504654, -368320.7, -25704.56, 0.0, 9.999449, 9.999803 
7.3501337e+2, 2.750368e+2, -390104.4, -341903.53, -285.15277, 0.059181694, -0.21094166, -341901.84, -97273.234, 0.000000051096855, 9.999069, 9.999755 
7.3501664e+2, 2.8503686e+2, -333127.06, -330540.53, 20534.877, 0.10919433, -0.1454912, -311258.25, -164630.4, 0.0000058850314, 9.999091, 9.999139 
7.35019e+2, 2.950382e+2, -220979.38, -239435.84, 5993.6025, 0.013907085, 0.034035023, -219203.81, -170586.19, 0.000044056193, 9.999229, 9.999026 
7.3501927e+2, 3.0503595e+2, -119545.87, -137778.14, -110708.57, -0.1594629, -0.097917825, -17578.742, -17578.742, 0.00015023243, 9.9995, 9.999268 
7.35023e+2, 3.15036e+2, -72190.77, -17959.629, -5647.0566, 0.112774424, -0.06071505, -17377.846, -17377.846, 0.0003329124, 9.999316, 10.00018 
7.4497837e+2, 1.2503861e+2, -1771841.3, -1783649.1, 58512.727, 0.008636362, -0.040422536, -1718935.4, -4315.2363, 0.0, 9.999713, 9.999639 
7.449789e+2, 1.3503937e+2, -1486274.1, -1566800.5, -46688.35, 0.14440198, 0.00855767, -1464885.6, 151727.56, 0.0, 10.000943, 9.999866 
7.4498105e+2, 1.4503902e+2, -1355548.6, -1429000.3, 168916.22, 0.194657, -0.012438929, -1219411.9, 299204.25, 0.0, 10.001029, 10.000085 
7.4498457e+2, 1.5503995e+2, -1376737.4, -1388765.8, 117272.945, 0.10653881, 0.025377862, -1265324.5, 155281.2, 0.0, 10.000225, 10.000072 
7.4498695e+2, 1.6503984e+2, -1328875.8, -1361356.9, 5157.624, 0.079183556, 0.03301962, -1328076.5, -5470.5005, 0.0, 10.000065, 9.999685 
7.449889e+2, 1.7503832e+2, -1156333.6, -1222313.4, -5498.364, 0.16497466, -0.12288868, -1155878.6, 68741.91, 0.0, 10.000557, 9.999724 
7.449916e+2, 1.8503854e+2, -1053594.3, -1082358.6, 127581.34, 0.15729392, -0.08630787, -939587.0, 187031.42, 0.0, 10.000412, 10.000082 
7.449949e+2, 1.9504008e+2, -1077948.3, -1047978.44, 90131.94, 0.042340424, 0.026082737, -971594.2, 57009.73, 0.0, 9.999594, 10.000039 
7.449981e+2, 2.0504034e+2, -1045221.06, -1037970.9, 18410.762, 0.022693584, 0.08004551, -1022831.7, -92230.195, 0.0, 9.9994, 9.999517 
7.4500126e+2, 2.1503903e+2, -885377.0, -913032.4, -1575.5173, 0.09603964, -0.034748774, -885287.56, -52673.5, 0.0, 9.999829, 9.9995 
7.450036e+2, 2.2503819e+2, -758080.75, -769175.0, 13051.151, 0.08608919, -0.07690602, -749446.8, -14826.73, 0.0, 9.999907, 9.999775 
7.4500495e+2, 2.3503748e+2, -703199.2, -699584.9, 3557.7864, -0.013838074, -0.1603398, -697401.56, -60778.484, 0.0, 9.999622, 9.999729 
7.4500644e+2, 2.4503712e+2, -661462.8, -735873.94, 7005.0303, -0.058407225, -0.1122229, -660809.1, -122182.445, 0.0, 9.99971, 9.99876 
7.450081e+2, 2.5503686e+2, -472347.34, -593669.0, 14621.971, -0.046101782, -0.04862427, -470609.94, -29976.318, 0.0, 10.000329, 9.998764 
7.450102e+2, 2.6503617e+2, -292327.94, -334816.22, 40775.617, -0.015772095, -0.04237654, -267594.22, 75045.91, 0.0, 10.000393, 9.99983 
7.4501276e+2, 2.750347e+2, -265069.94, -269286.3, -1576.4094, 0.055008385, -0.20804186, -264545.72, -19896.264, 0.00000017449423, 9.999905, 9.99984 
7.45016e+2, 2.8503463e+2, -270753.25, -324986.88, 63008.26, 0.10887838, -0.14632778, -229274.4, -82625.09, 0.0000070145306, 9.999631, 9.998919 
7.450196e+2, 2.9503557e+2, -175433.84, -234567.58, 56738.98, 0.13455275, 0.013520723, -141020.16, -92376.73, 0.00004543542, 9.999618, 9.998875 
7.450197e+2, 3.050336e+2, -52492.984, -106675.984, -8507.262, -0.0859022, -0.080871284, -51188.66, -51188.66, 0.00014809403, 9.999959, 9.999258 
7.450229e+2, 3.1503245e+2, 13132.401, -37214.16, -22383.115, 0.14332871, -0.16465169, 21644.398, 21644.398, 0.00032280377, 10.000172, 9.999621 
7.549807e+2, 1.2503774e+2, -1748922.3, -1723879.9, 49094.03, 0.19448037, -0.051854905, -1685735.5, 28890.781, 0.0, 9.999663, 10.0000725 
7.54979e+2, 1.3503805e+2, -1438912.6, -1475585.4, 12540.991, 0.03140952, -0.11105765, -1435034.1, 181585.25, 0.0, 10.000963, 10.000488 
7.549798e+2, 1.4503784e+2, -1412892.4, -1539088.9, 118326.734, -0.082501374, -0.11135345, -1341891.4, 176730.13, 0.0, 10.000999, 9.999342 
7.5498474e+2, 1.5503815e+2, -1436065.4, -1498975.4, 100779.02, 0.069239214, -0.058272827, -1361946.6, 58675.83, 0.0, 10.0001745, 9.999342 
7.549878e+2, 1.650384e+2, -1322353.3, -1336030.4, 5425.5737, 0.12246744, 0.011036256, -1320462.4, 2159.3948, 0.0, 10.0000105, 9.9998865 
7.5498927e+2, 1.7503846e+2, -1152148.1, -1203080.6, 27938.633, 0.1103061, -0.004199417, -1139811.0, 84810.164, 0.0, 10.000512, 9.999879 
7.549916e+2, 1.8503836e+2, -1103629.5, -1166591.9, 79258.46, 0.08436239, 0.021976946, -1049829.0, 76792.98, 0.0, 10.000327, 9.999547 
7.549947e+2, 1.9503768e+2, -1133256.1, -1130144.9, 74808.23, 0.030519122, -0.03181431, -1056876.1, -28247.28, 0.0, 9.999457, 9.999541 
7.549978e+2, 2.0503758e+2, -1079333.9, -1070175.5, 19804.547, 0.021548353, 0.018111078, -1054427.6, -123796.37, 0.0, 9.999229, 9.999385 
7.5500095e+2, 2.150378e+2, -925901.94, -942884.6, 28949.709, 0.05406751, 0.068671875, -904224.0, -71592.2, 0.0, 9.999608, 9.9994 
7.5500315e+2, 2.2503774e+2, -771126.94, -755182.06, -11092.62, 0.027524292, 0.09946564, -749494.1, -14862.595, 0.0, 9.999725, 9.999962 
7.550043e+2, 2.3503703e+2, -721829.25, -687320.1, 9451.602, -0.06600791, 0.002411512, -684901.0, -48266.945, 0.0, 9.999408, 9.999917 
7.550065e+2, 2.4503644e+2, -636291.5, -652222.7, 15858.574, -0.056069463, -0.017159134, -626510.4, -87872.97, 0.0, 9.999572, 9.999399 
7.550098e+2, 2.5503552e+2, -446293.63, -511917.94, 52860.004, 0.052868772, -0.08565045, -416889.9, 23756.0, 0.0, 10.000209, 9.999383 
7.550115e+2, 2.650348e+2, -348352.5, -437819.66, 7812.2124, 0.04471202, -0.07590977, -347675.47, -5023.8735, 0.0, 10.000336, 9.99915 
7.5501174e+2, 2.7503404e+2, -332398.88, -381388.75, -2087.0044, -0.07414824, -0.10226797, -332310.13, -87652.56, 0.0000002213921, 9.999782, 9.99913 
7.5501484e+2, 2.8503338e+2, -257473.69, -282851.72, 49621.92, -0.00050135405, -0.07826762, -218944.08, -72281.81, 0.000006961638, 9.999563, 9.999243 
7.550206e+2, 2.950325e+2, -159968.64, -187862.9, 80495.53, 0.23266834, -0.13325289, -92220.9, -43551.35, 0.00004401986, 9.999544, 9.999237 
7.550209e+2, 3.0503157e+2, -88018.54, -159891.78, -6499.7285, 0.018786889, -0.12865543, -87435.484, -87435.484, 0.0001416952, 9.99989, 9.998912 
7.5502247e+2, 3.150302e+2, -30947.166, -96660.35, -13336.095, -0.00087310816, -0.20031893, -28343.822, -28343.822, 0.0003069929, 10.000049, 9.999264 
7.6498103e+2, 1.2503685e+2, -1768955.4, -1734833.1, 87856.1, 0.283022, -0.047805194, -1662396.9, 52236.62, 0.00000000032551553, 9.99947, 10.000106 
7.6498014e+2, 1.3503684e+2, -1512681.4, -1505438.8, -30320.197, 0.089633964, -0.14912023, -1478524.4, 138105.31, 0.0, 10.00041, 10.00055 
7.6498055e+2, 1.4503685e+2, -1493955.6, -1605039.0, 62384.438, -0.07564655, -0.119990654, -1465970.6, 52659.074, 0.0, 10.000528, 9.999133 
7.6498544e+2, 1.5503675e+2, -1424419.5, -1516966.4, 56778.117, 0.119734354, -0.09007672, -1397446.9, 23188.473, 0.0, 10.000327, 9.999162 
7.649881e+2, 1.6503702e+2, -1273797.9, -1317342.8, 45571.25, 0.1485166, -0.007719855, -1245065.1, 77570.01, 0.0, 10.000378, 9.999829 
7.649891e+2, 1.7503746e+2, -1136370.1, -1202800.4, 18249.951, 0.04152371, 0.021340333, -1131686.6, 92944.68, 0.0, 10.000658, 9.999806 
7.6499146e+2, 1.8503721e+2, -1028256.25, -1150795.3, 79071.73, 0.013788651, 0.044038855, -989494.25, 137139.6, 0.0, 10.000942, 9.9993515 
7.649951e+2, 1.9503585e+2, -891431.4, -1037976.9, 67739.31, 0.049096305, -0.059466824, -864916.8, 163730.27, 0.0, 10.001217, 9.999328 
7.649983e+2, 2.0503561e+2, -832853.94, -945497.6, 63983.816, 0.07302113, -0.015741222, -803934.5, 126716.234, 0.0, 10.00091, 9.99943 
7.65001e+2, 2.1503611e+2, -859409.56, -911301.4, 58436.21, 0.081331715, 0.05876113, -821418.1, 11230.458, 0.0, 10.000053, 9.99941 
7.65003e+2, 2.2503625e+2, -796868.25, -776728.94, 42381.07, 0.058616146, 0.11438822, -743237.7, -8590.762, 0.0, 9.9995985, 9.999875 
7.6500434e+2, 2.3503578e+2, -703553.0, -683794.9, 10442.387, -0.0011532218, 0.048707046, -679298.94, -42650.68, 0.0, 9.99957, 9.999854 
7.650067e+2, 2.4503513e+2, -614305.56, -611267.75, 41528.71, 0.015140964, 0.0127384355, -571230.2, -32578.508, 0.0, 9.999591, 9.999673 
7.650101e+2, 2.5503397e+2, -517863.9, -516140.5, 25097.498, 0.10648464, -0.10343445, -491889.9, -51229.84, 0.0, 9.999587, 9.999654 
7.650117e+2, 2.650334e+2, -447613.9, -499084.88, -1388.0155, 0.072061375, -0.08897269, -447576.5, -104912.07, 0.0, 9.999716, 9.999029 
7.650115e+2, 2.7503306e+2, -314866.3, -386529.78, -3997.4324, -0.072467454, -0.05894451, -314644.03, -69976.32, 0.00000016204108, 9.999962, 9.999013 
7.650146e+2, 2.850322e+2, -207919.56, -240921.63, 93651.84, 0.014423403, -0.057583757, -129326.15, 17347.744, 0.000006290961, 9.999826, 9.999397 
7.650207e+2, 2.9503062e+2, -194087.58, -176559.45, 79216.96, 0.31609362, -0.20222032, -105623.23, -56937.89, 0.000041719115, 9.999222, 9.999447 
7.650218e+2, 3.0502984e+2, -141697.27, -249557.67, 51212.367, 0.1306712, -0.16379088, -121255.6, -121255.6, 0.00013461517, 9.999778, 9.998364 
7.6502347e+2, 3.1502837e+2, 81793.63, -49212.707, -55519.785, 0.07282355, -0.18409881, 102157.29, 102157.29, 0.00029005748, 10.000831, 9.999232 
7.749783e+2, 1.2503599e+2, -1796942.6, -1779534.5, 26302.203, -0.020245906, -0.028697284, -1760533.6, -45891.867, 0.0000000023621072, 9.999423, 9.999824 
7.7498174e+2, 1.3503568e+2, -1552072.4, -1585061.3, 8893.67, 0.16589595, -0.09759046, -1549827.4, 66817.01, 0.0, 10.000405, 10.00001 
7.749828e+2, 1.45036e+2, -1455175.6, -1522611.4, 31913.182, 0.050569884, -0.04299888, -1442467.8, 76173.664, 0.0, 10.000516, 9.999705 
7.749861e+2, 1.5503584e+2, -1387943.3, -1440887.9, 67357.22, 0.1137539, -0.06782415, -1342043.1, 78600.37, 0.0, 10.000324, 9.999685 
7.749877e+2, 1.6503581e+2, -1303666.8, -1364773.8, 38790.445, 0.02835335, -0.026227217, -1284842.0, 37802.883, 0.0, 10.00032, 9.999532 
7.74988e+2, 1.7503546e+2, -1162670.9, -1243394.0, 46730.902, -0.17183125, -0.04696967, -1141284.4, 83365.664, 0.0, 10.000604, 9.999553 
7.7499074e+2, 1.8503521e+2, -1033727.6, -1141990.6, 75790.08, -0.18793797, -0.018356899, -994722.9, 131930.17, 0.0, 10.000844, 9.999469 
7.749958e+2, 1.9503474e+2, -902042.2, -1030690.25, 93627.63, -0.037649076, -0.042029012, -852771.7, 175885.4, 0.0, 10.001084, 9.999446 
7.7499914e+2, 2.050345e+2, -846110.4, -928094.75, 15723.73, 0.038741443, -0.015128289, -843198.1, 87461.016, 0.0, 10.000722, 9.999637 
7.75001e+2, 2.150341e+2, -876819.3, -895672.6, 39368.652, 0.048548523, -0.049017277, -845764.5, -13101.592, 0.0, 9.999841, 9.999615 
7.7500284e+2, 2.2503392e+2, -853334.94, -848947.7, 24767.86, 0.050693028, -0.016374014, -826276.5, -91612.2, 0.0, 9.999401, 9.999479 
7.7500457e+2, 2.3503357e+2, -756849.7, -753918.5, 23911.434, 0.039698284, -0.03084871, -731427.8, -94760.77, 0.0, 9.999391, 9.999464 
7.750066e+2, 2.4503314e+2, -641026.0, -627300.3, 26613.006, 0.019848885, -0.023344683, -606679.5, -68009.5, 0.0, 9.999428, 9.99964 
7.7500886e+2, 2.550324e+2, -544542.5, -530949.4, 41683.527, -0.013676836, -0.09642218, -495511.94, -54836.445, 0.0, 9.999419, 9.999631 
7.750105e+2, 2.6503205e+2, -434910.7, -450882.72, -5843.269, -0.050132222, -0.077289864, -433001.25, -90323.375, 0.0, 9.999622, 9.999408 
7.750116e+2, 2.750316e+2, -303027.72, -339109.84, 21858.148, -0.09017513, -0.09334964, -292726.97, -48045.06, 0.00000014054619, 9.999859, 9.9993925 
7.7501464e+2, 2.8503087e+2, -219713.34, -243001.03, 57397.145, 0.00603333, -0.09867145, -172790.89, -26104.717, 0.0000059856334, 9.999736, 9.999421 
7.750195e+2, 2.9502973e+2, -205657.64, -186600.73, 78510.67, 0.22779164, -0.20354041, -117042.42, -68349.625, 0.0000396548, 9.999156, 9.99941 
7.7502173e+2, 3.050284e+2, -196106.5, -343730.28, 84757.79, 0.1224738, -0.18357426, -157525.88, -157525.88, 0.00012692052, 9.999711, 9.997749 
7.7502525e+2, 3.1502697e+2, 68144.195, -44999.63, 13105.01, 0.0932328, -0.13589025, 69642.266, 69642.266, 0.00027215088, 10.00069, 9.999335 
7.849779e+2, 1.2503456e+2, -1788818.0, -1782556.6, 59094.71, 0.01034664, -0.045843337, -1726509.8, -11853.579, 0.0000000040597263, 9.999555, 9.999717 
7.849825e+2, 1.3503452e+2, -1577193.8, -1634078.4, 26277.043, 0.21622653, -0.051627416, -1566913.4, 49745.586, 0.0, 10.000428, 9.999641 
7.849837e+2, 1.4503492e+2, -1434546.1, -1483741.6, 37743.832, 0.10424316, 0.017296346, -1414092.3, 104562.98, 0.0, 10.000543, 9.999953 
7.8498644e+2, 1.550345e+2, -1401563.8, -1421228.0, 13686.607, 0.14018902, -0.056763, -1394543.8, 26113.78, 0.0, 10.000131, 9.999908 
7.849879e+2, 1.6503432e+2, -1350224.0, -1382396.6, 39742.016, 0.048494387, -0.043708865, -1323436.1, -776.8786, 0.0, 9.999975, 9.999572 
7.849884e+2, 1.75034e+2, -1255924.6, -1283693.5, 35834.566, -0.14589912, -0.06658324, -1231378.8, -6714.6587, 0.0, 9.999948, 9.999585 
7.849912e+2, 1.8503392e+2, -1159266.8, -1181615.8, 106461.37, -0.16423865, -0.031048309, -1063395.0, 63269.883, 0.0, 9.999902, 9.999644 
7.849962e+2, 1.9503376e+2, -1093351.8, -1100005.0, 98720.805, -0.022858214, -0.042325273, -997901.5, 30763.615, 0.0, 9.999694, 9.999627 
7.849994e+2, 2.0503339e+2, -978303.1, -1012360.3, 34116.47, 0.047063194, -0.028997818, -957201.6, -26533.852, 0.0, 9.9998865, 9.99947 
7.8500104e+2, 2.1503246e+2, -817431.25, -884633.75, 1061.8186, 0.05467802, -0.099618524, -817414.44, 15261.61, 0.0, 10.0003195, 9.999464 
7.850029e+2, 2.2503193e+2, -710418.9, -795771.0, 17005.17, 0.07182599, -0.086802326, -707155.6, 27525.053, 0.0, 10.000448, 9.999336 
7.850048e+2, 2.3503147e+2, -645617.56, -718195.9, 4508.8613, 0.09152018, -0.09778909, -645338.5, -8653.44, 0.0, 10.000231, 9.999306 
7.8500664e+2, 2.450311e+2, -556736.0, -594356.75, 46823.4, 0.057782948, -0.0702704, -525085.9, 13602.149, 0.0, 10.000048, 9.99956 
7.8500825e+2, 2.5503054e+2, -479957.53, -510518.66, 25344.03, -0.030547464, -0.11577497, -465643.9, -24951.344, 0.0, 9.999902, 9.999538 
7.8501016e+2, 2.6503035e+2, -380129.3, -414707.9, 6911.9766, -0.057164617, -0.07998763, -378798.88, -36104.91, 0.0, 9.999962, 9.99949 
7.8501225e+2, 2.750301e+2, -245025.03, -300664.72, -18348.42, -0.013957789, -0.08401868, -239519.1, 5177.2188, 0.0000001311964, 10.000218, 9.999477 
7.850152e+2, 2.850294e+2, -160525.77, -266047.7, 398.3631, 0.06654724, -0.06825224, -160524.27, -13822.698, 0.0000058891046, 10.00036, 9.998971 
7.8501886e+2, 2.9502827e+2, -79737.45, -181273.0, -49263.27, 0.19635323, -0.1260831, -59764.598, -11054.078, 0.000037489564, 10.00025, 9.998931 
7.8502196e+2, 3.050263e+2, -72939.25, -281120.44, 45827.344, 0.1490392, -0.14717773, -63297.71, -63297.71, 0.00011865352, 10.000522, 9.99779 
7.850269e+2, 3.15026e+2, 94630.74, -17529.934, -53990.99, 0.1956917, -0.0033925504, 116396.61, 116396.61, 0.00025448482, 10.000795, 9.999468 
7.949787e+2, 1.2503314e+2, -1770596.3, -1777882.1, 12451.415, 0.051419817, -0.0643145, -1761265.9, -46594.62, 0.0000000034592607, 9.999678, 9.9997 
7.94982e+2, 1.350334e+2, -1579069.3, -1659673.1, 68404.664, 0.08107943, -0.018768065, -1539976.9, 76695.87, 0.0, 10.000506, 9.9994335 
7.94983e+2, 1.4503366e+2, -1450129.0, -1505983.3, -867.44775, -0.06639676, 0.05405795, -1450115.5, 68555.445, 0.0, 10.000509, 9.999812 
7.949861e+2, 1.5503268e+2, -1410113.4, -1434945.5, 16141.267, 0.055579603, -0.0685063, -1402165.3, 18512.496, 0.0, 10.00012, 9.999813 
7.949884e+2, 1.6503258e+2, -1328126.5, -1332441.3, 22423.953, 0.06354908, -0.06159706, -1307756.4, 14921.292, 0.0, 9.999948, 9.999934 
7.9499e+2, 1.7503308e+2, -1229336.6, -1231681.3, 50135.39, -0.022530628, -0.03692521, -1180359.9, 44313.16, 0.0, 9.9999485, 9.999947 
7.9499257e+2, 1.850333e+2, -1164722.3, -1163701.0, 83376.12, -0.05467231, 0.0020538669, -1080833.9, 45835.81, 0.0, 9.9997835, 9.99982 
7.9499596e+2, 1.9503284e+2, -1094087.6, -1075011.8, 105617.5, -0.051662568, -0.06319679, -978502.44, 50169.42, 0.0, 9.999585, 9.999846 
7.9499865e+2, 2.0503223e+2, -1035814.4, -1092037.4, 33963.855, -0.040955584, -0.061172254, -1019837.3, -89160.56, 0.0, 9.999717, 9.999003 
7.9500073e+2, 2.1503109e+2, -879366.94, -968466.6, 32316.396, -0.03249237, -0.107265085, -868880.06, -36191.617, 0.0, 10.000126, 9.998982 
7.9500276e+2, 2.2503029e+2, -736146.6, -799775.25, -3355.4485, -0.007903741, -0.10145903, -735970.1, -1274.4384, 0.0, 10.000235, 9.999412 
7.9500467e+2, 2.3502955e+2, -663883.0, -719026.44, 14203.909, 0.023603918, -0.1477828, -660439.4, -23737.926, 0.0, 10.000066, 9.999382 
7.9500633e+2, 2.4502903e+2, -590156.56, -626880.25, 26762.635, -0.006141008, -0.13056712, -576062.3, -37356.82, 0.0, 9.999892, 9.999411 
7.9500777e+2, 2.5502843e+2, -515594.38, -547962.1, 36259.832, -0.09617259, -0.1666118, -492070.66, -51358.742, 0.0, 9.999744, 9.999358 
7.9501003e+2, 2.650284e+2, -402562.47, -443660.2, 3729.2026, -0.092586644, -0.09676957, -402226.84, -59514.21, 0.0, 9.99988, 9.9993305 
7.950131e+2, 2.7502868e+2, -272041.78, -338149.53, 13285.386, 0.00926109, -0.029366558, -269471.78, -24761.123, 0.000000103459534, 10.000133, 9.999263 
7.950159e+2, 2.85028e+2, -233226.9, -404367.0, -16588.725, 0.062382035, 0.043623194, -231633.78, -84914.88, 0.0000054454867, 10.000305, 9.998047 
7.95018e+2, 2.9502615e+2, -159921.73, -323561.53, -29480.535, 0.044545036, 0.012236591, -154772.69, -106033.77, 0.00003447301, 10.000141, 9.998009 
7.950219e+2, 3.0502358e+2, -36557.79, -187245.95, 53895.76, 0.053420834, -0.06058742, -19265.574, -19265.574, 0.0001104858, 10.000443, 9.998469 
7.9502755e+2, 3.1502366e+2, 74184.39, -29719.346, 314.45975, 0.10083349, 0.05392799, 74185.34, 74185.34, 0.000240168, 10.000662, 9.999448 
8.0497897e+2, 1.250321e+2, -1748672.4, -1735323.3, 51473.56, 0.121765874, -0.052245192, -1690093.3, 24588.314, 0.0000000057252847, 9.999706, 9.999991 
8.049822e+2, 1.3503249e+2, -1660971.6, -1695154.0, 93706.06, 0.08818738, 0.003429074, -1582810.9, 33870.473, 0.0, 9.999916, 9.999496 
8.049835e+2, 1.4503251e+2, -1526229.8, -1541864.8, 59761.96, -0.02823322, 0.053582653, -1473776.1, 44905.594, 0.0, 9.999992, 9.999813 
8.049865e+2, 1.5503158e+2, -1393560.1, -1434103.6, 40930.098, 0.07576779, -0.06357442, -1368156.8, 52532.516, 0.0, 10.000259, 9.99976 
8.0498874e+2, 1.6503151e+2, -1286023.9, -1300101.9, 69477.766, 0.10214522, -0.053550117, -1223229.5, 99459.17, 0.0, 10.000203, 10.000034 
8.049907e+2, 1.7503214e+2, -1235772.6, -1229021.0, 41981.863, 0.072477184, -0.020304056, -1190279.4, 34402.445, 0.0, 9.99989, 10.000001 
8.0499333e+2, 1.8503216e+2, -1145045.3, -1166904.8, 89484.82, 0.049416408, 0.0038547248, -1065825.1, 60854.89, 0.0, 9.999986, 9.999698 
8.0499655e+2, 1.9503123e+2, -991807.0, -1046651.8, 51372.973, 0.016468953, -0.09018246, -960995.6, 67691.16, 0.0, 10.000381, 9.999666 
8.0499893e+2, 2.0503056e+2, -924922.06, -1034295.9, 10171.277, -0.010604612, -0.08578992, -923984.2, 6708.326, 0.0, 10.00046, 9.999046 
8.050008e+2, 2.1502979e+2, -880061.06, -963777.44, 12803.182, -0.032523464, -0.097532116, -878146.8, -45445.887, 0.0, 10.000106, 9.9990225 
8.0500275e+2, 2.2502908e+2, -787859.25, -836311.44, 12220.056, -0.007266204, -0.07858461, -784951.7, -50244.16, 0.0, 9.999935, 9.999297 
8.050049e+2, 2.3502818e+2, -701370.75, -747581.44, -14280.5625, 0.055221207, -0.13034382, -697313.8, -60598.61, 0.0, 9.999869, 9.9992695 
8.050065e+2, 2.4502754e+2, -603432.1, -657838.9, 22337.385, 0.033914495, -0.11307899, -595436.3, -56715.406, 0.0, 9.999884, 9.999213 
8.0500793e+2, 2.5502676e+2, -502248.13, -561826.7, -1181.2651, -0.057068307, -0.14523256, -502224.72, -61496.03, 0.0, 9.999914, 9.999189 
8.0501026e+2, 2.6502633e+2, -401933.8, -482967.4, 1010.8542, -0.05735704, -0.090454824, -401921.22, -59188.246, 0.0, 10.000037, 9.998998 
8.0501354e+2, 2.750259e+2, -275362.0, -373433.44, -29019.117, 0.043948043, -0.06631723, -267418.7, -22681.305, 0.00000004701224, 10.000231, 9.998984 
8.0501616e+2, 2.8502503e+2, -207051.47, -395777.16, 2484.448, 0.06693906, 0.001633411, -207018.77, -60271.113, 0.000004093495, 10.000499, 9.9980135 
8.0501807e+2, 2.9502344e+2, -42150.883, -265832.47, 20525.262, 0.007171865, -0.0039954595, -40283.063, 8483.32, 0.000029631305, 10.000951, 9.9980135 
8.0502254e+2, 3.0502155e+2, 48141.195, -103935.97, 141887.84, 0.07001969, -0.02693802, 133080.95, 133080.95, 0.00010221737, 10.00084, 9.998866 
8.050283e+2, 3.1502175e+2, -66694.75, -100731.4, 24333.88, 0.17541131, 0.06509613, -54018.613, -54018.613, 0.00023173698, 9.999718, 9.999423 
8.1497735e+2, 1.2503181e+2, -1703206.3, -1664939.3, -1009.0818, -0.08333569, 0.02089385, -1664912.8, 49770.832, 0.000000004999778, 9.9998, 10.000432 
8.1498235e+2, 1.3503194e+2, -1628774.4, -1639975.3, 112079.63, 0.0780235, 0.015106947, -1522155.4, 94527.484, 0.0, 9.999972, 9.999844 
8.1498474e+2, 1.4503174e+2, -1521869.5, -1541886.5, 48959.49, 0.05160598, 0.024286488, -1481906.0, 36779.457, 0.0, 10.000024, 9.999804 
8.149869e+2, 1.5503126e+2, -1389703.5, -1427445.4, 66258.445, 0.05231343, -0.043111637, -1339681.1, 81009.61, 0.0, 10.000263, 9.9998045 
8.1498855e+2, 1.650312e+2, -1315048.3, -1347923.6, 40182.73, 0.02354211, -0.021280307, -1288071.1, 34620.027, 0.0, 10.000152, 9.999728 
8.1499016e+2, 1.7503117e+2, -1259834.4, -1268147.8, 46454.984, -0.0060096644, -0.027921941, -1217350.5, 7339.76, 0.0, 9.99985, 9.999745 
8.149932e+2, 1.8503056e+2, -1195134.5, -1254880.9, 90499.79, 0.0067752437, -0.02873472, -1129705.0, -3009.7913, 0.0, 9.999906, 9.999139 
8.1499743e+2, 1.95029e+2, -1045232.8, -1136693.0, 83440.875, 0.034844566, -0.12860496, -995812.4, 32896.793, 0.0, 10.000281, 9.999098 
8.149999e+2, 2.0502847e+2, -922517.56, -985804.5, -19495.48, 0.009047114, -0.10265486, -916994.06, 13719.918, 0.0, 10.000273, 9.99947 
8.150007e+2, 2.1502861e+2, -876024.44, -909558.5, 15413.587, -0.07596098, -0.068954244, -870016.25, -37303.324, 0.0, 9.9999075, 9.999489 
8.1500244e+2, 2.2502837e+2, -839886.3, -892411.3, -7249.9697, -0.06103103, -0.014520401, -838904.0, -104188.07, 0.0, 9.999716, 9.999018 
8.150049e+2, 2.3502733e+2, -752679.56, -803229.7, -1619.1508, 0.04061113, -0.05089623, -752627.75, -115900.95, 0.0, 9.999652, 9.998991 
8.1500685e+2, 2.4502651e+2, -647322.25, -705093.6, 7719.428, 0.045902334, -0.024723804, -646308.56, -107573.73, 0.0, 9.999697, 9.998981 
8.150083e+2, 2.5502563e+2, -542750.4, -610325.56, 15536.838, -0.042280376, -0.044768337, -539349.3, -98606.445, 0.0, 9.999759, 9.998934 
8.1501037e+2, 2.6502416e+2, -444672.4, -542957.8, -6048.571, -0.074133255, -0.060953736, -444301.6, -101546.25, 0.0, 9.999925, 9.998635 
8.1501305e+2, 2.7502176e+2, -332340.84, -443289.72, -2182.5017, -0.05779674, -0.19462533, -332297.9, -87521.67, 0.000000004527389, 10.000036, 9.998594 
8.1501573e+2, 2.8502047e+2, -158571.19, -279863.3, 5290.2837, -0.061847948, -0.19132389, -158340.89, -11552.875, 0.0000024308686, 10.000424, 9.998849 
8.1501853e+2, 2.950201e+2, -8563.049, -167347.95, 61595.656, -0.08478557, -0.15213504, 12529.254, 61321.566, 0.00002455122, 10.000827, 9.998752 
8.1502354e+2, 3.0502006e+2, 54787.566, -83060.14, 90230.67, 0.054758836, -0.03762503, 99406.98, 99406.98, 0.00009685274, 10.000818, 9.999013 
8.150279e+2, 3.150198e+2, -94755.71, -106361.54, 55152.9, 0.08695181, -0.006896852, -45101.285, -45101.285, 0.00023260372, 9.999512, 9.99948 
8.2497716e+2, 1.2502916e+2, -1659553.3, -1625270.0, -63202.38, -0.07633732, -0.021794593, -1576925.9, 137783.39, 0.0000000017683296, 10.000015, 10.000596 
8.249824e+2, 1.3502935e+2, -1665842.3, -1650494.6, -19364.482, 0.120272696, -0.03617086, -1637338.9, -20631.994, 0.0, 9.999673, 9.999921 
8.249854e+2, 1.4502928e+2, -1600302.9, -1546584.8, -27484.879, 0.156771, -0.031828105, -1535014.4, -16306.241, 0.0, 9.999347, 10.000093 
8.249867e+2, 1.5502992e+2, -1506929.4, -1453783.3, -28364.836, 0.06604576, -0.014880765, -1441488.8, -20785.205, 0.0, 9.999338, 10.00006 
8.249884e+2, 1.6503008e+2, -1372332.9, -1398584.3, -2044.7328, 0.023742665, 0.024703676, -1372174.5, -49472.074, 0.0, 9.999837, 9.999536 
8.2499105e+2, 1.750294e+2, -1150306.3, -1244288.0, -23169.71, 0.05733223, -0.027604528, -1144904.5, 79803.36, 0.0, 10.000699, 9.99951 
8.2499427e+2, 1.8502855e+2, -1072224.3, -1211381.4, 55388.367, 0.08590149, -0.03368911, -1052870.0, 73845.555, 0.0, 10.000811, 9.999001 
8.24998e+2, 1.9502711e+2, -1075333.8, -1169249.0, 46316.727, 0.08477492, -0.10651475, -1056334.9, -27605.953, 0.0, 10.000146, 9.998938 
8.250002e+2, 2.0502658e+2, -984499.94, -1005872.1, -24218.977, 0.051335335, -0.07736811, -968714.4, -37980.28, 0.0, 9.999807, 9.999543 
8.250012e+2, 2.1502669e+2, -895389.6, -914358.2, -52262.688, -0.008936313, -0.05376421, -851757.6, -19024.219, 0.0, 9.999753, 9.99953 
8.2500273e+2, 2.2502655e+2, -789889.2, -861903.25, -26818.81, -0.0033622626, 0.0061962055, -780999.06, -46263.76, 0.0, 10.000011, 9.999101 
8.250051e+2, 2.3502576e+2, -616606.25, -731445.56, -26198.984, 0.06670667, -0.012302893, -610911.7, 25832.203, 0.0, 10.000541, 9.999069 
8.2500726e+2, 2.4502493e+2, -523517.34, -656020.3, 18529.465, 0.08390419, 0.0137378145, -520974.94, 17776.717, 0.0, 10.000599, 9.998879 
8.250091e+2, 2.5502378e+2, -480054.97, -587772.8, 3846.1704, 0.047834296, -0.022211494, -479917.8, -39156.336, 0.0, 10.000237, 9.998852 
8.250113e+2, 2.650221e+2, -392936.38, -514853.97, 48012.094, 0.016391514, -0.059738543, -376299.2, -33524.227, 0.0, 10.00027, 9.998657 
8.250139e+2, 2.7501944e+2, -241476.45, -393112.8, 48372.1, -0.0019239461, -0.2250483, -227359.9, 17436.738, 0.0, 10.00064, 9.998639 
8.2501644e+2, 2.8501785e+2, -147157.58, -297382.5, 58764.707, -0.03579278, -0.23998362, -126901.42, 19909.06, 0.000001518397, 10.000609, 9.99864 
8.250191e+2, 2.9501712e+2, -121789.6, -242934.6, 1534.5758, -0.065323666, -0.22150269, -121770.164, -72950.8, 0.000022026383, 10.000127, 9.998571 
8.250241e+2, 3.050173e+2, -88094.6, -126008.1, 13041.387, 0.09360961, -0.08307184, -84041.87, -84041.87, 0.00009707927, 9.999735, 9.999231 
8.2502747e+2, 3.1501627e+2, -81411.41, -32885.27, -48949.676, 0.12069354, -0.15957697, -2515.3147, -2515.3147, 0.00024343749, 9.999297, 10.00008 
8.349771e+2, 1.2502468e+2, -1675703.4, -1650373.3, -117953.5, -0.15881169, -0.13524483, -1544406.8, 170347.2, 0.000000000051048894, 9.999986, 10.000438 
8.3498204e+2, 1.3502485e+2, -1656935.4, -1638776.8, -17747.734, 0.07483326, -0.14830571, -1627920.8, -11168.748, 0.0, 9.999709, 9.99998 
8.349849e+2, 1.4502522e+2, -1573652.8, -1489630.0, -48367.59, 0.12688972, -0.12124528, -1467576.0, 51172.883, 0.0, 9.999339, 10.000487 
8.349854e+2, 1.5502755e+2, -1475686.9, -1388262.3, -13302.409, -0.043163348, 0.017273769, -1386283.0, 34444.633, 0.0, 9.999334, 10.000507 
8.3498794e+2, 1.6502815e+2, -1390006.9, -1415533.9, 13183.686, -0.042339325, 0.082462065, -1384420.6, -61698.168, 0.0, 9.999754, 9.999462 
8.349929e+2, 1.7502697e+2, -1161127.1, -1254229.1, 26545.143, 0.13523963, -0.012052425, -1154090.5, 70643.086, 0.0, 10.000654, 9.999459 
8.349962e+2, 1.8502624e+2, -1068838.3, -1188177.3, 12771.092, 0.16264653, -0.009194581, -1067486.9, 59253.16, 0.0, 10.000736, 9.9992 
8.3499795e+2, 1.9502555e+2, -1076217.6, -1138367.0, 36403.3, 0.026011422, -0.03441408, -1059429.6, -30683.137, 0.0, 10.0000105, 9.999213 
8.349997e+2, 2.0502491e+2, -1034276.75, -1068635.0, -42197.305, -0.018599464, -0.012175306, -1005895.6, -75142.93, 0.0, 9.999625, 9.999203 
8.3500147e+2, 2.1502407e+2, -946012.2, -975563.2, -37973.445, 0.022804081, -0.052178774, -920040.94, -87279.12, 0.0, 9.999563, 9.999198 
8.350034e+2, 2.2502372e+2, -787136.94, -813759.6, -22986.21, 0.031544015, -0.018520346, -773885.94, -39120.89, 0.0, 9.999821, 9.999526 
8.350052e+2, 2.3502351e+2, -613390.94, -685645.2, 11124.217, -0.005105359, -0.020905208, -611717.0, 25048.762, 0.0, 10.0003605, 9.9994755 
8.3500737e+2, 2.4502286e+2, -544835.2, -663302.06, -10070.451, 0.006952212, 0.0011470921, -543985.25, -5214.7124, 0.0, 10.000437, 9.998907 
8.350098e+2, 2.5502133e+2, -500723.97, -599195.5, 8099.45, 0.067346685, -0.07521087, -500062.22, -59278.82, 0.0, 10.000094, 9.998843 
8.350125e+2, 2.6502016e+2, -378904.03, -460931.84, 48281.52, 0.085657425, -0.08058823, -356567.75, -13776.4795, 0.0, 10.00016, 9.999083 
8.350154e+2, 2.75019e+2, -231787.73, -343415.16, 82220.56, 0.055404127, -0.14124665, -188226.45, 56571.4, 0.0, 10.00051, 9.999045 
8.350177e+2, 2.8501728e+2, -239378.47, -469897.44, 25134.787, -0.0021598148, -0.1345335, -236669.7, -89855.05, 0.0000012583888, 10.000531, 9.997493 
8.350194e+2, 2.9501456e+2, -228649.14, -428529.9, 3066.109, -0.091976546, -0.1934774, -228602.11, -179756.14, 0.000022671806, 9.999971, 9.997376 
8.350236e+2, 3.0501336e+2, -70598.71, -73228.59, -8915.445, 0.03927803, -0.1522076, -62901.76, -62901.76, 0.0001036696, 9.999669, 9.999621 
8.350259e+2, 3.150132e+2, -36935.3, 104207.086, 15899.056, -0.046936743, -0.17918262, 105975.875, 105975.875, 0.00026239955, 9.99912, 10.001103 
8.449783e+2, 1.2502335e+2, -1679350.1, -1680371.0, 70177.94, -0.029930161, -0.12463378, -1609680.8, 105085.055, 0.0, 10.000066, 10.000195 
8.449814e+2, 1.350234e+2, -1671132.1, -1657967.3, 88711.414, 0.054687954, -0.14155567, -1575594.4, 41170.69, 0.0, 9.999665, 9.999869 
8.449842e+2, 1.4502335e+2, -1557231.6, -1527601.3, 90411.59, 0.11700448, -0.13389769, -1450799.0, 67967.195, 0.0, 9.999652, 10.000074 
8.449855e+2, 1.550249e+2, -1350118.8, -1380505.3, 24038.283, -0.0072496533, -0.0285747, -1336874.9, 83877.336, 0.0, 10.000421, 10.000045 
8.4498847e+2, 1.650252e+2, -1288372.1, -1365250.8, 44529.336, 0.008667167, 0.031501114, -1267985.9, 54763.64, 0.0, 10.000459, 9.999462 
8.4499323e+2, 1.7502415e+2, -1314382.5, -1331494.6, 27987.2, 0.16772757, -0.047279235, -1293672.8, -68913.22, 0.0, 9.999628, 9.999423 
8.449966e+2, 1.8502371e+2, -1225545.8, -1247442.1, 38553.996, 0.19606279, -0.02314665, -1196415.6, -69651.56, 0.0, 9.999599, 9.999332 
8.4499854e+2, 1.9502339e+2, -1024825.44, -1106061.3, 22336.686, 0.08297015, -0.019638984, -1019088.8, 9679.155, 0.0, 10.000326, 9.999286 
8.450002e+2, 2.0502287e+2, -907341.1, -1009738.75, -30494.885, 0.035993095, 0.010401121, -898947.5, 31825.87, 0.0, 10.000513, 9.999183 
8.450015e+2, 2.150218e+2, -881120.8, -951977.7, -38386.918, 0.055572372, -0.04451451, -864312.06, -31528.33, 0.0, 10.000042, 9.999135 
8.4500337e+2, 2.2502115e+2, -783721.7, -822945.06, 22401.018, 0.053661264, -0.031075971, -773560.5, -38770.99, 0.0, 9.999906, 9.999411 
8.450057e+2, 2.3502073e+2, -665707.8, -718260.25, -21265.664, 0.026588324, -0.04595882, -658180.7, -21388.06, 0.0, 10.000062, 9.99938 
8.450079e+2, 2.4502e+2, -573123.25, -673259.2, -48082.742, 0.03602532, -0.028820809, -553773.94, -14975.994, 0.0, 10.000225, 9.998943 
8.450102e+2, 2.5501853e+2, -463186.84, -571392.06, -61302.04, 0.08992216, -0.10380652, -435527.4, 5282.4883, 0.0, 10.000325, 9.998917 
8.4501296e+2, 2.650175e+2, -390186.13, -489005.34, -5886.4995, 0.115681075, -0.087934725, -389836.72, -47019.68, 0.0, 10.000168, 9.998886 
8.450161e+2, 2.7501667e+2, -350880.13, -424173.94, -50350.074, 0.119666636, -0.09654038, -325252.44, -80429.66, 0.0000000050987805, 9.999774, 9.998854 
8.450186e+2, 2.8501505e+2, -300886.13, -463551.47, -35802.59, 0.073684596, -0.084612325, -293354.72, -146516.5, 0.0000017149706, 9.999944, 9.997815 
8.450204e+2, 2.9501227e+2, -114880.82, -325522.7, 16961.89, -0.012114266, -0.18998542, -113523.71, -64656.086, 0.0000255943, 10.000555, 9.997788 
8.450238e+2, 3.0501065e+2, 48975.28, -48191.605, 54064.47, 0.061095323, -0.20123264, 73078.266, 73078.266, 0.000114914044, 10.00061, 9.999353 
8.450256e+2, 3.1501067e+2, 52036.99, 142523.19, 449.6717, -0.00972856, -0.17894548, 142525.42, 142525.42, 0.00028702893, 9.999706, 10.001101 
8.549797e+2, 1.2502506e+2, -1721433.4, -1756878.1, 25109.686, 0.025590306, -0.026814064, -1708421.8, 6324.2534, 0.0, 10.000036, 9.999679 
8.549799e+2, 1.350252e+2, -1692565.6, -1688995.6, 82480.195, -0.0997696, -0.011698329, -1608281.1, 8463.685, 0.0, 9.999638, 9.999653 
8.5498285e+2, 1.4502384e+2, -1645036.8, -1713614.1, 99639.016, -0.02761747, -0.060926907, -1573951.6, -55193.22, 0.0, 9.999653, 9.998809 
8.5498667e+2, 1.5502208e+2, -1432755.9, -1557017.9, 73471.8, 0.031640895, -0.15850699, -1398666.5, 22109.361, 0.0, 10.000442, 9.998824 
8.5498965e+2, 1.6502129e+2, -1300483.1, -1381481.4, -4849.3403, 0.045153603, -0.14123712, -1300193.9, 22589.604, 0.0, 10.00042, 9.999372 
8.549916e+2, 1.7502101e+2, -1321695.8, -1337205.1, 11016.568, 0.015344519, -0.13951649, -1315978.3, -91192.84, 0.0, 9.999591, 9.999397 
8.5499495e+2, 1.8502098e+2, -1238109.0, -1256250.0, 50661.168, 0.03965568, -0.07238696, -1195712.8, -68925.67, 0.0, 9.99951, 9.999324 
8.549994e+2, 1.9502087e+2, -1034500.56, -1109486.0, 64645.67, 0.1075032, -0.048195094, -997262.0, 31529.703, 0.0, 10.000243, 9.999305 
8.5500145e+2, 2.0502067e+2, -918724.5, -997229.94, -65224.703, 0.08345183, 0.0034787413, -881852.06, 48942.336, 0.0, 10.000356, 9.999349 
8.5500085e+2, 2.1501988e+2, -896288.6, -933405.56, -40303.254, -0.041823488, -0.040831555, -870476.25, -37676.83, 0.0, 9.99983, 9.999363 
8.550024e+2, 2.2501886e+2, -863819.0, -940615.5, 12105.983, -0.062043305, -0.04085262, -861955.9, -127147.03, 0.0, 9.999692, 9.99871 
8.550059e+2, 2.3501734e+2, -739788.0, -831717.6, 2432.1758, 0.019435257, -0.09568512, -739723.75, -102898.79, 0.0, 9.999883, 9.998691 
8.5500836e+2, 2.4501632e+2, -596270.94, -679842.5, -59764.5, 0.034953386, -0.07494241, -565133.2, -26299.127, 0.0, 10.000052, 9.998981 
8.550098e+2, 2.5501528e+2, -486287.63, -579141.94, -41843.68, -0.013904385, -0.11131137, -470213.78, -29372.672, 0.0, 10.000151, 9.998949 
8.550122e+2, 2.65014e+2, -462408.5, -610677.44, -37257.754, -0.0025925261, -0.085355364, -453572.72, -110719.51, 0.0, 10.000043, 9.998116 
8.550156e+2, 2.7501225e+2, -423796.84, -547713.7, -44540.156, 0.051282693, -0.10331368, -409448.84, -164576.17, 0.0000001292932, 9.999656, 9.998065 
8.550187e+2, 2.8501123e+2, -181687.28, -197326.27, -23868.422, 0.050633, -0.088063754, -164390.13, -17509.39, 0.0000031613251, 9.999862, 9.999681 
8.550214e+2, 2.9501018e+2, 623.0269, -65605.51, 60263.965, -0.008556318, -0.20608734, 36271.395, 85156.11, 0.000030116835, 10.000457, 9.999627 
8.5502416e+2, 3.0500895e+2, -26823.033, -170865.1, 11039.091, 0.012283741, -0.23313865, -25981.93, -25981.93, 0.00012742863, 10.00049, 9.998557 
8.5502577e+2, 3.1500885e+2, -69307.42, -62230.824, 32173.525, -0.04224579, -0.13384199, -33401.62, -33401.62, 0.00031382052, 9.999526, 9.999776 
8.6497945e+2, 1.2502337e+2, -1960914.3, -1903817.6, -86848.414, 0.0955134, -0.008746891, -1840945.8, -126182.984, 0.00000000000000000000885557, 9.998519, 9.999406 
8.6498046e+2, 1.3502355e+2, -1496898.5, -1629110.3, -91465.84, -0.06023367, 0.03302657, -1450150.5, 166611.16, 0.0, 10.001089, 9.999384 
8.649839e+2, 1.4502198e+2, -1386052.6, -1616546.5, -43783.848, 0.028523369, -0.011733945, -1378015.9, 140761.42, 0.0, 10.001553, 9.998557 
8.649874e+2, 1.5501952e+2, -1478207.6, -1620727.5, -35547.008, 0.07149371, -0.14948025, -1469833.6, -49032.4, 0.0, 10.000287, 9.998477 
8.6499006e+2, 1.650183e+2, -1345386.1, -1400412.5, -28673.363, 0.07182267, -0.1559143, -1333161.0, -10348.378, 0.0, 10.000102, 9.999387 
8.64992e+2, 1.7501803e+2, -1114537.5, -1242247.5, -43658.7, 0.031914454, -0.15444855, -1101039.1, 123775.516, 0.0, 10.001023, 9.999358 
8.649952e+2, 1.8501812e+2, -1062795.8, -1156264.5, 12241.848, 0.0608127, -0.080293156, -1061219.0, 65596.3, 0.0, 10.000673, 9.999436 
8.649994e+2, 1.9501834e+2, -1204855.8, -1180258.5, 4433.326, 0.14342117, -0.032393076, -1179483.9, -150666.83, 0.0, 9.999048, 9.999384 
8.650014e+2, 2.0501813e+2, -1091440.0, -1048964.5, -53912.367, 0.1221591, 0.003334907, -1012257.56, -81438.85, 0.0, 9.999042, 9.99962 
8.650012e+2, 2.150171e+2, -780762.75, -853532.7, -58537.434, -0.01219128, -0.09520302, -748223.9, 84600.46, 0.0, 10.000517, 9.999581 
8.650029e+2, 2.2501606e+2, -691240.6, -880236.94, 19779.102, -0.03897084, -0.09580467, -689192.9, 45640.6, 0.0, 10.000993, 9.998492 
8.6500627e+2, 2.3501478e+2, -668953.8, -822460.75, 11204.733, 0.042538095, -0.10172577, -668140.3, -31291.887, 0.0, 10.000487, 9.998459 
8.6500883e+2, 2.4501364e+2, -563229.56, -690719.25, 606.2623, 0.0661931, -0.07054427, -563226.7, -24366.88, 0.0, 10.000399, 9.998734 
8.6501056e+2, 2.5501218e+2, -412136.16, -571842.8, -34902.633, 0.032526396, -0.12272963, -404841.63, 36030.168, 0.0, 10.000787, 9.998694 
8.650129e+2, 2.650108e+2, -328703.78, -545333.0, 6443.6313, 0.022909893, -0.095460124, -328512.28, 14373.822, 0.0000000005766255, 10.000973, 9.998108 
8.650157e+2, 2.7500916e+2, -230052.69, -455337.1, 15941.788, 0.041990206, -0.10133801, -228930.19, 15975.566, 0.000000514823, 10.001001, 9.998044 
8.650188e+2, 2.850084e+2, -81193.93, -132703.1, 30982.188, 0.05347933, -0.064805835, -66659.625, 80252.06, 0.0000054394536, 10.000488, 9.999833 
8.650222e+2, 2.9500797e+2, -140867.33, -111684.414, -46439.297, 0.07856345, -0.1326648, -77598.17, -28688.926, 0.000035908153, 9.999401, 9.999824 
8.650246e+2, 3.0500665e+2, -160641.05, -248993.44, -78294.88, 0.06343792, -0.16960399, -114919.38, -114919.38, 0.00014009468, 9.99961, 9.998447 
8.650265e+2, 3.150062e+2, 57132.535, -22552.1, -58253.145, 0.04469079, -0.09816585, 87865.27, 87865.27, 0.00033844914, 10.000512, 9.999558 
8.7497663e+2, 1.2501861e+2, -1966962.0, -1914288.5, -22004.982, -0.11488185, -0.030337995, -1906305.5, -191493.16, 0.0000000055054987, 9.998509, 9.999336 
8.749829e+2, 1.3501853e+2, -1503227.3, -1629249.8, 17151.217, 0.0388783, -0.015133378, -1500934.8, 115880.1, 0.0, 10.001055, 9.999387 
8.74987e+2, 1.4501788e+2, -1351090.8, -1543988.0, -111901.35, 0.13880755, 0.010087899, -1299809.1, 219012.66, 0.0, 10.001544, 9.999062 
8.7498695e+2, 1.5501733e+2, -1439261.4, -1533920.3, -67573.086, -0.03298521, 0.004738783, -1404091.1, 16735.709, 0.0, 10.000272, 9.999073 
8.749892e+2, 1.6501658e+2, -1344414.9, -1394053.8, -10952.646, -0.056852486, 0.0063458844, -1342105.8, -19271.535, 0.0, 10.000069, 9.999453 
8.74994e+2, 1.7501546e+2, -1113880.3, -1235477.3, 5334.437, 0.08452889, -0.08041372, -1113646.8, 111198.13, 0.0, 10.000996, 9.999418 
8.7499684e+2, 1.8501537e+2, -1063869.0, -1139797.6, -64714.406, 0.12750679, -0.03360857, -1026805.06, 100041.29, 0.0, 10.000594, 9.999588 
8.749979e+2, 1.9501577e+2, -1209096.9, -1158199.5, -39638.348, 0.058678064, 0.016875235, -1136543.6, -107699.945, 0.0, 9.99892, 9.999594 
8.7499976e+2, 2.050153e+2, -1094375.3, -1017139.75, -13210.142, 0.02211004, -0.002188689, -1014942.8, -84096.8, 0.0, 9.998871, 9.999926 
8.7500226e+2, 2.1501364e+2, -785547.3, -821748.25, 10794.025, 0.008037052, -0.19261022, -782573.2, 50282.902, 0.0, 10.000333, 9.999889 
8.750044e+2, 2.25013e+2, -708228.7, -871125.3, -15859.5625, -0.0048885113, -0.17668468, -706699.0, 28161.76, 0.0, 10.000797, 9.9986515 
8.750062e+2, 2.3501304e+2, -689761.94, -812923.6, 9379.797, -0.030565983, -0.0696963, -689051.7, -52188.438, 0.0, 10.00026, 9.998633 
8.7500894e+2, 2.4501187e+2, -621752.44, -778606.3, -736.3904, 0.0037833115, -0.022337094, -621749.0, -82873.086, 0.0, 10.000242, 9.998211 
8.7501216e+2, 2.5500926e+2, -472137.7, -659759.0, -2378.6807, 0.08692803, -0.13813622, -472107.53, -31206.197, 0.0, 10.0006275, 9.998165 
8.7501454e+2, 2.650079e+2, -292922.66, -458723.53, -7587.483, 0.06306336, -0.11355649, -292576.16, 50338.973, 0.0000000691861, 10.000906, 9.99874 
8.75016e+2, 2.7500728e+2, -203053.94, -370007.34, 35212.63, -0.0630964, -0.08430443, -195931.03, 48991.133, 0.000001269736, 10.000871, 9.998694 
8.750186e+2, 2.850066e+2, -197197.7, -359156.9, -25406.316, -0.04592562, 0.005077988, -193305.78, -46376.02, 0.000008255043, 10.000419, 9.998318 
8.750222e+2, 2.950054e+2, -256056.16, -337254.25, -64441.49, 0.1005317, 0.012586069, -220490.98, -171548.16, 0.000042714033, 9.999333, 9.998314 
8.7502474e+2, 3.0500373e+2, -130413.99, -166722.77, -49208.17, 0.08470652, -0.016370395, -96118.16, -96118.16, 0.00015288098, 9.99953, 9.999046 
8.75027e+2, 3.150009e+2, 83490.734, 50494.473, 11590.548, -0.03899666, -0.24109283, 87155.17, 87155.17, 0.00035815634, 10.000419, 10.000111 
8.849773e+2, 1.2501405e+2, -1641400.9, -1735667.4, 87601.52, 0.013033928, -0.07368264, -1589057.6, 125799.34, 0.00000006865043, 10.000651, 9.999534 
8.849837e+2, 1.3501379e+2, -1686397.0, -1708666.3, 64381.21, 0.090025544, -0.08466136, -1632194.6, -15333.28, 0.0, 9.999748, 9.99948 
8.8498765e+2, 1.4501359e+2, -1637789.1, -1618495.4, -62821.816, 0.17298113, -0.047105838, -1564584.1, -45720.063, 0.0, 9.999336, 9.9995985 
8.8498753e+2, 1.5501387e+2, -1460467.8, -1485680.6, -58917.164, 0.028029762, -0.019248422, -1412823.5, 8037.1367, 0.0, 9.999894, 9.999572 
8.8498986e+2, 1.6501378e+2, -1349465.6, -1379404.4, 55505.58, 0.017989177, 0.017817432, -1306946.4, 15915.437, 0.0, 9.9999695, 9.9995985 
8.849947e+2, 1.7501327e+2, -1318033.3, -1319714.3, 45030.754, 0.14113402, -0.021374797, -1273835.3, -48967.316, 0.0, 9.999537, 9.999546 
8.849972e+2, 1.8501309e+2, -1176137.9, -1196463.0, -21195.39, 0.15324476, 0.011972903, -1162794.6, -35924.594, 0.0, 9.9998255, 9.999572 
8.849975e+2, 1.9501272e+2, -938522.6, -1033452.9, -43820.36, 0.041880593, -0.014091362, -921387.75, 107485.664, 0.0, 10.0007925, 9.999553 
8.849996e+2, 2.0501208e+2, -801758.2, -901030.4, 15018.245, 0.018409798, -0.03629706, -799535.94, 131341.66, 0.0, 10.000991, 9.999699 
8.8500327e+2, 2.1501091e+2, -787980.6, -851467.8, -29804.684, 0.08414995, -0.15208349, -776181.44, 56703.76, 0.0, 10.000438, 9.9996395 
8.8500583e+2, 2.250104e+2, -753005.94, -881796.1, -66094.61, 0.08573964, -0.116685554, -725123.06, 9766.505, 0.0, 10.000437, 9.998744 
8.850072e+2, 2.3501015e+2, -580343.5, -754762.4, -83498.61, 0.014375623, -0.04780926, -546815.6, 90078.64, 0.0, 10.000974, 9.998688 
8.850096e+2, 2.4500903e+2, -504787.6, -696070.4, -37028.176, 0.024584746, -0.010210621, -497869.94, 41035.9, 0.0, 10.000939, 9.998433 
8.850128e+2, 2.5500664e+2, -479784.1, -640380.0, -17238.275, 0.10566769, -0.12748873, -477954.56, -37026.45, 0.00000000006372724, 10.000455, 9.998382 
8.850153e+2, 2.6500547e+2, -377024.88, -500706.03, 22365.205, 0.086137824, -0.09486451, -373104.84, -30164.957, 0.00000025387644, 10.0003395, 9.998719 
8.850171e+2, 2.7500504e+2, -227120.33, -381383.16, -20685.316, -0.02269939, -0.04217515, -224394.77, 20550.416, 0.0000021793016, 10.000705, 9.9986925 
8.850194e+2, 2.8500414e+2, -182694.95, -376938.84, -55834.203, -0.0068965005, 0.03395394, -167789.55, -20833.723, 0.000011106664, 10.000643, 9.998068 
8.8502216e+2, 2.950023e+2, -146598.75, -313097.3, -36275.79, 0.13325006, 0.008120183, -139038.48, -90062.664, 0.000049522223, 10.000215, 9.998046 
8.850246e+2, 3.05001e+2, -26531.74, -121795.32, 86230.86, 0.093708456, 0.026401304, 24348.14, 24348.14, 0.00016467013, 10.000265, 9.999007 
8.850277e+2, 3.149994e+2, 79475.13, 64134.684, 26489.887, 0.011773082, -0.06254126, 99382.914, 99382.914, 0.00037312726, 10.000332, 10.000256 
8.9498055e+2, 1.2500966e+2, -1623220.1, -1683881.0, 14954.813, 0.19334894, -0.14323989, -1619733.8, 95163.305, 0.00000033567557, 10.000612, 9.999895 
8.9498234e+2, 1.350097e+2, -1668236.9, -1668095.0, 37179.51, -0.049133506, -0.14796817, -1630986.4, -14088.404, 0.00000000007521531, 9.999747, 9.999751 
8.949854e+2, 1.4500952e+2, -1606366.4, -1549489.1, -62024.62, -0.03751534, -0.14905663, -1509694.3, 9205.616, 0.0, 9.999319, 10.000082 
8.949887e+2, 1.5500936e+2, -1432349.5, -1421492.8, -17976.508, 0.11782986, -0.21171045, -1408142.9, 12757.344, 0.0, 9.999871, 10.000023 
8.949916e+2, 1.6501006e+2, -1344515.6, -1361803.5, 22291.055, 0.15075666, -0.119735956, -1329251.3, -6356.942, 0.0, 9.999937, 9.999733 
8.949939e+2, 1.7501149e+2, -1314871.5, -1296846.6, 45721.855, 0.07511866, 0.015387914, -1259257.5, -34373.62, 0.0, 9.999474, 9.99973 
8.949959e+2, 1.850114e+2, -1206233.3, -1236238.5, -491.45154, 0.009622387, 0.05636822, -1206225.1, -79339.44, 0.0, 9.99972, 9.999352 
8.9499766e+2, 1.9500938e+2, -978408.3, -1077528.5, 6587.7114, -0.05284011, -0.11171893, -977972.4, 50931.582, 0.0, 10.000629, 9.999326 
8.9500034e+2, 2.0500869e+2, -878272.25, -1024999.25, -21858.268, -0.026912102, -0.08875929, -875085.2, 55826.16, 0.0, 10.0008335, 9.998928 
8.95004e+2, 2.1500896e+2, -869977.8, -972185.4, -32194.39, 0.08215678, 0.015251238, -860682.3, -27771.14, 0.0, 10.000229, 9.998909 
8.9500684e+2, 2.250083e+2, -787200.44, -908505.44, -60211.652, 0.109200984, 0.07774142, -762388.5, -27469.172, 0.0, 10.000236, 9.998666 
8.9500874e+2, 2.3500639e+2, -613400.8, -774327.2, -48016.754, 0.038685028, -0.01587676, -600162.7, 36776.336, 0.0, 10.000762, 9.998655 
8.950105e+2, 2.4500526e+2, -458053.94, -565719.5, -72617.375, -0.00821553, -0.02646624, -421491.75, 117456.305, 0.0, 10.000791, 9.999405 
8.9501214e+2, 2.550045e+2, -441086.38, -514335.3, -19194.69, -0.040851828, -0.07896011, -436361.25, 4589.538, 0.0000000002378373, 10.0002575, 9.999348 
8.9501476e+2, 2.650037e+2, -438609.1, -602114.4, 22315.71, -0.031827476, -0.02019275, -435618.1, -92660.11, 0.00000030747992, 10.000227, 9.998077 
8.950186e+2, 2.7500257e+2, -296820.75, -493775.0, 14871.501, 0.01814319, 0.027880756, -295704.2, -50730.414, 0.0000026197797, 10.000572, 9.997984 
8.950207e+2, 2.8500092e+2, -124367.11, -247483.47, -87726.266, 0.025912715, 0.020481147, -78755.76, 68234.72, 0.000013171274, 10.000593, 9.998985 
8.950215e+2, 2.9499856e+2, -94891.77, -182793.36, -34220.855, -0.0049626683, -0.15577997, -83140.336, -34130.145, 0.000055655084, 10.000105, 9.998996 
8.9502376e+2, 3.049983e+2, -95284.56, -225160.45, 77462.37, -0.04559866, -0.043139394, -59141.57, -59141.57, 0.00017580122, 10.000122, 9.998356 
8.950277e+2, 3.1499988e+2, 32514.758, 29955.756, 55113.063, -0.08847064, 0.2456447, 86363.17, 86363.17, 0.00038747952, 10.000096, 10.000114 
9.049824e+2, 1.250065e+2, -1711844.8, -1714602.3, 46192.1, 0.37048435, -0.09713403, -1667010.9, 47920.316, 0.0000010657902, 9.9999075, 10.000035 
9.049826e+2, 1.3500689e+2, -1635502.5, -1651445.8, -4768.7705, 0.0065151835, -0.072904006, -1634185.0, -17256.002, 0.000000007369457, 9.99995, 9.999768 
9.0498495e+2, 1.4500694e+2, -1529159.1, -1487682.3, -60463.14, -0.019483453, -0.065541446, -1444499.9, 74428.484, 0.0, 9.999713, 10.000324 
9.049887e+2, 1.5500668e+2, -1478377.1, -1417755.6, -71091.64, 0.16150346, -0.16521572, -1370782.8, 50146.25, 0.0, 9.999418, 10.0002775 
9.049916e+2, 1.6500725e+2, -1396301.3, -1386201.3, -7582.746, 0.1935537, -0.10066356, -1382140.8, -59216.996, 0.0, 9.9995775, 9.999752 
9.0499383e+2, 1.7500828e+2, -1208919.5, -1243218.8, -32130.01, 0.09510174, -0.004024038, -1189648.6, 35267.82, 0.0, 10.000185, 9.99976 
9.049961e+2, 1.8500823e+2, -1107886.4, -1168882.1, -31121.258, 0.03306933, 0.029779404, -1094810.8, 32106.646, 0.0, 10.000298, 9.999538 
9.049983e+2, 1.9500671e+2, -1065879.8, -1105354.6, -21120.465, -0.0060435557, -0.104371086, -1056709.8, -27779.691, 0.0, 9.999933, 9.999484 
9.050011e+2, 2.0500629e+2, -1033876.6, -1122682.4, 668.09064, 0.020975968, -0.0512311, -1033871.6, -102935.61, 0.0, 9.999871, 9.998711 
9.050043e+2, 2.1500653e+2, -898636.75, -1011993.4, -8268.5625, 0.1079277, 0.071402885, -898036.8, -65097.883, 0.0, 10.000143, 9.998674 
9.050072e+2, 2.2500576e+2, -772000.4, -874346.4, 41665.38, 0.12927547, 0.123063415, -757183.4, -22234.648, 0.0, 10.000246, 9.998891 
9.050095e+2, 2.3500367e+2, -670030.7, -779312.7, 43892.387, 0.0748121, -0.006381173, -654584.75, -17616.152, 0.0, 10.000286, 9.998854 
9.0501136e+2, 2.4500269e+2, -517895.0, -583061.75, 8374.356, 0.026890434, -0.015610813, -516836.06, 22139.428, 0.0, 10.000342, 9.999493 
9.050126e+2, 2.5500253e+2, -407429.78, -484208.47, -40016.297, -0.01386795, -0.017923322, -390366.03, 50606.59, 0.0, 10.000448, 9.999451 
9.050154e+2, 2.6500165e+2, -422989.56, -593433.4, 34612.94, 0.004512428, 0.026061464, -416228.7, -73248.37, 0.0000002007212, 10.000344, 9.998078 
9.0501946e+2, 2.7499968e+2, -371006.38, -524348.06, 43620.844, 0.08888331, -0.009553587, -359466.13, -114463.305, 0.0000025589381, 10.000053, 9.998018 
9.0502155e+2, 2.8499785e+2, -163266.92, -272526.38, -22565.328, 0.066476405, -0.032853253, -158789.95, -11769.667, 0.000014749117, 10.000344, 9.998946 
9.050216e+2, 2.9499605e+2, 54107.617, -108940.516, -76802.586, -0.044215113, -0.14552553, 84587.17, 133621.0, 0.00006245814, 10.001133, 9.99901 
9.050242e+2, 3.0499542e+2, 26439.828, -187073.97, 24501.395, -0.0400825, -0.06604028, 29215.361, 29215.361, 0.00018874744, 10.001026, 9.998198 
9.050287e+2, 3.1499666e+2, -56999.484, -47957.29, -31272.44, 0.039307993, 0.21532702, -20880.828, -20880.828, 0.0004049675, 9.999576, 9.999866 
9.1498166e+2, 1.2500495e+2, -1716416.4, -1715398.4, -2802.9517, 0.23603565, 0.08928481, -1713058.6, 1897.2329, 0.000002613721, 9.9999, 10.000026 
9.1498405e+2, 1.3500535e+2, -1648435.5, -1669645.8, 7862.4272, 0.11946434, 0.12806953, -1645838.9, -28884.428, 0.00000007607973, 9.999928, 9.999648 
9.14986e+2, 1.4500566e+2, -1536639.6, -1490431.5, -92339.43, 0.07022513, 0.16985056, -1418349.6, 100601.83, 0.0, 9.9996605, 10.000329 
9.14987e+2, 1.55006e+2, -1478334.5, -1412235.1, -65451.668, 0.010880991, 0.12886749, -1371962.3, 48983.066, 0.0, 9.999401, 10.0003195 
9.149896e+2, 1.6500556e+2, -1409239.8, -1410460.8, -4116.6147, -0.0002843605, 0.095481746, -1405688.6, -82740.73, 0.0, 9.999562, 9.999592 
9.1499394e+2, 1.7500387e+2, -1226332.1, -1271459.6, 7029.173, 0.058440216, -0.06285029, -1225262.6, -299.28012, 0.0, 10.000149, 9.999583 
9.149972e+2, 1.8500374e+2, -1076358.1, -1084683.9, -59763.32, 0.07937037, -0.059473895, -1020612.8, 106350.52, 0.0, 10.000215, 10.000158 
9.149991e+2, 1.9500485e+2, -1046225.25, -1027133.5, -17376.746, 0.049810644, 0.0067321574, -1016853.25, 12097.535, 0.0, 9.999778, 10.000094 
9.1500133e+2, 2.0500505e+2, -1042859.7, -1102591.3, -3356.0542, 0.027954634, 0.08099898, -1042671.7, -111721.484, 0.0, 9.9997015, 9.99893 
9.1500384e+2, 2.150039e+2, -914812.9, -996442.5, 16268.347, 0.02216961, 0.03945604, -911690.1, -78724.07, 0.0, 9.999935, 9.9988785 
9.1500646e+2, 2.2500293e+2, -761331.7, -816931.8, 25569.65, 0.006785953, 0.038221147, -751360.75, -16384.451, 0.0, 10.00008, 9.999371 
9.1500914e+2, 2.3500197e+2, -666347.1, -724642.56, 63037.32, -0.017876992, -0.02637553, -626044.94, 10938.217, 0.0, 10.000082, 9.999326 
9.1501164e+2, 2.4500144e+2, -598249.6, -714678.6, -2902.5854, -0.0068569994, 0.02539758, -598177.25, -59190.35, 0.0, 10.000183, 9.99867 
9.1501397e+2, 2.5500086e+2, -486879.84, -617940.4, -19199.105, 0.040235993, 0.06822288, -484125.25, -43133.04, 0.0, 10.000304, 9.998607 
9.1501653e+2, 2.649993e+2, -389026.94, -499653.8, 8074.2246, 0.05656282, 0.04919375, -388440.75, -45434.508, 0.00000011562638, 10.000249, 9.998767 
9.150194e+2, 2.7499634e+2, -339703.0, -429557.88, 51547.5, 0.043435488, -0.15393373, -316251.94, -71219.31, 0.0000025826089, 9.999927, 9.998732 
9.1502136e+2, 2.8499496e+2, -245777.44, -417019.44, -9476.542, -0.021288069, -0.12215865, -245254.61, -98209.61, 0.000017159802, 10.000237, 9.998001 
9.1502213e+2, 2.9499495e+2, -33586.234, -265280.13, -25334.986, -0.143275, 0.038214296, -30848.287, 18197.197, 0.00007135739, 10.001027, 9.997986 
9.1502553e+2, 3.0499232e+2, 27190.324, -158699.48, -37412.03, -0.037517887, -0.04080268, 34437.313, 34437.313, 0.00020564985, 10.000921, 9.998433 
9.1502947e+2, 3.149899e+2, -87611.734, -55179.008, -26618.26, 0.08986678, -0.15973248, -40226.44, -40226.44, 0.00042848263, 9.999364, 9.999898 
9.249812e+2, 1.250028e+2, -1686861.3, -1693932.4, 63151.45, 0.20618305, 0.15185538, -1627146.5, 87833.555, 0.0000053718704, 10.00006, 10.00011 
9.249844e+2, 1.3500288e+2, -1781918.4, -1723877.0, 35660.07, 0.22277367, 0.14796475, -1706921.1, -89940.85, 0.00000033393198, 9.998957, 9.999769 
9.2498636e+2, 1.450029e+2, -1673926.4, -1594640.6, 15245.963, 0.19134016, 0.1737478, -1591810.0, -72829.8, 0.0, 9.998891, 9.999984 
9.249869e+2, 1.550034e+2, -1377377.5, -1406497.0, -25675.771, 0.026161987, 0.18402582, -1362420.6, 58553.71, 0.0, 10.000283, 9.99993 
9.2498934e+2, 1.650028e+2, -1290855.8, -1347954.8, 31652.504, -0.010713208, 0.14947504, -1276779.5, 46199.26, 0.0, 10.000348, 9.999636 
9.2499375e+2, 1.7500076e+2, -1374245.1, -1340380.5, 22731.883, 0.081903405, -0.047694005, -1328967.8, -103971.43, 0.0, 9.999122, 9.999605 
9.2499715e+2, 1.8500064e+2, -1267300.6, -1168576.9, -10304.977, 0.12567489, -0.045397144, -1167512.6, -40516.676, 0.0, 9.99888, 10.000222 
9.2499936e+2, 1.9500206e+2, -1074659.6, -1029833.75, -45979.51, 0.11325663, 0.043014098, -1001095.4, 27886.008, 0.0, 9.999545, 10.000181 
9.2500156e+2, 2.0500238e+2, -996796.6, -1044661.44, -17340.705, 0.081191435, 0.10934131, -991174.6, -60195.35, 0.0, 9.999867, 9.999253 
9.250039e+2, 2.1500123e+2, -891112.94, -945936.4, -14616.341, 0.040191397, 0.0398907, -887459.56, -54466.184, 0.0, 9.999929, 9.999231 
9.2500657e+2, 2.2500058e+2, -768804.4, -805315.2, 12271.943, 0.029078957, 0.043252844, -765063.0, -30063.053, 0.0, 9.999953, 9.999511 
9.2500967e+2, 2.3500016e+2, -683754.4, -721557.06, -11757.829, 0.043347258, 0.0198759, -680395.7, -43394.242, 0.0, 9.999892, 9.999443 
9.2501247e+2, 2.4499948e+2, -625101.9, -765628.75, -23520.209, 0.057953075, 0.069226354, -621269.75, -82262.29, 0.0, 10.000165, 9.998335 
9.250148e+2, 2.5499818e+2, -426955.3, -623773.75, -37499.766, 0.07143175, 0.07154524, -420052.6, 20969.006, 0.0, 10.000874, 9.998295 
9.250172e+2, 2.6499653e+2, -285225.22, -441803.06, -16842.527, 0.07182231, 0.056299664, -283434.03, 59602.54, 0.00000007319143, 10.000898, 9.998864 
9.2501974e+2, 2.749941e+2, -293556.5, -397410.5, -47046.88, 0.07824875, -0.103227496, -275413.38, -30356.861, 0.0000027897247, 10.000173, 9.998843 
9.2502195e+2, 2.8499287e+2, -250663.67, -418914.56, -8140.4126, 0.03208724, -0.063650414, -250270.73, -103203.58, 0.000020180585, 10.000203, 9.998 
9.250239e+2, 2.9499257e+2, -33872.99, -268198.22, 8487.971, -0.06006762, 0.06725432, -33565.93, 15504.915, 0.00008285034, 10.001024, 9.997966 
9.2502695e+2, 3.0498964e+2, 44691.316, -119136.9, -13859.11, 0.032111973, -0.056438066, 45855.46, 45855.46, 0.0002292469, 10.000866, 9.99874 
9.2502886e+2, 3.14987e+2, -95165.93, -75287.305, -41318.402, 0.110486254, -0.22948569, -42729.555, -42729.555, 0.0004645645, 9.999342, 9.999781 
9.3497986e+2, 1.2499975e+2, -1676288.8, -1648522.4, -26404.605, -0.008290322, 0.05488417, -1632573.6, 82432.83, 0.000009857008, 9.999987, 10.000446 
9.349831e+2, 1.3499966e+2, -1744547.1, -1650265.5, 5604.0825, 0.1634393, -0.016215451, -1649933.6, -32928.81, 0.0000009955157, 9.998994, 10.000245 
9.3498564e+2, 1.4499891e+2, -1729099.1, -1716498.6, 49208.39, 0.18464439, -0.046155974, -1673188.9, -154176.39, 0.00000000002439963, 9.998922, 9.999136 
9.34988e+2, 1.5499887e+2, -1439587.6, -1523892.3, 43050.254, 0.0718852, -0.0057065226, -1421489.4, -473.52768, 0.0, 10.000237, 9.9991455 
9.3499047e+2, 1.6499895e+2, -1279416.5, -1312661.9, -34452.33, 0.028642816, 0.053299136, -1257786.4, 65229.664, 0.0, 10.000291, 9.999911 
9.3499273e+2, 1.7499898e+2, -1357680.9, -1302304.6, -7010.68, 0.03536765, 0.03570995, -1301430.9, -76416.12, 0.0, 9.999101, 9.999882 
9.349954e+2, 1.8499897e+2, -1319642.1, -1259094.6, 1823.2428, 0.036311243, 0.06681715, -1259039.8, -132025.14, 0.0, 9.998804, 9.999641 
9.349984e+2, 1.9499841e+2, -1135802.0, -1126051.9, -6131.154, 0.03601338, 0.0150934905, -1123093.9, -94072.82, 0.0, 9.999414, 9.999588 
9.3500125e+2, 2.0499836e+2, -980304.7, -978013.5, -31422.635, 0.038709804, 0.04633951, -947715.56, -16693.182, 0.0, 9.999721, 9.999783 
9.3500406e+2, 2.1499853e+2, -882560.06, -888801.44, 4921.9517, 0.036466554, 0.059985653, -879852.9, -46831.81, 0.0, 9.999748, 9.999717 
9.350072e+2, 2.2499865e+2, -817575.56, -856722.4, -4978.3457, 0.06732687, 0.12930073, -816952.4, -81932.4, 0.0, 9.999741, 9.999259 
9.350107e+2, 2.3499832e+2, -730942.94, -771483.9, 318.69174, 0.12636341, 0.13605173, -730940.44, -93917.47, 0.0, 9.999687, 9.999201 
9.350131e+2, 2.4499696e+2, -639109.56, -758536.1, -13938.669, 0.08245292, 0.12319772, -637504.3, -98468.38, 0.0, 10.000008, 9.998461 
9.350146e+2, 2.5499427e+2, -443144.16, -622548.56, 6206.4087, -0.06110808, -0.02282896, -442929.7, -1867.7115, 0.0, 10.000712, 9.998388 
9.3501693e+2, 2.6499316e+2, -337358.28, -510095.38, -56381.938, -0.070613734, 0.030102797, -320583.97, 22488.783, 0.00000003612581, 10.000737, 9.9984665 
9.3501997e+2, 2.7499312e+2, -348366.3, -471709.4, -54101.336, 0.050394725, 0.15141131, -327999.25, -82926.36, 0.0000027030533, 10.000017, 9.998402 
9.350231e+2, 2.8499177e+2, -198171.5, -293998.63, 8916.09, 0.08833661, 0.15587226, -197348.98, -50264.36, 0.000022488803, 10.000123, 9.9989 
9.350263e+2, 2.9498893e+2, 16642.502, -145392.0, 62459.895, 0.03554454, -0.06277434, 37923.996, 87033.164, 0.00009525127, 10.000938, 9.998853 
9.3502814e+2, 3.049873e+2, 56954.527, -71778.016, -79924.25, 0.025199745, -0.11303084, 95208.445, 95208.445, 0.00025879213, 10.000787, 9.999101 
9.3502593e+2, 3.1498885e+2, -131300.58, -107708.28, -25083.322, -0.18718027, 0.09263754, -91785.805, -91785.805, 0.0005142612, 9.999178, 9.999631 
9.4497967e+2, 1.2499675e+2, -1886747.4, -1759217.5, -16842.889, 0.06493291, 0.014589158, -1757030.5, -41995.76, 0.000016753027, 9.998557, 10.0003805 
9.449825e+2, 1.34997e+2, -1563271.3, -1576542.5, -81658.85, 0.16037853, -0.014053315, -1487978.9, 129052.336, 0.000002343361, 10.000283, 10.000128 
9.449853e+2, 1.4499618e+2, -1528462.1, -1609103.5, 2198.2996, 0.20124838, -0.050686963, -1528402.3, -9362.599, 0.0000000053592455, 10.000238, 9.999245 
9.449883e+2, 1.5499584e+2, -1645265.9, -1622353.3, 28173.482, 0.15613107, -0.049933158, -1603395.9, -182350.48, 0.0, 9.998793, 9.9991865 
9.4499063e+2, 1.6499613e+2, -1524231.3, -1409189.5, 14274.652, 0.11548192, 0.02234685, -1407444.8, -84401.36, 0.0, 9.998527, 10.00009 
9.449921e+2, 1.7499693e+2, -1293394.8, -1253110.3, -1128.4417, 0.05586023, 0.0637111, -1253078.6, -28043.37, 0.0, 9.999468, 10.000036 
9.449946e+2, 1.8499704e+2, -1166561.3, -1204881.8, 66492.85, 0.030657267, 0.10599766, -1116523.1, 10511.492, 0.0, 9.999963, 9.999439 
9.449982e+2, 1.9499597e+2, -1051351.9, -1106080.4, 56581.19, 0.048841834, 0.02519261, -1015865.25, 13180.935, 0.0, 10.000106, 9.999377 
9.4500136e+2, 2.0499562e+2, -930156.06, -976055.0, 32859.848, 0.059210837, 0.046244808, -913025.06, 18025.459, 0.0, 10.00015, 9.999591 
9.450041e+2, 2.1499576e+2, -866277.1, -899925.3, -15717.107, 0.06415001, 0.07156216, -860077.8, -27028.082, 0.0, 9.99994, 9.999542 
9.450073e+2, 2.2499575e+2, -796266.4, -852435.1, -3083.1865, 0.10124241, 0.13950929, -796097.6, -61047.336, 0.0, 9.999934, 9.999187 
9.4501096e+2, 2.3499519e+2, -659120.8, -743550.8, -16394.41, 0.17367086, 0.13555731, -656049.1, -18993.307, 0.0, 10.000225, 9.999128 
9.4501364e+2, 2.4499398e+2, -565332.06, -685577.0, 21543.59, 0.1284589, 0.12588479, -561588.75, -22521.49, 0.0, 10.000354, 9.99879 
9.4501543e+2, 2.5499183e+2, -478440.28, -596996.06, 26965.006, -0.020705912, -0.0021285287, -472595.38, -31507.809, 0.0, 10.000291, 9.998754 
9.450177e+2, 2.6499096e+2, -392931.3, -527805.1, -3101.5237, -0.033326585, 0.050562415, -392860.0, -49764.39, 0.000000027783642, 10.000308, 9.998555 
9.450205e+2, 2.7499092e+2, -296193.56, -438944.2, 624.0102, 0.10029456, 0.16326414, -296190.84, -51094.875, 0.000002329391, 10.00033, 9.998485 
9.4502366e+2, 2.8498957e+2, -197095.9, -263590.72, 108789.19, 0.14435734, 0.15227774, -116587.09, 30520.766, 0.000023981273, 10.000012, 9.999165 
9.4502705e+2, 2.949867e+2, -210988.34, -226164.39, 76196.05, 0.10679477, -0.090264395, -142003.42, -92870.445, 0.00010679835, 9.999255, 9.999114 
9.450286e+2, 3.049861e+2, -93733.07, -107999.65, -58072.85, 0.06977442, -0.069659375, -42357.047, -42357.047, 0.00028981623, 9.999621, 9.999412 
9.4502664e+2, 3.1498832e+2, 127381.62, 46512.113, -52043.92, -0.103312515, 0.17849094, 152852.39, 152852.39, 0.00057081727, 10.000846, 9.999888 
9.5497954e+2, 1.2499404e+2, -1941621.0, -1855064.5, -1335.0403, 0.12061717, 0.042345546, -1855044.0, -139981.28, 0.00002677623, 9.998516, 9.99972 
9.5498234e+2, 1.3499504e+2, -1620564.9, -1676113.6, -4869.7036, 0.08130582, 0.15358724, -1620141.3, -3083.0212, 0.0000047533053, 10.000226, 9.999453 
9.549849e+2, 1.449947e+2, -1464086.8, -1467186.1, -74966.52, 0.09103438, 0.14721942, -1390653.9, 128408.63, 0.000000046136613, 10.000192, 10.000246 
9.549871e+2, 1.5499446e+2, -1569321.3, -1473001.5, -10921.452, 0.123838864, 0.05649763, -1471778.6, -50717.05, 0.0, 9.998828, 10.000193 
9.549894e+2, 1.6499461e+2, -1524165.8, -1409799.5, 33415.645, 0.098095365, 0.06454871, -1400751.8, -77693.375, 0.0, 9.998527, 10.000087 
9.549915e+2, 1.749948e+2, -1298061.1, -1254200.9, 48878.258, 0.012979784, 0.041648205, -1222558.5, 2498.1318, 0.0, 9.99943, 10.000047 
9.5499444e+2, 1.8499495e+2, -1162546.9, -1186614.0, 56136.03, -0.017624523, 0.08010392, -1117169.1, 9885.86, 0.0, 9.999905, 9.999599 
9.5499825e+2, 1.9499467e+2, -1052249.1, -1089090.0, 77622.17, 0.0034204132, 0.0634733, -990891.7, 38165.617, 0.0, 10.000013, 9.999543 
9.550013e+2, 2.0499413e+2, -1014490.1, -1114373.4, 7170.1157, 0.0117209805, 0.1000689, -1013978.06, -82913.96, 0.0, 9.999992, 9.998719 
9.550036e+2, 2.1499293e+2, -960746.94, -1044218.7, -9712.739, -0.0037494835, 0.0773815, -959631.7, -126552.67, 0.0, 9.999717, 9.998661 
9.550066e+2, 2.2499192e+2, -819484.5, -851217.94, -8149.4487, 0.010045787, 0.08519342, -817514.0, -82424.02, 0.0, 9.999721, 9.999298 
9.5501024e+2, 2.3499075e+2, -684602.6, -747806.9, 13022.482, 0.04994297, 0.011465193, -682024.6, -44924.234, 0.0, 10.000012, 9.999203 
9.550137e+2, 2.4499053e+2, -554863.6, -615369.6, 5666.245, 0.062564336, 0.06653173, -554337.56, -15235.6, 0.0, 10.000154, 9.999361 
9.5501673e+2, 2.5499085e+2, -463614.03, -528839.4, 42287.234, 0.04514516, 0.12974648, -442824.5, -1726.2955, 0.0, 10.000134, 9.999292 
9.550192e+2, 2.6498997e+2, -376182.34, -459645.28, -17902.572, 0.05487252, 0.1276777, -372504.38, -29399.521, 0.000000030362223, 10.000171, 9.999087 
9.5502096e+2, 2.749874e+2, -278481.88, -367676.38, 22116.94, 0.074591994, -0.06785761, -273298.88, -28172.924, 0.000002140531, 10.000192, 9.999035 
9.550231e+2, 2.849861e+2, -239524.8, -326872.2, 64796.348, 0.058760744, -0.07866177, -205057.86, -57920.234, 0.000025889522, 9.999906, 9.99878 
9.550256e+2, 2.9498592e+2, -253473.33, -290043.63, 71147.54, 0.0007035501, -0.01622373, -198298.84, -149157.22, 0.00011778403, 9.999153, 9.998721 
9.550282e+2, 3.049861e+2, -91637.05, -82957.055, -16344.001, 0.036778063, 0.088984795, -70386.65, -70386.65, 0.00031950467, 9.99953, 9.99963 
9.550297e+2, 3.1498536e+2, 144856.5, 115730.234, 54452.41, 0.047308292, 0.016420525, 186659.58, 186659.58, 0.00062882464, 10.000703, 10.000433 
9.6497935e+2, 1.2499131e+2, -1807109.0, -1812728.0, 79507.09, 0.21770944, 0.026595322, -1730361.8, -15271.93, 0.000040530904, 9.999493, 9.999569 
9.649815e+2, 1.349925e+2, -1770597.3, -1757472.6, 73439.11, 0.03596131, 0.16667007, -1690303.3, -73218.13, 0.000008656152, 9.999215, 9.999404 
9.6498406e+2, 1.4499256e+2, -1590593.3, -1477086.1, 10032.9795, 0.054324936, 0.18214454, -1476206.1, 42879.52, 0.00000019058375, 9.999144, 10.000658 
9.649865e+2, 1.5499292e+2, -1414823.8, -1352760.0, -14272.736, 0.14234357, 0.114678, -1349635.1, 71442.5, 0.0, 9.99973, 10.000563 
9.6498895e+2, 1.6499293e+2, -1347260.6, -1362942.8, 55062.027, 0.14397092, 0.107517555, -1299484.1, 23591.664, 0.0, 9.999931, 9.9997225 
9.6499157e+2, 1.7499219e+2, -1271551.0, -1285621.0, 6866.4927, 0.06419936, 0.031114494, -1268755.5, -43671.414, 0.0, 9.999813, 9.99964 
9.6499467e+2, 1.8499216e+2, -1175573.9, -1188999.5, 12380.6455, 0.028206505, 0.070060745, -1168203.3, -41118.63, 0.0, 9.999775, 9.99966 
9.649983e+2, 1.9499251e+2, -1083857.3, -1102144.8, -3399.1465, 0.027533308, 0.11016505, -1083245.9, -54164.695, 0.0, 9.999766, 9.999587 
9.650013e+2, 2.0499209e+2, -1033144.9, -1107918.8, -13511.932, 0.025896763, 0.15168369, -1030778.1, -99691.54, 0.0, 9.999833, 9.998824 
9.650037e+2, 2.1499051e+2, -908438.56, -1006883.0, 5922.273, 0.029518696, 0.08217157, -908083.56, -74979.07, 0.0, 10.000045, 9.998748 
9.650067e+2, 2.2498949e+2, -747753.1, -800612.06, 84942.83, 0.038516533, 0.076547205, -685223.06, 49892.066, 0.0, 10.000132, 9.999454 
9.650103e+2, 2.3498866e+2, -661803.2, -713265.6, 78618.766, 0.061516188, 0.018048642, -604811.94, 32309.807, 0.0, 10.000063, 9.999413 
9.6501386e+2, 2.4498866e+2, -577332.6, -603731.0, 81925.875, 0.09103913, 0.07405349, -507549.5, 31571.238, 0.0, 9.999885, 9.999584 
9.650174e+2, 2.5498927e+2, -531167.1, -540373.75, 61276.375, 0.13628647, 0.14655197, -474321.4, -33206.945, 0.0, 9.999573, 9.999497 
9.650199e+2, 2.6498845e+2, -426876.13, -468691.1, 25203.873, 0.13997501, 0.13696441, -415036.72, -71916.53, 0.000000012060779, 9.999754, 9.999223 
9.650213e+2, 2.749858e+2, -248237.97, -343030.5, -3632.6316, 0.09435123, -0.08424039, -248098.97, -2956.4727, 0.0000023356135, 10.00035, 9.999128 
9.6502334e+2, 2.8498462e+2, -129055.516, -287397.66, 45150.586, 0.059016626, -0.079508916, -117085.85, 30067.158, 0.000028869204, 10.000732, 9.998637 
9.6502596e+2, 2.9498497e+2, -15454.363, -194323.08, 24219.918, 0.04013154, 0.046601202, -12232.858, 36920.082, 0.00012892728, 10.000882, 9.998533 
9.6502864e+2, 3.0498475e+2, 97238.6, -34860.234, -10789.491, 0.071783595, 0.14506295, 98114.055, 98114.055, 0.00034703137, 10.000983, 9.999266 
9.650313e+2, 3.1498244e+2, 109840.15, 100536.46, -42609.273, 0.16942663, -0.05062619, 148050.75, 148050.75, 0.0006841425, 10.000434, 10.000457 
9.749781e+2, 1.2498824e+2, -1765312.8, -1715805.5, 9358.403, 0.062010195, -0.05043144, -1714095.6, 1023.9553, 0.000058506626, 9.999458, 10.000245 
9.7497946e+2, 1.3498951e+2, -1710826.9, -1636900.8, 72130.45, -0.12429269, 0.0221019, -1592814.0, 24296.07, 0.00001444443, 9.999238, 10.000215 
9.749824e+2, 1.4499006e+2, -1615220.8, -1531624.4, 16162.807, -0.07956545, 0.06117923, -1528608.1, -9502.311, 0.0000005546723, 9.999156, 10.000281 
9.74986e+2, 1.5499139e+2, -1444171.5, -1407233.5, 27586.053, 0.082297064, 0.12780301, -1392504.6, 28587.13, 0.0, 9.999707, 10.000198 
9.7498906e+2, 1.6499119e+2, -1406010.4, -1480493.0, 30725.887, 0.1262824, 0.15512855, -1394971.3, -71876.43, 0.0, 9.999903, 9.998935 
9.7499186e+2, 1.7498913e+2, -1328822.3, -1401686.9, 15127.457, 0.078620166, 0.027781077, -1325806.5, -100689.01, 0.0, 9.999795, 9.998857 
9.7499484e+2, 1.8498874e+2, -1191968.1, -1202574.8, -1704.905, 0.035790566, 0.0715762, -1191700.9, -64577.37, 0.0, 9.999687, 9.999609 
9.7499794e+2, 1.949896e+2, -1104520.0, -1114084.0, 12493.862, -0.013111493, 0.16607818, -1095924.3, -66807.88, 0.0, 9.999637, 9.999563 
9.75001e+2, 2.0498967e+2, -988661.5, -978911.8, -23179.688, -0.017381486, 0.21041253, -960099.94, -28983.818, 0.0, 9.999663, 9.9998 
9.7500396e+2, 2.1498856e+2, -866809.5, -878746.2, 29066.469, 0.02249363, 0.09019465, -843104.94, -9978.826, 0.0, 9.999859, 9.9997225 
9.750071e+2, 2.2498842e+2, -759051.5, -776574.6, 64230.074, 0.047099374, 0.111351505, -702988.2, 32138.027, 0.0, 9.999927, 9.999715 
9.750107e+2, 2.349889e+2, -679073.4, -692284.75, 89488.71, 0.060490087, 0.15488818, -595946.9, 41173.113, 0.0, 9.9998255, 9.999666 
9.75014e+2, 2.4498856e+2, -609437.7, -635169.1, 53444.355, 0.083242014, 0.17069568, -567332.25, -28209.94, 0.0, 9.999725, 9.999452 
9.7501695e+2, 2.5498703e+2, -559364.3, -566197.06, 67685.62, 0.109871544, 0.044240978, -495008.9, -53872.285, 0.0, 9.999429, 9.999392 
9.750194e+2, 2.6498634e+2, -464982.34, -521189.8, 32123.992, 0.088121, 0.06337453, -450403.88, -107260.875, 0.0000000034767167, 9.999636, 9.9989195 
9.750212e+2, 2.7498603e+2, -283568.38, -391945.6, 39551.086, 0.013557149, 0.108595885, -270669.78, -25524.477, 0.0000028342504, 10.00024, 9.998844 
9.7502387e+2, 2.8498518e+2, -141371.02, -290693.88, 37830.39, 0.0013317268, 0.15708001, -132333.78, 14818.819, 0.000032313746, 10.000641, 9.99866 
9.7502726e+2, 2.9498363e+2, -33397.31, -201835.63, 56848.965, 0.03776807, 0.09401433, -16006.077, 33161.406, 0.0001399921, 10.000761, 9.998539 
9.7502935e+2, 3.0498177e+2, 6870.304, -192612.2, -40730.406, 0.013186134, 0.083863944, 14866.154, 14866.154, 0.00037284024, 10.000858, 9.998242 
9.7503036e+2, 3.1497863e+2, 41380.523, 836.6672, -11295.765, -0.05115799, -0.10117877, 44315.176, 44315.176, 0.00073526404, 10.00026, 9.99985 
9.849769e+2, 1.24986485e+2, -1812525.5, -1670950.6, 29623.18, 0.044483095, 0.020429496, -1665002.1, 50137.957, 0.00008108169, 9.99883, 10.000856 
9.8497903e+2, 1.3498776e+2, -1679433.5, -1561581.4, 26018.867, -0.07310936, 0.033236876, -1556092.6, 61033.703, 0.000022462764, 9.999164, 10.000776 
9.8498243e+2, 1.4498805e+2, -1604049.9, -1576597.0, 17420.684, 0.009525276, 0.04245133, -1568144.8, -49021.19, 0.0000013019285, 9.9994335, 9.999843 
9.8498595e+2, 1.5498886e+2, -1427856.0, -1449817.6, -17091.008, 0.10085097, 0.09601283, -1418522.3, 2594.9138, 0.0, 10.000024, 9.999754 
9.849891e+2, 1.6498868e+2, -1351145.6, -1448738.6, 32584.6, 0.13314012, 0.14832741, -1341266.4, -18145.389, 0.0, 10.000251, 9.998988 
9.8499215e+2, 1.7498733e+2, -1269577.6, -1364502.4, 49489.875, 0.11594825, 0.08642688, -1248469.5, -23332.883, 0.0, 10.000171, 9.998929 
9.849951e+2, 1.8498701e+2, -1149428.9, -1180524.8, 89723.86, 0.08917109, 0.13367933, -1073915.9, 53226.45, 0.0, 9.9999895, 9.999605 
9.84998e+2, 1.9498734e+2, -1114309.3, -1122772.6, 69110.62, 0.036746517, 0.1756241, -1049300.9, -20159.012, 0.0, 9.9996, 9.999519 
9.85001e+2, 2.049875e+2, -974832.94, -916721.94, 63052.613, 0.038658656, 0.2084687, -876352.25, 54787.676, 0.0, 9.999497, 10.000314 
9.8500425e+2, 2.149872e+2, -871684.4, -823087.5, 50595.098, 0.08952078, 0.1160622, -791258.56, 41881.063, 0.0, 9.999571, 10.000246 
9.8500764e+2, 2.2498731e+2, -748982.8, -769798.5, 98640.57, 0.106578596, 0.13524203, -660202.56, 74933.3, 0.0, 9.999973, 9.999745 
9.8501116e+2, 2.3498754e+2, -554375.94, -630543.7, 78918.13, 0.09724559, 0.15095174, -504833.03, 132298.7, 0.0, 10.000664, 9.999694 
9.850143e+2, 2.449871e+2, -475417.78, -596750.1, 36228.72, 0.10498811, 0.16923709, -465423.47, 73712.02, 0.0, 10.000783, 9.999192 
9.850169e+2, 2.5498557e+2, -443045.44, -542252.0, 2484.7532, 0.1177193, 0.06535461, -442983.22, -1831.4683, 0.0, 10.000368, 9.999101 
9.850196e+2, 2.649847e+2, -332365.6, -477830.34, 37779.28, 0.102035105, 0.096973404, -323139.0, 20021.648, 0.00000001775074, 10.000644, 9.998735 
9.8502266e+2, 2.749843e+2, -94199.086, -323496.97, 14671.442, 0.07224825, 0.15564603, -93264.16, 151900.67, 0.000003544514, 10.001639, 9.998651 
9.850255e+2, 2.8498343e+2, -5837.262, -201860.55, 139.29692, 0.07138756, 0.19646537, -5837.1636, 141334.97, 0.00003520851, 10.001446, 9.998907 
9.8502815e+2, 2.9498172e+2, -133051.97, -226067.95, 3007.9912, 0.102071285, 0.09782965, -132954.78, -83768.86, 0.00014922032, 9.999946, 9.998785 
9.850301e+2, 3.049795e+2, -100708.555, -307696.13, 33100.145, 0.039585076, 0.063382134, -95544.24, -95544.24, 0.00039592202, 10.000415, 9.997649 
9.8503244e+2, 3.1497693e+2, 339334.66, 95835.9, 22951.436, 0.027468946, -0.0006883837, 341479.1, 341479.1, 0.0007798097, 10.002533, 9.999401 
9.949746e+2, 1.2498608e+2, -1786181.0, -1608580.5, -12278.876, -0.14246407, 0.2395478, -1607735.5, 107415.8, 0.000108580556, 9.998814, 10.00128 
9.9497986e+2, 1.3498731e+2, -1657356.8, -1505341.6, 49113.55, 0.0661486, 0.20365252, -1490854.5, 126278.56, 0.000033028722, 9.999135, 10.001164 
9.9498415e+2, 1.449866e+2, -1640720.1, -1656764.9, 15412.132, 0.18333572, 0.122854196, -1631367.4, -112229.164, 0.0000026281716, 9.99944, 9.999298 
9.949859e+2, 1.5498534e+2, -1457052.3, -1517552.3, 19547.723, 0.057197616, 0.023033073, -1451285.9, -30132.195, 0.00000000019976186, 10.000048, 9.999284 
9.9498856e+2, 1.6498554e+2, -1292374.0, -1315468.8, 12520.719, 0.013513248, 0.090029, -1286888.8, 36264.41, 0.0, 10.000213, 9.999916 
9.949921e+2, 1.749869e+2, -1208784.4, -1230779.6, 62874.35, 0.053046953, 0.20409277, -1155953.1, 69187.19, 0.0, 10.00014, 9.999861 
9.949951e+2, 1.8498698e+2, -1168957.0, -1199843.5, 57576.492, 0.059647113, 0.25119266, -1124788.6, 2352.654, 0.0, 9.999902, 9.9995165 
9.949979e+2, 1.9498552e+2, -1136019.8, -1138958.3, 70392.81, 0.039475676, 0.123706676, -1067080.9, -37921.797, 0.0, 9.999477, 9.999467 
9.950009e+2, 2.0498545e+2, -1000577.5, -920077.56, 47501.965, 0.05543593, 0.13092312, -898066.0, 33093.36, 0.0, 9.999291, 10.000384 
9.950043e+2, 2.1498643e+2, -897323.9, -822902.3, 67199.63, 0.103172176, 0.15828492, -783298.8, 49846.69, 0.0, 9.999351, 10.000346 
9.950078e+2, 2.2498631e+2, -792989.8, -806418.3, 108247.375, 0.09927913, 0.15543184, -691248.6, 43894.395, 0.0, 9.999741, 9.999606 
9.950115e+2, 2.3498476e+2, -597068.44, -666106.06, 121651.03, 0.03845714, 0.0073163547, -505133.63, 132021.94, 0.0, 10.000442, 9.999556 
9.9501455e+2, 2.4498439e+2, -534051.75, -680046.25, 4751.4355, 0.01688881, 0.06425516, -533897.25, 5262.491, 0.0, 10.000611, 9.998705 
9.9501663e+2, 2.5498486e+2, -501767.22, -622948.94, 3782.8608, 0.028204128, 0.20887884, -501649.25, -60489.605, 0.0, 10.000185, 9.998636 
9.9502015e+2, 2.6498377e+2, -370128.3, -518210.72, 60270.71, 0.057879295, 0.24838783, -348698.78, -5526.9, 0.000000028595345, 10.000488, 9.99853 
9.95025e+2, 2.7498072e+2, -132505.53, -367506.78, 72490.7, 0.10992574, 0.061948977, -111943.49, 133257.31, 0.000003781716, 10.001495, 9.998415 
9.950278e+2, 2.8497925e+2, 16092.446, -132706.42, -70247.48, 0.11776955, 0.03499767, 44015.95, 191228.38, 0.000036350866, 10.001342, 9.99943 
9.950283e+2, 2.9497933e+2, -104419.914, -145052.94, -29679.283, 0.076451294, 0.057569172, -88769.49, -39561.742, 0.00015456251, 9.999855, 9.999382 
9.950306e+2, 3.0497798e+2, -136406.6, -361536.8, 105544.36, 0.013234477, 0.09667079, -94665.13, -94665.13, 0.00041193186, 10.000334, 9.997318 
9.9503607e+2, 3.1497672e+2, 285324.13, 38730.008, 143249.77, 0.065626204, 0.1960776, 351031.47, 351031.47, 0.0008105773, 10.00231, 9.999112 
1.0049741e+3, 1.2498319e+2, -1737082.9, -1616393.5, 13037.895, -0.08459054, 0.22553861, -1615001.1, 100178.43, 0.00014134821, 9.9992895, 10.000999 
1.00497976e+3, 1.3498434e+2, -1612638.9, -1517453.8, -25004.65, 0.13058217, 0.21280667, -1511285.0, 105878.26, 0.000046426092, 9.999594, 10.000856 
1.00498445e+3, 1.4498374e+2, -1600590.5, -1593514.1, -2924.0981, 0.27644795, 0.13943306, -1592462.3, -73294.59, 0.00000474816, 9.999556, 9.999659 
1.00498624e+3, 1.549827e+2, -1496897.0, -1500697.6, 21733.998, 0.111670524, 0.030632459, -1476980.4, -55800.54, 0.000000004412824, 9.999626, 9.9996 
1.00498855e+3, 1.6498308e+2, -1360037.0, -1306900.5, 40437.57, 0.038393803, 0.07981542, -1285084.1, 38092.695, 0.0, 9.999551, 10.000305 
1.0049917e+3, 1.7498454e+2, -1303766.1, -1231900.6, 18523.484, 0.054345172, 0.16545835, -1227407.1, -2245.3267, 0.0, 9.999283, 10.000272 
1.00499466e+3, 1.8498491e+2, -1250560.9, -1236313.9, 38108.84, 0.059235513, 0.21802358, -1204668.5, -77508.56, 0.0, 9.999334, 9.999535 
1.00499764e+3, 1.9498385e+2, -1093191.3, -1116511.3, 25267.166, 0.05958131, 0.12818046, -1077023.5, -47848.973, 0.0, 9.999769, 9.999474 
1.0050009e+3, 2.0498379e+2, -882495.25, -906462.2, 32362.951, 0.085619815, 0.15224123, -859968.4, 71207.18, 0.0, 10.000275, 10.000011 
1.0050045e+3, 2.149843e+2, -716366.44, -785541.8, -16645.77, 0.13095386, 0.17503738, -712569.4, 120597.445, 0.0, 10.000777, 9.999932 
1.00500815e+3, 2.2498375e+2, -678108.7, -780802.9, 23227.328, 0.12630446, 0.16374633, -673099.44, 62069.777, 0.0, 10.000679, 9.999326 
1.00501195e+3, 2.3498173e+2, -677078.2, -738777.06, -14052.15, 0.06666655, 0.0014424098, -674028.5, -36841.96, 0.0, 10.000048, 9.999248 
1.005015e+3, 2.4498105e+2, -623475.0, -730652.94, -87075.375, 0.042722415, 0.046574224, -574819.7, -35625.71, 0.0, 10.0000305, 9.998637 
1.0050172e+3, 2.5498146e+2, -440330.94, -592941.75, -90874.09, 0.061355047, 0.1898093, -397974.6, 43219.45, 0.0, 10.000631, 9.998613 
1.005021e+3, 2.6498052e+2, -321627.53, -460884.6, 39114.816, 0.10374953, 0.2306794, -311393.06, 31810.832, 0.000000017098808, 10.000669, 9.9988365 
1.00502625e+3, 2.7497774e+2, -324191.78, -418572.0, 58550.383, 0.17206246, 0.03942341, -296181.8, -50953.31, 0.000003428396, 10.000001, 9.998775 
1.0050289e+3, 2.8497654e+2, -177095.98, -247435.14, -69077.2, 0.17361122, 0.023309715, -134750.67, 12487.708, 0.00003625069, 10.000126, 9.999212 
1.0050291e+3, 2.9497662e+2, 42981.6, -99095.086, -127188.59, 0.12533459, 0.070267364, 117625.734, 166861.11, 0.00015744341, 10.000974, 9.999154 
1.00503154e+3, 3.049751e+2, 23018.262, -249819.67, 74272.78, 0.04724663, 0.08638164, 41926.63, 41926.63, 0.00042211023, 10.001249, 9.99767 
1.0050382e+3, 3.1497443e+2, 54047.355, -53814.15, 98084.36, 0.15290613, 0.21941854, 112049.92, 112049.92, 0.0008305699, 10.0005865, 9.999346 
1.01497434e+3, 1.24977894e+2, -1810177.9, -1752469.3, -41519.11, -0.06164331, -0.026307376, -1730762.6, -15538.678, 0.0001798155, 9.999246, 10.000076 
1.014978e+3, 1.3497895e+2, -1678398.5, -1655450.5, -873.30945, -0.03545963, 0.04693709, -1655417.3, -38201.32, 0.000062927356, 9.999608, 9.999897 
1.01498276e+3, 1.4497949e+2, -1526167.3, -1433777.5, -23302.486, 0.10372336, 0.08023019, -1428232.9, 90978.2, 0.000007860604, 9.999535, 10.000762 
1.0149864e+3, 1.5498105e+2, -1423442.8, -1343686.5, 40615.67, 0.12725958, 0.119985186, -1326644.5, 94550.48, 0.000000028517778, 9.999613, 10.000679 
1.01498894e+3, 1.6498141e+2, -1372377.1, -1327677.6, 12812.244, 0.08099305, 0.12217647, -1324265.8, -1075.1198, 0.0, 9.999527, 10.000175 
1.0149906e+3, 1.7498036e+2, -1313368.5, -1250581.3, 23187.086, -0.015448798, -0.03372534, -1242946.8, -17746.318, 0.0, 9.999273, 10.00015 
1.0149932e+3, 1.8498084e+2, -1256241.8, -1227854.4, 36233.695, -0.053547036, 0.0313532, -1203133.5, -75935.71, 0.0, 9.999248, 9.999635 
1.0149968e+3, 1.9498245e+2, -1104838.0, -1110218.5, 55494.453, -0.037272573, 0.19778994, -1051968.6, -22781.834, 0.0, 9.999639, 9.9995775 
1.0150006e+3, 2.0498261e+2, -964918.4, -1041535.4, 34118.477, -0.007801629, 0.28294873, -951927.6, -20740.475, 0.0, 10.00012, 9.999158 
1.0150046e+3, 2.1498097e+2, -802319.75, -918162.9, 15828.66, 0.03533002, 0.17223708, -800195.9, 33006.22, 0.0, 10.000587, 9.999107 
1.0150084e+3, 2.249798e+2, -750699.1, -878522.8, -19007.563, 0.053138945, 0.16769904, -747932.56, -12719.805, 0.0, 10.000452, 9.998762 
1.01501204e+3, 2.3497869e+2, -746589.2, -831668.7, -23038.234, 0.042860102, 0.14781341, -740751.4, -103528.41, 0.0, 9.999829, 9.998711 
1.0150154e+3, 2.449773e+2, -627277.7, -695053.5, -83327.73, 0.05170573, 0.1329432, -571210.56, -31974.592, 0.0, 9.999842, 9.998976 
1.0150184e+3, 2.5497532e+2, -438379.56, -555209.1, -52541.29, 0.0759266, 0.0045928373, -418226.7, 23028.475, 0.0, 10.00048, 9.99895 
1.01502195e+3, 2.6497486e+2, -276300.63, -333545.22, 1201.1094, 0.10272248, 0.029978257, -276275.44, 66982.29, 0.000000011022683, 10.000529, 9.999776 
1.01502605e+3, 2.7497557e+2, -277278.63, -286752.25, 56076.535, 0.120098256, 0.090110235, -225739.2, 19507.938, 0.0000031084232, 9.999856, 9.999748 
1.0150287e+3, 2.8497523e+2, -266459.03, -407294.6, -53187.137, 0.111837305, 0.16574351, -248629.8, -101379.93, 0.000035475467, 10.000019, 9.998163 
1.01503e+3, 2.9497355e+2, -57933.098, -268579.0, -73423.6, 0.07310624, 0.1391594, -34866.215, 14402.804, 0.00015874387, 10.000812, 9.998063 
1.01503246e+3, 3.0497074e+2, 77802.82, -108378.12, 41364.5, -0.015985146, 0.03496581, 86579.21, 86579.21, 0.00042931808, 10.001139, 9.99869 
1.01503775e+3, 3.1497e+2, 68713.41, 49444.98, 115814.92, -0.014227688, 0.05344444, 175294.14, 175294.14, 0.00084597926, 10.000302, 10.000176 
1.0249747e+3, 1.2497571e+2, -1774203.5, -1741475.8, 45764.727, 0.0590591, -0.06068104, -1709237.4, 6004.612, 0.00022439056, 9.999499, 10.00004 
1.0249774e+3, 1.3497633e+2, -1759739.5, -1704783.5, 108664.87, -0.014986395, -0.016847044, -1620176.4, -2937.1116, 0.0000828242, 9.999091, 9.999817 
1.0249818e+3, 1.4497705e+2, -1595531.3, -1459392.0, 137058.44, 0.09351491, 0.03065098, -1374430.6, 144802.67, 0.000012107546, 9.998999, 10.000867 
1.024986e+3, 1.5497899e+2, -1426870.1, -1334475.6, 90495.07, 0.1357444, 0.09778547, -1279068.0, 142144.83, 0.00000009714164, 9.999526, 10.000795 
1.02498874e+3, 1.6497943e+2, -1351647.3, -1348491.6, 43883.41, 0.10844024, 0.11702021, -1306157.6, 17050.666, 0.0, 9.999837, 9.99986 
1.0249906e+3, 1.7497818e+2, -1222793.0, -1238415.3, 2790.9788, 0.023288842, -0.025255129, -1222309.4, 2912.389, 0.0, 10.000066, 9.999833 
1.0249931e+3, 1.8497843e+2, -1121426.0, -1169536.1, 40512.008, -0.016935816, 0.03463177, -1098365.6, 28855.863, 0.0, 10.000183, 9.99959 
1.0249966e+3, 1.9497982e+2, -1038148.06, -1083614.1, 21212.955, -0.033591345, 0.18373807, -1029788.0, -577.08386, 0.0, 10.00011, 9.999543 
1.0250006e+3, 2.0497964e+2, -974023.1, -1078820.9, 51247.96, -0.0071354983, 0.25300106, -953128.06, -21913.738, 0.0, 10.000222, 9.998851 
1.02500536e+3, 2.1497753e+2, -836125.94, -971039.5, 36501.918, 0.066220984, 0.1306361, -826883.25, 6351.9253, 0.0, 10.000535, 9.998769 
1.0250094e+3, 2.2497642e+2, -696031.1, -844995.94, 53253.62, 0.09808098, 0.14778258, -678951.6, 56294.05, 0.0, 10.000786, 9.998833 
1.0250126e+3, 2.3497598e+2, -591498.44, -750080.9, 67286.01, 0.07742375, 0.18922518, -566796.9, 70452.32, 0.0, 10.000863, 9.998774 
1.025016e+3, 2.4497469e+2, -487141.63, -616986.44, 66779.59, 0.09025896, 0.1743908, -458927.4, 80333.64, 0.0, 10.000781, 9.9990425 
1.0250194e+3, 2.5497213e+2, -430884.6, -547879.5, 37567.57, 0.13439123, -0.01577725, -419860.28, 21424.857, 0.0, 10.00052, 9.998978 
1.0250229e+3, 2.6497155e+2, -277240.72, -340612.75, 60667.875, 0.13880871, -0.00040220303, -240482.64, 102806.336, 0.00000001218603, 10.000552, 9.999715 
1.0250262e+3, 2.7497262e+2, -139013.66, -223639.88, 3600.6235, 0.112548254, 0.10208301, -138860.73, 106414.766, 0.0000027111198, 10.000832, 9.999708 
1.0250292e+3, 2.8497234e+2, -135310.75, -361880.97, -52298.79, 0.11264979, 0.19202007, -123821.336, 23456.867, 0.00003356842, 10.00099, 9.998016 
1.0250315e+3, 2.9497027e+2, -52140.105, -282383.94, -44000.95, 0.14247216, 0.14631404, -44017.797, 5283.219, 0.00015737157, 10.0009165, 9.997927 
1.0250342e+3, 3.0496722e+2, 68219.21, -77971.1, 88550.555, 0.06670746, 0.005983519, 109946.1, 109946.1, 0.00043278775, 10.000935, 9.998982 
1.02503896e+3, 3.1496617e+2, 130310.06, 81655.516, 38582.766, 0.066519685, -0.038109634, 151594.7, 151594.7, 0.00085735595, 10.000693, 10.000204 
1.03497416e+3, 1.24976456e+2, -1707305.8, -1615246.8, -34991.887, -0.03551161, 0.10569202, -1603456.3, 111778.805, 0.00027553758, 9.999551, 10.000879 
1.0349775e+3, 1.3497664e+2, -1707178.6, -1597292.6, 100530.27, 0.05009474, 0.026594644, -1537671.0, 79560.94, 0.000106410545, 9.999095, 10.000554 
1.0349812e+3, 1.4497644e+2, -1654584.6, -1581414.0, 134211.47, 0.088255815, -0.008783935, -1478890.8, 40342.727, 0.000017580353, 9.999002, 10.000028 
1.0349844e+3, 1.549765e+2, -1479834.9, -1449102.6, 126357.82, -0.0072094337, -0.046528794, -1337180.0, 84053.234, 0.00000023822265, 9.999542, 10.000005 
1.03498764e+3, 1.6497712e+2, -1400331.0, -1437037.1, 31624.807, -0.033988472, 0.055398356, -1382119.6, -58889.66, 0.0, 9.999791, 9.99927 
1.0349912e+3, 1.74978e+2, -1273530.5, -1329775.0, 26303.832, 0.043204825, 0.18609357, -1263146.3, -37920.492, 0.0, 10.0000105, 9.99923 
1.0349943e+3, 1.8497777e+2, -1144741.0, -1198450.5, 18298.98, 0.036033954, 0.23709248, -1139099.1, -11869.375, 0.0, 10.000098, 9.9994335 
1.0349967e+3, 1.9497603e+2, -1064921.3, -1115532.6, 30274.982, -0.06195119, 0.085719734, -1050768.8, -21522.652, 0.0, 10.000003, 9.999379 
1.03500076e+3, 2.0497487e+2, -993834.25, -1075766.6, 45012.07, -0.043881413, 0.060374174, -973937.4, -42680.277, 0.0, 10.00003, 9.998964 
1.0350065e+3, 2.149739e+2, -849002.9, -963354.3, 65996.14, 0.10192737, 0.037465524, -818859.94, 14407.018, 0.0, 10.000378, 9.9989 
1.0350106e+3, 2.2497357e+2, -675091.5, -751592.3, 40114.48, 0.12730153, 0.08815404, -657913.9, 77355.04, 0.0, 10.000578, 9.999571 
1.0350133e+3, 2.3497364e+2, -569563.94, -655066.5, 85222.375, 0.029791778, 0.10507359, -516971.0, 120294.625, 0.0, 10.000652, 9.999524 
1.0350163e+3, 2.4497317e+2, -544113.94, -684815.75, 44488.523, 0.018091865, 0.1569255, -531227.4, 8042.1753, 0.0, 10.000567, 9.99868 
1.03501976e+3, 2.5497192e+2, -480427.78, -608756.75, 47391.063, 0.09651002, 0.1273976, -464823.88, -23540.12, 0.0, 10.000345, 9.99864 
1.0350232e+3, 2.6497066e+2, -370610.16, -504066.13, 54969.504, 0.09055914, 0.1458182, -350884.28, -7587.5195, 0.00000000560088, 10.0004225, 9.998654 
1.03502624e+3, 2.74969e+2, -238149.52, -390373.03, 32968.285, -0.00015739983, 0.08094283, -231316.08, 13996.942, 0.0000022721786, 10.000673, 9.998635 
1.0350297e+3, 2.8496787e+2, -99200.74, -259258.67, -70028.22, 0.032462068, 0.10273159, -72887.875, 74435.35, 0.000031172072, 10.000872, 9.998777 
1.0350331e+3, 2.949671e+2, -22046.0, -183370.28, -20368.662, 0.17311293, 0.10667473, -19514.01, 29815.07, 0.00015322318, 10.000762, 9.998682 
1.0350362e+3, 3.0496457e+2, 15295.595, -158795.48, 71261.414, 0.15648332, 0.009457449, 40745.008, 40745.008, 0.00043103905, 10.000817, 9.998479 
1.03504054e+3, 3.1496328e+2, 37969.824, -38651.09, 78265.02, 0.08406807, -0.008977618, 86797.79, 86797.79, 0.00086192216, 10.00042, 9.9994955 
1.0449735e+3, 1.24975175e+2, -1864308.5, -1716184.6, -34143.484, 0.0074420036, 0.11271517, -1708693.1, 6552.632, 0.0003338259, 9.998557, 10.000675 
1.0449773e+3, 1.3497543e+2, -1644467.4, -1593049.0, -12637.984, 0.099936694, 0.06205888, -1590110.6, 27132.473, 0.00013404706, 9.999609, 10.000339 
1.0449808e+3, 1.44975e+2, -1558731.3, -1588041.3, 43443.113, 0.1088205, 0.03759055, -1527537.9, -8289.929, 0.000024406929, 9.999907, 9.999531 
1.0449844e+3, 1.5497416e+2, -1479861.5, -1497157.3, 17244.717, 0.038698334, -0.041403193, -1469217.8, -47960.15, 0.0000004785213, 9.999781, 9.999542 
1.0449878e+3, 1.6497447e+2, -1393626.0, -1427085.3, -6049.394, 0.013082844, 0.049865253, -1392565.9, -69308.96, 0.0, 9.999789, 9.999358 
1.04499124e+3, 1.7497562e+2, -1267343.6, -1318449.4, 9716.927, 0.05476328, 0.19734187, -1265558.5, -40309.773, 0.0, 9.999999, 9.999328 
1.0449946e+3, 1.8497519e+2, -1168540.5, -1239898.1, 46462.0, 0.06825834, 0.23746368, -1145638.6, -18384.535, 0.0, 10.00008, 9.999151 
1.0449978e+3, 1.9497281e+2, -1072734.9, -1148925.9, 10598.678, 0.04841438, 0.053738594, -1071288.0, -42011.305, 0.0, 10.000089, 9.999102 
1.045002e+3, 2.0497157e+2, -942661.25, -1030649.4, 70142.68, 0.06898741, 0.024488837, -903857.56, 27430.797, 0.0, 10.000287, 9.999146 
1.0450072e+3, 2.149711e+2, -805795.0, -916428.56, 63698.418, 0.13457799, 0.03060442, -776746.9, 56545.973, 0.0, 10.000574, 9.999118 
1.0450111e+3, 2.2497083e+2, -685081.4, -740494.6, 25193.559, 0.12905018, 0.067739666, -675339.75, 59953.797, 0.0, 10.000429, 9.999729 
1.0450137e+3, 2.3497038e+2, -675240.44, -691265.75, -8430.815, 0.049862333, 0.021011021, -671622.06, -34327.96, 0.0, 9.999841, 9.9996805 
1.0450167e+3, 2.4497007e+2, -641794.5, -731764.06, -6054.002, 0.046913534, 0.07780997, -641389.0, -102092.59, 0.0, 9.999881, 9.9987 
1.0450205e+3, 2.549696e+2, -447748.63, -588772.06, -6762.333, 0.12777841, 0.12751125, -447425.1, -6121.9395, 0.0, 10.000549, 9.998684 
1.04502395e+3, 2.649683e+2, -359448.44, -557841.7, 54088.348, 0.12248, 0.16164468, -345660.44, -2342.2412, 0.0000000009945924, 10.000741, 9.998146 
1.0450271e+3, 2.7496555e+2, -319342.94, -493770.66, 39644.332, 0.034094553, 0.044124752, -310755.28, -65408.22, 0.0000020282196, 10.000351, 9.998102 
1.0450305e+3, 2.849641e+2, -152587.34, -236181.45, -13014.741, 0.066583425, 0.04154395, -150607.94, -3247.8108, 0.00002862313, 10.000294, 9.999213 
1.04503416e+3, 2.949639e+2, -24837.508, -126589.93, -27625.824, 0.22514732, 0.05644375, -17820.93, 31537.127, 0.00014660136, 10.000506, 9.999186 
1.0450377e+3, 3.049621e+2, 1201.0303, -167900.7, 100242.7, 0.23452625, 0.0021432582, 47789.207, 47789.207, 0.00042212423, 10.000718, 9.998467 
1.0450421e+3, 3.1496114e+2, 41889.85, -59596.984, 78672.234, 0.21201248, 0.022244548, 84763.82, 84763.82, 0.00085377786, 10.000501, 9.99933 
1.0549718e+3, 1.249717e+2, -1941037.5, -1874270.1, -44993.133, -0.100404486, -0.072623454, -1851628.4, -136352.84, 0.00039971265, 9.998567, 9.9995775 
1.0549762e+3, 1.3497286e+2, -1725325.9, -1756125.8, 42025.61, -0.008786664, 0.081054196, -1695967.5, -78696.0, 0.00016604259, 9.999597, 9.999225 
1.05498e+3, 1.4497297e+2, -1577268.3, -1624576.3, 15501.601, -0.0059652645, 0.17691767, -1572641.3, -53366.527, 0.000032768716, 9.999897, 9.999286 
1.0549856e+3, 1.5497206e+2, -1501429.1, -1541228.3, 26122.398, 0.13732955, 0.11412645, -1488490.1, -67205.17, 0.0000008393984, 9.999769, 9.999249 
1.0549889e+3, 1.6497159e+2, -1339035.0, -1307373.9, -16401.611, 0.10244643, 0.10264721, -1300409.4, 22879.174, 0.0, 9.999761, 10.00019 
1.0549902e+3, 1.7497116e+2, -1210146.8, -1198473.5, 32618.434, -0.08063443, 0.007520845, -1171173.6, 54115.586, 0.0, 9.999989, 10.000155 
1.05499364e+3, 1.849708e+2, -1217557.0, -1316523.3, 26949.979, -0.06076256, 0.03715356, -1210694.0, -83401.164, 0.0, 9.999973, 9.998677 
1.0549992e+3, 1.949702e+2, -1122008.1, -1226433.8, 26820.97, 0.16215917, 0.07624763, -1115522.1, -86219.8, 0.0, 9.999975, 9.998627 
1.0550038e+3, 2.0496982e+2, -950461.25, -1006637.3, 62330.996, 0.19997057, 0.14368407, -910181.94, 21125.51, 0.0, 10.000114, 9.999397 
1.0550072e+3, 2.1496922e+2, -816908.0, -897303.3, 88490.46, 0.04841288, 0.11273427, -759913.0, 73399.24, 0.0, 10.000382, 9.999348 
1.05501026e+3, 2.2496817e+2, -752093.6, -826539.2, -11658.957, -0.01752855, 0.08627018, -750310.44, -14990.603, 0.0, 10.000206, 9.999239 
1.0550133e+3, 2.349663e+2, -736941.7, -772903.8, -14557.283, 0.0073868562, -0.05998544, -731787.6, -94453.555, 0.0, 9.999644, 9.999209 
1.0550168e+3, 2.4496543e+2, -642207.5, -689285.75, 1612.9436, 0.04240346, -0.052233007, -642152.3, -102811.766, 0.0, 9.999697, 9.999078 
1.055021e+3, 2.549653e+2, -447181.34, -547008.06, 31764.76, 0.089457825, -0.008825245, -437931.03, 3411.3716, 0.0, 10.000376, 9.999052 
1.05502464e+3, 2.6496437e+2, -383181.22, -568941.56, 24426.047, 0.102017395, 0.047900878, -380023.1, -36669.84, 0.000000000012280949, 10.000583, 9.998139 
1.0550281e+3, 2.7496234e+2, -341157.16, -502406.5, 46681.99, 0.07369093, -0.005564729, -328617.75, -83241.38, 0.0000016155456, 10.000197, 9.998111 
1.0550313e+3, 2.849613e+2, -162112.02, -227780.83, -19224.143, 0.08297119, 0.026259787, -156898.22, -9512.004, 0.000025306648, 10.0001745, 9.9993305 
1.0550342e+3, 2.949609e+2, -37848.113, -123945.84, 6709.981, 0.13524021, 0.0057312353, -37328.313, 12058.497, 0.00013793015, 10.000379, 9.999271 
1.0550378e+3, 3.0495968e+2, 21598.84, -102781.35, 85614.336, 0.14348558, -0.013350073, 65226.62, 65226.62, 0.00040720604, 10.000617, 9.998962 
1.05504274e+3, 3.1495988e+2, 29259.852, -31024.01, 122243.47, 0.14841771, 0.07033578, 125022.66, 125022.66, 0.0008331317, 10.000267, 9.99964 
1.0649711e+3, 1.2496845e+2, -1924904.1, -1886468.6, -61309.566, -0.024932342, -0.099674374, -1841435.5, -126128.09, 0.00047318285, 9.998791, 9.999387 
1.0649757e+3, 1.349696e+2, -1738140.8, -1773214.5, 23308.006, 0.0020452433, 0.0726666, -1726509.1, -109204.46, 0.00020250746, 9.999586, 9.999108 
1.0649791e+3, 1.4497e+2, -1617811.4, -1622568.6, 46056.99, -0.052487433, 0.19368975, -1574071.6, -54766.395, 0.000042863663, 9.99951, 9.999498 
1.0649856e+3, 1.5496938e+2, -1604715.0, -1563653.6, 51092.066, 0.21608636, 0.13739493, -1529121.5, -107810.03, 0.0000013547858, 9.99894, 9.999497 
1.0649891e+3, 1.6496883e+2, -1457953.0, -1374292.1, 63845.824, 0.20577107, 0.10917191, -1339793.9, -16478.572, 0.0, 9.99898, 10.000112 
1.06499024e+3, 1.74968e+2, -1269631.9, -1234117.0, 7081.852, -0.052167322, -0.014086989, -1232757.0, -7437.0244, 0.0, 9.999616, 10.000095 
1.06499374e+3, 1.8496762e+2, -1192016.4, -1291502.6, 16030.707, -0.050104495, 0.01015189, -1189497.1, -62173.625, 0.0, 10.000079, 9.998801 
1.06499985e+3, 1.9496736e+2, -1050137.9, -1178327.8, 29195.38, 0.20579161, 0.07009579, -1043801.75, -14472.694, 0.0, 10.000399, 9.998755 
1.0650044e+3, 2.0496723e+2, -898887.5, -986968.5, 102829.664, 0.24030356, 0.15724096, -831064.2, 100267.92, 0.0, 10.000498, 9.999342 
1.0650076e+3, 2.1496686e+2, -816317.5, -899879.8, 69942.14, 0.056207363, 0.15572546, -776627.4, 56708.414, 0.0, 10.00041, 9.99931 
1.0650107e+3, 2.2496578e+2, -696043.3, -809428.8, 3310.3792, -0.0032280455, 0.1299614, -695946.75, 39397.523, 0.0, 10.0006275, 9.999154 
1.0650143e+3, 2.349636e+2, -526497.6, -675531.7, 2418.018, 0.07311255, -0.03730698, -526458.44, 110902.4, 0.0, 10.001118, 9.999161 
1.06501795e+3, 2.4496247e+2, -429663.25, -603912.3, 49915.863, 0.119842835, -0.048770845, -416377.25, 122992.945, 0.0, 10.001222, 9.998932 
1.065022e+3, 2.54962e+2, -380846.34, -537627.56, 7000.5527, 0.13296458, -0.020500986, -380534.38, 60841.99, 0.0, 10.000909, 9.998871 
1.0650255e+3, 2.6496124e+2, -319632.3, -482804.8, 15216.321, 0.119243264, 0.03897222, -318225.47, 25159.582, 0.0, 10.000773, 9.998635 
1.0650285e+3, 2.7496004e+2, -234420.88, -388251.06, 31224.746, 0.08712399, 0.017252868, -228324.44, 17073.822, 0.00000091217555, 10.000676, 9.998655 
1.0650319e+3, 2.8495917e+2, -88784.94, -220167.56, 25878.111, 0.10152691, 0.049366847, -83871.54, 63534.355, 0.000020761427, 10.000787, 9.999092 
1.0650352e+3, 2.9495808e+2, 53541.098, -108516.39, -10915.181, 0.17386293, -0.0076208864, 54272.97, 103686.36, 0.00012637535, 10.001103, 9.999033 
1.06503904e+3, 3.04957e+2, 151004.75, -69175.62, 63308.203, 0.17486233, 0.0066947495, 167909.75, 167909.75, 0.00038601994, 10.001636, 9.998692 
1.06504396e+3, 3.149575e+2, 272312.66, 62058.242, -17517.367, 0.16474716, 0.13975132, 273762.13, 273762.13, 0.0008001297, 10.002062, 9.999391 
1.0749708e+3, 1.2496511e+2, -1880885.8, -1784885.8, -36244.777, -0.008216648, 0.0026437924, -1772738.5, -57394.375, 0.00055371417, 9.998772, 10.000079 
1.07497536e+3, 1.3496572e+2, -1688852.8, -1662458.9, 60449.38, -0.024370663, 0.038914505, -1613782.6, 3559.7817, 0.00024334127, 9.999561, 9.999874 
1.0749777e+3, 1.4496613e+2, -1563147.6, -1516033.9, -1334.4308, -0.19887759, 0.08870423, -1515996.1, 3343.1658, 0.00005483326, 9.999524, 10.000229 
1.074984e+3, 1.5496615e+2, -1548263.0, -1453727.8, 45162.387, 0.13013303, 0.020584024, -1435620.5, -14283.438, 0.000002073113, 9.998959, 10.000249 
1.0749884e+3, 1.6496626e+2, -1537569.3, -1523767.8, 67561.28, 0.19189484, 0.07333514, -1462755.8, -139419.33, 0.0000000000166348, 9.998925, 9.999107 
1.07499085e+3, 1.7496619e+2, -1346519.4, -1380997.9, 47254.367, 0.017704317, 0.120330326, -1313457.9, -88117.51, 0.0, 9.999565, 9.999107 
1.0749943e+3, 1.849657e+2, -1159162.5, -1196003.4, 11196.099, -0.031279013, 0.14851375, -1156026.9, -28681.285, 0.0, 9.9999695, 9.999508 
1.0749989e+3, 1.9496435e+2, -1020276.8, -1080237.8, 55150.477, 0.04323571, 0.028984996, -987484.6, 41871.543, 0.0, 10.000253, 9.999495 
1.07500345e+3, 2.0496386e+2, -952964.56, -1061641.3, 78995.98, 0.064316116, 0.067106694, -911422.7, 19938.85, 0.0, 10.000332, 9.998914 
1.0750079e+3, 2.1496394e+2, -872548.94, -971744.0, 81234.63, 0.027376743, 0.14895038, -826967.8, 6396.6294, 0.0, 10.000213, 9.998915 
1.0750122e+3, 2.2496356e+2, -702538.5, -767192.9, 6945.766, 0.0470514, 0.19515935, -701800.75, 33566.45, 0.0, 10.000392, 9.999558 
1.0750161e+3, 2.3496237e+2, -531483.7, -633653.25, 40663.363, 0.12113432, 0.084403805, -517275.6, 120097.82, 0.0, 10.000895, 9.999557 
1.07501976e+3, 2.4496117e+2, -516980.53, -731544.4, 25247.395, 0.15036204, 0.084791966, -514049.72, 25335.24, 0.0, 10.000999, 9.998156 
1.0750232e+3, 2.5495958e+2, -454979.13, -654225.56, 13969.681, 0.13167742, 0.07548593, -454004.44, -12598.972, 0.0, 10.000751, 9.998141 
1.0750259e+3, 2.6495886e+2, -282419.3, -361737.38, -4415.9746, 0.059567, 0.12478746, -282174.2, 61239.465, 0.000000000031670343, 10.000594, 9.999554 
1.0750281e+3, 2.7495858e+2, -194251.64, -270856.0, 49962.04, -0.06935499, 0.104562014, -169599.38, 75813.85, 0.00000057346807, 10.000532, 9.999536 
1.0750316e+3, 2.8495768e+2, -140007.66, -303196.84, 20808.37, -0.027382858, 0.11743815, -137396.16, 10023.443, 0.000016841232, 10.000689, 9.998565 
1.0750369e+3, 2.949558e+2, -2151.92, -190637.19, 25783.031, 0.18826945, 0.029458156, 1311.325, 50747.254, 0.000114238224, 10.000961, 9.998536 
1.0750413e+3, 3.049542e+2, 58718.363, -240530.72, 74903.234, 0.18744268, 0.07450884, 76419.84, 76419.84, 0.0003625103, 10.001545, 9.997559 
1.07504465e+3, 3.149538e+2, 162998.3, -127490.984, 59849.223, -0.041506227, 0.22827856, 174845.78, 174845.78, 0.00076317973, 10.001891, 9.998178 
1.0849702e+3, 1.249615e+2, -1767940.5, -1722549.5, 79394.03, 0.042111315, 0.05510935, -1662670.8, 52710.063, 0.00064071716, 9.999456, 10.000201 
1.0849747e+3, 1.3496171e+2, -1775608.6, -1684522.0, 20336.182, 0.0060957824, 0.033680122, -1680187.9, -62807.063, 0.00028839763, 9.998849, 10.000077 
1.0849766e+3, 1.4496198e+2, -1689140.8, -1553342.3, -40046.64, -0.20280549, 0.049537033, -1542412.4, -23034.137, 0.00006873226, 9.998606, 10.000391 
1.0849831e+3, 1.5496238e+2, -1503327.4, -1414604.9, -83175.37, 0.1369929, 0.0044245217, -1364700.3, 56672.145, 0.0000030594845, 9.999217, 10.0003805 
1.0849879e+3, 1.649627e+2, -1437272.8, -1493411.1, -710.1439, 0.22891018, 0.07662844, -1437263.8, -113893.51, 0.000000000186287, 9.999677, 9.998957 
1.08499125e+3, 1.7496267e+2, -1290936.0, -1373978.9, 7034.16, 0.08745407, 0.14403102, -1290344.4, -64969.58, 0.0, 10.000018, 9.9989395 
1.0849949e+3, 1.8496217e+2, -1133589.6, -1177150.9, -2693.3357, 0.025260162, 0.17651428, -1133423.8, -6043.32, 0.0, 10.000114, 9.999576 
1.0849989e+3, 1.9496083e+2, -1065223.3, -1093874.9, -41173.84, 0.03812287, 0.05311953, -1035954.2, -6563.7393, 0.0, 9.999923, 9.999562 
1.08500354e+3, 2.049601e+2, -1001959.0, -1081023.6, 9664.001, 0.0614704, 0.0622124, -1000794.94, -69397.414, 0.0, 9.9999895, 9.998936 
1.08500876e+3, 2.1495958e+2, -855567.7, -963512.94, 6391.897, 0.09101594, 0.083412744, -855190.5, -21784.93, 0.0, 10.0003395, 9.998906 
1.08501315e+3, 2.2495945e+2, -675175.0, -728391.9, -25564.79, 0.121178985, 0.14297415, -664884.0, 70522.59, 0.0, 10.00047, 9.999792 
1.08501695e+3, 2.3495935e+2, -592662.75, -638902.44, -45419.28, 0.15144657, 0.12273322, -564817.5, 72586.28, 0.0, 10.000365, 9.999784 
1.0850205e+3, 2.4495861e+2, -578787.2, -749417.7, -6932.8022, 0.15813173, 0.15056919, -578505.94, -39094.58, 0.0, 10.000501, 9.998296 
1.08502395e+3, 2.5495684e+2, -448803.56, -635037.8, 20047.633, 0.145467, 0.112654775, -446669.94, -5237.342, 0.0, 10.00072, 9.9983015 
1.0850271e+3, 2.6495588e+2, -256736.98, -367805.38, 28655.293, 0.11031509, 0.13842525, -249779.8, 93662.73, 0.000000020287489, 10.000848, 9.999382 
1.0850299e+3, 2.7495524e+2, -150559.23, -270343.2, -38661.207, 0.053996615, 0.09774014, -139164.89, 106280.53, 0.0000009682407, 10.000912, 9.999352 
1.0850336e+3, 2.8495416e+2, -52116.316, -270293.34, -38033.473, 0.070283026, 0.109322235, -45676.266, 101777.04, 0.000016002106, 10.001342, 9.998474 
1.0850381e+3, 2.9495245e+2, 140309.36, -123499.375, -45495.37, 0.18222664, 0.046319712, 147934.88, 197403.31, 0.00010691048, 10.001964, 9.998508 
1.0850429e+3, 3.0495062e+2, 136427.89, -224378.7, 79937.83, 0.17373314, 0.08007146, 153345.16, 153345.16, 0.00034615427, 10.002177, 9.997385 
1.08504735e+3, 3.1494948e+2, 120617.81, -172741.86, 77222.875, 0.0585852, 0.18911615, 139703.92, 139703.92, 0.00073994894, 10.001721, 9.997962 
1.0949692e+3, 1.249576e+2, -1786695.5, -1754718.1, 80543.52, -0.07275823, 0.04609524, -1688591.6, 26825.912, 0.000734217, 9.999429, 9.999995 
1.0949734e+3, 1.3495791e+2, -1788620.6, -1721785.3, 5861.4307, -0.048848264, 0.05926226, -1721275.0, -103857.86, 0.00033773432, 9.9988785, 9.999813 
1.0949755e+3, 1.4495769e+2, -1732382.9, -1636323.3, -40652.797, -0.22184671, 0.06791611, -1621428.4, -102007.53, 0.0000845864, 9.998583, 9.999829 
1.0949823e+3, 1.5495802e+2, -1551440.5, -1499757.8, -43381.977, 0.09472977, 0.0758679, -1475103.8, -53686.09, 0.0000043925156, 9.999166, 9.999817 
1.0949874e+3, 1.6495812e+2, -1388570.8, -1390428.6, -8109.8267, 0.17242198, 0.11760573, -1381336.9, -57919.97, 0.0000000006358386, 9.999659, 9.999676 
1.094991e+3, 1.7495747e+2, -1240485.4, -1269703.6, 36237.01, 0.027267914, 0.050899487, -1216023.4, 9399.723, 0.0, 10.000008, 9.999664 
1.09499484e+3, 1.8495718e+2, -1186934.1, -1269303.8, -29773.219, -0.014296417, 0.09855482, -1177299.4, -49872.59, 0.0, 10.000041, 9.998975 
1.09499924e+3, 1.9495696e+2, -1125994.8, -1186389.0, -31858.705, 0.056570444, 0.14279929, -1112296.0, -82865.61, 0.0, 9.999785, 9.998989 
1.09500416e+3, 2.0495592e+2, -997814.2, -1039561.8, 5005.901, 0.10025901, 0.13234502, -997222.3, -65782.07, 0.0, 9.999836, 9.9993 
1.0950095e+3, 2.1495375e+2, -854402.4, -920904.25, 35195.234, 0.11385942, -0.04915178, -839235.06, -5775.4575, 0.0, 10.000158, 9.9992895 
1.0950137e+3, 2.2495334e+2, -715275.44, -758191.2, -47564.977, 0.088365145, -0.03085641, -684552.2, 50910.746, 0.0, 10.000244, 9.999695 
1.0950164e+3, 2.3495431e+2, -631840.75, -667775.5, -33583.727, 0.023985628, 0.062047146, -611720.2, 25733.98, 0.0, 10.000138, 9.999694 
1.0950198e+3, 2.4495459e+2, -533510.06, -600601.7, -15640.011, 0.0053281747, 0.14132535, -530043.3, 9407.847, 0.0, 10.000275, 9.999421 
1.0950238e+3, 2.5495383e+2, -399179.53, -484606.2, 46667.58, 0.038934283, 0.08666052, -378629.2, 62827.99, 0.0, 10.000522, 9.999427 
1.0950286e+3, 2.6495248e+2, -376739.22, -571946.0, 18593.13, 0.14369415, 0.08604311, -374984.03, -31514.22, 0.00000010014453, 10.000659, 9.99807 
1.0950338e+3, 2.749501e+2, -263395.78, -472191.8, -11797.281, 0.31321767, 0.0023898243, -262731.34, -17237.355, 0.0000018117424, 10.00077, 9.998037 
1.0950371e+3, 2.8494856e+2, -54285.176, -241023.7, -30662.918, 0.2535004, 0.018912856, -49379.145, 98129.25, 0.000017402066, 10.001203, 9.998736 
1.0950386e+3, 2.9494768e+2, 138756.97, -95490.17, -1011.11554, -0.017722085, 0.011049825, 138761.33, 188275.89, 0.00010435712, 10.001828, 9.998765 
1.09504335e+3, 3.049461e+2, 164591.98, -131448.05, 48168.008, -0.020667695, 0.019670753, 172232.13, 172232.13, 0.00033796718, 10.002043, 9.998081 
1.095051e+3, 3.149444e+2, 131195.89, -101766.74, 112842.625, 0.17922045, 0.0025182387, 176891.5, 176891.5, 0.00073108607, 10.001509, 9.998555 
1.1049684e+3, 1.2495243e+2, -1895336.9, -1791234.8, 82729.65, -0.042497944, 0.037732694, -1745543.8, -30075.252, 0.00083503575, 9.998652, 10.000078 
1.1049724e+3, 1.3495287e+2, -1745855.4, -1693180.9, -88233.61, -0.029471718, 0.053309094, -1627437.6, -9971.032, 0.0003918232, 9.99916, 9.999853 
1.1049756e+3, 1.4495267e+2, -1618465.8, -1585657.0, -43420.49, -0.09837248, 0.060173873, -1555645.4, -36175.92, 0.000102570426, 9.999337, 9.999836 
1.1049813e+3, 1.549531e+2, -1511609.1, -1482171.3, -34829.074, 0.07865563, 0.07825676, -1459078.8, -37613.773, 0.0000061708192, 9.999407, 9.999837 
1.1049863e+3, 1.6495302e+2, -1419705.8, -1396816.8, 36134.63, 0.12109118, 0.09747177, -1370357.5, -46892.293, 0.0000000015512864, 9.999429, 9.999728 
1.104991e+3, 1.7495199e+2, -1291375.8, -1282427.3, -9169.677, 0.050748315, -0.015907887, -1276698.5, -51223.76, 0.0, 9.999636, 9.99974 
1.1049954e+3, 1.8495181e+2, -1200134.1, -1257433.0, -49836.5, 0.051364847, 0.03137563, -1171299.1, -43822.15, 0.0, 9.999875, 9.999133 
1.1049998e+3, 1.9495213e+2, -1064516.9, -1138646.8, -31025.033, 0.11818617, 0.11489263, -1053245.9, -23770.15, 0.0, 10.000126, 9.999151 
1.1050046e+3, 2.0495154e+2, -921869.3, -951862.06, 77346.16, 0.15343109, 0.116141416, -858079.2, 73401.55, 0.0, 10.000134, 9.999763 
1.1050099e+3, 2.1494967e+2, -848529.1, -866977.94, 78957.56, 0.15073721, -0.079693414, -778258.94, 55236.39, 0.0, 9.999968, 9.999755 
1.1050138e+3, 2.2494923e+2, -780849.0, -815940.94, 23670.414, 0.11043035, -0.07805666, -768930.56, -33431.465, 0.0, 9.999907, 9.999454 
1.1050163e+3, 2.3494987e+2, -677285.2, -715971.9, -5277.3276, 0.032908022, 0.0071862126, -676578.2, -39083.07, 0.0, 9.999947, 9.99945 
1.10502005e+3, 2.4495006e+2, -512748.78, -578199.0, 23680.965, 0.011466094, 0.08504208, -505079.34, 34414.13, 0.0, 10.000381, 9.999508 
1.1050248e+3, 2.5494942e+2, -286771.97, -417785.03, -35570.39, 0.056075387, 0.03567607, -277737.5, 163759.78, 0.0, 10.001253, 9.999516 
1.1050298e+3, 2.649481e+2, -244893.5, -514788.16, -49522.973, 0.16945489, 0.031538792, -236093.45, 107416.05, 0.00000018749917, 10.00158, 9.998031 
1.1050352e+3, 2.7494562e+2, -202033.86, -444435.6, -20801.79, 0.35570228, -0.053640507, -200261.7, 45272.55, 0.0000025365616, 10.0012045, 9.998022 
1.1050387e+3, 2.84944e+2, -84117.164, -295597.72, 49618.418, 0.3135828, -0.026998544, -73054.22, 74496.484, 0.000019295574, 10.001157, 9.998401 
1.1050409e+3, 2.9494306e+2, 41459.74, -184063.44, -6846.8984, 0.07237067, -0.005207187, 41667.42, 91227.914, 0.00010487227, 10.001332, 9.998408 
1.1050457e+3, 3.0494168e+2, 142489.66, -75654.65, 30482.342, 0.05219931, 0.012921832, 146669.03, 146669.03, 0.00033641586, 10.001567, 9.998695 
1.1050528e+3, 3.1494045e+2, 149951.63, -10057.608, 31687.262, 0.24100347, -0.02839018, 155998.28, 155998.28, 0.0007307893, 10.001286, 9.999272 
1.11496665e+3, 1.24946475e+2, -1872988.5, -1747544.3, 68357.81, -0.17392442, 0.03550744, -1717493.3, -1964.2274, 0.000944546, 9.998672, 10.000373 
1.1149716e+3, 1.349466e+2, -1735583.4, -1677351.1, -54247.668, -0.07207018, 0.012923624, -1644899.8, -27371.129, 0.00045159098, 9.999174, 9.999964 
1.1149764e+3, 1.449469e+2, -1562464.5, -1468626.0, -65347.582, 0.006473626, 0.023078602, -1435098.3, 84426.25, 0.00012308804, 9.999343, 10.000632 
1.11497976e+3, 1.5494789e+2, -1461232.3, -1374087.1, -18196.584, -0.050787408, 0.019202156, -1370440.3, 51071.055, 0.000008505592, 9.999397, 10.000583 
1.1149842e+3, 1.6494767e+2, -1469440.4, -1497648.3, 21888.541, -0.06768601, 0.025688605, -1457505.3, -133992.69, 0.0000000033697685, 9.999408, 9.999056 
1.1149906e+3, 1.7494625e+2, -1339471.9, -1379688.0, 13943.124, 0.02161198, -0.05884623, -1335110.6, -109581.78, 0.0, 9.99961, 9.999096 
1.11499585e+3, 1.84946e+2, -1145384.1, -1129138.1, -58662.953, 0.07932468, -0.03292325, -1078038.5, 49493.207, 0.0, 9.999809, 10.000046 
1.1149999e+3, 1.9494651e+2, -1022124.94, -1019002.0, -7607.3564, 0.08505068, -0.019910065, -1012797.5, 16727.494, 0.0, 9.999993, 10.000035 
1.1150043e+3, 2.049471e+2, -905910.4, -884270.2, 48275.95, 0.0819678, 0.028847164, -845616.6, 85900.84, 0.0, 9.999985, 10.000295 
1.1150093e+3, 2.1494728e+2, -843787.0, -806866.1, 88441.45, 0.06939249, -0.019184127, -734979.0, 98534.34, 0.0, 9.999751, 10.000271 
1.1150134e+3, 2.2494707e+2, -836579.8, -880260.25, 8842.929, 0.05402781, -0.0015400149, -834857.5, -99342.516, 0.0, 9.999693, 9.999114 
1.1150167e+3, 2.3494616e+2, -733478.5, -781087.56, 12705.612, 0.049667217, -0.036357913, -730299.94, -92774.66, 0.0, 9.999729, 9.999108 
1.11502096e+3, 2.4494512e+2, -614474.25, -744609.3, 41570.88, 0.04624136, -0.012909619, -602328.3, -62791.254, 0.0, 10.000185, 9.99846 
1.11502625e+3, 2.5494355e+2, -387426.2, -587138.7, 16669.025, 0.047570392, -0.053722166, -386044.47, 55509.523, 0.0, 10.001076, 9.998439 
1.1150304e+3, 2.6494253e+2, -185445.25, -351188.03, -79986.17, 0.041930154, -0.031487767, -153140.89, 190422.23, 0.00000020790911, 10.00141, 9.999233 
1.1150333e+3, 2.7494165e+2, -134347.7, -271628.1, -13285.138, 0.029315474, -0.0817358, -133073.86, 112494.1, 0.0000030041283, 10.001061, 9.999276 
1.1150382e+3, 2.8494054e+2, -175524.33, -442838.66, 40657.473, 0.114795916, -0.022378553, -169477.28, -21897.277, 0.000021785861, 10.000986, 9.997467 
1.1150448e+3, 2.9493868e+2, -48555.816, -335119.34, 29816.709, 0.28702456, 0.003519578, -45486.29, 4117.911, 0.00010887074, 10.001182, 9.997442 
1.1150496e+3, 3.0493745e+2, 154831.05, -17923.764, 13521.9, 0.246281, 0.05922567, 155883.03, 155883.03, 0.00034133886, 10.001433, 9.999153 
1.1150519e+3, 3.1493723e+2, 154436.7, 43065.25, 87394.12, -0.059951417, 0.07252245, 202378.34, 202378.34, 0.0007375019, 10.001092, 9.999733 
1.12496726e+3, 1.2494136e+2, -1786729.0, -1664465.9, 117207.42, 0.01577979, 0.07057301, -1593405.8, 122173.74, 0.0010643419, 9.999076, 10.000766 
1.12497024e+3, 1.3494131e+2, -1733588.0, -1633755.6, -11792.005, -0.098190464, -0.003655507, -1632381.8, -14803.069, 0.00051804923, 9.999005, 10.00035 
1.1249764e+3, 1.4494169e+2, -1622322.0, -1514218.5, 4353.9355, 0.10196366, 0.0017450337, -1514043.5, 5529.6655, 0.00014661087, 9.999013, 10.000473 
1.1249795e+3, 1.5494236e+2, -1467237.6, -1390491.6, -61089.094, -0.0065152505, -0.020760385, -1356723.4, 64840.465, 0.00001150662, 9.999433, 10.000441 
1.124984e+3, 1.6494235e+2, -1434522.4, -1469496.6, 11145.974, -0.036375903, 0.005334485, -1431272.3, -107708.375, 0.0000000061074554, 9.999596, 9.99916 
1.1249905e+3, 1.7494148e+2, -1333126.4, -1362230.1, 26836.445, 0.05731223, -0.033260368, -1317150.4, -91575.734, 0.0, 9.999596, 9.999221 
1.1249959e+3, 1.8494122e+2, -1175954.1, -1125417.4, -13017.152, 0.11450346, -0.025165586, -1122261.5, 5315.352, 0.0, 9.999518, 10.000214 
1.12499975e+3, 1.9494103e+2, -1090124.3, -1040872.9, -50522.188, 0.11282703, -0.098947674, -1009294.3, 20281.355, 0.0, 9.999445, 10.000167 
1.12500414e+3, 2.0494172e+2, -998773.3, -941324.9, -15076.629, 0.09884721, -0.03633238, -937608.6, -6041.0215, 0.0, 9.999423, 10.000166 
1.12500906e+3, 2.1494296e+2, -872048.4, -828406.0, -65203.41, 0.07780946, 0.033793397, -781469.25, 52087.02, 0.0, 9.999614, 10.000178 
1.1250135e+3, 2.2494291e+2, -769103.75, -844419.44, -105036.82, 0.07953327, 0.06833674, -695178.25, 40378.824, 0.0, 10.00012, 9.999167 
1.1250177e+3, 2.3494132e+2, -534765.4, -677546.0, -104050.9, 0.113720596, -0.03979816, -479968.66, 157603.63, 0.0, 10.001043, 9.99919 
1.12502225e+3, 2.4494003e+2, -477444.03, -653520.4, 526.86237, 0.11450011, -0.055141665, -477442.44, 62142.688, 0.0, 10.001024, 9.998684 
1.1250271e+3, 2.5493875e+2, -523897.0, -628732.0, 38889.48, 0.08489888, -0.08563174, -511045.9, -69447.24, 0.0, 10.000046, 9.998656 
1.1250311e+3, 2.6493812e+2, -363168.2, -425799.38, 1712.3187, 0.050136324, -0.03970865, -363121.4, -19516.791, 0.00000016860811, 10.000152, 9.999323 
1.1250343e+3, 2.749377e+2, -83636.234, -238570.84, -59435.1, 0.012560852, -0.052969128, -63462.797, 182144.14, 0.0000038179373, 10.001382, 9.999343 
1.12503946e+3, 2.8493667e+2, -43069.27, -371365.84, 1715.9465, 0.114273444, 0.010673234, -43060.3, 104557.76, 0.000026510976, 10.001855, 9.997534 
1.1250466e+3, 2.949347e+2, -17146.287, -305772.03, 23882.988, 0.35755202, 0.012966781, -15183.386, 34458.6, 0.00011807009, 10.001348, 9.99755 
1.1250514e+3, 3.0493304e+2, 124023.44, -65360.805, 67919.734, 0.3094492, 0.037396558, 145863.23, 145863.23, 0.0003550206, 10.001385, 9.998853 
1.1250535e+3, 3.1493232e+2, 206807.81, 25264.629, 24682.523, -0.02768601, 0.041482884, 210103.8, 210103.8, 0.0007557848, 10.001629, 9.999372 
1.1349674e+3, 1.2493678e+2, -1753160.4, -1593063.5, -17161.188, 0.04775167, 0.111454554, -1591244.6, 124378.23, 0.0011953667, 9.999088, 10.00124 
1.1349678e+3, 1.3493711e+2, -1685606.1, -1525020.0, -3368.338, -0.27231926, -0.0014628682, -1524949.4, 92666.31, 0.00059164723, 9.99898, 10.001103 
1.1349751e+3, 1.4493734e+2, -1694146.8, -1664275.4, 1002.08704, 0.018936265, 0.0022423305, -1664241.8, -144629.17, 0.00017336896, 9.999016, 9.999445 
1.13498025e+3, 1.5493684e+2, -1540502.3, -1542944.4, -24989.686, 0.077381104, -0.031647213, -1516703.8, -95083.88, 0.000015247707, 9.99943, 9.9994 
1.134985e+3, 1.6493715e+2, -1376358.4, -1345093.9, -8755.905, 0.06215674, 0.03642447, -1342808.8, -19191.025, 0.000000009421829, 9.99958, 10.000019 
1.1349901e+3, 1.7493786e+2, -1277086.8, -1241964.5, 40209.07, 0.01792911, 0.0696647, -1215648.9, 9961.251, 0.0, 9.99958, 10.000051 
1.1349948e+3, 1.8493754e+2, -1220860.1, -1206944.6, -35973.504, 0.021173658, 0.05705456, -1177262.3, -49650.324, 0.0, 9.999462, 9.999686 
1.134999e+3, 1.9493574e+2, -1149760.1, -1126678.3, -37024.742, 0.06441963, -0.12331493, -1099437.4, -69810.78, 0.0, 9.999279, 9.9996605 
1.1350036e+3, 2.049356e+2, -1086435.3, -1085286.0, -27311.977, 0.06970652, -0.077128515, -1058542.6, -126913.11, 0.0, 9.999257, 9.999259 
1.13500856e+3, 2.1493676e+2, -970274.3, -978412.9, -45310.797, 0.053216044, 0.080641374, -928850.44, -95227.055, 0.0, 9.999385, 9.99926 
1.1350137e+3, 2.249368e+2, -765768.1, -789596.4, -89992.055, 0.05794323, 0.14708187, -686905.0, 48719.38, 0.0, 9.999908, 9.999646 
1.1350187e+3, 2.3493528e+2, -537087.6, -628320.94, -52537.027, 0.08435611, -0.0057893354, -513126.88, 124509.44, 0.0, 10.000805, 9.999645 
1.1350231e+3, 2.4493477e+2, -406800.38, -456610.38, -51764.184, 0.06980636, -0.037986897, -374261.56, 165376.28, 0.0, 10.000809, 10.000138 
1.13502696e+3, 2.5493506e+2, -445103.84, -423917.94, 19259.871, 0.034252856, -0.060968745, -412530.16, 29100.97, 0.0, 9.9998665, 10.000149 
1.1350317e+3, 2.6493487e+2, -458713.2, -592092.4, 33747.39, 0.0650897, 0.007960092, -450660.63, -107027.086, 0.00000020663475, 10.000009, 9.998255 
1.1350376e+3, 2.7493367e+2, -183603.56, -416476.7, 10282.475, 0.1574596, 0.027565071, -183150.42, 62500.555, 0.0000055002247, 10.0012455, 9.998192 
1.1350421e+3, 2.849323e+2, 4911.3887, -231852.13, -34628.453, 0.16552484, 0.06303336, 9872.123, 157537.63, 0.000033703815, 10.001697, 9.998562 
1.135046e+3, 2.949307e+2, 33445.93, -161798.39, 26311.914, 0.11233813, -0.0013121064, 36929.67, 86607.375, 0.00013271971, 10.001179, 9.99862 
1.1350509e+3, 3.0492818e+2, 22550.37, -228833.92, 65138.44, 0.091454625, -0.064028054, 38426.34, 38426.34, 0.00037893685, 10.001192, 9.997821 
1.13505624e+3, 3.1492573e+2, 99105.81, -139859.72, 85706.53, 0.016635587, -0.13227361, 126666.375, 126666.375, 0.00079122034, 10.001384, 9.998353 
1.1449673e+3, 1.2493161e+2, -1923055.0, -1702357.4, -58545.617, 0.20301566, 0.08227091, -1687788.4, 27882.164, 0.0013373722, 9.998001, 10.001036 
1.1449668e+3, 1.3493215e+2, -1782039.3, -1571736.0, -62114.11, -0.2222718, -0.012230695, -1554760.5, 62901.83, 0.000672049, 9.99828, 10.00114 
1.1449742e+3, 1.4493257e+2, -1742191.5, -1667905.8, 17650.473, 0.059629824, -0.00057528727, -1663925.3, -144267.47, 0.0002032588, 9.9986105, 9.99961 
1.14498e+3, 1.5493211e+2, -1558265.5, -1533475.5, 34684.14, 0.13845225, -0.042753708, -1509038.1, -87373.78, 0.000019742625, 9.999236, 9.999557 
1.14498496e+3, 1.6493241e+2, -1436353.9, -1362075.3, 73677.02, 0.13175622, 0.0129774595, -1316706.3, 6955.642, 0.000000013934886, 9.999128, 10.000119 
1.1449895e+3, 1.7493312e+2, -1441251.1, -1306279.9, 36343.152, 0.07236737, 0.0334697, -1297116.1, -71462.08, 0.0, 9.998402, 10.000174 
1.1449943e+3, 1.8493289e+2, -1330102.1, -1274532.6, 21152.441, 0.064540885, 0.032462437, -1267397.1, -139742.06, 0.0, 9.998785, 9.999541 
1.1449989e+3, 1.9493142e+2, -1009680.25, -1062936.0, 9351.197, 0.08789956, -0.1078811, -1008086.0, 21582.139, 0.0, 10.000296, 9.999583 
1.14500366e+3, 2.0493098e+2, -888907.9, -1039869.6, 55709.91, 0.08725357, -0.06617788, -870575.3, 61098.82, 0.0, 10.0007925, 9.998848 
1.1450086e+3, 2.1493125e+2, -870156.06, -976343.6, 49658.332, 0.077872686, 0.04074516, -850552.5, -16875.877, 0.0, 10.000236, 9.99888 
1.14501365e+3, 2.249311e+2, -795971.44, -775979.6, 63805.03, 0.0907445, 0.09843839, -721392.25, 14286.877, 0.0, 9.999609, 9.999871 
1.1450188e+3, 2.3493016e+2, -784988.2, -714617.44, 42434.74, 0.11847394, -0.021827007, -694678.25, -56992.88, 0.0, 9.998984, 9.999918 
1.1450234e+3, 2.4492992e+2, -633142.94, -561954.56, 13217.224, 0.11595405, -0.042866994, -559579.8, -19895.66, 0.0, 9.999218, 10.000188 
1.1450276e+3, 2.5493023e+2, -365037.16, -373315.97, -53213.32, 0.09617883, -0.07048116, -315802.47, 125874.945, 0.0, 10.000364, 10.000253 
1.1450327e+3, 2.6493007e+2, -331332.4, -540559.0, -3343.3657, 0.12579049, -0.0003047537, -331279.0, 12401.268, 0.00000038376965, 10.000914, 9.998177 
1.145039e+3, 2.7492902e+2, -250102.33, -452694.1, 15833.969, 0.20677437, 0.037382152, -248872.27, -3174.6448, 0.0000075917305, 10.000806, 9.998156 
1.1450436e+3, 2.849277e+2, -69154.15, -244373.17, 6172.807, 0.1831046, 0.072517626, -68936.95, 78774.32, 0.000041535674, 10.001076, 9.998783 
1.1450471e+3, 2.949262e+2, 109185.734, -98804.53, -33811.63, 0.09465158, -0.0040482013, 114544.22, 164265.73, 0.00014998692, 10.001586, 9.998858 
1.1450521e+3, 3.0492386e+2, 89772.89, -178118.92, 45199.234, 0.0995301, -0.072049186, 97193.445, 97193.445, 0.00040888134, 10.001537, 9.998009 
1.1450581e+3, 3.1492206e+2, -25216.754, -170871.7, 90533.21, 0.13703567, -0.09854404, 18145.72, 18145.72, 0.0008408799, 10.000412, 9.998592 
1.154964e+3, 1.2492508e+2, -1970270.0, -1795268.4, -178513.72, -0.010826826, -0.09615826, -1683964.0, 31765.934, 0.001489488, 9.997985, 10.000399 
1.15496665e+3, 1.3492666e+2, -1822735.3, -1652443.8, -36973.152, -0.095040955, -0.03105378, -1644762.8, -27046.22, 0.00075867696, 9.998274, 10.000576 
1.15497336e+3, 1.449274e+2, -1655732.9, -1497658.4, 20407.223, 0.058535144, -0.018026486, -1495066.4, 24642.318, 0.0002361324, 9.998631, 10.000781 
1.1549785e+3, 1.5492816e+2, -1465992.6, -1351042.1, 72461.65, 0.025136413, -0.06111184, -1316029.1, 105668.6, 0.000024990082, 9.999261, 10.000804 
1.1549833e+3, 1.6492823e+2, -1473751.1, -1437400.0, 26900.938, 0.017410833, -0.06806187, -1423110.0, -99414.21, 0.000000023716384, 9.999125, 9.999599 
1.1549884e+3, 1.7492735e+2, -1488903.5, -1390783.8, 25506.809, 0.09047362, -0.15055898, -1384549.3, -158843.83, 0.0, 9.998347, 9.999614 
1.1549938e+3, 1.8492742e+2, -1333484.1, -1263973.6, 59038.543, 0.103256114, -0.09826788, -1230219.9, -102514.52, 0.0, 9.99871, 9.999648 
1.154999e+3, 1.94928e+2, -1018944.8, -1054762.4, 78455.63, 0.037181232, -0.0455529, -956379.9, 73319.99, 0.0, 10.000174, 9.999699 
1.1550039e+3, 2.0492785e+2, -889174.25, -1005250.1, 11824.859, 0.0046912692, 0.0017875525, -887981.9, 43719.86, 0.0, 10.000636, 9.999162 
1.15500845e+3, 2.1492653e+2, -881597.7, -950882.7, 43869.305, 0.019066708, -0.08135775, -860341.9, -26626.924, 0.0, 10.000013, 9.999166 
1.1550131e+3, 2.2492595e+2, -835323.25, -807345.9, 22997.416, 0.04828743, -0.07609815, -794416.9, -58696.535, 0.0, 9.999394, 9.999759 
1.15501784e+3, 2.3492587e+2, -824682.44, -749331.5, 35011.0, 0.09192452, -0.097032875, -735575.4, -97855.1, 0.0, 9.998781, 9.999779 
1.15502305e+3, 2.4492542e+2, -749744.6, -757050.3, 34878.348, 0.1253521, -0.07005251, -718328.4, -178603.36, 0.0, 9.999013, 9.998947 
1.1550287e+3, 2.549243e+2, -482080.4, -575754.25, 5394.081, 0.13797174, -0.116498, -481770.8, -40033.04, 0.0, 10.000178, 9.998955 
1.1550337e+3, 2.6492375e+2, -294465.8, -417459.6, -21244.219, 0.09939897, -0.067953445, -290899.78, 52845.23, 0.0000005356376, 10.000722, 9.999107 
1.1550381e+3, 2.7492344e+2, -202676.75, -315701.9, 32878.516, 0.007623364, -0.04828262, -193808.38, 51941.113, 0.000008957139, 10.000641, 9.999173 
1.1550433e+3, 2.8492287e+2, -126727.05, -323541.25, 10814.498, 0.020019028, 0.026161129, -126134.6, 21621.715, 0.000047577858, 10.000906, 9.99832 
1.1550494e+3, 2.9492143e+2, 55724.46, -191502.25, 14630.217, 0.13006105, 0.0050548776, 56587.227, 106358.66, 0.00016516355, 10.001491, 9.998275 
1.1550547e+3, 3.0492008e+2, 143984.75, -16136.517, -7101.7905, 0.16961938, 0.009694701, 144299.13, 144299.13, 0.00043860512, 10.001348, 9.999199 
1.155058e+3, 3.1492078e+2, 27327.307, -6154.592, 104141.71, 0.008120979, 0.111277506, 116065.055, 116065.055, 0.0008954558, 10.000176, 9.999831 
1.1649619e+3, 1.2492021e+2, -1827791.5, -1746628.8, -113686.586, -0.051481277, -0.16146778, -1666497.8, 49276.984, 0.0016512593, 9.999056, 10.000208 
1.1649667e+3, 1.3492194e+2, -1720207.0, -1648045.8, 436.9477, 0.042097397, -0.0352284, -1648043.1, -30281.342, 0.0008513687, 9.999194, 10.000158 
1.164972e+3, 1.449224e+2, -1602763.1, -1453184.5, 63554.47, 0.053962346, -0.03483927, -1429827.9, 89929.234, 0.00027198074, 9.998931, 10.00093 
1.1649772e+3, 1.5492332e+2, -1570920.6, -1386441.4, -5372.128, 0.008127062, -0.079486474, -1386285.1, 35458.88, 0.00003101119, 9.998483, 10.000932 
1.1649822e+3, 1.6492352e+2, -1509328.5, -1448429.5, -33699.465, 0.0145341, -0.08337172, -1433460.6, -109720.07, 0.00000004774233, 9.998838, 9.999669 
1.16498776e+3, 1.7492275e+2, -1229883.6, -1264189.1, -26392.102, 0.12001494, -0.15971836, -1215560.0, 10189.309, 0.0, 10.000088, 9.999661 
1.1649935e+3, 1.849228e+2, -1132309.5, -1191777.4, 56610.68, 0.14983888, -0.09916035, -1098099.1, 29650.852, 0.0, 10.000197, 9.999425 
1.164999e+3, 1.9492339e+2, -1164682.9, -1149573.8, 19980.502, 0.073429875, -0.023884129, -1135767.4, -106021.72, 0.0, 9.999279, 9.999482 
1.165004e+3, 2.049231e+2, -1067501.5, -1038767.94, -27028.818, 0.032465532, 0.00007131322, -1022524.9, -90776.91, 0.0, 9.999214, 9.999602 
1.16500854e+3, 2.1492156e+2, -846772.2, -875282.4, -27804.887, 0.035881292, -0.15240386, -829781.2, 3979.268, 0.0, 10.000035, 9.999656 
1.1650131e+3, 2.2492118e+2, -684431.2, -767654.2, -23995.537, 0.05861305, -0.13964492, -678008.3, 57755.41, 0.0, 10.000555, 9.999481 
1.1650177e+3, 2.349216e+2, -557506.06, -652705.9, -51196.695, 0.10849388, -0.08168627, -535199.94, 102561.24, 0.0, 10.00074, 9.999509 
1.1650231e+3, 2.4492113e+2, -514888.3, -690191.7, 38377.902, 0.14347024, -0.022642864, -506854.66, 32913.203, 0.0, 10.000827, 9.9985285 
1.1650292e+3, 2.5491947e+2, -415808.5, -589840.7, 35258.652, 0.15568194, -0.08077922, -408936.5, 32850.547, 0.0, 10.000831, 9.998543 
1.16503455e+3, 2.6491857e+2, -269700.94, -381422.5, 19422.115, 0.119886495, -0.05455898, -266420.84, 77376.336, 0.00000056359414, 10.000787, 9.999325 
1.1650391e+3, 2.749183e+2, -192178.16, -286790.4, -20287.174, 0.045780003, -0.055778272, -188011.58, 57788.71, 0.00000928475, 10.000622, 9.999383 
1.16504446e+3, 2.849178e+2, -126617.44, -322120.63, 6052.8926, 0.047250897, 0.020648185, -126430.22, 21375.117, 0.000050789153, 10.000879, 9.998347 
1.1650508e+3, 2.949168e+2, 51918.93, -185927.58, 5797.0923, 0.12959094, 0.03807913, 52060.14, 101877.164, 0.00017624088, 10.001442, 9.998329 
1.1650563e+3, 3.049153e+2, 200180.61, -7945.0527, -43707.574, 0.19177552, 0.031970713, 208986.84, 208986.84, 0.00046429865, 10.001796, 9.999057 
1.16505995e+3, 3.1491563e+2, 197366.52, 78190.945, -87467.19, 0.13660033, 0.11601356, 243614.52, 243614.52, 0.00094360544, 10.001323, 9.999881 
1.17496155e+3, 1.24917164e+2, -1817472.9, -1700114.1, -82118.055, -0.06682637, -0.11463122, -1657864.5, 57938.836, 0.0018234614, 9.998982, 10.000555 
1.17496654e+3, 1.3491811e+2, -1742597.9, -1696405.4, 19040.293, 0.073874705, -0.029799959, -1689568.9, -71771.9, 0.0009506097, 9.999215, 9.999815 
1.1749696e+3, 1.4491774e+2, -1668097.3, -1583422.9, 28957.393, -0.116656475, -0.052690726, -1574467.1, -54665.156, 0.00031097958, 9.998914, 10.000038 
1.1749753e+3, 1.5491769e+2, -1638945.0, -1526133.6, -3876.9263, -0.050577614, -0.09998477, -1526000.6, -104198.164, 0.00003785508, 9.998475, 9.999974 
1.1749811e+3, 1.6491826e+2, -1473670.9, -1370159.5, -5925.371, -0.02224413, -0.043250684, -1369821.5, -46024.836, 0.00000010132158, 9.998819, 10.000213 
1.1749874e+3, 1.7491928e+2, -1193708.4, -1177962.5, 37450.4, 0.031161103, -0.0051477957, -1147566.5, 78219.7, 0.0, 10.000037, 10.000277 
1.1749933e+3, 1.8491921e+2, -1177081.1, -1268280.8, 3766.0254, 0.064937964, 0.034951113, -1176925.9, -49138.55, 0.0, 10.000129, 9.998933 
1.1749985e+3, 1.9491763e+2, -1218234.9, -1235313.0, 4838.004, 0.06359493, -0.052666, -1216959.5, -187155.14, 0.0, 9.999166, 9.998952 
1.1750036e+3, 2.0491679e+2, -1057103.5, -980030.8, -15615.805, 0.03298143, -0.08135277, -976987.06, -45175.066, 0.0, 9.999058, 10.000079 
1.1750084e+3, 2.1491636e+2, -842440.7, -821463.8, 17978.072, -0.008233045, -0.17219585, -811138.3, 22674.637, 0.0, 9.999835, 10.000126 
1.1750132e+3, 2.2491664e+2, -741878.0, -830369.5, -36242.246, -0.0113313235, -0.10125729, -728929.44, 6881.306, 0.0, 10.000317, 9.999163 
1.1750177e+3, 2.3491736e+2, -614154.5, -710706.06, -27043.512, 0.018502913, 0.016923167, -607095.8, 30712.037, 0.0, 10.000493, 9.999223 
1.1750231e+3, 2.4491712e+2, -524752.75, -660412.2, 21500.363, 0.026591133, 0.09754324, -521426.75, 18385.342, 0.0, 10.000604, 9.998845 
1.1750289e+3, 2.549156e+2, -411364.8, -542674.06, 51984.242, 0.013365389, 0.017701505, -393276.44, 48550.254, 0.0, 10.000665, 9.998945 
1.175035e+3, 2.6491448e+2, -332994.25, -476557.28, -4492.972, 0.070622966, 0.028289871, -332853.78, 10984.45, 0.0000005132723, 10.000627, 9.998754 
1.1750413e+3, 2.7491337e+2, -251012.23, -382612.44, -6382.522, 0.17353041, 0.0014602118, -250703.4, -4852.4746, 0.000009286575, 10.000503, 9.998786 
1.1750464e+3, 2.849126e+2, -122026.36, -273976.5, 12292.026, 0.12446264, 0.05828582, -121038.42, 26819.809, 0.000051726838, 10.000719, 9.998753 
1.17505066e+3, 2.9491195e+2, 76290.36, -112642.25, 48926.086, -0.07081716, 0.06921605, 88208.47, 138070.61, 0.00018255804, 10.001335, 9.998886 
1.1750568e+3, 3.0490917e+2, 81350.19, -208840.95, -69314.43, 0.02723741, -0.03517812, 97056.41, 97056.41, 0.0004800074, 10.001617, 9.997756 
1.1750629e+3, 3.1490678e+2, 93399.33, -72504.16, -59294.766, 0.23881526, -0.093469664, 112412.586, 112412.586, 0.0009690312, 10.00106, 9.998961 
1.1849601e+3, 1.2491298e+2, -1918212.9, -1747001.4, -14019.15, -0.060213137, -0.08638022, -1745861.0, -30016.469, 0.0020081834, 9.998245, 10.0006 
1.1849658e+3, 1.3491349e+2, -1813562.8, -1755315.0, -39736.617, 0.11707181, -0.03358986, -1735172.3, -117330.25, 0.0010574218, 9.998804, 9.99962 
1.1849685e+3, 1.449132e+2, -1678210.8, -1609592.8, 24006.307, -0.11539741, -0.030762576, -1602028.0, -82181.56, 0.00035351914, 9.998916, 9.999868 
1.18497424e+3, 1.5491283e+2, -1593087.4, -1516245.3, 8512.378, -0.01915291, -0.09448676, -1515313.5, -93462.77, 0.00004562391, 9.998844, 9.999868 
1.18498035e+3, 1.6491331e+2, -1458474.0, -1372505.9, 95756.26, 0.028925154, -0.0352532, -1310528.6, 13317.728, 0.00000019883093, 9.998976, 10.000122 
1.1849873e+3, 1.7491439e+2, -1282020.5, -1222800.0, 51873.082, 0.06288499, 0.013747491, -1192681.0, 33154.67, 0.0, 9.999457, 10.000238 
1.1849934e+3, 1.8491437e+2, -1211223.1, -1262321.5, 3923.2405, 0.09588645, 0.048846997, -1210923.6, -83087.33, 0.0, 9.999785, 9.999146 
1.1849985e+3, 1.9491282e+2, -1086187.3, -1144678.1, 22468.617, 0.11218943, -0.05722118, -1078552.8, -48700.426, 0.0, 9.999947, 9.999201 
1.1850033e+3, 2.049121e+2, -958239.8, -972927.56, 62028.184, 0.07538299, -0.06864856, -903122.25, 28737.121, 0.0, 9.999903, 9.999733 
1.1850082e+3, 2.1491183e+2, -888176.4, -876896.1, 4963.6284, 0.0030534167, -0.10609555, -875023.06, -41162.35, 0.0, 9.99967, 9.9998255 
1.1850132e+3, 2.2491202e+2, -806311.7, -860693.25, -30070.768, -0.008981959, -0.02940556, -792961.25, -57101.145, 0.0, 9.999873, 9.999163 
1.18501835e+3, 2.3491229e+2, -612299.5, -710508.5, -36663.69, 0.03227603, 0.04362519, -600122.06, 37738.996, 0.0, 10.0005045, 9.999217 
1.1850239e+3, 2.4491197e+2, -455958.25, -600301.75, 45506.156, 0.050103802, 0.10238039, -442809.6, 97055.31, 0.0, 10.000967, 9.999083 
1.1850301e+3, 2.5491065e+2, -309251.63, -476295.03, 33670.266, 0.044177756, 0.027235452, -302720.22, 139155.05, 0.0, 10.001286, 9.999112 
1.1850364e+3, 2.6490945e+2, -251334.03, -457043.75, 847.5058, 0.11223251, 0.029485712, -251330.53, 92556.28, 0.0000005059796, 10.001295, 9.998555 
1.1850425e+3, 2.749079e+2, -198299.47, -384101.94, -17039.645, 0.2327557, -0.015891248, -196749.72, 49153.777, 0.000009353779, 10.000991, 9.998537 
1.1850477e+3, 2.8490698e+2, -61355.41, -233597.44, 70578.375, 0.17626694, 0.031791102, -36129.504, 111782.43, 0.000051580555, 10.00111, 9.998828 
1.1850525e+3, 2.949065e+2, 125546.24, -84452.58, 41633.355, -0.029927012, 0.055911496, 133499.1, 183412.44, 0.00018437536, 10.001669, 9.998914 
1.1850588e+3, 3.0490336e+2, 108629.45, -253437.58, -68693.63, 0.0641339, -0.062007092, 121224.31, 121224.31, 0.00048100852, 10.00203, 9.997257 
1.1850647e+3, 3.1490022e+2, 178207.39, -74714.28, -69480.14, 0.28560117, -0.14163381, 196037.36, 196037.36, 0.00096257555, 10.001794, 9.998602 
1.19495824e+3, 1.2490737e+2, -1936130.3, -1782359.8, 34811.895, -0.14096698, -0.11544793, -1774845.9, -58944.793, 0.0022081332, 9.998243, 10.000349 
1.1949639e+3, 1.3490793e+2, -1802547.6, -1737559.8, -8254.3955, 0.010479033, -0.069522224, -1736527.6, -118629.36, 0.0011730703, 9.998817, 9.999734 
1.1949679e+3, 1.4490868e+2, -1639254.3, -1525879.6, -501.96222, -0.11447892, 0.003209761, -1525877.4, -5985.9155, 0.00040013902, 9.998909, 10.000443 
1.1949734e+3, 1.5490887e+2, -1549712.0, -1431525.5, 22520.723, -0.023653265, -0.064214796, -1427379.6, -5492.096, 0.00005450229, 9.998861, 10.000444 
1.1949798e+3, 1.6490878e+2, -1506228.4, -1473370.1, 92309.445, 0.029992338, -0.057953265, -1396039.1, -72150.76, 0.00000035173326, 9.998978, 9.999433 
1.1949873e+3, 1.7490813e+2, -1340310.6, -1337301.4, 85114.68, 0.08475423, -0.10645846, -1253678.0, -27780.742, 0.0, 9.999421, 9.999477 
1.1949936e+3, 1.8490827e+2, -1159172.3, -1136005.1, -7658.8535, 0.10144242, -0.059406172, -1133702.1, -5805.34, 0.0, 9.999712, 10.000045 
1.1949984e+3, 1.9490895e+2, -1040386.7, -1020123.94, 44144.15, 0.08116089, -0.036341265, -984963.5, 44925.676, 0.0, 9.999819, 10.000116 
1.195003e+3, 2.0490901e+2, -1057211.0, -1139695.1, 33503.58, 0.023319878, 0.03775175, -1045317.44, -113427.56, 0.0, 9.999742, 9.998662 
1.1950074e+3, 2.1490808e+2, -997524.7, -1053931.4, 12601.511, -0.0662845, 0.04163839, -994837.44, -160935.02, 0.0, 9.999455, 9.9987135 
1.1950127e+3, 2.2490735e+2, -824540.4, -843268.75, -25246.258, -0.06996465, 0.07225069, -806977.6, -71066.19, 0.0, 9.999637, 9.999395 
1.1950189e+3, 2.3490652e+2, -625732.94, -684480.4, 378.21835, 0.018414315, 0.0066783233, -625730.5, 12188.993, 0.0, 10.000279, 9.999499 
1.1950254e+3, 2.4490581e+2, -480394.06, -601256.25, 39423.742, 0.07761376, 0.0073092612, -468671.5, 71253.46, 0.0, 10.0007515, 9.999186 
1.1950322e+3, 2.5490487e+2, -329721.97, -468722.28, 63426.723, 0.09988645, -0.043516017, -305130.56, 136800.45, 0.0, 10.001077, 9.999263 
1.1950378e+3, 2.6490366e+2, -280819.56, -474831.16, -26097.053, 0.10532816, -0.04539358, -277370.5, 66570.516, 0.0000006389743, 10.001103, 9.99853 
1.1950422e+3, 2.749019e+2, -217382.22, -386151.28, -8561.658, 0.08962538, -0.11381281, -216948.98, 29009.117, 0.000009301616, 10.000835, 9.998596 
1.19504824e+3, 2.8490096e+2, -102673.44, -292000.97, 77514.664, 0.07865163, -0.051573828, -74986.266, 72980.03, 0.00005191434, 10.000985, 9.998493 
1.1950558e+3, 2.9490045e+2, 79524.266, -150188.56, 87905.516, 0.083545804, -0.005202955, 109303.17, 159273.48, 0.00018470343, 10.001528, 9.998535 
1.195062e+3, 3.0489784e+2, 80196.875, -258469.23, -84564.24, 0.1530184, -0.046990063, 100138.21, 100138.21, 0.00047307427, 10.001813, 9.997319 
1.1950643e+3, 3.1489578e+2, 147018.27, -70021.78, -27003.29, -0.0007324658, -0.03211679, 150327.45, 150327.45, 0.0009340092, 10.00151, 9.998762 
1.2049577e+3, 1.2490266e+2, -1893702.3, -1752788.5, 83432.16, -0.026253127, -0.026489258, -1714043.3, 1907.4327, 0.0024257244, 9.998508, 10.000433 
1.20496206e+3, 1.3490278e+2, -1745494.8, -1643270.8, 1886.5775, -0.043707304, -0.074839875, -1643235.9, -25286.26, 0.0012988481, 9.998944, 10.000312 
1.20496765e+3, 1.4490362e+2, -1609452.3, -1542291.4, 31147.064, -0.034341473, -0.008627254, -1530070.3, -10129.318, 0.00045139206, 9.99923, 10.000181 
1.20497316e+3, 1.5490383e+2, -1430006.5, -1399915.4, -54489.273, 0.02905173, -0.050484125, -1358432.6, 63505.38, 0.00006471426, 9.999787, 10.000215 
1.2049791e+3, 1.6490379e+2, -1393773.4, -1397880.9, 43180.76, 0.05181312, -0.036350403, -1352597.5, -28658.998, 0.00000057087306, 9.999665, 9.99961 
1.2049862e+3, 1.749032e+2, -1389631.3, -1334585.1, 69799.95, 0.055716496, -0.09800215, -1287077.8, -61131.93, 0.0, 9.998983, 9.999696 
1.2049927e+3, 1.8490343e+2, -1259963.8, -1196480.8, 36589.664, 0.07394199, -0.048105817, -1179783.4, -51838.832, 0.0, 9.9990835, 9.999926 
1.2049986e+3, 1.9490415e+2, -1009048.6, -1013258.25, -21506.514, 0.10522128, -0.012244418, -989544.1, 40393.676, 0.0, 10.000083, 10.000028 
1.20500356e+3, 2.0490426e+2, -917617.6, -1072988.1, -17476.674, 0.06487397, 0.07027593, -915676.06, 16262.259, 0.0, 10.000677, 9.998674 
1.20500766e+3, 2.1490335e+2, -792293.75, -956375.25, 8047.0103, -0.048745904, 0.074697815, -791900.06, 42050.04, 0.0, 10.000839, 9.998726 
1.2050131e+3, 2.2490239e+2, -663452.94, -783982.9, 46226.03, -0.05556598, 0.08980271, -647765.9, 88194.8, 0.0, 10.000818, 9.99924 
1.20501965e+3, 2.3490106e+2, -583835.75, -685612.25, 9183.227, 0.0552578, -0.005490706, -583013.8, 54959.223, 0.0, 10.000651, 9.999322 
1.2050266e+3, 2.4490033e+2, -494752.78, -590032.25, 59440.12, 0.13086101, -0.004366674, -466217.25, 73761.35, 0.0, 10.000593, 9.999318 
1.2050334e+3, 2.5489983e+2, -382779.88, -481674.75, 45462.72, 0.14816909, -0.024071425, -365056.6, 76924.336, 0.00000000020898414, 10.000666, 9.99936 
1.2050392e+3, 2.6489866e+2, -275062.1, -474333.78, -8272.677, 0.14048599, -0.029439019, -274719.25, 69271.0, 0.00000074892756, 10.001138, 9.998517 
1.2050438e+3, 2.7489647e+2, -48781.97, -308779.44, -27279.57, 0.10883455, -0.13567123, -45950.563, 200058.84, 0.000009032264, 10.0019865, 9.998574 
1.2050498e+3, 2.848952e+2, 26353.945, -255369.53, 74878.98, 0.10653402, -0.0995952, 45019.293, 193040.17, 0.000052136886, 10.001985, 9.998267 
1.20505735e+3, 2.948944e+2, -17918.193, -219655.88, 47679.867, 0.13720769, -0.05223307, -7216.9087, 42811.72, 0.0001849306, 10.000982, 9.998315 
1.2050638e+3, 3.0489224e+2, 8526.547, -254265.08, -44892.805, 0.21377954, -0.058137108, 15983.979, 15983.979, 0.0004665325, 10.001153, 9.997662 
1.20506644e+3, 3.1489083e+2, 248644.67, 39539.26, -35851.492, 0.049922522, -0.0130086085, 254620.69, 254620.69, 0.00090609276, 10.001983, 9.999271 
1.2149563e+3, 1.2489777e+2, -1851807.5, -1658539.8, -27290.629, -0.08362479, 0.068593934, -1654760.1, 61244.13, 0.0026624324, 9.9985, 10.001076 
1.2149601e+3, 1.3489811e+2, -1679328.1, -1506770.3, 25355.664, -0.170277, -0.048086062, -1503121.6, 114873.086, 0.0014356553, 9.998952, 10.001248 
1.2149675e+3, 1.448981e+2, -1674873.1, -1681746.1, 29332.818, -0.019480078, -0.0689008, -1648776.3, -128782.18, 0.0005075534, 9.99925, 9.999212 
1.214973e+3, 1.5489772e+2, -1504243.6, -1556709.4, -14057.086, 0.0042721527, -0.065421894, -1500714.8, -78712.61, 0.000076397075, 9.999794, 9.999139 
1.2149782e+3, 1.6489832e+2, -1319143.1, -1239934.0, -0.88281447, -0.05783243, 0.012878638, -1239934.0, 84063.01, 0.0000008702971, 9.9996605, 10.0006895 
1.2149834e+3, 1.7489965e+2, -1322600.8, -1180927.9, 59669.83, -0.15575264, 0.03526526, -1159145.4, 66835.59, 0.0, 9.998922, 10.000779 
1.2149901e+3, 1.8489982e+2, -1342775.6, -1352762.5, 55088.684, -0.12514248, 0.07542891, -1292454.5, -164474.73, 0.0, 9.999016, 9.998888 
1.2149983e+3, 1.9489843e+2, -1103190.8, -1182219.0, 33435.008, 0.040956847, 0.0069502722, -1090943.3, -60945.23, 0.0, 9.999966, 9.998926 
1.2150044e+3, 2.0489779e+2, -868583.25, -929152.6, -30727.377, 0.0583234, 0.021164604, -855724.8, 76280.13, 0.0, 10.000499, 9.999744 
1.2150084e+3, 2.1489777e+2, -748793.4, -806899.56, 28017.496, -0.08162577, -0.0018047452, -737484.8, 96517.75, 0.0, 10.0005865, 9.999869 
1.21501364e+3, 2.248973e+2, -735805.2, -882404.94, 20890.62, -0.09700726, 0.029891407, -732886.4, 3120.196, 0.0, 10.000588, 9.998681 
1.2150201e+3, 2.3489605e+2, -652902.1, -780676.3, 20268.363, 0.017821286, 0.000037089798, -649764.06, -11743.65, 0.0, 10.00044, 9.998772 
1.2150268e+3, 2.4489559e+2, -530141.56, -604228.4, 47240.242, 0.06899911, 0.05632602, -507152.88, 32872.492, 0.0, 10.000341, 9.999339 
1.2150336e+3, 2.5489566e+2, -408552.16, -491163.1, 64032.43, 0.059346933, 0.08354497, -373658.6, 68366.11, 0.00000000018849695, 10.000477, 9.999382 
1.21504016e+3, 2.6489446e+2, -303630.3, -491109.47, 6603.6895, 0.08667212, 0.08234922, -303398.0, 40635.934, 0.00000061447383, 10.000949, 9.998499 
1.2150465e+3, 2.748917e+2, -70407.734, -320280.66, 24343.803, 0.14945078, -0.08560037, -68058.13, 177999.31, 0.000008322687, 10.001831, 9.998577 
1.21505216e+3, 2.848897e+2, -27243.09, -308064.94, 22681.957, 0.10971206, -0.10703213, -25422.87, 122652.305, 0.000050710027, 10.001752, 9.99801 
1.21505715e+3, 2.9488838e+2, -55083.797, -260630.45, 35362.56, -0.023505768, -0.09042378, -49170.11, 918.6526, 0.00018357177, 10.000834, 9.998097 
1.2150643e+3, 3.0488634e+2, 21601.752, -192201.05, -24714.404, 0.11042919, -0.093002915, 24421.412, 24421.412, 0.00046227945, 10.001003, 9.998165 
1.21507004e+3, 3.14885e+2, 266040.75, 140232.77, 35378.95, 0.15188903, -0.09688549, 275307.28, 275307.28, 0.0008888424, 10.001708, 10.000098 
1.2249557e+3, 1.24892585e+2, -1942686.8, -1697671.6, -3930.7856, 0.056538202, 0.116211616, -1697608.5, 18450.217, 0.0029179724, 9.997835, 10.001128 
1.2249592e+3, 1.3489291e+2, -1704848.6, -1519109.6, -23900.957, -0.12388006, -0.0007442749, -1516083.4, 101965.42, 0.0015834377, 9.9987755, 10.001248 
1.224967e+3, 1.4489254e+2, -1679548.0, -1682904.9, 10295.144, 0.013480849, -0.05660029, -1670795.4, -150744.33, 0.00056846405, 9.999234, 9.9992075 
1.2249729e+3, 1.5489244e+2, -1541735.6, -1561510.8, 811.42896, 0.037877083, -0.032005258, -1541702.4, -119646.17, 0.00008951281, 9.999518, 9.999219 
1.2249779e+3, 1.6489296e+2, -1357044.5, -1294636.8, 17157.639, -0.025560232, 0.04867236, -1290230.8, 33820.95, 0.0000012652538, 9.9995165, 10.000412 
1.2249825e+3, 1.7489384e+2, -1283044.3, -1188827.8, -55996.32, -0.14356641, 0.052892048, -1162759.8, 63280.445, 0.0, 9.999288, 10.000565 
1.2249893e+3, 1.8489389e+2, -1274791.6, -1299403.6, 12679.061, -0.11240098, 0.08137856, -1269428.5, -141388.8, 0.0, 9.999374, 9.99909 
1.2249983e+3, 1.9489266e+2, -1109232.3, -1163903.6, 51332.69, 0.064484216, 0.011900792, -1078410.5, -48355.37, 0.0, 9.999821, 9.999133 
1.2250049e+3, 2.0489211e+2, -956896.1, -966956.44, 5198.365, 0.09676401, 0.022189748, -954692.6, -22631.81, 0.0, 9.999888, 9.99977 
1.22500904e+3, 2.1489204e+2, -897599.2, -873716.94, -52792.8, -0.026072409, -0.0060918536, -831531.6, 2527.3972, 0.0, 9.999569, 9.999889 
1.2250144e+3, 2.2489156e+2, -834963.9, -910311.5, -25570.99, -0.033317212, 0.013843771, -827105.4, -91043.055, 0.0, 9.999811, 9.998861 
1.2250211e+3, 2.3489027e+2, -618186.2, -747995.44, -10368.17, 0.07082909, -0.038250815, -617363.25, 20711.32, 0.0, 10.000594, 9.998927 
1.22502774e+3, 2.4488974e+2, -470181.56, -617344.94, 52478.496, 0.10263696, 0.020044716, -453384.84, 86695.85, 0.0, 10.000902, 9.999001 
1.2250341e+3, 2.5488973e+2, -395998.78, -521567.3, 11918.569, 0.0602871, 0.078906484, -394877.53, 47205.582, 0.0, 10.000707, 9.999076 
1.225041e+3, 2.6488885e+2, -306654.63, -464761.7, 9965.986, 0.10054016, 0.107615866, -306028.9, 38062.086, 0.0000003685213, 10.000836, 9.998716 
1.2250486e+3, 2.7488664e+2, -140953.72, -325318.72, 2743.1357, 0.21191974, -0.024529994, -140912.92, 105195.63, 0.0000073761885, 10.001272, 9.998787 
1.22505434e+3, 2.8488463e+2, -40971.887, -339290.94, 9388.079, 0.16627121, -0.046986014, -40676.734, 107449.266, 0.000049087277, 10.001728, 9.997811 
1.2250586e+3, 2.9488274e+2, 101652.195, -215799.6, -7801.3047, -0.01660956, -0.065967456, 101843.8, 151989.02, 0.00018153466, 10.002011, 9.997852 
1.2250659e+3, 3.048807e+2, 164316.89, -124730.38, -30462.771, 0.12606764, -0.057448253, 167492.48, 167492.48, 0.00045750884, 10.002007, 9.998131 
1.2250725e+3, 3.148787e+2, 208269.08, 98233.9, -92533.27, 0.26527384, -0.12174956, 260905.3, 260905.3, 0.0008772591, 10.001335, 9.999995 
1.234954e+3, 1.24887414e+2, -1958034.0, -1757552.6, -60652.688, 0.011051497, 0.13684808, -1740631.4, -24520.195, 0.0031899144, 9.9979315, 10.000678 
1.23495884e+3, 1.3488719e+2, -1764557.3, -1660104.9, 18368.4, -0.07172858, 0.05647846, -1656968.9, -38857.21, 0.0017411282, 9.998824, 10.000262 
1.2349655e+3, 1.4488685e+2, -1605439.1, -1545409.3, -1783.0261, -0.117805995, 0.007625509, -1545356.4, -25243.309, 0.0006337289, 9.999292, 10.000131 
1.2349724e+3, 1.5488778e+2, -1468849.8, -1421596.9, 23065.678, -0.0028785127, 0.04512287, -1412204.6, 9897.166, 0.00010392506, 9.999545, 10.00018 
1.23497814e+3, 1.6488755e+2, -1452744.6, -1494748.3, -15660.835, 0.010015891, 0.06715036, -1447548.4, -123444.22, 0.0000017603737, 9.999525, 9.999028 
1.2349831e+3, 1.7488572e+2, -1385464.1, -1403352.5, -51106.082, -0.049187724, -0.05719614, -1342525.5, -116401.664, 0.0, 9.999284, 9.999096 
1.23498976e+3, 1.8488558e+2, -1185366.1, -1100597.0, 11896.02, -0.03651356, -0.042722646, -1098959.3, 29165.623, 0.0, 9.999319, 10.000481 
1.2349982e+3, 1.9488691e+2, -1023512.4, -959462.0, 84802.27, 0.039324924, -0.0019962525, -900839.3, 129269.63, 0.0, 9.999704, 10.000591 
1.2350047e+3, 2.0488724e+2, -1052598.8, -1126630.5, -27471.947, 0.04893337, 0.07060269, -1043518.2, -111412.42, 0.0, 9.99972, 9.998758 
1.23500906e+3, 2.1488622e+2, -1001693.94, -1044141.6, -48950.17, -0.009147181, 0.053669102, -969564.5, -135445.23, 0.0, 9.999367, 9.99882 
1.2350148e+3, 2.2488518e+2, -806873.75, -803234.1, -12125.904, 0.001569734, 0.03287983, -792792.25, -56664.26, 0.0, 9.999596, 9.999705 
1.2350221e+3, 2.348838e+2, -589150.25, -639033.2, 39095.875, 0.08239682, -0.11589587, -567717.5, 70417.484, 0.0, 10.000379, 9.999784 
1.23502865e+3, 2.4488291e+2, -548106.06, -724531.6, 29939.797, 0.08272869, -0.10671583, -543163.6, -3020.3591, 0.0, 10.0006695, 9.998376 
1.23503454e+3, 2.5488222e+2, -466964.8, -625137.5, 23881.63, 0.014654154, -0.053362466, -463437.72, -21282.08, 0.0, 10.00051, 9.998464 
1.2350416e+3, 2.6488173e+2, -321061.0, -435510.3, 12037.009, 0.041308966, 0.033674266, -319808.72, 24352.75, 0.00000016286783, 10.000589, 9.999035 
1.2350497e+3, 2.7488118e+2, -146872.39, -293666.44, 40763.53, 0.15947479, 0.034239955, -136312.36, 109851.76, 0.000006622681, 10.001087, 9.999092 
1.235056e+3, 2.848799e+2, -76108.97, -363484.66, 8883.42, 0.13510506, 0.06924844, -75834.625, 72340.625, 0.000048750662, 10.001524, 9.997745 
1.2350611e+3, 2.948775e+2, 73884.15, -236908.94, 29027.076, -0.016137632, 0.009030873, 76571.94, 126770.49, 0.00018217463, 10.001846, 9.997791 
1.23506784e+3, 3.0487525e+2, 86559.26, -243662.11, -60954.867, 0.09077197, 0.032980017, 97451.51, 97451.51, 0.00045752534, 10.001828, 9.997399 
1.235073e+3, 3.1487176e+2, 92657.04, -73085.64, -80115.11, 0.10508051, -0.10502494, 125051.0, 125051.0, 0.00087459444, 10.001051, 9.99895 
1.2449525e+3, 1.2488185e+2, -1707380.9, -1718205.3, 21746.809, -0.012227647, 0.10556588, -1690383.0, 25779.967, 0.003475539, 10.000034, 9.999921 
1.244959e+3, 1.3488133e+2, -1816048.3, -1788316.3, 13890.278, 0.06799168, 0.08602162, -1782555.6, -164383.88, 0.0019075654, 9.998913, 9.999346 
1.2449646e+3, 1.4488107e+2, -1707785.1, -1537266.0, 39217.984, -0.07129978, 0.06683174, -1528678.8, -8505.238, 0.0007030745, 9.998348, 10.000633 
1.24497145e+3, 1.5488215e+2, -1542775.1, -1404745.9, -9100.854, -0.005831098, 0.06477545, -1404148.5, 18009.186, 0.00011956255, 9.998797, 10.000658 
1.24497764e+3, 1.648818e+2, -1498097.6, -1541435.0, 9435.655, 0.02435089, 0.0652366, -1496132.4, -171972.81, 0.0000023468863, 9.999336, 9.998792 
1.2449837e+3, 1.7487976e+2, -1282964.4, -1377953.4, 26423.1, 0.04883047, -0.05526907, -1276109.0, -49926.824, 0.0, 10.000111, 9.998862 
1.24499045e+3, 1.8487948e+2, -1080414.0, -1070633.9, 91327.47, 0.07010714, -0.032569993, -984065.7, 144119.33, 0.0, 10.000131, 10.000291 
1.24499805e+3, 1.9488068e+2, -1083903.3, -1012468.06, 9436.725, 0.07414776, 0.013304134, -1011242.5, 18928.127, 0.0, 9.999387, 10.0003805 
1.2450042e+3, 2.04881e+2, -1062851.8, -1109046.3, -64752.777, 0.06012111, 0.08511989, -1017200.1, -85032.64, 0.0, 9.999548, 9.9989605 
1.2450093e+3, 2.148801e+2, -805978.0, -924649.6, -27650.207, 0.034462955, 0.057560112, -799851.8, 34327.336, 0.0, 10.000595, 9.999048 
1.2450155e+3, 2.2487928e+2, -620418.06, -704842.75, 52853.305, 0.05764929, 0.04230446, -594989.06, 141196.63, 0.0, 10.000871, 9.99975 
1.2450229e+3, 2.3487817e+2, -588236.6, -627384.06, 5581.6245, 0.12723261, -0.08452694, -587456.4, 50733.934, 0.0, 10.000369, 9.999849 
1.24502964e+3, 2.4487713e+2, -577727.94, -749301.0, 26835.824, 0.12859872, -0.086269155, -573628.5, -33428.64, 0.0, 10.000521, 9.99827 
1.2450359e+3, 2.5487596e+2, -355936.94, -579572.6, 24601.867, 0.062243693, -0.072421946, -353262.5, 88954.39, 0.0, 10.001327, 9.998367 
1.24504276e+3, 2.6487544e+2, -188289.25, -376882.25, 38637.2, 0.065518975, 0.012059772, -180680.58, 163543.2, 0.000000050542315, 10.001492, 9.999014 
1.2450503e+3, 2.7487522e+2, -173255.02, -314236.75, 9292.094, 0.13449953, 0.051968284, -172645.2, 73578.36, 0.0000061370592, 10.0009, 9.999061 
1.2450571e+3, 2.84874e+2, -156423.22, -371385.66, 33399.043, 0.1281377, 0.083727054, -151353.52, -3119.8408, 0.000049451548, 10.000856, 9.998006 
1.24506325e+3, 2.9487136e+2, 24881.229, -221775.25, 35560.84, 0.05807664, -0.025826273, 29905.736, 80163.586, 0.00018750013, 10.001377, 9.998104 
1.2450703e+3, 3.0486947e+2, 97220.914, -271402.06, 1765.9398, 0.16072097, 0.031776056, 97229.37, 97229.37, 0.000470274, 10.002005, 9.997143 
1.24507494e+3, 3.1486616e+2, 262687.94, -69528.67, -53856.793, 0.13073911, -0.062694766, 271200.72, 271200.72, 0.0008945071, 10.002543, 9.998266 
1.2549525e+3, 1.2487599e+2, -1771054.3, -1876296.1, 49987.74, -0.10249401, 0.016117185, -1751096.0, -34882.84, 0.0037739007, 10.000132, 9.998794 
1.2549594e+3, 1.3487558e+2, -1868010.6, -1906538.6, -16853.723, 0.18142076, 0.08862819, -1861678.8, -243452.06, 0.0020822603, 9.998953, 9.998519 
1.2549643e+3, 1.4487544e+2, -1698931.6, -1527315.9, 36182.77, 0.012296255, 0.12075793, -1519999.3, 230.75989, 0.0007764397, 9.998381, 10.000685 
1.2549695e+3, 1.5487558e+2, -1535786.0, -1394469.8, 24062.146, -0.12022114, 0.019723814, -1390485.1, 31737.447, 0.00013646827, 9.998816, 10.000719 
1.254976e+3, 1.6487582e+2, -1438560.6, -1424216.0, 17281.162, -0.11898892, 0.035966557, -1412677.9, -88460.96, 0.0000030208696, 9.999356, 9.99959 
1.254984e+3, 1.748761e+2, -1224875.4, -1255605.9, 69744.87, 0.03136075, 0.061432425, -1168823.3, 57390.633, 0.0, 10.000097, 9.999709 
1.2549911e+3, 1.8487565e+2, -1207133.5, -1323799.1, 44276.234, 0.084602945, 0.10820323, -1192233.1, -64013.08, 0.0, 10.000085, 9.99858 
1.2549973e+3, 1.9487402e+2, -1219254.3, -1274129.6, -2653.9983, 0.036674295, 0.048595328, -1219126.3, -188886.17, 0.0, 9.999298, 9.998629 
1.2550035e+3, 2.0487347e+2, -990278.44, -917991.4, -43498.49, -0.0017856637, 0.05285114, -897579.9, 34665.605, 0.0, 9.999374, 10.0003605 
1.2550095e+3, 2.1487378e+2, -737762.94, -732253.25, 28938.72, -0.031695716, 0.005128266, -705938.56, 128299.41, 0.0, 10.000374, 10.000483 
1.255016e+3, 2.2487381e+2, -710935.8, -833241.7, 17380.129, -0.0125661, 0.04153173, -708514.0, 27721.594, 0.0, 10.000619, 9.998985 
1.2550229e+3, 2.3487324e+2, -674579.5, -758942.7, 4111.475, 0.071824744, 0.04523129, -674379.56, -36137.906, 0.0, 10.000161, 9.999046 
1.2550302e+3, 2.4487235e+2, -580582.0, -703723.8, 39257.227, 0.09945747, 0.07593684, -569131.6, -28880.193, 0.0, 10.000298, 9.998691 
1.2550376e+3, 2.548708e+2, -359634.75, -541722.1, 71950.805, 0.06675163, 0.012609876, -334635.88, 107632.53, 0.0, 10.001121, 9.998731 
1.2550442e+3, 2.6486966e+2, -243114.94, -437428.25, -31.91977, 0.028204426, 0.034283724, -243114.92, 101164.81, 0.00000007625481, 10.001267, 9.998704 
1.25505e+3, 2.7486867e+2, -220542.2, -369543.03, 8449.076, -0.010866211, 0.024491604, -220064.63, 26223.143, 0.0000061507535, 10.000716, 9.99877 
1.2550569e+3, 2.8486702e+2, -146150.34, -310841.94, 38745.156, -0.007631056, 0.0040414315, -137490.55, 10810.526, 0.000051588533, 10.00069, 9.998496 
1.2550649e+3, 2.948643e+2, 39610.793, -159336.94, 76742.96, 0.055221766, -0.17150842, 65773.44, 116097.27, 0.00020006, 10.00124, 9.998595 
1.255073e+3, 3.0486327e+2, 92061.61, -252534.45, 9470.35, 0.18953747, -0.060583185, 92321.68, 92321.68, 0.0005036429, 10.001876, 9.997331 
1.255077e+3, 3.1486186e+2, 188619.45, -157420.9, 5818.425, 0.01725269, 0.012367715, 188717.25, 188717.25, 0.0009532297, 10.002257, 9.997801 
1.2649521e+3, 1.248685e+2, -2092115.0, -1968052.3, -20427.477, -0.014758283, -0.031850804, -1964775.4, -248487.84, 0.004085261, 9.997675, 9.999362 
1.2649582e+3, 1.348691e+2, -1776844.8, -1770725.0, -74101.375, 0.16573766, 0.0766445, -1699620.4, -81332.17, 0.0022650692, 9.999226, 9.999306 
1.2649642e+3, 1.4486913e+2, -1568161.4, -1503951.6, 52093.04, 0.12673359, 0.104014926, -1474864.9, 45424.23, 0.00085386867, 9.999445, 10.00034 
1.264969e+3, 1.5486874e+2, -1583416.4, -1454232.0, -29981.256, -0.034767754, -0.011459864, -1447613.0, -25323.922, 0.00015477135, 9.998662, 10.000383 
1.2649755e+3, 1.6486906e+2, -1512852.4, -1403811.6, 13214.204, -0.059084892, 0.005412389, -1402233.1, -77950.38, 0.0000038088367, 9.998622, 10.0000725 
1.2649837e+3, 1.7486992e+2, -1263211.9, -1222801.6, 4698.449, 0.026830353, 0.042838827, -1222262.5, 4009.0244, 0.0, 9.999618, 10.000167 
1.2649909e+3, 1.8486953e+2, -1234502.1, -1363995.4, 1937.9724, 0.06668474, 0.083771385, -1234473.1, -106196.59, 0.0, 10.000015, 9.998334 
1.264997e+3, 1.9486746e+2, -1164397.0, -1273056.0, 29765.322, 0.054447882, 0.005859935, -1156777.6, -126475.38, 0.0, 9.999803, 9.998385 
1.2650032e+3, 2.048668e+2, -935485.5, -879778.8, 70678.14, 0.037296943, 0.0057080723, -831663.7, 100645.45, 0.0, 9.999703, 10.000459 
1.26501e+3, 2.1486728e+2, -828118.8, -762638.44, 6182.712, 0.006892072, -0.03635765, -762059.75, 72239.7, 0.0, 9.9997015, 10.000589 
1.2650163e+3, 2.2486748e+2, -814251.25, -893936.56, -15439.775, 0.013671043, 0.015128286, -811364.25, -75068.22, 0.0, 9.99993, 9.998917 
1.265023e+3, 2.3486714e+2, -652089.4, -754089.94, -4800.5244, 0.07067268, 0.05140779, -651863.94, -13562.533, 0.0, 10.000326, 9.999011 
1.2650304e+3, 2.4486645e+2, -541520.06, -651045.4, 97623.17, 0.10227928, 0.08663749, -484348.66, 55960.45, 0.0, 10.000403, 9.999013 
1.2650384e+3, 2.5486505e+2, -476501.4, -561929.4, 92908.69, 0.10924366, 0.0046202894, -416958.34, 25364.303, 0.0, 10.000147, 9.999072 
1.2650454e+3, 2.648638e+2, -369329.8, -513130.75, 55197.613, 0.07853396, 0.008269887, -350585.63, -6251.4595, 0.00000015326442, 10.000474, 9.998566 
1.2650512e+3, 2.7486247e+2, -131977.52, -336476.63, 33681.73, 0.008639165, -0.020597445, -126572.85, 119773.67, 0.0000068361555, 10.001382, 9.998666 
1.2650582e+3, 2.8486085e+2, -8520.965, -248631.1, 82214.94, 0.019510297, -0.0344887, 16931.754, 165292.66, 0.000055437977, 10.001633, 9.998483 
1.265067e+3, 2.9485852e+2, 54546.367, -157120.83, 45785.32, 0.13586716, -0.16227952, 64025.586, 114406.625, 0.00021969865, 10.001343, 9.998576 
1.2650752e+3, 3.048575e+2, 126900.98, -134531.4, 35209.79, 0.24868414, -0.09659687, 131560.02, 131560.02, 0.00055763865, 10.001701, 9.998217 
1.2650795e+3, 3.1485662e+2, 231968.78, -80924.66, 2483.1487, 0.04511384, -0.04999545, 231988.48, 231988.48, 0.001054668, 10.002344, 9.998279 
1.2749507e+3, 1.2485989e+2, -1902073.5, -1593683.6, -74021.84, 0.003099987, 0.01695009, -1576836.8, 139544.34, 0.0044096503, 9.997756, 10.001889 
1.2749547e+3, 1.3486192e+2, -1619342.1, -1447738.1, -7687.5103, -0.13446797, 0.04527386, -1447394.4, 170961.14, 0.0024558255, 9.999229, 10.001526 
1.2749638e+3, 1.448622e+2, -1608064.3, -1603918.0, 3293.8994, 0.08524874, 0.016839446, -1602099.1, -81748.6, 0.00093550276, 9.999512, 9.999622 
1.2749696e+3, 1.548618e+2, -1631378.9, -1565541.9, -42994.273, 0.12228881, -0.027876697, -1544311.1, -121955.36, 0.00017466526, 9.998704, 9.9996 
1.2749758e+3, 1.648615e+2, -1495374.8, -1381834.6, 30224.572, 0.067001514, -0.037416134, -1374290.1, -49932.95, 0.0000047674703, 9.998675, 10.0002 
1.2749824e+3, 1.748612e+2, -1254297.8, -1205189.6, 58581.62, -0.09404968, -0.13130966, -1166224.4, 60131.414, 0.0, 9.999614, 10.000291 
1.2749892e+3, 1.8486112e+2, -1164527.4, -1201194.0, -20518.402, -0.12736174, -0.120012365, -1155345.0, -26990.35, 0.0, 9.999946, 9.999481 
1.2749964e+3, 1.94861e+2, -1096628.3, -1109273.5, 39359.28, -0.011624752, -0.12370651, -1063087.0, -32730.117, 0.0, 9.999702, 9.999557 
1.2750033e+3, 2.048609e+2, -1044782.8, -1069585.9, 51619.84, 0.03628566, -0.06497924, -1004095.6, -71736.625, 0.0, 9.999545, 9.999232 
1.27501e+3, 2.1486054e+2, -950429.94, -964280.3, 21194.662, 0.018853161, -0.06464961, -935057.75, -100693.64, 0.0, 9.999475, 9.999316 
1.2750165e+3, 2.2486033e+2, -801348.0, -807881.9, -17491.008, 0.0035776817, -0.02824019, -786821.44, -50454.742, 0.0, 9.999683, 9.999622 
1.2750228e+3, 2.3485985e+2, -637250.7, -668673.8, 27318.959, -0.010952879, -0.07842851, -621447.5, 16922.553, 0.0, 10.000094, 9.999708 
1.2750301e+3, 2.4485935e+2, -561967.5, -636549.6, 73923.94, -0.0013779888, -0.06409417, -516461.4, 23912.127, 0.0, 10.000166, 9.999222 
1.2750383e+3, 2.5485867e+2, -489879.38, -538891.8, 102642.086, 0.044273626, -0.099561706, -408858.56, 33520.484, 0.0, 9.999932, 9.999331 
1.2750462e+3, 2.6485795e+2, -405471.0, -536954.44, 73550.76, 0.06737119, -0.060389232, -372563.4, -28177.219, 0.00000020123079, 10.000258, 9.998503 
1.2750533e+3, 2.748566e+2, -168384.89, -364422.6, 87857.61, 0.053997118, -0.084399045, -134773.0, 111626.97, 0.0000077157165, 10.001183, 9.998568 
1.2750606e+3, 2.8485534e+2, -69812.914, -340228.25, 53519.44, 0.0682271, -0.026488882, -59605.848, 88808.01, 0.000060411407, 10.001476, 9.997928 
1.2750687e+3, 2.9485404e+2, -13482.759, -250117.63, 60127.324, 0.13015592, -0.0035570913, 918.72186, 51348.016, 0.00024271311, 10.001137, 9.998035 
1.2750767e+3, 3.0485204e+2, 190896.25, 39598.85, 50326.35, 0.18783587, -0.06826253, 206107.16, 206107.16, 0.0006225909, 10.001528, 9.999495 
1.2750815e+3, 3.1485093e+2, 259671.06, 64217.29, 65530.42, -0.049076237, -0.18780726, 279608.03, 279608.03, 0.0011840118, 10.001994, 9.999432 
1.2849508e+3, 1.2485362e+2, -1766254.1, -1486001.3, 94389.41, 0.21493265, 0.079476595, -1457175.6, 259270.94, 0.0047468157, 9.998466, 10.002294 
1.2849535e+3, 1.3485502e+2, -1645470.5, -1436405.3, 27068.31, -0.1521886, 0.020557769, -1432957.5, 185465.98, 0.0026545508, 9.998918, 10.001751 
1.2849632e+3, 1.4485538e+2, -1696070.4, -1634469.0, -20354.422, 0.112284504, -0.017500304, -1628351.1, -107934.85, 0.0010215283, 9.99889, 9.999704 
1.2849693e+3, 1.5485547e+2, -1567721.3, -1518866.0, -41580.816, 0.21693818, -0.018668532, -1495068.4, -72650.44, 0.00019628371, 9.999092, 9.999726 
1.2849757e+3, 1.648552e+2, -1423608.3, -1372252.5, 120498.766, 0.17776023, -0.023320407, -1274726.1, 49693.9, 0.0000059623408, 9.999249, 10.000007 
1.2849823e+3, 1.7485446e+2, -1299094.6, -1244466.8, 89119.195, -0.049112204, -0.1393703, -1178569.8, 47853.313, 0.0, 9.999373, 10.000141 
1.2849891e+3, 1.8485445e+2, -1204464.4, -1165996.9, -13572.612, -0.108609356, -0.13750711, -1161690.1, -33269.305, 0.0, 9.9994545, 9.999955 
1.2849963e+3, 1.9485481e+2, -1065989.4, -1039380.1, -40919.074, 0.009830727, -0.13838322, -1009657.06, 20759.617, 0.0, 9.999693, 10.000039 
1.2850031e+3, 2.0485501e+2, -1015228.2, -1064735.5, 17146.303, 0.06561457, -0.06938086, -1009869.75, -77454.28, 0.0, 9.9997835, 9.999156 
1.2850098e+3, 2.1485478e+2, -921059.06, -953777.25, 44830.39, 0.05555317, -0.05101149, -889696.25, -55276.137, 0.0, 9.9997015, 9.999278 
1.2850165e+3, 2.2485435e+2, -769833.94, -785344.06, 77800.69, 0.04000907, -0.03386519, -699402.75, 37021.523, 0.0, 9.999867, 9.999687 
1.2850232e+3, 2.3485345e+2, -603897.2, -641678.0, 37239.11, 0.018589105, -0.13609923, -581031.2, 57400.035, 0.0, 10.000286, 9.999795 
1.2850307e+3, 2.4485289e+2, -483052.97, -616694.0, 71208.26, 0.029298667, -0.12581313, -452223.1, 88212.13, 0.0, 10.000792, 9.999052 
1.2850392e+3, 2.548525e+2, -298330.25, -464715.5, 31091.387, 0.08432585, -0.11121187, -292710.22, 149728.2, 0.0, 10.001337, 9.999157 
1.2850472e+3, 2.6485172e+2, -239687.28, -471133.53, 20786.822, 0.111861505, -0.06240466, -237835.19, 106611.51, 0.00000014147287, 10.001438, 9.998394 
1.2850548e+3, 2.7485004e+2, -182083.25, -384138.78, -3309.247, 0.1034341, -0.10706573, -182029.06, 64435.383, 0.000007879153, 10.001129, 9.998466 
1.2850624e+3, 2.848491e+2, -112035.695, -365695.8, 8213.083, 0.11392841, -0.008094382, -111770.05, 36706.547, 0.00006527563, 10.001218, 9.997874 
1.2850702e+3, 2.948486e+2, 58678.574, -219343.89, 5817.9917, 0.15832584, 0.1011288, 58800.27, 109286.46, 0.000269289, 10.00165, 9.997997 
1.2850781e+3, 3.0484602e+2, 253265.05, 78017.42, 21188.547, 0.18134275, -0.024609663, 255790.48, 255790.48, 0.0006978728, 10.001898, 9.999596 
1.2850837e+3, 3.148451e+2, 253483.77, 81997.35, -127069.055, 0.0015223675, -0.13078168, 321032.56, 321032.56, 0.0013327203, 10.001794, 9.999672 
1.2949482e+3, 1.24850184e+2, -1892510.5, -1741615.5, -29860.787, 0.027388372, 0.18005909, -1735921.1, -19442.238, 0.0050962004, 9.998461, 10.000531 
1.2949544e+3, 1.3484861e+2, -1784597.5, -1708724.4, 54339.504, 0.005311804, 0.005191374, -1680389.0, -61899.24, 0.0028611089, 9.998863, 9.999905 
1.294962e+3, 1.4484875e+2, -1638084.8, -1514986.1, -37344.887, 0.063380204, 0.00495889, -1504542.6, 15943.155, 0.00111182, 9.998898, 10.00052 
1.2949678e+3, 1.5484986e+2, -1509778.3, -1396761.1, -14903.842, 0.11544792, 0.019077577, -1394828.8, 27646.28, 0.000219555, 9.999085, 10.00057 
1.2949748e+3, 1.6485022e+2, -1450407.6, -1432260.8, 104558.67, 0.116540566, 0.056818914, -1336382.6, -11912.138, 0.0000074533, 9.999264, 9.999585 
1.2949827e+3, 1.7484985e+2, -1335301.0, -1317608.5, 108387.53, 0.02703835, 0.019528503, -1217706.8, 8765.595, 0.0, 9.99936, 9.999646 
1.2949897e+3, 1.848496e+2, -1226306.1, -1208880.0, -22888.984, -0.024291223, 0.035877988, -1193101.8, -64627.44, 0.0, 9.999438, 9.999669 
1.2949961e+3, 1.94849e+2, -1098205.8, -1089165.0, -17132.393, -0.0090643065, -0.03407749, -1075966.6, -45485.734, 0.0, 9.999607, 9.999742 
1.2950024e+3, 2.0484914e+2, -963643.06, -916379.9, -4597.562, -0.009150895, -0.0102143865, -915936.8, 16541.63, 0.0, 9.999612, 10.000252 
1.2950091e+3, 2.1484984e+2, -874671.94, -805220.1, 55717.5, -0.023176001, -0.011092157, -774292.94, 60175.49, 0.0, 9.999479, 10.000401 
1.295016e+3, 2.2484954e+2, -848527.7, -888609.25, 77037.1, -0.0171672, -0.011220946, -788967.3, -52497.74, 0.0, 9.999611, 9.999102 
1.2950237e+3, 2.348479e+2, -680305.56, -745779.4, 73145.164, 0.015967885, -0.124255136, -632905.56, 5579.263, 0.0, 10.000049, 9.999195 
1.295032e+3, 2.4484698e+2, -569545.94, -725284.9, 74873.125, 0.049595483, -0.09061757, -539389.3, 1104.9694, 0.0, 10.000503, 9.998438 
1.2950408e+3, 2.5484642e+2, -380076.66, -571656.8, 70117.38, 0.09211967, -0.035688393, -357156.22, 85345.47, 0.0, 10.001084, 9.998537 
1.2950487e+3, 2.648451e+2, -278245.8, -513054.72, -8086.619, 0.08199143, 0.004647656, -277967.63, 66548.44, 0.000000052302592, 10.001261, 9.9981985 
1.2950554e+3, 2.7484292e+2, -223517.78, -421774.3, 4429.407, 0.0136242015, -0.07669476, -223418.88, 23119.87, 0.000007172051, 10.000916, 9.998314 
1.2950629e+3, 2.8484216e+2, -119852.06, -329299.1, 8952.476, 0.0040771742, 0.028473066, -119470.1, 29078.408, 0.00006969282, 10.00099, 9.998233 
1.2950711e+3, 2.948423e+2, 46663.797, -190357.34, 47862.516, 0.0640674, 0.16621253, 55963.93, 106514.65, 0.0003009035, 10.001422, 9.998303 
1.2950793e+3, 3.048395e+2, 159527.72, -88348.414, 4368.9976, 0.08249209, 0.05414075, 159604.7, 159604.7, 0.0007869782, 10.001772, 9.998516 
1.2950855e+3, 3.148396e+2, 168548.34, -18109.514, -85705.45, -0.07185803, 0.15292284, 201930.56, 201930.56, 0.0015032826, 10.001473, 9.999137 
1.3049471e+3, 1.2484576e+2, -1809452.6, -1779760.6, -15365.571, 0.052949365, 0.24547534, -1773240.8, -56720.16, 0.0054552136, 9.999372, 9.999829 
1.3049549e+3, 1.3484296e+2, -1785734.5, -1771661.8, 72790.33, 0.1718112, 0.007859049, -1705568.5, -87023.125, 0.003073975, 9.999137, 9.999335 
1.304961e+3, 1.448428e+2, -1665182.4, -1581518.6, 46814.37, 0.087853685, 0.028021079, -1560569.1, -40022.977, 0.0012055306, 9.998917, 10.000059 
1.3049671e+3, 1.5484373e+2, -1467308.4, -1423478.9, -61069.53, 0.12673937, 0.065786906, -1380511.1, 42027.71, 0.000244213, 9.999565, 10.000156 
1.3049746e+3, 1.6484417e+2, -1376049.8, -1373104.5, 53225.586, 0.14509583, 0.122178614, -1321331.1, 3203.0564, 0.000009295233, 9.999722, 9.999755 
1.3049826e+3, 1.7484401e+2, -1278978.0, -1263544.4, 66396.11, 0.068501145, 0.08989798, -1204418.1, 22115.375, 0.0, 9.999675, 9.999849 
1.3049896e+3, 1.8484384e+2, -1218316.4, -1213651.0, -1148.2125, 0.026978113, 0.107589245, -1213383.8, -84849.516, 0.0, 9.999511, 9.999614 
1.3049959e+3, 1.9484332e+2, -1167503.4, -1123156.4, -10227.501, 0.042229854, 0.0508118, -1120911.3, -90371.42, 0.0, 9.999138, 9.999736 
1.3050023e+3, 2.0484327e+2, -998936.3, -921598.75, 26042.23, 0.04173789, 0.051323727, -913647.0, 18891.662, 0.0, 9.999312, 10.000363 
1.3050091e+3, 2.1484347e+2, -782382.0, -747626.06, -25657.934, 0.021423725, -0.011457159, -734014.94, 100517.73, 0.0, 10.000058, 10.000521 
1.3050164e+3, 2.2484322e+2, -695843.3, -817117.7, 13042.122, 0.010331473, -0.009856877, -694456.56, 42076.17, 0.0, 10.000656, 9.999087 
1.3050242e+3, 2.3484223e+2, -539789.25, -679701.56, 17126.701, 0.014059954, -0.059299856, -537723.25, 100818.89, 0.0, 10.00101, 9.999184 
1.3050328e+3, 2.4484129e+2, -480371.9, -724631.06, 84428.445, 0.055797495, -0.011545612, -454029.97, 86522.53, 0.0, 10.001268, 9.998087 
1.3050427e+3, 2.5484005e+2, -349531.88, -600470.1, 68232.164, 0.14012791, 0.01338843, -332178.97, 110388.42, 0.0, 10.001453, 9.998178 
1.3050507e+3, 2.648383e+2, -252258.03, -531244.6, 10270.065, 0.13919957, 0.043542374, -251880.48, 92705.92, 0.000000026393016, 10.00158, 9.997919 
1.3050568e+3, 2.748358e+2, -133732.28, -415573.84, -27241.29, 0.04003136, -0.040127933, -131123.42, 115488.914, 0.0000066700077, 10.001675, 9.997999 
1.3050638e+3, 2.8483477e+2, -31336.371, -246946.42, 12973.6, -0.0008127821, 0.03806642, -30558.533, 118064.89, 0.00007506801, 10.001431, 9.998576 
1.3050719e+3, 2.9483488e+2, 6345.622, -169802.69, 11265.087, 0.026848461, 0.1345669, 7063.128, 57686.684, 0.00033561388, 10.000971, 9.998652 
1.3050802e+3, 3.0483198e+2, 48824.184, -224154.98, 40943.66, 0.028602898, 0.035756983, 54832.984, 54832.984, 0.0008838956, 10.00137, 9.997776 
1.3050883e+3, 3.148326e+2, 322686.88, 40752.867, -92323.42, 0.011981307, 0.26443893, 350228.94, 350228.94, 0.0016899819, 10.002594, 9.999013 
1.3149475e+3, 1.2483886e+2, -1773443.8, -1719267.9, 77464.375, 0.057779733, 0.11532473, -1664292.0, 52294.043, 0.005819013, 9.999427, 10.00022 
1.3149546e+3, 1.3483809e+2, -1736786.4, -1677872.3, 71793.34, 0.20004211, 0.01950337, -1629727.8, -11137.647, 0.0032902497, 9.99916, 9.999973 
1.3149597e+3, 1.4483757e+2, -1771307.8, -1808490.6, 41024.027, 0.00790707, 0.04634017, -1744859.1, -224261.94, 0.0013013786, 9.998956, 9.998482 
1.314967e+3, 1.5483731e+2, -1587457.8, -1668624.9, -24806.412, 0.12475875, 0.1324128, -1580476.8, -157869.31, 0.00026992275, 9.999548, 9.9984865 
1.3149744e+3, 1.6483708e+2, -1323026.5, -1274990.0, 30757.549, 0.13246273, 0.17496264, -1259983.9, 64627.13, 0.00001153221, 9.99976, 10.000416 
1.3149814e+3, 1.7483675e+2, -1226327.4, -1157926.3, 79094.65, -0.04414233, 0.05405312, -1105954.6, 120653.484, 0.0, 9.999679, 10.000576 
1.3149884e+3, 1.8483706e+2, -1209601.0, -1178215.1, -33905.57, -0.08778504, 0.06730529, -1156546.9, -27945.205, 0.0, 9.999445, 9.999884 
1.3149953e+3, 1.9483769e+2, -1166438.8, -1094717.9, -11412.748, 0.028781038, 0.100160584, -1092945.6, -62351.29, 0.0, 9.999027, 9.999983 
1.3150023e+3, 2.0483737e+2, -1087247.9, -1064888.3, 39017.703, 0.080723, 0.105470575, -1035480.25, -102883.91, 0.0, 9.999145, 9.999458 
1.3150099e+3, 2.1483567e+2, -879052.6, -904622.44, 20625.64, 0.062021434, -0.051685847, -867570.9, -32958.74, 0.0, 9.999861, 9.99954 
1.3150169e+3, 2.2483537e+2, -695747.25, -753094.06, 9786.259, -0.013701561, -0.033913758, -694123.25, 42490.996, 0.0, 10.000395, 9.999648 
1.315024e+3, 2.3483624e+2, -536446.2, -615195.75, 49194.082, -0.12627439, 0.044426836, -512809.63, 125794.99, 0.0, 10.000768, 9.999743 
1.3150328e+3, 2.4483572e+2, -522629.66, -751303.0, 73396.586, -0.09521147, 0.11156064, -501098.97, 39511.316, 0.0, 10.001009, 9.998028 
1.3150439e+3, 2.5483358e+2, -389150.34, -626944.56, 92922.92, 0.08860964, 0.051520843, -357146.2, 85487.54, 0.0, 10.001212, 9.998113 
1.3150525e+3, 2.6483136e+2, -315600.5, -610695.6, -1465.9917, 0.13736592, 0.056180082, -315593.22, 29064.283, 0.000000066602475, 10.00136, 9.997477 
1.3150588e+3, 2.7482867e+2, -200969.73, -497875.78, 371.75076, 0.039604757, -0.00020612514, -200969.27, 45715.965, 0.0000067822207, 10.001446, 9.997537 
1.3150653e+3, 2.8482714e+2, -30466.875, -216174.45, -18595.59, -0.042813595, 0.037276424, -28623.135, 120076.336, 0.000081610815, 10.001291, 9.998864 
1.315072e+3, 2.948264e+2, -8430.362, -144644.67, 17222.719, -0.10463684, 0.014936686, -6286.491, 44416.984, 0.00036944333, 10.000724, 9.998952 
1.3150804e+3, 3.048236e+2, -14871.514, -314418.6, 76220.445, -0.13015056, -0.062266998, 3407.524, 3407.524, 0.000976967, 10.001193, 9.997237 
1.3150911e+3, 3.148239e+2, 283893.03, 50658.99, 14043.66, -0.034812234, 0.18663138, 284735.6, 284735.6, 0.0018699723, 10.002222, 9.999255 
1.3249464e+3, 1.2483096e+2, -1939740.9, -1800102.8, 83758.07, 0.09941249, 0.032216728, -1760880.0, -44218.008, 0.006183249, 9.998252, 10.000248 
1.3249537e+3, 1.3483153e+2, -1640530.1, -1602047.0, -75835.86, 0.17819753, 0.05118534, -1543049.8, 75606.055, 0.0035072896, 9.999708, 10.00022 
1.32496e+3, 1.4483124e+2, -1589727.3, -1734228.8, -28056.475, 0.08388598, 0.092300326, -1584471.0, -63809.254, 0.0013982238, 10.000257, 9.99836 
1.3249668e+3, 1.5483059e+2, -1435808.3, -1605371.3, -6994.3584, 0.11672686, 0.15024906, -1435520.3, -12845.178, 0.00029637254, 10.000636, 9.998387 
1.3249743e+3, 1.6483025e+2, -1263274.3, -1260096.6, 76179.195, 0.12655279, 0.19004783, -1185489.8, 139190.25, 0.000014169166, 10.000226, 10.000289 
1.3249813e+3, 1.7483003e+2, -1327548.6, -1228008.6, 25112.576, 0.013857519, 0.093643114, -1222031.9, 4645.5376, 0.0, 9.999054, 10.000404 
1.3249883e+3, 1.848301e+2, -1247099.3, -1187048.9, -53199.87, -0.018945836, 0.090584524, -1155986.1, -27313.188, 0.0, 9.999152, 9.999965 
1.3249953e+3, 1.9483016e+2, -910131.3, -964263.7, -77151.57, 0.054653607, 0.060783815, -855436.0, 175233.17, 0.0, 10.000748, 10.0000515 
1.3250026e+3, 2.0482972e+2, -849948.75, -984236.56, -15390.616, 0.10751945, 0.063990824, -848207.44, 84464.78, 0.0, 10.000937, 9.999141 
1.32501e+3, 2.1482845e+2, -931900.25, -962210.1, -18225.06, 0.12661389, -0.019191677, -923352.3, -88667.23, 0.0, 9.9996605, 9.999234 
1.3250175e+3, 2.2482814e+2, -846022.4, -819519.5, 40803.75, 0.05010634, 0.013010641, -789869.3, -53181.484, 0.0, 9.999347, 9.9997 
1.3250245e+3, 2.3482867e+2, -630270.06, -645856.0, 7418.38, -0.105248414, 0.05005442, -627303.75, 11378.089, 0.0, 10.000082, 9.999858 
1.3250338e+3, 2.448282e+2, -537105.44, -734378.06, 54747.027, -0.10106128, 0.107399, -522930.6, 17756.05, 0.0, 10.000813, 9.998232 
1.3250448e+3, 2.5482643e+2, -328932.56, -570314.4, 59352.11, 0.06533515, 0.064946175, -315128.22, 127577.51, 0.0, 10.001519, 9.9983425 
1.325054e+3, 2.6482445e+2, -222103.42, -550634.56, 16079.991, 0.1252345, 0.07750997, -221318.25, 123408.0, 0.0000000978673, 10.0019455, 9.997601 
1.3250607e+3, 2.748219e+2, -91337.72, -427738.88, 21301.553, 0.06837755, 0.020874295, -89994.23, 156757.78, 0.000006920427, 10.00213, 9.9976845 
1.3250674e+3, 2.848201e+2, 58416.074, -224945.6, 19377.836, 0.013834172, 0.04549168, 59735.098, 208503.9, 0.000086783395, 10.002151, 9.998384 
1.325074e+3, 2.9481873e+2, 165088.23, -116504.984, -51837.773, -0.033595543, 0.013538432, 174327.75, 225107.28, 0.0003950438, 10.002163, 9.998452 
1.3250822e+3, 3.0481577e+2, 101172.586, -276778.3, 65068.273, -0.099418476, -0.04470952, 112061.09, 112061.09, 0.0010503886, 10.002095, 9.997051 
1.3250934e+3, 3.1481487e+2, 247763.36, 64571.434, -28192.307, 0.021498967, 0.10542348, 252003.86, 252003.86, 0.0020140882, 10.001842, 9.999526 
1.3349432e+3, 1.2482235e+2, -1942530.9, -1805264.9, 35816.934, -0.13256985, 0.022712696, -1796481.3, -79735.445, 0.0065457188, 9.998252, 10.000211 
1.3349517e+3, 1.348233e+2, -1658720.1, -1636821.9, -21211.74, -0.035961792, 0.100862384, -1623900.1, -5157.7637, 0.0037237175, 9.999696, 9.999986 
1.3349614e+3, 1.4482367e+2, -1473094.3, -1508199.5, -37267.31, 0.15576944, 0.14459439, -1449452.9, 71288.61, 0.0014951822, 10.000312, 9.999894 
1.3349664e+3, 1.5482368e+2, -1323561.3, -1379807.1, 23843.217, -0.034165327, 0.11451723, -1314814.1, 107926.67, 0.00032323142, 10.000654, 9.999933 
1.3349734e+3, 1.6482379e+2, -1335577.8, -1407097.3, 12766.777, -0.02092455, 0.17257963, -1333367.1, -8627.022, 0.000017128494, 10.000216, 9.999283 
1.3349816e+3, 1.7482391e+2, -1408700.6, -1383710.3, -4724.4854, 0.10956727, 0.2123681, -1382846.9, -156106.6, 0.00000000003443261, 9.999003, 9.999357 
1.3349889e+3, 1.8482313e+2, -1264711.5, -1215597.5, -12898.521, 0.09766819, 0.18387616, -1212416.1, -83669.734, 0.0, 9.999106, 9.999797 
1.3349956e+3, 1.9482091e+2, -933792.94, -993687.7, -1804.6744, -0.009952765, -0.059595864, -933738.6, 97024.63, 0.0, 10.00065, 9.999903 
1.3350026e+3, 2.0482044e+2, -853793.06, -954128.8, -80452.234, -0.009752068, -0.06589354, -809148.6, 123616.586, 0.0, 10.000774, 9.999429 
1.3350096e+3, 2.1482162e+2, -943871.9, -938800.3, -49539.664, 0.088245474, 0.069156095, -891731.56, -56978.496, 0.0, 9.999446, 9.999505 
1.3350172e+3, 2.2482142e+2, -909293.1, -897638.25, 54996.566, 0.0625306, 0.11878632, -848161.25, -111406.39, 0.0, 9.999116, 9.9992695 
1.3350253e+3, 2.348195e+2, -693893.44, -729582.9, 54461.246, -0.06458477, -0.04531253, -654427.94, -15654.456, 0.0, 9.9998665, 9.999387 
1.3350345e+3, 2.4481867e+2, -537223.0, -679849.5, 65419.34, -0.1140044, -0.02591343, -511761.94, 29019.998, 0.0, 10.0005865, 9.998709 
1.3350451e+3, 2.5481862e+2, -329251.0, -519318.22, 104050.43, -0.07849094, 0.053763483, -283366.63, 159416.81, 0.0, 10.0013, 9.998795 
1.3350545e+3, 2.6481766e+2, -208043.84, -475197.1, 6241.4194, -0.042524032, 0.11660122, -207898.11, 136894.63, 0.00000008871969, 10.001744, 9.998215 
1.3350624e+3, 2.7481547e+2, -82882.9, -349255.97, 47661.01, -0.011813345, 0.026765114, -74611.93, 172201.25, 0.000006673535, 10.001876, 9.998342 
1.33507e+3, 2.8481358e+2, -60448.52, -427614.13, 754.37354, 0.018051093, 0.074933045, -60446.973, 88385.24, 0.00008871381, 10.001957, 9.997087 
1.3350776e+3, 2.948118e+2, 36444.438, -330959.4, -26834.508, 0.06620376, 0.13536552, 38394.035, 89246.26, 0.00040777776, 10.001934, 9.997093 
1.335085e+3, 3.048086e+2, 91147.09, -259322.3, 47136.508, -0.054979842, 0.11217171, 97376.03, 97376.03, 0.0010944809, 10.00193, 9.997246 
1.3350946e+3, 3.1480518e+2, 202258.06, 56963.93, 46541.953, -0.105933905, -0.01815202, 215888.17, 215888.17, 0.002108087, 10.00146, 9.999662 
1.3449417e+3, 1.2481389e+2, -2017434.1, -1811288.8, 25119.893, -0.049236, 0.032398295, -1808272.0, -91442.93, 0.0069055543, 9.99762, 10.000465 
1.3449506e+3, 1.3481538e+2, -1815273.9, -1683995.5, 40248.625, -0.026774554, 0.14137426, -1672638.1, -53816.67, 0.0039389143, 9.998519, 10.000221 
1.3449615e+3, 1.4481626e+2, -1639691.0, -1499975.1, 16339.933, 0.22372924, 0.1856547, -1498089.6, 22725.234, 0.0015916337, 9.998797, 10.000681 
1.3449664e+3, 1.5481651e+2, -1488926.9, -1371595.0, -15791.539, -0.014491679, 0.101927556, -1369506.9, 53302.156, 0.0003501717, 9.999146, 10.000718 
1.3449734e+3, 1.6481675e+2, -1428907.1, -1470509.9, -8854.142, 0.00018998496, 0.14111604, -1427101.1, -102295.125, 0.000020254476, 9.999644, 9.999129 
1.344982e+3, 1.7481683e+2, -1235222.3, -1315334.8, 1906.9454, 0.18386182, 0.1951607, -1235176.9, -8369.031, 0.0000000014653116, 10.000267, 9.999215 
1.3449894e+3, 1.8481609e+2, -1130063.6, -1185658.4, 79006.45, 0.18616386, 0.19252324, -1074107.1, 54708.17, 0.0, 10.0001745, 9.999485 
1.344996e+3, 1.9481406e+2, -1134825.6, -1123718.9, 46162.58, 0.027174471, -0.002356274, -1082776.8, -51944.195, 0.0, 9.999417, 9.9995985 
1.345003e+3, 2.0481351e+2, -998678.44, -1023880.1, -25675.799, 0.0064190044, -0.0012911825, -982678.06, -49842.113, 0.0, 9.999759, 9.999441 
1.3450103e+3, 2.1481436e+2, -671932.94, -797535.3, -51942.723, 0.11417031, 0.09279668, -653235.44, 181590.6, 0.0, 10.001266, 9.999587 
1.345018e+3, 2.2481388e+2, -592252.44, -810663.4, 62231.9, 0.10961102, 0.13835524, -575765.25, 161065.6, 0.0, 10.001581, 9.998683 
1.3450262e+3, 2.348117e+2, -621122.2, -756909.5, 20739.781, 0.007169396, 0.010250347, -618025.06, 20828.807, 0.0, 10.000649, 9.998819 
1.3450356e+3, 2.4481064e+2, -556965.75, -659182.3, 73910.84, -0.056260232, 0.022600995, -518213.75, 22650.908, 0.0, 10.000319, 9.998991 
1.345046e+3, 2.5481045e+2, -406627.94, -519462.4, 65611.09, -0.07978331, 0.05926483, -376513.56, 66351.695, 0.0, 10.000617, 9.999128 
1.3450556e+3, 2.6480982e+2, -309302.6, -487892.0, -24591.771, -0.06601183, 0.12076258, -305978.2, 38892.19, 0.000000062099474, 10.0009, 9.998534 
1.3450639e+3, 2.7480823e+2, -153210.02, -349508.1, -48319.36, -0.008304223, 0.06461909, -141960.73, 104923.85, 0.0000065347235, 10.001231, 9.998653 
1.3450721e+3, 2.8480628e+2, -89670.48, -456671.3, -16817.727, 0.041543644, 0.096096754, -88901.42, 60002.95, 0.00008986311, 10.0018, 9.996972 
1.34508e+3, 2.94804e+2, 138343.61, -280392.78, -548.15485, 0.08684065, 0.11716238, 138344.31, 189273.58, 0.00041373618, 10.002635, 9.997097 
1.3450874e+3, 3.0480137e+2, 228213.72, -195355.17, 121732.24, -0.041676424, 0.14534694, 260706.56, 260706.56, 0.001115336, 10.00284, 9.997262 
1.3450974e+3, 3.1479815e+2, 296758.47, 82192.266, 57170.652, 0.0045946073, 0.031581614, 311040.75, 311040.75, 0.0021558118, 10.002195, 9.999466 
1.3549392e+3, 1.2480543e+2, -1977781.5, -1725821.4, -93336.97, -0.13814415, 0.01613618, -1695012.5, 21900.79, 0.0072628423, 9.997625, 10.001047 
1.3549507e+3, 1.3480796e+2, -1772714.9, -1589497.8, 81582.375, 0.09177334, 0.163508, -1558436.8, 60455.117, 0.004152666, 9.998503, 10.000878 
1.3549599e+3, 1.448091e+2, -1651996.0, -1516724.9, 4820.898, 0.12602316, 0.2113439, -1516553.4, 4328.2314, 0.0016872559, 9.998761, 10.000581 
1.3549665e+3, 1.548091e+2, -1493860.3, -1383166.5, 14554.269, 0.03985053, 0.10754987, -1381284.9, 41595.06, 0.0003769789, 9.999146, 10.00064 
1.354974e+3, 1.6480905e+2, -1376574.0, -1362968.9, -5525.681, 0.056654945, 0.084034294, -1361007.4, -36128.582, 0.000023370363, 9.999646, 9.999867 
1.354982e+3, 1.7480867e+2, -1191579.8, -1214244.0, 39940.906, 0.12114234, 0.017939057, -1161394.5, 65486.914, 0.0000000068048798, 10.000217, 9.999935 
1.3549891e+3, 1.8480892e+2, -1175977.8, -1258515.0, 33237.484, 0.10501729, 0.10351537, -1164257.4, -35377.285, 0.0, 10.000088, 9.999021 
1.3549957e+3, 1.948096e+2, -1186791.1, -1204353.3, 34997.266, 0.03317781, 0.22623684, -1159490.1, -128612.625, 0.0, 9.999301, 9.9991 
1.3550031e+3, 2.0480894e+2, -1041344.94, -1073452.1, 10631.442, 0.02111788, 0.25387973, -1038143.75, -105259.086, 0.0, 9.999594, 9.999178 
1.3550113e+3, 2.1480657e+2, -725073.9, -854373.5, 18114.957, 0.077123836, 0.05153985, -722583.94, 112320.82, 0.0, 10.001033, 9.9993105 
1.3550194e+3, 2.2480536e+2, -681145.2, -931228.7, 7621.164, 0.062737405, 0.075415954, -680913.1, 56004.094, 0.0, 10.001312, 9.997981 
1.3550268e+3, 2.3480518e+2, -705651.25, -877089.06, 1734.6464, -0.020340754, 0.21500582, -705633.7, -66709.76, 0.0, 10.000416, 9.998104 
1.355036e+3, 2.4480414e+2, -583126.2, -659121.6, 67111.7, -0.06379566, 0.2621703, -544001.9, -3067.485, 0.0, 10.000084, 9.999105 
1.355047e+3, 2.548019e+2, -428917.13, -512862.9, 95201.375, -0.0750449, 0.07859209, -366846.63, 76104.74, 0.0, 10.000391, 9.999284 
1.3550565e+3, 2.648007e+2, -341362.78, -506276.88, -28838.943, -0.08218197, 0.07639251, -336465.1, 8495.89, 0.000000036385206, 10.000691, 9.99851 
1.3550647e+3, 2.7480018e+2, -194212.14, -378310.13, -13373.849, -0.067161046, 0.13183896, -193245.67, 53721.047, 0.0000068750182, 10.000994, 9.998572 
1.3550729e+3, 2.8479835e+2, -46739.17, -319510.6, -2896.0942, -0.08104218, 0.12837851, -46708.426, 102275.45, 0.00009120505, 10.001597, 9.998008 
1.3550808e+3, 2.9479504e+2, 172051.17, -148086.06, 54270.797, -0.13720742, -0.057373337, 181001.14, 232014.89, 0.00041573873, 10.002363, 9.99814 
1.3550888e+3, 3.0479372e+2, 179295.06, -228880.64, 83196.18, -0.20005165, 0.05310433, 195601.08, 195601.08, 0.0011165407, 10.002573, 9.997151 
1.3551006e+3, 3.147931e+2, 177215.33, -63989.223, 99761.37, 0.029954564, 0.21852876, 213129.0, 213129.0, 0.0021572434, 10.001783, 9.998652 
1.3649365e+3, 1.2479674e+2, -1836479.8, -1611153.1, -59609.574, -0.19294009, 0.03047349, -1596355.4, 120644.46, 0.0076198755, 9.998361, 10.001493 
1.3649496e+3, 1.3479885e+2, -1864321.6, -1609494.1, -8441.105, 0.19143713, 0.1064299, -1609214.8, 9764.031, 0.004366158, 9.997724, 10.001134 
1.3649574e+3, 1.4480007e+2, -1818422.0, -1582701.9, -21875.26, 0.08686065, 0.14265615, -1580689.0, -59722.29, 0.0017823466, 9.997556, 10.000701 
1.3649662e+3, 1.5480062e+2, -1532521.9, -1386023.3, -25578.03, 0.117921606, 0.08094088, -1381685.9, 41275.02, 0.0004035849, 9.998823, 10.000765 
1.3649745e+3, 1.6480076e+2, -1373872.8, -1344723.1, -38566.684, 0.14559327, 0.062331505, -1318069.1, 6889.4346, 0.000026350568, 9.999581, 10.000033 
1.3649815e+3, 1.7480025e+2, -1231781.4, -1211782.4, -74440.03, 0.08627242, -0.035233285, -1146673.3, 80288.89, 0.000000016360648, 9.9998455, 10.000137 
1.3649888e+3, 1.8480067e+2, -1166231.0, -1239407.8, -66624.55, 0.07101947, 0.052320138, -1126809.3, 2149.9756, 0.0, 10.00011, 9.999137 
1.3649964e+3, 1.9480187e+2, -1012196.94, -1099415.3, -54819.6, 0.124175206, 0.21330199, -985756.5, 45195.387, 0.0, 10.000439, 9.99926 
1.3650043e+3, 2.0480134e+2, -889408.8, -1030523.5, 17103.021, 0.12551539, 0.25829023, -887365.5, 45593.176, 0.0, 10.000754, 9.998924 
1.3650122e+3, 2.1479869e+2, -738660.2, -891951.94, -6270.7324, 0.065703146, 0.05823535, -738404.1, 96578.96, 0.0, 10.001058, 9.999052 
1.3650203e+3, 2.2479737e+2, -652752.75, -923479.75, 9662.969, 0.03447963, 0.08407831, -652408.3, 84589.09, 0.0, 10.00153, 9.997928 
1.3650286e+3, 2.3479716e+2, -453024.75, -766893.75, 12408.748, 0.028570406, 0.22847387, -452534.94, 186468.69, 0.0, 10.002182, 9.998018 
1.3650379e+3, 2.4479601e+2, -317008.47, -543850.2, 118052.72, 0.019771209, 0.27271372, -266720.03, 274294.72, 0.0, 10.001977, 9.998981 
1.3650481e+3, 2.5479352e+2, -359053.2, -492507.06, 85974.234, -0.0059521855, 0.077306665, -316949.72, 126083.875, 0.0, 10.00093, 9.999163 
1.3650577e+3, 2.6479203e+2, -340687.28, -513137.22, 21461.422, -0.034065418, 0.054394826, -338056.53, 6989.605, 0.000000033203506, 10.000729, 9.9984455 
1.3650659e+3, 2.7479127e+2, -113931.52, -337637.25, 472.3934, -0.06251388, 0.088317044, -113930.52, 133124.38, 0.0000069323874, 10.001547, 9.998576 
1.3650745e+3, 2.8478974e+2, 19226.797, -227170.31, 23935.693, -0.0816281, 0.08890241, 21530.44, 170599.08, 0.00008948749, 10.001823, 9.998518 
1.3650832e+3, 2.9478732e+2, 111313.13, -110868.69, 3461.4407, -0.08247128, -0.05924294, 111367.05, 162455.52, 0.00040625758, 10.0016775, 9.998714 
1.3650917e+3, 3.0478638e+2, 114983.79, -235520.8, 60771.453, -0.13185632, 0.047499, 125221.484, 125221.484, 0.0010893871, 10.0020275, 9.997385 
1.365103e+3, 3.1478587e+2, 281333.84, -47812.586, 51785.703, 0.06534077, 0.21789621, 289289.2, 289289.2, 0.00210587, 10.002601, 9.998415 
1.3749364e+3, 1.24787495e+2, -1823560.8, -1580092.1, 66592.39, -0.12195552, 0.036753416, -1563068.5, 154023.36, 0.0079810945, 9.998365, 10.001692 
1.3749468e+3, 1.3478804e+2, -1870597.6, -1623791.5, -31647.168, 0.0982007, -0.03647385, -1619798.0, -715.2975, 0.0045821774, 9.997726, 10.00103 
1.3749541e+3, 1.447892e+2, -1793628.8, -1535103.0, -5232.457, -0.049909238, -0.017002072, -1534997.1, -13927.329, 0.0018779465, 9.997568, 10.001024 
1.3749652e+3, 1.5479106e+2, -1511274.5, -1342839.6, 38258.016, 0.090232395, 0.018631786, -1334557.0, 88495.26, 0.00043006244, 9.99882, 10.001066 
1.3749743e+3, 1.6479191e+2, -1400556.8, -1399978.9, -49502.13, 0.11794117, 0.07736231, -1350764.9, -25719.943, 0.000029160963, 9.999575, 9.999661 
1.3749804e+3, 1.7479166e+2, -1259807.9, -1266653.5, -47980.55, -0.05385744, 0.04128859, -1215128.3, 11920.877, 0.000000027808229, 9.999818, 9.999781 
1.374988e+3, 1.8479139e+2, -1124218.1, -1139389.1, -72893.72, -0.057065196, 0.04155437, -1058516.3, 70535.64, 0.0, 10.000063, 9.999842 
1.3749976e+3, 1.9479068e+2, -984112.75, -1010746.5, -30241.26, 0.17066494, -0.05548229, -964386.1, 66671.26, 0.0, 10.000308, 9.999934 
1.3750058e+3, 2.0479056e+2, -923995.44, -1062387.6, 11473.737, 0.17340705, 0.0039126105, -923050.6, 10008.911, 0.0, 10.000584, 9.998789 
1.3750122e+3, 2.1479087e+2, -786179.75, -935850.7, 23395.623, -0.06126603, 0.11367243, -782607.94, 52452.18, 0.0, 10.000821, 9.998868 
1.3750204e+3, 2.2479007e+2, -656500.0, -864515.9, 18306.172, -0.121901736, 0.1779989, -654901.25, 82168.45, 0.0, 10.001252, 9.998463 
1.3750307e+3, 2.3478779e+2, -457991.22, -707772.56, 55696.09, 0.011547913, 0.06009619, -446134.9, 192957.05, 0.0, 10.001897, 9.998555 
1.3750404e+3, 2.4478623e+2, -382634.0, -626669.94, 58655.145, 0.05285749, 0.06062588, -369268.03, 171837.77, 0.0, 10.001737, 9.998532 
1.3750494e+3, 2.5478533e+2, -422298.9, -576162.94, 62008.664, -0.0016058091, 0.06538014, -400419.94, 42691.844, 0.0, 10.000722, 9.998692 
1.3750583e+3, 2.6478383e+2, -368487.53, -530723.7, 35107.008, -0.06324523, 0.07364832, -361216.47, -16091.513, 0.000000022673568, 10.000551, 9.998409 
1.3750671e+3, 2.7478138e+2, -149070.92, -356683.97, 50681.93, -0.13409701, -0.06397986, -137359.25, 109790.86, 0.0000066245593, 10.001321, 9.998552 
1.3750765e+3, 2.8478035e+2, 1860.7349, -228907.3, 381.0513, -0.098738804, -0.01405401, 1861.3641, 151021.0, 0.00008473701, 10.001665, 9.998586 
1.3750866e+3, 2.947809e+2, 79546.34, -119068.195, 22319.395, 0.07262657, 0.12274752, 82023.6, 133176.45, 0.00038290335, 10.001426, 9.998785 
1.3750952e+3, 3.0477926e+2, 119094.62, -180308.3, 74159.055, -0.017812094, 0.13499552, 136456.3, 136456.3, 0.0010283956, 10.00183, 9.9978485 
1.3751034e+3, 3.14776e+2, 225964.6, -42449.156, 147271.08, -0.20648308, -0.019242998, 291006.94, 291006.94, 0.0019973381, 10.002115, 9.998664 
1.3849346e+3, 1.2477938e+2, -1962689.6, -1678171.3, 209593.61, -0.067390494, 0.09305834, -1567118.0, 150052.33, 0.008351057, 9.9975605, 10.001407 
1.3849445e+3, 1.347794e+2, -1768688.5, -1583143.9, -11728.76, 0.064386435, -0.02190166, -1582405.5, 36761.727, 0.004803759, 9.998475, 10.000954 
1.3849531e+3, 1.4478019e+2, -1693682.1, -1516524.6, 57221.25, 0.06188431, -0.02088962, -1499649.8, 21508.379, 0.0019753822, 9.998369, 10.000781 
1.3849635e+3, 1.5478158e+2, -1622652.6, -1420452.8, 21520.184, 0.09270632, -0.008198684, -1418187.6, 4957.9087, 0.00045665295, 9.998158, 10.00086 
1.384973e+3, 1.6478267e+2, -1539510.4, -1428614.3, -16630.758, 0.0927565, 0.067940295, -1426173.9, -101037.34, 0.00003186285, 9.998497, 9.999964 
1.3849802e+3, 1.7478333e+2, -1283181.5, -1238902.4, -4620.6514, -0.015239921, 0.092708126, -1238425.4, -11293.605, 0.000000039188958, 9.999518, 10.000101 
1.3849886e+3, 1.8478312e+2, -1118550.5, -1149497.0, -10408.854, -0.00089319743, 0.085062064, -1115375.3, 13758.668, 0.0, 10.000122, 9.9997635 
1.384998e+3, 1.9478162e+2, -958620.44, -999768.9, -50119.406, 0.1653199, -0.08659398, -925016.7, 106129.664, 0.0, 10.000466, 9.999941 
1.3850063e+3, 2.047815e+2, -916239.44, -1055084.9, 2103.4055, 0.17439751, -0.029541623, -916207.6, 16940.93, 0.0, 10.000635, 9.998803 
1.3850136e+3, 2.1478261e+2, -791681.25, -931170.6, -8165.0107, 0.01552017, 0.1564082, -791204.94, 43937.215, 0.0, 10.000761, 9.9989195 
1.3850224e+3, 2.2478195e+2, -712979.2, -883804.5, 19036.014, -0.03559603, 0.22438571, -710883.56, 26266.795, 0.0, 10.000804, 9.998559 
1.3850322e+3, 2.347791e+2, -590571.94, -758983.1, -6823.856, 0.030421581, 0.038888317, -590295.9, 48881.266, 0.0, 10.000912, 9.998687 
1.3850418e+3, 2.4477747e+2, -484299.38, -684550.06, 6123.14, 0.062468916, 0.029622864, -484112.3, 57079.24, 0.0, 10.001081, 9.998443 
1.3850507e+3, 2.5477698e+2, -330384.78, -543047.6, -4853.49, 0.04612506, 0.08749003, -330274.06, 112920.37, 0.0, 10.00139, 9.998594 
1.3850598e+3, 2.647757e+2, -258887.19, -494151.9, 31322.016, 0.00051237555, 0.12386659, -254788.53, 90418.36, 0.0000000049794013, 10.001372, 9.998268 
1.3850687e+3, 2.7477318e+2, -188370.86, -393453.38, 2833.1292, -0.07886469, -0.0013587172, -188331.72, 58901.36, 0.0000064670485, 10.001103, 9.998417 
1.3850784e+3, 2.8477204e+2, -101908.016, -301388.53, -33748.652, -0.038705755, 0.052175008, -96353.02, 52891.76, 0.00007994395, 10.001035, 9.99841 
1.3850887e+3, 2.947721e+2, 67643.06, -133523.66, -70095.47, 0.14099494, 0.16206141, 89658.18, 140901.31, 0.00035496187, 10.001369, 9.998717 
1.3850978e+3, 3.0477e+2, 171954.92, -134627.27, 20815.43, 0.06396146, 0.115821145, 173361.73, 173361.73, 0.00095268304, 10.002097, 9.998033 
1.3851066e+3, 3.1476748e+2, 375948.6, 63640.14, 23660.25, -0.13109548, 0.020833295, 377730.9, 377730.9, 0.001860375, 10.002971, 9.99898 
1.3949323e+3, 1.2477143e+2, -2021381.8, -1790613.4, 54521.45, -0.13553315, 0.11937391, -1778380.5, -61135.656, 0.008733579, 9.997543, 10.000625 
1.394942e+3, 1.3477278e+2, -1770634.3, -1582815.8, 21293.846, -0.05439201, 0.13604891, -1580431.8, 38801.395, 0.005033633, 9.998464, 10.000956 
1.3949542e+3, 1.4477314e+2, -1741766.0, -1623857.5, 20535.865, 0.27501425, 0.12845811, -1620383.3, -99152.53, 0.002076125, 9.998401, 10.00003 
1.3949609e+3, 1.5477227e+2, -1680898.8, -1536256.5, 31015.176, -0.02979385, -0.0076828036, -1529886.5, -106646.37, 0.00048381835, 9.998135, 10.000078 
1.39497e+3, 1.6477288e+2, -1478885.5, -1302550.4, -554.94934, -0.08856528, 0.020255629, -1302548.6, 22685.574, 0.000034571214, 9.998495, 10.000832 
1.3949811e+3, 1.7477499e+2, -1236411.9, -1122068.4, 46244.98, 0.08553759, 0.10343803, -1105706.5, 121506.414, 0.00000005013657, 9.999435, 10.000945 
1.39499e+3, 1.8477578e+2, -1164167.9, -1233253.9, -18948.668, 0.09906763, 0.18291633, -1159312.0, -30106.074, 0.0, 10.000076, 9.999209 
1.3949966e+3, 1.9477485e+2, -1022431.9, -1102102.0, -23070.09, -0.029006528, 0.12830865, -1016233.7, 14983.606, 0.0, 10.000333, 9.999307 
1.3950054e+3, 2.0477429e+2, -925422.1, -1039553.44, -11507.741, -0.014695046, 0.16512199, -924273.4, 8951.268, 0.0, 10.0004835, 9.9989805 
1.3950162e+3, 2.147739e+2, -815541.4, -923498.3, 10567.35, 0.1558059, 0.1830074, -814516.7, 20713.129, 0.0, 10.000519, 9.999086 
1.3950251e+3, 2.2477296e+2, -756120.94, -930214.5, 6942.977, 0.14639595, 0.22666198, -755844.44, -18604.54, 0.0, 10.000602, 9.998341 
1.3950327e+3, 2.3477125e+2, -636748.06, -809385.6, 16447.979, -0.044068117, 0.17351164, -635194.94, 4062.4958, 0.0, 10.000704, 9.998445 
1.3950416e+3, 2.4476989e+2, -504413.06, -669423.9, 853.4842, -0.09463933, 0.19053604, -504408.66, 36861.563, 0.0, 10.000842, 9.99866 
1.3950521e+3, 2.547685e+2, -358801.94, -534884.9, 24981.68, 0.011993456, 0.1395952, -355326.28, 87955.5, 0.0, 10.001114, 9.998778 
1.3950618e+3, 2.6476747e+2, -311124.6, -554855.8, 5387.4146, 0.0319813, 0.20950282, -311005.56, 34286.883, 0.0000000011462398, 10.001162, 9.997955 
1.3950706e+3, 2.747667e+2, -245273.95, -458393.38, 13270.526, -0.031463947, 0.287758, -244450.81, 2852.4514, 0.0000063015364, 10.000868, 9.998088 
1.3950795e+3, 2.847648e+2, -167130.5, -383587.0, -38487.496, -0.05525199, 0.30605718, -160490.81, -11167.869, 0.000075522126, 10.000813, 9.997947 
1.3950887e+3, 2.9476106e+2, -7482.4204, -227682.83, -32866.47, -0.031028092, 0.079696395, -2681.5374, 48676.582, 0.00033164787, 10.001112, 9.998191 
1.3950993e+3, 3.0475855e+2, 141488.73, -152461.72, 37219.664, -0.029755987, 0.026549213, 146128.22, 146128.22, 0.0008920203, 10.001897, 9.998009 
1.3951114e+3, 3.1476083e+2, 331421.75, 92455.89, 112841.39, 0.00547261, 0.4012007, 376284.06, 376284.06, 0.0017485601, 10.002468, 9.999415 
1.4049324e+3, 1.2476274e+2, -2098307.3, -1882333.9, 9939.833, 0.16626367, 0.09331535, -1881877.4, -164549.48, 0.009133226, 9.997211, 10.000163 
1.4049406e+3, 1.3476422e+2, -1774641.5, -1615694.3, 6068.7188, -0.026605593, 0.14616066, -1615462.9, 3854.5002, 0.005275387, 9.998538, 10.000701 
1.4049527e+3, 1.4476459e+2, -1657044.9, -1583973.0, 23236.074, 0.28422356, 0.14944746, -1577210.1, -55894.406, 0.0021822979, 9.9990015, 10.000005 
1.4049599e+3, 1.5476401e+2, -1567498.0, -1487620.4, 43781.203, 0.038331084, 0.049484063, -1468297.9, -44976.46, 0.00051218417, 9.998949, 10.000013 
1.4049692e+3, 1.647643e+2, -1455019.5, -1343797.0, 59728.305, -0.020075642, 0.0693982, -1317799.0, 7519.756, 0.000037386584, 9.99887, 10.000372 
1.4049806e+3, 1.7476541e+2, -1309685.0, -1200888.6, -24959.523, 0.121465534, 0.09021421, -1195435.9, 31872.252, 0.00000006103049, 9.999111, 10.000558 
1.4049898e+3, 1.8476608e+2, -1270609.4, -1276888.3, -87481.14, 0.1209492, 0.1750874, -1186211.4, -56908.594, 0.0, 9.99933, 9.999263 
1.4049965e+3, 1.9476607e+2, -1112173.3, -1134355.8, -78483.55, -0.028180216, 0.20231612, -1044001.1, -12695.537, 0.0, 9.999678, 9.999398 
1.4050058e+3, 2.0476553e+2, -958722.8, -1046681.7, -2574.5442, -0.007914099, 0.23310784, -958647.5, -25335.674, 0.0, 10.000209, 9.999075 
1.4050172e+3, 2.1476421e+2, -711439.56, -854639.06, -19141.273, 0.18454564, 0.14632887, -708925.1, 126399.1, 0.0, 10.001155, 9.999256 
1.4050268e+3, 2.247632e+2, -605638.56, -853648.7, 4479.3477, 0.19644643, 0.17359048, -605557.7, 131776.8, 0.0, 10.001635, 9.9983635 
1.4050344e+3, 2.347623e+2, -494994.3, -731039.8, -3369.4263, 0.01718172, 0.19880037, -494946.22, 144398.81, 0.0, 10.001642, 9.998526 
1.4050432e+3, 2.447611e+2, -410364.66, -637188.9, 13859.959, -0.037871227, 0.2330856, -409520.88, 131836.23, 0.0, 10.001538, 9.998549 
1.4050534e+3, 2.5475925e+2, -324412.72, -523377.84, -16457.021, 0.029509054, 0.14600737, -323060.7, 120313.19, 0.0, 10.001379, 9.998726 
1.4050631e+3, 2.6475805e+2, -271091.22, -510783.25, 4096.9517, 0.057389375, 0.19104813, -271021.22, 74364.555, 0.0000000047036606, 10.001335, 9.998173 
1.4050725e+3, 2.7475756e+2, -137939.73, -374642.25, 6346.306, 0.049960833, 0.27560797, -137769.7, 109622.55, 0.000006310061, 10.001491, 9.998354 
1.4050816e+3, 2.847558e+2, -6118.8115, -347145.3, 44751.906, 0.012844793, 0.31285298, -343.9413, 149066.36, 0.00007178299, 10.002089, 9.997581 
1.4050904e+3, 2.9475194e+2, 246807.42, -152460.72, 25876.9, -0.051493745, 0.11502117, 248477.53, 299925.72, 0.0003183702, 10.003058, 9.997775 
1.4051014e+3, 3.047492e+2, 240313.63, -117967.9, 90955.73, -0.020842196, 0.06527426, 262081.69, 262081.69, 0.0008620041, 10.002639, 9.997884 
1.4051141e+3, 3.1475076e+2, 107023.12, 23662.662, 84192.19, 0.12229851, 0.37943822, 159287.38, 159287.38, 0.0016920328, 10.000742, 9.99978 
1.41493e+3, 1.24753095e+2, -2083253.1, -1862706.3, -100662.88, 0.09711555, -0.031437095, -1823670.5, -106249.06, 0.009556688, 9.99725, 10.000292 
1.4149399e+3, 1.3475385e+2, -1814143.4, -1688251.8, 69994.766, 0.016151264, 0.003684407, -1657062.4, -37644.12, 0.0055341963, 9.998505, 10.000222 
1.4149486e+3, 1.4475448e+2, -1605912.3, -1488492.0, -1988.5453, -0.09344553, 0.022916073, -1488458.4, 32955.15, 0.0022969088, 9.999043, 10.00064 
1.4149605e+3, 1.5475678e+2, -1530035.6, -1409130.9, 55174.39, 0.16730894, 0.15683441, -1387737.6, 35651.945, 0.0005425403, 9.998945, 10.000555 
1.4149703e+3, 1.64757e+2, -1558409.1, -1567464.8, 43967.977, 0.16198856, 0.21890219, -1518736.4, -193347.55, 0.000040406845, 9.998905, 9.998827 
1.4149784e+3, 1.7475475e+2, -1433844.9, -1440685.3, -607.8961, -0.04176225, 0.06878248, -1433791.3, -206375.84, 0.00000007226826, 9.999033, 9.998958 
1.4149874e+3, 1.847542e+2, -1232242.3, -1182792.6, -92907.7, -0.08456719, 0.07762736, -1111376.1, 18046.705, 0.0, 9.999271, 9.999932 
1.4149971e+3, 1.9475518e+2, -1084278.9, -1047235.8, -52053.727, 0.03676766, 0.13702577, -1010506.7, 20905.246, 0.0, 9.999554, 10.000056 
1.415007e+3, 2.047551e+2, -970781.25, -1039933.94, 9489.461, 0.05820097, 0.17347832, -969502.7, -36091.3, 0.0, 10.000064, 9.999192 
1.4150167e+3, 2.1475357e+2, -743130.2, -865098.9, 31424.39, -0.015693394, 0.056343984, -735510.0, 99915.01, 0.0, 10.000909, 9.999308 
1.4150265e+3, 2.247526e+2, -621351.3, -825485.25, -13902.167, -0.012942221, 0.068225764, -620408.9, 117025.695, 0.0, 10.001376, 9.998677 
1.4150369e+3, 2.3475209e+2, -517860.72, -713858.75, 12290.568, 0.082646415, 0.1056294, -517093.03, 122348.445, 0.0, 10.001371, 9.998771 
1.4150463e+3, 2.4475114e+2, -462763.7, -700230.2, -6088.846, 0.07481971, 0.1699919, -462607.66, 78844.25, 0.0, 10.00133, 9.998218 
1.4150544e+3, 2.5474936e+2, -374182.28, -587228.4, -3177.4438, -0.043067884, 0.11745534, -374134.9, 69334.74, 0.0, 10.001201, 9.998375 
1.4150636e+3, 2.6474753e+2, -255638.97, -431400.34, -7982.7075, -0.059785847, 0.08789313, -255277.16, 90208.68, 0.000000079284355, 10.001137, 9.998811 
1.415074e+3, 2.7474558e+2, -131434.2, -303800.53, 34453.027, 0.026615817, -0.03773024, -124802.766, 122698.88, 0.000007370644, 10.001247, 9.998958 
1.4150839e+3, 2.847448e+2, -43331.473, -377508.22, 64497.73, 0.008088142, 0.0730836, -31315.178, 118194.17, 0.00007207351, 10.001884, 9.997469 
1.4150935e+3, 2.9474467e+2, 191422.0, -203685.5, 87664.16, -0.084488735, 0.2565763, 209998.97, 261513.8, 0.00031938194, 10.002774, 9.997563 
1.4151038e+3, 3.0474162e+2, 164519.31, -204447.9, 12324.527, -0.073400706, 0.21571714, 164930.53, 164930.53, 0.00086451345, 10.002359, 9.997406 
1.415114e+3, 3.1473744e+2, 31100.43, -16781.945, 63307.33, -0.035063237, -0.013587989, 74842.31, 74842.31, 0.0016914787, 10.000279, 9.999701 
1.4249282e+3, 1.2474358e+2, -1616228.1, -1637704.8, -34248.26, 0.04380009, -0.089762025, -1591074.1, 126441.06, 0.010011913, 10.0005, 10.000268 
1.4249396e+3, 1.3474463e+2, -1829990.0, -1726296.9, 9200.732, 0.14892317, 0.01219775, -1725486.8, -105977.92, 0.0058154534, 9.998569, 9.999921 
1.4249462e+3, 1.4474507e+2, -1742981.4, -1575768.4, -3901.023, -0.17700927, 0.036909226, -1575677.4, -54171.594, 0.002423067, 9.998205, 10.000439 
1.42496e+3, 1.5474686e+2, -1462735.4, -1398559.6, -48015.07, 0.21125884, 0.13772158, -1372897.4, 50589.47, 0.00057589856, 9.999511, 10.000344 
1.4249703e+3, 1.6474685e+2, -1419676.0, -1517538.0, -21993.79, 0.2334924, 0.19576992, -1414960.4, -89471.9, 0.00004378684, 9.999926, 9.99867 
1.4249778e+3, 1.747448e+2, -1348756.4, -1413834.3, 6584.0806, -0.025614675, 0.07365719, -1348097.0, -120583.15, 0.00000008454083, 9.999668, 9.99883 
1.4249869e+3, 1.8474412e+2, -1160993.8, -1140473.3, 3521.9937, -0.07444768, 0.07519514, -1139885.6, -10363.865, 0.0, 9.999718, 10.0000105 
1.4249973e+3, 1.9474487e+2, -968318.3, -975093.75, -30659.605, 0.06576458, 0.09971815, -940859.8, 90651.95, 0.0, 10.000283, 10.0001955 
1.4250074e+3, 2.0474479e+2, -920477.44, -1015887.1, 36419.535, 0.098925196, 0.12761202, -908164.5, 25346.314, 0.0, 10.000408, 9.999188 
1.4250174e+3, 2.1474338e+2, -852937.75, -920241.6, 15314.055, 0.027866298, 0.024613302, -849617.06, -14093.631, 0.0, 10.000143, 9.999302 
1.4250275e+3, 2.247425e+2, -777471.7, -869965.06, -2723.9998, 0.030420007, 0.032287035, -777391.5, -39859.49, 0.0, 10.000167, 9.998963 
1.425038e+3, 2.347421e+2, -600485.94, -717498.44, -9585.159, 0.10373485, 0.051772457, -599705.94, 39831.43, 0.0, 10.000641, 9.999107 
1.4250474e+3, 2.4474148e+2, -474813.5, -683940.5, 27562.85, 0.08002837, 0.12267221, -471241.75, 70302.4, 0.0, 10.001162, 9.99841 
1.4250557e+3, 2.5474027e+2, -259838.45, -511070.38, 31426.426, -0.051197864, 0.11199208, -255967.0, 187588.73, 0.00000000006254562, 10.001892, 9.998568 
1.4250652e+3, 2.647383e+2, -114640.164, -408959.7, 35601.313, -0.044827037, 0.0736289, -110395.01, 235178.64, 0.00000036239143, 10.00229, 9.998408 
1.4250764e+3, 2.747354e+2, -3523.0852, -283384.97, -31973.076, 0.10665238, -0.109607935, 83.23639, 247682.25, 0.000010087366, 10.002293, 9.998591 
1.4250864e+3, 2.8473443e+2, -12904.624, -316516.16, 21740.941, 0.08424844, -0.019529477, -11355.706, 138252.5, 0.00007872079, 10.001892, 9.997892 
1.4250953e+3, 2.9473504e+2, 6528.8374, -239494.92, 32103.217, -0.09467984, 0.19735269, 10648.933, 62254.18, 0.00033516844, 10.001272, 9.99804 
1.4251058e+3, 3.0473262e+2, 50550.33, -300028.47, 16493.191, -0.063761786, 0.21171744, 51324.55, 51324.55, 0.0008965645, 10.001707, 9.99709 
1.4251162e+3, 3.1472722e+2, 414556.3, 135331.6, 19037.152, 0.053069234, -0.10962575, 415848.25, 415848.25, 0.0017444047, 10.003014, 9.999456 
1.434929e+3, 1.2473555e+2, -1619673.3, -1665570.6, 167337.5, 0.006009114, 0.03721161, -1473718.3, 243877.83, 0.010506618, 10.000572, 10.000045 
1.4349395e+3, 1.3473679e+2, -1851976.5, -1769138.8, -44500.54, 0.23468767, 0.1850439, -1749764.3, -130177.23, 0.006123269, 9.998555, 9.999626 
1.4349453e+3, 1.4473653e+2, -1795221.5, -1698936.3, 23284.408, -0.12655227, 0.19298612, -1693601.0, -172010.1, 0.002563054, 9.998259, 9.999577 
1.4349581e+3, 1.5473436e+2, -1533705.9, -1540149.9, 17595.033, 0.029299252, -0.004979763, -1519040.3, -95428.69, 0.0006133788, 9.999479, 9.999395 
1.4349687e+3, 1.6473392e+2, -1334741.3, -1339337.5, -53447.78, 0.03512923, -0.0018028396, -1283542.3, 42074.42, 0.000047750204, 9.99992, 9.999896 
1.4349785e+3, 1.7473523e+2, -1265670.3, -1235188.0, 9540.806, 0.036785312, 0.08908861, -1232448.0, -4842.2397, 0.00000010052836, 9.999637, 10.000076 
1.434988e+3, 1.8473577e+2, -1194630.3, -1196700.6, 2266.3528, 0.011885875, 0.16692626, -1193173.9, -63573.266, 0.0, 9.999661, 9.99965 
1.4349964e+3, 1.9473523e+2, -1017649.75, -1047292.7, 5825.306, -0.078204274, 0.101266555, -1016546.06, 15058.217, 0.0, 10.000153, 9.9997635 
1.4350069e+3, 2.0473464e+2, -948715.6, -1039488.6, 7259.65, -0.042446084, 0.103988014, -948138.7, -14529.29, 0.0, 10.000254, 9.9991 
1.4350192e+3, 2.1473368e+2, -897080.2, -959075.2, 21174.236, 0.17224133, 0.054247256, -890538.44, -54919.4, 0.0, 9.99991, 9.999147 
1.4350295e+3, 2.2473298e+2, -795914.9, -846476.75, -1770.5708, 0.17981915, 0.07618068, -795852.94, -58226.887, 0.0, 9.999909, 9.999244 
1.4350374e+3, 2.347324e+2, -620965.5, -693165.5, 26689.482, -0.044644497, 0.047018975, -612170.75, 27461.193, 0.0, 10.000366, 9.999401 
1.4350465e+3, 2.4473205e+2, -463964.47, -605330.3, 34430.402, -0.15507706, 0.09796724, -456024.72, 85609.76, 0.0, 10.000915, 9.999072 
1.435057e+3, 2.5473177e+2, -256285.84, -437801.53, 75801.25, -0.12855712, 0.11444988, -228794.72, 214840.16, 0.000000006122379, 10.001613, 9.999205 
1.4350681e+3, 2.6473022e+2, -231996.58, -605437.1, 20870.16, -0.033252303, 0.147592, -230833.84, 114816.19, 0.0000008787704, 10.00208, 9.997166 
1.4350794e+3, 2.7472696e+2, -127340.9, -491550.56, -10608.783, 0.14582388, 0.061291173, -127032.15, 120652.18, 0.000014147242, 10.002079, 9.997273 
1.4350887e+3, 2.8472468e+2, 16094.711, -209876.47, -18549.178, 0.08633615, 0.04317171, 17607.225, 167314.02, 0.000090681104, 10.00169, 9.99872 
1.4350955e+3, 2.94723e+2, 19334.633, -152803.95, 32922.242, -0.23592642, -0.058380965, 25416.287, 77136.836, 0.0003647409, 10.001004, 9.998771 
1.435107e+3, 3.047222e+2, 19903.096, -298657.38, 47900.633, -0.15470852, 0.079300635, 26949.84, 26949.84, 0.0009617202, 10.001455, 9.997208 
1.4351204e+3, 3.1472027e+2, 329265.47, 75209.27, 116544.21, 0.10581036, 0.1002412, 374628.47, 374628.47, 0.001861219, 10.002527, 9.999276 
1.4449282e+3, 1.2472531e+2, -2002524.4, -1861256.6, 224881.19, 0.015782224, 0.08108631, -1696177.4, 21517.096, 0.011047917, 9.997964, 9.999954 
1.4449374e+3, 1.3472621e+2, -1710673.4, -1684660.1, -120462.914, 0.15860061, 0.171514, -1576503.8, 43185.527, 0.00646129, 9.999429, 9.999786 
1.4449462e+3, 1.4472593e+2, -1565392.8, -1567892.9, 45832.125, 0.062389772, 0.1636172, -1520793.6, 900.0041, 0.0027186894, 9.999766, 9.999732 
1.4449574e+3, 1.5472388e+2, -1631582.9, -1562398.0, 74851.51, 0.05501006, -0.045871645, -1514532.1, -90818.78, 0.0006559602, 9.998706, 9.99961 
1.4449675e+3, 1.6472389e+2, -1527180.6, -1383965.1, 67929.945, 0.0043279678, -0.02842444, -1356870.6, -31157.049, 0.000052490832, 9.998402, 10.000321 
1.444978e+3, 1.7472607e+2, -1270640.8, -1180621.5, 37477.188, 0.04531773, 0.104555644, -1167061.5, 60631.785, 0.00000012546444, 9.999381, 10.000565 
1.4449881e+3, 1.8472677e+2, -1197940.0, -1233566.1, 31404.25, 0.06221753, 0.18489811, -1179648.6, -49961.887, 0.0, 9.999769, 9.999356 
1.444997e+3, 1.9472553e+2, -1126793.4, -1130736.9, 8686.227, 0.0016961645, 0.078052595, -1119858.0, -88159.875, 0.0, 9.999523, 9.999495 
1.4450075e+3, 2.0472476e+2, -1020709.06, -1068989.5, 56056.996, 0.026600312, 0.07553684, -983815.4, -50109.906, 0.0, 9.999757, 9.999135 
1.4450195e+3, 2.1472427e+2, -783461.0, -889560.4, 44383.12, 0.1770857, 0.06880584, -767343.25, 68367.63, 0.0, 10.000657, 9.999258 
1.4450298e+3, 2.2472382e+2, -633719.94, -765327.44, 48364.273, 0.17154281, 0.107665196, -617858.3, 119857.13, 0.0, 10.000998, 9.999283 
1.445038e+3, 2.3472314e+2, -566430.8, -661716.94, 26574.637, -0.01817203, 0.061431084, -559520.44, 80201.266, 0.0, 10.000702, 9.999458 
1.4450479e+3, 2.4472253e+2, -488467.84, -625292.1, 56546.332, -0.09664548, 0.08695804, -468123.53, 73602.7, 0.0, 10.000784, 9.998995 
1.4450592e+3, 2.547218e+2, -282306.7, -461794.75, 10122.896, -0.053506076, 0.06479421, -281737.6, 161993.6, 0.000000012932129, 10.001459, 9.999124 
1.4450705e+3, 2.6472038e+2, -277586.72, -629974.56, -16834.404, 0.03904564, 0.11862004, -276784.3, 68961.02, 0.0000016431604, 10.001786, 9.997138 
1.4450817e+3, 2.74718e+2, -155162.8, -504434.25, 1530.5399, 0.18478733, 0.12307071, -155156.1, 92616.17, 0.000019343763, 10.001892, 9.997271 
1.4450906e+3, 2.847154e+2, 54360.023, -228105.69, 32387.012, 0.10164412, 0.09591856, 58025.883, 207823.61, 0.00010742439, 10.002112, 9.998386 
1.4450973e+3, 2.9471257e+2, 200921.88, -94558.64, -34725.363, -0.22170296, -0.090456, 204948.0, 256770.73, 0.0004102239, 10.002391, 9.998488 
1.445109e+3, 3.047119e+2, 203014.13, -185459.75, 25317.496, -0.12835765, 0.062925, 204657.17, 204657.17, 0.001066146, 10.002601, 9.997444 
1.4451233e+3, 3.147108e+2, 339681.75, 69679.7, 12492.134, 0.15411197, 0.13502482, 340258.5, 340258.5, 0.0020519032, 10.002661, 9.999162 
1.4549287e+3, 1.2471233e+2, -1995867.9, -1870818.8, 109908.98, 0.18653038, -0.042919677, -1806894.5, -89078.99, 0.011640448, 9.998053, 9.999851 
1.4549334e+3, 1.3471305e+2, -1676168.3, -1600523.1, -38208.594, -0.217432, -0.038818173, -1584582.9, 35231.11, 0.0068325973, 9.999372, 10.000397 
1.454948e+3, 1.4471349e+2, -1485918.5, -1408714.1, -7462.8066, 0.20920752, -0.051523395, -1407999.4, 113812.56, 0.0028915813, 9.999791, 10.000813 
1.4549573e+3, 1.5471536e+2, -1549025.0, -1383800.4, 48158.043, 0.14045927, 0.007296229, -1370788.4, 53003.84, 0.00070428615, 9.998678, 10.000847 
1.4549662e+3, 1.6471684e+2, -1539598.8, -1417649.9, 77590.33, -0.0048221694, 0.11969179, -1379942.3, -54163.844, 0.000058062662, 9.998432, 10.000078 
1.4549759e+3, 1.7471747e+2, -1300771.0, -1231800.5, 90943.125, -0.13039534, 0.12730932, -1169023.8, 58751.39, 0.00000016567238, 9.999331, 10.000238 
1.4549868e+3, 1.8471718e+2, -1214542.5, -1259256.8, 5603.2764, -0.06950164, 0.13208453, -1213851.0, -84071.39, 0.0, 9.999729, 9.999202 
1.4549986e+3, 1.9471574e+2, -1158943.4, -1169404.6, 14687.856, 0.17240502, 0.027477501, -1148582.6, -116789.195, 0.0, 9.999396, 9.999298 
1.455009e+3, 2.0471509e+2, -1038736.44, -1061448.8, 68859.99, 0.16650105, 0.04283676, -980302.5, -46502.832, 0.0, 9.999572, 9.999272 
1.4550176e+3, 2.1471505e+2, -810064.56, -885481.56, 94158.5, -0.08729087, 0.06297388, -746344.5, 89455.8, 0.0, 10.000408, 9.999405 
1.4550279e+3, 2.2471483e+2, -674958.3, -791647.94, 20539.004, -0.13672078, 0.120526165, -671448.7, 66353.29, 0.0, 10.000744, 9.999224 
1.4550395e+3, 2.347143e+2, -619129.06, -698631.8, 33161.96, 0.041072752, 0.10005474, -607112.8, 32693.65, 0.0, 10.0004, 9.999348 
1.4550509e+3, 2.4471296e+2, -578620.75, -756830.7, 66194.92, 0.100340255, 0.09690685, -556723.6, -14904.822, 0.0, 10.000536, 9.998216 
1.4550619e+3, 2.5471047e+2, -370920.53, -594528.7, 55520.395, 0.037793107, -0.019009627, -357894.06, 85948.55, 0.000000017460069, 10.001238, 9.9983225 
1.4550725e+3, 2.6470897e+2, -231721.8, -488677.34, -27601.129, 0.025077466, 0.011814303, -228790.44, 117067.09, 0.000002726617, 10.001585, 9.998204 
1.4550827e+3, 2.7470827e+2, -116253.34, -362183.2, 25163.922, 0.07246448, 0.073480085, -113704.94, 134159.77, 0.000025176965, 10.001635, 9.998364 
1.455092e+3, 2.8470665e+2, -71149.78, -427492.25, 25814.52, -0.008867404, 0.14363797, -69289.414, 80592.78, 0.00012773139, 10.001854, 9.997141 
1.4551e+3, 2.9470378e+2, 77243.88, -296536.06, 1212.3999, -0.21752691, 0.08469783, 77247.81, 129160.6, 0.00046808438, 10.002151, 9.997221 
1.4551118e+3, 3.0470186e+2, 184441.83, -170148.39, 15946.01, -0.14093557, 0.16651146, 185157.47, 185157.47, 0.00120209, 10.002366, 9.997663 
1.4551243e+3, 3.1469852e+2, 237332.36, -41675.234, 55897.387, -0.07033591, -0.007656508, 248114.38, 248114.38, 0.0023053363, 10.002218, 9.998614 
1.4649291e+3, 1.247015e+2, -1962813.1, -1816467.9, 90695.41, 0.4446851, -0.04715205, -1773107.8, -55185.38, 0.012283002, 9.998137, 10.00018 
1.464932e+3, 1.3470246e+2, -1791553.3, -1597491.8, 21066.55, -0.23453628, -0.071175456, -1595231.3, 24685.889, 0.00723705, 9.998354, 10.000897 
1.4649478e+3, 1.4470297e+2, -1693713.1, -1480299.1, 33511.445, 0.30692652, -0.10874246, -1475160.8, 46752.7, 0.0030819494, 9.998217, 10.001097 
1.4649561e+3, 1.5470585e+2, -1479168.0, -1300356.3, -12038.033, 0.16430622, 0.010531722, -1299549.5, 124334.21, 0.0007585455, 9.998923, 10.001312 
1.4649652e+3, 1.647077e+2, -1442406.0, -1369313.5, 56515.625, 0.027917309, 0.1315698, -1338557.1, -12691.227, 0.00006440502, 9.999084, 10.0000925 
1.4649755e+3, 1.7470782e+2, -1364552.4, -1265260.9, 56919.98, -0.07860382, 0.08734411, -1239377.9, -11510.81, 0.00000022299002, 9.998884, 10.000227 
1.4649867e+3, 1.8470739e+2, -1294487.9, -1298222.3, 24846.93, -0.015573568, 0.08307612, -1271438.1, -141565.19, 0.0, 9.999226, 9.999158 
1.4649989e+3, 1.9470635e+2, -1002644.8, -1090893.9, 6518.1025, 0.21634136, 0.019173037, -1002165.94, 29717.81, 0.0, 10.000489, 9.999293 
1.4650093e+3, 2.047057e+2, -851908.9, -984386.7, 84853.09, 0.19984101, 0.041209023, -810501.9, 123388.58, 0.0, 10.000895, 9.999174 
1.4650181e+3, 2.1470527e+2, -809224.44, -891130.1, 64836.27, -0.08280732, 0.03205454, -773490.44, 62404.277, 0.0, 10.000434, 9.999356 
1.4650284e+3, 2.24705e+2, -715510.8, -826848.7, 15409.733, -0.13834862, 0.09231522, -713417.4, 24480.115, 0.0, 10.000543, 9.999074 
1.4650406e+3, 2.3470464e+2, -475527.47, -646066.25, -14967.318, 0.055266887, 0.10460531, -474223.84, 165677.47, 0.0, 10.001447, 9.999206 
1.4650525e+3, 2.4470322e+2, -403339.66, -686071.9, 73807.55, 0.15493466, 0.10492145, -385231.84, 156683.16, 0.0, 10.001804, 9.99809 
1.4650643e+3, 2.5470042e+2, -317512.84, -576161.3, 78210.62, 0.1399521, -0.030110758, -295702.5, 148238.75, 0.000000044837254, 10.001651, 9.99824 
1.465075e+3, 2.6469874e+2, -193199.77, -456020.5, 21208.621, 0.10629556, -0.01711672, -191499.31, 154457.94, 0.0000038968087, 10.001789, 9.998332 
1.4650844e+3, 2.7469805e+2, -7851.9004, -296619.47, -27929.697, 0.04843312, 0.035594888, -5175.3394, 242788.72, 0.000030518888, 10.002304, 9.998501 
1.465094e+3, 2.846966e+2, 23335.424, -403445.94, 7544.1953, -0.015335874, 0.12452138, 23468.742, 173449.33, 0.00014669454, 10.002589, 9.996955 
1.4651038e+3, 2.9469424e+2, 134432.22, -286238.94, 7292.4155, -0.0722488, 0.1408227, 134558.6, 186566.25, 0.00052534003, 10.002631, 9.997055 
1.4651154e+3, 3.0469203e+2, 235609.48, -129204.53, 88690.516, -0.022514833, 0.18882619, 256028.33, 256028.33, 0.0013448142, 10.002658, 9.997788 
1.4651258e+3, 3.146888e+2, 246858.69, -55329.805, 51404.875, -0.124079615, 0.026763765, 255363.72, 255363.72, 0.0025808995, 10.002355, 9.998447 
1.4749248e+3, 1.2469238e+2, -1888911.5, -1679373.9, -152507.23, 0.099787004, 0.03860241, -1599115.8, 118903.67, 0.012969953, 9.998215, 10.001077 
1.4749324e+3, 1.3469446e+2, -1779787.6, -1558926.8, 22828.117, -0.05848658, 0.09106568, -1556591.9, 63406.156, 0.0076708426, 9.998304, 10.001177 
1.4749452e+3, 1.4469437e+2, -1699927.4, -1517856.8, 28207.06, 0.17865257, -0.006264234, -1513587.0, 8411.105, 0.0032881629, 9.998304, 10.000805 
1.4749537e+3, 1.5469554e+2, -1503769.5, -1346329.0, 29808.46, -0.016159656, -0.027051995, -1340874.4, 83111.43, 0.00081847684, 9.998898, 10.001013 
1.474964e+3, 1.646966e+2, -1413651.0, -1322957.3, 29170.889, -0.057271864, 0.016807815, -1314384.9, 11589.708, 0.000071419374, 9.999133, 10.000388 
1.4749761e+3, 1.7469727e+2, -1354184.5, -1227814.9, 62899.56, 0.061059684, -0.0053950427, -1201844.4, 26123.107, 0.0000002932695, 9.998821, 10.000509 
1.4749873e+3, 1.8469755e+2, -1292921.6, -1297845.8, 50154.93, 0.08089902, 0.04946512, -1245168.4, -115203.305, 0.0, 9.999221, 9.99917 
1.4749974e+3, 1.9469725e+2, -1016236.4, -1097499.5, 69335.766, -0.0051207347, 0.05574096, -976503.94, 55466.223, 0.0, 10.000385, 9.999305 
1.4750083e+3, 2.0469649e+2, -887556.2, -1023000.5, 48121.47, -0.0265225, 0.07370714, -872200.25, 61778.633, 0.0, 10.000739, 9.99898 
1.47502e+3, 2.1469505e+2, -861898.25, -942871.75, 60168.664, 0.041704234, -0.016995694, -829863.0, 6130.403, 0.0, 10.00019, 9.999115 
1.475031e+3, 2.2469439e+2, -768252.3, -885863.6, 29136.867, 0.020809704, 0.030659955, -761429.75, -23428.207, 0.0, 10.00031, 9.998789 
1.4750406e+3, 2.3469424e+2, -526162.6, -702656.9, 36497.18, -0.10708468, 0.09068139, -518913.16, 121092.62, 0.0, 10.001229, 9.998928 
1.4750522e+3, 2.4469332e+2, -397332.63, -624880.5, 49622.484, -0.08648956, 0.13106191, -386982.03, 155032.31, 0.0, 10.001591, 9.998613 
1.475066e+3, 2.5469136e+2, -316490.1, -517912.6, 87534.68, 0.1128092, 0.025202036, -283765.66, 160263.72, 0.000000082863835, 10.001407, 9.998759 
1.4750774e+3, 2.646895e+2, -278543.78, -579083.5, 26158.467, 0.13749272, 0.029400203, -276283.97, 69762.62, 0.0000048986644, 10.00155, 9.9976 
1.475086e+3, 2.7468738e+2, -93267.74, -420178.7, 17703.914, -0.037851308, 0.0031959293, -92311.78, 155758.22, 0.00003489947, 10.002073, 9.997758 
1.4750962e+3, 2.8468546e+2, 26981.717, -343068.88, -8039.4077, -0.08417586, 0.058379784, 27156.293, 177247.45, 0.00016199093, 10.0023575, 9.997481 
1.475108e+3, 2.9468378e+2, 136420.13, -218837.73, 30414.416, 0.031562958, 0.08002478, 139005.16, 191114.61, 0.0005773318, 10.0023575, 9.997648 
1.4751191e+3, 3.0468202e+2, 205051.7, -128708.93, 63020.984, 0.060180794, 0.13722107, 216554.92, 216554.92, 0.0014793195, 10.0023775, 9.997927 
1.4751269e+3, 3.1468123e+2, 200008.8, -46634.438, 87272.24, -0.31765676, 0.19687724, 227765.52, 227765.52, 0.0028372656, 10.001901, 9.998725 
1.4849235e+3, 1.2468376e+2, -1996918.8, -1692880.1, -86358.44, 0.2017387, 0.095168136, -1670063.4, 48045.33, 0.013700781, 9.997282, 10.001441 
1.4849317e+3, 1.3468537e+2, -1764650.4, -1546869.4, 43941.414, 0.050772104, 0.099502884, -1538337.6, 81750.555, 0.00813248, 9.998344, 10.001259 
1.4849424e+3, 1.4468518e+2, -1713159.1, -1557029.0, 94845.305, 0.06127965, 0.0048889886, -1512253.6, 9833.915, 0.0035089266, 9.998399, 10.00047 
1.4849524e+3, 1.5468603e+2, -1521824.6, -1390289.3, 53945.906, -0.021715794, -0.016270338, -1370994.9, 53084.473, 0.0008836724, 9.998945, 10.000675 
1.4849637e+3, 1.6468658e+2, -1402249.1, -1350803.1, 50732.67, 0.014897456, 0.009842361, -1319644.9, 6428.671, 0.00007901186, 9.999399, 10.000057 
1.4849763e+3, 1.746865e+2, -1195747.8, -1184834.8, -2546.7363, 0.14352888, -0.04893729, -1184269.8, 43802.94, 0.00000037325287, 10.000079, 10.000197 
1.4849876e+3, 1.846866e+2, -1138705.4, -1206766.4, 14690.637, 0.14259414, -0.005517951, -1135669.9, -5598.0093, 0.0, 10.000198, 9.999326 
1.4849974e+3, 1.9468674e+2, -1064958.5, -1098452.5, 11885.153, -0.018207006, 0.027002838, -1061169.8, -29097.307, 0.0, 9.999946, 9.999511 
1.4850084e+3, 2.0468642e+2, -990157.5, -1049218.0, 24890.693, -0.04223481, 0.06920538, -981066.75, -46989.81, 0.0, 9.999955, 9.999169 
1.4850208e+3, 2.1468543e+2, -825796.6, -898960.94, 30602.262, 0.09663105, 0.005018935, -814684.44, 21402.86, 0.0, 10.000332, 9.999344 
1.485032e+3, 2.2468476e+2, -737621.75, -882922.8, 82599.24, 0.09474693, 0.045462634, -700268.94, 37826.863, 0.0, 10.000572, 9.998676 
1.4850417e+3, 2.3468429e+2, -595362.25, -747386.25, 68069.53, -0.088586695, 0.08626877, -569338.56, 70765.2, 0.0, 10.000808, 9.99882 
1.4850533e+3, 2.4468338e+2, -449017.8, -634083.6, 90035.49, -0.09399123, 0.12473397, -412443.28, 129669.18, 0.0, 10.001165, 9.998759 
1.4850673e+3, 2.546818e+2, -267388.47, -474530.28, 63306.824, 0.10911256, 0.043704376, -249572.86, 194550.44, 0.00000011463164, 10.001662, 9.998935 
1.4850792e+3, 2.6468e+2, -217417.14, -580734.0, 43563.27, 0.14967665, 0.057242114, -212266.73, 133873.81, 0.000005857849, 10.002119, 9.997306 
1.4850886e+3, 2.7467757e+2, -46006.465, -434627.4, 19961.209, -0.0067610955, 0.039899487, -44983.863, 203184.2, 0.000039275426, 10.002569, 9.9974165 
1.4850989e+3, 2.8467545e+2, 71322.25, -313533.44, 8024.176, -0.05499597, 0.09076078, 71489.48, 221680.78, 0.00017769585, 10.002627, 9.997556 
1.48511e+3, 2.9467362e+2, 121575.16, -221363.48, -28245.695, 0.03573589, 0.09230504, 123886.0, 176096.3, 0.0006303682, 10.002216, 9.997714 
1.4851214e+3, 3.0467135e+2, 197105.3, -158042.86, 27713.236, 0.070599064, 0.10900596, 199254.84, 199254.84, 0.0016042597, 10.002409, 9.997721 
1.4851306e+3, 3.1467113e+2, 376682.9, 54499.387, -66771.63, -0.18214853, 0.24621606, 389972.9, 389972.9, 0.003054721, 10.003039, 9.998871 
1.4949235e+3, 1.2467625e+2, -1965326.1, -1647093.8, 31122.457, 0.3970244, 0.1887789, -1644078.6, 74105.27, 0.014485426, 9.997373, 10.001706 
1.4949293e+3, 1.346757e+2, -1780149.9, -1564360.4, 79401.85, -0.06673315, -0.01489786, -1538292.6, 81889.59, 0.008627366, 9.998296, 10.001156 
1.4949386e+3, 1.4467573e+2, -1721419.5, -1612768.8, 82618.25, -0.21569645, -0.063559294, -1568215.3, -46036.61, 0.0037456865, 9.998538, 10.000031 
1.494952e+3, 1.5467755e+2, -1561021.6, -1472110.3, 88956.16, 0.000550924, 0.06366592, -1417120.0, 7042.166, 0.0009542572, 9.998937, 10.000125 
1.4949644e+3, 1.6467777e+2, -1457922.1, -1483615.6, 55280.863, 0.079182826, 0.13098164, -1414014.9, -87854.09, 0.00008722728, 9.999465, 9.999114 
1.4949755e+3, 1.7467555e+2, -1271521.6, -1331097.3, 36212.363, 0.03959797, -0.044052415, -1254419.6, -26237.031, 0.0000004647829, 10.000036, 9.99921 
1.4949869e+3, 1.8467459e+2, -1115282.4, -1161279.8, -14529.016, 0.018768294, -0.072546154, -1111077.5, 19114.914, 0.0, 10.000203, 9.999641 
1.4949982e+3, 1.9467492e+2, -1061686.0, -1062002.8, 15422.069, 0.028305965, -0.054230228, -1046421.44, -14231.946, 0.0, 9.999818, 9.9998255 
1.4950092e+3, 2.046756e+2, -969624.75, -972289.0, 19032.959, 0.0070513827, 0.042041242, -951877.4, -17693.852, 0.0, 9.999802, 9.999774 
1.4950201e+3, 2.146764e+2, -816201.94, -826478.06, 58861.566, -0.033273615, 0.09468606, -762254.6, 73921.74, 0.0, 10.00011, 9.999946 
1.4950314e+3, 2.2467619e+2, -768774.3, -896731.2, 72994.625, -0.045538157, 0.14892542, -735688.56, 2491.1042, 0.0, 10.000342, 9.998698 
1.4950433e+3, 2.346747e+2, -629319.94, -763324.9, 93071.9, -0.028953824, 0.08466138, -581641.5, 58554.637, 0.0, 10.00057, 9.998827 
1.4950557e+3, 2.4467333e+2, -502006.47, -687029.06, 94281.77, -0.018535368, 0.08877921, -462429.2, 79780.4, 0.0, 10.000916, 9.998516 
1.495068e+3, 2.546717e+2, -318644.06, -530649.1, 102119.41, -0.005393674, 0.023929618, -277456.53, 166766.44, 0.00000015644366, 10.001437, 9.998661 
1.4950801e+3, 2.6467013e+2, -261929.47, -609843.9, 43732.73, 0.0008594732, 0.07839274, -256516.48, 89722.87, 0.000006865855, 10.001854, 9.997231 
1.4950916e+3, 2.7466846e+2, -91551.54, -465014.88, 56622.43, -0.0071880473, 0.14245789, -83155.52, 165105.06, 0.00004412461, 10.002304, 9.997332 
1.4951016e+3, 2.846664e+2, 12011.476, -381112.22, -23184.775, -0.086824484, 0.22147295, 13374.093, 163657.55, 0.00019465707, 10.002382, 9.997212 
1.4951101e+3, 2.9466367e+2, 64183.184, -286008.75, -12697.965, -0.223497, 0.16358511, 64643.008, 116953.914, 0.0006807664, 10.001975, 9.997391 
1.4951219e+3, 3.0466005e+2, 98376.76, -293229.13, 38722.98, -0.16388826, 0.10318844, 102169.06, 102169.06, 0.0017053906, 10.002122, 9.996925 
1.4951357e+3, 3.1465828e+2, 288137.63, -29504.307, 6362.545, -0.043105625, 0.16339114, 288265.03, 288265.03, 0.0032076885, 10.00261, 9.9985 
1.5049215e+3, 1.24666184e+2, -1996566.3, -1733256.0, 44726.926, 0.46956682, 0.18053564, -1725866.0, -7584.9795, 0.015336173, 9.997473, 10.001066 
1.5049279e+3, 1.346656e+2, -1782020.6, -1604442.5, -36375.418, -0.026844224, -0.00045319722, -1597280.1, 23002.72, 0.0091627855, 9.998421, 10.000838 
1.5049376e+3, 1.4466578e+2, -1678858.0, -1598805.4, -14466.559, -0.17260201, -0.012195818, -1596271.4, -73992.46, 0.0040015904, 9.998881, 9.999955 
1.5049517e+3, 1.5466714e+2, -1541653.4, -1462661.4, -13768.108, 0.09088504, 0.07543332, -1460330.5, -36064.902, 0.001031135, 9.999086, 10.000113 
1.5049644e+3, 1.6466723e+2, -1503301.4, -1511519.1, 49660.754, 0.16125345, 0.13312872, -1457579.8, -131314.78, 0.000096309515, 9.999154, 9.9990835 
1.5049756e+3, 1.746653e+2, -1352334.6, -1368537.3, 68766.39, 0.066417925, -0.014677511, -1291194.0, -62909.434, 0.000000575819, 9.999452, 9.99924 
1.5049869e+3, 1.8466443e+2, -1203970.5, -1197201.4, 65507.47, 0.043675058, -0.037700962, -1134991.1, -4697.8364, 0.0, 9.999585, 9.999676 
1.5049984e+3, 1.9466466e+2, -1054875.1, -1049576.9, 39031.707, 0.0670971, -0.03730458, -1013104.44, 19186.494, 0.0, 9.999837, 9.9998865 
1.5050094e+3, 2.0466515e+2, -935831.8, -973894.06, 55113.234, 0.044804458, 0.04586623, -896556.4, 37730.113, 0.0, 10.000115, 9.999614 
1.5050203e+3, 2.1466579e+2, -762232.4, -823129.2, -4.990591, -0.027907256, 0.101038925, -762232.4, 74049.52, 0.0, 10.000567, 9.999758 
1.505032e+3, 2.2466548e+2, -690380.44, -835639.56, 14134.414, -0.038974304, 0.14877175, -689017.9, 49267.88, 0.0, 10.000808, 9.99888 
1.5050443e+3, 2.3466404e+2, -570889.2, -711632.4, 8761.665, 0.0064351894, 0.06743078, -570345.8, 69954.54, 0.0, 10.000886, 9.999021 
1.505057e+3, 2.4466278e+2, -475042.5, -686755.75, 66090.99, 0.036400143, 0.08155694, -456104.72, 86208.086, 0.0, 10.001172, 9.998387 
1.50507e+3, 2.5466153e+2, -281863.22, -525760.9, 42745.42, 0.040077403, 0.07141285, -274588.63, 169736.23, 0.00000020302433, 10.00176, 9.99853 
1.5050822e+3, 2.6465997e+2, -229780.33, -572542.2, 20271.094, 0.038273413, 0.12441085, -228585.66, 117755.92, 0.0000077496, 10.0019655, 9.997438 
1.5050937e+3, 2.7465788e+2, -153513.61, -471721.78, 24501.232, 0.027812144, 0.12272929, -151638.13, 96726.984, 0.000048509926, 10.001749, 9.997566 
1.5051042e+3, 2.846558e+2, -33329.543, -403740.3, 15160.214, -0.040339388, 0.1916393, -32710.098, 117677.41, 0.00020995413, 10.002092, 9.997186 
1.5051131e+3, 2.9465368e+2, 243325.4, -193069.03, -8579.722, -0.15903632, 0.1982768, 243494.02, 295904.16, 0.0007220719, 10.003225, 9.997395 
1.5051252e+3, 3.0465028e+2, 301671.94, -236280.42, 99220.83, -0.10729832, 0.16676658, 319388.9, 319388.9, 0.0017709631, 10.003682, 9.996584 
1.5051395e+3, 3.1464693e+2, 322127.3, -22248.777, 39716.48, 0.066060156, 0.119860955, 326648.4, 326648.4, 0.0032780797, 10.0028715, 9.998448 
1.5149185e+3, 1.246542e+2, -2075574.5, -1944195.5, -21475.936, 0.32048714, 0.1049426, -1940774.0, -222380.67, 0.016257107, 9.997667, 9.999533 
1.5149273e+3, 1.3465533e+2, -1847283.4, -1711963.8, 29186.977, 0.030478714, 0.15419081, -1705936.9, -85549.69, 0.009740974, 9.998327, 10.000135 
1.5149388e+3, 1.4465569e+2, -1641051.1, -1556499.3, -30907.633, 0.0077501833, 0.18935254, -1546406.0, -24021.582, 0.0042781597, 9.999012, 10.00019 
1.5149514e+3, 1.5465483e+2, -1515060.0, -1415824.4, 7333.829, 0.105969824, 0.021797989, -1415285.3, 9104.318, 0.0011151112, 9.999113, 10.000423 
1.5149634e+3, 1.64655e+2, -1418894.4, -1358030.8, 37077.53, 0.09827312, 0.02155351, -1340495.5, -14109.394, 0.000106548556, 9.999238, 10.000097 
1.5149756e+3, 1.7465587e+2, -1286002.9, -1224624.1, 93892.83, 0.09705729, 0.046082977, -1156532.4, 71844.83, 0.0000007145684, 9.999416, 10.000249 
1.5149872e+3, 1.8465628e+2, -1217175.9, -1223809.3, 56666.895, 0.06620955, 0.107227035, -1163728.6, -33355.605, 0.0, 9.999581, 9.9994955 
1.5149975e+3, 1.9465594e+2, -1090518.6, -1094437.0, 62107.973, -0.035869006, 0.07824436, -1030338.94, 2037.3281, 0.0, 9.999717, 9.999635 
1.5150085e+3, 2.046552e+2, -1026427.75, -1126273.6, 51699.414, -0.07660635, 0.09495553, -1004481.9, -70096.75, 0.0, 9.999955, 9.998649 
1.5150212e+3, 2.1465376e+2, -866499.5, -981564.6, 32644.795, -0.02339349, 0.040948376, -857883.2, -21480.94, 0.0, 10.000315, 9.998793 
1.5150331e+3, 2.2465281e+2, -709001.25, -813926.0, 1187.949, -0.03650273, 0.06059259, -708987.8, 29424.475, 0.0, 10.000544, 9.99916 
1.5150443e+3, 2.3465227e+2, -583776.25, -684858.94, 29191.557, -0.114812784, 0.03990006, -575951.7, 64464.492, 0.0, 10.000655, 9.999317 
1.5150574e+3, 2.4465175e+2, -516377.75, -720617.44, 69058.57, -0.08057574, 0.117628664, -495219.25, 47202.477, 0.0, 10.0009365, 9.998275 
1.5150726e+3, 2.5465113e+2, -323247.72, -558866.5, 82301.734, 0.0957262, 0.18005584, -297346.9, 147083.77, 0.00000026346208, 10.001523, 9.998422 
1.5150854e+3, 2.646493e+2, -228908.16, -505047.94, -1277.1862, 0.111696176, 0.1831944, -228902.25, 117547.26, 0.000008336701, 10.001693, 9.998034 
1.515095e+3, 2.746459e+2, -149886.0, -400043.4, 39888.99, -0.049946245, -0.01067164, -143679.47, 104801.67, 0.00005112129, 10.001491, 9.998181 
1.5151061e+3, 2.8464395e+2, -63837.652, -409593.5, 37529.594, -0.087333634, 0.03275586, -59810.95, 90690.445, 0.00022272031, 10.001839, 9.997267 
1.5151188e+3, 2.9464355e+2, 204774.63, -209984.73, 57830.01, 0.040495697, 0.1983091, 212686.94, 265196.84, 0.0007570033, 10.00295, 9.997408 
1.5151308e+3, 3.0464146e+2, 263350.47, -234324.97, 57441.945, 0.06390345, 0.29548857, 269894.4, 269894.4, 0.001811775, 10.003359, 9.99674 
1.5151408e+3, 3.1463692e+2, 282934.97, 12048.289, 76621.195, -0.13614562, 0.098741435, 303105.6, 303105.6, 0.0032877447, 10.002413, 9.998888 
1.5249158e+3, 1.24641016e+2, -1990449.6, -1931913.1, -59410.863, 0.26227182, 0.024860013, -1894952.4, -176431.47, 0.017244658, 9.998407, 9.999244 
1.5249261e+3, 1.3464253e+2, -1791336.9, -1659536.8, -1623.1902, 0.0895469, 0.089987166, -1659516.8, -39003.977, 0.010359608, 9.998625, 10.000335 
1.5249386e+3, 1.4464432e+2, -1746215.4, -1604962.0, 411.9263, 0.13253511, 0.26042163, -1604960.8, -82463.336, 0.0045741852, 9.998302, 10.00019 
1.5249506e+3, 1.546429e+2, -1600575.1, -1444997.0, -24399.121, 0.1566714, 0.027423454, -1441260.3, -16751.707, 0.0012060112, 9.9984665, 10.000534 
1.5249625e+3, 1.6464302e+2, -1504843.6, -1359533.9, 16136.5205, 0.13964699, 0.0017072768, -1357763.5, -31257.674, 0.000118081814, 9.998513, 10.000427 
1.5249752e+3, 1.7464481e+2, -1320886.1, -1196726.0, -16330.96, 0.14197354, 0.086691424, -1194613.9, 33874.375, 0.0000008766353, 9.999016, 10.000624 
1.5249868e+3, 1.8464561e+2, -1229318.5, -1224290.8, -39650.953, 0.09706497, 0.16596986, -1187074.1, -56593.902, 0.0, 9.999462, 9.999565 
1.524997e+3, 1.9464509e+2, -1028275.06, -1061309.1, -45909.902, -0.043321986, 0.11487665, -996001.44, 36483.53, 0.0, 10.000112, 9.999691 
1.525009e+3, 2.0464416e+2, -970434.6, -1121873.6, 9138.78, -0.05898095, 0.12305638, -969885.1, -35389.62, 0.0, 10.000421, 9.998455 
1.5250224e+3, 2.1464266e+2, -863155.94, -1000925.7, 15190.915, 0.06741922, 0.07692983, -861500.9, -24986.887, 0.0, 10.000413, 9.998611 
1.5250346e+3, 2.2464141e+2, -720674.1, -851174.4, 31472.54, 0.075868234, 0.08837958, -713480.44, 25046.55, 0.0, 10.0005865, 9.998894 
1.5250455e+3, 2.3464032e+2, -552485.7, -698571.0, -16199.286, -0.058239363, 0.04268675, -550710.94, 89824.625, 0.0, 10.000984, 9.99907 
1.5250584e+3, 2.4463972e+2, -477817.66, -666033.5, 47940.316, -0.067184314, 0.10909512, -466310.34, 76231.375, 0.0, 10.001071, 9.998567 
1.5250735e+3, 2.5463957e+2, -391324.63, -552552.06, 57914.023, 0.068319865, 0.1861473, -372678.06, 71868.23, 0.0000003530132, 10.000905, 9.998748 
1.5250866e+3, 2.646382e+2, -254836.61, -488835.3, 21479.65, 0.09833265, 0.2068003, -252881.23, 93679.0, 0.000008619123, 10.001369, 9.998305 
1.5250973e+3, 2.7463534e+2, 20783.414, -279620.94, -3250.8943, -0.0039741355, 0.03857087, 20818.59, 269405.03, 0.000051931653, 10.002504, 9.99851 
1.5251091e+3, 2.8463343e+2, 99979.03, -322482.0, 15221.896, -0.0042386376, 0.06255406, 100526.79, 251132.84, 0.00023518385, 10.002919, 9.997361 
1.5251224e+3, 2.9463243e+2, 144066.77, -239983.86, -1468.3469, 0.12784258, 0.17071386, 144072.38, 196692.16, 0.000791527, 10.002497, 9.9974575 
1.5251346e+3, 3.0463096e+2, 221376.39, -197623.55, 48472.355, 0.15430655, 0.300921, 226910.86, 226910.86, 0.0018473114, 10.002803, 9.997274 
1.5251449e+3, 3.1462675e+2, 493743.66, 139416.31, 19209.215, -0.02075719, 0.08627031, 494782.03, 494782.03, 0.0032831791, 10.003726, 9.999146 
1.534913e+3, 1.24627344e+2, -1909667.1, -1796641.0, -48521.64, 0.062487725, 0.0016003064, -1778668.6, -60012.156, 0.018294634, 9.998534, 10.000113 
1.5349242e+3, 1.3462743e+2, -1714534.5, -1504574.5, 9558.018, 0.0018311756, -0.181341, -1504140.4, 116517.23, 0.011016667, 9.99864, 10.001399 
1.5349363e+3, 1.4463195e+2, -1735241.4, -1622996.9, -23206.756, 0.0084305005, 0.22292557, -1618388.1, -95773.305, 0.0048880493, 9.998467, 9.999993 
1.5349488e+3, 1.5463156e+2, -1620690.0, -1468310.3, -6993.2695, 0.099998206, 0.10855756, -1467990.0, -43369.707, 0.0013030368, 9.998399, 10.000406 
1.5349616e+3, 1.6463156e+2, -1524329.9, -1419909.3, 10646.922, 0.1384978, 0.09780243, -1418834.8, -92212.96, 0.00013086536, 9.998585, 9.999984 
1.5349737e+3, 1.7463216e+2, -1359114.6, -1266599.3, 14651.598, 0.06854236, 0.10935926, -1264334.4, -35717.03, 0.0000010420176, 9.998976, 10.000162 
1.5349856e+3, 1.8463245e+2, -1207717.5, -1183783.4, -37872.08, -0.01701575, 0.1502276, -1156032.6, -25418.014, 0.0, 9.999474, 9.99984 
1.5349971e+3, 1.9463208e+2, -1015799.6, -1015021.0, -9225.438, -0.089811206, 0.077705555, -1006176.7, 26440.26, 0.0, 10.000019, 10.000054 
1.5350096e+3, 2.0463209e+2, -955147.8, -1046689.1, -7835.26, -0.051347516, 0.1303564, -954482.0, -19864.459, 0.0, 10.0002365, 9.999057 
1.5350235e+3, 2.146324e+2, -862086.06, -937100.56, 29768.813, 0.110515125, 0.2079262, -851708.3, -15090.6045, 0.0, 10.000154, 9.999171 
1.5350363e+3, 2.2463122e+2, -816113.7, -985877.06, 29303.848, 0.14333366, 0.2367357, -811197.75, -72567.586, 0.0, 10.000309, 9.998102 
1.5350479e+3, 2.3462816e+2, -642073.0, -832223.6, 18642.594, 0.043521535, 0.071013615, -640262.5, 396.4713, 0.0, 10.0007515, 9.998267 
1.5350597e+3, 2.4462658e+2, -477661.84, -594628.9, 27773.465, -0.071769275, 0.051207855, -471402.13, 71271.55, 0.0, 10.000778, 9.99919 
1.5350722e+3, 2.546267e+2, -384563.8, -478846.25, 70815.57, -0.17704506, 0.08561154, -346633.66, 98039.04, 0.0000004707298, 10.000664, 9.999364 
1.5350857e+3, 2.6462662e+2, -289875.7, -507425.75, 43291.703, -0.1594183, 0.2036861, -281577.3, 65097.12, 0.0000086272985, 10.001133, 9.998291 
1.5351002e+3, 2.746261e+2, -14188.491, -302159.16, 54183.203, 0.0020385222, 0.27215302, -4331.0605, 244350.9, 0.000052741245, 10.002288, 9.998459 
1.5351129e+3, 2.84624e+2, 68225.8, -332862.66, -15839.36, 0.044741843, 0.28217146, 68850.336, 219553.86, 0.00024875673, 10.002672, 9.997416 
1.5351233e+3, 2.946203e+2, 110309.266, -250543.5, 11127.136, -0.048647184, 0.10544484, 110652.055, 163392.5, 0.00082812813, 10.002238, 9.997509 
1.5351361e+3, 3.0461875e+2, 230716.52, -111938.125, 65694.68, -0.00033362146, 0.19558524, 242879.9, 242879.9, 0.001892961, 10.002526, 9.997992 
1.5351503e+3, 3.1461638e+2, 419464.78, 117857.49, 111990.89, 0.08311756, 0.08195453, 456500.72, 456500.72, 0.003309201, 10.003178, 9.99925 
1.5449111e+3, 1.24615744e+2, -2120097.5, -1779940.0, 85979.15, 0.14131135, 0.083978415, -1759442.9, -40668.94, 0.019406972, 9.996577, 10.001166 
1.544923e+3, 1.3461477e+2, -1740489.9, -1514026.0, 10052.97, 0.039843377, -0.21955113, -1513580.6, 107202.01, 0.0117135905, 9.998405, 10.001456 
1.5449353e+3, 1.4462e+2, -1728604.1, -1611076.9, -27328.049, 0.07663006, 0.24941795, -1605033.1, -82301.39, 0.0052204016, 9.998491, 10.000064 
1.5449478e+3, 1.5461956e+2, -1552638.4, -1422488.6, -19459.682, 0.14427224, 0.1187368, -1419641.3, 5096.631, 0.0014059248, 9.998793, 10.000544 
1.5449606e+3, 1.6461942e+2, -1459611.4, -1414008.5, 70341.67, 0.17183697, 0.099005826, -1362865.0, -36123.586, 0.00014487762, 9.999146, 9.999744 
1.544973e+3, 1.7461985e+2, -1260941.5, -1251942.4, 52667.53, 0.059215553, 0.117785096, -1203582.6, 25157.133, 0.000001197513, 9.999772, 9.999882 
1.5449852e+3, 1.8462004e+2, -1158562.1, -1146253.3, 24911.543, -0.010565734, 0.15928029, -1126747.1, 3991.5847, 0.0, 9.999776, 9.999941 
1.5449974e+3, 1.9461986e+2, -1093518.4, -1035226.56, 3524.6042, -0.014871623, 0.0916026, -1035014.25, -2274.7278, 0.0, 9.999433, 10.000192 
1.5450102e+3, 2.0462018e+2, -1028837.94, -1041488.8, 25261.791, 0.02557828, 0.1506663, -1009121.7, -74384.84, 0.0, 9.999567, 9.999416 
1.5450235e+3, 2.1462099e+2, -807519.6, -870666.4, 10616.756, 0.0975279, 0.2454162, -805782.44, 30948.807, 0.0, 10.00036, 9.999532 
1.5450366e+3, 2.2462009e+2, -715131.4, -929271.56, 70079.67, 0.13504638, 0.28051075, -694236.0, 44504.953, 0.0, 10.000996, 9.998143 
1.5450498e+3, 2.3461708e+2, -519681.6, -762476.2, 79141.016, 0.12760773, 0.11710921, -496163.03, 144606.52, 0.0, 10.001585, 9.998324 
1.5450619e+3, 2.446152e+2, -366293.2, -578594.44, 87678.85, 0.03284565, 0.079171374, -334764.7, 208022.52, 0.000000000009610117, 10.001673, 9.998894 
1.5450732e+3, 2.5461456e+2, -330767.0, -489073.3, 31467.188, -0.15272577, 0.07295568, -324741.5, 120051.56, 0.0000005675007, 10.001157, 9.999083 
1.5450865e+3, 2.6461443e+2, -317489.3, -522096.38, 40200.246, -0.16221459, 0.20248929, -309874.38, 36921.402, 0.000008574752, 10.000974, 9.998266 
1.545102e+3, 2.746145e+2, -165315.88, -386970.6, 15831.363, 0.0131147625, 0.3422513, -164190.84, 84607.92, 0.00005426492, 10.00129, 9.99837 
1.5451153e+3, 2.8461254e+2, -41999.53, -363211.72, -37642.902, 0.065622754, 0.35469016, -37647.13, 113172.586, 0.00026286932, 10.001846, 9.997572 
1.5451257e+3, 2.9460832e+2, 186913.42, -193419.22, -52391.465, -0.04722439, 0.11712306, 193998.45, 246858.13, 0.0008685198, 10.002707, 9.997647 
1.5451391e+3, 3.0460665e+2, 323910.5, -18382.05, 31299.459, 0.04009379, 0.16401595, 326749.0, 326749.0, 0.001959959, 10.002944, 9.998442 
1.5451545e+3, 3.1460515e+2, 267688.5, 17407.113, -22919.715, 0.24999508, 0.098736435, 269770.06, 269770.06, 0.0033944638, 10.002231, 9.999019 
1.5549082e+3, 1.2460519e+2, -1983915.4, -1535278.3, 17523.307, 0.10230689, 0.1806106, -1534594.9, 184288.36, 0.020587768, 9.996739, 10.002791 
1.5549216e+3, 1.3460472e+2, -1811727.8, -1639736.6, 50933.914, 0.028195113, 0.012465706, -1625784.6, -4898.211, 0.012455585, 9.998333, 10.000623 
1.5549353e+3, 1.4460835e+2, -1682834.1, -1538032.0, -49982.63, 0.17234926, 0.3418334, -1522454.8, 394.22803, 0.0055746003, 9.998572, 10.000531 
1.5549469e+3, 1.5460701e+2, -1523569.5, -1358332.1, 9122.36, 0.14356892, 0.072413795, -1357830.0, 67029.94, 0.001515748, 9.998786, 10.000984 
1.5549593e+3, 1.6460688e+2, -1442129.5, -1402843.3, 75264.3, 0.07836176, 0.030128919, -1344701.0, -17839.21, 0.00016035176, 9.999246, 9.999779 
1.5549722e+3, 1.74608e+2, -1267761.0, -1253869.3, 87391.09, -0.012427808, 0.12099347, -1173148.4, 55706.047, 0.0000013687348, 9.9997225, 9.999894 
1.5549852e+3, 1.8460861e+2, -1170457.4, -1160600.3, -6278.4507, -0.02814847, 0.20373812, -1157547.0, -26696.303, 0.0, 9.999735, 9.99986 
1.5549979e+3, 1.9460848e+2, -1126750.6, -1066415.1, 6704.8716, 0.0444032, 0.15457293, -1065679.0, -32826.87, 0.0, 9.999281, 10.000047 
1.5550101e+3, 2.0460844e+2, -1041599.4, -1041423.94, 35082.582, 0.02078034, 0.18502475, -1006428.94, -71575.76, 0.0, 9.999435, 9.99949 
1.5550222e+3, 2.1460848e+2, -828756.0, -869683.2, 56934.844, -0.098836176, 0.19286256, -788718.94, 48135.41, 0.0, 10.000152, 9.999647 
1.5550356e+3, 2.2460808e+2, -701479.3, -840190.3, 75321.79, -0.100587144, 0.23433094, -668445.56, 70413.016, 0.0, 10.0007305, 9.998882 
1.5550509e+3, 2.3460692e+2, -502052.88, -679370.25, 116719.305, 0.055337064, 0.18284522, -444138.16, 196730.75, 0.0, 10.001374, 9.999002 
1.5550643e+3, 2.4460536e+2, -478967.22, -754229.4, 55497.71, 0.08309677, 0.19354375, -468199.16, 74685.29, 0.0, 10.00142, 9.997809 
1.5550761e+3, 2.5460318e+2, -440905.47, -668081.3, 28955.611, -0.0074129975, 0.14736368, -437272.9, 7634.382, 0.0000005355393, 10.000942, 9.997956 
1.5550888e+3, 2.6460165e+2, -362428.28, -562042.4, 38079.645, -0.06819701, 0.20017157, -355410.7, -8486.223, 0.000008556659, 10.000746, 9.998098 
1.5551025e+3, 2.7460068e+2, -211369.92, -425222.9, 52665.305, -0.095425, 0.24125399, -199103.67, 49832.875, 0.000056489618, 10.001048, 9.9982195 
1.5551159e+3, 2.8459898e+2, -76952.1, -371832.53, -19356.36, -0.09043199, 0.28823388, -75686.95, 75267.35, 0.00027893353, 10.001576, 9.997639 
1.5551288e+3, 2.945964e+2, 155672.72, -189081.36, 2980.467, -0.040135145, 0.19839835, 155698.48, 208677.53, 0.0009153457, 10.002422, 9.9978075 
1.555143e+3, 3.0459458e+2, 284002.9, -33077.31, -9467.231, 0.101852685, 0.2166894, 284285.34, 284285.34, 0.0020538478, 10.002668, 9.998466 
1.5551567e+3, 3.1459263e+2, 149259.16, -98447.99, -8168.5923, 0.19972846, 0.10445745, 149528.23, 149528.23, 0.0035487118, 10.001708, 9.998459 
1.5649067e+3, 1.2459446e+2, -1894508.0, -1493146.1, 39234.695, 0.25198442, 0.25353327, -1489346.8, 229644.16, 0.021849003, 9.997357, 10.002808 
1.5649201e+3, 1.3459353e+2, -2017170.4, -1775422.1, 73306.555, 0.12016981, 0.088190295, -1754930.0, -133932.98, 0.013250772, 9.997084, 10.000307 
1.5649337e+3, 1.445953e+2, -1800311.9, -1600983.1, 44143.5, 0.1902959, 0.23987386, -1591644.5, -68667.28, 0.0059556314, 9.997796, 10.00047 
1.5649466e+3, 1.5459457e+2, -1406726.4, -1322534.3, 18223.469, 0.2073788, 0.0468122, -1318759.0, 106222.97, 0.0016345053, 9.999671, 10.000799 
1.5649591e+3, 1.6459472e+2, -1364762.5, -1365237.1, 41060.71, 0.11771917, 0.040858965, -1323938.4, 3042.4248, 0.00017771397, 9.99977, 9.999794 
1.5649712e+3, 1.745957e+2, -1455546.1, -1340034.0, 27295.209, -0.017288752, 0.116283, -1333909.0, -104934.32, 0.0000016137079, 9.9984, 9.999949 
1.5649843e+3, 1.8459632e+2, -1336987.3, -1235158.1, 20052.205, -0.007315291, 0.19245748, -1231351.8, -100380.99, 0.0, 9.998558, 9.999918 
1.5649985e+3, 1.9459634e+2, -913526.25, -960653.6, 16930.865, 0.1262492, 0.15152816, -908074.4, 124896.16, 0.0, 10.000708, 10.000092 
1.5650113e+3, 2.0459624e+2, -797395.75, -911878.06, 42685.113, 0.11545806, 0.17067902, -783232.6, 151739.42, 0.0, 10.001109, 9.999547 
1.5650223e+3, 2.1459602e+2, -871052.6, -873008.56, 22354.873, -0.060605723, 0.14442618, -849654.3, -12678.924, 0.0, 9.999839, 9.999749 
1.5650359e+3, 2.245958e+2, -829915.4, -898202.75, 95250.12, -0.08740915, 0.19601747, -762874.25, -23895.813, 0.0, 9.9998045, 9.998945 
1.5650521e+3, 2.3459545e+2, -518785.84, -672670.75, 65619.89, 0.062661, 0.21584468, -494604.06, 146378.16, 0.0, 10.001186, 9.999138 
1.5650663e+3, 2.4459413e+2, -408787.1, -745276.0, -1068.4375, 0.117098965, 0.25525194, -408783.7, 134212.38, 0.0, 10.001999, 9.997595 
1.5650782e+3, 2.5459152e+2, -284597.97, -614659.6, 5193.89, 0.05918937, 0.18945447, -284516.25, 160507.25, 0.00000039469393, 10.002112, 9.997752 
1.565091e+3, 2.6458955e+2, -153755.08, -453235.5, 93846.02, 0.011010338, 0.20180093, -126777.42, 220266.64, 0.000008163994, 10.002136, 9.998179 
1.5651044e+3, 2.7458805e+2, -69653.15, -345213.3, 85098.625, -0.037193276, 0.18412034, -45491.492, 203566.66, 0.000058543963, 10.001967, 9.998326 
1.5651181e+3, 2.845863e+2, -15454.84, -372906.7, 72897.305, -0.034411076, 0.23500887, -1160.109, 149915.42, 0.00029613846, 10.002118, 9.997397 
1.5651321e+3, 2.9458416e+2, 188083.48, -202537.0, 25441.441, 0.03786545, 0.2238976, 189733.53, 242831.23, 0.00096601876, 10.0027485, 9.9975815 
1.5651464e+3, 3.0458176e+2, 405866.97, -8278.847, 8696.193, 0.1490774, 0.20822886, 406049.47, 406049.47, 0.002166349, 10.003638, 9.998167 
1.5651597e+3, 3.1458056e+2, 541481.0, 27756.018, -90138.46, 0.18715851, 0.2087097, 556837.7, 556837.7, 0.0037551883, 10.004623, 9.997943 
1.5749039e+3, 1.2458356e+2, -1989930.6, -1718468.6, -24037.38, 0.16540407, 0.32060066, -1716356.6, 2740.0767, 0.023204513, 9.997473, 10.00118 
1.5749179e+3, 1.3458152e+2, -1995967.9, -1734805.0, 79781.74, 0.14924248, 0.038665377, -1712361.5, -91250.18, 0.014108494, 9.997098, 10.000574 
1.5749297e+3, 1.4458105e+2, -1812114.8, -1662510.0, 92968.32, -0.032257464, -0.036497824, -1617987.3, -94873.38, 0.0063687824, 9.997951, 9.999976 
1.5749466e+3, 1.545822e+2, -1474213.9, -1452084.5, 97391.11, 0.213957, 0.04658265, -1365131.5, 59972.68, 0.00176415, 9.999637, 9.999925 
1.5749595e+3, 1.6458292e+2, -1348022.1, -1347647.4, -29940.055, 0.13676304, 0.13859953, -1317894.1, 9204.817, 0.00019721544, 9.999834, 9.999886 
1.5749693e+3, 1.74583e+2, -1448940.0, -1321108.6, -9334.494, -0.09362042, 0.105487354, -1320430.6, -91330.7, 0.0000019795527, 9.998376, 10.000091 
1.5749824e+3, 1.8458329e+2, -1314330.4, -1193736.1, 78593.62, -0.101872206, 0.1303341, -1154974.3, -23876.75, 0.0, 9.998572, 10.000197 
1.5749991e+3, 1.945837e+2, -916065.44, -933509.8, 110943.74, 0.09596734, 0.101273246, -813501.56, 219590.88, 0.0, 10.000569, 10.000344 
1.5750131e+3, 2.0458378e+2, -822922.44, -931621.0, -19470.8, 0.15068546, 0.12659487, -819540.0, 115551.51, 0.0, 10.000955, 9.999489 
1.5750238e+3, 2.1458341e+2, -910247.75, -907260.75, -13406.414, 0.07155179, 0.09440075, -895264.94, -58168.344, 0.0, 9.999632, 9.999617 
1.575037e+3, 2.2458307e+2, -891866.7, -973400.06, 129283.93, 0.021460447, 0.16092272, -797074.3, -57972.22, 0.0, 9.999577, 9.998536 
1.575053e+3, 2.3458263e+2, -587024.7, -755580.7, 131380.77, 0.016024947, 0.21511544, -515213.97, 125895.555, 0.0, 10.000935, 9.998691 
1.5750672e+3, 2.4458155e+2, -411219.66, -680680.5, -11458.255, -0.014486766, 0.271152, -410733.28, 132388.78, 0.0, 10.001698, 9.998181 
1.5750793e+3, 2.5457957e+2, -277076.78, -546033.25, 24589.129, -0.069544785, 0.20001003, -274847.22, 170294.86, 0.00000029448665, 10.001881, 9.998332 
1.5750927e+3, 2.64578e+2, -173549.9, -439121.3, 70544.195, -0.05384065, 0.21867847, -155974.3, 191181.03, 0.000007127328, 10.001897, 9.998394 
1.5751074e+3, 2.745766e+2, -81720.45, -321845.34, 97222.02, 0.03692776, 0.18255937, -47293.047, 201871.25, 0.000059012113, 10.001762, 9.998586 
1.5751214e+3, 2.8457445e+2, -88013.266, -481353.97, 75929.63, 0.062259376, 0.20963193, -73864.89, 77319.52, 0.00030982727, 10.001927, 9.996745 
1.575135e+3, 2.9457173e+2, 94023.27, -328705.4, 76866.16, 0.025799071, 0.20335588, 107566.23, 160781.36, 0.0010139579, 10.002451, 9.996858 
1.575149e+3, 3.045683e+2, 311024.3, -123467.14, 32790.902, 0.012811474, 0.15735394, 313485.1, 313485.1, 0.002282176, 10.003309, 9.997517 
1.5751621e+3, 3.1456867e+2, 419042.53, -72475.44, -122.3436, -0.08706158, 0.36691374, 419042.56, 419042.56, 0.003977177, 10.004002, 9.997524 
1.5849008e+3, 1.2456946e+2, -2098926.5, -1845142.5, -53793.625, 0.13004865, 0.2767558, -1834211.0, -114976.39, 0.024665277, 9.997051, 10.000489 
1.5849154e+3, 1.3456841e+2, -1878960.0, -1623800.6, -39333.426, 0.19118024, 0.0462401, -1617875.0, 3365.285, 0.0150364665, 9.997653, 10.00106 
1.5849279e+3, 1.4456852e+2, -1808437.3, -1645338.6, 38843.242, 0.010087446, -0.008075567, -1636560.3, -113322.44, 0.0068181083, 9.99791, 10.000114 
1.5849452e+3, 1.5456963e+2, -1794465.4, -1604829.9, 67443.555, 0.21945068, 0.07274397, -1583290.3, -158060.58, 0.0019058621, 9.997418, 9.999949 
1.5849581e+3, 1.6457038e+2, -1614888.9, -1447101.8, 4020.696, 0.13244247, 0.15513119, -1447005.4, -119781.734, 0.0002187055, 9.997886, 10.000139 
1.5849686e+3, 1.7457055e+2, -1195761.8, -1164006.5, -2827.9905, -0.06440372, 0.10073137, -1163756.6, 65465.19, 0.000002466339, 9.999975, 10.000395 
1.5849821e+3, 1.8457082e+2, -1075437.3, -1096049.1, 103518.52, -0.06478981, 0.11487692, -981712.9, 149505.73, 0.0, 10.000297, 10.000034 
1.5849984e+3, 1.9457102e+2, -1171214.1, -1074665.3, 69945.7, 0.06272913, 0.08704916, -1037952.5, -4736.675, 0.0, 9.998897, 10.000176 
1.5850127e+3, 2.0457096e+2, -1110145.3, -1108117.3, -44815.66, 0.13052475, 0.121275455, -1064304.1, -129087.28, 0.0, 9.999114, 9.999181 
1.5850252e+3, 2.1457049e+2, -672062.25, -829195.56, -80488.55, 0.16079043, 0.10930608, -638151.7, 199072.17, 0.0, 10.00138, 9.999328 
1.5850388e+3, 2.2456995e+2, -539179.94, -800584.7, 87683.38, 0.1307402, 0.16904618, -512492.7, 226738.97, 0.0, 10.002014, 9.998549 
1.585054e+3, 2.3456919e+2, -579578.4, -756255.4, 88393.12, 0.013278097, 0.19826852, -542948.75, 98292.89, 0.0, 10.000997, 9.998674 
1.5850683e+3, 2.4456812e+2, -510773.84, -704795.7, -5375.7666, -0.03625092, 0.25059438, -510625.0, 32628.758, 0.0, 10.000935, 9.998371 
1.5850817e+3, 2.545667e+2, -237218.89, -509476.75, -40126.27, -0.018140778, 0.22205491, -231428.11, 213840.33, 0.00000023115544, 10.002088, 9.9984865 
1.5850955e+3, 2.645651e+2, -72809.016, -409518.0, -15562.765, 0.0160645, 0.24106193, -72091.234, 275190.6, 0.0000061293663, 10.002687, 9.998205 
1.5851098e+3, 2.74563e+2, 61618.01, -270687.1, -61557.016, 0.057176888, 0.15836449, 72654.445, 321951.3, 0.000060026516, 10.002849, 9.998397 
1.585124e+3, 2.845607e+2, 74268.625, -383454.8, -31664.404, 0.08353949, 0.16638443, 76448.73, 227766.53, 0.0003212461, 10.002966, 9.996903 
1.5851383e+3, 2.9455814e+2, 182860.64, -265452.38, -12997.566, 0.09623553, 0.16046076, 183237.16, 236582.31, 0.0010570007, 10.002961, 9.997037 
1.5851523e+3, 3.0455437e+2, 263156.4, -176831.64, 42507.754, 0.043963164, 0.08330392, 267225.5, 267225.5, 0.0023874303, 10.003073, 9.997291 
1.5851653e+3, 3.145551e+2, 307186.78, -93969.43, -44382.684, -0.101027645, 0.36660516, 312038.47, 312038.47, 0.004171727, 10.003055, 9.997857 
1.594899e+3, 1.24552734e+2, -2055395.9, -1811180.8, 69627.45, 0.16581142, 0.13774139, -1792724.3, -73325.484, 0.026239868, 9.997254, 10.000642 
1.5949132e+3, 1.3455434e+2, -1845402.3, -1554481.3, 15566.234, 0.14782012, 0.11071298, -1553650.8, 67731.516, 0.016040104, 9.997659, 10.001534 
1.5949276e+3, 1.445575e+2, -1731107.3, -1533079.5, 2563.8484, 0.13746846, 0.3127578, -1533046.4, -9695.275, 0.0073062, 9.998094, 10.000805 
1.5949415e+3, 1.5455708e+2, -1723947.5, -1469528.8, 59100.2, 0.0797436, 0.14474206, -1456470.3, -31114.193, 0.002060233, 9.997454, 10.000867 
1.5949547e+3, 1.6455749e+2, -1574002.4, -1382163.6, 55928.746, -0.04823766, 0.12486305, -1367049.0, -39697.67, 0.00024185247, 9.997967, 10.000546 
1.594969e+3, 1.7455849e+2, -1178689.5, -1119619.6, 89545.58, -0.04528508, 0.12004598, -1054864.0, 174474.58, 0.0000030340082, 9.999938, 10.000716 
1.594983e+3, 1.8455882e+2, -1115988.9, -1183047.0, 37934.816, -0.047085956, 0.1512381, -1098889.4, 32444.928, 0.0, 10.000304, 9.9994335 
1.594996e+3, 1.945583e+2, -1237314.3, -1179342.4, 32070.5, -0.107647456, 0.1121714, -1165099.9, -131759.0, 0.0, 9.998766, 9.999518 
1.59501e+3, 2.0455791e+2, -1164995.0, -1186265.4, 19202.168, -0.087700844, 0.17051455, -1153679.6, -218332.48, 0.0, 9.99896, 9.998715 
1.5950258e+3, 2.1455751e+2, -743617.2, -912668.25, 18980.41, 0.07601331, 0.20914412, -741512.3, 95842.56, 0.0, 10.00111, 9.99888 
1.5950407e+3, 2.2455668e+2, -551670.0, -771259.4, 38616.063, 0.09125046, 0.24813093, -545077.06, 194287.47, 0.0, 10.001763, 9.998874 
1.5950543e+3, 2.3455523e+2, -591419.4, -726361.06, 70347.28, -0.07642664, 0.16747454, -561416.9, 79960.75, 0.0, 10.000756, 9.998997 
1.5950689e+3, 2.4455406e+2, -574825.44, -773769.9, 23397.91, -0.101275936, 0.20859824, -572110.7, -28721.11, 0.0, 10.000665, 9.998023 
1.5950848e+3, 2.5455305e+2, -303034.63, -575993.9, 20738.924, 0.06973375, 0.25359216, -301467.9, 143934.38, 0.00000009760233, 10.001804, 9.998154 
1.5950991e+3, 2.6455092e+2, -158395.98, -533166.6, -22562.62, 0.078903764, 0.27193674, -157042.52, 190380.67, 0.0000054247644, 10.002443, 9.997476 
1.5951113e+3, 2.7454752e+2, -28051.932, -401485.06, -32286.44, -0.1103004, 0.12272466, -25281.057, 224173.42, 0.0000627863, 10.0026, 9.997621 
1.5951252e+3, 2.8454497e+2, 88727.67, -276722.56, -47921.69, -0.12204599, 0.11105449, 94907.18, 246383.36, 0.0003316825, 10.002647, 9.9977865 
1.5951414e+3, 2.945431e+2, 205023.97, -142498.4, 14440.467, 0.07894373, 0.075697325, 205622.98, 259113.77, 0.0010854213, 10.002643, 9.9980345 
1.5951559e+3, 3.045398e+2, 214156.19, -193479.88, 25976.03, 0.06030625, -0.006145804, 215804.81, 215804.81, 0.002452494, 10.002731, 9.997332 
1.5951684e+3, 3.1454018e+2, 281290.2, -6092.2407, 7643.7026, -0.15560961, 0.23364174, 281493.34, 281493.34, 0.00428331, 10.002487, 9.998724 
1.6048971e+3, 1.2453788e+2, -2054027.4, -1740847.8, 174373.11, 0.28262752, 0.09905135, -1663073.8, 56469.88, 0.027939666, 9.996999, 10.001266 
1.6049103e+3, 1.3453974e+2, -1870554.5, -1561991.8, 41545.29, 0.14340726, 0.0979918, -1556495.9, 65030.797, 0.01712635, 9.9974985, 10.00156 
1.6049263e+3, 1.4454354e+2, -1807249.9, -1525612.9, 15885.564, 0.2267718, 0.35237515, -1524719.8, -1229.6492, 0.007836914, 9.997411, 10.00117 
1.6049391e+3, 1.545437e+2, -1621970.9, -1360242.1, -5877.4014, 0.080187075, 0.18931541, -1360110.3, 65378.707, 0.0022287087, 9.9979105, 10.001386 
1.604953e+3, 1.6454427e+2, -1535868.1, -1351838.0, 46792.418, -0.018223722, 0.15441844, -1340623.8, -13141.709, 0.00026665046, 9.9981985, 10.000628 
1.604969e+3, 1.7454503e+2, -1340104.4, -1188227.0, 27719.225, 0.020027015, 0.120748766, -1183326.0, 46145.293, 0.0000036433328, 9.998804, 10.000782 
1.6049834e+3, 1.8454525e+2, -1242503.9, -1269681.6, -44636.668, 0.015634477, 0.14807002, -1209433.5, -77965.09, 0.0, 9.999536, 9.999209 
1.6049957e+3, 1.9454461e+2, -959602.6, -1070576.5, -53228.813, -0.08955234, 0.11894014, -938199.3, 95277.13, 0.0, 10.000752, 9.999312 
1.6050099e+3, 2.0454404e+2, -862144.7, -1055616.5, 30283.762, -0.08988377, 0.17645162, -857515.25, 77969.29, 0.0, 10.001128, 9.998565 
1.6050264e+3, 2.1454345e+2, -807120.1, -955469.1, 18420.13, 0.040047117, 0.21365167, -804867.2, 32626.027, 0.0, 10.000748, 9.998754 
1.6050415e+3, 2.2454242e+2, -706584.6, -863701.2, 24356.559, 0.062216874, 0.24824452, -702895.44, 36608.797, 0.0, 10.000767, 9.9987135 
1.6050553e+3, 2.345409e+2, -506933.8, -690447.5, -15686.494, -0.059495695, 0.1705807, -505602.6, 135915.53, 0.0, 10.0013685, 9.998924 
1.6050704e+3, 2.445397e+2, -419866.56, -683839.9, -6026.644, -0.05625837, 0.20321822, -419729.06, 123801.27, 0.0, 10.001662, 9.998166 
1.6050869e+3, 2.545386e+2, -310594.56, -563653.06, 143.98018, 0.113359496, 0.23434657, -310594.47, 134948.56, 0.000000007673713, 10.001671, 9.998311 
1.6051017e+3, 2.6453665e+2, -211210.78, -541486.2, 34719.51, 0.12417688, 0.25179428, -207600.42, 139962.36, 0.0000049768487, 10.001999, 9.997642 
1.6051142e+3, 2.745338e+2, -10818.234, -380722.06, 41338.125, -0.06424758, 0.15292133, -6254.8433, 243334.97, 0.00006482946, 10.00265, 9.99776 
1.6051283e+3, 2.8453156e+2, 164290.67, -212195.45, 68232.0, -0.087946646, 0.14960991, 176275.13, 327884.03, 0.00033743004, 10.003001, 9.998081 
1.6051441e+3, 2.9452968e+2, 289191.53, -65074.082, 36901.117, 0.07782539, 0.08372383, 292994.4, 346616.5, 0.0010902435, 10.003046, 9.998383 
1.6051584e+3, 3.0452663e+2, 265833.25, -171328.58, 63750.016, 0.050373785, 0.006628474, 274940.03, 274940.03, 0.0024557733, 10.003095, 9.997305 
1.605172e+3, 3.145256e+2, 388080.7, 86445.59, -44090.336, -0.045298386, 0.11642495, 394393.3, 394393.3, 0.004282768, 10.003006, 9.999122 
1.6148938e+3, 1.2452421e+2, -1940781.6, -1596038.0, -36254.844, 0.16436833, 0.091425344, -1592266.5, 127409.06, 0.02978273, 9.997342, 10.002126 
1.6149072e+3, 1.3452494e+2, -1894208.1, -1620965.9, 50950.797, 0.04389833, 0.028479962, -1611774.4, 9895.386, 0.018308382, 9.997538, 10.001137 
1.6149227e+3, 1.4452717e+2, -1788557.8, -1514361.1, 13255.67, 0.0800664, 0.1447288, -1513721.8, 9927.901, 0.008418617, 9.997518, 10.0012 
1.6149375e+3, 1.5452948e+2, -1619805.5, -1359922.9, 29259.385, 0.08278555, 0.20133811, -1356669.4, 68958.64, 0.0024150687, 9.99793, 10.001378 
1.6149525e+3, 1.6453062e+2, -1529280.8, -1381634.0, 45459.348, 0.06549438, 0.2352524, -1368760.0, -41143.02, 0.0002938315, 9.998368, 10.000347 
1.614968e+3, 1.7453013e+2, -1360215.9, -1232741.6, 61052.453, 0.008728459, 0.104243726, -1208218.8, 21401.525, 0.000004294035, 9.998799, 10.000484 
1.614983e+3, 1.8453e+2, -1230244.3, -1243533.8, -16823.166, -0.029183788, 0.10353584, -1218801.1, -87179.7, 0.0, 9.999534, 9.999387 
1.6149975e+3, 1.9453003e+2, -960745.0, -1050205.5, 6858.3887, -0.013985362, 0.11860124, -960222.25, 73399.875, 0.0, 10.000655, 9.999499 
1.615012e+3, 2.045295e+2, -880242.7, -1053807.4, -1859.7574, -0.03040478, 0.16487381, -880222.75, 55405.08, 0.0, 10.000957, 9.998658 
1.6150263e+3, 2.1452823e+2, -835010.5, -963039.7, 17121.068, -0.06914181, 0.12510681, -832760.5, 4879.123, 0.0, 10.000535, 9.998802 
1.615041e+3, 2.2452715e+2, -793564.5, -973074.7, 28611.209, -0.088789694, 0.17973411, -789114.6, -49463.49, 0.0, 10.000471, 9.998102 
1.6150567e+3, 2.345261e+2, -591770.0, -801800.7, 24859.8, -0.07876733, 0.21263927, -588867.6, 52796.39, 0.0, 10.001101, 9.998286 
1.6150723e+3, 2.4452485e+2, -414151.78, -618116.25, -21680.34, -0.061796337, 0.24992879, -411872.72, 131804.45, 0.0, 10.001418, 9.998739 
1.6150874e+3, 2.5452337e+2, -303857.2, -490688.03, 20948.518, -0.023245638, 0.16598259, -301537.16, 144153.98, 0.00000000987263, 10.001412, 9.998936 
1.6151027e+3, 2.645223e+2, -198605.66, -440972.97, 40320.324, 0.0024213004, 0.19869938, -192073.97, 155626.6, 0.000004852571, 10.001689, 9.998472 
1.6151181e+3, 2.745216e+2, 11601.333, -271155.44, 87659.664, 0.0275628, 0.22336146, 36572.17, 286278.84, 0.00006465758, 10.002397, 9.998622 
1.6151325e+3, 2.845202e+2, 98952.0, -283868.53, 50573.043, 0.007493853, 0.28007346, 105520.33, 257238.86, 0.0003366383, 10.002724, 9.997724 
1.615146e+3, 2.9451796e+2, 218228.31, -142567.9, 63147.82, -0.0782087, 0.20897794, 228961.38, 282699.28, 0.0010768002, 10.00274, 9.997999 
1.6151598e+3, 3.045145e+2, 196730.95, -225768.56, 38773.477, -0.16188982, 0.11993694, 200259.78, 200259.78, 0.0024103401, 10.002738, 9.997082 
1.615175e+3, 3.1451154e+2, 291650.22, 43788.72, 21321.63, -0.10034045, 0.04842338, 293470.97, 293470.97, 0.0041881627, 10.002389, 9.99909 
1.6248919e+3, 1.24510646e+2, -1959405.9, -1614837.6, -46715.027, 0.2566059, 0.11629211, -1608616.6, 111191.89, 0.03179242, 9.997274, 10.0019865 
1.6249052e+3, 1.3451156e+2, -1944809.3, -1697546.1, 11489.316, 0.105855316, 0.104699954, -1697013.5, -75211.64, 0.019603958, 9.997392, 10.000668 
1.6249196e+3, 1.4451234e+2, -1876554.6, -1576461.9, 33087.957, 0.05682861, 0.1114836, -1572857.0, -49061.04, 0.009062119, 9.997031, 10.000994 
1.6249359e+3, 1.5451457e+2, -1603375.5, -1365879.6, 14051.263, 0.118745886, 0.17317483, -1365051.3, 60723.484, 0.002624408, 9.998117, 10.001239 
1.6249517e+3, 1.6451573e+2, -1504162.3, -1393545.4, 41997.58, 0.13227099, 0.22962026, -1379407.3, -51643.344, 0.00032476612, 9.998645, 10.000135 
1.6249669e+3, 1.7451571e+2, -1394685.5, -1265719.8, 26401.512, 0.032978073, 0.16152108, -1260524.3, -30759.164, 0.000005034694, 9.998641, 10.000329 
1.6249824e+3, 1.8451568e+2, -1322336.4, -1302410.3, 8798.803, -0.0012603917, 0.18922865, -1299081.1, -167314.77, 0.0, 9.998973, 9.999261 
1.6249986e+3, 1.9451556e+2, -1053818.9, -1096597.1, -21179.61, 0.051346894, 0.19811614, -1045106.94, -11338.068, 0.0, 10.000056, 9.999462 
1.6250134e+3, 2.0451488e+2, -899241.0, -1039005.6, -50231.35, 0.033870608, 0.22046906, -883060.94, 52713.72, 0.0, 10.000703, 9.99889 
1.6250268e+3, 2.1451339e+2, -766812.56, -906088.4, -48998.797, -0.07186171, 0.13672888, -751301.7, 86484.195, 0.0, 10.0008745, 9.9990425 
1.6250415e+3, 2.2451213e+2, -722148.3, -927691.7, 37325.723, -0.09751891, 0.15692502, -715580.0, 24217.293, 0.0, 10.000905, 9.998205 
1.625058e+3, 2.3451093e+2, -631402.56, -814401.4, 51933.08, -0.040884797, 0.16762522, -617691.75, 24119.14, 0.0, 10.000787, 9.998358 
1.6250739e+3, 2.4450973e+2, -497543.5, -659992.6, 37113.16, -0.006364466, 0.20348705, -489466.22, 54357.7, 0.0, 10.000851, 9.998723 
1.6250888e+3, 2.5450844e+2, -335633.97, -510727.75, -8941.797, -0.019242933, 0.14690062, -335178.5, 110658.21, 0.000000011745934, 10.0012045, 9.998901 
1.6251042e+3, 2.6450762e+2, -208357.84, -399873.7, 13638.002, 0.0112761175, 0.18722038, -207391.55, 140452.25, 0.0000048598445, 10.001428, 9.998882 
1.6251208e+3, 2.7450708e+2, -82786.78, -272749.66, -9875.647, 0.10807982, 0.19417535, -82274.76, 167572.02, 0.00006306325, 10.001546, 9.9990225 
1.6251358e+3, 2.8450593e+2, -23789.451, -336631.47, -15359.468, 0.11417957, 0.25085402, -23037.164, 128819.54, 0.00033149842, 10.001876, 9.997754 
1.6251491e+3, 2.94504e+2, 185969.81, -162082.67, -34452.426, -0.021369176, 0.21775422, 189347.36, 243222.67, 0.0010554205, 10.002543, 9.997953 
1.6251627e+3, 3.045011e+2, 252334.45, -184064.31, 3928.7458, -0.13613044, 0.17703417, 252369.83, 252369.83, 0.002340937, 10.0030365, 9.997239 
1.6251786e+3, 3.1449777e+2, 407674.75, 74273.63, -58231.242, -0.009775249, 0.065271296, 417552.66, 417552.66, 0.0040345946, 10.003237, 9.998926 
1.6348886e+3, 1.244976e+2, -2003693.1, -1734645.1, 27632.396, 0.11337862, 0.19399728, -1731836.5, -11898.525, 0.03398967, 9.997413, 10.001067 
1.6349036e+3, 1.3449956e+2, -1983624.5, -1782812.0, 1548.8308, 0.16380101, 0.32911474, -1782800.0, -160876.98, 0.02102759, 9.997414, 10.000071 
1.6349168e+3, 1.4449906e+2, -1875065.4, -1621673.9, 32688.383, 0.011892953, 0.26340386, -1617524.9, -93595.48, 0.009775217, 9.997214, 10.000608 
1.6349335e+3, 1.5449902e+2, -1620110.3, -1406679.8, 65676.586, 0.03974732, 0.12716196, -1388089.1, 37838.914, 0.002860367, 9.998138, 10.000954 
1.6349496e+3, 1.6449974e+2, -1497688.6, -1398883.9, 23949.549, 0.01577507, 0.15446839, -1393384.8, -65462.918, 0.00036087315, 9.998717, 10.000066 
1.6349651e+3, 1.7450167e+2, -1408381.0, -1288582.0, 35052.203, -0.036069725, 0.2967988, -1279079.8, -49173.336, 0.000005927034, 9.998617, 10.000182 
1.6349813e+3, 1.8450227e+2, -1341109.6, -1351120.1, 26179.412, -0.048831202, 0.40888056, -1319461.3, -187557.75, 0.0, 9.999007, 9.998915 
1.6349982e+3, 1.9450103e+2, -1092875.0, -1157643.0, 32513.133, -0.019824952, 0.34280315, -1079369.8, -45451.598, 0.0, 9.999966, 9.999093 
1.6350137e+3, 2.0449993e+2, -895735.3, -992411.94, -57668.863, -0.03779426, 0.32383734, -868825.44, 67102.31, 0.0, 10.000531, 9.999296 
1.6350275e+3, 2.1449885e+2, -764780.1, -856064.44, -24637.98, -0.09839092, 0.23418936, -758554.75, 79378.37, 0.0, 10.00067, 9.999488 
1.6350424e+3, 2.2449738e+2, -720403.8, -852655.2, 19512.365, -0.124645166, 0.18144469, -717585.0, 22357.996, 0.0, 10.000604, 9.998862 
1.6350587e+3, 2.3449539e+2, -620964.75, -731510.25, 63628.637, -0.07519971, 0.040666133, -591954.1, 50004.94, 0.0, 10.000528, 9.999046 
1.6350748e+3, 2.4449417e+2, -591780.0, -781572.8, 32731.36, -0.035308063, 0.072322585, -586293.8, -42322.574, 0.0, 10.000542, 9.998033 
1.6350903e+3, 2.544938e+2, -419979.06, -629246.75, 24290.777, -0.016314637, 0.1814339, -417196.53, 28783.434, 0.000000006263202, 10.000978, 9.998188 
1.6351059e+3, 2.6449275e+2, -244214.83, -430055.63, 2626.9944, -0.00067843415, 0.23946524, -244177.7, 103813.2, 0.000005059976, 10.00122, 9.998781 
1.6351219e+3, 2.7449062e+2, -117321.07, -294637.5, 22183.938, 0.03642551, 0.08424844, -114587.79, 135419.2, 0.000060994436, 10.00132, 9.998983 
1.6351376e+3, 2.8448892e+2, -56869.152, -331357.34, -7917.0947, 0.057238903, 0.07920281, -56640.99, 95380.67, 0.0003219481, 10.001577, 9.997925 
1.6351528e+3, 2.9448777e+2, 148116.84, -160227.98, 19524.346, 0.0603752, 0.10778594, 149348.2, 203382.75, 0.0010251604, 10.002223, 9.99811 
1.6351669e+3, 3.044863e+2, 225218.3, -153691.36, -8021.365, -0.06090054, 0.18759136, 225388.03, 225388.03, 0.002256329, 10.00267, 9.997624 
1.6351822e+3, 3.1448424e+2, 319603.47, 25000.479, 25348.566, -0.048832174, 0.15130079, 321768.63, 321768.63, 0.0038522251, 10.002679, 9.998848 
1.6448852e+3, 1.24481924e+2, -1952751.0, -1740170.5, -34840.594, 0.022774579, 0.1743, -1734606.0, -14512.485, 0.036383986, 9.997929, 10.000782 
1.6449009e+3, 1.344844e+2, -1942875.3, -1744564.1, -110204.19, 0.16135962, 0.34697157, -1695474.0, -73401.055, 0.022584815, 9.9976225, 10.000237 
1.6449153e+3, 1.4448364e+2, -1818324.4, -1613936.3, 38051.6, 0.13501476, 0.25400162, -1607081.9, -83000.48, 0.010560797, 9.997679, 10.000443 
1.6449317e+3, 1.5448356e+2, -1602774.0, -1419536.8, 48593.246, 0.06329001, 0.12861456, -1407447.8, 18632.748, 0.0031241647, 9.998333, 10.000775 
1.644948e+3, 1.6448423e+2, -1520478.9, -1421420.0, 18279.934, 0.0024907638, 0.16551577, -1418154.4, -90079.91, 0.0004029895, 9.998623, 9.999958 
1.6449639e+3, 1.744861e+2, -1374558.8, -1290636.3, -4167.615, -0.030166132, 0.3173669, -1290429.8, -60369.586, 0.0000070009137, 9.998925, 10.000031 
1.6449806e+3, 1.8448657e+2, -1290909.3, -1287721.3, 63478.977, -0.020070843, 0.41034204, -1225816.3, -93758.27, 0.0, 9.999198, 9.999239 
1.6449982e+3, 1.9448516e+2, -1106866.8, -1125609.3, 88403.81, 0.0068610106, 0.2908385, -1027338.9, 6733.538, 0.0, 9.999713, 9.999419 
1.6450143e+3, 2.0448433e+2, -957651.1, -1009644.2, 28305.475, 0.010087364, 0.27867913, -945215.6, -9136.248, 0.0, 10.000068, 9.999388 
1.6450287e+3, 2.1448417e+2, -805065.44, -857847.3, -2626.37, -0.027899109, 0.2695403, -804935.06, 33142.816, 0.0, 10.000345, 9.999611 
1.6450436e+3, 2.244831e+2, -696705.2, -829707.6, 40366.754, -0.050324075, 0.24166822, -685412.5, 54672.18, 0.0, 10.000704, 9.998986 
1.6450597e+3, 2.3448074e+2, -521804.94, -671905.06, 11856.973, -0.047346286, 0.05602096, -520874.06, 121229.0, 0.0, 10.001152, 9.99917 
1.6450758e+3, 2.444794e+2, -461516.78, -719883.9, 19816.635, -0.008223807, 0.06904101, -460005.7, 84109.9, 0.0, 10.001435, 9.998028 
1.6450919e+3, 2.5447908e+2, -335502.0, -597743.44, 26491.035, 0.041885328, 0.18926294, -332852.72, 113270.56, 0.000000005166704, 10.001585, 9.998121 
1.6451077e+3, 2.6447782e+2, -179434.78, -434519.03, 52516.133, 0.050310478, 0.24572124, -169045.98, 179090.64, 0.000005473011, 10.001833, 9.998444 
1.6451232e+3, 2.7447522e+2, 12501.289, -263919.8, -862.8652, -0.0016646486, 0.07905135, 12503.982, 262662.44, 0.000058881178, 10.002384, 9.998663 
1.645139e+3, 2.844733e+2, 114632.72, -243792.52, -7163.5947, 0.009138376, 0.06669973, 114775.836, 266951.53, 0.0003079229, 10.002722, 9.997998 
1.6451555e+3, 2.944722e+2, 199197.31, -129119.89, -31141.547, 0.10276088, 0.09866673, 202125.05, 256312.73, 0.0009851817, 10.002536, 9.998188 
1.6451702e+3, 3.0447093e+2, 282634.34, -111004.88, -5549.1084, 0.0072137252, 0.18600821, 282712.56, 282712.56, 0.0021653366, 10.002963, 9.997789 
1.6451854e+3, 3.1446978e+2, 476649.53, 75140.52, -80890.62, -0.015517355, 0.22788899, 492333.6, 492333.6, 0.0036781193, 10.003879, 9.998608 
1.6548833e+3, 1.2446447e+2, -1907443.4, -1703482.4, -182386.86, -0.04774589, 0.14752151, -1596501.1, 123765.5, 0.03897044, 9.998142, 10.000974 
1.6548969e+3, 1.3446645e+2, -1872147.0, -1598933.4, -100644.586, -0.03362212, 0.1940355, -1565861.9, 56385.875, 0.024272982, 9.997622, 10.001253 
1.6549146e+3, 1.4446613e+2, -1794487.0, -1587369.1, 38529.023, 0.252953, 0.07690129, -1580434.0, -56182.78, 0.0114189135, 9.997779, 10.000575 
1.6549304e+3, 1.5446824e+2, -1607002.6, -1434595.0, 85024.016, 0.051656205, 0.18174842, -1399719.6, 26511.422, 0.0034161112, 9.998365, 10.000656 
1.6549464e+3, 1.6446936e+2, -1513015.5, -1435803.9, 7579.354, -0.06682053, 0.2800936, -1435066.9, -106846.07, 0.00045137366, 9.998739, 9.999807 
1.6549626e+3, 1.7446908e+2, -1382172.3, -1298956.3, 19550.553, -0.07155435, 0.22201562, -1294591.9, -64366.51, 0.000008273259, 9.998897, 9.999985 
1.6549799e+3, 1.8446864e+2, -1224094.1, -1156979.0, 67961.07, -0.055900317, 0.18271555, -1114742.0, 17487.055, 0.0, 9.999218, 10.000133 
1.654998e+3, 1.9446796e+2, -1054321.8, -997662.25, 119534.83, -0.0011945431, 0.043907207, -903146.0, 131085.94, 0.0, 9.9996195, 10.000348 
1.6550148e+3, 2.0446818e+2, -1000076.44, -1057561.1, 23643.742, 0.018120676, 0.09803197, -991601.25, -55372.016, 0.0, 9.999896, 9.999142 
1.6550298e+3, 2.1446931e+2, -858157.8, -915276.7, 21655.03, 0.015121955, 0.24687761, -850876.2, -12654.882, 0.0, 10.00012, 9.999325 
1.655045e+3, 2.2446902e+2, -762584.2, -903329.56, 38719.574, -0.021781385, 0.33019155, -752635.5, -12410.435, 0.0, 10.000434, 9.998612 
1.6550605e+3, 2.3446682e+2, -585320.44, -744468.9, 47648.645, -0.095747724, 0.20013027, -572145.25, 70099.11, 0.0, 10.000898, 9.998796 
1.6550766e+3, 2.4446529e+2, -466478.5, -662646.0, 14539.131, -0.09582565, 0.18803978, -465406.78, 78851.1, 0.0, 10.001146, 9.998558 
1.6550936e+3, 2.544643e+2, -332417.78, -529220.3, 48755.457, 0.023680178, 0.17619136, -321001.47, 125265.3, 0.00000000856411, 10.00133, 9.998705 
1.6551097e+3, 2.6446274e+2, -270345.44, -569067.9, 53616.9, 0.022180926, 0.21307254, -261013.4, 87268.35, 0.0000057188686, 10.001589, 9.997642 
1.6551246e+3, 2.7446052e+2, -74927.93, -396777.0, 42356.918, -0.14368714, 0.1640731, -69446.89, 180857.55, 0.00005720022, 10.002163, 9.99786 
1.65514e+3, 2.844587e+2, 66092.48, -268463.03, -32700.055, -0.18890454, 0.20251931, 69258.68, 221580.61, 0.0002952708, 10.002394, 9.997987 
1.6551568e+3, 2.9445705e+2, 163491.28, -144374.7, -7583.7427, -0.062101, 0.17425722, 163677.98, 218014.88, 0.00095047243, 10.002273, 9.998213 
1.655172e+3, 3.0445468e+2, 202042.08, -180684.83, 8703.468, -0.1312845, 0.16561936, 202239.9, 202239.9, 0.0020977305, 10.002569, 9.99749 
1.655188e+3, 3.144536e+2, 350974.22, -56450.707, 21940.232, -0.20450416, 0.24110667, 352152.3, 352152.3, 0.003562478, 10.003319, 9.997971 
1.6648822e+3, 1.2444869e+2, -2198705.5, -1852032.1, -34495.797, 0.12966089, 0.15158655, -1848632.9, -128210.875, 0.041736465, 9.996162, 10.000893 
1.6648945e+3, 1.3445029e+2, -1734762.9, -1527474.6, -39055.164, -0.05547708, 0.14945717, -1520360.5, 102045.29, 0.026087236, 9.998512, 10.001329 
1.6649121e+3, 1.4445043e+2, -1700452.5, -1562168.1, 53349.043, 0.19853376, 0.0889805, -1543978.9, -19574.24, 0.012349877, 9.998543, 10.000361 
1.6649291e+3, 1.5445267e+2, -1633231.0, -1459710.4, 64581.39, 0.09664845, 0.22164059, -1438312.9, -11928.475, 0.003737191, 9.998261, 10.000518 
1.664946e+3, 1.6445363e+2, -1558393.1, -1453794.5, 41015.934, 0.038192105, 0.30958804, -1439629.4, -111253.34, 0.00050616945, 9.998435, 9.999817 
1.6649619e+3, 1.7445241e+2, -1321280.8, -1269462.0, 26329.484, -0.04519074, 0.15493588, -1258431.8, -28043.756, 0.000009797576, 9.999308, 9.999986 
1.6649792e+3, 1.8445195e+2, -1175103.9, -1099612.0, 71737.445, -0.0442562, 0.10083229, -1056296.1, 76094.81, 0.0, 9.999427, 10.000419 
1.664998e+3, 1.9445254e+2, -1101334.8, -982335.75, 43010.434, 0.05522335, 0.059021518, -968418.06, 65963.35, 0.0, 9.999146, 10.00067 
1.665015e+3, 2.0445308e+2, -1077849.3, -1105665.4, -22074.691, 0.08665453, 0.13136503, -1065666.6, -129290.61, 0.0, 9.999406, 9.999052 
1.66503e+3, 2.1445338e+2, -820113.8, -911605.2, -39207.613, 0.026039615, 0.21008115, -805610.8, 32766.32, 0.0, 10.000434, 9.999205 
1.6650456e+3, 2.2445297e+2, -685445.0, -870308.8, 12880.708, -0.014393375, 0.29058656, -684551.8, 55831.414, 0.0, 10.000996, 9.9985485 
1.665062e+3, 2.3445162e+2, -559364.25, -733613.4, 6536.152, -0.041906614, 0.24669227, -559119.4, 83276.24, 0.0, 10.00109, 9.998758 
1.6650786e+3, 2.4445021e+2, -433190.03, -650365.94, -1931.4318, -0.03154487, 0.2496468, -433172.88, 111234.95, 0.0, 10.0013685, 9.998558 
1.6650951e+3, 2.5444853e+2, -251427.47, -490263.34, -40234.063, 0.024818815, 0.17626897, -244831.83, 201589.94, 0.0000000057748837, 10.001874, 9.998729 
1.6651115e+3, 2.6444668e+2, -202853.88, -548652.94, 350.5676, 0.025980532, 0.18882394, -202853.52, 145585.52, 0.0000055479773, 10.002105, 9.997532 
1.6651271e+3, 2.744446e+2, -104822.58, -442070.78, -3166.5068, -0.06984101, 0.17566505, -104792.85, 145667.84, 0.000055377644, 10.002058, 9.997618 
1.665143e+3, 2.844428e+2, 36825.637, -289951.44, -24417.465, -0.1056574, 0.23422246, 38640.086, 191118.28, 0.00028510438, 10.002222, 9.997901 
1.6651589e+3, 2.9444128e+2, 204391.56, -129144.03, -66743.39, -0.08104294, 0.22199917, 217251.66, 271743.75, 0.000926934, 10.002613, 9.998123 
1.6651745e+3, 3.0443805e+2, 306955.16, -145492.44, 23488.334, -0.15741321, 0.13616255, 308171.25, 308171.25, 0.0020635084, 10.00334, 9.99736 
1.6651927e+3, 3.1443676e+2, 440146.9, -12097.289, -24182.334, -0.08807487, 0.20677105, 441436.3, 441436.3, 0.003520621, 10.003924, 9.997977 
1.6748783e+3, 1.2443468e+2, -2187210.0, -1852728.0, 48525.58, 0.0495204, 0.16039357, -1845830.4, -125271.96, 0.044670317, 9.996266, 10.000834 
1.6748938e+3, 1.3443604e+2, -1797251.3, -1672635.9, 21068.684, -0.020254418, 0.21199223, -1669170.1, -46624.703, 0.028026333, 9.99858, 10.000286 
1.6749069e+3, 1.4443669e+2, -1721086.3, -1631275.1, 12171.671, -0.22484992, 0.2932663, -1629654.8, -105114.6, 0.013357116, 9.998649, 9.999839 
1.6749272e+3, 1.5443696e+2, -1646728.5, -1492617.5, 71081.08, 0.059506685, 0.25387612, -1464839.5, -38299.785, 0.004090086, 9.998275, 10.000291 
1.6749461e+3, 1.6443694e+2, -1532453.0, -1423295.8, 54142.88, 0.16104314, 0.24332371, -1400996.1, -72455.34, 0.0005678562, 9.9985285, 9.999984 
1.6749611e+3, 1.7443614e+2, -1319417.8, -1254883.8, 68951.19, -0.07814833, 0.121969335, -1211023.0, 19524.213, 0.000011659807, 9.999264, 10.000108 
1.6749778e+3, 1.844367e+2, -1197610.4, -1151936.1, 43415.008, -0.1468892, 0.18042663, -1125718.1, 6823.582, 0.0, 9.999438, 10.000062 
1.6749974e+3, 1.944389e+2, -1143268.8, -1044130.6, 44282.67, 0.04944618, 0.33746198, -1027231.3, 7289.8193, 0.0, 9.999034, 10.000306 
1.6750145e+3, 2.0443903e+2, -1090595.1, -1102632.6, -2480.832, 0.07345179, 0.38282138, -1090104.0, -153583.66, 0.0, 9.9992695, 9.999143 
1.6750292e+3, 2.1443635e+2, -846878.0, -917432.6, 16421.83, -0.1302664, 0.15552218, -843243.0, -4697.2993, 0.0, 10.000209, 9.999279 
1.6750453e+3, 2.2443499e+2, -717716.3, -866194.3, 4525.0337, -0.18666053, 0.12771232, -717578.56, 22979.973, 0.0, 10.000689, 9.998723 
1.6750635e+3, 2.3443513e+2, -583486.0, -729078.1, 24618.684, -0.021189276, 0.21466842, -579435.8, 63120.754, 0.0, 10.000854, 9.998902 
1.6750805e+3, 2.444342e+2, -511637.03, -744271.25, -1731.1223, 0.024354579, 0.28201392, -511624.16, 32941.004, 0.0, 10.001074, 9.998052 
1.675096e+3, 2.5443184e+2, -326485.06, -582234.7, 538.88385, -0.08973411, 0.19237038, -326483.9, 120103.69, 0.0000000017385277, 10.001602, 9.998222 
1.6751127e+3, 2.6442966e+2, -219462.83, -513263.56, -15650.792, -0.0950061, 0.17484255, -218631.47, 129976.55, 0.0000048816705, 10.001799, 9.997927 
1.6751309e+3, 2.7442735e+2, -106924.38, -399312.6, 19628.219, 0.063027956, 0.09983033, -105612.61, 145016.1, 0.000051551386, 10.0018425, 9.998022 
1.6751473e+3, 2.8442556e+2, -42484.492, -373302.88, -24782.74, 0.062437233, 0.15730667, -40638.24, 112007.2, 0.0002714196, 10.001879, 9.997494 
1.6751614e+3, 2.9442447e+2, 142055.08, -197039.06, -22018.69, -0.13126154, 0.22362392, 143478.86, 198135.48, 0.0008994481, 10.002332, 9.997799 
1.6751772e+3, 3.0442056e+2, 238970.6, -171368.03, 28872.34, -0.26048368, 0.080254786, 240992.16, 240992.16, 0.0020333803, 10.0028715, 9.9974 
1.675198e+3, 3.144186e+2, 407224.53, 41114.67, 61951.918, -0.011607834, 0.07967439, 417423.7, 417423.7, 0.0035086612, 10.003423, 9.998575 
1.6848758e+3, 1.2441914e+2, -1937488.6, -1693542.1, 74280.375, 0.110393584, 0.21527426, -1672704.3, 48006.14, 0.04776628, 9.99784, 10.001157 
1.6848925e+3, 1.3441975e+2, -1884376.9, -1735363.3, -72968.914, 0.021252802, 0.20355915, -1705583.4, -82878.945, 0.030093629, 9.998097, 10.0000725 
1.6849056e+3, 1.4442043e+2, -1792928.9, -1668710.9, -16169.753, -0.18896593, 0.29744133, -1666640.5, -141941.48, 0.0144471, 9.998147, 9.999835 
1.6849257e+3, 1.5442047e+2, -1593804.9, -1462375.5, 34416.74, 0.06377276, 0.23092832, -1453908.5, -27207.35, 0.004479329, 9.998611, 10.000344 
1.6849445e+3, 1.6442049e+2, -1489930.9, -1386847.4, 78668.555, 0.15750174, 0.21821135, -1344339.8, -15638.272, 0.0006375465, 9.998744, 10.000138 
1.6849607e+3, 1.7442037e+2, -1351923.9, -1246977.0, 70118.43, -0.026937595, 0.14226848, -1211871.6, 18829.203, 0.00001399049, 9.99894, 10.000316 
1.6849777e+3, 1.8442109e+2, -1278597.8, -1233585.8, 54702.44, -0.08234837, 0.22317977, -1196940.4, -64246.24, 0.0, 9.999071, 9.999672 
1.684996e+3, 1.9442278e+2, -1127496.3, -1088806.9, 21450.96, 0.020239389, 0.37199932, -1079266.3, -44585.273, 0.0, 9.999359, 9.999845 
1.6850136e+3, 2.0442252e+2, -1003496.44, -1059011.3, 28444.63, 0.03359237, 0.4040053, -991510.06, -54825.344, 0.0, 9.9998665, 9.999151 
1.68503e+3, 2.1441987e+2, -774859.25, -872245.3, 6920.303, -0.07970527, 0.17421187, -774370.0, 64338.695, 0.0, 10.000674, 9.999355 
1.685047e+3, 2.2441846e+2, -648147.5, -829809.9, -5809.4443, -0.08589359, 0.13380173, -647961.9, 92759.08, 0.0, 10.001124, 9.99879 
1.6850649e+3, 2.3441833e+2, -550305.7, -708578.94, -19659.72, 0.03624393, 0.19434188, -547900.25, 94820.24, 0.0, 10.00104, 9.99898 
1.6850822e+3, 2.4441738e+2, -494162.7, -745059.5, 15837.368, 0.06905537, 0.26116115, -493166.94, 51562.305, 0.0, 10.001233, 9.997954 
1.6850981e+3, 2.5441524e+2, -300600.75, -590555.94, 4902.7637, -0.034700517, 0.20161904, -300517.88, 146232.89, 0.0000000018399801, 10.001846, 9.998048 
1.6851151e+3, 2.644131e+2, -158250.77, -466814.72, 10627.336, -0.03534603, 0.1900027, -157885.17, 190885.94, 0.0000039092515, 10.002138, 9.998087 
1.6851331e+3, 2.7441078e+2, -49222.223, -336152.34, -12980.02, 0.09943154, 0.0942255, -48636.234, 202154.7, 0.000046409757, 10.0021305, 9.998295 
1.6851498e+3, 2.8440896e+2, 31408.232, -373765.44, 2263.9792, 0.10544743, 0.146149, 31420.883, 184229.1, 0.00025645504, 10.002516, 9.9972105 
1.6851649e+3, 2.9440773e+2, 251130.6, -181202.56, -32316.143, -0.057732083, 0.23731694, 253532.83, 308354.56, 0.0008664291, 10.00322, 9.997502 
1.6851808e+3, 3.0440375e+2, 290107.7, -145244.44, 35877.07, -0.18304189, 0.10019678, 293044.47, 293044.47, 0.0019906836, 10.003167, 9.997471 
1.6852014e+3, 3.144014e+2, 218210.73, -4235.674, -7812.9336, 0.08594865, 0.07259241, 218484.81, 218484.81, 0.0034818437, 10.001851, 9.999077 
1.6948739e+3, 1.24400474e+2, -1882380.3, -1621401.1, 181684.6, 0.053782687, 0.17583251, -1528201.5, 192691.97, 0.051028147, 9.998004, 10.001619 
1.6948892e+3, 1.344011e+2, -1833844.4, -1629157.5, -64151.465, -0.1407007, 0.107786015, -1610713.6, 12172.406, 0.032295942, 9.998084, 10.000814 
1.6949081e+3, 1.4440142e+2, -1731444.3, -1568738.9, -21236.736, 0.17723343, 0.082566164, -1566012.8, -41129.426, 0.015627254, 9.998259, 10.00047 
1.6949236e+3, 1.5440325e+2, -1570180.0, -1423278.5, 62766.62, -0.022935351, 0.16945046, -1400113.3, 26754.453, 0.004910431, 9.998655, 10.000592 
1.6949406e+3, 1.6440445e+2, -1455185.6, -1336357.9, 65240.676, -0.14747165, 0.24683088, -1307531.5, 21325.193, 0.0007170378, 9.998833, 10.000441 
1.6949601e+3, 1.7440519e+2, -1332710.8, -1202429.8, 92248.57, -0.019510442, 0.22339194, -1154640.8, 76206.75, 0.000016975888, 9.998919, 10.000629 
1.694978e+3, 1.844052e+2, -1306117.6, -1299954.6, 46819.395, -0.0049901307, 0.23875436, -1256115.5, -123267.836, 0.0, 9.999104, 9.999204 
1.6949938e+3, 1.9440411e+2, -1179743.5, -1172602.3, 42009.29, -0.17533122, 0.16260289, -1134012.1, -99150.586, 0.0, 9.999253, 9.999318 
1.6950116e+3, 2.0440362e+2, -1043365.7, -1093666.5, 38221.094, -0.18587448, 0.20576316, -1022762.5, -85894.07, 0.0, 9.999655, 9.99902 
1.6950321e+3, 2.1440385e+2, -812153.5, -906256.75, 52084.22, 0.036824703, 0.27564728, -789015.25, 49851.625, 0.0, 10.000474, 9.999227 
1.6950504e+3, 2.2440319e+2, -687628.7, -835109.06, -23324.064, 0.11260919, 0.3124419, -684027.94, 56844.26, 0.0, 10.000808, 9.998899 
1.6950658e+3, 2.344012e+2, -587691.3, -712726.3, -1659.6865, -0.0017195196, 0.17216817, -587669.3, 55218.75, 0.0, 10.000736, 9.999092 
1.6950825e+3, 2.4439962e+2, -536568.06, -747791.8, 24190.975, -0.04175467, 0.16388294, -533832.94, 11068.723, 0.0, 10.000871, 9.998114 
1.6951011e+3, 2.5439855e+2, -326276.72, -585983.8, 48095.367, 0.05111117, 0.19811516, -317656.06, 129257.195, 0.0000000033657745, 10.001598, 9.998202 
1.6951181e+3, 2.643969e+2, -211882.45, -500967.56, -3253.7124, 0.03148678, 0.2350558, -211845.84, 137083.27, 0.0000030031388, 10.001817, 9.998 
1.6951336e+3, 2.7439463e+2, -93283.086, -364797.63, 7656.325, -0.09689948, 0.14205973, -93067.36, 157882.72, 0.000041455987, 10.001869, 9.998218 
1.6951503e+3, 2.8439257e+2, -32355.457, -425639.94, 6183.8013, -0.12891242, 0.1847067, -32258.25, 120711.88, 0.00024337543, 10.0021715, 9.997022 
1.6951686e+3, 2.9439062e+2, 197356.58, -233517.89, 18187.92, -0.037390716, 0.22777584, 198122.95, 253114.66, 0.0008331997, 10.002945, 9.997286 
1.6951849e+3, 3.0438718e+2, 211381.28, -187392.84, -24631.363, -0.12702465, 0.16094609, 212896.94, 212896.94, 0.0019313671, 10.002684, 9.997395 
1.6952018e+3, 3.1438562e+2, 178125.4, 59515.047, 4683.8936, -0.10692146, 0.20023799, 178310.08, 178310.08, 0.003409665, 10.00125, 9.9997835 
1.704872e+3, 1.2438225e+2, -1961258.3, -1676415.1, 260893.27, 0.09320926, 0.1396517, -1521600.8, 199471.47, 0.054460447, 9.997553, 10.001468 
1.7048866e+3, 1.3438405e+2, -1844589.9, -1609553.4, -65038.594, -0.19812612, 0.18357664, -1592756.5, 30297.824, 0.034638863, 9.997908, 10.001043 
1.704908e+3, 1.4438349e+2, -1683606.9, -1518341.6, -39124.637, 0.34319636, 0.04187462, -1509547.3, 15513.474, 0.016903277, 9.998504, 10.000692 
1.7049226e+3, 1.5438591e+2, -1565197.6, -1407028.4, -8001.1187, 0.006614146, 0.1742075, -1406624.6, 20414.05, 0.00538814, 9.998649, 10.000696 
1.704939e+3, 1.643874e+2, -1492149.6, -1348602.3, 4677.3457, -0.17864677, 0.27527332, -1348450.0, -19425.816, 0.0008082668, 9.998553, 10.000485 
1.7049587e+3, 1.7438829e+2, -1380314.4, -1214849.3, -18898.297, -0.012123422, 0.2600996, -1212718.3, 18295.273, 0.000020835996, 9.998543, 10.000728 
1.7049775e+3, 1.8438804e+2, -1351759.6, -1330613.8, -8854.02, 0.04116096, 0.24744612, -1327396.0, -194380.22, 0.0, 9.99883, 9.999135 
1.7049938e+3, 1.9438608e+2, -1109131.9, -1151813.5, -8306.83, -0.12352708, 0.09530256, -1107572.1, -72534.77, 0.0, 9.999786, 9.999221 
1.705012e+3, 2.043856e+2, -944884.25, -1014118.9, 44682.83, -0.12131739, 0.1312159, -922978.0, 14065.74, 0.0, 10.0002, 9.9992895 
1.7050327e+3, 2.1438701e+2, -851352.6, -894145.9, 53896.99, 0.08391867, 0.29087043, -814760.44, 24270.025, 0.0, 10.000089, 9.999485 
1.7050512e+3, 2.2438672e+2, -751157.56, -864988.2, 17899.41, 0.15157759, 0.35234994, -748409.3, -7377.403, 0.0, 10.000369, 9.998897 
1.705067e+3, 2.3438415e+2, -538889.3, -686412.56, -9336.283, 0.03704267, 0.15306759, -538300.8, 104752.195, 0.0, 10.001068, 9.999097 
1.7050843e+3, 2.4438235e+2, -460856.53, -724284.1, 37843.297, 0.02580484, 0.12450754, -455527.84, 89541.39, 0.0, 10.001451, 9.998 
1.7051034e+3, 2.543814e+2, -354612.78, -603480.0, 9012.766, 0.13466911, 0.18111883, -354286.8, 92793.625, 0.0000000026261497, 10.001449, 9.998143 
1.7051207e+3, 2.6437986e+2, -272812.5, -565692.56, -33902.816, 0.12117909, 0.24502727, -268939.25, 80157.555, 0.0000021613648, 10.0015335, 9.9977045 
1.7051357e+3, 2.7437755e+2, -146455.23, -431227.2, -76663.34, -0.047432486, 0.19169182, -127128.39, 123991.33, 0.000036656253, 10.001656, 9.997882 
1.7051525e+3, 2.8437555e+2, -50320.2, -373465.9, -7786.6255, -0.083187625, 0.23199578, -50132.68, 103007.28, 0.00022921336, 10.001797, 9.997548 
1.7051713e+3, 2.9437357e+2, 92267.56, -220781.58, 13279.884, 0.017204516, 0.21902071, 92829.9, 147989.77, 0.00079328316, 10.001977, 9.997825 
1.7051876e+3, 3.043708e+2, 187859.58, -202720.55, 17576.58, -0.08023946, 0.19405305, 188648.95, 188648.95, 0.001843639, 10.002525, 9.997351 
1.7052047e+3, 3.143691e+2, 461683.1, 205718.81, -55475.504, -0.03687726, 0.2251747, 473189.2, 473189.2, 0.0032697988, 10.003192, 9.999813 
1.7148699e+3, 1.2436455e+2, -1981701.0, -1760194.8, 29445.695, 0.04451014, 0.082591385, -1756347.3, -35101.67, 0.058051143, 9.997708, 10.000774 
1.7148843e+3, 1.3436933e+2, -1886969.4, -1689395.6, -3513.3987, -0.2393164, 0.47879896, -1689333.1, -66130.305, 0.037118543, 9.997887, 10.000497 
1.7149045e+3, 1.4436688e+2, -1671765.3, -1534787.1, -45621.777, 0.09083305, 0.19353689, -1520983.4, 4245.823, 0.018276531, 9.998663, 10.000507 
1.7149216e+3, 1.5436828e+2, -1568176.4, -1419651.3, 12798.944, 0.0028528294, 0.23049496, -1418556.4, 8659.19, 0.005915651, 9.998668, 10.000604 
1.714939e+3, 1.6436936e+2, -1495528.5, -1369076.8, -17577.576, -0.08097047, 0.30198184, -1366678.9, -37474.527, 0.0009130136, 9.998615, 10.000312 
1.7149565e+3, 1.7436984e+2, -1401317.9, -1244424.1, -7946.784, -0.13424203, 0.2630657, -1244022.6, -12825.041, 0.000025810483, 9.998492, 10.000544 
1.7149751e+3, 1.8436971e+2, -1329855.8, -1284249.4, 8767.857, -0.10875471, 0.25972423, -1282621.9, -149424.0, 0.0, 9.998822, 9.999458 
1.7149955e+3, 1.9436869e+2, -1095629.5, -1103658.8, 42200.824, 0.04036508, 0.16312744, -1057252.8, -22044.521, 0.0, 9.999699, 9.999593 
1.7150144e+3, 2.0436841e+2, -926973.8, -939398.1, 26297.977, 0.062360056, 0.1734922, -906164.2, 31046.076, 0.0, 10.000039, 9.999883 
1.7150316e+3, 2.1436915e+2, -844792.06, -819107.0, 63433.08, -0.07102062, 0.20149674, -767229.44, 71972.016, 0.0, 9.999826, 10.000126 
1.7150493e+3, 2.2436886e+2, -805065.2, -906309.75, 28171.896, -0.104102336, 0.23217008, -797754.1, -56551.832, 0.0, 10.000056, 9.998771 
1.715068e+3, 2.3436715e+2, -585433.5, -733963.7, 33443.543, 0.014040531, 0.14069568, -578250.56, 64965.832, 0.0, 10.000844, 9.998887 
1.7150865e+3, 2.4436544e+2, -533930.3, -793334.5, 21598.707, 0.08041971, 0.14746946, -532144.25, 13088.603, 0.0, 10.00111, 9.997682 
1.7151044e+3, 2.5436354e+2, -420921.7, -676628.5, 26400.002, 0.08483593, 0.14220075, -418224.5, 29029.822, 0.0000000000058928205, 10.001174, 9.997771 
1.715122e+3, 2.6436153e+2, -350791.94, -660106.56, -45942.37, 0.079602435, 0.20558266, -344112.38, 5164.806, 0.0000014626683, 10.0012455, 9.997195 
1.7151389e+3, 2.7435952e+2, -218969.25, -522047.75, -52104.31, 0.084790386, 0.23071927, -210261.81, 41039.277, 0.000032258973, 10.001396, 9.997384 
1.715156e+3, 2.8435782e+2, -29169.275, -249032.9, -19045.209, 0.045952547, 0.27998343, -27531.723, 125786.484, 0.00021422842, 10.001447, 9.998574 
1.7151728e+3, 2.9435635e+2, 133634.89, -68151.91, 50301.445, -0.07044485, 0.19482374, 145478.86, 200807.14, 0.0007461243, 10.001682, 9.999017 
1.715189e+3, 3.0435425e+2, 94250.45, -279032.88, 23194.348, -0.22177361, 0.1846603, 95686.14, 95686.14, 0.0017331638, 10.002052, 9.997043 
1.7152087e+3, 3.143512e+2, 317206.53, 81058.13, 23170.94, -0.015331236, 0.1136929, 319458.6, 319458.6, 0.003082063, 10.002485, 9.999276 
1.7248674e+3, 1.2434688e+2, -2069205.1, -1738617.6, -30767.963, 0.089597106, 0.10499396, -1735778.4, -14358.07, 0.06177432, 9.996817, 10.001345 
1.7248829e+3, 1.3435185e+2, -1925833.0, -1723286.3, -10002.701, -0.14891227, 0.50441813, -1722793.4, -99418.9, 0.039721623, 9.997674, 10.000349 
1.7249024e+3, 1.4434908e+2, -1847513.1, -1643386.0, -736.3708, 0.09661799, 0.21024118, -1643383.4, -117980.36, 0.019743169, 9.99754, 10.000316 
1.7249201e+3, 1.5435019e+2, -1594550.3, -1426584.6, 24079.82, 0.01155766, 0.21939597, -1423200.8, 4190.7573, 0.006494274, 9.998435, 10.000691 
1.7249382e+3, 1.6435122e+2, -1471802.6, -1380040.1, 23220.951, -0.021493576, 0.2925397, -1374498.6, -45117.85, 0.001032908, 9.998869, 10.000124 
1.7249556e+3, 1.7435133e+2, -1316277.0, -1227825.6, -2084.773, -0.087223805, 0.23489514, -1227776.5, 3602.8323, 0.00003215152, 9.999168, 10.000337 
1.7249745e+3, 1.8435118e+2, -1253349.9, -1213747.1, 58780.48, -0.051759012, 0.22394168, -1171522.4, -38142.65, 0.0, 9.999197, 9.999763 
1.7249957e+3, 1.943509e+2, -1127805.4, -1077288.0, 59386.305, 0.11011043, 0.16923311, -1038012.0, -2631.3645, 0.0, 9.999301, 9.999964 
1.7250149e+3, 2.043508e+2, -991715.75, -985581.8, 40211.223, 0.13315478, 0.18322259, -948320.8, -10940.523, 0.0, 9.99966, 9.999755 
1.725032e+3, 2.1435076e+2, -745494.8, -792730.4, -9713.418, -0.036618277, 0.1547149, -743575.4, 95804.72, 0.0, 10.00059, 9.999949 
1.72505e+3, 2.243503e+2, -656718.2, -815128.6, -37667.58, -0.06947366, 0.17394258, -648217.56, 93165.69, 0.0, 10.001023, 9.998913 
1.7250693e+3, 2.3434936e+2, -561221.6, -704763.1, -46782.55, 0.055857558, 0.14356415, -547320.6, 96069.69, 0.0, 10.000964, 9.999015 
1.7250879e+3, 2.4434786e+2, -519036.5, -792039.0, -4150.4863, 0.11861691, 0.16701238, -518973.44, 26431.568, 0.0, 10.001208, 9.997647 
1.7251058e+3, 2.543456e+2, -338417.88, -638376.9, -3588.8137, 0.083756834, 0.12919374, -338374.94, 109055.22, 0.0000000000049057277, 10.00173, 9.997765 
1.7251237e+3, 2.6434362e+2, -229996.16, -589201.1, -14085.436, 0.08118834, 0.18767619, -229444.67, 120008.53, 0.0000011502509, 10.002039, 9.997289 
1.725141e+3, 2.7434188e+2, -114993.25, -467543.88, -18982.459, 0.12922353, 0.23602335, -113974.12, 137500.44, 0.000029351942, 10.002091, 9.997424 
1.7251584e+3, 2.843403e+2, 33836.914, -216270.6, 30910.338, 0.14071292, 0.29513204, 37600.434, 191091.38, 0.00020332959, 10.001891, 9.9985695 
1.7251757e+3, 2.943387e+2, 95692.234, -87776.664, -45062.88, 0.0632321, 0.20488967, 106162.836, 161665.61, 0.0007057303, 10.001456, 9.998969 
1.725192e+3, 3.0433697e+2, 106145.79, -270674.13, -17810.3, -0.11124421, 0.23262537, 106985.72, 106985.72, 0.0016357172, 10.002064, 9.99713 
1.7252122e+3, 3.1433386e+2, 471167.0, 94523.57, -57443.41, 0.035879366, 0.1621647, 479733.13, 479733.13, 0.0029146082, 10.003699, 9.99885 
1.7348629e+3, 1.2433026e+2, -1938364.8, -1496352.6, 71774.57, -0.13377735, 0.29148355, -1484989.9, 236596.89, 0.06561491, 9.9969015, 10.00306 
1.7348817e+3, 1.343313e+2, -1910551.1, -1697247.5, -18665.514, -0.07342622, 0.23563507, -1695626.4, -72053.95, 0.042436883, 9.99769, 10.000523 
1.7349015e+3, 1.4432964e+2, -1849814.5, -1661370.9, -4630.7734, 0.18422036, 0.06675974, -1661257.1, -135670.69, 0.021297567, 9.997602, 10.000155 
1.7349176e+3, 1.5433164e+2, -1579344.3, -1395344.3, 69308.05, -0.11805478, 0.14380598, -1372159.1, 55407.188, 0.0071235094, 9.998441, 10.0009 
1.7349361e+3, 1.6433313e+2, -1459141.5, -1390896.6, 17635.154, -0.1767492, 0.2566441, -1386608.9, -57056.426, 0.0011691477, 9.999012, 9.999986 
1.734956e+3, 1.7433272e+2, -1330842.3, -1266900.0, 20153.545, 0.0055536563, 0.17135668, -1261078.1, -29519.158, 0.00004011834, 9.999194, 10.000062 
1.7349753e+3, 1.8433242e+2, -1233663.8, -1175997.5, 41416.063, 0.048232913, 0.15069957, -1154366.4, -20805.068, 0.0, 9.999209, 10.000014 
1.7349935e+3, 1.9433263e+2, -1129160.0, -1044997.6, 74233.17, -0.052795615, 0.11193031, -1001747.75, 33807.49, 0.0, 9.999147, 10.000258 
1.735013e+3, 2.043326e+2, -1078428.8, -1122805.4, 55964.902, -0.06793336, 0.15749367, -1040414.2, -102859.42, 0.0, 9.999469, 9.998905 
1.7350335e+3, 2.1433198e+2, -840852.94, -947325.56, 40422.16, 0.041241836, 0.16054974, -827245.7, 12319.267, 0.0, 10.000398, 9.99898 
1.7350529e+3, 2.2433126e+2, -680235.8, -796138.44, -53191.016, 0.07109533, 0.19253983, -659525.56, 82047.44, 0.0, 10.000733, 9.999181 
1.7350702e+3, 2.3433049e+2, -569069.7, -665883.3, -31360.111, 0.019776365, 0.14012392, -559799.1, 83778.266, 0.0, 10.000718, 9.999401 
1.7350881e+3, 2.4432933e+2, -543857.8, -763447.4, 1574.9078, -0.013022643, 0.160565, -543846.56, 1741.5309, 0.0, 10.000875, 9.998002 
1.735107e+3, 2.5432765e+2, -353091.53, -602758.44, 38106.867, -0.015562586, 0.14359373, -347404.78, 100202.625, 0.000000000000012544113, 10.001453, 9.99814 
1.7351247e+3, 2.6432604e+2, -246122.77, -536657.25, -26132.105, -0.03842182, 0.1931202, -243791.03, 105834.27, 0.0000010511417, 10.001676, 9.99782 
1.7351414e+3, 2.743246e+2, -118662.48, -404828.47, 5857.038, -0.061155543, 0.2088151, -118542.65, 133098.2, 0.000029114979, 10.001807, 9.997979 
1.7351596e+3, 2.8432277e+2, -100828.516, -428005.6, -7066.985, 0.028917147, 0.27560797, -100675.945, 52984.316, 0.00019954766, 10.001595, 9.997261 
1.7351791e+3, 2.943202e+2, -53536.777, -321542.44, -35497.74, 0.23053832, 0.22377415, -48914.76, 6772.817, 0.0006841952, 10.00113, 9.997521 
1.735196e+3, 3.043187e+2, 61233.14, -251082.05, 15619.843, 0.028973741, 0.33586007, 62012.39, 62012.39, 0.0015848171, 10.001607, 9.997465 
1.7352138e+3, 3.143161e+2, 350613.3, 42859.906, 66353.305, -0.22910808, 0.25167835, 364309.9, 364309.9, 0.0028348994, 10.002906, 9.998841 
1.7448612e+3, 1.2431214e+2, -1984408.0, -1501510.6, 41699.82, 0.041166343, 0.3887709, -1497936.1, 223829.2, 0.06957688, 9.996553, 10.003191 
1.7448798e+3, 1.3431069e+2, -1830953.4, -1648631.5, -95200.28, -0.049249563, 0.088924974, -1607984.3, 15789.556, 0.045260757, 9.998209, 10.000615 
1.7449008e+3, 1.443109e+2, -1568112.1, -1504101.3, -44845.027, 0.27660635, 0.08931123, -1481012.0, 44756.375, 0.022935338, 9.99945, 10.000331 
1.7449164e+3, 1.5431255e+2, -1543175.5, -1360987.8, -23378.594, -0.07384539, 0.109741665, -1358035.5, 69715.7, 0.0078018596, 9.99862, 10.001028 
1.7449346e+3, 1.6431387e+2, -1613710.6, -1471131.9, -32520.928, -0.1487203, 0.20069455, -1464064.5, -134325.0, 0.0013223152, 9.997982, 9.999937 
1.7449555e+3, 1.7431393e+2, -1453926.3, -1326517.0, -46411.1, 0.08044713, 0.1696626, -1311403.8, -79660.695, 0.000049909977, 9.998362, 10.00006 
1.744975e+3, 1.84314e+2, -1259043.6, -1172822.8, 21766.219, 0.12703066, 0.17880811, -1167639.5, -33896.957, 0.0000000000000006446772, 9.998983, 10.0001335 
1.7449927e+3, 1.9431418e+2, -978140.25, -956888.4, 8713.137, -0.072932005, 0.12378101, -953772.8, 81962.914, 0.0, 10.000129, 10.000375 
1.7450124e+3, 2.0431401e+2, -950759.4, -1076329.8, 25515.66, -0.096377596, 0.15362333, -945772.6, -8036.228, 0.0, 10.000391, 9.998789 
1.7450342e+3, 2.1431324e+2, -954055.25, -1012010.1, 34759.836, 0.10255736, 0.15425691, -937778.5, -98029.95, 0.0, 9.99966, 9.998896 
1.7450537e+3, 2.243125e+2, -817731.1, -860200.7, 15332.475, 0.15364894, 0.18741934, -812774.25, -71016.96, 0.0, 9.999751, 9.999232 
1.7450707e+3, 2.3431192e+2, -535863.06, -640716.75, -10700.145, 0.005313864, 0.14945959, -534782.25, 108978.664, 0.0, 10.000901, 9.999493 
1.7450888e+3, 2.4431114e+2, -465498.28, -696054.2, 11445.598, -0.0372946, 0.19122517, -464931.47, 80836.9, 0.0, 10.001329, 9.998231 
1.7451085e+3, 2.5430992e+2, -431935.6, -615089.56, -6785.383, 0.038865115, 0.2026883, -431684.56, 16098.336, 0.0, 10.000843, 9.998339 
1.7451267e+3, 2.6430836e+2, -321573.3, -563847.4, -39268.98, 0.035517305, 0.24080911, -315367.34, 34432.46, 0.0000010008785, 10.00109, 9.997924 
1.7451432e+3, 2.743063e+2, -32541.32, -356136.34, -75506.71, -0.082079634, 0.1941846, -15789.962, 236029.75, 0.000030147008, 10.002337, 9.998067 
1.7451616e+3, 2.8430432e+2, 115135.34, -383066.1, -61524.277, -0.0107568065, 0.2609656, 122620.69, 276461.6, 0.00019898178, 10.0033045, 9.996759 
1.7451817e+3, 2.943019e+2, 289312.06, -234510.27, -81416.16, 0.25793132, 0.28443682, 301674.56, 357542.53, 0.00068108423, 10.003768, 9.996877 
1.7451988e+3, 3.0429986e+2, 333948.22, -78791.52, 53912.387, 0.10223109, 0.36136436, 340874.1, 340874.1, 0.0015910987, 10.003292, 9.997854 
1.7452176e+3, 3.142972e+2, 231359.58, -7570.3555, 13438.899, -0.08761229, 0.23164822, 232113.1, 232113.1, 0.0028723662, 10.002013, 9.998935 
1.7548609e+3, 1.2429138e+2, -2062428.8, -1689572.9, -259339.2, 0.25880724, 0.31798354, -1556607.3, 165359.63, 0.07366958, 9.996691, 10.001802 
1.754876e+3, 1.342899e+2, -1822889.0, -1632650.5, 14343.197, -0.29681882, 0.051265616, -1631575.1, -7594.9067, 0.048192136, 9.998215, 10.000713 
1.7549e+3, 1.4429338e+2, -1500522.1, -1405751.1, -76298.1, 0.20185727, 0.31966323, -1363321.4, 162623.16, 0.024652572, 9.999618, 10.000949 
1.7549163e+3, 1.5429291e+2, -1534362.3, -1357205.1, -47943.094, 0.020100383, 0.12470915, -1345062.8, 82883.91, 0.008527423, 9.998667, 10.001044 
1.7549334e+3, 1.6429318e+2, -1600027.4, -1454149.3, -53313.64, -0.107460864, 0.110801384, -1436742.1, -106797.445, 0.0014925194, 9.998039, 10.000024 
1.7549533e+3, 1.742949e+2, -1446306.1, -1296299.3, -18657.623, -0.00041796287, 0.22497983, -1294013.5, -62080.863, 0.00006156021, 9.998308, 10.000288 
1.7549734e+3, 1.8429591e+2, -1258465.8, -1171582.6, 45810.96, 0.026918188, 0.3146929, -1151890.9, -17967.629, 0.0000000010737394, 9.9989805, 10.000142 
1.7549932e+3, 1.9429559e+2, -995851.0, -976503.4, 63772.727, -0.088531114, 0.21209076, -921674.94, 114247.07, 0.0, 10.000051, 10.000278 
1.7550129e+3, 2.0429498e+2, -933100.2, -1004110.56, -14675.607, -0.114506185, 0.17910609, -930186.7, 7738.659, 0.0, 10.0002365, 9.999358 
1.7550331e+3, 2.1429421e+2, -939305.75, -931336.1, 19705.498, 0.02005933, 0.11336162, -915216.56, -75282.93, 0.0, 9.999438, 9.999557 
1.7550525e+3, 2.242938e+2, -870707.44, -901421.4, 38280.203, 0.02874843, 0.149113, -844818.7, -102880.234, 0.0, 9.999456, 9.999092 
1.7550705e+3, 2.3429371e+2, -586760.56, -690525.06, 49609.42, -0.1284009, 0.18048888, -566859.4, 77080.664, 0.0, 10.000655, 9.999271 
1.7550895e+3, 2.4429324e+2, -520395.66, -733985.7, -15778.892, -0.13698481, 0.26820663, -519236.28, 26709.816, 0.0, 10.001002, 9.998128 
1.75511e+3, 2.5429213e+2, -473622.6, -644581.2, -7748.424, 0.087818146, 0.29717717, -473272.13, -25312.9, 0.0, 10.000597, 9.998254 
1.7551291e+3, 2.642901e+2, -390238.28, -643746.0, -16359.311, 0.12638779, 0.31443328, -389186.97, -39206.113, 0.00000094846536, 10.000814, 9.997512 
1.7551458e+3, 2.7428705e+2, -102139.02, -428664.7, -7561.599, -0.086477205, 0.20016986, -101964.01, 150047.61, 0.000030605133, 10.002037, 9.997709 
1.7551637e+3, 2.84285e+2, 77139.17, -381983.8, -56509.598, -0.15879034, 0.27058694, 83992.17, 238024.33, 0.0002004244, 10.002957, 9.996934 
1.7551829e+3, 2.942838e+2, 244080.42, -238200.03, -39782.73, -0.03697806, 0.39134496, 247340.02, 303384.44, 0.000696978, 10.003389, 9.997027 
1.7552005e+3, 3.0428067e+2, 271390.53, -102094.36, -19357.371, -0.10760695, 0.3548665, 272391.13, 272391.13, 0.0016497358, 10.002845, 9.997899 
1.7552222e+3, 3.1427762e+2, 103924.05, -87195.89, 39739.395, 0.12230819, 0.14994588, 111857.69, 111857.69, 0.003001796, 10.00127, 9.998717 
1.7648582e+3, 1.2427128e+2, -1973194.8, -1678593.3, -213374.16, 0.30225116, 0.21799468, -1566614.1, 155547.56, 0.07790593, 9.997414, 10.001529 
1.7648737e+3, 1.3427056e+2, -1836994.1, -1610700.8, 179667.05, -0.3089716, 0.0025702042, -1511521.3, 112646.92, 0.05123237, 9.997965, 10.001017 
1.764899e+3, 1.4427564e+2, -1716395.5, -1521597.4, 30330.25, 0.22226825, 0.4132714, -1516984.1, 9133.848, 0.026445003, 9.998191, 10.000834 
1.7649153e+3, 1.5427439e+2, -1586241.4, -1403062.5, -13674.896, 0.06258991, 0.16613628, -1402047.3, 26082.275, 0.009296644, 9.998435, 10.000838 
1.7649323e+3, 1.6427433e+2, -1485247.9, -1392698.5, 39671.31, -0.0621122, 0.13020454, -1378021.1, -47890.227, 0.0016790463, 9.998812, 10.000061 
1.7649525e+3, 1.74276e+2, -1255638.1, -1202744.4, 30048.389, 0.038662914, 0.22981763, -1189162.0, 42955.797, 0.000074904594, 9.999603, 10.000299 
1.7649731e+3, 1.8427682e+2, -1162865.9, -1150776.8, 104128.836, 0.0838012, 0.3099464, -1052517.3, 81592.88, 0.000000009428086, 9.999746, 9.999922 
1.7649935e+3, 1.9427633e+2, -1091046.1, -1045119.56, 76141.766, -0.02069682, 0.21828365, -988553.7, 47558.332, 0.0, 9.999503, 10.00008 
1.7650133e+3, 2.0427588e+2, -1000286.7, -1005090.44, -5959.1465, -0.05756928, 0.1975444, -996263.56, -58148.86, 0.0, 9.99966, 9.999621 
1.765033e+3, 2.1427552e+2, -778901.9, -820699.7, -29455.533, 0.012043319, 0.1498631, -763684.4, 76433.22, 0.0, 10.000418, 9.999838 
1.7650524e+3, 2.2427523e+2, -728091.8, -851366.75, 10292.057, 0.022941828, 0.19040076, -727238.44, 14882.744, 0.0, 10.000532, 9.998905 
1.7650713e+3, 2.342749e+2, -707348.75, -770631.4, -19724.88, -0.070403114, 0.21908477, -701704.1, -57577.285, 0.0, 9.99994, 9.999055 
1.7650905e+3, 2.4427412e+2, -642500.0, -775976.56, -46773.86, -0.06404351, 0.28006017, -627741.1, -81605.75, 0.0, 10.00004, 9.998327 
1.7651106e+3, 2.542727e+2, -398783.6, -586744.9, -39455.992, 0.07380014, 0.2593119, -390837.13, 57311.324, 0.0, 10.000975, 9.998489 
1.76513e+3, 2.6427066e+2, -281233.84, -593906.2, 29951.625, 0.11312529, 0.26253992, -278390.56, 71778.45, 0.0000007067664, 10.0016, 9.997464 
1.7651485e+3, 2.7426776e+2, -137585.77, -454273.56, 16888.025, -0.0018701233, 0.1732777, -136687.72, 115511.4, 0.000029110019, 10.0018425, 9.997621 
1.765167e+3, 2.8426567e+2, 4406.95, -373446.78, 13988.836, -0.0790932, 0.22637314, 4924.1343, 159143.9, 0.00020337792, 10.002291, 9.997311 
1.7651853e+3, 2.942642e+2, 236029.84, -202235.36, -13095.198, -0.101968914, 0.29388627, 236420.77, 292652.97, 0.0007256054, 10.003184, 9.997371 
1.7652029e+3, 3.0426046e+2, 354999.28, -129766.92, -8328.354, -0.16655087, 0.20539586, 355142.34, 355142.34, 0.0017291429, 10.003684, 9.997312 
1.7652261e+3, 3.1425792e+2, 363583.78, -36314.637, -79890.13, 0.31011003, 0.13370924, 378953.22, 378953.22, 0.0031412542, 10.003318, 9.99811 
1.774853e+3, 1.24252394e+2, -1907369.5, -1600857.5, -151452.88, -0.038571104, 0.10718842, -1538648.0, 183695.86, 0.08231803, 9.997605, 10.002017 
1.7748736e+3, 1.342532e+2, -1801295.0, -1546320.5, 209897.34, -0.14716059, -0.030249044, -1428227.0, 196105.27, 0.054393712, 9.997989, 10.001476 
1.7748968e+3, 1.442573e+2, -1769331.8, -1651272.0, 18025.895, 0.12700121, 0.32206374, -1648581.0, -122288.87, 0.02831169, 9.998273, 9.999906 
1.7749123e+3, 1.54257e+2, -1615623.5, -1472164.8, 9127.446, -0.10790783, 0.22395904, -1471586.4, -43286.676, 0.010105246, 9.99846, 10.000354 
1.7749304e+3, 1.6425745e+2, -1479266.8, -1396421.3, 50263.203, -0.1691405, 0.2588129, -1372711.5, -42414.09, 0.0018804772, 9.998878, 10.000005 
1.7749527e+3, 1.7425722e+2, -1269036.9, -1227756.5, 72931.914, 0.06508008, 0.18577974, -1172600.4, 59698.17, 0.00008970714, 9.999593, 10.000133 
1.7749739e+3, 1.842567e+2, -1194111.5, -1220402.4, 79338.59, 0.13277099, 0.1635154, -1126836.6, 7466.5303, 0.000000028818846, 9.999764, 9.999436 
1.7749934e+3, 1.9425634e+2, -1135756.4, -1117373.1, 82110.36, -0.0075775944, 0.1315314, -1043941.5, -7634.341, 0.0, 9.999412, 9.999631 
1.775013e+3, 2.0425653e+2, -1032500.56, -1030220.25, 2965.1545, -0.08307441, 0.2025568, -1028183.6, -89877.75, 0.0, 9.999486, 9.999527 
1.775033e+3, 2.142571e+2, -823473.94, -856926.5, 12199.966, -0.050774775, 0.25451398, -819497.4, 20803.771, 0.0, 10.000181, 9.999696 
1.7750527e+3, 2.2425674e+2, -794763.3, -930979.44, -22471.111, -0.017189987, 0.3169655, -791152.1, -48846.0, 0.0, 10.000268, 9.998489 
1.7750727e+3, 2.3425516e+2, -759573.94, -842465.5, -24148.889, 0.042645324, 0.25590175, -753051.8, -108728.05, 0.0, 9.999763, 9.998653 
1.7750917e+3, 2.4425349e+2, -645338.5, -709128.8, -32053.15, 0.018900389, 0.21890952, -632015.25, -85676.43, 0.0, 9.999739, 9.998925 
1.7751099e+3, 2.5425172e+2, -389653.25, -508388.5, 13417.781, -0.12119397, 0.094512865, -388155.84, 60194.08, 0.0, 10.000729, 9.999142 
1.7751293e+3, 2.6425007e+2, -318924.06, -595580.4, 27204.814, -0.14455408, 0.094338514, -316274.28, 34089.6, 0.00000032366296, 10.001279, 9.997604 
1.7751506e+3, 2.7424848e+2, -181582.16, -462298.38, 47928.363, 0.009945932, 0.12937167, -173624.63, 78757.516, 0.00002512301, 10.001508, 9.997715 
1.7751707e+3, 2.8424627e+2, -30060.846, -363584.38, 20668.266, 0.028318422, 0.15901269, -28784.926, 125618.79, 0.00020098852, 10.001934, 9.997552 
1.7751886e+3, 2.9424313e+2, 208317.33, -176686.03, 43053.934, -0.12654757, 0.015731048, 213073.19, 269504.3, 0.00074255146, 10.002833, 9.997709 
1.7752059e+3, 3.0423918e+2, 195839.06, -351077.0, -36650.617, -0.27511698, -0.054923195, 198284.2, 198284.2, 0.001770995, 10.003224, 9.996009 
1.7752288e+3, 3.142399e+2, 178518.84, -210811.48, -9014.251, 0.18816504, 0.3385172, 178727.45, 178727.45, 0.0031863125, 10.002484, 9.997279 
1.7848511e+3, 1.24234684e+2, -1825779.8, -1654176.4, -91371.3, -0.032851454, 0.19437046, -1614636.0, 107879.72, 0.08696164, 9.998637, 10.001086 
1.7848717e+3, 1.342348e+2, -1735090.5, -1504588.8, 71152.8, -0.14426747, -0.014782747, -1484394.1, 140117.11, 0.057701517, 9.99845, 10.001512 
1.7848952e+3, 1.44238e+2, -1831627.3, -1672037.1, -31176.87, 0.1740338, 0.24705264, -1666162.8, -139682.83, 0.030258754, 9.997817, 9.999976 
1.7849113e+3, 1.5423828e+2, -1567850.8, -1431126.6, -18769.582, -0.06337573, 0.18842013, -1428596.8, -115.453316, 0.0109521225, 9.998706, 10.000513 
1.7849298e+3, 1.6423902e+2, -1448413.0, -1401316.0, 72460.016, -0.12137724, 0.24970411, -1348674.1, -18198.275, 0.0020959692, 9.999177, 9.999824 
1.7849524e+3, 1.7423837e+2, -1317653.0, -1271870.9, 49688.098, 0.099299304, 0.15562151, -1240054.5, -7573.5513, 0.000105867584, 9.999367, 9.999931 
1.7849737e+3, 1.8423758e+2, -1233731.5, -1263766.8, 85952.87, 0.17395626, 0.12919262, -1161494.1, -27005.535, 0.0000000562377, 9.999593, 9.9992285 
1.7849934e+3, 1.9423728e+2, -1031754.3, -1087867.1, 81769.26, 0.028424995, 0.120137796, -973362.06, 63130.973, 0.0, 10.000199, 9.999455 
1.7850134e+3, 2.0423737e+2, -926570.25, -1011724.06, 37573.383, -0.03899116, 0.20387362, -912362.0, 26131.51, 0.0, 10.000347, 9.999244 
1.7850335e+3, 2.1423765e+2, -852524.0, -902794.6, -309.09253, -0.007233917, 0.2538355, -852522.1, -12029.61, 0.0, 10.000112, 9.99942 
1.7850533e+3, 2.2423711e+2, -787963.9, -919338.4, 5424.123, 0.024526296, 0.3135688, -787740.3, -45241.45, 0.0, 10.00029, 9.998562 
1.7850731e+3, 2.3423566e+2, -560830.8, -735269.7, 5084.881, 0.054182306, 0.25965443, -560682.7, 83831.18, 0.0, 10.001097, 9.998749 
1.7850925e+3, 2.4423392e+2, -408190.53, -619145.1, 23014.53, 0.051905397, 0.22395977, -405708.9, 140820.4, 0.0, 10.001493, 9.998685 
1.7851119e+3, 2.5423175e+2, -316326.06, -503388.5, -35102.695, -0.01704859, 0.08824189, -309955.9, 138589.53, 0.0, 10.001384, 9.998847 
1.7851315e+3, 2.6423013e+2, -302099.8, -559320.6, -40695.363, -0.028670928, 0.09508615, -295814.88, 54744.81, 0.00000018370703, 10.001243, 9.997888 
1.7851518e+3, 2.7422893e+2, -217932.9, -455355.78, -37580.703, 0.012243283, 0.14016561, -212126.42, 40447.527, 0.000020759246, 10.0011, 9.997989 
1.785172e+3, 2.8422707e+2, -102271.23, -369095.38, 17813.852, 0.018188132, 0.17839736, -101087.18, 53505.684, 0.0001926232, 10.001327, 9.997795 
1.785192e+3, 2.9422444e+2, 124559.19, -195212.9, -14286.992, -0.020693025, 0.06646718, 125196.24, 181813.5, 0.00073852757, 10.002157, 9.997905 
1.7852098e+3, 3.042209e+2, 173104.42, -325417.75, -31311.322, -0.15974113, 0.014064634, 175063.33, 175063.33, 0.0017551996, 10.002917, 9.996326 
1.7852314e+3, 3.1422132e+2, 328558.0, -100097.13, 23739.314, 0.16029486, 0.3625364, 329868.7, 329868.7, 0.003105376, 10.003311, 9.997664 
1.794852e+3, 1.2421594e+2, -1973282.1, -2002854.8, -78225.54, 0.100418724, 0.23961388, -1908457.8, -185758.73, 0.09190124, 9.998836, 9.998547 
1.7948668e+3, 1.3421527e+2, -1740394.4, -1551088.0, 35087.324, -0.52266055, 0.031235263, -1544793.9, 79912.26, 0.06119029, 9.998577, 10.001129 
1.7948937e+3, 1.442178e+2, -1756648.4, -1525470.9, -33050.938, 0.2071418, 0.18989216, -1520838.5, 5841.818, 0.03230053, 9.997866, 10.000957 
1.7949116e+3, 1.5421824e+2, -1518154.8, -1322956.6, 29188.293, 0.07625587, 0.067612536, -1318685.5, 109988.24, 0.011841973, 9.998691, 10.001267 
1.79493e+3, 1.6421896e+2, -1457563.3, -1444188.3, 60169.273, -0.07273066, 0.10637462, -1390336.0, -59669.266, 0.0023264778, 9.999266, 9.999494 
1.7949513e+3, 1.7421925e+2, -1335521.9, -1314761.9, 65826.43, 0.015294696, 0.13875456, -1258502.1, -25835.283, 0.00012352158, 9.999379, 9.999639 
1.7949726e+3, 1.8421929e+2, -1222018.8, -1244010.5, 87796.52, 0.04394793, 0.2012295, -1144532.3, -9864.003, 0.000000085167756, 9.999618, 9.999348 
1.7949931e+3, 1.9421905e+2, -1042205.6, -1085589.5, 113762.54, -0.05079915, 0.19079539, -948085.4, 88584.97, 0.0, 10.000098, 9.999517 
1.7950135e+3, 2.0421843e+2, -979652.06, -1085350.0, 12181.632, -0.08862869, 0.21908988, -978266.3, -39589.152, 0.0, 10.000181, 9.998822 
1.795034e+3, 2.1421716e+2, -910617.3, -981043.6, 4461.716, 0.009213086, 0.15978888, -910335.75, -69644.5, 0.0, 9.999919, 9.998983 
1.7950536e+3, 2.2421631e+2, -800772.8, -878584.25, 16534.295, -0.0032011543, 0.1882296, -797405.2, -54705.156, 0.0, 10.000003, 9.99898 
1.7950723e+3, 2.3421614e+2, -566255.6, -683934.75, 51677.38, -0.1594885, 0.21481189, -546784.0, 97915.836, 0.0, 10.00083, 9.999228 
1.7950927e+3, 2.4421512e+2, -536331.75, -810073.25, 9128.479, -0.11631569, 0.27735925, -536027.7, 10682.278, 0.0, 10.00117, 9.99753 
1.7951159e+3, 2.5421277e+2, -442533.78, -705016.94, -21700.732, 0.23163472, 0.24683973, -440751.75, 7983.884, 0.0, 10.001132, 9.997579 
1.795136e+3, 2.6421067e+2, -322542.0, -530541.2, -61365.703, 0.27532002, 0.26141137, -305787.03, 44971.082, 0.00000013255313, 10.000934, 9.998236 
1.7951517e+3, 2.7420905e+2, -221503.84, -391400.1, -25376.086, -0.1364523, 0.20554776, -217794.6, 34980.227, 0.0000188634, 10.000812, 9.998558 
1.7951708e+3, 2.8420812e+2, -144583.81, -380393.06, 26009.422, -0.27555922, 0.29991782, -141749.08, 13036.667, 0.00018772867, 10.000992, 9.997883 
1.7951949e+3, 2.9420808e+2, 70169.88, -204549.33, 47886.39, 0.01804097, 0.44007114, 78277.69, 135067.75, 0.00073078944, 10.001731, 9.998037 
1.7952143e+3, 3.0420548e+2, 195723.22, -166650.45, -36207.816, -0.051547464, 0.41271788, 199305.64, 199305.64, 0.0017135283, 10.002417, 9.997669 
1.7952323e+3, 3.1420264e+2, 364636.97, 137810.19, 114033.305, -0.13728619, 0.270342, 412053.28, 412053.28, 0.0029599608, 10.002654, 9.999595 
1.8048523e+3, 1.24196164e+2, -1870630.4, -1968235.9, -18738.563, 0.22468583, 0.22050989, -1867156.5, -144261.4, 0.097200245, 9.99964, 9.998385 
1.8048659e+3, 1.341963e+2, -1772021.1, -1575141.8, -20651.918, -0.44411862, 0.115445405, -1572998.8, 51895.758, 0.06490086, 9.998419, 10.001024 
1.8048914e+3, 1.4419816e+2, -1760396.4, -1513368.8, -9687.132, 0.19109769, 0.19817746, -1512989.4, 13884.919, 0.034457777, 9.997754, 10.0011015 
1.8049107e+3, 1.5419857e+2, -1565211.6, -1334990.5, -26024.076, 0.14603141, 0.061815977, -1332085.4, 96780.484, 0.0127833225, 9.998308, 10.00137 
1.8049295e+3, 1.6419907e+2, -1535843.6, -1486121.4, 19945.934, -0.005147908, 0.075516984, -1479109.1, -148249.02, 0.0025744103, 9.9987545, 9.999453 
1.8049504e+3, 1.7419954e+2, -1318835.8, -1304733.5, 14522.3545, 0.0014172287, 0.12714444, -1295641.0, -62781.754, 0.00014305822, 9.999496, 9.99964 
1.804972e+3, 1.8419975e+2, -1159408.8, -1201461.4, 76062.414, 0.016667388, 0.20122719, -1101519.9, 33339.02, 0.00000010953618, 9.999989, 9.999463 
1.8049932e+3, 1.9419958e+2, -996298.44, -1045914.7, 73452.836, -0.06660798, 0.18241031, -943577.44, 93282.36, 0.0, 10.00035, 9.999665 
1.8050139e+3, 2.0419884e+2, -916723.6, -1073882.5, 4419.494, -0.07917964, 0.20135556, -916599.44, 22267.613, 0.0, 10.00069, 9.998669 
1.8050347e+3, 2.1419735e+2, -745410.4, -919453.4, -15189.399, 0.040748313, 0.13966095, -744094.7, 96788.43, 0.0, 10.001133, 9.998824 
1.8050545e+3, 2.2419614e+2, -630662.5, -816960.94, 20572.754, 0.037979636, 0.14776634, -628417.75, 114477.38, 0.0, 10.0012665, 9.998784 
1.8050732e+3, 2.3419529e+2, -533296.25, -692214.5, -26885.646, -0.157008, 0.13110426, -528871.0, 116030.21, 0.0, 10.001168, 9.998999 
1.8050937e+3, 2.4419424e+2, -519427.16, -794830.7, -37783.54, -0.11518493, 0.1995029, -514337.56, 32574.55, 0.0, 10.001232, 9.997631 
1.8051173e+3, 2.5419265e+2, -392218.7, -674646.44, -775.6765, 0.25857767, 0.2410987, -392216.56, 56715.32, 0.0, 10.00142, 9.997682 
1.8051378e+3, 2.641909e+2, -221875.94, -498208.16, 31688.135, 0.3155384, 0.29516757, -218288.69, 132663.61, 0.00000007008213, 10.001705, 9.998077 
1.8051533e+3, 2.7418903e+2, -32523.725, -332875.2, -29222.521, -0.12105211, 0.24160992, -29706.953, 223266.25, 0.000018211349, 10.002236, 9.9982815 
1.8051724e+3, 2.841881e+2, 20137.834, -287834.72, 17246.197, -0.25702927, 0.34124714, 21100.596, 176086.81, 0.00018396281, 10.002051, 9.9980135 
1.8051964e+3, 2.9418823e+2, -4018.7004, -227866.16, -4000.718, 0.053015064, 0.49501705, -3947.2205, 53042.5, 0.0007176876, 10.001145, 9.99817 
1.8052168e+3, 3.041863e+2, 110793.38, -127025.7, -19884.504, 0.036446102, 0.4947056, 112444.51, 112444.51, 0.0016608938, 10.001513, 9.998359 
1.8052359e+3, 3.1418362e+2, 489950.75, 250150.23, -24128.059, -0.05453094, 0.31621212, 492354.34, 492354.34, 0.002818699, 10.003191, 10.000156 
1.8148492e+3, 1.2417595e+2, -1674461.3, -1609964.9, -58269.137, -0.13718338, 0.20236255, -1575615.5, 147483.28, 0.10291468, 9.999818, 10.00086 
1.8148689e+3, 1.3417771e+2, -1764041.9, -1559939.9, -58322.473, -0.020096578, 0.23903875, -1544449.8, 80628.125, 0.06887483, 9.998419, 10.001143 
1.8148872e+3, 1.4417876e+2, -1780318.3, -1570552.6, -18352.572, -0.051521182, 0.25259465, -1568959.0, -41894.29, 0.036753505, 9.99782, 10.000677 
1.814908e+3, 1.5417911e+2, -1592445.6, -1400498.5, 7107.535, -0.003363824, 0.15979885, -1400235.8, 28823.678, 0.01378539, 9.998342, 10.000905 
1.8149279e+3, 1.6417935e+2, -1503198.9, -1438203.9, 26056.848, -0.09956306, 0.15715106, -1429047.5, -97991.4, 0.002842686, 9.998837, 9.99974 
1.8149497e+3, 1.7417926e+2, -1304329.3, -1276843.0, 55685.23, -0.06283581, 0.1273056, -1233230.0, -172.25757, 0.00016504708, 9.999494, 9.999836 
1.8149716e+3, 1.8417908e+2, -1148083.1, -1178517.5, 72049.6, -0.05144871, 0.14597988, -1089661.3, 45398.305, 0.00000012908751, 9.999988, 9.999622 
1.8149929e+3, 1.9417885e+2, -989337.9, -1019427.2, 98982.65, -0.14670427, 0.10285039, -904263.06, 132797.8, 0.0, 10.000293, 9.999878 
1.815014e+3, 2.0417856e+2, -936694.8, -1074977.4, 5877.3564, -0.16703035, 0.1493157, -936445.44, 2618.111, 0.0, 10.000524, 9.998738 
1.8150352e+3, 2.1417809e+2, -777216.94, -930964.1, 16712.44, -0.034716178, 0.183804, -775421.25, 65647.98, 0.0, 10.000899, 9.998857 
1.8150556e+3, 2.2417648e+2, -738860.94, -967868.44, 3637.1328, 0.0026131512, 0.19127554, -738803.2, 4282.3394, 0.0, 10.000949, 9.997902 
1.8150753e+3, 2.3417325e+2, -638206.25, -852674.94, -14094.247, -0.08100409, 0.030737124, -637284.0, 7832.872, 0.0, 10.000919, 9.998018 
1.8150952e+3, 2.4417128e+2, -483383.53, -649344.6, -43608.79, -0.117777534, 0.011313236, -472622.4, 74513.4, 0.0, 10.00093, 9.99877 
1.8151157e+3, 2.5417122e+2, -327376.34, -481575.53, 23618.06, -0.057715338, 0.059254073, -323839.97, 125296.234, 0.0, 10.001174, 9.999117 
1.8151362e+3, 2.6417062e+2, -331435.94, -648952.6, 34539.137, -0.04502603, 0.18714029, -327722.25, 23422.729, 0.0000000874347, 10.001371, 9.997206 
1.8151559e+3, 2.74169e+2, -156588.44, -509901.0, 12883.22, -0.10280467, 0.25957707, -156119.28, 97049.35, 0.00001648955, 10.001905, 9.997215 
1.8151759e+3, 2.841672e+2, -34025.195, -325649.7, -31317.486, -0.13716403, 0.34189618, -30699.936, 124491.83, 0.00017264257, 10.001718, 9.997917 
1.8151966e+3, 2.941653e+2, -34541.977, -229101.78, -10399.985, -0.096294634, 0.27197966, -33987.637, 23225.23, 0.00068283465, 10.000872, 9.998292 
1.8152173e+3, 3.0416378e+2, 29493.96, -199818.36, 17027.906, -0.114502035, 0.3147214, 30751.494, 30751.494, 0.0015899244, 10.001113, 9.998047 
1.8152393e+3, 3.1416205e+2, 350014.72, 179814.06, 83708.35, -0.076725855, 0.25249574, 384284.22, 384284.22, 0.0027097166, 10.002326, 10.000045 
1.8248472e+3, 1.2415682e+2, -1808150.3, -1542132.6, 66367.766, -0.22720745, 0.22014484, -1526494.1, 196793.88, 0.10907774, 9.998234, 10.002152 
1.82487e+3, 1.3415848e+2, -1818310.9, -1661807.3, -119115.55, 0.25617105, 0.30850068, -1597539.4, 27726.936, 0.07313931, 9.998341, 10.000471 
1.8248847e+3, 1.4415741e+2, -1769467.9, -1593526.6, -8279.919, -0.07797118, 0.15399587, -1593137.9, -65864.07, 0.039204508, 9.9980545, 10.000393 
1.8249069e+3, 1.5415858e+2, -1519608.5, -1408240.9, -9151.08, 0.029684296, 0.18379505, -1407494.0, 21768.336, 0.014855209, 9.999061, 10.000492 
1.8249273e+3, 1.6415894e+2, -1384800.8, -1365245.9, 21091.703, -0.04628784, 0.20959821, -1351775.5, -20517.182, 0.0031336718, 9.99958, 9.999879 
1.824949e+3, 1.741585e+2, -1277865.9, -1238540.3, 14411.332, -0.06878259, 0.12531015, -1233824.5, -563.0402, 0.00019006866, 9.999578, 10.000055 
1.8249711e+3, 1.841583e+2, -1210080.1, -1200431.6, 55444.234, -0.050047316, 0.12770031, -1149602.3, -14339.6045, 0.00000015151502, 9.999526, 9.999694 
1.8249933e+3, 1.9415832e+2, -1075891.9, -1050940.8, 39739.414, -0.09979751, 0.10389534, -1021764.6, 15497.275, 0.0, 9.999681, 9.999948 
1.825015e+3, 2.041581e+2, -977053.4, -1084476.1, -14196.023, -0.104042426, 0.15093428, -975209.06, -35945.215, 0.0, 10.000211, 9.998804 
1.8250363e+3, 2.141574e+2, -706430.5, -884642.6, -28675.736, -0.027843576, 0.15141113, -701930.0, 139341.03, 0.0, 10.0013485, 9.998937 
1.8250573e+3, 2.2415595e+2, -593966.6, -895623.06, -7151.4614, 0.024928862, 0.16796684, -593797.2, 149488.55, 0.0, 10.001905, 9.9979515 
1.8250774e+3, 2.341534e+2, -527025.75, -788023.44, 18170.873, 0.019865401, 0.06950379, -525766.75, 119544.34, 0.0, 10.001628, 9.998128 
1.8250972e+3, 2.441516e+2, -401964.13, -617374.3, 34745.086, -0.029978024, 0.060674626, -396498.5, 150830.53, 0.0, 10.001514, 9.998701 
1.8251163e+3, 2.5415087e+2, -268043.03, -464286.94, -37783.227, -0.13834447, 0.05151229, -261019.9, 188316.31, 0.0, 10.00162, 9.999011 
1.8251365e+3, 2.6415008e+2, -272682.06, -589490.94, -18172.56, -0.1549348, 0.15193762, -271643.06, 79703.414, 0.00000011582431, 10.001655, 9.997475 
1.8251579e+3, 2.7414885e+2, -171906.5, -490546.47, 10584.065, -0.07945068, 0.24301194, -171555.33, 81809.46, 0.000015405387, 10.001676, 9.997468 
1.8251787e+3, 2.84147e+2, -3918.5898, -316815.28, 51027.598, -0.03291156, 0.3103491, 4192.7827, 159579.88, 0.00016033727, 10.00197, 9.9978485 
1.8251988e+3, 2.9414463e+2, 217332.6, -132296.86, 6750.208, -0.029467396, 0.21429239, 217462.88, 274874.97, 0.0006397898, 10.0027, 9.998083 
1.8252203e+3, 3.041427e+2, 306184.34, -93438.51, 95387.81, -0.0085764015, 0.23917243, 327785.3, 327785.3, 0.0015189088, 10.003117, 9.997824 
1.825243e+3, 3.1414056e+2, 423574.5, 154684.83, 27320.701, 0.035137154, 0.17676336, 426322.34, 426322.34, 0.0026480674, 10.00302, 9.999591 
1.8348464e+3, 1.2413879e+2, -1794696.8, -1539435.9, 107300.61, -0.21374552, 0.26692572, -1500324.1, 223138.16, 0.11569034, 9.998338, 10.002144 
1.8348685e+3, 1.3413864e+2, -1896234.3, -1844633.6, -131155.95, 0.23693459, 0.32801795, -1736764.4, -111305.58, 0.07769921, 9.99842, 9.99917 
1.8348832e+3, 1.4413422e+2, -1768845.8, -1622107.3, -5880.366, -0.08900488, -0.09483708, -1621872.0, -94371.516, 0.04181763, 9.998177, 10.000137 
1.834907e+3, 1.541369e+2, -1546197.5, -1478455.9, 43071.918, 0.103290156, 0.13077086, -1457532.4, -28056.725, 0.015997248, 9.999111, 9.999987 
1.834928e+3, 1.6413765e+2, -1366386.5, -1351831.9, 3694.463, 0.004601934, 0.2253398, -1350947.8, -19479.44, 0.0034491862, 9.999682, 9.999925 
1.834948e+3, 1.7413697e+2, -1256836.0, -1207263.6, 23408.549, -0.14573435, 0.09832935, -1197957.0, 35516.105, 0.00021871291, 9.999617, 10.0002575 
1.8349701e+3, 1.8413705e+2, -1217033.9, -1210318.6, 42466.332, -0.15707493, 0.1179667, -1171077.4, -35605.86, 0.00000018976193, 9.999515, 9.999628 
1.8349937e+3, 1.941377e+2, -1100469.6, -1081788.0, 56698.848, -0.06086023, 0.17380722, -1033665.75, 3799.6152, 0.0, 9.999593, 9.999779 
1.8350162e+3, 2.0413724e+2, -990577.94, -1075605.4, 8909.822, -0.043607622, 0.19682895, -989654.4, -50184.297, 0.0, 10.000049, 9.998945 
1.8350373e+3, 2.1413526e+2, -723923.56, -872699.75, 24889.168, -0.07678868, 0.05180132, -719870.25, 121618.82, 0.0, 10.001138, 9.999121 
1.8350585e+3, 2.2413452e+2, -569008.56, -773024.44, -26088.084, -0.059901834, 0.08706387, -565725.44, 177770.58, 0.0, 10.0016, 9.998943 
1.8350793e+3, 2.3413546e+2, -485138.88, -645402.6, 23242.414, 0.0228547, 0.22723892, -481836.16, 163651.02, 0.0, 10.001388, 9.999228 
1.8350993e+3, 2.4413483e+2, -533822.2, -815246.56, 21422.738, 0.0028379832, 0.32899436, -532200.8, 15294.857, 0.0, 10.001184, 9.997507 
1.8351182e+3, 2.5413176e+2, -415717.97, -700437.25, -14253.157, -0.12934658, 0.23490867, -415006.22, 34523.89, 0.0, 10.001324, 9.997535 
1.8351379e+3, 2.641296e+2, -240550.55, -458392.06, -29458.168, -0.20462418, 0.23333466, -236637.3, 114916.03, 0.000000090536304, 10.001368, 9.998517 
1.8351586e+3, 2.7412856e+2, -107235.195, -302599.34, 34557.938, -0.20184647, 0.20242043, -101302.414, 152259.67, 0.00001528185, 10.001443, 9.99887 
1.83518e+3, 2.8412724e+2, -67457.234, -376037.5, 51215.125, -0.12634285, 0.25141883, -59179.125, 96395.84, 0.00015301339, 10.001649, 9.997599 
1.8352027e+3, 2.9412574e+2, 138747.25, -211084.94, 61902.85, 0.06414886, 0.28168562, 149377.92, 206969.61, 0.00060731446, 10.002344, 9.997706 
1.8352251e+3, 3.0412307e+2, 187488.19, -224387.97, 73789.625, 0.12240938, 0.28574827, 200308.88, 200308.88, 0.0014671788, 10.002629, 9.997154 
1.8352441e+3, 3.1411955e+2, 246394.88, -52953.125, 56835.94, -0.20034283, 0.13037877, 256822.81, 256822.81, 0.0026243576, 10.002363, 9.998459 
1.8448451e+3, 1.2411809e+2, -1870905.3, -1480552.4, 147840.58, -0.112389565, 0.13208659, -1430880.5, 292782.75, 0.12272786, 9.997405, 10.003067 
1.8448672e+3, 1.3411939e+2, -1872128.9, -1901367.0, -116427.5, 0.25455037, 0.40803313, -1769406.3, -143760.08, 0.08254445, 9.998945, 9.9985075 
1.8448822e+3, 1.4411299e+2, -1512667.6, -1544896.5, 32347.455, -0.08183056, -0.15762176, -1492643.0, 35065.26, 0.04459436, 10.000112, 9.99975 
1.8449067e+3, 1.5411608e+2, -1476914.1, -1482777.6, 57034.56, 0.13380405, 0.1396673, -1422736.0, 6945.021, 0.017215712, 9.999741, 9.999657 
1.8449281e+3, 1.6411707e+2, -1430647.3, -1389275.8, 47778.89, 0.07860935, 0.27936554, -1357896.9, -26224.998, 0.0037916328, 9.999289, 9.999859 
1.844948e+3, 1.7411606e+2, -1301648.5, -1231146.5, 15317.614, -0.108926974, 0.12617758, -1227962.4, 5716.9165, 0.00025177147, 9.99934, 10.000224 
1.8449698e+3, 1.8411581e+2, -1195839.9, -1208331.5, 70244.25, -0.13155463, 0.12006117, -1131564.3, 4115.9326, 0.00000025167606, 9.999691, 9.999556 
1.844994e+3, 1.9411631e+2, -936901.6, -1012805.4, 63357.37, -0.026889345, 0.16278891, -900998.94, 136676.72, 0.0, 10.000745, 9.999697 
1.845017e+3, 2.0411584e+2, -822984.7, -981934.5, 40348.277, -0.0017589512, 0.18687822, -813329.1, 126351.0, 0.0, 10.001153, 9.99906 
1.8450384e+3, 2.1411422e+2, -741718.75, -867702.75, 19814.576, -0.067792974, 0.06897929, -738675.9, 103020.15, 0.0, 10.000974, 9.999241 
1.8450595e+3, 2.2411376e+2, -656063.94, -801228.0, -46009.73, -0.06446933, 0.12045712, -642709.6, 100991.26, 0.0, 10.000952, 9.999051 
1.8450803e+3, 2.3411475e+2, -498452.25, -643638.0, -100089.93, -0.009711091, 0.25431108, -447401.6, 198291.23, 0.0, 10.001248, 9.999296 
1.8451005e+3, 2.4411422e+2, -482107.53, -771053.25, -64513.28, 0.004426336, 0.35388196, -468357.84, 79342.7, 0.0, 10.001477, 9.997651 
1.8451203e+3, 2.5411153e+2, -351824.7, -655879.25, -23149.266, -0.045351584, 0.28218508, -350072.3, 99658.86, 0.0, 10.0016985, 9.997656 
1.8451403e+3, 2.6410937e+2, -165169.45, -396436.1, 26977.895, -0.10296852, 0.26414943, -162064.11, 189688.73, 0.00000009817215, 10.001784, 9.99874 
1.84516e+3, 2.74108e+2, -52934.484, -253908.16, -25513.645, -0.19970055, 0.18443955, -49746.1, 204016.08, 0.000013983738, 10.001727, 9.999064 
1.8451816e+3, 2.841065e+2, -28959.426, -364274.47, 6671.197, -0.14077029, 0.21244664, -28826.754, 126948.36, 0.00014297603, 10.001938, 9.997546 
1.8452057e+3, 2.9410517e+2, 171462.77, -198092.52, -16759.223, 0.12123014, 0.27026325, 172221.23, 230011.31, 0.00057426473, 10.002578, 9.997688 
1.8452288e+3, 3.041021e+2, 268018.0, -195849.22, 64031.06, 0.22827007, 0.23262714, 276694.38, 276694.38, 0.00141219, 10.003216, 9.997076 
1.8452473e+3, 3.140985e+2, 450438.63, 26390.51, -48781.957, -0.16801718, 0.10011101, 455978.1, 455978.1, 0.002578793, 10.003819, 9.998307 
1.8548432e+3, 1.24096915e+2, -1727132.0, -1283009.8, 84689.85, -0.13661377, 0.016575154, -1267408.4, 456461.16, 0.13014582, 9.99764, 10.004538 
1.8548656e+3, 1.3410065e+2, -1886320.6, -1938784.1, -16252.364, 0.15232924, 0.52799404, -1881694.0, -255864.89, 0.08765755, 9.998965, 9.998247 
1.8548816e+3, 1.4409375e+2, -1518276.9, -1591831.9, 12437.34, -0.22132511, -0.044541553, -1516230.9, 11666.266, 0.04753598, 10.0002575, 9.999359 
1.8549052e+3, 1.540961e+2, -1476130.9, -1500076.8, 52256.836, -0.025419354, 0.20359926, -1434492.9, -4614.721, 0.01851746, 9.999818, 9.999503 
1.854927e+3, 1.6409719e+2, -1434515.0, -1417450.9, 24202.973, -0.012464227, 0.36615515, -1400320.1, -68451.26, 0.0041650403, 9.999373, 9.999624 
1.8549478e+3, 1.7409572e+2, -1327469.1, -1284914.1, 30435.21, -0.087331824, 0.20090573, -1269056.3, -35176.035, 0.00029041685, 9.9993305, 9.999864 
1.85497e+3, 1.8409455e+2, -1198841.6, -1213371.8, 86792.38, -0.12657438, 0.12337854, -1119010.9, 16878.762, 0.0000003514084, 9.999689, 9.999524 
1.854994e+3, 1.9409408e+2, -949073.8, -1014558.75, 112742.63, -0.13024738, 0.07048208, -864415.4, 173477.45, 0.0, 10.000642, 9.999736 
1.8550171e+3, 2.0409392e+2, -851528.25, -998465.75, 19792.81, -0.13999443, 0.1254327, -848908.8, 90985.27, 0.0, 10.00097, 9.999034 
1.855039e+3, 2.1409418e+2, -777322.25, -888713.1, 26045.426, -0.12036047, 0.19722004, -771533.2, 70359.84, 0.0, 10.000748, 9.999203 
1.8550602e+3, 2.2409353e+2, -744949.0, -921470.4, -50428.86, -0.1391756, 0.259149, -731558.25, 12343.76, 0.0, 10.000665, 9.99837 
1.8550797e+3, 2.3409142e+2, -588373.75, -775750.6, -72262.414, -0.21194258, 0.16205056, -563743.2, 82183.38, 0.0, 10.001008, 9.998509 
1.8551004e+3, 2.4409015e+2, -438889.6, -608581.2, -68428.55, -0.19058438, 0.17455994, -414734.13, 133206.58, 0.0, 10.0011635, 9.998917 
1.8551227e+3, 2.5409007e+2, -281749.4, -447598.9, 1944.8743, -0.012830824, 0.21033539, -281726.6, 168213.36, 0.0, 10.001437, 9.999204 
1.8551435e+3, 2.6408923e+2, -251401.23, -504361.2, 6454.1953, 0.00075000187, 0.2640995, -251236.67, 100709.95, 0.00000008466028, 10.001481, 9.998145 
1.855162e+3, 2.740871e+2, -152175.98, -395093.28, -5276.1, -0.21614157, 0.18678056, -152061.45, 101904.69, 0.000011476472, 10.001456, 9.998221 
1.8551828e+3, 2.8408492e+2, -91289.266, -414298.44, 7804.1104, -0.25556692, 0.20520663, -91100.82, 64885.785, 0.00012753508, 10.001593, 9.997374 
1.8552071e+3, 2.9408303e+2, 128062.516, -204429.61, 31402.557, -0.023727369, 0.20447242, 131002.37, 189008.38, 0.00053210376, 10.002225, 9.997815 
1.855231e+3, 3.0407977e+2, 213270.4, -196713.77, 62127.844, 0.089505866, 0.12684235, 222478.28, 222478.28, 0.0013364273, 10.002733, 9.997298 
1.8552524e+3, 3.1407896e+2, 385633.88, 84922.72, -6856.088, -0.09848206, 0.24864995, 385790.1, 385790.1, 0.0024723716, 10.003028, 9.999072 
1.8648416e+3, 1.2407544e+2, -1761112.3, -1267993.3, 106359.484, -0.032215003, 0.013428102, -1246031.0, 478047.06, 0.1378835, 9.997284, 10.004837 
1.8648629e+3, 1.3407907e+2, -1885139.1, -1953682.9, -80020.62, 0.014106005, 0.5134199, -1832360.1, -206320.77, 0.09301642, 9.999061, 9.998084 
1.8648823e+3, 1.440724e+2, -1656726.9, -1656725.5, -47587.363, -0.11833133, -0.026216026, -1609138.9, -81032.82, 0.050644647, 9.999315, 9.999359 
1.8649046e+3, 1.5407492e+2, -1469685.8, -1492954.8, -35732.695, -0.057634953, 0.23381291, -1443741.3, -13655.104, 0.01991141, 9.999851, 9.999538 
1.8649262e+3, 1.6407605e+2, -1341808.8, -1403713.4, -22636.44, -0.036313836, 0.41338766, -1334414.6, -2337.5007, 0.0045744055, 10.000135, 9.999344 
1.8649481e+3, 1.7407426e+2, -1208938.5, -1255564.3, -42524.14, -0.022212125, 0.24073529, -1183756.0, 50336.348, 0.0003360051, 10.000276, 9.999594 
1.8649708e+3, 1.8407284e+2, -1152915.0, -1223339.0, 53626.246, -0.02546568, 0.16328646, -1123973.6, 12131.572, 0.00000050835786, 10.000139, 9.999241 
1.8649946e+3, 1.9407222e+2, -1067571.4, -1104044.4, 26305.063, -0.09288548, 0.12463308, -1053799.8, -15688.864, 0.0, 9.999962, 9.999456 
1.8650174e+3, 2.040721e+2, -1004403.2, -1034553.75, -53848.605, -0.12522703, 0.18039155, -963559.44, -23447.654, 0.0, 9.999745, 9.999382 
1.865039e+3, 2.140724e+2, -904189.5, -907618.44, -45316.887, -0.13027973, 0.21709646, -860554.7, -18445.928, 0.0, 9.999669, 9.9996 
1.8650603e+3, 2.2407183e+2, -825226.6, -921637.7, -15333.912, -0.14405183, 0.25035873, -822846.56, -78730.67, 0.0, 9.999964, 9.99871 
1.8650807e+3, 2.3407003e+2, -581382.4, -734476.4, 8809.371, -0.1964007, 0.15804155, -580877.1, 65259.977, 0.0, 10.000913, 9.998844 
1.8651018e+3, 2.4406911e+2, -378424.5, -548299.6, 30950.066, -0.15661052, 0.17335713, -372961.3, 175185.81, 0.0, 10.001435, 9.999207 
1.865124e+3, 2.5406927e+2, -279543.78, -417825.63, -16692.984, -0.0073531102, 0.20726344, -277557.2, 172585.02, 0.0, 10.001328, 9.999466 
1.8651453e+3, 2.640682e+2, -240742.89, -555874.9, -7520.9854, 0.02730668, 0.2442182, -240563.5, 111587.71, 0.000000065173005, 10.001798, 9.997639 
1.865165e+3, 2.7406526e+2, 53550.06, -364000.88, -46128.066, -0.11884497, 0.15384465, 58585.242, 312765.44, 0.000009433609, 10.003161, 9.997615 
1.8651861e+3, 2.8406295e+2, 190370.47, -261274.11, -10144.854, -0.1574796, 0.18287802, 190598.22, 346800.7, 0.00011541226, 10.003466, 9.997509 
1.8652087e+3, 2.940614e+2, 151478.52, -173112.73, -23215.139, -0.076556996, 0.20316507, 153130.48, 211347.06, 0.00049646525, 10.002301, 9.997985 
1.865232e+3, 3.0405787e+2, 120308.12, -237933.3, 88576.74, -0.024170686, 0.08529863, 141012.5, 141012.5, 0.0012601693, 10.002055, 9.99734 
1.8652569e+3, 3.1405836e+2, 430265.94, 123433.734, -108116.44, 0.041676305, 0.33540902, 464534.84, 464534.84, 0.0023303956, 10.003206, 9.99926 
1.8748394e+3, 1.2405294e+2, -1833459.3, -1400943.9, 271116.78, -0.06428738, -0.010518722, -1270399.5, 453896.34, 0.14588223, 9.997373, 10.003809 
1.8748595e+3, 1.3405463e+2, -1897374.4, -1991335.1, -47153.34, -0.2807413, 0.33701834, -1877792.0, -251514.48, 0.0986057, 9.999109, 9.9978075 
1.8748835e+3, 1.4404893e+2, -1619989.9, -1605081.3, -51471.684, 0.027027842, -0.10866009, -1560526.9, -32191.705, 0.053927336, 9.999411, 9.999671 
1.8749043e+3, 1.5405236e+2, -1446981.1, -1453932.5, 1489.8959, -0.100910135, 0.21812646, -1446675.3, -16368.883, 0.021407956, 9.999877, 9.999799 
1.8749258e+3, 1.6405363e+2, -1342253.3, -1423119.6, -30280.373, -0.15000123, 0.4057033, -1332171.8, 125.04586, 0.0050250688, 10.000219, 9.999172 
1.8749484e+3, 1.7405166e+2, -1224506.0, -1289722.0, -24975.816, -0.053224903, 0.24000639, -1216040.0, 18276.031, 0.00038988978, 10.000274, 9.99937 
1.8749714e+3, 1.8405047e+2, -1189215.1, -1296791.0, 26946.64, -0.017772676, 0.2233316, -1182842.8, -46513.758, 0.000000733184, 10.000135, 9.998739 
1.8749952e+3, 1.9405068e+2, -1125325.6, -1196659.3, 30984.826, -0.044539273, 0.3249731, -1113746.5, -75416.11, 0.0, 9.999851, 9.998875 
1.8750177e+3, 2.040503e+2, -969512.6, -934559.94, -75911.37, -0.11454802, 0.352695, -874139.2, 66194.95, 0.0, 9.999615, 10.000137 
1.875038e+3, 2.1404898e+2, -873137.75, -795417.4, -35889.926, -0.23222011, 0.14019814, -781379.56, 60962.67, 0.0, 9.999461, 10.000473 
1.8750595e+3, 2.2404881e+2, -788545.6, -777076.3, 167.59846, -0.25023502, 0.11592696, -777073.8, -32732.441, 0.0, 9.999659, 9.999853 
1.8750827e+3, 2.3405036e+2, -534222.25, -575465.56, 58796.8, -0.0997072, 0.23270749, -492535.7, 153791.52, 0.0, 10.000649, 10.000059 
1.8751046e+3, 2.4405068e+2, -471491.22, -667355.25, 13668.113, -0.056210596, 0.33444014, -470542.0, 77782.24, 0.0, 10.001112, 9.99855 
1.875124e+3, 2.5404894e+2, -376737.38, -556676.06, -3816.3853, -0.16634774, 0.2606273, -376656.47, 73683.195, 0.0, 10.001065, 9.998638 
1.8751453e+3, 2.6404622e+2, -323243.72, -665120.5, 22959.51, -0.18486176, 0.21107425, -321708.72, 30657.07, 0.00000004605578, 10.001514, 9.997034 
1.875169e+3, 2.7404258e+2, -25501.2, -462955.75, 27548.01, -0.06139091, 0.099544235, -23773.232, 230630.42, 0.000008319171, 10.002873, 9.997081 
1.8751909e+3, 2.8404054e+2, 159848.69, -244354.98, -62190.855, -0.059169132, 0.16892791, 169200.98, 325624.1, 0.00010877432, 10.003116, 9.997798 
1.87521e+3, 2.9403996e+2, 116243.97, -158970.97, -37666.02, -0.20784308, 0.25309595, 121305.86, 179730.92, 0.00047256332, 10.001935, 9.998258 
1.8752313e+3, 3.0403593e+2, 38871.57, -298685.6, 98981.75, -0.3385316, 0.08374988, 65754.94, 65754.94, 0.0011935966, 10.001609, 9.997132 
1.8752614e+3, 3.1403592e+2, 281584.75, 18458.97, -7196.214, 0.109356135, 0.30427662, 281781.4, 281781.4, 0.0021831873, 10.002385, 9.998914 
1.8848394e+3, 1.24029286e+2, -1673083.8, -1480790.8, 207358.27, 0.13068412, 0.10514183, -1348373.1, 376157.72, 0.15411249, 9.999184, 10.002317 
1.884858e+3, 1.3402982e+2, -1942002.6, -1883092.4, -118528.24, -0.27063087, 0.21331386, -1790414.1, -163891.27, 0.10442951, 9.998197, 9.999006 
1.8848829e+3, 1.4402705e+2, -1726001.5, -1627116.1, -30062.484, 0.076025054, -0.014545172, -1618694.0, -90143.93, 0.057399224, 9.998594, 9.999888 
1.8849044e+3, 1.5402918e+2, -1576472.6, -1481868.5, -18117.12, -0.027238745, 0.15571056, -1478517.8, -47985.7, 0.023018045, 9.998896, 10.000044 
1.8849261e+3, 1.6402991e+2, -1498619.4, -1520504.4, -12653.933, -0.0778218, 0.28475955, -1492832.9, -160305.52, 0.005521801, 9.999229, 9.998983 
1.8849485e+3, 1.7402868e+2, -1235251.9, -1320547.0, -32690.74, -0.06071326, 0.21497144, -1224164.0, 10377.55, 0.0004532519, 10.000296, 9.999155 
1.8849714e+3, 1.8402812e+2, -1125516.4, -1242587.3, 41326.08, -0.030541414, 0.26085177, -1112398.1, 24151.613, 0.0000010252129, 10.00047, 9.99894 
1.8849955e+3, 1.9402844e+2, -1121079.5, -1162502.3, 82167.195, 0.0024215884, 0.3445077, -1057053.5, -18504.006, 0.0, 9.999742, 9.999148 
1.8850179e+3, 2.0402825e+2, -991002.1, -932591.5, 38828.805, -0.029151976, 0.3677483, -913210.5, 27340.998, 0.0, 9.999426, 10.000238 
1.885038e+3, 2.1402706e+2, -792912.8, -747823.94, -11863.623, -0.17468524, 0.1658505, -744893.0, 97665.36, 0.0, 9.999972, 10.000556 
1.8850598e+3, 2.2402707e+2, -694325.3, -701339.25, -1402.9172, -0.18730898, 0.14120924, -694055.1, 50500.16, 0.0, 10.000192, 10.0001 
1.8850836e+3, 2.340287e+2, -596630.1, -582071.3, -40382.44, -0.038593646, 0.24462977, -548317.44, 98221.02, 0.0, 10.000122, 10.000264 
1.885106e+3, 2.4402887e+2, -554016.44, -724334.8, -72159.55, 0.0049463804, 0.33015698, -527555.3, 20980.703, 0.0, 10.000634, 9.998381 
1.8851258e+3, 2.5402674e+2, -253211.23, -529012.25, -88676.41, -0.13296384, 0.24316926, -227160.36, 223395.84, 0.0, 10.0020485, 9.998356 
1.8851474e+3, 2.640239e+2, -150017.7, -580816.06, 4091.5103, -0.15557571, 0.19625594, -149978.84, 202605.5, 0.000000017635879, 10.002732, 9.997007 
1.8851717e+3, 2.7402055e+2, -77838.68, -478837.3, 12964.461, -0.051769663, 0.11489279, -77419.97, 177199.61, 0.000007223604, 10.002514, 9.997119 
1.8851939e+3, 2.8401864e+2, 67185.23, -297609.38, -54064.527, -0.03181534, 0.19926046, 75029.22, 231667.28, 0.00010058898, 10.002542, 9.997699 
1.8852134e+3, 2.9401776e+2, 273136.84, -104379.62, -115553.97, -0.11524242, 0.26785186, 305698.25, 364341.28, 0.0004433926, 10.0030985, 9.998074 
1.8852337e+3, 3.0401373e+2, 304706.03, -153896.56, 76048.56, -0.3321307, 0.10142464, 316987.97, 316987.97, 0.0011175777, 10.003311, 9.997345 
1.8852644e+3, 3.140127e+2, 276250.06, -30078.002, -80617.6, 0.19420438, 0.2004639, 296171.03, 296171.03, 0.0020294136, 10.002502, 9.99855 
1.8948388e+3, 1.24005444e+2, -1797536.4, -1807250.8, 143057.47, 0.07309802, 0.46926594, -1659253.6, 65520.164, 0.16258536, 9.999498, 9.999662 
1.8948579e+3, 1.3400494e+2, -1733880.8, -1470833.9, -93061.66, -0.14373381, 0.1825158, -1441239.8, 185533.14, 0.110513955, 9.998196, 10.001994 
1.8948798e+3, 1.4400677e+2, -1702096.6, -1582639.9, -26211.334, -0.14961863, 0.24847469, -1577141.6, -48391.008, 0.06108175, 9.998625, 10.0001745 
1.8949042e+3, 1.5400523e+2, -1569945.0, -1468736.4, 4443.3384, 0.03321992, 0.042971823, -1468541.6, -37777.492, 0.024752133, 9.998897, 10.000134 
1.8949266e+3, 1.640047e+2, -1485595.9, -1524733.8, 3482.144, -0.00040295778, 0.04520474, -1485288.5, -152517.98, 0.0060684755, 9.999357, 9.998894 
1.894948e+3, 1.7400528e+2, -1242467.3, -1336849.5, 17478.605, -0.17589474, 0.1644433, -1239334.4, -4564.524, 0.0005270964, 10.0003, 9.999041 
1.8949705e+3, 1.8400562e+2, -1047160.6, -1085025.4, 3153.163, -0.21874698, 0.25943664, -1046899.9, 89869.02, 0.0000013718216, 10.000502, 10.000001 
1.8949945e+3, 1.9400573e+2, -1053763.1, -999087.44, 62665.445, -0.09573482, 0.20218073, -958056.3, 80710.125, 0.0, 9.999648, 10.00031 
1.8950175e+3, 2.0400605e+2, -1053833.6, -1034209.25, 39862.41, -0.048159964, 0.2435087, -1002969.1, -62206.504, 0.0, 9.999287, 9.999616 
1.8950392e+3, 2.1400665e+2, -875670.06, -876113.94, 24089.273, -0.08127137, 0.29497814, -851801.7, -9044.268, 0.0, 9.999776, 9.999775 
1.895061e+3, 2.2400647e+2, -787156.4, -823187.6, -18586.086, -0.11184409, 0.32597175, -779287.56, -34528.758, 0.0, 9.999888, 9.999409 
1.8950829e+3, 2.3400521e+2, -680648.7, -697810.9, -24062.797, -0.15306874, 0.20602374, -663682.7, -16913.725, 0.0, 9.999872, 9.999585 
1.8951054e+3, 2.44004e+2, -592239.2, -738538.2, -40005.953, -0.14552629, 0.18815315, -582014.06, -33234.684, 0.0, 10.000337, 9.998434 
1.895129e+3, 2.5400275e+2, -280319.4, -524964.25, -18642.678, -0.042376686, 0.1720145, -278906.94, 171884.14, 0.0, 10.001785, 9.998511 
1.8951516e+3, 2.64001e+2, -163377.75, -537120.9, -14734.78, -0.047627352, 0.20615911, -162797.73, 190010.83, 0.0000000071100716, 10.002422, 9.9974575 
1.8951726e+3, 2.7399886e+2, -88862.195, -423459.3, 23143.322, -0.23054358, 0.19431636, -87269.016, 167562.13, 0.0000064443307, 10.002188, 9.997652 
1.8951945e+3, 2.83997e+2, -22934.17, -400487.72, -58652.89, -0.26056668, 0.27546385, -14032.337, 142817.53, 0.0000894982, 10.002167, 9.997176 
1.8952179e+3, 2.9399464e+2, 157489.02, -250932.25, -63773.17, 0.0029708808, 0.25248387, 167215.28, 226087.5, 0.00040206578, 10.002689, 9.997269 
1.8952379e+3, 3.0399117e+2, 264513.88, -116417.734, 37981.06, -0.28069305, 0.1704449, 268263.9, 268263.9, 0.0010247865, 10.002822, 9.997819 
1.8952654e+3, 3.1398875e+2, 84619.73, -202053.44, 7150.4746, -0.008005432, 0.05899232, 84797.97, 84797.97, 0.001871537, 10.001615, 9.997761 
1.9048367e+3, 1.2398014e+2, -2097974.0, -2027504.5, 299241.3, -0.0036012132, 0.4874036, -1761430.8, -36408.215, 0.1713416, 9.997819, 9.998872 
1.9048569e+3, 1.339798e+2, -1573272.3, -1268112.9, -49850.1, -0.072057486, 0.058382545, -1260175.9, 366845.06, 0.11689223, 9.99876, 10.003256 
1.9048788e+3, 1.4398511e+2, -1640523.4, -1580001.8, -38813.09, -0.11062026, 0.43100995, -1561047.0, -32082.115, 0.06499328, 9.999121, 9.99998 
1.9049037e+3, 1.5398225e+2, -1462952.1, -1410715.4, -50439.33, 0.073625185, 0.08598559, -1380033.3, 50958.28, 0.026617203, 9.999549, 10.000258 
1.9049264e+3, 1.6398156e+2, -1418854.5, -1437139.8, 12315.161, 0.056779973, 0.044334814, -1412659.3, -79660.28, 0.0066676727, 9.999586, 9.999388 
1.9049484e+3, 1.7398283e+2, -1276321.4, -1288093.8, 47866.25, -0.13724194, 0.18090868, -1233980.8, 1009.05365, 0.0006122247, 9.9998045, 9.999605 
1.9049709e+3, 1.8398337e+2, -1154326.8, -1110587.1, 18698.166, -0.1882037, 0.25314498, -1103683.5, 33301.906, 0.0000017786746, 9.999664, 10.000236 
1.904994e+3, 1.9398315e+2, -1069829.8, -987671.75, -30761.87, -0.09721794, 0.1522922, -977430.44, 61553.88, 0.0, 9.999456, 10.000497 
1.905017e+3, 2.0398335e+2, -1026513.3, -1040442.5, -10308.365, -0.02393981, 0.18279362, -1021037.3, -80056.16, 0.0, 9.999591, 9.999404 
1.9050401e+3, 2.1398398e+2, -781513.94, -858960.75, -18855.543, 0.009263309, 0.26188353, -777167.25, 65809.38, 0.0, 10.000571, 9.999491 
1.9050623e+3, 2.2398356e+2, -635796.56, -791318.44, -27930.152, -0.009004404, 0.2987625, -630932.7, 114048.37, 0.0, 10.001078, 9.999064 
1.9050834e+3, 2.3398162e+2, -546626.9, -678160.6, -41396.75, -0.13249214, 0.14830627, -534682.94, 112314.74, 0.0, 10.000953, 9.999214 
1.905106e+3, 2.4398015e+2, -496295.78, -696224.94, 20674.785, -0.13579963, 0.12446765, -494180.2, 54830.98, 0.0, 10.00104, 9.99837 
1.9051312e+3, 2.5397897e+2, -295718.97, -530167.4, -1233.6527, 0.023912491, 0.11993271, -295712.47, 155310.66, 0.0, 10.001689, 9.998508 
1.9051544e+3, 2.6397762e+2, -211705.13, -508579.56, -16896.414, 0.029227152, 0.17251927, -210746.58, 142289.86, 0.000000016068412, 10.001835, 9.997948 
1.9051743e+3, 2.739764e+2, -176633.25, -418141.1, -21901.453, -0.23372743, 0.19783893, -174663.16, 80385.875, 0.000006020835, 10.001309, 9.998141 
1.9051962e+3, 2.8397462e+2, -137701.9, -467906.6, -8181.064, -0.24859156, 0.26406997, -137499.34, 19567.75, 0.00007835106, 10.001409, 9.997089 
1.9052215e+3, 2.9397154e+2, 143935.83, -267589.78, -21993.102, 0.12124056, 0.18990184, 145107.86, 204206.56, 0.00035541714, 10.00264, 9.997173 
1.9052416e+3, 3.039694e+2, 327306.6, -22612.666, 87506.98, -0.1707925, 0.21933909, 347969.94, 347969.94, 0.0009238466, 10.002991, 9.998385 
1.9052681e+3, 3.1396645e+2, 139749.64, -177342.89, -12410.549, 0.10154316, 0.005461384, 140234.63, 140234.63, 0.0017193838, 10.001913, 9.99783 
1.9148338e+3, 1.2395325e+2, -2014145.4, -1853086.8, 150497.23, -0.1651615, 0.11390993, -1762928.1, -37650.566, 0.18042894, 9.997833, 10.000049 
1.9148552e+3, 1.3395388e+2, -1616826.6, -1364219.4, -17569.02, -0.14525205, -0.20259744, -1363003.4, 264268.6, 0.12358676, 9.998786, 10.002508 
1.9148795e+3, 1.4396165e+2, -1651033.3, -1650505.4, -47236.184, -0.01808105, 0.517836, -1603532.4, -74335.33, 0.069141634, 9.999326, 9.999401 
1.914902e+3, 1.5396018e+2, -1439522.6, -1368789.5, -27162.383, -0.06729874, 0.29349622, -1359562.5, 71652.086, 0.028615344, 9.999575, 10.000538 
1.9149253e+3, 1.6396065e+2, -1325449.8, -1270855.4, -389.9127, -0.0803813, 0.2970306, -1270852.6, 62358.367, 0.0073205116, 9.999699, 10.000476 
1.914949e+3, 1.739615e+2, -1201011.4, -1126547.8, 65004.367, -0.08164522, 0.27716884, -1088867.8, 146332.44, 0.00070924795, 9.9997835, 10.000721 
1.9149716e+3, 1.8396142e+2, -1195127.4, -1206105.1, -8588.364, -0.10591174, 0.26079232, -1190423.8, -53225.152, 0.0000023137907, 9.999701, 9.999568 
1.9149932e+3, 1.9396082e+2, -1141113.1, -1111153.8, -27825.639, -0.12552314, 0.20027153, -1094531.9, -55329.242, 0.0, 9.999349, 9.999703 
1.9150162e+3, 2.0396009e+2, -1047243.3, -1049762.5, 6580.6167, -0.11690575, 0.18128347, -1041802.8, -100594.984, 0.0, 9.999436, 9.999416 
1.9150405e+3, 2.1395901e+2, -802956.0, -854535.44, 29580.813, -0.039325953, 0.07518144, -789501.2, 53715.414, 0.0, 10.000353, 9.999624 
1.9150636e+3, 2.2395827e+2, -679750.8, -809305.7, -41334.137, -0.030022679, 0.06984319, -667686.7, 77535.86, 0.0, 10.000759, 9.999099 
1.9150849e+3, 2.3395805e+2, -586764.44, -693543.1, -31310.14, -0.10418481, 0.0902776, -578260.75, 68962.98, 0.0, 10.000674, 9.99924 
1.9151074e+3, 2.4395716e+2, -559372.1, -754917.8, 26701.709, -0.13369286, 0.14002925, -555791.56, -6558.7964, 0.0, 10.000724, 9.998123 
1.9151321e+3, 2.5395527e+2, -352798.78, -583364.44, 40458.133, -0.07923572, 0.08774512, -345905.53, 105347.93, 0.0, 10.00141, 9.998276 
1.9151552e+3, 2.6395392e+2, -227662.3, -466940.63, -51758.664, -0.09865526, 0.1278286, -216946.22, 136321.03, 0.000000038925435, 10.001505, 9.998399 
1.9151758e+3, 2.739532e+2, -182822.81, -363117.78, -25641.236, -0.22732373, 0.15233587, -179247.08, 76025.125, 0.0000054500297, 10.001026, 9.998652 
1.9151984e+3, 2.839515e+2, -170206.33, -461292.47, 10235.344, -0.2044339, 0.18855797, -169846.88, -12557.502, 0.00006657065, 10.001089, 9.997291 
1.915224e+3, 2.9394838e+2, 91747.805, -273938.88, 50117.703, 0.06649159, 0.092036635, 98492.09, 157816.05, 0.0003045757, 10.002211, 9.997336 
1.9152445e+3, 3.039485e+2, 291591.5, 11191.575, 28929.336, -0.22000617, 0.3146545, 294545.06, 294545.06, 0.0008128925, 10.002528, 9.998829 
1.9152689e+3, 3.1394738e+2, 83212.71, -84490.195, 49309.39, -0.062345117, 0.21365057, 96636.55, 96636.55, 0.0015555616, 10.001081, 9.99883 
1.9248338e+3, 1.23933e+2, -2082264.8, -1840232.5, 146192.33, 0.10827152, 0.28800663, -1771467.0, -45994.332, 0.18987963, 9.997149, 10.000483 
1.9248559e+3, 1.3393125e+2, -1591971.5, -1474446.4, 25059.898, 0.008589527, -0.17391653, -1469325.9, 158167.42, 0.13060497, 9.999547, 10.001303 
1.9248794e+3, 1.4393725e+2, -1622116.4, -1635478.6, 12343.173, 0.043696404, 0.44473213, -1614762.1, -85324.7, 0.07352615, 9.999541, 9.999383 
1.9249009e+3, 1.5393707e+2, -1520669.3, -1363684.9, 5503.8433, -0.10118214, 0.3127023, -1363492.3, 67949.79, 0.030745408, 9.998844, 10.000912 
1.924924e+3, 1.6393791e+2, -1476176.0, -1320308.6, 54692.676, -0.11229579, 0.32437986, -1303032.4, 30401.875, 0.008026891, 9.998576, 10.000668 
1.924949e+3, 1.7393881e+2, -1256276.3, -1135978.9, 19672.053, -0.034708273, 0.29062566, -1132843.6, 102578.72, 0.0008187495, 9.999329, 10.000877 
1.9249724e+3, 1.8393868e+2, -1201400.6, -1249941.3, -56428.137, 0.0052186847, 0.27394342, -1164244.8, -26823.432, 0.0000031359323, 9.999798, 9.999229 
1.9249938e+3, 1.9393747e+2, -1014094.4, -1089720.3, -70584.03, -0.042744733, 0.18598889, -971832.8, 67598.6, 0.0, 10.000354, 9.999367 
1.9250165e+3, 2.0393634e+2, -906745.3, -988581.0, 13065.645, -0.05079975, 0.14301912, -904709.94, 36730.44, 0.0, 10.000424, 9.999366 
1.925041e+3, 2.1393515e+2, -836637.5, -875915.8, -1521.5648, -0.016632183, 0.031572532, -836578.6, 6870.8296, 0.0, 10.000137, 9.99959 
1.9250642e+3, 2.2393447e+2, -778342.1, -864988.75, -55345.156, 0.003608331, 0.04296431, -751380.3, -5925.669, 0.0, 10.000152, 9.998996 
1.9250862e+3, 2.339345e+2, -576967.2, -699670.44, -91473.17, -0.02979119, 0.100184515, -528176.4, 119278.766, 0.0, 10.000805, 9.99913 
1.9251089e+3, 2.4393378e+2, -502663.03, -723343.4, -2388.7815, -0.053047158, 0.16767286, -502637.2, 46826.1, 0.0, 10.001066, 9.998183 
1.9251329e+3, 2.5393212e+2, -427109.0, -620580.7, 4133.13, -0.091232434, 0.13435145, -427020.75, 24460.502, 0.0, 10.000869, 9.9983015 
1.9251561e+3, 2.6393068e+2, -306185.66, -490504.6, -58075.71, -0.11367268, 0.15962675, -289413.22, 64082.086, 0.000000047147957, 10.000925, 9.9985075 
1.9251776e+3, 2.7392924e+2, -110127.53, -313820.03, -103496.125, -0.1566214, 0.105612576, -66770.11, 188736.58, 0.0000044268, 10.001477, 9.99877 
1.9252005e+3, 2.8392747e+2, -38382.266, -323767.28, -19598.791, -0.11801319, 0.09950229, -37042.61, 120481.22, 0.000054025306, 10.0017, 9.997923 
1.9252254e+3, 2.9392543e+2, 66841.72, -219316.78, 10099.47, 0.03248412, 0.04973025, 67197.72, 126744.49, 0.0002523606, 10.001737, 9.997939 
1.9252469e+3, 3.0392525e+2, 232912.69, -30230.533, 25384.797, -0.20636076, 0.21464221, 235339.13, 235339.13, 0.0006949562, 10.002164, 9.998729 
1.9252715e+3, 3.1392652e+2, 402383.03, 110891.8, -72483.95, 0.011660602, 0.37783304, 419412.44, 419412.44, 0.0013694272, 10.003, 9.999295 
1.9348317e+3, 1.2391335e+2, -2088420.3, -1882800.8, -128530.09, 0.11798087, 0.40401554, -1821020.6, -95353.32, 0.1997211, 9.997271, 10.000135 
1.9348569e+3, 1.3391195e+2, -1703025.9, -1685512.8, 81613.734, 0.1326356, 0.15175828, -1612187.1, 15497.129, 0.13795441, 9.999523, 9.999717 
1.9348781e+3, 1.4391217e+2, -1557434.4, -1542697.8, -32487.72, -0.111310214, 0.23533253, -1516753.3, 12929.727, 0.07814733, 9.999706, 9.999951 
1.9348997e+3, 1.539129e+2, -1482808.0, -1304449.4, -9649.903, -0.14967184, 0.14754431, -1303928.8, 127744.74, 0.033007, 9.998901, 10.001316 
1.934922e+3, 1.6391315e+2, -1507972.9, -1410989.8, 60280.184, -0.22485153, 0.11172054, -1382117.8, -48447.35, 0.008786739, 9.998674, 10.000003 
1.9349477e+3, 1.7391461e+2, -1307373.0, -1247344.1, 57891.867, -0.12802738, 0.2122697, -1212148.6, 23509.3, 0.00094156526, 9.999343, 10.000113 
1.9349723e+3, 1.8391502e+2, -1188068.1, -1229972.1, -52617.58, -0.03359543, 0.28581023, -1152384.5, -14730.487, 0.0000044945964, 9.999832, 9.999349 
1.934995e+3, 1.9391328e+2, -1020604.2, -1079905.3, -37732.17, 0.017841011, 0.12805708, -1002266.5, 37402.34, 0.0, 10.000249, 9.999489 
1.935018e+3, 2.0391221e+2, -939553.7, -1019572.0, -12841.505, 0.0055358913, 0.09097355, -937543.4, 4134.241, 0.0, 10.000261, 9.999233 
1.9350408e+3, 2.1391238e+2, -886085.7, -920944.9, 65.80496, -0.054573204, 0.1356518, -886085.56, -42410.664, 0.0, 9.999894, 9.999397 
1.9350639e+3, 2.2391205e+2, -851939.8, -936095.44, -49102.523, -0.08274096, 0.20468625, -829352.3, -83673.58, 0.0, 9.999804, 9.998673 
1.9350868e+3, 2.3391087e+2, -636212.94, -763778.4, -50686.426, -0.054141916, 0.1740578, -618525.7, 29167.064, 0.0, 10.000553, 9.998809 
1.9351101e+3, 2.4390994e+2, -525259.6, -700335.4, -24162.06, -0.07482511, 0.22440647, -521986.25, 27716.686, 0.0, 10.000761, 9.998494 
1.9351335e+3, 2.5390935e+2, -436718.4, -581545.4, 11309.981, -0.14591916, 0.2599846, -435840.5, 15866.874, 0.0, 10.00062, 9.99869 
1.9351567e+3, 2.6390767e+2, -381237.1, -561589.6, -58373.805, -0.17843844, 0.2585518, -363992.4, -10270.091, 0.00000001782158, 10.000572, 9.998186 
1.9351792e+3, 2.7390444e+2, -188439.19, -388773.8, -65208.91, -0.16721493, 0.06055334, -169083.73, 86669.23, 0.0000033385966, 10.001128, 9.99841 
1.935202e+3, 2.839027e+2, -27542.086, -225216.38, -43942.363, -0.17652221, 0.038602635, -18214.021, 139554.83, 0.00004416703, 10.00136, 9.998773 
1.9352254e+3, 2.939027e+2, 91472.55, -81310.16, 30491.46, -0.17453413, 0.08224782, 96695.58, 156463.08, 0.00021030588, 10.001375, 9.999057 
1.935248e+3, 3.039001e+2, 107598.336, -184027.88, 28505.916, -0.3468482, -0.01869403, 110358.61, 110358.61, 0.0005915191, 10.001711, 9.997889 
1.9352733e+3, 3.1390208e+2, 261838.7, 39476.316, 34685.227, -0.15569098, 0.31147894, 267123.47, 267123.47, 0.0011872258, 10.00213, 9.999187 
1.9448283e+3, 1.238881e+2, -1983521.1, -1788331.3, -231312.9, 0.03508764, 0.20767492, -1634867.5, 91051.54, 0.20999403, 9.997787, 10.000653 
1.9448557e+3, 1.3389038e+2, -2043010.3, -1871858.3, 3559.73, 0.1861014, 0.36638504, -1871784.3, -243886.55, 0.14565058, 9.997254, 9.999542 
1.9448772e+3, 1.4388731e+2, -1800334.9, -1640064.0, -53518.605, -0.062415447, 0.105273396, -1623835.9, -93908.99, 0.083007626, 9.997928, 10.000157 
1.9448991e+3, 1.5388913e+2, -1579172.8, -1372664.8, -124924.89, -0.045569796, 0.14250538, -1313845.9, 118060.4, 0.03539992, 9.998334, 10.001123 
1.9449212e+3, 1.6388948e+2, -1581689.4, -1455561.0, -5587.581, -0.13091658, 0.13015111, -1455314.0, -121411.97, 0.009600047, 9.998204, 9.999929 
1.9449468e+3, 1.7389046e+2, -1441547.4, -1317797.9, 21474.027, -0.092593096, 0.18857619, -1314177.5, -78282.914, 0.0010784023, 9.9984455, 10.000063 
1.944972e+3, 1.8389094e+2, -1334437.3, -1289457.1, -31157.123, 0.010457783, 0.26583537, -1273521.0, -135630.4, 0.0000066792873, 9.998805, 9.999429 
1.9449957e+3, 1.9388968e+2, -1099667.4, -1105774.5, -51475.863, 0.079416014, 0.15058492, -1051154.6, -11252.998, 0.0, 9.999693, 9.999567 
1.9450186e+3, 2.0388897e+2, -959870.25, -1036035.3, -23756.104, 0.07272938, 0.14908691, -953068.1, -11160.556, 0.0, 10.000162, 9.9991665 
1.945041e+3, 2.1388923e+2, -831040.1, -900785.25, -36317.273, -0.034418, 0.21172146, -815563.5, 28340.963, 0.0, 10.000308, 9.999333 
1.945064e+3, 2.2388874e+2, -754579.1, -920191.0, -23345.914, -0.062130727, 0.28151363, -751351.0, -5441.032, 0.0, 10.000586, 9.998408 
1.9450882e+3, 2.3388705e+2, -564205.75, -765708.56, -45649.082, 0.00084605505, 0.2296298, -554346.6, 93582.88, 0.0, 10.001184, 9.998503 
1.9451119e+3, 2.4388583e+2, -422892.3, -620162.75, -17352.877, 0.008646108, 0.25856632, -421377.5, 128564.32, 0.0, 10.001365, 9.998746 
1.9451347e+3, 2.5388518e+2, -344163.75, -507196.75, -28998.156, -0.093358114, 0.2634167, -339159.53, 112785.2, 0.0, 10.001136, 9.998948 
1.9451578e+3, 2.6388353e+2, -330928.47, -536992.8, -50277.96, -0.12890302, 0.24901329, -319315.53, 34643.844, 0.000000002142629, 10.000891, 9.998207 
1.9451806e+3, 2.7388078e+2, -253560.25, -432077.3, -63000.25, -0.10763904, 0.10001328, -233566.25, 22421.895, 0.0000030022966, 10.000685, 9.99835 
1.9452035e+3, 2.8387958e+2, -123141.805, -259205.78, -11683.483, -0.099642456, 0.13551687, -122145.87, 35853.645, 0.00003904193, 10.000642, 9.998893 
1.9452271e+3, 2.9388037e+2, 51129.613, -80142.5, -47505.707, -0.12150377, 0.2479921, 66517.53, 126506.68, 0.00018459432, 10.000982, 9.999269 
1.9452503e+3, 3.0387616e+2, 52752.04, -259951.33, -8325.184, -0.24859017, -0.0066130725, 52973.527, 52973.527, 0.00051477127, 10.001573, 9.997416 
1.9452752e+3, 3.1387687e+2, 321946.88, 24827.098, -64547.79, -0.18124624, 0.27317294, 335363.7, 335363.7, 0.0010271312, 10.002675, 9.998843 
1.9548275e+3, 1.2386178e+2, -1812215.8, -1571581.4, 47442.258, 0.060453277, 0.14339265, -1562565.6, 163617.97, 0.22070916, 9.998131, 10.002205 
1.954852e+3, 1.3386656e+2, -1932112.9, -1671715.0, 31344.584, 0.059829175, 0.46493626, -1667995.1, -39862.363, 0.15369554, 9.997361, 10.0008745 
1.9548763e+3, 1.4386271e+2, -1790263.0, -1655236.1, -37632.63, -0.0033739547, 0.04363583, -1645456.1, -115287.266, 0.08810495, 9.998087, 9.999973 
1.954899e+3, 1.5386578e+2, -1635307.0, -1497379.0, -103352.32, 0.063856214, 0.28908625, -1442094.4, -9953.948, 0.037922986, 9.998372, 10.000228 
1.9549212e+3, 1.6386694e+2, -1525932.9, -1372598.1, -22613.42, -0.013647212, 0.38358134, -1369332.8, -35203.656, 0.010466628, 9.998341, 10.000436 
1.9549459e+3, 1.738664e+2, -1392742.5, -1227698.9, 41492.395, -0.051148396, 0.2281384, -1217854.8, 18277.135, 0.0012294218, 9.998483, 10.000668 
1.9549708e+3, 1.8386632e+2, -1323730.0, -1279398.6, -13606.7705, -0.032178316, 0.21446535, -1275555.4, -137423.6, 0.000009908067, 9.998861, 9.999468 
1.954995e+3, 1.938666e+2, -1117292.0, -1119468.4, -7400.0083, 0.0074741975, 0.25694522, -1110900.6, -70770.164, 0.0, 9.999598, 9.999517 
1.9550182e+3, 2.0386636e+2, -988647.25, -1053906.1, -32390.096, -0.018290082, 0.30835104, -975300.6, -33167.89, 0.0, 9.999977, 9.999133 
1.9550408e+3, 2.138655e+2, -863622.56, -915883.5, -17363.756, -0.0964889, 0.25926286, -858379.5, -14240.169, 0.0, 10.000086, 9.999332 
1.9550645e+3, 2.2386444e+2, -812622.06, -970870.1, -15775.013, -0.108545825, 0.27692816, -811064.9, -64915.445, 0.0, 10.0002775, 9.998212 
1.9550894e+3, 2.3386298e+2, -620013.1, -816418.2, -8279.787, -0.0031809693, 0.26964572, -619664.7, 28501.008, 0.0, 10.0009165, 9.998278 
1.9551136e+3, 2.4386144e+2, -475068.7, -643279.9, -35608.01, 0.01042382, 0.27774224, -467841.47, 82338.766, 0.0, 10.0009985, 9.998761 
1.9551364e+3, 2.538596e+2, -377895.6, -511639.3, -19719.111, -0.082121626, 0.15467823, -375048.8, 77144.914, 0.0, 10.000865, 9.999039 
1.955159e+3, 2.6385844e+2, -356505.38, -518716.1, -75892.03, -0.1408433, 0.16456552, -326535.63, 27669.066, 0.00000003752054, 10.000576, 9.998489 
1.9551812e+3, 2.7385816e+2, -268556.88, -403767.1, -53483.93, -0.12764809, 0.23453039, -249958.84, 6253.3096, 0.0000033251551, 10.000437, 9.99866 
1.9552048e+3, 2.8385818e+2, -229751.19, -391477.97, -21547.764, -0.08927962, 0.4051757, -226929.5, -68714.7, 0.000036409245, 10.000264, 9.998164 
1.9552296e+3, 2.9385868e+2, -51354.773, -201714.77, -7420.865, 0.0034713133, 0.5645791, -50989.414, 9219.924, 0.00016708692, 10.00061, 9.998603 
1.9552533e+3, 3.038536e+2, -35385.945, -347759.2, 1848.3834, -0.15655977, 0.2720962, -35375.008, -35375.008, 0.00045041088, 10.001141, 9.997035 
1.9552778e+3, 3.1385064e+2, 197682.72, -66769.234, 8679.221, -0.26000062, 0.21617809, 197967.27, 197967.27, 0.0008724613, 10.002009, 9.99851 
1.9648261e+3, 1.238371e+2, -1880963.8, -1598325.5, 198146.5, 0.16158672, 0.1986965, -1496266.0, 230160.45, 0.23177752, 9.997794, 10.002196 
1.9648497e+3, 1.338416e+2, -1796683.6, -1568932.0, 15160.482, 0.050923582, 0.47620177, -1567927.3, 60451.73, 0.1620495, 9.998177, 10.001214 
1.9648753e+3, 1.438387e+2, -1801743.0, -1655442.0, -68260.914, 0.111398496, 0.124083616, -1628539.8, -98133.73, 0.093428105, 9.998011, 9.999984 
1.9648975e+3, 1.5384114e+2, -1636598.4, -1505853.4, -118294.45, 0.09933754, 0.31451166, -1436069.9, -3686.6157, 0.04057487, 9.998414, 10.000124 
1.96492e+3, 1.6384195e+2, -1473756.4, -1345923.9, 9636.909, 0.04728004, 0.3736916, -1345201.5, -10826.761, 0.011385711, 9.9987, 10.0004425 
1.9649452e+3, 1.7384157e+2, -1305882.6, -1182078.1, 124.91652, 0.0057755667, 0.23322643, -1182078.0, 54297.055, 0.0013940044, 9.999077, 10.000689 
1.96497e+3, 1.8384168e+2, -1268621.5, -1237784.1, -44667.84, -0.004322617, 0.23064467, -1205948.8, -67576.016, 0.000014255441, 9.999174, 9.999604 
1.9649939e+3, 1.9384204e+2, -1153584.0, -1122311.4, -53327.188, -0.028923031, 0.26800478, -1082375.4, -42004.332, 0.0, 9.999282, 9.999652 
1.9650178e+3, 2.0384173e+2, -1011775.0, -1063191.4, -33039.027, -0.039175693, 0.30423838, -995620.44, -53246.27, 0.0, 9.999797, 9.999157 
1.965042e+3, 2.1384057e+2, -726261.3, -852779.7, -43441.418, -0.034651075, 0.2237357, -712781.44, 131601.8, 0.0, 10.001015, 9.999325 
1.9650663e+3, 2.2383945e+2, -638401.56, -869260.7, -26840.273, -0.0072136363, 0.22934939, -635322.1, 111071.05, 0.0, 10.001402, 9.998372 
1.9650903e+3, 2.3383823e+2, -631782.6, -807019.94, -31098.8, 0.001437382, 0.2331424, -626427.25, 21978.62, 0.0, 10.000753, 9.998429 
1.9651142e+3, 2.4383654e+2, -565474.94, -700332.06, -17865.707, 0.012108903, 0.22308241, -563148.25, -12726.738, 0.0, 10.000387, 9.998691 
1.9651376e+3, 2.5383434e+2, -456295.75, -566578.44, -47394.15, 0.0034014632, 0.07763919, -438726.88, 13712.788, 0.0, 10.000372, 9.998924 
1.9651607e+3, 2.6383337e+2, -335526.22, -483015.53, -67354.63, -0.020665396, 0.10743212, -309396.34, 45052.965, 0.00000006167767, 10.000632, 9.998704 
1.9651824e+3, 2.7383393e+2, -115178.484, -305801.97, -96012.234, -0.095765404, 0.24198547, -75202.836, 181245.88, 0.000003603985, 10.001405, 9.99886 
1.9652057e+3, 2.8383377e+2, -10658.927, -303605.44, -16046.819, -0.08682597, 0.391613, -9782.548, 148670.83, 0.00003430298, 10.001849, 9.998005 
1.965231e+3, 2.9383305e+2, 118951.02, -156423.86, -9747.74, 0.026346607, 0.46391273, 119295.65, 179756.1, 0.00015136057, 10.001931, 9.998293 
1.9652554e+3, 3.038292e+2, 119428.414, -252920.6, 78024.36, -0.092919804, 0.30504066, 135117.1, 135117.1, 0.00039140965, 10.002096, 9.997241 
1.9652803e+3, 3.1382573e+2, 221476.36, -16251.981, -23305.137, -0.17389454, 0.18353096, 223739.48, 223739.48, 0.0007269925, 10.001946, 9.998923 
1.974823e+3, 1.2381353e+2, -1945880.5, -1792417.6, 38134.496, -0.0396634, 0.28825116, -1783463.9, -56811.855, 0.24301729, 9.998147, 10.0003195 
1.974848e+3, 1.3381548e+2, -1827912.9, -1666688.6, 26606.342, 0.035407584, 0.39511374, -1662411.3, -33775.043, 0.17062773, 9.99834, 10.000396 
1.9748735e+3, 1.438151e+2, -1759006.1, -1597556.9, -85302.984, 0.06443588, 0.32910588, -1560837.6, -30197.531, 0.09895461, 9.998133, 10.000328 
1.9748946e+3, 1.5381518e+2, -1581924.8, -1402897.8, -90850.89, -0.08197072, 0.2190836, -1364870.9, 67764.23, 0.04335473, 9.998452, 10.0008335 
1.9749177e+3, 1.6381441e+2, -1479409.9, -1390291.0, 7144.019, -0.114789516, 0.09842913, -1389722.0, -55082.125, 0.012356995, 9.998847, 10.000067 
1.974944e+3, 1.738159e+2, -1342904.6, -1261533.8, 23686.96, -0.053521905, 0.2038153, -1255140.8, -18516.262, 0.0015709848, 9.999095, 10.000134 
1.9749689e+3, 1.8381687e+2, -1248017.9, -1208427.4, -58840.402, -0.07211493, 0.31205472, -1166141.6, -27526.793, 0.000019593592, 9.999221, 9.999791 
1.974992e+3, 1.9381586e+2, -1141573.6, -1078277.9, -37548.13, -0.1743091, 0.18281789, -1060819.1, -20194.033, 0.0, 9.9992, 9.999995 
1.9750166e+3, 2.0381494e+2, -1035990.94, -1068318.8, -3777.1602, -0.16687699, 0.13493715, -1035555.5, -92922.05, 0.0, 9.999603, 9.999213 
1.9750437e+3, 2.1381453e+2, -759548.7, -866220.4, 14801.885, 0.020837847, 0.12435017, -757532.9, 87102.36, 0.0, 10.000773, 9.999349 
1.9750686e+3, 2.2381394e+2, -664752.25, -844586.6, -59432.56, 0.061173055, 0.16610767, -646885.75, 99753.67, 0.0, 10.001052, 9.9987135 
1.9750902e+3, 2.3381275e+2, -633948.56, -763213.6, -37007.375, -0.10631951, 0.13056187, -624103.56, 24547.027, 0.0, 10.000537, 9.9988365 
1.9751132e+3, 2.4381122e+2, -626739.44, -758924.06, -38008.668, -0.14869015, 0.12209842, -616589.7, -65924.61, 0.0, 10.000085, 9.998437 
1.9751385e+3, 2.5380942e+2, -506288.34, -624421.0, -33254.203, 0.024222372, 0.0443354, -497570.66, -44888.195, 0.0, 10.00017, 9.998624 
1.9751622e+3, 2.6380828e+2, -391806.47, -521864.63, -58813.87, 0.041489925, 0.081635974, -369155.16, -14461.161, 0.000000055759365, 10.000297, 9.998595 
1.9751835e+3, 2.7380812e+2, -158896.95, -322731.84, -46688.188, -0.15879415, 0.1387006, -146526.25, 110170.99, 0.0000036492006, 10.001095, 9.998882 
1.975206e+3, 2.838067e+2, -53227.3, -315505.28, -31713.66, -0.2702195, 0.15199485, -49447.09, 109264.97, 0.00003270768, 10.001506, 9.998096 
1.9752307e+3, 2.938037e+2, 87557.305, -162138.73, 22869.533, -0.21682334, -0.024026366, 89634.63, 150375.9, 0.00013942833, 10.001669, 9.998381 
1.9752558e+3, 3.0380306e+2, 47185.793, -267444.6, 53093.227, -0.2968252, 0.13353577, 55903.613, 55903.613, 0.00034788318, 10.00155, 9.997388 
1.9752847e+3, 3.1380212e+2, 192976.75, 128471.74, 7031.6934, 0.008775567, 0.21613713, 193734.38, 193734.38, 0.0006200003, 10.001136, 10.000275 
1.9848222e+3, 1.23786084e+2, -2028685.1, -1952124.1, -17235.965, 0.07685408, 0.14662921, -1948422.9, -221503.38, 0.25424254, 9.998074, 9.99929 
1.984846e+3, 1.3378876e+2, -1773682.8, -1601115.5, -35528.703, 0.006576913, 0.29470098, -1594087.0, 34811.867, 0.17932345, 9.998484, 10.000853 
1.984872e+3, 1.4379054e+2, -1835315.6, -1626576.5, -45624.734, 0.14981085, 0.41930404, -1617039.8, -86157.96, 0.104643695, 9.997584, 10.000401 
1.9848935e+3, 1.5378988e+2, -1498656.3, -1345956.0, -94931.92, -0.043189615, 0.21819408, -1300480.9, 132401.66, 0.046255346, 9.998947, 10.001016 
1.9849169e+3, 1.637886e+2, -1413258.6, -1375821.1, -22305.885, -0.08806355, 0.04465459, -1365420.4, -30529.342, 0.013380272, 9.999387, 9.999896 
1.984943e+3, 1.7379002e+2, -1440634.8, -1332557.4, -14259.515, -0.027888179, 0.16164762, -1330707.8, -93831.125, 0.0017591557, 9.998533, 9.999913 
1.984968e+3, 1.83791e+2, -1404391.8, -1288645.3, -33720.465, -0.019782133, 0.2846864, -1279538.0, -140670.97, 0.0000256483, 9.998155, 9.999753 
1.9849917e+3, 1.9379003e+2, -1173027.1, -1095490.4, -60447.336, -0.10151519, 0.15734047, -1062447.5, -21570.143, 0.0, 9.998959, 10.0 
1.9850169e+3, 2.0378926e+2, -1043571.8, -1041060.6, 5174.9033, -0.08520758, 0.10928153, -1036991.2, -94106.49, 0.0, 9.999422, 9.999493 
1.985044e+3, 2.1378921e+2, -893951.44, -897211.06, 12329.165, 0.044509634, 0.110916816, -883144.9, -38262.273, 0.0, 9.999716, 9.999646 
1.9850692e+3, 2.2378889e+2, -801179.9, -894992.4, -56899.566, 0.07862904, 0.15689397, -774344.94, -27460.635, 0.0, 10.000042, 9.998851 
1.9850911e+3, 2.337879e+2, -648701.5, -760383.56, -89664.78, -0.049507212, 0.13013004, -598911.1, 49983.2, 0.0, 10.000392, 9.99892 
1.9851142e+3, 2.4378671e+2, -571546.3, -719313.3, -63614.41, -0.06420785, 0.14870311, -547933.4, 2972.874, 0.0, 10.00046, 9.998499 
1.9851388e+3, 2.537852e+2, -484329.22, -609829.4, -68180.52, 0.051701248, 0.09739696, -454417.78, -1496.1534, 0.0, 10.000329, 9.998632 
1.9851626e+3, 2.6378396e+2, -366218.66, -498394.13, -23550.965, 0.061644547, 0.12300002, -362147.72, -7213.9873, 0.00000004684117, 10.000427, 9.998688 
1.9851848e+3, 2.737834e+2, -176273.05, -324461.22, -41517.574, -0.11021632, 0.13237289, -165433.97, 91505.74, 0.000003631824, 10.00095, 9.998935 
1.985208e+3, 2.8378183e+2, -62438.066, -305815.1, -5866.841, -0.20570579, 0.12843283, -62296.723, 96657.74, 0.000030883682, 10.001402, 9.9982 
1.9852322e+3, 2.9377872e+2, 84380.66, -159818.38, -13372.85, -0.21169424, -0.059719928, 85110.8, 146095.16, 0.00012822116, 10.001666, 9.99838 
1.9852573e+3, 3.03778e+2, 131812.55, -176948.27, 60670.086, -0.30551395, 0.065890156, 143306.1, 143306.1, 0.0003141248, 10.001872, 9.997866 
1.9852878e+3, 3.1377813e+2, 335916.16, 227167.19, -64100.89, 0.19238344, 0.2139487, 365598.25, 365598.25, 0.00054965925, 10.001914, 10.000601 
1.994821e+3, 1.2375977e+2, -2045712.5, -2054590.6, 87139.61, 0.050670248, 0.30642837, -1962899.0, -235718.67, 0.26535824, 9.998344, 9.998463 
1.9948424e+3, 1.3376126e+2, -1633266.8, -1376359.1, -61500.34, -0.22127612, 0.16327591, -1362395.8, 266773.1, 0.18805622, 9.998558, 10.002716 
1.9948708e+3, 1.4376487e+2, -1818519.5, -1634471.0, -43417.543, 0.20396097, 0.37412393, -1624742.9, -93609.89, 0.11045076, 9.997767, 10.00026 
1.9948941e+3, 1.537651e+2, -1516710.1, -1388281.5, -33179.438, 0.091409124, 0.301757, -1380216.1, 52910.766, 0.04926506, 9.998982, 10.000687 
1.9949174e+3, 1.637644e+2, -1390718.5, -1355262.8, -59133.18, -0.03445979, 0.20300932, -1311257.3, 23872.688, 0.014456319, 9.999496, 9.999986 
1.9949417e+3, 1.7376386e+2, -1427020.8, -1304096.9, -40473.234, -0.04042897, 0.10655636, -1291967.6, -54835.44, 0.0019582892, 9.998537, 10.000102 
1.9949667e+3, 1.8376394e+2, -1416223.5, -1320802.0, -26850.389, -0.005828303, 0.14074709, -1313765.5, -174634.77, 0.000032105352, 9.99819, 9.999516 
1.9949925e+3, 1.9376455e+2, -1208251.4, -1141547.1, -20144.813, 0.06613017, 0.19846871, -1135935.5, -94807.44, 0.0, 9.998854, 9.999728 
1.995018e+3, 2.0376481e+2, -1039894.7, -997107.5, -1531.9049, 0.04520886, 0.2524859, -997052.75, -53926.23, 0.0, 9.999256, 9.999876 
1.9950427e+3, 2.1376453e+2, -886381.0, -838942.56, 36469.688, -0.089993246, 0.1784793, -819157.3, 25969.352, 0.0, 9.999527, 10.000136 
1.9950674e+3, 2.2376418e+2, -853694.44, -932695.94, -55370.91, -0.1228506, 0.19734234, -825178.7, -78049.305, 0.0, 9.999733, 9.998742 
1.9950925e+3, 2.3376366e+2, -696350.3, -805177.7, -58353.938, 0.03273498, 0.23691323, -670976.6, -21839.777, 0.0, 10.000154, 9.998729 
1.9951163e+3, 2.4376285e+2, -611110.56, -718889.06, -81812.3, 0.077542126, 0.2914423, -567034.0, -15887.689, 0.0, 10.000102, 9.998676 
1.9951385e+3, 2.537615e+2, -499064.6, -586251.1, -55626.492, -0.029838009, 0.22982375, -471984.8, -18826.11, 0.0, 10.000094, 9.998907 
1.9951616e+3, 2.6376027e+2, -411753.88, -514722.47, -22438.414, -0.109286994, 0.23171842, -407076.66, -51906.277, 0.000000042002604, 10.000098, 9.998733 
1.9951862e+3, 2.7375942e+2, -216730.06, -338320.7, -4040.8066, -0.10204736, 0.21522525, -216595.92, 40582.223, 0.0000035134383, 10.000664, 9.99897 
1.9952105e+3, 2.837587e+2, -135234.72, -371329.28, -16126.483, -0.11721631, 0.3000467, -134138.3, 25046.748, 0.00002820436, 10.00103, 9.99793 
1.995235e+3, 2.9375735e+2, 14133.825, -224171.63, 17532.055, -0.16039269, 0.3066035, 15416.746, 76613.98, 0.00011358975, 10.001306, 9.998112 
1.995259e+3, 3.037536e+2, 82533.01, -127475.51, 39800.98, -0.35991752, 0.1121249, 89823.06, 89823.06, 0.0002776181, 10.00126, 9.998482 
1.9952881e+3, 3.1375387e+2, 151285.56, 24554.28, 41855.3, -0.034055077, 0.18895376, 163861.14, 163861.14, 0.00049017585, 10.001195, 9.999524 
2.0048195e+3, 1.23736374e+2, -2149197.3, -2063538.3, 247963.52, 0.12246498, 0.46758884, -1854732.5, -127322.92, 0.27641812, 9.997478, 9.998787 
2.0048407e+3, 1.3373478e+2, -1657763.0, -1412610.1, -3042.5327, -0.23769592, 0.012548564, -1412572.4, 216855.28, 0.1968332, 9.998497, 10.002437 
2.0048693e+3, 1.4373979e+2, -1710671.3, -1603786.8, -17034.914, 0.25729033, 0.38790897, -1601137.4, -69759.61, 0.11636926, 9.998603, 10.000061 
2.0048939e+3, 1.5374003e+2, -1527838.6, -1419093.4, -1996.0159, 0.17609493, 0.33304572, -1419056.8, 14316.111, 0.05238356, 9.998998, 10.000462 
2.0049173e+3, 1.6373946e+2, -1460145.1, -1406932.0, -39788.727, 0.041778795, 0.2649773, -1385673.6, -50297.93, 0.015589432, 9.999061, 9.999856 
2.0049408e+3, 1.737384e+2, -1355644.9, -1285227.5, -74481.49, 0.0056738076, 0.123579845, -1238052.0, -668.80475, 0.0021699998, 9.999045, 10.000008 
2.0049657e+3, 1.8373817e+2, -1311670.4, -1237203.0, 2131.0562, 0.060196485, 0.11873583, -1237142.1, -97757.81, 0.00003871999, 9.998794, 9.999785 
2.004992e+3, 1.9373924e+2, -1180955.8, -1098230.5, 24513.164, 0.13321309, 0.19461703, -1091512.3, -50136.984, 0.0, 9.998936, 9.999985 
2.0050177e+3, 2.037398e+2, -1077014.3, -1026984.0, 70544.37, 0.12044876, 0.2722577, -977150.9, -33780.348, 0.0, 9.999076, 9.999753 
2.0050427e+3, 2.1373953e+2, -906882.44, -870571.2, 31042.19, -0.02621635, 0.21909869, -852765.06, -7392.004, 0.0, 9.99949, 9.999941 
2.0050679e+3, 2.2373915e+2, -851123.1, -899613.06, -62560.754, -0.046071615, 0.23775105, -808273.6, -60896.31, 0.0, 9.99964, 9.999004 
2.005093e+3, 2.3373868e+2, -757452.5, -793508.5, -68851.72, 0.08917533, 0.2518765, -704307.7, -54923.855, 0.0, 9.9996, 9.999062 
2.005117e+3, 2.4373804e+2, -622839.75, -724675.4, -38994.63, 0.14451909, 0.30636472, -609623.3, -58232.285, 0.0, 9.999982, 9.99871 
2.0051396e+3, 2.5373703e+2, -377435.6, -528360.44, -61700.023, 0.04516177, 0.2821459, -355422.53, 97977.47, 0.0, 10.000919, 9.998907 
2.0051628e+3, 2.6373577e+2, -263431.1, -474440.4, -34917.37, -0.031262387, 0.29006356, -257803.16, 97608.99, 0.000000029896977, 10.0012245, 9.998475 
2.0051868e+3, 2.7373388e+2, -244638.89, -394203.4, -72414.44, -0.07479446, 0.19994259, -215323.9, 42106.95, 0.0000031274246, 10.000609, 9.998633 
2.0052119e+3, 2.8373316e+2, -170760.27, -337185.78, -17947.646, -0.05976395, 0.28422096, -168846.77, -9409.86, 0.000025154262, 10.000554, 9.998402 
2.0052373e+3, 2.9373348e+2, 62632.07, -143179.81, 15797.516, -0.028301876, 0.41366756, 63837.58, 125268.07, 0.00009776422, 10.001389, 9.99863 
2.005262e+3, 3.0372933e+2, 214317.4, -67884.26, 79835.35, -0.1915547, 0.14774147, 235337.3, 235337.3, 0.00024035014, 10.002153, 9.998485 
2.0052907e+3, 3.1372797e+2, 240297.2, -114230.01, -22692.238, 0.044996873, 0.09478176, 241743.77, 241743.77, 0.0004337669, 10.002537, 9.997966 
2.0148174e+3, 1.2371485e+2, -2009931.9, -1805631.3, -178681.95, 0.09471686, 0.44380862, -1701961.5, 25656.396, 0.28771394, 9.997616, 10.000537 
2.0148404e+3, 1.3370945e+2, -1841093.8, -1764951.0, 29922.736, -0.14311785, -0.16448094, -1754599.3, -124925.71, 0.20582092, 9.9985895, 9.99962 
2.0148672e+3, 1.4371511e+2, -1707779.4, -1638727.5, -32380.885, 0.11793023, 0.45061868, -1625918.9, -94300.35, 0.12247417, 9.998772, 9.9997425 
2.0148921e+3, 1.5371458e+2, -1522992.3, -1411343.9, 18360.793, 0.06651023, 0.3166419, -1408402.0, 25219.775, 0.055639356, 9.999008, 10.000512 
2.014916e+3, 1.637139e+2, -1460725.6, -1430941.4, -55124.063, -0.0353985, 0.24262089, -1388733.3, -53106.055, 0.016791714, 9.99916, 9.999648 
2.0149401e+3, 1.7371379e+2, -1377778.0, -1324678.8, -65156.613, -0.0027166961, 0.22817215, -1280870.3, -43241.684, 0.0023981123, 9.999026, 9.999745 
2.0149645e+3, 1.8371387e+2, -1253685.8, -1136865.9, -16900.307, 0.013304355, 0.23561084, -1134470.1, 5156.2207, 0.000045425786, 9.998864, 10.000448 
2.0149896e+3, 1.9371404e+2, -1138343.4, -992962.25, 37709.86, -0.036873832, 0.14943174, -983762.94, 57856.89, 0.0, 9.99886, 10.000745 
2.0150156e+3, 2.0371425e+2, -1146923.3, -1134653.0, 68971.26, -0.032845464, 0.17449157, -1071544.5, -127927.78, 0.0, 9.99891, 9.999096 
2.0150436e+3, 2.1371424e+2, -1005042.5, -1020123.1, 59935.758, 0.10511117, 0.23821582, -952174.6, -106552.88, 0.0, 9.999256, 9.999027 
2.0150696e+3, 2.2371376e+2, -866882.4, -861750.8, -75709.09, 0.13225922, 0.28023297, -788564.06, -40935.18, 0.0, 9.999323, 9.999422 
2.0150918e+3, 2.3371264e+2, -737044.6, -712297.3, -55438.277, 0.0025261221, 0.16527875, -667868.6, -18230.47, 0.0, 9.9994135, 9.999716 
2.0151155e+3, 2.4371192e+2, -683152.2, -770841.7, -19835.754, -0.028778799, 0.18054979, -678874.0, -127229.68, 0.0, 9.999654, 9.998547 
2.0151415e+3, 2.5371173e+2, -434581.75, -586325.3, -12947.106, 0.12983385, 0.26297772, -433485.0, 20161.764, 0.0, 10.000668, 9.99863 
2.0151658e+3, 2.6371023e+2, -351883.0, -579820.25, -67227.38, 0.10245389, 0.29221302, -333532.44, 22129.627, 0.0000000091701935, 10.000891, 9.997913 
2.0151868e+3, 2.737068e+2, -322983.47, -492948.47, -75158.04, -0.17043339, 0.10296127, -294516.63, -36819.75, 0.0000023642951, 10.000344, 9.99808 
2.0152108e+3, 2.837056e+2, -167551.94, -240115.19, -14645.162, -0.24048904, 0.12987918, -164707.64, -5000.7783, 0.000021595964, 10.000176, 9.999244 
2.0152394e+3, 2.9370713e+2, 94207.18, -17693.432, 67763.11, 0.004178003, 0.2696835, 126133.35, 187818.36, 0.000083873885, 10.001108, 9.999635 
2.0152657e+3, 3.0370468e+2, 68194.29, -236448.81, 70117.0, -0.069414064, 0.15808253, 83557.7, 83557.7, 0.00020823472, 10.001614, 9.997563 
2.0152926e+3, 3.1370258e+2, -23726.793, -418612.3, 101912.39, -0.06888623, 0.1344732, 1023.5575, 1023.5575, 0.0003833975, 10.001575, 9.996294 
2.0248158e+3, 1.2369198e+2, -2006307.3, -1640814.3, -262126.83, 0.20219164, 0.5171788, -1504019.3, 223821.98, 0.29983783, 9.996839, 10.002485 
2.0248398e+3, 1.336848e+2, -2041173.4, -1988015.3, 10910.437, -0.008983436, -0.19343235, -1985863.1, -355949.9, 0.21537028, 9.997794, 9.998453 
2.0248659e+3, 1.4369063e+2, -1579327.4, -1613527.5, 9388.884, 0.07787185, 0.5117268, -1576919.4, -45062.74, 0.12892798, 9.999803, 9.999421 
2.0248906e+3, 1.5368879e+2, -1559989.1, -1461595.8, -18736.305, 0.041595526, 0.2761759, -1458148.6, -24274.787, 0.05909158, 9.998912, 10.000199 
2.0249149e+3, 1.6368763e+2, -1606335.0, -1478301.1, -47636.48, 0.0012495393, 0.16922066, -1462522.1, -126637.25, 0.018083457, 9.998106, 9.999805 
2.0249397e+3, 1.7368884e+2, -1361742.5, -1289548.8, -42749.926, 0.06692368, 0.26292315, -1269694.4, -31819.889, 0.0026487417, 9.999068, 9.999941 
2.0249645e+3, 1.8368949e+2, -1142674.1, -1093028.5, 19061.406, 0.095067315, 0.3189506, -1086554.3, 53312.844, 0.000052423693, 9.999658, 10.000363 
2.024989e+3, 1.9368869e+2, -986376.2, -942795.94, -20952.469, -0.020682568, 0.14830983, -934356.7, 107513.1, 0.0, 9.999976, 10.000554 
2.0250149e+3, 2.0368841e+2, -989064.7, -1051688.6, 20524.174, -0.02614412, 0.13232517, -982937.6, -39066.555, 0.0, 9.999966, 9.999148 
2.0250432e+3, 2.1368882e+2, -928836.4, -978128.25, 50169.402, 0.11776269, 0.23030306, -897586.06, -51714.137, 0.0, 9.999746, 9.999074 
2.0250693e+3, 2.2368851e+2, -806328.7, -844467.44, -21277.105, 0.17055911, 0.28760502, -796826.1, -48948.746, 0.0, 9.99979, 9.99931 
2.0250921e+3, 2.3368719e+2, -596284.9, -659955.9, -82249.85, 0.047614694, 0.16754313, -539924.4, 109964.086, 0.0, 10.00045, 9.999567 
2.0251161e+3, 2.4368633e+2, -520032.88, -681337.06, -45390.207, 0.026646337, 0.17447986, -508137.5, 43758.07, 0.0, 10.000746, 9.998622 
2.0251422e+3, 2.53686e+2, -440516.5, -583970.25, -41207.734, 0.13167663, 0.2383001, -429522.03, 24376.994, 0.0, 10.000609, 9.99867 
2.0251666e+3, 2.636845e+2, -377159.94, -602086.44, -50283.195, 0.12405997, 0.26860964, -366430.72, -10516.49, 0.000000001074916, 10.000775, 9.99781 
2.0251885e+3, 2.736814e+2, -177607.78, -433321.88, -70256.13, -0.08612931, 0.13014208, -159576.69, 98369.26, 0.0000018159459, 10.001422, 9.997954 
2.0252125e+3, 2.8367987e+2, 29784.408, -195638.8, 5948.2695, -0.14873607, 0.15312758, 29941.258, 189900.89, 0.000018189116, 10.0017185, 9.998816 
2.0252402e+3, 2.9368025e+2, 93502.36, -54213.48, -56899.016, -0.018397814, 0.21937968, 112877.97, 174828.77, 0.000072171526, 10.001269, 9.999293 
2.0252684e+3, 3.03678e+2, 105683.61, -235172.1, -12182.737, 0.04436599, 0.15165676, 106118.484, 106118.484, 0.00017992329, 10.001864, 9.99749 
2.0252952e+3, 3.1367698e+2, 316834.47, -160586.23, -15931.343, -0.037708506, 0.25422662, 317365.5, 317365.5, 0.00033564074, 10.003427, 9.997207 
2.0348124e+3, 1.2366452e+2, -1848861.1, -1456246.9, 99327.445, 0.07592671, 0.35607743, -1432548.4, 295563.66, 0.3135409, 9.997044, 10.004045 
2.0348383e+3, 1.3366061e+2, -1968236.6, -1871468.0, 118454.445, 0.015128254, -0.08158923, -1791897.3, -161748.42, 0.22593072, 9.997931, 9.999192 
2.0348649e+3, 1.4366624e+2, -1559270.8, -1634315.6, 4020.7336, -0.070311174, 0.5685737, -1559056.0, -26962.723, 0.13594478, 10.000065, 9.999152 
2.0348893e+3, 1.536626e+2, -1592845.5, -1548120.9, -55226.066, -0.02952497, 0.20898174, -1510901.4, -76771.96, 0.06282382, 9.998989, 9.999561 
2.0349133e+3, 1.6366056e+2, -1560871.9, -1407901.4, -50648.54, -0.026364986, 0.026265739, -1392651.9, -56501.883, 0.019494196, 9.998207, 10.000239 
2.0349392e+3, 1.7366345e+2, -1307516.8, -1186686.9, 6693.257, 0.08303945, 0.22399053, -1186317.3, 51804.65, 0.0029308582, 9.999102, 10.000631 
2.034965e+3, 1.8366496e+2, -1196088.5, -1211479.8, 20778.26, 0.1304418, 0.35994506, -1181626.5, -41519.203, 0.00006041413, 9.999693, 9.999536 
2.03499e+3, 1.9366321e+2, -1076795.0, -1105734.1, 1028.5532, 0.055613752, 0.20338485, -1076758.5, -34633.832, 0.0, 9.999876, 9.999485 
2.0350151e+3, 2.0366235e+2, -963558.8, -956094.4, -2328.879, -0.039883655, 0.15747242, -955427.4, -11294.251, 0.0, 9.999788, 9.999889 
2.0350409e+3, 2.1366318e+2, -888132.5, -842024.94, 55007.383, -0.110023305, 0.19569027, -805435.7, 40688.992, 0.0, 9.999527, 10.000115 
2.0350668e+3, 2.2366333e+2, -901163.25, -955892.9, -11774.618, -0.09984768, 0.26769274, -898737.56, -150614.17, 0.0, 9.99944, 9.998706 
2.0350932e+3, 2.336623e+2, -701893.5, -811531.94, -37805.574, 0.087269865, 0.2626452, -690121.4, -39986.574, 0.0, 10.000173, 9.998653 
2.0351182e+3, 2.4366118e+2, -554726.1, -677525.9, -60851.098, 0.12077457, 0.2857727, -529680.6, 22465.342, 0.0, 10.000421, 9.998805 
2.035141e+3, 2.5365987e+2, -444785.16, -545188.8, -33411.656, -0.07296478, 0.21565194, -434683.06, 19473.832, 0.0, 10.0004, 9.99904 
2.035165e+3, 2.6365855e+2, -420379.44, -608321.7, -44821.39, -0.14629148, 0.23379196, -410237.5, -54068.23, 0.000000023664393, 10.00043, 9.997927 
2.0351912e+3, 2.7365714e+2, -204962.75, -437707.84, -28020.377, 0.017439391, 0.24787016, -201636.89, 56546.85, 0.0000019634658, 10.00119, 9.998036 
2.0352162e+3, 2.836554e+2, -142003.4, -452487.03, -25981.037, 0.007834823, 0.31426305, -139844.36, 20356.984, 0.000016146072, 10.001311, 9.997239 
2.0352395e+3, 2.936528e+2, -71492.45, -324486.06, -46764.09, -0.2496434, 0.26201132, -63125.17, -897.67377, 0.00006227005, 10.000949, 9.997598 
2.0352688e+3, 3.0364925e+2, 34583.574, -217557.06, 22716.818, -0.13663547, 0.14386266, 36613.914, 36613.914, 0.00015436458, 10.001198, 9.997908 
2.0352986e+3, 3.1364912e+2, 425667.88, 283440.8, 72179.555, -0.084572695, 0.23130554, 455880.66, 455880.66, 0.0002908974, 10.002557, 10.000644 
2.0448096e+3, 1.2363569e+2, -1770889.6, -1534729.6, 138113.47, 0.063057266, 0.2482709, -1471100.5, 257292.63, 0.3294151, 9.998327, 10.002751 
2.0448372e+3, 1.336344e+2, -1898663.5, -1683753.4, 33528.14, 0.12742676, -0.013795426, -1678644.1, -48239.19, 0.23787552, 9.997785, 10.000556 
2.0448644e+3, 1.4363973e+2, -1867140.1, -1723201.9, -27513.85, 0.0028908204, 0.5084728, -1718121.9, -185769.28, 0.14372098, 9.997704, 9.999679 
2.0448878e+3, 1.5363728e+2, -1640785.0, -1527402.0, -81297.54, -0.029326236, 0.22750553, -1484981.4, -50603.67, 0.06692591, 9.998473, 9.999953 
2.0449118e+3, 1.6363564e+2, -1447012.9, -1351328.5, 12639.849, -0.009399439, 0.06009999, -1349686.9, -13292.522, 0.021061258, 9.998958, 10.0002775 
2.0449392e+3, 1.7363782e+2, -1227350.1, -1154946.4, -3031.2136, 0.15356608, 0.19047484, -1154819.8, 83553.42, 0.003256253, 9.999669, 10.000586 
2.0449656e+3, 1.8363932e+2, -1184165.9, -1204730.4, 473.31265, 0.23397262, 0.3312088, -1184155.0, -43795.598, 0.00007088071, 9.9997835, 9.999536 
2.0449899e+3, 1.9363865e+2, -1145767.5, -1131676.8, 29081.025, 0.091480866, 0.27775317, -1108799.8, -66431.53, 0.0, 9.999395, 9.999528 
2.0450146e+3, 2.0363818e+2, -1014604.1, -981870.94, 91549.42, -0.02654295, 0.27027887, -905236.7, 39137.004, 0.0, 9.999422, 9.999903 
2.0450409e+3, 2.136384e+2, -750807.7, -763551.9, 49768.21, -0.09670374, 0.24230476, -707005.3, 139364.8, 0.0, 10.000426, 10.000217 
2.0450673e+3, 2.2363828e+2, -694924.5, -876469.2, -24881.84, -0.055594355, 0.28656232, -691576.06, 56794.625, 0.0, 10.000915, 9.998559 
2.0450939e+3, 2.3363718e+2, -647738.3, -805579.75, -26509.25, 0.14994417, 0.29288512, -643405.06, 6977.5674, 0.0, 10.000608, 9.998495 
2.0451191e+3, 2.4363582e+2, -557640.8, -704818.5, -2572.456, 0.18888643, 0.30980077, -557595.9, -5199.673, 0.0, 10.000496, 9.998592 
2.0451415e+3, 2.5363412e+2, -406102.94, -547193.7, -47439.688, -0.072972625, 0.22478303, -391635.53, 62776.027, 0.0, 10.000753, 9.998855 
2.0451657e+3, 2.6363274e+2, -308936.03, -551167.25, -33732.484, -0.1440448, 0.24827415, -304326.28, 52098.043, 0.00000011200642, 10.001152, 9.997975 
2.0451933e+3, 2.7363187e+2, -100085.15, -384492.16, -52913.785, 0.08939643, 0.31061202, -90559.6, 167873.45, 0.000002326167, 10.00188, 9.998073 
2.045219e+3, 2.836298e+2, -34892.08, -454603.47, -21296.041, 0.11023907, 0.3609721, -33814.29, 126639.68, 0.000014696717, 10.002258, 9.996774 
2.0452411e+3, 2.9362568e+2, 33364.664, -330117.5, -11448.24, -0.20789482, 0.2202896, 33724.883, 96220.91, 0.00005375532, 10.001925, 9.997085 
2.0452714e+3, 3.036228e+2, 160622.31, -123540.26, 194870.3, -0.012961283, 0.18476199, 259708.03, 259708.03, 0.00013253847, 10.001899, 9.998218 
2.0453018e+3, 3.1362277e+2, 405839.47, 311694.16, 4770.1465, -0.0027423443, 0.2579986, 406080.53, 406080.53, 0.0002539401, 10.002182, 10.001038 
2.0548081e+3, 1.2360597e+2, -2014872.4, -2073870.6, -92486.93, -0.035381086, 0.27669978, -1947294.0, -218614.78, 0.3476065, 9.998714, 9.998149 
2.0548353e+3, 1.3360631e+2, -1722933.1, -1413875.9, 25595.543, 0.116136044, 0.0379941, -1411770.5, 218909.48, 0.2513395, 9.99787, 10.0028715 
2.0548636e+3, 1.436108e+2, -1758334.8, -1525732.6, -19692.93, 0.08957787, 0.29224724, -1524077.1, 8560.46, 0.15236652, 9.997821, 10.000985 
2.0548859e+3, 1.536129e+2, -1532719.3, -1324757.3, -35919.633, -0.10497733, 0.3324181, -1318728.0, 115889.08, 0.071473114, 9.998529, 10.001377 
2.0549102e+3, 1.63613e+2, -1457107.0, -1416889.6, 20584.244, -0.13752095, 0.282619, -1408222.1, -71605.64, 0.022826005, 9.999136, 9.999749 
2.0549393e+3, 1.7361197e+2, -1281282.8, -1275088.9, 31234.957, 0.14338051, 0.17078723, -1246797.6, -8169.621, 0.0036400491, 9.999697, 9.99975 
2.0549658e+3, 1.8361238e+2, -1119083.5, -1091359.0, -26467.988, 0.21872526, 0.22131073, -1075342.9, 65282.4, 0.00008593674, 9.999862, 10.000285 
2.054988e+3, 1.9361469e+2, -1071092.5, -970762.5, 22321.531, -0.051356837, 0.35751122, -966020.5, 76583.01, 0.0, 9.999353, 10.000659 
2.0550132e+3, 2.0361564e+2, -1089979.1, -1096065.8, 107217.695, -0.16765462, 0.45331886, -985761.56, -41166.145, 0.0, 9.999241, 9.999206 
2.0550427e+3, 2.136143e+2, -854288.56, -923621.1, 100611.586, 0.013665833, 0.3651309, -782538.44, 64071.54, 0.0, 10.000188, 9.999232 
2.0550701e+3, 2.2361301e+2, -726620.8, -857358.0, -45214.375, 0.11714985, 0.33310997, -712507.4, 36115.477, 0.0, 10.000557, 9.998858 
2.0550945e+3, 2.3361164e+2, -646502.25, -743703.44, -24362.121, 0.103832275, 0.26198146, -640738.06, 9895.548, 0.0, 10.000357, 9.999042 
2.0551187e+3, 2.4361014e+2, -651570.4, -815598.3, -10686.604, 0.057098467, 0.2576514, -650877.06, -98229.64, 0.0, 10.000144, 9.997995 
2.0551431e+3, 2.5360844e+2, -501132.8, -679991.6, -19907.762, -0.010999278, 0.24610263, -498943.78, -44277.758, 0.0, 10.000487, 9.998066 
2.0551682e+3, 2.636069e+2, -371066.97, -592059.0, -23144.88, -0.053144485, 0.30272663, -368668.97, -11987.2, 0.00000017468948, 10.000782, 9.997867 
2.0551944e+3, 2.7360547e+2, -141034.11, -411522.84, -5626.304, -0.01370195, 0.314296, -140917.13, 117777.71, 0.0000023499456, 10.001624, 9.998013 
2.05522e+3, 2.8360286e+2, -87269.18, -448644.97, -41450.297, -0.0473836, 0.3058603, -82575.734, 78143.22, 0.000012296112, 10.001789, 9.99703 
2.0552446e+3, 2.9359844e+2, 9344.364, -303613.84, 1522.8796, -0.10309811, 0.08228691, 9351.774, 72112.14, 0.000044415407, 10.001601, 9.997417 
2.0552751e+3, 3.0359742e+2, 63997.152, -173072.64, 177421.52, 0.13642588, 0.20248392, 158837.33, 158837.33, 0.00011238554, 10.001295, 9.998145 
2.0553032e+3, 3.135972e+2, 67690.79, -163639.72, -45249.242, -0.1346578, 0.27329606, 76226.76, 76226.76, 0.00022337346, 10.001262, 9.99819 
2.0648082e+3, 1.2357813e+2, -2184064.5, -2235652.0, 28011.88, 0.15525945, 0.18226868, -2171779.8, -442830.2, 0.36771804, 9.997908, 9.997391 
2.0648319e+3, 1.3358007e+2, -1608230.3, -1358892.1, 81561.414, -0.014418806, 0.08390081, -1334582.5, 296354.28, 0.26616043, 9.998593, 10.003062 
2.0648623e+3, 1.435837e+2, -1907393.8, -1570115.9, 25576.596, 0.24671432, 0.22149234, -1568187.4, -35283.01, 0.1618756, 9.996655, 10.001243 
2.064885e+3, 1.5358683e+2, -1546016.8, -1285500.4, -57284.973, -0.024957957, 0.32508272, -1273460.4, 161413.05, 0.07651462, 9.998211, 10.001832 
2.0649096e+3, 1.6358802e+2, -1430796.0, -1386133.1, -14097.536, -0.097618386, 0.34621313, -1382055.5, -45193.266, 0.024829434, 9.999266, 9.999881 
2.0649382e+3, 1.7358665e+2, -1366272.1, -1310943.1, 24355.508, 0.13844582, 0.19996275, -1301749.6, -62872.86, 0.0041003036, 9.999111, 9.999773 
2.0649648e+3, 1.8358667e+2, -1231876.3, -1129861.3, 13270.336, 0.2023951, 0.20510535, -1128163.3, 12714.122, 0.000108260756, 9.999032, 10.000405 
2.0649873e+3, 1.93589e+2, -976011.4, -901420.3, -36429.492, -0.07651649, 0.32373616, -886580.8, 156273.84, 0.0, 9.999913, 10.000857 
2.0650129e+3, 2.0359002e+2, -967851.3, -1058613.5, 48232.484, -0.14890234, 0.42683452, -947006.94, -2161.2793, 0.0, 10.0001745, 9.999005 
2.0650432e+3, 2.135888e+2, -953904.8, -1006187.5, 63266.71, 0.096380964, 0.38051105, -911591.44, -64731.004, 0.0, 9.999659, 9.998921 
2.065071e+3, 2.2358751e+2, -862370.56, -904664.06, -26796.14, 0.22631742, 0.3620979, -849382.0, -100508.09, 0.0, 9.999543, 9.9990225 
2.0650947e+3, 2.3358606e+2, -657811.8, -721301.9, -59552.508, 0.1337958, 0.25933737, -622071.7, 28813.346, 0.0, 10.000171, 9.999278 
2.0651191e+3, 2.4358474e+2, -551780.06, -770993.56, -5287.1255, 0.07647978, 0.26003575, -551652.6, 1244.5526, 0.0, 10.000846, 9.997963 
2.0651445e+3, 2.5358337e+2, -340987.47, -607645.2, 3803.6116, 0.0505827, 0.2887568, -340933.22, 113979.83, 0.0, 10.001614, 9.998016 
2.0651701e+3, 2.6358172e+2, -210498.52, -525759.44, 49177.22, 0.03624525, 0.3384624, -203005.5, 153924.8, 0.00000012472299, 10.001915, 9.99779 
2.0651963e+3, 2.7357966e+2, -159388.72, -419426.5, 29630.463, 0.027736165, 0.2984207, -156055.16, 102894.28, 0.0000018192295, 10.001502, 9.998015 
2.065222e+3, 2.8357744e+2, -98490.29, -403499.4, 34718.316, 0.020995203, 0.30602953, -94588.32, 66380.73, 0.000008845643, 10.001476, 9.997506 
2.0652473e+3, 2.9357448e+2, 92413.5, -213369.56, 32357.387, -0.0016050133, 0.18608794, 95799.99, 158794.52, 0.000033872344, 10.001956, 9.997871 
2.0652767e+3, 3.0357257e+2, 232140.45, -117095.13, 252176.95, 0.12900794, 0.19811785, 364254.78, 364254.78, 0.00009226449, 10.002472, 9.998009 
2.0653072e+3, 3.1357166e+2, 194336.44, -210758.47, -135225.6, 0.09008953, 0.23240834, 235328.38, 235328.38, 0.00019361054, 10.002535, 9.99729 
2.0748074e+3, 1.2355553e+2, -1922700.0, -1764804.3, -155828.19, 0.18696225, 0.23400955, -1669066.1, 60105.27, 0.38886976, 9.998186, 10.00068 
2.0748267e+3, 1.3355564e+2, -1745757.0, -1604849.4, 33132.484, -0.44852012, 0.1021463, -1597447.6, 33728.72, 0.28190908, 9.99871, 10.000735 
2.0748596e+3, 1.435584e+2, -1935346.1, -1662834.4, 5015.1577, 0.2646708, 0.3224486, -1662742.1, -129589.266, 0.17213808, 9.996805, 10.000537 
2.0748845e+3, 1.5355891e+2, -1565704.6, -1332731.3, 13428.759, 0.063394256, 0.20681132, -1331959.8, 103188.83, 0.08207624, 9.998257, 10.001458 
2.0749097e+3, 1.6356035e+2, -1349211.6, -1254246.9, -22711.89, -0.069979005, 0.23630264, -1249094.6, 88040.16, 0.027111659, 9.999415, 10.0007305 
2.0749365e+3, 1.7356187e+2, -1296008.1, -1168810.6, 23769.418, 0.012473002, 0.28184786, -1164514.0, 74605.24, 0.0046569863, 9.999133, 10.000735 
2.0749627e+3, 1.8356234e+2, -1260397.5, -1207643.3, 23012.965, 0.016949704, 0.2999764, -1199015.4, -57901.164, 0.00014131474, 9.999111, 9.999833 
2.0749873e+3, 1.9356151e+2, -1046036.4, -1030488.0, 5168.5757, -0.110618345, 0.18597154, -1028926.7, 14195.522, 0.0000000002137382, 9.999841, 10.000008 
2.0750134e+3, 2.0356122e+2, -975080.0, -1038758.94, 16664.05, -0.14606255, 0.19442852, -970982.8, -25856.969, 0.0, 10.000014, 9.999221 
2.0750423e+3, 2.1356174e+2, -954438.44, -961681.44, 57240.758, 0.016408028, 0.28269604, -900704.75, -53581.535, 0.0, 9.999456, 9.999324 
2.0750698e+3, 2.2356163e+2, -918142.0, -936687.94, -18276.91, 0.109097056, 0.3598706, -906920.25, -157794.6, 0.0, 9.999196, 9.998963 
2.075095e+3, 2.3356038e+2, -708547.06, -759624.44, -20115.2, 0.10715361, 0.28718624, -701576.56, -50439.023, 0.0, 9.9999, 9.999138 
2.07512e+3, 2.4355939e+2, -576268.25, -733053.7, 9716.181, 0.06167197, 0.31026122, -575668.44, -22521.152, 0.0, 10.00047, 9.998401 
2.0751455e+3, 2.5355864e+2, -340465.78, -548762.7, 46400.6, -0.025820784, 0.34830138, -330597.03, 124558.21, 0.0, 10.001371, 9.998534 
2.0751716e+3, 2.6355696e+2, -275595.63, -564183.6, 19541.762, -0.059088167, 0.36999708, -274278.34, 82893.47, 0.000000021824269, 10.001513, 9.997717 
2.0751983e+3, 2.7355406e+2, -207723.08, -450662.4, 28791.348, 0.05682036, 0.253813, -204357.56, 54842.74, 0.00000084431264, 10.00122, 9.997934 
2.0752247e+3, 2.8355283e+2, -128135.53, -360422.28, 23612.568, 0.08505644, 0.33653098, -125759.555, 35451.605, 0.000005133315, 10.001045, 9.997999 
2.0752488e+3, 2.9355308e+2, 76018.28, -185764.63, 69508.21, -0.064979486, 0.48658636, 93329.266, 156534.38, 0.000023723636, 10.001675, 9.9982 
2.0752756e+3, 3.0354813e+2, 94426.86, -222969.34, 228570.77, -0.25811425, 0.20307493, 213990.66, 213990.66, 0.00007269807, 10.001766, 9.997587 
2.0753112e+3, 3.135472e+2, 74284.38, -203991.81, -62913.043, 0.19371596, 0.2461536, 87846.84, 87846.84, 0.00016065389, 10.00154, 9.997764 
2.0848067e+3, 1.2353136e+2, -1886884.6, -1660421.3, -175254.08, 0.32372713, 0.25256303, -1565001.5, 164408.23, 0.40993002, 9.997948, 10.001918 
2.0848255e+3, 1.3353068e+2, -1929180.4, -1793801.3, -40036.254, -0.38098264, 0.11152741, -1782847.4, -151426.39, 0.29801235, 9.997934, 9.999722 
2.0848572e+3, 1.4353324e+2, -1684350.1, -1560469.5, 75725.664, 0.250941, 0.37232387, -1524578.5, 8820.47, 0.18298064, 9.998636, 10.000355 
2.0848829e+3, 1.5353271e+2, -1555830.5, -1367786.5, 77847.47, 0.08557874, 0.18047482, -1339741.4, 95664.03, 0.088167645, 9.998506, 10.001099 
2.0849092e+3, 1.63534e+2, -1510401.3, -1326717.4, 31231.105, 0.014343285, 0.21605298, -1321552.5, 15840.84, 0.029713616, 9.998275, 10.00079 
2.0849358e+3, 1.7353602e+2, -1305945.8, -1155849.3, -19347.902, 0.043331932, 0.29342788, -1153395.3, 85977.6, 0.005333032, 9.998963, 10.000928 
2.084962e+3, 1.8353657e+2, -1268639.0, -1233213.0, -11074.273, 0.045050368, 0.31872654, -1230036.0, -88668.98, 0.00018960002, 9.999152, 9.999647 
2.0849873e+3, 1.9353537e+2, -1172868.4, -1125181.4, -10469.567, -0.048468873, 0.19906695, -1122984.0, -79604.84, 0.000000020895914, 9.999128, 9.9997 
2.0850137e+3, 2.0353472e+2, -1085790.6, -1062426.3, 35572.4, -0.061284237, 0.18085696, -1036666.94, -91281.01, 0.0, 9.999166, 9.999451 
2.085042e+3, 2.135348e+2, -892181.8, -893493.4, 34063.977, 0.038988285, 0.19370829, -858767.3, -11381.9375, 0.0, 9.99974, 9.999641 
2.0850696e+3, 2.2353472e+2, -744542.56, -853662.25, 5487.3228, 0.11938267, 0.25515977, -744267.3, 5119.3267, 0.0, 10.000369, 9.998982 
2.0850955e+3, 2.3353434e+2, -521825.8, -672624.7, -12351.982, 0.12864554, 0.2731449, -520820.75, 130570.484, 0.0, 10.001168, 9.999137 
2.0851213e+3, 2.4353369e+2, -426907.78, -670748.5, 21173.47, 0.10435449, 0.33339027, -425082.9, 128315.414, 0.0, 10.001528, 9.99832 
2.0851469e+3, 2.5353232e+2, -366402.3, -577587.94, -19273.398, -0.0091190245, 0.32761678, -364657.75, 90754.484, 0.0, 10.001252, 9.998395 
2.0851731e+3, 2.6353055e+2, -298343.34, -563278.8, -40857.973, -0.03603938, 0.34028813, -292185.44, 65244.66, 0.0, 10.001302, 9.997826 
2.0852e+3, 2.7352816e+2, -98643.195, -386306.8, -49887.9, 0.07606183, 0.265762, -90237.06, 169216.13, 0.000000115745564, 10.001913, 9.998043 
2.0852268e+3, 2.8352663e+2, 65019.1, -311752.28, -30061.008, 0.16077247, 0.3303164, 67402.47, 228869.92, 0.0000020138657, 10.002535, 9.997623 
2.0852524e+3, 2.935259e+2, 237087.83, -146817.44, -97801.055, 0.077038966, 0.43446666, 260567.0, 324039.75, 0.000014504671, 10.002963, 9.997842 
2.0852779e+3, 3.0352253e+2, 342572.38, -36641.82, 92356.96, -0.2599353, 0.29145077, 363869.66, 363869.66, 0.00005340342, 10.00312, 9.998242 
2.0853136e+3, 3.1352147e+2, 261399.05, -113081.06, -172667.88, 0.25033808, 0.27880755, 328860.84, 328860.84, 0.0001257325, 10.00269, 9.997889 
2.0948039e+3, 1.2350246e+2, -1917965.1, -1722210.5, 5893.9575, 0.13922884, -0.07577192, -1722033.3, 7662.157, 0.42994058, 9.998049, 10.000891 
2.0948286e+3, 1.3350515e+2, -1881682.6, -1717256.5, 5995.974, 0.09972488, 0.117983624, -1717038.1, -85366.91, 0.31401625, 9.998036, 10.0002 
2.0948535e+3, 1.4350809e+2, -1633637.0, -1513186.0, 61614.8, -0.029953051, 0.36210096, -1487251.8, 46392.77, 0.19429262, 9.998851, 10.000636 
2.0948796e+3, 1.5350825e+2, -1568329.0, -1408723.5, 76194.95, -0.12593962, 0.2593001, -1378189.8, 57454.207, 0.094824284, 9.998577, 10.000763 
2.0949075e+3, 1.6350901e+2, -1537212.1, -1421447.1, 27279.738, -0.043131825, 0.30032796, -1415340.8, -77703.47, 0.032688897, 9.99844, 10.000058 
2.0949355e+3, 1.7350909e+2, -1344069.1, -1242125.4, 14344.133, 0.09943484, 0.24843621, -1240145.6, -508.18524, 0.0061590113, 9.998994, 10.000319 
2.0949621e+3, 1.8350938e+2, -1242301.1, -1202097.3, -25840.656, 0.10266497, 0.27202237, -1189460.5, -47824.8, 0.00026052183, 9.9992485, 9.999816 
2.0949869e+3, 1.9351065e+2, -1164750.8, -1096209.4, -3863.4724, -0.028408289, 0.3752616, -1095992.3, -52367.344, 0.00000016154512, 9.999075, 9.999925 
2.0950131e+3, 2.0351058e+2, -1104636.4, -1060917.6, 38312.25, -0.0720057, 0.39595056, -1038667.4, -93042.0, 0.0, 9.998991, 9.999544 
2.095042e+3, 2.1350794e+2, -924332.9, -900867.4, 66708.72, 0.03585614, 0.12800044, -844867.5, 2780.0437, 0.0, 9.999494, 9.999704 
2.0950699e+3, 2.2350667e+2, -786982.4, -862939.0, 21357.473, 0.08150406, 0.06140329, -781389.0, -31731.197, 0.0, 10.0000305, 9.999081 
2.0950963e+3, 2.3350784e+2, -552558.56, -675101.75, 32306.742, 0.051322382, 0.22393866, -544563.06, 107083.914, 0.0, 10.000905, 9.999246 
2.0951223e+3, 2.4350758e+2, -526999.0, -789721.56, 1905.123, 0.008299183, 0.3417, -526985.2, 26665.838, 0.0, 10.001146, 9.997685 
2.0951483e+3, 2.5350454e+2, -451564.44, -703231.6, -15236.573, -0.03732083, 0.24017632, -450645.34, 5038.04, 0.0, 10.001027, 9.9976425 
2.095174e+3, 2.6350245e+2, -337804.66, -561616.1, -39267.203, -0.09135683, 0.25397095, -331115.25, 26589.732, 0.0, 10.000955, 9.998 
2.0952007e+3, 2.7350175e+2, -120309.3, -370303.72, -10304.434, -0.06623564, 0.3161562, -119885.28, 139825.16, 0.0, 10.001655, 9.998275 
2.0952287e+3, 2.834989e+2, -99288.305, -532819.7, -32801.83, 0.05540426, 0.29871535, -96820.5, 64917.234, 0.00000039293647, 10.002031, 9.9963455 
2.0952573e+3, 2.9349354e+2, 105008.87, -339145.13, -51801.484, 0.2280718, 0.07126419, 110970.44, 174762.66, 0.000007667558, 10.002611, 9.996693 
2.095282e+3, 3.0349448e+2, 313946.7, 105824.02, 59039.793, -0.21549137, 0.3564917, 329528.4, 329528.4, 0.000037309022, 10.002319, 9.999579 
2.095315e+3, 3.1349406e+2, 133614.47, -112207.52, 33038.6, 0.018088194, 0.25365967, 137977.44, 137977.44, 0.00009614077, 10.001646, 9.998354 
2.1048e+3, 1.23477355e+2, -2039152.8, -1741589.4, -53783.34, 0.02185226, 0.28205135, -1732166.6, -2221.0476, 0.44859928, 9.997085, 10.001166 
2.1048279e+3, 1.3347895e+2, -1884942.9, -1590127.8, -66783.0, 0.25970903, 0.1876098, -1575705.3, 56222.766, 0.3298663, 9.997341, 10.001602 
2.104852e+3, 1.434807e+2, -1710035.0, -1582410.5, 9657.079, -0.031806007, 0.26101628, -1581684.0, -47773.383, 0.20615475, 9.998502, 10.000256 
2.1048787e+3, 1.5348177e+2, -1498885.3, -1407608.9, -44152.14, -0.11647042, 0.28116232, -1389747.0, 46155.813, 0.10215144, 9.999232, 10.000427 
2.1049063e+3, 1.6348238e+2, -1445158.1, -1379340.4, -43440.234, -0.03369734, 0.3274711, -1357751.1, -19852.586, 0.036114734, 9.999096, 10.00001 
2.1049346e+3, 1.7348212e+2, -1384370.4, -1255826.6, -29899.5, 0.11651856, 0.23648486, -1249212.4, -9311.098, 0.007176738, 9.998689, 10.000359 
2.1049614e+3, 1.8348251e+2, -1332704.8, -1257992.8, -14671.66, 0.17046773, 0.26975256, -1255214.9, -113316.37, 0.0003661867, 9.99868, 9.999707 
2.104987e+3, 1.9348381e+2, -1053323.9, -1057643.3, -46655.918, 0.057967402, 0.39075956, -1008777.7, 35110.914, 0.00000091193453, 9.999907, 9.999787 
2.1050137e+3, 2.0348383e+2, -891531.75, -969257.75, -15179.9795, 0.02925861, 0.43293774, -888672.25, 57216.69, 0.0, 10.000458, 9.999489 
2.1050422e+3, 2.1348147e+2, -844411.1, -877099.44, -23715.072, 0.09884067, 0.20197366, -831953.6, 15955.54, 0.0, 10.000054, 9.999629 
2.10507e+3, 2.2348027e+2, -789487.6, -855808.4, -22077.525, 0.12689118, 0.14677523, -782810.44, -32891.555, 0.0, 10.000001, 9.999128 
2.1050969e+3, 2.3348096e+2, -531325.7, -657346.7, -45348.754, 0.041887525, 0.2574401, -516703.5, 135208.42, 0.0, 10.001039, 9.999288 
2.1051238e+3, 2.4348025e+2, -446012.75, -757556.25, -73600.414, 0.017743254, 0.33295628, -429500.25, 124419.2, 0.0, 10.001708, 9.997653 
2.10515e+3, 2.534771e+2, -379878.8, -675502.75, -74275.484, 0.042170368, 0.22731389, -362266.4, 93686.11, 0.0, 10.00154, 9.997597 
2.1051764e+3, 2.634749e+2, -248891.78, -539403.56, -24090.488, 0.034927957, 0.24494298, -246907.64, 111067.01, 0.0, 10.001637, 9.997832 
2.1052031e+3, 2.73474e+2, -49131.64, -362777.0, -58669.523, -0.017022919, 0.3133532, -38516.375, 221466.25, 0.0, 10.002251, 9.998044 
2.1052311e+3, 2.834711e+2, 29138.193, -439259.3, -24492.686, 0.07484018, 0.29223642, 30415.441, 192426.25, 0.00000006547354, 10.002819, 9.996581 
2.1052602e+3, 2.9346567e+2, 207041.45, -266964.06, 9290.741, 0.2607069, 0.0410937, 207223.48, 271289.22, 0.000004738257, 10.003257, 9.996857 
2.1052858e+3, 3.0346698e+2, 382272.8, 60110.254, 100151.05, -0.045321412, 0.38756692, 410868.66, 410868.66, 0.00002905632, 10.003091, 9.998902 
2.1053164e+3, 3.1346515e+2, 213014.86, 33009.332, -130778.41, 0.017282931, 0.22290933, 281768.16, 281768.16, 0.00007991688, 10.001691, 9.99934 
2.1147943e+3, 1.2345195e+2, -2021101.9, -1769922.0, -229959.19, -0.38928485, 0.93679315, -1633492.8, 96707.86, 0.46656317, 9.997289, 10.001303 
2.1148212e+3, 1.3345158e+2, -1679943.0, -1326070.9, -22609.287, -0.17443635, 0.29573008, -1324632.1, 307563.88, 0.34608045, 9.997446, 10.004288 
2.114852e+3, 1.4345098e+2, -1750262.5, -1724616.3, 46497.313, 0.054299284, 0.053913772, -1689206.3, -155008.22, 0.21890919, 9.998745, 9.999166 
2.1148792e+3, 1.5345317e+2, -1502095.1, -1448983.0, -16991.283, -0.021614436, 0.2440002, -1444012.4, -7829.569, 0.110347085, 9.999389, 10.000035 
2.1149048e+3, 1.6345377e+2, -1369875.8, -1268172.3, -76403.8, -0.1465474, 0.27426127, -1227244.6, 110935.484, 0.040102176, 9.999276, 10.000713 
2.114932e+3, 1.73455e+2, -1328559.0, -1153729.0, -37857.64, -0.04073955, 0.26017222, -1145883.5, 94281.9, 0.008443992, 9.998733, 10.001049 
2.1149597e+3, 1.8345582e+2, -1353244.4, -1312364.0, 2482.784, 0.060762748, 0.31326786, -1312213.8, -170057.0, 0.00052604213, 9.998729, 9.999309 
2.1149875e+3, 1.9345473e+2, -1106596.9, -1144206.6, 7330.374, 0.07659706, 0.25079674, -1105218.6, -61047.594, 0.0000034897541, 9.999808, 9.999234 
2.115015e+3, 2.0345435e+2, -940834.75, -1020256.3, -38136.047, 0.06643782, 0.29184696, -925488.25, 20689.848, 0.0, 10.000239, 9.999244 
2.1150422e+3, 2.1345542e+2, -896077.2, -920366.75, -29921.49, 0.09109394, 0.42586362, -875929.7, -27759.64, 0.0, 9.999804, 9.999445 
2.1150698e+3, 2.2345556e+2, -851580.75, -904091.3, -4507.3643, 0.06480286, 0.5191787, -851196.7, -101026.92, 0.0, 9.999648, 9.998969 
2.1150973e+3, 2.3345356e+2, -577058.5, -700049.56, 9517.263, -0.030037334, 0.3765501, -576326.4, 75860.914, 0.0, 10.000806, 9.999109 
2.115125e+3, 2.4345158e+2, -467903.66, -714245.1, -85556.78, -0.061094187, 0.3124897, -441104.44, 113100.51, 0.0, 10.001332, 9.998123 
2.1151523e+3, 2.534497e+2, -371851.8, -607130.25, -67970.555, 0.087429754, 0.27384672, -353627.2, 102594.914, 0.0, 10.001325, 9.99816 
2.1151797e+3, 2.634477e+2, -349753.0, -652966.4, -17604.734, 0.14713302, 0.30017474, -348734.28, 9507.259, 0.0, 10.00124, 9.997235 
2.1152063e+3, 2.7344507e+2, -128215.375, -473376.8, -13634.891, 0.057038106, 0.26373276, -127677.59, 132590.67, 0.0, 10.002022, 9.99739 
2.1152334e+3, 2.8344274e+2, 48661.902, -296809.38, -23870.191, -0.033527292, 0.27895924, 50303.402, 212594.4, 0.00000005479561, 10.00238, 9.997772 
2.1152614e+3, 2.934413e+2, 238824.3, -127605.445, 54106.004, -0.0020752887, 0.27077144, 246646.47, 310950.25, 0.0000044706885, 10.002919, 9.997984 
2.1152896e+3, 3.034394e+2, 42421.363, -398381.8, 26765.686, -0.059458684, 0.37925628, 44040.637, 44040.637, 0.000027145721, 10.002108, 9.996189 
2.1153179e+3, 3.1343517e+2, 100911.15, 51299.76, -62057.97, -0.083287075, 0.22661926, 142937.44, 142937.44, 0.00007500438, 10.000698, 9.999909 
2.1248025e+3, 1.2341111e+2, -2229430.3, -2093538.3, -93047.66, 0.7152246, -0.3396685, -2046269.1, -315664.78, 0.48543465, 9.996775, 9.998922 
2.1248178e+3, 1.3342325e+2, -1515028.0, -1268493.8, -92322.22, -0.31516373, 0.39854094, -1237753.9, 394723.72, 0.3637423, 9.999111, 10.004174 
2.1248518e+3, 1.434212e+2, -1971444.4, -1797503.0, -66157.766, 0.24632934, 0.01115862, -1775199.9, -240707.19, 0.23315269, 9.997069, 9.999476 
2.1248785e+3, 1.5342402e+2, -1788570.8, -1540991.3, -78200.6, 0.08544588, 0.22385286, -1518359.5, -81890.21, 0.1197026, 9.997187, 10.000491 
2.1249035e+3, 1.6342498e+2, -1599087.8, -1365086.4, -98749.914, -0.09768097, 0.25983483, -1328983.4, 9478.215, 0.044803485, 9.997634, 10.000835 
2.1249306e+3, 1.7342623e+2, -1289707.6, -1137435.8, -136587.86, -0.03911463, 0.24931535, -1057197.4, 183249.83, 0.01004214, 9.999013, 10.001036 
2.1249588e+3, 1.8342702e+2, -1209386.6, -1224698.3, -83057.16, 0.07504941, 0.2966549, -1133633.1, 8805.376, 0.0007722133, 9.99963, 9.999473 
2.1249875e+3, 1.9342576e+2, -1124392.6, -1136486.3, -47163.867, 0.12903154, 0.19860157, -1082889.5, -38436.18, 0.000010944595, 9.999593, 9.999404 
2.1250156e+3, 2.0342536e+2, -1051304.0, -1100881.9, -55501.6, 0.14741002, 0.2408334, -1015307.1, -68846.45, 0.0, 9.999621, 9.998973 
2.1250422e+3, 2.1342663e+2, -861076.3, -938760.7, -93410.49, 0.08636748, 0.42509368, -798754.1, 49699.14, 0.0, 10.000222, 9.999092 
2.1250698e+3, 2.2342677e+2, -705331.75, -825392.9, -22020.44, 0.05887063, 0.5367935, -701420.4, 49033.77, 0.0, 10.000607, 9.999051 
2.1250987e+3, 2.334248e+2, -592301.0, -685983.5, -4625.769, 0.013449999, 0.38239825, -592073.2, 60397.797, 0.0, 10.000611, 9.9993 
2.1251267e+3, 2.4342316e+2, -509236.7, -687564.0, -70388.41, 0.026539646, 0.32321993, -484801.56, 69683.27, 0.0, 10.0008745, 9.998516 
2.1251543e+3, 2.5342193e+2, -291465.28, -523686.63, -101269.03, 0.13301155, 0.3169701, -253507.44, 202987.94, 0.0, 10.001707, 9.998547 
2.1251819e+3, 2.6342008e+2, -186410.25, -593118.3, -16255.298, 0.20405753, 0.34495342, -185761.6, 172751.86, 0.0, 10.002452, 9.997057 
2.1252093e+3, 2.7341673e+2, -30043.176, -459800.34, -24849.953, 0.1107033, 0.2737883, -28611.043, 231937.27, 0.0, 10.002864, 9.997071 
2.1252361e+3, 2.8341472e+2, 144754.0, -192415.23, -39773.83, -0.00014075711, 0.31825516, 149382.34, 311949.84, 0.000000117451826, 10.002749, 9.99834 
2.1252629e+3, 2.9341474e+2, 95132.3, -119370.766, -66981.77, -0.045455407, 0.39712477, 114330.16, 178893.67, 0.0000050467984, 10.00158, 9.998698 
2.1252924e+3, 3.0341113e+2, -6786.821, -480194.6, 43706.617, 0.08085453, 0.31010562, -2785.497, -2785.497, 0.00002697455, 10.001899, 9.995798 
2.1253213e+3, 3.13408e+2, 546385.3, 257351.22, -30840.262, 0.073045805, 0.34298444, 549639.4, 549639.4, 0.00007158717, 10.003661, 9.999982 
2.1348181e+3, 1.3339485e+2, -1709609.0, -1603741.0, -200785.98, -0.24482502, 0.6360132, -1449028.6, 183735.77, 0.38411817, 9.999204, 10.000864 
2.1348503e+3, 1.4339095e+2, -1839981.3, -1571087.1, -130061.49, 0.31364784, 0.13260148, -1518472.6, 16326.561, 0.24951555, 9.997249, 10.00097 
2.1348758e+3, 1.5339413e+2, -1671134.8, -1337125.9, -63491.68, 0.056777112, 0.2283533, -1325464.0, 111300.01, 0.13052814, 9.997286, 10.001947 
2.134902e+3, 1.63396e+2, -1602119.3, -1415555.5, -70431.4, -0.08307963, 0.28393143, -1391952.4, -53209.08, 0.050404422, 9.997822, 10.000396 
2.1349305e+3, 1.7339571e+2, -1340277.0, -1248164.0, -77981.27, -0.011212312, 0.19815317, -1203654.0, 37093.324, 0.012084308, 9.999039, 10.000254 
2.1349585e+3, 1.8339597e+2, -1152251.1, -1126629.6, -92393.77, 0.03193211, 0.2061377, -1046162.7, 96582.78, 0.001155736, 9.999716, 10.000105 
2.1349871e+3, 1.9339688e+2, -1071882.6, -1015762.44, -39725.37, 0.08070516, 0.24074952, -995186.44, 49549.438, 0.000030850606, 9.9995365, 10.000261 
2.1350147e+3, 2.0339683e+2, -1104434.4, -1163113.1, -52024.79, 0.06813146, 0.28094223, -1074046.3, -127308.664, 0.0, 9.999418, 9.998643 
2.1350415e+3, 2.1339487e+2, -934378.3, -1033282.2, -58597.645, -0.032419927, 0.1974552, -907154.44, -58393.637, 0.0, 9.999979, 9.998559 
2.1350694e+3, 2.2339396e+2, -738325.4, -799377.44, -28173.695, -0.07031803, 0.21768661, -727311.06, 23460.684, 0.0, 10.0002165, 9.99941 
2.1350996e+3, 2.3339473e+2, -596110.56, -636957.25, 8685.377, 0.036302958, 0.28775182, -594340.44, 58422.33, 0.0, 10.00037, 9.999753 
2.1351284e+3, 2.4339485e+2, -554409.0, -695144.1, -57341.535, 0.07633622, 0.37392658, -534004.06, 20756.787, 0.0, 10.00051, 9.998635 
2.1351552e+3, 2.533936e+2, -316136.94, -524909.5, -55429.336, 0.05173446, 0.34970835, -302333.06, 154440.94, 0.0, 10.001492, 9.998638 
2.1351829e+3, 2.6339167e+2, -247148.64, -626958.7, -12693.806, 0.027051212, 0.36549237, -246724.86, 112069.3, 0.0, 10.00207, 9.997002 
2.1352112e+3, 2.7338845e+2, -80483.734, -504862.72, 8020.0635, 0.0059854486, 0.31864733, -80332.22, 180495.44, 0.00000000014169585, 10.002602, 9.99689 
2.1352385e+3, 2.8338638e+2, 49064.805, -256860.31, -91545.21, -0.075142175, 0.37404457, 74366.29, 237213.83, 0.000000256191, 10.002208, 9.9981365 
2.1352649e+3, 2.9338583e+2, 59689.703, -127637.15, -76026.65, -0.057676367, 0.39750975, 86661.63, 151508.44, 0.0000052967753, 10.001293, 9.998775 
2.1352942e+3, 3.0338112e+2, -30452.826, -305991.9, 87737.38, 0.014718341, 0.11346304, -4887.4507, -4887.4507, 0.000025200057, 10.001032, 9.99737 
2.135324e+3, 3.1337926e+2, 318890.66, 129960.88, 62830.242, -0.09007794, 0.11169303, 337877.3, 337877.3, 0.00006359548, 10.002303, 9.9997015 
2.1448176e+3, 1.3336526e+2, -1936037.0, -1784160.0, -101073.93, -0.115643434, 0.6560024, -1733676.3, -100618.27, 0.40760165, 9.997856, 9.999752 
2.1448493e+3, 1.4336212e+2, -1640697.3, -1470154.3, -49551.336, 0.45354983, 0.27656537, -1456802.4, 78283.95, 0.26811564, 9.998513, 10.0012 
2.144874e+3, 1.5336451e+2, -1520595.4, -1248037.6, -78349.875, 0.13955441, 0.26144207, -1227120.4, 209936.17, 0.14296411, 9.998212, 10.002217 
2.1449009e+3, 1.6336627e+2, -1606148.1, -1426535.6, -82873.38, 0.04248661, 0.29759344, -1394140.5, -55104.67, 0.057087187, 9.99786, 10.000296 
2.1449296e+3, 1.7336579e+2, -1471531.9, -1321990.4, -68461.53, 0.05735963, 0.2025918, -1295382.4, -54339.785, 0.014719365, 9.998219, 10.000129 
2.1449581e+3, 1.8336605e+2, -1300396.6, -1178462.4, -55528.492, 0.06856201, 0.2121442, -1156964.9, -13923.563, 0.0017550356, 9.998619, 10.000277 
2.1449868e+3, 1.9336773e+2, -1008890.44, -955211.06, -74847.74, 0.11264889, 0.29790148, -902536.25, 142488.1, 0.00008036648, 9.999854, 10.000514 
2.1450152e+3, 2.0336801e+2, -928244.0, -1052502.9, -75973.8, 0.11697419, 0.34892836, -892230.25, 54791.586, 0.000000018813253, 10.000518, 9.998878 
2.1450417e+3, 2.1336553e+2, -838600.94, -963788.56, -52169.805, -0.014108306, 0.1901823, -819710.56, 29337.092, 0.0, 10.000518, 9.998788 
2.1450698e+3, 2.2336428e+2, -726363.6, -791887.44, 7247.8125, -0.034654845, 0.16124292, -725571.5, 25489.031, 0.0, 10.000288, 9.999434 
2.1451004e+3, 2.3336513e+2, -669762.56, -672843.6, -24088.307, 0.104928784, 0.24646337, -647165.56, 5885.473, 0.0, 9.999874, 9.999749 
2.1451294e+3, 2.4336538e+2, -635789.3, -743131.75, -54748.477, 0.16931114, 0.34977505, -612792.44, -57743.77, 0.0, 9.999976, 9.998574 
2.1451566e+3, 2.5336432e+2, -387338.97, -570166.44, -84090.45, 0.061123982, 0.3582404, -354544.5, 102516.836, 0.0, 10.001037, 9.998554 
2.1451843e+3, 2.6336265e+2, -259093.3, -573846.4, -32521.172, 0.013871318, 0.38056418, -255768.25, 103311.086, 0.0, 10.001711, 9.99755 
2.1452133e+3, 2.7335992e+2, -176942.08, -472725.3, 889.6239, 0.026891606, 0.3183773, -176939.4, 84166.58, 0.00000000016893417, 10.001605, 9.99759 
2.1452412e+3, 2.83358e+2, -42259.297, -350095.1, -45953.383, 0.027094277, 0.36324129, -35545.84, 127577.72, 0.0000002738674, 10.001743, 9.997733 
2.1452676e+3, 2.9335648e+2, 184585.75, -115450.66, -113709.97, 0.043035142, 0.35507175, 222810.53, 287945.0, 0.0000047479944, 10.002364, 9.998335 
2.1452966e+3, 3.033523e+2, 336383.78, 5135.221, 81545.445, 0.09546715, 0.07468485, 355370.1, 355370.1, 0.000021563434, 10.002861, 9.998671 
2.1453276e+3, 3.133521e+2, 269101.25, 67611.43, -104879.77, 0.07741267, 0.124140374, 313784.34, 313784.34, 0.000054127682, 10.002028, 9.999421 
2.1548155e+3, 1.3333413e+2, -1847016.1, -1638701.5, -45817.977, -0.2335754, 0.43578804, -1629069.4, 4291.915, 0.43279883, 9.998038, 10.0006695 
2.1548478e+3, 1.433345e+2, -1651682.6, -1576881.1, -98211.78, 0.33321023, 0.39251545, -1509189.6, 26166.215, 0.28823382, 9.998949, 10.000131 
2.1548733e+3, 1.533352e+2, -1580118.3, -1390032.5, -91005.55, 0.18284921, 0.32115126, -1353488.3, 83858.12, 0.15688464, 9.998361, 10.001039 
2.1548997e+3, 1.6333579e+2, -1567878.1, -1396270.3, -91739.055, 0.071165115, 0.29733828, -1356462.3, -17122.85, 0.06501248, 9.998079, 10.000393 
2.1549277e+3, 1.7333636e+2, -1441258.3, -1258270.5, -53259.938, 0.019860046, 0.27071536, -1243897.8, -2563.8865, 0.018139776, 9.998224, 10.000555 
2.1549563e+3, 1.8333714e+2, -1305865.5, -1209099.4, -32849.94, -0.003992438, 0.31973994, -1199001.4, -55674.063, 0.0026903055, 9.9986925, 10.000037 
2.1549869e+3, 1.9333829e+2, -1039699.8, -1003006.3, -19481.457, 0.081747256, 0.38260996, -994592.44, 50726.62, 0.00019736934, 9.999788, 10.000216 
2.1550159e+3, 2.0333892e+2, -899779.2, -955882.9, -85554.41, 0.09947057, 0.45338875, -837795.1, 109518.67, 0.0000007869328, 10.000351, 9.999622 
2.1550424e+3, 2.1333842e+2, -801573.56, -842157.0, -44211.066, -0.0018515493, 0.39811832, -773219.9, 76095.914, 0.0, 10.000318, 9.999722 
2.1550703e+3, 2.2333753e+2, -802751.56, -872714.25, -20976.852, -0.037990443, 0.36696008, -796944.2, -45622.035, 0.0, 9.999949, 9.999042 
2.1551001e+3, 2.3333584e+2, -742030.2, -774424.9, -25858.299, 0.07936256, 0.25386086, -727715.1, -74377.75, 0.0, 9.9996605, 9.999153 
2.1551292e+3, 2.4333462e+2, -712299.9, -813358.06, -36818.574, 0.11906124, 0.2561114, -700308.56, -144959.1, 0.0, 9.99961, 9.9982605 
2.1551575e+3, 2.5333402e+2, -439865.3, -629016.9, -29195.44, 0.032332383, 0.33820367, -435461.53, 21896.924, 0.0, 10.000818, 9.998254 
2.1551858e+3, 2.633328e+2, -245406.48, -453056.13, -38709.56, -0.04181557, 0.38361195, -238425.06, 120945.625, 0.0, 10.001321, 9.998564 
2.1552151e+3, 2.7333072e+2, -117487.836, -296998.66, 11077.183, 0.014446919, 0.24964504, -116806.875, 144580.19, 0.0, 10.001371, 9.998913 
2.1552439e+3, 2.8332883e+2, -168040.94, -485229.47, -45318.57, 0.07142666, 0.25065783, -161693.05, 1710.3229, 0.000000100631844, 10.001243, 9.997028 
2.1552706e+3, 2.9332644e+2, 41915.2, -317372.22, -56733.688, 0.07878987, 0.25992292, 50660.91, 116089.76, 0.0000031808167, 10.001964, 9.997139 
2.1552983e+3, 3.0332327e+2, 236919.45, 38299.887, 41254.38, -0.08458526, 0.12230633, 245147.36, 245147.36, 0.000016664693, 10.001899, 9.999327 
2.1553303e+3, 3.1332746e+2, 55249.355, -152084.89, 31322.42, 0.049892727, 0.4832813, 59877.97, 59877.97, 0.000045618737, 10.001104, 9.998338 
2.1648148e+3, 1.3330369e+2, -1761252.5, -1563200.6, 24607.387, -0.0741433, 0.24996713, -1560189.0, 73467.98, 0.45757636, 9.9983015, 10.001518 
2.1648455e+3, 1.4330554e+2, -1782918.9, -1680420.4, -67844.73, 0.26713783, 0.36548, -1646643.8, -111007.6, 0.3088363, 9.998238, 9.9997225 
2.1648721e+3, 1.5330602e+2, -1565321.4, -1480140.9, -73992.53, 0.20691884, 0.34356987, -1437356.5, 277.11966, 0.17204043, 9.998926, 10.000046 
2.164899e+3, 1.633062e+2, -1486380.0, -1376033.3, -60848.254, 0.17320415, 0.35203874, -1349068.9, -9436.298, 0.07433442, 9.998684, 10.000253 
2.1649265e+3, 1.7330666e+2, -1377228.1, -1214745.1, -54292.652, 0.07795659, 0.29717273, -1198273.4, 43353.055, 0.022589553, 9.998565, 10.00072 
2.1649553e+3, 1.8330729e+2, -1344671.5, -1242435.3, 10040.153, 0.053467426, 0.33068234, -1241458.5, -97837.984, 0.00413868, 9.998527, 9.99988 
2.1649866e+3, 1.933082e+2, -1134112.6, -1084691.6, -3332.436, 0.13462137, 0.39954996, -1084467.9, -38851.313, 0.00045452762, 9.999312, 9.999891 
2.1650164e+3, 2.033088e+2, -971999.75, -954296.0, -91891.92, 0.18016109, 0.47383386, -870830.56, 76781.336, 0.000007502901, 9.999674, 9.999964 
2.1650432e+3, 2.133089e+2, -861685.25, -818076.06, -117301.914, 0.08010739, 0.43408516, -720569.44, 129036.445, 0.0, 9.999676, 10.000197 
2.165071e+3, 2.233082e+2, -802790.2, -900454.94, -67350.516, 0.039831113, 0.40933025, -768431.9, -16822.87, 0.0, 10.000085, 9.998774 
2.1651006e+3, 2.3330589e+2, -501207.38, -710278.94, -84328.38, 0.08281074, 0.27515128, -471433.78, 182197.66, 0.0, 10.001536, 9.998688 
2.1651301e+3, 2.433042e+2, -330466.88, -614007.75, -68255.03, 0.121318415, 0.25225273, -314891.8, 240756.73, 0.0, 10.002148, 9.998411 
2.1651587e+3, 2.533036e+2, -367345.3, -548579.9, -50004.203, 0.076394305, 0.3054946, -354464.25, 103191.82, 0.0, 10.001149, 9.998629 
2.1651874e+3, 2.6330283e+2, -307427.47, -457038.38, -20839.662, 0.034749616, 0.35890555, -304578.9, 55084.367, 0.0, 10.000767, 9.99881 
2.1652168e+3, 2.7330124e+2, -66797.97, -248706.61, -71792.17, 0.036347803, 0.25981012, -41878.203, 219797.1, 0.0, 10.001618, 9.999126 
2.1652459e+3, 2.832993e+2, -10593.594, -395936.1, -119972.03, 0.11917315, 0.23284633, 23705.416, 187398.7, 0.0000000029805467, 10.002242, 9.99717 
2.1652734e+3, 2.9329672e+2, 92353.37, -278122.25, -95014.18, 0.16730344, 0.23035051, 115299.945, 181022.11, 0.000001345268, 10.002259, 9.997259 
2.1653013e+3, 3.032964e+2, 304481.6, 85172.875, 55307.05, 0.050119776, 0.3494657, 317639.9, 317639.9, 0.000010778314, 10.002284, 9.999467 
2.1653318e+3, 3.132977e+2, 213094.61, -156516.03, -91254.71, 0.054149445, 0.44323346, 234397.1, 234397.1, 0.00003608632, 10.002543, 9.997614 
2.1748176e+3, 1.332757e+2, -1723623.3, -1518439.1, -124904.32, 0.28618804, 0.3151896, -1459395.1, 174532.67, 0.48078975, 9.998681, 10.00198 
2.1748424e+3, 1.4327589e+2, -1762786.0, -1712837.8, -17183.352, 0.03013936, 0.18676108, -1707497.3, -171576.08, 0.32934, 9.998577, 9.999329 
2.1748699e+3, 1.532771e+2, -1635550.5, -1643758.4, -50365.18, 0.074010864, 0.34344184, -1589122.4, -151205.81, 0.18832743, 9.998997, 9.998883 
2.1748976e+3, 1.6327746e+2, -1483613.5, -1422106.3, -80066.164, 0.123862095, 0.46363288, -1367090.6, -27174.115, 0.0852701, 9.998895, 9.999834 
2.1749255e+3, 1.732768e+2, -1360334.0, -1200257.1, -46862.688, 0.08344817, 0.29188907, -1187547.1, 54372.08, 0.028395085, 9.998647, 10.000777 
2.1749544e+3, 1.8327656e+2, -1359203.8, -1292430.6, 17266.965, 0.053334896, 0.24633232, -1288229.9, -144309.3, 0.006367479, 9.998612, 9.999491 
2.1749862e+3, 1.9327724e+2, -1178066.5, -1160911.9, 34122.086, 0.13297677, 0.3399736, -1134305.6, -88386.76, 0.0009868387, 9.999252, 9.999388 
2.1750164e+3, 2.0327747e+2, -1004005.3, -984418.25, -101116.45, 0.15647417, 0.4109422, -892622.1, 55295.816, 0.000047582707, 9.999506, 9.999844 
2.1750435e+3, 2.1327691e+2, -889233.06, -824824.75, -108380.555, 0.09977108, 0.30166492, -743965.0, 105953.29, 0.00000000032497088, 9.9994545, 10.0002575 
2.1750712e+3, 2.232762e+2, -880831.4, -970628.0, -33628.813, 0.02715097, 0.2832036, -869633.75, -117711.42, 0.0, 9.999698, 9.998477 
2.1751013e+3, 2.3327494e+2, -568717.6, -783921.25, -14995.931, -0.0190237, 0.28932598, -567677.75, 86259.15, 0.0, 10.00126, 9.998308 
2.1751311e+3, 2.4327368e+2, -361332.22, -564518.1, -104168.04, -0.029422505, 0.30879864, -317418.78, 238531.02, 0.0, 10.001674, 9.998971 
2.1751599e+3, 2.5327274e+2, -345895.44, -447443.56, -75961.61, 0.05872228, 0.24643788, -305301.2, 152655.7, 0.0, 10.000909, 9.999435 
2.1751887e+3, 2.6327232e+2, -406366.1, -559199.0, -15502.659, 0.051007457, 0.30557975, -404809.44, -44849.27, 0.0, 10.00035, 9.998297 
2.1752177e+3, 2.7327138e+2, -168480.55, -388250.56, -18812.89, -0.051658783, 0.3498582, -166881.75, 95088.86, 0.0, 10.001333, 9.998293 
2.1752468e+3, 2.8326908e+2, -37907.914, -326096.8, -127656.81, -0.06395262, 0.30833817, 10506.007, 174501.02, 0.0, 10.001721, 9.99789 
2.1752754e+3, 2.9326683e+2, 113273.36, -160457.72, -77293.984, 0.09626787, 0.21767028, 133590.95, 199610.0, 0.00000028754212, 10.001942, 9.998215 
2.1753055e+3, 3.0326998e+2, 132629.33, -88041.14, 28895.777, 0.16381074, 0.68377995, 136350.34, 136350.34, 0.0000061263827, 10.001561, 9.998589 
2.1753335e+3, 3.1326595e+2, 35275.965, -277101.5, 52682.93, -0.12109888, 0.31177542, 43921.727, 43921.727, 0.000027574106, 10.001522, 9.997251 
2.1848401e+3, 1.4324662e+2, -1839795.8, -1645593.5, 44058.844, 0.026378138, 0.1266598, -1636065.4, -99857.99, 0.34983045, 9.997517, 10.000288 
2.1848696e+3, 1.5324785e+2, -1695710.8, -1761041.1, -174348.8, 0.16337398, 0.3923278, -1550993.6, -112790.766, 0.2059314, 9.998937, 9.998132 
2.1848956e+3, 1.6324663e+2, -1685761.8, -1530258.4, -99271.12, 0.09535855, 0.39404857, -1481914.6, -141695.67, 0.09816949, 9.997579, 9.999719 
2.1849248e+3, 1.7324676e+2, -1300876.8, -1183259.0, -84994.27, 0.13758868, 0.31703126, -1138711.6, 103503.05, 0.036017943, 9.999164, 10.000634 
2.1849541e+3, 1.8324672e+2, -1159369.8, -1205632.5, -19441.568, 0.1208223, 0.30133578, -1152284.6, -8070.888, 0.009796201, 9.999977, 9.999446 
2.1849853e+3, 1.9324663e+2, -1158681.3, -1153285.1, 7911.555, 0.13820182, 0.31678122, -1147624.3, -101407.15, 0.0020521113, 9.999349, 9.999401 
2.1850157e+3, 2.0324634e+2, -1068410.8, -1058222.5, -53332.313, 0.16887943, 0.35062066, -1009741.56, -61520.73, 0.00020967671, 9.999271, 9.999446 
2.1850437e+3, 2.1324553e+2, -697619.1, -788622.8, -126913.67, 0.1119044, 0.26771057, -608297.0, 241929.31, 0.00000086887735, 10.001019, 9.999756 
2.1850723e+3, 2.2324483e+2, -588607.25, -813114.9, -62722.855, 0.06617934, 0.27361253, -572272.3, 179959.75, 0.0, 10.001606, 9.998652 
2.1851023e+3, 2.3324423e+2, -707253.0, -806700.44, -23063.4, 0.030170457, 0.31644687, -702164.56, -47925.285, 0.0, 10.00013, 9.998695 
2.185132e+3, 2.4324337e+2, -635088.0, -677809.56, -51809.887, 0.035323676, 0.34291893, -600408.2, -44160.18, 0.0, 9.999698, 9.999153 
2.1851611e+3, 2.5324214e+2, -262787.44, -397332.78, -98334.64, 0.063261844, 0.24145868, -210916.03, 247342.31, 0.0, 10.001412, 9.99955 
2.1851899e+3, 2.6324186e+2, -130198.91, -408745.5, -45313.418, 0.06925741, 0.29775336, -123012.8, 237247.88, 0.0, 10.002141, 9.998485 
2.1852192e+3, 2.7324164e+2, -185334.67, -378818.22, -14883.288, -0.00892195, 0.40493596, -184196.5, 78067.88, 0.0, 10.001122, 9.998475 
2.1852483e+3, 2.8323978e+2, -117506.34, -308420.28, -37083.39, -0.023131423, 0.36910948, -110556.23, 53727.734, 0.0, 10.000897, 9.998428 
2.1852766e+3, 2.932369e+2, 175301.3, -89514.664, -65836.234, 0.04411775, 0.17748223, 190765.84, 257078.14, 0.000000027227998, 10.002164, 9.998611 
2.1853079e+3, 3.0324015e+2, 307486.44, -120638.67, 38017.54, 0.2098271, 0.67244905, 310836.2, 310836.2, 0.0000044959556, 10.003178, 9.997634 
2.1853366e+3, 3.132352e+2, 342640.75, 3374.2268, -92050.49, -0.0042665745, 0.34188345, 366006.8, 366006.8, 0.000025056477, 10.002927, 9.998575 
2.1948369e+3, 1.4321536e+2, -1582823.0, -1224592.0, 252530.14, -0.142023, 0.15338257, -1094104.8, 442414.1, 0.371045, 9.997642, 10.004518 
2.1948706e+3, 1.5321766e+2, -1667436.3, -1734139.3, -239547.77, 0.31828645, 0.49782383, -1458929.5, -20430.92, 0.22535217, 9.999078, 9.998253 
2.1948916e+3, 1.6321349e+2, -1644621.4, -1475330.0, -105439.75, -0.12452059, 0.14516261, -1424763.3, -84221.31, 0.113554515, 9.997719, 10.000026 
2.194924e+3, 1.7321616e+2, -1338250.4, -1256183.0, -13534.841, 0.11149194, 0.36920518, -1254008.5, -11492.442, 0.046104282, 9.999157, 10.000115 
2.1949542e+3, 1.8321733e+2, -1115430.9, -1132370.9, -37119.438, 0.068841755, 0.48512548, -1085827.4, 58676.86, 0.015073848, 10.000054, 9.999918 
2.194984e+3, 1.932164e+2, -1114194.8, -1049744.9, -13138.576, 0.016587403, 0.34922257, -1047169.4, -658.2299, 0.004138987, 9.999306, 10.000134 
2.1950136e+3, 2.032155e+2, -1149724.1, -1186735.6, -23007.736, 0.0075182524, 0.31045392, -1138703.3, -190183.61, 0.00072646124, 9.999102, 9.998643 
2.1950434e+3, 2.1321458e+2, -817303.44, -973095.3, -51201.67, -0.029838793, 0.32571092, -801982.5, 48549.574, 0.000022642807, 10.000751, 9.9986105 
2.195073e+3, 2.2321396e+2, -604671.06, -749430.9, -110769.91, -0.03832597, 0.3791717, -544730.06, 207809.5, 0.000000000011542125, 10.001189, 9.999288 
2.1951033e+3, 2.3321371e+2, -664853.25, -668477.0, -68603.414, 0.08544361, 0.35266602, -598037.75, 56501.777, 0.0, 9.999912, 9.999746 
2.1951328e+3, 2.4321318e+2, -720941.3, -750465.06, -22560.965, 0.096168645, 0.36273587, -708741.94, -152197.94, 0.0, 9.999261, 9.998857 
2.1951616e+3, 2.5321168e+2, -343364.1, -503535.6, -18832.34, -0.051574074, 0.28793573, -341179.66, 117381.52, 0.0, 10.001151, 9.998944 
2.1951906e+3, 2.6321107e+2, -163586.02, -354815.4, -81182.33, -0.1217132, 0.32293174, -133770.48, 226797.63, 0.0, 10.001636, 9.999082 
2.1952207e+3, 2.7321154e+2, -162244.0, -258451.48, -38121.082, 0.0005508213, 0.4022972, -148970.33, 113590.26, 0.0, 10.000837, 9.999418 
2.1952498e+3, 2.8321064e+2, -172421.48, -313791.8, -22158.63, -0.002950316, 0.3941201, -169029.69, -4462.2925, 0.0, 10.000459, 9.998591 
2.1952774e+3, 2.9320705e+2, 108248.97, -143619.45, 6719.5425, -0.14519523, 0.13658182, 108428.11, 175029.2, 0.000000020729713, 10.001807, 9.998407 
2.195308e+3, 3.0320638e+2, 95444.37, -356976.38, 36437.195, -0.14604104, 0.32507208, 98360.164, 98360.164, 0.0000055230016, 10.0023575, 9.99637 
2.1953405e+3, 3.1320345e+2, 235003.36, 65763.055, -78539.41, 0.03347686, 0.28169045, 265834.53, 265834.53, 0.000029811183, 10.001803, 9.999492 
2.2048342e+3, 1.431824e+2, -1535103.6, -1224750.9, 303639.4, -0.17497553, 0.14147715, -1038933.7, 497911.56, 0.39437363, 9.998266, 10.004413 
2.2048691e+3, 1.5318574e+2, -1671199.0, -1606470.3, -294498.1, 0.30982676, 0.5369359, -1342563.5, 96248.17, 0.24751917, 9.99857, 9.999492 
2.2048907e+3, 1.6318196e+2, -1243089.0, -1262448.1, -134216.55, -0.09980898, 0.1290132, -1118203.5, 222646.14, 0.13222682, 10.00046, 10.0002985 
2.2049236e+3, 1.7318466e+2, -1229740.8, -1244962.9, -52382.47, 0.117776476, 0.3765317, -1184419.3, 58405.08, 0.059555795, 10.000017, 9.999831 
2.2049546e+3, 1.8318577e+2, -1207433.0, -1185328.4, -69015.305, 0.14616203, 0.509365, -1126486.0, 18327.672, 0.023171267, 9.99945, 9.999857 
2.2049837e+3, 1.9318461e+2, -993193.6, -995942.3, -130951.74, 0.03440316, 0.3539963, -863609.0, 183214.42, 0.008108057, 10.000156, 10.00012 
2.2050132e+3, 2.0318384e+2, -972391.25, -1079992.8, -108043.766, 0.0030290924, 0.32455906, -905494.1, 43337.11, 0.0021629941, 10.000223, 9.998845 
2.2050437e+3, 2.1318355e+2, -989682.4, -1032922.0, -56167.008, -0.0022557392, 0.38261178, -951117.9, -100279.83, 0.00023583506, 9.999444, 9.99884 
2.2050737e+3, 2.2318317e+2, -865398.44, -823299.4, -56983.766, 0.041142285, 0.42783982, -783601.6, -30758.184, 0.0000019906881, 9.999172, 9.99976 
2.2051038e+3, 2.3318294e+2, -595248.8, -582464.1, -90748.53, 0.14383228, 0.3548618, -497883.06, 156959.5, 0.0, 10.000151, 10.000239 
2.2051333e+3, 2.4318267e+2, -523816.03, -634667.9, -6835.082, 0.1674303, 0.35881713, -523396.16, 33447.973, 0.0, 10.000511, 9.999056 
2.205162e+3, 2.531822e+2, -537519.4, -566869.06, 20723.059, -0.028023878, 0.36970207, -526801.4, -67949.59, 0.0, 9.999744, 9.999164 
2.2051914e+3, 2.6318178e+2, -416649.72, -479120.22, -547.45496, -0.10280045, 0.40866327, -416644.9, -55787.74, 0.0, 9.999892, 9.999075 
2.2052221e+3, 2.7318093e+2, 5396.555, -196737.67, -47476.426, 0.020000864, 0.3688239, 15992.204, 278853.97, 0.0, 10.00203, 9.999288 
2.2052519e+3, 2.8318006e+2, 190433.36, -133272.03, -70880.56, 0.07537685, 0.36541435, 205273.48, 370141.22, 0.0, 10.002923, 9.998644 
2.2052795e+3, 2.9317743e+2, 95249.99, -138870.77, -98305.77, -0.06610431, 0.21284704, 131052.81, 197944.73, 0.00000007580395, 10.001676, 9.998505 
2.20531e+3, 3.031754e+2, -34667.305, -407935.0, 67819.06, -0.11086136, 0.23869331, -22727.188, -22727.188, 0.0000083740215, 10.001362, 9.996531 
2.2053455e+3, 3.1317356e+2, 459491.63, 247607.5, -80794.0, 0.30821514, 0.32448298, 486783.9, 486783.9, 0.000042885644, 10.002966, 10.000189 
2.2148357e+3, 1.4315352e+2, -1794733.5, -1702035.1, 216219.7, 0.04071502, 0.6752139, -1527252.6, 9877.549, 0.4221777, 9.998252, 9.999557 
2.2148652e+3, 1.531515e+2, -1535329.6, -1346279.4, -144711.17, 0.016882602, 0.4746418, -1267956.9, 171191.67, 0.27423543, 9.998548, 10.001515 
2.2148924e+3, 1.63152e+2, -1192727.6, -1203809.4, -135264.95, -0.0544711, 0.37767303, -1062890.1, 278252.84, 0.15564767, 10.000697, 10.000647 
2.2149229e+3, 1.7315222e+2, -1215614.5, -1218835.3, -72005.58, 0.0029165787, 0.35041794, -1145201.3, 97938.266, 0.07778218, 10.000047, 10.000004 
2.2149546e+3, 1.8315198e+2, -1249186.4, -1285883.4, -72221.086, 0.15447785, 0.36814463, -1193019.4, -47876.8, 0.035576556, 9.999505, 9.999141 
2.2149844e+3, 1.9315118e+2, -1069980.3, -1125609.5, -94235.56, 0.058870118, 0.333228, -999540.2, 47614.56, 0.0154146915, 10.000036, 9.999279 
2.2150134e+3, 2.031512e+2, -917348.9, -925863.4, -136863.31, -0.041343715, 0.38393217, -784676.6, 164480.52, 0.005714695, 10.000045, 9.999992 
2.2150438e+3, 2.1315233e+2, -906948.6, -814439.3, -74741.84, 0.041803792, 0.42929667, -772797.2, 78348.445, 0.0013616167, 9.99924, 10.000437 
2.2150737e+3, 2.2315268e+2, -917767.3, -834753.0, -47089.48, 0.08616725, 0.44899145, -813488.7, -60346.996, 0.00013056793, 9.998757, 9.99988 
2.2151032e+3, 2.3315167e+2, -643851.56, -621815.3, -39079.594, 0.07119113, 0.30952153, -592230.3, 62920.273, 0.0000045921656, 9.999881, 10.0001 
2.2151329e+3, 2.4315165e+2, -557623.0, -584732.9, -45456.97, 0.038012087, 0.3249337, -523743.0, 33407.246, 0.000000030624218, 10.00002, 9.999624 
2.215162e+3, 2.5315338e+2, -521032.9, -468935.5, 1053.8159, -0.0078021986, 0.47499177, -468914.2, -9780.729, 0.0, 9.999486, 9.999951 
2.2151919e+3, 2.631533e+2, -527088.9, -604378.5, 40083.34, -0.07705891, 0.53437066, -510055.2, -148921.11, 0.0, 9.999471, 9.998409 
2.2152235e+3, 2.7314976e+2, -113530.734, -358115.53, 44927.977, -0.09218263, 0.30768827, -105539.0, 157629.28, 0.0, 10.001682, 9.998334 
2.2152542e+3, 2.83148e+2, 65846.6, -239039.63, -115895.484, -0.044055488, 0.29174474, 104899.36, 270084.53, 0.0, 10.002294, 9.998204 
2.2152832e+3, 2.9314756e+2, 37175.0, -173999.66, -124224.76, 0.08155129, 0.3695792, 94622.86, 161811.73, 0.00000027397763, 10.00133, 9.998416 
2.2153127e+3, 3.031463e+2, -23339.854, -231932.4, 88920.97, -0.03026814, 0.40385264, 9420.981, 9420.981, 0.000015050563, 10.000757, 9.998 
2.2153482e+3, 3.131436e+2, 260884.52, 117693.16, 149078.61, 0.21626325, 0.2406214, 354668.3, 354668.3, 0.00007034586, 10.0018215, 9.999816 
2.2248323e+3, 1.4311431e+2, -1604535.1, -1439868.0, 40192.12, -0.16500258, 0.28174454, -1430581.5, 106924.586, 0.45833316, 9.99845, 10.001747 
2.2248638e+3, 1.5311705e+2, -1364919.5, -1277358.1, -26500.81, -0.033345614, 0.19356564, -1269962.3, 169519.53, 0.30885017, 9.999851, 10.00148 
2.2248931e+3, 1.6312037e+2, -1503590.0, -1384339.3, -94877.44, 0.07110879, 0.42136797, -1331907.0, 9543.433, 0.18666483, 9.9985285, 10.000289 
2.2249229e+3, 1.7311965e+2, -1249172.3, -1197027.1, -57355.605, 0.045639858, 0.27372822, -1160096.3, 83359.445, 0.103338934, 9.999647, 10.000353 
2.2249548e+3, 1.831193e+2, -1228883.1, -1276820.9, -15109.914, 0.22639878, 0.2566572, -1224518.0, -79058.31, 0.054786276, 9.99963, 9.999152 
2.2249839e+3, 1.9311929e+2, -1245054.0, -1217624.3, 790.35693, 0.084930204, 0.30820897, -1217601.5, -170135.7, 0.028543482, 9.998839, 9.999219 
2.2250126e+3, 2.031198e+2, -1131223.0, -982546.8, -2262.9553, -0.015741287, 0.3871779, -982512.4, -33047.62, 0.013685946, 9.998375, 10.000404 
2.2250435e+3, 2.1312106e+2, -927592.3, -769447.2, -50964.93, 0.11123226, 0.39905673, -754445.9, 97005.08, 0.005262215, 9.99887, 10.000932 
2.2250737e+3, 2.231216e+2, -845452.4, -821077.7, -24520.299, 0.19138968, 0.41551617, -805883.0, -52437.973, 0.001420654, 9.999311, 9.999717 
2.2251031e+3, 2.3312081e+2, -707384.6, -683080.94, -43036.313, 0.07603815, 0.32581288, -650513.75, 4939.6094, 0.0002619265, 9.999549, 9.999848 
2.2251326e+3, 2.4312074e+2, -551871.6, -583315.9, -56936.24, 0.023326706, 0.35321137, -508526.66, 48927.457, 0.000035642544, 10.000054, 9.999627 
2.2251631e+3, 2.5312206e+2, -224382.44, -319543.38, -82041.8, 0.056138083, 0.4544035, -177122.2, 282317.3, 0.0000011567587, 10.001447, 10.000061 
2.2251935e+3, 2.6312172e+2, -204926.81, -476905.8, -40298.137, 0.047993135, 0.49573982, -199081.61, 162360.48, 0.0, 10.001786, 9.99818 
2.2252244e+3, 2.7311844e+2, -308319.72, -476390.66, -32048.307, -0.060156528, 0.3295426, -302416.03, -38939.406, 0.0, 10.000483, 9.998098 
2.2252554e+3, 2.831169e+2, -258157.2, -368069.22, -122034.07, -0.017746776, 0.34245107, -179275.7, -13783.116, 0.0, 9.99993, 9.998476 
2.2252855e+3, 2.9311645e+2, 113176.164, -93420.305, -123383.98, 0.18132323, 0.3967179, 170794.47, 238290.39, 0.00000073017384, 10.00167, 9.998805 
2.2253165e+3, 3.0311635e+2, 304026.25, -27836.922, 91632.125, 0.1828272, 0.4852422, 327646.06, 327646.06, 0.00002755439, 10.00278, 9.998453 
2.2253491e+3, 3.1311184e+2, 276123.56, 122742.83, -56027.848, 0.14798339, 0.16337967, 294409.7, 294409.7, 0.000118261974, 10.001869, 9.999878 
2.2348641e+3, 1.5308312e+2, -1552324.6, -1562727.8, -173599.48, -0.026400864, -0.21672124, -1383848.9, 55954.93, 0.35698506, 9.999583, 9.9992075 
2.2348925e+3, 1.6308616e+2, -1592578.0, -1572313.6, -89503.1, 0.073537044, 0.1732921, -1492371.1, -150589.83, 0.23053116, 9.998537, 9.998983 
2.2349235e+3, 1.730866e+2, -1230653.9, -1147573.0, -16200.28, 0.114643045, 0.12312506, -1144525.9, 99249.86, 0.14104874, 9.999556, 10.000793 
2.2349541e+3, 1.8308768e+2, -1179290.9, -1169981.3, -50907.93, 0.14213964, 0.17568775, -1123515.9, 22249.564, 0.08532412, 9.999619, 9.999897 
2.234982e+3, 1.9308898e+2, -1208624.8, -1117149.8, -22888.654, -0.025893493, 0.2849357, -1111742.3, -63985.16, 0.05187056, 9.998732, 9.999964 
2.2350106e+3, 2.0308976e+2, -1191015.1, -1054986.9, -7768.431, -0.12350084, 0.3662917, -1054544.6, -104791.84, 0.030293982, 9.998157, 10.000011 
2.2350423e+3, 2.1308956e+2, -1000037.5, -867507.6, -23066.342, 0.07394274, 0.28588575, -863607.8, -11851.857, 0.015773455, 9.998643, 10.000364 
2.235073e+3, 2.2308971e+2, -941226.44, -911504.94, -25141.063, 0.16073075, 0.31499007, -897161.0, -143405.13, 0.0069356123, 9.99886, 9.999303 
2.235102e+3, 2.330903e+2, -763396.94, -745990.56, -19899.4, 0.0037448714, 0.39125836, -732974.4, -77222.54, 0.002541045, 9.99932, 9.999518 
2.2351316e+3, 2.4309e+2, -668477.9, -714837.56, -30540.305, -0.09751099, 0.44845995, -653316.94, -95561.77, 0.00075579167, 9.999597, 9.998933 
2.2351645e+3, 2.530884e+2, -311392.1, -422751.47, -16717.398, 0.016544716, 0.310528, -308936.63, 150831.53, 0.00014769337, 10.001118, 9.999502 
2.2351955e+3, 2.630872e+2, -306517.34, -541521.94, -98948.64, 0.042445783, 0.3058597, -270404.47, 91375.1, 0.000007045108, 10.001187, 9.998007 
2.2352253e+3, 2.730868e+2, -348182.22, -485936.56, -71209.31, -0.04866632, 0.41529322, -317989.56, -54201.016, 0.00000000065814787, 10.000177, 9.998165 
2.235255e+3, 2.8308627e+2, -296651.34, -308488.78, -111192.945, -0.0854825, 0.48730272, -191219.7, -25423.938, 0.0, 9.999377, 9.999127 
2.2352861e+3, 2.9308417e+2, 69764.766, -48935.676, -37688.21, 0.04939676, 0.29099688, 80719.95, 148533.22, 0.0000012574419, 10.001132, 9.999345 
2.2353198e+3, 3.030848e+2, 63760.14, -292887.1, 49908.55, 0.19272588, 0.4903959, 70612.59, 70612.59, 0.000044073433, 10.001834, 9.997062 
2.2353494e+3, 3.1308118e+2, 76082.91, 21061.514, 2575.6038, -0.07910999, 0.3949854, 76203.21, 76203.21, 0.00018419352, 10.00063, 9.999737 
2.2448659e+3, 1.5305938e+2, -1465528.4, -1851359.0, -125063.086, 0.07224247, 0.29549778, -1428537.0, 11494.253, 0.42759266, 10.001557, 9.996044 
2.2448944e+3, 1.6305539e+2, -1028683.6, -1295108.1, 22885.967, 0.16932921, 0.11273215, -1026732.0, 315348.28, 0.29616648, 10.003473, 9.998656 
2.2449239e+3, 1.7305632e+2, -1074816.8, -1132304.8, -2211.9805, 0.13080111, 0.16812661, -1074731.8, 169339.78, 0.19952731, 10.001192, 10.000201 
2.244953e+3, 1.830575e+2, -1212639.6, -1147378.9, -66639.47, 0.13613255, 0.25317848, -1105809.8, 40251.4, 0.13536815, 9.999215, 10.000262 
2.2449814e+3, 1.93059e+2, -1066808.0, -989877.75, -74282.82, 0.05021043, 0.32266667, -944691.8, 103357.875, 0.09319166, 9.999427, 10.00057 
2.2450104e+3, 2.0305969e+2, -1038303.25, -1068415.9, -33117.574, 0.026447628, 0.38801765, -1016980.1, -66934.02, 0.06306426, 9.999522, 9.999294 
2.2450417e+3, 2.1305837e+2, -952158.25, -964883.5, -106510.14, 0.14342532, 0.30717707, -851820.9, 241.38033, 0.0400799, 9.999462, 9.999324 
2.2450726e+3, 2.2305766e+2, -806095.2, -854192.94, -79432.03, 0.19584045, 0.32182527, -747151.3, 6920.2217, 0.023131557, 9.999788, 9.99927 
2.2451028e+3, 2.3305854e+2, -546527.0, -611369.6, -70188.875, 0.10089339, 0.40240556, -501633.25, 154430.36, 0.011994159, 10.000685, 9.999798 
2.2451335e+3, 2.4305812e+2, -460008.75, -674167.2, -32194.787, 0.06274486, 0.45566493, -455273.53, 102793.98, 0.0054928027, 10.001221, 9.998461 
2.2451657e+3, 2.5305563e+2, -406206.88, -531279.6, -44563.387, 0.07169712, 0.28836113, -391953.3, 68136.74, 0.002050329, 10.000716, 9.998964 
2.2451966e+3, 2.630541e+2, -438609.66, -585121.4, -116740.805, 0.08279363, 0.28462675, -374043.75, -11939.156, 0.0004876709, 10.000173, 9.99821 
2.2452268e+3, 2.730546e+2, -199127.0, -350681.97, -75409.81, 0.06040391, 0.4395303, -167998.6, 96104.51, 0.000047167257, 10.000916, 9.998753 
2.2452563e+3, 2.8305453e+2, -45199.156, -173841.67, -67414.445, 0.05902046, 0.5068849, -16343.532, 149761.6, 0.00000034188096, 10.001021, 9.999274 
2.2452872e+3, 2.9305148e+2, 107303.164, -62406.06, -85575.24, 0.03910868, 0.25158855, 142961.73, 211093.92, 0.0000013302117, 10.001473, 9.999118 
2.2453213e+3, 3.030514e+2, 8420.482, -350511.97, 11357.966, 0.20504944, 0.38991407, 8779.532, 8779.532, 0.0000584347, 10.001518, 9.996831 
2.2453523e+3, 3.1304982e+2, 202856.45, 201408.0, -84535.69, 0.15148753, 0.5540858, 286671.0, 286671.0, 0.00025945, 10.000866, 10.000875 
2.2548972e+3, 1.6302921e+2, -1126601.4, -1343854.4, -24969.889, 0.002165645, 0.3732852, -1123768.4, 218567.42, 0.39765337, 10.00298, 9.998409 
2.2549239e+3, 1.7302865e+2, -1186932.9, -1355205.0, -96654.83, -0.062446747, 0.40653503, -1142924.4, 101420.55, 0.29298013, 10.001161, 9.998528 
2.2549519e+3, 1.8302841e+2, -1281933.1, -1221610.5, -126710.87, -0.015041209, 0.46706006, -1121520.8, 24829.621, 0.21888196, 9.998935, 9.999867 
2.2549824e+3, 1.9302885e+2, -1084375.4, -966298.5, -62594.54, 0.16008918, 0.39261606, -939292.7, 109055.79, 0.16615056, 9.999143, 10.000918 
2.2550124e+3, 2.0302925e+2, -1169476.6, -1258250.0, -44436.0, 0.20818032, 0.43313155, -1151056.3, -200708.25, 0.12546477, 9.999181, 9.998133 
2.2550415e+3, 2.1302731e+2, -1096697.4, -1209354.8, -97280.484, 0.1456187, 0.4330495, -1040614.25, -188242.45, 0.0914258, 9.999241, 9.997728 
2.2550716e+3, 2.2302553e+2, -873765.2, -891435.44, -61853.523, 0.0778989, 0.43755227, -820119.0, -65727.25, 0.062582165, 9.999345, 9.999228 
2.2551052e+3, 2.3302539e+2, -542826.1, -539920.94, -23193.648, 0.2391819, 0.35572255, -518134.44, 138255.69, 0.039919913, 10.000409, 10.000452 
2.2551373e+3, 2.4302492e+2, -601934.3, -785188.9, -63135.047, 0.27209994, 0.38341773, -582289.0, -23896.262, 0.023601582, 10.00046, 9.998048 
2.2551665e+3, 2.530236e+2, -497507.72, -627754.1, -56434.07, 0.059070583, 0.37172812, -476457.63, -16051.545, 0.012405956, 10.000344, 9.998463 
2.2551955e+3, 2.6302215e+2, -504267.0, -581307.6, -133949.22, -0.051936764, 0.40930152, -403409.4, -40989.477, 0.005154125, 9.999607, 9.998494 
2.255228e+3, 2.730218e+2, -202291.88, -233073.45, -35945.37, 0.08481806, 0.37421465, -178580.92, 85840.59, 0.0013586987, 10.000415, 9.9997835 
2.2552586e+3, 2.830215e+2, -229561.42, -357751.88, -96263.43, 0.1314359, 0.39143232, -178006.98, -11584.017, 0.00015517221, 10.0002165, 9.998375 
2.255288e+3, 2.9301873e+2, -44595.176, -247060.02, -44937.54, -0.033345144, 0.28558007, -35069.367, 33380.55, 0.0000026982873, 10.00099, 9.99804 
2.2553201e+3, 3.0301663e+2, -71367.82, -337744.5, -37044.957, -0.13226703, 0.24277355, -66311.945, -66311.945, 0.000065484004, 10.000816, 9.99723 
2.2553542e+3, 3.1301463e+2, 160674.8, 373293.78, 99152.766, 0.18894665, 0.31402782, 412356.16, 412356.16, 0.00034262822, 9.999835, 10.002533 
2.264924e+3, 1.7299575e+2, -1209078.5, -1591940.5, -45006.945, -0.16197072, -0.15380512, -1203858.9, 40796.08, 0.44342524, 10.001243, 9.996996 
2.2649522e+3, 1.8299912e+2, -1404531.0, -1667729.3, 158590.97, 0.051914316, 0.23223703, -1330049.0, -183417.55, 0.3585124, 9.999552, 9.996523 
2.2649814e+3, 1.9299702e+2, -1312651.3, -1426197.6, -90770.03, 0.15359771, 0.28477362, -1262361.9, -213702.72, 0.29413474, 9.9991255, 9.997586 
2.2650108e+3, 2.0299506e+2, -1041579.1, -1207332.8, -138298.77, 0.08705635, 0.2777062, -963225.94, -12541.397, 0.24160613, 9.999953, 9.998175 
2.2650383e+3, 2.1299376e+2, -707198.3, -948468.9, -60417.668, -0.22355095, 0.3006372, -692914.44, 159786.5, 0.1940874, 10.00183, 9.998333 
2.2650693e+3, 2.2299294e+2, -411831.7, -678683.0, 44254.234, -0.2505419, 0.36666942, -404684.1, 350026.9, 0.14888066, 10.002978, 9.999058 
2.2651054e+3, 2.3299325e+2, -453726.7, -561614.1, -35639.81, 0.17756028, 0.4018084, -443016.56, 213689.63, 0.108788945, 10.001445, 9.999865 
2.2651385e+3, 2.4299267e+2, -548206.4, -699958.6, -65294.273, 0.37082785, 0.44606775, -523979.9, 34730.254, 0.07581198, 10.000497, 9.998647 
2.2651672e+3, 2.5299186e+2, -312327.1, -443712.16, 10957.832, 0.07167852, 0.3950064, -311419.47, 149297.84, 0.048806984, 10.001142, 9.999422 
2.2651953e+3, 2.6299033e+2, -260112.19, -505437.75, 8188.3896, -0.11705991, 0.38339707, -259839.17, 102891.99, 0.026684597, 10.001386, 9.998202 
2.265228e+3, 2.7298814e+2, -40313.434, -234456.77, -30841.078, -0.0017776171, 0.22726509, -35531.87, 229218.31, 0.010897145, 10.001781, 9.999169 
2.2652587e+3, 2.8298712e+2, -162339.27, -352154.1, -137209.55, 0.13377795, 0.22635257, -90411.8, 76346.9, 0.002788968, 10.000745, 9.998192 
2.2652908e+3, 2.9298702e+2, 221840.39, -105455.805, 24920.24, 0.056259952, 0.401587, 223726.94, 292487.56, 0.0003034348, 10.002787, 9.998159 
2.2653225e+3, 3.0298454e+2, 291113.8, -234973.03, 4971.0986, -0.08069817, 0.29450566, 291160.78, 291160.78, 0.000074942734, 10.003657, 9.99659 
2.2653565e+3, 3.129791e+2, 318913.7, 166397.5, -73979.14, 0.30971134, 0.28733817, 348901.6, 348901.6, 0.00045627946, 10.001989, 10.000191 
2.2750108e+3, 2.029612e+2, -990764.44, -1260166.1, 49187.77, 0.023062998, 0.3817129, -982064.6, -31048.756, 0.4526298, 10.000671, 9.997399 
2.2750425e+3, 2.1296234e+2, -908462.3, -803127.3, 29081.316, -0.003833149, 0.38682535, -795631.8, 57372.668, 0.38963944, 9.999007, 10.000811 
2.2750774e+3, 2.2296341e+2, -1412330.8, -1303683.9, -64732.01, 0.20611668, 0.48849905, -1273501.4, -518506.44, 0.32267725, 9.996286, 9.997841 
2.2751077e+3, 2.329618e+2, -1177603.4, -1117709.0, -87267.89, 0.23879033, 0.48433578, -1055392.9, -398378.3, 0.25840095, 9.997248, 9.997911 
2.2751375e+3, 2.4295998e+2, -725323.44, -746101.5, -57203.17, 0.10819146, 0.5217879, -677573.56, -118539.97, 0.20062341, 9.999125, 9.998954 
2.275168e+3, 2.529601e+2, -310868.34, -213180.14, 44277.582, -0.01949998, 0.2998605, -196098.16, 264929.22, 0.14660953, 10.000195, 10.001695 
2.2751953e+3, 2.6295897e+2, -670940.44, -920107.5, -24577.28, -0.3240066, 0.26572466, -668539.3, -305504.5, 0.09444842, 9.999523, 9.996207 
2.275227e+3, 2.7295455e+2, -290695.72, -599455.7, -16631.787, -0.32643878, 0.06664111, -289802.4, -24723.025, 0.04983968, 10.00114, 9.996919 
2.2752571e+3, 2.829522e+2, -345794.2, -463555.34, -199926.72, -0.16894753, 0.079444766, -196257.83, -29153.84, 0.019500945, 9.999646, 9.99792 
2.2752938e+3, 2.9295617e+2, 165811.94, -23065.484, 114738.72, 0.040583774, 0.5340624, 219978.89, 289044.78, 0.004786881, 10.002, 9.999069 
2.2753267e+3, 3.0295452e+2, -87412.21, -672388.0, -108049.84, -0.08241416, 0.51348305, -68092.58, -68092.58, 0.0007184054, 10.002277, 9.994193 
2.2753562e+3, 3.1294462e+2, -424571.78, -908164.3, -3931.21, 0.028235724, 0.38339648, -424539.8, -424539.8, 0.0007782504, 10.000206, 9.99356 
2.2851375e+3, 2.4292174e+2, -397524.28, -1146287.9, 7300.0674, -0.19243608, 0.101070434, -397453.13, 161953.63, 0.45869297, 10.004001, 9.994449 
2.2851701e+3, 2.5292796e+2, -741317.75, -286353.44, -348138.78, 0.37444445, 0.5931465, -97964.53, 363384.6, 0.36361384, 9.996257, 10.004048 
2.2852041e+3, 2.6293182e+2, -1050220.0, -884155.5, -134294.61, 0.73706454, 0.8340339, -809297.3, -445986.47, 0.26167566, 9.995702, 9.998393 
2.2852363e+3, 2.7292913e+2, 45748.582, -274205.5, 141956.86, 0.42876175, 0.6909158, 99650.945, 364983.4, 0.1640845, 10.003112, 9.99839 
2.285261e+3, 2.8292412e+2, 166481.23, -305767.53, -49066.293, 0.0689488, 0.42376024, 171525.31, 338904.75, 0.0825175, 10.003664, 9.997142 
2.2852963e+3, 2.9292193e+2, 329247.66, -81396.86, 213819.52, 0.049108543, 0.38589337, 420364.28, 489767.53, 0.030766618, 10.0035925, 9.998022 
2.2853322e+3, 3.0292147e+2, 329432.53, -3439.087, -50603.555, 0.23648612, 0.38697606, 336955.34, 336955.34, 0.009050352, 10.002922, 9.998569 
2.2853544e+3, 3.1292036e+2, -192432.98, -73702.695, 229872.53, -0.07713598, 0.64242953, 104346.58, 104346.58, 0.003966894, 9.998629, 10.00004 
2.2952308e+3, 2.7289093e+2, 268719.16, 260707.6, -412612.6, -0.4959164, 0.047701884, 677345.44, 943059.7, 0.434636, 10.0043335, 10.004013 
2.295268e+3, 2.8289974e+2, -1383924.5, -1657103.3, -452367.03, 0.3158247, 0.9233295, -1047975.44, -880359.44, 0.25417897, 9.995473, 9.991714 
2.2952989e+3, 2.9288855e+2, -128648.555, -646765.3, 310037.13, -0.16550651, 0.06881838, 16315.682, 86046.805, 0.12179153, 10.0020685, 9.994709 
2.2953388e+3, 3.0288988e+2, -296147.2, 160389.69, -194344.72, 0.42764342, 0.30797225, 231915.1, 231915.1, 0.05412628, 9.996767, 10.00259 
2.295354e+3, 3.1290355e+2, 395590.75, 1910143.6, -199479.28, -0.19043542, 0.50712144, 1935976.1, 1935976.1, 0.03180154, 9.995559, 10.015367 
2.3053052e+3, 2.928591e+2, -717143.6, 744347.94, -487689.97, 0.43362868, 0.048865404, 892141.25, 962156.6, 0.36237544, 9.98835, 10.014945 
2.3053364e+3, 3.028789e+2, 508802.8, 173152.94, 552814.8, -0.59721303, 0.5531481, 918705.7, 918705.7, 0.21718898, 10.004453, 9.999714 
2.3053633e+3, 3.1286448e+2, -101872.74, -1791400.9, -138533.22, 0.41331956, 0.14840004, -90589.05, -90589.05, 0.1706017, 10.005945, 9.985536 
2.344674e+3, 2.77005e+2, -330789.9, -2066164.4, -1553772.9, 0.15150768, 0.43585536, 581155.2, 806526.2, 0.49032646, 10.010847, 9.982579 
2.3443176e+3, 2.8699622e+2, -243474.94, 252334.42, -1367275.8, 0.41726562, 0.12914483, 1393997.9, 1521456.9, 0.4642483, 9.998557, 10.007813 
2.35813e+3, 1.774374e+2, -724854.2, -1444515.8, 87747.01, -0.0032947867, 0.43887028, -714309.8, 486844.4, 0.43655062, 10.007774, 9.993886 
2.3577797e+3, 1.8742563e+2, -699898.5, -898641.2, 119039.54, -0.50710243, 0.21077129, -644205.1, 459057.78, 0.37771165, 10.004016, 9.999497 
2.3574373e+3, 1.974239e+2, -1799869.5, -1543702.4, 58436.063, 0.2281994, 0.4850735, -1531001.8, -525728.06, 0.33362412, 9.994548, 9.998235 
2.3570882e+3, 2.0740862e+2, -1646490.8, -1340189.4, 21037.094, -0.65038055, -0.3061019, -1338751.3, -431324.34, 0.30109423, 9.994846, 9.998672 
2.3567536e+3, 2.1740599e+2, -1539907.8, -1500140.9, 214199.5, -0.06842743, 0.019705402, -1304904.0, -495443.5, 0.27833626, 9.995476, 9.996937 
2.3564067e+3, 2.2740339e+2, -248725.52, -1087632.9, 2760.975, -0.2682145, 0.80807614, -248716.44, 462771.7, 0.26130962, 10.0064, 9.993763 
2.356058e+3, 2.3738752e+2, -458155.1, -1169901.9, 16097.932, -0.54241866, 0.25878575, -457791.2, 155851.63, 0.24582359, 10.003173, 9.994218 
2.3557156e+3, 2.473782e+2, -286916.06, -605420.1, 13466.466, 0.43626305, 0.30030686, -286347.72, 229383.36, 0.23020913, 10.002349, 9.99761 
2.3553596e+3, 2.573673e+2, -1496800.4, -994226.1, -67310.8, -0.044063237, -0.05736381, -985367.2, -567535.4, 0.2101145, 9.991852, 9.999491 
2.355004e+3, 2.6736605e+2, -75551.086, 399748.38, 168246.17, -0.61229324, -0.054323114, 453275.84, 773114.6, 0.17631675, 9.997986, 10.00654 
2.3546651e+3, 2.7736545e+2, -217380.17, -713931.8, 802274.3, -0.60192734, 0.1797525, 374156.47, 595999.1, 0.13459972, 10.0018425, 9.995523 
2.3543215e+3, 2.873573e+2, 1128827.6, 496745.7, 296124.78, 0.21247177, 0.2865533, 1245882.3, 1369804.5, 0.12527929, 10.009106, 10.000046 
2.3539875e+3, 2.9735237e+2, -84275.33, 149304.66, 727375.6, 1.0683036, -0.20370458, 769206.75, 795176.25, 0.18464886, 9.9985895, 10.002586 
2.35363e+3, 3.0734837e+2, -573676.9, -398641.97, -458818.3, -0.7695741, 0.10821548, -19068.902, -19068.902, 0.30937064, 9.997184, 9.998778 
2.3688073e+3, 1.5778458e+2, -1326551.3, -1801463.8, 149316.39, -0.20630847, 0.26694262, -1283506.5, 110250.266, 0.40917897, 10.001964, 9.995765 
2.36846e+3, 1.6778474e+2, -882073.6, -775711.4, 140239.6, -0.5107709, 0.79983413, -678907.94, 616846.6, 0.31914282, 10.001644, 10.003796 
2.368128e+3, 1.7778163e+2, -1728898.9, -1325107.6, -30400.523, 0.3447885, 0.6319108, -1322831.8, -125058.88, 0.25440118, 9.995081, 10.001007 
2.3677823e+3, 1.8777268e+2, -1309959.8, -1299874.1, -222935.98, 0.35967794, 0.42601818, -1081924.0, 17936.922, 0.20803176, 9.998553, 9.998727 
2.3674318e+3, 1.9776551e+2, -378193.28, -834437.5, -133609.95, 0.16404721, 0.37135625, -341945.72, 659989.3, 0.17323133, 10.005165, 9.998422 
2.3670872e+3, 2.0776159e+2, -287582.22, -586859.0, 109615.586, -0.14075284, 0.6333704, -251728.78, 652245.06, 0.14628568, 10.004291, 9.999909 
2.3667483e+3, 2.1775918e+2, -643361.1, -805187.7, 35037.516, 0.042281725, 0.949163, -636100.8, 169896.25, 0.12553912, 10.000921, 9.999083 
2.3664056e+3, 2.277504e+2, -757158.2, -898271.6, 41271.063, 0.13344535, 0.8100698, -745974.2, -37891.555, 0.108313076, 9.999738, 9.998251 
2.3660561e+3, 2.3773657e+2, -867834.44, -1021874.56, 18078.465, -0.16499092, 0.21033794, -865741.1, -255522.66, 0.092006706, 9.998724, 9.997286 
2.3657031e+3, 2.4773243e+2, -464746.44, -545663.1, -159762.19, -0.11660472, 0.56296206, -340399.34, 171866.28, 0.07587346, 10.000053, 9.999249 
2.3653555e+3, 2.5773045e+2, -210078.66, -563371.5, 100442.24, 0.41985282, 1.174998, -183519.27, 230774.17, 0.05916686, 10.00198, 9.997492 
2.365009e+3, 2.6772356e+2, 643243.56, 992146.9, 205367.22, 0.4231446, 0.73236585, 1087156.0, 1403507.9, 0.040475544, 10.002571, 10.007516 
2.3646684e+3, 2.777141e+2, -93141.016, -29392.377, 215620.56, 0.12786563, -0.28044197, 156697.06, 375126.22, 0.022771772, 10.0, 10.000663 
2.364318e+3, 2.8771263e+2, -206407.9, -584456.0, -265333.5, -0.05807453, 0.38947037, -69652.97, 50790.68, 0.018012924, 10.001084, 9.995497 
2.3639703e+3, 2.9771638e+2, -452241.44, -448717.88, 195883.88, -0.04254422, 1.3508265, -254587.86, -232174.83, 0.038591437, 9.997947, 9.997711 
2.3636326e+3, 3.0770105e+2, -384793.75, 49419.156, -174356.14, 0.46984982, 0.44850087, 110764.27, 110764.27, 0.085513875, 9.996681, 10.001671 
2.3791572e+3, 1.48137e+2, -1636304.9, -1767988.0, 12320.178, 0.3075731, 0.16669366, -1635162.1, -146863.2, 0.38968268, 9.999503, 9.997603 
2.3787996e+3, 1.5813498e+2, -1451494.6, -1778542.4, -20840.27, -0.7668746, 0.62574506, -1450172.0, -59850.965, 0.27836236, 10.00062, 9.996523 
2.3784566e+3, 1.6812538e+2, -1254780.6, -1138506.3, 42313.953, -0.44131237, 0.33505124, -1124737.9, 167669.48, 0.19862524, 9.999273, 10.000982 
2.3781177e+3, 1.7811652e+2, -1762133.9, -1583320.8, -61576.242, 0.23054278, -0.16918704, -1564167.8, -369683.84, 0.1461588, 9.996119, 9.998665 
2.3777744e+3, 1.881134e+2, -1336917.4, -1385044.1, 68863.84, 0.18330349, 0.281189, -1288033.6, -191510.31, 0.11113541, 9.998777, 9.997965 
2.3774311e+3, 1.9810992e+2, -765349.25, -1100165.5, 10571.028, 0.062037673, 0.62497854, -765015.8, 233555.19, 0.08556882, 10.002163, 9.99777 
2.3770875e+3, 2.0810305e+2, -535888.4, -629754.0, 18772.973, -0.0383407, 0.5393093, -532273.06, 368361.44, 0.065839775, 10.001842, 10.000486 
2.3767404e+3, 2.1809468e+2, -980940.0, -930091.06, -21936.791, -0.3825472, 0.17865774, -921935.4, -119228.09, 0.050802168, 9.998398, 9.999392 
2.376396e+3, 2.280902e+2, -856046.6, -541609.06, -11829.794, -0.27024102, 0.19925939, -541164.6, 163582.6, 0.03888462, 9.997508, 10.00174 
2.3760544e+3, 2.3808603e+2, -1160832.8, -957485.94, -30690.266, 0.20500149, 0.2252726, -952955.0, -346168.78, 0.028499532, 9.996039, 9.998994 
2.3756994e+3, 2.4808055e+2, -551365.06, -490134.63, -144849.9, 0.0034917304, 0.2958378, -372699.9, 136143.36, 0.019239584, 9.999165, 9.99994 
2.3753452e+3, 2.580734e+2, -488114.28, -772901.94, 112228.7, -0.3295698, 0.2716271, -449203.72, -38285.383, 0.01143259, 10.000478, 9.996719 
2.3750027e+3, 2.680689e+2, 46528.734, -43770.656, 74037.91, 0.03632977, 0.502657, 88097.586, 401058.53, 0.005417436, 10.001816, 10.000298 
2.3746656e+3, 2.7806333e+2, -494778.34, -575898.94, -38980.68, 0.33028275, 0.4542101, -479083.6, -264072.0, 0.0017240121, 9.998828, 9.997446 
2.3743105e+3, 2.8805235e+2, -38608.363, -218802.2, -364050.25, -0.40402913, 0.15600619, 246328.1, 363447.5, 0.000996496, 10.001019, 9.9980755 
2.3739593e+3, 2.9804733e+2, -193560.58, -217275.25, -8858.616, -0.872495, 0.08118612, -190616.84, -171447.52, 0.003778346, 9.999206, 9.998777 
2.3736323e+3, 3.0804405e+2, 400963.63, 615637.8, -21494.236, 0.49761558, 0.4067147, 617768.75, 617768.75, 0.011109815, 10.001252, 10.003469 
2.3894812e+3, 1.3849139e+2, -1880098.6, -2938072.0, 848112.44, -0.67643064, 0.3762752, -1409524.6, 173293.83, 0.42782646, 10.003531, 9.988432 
2.389144e+3, 1.484864e+2, -1412518.0, -1314442.0, -103636.54, -0.47362742, 0.6946431, -1248827.3, 236044.47, 0.2998544, 9.999425, 10.001391 
2.3887955e+3, 1.5847935e+2, -1459192.8, -1514448.1, -35860.234, -0.66898054, 0.4360349, -1441551.9, -54615.785, 0.19614406, 9.999212, 9.99912 
2.3884518e+3, 1.6847108e+2, -1118142.6, -1238786.8, 3540.59, -0.4114336, 0.26404655, -1118038.8, 170972.97, 0.12585048, 10.00096, 9.999416 
2.3881103e+3, 1.7846252e+2, -881561.0, -1221376.0, 7453.1694, -0.022936534, 0.014135133, -881397.6, 309693.06, 0.083471425, 10.00255, 9.998115 
2.3877686e+3, 1.8845716e+2, -914761.7, -1156130.8, 118682.32, 0.07574769, 0.2420466, -866182.4, 226970.22, 0.057587944, 10.001584, 9.998231 
2.3874265e+3, 1.9845228e+2, -1070703.0, -1201326.9, 87160.25, 0.04932712, 0.4742271, -1027099.5, -31886.451, 0.03970386, 9.999526, 9.998381 
2.3870806e+3, 2.0844598e+2, -842902.4, -729291.4, 28325.172, -0.19199997, 0.3954207, -722621.06, 174652.03, 0.026570952, 9.99923, 10.001024 
2.3867334e+3, 2.1843897e+2, -746182.9, -688001.4, 3025.0059, -0.47971687, 0.1595648, -687844.56, 111490.96, 0.017417854, 9.999366, 10.000624 
2.3863894e+3, 2.2843613e+2, -619813.3, -327488.47, -85836.05, -0.20575257, 0.2534676, -304147.84, 397211.25, 0.011141793, 9.998711, 10.002645 
2.3860471e+3, 2.3843335e+2, -764085.94, -618541.94, -137330.31, 0.26703805, 0.35636696, -535893.94, 67489.305, 0.0065593217, 9.998111, 10.000302 
2.3856938e+3, 2.4842645e+2, -331455.16, -333630.03, -221903.78, 0.019639686, 0.19777296, -110636.15, 394813.78, 0.0032030866, 10.000392, 10.000425 
2.3853408e+3, 2.5841814e+2, -209847.97, -576469.25, -17729.842, -0.39748043, -0.0074684364, -208992.55, 198538.84, 0.0011282732, 10.00208, 9.997269 
2.3849984e+3, 2.684139e+2, -213570.36, -517767.22, 80976.44, -0.05079646, 0.4228494, -193357.69, 116216.98, 0.00023273825, 10.001465, 9.997224 
2.38466e+3, 2.7840903e+2, -491297.03, -591894.94, 189780.81, 0.4046484, 0.74076056, -345262.75, -133638.6, 0.000018977813, 9.998808, 9.997351 
2.3843059e+3, 2.8839523e+2, -22376.941, 11248.272, 21158.936, -0.3506402, 0.034430485, 21460.92, 135218.58, 0.000039610317, 10.000123, 10.000071 
2.3839553e+3, 2.9838663e+2, -61802.914, -219963.3, 188415.16, -0.67632365, -0.39190057, 63454.72, 79293.984, 0.00031053094, 10.0003195, 9.998196 
2.3836282e+3, 3.0838677e+2, 254908.19, 509964.72, -270545.13, 0.6370694, 0.38684398, 681531.94, 681531.94, 0.0010092406, 10.000544, 10.00284 
2.399827e+3, 1.2883203e+2, -539176.94, -976955.44, 67049.55, 0.41756818, 0.49239513, -529137.94, 1148347.4, 0.49043742, 10.014114, 10.001611 
2.3994835e+3, 1.3882983e+2, -1708872.1, -1569866.1, 12300.6875, -0.35864863, 0.4325592, -1568786.0, 10717.941, 0.36336103, 9.998456, 10.000245 
2.399139e+3, 1.4882591e+2, -1575968.9, -1164709.1, -104975.95, -0.3347834, 0.31920537, -1139463.3, 342072.22, 0.24041095, 9.997258, 10.003483 
2.3987922e+3, 1.5882139e+2, -1580327.9, -1443534.1, -69874.99, -0.30999035, 0.07394764, -1414152.5, -30579.992, 0.14389461, 9.99808, 10.000017 
2.3984477e+3, 1.6881707e+2, -1290544.4, -1395993.4, 51396.59, -0.34946713, 0.30240119, -1269638.1, 15975.821, 0.08188297, 10.000121, 9.998627 
2.398104e+3, 1.788113e+2, -1182252.4, -1502580.1, -4889.2534, -0.31669572, 0.4205227, -1182177.8, 5494.1973, 0.047678713, 10.000912, 9.996989 
2.3977622e+3, 1.8880326e+2, -1074254.8, -1229081.0, 42788.402, -0.11822618, 0.3991332, -1063216.5, 26540.53, 0.028905774, 10.0005045, 9.998193 
2.3974201e+3, 1.9879554e+2, -1315420.8, -1358088.4, 21037.252, 0.047457684, 0.34023002, -1306792.9, -314952.6, 0.017015342, 9.998207, 9.997907 
2.3970743e+3, 2.0879138e+2, -991747.5, -735722.0, 34438.863, -0.14718254, 0.4483877, -731170.4, 162714.42, 0.00915297, 9.998128, 10.001423 
2.3967285e+3, 2.1878743e+2, -1112480.1, -920116.25, -33998.273, -0.28803843, 0.48882085, -914284.25, -118359.086, 0.0045936005, 9.997273, 10.000011 
2.3963818e+3, 2.2878397e+2, -819424.25, -493601.66, -126541.95, -0.21311177, 0.5605437, -450229.28, 247727.73, 0.0022051786, 9.997755, 10.001905 
2.3960353e+3, 2.3877911e+2, -1009923.56, -811651.9, -140411.45, -0.12518466, 0.50396657, -738906.1, -138904.84, 0.0009056362, 9.996856, 9.99958 
2.3956883e+3, 2.4877301e+2, -373151.16, -247631.45, -151763.75, 0.016352644, 0.3740129, -146162.69, 355893.13, 0.00023937336, 9.999875, 10.001147 
2.3953427e+3, 2.5876603e+2, -367271.38, -609727.56, -31272.621, 0.14166182, 0.19016713, -363302.72, 40816.605, 0.000025130046, 10.000909, 9.997608 
2.3949955e+3, 2.6876032e+2, -136815.4, -329046.28, 17154.13, 0.07985911, 0.38115788, -135296.63, 170879.08, 0.00000030344088, 10.001437, 9.998498 
2.3946497e+3, 2.7875504e+2, -487180.13, -407106.06, 136232.05, -0.037432287, 0.46295273, -305149.66, -96921.16, 0.0000000068303647, 9.99811, 9.998978 
2.3943047e+3, 2.88747e+2, 18784.578, 166618.6, 154125.8, 0.05302967, 0.17853732, 263635.75, 373937.44, 0.0000039429096, 9.999931, 10.001195 
2.3939617e+3, 2.9874128e+2, -425585.97, -767356.56, 302761.1, 0.14017951, 0.117675625, -248813.3, -236460.88, 0.00006190627, 9.999495, 9.994814 
2.3936161e+3, 3.0872998e+2, -40352.426, -249205.83, 75857.37, -0.4226214, 0.19783261, -15708.308, -15708.308, 0.0002690841, 10.001002, 9.997395 
2.409819e+3, 1.2917718e+2, -1883751.3, -1648126.6, -7378.2275, -0.19530073, 0.67495286, -1647895.8, 26200.818, 0.44510007, 9.99754, 10.000905 
2.4094726e+3, 1.3917042e+2, -2433282.5, -1893747.4, -100253.58, -0.44922513, 0.36941618, -1875721.0, -299553.97, 0.31930807, 9.993141, 10.000731 
2.4091306e+3, 1.4916722e+2, -1711960.0, -1149878.5, -99097.3, -0.25430894, 0.2666422, -1132919.0, 345269.7, 0.20041417, 9.9958935, 10.004186 
2.4087885e+3, 1.5916333e+2, -1358725.6, -1286206.3, -75923.81, -0.10487275, 0.045551162, -1238328.0, 141887.47, 0.110025235, 9.99928, 10.0006275 
2.4084443e+3, 1.6915779e+2, -1263683.5, -1409301.8, -62152.64, -0.15795499, 0.14132133, -1240763.3, 41506.215, 0.054970514, 10.000349, 9.998461 
2.4080999e+3, 1.791516e+2, -1227663.6, -1426544.8, -94227.914, -0.2680811, 0.23175962, -1190110.4, -5777.654, 0.027314784, 10.000045, 9.997961 
2.4077559e+3, 1.8914533e+2, -1009538.44, -1064101.6, -29080.826, -0.22167343, 0.25543925, -996945.44, 89452.445, 0.013986388, 10.000255, 9.999519 
2.4074121e+3, 1.9913898e+2, -965139.2, -1049778.3, 12482.442, -0.17869115, 0.237736, -963336.7, 25128.11, 0.006556314, 9.999909, 9.9992285 
2.4070674e+3, 2.0913568e+2, -949165.56, -729854.4, -21514.674, -0.12191228, 0.40754828, -727763.7, 162739.98, 0.002469395, 9.998487, 10.001295 
2.4067225e+3, 2.1913266e+2, -1092094.3, -868372.0, -49434.86, -0.09730798, 0.5772934, -857935.44, -65396.234, 0.00078321603, 9.997077, 10.000494 
2.4063753e+3, 2.2912791e+2, -740117.3, -471313.75, -86826.89, -0.10559338, 0.5004785, -445706.97, 248874.73, 0.00023610769, 9.998148, 10.001945 
2.4060285e+3, 2.391221e+2, -593590.9, -592104.56, -31451.61, -0.119608864, 0.3531324, -561387.3, 35245.79, 0.000047296035, 9.999431, 9.999893 
2.4056838e+3, 2.4911605e+2, -355013.47, -335910.9, -101459.08, 0.11542258, 0.29182267, -243554.52, 255134.33, 0.0000020598873, 10.000331, 10.000372 
2.4053408e+3, 2.591097e+2, -337034.88, -488334.78, -100105.49, 0.38304543, 0.21931516, -287209.66, 113538.43, 0.0, 10.000561, 9.998613 
2.4049924e+3, 2.69104e+2, -68027.03, -194624.3, -144509.27, 0.18132322, 0.30911592, 26438.87, 329244.94, 0.0, 10.001439, 9.999437 
2.4046437e+3, 2.7909893e+2, 75828.43, -19521.213, -112485.84, -0.08679093, 0.33765924, 150325.42, 355183.38, 0.0, 10.0013485, 10.000101 
2.4043018e+3, 2.8909376e+2, 264605.84, 300690.2, -152797.03, 0.24664496, 0.2567575, 436506.56, 543408.4, 0.00000028208012, 10.001424, 10.001456 
2.4039622e+3, 2.9909053e+2, -355603.84, -750090.3, 75890.6, 0.6976677, 0.44640917, -341507.84, -332580.63, 0.000017512673, 9.9999, 9.994779 
2.4036108e+3, 3.0907303e+2, 62396.934, -433648.75, 62063.273, -0.65112907, 0.034366276, 70044.15, 70044.15, 0.0001005609, 10.002617, 9.995441 
2.4198084e+3, 1.2951545e+2, -1993785.0, -1996918.8, -85630.95, -0.4689687, 0.11848041, -1909706.5, -238937.19, 0.41411307, 9.99815, 9.997986 
2.4194612e+3, 1.395117e+2, -2022791.6, -1949874.1, -86696.48, -0.41825223, 0.3468573, -1892282.3, -319460.2, 0.28877336, 9.99707, 9.998432 
2.4191228e+3, 1.4950897e+2, -1348868.5, -961968.0, 67280.94, -0.11326976, 0.3233692, -950601.94, 524236.6, 0.17287979, 9.998406, 10.004454 
2.4187851e+3, 1.5950531e+2, -1383043.0, -1368226.0, -39395.227, 0.16855298, 0.12022751, -1335548.8, 41311.82, 0.08747846, 9.999387, 10.000002 
2.4184415e+3, 1.694975e+2, -1347884.9, -1427500.9, -53311.785, 0.10661789, -0.013539138, -1321158.5, -42222.41, 0.038149297, 9.999747, 9.998553 
2.4180964e+3, 1.7948972e+2, -1413874.8, -1445041.1, -67943.39, -0.00972884, -0.11797716, -1359750.4, -178736.23, 0.01570925, 9.998588, 9.998472 
2.41775e+3, 1.8948601e+2, -1014891.94, -857775.3, -16015.058, -0.23368041, -0.00752458, -856159.5, 226892.2, 0.0064830934, 9.9993725, 10.001307 
2.417404e+3, 1.9948255e+2, -1164028.0, -1128808.8, -50289.727, -0.3689155, 0.102997854, -1093134.8, -108046.95, 0.0021827125, 9.998556, 9.999318 
2.4170595e+3, 2.0947923e+2, -1049350.1, -864307.56, -102116.51, -0.14013144, 0.30201116, -819032.0, 68096.375, 0.00044835047, 9.998203, 10.00048 
2.4167156e+3, 2.1947563e+2, -1283494.1, -1023740.6, -87578.35, 0.116676256, 0.45787922, -996971.44, -207800.47, 0.000068581576, 9.996181, 9.999832 
2.4163699e+3, 2.2947033e+2, -729238.94, -360256.2, -66346.51, 0.11470467, 0.2762156, -348689.1, 342525.28, 0.0000096515805, 9.998021, 10.002654 
2.4160247e+3, 2.3946404e+2, -833793.6, -807127.75, -50148.637, 0.13010153, 0.017781291, -768569.94, -175304.03, 0.00000040342232, 9.9984045, 9.99887 
2.415679e+3, 2.494575e+2, -544520.4, -634972.0, -97489.24, 0.18760426, 0.050704367, -482277.44, 13054.914, 0.0, 10.000039, 9.998405 
2.4153343e+3, 2.5945082e+2, -620569.75, -768714.25, -123507.02, 0.21943147, 0.09719341, -550625.75, -153223.66, 0.0, 9.999344, 9.997285 
2.414988e+3, 2.6944593e+2, -151150.56, -198962.44, -127886.93, 0.18924314, 0.25142092, -44954.38, 254502.56, 0.0, 10.00085, 9.9996195 
2.4146415e+3, 2.7944103e+2, -246130.75, -367952.7, -131558.86, 0.07160951, 0.3304969, -162066.27, 39444.36, 0.0, 10.000067, 9.998324 
2.4142945e+3, 2.8943428e+2, 136749.45, 152478.27, -182110.92, -0.08441643, 0.21372238, 326894.5, 430466.97, 0.0000000009564638, 10.001079, 10.000534 
2.4139519e+3, 2.994294e+2, -431521.53, -579206.6, 102097.65, -0.06955674, 0.22407639, -379361.5, -373744.72, 0.0000015325257, 9.998634, 9.996545 
2.4136133e+3, 3.0942383e+2, 263365.75, 48102.027, 167651.8, -0.40284386, 0.5107625, 354961.75, 354961.75, 0.000021924814, 10.002324, 9.998916 
2.4298085e+3, 1.298591e+2, -1539932.0, -1631176.4, 13389.581, -0.010802833, -0.15468751, -1538007.8, 129387.29, 0.3927152, 10.001184, 9.999251 
2.42946e+3, 1.3985676e+2, -1177727.9, -1504181.1, 105270.87, -0.28813112, 0.21834622, -1146725.5, 422702.44, 0.26710206, 10.003817, 9.998433 
2.4291182e+3, 1.49852e+2, -961756.8, -1101414.4, 96788.164, -0.24754679, 0.26534086, -912237.3, 559237.9, 0.15331793, 10.003124, 10.001042 
2.4287774e+3, 1.5984675e+2, -1188417.3, -1298598.9, -76763.016, -0.17135496, 0.21263625, -1149022.4, 224501.88, 0.07196278, 10.000854, 9.999818 
2.428434e+3, 1.6984122e+2, -1212919.5, -1134604.9, -76957.07, -0.06577078, 0.15882717, -1087415.9, 188159.52, 0.027363949, 9.999676, 10.000629 
2.4280898e+3, 1.7983517e+2, -1360669.0, -1283488.5, 8029.388, -0.04845248, 0.07112408, -1282662.1, -105030.01, 0.009079448, 9.998292, 9.999707 
2.4277438e+3, 1.8983035e+2, -1122612.0, -956418.9, -1501.9546, -0.19668667, 0.07692093, -956405.3, 123274.2, 0.002868925, 9.998737, 10.000958 
2.4273983e+3, 1.9982578e+2, -1049288.9, -1035670.56, -102845.83, -0.3394954, 0.11235362, -939408.7, 42316.45, 0.00059867656, 9.999023, 9.999774 
2.4270532e+3, 2.0982108e+2, -824113.25, -772687.44, -149496.27, -0.11542455, 0.16169536, -646708.94, 237065.0, 0.000045539302, 9.99962, 10.000527 
2.426709e+3, 2.1981642e+2, -717841.75, -741220.9, -71059.56, 0.13157617, 0.22503982, -657516.7, 128305.77, 0.0000022398012, 9.999903, 9.999988 
2.4263646e+3, 2.2981139e+2, -344226.88, -303778.7, -100942.234, 0.16153276, 0.15777695, -221054.5, 466813.88, 0.000000052409952, 10.001182, 10.001548 
2.4260202e+3, 2.3980586e+2, -255300.39, -478444.2, -200947.6, 0.17109168, 0.062058646, -137028.38, 452889.6, 0.0, 10.002098, 9.99934 
2.4256739e+3, 2.4979946e+2, -343653.6, -494419.3, -201339.0, 0.15704697, 0.06554205, -204048.16, 287933.53, 0.0, 10.00116, 9.998864 
2.4253276e+3, 2.5979304e+2, -476580.7, -599308.0, -94984.97, 0.13193533, 0.10717639, -424861.9, -30813.79, 0.0, 9.999747, 9.998274 
2.4249825e+3, 2.6978806e+2, -242059.73, -270570.97, -104112.89, 0.13377449, 0.24645212, -151231.02, 144874.2, 0.0, 10.000183, 9.999508 
2.424638e+3, 2.797833e+2, -161122.47, -306081.94, -99569.33, 0.171134, 0.3766267, -110446.35, 87713.53, 0.0, 10.000414, 9.998601 
2.4242908e+3, 2.8977627e+2, 263170.88, 141232.34, -122078.484, -0.06314443, 0.27931693, 338658.22, 438885.5, 0.0, 10.002076, 10.000057 
2.423947e+3, 2.997704e+2, 175462.4, -50198.145, 130095.73, -0.14754172, 0.20441969, 234840.05, 237122.63, 0.000000086511356, 10.001601, 9.998804 
2.423614e+3, 3.0977112e+2, -214603.1, 81039.89, -251467.83, 0.13413122, 0.8846582, 224915.61, 224915.61, 0.0000026170453, 9.997656, 10.001507 
2.44014e+3, 1.2021198e+2, -1901273.5, -2236966.3, -244440.95, -0.9873602, -0.0078396825, -1772600.5, -10672.474, 0.4945538, 10.000391, 9.995963 
2.43981e+3, 1.3020352e+2, -1465604.4, -1486780.3, 15407.936, 0.5409141, -0.30508965, -1457497.3, 206518.66, 0.3775347, 10.001504, 10.000638 
2.43946e+3, 1.4020213e+2, -1583083.1, -1858684.1, 43024.266, -0.022442162, 0.09504099, -1576522.6, -10491.686, 0.25111946, 10.000688, 9.997292 
2.4391137e+3, 1.5019551e+2, -1489440.3, -1760136.8, 40551.156, -0.35788032, 0.24073514, -1483496.1, -15387.671, 0.13882844, 10.00081, 9.997103 
2.438769e+3, 1.6018848e+2, -1498464.8, -1548204.8, -90095.914, -0.48436934, 0.3269086, -1429869.3, -59681.316, 0.060861234, 9.999171, 9.998836 
2.4384257e+3, 1.7018583e+2, -1140528.3, -836887.5, -109326.49, -0.25464243, 0.38378167, -801620.44, 470587.8, 0.02025213, 9.999094, 10.002958 
2.4380825e+3, 1.8018277e+2, -1417737.6, -1294468.5, -48343.117, -0.02463388, 0.40844214, -1277771.3, -103539.62, 0.0052852775, 9.9979105, 9.999832 
2.437738e+3, 1.901761e+2, -1230461.0, -1132291.9, -5205.0396, -0.093365006, 0.29372862, -1132016.8, -55719.68, 0.0012089658, 9.998634, 9.99978 
2.4373935e+3, 2.0016912e+2, -1220982.1, -1174715.0, -85976.68, -0.12387657, 0.18721862, -1108814.0, -130448.35, 0.00012403581, 9.998274, 9.999136 
2.4370477e+3, 2.1016291e+2, -830759.8, -688624.1, -129981.17, -0.039671708, 0.02243021, -611551.0, 268870.1, 0.000001917801, 9.9993925, 10.001094 
2.4367024e+3, 2.2015685e+2, -985308.25, -1046447.8, -38087.42, 0.077606454, -0.06836461, -967039.94, -184563.16, 0.000000018702426, 9.998968, 9.998286 
2.436359e+3, 2.301523e+2, -577883.8, -693156.2, -37950.313, 0.063155614, 0.11702493, -566511.6, 118018.09, 0.0, 10.00081, 9.998997 
2.4360153e+3, 2.4014755e+2, -532844.5, -698558.1, -205749.6, 0.041350592, 0.28138477, -393894.75, 192688.83, 0.0, 10.000658, 9.998513 
2.435668e+3, 2.501424e+2, -276127.6, -215813.9, -253775.45, 0.044166364, 0.25058016, 9590.244, 498219.4, 0.0, 10.000715, 10.0009365 
2.4353206e+3, 2.601369e+2, -645952.6, -691972.0, -121330.56, 0.013531041, 0.2268834, -545469.2, -154790.44, 0.0, 9.998772, 9.998093 
2.4349749e+3, 2.7013132e+2, -351720.4, -392629.0, -90287.27, -0.08191134, 0.33979946, -279599.5, 13142.264, 0.0, 9.999828, 9.998803 
2.4346308e+3, 2.801258e+2, -392273.1, -497238.34, -89923.61, -0.047698654, 0.4433129, -340637.13, -145832.5, 0.0, 9.999276, 9.997844 
2.4342912e+3, 2.9012007e+2, 118656.59, 17296.373, -59381.75, 0.3114452, 0.47779006, 146044.83, 242906.84, 0.0, 10.001415, 9.9994955 
2.4339497e+3, 3.001141e+2, -201295.25, -323348.25, 40664.543, 0.32936326, 0.48064703, -188988.0, -188988.0, 0.0, 9.999549, 9.997903 
2.433602e+3, 3.1010523e+2, -508621.4, -10677.396, -100978.445, -0.43185553, 0.090856574, 9020.854, 9020.854, 0.00000012758136, 9.995662, 10.00172 
2.4501397e+3, 1.2056069e+2, -1649666.9, -1667602.8, 49992.65, -0.6601308, 0.6478276, -1607844.1, 150688.3, 0.48540714, 10.00051, 10.000572 
2.449805e+3, 1.3054694e+2, -1454133.5, -1547224.9, -109603.15, 0.38850805, -0.21330552, -1381602.1, 279061.3, 0.3659335, 10.001869, 9.999866 
2.4494524e+3, 1.4054683e+2, -1768134.8, -1835069.0, -105721.47, -0.24671191, 0.35266802, -1690709.6, -128048.086, 0.23856215, 9.998843, 9.998372 
2.4491079e+3, 1.5054129e+2, -1647132.0, -1627794.3, 50282.926, -0.34833074, 0.4356227, -1586259.0, -121535.52, 0.1275105, 9.998751, 9.9990425 
2.4487646e+3, 1.6053468e+2, -1569404.9, -1534047.5, 73052.01, -0.31095824, 0.43594855, -1476565.5, -109770.24, 0.052560914, 9.99839, 9.999326 
2.4484211e+3, 1.7052938e+2, -1206433.0, -1042779.75, -33268.605, -0.10240929, 0.35057715, -1036275.2, 232567.19, 0.01541553, 9.999243, 10.001513 
2.4480772e+3, 1.8052442e+2, -1157887.8, -1132321.5, -68672.84, 0.03540117, 0.30477697, -1075252.1, 95632.875, 0.0031067657, 9.999435, 10.00024 
2.4477324e+3, 1.905199e+2, -977922.0, -911191.8, 26284.861, -0.048402943, 0.32754084, -902081.94, 170847.45, 0.00048131414, 9.999877, 10.000747 
2.4473879e+3, 2.0051461e+2, -885060.94, -911345.06, 27696.111, -0.11956907, 0.32105377, -867547.06, 107433.56, 0.000015932997, 10.000065, 10.000073 
2.4470428e+3, 2.1050796e+2, -579227.2, -555386.0, -44969.086, -0.022510039, 0.10479304, -520784.34, 356255.28, 0.0000000054715246, 10.001044, 10.001221 
2.4466978e+3, 2.205014e+2, -561229.6, -823992.56, 29258.783, 0.04743389, -0.026567394, -558011.1, 221089.08, 0.0, 10.001659, 9.998548 
2.4463537e+3, 2.3049653e+2, -626686.8, -835945.25, 71051.734, -0.01024323, 0.21642761, -604842.25, 76317.56, 0.0, 10.000848, 9.998082 
2.4460092e+3, 2.404916e+2, -580527.06, -697489.75, -33343.28, -0.08179454, 0.4640034, -571689.44, 11529.108, 0.0, 10.000013, 9.998892 
2.4456622e+3, 2.5048563e+2, -86985.77, -114106.26, -140865.53, -0.09573154, 0.35481623, 40970.688, 526240.06, 0.0, 10.001748, 10.001264 
2.445315e+3, 2.6047975e+2, 22773.176, -276788.34, -119558.04, -0.117139295, 0.26636368, 64638.965, 451958.5, 0.0, 10.002804, 9.999047 
2.4449694e+3, 2.7047312e+2, -161686.44, -319731.66, -93404.23, -0.110698625, 0.2705971, -118361.51, 171027.34, 0.0, 10.0011, 9.998747 
2.444626e+3, 2.8046694e+2, -283046.22, -383954.75, 1887.6425, 0.0036288106, 0.3224381, -283010.94, -91555.05, 0.0, 9.999586, 9.998505 
2.4442875e+3, 2.904626e+2, 124573.57, 19375.104, 64217.984, 0.36064863, 0.4947886, 154984.16, 248486.63, 0.0, 10.001263, 9.999662 
2.4439472e+3, 3.004575e+2, 99622.8, -164606.28, 80181.98, 0.4735931, 0.6007975, 122050.81, 122050.81, 0.0, 10.001323, 9.998193 
2.4435937e+3, 3.1044513e+2, 88575.03, 322588.66, -141651.55, -0.5300327, -0.025470203, 389309.25, 389309.25, 0.000000000000427524, 9.999317, 10.002312 
2.4601378e+3, 1.2090627e+2, -1691101.5, -1556366.4, 234259.34, -0.4302281, 1.040899, -1379980.3, 375182.53, 0.47723475, 9.999386, 10.0027895 
2.459799e+3, 1.3089037e+2, -1665161.1, -1692677.1, -214820.44, 0.24427465, -0.061999943, -1463658.6, 193651.86, 0.3557266, 10.000167, 9.999573 
2.4594444e+3, 1.408917e+2, -1724902.6, -1678225.9, -84068.305, -0.3850299, 0.661021, -1614316.5, -55024.617, 0.22774403, 9.998633, 9.999539 
2.4591026e+3, 1.5088727e+2, -1418462.4, -1235101.3, 21531.217, -0.19135977, 0.6050934, -1232606.9, 228728.8, 0.11809006, 9.999161, 10.001695 
2.4587618e+3, 1.6088143e+2, -1570629.6, -1588385.1, -7422.673, 0.121877484, 0.50285715, -1567935.4, -204542.02, 0.04605504, 9.998701, 9.998783 
2.4584173e+3, 1.7087273e+2, -1367738.9, -1375418.4, -49299.75, 0.17340735, 0.2465641, -1322129.6, -56654.383, 0.012013259, 9.999338, 9.999117 
2.4580723e+3, 1.8086523e+2, -1305072.9, -1256909.0, -59483.895, 0.18468595, 0.12082749, -1216817.1, -49271.902, 0.0018483637, 9.998765, 9.999687 
2.4577267e+3, 1.9086337e+2, -957815.56, -744356.5, 4596.175, 0.0057818512, 0.2853671, -744257.56, 325305.2, 0.00018026956, 9.999374, 10.002105 
2.4573821e+3, 2.0086104e+2, -1099937.6, -1024567.75, -12753.359, -0.10943169, 0.46690196, -1022468.25, -50883.56, 0.0000007906511, 9.9987545, 9.999923 
2.4570379e+3, 2.1085455e+2, -734750.2, -676349.8, -62580.547, -0.016774122, 0.27599576, -636492.2, 237153.17, 0.0, 10.000262, 10.000766 
2.4566936e+3, 2.2084773e+2, -864405.7, -1039496.4, -35209.67, 0.074503645, 0.16768837, -857590.5, -81879.18, 0.0, 10.000088, 9.997802 
2.4563481e+3, 2.3084293e+2, -733821.7, -860014.25, -7118.187, -0.04804701, 0.40475777, -733421.44, -55652.742, 0.0, 10.000264, 9.998086 
2.4560027e+3, 2.4083774e+2, -843593.94, -943130.2, -39607.977, -0.17593355, 0.6468331, -829756.6, -249928.89, 0.0, 9.998903, 9.997699 
2.455656e+3, 2.5082955e+2, -258011.9, -332096.7, -88235.266, -0.29815167, 0.4039013, -199358.94, 282541.25, 0.0, 10.001221, 9.999982 
2.4553098e+3, 2.608213e+2, -272040.44, -508448.22, -164563.44, -0.34067324, 0.18511927, -187628.23, 196343.98, 0.0, 10.0012865, 9.998162 
2.454966e+3, 2.7081344e+2, -225216.5, -286682.75, -172711.75, 0.009938783, 0.01074332, -80524.78, 205521.52, 0.0, 10.000507, 9.9992 
2.4546225e+3, 2.80807e+2, -495409.4, -481457.8, 30434.307, 0.22701779, 0.0045398814, -457210.06, -269100.25, 0.0, 9.998277, 9.998439 
2.4542779e+3, 2.9080424e+2, 44291.19, 41034.848, 155821.23, -0.22135025, 0.25876582, 198492.77, 288636.84, 0.0, 10.00058, 10.00009 
2.4539365e+3, 3.0079955e+2, -387269.2, -634892.5, 30742.443, -0.2884158, 0.47101906, -383509.6, -383509.6, 0.0, 9.999198, 9.99595 
2.4535947e+3, 3.1079283e+2, -324128.53, 10973.9375, -95650.805, 0.006198009, 0.54372174, 36354.02, 36354.02, 0.0, 9.99731, 10.001007 
2.4701317e+3, 1.2123913e+2, -1810803.4, -1781956.5, 201010.22, -0.59022087, 0.27784434, -1594852.9, 157037.19, 0.46785173, 9.999393, 10.000212 
2.4697927e+3, 1.3123456e+2, -1528946.5, -1344479.9, -149864.8, 0.20009728, 0.0890763, -1260740.4, 393189.3, 0.34520847, 9.999422, 10.003104 
2.4694392e+3, 1.4123572e+2, -1617487.1, -1608210.6, 33370.656, -0.33785874, 0.5623809, -1579157.4, -23244.121, 0.21743059, 9.999223, 9.999742 
2.4690977e+3, 1.5122765e+2, -1360919.8, -1394254.5, 28132.51, -0.16440527, 0.30780423, -1344887.9, 113103.914, 0.109704144, 10.000527, 9.999771 
2.4687569e+3, 1.612198e+2, -1192700.8, -1358323.4, -101931.9, 0.06920743, 0.12637617, -1144181.1, 215887.3, 0.040704507, 10.001098, 9.999222 
2.4684112e+3, 1.7121442e+2, -1059359.9, -1122456.3, -90613.31, 0.078046896, 0.12107316, -994959.8, 267160.06, 0.00953522, 10.000955, 10.000144 
2.4680652e+3, 1.8120922e+2, -1089559.3, -1109529.8, -23002.41, 0.024729067, 0.17049755, -1074468.3, 89701.2, 0.0011160366, 9.999976, 10.000134 
2.4677205e+3, 1.9120492e+2, -1034497.7, -875069.8, -47081.742, -0.0029158571, 0.1627531, -862204.06, 204008.06, 0.00006263998, 9.999177, 10.0013485 
2.4673763e+3, 2.0120095e+2, -1154931.4, -1058476.4, -101569.91, -0.050420888, 0.24601604, -994265.75, -26013.836, 0.0000000031066179, 9.998307, 9.999934 
2.467032e+3, 2.1119629e+2, -867167.1, -812935.4, -145042.88, -0.03161854, 0.29208353, -692495.5, 177804.44, 0.0, 9.999546, 10.00025 
2.4666877e+3, 2.2119096e+2, -719972.94, -876042.75, -135953.83, -0.04060568, 0.35657638, -641250.44, 131103.73, 0.0, 10.000537, 9.998749 
2.466343e+3, 2.3118497e+2, -468802.78, -636703.94, -92973.86, -0.113026686, 0.3842371, -427486.28, 246929.56, 0.0, 10.001546, 9.999075 
2.4659981e+3, 2.4117884e+2, -331853.34, -623817.44, -90131.195, -0.1973144, 0.45847777, -306270.88, 270207.28, 0.0, 10.002003, 9.998411 
2.4656513e+3, 2.5117123e+2, -386867.94, -469832.22, -127725.55, -0.27142787, 0.32424206, -294057.2, 184491.66, 0.0, 10.000578, 9.999383 
2.4653056e+3, 2.6116326e+2, -473276.84, -562004.25, -159653.48, -0.2731794, 0.17998083, -351937.88, 28684.307, 0.0, 9.999532, 9.998673 
2.4649626e+3, 2.7115554e+2, 17330.74, -160927.56, -206555.44, 0.102721654, 0.005864448, 153166.38, 435860.25, 0.0, 10.001974, 9.999429 
2.4646184e+3, 2.8114942e+2, 268811.84, -18394.584, -60220.88, 0.25902238, 0.0058711665, 280927.72, 465679.3, 0.0, 10.002992, 9.999372 
2.4642695e+3, 2.911462e+2, -46478.152, 12513.931, 4445.504, -0.5179323, 0.19101687, 12847.053, 99635.555, 0.0, 9.999762, 10.000369 
2.4639289e+3, 3.0114093e+2, -599197.8, -710989.25, -44547.555, -0.450896, 0.34412894, -583617.56, -583617.56, 0.0, 9.997431, 9.99634 
2.463593e+3, 3.111348e+2, 180351.22, 177519.55, -162573.69, 0.43824646, 0.56924486, 341515.25, 341515.25, 0.0, 10.000721, 10.000665 
2.480128e+3, 1.2157653e+2, -1941109.6, -2023988.4, 230278.58, -0.4065794, -0.1361083, -1748571.6, 0.657621, 0.4557171, 9.99899, 9.99825 
2.4797864e+3, 1.3157855e+2, -1388991.0, -1079382.6, -155968.05, 0.20774491, 0.13421804, -1014436.1, 636112.6, 0.33319858, 9.999582, 10.005677 
2.479435e+3, 1.4157891e+2, -1691849.4, -1734862.5, -32503.844, -0.11885023, 0.37901044, -1674381.1, -121840.484, 0.20679392, 9.9992075, 9.998866 
2.4790931e+3, 1.515671e+2, -1561604.9, -1781659.1, 40501.414, -0.12046942, -0.047188222, -1554387.3, -99731.46, 0.10179194, 10.000327, 9.997183 
2.4787514e+3, 1.6155697e+2, -1366109.1, -1433537.5, -88647.516, 0.019235915, -0.28226987, -1304981.3, 51773.89, 0.036105353, 9.999942, 9.999232 
2.4784048e+3, 1.715562e+2, -1098393.4, -938578.4, -133414.56, -0.046796344, 0.009019673, -862971.7, 395791.66, 0.0076701324, 9.99994, 10.001842 
2.478058e+3, 1.8155421e+2, -1303448.3, -1304789.1, -91344.23, -0.08813364, 0.2911586, -1212772.0, -51988.406, 0.000687035, 9.999035, 9.999208 
2.4777141e+3, 1.91546e+2, -1104516.1, -1077455.5, -106512.664, 0.006464595, 0.011223856, -983617.2, 79248.48, 0.000019881356, 9.999564, 9.999699 
2.47737e+3, 2.0153867e+2, -1213319.4, -1243934.5, -100473.19, 0.10506611, -0.083357975, -1126994.4, -162053.73, 0.0, 9.998709, 9.998409 
2.4770254e+3, 2.1153636e+2, -956625.8, -926916.44, -102558.67, -0.04120375, 0.25403908, -838142.25, 28829.254, 0.0, 9.99936, 9.999451 
2.4766809e+3, 2.2153303e+2, -936943.7, -970234.0, -100973.23, -0.16424547, 0.55723184, -851252.9, -82243.98, 0.0, 9.999111, 9.998742 
2.4763379e+3, 2.315246e+2, -505443.7, -508442.22, -63862.035, -0.19679458, 0.2055942, -443063.34, 228020.16, 0.0, 10.000701, 10.000332 
2.4759941e+3, 2.4151668e+2, -610095.44, -777303.44, -137467.9, -0.17882235, 0.015893904, -532804.9, 40350.176, 0.0, 10.000331, 9.99813 
2.475648e+3, 2.5151148e+2, -520713.94, -554061.56, -195351.9, -0.073153526, 0.11813301, -341325.56, 133883.25, 0.0, 9.999894, 9.999044 
2.4753025e+3, 2.6150602e+2, -744507.6, -802280.6, -124719.08, 0.017296815, 0.2727823, -645373.5, -268108.0, 0.0, 9.998315, 9.997584 
2.4749583e+3, 2.7149966e+2, -119401.766, -272302.3, -109056.44, 0.02449745, 0.27147165, -62668.14, 216661.83, 0.0, 10.001376, 9.998909 
2.4746126e+3, 2.8149375e+2, 4504.8315, -257409.19, -145483.14, -0.11505977, 0.36330175, 69290.21, 250678.64, 0.0, 10.001763, 9.998315 
2.4742642e+3, 2.9148763e+2, -220143.27, -74783.625, -155924.06, -0.47801527, 0.25868705, 24567.576, 108012.76, 0.0, 9.998737, 10.000195 
2.4739255e+3, 3.0148146e+2, -932544.06, -818784.94, -20694.566, -0.0032996684, 0.306885, -815137.2, -815137.2, 0.0, 9.995076, 9.996709 
2.4735877e+3, 3.1147373e+2, 40593.54, 247604.98, 11255.493, 0.18157454, 0.17486244, 248215.17, 248215.17, 0.0, 9.999287, 10.0018215 
2.4901253e+3, 1.21928334e+2, -1762514.4, -1670295.4, 146603.98, -0.212604, 0.43596944, -1562720.8, 182407.89, 0.43991777, 9.99914, 10.001242 
2.4897781e+3, 1.3192181e+2, -1497604.6, -1403191.4, -141405.55, -0.078921996, 0.109748766, -1301320.9, 345865.8, 0.31901658, 10.000208, 10.001997 
2.4894299e+3, 1.4191924e+2, -1576818.6, -1669453.3, -116595.62, -0.13848972, 0.3081562, -1497677.5, 51529.78, 0.19536594, 9.999932, 9.999021 
2.4890883e+3, 1.5191078e+2, -1444521.8, -1531110.3, 61909.492, -0.08432805, 0.08015937, -1412270.1, 39019.773, 0.094030365, 10.000231, 9.999004 
2.4887463e+3, 1.6190284e+2, -1384777.6, -1419017.1, -22889.549, 0.010563219, -0.04479603, -1373313.9, -19945.156, 0.032013185, 9.999651, 9.999464 
2.488399e+3, 1.7189984e+2, -1284371.6, -1147921.5, -147531.45, -0.01869262, 0.12420845, -1053603.6, 201798.55, 0.0062260167, 9.999132, 10.000787 
2.488052e+3, 1.818965e+2, -1263566.0, -1263586.3, -96369.6, -0.11522036, 0.33710527, -1167206.5, -9768.707, 0.00043419475, 9.99911, 9.999465 
2.4877077e+3, 1.9188988e+2, -706033.0, -875012.44, -37870.56, -0.17996122, 0.2077449, -697933.9, 361568.25, 0.0000058323185, 10.002141, 9.999892 
2.4873643e+3, 2.0188321e+2, -492979.06, -894805.44, -61479.984, -0.16782056, 0.1868394, -483783.0, 477785.53, 0.000000000090419006, 10.003555, 9.998473 
2.4870215e+3, 2.1187828e+2, -672983.2, -862812.7, -89617.43, 0.025706839, 0.32773137, -637360.25, 226263.22, 0.0, 10.001495, 9.998907 
2.4866779e+3, 2.2187306e+2, -801907.6, -796265.94, -53100.24, 0.08583003, 0.45725334, -745911.7, 19766.01, 0.0, 9.999445, 9.999783 
2.4863337e+3, 2.3186553e+2, -662730.3, -513650.5, -16893.527, -0.04158158, 0.13997568, -511760.1, 155981.58, 0.0, 9.999197, 10.001086 
2.4859895e+3, 2.4185844e+2, -666438.56, -675732.56, -116992.375, -0.102994725, -0.034478948, -554000.94, 15802.63, 0.0, 9.999261, 9.99935 
2.4856436e+3, 2.5185394e+2, -416085.06, -479350.38, -153894.63, 0.025058132, 0.09562923, -290605.72, 181245.33, 0.0, 10.000336, 9.999416 
2.4852979e+3, 2.61849e+2, -323500.03, -579155.6, -25339.46, 0.11158559, 0.2995384, -321012.72, 52891.242, 0.0, 10.000951, 9.997877 
2.4849531e+3, 2.7184278e+2, -229075.83, -404277.78, 4239.8276, -0.031106582, 0.37721688, -228973.28, 46997.28, 0.0, 10.000791, 9.998364 
2.4846077e+3, 2.818363e+2, -101773.41, -297297.84, -97521.03, -0.20990308, 0.46375507, -61449.406, 116587.195, 0.0, 10.0008135, 9.998538 
2.4842605e+3, 2.918287e+2, 238857.55, 106102.68, -195098.63, -0.2919439, 0.25541028, 378561.25, 458665.7, 0.0, 10.00191, 9.999976 
2.4839213e+3, 3.0182195e+2, 78070.99, -194190.48, 16352.454, 0.26974666, 0.22928412, 79049.625, 79049.625, 0.0, 10.001338, 9.99798 
2.4835806e+3, 3.1181428e+2, -212006.44, 164199.78, -86736.97, 0.13622503, 0.079580106, 183234.5, 183234.5, 0.0, 9.997118, 10.002404 
2.500119e+3, 1.22277305e+2, -1671342.9, -1553279.4, 112147.055, -0.224509, 0.6163542, -1485576.4, 256134.77, 0.42027465, 9.999288, 10.0023155 
2.4997713e+3, 1.3226576e+2, -1581022.0, -1784001.1, -105320.11, -0.21716812, 0.1130921, -1536249.9, 107567.59, 0.30251706, 10.001423, 9.998063 
2.4994248e+3, 1.4226016e+2, -1373842.4, -1536081.1, 10787.883, -0.11263788, 0.29611272, -1373128.3, 172740.16, 0.18302314, 10.001448, 9.999198 
2.4990837e+3, 1.5225579e+2, -1247033.4, -1210261.6, 68852.1, -0.0018433079, 0.27019194, -1157382.9, 290530.0, 0.08629053, 10.000645, 10.001158 
2.4987414e+3, 1.6225089e+2, -1479342.5, -1554695.1, -81349.38, 0.14761536, 0.33497825, -1427368.3, -77404.01, 0.028287582, 9.999417, 9.998632 
2.4983935e+3, 1.7224413e+2, -1222160.0, -1341645.0, -160388.7, 0.09424295, 0.26230878, -1110748.5, 141289.64, 0.0050760456, 10.000464, 9.998823 
2.4980465e+3, 1.8223825e+2, -1124299.9, -1229665.6, 24078.709, -0.04157252, 0.36845627, -1119058.1, 35042.46, 0.00028139996, 10.0003605, 9.999061 
2.497702e+3, 1.9223526e+2, -713848.06, -779358.1, 81057.57, -0.41731545, 0.5242281, -659177.56, 396949.22, 0.0000014559199, 10.001825, 10.000648 
2.4973586e+3, 2.0223045e+2, -793916.3, -1094320.4, -88392.164, -0.47742528, 0.66452354, -769837.44, 188334.39, 0.0, 10.001862, 9.997909 
2.4970186e+3, 2.1222097e+2, -876423.94, -983125.2, -146792.98, 0.17992114, 0.3686835, -773587.25, 86679.17, 0.0, 10.00039, 9.998559 
2.4966764e+3, 2.2221287e+2, -1033262.7, -940683.2, -53993.46, 0.59354, 0.25327283, -915853.06, -153507.3, 0.0, 9.998146, 9.9994135 
2.4963301e+3, 2.3220801e+2, -755791.1, -515602.78, -4768.472, 0.25781465, 0.16360404, -515508.13, 148879.19, 0.0, 9.998486, 10.001376 
2.4959838e+3, 2.4220327e+2, -864906.06, -749294.2, -97217.586, -0.007831359, 0.19589247, -693994.94, -127566.125, 0.0, 9.997901, 9.99949 
2.4956374e+3, 2.5219828e+2, -482332.56, -410411.5, -112847.84, -0.033297777, 0.17959802, -327933.03, 140544.17, 0.0, 9.999569, 10.000216 
2.4952915e+3, 2.6219282e+2, -568976.6, -769410.2, -25314.613, -0.055813372, 0.30575463, -565828.9, -195296.55, 0.0, 9.999718, 9.997136 
2.494948e+3, 2.7218527e+2, -368353.22, -547368.0, 11479.835, -0.055258907, 0.29770344, -367620.03, -95008.02, 0.0, 10.000228, 9.997634 
2.4946043e+3, 2.8217766e+2, -372515.6, -545906.6, -81888.89, -0.08283443, 0.36309347, -339955.47, -165265.63, 0.0, 9.999609, 9.997376 
2.4942578e+3, 2.9216993e+2, 96301.375, -47604.19, -120051.734, -0.22479677, 0.18579982, 164311.52, 241072.31, 0.0, 10.001396, 9.999119 
2.4939148e+3, 3.0216312e+2, -112393.91, -333250.6, -136529.19, -0.0707692, 0.22901334, -47224.31, -47224.31, 0.0, 10.00041, 9.997434 
2.4935721e+3, 3.1215718e+2, -694734.8, -206677.4, -179061.75, 0.055780973, 0.23959784, -148029.52, -148029.52, 0.0, 9.994725, 10.000904 
2.5101134e+3, 1.2262062e+2, -1738978.1, -1774086.9, 143022.47, -0.3617969, 0.19943863, -1612436.8, 125893.664, 0.39734322, 9.99997, 9.999768 
2.5097692e+3, 1.3261205e+2, -1298294.3, -1550733.9, 83898.08, -0.1612277, -0.042330712, -1272954.4, 367454.53, 0.28406283, 10.003598, 9.998821 
2.50942e+3, 1.4260454e+2, -1098026.5, -1538400.8, 147998.38, -0.49511415, -0.017253978, -1052910.3, 489570.94, 0.16993596, 10.004351, 9.997816 
2.5090793e+3, 1.5260005e+2, -1218703.6, -1424281.6, 70757.414, -0.048118252, 0.17718107, -1196704.0, 247831.95, 0.078587286, 10.00186, 9.998982 
2.5087374e+3, 1.625955e+2, -1286297.8, -1388608.3, -24132.557, 0.21427713, 0.39818993, -1280891.1, 65697.375, 0.024857625, 10.000384, 9.999313 
2.50839e+3, 1.7258972e+2, -634904.6, -921942.44, 52404.867, -0.011080784, 0.334471, -625636.25, 623010.25, 0.0041356636, 10.003885, 10.000097 
2.508043e+3, 1.8258362e+2, -405547.53, -862125.6, 163738.9, -0.2362235, 0.3557451, -352898.3, 797809.0, 0.00018434241, 10.005139, 9.999291 
2.5076997e+3, 1.9257794e+2, -673408.25, -855116.0, 157064.1, -0.3150623, 0.34540117, -582813.6, 469948.25, 0.00000026313862, 10.002434, 9.999882 
2.5073558e+3, 2.0257217e+2, -952771.06, -1028822.2, -51762.855, -0.3156878, 0.41199997, -926567.9, 28249.28, 0.0, 10.000079, 9.999237 
2.5070113e+3, 2.1256499e+2, -908984.0, -873120.3, -35371.47, 0.03259541, 0.25757498, -851394.94, 5491.6377, 0.0, 9.9995365, 9.999794 
2.5066674e+3, 2.2255819e+2, -849285.1, -842206.06, 136402.66, 0.32073373, 0.2185032, -709297.0, 49655.89, 0.0, 9.99918, 9.999649 
2.506324e+3, 2.3255293e+2, -729011.6, -613622.0, 122684.9, 0.32738957, 0.19386305, -535742.94, 125261.39, 0.0, 9.998967, 10.000548 
2.5059792e+3, 2.4254794e+2, -663275.25, -657263.44, 22148.986, 0.20331152, 0.2753702, -637917.3, -74864.38, 0.0, 9.999192, 9.999523 
2.5056314e+3, 2.5254238e+2, -295232.94, -357136.5, -55279.902, -0.072838694, 0.25728986, -262829.53, 202278.11, 0.0, 10.000902, 10.0 
2.5052857e+3, 2.6253635e+2, -212267.47, -497563.1, -57500.367, -0.19275923, 0.31569725, -201114.47, 166052.58, 0.0, 10.001625, 9.998112 
2.5049436e+3, 2.7252862e+2, -371022.7, -493452.97, 11572.747, 0.044444725, 0.25093922, -369938.38, -100693.55, 0.0, 9.999877, 9.9982395 
2.5046006e+3, 2.8252083e+2, -455507.9, -543271.75, 77565.14, 0.13657098, 0.27050862, -410272.06, -238949.98, 0.0, 9.998691, 9.997873 
2.5042537e+3, 2.9251322e+2, -154889.89, -235890.64, 70252.71, -0.15364583, 0.14871076, -114299.43, -40905.707, 0.0, 9.999705, 9.998747 
2.5039092e+3, 3.0250683e+2, -150336.31, -309093.66, -8816.371, -0.09559431, 0.26796106, -149848.22, -149848.22, 0.0, 9.9997835, 9.997938 
2.5035658e+3, 3.1250125e+2, -234223.11, -19011.678, -104081.89, 0.3937054, 0.31284475, 23089.088, 23089.088, 0.0, 9.997756, 10.000791 
2.5201112e+3, 1.229657e+2, -1913714.8, -2119178.0, 8403.577, -0.08177793, -0.038893595, -1913371.6, -178437.6, 0.3720952, 9.999674, 9.997252 
2.519767e+3, 1.3295823e+2, -1329711.1, -1484622.0, 39619.16, -0.18069531, -0.26259837, -1320166.4, 316835.16, 0.26429757, 10.002742, 9.999798 
2.5194165e+3, 1.4295042e+2, -1363990.4, -1886697.0, -14628.929, -0.679, -0.26868656, -1363581.3, 175497.81, 0.15642525, 10.003136, 9.995866 
2.5190756e+3, 1.5294462e+2, -1428787.8, -1839951.3, -71529.31, -0.037343998, 0.029482769, -1416699.4, 24455.252, 0.071005836, 10.001815, 9.99604 
2.5187334e+3, 1.6293968e+2, -1270565.4, -1311401.1, 77157.43, 0.35903403, 0.38096288, -1211170.0, 132044.06, 0.021693112, 10.000347, 9.999838 
2.5183865e+3, 1.7293592e+2, -798079.6, -762970.06, 129690.15, -0.115212984, 0.33528632, -649652.0, 595592.2, 0.00335279, 10.001953, 10.002058 
2.518041e+3, 1.8293025e+2, -919088.5, -1219623.9, 62645.83, -0.33481526, 0.3208048, -906553.0, 240742.23, 0.00011963712, 10.002135, 9.998261 
2.517699e+3, 1.9291995e+2, -1028547.44, -1184905.4, 35653.586, -0.014948833, -0.05752993, -1020801.25, 28596.82, 0.00000002568285, 10.000688, 9.998421 
2.517354e+3, 2.0291251e+2, -1085805.0, -1034585.75, -77200.01, 0.10165447, -0.09791368, -978858.5, -27387.205, 0.0, 9.998963, 9.99972 
2.5170013e+3, 2.1291015e+2, -839597.7, -665115.3, -85822.95, -0.28022692, 0.05580148, -629977.56, 223513.88, 0.0, 9.999277, 10.00132 
2.5166544e+3, 2.2290644e+2, -1069965.0, -1087512.4, 101193.734, -0.30821794, 0.2831703, -977165.25, -221637.38, 0.0, 9.998434, 9.998264 
2.5163168e+3, 2.3289943e+2, -911552.3, -874599.5, 86436.34, 0.2851626, 0.20504536, -804686.9, -147083.81, 0.0, 9.998594, 9.998882 
2.5159758e+3, 2.4289279e+2, -956557.8, -1003772.0, 43800.246, 0.49892122, 0.3028029, -930407.94, -370734.0, 0.0, 9.998211, 9.997595 
2.5156265e+3, 2.5288633e+2, -525557.5, -613796.7, 8644.317, -0.09760227, 0.3034452, -524718.6, -62977.23, 0.0, 10.000067, 9.998604 
2.5152797e+3, 2.6287994e+2, -387484.34, -522609.25, -109127.77, -0.36191538, 0.4026139, -326697.44, 37107.176, 0.0, 10.000322, 9.998522 
2.5149384e+3, 2.7287275e+2, -384072.9, -305038.47, -56058.008, 0.11904058, 0.20077443, -275969.16, -10099.776, 0.0, 9.999101, 9.999825 
2.5145954e+3, 2.8286558e+2, -594257.75, -539328.06, 77514.18, 0.29689473, 0.16124986, -484556.88, -316621.53, 0.0, 9.997622, 9.998366 
2.5142485e+3, 2.928592e+2, -234960.9, -201159.78, 148801.95, -0.10352495, 0.088117875, -68301.695, 1694.4711, 0.0, 9.999003, 9.999263 
2.5139037e+3, 3.0285424e+2, -227386.56, -233272.44, -36083.41, -0.104718685, 0.29063287, -194126.28, -194126.28, 0.0, 9.99893, 9.998818 
2.5135544e+3, 3.1284404e+2, -287251.1, 91242.58, 15079.252, -0.15758002, -0.27847457, 91842.38, 91842.38, 0.0, 9.997039, 10.001811 
2.5301063e+3, 1.2330904e+2, -1814463.1, -1914122.9, -85052.05, -0.16693665, 0.11739934, -1765718.8, -34143.184, 0.34545994, 9.999646, 9.998692 
2.5297642e+3, 1.3330099e+2, -1407555.0, -1499708.6, -24007.363, -0.13005893, -0.20399617, -1401675.8, 231973.84, 0.24384509, 10.001732, 10.000156 
2.529416e+3, 1.4329632e+2, -1418857.1, -1702911.0, -144352.13, -0.4723202, 0.00492084, -1358376.9, 177316.61, 0.14280653, 10.00175, 9.997819 
2.529071e+3, 1.5328898e+2, -1186515.9, -1488499.8, -64252.332, -0.18063359, -0.04892281, -1173413.6, 264357.72, 0.06363834, 10.002559, 9.998116 
2.5287268e+3, 1.6328268e+2, -1072357.3, -1257929.4, 96616.76, 0.04666959, 0.06573184, -1031187.94, 308649.84, 0.0187796, 10.001797, 9.999541 
2.5283813e+3, 1.7327787e+2, -1263872.6, -1144698.9, 52941.457, -0.122607365, 0.04968404, -1124577.5, 117307.945, 0.0026956536, 9.999244, 10.000804 
2.5280362e+3, 1.8327275e+2, -1515795.3, -1358245.5, -42747.54, -0.23198313, 0.10668533, -1347394.3, -203459.27, 0.00007576087, 9.997361, 9.999601 
2.5276923e+3, 1.9326574e+2, -1319877.9, -1176047.5, 33784.094, -0.035119932, -0.060453102, -1168507.4, -122504.33, 0.00000000011876218, 9.997961, 9.999827 
2.5273472e+3, 2.0325936e+2, -1048557.25, -1020362.3, 10177.859, 0.030970436, -0.06511893, -1017072.2, -69007.69, 0.0, 9.999145, 9.999733 
2.5269973e+3, 2.1325475e+2, -499894.72, -615238.56, -77055.195, -0.23320279, -0.028753001, -461319.28, 388788.6, 0.0, 10.001955, 10.000426 
2.5266504e+3, 2.232499e+2, -385369.66, -783121.06, -39319.105, -0.28937167, 0.14020938, -381520.1, 370637.25, 0.0, 10.003137, 9.998095 
2.5263107e+3, 2.3324347e+2, -478955.94, -758052.44, -35830.996, 0.19616026, 0.20301479, -474429.28, 179800.53, 0.0, 10.00182, 9.99819 
2.5259688e+3, 2.43237e+2, -562525.94, -679175.1, 10293.704, 0.41104624, 0.30844152, -561624.5, -5324.813, 0.0, 10.000194, 9.998886 
2.525621e+3, 2.5323057e+2, -701900.9, -607248.5, 110187.98, 0.00085743074, 0.24618243, -534653.2, -76289.7, 0.0, 9.998338, 9.99952 
2.525275e+3, 2.632243e+2, -649729.0, -574473.5, 100579.26, -0.21006522, 0.29265508, -504713.94, -144289.66, 0.0, 9.998048, 9.999299 
2.524933e+3, 2.732175e+2, -111766.69, -163902.27, 20872.533, 0.14316167, 0.14838219, -104439.984, 158046.08, 0.0, 10.0007715, 10.000052 
2.52459e+3, 2.8321096e+2, 35004.617, -149240.13, 59380.82, 0.33486152, 0.12968992, 52484.313, 217030.66, 0.0, 10.001509, 9.999158 
2.524244e+3, 2.932049e+2, -180742.67, -144085.47, 50340.926, 0.08107901, 0.06805811, -108840.33, -42235.56, 0.0, 9.999164, 9.999609 
2.5238988e+3, 3.0319947e+2, -272196.75, -223519.94, -124175.53, 0.08933561, 0.19758943, -121320.13, -121320.13, 0.0, 9.998407, 9.999167 
2.5235483e+3, 3.131913e+2, 186688.34, 329631.94, -225762.16, -0.06572094, -0.14459154, 494965.5, 494965.5, 0.0, 10.00008, 10.002089 
2.5401017e+3, 1.236534e+2, -1554493.4, -1609755.5, 114943.43, -0.11770608, 0.48203635, -1463906.6, 264300.3, 0.31815657, 10.00131, 10.000291 
2.539763e+3, 1.3364404e+2, -1447480.3, -1483733.8, 15142.823, 0.18748312, -0.044315007, -1441987.5, 188310.03, 0.22319712, 10.001202, 10.000474 
2.539415e+3, 1.436417e+2, -1370014.8, -1420553.0, -103274.8, -0.15977275, 0.28424612, -1288962.6, 243352.72, 0.12934339, 10.000932, 10.000239 
2.5390664e+3, 1.5363346e+2, -1130261.5, -1174617.8, -90880.66, -0.30197284, -0.1483966, -1058892.0, 375494.2, 0.05657354, 10.001646, 10.000849 
2.53872e+3, 1.6362612e+2, -1327269.6, -1524901.3, -16721.113, -0.21906152, -0.23568784, -1325864.9, 10591.489, 0.016116831, 10.000729, 9.998174 
2.538376e+3, 1.7361955e+2, -1437220.9, -1465022.9, -67146.81, -0.02836976, -0.26112345, -1382551.3, -144019.61, 0.0021455006, 9.999107, 9.998643 
2.53803e+3, 1.8361522e+2, -1394841.4, -1165394.0, -29265.582, 0.013965297, -0.049875285, -1161720.0, -21141.057, 0.000046550977, 9.9976635, 10.000778 
2.5376835e+3, 1.9361365e+2, -1107721.8, -847450.1, 16636.695, -0.13990524, 0.10388785, -846391.0, 196198.19, 0.0, 9.998482, 10.001835 
2.5373387e+3, 2.0360899e+2, -1208355.1, -1278097.4, 57269.94, -0.12535606, 0.2342274, -1176175.3, -231542.94, 0.0, 9.9989805, 9.997982 
2.536996e+3, 2.1359888e+2, -803872.8, -978848.7, -5281.7563, 0.037548024, -0.11679567, -803713.56, 43018.94, 0.0, 10.000946, 9.998352 
2.5366515e+3, 2.23591e+2, -711742.56, -1030050.6, -71291.41, 0.11038049, -0.0836796, -696504.9, 52309.223, 0.0, 10.001418, 9.9972 
2.536305e+3, 2.3358606e+2, -692016.6, -871507.9, -72261.07, 0.021398908, 0.125182, -666541.0, -15668.34, 0.0, 10.000551, 9.997967 
2.5359598e+3, 2.4358124e+2, -650436.8, -514218.34, -52510.125, 0.06501747, 0.34036034, -496326.53, 56596.727, 0.0, 9.998874, 10.000595 
2.5356156e+3, 2.5357535e+2, -648198.7, -301415.03, 42516.324, 0.17107406, 0.055125087, -296278.53, 158694.45, 0.0, 9.997617, 10.001912 
2.5352713e+3, 2.6356947e+2, -877625.06, -798662.75, 160174.7, 0.1546229, 0.059916604, -673175.1, -316148.03, 0.0, 9.997133, 9.998155 
2.534927e+3, 2.7356347e+2, -321911.8, -414464.78, 137917.84, 0.050236497, 0.09445048, -222713.75, 36376.02, 0.0, 10.000089, 9.998626 
2.5345835e+3, 2.8355756e+2, -163782.69, -344800.13, -24967.791, 0.07888935, 0.27495655, -160402.0, 748.00305, 0.0, 10.000685, 9.998194 
2.534239e+3, 2.9354993e+2, -325853.22, -247622.58, -26833.309, 0.2257606, 0.06848263, -239303.36, -176078.63, 0.0, 9.998417, 9.999227 
2.5338942e+3, 3.0354202e+2, -520248.9, -461565.1, -82992.414, 0.33070868, 0.02481179, -402880.38, -402880.38, 0.0, 9.997369, 9.997992 
2.5335458e+3, 3.13539e+2, 81352.91, 308143.0, -78824.164, 0.08368899, 0.29146507, 332848.22, 332848.22, 0.0, 9.999367, 10.002256 
2.550102e+3, 1.2399077e+2, -1445204.6, -1747097.9, 282769.2, -0.015473163, -0.4062009, -1275615.3, 449273.06, 0.29081753, 10.003297, 9.998408 
2.5497597e+3, 1.3398877e+2, -1449832.8, -1624227.1, 103667.82, 0.2355358, -0.03504374, -1401566.5, 225351.22, 0.2027681, 10.001808, 9.999042 
2.5494108e+3, 1.4398484e+2, -1321133.6, -1339852.1, -72290.62, -0.20667003, 0.20291093, -1257598.9, 271358.84, 0.11625642, 10.000953, 10.0008545 
2.5490612e+3, 1.5397915e+2, -1187944.8, -1138031.5, -91640.984, -0.3773489, -0.03177885, -1068009.8, 362994.03, 0.04988728, 10.000825, 10.00153 
2.548714e+3, 1.6397329e+2, -1374171.0, -1514091.5, -85456.945, -0.35840246, -0.020398315, -1333689.8, -629.5996, 0.013707004, 10.000245, 9.99849 
2.5483698e+3, 1.7396668e+2, -1267681.8, -1394221.1, -52967.11, -0.05288363, -0.023676708, -1248437.4, -13301.117, 0.0016894786, 10.000285, 9.998589 
2.548025e+3, 1.8396145e+2, -923621.7, -904674.44, 39273.836, 0.039959665, 0.09456324, -873747.75, 263442.0, 0.000027889511, 10.000693, 10.001119 
2.5476786e+3, 1.939581e+2, -617940.44, -624052.7, 18834.73, -0.14652304, 0.09654097, -601915.5, 437296.13, 0.0, 10.001848, 10.001781 
2.5473338e+3, 2.0395283e+2, -778943.2, -1071080.3, -27252.963, -0.1942282, 0.1656492, -776422.56, 164836.23, 0.0, 10.001835, 9.998048 
2.5469908e+3, 2.139434e+2, -893382.0, -1083310.8, -17948.287, -0.023336852, -0.06251919, -891700.8, -48344.535, 0.0, 10.000457, 9.997922 
2.546646e+3, 2.2393572e+2, -861724.1, -893059.4, -32836.035, 0.057828, -0.069099315, -841009.3, -95574.19, 0.0, 9.9994135, 9.999129 
2.5462985e+3, 2.3393059e+2, -781138.3, -756629.56, 56133.586, -0.034538027, -0.0014133085, -711428.3, -63940.258, 0.0, 9.999162, 9.999479 
2.5459528e+3, 2.4392578e+2, -496652.75, -421651.16, 103913.98, -0.021919917, 0.13414325, -348678.3, 200857.5, 0.0, 9.999686, 10.000914 
2.5456092e+3, 2.539205e+2, -150312.5, -128990.06, -2523.8293, 0.1600633, -0.01126093, -128695.41, 322888.47, 0.0, 10.001123, 10.001517 
2.5452656e+3, 2.6391488e+2, -206827.27, -402230.1, 74000.74, 0.21105777, 0.0044023804, -181965.73, 171671.64, 0.0, 10.001333, 9.998891 
2.544922e+3, 2.7390894e+2, -306244.94, -403273.6, 136443.3, 0.057412863, 0.04647927, -209947.63, 45752.285, 0.0, 10.000068, 9.998785 
2.5445777e+3, 2.8390303e+2, -261208.42, -360946.13, 30645.129, 0.024508629, 0.21385302, -252545.02, -94783.445, 0.0, 9.999718, 9.998614 
2.5442323e+3, 2.9389584e+2, -10645.649, -117910.12, -16588.313, 0.17883705, 0.084675245, -8138.872, 51696.83, 0.0, 10.000544, 9.999171 
2.5438884e+3, 3.0388856e+2, 22716.36, -140232.9, 51894.75, 0.4628299, 0.08198953, 37839.76, 37839.76, 0.0, 10.000659, 9.998696 
2.543539e+3, 3.1388435e+2, -72772.98, 13862.765, -23199.166, 0.04755301, 0.273019, 19683.873, 19683.873, 0.0, 9.998989, 10.000531 
2.560098e+3, 1.2434203e+2, -1729568.5, -1933393.6, -396689.38, -0.1475608, -0.094550736, -1421909.8, 299526.7, 0.26403108, 10.001126, 9.998087 
2.5597557e+3, 1.3433443e+2, -1651388.1, -1979123.6, 68969.2, 0.19461298, -0.08349626, -1637465.6, -13937.287, 0.18292536, 10.001294, 9.996758 
2.5594068e+3, 1.4432882e+2, -1407710.8, -1394800.5, -49930.86, -0.12348154, 0.1356386, -1350909.3, 174681.6, 0.1037245, 10.000401, 10.000646 
2.5590563e+3, 1.5432554e+2, -1252832.1, -1198228.4, -136082.89, -0.3729852, 0.12596792, -1086735.6, 340882.38, 0.043632858, 10.000507, 10.001215 
2.5587082e+3, 1.6432136e+2, -1371899.6, -1467237.9, -97373.62, -0.3557459, 0.31286323, -1311153.1, 18506.81, 0.011545959, 10.000191, 9.998783 
2.5583646e+3, 1.7431533e+2, -1268066.5, -1356932.1, -88642.914, -0.032753624, 0.3036059, -1213343.6, 18384.293, 0.0013158798, 10.000228, 9.998826 
2.5580204e+3, 1.8430878e+2, -1065311.6, -1046315.75, 59157.457, 0.08968855, 0.30757463, -995898.6, 137891.67, 0.000016496271, 10.000198, 10.000344 
2.5576755e+3, 1.9430093e+2, -894232.75, -890301.5, 19879.234, -0.068800576, -0.06530431, -872290.94, 163559.55, 0.0, 10.000626, 10.00053 
2.5573298e+3, 2.0429449e+2, -1010671.56, -1161406.1, -87577.22, -0.16575912, -0.033102077, -970496.7, -32588.502, 0.0, 10.000304, 9.998133 
2.556983e+3, 2.1428885e+2, -1061157.3, -1128006.3, -75555.766, -0.23318996, 0.05556107, -1011962.94, -171990.5, 0.0, 9.9993, 9.998139 
2.556637e+3, 2.2428304e+2, -846593.8, -648960.56, -55107.984, -0.16681924, 0.14025113, -634632.94, 107396.97, 0.0, 9.998623, 10.001132 
2.556292e+3, 2.3427631e+2, -750907.2, -489635.2, 12446.914, 0.005436808, -0.22020087, -489043.56, 155042.23, 0.0, 9.998382, 10.001639 
2.5559476e+3, 2.4427085e+2, -836718.44, -852464.8, 121099.67, 0.0666983, -0.15716526, -723236.25, -177097.64, 0.0, 9.9986315, 9.998413 
2.5556022e+3, 2.5426605e+2, -525654.06, -640374.4, 43303.855, -0.053025845, -0.0056068073, -511143.44, -62947.61, 0.0, 10.000094, 9.998459 
2.555259e+3, 2.6426074e+2, -315946.53, -329610.75, 22103.232, -0.034119293, 0.16880232, -299643.6, 50608.344, 0.0, 10.000223, 9.999838 
2.5549167e+3, 2.7425346e+2, -310058.5, -240352.14, 106618.57, 0.11082467, -0.107825935, -163034.63, 89285.01, 0.0, 9.999453, 10.000148 
2.5545716e+3, 2.8424728e+2, -358909.44, -391853.7, 34739.313, 0.031244697, -0.047461674, -336934.8, -182552.44, 0.0, 9.999101, 9.998648 
2.554223e+3, 2.9424286e+2, -93173.38, -194118.67, 33770.21, -0.2797017, 0.08939217, -82917.82, -26483.14, 0.0, 10.000212, 9.998764 
2.5538808e+3, 3.04239e+2, -8207.398, -145408.97, -34564.906, 0.12470827, 0.4620009, 8.484399, 8.484399, 0.0, 10.000599, 9.998588 
2.553537e+3, 3.1422752e+2, -210443.33, -121769.164, 51962.008, 0.35920548, -0.13062401, -97799.39, -97799.39, 0.0, 9.998596, 9.999675 
2.5700912e+3, 1.2468842e+2, -1739635.9, -1876619.8, 88989.83, -0.38155684, 0.075756766, -1695832.1, 22227.475, 0.23823552, 10.0003395, 9.998591 
2.5697494e+3, 1.346818e+2, -1633806.8, -1787142.3, 55482.55, 0.021834549, 0.029058099, -1615837.0, 4288.292, 0.16394834, 10.000592, 9.99841 
2.5694025e+3, 1.4467455e+2, -1552781.0, -1597462.3, 5490.84, -0.0795864, 0.060014952, -1552116.1, -29917.674, 0.09188186, 9.999877, 9.999428 
2.569052e+3, 1.5467003e+2, -1330362.8, -1421780.8, -90698.03, -0.33289924, 0.11517891, -1274506.8, 149738.16, 0.03784501, 10.000697, 9.99958 
2.5687045e+3, 1.6466524e+2, -1196559.3, -1327898.4, -117651.37, -0.28125805, 0.30076772, -1127490.8, 198802.86, 0.009625426, 10.001131, 9.999296 
2.5683612e+3, 1.7465925e+2, -1085460.9, -1242534.9, -85842.7, 0.06602264, 0.27861604, -1047649.2, 180705.75, 0.0010124295, 10.0013, 9.999126 
2.5680158e+3, 1.8465239e+2, -1021555.3, -1068429.3, -6466.705, 0.13193516, 0.25181103, -1020679.56, 109739.336, 0.000009793076, 10.00061, 10.000019 
2.56767e+3, 1.946439e+2, -1146430.8, -1094811.6, -16030.605, -0.060046636, -0.08904208, -1090238.4, -57747.445, 0.0, 9.999126, 9.999897 
2.5673237e+3, 2.0463723e+2, -1101118.0, -1036191.6, -74349.0, -0.17593555, -0.12862629, -987527.56, -52976.65, 0.0, 9.998841, 9.999731 
2.5669777e+3, 2.1463238e+2, -816287.7, -871684.94, -1522.3456, -0.19135721, -0.06726435, -816245.9, 20354.684, 0.0, 10.000239, 9.999509 
2.5666317e+3, 2.2462745e+2, -492406.84, -489896.4, -47679.094, -0.14066613, 0.032975767, -443456.0, 295192.1, 0.0, 10.000949, 10.001151 
2.5662866e+3, 2.3462167e+2, -436475.2, -404242.1, -134309.27, 0.025164947, -0.15918364, -285085.88, 355613.56, 0.0, 10.000638, 10.00121 
2.5659415e+3, 2.446162e+2, -604213.75, -713198.75, -39516.58, 0.054686747, -0.104021944, -591393.6, -48638.938, 0.0, 10.000037, 9.998692 
2.5655958e+3, 2.546108e+2, -646516.8, -719532.25, 23137.8, -0.11253859, 0.015479514, -639802.2, -194983.9, 0.0, 9.99925, 9.998352 
2.5652522e+3, 2.646054e+2, -472558.7, -368535.38, 44579.184, -0.1158908, 0.1664036, -352045.1, -5168.5845, 0.0, 9.9988575, 10.000235 
2.5649107e+3, 2.7459866e+2, -330579.16, -241265.94, -15280.147, 0.123207144, -0.050330076, -238724.08, 10216.3955, 0.0, 9.999129, 10.000298 
2.5645658e+3, 2.8459266e+2, -279931.72, -336044.63, -84814.84, 0.06394662, -0.009893811, -218653.28, -67652.234, 0.0, 9.999492, 9.99884 
2.5642172e+3, 2.945883e+2, -142281.88, -249114.13, -95544.734, -0.32001463, 0.15581091, -86235.32, -33184.01, 0.0, 9.9998865, 9.9985695 
2.563874e+3, 3.0458415e+2, -11621.707, -185550.4, -138138.94, -0.05386306, 0.5117126, 64647.406, 64647.406, 0.0, 10.0006075, 9.998353 
2.56353e+3, 3.1457472e+2, 235066.2, 169006.55, 16286.467, 0.20165749, 0.20552129, 238863.25, 238863.25, 0.0, 10.001095, 10.000533 
2.5800887e+3, 1.2503661e+2, -1829199.0, -1681049.1, -61929.027, -0.1707609, 0.6540532, -1658572.0, 56091.83, 0.21373183, 9.998594, 10.000827 
2.5797436e+3, 1.3502868e+2, -1445928.4, -1432293.5, -75229.805, -0.038352575, 0.13979356, -1363572.9, 253153.39, 0.14603193, 10.000832, 10.000946 
2.5793976e+3, 1.4502034e+2, -1520233.4, -1749760.6, -49028.38, 0.034621965, -0.0019283537, -1510199.3, 8605.454, 0.080827504, 10.000932, 9.99784 
2.5790483e+3, 1.5501426e+2, -1438222.4, -1694433.3, -118451.05, -0.19393937, 0.061120722, -1391852.4, 29020.13, 0.032553293, 10.000974, 9.997537 
2.5787017e+3, 1.6500841e+2, -1214952.1, -1310529.6, -105328.06, -0.11548271, 0.23587914, -1147078.6, 175852.67, 0.007938516, 10.000957, 9.999439 
2.578358e+3, 1.7500192e+2, -1210887.3, -1302734.9, -109847.46, 0.22067258, 0.114623465, -1137750.3, 87239.664, 0.00076767127, 10.000499, 9.999053 
2.5780118e+3, 1.8499513e+2, -1152791.6, -1200606.8, -51330.1, 0.25338235, 0.13649324, -1120074.5, 6979.013, 0.000005913737, 10.000123, 9.999292 
2.5776637e+3, 1.949875e+2, -1234133.0, -1223323.3, -88629.42, -0.016460666, -0.08269653, -1139934.1, -110807.234, 0.0, 9.999045, 9.998987 
2.5773177e+3, 2.0498097e+2, -1004449.9, -829077.9, -31944.299, -0.09290076, -0.12459273, -823440.4, 107744.336, 0.0, 9.998901, 10.001081 
2.5769737e+3, 2.1497487e+2, -844602.75, -735557.6, 12085.024, 0.005379858, -0.3790733, -734234.4, 99000.64, 0.0, 9.999471, 10.000784 
2.5766286e+3, 2.2497064e+2, -838860.6, -873774.5, -84286.33, 0.04403089, -0.17284544, -770242.4, -34965.582, 0.0, 9.999739, 9.999022 
2.576281e+3, 2.3496734e+2, -806382.6, -844376.3, -148611.77, 0.023368401, 0.072517164, -675558.44, -38239.33, 0.0, 9.999424, 9.998715 
2.575935e+3, 2.4496233e+2, -651828.2, -554149.7, -63558.473, -0.014197844, 0.24110283, -522833.16, 16540.156, 0.0, 9.999086, 10.000186 
2.5755897e+3, 2.549549e+2, -691648.8, -571740.56, 4612.837, -0.100479454, -0.048042543, -571563.4, -130115.18, 0.0, 9.998337, 9.999771 
2.5752455e+3, 2.649496e+2, -711914.1, -644323.0, 41133.95, -0.11300863, 0.11384165, -624881.9, -281376.06, 0.0, 9.9980135, 9.99873 
2.574903e+3, 2.7494577e+2, -607440.06, -573825.7, 3775.0164, -0.02248613, 0.31696245, -573406.94, -327855.7, 0.0, 9.998209, 9.99843 
2.5745597e+3, 2.849397e+2, -370120.88, -342817.5, -70179.88, 0.040400747, 0.44022802, -284973.84, -137360.75, 0.0, 9.998832, 9.99907 
2.574215e+3, 2.9493058e+2, -234014.94, -288543.75, -38035.164, -0.021173405, 0.07765162, -214481.67, -164781.63, 0.0, 9.999331, 9.9985485 
2.573868e+3, 3.049237e+2, -85258.59, -226077.69, -85739.23, -0.15673451, 0.17513026, -44723.473, -44723.473, 0.0, 10.000235, 9.998219 
2.5735223e+3, 3.149185e+2, 222069.03, 278417.22, 202351.47, -0.26098302, 0.27916753, 454546.56, 454546.56, 0.0, 10.000658, 10.001472 
2.5900838e+3, 1.2537397e+2, -1862548.3, -1518372.3, -15783.325, -0.029436288, 0.16246471, -1517650.0, 193699.3, 0.19077115, 9.997429, 10.002751 
2.5897393e+3, 1.3537015e+2, -1305831.3, -1306490.5, -18852.762, -0.09514163, 0.018898856, -1287305.3, 326070.0, 0.12932457, 10.0015745, 10.001595 
2.589393e+3, 1.4536372e+2, -1223750.8, -1496142.5, -142358.44, -0.14976716, -0.016693247, -1162930.9, 352505.4, 0.07062259, 10.002621, 9.998818 
2.5890443e+3, 1.5535866e+2, -1219785.1, -1503721.5, -97706.92, -0.2526934, 0.090483725, -1189411.8, 228081.05, 0.027766839, 10.002082, 9.998341 
2.5886965e+3, 1.653523e+2, -1127290.4, -1246795.0, -101304.26, -0.21869665, 0.16046312, -1069429.4, 250124.9, 0.0064744665, 10.0013685, 9.999724 
2.5883508e+3, 1.7534433e+2, -1218223.6, -1304045.0, -83258.164, 0.0023708837, -0.0887176, -1167468.8, 54156.094, 0.0005723583, 10.000285, 9.999208 
2.5880054e+3, 1.8533805e+2, -1108170.8, -1213344.5, -12202.103, 0.1059465, -0.0134701105, -1106773.6, 16913.04, 0.0000035552432, 10.000503, 9.999042 
2.5876597e+3, 1.953324e+2, -855481.75, -1091144.9, -19275.043, 0.0607467, 0.04304066, -853915.6, 171832.83, 0.0, 10.001712, 9.998665 
2.587314e+3, 2.0532647e+2, -547327.6, -574081.5, -46764.44, -0.010206978, 0.050012898, -512064.5, 415738.78, 0.0, 10.001824, 10.001467 
2.5869685e+3, 2.153201e+2, -601450.06, -615509.7, -64875.85, -0.042076387, -0.19940557, -543224.25, 286629.7, 0.0, 10.000987, 10.000952 
2.5866222e+3, 2.2531492e+2, -698121.6, -759514.1, -148313.89, -0.045082163, -0.13456126, -577360.7, 154542.8, 0.0, 10.000406, 9.999508 
2.586275e+3, 2.3531054e+2, -669824.56, -767898.06, -81639.81, -0.039330944, 0.020157356, -623626.56, 10328.476, 0.0, 10.000188, 9.998917 
2.585929e+3, 2.4530576e+2, -425528.47, -394234.16, 5246.231, -0.03288762, 0.17323148, -393378.1, 142629.45, 0.0, 10.000309, 10.000725 
2.5855842e+3, 2.5529966e+2, -325868.78, -355547.56, -35162.965, -0.019853985, 0.016726961, -302542.22, 135527.0, 0.0, 10.00057, 10.000202 
2.5852394e+3, 2.6529446e+2, -307983.2, -477875.38, 15705.32, -0.095707685, 0.17025442, -306543.53, 33582.527, 0.0, 10.0008335, 9.998547 
2.5848955e+3, 2.7529016e+2, -219242.53, -449434.4, 27398.43, -0.1704269, 0.4161803, -216026.39, 26152.0, 0.0, 10.0010195, 9.998006 
2.5845537e+3, 2.8528368e+2, -1890.7753, -99471.88, -14738.823, -0.009297152, 0.484805, 286.8087, 144531.8, 0.0, 10.000974, 9.999741 
2.5842115e+3, 2.9527387e+2, -22114.473, -164412.95, -45815.586, 0.2360804, 0.033654094, -8639.354, 37698.336, 0.0, 10.000553, 9.99886 
2.583864e+3, 3.052673e+2, 43480.92, -153932.11, -73998.484, -0.056948233, 0.14619163, 68138.71, 68138.71, 0.0, 10.00106, 9.998333 
2.5835222e+3, 3.152582e+2, 55547.445, -26489.273, 196892.22, 0.19645588, -0.08223527, 215648.58, 215648.58, 0.0, 10.000336, 9.999601 
2.6000804e+3, 1.257137e+2, -1602870.5, -1554585.1, 168323.61, 0.33632377, -0.2548642, -1408681.6, 299326.78, 0.16949552, 10.0002575, 10.001067 
2.599735e+3, 1.3571137e+2, -1521473.0, -1509755.1, 65710.54, -0.10411912, -0.16721006, -1449642.9, 160384.4, 0.11391175, 10.000382, 10.000556 
2.599388e+3, 1.4570731e+2, -1430472.3, -1439745.9, -135421.89, -0.28329223, 0.012254544, -1299607.8, 212458.73, 0.061296463, 10.000523, 10.000142 
2.5990403e+3, 1.5570319e+2, -1352371.9, -1481664.9, -134544.83, -0.26373097, 0.07274801, -1267748.6, 146361.3, 0.023481611, 10.000862, 9.999037 
2.5986916e+3, 1.6569644e+2, -1184640.3, -1270952.8, -138365.2, -0.24780384, 0.07573189, -1082857.3, 233315.48, 0.005220199, 10.001008, 9.99974 
2.5983432e+3, 1.7568727e+2, -1255766.1, -1364024.4, -149423.72, -0.1951416, -0.30291095, -1150969.4, 67284.93, 0.00041937284, 10.000262, 9.998822 
2.5979987e+3, 1.8568158e+2, -1160284.8, -1291093.9, 30817.82, -0.027515478, -0.12605627, -1153387.9, -33073.863, 0.0000020172258, 10.000447, 9.998492 
2.5976568e+3, 1.9567777e+2, -1072843.4, -1291330.3, 4814.395, 0.20645182, 0.1484194, -1072737.4, -50372.945, 0.0, 10.000714, 9.997738 
2.597311e+3, 2.0567288e+2, -762530.7, -738489.75, -72158.55, 0.13165084, 0.33770648, -677357.3, 247055.92, 0.0, 10.000752, 10.000795 
2.5969622e+3, 2.1566674e+2, -910498.25, -860101.2, -100168.6, -0.15866634, 0.15031381, -782010.25, 44454.625, 0.0, 9.999436, 9.999963 
2.5966147e+3, 2.2565998e+2, -757135.75, -633498.75, -159811.61, -0.2427353, 0.04409398, -523965.94, 204560.1, 0.0, 9.999441, 10.0008 
2.5962678e+3, 2.3565221e+2, -791963.44, -722463.7, -110886.61, -0.15323254, -0.3036799, -641009.44, -10408.7295, 0.0, 9.999007, 9.999763 
2.5959235e+3, 2.4564803e+2, -650551.2, -609332.3, -7686.8354, -0.031156892, -0.076201014, -607945.5, -75299.83, 0.0, 9.999344, 9.999678 
2.5955802e+3, 2.5564557e+2, -604475.7, -642141.75, -29190.613, 0.080934495, 0.20465177, -588570.0, -153892.72, 0.0, 9.999397, 9.998789 
2.5952345e+3, 2.6563948e+2, -426536.56, -504462.06, 10273.532, -0.10483251, 0.33376884, -425204.88, -88463.19, 0.0, 10.000019, 9.998712 
2.5948882e+3, 2.7563035e+2, -352027.4, -528499.25, 38524.344, -0.4592587, 0.045201667, -343984.03, -105149.13, 0.0, 10.000254, 9.997822 
2.594547e+3, 2.8562388e+2, -126843.47, -206878.64, -55915.727, -0.21075793, 0.14985414, -98100.78, 42802.445, 0.0, 10.00042, 9.9992485 
2.594208e+3, 2.9561877e+2, -217168.97, -352403.72, -79112.49, 0.3296148, 0.20435968, -180714.75, -137756.23, 0.0, 9.999743, 9.997935 
2.5938618e+3, 3.056126e+2, -94283.56, -312209.84, -108167.05, 0.18026496, 0.44124657, -49711.445, -49711.445, 0.0, 10.000675, 9.997355 
2.5935102e+3, 3.155983e+2, 7801.116, 131703.72, 127588.97, -0.63751966, -0.25491434, 211586.5, 211586.5, 0.0, 9.999402, 10.001085 
2.610077e+3, 1.2606294e+2, -1386668.5, -1591851.1, 93606.305, 0.16655369, -0.055959493, -1350381.8, 354193.56, 0.14988421, 10.002608, 9.999609 
2.6097286e+3, 1.3605799e+2, -1829088.3, -1881998.6, 53464.695, -0.174202, 0.0094531225, -1795891.5, -189260.14, 0.09979623, 9.999098, 9.99858 
2.609382e+3, 1.460525e+2, -1710146.9, -1487930.4, -54677.734, -0.26455617, 0.09762516, -1475205.3, 33479.063, 0.05285716, 9.998157, 10.000946 
2.6090363e+3, 1.5604612e+2, -1467529.3, -1491671.0, -47116.03, -0.14881903, -0.09512756, -1430962.4, -20221.18, 0.019694533, 9.999756, 9.99955 
2.6086888e+3, 1.6603936e+2, -1176771.8, -1297648.1, -126079.66, -0.107004754, -0.107290424, -1097392.6, 215411.56, 0.004163879, 10.001152, 9.999481 
2.60834e+3, 1.7603187e+2, -1015432.2, -1277973.6, -131078.13, -0.11563983, -0.26712513, -961194.25, 253680.95, 0.00030229846, 10.002005, 9.998573 
2.607995e+3, 1.8602583e+2, -881404.8, -1095056.0, 15613.534, -0.02409778, -0.15044136, -880269.8, 236666.75, 0.0000010444409, 10.001986, 9.999148 
2.607652e+3, 1.960205e+2, -971173.6, -1192445.3, 47579.75, 0.12741631, -0.048734836, -961376.4, 57618.664, 0.0, 10.001037, 9.998319 
2.6073056e+3, 2.0601533e+2, -829704.4, -864097.75, -42456.31, 0.0834019, 0.1190101, -801094.25, 119953.71, 0.0, 10.000538, 10.000084 
2.606957e+3, 2.1600975e+2, -855078.9, -929041.25, -74253.65, -0.12308863, 0.10061917, -809107.0, 13994.435, 0.0, 10.000041, 9.999245 
2.6066092e+3, 2.260028e+2, -675766.5, -668763.0, -174829.78, -0.20787518, 0.03144578, -497399.88, 227768.13, 0.0, 10.000166, 10.000269 
2.606262e+3, 2.3599453e+2, -601084.9, -692311.06, -232763.92, -0.17817731, -0.27684677, -409506.94, 217740.05, 0.0, 10.000383, 9.999374 
2.6059178e+3, 2.4598964e+2, -452195.03, -500813.9, -141974.22, -0.0527063, -0.13413422, -332464.1, 196833.9, 0.0, 10.000583, 9.999834 
2.6055753e+3, 2.5598678e+2, -342708.78, -520701.78, -126560.6, 0.12155694, 0.1345527, -276986.28, 154346.58, 0.0, 10.00106, 9.998872 
2.6052302e+3, 2.6598096e+2, -215794.48, -253381.98, -35601.234, -0.040499527, 0.19439287, -194330.9, 139060.44, 0.0, 10.000698, 10.000166 
2.6048836e+3, 2.759723e+2, -357795.6, -399267.0, 39859.723, -0.38407218, -0.13392718, -333600.6, -98126.92, 0.0, 9.9995165, 9.9991045 
2.6045424e+3, 2.8596655e+2, -304409.97, -306427.22, 24685.547, -0.12966932, -0.013095999, -280712.47, -143177.2, 0.0, 9.999207, 9.999158 
2.6042032e+3, 2.9596308e+2, -309146.2, -423697.8, 21112.475, 0.46562934, 0.27193868, -305378.94, -265799.7, 0.0, 9.9991255, 9.99777 
2.6038575e+3, 3.0595607e+2, -227910.3, -333191.3, 110234.99, 0.33475155, 0.4073236, -158391.98, -158391.98, 0.0, 9.999332, 9.997929 
2.6035103e+3, 3.159487e+2, -25789.516, 216033.55, 169551.56, 0.013317293, 0.4006993, 303370.25, 303370.25, 0.0, 9.998568, 10.002075 
2.620072e+3, 1.2641054e+2, -1645404.3, -1871689.0, -82820.13, -0.00802919, 0.022486812, -1618331.3, 82828.34, 0.13183987, 10.001387, 9.998041 
2.6197225e+3, 1.3640518e+2, -1759456.5, -2021042.4, -127893.28, -0.13111043, 0.18692435, -1707319.3, -104089.15, 0.08692974, 10.00046, 9.996902 
2.6193765e+3, 1.4639787e+2, -1384383.3, -1333176.3, -21432.236, -0.09315346, 0.15588158, -1325389.9, 179909.72, 0.045284748, 10.0003805, 10.001006 
2.619033e+3, 1.5638909e+2, -1341102.6, -1449447.9, -58502.742, 0.07765236, -0.30259252, -1315542.9, 91829.555, 0.01638905, 10.000732, 9.999388 
2.6186863e+3, 1.6638267e+2, -1192498.9, -1378397.3, -132235.17, 0.115872845, -0.23980072, -1123813.6, 185620.13, 0.0032885466, 10.001441, 9.998764 
2.6183385e+3, 1.7637718e+2, -1158993.4, -1430375.9, -168545.58, 0.09979688, -0.14269657, -1078306.0, 133186.56, 0.00021471751, 10.001423, 9.997814 
2.617992e+3, 1.863703e+2, -908905.06, -1002867.7, -67514.86, 0.07891426, -0.14170924, -873633.7, 239924.11, 0.00000047553752, 10.001393, 10.000046 
2.6176462e+3, 1.9636253e+2, -1107671.5, -1221808.4, -45591.08, 0.05178406, -0.3917409, -1091696.5, -76068.12, 0.0, 10.000042, 9.998583 
2.6173e+3, 2.0635656e+2, -982969.1, -1050592.9, -87959.63, 0.030282011, -0.26050457, -922546.5, -4857.091, 0.0, 10.000061, 9.998996 
2.6169527e+3, 2.1635124e+2, -1115213.8, -1223746.9, -109668.805, 0.012862363, -0.17008981, -1047119.7, -227371.19, 0.0, 9.999098, 9.99766 
2.616605e+3, 2.2634497e+2, -876511.4, -939633.06, -156777.36, -0.05538332, -0.0033279844, -748149.6, -26334.602, 0.0, 9.999707, 9.998568 
2.6162565e+3, 2.363378e+2, -904424.9, -1033446.1, -201556.89, -0.15432857, -0.05402019, -757306.56, -133417.4, 0.0, 9.999317, 9.997501 
2.615912e+3, 2.4633092e+2, -540360.3, -494445.34, -98676.17, -0.11941346, -0.047398478, -416091.28, 109867.414, 0.0, 9.999909, 10.000138 
2.6155695e+3, 2.5632408e+2, -543337.75, -600410.06, -102234.09, 0.007995075, -0.22645935, -465731.9, -37705.055, 0.0, 9.999749, 9.998914 
2.615226e+3, 2.6632026e+2, -183648.23, 6068.7007, -80151.11, 0.028646449, -0.092489816, 35396.902, 365457.7, 0.0, 9.999954, 10.00225 
2.6148808e+3, 2.7631733e+2, -395717.75, -255797.84, 15029.273, -0.04174612, -0.08929825, -254201.72, -22118.795, 0.0, 9.998653, 10.000467 
2.614538e+3, 2.863123e+2, -357576.28, -260145.17, 27854.729, 0.10701944, 0.019677414, -252743.95, -118609.49, 0.0, 9.998681, 9.999666 
2.6141965e+3, 2.963061e+2, -402054.28, -423083.97, 63793.203, 0.39880487, -0.04589021, -347915.16, -311711.63, 0.0, 9.998398, 9.998108 
2.61385e+3, 3.0629966e+2, -196972.13, -43157.31, 116665.55, 0.18362685, -0.005196732, 19669.313, 19669.313, 0.0, 9.998442, 10.000333 
2.6134974e+3, 3.162983e+2, -224338.4, 93656.5, 225655.92, -0.66744304, 0.35053867, 210703.94, 210703.94, 0.0, 9.997475, 10.00175 
2.6300648e+3, 1.2675045e+2, -1748097.5, -1876198.4, -164386.72, -0.37780064, -0.30891725, -1635723.9, 62098.105, 0.11528824, 10.000408, 9.998502 
2.62972e+3, 1.3674574e+2, -1417310.9, -1802357.3, -96133.67, -0.105349936, -0.13216242, -1394643.9, 205241.31, 0.07524984, 10.002611, 9.99741 
2.6293737e+3, 1.4673996e+2, -1013024.4, -1200918.5, -40093.965, -0.09032258, -0.018143972, -1004826.56, 497115.25, 0.038529176, 10.003206, 10.000603 
2.629028e+3, 1.5673298e+2, -1030894.1, -1351261.5, -76505.18, -0.13838215, -0.24377152, -1013562.06, 390439.03, 0.013527696, 10.003038, 9.998988 
2.6286805e+3, 1.6672638e+2, -1082289.0, -1476409.3, -218836.55, -0.13891694, -0.11140984, -984862.94, 321206.8, 0.0025719018, 10.0027485, 9.99752 
2.6283324e+3, 1.7672011e+2, -1120763.5, -1490339.3, -252698.89, -0.14351398, 0.040230043, -992496.6, 215645.33, 0.00015054179, 10.001891, 9.997227 
2.6279867e+3, 1.8671352e+2, -821867.0, -851622.4, -204641.14, -0.016813098, 0.018429626, -631563.44, 478640.0, 0.0000001940375, 10.00142, 10.001109 
2.6276422e+3, 1.967063e+2, -946217.8, -1018924.25, -154354.39, 0.11658216, -0.27081907, -823993.5, 188270.55, 0.0, 10.00045, 9.999831 
2.6272956e+3, 2.0670027e+2, -831249.06, -883936.7, -121455.31, 0.1018611, -0.2595041, -733313.4, 181007.86, 0.0, 10.000671, 9.999861 
2.6269478e+3, 2.1669468e+2, -674378.8, -918229.8, -47729.336, 0.0142416125, -0.24640691, -665369.5, 151009.6, 0.0, 10.001608, 9.998577 
2.6266006e+3, 2.2668883e+2, -460575.8, -767308.44, -25029.018, -0.0671233, -0.06932188, -458546.9, 259895.77, 0.0, 10.002587, 9.998395 
2.626253e+3, 2.3668264e+2, -288887.75, -731841.8, -5393.241, -0.15879287, 0.03912865, -288822.1, 331688.44, 0.0, 10.003366, 9.997662 
2.6259074e+3, 2.4667555e+2, -289807.44, -403468.3, 30101.469, -0.108948104, 0.039962385, -282327.72, 240255.53, 0.0, 10.001631, 9.99999 
2.625563e+3, 2.5666788e+2, -705354.2, -640564.0, 24123.1, 0.015622252, -0.17145869, -632568.9, -207909.25, 0.0, 9.998335, 9.999361 
2.6252198e+3, 2.6666352e+2, -419853.5, -88758.96, 15937.219, 0.0922784, -0.11676901, -87993.59, 238702.9, 0.0, 9.998129, 10.002524 
2.6248765e+3, 2.7666107e+2, -241321.33, -121945.875, -45780.656, 0.14989947, -0.06335298, -106410.65, 122300.51, 0.0, 9.999299, 10.0011215 
2.624533e+3, 2.8665608e+2, -117175.74, -119758.28, -81497.3, 0.22143026, -0.01763692, -36959.49, 93801.516, 0.0, 10.000094, 10.000003 
2.6241896e+3, 2.966494e+2, -40952.44, -140199.1, -89088.26, 0.31543612, -0.15218815, 11400.667, 44233.113, 0.0, 10.000303, 9.999177 
2.6238424e+3, 3.0664325e+2, 201975.95, 280262.6, -104952.01, 0.065064184, -0.22917348, 353133.22, 353133.22, 0.0, 10.000536, 10.001594 
2.6234984e+3, 3.166366e+2, 42993.977, 275391.03, -48844.863, 0.20678627, -0.48627454, 285239.8, 285239.8, 0.0, 9.998899, 10.00238 
2.6400587e+3, 1.2709136e+2, -1721623.4, -1804439.6, -11031.351, -0.50435424, -0.5559768, -1720179.1, -25702.707, 0.10017185, 10.000287, 9.999064 
2.6397178e+3, 1.370866e+2, -1460748.8, -1781606.6, -48578.027, 0.011833586, -0.4449237, -1453555.3, 142981.39, 0.06469282, 10.002153, 9.997763 
2.6393715e+3, 1.4708221e+2, -1119005.1, -1322390.6, -25507.313, -0.048629925, -0.17682533, -1115855.0, 382727.1, 0.032530583, 10.002807, 9.999877 
2.639023e+3, 1.5707712e+2, -1221848.6, -1578514.3, -105675.82, -0.33842626, -0.14586486, -1192889.4, 207740.0, 0.011066901, 10.002351, 9.997725 
2.6386747e+3, 1.6707022e+2, -1175888.4, -1640738.3, -186581.34, -0.4162023, 0.06537177, -1110263.0, 192443.47, 0.0019930317, 10.002674, 9.99638 
2.638326e+3, 1.7706251e+2, -1202184.0, -1659295.3, -183876.67, -0.4059541, 0.18937631, -1137399.8, 67397.56, 0.00010503105, 10.001925, 9.996051 
2.6379815e+3, 1.8705676e+2, -784191.0, -704983.1, -155635.48, -0.10721635, 0.23219752, -583991.7, 522860.16, 0.00000008640195, 10.001333, 10.002041 
2.6376384e+3, 1.9705153e+2, -1022028.3, -984853.5, -185106.63, 0.3172444, 0.03515932, -817403.4, 191489.55, 0.0, 9.999793, 10.000323 
2.6372916e+3, 2.0704564e+2, -770763.2, -684756.3, -95204.31, 0.255822, -0.05257691, -623293.7, 287649.16, 0.0, 10.000396, 10.0013485 
2.6369435e+3, 2.1703936e+2, -831327.5, -903518.5, -46472.082, -0.0013781162, -0.27266526, -808579.6, 4419.0396, 0.0, 10.000211, 9.999359 
2.6365966e+3, 2.2703396e+2, -599587.44, -776385.1, -9082.192, -0.1270123, -0.117407024, -599122.06, 115933.95, 0.0, 10.001467, 9.998825 
2.63625e+3, 2.3702875e+2, -603039.25, -907894.44, -10649.94, -0.1766621, 0.021660615, -602667.6, 14448.161, 0.0, 10.001406, 9.997386 
2.6359034e+3, 2.4702318e+2, -471108.38, -545539.6, -104654.984, -0.07899198, 0.21008313, -397248.97, 121927.77, 0.0, 10.000718, 9.999418 
2.6355565e+3, 2.57017e+2, -953973.2, -878583.56, -68218.93, 0.069795, 0.1856381, -838337.9, -417096.03, 0.0, 9.997237, 9.998249 
2.6352125e+3, 2.670099e+2, -617326.9, -338072.56, 50735.395, 0.108782694, 0.08970062, -329140.56, -5834.553, 0.0, 9.997585, 10.001015 
2.6348695e+3, 2.770027e+2, -548668.4, -478207.5, -3912.625, 0.09681121, -0.20233059, -477990.9, -252623.55, 0.0, 9.998209, 9.999189 
2.6345265e+3, 2.8699756e+2, -241623.28, -217222.8, -83205.4, 0.09927025, -0.06283081, -145327.95, -17909.936, 0.0, 9.9994955, 9.999589 
2.6341817e+3, 2.9699308e+2, -204695.69, -278588.78, -93955.016, 0.018076357, 0.039067652, -140683.88, -111216.73, 0.0, 9.999527, 9.998589 
2.6338354e+3, 3.069856e+2, 171564.22, 267063.3, -148088.45, -0.12764624, -0.1721333, 374910.06, 374910.06, 0.0, 10.000456, 10.001468 
2.6334935e+3, 3.1698e+2, -316250.22, -431049.6, -103956.74, 0.21450937, -0.29841974, -254899.22, -254899.22, 0.0, 9.998862, 9.997498 
2.6500556e+3, 1.2744169e+2, -1772917.8, -1833060.1, 85170.945, -0.36094296, -0.1402287, -1712665.3, -21615.92, 0.08643013, 9.9999275, 9.999063 
2.649714e+3, 1.3743398e+2, -1470864.6, -1815218.6, 97921.11, -0.07130308, -0.28726584, -1444967.3, 148164.31, 0.055199515, 10.002083, 9.997626 
2.6493677e+3, 1.4742777e+2, -1221541.1, -1499516.5, 20364.791, -0.15895435, -0.13583393, -1220057.1, 275138.53, 0.027235242, 10.002552, 9.99877 
2.6490197e+3, 1.5742134e+2, -1251571.0, -1614354.0, -42231.395, -0.38656262, -0.11665302, -1246719.8, 150540.47, 0.0089680515, 10.00213, 9.997602 
2.6486722e+3, 1.6741462e+2, -963898.1, -1257981.6, -46425.938, -0.39922675, -0.031411186, -956743.1, 342585.28, 0.0015322798, 10.002975, 9.998835 
2.648324e+3, 1.7740738e+2, -854336.7, -1330442.5, 63377.67, -0.36543417, -0.05133893, -846044.5, 355358.84, 0.00007382683, 10.003544, 9.997538 
2.647978e+3, 1.874008e+2, -780599.5, -1040400.06, -32168.842, -0.11023526, 0.05450307, -776675.56, 326797.4, 0.000000036839044, 10.002744, 9.999099 
2.647633e+3, 1.9739468e+2, -920033.56, -1119752.4, -166647.27, 0.19685738, 0.08129692, -825616.8, 179919.81, 0.0, 10.001168, 9.998763 
2.6472858e+3, 2.0738925e+2, -631628.75, -554566.94, -128217.09, 0.17357053, 0.053022183, -459216.34, 448367.78, 0.0, 10.000984, 10.001992 
2.6469383e+3, 2.1738398e+2, -646563.5, -691957.3, -110725.74, -0.03345475, -0.116328456, -556232.3, 253394.42, 0.0, 10.000831, 10.000543 
2.646592e+3, 2.2737864e+2, -688490.4, -683671.94, -84192.24, -0.077589005, -0.08795684, -601854.44, 109824.39, 0.0, 10.0001545, 10.000155 
2.646246e+3, 2.3737328e+2, -791069.0, -852644.1, -36655.727, -0.055447515, -0.06910486, -773986.75, -160251.47, 0.0, 9.9993105, 9.998835 
2.6458988e+3, 2.4736837e+2, -506534.44, -596527.5, -102524.94, -0.0075166235, 0.13537611, -439566.47, 76223.61, 0.0, 10.000466, 9.999268 
2.6455507e+3, 2.5736326e+2, -211312.13, -535285.56, -50873.555, 0.052974507, 0.27570271, -203511.28, 214335.69, 0.0, 10.002191, 9.998286 
2.6452062e+3, 2.6735517e+2, -82998.45, -219994.61, 87282.15, 0.058063935, 0.14103484, -40545.37, 279377.78, 0.0, 10.001741, 9.999862 
2.6448637e+3, 2.7734593e+2, -287672.25, -414763.84, 43558.09, 0.10435664, -0.20752278, -274176.66, -52170.457, 0.0, 10.000115, 9.99874 
2.6445204e+3, 2.873405e+2, -234756.97, -234285.45, 4594.671, 0.114632994, -0.07833466, -229920.5, -105860.19, 0.0, 9.999512, 9.999497 
2.644175e+3, 2.973367e+2, -250856.55, -272310.63, 4018.8494, -0.025342464, 0.14427897, -250128.44, -224027.11, 0.0, 9.998927, 9.998945 
2.64383e+3, 3.0732933e+2, 61538.402, 239514.11, -43082.86, -0.1124039, -0.08720358, 249394.72, 249394.72, 0.0, 9.999449, 10.001816 
2.6434886e+3, 3.1732684e+2, -230185.02, -521571.63, -25379.19, 0.3477338, 0.121974766, -227991.06, -227991.06, 0.0, 9.999807, 9.996475 
2.660054e+3, 1.2779127e+2, -1532605.0, -1716345.4, 35812.94, -0.06346964, 0.22895792, -1525871.4, 161759.05, 0.073999934, 10.001691, 9.998946 
2.6597103e+3, 1.3778193e+2, -1446386.1, -1904021.4, -1837.7491, -0.09625947, -0.10558711, -1446378.8, 143343.19, 0.04671151, 10.002692, 9.996697 
2.659364e+3, 1.4777409e+2, -1323420.8, -1630273.9, -50277.58, -0.20553447, -0.036430154, -1315392.9, 176410.08, 0.022592498, 10.002325, 9.997947 
2.659017e+3, 1.5776642e+2, -1461298.0, -1725301.8, -86256.125, -0.27184737, -0.072151184, -1435614.6, -41731.938, 0.0071954923, 10.000828, 9.99747 
2.6586705e+3, 1.6775972e+2, -992692.06, -958343.1, -52882.582, -0.21770579, -0.1643587, -919916.06, 376024.56, 0.001170623, 10.001466, 10.001608 
2.6583242e+3, 1.7775324e+2, -1134552.4, -1373958.3, -37650.582, -0.10587315, -0.3838715, -1128770.8, 69222.63, 0.00005271245, 10.001353, 9.998269 
2.6579756e+3, 1.8774521e+2, -1197838.5, -1685256.9, -113944.76, -0.03526713, -0.21577941, -1172516.9, -72431.51, 0.000000014947995, 10.001846, 9.995088 
2.6576266e+3, 1.9773713e+2, -1279701.4, -1662590.1, -150082.16, 0.062367227, -0.0015282441, -1227885.4, -225699.92, 0.0, 10.000396, 9.995409 
2.6572797e+3, 2.0773256e+2, -685311.56, -541406.44, -71347.69, 0.03720589, 0.15228869, -512029.5, 392199.4, 0.0, 10.000638, 10.002139 
2.656933e+3, 2.1772891e+2, -887918.75, -819714.44, -105922.39, -0.023384796, 0.1158277, -742539.9, 63715.49, 0.0, 9.999414, 10.00028 
2.6565874e+3, 2.2772324e+2, -671605.44, -472026.2, -108013.67, 0.04444046, 0.007817536, -424761.66, 283542.97, 0.0, 9.999551, 10.001802 
2.6562417e+3, 2.377169e+2, -949513.4, -845008.06, -62897.96, 0.15740153, -0.25413173, -815489.75, -205127.22, 0.0, 9.998017, 9.999467 
2.6558942e+3, 2.477121e+2, -609985.5, -641747.5, -53264.246, 0.073494986, -0.06899105, -570285.1, -57870.69, 0.0, 9.999852, 9.999199 
2.6555455e+3, 2.5770754e+2, -509570.94, -765691.75, -12363.9375, -0.10487918, 0.116101794, -508975.47, -94508.42, 0.0, 10.000682, 9.997391 
2.6552007e+3, 2.677001e+2, -288868.38, -402680.13, 34494.074, -0.089656144, 0.12522765, -279230.13, 37309.535, 0.0, 10.000896, 9.998914 
2.6548576e+3, 2.776914e+2, -541138.06, -650966.8, 22060.3, 0.041485175, -0.09326715, -536872.6, -318251.44, 0.0, 9.999048, 9.9975815 
2.654515e+3, 2.8768513e+2, -282973.63, -208086.95, -5900.4873, 0.18236272, -0.03853105, -207624.89, -86940.82, 0.0, 9.999141, 9.999765 
2.65417e+3, 2.9768026e+2, -424511.84, -383911.88, 21094.545, 0.114434905, 0.037708107, -374936.13, -352201.6, 0.0, 9.998017, 9.998577 
2.653824e+3, 3.0767572e+2, -31378.885, 191537.38, -16493.451, -0.03524319, 0.09991148, 192751.1, 192751.1, 0.0, 9.9989395, 10.001659 
2.653481e+3, 3.1766847e+2, -235338.0, -299353.3, 49081.83, 0.07271583, -0.20764981, -208749.45, -208749.45, 0.0, 9.998944, 9.998375 
2.6700512e+3, 1.2812752e+2, -1273572.0, -1473255.4, -140300.63, -0.20092541, -0.2000591, -1201214.4, 483125.38, 0.062782116, 10.003021, 10.000099 
2.669707e+3, 1.381231e+2, -1259435.4, -1654077.3, -118054.42, -0.27514315, -0.13738862, -1226816.3, 359564.75, 0.039146993, 10.003289, 9.998172 
2.6693597e+3, 1.4811754e+2, -1270791.6, -1426882.6, -171214.3, -0.2885652, -0.007592423, -1160673.8, 327764.88, 0.018543638, 10.001945, 9.999541 
2.6690122e+3, 1.5811138e+2, -1522916.5, -1627750.4, -94494.375, -0.27218726, -0.018295858, -1467274.6, -76771.25, 0.005710664, 9.999787, 9.998666 
2.6686656e+3, 1.6810492e+2, -1282500.3, -1163246.8, -99057.05, -0.16587299, -0.100252874, -1107255.0, 185305.56, 0.0008890518, 9.999647, 10.001102 
2.6683196e+3, 1.7809847e+2, -1339949.8, -1409148.4, -168348.25, -0.06879537, -0.28104898, -1202682.1, -8067.094, 0.000037964888, 9.999557, 9.998899 
2.667971e+3, 1.8809123e+2, -1177831.6, -1423227.1, -110778.1, -0.029351642, -0.21467787, -1135222.0, -38529.926, 0.0000000057994387, 10.000815, 9.997419 
2.667622e+3, 1.9808374e+2, -942562.9, -1313791.3, 76354.78, -0.021365713, -0.12845577, -927471.6, 71305.64, 0.0, 10.001773, 9.997167 
2.6672745e+3, 2.0807871e+2, -599130.56, -645823.7, 140006.72, -0.06064862, 0.020763, -480537.2, 420291.0, 0.0, 10.001809, 10.000901 
2.6669276e+3, 2.180742e+2, -635134.75, -769886.0, 39881.93, -0.12278952, 0.065472886, -624215.8, 178653.7, 0.0, 10.001291, 9.999767 
2.6665816e+3, 2.2806795e+2, -581004.9, -515770.8, -69756.95, 0.031632762, -0.025714792, -471381.97, 233544.78, 0.0, 10.000428, 10.001143 
2.6662362e+3, 2.3806114e+2, -706000.44, -730151.44, -115144.18, 0.24202232, -0.24024117, -602300.3, 4688.676, 0.0, 9.999537, 9.999565 
2.6658896e+3, 2.4805574e+2, -515477.63, -548360.56, -75559.055, 0.20304124, -0.15650107, -454591.94, 54452.117, 0.0, 10.000223, 9.999679 
2.6655424e+3, 2.580508e+2, -364025.1, -596700.7, -43003.332, 0.039083023, -0.043205313, -356331.6, 54765.25, 0.0, 10.001134, 9.998346 
2.6651964e+3, 2.6804453e+2, -293852.63, -407008.5, -3580.2205, -0.039851315, 0.03881403, -293739.44, 19420.621, 0.0, 10.0007105, 9.999048 
2.6648512e+3, 2.780373e+2, -393985.78, -513136.0, 54732.867, 0.008128927, -0.017692635, -372660.47, -157429.73, 0.0, 9.99962, 9.998296 
2.6645088e+3, 2.880302e+2, -110905.78, -116989.65, 81401.57, 0.1579912, -0.07576159, -32489.328, 84812.31, 0.0, 10.000171, 9.999987 
2.664165e+3, 2.980237e+2, -18095.178, -170257.84, 71462.54, 0.21368442, -0.14224906, 10203.869, 29570.105, 0.0, 10.000568, 9.998882 
2.663819e+3, 3.0802196e+2, 172760.48, 165604.36, -14030.112, 0.01700673, 0.26367417, 183661.61, 183661.61, 0.0, 10.000829, 10.000606 
2.663475e+3, 3.1800953e+2, 47458.89, 76765.914, -83039.516, 0.05217424, -0.46243757, 146434.92, 146434.92, 0.0, 9.99969, 10.000648 
2.6800498e+3, 1.2846564e+2, -1092941.1, -1298312.5, 132377.89, -0.1461633, -0.51420814, -1028091.0, 652939.2, 0.05267765, 10.003934, 10.00091 
2.6797038e+3, 1.3846482e+2, -1352493.0, -1571631.5, 1155.5829, -0.3175012, -0.18107425, -1352486.9, 230548.03, 0.03242507, 10.002136, 9.999241 
2.679355e+3, 1.4846131e+2, -1184915.6, -1196073.6, -101935.7, -0.3226949, -0.0037904663, -1088406.4, 396664.53, 0.015032841, 10.001711, 10.001203 
2.679007e+3, 1.5845668e+2, -1390901.8, -1515684.6, -73470.48, -0.1966261, -0.018659363, -1356905.4, 30213.848, 0.0044764117, 10.000558, 9.999032 
2.6786605e+3, 1.6845053e+2, -1241864.9, -1282282.1, -28145.205, -0.100312226, 0.008047623, -1227424.6, 61754.2, 0.00066900725, 10.000648, 9.999763 
2.678314e+3, 1.784442e+2, -1319723.6, -1380796.1, -95009.48, -0.009769792, -0.048006274, -1250463.8, -59225.188, 0.000027210404, 9.999719, 9.999009 
2.677966e+3, 1.8843849e+2, -905912.4, -816293.7, -43053.285, -0.011473642, -0.11514681, -798962.4, 294326.1, 0.000000001728097, 10.000729, 10.001592 
2.6776177e+3, 1.9843288e+2, -1026359.5, -1151986.1, 59289.605, -0.010983992, -0.2307637, -1002797.06, -7459.1113, 0.0, 10.000454, 9.998887 
2.67727e+3, 2.0842649e+2, -847486.1, -992324.9, 87911.8, -0.10567164, -0.16175807, -806006.2, 91398.45, 0.0, 10.001139, 9.998809 
2.6769218e+3, 2.1841997e+2, -1039531.8, -1247370.3, -10891.863, -0.20078911, -0.116851665, -1038962.6, -239488.05, 0.0, 9.9998255, 9.997195 
2.6765755e+3, 2.2841302e+2, -781641.25, -842456.94, -113652.586, -0.01994566, -0.080961205, -694399.0, 7145.287, 0.0, 10.000087, 9.999032 
2.67623e+3, 2.3840606e+2, -1021411.7, -1098153.9, -116451.86, 0.25675926, -0.12248016, -937172.1, -333559.63, 0.0, 9.998432, 9.997552 
2.675886e+3, 2.483995e+2, -562740.94, -489606.53, -20019.332, 0.36560243, -0.14539398, -484485.2, 21189.596, 0.0, 9.999718, 10.000216 
2.675541e+3, 2.5839326e+2, -578997.94, -684007.1, -20297.496, 0.3707103, -0.2380684, -575211.2, -167477.28, 0.0, 9.999733, 9.998381 
2.6751927e+3, 2.6838866e+2, -326647.78, -316047.72, -51657.617, 0.10576037, -0.06190842, -269418.94, 40362.844, 0.0, 10.000112, 9.999916 
2.6748437e+3, 2.7838394e+2, -561159.8, -588804.94, 33080.293, -0.15852758, 0.034173936, -539130.3, -327298.2, 0.0, 9.998537, 9.998296 
2.674501e+3, 2.8837532e+2, -185192.95, -159584.19, 96300.43, -0.068089694, -0.18448332, -75240.62, 38675.805, 0.0, 9.99976, 9.999854 
2.6741585e+3, 2.9836664e+2, -216101.56, -403270.38, 81039.625, 0.0152171375, -0.45829898, -185889.92, -169889.61, 0.0, 9.999905, 9.997591 
2.6738146e+3, 3.083677e+2, -31555.922, -218302.33, -40309.168, 0.0803685, 0.42464793, -23226.697, -23226.697, 0.0, 10.000751, 9.997964 
2.6734713e+3, 3.183533e+2, -138626.8, -27067.346, -174925.23, 0.17762034, -0.2886697, 100756.35, 100756.35, 0.0, 9.998661, 10.000391 
2.690051e+3, 1.2882277e+2, -1071091.8, -1460109.0, 181335.2, -0.07456908, 0.03085692, -999675.44, 677859.06, 0.043619167, 10.004848, 9.999235 
2.6896983e+3, 1.3881533e+2, -1622332.6, -1808702.1, 138572.58, -0.47414294, -0.13249049, -1548527.1, 31075.924, 0.02648621, 10.0006275, 9.998349 
2.68935e+3, 1.4880969e+2, -1236947.9, -1274946.5, 102746.89, -0.4476084, -0.09206674, -1151458.5, 330197.94, 0.012009438, 10.001513, 10.000781 
2.6890036e+3, 1.5880427e+2, -1030492.3, -1362585.0, 69407.375, -0.26431, -0.12450766, -1016569.8, 367139.16, 0.003455713, 10.003013, 9.998925 
2.6886564e+3, 1.6879803e+2, -885205.8, -1166037.4, 87855.64, -0.17051642, -0.07470381, -859985.9, 425784.1, 0.00049606664, 10.003202, 9.999381 
2.688309e+3, 1.7879179e+2, -915049.4, -1195578.5, 62516.992, -0.16168681, -0.062970415, -901747.94, 286082.56, 0.00001910138, 10.002398, 9.999028 
2.687961e+3, 1.8878569e+2, -710177.0, -705517.6, -7668.1987, -0.09634806, -0.16929483, -699833.0, 390049.78, 0.0000000002885943, 10.001876, 10.001851 
2.6876128e+3, 1.9877997e+2, -942932.9, -1101218.0, -31092.965, -0.045339774, -0.30487967, -937044.2, 54886.64, 0.0, 10.0008545, 9.999062 
2.687266e+3, 2.0877331e+2, -940049.06, -1164950.0, -5234.6523, -0.02619044, -0.20011686, -939927.25, -45923.734, 0.0, 10.00096, 9.997744 
2.686919e+3, 2.1876638e+2, -850699.94, -1189235.5, -57671.605, -0.036337912, -0.09247571, -841144.9, -45062.984, 0.0, 10.001139, 9.996978 
2.6865715e+3, 2.2875886e+2, -518057.47, -742729.2, -84875.46, 0.050502684, -0.088662185, -489598.47, 208558.81, 0.0, 10.001888, 9.99893 
2.6862243e+3, 2.387516e+2, -374248.1, -706320.4, 7516.6953, 0.1814899, -0.1281533, -374078.06, 226149.55, 0.0, 10.002382, 9.998387 
2.68588e+3, 2.48745e+2, -193952.84, -304069.2, 118523.445, 0.28166145, -0.18180154, -118323.56, 383964.16, 0.0, 10.00205, 10.000473 
2.685536e+3, 2.5873846e+2, -292373.94, -505202.47, 67596.51, 0.3416253, -0.283358, -272719.63, 131627.52, 0.0, 10.001334, 9.998897 
2.6851872e+3, 2.687338e+2, -370309.84, -386501.38, -79099.9, 0.13876332, -0.0927609, -298892.5, 7506.7666, 0.0, 9.999918, 9.999587 
2.6848373e+3, 2.787295e+2, -568591.25, -543086.25, -39605.37, -0.09502797, 0.090542875, -514230.94, -305781.38, 0.0, 9.9981575, 9.998803 
2.684495e+3, 2.8872102e+2, -206395.3, -103828.375, 122892.58, -0.07286825, -0.17734022, -21948.1, 88581.266, 0.0, 9.999219, 10.000513 
2.684153e+3, 2.9871243e+2, -140673.22, -368248.2, 127936.62, 0.0030742805, -0.47721097, -83243.38, -70634.125, 0.0, 10.00032, 9.997624 
2.6838103e+3, 3.0871317e+2, -226698.08, -501403.47, 33704.336, 0.1738523, 0.48937547, -222623.25, -222623.25, 0.0, 10.000123, 9.99635 
2.683465e+3, 3.1869733e+2, 11671.03, 172501.44, -124839.88, 0.20507334, -0.23080222, 240584.05, 240584.05, 0.0, 9.999004, 10.001608 
2.7000508e+3, 1.2918068e+2, -1645206.4, -1901702.8, -64971.797, 0.05206445, 0.5523122, -1629687.6, 44341.766, 0.03555016, 10.001462, 9.9977455 
2.6996937e+3, 1.3916706e+2, -1490337.3, -1924583.6, 14722.928, -0.4479766, -0.09008849, -1489838.6, 86318.72, 0.021269776, 10.002328, 9.996748 
2.6993462e+3, 1.4915915e+2, -1168021.6, -1351662.8, 102508.086, -0.44246724, -0.1776612, -1122223.5, 356007.34, 0.009415533, 10.002505, 9.999761 
2.699001e+3, 1.591524e+2, -1297697.9, -1592743.8, 10790.892, -0.22603579, -0.2398399, -1297303.8, 82989.47, 0.0026134893, 10.001681, 9.997974 
2.6986527e+3, 1.6914608e+2, -1033856.25, -1233096.6, -761.5611, -0.23787978, -0.19094062, -1033853.3, 248500.8, 0.0003600524, 10.002242, 9.999327 
2.698304e+3, 1.7913976e+2, -1157639.4, -1400273.9, -6149.686, -0.28363755, -0.17005622, -1157483.6, 26931.209, 0.000012952271, 10.001227, 9.998154 
2.697956e+3, 1.8913303e+2, -856047.94, -895260.0, -61838.195, -0.14963652, -0.25787935, -810782.1, 275693.56, 0.000000000007316074, 10.001527, 10.000651 
2.6976085e+3, 1.9912648e+2, -1170471.3, -1387161.6, -63800.824, 0.014890451, -0.35043827, -1153081.8, -164546.69, 0.0, 10.000138, 9.997451 
2.6972625e+3, 2.091199e+2, -1028291.9, -1281877.6, -6944.778, 0.14956135, -0.15661396, -1028101.8, -137491.42, 0.0, 10.000753, 9.99701 
2.696917e+3, 2.1911322e+2, -1078377.3, -1356821.4, -30135.596, 0.2665764, 0.03747906, -1075153.0, -282464.0, 0.0, 9.999984, 9.996349 
2.6965687e+3, 2.2910552e+2, -555552.44, -638841.0, -52133.117, 0.17967504, -0.050660245, -530472.6, 164290.86, 0.0, 10.001307, 9.999806 
2.6962197e+3, 2.3909804e+2, -610243.6, -827863.8, 18254.652, 0.05941693, -0.19881856, -608723.0, -11890.332, 0.0, 10.000932, 9.99822 
2.6958737e+3, 2.4909203e+2, -294143.97, -354472.72, 79798.12, 0.0030842072, -0.20306182, -238999.33, 259886.55, 0.0, 10.0014715, 10.000351 
2.6955283e+3, 2.5908634e+2, -629746.94, -808477.6, 10810.706, -0.013128168, -0.20531887, -629095.44, -228157.95, 0.0, 9.999792, 9.997517 
2.6951805e+3, 2.690801e+2, -597700.44, -668478.75, -146998.39, 0.06755441, -0.033017185, -481891.3, -178880.98, 0.0, 9.999244, 9.997897 
2.6948324e+3, 2.7907413e+2, -793618.7, -717976.3, -32932.06, 0.12138904, 0.11052301, -705648.1, -500566.25, 0.0, 9.997065, 9.998097 
2.6944906e+3, 2.890687e+2, -167826.16, 116913.91, 189054.19, 0.13021615, 0.03818155, 211209.7, 318338.56, 0.0, 9.998791, 10.0021715 
2.6941487e+3, 2.990632e+2, -273719.5, -404589.53, 165682.42, 0.057232756, -0.07990896, -161018.6, -151844.84, 0.0, 9.999429, 9.997788 
2.6938027e+3, 3.090581e+2, -348311.7, -613383.7, 22434.934, -0.018957695, 0.31597722, -346426.28, -346426.28, 0.0, 9.999621, 9.995796 
2.6934573e+3, 3.1904435e+2, 3113.765, 334622.7, 18456.781, 0.028636076, -0.1944407, 335647.1, 335647.1, 0.0, 9.998415, 10.002991 
2.7100423e+3, 1.2952399e+2, -1886449.6, -1684321.5, -43989.285, -0.28885496, 0.17785878, -1675163.0, -4505.6074, 0.028415078, 9.998322, 10.000783 
2.7096972e+3, 1.3951485e+2, -1031947.3, -1613595.1, 69676.516, -0.051407162, -0.2547166, -1023717.1, 549022.6, 0.016713178, 10.005122, 9.997545 
2.7093473e+3, 1.4950746e+2, -1102989.1, -1564158.0, -26878.969, -0.15097606, -0.16427745, -1101427.8, 373387.88, 0.0071980846, 10.003943, 9.997637 
2.708997e+3, 1.595003e+2, -1438802.0, -1710485.4, -97290.93, -0.26251113, -0.08489657, -1407555.4, -30665.467, 0.0019202423, 10.0008545, 9.997586 
2.7086487e+3, 1.6949362e+2, -1111746.8, -1150745.3, -34339.13, -0.2637026, -0.13907887, -1091756.8, 187194.86, 0.00025324232, 10.001177, 10.000435 
2.7083004e+3, 1.7948723e+2, -1103187.5, -1317628.3, -26008.885, -0.28011623, -0.20388314, -1100078.0, 80931.91, 0.000008369746, 10.001284, 9.998704 
2.7079523e+3, 1.8948083e+2, -946203.06, -1073283.5, -91212.38, -0.10102358, -0.18945882, -898581.0, 184489.53, 0.0, 10.001468, 9.999471 
2.7076045e+3, 1.9947448e+2, -973394.94, -1280513.0, -71982.08, 0.063860506, -0.15360951, -957360.94, 27770.426, 0.0, 10.001336, 9.997631 
2.707258e+3, 2.094669e+2, -743973.9, -1051188.3, 50287.41, 0.086876474, -0.12016616, -735951.9, 151260.06, 0.0, 10.002149, 9.998007 
2.7069113e+3, 2.1945953e+2, -608295.4, -1010459.06, 73867.164, 0.07561386, -0.06949431, -595157.06, 194134.81, 0.0, 10.002546, 9.997531 
2.7065638e+3, 2.2945318e+2, -434747.1, -630910.2, 6267.354, 0.092342615, -0.010021612, -434547.06, 256809.5, 0.0, 10.002252, 9.999471 
2.7062157e+3, 2.3944679e+2, -450538.84, -720014.75, 4751.117, 0.072394066, 0.0038096646, -450455.1, 142963.66, 0.0, 10.001754, 9.998581 
2.705869e+3, 2.4943975e+2, -344200.56, -402528.38, 28802.664, -0.010468952, -0.09429381, -332375.13, 163107.2, 0.0, 10.001155, 10.000212 
2.7055225e+3, 2.5943306e+2, -485426.03, -665269.06, -38907.96, -0.06576076, -0.16865881, -477369.44, -79826.445, 0.0, 10.000381, 9.998205 
2.7051747e+3, 2.6942712e+2, -306042.06, -508273.06, -83588.555, 0.06752609, -0.006876404, -275965.38, 23645.93, 0.0, 10.001047, 9.998163 
2.7048275e+3, 2.7942106e+2, -134880.44, -375968.28, 132748.58, 0.25792307, 0.13600072, -76111.72, 125570.62, 0.0, 10.001334, 9.998407 
2.7044854e+3, 2.894155e+2, -12716.645, 100540.164, 211306.53, 0.24041155, 0.11735602, 262674.72, 366406.66, 0.0, 10.000182, 10.001438 
2.704143e+3, 2.9941002e+2, -364440.97, -445129.34, 12252.407, 0.11027729, 0.072721474, -362621.5, -356843.22, 0.0, 9.99866, 9.99792 
2.7037966e+3, 3.0940175e+2, -300137.22, -544775.4, -88698.54, -0.016871905, 0.12275222, -271362.3, -271362.3, 0.0, 9.999656, 9.996311 
2.7034533e+3, 3.19393e+2, 207204.1, 571906.4, -45690.582, 0.30331722, 0.0629725, 577543.44, 577543.44, 0.0, 9.999112, 10.00431 
2.720035e+3, 1.2986512e+2, -1568902.6, -1216931.3, 137653.83, -0.3418834, -0.29172927, -1169490.1, 497816.06, 0.02219124, 9.999208, 10.003616 
2.7197006e+3, 1.3986152e+2, -1537805.1, -1823877.5, -72612.39, 0.4356065, -0.40179333, -1520429.6, 48904.824, 0.01278431, 10.001435, 9.997898 
2.7193478e+3, 1.4985545e+2, -1445505.1, -1897661.6, -204683.33, 0.16781951, -0.10682193, -1366613.5, 104791.62, 0.00532732, 10.002377, 9.996085 
2.718993e+3, 1.5984857e+2, -1426744.0, -1760070.1, -101247.95, -0.16773415, 0.13709737, -1398400.1, -24915.846, 0.0013580795, 10.001291, 9.997025 
2.7186447e+3, 1.6984147e+2, -985852.0, -970776.4, -28813.271, -0.1800993, -0.041101392, -948531.25, 327016.88, 0.00016970174, 10.001623, 10.001421 
2.7182972e+3, 1.7983478e+2, -1219509.9, -1421557.6, -81008.75, -0.1295826, -0.20387429, -1191041.5, -13435.405, 0.0000049540654, 10.000772, 9.998237 
2.717949e+3, 1.8982884e+2, -996151.25, -1230664.0, -134560.73, 0.014364028, -0.071014516, -934926.1, 144739.4, 0.0, 10.001728, 9.998227 
2.717601e+3, 1.9982272e+2, -1081506.6, -1376427.8, -65966.766, 0.16760992, 0.08409054, -1067423.9, -85696.38, 0.0, 10.000924, 9.997125 
2.7172527e+3, 2.098143e+2, -730094.2, -831084.06, 46646.715, -0.056258712, -0.103948124, -711845.75, 171962.48, 0.0, 10.001524, 9.99972 
2.7169046e+3, 2.1980621e+2, -929372.2, -1187020.4, 40034.855, -0.26284388, -0.2583772, -923294.75, -137408.02, 0.0, 10.000577, 9.9972515 
2.7165586e+3, 2.2980168e+2, -632176.9, -854945.9, -25866.479, -0.041652188, 0.055253405, -629212.8, 58726.87, 0.0, 10.001548, 9.998227 
2.716213e+3, 2.397972e+2, -782716.44, -1018036.75, -11791.045, 0.19169459, 0.37601855, -782127.1, -192135.56, 0.0, 10.000251, 9.9972105 
2.7158657e+3, 2.4978806e+2, -476529.28, -487617.2, 4859.1294, 0.14179093, 0.092307575, -474701.22, 17375.34, 0.0, 10.000471, 9.999883 
2.7155182e+3, 2.5977916e+2, -688056.1, -762386.5, -43196.453, 0.059584696, -0.18977693, -668237.2, -274079.03, 0.0, 9.999091, 9.998174 
2.71517e+3, 2.6977518e+2, -255761.11, -258217.19, -51904.387, 0.09071874, 0.011380608, -205070.23, 91128.3, 0.0, 10.0005455, 10.000087 
2.7148223e+3, 2.7977094e+2, -383956.63, -647756.44, 125821.97, 0.15371054, 0.21851687, -333569.0, -135325.5, 0.0, 10.0003805, 9.996999 
2.7144784e+3, 2.8976068e+2, -363555.34, -529458.5, 126272.65, 0.09254365, 0.04027819, -295425.0, -195079.44, 0.0, 9.999797, 9.997266 
2.7141342e+3, 2.997506e+2, -650628.2, -781312.0, -38031.906, -0.087697685, -0.116503, -640365.94, -637920.25, 0.0, 9.997661, 9.996068 
2.7137938e+3, 3.0974343e+2, -223905.77, -261101.7, -64536.426, 0.3370498, -0.085245766, -175340.98, -175340.98, 0.0, 9.999219, 9.998391 
2.7134466e+3, 3.1973764e+2, -19391.879, 294171.2, -169391.13, 0.20635028, -0.0065569966, 368200.84, 368200.84, 0.0, 9.998442, 10.002655 
2.730035e+3, 1.302059e+2, -1696042.6, -1635571.3, -116779.734, 0.08622863, -0.35437638, -1545176.5, 118791.695, 0.016854309, 9.999938, 10.000296 
2.7296868e+3, 1.4020362e+2, -1985545.3, -1901107.5, -306496.97, -0.37566724, -0.13183847, -1633935.4, -67938.99, 0.009467287, 9.9977255, 9.999164 
2.729339e+3, 1.5020052e+2, -1321290.6, -1236012.4, -201477.14, -0.25080717, 0.0089574065, -1072711.9, 395316.1, 0.0037924994, 10.000642, 10.001454 
2.7289912e+3, 1.601962e+2, -1047367.9, -1404713.9, 2917.5752, -0.09529933, 0.08339724, -1047344.06, 322727.56, 0.0009170214, 10.003112, 9.998571 
2.728642e+3, 1.7018811e+2, -958265.44, -1242876.9, -50344.73, -0.16812485, -0.023609998, -949622.44, 322529.44, 0.0001065257, 10.002981, 9.998912 
2.7282923e+3, 1.8018027e+2, -1022055.6, -1363436.1, -181878.69, -0.2639586, -0.10614876, -943316.5, 230911.94, 0.0000025959862, 10.002196, 9.99796 
2.7279449e+3, 1.9017391e+2, -690225.3, -986797.06, -156397.75, -0.102603845, -0.07086547, -622990.94, 453297.5, 0.0, 10.003285, 9.999238 
2.727597e+3, 2.0016769e+2, -613561.25, -1042248.9, -75292.74, 0.035019096, -0.009897009, -600721.75, 377625.7, 0.0, 10.003552, 9.998176 
2.727248e+3, 2.1015994e+2, -676336.25, -831904.56, -53087.527, -0.12650949, -0.13029578, -659946.8, 220474.6, 0.0, 10.00191, 9.999582 
2.726899e+3, 2.2015244e+2, -903501.75, -1104821.3, -90458.93, -0.2945097, -0.21801542, -868827.8, -86333.945, 0.0, 10.00032, 9.9979515 
2.7265543e+3, 2.3014705e+2, -654433.0, -829423.25, -77643.47, -0.04451306, -0.03584783, -624949.9, 59602.54, 0.0, 10.001142, 9.998625 
2.726209e+3, 2.4014203e+2, -486021.1, -805245.9, -31208.629, 0.22378644, 0.19469324, -482998.66, 103609.266, 0.0, 10.001867, 9.997901 
2.7258608e+3, 2.501338e+2, -341063.16, -471076.06, -20624.068, 0.124685615, 0.032236554, -337869.97, 150817.17, 0.0, 10.001488, 9.999574 
2.7255124e+3, 2.6012564e+2, -382021.6, -564132.7, -68387.92, 0.013751358, -0.14117143, -359199.94, 31564.494, 0.0, 10.000825, 9.998724 
2.7251646e+3, 2.701213e+2, -186327.8, -218733.4, -161359.89, 0.052349757, 0.013979387, -40359.254, 252447.19, 0.0, 10.000897, 10.000248 
2.7248177e+3, 2.801167e+2, -325970.5, -633597.4, -87258.375, 0.15381841, 0.17978121, -302943.34, -108091.11, 0.0, 10.000712, 9.996962 
2.7244738e+3, 2.9010555e+2, -325668.13, -672693.9, 42799.42, 0.13706094, 0.010606397, -320467.53, -223502.11, 0.0, 10.000632, 9.995921 
2.724129e+3, 3.0009452e+2, -261811.05, -515880.03, 85963.43, 0.042618595, -0.1360292, -235458.86, -235458.86, 0.0, 9.999869, 9.996839 
2.7237886e+3, 3.1008774e+2, -125524.68, -24804.723, 89350.51, 0.4610369, -0.20568764, 27400.598, 27400.598, 0.0, 9.998896, 10.000275 
2.7234367e+3, 3.200849e+2, 20196.84, 192081.67, -117527.01, -0.06567303, 0.09628765, 251736.97, 251736.97, 0.0, 9.998965, 10.001804 
2.7400348e+3, 1.3054828e+2, -1453464.8, -1914225.5, -51129.156, 0.52476436, -0.26058498, -1447859.3, 212758.19, 0.012358647, 10.003377, 9.99667 
2.7396718e+3, 1.4054577e+2, -1766188.1, -1654706.4, -136282.55, -1.1115097, 0.19146007, -1563206.0, -546.536, 0.0067449408, 9.998688, 10.000335 
2.73933e+3, 1.5054514e+2, -1048550.0, -473236.03, -98056.086, -0.63680494, 0.097888574, -456982.63, 1007672.2, 0.0025850076, 9.999779, 10.007095 
2.73899e+3, 1.6054328e+2, -1387641.5, -1482258.4, -108476.34, 0.06560878, -0.025730437, -1316606.4, 50056.44, 0.0005889778, 10.0004425, 9.999309 
2.7386388e+3, 1.7053436e+2, -1385607.8, -1790415.3, -123185.305, -0.12537391, -0.032423634, -1351068.8, -82309.39, 0.00006228534, 10.001525, 9.995856 
2.7382877e+3, 1.8052524e+2, -1260759.6, -1580004.9, -121515.49, -0.36222684, 0.01672389, -1219769.6, -48912.6, 0.0000011486238, 10.001097, 9.996982 
2.7379405e+3, 1.9051842e+2, -758685.44, -822334.9, -87398.65, -0.22810838, -0.12566236, -697497.56, 375417.97, 0.0, 10.002099, 10.000854 
2.7375937e+3, 2.005121e+2, -917718.06, -1207963.0, -80853.66, -0.07173447, -0.18678969, -896714.56, 78254.59, 0.0, 10.001686, 9.997898 
2.7372438e+3, 2.105053e+2, -848761.0, -1046237.06, -115583.17, -0.113617994, -0.14809695, -795483.7, 81554.1, 0.0, 10.001322, 9.998365 
2.736895e+3, 2.2049835e+2, -1096731.8, -1251990.8, -82001.94, -0.14712615, -0.07672526, -1061442.5, -282334.4, 0.0, 9.9993305, 9.997398 
2.73655e+3, 2.3049043e+2, -648161.94, -688507.0, -43477.336, 0.025884, -0.25620157, -620405.25, 60777.97, 0.0, 10.000709, 9.9997425 
2.7362046e+3, 2.4048321e+2, -716562.0, -953676.56, -35389.72, 0.17111541, -0.31711295, -711392.75, -128140.21, 0.0, 10.000552, 9.997501 
2.7358547e+3, 2.5047803e+2, -460009.63, -563759.0, -57253.67, -0.036930144, -0.17784539, -434625.25, 50681.37, 0.0, 10.000917, 9.999157 
2.7355048e+3, 2.6047286e+2, -698700.1, -891861.3, -90558.54, -0.24726184, 0.011602714, -662884.9, -275524.25, 0.0, 9.999549, 9.997048 
2.735158e+3, 2.7046552e+2, -384849.06, -493609.44, -160354.94, -0.095476106, -0.010649669, -269904.38, 19531.592, 0.0, 10.000378, 9.998563 
2.7348125e+3, 2.8045806e+2, -518474.72, -770174.25, -84355.6, 0.122452796, 0.010344456, -492818.6, -301306.94, 0.0, 9.999738, 9.996455 
2.7344716e+3, 2.9045054e+2, -239645.13, -402250.28, 47192.258, 0.4155881, 0.032349855, -226941.22, -133354.42, 0.0, 10.000369, 9.997855 
2.7341276e+3, 3.0044323e+2, -262462.38, -359735.72, 62042.53, 0.43587285, 0.08535872, -232265.05, -232265.05, 0.0, 9.999326, 9.998152 
2.733775e+3, 3.1043634e+2, -111816.89, 150399.81, 56058.305, -0.18361504, -0.18235566, 161881.55, 161881.55, 0.0, 9.998403, 10.001632 
2.733431e+3, 3.2043347e+2, -91066.914, 87755.88, 206998.66, -0.09028837, 0.019181585, 223828.05, 223828.05, 0.0, 9.998601, 10.001195 
2.7500293e+3, 1.3089798e+2, -886820.2, -1541247.4, -198943.56, -0.18163534, -0.0635982, -831088.25, 826108.3, 0.008685479, 10.006772, 9.997672 
2.749673e+3, 1.4089365e+2, -1595166.5, -1713157.9, -6665.521, -0.49777362, 0.1949681, -1594791.1, -35540.285, 0.0045926278, 10.000409, 9.999117 
2.7493265e+3, 1.5088892e+2, -1461059.5, -1091035.4, -81094.83, -0.33002082, 0.023759952, -1074042.9, 387246.53, 0.0016782226, 9.998667, 10.003433 
2.7489817e+3, 1.6088419e+2, -1780969.9, -1605432.8, -255069.86, -0.07968392, -0.1318379, -1423453.4, -60125.2, 0.0003582281, 9.997416, 9.999926 
2.7486327e+3, 1.7087914e+2, -1452912.8, -1445835.5, -83713.59, -0.18573818, -0.03457684, -1365585.8, -100202.984, 0.000033741435, 9.999427, 9.999238 
2.7482837e+3, 1.8087359e+2, -1182251.9, -1354729.0, 30998.12, -0.33267412, 0.10222823, -1176850.0, -9408.286, 0.00000040337267, 10.000765, 9.998683 
2.7479368e+3, 1.908662e+2, -1003415.3, -983979.94, 2066.4778, -0.15873352, -0.08718301, -983762.7, 85743.48, 0.0, 10.00052, 10.000531 
2.7475896e+3, 2.008591e+2, -1115623.3, -1301383.6, -45502.324, -0.008775054, -0.18867528, -1105076.1, -133507.48, 0.0, 10.000192, 9.998002 
2.7472404e+3, 2.1085227e+2, -816100.0, -1062193.5, -34809.9, -0.06218297, -0.11825273, -811270.9, 62368.82, 0.0, 10.001549, 9.99821 
2.7468914e+3, 2.2084542e+2, -570138.8, -945088.5, 24187.412, -0.1177172, -0.02661838, -568584.94, 207125.4, 0.0, 10.002578, 9.997983 
2.7465454e+3, 2.3083732e+2, -330547.9, -555475.5, 28393.604, -0.042750966, -0.1948715, -327019.03, 350766.34, 0.0, 10.002814, 9.999743 
2.746199e+3, 2.4082962e+2, -368124.28, -744098.8, -43316.043, 0.011686394, -0.29497316, -363198.38, 216658.78, 0.0, 10.002621, 9.997976 
2.74585e+3, 2.5082383e+2, -359860.56, -590254.56, -119489.59, -0.078993246, -0.1557956, -309081.3, 172837.31, 0.0, 10.001836, 9.998601 
2.7455008e+3, 2.6081824e+2, -425090.13, -731928.56, -122625.67, -0.16777429, 0.047808483, -382105.4, 1873.1116, 0.0, 10.00118, 9.997388 
2.745154e+3, 2.708103e+2, -141146.83, -414572.75, -107144.234, -0.06773134, -0.003980665, -104163.73, 181895.94, 0.0, 10.002087, 9.998332 
2.7448082e+3, 2.8080237e+2, -36564.793, -405166.03, 14664.62, 0.1291867, -0.0277149, -35982.285, 152157.33, 0.0, 10.002356, 9.99772 
2.7444673e+3, 2.9079616e+2, -36146.51, -132993.17, 80092.484, 0.5041965, 0.017319022, 9023.028, 99221.12, 0.0, 10.000994, 9.999441 
2.744123e+3, 3.007903e+2, -157668.67, -197594.58, 46864.45, 0.5641644, 0.09235024, -126692.484, -126692.484, 0.0, 9.999479, 9.999216 
2.743765e+3, 3.1078342e+2, 147737.58, 255542.05, -98923.1, -0.5219693, -0.17259978, 314295.16, 314295.16, 0.0, 10.000182, 10.00155 
2.7434295e+3, 3.207799e+2, -36133.31, 133443.66, 130135.42, 0.42587346, -0.033601407, 203975.22, 203975.22, 0.0, 9.998772, 10.001429 
2.760024e+3, 1.3124895e+2, -1519323.6, -1618201.1, -391285.72, -0.6290168, 0.1293069, -1174365.8, 479396.3, 0.0058229333, 10.001504, 9.999608 
2.7596766e+3, 1.4124332e+2, -1617755.1, -2000001.9, -149538.05, 0.38424522, 0.19081716, -1566206.4, -10384.6455, 0.0029696852, 10.001541, 9.996578 
2.7593237e+3, 1.512332e+2, -1524226.0, -1669333.9, -52765.82, 0.08914099, -0.07962239, -1507067.6, -49148.883, 0.0010279784, 10.000738, 9.998396 
2.7589726e+3, 1.6122489e+2, -1531612.8, -1455514.0, -76885.64, -0.17584434, -0.23032387, -1407777.9, -47780.254, 0.0002033788, 9.999037, 10.000175 
2.7586263e+3, 1.7122442e+2, -1077104.0, -777062.44, 19898.398, -0.20724933, -0.03787753, -775748.56, 486252.25, 0.000016580547, 9.999914, 10.00359 
2.7582803e+3, 1.8122312e+2, -1251830.9, -1283087.1, -4911.663, -0.17293479, 0.19061126, -1251077.3, -87065.79, 0.00000009587778, 9.999942, 9.999554 
2.7579334e+3, 1.9121501e+2, -1074403.5, -1122504.0, -64659.656, 0.040549517, -0.030921778, -1029466.2, 36619.234, 0.0, 10.000564, 9.999539 
2.757586e+3, 2.012069e+2, -1202033.4, -1427121.0, -19098.945, 0.19761524, -0.13071102, -1200424.3, -232262.81, 0.0, 10.000064, 9.9971895 
2.757237e+3, 2.111999e+2, -853645.6, -1046687.1, -6058.3574, 0.05399901, -0.10693322, -853455.7, 16779.924, 0.0, 10.001261, 9.998406 
2.7568883e+3, 2.2119324e+2, -862253.75, -1152642.0, 28214.36, -0.07560546, 0.009011454, -859537.8, -87232.695, 0.0, 10.001068, 9.997227 
2.756541e+3, 2.3118655e+2, -508579.3, -713487.5, 21886.15, -0.17531155, 0.020845138, -506267.75, 168100.11, 0.0, 10.002057, 9.998955 
2.7561936e+3, 2.4117965e+2, -694341.9, -1057938.0, -74392.65, -0.21519798, 0.10505069, -679709.8, -103276.18, 0.0, 10.001237, 9.996438 
2.755846e+3, 2.511705e+2, -533182.8, -782696.94, -147561.03, -0.022926603, -0.022517841, -464707.94, 13819.876, 0.0, 10.001196, 9.997536 
2.755499e+3, 2.6116195e+2, -646197.1, -887930.0, -98521.12, 0.1094089, -0.030687, -611130.56, -230514.95, 0.0, 10.000005, 9.99687 
2.7551514e+3, 2.711559e+2, -194160.66, -341339.22, -75230.92, 0.07219082, 0.031513717, -162511.75, 120163.695, 0.0, 10.001466, 9.999085 
2.7548045e+3, 2.8114966e+2, -182580.75, -428205.34, -27825.734, 0.07858762, 0.11964274, -179467.94, 5267.101, 0.0, 10.001284, 9.998058 
2.7544594e+3, 2.91142e+2, -73786.64, -73963.06, 10420.264, 0.19648807, -0.07699434, -63454.22, 23349.035, 0.0, 10.000457, 10.000084 
2.754113e+3, 3.0113474e+2, -407010.03, -493474.03, 14877.759, 0.1529095, -0.13642272, -404521.63, -404521.63, 0.0, 9.998637, 9.997573 
2.7537635e+3, 3.1112796e+2, -76893.84, -137477.78, -89934.97, -0.17647782, -0.17230314, -12286.388, -12286.388, 0.0, 9.999948, 9.998938 
2.7534232e+3, 3.2112056e+2, -103776.57, 277809.34, -26788.084, 0.40317902, -0.30493006, 279680.75, 279680.75, 0.0, 9.997757, 10.002843 
2.7700204e+3, 1.3159665e+2, -2150104.8, -1799708.9, -245665.9, -0.35236755, 0.07416972, -1673168.5, -22813.322, 0.0036893368, 9.996661, 10.000667 
2.7696708e+3, 1.4159265e+2, -1311917.8, -1761115.1, -76199.79, 0.003465591, 0.20955023, -1299343.5, 253052.63, 0.001804221, 10.003269, 9.997362 
2.769319e+3, 1.5158312e+2, -1097777.0, -1440644.6, 61323.156, -0.11249558, -0.033635594, -1087139.1, 367346.5, 0.00058557204, 10.003575, 9.998586 
2.7689686e+3, 1.6157457e+2, -1057398.3, -1333882.8, 107821.75, -0.2240065, -0.1671179, -1020322.4, 336244.1, 0.00010501939, 10.002686, 9.999262 
2.7686214e+3, 1.7157145e+2, -1002975.44, -959301.1, 44984.516, -0.21370691, -0.042211127, -931133.6, 327464.94, 0.0000068884756, 10.001264, 10.001749 
2.7682748e+3, 1.815684e+2, -1196699.8, -1216692.4, -94506.734, -0.18148623, 0.13206749, -1111662.1, 48965.484, 0.00000000965895, 10.000068, 9.999974 
2.7679282e+3, 1.915618e+2, -813101.3, -888000.25, -43415.04, -0.043241803, -0.024705924, -793215.56, 269469.7, 0.0, 10.001797, 10.000616 
2.767581e+3, 2.015548e+2, -765022.94, -1171201.9, -1656.715, 0.053332534, -0.08638367, -765016.2, 199733.73, 0.0, 10.0027895, 9.997647 
2.767233e+3, 2.1154717e+2, -760787.4, -1088424.0, -30170.406, 0.05162279, -0.050283063, -758032.3, 108800.67, 0.0, 10.002181, 9.99774 
2.766885e+3, 2.2153987e+2, -761207.8, -1076028.1, -28988.975, 0.0026872759, 0.04692357, -758560.75, 10350.227, 0.0, 10.001527, 9.997551 
2.766538e+3, 2.3153286e+2, -530913.94, -752003.6, 240.82747, -0.12392078, 0.05100799, -530913.6, 140063.94, 0.0, 10.001909, 9.99882 
2.7661902e+3, 2.4152581e+2, -458650.38, -815335.94, -72800.22, -0.19009392, 0.10213864, -444363.94, 128680.24, 0.0, 10.002168, 9.99768 
2.7658427e+3, 2.5151733e+2, -314665.8, -583450.94, -47560.305, 0.023917276, -0.021027641, -306498.4, 168628.3, 0.0, 10.002182, 9.998474 
2.7654955e+3, 2.6150906e+2, -283299.6, -619440.56, 97100.75, 0.20576273, -0.06406392, -257266.39, 119941.16, 0.0, 10.0020075, 9.997749 
2.765148e+3, 2.7150255e+2, -91566.59, -312561.4, 85340.31, 0.12906076, -0.010510197, -62447.93, 216823.4, 0.0, 10.002165, 9.999006 
2.7648008e+3, 2.814961e+2, -22906.584, -304343.7, 61811.734, 0.0756788, 0.06354965, -9929.329, 171403.84, 0.0, 10.002027, 9.998575 
2.7644533e+3, 2.9148805e+2, 155756.11, -1802.095, -8307.864, 0.047270667, -0.1530019, 156192.97, 239598.02, 0.0, 10.0019455, 9.999966 
2.7641058e+3, 3.0148035e+2, -50318.684, -406962.28, 12350.728, 0.0019121055, -0.2170792, -49891.484, -49891.484, 0.0, 10.00132, 9.996877 
2.7637616e+3, 3.1147364e+2, 27353.654, -273154.66, -20629.72, 0.18243401, -0.09329607, 28763.26, 28763.26, 0.0, 10.001407, 9.997295 
2.7634147e+3, 3.214623e+2, 233105.98, 581531.1, -230435.05, 0.25356868, -0.53441954, 696196.25, 696196.25, 0.0, 9.999362, 10.004141 
2.7800158e+3, 1.3194351e+2, -1779119.5, -1529276.5, 72628.56, 0.027543448, -0.04819001, -1509697.9, 137255.28, 0.0021714193, 9.998864, 10.001427 
2.7796632e+3, 1.419415e+2, -1461063.1, -1769396.0, -26126.586, -0.42402297, 0.200651, -1458865.0, 90109.1, 0.0010072395, 10.001907, 9.998008 
2.7793145e+3, 1.5193392e+2, -1092094.8, -1324918.1, -28285.373, -0.31712544, 0.030970959, -1088707.8, 362334.0, 0.00030058212, 10.003036, 9.999706 
2.7789664e+3, 1.6192602e+2, -1245061.8, -1630869.9, 295.416, -0.13572039, -0.051903635, -1245061.5, 108053.984, 0.000046417692, 10.002343, 9.997391 
2.7786177e+3, 1.7191869e+2, -1242155.6, -1439022.3, -46507.1, -0.1211497, -0.0689922, -1231721.9, 23471.559, 0.0000020738605, 10.001263, 9.998438 
2.7782696e+3, 1.8191259e+2, -1273214.4, -1280698.8, -33039.75, -0.14637543, 0.041220535, -1243705.6, -86449.92, 0.00000000000031198744, 9.999758, 9.999652 
2.7779227e+3, 1.9190823e+2, -758751.1, -667346.0, -9235.389, -0.18279928, -0.057705667, -666422.25, 392866.13, 0.0, 10.001443, 10.002241 
2.7775759e+3, 2.0190305e+2, -967309.75, -1358240.4, -39060.316, -0.13436899, -0.012241114, -963445.2, -2111.235, 0.0, 10.00192, 9.996748 
2.777229e+3, 2.1189435e+2, -894213.06, -1281222.6, -86430.23, 0.04292469, 0.0059941555, -875787.94, -12357.196, 0.0, 10.001937, 9.99649 
2.776882e+3, 2.2188589e+2, -956099.4, -1252928.3, -18884.705, 0.16388294, 0.10208893, -954902.75, -189380.22, 0.0, 10.000636, 9.996739 
2.7765355e+3, 2.3187739e+2, -628385.3, -782114.25, 11167.008, 0.06631191, -0.07552775, -627578.3, 40025.53, 0.0, 10.001248, 9.99888 
2.7761883e+3, 2.4187009e+2, -597602.3, -750907.56, -78564.22, -0.00013210055, -0.09328129, -564491.75, 5178.9063, 0.0, 10.000802, 9.998748 
2.775839e+3, 2.51865e+2, -288553.34, -319761.78, -63463.344, 0.056834195, -0.10032659, -238804.02, 232906.83, 0.0, 10.001412, 10.000627 
2.7754906e+3, 2.61859e+2, -526460.2, -769693.6, 89997.34, 0.102997325, -0.033276156, -496782.0, -123019.664, 0.0, 10.000652, 9.99731 
2.7751437e+3, 2.718498e+2, -270270.9, -501873.7, 91426.57, 0.05328079, -0.19590159, -238529.84, 37323.156, 0.0, 10.001489, 9.9979725 
2.7747965e+3, 2.8184137e+2, -263323.1, -541009.2, 50947.96, 0.014986563, -0.21101876, -254270.63, -76334.51, 0.0, 10.001051, 9.997384 
2.7744496e+3, 2.918344e+2, -256.63724, -160479.97, -2405.6733, 0.043207046, -0.2552166, -220.52539, 79782.27, 0.0, 10.001398, 9.999067 
2.774102e+3, 3.0182788e+2, -225660.7, -593850.25, 7497.532, -0.003304253, -0.09484278, -225508.1, -225508.1, 0.0, 10.0007305, 9.995841 
2.7737582e+3, 3.118208e+2, -90683.88, -370576.6, -9099.263, 0.23495439, 0.020917566, -90388.38, -90388.38, 0.0, 10.000894, 9.996847 
2.773408e+3, 3.2180783e+2, -51421.8, 260864.14, -448494.16, 0.15438035, -0.48038948, 579618.7, 579618.7, 0.0, 9.998377, 10.002406 
2.7900082e+3, 1.3228779e+2, -1525425.4, -1484448.1, 63445.36, -0.3043538, -0.47745714, -1438265.3, 205296.64, 0.0011689386, 10.000863, 10.000821 
2.7896598e+3, 1.4228846e+2, -1595629.6, -1863450.9, -21108.002, -0.42809415, 0.123828225, -1593976.3, -48413.176, 0.0005049565, 10.001077, 9.997773 
2.7893114e+3, 1.5228055e+2, -1183032.6, -1381453.0, -37184.02, -0.330694, -0.067286715, -1176293.3, 271344.22, 0.00013439951, 10.00244, 9.9996195 
2.7889642e+3, 1.6227253e+2, -1163807.1, -1585028.9, -102570.2, -0.13847654, -0.1544128, -1140158.3, 209556.28, 0.000016423304, 10.002814, 9.997493 
2.788615e+3, 1.7226514e+2, -1164239.8, -1422879.1, -67362.67, -0.0021587592, -0.15784463, -1147746.9, 104045.625, 0.0000003300107, 10.00182, 9.99831 
2.7882662e+3, 1.8225846e+2, -1129523.9, -1258802.9, 39624.523, -0.020079628, -0.08342495, -1118345.5, 35514.566, 0.0, 10.000862, 9.999299 
2.7879182e+3, 1.922523e+2, -780211.4, -818310.8, 15542.234, -0.22588982, -0.22156695, -774675.5, 281236.34, 0.0, 10.001777, 10.001123 
2.7875713e+3, 2.022465e+2, -826168.0, -1173994.4, -122019.59, -0.29205936, -0.19439436, -787632.2, 170332.48, 0.0, 10.002342, 9.997796 
2.7872255e+3, 2.1224022e+2, -644956.06, -1033802.06, -65563.625, 0.012090394, -0.032697365, -634198.94, 225837.7, 0.0, 10.003058, 9.997665 
2.7868795e+3, 2.2223322e+2, -513374.94, -980758.3, 55546.418, 0.2197764, 0.12171448, -506864.2, 255249.86, 0.0, 10.00328, 9.997366 
2.7865323e+3, 2.3222433e+2, -471456.56, -770286.5, 60649.73, 0.12372913, -0.036440693, -459616.4, 204586.31, 0.0, 10.002415, 9.998485 
2.7861845e+3, 2.4221656e+2, -414433.1, -577184.44, -72496.33, 0.030784186, -0.09640193, -386823.84, 179451.75, 0.0, 10.001605, 9.999564 
2.7858344e+3, 2.5221103e+2, -183232.63, -218617.48, -159542.94, -0.017879067, -0.17244191, -40404.125, 427911.3, 0.0, 10.00183, 10.001162 
2.7854854e+3, 2.6220503e+2, -280256.28, -565590.75, -69382.336, -0.019724935, -0.18022421, -264279.72, 106083.55, 0.0, 10.001839, 9.998178 
2.7851394e+3, 2.7219617e+2, -224849.88, -477629.9, -9524.916, 0.053859256, -0.3217451, -224491.47, 47958.05, 0.0, 10.001621, 9.998158 
2.784793e+3, 2.821877e+2, -235229.83, -509241.2, 21702.377, 0.12096246, -0.35416403, -233521.6, -58988.594, 0.0, 10.001094, 9.997572 
2.7844456e+3, 2.921806e+2, -79237.36, -259165.06, -25287.262, 0.08217767, -0.3475097, -75751.01, 854.1687, 0.0, 10.001064, 9.998551 
2.7840975e+3, 3.021743e+2, -169489.03, -477560.75, 39536.37, 0.035136033, -0.16107816, -164496.05, -164496.05, 0.0, 10.000582, 9.996747 
2.7837533e+3, 3.121689e+2, -188483.47, -341465.88, 104129.03, 0.30864555, 0.063168384, -135770.34, -135770.34, 0.0, 9.999691, 9.997725 
2.7834028e+3, 3.2215583e+2, 171237.67, 201481.16, -323938.94, 0.2974681, -0.41022116, 510651.13, 510651.13, 0.0, 10.000429, 10.001076 
2.8000018e+3, 1.3263357e+2, -1717240.4, -1703710.5, 45070.207, -0.4706426, -0.7421165, -1664900.4, -24742.803, 0.0005685033, 10.000086, 9.999666 
2.7996573e+3, 1.4263532e+2, -1709953.6, -1982969.5, -13582.237, -0.19426307, 0.03345578, -1709279.6, -167125.19, 0.00022583413, 10.000652, 9.9971 
2.7993086e+3, 1.5262657e+2, -1337424.4, -1494124.6, 14940.886, -0.23937377, -0.22074533, -1336012.5, 108226.99, 0.00005282333, 10.001602, 9.999201 
2.7989614e+3, 1.6261822e+2, -1337763.8, -1641001.4, -63868.66, -0.08205061, -0.3102882, -1324860.6, 21461.05, 0.000004777361, 10.001627, 9.997595 
2.7986127e+3, 1.7261189e+2, -1085079.3, -1315275.4, -91295.75, 0.17820407, -0.28544104, -1053267.5, 195120.08, 0.00000002399446, 10.002133, 9.998829 
2.798264e+3, 1.8260506e+2, -1139693.0, -1451613.1, 76943.67, 0.22861908, -0.18620041, -1121745.5, 28710.086, 0.0, 10.001726, 9.997514 
2.7979147e+3, 1.9259585e+2, -914994.94, -1110289.5, 57559.082, -0.1672106, -0.44540337, -899293.0, 153246.95, 0.0, 10.001943, 9.998988 
2.7975672e+3, 2.0258884e+2, -918681.7, -1151590.8, -66335.734, -0.33511332, -0.41648695, -901113.5, 53493.0, 0.0, 10.001491, 9.998343 
2.7972227e+3, 2.1258567e+2, -662361.56, -810942.0, -47693.344, 0.029782508, -0.15806133, -648369.94, 208274.58, 0.0, 10.001977, 9.999693 
2.7968773e+3, 2.225813e+2, -816566.3, -1142519.1, 39135.664, 0.26659444, 0.14507242, -811933.3, -53238.484, 0.0, 10.001468, 9.997065 
2.796529e+3, 2.3257282e+2, -673829.75, -927548.25, 23316.627, 0.13226336, 0.060569096, -671704.75, -10920.213, 0.0, 10.001449, 9.99782 
2.7961794e+3, 2.4256444e+2, -677626.56, -839116.7, -68497.4, -0.019257007, 0.042185545, -652486.5, -89619.75, 0.0, 10.000522, 9.998248 
2.7958283e+3, 2.525556e+2, -375221.6, -414808.72, -136416.1, -0.1738539, -0.29609078, -257170.55, 207767.52, 0.0, 10.001065, 10.000134 
2.7954793e+3, 2.6254815e+2, -464728.94, -614847.0, -66971.38, -0.20514004, -0.38907737, -439194.6, -72195.39, 0.0, 10.000544, 9.998428 
2.7951354e+3, 2.725421e+2, -268571.56, -351071.56, -9070.648, 0.083857246, -0.39366964, -267586.06, 1469.9468, 0.0, 10.000809, 9.999373 
2.79479e+3, 2.8253534e+2, -401619.06, -628661.06, 1916.071, 0.24166037, -0.30759573, -401602.9, -230480.6, 0.0, 10.000249, 9.997125 
2.7944407e+3, 2.9252595e+2, -198272.5, -354443.0, -33486.313, 0.050992645, -0.51252437, -191395.17, -118175.164, 0.0, 10.000514, 9.9981365 
2.794091e+3, 3.0251935e+2, -176265.9, -244091.11, -21086.813, -0.10993745, -0.4020205, -170244.6, -170244.6, 0.0, 9.999684, 9.99871 
2.7937466e+3, 3.1251848e+2, -148701.58, 28133.537, 87934.85, 0.23402525, -0.037961107, 64416.43, 64416.43, 0.0, 9.9986, 10.000708 
2.7933988e+3, 3.2250813e+2, 19254.592, -18875.525, 75671.234, 0.31634212, -0.394324, 78225.5, 78225.5, 0.0, 10.000318, 9.999479 
2.8099972e+3, 1.3298479e+2, -1900553.6, -1943185.3, -9649.674, -0.46120343, -0.2510531, -1898471.1, -261749.14, 0.00025074874, 9.999366, 9.998441 
2.809656e+3, 1.4297952e+2, -1551600.3, -1643451.1, -69427.87, 0.104981914, -0.19150339, -1514282.8, 24502.504, 0.00009142473, 10.0005865, 9.999478 
2.8093043e+3, 1.5297426e+2, -1342935.4, -1212551.3, 80411.1, -0.19426417, -0.3535603, -1174225.5, 266602.03, 0.000018191195, 10.000274, 10.001827 
2.8089553e+3, 1.6296834e+2, -1436593.5, -1649754.9, 87259.23, -0.2784985, -0.35320956, -1405429.5, -62547.43, 0.000001253609, 10.000724, 9.99798 
2.8086078e+3, 1.729623e+2, -917645.4, -1303256.3, 70714.836, -0.06290835, -0.22443527, -905086.44, 339863.22, 0.0000000065346386, 10.003501, 9.99829 
2.8082606e+3, 1.8295524e+2, -738942.9, -1309816.3, 111944.484, 0.039949708, -0.085013345, -717776.1, 429247.06, 0.0, 10.004669, 9.997062 
2.807913e+3, 1.929449e+2, -761374.94, -1165411.0, 133854.56, -0.0764022, -0.32771686, -721053.7, 328066.34, 0.0, 10.003499, 9.997889 
2.8075656e+3, 2.0293647e+2, -804250.7, -1070134.6, -9112.273, -0.14632529, -0.3697283, -803938.75, 147261.67, 0.0, 10.002087, 9.998615 
2.807217e+3, 2.1293154e+2, -825617.4, -889366.44, -53059.707, -0.084762245, -0.2687399, -795594.25, 57658.137, 0.0, 10.000745, 9.999793 
2.8068697e+3, 2.2292654e+2, -903943.25, -1068482.3, 24472.518, -0.013640538, -0.07398603, -900380.5, -145075.33, 0.0, 10.000278, 9.998171 
2.806524e+3, 2.3291965e+2, -523472.66, -772653.75, 100461.33, 0.040470425, -0.055519097, -488015.44, 169361.06, 0.0, 10.002024, 9.998648 
2.8061765e+3, 2.4291229e+2, -268727.0, -612539.1, 39511.645, 0.027022375, -0.03235056, -264244.66, 295203.8, 0.0, 10.0030575, 9.998606 
2.8058255e+3, 2.5290367e+2, -164266.53, -382082.06, -3823.4849, -0.09990514, -0.27323067, -164199.44, 297323.84, 0.0, 10.002657, 9.999653 
2.8054762e+3, 2.628959e+2, -232427.63, -504752.38, 49484.69, -0.11615729, -0.35540563, -223714.45, 139877.78, 0.0, 10.001997, 9.998533 
2.8051314e+3, 2.7288905e+2, -244360.3, -374962.66, -12500.764, 0.1609721, -0.38334984, -243174.53, 22483.92, 0.0, 10.000945, 9.999221 
2.8047854e+3, 2.828823e+2, -328722.66, -512025.47, -5460.6357, 0.31190327, -0.3222528, -328560.13, -160835.13, 0.0, 10.000232, 9.998001 
2.8044358e+3, 2.928742e+2, -110806.91, -281427.0, 18191.896, 0.06983757, -0.41906166, -108888.81, -39080.105, 0.0, 10.000805, 9.998595 
2.8040862e+3, 3.028678e+2, 129764.03, 46123.766, 11906.225, -0.076075256, -0.35543278, 131425.88, 131425.88, 0.0, 10.001107, 10.0000105 
2.8037417e+3, 3.128656e+2, 398589.88, 401111.78, -90746.91, 0.31696746, -0.21061698, 490606.5, 490606.5, 0.0, 10.001783, 10.001779 
2.8033945e+3, 3.2285768e+2, -25116.82, -147516.44, -76966.7, 0.41019928, -0.37052855, 12015.918, 12015.918, 0.0, 10.000292, 9.998675 
2.8199938e+3, 1.3333485e+2, -1772167.4, -1957149.9, 125659.625, -0.19720228, 0.12820989, -1708629.9, -75329.734, 0.00010745089, 10.000739, 9.99761 
2.8196537e+3, 1.4332412e+2, -1475938.6, -1365898.9, -52587.633, 0.43467093, -0.37015295, -1344809.4, 190604.44, 0.00003510944, 10.000177, 10.001533 
2.8192997e+3, 1.5332256e+2, -1127440.0, -794745.5, -41706.824, -0.09323733, -0.45016655, -789596.75, 647813.9, 0.0000055355054, 10.000516, 10.004539 
2.8189492e+3, 1.6331948e+2, -1468013.9, -1705368.3, 36251.098, -0.3713927, -0.30686098, -1462600.8, -123167.336, 0.0000002527922, 10.000785, 9.997564 
2.818603e+3, 1.7331348e+2, -1093616.5, -1470171.1, 42572.85, -0.29547086, -0.12168737, -1088863.3, 152642.83, 0.0, 10.002763, 9.9975 
2.8182572e+3, 1.8330646e+2, -984149.0, -1506663.8, 35422.047, -0.155176, 0.09618701, -981758.6, 161824.3, 0.0, 10.003396, 9.996312 
2.8179127e+3, 1.9329596e+2, -944607.7, -1339362.1, 57802.305, 0.122111775, -0.11887278, -936318.0, 109364.125, 0.0, 10.002639, 9.997112 
2.817565e+3, 2.0328625e+2, -1019030.7, -1292990.3, -56985.074, 0.16993827, -0.18736395, -1007650.25, -59875.113, 0.0, 10.001293, 9.997396 
2.8172103e+3, 2.1327738e+2, -928304.9, -1041415.0, -121616.09, -0.2285984, -0.41543865, -850737.06, -874.6713, 0.0, 10.000631, 9.998733 
2.8168604e+3, 2.232705e+2, -904768.44, -976547.06, 67455.766, -0.39495555, -0.36728144, -864248.8, -112319.97, 0.0, 10.000014, 9.9988785 
2.816519e+3, 2.332655e+2, -565048.3, -599449.94, 147122.02, -0.07094002, -0.3475639, -434125.0, 219849.0, 0.0, 10.00106, 10.00023 
2.8161746e+3, 2.4326065e+2, -516145.03, -736722.0, 12084.77, 0.124294356, -0.15643468, -515484.9, 40534.438, 0.0, 10.001536, 9.998437 
2.8158242e+3, 2.5325444e+2, -333192.25, -484067.3, -37014.906, 0.11501158, -0.1717532, -324600.47, 133479.77, 0.0, 10.001695, 9.999371 
2.8154746e+3, 2.632471e+2, -525164.4, -835453.56, 1243.2158, 0.11827208, -0.10840286, -525159.4, -165005.73, 0.0, 10.000983, 9.996684 
2.8151268e+3, 2.7323654e+2, -474363.94, -658474.4, -44939.008, 0.1888872, -0.37304386, -463980.5, -201719.11, 0.0, 10.000255, 9.99754 
2.8147787e+3, 2.8322935e+2, -422957.78, -471853.84, -11787.021, 0.18180689, -0.2746925, -420264.7, -255930.38, 0.0, 9.999418, 9.998597 
2.8144303e+3, 2.9322666e+2, -118854.28, -93799.22, 50733.09, 0.042842347, -0.0057756207, -54069.832, 12288.834, 0.0, 10.000097, 10.000151 
2.8140828e+3, 3.0322045e+2, -87193.555, -278274.6, 28442.557, -0.00843489, 0.07371337, -83049.72, -83049.72, 0.0, 10.000652, 9.997988 
2.8137398e+3, 3.132074e+2, 144048.56, -2046.2386, -78224.016, 0.4580451, -0.6470606, 178028.81, 178028.81, 0.0, 10.001307, 9.999221 
2.813387e+3, 3.2320216e+2, -152114.77, -75642.73, -257614.19, 0.11955496, -0.439806, 146557.55, 146557.55, 0.0, 9.999069, 9.999679 
2.8299943e+3, 1.336811e+2, -1604606.4, -1856093.9, 10332.246, 0.101383224, -0.099447235, -1604182.6, 25723.479, 0.000050640916, 10.001731, 9.997863 
2.8296444e+3, 1.4367335e+2, -1588560.0, -1577724.4, -27408.371, -0.035684455, -0.21815747, -1555203.5, -23210.46, 0.00001538915, 10.000089, 10.00011 
2.8292948e+3, 1.536704e+2, -1256639.8, -1147359.9, -112000.06, -0.14193565, -0.18999884, -1077382.3, 356628.22, 0.0000020566958, 10.000849, 10.001973 
2.8289473e+3, 1.6366576e+2, -1351301.4, -1612443.8, -148275.75, -0.17344293, -0.081154935, -1284301.0, 51750.543, 0.00000005936716, 10.001381, 9.997927 
2.8286013e+3, 1.7365758e+2, -1178455.6, -1475637.1, -84057.18, -0.15291865, -0.16370706, -1156327.9, 81812.484, 0.0, 10.001956, 9.997884 
2.828255e+3, 1.836504e+2, -1007268.0, -1304940.3, -116433.33, -0.08742767, -0.08167286, -967136.1, 173078.28, 0.0, 10.002235, 9.998294 
2.8279093e+3, 1.9364342e+2, -904408.8, -1143228.3, -991.45483, 0.09686567, -0.1128198, -904404.7, 137872.9, 0.0, 10.002065, 9.998779 
2.8275606e+3, 2.0363589e+2, -857629.94, -1229530.1, -44581.24, 0.09521957, -0.062005654, -852360.44, 91989.2, 0.0, 10.002363, 9.997366 
2.8272069e+3, 2.1362679e+2, -519498.06, -966447.8, -70346.195, -0.29029658, -0.1869133, -508687.63, 337754.5, 0.0, 10.003859, 9.997744 
2.8268573e+3, 2.2361878e+2, -276865.72, -571610.7, 28873.354, -0.39718327, -0.24143378, -274063.88, 474454.25, 0.0, 10.003777, 9.999883 
2.826515e+3, 2.3361193e+2, -565536.94, -565066.25, 42309.73, -0.0021738373, -0.43735704, -522991.22, 127583.0, 0.0, 10.000737, 10.0007 
2.82617e+3, 2.4360645e+2, -780219.94, -807055.4, -74032.195, 0.22118628, -0.3705586, -718399.4, -165776.2, 0.0, 9.99939, 9.999024 
2.8258204e+3, 2.536016e+2, -400368.53, -555733.06, -106989.945, 0.1763289, -0.21570034, -345833.63, 108842.164, 0.0, 10.001263, 9.999164 
2.825471e+3, 2.6359528e+2, -263694.53, -644989.56, -59548.797, 0.1445829, -0.07243125, -254610.88, 102132.12, 0.0, 10.002434, 9.997303 
2.8251213e+3, 2.7358547e+2, -147989.89, -515602.22, -30071.217, 0.08987448, -0.2471677, -145546.27, 113297.805, 0.0, 10.002519, 9.997449 
2.824773e+3, 2.835782e+2, 42182.31, -195033.03, 75141.73, 0.09587323, -0.17403308, 63981.4, 224899.14, 0.0, 10.002273, 9.999138 
2.8244266e+3, 2.935749e+2, 135065.94, -14394.675, -3268.8525, 0.120522015, 0.056000873, 135137.4, 198084.11, 0.0, 10.001846, 9.999904 
2.824079e+3, 3.0356812e+2, -50852.68, -311047.1, -35842.637, 0.120547295, 0.0953507, -46005.535, -46005.535, 0.0, 10.001019, 9.99761 
2.8237346e+3, 3.135537e+2, -134627.2, -305917.1, -52511.703, 0.45545778, -0.63693947, -119810.53, -119810.53, 0.0, 9.999989, 9.99781 
2.8233802e+3, 3.2354903e+2, 219995.27, 157589.92, -274066.97, 0.052698474, -0.31443113, 464630.06, 464630.06, 0.0, 10.001206, 10.000331 
2.839992e+3, 1.340274e+2, -1787741.1, -1925415.3, -130220.87, 0.3501223, -0.31178826, -1709282.5, -82771.37, 0.000026719768, 10.000299, 9.998131 
2.8396347e+3, 1.44023e+2, -1484013.8, -1793362.6, -56290.645, -0.45120052, -0.0009594772, -1474089.3, 54477.88, 0.000008259606, 10.001953, 9.997722 
2.8392905e+3, 1.5401785e+2, -1346521.5, -1544524.8, -77567.22, -0.088277005, 0.09882265, -1319753.6, 110862.17, 0.0000013335809, 10.001744, 9.99881 
2.838946e+3, 1.6401084e+2, -1366429.8, -1571480.1, -37326.31, 0.16268119, 0.13879855, -1359846.4, -27162.65, 0.000000073245815, 10.001179, 9.998254 
2.8386e+3, 1.7399992e+2, -1280635.8, -1456351.4, -1929.8206, 0.14751314, -0.2945478, -1280614.5, -45822.33, 0.0, 10.00103, 9.998432 
2.838253e+3, 1.8399274e+2, -1048499.2, -1084209.1, -44189.24, 0.1049388, -0.32563412, -1018694.0, 118166.77, 0.0, 10.001028, 10.000325 
2.8379044e+3, 1.9398965e+2, -836763.7, -874444.44, -11672.984, 0.035303317, -0.21899879, -833440.6, 205443.23, 0.0, 10.001599, 10.000793 
2.8375554e+3, 2.0398521e+2, -929927.3, -1312536.9, -410.03357, -0.06851213, 0.05386725, -929926.9, 10999.74, 0.0, 10.002173, 9.996851 
2.837205e+3, 2.1397774e+2, -733953.7, -1179007.9, -10109.297, -0.23724605, 0.13868229, -733724.1, 109284.05, 0.0, 10.002965, 9.996674 
2.8368565e+3, 2.2396933e+2, -493624.66, -692940.3, -37552.82, -0.19774333, 0.12033895, -486784.16, 258304.39, 0.0, 10.00249, 9.999636 
2.8365114e+3, 2.3395862e+2, -696536.44, -665772.7, -70279.99, 0.1682192, -0.47463056, -609211.0, 37965.465, 0.0, 10.000103, 10.000292 
2.8361642e+3, 2.439509e+2, -869924.56, -889745.94, -25117.225, 0.28182977, -0.57676333, -852833.44, -303588.3, 0.0, 9.999067, 9.998591 
2.835815e+3, 2.539462e+2, -540351.25, -665866.4, -43378.09, 0.09392126, -0.41905203, -526818.75, -75519.58, 0.0, 10.000609, 9.998698 
2.8354654e+3, 2.6394162e+2, -339703.25, -536304.8, -62581.77, -0.062288776, -0.115426674, -321472.8, 31876.057, 0.0, 10.001451, 9.998458 
2.8351155e+3, 2.7393588e+2, -192059.45, -385892.22, -22342.22, -0.15786137, -0.070572264, -189517.5, 65888.57, 0.0, 10.001698, 9.998681 
2.834768e+3, 2.839282e+2, -169766.53, -458719.44, 60782.566, -0.07560692, -0.032964207, -157501.27, -19.496597, 0.0, 10.001644, 9.997587 
2.8344235e+3, 2.9391703e+2, -106815.55, -360179.94, -11184.58, 0.20907645, -0.42728376, -106322.77, -46732.14, 0.0, 10.001284, 9.997777 
2.8340748e+3, 3.0391043e+2, -107834.625, -241725.98, -97663.03, 0.14061368, -0.28029653, -56375.105, -56375.105, 0.0, 10.000385, 9.998331 
2.833724e+3, 3.139083e+2, -284749.63, -285316.28, -76183.25, 0.0016333719, 0.08976862, -208849.17, -208849.17, 0.0, 9.998723, 9.998508 
2.8333762e+3, 3.23897e+2, 140904.42, 102714.02, 63748.887, -0.0066996375, -0.33921725, 188356.55, 188356.55, 0.0, 10.000971, 9.999949 
2.8499818e+3, 1.3437296e+2, -1794230.6, -1756504.6, 1496.5846, -0.22809343, -0.18299146, -1756445.4, -133317.27, 0.000013315561, 9.999408, 9.999786 
2.849633e+3, 1.4436741e+2, -1015440.56, -1401844.0, -132783.86, -0.501544, -0.12168894, -974210.06, 550976.6, 0.0000038169696, 10.00439, 9.999257 
2.849288e+3, 1.5436313e+2, -1084357.8, -1343074.0, -21461.441, -0.070316456, -0.03381925, -1082589.6, 344639.47, 0.0000005153316, 10.003127, 9.999562 
2.8489423e+3, 1.643573e+2, -1168024.9, -1312386.6, 60900.797, 0.14929156, 0.027142853, -1145765.4, 183519.58, 0.00000002542409, 10.001774, 9.999755 
2.8485936e+3, 1.7434889e+2, -1311433.8, -1334937.6, 149981.56, -0.040775094, -0.25685325, -1172744.5, 58619.81, 0.0, 10.00016, 9.999707 
2.848246e+3, 1.8434227e+2, -1150349.4, -1130577.9, 157562.58, -0.12717913, -0.29099038, -982591.25, 150834.23, 0.0, 10.000236, 10.000406 
2.8479e+3, 1.9433741e+2, -727786.3, -862299.9, 134685.98, -0.06450608, -0.29735798, -644498.1, 390969.97, 0.0, 10.002386, 10.000535 
2.8475526e+3, 2.0433189e+2, -669543.3, -1057113.3, 29276.875, -0.084848106, -0.17316043, -667344.2, 270176.44, 0.0, 10.003321, 9.998076 
2.8472027e+3, 2.1432436e+2, -699137.4, -1044254.5, 107944.336, -0.20104943, -0.17471427, -668156.2, 171442.02, 0.0, 10.002551, 9.997851 
2.8468543e+3, 2.2431673e+2, -549734.44, -836249.7, 82988.78, -0.14606889, -0.12757264, -527432.75, 214240.98, 0.0, 10.002564, 9.998614 
2.846507e+3, 2.343078e+2, -276055.8, -639302.6, -14906.281, 0.08340564, -0.34020084, -275445.16, 368311.2, 0.0, 10.003648, 9.998794 
2.8461593e+3, 2.4429981e+2, -177206.1, -599944.56, -10902.661, 0.19812573, -0.37958398, -176925.1, 368907.94, 0.0, 10.00386, 9.998332 
2.8458112e+3, 2.5429296e+2, -257958.52, -575959.9, -40230.15, 0.13384666, -0.3592035, -252947.97, 194957.27, 0.0, 10.002598, 9.998417 
2.845462e+3, 2.6428747e+2, -316349.97, -420971.16, -119163.32, 0.027678907, -0.18858007, -238521.05, 111440.22, 0.0, 10.00107, 9.999476 
2.845111e+3, 2.7428287e+2, -396110.66, -390824.94, -145203.25, -0.11059577, -0.07076636, -248240.5, 3764.3284, 0.0, 9.999761, 9.999649 
2.844763e+3, 2.842753e+2, -429888.2, -547498.56, 11082.575, -0.045946196, -0.108161606, -428852.97, -274775.66, 0.0, 9.999598, 9.998012 
2.8444192e+3, 2.9426262e+2, -194383.2, -396812.72, 54939.09, 0.24426635, -0.63239026, -180434.03, -124233.516, 0.0, 10.000598, 9.997882 
2.84407e+3, 3.0425668e+2, 105362.74, -57661.504, 16313.077, 0.14696537, -0.45547745, 106979.086, 106979.086, 0.0, 10.001358, 9.999187 
2.843717e+3, 3.142598e+2, 210616.92, 5860.5327, -34803.563, -0.15809487, 0.4126211, 216370.98, 216370.98, 0.0, 10.001762, 9.999119 
2.8433734e+3, 3.2424432e+2, -37332.832, -91726.95, 136940.3, 0.20409083, -0.4249403, 75085.02, 75085.02, 0.0, 9.999951, 9.999226 
2.859973e+3, 1.3471809e+2, -1384318.4, -1393557.6, 369506.44, -0.5847032, -0.090239584, -1019402.7, 600345.6, 0.0000059672334, 10.001617, 10.001174 
2.859632e+3, 1.4471139e+2, -1388837.9, -1380414.9, -134222.9, -0.35828316, -0.28045678, -1250337.4, 271472.34, 0.0000015122073, 10.001049, 10.000976 
2.8592858e+3, 1.5470828e+2, -1255815.3, -1260895.5, -96835.47, 0.019542594, -0.24904752, -1161486.6, 262354.03, 0.0000000966577, 10.001305, 10.000977 
2.858938e+3, 1.6470426e+2, -1167785.6, -1165829.4, -25597.027, 0.12322278, -0.1421437, -1141191.8, 184684.98, 0.00000000026919006, 10.001194, 10.001039 
2.8585857e+3, 1.7469937e+2, -1192384.1, -1160832.5, 9904.559, -0.25721815, -0.22367203, -1157981.0, 69936.984, 0.0, 10.000517, 10.000726 
2.858238e+3, 1.846936e+2, -1179608.8, -1236329.9, 168050.98, -0.3776086, -0.18232706, -1037542.06, 92427.81, 0.0, 10.000571, 9.999488 
2.8578964e+3, 1.9468592e+2, -963250.6, -1114599.4, 144187.8, -0.086251795, -0.3825278, -876085.4, 155957.7, 0.0, 10.001512, 9.999192 
2.8575507e+3, 2.0467825e+2, -736732.1, -918065.1, -28449.78, 0.028843706, -0.46805015, -732373.4, 201741.06, 0.0, 10.002185, 9.999563 
2.8572002e+3, 2.1466935e+2, -748621.75, -916247.56, 6666.687, -0.07780094, -0.80432963, -748357.06, 87839.125, 0.0, 10.001596, 9.999204 
2.8568506e+3, 2.2466299e+2, -856045.06, -1248716.9, 77075.31, -0.13802579, -0.58346295, -841458.25, -103194.91, 0.0, 10.001721, 9.996115 
2.8565028e+3, 2.3465858e+2, -664243.5, -1146498.5, 5689.282, -0.11391452, -0.12514953, -664176.4, -23853.623, 0.0, 10.002521, 9.995777 
2.8561556e+3, 2.4465172e+2, -423683.06, -774006.2, -42049.504, 0.018906958, 0.13736248, -418706.53, 123690.97, 0.0, 10.002622, 9.997601 
2.855809e+3, 2.5464118e+2, -519991.84, -805942.94, -70895.87, 0.26408577, -0.19151753, -503379.7, -58880.23, 0.0, 10.0014, 9.997322 
2.85546e+3, 2.6463294e+2, -437299.25, -494832.78, -166116.95, 0.32539156, -0.2255272, -297476.66, 49102.184, 0.0, 10.000396, 9.99925 
2.8551078e+3, 2.7462628e+2, -548638.75, -515291.2, -186561.66, 0.19093664, -0.3344928, -344659.7, -96017.555, 0.0, 9.998981, 9.999157 
2.8547588e+3, 2.8462002e+2, -419717.88, -317329.28, 41348.38, 0.113766536, -0.30113417, -302716.72, -152017.17, 0.0, 9.998878, 9.999866 
2.8544125e+3, 2.9461268e+2, -200702.13, -205412.47, 109984.266, 0.06991998, -0.5166881, -93047.81, -40282.25, 0.0, 9.999844, 9.999515 
2.8540638e+3, 3.0460706e+2, 5265.2188, -100759.95, 30892.479, -0.051710483, -0.3880882, 13609.617, 13609.617, 0.0, 10.000821, 9.99907 
2.8537142e+3, 3.146042e+2, 19589.719, -154881.81, 12925.4, -0.08321419, -0.12939556, 20542.076, 20542.076, 0.0, 10.000913, 9.998359 
2.853371e+3, 3.2459208e+2, -259677.56, -177203.75, 22692.947, 0.5033593, -0.60987383, -171372.06, -171372.06, 0.0, 9.99855, 9.999239 
2.8699723e+3, 1.350645e+2, -1214432.3, -1409493.9, -10363.955, -0.50626856, -0.17399181, -1213883.3, 402466.7, 0.0000021514043, 10.003092, 10.000411 
2.8696278e+3, 1.4505763e+2, -1854000.6, -1569969.3, -70218.87, -0.10354471, -0.34141958, -1553557.9, -35145.527, 0.00000043033984, 9.997642, 10.001341 
2.8692797e+3, 1.5505517e+2, -1549520.3, -1404159.4, -34137.297, -0.08876948, -0.24279554, -1396541.6, 23895.22, 0.000000019645139, 9.999221, 10.001031 
2.8689322e+3, 1.650505e+2, -1220052.1, -1213276.6, -71947.97, -0.008342525, -0.19973303, -1144636.6, 177842.34, 0.0, 10.000919, 10.000852 
2.868583e+3, 1.7504382e+2, -980183.06, -1097575.3, -70736.734, -0.13726982, -0.40526336, -946961.2, 277576.1, 0.0, 10.0020895, 10.000429 
2.8682357e+3, 1.8503822e+2, -878810.7, -1060389.0, 11467.687, -0.22414961, -0.3712925, -878089.3, 248499.89, 0.0, 10.002352, 9.999909 
2.8678915e+3, 1.950324e+2, -996400.6, -1118483.9, 71657.76, -0.17508227, -0.39170682, -963309.8, 65337.79, 0.0, 10.001047, 9.999477 
2.8675458e+3, 2.0502602e+2, -869931.75, -976016.25, -113112.9, -0.07837745, -0.378031, -798042.0, 132667.84, 0.0, 10.00122, 9.999626 
2.8671974e+3, 2.1501829e+2, -588859.0, -842190.44, -148556.36, -0.020106215, -0.5669691, -520298.7, 312484.5, 0.0, 10.002619, 9.99924 
2.8668487e+3, 2.2501183e+2, -568342.5, -983446.8, -92295.164, -0.041676365, -0.44401565, -548746.5, 186103.25, 0.0, 10.002984, 9.997392 
2.8664994e+3, 2.3500669e+2, -633446.0, -1008170.6, 26491.486, -0.11479182, -0.14636557, -631582.44, 5328.3535, 0.0, 10.002015, 9.997039 
2.866151e+3, 2.4500008e+2, -475873.7, -659267.6, 97272.18, -0.044343006, 0.011951651, -433891.16, 105087.97, 0.0, 10.001543, 9.998943 
2.865804e+3, 2.5499076e+2, -375268.47, -617037.6, 152789.73, 0.17025633, -0.24489987, -301325.47, 139740.95, 0.0, 10.001748, 9.998492 
2.8654554e+3, 2.6498246e+2, -179210.08, -458639.06, 105553.66, 0.30616263, -0.29381272, -143819.7, 199328.03, 0.0, 10.002391, 9.998601 
2.8651047e+3, 2.7497467e+2, 29732.875, -338738.3, 18176.756, 0.3410454, -0.36956006, 30627.367, 275854.75, 0.0, 10.003215, 9.998388 
2.8647548e+3, 2.8496864e+2, 131199.5, 73646.83, 171949.58, 0.25978187, -0.31807464, 276764.03, 424047.22, 0.0, 10.002085, 10.001009 
2.864406e+3, 2.9496384e+2, -163759.48, -72874.3, 129467.266, 0.027581535, -0.3421109, 18893.904, 68215.67, 0.0, 9.999515, 10.000615 
2.8640574e+3, 3.0495793e+2, -162074.75, -109262.41, 106309.11, -0.117390186, -0.333255, -26129.03, -26129.03, 0.0, 9.999256, 9.999815 
2.8637102e+3, 3.1495112e+2, 74385.97, -63655.85, 106935.836, -0.0047992044, -0.4847059, 132640.98, 132640.98, 0.0, 10.000851, 9.999083 
2.8633675e+3, 3.249427e+2, 304929.13, 28345.055, -46394.945, 0.7045784, -0.5851783, 312504.06, 312504.06, 0.0, 10.002572, 9.998747 
2.8799716e+3, 1.3541187e+2, -1481334.5, -1591125.9, -346475.34, -0.2470322, -0.25790256, -1185433.0, 427508.63, 0.00000033823923, 10.00153, 9.999884 
2.8796232e+3, 1.4540532e+2, -1528991.8, -1428537.0, 86250.16, 0.19498427, -0.33983463, -1378955.1, 136045.45, 0.000000039050374, 10.000001, 10.001141 
2.8792727e+3, 1.5540285e+2, -1302838.3, -1359892.3, 73775.195, -0.13996978, -0.20079397, -1252266.8, 164758.27, 0.0000000006124831, 10.001267, 10.000352 
2.8789267e+3, 1.6539676e+2, -1174362.3, -1289662.1, 24624.791, -0.0654439, -0.21463627, -1169323.4, 149758.56, 0.0, 10.00174, 9.999864 
2.8785822e+3, 1.7538695e+2, -1206702.0, -1345975.0, -10931.675, 0.184241, -0.65763664, -1205849.3, 15323.009, 0.0, 10.001189, 9.999119 
2.878235e+3, 1.8538144e+2, -1044726.1, -1043909.56, 9674.776, 0.077717155, -0.5887423, -1034634.44, 88591.61, 0.0, 10.000969, 10.00061 
2.8778863e+3, 1.9537875e+2, -1134094.6, -1147163.6, 21232.154, -0.21639234, -0.39338037, -1118414.1, -93156.85, 0.0, 10.000076, 9.999709 
2.8775397e+3, 2.0537496e+2, -1059228.3, -1177547.8, -23492.834, -0.20275255, -0.07214221, -1054734.4, -127433.92, 0.0, 10.000545, 9.998521 
2.8771952e+3, 2.1536931e+2, -839225.0, -1118681.8, -59829.79, 0.07526112, 0.04252395, -826954.6, 2407.7705, 0.0, 10.001726, 9.997729 
2.876847e+3, 2.2536196e+2, -491842.5, -571476.5, -92438.73, 0.13470566, -0.008543878, -431010.06, 300422.4, 0.0, 10.002063, 10.0006075 
2.876497e+3, 2.3535307e+2, -662569.1, -722618.5, -16571.299, 0.041180518, -0.42633107, -658299.6, -24788.607, 0.0, 10.000695, 9.999595 
2.8761467e+3, 2.4534687e+2, -472294.28, -438043.97, 90375.2, -0.044227347, -0.44286048, -363185.72, 172379.14, 0.0, 10.000725, 10.000848 
2.8757972e+3, 2.5534198e+2, -452452.72, -505217.47, 143620.28, -0.11761949, -0.46921775, -332811.75, 104795.42, 0.0, 10.00069, 9.99977 
2.8754488e+3, 2.6533592e+2, -429514.56, -750339.4, 122980.4, 0.0018494854, -0.27417925, -387797.5, -48126.508, 0.0, 10.001553, 9.996948 
2.8751013e+3, 2.753281e+2, -304119.72, -728219.7, 59059.953, 0.2878888, -0.21007672, -296048.66, -54288.18, 0.0, 10.002041, 9.996244 
2.8747517e+3, 2.8532156e+2, 5984.6313, -29904.598, 71088.055, 0.2996842, -0.089508004, 61357.957, 205183.25, 0.0, 10.001475, 10.000559 
2.8744003e+3, 2.9531553e+2, -371424.75, -284114.9, 54246.938, 0.05845178, -0.21479483, -258138.78, -212263.1, 0.0, 9.998636, 9.999584 
2.8740516e+3, 3.053089e+2, -190639.98, 30701.994, 147104.6, -0.07849855, -0.29658473, 104117.48, 104117.48, 0.0, 9.998551, 10.001084 
2.873706e+3, 3.153011e+2, -158946.75, -165392.02, 185896.52, 0.03913663, -0.6706193, 23755.066, 23755.066, 0.0, 9.999328, 9.999112 
2.873361e+3, 3.252978e+2, 62021.117, -251309.02, 179842.53, 0.27913308, -0.26515958, 143866.6, 143866.6, 0.0, 10.001931, 9.996992 
2.8899682e+3, 1.3576475e+2, -1543080.8, -1437445.8, -288549.34, -0.16854243, -0.0714833, -1196919.8, 412563.88, 0.0000000032251708, 10.000243, 10.0016 
2.8896174e+3, 1.4575577e+2, -1199814.6, -1368388.9, 234766.84, -0.0322215, -0.4185856, -1034662.75, 476895.5, 0.0, 10.002656, 10.000282 
2.88927e+3, 1.5575106e+2, -958409.1, -1305632.5, 234751.2, -0.24302042, -0.38508645, -840046.25, 573557.94, 0.0, 10.004018, 9.999439 
2.8889242e+3, 1.6574505e+2, -984390.94, -1305723.3, 34660.11, -0.10767028, -0.2998826, -980694.9, 334970.8, 0.0, 10.003418, 9.998977 
2.888578e+3, 1.7573756e+2, -1302801.8, -1477980.6, 31444.725, 0.15045658, -0.38988444, -1297328.4, -79585.58, 0.0, 10.000785, 9.998445 
2.88823e+3, 1.8573162e+2, -1171446.1, -1110829.6, 72284.67, 0.12599753, -0.33498082, -1062756.4, 57047.324, 0.0, 9.999991, 10.00067 
2.8878817e+3, 1.9572699e+2, -1119014.0, -1116752.5, 77835.586, -0.11869117, -0.2946369, -1040039.44, -18188.314, 0.0, 9.999946, 10.000029 
2.8875354e+3, 2.0572244e+2, -907461.06, -964523.6, 116204.63, -0.15507005, -0.1362663, -816336.4, 107560.15, 0.0, 10.000846, 9.999885 
2.8871903e+3, 2.1571727e+2, -638978.3, -862272.0, 208933.31, -0.04914182, -0.0662133, -513732.47, 312214.84, 0.0, 10.002251, 9.9992895 
2.886843e+3, 2.2571017e+2, -393692.22, -549816.7, 43925.566, 0.055116385, -0.14577323, -382182.3, 345831.34, 0.0, 10.002712, 10.000503 
2.8864935e+3, 2.357013e+2, -416883.03, -572452.5, -22598.674, 0.10788687, -0.5126082, -413666.75, 216427.27, 0.0, 10.002049, 10.00005 
2.886143e+3, 2.456955e+2, -305077.0, -365239.34, -14021.79, 0.023960322, -0.5309186, -301969.5, 230176.03, 0.0, 10.001828, 10.000858 
2.8857923e+3, 2.556915e+2, -245733.98, -383818.94, -90432.14, -0.18691967, -0.44403574, -201001.1, 233179.67, 0.0, 10.001865, 10.000101 
2.885444e+3, 2.6568615e+2, -328298.2, -572020.44, -73771.58, -0.085035875, -0.28573534, -307708.0, 28528.205, 0.0, 10.001654, 9.998126 
2.885097e+3, 2.756792e+2, -299332.3, -598459.94, 22447.012, 0.23803303, -0.21172771, -297657.25, -59343.85, 0.0, 10.001436, 9.997447 
2.8847474e+3, 2.8567252e+2, -130990.3, -191827.53, 41320.598, 0.31340754, -0.13329636, -110099.23, 30281.182, 0.0, 10.000743, 9.999875 
2.884395e+3, 2.9566583e+2, -288088.72, -290175.3, 11905.4, 0.18619259, -0.2277171, -277181.0, -234740.22, 0.0, 9.999234, 9.9993105 
2.884046e+3, 3.0565822e+2, -68286.79, 17226.197, 162564.5, 0.091177486, -0.36802852, 142562.94, 142562.94, 0.0, 9.999652, 10.000523 
2.8837025e+3, 3.156496e+2, 101228.125, -54226.535, 35672.855, 0.21055903, -0.72386456, 109023.25, 109023.25, 0.0, 10.00108, 9.999127 
2.883357e+3, 3.2565075e+2, 8177.0845, -135155.67, 28867.035, 0.25171775, 0.120172165, 13772.44, 13772.44, 0.0, 10.000696, 9.998617 
2.8999633e+3, 1.3611658e+2, -1392834.1, -1220757.5, -252316.92, -0.0813341, -0.007888274, -1040213.0, 565822.0, 0.000000008553674, 10.000668, 10.002903 
2.8996122e+3, 1.4610626e+2, -1472601.3, -1590513.3, 207271.9, -0.20058453, -0.512165, -1316063.8, 192052.05, 0.0, 10.001227, 9.999442 
2.899268e+3, 1.5609923e+2, -1495934.8, -1679305.1, 211710.22, -0.21357574, -0.6419957, -1356909.3, 53274.945, 0.0, 10.000894, 9.998362 
2.8989214e+3, 1.6609435e+2, -1334623.1, -1551214.1, -25647.664, -0.06682106, -0.35340658, -1331627.4, -19386.986, 0.0, 10.00146, 9.998184 
2.8985724e+3, 1.7609027e+2, -1354104.6, -1620090.1, 7444.3174, 0.113353714, -0.03283249, -1353896.4, -139601.88, 0.0, 10.001014, 9.997349 
2.898225e+3, 1.8608396e+2, -1092488.3, -1112609.0, 139204.2, 0.15137273, 0.05849049, -962981.3, 153379.77, 0.0, 10.000768, 10.000239 
2.8978786e+3, 1.9607605e+2, -1162390.3, -1174960.6, 117078.32, 0.13675138, -0.21526864, -1051428.5, -32991.508, 0.0, 9.999887, 9.999604 
2.8975317e+3, 2.0606974e+2, -812705.0, -672812.5, 193658.53, -0.012587836, -0.33898893, -536855.6, 383634.38, 0.0, 10.000529, 10.001977 
2.897185e+3, 2.1606386e+2, -740131.3, -760236.44, 233564.61, -0.20429084, -0.5706443, -516403.03, 306131.13, 0.0, 10.001015, 10.000542 
2.896838e+3, 2.2605792e+2, -687477.1, -874913.06, 25044.385, -0.113037, -0.50497276, -684188.5, 40402.21, 0.0, 10.001669, 9.998674 
2.8964898e+3, 2.3605132e+2, -778617.9, -1005118.6, -27384.365, 0.16014464, -0.48358065, -775354.06, -148693.31, 0.0, 10.000804, 9.997634 
2.89614e+3, 2.4604549e+2, -526666.56, -616470.8, 5975.144, 0.1262329, -0.3219448, -526270.75, 2450.6416, 0.0, 10.001096, 9.999378 
2.8957888e+3, 2.5603962e+2, -572363.75, -710579.06, -73673.65, -0.093225606, -0.3092169, -540458.2, -109677.03, 0.0, 10.000513, 9.998434 
2.8954396e+3, 2.6603368e+2, -224064.5, -166820.83, -61590.53, -0.07022041, -0.2995423, -127526.516, 205309.1, 0.0, 10.000956, 10.00119 
2.8950915e+3, 2.7602732e+2, -278833.53, -337723.28, 29056.492, 0.11782697, -0.49772283, -266910.78, -32019.457, 0.0, 10.000592, 9.99963 
2.894741e+3, 2.860208e+2, -273233.16, -330648.88, -31660.535, 0.21590698, -0.46803534, -259203.1, -122248.234, 0.0, 10.000222, 9.999127 
2.894389e+3, 2.9601368e+2, -537266.75, -586246.1, -9948.994, 0.2408385, -0.53254586, -535322.94, -496295.44, 0.0, 9.998424, 9.997628 
2.8940398e+3, 3.0600724e+2, -209900.61, -358476.06, 215191.7, 0.017439552, -0.3530322, -56534.785, -56534.785, 0.0, 10.000235, 9.997449 
2.8936934e+3, 3.1600174e+2, -177852.81, -679465.3, 100700.734, -0.309434, -0.0911569, -158391.77, -158391.77, 0.0, 10.001505, 9.9944935 
2.893356e+3, 3.2598874e+2, -217418.7, 339563.06, -99893.19, 0.63773763, -0.86532325, 356936.72, 356936.72, 0.0, 9.997075, 10.00327 
2.9099572e+3, 1.3646129e+2, -1366176.0, -1200335.0, -426482.94, -0.28769135, -0.28847197, -848786.3, 753868.0, 0.00000000038720277, 10.000699, 10.0030985 
2.9096094e+3, 1.4645632e+2, -1672628.6, -1585931.8, 51929.938, 0.030939221, -0.31775656, -1561635.5, -56950.34, 0.0, 9.999323, 10.0004425 
2.9092616e+3, 1.564487e+2, -1951025.0, -1784070.8, 135624.63, -0.18546225, -0.5950925, -1708291.9, -301533.56, 0.0, 9.997179, 9.999479 
2.9089147e+3, 1.6644387e+2, -1564637.3, -1483458.1, 84614.3, -0.1629053, -0.45162448, -1430201.6, -121391.01, 0.0, 9.999055, 9.999832 
2.9085666e+3, 1.764403e+2, -997349.4, -1294452.6, 195842.22, -0.14790365, -0.21455836, -900092.6, 310761.88, 0.0, 10.002681, 9.998821 
2.90822e+3, 1.8643443e+2, -742394.75, -1044014.94, 210050.28, -0.042400405, -0.09075961, -634622.56, 478294.75, 0.0, 10.003512, 9.99943 
2.9078743e+3, 1.9642717e+2, -888371.1, -1100762.1, 205791.2, 0.09822806, -0.18623525, -762990.5, 252000.72, 0.0, 10.001899, 9.999186 
2.9075283e+3, 2.0642048e+2, -659969.9, -626595.8, 235011.94, 0.06970671, -0.31774884, -407679.22, 509370.7, 0.0, 10.00155, 10.001854 
2.9071823e+3, 2.1641396e+2, -657484.4, -685936.44, 177988.03, -0.11887765, -0.58529156, -493154.75, 325946.63, 0.0, 10.001302, 10.000947 
2.906834e+3, 2.264085e+2, -663639.56, -801615.44, -11523.711, -0.09848167, -0.5301498, -662683.75, 58469.348, 0.0, 10.0014715, 9.999316 
2.906484e+3, 2.3640308e+2, -569269.56, -812407.56, 65737.51, 0.032223374, -0.41884127, -552634.2, 70576.8, 0.0, 10.00168, 9.998583 
2.9061347e+3, 2.4639705e+2, -372605.94, -563670.7, 196148.66, 0.013047783, -0.30228937, -249962.4, 275311.4, 0.0, 10.002065, 9.999342 
2.9057845e+3, 2.5639048e+2, -250028.34, -516829.2, 194464.4, -0.110919006, -0.31212577, -147606.63, 279734.78, 0.0, 10.002357, 9.99892 
2.905436e+3, 2.6638368e+2, -92091.35, -164690.45, 105720.53, 0.0014746295, -0.3707815, -16612.152, 312793.63, 0.0, 10.001896, 10.000848 
2.9050878e+3, 2.7637678e+2, -219469.38, -281055.25, -43629.56, 0.22118658, -0.5762871, -196860.6, 34606.613, 0.0, 10.000689, 10.000032 
2.904735e+3, 2.863713e+2, -220798.69, -241105.02, -115388.02, 0.17750287, -0.5091122, -115117.99, 18402.074, 0.0, 10.000272, 9.999722 
2.904382e+3, 2.963652e+2, -311353.47, -410656.66, 114537.36, 0.20200321, -0.49895936, -236168.83, -200585.83, 0.0, 9.999479, 9.998341 
2.9199523e+3, 1.3680668e+2, -1467291.8, -1269358.1, -368667.03, -0.25173265, -0.47011045, -986605.4, 612660.6, 0.0, 10.000173, 10.002813 
2.9196063e+3, 1.468062e+2, -1382453.5, -1342873.9, 4166.245, 0.3422597, -0.10329069, -1342440.1, 158817.27, 0.0, 10.000926, 10.001283 
2.919255e+3, 1.5679845e+2, -1599880.1, -1519746.0, 38145.574, -0.046822514, -0.48757157, -1504491.8, -101159.82, 0.0, 9.999228, 10.000284 
2.9189077e+3, 1.6679318e+2, -1312048.1, -1169488.5, 121094.31, -0.21728258, -0.5345973, -1100252.8, 205129.86, 0.0, 9.999957, 10.001562 
2.9185614e+3, 1.767889e+2, -1152135.0, -1244652.4, 146449.45, -0.33464676, -0.56074727, -1044812.06, 162612.38, 0.0, 10.001149, 9.999902 
2.9182157e+3, 1.867842e+2, -1014828.06, -1249066.4, 52768.684, -0.22441857, -0.35256332, -1003489.3, 105986.72, 0.0, 10.002098, 9.998624 
2.91787e+3, 1.9677863e+2, -1099317.8, -1360901.9, 94542.14, 0.08744556, -0.21627016, -1068725.9, -57187.258, 0.0, 10.001186, 9.997741 
2.9175252e+3, 2.0677237e+2, -819856.94, -818959.1, 201483.22, 0.1803001, -0.19176963, -617924.3, 295675.2, 0.0, 10.001084, 10.000712 
2.91718e+3, 2.1676554e+2, -970282.3, -965289.6, 139552.11, 0.13939855, -0.39910522, -828211.56, -12550.131, 0.0, 9.999821, 9.999734 
2.91683e+3, 2.267602e+2, -695255.1, -614866.3, -16055.299, -0.013818815, -0.3915592, -611778.4, 105931.99, 0.0, 10.000478, 10.001033 
2.9164776e+3, 2.3675522e+2, -719890.4, -759169.25, 54917.32, -0.19892392, -0.42861894, -681206.44, -61449.367, 0.0, 10.000246, 9.999603 
2.916128e+3, 2.4674948e+2, -463973.84, -501676.72, 190970.9, -0.24340522, -0.39152786, -290926.2, 230886.13, 0.0, 10.001119, 10.000153 
2.91578e+3, 2.5674313e+2, -504778.88, -667671.4, 188527.64, -0.21779464, -0.4859943, -380856.75, 43017.516, 0.0, 10.0008545, 9.99858 
2.9154328e+3, 2.6673588e+2, -432877.78, -637687.2, 51647.215, 0.093052074, -0.41851676, -420590.9, -94639.36, 0.0, 10.001103, 9.997857 
2.9150844e+3, 2.7672794e+2, -586025.94, -743664.56, -67246.836, 0.44704407, -0.46330857, -561237.25, -333199.38, 0.0, 9.999551, 9.997358 
2.914728e+3, 2.867248e+2, -181050.78, -25030.178, -115338.41, 0.0191047, -0.16175544, 36202.313, 166270.44, 0.0, 9.999829, 10.0013485 
2.9143742e+3, 2.967199e+2, -333871.4, -227017.56, 431397.66, -0.020792373, -0.27590027, 154248.94, 186362.13, 0.0, 9.998655, 9.999966 
2.9299474e+3, 1.3715559e+2, -1664962.1, -1560658.5, -147264.97, -0.23306337, -0.49703595, -1456583.6, 139253.52, 0.0, 9.999581, 10.001133 
2.9296014e+3, 1.4715111e+2, -1199885.8, -1424873.6, -37763.004, 0.16040659, -0.36997896, -1193716.6, 304162.0, 0.0, 10.002796, 9.999875 
2.9292518e+3, 1.5714559e+2, -1225126.6, -1471701.1, -54889.133, -0.010584777, -0.38007817, -1213460.0, 186475.17, 0.0, 10.002252, 9.999204 
2.928905e+3, 1.6713996e+2, -1149011.4, -1172159.6, -62544.773, -0.05278399, -0.3933489, -1096978.9, 205011.5, 0.0, 10.001349, 10.000912 
2.9285577e+3, 1.7713414e+2, -1370675.1, -1347555.8, -88869.44, -0.21898003, -0.51239836, -1269497.4, -65450.797, 0.0, 9.999512, 10.000029 
2.9282117e+3, 1.8712921e+2, -1135413.1, -1148789.3, -141553.52, -0.15605552, -0.4419962, -1000389.75, 105706.63, 0.0, 10.0005045, 10.000114 
2.9278666e+3, 1.971244e+2, -847757.2, -1049036.6, -39508.934, 0.050138243, -0.37152812, -840279.8, 167867.0, 0.0, 10.001988, 9.9995165 
2.927521e+3, 2.0712e+2, -719081.25, -739760.3, 40654.688, 0.1491203, -0.27030194, -687471.9, 222719.42, 0.0, 10.001581, 10.001057 
2.9271743e+3, 2.1711536e+2, -917256.7, -862009.06, 55029.703, 0.11822265, -0.27003574, -828059.0, -15822.22, 0.0, 9.999647, 10.0006 
2.9268244e+3, 2.2711055e+2, -645528.3, -466776.38, -20979.666, 0.008863873, -0.3167124, -464347.06, 249932.89, 0.0, 10.000051, 10.002393 
2.926473e+3, 2.3710567e+2, -440331.75, -439934.53, 24731.146, -0.18391104, -0.45370638, -415401.2, 200921.33, 0.0, 10.001127, 10.001476 
2.926123e+3, 2.4710083e+2, -457490.8, -447323.78, 85617.06, -0.24321741, -0.4479647, -366639.47, 151728.33, 0.0, 10.000771, 10.000778 
2.925775e+3, 2.5709558e+2, -594465.7, -625119.06, 53822.37, -0.2151899, -0.46594533, -553830.3, -133411.66, 0.0, 9.999656, 9.99953 
2.925428e+3, 2.6708904e+2, -510440.56, -704301.1, 73795.88, 0.13431266, -0.3660692, -485545.9, -163054.55, 0.0, 10.000565, 9.997713 
2.925081e+3, 2.770816e+2, -94036.875, -462428.9, 107614.33, 0.53416526, -0.31730717, -64904.465, 159672.44, 0.0, 10.002525, 9.997916 
2.924722e+3, 2.8707838e+2, 226880.06, 187021.75, 25118.928, -0.03675727, -0.050727654, 239015.4, 365622.66, 0.0, 10.002311, 10.001751 
2.92437e+3, 2.9707155e+2, -174782.25, -196265.53, 476261.3, 0.12023211, -0.34170166, 290858.53, 319528.25, 0.0, 9.999612, 9.999828 
2.9399428e+3, 1.3750425e+2, -1721257.3, -1799391.5, 68658.69, -0.12480199, -0.519237, -1681329.1, -88916.1, 0.0, 10.000133, 9.999231 
2.9395965e+3, 1.4749579e+2, -1419545.8, -1670734.4, -849.02277, 0.013476501, -0.64324385, -1419542.9, 74959.35, 0.0, 10.002018, 9.998516 
2.9392496e+3, 1.5749265e+2, -1403186.8, -1718959.6, -1565.1543, 0.12886818, -0.27361083, -1403179.0, -6639.796, 0.0, 10.001834, 9.9976845 
2.9389027e+3, 1.6748664e+2, -1185612.6, -1302255.4, 1164.8359, 0.18513994, -0.19683369, -1185601.0, 112999.85, 0.0, 10.001693, 9.999793 
2.9385546e+3, 1.7747913e+2, -1322925.3, -1407792.4, 3880.9292, 0.08645936, -0.37983927, -1322748.1, -122072.74, 0.0, 10.000306, 9.999173 
2.9382083e+3, 1.8747352e+2, -944171.1, -857485.75, 18597.209, 0.028632045, -0.45035833, -853664.44, 249063.06, 0.0, 10.001041, 10.001819 
2.9378632e+3, 1.9746864e+2, -868977.75, -909835.75, 20073.156, 0.10996312, -0.5634207, -860766.3, 144005.17, 0.0, 10.001328, 10.000761 
2.9375157e+3, 2.0746621e+2, -779426.8, -667600.8, -20212.105, 0.10120341, -0.38899788, -664059.7, 242737.5, 0.0, 10.000847, 10.001839 
2.937167e+3, 2.1746427e+2, -1143482.8, -956555.7, 3773.2966, 0.057793155, -0.19642529, -956479.56, -147659.56, 0.0, 9.998143, 10.00066 
2.936819e+3, 2.2746024e+2, -704383.75, -357683.34, 28536.45, 0.047385685, -0.25474086, -355350.25, 355505.66, 0.0, 9.999227, 10.003421 
2.9364702e+3, 2.3745531e+2, -647342.8, -501579.28, 41645.996, 0.03381758, -0.52935916, -490519.75, 122378.12, 0.0, 9.999724, 10.001655 
2.9361197e+3, 2.4745157e+2, -591537.56, -466730.5, 34487.734, -0.087736346, -0.4458792, -457834.63, 57099.137, 0.0, 9.999861, 10.000986 
2.9357687e+3, 2.574481e+2, -826555.1, -710517.94, 44786.2, -0.19209176, -0.3264728, -695242.9, -278273.63, 0.0, 9.9981575, 9.999619 
2.935422e+3, 2.674432e+2, -447232.4, -432083.1, 152353.2, 0.075728595, -0.20667703, -287116.38, 31906.887, 0.0, 10.000041, 9.999822 
2.9350764e+3, 2.7743733e+2, -208536.67, -387960.16, 161530.77, 0.41106093, -0.22337028, -113477.25, 107610.94, 0.0, 10.001331, 9.998978 
2.9347184e+3, 2.8743103e+2, 73889.91, 12984.015, -25374.514, -0.025701772, -0.25415584, 83075.93, 206222.38, 0.0, 10.001892, 10.00067 
2.934364e+3, 2.9742283e+2, -578170.44, -598171.1, 10209.269, 0.11432098, -0.5425954, -573879.7, -548655.8, 0.0, 9.998066, 9.997699 
2.949939e+3, 1.3785464e+2, -1668681.0, -1783778.4, -10727.057, -0.08332629, -0.23050134, -1667689.8, -78705.18, 0.0, 10.000451, 9.999232 
2.9495907e+3, 1.4784506e+2, -1440300.9, -1548078.3, 15096.694, -0.19205345, -0.5527661, -1438226.1, 52852.97, 0.0, 10.001286, 9.999738 
2.9492432e+3, 1.5784068e+2, -1349126.1, -1564957.1, 102606.74, -0.16985029, -0.3974132, -1308132.6, 84990.61, 0.0, 10.001551, 9.998931 
2.948898e+3, 1.6783589e+2, -1011101.7, -1165663.5, 150607.86, 0.024756411, -0.2738107, -919104.56, 376067.75, 0.0, 10.0025215, 10.000406 
2.9485512e+3, 1.7783071e+2, -897100.6, -1161421.4, 217048.05, 0.03275896, -0.24292414, -775142.5, 422082.5, 0.0, 10.002919, 9.999651 
2.948205e+3, 1.8782447e+2, -734611.4, -908984.56, 179449.78, 0.019162865, -0.29780802, -622289.25, 476996.72, 0.0, 10.003024, 10.000556 
2.9478592e+3, 1.9781807e+2, -741648.0, -895132.44, 66256.28, 0.021974063, -0.41959053, -717003.5, 284344.03, 0.0, 10.002249, 10.0004635 
2.94751e+3, 2.0781457e+2, -714739.25, -561053.7, -69748.44, 0.029298328, -0.3791018, -534119.5, 369262.4, 0.0, 10.000798, 10.002677 
2.9471594e+3, 2.1781196e+2, -975009.9, -767925.5, -17583.281, -0.024911681, -0.30967864, -766443.1, 38965.613, 0.0, 9.998659, 10.001753 
2.946812e+3, 2.278088e+2, -775166.9, -479816.5, 35516.26, -0.01022516, -0.27272078, -475605.66, 231835.42, 0.0, 9.9990425, 10.002712 
2.9464644e+3, 2.378053e+2, -540107.4, -392909.53, -79513.516, 0.005497723, -0.33189583, -358160.88, 251314.97, 0.0, 10.000065, 10.002274 
2.9461136e+3, 2.478019e+2, -485165.2, -234573.1, -89551.62, -0.059033565, -0.3577557, -205860.73, 305644.4, 0.0, 9.999624, 10.00281 
2.9457626e+3, 2.5779834e+2, -548447.1, -354360.2, 37057.207, -0.12205678, -0.40350664, -347525.5, 66010.055, 0.0, 9.998886, 10.0018015 
2.9454163e+3, 2.677948e+2, -356105.94, -237732.34, 208545.36, 0.071598634, -0.31275842, -80137.59, 235436.55, 0.0, 9.99986, 10.001323 
2.9450706e+3, 2.777911e+2, -105908.164, -176460.81, 129457.67, 0.26879397, -0.23550025, -7006.596, 210610.28, 0.0, 10.0011835, 10.00055 
2.9447147e+3, 2.877838e+2, 84931.164, -24587.172, -50011.484, 0.010170988, -0.41814643, 104332.06, 224019.94, 0.0, 10.001975, 10.000481 
2.9443595e+3, 2.9777917e+2, 136357.25, -327324.84, -208564.92, 0.19492988, -0.26163772, 216364.89, 238100.58, 0.0, 10.002947, 9.997319 
2.959936e+3, 1.3820378e+2, -1579019.5, -1658368.6, -7443.622, 0.0856143, -0.019533996, -1578327.3, 7241.019, 0.00000000001490612, 10.000797, 9.999918 
2.9595852e+3, 1.4819409e+2, -1322330.4, -1332671.5, 22274.006, -0.25476992, -0.46979055, -1304634.6, 183021.98, 0.0, 10.001478, 10.001109 
2.9592365e+3, 1.581881e+2, -1372197.9, -1463598.4, 64884.848, -0.3805423, -0.60419387, -1338534.8, 51176.188, 0.0, 10.000963, 9.999896 
2.9588926e+3, 1.6818503e+2, -1045150.3, -1093961.1, 79207.18, -0.15510842, -0.40646648, -986673.9, 305068.16, 0.0, 10.001983, 10.001129 
2.958548e+3, 1.781827e+2, -1021086.56, -1233392.1, 101890.445, 0.013176861, -0.16888174, -980099.7, 213667.5, 0.0, 10.002209, 9.999486 
2.9582015e+3, 1.8817647e+2, -1006930.25, -1234683.5, 86233.63, -0.016792277, -0.13317883, -977963.9, 117868.375, 0.0, 10.002124, 9.998686 
2.9578552e+3, 1.981687e+2, -1157432.1, -1284537.0, 30242.438, 0.020239688, -0.20860995, -1150603.4, -152691.11, 0.0, 10.000329, 9.9986925 
2.9575044e+3, 2.0816347e+2, -796627.7, -505343.66, -116729.695, 0.007708143, -0.3414434, -464337.8, 435622.9, 0.0, 10.000001, 10.003358 
2.9571518e+3, 2.1815908e+2, -1113694.1, -887693.94, -36713.777, -0.03756738, -0.51983196, -881879.4, -79879.23, 0.0, 9.998135, 10.001118 
2.956804e+3, 2.2815672e+2, -933525.5, -745843.25, 96901.93, -0.10528744, -0.28062722, -704791.3, -758.9911, 0.0, 9.99887, 10.0009165 
2.956457e+3, 2.3815513e+2, -837894.4, -627055.25, -38434.59, -0.13939606, -0.005523806, -620267.44, -14208.15, 0.0, 9.998537, 10.001389 
2.9561067e+3, 2.4815139e+2, -356566.9, 170999.55, -116403.89, -0.11188615, -0.24562214, 195541.58, 703626.0, 0.0, 9.999149, 10.005757 
2.9557562e+3, 2.5814685e+2, -602694.0, -196627.22, 41294.023, -0.03183999, -0.6841519, -192470.47, 217641.95, 0.0, 9.997885, 10.003314 
2.95541e+3, 2.6814473e+2, -405682.28, -173928.86, 255409.58, 0.03028108, -0.56597215, -9339.068, 302797.5, 0.0, 9.999278, 10.001952 
2.9550633e+3, 2.7814323e+2, -286506.6, -244201.47, 149458.75, -0.02813378, -0.33524606, -114405.87, 99754.92, 0.0, 10.000027, 10.000593 
2.9547098e+3, 2.881379e+2, 90486.79, 104780.18, -36364.074, -0.063264355, -0.43022335, 134693.19, 250914.31, 0.0, 10.001629, 10.001447 
2.954358e+3, 2.981366e+2, 72413.734, -319172.84, 65092.32, 0.25241214, -0.047435567, 82950.33, 101195.51, 0.0, 10.002541, 9.997518 
2.9699293e+3, 1.3854828e+2, -1299684.9, -1225231.0, -80723.484, -0.2614995, -0.2734373, -1173564.1, 408623.53, 0.00000010737005, 10.001368, 10.002637 
2.969587e+3, 1.4854047e+2, -1350491.8, -1417516.3, -15070.789, 0.33784977, -0.5888873, -1347258.9, 136994.98, 0.0, 10.00153, 10.000525 
2.969233e+3, 1.5853567e+2, -1433021.6, -1595983.6, -17964.611, -0.3240156, -0.5294635, -1431064.8, -44765.844, 0.0, 10.000905, 9.999039 
2.968888e+3, 1.685295e+2, -1177998.3, -1385478.6, -35179.105, -0.2724448, -0.49666587, -1172195.9, 116168.234, 0.0, 10.001974, 9.999176 
2.9685438e+3, 1.7852314e+2, -905911.2, -1194108.5, -159541.75, -0.22444141, -0.4989759, -835026.2, 355406.0, 0.0, 10.002952, 9.999428 
2.9681966e+3, 1.8851925e+2, -892487.25, -859858.8, -173485.1, -0.12282896, -0.43886915, -701922.56, 390547.25, 0.0, 10.001395, 10.001671 
2.967849e+3, 1.9851546e+2, -1206793.4, -1021231.25, -33296.688, -0.0017928809, -0.40310287, -1015437.5, -20931.945, 0.0, 9.998582, 10.001388 
2.9674983e+3, 2.0851181e+2, -794883.3, -496369.16, -59409.027, -0.0041091316, -0.46614304, -484980.34, 411560.16, 0.0, 9.999879, 10.0035305 
2.9671463e+3, 2.1850832e+2, -511821.13, -520689.0, -8279.773, -0.08772389, -0.5603923, -506862.8, 291711.6, 0.0, 10.001758, 10.001954 
2.966798e+3, 2.2850533e+2, -580366.06, -569321.9, 153699.36, -0.14709015, -0.4089622, -421045.44, 279565.16, 0.0, 10.001088, 10.001158 
2.96645e+3, 2.3850268e+2, -631009.5, -480627.06, 112470.4, -0.22173192, -0.22381242, -420528.56, 182116.39, 0.0, 9.999588, 10.0019245 
2.9661003e+3, 2.4849927e+2, -204437.39, 159930.2, -58060.92, -0.1595057, -0.38345054, 168958.36, 673628.75, 0.0, 10.000429, 10.005116 
2.9657504e+3, 2.584957e+2, -3912.7498, 132614.36, -135585.75, -0.040594686, -0.66013193, 216151.36, 622844.25, 0.0, 10.001643, 10.003793 
2.9654044e+3, 2.684947e+2, -163332.33, 27109.713, 23742.313, 0.033351596, -0.51487446, 30025.027, 338731.16, 0.0, 10.000398, 10.0028925 
2.965057e+3, 2.784941e+2, -397372.44, -192281.38, -45211.883, -0.031756632, -0.26731384, -182756.84, 27963.67, 0.0, 9.998582, 10.001725 
2.964705e+3, 2.8849086e+2, -24859.537, 78099.37, -232659.27, -0.052638117, -0.22139843, 264906.44, 377667.5, 0.0, 10.000588, 10.001843 
2.964355e+3, 2.984895e+2, 234362.6, -138938.58, -45392.62, 0.20762162, 0.13203487, 239802.95, 254588.92, 0.0, 10.003056, 9.998567 
2.9799253e+3, 1.3889234e+2, -1534578.0, -1082326.6, -140361.7, -0.19955502, -0.5211351, -1042305.3, 536504.75, 0.00000019973128, 9.99871, 10.004911 
2.979589e+3, 1.4888671e+2, -1399485.6, -1527948.6, -124107.88, 0.9333132, -0.6254737, -1323972.9, 156880.55, 0.000000000008976791, 10.0016365, 9.999722 
2.9792306e+3, 1.5888336e+2, -1500340.4, -1792378.0, -76174.695, -0.10828096, -0.3496043, -1481665.3, -98778.0, 0.0, 10.001215, 9.997568 
2.9788837e+3, 1.688733e+2, -1325637.1, -1687447.3, 38728.65, -0.29807416, -0.52691436, -1321538.0, -36543.12, 0.0, 10.002055, 9.997044 
2.9785392e+3, 1.7886175e+2, -1110199.3, -1343793.5, -46158.27, -0.35822007, -0.856167, -1101409.1, 85708.0, 0.0, 10.001863, 9.998939 
2.9781914e+3, 1.8886034e+2, -688577.06, -306568.78, -217238.48, -0.16067664, -0.8038799, -208306.36, 880817.7, 0.0, 10.000933, 10.005689 
2.9778427e+3, 1.9886163e+2, -1090290.1, -688248.75, -97833.26, 0.1029952, -0.65463406, -665705.9, 325395.9, 0.0, 9.998306, 10.0037985 
2.9774928e+3, 2.0886002e+2, -856061.25, -558318.7, -33038.805, 0.026401743, -0.60014313, -554696.6, 338424.03, 0.0, 9.9996, 10.003245 
2.9771426e+3, 2.1885829e+2, -812472.6, -663718.94, -25167.93, -0.03633738, -0.5242206, -659576.1, 135567.27, 0.0, 9.999808, 10.001906 
2.9767933e+3, 2.2885448e+2, -673005.44, -444658.44, 58809.156, -0.1105397, -0.57704324, -430402.56, 266776.9, 0.0, 9.999907, 10.002517 
2.9764435e+3, 2.3884954e+2, -949647.7, -738073.5, 73088.83, -0.2126705, -0.70868933, -715280.3, -116054.16, 0.0, 9.998024, 10.000886 
2.9760942e+3, 2.488467e+2, -592614.94, -356372.66, -11695.467, -0.20962669, -0.5855744, -355795.06, 145460.88, 0.0, 9.999385, 10.002008 
2.9757455e+3, 2.5884476e+2, -471044.72, -358538.06, -102959.45, -0.1296672, -0.3803667, -297466.7, 105810.39, 0.0, 9.999748, 10.001313 
2.9753992e+3, 2.688442e+2, -192099.95, 177267.78, -52569.023, 0.0815909, -0.2262189, 184603.78, 489890.28, 0.0, 9.99968, 10.004205 
2.975052e+3, 2.7884343e+2, -617811.6, -319580.4, -57759.72, 0.16283476, -0.115202725, -308784.63, -101486.62, 0.0, 9.997363, 10.001413 
2.9747e+3, 2.8884158e+2, -226610.55, -125759.3, -152595.77, -0.037169915, 0.14132902, -15473.339, 93844.516, 0.0, 9.9998455, 10.000764 
2.9743505e+3, 2.9883152e+2, 188997.11, 39620.26, 219704.16, -0.040645063, -0.33131227, 346361.0, 357776.0, 0.0, 10.002191, 10.000145 
2.9899222e+3, 1.3922976e+2, -1974751.8, -1351862.1, 241526.52, 0.18782532, -1.0674572, -1269184.0, 306321.84, 0.000000019519112, 9.995916, 10.004494 
2.989578e+3, 1.4923023e+2, -1455080.6, -1534839.3, -225460.48, 0.20847891, -0.55139095, -1265999.6, 211493.23, 0.0, 10.001183, 9.999966 
2.9892272e+3, 1.5922648e+2, -1354980.8, -1590939.1, -134636.08, -0.1672143, -0.34678084, -1293946.0, 85584.34, 0.0, 10.001596, 9.998797 
2.9888827e+3, 1.6922027e+2, -1203723.8, -1321442.3, 56292.457, -0.10265848, -0.35712072, -1181138.3, 100458.695, 0.0, 10.001561, 9.999809 
2.9885375e+3, 1.7921409e+2, -1081021.3, -1080964.5, 91009.195, -0.18900798, -0.39368463, -989983.7, 193679.61, 0.0, 10.000957, 10.001191 
2.9881877e+3, 1.8921052e+2, -684242.6, -364677.47, -148077.31, -0.0998689, -0.56106544, -306612.94, 779080.5, 0.0, 10.001181, 10.005233 
2.9878375e+3, 1.9920844e+2, -878509.7, -644592.9, -203204.44, 0.11161551, -0.6668075, -527091.7, 460615.66, 0.0, 9.999927, 10.003353 
2.987486e+3, 2.0920877e+2, -905755.7, -660679.7, -174452.05, -0.033487663, -0.3395102, -570029.8, 319677.22, 0.0, 9.999576, 10.002592 
2.987134e+3, 2.1920836e+2, -810255.5, -575316.94, -212645.16, -0.33539075, -0.07340631, -449852.06, 341863.56, 0.0, 9.999289, 10.002807 
2.9867852e+3, 2.2920445e+2, -545265.44, -170294.25, -128285.2, -0.32682204, -0.29799798, -130606.03, 563144.2, 0.0, 9.999716, 10.004593 
2.9864374e+3, 2.3920071e+2, -490271.84, -324722.4, -86125.84, -0.24418673, -0.51182336, -288042.88, 307738.97, 0.0, 10.000168, 10.002776 
2.9860875e+3, 2.4919762e+2, -654444.6, -438043.38, -36151.246, -0.22607724, -0.43188846, -432163.8, 65649.55, 0.0, 9.999079, 10.001682 
2.985738e+3, 2.5919378e+2, -753127.1, -512906.94, 53160.344, -0.20012575, -0.35679212, -501668.44, -101814.45, 0.0, 9.997692, 10.001335 
2.9853922e+3, 2.691888e+2, -222624.53, 23872.727, 30070.389, -0.02194409, -0.51092505, 27488.012, 329396.16, 0.0, 9.999976, 10.003135 
2.9850453e+3, 2.7918506e+2, 110226.12, -34589.625, -142549.6, 0.047753107, -0.5646795, 197703.48, 401652.8, 0.0, 10.002462, 10.001063 
2.9846942e+3, 2.891795e+2, 112455.47, -76892.7, -221139.28, -0.0673542, -0.59258604, 258334.42, 364339.6, 0.0, 10.002535, 10.000037 
2.984346e+3, 2.9916763e+2, 289650.16, 318529.66, 295596.6, -0.19079088, -1.1789399, 600039.0, 608152.7, 0.0, 10.001556, 10.002662 
2.9999134e+3, 1.3958178e+2, -873851.6, -1408385.0, 606460.9, -0.119754516, -0.19715889, -478376.8, 1093678.0, 0.000000005854746, 10.005808, 9.999387 
2.9995683e+3, 1.495776e+2, -918875.0, -1348046.9, -287869.28, -0.3191691, -0.0017627442, -774412.44, 699683.44, 0.0, 10.005205, 9.999206 
2.999228e+3, 1.595648e+2, -1174097.3, -1365016.8, -313201.8, 0.31267387, -0.7151234, -942130.75, 434093.6, 0.0, 10.002136, 10.000035 
2.998878e+3, 1.6956392e+2, -1335887.5, -877713.06, 24678.422, -0.04644959, -0.62003833, -876387.6, 401843.84, 0.0, 9.998431, 10.004226 
2.99853e+3, 1.7956455e+2, -1734604.6, -1261938.4, 261566.36, -0.41253975, -0.38363716, -1145751.6, 34472.906, 0.0, 9.995778, 10.002434 
2.9981813e+3, 1.895659e+2, -1318616.6, -867805.25, 88330.19, -0.19633669, -0.02798895, -851116.0, 231095.3, 0.0, 9.997617, 10.00339 
2.9978308e+3, 1.9955966e+2, -1081674.0, -1082998.9, 121871.05, -0.009600499, -0.27838227, -960463.56, 23808.887, 0.0, 9.999941, 10.00029 
2.997482e+3, 2.0955192e+2, -773898.56, -638226.06, 319864.0, 0.18599327, -0.65733325, -379084.13, 507265.34, 0.0, 10.00073, 10.002021 
2.9971296e+3, 2.1954888e+2, -800418.2, -703194.8, 299865.5, -0.14155343, -0.5184141, -448026.28, 340354.7, 0.0, 9.999932, 10.001558 
2.9967803e+3, 2.2954872e+2, -982525.2, -236386.23, 22072.676, -0.14502902, -0.43937603, -235733.83, 454648.34, 0.0, 9.996172, 10.005664 
2.996436e+3, 2.3955047e+2, -1432297.1, -731986.8, -199595.56, 0.21986766, -0.26302817, -679094.8, -86732.3, 0.0, 9.993553, 10.00307 
2.9960856e+3, 2.4954315e+2, -197962.31, -148739.53, -359425.97, 0.27909598, -0.7427579, 186916.69, 681344.6, 0.0, 10.001978, 10.0020895 
2.9957342e+3, 2.5954056e+2, -350617.7, -456803.66, -460437.4, 0.17615463, -0.6646286, 59777.707, 456225.3, 0.0, 10.001148, 9.99994 
2.995384e+3, 2.695367e+2, -697766.9, -557034.56, 188716.36, -0.21925361, -0.5367064, -425992.53, -127500.66, 0.0, 9.998448, 9.999626 
2.9950377e+3, 2.795269e+2, -861209.1, -878075.0, -66467.43, -0.41045243, -0.8636846, -802641.8, -602043.9, 0.0, 9.997514, 9.997544 
2.9946917e+3, 2.895307e+2, -161579.61, -328527.7, -61979.293, 0.04506317, 0.16986878, -141085.63, -38515.273, 0.0, 10.001461, 9.998576 
2.9943416e+3, 2.9952168e+2, 447517.4, 664705.0, -149209.47, -0.21706435, -0.09709284, 740654.1, 745307.0, 0.0, 10.00183, 10.004669 
