coord_x,coord_y,stress_xx,stress_yy,tau_xy,velocity_x,velocity_y,stress_1,eps,damage,lx,ly
5.000371e+0, 1.2453687e+2, -1375069.5, -1425425.0, 16825.164, -0.052065738, 0.1063991, -1369965.1, 349588.2, 0.0026923823, 10.001667, 10.0011835 
5.0005656e+0, 1.3453747e+2, -1496840.3, -1474476.1, -106614.01, 0.03450889, 0.017014084, -1378459.4, 243086.27, 0.0015911749, 10.000379, 10.000782 
5.000578e+0, 1.4454055e+2, -1538295.1, -1587678.6, -94653.83, 0.05163804, 0.31458622, -1465165.5, 58348.45, 0.0007108368, 10.000057, 9.999474 
5.000156e+0, 1.545381e+2, -1320998.4, -1432880.8, -46316.742, -0.031285863, 0.07217298, -1304312.8, 121223.1, 0.00020845741, 10.000883, 9.999467 
5.000091e+0, 1.6453691e+2, -1256499.8, -1425992.1, -21681.648, -0.04232412, 0.04146815, -1253770.1, 73778.46, 0.000030560106, 10.000978, 9.998797 
5.00042e+0, 1.7453621e+2, -1280646.3, -1395089.6, 103.67395, 0.030664487, 0.050185885, -1280646.1, -51086.01, 0.0000010193884, 10.000175, 9.998724 
5.000395e+0, 1.8453608e+2, -1109798.6, -1078522.1, 29900.555, 0.041836813, 0.0917641, -1060417.3, 71144.42, 0.0, 9.999895, 10.000356 
4.9999195e+0, 1.9453658e+2, -963791.7, -956098.4, -10710.347, -0.021397196, 0.055013053, -948564.9, 84987.45, 0.0, 10.0002165, 10.000373 
4.9999905e+0, 2.0453697e+2, -959935.06, -1132789.3, 2591.3945, -0.031990916, 0.16016619, -959896.2, -24345.416, 0.0, 10.000567, 9.998312 
5.000657e+0, 2.1453696e+2, -819390.75, -1030760.75, 42620.746, 0.01664931, 0.29521403, -811120.3, 26441.28, 0.0, 10.000925, 9.99817 
5.0005364e+0, 2.245366e+2, -609517.25, -641657.94, 23557.064, 0.017376179, 0.34460658, -597071.06, 142496.7, 0.0, 10.000674, 10.000289 
4.9994865e+0, 2.3453552e+2, -646758.5, -598223.5, -58435.39, -0.03904011, 0.15029357, -559216.94, 82353.86, 0.0, 9.999699, 10.000385 
4.9991626e+0, 2.4453543e+2, -693302.2, -743972.44, -52545.46, -0.058784835, 0.1807899, -660303.0, -116733.03, 0.0, 9.999454, 9.99883 
4.999732e+0, 2.5453615e+2, -511631.9, -624443.1, -39728.06, -0.034920085, 0.335215, -499045.4, -53477.22, 0.000000000017365094, 10.000107, 9.998664 
5.000108e+0, 2.64535e+2, -363752.25, -500910.66, -24282.348, -0.013852851, 0.35957447, -359580.25, -12000.241, 0.000000288742, 10.000445, 9.9986725 
5.000248e+0, 2.7453175e+2, -275522.4, -407048.3, -19568.152, 0.003232236, 0.11947335, -272672.8, -23065.799, 0.0000032414011, 10.000373, 9.998679 
5.00023e+0, 2.8453034e+2, -186965.7, -331612.7, 4004.4822, 0.0007070959, 0.12108995, -186854.92, -35237.02, 0.00001724438, 10.000391, 9.9985075 
4.9999356e+0, 2.945298e+2, -65788.08, -221011.95, 11996.087, -0.036709607, 0.16826895, -64866.46, -11243.506, 0.000074921634, 10.000528, 9.998531 
4.999798e+0, 3.0452767e+2, -75239.87, -252918.56, -9247.443, -0.040975437, 0.1269087, -74759.875, -74759.875, 0.0002850154, 10.000353, 9.998063 
4.999966e+0, 3.145269e+2, 114003.36, 285909.06, -62606.117, 0.00642413, 0.19153383, 306292.56, 306292.56, 0.0007432572, 9.999663, 10.002112 
1.5001048e+1, 1.2453934e+2, -1598413.6, -1827700.5, -57084.0, -0.15998706, 0.2540664, -1584987.9, 134540.05, 0.0025889925, 10.001444, 9.998537 
1.5001746e+1, 1.3453598e+2, -1707744.0, -1881282.1, -147678.47, 0.110333666, 0.08537613, -1623230.3, -1659.7466, 0.0015350278, 10.000277, 9.998054 
1.5001722e+1, 1.4453782e+2, -1460806.1, -1388287.0, -76389.81, 0.1550985, 0.33611253, -1339987.9, 183565.92, 0.00068435894, 9.999908, 10.000926 
1.5000471e+1, 1.545377e+2, -1226567.4, -1207352.6, -6051.8354, -0.09302345, 0.18924375, -1205605.4, 219941.63, 0.00019662973, 10.000772, 10.001079 
1.5000285e+1, 1.6453812e+2, -1209309.5, -1294811.5, -57093.355, -0.124683835, 0.1891189, -1180735.3, 146804.36, 0.000026649353, 10.000851, 9.999769 
1.5001303e+1, 1.7453846e+2, -1227485.1, -1260369.6, -21411.97, 0.09480698, 0.23329248, -1216930.8, 12607.714, 0.00000066228677, 10.000077, 9.999708 
1.5001158e+1, 1.8453793e+2, -1183913.4, -1191125.5, 32736.107, 0.124945305, 0.21210647, -1154585.4, -23041.56, 0.0, 9.99974, 9.999664 
1.4999773e+1, 1.9453636e+2, -1038347.25, -1078134.8, 11101.514, -0.062697746, 0.0703807, -1035459.3, -1902.8873, 0.0, 10.000088, 9.999606 
1.4999948e+1, 2.04536e+2, -895656.6, -955420.94, 9549.28, -0.095649004, 0.07792034, -894167.94, 41392.395, 0.0, 10.000402, 9.999615 
1.500196e+1, 2.1453694e+2, -745345.6, -835045.0, 67875.76, 0.050285224, 0.1900819, -708840.44, 128714.77, 0.0, 10.000765, 9.999598 
1.5001595e+1, 2.245367e+2, -746811.0, -886725.56, -20527.66, 0.05309901, 0.25187346, -743861.44, -4300.4756, 0.0, 10.0005245, 9.998685 
1.4998432e+1, 2.3453507e+2, -796539.3, -868444.7, -84854.41, -0.117800236, 0.2046754, -740335.25, -98755.83, 0.0, 9.999545, 9.99861 
1.4997496e+1, 2.4453412e+2, -680122.75, -685538.56, -38514.387, -0.17576931, 0.22070387, -644221.2, -100631.91, 0.0, 9.999333, 9.999296 
1.4999183e+1, 2.5453383e+2, -489173.28, -536352.5, -6441.909, -0.10532802, 0.23425177, -488309.53, -42718.758, 0.0, 9.999945, 9.999353 
1.5000333e+1, 2.6453295e+2, -347733.94, -435776.6, -33936.816, -0.039922006, 0.22256069, -336171.25, 11426.118, 0.00000013049092, 10.000329, 9.999184 
1.5000774e+1, 2.745315e+2, -268719.94, -354801.66, -14849.934, 0.012870578, 0.1435408, -266230.2, -16621.125, 0.0000023602508, 10.000221, 9.999122 
1.500065e+1, 2.8453076e+2, -172086.6, -266927.1, 1452.7941, -0.0003053723, 0.16321602, -172064.34, -20450.084, 0.000014211254, 10.000269, 9.999018 
1.4999801e+1, 2.9452986e+2, -54779.895, -151305.05, 31396.389, -0.111654036, 0.14448956, -45466.35, 8154.4526, 0.0000647229, 10.000337, 9.999112 
1.4999425e+1, 3.0452743e+2, -167281.28, -395599.6, -39324.254, -0.11576285, 0.085115336, -160698.11, -160698.11, 0.00025372737, 10.0002, 9.997167 
1.4999892e+1, 3.145247e+2, -59910.027, 10516.858, -52512.94, 0.023348384, 0.09790509, 38529.957, 38529.957, 0.0006708774, 9.999351, 10.000381 
2.5002748e+1, 1.24540046e+2, -1761302.4, -1981664.0, -34171.41, -0.08519107, 0.25739717, -1756125.1, -36606.414, 0.002469872, 10.000667, 9.997834 
2.5002486e+1, 1.3453597e+2, -1493587.4, -1867068.4, 2488.2612, 0.07147742, 0.0853701, -1493570.8, 128000.32, 0.001465867, 10.002157, 9.997233 
2.500232e+1, 1.4453724e+2, -1155114.3, -1248466.8, 108765.875, 0.124035984, 0.32404554, -1083432.1, 440129.53, 0.0006493342, 10.002057, 10.000836 
2.500166e+1, 1.5453723e+2, -1326530.6, -1264188.5, 42615.793, -0.01333401, 0.18596889, -1242560.5, 182993.52, 0.00018140074, 10.0001335, 10.000985 
2.5001407e+1, 1.6453789e+2, -1356012.5, -1330859.3, -36783.41, -0.03487174, 0.20251974, -1304561.9, 22981.71, 0.000022322774, 9.999709, 10.000057 
2.5001702e+1, 1.7453873e+2, -1066735.9, -1144513.9, -56896.297, 0.08402512, 0.2552407, -1036707.9, 192828.4, 0.00000035252413, 10.001042, 10.00002 
2.5001216e+1, 1.8453835e+2, -992251.25, -1132680.3, -17164.738, 0.08923432, 0.24864858, -990183.6, 141356.45, 0.0, 10.001195, 9.999357 
2.4999934e+1, 1.9453664e+2, -1106510.3, -1144109.9, -13205.364, -0.034004483, 0.11763985, -1102335.9, -68780.164, 0.0, 9.99977, 9.999292 
2.5000092e+1, 2.0453602e+2, -1044155.9, -985802.25, 32500.305, -0.055877797, 0.09821702, -971303.5, -35742.12, 0.0, 9.999195, 9.999984 
2.500199e+1, 2.1453655e+2, -895581.4, -863605.44, 9718.339, 0.043150757, 0.11881029, -860883.5, -23326.357, 0.0, 9.999544, 9.999981 
2.500174e+1, 2.2453642e+2, -834250.25, -978652.44, -62910.21, 0.039451376, 0.19459529, -810687.6, -71126.32, 0.0, 10.000127, 9.998238 
2.4998985e+1, 2.3453549e+2, -631313.44, -846683.3, -37676.813, -0.08104768, 0.2587702, -624912.5, 16663.684, 0.0, 10.000914, 9.998094 
2.4998158e+1, 2.4453433e+2, -450434.3, -563366.7, 71820.03, -0.11565319, 0.27503693, -415541.06, 128047.48, 0.0, 10.000871, 9.999384 
2.499963e+1, 2.5453264e+2, -496590.7, -530472.94, 57827.477, -0.044814378, 0.1310228, -453273.88, -7673.634, 0.0, 9.99985, 9.9994335 
2.5000596e+1, 2.6453167e+2, -477936.53, -495882.16, 29519.502, 0.0031266436, 0.10603686, -456056.25, -108449.28, 0.00000003137998, 9.999435, 9.999191 
2.5000915e+1, 2.7453175e+2, -335052.6, -382523.28, 4054.312, 0.03346847, 0.16991663, -334708.8, -85102.55, 0.0000016165861, 9.999765, 9.999137 
2.5000796e+1, 2.8453133e+2, -232432.33, -293217.66, 9562.944, 0.014904527, 0.22262587, -230963.36, -79353.85, 0.000011342512, 9.999836, 9.9990425 
2.5000206e+1, 2.9452968e+2, -170271.11, -198644.58, -7514.0596, -0.056548044, 0.115599856, -168404.03, -114779.81, 0.00005395602, 9.999524, 9.999168 
2.4999708e+1, 3.0452818e+2, -212455.78, -360261.44, -10640.8955, -0.06970573, 0.12382986, -211693.66, -211693.66, 0.00022021512, 9.99965, 9.99768 
2.4999651e+1, 3.145257e+2, 40172.715, 22561.56, 71143.664, 0.03790543, 0.095917016, 103053.67, 103053.67, 0.00059438485, 10.00021, 10.000041 
3.500526e+1, 1.24538966e+2, -1681520.6, -1790220.8, -6000.716, 0.05024384, 0.07160075, -1681190.4, 38335.645, 0.0023442989, 10.000567, 9.999195 
3.5002488e+1, 1.345375e+2, -1397842.0, -1661253.1, 64278.52, -0.16971812, 0.035883646, -1382993.6, 238553.47, 0.0013882996, 10.002141, 9.998649 
3.5002086e+1, 1.4453873e+2, -1263257.1, -1455807.6, 32350.893, -0.13389252, 0.26187617, -1257967.1, 265570.84, 0.0006086515, 10.001989, 9.999442 
3.5003456e+1, 1.545367e+2, -1439358.4, -1483391.4, -19472.766, 0.12582216, 0.0776912, -1431982.5, -6425.871, 0.00016439817, 10.000081, 9.999499 
3.500332e+1, 1.645362e+2, -1379419.1, -1365886.4, -2944.8503, 0.1605209, 0.06277558, -1365273.3, -37712.297, 0.000017966355, 9.999642, 9.999858 
3.5001397e+1, 1.745368e+2, -1082683.0, -1171330.0, 3366.7563, -0.07545988, 0.11367946, -1082555.3, 147000.25, 0.00000014192928, 10.001011, 9.999857 
3.5000333e+1, 1.8453714e+2, -985936.75, -1095085.3, -72673.91, -0.14130645, 0.17583135, -949627.3, 181925.06, 0.0, 10.001096, 9.99966 
3.5000172e+1, 1.9453725e+2, -1093138.1, -1099004.1, -56594.9, -0.011717379, 0.19674025, -1039400.25, -5848.7227, 0.0, 9.999696, 9.999638 
3.5000214e+1, 2.0453691e+2, -1085404.5, -1041966.5, 31375.563, 0.016456285, 0.19979084, -1025526.06, -89970.75, 0.0, 9.999075, 9.999656 
3.5000524e+1, 2.1453577e+2, -937443.94, -922207.25, 32237.986, -0.08030293, 0.09760197, -896699.7, -59132.613, 0.0, 9.999427, 9.999636 
3.500077e+1, 2.2453569e+2, -788093.7, -848786.9, -41174.64, -0.091426544, 0.15088767, -767290.8, -27721.41, 0.0, 9.999988, 9.999196 
3.5000896e+1, 2.3453689e+2, -576213.7, -700587.1, 1202.2998, -0.0032392475, 0.3300815, -576202.06, 65358.45, 0.0, 10.000785, 9.999158 
3.500094e+1, 2.4453604e+2, -475918.44, -594445.1, 27439.684, 0.055610165, 0.33131874, -469874.2, 73693.64, 0.0, 10.000776, 9.999218 
3.500088e+1, 2.545326e+2, -529929.56, -571528.1, 28600.164, 0.07279521, 0.039294284, -515365.28, -69768.85, 0.0, 9.999735, 9.999206 
3.500072e+1, 2.645312e+2, -507304.25, -544801.0, 32103.291, 0.05237954, -0.002102322, -488875.72, -141267.61, 0.0000000045955626, 9.999378, 9.998886 
3.500038e+1, 2.7453235e+2, -370097.84, -432375.22, 27916.66, -0.020606015, 0.2070256, -359416.0, -109817.52, 0.0000011861115, 9.999663, 9.998847 
3.5000443e+1, 2.8453198e+2, -259368.92, -332371.53, -10161.909, -0.02691129, 0.2902978, -257980.8, -106376.87, 0.000009324045, 9.999772, 9.998802 
3.5000873e+1, 2.9452914e+2, -205202.53, -248659.39, -10840.397, 0.03087837, 0.09536078, -202648.48, -149014.8, 0.00004426637, 9.999433, 9.998871 
3.50003e+1, 3.0452973e+2, -61920.35, -44694.31, 1021.7525, 0.004427065, 0.2196447, -44633.914, -44633.914, 0.00018818198, 9.999624, 9.99986 
3.499876e+1, 3.1452993e+2, 111231.43, 180221.45, 124920.734, -0.12015194, 0.2365094, 275322.34, 275322.34, 0.00052315294, 10.000149, 10.001159 
4.5006934e+1, 1.24539144e+2, -1571322.1, -1662394.1, 52972.285, 0.15844202, 0.0110124955, -1547004.0, 172518.34, 0.0022184679, 10.001033, 9.999839 
4.5003685e+1, 1.3453847e+2, -1572817.4, -1682968.4, 18266.486, -0.17662469, -0.0007709459, -1569867.3, 51666.207, 0.0013082918, 10.000679, 9.999204 
4.5003036e+1, 1.4453968e+2, -1490084.1, -1610710.8, -37417.863, -0.15778127, 0.21437342, -1479420.0, 44105.043, 0.00056754425, 10.000621, 9.999053 
4.500393e+1, 1.5453814e+2, -1349122.0, -1495809.3, -34490.77, 0.13362446, 0.13069354, -1341416.9, 84125.836, 0.00014805637, 10.000931, 9.999023 
4.500369e+1, 1.6453737e+2, -1236387.0, -1320385.8, 82756.695, 0.18896046, 0.1252378, -1185582.3, 141968.78, 0.000013959289, 10.000727, 9.999648 
4.500221e+1, 1.7453682e+2, -1252244.5, -1277273.3, 68469.24, -0.033817474, 0.082813, -1195155.4, 34399.598, 0.000000037538413, 9.99994, 9.999652 
4.5001307e+1, 1.8453674e+2, -1162880.4, -1195142.9, -26989.457, -0.087362885, 0.11929072, -1147568.9, -16012.7, 0.0, 9.999946, 9.999537 
4.5000952e+1, 1.9453739e+2, -947803.56, -1043369.44, -62288.19, 0.051846188, 0.20746319, -917081.56, 116470.81, 0.0, 10.000762, 9.99951 
4.5000646e+1, 2.0453729e+2, -831328.8, -931548.25, 35852.035, 0.07052645, 0.25010148, -819824.0, 115730.35, 0.0, 10.000863, 9.999557 
4.5000455e+1, 2.1453616e+2, -862063.1, -898603.7, 38240.56, -0.04912601, 0.15785398, -837952.44, -387.3427, 0.0, 9.999991, 9.99953 
4.5000756e+1, 2.2453587e+2, -817002.06, -812375.94, 4745.851, -0.062058125, 0.17429261, -809409.44, -69841.88, 0.0, 9.999575, 9.999645 
4.5001602e+1, 2.3453656e+2, -704785.7, -711275.44, -10456.167, 0.051661164, 0.25640094, -697082.5, -55521.99, 0.0, 9.999687, 9.999617 
4.500179e+1, 2.4453586e+2, -630376.94, -704363.5, -23059.85, 0.11567658, 0.26386702, -623778.25, -80211.74, 0.0, 9.999877, 9.998891 
4.5001176e+1, 2.5453323e+2, -491192.66, -596469.25, -49934.34, 0.11260507, 0.09171652, -471275.97, -25684.898, 0.0, 10.000189, 9.998813 
4.5000717e+1, 2.6453197e+2, -364798.88, -465547.4, -4365.715, 0.0742098, 0.08107817, -364610.06, -17007.67, 0.000000013083459, 10.000319, 9.998971 
4.5000514e+1, 2.745325e+2, -271480.56, -376524.22, 6939.7007, 0.0027208328, 0.2154769, -271024.06, -21427.115, 0.0000010541644, 10.0003, 9.998929 
4.5000476e+1, 2.8453168e+2, -259582.1, -345402.38, -17731.686, 0.004224738, 0.2544203, -256062.8, -104456.516, 0.000008050424, 9.999834, 9.998689 
4.5000497e+1, 2.9452875e+2, -289880.3, -306936.2, -28329.125, 0.082796484, 0.068324685, -268823.38, -215185.55, 0.00003666787, 9.998934, 9.998715 
4.4999832e+1, 3.0453023e+2, -113502.29, -22300.396, -996.14966, 0.031733613, 0.27358004, -22289.518, -22289.518, 0.00016032506, 9.999055, 10.000286 
4.4998592e+1, 3.145305e+2, 101697.28, 173778.45, -36268.46, -0.13682842, 0.24271801, 188868.34, 188868.34, 0.00046162336, 10.000085, 10.001141 
5.500673e+1, 1.24540925e+2, -1578490.4, -1707136.1, 5236.4673, -0.032194756, 0.09118433, -1578277.6, 141227.06, 0.0020911084, 10.001136, 9.999489 
5.500575e+1, 1.345389e+2, -1586623.6, -1734716.5, 14391.457, -0.075363375, -0.021973923, -1585238.0, 36292.047, 0.0012261746, 10.000764, 9.998811 
5.5004966e+1, 1.4454009e+2, -1447207.9, -1528809.4, -39410.125, -0.062349614, 0.18372509, -1431282.4, 92240.69, 0.0005263589, 10.000646, 9.999605 
5.5002713e+1, 1.545416e+2, -1304282.4, -1410787.9, -13768.236, -0.111406006, 0.3474364, -1302531.4, 122980.4, 0.00013276051, 10.000961, 9.999594 
5.500205e+1, 1.6454148e+2, -1261996.8, -1365074.3, 45632.117, -0.07538975, 0.39205995, -1244698.5, 82814.31, 0.0000106646075, 10.000693, 9.999353 
5.5003715e+1, 1.7453878e+2, -1276305.0, -1322388.3, 47276.027, 0.094038635, 0.16053154, -1246754.4, -17219.088, 0.000000007551507, 9.999924, 9.999347 
5.500384e+1, 1.8453719e+2, -1209985.9, -1280533.1, -9707.036, 0.146587, 0.08723998, -1208674.6, -77123.47, 0.0, 9.999889, 9.998979 
5.5001926e+1, 1.94537e+2, -992821.1, -1128881.6, -23566.379, 0.045731828, 0.15230265, -988854.94, 44703.375, 0.0, 10.000728, 9.99894 
5.500103e+1, 2.0453721e+2, -834785.8, -916424.1, -1514.5721, -0.00015330705, 0.24584724, -834757.7, 100800.57, 0.0, 10.000773, 9.9997 
5.5001396e+1, 2.1453771e+2, -859696.0, -876291.75, 15087.555, 0.020108566, 0.29851767, -850775.0, -13223.619, 0.0, 9.99992, 9.999714 
5.500133e+1, 2.2453694e+2, -830244.4, -824591.9, -1335.0076, 0.012672648, 0.25898206, -824292.44, -84736.414, 0.0, 9.999507, 9.999595 
5.500082e+1, 2.3453462e+2, -720578.3, -726602.2, 2890.5557, -0.019510876, 0.046775192, -719415.7, -77840.67, 0.0, 9.999608, 9.999549 
5.5000347e+1, 2.4453379e+2, -675603.56, -783886.44, -18033.414, -0.04090304, 0.06985444, -672679.25, -129094.914, 0.0, 9.99982, 9.998371 
5.500008e+1, 2.5453457e+2, -544859.7, -678409.6, -29751.877, -0.043151293, 0.28910595, -538531.5, -92947.49, 0.0, 10.000071, 9.998301 
5.500023e+1, 2.645341e+2, -337782.56, -403758.53, -13842.369, -0.032593153, 0.36076027, -334996.0, 12593.568, 0.000000016276152, 10.000288, 9.9994135 
5.500101e+1, 2.745321e+2, -244476.25, -308606.16, 13845.588, -0.0037106222, 0.19512388, -241614.69, 7987.5967, 0.00000094951764, 10.000242, 9.999428 
5.500059e+1, 2.8453034e+2, -259877.8, -340982.78, -60407.207, 0.008376136, 0.11004475, -227673.61, -76056.57, 0.0000068870954, 9.999816, 9.998727 
5.499876e+1, 2.9452842e+2, -302530.1, -317119.53, -49596.492, -0.014159254, 0.026058247, -259694.73, -206057.13, 0.00003048685, 9.998858, 9.998683 
5.4997975e+1, 3.0452976e+2, -206083.28, -196176.77, 32197.764, -0.084088735, 0.27314585, -168553.48, -168553.48, 0.0001366128, 9.99899, 9.99912 
5.4998434e+1, 3.1452733e+2, 12271.221, 6117.2075, 24306.14, -0.21177277, 0.098245025, 33694.344, 33694.344, 0.00040785797, 10.000017, 10.000016 
6.500683e+1, 1.2454118e+2, -1752305.4, -1770200.1, -78098.04, -0.05625506, 0.14492778, -1682643.9, 36862.75, 0.0019647046, 9.999821, 9.999707 
6.5006983e+1, 1.3453971e+2, -1654645.5, -1734521.1, -52836.906, 0.0136369, 0.06168729, -1628350.6, -6825.712, 0.0011417874, 10.000134, 9.999126 
6.500634e+1, 1.4454038e+2, -1475908.0, -1519454.1, -49684.168, 0.033642717, 0.18981615, -1443435.5, 80086.06, 0.0004823996, 10.000356, 9.999802 
6.500266e+1, 1.5454186e+2, -1314261.6, -1391257.5, -74811.62, -0.19594902, 0.3314049, -1268623.5, 156886.4, 0.00011742101, 10.000796, 9.999796 
6.5001684e+1, 1.6454189e+2, -1217885.5, -1328787.8, -30225.785, -0.18623054, 0.371719, -1210182.8, 117326.516, 0.000008467286, 10.000936, 9.999486 
6.5004325e+1, 1.7453955e+2, -1174402.4, -1259608.0, -14311.811, 0.13672125, 0.16710304, -1172062.8, 57464.67, 0.000000004638606, 10.000574, 9.999463 
6.500481e+1, 1.8453807e+2, -1136261.9, -1265715.6, 14470.902, 0.23199494, 0.10912171, -1134664.0, -3121.6682, 0.0, 10.000495, 9.99878 
6.500253e+1, 1.9453762e+2, -1008802.7, -1161599.4, 9249.916, 0.040413875, 0.16803701, -1008244.75, 25308.498, 0.0, 10.000724, 9.998716 
6.500162e+1, 2.0453756e+2, -829440.06, -936380.25, 12693.832, -0.019024767, 0.25521058, -827953.94, 107602.48, 0.0, 10.0009, 9.999507 
6.500237e+1, 2.1453783e+2, -734263.56, -836460.94, -16239.871, 0.08382506, 0.30751333, -731745.0, 105806.12, 0.0, 10.000872, 9.999531 
6.500208e+1, 2.2453679e+2, -675588.3, -776695.2, -29624.73, 0.08328961, 0.26260123, -667547.56, 72010.74, 0.0, 10.000685, 9.99936 
6.5000504e+1, 2.3453411e+2, -636323.7, -710181.8, -56752.34, -0.039692633, 0.03875041, -605543.2, 36037.86, 0.0, 10.000292, 9.999334 
6.4999855e+1, 2.445333e+2, -624618.0, -758553.8, -35732.32, -0.081089854, 0.0707108, -615681.4, -72090.27, 0.0, 10.000145, 9.998409 
6.500035e+1, 2.5453454e+2, -514932.06, -659253.44, -20943.662, -0.0231858, 0.33738983, -511954.22, -66367.4, 0.0, 10.000243, 9.998369 
6.500072e+1, 2.6453415e+2, -385555.72, -415274.84, 2703.4956, 0.013197554, 0.4088715, -385311.78, -37719.94, 0.00000000394634, 9.999903, 9.99953 
6.5001035e+1, 2.7453175e+2, -395269.66, -363318.06, -15316.327, 0.037705034, 0.18665247, -357162.06, -107554.02, 0.0000007712445, 9.99914, 9.999578 
6.500027e+1, 2.8452998e+2, -332096.16, -349194.44, -64423.9, 0.033531893, 0.08761587, -275656.63, -124035.7, 0.000006042053, 9.999203, 9.998963 
6.4998317e+1, 2.945288e+2, -103927.07, -193768.19, -54574.445, 0.0023886086, 0.051231716, -78163.64, -24531.086, 0.000026514133, 10.00011, 9.998923 
6.4997584e+1, 3.0452958e+2, -127596.65, -265261.9, 59317.188, -0.06219523, 0.272358, -105564.21, -105564.21, 0.00011960156, 9.999986, 9.998169 
6.4998454e+1, 3.145258e+2, -229045.69, -169733.48, 31640.21, -0.12844047, 0.0686668, -156023.84, -156023.84, 0.000365328, 9.998608, 9.9995 
7.500665e+1, 1.2453973e+2, -1674584.5, -1621340.1, -90905.18, -0.11513693, 0.17503366, -1553239.0, 166290.7, 0.0018421272, 9.999876, 10.000701 
7.5006974e+1, 1.345408e+2, -1573788.4, -1579591.4, -39099.527, -0.032048974, 0.24388249, -1537482.8, 84035.445, 0.0010580781, 10.000191, 10.000163 
7.5006604e+1, 1.4454061e+2, -1483808.1, -1539957.3, -43723.42, -0.007925692, 0.23539029, -1459921.9, 63598.273, 0.0004375462, 10.000372, 9.999656 
7.5003403e+1, 1.5453891e+2, -1325776.4, -1425386.0, -46655.664, -0.23243558, 0.07978942, -1307337.0, 118200.61, 0.00010224, 10.000833, 9.99955 
7.500223e+1, 1.6453858e+2, -1183752.3, -1250925.1, -50404.03, -0.2515978, 0.07152821, -1156769.5, 170770.42, 0.000007138289, 10.000906, 10.000033 
7.500373e+1, 1.745392e+2, -1133612.4, -1177056.3, -19652.248, -0.00807662, 0.10391535, -1126041.8, 103489.08, 0.00000003688298, 10.00058, 10.000027 
7.500389e+1, 1.845394e+2, -1132425.4, -1254417.0, 13847.224, 0.066127904, 0.17964225, -1130873.4, 656.555, 0.0, 10.000474, 9.998873 
7.5002426e+1, 1.9453913e+2, -1005287.44, -1150186.1, 26896.58, -0.069550134, 0.24599376, -1000455.94, 33082.355, 0.0, 10.000702, 9.998808 
7.50021e+1, 2.0453827e+2, -878769.2, -1021912.1, 4749.0474, -0.0829717, 0.27695447, -878611.75, 56937.176, 0.0, 10.000829, 9.998954 
7.50031e+1, 2.1453655e+2, -785498.06, -926693.7, -9124.906, 0.045019228, 0.18452679, -784910.8, 52653.414, 0.0, 10.000795, 9.998951 
7.5002617e+1, 2.2453542e+2, -720883.75, -849564.25, -51386.22, 0.047909874, 0.18227571, -702882.0, 36692.613, 0.0, 10.000596, 9.998899 
7.5000364e+1, 2.3453493e+2, -683147.25, -785620.44, -60989.293, -0.10491771, 0.22011307, -654729.06, -13149.26, 0.0, 10.0001955, 9.998863 
7.499993e+1, 2.4453427e+2, -592612.2, -677384.0, -40781.863, -0.10918353, 0.26616228, -576178.7, -32591.514, 0.0, 10.000086, 9.998989 
7.500171e+1, 2.5453323e+2, -482002.3, -575702.44, -9951.8, 0.06501118, 0.2358239, -480957.0, -35357.86, 0.0, 10.000172, 9.998978 
7.500188e+1, 2.6453227e+2, -408077.72, -446937.1, -31950.615, 0.11787715, 0.22887415, -390112.8, -42504.62, 0.00000000015133415, 9.999846, 9.999336 
7.500026e+1, 2.745314e+2, -426931.94, -406970.38, -30357.598, 0.019314313, 0.1867835, -384994.94, -135381.25, 0.00000065427645, 9.999047, 9.999322 
7.49992e+1, 2.8453073e+2, -304017.4, -284190.5, -39352.008, -0.019865658, 0.1853462, -253522.47, -101904.9, 0.0000058927376, 9.999172, 9.999425 
7.4998766e+1, 2.945299e+2, -80624.46, -131892.5, -11411.199, 0.008236168, 0.13394842, -78199.28, -24576.2, 0.000025865007, 10.00004, 9.999388 
7.4998355e+1, 3.0452955e+2, -190645.44, -386104.4, 9515.174, -0.008576861, 0.2618614, -190183.33, -190183.33, 0.00011192772, 9.999949, 9.997349 
7.499802e+1, 3.1452566e+2, -238963.58, -163025.47, 7993.3955, -0.07836998, 0.12067024, -162193.19, -162193.19, 0.00033923058, 9.998492, 9.999596 
8.500777e+1, 1.2453931e+2, -1618704.9, -1579804.9, 34811.887, 0.003553269, 0.17921509, -1559378.0, 160159.13, 0.0017237901, 10.000223, 10.0008 
8.500645e+1, 1.3454102e+2, -1581508.6, -1549167.3, -12021.049, -0.08335891, 0.28571317, -1545188.6, 76329.65, 0.0009802121, 10.000015, 10.00044 
8.500615e+1, 1.4454052e+2, -1532518.5, -1531136.4, -2989.4204, -0.058637206, 0.217213, -1528759.1, -5237.095, 0.00039778455, 9.999887, 9.999955 
8.5004735e+1, 1.5453908e+2, -1440914.9, -1445299.3, 12609.49, -0.12885569, 0.057379287, -1430308.4, -4772.9033, 0.000088897265, 9.999894, 9.999862 
8.5003877e+1, 1.6453889e+2, -1282744.6, -1311030.5, 24941.941, -0.13967197, 0.053306486, -1268214.9, 59321.723, 0.000006071428, 10.000278, 9.999926 
8.500385e+1, 1.7453954e+2, -1079346.3, -1162391.1, -14958.576, -0.06883573, 0.10040777, -1076734.0, 152795.5, 0.000000076650345, 10.001004, 9.999923 
8.5003793e+1, 1.845399e+2, -953610.75, -1134514.1, 16964.502, -0.039645195, 0.18551165, -952033.6, 179493.14, 0.0, 10.001558, 9.999175 
8.5003763e+1, 1.9454011e+2, -822251.9, -1025088.7, 32255.549, -0.05535638, 0.27050805, -817246.06, 216281.78, 0.0, 10.001807, 9.999132 
8.500374e+1, 2.0453921e+2, -773408.94, -990150.2, 25070.254, -0.036359906, 0.2873597, -770546.9, 164991.55, 0.0, 10.001633, 9.998786 
8.500361e+1, 2.145368e+2, -790285.06, -951823.06, 18825.441, 0.020378532, 0.14714931, -788120.2, 49441.746, 0.0, 10.00086, 9.998749 
8.5002875e+1, 2.245357e+2, -724638.94, -856596.25, 33248.94, 0.020996386, 0.16091613, -716734.75, 22838.287, 0.0, 10.000599, 9.998845 
8.500151e+1, 2.3453616e+2, -584648.7, -744290.4, 36317.85, -0.039042868, 0.30058455, -576774.8, 64794.477, 0.0, 10.000904, 9.998801 
8.5001206e+1, 2.4453539e+2, -505239.25, -637069.7, 57651.066, -0.015189291, 0.33889103, -483584.72, 59992.508, 0.0, 10.000691, 9.998968 
8.5002226e+1, 2.5453302e+2, -517138.6, -589984.5, 22941.502, 0.11894189, 0.17887114, -510515.7, -64915.8, 0.0, 9.999933, 9.998982 
8.500178e+1, 2.6453182e+2, -442795.47, -484360.6, -5753.3325, 0.13826777, 0.15697147, -442013.8, -94402.56, 0.0000000019213902, 9.999681, 9.999165 
8.4999734e+1, 2.74532e+2, -320470.8, -376494.9, -19289.135, 0.028703382, 0.23325846, -314471.9, -64862.113, 0.0000006294421, 9.999857, 9.9991455 
8.4998685e+1, 2.845316e+2, -221412.19, -279684.25, -8538.35, -0.016252896, 0.28387237, -220186.86, -68573.71, 0.0000062489003, 9.9998865, 9.999116 
8.499889e+1, 2.9453027e+2, -124795.53, -185413.2, -58716.746, 0.032122273, 0.2152796, -89026.52, -35401.77, 0.000027811611, 9.99988, 9.999096 
8.499848e+1, 3.0452913e+2, -179584.8, -343671.06, -48556.44, 0.023178589, 0.26721022, -166292.72, -166292.72, 0.000112212314, 9.99985, 9.9977 
8.499755e+1, 3.1452647e+2, -16739.592, 57522.45, 9105.92, -0.012874535, 0.2017142, 58622.703, 58622.703, 0.00032853556, 9.999517, 10.000615 
9.5009553e+1, 1.24540165e+2, -1675800.1, -1704528.0, -3826.7566, 0.102467224, 0.17518783, -1675299.1, 44226.93, 0.0016162735, 10.00025, 9.999927 
9.500495e+1, 1.3454033e+2, -1612700.8, -1633133.5, -12430.731, -0.2660918, 0.1817647, -1606826.9, 14698.29, 0.000914127, 10.000092, 9.999827 
9.5004624e+1, 1.4454012e+2, -1476409.5, -1415336.8, -11766.185, -0.229064, 0.13561456, -1413148.4, 110378.914, 0.00036652523, 9.999892, 10.000745 
9.5006406e+1, 1.545424e+2, -1380391.9, -1325668.6, 23419.96, 0.018957265, 0.2664679, -1317014.3, 108489.195, 0.00007896126, 9.999918, 10.000671 
9.5006394e+1, 1.6454291e+2, -1339678.0, -1425463.0, 42832.71, 0.060451854, 0.3258096, -1321953.6, 5545.0034, 0.000005121987, 10.000258, 9.999151 
9.5004344e+1, 1.7454053e+2, -1134957.0, -1282008.3, 21573.086, -0.14710356, 0.15426795, -1131857.5, 97666.0, 0.00000007826353, 10.001017, 9.999097 
9.500416e+1, 1.8453962e+2, -928434.1, -1068801.1, 20091.781, -0.17894426, 0.12902462, -925614.9, 205918.13, 0.0, 10.001502, 9.999652 
9.5006233e+1, 1.9454058e+2, -790752.7, -950022.75, 52098.94, -0.01387652, 0.23331329, -775224.5, 258298.16, 0.0, 10.001766, 9.999666 
9.5006216e+1, 2.0454036e+2, -772911.94, -972790.7, -10731.103, 0.02679612, 0.2842565, -772337.44, 163187.67, 0.0, 10.001558, 9.998941 
9.500357e+1, 2.145385e+2, -790453.5, -936917.9, 73.525475, -0.09306447, 0.18379295, -790453.44, 47091.76, 0.0, 10.000791, 9.998886 
9.5002556e+1, 2.2453755e+2, -715462.3, -821247.4, 36374.66, -0.0945773, 0.19244279, -704161.94, 35392.598, 0.0, 10.000525, 9.999123 
9.5003563e+1, 2.3453765e+2, -573117.7, -705988.1, 54909.527, 0.05271825, 0.26226124, -553363.0, 88188.516, 0.0, 10.000834, 9.999099 
9.5003366e+1, 2.4453655e+2, -557942.1, -728472.94, 21180.906, 0.10981464, 0.28049532, -555350.75, -11788.749, 0.0, 10.000616, 9.998377 
9.5001626e+1, 2.545339e+2, -570145.06, -688741.44, 4974.379, 0.041449577, 0.15490326, -569936.75, -124347.125, 0.0, 9.999876, 9.998336 
9.5000166e+1, 2.6453274e+2, -463473.1, -514534.66, -8469.798, -0.011384255, 0.18057968, -462104.84, -114502.49, 0.0000000017799018, 9.99963, 9.9989805 
9.4999105e+1, 2.7453333e+2, -341845.03, -403472.84, -3864.9487, -0.04341574, 0.31160793, -341603.6, -92005.51, 0.0000005677249, 9.999781, 9.998995 
9.499848e+1, 2.8453252e+2, -301518.72, -439404.47, -18020.332, -0.048967574, 0.38293478, -299202.53, -147594.33, 0.0000064583187, 9.999857, 9.998032 
9.499833e+1, 2.9452994e+2, -215360.16, -356265.4, -44695.73, -0.038571443, 0.29467347, -202378.48, -148740.84, 0.000029725905, 9.999802, 9.997961 
9.4997644e+1, 3.0452847e+2, -72042.65, -114728.95, -64530.027, -0.06787667, 0.2941012, -25417.758, -25417.758, 0.00011359201, 9.999824, 9.999281 
9.499626e+1, 3.1452835e+2, 102182.74, 328727.56, 33317.832, -0.14462025, 0.3189277, 333525.97, 333525.97, 0.00032159366, 9.999413, 10.002529 
1.0500977e+2, 1.24540925e+2, -1781215.1, -1773928.3, -1859.6387, 0.14541522, 0.19145706, -1773481.1, -53961.242, 0.0015309328, 9.999568, 9.999798 
1.05005294e+2, 1.3454111e+2, -1554649.6, -1592562.4, 10386.998, -0.24772175, 0.1901778, -1551990.4, 69527.086, 0.0008642909, 10.000411, 9.999965 
1.0500534e+2, 1.4454067e+2, -1343883.8, -1366719.6, 19442.732, -0.18968855, 0.12044568, -1332754.1, 190767.47, 0.00034447288, 10.000892, 10.000588 
1.0500737e+2, 1.5454341e+2, -1240209.5, -1285357.3, -43599.79, 0.07725271, 0.32149687, -1213686.4, 211808.86, 0.00007296801, 10.001008, 10.000424 
1.0500738e+2, 1.6454393e+2, -1220485.4, -1387679.1, -8826.326, 0.09369238, 0.40601325, -1220020.8, 107470.56, 0.000004414203, 10.001171, 9.998963 
1.0500532e+2, 1.7454126e+2, -1099692.6, -1287250.6, -688.70294, -0.16317272, 0.2231589, -1099690.1, 129829.6, 0.000000050630582, 10.001371, 9.998882 
1.0500514e+2, 1.8454005e+2, -973816.5, -1072345.3, -2451.371, -0.20678711, 0.17167671, -973755.56, 157776.3, 0.0, 10.001101, 9.999822 
1.0500713e+2, 1.945407e+2, -1026887.5, -1043160.8, -17410.273, -0.008480057, 0.22366004, -1015806.4, 17716.928, 0.0, 10.000049, 9.999853 
1.05006956e+2, 2.0454071e+2, -1004090.5, -1061415.4, -59440.293, 0.03527719, 0.2770279, -966762.94, -31239.768, 0.0, 9.9998865, 9.999133 
1.05004214e+2, 2.1453974e+2, -790544.4, -913840.6, -64360.516, -0.097197026, 0.24742205, -763070.25, 74464.79, 0.0, 10.000702, 9.999082 
1.0500315e+2, 2.2453886e+2, -635064.1, -768716.56, -16334.134, -0.106394865, 0.24698882, -633096.8, 106446.32, 0.0, 10.001011, 9.999262 
1.050042e+2, 2.3453805e+2, -580875.3, -694527.44, -26688.97, 0.043851696, 0.21763292, -574920.0, 66627.07, 0.0, 10.000716, 9.999241 
1.0500378e+2, 2.4453683e+2, -572831.44, -746030.3, -47550.367, 0.098227836, 0.2208835, -560635.6, -17077.705, 0.0, 10.00056, 9.9982815 
1.05001695e+2, 2.54535e+2, -485981.7, -662780.75, -42319.164, 0.03390178, 0.1890085, -476374.16, -30795.768, 0.0, 10.000525, 9.9981985 
1.05000034e+2, 2.645339e+2, -389446.3, -489694.6, -11717.881, -0.010718824, 0.23252617, -388094.84, -40504.047, 0.00000000014537505, 10.0002, 9.998867 
1.04999e+2, 2.7453366e+2, -378527.28, -436383.38, -24439.604, -0.016570764, 0.29258007, -369585.47, -119991.09, 0.00000042821608, 9.9996, 9.998855 
1.04998335e+2, 2.8453264e+2, -336136.28, -422746.66, 43117.133, -0.023435272, 0.33240142, -318331.5, -166725.3, 0.0000059800022, 9.999455, 9.998352 
1.0499796e+2, 2.945306e+2, -192237.0, -305173.8, 106236.38, -0.04627615, 0.26546884, -128393.94, -74765.04, 0.000029321069, 9.999772, 9.998334 
1.04997106e+2, 3.0452955e+2, -122750.81, -147021.58, 77726.27, -0.07910318, 0.2894284, -56218.28, -56218.28, 0.000109979665, 9.999521, 9.999204 
1.0499587e+2, 3.1452918e+2, -57427.41, 212373.13, 5215.771, -0.0682078, 0.30615562, 212473.92, 212473.92, 0.000307793, 9.99849, 10.002174 
1.1500763e+2, 1.2454135e+2, -1729910.6, -1681379.0, 1196.2042, -0.08436733, 0.2224468, -1681349.5, 38171.504, 0.001474528, 9.999627, 10.000403 
1.1500723e+2, 1.3454324e+2, -1483680.6, -1455124.6, 47074.2, -0.12337026, 0.30385965, -1420210.8, 201285.48, 0.00083337264, 10.000455, 10.000885 
1.1500808e+2, 1.4454214e+2, -1429288.1, -1538476.4, 15613.964, -0.03153991, 0.17557256, -1427099.1, 96406.4, 0.00033260565, 10.000866, 9.999422 
1.1500714e+2, 1.5454204e+2, -1323841.3, -1465748.9, -25957.914, -0.07531675, 0.21367483, -1319242.1, 106268.984, 0.0000710648, 10.001041, 9.999166 
1.15006484e+2, 1.6454199e+2, -1197961.3, -1340756.6, -9126.2295, -0.13912398, 0.29253003, -1197380.4, 130134.07, 0.0000041843605, 10.001164, 9.999292 
1.1500655e+2, 1.7454164e+2, -1066494.4, -1223858.0, 16585.938, -0.20283574, 0.29925445, -1064765.3, 164753.88, 0.000000024917117, 10.001392, 9.99931 
1.150065e+2, 1.8454118e+2, -994154.25, -1095855.5, -46857.91, -0.20251946, 0.30676198, -975856.9, 155667.16, 0.0, 10.001022, 9.9997 
1.15006104e+2, 1.945405e+2, -1042209.2, -1066310.8, -48836.24, -0.14268437, 0.24106343, -1003958.9, 29570.803, 0.0, 10.000012, 9.999713 
1.1500568e+2, 2.0454027e+2, -1002420.9, -1042679.9, -40964.266, -0.101968534, 0.2711468, -976907.56, -41375.402, 0.0, 9.999816, 9.999299 
1.1500521e+2, 2.1454044e+2, -789600.8, -892079.75, -26537.398, -0.08855038, 0.33417898, -783136.56, 54395.734, 0.0, 10.000613, 9.999276 
1.15004376e+2, 2.2453956e+2, -649237.56, -778360.75, -34652.523, -0.10246452, 0.32715678, -640525.75, 99013.766, 0.0, 10.000927, 9.999235 
1.1500307e+2, 2.3453738e+2, -594903.06, -702479.1, -27873.535, -0.16109085, 0.16039659, -588109.9, 53446.137, 0.0, 10.000624, 9.999231 
1.1500226e+2, 2.4453627e+2, -559703.7, -701184.7, -57443.082, -0.13247983, 0.15840828, -539318.3, 4246.704, 0.0, 10.000486, 9.998626 
1.1500207e+2, 2.5453627e+2, -469480.9, -612752.7, -37701.063, -0.002156466, 0.27502337, -460165.78, -14599.256, 0.0, 10.000458, 9.998575 
1.1500108e+2, 2.6453528e+2, -398909.47, -504415.06, -41072.37, 0.052707832, 0.3098632, -384805.72, -37228.78, 0.0, 10.000175, 9.998783 
1.1499913e+2, 2.745329e+2, -396393.5, -459264.72, -37010.754, 0.012941834, 0.17450835, -379269.94, -129670.81, 0.0000002594802, 9.999532, 9.998737 
1.149979e+2, 2.845318e+2, -223224.84, -175205.9, 46681.76, -0.032968294, 0.12951018, -146721.17, 4886.38, 0.000005001763, 9.999408, 10.0000725 
1.1499745e+2, 2.9453227e+2, -82780.02, -50021.25, 128315.266, -0.1025061, 0.13116345, 62955.813, 116554.44, 0.000026475647, 9.999659, 10.00014 
1.149966e+2, 3.0453238e+2, -252613.6, -403109.53, 39271.727, -0.1042871, 0.26320353, -242982.1, -242982.1, 0.000100772006, 9.999478, 9.99746 
1.1499579e+2, 3.1452888e+2, -254802.73, -174216.56, -9547.703, 0.022325888, 0.15407947, -173100.81, -173100.81, 0.00028477213, 9.9984, 9.999558 
1.2500791e+2, 1.2454245e+2, -1452108.0, -1579991.3, 89239.53, -0.11327274, 0.24091616, -1406267.0, 313242.88, 0.0014451224, 10.001695, 10.000094 
1.250087e+2, 1.3454403e+2, -1407927.4, -1434028.4, 17621.422, -0.04121808, 0.30861557, -1399050.0, 222437.53, 0.000820366, 10.001046, 10.000744 
1.2500983e+2, 1.4454246e+2, -1473804.3, -1615600.3, 2718.7078, 0.07189296, 0.15970589, -1473752.1, 49750.098, 0.00033115427, 10.00079, 9.998932 
1.2500796e+2, 1.5454146e+2, -1324708.3, -1523620.5, -6933.7285, -0.10408035, 0.1611891, -1324466.9, 101051.01, 0.00007354598, 10.001276, 9.998653 
1.2500724e+2, 1.6454133e+2, -1147026.6, -1280550.4, 38682.082, -0.18378241, 0.24165222, -1136629.9, 190892.55, 0.0000047036624, 10.001353, 9.999623 
1.2500827e+2, 1.7454192e+2, -1133169.3, -1216322.0, 43892.613, -0.13238186, 0.30871317, -1114287.8, 115228.805, 0.000000012759114, 10.000751, 9.99968 
1.2500826e+2, 1.8454176e+2, -1058201.5, -1157518.6, -10855.15, -0.10615171, 0.34138674, -1057029.0, 74489.74, 0.0, 10.000715, 9.999423 
1.2500693e+2, 1.9454071e+2, -877547.4, -1023897.25, -42903.33, -0.120666504, 0.2717565, -865897.44, 167632.8, 0.0, 10.001302, 9.999384 
1.2500612e+2, 2.0454031e+2, -784391.75, -933273.06, -22507.824, -0.10679008, 0.30000842, -781063.44, 154471.47, 0.0, 10.00129, 9.999337 
1.2500606e+2, 2.1454059e+2, -803864.3, -892011.2, -33912.09, -0.053219125, 0.36854926, -792327.5, 45205.05, 0.0, 10.000484, 9.999336 
1.2500523e+2, 2.2453965e+2, -772382.9, -849056.9, -35220.08, -0.064431, 0.3543977, -758660.5, -19120.375, 0.0, 10.000133, 9.999125 
1.250035e+2, 2.3453715e+2, -648319.44, -742106.56, -55151.445, -0.15876228, 0.16950504, -622820.4, 18739.992, 0.0, 10.000325, 9.999095 
1.2500265e+2, 2.445361e+2, -527962.2, -641733.6, -65024.617, -0.13748148, 0.16087885, -498452.4, 45115.965, 0.0, 10.000515, 9.999022 
1.2500295e+2, 2.5453666e+2, -397754.25, -534153.4, -56529.77, 0.030324152, 0.2906207, -377371.66, 68191.07, 0.0, 10.0007515, 9.998979 
1.2500179e+2, 2.645357e+2, -349741.97, -490053.28, -71617.945, 0.09230339, 0.31556097, -319643.22, 27928.072, 0.0, 10.000556, 9.998694 
1.2499895e+2, 2.745328e+2, -355904.7, -449808.47, -85757.74, 0.031022215, 0.13243733, -305087.1, -55488.305, 0.00000012209664, 9.999867, 9.9986315 
1.2499727e+2, 2.8453144e+2, -213844.28, -130248.96, -9998.895, -0.024508389, 0.051304605, -129069.625, 22539.107, 0.000003888246, 9.9993105, 10.00042 
1.24997064e+2, 2.9453233e+2, -162202.0, -43665.816, -53688.992, -0.062789395, 0.060527503, -22963.824, 30629.922, 0.00002250982, 9.998934, 10.000524 
1.2499657e+2, 3.0453384e+2, -294683.03, -457782.97, -119463.586, -0.03553629, 0.3253432, -231588.8, -231588.8, 0.000088219014, 9.9993, 9.997194 
1.24996096e+2, 3.145293e+2, -45614.12, -166149.42, -87191.484, 0.13377063, 0.14174657, 111.36602, 111.36602, 0.00025421128, 10.000229, 9.998743 
1.3500997e+2, 1.2454394e+2, -1544203.4, -1760400.4, 38266.754, -0.12957212, 0.22519897, -1537630.0, 181859.28, 0.0014399097, 10.001664, 9.998863 
1.350093e+2, 1.345435e+2, -1481281.0, -1591081.0, -502.98096, -0.113073505, 0.19932818, -1481278.6, 140212.88, 0.0008240123, 10.001084, 9.999639 
1.3501032e+2, 1.4454162e+2, -1458631.3, -1599312.3, 6563.9224, 0.0082548205, 0.07765233, -1458325.8, 65185.207, 0.00033951883, 10.00084, 9.999025 
1.3500953e+2, 1.5454166e+2, -1310549.9, -1498665.5, 21413.195, -0.10284669, 0.16276354, -1308143.3, 117372.586, 0.00008018549, 10.001284, 9.998826 
1.3500929e+2, 1.6454192e+2, -1137052.9, -1237488.5, 8227.745, -0.13497017, 0.25791508, -1136383.4, 191131.94, 0.0000062149566, 10.001268, 9.999953 
1.3501002e+2, 1.7454207e+2, -1113129.6, -1169717.4, 32365.756, -0.056265008, 0.24775308, -1098434.1, 131077.94, 0.000000017143847, 10.000741, 9.999997 
1.3501005e+2, 1.8454188e+2, -1094199.4, -1228540.5, 486.22308, -0.023874782, 0.28284302, -1094197.6, 37317.453, 0.0, 10.000688, 9.998954 
1.3500915e+2, 1.9454134e+2, -918778.3, -1099167.0, -10899.44, -0.052315436, 0.3130771, -918122.1, 115402.7, 0.0, 10.001254, 9.998892 
1.3500799e+2, 2.0454083e+2, -802192.2, -952769.4, -59185.77, -0.070955865, 0.3608282, -781713.75, 153817.8, 0.0, 10.001214, 9.999243 
1.3500641e+2, 2.1454023e+2, -823136.6, -907410.94, -53952.13, -0.08932775, 0.34750992, -796816.7, 40719.14, 0.0, 10.000382, 9.999278 
1.3500541e+2, 2.2453915e+2, -798957.06, -890518.9, -39363.355, -0.08226733, 0.33420518, -784361.1, -44816.48, 0.0, 10.000062, 9.9988785 
1.350051e+2, 2.3453733e+2, -676112.3, -783562.94, -40685.23, -0.054227475, 0.24333386, -662445.5, -20884.887, 0.0, 10.000251, 9.998847 
1.3500464e+2, 2.4453628e+2, -503893.3, -581148.25, -65075.344, -0.013222903, 0.22645852, -466844.63, 76723.945, 0.0, 10.000467, 9.99946 
1.3500403e+2, 2.5453612e+2, -377204.28, -469821.28, -39084.98, 0.040810436, 0.23655683, -362914.8, 82652.02, 0.0, 10.000658, 9.999464 
1.3500191e+2, 2.6453528e+2, -366699.63, -513140.97, -103064.19, 0.028213015, 0.25199035, -313494.47, 34079.02, 0.0, 10.000505, 9.998558 
1.3499808e+2, 2.7453318e+2, -377410.1, -473501.4, -102793.15, -0.06613789, 0.16430871, -311988.5, -62394.375, 0.000000046518082, 9.999781, 9.9985075 
1.3499619e+2, 2.845314e+2, -285275.16, -273773.38, -33192.875, -0.087889835, 0.09409748, -245836.89, -94226.234, 0.0000029362805, 9.999289, 9.999446 
1.3499656e+2, 2.945306e+2, -242303.61, -197967.55, -56343.098, -0.03266471, 0.03914315, -159588.36, -105972.16, 0.000019015239, 9.998876, 9.999496 
1.3499664e+2, 3.0453387e+2, -212211.98, -274418.13, -89765.1, 0.023836453, 0.46685764, -148314.14, -148314.14, 0.000075927965, 9.999251, 9.998472 
1.3499612e+2, 3.1453046e+2, 14785.854, -29158.396, -26255.693, 0.06002281, 0.26103032, 27050.195, 27050.195, 0.00022269739, 10.000172, 9.999714 
1.4501187e+2, 1.2454395e+2, -1680156.0, -1884550.4, -43079.598, -0.058408916, 0.2105117, -1671447.3, 48041.855, 0.0014542761, 10.000973, 9.998356 
1.4501037e+2, 1.345434e+2, -1440134.5, -1613426.5, -73616.89, -0.13184991, 0.21197413, -1413083.6, 208411.69, 0.0008417685, 10.00154, 9.999268 
1.4501128e+2, 1.4454202e+2, -1344830.3, -1501864.8, -8141.0854, -0.0030003837, 0.14055283, -1344409.4, 179100.88, 0.0003553583, 10.001437, 9.999411 
1.4501092e+2, 1.545423e+2, -1381048.6, -1483925.4, 6361.3594, -0.047526907, 0.20967259, -1380656.8, 44853.12, 0.00008912462, 10.00059, 9.999267 
1.4501078e+2, 1.6454254e+2, -1267750.0, -1314315.0, 17049.422, -0.06316887, 0.2833819, -1262175.0, 65333.055, 0.000008328298, 10.000434, 9.999824 
1.4501117e+2, 1.7454234e+2, -1088510.5, -1179243.9, -17805.19, -0.023986842, 0.25422227, -1085141.6, 144366.69, 0.0000000715251, 10.000996, 9.999809 
1.450109e+2, 1.8454182e+2, -1076981.5, -1241238.8, -49351.383, -0.011991414, 0.2760246, -1063294.4, 68220.16, 0.0, 10.000903, 9.998762 
1.4500976e+2, 1.9454087e+2, -1116276.3, -1218777.1, -56796.914, -0.04833295, 0.28704065, -1091025.1, -57496.91, 0.0, 9.999996, 9.998685 
1.450087e+2, 2.0454021e+2, -961319.2, -1020419.2, -56187.77, -0.060128007, 0.326163, -927384.8, 8151.3403, 0.0, 10.000095, 9.9993105 
1.4500766e+2, 2.1453977e+2, -677970.1, -832791.8, -60360.426, -0.044934962, 0.3214791, -657218.75, 180319.67, 0.0, 10.001364, 9.999315 
1.4500676e+2, 2.2453888e+2, -609868.44, -815261.06, -47088.477, -0.016704451, 0.33355874, -599587.5, 139958.38, 0.0, 10.001436, 9.998733 
1.4500605e+2, 2.3453733e+2, -708541.44, -819179.94, -60778.168, 0.028940728, 0.28630403, -681676.75, -40115.688, 0.0, 10.000111, 9.998676 
1.4500509e+2, 2.445361e+2, -665774.7, -632073.7, -53759.66, 0.053806387, 0.24920118, -592585.56, -49014.438, 0.0, 9.999243, 9.999701 
1.4500389e+2, 2.5453526e+2, -606606.5, -549572.0, -63785.773, 0.053047054, 0.1666663, -508218.97, -62644.316, 0.0, 9.998959, 9.999732 
1.4500168e+2, 2.6453477e+2, -526531.9, -560871.6, -97985.414, 0.02211086, 0.18894535, -444223.38, -96645.914, 0.0, 9.999274, 9.998829 
1.4499833e+2, 2.7453426e+2, -282678.34, -402102.9, -83818.28, -0.038740817, 0.2370958, -239477.73, 10105.281, 0.00000002138944, 10.000308, 9.998755 
1.449963e+2, 2.8453228e+2, -157329.72, -298395.63, -302.5563, -0.059814163, 0.17311536, -157329.06, -5726.794, 0.0000023054517, 10.000525, 9.998688 
1.4499582e+2, 2.9452938e+2, -171465.63, -251448.0, -29439.166, -0.032604184, -0.016410027, -161798.38, -108168.15, 0.000016570593, 9.99974, 9.99871 
1.4499599e+2, 3.045326e+2, -177745.64, -157312.97, -20119.557, 0.05067108, 0.4070986, -144964.52, -144964.52, 0.0000664134, 9.999072, 9.999348 
1.4499584e+2, 3.145303e+2, -185115.55, -22196.627, -19968.92, 0.11650428, 0.21708961, -19784.75, -19784.75, 0.0001967113, 9.998375, 10.000612 
1.5501307e+2, 1.2454282e+2, -1650626.1, -1848914.8, -47445.348, -0.08972466, 0.22585395, -1639858.4, 79647.64, 0.0014746141, 10.001077, 9.998555 
1.5501153e+2, 1.3454387e+2, -1417001.8, -1569164.5, -48017.57, -0.19570433, 0.35825604, -1403116.1, 218381.9, 0.00086313457, 10.001549, 9.999574 
1.5501231e+2, 1.4454362e+2, -1298240.3, -1395126.9, -48851.457, -0.06785021, 0.34814557, -1277885.3, 245615.2, 0.00037152023, 10.001401, 10.000157 
1.5501179e+2, 1.5454344e+2, -1328713.1, -1373947.5, -14038.63, -0.047045264, 0.2969338, -1324710.4, 100789.49, 0.00009663115, 10.000591, 10.000015 
1.5501145e+2, 1.6454327e+2, -1316039.0, -1406986.9, 26782.791, -0.064962044, 0.32146785, -1308737.9, 18762.17, 0.000009881803, 10.0004, 9.999208 
1.5501145e+2, 1.7454289e+2, -1139564.6, -1277547.0, 13664.9795, -0.119048044, 0.3418617, -1138224.3, 91279.69, 0.00000020107916, 10.000964, 9.999152 
1.550105e+2, 1.8454164e+2, -1079698.0, -1238236.3, -89994.96, -0.16358127, 0.3238714, -1039039.25, 92477.41, 0.0, 10.000863, 9.998804 
1.5500842e+2, 1.9453934e+2, -1121673.4, -1212878.1, -81065.45, -0.20434703, 0.19157216, -1074264.0, -40723.754, 0.0, 9.999932, 9.998753 
1.5500799e+2, 2.0453846e+2, -955886.4, -998446.7, -20861.572, -0.16119005, 0.19968909, -947366.4, -11817.564, 0.0, 10.000037, 9.999497 
1.5500948e+2, 2.1453924e+2, -675141.4, -806429.8, -4660.417, -0.022108624, 0.2979924, -674976.1, 162564.11, 0.0, 10.001274, 9.999541 
1.5500897e+2, 2.2453894e+2, -627534.75, -835184.0, -100758.79, 0.03960486, 0.35940805, -586680.8, 152862.39, 0.0, 10.001361, 9.998633 
1.5500613e+2, 2.3453717e+2, -728388.7, -842925.3, -100764.266, 0.004339858, 0.2998731, -669755.75, -28194.17, 0.0, 10.000032, 9.998551 
1.550038e+2, 2.4453555e+2, -671205.75, -634361.4, -75159.29, -0.022422913, 0.23006281, -575399.5, -31823.402, 0.0, 9.999198, 9.999708 
1.5500222e+2, 2.5453398e+2, -615109.0, -554286.4, -63704.457, -0.03147819, 0.07139026, -514106.6, -68519.49, 0.0, 9.998893, 9.999736 
1.5500076e+2, 2.6453412e+2, -487739.25, -470875.88, -69617.305, -0.017934779, 0.12683335, -409181.5, -61597.79, 0.0, 9.999239, 9.99946 
1.5499942e+2, 2.7453592e+2, -251332.38, -318432.8, -34467.715, 0.018019546, 0.34090835, -236782.28, 12784.303, 0.000000019825112, 10.000228, 9.999368 
1.5499733e+2, 2.845341e+2, -201365.8, -380605.84, -33590.703, -0.0317197, 0.28297535, -195277.48, -43693.242, 0.0000019865888, 10.000487, 9.998139 
1.5499444e+2, 2.9452845e+2, -219522.86, -338923.06, -46763.836, -0.17323956, -0.12052267, -203387.89, -149750.33, 0.000014949104, 9.9996805, 9.998139 
1.5499434e+2, 3.0453005e+2, -150849.94, -89614.64, -51225.152, -0.042534582, 0.14760253, -60554.35, -60554.35, 0.000059797247, 9.999035, 9.999821 
1.5499474e+2, 3.14529e+2, -140530.67, 89623.74, -18479.266, 0.12170681, 0.02558132, 91098.016, 91098.016, 0.0001777337, 9.998301, 10.001409 
1.6501506e+2, 1.2454252e+2, -1583352.1, -1760477.4, 69479.19, -0.0031417983, 0.21193019, -1559350.6, 160160.03, 0.0014821975, 10.001293, 9.999053 
1.650132e+2, 1.3454404e+2, -1446521.0, -1535214.0, 44831.215, -0.15488376, 0.34761313, -1427808.4, 193686.78, 0.0008719991, 10.001133, 10.000008 
1.6501364e+2, 1.4454415e+2, -1377680.5, -1492130.4, 12208.928, -0.05396394, 0.37519717, -1376392.6, 147100.81, 0.0003781117, 10.001137, 9.999605 
1.6501264e+2, 1.5454292e+2, -1232199.1, -1397961.1, -78023.14, -0.0636254, 0.27997065, -1201251.9, 224252.75, 0.000098805474, 10.001569, 9.999374 
1.6501217e+2, 1.645421e+2, -1162785.1, -1353948.1, -49373.418, -0.082810864, 0.28164098, -1150786.3, 176725.67, 0.000009884257, 10.001527, 9.99903 
1.6501248e+2, 1.7454164e+2, -1165144.4, -1304698.6, -39385.32, -0.100281805, 0.3066081, -1154796.3, 74719.59, 0.0000002904704, 10.000841, 9.999026 
1.6501166e+2, 1.8454054e+2, -1082593.5, -1205091.4, -99198.555, -0.12266308, 0.29551607, -1027258.6, 104267.19, 0.0, 10.0007105, 9.999093 
1.6500944e+2, 1.945386e+2, -908005.25, -1075660.0, -90713.88, -0.15396695, 0.16634707, -868317.3, 165226.8, 0.0, 10.001252, 9.99905 
1.6500872e+2, 2.0453769e+2, -834960.06, -944228.25, -5116.7246, -0.12872462, 0.15742637, -834721.0, 100831.25, 0.0, 10.000894, 9.9994545 
1.6500966e+2, 2.1453805e+2, -938498.25, -939764.4, -26521.967, -0.035112143, 0.22122815, -912601.8, -75053.4, 0.0, 9.999492, 9.999487 
1.6500904e+2, 2.2453786e+2, -891248.4, -905332.6, -95189.9, 0.01695493, 0.27261123, -802840.5, -63289.816, 0.0, 9.99932, 9.999129 
1.6500647e+2, 2.3453696e+2, -611486.6, -724368.06, -67626.57, 0.013376181, 0.24936345, -579842.7, 61717.742, 0.0, 10.000589, 9.999088 
1.6500409e+2, 2.4453586e+2, -420356.53, -552840.4, -23331.158, -0.0030771447, 0.22165312, -416367.88, 127203.336, 0.0, 10.001097, 9.9993515 
1.6500203e+2, 2.5453445e+2, -378598.88, -481298.38, -63687.008, -0.02679647, 0.119986765, -348138.9, 97444.586, 0.0, 10.000704, 9.999359 
1.6500057e+2, 2.6453447e+2, -352413.84, -398172.3, -70728.53, 0.00013443592, 0.18180881, -300956.13, 46626.668, 0.0, 10.000127, 9.999536 
1.649999e+2, 2.7453592e+2, -367857.9, -356486.1, -94671.07, 0.094333455, 0.34482503, -267330.34, -17760.744, 0.000000024295247, 9.999355, 9.9995165 
1.649978e+2, 2.8453454e+2, -353421.16, -396977.97, -60873.28, 0.038035493, 0.30330303, -310547.75, -158965.95, 0.0000019697127, 9.99921, 9.998638 
1.6499425e+2, 2.9453033e+2, -150609.06, -240513.81, -12160.907, -0.16457388, -0.0067189448, -148993.17, -95373.945, 0.000013995548, 9.999881, 9.99872 
1.6499382e+2, 3.0453074e+2, -99788.336, -92502.195, -16371.697, -0.011010683, 0.11812638, -79373.13, -79373.13, 0.00005518299, 9.999485, 9.999597 
1.6499364e+2, 3.145292e+2, -255459.08, -2968.9082, -76984.13, 0.22510806, -0.017143486, 18652.088, 18652.088, 0.00016337763, 9.997657, 10.001091 
1.7501707e+2, 1.24542974e+2, -1524204.9, -1634443.0, 42195.074, 0.018747551, 0.15495138, -1509908.3, 209595.48, 0.001464911, 10.001287, 9.999916 
1.7501502e+2, 1.345441e+2, -1406822.8, -1446556.3, 43504.215, -0.10946036, 0.18643953, -1378863.8, 242621.92, 0.0008580161, 10.001123, 10.000612 
1.7501509e+2, 1.4454372e+2, -1509973.8, -1773134.8, 17286.69, -0.049920045, 0.22722855, -1508843.0, 14645.444, 0.00036898247, 10.00115, 9.997678 
1.7501318e+2, 1.5454075e+2, -1371322.5, -1689933.0, -50187.94, -0.19388086, 0.16014382, -1363603.8, 61920.426, 0.00009401229, 10.001576, 9.99737 
1.7501262e+2, 1.6453904e+2, -1143605.8, -1306211.0, -82094.45, -0.21402036, 0.16172336, -1109367.8, 218175.25, 0.000008393363, 10.001492, 9.999376 
1.7501391e+2, 1.745387e+2, -1138515.0, -1243181.5, -55949.063, -0.06511556, 0.15567589, -1114238.5, 115304.625, 0.00000020811186, 10.000818, 9.999458 
1.75014e+2, 1.8453863e+2, -1048285.44, -1130797.1, -87835.57, 0.017746523, 0.19934979, -992499.4, 139041.94, 0.0, 10.000685, 9.99962 
1.7501254e+2, 1.9453874e+2, -875827.94, -997350.4, -61286.254, 0.006328081, 0.2219099, -850287.75, 183251.1, 0.0, 10.001199, 9.999615 
1.7501055e+2, 2.04538e+2, -865603.1, -992408.3, -65350.09, -0.056501772, 0.21273123, -837953.4, 97591.85, 0.0, 10.000824, 9.999158 
1.7500795e+2, 2.1453616e+2, -976987.0, -1000809.8, -70237.22, -0.17624065, 0.08981776, -917658.3, -80095.12, 0.0, 9.999411, 9.999106 
1.7500664e+2, 2.2453567e+2, -826322.56, -755251.4, -60737.863, -0.17325494, 0.08177154, -720417.44, 19150.482, 0.0, 9.9992485, 10.0001955 
1.750068e+2, 2.3453666e+2, -540337.56, -563843.7, -10897.81, -0.032069866, 0.13196807, -536062.6, 105495.47, 0.0, 10.000525, 10.000223 
1.7500566e+2, 2.4453703e+2, -482058.2, -669514.94, -43733.465, 0.025095891, 0.22819832, -472357.25, 71199.06, 0.0, 10.001048, 9.998571 
1.7500298e+2, 2.5453663e+2, -453341.03, -617954.2, -71346.78, -0.02335362, 0.31161898, -426722.25, 18842.24, 0.0, 10.000625, 9.998458 
1.750009e+2, 2.6453578e+2, -383332.78, -459697.16, -107879.44, 0.00012659727, 0.35594955, -307077.88, 40497.36, 0.0, 10.000112, 9.99912 
1.749995e+2, 2.7453417e+2, -403028.2, -417534.63, -115006.92, 0.09697556, 0.25040624, -295046.0, -45453.625, 0.000000035492793, 9.9993, 9.9991255 
1.7499745e+2, 2.845337e+2, -245745.19, -172454.22, -48741.32, 0.057825573, 0.2475756, -148119.31, 3475.2742, 0.0000021240596, 9.9992075, 10.000179 
1.7499475e+2, 2.9453504e+2, -41965.473, -562.591, 23800.998, -0.1277557, 0.32400814, 10280.178, 63855.74, 0.000013429294, 9.9998255, 10.00039 
1.7499416e+2, 3.0453455e+2, -163650.84, -227300.4, -86791.32, 0.054742906, 0.31542405, -103033.484, -103033.484, 0.000050917075, 9.999487, 9.998676 
1.7499183e+2, 3.14531e+2, -363295.94, -210656.48, -100239.484, 0.2303538, 0.09150512, -160989.5, -160989.5, 0.00014886881, 9.9976, 9.999687 
1.850188e+2, 1.245448e+2, -1481551.0, -1657164.1, 98710.4, 0.047924887, 0.20362979, -1437245.0, 282238.94, 0.0014182838, 10.001756, 9.999539 
1.850171e+2, 1.3454415e+2, -1267598.8, -1457012.3, -40687.91, -0.07245086, 0.12855333, -1259228.4, 362254.63, 0.00082149997, 10.00241, 9.999921 
1.8501754e+2, 1.4454319e+2, -1339006.0, -1731397.4, -40441.57, 0.020259064, 0.16411841, -1334881.3, 188610.61, 0.00034638878, 10.002485, 9.997318 
1.8501587e+2, 1.5454048e+2, -1306749.4, -1691970.8, 782.2389, -0.10744364, 0.15409194, -1306747.9, 118777.75, 0.000084445885, 10.002158, 9.997074 
1.8501477e+2, 1.6453876e+2, -1137583.1, -1303642.8, 9624.467, -0.14485393, 0.16840526, -1137027.1, 190517.67, 0.000006352812, 10.001554, 9.999355 
1.8501478e+2, 1.7453794e+2, -1168316.4, -1259040.3, -16318.895, -0.045270674, 0.11664748, -1165470.3, 64078.82, 0.000000056960435, 10.000628, 9.999436 
1.850144e+2, 1.8453784e+2, -1118441.0, -1144010.4, -23800.62, 0.022030443, 0.14938927, -1104208.8, 27338.598, 0.0, 10.000123, 9.999799 
1.8501332e+2, 1.9453853e+2, -1026996.4, -1047674.44, -39793.65, 0.026407696, 0.2111662, -996220.56, 37318.23, 0.0, 10.00007, 9.999814 
1.8501131e+2, 2.0453806e+2, -947856.06, -1011496.5, -54035.875, -0.024751747, 0.20739104, -916967.44, 18574.885, 0.0, 10.000165, 9.999344 
1.8500818e+2, 2.145361e+2, -819875.0, -903914.6, -36738.7, -0.13887917, 0.055073194, -806079.06, 31481.705, 0.0, 10.00039, 9.999301 
1.8500665e+2, 2.2453569e+2, -694008.2, -705371.1, 531.44806, -0.1399227, 0.04994013, -693983.4, 45581.98, 0.0, 10.000206, 10.000082 
1.8500704e+2, 2.3453702e+2, -695531.75, -654959.06, -60379.11, -0.006175678, 0.14751464, -611549.44, 30004.994, 0.0, 9.999517, 10.000088 
1.85006e+2, 2.4453758e+2, -702416.5, -729435.1, -94569.52, 0.04410896, 0.25156376, -620396.25, -76845.414, 0.0, 9.9993305, 9.998989 
1.8500333e+2, 2.5453722e+2, -551810.56, -614503.8, -40177.46, -0.00002354743, 0.29497352, -532198.0, -86641.93, 0.0, 9.999728, 9.998914 
1.8500105e+2, 2.6453626e+2, -399447.7, -470817.06, -5371.7744, 0.012260817, 0.30295026, -399045.63, -51478.414, 0.0, 10.000017, 9.999089 
1.8499921e+2, 2.7453434e+2, -271651.94, -361910.8, -5853.9844, 0.095125556, 0.17652574, -271273.84, -21686.137, 0.000000044067633, 10.000227, 9.999068 
1.8499717e+2, 2.845343e+2, -150041.3, -120293.266, 39033.773, 0.08355084, 0.21335751, -93395.625, 58191.992, 0.000002141611, 9.999823, 10.000249 
1.8499504e+2, 2.9453677e+2, -201660.8, -72248.73, -27865.303, -0.017655276, 0.39988765, -66503.74, -12943.412, 0.000012353572, 9.998691, 10.000454 
1.8499431e+2, 3.0453548e+2, -235910.56, -190070.28, -125869.25, 0.16895154, 0.2792653, -85051.37, -85051.37, 0.0000445169, 9.998679, 9.999313 
1.8499066e+2, 3.1453362e+2, -37988.777, -82765.33, -21732.324, 0.24626511, 0.16084854, -29175.629, -29175.629, 0.00012870552, 9.999908, 9.999475 
1.9501968e+2, 1.24547996e+2, -1596099.0, -1886627.4, 104016.12, -0.09015691, 0.3734959, -1562698.6, 156752.42, 0.0013429979, 10.001736, 9.997967 
1.950191e+2, 1.3454413e+2, -1414311.4, -1747281.4, -14723.892, -0.13473271, 0.17188698, -1413661.6, 207826.34, 0.0007683095, 10.002368, 9.997939 
1.950207e+2, 1.4454252e+2, -1250268.1, -1545318.8, -64004.473, 0.05862441, 0.18447529, -1236982.1, 286521.7, 0.00031677555, 10.002468, 9.998608 
1.9502033e+2, 1.545422e+2, -1206263.9, -1483034.1, -2887.0571, 0.100306734, 0.26876938, -1206233.9, 219274.17, 0.000073711046, 10.002153, 9.998512 
1.9501835e+2, 1.645413e+2, -1166739.9, -1360991.5, -30604.205, 0.03684038, 0.31044316, -1162032.3, 165484.28, 0.0000047225935, 10.001532, 9.998977 
1.9501488e+2, 1.7453945e+2, -1203253.9, -1328045.5, -40396.215, -0.12164143, 0.19713409, -1191318.6, 38214.656, 0.0000000036456946, 10.000608, 9.998975 
1.9501258e+2, 1.8453825e+2, -1138039.5, -1174500.1, -36943.324, -0.19352601, 0.15332752, -1115073.3, 16470.08, 0.0, 10.000074, 9.999617 
1.9501153e+2, 1.9453786e+2, -1048155.9, -1079880.6, -32568.082, -0.18138063, 0.12669112, -1027792.6, 5752.401, 0.0, 10.000016, 9.999622 
1.9501068e+2, 2.0453776e+2, -912470.2, -916023.06, -53009.492, -0.122337714, 0.13972127, -861207.4, 74336.484, 0.0, 10.000074, 10.000039 
1.9501005e+2, 2.1453784e+2, -780171.25, -800277.94, -20143.932, -0.010275772, 0.11395509, -767711.3, 69829.84, 0.0, 10.000301, 10.0000515 
1.9500881e+2, 2.2453792e+2, -800299.2, -905725.94, -34129.426, 0.03739551, 0.1826032, -790215.1, -50672.383, 0.0, 10.000122, 9.998747 
1.950068e+2, 2.3453799e+2, -807714.25, -866249.06, -78981.586, 0.0002552214, 0.29685557, -752751.8, -111201.98, 0.0, 9.999429, 9.998678 
1.9500482e+2, 2.445375e+2, -600238.4, -500377.22, -90970.086, -0.02634647, 0.2921677, -446535.84, 97019.01, 0.0, 9.999257, 10.000598 
1.9500276e+2, 2.5453624e+2, -441081.3, -362832.63, -16434.076, -0.048396833, 0.06868108, -359521.22, 86037.195, 0.0, 9.999637, 10.000683 
1.9500075e+2, 2.6453593e+2, -377683.5, -421475.34, -5873.6797, -0.039742086, 0.03058219, -376909.34, -29351.416, 0.0, 9.999995, 9.999444 
1.9499868e+2, 2.7453646e+2, -260120.2, -327823.47, 12704.139, -0.0018885242, 0.12400071, -257814.84, -8259.666, 0.000000036761158, 10.000176, 9.999332 
1.9499667e+2, 2.8453624e+2, -257102.2, -334768.06, -8185.656, 0.03153475, 0.20170695, -256248.84, -104687.97, 0.0000018181237, 9.999792, 9.998788 
1.9499488e+2, 2.9453558e+2, -321708.7, -301147.22, -56414.688, 0.073355615, 0.22653657, -254084.16, -200511.38, 0.000010151812, 9.9986105, 9.998917 
1.9499402e+2, 3.0453366e+2, -83679.33, 131795.78, -87312.29, 0.24790426, 0.013872311, 162733.44, 162733.44, 0.00003534469, 9.998659, 10.00153 
1.949895e+2, 3.145374e+2, 39567.875, 99252.516, 71067.766, 0.09186937, 0.21726944, 146489.31, 146489.31, 0.0001028295, 9.999837, 10.000748 
2.0502266e+2, 1.245476e+2, -1323090.5, -1762034.1, 22147.299, -0.053368416, 0.33212718, -1321975.9, 397477.22, 0.0012444656, 10.003652, 9.997898 
2.0502178e+2, 1.34544e+2, -1338980.9, -1754946.1, -18123.564, -0.12724252, 0.19310622, -1338192.8, 283296.4, 0.00070293987, 10.0030575, 9.997568 
2.0502318e+2, 1.4454243e+2, -1230743.8, -1463147.3, -21946.895, 0.07340401, 0.19905065, -1228689.4, 294815.47, 0.00028321997, 10.002301, 9.999251 
2.0502266e+2, 1.5454258e+2, -1234403.5, -1418552.8, -43661.47, 0.15049224, 0.26358584, -1224576.0, 200926.19, 0.000063005726, 10.001626, 9.9992075 
2.0502017e+2, 1.6454205e+2, -1218932.0, -1396928.4, -72799.445, 0.083804466, 0.30889845, -1192950.0, 134557.08, 0.0000035155435, 10.001226, 9.998875 
2.0501569e+2, 1.7454042e+2, -1137893.0, -1312674.5, -75895.3, -0.12374036, 0.2349572, -1109537.3, 119986.516, 0.0000000004928599, 10.00113, 9.99883 
2.0501268e+2, 1.8453917e+2, -1017715.0, -1097010.8, -21704.68, -0.22361764, 0.1856679, -1012162.75, 119372.05, 0.0, 10.000816, 9.99979 
2.0501131e+2, 1.945384e+2, -1003260.06, -1037786.8, -8858.247, -0.21026826, 0.1006405, -1001120.0, 32418.982, 0.0, 10.000231, 9.999806 
2.0501055e+2, 2.0453832e+2, -927028.9, -920679.1, -2652.562, -0.13295446, 0.10345787, -919716.9, 15820.132, 0.0, 9.999964, 10.000064 
2.0501056e+2, 2.1453892e+2, -819536.7, -818527.06, -38319.305, 0.028239857, 0.13055101, -780709.25, 56819.723, 0.0, 10.0000305, 10.000061 
2.0500945e+2, 2.2453897e+2, -798143.25, -925285.94, -34713.535, 0.08655198, 0.20556378, -789282.94, -49752.246, 0.0, 10.000227, 9.998556 
2.0500697e+2, 2.3453833e+2, -657760.75, -820404.75, -6157.0654, 0.021706266, 0.2683917, -657528.0, -15983.036, 0.0, 10.000568, 9.9984455 
2.0500462e+2, 2.4453756e+2, -433449.97, -396214.1, -9850.616, -0.017597511, 0.23782629, -393768.75, 149783.8, 0.0, 10.0002985, 10.000808 
2.0500238e+2, 2.5453654e+2, -465984.44, -354042.56, -67958.97, -0.03220072, 0.016378159, -321972.78, 123580.5, 0.0, 9.999366, 10.000876 
2.0500034e+2, 2.6453653e+2, -526437.7, -451206.9, -91570.13, -0.016917935, -0.016746072, -389827.3, -42278.543, 0.0, 9.998805, 9.999805 
2.0499839e+2, 2.745375e+2, -449796.16, -374672.44, -87877.875, 0.030214543, 0.080724716, -316665.4, -67124.88, 0.00000002096579, 9.998702, 9.999709 
2.049964e+2, 2.8453735e+2, -430887.0, -465465.25, -62429.855, 0.08117161, 0.16403261, -383396.5, -231849.7, 0.0000012828043, 9.998805, 9.998365 
2.0499456e+2, 2.9453635e+2, -264428.84, -322452.63, -41877.06, 0.15515952, 0.20123571, -242495.89, -188930.6, 0.000007381431, 9.999217, 9.998476 
2.0499334e+2, 3.045347e+2, 26950.719, 284245.84, -46136.02, 0.30500945, -0.005446086, 292268.4, 292268.4, 0.000026183789, 9.999002, 10.002419 
2.0498815e+2, 3.145394e+2, -228384.31, 7990.8643, -12634.995, 0.08215901, 0.19791803, 8664.325, 8664.325, 0.00007851838, 9.997871, 10.001058 
2.1502702e+2, 1.2454359e+2, -1228909.0, -1552551.6, -22112.05, -0.028650207, 0.07989775, -1227405.3, 492084.75, 0.0011273269, 10.003601, 9.999359 
2.1502495e+2, 1.3454385e+2, -1246229.8, -1565837.8, -33154.066, -0.1402354, 0.1963798, -1242826.8, 378659.22, 0.0006276391, 10.0030775, 9.998856 
2.1502466e+2, 1.4454304e+2, -1240368.9, -1479085.6, -60340.152, -0.036176845, 0.21809094, -1225983.6, 297510.16, 0.0002466057, 10.002282, 9.999151 
2.1502256e+2, 1.5454173e+2, -1241529.0, -1436439.3, -60412.7, -0.048995845, 0.14771968, -1224322.9, 201184.45, 0.000052325075, 10.001637, 9.999081 
2.150199e+2, 1.64541e+2, -1213117.4, -1373559.8, -87078.81, -0.08816204, 0.17172778, -1174940.3, 152575.98, 0.000002586899, 10.001179, 9.999058 
2.1501689e+2, 1.7454083e+2, -1130150.4, -1285761.9, -70251.445, -0.13566026, 0.22359504, -1103127.6, 126393.18, 0.000000000052014764, 10.001089, 9.999031 
2.1501438e+2, 1.8454057e+2, -992572.1, -1030947.75, -49900.484, -0.15339392, 0.24066448, -958297.5, 173224.88, 0.0, 10.000752, 10.000277 
2.1501242e+2, 1.9454011e+2, -971394.8, -961671.2, -21627.854, -0.14538826, 0.13361265, -944365.44, 89155.984, 0.0, 10.000188, 10.000349 
2.150107e+2, 2.045397e+2, -978852.75, -1015934.0, -11203.119, -0.13322237, 0.10427955, -975730.9, -40209.05, 0.0, 9.9999075, 9.999438 
2.1500936e+2, 2.1453927e+2, -878422.2, -920991.44, -28054.938, -0.11428919, 0.099298775, -864491.5, -26967.066, 0.0, 9.999944, 9.999398 
2.1500823e+2, 2.2453877e+2, -748678.7, -798309.5, -30259.17, -0.07618655, 0.108323514, -734360.75, 5169.085, 0.0, 10.000125, 9.999476 
2.1500726e+2, 2.3453802e+2, -604152.94, -681545.5, 17336.549, -0.025484353, 0.05941891, -600446.9, 41092.93, 0.0, 10.000453, 9.999452 
2.150052e+2, 2.445378e+2, -527260.6, -578994.75, -51290.445, -0.012332141, 0.088284105, -495683.7, 47859.957, 0.0, 10.000249, 9.999578 
2.1500191e+2, 2.5453818e+2, -572542.25, -552276.9, -95464.125, -0.03840183, 0.14513412, -466409.22, -20869.264, 0.0, 9.999271, 9.999561 
2.1499951e+2, 2.6453817e+2, -510848.66, -408120.0, -104823.0, 0.0007070546, 0.16528554, -342753.22, 4785.815, 0.0, 9.998759, 10.000122 
2.14998e+2, 2.7453738e+2, -436558.06, -326534.63, -82086.85, 0.09945303, 0.04487914, -282730.66, -33185.766, 0.00000000626477, 9.998614, 10.000081 
2.149961e+2, 2.8453746e+2, -382930.56, -357716.66, -58036.625, 0.14599395, 0.09806567, -310933.5, -159387.14, 0.00000075455597, 9.998775, 9.999119 
2.1499388e+2, 2.9453915e+2, -223528.77, -226801.14, -16603.457, 0.14239377, 0.33074957, -208481.06, -154943.75, 0.0000049684672, 9.999172, 9.999155 
2.1499212e+2, 3.0453864e+2, -7588.403, 203405.3, -91383.69, 0.2626321, 0.23151255, 237481.23, 237481.23, 0.000019548965, 9.999031, 10.001858 
2.1498625e+2, 3.1453952e+2, -296378.3, -128662.99, -4477.7554, 0.05679621, 0.11053171, -128543.53, -128543.53, 0.00006122242, 9.997839, 10.000147 
2.250316e+2, 1.2454312e+2, -1075771.1, -1478909.3, 78969.0, 0.02910456, 0.014697191, -1060854.3, 658638.06, 0.0009979393, 10.004633, 9.999376 
2.2502807e+2, 1.3454404e+2, -1393667.0, -1631027.5, -78958.21, -0.077853926, 0.19139528, -1369801.1, 251682.06, 0.0005469221, 10.002051, 9.998895 
2.250264e+2, 1.4454314e+2, -1458431.8, -1560935.0, -67558.6, -0.004824858, 0.1931092, -1424884.3, 98608.09, 0.00020906674, 10.000686, 9.999365 
2.2502367e+2, 1.5454188e+2, -1320595.0, -1449786.8, -54700.363, -0.06358804, 0.10745555, -1300546.0, 124959.09, 0.000042237294, 10.000989, 9.999308 
2.2502081e+2, 1.6454154e+2, -1226186.4, -1307342.0, -45371.23, -0.08887295, 0.12627752, -1205894.5, 121614.71, 0.0000020119714, 10.000766, 9.999713 
2.2501804e+2, 1.7454213e+2, -1274901.8, -1284508.6, -15782.085, -0.060216878, 0.18608876, -1263208.4, -33703.43, 0.0, 9.999783, 9.99967 
2.2501558e+2, 1.8454228e+2, -1152560.1, -1135313.8, 42508.387, -0.05548266, 0.22248122, -1100562.8, 30939.822, 0.0, 9.999775, 10.000027 
2.2501343e+2, 1.9454189e+2, -898446.1, -961314.3, -5396.3784, -0.091570415, 0.15176445, -897986.3, 135516.92, 0.0, 10.000849, 10.000032 
2.2501138e+2, 2.0454122e+2, -803914.8, -960268.2, -14883.176, -0.11751747, 0.1252667, -802510.7, 132996.53, 0.0, 10.001232, 9.9991865 
2.2500952e+2, 2.1454006e+2, -782122.44, -902761.7, -16686.174, -0.12672485, 0.07242384, -779857.06, 57659.285, 0.0, 10.000721, 9.999153 
2.2500804e+2, 2.2453932e+2, -731527.5, -766918.25, -10063.039, -0.10287803, 0.059797704, -728866.3, 10657.196, 0.0, 10.000142, 9.999687 
2.2500697e+2, 2.3453891e+2, -736020.1, -716481.0, -39208.805, -0.04161396, 0.022080583, -685842.94, -44313.27, 0.0, 9.999431, 9.9997015 
2.2500496e+2, 2.4453911e+2, -687448.06, -670175.44, -82906.46, -0.0050634625, 0.08740413, -595456.7, -51926.77, 0.0, 9.999207, 9.999459 
2.2500181e+2, 2.5453997e+2, -529572.6, -547489.25, -53335.27, 0.013748226, 0.20459431, -484448.56, -38924.9, 0.0, 9.999629, 9.999428 
2.2499932e+2, 2.6454e+2, -350287.47, -330386.13, 445.26392, 0.05639057, 0.23083967, -330376.16, 17147.602, 0.0, 9.999859, 10.000124 
2.2499754e+2, 2.7453867e+2, -237692.55, -231675.31, -22341.041, 0.12810059, 0.058962297, -212141.22, 37392.91, 0.00000000006385136, 9.999973, 10.000081 
2.2499534e+2, 2.845387e+2, -212447.25, -232762.98, -12086.906, 0.15230004, 0.08632508, -206816.66, -55282.137, 0.00000032397858, 9.999753, 9.999509 
2.2499287e+2, 2.9454076e+2, -219497.6, -187991.58, -19783.998, 0.1372016, 0.31690794, -178454.98, -124936.5, 0.000003287384, 9.999042, 9.999483 
2.2499086e+2, 3.0454075e+2, -116304.57, 46580.79, -106730.91, 0.25685245, 0.29829344, 99393.08, 99393.08, 0.00001589248, 9.99874, 10.000912 
2.2498535e+2, 3.1453997e+2, -159607.66, -129532.305, -52773.133, 0.13294432, 0.10214332, -89696.164, -89696.164, 0.000052100033, 9.99907, 9.99954 
2.3503587e+2, 1.24546155e+2, -1174890.0, -1685844.8, -36990.75, -0.057791397, 0.12956756, -1172225.9, 547234.25, 0.0008671324, 10.004645, 9.997948 
2.3503074e+2, 1.345445e+2, -1477410.5, -1816954.6, -177966.98, -0.037021622, 0.1815162, -1401225.6, 220255.69, 0.0004662031, 10.00209, 9.997608 
2.3502801e+2, 1.4454256e+2, -1425550.9, -1476709.9, -72480.375, 0.06728013, 0.115584135, -1374268.8, 149233.66, 0.00017258529, 10.000623, 9.999972 
2.350257e+2, 1.5454298e+2, -1272560.5, -1350485.0, -31583.299, 0.014930559, 0.13109803, -1261367.4, 164129.06, 0.000033446406, 10.000992, 9.999987 
2.3502262e+2, 1.6454361e+2, -1161571.5, -1161543.6, -90094.42, -0.00681886, 0.16271593, -1071463.1, 256024.23, 0.0000017722703, 10.000717, 10.00074 
2.350189e+2, 1.745442e+2, -1197988.1, -1121283.5, -44705.383, 0.023426158, 0.11695111, -1100733.5, 128743.49, 0.0000000001389195, 9.9997635, 10.000803 
2.3501599e+2, 1.845443e+2, -1236098.9, -1289123.8, 70394.4, -0.011326526, 0.13459507, -1187389.8, -55914.453, 0.0, 9.999694, 9.999013 
2.35014e+2, 1.9454373e+2, -984531.06, -1127683.1, 42794.277, -0.13899685, 0.16122383, -972713.56, 60770.938, 0.0, 10.000797, 9.998915 
2.3501222e+2, 2.045428e+2, -807541.25, -945898.7, -39902.18, -0.17271289, 0.16133873, -796858.4, 138635.28, 0.0, 10.001138, 9.999331 
2.3501074e+2, 2.1454127e+2, -782443.4, -879870.2, -26411.97, -0.09692793, 0.047967874, -775743.9, 61760.453, 0.0, 10.000617, 9.999361 
2.3500867e+2, 2.2454067e+2, -786114.2, -852756.75, -43808.367, -0.072636455, 0.063620575, -764394.75, -24883.707, 0.0, 10.00003, 9.999151 
2.3500587e+2, 2.3454101e+2, -789601.75, -806421.5, -56906.38, -0.11652057, 0.16291572, -740487.2, -98972.914, 0.0, 9.999339, 9.99913 
2.3500353e+2, 2.445414e+2, -621802.7, -522986.8, -78631.66, -0.09120733, 0.22939037, -479528.8, 63983.67, 0.0, 9.999159, 10.000491 
2.3500176e+2, 2.545418e+2, -465577.0, -391681.44, -28999.865, 0.023595234, 0.18931504, -381659.75, 63845.574, 0.0, 9.999532, 10.000543 
2.3499952e+2, 2.6454192e+2, -378902.56, -379573.84, -3040.009, 0.06935449, 0.18210591, -376179.72, -28677.018, 0.0, 9.999816, 9.999808 
2.3499668e+2, 2.7454138e+2, -273711.25, -290968.63, -7357.332, 0.022709807, 0.12634118, -271000.4, -21492.29, 0.0, 9.999903, 9.99971 
2.3499383e+2, 2.8454104e+2, -212866.4, -227915.1, -45256.254, 0.002502795, 0.13301854, -174513.25, -23002.201, 0.00000009734078, 9.999727, 9.999555 
2.3499116e+2, 2.945411e+2, -229946.84, -196312.08, -39621.453, 0.036035303, 0.15721464, -170086.64, -116577.086, 0.0000024854203, 9.998977, 9.999462 
2.349892e+2, 3.0454093e+2, -201141.06, -131263.97, -103240.18, 0.19448188, 0.19006592, -57210.598, -57210.598, 0.00001465121, 9.99874, 9.999693 
2.3498487e+2, 3.1454083e+2, -187202.9, -181980.06, 6022.8564, 0.1317258, 0.17995948, -178026.86, -178026.86, 0.000049295926, 9.999033, 9.999206 
2.4503905e+2, 1.24549374e+2, -1576266.4, -1886183.0, 35818.582, -0.058961898, 0.15828334, -1572180.6, 147247.3, 0.0007416808, 10.001923, 9.997886 
2.4503319e+2, 1.3454765e+2, -1400508.4, -1761658.0, -37337.48, -0.016118865, 0.18799417, -1396688.6, 224760.38, 0.00038814702, 10.002543, 9.997772 
2.4502958e+2, 1.4454533e+2, -1188005.6, -1387961.4, 142502.78, 0.08125465, 0.087806374, -1113907.0, 409566.6, 0.00013769997, 10.002354, 9.999745 
2.4502695e+2, 1.5454586e+2, -1238277.8, -1366209.3, 93854.23, 0.027792135, 0.13523336, -1188664.3, 236803.55, 0.000025817635, 10.001369, 9.999694 
2.450235e+2, 1.6454622e+2, -1138552.0, -1176119.6, -29535.588, 0.0016815504, 0.1693744, -1122333.3, 205127.89, 0.0000016011192, 10.000986, 10.000512 
2.4501951e+2, 1.7454617e+2, -1004790.56, -1055848.6, -99639.27, 0.04493257, 0.08385183, -927461.9, 301993.97, 0.0000000006420841, 10.001207, 10.000562 
2.4501662e+2, 1.84546e+2, -1047208.9, -1216628.9, 31764.102, 0.017010715, 0.09364864, -1041449.3, 90007.36, 0.0, 10.001073, 9.998841 
2.4501482e+2, 1.945455e+2, -1050470.3, -1179982.6, 57638.76, -0.11376078, 0.14479427, -1028533.94, 4931.971, 0.0, 10.000435, 9.998726 
2.4501298e+2, 2.045447e+2, -932467.56, -983147.2, 13450.402, -0.15862577, 0.1570254, -929119.06, 6355.361, 0.0, 10.000185, 9.99953 
2.4501123e+2, 2.1454343e+2, -817919.3, -872019.1, 8492.372, -0.087375656, 0.048573848, -816617.5, 20865.188, 0.0, 10.000278, 9.999573 
2.4500884e+2, 2.2454302e+2, -743842.56, -823763.1, 22245.771, -0.06417629, 0.07046197, -738067.75, 1419.4608, 0.0, 10.000276, 9.999231 
2.4500571e+2, 2.3454355e+2, -672834.0, -739729.75, 44500.855, -0.09883476, 0.17749721, -650612.44, -9124.211, 0.0, 10.000097, 9.999222 
2.4500309e+2, 2.4454387e+2, -480814.1, -441973.25, 59881.703, -0.09172519, 0.22542512, -398441.56, 145044.89, 0.0, 10.000067, 10.000616 
2.4500112e+2, 2.545439e+2, -351707.78, -323099.56, 17688.62, -0.02151325, 0.1341424, -314655.16, 130826.81, 0.0, 10.000252, 10.000671 
2.4499896e+2, 2.6454398e+2, -374984.25, -428236.5, -3737.2222, 0.024089364, 0.13951716, -374723.25, -27242.76, 0.0, 10.000054, 9.999363 
2.4499647e+2, 2.7454397e+2, -374136.06, -387730.44, -31124.234, 0.0420356, 0.18557478, -349075.44, -99591.695, 0.0, 9.999433, 9.999268 
2.4499361e+2, 2.8454334e+2, -260728.61, -221897.63, -39662.406, 0.03530094, 0.17296684, -197153.55, -45664.727, 0.00000009803459, 9.999276, 9.999814 
2.4499036e+2, 2.9454184e+2, -106810.34, -102102.65, -36381.52, 0.026326537, 0.01321003, -67998.914, -14502.353, 0.0000023443192, 9.999675, 9.999771 
2.4498783e+2, 3.0454147e+2, -95993.97, -154633.6, -34192.484, 0.13773386, 0.042838994, -80271.83, -80271.83, 0.000014050109, 9.999795, 9.99902 
2.4498436e+2, 3.145423e+2, -104203.586, -139136.42, 97071.39, 0.15862721, 0.19294702, -23039.732, -23039.732, 0.000047419504, 9.9996195, 9.999203 
2.5504053e+2, 1.2455282e+2, -1487905.0, -1698445.4, 36692.25, -0.15137482, 0.10681668, -1481693.6, 237701.11, 0.000622871, 10.001906, 9.999181 
2.550352e+2, 1.3455336e+2, -1280494.6, -1509553.8, -9325.343, -0.0923621, 0.19456813, -1280115.6, 341271.84, 0.00031436078, 10.002542, 9.999498 
2.5503102e+2, 1.445514e+2, -1270638.0, -1556498.6, 97310.72, -0.040476535, 0.09544814, -1240656.6, 282750.28, 0.00010539114, 10.002336, 9.998599 
2.55027e+2, 1.545504e+2, -1325601.5, -1546584.0, 66249.78, -0.12807496, 0.11684545, -1307262.0, 118157.805, 0.000019009012, 10.001362, 9.998459 
2.550231e+2, 1.6454938e+2, -1253636.8, -1396468.0, -30652.914, -0.15830494, 0.14476845, -1247336.3, 80094.28, 0.0000013062046, 10.000915, 9.999029 
2.5501963e+2, 1.7454813e+2, -1113472.4, -1274978.6, -79934.74, -0.086508594, 0.09108834, -1080600.6, 148839.78, 0.000000000635992, 10.001187, 9.999061 
2.5501713e+2, 1.8454742e+2, -1011836.4, -1130945.9, 2177.2573, -0.059803676, 0.097533345, -1011796.56, 119649.44, 0.0, 10.001016, 9.999459 
2.5501558e+2, 1.9454713e+2, -1004148.2, -1072722.4, 42432.484, -0.10626741, 0.09389299, -983881.44, 49566.63, 0.0, 10.000384, 9.999487 
2.5501344e+2, 2.0454682e+2, -937002.25, -965183.2, 8151.627, -0.15018028, 0.10697039, -934814.2, 635.91656, 0.0, 10.000068, 9.999709 
2.5501066e+2, 2.1454635e+2, -816440.9, -852239.94, 21279.23, -0.1921753, 0.062186647, -806533.94, 30919.027, 0.0, 10.000205, 9.999743 
2.5500825e+2, 2.2454628e+2, -703164.1, -718392.0, 6977.9995, -0.1698751, 0.07138669, -700450.25, 39003.01, 0.0, 10.000187, 9.999999 
2.5500616e+2, 2.3454648e+2, -631111.6, -630342.6, 47060.1, -0.08253848, 0.06521168, -583665.44, 57786.477, 0.0, 9.999998, 10.00002 
2.5500336e+2, 2.445465e+2, -547353.56, -566058.25, 57653.99, -0.08877617, 0.079451635, -498298.28, 45153.24, 0.0, 10.000008, 9.999791 
2.549997e+2, 2.5454614e+2, -428551.75, -462347.47, 31345.117, -0.21160197, 0.039236233, -409839.88, 35614.137, 0.0, 10.000161, 9.99976 
2.5499737e+2, 2.645461e+2, -419251.75, -508664.63, -34108.22, -0.16166505, 0.10506171, -407726.2, -60268.8, 0.0, 10.000008, 9.998833 
2.5499666e+2, 2.7454633e+2, -419893.94, -467956.34, -44495.402, 0.09274645, 0.22657312, -393355.0, -143892.47, 0.0, 9.999362, 9.998755 
2.5499433e+2, 2.8454548e+2, -235507.98, -154112.61, -36307.85, 0.16074741, 0.19778202, -140270.75, 11198.218, 0.00000013920514, 9.999222, 10.0002985 
2.5499004e+2, 2.9454306e+2, -83403.87, -24394.71, -15409.098, 0.0047437656, -0.109695464, -20613.25, 32866.223, 0.0000022917138, 9.99956, 10.000354 
2.5498646e+2, 3.045423e+2, -107029.914, -175574.02, -46658.89, 0.0007951678, -0.14684112, -83408.734, -83408.734, 0.000012885881, 9.999786, 9.998882 
2.5498328e+2, 3.1454396e+2, -96698.195, -117061.78, 132534.0, 0.03745239, 0.12077052, 26044.541, 26044.541, 0.000044516015, 9.999589, 9.999376 
2.6504266e+2, 1.24556586e+2, -1566313.5, -1699737.3, 69539.83, -0.08101964, 0.09452774, -1536660.1, 182698.53, 0.0005136847, 10.001187, 9.9995165 
2.6503697e+2, 1.345574e+2, -1383245.6, -1489370.4, -86494.38, -0.10709116, 0.13984612, -1334834.4, 286511.97, 0.0002486243, 10.0015, 10.000148 
2.6503217e+2, 1.4455612e+2, -1402895.9, -1626258.9, 9420.896, -0.107723475, 0.077274226, -1402499.3, 120859.16, 0.00007773356, 10.001469, 9.998533 
2.6502854e+2, 1.5455565e+2, -1305371.1, -1546173.1, 41591.027, -0.11508443, 0.16137555, -1298389.9, 126976.99, 0.000013419433, 10.001548, 9.998372 
2.6502475e+2, 1.6455424e+2, -1207287.8, -1445881.3, 57326.414, -0.107756466, 0.18620968, -1194228.9, 133153.02, 0.0000010267595, 10.001534, 9.998399 
2.6502103e+2, 1.7455162e+2, -1146432.5, -1362932.1, 53646.848, -0.06396655, 0.05805657, -1133868.4, 95536.914, 0.0000000012219834, 10.00127, 9.998417 
2.6501834e+2, 1.8455023e+2, -988558.8, -1117433.0, 153963.66, -0.042565763, 0.03138989, -886091.9, 245324.47, 0.0, 10.001165, 9.999481 
2.650168e+2, 1.9455023e+2, -889344.75, -1014602.9, 122600.64, -0.0569215, 0.05296379, -814302.75, 219111.34, 0.0, 10.001156, 9.999519 
2.6501435e+2, 2.0454995e+2, -848743.6, -953764.6, 61755.598, -0.096083485, 0.08144844, -820191.75, 115224.055, 0.0, 10.000811, 9.99943 
2.6501095e+2, 2.1454924e+2, -877352.4, -919278.1, 19898.938, -0.16579121, 0.0437819, -869411.8, -31988.256, 0.0, 9.9999485, 9.999411 
2.650083e+2, 2.2454908e+2, -746699.8, -699614.5, 4877.4956, -0.15584263, 0.045570437, -699114.56, 40310.242, 0.0, 9.999711, 10.000359 
2.650065e+2, 2.3454951e+2, -577645.25, -566013.0, -6888.828, -0.052959643, 0.024560165, -562813.4, 78605.55, 0.0, 10.000192, 10.000375 
2.6500374e+2, 2.4454954e+2, -521497.47, -590053.94, 17881.95, -0.06471044, 0.038985036, -517113.53, 26304.424, 0.0, 10.00036, 9.99945 
2.649998e+2, 2.5454897e+2, -444590.47, -506750.9, 17863.83, -0.21308069, 0.014356931, -439822.44, 5601.8384, 0.0, 10.00023, 9.999411 
2.6499712e+2, 2.6454872e+2, -415543.8, -491722.84, -5933.501, -0.1795623, 0.07285792, -415084.4, -67654.29, 0.0, 9.999962, 9.998977 
2.6499596e+2, 2.7454895e+2, -378362.3, -425361.03, 14768.577, 0.08698997, 0.17748052, -374106.8, -124672.27, 0.0, 9.9995575, 9.998953 
2.6499388e+2, 2.8454837e+2, -211437.56, -187936.17, 71293.23, 0.18061988, 0.18185635, -127431.74, 24007.238, 0.00000017298198, 9.999566, 9.999906 
2.6499042e+2, 2.945464e+2, -33810.176, -39739.844, 4937.524, 0.06928367, -0.041562073, -31015.723, 22431.408, 0.000002277503, 10.00005, 10.000022 
2.6498607e+2, 3.0454516e+2, -102302.99, -171773.33, -72438.375, -0.008647281, -0.11243196, -56702.297, -56702.297, 0.000011802607, 9.999796, 9.9989195 
2.6498216e+2, 3.1454533e+2, -248470.45, -164130.48, 103635.1, 0.036240637, 0.0038253455, -94414.18, -94414.18, 0.000041814666, 9.99841, 9.999634 
2.75045e+2, 1.2456047e+2, -1605843.8, -1784874.0, 43710.227, -0.019788804, 0.10101234, -1595741.9, 123579.445, 0.00042107303, 10.001196, 9.998929 
2.7503806e+2, 1.3455987e+2, -1402249.1, -1533815.6, -74176.42, -0.17295414, 0.03825684, -1368888.1, 252436.6, 0.00019522583, 10.00152, 9.999831 
2.7503273e+2, 1.4455962e+2, -1336732.3, -1485493.9, -3275.158, -0.22895388, 0.047001302, -1336660.1, 186666.67, 0.000056360343, 10.001457, 9.999504 
2.7503127e+2, 1.5456161e+2, -1235041.3, -1396462.3, 55352.613, -0.018733313, 0.27651787, -1217884.0, 207424.98, 0.000009372096, 10.001539, 9.999403 
2.7502826e+2, 1.6456081e+2, -1191863.9, -1408415.5, 38724.707, 0.06689008, 0.2947343, -1185147.3, 142167.9, 0.0000008660051, 10.001512, 9.998663 
2.7502334e+2, 1.7455651e+2, -1134310.0, -1334885.3, 51946.387, 0.014989132, -0.023786109, -1121655.0, 107696.234, 0.000000004874734, 10.00126, 9.998612 
2.750199e+2, 1.8455437e+2, -1044184.2, -1213740.9, 144278.33, -0.023313368, -0.10603711, -961619.75, 169748.89, 0.0, 10.001087, 9.998855 
2.7501813e+2, 1.9455478e+2, -941003.0, -1109208.0, 132752.23, -0.060617685, 0.021225419, -867954.7, 165409.11, 0.0, 10.001109, 9.998887 
2.7501547e+2, 2.0455419e+2, -917466.6, -1077690.4, 21882.74, -0.08410042, 0.08895653, -914531.75, 20838.975, 0.0, 10.000729, 9.99862 
2.7501178e+2, 2.1455206e+2, -948634.3, -1041713.06, -3412.207, -0.10039363, -0.009210928, -948509.4, -111114.99, 0.0, 9.99984, 9.998621 
2.7500874e+2, 2.2455144e+2, -776183.4, -730346.2, 12503.294, -0.104133815, -0.0064142942, -727157.44, 12244.429, 0.0, 9.999582, 10.000211 
2.7500638e+2, 2.345525e+2, -600395.9, -587344.1, 18302.215, -0.10123226, 0.047791176, -574439.1, 66951.52, 0.0, 10.000082, 10.000281 
2.750039e+2, 2.4455287e+2, -518530.9, -569169.56, 4537.1626, -0.10471685, 0.09186523, -518127.6, 25259.45, 0.0, 10.000297, 9.999622 
2.7500117e+2, 2.5455225e+2, -443325.44, -489071.7, 21109.596, -0.123674676, 0.042884517, -435073.1, 10321.163, 0.0, 10.000157, 9.99957 
2.7499795e+2, 2.645518e+2, -368383.1, -380477.28, -32635.451, -0.1134123, 0.03873144, -341239.22, 6160.2744, 0.0, 9.999909, 9.999764 
2.749942e+2, 2.7455163e+2, -333967.94, -315038.97, 7519.0483, -0.069597036, 0.023202023, -312415.75, -63013.543, 0.00000000009324417, 9.99948, 9.999748 
2.7499196e+2, 2.845517e+2, -301490.2, -364299.6, 78301.98, 0.010434825, 0.10869872, -248529.88, -97128.01, 0.00000023612336, 9.999525, 9.998711 
2.7499115e+2, 2.9455173e+2, -128522.39, -223091.19, 33661.58, 0.10765001, 0.2108491, -117764.43, -64363.563, 0.0000024951785, 9.999991, 9.99879 
2.7498618e+2, 3.0455017e+2, -81241.51, -121021.47, -128405.94, 0.0034630436, 0.15338472, 28805.791, 28805.791, 0.000011675634, 9.999777, 9.999269 
2.7498028e+2, 3.145464e+2, -244221.86, -129026.375, 73976.21, -0.043221954, -0.15598887, -92869.234, -92869.234, 0.000040361934, 9.9983015, 9.999924 
2.8504714e+2, 1.2456551e+2, -1405123.6, -1719685.5, 95265.625, 0.0065320097, 0.15189631, -1378522.0, 340752.06, 0.00034660724, 10.002723, 9.998636 
2.850406e+2, 1.3456461e+2, -1403201.8, -1557327.0, -45830.563, -0.065443054, 0.08329314, -1390603.4, 230678.06, 0.00015383559, 10.001635, 9.999603 
2.8503478e+2, 1.4456446e+2, -1386907.6, -1491127.4, 42359.48, -0.13564667, 0.10730857, -1371862.8, 151419.0, 0.00004093297, 10.001031, 9.999674 
2.8503323e+2, 1.5456541e+2, -1276928.5, -1395403.0, 19302.734, 0.049159553, 0.21293114, -1273862.9, 151408.97, 0.0000066741927, 10.001147, 9.999604 
2.8503028e+2, 1.645646e+2, -1169775.4, -1369421.6, -5741.276, 0.11928848, 0.20848696, -1169610.4, 157666.16, 0.00000074756446, 10.001551, 9.998914 
2.8502566e+2, 1.7456152e+2, -960493.5, -1227253.8, -10408.323, 0.072407216, -0.009190316, -960088.0, 269212.5, 0.000000006090155, 10.002345, 9.9988365 
2.8502193e+2, 1.8455954e+2, -906117.9, -1193648.4, 79251.31, 0.018569354, -0.066350125, -885720.94, 245595.77, 0.0, 10.00224, 9.998436 
2.850192e+2, 1.9455884e+2, -990668.4, -1186173.3, 60301.953, -0.053250354, -0.0028245286, -973564.94, 59759.152, 0.0, 10.000996, 9.998416 
2.850162e+2, 2.045579e+2, -944812.7, -1059003.8, 17823.084, -0.06274503, 0.040752485, -942095.5, -6761.3604, 0.0, 10.000408, 9.998896 
2.8501284e+2, 2.1455643e+2, -832214.6, -953399.44, 57066.543, -0.0016714047, -0.022669299, -809572.25, 27777.045, 0.0, 10.000504, 9.998904 
2.8500962e+2, 2.2455579e+2, -726276.2, -774921.8, 129781.34, -0.0004945057, -0.0057094055, -618558.1, 120798.8, 0.0, 10.000227, 9.99959 
2.850064e+2, 2.3455605e+2, -732963.56, -725715.2, 76464.2, -0.07251377, 0.035213307, -652789.3, -11433.127, 0.0, 9.9994955, 9.999612 
2.850037e+2, 2.4455626e+2, -690244.25, -609525.94, 62491.85, -0.08228068, 0.07973086, -575493.6, -32138.592, 0.0, 9.998923, 10.000008 
2.8500155e+2, 2.545564e+2, -642838.3, -536494.0, 78767.68, -0.014747179, 0.06236681, -494631.28, -49277.863, 0.0, 9.998583, 10.0 
2.849982e+2, 2.645563e+2, -524702.4, -441800.28, 44998.465, -0.016760087, 0.06109889, -422070.84, -74716.914, 0.0, 9.998781, 9.99988 
2.8499353e+2, 2.745557e+2, -314694.78, -293071.88, 14011.778, -0.07994666, -0.005783308, -286185.38, -36826.832, 0.0000000018932573, 9.999556, 9.99986 
2.8499117e+2, 2.8455546e+2, -303743.9, -384557.6, 105500.016, -0.018277261, 0.049316566, -231177.45, -79815.96, 0.00000028816427, 9.999587, 9.998549 
2.8499115e+2, 2.9455557e+2, -301368.88, -319311.1, 128691.08, 0.17249918, 0.17998847, -181336.6, -127974.15, 0.0000027347362, 9.998867, 9.998669 
2.8498587e+2, 3.0455473e+2, -184179.77, -159188.83, 8454.51, 0.043294117, 0.19078037, -156597.36, -156597.36, 0.000012525966, 9.999002, 9.999376 
2.8498e+2, 3.1455144e+2, -49314.41, -2867.7363, 143725.38, 0.054087196, -0.08246537, 119498.445, 119498.445, 0.000040482082, 9.999501, 10.0002 
2.9504827e+2, 1.2457182e+2, -1402434.4, -1726399.5, 9915.852, -0.21282677, 0.25606322, -1402131.3, 317084.28, 0.00028487924, 10.002768, 9.998569 
2.950443e+2, 1.345716e+2, -1420161.3, -1595845.1, -82939.38, 0.114582054, 0.2739083, -1387192.8, 234023.69, 0.000121053716, 10.001656, 9.999327 
2.9503816e+2, 1.4457054e+2, -1427435.8, -1580746.8, 29251.45, 0.06669493, 0.25381902, -1422044.3, 101180.08, 0.000029834508, 10.001042, 9.999058 
2.9503393e+2, 1.5456699e+2, -1322280.8, -1488572.8, 30035.955, -0.020981489, -0.031654295, -1317021.9, 108233.75, 0.000004731658, 10.0011425, 9.998966 
2.9503042e+2, 1.6456561e+2, -1160738.8, -1340900.6, 15254.853, -0.040394973, -0.06624917, -1159456.1, 167809.66, 0.00000054097734, 10.0015135, 9.999125 
2.950277e+2, 1.7456678e+2, -943430.8, -1184642.4, 32613.65, 0.01663972, 0.110029675, -939099.0, 290152.66, 0.0000000012704189, 10.002326, 9.999132 
2.9502416e+2, 1.8456584e+2, -933721.3, -1239007.8, 26531.824, -0.0072069685, 0.15519322, -931432.6, 199827.19, 0.0, 10.002183, 9.998157 
2.9501963e+2, 1.9456232e+2, -1020836.6, -1235795.0, 22896.588, -0.13312519, -0.033451825, -1018424.8, 14871.021, 0.0, 10.00094, 9.998101 
2.950162e+2, 2.0456102e+2, -866771.0, -873493.5, 11836.659, -0.12333742, -0.07161878, -857827.56, 77479.22, 0.0, 10.000308, 10.0002165 
2.950139e+2, 2.1456222e+2, -748540.25, -753441.6, 71801.14, 0.031636275, -0.006115281, -679148.0, 158141.11, 0.0, 10.000395, 10.000326 
2.9501066e+2, 2.245621e+2, -822565.25, -944993.56, 94307.28, 0.063151985, 0.038899645, -771347.06, -32056.713, 0.0, 10.000101, 9.998483 
2.950063e+2, 2.3456019e+2, -834325.2, -910659.0, 59202.926, -0.05020296, -0.013527253, -802052.75, -160737.63, 0.0, 9.99939, 9.998391 
2.9500294e+2, 2.4455987e+2, -657288.9, -526415.8, 40217.0, -0.07214237, 0.013145091, -515045.13, 28275.063, 0.0, 9.998857, 10.000615 
2.9500067e+2, 2.5456136e+2, -603738.4, -440955.16, 74133.18, 0.016420426, 0.067657605, -412254.44, 33047.76, 0.0, 9.998515, 10.000695 
2.949976e+2, 2.6456192e+2, -567359.2, -521951.38, 64642.24, 0.02079611, 0.121395916, -476141.88, -128846.55, 0.0, 9.998742, 9.99935 
2.949936e+2, 2.7456114e+2, -365205.0, -382149.06, 49097.2, -0.05371965, 0.08651168, -323854.25, -74550.26, 0.0000000016821552, 9.999485, 9.999282 
2.949912e+2, 2.8455973e+2, -244303.05, -253925.02, 69248.84, -0.00062429707, 0.014900198, -179698.28, -28381.303, 0.00000022409213, 9.999557, 9.999463 
2.9499015e+2, 2.9455793e+2, -240732.66, -184627.48, 117696.25, 0.15391071, -0.1422628, -91686.87, -38354.645, 0.0000026534976, 9.998824, 9.999619 
2.9498485e+2, 3.0455872e+2, -194383.14, -174253.53, 24288.057, 0.014648989, -0.0069553074, -158027.47, -158027.47, 0.00001292508, 9.998978, 9.999283 
2.9498067e+2, 3.1456e+2, -34316.883, 32935.547, 171383.53, 0.111247644, 0.18110932, 173960.52, 173960.52, 0.00004085486, 9.999476, 10.000457 
3.050502e+2, 1.2457759e+2, -1644745.3, -1831096.1, 18082.188, -0.20088466, 0.28657213, -1643006.9, 76152.03, 0.00023189351, 10.001055, 9.99869 
3.050466e+2, 1.3457656e+2, -1421359.8, -1617427.0, -87294.22, 0.18251161, 0.24608801, -1388127.0, 233040.6, 0.000094942065, 10.001716, 9.999165 
3.0504006e+2, 1.4457548e+2, -1310542.8, -1534629.0, 80866.05, 0.11602494, 0.23301294, -1284408.5, 238767.13, 0.000021738364, 10.001922, 9.998934 
3.0503547e+2, 1.5457174e+2, -1222654.5, -1458018.8, 91183.87, -0.012486389, -0.051073235, -1191462.3, 233745.75, 0.0000030875526, 10.001913, 9.998798 
3.0503196e+2, 1.6457045e+2, -1148219.8, -1351434.0, 103802.81, -0.03946962, -0.0636993, -1104571.8, 222646.63, 0.0000002653173, 10.001659, 9.998982 
3.0502954e+2, 1.7457199e+2, -1140699.4, -1293480.6, 71081.21, 0.038328763, 0.16534476, -1112744.1, 116459.195, 0.0, 10.001026, 9.999011 
3.0502596e+2, 1.8457122e+2, -1132721.5, -1302857.8, 59410.266, 0.038258832, 0.21857636, -1114029.4, 17181.43, 0.0, 10.000677, 9.998447 
3.0502108e+2, 1.9456755e+2, -1050317.3, -1222669.3, 81806.51, -0.057980336, -0.014046034, -1017671.5, 15575.629, 0.0, 10.000604, 9.998366 
3.0501732e+2, 2.0456629e+2, -815445.94, -840437.94, 96990.66, -0.05264084, -0.06400761, -730149.6, 205107.11, 0.0, 10.00062, 10.0003 
3.0501476e+2, 2.1456786e+2, -696742.56, -724903.9, 36104.766, 0.06740679, 0.032124378, -672069.9, 165165.17, 0.0, 10.000725, 10.000372 
3.0501118e+2, 2.2456776e+2, -738596.75, -910687.75, 41778.08, 0.08132106, 0.08022585, -728990.6, 10244.77, 0.0, 10.000702, 9.99843 
3.0500647e+2, 2.3456554e+2, -674377.94, -839359.0, 74443.6, -0.024439422, -0.00006461596, -645753.5, -4490.793, 0.0, 10.000519, 9.998335 
3.0500275e+2, 2.445648e+2, -502188.13, -495241.75, 84799.555, -0.032807186, 0.007190535, -413844.28, 129427.08, 0.0, 10.000116, 10.00022 
3.050002e+2, 2.5456575e+2, -480681.8, -421742.84, 23170.174, 0.06858599, 0.04862883, -413724.88, 31533.451, 0.0, 9.999543, 10.000325 
3.049972e+2, 2.64566e+2, -525421.6, -525609.2, 28433.709, 0.091992185, 0.09972682, -497081.56, -149827.14, 0.0, 9.999129, 9.999141 
3.049938e+2, 2.7456513e+2, -451889.16, -448886.56, 25830.24, 0.048912875, 0.077824146, -424514.03, -175250.08, 0.00000000014964384, 9.998992, 9.999065 
3.0499122e+2, 2.8456366e+2, -321093.1, -257535.53, 32671.979, 0.086911164, -0.0046556974, -243736.36, -92458.766, 0.00000013461268, 9.998901, 9.999743 
3.0498907e+2, 2.945619e+2, -227458.83, -148357.42, 10401.924, 0.17345288, -0.18588129, -147012.42, -93720.57, 0.0000024184974, 9.998806, 9.999866 
3.049833e+2, 3.045627e+2, -232715.0, -185487.4, -70304.805, -0.016190778, -0.0685746, -134936.67, -134936.67, 0.00001259153, 9.998683, 9.999358 
3.0497992e+2, 3.145645e+2, -199598.5, 2097.552, 36633.473, 0.16749045, 0.16601375, 8545.079, 8545.079, 0.000039631555, 9.998125, 10.000915 
3.1505236e+2, 1.2458299e+2, -1612313.9, -1768308.5, -14740.067, -0.13716994, 0.2771014, -1610933.3, 108169.125, 0.00018871382, 10.001081, 9.9991045 
3.1504706e+2, 1.3457981e+2, -1426083.9, -1614280.1, -59144.84, 0.035326447, 0.018518018, -1409039.9, 212092.14, 0.00007509751, 10.001686, 9.999191 
3.1504023e+2, 1.4457944e+2, -1292259.9, -1502303.6, 68367.42, -0.09135061, 0.06617742, -1271967.4, 251166.33, 0.00001598166, 10.001931, 9.999154 
3.1503755e+2, 1.5457968e+2, -1205689.6, -1424943.5, 100611.91, -0.02456822, 0.15228397, -1166518.6, 258610.45, 0.00000170519, 10.001923, 9.999018 
3.1503457e+2, 1.6457902e+2, -1189428.1, -1431104.0, 67079.305, 0.033493694, 0.2183375, -1172058.1, 155077.1, 0.000000057148895, 10.001627, 9.998455 
3.1503084e+2, 1.7457715e+2, -1183143.0, -1374723.1, 52641.57, 0.044747245, 0.1598987, -1169631.4, 59524.44, 0.0, 10.000998, 9.9984665 
3.1502703e+2, 1.8457569e+2, -1081032.4, -1184787.6, 45508.99, 0.05787372, 0.13351713, -1063900.1, 67269.54, 0.0, 10.000626, 9.999285 
3.1502324e+2, 1.9457455e+2, -992193.94, -1088114.6, 88309.59, 0.07435693, 0.061988745, -939661.6, 93516.02, 0.0, 10.0005455, 9.999316 
3.1501925e+2, 2.0457381e+2, -918822.1, -1027284.1, 90295.06, 0.061714213, 0.0721892, -867724.1, 67458.836, 0.0, 10.000507, 9.999069 
3.150151e+2, 2.145734e+2, -808052.3, -925830.7, 49864.92, 0.009191292, 0.10090112, -789776.44, 47409.99, 0.0, 10.000601, 9.999048 
3.1501085e+2, 2.2457287e+2, -680144.3, -768279.25, 26523.514, -0.041666098, 0.1278664, -672777.94, 66413.2, 0.0, 10.0006075, 9.999457 
3.1500652e+2, 2.3457202e+2, -607226.8, -680944.94, 76201.3, -0.089546174, 0.07443921, -559438.2, 81761.01, 0.0, 10.000433, 9.99947 
3.150028e+2, 2.4457091e+2, -603349.3, -695179.9, 53324.652, -0.06299076, 0.049737643, -578896.06, -35686.49, 0.0, 10.000074, 9.998865 
3.149997e+2, 2.5456953e+2, -597754.94, -641416.25, 6554.541, 0.04780284, 0.0022481922, -596792.2, -151569.92, 0.0, 9.999443, 9.998864 
3.1499675e+2, 2.645686e+2, -520316.8, -506588.03, 14054.37, 0.11364058, 0.0047123428, -497811.28, -150580.63, 0.0, 9.999091, 9.999292 
3.1499386e+2, 2.7456778e+2, -443313.9, -418059.3, 30341.99, 0.13322584, -0.03170406, -397821.97, -148583.83, 0.00000000001473293, 9.998933, 9.999308 
3.1499094e+2, 2.8456724e+2, -355307.56, -321190.2, 18705.518, 0.14766015, -0.016111786, -312932.97, -161689.27, 0.000000108201135, 9.99887, 9.999321 
3.1498757e+2, 2.9456738e+2, -273084.66, -230294.9, 17127.207, 0.113467544, 0.037837353, -224283.9, -171040.97, 0.0000023186144, 9.998743, 9.999336 
3.1498086e+2, 3.0456644e+2, -215634.81, -146139.84, -92911.83, -0.14657314, 0.0014163218, -81690.57, -81690.57, 0.000012381474, 9.998666, 9.999638 
3.149772e+2, 3.1456476e+2, -147626.08, 114550.13, 21275.43, 0.029082192, -0.15271448, 116265.4, 116265.4, 0.000038035574, 9.998097, 10.001703 
3.2505417e+2, 1.2458708e+2, -1750329.0, -1823509.9, 24383.654, -0.0047049527, 0.1487016, -1742948.8, -23890.906, 0.00015750076, 10.000071, 9.999208 
3.2504907e+2, 1.3458452e+2, -1343901.6, -1606087.0, -43474.07, 0.045563247, -0.027440012, -1336881.0, 284202.78, 0.00006189271, 10.002351, 9.998939 
3.2504213e+2, 1.445845e+2, -1197419.6, -1473437.6, 1991.5975, -0.12196057, 0.075689174, -1197405.3, 325678.78, 0.000012633238, 10.002642, 9.999018 
3.2503915e+2, 1.5458515e+2, -1360523.0, -1512586.3, -16188.95, 0.0030816568, 0.21427684, -1358818.6, 66258.266, 0.0000008198343, 10.000898, 9.998919 
3.2503605e+2, 1.6458437e+2, -1361526.9, -1494474.5, 23013.275, 0.08454409, 0.26269802, -1357656.0, -30571.299, 0.000000004124255, 10.000381, 9.998611 
3.250322e+2, 1.7458174e+2, -1123390.9, -1334041.5, 41865.777, 0.0679396, 0.116128854, -1115375.3, 113736.01, 0.0, 10.001351, 9.998578 
3.2502842e+2, 1.845804e+2, -916310.2, -1091955.0, 36309.594, 0.082939625, 0.08973482, -909100.2, 222023.8, 0.0, 10.001704, 9.999391 
3.2502475e+2, 1.945805e+2, -878433.06, -1019302.0, -5288.7114, 0.13969776, 0.12970006, -878234.8, 154886.17, 0.0, 10.001278, 9.999424 
3.250206e+2, 2.0457989e+2, -888716.8, -1040674.06, 18257.477, 0.13372415, 0.15912135, -886554.0, 48571.5, 0.0, 10.000824, 9.998828 
3.250159e+2, 2.145784e+2, -878139.56, -988080.94, 41240.324, 0.053164084, 0.10374834, -864389.5, -27249.813, 0.0, 10.000238, 9.998797 
3.250114e+2, 2.2457753e+2, -788405.25, -803931.0, 48825.5, 0.0005113768, 0.10310218, -746729.4, -7582.1567, 0.0, 9.999788, 9.999608 
3.2500717e+2, 2.3457727e+2, -723250.06, -718525.0, 10584.025, -0.019381208, 0.08852813, -710043.06, -68894.76, 0.0, 9.999549, 9.999638 
3.2500333e+2, 2.4457628e+2, -662288.1, -730900.9, 22549.598, 0.0057916245, 0.07031539, -655540.75, -112383.92, 0.0, 9.999692, 9.998811 
3.2499993e+2, 2.5457448e+2, -462325.75, -584576.4, 66954.07, 0.08659574, -0.013382027, -432791.5, 12382.424, 0.0, 10.000393, 9.998803 
3.2499668e+2, 2.6457337e+2, -326496.1, -421468.6, 122181.1, 0.13365035, -0.020891542, -242897.78, 104286.305, 0.0, 10.000469, 9.99921 
3.2499343e+2, 2.745727e+2, -315852.53, -365685.47, 96217.89, 0.154095, -0.03261488, -241377.28, 7812.5986, 0.00000000010851988, 9.999861, 9.999216 
3.2499024e+2, 2.8457224e+2, -305291.75, -345377.5, 96364.234, 0.17017275, 0.02121197, -226908.08, -75712.8, 0.00000014604628, 9.999413, 9.998899 
3.249869e+2, 2.945724e+2, -259275.28, -272702.53, 76885.09, 0.16447195, 0.11990526, -188811.27, -135614.81, 0.0000023415487, 9.999051, 9.998896 
3.2498e+2, 3.0457044e+2, -155430.17, -93913.43, -9151.497, -0.109023854, -0.005904165, -92580.88, -92580.88, 0.000012312151, 9.999005, 9.999817 
3.2497576e+2, 3.1456894e+2, 12882.436, 204201.31, 31012.025, 0.033852354, -0.17143673, 209102.67, 209102.67, 0.000036624067, 9.9991865, 10.001772 
3.3505493e+2, 1.24589905e+2, -1772723.6, -1868252.4, 37626.434, 0.006848105, -0.09424073, -1759683.5, -40658.65, 0.00013853858, 10.0000725, 9.998897 
3.3505237e+2, 1.3459077e+2, -1386052.8, -1675190.9, 43734.47, 0.11536127, 0.11904313, -1379582.3, 241440.23, 0.000055370125, 10.002303, 9.998469 
3.3504555e+2, 1.4459075e+2, -1234684.0, -1540098.0, -72944.35, -0.07565184, 0.26776412, -1218156.5, 304869.75, 0.000011804474, 10.002591, 9.998587 
3.3504e+2, 1.5458843e+2, -1387043.8, -1563367.5, -72355.47, -0.026826747, 0.14879112, -1361153.8, 63895.426, 0.00000057438905, 10.000886, 9.998575 
3.3503598e+2, 1.6458674e+2, -1309895.5, -1385213.4, 46920.754, 0.017165499, 0.086341836, -1287390.1, 39674.082, 0.00000000201948, 10.000366, 9.999373 
3.3503333e+2, 1.745858e+2, -1068070.4, -1218230.3, 89808.74, 0.01902362, 0.030869093, -1026092.25, 202977.22, 0.0, 10.001344, 9.99938 
3.3502975e+2, 1.8458533e+2, -977153.4, -1197532.9, 12227.345, 0.022089755, 0.08323224, -976477.06, 154596.61, 0.0, 10.001616, 9.998711 
3.350253e+2, 1.9458525e+2, -940318.6, -1131462.1, -12770.927, 0.042321775, 0.18013966, -939469.1, 93608.98, 0.0, 10.001211, 9.998685 
3.35021e+2, 2.0458451e+2, -847043.06, -933546.94, -13623.538, 0.07565261, 0.19680029, -844948.2, 90136.555, 0.0, 10.000736, 9.999607 
3.3501688e+2, 2.1458282e+2, -834205.94, -869622.2, 28051.254, 0.11067924, 0.036838617, -818741.0, 18354.486, 0.0, 10.000125, 9.999665 
3.3501258e+2, 2.245817e+2, -855117.1, -919195.3, 28883.125, 0.118847705, 0.003076472, -844019.94, -104916.04, 0.0, 9.99969, 9.998862 
3.3500803e+2, 2.3458125e+2, -795651.1, -840773.9, 8039.6123, 0.09389294, 0.04848758, -794261.5, -153151.53, 0.0, 9.999433, 9.998852 
3.3500403e+2, 2.4458095e+2, -576861.06, -546274.9, 39683.016, 0.08746758, 0.076015204, -519040.1, 24072.447, 0.0, 9.999656, 10.000097 
3.3500066e+2, 2.5458065e+2, -376178.06, -389099.0, 101572.984, 0.096539944, 0.0048140385, -280860.3, 164252.16, 0.0, 10.000322, 10.000179 
3.3499673e+2, 2.6458034e+2, -357910.06, -481686.7, 92315.86, 0.07483941, 0.025316335, -308657.13, 38456.914, 0.0, 10.000445, 9.998808 
3.349921e+2, 2.745798e+2, -358409.2, -437031.6, 82806.99, 0.012280739, 0.071848795, -306055.97, -56936.25, 0.000000000044508567, 9.999786, 9.99876 
3.349888e+2, 2.8457874e+2, -332123.78, -399921.88, 74342.22, 0.06339624, 0.10292515, -284316.56, -133184.55, 0.00000018851506, 9.999398, 9.998536 
3.3498672e+2, 2.9457715e+2, -292131.13, -334673.0, 73731.85, 0.21214373, 0.06083922, -236663.3, -183511.92, 0.0000023038672, 9.999015, 9.998494 
3.3498022e+2, 3.045746e+2, -160243.75, -102097.766, -9645.378, -0.008569873, -0.09519253, -100539.52, -100539.52, 0.000011796056, 9.998997, 9.999764 
3.34975e+2, 3.1457675e+2, -55305.742, 81462.42, 47627.8, -0.010842862, 0.10545656, 96413.75, 96413.75, 0.000034748333, 9.999097, 10.000978 
3.4505692e+2, 1.2459517e+2, -1461714.0, -1667483.5, -5670.743, 0.11509955, -0.031194823, -1461557.9, 257419.83, 0.00012841672, 10.002006, 9.999343 
3.4505394e+2, 1.3459657e+2, -1654490.4, -1775536.9, 51850.94, 0.15535688, 0.20637068, -1635316.9, -14348.538, 0.00005393956, 10.00031, 9.998765 
3.4504732e+2, 1.4459598e+2, -1595671.4, -1718376.6, 3369.5886, -0.02331256, 0.28654522, -1595578.9, -72602.0, 0.00001321429, 10.000145, 9.998532 
3.4504163e+2, 1.5459317e+2, -1237316.9, -1507142.8, -5211.2305, 0.000133449, 0.12731315, -1237216.4, 187788.94, 0.00000089811203, 10.001982, 9.99843 
3.4503734e+2, 1.6459137e+2, -1023813.4, -1244237.8, 104094.266, 0.025680002, 0.06107132, -982426.25, 344594.88, 0.0000000015154811, 10.002311, 9.999406 
3.4503418e+2, 1.7459086e+2, -1133919.9, -1239083.4, 72741.49, 0.0015588177, 0.04000545, -1096745.5, 132275.9, 0.0, 10.000857, 9.999466 
3.4503043e+2, 1.8459056e+2, -1166215.4, -1277648.3, 21965.258, 0.0024992719, 0.100336455, -1162042.0, -31018.633, 0.0, 10.000271, 9.998812 
3.4502628e+2, 1.9459032e+2, -1015099.4, -1158733.1, 46152.766, 0.052690152, 0.17243247, -1001547.94, 31481.654, 0.0, 10.000655, 9.998774 
3.4502202e+2, 2.0458958e+2, -812399.75, -927913.9, 56534.973, 0.09748937, 0.19011262, -789335.5, 145701.3, 0.0, 10.001018, 9.999511 
3.4501767e+2, 2.1458803e+2, -674389.56, -809527.3, 6220.016, 0.12358288, 0.058836713, -674103.9, 162943.19, 0.0, 10.001281, 9.999526 
3.4501302e+2, 2.2458681e+2, -645737.1, -791040.75, 7366.429, 0.13479762, 0.0076320795, -645364.6, 93691.32, 0.0, 10.001017, 9.999103 
3.4500813e+2, 2.3458591e+2, -674584.6, -755381.2, 45390.242, 0.13513683, -0.014697067, -654218.6, -13155.223, 0.0, 10.000147, 9.999096 
3.4500405e+2, 2.4458584e+2, -578838.9, -552506.0, 115873.84, 0.12828042, 0.028243192, -449052.97, 94010.13, 0.0, 9.999679, 10.00004 
3.4500077e+2, 2.5458652e+2, -470456.56, -447628.5, 50959.46, 0.1085681, 0.06516009, -406820.44, 38235.637, 0.0, 9.99973, 10.000068 
3.4499666e+2, 2.6458627e+2, -417331.72, -509459.7, 1009.0169, 0.04888569, 0.09928672, -417320.66, -70262.65, 0.0, 10.000036, 9.998813 
3.449917e+2, 2.7458483e+2, -227966.5, -372619.1, 9842.961, -0.045457177, 0.056324657, -227299.81, 21771.97, 0.0, 10.000678, 9.998775 
3.449884e+2, 2.845838e+2, -124874.6, -274821.97, 39412.016, 0.024233125, 0.07724738, -115146.695, 35936.51, 0.00000016974016, 10.000733, 9.998745 
3.4498674e+2, 2.9458308e+2, -107645.555, -222326.7, 60460.773, 0.25965637, 0.10297569, -81658.78, -28565.762, 0.0000020169734, 10.000187, 9.998703 
3.4498033e+2, 3.0458096e+2, -25137.475, -60272.605, 43006.895, 0.05878839, -0.010311271, 3751.5222, 3751.5222, 0.0000103175025, 10.000004, 9.999576 
3.449745e+2, 3.1458282e+2, 7783.3853, 12990.007, 43331.395, -0.0031963899, 0.17999166, 53796.223, 53796.223, 0.00003196276, 9.999936, 10.000104 
3.5505947e+2, 1.2460292e+2, -1383645.3, -1508264.0, -126119.12, 0.109835364, 0.3428446, -1305283.0, 413632.5, 0.00012227354, 10.002009, 10.000436 
3.5505345e+2, 1.3460207e+2, -1567607.1, -1596934.9, -2633.2527, 0.051679954, 0.24011417, -1567372.6, 53547.26, 0.00005490219, 10.000332, 9.999971 
3.550472e+2, 1.446005e+2, -1579843.9, -1698202.5, 55908.535, -0.08352717, 0.1507309, -1557611.0, -34677.477, 0.000015641235, 10.000187, 9.998659 
3.550438e+2, 1.5459941e+2, -1230664.9, -1502019.6, 72604.53, -0.010622364, 0.16179033, -1212460.0, 212485.22, 0.0000017221555, 10.002014, 9.998454 
3.550398e+2, 1.6459823e+2, -1072474.6, -1335363.9, 41626.11, 0.013485861, 0.18537848, -1066041.0, 260915.38, 0.000000007086625, 10.002265, 9.998801 
3.550344e+2, 1.7459685e+2, -1179373.0, -1330272.1, 27598.693, -0.08255183, 0.14097086, -1174483.8, 54483.66, 0.0, 10.000841, 9.998847 
3.5503012e+2, 1.8459605e+2, -1114421.1, -1155618.6, 26943.236, -0.076493, 0.13888101, -1101104.6, 29868.77, 0.0, 10.000207, 9.9996805 
3.550274e+2, 1.9459577e+2, -955850.8, -1025387.56, 70501.164, 0.07924933, 0.11416524, -912010.94, 120963.72, 0.0, 10.000608, 9.999711 
3.5502344e+2, 2.0459518e+2, -897381.8, -1083911.1, 57819.77, 0.117742874, 0.14884795, -880913.06, 54067.656, 0.0, 10.000926, 9.9984865 
3.5501793e+2, 2.1459413e+2, -766604.2, -975074.75, 26546.71, 0.0038851686, 0.17356889, -763276.8, 73716.766, 0.0, 10.00117, 9.998443 
3.5501254e+2, 2.2459288e+2, -578310.1, -630462.8, -30034.336, -0.03271453, 0.12211965, -564611.6, 174390.78, 0.0, 10.000926, 10.000249 
3.5500735e+2, 2.3459129e+2, -601923.3, -583651.9, 21188.305, 0.021793108, -0.09377594, -569713.7, 71294.07, 0.0, 10.000057, 10.000319 
3.550031e+2, 2.4459098e+2, -693462.2, -774875.94, 106591.98, 0.044136584, -0.0657721, -620068.7, -77060.26, 0.0, 9.999615, 9.998542 
3.5499987e+2, 2.54592e+2, -597121.9, -687619.1, 59649.285, 0.027339296, 0.16471048, -567500.8, -122495.39, 0.0, 9.99964, 9.998459 
3.5499614e+2, 2.6459116e+2, -394278.03, -453139.7, 17309.537, -0.026567323, 0.20115374, -389565.16, -42548.91, 0.0, 9.999999, 9.999217 
3.549919e+2, 2.7458793e+2, -204484.69, -309038.25, 43928.83, -0.11358113, -0.073024206, -188478.2, 60566.91, 0.0, 10.000615, 9.99924 
3.5498875e+2, 2.845874e+2, -79091.195, -174682.92, 11252.617, -0.036184885, -0.054763373, -77784.45, 73264.18, 0.00000011654808, 10.000713, 9.999442 
3.5498664e+2, 2.9459003e+2, -63506.914, -118011.62, 52010.01, 0.20528059, 0.23356105, -32041.875, 20980.705, 0.0000016052002, 10.000136, 9.999442 
3.5498002e+2, 3.0458945e+2, -37725.6, -89635.3, 36377.324, 0.005703575, 0.24008779, -18993.049, -18993.049, 0.000008325357, 10.0000105, 9.999375 
3.549735e+2, 3.1458774e+2, -68651.125, -132579.08, 57583.23, -0.152445, 0.1029376, -34755.215, -34755.215, 0.000028550077, 9.999878, 9.999134 
3.6506027e+2, 1.24609135e+2, -1625421.5, -1664946.9, 22664.746, 0.076252, 0.35750005, -1615113.4, 103744.26, 0.000118926524, 10.000516, 10.000083 
3.6505443e+2, 1.3460843e+2, -1363308.8, -1510124.1, 33627.098, 0.05534707, 0.2808698, -1355973.1, 264888.0, 0.000056465244, 10.001785, 9.99986 
3.650492e+2, 1.4460678e+2, -1303579.8, -1551399.9, 90528.45, 0.012295054, 0.182925, -1274032.6, 248842.61, 0.00001794202, 10.002036, 9.998774 
3.6504522e+2, 1.5460594e+2, -1349858.3, -1541768.6, 91875.4, -0.016638866, 0.20735547, -1312965.9, 111917.18, 0.000002788093, 10.001125, 9.998611 
3.6504102e+2, 1.6460487e+2, -1280767.3, -1431573.9, 76153.21, -0.012348553, 0.23465201, -1249002.6, 77889.91, 0.00000008230677, 10.000826, 9.998833 
3.650357e+2, 1.7460348e+2, -1127018.3, -1303133.8, 85067.49, -0.051236067, 0.18578681, -1092639.6, 136264.77, 0.0, 10.001193, 9.998865 
3.650313e+2, 1.8460253e+2, -956897.25, -1071688.1, 116822.66, -0.026805805, 0.16450173, -884132.1, 246779.34, 0.0, 10.001258, 9.999751 
3.6502826e+2, 1.9460191e+2, -907861.7, -994033.06, 81240.69, 0.09626409, 0.10091477, -858988.56, 173925.83, 0.0, 10.000904, 9.999786 
3.6502418e+2, 2.0460136e+2, -938241.7, -1098478.8, 90827.586, 0.11888769, 0.13310497, -897246.1, 37673.566, 0.0, 10.00063, 9.998526 
3.6501876e+2, 2.1460076e+2, -872969.25, -1021242.5, 122862.555, 0.012794714, 0.1998011, -803608.7, 33320.434, 0.0, 10.000427, 9.998481 
3.6501342e+2, 2.245997e+2, -656747.9, -715019.94, 64023.055, -0.014461638, 0.18479013, -615542.9, 123394.586, 0.0, 10.000583, 9.999839 
3.650083e+2, 2.3459798e+2, -473537.9, -568997.1, -24965.348, 0.06047589, 0.00015062845, -467403.0, 173542.72, 0.0, 10.001137, 9.999902 
3.6500376e+2, 2.4459691e+2, -504463.97, -734853.06, 45733.57, 0.08100679, -0.006718565, -495717.63, 47236.426, 0.0, 10.001111, 9.998108 
3.6499992e+2, 2.545965e+2, -519159.1, -696013.9, 69686.6, 0.03895343, 0.1233483, -495000.4, -50036.934, 0.0, 10.000363, 9.998058 
3.6499614e+2, 2.6459533e+2, -410986.5, -467801.75, 95615.11, -0.019216927, 0.15341356, -339648.25, 7328.479, 0.0, 9.999918, 9.999154 
3.6499244e+2, 2.745931e+2, -316172.34, -368359.84, 63379.55, -0.080874175, -0.014781745, -273725.22, -24728.303, 0.0, 9.999876, 9.999187 
3.649892e+2, 2.8459242e+2, -182910.52, -215446.77, -9354.784, -0.018386073, -0.014394667, -180412.61, -29411.598, 0.000000055764154, 9.999945, 9.999536 
3.649864e+2, 2.945937e+2, -60573.363, -101066.484, -34609.652, 0.17472683, 0.12328667, -40723.15, 12262.125, 0.0000011855267, 10.00009, 9.9995775 
3.6497983e+2, 3.0459365e+2, -40440.363, -99401.49, -51919.207, -0.0062083825, 0.1833262, -10215.755, -10215.755, 0.0000067298934, 10.000052, 9.999281 
3.649736e+2, 3.1459212e+2, -130758.65, -186634.73, -57549.133, -0.10056956, 0.081958875, -94724.53, -94724.53, 0.000025648078, 9.999572, 9.998915 
3.750586e+2, 1.2461414e+2, -1738251.0, -1911523.1, 31794.68, -0.19459157, 0.06073981, -1732601.1, -13799.897, 0.0001191897, 10.00056, 9.998367 
3.7505656e+2, 1.3461578e+2, -1452001.6, -1702085.1, 88308.484, 0.0591579, 0.3463067, -1423962.3, 196828.86, 0.00005856906, 10.001815, 9.998526 
3.750529e+2, 1.4461482e+2, -1297980.3, -1531786.3, 46538.855, 0.14667739, 0.37891296, -1289057.3, 233744.77, 0.000020069963, 10.002004, 9.998924 
3.7504563e+2, 1.5461272e+2, -1328406.6, -1505388.4, 68423.195, -0.11709467, 0.2550656, -1305038.8, 119780.63, 0.0000038584762, 10.001157, 9.998847 
3.750407e+2, 1.6461131e+2, -1243013.0, -1347757.4, 79379.6, -0.14803723, 0.20784861, -1200285.4, 126544.375, 0.00000020238203, 10.000802, 9.999418 
3.750377e+2, 1.7461076e+2, -1088610.5, -1221966.0, 109370.85, 0.006665569, 0.18301882, -1027194.94, 201637.14, 0.0, 10.001181, 9.99943 
3.7503362e+2, 1.8460995e+2, -1015347.44, -1175934.1, 95630.695, 0.057449374, 0.18078138, -970771.8, 160065.97, 0.0, 10.001188, 9.999066 
3.7502852e+2, 1.946087e+2, -972184.44, -1105924.5, 78155.96, 0.013687606, 0.12532122, -936195.56, 96653.484, 0.0, 10.000819, 9.999053 
3.75024e+2, 2.0460804e+2, -879755.8, -958803.2, 74190.305, 0.01893614, 0.13481419, -835218.06, 99636.18, 0.0, 10.0005455, 9.999529 
3.7501985e+2, 2.1460792e+2, -811887.4, -869433.8, 123165.516, 0.06072708, 0.14427777, -714178.8, 122674.86, 0.0, 10.000322, 9.999573 
3.750154e+2, 2.2460729e+2, -804147.9, -1002605.75, 72064.56, 0.10724644, 0.2078583, -780740.4, -41879.64, 0.0, 10.000496, 9.99791 
3.7501058e+2, 2.346059e+2, -628225.7, -871394.75, 3646.5522, 0.1589817, 0.25824416, -628171.0, 12707.126, 0.0, 10.001049, 9.9978695 
3.7500578e+2, 2.446036e+2, -469015.44, -643094.25, 12600.784, 0.1517622, 0.20280953, -468108.06, 74791.98, 0.0, 10.001038, 9.998773 
3.750007e+2, 2.5460008e+2, -478268.63, -592735.0, 51816.48, 0.055378325, -0.05407167, -458297.0, -13367.711, 0.0, 10.000282, 9.998807 
3.749963e+2, 2.645989e+2, -456289.78, -552468.3, 84904.984, -0.014162401, -0.0370829, -406801.22, -59862.26, 0.0, 9.99988, 9.998589 
3.7499288e+2, 2.746003e+2, -368261.6, -461508.7, 72206.67, -0.046074253, 0.22190508, -328934.25, -80006.48, 0.0, 9.99981, 9.998579 
3.749894e+2, 2.8459886e+2, -218758.52, -281881.78, -11555.418, -0.018575288, 0.19579306, -216709.67, -65769.24, 0.00000003400916, 9.999909, 9.999099 
3.749856e+2, 2.9459405e+2, -101078.086, -172476.67, -17943.164, 0.0611154, -0.22417702, -96822.445, -43841.793, 0.000000899484, 10.00003, 9.999121 
3.7497935e+2, 3.045936e+2, -48955.375, -108047.84, -72829.18, -0.07914703, -0.1816534, 92.72495, 92.72495, 0.000005766145, 10.000017, 9.999239 
3.7497428e+2, 3.1459576e+2, -107582.51, -125062.61, -41541.535, -0.03855543, 0.08883958, -73871.555, -73871.555, 0.000023919054, 9.999511, 9.99937 
3.8506016e+2, 1.24620184e+2, -1697784.1, -1902164.6, -22346.215, -0.10415012, 0.04642861, -1695369.4, 23371.63, 0.00012316402, 10.000899, 9.998265 
3.850578e+2, 1.3462192e+2, -1412536.5, -1674727.9, 95712.07, -0.005655536, 0.33516553, -1381315.0, 239414.86, 0.000061385945, 10.002043, 9.998614 
3.8505515e+2, 1.446212e+2, -1248945.0, -1498821.3, 53144.42, 0.16375811, 0.38355786, -1238111.8, 284626.75, 0.000022093489, 10.002301, 9.999003 
3.8504753e+2, 1.5461913e+2, -1283355.3, -1474521.0, 30609.898, -0.048531424, 0.2539093, -1278573.5, 146182.2, 0.000004863891, 10.001441, 9.998914 
3.850424e+2, 1.6461775e+2, -1218758.6, -1354112.3, 66021.336, -0.065860234, 0.21281493, -1191889.3, 134877.34, 0.00000029520132, 10.001023, 9.999279 
3.8503924e+2, 1.7461729e+2, -1117048.1, -1249886.4, 28462.838, 0.056103986, 0.21004853, -1111206.4, 117563.05, 0.0, 10.001034, 9.999313 
3.850349e+2, 1.8461645e+2, -1074786.0, -1229219.3, 2657.0034, 0.08524277, 0.2189161, -1074740.4, 56036.14, 0.0, 10.0008745, 9.998856 
3.8502938e+2, 1.9461484e+2, -1036178.0, -1166233.0, 2345.9, 0.03873691, 0.14936964, -1036135.7, -3344.2864, 0.0, 10.0004835, 9.99881 
3.850247e+2, 2.0461395e+2, -862746.7, -911752.25, 34829.91, 0.040909275, 0.13364492, -844664.2, 90133.44, 0.0, 10.000499, 9.999873 
3.850207e+2, 2.146138e+2, -689917.56, -774105.2, 15206.08, 0.08327574, 0.10229814, -687255.25, 149539.58, 0.0, 10.000986, 9.999915 
3.850165e+2, 2.2461322e+2, -737234.25, -1012600.44, 13872.063, 0.13949582, 0.17258623, -736537.2, 2264.484, 0.0, 10.001151, 9.997516 
3.8501212e+2, 2.3461208e+2, -667904.9, -938187.8, 44660.414, 0.21424943, 0.2895441, -660716.56, -19895.95, 0.0, 10.000995, 9.99743 
3.8500735e+2, 2.4460994e+2, -439996.78, -612867.06, 103325.7, 0.20711987, 0.26478913, -391720.25, 151122.05, 0.0, 10.001177, 9.998899 
3.85002e+2, 2.546065e+2, -248731.4, -467928.88, 78075.195, 0.08893647, -0.001351551, -223765.58, 221103.28, 0.0, 10.001799, 9.998927 
3.8499737e+2, 2.646051e+2, -228048.83, -478662.78, 93747.55, 0.026229555, 0.0056558438, -196861.58, 150017.95, 0.0, 10.00159, 9.998281 
3.849939e+2, 2.746061e+2, -305645.94, -463914.72, 84420.64, 0.050587412, 0.25355512, -269069.06, -20196.404, 0.0, 10.0003805, 9.998289 
3.8498986e+2, 2.8460428e+2, -266571.84, -330807.4, 65017.51, 0.056783505, 0.21769291, -226171.84, -75282.49, 0.000000026095549, 9.999696, 9.998868 
3.8498506e+2, 2.9459918e+2, -183443.17, -238381.05, 59589.043, 0.031296086, -0.20693167, -145296.58, -92363.516, 0.00000066980994, 9.999584, 9.998882 
3.849788e+2, 3.0459854e+2, -99938.625, -136105.28, 30767.902, -0.11036328, -0.16817573, -82333.43, -82333.43, 0.000005131084, 9.999668, 9.999209 
3.849751e+2, 3.146003e+2, -29706.063, -36302.363, 38562.215, 0.08861938, 0.05138274, 5698.788, 5698.788, 0.000023468077, 9.999827, 9.999817 
3.950643e+2, 1.24627404e+2, -1612303.6, -1709920.6, 13250.86, 0.16975744, 0.31428015, -1610536.9, 108138.91, 0.0001272644, 10.000863, 9.999597 
3.9505786e+2, 1.3462688e+2, -1315898.1, -1464516.4, 148224.88, -0.22672199, 0.23646681, -1224398.8, 396278.5, 0.00006380605, 10.002021, 10.000062 
3.9505574e+2, 1.4462599e+2, -1265080.6, -1525424.3, 13568.72, -0.034007154, 0.20039736, -1264375.4, 258308.73, 0.000023677207, 10.002256, 9.99885 
3.9505056e+2, 1.546251e+2, -1292817.0, -1501785.4, 7201.838, 0.08308465, 0.20746458, -1292569.0, 132123.78, 0.000005569423, 10.001465, 9.998718 
3.9504567e+2, 1.6462405e+2, -1278639.0, -1464297.6, 51724.867, 0.13553868, 0.24453135, -1265201.0, 61503.285, 0.00000035120044, 10.000973, 9.998546 
3.950401e+2, 1.7462303e+2, -1176303.0, -1359921.0, 38206.047, 0.0139934765, 0.26297575, -1168670.6, 60046.207, 0.0, 10.000985, 9.99858 
3.950349e+2, 1.8462192e+2, -1069626.9, -1201731.3, -19896.38, -0.018980324, 0.27281696, -1066695.3, 64032.746, 0.0, 10.000798, 9.999084 
3.9503053e+2, 1.9462046e+2, -1028338.56, -1127919.0, -3733.6436, 0.082185164, 0.19029067, -1028198.75, 4541.3413, 0.0, 10.000396, 9.999112 
3.9502594e+2, 2.0461926e+2, -895608.4, -956593.06, 41831.0, 0.09943276, 0.14138937, -874335.7, 60412.67, 0.0, 10.000397, 9.999617 
3.9502093e+2, 2.146184e+2, -730132.1, -820442.7, 44437.797, -0.009182548, 0.06702467, -711933.5, 124818.83, 0.0, 10.000835, 9.999665 
3.950165e+2, 2.2461754e+2, -677506.56, -864525.3, 1011.7117, 0.0031962853, 0.069982395, -677501.06, 61258.816, 0.0, 10.001043, 9.998588 
3.9501265e+2, 2.3461647e+2, -605035.9, -781865.44, 48967.27, 0.1455854, 0.085424125, -592381.56, 48392.21, 0.0, 10.000885, 9.998556 
3.9500833e+2, 2.4461584e+2, -475689.56, -674703.8, 116843.38, 0.16482387, 0.17355068, -421723.44, 121058.12, 0.0, 10.0011215, 9.998507 
3.9500356e+2, 2.5461558e+2, -289324.47, -537526.8, 110632.945, 0.04334924, 0.273771, -247170.58, 197613.06, 0.0, 10.00173, 9.998487 
3.9499915e+2, 2.6461396e+2, -237182.14, -485097.22, 42819.363, 0.02135005, 0.2746357, -229994.84, 116804.24, 0.0, 10.001534, 9.998264 
3.9499515e+2, 2.746104e+2, -315542.22, -470667.25, 48718.027, 0.115799494, 0.075233914, -301511.13, -52678.813, 0.0, 10.000315, 9.998279 
3.9499032e+2, 2.846087e+2, -271487.06, -327546.2, 50913.063, 0.115166396, 0.048694424, -241397.83, -90549.86, 0.000000010243951, 9.999649, 9.998908 
3.9498436e+2, 2.9460916e+2, -196659.3, -242038.1, 69521.2, -0.018441198, 0.17546567, -146218.63, -93376.336, 0.0000005130985, 9.999489, 9.998901 
3.949779e+2, 3.046086e+2, -99828.16, -131663.55, 32417.773, -0.18862537, 0.22191976, -79630.96, -79630.96, 0.0000059963604, 9.999646, 9.999251 
3.9497548e+2, 3.1460553e+2, -10393.16, 19253.33, 78433.18, 0.09936415, -0.043409467, 84251.71, 84251.71, 0.000027743677, 9.999764, 10.000229 
4.0506667e+2, 1.2463262e+2, -1380187.4, -1584307.1, 71511.01, 0.25990108, 0.36163935, -1357627.6, 360997.22, 0.0001282802, 10.002367, 9.9997425 
4.0505865e+2, 1.3463102e+2, -1591784.8, -1591012.8, 30963.95, -0.24082565, 0.16512842, -1560432.4, 60203.44, 0.00006493345, 10.000088, 10.000129 
4.05057e+2, 1.4463042e+2, -1645713.5, -1649238.3, -76508.195, 0.017594583, 0.12735385, -1570947.4, -48308.18, 0.00002457309, 9.999392, 9.999377 
4.0505207e+2, 1.5463036e+2, -1393642.1, -1490902.1, -50247.402, 0.14220649, 0.16231087, -1372345.9, 52292.957, 0.000005781208, 10.000506, 9.999258 
4.050471e+2, 1.6462965e+2, -1279006.8, -1473562.5, 61108.37, 0.18695103, 0.21077041, -1261405.5, 65241.715, 0.0000003430959, 10.001011, 9.998459 
4.0504095e+2, 1.7462848e+2, -1210717.9, -1390636.5, 70734.41, 0.017514624, 0.22390802, -1186239.3, 42423.746, 0.0, 10.00081, 9.998452 
4.0503567e+2, 1.846275e+2, -1057318.9, -1187642.6, 48901.617, -0.019829731, 0.2506932, -1041010.25, 89663.8, 0.0, 10.000861, 9.9991455 
4.0503174e+2, 1.9462642e+2, -919013.7, -1068937.1, 35731.223, 0.1328317, 0.20291245, -910933.4, 121749.54, 0.0, 10.001124, 9.999168 
4.0502706e+2, 2.0462534e+2, -840635.9, -974233.0, 82353.01, 0.15022565, 0.18066053, -801396.44, 133295.16, 0.0, 10.000968, 9.999216 
4.0502143e+2, 2.1462418e+2, -836988.6, -924222.94, 51460.09, -0.009484412, 0.119186275, -813147.7, 23553.172, 0.0, 10.0003195, 9.999205 
4.0501693e+2, 2.2462314e+2, -733137.9, -824975.4, 19436.559, -0.0169566, 0.09964199, -729193.7, 9515.97, 0.0, 10.00038, 9.999178 
4.0501365e+2, 2.3462208e+2, -500571.22, -664256.4, 15025.401, 0.1443239, 0.052240595, -499203.4, 141516.14, 0.0, 10.001305, 9.999165 
4.0500954e+2, 2.4462168e+2, -468912.16, -710576.3, 63480.01, 0.1702356, 0.14870577, -453252.1, 89472.57, 0.0, 10.001339, 9.998157 
4.0500456e+2, 2.5462204e+2, -513644.84, -681341.44, 44351.086, 0.044595692, 0.35078874, -502637.72, -57913.543, 0.0, 10.000364, 9.998152 
4.0499994e+2, 2.6462045e+2, -449556.8, -570227.4, -4215.116, 0.03111101, 0.36475503, -449409.75, -102669.24, 0.0, 9.999997, 9.998419 
4.0499577e+2, 2.7461624e+2, -302282.84, -446612.9, -175.03142, 0.1523524, 0.07673428, -302282.66, -53503.45, 0.0, 10.000323, 9.998439 
4.049908e+2, 2.846148e+2, -157569.16, -275517.4, 38128.145, 0.16424662, 0.07276199, -146317.2, 4474.6265, 0.0000000008315615, 10.000435, 9.998885 
4.0498483e+2, 2.946166e+2, -74366.305, -182135.66, 32792.984, 0.044734966, 0.3336644, -65172.152, -12397.823, 0.0000007104038, 10.000319, 9.998906 
4.049779e+2, 3.04616e+2, -61936.0, -113742.24, 7666.1743, -0.15904957, 0.37138966, -60825.383, -60825.383, 0.000009515816, 9.999914, 9.9992485 
4.0497562e+2, 3.1461176e+2, -112713.484, -25489.244, 21176.96, 0.18586051, -0.00885787, -20619.61, -20619.61, 0.0000394484, 9.999028, 10.000283 
4.1506687e+2, 1.2463571e+2, -1442281.0, -1720022.6, 13651.495, -0.0131545905, 0.1791407, -1441611.6, 276977.97, 0.0001259659, 10.002391, 9.998799 
4.1505978e+2, 1.3463451e+2, -1663685.3, -1757420.1, -48141.324, -0.1626371, 0.13141167, -1643365.3, -22760.896, 0.00006410072, 10.000148, 9.998959 
4.1505852e+2, 1.446345e+2, -1564096.9, -1474439.4, -46247.582, 0.20200248, 0.15936357, -1454859.6, 67743.62, 0.00002430965, 9.99938, 10.00058 
4.1505185e+2, 1.5463495e+2, -1305342.6, -1296590.5, 4984.283, 0.04544925, 0.11569748, -1294333.9, 130259.15, 0.0000053776803, 10.000471, 10.000606 
4.150465e+2, 1.6463464e+2, -1255918.6, -1410238.8, 45726.168, 0.0029931364, 0.110760115, -1243387.3, 83207.32, 0.0000002359893, 10.000943, 9.998925 
4.1504154e+2, 1.7463373e+2, -1182988.8, -1327626.1, 72865.47, -0.030793425, 0.105540425, -1152646.0, 75961.08, 0.0, 10.000786, 9.998895 
4.1503677e+2, 1.8463318e+2, -1071650.0, -1203658.5, 48976.254, -0.017189046, 0.15630022, -1055464.0, 75150.84, 0.0, 10.000803, 9.999063 
4.1503263e+2, 1.9463281e+2, -935977.56, -1085269.1, 53371.13, 0.09066257, 0.18961148, -918860.25, 113759.016, 0.0, 10.001051, 9.999085 
4.1502777e+2, 2.0463221e+2, -898218.25, -1075467.4, 49504.234, 0.10505008, 0.2504329, -885329.4, 49297.605, 0.0, 10.00088, 9.9985695 
4.1502193e+2, 2.1463118e+2, -899359.7, -1024256.94, 33294.418, -0.01119028, 0.26752338, -891038.6, -54398.64, 0.0, 10.000196, 9.998575 
4.1501755e+2, 2.246301e+2, -740718.6, -818103.94, 43265.555, -0.011644258, 0.27245855, -721367.94, 17282.2, 0.0, 10.0002775, 9.999276 
4.1501486e+2, 2.3462884e+2, -503744.84, -649939.3, 59190.277, 0.11460317, 0.19146605, -482785.2, 157872.89, 0.0, 10.001214, 9.999307 
4.1501066e+2, 2.4462746e+2, -495708.22, -755179.25, 20948.783, 0.12235332, 0.19440421, -494027.78, 48643.35, 0.0, 10.001288, 9.997872 
4.150046e+2, 2.5462577e+2, -544170.8, -729558.5, 16610.729, -0.009057509, 0.21790813, -542694.25, -98002.75, 0.0, 10.000295, 9.997853 
4.149995e+2, 2.6462454e+2, -427919.94, -515955.06, -687.8615, -0.031692598, 0.26588535, -427914.56, -81209.54, 0.0, 9.999963, 9.998805 
4.1499546e+2, 2.7462363e+2, -285064.56, -394062.25, 22473.025, 0.06399821, 0.26849413, -280612.9, -31900.576, 0.0, 10.000256, 9.998831 
4.1499096e+2, 2.8462267e+2, -158795.27, -285018.84, 24482.99, 0.11289857, 0.29475844, -154212.78, -3492.55, 0.00000000001177225, 10.000451, 9.998818 
4.1498595e+2, 2.9462156e+2, -89068.42, -199881.38, 37170.3, 0.097611174, 0.27069655, -77755.266, -25025.533, 0.0000013022876, 10.000253, 9.998821 
4.1497836e+2, 3.0462068e+2, -60967.734, -106708.266, -28310.057, -0.12569936, 0.28607702, -47444.203, -47444.203, 0.000014575742, 9.999903, 9.999297 
4.1497502e+2, 3.1461918e+2, -144097.25, -66553.14, 5676.778, 0.17105794, 0.1711702, -66139.766, -66139.766, 0.000055427667, 9.998935, 10.000042 
4.250694e+2, 1.2464145e+2, -1493643.6, -1782031.0, 119614.086, 0.020335883, 0.13828872, -1450489.1, 268041.9, 0.000120138786, 10.00218, 9.998475 
4.2506066e+2, 1.3464047e+2, -1615410.8, -1801572.1, 10076.076, -0.112972766, 0.16445923, -1614867.0, 5679.545, 0.00006079175, 10.000743, 9.998376 
4.2505878e+2, 1.4464052e+2, -1451318.1, -1416834.8, 107289.21, 0.25817835, 0.22628888, -1325410.8, 197135.44, 0.00002257458, 10.000136, 10.000612 
4.250519e+2, 1.5464053e+2, -1319567.5, -1295520.1, 40794.992, 0.017897042, 0.12969542, -1265013.8, 159525.9, 0.0000044461326, 10.000342, 10.000673 
4.250469e+2, 1.6464022e+2, -1295394.9, -1403121.4, 24661.207, -0.024101244, 0.11217244, -1290017.8, 36522.902, 0.00000009724189, 10.0005665, 9.999154 
4.2504305e+2, 1.7463966e+2, -1165809.9, -1293143.4, 19047.06, 0.04900266, 0.12000536, -1163021.8, 65527.375, 0.0, 10.000791, 9.999132 
4.250385e+2, 1.8463935e+2, -1075119.5, -1228664.1, 1586.7476, 0.07517326, 0.19130988, -1075103.0, 55452.293, 0.0, 10.000871, 9.998861 
4.2503336e+2, 1.9463909e+2, -994302.75, -1141624.9, -19053.578, 0.078956455, 0.25641298, -991878.4, 40682.86, 0.0, 10.000759, 9.998842 
4.250284e+2, 2.046385e+2, -902195.75, -1074797.0, 3245.437, 0.08769887, 0.32785425, -902134.75, 32435.447, 0.0, 10.000845, 9.998586 
4.2502344e+2, 2.1463731e+2, -768928.25, -962409.75, 20348.9, 0.08201197, 0.3310002, -766811.3, 69773.23, 0.0, 10.001093, 9.9985695 
4.2501926e+2, 2.2463627e+2, -607460.1, -763424.6, 88890.17, 0.08992186, 0.34406185, -567193.94, 171400.5, 0.0, 10.001242, 9.999183 
4.2501596e+2, 2.3463532e+2, -505939.44, -662264.9, 66212.54, 0.107806794, 0.3052116, -481664.3, 158935.4, 0.0, 10.001254, 9.999202 
4.250114e+2, 2.4463375e+2, -487209.3, -701117.6, 20285.998, 0.081622615, 0.2735795, -485302.5, 57311.23, 0.0, 10.001137, 9.998317 
4.2500532e+2, 2.5463125e+2, -418930.06, -619641.94, 52930.38, 0.0062981667, 0.16978765, -405827.0, 38812.734, 0.0, 10.000936, 9.9983015 
4.2500016e+2, 2.646301e+2, -303919.94, -455273.88, 94596.86, 0.00029845268, 0.2050065, -258454.16, 88197.04, 0.0, 10.00081, 9.99882 
4.249961e+2, 2.746304e+2, -208827.13, -353902.6, 71122.875, 0.08453543, 0.3276328, -179776.55, 68870.56, 0.0, 10.000767, 9.998861 
4.2499143e+2, 2.8462932e+2, -163811.25, -260945.73, 63783.79, 0.12654553, 0.32604623, -132209.0, 18446.82, 0.0000000012455732, 10.000321, 9.999039 
4.2498603e+2, 2.9462638e+2, -186402.0, -220212.55, 78147.89, 0.12416769, 0.10224191, -123351.77, -70670.59, 0.0000019825331, 9.9994755, 9.999056 
4.249781e+2, 3.0462596e+2, -102120.734, -146896.03, 67391.41, -0.121835895, 0.15767522, -53495.652, -53495.652, 0.000019679212, 9.999702, 9.99912 
4.2497566e+2, 3.1462663e+2, 154580.83, 69929.66, 15722.968, 0.25268435, 0.28173435, 157406.84, 157406.84, 0.00007104561, 10.001014, 9.999973 
4.3507364e+2, 1.2464983e+2, -1488438.3, -1744097.5, 112418.35, 0.17394042, 0.22967693, -1446037.8, 272411.3, 0.000112459136, 10.002103, 9.998759 
4.350611e+2, 1.3464895e+2, -1616238.5, -1794290.5, -32223.54, -0.17190298, 0.26155868, -1610586.1, 9875.837, 0.000055857796, 10.000727, 9.998426 
4.3505752e+2, 1.4464836e+2, -1537013.3, -1593444.9, 106492.42, 0.08997783, 0.31748825, -1455062.1, 67406.78, 0.000019900395, 10.000121, 9.9994135 
4.3505186e+2, 1.5464704e+2, -1397873.9, -1469184.5, 59096.35, -0.051253635, 0.20762512, -1364509.8, 59969.613, 0.0000034951138, 10.000377, 9.999471 
4.3504798e+2, 1.6464628e+2, -1299507.9, -1399506.1, 23191.96, 0.0011770116, 0.20572117, -1294391.0, 32095.459, 0.000000032016867, 10.000523, 9.999197 
4.350452e+2, 1.7464626e+2, -1166380.1, -1283517.0, 37141.55, 0.16361111, 0.25926328, -1155596.1, 72893.09, 0.0, 10.00075, 9.999216 
4.350404e+2, 1.84646e+2, -1110581.6, -1282285.6, -10501.046, 0.16107967, 0.34711677, -1109941.8, 20554.031, 0.0, 10.000788, 9.998533 
4.350336e+2, 1.9464529e+2, -1029169.25, -1194104.6, -13875.727, 0.0060720574, 0.40093017, -1028010.06, 4498.22, 0.0, 10.000679, 9.99852 
4.3502867e+2, 2.0464425e+2, -873688.25, -988889.1, 3783.0652, 0.010296973, 0.4142864, -873564.1, 60956.316, 0.0, 10.000733, 9.999228 
4.3502566e+2, 2.1464269e+2, -736097.9, -870183.2, 38326.668, 0.17628096, 0.30932572, -725915.8, 110617.84, 0.0, 10.000993, 9.999248 
4.3502173e+2, 2.2464181e+2, -651269.1, -827984.7, 80608.63, 0.19370137, 0.32418, -620024.06, 118517.17, 0.0, 10.001125, 9.998796 
4.350167e+2, 2.3464157e+2, -549619.7, -728192.4, 74917.32, 0.034737904, 0.39644718, -522352.78, 118191.164, 0.0, 10.001145, 9.998801 
4.350116e+2, 2.4464056e+2, -419487.47, -545703.94, 3799.0586, -0.031686045, 0.3901682, -419373.22, 123179.0, 0.0, 10.001072, 9.999414 
4.3500638e+2, 2.5463855e+2, -349061.0, -456800.06, 53798.89, -0.001969794, 0.21822768, -326797.44, 117770.625, 0.0, 10.000861, 9.9994545 
4.3500158e+2, 2.6463723e+2, -328523.16, -503529.47, 84574.625, 0.042046174, 0.19191445, -294331.34, 52246.773, 0.0, 10.000793, 9.998498 
4.349973e+2, 2.746365e+2, -242953.11, -412208.16, 79925.43, 0.10349015, 0.24998502, -211176.63, 37406.82, 0.0, 10.000705, 9.998494 
4.3499175e+2, 2.846346e+2, -136924.58, -193257.61, 24877.227, 0.104824245, 0.16117077, -127511.46, 23087.55, 0.000000012355592, 10.000282, 9.999516 
4.3498477e+2, 2.9463115e+2, -166393.34, -159720.48, 58997.977, 0.027166268, -0.16460088, -103964.67, -51337.07, 0.0000027662056, 9.999406, 9.999502 
4.3497685e+2, 3.046318e+2, -123270.52, -203179.63, 109433.375, -0.24203718, -0.0048572375, -46726.016, -46726.016, 0.000024180765, 9.999739, 9.99872 
4.3497685e+2, 3.1463417e+2, 143938.77, 58927.08, 47440.18, 0.21748552, 0.33086938, 165130.0, 165130.0, 0.00008333817, 10.000959, 9.9999275 
4.4507515e+2, 1.2465615e+2, -1805426.5, -1821476.6, 87638.85, 0.2561549, 0.254828, -1725446.0, -7058.0415, 0.00010599228, 9.999614, 9.999433 
4.4506225e+2, 1.3465539e+2, -1570997.4, -1709130.0, -121393.05, -0.12025046, 0.24506496, -1500398.3, 119997.49, 0.00005101591, 10.000786, 9.998985 
4.4505796e+2, 1.446544e+2, -1414207.6, -1621657.1, 86343.055, 0.06830005, 0.27097198, -1382973.4, 139432.77, 0.000017295639, 10.001336, 9.998632 
4.4505286e+2, 1.5465271e+2, -1353451.0, -1537037.3, 43841.83, -0.016754983, 0.20598982, -1343518.6, 80904.99, 0.0000027656245, 10.001066, 9.998671 
4.4504923e+2, 1.6465178e+2, -1267247.8, -1414364.3, 37358.66, 0.06510833, 0.23664494, -1258304.6, 68130.1, 0.000000035556127, 10.000854, 9.998943 
4.4504642e+2, 1.7465168e+2, -1192099.0, -1320866.0, 11030.4375, 0.21681623, 0.30640885, -1191161.0, 37277.625, 0.0, 10.000676, 9.998995 
4.450414e+2, 1.8465121e+2, -1141036.5, -1292365.0, -20974.455, 0.19539006, 0.38273165, -1138183.3, -7735.963, 0.0, 10.000563, 9.9985695 
4.4503424e+2, 1.9465004e+2, -1063468.0, -1206508.8, -15696.96, 0.019929696, 0.3870981, -1061765.6, -29301.625, 0.0, 10.000423, 9.998557 
4.450294e+2, 2.0464899e+2, -876264.8, -974935.56, 35826.305, 0.021249454, 0.3908821, -864628.9, 69847.234, 0.0, 10.000667, 9.999349 
4.4502714e+2, 2.1464792e+2, -680528.3, -829457.2, 10453.136, 0.21130843, 0.32480273, -679798.2, 156686.03, 0.0, 10.001325, 9.999364 
4.4502303e+2, 2.2464728e+2, -658870.6, -807272.9, 25605.076, 0.22528271, 0.34490466, -654577.0, 83912.234, 0.0, 10.000961, 9.999017 
4.4501692e+2, 2.3464696e+2, -789925.25, -822805.2, 48216.887, 0.03671537, 0.38745514, -755422.7, -114930.07, 0.0, 9.999395, 9.998997 
4.4501168e+2, 2.4464628e+2, -717194.2, -671201.9, 24582.896, -0.018711006, 0.39540365, -660535.8, -118037.96, 0.0, 9.998946, 9.999574 
4.4500735e+2, 2.5464508e+2, -495987.34, -510985.22, -15652.37, 0.06970586, 0.28817132, -486130.28, -41623.64, 0.0, 9.999779, 9.999602 
4.450026e+2, 2.6464397e+2, -401075.66, -480927.72, 3955.7056, 0.10615892, 0.24866901, -400880.16, -54366.19, 0.0, 10.000056, 9.998999 
4.4499734e+2, 2.746428e+2, -344592.28, -403935.6, 45576.766, 0.0918347, 0.21059148, -319879.7, -71358.36, 0.0, 9.999773, 9.998992 
4.4499162e+2, 2.846411e+2, -213966.05, -270263.06, 13115.122, 0.08451678, 0.13348909, -211060.66, -60525.81, 0.00000003062236, 9.999911, 9.999171 
4.4498527e+2, 2.9463854e+2, -44231.38, -134501.16, -38523.438, 0.09404482, -0.06843944, -30026.455, 22530.516, 0.0000032986038, 10.000388, 9.999199 
4.4497782e+2, 3.046386e+2, 21384.557, -191857.22, 45434.97, -0.17547548, 0.07011181, 30661.684, 30661.684, 0.000027227657, 10.00099, 9.998191 
4.4497755e+2, 3.1463885e+2, 256527.36, 108831.0, -93041.586, 0.16133156, 0.25095704, 301465.94, 301465.94, 0.000091368296, 10.001751, 9.999888 
4.5507354e+2, 1.2466029e+2, -1726039.0, -1659242.5, 161633.0, 0.07678936, 0.20494683, -1527593.3, 190755.55, 0.00010140695, 9.999633, 10.000532 
4.5506373e+2, 1.3465965e+2, -1491921.3, -1557591.4, -69815.84, -0.07632416, 0.1056926, -1447604.5, 172744.1, 0.00004730018, 10.0008335, 10.000004 
4.5505974e+2, 1.4465846e+2, -1438745.0, -1667460.9, 73211.72, 0.0800796, 0.072205186, -1417317.5, 105041.62, 0.000015080613, 10.001323, 9.998321 
4.5505458e+2, 1.5465756e+2, -1383698.3, -1594006.1, 45553.043, 0.024141345, 0.1252527, -1374255.4, 50117.04, 0.0000021144335, 10.001051, 9.998283 
4.550504e+2, 1.6465673e+2, -1304378.9, -1487784.5, 19589.69, 0.07285177, 0.20925844, -1302309.9, 24075.412, 0.00000004449902, 10.000831, 9.998454 
4.550464e+2, 1.7465594e+2, -1223440.8, -1391989.4, 13793.403, 0.120107256, 0.25911617, -1222319.4, 6077.869, 0.0, 10.000693, 9.998502 
4.5504114e+2, 1.8465498e+2, -1125610.3, -1242628.4, -34096.27, 0.093402475, 0.29340437, -1116400.3, 14010.075, 0.0, 10.000494, 9.9989395 
4.550349e+2, 1.9465345e+2, -1049859.6, -1155803.6, -12897.829, 0.023368554, 0.22205195, -1048312.0, -15884.226, 0.0, 10.000337, 9.99894 
4.5503032e+2, 2.0465279e+2, -920282.4, -1043211.94, 49211.633, 0.025234412, 0.26692626, -903009.0, 31427.545, 0.0, 10.000562, 9.998934 
4.5502746e+2, 2.1465304e+2, -728475.75, -896864.25, 45285.54, 0.094115764, 0.37422058, -717069.56, 119366.37, 0.0, 10.001186, 9.998966 
4.5502293e+2, 2.246527e+2, -620693.4, -700182.1, -37389.93, 0.10069635, 0.40504724, -605870.2, 132568.16, 0.0, 10.000839, 9.999816 
4.550164e+2, 2.3465149e+2, -741998.2, -702876.0, 45.82426, 0.026206974, 0.27653491, -702875.94, -62430.203, 0.0, 9.999306, 9.999865 
4.550113e+2, 2.4465092e+2, -782997.1, -785722.56, 44497.82, 0.030903857, 0.286312, -739841.2, -197390.34, 0.0, 9.99886, 9.998829 
4.5500794e+2, 2.5465083e+2, -564273.3, -630006.7, 25121.322, 0.13024493, 0.37425503, -555772.1, -111316.72, 0.0, 9.999683, 9.998833 
4.5500296e+2, 2.646503e+2, -321278.56, -302728.0, -12355.772, 0.11519851, 0.37184656, -296553.5, 49905.348, 0.0, 10.000004, 10.000247 
4.5499602e+2, 2.746492e+2, -264914.7, -221967.66, 46465.492, -0.042791262, 0.20712195, -192253.73, 56207.543, 0.0, 9.999701, 10.000276 
4.5499066e+2, 2.8464875e+2, -295011.3, -430340.56, 22641.584, -0.021456424, 0.24441957, -291323.72, -140860.55, 0.000000022691747, 9.999872, 9.998094 
4.5498717e+2, 2.9464862e+2, -128067.32, -298727.47, -8472.196, 0.21857953, 0.40176043, -127647.76, -75179.48, 0.0000033720132, 10.000335, 9.998103 
4.549806e+2, 3.0464625e+2, -22969.896, -282572.38, 71407.28, -0.01731557, 0.382576, -4624.717, -4624.717, 0.000028360193, 10.000994, 9.997561 
4.5497736e+2, 3.1464052e+2, 239546.27, 87512.25, -72576.05, -0.083097115, 0.028836353, 268628.56, 268628.56, 0.00009465621, 10.001693, 9.999771 
4.650736e+2, 1.24664776e+2, -1537801.0, -1601270.4, 285143.25, 0.055480227, 0.13141246, -1282632.0, 435669.28, 0.000096649455, 10.001038, 10.000256 
4.6506575e+2, 1.3466404e+2, -1423628.5, -1553856.6, -101594.61, 0.02337271, 0.041547142, -1368072.3, 252231.52, 0.00004344866, 10.001393, 9.999771 
4.650609e+2, 1.4466295e+2, -1401013.8, -1615621.0, 3752.3857, 0.063083865, 0.015393862, -1400948.1, 121366.07, 0.000012657647, 10.001436, 9.998624 
4.6505544e+2, 1.5466309e+2, -1345627.3, -1539761.1, 2501.014, 0.0076211304, 0.13822265, -1345595.0, 78722.45, 0.0000014631825, 10.001153, 9.9986105 
4.650509e+2, 1.646625e+2, -1302962.8, -1499455.1, 44149.15, 0.039295193, 0.23692477, -1293498.9, 32828.977, 0.000000030371112, 10.000916, 9.998326 
4.650465e+2, 1.74661e+2, -1226903.3, -1410304.0, 43061.64, 0.06377319, 0.22901759, -1217295.9, 11051.332, 0.0, 10.000751, 9.998348 
4.6504143e+2, 1.8465982e+2, -1094236.0, -1237969.5, 14273.5, 0.06767909, 0.25373372, -1092832.4, 37530.324, 0.0, 10.000743, 9.9988575 
4.6503597e+2, 1.9465876e+2, -979802.2, -1134100.9, -13469.569, 0.07650224, 0.23762916, -978635.2, 53740.938, 0.0, 10.000852, 9.998854 
4.6503147e+2, 2.0465834e+2, -901635.2, -1025609.75, 69185.914, 0.08468155, 0.3061434, -870729.44, 63653.203, 0.0, 10.000642, 9.999019 
4.6502787e+2, 2.1465854e+2, -889952.06, -969589.94, 82258.79, 0.07911305, 0.40253422, -838381.44, -1999.0903, 0.0, 10.000047, 9.999021 
4.6502292e+2, 2.2465806e+2, -748350.8, -756720.2, -12215.064, 0.06523071, 0.41446218, -739623.5, -1237.2642, 0.0, 9.999959, 9.999839 
4.6501637e+2, 2.3465659e+2, -568666.25, -616594.2, -56479.367, 0.035893064, 0.2564645, -531277.25, 109119.195, 0.0, 10.000502, 9.999872 
4.6501142e+2, 2.44656e+2, -531693.2, -672076.94, 25877.584, 0.07219619, 0.2672531, -527074.94, 15326.915, 0.0, 10.000602, 9.998777 
4.6500847e+2, 2.5465626e+2, -492720.28, -601140.75, 48092.848, 0.19180366, 0.39188835, -474462.1, -30058.627, 0.0, 10.000191, 9.998788 
4.650032e+2, 2.646558e+2, -338518.94, -326460.25, -10328.91, 0.14899178, 0.4050605, -320529.7, 25877.549, 0.0, 9.999935, 10.000128 
4.6499524e+2, 2.746544e+2, -260347.42, -234581.84, -77867.29, -0.08756921, 0.22351396, -168538.84, 79875.72, 0.0, 9.999781, 10.000161 
4.649901e+2, 2.8465438e+2, -231991.48, -378365.9, -49117.55, -0.07480973, 0.30035377, -217037.31, -66624.23, 0.00000001636591, 10.000205, 9.998292 
4.6498844e+2, 2.9465556e+2, 46539.98, -181314.31, -142.43512, 0.26269838, 0.5631965, 46540.07, 98945.34, 0.0000038591365, 10.001391, 9.998398 
4.6498308e+2, 3.0465242e+2, 18165.613, -289304.28, 122601.45, 0.11450661, 0.46523753, 61066.242, 61066.242, 0.000029778155, 10.001386, 9.997339 
4.6497834e+2, 3.1464586e+2, -63756.383, -89086.52, -60723.67, -0.043505587, 0.05406967, -14391.067, -14391.067, 0.00009717631, 9.999756, 9.99949 
4.7507453e+2, 1.24669485e+2, -1654779.5, -1819466.6, 285699.1, -0.008017155, 0.03426761, -1439794.3, 278452.38, 0.0000915649, 10.000961, 9.99878 
4.75068e+2, 1.3466863e+2, -1524232.8, -1746334.8, -78383.695, 0.08495451, 0.06311371, -1499356.1, 120904.16, 0.000038474074, 10.0013485, 9.998456 
4.7506115e+2, 1.4466795e+2, -1337782.9, -1483589.4, -13742.811, -0.08232642, 0.10324729, -1336498.8, 185771.58, 0.000009911169, 10.001415, 9.999548 
4.7505513e+2, 1.5466928e+2, -1266362.1, -1386269.9, 1819.3016, -0.16895902, 0.24269235, -1266334.6, 157923.98, 0.0000009593812, 10.001188, 9.999654 
4.7505042e+2, 1.6466905e+2, -1293476.4, -1472107.4, 28603.426, -0.12447896, 0.31387928, -1289008.0, 37255.066, 0.000000014696447, 10.000884, 9.99853 
4.7504646e+2, 1.7466675e+2, -1219871.1, -1388913.1, 47704.145, -0.036984086, 0.21183726, -1207338.1, 20951.172, 0.0, 10.000726, 9.9985075 
4.7504193e+2, 1.846657e+2, -1135293.6, -1309530.5, 11381.983, 0.020777604, 0.2640734, -1134553.3, -4248.518, 0.0, 10.000681, 9.9984 
4.7503713e+2, 1.9466591e+2, -1020077.1, -1207806.8, 1448.4833, 0.08581374, 0.42488682, -1020065.94, 12243.371, 0.0, 10.000804, 9.998374 
4.7503254e+2, 2.046656e+2, -879680.1, -957105.6, 40130.45, 0.110179186, 0.5040886, -862633.3, 71681.39, 0.0, 10.000547, 9.999531 
4.7502804e+2, 2.146645e+2, -867369.94, -896878.06, 68969.81, 0.07372104, 0.41524425, -811593.75, 24729.08, 0.0, 9.999938, 9.999569 
4.7502267e+2, 2.2466338e+2, -813118.75, -875842.44, -1045.8231, 0.025097456, 0.37221396, -813101.3, -74768.39, 0.0, 9.99988, 9.999066 
4.7501642e+2, 2.3466212e+2, -641463.2, -743744.25, -26096.318, -0.028836884, 0.31753555, -635189.7, 5156.321, 0.0, 10.000391, 9.999057 
4.750116e+2, 2.4466144e+2, -496513.13, -579669.75, 4175.303, 0.01225522, 0.3294512, -496304.03, 46047.91, 0.0, 10.000522, 9.999448 
4.7500855e+2, 2.5466126e+2, -458187.72, -511434.3, 42192.99, 0.16126052, 0.34107757, -434920.66, 9430.591, 0.0, 10.000108, 9.999445 
4.750031e+2, 2.6466036e+2, -447580.13, -540350.8, -22878.51, 0.1242303, 0.34484547, -442244.8, -95884.91, 0.0, 9.999883, 9.998682 
4.749947e+2, 2.7465832e+2, -374683.94, -456613.16, -72774.82, -0.14316767, 0.2538165, -332136.44, -83754.81, 0.0, 9.99972, 9.998662 
4.7498965e+2, 2.8465787e+2, -131410.0, -168831.13, -17011.79, -0.16544734, 0.2933856, -124832.5, 25552.908, 0.0000000367379, 10.000197, 9.999737 
4.7498864e+2, 2.9465905e+2, 143242.66, 33377.63, 55386.83, 0.11956162, 0.4026982, 166318.36, 218688.33, 0.000004901276, 10.001319, 9.999913 
4.7498474e+2, 3.0465695e+2, 25530.088, -262828.8, 58474.93, 0.12664531, 0.3142702, 36936.727, 36936.727, 0.000032907166, 10.001337, 9.997542 
4.749799e+2, 3.1465438e+2, -104541.02, -173360.33, -112120.98, 0.08536028, 0.29954427, -21668.375, -21668.375, 0.00010232853, 9.999745, 9.9989195 
4.8507553e+2, 1.2467415e+2, -1750717.1, -1866144.0, 169398.33, 0.04014021, 0.09770431, -1629470.6, 88732.46, 0.00008664265, 10.000286, 9.998795 
4.850691e+2, 1.346736e+2, -1743406.5, -1838708.4, -113375.78, 0.151003, 0.14490928, -1668075.0, -47860.004, 0.000032757685, 9.999764, 9.998601 
4.850607e+2, 1.44673e+2, -1563771.1, -1554179.3, 25773.715, -0.1773564, 0.16890839, -1532759.1, -10535.08, 0.000007215262, 9.999713, 9.999875 
4.8505613e+2, 1.546741e+2, -1378894.0, -1406306.5, -37828.832, -0.13526215, 0.25442347, -1352364.9, 71847.73, 0.00000059770906, 10.0002775, 9.99995 
4.850518e+2, 1.6467392e+2, -1315153.5, -1441112.0, -22438.281, -0.04719304, 0.2956335, -1311275.6, 14939.711, 0.0000000048834687, 10.000559, 9.9988985 
4.8504734e+2, 1.7467195e+2, -1224774.3, -1347773.9, -2566.6958, -0.005735097, 0.18832783, -1224720.8, 3516.3896, 0.0, 10.000513, 9.998885 
4.8504263e+2, 1.8467127e+2, -1116520.9, -1275978.0, 24801.184, 0.028913712, 0.24607897, -1112752.5, 17495.715, 0.0, 10.00071, 9.998608 
4.8503807e+2, 1.946719e+2, -958967.9, -1150366.6, 50512.37, 0.09023197, 0.42519093, -946455.1, 85793.01, 0.0, 10.001119, 9.998604 
4.8503336e+2, 2.0467149e+2, -805931.1, -929010.06, 82187.3, 0.114872225, 0.4860525, -764797.06, 169457.03, 0.0, 10.0010805, 9.9994755 
4.8502845e+2, 2.1466967e+2, -793143.8, -865133.2, 53906.82, 0.097714275, 0.3293653, -764319.0, 71949.97, 0.0, 10.0004635, 9.9995365 
4.8502314e+2, 2.2466855e+2, -779787.7, -893567.5, 29317.348, 0.06657425, 0.30336162, -772677.9, -34397.844, 0.0, 10.000255, 9.998767 
4.8501736e+2, 2.3466806e+2, -644481.3, -781813.6, 25375.49, 0.02605679, 0.35841566, -639942.56, 345.7355, 0.0, 10.000519, 9.998735 
4.850124e+2, 2.446675e+2, -517401.56, -575802.6, 39031.223, 0.055886663, 0.39064586, -497856.78, 44436.684, 0.0, 10.000315, 9.999575 
4.8500842e+2, 2.5466675e+2, -528652.5, -525528.2, 14751.506, 0.17264989, 0.32962763, -512256.34, -67960.55, 0.0, 9.999545, 9.999616 
4.8500288e+2, 2.6466545e+2, -547760.8, -645739.56, 12620.044, 0.14042425, 0.3118611, -546161.4, -199853.77, 0.0, 9.999443, 9.998165 
4.849954e+2, 2.746632e+2, -347279.8, -504358.53, 20810.666, -0.06460645, 0.25363696, -344569.47, -96235.914, 0.0, 10.000166, 9.998119 
4.849904e+2, 2.846622e+2, -125066.734, -156295.55, 81477.82, -0.105542295, 0.2633589, -57720.64, 92623.125, 0.00000008825205, 10.000206, 9.999815 
4.8498857e+2, 2.9466277e+2, -126865.94, -86652.0, 19399.354, 0.0797173, 0.30042663, -78819.3, -26484.898, 0.0000056092463, 9.999425, 9.999997 
4.8498544e+2, 3.0466172e+2, -138609.45, -230939.53, 12353.7295, 0.15450393, 0.2677596, -136985.1, -136985.1, 0.000035389916, 9.999733, 9.998521 
4.849813e+2, 3.1466195e+2, 148523.3, 954.43585, -124364.67, 0.18350002, 0.42466173, 219344.23, 219344.23, 0.00010599746, 10.001259, 9.999375 
4.9507582e+2, 1.2467874e+2, -1652687.9, -1656837.0, 79562.1, -0.014308157, 0.31586352, -1575173.3, 142997.53, 0.000079155536, 10.000273, 10.000234 
4.9506876e+2, 1.3467893e+2, -1626796.4, -1601306.9, -124272.72, 0.119568445, 0.2774271, -1489127.1, 131040.81, 0.000026309019, 9.999786, 10.000217 
4.9505913e+2, 1.4467809e+2, -1593554.3, -1608116.3, 35504.3, -0.3321399, 0.21026099, -1564592.1, -42416.816, 0.0000047383246, 9.999682, 9.999517 
4.950581e+2, 1.5467763e+2, -1411953.1, -1472687.9, -7666.7925, 0.008761558, 0.18312135, -1411000.3, 13178.887, 0.0000002991547, 10.00027, 9.999496 
4.9505484e+2, 1.6467717e+2, -1279576.6, -1358332.6, -33883.113, 0.1760469, 0.19357955, -1267005.8, 59178.094, 0.0000000005507737, 10.000516, 9.99949 
4.9504885e+2, 1.7467657e+2, -1183047.9, -1256318.6, 3872.9229, 0.074253015, 0.1590529, -1182843.8, 45347.113, 0.0, 10.00049, 9.999525 
4.9504337e+2, 1.8467645e+2, -1063710.5, -1150724.4, 30948.816, 0.0074652345, 0.19768652, -1053825.6, 76367.984, 0.0, 10.000642, 9.999501 
4.9503854e+2, 1.9467665e+2, -904019.5, -1023806.0, 71841.22, 0.00067699945, 0.24280903, -870380.06, 161813.45, 0.0, 10.001059, 9.999506 
4.9503362e+2, 2.0467596e+2, -854486.5, -1007537.0, 49821.695, 0.018932605, 0.25290853, -839697.4, 94504.1, 0.0, 10.000981, 9.998988 
4.9502873e+2, 2.1467412e+2, -845127.7, -953337.06, 39653.414, 0.063153334, 0.14920783, -832152.5, 4067.6094, 0.0, 10.000369, 9.998983 
4.9502382e+2, 2.2467354e+2, -788801.25, -886042.44, 31589.793, 0.093003124, 0.20188566, -779440.2, -41212.105, 0.0, 10.000149, 9.998865 
4.9501887e+2, 2.3467432e+2, -653569.75, -770443.8, 45108.555, 0.10492263, 0.3698625, -638184.94, 2039.8032, 0.0, 10.000396, 9.998871 
4.950135e+2, 2.446741e+2, -553101.7, -633102.5, 2727.8987, 0.11435447, 0.44778994, -553008.75, -10781.629, 0.0, 10.000246, 9.999214 
4.9500772e+2, 2.546726e+2, -566241.75, -585344.6, -5483.1475, 0.123242006, 0.34958768, -564779.8, -120541.88, 0.0, 9.99947, 9.999241 
4.9500224e+2, 2.64671e+2, -524921.44, -587567.9, 28029.303, 0.10936289, 0.30163172, -514211.47, -167960.2, 0.0, 9.999397, 9.998588 
4.9499688e+2, 2.7466908e+2, -330951.16, -446232.0, 58698.79, 0.04679244, 0.22502369, -306323.9, -58053.582, 0.0, 10.000068, 9.998564 
4.9499196e+2, 2.8466758e+2, -224367.72, -348493.7, 48044.29, 0.0071532372, 0.22653984, -207944.61, -57658.21, 0.00000018947561, 10.000151, 9.998519 
4.9498782e+2, 2.9466668e+2, -229676.42, -289213.47, 3589.6392, 0.035450604, 0.26122957, -229460.78, -177162.52, 0.000005650319, 9.999385, 9.998621 
4.9498504e+2, 3.0466676e+2, -6634.8535, 31967.535, 60580.402, 0.11399911, 0.32332858, 76247.164, 76247.164, 0.00003451672, 9.999763, 10.0003195 
4.9498165e+2, 3.146686e+2, 249127.81, 213494.73, -29493.24, 0.038351007, 0.44245633, 265768.22, 265768.22, 0.00010174547, 10.001235, 10.000849 
5.050752e+2, 1.2468273e+2, -1769010.9, -1667577.9, 176707.08, -0.044181116, 0.31043094, -1534453.3, 183679.28, 0.00006651573, 9.999304, 10.000621 
5.050705e+2, 1.346834e+2, -1431678.1, -1464757.3, -84095.13, 0.26734993, 0.2830412, -1362511.5, 257612.77, 0.00001955312, 10.000941, 10.000605 
5.0506e+2, 1.4468284e+2, -1356891.9, -1480073.0, 39545.055, -0.2833564, 0.21963076, -1345289.5, 176839.03, 0.0000028130235, 10.001255, 9.999639 
5.0505877e+2, 1.5468208e+2, -1422470.6, -1464235.3, 10159.326, 0.06075537, 0.15298842, -1420130.5, 4004.7932, 0.00000011765629, 10.000156, 9.999604 
5.0505537e+2, 1.6468185e+2, -1376942.6, -1375967.1, 27020.807, 0.22370994, 0.16710114, -1349429.6, -23291.93, 0.000000000026416515, 9.99971, 9.999758 
5.0504947e+2, 1.7468204e+2, -1250943.4, -1261273.9, 19821.016, 0.12104715, 0.18542884, -1235625.6, -7488.394, 0.0, 9.99989, 9.999784 
5.050439e+2, 1.84682e+2, -1161433.1, -1168206.6, 27858.852, 0.045008037, 0.2060558, -1136756.0, -6617.3125, 0.0, 9.999849, 9.9997635 
5.050389e+2, 1.9468151e+2, -1104727.9, -1089704.3, 5612.2573, 0.015590076, 0.15901533, -1087839.3, -55695.4, 0.0, 9.999563, 9.999769 
5.05034e+2, 2.0468105e+2, -993932.4, -1064910.3, -111.90223, 0.014363798, 0.17527072, -993932.2, -59782.688, 0.0, 9.999989, 9.999064 
5.0502926e+2, 2.1468051e+2, -738156.7, -892047.56, 14088.877, 0.04828167, 0.1941935, -736877.44, 99279.72, 0.0, 10.0010805, 9.999051 
5.050245e+2, 2.2468016e+2, -612883.25, -813723.1, 25010.932, 0.08907244, 0.27143982, -609815.44, 128347.66, 0.0, 10.001397, 9.998767 
5.050198e+2, 2.3467992e+2, -606203.9, -756862.8, 5950.349, 0.1435484, 0.3475356, -605969.2, 34198.77, 0.0, 10.00076, 9.998788 
5.0501436e+2, 2.4467897e+2, -524782.56, -678641.2, -26430.443, 0.15555361, 0.3809028, -520368.88, 21808.684, 0.0, 10.0007, 9.998681 
5.0500816e+2, 2.5467697e+2, -321820.0, -530550.56, -63795.16, 0.12885492, 0.28943664, -303866.3, 140328.53, 0.0, 10.001417, 9.998682 
5.0500286e+2, 2.6467568e+2, -220923.34, -401571.25, -26797.129, 0.14197335, 0.28371862, -217032.1, 129173.55, 0.0, 10.001319, 9.998941 
5.0499827e+2, 2.74675e+2, -280833.3, -382811.3, -28693.332, 0.18092495, 0.29724064, -273314.3, -25102.928, 0.00000000061010413, 10.000239, 9.9989195 
5.0499314e+2, 2.8467336e+2, -272596.47, -426828.38, 16703.14, 0.1265248, 0.28839007, -270808.28, -120579.945, 0.00000027597625, 10.000054, 9.998032 
5.049877e+2, 2.9467082e+2, -47047.547, -264176.7, 16480.754, 0.015146256, 0.205447, -45803.734, 6452.9067, 0.0000049916057, 10.000911, 9.998065 
5.049852e+2, 3.0467072e+2, 160957.19, 91017.72, 63407.992, 0.10124725, 0.29579136, 198399.16, 198399.16, 0.000030276777, 10.001028, 10.000116 
5.049823e+2, 3.1467232e+2, 99017.74, 139814.45, -199297.22, 0.03617397, 0.41215637, 319754.5, 319754.5, 0.000090525835, 10.000207, 10.000854 
5.1507276e+2, 1.2468607e+2, -1816478.3, -1768055.9, 117159.586, -0.27511916, 0.084668756, -1672632.0, 45457.223, 0.00005196835, 9.999312, 9.999923 
5.15074e+2, 1.3468707e+2, -1484078.8, -1580379.8, -9334.32, 0.50174534, 0.16529532, -1483182.3, 136901.28, 0.000013925394, 10.000967, 9.999798 
5.150631e+2, 1.4468731e+2, -1319746.0, -1399769.5, -11241.121, -0.1325332, 0.19794498, -1318196.9, 203886.16, 0.000001645238, 10.001236, 10.000202 
5.150578e+2, 1.5468737e+2, -1378360.6, -1374209.5, -20314.842, -0.07171483, 0.1530851, -1355864.5, 68217.19, 0.00000003629146, 10.000158, 10.000224 
5.150531e+2, 1.6468781e+2, -1393442.1, -1392953.8, 26352.34, 0.0041793585, 0.20438816, -1366844.5, -40765.95, 0.0, 9.999642, 9.999668 
5.150488e+2, 1.7468837e+2, -1264204.3, -1281184.9, 36743.77, 0.04120513, 0.2684774, -1234982.6, -6906.666, 0.0, 9.999864, 9.999656 
5.1504403e+2, 1.8468803e+2, -1192616.9, -1223709.8, 7387.6904, 0.045386225, 0.28297254, -1190950.9, -60869.14, 0.0, 9.999808, 9.999401 
5.15039e+2, 1.9468649e+2, -1134479.0, -1146692.5, 4987.2505, 0.03912213, 0.16601092, -1132701.3, -100602.67, 0.0, 9.999532, 9.999395 
5.150342e+2, 2.0468666e+2, -974117.9, -995466.2, 31046.355, 0.013755832, 0.23782448, -951961.94, -17862.875, 0.0, 9.99987, 9.999595 
5.150297e+2, 2.1468863e+2, -713159.9, -816678.8, 63673.605, -0.033868805, 0.4476931, -682862.2, 153220.14, 0.0, 10.000975, 9.99962 
5.150249e+2, 2.2468819e+2, -644918.75, -854154.0, -7489.288, -0.02549901, 0.4982088, -644651.0, 93436.21, 0.0, 10.001286, 9.998544 
5.150197e+2, 2.3468493e+2, -638459.06, -799369.0, -10104.912, 0.043218993, 0.2975714, -637826.94, 2290.5896, 0.0, 10.000659, 9.998545 
5.150145e+2, 2.4468221e+2, -579541.4, -781815.94, -9695.62, 0.08221605, 0.20001067, -579077.75, -36934.176, 0.0, 10.000652, 9.997997 
5.150094e+2, 2.5467995e+2, -382542.66, -636431.0, -24983.678, 0.08543751, 0.14984699, -380107.53, 64058.53, 0.0, 10.0013275, 9.997997 
5.150044e+2, 2.646796e+2, -213630.75, -375266.75, -72686.04, 0.14441301, 0.26152495, -185752.8, 160417.48, 0.0, 10.001276, 9.999144 
5.1499945e+2, 2.7468103e+2, -272977.3, -351736.63, -56610.14, 0.24756758, 0.46890768, -243397.08, 4760.092, 0.0000000018853024, 10.000179, 9.999164 
5.149938e+2, 2.846796e+2, -252449.4, -383028.22, 37118.5, 0.16024107, 0.4538278, -242635.61, -92465.93, 0.00000034894228, 10.000044, 9.998338 
5.149877e+2, 2.9467508e+2, -34733.695, -229705.56, 60775.586, -0.10461461, 0.13644817, -17340.654, 34868.977, 0.000004315403, 10.000869, 9.998321 
5.149856e+2, 3.0467355e+2, -270.51892, -237230.9, 30247.918, 0.013474283, 0.18062279, 3529.6733, 3529.6733, 0.000026122347, 10.001013, 9.997868 
5.1498264e+2, 3.1467295e+2, -23561.334, -80292.16, -171306.55, 0.011692004, 0.30987585, 121712.33, 121712.33, 0.00008115159, 10.000082, 9.999393 
5.250722e+2, 1.2469038e+2, -1792266.5, -1757919.3, 7228.036, -0.25846833, 0.025177617, -1756460.1, -38416.53, 0.000041741798, 9.999468, 9.999919 
5.2507466e+2, 1.346913e+2, -1740244.1, -1703693.8, 6776.4546, 0.5642716, 0.0968353, -1702477.9, -82438.305, 0.000010470756, 9.999202, 9.999801 
5.2506363e+2, 1.4469193e+2, -1582172.8, -1503235.4, 17823.56, -0.10165569, 0.15645419, -1499397.5, 22638.76, 0.0000009776196, 9.999339, 10.000402 
5.25058e+2, 1.5469284e+2, -1386401.0, -1355735.8, -46208.227, -0.056441195, 0.17500891, -1322382.8, 101644.75, 0.000000005050013, 10.000001, 10.000425 
5.2505296e+2, 1.6469355e+2, -1305671.8, -1341342.1, 16033.684, 0.006168239, 0.24126613, -1299524.3, 26497.762, 0.0, 10.000203, 9.99976 
5.250486e+2, 1.7469382e+2, -1249842.5, -1265544.8, 20050.857, 0.03350014, 0.2702228, -1236160.5, -8138.3086, 0.0, 9.999923, 9.999741 
5.2504396e+2, 1.8469344e+2, -1145231.5, -1220122.4, 33273.773, 0.047148164, 0.28740603, -1132584.0, -2555.4438, 0.0, 10.000215, 9.999235 
5.250395e+2, 1.9469218e+2, -932241.4, -1063750.1, 24496.41, 0.06843945, 0.21685076, -927826.56, 104216.516, 0.0, 10.000999, 9.999254 
5.2503484e+2, 2.0469229e+2, -807811.25, -919270.44, 52330.883, 0.03751128, 0.29120865, -787092.75, 146951.38, 0.0, 10.001018, 9.99957 
5.2503e+2, 2.1469378e+2, -838998.9, -878489.3, 24596.092, -0.05182049, 0.45715737, -827203.0, 8828.463, 0.0, 10.00011, 9.999612 
5.250252e+2, 2.2469322e+2, -810187.9, -920594.3, -36456.824, -0.058392882, 0.48809472, -799236.0, -61198.957, 0.0, 10.000105, 9.99865 
5.2502036e+2, 2.3469004e+2, -567063.9, -757032.1, -33252.293, 0.027639832, 0.2865289, -561411.5, 78654.48, 0.0, 10.001115, 9.998619 
5.250154e+2, 2.4468744e+2, -489842.25, -724524.9, 11718.936, 0.088126145, 0.19115525, -489258.53, 52831.707, 0.0, 10.001202, 9.99813 
5.2501047e+2, 2.546854e+2, -532119.06, -693722.0, 38921.215, 0.12010009, 0.15138178, -523233.63, -79123.695, 0.0, 10.000236, 9.998133 
5.250054e+2, 2.646847e+2, -407249.4, -543050.6, 18360.672, 0.170519, 0.25492835, -404810.78, -58692.35, 0.0, 10.000271, 9.99847 
5.250001e+2, 2.7468523e+2, -132024.08, -356532.34, -52098.75, 0.23510398, 0.4380456, -120523.33, 127593.586, 0.00000000009174081, 10.001478, 9.998493 
5.249946e+2, 2.846838e+2, 32824.14, -209485.22, 29173.684, 0.15595295, 0.44024408, 36287.117, 186416.73, 0.00000033351301, 10.001853, 9.998652 
5.2498925e+2, 2.9468015e+2, 35649.117, -164034.5, 27286.953, -0.050399367, 0.1791173, 39310.76, 91469.02, 0.0000041082662, 10.001208, 9.998608 
5.249872e+2, 3.0467802e+2, -115470.53, -358882.6, 48608.215, 0.11328503, 0.17571643, -106122.695, -106122.695, 0.000024723933, 10.000499, 9.997283 
5.24983e+2, 3.146761e+2, -97208.81, -128618.75, -38659.46, 0.068942785, 0.23757139, -71186.09, -71186.09, 0.000077842684, 9.999615, 9.999291 
5.350727e+2, 1.24695405e+2, -1730661.3, -1636686.9, -153924.33, -0.21335372, 0.10822997, -1522737.8, 195260.17, 0.000035627574, 9.999508, 10.000728 
5.35072e+2, 1.3469607e+2, -1684388.8, -1584394.4, 3478.5208, 0.3636157, 0.07454559, -1584273.5, 35719.06, 0.000008273398, 9.99919, 10.0006275 
5.3506124e+2, 1.4469664e+2, -1600068.6, -1532813.1, 34409.945, -0.30503902, 0.09737264, -1518327.8, 3660.4905, 0.00000061502607, 9.999307, 10.000212 
5.35059e+2, 1.5469845e+2, -1404692.8, -1392311.1, -10750.4, 0.014637281, 0.2224845, -1386096.4, 37876.203, 0.00000000036285042, 9.999993, 10.000176 
5.3505474e+2, 1.6469908e+2, -1295530.0, -1312001.3, -5709.7817, 0.13979383, 0.28392953, -1293744.3, 32223.617, 0.0, 10.000167, 9.999981 
5.3504854e+2, 1.7469835e+2, -1232090.6, -1231483.3, 19111.498, 0.01472286, 0.18950179, -1212673.0, 15303.335, 0.0, 9.999928, 9.999977 
5.3504354e+2, 1.8469816e+2, -1151452.4, -1221560.6, 53776.594, -0.04152165, 0.21297076, -1122313.6, 7665.939, 0.0, 10.000167, 9.999245 
5.350401e+2, 1.9469844e+2, -943874.2, -1076324.4, 64119.34, 0.0077984794, 0.29509076, -917919.8, 114058.93, 0.0, 10.000943, 9.999199 
5.350356e+2, 2.0469788e+2, -859492.3, -1000837.9, 10773.747, -0.009367035, 0.329455, -858675.8, 75309.68, 0.0, 10.000912, 9.999057 
5.350299e+2, 2.1469621e+2, -890992.0, -964128.3, -1320.6456, -0.09665014, 0.23267578, -890968.2, -54965.81, 0.0, 10.000011, 9.999071 
5.350251e+2, 2.2469535e+2, -801213.8, -878571.7, -9962.047, -0.09636049, 0.24759576, -799951.5, -61940.156, 0.0, 10.000004, 9.998988 
5.350215e+2, 2.3469523e+2, -555665.2, -709099.25, 13120.904, 0.0041626636, 0.31024477, -554551.25, 85462.164, 0.0, 10.001011, 9.998996 
5.3501683e+2, 2.4469455e+2, -435829.0, -596235.5, -29954.941, 0.08805522, 0.34510696, -430417.66, 111600.87, 0.0, 10.001137, 9.999041 
5.350111e+2, 2.5469318e+2, -477317.0, -565525.06, 13125.777, 0.14429334, 0.27997363, -475405.28, -31377.227, 0.0, 10.0001745, 9.9990425 
5.350055e+2, 2.6469094e+2, -515347.53, -763218.7, 53275.55, 0.13160144, 0.25817415, -504382.0, -158331.05, 0.0, 10.000248, 9.99697 
5.349998e+2, 2.7468753e+2, -249563.42, -589517.56, 6455.2773, 0.032722328, 0.19923152, -249440.89, -1349.5598, 0.0, 10.001422, 9.996925 
5.349954e+2, 2.8468585e+2, 48956.83, -169551.92, 334.15482, 0.01468554, 0.2435686, 48957.34, 199066.52, 0.00000019037492, 10.00183, 9.998936 
5.3499216e+2, 2.9468605e+2, 48251.477, -119631.39, 16166.567, 0.09355363, 0.33285883, 49794.086, 101896.85, 0.0000040138116, 10.001136, 9.998945 
5.3499e+2, 3.0468413e+2, -44500.605, -216628.95, 12725.358, 0.309581, 0.2900085, -43564.914, -43564.914, 0.000024880646, 10.0005045, 9.9982605 
5.349824e+2, 3.1468168e+2, -4719.2085, 51808.164, -8116.1455, -0.006793173, 0.18850167, 52950.395, 52950.395, 0.000077454766, 9.999645, 10.000521 
5.450731e+2, 1.24701306e+2, -1859717.9, -1716183.9, -123204.95, -0.074103326, 0.16286457, -1645367.8, 72574.56, 0.000030309948, 9.998699, 10.000595 
5.450706e+2, 1.3470183e+2, -1485458.3, -1496553.3, 33869.523, 0.24401791, 0.1303192, -1456684.9, 163252.98, 0.000006366235, 10.000596, 10.000558 
5.450607e+2, 1.4470191e+2, -1387379.0, -1452944.3, 16788.053, -0.3625728, 0.11827276, -1383330.4, 138607.16, 0.00000037085837, 10.0008545, 10.000024 
5.4505944e+2, 1.5470311e+2, -1471589.5, -1442417.6, -51111.66, 0.094375275, 0.20033996, -1403851.5, 20075.0, 0.00000000007720086, 9.999611, 10.000018 
5.4505557e+2, 1.647034e+2, -1418511.1, -1389230.4, -11295.861, 0.24892108, 0.2428517, -1385379.3, -59454.69, 0.0, 9.9994135, 9.999805 
5.450489e+2, 1.7470261e+2, -1191734.0, -1228498.3, -36023.934, 0.048354253, 0.16201311, -1169673.3, 58260.47, 0.0, 10.000292, 9.999816 
5.450438e+2, 1.8470238e+2, -1068634.1, -1195502.3, 260.08304, -0.053259324, 0.19282971, -1068633.6, 61303.754, 0.0, 10.000776, 9.999141 
5.450406e+2, 1.9470263e+2, -959308.94, -1093213.8, -13614.337, -0.02387284, 0.28048283, -957938.75, 73997.33, 0.0, 10.000864, 9.999125 
5.450363e+2, 2.047017e+2, -873975.4, -1021190.5, -70303.35, -0.019163936, 0.28971452, -845795.75, 88149.59, 0.0, 10.0008745, 9.998938 
5.4503083e+2, 2.1469927e+2, -797772.9, -930317.0, -69074.56, -0.034215543, 0.12907577, -768319.94, 67648.54, 0.0, 10.000708, 9.998967 
5.450263e+2, 2.246984e+2, -699291.06, -792905.06, -11421.287, -0.005569799, 0.1309049, -697917.8, 40059.22, 0.0, 10.000541, 9.99932 
5.4502285e+2, 2.3469909e+2, -623606.06, -705445.9, -8015.12, 0.07499466, 0.24409197, -622828.5, 17142.633, 0.0, 10.000385, 9.999327 
5.4501814e+2, 2.4469908e+2, -501970.03, -634502.94, -88429.09, 0.12566116, 0.33189657, -457733.34, 84237.4, 0.0, 10.000711, 9.99898 
5.450119e+2, 2.5469816e+2, -274503.56, -475120.97, -142253.23, 0.13656768, 0.31795746, -200749.58, 243228.4, 0.0, 10.001607, 9.99897 
5.450062e+2, 2.6469582e+2, -311269.7, -642397.3, -56847.133, 0.11964241, 0.27948335, -301782.16, 44219.6, 0.0, 10.001559, 9.997166 
5.4500115e+2, 2.7469164e+2, -368608.8, -622796.3, 11074.232, 0.08099695, 0.12352288, -368127.28, -120080.63, 0.0, 10.000499, 9.997142 
5.449968e+2, 2.8468996e+2, -229927.23, -321871.06, 62983.27, 0.07705934, 0.16551639, -197922.81, -47858.508, 0.00000011177434, 10.0, 9.998774 
5.4499304e+2, 2.94691e+2, -100386.38, -203480.36, 20548.498, 0.12312456, 0.35884547, -96441.63, -44389.11, 0.0000045059896, 10.00019, 9.998819 
5.4499054e+2, 3.046889e+2, -11609.801, -119095.47, 5957.0825, 0.33084422, 0.2655394, -11280.654, -11280.654, 0.000026381855, 10.000387, 9.998979 
5.449834e+2, 3.146871e+2, 123335.15, 175824.17, -50606.56, 0.112303965, 0.15611286, 206586.66, 206586.66, 0.00007890932, 10.000275, 10.001058 
5.550724e+2, 1.2470826e+2, -1926771.9, -1849070.4, -179625.16, -0.056760572, 0.2249604, -1704142.5, 13732.601, 0.000026661139, 9.998689, 9.999679 
5.5507016e+2, 1.3470861e+2, -1558750.5, -1639471.8, 109744.85, 0.1206405, 0.27091634, -1482179.9, 137695.58, 0.0000052899522, 10.00057, 9.999586 
5.5506176e+2, 1.4470771e+2, -1395672.8, -1471715.3, -39937.85, -0.3650631, 0.2156306, -1378551.9, 143332.53, 0.00000021782215, 10.000856, 9.999897 
5.5505925e+2, 1.5470684e+2, -1475244.0, -1457380.9, -85775.61, 0.090136595, 0.10484281, -1380073.1, 43816.05, 0.00000000000011946363, 9.999631, 9.999914 
5.550551e+2, 1.6470651e+2, -1460213.6, -1471321.0, 10864.498, 0.23439373, 0.11861423, -1453565.6, -127673.86, 0.0, 9.9994, 9.999245 
5.550494e+2, 1.747066e+2, -1237760.9, -1317810.0, 6268.5347, 0.04822502, 0.18126336, -1237273.0, -9378.3125, 0.0, 10.000266, 9.999216 
5.550446e+2, 1.847061e+2, -1089513.9, -1223251.0, -3908.7024, -0.06964573, 0.2257228, -1089399.8, 40501.727, 0.0, 10.00071, 9.998983 
5.5504084e+2, 1.9470479e+2, -979982.4, -1124034.8, -586.0605, -0.11019173, 0.17614518, -979980.0, 51934.516, 0.0, 10.000804, 9.998948 
5.550367e+2, 2.0470378e+2, -865568.4, -981051.4, -83210.83, -0.080335714, 0.17019692, -822027.5, 111896.11, 0.0, 10.000781, 9.999255 
5.550325e+2, 2.1470287e+2, -791539.56, -893959.8, -65040.68, 0.038421925, 0.1300279, -759968.25, 75962.15, 0.0, 10.000601, 9.99927 
5.5502826e+2, 2.247022e+2, -697226.1, -759025.4, -25462.867, 0.12050711, 0.12071424, -688086.44, 49848.813, 0.0, 10.00042, 9.999608 
5.550242e+2, 2.3470163e+2, -621255.8, -671560.1, -2335.354, 0.15546067, 0.08013917, -621147.6, 18791.295, 0.0, 10.000263, 9.999617 
5.550189e+2, 2.447011e+2, -588739.6, -798104.4, -62473.906, 0.11546937, 0.15245622, -571514.7, -29568.475, 0.0, 10.000635, 9.997898 
5.5501235e+2, 2.547004e+2, -364250.72, -641931.1, -97812.13, -0.005397384, 0.26997903, -333256.25, 110703.33, 0.0, 10.001521, 9.997867 
5.550073e+2, 2.6469925e+2, -183571.33, -369251.28, -102750.96, 0.050402444, 0.31668276, -137930.19, 208041.16, 0.0, 10.001528, 9.999055 
5.55004e+2, 2.746975e+2, -242059.05, -346049.53, -19248.566, 0.29228324, 0.20903203, -238610.52, 9372.834, 0.0, 10.000441, 9.999069 
5.549989e+2, 2.8469607e+2, -274233.1, -412822.7, 58700.348, 0.26124218, 0.20900327, -252712.14, -102716.52, 0.00000024371042, 9.999989, 9.998158 
5.5499154e+2, 2.9469487e+2, -149282.36, -301914.56, 40195.113, -0.07688014, 0.2457738, -139344.22, -87334.52, 0.0000058589785, 10.000165, 9.998162 
5.5498856e+2, 3.0469215e+2, 16723.465, -57103.33, -1615.7473, 0.0730755, 0.10155534, 16758.81, 16758.81, 0.000029984647, 10.000377, 9.999408 
5.549856e+2, 3.1469202e+2, 104108.234, 143035.92, -9977.565, 0.24920124, 0.114521, 145444.28, 145444.28, 0.00008416486, 10.000234, 10.000857 
5.6507164e+2, 1.24713816e+2, -1903112.3, -1860788.3, -216499.08, -0.0012726266, 0.2160459, -1664419.4, 53400.586, 0.000022362967, 9.998931, 9.999478 
5.650701e+2, 1.3471407e+2, -1716338.6, -1732481.6, 154401.67, 0.10824116, 0.26072946, -1569797.6, 50024.133, 0.000004259607, 9.99954, 9.999442 
5.6506354e+2, 1.4471291e+2, -1527724.3, -1566034.4, 586.1693, -0.22580814, 0.20196147, -1527715.4, -5882.2964, 0.00000013010742, 10.000086, 9.999621 
5.650591e+2, 1.5471166e+2, -1312056.4, -1403015.5, -78186.0, 0.055260062, 0.082455225, -1267084.6, 156755.58, 0.0, 10.000869, 9.999688 
5.650544e+2, 1.6471109e+2, -1239084.3, -1419291.6, 57478.027, 0.15105033, 0.104989216, -1222312.3, 103532.95, 0.0, 10.001138, 9.998775 
5.6505024e+2, 1.7471097e+2, -1184143.6, -1342058.0, 43223.996, 0.08072207, 0.19330792, -1173086.6, 54764.203, 0.0, 10.000843, 9.998772 
5.650459e+2, 1.8471023e+2, -1130782.6, -1237788.3, 43564.395, 0.006441062, 0.23396826, -1115289.6, 14570.456, 0.0, 10.000413, 9.999019 
5.6504136e+2, 1.9470868e+2, -1127662.6, -1183016.5, 47829.414, -0.0788093, 0.14961325, -1100079.5, -68204.516, 0.0, 9.999752, 9.999039 
5.650372e+2, 2.0470765e+2, -1005448.25, -1053780.5, 3784.957, -0.065060794, 0.14078154, -1005153.6, -71269.79, 0.0, 9.999842, 9.99921 
5.650335e+2, 2.1470714e+2, -774030.6, -885786.7, -23084.06, 0.081908144, 0.14314274, -769450.2, 66437.02, 0.0, 10.000735, 9.999257 
5.650293e+2, 2.2470637e+2, -645589.75, -772637.06, -27700.943, 0.16200274, 0.1428004, -639812.6, 98080.25, 0.0, 10.000936, 9.999267 
5.650246e+2, 2.3470517e+2, -636958.3, -713583.9, -69462.27, 0.1726491, 0.0713322, -595943.5, 43959.098, 0.0, 10.000306, 9.9993 
5.650193e+2, 2.4470422e+2, -661750.4, -810551.6, -54769.05, 0.123684205, 0.10943178, -643765.4, -101851.695, 0.0, 10.000059, 9.998077 
5.6501335e+2, 2.5470325e+2, -528684.2, -702915.3, -12064.601, 0.013946489, 0.18472825, -527852.75, -83923.35, 0.0, 10.000318, 9.998026 
5.650085e+2, 2.647025e+2, -291550.0, -373446.28, -35761.99, 0.077427305, 0.23659869, -278132.06, 67805.234, 0.0, 10.000579, 9.999482 
5.6500494e+2, 2.747018e+2, -149756.77, -247391.08, -86659.28, 0.328189, 0.19313382, -99110.63, 148826.39, 0.0, 10.000853, 9.999542 
5.649996e+2, 2.8470063e+2, -177058.13, -376684.94, -17535.86, 0.30498588, 0.19679984, -175529.44, -25582.502, 0.00000046127252, 10.000686, 9.998074 
5.6499225e+2, 2.946988e+2, -169268.8, -324305.25, -8674.624, -0.010187878, 0.17748618, -168784.95, -116815.805, 0.000007820285, 10.000068, 9.998059 
5.649888e+2, 3.046963e+2, -151281.33, -122445.39, -36914.598, 0.12184473, 0.054401807, -97233.0, -97233.0, 0.00003595913, 9.999161, 9.999542 
5.649852e+2, 3.146968e+2, -290998.66, -66844.945, -101321.484, 0.33451602, 0.11501661, -27834.855, -27834.855, 0.000094486146, 9.997624, 10.00066 
5.7507014e+2, 1.2471785e+2, -1863460.3, -1780761.0, -262224.3, -0.096893094, 0.121413685, -1556646.1, 161131.94, 0.000015098279, 9.998943, 10.000014 
5.750697e+2, 1.3471812e+2, -1669998.9, -1637786.4, 177199.84, 0.09951451, 0.10213991, -1475962.3, 143815.17, 0.0000026568694, 9.999541, 10.000089 
5.7506573e+2, 1.4471753e+2, -1559373.1, -1624227.6, 13153.62, -0.043091986, 0.08464705, -1556806.9, -35023.574, 0.000000050157187, 10.000061, 9.999232 
5.750587e+2, 1.5471755e+2, -1345712.4, -1466651.0, -39340.734, -0.09535682, 0.1323443, -1334041.3, 89739.445, 0.0, 10.000847, 9.999263 
5.7505345e+2, 1.6471705e+2, -1262630.3, -1461215.6, 35344.15, -0.082226306, 0.19674833, -1256527.3, 69258.805, 0.0, 10.001103, 9.998503 
5.75051e+2, 1.7471573e+2, -1209365.3, -1390273.1, 40751.184, 0.055248275, 0.19494061, -1200609.4, 27193.098, 0.0, 10.000819, 9.998454 
5.750473e+2, 1.8471482e+2, -1117279.4, -1196398.6, 12032.865, 0.08388643, 0.22178306, -1115489.9, 14322.996, 0.0, 10.000362, 9.999325 
5.750419e+2, 1.947142e+2, -1116700.4, -1141028.6, 32834.715, -0.024277937, 0.20065887, -1093849.0, -62030.883, 0.0, 9.999674, 9.999363 
5.750373e+2, 2.0471331e+2, -1047531.5, -1116154.1, 25485.367, -0.053948194, 0.2053454, -1039102.06, -105275.78, 0.0, 9.999734, 9.998833 
5.7503366e+2, 2.14712e+2, -820992.4, -956871.9, 19639.766, 0.006382787, 0.16896749, -818210.6, 17628.447, 0.0, 10.00062, 9.998826 
5.750292e+2, 2.2471087e+2, -720729.6, -905622.9, -58212.35, 0.034522153, 0.19659, -703928.56, 33921.695, 0.0, 10.000832, 9.9984045 
5.750237e+2, 2.3470975e+2, -714095.0, -850650.3, -82584.45, 0.028071418, 0.222041, -675218.44, -35356.85, 0.0, 10.000203, 9.99841 
5.750189e+2, 2.4470843e+2, -570388.5, -615382.0, -55620.105, 0.053247254, 0.20299082, -532887.75, 8985.917, 0.0, 10.000024, 9.999439 
5.750148e+2, 2.5470674e+2, -437875.38, -499323.94, 8354.621, 0.1064255, 0.06237543, -436759.72, 7128.689, 0.0, 10.000248, 9.999459 
5.750098e+2, 2.6470545e+2, -360833.72, -520089.0, -34290.36, 0.12199298, 0.03996619, -353764.25, -7864.6216, 0.0, 10.000575, 9.998485 
5.750036e+2, 2.7470446e+2, -226120.56, -403922.3, -69045.88, 0.082326524, 0.06834436, -202457.23, 45451.633, 0.0, 10.000824, 9.998489 
5.7499856e+2, 2.8470358e+2, -145228.88, -301351.97, -50540.0, 0.10866225, 0.12825423, -130296.35, 19622.566, 0.0000006054728, 10.0006485, 9.99861 
5.7499486e+2, 2.947027e+2, -137035.44, -245786.73, -18309.543, 0.21882989, 0.15141736, -134035.56, -82104.6, 0.000009307056, 10.000022, 9.998618 
5.7499087e+2, 3.0470133e+2, -165188.17, -155787.05, -97138.484, 0.393017, 0.12336761, -63235.46, -63235.46, 0.000040671366, 9.999167, 9.99932 
5.749819e+2, 3.14701e+2, -308425.66, -108815.91, -133823.23, 0.18856214, 0.1239362, -41678.656, -41678.656, 0.000103750725, 9.997627, 10.000384 
5.850695e+2, 1.2472203e+2, -1814705.5, -1758039.1, -249959.92, -0.062324814, 0.08757427, -1534811.8, 182926.7, 0.000008007214, 9.999252, 10.000034 
5.8506906e+2, 1.3472283e+2, -1585293.5, -1582522.6, 112795.07, 0.05436348, 0.11251368, -1471104.5, 148626.88, 0.0000012151539, 10.000057, 10.000224 
5.850677e+2, 1.4472248e+2, -1506648.3, -1627595.6, -40009.91, 0.12793227, 0.12680022, -1494610.9, 27123.805, 0.000000012980553, 10.000557, 9.998959 
5.8505994e+2, 1.5472202e+2, -1313677.3, -1481982.1, -104329.54, -0.06488711, 0.15199967, -1263791.4, 159946.44, 0.0, 10.001201, 9.998976 
5.850541e+2, 1.6472109e+2, -1253783.3, -1453279.8, -39403.293, -0.12762521, 0.18516572, -1246282.6, 79464.57, 0.0, 10.00115, 9.998531 
5.850512e+2, 1.7471944e+2, -1273108.1, -1412596.0, -28600.895, 0.019181166, 0.14500949, -1267471.5, -39706.273, 0.0, 10.000348, 9.998523 
5.8504754e+2, 1.8471862e+2, -1129801.0, -1193696.9, -14728.556, 0.08821614, 0.17271776, -1126569.4, 3204.6123, 0.0, 10.000236, 9.999409 
5.850429e+2, 1.9471855e+2, -942731.8, -1049027.6, -30735.404, 0.058918245, 0.20046544, -934484.6, 97289.63, 0.0, 10.000828, 9.999445 
5.8503836e+2, 2.0471786e+2, -853280.0, -1027357.4, 1051.8864, 0.019501202, 0.22214854, -853273.7, 80506.98, 0.0, 10.001084, 9.998791 
5.8503413e+2, 2.1471635e+2, -769961.5, -937438.75, 7211.7124, -0.022776863, 0.16754143, -769651.5, 66143.98, 0.0, 10.000985, 9.998785 
5.850294e+2, 2.2471513e+2, -715034.56, -900498.56, -32915.89, -0.02073995, 0.18873331, -709365.94, 28441.313, 0.0, 10.0008745, 9.99842 
5.850241e+2, 2.34714e+2, -630148.8, -813016.7, -12446.392, 0.027190108, 0.21545847, -629305.56, 10512.489, 0.0, 10.000788, 9.998396 
5.8501947e+2, 2.4471265e+2, -521215.56, -593976.94, 23626.928, 0.10028242, 0.19438834, -514216.7, 27613.92, 0.0, 10.000365, 9.99942 
5.850157e+2, 2.547109e+2, -515955.06, -536051.94, -38815.918, 0.20086722, 0.051427264, -485908.03, -42061.96, 0.0, 9.999709, 9.99946 
5.8501047e+2, 2.647098e+2, -492273.7, -556488.7, -51343.4, 0.18935229, 0.03220677, -463825.13, -117968.8, 0.0, 9.999574, 9.998708 
5.8500373e+2, 2.747091e+2, -313826.06, -422341.7, -7046.0225, 0.0496627, 0.07045134, -313370.47, -65507.523, 0.0, 10.000131, 9.9986925 
5.8499855e+2, 2.847085e+2, -232179.05, -328237.56, 20400.902, 0.084060945, 0.14095919, -228025.88, -78154.89, 0.00000055145284, 9.999993, 9.998736 
5.849955e+2, 2.9470792e+2, -283370.63, -305627.7, -4054.6287, 0.33848843, 0.18250714, -282655.0, -230774.06, 0.000008783807, 9.998978, 9.998707 
5.849909e+2, 3.0470696e+2, -196384.08, -162545.53, -50261.78, 0.50459146, 0.19036826, -126431.72, -126431.72, 0.000039667964, 9.998914, 9.999387 
5.8497983e+2, 3.1470683e+2, 21833.945, 73346.1, -96566.94, 0.11803103, 0.19791996, 147532.75, 147532.75, 0.00010388018, 9.999803, 10.000574 
5.950693e+2, 1.2472611e+2, -1826231.3, -1786358.6, -210704.05, -0.06474232, 0.10661249, -1594649.9, 123053.14, 0.0000033727015, 9.99929, 9.999813 
5.950676e+2, 1.3472816e+2, -1608921.4, -1630331.3, 142761.17, -0.11019489, 0.2855749, -1476464.3, 143219.1, 0.00000044999516, 10.000061, 9.999893 
5.950691e+2, 1.4472774e+2, -1520551.6, -1651253.0, -30548.67, 0.18770194, 0.3170632, -1513764.0, 7922.896, 0.000000014541682, 10.000533, 9.998806 
5.950625e+2, 1.5472512e+2, -1330419.8, -1511632.0, -72014.58, 0.0438792, 0.14157182, -1305286.6, 118424.33, 0.0, 10.001177, 9.998786 
5.95056e+2, 1.6472332e+2, -1236431.8, -1403755.3, -77914.4, -0.07564935, 0.082738936, -1205769.6, 119957.73, 0.0, 10.001098, 9.998896 
5.9505045e+2, 1.7472215e+2, -1248446.8, -1354276.5, -48770.82, -0.11141502, 0.051848058, -1229399.3, -1660.999, 0.0, 10.000321, 9.998936 
5.9504646e+2, 1.8472162e+2, -1144825.1, -1216441.8, -4166.6113, -0.06553849, 0.0912262, -1144583.6, -14840.01, 0.0, 10.000196, 9.999272 
5.95044e+2, 1.9472164e+2, -965499.25, -1079038.6, 211.4266, 0.066366754, 0.14367644, -965498.9, 66245.21, 0.0, 10.000754, 9.999274 
5.950401e+2, 2.0472129e+2, -841316.06, -979871.75, -11117.763, 0.06021984, 0.18864146, -840429.6, 93317.67, 0.0, 10.000986, 9.999165 
5.950346e+2, 2.1472026e+2, -759733.2, -889383.3, 14042.733, -0.0919954, 0.14795645, -758229.6, 77526.055, 0.0, 10.000871, 9.999172 
5.950298e+2, 2.2471923e+2, -667656.5, -784926.8, -46381.39, -0.09115305, 0.12640667, -651529.94, 86233.34, 0.0, 10.0007925, 9.999256 
5.9502554e+2, 2.3471792e+2, -586387.44, -698612.6, -6383.5596, 0.074679874, 0.050009374, -586025.5, 53746.87, 0.0, 10.000681, 9.999236 
5.9502083e+2, 2.4471682e+2, -623096.06, -797469.06, -9197.857, 0.17180648, 0.07734877, -622612.25, -80827.22, 0.0, 10.0003195, 9.998051 
5.950156e+2, 2.5471583e+2, -624268.25, -746749.7, -55617.55, 0.19618589, 0.15039569, -602782.06, -158979.52, 0.0, 9.999641, 9.998049 
5.9501034e+2, 2.6471555e+2, -398652.22, -353743.75, -41155.2, 0.19196123, 0.2171768, -329315.75, 16491.318, 0.0, 9.999541, 10.000117 
5.950049e+2, 2.7471575e+2, -218441.16, -211562.81, 25483.385, 0.13408573, 0.19799896, -189287.58, 58511.863, 0.0, 10.000076, 10.000168 
5.949993e+2, 2.8471538e+2, -260045.5, -377798.97, -25665.67, 0.14003642, 0.23404898, -254694.53, -104891.53, 0.0000003359344, 9.99996, 9.998408 
5.9499377e+2, 2.9471427e+2, -317855.5, -363219.94, -33637.164, 0.23866606, 0.25624642, -299967.5, -248147.36, 0.000006914508, 9.99892, 9.998334 
5.949887e+2, 3.0471307e+2, -178629.36, -117660.02, -25230.03, 0.3681134, 0.24201362, -108573.625, -108573.625, 0.000035638073, 9.99888, 9.999715 
5.9497833e+2, 3.147143e+2, 62131.203, 168919.64, -29606.744, -0.072329514, 0.3564742, 176578.69, 176578.69, 0.00009897654, 9.999755, 10.001254 
6.050704e+2, 1.2472981e+2, -1557210.9, -1661244.8, -154222.72, 0.039211623, 0.14375025, -1446469.1, 271201.2, 0.0000011596172, 10.001146, 9.999791 
6.0506696e+2, 1.3473184e+2, -1472632.5, -1563995.6, 111244.01, -0.22153112, 0.3287265, -1398055.9, 221593.45, 0.00000014603442, 10.0010195, 9.999873 
6.050698e+2, 1.4473163e+2, -1536192.0, -1631590.6, -27098.932, 0.22331765, 0.37108815, -1529031.6, -7381.147, 0.0000000031309833, 10.0003, 9.9990635 
6.050638e+2, 1.5472913e+2, -1560690.8, -1591000.3, -58306.86, 0.1481331, 0.18410152, -1515601.4, -91927.23, 0.0, 9.999458, 9.999076 
6.0505724e+2, 1.6472745e+2, -1462532.5, -1496207.4, -26642.53, 0.030028548, 0.11350951, -1447852.9, -122163.664, 0.0, 9.999458, 9.999058 
6.050511e+2, 1.7472643e+2, -1237327.3, -1333972.1, -33225.42, -0.08164597, 0.08104862, -1227006.8, 690.79285, 0.0, 10.000322, 9.999083 
6.0504687e+2, 1.8472575e+2, -1090542.0, -1209614.0, 22117.465, -0.059260037, 0.10821583, -1086566.5, 43137.258, 0.0, 10.000659, 9.999095 
6.0504484e+2, 1.9472532e+2, -1028250.56, -1129059.5, 6893.1396, 0.1006601, 0.1327541, -1027781.4, 3927.5955, 0.0, 10.000409, 9.999098 
6.050411e+2, 2.0472497e+2, -927188.1, -975025.2, 3674.95, 0.10657838, 0.16644572, -926907.5, 6804.1655, 0.0, 10.000198, 9.999583 
6.050354e+2, 2.1472442e+2, -861752.7, -890254.56, 12850.416, -0.05153596, 0.13242394, -856814.5, -21100.744, 0.0, 9.999958, 9.999608 
6.050306e+2, 2.2472359e+2, -769596.7, -805383.4, -37729.027, -0.041775238, 0.09616991, -745733.0, -8014.278, 0.0, 9.999974, 9.999505 
6.050267e+2, 2.3472218e+2, -624147.2, -682806.7, -61749.746, 0.15358278, -0.01620985, -585115.6, 54613.246, 0.0, 10.000293, 9.99952 
6.0502183e+2, 2.4472156e+2, -604536.4, -776685.44, -32081.803, 0.24082676, 0.039367072, -598752.0, -57014.555, 0.0, 10.000427, 9.998132 
6.050157e+2, 2.5472158e+2, -508591.1, -684139.44, 13428.214, 0.21249454, 0.21013886, -507569.88, -63823.98, 0.0, 10.000422, 9.998102 
6.0501033e+2, 2.6472136e+2, -322381.63, -315646.1, 58470.758, 0.21623003, 0.28438407, -260446.2, 85303.82, 0.0, 10.000043, 10.000147 
6.050056e+2, 2.747208e+2, -341746.72, -268369.75, -3116.2744, 0.24733208, 0.1821978, -268237.63, -20486.902, 0.0, 9.999204, 10.000206 
6.049995e+2, 2.8472033e+2, -345354.6, -365434.1, -58101.805, 0.20598109, 0.18553147, -296431.5, -146677.78, 0.00000016006682, 9.999138, 9.998893 
6.04992e+2, 2.9471996e+2, -135341.63, -219510.78, -22591.768, 0.12330461, 0.23290059, -129661.164, -77900.82, 0.0000052467194, 9.999926, 9.998842 
6.0498714e+2, 3.0471858e+2, -88318.03, -138385.84, 8882.512, 0.2837854, 0.20430626, -86788.89, -86788.89, 0.000031333126, 9.999786, 9.999137 
6.049789e+2, 3.1471968e+2, -178708.33, -41808.637, -101784.97, 0.088537656, 0.36933926, 12401.866, 12401.866, 0.000092264556, 9.998506, 10.000423 
6.150726e+2, 1.2473332e+2, -1534439.6, -1613814.1, -103522.59, 0.095907755, 0.21714492, -1463257.6, 254380.61, 0.000000319301, 10.001157, 10.000102 
6.150667e+2, 1.3473395e+2, -1465595.3, -1544183.4, 108945.66, -0.37394762, 0.24802142, -1389074.0, 230554.77, 0.000000018009526, 10.001008, 10.00001 
6.1506957e+2, 1.447341e+2, -1489176.4, -1538803.4, -77506.08, 0.13759705, 0.29061058, -1432608.6, 89017.22, 0.0, 10.000308, 9.9997 
6.1506355e+2, 1.5473394e+2, -1506551.1, -1492581.1, -82340.0, 0.15586239, 0.26996845, -1416930.4, 6697.8076, 0.0, 9.9995, 9.999738 
6.150575e+2, 1.6473338e+2, -1467837.5, -1499232.1, -6028.1714, 0.09242626, 0.27542266, -1466719.9, -141086.34, 0.0, 9.999432, 9.999048 
6.150527e+2, 1.7473213e+2, -1242806.1, -1345021.6, 8437.82, 0.022157714, 0.2257491, -1242114.3, -14469.848, 0.0, 10.000317, 9.99901 
6.150485e+2, 1.8473098e+2, -1114784.1, -1242803.8, 5176.837, 0.016111093, 0.21745525, -1114575.1, 15080.064, 0.0, 10.000587, 9.9988985 
6.1504525e+2, 1.947297e+2, -1052429.0, -1166093.1, 8132.618, 0.074500985, 0.17779668, -1051850.0, -20182.158, 0.0, 10.000349, 9.998874 
6.150411e+2, 2.0472907e+2, -907684.4, -912483.0, -13760.17, 0.06991224, 0.17198375, -896115.94, 37556.242, 0.0, 10.000105, 10.000056 
6.1503613e+2, 2.1472889e+2, -846183.5, -831371.5, 12837.758, 0.007080742, 0.12544714, -823956.7, 11712.386, 0.0, 9.999842, 10.00007 
6.1503154e+2, 2.2472826e+2, -806878.25, -860641.8, -33297.563, 0.038835082, 0.101033345, -790965.7, -53292.566, 0.0, 9.999874, 9.999175 
6.150274e+2, 2.3472688e+2, -663989.4, -741110.2, -39332.105, 0.17316014, 0.02560013, -647468.75, -7782.157, 0.0, 10.000184, 9.999172 
6.1502224e+2, 2.4472684e+2, -511623.88, -571222.1, -42781.168, 0.2167206, 0.08586782, -489286.47, 52401.3, 0.0, 10.000369, 9.999572 
6.1501575e+2, 2.5472805e+2, -414456.22, -475207.44, 21080.264, 0.15399343, 0.22366688, -407858.13, 35818.953, 0.0, 10.00036, 9.999568 
6.1501014e+2, 2.6472726e+2, -421783.78, -512573.34, 18898.563, 0.17466232, 0.23077324, -418007.0, -72321.33, 0.0, 10.000004, 9.998812 
6.150054e+2, 2.7472416e+2, -453957.3, -480441.13, -22767.59, 0.2797857, 0.0155417835, -440860.8, -193143.5, 0.0, 9.999119, 9.998787 
6.1499864e+2, 2.8472337e+2, -260262.7, -180681.14, -39517.832, 0.18467772, -0.0060497094, -164391.94, -14668.905, 0.00000012615395, 9.999101, 10.000178 
6.1498976e+2, 2.9472506e+2, -44762.094, -15591.113, 17979.016, -0.12180842, 0.11147577, -7025.3276, 44675.23, 0.000004351736, 9.999864, 10.000268 
6.149858e+2, 3.0472365e+2, -201767.42, -373770.38, -44621.754, 0.15225017, 0.08078335, -190880.53, -190880.53, 0.000027327982, 9.999778, 9.997535 
6.14981e+2, 3.147229e+2, -351100.2, -385814.22, -106774.945, 0.39031747, 0.23858589, -260280.69, -260280.69, 0.00008383067, 9.998448, 9.99809 
6.250746e+2, 1.2473777e+2, -1312406.6, -1561235.4, 72260.445, 0.10807075, 0.21765515, -1292944.3, 424647.28, 0.00000004128188, 10.002893, 9.999641 
6.2506723e+2, 1.3473698e+2, -1629760.8, -1689618.6, 101552.42, -0.36724746, 0.16689815, -1553818.9, 65777.95, 0.000000000001578113, 10.00014, 9.999448 
6.2506974e+2, 1.4473669e+2, -1656767.5, -1602057.8, -33387.145, 0.19189443, 0.18655479, -1586250.3, -64651.305, 0.0, 9.999085, 9.999855 
6.2506354e+2, 1.5473752e+2, -1331268.0, -1381854.1, -85262.57, 0.15469438, 0.24396838, -1267626.0, 155966.11, 0.0, 10.000614, 9.999947 
6.25058e+2, 1.6473752e+2, -1177578.6, -1377377.9, -8476.915, 0.0911883, 0.304172, -1177219.6, 148373.28, 0.0, 10.001508, 9.998881 
6.250541e+2, 1.7473646e+2, -1079945.0, -1279274.3, -29110.197, 0.084647685, 0.28826082, -1075780.8, 151823.25, 0.0, 10.0015135, 9.998875 
6.250499e+2, 1.8473534e+2, -1025786.75, -1176263.1, -40985.07, 0.07364027, 0.28027865, -1015347.9, 114266.79, 0.0, 10.001073, 9.99913 
6.25045e+2, 1.9473389e+2, -1075455.6, -1146145.9, -21087.469, 0.037685342, 0.19704577, -1069643.0, -38015.45, 0.0, 10.000051, 9.999154 
6.250405e+2, 2.0473337e+2, -960900.94, -918712.7, 5497.299, 0.02510066, 0.18084066, -918008.1, 15621.953, 0.0, 9.99965, 10.000236 
6.250364e+2, 2.1473362e+2, -823324.56, -794661.06, -6641.174, 0.05794563, 0.15514673, -793197.1, 42426.645, 0.0, 9.999893, 10.000295 
6.2503195e+2, 2.2473332e+2, -800711.25, -821610.2, -25844.18, 0.096876554, 0.13922419, -783284.0, -45659.637, 0.0, 9.999766, 9.999494 
6.250268e+2, 2.3473223e+2, -778022.44, -763636.06, -187.57628, 0.14450125, 0.06096477, -763633.6, -123998.88, 0.0, 9.999255, 9.999471 
6.2502134e+2, 2.4473223e+2, -639891.06, -569572.25, 22110.938, 0.15673167, 0.08282516, -563197.56, -21563.889, 0.0, 9.999196, 10.000156 
6.250155e+2, 2.5473326e+2, -469310.56, -433591.3, 816.95886, 0.12847844, 0.14731811, -433572.63, 10048.49, 0.0, 9.999682, 10.000182 
6.2500995e+2, 2.6473257e+2, -474821.56, -582860.1, -15094.639, 0.16891477, 0.14857818, -472752.25, -127123.5, 0.0, 9.999829, 9.99841 
6.250047e+2, 2.7472964e+2, -419214.56, -512824.44, -4732.872, 0.2827681, -0.005227065, -418975.88, -171314.38, 0.0, 9.999559, 9.998351 
6.24998e+2, 2.847288e+2, -214808.66, -141796.05, 31383.99, 0.20100424, -0.016044987, -130160.22, 19508.49, 0.000000116905284, 9.999345, 10.000332 
6.249897e+2, 2.9473022e+2, -122506.13, -39734.92, -24442.531, -0.07680272, 0.05624378, -33055.926, 18592.256, 0.000004287332, 9.999255, 10.000408 
6.249856e+2, 3.0472928e+2, -230755.48, -307027.38, -65181.066, 0.19098505, 0.03238858, -193373.73, -193373.73, 0.000025852014, 9.999244, 9.99824 
6.2498003e+2, 3.1472883e+2, -226759.7, -299637.38, 33753.01, 0.42296627, 0.14433782, -213529.08, -213529.08, 0.00007867894, 9.999186, 9.998321 
6.350763e+2, 1.2474301e+2, -1387506.4, -1725197.1, 25486.459, -0.07294315, 0.1427801, -1385593.6, 331938.44, 0.000000010756334, 10.002933, 9.998495 
6.350683e+2, 1.3474089e+2, -1720191.8, -1877942.9, -7335.4663, -0.30046937, 0.08585509, -1719851.4, -100296.94, 0.0, 10.000141, 9.9981575 
6.3507e+2, 1.4473948e+2, -1675573.5, -1634056.3, 4545.0728, 0.28463146, 0.0700976, -1633564.5, -111995.17, 0.0, 9.999062, 9.999644 
6.350635e+2, 1.5473984e+2, -1342532.9, -1411861.6, -13518.192, 0.06463271, 0.10247499, -1339990.3, 83575.62, 0.0, 10.000636, 9.999735 
6.350582e+2, 1.6473982e+2, -1206428.3, -1428363.4, -16818.363, -0.05969655, 0.18749422, -1205161.0, 120406.82, 0.0, 10.00147, 9.998549 
6.3505524e+2, 1.747393e+2, -1105148.0, -1332220.9, -19752.045, 0.02212634, 0.26064488, -1103442.8, 124134.23, 0.0, 10.001506, 9.998521 
6.3505065e+2, 1.847387e+2, -984129.9, -1076012.3, -87079.695, 0.021732843, 0.28734574, -931615.7, 197967.67, 0.0, 10.00102, 9.999842 
6.3504386e+2, 1.9473778e+2, -1034793.1, -1046457.2, -51648.402, -0.10070816, 0.18283825, -988648.5, 42940.508, 0.0, 9.999985, 9.999871 
6.350389e+2, 2.0473777e+2, -982543.7, -935617.9, 3664.972, -0.11066918, 0.18493356, -935333.4, -1746.5157, 0.0, 9.999531, 10.000175 
6.35036e+2, 2.1473856e+2, -848728.5, -813133.1, 12644.508, 0.0088371895, 0.22110277, -809098.7, 26479.283, 0.0, 9.999749, 10.000236 
6.350313e+2, 2.2473878e+2, -750069.94, -693494.5, -53128.07, 0.044743843, 0.21273047, -661592.6, 75980.25, 0.0, 9.9996605, 10.000426 
6.3502455e+2, 2.3473811e+2, -725429.25, -631836.5, -8087.5933, -0.025307791, 0.08133953, -631142.75, 8431.505, 0.0, 9.999153, 10.000427 
6.350189e+2, 2.4473768e+2, -668366.44, -613620.0, 31732.748, -0.03158853, 0.025285805, -599085.44, -57510.08, 0.0, 9.999133, 9.999884 
6.3501453e+2, 2.5473735e+2, -502896.13, -485562.2, 28283.248, 0.04346352, -0.02046654, -464647.75, -21069.902, 0.0, 9.999603, 9.999865 
6.3500947e+2, 2.6473734e+2, -447728.6, -510498.9, -34319.38, 0.11608821, 0.0425339, -432607.3, -87028.21, 0.0, 9.999769, 9.998933 
6.3500327e+2, 2.7473742e+2, -396435.97, -439964.2, -3932.513, 0.16300271, 0.13524698, -396083.53, -148501.45, 0.0, 9.999459, 9.998896 
6.349972e+2, 2.8473678e+2, -284809.4, -282709.28, 15341.547, 0.16257028, 0.1632032, -268381.9, -118791.83, 0.0000001448745, 9.999324, 9.999377 
6.349914e+2, 2.9473543e+2, -207525.47, -195414.16, -15187.7, 0.14134346, 0.06296951, -185119.36, -133516.67, 0.000005079309, 9.999181, 9.99937 
6.349861e+2, 3.047357e+2, -24251.396, 114860.47, -71596.47, 0.2873708, 0.07118023, 145124.78, 145124.78, 0.000027855136, 9.999257, 10.00114 
6.349752e+2, 3.1473747e+2, -53345.79, 83382.266, 86275.91, -0.02973398, 0.09914155, 125096.266, 125096.266, 0.00008145653, 9.999087, 10.001 
6.4507926e+2, 1.247482e+2, -1511240.3, -1806057.9, 10077.814, -0.02058387, 0.15317264, -1510896.1, 206583.81, 0.0000000047013002, 10.002172, 9.998311 
6.4506996e+2, 1.3474627e+2, -1429968.5, -1744851.3, -55945.742, -0.23945422, 0.12481309, -1420323.9, 199176.28, 0.0, 10.002195, 9.99806 
6.450702e+2, 1.4474432e+2, -1337804.0, -1522516.1, 81652.8, 0.27609658, 0.08430314, -1306884.6, 214635.52, 0.0, 10.001605, 9.999185 
6.450644e+2, 1.5474391e+2, -1380117.8, -1480122.6, 21903.256, 0.09340583, 0.08620019, -1375530.9, 47994.27, 0.0, 10.000597, 9.999285 
6.450592e+2, 1.6474351e+2, -1392653.4, -1482752.5, 40997.92, -0.02779923, 0.14097817, -1376790.8, -51260.145, 0.0, 10.000037, 9.998869 
6.4505583e+2, 1.7474301e+2, -1301927.8, -1386772.6, 74175.164, 0.015628662, 0.18256894, -1258900.6, -31362.73, 0.0, 9.999986, 9.99888 
6.450508e+2, 1.8474269e+2, -1131699.0, -1137999.8, 9987.092, -0.003852966, 0.21711518, -1124377.3, 5164.173, 0.0, 9.99997, 9.999921 
6.450436e+2, 1.9474234e+2, -1040926.25, -1040221.6, -24427.506, -0.115961574, 0.16273548, -1016143.9, 15399.076, 0.0, 9.999911, 9.999946 
6.4503837e+2, 2.0474255e+2, -983604.44, -922151.8, 39195.766, -0.106648184, 0.17525677, -903074.4, 30465.17, 0.0, 9.999468, 10.000293 
6.4503545e+2, 2.1474314e+2, -1019069.3, -888006.8, 39814.594, 0.048905663, 0.18009338, -876859.8, -41327.082, 0.0, 9.998543, 10.000303 
6.450308e+2, 2.2474353e+2, -891581.1, -719218.44, 299.017, 0.09094303, 0.16777778, -719217.94, 18307.32, 0.0, 9.998501, 10.000811 
6.4502406e+2, 2.3474354e+2, -652593.25, -549259.25, -19155.697, 0.0019436955, 0.059479408, -545822.56, 93696.164, 0.0, 9.99945, 10.000847 
6.450182e+2, 2.4474317e+2, -604052.75, -625328.9, 9807.748, -0.031991486, 0.009275522, -600221.5, -58702.18, 0.0, 9.999766, 9.999501 
6.4501363e+2, 2.5474232e+2, -558997.4, -553967.25, -14970.92, 0.010422901, -0.04600214, -541301.6, -97772.59, 0.0, 9.999404, 9.999492 
6.4500856e+2, 2.6474243e+2, -466710.53, -464790.97, -59723.777, 0.07440763, 0.023381092, -406019.25, -60489.87, 0.0, 9.999391, 9.999436 
6.4500284e+2, 2.7474335e+2, -310071.34, -340242.22, -52367.023, 0.16444017, 0.14646444, -270660.22, -23137.912, 0.000000000000000000046744374, 9.999794, 9.999428 
6.449968e+2, 2.8474295e+2, -269794.56, -298083.6, -8357.686, 0.19351573, 0.1780944, -267509.9, -117981.84, 0.00000034821963, 9.999522, 9.999173 
6.4499056e+2, 2.94741e+2, -336138.06, -289508.5, -4030.7896, 0.1828797, 0.041064877, -289162.63, -237614.03, 0.0000068469953, 9.998416, 9.999096 
6.4498466e+2, 3.04742e+2, -159314.73, 85828.21, -64215.27, 0.28495473, 0.12611723, 101630.75, 101630.75, 0.00003364889, 9.998195, 10.001436 
6.4497364e+2, 3.1474358e+2, -21366.879, 173271.67, -141190.88, -0.080284454, 0.098352216, 247433.89, 247433.89, 0.000093640454, 9.999003, 10.001642 
6.550832e+2, 1.2475343e+2, -1448535.0, -1668410.8, 44897.574, 0.11075915, 0.24896692, -1439720.5, 277713.66, 0.000000001405694, 10.002152, 9.999259 
6.5507203e+2, 1.3475303e+2, -1353837.1, -1588647.4, -52959.0, -0.2803482, 0.27284965, -1342445.4, 276988.97, 0.0, 10.002211, 9.99912 
6.550701e+2, 1.4475113e+2, -1389401.5, -1630327.6, 29602.613, 0.083041996, 0.21360442, -1385817.5, 135635.44, 0.0, 10.001604, 9.998449 
6.550657e+2, 1.5474968e+2, -1438933.3, -1602265.8, -5850.8423, 0.14230561, 0.19341037, -1438724.0, -15253.317, 0.0, 10.000589, 9.998457 
6.550606e+2, 1.6474852e+2, -1325165.0, -1334283.5, 27806.643, 0.08329186, 0.16597156, -1301546.3, 23935.555, 0.0, 10.000002, 9.999899 
6.5505564e+2, 1.7474759e+2, -1228383.8, -1233324.5, 82353.7, -0.028723065, 0.055323604, -1148463.4, 79023.516, 0.0, 9.999981, 9.999932 
6.5505016e+2, 1.8474734e+2, -1176440.5, -1217529.0, -1533.6765, -0.08639709, 0.06908458, -1176383.3, -46894.668, 0.0, 9.999913, 9.999402 
6.550439e+2, 1.9474767e+2, -1086969.6, -1120319.3, -15387.754, -0.102534026, 0.13555224, -1080954.5, -49465.652, 0.0, 9.999848, 9.999425 
6.5503865e+2, 2.0474775e+2, -982041.7, -900287.94, -3538.8926, -0.04955388, 0.15466774, -900135.06, 33352.844, 0.0, 9.999383, 10.000487 
6.5503454e+2, 2.1474734e+2, -1018649.7, -859799.2, 14343.762, 0.079750925, 0.036357034, -858514.4, -23026.15, 0.0, 9.998427, 10.000551 
6.5503e+2, 2.2474761e+2, -923097.0, -755532.3, 24506.693, 0.1475706, 0.008805159, -752021.7, -14540.529, 0.0, 9.998381, 10.000615 
6.55025e+2, 2.3474842e+2, -687075.8, -588285.25, 25383.094, 0.13560379, 0.0023635617, -582145.0, 57323.254, 0.0, 9.999317, 10.000639 
6.550192e+2, 2.4474867e+2, -647457.4, -694562.75, -14004.931, 0.067899145, 0.04287108, -643608.1, -102142.586, 0.0, 9.999678, 9.999067 
6.550124e+2, 2.5474814e+2, -601578.94, -622029.0, -18554.057, -0.06912022, 0.06176488, -590618.94, -147143.47, 0.0, 9.999322, 9.999061 
6.55007e+2, 2.647478e+2, -433022.97, -392733.34, -55570.965, -0.041900996, 0.083727464, -353768.56, -8288.396, 0.0, 9.999373, 9.999943 
6.550031e+2, 2.747475e+2, -279782.84, -268097.13, -24988.354, 0.17464766, 0.034283668, -248277.64, -796.4101, 0.0000000002377775, 9.999743, 9.999952 
6.549964e+2, 2.8474733e+2, -237599.06, -216038.34, -57729.176, 0.17511287, 0.035537332, -168091.58, -18609.87, 0.0000008000927, 9.999467, 9.999757 
6.5498674e+2, 2.9474708e+2, -312862.72, -215050.9, -33606.34, -0.06721891, 0.0041538537, -204617.34, -153133.2, 0.000010270006, 9.998318, 9.999648 
6.549811e+2, 3.047484e+2, -322800.72, -264126.72, -42721.43, 0.0743785, 0.21362674, -241639.22, -241639.22, 0.00004390313, 9.998224, 9.999029 
6.5497476e+2, 3.1474692e+2, -128253.66, -46470.344, -68608.27, 0.07142025, 0.12842557, -7491.966, -7491.966, 0.00011355579, 9.998987, 10.000148 
6.6508543e+2, 1.2475759e+2, -1368200.0, -1609520.3, 149852.22, 0.11252532, 0.1604037, -1296468.5, 420922.03, 0.00000000035571668, 10.002608, 9.999442 
6.650748e+2, 1.3475813e+2, -1423957.6, -1589892.3, -77927.99, -0.17875099, 0.24191815, -1393099.0, 226283.83, 0.0, 10.001567, 9.999434 
6.650711e+2, 1.4475667e+2, -1502951.1, -1660698.9, 30795.436, 0.07141438, 0.20040338, -1497152.4, 24245.207, 0.0, 10.000729, 9.998659 
6.6506606e+2, 1.5475541e+2, -1425425.3, -1571286.6, 48820.754, 0.1263872, 0.17810388, -1410593.0, 12820.376, 0.0, 10.000587, 9.998665 
6.6506076e+2, 1.6475458e+2, -1241958.9, -1262565.6, 136467.56, 0.07904529, 0.15812966, -1115406.4, 210014.58, 0.0, 10.000442, 10.000181 
6.6505593e+2, 1.74754e+2, -1174453.1, -1173080.0, 110996.54, -0.005554485, 0.054596677, -1062767.9, 164653.42, 0.0, 10.000202, 10.000237 
6.650504e+2, 1.8475387e+2, -1196939.4, -1243641.4, 25582.836, -0.044821523, 0.07075898, -1185652.9, -56230.67, 0.0, 9.999855, 9.999246 
6.650439e+2, 1.9475402e+2, -1164041.4, -1180237.5, 18917.617, -0.05926526, 0.13980514, -1151561.4, -120135.35, 0.0, 9.999412, 9.999227 
6.650384e+2, 2.04754e+2, -972968.94, -899368.1, 55879.57, -0.010459525, 0.15886621, -869259.7, 64167.156, 0.0, 9.99946, 10.00046 
6.6503406e+2, 2.1475355e+2, -791299.4, -755383.0, 34222.324, 0.11334768, 0.04294556, -734693.25, 100733.37, 0.0, 10.0000105, 10.000508 
6.650295e+2, 2.2475363e+2, -693498.0, -683319.8, 63455.363, 0.17401136, 0.013346737, -624749.8, 112671.984, 0.0, 10.00012, 10.0002775 
6.650247e+2, 2.3475412e+2, -657068.6, -616729.75, 36557.527, 0.15632638, 0.012401033, -595146.8, 44266.613, 0.0, 9.9997015, 10.000267 
6.6501886e+2, 2.447543e+2, -675999.8, -687348.6, 14714.951, 0.088347234, 0.058013517, -665903.06, -124491.555, 0.0, 9.999374, 9.999268 
6.6501194e+2, 2.5475398e+2, -616476.1, -610220.4, 34007.91, -0.036675844, 0.07673143, -579196.8, -135778.1, 0.0, 9.999113, 9.999251 
6.650064e+2, 2.6475364e+2, -498483.3, -444467.1, 35222.543, -0.016710037, 0.094778374, -427089.78, -81665.94, 0.0, 9.999017, 9.999758 
6.650024e+2, 2.7475312e+2, -377790.5, -332436.13, -9053.097, 0.17199512, 0.042097013, -330695.84, -83267.766, 0.0000000023427176, 9.99916, 9.9997835 
6.6499543e+2, 2.8475285e+2, -273207.84, -212900.84, -92948.62, 0.15328765, 0.033952475, -145337.02, 4091.9575, 0.0000014418595, 9.99913, 9.999944 
6.6498506e+2, 2.947525e+2, -217836.45, -140369.78, -121123.97, -0.08913437, -0.026791427, -51936.74, -506.96512, 0.000014823799, 9.99885, 9.9999 
6.649792e+2, 3.0475345e+2, -338061.66, -342208.78, -26243.871, 0.06933274, 0.16264753, -313809.56, -313809.56, 0.000057815294, 9.998435, 9.998387 
6.649745e+2, 3.147518e+2, -314662.56, -139941.88, 51469.055, 0.22177918, 0.12866843, -125907.48, -125907.48, 0.00014076727, 9.997724, 10.000116 
6.7508584e+2, 1.2476063e+2, -1409852.5, -1697977.3, 98197.95, -0.1683395, -0.12816808, -1379568.0, 337781.75, 0.0000000023126079, 10.002625, 9.998822 
6.7507803e+2, 1.347616e+2, -1455977.1, -1652304.4, -114533.97, -0.032020982, 0.03598161, -1403296.0, 216048.78, 0.0, 10.001557, 9.999007 
6.7507267e+2, 1.447611e+2, -1424110.6, -1493110.8, 9882.915, 0.13106039, 0.058332082, -1422723.0, 98629.61, 0.0, 10.0007105, 9.999818 
6.75065e+2, 1.547613e+2, -1336395.8, -1390723.9, 54955.61, -0.06426216, 0.06272827, -1302257.3, 121094.266, 0.0, 10.000605, 9.999896 
6.7505926e+2, 1.6476172e+2, -1270089.6, -1324267.6, 117000.94, -0.13187505, 0.1249604, -1177082.6, 148264.61, 0.0, 10.000447, 9.999759 
6.7505646e+2, 1.7476222e+2, -1209323.4, -1240806.3, 111429.29, 0.0020823681, 0.17511985, -1112529.1, 114812.055, 0.0, 10.000179, 9.999784 
6.750512e+2, 1.847622e+2, -1191842.5, -1223481.9, -2056.792, 0.028086938, 0.21618101, -1191709.4, -62366.59, 0.0, 9.999808, 9.999409 
6.750433e+2, 1.9476141e+2, -1162584.8, -1158878.6, 11739.515, -0.08319273, 0.1759096, -1148846.8, -117492.49, 0.0, 9.999335, 9.99941 
6.750373e+2, 2.0476133e+2, -1010152.75, -956484.4, 67149.08, -0.07579631, 0.19581254, -911006.25, 22349.41, 0.0, 9.999364, 10.000118 
6.7503375e+2, 2.1476175e+2, -830080.2, -810847.94, 64163.996, 0.063682765, 0.19886589, -755583.5, 79764.59, 0.0, 9.999899, 10.000182 
6.750289e+2, 2.2476159e+2, -745619.5, -759132.2, 39518.258, 0.08864201, 0.18634333, -712284.2, 25062.408, 0.0, 9.999985, 9.999822 
6.750227e+2, 2.3476066e+2, -707775.2, -690683.56, 32511.846, -0.029062962, 0.08852529, -665613.1, -26259.686, 0.0, 9.999574, 9.999818 
6.7501694e+2, 2.4476023e+2, -635985.75, -582307.06, -2182.8389, -0.05773506, 0.056757126, -582218.44, -40862.348, 0.0, 9.999282, 10.000031 
6.7501175e+2, 2.5476006e+2, -576184.9, -504668.72, 33804.24, 0.010924012, 0.012127883, -491219.4, -47862.41, 0.0, 9.999018, 10.00002 
6.7500633e+2, 2.6476008e+2, -568673.0, -577038.2, 30426.479, 0.058566492, 0.072382934, -542143.0, -196784.33, 0.0, 9.9989605, 9.998875 
6.750007e+2, 2.7476016e+2, -452043.2, -472307.94, 8409.621, 0.06570846, 0.17334054, -449007.9, -201645.3, 0.0000000015372758, 9.999097, 9.998856 
6.749937e+2, 2.8475943e+2, -281834.7, -231564.06, -111909.0, 0.047316603, 0.170434, -142002.34, 7367.678, 0.0000017821444, 9.999131, 9.999815 
6.749851e+2, 2.9475746e+2, -236611.0, -158342.8, -118949.61, 0.003313526, -0.04064611, -72255.15, -20870.879, 0.000019076204, 9.998759, 9.999822 
6.7497873e+2, 3.047572e+2, -268340.06, -187127.16, -58977.582, 0.15440716, -0.02294445, -156128.86, -156128.86, 0.000073988194, 9.998394, 9.999466 
6.7497206e+2, 3.1475818e+2, -224922.4, 69452.37, 53237.438, 0.15586902, 0.10043311, 78784.48, 78784.48, 0.00017626329, 9.997637, 10.001587 
6.8508804e+2, 1.24767646e+2, -1499587.3, -1791264.1, 181941.05, -0.17823686, -0.16025878, -1412248.9, 305027.53, 0.0000000036242784, 10.002204, 9.998397 
6.850801e+2, 1.3476819e+2, -1494072.6, -1695172.8, -51983.414, 0.038392242, -0.011312318, -1481430.0, 137848.75, 0.0, 10.00141, 9.998778 
6.8507296e+2, 1.4476797e+2, -1362114.5, -1452797.9, 111239.7, 0.07754554, 0.045984704, -1287330.6, 233953.94, 0.0, 10.00108, 9.999918 
6.850656e+2, 1.5476859e+2, -1202325.6, -1315339.5, 56321.91, -0.102329485, 0.078727245, -1179050.5, 244227.86, 0.0, 10.001465, 10.000007 
6.850599e+2, 1.6476898e+2, -1178564.3, -1303397.6, 73719.15, -0.14534998, 0.14243795, -1144387.3, 180887.39, 0.0, 10.001176, 9.999554 
6.8505657e+2, 1.74769e+2, -1228491.0, -1278100.0, 64835.73, 0.0076741446, 0.1678985, -1183876.9, 43398.266, 0.0, 10.000165, 9.99954 
6.850512e+2, 1.8476894e+2, -1174459.3, -1180325.3, 5721.775, 0.056893267, 0.20454805, -1170962.5, -41685.49, 0.0, 9.999779, 9.999719 
6.8504345e+2, 1.9476855e+2, -1042966.5, -1062481.3, 13024.476, -0.02665205, 0.16828568, -1036449.9, -5167.2373, 0.0, 9.999991, 9.999751 
6.8503755e+2, 2.0476845e+2, -973348.5, -983125.0, 94006.67, -0.013366139, 0.18896784, -884103.06, 49180.492, 0.0, 9.999823, 9.999702 
6.850337e+2, 2.1476847e+2, -953856.56, -919892.7, 65198.008, 0.10640445, 0.19565466, -869501.3, -34219.813, 0.0, 9.999266, 9.999736 
6.850285e+2, 2.2476806e+2, -906487.7, -861676.06, 55049.73, 0.10177445, 0.18948194, -824647.1, -87362.96, 0.0, 9.998975, 9.999607 
6.8502176e+2, 2.34767e+2, -818911.5, -770045.1, 45752.043, -0.043737445, 0.101326205, -742610.9, -103317.234, 0.0, 9.998904, 9.9996 
6.8501604e+2, 2.447666e+2, -686724.9, -594782.2, 20986.732, -0.05189293, 0.078035444, -590218.3, -48921.723, 0.0, 9.998884, 10.000132 
6.8501145e+2, 2.547667e+2, -570479.4, -488131.3, -10958.767, 0.088512614, 0.05000648, -486697.88, -43403.586, 0.0, 9.99901, 10.000132 
6.850059e+2, 2.6476684e+2, -554752.06, -549482.9, 19969.531, 0.119741865, 0.10889397, -531974.94, -186680.84, 0.0, 9.998965, 9.999057 
6.849993e+2, 2.747669e+2, -499261.5, -473358.94, 60558.445, 0.038530577, 0.18446518, -424382.34, -177084.63, 0.00000000039754933, 9.998674, 9.999048 
6.8499243e+2, 2.8476626e+2, -374730.06, -293394.84, 2459.6038, 0.035881884, 0.18906751, -293320.53, -144016.25, 0.000001935021, 9.998564, 9.999664 
6.8498504e+2, 2.9476452e+2, -233660.69, -171899.14, -28085.01, 0.12812449, 0.021188524, -161037.97, -109720.71, 0.000022833043, 9.998833, 9.999698 
6.849781e+2, 3.0476362e+2, -166500.86, -114927.23, 3932.7795, 0.23568955, -0.03211967, -114629.055, -114629.055, 0.00009092674, 9.998992, 9.999675 
6.8496966e+2, 3.1476465e+2, -86881.98, 149106.42, 7861.6113, 0.11842994, 0.07774062, 149368.03, 149368.03, 0.00021663119, 9.998495, 10.001737 
6.950915e+2, 1.2477855e+2, -1509556.5, -1806401.1, 98622.086, -0.102762036, 0.05976645, -1479778.1, 237393.17, 0.00000000017840025, 10.002197, 9.998284 
6.950808e+2, 1.3477786e+2, -1496909.3, -1701325.3, -76611.01, -0.060760055, 0.09322579, -1471384.3, 147800.48, 0.0, 10.001419, 9.998727 
6.9507176e+2, 1.4477715e+2, -1421213.6, -1580172.5, 113701.33, -0.1776523, 0.14255922, -1361966.8, 159228.23, 0.0, 10.001095, 9.999041 
6.9506764e+2, 1.5477714e+2, -1268009.9, -1456711.1, 83326.4, -0.07510548, 0.208751, -1236482.3, 186712.4, 0.0, 10.001476, 9.999038 
6.950622e+2, 1.6477633e+2, -1186147.8, -1310840.0, 27669.936, -0.05982896, 0.20327382, -1180283.4, 144919.55, 0.0, 10.001145, 9.999513 
6.9505614e+2, 1.7477451e+2, -1235733.0, -1282871.9, 38681.133, -0.077417076, 0.04657704, -1214006.3, 13215.436, 0.0, 10.000122, 9.999528 
6.950502e+2, 1.847743e+2, -1150979.0, -1114929.0, 6100.0107, -0.04708434, 0.042337038, -1113924.8, 15298.877, 0.0, 9.99971, 10.000197 
6.950441e+2, 1.947755e+2, -1021118.0, -998490.0, 31853.625, 0.02074454, 0.119526334, -976000.75, 55209.45, 0.0, 9.999919, 10.000221 
6.9503856e+2, 2.047754e+2, -1022236.0, -1064251.5, 62936.195, 0.08599707, 0.13979009, -976894.0, -43683.47, 0.0, 9.99973, 9.999193 
6.9503355e+2, 2.1477367e+2, -1008449.1, -1006687.3, 53795.535, 0.14716223, 0.027195621, -953765.5, -118538.234, 0.0, 9.999152, 9.999193 
6.9502795e+2, 2.2477296e+2, -923026.56, -869443.0, 43732.895, 0.13175358, 0.020201586, -844947.7, -107713.164, 0.0, 9.99886, 9.999609 
6.9502157e+2, 2.3477311e+2, -833326.4, -773846.94, 52683.688, 0.02594291, 0.049348112, -743088.5, -103854.33, 0.0, 9.9987955, 9.999623 
6.9501585e+2, 2.4477348e+2, -733645.94, -675580.56, 16715.922, 0.016907986, 0.12779145, -671112.2, -129879.83, 0.0, 9.998811, 9.999615 
6.9501084e+2, 2.5477389e+2, -615141.44, -567673.56, 4194.76, 0.10670049, 0.18273202, -567305.7, -124074.87, 0.0, 9.998949, 9.999618 
6.950048e+2, 2.6477394e+2, -474673.9, -371847.53, 2507.197, 0.09484968, 0.19365565, -371786.44, -26555.99, 0.0, 9.9989195, 10.000297 
6.949976e+2, 2.747733e+2, -421740.1, -295533.6, 59803.426, -0.016551837, 0.07570192, -271697.4, -24463.852, 0.0000000054780975, 9.998603, 10.000304 
6.94991e+2, 2.8477335e+2, -393485.3, -321282.16, 1114.9791, 0.011233556, 0.09328286, -321264.94, -172033.06, 0.000002364329, 9.99852, 9.999491 
6.9498456e+2, 2.9477388e+2, -256911.95, -204093.23, -455.03088, 0.16183959, 0.16881442, -204089.33, -152861.63, 0.000027093956, 9.99877, 9.999503 
6.949772e+2, 3.0477273e+2, -211320.02, -212365.95, -15586.975, 0.21773595, 0.13515136, -196247.23, -196247.23, 0.00010798756, 9.999005, 9.999002 
6.9496703e+2, 3.1477135e+2, -182609.53, -39198.484, 10152.993, -0.04478007, 0.079586715, -38483.254, -38483.254, 0.00025661878, 9.998449, 10.000468 
7.050925e+2, 1.2478565e+2, -1973171.1, -1940401.3, -82235.37, -0.033428244, 0.16868977, -1872934.4, -155824.66, 0.0, 9.998617, 9.999105 
7.050826e+2, 1.3478552e+2, -1430425.3, -1578692.1, -187128.45, -0.020237334, 0.17956579, -1303280.8, 315832.53, 0.0, 10.001476, 9.999545 
7.050728e+2, 1.4478488e+2, -1294817.8, -1526809.6, 26036.486, -0.22409216, 0.19905128, -1291931.6, 229188.02, 0.0, 10.002006, 9.998961 
7.050687e+2, 1.5478362e+2, -1429286.5, -1539424.4, 34083.37, -0.05199202, 0.14729922, -1419592.4, 3537.6846, 0.0, 10.000414, 9.998966 
7.05063e+2, 1.6478261e+2, -1399300.1, -1381260.3, 47892.797, -0.005714413, 0.113753766, -1341545.4, -16406.025, 0.0, 9.999547, 9.999798 
7.0505625e+2, 1.7478171e+2, -1328153.5, -1290923.6, 61833.023, -0.027967494, 0.018729985, -1244964.3, -17814.732, 0.0, 9.999334, 9.999848 
7.050501e+2, 1.8478192e+2, -1192319.8, -1113389.1, 80129.67, -0.0008079151, 0.03138825, -1063533.3, 65613.6, 0.0, 9.99933, 10.000396 
7.0504427e+2, 1.9478302e+2, -1054691.9, -995638.4, 65635.77, 0.06596275, 0.07861383, -953193.75, 77939.42, 0.0, 9.999594, 10.000405 
7.0503867e+2, 2.0478281e+2, -1014810.25, -1074588.9, 104869.28, 0.12664698, 0.08626479, -935653.94, -2519.5564, 0.0, 9.999842, 9.999069 
7.0503336e+2, 2.1478102e+2, -892824.44, -966657.1, 107058.66, 0.17967482, -0.01791628, -816496.0, 18657.121, 0.0, 10.00001, 9.999058 
7.050277e+2, 2.2478034e+2, -786774.7, -831867.94, 120940.42, 0.17131369, -0.0037240342, -686297.2, 50864.668, 0.0, 9.999929, 9.999345 
7.050213e+2, 2.3478061e+2, -729739.0, -752330.7, 90204.91, 0.085479036, 0.064718425, -650125.44, -10963.557, 0.0, 9.999642, 9.999358 
7.050154e+2, 2.4478105e+2, -679732.6, -664929.4, 74474.06, 0.078365125, 0.17246158, -597490.0, -56329.465, 0.0, 9.999249, 9.999478 
7.050102e+2, 2.5478154e+2, -658051.56, -601134.1, 74315.52, 0.15627359, 0.24513602, -550014.56, -106855.06, 0.0, 9.9987135, 9.9995 
7.050039e+2, 2.647814e+2, -521484.34, -357909.53, 74219.664, 0.14236501, 0.22892085, -329253.56, 15906.543, 0.0, 9.998444, 10.000627 
7.049967e+2, 2.7478036e+2, -418118.53, -251028.39, 38234.566, 0.043319136, 0.038902525, -242694.95, 4469.356, 0.000000016182126, 9.998454, 10.00068 
7.049898e+2, 2.8478074e+2, -366178.94, -294047.5, -6321.762, 0.048677653, 0.06210719, -293497.66, -144338.8, 0.0000030357212, 9.998625, 9.9996395 
7.0498323e+2, 2.9478246e+2, -234752.75, -175840.33, 2614.7068, 0.15403886, 0.24322788, -175724.52, -124580.375, 0.000031540207, 9.998831, 9.999677 
7.0497626e+2, 3.047816e+2, -216112.97, -251767.13, 25959.488, 0.22196698, 0.2407954, -202448.78, -202448.78, 0.00012311795, 9.999143, 9.998656 
7.04967e+2, 3.1477883e+2, -85428.75, -49806.336, 28994.814, 0.07357286, 0.07776103, -33589.05, -33589.05, 0.00029061802, 9.999383, 9.9999275 
7.150902e+2, 1.2478907e+2, -1834148.6, -1659910.6, -52266.055, -0.17424956, 0.18487263, -1645435.0, 71655.13, 0.0, 9.998652, 10.001008 
7.150852e+2, 1.3479117e+2, -1307924.3, -1332430.3, -73895.125, 0.06816622, 0.24161184, -1245273.1, 373790.88, 0.0, 10.001501, 10.001227 
7.150757e+2, 1.4479126e+2, -1249693.3, -1427974.4, -44741.176, -0.16639899, 0.2156255, -1239095.0, 281962.63, 0.0, 10.001988, 9.999643 
7.150686e+2, 1.547881e+2, -1384390.8, -1441830.4, -14571.035, -0.12745287, -0.09457445, -1380905.9, 42177.574, 0.0, 10.000392, 9.999646 
7.1506214e+2, 1.6478784e+2, -1361172.9, -1289872.9, 30123.963, -0.07048543, -0.120879546, -1278849.9, 46234.223, 0.0, 9.999501, 10.000443 
7.1505684e+2, 1.7479055e+2, -1287004.8, -1204508.4, 63343.945, 0.0681128, 0.080393314, -1170166.4, 56893.242, 0.0, 9.999333, 10.000442 
7.1505064e+2, 1.8479174e+2, -1200808.4, -1125489.5, 80505.555, 0.10264106, 0.16805026, -1074270.5, 54777.047, 0.0, 9.999303, 10.000325 
7.150436e+2, 1.9479115e+2, -1072854.9, -1012677.25, 86467.414, 0.016033571, 0.05122357, -951213.06, 79837.695, 0.0, 9.999506, 10.00033 
7.1503764e+2, 2.047908e+2, -1015616.3, -1048116.56, 102480.586, 0.019265912, 0.037812743, -928105.5, 4948.4067, 0.0, 9.999724, 9.999305 
7.15033e+2, 2.1479054e+2, -897726.9, -941366.44, 119826.66, 0.11994089, 0.060375392, -797749.6, 37309.38, 0.0, 9.999866, 9.999296 
7.150274e+2, 2.2479019e+2, -839863.1, -916366.1, 99588.11, 0.13369998, 0.121995084, -771433.0, -34367.293, 0.0, 9.999813, 9.998824 
7.150207e+2, 2.3478954e+2, -783245.0, -839301.44, 89133.53, 0.044043522, 0.15214458, -717836.75, -78760.59, 0.0, 9.999535, 9.998815 
7.150146e+2, 2.4478938e+2, -675793.06, -636871.25, 44589.71, 0.046618566, 0.21581854, -607680.6, -66599.93, 0.0, 9.999162, 9.999715 
7.15009e+2, 2.5478956e+2, -651580.75, -568943.6, 62927.3, 0.14228043, 0.23754744, -534982.25, -91901.49, 0.0, 9.998635, 9.99976 
7.1500283e+2, 2.6478925e+2, -564386.06, -442904.97, 62958.117, 0.16782343, 0.22002092, -416163.3, -71080.336, 0.0, 9.998422, 10.000055 
7.1499616e+2, 2.747881e+2, -470220.84, -345669.72, 50368.895, 0.11665568, 0.07360602, -327849.88, -80759.48, 0.000000020828322, 9.998391, 10.000062 
7.149889e+2, 2.8478843e+2, -332384.2, -213742.88, -7722.7744, 0.06758387, 0.09565856, -213242.3, -64156.76, 0.0000037854625, 9.9985895, 10.000206 
7.149808e+2, 2.947904e+2, -207699.16, -103500.06, 24651.791, -0.0019616154, 0.24272162, -97962.18, -46895.363, 0.000035842306, 9.998773, 10.000199 
7.149748e+2, 3.0479023e+2, -210561.08, -249876.95, 29637.45, 0.13832352, 0.29006705, -194654.81, -194654.81, 0.00013552594, 9.999168, 9.998663 
7.1496886e+2, 3.147868e+2, -88534.95, -48335.23, 57972.02, 0.2631278, 0.05461299, -7077.4565, -7077.4565, 0.00031582415, 9.9993305, 9.999974 
7.250895e+2, 1.2479596e+2, -1679536.8, -1565260.0, 179039.95, -0.1478497, 0.23514688, -1434462.0, 282564.34, 0.0, 9.999581, 10.00124 
7.250863e+2, 1.3479733e+2, -1709528.8, -1511261.0, 49902.453, 0.17195384, 0.21404883, -1499409.4, 119597.29, 0.0, 9.99869, 10.001354 
7.250771e+2, 1.447978e+2, -1653502.8, -1543097.5, 8909.705, -0.060406025, 0.1852069, -1542383.1, -21387.838, 0.0, 9.99886, 10.000371 
7.250694e+2, 1.5479556e+2, -1348576.8, -1336457.8, 22325.62, -0.0717925, -0.10647578, -1319384.0, 103626.07, 0.0, 10.000254, 10.000438 
7.2506255e+2, 1.647959e+2, -1153178.8, -1192818.6, 65237.83, -0.041276265, -0.11400344, -1104816.6, 220187.45, 0.0, 10.000921, 10.000436 
7.25057e+2, 1.7479882e+2, -1074905.5, -1100833.6, 30811.65, 0.08616329, 0.111289166, -1054441.6, 172535.69, 0.0, 10.000779, 10.000457 
7.2505087e+2, 1.8479986e+2, -1064416.4, -1089760.4, 30364.668, 0.13880846, 0.1935113, -1044185.6, 84781.87, 0.0, 10.000362, 10.000064 
7.250439e+2, 1.9479862e+2, -1079097.6, -1045515.6, 3671.1936, 0.0972912, 0.04041535, -1045119.0, -14140.562, 0.0, 9.999586, 10.000071 
7.250376e+2, 2.0479833e+2, -1064340.8, -1038624.6, 50491.68, 0.07670611, 0.030185059, -999379.5, -66397.93, 0.0, 9.999241, 9.999614 
7.2503215e+2, 2.147988e+2, -951246.25, -934828.75, 57356.0, 0.08052705, 0.095340446, -885097.06, -50118.035, 0.0, 9.999344, 9.999603 
7.2502637e+2, 2.2479889e+2, -891926.9, -880693.56, 82741.01, 0.08010186, 0.15948053, -803378.75, -66398.89, 0.0, 9.999196, 9.999365 
7.2502023e+2, 2.347984e+2, -849925.1, -813091.7, 131594.64, 0.07868975, 0.1535489, -698631.3, -59645.184, 0.0, 9.998822, 9.999341 
7.250141e+2, 2.4479795e+2, -734017.9, -693030.1, 143592.55, 0.10473666, 0.1716802, -568476.4, -27483.648, 0.0, 9.998886, 9.999457 
7.25008e+2, 2.5479734e+2, -545484.94, -551204.25, 104127.54, 0.14650054, 0.14165913, -444177.78, -1176.285, 0.0, 9.999499, 9.999466 
7.2500175e+2, 2.6479706e+2, -413406.6, -395712.8, 103538.92, 0.16818732, 0.15224215, -300643.5, 44360.824, 0.0, 9.999579, 9.999813 
7.2499555e+2, 2.7479678e+2, -375786.44, -327933.25, 95713.13, 0.18500172, 0.118018605, -253201.42, -6197.504, 0.000000011844985, 9.999155, 9.999817 
7.2498816e+2, 2.8479674e+2, -306902.1, -247119.25, 54323.324, 0.12543876, 0.14069918, -215006.47, -66003.64, 0.000004675658, 9.99899, 9.999769 
7.2497946e+2, 2.94797e+2, -187074.25, -143677.06, -14317.584, -0.025721174, 0.1614663, -139379.08, -88377.98, 0.000040333267, 9.999146, 9.999733 
7.249739e+2, 3.0479658e+2, -204031.44, -211761.47, -24274.51, 0.14986297, 0.1907753, -183316.17, -183316.17, 0.00014552726, 9.999066, 9.998978 
7.249691e+2, 3.1479463e+2, -150267.95, -3680.8928, -15661.095, 0.4039934, 0.0670484, -2026.3646, -2026.3646, 0.0003310756, 9.99859, 10.000637 
7.350896e+2, 1.2480621e+2, -1772843.3, -1749570.8, 66742.66, -0.13855058, 0.3313537, -1693457.6, 23461.838, 0.0, 9.999556, 9.999973 
7.350854e+2, 1.3480389e+2, -1815648.1, -1736642.0, 21220.027, 0.19771929, 0.09331412, -1731303.4, -112361.14, 0.0, 9.998702, 9.999803 
7.3507667e+2, 1.4480434e+2, -1604143.8, -1426801.1, 47764.01, -0.01252854, 0.09697534, -1414755.0, 106179.14, 0.0, 9.998813, 10.001184 
7.350709e+2, 1.5480584e+2, -1295668.9, -1225538.1, 87419.14, 0.017488275, 0.09545221, -1166413.9, 256497.8, 0.0, 10.00025, 10.001201 
7.35064e+2, 1.6480666e+2, -1192648.1, -1274241.1, 48717.004, -0.010615545, 0.12854654, -1169901.8, 154998.31, 0.0, 10.000916, 9.999877 
7.350566e+2, 1.7480662e+2, -1119365.1, -1187500.0, 35375.547, -0.05790256, 0.1135864, -1104320.3, 122581.586, 0.0, 10.000748, 9.99988 
7.3505026e+2, 1.8480632e+2, -1111393.5, -1166819.4, -7421.8765, 0.021146214, 0.1137609, -1110416.9, 18489.234, 0.0, 10.000279, 9.999573 
7.350449e+2, 1.9480552e+2, -1126108.9, -1121950.8, -16418.133, 0.22200797, 0.05253432, -1107480.6, -76565.15, 0.0, 9.999504, 9.999581 
7.350384e+2, 2.0480543e+2, -1046730.56, -982671.44, 44963.047, 0.2101176, 0.06982973, -959496.25, -26579.566, 0.0, 9.999154, 10.000039 
7.3503053e+2, 2.1480593e+2, -935849.56, -873600.5, 72728.836, -0.03766632, 0.09008472, -825616.1, 9295.541, 0.0, 9.999221, 10.000078 
7.3502415e+2, 2.2480659e+2, -803573.9, -668459.3, 58691.402, -0.07528597, 0.11323499, -646525.44, 90377.24, 0.0, 9.99907, 10.000884 
7.350194e+2, 2.3480722e+2, -759145.94, -593303.44, 127123.414, 0.10519054, 0.062369976, -524447.56, 114444.09, 0.0, 9.998691, 10.000912 
7.350138e+2, 2.448068e+2, -794732.0, -805173.44, 157492.88, 0.1602413, 0.039544653, -642373.3, -101476.984, 0.0, 9.998822, 9.998719 
7.350071e+2, 2.5480497e+2, -615737.06, -674324.0, 136750.75, 0.081383325, -0.036085177, -505177.5, -62256.918, 0.0, 9.999403, 9.998668 
7.350006e+2, 2.648049e+2, -416714.25, -389782.22, 81104.34, 0.07334306, 0.036882292, -321033.6, 23889.041, 0.0, 9.999523, 9.999882 
7.3499453e+2, 2.7480647e+2, -378730.6, -320076.5, 93990.27, 0.14520192, 0.17743629, -250944.17, -4040.127, 0.000000051096855, 9.999096, 9.9999 
7.349873e+2, 2.8480572e+2, -402442.8, -452678.28, 49831.063, 0.11368006, 0.1945837, -371757.0, -222846.17, 0.0000058850314, 9.999011, 9.998348 
7.349788e+2, 2.9480243e+2, -298337.94, -367250.0, 4413.4146, -0.032365225, 0.0021216017, -298056.44, -247109.88, 0.000044056193, 9.999109, 9.998216 
7.349734e+2, 3.0480075e+2, -167202.38, -137969.06, -46422.754, 0.1625869, -0.039670456, -103916.24, -103916.24, 0.00015023218, 9.999074, 9.999483 
7.349671e+2, 3.148019e+2, -86843.91, 148998.56, -5046.0005, 0.2873553, 0.08982981, 149106.48, 149106.48, 0.00033283475, 9.9985, 10.001729 
7.4508995e+2, 1.2481489e+2, -1872501.5, -1825108.9, 72581.4, -0.019687705, 0.26794192, -1772453.6, -55623.816, 0.0, 9.999024, 9.999694 
7.450853e+2, 1.3481276e+2, -1563070.4, -1668657.6, 102029.62, 0.22783163, 0.10184629, -1500984.9, 117867.83, 0.0, 10.000701, 9.99929 
7.450767e+2, 1.4481306e+2, -1338578.5, -1334395.8, 130158.36, 0.02061827, 0.13307555, -1206311.9, 314536.2, 0.0, 10.000781, 10.00087 
7.4507093e+2, 1.5481453e+2, -1457300.6, -1335674.5, 61248.797, 0.058202777, 0.15621537, -1310176.3, 112651.65, 0.0, 9.999279, 10.000909 
7.450642e+2, 1.64815e+2, -1485102.0, -1412985.6, 41685.367, 0.027992796, 0.16450644, -1393927.0, -69106.87, 0.0, 9.9988985, 9.999904 
7.4505705e+2, 1.7481412e+2, -1259757.3, -1249653.5, 54030.484, -0.024912523, 0.06484553, -1200439.3, 26388.707, 0.0, 9.999757, 9.999936 
7.450507e+2, 1.848137e+2, -1142236.1, -1202241.0, 36678.184, 0.060358956, 0.06023189, -1124852.6, 3980.5044, 0.0, 10.000155, 9.999388 
7.450452e+2, 1.948135e+2, -1058888.1, -1112177.5, 30640.52, 0.2782411, 0.080661625, -1044927.6, -14089.6455, 0.0, 10.000058, 9.99938 
7.4503833e+2, 2.0481361e+2, -929481.94, -876594.7, 128243.63, 0.2641294, 0.10344367, -772096.75, 160740.02, 0.0, 9.999753, 10.000467 
7.450301e+2, 2.1481381e+2, -908613.0, -813610.1, 132663.72, 0.0030188463, 0.052349124, -720200.06, 114631.2, 0.0, 9.999211, 10.000491 
7.4502337e+2, 2.2481431e+2, -810716.44, -677603.25, 84749.55, -0.055938568, 0.039481666, -636399.6, 100423.23, 0.0, 9.999038, 10.000841 
7.450181e+2, 2.3481491e+2, -683788.5, -565040.2, 13145.263, 0.086187914, -0.010688754, -563602.44, 75211.05, 0.0, 9.99922, 10.00086 
7.450126e+2, 2.4481492e+2, -716442.1, -732301.6, 54302.234, 0.14152569, -0.0026452823, -669493.7, -128679.6, 0.0, 9.999211, 9.999037 
7.450066e+2, 2.5481406e+2, -631279.06, -643938.56, 94538.016, 0.11487248, -0.012541989, -542859.1, -100031.3, 0.0, 9.999135, 9.999006 
7.450002e+2, 2.6481393e+2, -489661.7, -459113.1, 74773.836, 0.10310681, 0.050686825, -398069.44, -53238.965, 0.0, 9.999167, 9.999581 
7.449933e+2, 2.7481443e+2, -364053.84, -343474.22, 37791.79, 0.10770996, 0.117116176, -314596.44, -67773.484, 0.00000017449423, 9.999338, 9.999619 
7.44986e+2, 2.848133e+2, -351917.56, -446479.5, 53340.55, 0.06959201, 0.11904704, -327919.47, -179085.9, 0.0000070145306, 9.999431, 9.998195 
7.4497837e+2, 2.9481027e+2, -247970.5, -356597.16, 84116.33, 0.0025150364, -0.03286105, -202156.44, -151290.31, 0.00004543542, 9.999507, 9.998102 
7.449728e+2, 3.0480835e+2, -157134.52, -111901.164, 67042.88, 0.20976071, -0.10447061, -63762.895, -63762.895, 0.00014809403, 9.999059, 9.999666 
7.4496466e+2, 3.1481013e+2, -173552.36, 121385.15, 50712.7, 0.23764908, 0.07249972, 129861.3, 129861.3, 0.0003227844, 9.9978485, 10.001851 
7.550898e+2, 1.24822274e+2, -1827705.0, -1729065.9, 73871.734, 0.01953267, 0.06652427, -1689562.9, 27191.62, 0.0, 9.999019, 10.000355 
7.5508577e+2, 1.3482378e+2, -1535917.1, -1609881.6, 169880.19, 0.17642306, 0.22257583, -1399040.4, 219699.47, 0.0, 10.000695, 9.999698 
7.5507706e+2, 1.4482382e+2, -1437286.9, -1536139.4, 60837.0, -0.048586477, 0.27554202, -1408328.8, 112410.31, 0.0, 10.000764, 9.9994955 
7.550693e+2, 1.548218e+2, -1555836.5, -1535155.9, 13442.855, -0.055698216, 0.09057368, -1528536.4, -105778.914, 0.0, 9.999258, 9.999552 
7.550629e+2, 1.6482098e+2, -1443300.6, -1322704.5, 60882.57, -0.021020975, 0.008035036, -1297314.0, 27448.783, 0.0, 9.99888, 10.000534 
7.550583e+2, 1.748213e+2, -1219317.4, -1161289.8, 96428.95, 0.09629281, -0.03437608, -1089604.4, 137151.11, 0.0, 9.99974, 10.000552 
7.550522e+2, 1.8482195e+2, -1137182.1, -1181593.6, 23164.393, 0.16522516, 0.028674249, -1127299.1, 1449.7816, 0.0, 10.000109, 9.999556 
7.550444e+2, 1.9482265e+2, -1058894.8, -1092825.8, 37581.17, 0.16990116, 0.12244741, -1034627.06, -3881.0408, 0.0, 9.999976, 9.999553 
7.550372e+2, 2.0482287e+2, -922101.7, -838426.4, 96785.37, 0.1555302, 0.13293564, -774823.06, 157918.89, 0.0, 9.999648, 10.000785 
7.5503063e+2, 2.1482241e+2, -905053.4, -770516.75, 120011.56, 0.120179385, -0.016574293, -700206.75, 134531.42, 0.0, 9.999065, 10.000856 
7.550236e+2, 2.2482209e+2, -938569.25, -911780.5, 82442.63, 0.049525365, -0.055645663, -841651.25, -104911.44, 0.0, 9.998907, 9.999296 
7.5501597e+2, 2.348216e+2, -817029.5, -807702.5, 31679.082, -0.07074669, -0.051080715, -780345.5, -141595.52, 0.0, 9.9990835, 9.999258 
7.550101e+2, 2.4482252e+2, -634149.4, -545978.7, 40821.227, -0.043727074, 0.06306463, -529981.6, 10762.347, 0.0, 9.999141, 10.000352 
7.550063e+2, 2.5482458e+2, -544352.25, -448168.5, 101178.99, 0.14639641, 0.20714077, -384233.53, 58490.19, 0.0, 9.999067, 10.000384 
7.550002e+2, 2.648241e+2, -536753.44, -550912.4, 72006.23, 0.15876074, 0.1942574, -471479.5, -126751.49, 0.0, 9.999144, 9.998962 
7.549916e+2, 2.7482072e+2, -425165.25, -449686.06, 57170.207, -0.022918727, -0.05749401, -378955.56, -132195.36, 0.0000002213921, 9.999251, 9.998933 
7.5498414e+2, 2.8481963e+2, -278147.56, -286190.2, 47969.516, -0.08961265, -0.07272185, -234031.1, -85261.34, 0.000006961638, 9.999394, 9.999316 
7.549778e+2, 2.9482058e+2, -171961.44, -186084.94, 101811.79, -0.031200942, 0.062414885, -76966.8, -26207.576, 0.00004401986, 9.999445, 9.99931 
7.549718e+2, 3.0481923e+2, -174214.84, -135482.45, 18000.182, 0.17877048, -0.012486308, -128408.98, -128408.98, 0.0001416952, 9.999015, 9.999519 
7.549611e+2, 3.1481978e+2, -238883.67, 630.10065, 55359.246, 0.038080208, 0.06327023, 12806.372, 12806.372, 0.00030699253, 9.997791, 10.001043 
7.650903e+2, 1.2483049e+2, -1514699.0, -1566711.0, 2477.9155, 0.069871314, 0.059925817, -1514581.3, 202091.53, 0.00000000032551553, 10.001053, 10.000503 
7.65086e+2, 1.3483204e+2, -1652201.5, -1665124.0, 54519.11, 0.18638352, 0.20965943, -1603762.1, 14894.073, 0.0, 9.999846, 9.999739 
7.650779e+2, 1.4483157e+2, -1659065.9, -1684789.6, -16733.441, 0.027697638, 0.22877476, -1650822.4, -130161.984, 0.0, 9.999421, 9.9991255 
7.6506954e+2, 1.5482932e+2, -1432329.0, -1519449.1, -13341.041, -0.007047879, 0.05948246, -1430331.9, -7648.5454, 0.0, 10.000285, 9.999172 
7.65063e+2, 1.6482864e+2, -1218745.1, -1204895.3, 87264.36, 0.029367331, 0.005251893, -1124281.5, 200407.05, 0.0, 10.0004015, 10.000597 
7.650587e+2, 1.7482944e+2, -1218574.9, -1150504.3, 58989.258, 0.17021309, 0.0013990777, -1116435.8, 110241.06, 0.0, 9.999717, 10.000626 
7.650525e+2, 1.8483014e+2, -1175521.6, -1154136.1, 253.92519, 0.21561065, 0.044785436, -1154133.1, -25464.883, 0.0, 9.999644, 9.9999695 
7.650442e+2, 1.9483048e+2, -995214.7, -1018152.4, 17043.3, 0.14582697, 0.060135797, -986140.7, 44525.14, 0.0, 10.00021, 9.99996 
7.650369e+2, 2.0483062e+2, -835084.9, -824530.3, 61952.938, 0.13205275, 0.05349287, -767630.3, 165031.03, 0.0, 10.000371, 10.000535 
7.650307e+2, 2.1483028e+2, -772479.6, -741287.0, 20211.488, 0.17419177, -0.05708803, -731353.9, 103303.22, 0.0, 10.000106, 10.0005665 
7.6502365e+2, 2.2482984e+2, -850951.3, -898324.1, 30828.87, 0.1274331, -0.07943636, -835760.1, -99099.1, 0.0, 9.999647, 9.999028 
7.650154e+2, 2.3482907e+2, -841837.9, -847913.06, 57471.2, -0.022053584, -0.07521973, -787324.06, -148648.58, 0.0, 9.99905, 9.998991 
7.6500916e+2, 2.4482982e+2, -668937.1, -526788.9, 106208.19, -0.027603302, 0.02217009, -470067.4, 70602.96, 0.0, 9.998754, 10.000666 
7.650049e+2, 2.5483197e+2, -566576.2, -422256.47, 69433.02, 0.120019965, 0.14247859, -394276.47, 48369.88, 0.0, 9.998764, 10.000707 
7.6499885e+2, 2.6483163e+2, -586725.1, -574349.06, 45781.74, 0.1344654, 0.129486, -534339.06, -189690.5, 0.0, 9.998797, 9.998969 
7.649909e+2, 2.748285e+2, -478487.72, -472736.9, 59551.406, 0.012159644, -0.10240719, -415991.53, -169311.02, 0.00000016204108, 9.998874, 9.998955 
7.6498353e+2, 2.8482783e+2, -331237.5, -246844.73, 72259.98, -0.047978085, -0.10802516, -205362.94, -56676.957, 0.000006290961, 9.998756, 9.99989 
7.649767e+2, 2.9482943e+2, -283725.22, -164803.13, 61665.473, -0.034879897, 0.033458997, -138600.6, -87934.305, 0.000041719115, 9.998373, 9.999959 
7.649706e+2, 3.0482814e+2, -185977.63, -182117.33, -13797.953, 0.15603232, -0.048579063, -170115.17, -170115.17, 0.00013461517, 9.999106, 9.999157 
7.6496077e+2, 3.1482783e+2, 112327.79, 66824.24, -14555.479, 0.091706544, -0.020534538, 116585.37, 116585.37, 0.00029005748, 10.000652, 10.000117 
7.750904e+2, 1.2483938e+2, -1536885.9, -1597970.5, -93974.414, -0.08357008, 0.2279248, -1468615.1, 247970.95, 0.0000000023621072, 10.000996, 10.000315 
7.7508575e+2, 1.3483766e+2, -1665968.1, -1693342.3, 9437.846, 0.14740743, 0.07477984, -1663029.6, -44429.668, 0.0, 9.999849, 9.999541 
7.7507865e+2, 1.4483654e+2, -1610389.8, -1587754.3, -1877.6377, 0.13828085, 0.004214977, -1587599.5, -66989.664, 0.0, 9.999433, 9.999789 
7.750712e+2, 1.5483728e+2, -1387326.8, -1426877.0, 30228.203, 0.11190882, 0.069790825, -1370979.9, 51623.996, 0.0, 10.000286, 9.999808 
7.7506423e+2, 1.6483802e+2, -1257369.4, -1278824.3, 51306.883, 0.08960362, 0.15193252, -1215680.5, 108916.516, 0.0, 10.000372, 10.000106 
7.7505803e+2, 1.7483851e+2, -1255487.6, -1222058.9, 44226.73, 0.10809576, 0.16772027, -1191493.5, 35098.277, 0.0, 9.999694, 10.000147 
7.750514e+2, 1.8483832e+2, -1136873.1, -1060433.4, 12133.496, 0.11936291, 0.11236127, -1058553.6, 70036.88, 0.0, 9.999582, 10.000648 
7.750443e+2, 1.9483715e+2, -958198.3, -921630.0, 47529.477, 0.11474993, -0.091318704, -888989.06, 141606.64, 0.0, 10.000124, 10.000666 
7.750371e+2, 2.0483695e+2, -911285.25, -954968.56, 41502.297, 0.098759025, -0.12840381, -886228.06, 46365.832, 0.0, 10.000251, 9.999697 
7.7502996e+2, 2.1483749e+2, -854252.7, -878469.8, 18805.494, 0.071685016, -0.062207725, -843994.6, -9407.591, 0.0, 9.999971, 9.999686 
7.75023e+2, 2.2483769e+2, -801866.8, -767526.06, -2794.0452, 0.084478244, -0.021898776, -767300.25, -30715.297, 0.0, 9.99952, 9.9999895 
7.750163e+2, 2.3483722e+2, -787833.4, -710009.0, 44625.598, 0.13787924, -0.090575516, -689713.06, -51122.336, 0.0, 9.998934, 9.999997 
7.7500933e+2, 2.448368e+2, -730174.56, -631637.9, 96164.29, 0.09241536, -0.12797543, -572855.56, -32261.8, 0.0, 9.99866, 9.99999 
7.7500206e+2, 2.548363e+2, -629691.6, -532915.6, 80849.375, -0.054301396, -0.19995408, -487080.4, -44485.24, 0.0, 9.998678, 9.999988 
7.74996e+2, 2.6483667e+2, -546877.3, -486010.88, 40416.5, -0.049982786, -0.1380613, -465850.88, -121259.555, 0.0, 9.998767, 9.999595 
7.7499104e+2, 2.748376e+2, -440345.0, -381836.4, 72728.75, 0.10759786, -0.024827888, -332698.84, -86113.66, 0.00000014054619, 9.9988165, 9.999612 
7.749839e+2, 2.8483766e+2, -334510.16, -238572.6, 49389.24, 0.087533675, 0.005889192, -217691.53, -69107.97, 0.0000059856334, 9.998699, 9.99997 
7.749745e+2, 2.9483664e+2, -285294.34, -158557.75, 61839.656, -0.11387527, -0.12608759, -133384.05, -82795.555, 0.0000396548, 9.998332, 10.000019 
7.7496886e+2, 3.0483505e+2, -225685.4, -262563.56, 39308.5, 0.057550684, -0.21400726, -200706.08, -200706.08, 0.00012692052, 9.999097, 9.998614 
7.74963e+2, 3.1483436e+2, 17944.08, -118365.555, 84548.836, 0.19886124, -0.16274169, 58387.535, 58387.535, 0.00027215088, 10.000593, 9.998886 
7.850912e+2, 1.2484625e+2, -1709297.8, -1698950.8, -76432.586, -0.031833317, 0.19712861, -1627516.8, 88999.75, 0.0000000040597263, 9.999913, 10.00013 
7.8508574e+2, 1.3484432e+2, -1594026.3, -1662567.4, -1539.4846, 0.14341483, 0.027535707, -1593991.6, 24542.059, 0.0, 10.000384, 9.999482 
7.8507906e+2, 1.448433e+2, -1439983.4, -1446470.3, 30368.58, 0.19247238, -0.057941027, -1412685.5, 107857.17, 0.0, 10.000355, 10.00031 
7.850716e+2, 1.5484515e+2, -1403637.6, -1378214.1, 30954.135, 0.14455144, 0.071281075, -1357463.3, 65060.81, 0.0, 9.99994, 10.000306 
7.850644e+2, 1.6484624e+2, -1372050.1, -1348622.6, 58769.223, 0.115354724, 0.16850196, -1300411.1, 24102.92, 0.0, 9.999645, 9.99997 
7.850578e+2, 1.7484623e+2, -1307363.3, -1262719.3, 54532.105, 0.13694906, 0.14875214, -1226117.4, 397.81592, 0.0, 9.999408, 9.999999 
7.8505117e+2, 1.8484594e+2, -1148027.4, -1063048.0, 63630.94, 0.14376926, 0.08883718, -1029024.5, 99490.75, 0.0, 9.999502, 10.000661 
7.850443e+2, 1.9484507e+2, -999921.44, -935908.0, 29398.13, 0.1229001, -0.0872491, -924455.75, 106060.92, 0.0, 9.999834, 10.000696 
7.8503716e+2, 2.0484477e+2, -983838.25, -1012380.75, 12141.716, 0.10712641, -0.124443546, -979372.1, -46856.36, 0.0, 9.99985, 9.999495 
7.850298e+2, 2.1484485e+2, -955678.5, -950045.94, 19206.488, 0.10187132, -0.08470421, -933450.3, -98935.79, 0.0, 9.999376, 9.999479 
7.85023e+2, 2.24845e+2, -812101.5, -783421.44, 19986.621, 0.1370775, -0.033250723, -773162.6, -36649.37, 0.0, 9.999485, 9.999898 
7.8501654e+2, 2.34845e+2, -610985.7, -634516.5, -33755.004, 0.21059646, -0.046652503, -587004.44, 51510.02, 0.0, 10.000183, 9.999914 
7.8500926e+2, 2.4484429e+2, -520219.88, -548267.25, 666.69995, 0.15118307, -0.10103731, -520204.03, 20315.63, 0.0, 10.000183, 9.999823 
7.850012e+2, 2.5484264e+2, -521657.94, -499384.84, 4181.9673, -0.04387722, -0.27320552, -498625.5, -56094.305, 0.0, 9.999497, 9.999818 
7.8499484e+2, 2.6484293e+2, -468027.8, -414331.16, 4720.5215, -0.05836687, -0.22489113, -413919.34, -69392.31, 0.0, 9.999172, 9.999888 
7.849901e+2, 2.7484497e+2, -363319.75, -311843.3, -10375.538, 0.11645149, -0.031230649, -309830.72, -63321.39, 0.0000001311964, 9.9992075, 9.999904 
7.849832e+2, 2.8484493e+2, -288122.66, -269816.5, -55427.42, 0.1318982, 0.0001227746, -222791.48, -74282.08, 0.0000058891046, 9.999235, 9.999502 
7.8497434e+2, 2.9484284e+2, -197907.9, -173787.03, -105724.53, 0.00089928013, -0.18911783, -79437.266, -28909.547, 0.000037489564, 9.999172, 9.9995165 
7.849689e+2, 3.0484164e+2, -124223.29, -203599.11, -44459.125, 0.12871534, -0.21674949, -104314.69, -104314.69, 0.00011865352, 9.99974, 9.998707 
7.8496325e+2, 3.1484103e+2, 58916.508, -68185.125, 22957.986, 0.16842566, -0.17418006, 62936.215, 62936.215, 0.0002544846, 10.000737, 9.999152 
7.950922e+2, 1.24851465e+2, -1718979.4, -1733115.9, -81643.0, 0.018978307, -0.017392263, -1644099.3, 72361.49, 0.0000000034592607, 9.99997, 9.999873 
7.9508567e+2, 1.348521e+2, -1581908.5, -1644579.9, 20953.973, 0.07050653, 0.062381227, -1575548.1, 42908.42, 0.0, 10.000421, 9.999586 
7.9507875e+2, 1.448518e+2, -1421857.6, -1403551.3, 1511.2528, 0.09337823, 0.031352017, -1403427.4, 117031.45, 0.0, 10.000332, 10.000615 
7.950703e+2, 1.5485297e+2, -1379481.9, -1326560.4, 27570.219, -0.0066463286, 0.051784057, -1314807.4, 107636.91, 0.0, 9.999933, 10.000661 
7.9506326e+2, 1.6485335e+2, -1363317.6, -1324539.4, 39220.96, 0.00899919, 0.052750435, -1300176.6, 24262.568, 0.0, 9.999616, 10.0001545 
7.950578e+2, 1.748527e+2, -1293928.4, -1236551.3, 54162.816, 0.1706062, -0.050965294, -1203948.4, 22497.904, 0.0, 9.999408, 10.000182 
7.950514e+2, 1.8485303e+2, -1207652.8, -1165714.0, 66140.04, 0.19752808, -0.022937039, -1117298.9, 11143.421, 0.0, 9.999416, 9.999993 
7.950438e+2, 1.9485417e+2, -1054760.4, -1034939.5, 51634.527, 0.06566672, 0.06613526, -992272.94, 38156.133, 0.0, 9.999774, 10.00004 
7.9503673e+2, 2.0485406e+2, -969545.9, -956445.75, -16350.465, 0.060505155, 0.05801885, -945382.1, -12955.059, 0.0, 9.999738, 9.999933 
7.9503024e+2, 2.1485224e+2, -941469.2, -892488.5, 10499.48, 0.18155116, -0.13629112, -890332.7, -55892.527, 0.0, 9.999254, 9.999934 
7.9502326e+2, 2.2485176e+2, -913162.4, -959157.44, 37925.215, 0.19888139, -0.1170481, -891806.7, -155360.72, 0.0, 9.999341, 9.998759 
7.950159e+2, 2.3485248e+2, -708243.1, -814115.56, 4424.3267, 0.104640044, 0.058583565, -708058.56, -69612.69, 0.0, 10.000083, 9.998731 
7.950087e+2, 2.4485229e+2, -508737.22, -505757.4, -34887.38, 0.05367555, 0.10133012, -472328.13, 68119.71, 0.0, 10.000103, 10.000153 
7.9500186e+2, 2.548509e+2, -511457.0, -456602.47, -11796.948, 0.050907195, -0.07831385, -454173.03, -11718.338, 0.0, 9.999403, 10.000158 
7.949949e+2, 2.6485035e+2, -475030.8, -422948.6, -3750.8608, 0.013111033, -0.13106357, -422679.84, -78223.86, 0.0, 9.999139, 9.999848 
7.949877e+2, 2.7485046e+2, -374859.72, -326917.88, 4430.0996, -0.062959656, -0.12544034, -326511.97, -80058.41, 0.000000103459534, 9.999165, 9.999822 
7.949813e+2, 2.8484964e+2, -362007.78, -418268.53, -65978.34, -0.0026251297, -0.117742546, -318413.25, -169950.22, 0.0000054454867, 9.999215, 9.998493 
7.949757e+2, 2.948479e+2, -281010.06, -332292.88, -91570.125, 0.18937129, -0.16706568, -211559.03, -161074.16, 0.00003447301, 9.999111, 9.99846 
7.9497015e+2, 3.0484787e+2, -72975.07, -95714.46, -9856.346, 0.2519343, -0.061373737, -69297.586, -69297.586, 0.0001104858, 9.999724, 9.999455 
7.949608e+2, 3.1484696e+2, 156439.64, 142503.06, 101965.01, -0.209882, -0.13244052, 251674.19, 251674.19, 0.000240168, 10.00069, 10.000627 
8.0509317e+2, 1.24858245e+2, -1761038.8, -1734940.3, 316.21655, 0.14410128, -0.1195971, -1734936.4, -18545.596, 0.0000000057252847, 9.999624, 10.000037 
8.050852e+2, 1.3486055e+2, -1660102.6, -1651038.0, 71276.37, 0.025765039, 0.10020576, -1584150.0, 34220.758, 0.0, 9.99974, 9.999892 
8.0507815e+2, 1.4486037e+2, -1561779.0, -1490716.1, 39279.867, 0.05565766, 0.074995086, -1473281.6, 47090.582, 0.0, 9.999464, 10.000434 
8.050699e+2, 1.5486021e+2, -1530523.3, -1427292.1, -4052.4856, 0.015485536, -0.012993067, -1427133.3, -4762.588, 0.0, 9.999015, 10.000417 
8.050629e+2, 1.6486022e+2, -1420471.4, -1360544.6, 28894.482, 0.035703886, -0.034757923, -1348882.4, -24512.79, 0.0, 9.999266, 10.000084 
8.050573e+2, 1.7486016e+2, -1180993.3, -1193526.1, 3601.6614, 0.14417885, -0.06422596, -1180032.0, 46338.594, 0.0, 10.000238, 10.000085 
8.05051e+2, 1.8486063e+2, -1105598.6, -1159987.4, 5420.5483, 0.18592902, -0.00076019287, -1105063.6, 23303.063, 0.0, 10.000308, 9.999603 
8.05044e+2, 1.9486135e+2, -1152401.0, -1134480.6, -12467.142, 0.14066264, 0.09236259, -1128087.8, -97728.13, 0.0, 9.999322, 9.999587 
8.05037e+2, 2.0486097e+2, -1044753.94, -1000279.3, -54951.348, 0.14856112, 0.08538042, -963236.4, -30874.951, 0.0, 9.999253, 9.999869 
8.0503017e+2, 2.1485911e+2, -826333.9, -840872.06, -90284.34, 0.21232022, -0.11027774, -743026.44, 91348.67, 0.0, 10.000072, 9.999891 
8.050229e+2, 2.2485848e+2, -809895.56, -904869.8, -32811.926, 0.1980036, -0.10558297, -799662.25, -63280.676, 0.0, 10.000036, 9.998792 
8.0501527e+2, 2.3485899e+2, -859993.4, -880822.3, 5274.38, 0.09844284, 0.04544849, -858733.94, -220351.98, 0.0, 9.999029, 9.998773 
8.0500823e+2, 2.448589e+2, -700160.25, -626025.25, 17632.188, 0.061671633, 0.10701541, -622045.3, -81662.11, 0.0, 9.998891, 9.999922 
8.0500185e+2, 2.5485787e+2, -494922.13, -476084.66, -22044.057, 0.100894526, -0.013295235, -461531.47, -19143.09, 0.0, 9.999618, 9.999934 
8.0499494e+2, 2.64857e+2, -389105.66, -412333.94, -26865.393, 0.07042775, -0.07149315, -371451.4, -27058.205, 0.0, 9.999863, 9.999571 
8.049874e+2, 2.7485606e+2, -316931.03, -326676.2, -54930.785, -0.028883805, -0.1472203, -266657.13, -20256.826, 0.00000004701224, 9.999674, 9.9995775 
8.049811e+2, 2.8485513e+2, -273526.44, -388597.56, -63522.926, 0.027470995, -0.13279605, -245356.1, -96944.85, 0.000004093495, 9.9998865, 9.99837 
8.0497605e+2, 2.948542e+2, -75851.85, -246035.27, -45207.918, 0.24656042, -0.09370067, -64588.207, -14161.049, 0.000029631305, 10.000578, 9.998341 
8.049703e+2, 3.0485433e+2, -3759.5503, -69587.45, 43626.58, 0.27752873, 0.041830603, 17976.354, 17976.354, 0.00010221737, 10.000245, 9.9993925 
8.0496037e+2, 3.1485373e+2, -97452.03, 84593.65, 64271.55, -0.21248189, 0.00980206, 104997.87, 104997.87, 0.00023173695, 9.998703, 10.0011835 
8.150933e+2, 1.2486676e+2, -1731867.1, -1684347.0, -7542.9155, 0.14147803, -0.10334235, -1683178.5, 33126.598, 0.000000004999778, 9.999663, 10.000366 
8.15084e+2, 1.3486977e+2, -1620890.3, -1574160.5, 79752.12, -0.095671915, 0.13494498, -1514421.1, 103854.414, 0.0, 9.999764, 10.000401 
8.1507707e+2, 1.448691e+2, -1618572.1, -1609985.5, 8394.072, -0.025873484, 0.076244645, -1604850.5, -84568.586, 0.0, 9.999466, 9.999619 
8.1507015e+2, 1.5486702e+2, -1583618.3, -1538736.4, -10438.872, 0.10709311, -0.121553525, -1536427.3, -114125.02, 0.0, 9.999023, 9.999647 
8.15063e+2, 1.6486694e+2, -1452773.9, -1422805.8, 52840.992, 0.09659694, -0.091824755, -1382865.4, -58561.61, 0.0, 9.999245, 9.999664 
8.150559e+2, 1.748687e+2, -1210540.9, -1249790.0, 49863.367, -0.04080513, 0.09413253, -1176579.3, 49708.91, 0.0, 10.000217, 9.999704 
8.150499e+2, 1.8486874e+2, -1130484.5, -1197705.6, -39210.547, 0.014882933, 0.14702897, -1112450.8, 15837.625, 0.0, 10.000242, 9.99938 
8.150447e+2, 1.9486673e+2, -1176155.5, -1171042.6, -38909.58, 0.2527428, -0.012174551, -1134605.6, -104297.84, 0.0, 9.999263, 9.999365 
8.1503785e+2, 2.0486571e+2, -1109701.0, -1105852.1, -35979.918, 0.2862341, -0.038618404, -1071745.3, -139427.88, 0.0, 9.999126, 9.9992075 
8.150293e+2, 2.1486548e+2, -890335.1, -944871.75, -49053.84, 0.105628505, -0.0058220564, -861480.0, -27161.082, 0.0, 9.999946, 9.999239 
8.150216e+2, 2.2486517e+2, -744102.6, -734856.9, -80713.34, 0.041797988, 0.0041219583, -658634.1, 77685.766, 0.0, 9.999894, 10.000029 
8.150145e+2, 2.3486449e+2, -789175.75, -706144.3, -23154.734, 0.093706354, -0.08995893, -700123.8, -61800.5, 0.0, 9.998908, 10.000031 
8.150075e+2, 2.4486406e+2, -771149.75, -746007.2, 33913.676, 0.08444014, -0.08945683, -722409.75, -182083.44, 0.0, 9.998779, 9.999151 
8.1500083e+2, 2.5486365e+2, -565464.94, -601396.56, 14965.559, 0.019049138, -0.06590564, -560048.3, -117717.08, 0.0, 9.999531, 9.999115 
8.149946e+2, 2.6486298e+2, -425166.47, -478362.97, -42554.105, 0.02958046, -0.041716203, -401581.84, -57243.81, 0.0, 9.999827, 9.999133 
8.1498873e+2, 2.7486178e+2, -365663.63, -400666.13, -49102.707, 0.112324916, -0.095118664, -331036.47, -84687.18, 0.000000004527389, 9.999565, 9.99912 
8.149822e+2, 2.848614e+2, -223240.34, -281318.44, -48581.355, 0.11913492, -0.043585714, -195680.67, -47326.37, 0.0000024308686, 9.999866, 9.999119 
8.14975e+2, 2.948617e+2, -37839.313, -151884.25, -7923.362, 0.05605479, 0.047984406, -37291.465, 13062.625, 0.00002455122, 10.000516, 9.999018 
8.149691e+2, 3.0486104e+2, -60702.12, -196869.94, -19292.922, 0.10784922, 0.116186745, -58021.383, -58021.383, 0.00009685274, 10.000278, 9.9985 
8.149611e+2, 3.1486052e+2, -139566.34, 18724.396, 41575.54, -0.064606585, 0.17881249, 28979.895, 28979.895, 0.00023260323, 9.998609, 10.000779 
8.2509285e+2, 1.24874845e+2, -1766298.3, -1714881.1, -59977.848, 0.15112907, -0.0008287903, -1675334.3, 40892.453, 0.0000000017683296, 9.999456, 10.000253 
8.2508385e+2, 1.3487624e+2, -1681785.4, -1608185.9, -63266.793, -0.05326434, 0.07054862, -1571794.8, 46416.31, 0.0, 9.999348, 10.000368 
8.2507724e+2, 1.448754e+2, -1614289.8, -1631678.9, -93574.875, 0.04262146, 0.0074643977, -1529006.4, -8787.345, 0.0, 9.999606, 9.999396 
8.2506996e+2, 1.548743e+2, -1395547.4, -1477711.1, -96252.9, 0.1212331, -0.069076, -1331975.8, 90256.48, 0.0, 10.000443, 9.999376 
8.2506275e+2, 1.6487427e+2, -1275609.8, -1338165.4, 16264.58, 0.09332074, -0.019835858, -1271633.6, 52599.8, 0.0, 10.000464, 9.99965 
8.2505596e+2, 1.7487524e+2, -1303984.4, -1301000.4, 19932.225, -0.022602733, 0.08849519, -1282504.4, -56280.73, 0.0, 9.999592, 9.999656 
8.250498e+2, 1.8487494e+2, -1237019.6, -1252006.3, -33616.85, 0.02695685, 0.11019556, -1210071.0, -81844.24, 0.0, 9.999529, 9.999348 
8.250442e+2, 1.9487302e+2, -1034518.56, -1105835.5, -41762.445, 0.2295529, -0.037335664, -1015262.25, 14984.085, 0.0, 10.0002575, 9.999327 
8.250372e+2, 2.0487212e+2, -922822.44, -1014389.8, 23535.125, 0.24955572, -0.04876756, -917127.56, 15127.832, 0.0, 10.000411, 9.999205 
8.2502896e+2, 2.1487217e+2, -898564.9, -952112.3, 37051.582, 0.08169392, 0.012844794, -879625.9, -45371.004, 0.0, 9.999901, 9.999209 
8.2502127e+2, 2.2487192e+2, -735660.9, -719733.8, -4467.9224, 0.032198884, 0.024223799, -718566.06, 17688.984, 0.0, 9.999894, 10.000143 
8.250142e+2, 2.3487103e+2, -564329.3, -585363.0, -54462.645, 0.10637906, -0.0998163, -519377.4, 118881.59, 0.0, 10.000391, 10.0001545 
8.2500714e+2, 2.4487036e+2, -568752.4, -691046.4, 6454.3003, 0.09240231, -0.11042588, -568412.7, -28148.436, 0.0, 10.0003605, 9.998764 
8.2500017e+2, 2.548697e+2, -548381.3, -631522.9, -2343.655, -0.010911919, -0.07406281, -548315.3, -106042.47, 0.0, 9.999832, 9.998755 
8.249942e+2, 2.6486886e+2, -433706.8, -505906.16, -13369.038, 0.011040494, -0.037636142, -431310.8, -87028.71, 0.0, 9.999867, 9.998928 
8.249892e+2, 2.7486756e+2, -250923.31, -367688.13, -21504.092, 0.16725746, -0.08516894, -247088.9, -793.7539, 0.0, 10.000444, 9.998925 
8.249827e+2, 2.8486726e+2, -113628.46, -221535.72, -13011.901, 0.15536283, -0.016399972, -112081.6, 36217.04, 0.000001518397, 10.000602, 9.999174 
8.249747e+2, 2.948677e+2, -59258.332, -153361.45, -48523.754, -0.01217041, 0.083949916, -38719.92, 11575.289, 0.000022026383, 10.000329, 9.999098 
8.2496846e+2, 3.0486614e+2, -176614.16, -283914.28, -94039.09, 0.051138613, 0.070936374, -121997.516, -121997.516, 0.00009707927, 9.999622, 9.998208 
8.2496125e+2, 3.148656e+2, -201107.64, -56738.203, -22923.4, 0.1107799, 0.15082471, -53185.77, -53185.77, 0.00024343694, 9.998372, 10.000363 
8.350911e+2, 1.2488251e+2, -1804988.0, -1786882.1, -75317.05, -0.017612308, 0.17438534, -1720075.9, -3920.4146, 0.000000000051048894, 9.99943, 9.99977 
8.350846e+2, 1.348802e+2, -1697439.6, -1646315.1, -57421.617, 0.058369223, -0.08799877, -1609023.0, 9151.677, 0.0, 9.99938, 10.000089 
8.3507824e+2, 1.4487952e+2, -1604607.0, -1610461.0, -75195.39, 0.15060845, -0.13040166, -1532281.6, -12100.169, 0.0, 9.9996, 9.999543 
8.3506894e+2, 1.5488203e+2, -1383778.1, -1449145.0, -54798.27, -0.049430024, 0.13561629, -1352656.8, 69503.89, 0.0, 10.000427, 9.9995775 
8.3506185e+2, 1.6488221e+2, -1259481.4, -1286454.3, -26313.994, -0.06919064, 0.17486668, -1243399.1, 80759.42, 0.0, 10.000389, 10.000043 
8.3505714e+2, 1.7487998e+2, -1279301.9, -1243117.6, 34.953796, 0.11156884, -0.07301635, -1243117.5, -16942.063, 0.0, 9.999572, 10.00006 
8.350506e+2, 1.8487936e+2, -1235005.6, -1241955.8, -18584.357, 0.13357213, -0.10443339, -1219574.3, -91393.72, 0.0, 9.999497, 9.999436 
8.350421e+2, 1.9488011e+2, -1036331.9, -1091165.8, -3796.26, -0.023963258, 0.001973896, -1036070.25, -5893.9644, 0.0, 10.000177, 9.999466 
8.350347e+2, 2.0488015e+2, -899875.75, -935859.5, -5879.473, -0.055474862, 0.04434597, -898939.44, 33236.867, 0.0, 10.000276, 9.999808 
8.3502865e+2, 2.1487918e+2, -873240.1, -870200.0, 28171.68, 0.04200728, -0.057750512, -843507.4, -9324.344, 0.0, 9.999776, 9.999828 
8.350218e+2, 2.2487876e+2, -825293.4, -876431.4, 1584.3542, 0.08024612, -0.044475496, -825244.4, -89057.98, 0.0, 9.9997635, 9.999133 
8.3501416e+2, 2.3487866e+2, -652038.44, -745341.0, -24605.934, 0.047622733, 0.012676158, -645947.0, -7758.453, 0.0, 10.000287, 9.999111 
8.350067e+2, 2.4487787e+2, -579686.25, -694726.1, -22394.53, -0.0060598482, 0.041582342, -575480.56, -35284.055, 0.0, 10.000276, 9.99878 
8.3499944e+2, 2.5487605e+2, -559852.3, -638820.7, -9988.091, -0.08115007, -0.039270915, -558608.56, -116395.56, 0.0, 9.999754, 9.998747 
8.349934e+2, 2.6487467e+2, -438457.28, -501319.25, 22.081627, -0.07075424, -0.060496096, -438457.28, -94231.57, 0.0, 9.999807, 9.998987 
8.3498853e+2, 2.7487347e+2, -259403.23, -366987.38, 13841.186, 0.032306418, -0.09951144, -257651.05, -11414.468, 0.0, 10.000368, 9.998967 
8.3498234e+2, 2.8487283e+2, -160080.61, -311639.63, -32403.336, 0.037650976, -0.038414057, -153443.42, -5200.243, 0.0000012583888, 10.000575, 9.998568 
8.3497477e+2, 2.9487225e+2, -116744.79, -250471.42, -45589.227, -0.0627515, 0.021222588, -102681.72, -52431.957, 0.000022671806, 10.0002365, 9.998477 
8.349679e+2, 3.048695e+2, -153974.73, -236694.61, -144161.67, 0.0122135505, -0.09484322, -45357.234, -45357.234, 0.0001036696, 9.999617, 9.998539 
8.3496e+2, 3.1487012e+2, -243845.69, -129183.36, -25656.512, 0.090648964, 0.073509686, -123704.34, -123704.34, 0.0002623637, 9.998311, 9.999898 
8.4509116e+2, 1.2488843e+2, -1667921.3, -1731885.8, 574.94257, 0.009091956, 0.13462962, -1667916.0, 48182.11, 0.0, 10.000437, 9.999661 
8.450848e+2, 1.3488638e+2, -1540440.6, -1588357.4, -27763.277, 0.0863664, -0.08243912, -1527727.4, 90388.71, 0.0, 10.00055, 9.999921 
8.450783e+2, 1.448861e+2, -1513088.1, -1531537.8, -7611.9946, 0.1822324, -0.090925, -1510353.1, 9765.877, 0.0, 10.000079, 9.999853 
8.4506917e+2, 1.5488859e+2, -1520712.5, -1483566.1, -1609.3507, -0.0129379835, 0.14033273, -1483496.5, -61399.52, 0.0, 9.999351, 9.999864 
8.45062e+2, 1.6488867e+2, -1410792.5, -1355124.5, 35805.875, -0.024166383, 0.15392776, -1337606.6, -13511.751, 0.0, 9.999325, 10.00009 
8.450573e+2, 1.7488618e+2, -1237726.8, -1221028.0, 13578.252, 0.16769458, -0.121818304, -1213437.5, 12676.834, 0.0, 9.999843, 10.000087 
8.450505e+2, 1.8488583e+2, -1160580.3, -1182333.8, 14362.505, 0.1604611, -0.14086927, -1153440.8, -25323.857, 0.0, 9.999913, 9.9996395 
8.4504145e+2, 1.9488737e+2, -1120159.8, -1115775.5, 13381.63, -0.06822459, 0.027641611, -1104407.6, -74302.74, 0.0, 9.999525, 9.999617 
8.45034e+2, 2.0488769e+2, -1010895.2, -992210.0, 1827.43, -0.11128795, 0.0934416, -992032.94, -59930.555, 0.0, 9.999521, 9.999792 
8.450284e+2, 2.1488649e+2, -870388.1, -875549.94, -35800.938, 0.045309726, -0.027514014, -837075.2, -2963.0076, 0.0, 9.999821, 9.999777 
8.450219e+2, 2.2488584e+2, -840795.3, -918408.7, -33367.62, 0.11669477, -0.01761213, -828422.4, -92303.45, 0.0, 9.999822, 9.998801 
8.450144e+2, 2.3488566e+2, -793185.75, -845627.3, -33049.707, 0.09328092, 0.062041108, -777218.7, -139095.08, 0.0, 9.999484, 9.998792 
8.450071e+2, 2.4488479e+2, -628342.6, -718739.6, 25761.652, 0.0343879, 0.10027027, -621516.44, -81384.12, 0.0, 9.999941, 9.9987755 
8.4500015e+2, 2.5488287e+2, -351302.0, -533677.44, 16476.0, -0.058852058, 0.0073541515, -349825.5, 92322.695, 0.0, 10.001174, 9.9987755 
8.449939e+2, 2.6488122e+2, -286123.25, -469239.9, 1295.8969, -0.05931644, -0.022462897, -286114.1, 58049.184, 0.0, 10.001029, 9.998615 
8.449886e+2, 2.748797e+2, -412837.1, -477892.47, -37303.715, 0.053290933, -0.06124275, -395871.2, -149691.9, 0.0000000050987805, 9.9994755, 9.998632 
8.449824e+2, 2.8487888e+2, -374026.4, -399835.22, -23321.12, 0.062914714, -0.006497679, -360277.53, -212090.4, 0.0000017149706, 9.999025, 9.998711 
8.4497494e+2, 2.948783e+2, -188542.64, -259053.6, 1389.6216, -0.03615214, 0.030462943, -188515.27, -138323.6, 0.0000255943, 9.999619, 9.998715 
8.449673e+2, 3.048756e+2, -123161.75, -158502.6, -73809.16, 0.0055029895, -0.124578476, -64937.28, -64937.28, 0.000114907256, 9.9995575, 9.999111 
8.449589e+2, 3.1487545e+2, -200350.81, -112914.805, 27423.09, 0.14735864, -0.07986276, -105025.74, -105025.74, 0.00028673265, 9.998604, 9.999879 
8.550924e+2, 1.24892995e+2, -1674522.9, -1738982.5, -10455.688, 0.031819414, -0.09689812, -1672869.4, 43181.4, 0.0, 10.000414, 9.999622 
8.55084e+2, 1.3489479e+2, -1556233.9, -1609271.4, -19047.451, -0.07207621, 0.08253664, -1550102.3, 67933.125, 0.0, 10.000519, 9.999783 
8.550772e+2, 1.4489517e+2, -1477485.4, -1460810.0, -47409.813, 0.03700937, 0.121748194, -1421010.4, 99021.35, 0.0, 10.000078, 10.000345 
8.550701e+2, 1.5489407e+2, -1480412.8, -1406103.1, -13349.573, 0.12473442, -0.053144924, -1403777.6, 18262.254, 0.0, 9.999374, 10.000382 
8.550632e+2, 1.6489375e+2, -1443273.4, -1417078.9, 42968.234, 0.13113445, -0.084184855, -1385256.1, -61214.504, 0.0, 9.999299, 9.999679 
8.550563e+2, 1.7489387e+2, -1266430.8, -1273994.4, 41818.77, 0.054155685, -0.06583313, -1228223.1, -2183.1218, 0.0, 9.999818, 9.999732 
8.550492e+2, 1.8489432e+2, -1151889.4, -1152156.5, -9926.788, 0.0112950215, 0.0011832063, -1142095.3, -14059.313, 0.0, 9.999852, 9.999881 
8.550418e+2, 1.9489491e+2, -1106746.8, -1079309.3, 7970.065, -0.0063414983, 0.049629018, -1077162.1, -47130.953, 0.0, 9.999484, 9.9998865 
8.550347e+2, 2.0489497e+2, -1071649.3, -1102133.5, 1336.1248, -0.006840803, 0.11155606, -1071590.9, -139558.92, 0.0, 9.999442, 9.9990835 
8.55028e+2, 2.1489412e+2, -932916.8, -980676.44, -13023.748, 0.0037670063, 0.09668082, -929596.2, -95554.27, 0.0, 9.999708, 9.999113 
8.5502124e+2, 2.2489315e+2, -843259.8, -886571.56, -55187.62, 0.053287063, 0.09245598, -805631.2, -69578.62, 0.0, 9.999665, 9.999095 
8.550146e+2, 2.3489195e+2, -787757.56, -808299.7, -33963.285, 0.14728875, 0.03876671, -762546.25, -124481.21, 0.0, 9.999371, 9.999103 
8.550082e+2, 2.4489109e+2, -642942.1, -726286.7, 61273.008, 0.122542284, 0.06330494, -610513.4, -70441.125, 0.0, 9.9998455, 9.99877 
8.550018e+2, 2.5489017e+2, -365556.25, -542616.44, 72340.73, -0.027161686, 0.07111311, -339758.94, 102319.305, 0.0, 10.001082, 9.998761 
8.549955e+2, 2.6488853e+2, -347694.9, -581869.3, -66966.266, -0.022323888, 0.07738289, -329897.34, 14197.999, 0.0, 10.000963, 9.997877 
8.549891e+2, 2.7488604e+2, -480224.94, -597144.56, -83571.664, 0.1375541, 0.020484855, -436695.66, -190570.95, 0.0000001292932, 9.999388, 9.997859 
8.549823e+2, 2.848854e+2, -313194.97, -255291.7, -8486.285, 0.13321951, 0.08063042, -254073.58, -105942.78, 0.0000031613251, 9.998956, 9.999732 
8.5497475e+2, 2.9488602e+2, -126375.24, -111975.34, 37305.35, -0.049263593, 0.1374132, -81181.5, -31062.393, 0.000030116835, 9.999547, 9.999759 
8.549663e+2, 3.0488437e+2, -67561.01, -34908.445, -115403.7, -0.068871215, -0.009224935, 65318.1, 65318.1, 0.0001273879, 9.999531, 9.999973 
8.549575e+2, 3.148824e+2, -208062.47, -97002.79, 14422.325, 0.09770512, -0.22475664, -95160.45, -95160.45, 0.00031292601, 9.998483, 10.000047 
8.6509305e+2, 1.2490012e+2, -1770104.6, -1735964.1, 10577.989, 0.119321145, -0.07512251, -1732952.4, -16967.672, 0.00000000000000000000885557, 9.999525, 10.000074 
8.650836e+2, 1.3490255e+2, -1749862.9, -1669072.1, -3547.4836, -0.07606615, 0.13034914, -1668916.8, -50955.5, 0.0, 9.999004, 10.000116 
8.650766e+2, 1.4490315e+2, -1627436.9, -1533439.4, 8242.032, 0.02616584, 0.17483345, -1532722.1, -12767.51, 0.0, 9.999061, 10.000336 
8.6507064e+2, 1.549016e+2, -1409341.6, -1380684.4, -22382.818, 0.21404314, -0.04029035, -1368436.8, 53531.13, 0.0, 9.999892, 10.000319 
8.650637e+2, 1.6490121e+2, -1326096.1, -1364601.1, 51586.465, 0.22608754, -0.07161491, -1290286.6, 33683.914, 0.0, 10.000132, 9.999625 
8.65056e+2, 1.7490181e+2, -1271204.1, -1289678.8, 48040.656, 0.050682604, 0.002148572, -1231520.8, -5555.92, 0.0, 9.999839, 9.999614 
8.6504894e+2, 1.8490207e+2, -1141637.4, -1155813.8, 14359.421, 0.0037041432, 0.061221447, -1132712.0, -4749.807, 0.0, 9.999973, 9.999787 
8.650426e+2, 1.9490182e+2, -966068.3, -1021734.2, -11248.515, 0.07665262, 0.03621233, -963881.2, 66082.98, 0.0, 10.00051, 9.999778 
8.650357e+2, 2.049015e+2, -917028.5, -1033810.0, 1525.0338, 0.09413727, 0.06905957, -917008.6, 14959.727, 0.0, 10.000553, 9.999 
8.650282e+2, 2.149008e+2, -896801.94, -973919.2, 6416.853, 0.042395037, 0.07532225, -896271.6, -62294.04, 0.0, 10.00002, 9.998996 
8.6502117e+2, 2.2489998e+2, -739885.44, -840729.1, 17387.719, 0.050287712, 0.09483718, -736971.6, -984.6654, 0.0, 10.000385, 9.999071 
8.650149e+2, 2.3489895e+2, -460957.53, -653857.7, -4068.551, 0.12850563, 0.06272627, -460871.78, 177125.55, 0.0, 10.001624, 9.999082 
8.650087e+2, 2.4489807e+2, -427827.94, -619319.1, 69511.33, 0.12885465, 0.083832674, -405256.0, 134749.22, 0.0, 10.001317, 9.99879 
8.6500275e+2, 2.5489697e+2, -599530.7, -650532.6, 60042.297, 0.045086842, 0.071231104, -559798.4, -117784.52, 0.0, 9.999467, 9.998794 
8.6499614e+2, 2.648956e+2, -595073.25, -676671.9, -13903.077, 0.048686408, 0.09402334, -592769.44, -248740.88, 0.0000000005766255, 9.999158, 9.998091 
8.6498916e+2, 2.7489382e+2, -305053.7, -489501.9, 19942.996, 0.15189739, 0.08530991, -302922.03, -56870.984, 0.000000514823, 10.000483, 9.998069 
8.649819e+2, 2.8489313e+2, -140083.19, -152646.78, 97002.47, 0.14564882, 0.122030966, -49159.33, 98897.93, 0.0000054394536, 10.0000515, 9.99992 
8.649742e+2, 2.948931e+2, -367496.28, -201622.1, 60104.355, 0.037169077, 0.09416952, -182133.14, -132081.8, 0.000035908153, 9.997774, 10.000002 
8.6496556e+2, 3.0489245e+2, -306870.0, -143169.88, -75227.68, -0.0037272046, 0.03070099, -113850.54, -113850.54, 0.00014004746, 9.997856, 10.000023 
8.649572e+2, 3.1489107e+2, 21138.52, 29722.377, -48347.207, 0.15041998, -0.13261458, 73967.78, 73967.78, 0.00033713353, 9.999995, 10.00017 
8.750925e+2, 1.2491e+2, -1695594.4, -1586114.8, -31322.955, 0.05519693, 0.22484031, -1577786.5, 138111.27, 0.0000000055054987, 9.999539, 10.001094 
8.750833e+2, 1.3490984e+2, -1680652.1, -1520926.4, -14256.196, -0.028225698, 0.06679306, -1519663.9, 98228.22, 0.0, 9.998992, 10.001131 
8.750762e+2, 1.4491028e+2, -1675043.0, -1631936.0, 25363.684, 0.046953596, 0.07812615, -1620204.9, -100319.086, 0.0, 9.99906, 9.9996605 
8.750702e+2, 1.5491119e+2, -1457272.5, -1472637.6, 20045.295, 0.15907991, 0.17335112, -1443488.0, -21607.91, 0.0, 9.999874, 9.999689 
8.750635e+2, 1.6491115e+2, -1310736.9, -1334397.5, 30428.258, 0.1613549, 0.19612537, -1289920.1, 33960.438, 0.0, 10.000126, 9.999842 
8.750562e+2, 1.7491011e+2, -1253441.6, -1256879.1, 47197.86, 0.06658657, 0.086814746, -1207931.3, 17956.324, 0.0, 9.999851, 9.999835 
8.7504953e+2, 1.8490924e+2, -1178090.9, -1223337.6, 24490.912, 0.04450412, 0.04590504, -1167373.3, -39479.41, 0.0, 9.999937, 9.999344 
8.7504345e+2, 1.9490816e+2, -1003841.2, -1085307.0, 20103.826, 0.09148782, -0.021882748, -999150.1, 30753.416, 0.0, 10.000446, 9.9993725 
8.7503654e+2, 2.049073e+2, -905395.44, -981439.7, -27915.5, 0.10270541, -0.044502508, -896248.1, 35663.32, 0.0, 10.000428, 9.999421 
8.7502867e+2, 2.1490654e+2, -884138.25, -918813.2, -5145.433, 0.07134244, -0.08609461, -883390.9, -49471.94, 0.0, 9.999895, 9.9994335 
8.7502146e+2, 2.2490641e+2, -781213.8, -898908.94, 51838.934, 0.024363834, -0.0012523694, -761637.44, -25716.342, 0.0, 10.000264, 9.998731 
8.7501496e+2, 2.3490673e+2, -504349.94, -710946.6, 52623.93, -0.045672256, 0.13327286, -491718.0, 146202.28, 0.0, 10.001483, 9.998757 
8.7500864e+2, 2.4490573e+2, -441399.88, -625174.75, -9743.681, -0.03146817, 0.15881287, -440884.72, 99046.27, 0.0, 10.001214, 9.998802 
8.7500256e+2, 2.5490323e+2, -615211.9, -655874.2, 1861.0856, 0.059915442, 0.0019864065, -615126.9, -173171.45, 0.0, 9.9993515, 9.998812 
8.749957e+2, 2.6490244e+2, -521519.84, -514459.03, 26069.545, 0.068667024, 0.025380548, -491681.94, -147718.53, 0.0000000691861, 9.999113, 9.999227 
8.7498826e+2, 2.7490312e+2, -235463.31, -326362.3, 81980.81, -0.008282323, 0.14546528, -187176.42, 58781.418, 0.000001269736, 10.000405, 9.999225 
8.7498075e+2, 2.8490224e+2, -181262.86, -236706.75, 552.57245, 0.0115330005, 0.1362119, -181257.34, -33292.383, 0.000008255043, 10.000037, 9.999355 
8.7497306e+2, 2.9489946e+2, -416909.84, -292616.06, -12565.941, 0.12315534, -0.10324987, -291358.4, -241369.67, 0.000042714033, 9.997719, 9.99941 
8.749648e+2, 3.048998e+2, -367026.7, -253641.56, 2629.9583, 0.11061401, -0.004729737, -253580.6, -253580.6, 0.00015286829, 9.997797, 9.999289 
8.749573e+2, 3.1490058e+2, -5905.1553, -14206.344, 49820.34, 0.10397757, 0.11860229, 39937.188, 39937.188, 0.00035722472, 9.999944, 9.999892 
8.850925e+2, 1.24919325e+2, -1688987.1, -1606959.8, 117245.62, 0.094705686, 0.29062352, -1523761.4, 192045.02, 0.00000006865043, 9.9997, 10.000878 
8.8508344e+2, 1.3491793e+2, -1544240.1, -1492273.4, 458.70322, 0.036320128, 0.04571857, -1492269.3, 125544.42, 0.0, 10.000088, 10.000809 
8.8507605e+2, 1.4491779e+2, -1529586.6, -1576303.6, 54034.98, 0.08611114, 0.023084156, -1494077.5, 25735.873, 0.0, 10.000133, 9.9995165 
8.8506997e+2, 1.5491906e+2, -1428392.3, -1476737.5, 60044.465, 0.13912755, 0.16819106, -1387837.3, 33966.78, 0.0, 10.000151, 9.99952 
8.8506347e+2, 1.649192e+2, -1276483.9, -1312458.6, 90938.38, 0.14342162, 0.21687855, -1201771.0, 122031.68, 0.0, 10.000351, 9.999883 
8.8505685e+2, 1.7491825e+2, -1122687.0, -1187114.9, 74985.98, 0.1042476, 0.11304632, -1073288.3, 152520.95, 0.0, 10.0007305, 9.999887 
8.850503e+2, 1.8491735e+2, -1091502.4, -1194148.0, 70297.73, 0.09984047, 0.07109069, -1055786.1, 72030.32, 0.0, 10.000583, 9.999234 
8.850438e+2, 1.9491614e+2, -1099160.3, -1145659.8, 65321.11, 0.11984572, 0.004388109, -1053074.6, -23246.615, 0.0, 9.999855, 9.999245 
8.850368e+2, 2.0491529e+2, -988658.9, -1015898.7, 41841.297, 0.1223351, -0.015451172, -958276.56, -26441.025, 0.0, 9.999816, 9.999491 
8.850292e+2, 2.1491459e+2, -801324.06, -874819.25, 22612.521, 0.10863345, -0.05365174, -794924.1, 38916.38, 0.0, 10.000427, 9.999495 
8.850221e+2, 2.2491428e+2, -751566.8, -874197.25, 110755.336, 0.06044942, 0.0025118138, -686287.0, 49556.355, 0.0, 10.000431, 9.998811 
8.8501567e+2, 2.3491402e+2, -742676.6, -820208.4, 115330.91, -0.029185649, 0.0732572, -659770.75, -21923.94, 0.0, 9.999821, 9.998804 
8.850092e+2, 2.449131e+2, -661781.9, -716792.3, 53168.86, -0.013648925, 0.09881567, -629425.06, -89568.12, 0.0, 9.999638, 9.998929 
8.8500255e+2, 2.5491124e+2, -513563.38, -595860.2, 49043.91, 0.10405014, -0.0050900774, -490692.28, -48815.887, 0.00000000006372724, 9.999978, 9.998926 
8.849953e+2, 2.6491085e+2, -394488.84, -401832.25, 112341.88, 0.085745, 0.031824917, -285758.7, 58121.4, 0.00000025387644, 9.9997635, 9.999689 
8.8498735e+2, 2.7491176e+2, -400937.66, -351463.9, 94716.29, -0.06624015, 0.12783282, -278307.53, -32437.281, 0.0000021793016, 9.999033, 9.999713 
8.8498e+2, 2.8491092e+2, -334356.8, -360433.2, -17159.04, -0.020025404, 0.115507275, -325844.44, -177966.31, 0.000011106664, 9.99923, 9.998876 
8.849732e+2, 2.9490793e+2, -54106.184, -174151.69, -47675.336, 0.2329315, -0.092145726, -37476.027, 12431.246, 0.000049522223, 10.000462, 9.998895 
8.849649e+2, 3.0490825e+2, 37302.492, -126763.85, 46084.426, 0.20277883, 0.061256427, 49360.848, 49360.848, 0.00016466355, 10.000855, 9.998702 
8.849571e+2, 3.1490937e+2, -6170.078, -27807.215, 56366.703, 0.09153304, 0.28643352, 40406.883, 40406.883, 0.00037254568, 9.999987, 9.999802 
8.950922e+2, 1.24928005e+2, -1801091.0, -1822842.9, 98659.31, 0.04566289, 0.12080211, -1712710.0, 3001.8374, 0.00000033567557, 9.999649, 9.999412 
8.9508367e+2, 1.3492697e+2, -1660114.8, -1725516.0, 18828.322, 0.03411289, 0.075867094, -1655081.6, -37356.934, 0.00000000007521531, 10.000075, 9.999206 
8.9507604e+2, 1.4492598e+2, -1504075.8, -1527533.8, 42524.72, 0.039686315, 0.030717632, -1471692.1, 48042.406, 0.0, 10.00014, 9.999853 
8.950696e+2, 1.5492544e+2, -1405935.1, -1431515.3, 74128.58, 0.062251315, -0.037750028, -1343501.3, 78236.22, 0.0, 10.000151, 9.999835 
8.9506334e+2, 1.6492556e+2, -1289314.9, -1337312.9, 94021.086, 0.0715318, 0.0030056506, -1216278.3, 107457.26, 0.0, 10.00034, 9.999717 
8.950576e+2, 1.7492622e+2, -1137473.3, -1209339.0, 100429.66, 0.08410846, 0.07382255, -1066741.8, 158988.13, 0.0, 10.000696, 9.99975 
8.9505094e+2, 1.8492642e+2, -1090180.6, -1175214.6, 33499.773, 0.084528536, 0.13775985, -1078568.9, 49160.605, 0.0, 10.000509, 9.999401 
8.950434e+2, 1.9492586e+2, -1100858.3, -1130697.1, 47490.65, 0.065672696, 0.12019734, -1065998.6, -36261.813, 0.0, 9.999772, 9.999388 
8.9503616e+2, 2.0492548e+2, -1021245.6, -1059137.1, 54727.62, 0.058436714, 0.15608458, -982277.2, -50537.035, 0.0, 9.999712, 9.999244 
8.950293e+2, 2.1492507e+2, -839322.2, -917874.3, 57830.938, 0.063393444, 0.16698754, -808691.0, 25050.633, 0.0, 10.00028, 9.999266 
8.9502287e+2, 2.2492364e+2, -745312.1, -829900.6, 78115.414, 0.07405777, 0.10672858, -698776.06, 36976.48, 0.0, 10.000289, 9.9991865 
8.950168e+2, 2.3492098e+2, -733847.75, -770990.56, 102071.21, 0.079957634, -0.104161516, -648672.2, -10896.813, 0.0, 9.999689, 9.999204 
8.9501005e+2, 2.4492024e+2, -657690.1, -692606.2, 54415.22, 0.08541797, -0.091923416, -618001.0, -78218.81, 0.0, 9.999563, 9.999134 
8.9500254e+2, 2.549212e+2, -516150.75, -574076.3, 72603.94, 0.085063316, 0.0642335, -466945.9, -25170.436, 0.0000000002378373, 9.999864, 9.999131 
8.949946e+2, 2.6492122e+2, -414627.6, -432547.78, 76058.23, 0.015430523, 0.13864426, -347003.5, -3227.635, 0.00000030747992, 9.999715, 9.999499 
8.949861e+2, 2.7491996e+2, -430346.84, -391426.6, 80034.984, -0.12494562, 0.040959667, -328519.88, -82733.01, 0.0000026197797, 9.998946, 9.999478 
8.9497924e+2, 2.8491902e+2, -372752.28, -435625.13, 17960.506, -0.04975081, 0.059534878, -367983.34, -220186.2, 0.000013171274, 9.9992, 9.998375 
8.949741e+2, 2.9491833e+2, -90555.32, -245374.5, 11561.478, 0.24539508, 0.12367959, -89696.7, -39888.652, 0.000055655084, 10.000434, 9.998419 
8.9496577e+2, 3.0491775e+2, 506.48544, -190825.56, 8116.18, 0.17763662, 0.23381849, 850.15125, 850.15125, 0.00017577781, 10.000814, 9.998277 
8.949558e+2, 3.1491563e+2, -9227.7705, -2859.7173, 42196.777, -0.08663643, 0.16916728, 36272.992, 36272.992, 0.0003866523, 9.99987, 10.000017 
9.050925e+2, 1.249359e+2, -1742719.8, -1860821.3, 26867.352, 0.09281141, 0.014056485, -1736894.9, -21265.008, 0.0000010657902, 10.000309, 9.998842 
9.050844e+2, 1.349357e+2, -1675373.1, -1803390.8, -15016.916, 0.09232449, 0.11249338, -1673635.1, -55995.176, 0.000000007369457, 10.000265, 9.998579 
9.050766e+2, 1.4493485e+2, -1469079.0, -1481341.5, 66827.94, 0.082103476, 0.098121196, -1408101.6, 111548.33, 0.0, 10.00025, 10.000114 
9.0506977e+2, 1.5493387e+2, -1339960.8, -1366766.5, 68947.555, 0.05505774, -0.04278807, -1283125.5, 138528.81, 0.0, 10.000459, 10.00013 
9.050632e+2, 1.6493382e+2, -1295746.6, -1359821.8, 108135.64, 0.031806093, -0.02641559, -1215002.4, 108651.09, 0.0, 10.000377, 9.99955 
9.050573e+2, 1.7493446e+2, -1252252.8, -1282838.5, 89612.07, 0.029243788, 0.059986304, -1176638.0, 49012.05, 0.0, 9.999983, 9.999591 
9.050508e+2, 1.8493485e+2, -1165582.5, -1196043.1, 34256.184, 0.05937204, 0.14602399, -1143323.5, -15675.11, 0.0, 9.99992, 9.99954 
9.0504384e+2, 1.9493479e+2, -1017170.9, -1076149.5, 31802.697, 0.11386046, 0.1625975, -1003289.3, 26361.727, 0.0, 10.000265, 9.99953 
9.0503675e+2, 2.0493454e+2, -904395.7, -998339.25, 88970.78, 0.111198545, 0.20133406, -850758.56, 80894.26, 0.0, 10.000501, 9.999273 
9.0502954e+2, 2.1493383e+2, -787750.56, -891768.9, 85764.24, 0.050066452, 0.1807253, -739457.9, 94198.625, 0.0, 10.0006275, 9.999274 
9.050231e+2, 2.2493224e+2, -727784.25, -831279.8, 87081.73, 0.06521078, 0.10781449, -678235.2, 57433.727, 0.0, 10.000456, 9.999098 
9.050173e+2, 2.349295e+2, -685498.4, -760879.6, 55309.86, 0.15189454, -0.09776691, -656257.94, -18565.313, 0.0, 10.00007, 9.999095 
9.050105e+2, 2.4492876e+2, -616775.2, -641094.8, 29849.033, 0.17130952, -0.09378525, -596704.2, -57005.74, 0.0, 9.999722, 9.999404 
9.050025e+2, 2.549298e+2, -554206.0, -560183.06, 30264.154, 0.11603321, 0.046951544, -526783.2, -85095.2, 0.0, 9.999473, 9.999409 
9.049944e+2, 2.6492956e+2, -450998.5, -489482.22, 46760.105, 0.036514796, 0.0969203, -419675.97, -75985.42, 0.0000002007212, 9.999651, 9.99914 
9.0498626e+2, 2.749276e+2, -257333.48, -349338.16, 13289.375, -0.05989182, -0.034658756, -255452.39, -9742.541, 0.0000025589381, 10.000317, 9.99911 
9.0497935e+2, 2.849267e+2, -203320.78, -340588.7, 6166.413, -0.0037452527, 0.002500812, -203044.33, -55324.156, 0.000014749117, 10.000295, 9.998513 
9.049737e+2, 2.94927e+2, -221816.64, -287764.7, 23800.604, 0.21563725, 0.15194906, -214124.28, -164403.06, 0.00006245814, 9.99945, 9.998604 
9.0496546e+2, 3.0492583e+2, -205409.17, -307863.56, 65391.92, 0.14609106, 0.20198911, -173568.16, -173568.16, 0.00018870574, 9.999485, 9.998114 
9.049562e+2, 3.1492305e+2, 17509.033, -14418.177, 58096.973, -0.02865753, 0.09406412, 61795.7, 61795.7, 0.00040376265, 10.000149, 9.999814 
9.150925e+2, 1.24943614e+2, -1715026.0, -1805548.6, -12569.329, 0.01934667, 0.012585031, -1713313.1, 2241.5288, 0.000002613721, 10.000332, 9.999207 
9.150851e+2, 1.3494419e+2, -1654648.1, -1752550.3, -10979.8125, 0.11407273, 0.15144846, -1653431.9, -35872.785, 0.00000007607973, 10.000234, 9.998941 
9.150773e+2, 1.4494416e+2, -1461744.4, -1453845.6, 61164.22, 0.10563692, 0.19508258, -1396503.5, 123058.01, 0.0, 10.000197, 10.000329 
9.1507006e+2, 1.5494435e+2, -1326615.0, -1334375.4, 89527.9, 0.019650528, 0.14793384, -1240883.3, 180670.9, 0.0, 10.0004425, 10.000359 
9.150628e+2, 1.649441e+2, -1310623.9, -1387126.0, 80759.17, -0.07266959, 0.14004953, -1259515.1, 64040.37, 0.0, 10.000361, 9.999369 
9.150557e+2, 1.7494312e+2, -1272150.4, -1315624.8, 84295.93, -0.1555502, 0.08344609, -1206834.1, 18733.877, 0.0, 9.999948, 9.999382 
9.1504973e+2, 1.8494281e+2, -1160777.8, -1174198.4, 37190.066, -0.07079013, 0.10084301, -1129697.5, -2125.2283, 0.0, 9.999867, 9.999718 
9.150449e+2, 1.9494301e+2, -1020662.75, -1059303.1, 56575.813, 0.17698413, 0.12840576, -980199.2, 49370.906, 0.0, 10.000168, 9.999693 
9.150382e+2, 2.0494254e+2, -905092.1, -974377.56, 84091.27, 0.19137023, 0.12592597, -848787.25, 82785.5, 0.0, 10.000389, 9.99949 
9.150296e+2, 2.1494107e+2, -793312.5, -870325.7, 99116.97, -0.02731691, 0.006835945, -725485.06, 108098.31, 0.0, 10.000488, 9.999486 
9.1502243e+2, 2.2494015e+2, -781454.7, -921226.8, 60709.902, -0.06214496, 0.019299299, -758767.75, -23176.523, 0.0, 10.000355, 9.998532 
9.15017e+2, 2.3493965e+2, -745105.3, -854039.75, 51599.492, 0.096745946, 0.0934222, -724544.6, -86946.5, 0.0, 9.99994, 9.998518 
9.150103e+2, 2.449388e+2, -605880.94, -601331.94, 12042.051, 0.15015136, 0.10040399, -591351.5, -51747.297, 0.0, 9.999641, 9.99972 
9.15002e+2, 2.549373e+2, -545562.7, -523115.13, 31650.688, 0.09860348, -0.046290327, -500757.06, -59144.45, 0.0, 9.999388, 9.999708 
9.149945e+2, 2.64936e+2, -496173.13, -573563.0, 62586.996, 0.05713587, -0.08752322, -461285.25, -117661.734, 0.00000011562638, 9.99961, 9.998582 
9.1498774e+2, 2.7493462e+2, -305069.53, -433405.25, 52208.668, 0.02949571, -0.1015325, -286513.38, -40873.848, 0.0000025826089, 10.000252, 9.998565 
9.149802e+2, 2.84934e+2, -154506.42, -228234.05, -35316.332, 0.025198814, -0.053106412, -140319.44, 7327.1543, 0.000017159802, 10.000249, 9.999307 
9.149717e+2, 2.9493403e+2, -177943.45, -184576.38, 5703.3267, 0.040345196, -0.011236976, -174662.42, -125016.484, 0.00007135739, 9.999396, 9.999341 
9.149638e+2, 3.0493245e+2, -217080.89, -316719.4, 86720.766, 0.008029418, -0.036780294, -166887.9, -166887.9, 0.00020552066, 9.999421, 9.99808 
9.149578e+2, 3.1493115e+2, -18386.898, -67937.07, 103453.63, 0.059218984, 0.0059708958, 63216.86, 63216.86, 0.00042645857, 10.000067, 9.999478 
9.250928e+2, 1.249512e+2, -1767974.6, -1775490.1, -19672.871, 0.05839097, 0.03973212, -1751703.8, -36222.477, 0.0000053718704, 9.999722, 9.999709 
9.25085e+2, 1.3495183e+2, -1690315.0, -1702961.3, -34671.297, 0.1266117, 0.12124156, -1661395.0, -43912.098, 0.00000033393198, 9.999697, 9.999551 
9.2507726e+2, 1.4495216e+2, -1532211.3, -1466583.6, 82713.35, 0.11510372, 0.16037364, -1410412.9, 109068.484, 0.0, 9.999622, 10.000524 
9.250702e+2, 1.5495327e+2, -1414756.1, -1357996.9, 80571.69, 0.029546237, 0.18945925, -1300952.9, 120513.65, 0.0, 9.999752, 10.000532 
9.2506313e+2, 1.649532e+2, -1391713.9, -1415141.9, 88590.414, -0.038246583, 0.18591332, -1314066.4, 9399.726, 0.0, 9.99975, 9.999471 
9.2505616e+2, 1.749517e+2, -1308010.6, -1322983.3, 93086.914, -0.08085877, 0.06645669, -1222109.5, 3373.0881, 0.0, 9.999652, 9.999477 
9.2505014e+2, 1.849512e+2, -1153960.0, -1177111.6, 96473.89, -0.018639276, 0.062852494, -1068369.9, 59118.38, 0.0, 9.999942, 9.999664 
9.250449e+2, 1.949515e+2, -962084.06, -1035196.9, 74117.766, 0.14388339, 0.104679376, -915997.75, 113487.52, 0.0, 10.000588, 9.999654 
9.2503816e+2, 2.0495097e+2, -894325.06, -984881.56, 72711.36, 0.14633742, 0.10612789, -853946.7, 77542.555, 0.0, 10.000534, 9.999352 
9.2502993e+2, 2.1494935e+2, -893111.8, -931572.44, 45748.707, -0.0052711586, -0.013440091, -862716.06, -29213.4, 0.0, 9.999858, 9.9993725 
9.250228e+2, 2.2494878e+2, -811144.7, -889502.1, 69707.31, -0.043011747, 0.01591478, -770360.4, -34852.996, 0.0, 9.999957, 9.998938 
9.250167e+2, 2.3494905e+2, -585423.75, -730943.44, 111246.82, 0.034914535, 0.12791134, -525255.6, 112249.46, 0.0, 10.000836, 9.99893 
9.250099e+2, 2.4494812e+2, -415628.75, -553368.3, 84129.52, 0.08102748, 0.12529936, -375774.94, 163736.64, 0.0, 10.001137, 9.999334 
9.250021e+2, 2.5494564e+2, -348481.66, -470156.44, 30301.85, 0.09558258, -0.07715561, -341352.97, 100176.84, 0.0, 10.000924, 9.999334 
9.24995e+2, 2.6494405e+2, -372486.34, -510083.03, 83969.875, 0.11273625, -0.12830386, -332729.84, 10813.441, 0.00000007319143, 10.000427, 9.998627 
9.2498875e+2, 2.749431e+2, -395525.38, -468357.56, 102802.8, 0.14613374, -0.109488666, -322879.34, -77324.76, 0.0000027897247, 9.999585, 9.998644 
9.2498076e+2, 2.8494257e+2, -246601.75, -269880.4, 39287.305, 0.09961599, -0.060027625, -217265.89, -69705.1, 0.000020180585, 9.999612, 9.99932 
9.249709e+2, 2.9494226e+2, -5073.8677, -100092.695, -3597.3838, -0.023378978, -0.046623483, -4937.8667, 44625.082, 0.00008284934, 10.000577, 9.999349 
9.249634e+2, 3.0494064e+2, 17356.887, -150185.66, 86964.34, -0.027677268, -0.10351095, 54335.04, 54335.04, 0.00022869528, 10.000768, 9.998582 
9.2495924e+2, 3.149399e+2, -42380.035, -66892.195, 92941.82, 0.2143323, -0.060454063, 39110.316, 39110.316, 0.00046065266, 9.999824, 9.999609 
9.3509257e+2, 1.24958284e+2, -1729129.3, -1674015.5, -55784.957, 0.0055699144, 0.04366968, -1639352.3, 76061.445, 0.000009857008, 9.999646, 10.000438 
9.35084e+2, 1.3495879e+2, -1619961.3, -1567116.4, -28770.545, 0.02897769, 0.02209115, -1554476.1, 62933.816, 0.0000009955157, 9.999748, 10.000453 
9.350761e+2, 1.4495909e+2, -1521704.8, -1454643.6, 73825.02, 0.0072931065, 0.011228068, -1407091.3, 112315.88, 0.00000000002439963, 9.999661, 10.000589 
9.350698e+2, 1.5496072e+2, -1414866.6, -1347982.6, 96099.266, -0.012448397, 0.0860204, -1279672.9, 141717.58, 0.0, 9.99971, 10.000622 
9.350639e+2, 1.6496116e+2, -1367778.4, -1353633.3, 71111.336, 0.03900971, 0.10565495, -1289243.6, 34141.766, 0.0, 9.999697, 9.999919 
9.350585e+2, 1.749603e+2, -1277577.6, -1258687.0, 99416.61, 0.16043903, 0.0063853418, -1168268.0, 57125.203, 0.0, 9.999647, 9.999922 
9.3505156e+2, 1.8496017e+2, -1186398.5, -1231576.6, 112164.375, 0.11891994, 0.03644999, -1094571.1, 32824.098, 0.0, 9.999889, 9.999317 
9.350434e+2, 1.949604e+2, -1001324.75, -1093268.9, 108413.59, -0.08752443, 0.10674755, -929538.8, 99856.555, 0.0, 10.000493, 9.999302 
9.3503624e+2, 2.0495999e+2, -933794.5, -1049074.9, 34786.57, -0.116761096, 0.15577552, -924110.9, 7290.231, 0.0, 10.000451, 9.998954 
9.3503034e+2, 2.1495873e+2, -942366.06, -1005644.6, 30099.492, 0.033788797, 0.11535245, -930335.9, -96921.836, 0.0, 9.99973, 9.998931 
9.3502367e+2, 2.2495808e+2, -737935.1, -703937.75, 94201.05, 0.034280173, 0.09397872, -625213.94, 110203.16, 0.0, 9.999813, 10.00028 
9.350162e+2, 2.3495775e+2, -511332.16, -546625.06, 154875.45, -0.11747207, 0.009236241, -373101.1, 264312.13, 0.0, 10.000703, 10.000262 
9.350091e+2, 2.4495673e+2, -505606.75, -717912.1, 64616.254, -0.1289912, -0.014980538, -487486.94, 51933.313, 0.0, 10.0010395, 9.998249 
9.350024e+2, 2.549548e+2, -437276.5, -639368.25, 32701.1, 0.0145232035, -0.055602904, -432116.75, 9323.941, 0.0, 10.000851, 9.998212 
9.349957e+2, 2.649537e+2, -330812.2, -405887.53, 45470.457, 0.12237546, -0.03654837, -309386.84, 34063.867, 0.00000003612581, 10.000357, 9.999373 
9.349891e+2, 2.749532e+2, -358680.94, -370011.44, 83589.6, 0.19531287, -0.04821836, -280564.8, -35111.203, 0.0000027030533, 9.999498, 9.999357 
9.3498087e+2, 2.8495258e+2, -304659.53, -384417.66, 66623.58, 0.12396508, -0.0027344297, -266891.7, -119431.06, 0.000022488803, 9.999577, 9.998554 
9.349712e+2, 2.9495186e+2, -63054.22, -220246.61, 49159.6, -0.08651415, 0.041878164, -48946.43, 525.3275, 0.000095232324, 10.000565, 9.998533 
9.349641e+2, 3.0495042e+2, 84586.88, -4511.85, 48443.87, -0.06334948, -0.00073625665, 105851.305, 105851.305, 0.0002574787, 10.000749, 9.99959 
9.349599e+2, 3.1494987e+2, -8855.476, 20391.691, 82819.81, 0.24685077, -0.045396373, 89869.06, 89869.06, 0.0005076496, 9.999751, 10.000241 
9.4509304e+2, 1.2496579e+2, -1605468.3, -1601038.9, 26965.563, 0.060923547, 0.0006196874, -1576197.3, 139141.98, 0.000016753027, 10.000415, 10.000579 
9.450837e+2, 1.3496657e+2, -1574697.0, -1532322.3, -35968.9, 0.016237145, -0.0060491366, -1511764.4, 105567.0, 0.000002343361, 9.999991, 10.000583 
9.4507563e+2, 1.4496689e+2, -1508240.1, -1459403.0, 70912.266, -0.010824702, -0.01929773, -1408822.8, 110505.71, 0.0000000053592455, 9.999802, 10.000487 
9.450697e+2, 1.5496819e+2, -1371242.6, -1345733.1, 55103.387, -0.0110051865, 0.032464597, -1301927.5, 119388.625, 0.0, 10.000075, 10.000469 
9.4506407e+2, 1.6496874e+2, -1282111.3, -1281541.9, 32409.764, 0.07122476, 0.059871145, -1249415.6, 73894.38, 0.0, 10.000158, 10.000185 
9.4505894e+2, 1.7496851e+2, -1197356.6, -1189428.6, 23161.658, 0.23175439, -0.005087826, -1169894.3, 55416.402, 0.0, 10.0000725, 10.000184 
9.4505215e+2, 1.8496852e+2, -1188251.0, -1246772.5, 67564.35, 0.18428321, 0.031440437, -1143883.4, -16571.809, 0.0, 9.9999485, 9.999173 
9.450436e+2, 1.9496843e+2, -1108675.3, -1160114.9, 61846.254, -0.07397548, 0.08246565, -1067414.0, -38097.625, 0.0, 9.999828, 9.999154 
9.450363e+2, 2.0496798e+2, -995480.7, -1068396.6, 20005.34, -0.12653492, 0.13058847, -990352.6, -59029.883, 0.0, 9.99998, 9.999046 
9.4503033e+2, 2.1496704e+2, -846040.9, -944304.9, 31707.387, 0.036548786, 0.11007419, -836698.0, -3366.2107, 0.0, 10.000331, 9.999055 
9.450238e+2, 2.2496635e+2, -693506.8, -691966.3, 96882.85, 0.05250737, 0.08359338, -595850.6, 139484.53, 0.0, 10.000161, 10.000195 
9.4501674e+2, 2.3496568e+2, -688935.5, -639573.1, 30481.146, -0.07716129, -0.025965381, -625033.6, 12301.53, 0.0, 9.9995165, 10.000194 
9.4500965e+2, 2.4496472e+2, -714950.25, -815351.94, -43965.75, -0.09945919, -0.041116763, -698419.44, -159076.94, 0.0, 9.999583, 9.998282 
9.450028e+2, 2.549633e+2, -508711.06, -664341.4, -9718.229, 0.002851538, -0.03481772, -508106.56, -66747.54, 0.0, 10.000322, 9.99829 
9.449957e+2, 2.649626e+2, -292691.75, -356361.66, 11719.128, 0.08643067, 0.0011730929, -290603.22, 52761.97, 0.000000027783642, 10.000479, 9.999661 
9.449884e+2, 2.7496225e+2, -260123.52, -290440.03, -6293.707, 0.15745829, -0.019134298, -258868.86, -13504.389, 0.000002329391, 10.000031, 9.999657 
9.4498056e+2, 2.8496152e+2, -270418.06, -393012.0, 48653.55, 0.12461004, 0.011544377, -253455.94, -106083.766, 0.000023981273, 9.999924, 9.99833 
9.449723e+2, 2.9496032e+2, -150608.39, -284614.4, 51684.484, -0.0035841246, 0.031922273, -132990.53, -83601.89, 0.000106754764, 10.000071, 9.998328 
9.449654e+2, 3.0495903e+2, 32013.996, -18418.488, 29021.537, 0.019540839, 0.0056446563, 45243.93, 45243.93, 0.00028782972, 10.000354, 9.999688 
9.449596e+2, 3.1495798e+2, 108647.88, 71886.87, -46463.0, 0.21298105, -0.09053446, 140233.89, 140233.89, 0.0005617916, 10.000594, 10.0001955 
9.550934e+2, 1.2497404e+2, -1653200.3, -1690269.9, -22461.373, 0.0054413634, -0.06459777, -1642613.8, 72641.266, 0.00002677623, 10.000392, 9.999964 
9.550836e+2, 1.3497534e+2, -1629218.0, -1624202.5, -45883.508, -0.0043310076, 0.0386827, -1580758.3, 36487.246, 0.0000047533053, 9.999918, 9.999973 
9.5507544e+2, 1.4497544e+2, -1536972.5, -1507508.0, 66271.76, -0.0352981, 0.04946564, -1454350.8, 64895.367, 0.000000046136613, 9.999743, 10.000191 
9.5506936e+2, 1.549757e+2, -1385584.0, -1382629.6, 75670.6, -0.07577247, 0.026861329, -1308421.8, 112821.52, 0.0, 10.000107, 10.000201 
9.5506334e+2, 1.6497613e+2, -1276875.5, -1273196.0, 18816.521, -0.045619473, 0.052547622, -1256129.5, 67108.65, 0.0, 10.000167, 10.00024 
9.550575e+2, 1.7497642e+2, -1197289.6, -1182438.0, 30224.04, 0.054046493, 0.03589932, -1158740.9, 66492.73, 0.0, 10.000043, 10.000247 
9.5505136e+2, 1.849763e+2, -1187628.4, -1238433.3, 52665.555, 0.095200986, 0.049346402, -1154559.0, -27322.563, 0.0, 9.99991, 9.999252 
9.550452e+2, 1.949755e+2, -1111312.3, -1151899.9, 66653.586, 0.079852276, 0.023039065, -1061931.5, -32682.756, 0.0, 9.999766, 9.999242 
9.55038e+2, 2.0497492e+2, -967000.06, -986308.44, 21490.404, 0.023805892, 0.024181983, -953094.94, -21840.61, 0.0, 9.99988, 9.9996605 
9.5502967e+2, 2.1497428e+2, -826591.44, -867495.7, 54079.816, -0.08128407, -0.02540263, -789225.6, 44030.086, 0.0, 10.0001745, 9.99966 
9.550229e+2, 2.2497366e+2, -815467.1, -912353.56, 62284.977, -0.0690049, -0.0045884564, -785004.25, -49743.547, 0.0, 10.000022, 9.998748 
9.550178e+2, 2.3497277e+2, -811991.56, -865773.75, 18219.791, 0.06200811, 0.01243373, -806400.5, -169128.58, 0.0, 9.999388, 9.998706 
9.550112e+2, 2.4497208e+2, -648128.6, -647711.25, -24880.06, 0.07360482, 0.035590284, -623039.0, -83760.02, 0.0, 9.999468, 9.999483 
9.5500296e+2, 2.5497127e+2, -439855.03, -500645.13, 28710.773, -0.033621594, -0.0151090305, -428439.0, 12845.44, 0.0, 10.000234, 9.9994545 
9.5499474e+2, 2.6497075e+2, -319691.5, -390221.47, -14430.52, -0.078833714, -0.0077123162, -316853.2, 26433.246, 0.000000030362223, 10.00039, 9.999468 
9.549864e+2, 2.7497023e+2, -284958.22, -326443.66, -9128.723, -0.0681915, -0.027532162, -283038.34, -37750.363, 0.000002140531, 9.999966, 9.99944 
9.549795e+2, 2.8496924e+2, -255175.06, -346470.06, 44724.293, 0.00093956955, -0.028713835, -236916.72, -89619.8, 0.000025889522, 9.999864, 9.998676 
9.54974e+2, 2.9496768e+2, -135398.55, -239751.9, 69702.72, 0.13120112, -0.081135236, -100507.01, -51193.004, 0.000117742304, 10.000014, 9.998662 
9.549671e+2, 3.0496645e+2, -31566.723, -138323.0, 37132.83, 0.14033246, -0.074311055, -19921.23, -19921.23, 0.00031737162, 10.0003, 9.998893 
9.5495784e+2, 3.1496477e+2, 48213.6, -45281.566, -3602.1448, -0.07345036, -0.15773168, 48352.176, 48352.176, 0.0006187205, 10.000554, 9.999413 
9.6509403e+2, 1.2498291e+2, -1885872.4, -1840938.6, -30843.865, 0.11849482, -0.020158662, -1825246.5, -110076.53, 0.000040530904, 9.998944, 9.999632 
9.650836e+2, 1.3498409e+2, -1644043.8, -1662366.4, -59327.188, 0.012022854, 0.09739588, -1593174.8, 23987.266, 0.000008656152, 9.999937, 9.999707 
9.6507543e+2, 1.4498386e+2, -1512541.9, -1504402.6, 91366.016, -0.017067375, 0.094106406, -1417015.6, 102149.766, 0.00000019058375, 9.999972, 10.000086 
9.6506935e+2, 1.549835e+2, -1507658.6, -1452880.9, 83513.664, -0.042064376, 0.022942774, -1392379.6, 28788.164, 0.0, 9.999343, 10.000074 
9.650632e+2, 1.649837e+2, -1426888.9, -1353984.0, 55804.8, -0.020087555, 0.035061643, -1323780.9, -615.78735, 0.0, 9.999186, 10.000157 
9.6505713e+2, 1.7498414e+2, -1278407.6, -1234091.3, 35904.55, 0.047133006, 0.0412608, -1214058.0, 11102.673, 0.0, 9.999538, 10.000139 
9.650512e+2, 1.8498433e+2, -1210180.8, -1220175.3, 69443.27, 0.094551295, 0.0810271, -1145555.3, -18394.45, 0.0, 9.999619, 9.999529 
9.6504515e+2, 1.949841e+2, -1140881.8, -1138051.9, 78196.79, 0.121322624, 0.08407128, -1061257.1, -32089.785, 0.0, 9.999429, 9.999511 
9.6503824e+2, 2.0498367e+2, -998304.56, -955024.8, 71344.52, 0.083580784, 0.06680509, -902110.5, 29059.75, 0.0, 9.999493, 10.00005 
9.650302e+2, 2.1498281e+2, -842952.94, -832379.44, 63840.84, -0.022232264, -0.047350697, -773606.8, 59564.883, 0.0, 9.99989, 10.00003 
9.650234e+2, 2.2498219e+2, -815998.8, -955784.25, 103074.17, -0.02381037, -0.022586523, -761355.25, -26178.492, 0.0, 10.0002, 9.998368 
9.650179e+2, 2.3498167e+2, -689311.06, -842699.06, 121430.91, 0.09240677, 0.06716282, -622382.5, 14804.876, 0.0, 10.00039, 9.998378 
9.650112e+2, 2.44981e+2, -536841.4, -564688.6, 113658.625, 0.09987371, 0.09661473, -436256.7, 102937.92, 0.0, 10.000096, 9.999759 
9.6500313e+2, 2.5498003e+2, -552921.2, -523018.66, 78576.68, 0.0062099923, 0.004272707, -457983.44, -16783.623, 0.0, 9.999327, 9.99974 
9.6499485e+2, 2.6497927e+2, -465555.84, -503259.4, 31980.205, -0.05308407, -0.007687785, -447284.53, -104080.58, 0.000000012060779, 9.999561, 9.999089 
9.6498656e+2, 2.749784e+2, -200952.2, -327061.66, 129.82777, -0.07852758, -0.026667636, -200952.06, 44258.137, 0.0000023356135, 10.000715, 9.999071 
9.6497977e+2, 2.8497726e+2, -97955.96, -241017.61, 38944.96, 0.004198875, -0.036605824, -88041.29, 59178.9, 0.000028869204, 10.000816, 9.998936 
9.649746e+2, 2.949758e+2, -142273.69, -216350.88, 31120.186, 0.20551652, -0.10418667, -130935.4, -81700.77, 0.00012890252, 9.999853, 9.9988985 
9.6496767e+2, 3.0497518e+2, -115502.35, -191475.78, 74579.47, 0.19732594, -0.041155346, -69792.66, -69792.66, 0.00034520676, 9.999769, 9.99878 
9.649574e+2, 3.149739e+2, 7720.7803, -48056.17, 48710.72, -0.14477713, -0.08144149, 35961.63, 35961.63, 0.0006746772, 10.000212, 9.999545 
9.750943e+2, 1.2499212e+2, -1877570.3, -1821525.9, -30924.734, 0.19319381, 0.10668763, -1807815.8, -92728.92, 0.000058506626, 9.998933, 9.99977 
9.750833e+2, 1.3499296e+2, -1623087.8, -1623633.1, -17004.05, -0.03554582, 0.16925657, -1606354.3, 10725.044, 0.00001444443, 9.999962, 9.999957 
9.750751e+2, 1.4499243e+2, -1514256.4, -1513048.9, 56900.32, -0.0690958, 0.12496082, -1456749.1, 62334.563, 0.0000005546723, 9.999993, 10.000019 
9.750694e+2, 1.5499173e+2, -1518100.8, -1468021.0, 72245.22, 0.0032534215, 0.02498749, -1416599.3, 4489.2573, 0.0, 9.999317, 9.999983 
9.750635e+2, 1.6499151e+2, -1445413.0, -1388141.1, 55027.473, 0.058510013, 0.012269959, -1354744.5, -31653.754, 0.0, 9.999161, 9.999938 
9.750576e+2, 1.7499165e+2, -1293382.5, -1266324.8, 56076.543, 0.11719498, 0.01123776, -1222168.1, 2923.286, 0.0, 9.99954, 9.999918 
9.750509e+2, 1.8499269e+2, -1182107.4, -1153319.4, 53431.84, 0.0868083, 0.123038046, -1112376.6, 14707.319, 0.0, 9.999581, 10.000006 
9.750433e+2, 1.9499436e+2, -1119811.1, -1074321.9, 82399.38, -0.03690229, 0.26653233, -1011585.7, 17485.408, 0.0, 9.999345, 9.999987 
9.750368e+2, 2.0499437e+2, -1006869.4, -950090.8, 74215.99, -0.0279884, 0.2657449, -899019.6, 32049.447, 0.0, 9.999389, 10.000137 
9.750317e+2, 2.1499248e+2, -855281.25, -830242.5, 87374.9, 0.11355588, 0.04188107, -754494.6, 78585.82, 0.0, 9.999767, 10.000107 
9.750249e+2, 2.2499187e+2, -785015.06, -857211.7, 98208.33, 0.091415495, 0.025346804, -716480.9, 18603.014, 0.0, 10.000055, 9.999111 
9.750167e+2, 2.3499233e+2, -664002.75, -748368.6, 137363.42, -0.087876715, 0.13751039, -562491.2, 74590.58, 0.0, 10.0002165, 9.999105 
9.750093e+2, 2.449916e+2, -595291.3, -664291.06, 73380.67, -0.10932484, 0.15894486, -548705.0, -9616.524, 0.0, 9.999998, 9.999125 
9.750028e+2, 2.549895e+2, -606788.3, -619047.7, 61325.203, 0.023072878, 0.014434531, -551287.2, -110181.04, 0.0, 9.999255, 9.999116 
9.749959e+2, 2.6498798e+2, -511840.25, -584270.7, 64940.402, 0.07082348, -0.018959066, -473699.6, -130580.02, 0.0000000034767167, 9.999498, 9.998563 
9.7498864e+2, 2.749867e+2, -246559.17, -407990.25, 56006.76, 0.03202337, -0.021982286, -229031.36, 16100.1, 0.0000028342504, 10.000655, 9.998544 
9.7498125e+2, 2.849857e+2, -92094.68, -220022.6, -6270.701, 0.04354093, -0.004408354, -91788.04, 55353.293, 0.000032313746, 10.000782, 9.999097 
9.749737e+2, 2.949847e+2, -139445.47, -198471.33, 11602.152, 0.10003763, -0.03756703, -137246.83, -88096.23, 0.00013997531, 9.999805, 9.999044 
9.7496647e+2, 3.049851e+2, -93715.52, -127421.63, 85452.88, 0.08567612, 0.09518164, -23469.67, -23469.67, 0.00037147623, 9.999691, 9.999259 
9.749575e+2, 3.1498492e+2, 52142.754, 71306.055, 103820.03, -0.2035081, 0.117830016, 165985.64, 165985.64, 0.00072750956, 10.000102, 10.000414 
9.850935e+2, 1.2500077e+2, -1802177.8, -1732626.5, 44479.434, 0.20721306, 0.14293848, -1710941.8, 4063.004, 0.00008108169, 9.999232, 10.000238 
9.850836e+2, 1.350016e+2, -1601930.9, -1567309.3, 42031.895, 0.0050559393, 0.16336475, -1539163.0, 77831.48, 0.000022462764, 9.999897, 10.000383 
9.85076e+2, 1.4500104e+2, -1532332.9, -1554966.9, 89632.74, 0.01858461, 0.107670166, -1453305.5, 65693.18, 0.0000013019285, 9.999998, 9.999733 
9.850695e+2, 1.5500025e+2, -1470648.0, -1474796.1, 65308.855, 0.074233495, 0.026635962, -1407380.3, 13625.42, 0.0, 9.999763, 9.999721 
9.850634e+2, 1.6500026e+2, -1360848.0, -1334153.8, 110133.11, 0.11101219, 0.043384977, -1236562.0, 86444.55, 0.0, 9.999685, 10.000055 
9.850575e+2, 1.7500092e+2, -1243066.4, -1226750.3, 115778.516, 0.14116062, 0.08261319, -1118842.8, 106159.68, 0.0, 9.999826, 10.000051 
9.850506e+2, 1.8500184e+2, -1147144.9, -1136224.4, 106987.81, 0.096032225, 0.17570512, -1034557.56, 92437.9, 0.0, 9.999828, 10.0 
9.850427e+2, 1.9500278e+2, -1081723.4, -1057505.5, 74820.9, -0.038553465, 0.2477504, -993820.06, 35168.086, 0.0, 9.9996195, 9.999969 
9.8503625e+2, 2.0500265e+2, -996984.2, -984340.1, 74161.625, -0.02974685, 0.25230464, -916231.56, 14756.627, 0.0, 9.999603, 9.999808 
9.850314e+2, 2.1500124e+2, -883284.0, -879573.06, 37416.566, 0.123856366, 0.10735221, -843966.0, -10967.873, 0.0, 9.999721, 9.999796 
9.850248e+2, 2.2500075e+2, -846355.2, -819358.5, 25779.998, 0.11322063, 0.08704605, -803756.8, -68757.016, 0.0, 9.999334, 9.99972 
9.850163e+2, 2.35001e+2, -880235.75, -784925.56, 36070.42, -0.05537778, 0.1179863, -772813.75, -135818.52, 0.0, 9.998433, 9.999716 
9.85009e+2, 2.4500021e+2, -779688.94, -793128.44, 35865.95, -0.08033001, 0.12028426, -749918.7, -210917.17, 0.0, 9.9989195, 9.9987545 
9.8500293e+2, 2.549981e+2, -401770.6, -566071.75, 19052.795, 0.035002157, 0.011877383, -399590.13, 41431.52, 0.0, 10.000852, 9.998715 
9.8499656e+2, 2.649966e+2, -254149.7, -459199.84, 48173.16, 0.10144218, 0.0015002283, -243396.17, 99639.945, 0.00000001775074, 10.001271, 9.998573 
9.8498994e+2, 2.749955e+2, -313872.63, -440597.06, 55661.094, 0.12943548, 0.017431594, -292896.7, -47849.902, 0.000003544514, 10.0001955, 9.998548 
9.8498225e+2, 2.8499445e+2, -214123.27, -293604.03, 13825.694, 0.11179245, 0.04081462, -211786.97, -64729.855, 0.00003520851, 9.999996, 9.998983 
9.849733e+2, 2.9499325e+2, -30769.332, -158471.67, -10277.084, 0.052616827, -0.0033321443, -29947.553, 19121.242, 0.00014919741, 10.0006, 9.998942 
9.84966e+2, 3.0499333e+2, 19631.248, -93032.68, 57306.797, 0.035140526, 0.10874519, 43656.98, 43656.98, 0.00039500848, 10.000553, 9.999077 
9.849581e+2, 3.1499296e+2, -6592.255, 55924.813, -8882.573, -0.1247751, 0.1333703, 57162.37, 57162.37, 0.0007743357, 9.999616, 10.000554 
9.950907e+2, 1.2500907e+2, -1760202.1, -1637467.0, 34183.6, -0.039412167, 0.108160935, -1628588.6, 86333.48, 0.000108580556, 9.999213, 10.000893 
9.950842e+2, 1.3501011e+2, -1566714.3, -1481888.5, 71820.81, 0.05867167, 0.084454924, -1440892.3, 176014.92, 0.000033028722, 9.999858, 10.000982 
9.950776e+2, 1.4500977e+2, -1566383.9, -1624398.4, 64621.477, 0.1500368, 0.046911504, -1524557.8, -5648.059, 0.0000026281716, 9.999986, 9.999267 
9.9506956e+2, 1.550092e+2, -1495773.0, -1535271.0, 65575.04, 0.07154692, 0.033667184, -1447037.6, -26119.291, 0.00000000019976186, 9.99979, 9.999296 
9.950625e+2, 1.6501002e+2, -1329762.3, -1267985.9, 103537.79, 0.033952687, 0.12849538, -1190827.1, 132084.98, 0.0, 9.9996805, 10.000509 
9.9505657e+2, 1.7501192e+2, -1212163.0, -1161738.5, 130035.37, 0.041344482, 0.24746034, -1054493.8, 170399.84, 0.0, 9.999819, 10.000501 
9.950501e+2, 1.8501173e+2, -1192752.5, -1219807.4, 86412.44, 0.03595824, 0.23408628, -1118815.1, 8080.446, 0.0, 9.999782, 9.999451 
9.950431e+2, 1.9500928e+2, -1127780.4, -1137850.6, 75737.71, 0.020549722, 0.022139423, -1056910.6, -27991.242, 0.0, 9.999555, 9.999449 
9.950361e+2, 2.0500848e+2, -1062986.0, -1094061.5, 65368.773, -0.01680421, 0.020544712, -1011333.75, -80405.64, 0.0, 9.999489, 9.99911 
9.9502933e+2, 2.1500912e+2, -951874.44, -988811.6, 50502.086, -0.07652178, 0.15141553, -916569.9, -83645.57, 0.0, 9.999578, 9.999115 
9.950228e+2, 2.2500895e+2, -834491.3, -756216.2, -18747.943, -0.04067873, 0.17071125, -751957.5, -17034.186, 0.0, 9.999173, 10.000229 
9.950164e+2, 2.3500775e+2, -865667.44, -719790.4, 11407.655, 0.09280392, 0.006121121, -718903.7, -81976.55, 0.0, 9.998289, 10.00023 
9.9500984e+2, 2.4500681e+2, -806362.06, -824751.8, 96819.68, 0.08954044, -0.025707683, -718301.6, -179367.89, 0.0, 9.998813, 9.9985895 
9.9500316e+2, 2.5500584e+2, -427151.8, -594548.7, 101631.23, -0.0497493, -0.0026728676, -379190.34, 61755.457, 0.0, 10.000745, 9.998571 
9.949966e+2, 2.650053e+2, -234171.03, -399333.13, -2064.1482, -0.04431658, 0.063841715, -234145.23, 108806.96, 0.000000028595345, 10.001194, 9.999022 
9.9499005e+2, 2.7500483e+2, -295800.47, -382317.28, 28684.123, 0.09956794, 0.09803251, -287154.44, -42198.977, 0.000003781716, 10.00011, 9.998989 
9.9498236e+2, 2.8500354e+2, -250934.78, -350719.13, 26761.457, 0.103250615, 0.09720223, -244210.67, -97242.92, 0.000036350866, 9.999915, 9.998627 
9.949733e+2, 2.9500142e+2, -59149.688, -205853.11, 27122.527, -0.03500631, -0.007862144, -54295.867, -5306.405, 0.00015454051, 10.000557, 9.998632 
9.949661e+2, 3.0499983e+2, -46976.695, -229271.45, 17532.143, -0.03513374, -0.00078424305, -45305.86, -45305.86, 0.00041140616, 10.000542, 9.99815 
9.9495816e+2, 3.1499764e+2, -69799.734, -36516.395, -10089.818, -0.1260207, -0.060470544, -33696.574, -33696.574, 0.00080725906, 9.999461, 9.99999 
1.0050897e+3, 1.2501633e+2, -1993192.8, -1755209.4, -2268.9614, 0.027780326, 0.09711899, -1755187.8, -40335.855, 0.00014134821, 9.997631, 10.000851 
1.0050833e+3, 1.3501744e+2, -1647490.1, -1523430.8, -39802.227, 0.020195214, 0.08627747, -1511759.0, 105078.28, 0.000046426092, 9.999321, 10.000949 
1.0050772e+3, 1.4501743e+2, -1543268.1, -1566407.1, -58082.555, 0.12175516, 0.06271081, -1495614.0, 23222.375, 0.00000474816, 9.999967, 9.999664 
1.0050694e+3, 1.5501745e+2, -1464761.1, -1478020.0, -26232.838, 0.08185386, 0.07178735, -1444333.0, -23495.127, 0.000000004412824, 9.999834, 9.99967 
1.0050623e+3, 1.6501816e+2, -1344016.3, -1298072.9, 43040.113, 0.051848818, 0.14801654, -1272257.8, 50574.125, 0.0, 9.999673, 10.000316 
1.00505605e+3, 1.7501931e+2, -1279819.0, -1213985.4, 2196.8325, 0.03299478, 0.20887564, -1213912.1, 10908.774, 0.0, 9.999438, 10.000329 
1.0050497e+3, 1.8501894e+2, -1223342.9, -1230113.9, -13766.443, 0.041976932, 0.18577546, -1212551.8, -85727.555, 0.0, 9.99956, 9.999479 
1.00504346e+3, 1.9501686e+2, -1048190.94, -1097291.4, -2096.4739, 0.081225246, 0.0085906675, -1048101.56, -19257.656, 0.0, 10.000098, 9.999459 
1.00503646e+3, 2.0501626e+2, -973678.6, -1058243.8, 39201.63, 0.037298046, 0.025873581, -958302.0, -27450.4, 0.0, 10.000132, 9.9990425 
1.0050287e+3, 2.1501686e+2, -955703.3, -1000864.06, 47666.227, -0.09377625, 0.16175973, -925539.56, -92690.195, 0.0, 9.999593, 9.999024 
1.005022e+3, 2.2501647e+2, -771170.1, -744149.0, 3008.6018, -0.050294776, 0.17279568, -743818.06, -8967.171, 0.0, 9.999689, 10.000068 
1.0050164e+3, 2.3501481e+2, -565491.1, -597349.2, -40905.14, 0.16847989, -0.019548722, -537522.94, 99335.73, 0.0, 10.000438, 10.000042 
1.0050103e+3, 2.4501379e+2, -571588.06, -698154.9, 71531.44, 0.18046348, -0.055250224, -539364.75, -499.08115, 0.0, 10.000362, 9.998712 
1.0050036e+3, 2.5501323e+2, -607012.6, -660874.06, 76840.59, -0.006061257, -0.006850969, -552520.1, -111646.58, 0.0, 9.999443, 9.998732 
1.00499675e+3, 2.6501283e+2, -515128.75, -519243.0, -41176.063, -0.03960929, 0.06296006, -475958.47, -133080.44, 0.000000017098808, 9.999202, 9.99915 
1.0049896e+3, 2.7501228e+2, -367090.22, -401936.66, -57837.19, 0.07492648, 0.07263945, -324108.88, -79226.49, 0.000003428396, 9.999556, 9.999115 
1.0049819e+3, 2.8501117e+2, -270694.6, -371411.56, -7150.3975, 0.079451375, 0.085753016, -270189.5, -123296.02, 0.00003625069, 9.999824, 9.998526 
1.0049737e+3, 2.9500937e+2, -161964.36, -272018.97, -12692.349, -0.008890817, 0.02517014, -160519.55, -111606.87, 0.00015742959, 9.999897, 9.998503 
1.00496694e+3, 3.0500728e+2, -52500.434, -244221.02, 24680.91, 0.0062226537, -0.004282451, -49374.15, -49374.15, 0.0004215928, 10.000559, 9.998041 
1.00495934e+3, 3.1500465e+2, 247625.56, 111461.99, 19602.293, -0.058788706, -0.10149683, 250391.36, 250391.36, 0.0008275706, 10.00165, 9.999963 
1.0150897e+3, 1.250226e+2, -2035798.3, -1844300.8, 16737.516, 0.20878671, 0.10766955, -1842848.9, -128055.72, 0.0001798155, 9.997636, 10.000231 
1.0150805e+3, 1.3502368e+2, -1688338.4, -1616163.5, 31139.127, -0.21525724, 0.1552065, -1604586.0, 12197.667, 0.000062927356, 9.999347, 10.0002985 
1.01507455e+3, 1.4502408e+2, -1468073.3, -1405512.8, -78686.58, -0.17468429, 0.14727128, -1352117.0, 166660.95, 0.000007860604, 9.999948, 10.000776 
1.0150688e+3, 1.5502505e+2, -1392401.8, -1321916.4, -20972.008, 0.019386495, 0.14167494, -1316148.4, 104615.19, 0.000000028517778, 9.999813, 10.000748 
1.0150625e+3, 1.6502482e+2, -1398423.0, -1410976.0, 22493.662, 0.07868443, 0.10743783, -1381346.6, -58581.85, 0.0, 9.99967, 9.999542 
1.0150557e+3, 1.7502317e+2, -1332312.8, -1327814.0, 3008.9424, 0.029552478, -0.033590004, -1326306.6, -101523.62, 0.0, 9.999452, 9.999544 
1.0150493e+3, 1.8502355e+2, -1187311.8, -1147829.3, -3983.4165, 0.02249065, 0.028080871, -1147431.4, -20650.71, 0.0, 9.999527, 10.000059 
1.0150435e+3, 1.9502562e+2, -1019424.5, -1018878.7, 28035.504, 0.054331835, 0.20765875, -991114.75, 37646.09, 0.0, 10.000014, 10.000038 
1.0150368e+3, 2.0502599e+2, -953429.9, -988711.0, 7721.838, 0.0379076, 0.26695347, -951813.9, -21056.03, 0.0, 10.000015, 9.999574 
1.0150292e+3, 2.1502446e+2, -934214.44, -930337.5, 35077.08, -0.022423787, 0.13511762, -897145.4, -64372.086, 0.0, 9.999484, 9.999559 
1.01502225e+3, 2.2502333e+2, -854741.2, -882889.0, 19720.62, -0.008715454, 0.09030212, -844587.44, -109804.95, 0.0, 9.999542, 9.999184 
1.01501614e+3, 2.3502234e+2, -644724.7, -732945.1, -2815.6091, 0.07792564, 0.049445882, -644634.9, -7846.4966, 0.0, 10.000313, 9.999168 
1.0150101e+3, 2.4502139e+2, -564173.1, -649587.44, 25271.748, 0.1044691, 0.044364005, -557256.06, -18461.092, 0.0, 10.000224, 9.999109 
1.015004e+3, 2.5502026e+2, -593079.5, -611370.44, 52656.22, 0.06962707, -0.00263877, -548780.44, -107976.086, 0.0, 9.999353, 9.999115 
1.0149968e+3, 2.6501918e+2, -536288.5, -547866.4, -35365.594, 0.023343733, -0.01195242, -506241.2, -163426.63, 0.000000011022683, 9.999133, 9.998988 
1.0149882e+3, 2.7501792e+2, -386194.13, -424006.1, -29164.602, -0.04098854, -0.058070086, -370343.66, -125516.24, 0.0000031084232, 9.999482, 9.998997 
1.01498075e+3, 2.850174e+2, -271214.84, -360099.13, -13895.077, -0.042016365, 0.01169217, -269093.3, -122259.44, 0.000035475467, 9.999773, 9.998625 
1.0149742e+3, 2.9501736e+2, -174318.89, -266402.72, 4881.8735, 0.012920226, 0.11765996, -174060.8, -125224.7, 0.00015859005, 9.999779, 9.9985895 
1.0149682e+3, 3.0501586e+2, -12996.005, -155089.52, 60224.426, 0.048819494, 0.11377575, 9094.8955, 9094.8955, 0.00042792913, 10.000515, 9.998682 
1.0149607e+3, 3.1501377e+2, 270078.7, 189152.66, 100742.95, -0.13536629, 0.003559537, 338180.84, 338180.84, 0.00084075227, 10.001527, 10.000552 
1.0250887e+3, 1.2503023e+2, -1737825.0, -1727253.4, 96545.89, 0.2526441, 0.1797722, -1635848.6, 78870.65, 0.00022439056, 9.99979, 10.000001 
1.0250803e+3, 1.3503046e+2, -1729644.6, -1668971.4, 112080.555, -0.1578693, 0.17502205, -1583194.4, 33524.61, 0.0000828242, 9.999203, 10.000016 
1.0250747e+3, 1.4503054e+2, -1596720.6, -1451408.6, -9590.017, -0.10128316, 0.14294042, -1450778.5, 67937.664, 0.000012107546, 9.9989805, 10.000931 
1.0250686e+3, 1.5503174e+2, -1457626.9, -1336452.5, -42752.902, 0.045129575, 0.13928388, -1322887.0, 97811.58, 0.00000009714164, 9.999278, 10.000905 
1.0250621e+3, 1.6503148e+2, -1421449.3, -1429161.0, 16744.172, 0.08677335, 0.101431265, -1408122.8, -85423.43, 0.0, 9.99956, 9.999459 
1.0250556e+3, 1.7502972e+2, -1260812.5, -1297373.4, 25476.98, 0.052773587, -0.04299227, -1247736.0, -23017.113, 0.0, 9.99998, 9.999488 
1.0250493e+3, 1.8503003e+2, -1084667.0, -1085109.5, 51254.42, 0.039952766, 0.0066978885, -1033633.4, 93083.99, 0.0, 10.000161, 10.000193 
1.0250432e+3, 1.950321e+2, -1003474.8, -995103.5, 31536.793, 0.033774115, 0.17292956, -967475.8, 61221.543, 0.0, 10.00005, 10.00019 
1.0250367e+3, 2.0503286e+2, -909475.44, -927983.2, -3148.3127, 0.028758265, 0.247047, -908954.56, 21735.537, 0.0, 10.000158, 9.999927 
1.02502964e+3, 2.150321e+2, -762003.0, -809306.6, -11939.713, 0.03392589, 0.16038029, -759160.2, 73537.22, 0.0, 10.000514, 9.999897 
1.0250229e+3, 2.2503105e+2, -721963.56, -867134.75, 17604.945, 0.043987695, 0.12819915, -719859.06, 14847.747, 0.0, 10.000661, 9.998751 
1.0250162e+3, 2.3502952e+2, -651458.75, -784066.06, 7920.4263, 0.056279745, 0.07953702, -650987.3, -14266.938, 0.0, 10.000487, 9.998732 
1.02501e+3, 2.4502859e+2, -534477.7, -585653.94, 36683.93, 0.081591405, 0.075801335, -515339.25, 23387.793, 0.0, 10.000221, 9.999545 
1.025004e+3, 2.5502795e+2, -500186.63, -520918.88, 41962.684, 0.117156595, 0.03639661, -467328.63, -26599.023, 0.0, 9.999794, 9.999525 
1.02499686e+3, 2.6502687e+2, -454640.47, -551119.0, 10086.606, 0.08768984, 0.025739519, -453597.22, -110857.6, 0.00000001218603, 9.999875, 9.998612 
1.0249887e+3, 2.7502507e+2, -276768.47, -410904.3, -22380.498, 0.0049801287, -0.037773937, -273132.84, -28373.617, 0.0000027111198, 10.00041, 9.99864 
1.02498144e+3, 2.8502414e+2, -126502.82, -291557.44, -11985.768, 0.007861212, 0.010663303, -125636.99, 21132.611, 0.00003356273, 10.00079, 9.998598 
1.0249753e+3, 2.9502377e+2, -3081.2737, -189153.06, -31295.33, 0.09424986, 0.08699962, 2041.2516, 50815.117, 0.00015687123, 10.00098, 9.99854 
1.0249692e+3, 3.0502242e+2, 20554.7, -119939.8, 27428.365, 0.103572376, 0.09508781, 25719.594, 25719.594, 0.00042992222, 10.000695, 9.998819 
1.0249617e+3, 3.1502172e+2, 13663.391, 71947.66, -11310.682, -0.09345548, 0.11155437, 74065.65, 74065.65, 0.0008482756, 9.999734, 10.000604 
1.0350863e+3, 1.2503906e+2, -1726114.8, -1710467.5, 21156.707, -0.030323504, 0.30114594, -1695734.1, 18897.615, 0.00027553758, 9.99982, 10.000103 
1.0350823e+3, 1.3503782e+2, -1733364.8, -1674080.3, 95975.79, 0.098708585, 0.15113421, -1603273.4, 13369.27, 0.000106410545, 9.999193, 9.999988 
1.0350773e+3, 1.4503689e+2, -1643964.3, -1553630.8, -12713.048, 0.23184471, 0.05738725, -1551875.8, -33225.44, 0.000017580353, 9.998997, 10.000223 
1.03506826e+3, 1.5503748e+2, -1503293.5, -1434647.8, -23724.95, 0.0609239, 0.06121693, -1427246.1, -6603.0503, 0.00000023822265, 9.999288, 10.00023 
1.0350609e+3, 1.6503823e+2, -1385860.4, -1346729.4, 17576.234, -0.020453395, 0.12685037, -1339994.1, -17358.82, 0.0, 9.99953, 10.000036 
1.03505544e+3, 1.7503895e+2, -1228240.3, -1219752.5, 50597.61, 0.019200614, 0.17439668, -1173221.1, 51407.93, 0.0, 9.999939, 10.000039 
1.0350493e+3, 1.8503839e+2, -1111998.8, -1129314.8, 34352.707, 0.004119756, 0.12524636, -1085229.9, 41404.48, 0.0, 10.000108, 9.999916 
1.0350425e+3, 1.9503634e+2, -1033440.7, -1041952.06, 33497.746, -0.06986597, -0.09563727, -1003929.4, 24723.842, 0.0, 9.999979, 9.999906 
1.035036e+3, 2.0503688e+2, -918522.2, -918566.56, -1972.6466, -0.0763501, -0.03267091, -916571.6, 14076.537, 0.0, 10.000036, 10.000049 
1.0350299e+3, 2.1503973e+2, -766385.5, -796313.8, 12462.045, -0.007019777, 0.22691327, -761875.9, 70746.42, 0.0, 10.000412, 10.000036 
1.0350234e+3, 2.2503957e+2, -744619.8, -878346.1, 568.4189, 0.02249448, 0.2746709, -744617.4, -9992.888, 0.0, 10.000512, 9.998746 
1.0350165e+3, 2.3503627e+2, -667896.3, -790474.9, 11907.429, 0.00940852, 0.049233325, -666750.3, -30094.627, 0.0, 10.000368, 9.998744 
1.0350098e+3, 2.4503528e+2, -528508.8, -539144.1, 12454.02, 0.015767373, 0.021030206, -520284.72, 18378.363, 0.0, 10.00008, 9.999931 
1.0350033e+3, 2.5503635e+2, -487010.5, -469207.16, 38709.39, 0.043537278, 0.11201935, -438389.1, 2259.7659, 0.0, 9.999694, 9.999927 
1.0349967e+3, 2.6503602e+2, -505764.94, -640031.1, 20860.564, 0.07238271, 0.1825433, -502598.56, -159946.31, 0.00000000560088, 9.999804, 9.998034 
1.03499025e+3, 2.7503386e+2, -334958.56, -504833.06, 10981.503, 0.103069015, 0.14271809, -334251.6, -89575.25, 0.0000022721786, 10.000307, 9.998039 
1.0349836e+3, 2.8503144e+2, -148364.16, -323808.63, -13810.8545, 0.12583286, 0.08291999, -147283.63, -583.26794, 0.000031159278, 10.000731, 9.998405 
1.0349769e+3, 2.9502872e+2, -27305.88, -218437.39, -6245.7803, 0.12747674, -0.058207646, -27102.0, 21622.355, 0.00015252481, 10.000899, 9.998375 
1.0349698e+3, 3.0502707e+2, -22856.31, -203255.6, -15456.039, 0.079782575, -0.050237883, -21541.666, -21541.666, 0.00042681763, 10.000664, 9.998262 
1.0349612e+3, 3.150288e+2, -54710.14, -16924.457, -13443.058, -0.16332275, 0.2632835, -12629.904, -12629.904, 0.00084848254, 9.99954, 10.000071 
1.045085e+3, 1.2504576e+2, -1736537.1, -1717757.1, -3512.207, -0.13280754, 0.22591414, -1717121.8, -2558.6633, 0.0003338259, 9.999741, 10.0000925 
1.0450823e+3, 1.3504486e+2, -1664118.1, -1651490.0, 55587.44, 0.16002154, 0.115667075, -1601859.1, 14711.135, 0.00013404706, 9.999699, 9.999894 
1.0450774e+3, 1.450438e+2, -1589907.1, -1579205.3, 5979.9478, 0.32179683, 0.035850458, -1576531.8, -57951.523, 0.000024406929, 9.999601, 9.999757 
1.0450676e+3, 1.5504378e+2, -1476662.0, -1468124.1, -16826.379, 0.053157292, 0.02932447, -1455033.6, -34452.33, 0.0000004785213, 9.999691, 9.999803 
1.04506016e+3, 1.6504474e+2, -1351249.0, -1299527.8, 41227.547, -0.037881956, 0.12282287, -1276721.4, 45851.223, 0.0, 9.999625, 10.00032 
1.04505554e+3, 1.7504641e+2, -1283359.8, -1215375.9, 34954.523, 0.06483981, 0.2359762, -1200610.6, 23946.117, 0.0, 9.999419, 10.000321 
1.0450496e+3, 1.8504609e+2, -1234794.5, -1182632.5, 33604.438, 0.06411869, 0.19376537, -1166175.5, -39616.38, 0.0, 9.999253, 9.999956 
1.0450422e+3, 1.9504361e+2, -1146935.9, -1089805.0, 34168.785, -0.041498102, -0.07177969, -1073834.1, -45252.688, 0.0, 9.9991865, 9.999953 
1.0450359e+3, 2.0504366e+2, -990150.94, -982595.5, 44211.094, -0.06899652, -0.049555313, -942001.0, -11419.7705, 0.0, 9.999664, 9.999789 
1.0450304e+3, 2.150459e+2, -758837.1, -820607.25, 9740.649, -0.010672018, 0.17581008, -757337.5, 75224.484, 0.0, 10.0005865, 9.999783 
1.0450242e+3, 2.25046e+2, -655208.9, -774543.94, -13225.953, 0.03242273, 0.23481147, -653760.6, 80800.85, 0.0, 10.000853, 9.999299 
1.0450173e+3, 2.3504376e+2, -614384.5, -707354.2, 16628.416, 0.055111833, 0.06157025, -611499.9, 25081.535, 0.0, 10.000471, 9.999272 
1.04501024e+3, 2.4504295e+2, -513489.8, -582665.5, 33312.984, 0.050246805, 0.0477198, -500056.06, 38531.457, 0.0, 10.000384, 9.999496 
1.04500316e+3, 2.5504336e+2, -389707.63, -471142.2, -23598.18, 0.023588257, 0.11346598, -383363.53, 57218.47, 0.0, 10.000559, 9.999501 
1.0449967e+3, 2.6504278e+2, -355238.75, -540103.8, -8377.93, 0.047954645, 0.17201154, -354859.84, -12272.39, 0.0000000009945924, 10.000719, 9.998282 
1.04499094e+3, 2.7504084e+2, -244056.03, -440037.25, 21102.717, 0.12491922, 0.12710072, -241809.5, 2798.6167, 0.0000020282196, 10.000811, 9.998256 
1.0449846e+3, 2.850387e+2, -137492.06, -323701.47, 48271.074, 0.15517715, 0.08844482, -125722.63, 20905.715, 0.00002862002, 10.0008135, 9.998377 
1.04497775e+3, 2.9503638e+2, -59679.7, -236786.08, 39101.348, 0.14252545, -0.009560524, -51431.117, -2782.5945, 0.00014590684, 10.000673, 9.998366 
1.0449708e+3, 3.0503404e+2, -20478.266, -265473.34, 48388.113, 0.10489137, -0.04189045, -11267.58, -11267.58, 0.0004168189, 10.000956, 9.99769 
1.0449626e+3, 3.150342e+2, 178936.19, 12235.859, 7761.3667, -0.058071062, 0.18265767, 179296.78, 179296.78, 0.0008363063, 10.001452, 9.999376 
1.055084e+3, 1.2505044e+2, -1740407.1, -1716437.8, -61803.793, -0.25784862, -0.048132073, -1665467.4, 49044.805, 0.00039971265, 9.999713, 10.00011 
1.0550799e+3, 1.3505165e+2, -1675966.8, -1668404.1, 62134.063, -0.06820184, 0.066421516, -1609936.4, 6564.4624, 0.00016604259, 9.999674, 9.999789 
1.05507486e+3, 1.4505139e+2, -1605907.5, -1617360.0, -5292.7915, 0.06683156, 0.08331241, -1603836.1, -85331.58, 0.000032768716, 9.999617, 9.999489 
1.0550664e+3, 1.5505072e+2, -1499288.1, -1515161.3, -2663.717, -0.064804524, 0.03802354, -1498853.1, -78340.445, 0.0000008393984, 9.999681, 9.999489 
1.0550598e+3, 1.6505107e+2, -1354789.5, -1294645.5, 22568.303, -0.06441131, 0.08483611, -1287118.9, 35391.83, 0.0, 9.999581, 10.00037 
1.0550554e+3, 1.750522e+2, -1282200.0, -1210444.4, 34606.043, 0.0981125, 0.1378422, -1196474.4, 28026.762, 0.0, 9.999411, 10.000359 
1.0550497e+3, 1.8505323e+2, -1219672.9, -1139377.8, 17936.643, 0.12755719, 0.2132167, -1135553.1, -9062.211, 0.0, 9.999204, 10.000276 
1.0550422e+3, 1.950539e+2, -1135355.6, -1049546.4, 41718.28, 0.02069249, 0.23040654, -1032607.7, -4125.5264, 0.0, 9.999115, 10.000263 
1.05503604e+3, 2.0505317e+2, -1052378.3, -1085372.9, 66860.06, -0.041145906, 0.19052342, -1000010.3, -69520.83, 0.0, 9.999552, 9.999138 
1.0550307e+3, 2.1505073e+2, -822368.9, -926065.9, 53231.418, -0.057806455, 0.010537826, -799908.2, 32607.207, 0.0, 10.000467, 9.999118 
1.0550248e+3, 2.2505045e+2, -604528.0, -634872.6, -37721.063, -0.011375811, 0.015852213, -579042.25, 155474.61, 0.0, 10.000705, 10.000325 
1.05501845e+3, 2.3505208e+2, -559259.8, -563856.94, 12804.312, 0.100494206, 0.12164819, -548549.4, 87947.25, 0.0, 10.000346, 10.000315 
1.0550112e+3, 2.4505168e+2, -618999.1, -775014.9, 27981.787, 0.090069346, 0.15982051, -614132.4, -75632.66, 0.0, 10.000268, 9.998232 
1.0550033e+3, 2.5504905e+2, -492798.56, -662174.4, -9248.139, -0.038324006, 0.048196938, -492295.1, -51767.05, 0.0, 10.00046, 9.998236 
1.0549963e+3, 2.6504725e+2, -297690.47, -398010.97, -13320.4795, -0.07170308, -0.0043708584, -295951.94, 46593.27, 0.000000000012280949, 10.000627, 9.999298 
1.0549905e+3, 2.7504605e+2, -184781.92, -295234.88, 40602.688, -0.020994129, -0.079107925, -171462.48, 73090.88, 0.0000016155456, 10.000724, 9.999287 
1.05498426e+3, 2.8504607e+2, -138405.53, -314430.72, 33100.7, 0.008288958, 0.040809494, -132386.89, 14164.981, 0.000025303238, 10.000763, 9.9984665 
1.05497755e+3, 2.9504696e+2, -68935.37, -233845.48, 50340.875, 0.027693795, 0.25369143, -54782.766, -6238.662, 0.000137169, 10.000586, 9.998428 
1.0549717e+3, 3.0504343e+2, -69568.63, -358457.16, 63991.51, 0.06789132, 0.13303508, -56028.53, -56028.53, 0.0004008363, 10.000909, 9.997077 
1.0549655e+3, 3.150383e+2, 107113.03, -101994.44, 62337.33, 0.022382572, -0.116150185, 124286.14, 124286.14, 0.00081260194, 10.001313, 9.998655 
1.0650841e+3, 1.2505737e+2, -1947977.3, -1796513.0, -95076.74, -0.12705518, -0.011948693, -1750692.9, -36245.473, 0.00047318285, 9.998209, 10.00029 
1.06507875e+3, 1.3505857e+2, -1669116.5, -1646275.0, 28893.43, -0.1421191, 0.08906957, -1626627.0, -10191.431, 0.00020250746, 9.999654, 9.99995 
1.0650729e+3, 1.4505857e+2, -1570759.3, -1577917.9, -30381.887, -0.08288196, 0.116540484, -1543746.6, -25310.908, 0.000042863663, 9.999757, 9.999697 
1.06506556e+3, 1.5505815e+2, -1625180.3, -1548272.1, -17877.23, -0.054182116, 0.07370236, -1544319.8, -123879.36, 0.0000013547858, 9.998703, 9.999727 
1.06505945e+3, 1.6505805e+2, -1505135.0, -1397976.5, 76653.08, -0.0019608575, 0.07571286, -1358033.4, -35591.37, 0.0, 9.998664, 10.000115 
1.06505506e+3, 1.7505814e+2, -1269052.4, -1229664.6, 45208.72, 0.113362245, 0.051936124, -1200046.5, 24395.447, 0.0, 9.999605, 10.000143 
1.0650493e+3, 1.8505922e+2, -1076600.6, -1068854.4, 17202.232, 0.12944038, 0.14199737, -1055094.6, 71336.7, 0.0, 10.000161, 10.000302 
1.0650421e+3, 1.9506098e+2, -950856.75, -961338.0, -1620.209, 0.03716631, 0.26567617, -950612.06, 77801.34, 0.0, 10.0003605, 10.000276 
1.0650361e+3, 2.0506047e+2, -962322.94, -1030008.56, 63491.926, -0.0057318276, 0.24191475, -924217.44, 6200.7227, 0.0, 10.000121, 9.99924 
1.0650312e+3, 2.1505754e+2, -957602.8, -976711.2, 82780.63, 0.005651065, 0.0031963303, -883826.8, -51379.92, 0.0, 9.999488, 9.999237 
1.0650254e+3, 2.2505704e+2, -797377.8, -750567.06, -6598.371, 0.043384813, -0.010565894, -749654.75, -15203.75, 0.0, 9.9994755, 10.000128 
1.0650187e+3, 2.3505868e+2, -620124.44, -613387.9, -69093.12, 0.11445861, 0.11801194, -547581.0, 88852.31, 0.0, 10.000017, 10.0001335 
1.0650116e+3, 2.4505846e+2, -578087.2, -719086.25, -16535.504, 0.10061247, 0.16581213, -576174.0, -37738.97, 0.0, 10.000404, 9.998545 
1.0650042e+3, 2.550561e+2, -441598.25, -606503.8, 40634.758, -0.003129984, 0.053967107, -432129.1, 8329.624, 0.0, 10.000679, 9.998517 
1.0649972e+3, 2.6505432e+2, -292637.66, -399508.47, 61261.55, -0.046538133, -0.0069712717, -264781.47, 77693.266, 0.0, 10.000669, 9.999269 
1.0649908e+3, 2.75053e+2, -253061.77, -325448.53, 7154.6494, -0.027677001, -0.092859596, -252361.38, -7876.9854, 0.00000091217555, 10.000251, 9.9993 
1.06498465e+3, 2.8505307e+2, -209009.3, -358428.34, -9868.501, -0.00034171704, 0.032763448, -208360.33, -61877.08, 0.000020741376, 10.000329, 9.998371 
1.0649784e+3, 2.9505402e+2, -29402.547, -228671.73, -30625.936, 0.044484124, 0.2652284, -24801.828, 23674.107, 0.00012515363, 10.000901, 9.998317 
1.0649728e+3, 3.0505046e+2, -31442.719, -283827.7, 35669.266, 0.098050885, 0.12379872, -26498.482, -26498.482, 0.00037813088, 10.000918, 9.997581 
1.0649671e+3, 3.150454e+2, -21095.14, -103551.57, 72819.12, 0.11191482, -0.1796903, 21356.926, 21356.926, 0.0007771597, 10.000165, 9.9991865 
1.0750846e+3, 1.2506628e+2, -1928361.4, -1747073.4, -84615.91, 0.047880154, 0.30821747, -1713716.6, 654.1655, 0.00055371417, 9.998195, 10.000622 
1.0750784e+3, 1.350656e+2, -1655389.0, -1601768.6, 86660.7, -0.16757387, 0.18546386, -1537865.8, 78508.31, 0.00024334127, 9.999602, 10.00027 
1.07507154e+3, 1.4506541e+2, -1520030.1, -1475776.9, -87813.21, -0.23096867, 0.14183939, -1407345.5, 111027.52, 0.00005483326, 9.999754, 10.000405 
1.0750649e+3, 1.5506601e+2, -1570776.6, -1443771.8, -49085.01, -0.016851325, 0.12824076, -1427012.8, -6647.6616, 0.000002073113, 9.998729, 10.000437 
1.07505895e+3, 1.6506572e+2, -1542829.8, -1472252.5, 98252.055, 0.056688976, 0.10198685, -1403144.0, -80778.02, 0.0000000000166348, 9.998653, 9.999605 
1.0750541e+3, 1.7506428e+2, -1307380.8, -1305526.5, 89965.42, 0.027924884, -0.026618754, -1216483.5, 7894.7603, 0.0, 9.999587, 9.999628 
1.0750482e+3, 1.8506415e+2, -1106333.1, -1110801.1, 13061.512, -0.016356599, -0.019668449, -1095316.0, 31063.832, 0.0, 10.000086, 10.000048 
1.0750415e+3, 1.9506499e+2, -981161.94, -1001179.4, 14920.917, -0.08062588, 0.036941387, -973203.75, 55169.92, 0.0, 10.000271, 10.000041 
1.075036e+3, 2.0506577e+2, -923507.2, -923024.3, 25870.098, -0.044757705, 0.11563126, -897394.5, 32971.027, 0.0, 10.000007, 10.000031 
1.07503176e+3, 2.150663e+2, -922476.3, -869841.44, 69439.51, 0.0892201, 0.14159511, -821899.5, 10457.622, 0.0, 9.999341, 10.000041 
1.07502565e+3, 2.250657e+2, -917525.0, -963671.8, 4098.5854, 0.109433375, 0.14633131, -917163.8, -182799.16, 0.0, 9.999322, 9.99874 
1.075018e+3, 2.350637e+2, -737554.06, -822658.5, -36781.348, 0.018059263, 0.05029833, -723860.75, -87470.66, 0.0, 9.999874, 9.998766 
1.0750112e+3, 2.4506338e+2, -472065.6, -469571.0, -13665.506, -0.0013421413, 0.06852102, -457096.0, 81296.34, 0.0, 10.000279, 10.000317 
1.07500546e+3, 2.5506446e+2, -327615.34, -350773.9, 64692.996, 0.043915927, 0.119274825, -273473.5, 166900.77, 0.0, 10.000596, 10.00031 
1.07499905e+3, 2.65064e+2, -386632.44, -570779.56, 35134.992, 0.04636127, 0.15547398, -380156.47, -37780.086, 0.000000000031670343, 10.000567, 9.998144 
1.0749917e+3, 2.7506173e+2, -345800.8, -499041.66, 5240.507, 0.0066356533, 0.08821764, -345621.78, -101220.87, 0.00000057346807, 10.000168, 9.998153 
1.07498534e+3, 2.8505972e+2, -234519.56, -397928.75, 360.10678, 0.025758168, 0.07881934, -234518.77, -88096.555, 0.000016659129, 10.000272, 9.998125 
1.0749801e+3, 2.9505774e+2, -52946.582, -260655.28, 10083.937, 0.09169019, 0.037186828, -52458.17, -4015.8743, 0.000111912384, 10.000832, 9.998128 
1.074974e+3, 3.0505535e+2, 70964.37, -63743.188, 4617.8906, 0.095074624, -0.056911096, 71122.49, 71122.49, 0.0003521945, 10.000886, 9.999112 
1.0749666e+3, 3.1505546e+2, 64771.508, 101122.91, 82008.766, 0.001918208, 0.0065073743, 166945.98, 166945.98, 0.0007370222, 10.000049, 10.000656 
1.0850842e+3, 1.2507333e+2, -1590891.1, -1560378.0, -312.80438, 0.094357006, 0.34896472, -1560374.8, 153928.84, 0.00064071716, 10.00038, 10.000869 
1.0850787e+3, 1.3507265e+2, -1828199.6, -1656249.1, 130982.234, -0.014601043, 0.19960442, -1585546.1, 30758.602, 0.00028839763, 9.998264, 10.000557 
1.08507104e+3, 1.4507253e+2, -1759859.1, -1619808.9, -14054.962, -0.16275002, 0.1648823, -1618412.4, -100109.33, 0.00006873226, 9.998264, 10.000116 
1.0850648e+3, 1.5507296e+2, -1322442.4, -1359440.1, -84913.06, 0.015095125, 0.16511177, -1254036.5, 166262.69, 0.0000030594845, 10.000597, 10.000111 
1.08505875e+3, 1.6507271e+2, -1206281.0, -1281208.1, 32797.45, 0.06316321, 0.1458562, -1193953.0, 128346.76, 0.000000000186287, 10.000846, 9.999851 
1.0850531e+3, 1.7507161e+2, -1361674.8, -1305480.6, 56526.72, 0.0068811057, 0.026196271, -1270453.1, -46146.3, 0.0, 9.999112, 9.999848 
1.0850473e+3, 1.8507113e+2, -1334662.0, -1261931.6, 59666.11, -0.04562712, 0.005981455, -1228422.1, -102110.51, 0.0, 9.998687, 9.999694 
1.0850412e+3, 1.9507104e+2, -1123771.9, -1106755.3, 32128.85, -0.097956456, 0.0060891444, -1082027.3, -53711.14, 0.0, 9.999458, 9.99971 
1.0850359e+3, 2.0507187e+2, -927122.1, -860334.3, 17040.256, -0.04347789, 0.07764164, -856237.9, 74068.66, 0.0, 9.999707, 10.000601 
1.08503126e+3, 2.1507327e+2, -868916.5, -786917.3, 16791.66, 0.11283603, 0.13360223, -783612.0, 48674.543, 0.0, 9.999454, 10.000558 
1.0850254e+3, 2.2507286e+2, -900749.9, -1002009.8, 40441.945, 0.13621242, 0.15605076, -886580.56, -152288.47, 0.0, 9.999651, 9.998314 
1.0850181e+3, 2.3507048e+2, -696639.3, -851549.7, 44554.574, 0.02891954, 0.06477827, -684738.94, -48414.11, 0.0, 10.000371, 9.998327 
1.0850116e+3, 2.4507003e+2, -438688.66, -432565.28, 32006.174, 0.015406745, 0.08127064, -403474.7, 134854.58, 0.0, 10.000408, 10.00052 
1.0850061e+3, 2.5507128e+2, -447841.34, -387338.0, -29088.691, 0.09425185, 0.13084602, -375621.63, 64686.4, 0.0, 9.999678, 10.000509 
1.08499974e+3, 2.6507086e+2, -502987.88, -646393.44, -39813.723, 0.099795856, 0.17368008, -492675.9, -150366.78, 0.000000020287489, 9.999859, 9.997959 
1.08499244e+3, 2.7506855e+2, -249513.67, -476875.8, -26121.186, 0.035462625, 0.1215707, -246551.27, -2216.3313, 0.0000009638229, 10.000929, 9.997938 
1.0849862e+3, 2.8506625e+2, -114135.03, -338696.84, 21672.732, 0.046524752, 0.0948033, -112062.49, 34297.035, 0.00001551447, 10.001086, 9.998137 
1.084981e+3, 2.9506385e+2, -142679.22, -298086.28, 17712.42, 0.13591172, 0.006281076, -140686.03, -92301.664, 0.000103287646, 10.000194, 9.998175 
1.0849747e+3, 3.050619e+2, -3134.4497, -71734.555, 5992.361, 0.12514403, -0.0561658, -2614.939, -2614.939, 0.00033301808, 10.000281, 9.999349 
1.08496755e+3, 3.1506354e+2, 236335.88, 206057.55, -63562.2, 0.041383184, 0.14290316, 286536.97, 286536.97, 0.00070935563, 10.001161, 10.000838 
1.09508276e+3, 1.2507857e+2, -1578762.1, -1529053.0, -88435.086, -0.13785458, 0.11298586, -1462046.1, 252199.25, 0.000734217, 10.00035, 10.001098 
1.0950795e+3, 1.3507996e+2, -1799644.3, -1605694.3, 56718.21, 0.21526599, 0.13313457, -1590325.6, 25899.607, 0.00033773432, 9.998296, 10.00089 
1.0950714e+3, 1.450801e+2, -1859409.1, -1826562.3, 59757.535, 0.010489271, 0.17769618, -1781012.4, -262787.84, 0.0000845864, 9.99827, 9.9986925 
1.09506495e+3, 1.5507898e+2, -1427904.5, -1566608.1, 14421.142, -0.051676128, 0.16860037, -1426421.0, -6178.078, 0.0000043925156, 10.000557, 9.998704 
1.0950585e+3, 1.6507909e+2, -1141300.5, -1144221.3, -46091.3, -0.07181896, 0.20667829, -1096646.4, 225596.52, 0.0000000006358386, 10.000831, 10.000804 
1.09505214e+3, 1.7508005e+2, -1292561.4, -1167766.0, 1840.1033, -0.033686075, 0.19708452, -1167738.9, 56489.31, 0.0, 9.9991255, 10.0007925 
1.0950462e+3, 1.8508016e+2, -1371134.1, -1327257.3, 76319.17, -0.049723815, 0.21120822, -1269785.9, -143559.3, 0.0, 9.998651, 9.999258 
1.09504074e+3, 1.9507919e+2, -1166876.4, -1174730.6, 72860.61, -0.10564487, 0.16701552, -1097837.1, -69597.11, 0.0, 9.99937, 9.999283 
1.0950353e+3, 2.0507874e+2, -922287.44, -827486.7, -4594.971, -0.08989192, 0.11508271, -827264.5, 102977.266, 0.0, 9.999605, 10.000879 
1.0950296e+3, 2.1507852e+2, -867614.06, -753408.7, 16792.877, -0.006493152, -0.0164349, -750990.6, 81243.64, 0.0, 9.999321, 10.0008545 
1.0950242e+3, 2.2507869e+2, -893952.44, -953035.7, 56230.855, 0.037065696, 0.027792986, -859975.44, -125743.28, 0.0, 9.999504, 9.998718 
1.0950188e+3, 2.3507892e+2, -690994.56, -804693.25, 81917.63, 0.047817852, 0.15529002, -648132.56, -11894.387, 0.0, 10.000221, 9.998718 
1.0950126e+3, 2.4507827e+2, -553354.9, -638027.44, -6354.9146, 0.0536586, 0.20066291, -552880.56, -14633.832, 0.0, 10.000268, 9.999177 
1.09500565e+3, 2.5507656e+2, -553886.1, -585612.8, -44074.715, 0.056476466, 0.08799304, -522906.94, -82647.586, 0.0, 9.999582, 9.999194 
1.094999e+3, 2.6507512e+2, -469064.5, -553386.6, -6181.7085, 0.027309904, 0.05345147, -468613.72, -126342.31, 0.00000010014453, 9.99976, 9.998647 
1.0949929e+3, 2.7507353e+2, -206962.39, -377838.0, 33149.902, -0.040944494, 0.0048566624, -200756.69, 43529.33, 0.0000018004142, 10.000877, 9.998647 
1.0949868e+3, 2.8507257e+2, -109883.89, -314680.9, -23082.36, -0.032878835, 0.0687628, -107314.55, 38981.883, 0.000016749305, 10.001024, 9.998331 
1.0949807e+3, 2.950721e+2, -140880.89, -279652.34, -1169.6511, 0.060660783, 0.15371723, -140871.03, -92566.49, 0.00010005187, 10.000131, 9.998332 
1.0949747e+3, 3.0507004e+2, -89573.03, -239102.4, 32277.322, 0.07558466, 0.12648427, -82903.18, -82903.18, 0.00032272984, 10.000225, 9.998227 
1.094969e+3, 3.1506953e+2, 145160.13, 25160.533, 752.33307, 0.019408012, 0.22635466, 145164.84, 145164.84, 0.0006960898, 10.00111, 9.999627 
1.10508226e+3, 1.2508416e+2, -1792449.0, -1705613.0, -118919.766, -0.15021598, 0.045443032, -1622433.1, 91752.47, 0.00083503575, 9.999216, 10.000414 
1.10507935e+3, 1.3508536e+2, -1441800.0, -1493696.8, -125218.805, 0.24283215, 0.097213626, -1339869.3, 276301.8, 0.0003918232, 10.00101, 10.000346 
1.1050704e+3, 1.4508551e+2, -1471549.6, -1598959.6, -51746.87, -0.025155157, 0.14864781, -1453181.1, 64990.234, 0.000102570426, 10.000737, 9.999075 
1.1050642e+3, 1.5508465e+2, -1682040.0, -1647232.3, 16313.93, -0.08188579, 0.12751707, -1640781.5, -220595.9, 0.0000061708192, 9.998617, 9.999089 
1.1050579e+3, 1.6508517e+2, -1561199.1, -1363121.0, -8655.855, -0.07300213, 0.19405651, -1362743.5, -40560.543, 0.0000000015512864, 9.998027, 10.00065 
1.1050516e+3, 1.7508675e+2, -1314913.1, -1192086.0, -69086.164, 0.018305745, 0.26306653, -1161063.0, 63103.023, 0.0, 9.999042, 10.000661 
1.10504575e+3, 1.850871e+2, -1227666.3, -1217657.0, 38246.36, 0.020700235, 0.2912551, -1184089.3, -57927.027, 0.0, 9.999478, 9.999603 
1.1050405e+3, 1.9508599e+2, -1146325.1, -1123367.4, 69259.19, -0.059882693, 0.19492407, -1064642.3, -36468.484, 0.0, 9.999352, 9.999633 
1.10503495e+3, 2.050853e+2, -972496.25, -885951.56, 12180.113, -0.070339285, 0.12018406, -884270.0, 45907.24, 0.0, 9.999408, 10.000575 
1.10502906e+3, 2.1508485e+2, -835790.5, -769511.44, -33849.156, -0.013387131, -0.00478287, -755280.2, 76894.55, 0.0, 9.999675, 10.000573 
1.1050238e+3, 2.2508514e+2, -819106.1, -840101.9, 24155.426, 0.04232523, 0.029734494, -803266.0, -69095.84, 0.0, 9.999677, 9.9994135 
1.1050191e+3, 2.3508586e+2, -765104.7, -765694.7, 51821.758, 0.10230969, 0.13884154, -713577.06, -77410.64, 0.0, 9.999384, 9.999394 
1.1050132e+3, 2.450851e+2, -658940.75, -771769.4, 23447.63, 0.107226655, 0.17765343, -654262.0, -116086.0, 0.0, 9.999918, 9.998412 
1.105006e+3, 2.550827e+2, -360405.34, -576051.5, -1416.684, 0.0566604, 0.07152401, -360396.03, 79804.234, 0.0, 10.001289, 9.998423 
1.1049995e+3, 2.6508105e+2, -206106.56, -376939.4, 51305.195, 0.031513304, 0.036002982, -191882.69, 150332.42, 0.00000018749917, 10.001342, 9.9991 
1.10499404e+3, 2.750799e+2, -305158.8, -374191.56, 47994.617, 0.032477606, -0.014624923, -280557.84, -36334.51, 0.0000025324416, 9.999988, 9.999099 
1.1049879e+3, 2.8507942e+2, -257090.64, -377351.9, 16299.029, 0.032579806, 0.06675067, -254920.78, -108691.94, 0.000018771152, 9.99999, 9.9984 
1.1049812e+3, 2.9507932e+2, 21938.994, -194966.88, -26.067308, 0.054114673, 0.18824662, 21938.998, 70172.805, 0.00010057408, 10.001234, 9.998382 
1.1049751e+3, 3.0507717e+2, 51037.47, -166066.3, 82557.6, 0.056371592, 0.14817642, 78864.72, 78864.72, 0.0003198817, 10.001143, 9.99829 
1.1049701e+3, 3.1507605e+2, -89278.82, -64159.813, 97620.65, 0.11831973, 0.170238, 21705.951, 21705.951, 0.0006923279, 9.99941, 9.999815 
1.1150828e+3, 1.2509002e+2, -1909939.9, -1941168.4, -22279.787, -0.08918015, 0.09977653, -1898347.6, -184222.47, 0.000944546, 9.999199, 9.998805 
1.1150781e+3, 1.3508905e+2, -1554704.3, -1718866.4, -47583.57, -0.0016205783, 0.09952595, -1541909.1, 74230.97, 0.00045159098, 10.000973, 9.998823 
1.1150681e+3, 1.4508896e+2, -1318260.1, -1272881.8, -146854.83, -0.3643289, 0.09002155, -1146973.8, 371167.72, 0.00012308804, 10.000705, 10.0013275 
1.11506216e+3, 1.5509018e+2, -1526586.6, -1326531.5, -52914.137, -0.1714248, 0.049575616, -1313398.0, 106727.195, 0.000008505592, 9.998624, 10.001289 
1.1150564e+3, 1.6509113e+2, -1649447.3, -1547578.9, 14045.027, -0.04307, 0.11661344, -1545677.9, -223560.0, 0.0000000033697685, 9.99803, 9.999387 
1.11505136e+3, 1.750918e+2, -1404134.3, -1375700.9, -21894.393, 0.072875835, 0.22339886, -1363812.5, -139692.97, 0.0, 9.999027, 9.999414 
1.115046e+3, 1.8509202e+2, -1154921.9, -1057723.3, 20929.838, 0.071417645, 0.24266016, -1053408.0, 72710.15, 0.0, 9.999442, 10.000718 
1.1150402e+3, 1.9509152e+2, -1083480.3, -972936.1, 73741.484, -0.05371089, 0.098795615, -936051.75, 92064.766, 0.0, 9.999269, 10.000707 
1.11503445e+3, 2.0509166e+2, -1046142.7, -1019426.3, 6326.54, -0.07984485, 0.09795766, -1018003.94, -87891.375, 0.0, 9.99932, 9.999701 
1.1150291e+3, 2.1509214e+2, -919630.5, -910029.06, -12494.396, -0.0051149363, 0.15187874, -901444.8, -69335.7, 0.0, 9.999526, 9.999683 
1.1150237e+3, 2.250921e+2, -770550.4, -701401.7, 3057.9094, 0.05371918, 0.14882597, -701266.75, 32840.41, 0.0, 9.999521, 10.000438 
1.11501865e+3, 2.3509142e+2, -713794.8, -626012.4, 53523.79, 0.10762645, 0.013978761, -600684.9, 35423.605, 0.0, 9.999246, 10.00042 
1.1150131e+3, 2.4509063e+2, -699404.3, -825607.06, 65895.32, 0.086347885, 0.0143778855, -671269.9, -133153.84, 0.0, 9.999788, 9.998105 
1.1150068e+3, 2.550895e+2, -396678.13, -629882.8, 62657.605, -0.00273102, 0.06550914, -380909.47, 59222.613, 0.0, 10.001196, 9.998098 
1.115001e+3, 2.650886e+2, -204927.36, -353476.47, -11009.147, 0.018242959, 0.11109721, -204115.89, 138025.84, 0.00000020790911, 10.001253, 9.999302 
1.1149953e+3, 2.7508768e+2, -302272.3, -347474.2, 12012.311, 0.14593515, 0.060381558, -299278.38, -55130.742, 0.0000030041272, 9.999898, 9.999323 
1.11498915e+3, 2.850868e+2, -277201.5, -394126.84, 54258.215, 0.14210388, 0.09665603, -255903.03, -109746.92, 0.000021469468, 9.999887, 9.998332 
1.1149823e+3, 2.9508567e+2, 11620.958, -205750.45, 67326.38, 0.00654267, 0.11771248, 30784.477, 78954.875, 0.00010458993, 10.001191, 9.998326 
1.1149757e+3, 3.0508336e+2, 128407.21, 113.700035, 11882.69, -0.026570331, 0.010327167, 129498.516, 129498.516, 0.00032358713, 10.00112, 9.999443 
1.1149702e+3, 3.1508264e+2, -11457.767, 115671.02, 67743.05, 0.12861373, -0.045607787, 145002.02, 145002.02, 0.00069615606, 9.999326, 10.001095 
1.1250829e+3, 1.2509541e+2, -1593106.0, -1787300.1, 80844.62, -0.08551687, 0.071499355, -1563855.6, 150211.53, 0.0010643419, 10.00137, 9.998816 
1.12507775e+3, 1.3509426e+2, -1879765.1, -1878823.9, 66649.98, -0.018088758, 0.053774964, -1812642.9, -196556.95, 0.00051804923, 9.998767, 9.998784 
1.1250674e+3, 1.4509432e+2, -1690971.6, -1428790.5, -13841.913, -0.36167705, 0.050258376, -1428061.6, 90025.22, 0.00014661087, 9.998042, 10.001541 
1.12506144e+3, 1.5509643e+2, -1407162.8, -1242071.9, -99428.84, -0.13680378, 0.074891634, -1195389.5, 224672.72, 0.00001150662, 9.999334, 10.001523 
1.12505555e+3, 1.6509742e+2, -1424668.3, -1444541.1, -11178.556, -0.013736651, 0.13558106, -1419648.3, -97593.69, 0.0000000061074554, 9.999584, 9.999349 
1.12505004e+3, 1.750972e+2, -1421826.4, -1383166.4, 25136.982, 0.045277447, 0.15549114, -1370786.5, -146721.92, 0.0, 9.998901, 9.999421 
1.1250449e+3, 1.8509752e+2, -1232641.8, -1057432.4, 107406.32, 0.06349342, 0.16670153, -1006434.44, 119627.24, 0.0, 9.998737, 10.001062 
1.1250401e+3, 1.9509801e+2, -1077490.0, -938015.5, 81814.25, 0.03144375, 0.08667958, -900249.94, 127799.82, 0.0, 9.999139, 10.001023 
1.12503454e+3, 2.0509844e+2, -1085370.6, -1056749.8, 30639.018, 0.016062072, 0.10840114, -1037243.94, -107200.3, 0.0, 9.999149, 9.99952 
1.1250284e+3, 2.1509854e+2, -1023944.0, -972752.5, 35657.15, 0.025833819, 0.14258334, -954455.44, -122409.664, 0.0, 9.998886, 9.999547 
1.1250232e+3, 2.2509834e+2, -796740.56, -720807.56, 78551.914, 0.06402798, 0.1302074, -671528.06, 62518.156, 0.0, 9.999359, 10.000386 
1.1250188e+3, 2.350977e+2, -519599.94, -534783.0, 27207.61, 0.1367496, 0.0035904993, -498944.63, 137101.95, 0.0, 10.000581, 10.000399 
1.1250135e+3, 2.4509712e+2, -529728.56, -694954.25, 43205.504, 0.116632484, 0.0019888578, -519112.7, 18938.438, 0.0, 10.000742, 9.9985485 
1.1250074e+3, 2.5509638e+2, -557702.6, -660901.56, 77206.45, 0.01023134, 0.051637415, -516440.16, -76378.3, 0.0, 9.999888, 9.998524 
1.1250016e+3, 2.6509574e+2, -430992.47, -478711.7, 16310.4, 0.03071791, 0.11140074, -425950.34, -83880.97, 0.00000016860811, 9.999786, 9.999143 
1.1249957e+3, 2.750949e+2, -237185.53, -334790.3, -20116.924, 0.17343359, 0.08804573, -233201.9, 10874.755, 0.0000038179373, 10.000438, 9.999145 
1.1249895e+3, 2.8509405e+2, -148504.95, -278286.6, 80343.75, 0.16414492, 0.10762994, -110119.75, 35964.637, 0.000026281929, 10.000519, 9.998829 
1.12498276e+3, 2.9509285e+2, -139799.0, -221162.19, 108532.766, 0.007238428, 0.07483224, -64573.934, -16478.916, 0.00011359424, 9.999899, 9.998841 
1.1249764e+3, 3.0509046e+2, 16784.994, -96872.73, 26873.898, -0.02949977, -0.05230455, 22818.887, 22818.887, 0.00033605486, 10.000566, 9.999037 
1.1249716e+3, 3.1508917e+2, 378166.56, 257658.25, -80561.27, 0.20080525, -0.111370854, 418514.0, 418514.0, 0.0007117771, 10.002195, 10.000702 
1.1350826e+3, 1.2510054e+2, -1478000.8, -1538997.3, 17123.117, -0.3061579, -0.030533021, -1473522.6, 240487.44, 0.0011953667, 10.001345, 10.000525 
1.1350776e+3, 1.3510092e+2, -1776546.0, -1662267.5, -23946.076, 0.069031596, -0.04718775, -1657452.6, -41443.34, 0.00059164723, 9.998753, 10.000279 
1.135068e+3, 1.4510159e+2, -1814616.4, -1679098.0, 19552.695, -0.13748786, 0.021564877, -1676333.3, -158325.56, 0.00017336896, 9.998021, 9.999833 
1.1350617e+3, 1.551035e+2, -1527047.8, -1489967.1, -39133.063, -0.07278956, 0.20337324, -1465204.5, -45208.91, 0.000015247707, 9.9993305, 9.999824 
1.1350545e+3, 1.6510409e+2, -1338598.9, -1266553.5, -50159.03, -0.0922307, 0.24640426, -1240822.1, 81170.055, 0.000000009421829, 9.999584, 10.000568 
1.13504715e+3, 1.751031e+2, -1337011.1, -1209866.1, 8632.588, -0.16398793, 0.0643843, -1209282.8, 14717.297, 0.0, 9.998912, 10.000605 
1.1350424e+3, 1.851037e+2, -1258080.1, -1111776.6, 108253.016, -0.09737471, 0.062702835, -1054276.6, 71715.96, 0.0, 9.998738, 10.000691 
1.13504015e+3, 1.9510557e+2, -1117230.3, -998305.56, 104634.88, 0.097036965, 0.15680781, -937417.44, 90555.336, 0.0, 9.999039, 10.00066 
1.135035e+3, 2.0510575e+2, -1070174.4, -1002791.2, 6998.642, 0.122682795, 0.15222247, -1002071.94, -72102.4, 0.0, 9.999048, 9.999941 
1.1350272e+3, 2.1510415e+2, -1016170.6, -923580.0, 34409.97, -0.00480149, -0.02629318, -912192.56, -80208.33, 0.0, 9.998742, 9.999957 
1.135022e+3, 2.2510388e+2, -889186.5, -880273.3, 110157.57, -0.013794904, -0.014134358, -774482.25, -40495.027, 0.0, 9.999218, 9.999359 
1.13501914e+3, 2.3510465e+2, -614594.7, -698005.3, 83817.16, 0.09520853, 0.10313267, -562680.3, 73300.984, 0.0, 10.000433, 9.9993515 
1.1350143e+3, 2.4510454e+2, -464356.56, -531162.75, -545.12726, 0.094215274, 0.14336272, -464352.13, 73629.21, 0.0, 10.000619, 9.999731 
1.13500744e+3, 2.5510344e+2, -486400.72, -492429.9, 56733.49, 0.001988396, 0.034698315, -432601.8, 7386.744, 0.0, 9.999797, 9.999725 
1.13500096e+3, 2.6510257e+2, -481272.5, -570542.25, 34049.61, -0.022197885, 0.03942491, -469767.84, -127770.62, 0.00000020663475, 9.999725, 9.998548 
1.13499485e+3, 2.7510157e+2, -288111.44, -431276.94, 20798.682, 0.015345029, 0.06254509, -285151.06, -41140.3, 0.0000055002247, 10.00039, 9.998511 
1.1349885e+3, 2.8510097e+2, -88248.984, -131826.98, 44286.246, -0.004001971, 0.08841059, -60681.81, 85333.19, 0.00003348711, 10.000439, 9.9998665 
1.1349823e+3, 2.9510066e+2, -81119.57, -77387.586, 99570.164, -0.06438242, 0.038094748, 20334.066, 68344.664, 0.00012808957, 9.999807, 9.999869 
1.1349769e+3, 3.050982e+2, -138244.47, -392810.63, 82615.766, -0.058094386, -0.04702099, -113783.19, -113783.19, 0.0003591798, 10.000456, 9.997058 
1.13497354e+3, 3.1509563e+2, 229271.78, -29788.549, 13288.088, 0.12265579, -0.03650338, 229951.6, 229951.6, 0.0007452587, 10.002106, 9.998764 
1.14508264e+3, 1.2510568e+2, -1933544.5, -1715808.3, 93678.305, -0.2544996, -0.18241324, -1681052.3, 32900.613, 0.0013373722, 9.998004, 10.000944 
1.1450759e+3, 1.3510738e+2, -1728491.6, -1605331.6, -117225.17, 0.026396113, -0.0986067, -1534496.3, 81443.07, 0.000672049, 9.998905, 10.000616 
1.14506714e+3, 1.4510839e+2, -1665742.6, -1649307.6, 17574.621, -0.081690714, 0.005009336, -1638124.3, -120188.94, 0.0002032588, 9.999224, 9.999458 
1.1450608e+3, 1.551094e+2, -1588637.0, -1562956.0, 27448.707, -0.07353487, 0.13800827, -1545492.9, -125558.7, 0.000019742625, 9.999097, 9.999438 
1.1450538e+3, 1.6510972e+2, -1379910.4, -1264294.5, 22792.227, -0.10237347, 0.16522966, -1259963.5, 61969.684, 0.000000013934886, 9.999216, 10.000757 
1.1450465e+3, 1.7510906e+2, -1222252.0, -1134743.5, -16353.465, -0.14007144, -0.0036711206, -1131787.3, 92148.42, 0.0, 9.999618, 10.000778 
1.1450417e+3, 1.8510975e+2, -1173154.6, -1093877.1, 71178.92, -0.059230536, 0.008327314, -1052043.9, 73883.74, 0.0, 9.999424, 10.000482 
1.1450392e+3, 1.951116e+2, -1178360.8, -1042103.1, 55400.027, 0.12346808, 0.12028867, -1022421.4, 5489.6963, 0.0, 9.998707, 10.0005045 
1.1450342e+3, 2.051119e+2, -1047094.4, -963879.7, 9953.01, 0.14677268, 0.1217995, -962705.8, -32798.59, 0.0, 9.999077, 10.0002 
1.1450271e+3, 2.1511054e+2, -744741.56, -766302.5, 6556.173, 0.027862918, -0.060001865, -742904.56, 89013.34, 0.0, 10.000476, 10.00021 
1.145022e+3, 2.2511028e+2, -720431.56, -827018.3, 105145.125, 0.009376428, -0.04538323, -655845.0, 78075.92, 0.0, 10.000504, 9.999104 
1.1450189e+3, 2.3511088e+2, -805623.3, -814479.06, 111940.45, 0.08506533, 0.080274336, -698023.2, -62104.28, 0.0, 9.999232, 9.999127 
1.145014e+3, 2.4511082e+2, -640585.56, -583650.94, 54658.676, 0.0803281, 0.12116843, -550490.7, -12572.176, 0.0, 9.999269, 10.000019 
1.1450077e+3, 2.5510997e+2, -349533.78, -387964.47, 21295.676, 0.007979769, 0.0051604304, -340065.75, 99855.71, 0.0, 10.000586, 10.000051 
1.1450015e+3, 2.6510897e+2, -315871.47, -522542.88, -7522.614, -0.013335053, -0.00462049, -315598.0, 26332.549, 0.00000038376965, 10.000982, 9.998279 
1.14499524e+3, 2.7510756e+2, -292464.38, -463148.8, -14542.549, 0.014679885, 0.0043221447, -291234.22, -47285.656, 0.0000075917305, 10.000477, 9.998255 
1.1449891e+3, 2.851067e+2, -89670.64, -155051.9, 724.5969, 0.016856525, 0.026514595, -89662.61, 56293.113, 0.0000412879, 10.000518, 9.999676 
1.1449834e+3, 2.951063e+2, 71346.12, -29163.678, -64469.664, 0.021665718, -0.012002733, 102834.06, 150786.75, 0.00014511992, 10.000955, 9.999657 
1.14497826e+3, 3.051042e+2, -2558.5762, -364251.4, 4775.0835, -0.002040791, -0.03747887, -2495.5464, -2495.5464, 0.00038843177, 10.001519, 9.996746 
1.14497535e+3, 3.1510183e+2, 183416.86, -81125.02, 14051.073, 0.11213431, 0.021832773, 184161.08, 184161.08, 0.0007935078, 10.001924, 9.998487 
1.1550821e+3, 1.2511076e+2, -1992754.1, -1826901.5, 105046.234, -0.15689564, -0.39260295, -1775994.0, -62097.406, 0.001489488, 9.997966, 10.000191 
1.1550724e+3, 1.3511379e+2, -1781950.3, -1716320.6, -74348.29, -0.24531236, -0.10037765, -1667867.5, -51993.414, 0.00075867696, 9.998908, 9.999846 
1.15506455e+3, 1.4511478e+2, -1606976.8, -1528574.0, -857.0785, -0.29650578, -0.0036390927, -1528564.6, -10695.622, 0.0002361324, 9.999221, 10.000293 
1.15505844e+3, 1.5511419e+2, -1525091.8, -1439002.0, 32917.7, -0.24466479, -0.11945518, -1427857.9, -7980.566, 0.000024990082, 9.999123, 10.000279 
1.15505286e+3, 1.6511433e+2, -1435960.4, -1379255.1, 24022.56, -0.15149492, -0.111276016, -1370446.5, -48568.85, 0.000000023716384, 9.999215, 9.999967 
1.1550481e+3, 1.7511506e+2, -1282260.5, -1250718.3, 7274.0845, 0.028189784, -0.059525955, -1249121.5, -25249.877, 0.0, 9.999588, 9.999991 
1.1550429e+3, 1.851158e+2, -1188030.9, -1115981.1, 31700.984, 0.084130965, 0.0019862321, -1104019.1, 21846.879, 0.0, 9.999385, 10.000349 
1.155037e+3, 1.9511622e+2, -1196120.1, -1065033.4, 37882.566, 0.008468277, -0.017922739, -1054873.3, -27009.588, 0.0, 9.998642, 10.0003805 
1.155032e+3, 2.0511694e+2, -1045538.7, -942240.25, 46507.41, -0.012063928, 0.019815056, -924387.1, 5469.3325, 0.0, 9.998993, 10.00039 
1.15502775e+3, 2.151177e+2, -752503.0, -751938.06, 67953.15, 0.02970443, 0.03143612, -684266.8, 147580.1, 0.0, 10.000334, 10.0003805 
1.155023e+3, 2.2511758e+2, -711630.4, -771988.9, 46389.55, 0.040646117, 0.028781405, -686467.25, 47379.984, 0.0, 10.000348, 9.999554 
1.1550176e+3, 2.3511642e+2, -793655.56, -759794.94, 75892.04, 0.01768489, -0.067097925, -698967.7, -63108.527, 0.0, 9.999106, 9.999563 
1.15501255e+3, 2.4511592e+2, -699518.6, -675018.6, 90005.63, -0.012478987, -0.0626605, -596433.2, -58570.133, 0.0, 9.999136, 9.999454 
1.1550078e+3, 2.5511587e+2, -409121.97, -484682.6, 79633.945, -0.057113044, -0.039824236, -358760.8, 81100.25, 0.0, 10.000466, 9.999443 
1.1550024e+3, 2.6511487e+2, -325782.78, -517974.2, -38348.703, -0.02908107, -0.024116777, -318413.5, 23456.623, 0.0000005356376, 10.000875, 9.99836 
1.15499645e+3, 2.7511275e+2, -294264.6, -443534.97, -20661.414, 0.06594526, -0.09975355, -291457.5, -47565.81, 0.000008957139, 10.000381, 9.998433 
1.15499094e+3, 2.851113e+2, -198762.42, -358273.88, 8997.671, 0.12919964, -0.081854895, -198256.48, -52349.99, 0.00004724257, 10.000418, 9.99833 
1.1549861e+3, 2.9511002e+2, -29332.648, -235483.75, -27067.78, 0.15382499, -0.06747658, -25837.875, 22081.05, 0.00015981888, 10.000935, 9.998254 
1.15498036e+3, 3.0510846e+2, 65001.457, -202489.6, 14286.937, 0.027599206, -0.020822996, 65762.37, 65762.37, 0.00041743313, 10.001433, 9.997893 
1.15497604e+3, 3.1510738e+2, 250241.64, 80908.086, 68469.92, -0.06441051, 0.03995306, 274462.84, 274462.84, 0.0008473706, 10.001818, 9.999651 
1.1650819e+3, 1.2511861e+2, -1777661.3, -1707521.9, 41286.434, -0.03210641, -0.23211248, -1688421.0, 25403.67, 0.0016512593, 9.999372, 10.000328 
1.16507016e+3, 1.3512015e+2, -1785233.0, -1681505.8, -73139.945, -0.33435458, -0.1107759, -1643707.3, -27894.865, 0.0008513687, 9.998757, 10.000146 
1.16506375e+3, 1.451209e+2, -1655287.9, -1524454.6, 46424.125, -0.2698834, -0.0644771, -1509655.8, 8151.2813, 0.00027198074, 9.998778, 10.00053 
1.1650579e+3, 1.5512073e+2, -1489739.4, -1396871.1, 5301.9146, -0.22294201, -0.16123338, -1396569.4, 23240.795, 0.00003101119, 9.999264, 10.000497 
1.1650523e+3, 1.6512115e+2, -1448669.6, -1401573.0, 9590.562, -0.11820376, -0.13021211, -1399695.0, -77887.1, 0.00000004774233, 9.999199, 9.999823 
1.1650477e+3, 1.7512198e+2, -1418938.6, -1335972.4, 16345.729, 0.08607245, -0.050759315, -1332868.1, -109066.266, 0.0, 9.998726, 9.999833 
1.1650424e+3, 1.8512239e+2, -1279015.0, -1171959.4, 87417.77, 0.1346831, -0.0092169745, -1122983.0, 2816.363, 0.0, 9.998802, 10.000249 
1.16503604e+3, 1.9512215e+2, -1090174.9, -1026350.94, 75000.97, 0.00803871, -0.08492219, -976755.1, 51047.633, 0.0, 9.9994135, 10.000278 
1.1650311e+3, 2.0512281e+2, -962191.94, -914130.8, 119682.56, -0.022241825, -0.04089561, -816090.2, 113706.17, 0.0, 9.999623, 10.000274 
1.16502784e+3, 2.1512417e+2, -885574.2, -822943.44, 88894.17, 0.049058523, 0.041138284, -760010.06, 71772.336, 0.0, 9.999467, 10.000301 
1.1650232e+3, 2.2512424e+2, -795154.44, -800124.75, 34494.246, 0.06575812, 0.054400373, -763055.94, -29274.926, 0.0, 9.99973, 9.999658 
1.1650175e+3, 2.3512274e+2, -604285.7, -657430.0, 17066.438, 0.034813765, -0.08465874, -599277.06, 36517.715, 0.0, 10.000364, 9.999661 
1.1650126e+3, 2.4512203e+2, -522004.03, -615576.6, 81728.14, 0.012269744, -0.09572569, -474617.88, 63182.926, 0.0, 10.00045, 9.999235 
1.1650084e+3, 2.5512192e+2, -497080.5, -555061.7, 75621.16, -0.009544128, -0.05623965, -445083.34, -5282.558, 0.0, 9.999958, 9.999217 
1.1650033e+3, 2.6512086e+2, -396744.47, -536225.6, -6678.5386, 0.010527841, -0.042175688, -396425.44, -54615.64, 0.00000056359414, 10.000329, 9.998491 
1.16499744e+3, 2.7511865e+2, -125781.23, -352787.2, -16693.246, 0.076431766, -0.13615859, -124560.234, 119269.41, 0.00000928475, 10.001505, 9.998515 
1.1649923e+3, 2.851168e+2, -39129.15, -377738.0, 39138.617, 0.1501639, -0.117336735, -34664.13, 111185.516, 0.000050363375, 10.001931, 9.997462 
1.1649879e+3, 2.9511496e+2, 7319.074, -307925.72, 11387.259, 0.22489005, -0.07463433, 7729.8687, 55602.543, 0.00017050822, 10.001595, 9.997426 
1.1649818e+3, 3.0511364e+2, 37718.824, -112183.89, 72333.664, 0.06805882, -0.009613626, 66930.16, 66930.16, 0.00044292747, 10.000799, 9.998826 
1.1649763e+3, 3.151128e+2, -81811.0, 15666.573, 75454.1, -0.0684537, -0.008710582, 56754.23, 56754.23, 0.00089617184, 9.999126, 10.000513 
1.1750805e+3, 1.251287e+2, -1723888.9, -1569990.9, -76970.52, -0.17552902, 0.23455653, -1538102.4, 175639.33, 0.0018234614, 9.99927, 10.001321 
1.17506936e+3, 1.3512652e+2, -1695379.6, -1499058.8, -84476.98, -0.32911846, -0.14090997, -1467713.1, 148040.98, 0.0009506097, 9.998774, 10.001392 
1.1750643e+3, 1.4512688e+2, -1680628.6, -1574307.1, 53276.91, -0.11342963, -0.18117936, -1552205.0, -34456.234, 0.00031097958, 9.998769, 10.00019 
1.17505856e+3, 1.5512912e+2, -1517556.0, -1454783.6, 34259.68, -0.10115138, 0.0023014382, -1439706.6, -19974.678, 0.00003785508, 9.99926, 10.000102 
1.17505185e+3, 1.651301e+2, -1425833.5, -1347626.3, -20274.39, -0.10672343, 0.09133804, -1342682.9, -20958.463, 0.00000010132158, 9.999173, 10.0002 
1.1750453e+3, 1.7512977e+2, -1393793.0, -1279012.3, 10801.692, -0.05409508, 0.010857635, -1278004.6, -54278.168, 0.0, 9.998705, 10.000231 
1.17504e+3, 1.8512963e+2, -1287173.6, -1182228.0, 97944.734, -0.0015471661, -0.020830294, -1123585.8, 2141.0947, 0.0, 9.998774, 10.000192 
1.1750359e+3, 1.9512933e+2, -1105068.9, -1043973.6, 110421.195, 0.03440629, -0.09539967, -959952.5, 67775.81, 0.0, 9.99935, 10.000193 
1.1750314e+3, 2.0512956e+2, -1009095.0, -988233.1, 100991.17, 0.02332766, -0.06765547, -897135.6, 32590.938, 0.0, 9.999527, 9.999809 
1.1750268e+3, 2.1513006e+2, -936975.44, -900741.75, 93542.83, -0.009527858, -0.025697496, -823577.56, 8146.058, 0.0, 9.999338, 9.99983 
1.1750225e+3, 2.251302e+2, -832702.1, -841579.0, 45463.56, -0.0030328936, 0.02954298, -791460.9, -57737.98, 0.0, 9.999576, 9.999446 
1.1750181e+3, 2.3512982e+2, -640663.5, -694420.0, 52696.883, 0.036111277, 0.019744119, -608386.0, 27340.037, 0.0, 10.000203, 9.99948 
1.1750137e+3, 2.4512915e+2, -537868.06, -612295.5, 52729.258, 0.054241944, 0.018207237, -510543.13, 27188.297, 0.0, 10.000293, 9.999336 
1.1750093e+3, 2.5512803e+2, -498013.7, -534321.94, 69465.664, 0.055739727, -0.055823877, -444369.16, -4628.3584, 0.0, 9.999863, 9.999402 
1.175004e+3, 2.6512685e+2, -405743.38, -534377.9, 25802.625, 0.02625211, -0.06722385, -400760.66, -59010.75, 0.0000005132723, 10.000235, 9.998554 
1.1749978e+3, 2.7512527e+2, -132791.5, -355363.4, 41590.676, -0.05445222, -0.10766215, -125273.63, 118488.62, 0.000009286575, 10.00145, 9.998527 
1.1749928e+3, 2.8512326e+2, -85592.47, -455943.1, 17208.389, -0.023957077, -0.074885234, -84794.6, 60989.938, 0.00005131962, 10.001851, 9.9969635 
1.1749889e+3, 2.9512078e+2, -17573.283, -359095.13, 13175.842, 0.124486074, -0.053642157, -17065.715, 30751.246, 0.0001770123, 10.001578, 9.997085 
1.1749824e+3, 3.051194e+2, 78472.53, -1010.03436, 5914.4785, 0.02713952, -0.02879277, 78910.23, 78910.23, 0.0004593758, 10.000702, 9.999633 
1.1749757e+3, 3.1511837e+2, -49290.176, 115312.12, 47483.594, -0.09098628, -0.11903834, 128027.66, 128027.66, 0.0009233706, 9.999003, 10.001252 
1.1850788e+3, 1.25136e+2, -2103150.3, -1716171.1, 46385.152, -0.118657574, 0.2575515, -1710688.9, 2983.2065, 0.0020081834, 9.996493, 10.001654 
1.1850686e+3, 1.3513458e+2, -1656126.9, -1423842.9, 18322.65, -0.25902122, -0.1036108, -1422406.5, 193268.27, 0.0010574218, 9.9987755, 10.001918 
1.18506424e+3, 1.4513484e+2, -1614502.9, -1590306.9, 114102.305, -0.027284969, -0.15796442, -1487663.0, 30006.87, 0.00035351914, 9.999429, 9.99976 
1.185058e+3, 1.551366e+2, -1641060.9, -1555029.9, 59850.477, -0.043442264, 0.017504727, -1524340.5, -104681.32, 0.00004562391, 9.998598, 9.999726 
1.1850511e+3, 1.6513732e+2, -1480680.8, -1361343.0, 41278.082, -0.07179564, 0.09303081, -1348456.8, -26803.307, 0.00000019883093, 9.998739, 10.00032 
1.1850446e+3, 1.7513692e+2, -1217493.0, -1175238.9, 29638.318, -0.054386273, -0.011092355, -1159968.4, 63685.535, 0.0, 9.99984, 10.000391 
1.1850394e+3, 1.8513666e+2, -1129152.1, -1147050.9, 105555.71, -0.0064233285, -0.042601526, -1032167.06, 93487.64, 0.0, 10.000045, 9.999818 
1.1850354e+3, 1.9513626e+2, -1112017.4, -1081956.8, 66844.86, 0.050302863, -0.092175275, -1028473.2, -814.8993, 0.0, 9.999465, 9.999867 
1.1850312e+3, 2.0513612e+2, -1026133.9, -1038530.06, 86402.32, 0.056322016, -0.06533641, -945707.6, -16046.915, 0.0, 9.999591, 9.999441 
1.1850271e+3, 2.1513596e+2, -813763.94, -877662.75, 67514.516, 0.036862623, -0.05217062, -771020.8, 60643.957, 0.0, 10.000351, 9.9995 
1.185023e+3, 2.2513579e+2, -693274.9, -795151.2, 44500.76, 0.043204706, -0.0011748943, -676574.2, 57092.8, 0.0, 10.000606, 9.999274 
1.1850186e+3, 2.3513544e+2, -627302.75, -708885.56, 27168.88, 0.06603668, 0.00879123, -619083.06, 16586.418, 0.0, 10.000364, 9.999311 
1.18501425e+3, 2.4513465e+2, -534335.25, -644895.0, 29606.791, 0.08255061, 0.018344466, -526906.06, 10771.054, 0.0, 10.000471, 9.999024 
1.18501e+3, 2.551332e+2, -362852.78, -510876.06, -10993.803, 0.09809153, -0.051293124, -362040.72, 77651.34, 0.0, 10.000969, 9.999037 
1.18500486e+3, 2.6513216e+2, -251134.9, -414626.63, -24107.492, 0.049574073, -0.050114628, -247654.27, 94046.15, 0.0000005059796, 10.001121, 9.998941 
1.1849987e+3, 2.7513123e+2, -184869.77, -340705.94, -14286.491, -0.08350973, -0.06511129, -183570.86, 60134.527, 0.000009353779, 10.000934, 9.998872 
1.18499376e+3, 2.8512946e+2, -186351.34, -485997.66, 8302.803, -0.06789617, -0.033246517, -186121.45, -40396.855, 0.000051335024, 10.001089, 9.997119 
1.18499026e+3, 2.9512694e+2, -18130.375, -343699.66, 24675.006, 0.116790235, -0.02591071, -16270.869, 31486.291, 0.00017979782, 10.001519, 9.997217 
1.18498355e+3, 3.051256e+2, 160255.02, 42094.355, -30845.627, 0.06106122, -0.00752369, 167822.55, 167822.55, 0.0004625388, 10.001224, 9.999687 
1.1849763e+3, 3.1512392e+2, 78151.13, 153042.81, -83303.11, 0.03261253, -0.16920123, 206929.33, 206929.33, 0.00092024915, 9.99995, 10.001063 
1.19507544e+3, 1.2514031e+2, -2116967.3, -1741771.9, 31149.953, -0.14670703, -0.20040934, -1739203.4, -25584.912, 0.0022081332, 9.996478, 10.001486 
1.195068e+3, 1.3514432e+2, -1662755.5, -1431537.6, 111558.7, -0.22288659, -0.015047441, -1386489.4, 229085.28, 0.0011730703, 9.99875, 10.001875 
1.195063e+3, 1.4514475e+2, -1657726.9, -1672841.3, 69746.81, -0.12703353, -0.022423724, -1595129.0, -77558.09, 0.00040013902, 9.999397, 9.99921 
1.1950559e+3, 1.5514328e+2, -1672859.9, -1632897.8, 41834.453, -0.13415745, -0.112994365, -1606517.5, -186927.1, 0.00005450229, 9.998638, 9.99918 
1.1950498e+3, 1.6514295e+2, -1479230.5, -1363962.1, 66082.57, -0.105484106, -0.11376301, -1333911.6, -12318.077, 0.00000035173326, 9.998763, 10.000293 
1.1950452e+3, 1.7514348e+2, -1229362.1, -1190570.3, 78908.46, 0.0024897917, -0.11799032, -1128708.9, 94874.516, 0.0, 9.999798, 10.000309 
1.1950399e+3, 1.851435e+2, -1184480.5, -1255478.5, 71140.83, 0.023923883, -0.07920034, -1140473.5, -14890.673, 0.0, 10.000018, 9.999085 
1.19503416e+3, 1.951429e+2, -1174267.5, -1195316.0, 55914.945, -0.038257755, -0.07575517, -1127895.0, -100302.34, 0.0, 9.999393, 9.999128 
1.1950303e+3, 2.0514242e+2, -1054559.1, -1074557.1, 99804.13, -0.014870009, -0.035588566, -964254.4, -34654.91, 0.0, 9.9994955, 9.999236 
1.1950282e+3, 2.1514182e+2, -849509.4, -918831.5, 104908.92, 0.09734481, -0.04700249, -773683.94, 57922.05, 0.0, 10.000211, 9.999284 
1.1950244e+3, 2.2514096e+2, -725776.06, -828963.25, 22673.91, 0.11050211, -0.047114965, -721013.6, 12600.111, 0.0, 10.00046, 9.999111 
1.1950188e+3, 2.3513968e+2, -657707.06, -740468.44, 28001.764, 0.032865994, -0.115050726, -649123.1, -13498.726, 0.0, 10.000231, 9.999156 
1.19501404e+3, 2.4513865e+2, -607041.2, -768123.5, 35122.234, 0.00093203783, -0.08408346, -599716.25, -62079.367, 0.0, 10.000347, 9.998243 
1.1950104e+3, 2.551376e+2, -432324.13, -626022.4, 18406.486, 0.014300857, -0.037685234, -430590.53, 9062.742, 0.0, 10.000847, 9.998302 
1.1950055e+3, 2.6513693e+2, -229663.31, -346012.5, -41580.94, -0.018509889, 0.010402582, -216330.86, 125329.24, 0.0000006389743, 10.001012, 9.999471 
1.1949997e+3, 2.751364e+2, -151845.78, -254825.28, -8133.214, -0.10059729, -0.016770296, -151207.39, 92452.45, 0.000009301616, 10.000862, 9.999496 
1.194995e+3, 2.851353e+2, -144345.23, -384027.38, 14070.649, -0.06581179, 0.010664846, -143522.03, 2148.271, 0.000051838055, 10.00102, 9.997854 
1.1949917e+3, 2.9513338e+2, 21732.813, -251027.81, 55939.04, 0.086643875, 0.00024981488, 32759.303, 80452.875, 0.00018153801, 10.001465, 9.997883 
1.194985e+3, 3.0513218e+2, 79724.62, -93817.5, -82783.5, 0.059227508, 0.05189131, 112879.89, 112879.89, 0.0004580292, 10.001098, 9.998808 
1.1949775e+3, 3.1512925e+2, -23154.457, -20120.143, -83746.1, 0.10089546, -0.15831602, 62122.547, 62122.547, 0.0008969489, 9.999798, 9.999939 
1.2050734e+3, 1.2514685e+2, -1870013.4, -1696115.1, 16923.992, -0.090468995, -0.34620848, -1694483.4, 19063.137, 0.0024257244, 9.998511, 10.000827 
1.2050676e+3, 1.351513e+2, -1776286.0, -1579831.9, 11795.279, -0.1163125, -0.0230711, -1579126.1, 36378.426, 0.0012988481, 9.998403, 10.0010195 
1.20506205e+3, 1.4515142e+2, -1700808.8, -1675569.1, -30534.379, -0.14668593, -0.024339015, -1655149.5, -137643.95, 0.00045139206, 9.999015, 9.999379 
1.2050558e+3, 1.5515025e+2, -1391931.8, -1473352.9, -32620.549, -0.100234985, -0.108767554, -1380474.8, 39044.96, 0.00006471426, 10.000467, 9.999391 
1.2050499e+3, 1.6514958e+2, -1247816.0, -1324181.5, 10964.995, -0.055756096, -0.123021565, -1246272.8, 75253.23, 0.00000057087306, 10.000656, 9.99965 
1.2050449e+3, 1.7514905e+2, -1277837.0, -1281431.6, -43651.242, 0.012767451, -0.1708622, -1235946.0, -12417.959, 0.0, 9.999758, 9.9997 
1.2050398e+3, 1.8514878e+2, -1225926.1, -1298033.8, -19131.58, 0.016766334, -0.1210886, -1221164.6, -95633.125, 0.0, 9.999835, 9.998877 
1.2050342e+3, 1.9514856e+2, -970507.1, -1115992.8, -14494.9375, -0.042519037, -0.061004646, -969077.0, 58461.02, 0.0, 10.000877, 9.998949 
1.2050305e+3, 2.0514806e+2, -811723.1, -986323.44, 74239.84, -0.016546845, -0.0030314387, -784424.5, 145120.78, 0.0, 10.00128, 9.9989805 
1.2050288e+3, 2.1514702e+2, -733193.3, -893123.1, 49679.215, 0.09589889, -0.033129733, -719017.8, 112538.305, 0.0, 10.001121, 9.999027 
1.2050249e+3, 2.2514589e+2, -671528.06, -805298.2, -27791.076, 0.0994813, -0.044889193, -665984.1, 67582.484, 0.0, 10.000851, 9.999087 
1.2050188e+3, 2.3514451e+2, -623839.7, -725755.44, -33897.668, 0.0065405825, -0.1175472, -613595.0, 21983.605, 0.0, 10.000483, 9.999135 
1.2050143e+3, 2.4514367e+2, -590591.3, -745575.7, 55309.457, -0.009747824, -0.07287102, -572877.56, -35288.473, 0.0, 10.000402, 9.998361 
1.2050111e+3, 2.5514302e+2, -464452.1, -631148.94, 80669.33, 0.029088583, 0.00042782858, -431807.0, 7794.1133, 0.00000000020898414, 10.000577, 9.998394 
1.2050067e+3, 2.6514235e+2, -288314.25, -393722.22, 34741.273, 0.022312153, 0.052926727, -277894.03, 63714.793, 0.00000074892756, 10.000691, 9.99929 
1.20500125e+3, 2.7514148e+2, -178468.28, -287315.8, -11588.726, -0.023591217, 0.010346063, -177248.14, 66366.07, 0.000009032264, 10.000755, 9.999318 
1.2049967e+3, 2.8514057e+2, -114477.3, -272726.78, 16680.596, 0.01736478, 0.021792807, -112738.16, 32883.645, 0.000052112464, 10.000815, 9.998717 
1.2049933e+3, 2.9513937e+2, -20095.451, -175509.95, 35899.29, 0.13921729, 0.00067093584, -12203.779, 35430.26, 0.00018292993, 10.000783, 9.998725 
1.20498605e+3, 3.0513865e+2, 2285.7996, -163966.05, -87277.63, 0.08605177, 0.074520655, 39689.145, 39689.145, 0.000455038, 10.000722, 9.998495 
1.2049779e+3, 3.1513596e+2, -12321.125, -85001.555, -84520.31, 0.1503084, -0.076621905, 43340.258, 43340.258, 0.0008751653, 10.0002165, 9.999272 
1.2150719e+3, 1.2515543e+2, -1951513.8, -1851984.3, 26695.07, -0.14650041, -0.21860455, -1845276.4, -131818.2, 0.0026624324, 9.99848, 9.999761 
1.2150671e+3, 1.3515572e+2, -1906169.9, -1853218.3, 14746.232, -0.017130753, -0.12506258, -1849388.6, -233925.86, 0.0014356553, 9.998415, 9.999142 
1.21506095e+3, 1.451551e+2, -1633562.5, -1526752.1, 8917.178, -0.1771698, -0.16019231, -1526012.8, -8541.071, 0.0005075534, 9.998986, 10.000408 
1.215057e+3, 1.551575e+2, -1330688.9, -1338153.9, 33855.926, -0.038835537, 0.01248969, -1300360.3, 119086.836, 0.000076397075, 10.000433, 10.000336 
1.2150511e+3, 1.6515708e+2, -1337878.5, -1504861.4, -34879.176, -0.028379632, 0.03905773, -1330885.8, -9433.843, 0.0000008702971, 10.000634, 9.998416 
1.2150438e+3, 1.7515367e+2, -1366760.8, -1460295.4, -66141.81, -0.108235165, -0.17155418, -1332522.4, -109035.195, 0.0, 9.999732, 9.998485 
1.21503845e+3, 1.8515255e+2, -1196061.5, -1235141.6, 7111.549, -0.11749583, -0.17074187, -1194807.6, -69307.74, 0.0, 9.99983, 9.999311 
1.2150352e+3, 1.9515333e+2, -954006.6, -1065432.4, 35393.684, -0.06357159, -0.052829143, -943714.6, 83778.76, 0.0, 10.000804, 9.999334 
1.21503174e+3, 2.0515308e+2, -853109.4, -1044511.25, 55165.047, -0.049041342, 0.029997135, -838348.4, 91149.37, 0.0, 10.0011635, 9.998633 
1.21502854e+3, 2.1515165e+2, -780528.2, -951418.06, 52893.293, -0.06375259, -0.0042789276, -765481.6, 66032.28, 0.0, 10.000949, 9.998706 
1.2150241e+3, 2.251507e+2, -686402.6, -802473.6, -54888.95, -0.07807703, 0.010573921, -664557.5, 68966.91, 0.0, 10.0007, 9.999184 
1.2150184e+3, 2.3514998e+2, -633563.7, -717759.75, -35374.35, -0.09069223, -0.0062308884, -620674.56, 14856.852, 0.0, 10.000357, 9.999254 
1.2150145e+3, 2.4514969e+2, -547552.25, -616549.2, 53580.086, -0.046810642, 0.038894102, -518325.0, 19208.94, 0.0, 10.000237, 9.999321 
1.2150122e+3, 2.5514954e+2, -413765.0, -503277.25, 98616.01, 0.055753887, 0.062705636, -350224.2, 89310.74, 0.00000000018849695, 10.000481, 9.999315 
1.2150082e+3, 2.6514852e+2, -367640.25, -535668.7, 26550.254, 0.08007982, 0.08407838, -363544.84, -21999.207, 0.00000061447383, 10.000591, 9.998366 
1.2150028e+3, 2.7514645e+2, -252202.19, -422001.34, 3138.7947, 0.0418616, 0.013120637, -252144.19, -8575.955, 0.000008322687, 10.00067, 9.998436 
1.2149983e+3, 2.8514528e+2, -75408.71, -156714.84, 5740.5376, 0.07444575, -0.00027142107, -75005.41, 70573.27, 0.000050693892, 10.000675, 9.999579 
1.2149948e+3, 2.9514495e+2, 33986.176, -46492.242, 52852.785, 0.16984235, -0.027029036, 60174.453, 107752.77, 0.00018223259, 10.000714, 9.99964 
1.2149867e+3, 3.051449e+2, -8193.713, -163577.33, -114218.16, 0.050902862, 0.0644387, 52251.387, 52251.387, 0.00045375043, 10.0006275, 9.998548 
1.2149768e+3, 3.1514382e+2, -49910.715, -129589.945, -60923.68, -0.028944481, 0.07145416, -16956.857, -16956.857, 0.0008639957, 10.000082, 9.999029 
1.2250704e+3, 1.251614e+2, -1867825.5, -1814186.9, -42339.73, -0.15181004, -0.12520723, -1790887.1, -77484.51, 0.0029179724, 9.999009, 9.999781 
1.22506626e+3, 1.3516028e+2, -1764383.1, -1838021.3, -52599.957, 0.00922154, -0.12679237, -1736996.4, -121576.21, 0.0015834377, 9.9995985, 9.998678 
1.2250599e+3, 1.451593e+2, -1594266.0, -1490630.5, -13937.272, -0.18270284, -0.18271011, -1488788.9, 28642.777, 0.00056846405, 9.999177, 10.0005665 
1.225057e+3, 1.5516172e+2, -1657108.8, -1467412.5, -78367.16, 0.031797484, -0.030697985, -1439225.8, -19819.928, 0.00008951281, 9.998079, 10.000576 
1.2250515e+3, 1.651618e+2, -1602312.8, -1613483.6, -70860.07, 0.047478896, 0.024592068, -1536818.4, -215412.63, 0.0000012652538, 9.998709, 9.99862 
1.22504406e+3, 1.7515938e+2, -1171165.0, -1342681.3, -13290.876, -0.10724181, -0.11067423, -1170141.3, 53291.543, 0.0, 10.000952, 9.998719 
1.2250389e+3, 1.8515834e+2, -994816.7, -1159542.3, 79008.69, -0.12773427, -0.102280855, -963048.0, 162396.84, 0.0, 10.001299, 9.999128 
1.22503586e+3, 1.9515839e+2, -1088669.4, -1148065.4, 34561.344, -0.024892801, -0.038052868, -1072799.3, -45354.215, 0.0, 9.999959, 9.999178 
1.2250324e+3, 2.0515783e+2, -1064194.9, -1133761.9, 90344.516, -0.005372834, 0.015891705, -1002169.2, -72717.7, 0.0, 9.99965, 9.998755 
1.2250291e+3, 2.1515654e+2, -872572.1, -980607.0, 102444.48, -0.06251502, -0.019844972, -810776.1, 20689.494, 0.0, 10.000256, 9.998839 
1.22502476e+3, 2.2515589e+2, -723390.44, -827916.75, 12357.193, -0.06545291, 0.021835126, -721949.44, 11524.473, 0.0, 10.000477, 9.999111 
1.2250194e+3, 2.3515561e+2, -641130.94, -729909.0, -11029.738, -0.024059849, 0.05662628, -639781.1, -4302.103, 0.0, 10.000336, 9.99918 
1.2250152e+3, 2.451553e+2, -536841.5, -567680.9, 80474.24, 0.014655714, 0.084306724, -470322.97, 67157.516, 0.0, 10.000111, 9.999728 
1.2250123e+3, 2.5515482e+2, -479675.72, -484716.16, 65583.234, 0.056297254, 0.03449693, -416564.28, 22915.79, 0.0, 9.999822, 9.999759 
1.2250085e+3, 2.651536e+2, -472398.94, -616591.75, 32198.17, 0.08772647, 0.025222994, -465535.78, -124043.54, 0.0000003685213, 10.000006, 9.998094 
1.22500405e+3, 2.7515137e+2, -294947.47, -471570.53, 31194.256, 0.108679086, -0.032376707, -289600.0, -46080.72, 0.0000073761885, 10.000521, 9.998162 
1.22499935e+3, 2.851504e+2, -79370.13, -152015.48, 29725.004, 0.1289342, -0.015625494, -68757.62, 76771.05, 0.00004908337, 10.000588, 9.99966 
1.2249949e+3, 2.9515058e+2, -54204.285, -86988.11, -7632.284, 0.15191652, 0.0041346564, -52514.535, -4992.142, 0.00018069774, 10.000078, 9.9996805 
1.2249873e+3, 3.0514997e+2, 66562.84, -139955.28, -138638.28, 0.03752271, 0.043040447, 136170.8, 136170.8, 0.00045143487, 10.001197, 9.998429 
1.22497916e+3, 3.1514877e+2, 430576.84, 49216.543, -137843.19, 0.02575718, 0.05210573, 475183.03, 475183.03, 0.0008578977, 10.003561, 9.998601 
1.23507045e+3, 1.2516493e+2, -1777700.1, -1627097.9, 35096.176, -0.10503694, -0.043562867, -1619320.8, 94056.76, 0.0031899144, 9.999008, 10.001062 
1.2350644e+3, 1.3516483e+2, -1689436.6, -1690089.8, -32137.744, -0.1620212, -0.050561134, -1657623.8, -42245.418, 0.0017411282, 9.999615, 9.999687 
1.23505846e+3, 1.4516391e+2, -1640312.8, -1591429.8, -69798.29, -0.28166044, -0.114736535, -1541917.4, -24530.541, 0.0006337289, 9.999192, 9.999872 
1.2350552e+3, 1.5516292e+2, -1697037.3, -1560575.3, -108934.625, 0.027193652, -0.23311862, -1500267.4, -80871.58, 0.00010392506, 9.998106, 9.999934 
1.2350508e+3, 1.6516379e+2, -1473629.0, -1347298.5, -1827.0084, 0.08431237, -0.16134746, -1347272.0, -25884.598, 0.0000017603737, 9.998714, 10.000441 
1.2350456e+3, 1.7516617e+2, -1051279.5, -1091029.8, 77219.36, -0.08190824, 0.0045692525, -991418.5, 231946.23, 0.0, 10.000934, 10.000458 
1.2350405e+3, 1.8516615e+2, -1061535.1, -1289199.5, 16067.616, -0.11352532, 0.073069684, -1060406.8, 64960.074, 0.0, 10.001261, 9.998258 
1.2350361e+3, 1.951637e+2, -1157547.1, -1276599.0, -3416.5386, -0.016339445, -0.024624335, -1157449.1, -130055.516, 0.0, 9.999891, 9.998331 
1.2350327e+3, 2.0516229e+2, -1033449.0, -1043499.56, 98261.95, 0.024974447, -0.049449086, -940083.9, -10676.52, 0.0, 9.999538, 9.999427 
1.2350303e+3, 2.1516165e+2, -847435.0, -898888.3, 134886.83, 0.013120343, -0.08479467, -735843.4, 95567.66, 0.0, 10.000123, 9.999466 
1.2350265e+3, 2.2516142e+2, -765904.25, -883755.94, -4236.482, 0.041915875, -0.015010473, -765752.2, -32337.135, 0.0, 10.000334, 9.998799 
1.2350212e+3, 2.3516136e+2, -684019.1, -789026.9, -3724.9578, 0.11213494, 0.071577474, -683887.1, -48465.47, 0.0, 10.000201, 9.998842 
1.23501614e+3, 2.4516052e+2, -562973.1, -589459.7, 57814.977, 0.07032473, 0.06795066, -516904.03, 20524.488, 0.0, 9.999972, 9.999644 
1.23501115e+3, 2.5515875e+2, -496275.2, -500602.66, 66809.75, -0.06426625, -0.10132409, -431594.13, 7843.3047, 0.0, 9.999732, 9.999699 
1.23500735e+3, 2.6515734e+2, -473284.9, -581745.0, 42730.36, -0.052013237, -0.14293915, -458473.06, -117023.03, 0.00000016286783, 9.999856, 9.998401 
1.2350045e+3, 2.7515608e+2, -290497.94, -438411.25, 65251.773, 0.0873035, -0.13772844, -265827.13, -22358.951, 0.000006622681, 10.000422, 9.998434 
1.2349999e+3, 2.851558e+2, -146233.03, -262641.4, 2429.9897, 0.08587414, -0.03111506, -146182.33, -709.6424, 0.00004875032, 10.000473, 9.998955 
1.2349934e+3, 2.9515615e+2, -111413.21, -192511.81, -7382.516, -0.032431964, 0.079241104, -110746.65, -63279.383, 0.00018165374, 10.000017, 9.998988 
1.2349877e+3, 3.0515376e+2, 27588.033, -201810.38, -50726.32, -0.075363, -0.009096701, 38304.406, 38304.406, 0.00045300575, 10.001111, 9.998048 
1.2349841e+3, 3.1515068e+2, 381243.5, -25327.037, -9783.617, 0.11688384, -0.15515202, 381478.78, 381478.78, 0.0008590856, 10.003442, 9.998144 
1.2450702e+3, 1.2516846e+2, -1869759.6, -1631995.1, 120107.26, 0.024842838, 0.031789273, -1581884.0, 131464.89, 0.003475539, 9.998241, 10.001383 
1.24506325e+3, 1.3516845e+2, -1819968.5, -1687456.4, -58505.965, -0.1759346, -0.023299886, -1665322.3, -49974.9, 0.0019075654, 9.998447, 10.000269 
1.2450585e+3, 1.4516844e+2, -1649062.8, -1580130.4, -65308.105, -0.18771444, -0.0335012, -1540751.8, -23405.947, 0.0007030745, 9.999072, 10.000005 
1.2450543e+3, 1.5516712e+2, -1389752.1, -1401619.4, -71012.28, 0.021863172, -0.1965934, -1324426.0, 94931.15, 0.00011956255, 10.000171, 10.000029 
1.2450498e+3, 1.6516788e+2, -1301138.9, -1250038.1, 34127.36, 0.05843795, -0.14396763, -1232956.4, 88393.37, 0.0000023468863, 9.999859, 10.000548 
1.24504544e+3, 1.7517053e+2, -1423249.8, -1253017.5, -39111.94, -0.04468298, 0.039291773, -1244461.4, -21135.93, 0.0, 9.998336, 10.000584 
1.2450413e+3, 1.8517065e+2, -1369455.5, -1413837.9, -84845.63, -0.05113476, 0.10332444, -1303947.0, -178621.45, 0.0, 9.999031, 9.998478 
1.2450373e+3, 1.9516812e+2, -867930.3, -1114843.1, -40919.83, 0.032403145, -0.026801648, -861325.5, 166025.83, 0.0, 10.001768, 9.998541 
1.2450338e+3, 2.051668e+2, -671512.3, -855048.25, 49589.52, 0.0665633, -0.05798197, -658970.75, 270392.44, 0.0, 10.001959, 9.999556 
1.2450306e+3, 2.151665e+2, -895195.0, -903689.25, 21200.572, 0.062211044, -0.07716112, -877820.3, -46456.707, 0.0, 9.999719, 9.999626 
1.2450269e+3, 2.2516628e+2, -894511.56, -951801.06, -46589.082, 0.094216675, -0.012764262, -868465.7, -135098.1, 0.0, 9.999484, 9.998737 
1.24502234e+3, 2.3516585e+2, -552997.8, -729148.4, -50721.22, 0.16325775, 0.043261327, -539437.0, 95940.77, 0.0, 10.001122, 9.998803 
1.2450171e+3, 2.4516493e+2, -355546.47, -503010.47, -4818.8706, 0.1082165, 0.040174462, -355389.16, 181996.42, 0.0, 10.001449, 9.999532 
1.24501124e+3, 2.551634e+2, -391107.6, -461374.1, -20787.791, -0.0598875, -0.09332564, -385418.34, 53974.4, 0.0, 10.0005045, 9.999594 
1.2450072e+3, 2.6516226e+2, -390678.7, -514847.4, 11565.229, -0.05770372, -0.11809359, -389610.7, -48207.953, 0.000000050542315, 10.000291, 9.998653 
1.2450053e+3, 2.7516124e+2, -229674.02, -387349.9, 5700.8203, 0.1015551, -0.11270403, -229468.17, 13949.343, 0.0000061370592, 10.000722, 9.998652 
1.2450007e+3, 2.8516084e+2, -102548.89, -274330.13, -45668.67, 0.11324368, -0.0118780965, -91162.45, 54260.438, 0.000049451537, 10.000931, 9.998649 
1.244994e+3, 2.9516068e+2, -4609.3877, -170154.61, -54962.66, -0.0037583017, 0.08012462, 11976.943, 59399.72, 0.00018703903, 10.000899, 9.998707 
1.24498904e+3, 3.0515745e+2, 54069.477, -192914.67, 23999.994, -0.048353437, -0.077135645, 56379.996, 56379.996, 0.00046630288, 10.001286, 9.99804 
1.24498695e+3, 3.1515506e+2, 181922.8, -93333.02, 57157.793, 0.13175446, -0.15138721, 193319.9, 193319.9, 0.0008809238, 10.001949, 9.998404 
1.2550697e+3, 1.2517202e+2, -1912557.5, -1739695.6, 48415.688, 0.093684405, 0.09426408, -1727059.0, -13742.266, 0.0037739007, 9.998301, 10.000625 
1.2550627e+3, 1.351713e+2, -1803037.6, -1661562.3, -40503.336, -0.11402491, -0.04116578, -1650787.1, -35461.383, 0.0020822603, 9.998479, 10.000438 
1.2550598e+3, 1.4517301e+2, -1578357.3, -1438771.1, -37276.62, 0.014158223, 0.060520954, -1429440.1, 87867.125, 0.0007764397, 9.99909, 10.000968 
1.2550536e+3, 1.5517431e+2, -1325676.4, -1273945.5, -21682.867, -0.0841603, 0.06788044, -1266059.4, 153230.06, 0.00013646827, 10.000187, 10.000898 
1.255048e+3, 1.6517408e+2, -1417347.4, -1496082.9, -38591.83, -0.12210681, 0.06464582, -1401586.6, -80294.11, 0.0000030208696, 9.999875, 9.998854 
1.2550437e+3, 1.7517251e+2, -1536696.3, -1490608.9, -84676.32, -0.07252233, -0.008992225, -1425896.8, -202582.55, 0.0, 9.998339, 9.998953 
1.2550409e+3, 1.8517183e+2, -1271977.5, -1208155.6, 6020.841, -0.020877577, -0.015921207, -1207592.5, -82271.35, 0.0, 9.999014, 9.999899 
1.2550393e+3, 1.9517165e+2, -778875.5, -917077.9, 69633.02, 0.024872487, -0.052923854, -749876.06, 277442.13, 0.0, 10.001704, 9.999929 
1.2550355e+3, 2.0517147e+2, -722690.0, -925568.44, -47742.5, 0.028087363, -0.021643758, -712016.5, 217301.95, 0.0, 10.001812, 9.999142 
1.2550297e+3, 2.1517107e+2, -947835.1, -977864.2, -50327.01, -0.007678196, -0.0031288122, -910330.7, -79007.35, 0.0, 9.999569, 9.999191 
1.2550256e+3, 2.2517028e+2, -903108.8, -931685.06, 2222.5276, -0.0076349685, 0.017552339, -902937.0, -169604.25, 0.0, 9.999322, 9.998952 
1.2550224e+3, 2.3516898e+2, -556382.5, -708087.6, 19825.176, 0.038043763, -0.037436698, -553834.5, 81513.695, 0.0, 10.000997, 9.999012 
1.2550181e+3, 2.4516857e+2, -384959.66, -529578.0, -51786.234, 0.035267387, 0.0033599765, -368328.25, 169023.38, 0.0, 10.001302, 9.999417 
1.2550123e+3, 2.5516877e+2, -421767.1, -495256.25, -44196.215, -0.01896604, 0.053243946, -401035.84, 38310.4, 0.0, 10.000373, 9.999423 
1.2550081e+3, 2.651682e+2, -399806.2, -500576.53, 17676.508, -0.017689768, 0.0886514, -396795.44, -55443.973, 0.00000007625481, 10.00015, 9.998819 
1.2550056e+3, 2.7516672e+2, -231057.19, -365688.66, 36949.082, 0.046154004, 0.035890926, -221583.31, 21784.73, 0.0000061507535, 10.000615, 9.998855 
1.2550017e+3, 2.8516552e+2, -111045.97, -275514.75, -56226.664, 0.098719314, 0.043962177, -93661.42, 51717.656, 0.000051588533, 10.000854, 9.998679 
1.2549967e+3, 2.9516423e+2, -10919.7, -173907.52, -39101.125, 0.14168726, 0.009740973, -2024.6982, 45363.773, 0.00019968531, 10.000851, 9.998707 
1.2549911e+3, 3.0516097e+2, 64455.914, -154761.6, 41881.72, 0.020680204, -0.16002534, 72184.95, 72184.95, 0.00050037476, 10.001219, 9.998331 
1.2549865e+3, 3.1516147e+2, 214473.34, 12169.338, 124812.11, -0.147561, 0.01995342, 273975.6, 273975.6, 0.00094181777, 10.001785, 9.999209 
1.2650694e+3, 1.2517582e+2, -1750263.3, -1692107.0, 87173.45, 0.18538892, 0.062128004, -1629289.9, 83990.5, 0.004085261, 9.999572, 10.000339 
1.265062e+3, 1.3517582e+2, -1647966.5, -1551537.4, 51295.395, -0.070740215, -0.020204822, -1529354.0, 85928.3, 0.0022650692, 9.999425, 10.000724 
1.2650603e+3, 1.451778e+2, -1529759.0, -1429963.4, 65864.914, 0.1416134, 0.09685401, -1397229.6, 120032.54, 0.00085386867, 9.999492, 10.0008335 
1.2650537e+3, 1.5517934e+2, -1398031.8, -1323911.5, -28934.342, -0.06310354, 0.14477149, -1313954.1, 105289.52, 0.00015477135, 9.999772, 10.000751 
1.2650478e+3, 1.6517876e+2, -1423084.8, -1562444.5, -57833.58, -0.13426854, 0.14325589, -1402210.8, -80959.46, 0.0000038088367, 10.00011, 9.998279 
1.2650433e+3, 1.7517617e+2, -1231090.8, -1407042.6, -43035.49, -0.06372881, 0.028037928, -1221128.9, 2154.5308, 0.0, 10.000703, 9.998389 
1.2650403e+3, 1.8517555e+2, -1083438.5, -1029018.0, 114312.59, -0.00772479, 0.012753092, -938721.8, 186567.44, 0.0, 9.999939, 10.000681 
1.265039e+3, 1.9517647e+2, -1276026.6, -1068617.3, 101477.49, 0.021246025, 0.009047683, -1027227.7, 45.438683, 0.0, 9.997938, 10.000698 
1.2650356e+3, 2.0517658e+2, -1277463.6, -1201730.5, -19526.11, 0.035562973, 0.037545815, -1196992.5, -267723.03, 0.0, 9.998036, 9.999064 
1.26503e+3, 2.151757e+2, -889080.4, -958283.9, -18817.633, 0.03468748, 0.01584935, -884294.5, -53014.863, 0.0, 10.000005, 9.999113 
1.2650256e+3, 2.2517475e+2, -698130.56, -822676.94, 92597.445, 0.014403274, 0.018050976, -648814.2, 84476.055, 0.0, 10.000668, 9.9990635 
1.2650223e+3, 2.3517364e+2, -686807.75, -755819.4, 81348.46, -0.013017249, -0.027491117, -632949.44, 2352.6394, 0.0, 10.000031, 9.999152 
1.2650183e+3, 2.451732e+2, -591408.44, -659037.9, -8741.896, 0.004531307, 0.015172797, -590296.75, -52990.344, 0.0, 10.000012, 9.999149 
1.2650135e+3, 2.5517306e+2, -412789.1, -520967.75, -34196.203, 0.06387607, 0.06126577, -402885.97, 36420.793, 0.0, 10.00056, 9.99916 
1.2650093e+3, 2.6517248e+2, -312808.16, -434237.28, 58288.91, 0.075629234, 0.099200256, -289357.1, 51955.004, 0.00000015326442, 10.000643, 9.99904 
1.2650059e+3, 2.7517137e+2, -267331.1, -355304.97, 53782.2, 0.04899029, 0.054708738, -241838.72, 1484.8271, 0.0000068361555, 10.000252, 9.999096 
1.2650025e+3, 2.8517005e+2, -142241.4, -311535.63, 4.0570517, 0.09264304, 0.04954252, -142241.4, 3093.6443, 0.000055437977, 10.000724, 9.998493 
1.2649988e+3, 2.951683e+2, 164724.1, -109871.97, -25612.682, 0.2084683, -0.009237041, 167092.66, 214442.34, 0.00021948728, 10.002143, 9.998521 
1.2649935e+3, 3.0516502e+2, 210879.83, -81109.62, 20515.457, 0.08648756, -0.17555633, 212314.22, 212314.22, 0.0005556111, 10.002227, 9.99834 
1.2649876e+3, 3.151662e+2, 106887.734, 30348.658, 42697.87, -0.15651678, 0.07346002, 125956.37, 125956.37, 0.0010464599, 10.000769, 9.999805 
1.2750673e+3, 1.2518021e+2, -1723705.4, -1657098.8, -72579.516, -0.048016503, -0.05117262, -1610546.6, 102689.77, 0.0044096503, 9.999634, 10.000556 
1.2750609e+3, 1.351822e+2, -1628381.8, -1518910.0, 57800.5, -0.13381939, 0.039143533, -1494041.1, 121174.39, 0.0024558255, 9.999443, 10.000944 
1.2750594e+3, 1.4518283e+2, -1609056.4, -1604619.5, 64867.242, 0.07132018, 0.071343094, -1541932.8, -24722.582, 0.00093550276, 9.999534, 9.999613 
1.2750544e+3, 1.551823e+2, -1482410.8, -1501855.0, -7816.597, -0.006877125, 0.035398036, -1479658.1, -60439.938, 0.00017466526, 9.999781, 9.999525 
1.275049e+3, 1.651819e+2, -1379700.4, -1481242.8, -50065.316, -0.069929935, 0.084268905, -1359167.6, -37941.89, 0.0000047674703, 10.000137, 9.998828 
1.2750436e+3, 1.7518155e+2, -1190227.4, -1326294.1, -12357.792, -0.111459404, 0.13511685, -1189114.1, 34119.426, 0.0, 10.000713, 9.99894 
1.2750396e+3, 1.8518184e+2, -1082927.0, -1024424.0, 27702.75, -0.110262975, 0.18263663, -1013387.9, 111841.55, 0.0, 9.999922, 10.000719 
1.2750362e+3, 1.9518246e+2, -1278976.9, -1066793.6, 40407.42, -0.07215058, 0.14597023, -1059359.1, -32142.389, 0.0, 9.997898, 10.0007305 
1.2750334e+3, 2.0518205e+2, -1273114.9, -1169691.1, 41454.64, -0.0038389883, 0.106757596, -1155126.3, -225908.86, 0.0, 9.997938, 9.999332 
1.2750308e+3, 2.1518046e+2, -890512.44, -928120.75, 62428.867, 0.0969873, -0.016934203, -844117.25, -12884.816, 0.0, 9.999859, 9.999392 
1.275027e+3, 2.2517982e+2, -718968.2, -822780.56, 57443.64, 0.07000259, -0.0023018462, -693453.3, 39785.508, 0.0, 10.000491, 9.999144 
1.275022e+3, 2.3517989e+2, -707213.0, -762881.56, 70614.695, -0.079556555, 0.062017165, -659144.8, -23905.49, 0.0, 9.999881, 9.999175 
1.2750179e+3, 2.4517874e+2, -648865.7, -741433.5, 1540.306, -0.07145027, 0.06414575, -648840.06, -111589.23, 0.0, 9.999856, 9.998659 
1.2750146e+3, 2.5517637e+2, -460275.66, -589974.44, -452.50723, 0.08715865, -0.070749305, -460274.06, -21000.016, 0.0, 10.000432, 9.998748 
1.2750106e+3, 2.6517528e+2, -312137.6, -405938.5, 33443.367, 0.11544608, -0.07770058, -301435.0, 39848.53, 0.00000020123079, 10.000528, 9.999287 
1.2750061e+3, 2.7517512e+2, -271511.4, -336152.88, 53726.64, 0.012448049, -0.053058404, -241133.0, 2150.4766, 0.0000077157165, 10.000135, 9.999282 
1.2750025e+3, 2.851743e+2, -186880.58, -382020.78, 40737.465, 0.0010161413, 0.008163341, -178717.69, -33426.62, 0.000060411407, 10.000629, 9.998053 
1.275e+3, 2.9517278e+2, 117005.1, -180868.75, 42784.336, 0.08756959, 0.012964098, 123028.516, 170336.06, 0.0002426435, 10.002025, 9.99809 
1.2749957e+3, 3.0516943e+2, 168786.05, -148270.89, -40525.844, 0.043782767, -0.11589067, 173884.05, 173884.05, 0.0006215773, 10.002137, 9.997922 
1.2749895e+3, 3.1516957e+2, 92542.02, 42042.223, 26159.861, -0.08850675, 0.06159269, 103650.01, 103650.01, 0.0011780667, 10.000603, 9.99996 
1.2850665e+3, 1.2518615e+2, -1830372.9, -1698702.3, -50010.535, -0.039196335, -0.05725676, -1681861.4, 31316.896, 0.0047468157, 9.998831, 10.000662 
1.285061e+3, 1.3518816e+2, -1641501.8, -1544483.5, 60773.492, -0.06313242, 0.05185525, -1515233.0, 99921.8, 0.0026545508, 9.999432, 10.000763 
1.285058e+3, 1.4518778e+2, -1695249.3, -1719934.4, 84122.95, -0.007922491, 0.024433607, -1622568.3, -105408.836, 0.0010215283, 9.999266, 9.998957 
1.2850536e+3, 1.5518661e+2, -1642605.6, -1645272.0, 34441.457, -0.0033377784, -0.008374227, -1609471.5, -190295.7, 0.00019628371, 9.998963, 9.99894 
1.285049e+3, 1.6518623e+2, -1489665.3, -1485371.1, 60634.875, -0.015604903, 0.04900109, -1426845.3, -105662.4, 0.0000059623408, 9.999175, 9.999265 
1.2850443e+3, 1.7518649e+2, -1284810.6, -1325480.4, 62811.633, -0.08137724, 0.118409775, -1239124.3, -15942.322, 0.0, 9.999873, 9.99935 
1.2850395e+3, 1.8518671e+2, -1114669.4, -1111457.8, 24786.318, -0.10747097, 0.1744427, -1088225.3, 36953.336, 0.0, 10.000025, 10.000069 
1.2850347e+3, 1.9518669e+2, -1054208.1, -1028318.0, -35056.027, -0.093968116, 0.13785312, -1003893.3, 23282.174, 0.0, 9.999753, 10.000098 
1.2850322e+3, 2.0518605e+2, -951392.5, -984198.1, 56578.105, -0.004439734, 0.094497144, -908887.5, 20291.715, 0.0, 10.000013, 9.999607 
1.2850316e+3, 2.1518466e+2, -743313.6, -822526.75, 55477.582, 0.15773705, -0.03690525, -714755.4, 116435.54, 0.0, 10.00073, 9.999696 
1.285028e+3, 2.2518435e+2, -718128.94, -815362.7, -14872.45, 0.14102113, -0.0085392995, -715905.0, 17288.926, 0.0, 10.000473, 9.999199 
1.2850219e+3, 2.3518482e+2, -791793.56, -796739.6, -26602.326, -0.04117776, 0.092521794, -767549.56, -132358.52, 0.0, 9.99928, 9.999228 
1.2850176e+3, 2.4518381e+2, -702341.9, -767523.5, 19776.313, -0.05087537, 0.102750346, -696811.0, -159609.28, 0.0, 9.999478, 9.998665 
1.2850153e+3, 2.5518128e+2, -389874.16, -556694.44, 26665.973, 0.1057916, -0.047580916, -385715.3, 53511.05, 0.0, 10.0009165, 9.998744 
1.2850118e+3, 2.6517978e+2, -231529.17, -426870.1, 13304.908, 0.1315929, -0.068158224, -230627.13, 110613.37, 0.00000014147287, 10.001331, 9.998758 
1.2850067e+3, 2.75179e+2, -199206.58, -358122.0, -47775.266, 0.032393835, -0.052258804, -185949.66, 57298.035, 0.000007879153, 10.000871, 9.998777 
1.2850031e+3, 2.851782e+2, -148547.58, -348994.63, 7972.966, 0.009000853, 0.029408803, -148230.95, -2975.0588, 0.00006527563, 10.000831, 9.998187 
1.2850012e+3, 2.9517722e+2, -13330.302, -230025.33, 20668.46, 0.0705999, 0.07515069, -11376.551, 35891.168, 0.00026928063, 10.001063, 9.9982195 
1.2849973e+3, 3.0517423e+2, 25891.365, -209545.0, -53486.8, 0.06413822, -0.026007533, 37472.867, 37472.867, 0.0006972263, 10.001106, 9.998009 
1.284991e+3, 3.1517285e+2, 171748.72, 113466.91, 4209.526, -0.0030206619, -0.00812606, 172051.19, 172051.19, 0.0013269355, 10.000955, 10.000304 
1.2950651e+3, 1.2519373e+2, -1828109.1, -1688170.1, -19032.58, -0.11744453, 0.037793502, -1685627.8, 27477.08, 0.0050962004, 9.998822, 10.000734 
1.2950619e+3, 1.3519381e+2, -1697971.0, -1647527.6, 84064.89, 0.07098828, 0.016263438, -1584982.4, 30116.277, 0.0028611089, 9.999385, 10.000075 
1.2950556e+3, 1.4519265e+2, -1703286.6, -1736005.9, 53310.316, -0.1987359, -0.040148262, -1663882.3, -146772.98, 0.00111182, 9.999262, 9.998848 
1.2950516e+3, 1.551924e+2, -1642533.6, -1646779.0, 36421.184, -0.14274712, 0.017524773, -1608173.4, -189057.94, 0.000219555, 9.99897, 9.998928 
1.295048e+3, 1.6519186e+2, -1467726.6, -1442013.1, 72586.15, -0.070143886, 0.0429577, -1381153.9, -60032.215, 0.0000074533, 9.99918, 9.999561 
1.2950447e+3, 1.7519102e+2, -1268724.3, -1292635.3, 96246.75, -0.056997534, -0.027641237, -1183693.4, 39435.17, 0.0, 9.999871, 9.999577 
1.29504e+3, 1.8519022e+2, -1213362.0, -1312585.1, 2099.6616, -0.0905752, -0.014071852, -1213317.6, -88180.97, 0.0, 10.000006, 9.998699 
1.2950343e+3, 1.9518921e+2, -1153348.1, -1224309.4, -35331.527, -0.13434277, -0.013959861, -1138756.9, -111608.125, 0.0, 9.999705, 9.998778 
1.2950319e+3, 2.0518862e+2, -946548.9, -946703.4, 71662.44, -0.057799622, -0.0031137436, -874963.6, 54190.945, 0.0, 9.999902, 9.999915 
1.2950322e+3, 2.1518828e+2, -748153.1, -792120.2, 89980.61, 0.1250688, -0.059165206, -677509.56, 153646.36, 0.0, 10.000559, 9.999983 
1.2950288e+3, 2.2518829e+2, -744141.56, -829765.75, -71270.93, 0.13920633, -0.011294668, -703812.7, 29343.57, 0.0, 10.0003, 9.999186 
1.2950218e+3, 2.3518842e+2, -810376.5, -803275.2, -55503.164, -0.0008784758, 0.057980753, -751209.2, -116051.74, 0.0, 9.999138, 9.999254 
1.2950173e+3, 2.4518833e+2, -696174.9, -710467.7, 62330.13, -0.037300073, 0.13199507, -640582.8, -103423.46, 0.0, 9.999299, 9.999139 
1.2950157e+3, 2.5518775e+2, -384152.5, -505266.0, 91469.57, 0.027015071, 0.12970537, -335010.56, 104153.59, 0.0, 10.00076, 9.999168 
1.2950124e+3, 2.6518598e+2, -336891.0, -627731.06, -14881.127, 0.04118134, 0.12993196, -336131.56, 5051.472, 0.000000052302592, 10.001242, 9.997428 
1.2950076e+3, 2.7518305e+2, -304468.13, -549251.0, -49901.656, 0.0057599708, 0.06227496, -294686.03, -51470.438, 0.000007172051, 10.000749, 9.997526 
1.2950043e+3, 2.851818e+2, -121404.48, -261476.36, 7602.357, 0.006809084, 0.122985855, -120993.06, 24235.787, 0.00006969282, 10.000695, 9.998852 
1.2950023e+3, 2.9518172e+2, 11774.86, -148809.27, 46181.535, 0.041025635, 0.19418691, 24108.656, 71337.055, 0.00030090305, 10.000943, 9.998831 
1.2949985e+3, 3.051795e+2, 48995.934, -143376.63, -68804.305, 0.047308974, 0.116903886, 71071.37, 71071.37, 0.0007862506, 10.001031, 9.998501 
1.2949918e+3, 3.151764e+2, 178648.94, 176934.48, 34677.473, -0.078984976, -0.09693667, 212479.78, 212479.78, 0.0014963577, 10.000755, 10.0008335 
1.3050643e+3, 1.2519877e+2, -1717710.3, -1659674.4, 4950.7446, -0.10703075, 0.042574383, -1659255.0, 53799.707, 0.0054552136, 9.999698, 10.0005045 
1.3050629e+3, 1.3519847e+2, -1647170.5, -1689559.0, -42565.887, 0.21815395, 0.0409878, -1620814.3, -5759.9697, 0.003073975, 10.000013, 9.999491 
1.3050552e+3, 1.4519724e+2, -1610727.5, -1673970.5, -35315.918, -0.1871139, -0.0011002524, -1594945.1, -77879.914, 0.0012055306, 9.999817, 9.998998 
1.3050508e+3, 1.5519653e+2, -1456764.6, -1534232.1, -56376.09, -0.16495186, -0.009568459, -1427098.4, -8025.248, 0.000244213, 10.000148, 9.999124 
1.3050476e+3, 1.6519587e+2, -1361950.1, -1391108.1, -1263.5667, -0.056624763, -0.0063736467, -1361895.5, -40815.816, 0.000009295233, 9.999916, 9.999555 
1.3050447e+3, 1.7519516e+2, -1363108.1, -1338225.3, -23801.258, 0.011090888, -0.06024403, -1323809.8, -100724.086, 0.0, 9.999229, 9.999573 
1.3050404e+3, 1.8519425e+2, -1286403.9, -1347080.1, -34688.87, -0.014031348, -0.056842726, -1270658.1, -145563.53, 0.0, 9.999484, 9.998724 
1.3050348e+3, 1.9519302e+2, -1020458.3, -1156822.5, 9219.773, -0.09567753, -0.08369694, -1019837.75, 7270.369, 0.0, 10.000592, 9.998819 
1.305032e+3, 2.0519263e+2, -905064.6, -947086.56, 135712.27, -0.037529323, -0.04645054, -788746.5, 140366.22, 0.0, 10.000278, 9.999732 
1.3050319e+3, 2.1519288e+2, -1035291.94, -950529.9, 97719.89, 0.14008932, -0.023016311, -886396.44, -55286.313, 0.0, 9.998681, 9.999803 
1.3050285e+3, 2.2519273e+2, -878284.6, -883765.1, -8764.43, 0.15105388, 0.0124564525, -871842.06, -138730.0, 0.0, 9.999331, 9.999275 
1.3050224e+3, 2.3519199e+2, -383857.9, -587269.5, -11832.506, 0.012462361, -0.02017556, -383171.94, 251948.17, 0.0, 10.002024, 9.999338 
1.3050182e+3, 2.451917e+2, -247937.16, -545749.7, 69076.46, -0.041546483, 0.053954396, -232695.22, 304429.2, 0.0, 10.002594, 9.998682 
1.3050163e+3, 2.551916e+2, -345093.25, -537725.9, 8531.36, -0.012539974, 0.14575122, -344716.13, 94411.5, 0.0, 10.001231, 9.998722 
1.305013e+3, 2.6519004e+2, -373155.0, -647472.94, -55044.34, -0.00374808, 0.18919253, -362522.0, -21376.324, 0.000000026393016, 10.001016, 9.9974 
1.3050085e+3, 2.7518693e+2, -140190.56, -478938.25, -23682.955, -0.018189419, 0.11059113, -138542.83, 104636.586, 0.0000066700077, 10.001909, 9.997459 
1.3050054e+3, 2.851852e+2, 29817.977, -221915.03, 48792.805, -0.0012730837, 0.14024368, 38944.49, 184142.2, 0.00007506801, 10.001881, 9.998549 
1.3050033e+3, 2.951845e+2, 10839.343, -183367.25, -14667.493, 0.04692855, 0.18131551, 11940.861, 59144.844, 0.00033560226, 10.001081, 9.998526 
1.305e+3, 3.051828e+2, 30924.77, -158566.94, -142327.72, 0.10422272, 0.17435496, 107158.32, 107158.32, 0.0008828964, 10.0009365, 9.998441 
1.3049935e+3, 3.1517944e+2, 241654.05, 173285.52, -132738.75, 0.00072670914, -0.05405669, 344539.63, 344539.63, 0.0016816291, 10.001328, 10.000538 
1.3150632e+3, 1.2520099e+2, -1762477.3, -1742261.4, 159057.25, -0.22748496, -0.07805443, -1592991.3, 120039.555, 0.005819013, 9.999669, 9.999946 
1.3150637e+3, 1.3520212e+2, -1679063.8, -1756516.4, -35570.29, 0.26755387, 0.11492489, -1665207.1, -50185.703, 0.0032902497, 10.0000105, 9.999035 
1.3150564e+3, 1.4520155e+2, -1580095.3, -1607988.0, -47258.21, -0.085045874, 0.13720149, -1544768.5, -27742.08, 0.0013013786, 9.999811, 9.9994545 
1.3150513e+3, 1.5519911e+2, -1433992.0, -1478966.3, -36130.965, -0.15011822, -0.08590543, -1413921.9, 5125.8784, 0.00026992275, 10.000115, 9.99952 
1.3150477e+3, 1.6519831e+2, -1383327.8, -1440994.8, -40528.504, -0.069519885, -0.096556485, -1362422.6, -41366.637, 0.00001153221, 9.9999275, 9.999211 
1.3150446e+3, 1.7519894e+2, -1379350.5, -1377471.6, -39841.477, 0.039673474, 0.01397907, -1338558.5, -115505.22, 0.0, 9.999244, 9.999297 
1.3150406e+3, 1.8519892e+2, -1192547.4, -1143738.8, -5875.2197, 0.028026788, 0.043996923, -1143041.5, -17989.48, 0.0, 9.999451, 10.000133 
1.3150358e+3, 1.9519812e+2, -935333.75, -962879.75, 56867.453, -0.065385014, -0.08070466, -890595.2, 136458.69, 0.0, 10.000519, 10.000185 
1.3150325e+3, 2.051981e+2, -968071.7, -1050563.5, 63127.4, -0.031729095, -0.040182915, -933910.06, -4856.719, 0.0, 10.000166, 9.999074 
1.3150305e+3, 2.1519856e+2, -1099572.4, -1056908.6, 51465.496, 0.11301079, 0.07172369, -1022529.25, -191476.53, 0.0, 9.998559, 9.999133 
1.3150275e+3, 2.2519769e+2, -886914.75, -864665.8, 82845.66, 0.08140062, 0.05948047, -792201.06, -59140.105, 0.0, 9.999177, 9.999481 
1.3150236e+3, 2.3519544e+2, -397122.94, -576912.44, 99683.13, -0.095463194, -0.14309658, -352787.3, 282291.6, 0.0, 10.0018635, 9.999489 
1.3150199e+3, 2.4519394e+2, -365535.03, -752638.06, 6288.469, -0.15768227, -0.12851046, -365432.9, 171663.8, 0.0, 10.00243, 9.997342 
1.3150166e+3, 2.5519302e+2, -458491.6, -736256.44, -28830.29, -0.111569785, 0.017030794, -455530.75, -16415.871, 0.0, 10.001071, 9.997438 
1.3150132e+3, 2.651921e+2, -311067.3, -487657.3, -32270.775, -0.10513888, 0.122043885, -305354.8, 35772.84, 0.000000066602475, 10.000883, 9.99856 
1.3150094e+3, 2.7519068e+2, -83902.555, -325523.94, 25003.346, -0.1411923, 0.09897306, -81342.3, 161796.28, 0.0000067822207, 10.001767, 9.998572 
1.3150065e+3, 2.8518847e+2, -70754.06, -420457.66, 9006.2295, -0.11001162, 0.09680747, -70522.27, 74638.66, 0.000081610815, 10.001819, 9.997226 
1.3150041e+3, 2.951854e+2, -98168.586, -382366.8, -25134.91, -0.014439274, 0.027398933, -95962.734, -48767.793, 0.0003693925, 10.000956, 9.997228 
1.3150014e+3, 3.0518398e+2, -37176.773, -271351.97, -133205.84, 0.12410901, 0.14715178, 23086.42, 23086.42, 0.00097559066, 10.00082, 9.997713 
1.3149956e+3, 3.151823e+2, 126261.61, -6005.0557, -87795.41, 0.023693113, 0.15846035, 170044.84, 170044.84, 0.0018605303, 10.001091, 9.999407 
1.3250628e+3, 1.2520339e+2, -1766061.6, -1749207.8, 181399.66, -0.23976144, -0.047625866, -1576039.4, 136967.08, 0.006183249, 9.999624, 9.999933 
1.325062e+3, 1.3520396e+2, -1765937.6, -1748185.1, -91175.31, 0.15563418, 0.05101563, -1665455.0, -50452.3, 0.0035072896, 9.999211, 9.999464 
1.3250567e+3, 1.4520416e+2, -1655899.6, -1574534.3, -15985.62, 0.020246224, 0.09220126, -1571506.3, -54505.98, 0.0013982238, 9.998984, 10.000088 
1.3250513e+3, 1.5520278e+2, -1497615.9, -1446351.9, -8417.846, -0.10018288, -0.084966525, -1445005.0, -25993.87, 0.00029637254, 9.999396, 10.000097 
1.3250478e+3, 1.6520256e+2, -1406984.4, -1439480.5, 15355.152, -0.04233219, -0.071843356, -1400876.6, -79862.82, 0.000014169166, 9.999724, 9.999309 
1.3250445e+3, 1.7520334e+2, -1262203.1, -1314000.1, 21068.865, 0.08051237, 0.047356833, -1254715.6, -31705.857, 0.0, 10.000025, 9.999354 
1.3250409e+3, 1.852032e+2, -1069692.5, -1103608.4, 62662.73, 0.0829273, 0.0735251, -1021733.7, 103276.375, 0.0, 10.000379, 9.999958 
1.3250372e+3, 1.9520204e+2, -903957.56, -968070.8, -18412.738, -0.005147339, -0.06733408, -899045.9, 127970.22, 0.0, 10.000828, 9.999997 
1.3250336e+3, 2.0520169e+2, -869644.8, -1020162.6, -91784.445, 0.012077315, -0.043727428, -826209.6, 102809.19, 0.0, 10.000908, 9.998924 
1.3250302e+3, 2.1520187e+2, -807135.9, -930810.0, -83592.836, 0.11753729, 0.05290583, -764994.2, 66026.02, 0.0, 10.000631, 9.998997 
1.3250269e+3, 2.252009e+2, -736739.8, -812616.9, 49409.38, 0.055780217, 0.047084525, -712383.75, 20645.688, 0.0, 10.000303, 9.999296 
1.3250238e+3, 2.3519875e+2, -687041.44, -730097.06, 14855.501, -0.1456719, -0.12915854, -682413.3, -47365.895, 0.0, 9.999942, 9.999359 
1.3250208e+3, 2.4519727e+2, -678095.56, -879028.94, -58735.65, -0.193469, -0.11553933, -662186.0, -125121.24, 0.0, 10.000181, 9.99756 
1.3250177e+3, 2.551963e+2, -461278.28, -710703.06, -1703.9224, -0.10445799, 0.0012574472, -461266.66, -22183.818, 0.0, 10.000947, 9.997669 
1.3250145e+3, 2.6519537e+2, -215948.06, -440893.63, 64293.72, -0.07978784, 0.09843726, -198868.5, 142226.11, 0.0000000978673, 10.0015335, 9.998566 
1.3250114e+3, 2.751941e+2, -51034.88, -310691.13, 8239.847, -0.120675564, 0.08897782, -50773.664, 192330.19, 0.000006920427, 10.001985, 9.998574 
1.3250086e+3, 2.8519177e+2, -100607.16, -454928.1, -35814.82, -0.072248474, 0.0810296, -97023.24, 48104.46, 0.000086783395, 10.001726, 9.997022 
1.3250056e+3, 2.951883e+2, -110738.5, -410146.84, -22607.068, 0.058949202, -0.0038136784, -109041.16, -61875.23, 0.00039491727, 10.000973, 9.997021 
1.325003e+3, 3.051869e+2, 5141.592, -297193.84, 14125.744, 0.20709023, 0.14636116, 5800.142, 5800.142, 0.0010484561, 10.001312, 9.997301 
1.3249974e+3, 3.1518584e+2, 271117.25, -31951.629, 21604.645, 0.04677568, 0.26609832, 272649.63, 272649.63, 0.0020034304, 10.002481, 9.998567 
1.3350618e+3, 1.2520559e+2, -1724077.0, -1651526.6, 141357.56, -0.34127125, 0.0899547, -1541864.0, 171121.75, 0.0065457188, 9.999584, 10.000622 
1.3350579e+3, 1.3520406e+2, -1679838.6, -1563290.4, -108339.52, -0.21426885, -0.14809835, -1498546.9, 116451.13, 0.0037237175, 9.999183, 10.000749 
1.3350561e+3, 1.4520492e+2, -1590684.3, -1440501.3, -19339.105, 0.029431848, -0.15627147, -1438051.0, 78937.586, 0.0014951822, 9.9989805, 10.001016 
1.335051e+3, 1.5520756e+2, -1436461.0, -1323029.1, 17074.912, -0.105927594, -0.013027104, -1320514.6, 98448.195, 0.00032323142, 9.999402, 10.000946 
1.3350473e+3, 1.6520867e+2, -1380956.4, -1381993.0, 13333.946, -0.078151904, 0.07074344, -1368130.6, -47178.617, 0.000017128494, 9.999708, 9.999712 
1.3350445e+3, 1.7520833e+2, -1237815.8, -1261342.9, 42579.87, 0.05212544, 0.03571401, -1205404.4, 17550.492, 0.00000000003443261, 10.000014, 9.999721 
1.3350414e+3, 1.8520713e+2, -1196101.9, -1365663.1, 66678.18, 0.06162635, 0.027151212, -1173022.8, -48054.332, 0.0, 10.000373, 9.998167 
1.3350382e+3, 1.9520484e+2, -1033404.44, -1227527.8, 7503.2437, -0.0037831909, -0.0475858, -1033114.8, -6120.345, 0.0, 10.00078, 9.998243 
1.3350345e+3, 2.0520347e+2, -858988.2, -972793.94, -114058.06, 0.0006246517, -0.05765524, -788426.6, 140581.69, 0.0, 10.0008, 9.999302 
1.3350303e+3, 2.1520281e+2, -804701.1, -894530.7, -84225.07, 0.066367544, -0.08481519, -754163.3, 76849.23, 0.0, 10.000488, 9.999321 
1.3350266e+3, 2.252023e+2, -797869.56, -902105.2, 26726.164, -0.021182692, -0.03246601, -791416.44, -58398.387, 0.0, 10.000142, 9.998757 
1.335023e+3, 2.3520188e+2, -742139.1, -813576.1, 14985.866, -0.2362422, 0.01858339, -739122.75, -104097.305, 0.0, 9.999805, 9.998853 
1.3350205e+3, 2.4520166e+2, -574711.56, -631015.9, -41681.664, -0.25735185, 0.09147896, -552565.56, -15536.478, 0.0, 10.00004, 9.999328 
1.3350189e+3, 2.552014e+2, -362102.75, -475125.7, 37994.055, -0.096974425, 0.10046324, -350518.0, 88513.555, 0.0, 10.000822, 9.999345 
1.3350168e+3, 2.6519993e+2, -310305.6, -617983.25, 70346.87, -0.02900695, 0.1241432, -294984.53, 46062.375, 0.00000008871969, 10.001446, 9.997395 
1.3350143e+3, 2.7519715e+2, -147245.11, -480048.1, 38539.754, -0.052651197, 0.07344175, -142840.36, 100235.73, 0.000006673535, 10.001852, 9.997475 
1.3350113e+3, 2.8519496e+2, -60901.914, -347651.97, -78025.64, 0.002651789, 0.098467, -41045.82, 104052.77, 0.00008871381, 10.0016165, 9.997812 
1.3350078e+3, 2.9519325e+2, -77264.38, -307580.84, -30905.625, 0.15334988, 0.107679434, -73189.336, -26073.066, 0.00040757706, 10.00083, 9.997796 
1.335005e+3, 3.051917e+2, -12755.89, -305798.8, 55230.33, 0.23606005, 0.2061463, -2692.141, -2692.141, 0.0010919488, 10.001199, 9.997292 
1.3349988e+3, 3.1518966e+2, 197526.03, -126477.51, 90595.305, -0.1158315, 0.23075785, 221136.98, 221136.98, 0.002095802, 10.00224, 9.998033 
1.3450624e+3, 1.2520798e+2, -1883996.0, -1676587.9, 178237.63, -0.16689458, 0.10209036, -1574080.4, 138881.89, 0.0069055543, 9.998265, 10.001088 
1.3450545e+3, 1.3520691e+2, -1837995.8, -1561013.8, -62717.55, -0.3825143, -0.15599197, -1547474.4, 67493.74, 0.0039389143, 9.997766, 10.001453 
1.3450551e+3, 1.4520776e+2, -1732781.3, -1532844.5, 27316.44, 0.07218805, -0.1897478, -1529179.6, -12220.255, 0.0015916337, 9.998119, 10.0007925 
1.3450508e+3, 1.5521073e+2, -1465912.3, -1364053.1, -47318.836, -0.05629832, 0.011959774, -1345463.8, 73469.69, 0.0003501717, 9.999331, 10.00069 
1.3450475e+3, 1.6521183e+2, -1314333.8, -1321121.1, -90303.54, -0.041563895, 0.094293095, -1227360.1, 93562.97, 0.000020254476, 10.000049, 9.999965 
1.345045e+3, 1.7521109e+2, -1171679.8, -1197415.1, -96330.45, 0.08766361, -0.005831331, -1087361.4, 135566.69, 0.0000000014653116, 10.000347, 9.999993 
1.3450421e+3, 1.8521017e+2, -1195858.9, -1360690.0, 4550.4575, 0.10317058, -0.0018892549, -1195733.4, -70794.41, 0.0, 10.000367, 9.998196 
1.345039e+3, 1.952088e+2, -1119008.3, -1265826.5, 59903.734, 0.020374076, 0.013313318, -1097668.5, -70710.39, 0.0, 10.000192, 9.998259 
1.3450353e+3, 2.0520745e+2, -885629.56, -1005136.25, 14527.43, 0.0022676813, 0.015135182, -883888.94, 45083.617, 0.0, 10.000693, 9.999138 
1.3450313e+3, 2.1520604e+2, -628483.0, -818377.25, -20956.041, 0.041889597, -0.07139369, -626197.9, 204785.84, 0.0, 10.00175, 9.999228 
1.3450275e+3, 2.2520548e+2, -578120.56, -796646.4, 72999.55, -0.015608127, -0.022594819, -555978.3, 177011.4, 0.0, 10.00165, 9.998756 
1.345024e+3, 2.352055e+2, -642414.25, -764896.75, 82946.4, -0.15453042, 0.074971914, -600550.7, 34441.79, 0.0, 10.000489, 9.998857 
1.3450217e+3, 2.4520531e+2, -472725.84, -559069.4, 73834.734, -0.15974031, 0.1406191, -430367.66, 106626.58, 0.0, 10.000653, 9.999524 
1.3450207e+3, 2.552047e+2, -170517.08, -361299.56, 12058.817, -0.042680074, 0.096913524, -169757.89, 269239.13, 0.0, 10.00205, 9.999538 
1.3450192e+3, 2.6520297e+2, -193728.1, -578231.75, 5718.1543, 0.014709288, 0.09393698, -193643.06, 147371.34, 0.000000062099474, 10.002334, 9.997235 
1.3450167e+3, 2.7519998e+2, -183106.45, -511530.47, 18855.662, 0.015512061, 0.03907867, -182027.44, 61020.094, 0.0000065347235, 10.001678, 9.9973345 
1.3450134e+3, 2.8519806e+2, 30747.0, -283063.13, -41827.3, 0.043442585, 0.086587615, 36226.426, 181294.31, 0.00008986311, 10.002142, 9.99801 
1.3450095e+3, 2.9519725e+2, 343625.47, -72656.16, -71690.45, 0.110730305, 0.16239803, 355625.78, 402701.6, 0.00041353333, 10.003583, 9.998084 
1.3450071e+3, 3.0519515e+2, 359234.78, -131806.95, 11129.863, 0.20864204, 0.19495566, 359486.9, 359486.9, 0.0011124206, 10.003754, 9.997273 
1.3450019e+3, 3.1519294e+2, 245506.77, -112518.055, -19847.234, -0.026897833, 0.20160067, 246603.64, 246603.64, 0.0021418033, 10.002606, 9.99795 
1.3550638e+3, 1.2521048e+2, -1865433.1, -1633050.8, -40531.125, 0.081317805, -0.04201319, -1626184.4, 86752.336, 0.0072628423, 9.998242, 10.001403 
1.3550521e+3, 1.3521267e+2, -1831401.4, -1545594.0, -64848.406, -0.4296788, 0.013732475, -1531568.5, 83343.12, 0.004152666, 9.99777, 10.0015545 
1.355053e+3, 1.4521287e+2, -1837425.6, -1750747.5, 60633.355, 0.030455377, -0.009808416, -1719556.9, -202645.67, 0.0016872559, 9.99812, 9.999295 
1.3550505e+3, 1.5521237e+2, -1563755.3, -1572575.8, 9136.384, -0.049608443, -0.011783568, -1558020.4, -139098.23, 0.0003769789, 9.999345, 9.999256 
1.355048e+3, 1.6521199e+2, -1305282.3, -1304053.0, -94350.91, -0.026260832, -0.01333966, -1210314.8, 110612.914, 0.000023370363, 10.0000515, 10.000085 
1.3550457e+3, 1.7521155e+2, -1165579.8, -1181415.1, -77171.13, 0.10887393, -0.09433414, -1095921.3, 127008.47, 0.0000000068048798, 10.000321, 10.000122 
1.3550428e+3, 1.852123e+2, -1077786.3, -1101536.6, -15213.256, 0.10416549, -0.021860221, -1070362.1, 54559.754, 0.0, 10.000312, 9.999997 
1.3550389e+3, 1.9521387e+2, -1005671.56, -1016898.1, 65827.82, -0.025813108, 0.108233355, -945218.1, 81689.305, 0.0, 10.00013, 9.999996 
1.3550355e+3, 2.0521362e+2, -950318.2, -1113546.8, 41864.996, -0.07480325, 0.1685825, -940206.94, -11295.28, 0.0, 10.000585, 9.998444 
1.3550323e+3, 2.1521157e+2, -697202.6, -927970.5, 26629.13, -0.04233334, 0.086984515, -694169.6, 136764.5, 0.0, 10.001603, 9.998548 
1.3550293e+3, 2.2521031e+2, -566108.06, -727679.6, 15417.6455, -0.015144545, 0.072635874, -564650.0, 168295.56, 0.0, 10.001464, 9.999319 
1.3550262e+3, 2.3520963e+2, -628851.25, -701419.4, 51670.324, 0.007946991, 0.042454485, -601997.7, 32950.74, 0.0, 10.0003395, 9.999365 
1.3550243e+3, 2.452083e+2, -588063.75, -767545.0, 115347.5, 0.0032405364, 0.039997157, -531659.1, 5300.4536, 0.0, 10.000515, 9.998162 
1.3550231e+3, 2.5520623e+2, -282577.4, -561082.9, 75560.55, -0.03363973, -0.015035033, -263398.06, 175581.58, 0.0, 10.00191, 9.998234 
1.3550211e+3, 2.6520443e+2, -155767.38, -474403.5, -31419.328, -0.041516103, 0.0012893537, -152698.8, 188299.42, 0.000000036385206, 10.002222, 9.998004 
1.3550183e+3, 2.752026e+2, -154534.72, -419741.8, 10995.894, -0.014028688, -0.011490153, -154079.6, 88938.86, 0.0000068750182, 10.001538, 9.998035 
1.3550147e+3, 2.8520107e+2, -13790.09, -346548.9, 2899.007, -0.06669199, 0.05803862, -13764.836, 131270.38, 0.00009120505, 10.002021, 9.99763 
1.3550104e+3, 2.9519987e+2, 297877.1, -139769.28, -850.9086, -0.18648568, 0.13349661, 297878.75, 344927.2, 0.00041554915, 10.003457, 9.997688 
1.3550091e+3, 3.0519694e+2, 337126.0, -141532.42, -42183.59, 0.013331472, 0.10085435, 340815.16, 340815.16, 0.00111335, 10.003614, 9.997265 
1.3550064e+3, 3.15195e+2, 225672.75, -91131.984, -45074.15, 0.09946081, 0.13981548, 231960.97, 231960.97, 0.002141611, 10.002353, 9.998213 
1.365062e+3, 1.2521468e+2, -1883714.4, -1694268.0, -37372.13, 0.10411918, -0.092867695, -1687162.1, 25731.076, 0.0076198755, 9.998331, 10.000937 
1.3650523e+3, 1.3521719e+2, -1575603.1, -1523685.4, -70134.26, -0.27557787, 0.07620068, -1474860.0, 140008.77, 0.004366158, 9.999948, 10.000658 
1.3650528e+3, 1.4521688e+2, -1570382.3, -1653750.5, 76894.055, 0.08840938, 0.064060904, -1524600.5, -7726.291, 0.0017823466, 10.000096, 9.999002 
1.3650492e+3, 1.552156e+2, -1591179.9, -1612129.9, 92309.75, -0.10677193, 0.011535787, -1508752.6, -89861.26, 0.0004035849, 9.999289, 9.999002 
1.365047e+3, 1.6521488e+2, -1475235.9, -1410372.8, 45026.44, -0.08494861, -0.0014445224, -1387313.9, -66413.3, 0.000026350568, 9.99898, 9.999872 
1.3650458e+3, 1.7521456e+2, -1339744.5, -1284187.9, 14498.795, 0.13312812, -0.053505804, -1280631.8, -57728.383, 0.000000016360648, 9.999208, 9.9999485 
1.365043e+3, 1.8521543e+2, -1129944.6, -1095888.5, 38361.715, 0.1410979, 0.027125277, -1070945.4, 53948.945, 0.0, 9.999807, 10.000285 
1.365039e+3, 1.9521724e+2, -892617.0, -924423.8, -16046.675, -0.039268453, 0.14733304, -885928.06, 140948.42, 0.0, 10.000746, 10.000332 
1.365036e+3, 2.052172e+2, -923681.56, -1107345.0, -56948.76, -0.073074915, 0.21430229, -907456.7, 21421.941, 0.0, 10.000799, 9.998383 
1.3650338e+3, 2.152153e+2, -925154.1, -1045126.06, -45106.344, 0.028188735, 0.15608235, -910087.5, -79186.65, 0.0, 10.00007, 9.998484 
1.3650309e+3, 2.252139e+2, -691615.06, -780097.7, -25384.115, 0.054025255, 0.12683965, -684850.0, 48063.117, 0.0, 10.000563, 9.9993925 
1.3650274e+3, 2.3521283e+2, -364031.97, -569491.44, -50948.246, 0.0069676046, 0.050119445, -352092.1, 282825.63, 0.0, 10.00213, 9.999414 
1.3650255e+3, 2.4521102e+2, -339756.22, -693538.9, 56603.21, -0.0070083966, 0.019136488, -330920.7, 206012.06, 0.0, 10.002423, 9.997749 
1.3650252e+3, 2.5520837e+2, -353295.5, -638244.0, 61537.457, 0.000561006, -0.052340038, -340573.84, 98385.22, 0.0, 10.001611, 9.997847 
1.3650233e+3, 2.652066e+2, -259297.45, -478632.03, -19607.613, -0.007233105, -0.036292516, -257558.4, 83418.49, 0.000000033203506, 10.001314, 9.998412 
1.3650197e+3, 2.7520546e+2, -125914.28, -354205.88, -28499.936, -0.027745852, -0.025008215, -122410.13, 120578.82, 0.0000069323874, 10.001515, 9.998492 
1.3650164e+3, 2.8520414e+2, -46352.84, -361874.6, 41050.36, -0.08615029, 0.039161902, -41099.527, 103903.516, 0.000089487476, 10.001819, 9.997612 
1.3650136e+3, 2.952026e+2, 141386.55, -206569.0, 41533.813, -0.16403335, 0.08598765, 146275.55, 193294.33, 0.00040599194, 10.002367, 9.997742 
1.3650124e+3, 3.05199e+2, 231546.8, -164603.47, -2318.0105, 0.028357478, -0.030579615, 231560.36, 231560.36, 0.0010855788, 10.002761, 9.997527 
1.3650091e+3, 3.1519684e+2, 323589.6, 29807.264, -47315.535, 0.13608225, -0.034498405, 331022.03, 331022.03, 0.0020884634, 10.002677, 9.998912 
1.3750577e+3, 1.2522079e+2, -1984052.6, -1897839.3, -42852.523, -0.21541291, -0.050526224, -1880163.3, -167333.44, 0.0079810945, 9.998326, 9.999534 
1.375055e+3, 1.352204e+2, -1711169.5, -1803886.9, -7333.585, -0.029175702, 0.022291798, -1710593.1, -95753.14, 0.0045821774, 9.999939, 9.998735 
1.3750535e+3, 1.452198e+2, -1506699.8, -1523407.9, 26421.285, 0.13647375, 0.031304974, -1487343.3, 29505.172, 0.0018779465, 10.000102, 9.999897 
1.3750467e+3, 1.5522037e+2, -1530440.5, -1484217.6, 73980.78, -0.31686178, 0.0687808, -1429822.4, -10980.291, 0.00043006244, 9.999279, 9.999886 
1.3750438e+3, 1.6522045e+2, -1510160.9, -1485281.4, 37744.27, -0.31574556, 0.12424327, -1457979.8, -137137.4, 0.000029160963, 9.998983, 9.999361 
1.3750446e+3, 1.7522006e+2, -1374281.3, -1358025.9, 33225.28, 0.06809529, 0.11505059, -1331948.6, -109099.43, 0.000000027808229, 9.999204, 9.999453 
1.3750428e+3, 1.8521959e+2, -1214023.4, -1264822.4, 59779.887, 0.119172856, 0.14285849, -1174470.8, -49614.49, 0.0, 9.999789, 9.999133 
1.3750394e+3, 1.9521882e+2, -984879.56, -1097614.3, 24865.504, -0.106737666, 0.12329813, -979638.7, 47227.074, 0.0, 10.000667, 9.999185 
1.3750368e+3, 2.0521809e+2, -894690.7, -1022704.0, -96655.945, -0.091456816, 0.14692414, -842769.7, 86104.664, 0.0, 10.000694, 9.999013 
1.3750353e+3, 2.1521726e+2, -906812.94, -970954.6, -58501.504, 0.15024853, 0.13311237, -872168.25, -41284.727, 0.0, 9.999914, 9.999068 
1.3750319e+3, 2.2521634e+2, -748984.5, -856283.1, 23866.287, 0.087022744, 0.14604434, -743915.44, -11024.063, 0.0, 10.000381, 9.998955 
1.3750271e+3, 2.3521516e+2, -419287.4, -641068.0, 18449.795, -0.25451225, 0.101222895, -417763.03, 217136.6, 0.0, 10.001951, 9.999002 
1.3750254e+3, 2.4521345e+2, -328443.7, -637152.94, 11189.984, -0.28545448, 0.077683486, -328038.63, 208875.34, 0.0, 10.0022745, 9.998211 
1.3750267e+3, 2.5521114e+2, -341232.9, -580584.8, 42397.047, -0.02458603, -0.008584824, -333944.9, 104990.12, 0.0, 10.001468, 9.998314 
1.3750249e+3, 2.652096e+2, -270258.1, -471106.5, -21548.229, 0.023555527, -0.0025902113, -267972.28, 72977.12, 0.000000022673568, 10.001187, 9.998523 
1.3750204e+3, 2.7520838e+2, -141233.36, -349604.28, -6768.9673, -0.12580281, -0.006579952, -141013.69, 101946.93, 0.0000066245593, 10.00137, 9.99859 
1.3750182e+3, 2.8520703e+2, -24381.043, -301471.7, 47708.074, -0.11444008, 0.031752624, -16396.959, 128575.805, 0.000084736, 10.001745, 9.998066 
1.3750184e+3, 2.9520556e+2, 149698.14, -154944.4, 79333.086, 0.066643305, 0.037975617, 169119.42, 216105.3, 0.00038240635, 10.002209, 9.998179 
1.3750164e+3, 3.0520135e+2, 242298.63, -99738.18, -7570.753, 0.13881731, -0.18966623, 242466.13, 242466.13, 0.0010235131, 10.002596, 9.998042 
1.3750096e+3, 3.151976e+2, 344907.7, 152636.45, -21987.01, -0.13496904, -0.39559934, 347389.94, 347389.94, 0.001977613, 10.002374, 9.9998865 
1.3850561e+3, 1.2522489e+2, -2034810.5, -1942714.1, -98154.58, -0.19494286, 0.0006220311, -1880343.0, -167553.2, 0.008351057, 9.998069, 9.9993515 
1.3850556e+3, 1.35223e+2, -1761880.4, -1863695.0, -4602.5356, 0.056557335, -0.043066982, -1761672.6, -146858.06, 0.004803759, 9.999749, 9.998417 
1.3850531e+3, 1.452223e+2, -1549113.8, -1531831.1, 7686.9478, 0.105984144, -0.03175108, -1528907.0, -12083.446, 0.0019753822, 9.999757, 10.000008 
1.3850464e+3, 1.552234e+2, -1537475.5, -1471307.5, -29199.348, -0.25994948, 0.042871814, -1460264.9, -41454.125, 0.00045665295, 9.999154, 10.000037 
1.3850433e+3, 1.6522372e+2, -1485631.1, -1477495.0, -3074.5432, -0.27168888, 0.11657432, -1476463.9, -155655.5, 0.00003186285, 9.999192, 9.999308 
1.3850431e+3, 1.7522334e+2, -1289890.5, -1320227.5, -2086.4495, -0.017965095, 0.11485044, -1289747.6, -66932.2, 0.000000039188958, 9.999817, 9.999412 
1.3850419e+3, 1.8522249e+2, -1221355.4, -1302101.3, 92615.63, 0.043830898, 0.12129534, -1160695.5, -35868.934, 0.0, 9.999883, 9.998835 
1.38504e+3, 1.9522102e+2, -1150705.4, -1202067.0, 104915.58, -0.055845898, 0.05960216, -1068373.4, -41530.4, 0.0, 9.999638, 9.998959 
1.3850379e+3, 2.0522034e+2, -949930.4, -986856.3, 32994.043, -0.011810386, 0.06792842, -930584.8, -1734.6039, 0.0, 10.000047, 9.999568 
1.385036e+3, 2.1522021e+2, -694879.2, -806519.5, 41347.293, 0.16619472, 0.06733374, -681233.6, 149616.7, 0.0, 10.001097, 9.999628 
1.385033e+3, 2.252195e+2, -610401.3, -856951.25, 166146.9, 0.08794534, 0.10159316, -526791.06, 206066.02, 0.0, 10.001611, 9.998369 
1.3850291e+3, 2.35218e+2, -484298.7, -736301.7, 127653.2, -0.22490494, 0.086696684, -430935.44, 203936.39, 0.0, 10.001765, 9.998448 
1.3850278e+3, 2.4521643e+2, -391765.0, -621448.06, 88083.39, -0.2440893, 0.08231172, -361874.84, 175011.28, 0.0, 10.001657, 9.998602 
1.3850284e+3, 2.552147e+2, -322861.03, -524062.8, 83494.516, 0.0020517958, 0.012286299, -292726.03, 146174.72, 0.0, 10.001399, 9.998721 
1.3850264e+3, 2.6521343e+2, -197847.36, -415829.94, 76433.8, 0.037906434, 0.020535365, -173717.55, 167193.3, 0.0000000049794013, 10.0015955, 9.998706 
1.3850223e+3, 2.7521238e+2, 6051.4067, -259919.67, 76358.39, -0.12123184, 0.012159014, 26414.35, 269333.8, 0.0000064670485, 10.002284, 9.998775 
1.3850205e+3, 2.8521088e+2, 41301.273, -277721.7, 118467.43, -0.076404564, 0.029350905, 80481.625, 225414.36, 0.00007993784, 10.002222, 9.998011 
1.3850212e+3, 2.952089e+2, 59610.617, -195420.53, 82287.734, 0.17025346, -0.0112689035, 83856.34, 130807.35, 0.00035406946, 10.001571, 9.998208 
1.3850191e+3, 3.052051e+2, 177860.17, -171226.0, 7111.3467, 0.18956752, -0.18056656, 178004.98, 178004.98, 0.00094634306, 10.002309, 9.997693 
1.3850129e+3, 3.152013e+2, 599610.8, 272047.72, -114247.06, -0.12562151, -0.36056107, 635521.0, 635521.0, 0.0018380386, 10.004117, 9.999872 
1.3950567e+3, 1.252262e+2, -1973212.0, -1790009.9, -16949.633, 0.02116038, -0.009325726, -1788454.9, -75674.34, 0.008733579, 9.997992, 10.0004225 
1.3950539e+3, 1.3522497e+2, -1671115.9, -1669708.0, 48262.914, -0.124416, -0.12523298, -1622143.9, -7350.9253, 0.005033633, 9.999726, 9.999756 
1.3950512e+3, 1.452246e+2, -1591433.9, -1620299.3, -40569.83, -0.1024613, -0.11786864, -1562806.0, -46008.49, 0.002076125, 9.999757, 9.999401 
1.3950478e+3, 1.5522482e+2, -1584303.4, -1560754.0, -38461.367, -0.05733435, -0.06792171, -1532305.4, -113508.82, 0.00048381835, 9.99912, 9.99944 
1.3950446e+3, 1.6522472e+2, -1461419.9, -1428885.5, 5261.478, -0.077381454, -0.025479164, -1428055.8, -107257.48, 0.000034571214, 9.999195, 9.999642 
1.3950412e+3, 1.7522427e+2, -1276454.0, -1281467.6, 27444.574, -0.20492129, -0.06395779, -1251402.0, -28598.705, 0.00000005013657, 9.999769, 9.999702 
1.3950399e+3, 1.8522407e+2, -1170387.1, -1195871.3, 66582.52, -0.178707, -0.040819768, -1115338.4, 9467.308, 0.0, 9.999878, 9.999566 
1.3950406e+3, 1.9522393e+2, -1111693.3, -1105478.0, 105575.016, 0.018302035, -0.043104157, -1002964.9, 23842.617, 0.0, 9.999563, 9.999662 
1.3950391e+3, 2.0522398e+2, -930786.06, -921134.5, 60002.027, 0.0692061, -0.018550865, -865764.5, 63041.066, 0.0, 9.999938, 10.00007 
1.3950352e+3, 2.1522415e+2, -688357.0, -753279.06, 88830.836, -0.01839065, -0.038625166, -626241.94, 204559.39, 0.0, 10.000932, 10.0000725 
1.3950334e+3, 2.2522335e+2, -674880.4, -963146.75, 159262.86, -0.043191064, 0.00021557427, -604213.56, 128596.72, 0.0, 10.001478, 9.997707 
1.3950334e+3, 2.3522149e+2, -550205.94, -841562.06, 146014.1, 0.0026813496, 0.0122237615, -489626.38, 145206.55, 0.0, 10.001622, 9.997796 
1.3950323e+3, 2.4522011e+2, -393601.34, -591670.4, 67118.555, 0.012330621, 0.044005025, -373000.0, 163847.44, 0.0, 10.001513, 9.998876 
1.3950297e+3, 2.5521892e+2, -333056.1, -503281.0, 86415.41, -0.01047067, 0.005527427, -296876.53, 141980.22, 0.0, 10.001228, 9.998943 
1.3950273e+3, 2.652181e+2, -195074.45, -384711.0, 89971.42, -0.052172836, 0.033578318, -159181.75, 181680.38, 0.0000000011462398, 10.001481, 9.998977 
1.3950248e+3, 2.7521756e+2, -822.16156, -236093.63, 115163.83, -0.10573066, 0.04492378, 46165.535, 289030.16, 0.0000063015364, 10.002115, 9.9990225 
1.395023e+3, 2.8521577e+2, -22210.977, -377041.16, 83457.695, -0.07938681, 0.053910244, -3561.532, 141319.77, 0.00007549819, 10.002084, 9.997392 
1.3950217e+3, 2.9521245e+2, -9721.935, -306749.72, 77863.58, 0.029216072, -0.057512566, 9451.72, 56366.867, 0.0003302392, 10.001433, 9.997509 
1.3950205e+3, 3.052101e+2, 88439.875, -329574.4, 63980.668, 0.06838718, 0.008997727, 98013.41, 98013.41, 0.0008840725, 10.0021925, 9.996658 
1.3950182e+3, 3.1520835e+2, 481954.4, 104732.836, -16992.102, -0.032233167, 0.12442305, 482718.28, 482718.28, 0.0017240661, 10.003799, 9.998869 
1.4050566e+3, 1.2522815e+2, -1812836.3, -1685912.3, 42903.434, 0.1573207, 0.060425397, -1672770.5, 39994.582, 0.009133226, 9.998934, 10.000698 
1.4050525e+3, 1.3522753e+2, -1826573.5, -1671412.5, -13472.547, -0.1456582, -0.06350816, -1670251.4, -55481.773, 0.005275387, 9.998317, 10.000436 
1.4050505e+3, 1.4522761e+2, -1761804.1, -1649181.4, -63178.92, -0.073407434, -0.07176167, -1620860.9, -104092.914, 0.0021822979, 9.998352, 9.999885 
1.4050478e+3, 1.5522781e+2, -1554387.9, -1501641.5, -12252.883, 0.03116823, -0.06625802, -1498934.3, -80168.25, 0.00051218417, 9.9991255, 9.999851 
1.4050446e+3, 1.6522773e+2, -1404714.4, -1398093.0, 102290.945, -0.016509607, -0.043681916, -1299059.1, 21707.832, 0.000037386584, 9.99957, 9.999668 
1.405041e+3, 1.752273e+2, -1232284.4, -1252206.8, 79607.58, -0.21500424, -0.09041857, -1162017.3, 60754.395, 0.00000006103049, 10.000032, 9.999771 
1.4050397e+3, 1.8522714e+2, -1115067.6, -1136876.8, 92875.38, -0.1897803, -0.0811291, -1032458.8, 92313.52, 0.0, 10.000123, 9.999852 
1.4050405e+3, 1.9522716e+2, -1036629.0, -1036379.75, 74180.48, 0.044068433, -0.09701037, -962323.8, 64446.574, 0.0, 9.999937, 9.999956 
1.4050391e+3, 2.0522729e+2, -929599.4, -971334.25, 40672.21, 0.087992445, -0.059034236, -904753.8, 24014.592, 0.0, 10.000164, 9.99962 
1.4050359e+3, 2.1522737e+2, -717861.9, -809052.9, -20639.59, -0.046697453, -0.043071087, -713408.0, 117359.62, 0.0, 10.000916, 9.999692 
1.405035e+3, 2.252266e+2, -678344.25, -927033.7, 52622.715, -0.034730475, 0.00058955187, -667667.6, 65109.37, 0.0, 10.001319, 9.998019 
1.405036e+3, 2.3522484e+2, -556143.25, -802447.8, 85258.33, 0.11442633, -0.0101867765, -529510.75, 105286.42, 0.0, 10.001421, 9.99815 
1.4050347e+3, 2.4522342e+2, -402251.03, -637491.8, 36625.52, 0.11143431, 0.019442352, -396680.56, 140131.38, 0.0, 10.001623, 9.998518 
1.405031e+3, 2.552221e+2, -247847.73, -499632.6, -9063.313, -0.042109776, 0.004325191, -247521.9, 191301.75, 0.0, 10.0019655, 9.998622 
1.4050286e+3, 2.6522097e+2, -167165.56, -386519.5, -18722.521, -0.07630627, 0.025199566, -165579.02, 175253.88, 0.0000000047036606, 10.001738, 9.998841 
1.4050275e+3, 2.7522013e+2, -154577.47, -317638.3, -58155.016, 0.0064709745, 0.019211344, -135961.92, 106877.09, 0.000006310061, 10.001101, 9.998946 
1.4050257e+3, 2.8521824e+2, -47907.586, -373070.94, -20502.695, 0.012865108, 0.014457957, -46619.918, 98236.41, 0.00007173929, 10.001845, 9.997527 
1.4050235e+3, 2.9521492e+2, 349350.34, -117888.71, 8652.831, -0.04002496, -0.10541147, 349510.53, 396399.3, 0.0003165935, 10.003848, 9.997639 
1.4050226e+3, 3.052138e+2, 288464.0, -229862.31, 53544.688, -0.0039465018, 0.07128751, 293937.53, 293937.53, 0.00085306494, 10.0035515, 9.996693 
1.4050221e+3, 3.152124e+2, 80588.625, -113410.95, 1830.1348, 0.12984262, 0.22405176, 80605.89, 80605.89, 0.0016667417, 10.0011215, 9.998671 
1.4150539e+3, 1.252304e+2, -1839981.5, -1736749.6, -64023.082, -0.039022185, 0.15673885, -1706127.1, 6619.655, 0.009556688, 9.998912, 10.0003605 
1.4150514e+3, 1.3523072e+2, -1830322.9, -1667447.6, -24816.654, -0.11912904, 0.13379909, -1663750.3, -49006.332, 0.0055341963, 9.998274, 10.000483 
1.4150505e+3, 1.4523119e+2, -1649410.4, -1421389.5, -51458.8, 0.064350516, 0.07533499, -1410314.4, 106422.18, 0.0022969088, 9.998371, 10.001442 
1.4150459e+3, 1.5523238e+2, -1459821.9, -1301127.3, 25306.787, -0.08083927, 0.040449988, -1297189.3, 121529.86, 0.0005425403, 9.999106, 10.001238 
1.4150429e+3, 1.6523288e+2, -1413802.9, -1420116.8, 102388.6, -0.18436414, 0.062021762, -1314522.6, 6190.515, 0.000040406845, 9.99958, 9.999516 
1.415042e+3, 1.7523254e+2, -1251038.3, -1277568.6, 106558.414, -0.14431052, 0.043271653, -1156922.5, 65796.42, 0.00000007226826, 9.999971, 9.99963 
1.4150411e+3, 1.8523186e+2, -1131466.9, -1162461.6, 71645.46, -0.094775714, 0.012811989, -1073661.9, 51062.82, 0.0, 10.00009, 9.999691 
1.4150396e+3, 1.9523072e+2, -1063405.0, -1075098.0, 76258.55, -0.06791561, -0.09980642, -992769.2, 33962.39, 0.0, 9.999867, 9.999723 
1.4150383e+3, 2.0523015e+2, -1028665.06, -1162992.9, 50954.613, -0.044864744, -0.054838642, -1011523.8, -82784.664, 0.0, 10.000094, 9.998342 
1.4150374e+3, 2.1522991e+2, -828695.3, -1002888.06, 16852.914, -0.005735185, 0.056188084, -827079.8, 3669.0217, 0.0, 10.0007515, 9.9984455 
1.4150369e+3, 2.252292e+2, -613963.9, -752503.44, 43040.773, 0.017255709, 0.101453386, -601681.1, 131076.19, 0.0, 10.001144, 9.999297 
1.4150366e+3, 2.3522796e+2, -503124.66, -644131.7, 100502.29, 0.021115534, 0.01581305, -450862.3, 183903.16, 0.0, 10.001224, 9.999327 
1.415035e+3, 2.452264e+2, -481385.44, -777212.4, 38642.418, -0.050671674, 0.020539563, -476421.1, 60358.324, 0.0, 10.001506, 9.997617 
1.4150317e+3, 2.5522432e+2, -327730.53, -638546.75, 16086.13, -0.18964282, 0.014994602, -326900.22, 111900.46, 0.0, 10.0018425, 9.997728 
1.41503e+3, 2.652222e+2, -230323.03, -486558.47, -53811.945, -0.1269884, 0.010416762, -219480.78, 121341.09, 0.000000079284355, 10.001607, 9.998214 
1.4150298e+3, 2.7521992e+2, -222667.08, -422157.84, -63731.066, 0.11426948, -0.073325805, -204045.27, 38798.773, 0.000007370644, 10.000949, 9.998299 
1.4150286e+3, 2.852181e+2, 12012.586, -231505.16, 44277.06, 0.08952268, -0.0908964, 19813.28, 164672.72, 0.00007202747, 10.001762, 9.998541 
1.4150266e+3, 2.9521635e+2, 392815.34, 6898.15, 99644.984, -0.14860746, -0.15821986, 417025.22, 463897.4, 0.0003176136, 10.003683, 9.998584 
1.4150248e+3, 3.0521598e+2, 321345.34, -108028.195, -44017.445, -0.14468816, 0.0046235467, 325811.38, 325811.38, 0.0008555333, 10.003346, 9.99761 
1.4150241e+3, 3.1521377e+2, 63717.48, -80134.78, -44799.69, 0.15662724, -0.022655383, 76528.48, 76528.48, 0.0016666559, 10.000864, 9.999002 
1.425053e+3, 1.2523133e+2, -1798097.6, -1660647.6, -106757.375, -0.024446724, 0.11469744, -1602407.0, 110332.52, 0.010011913, 9.998973, 10.000858 
1.4250498e+3, 1.3523267e+2, -1863387.1, -1626568.5, -18934.076, -0.09093064, 0.15283439, -1625064.3, -10339.933, 0.0058154534, 9.997847, 10.000956 
1.425049e+3, 1.4523286e+2, -1691112.4, -1440930.9, 2632.8672, 0.10756315, 0.0420454, -1440903.3, 75815.18, 0.002423067, 9.998101, 10.001428 
1.4250457e+3, 1.5523362e+2, -1444899.8, -1293637.9, -63023.42, -0.02042691, -0.036240544, -1270821.0, 147883.69, 0.00057589856, 9.999226, 10.001216 
1.4250429e+3, 1.6523431e+2, -1393156.9, -1400190.5, -29138.195, -0.1394899, -0.0002044781, -1367324.0, -46627.01, 0.00004378684, 9.999663, 9.999616 
1.425042e+3, 1.7523482e+2, -1287435.0, -1283071.1, -28388.824, -0.12127573, 0.052100535, -1256780.5, -34084.477, 0.00000008454083, 9.99966, 9.999747 
1.4250411e+3, 1.8523444e+2, -1149815.6, -1174091.0, -20509.469, -0.0752832, 0.048271075, -1138121.4, -13422.636, 0.0, 9.99998, 9.999661 
1.4250399e+3, 1.9523314e+2, -941169.25, -1018571.44, -26693.5, -0.05315413, -0.07827286, -932856.4, 93849.79, 0.0, 10.000722, 9.999697 
1.4250389e+3, 2.0523208e+2, -930442.44, -1146462.0, 14605.591, -0.028623072, -0.06549556, -929459.4, -741.15857, 0.0, 10.000903, 9.998064 
1.4250383e+3, 2.15231e+2, -861195.1, -1049384.9, 29542.768, 0.01608141, -0.010324995, -856666.4, -25929.633, 0.0, 10.000644, 9.998184 
1.425038e+3, 2.2523044e+2, -639269.0, -730198.7, 82713.19, 0.030460011, 0.04590457, -590348.9, 142394.81, 0.0, 10.00081, 9.999621 
1.4250377e+3, 2.3523028e+2, -443292.38, -581292.6, 47826.273, 0.0021992302, 0.03751497, -428337.94, 206402.64, 0.0, 10.001467, 9.999653 
1.4250363e+3, 2.4522866e+2, -458458.34, -783293.9, 441.50354, -0.061191756, 0.029611431, -458457.75, 78297.12, 0.0, 10.00176, 9.997446 
1.4250338e+3, 2.5522554e+2, -330612.6, -654984.44, 86.58862, -0.1544691, -0.06408061, -330612.56, 108174.04, 0.00000000006254562, 10.001898, 9.997583 
1.4250322e+3, 2.6522318e+2, -183164.92, -496699.5, -23122.936, -0.08181017, -0.07305757, -181468.8, 159342.3, 0.00000036239143, 10.002066, 9.997926 
1.4250316e+3, 2.7522138e+2, -52357.813, -366991.22, -25352.32, 0.13960981, -0.079363994, -50328.086, 192501.69, 0.000010087366, 10.002222, 9.998065 
1.4250302e+3, 2.8521994e+2, 33115.527, -151423.2, 131919.81, 0.09537512, -0.07826145, 101832.09, 246673.13, 0.00007869426, 10.00161, 9.999172 
1.4250284e+3, 2.952186e+2, -25792.22, -120137.01, 117898.71, -0.16721278, -0.16842586, 54020.977, 100868.83, 0.00033370158, 10.000489, 9.99925 
1.425027e+3, 3.0521807e+2, 19984.078, -239481.02, -53096.68, -0.1588664, -0.06369214, 30429.244, 30429.244, 0.00088811334, 10.001185, 9.997764 
1.4250268e+3, 3.152158e+2, 399593.16, 46906.082, -136710.58, 0.2354179, -0.11540763, 446379.22, 446379.22, 0.0017196501, 10.003307, 9.99871 
1.4350525e+3, 1.2523168e+2, -1695480.1, -1450202.4, -206893.36, -0.022193937, -0.019147411, -1332331.1, 380404.7, 0.010506618, 9.998963, 10.002326 
1.4350472e+3, 1.3523374e+2, -1821955.5, -1526460.6, -34924.09, -0.13199775, 0.008224397, -1522389.1, 92318.14, 0.006123269, 9.997792, 10.001664 
1.4350457e+3, 1.452329e+2, -1787674.9, -1653344.0, 33769.31, -0.06148839, -0.16330415, -1645332.6, -128621.92, 0.002563054, 9.998144, 9.999955 
1.4350465e+3, 1.5523167e+2, -1548737.5, -1504255.6, -11622.762, 0.114000164, -0.29325688, -1501401.8, -82681.055, 0.0006133788, 9.999198, 9.99979 
1.4350443e+3, 1.6523212e+2, -1368420.5, -1347158.4, -45666.93, 0.008016684, -0.22985606, -1310901.4, 9816.268, 0.000047750204, 9.999655, 9.999987 
1.4350408e+3, 1.7523399e+2, -1264121.4, -1235078.4, -18857.475, -0.23441613, -0.076447785, -1225799.1, -3095.4739, 0.00000010052836, 9.999655, 10.000082 
1.43504e+3, 1.852348e+2, -1142112.1, -1152248.1, -8237.878, -0.2239377, 0.016018951, -1137508.1, -12813.017, 0.0, 9.999957, 9.999823 
1.4350413e+3, 1.9523449e+2, -944865.3, -1003158.9, 10500.184, -0.011768741, -0.027641889, -943031.6, 83661.59, 0.0, 10.000623, 9.999852 
1.4350405e+3, 2.0523317e+2, -896925.94, -1052085.5, -9823.701, 0.024560753, -0.08610399, -896306.44, 32398.465, 0.0, 10.0007925, 9.998764 
1.4350381e+3, 2.1523075e+2, -844833.75, -973334.9, 31068.12, -0.073576376, -0.23531756, -837716.5, -6985.9727, 0.0, 10.000464, 9.998791 
1.4350377e+3, 2.2523043e+2, -706858.2, -829273.7, 94195.14, -0.08941561, -0.15072471, -655731.1, 77004.07, 0.0, 10.000637, 9.999022 
1.4350389e+3, 2.3523198e+2, -512223.84, -676597.0, 82474.67, -0.03530285, 0.06899468, -477977.16, 156744.14, 0.0, 10.001272, 9.999089 
1.4350387e+3, 2.4523033e+2, -445963.0, -724008.4, -9571.425, -0.021468839, 0.060567055, -445633.9, 91103.73, 0.0, 10.001605, 9.9979315 
1.4350371e+3, 2.5522563e+2, -325991.7, -604966.06, 16111.819, -0.039368927, -0.23656574, -325064.25, 113718.59, 0.000000006122379, 10.001725, 9.99801 
1.435035e+3, 2.652239e+2, -184032.58, -473934.13, -29672.926, -0.038012426, -0.21518645, -181026.56, 159774.34, 0.0000008787704, 10.001952, 9.998141 
1.4350325e+3, 2.752246e+2, -57303.22, -347409.94, -5952.2256, -0.016401956, 0.013002967, -57181.145, 185614.44, 0.000014147242, 10.002088, 9.99827 
1.4350304e+3, 2.8522387e+2, 25700.373, -139979.13, 76722.29, -0.076125674, 0.064199336, 55770.918, 200571.55, 0.000090676054, 10.00149, 9.999307 
1.4350286e+3, 2.9522145e+2, -46802.168, -131369.86, 95948.1, -0.21289024, -0.14914875, 15766.078, 62584.47, 0.00036367134, 10.000342, 9.999248 
1.4350283e+3, 3.0521986e+2, -25700.7, -299273.84, 16786.328, -0.16558032, -0.1283536, -24674.547, -24674.547, 0.00095384644, 10.001054, 9.997409 
1.4350301e+3, 3.1521866e+2, 298677.25, -85286.83, -7462.502, 0.18955903, -0.032650314, 298822.22, 298822.22, 0.0018355994, 10.002982, 9.99796 
1.4450505e+3, 1.2523364e+2, -1975463.9, -1576090.9, -54681.13, -0.001512592, -0.087406084, -1568739.4, 143974.23, 0.011047917, 9.996981, 10.002409 
1.4450467e+3, 1.3523574e+2, -1696350.1, -1515342.1, -31361.93, -0.021275261, -0.02503314, -1510062.4, 104624.05, 0.00646129, 9.998833, 10.001244 
1.4450444e+3, 1.4523494e+2, -1606160.3, -1612607.8, 62063.313, -0.08542199, -0.14466259, -1547237.0, -30546.424, 0.0027186894, 9.999609, 9.999516 
1.4450458e+3, 1.5523362e+2, -1514699.8, -1526690.5, 63323.457, 0.10971341, -0.24682288, -1457088.5, -38386.28, 0.0006559602, 9.999606, 9.999437 
1.4450444e+3, 1.6523345e+2, -1404899.6, -1432816.9, 45645.773, 0.055221688, -0.1984879, -1371125.9, -50419.883, 0.000052490832, 9.999715, 9.99936 
1.4450414e+3, 1.7523414e+2, -1223485.1, -1278582.4, -24024.396, -0.15099178, -0.09905998, -1214481.1, 8222.411, 0.00000012546444, 10.000224, 9.999496 
1.4450407e+3, 1.8523458e+2, -1077128.5, -1115795.9, -26574.14, -0.16302906, -0.020799281, -1063599.1, 61099.758, 0.0, 10.0003605, 9.999885 
1.4450414e+3, 1.9523464e+2, -1001150.7, -1016333.6, -37024.02, -0.031485315, -0.038050108, -970947.9, 55745.625, 0.0, 10.000169, 9.999979 
1.4450409e+3, 2.0523377e+2, -902108.94, -996832.4, -43227.344, -0.005498292, -0.08263988, -885347.9, 43351.14, 0.0, 10.000512, 9.999279 
1.4450394e+3, 2.1523187e+2, -669012.94, -827947.9, -40042.035, -0.054785952, -0.23117456, -659494.75, 171221.7, 0.0, 10.001416, 9.99933 
1.4450389e+3, 2.2523141e+2, -654156.7, -840167.25, 35939.098, -0.050563544, -0.17118232, -647454.4, 85267.914, 0.0, 10.001152, 9.998699 
1.4450398e+3, 2.3523211e+2, -733297.5, -815850.2, 21509.928, -0.00914331, -0.0046300837, -728029.06, -93310.11, 0.0, 9.999882, 9.998804 
1.4450398e+3, 2.4523096e+2, -655525.25, -755006.1, 5831.0957, 0.023340456, 0.015551112, -655184.6, -118453.05, 0.0, 9.999867, 9.998552 
1.4450394e+3, 2.5522786e+2, -367358.03, -560905.9, 22407.523, 0.043200545, -0.18005371, -364797.72, 73962.75, 0.000000012932129, 10.0011425, 9.998605 
1.4450374e+3, 2.652265e+2, -220279.03, -474397.63, -21156.396, 0.023880068, -0.15558712, -218529.72, 122244.47, 0.0000016431604, 10.001644, 9.998279 
1.4450341e+3, 2.752266e+2, -121872.805, -359665.72, -37292.16, -0.028302362, -0.009515589, -116161.586, 126612.97, 0.000019343763, 10.001577, 9.998421 
1.4450319e+3, 2.852255e+2, 51305.95, -194942.64, 32064.209, -0.08440809, 0.034336362, 55412.57, 200195.88, 0.00010742276, 10.001954, 9.9987 
1.4450309e+3, 2.9522324e+2, 246874.03, -50119.95, -18177.064, -0.14091179, -0.10776121, 247982.39, 294784.25, 0.00040939415, 10.00262, 9.998697 
1.4450312e+3, 3.0522078e+2, 323811.4, -107540.71, -121.99715, -0.09447234, -0.15293401, 323811.44, 323811.44, 0.0010584168, 10.003346, 9.997638 
1.445034e+3, 3.152198e+2, 494881.3, 46581.63, -29444.008, 0.22491659, -0.06888217, 496806.9, 496806.9, 0.002024874, 10.004179, 9.998289 
1.4550485e+3, 1.252377e+2, -2070555.5, -1777646.3, 99320.83, 0.026090529, -0.06635718, -1747144.4, -34476.336, 0.011640448, 9.997018, 10.00099 
1.4550474e+3, 1.3523877e+2, -1814431.5, -1746275.5, 45168.81, 0.1481846, 0.044010513, -1723771.4, -109110.7, 0.0068325973, 9.998772, 9.999687 
1.4550444e+3, 1.452391e+2, -1572009.0, -1535087.4, 47468.91, -0.08627992, 0.09441235, -1502615.9, 14041.091, 0.0028915813, 9.999585, 10.000055 
1.4550431e+3, 1.5523943e+2, -1478808.3, -1440989.0, 71929.46, -0.13675381, 0.08747899, -1385525.1, 33124.71, 0.00070428615, 9.999565, 10.000042 
1.4550428e+3, 1.6523823e+2, -1508416.9, -1656784.3, 47355.473, -0.10096119, 0.08730177, -1494590.6, -173928.6, 0.000058062662, 9.999748, 9.997808 
1.4550439e+3, 1.7523538e+2, -1336112.4, -1505149.9, 6505.67, 0.041816693, -0.01416535, -1335862.4, -113167.56, 0.00000016567238, 10.00019, 9.99796 
1.455043e+3, 1.8523386e+2, -1079691.9, -1114227.1, -46400.715, 0.004636977, -0.058421142, -1047449.94, 77259.26, 0.0, 10.000334, 9.9999075 
1.45504e+3, 1.9523357e+2, -1015613.4, -1026158.4, -32972.563, -0.20336585, -0.107890934, -987494.44, 39212.246, 0.0, 10.000082, 9.999957 
1.4550394e+3, 2.0523378e+2, -895227.75, -953414.94, -22372.084, -0.2155534, -0.058488123, -887620.56, 41080.844, 0.0, 10.000392, 9.999632 
1.4550412e+3, 2.152343e+2, -668007.5, -786895.2, 2532.6155, -0.02669946, -0.003305668, -667953.56, 162741.77, 0.0, 10.001253, 9.999688 
1.4550412e+3, 2.252333e+2, -672835.2, -843753.94, -25168.691, 0.037447404, -0.018520692, -669206.0, 63499.895, 0.0, 10.0009985, 9.998749 
1.4550397e+3, 2.3523085e+2, -764242.94, -827944.3, -11918.034, -0.016948896, -0.17086503, -762086.2, -127353.86, 0.0, 9.999667, 9.998821 
1.4550394e+3, 2.4523063e+2, -618590.94, -651415.25, 42903.746, -0.027093701, -0.09460215, -589067.4, -52331.867, 0.0, 9.999737, 9.999332 
1.4550401e+3, 2.5523236e+2, -330967.25, -455667.06, 81525.58, 0.00425445, 0.110207826, -290682.22, 148036.2, 0.000000017460069, 10.001012, 9.999392 
1.4550391e+3, 2.6523116e+2, -240404.53, -490104.16, -33916.094, 0.006026835, 0.11592805, -235879.78, 104849.82, 0.000002726617, 10.001522, 9.998233 
1.4550361e+3, 2.752271e+2, -150879.02, -383827.7, -26292.555, -0.014421133, -0.14880344, -147948.3, 94819.82, 0.000025176965, 10.001423, 9.998326 
1.4550346e+3, 2.8522485e+2, -48700.996, -369278.56, 45924.5, -0.033005875, -0.1630175, -42251.797, 102537.97, 0.00012772917, 10.001813, 9.997572 
1.4550346e+3, 2.9522413e+2, 149683.52, -216081.28, 24681.852, -0.054893613, -0.036700808, 151341.53, 198138.61, 0.0004671954, 10.002463, 9.997636 
1.4550352e+3, 3.052212e+2, 351467.84, -15645.662, 21332.914, -0.049319822, -0.11688832, 352703.34, 352703.34, 0.0011937756, 10.003194, 9.998342 
1.4550376e+3, 3.1521854e+2, 528343.9, 174540.33, 42455.95, 0.1291674, -0.26683053, 533367.2, 533367.2, 0.0022758725, 10.003927, 9.999294 
1.465046e+3, 1.2523958e+2, -2009802.1, -1831528.4, 71413.32, 0.0511594, -0.04056409, -1806449.4, -93804.63, 0.012283002, 9.997791, 10.000253 
1.4650464e+3, 1.3523969e+2, -1789226.1, -1795156.9, -21152.037, 0.15865798, 0.03100439, -1770832.6, -156181.31, 0.00723705, 9.999215, 9.999134 
1.4650448e+3, 1.4524023e+2, -1574629.5, -1555151.1, -13303.31, 0.006111952, 0.14192973, -1548403.0, -31755.352, 0.0030819494, 9.999617, 9.999922 
1.4650431e+3, 1.5524077e+2, -1407483.9, -1407424.8, -65542.83, -0.11141163, 0.15894341, -1341911.5, 76727.83, 0.0007585455, 10.0000305, 10.00006 
1.465043e+3, 1.6523972e+2, -1425193.5, -1573316.3, -10314.814, -0.07666708, 0.14851615, -1424478.6, -103829.75, 0.00006440502, 10.000133, 9.998198 
1.4650443e+3, 1.7523684e+2, -1316277.3, -1454490.0, 67161.805, 0.076349586, 0.007225971, -1289017.6, -66339.01, 0.00000022299002, 10.000147, 9.998331 
1.4650434e+3, 1.852349e+2, -1175427.9, -1209616.1, 69379.836, 0.048305724, -0.069783404, -1121067.4, 3628.9758, 0.0, 9.999909, 9.999449 
1.4650404e+3, 1.9523387e+2, -1111841.6, -1116048.4, 24759.094, -0.1425475, -0.15161993, -1089096.8, -62393.902, 0.0, 9.99962, 9.999553 
1.4650398e+3, 2.0523396e+2, -1004950.6, -1008519.2, 66688.34, -0.16163379, -0.09549479, -940022.7, -11322.798, 0.0, 9.999642, 9.999621 
1.4650418e+3, 2.1523495e+2, -840382.6, -866054.4, 44154.367, -0.018699506, 0.0074128844, -807236.25, 23453.404, 0.0, 10.000055, 9.999723 
1.4650421e+3, 2.2523412e+2, -697273.3, -847616.9, -1902.1829, 0.048247814, 0.0021571948, -697249.25, 35449.523, 0.0, 10.000801, 9.998818 
1.465041e+3, 2.3523137e+2, -424873.0, -656265.56, -9844.228, 0.042069864, -0.1850811, -424454.94, 210272.75, 0.0, 10.001948, 9.998908 
1.4650406e+3, 2.4523129e+2, -308208.1, -450952.9, 56225.39, 0.02820076, -0.121035546, -288721.72, 248006.83, 0.0, 10.001656, 9.999786 
1.4650407e+3, 2.5523362e+2, -421423.53, -446575.1, 44026.855, 0.003290248, 0.09999399, -388211.6, 50492.637, 0.000000044837254, 10.000171, 9.999857 
1.46504e+3, 2.652325e+2, -363147.06, -565440.8, -18194.016, 0.002145467, 0.09988564, -361523.72, -20809.463, 0.0000038968087, 10.000746, 9.998091 
1.4650387e+3, 2.752281e+2, 100932.016, -284141.66, -35176.445, 0.017402926, -0.18189453, 104119.01, 346876.16, 0.000030518888, 10.003226, 9.998156 
1.4650379e+3, 2.8522572e+2, 246255.97, -257551.78, 45431.766, 0.017295703, -0.18752767, 250320.06, 395101.28, 0.00014669269, 10.003968, 9.997304 
1.4650379e+3, 2.952252e+2, 230612.27, -204319.81, 42966.844, 0.002256357, -0.010420135, 234816.31, 281603.47, 0.0005242596, 10.003145, 9.997385 
1.4650384e+3, 3.0522203e+2, 257517.1, -123776.16, 66692.414, -0.02407151, -0.07301502, 268845.75, 268845.75, 0.0013356343, 10.002829, 9.997757 
1.4650407e+3, 3.1521893e+2, 371242.13, 82158.164, -31142.252, 0.12400044, -0.20877305, 374558.94, 374558.94, 0.002548591, 10.00289, 9.999153 
1.475043e+3, 1.2523803e+2, -2010226.0, -1821496.9, 71390.53, -0.09753972, -0.10757075, -1797534.5, -84878.38, 0.012969953, 9.997768, 10.000313 
1.4750428e+3, 1.3523845e+2, -1762487.8, -1730545.3, 20450.043, -0.14562838, -0.05515489, -1720568.8, -105910.4, 0.0076708426, 9.999182, 9.999587 
1.4750455e+3, 1.4523832e+2, -1608424.9, -1641217.1, -24001.295, 0.077359356, -0.004548016, -1595754.0, -79090.81, 0.0032881629, 9.999673, 9.999309 
1.4750454e+3, 1.552379e+2, -1458222.8, -1499208.0, -40883.13, 0.09204255, -0.01760516, -1432983.8, -14315.398, 0.00081847684, 9.9999695, 9.999462 
1.4750443e+3, 1.6523804e+2, -1260746.4, -1236880.0, -25725.414, 0.0119706085, 0.0022294626, -1220454.9, 100209.94, 0.000071419374, 10.000147, 10.000499 
1.4750426e+3, 1.7523855e+2, -1169146.9, -1139124.8, 74386.945, -0.14865708, -0.02894707, -1078249.4, 144405.11, 0.0000002932695, 10.000104, 10.000513 
1.4750418e+3, 1.8523774e+2, -1237147.3, -1343058.5, 43521.457, -0.13163915, -0.0549786, -1221557.9, -96897.58, 0.0, 9.99992, 9.998533 
1.4750424e+3, 1.952355e+2, -1183078.4, -1251219.5, 23405.625, 0.054384165, -0.16495484, -1175813.4, -149130.88, 0.0, 9.999558, 9.998661 
1.475042e+3, 2.0523432e+2, -1036341.3, -1053474.1, 66027.16, 0.04890189, -0.18212515, -978327.2, -49632.617, 0.0, 9.999556, 9.9993515 
1.4750409e+3, 2.1523397e+2, -888944.44, -924189.56, 68478.99, -0.123795554, -0.18448658, -835856.9, -5158.725, 0.0, 9.999878, 9.999407 
1.4750415e+3, 2.2523382e+2, -716203.94, -851255.6, 28043.264, -0.10895709, -0.103254475, -710612.3, 22088.543, 0.0, 10.000639, 9.998876 
1.4750434e+3, 2.3523374e+2, -440553.13, -655228.56, 42326.793, 0.07182846, -0.035106987, -432509.1, 202195.42, 0.0, 10.001802, 9.998987 
1.475043e+3, 2.45233e+2, -319094.94, -448497.88, -13854.463, 0.079394355, -0.046759192, -317628.25, 219081.95, 0.0, 10.001537, 9.999863 
1.4750405e+3, 2.5523156e+2, -440253.75, -449972.34, 1562.5278, -0.057463206, -0.21021716, -440008.72, -1289.8795, 0.000000082863835, 10.000014, 9.999909 
1.4750402e+3, 2.6523054e+2, -397943.5, -603491.94, 66120.03, -0.09109018, -0.19484858, -378511.34, -37782.93, 0.0000048986644, 10.000597, 9.997899 
1.4750417e+3, 2.752297e+2, 66701.05, -317086.1, 73240.9, -0.035169505, -0.10877392, 80203.125, 322943.94, 0.00003489947, 10.003067, 9.997999 
1.4750417e+3, 2.8522822e+2, 249640.3, -222125.75, 1278.4371, -0.039829392, -0.030313449, 249643.77, 394400.3, 0.00016199038, 10.003832, 9.997621 
1.4750403e+3, 2.9522625e+2, 226683.73, -177097.4, 26576.762, -0.10388141, -0.031342555, 228425.5, 275199.8, 0.0005762134, 10.002989, 9.99765 
1.4750402e+3, 3.0522317e+2, 113768.28, -384212.66, 59803.457, -0.1423506, -0.012980632, 120849.5, 120849.5, 0.0014700064, 10.00267, 9.996038 
1.475043e+3, 3.1522077e+2, 236693.88, -110663.44, 20915.635, 0.0049306196, 0.088676214, 237948.75, 237948.75, 0.0028040595, 10.00254, 9.997986 
1.4850421e+3, 1.2523669e+2, -1913070.6, -1804787.4, 45981.69, 0.0189767, -0.11880125, -1787896.4, -75227.92, 0.013700781, 9.998543, 10.000072 
1.4850414e+3, 1.3523659e+2, -1663033.5, -1673043.1, -13166.827, -0.2334415, -0.11884238, -1653952.4, -39277.11, 0.00813248, 9.999795, 9.999704 
1.4850456e+3, 1.4523643e+2, -1611064.1, -1608195.6, -63958.914, 0.12333288, -0.09306405, -1545654.9, -28975.088, 0.0035089266, 9.999539, 9.999584 
1.4850451e+3, 1.5523611e+2, -1648504.1, -1557056.6, -40082.926, 0.15036543, -0.12308572, -1541975.0, -123291.37, 0.0008836724, 9.998539, 9.99974 
1.485044e+3, 1.6523685e+2, -1493169.5, -1302333.8, -10385.13, 0.064441286, -0.07772839, -1301770.3, 18904.477, 0.00007901186, 9.998378, 10.000895 
1.4850424e+3, 1.7523839e+2, -1267578.5, -1138649.1, -77140.35, -0.11394377, -0.046249304, -1102583.6, 120072.17, 0.00000037325287, 9.999232, 10.000936 
1.4850418e+3, 1.852383e+2, -1238256.5, -1318951.0, -114403.99, -0.10050263, -0.03131969, -1157293.5, -32638.22, 0.0, 9.999805, 9.998755 
1.4850424e+3, 1.9523661e+2, -1049444.8, -1160166.3, -74492.1, 0.07250067, -0.11146143, -1011994.5, 14678.299, 0.0, 10.0003605, 9.9988985 
1.4850423e+3, 2.0523533e+2, -885296.94, -1002054.6, 37830.688, 0.07094592, -0.13499051, -874111.06, 54574.875, 0.0, 10.000693, 9.99915 
1.4850417e+3, 2.1523438e+2, -756133.0, -879333.9, 24038.662, -0.081509456, -0.17865166, -751608.8, 79087.336, 0.0, 10.000866, 9.999239 
1.4850424e+3, 2.252343e+2, -678017.6, -783266.75, 34962.26, -0.0732773, -0.10774096, -667462.25, 65235.18, 0.0, 10.000692, 9.999312 
1.4850444e+3, 2.3523498e+2, -625241.25, -694665.1, 50976.363, 0.067820296, -0.0061580525, -598280.56, 36410.453, 0.0, 10.00033, 9.99942 
1.4850442e+3, 2.4523398e+2, -469448.7, -605438.06, -21616.572, 0.08386337, -0.025871703, -466095.25, 70604.04, 0.0, 10.000876, 9.999103 
1.485042e+3, 2.5523135e+2, -162110.77, -398098.28, -89944.664, -0.010928071, -0.23128825, -131738.19, 306983.84, 0.00000011463164, 10.002282, 9.999173 
1.4850421e+3, 2.6523003e+2, -124608.47, -468514.06, 4334.984, -0.03509537, -0.208982, -124553.83, 216181.55, 0.000005857849, 10.002475, 9.997918 
1.4850442e+3, 2.7522975e+2, -142830.97, -415961.8, -9767.547, -0.0009989574, -0.0626525, -142482.11, 100259.586, 0.000039275426, 10.001628, 9.9980135 
1.4850445e+3, 2.8522828e+2, 697.6584, -309453.1, -67525.48, -0.02565957, -0.00084196526, 14761.464, 159518.14, 0.00017769578, 10.002, 9.997889 
1.4850435e+3, 2.9522568e+2, 325567.44, -102969.1, -73014.875, -0.108537674, -0.088506505, 337666.25, 384445.38, 0.0006294966, 10.003548, 9.997894 
1.4850435e+3, 3.052232e+2, 315596.88, -330925.53, 22180.604, -0.15163715, 0.00019537179, 316356.94, 316356.94, 0.0015962292, 10.004226, 9.995677 
1.4850461e+3, 3.1522095e+2, 439838.4, -26132.86, 32872.082, 0.002946851, 0.1535545, 442145.94, 442145.94, 0.0030239006, 10.0039835, 9.99788 
1.4950411e+3, 1.2523621e+2, -1913479.8, -1819275.1, -101078.47, -0.0028498517, -0.010613084, -1754862.9, -42187.523, 0.014485426, 9.998593, 9.999951 
1.4950417e+3, 1.352345e+2, -1696693.8, -1720505.1, 37973.465, -0.19921769, -0.13603719, -1668803.3, -54105.64, 0.008627366, 9.999713, 9.9994135 
1.4950445e+3, 1.4523476e+2, -1519029.8, -1437108.9, -124092.33, 0.031796146, -0.11801636, -1347391.6, 169304.13, 0.0037456865, 9.999603, 10.00074 
1.495042e+3, 1.5523562e+2, -1580278.1, -1413747.3, -66754.26, -0.044612456, -0.13950218, -1390292.3, 28391.088, 0.0009542572, 9.998523, 10.000738 
1.4950417e+3, 1.6523628e+2, -1582856.3, -1504017.1, 5916.552, -0.03975365, -0.07548526, -1503575.6, -182898.22, 0.00008722728, 9.998439, 9.999479 
1.495044e+3, 1.7523637e+2, -1370535.5, -1343183.3, -36689.313, 0.090667106, -0.04693625, -1317704.0, -95022.17, 0.0000004647829, 9.999196, 9.999547 
1.4950433e+3, 1.8523669e+2, -1141367.1, -1123544.8, -109102.84, 0.03522621, 0.009309985, -1022989.8, 101690.21, 0.0, 9.999822, 10.0000925 
1.4950404e+3, 1.9523723e+2, -972665.4, -982397.4, -45869.273, -0.19165286, 0.018390585, -931404.75, 95268.08, 0.0, 10.000279, 10.000159 
1.4950405e+3, 2.052371e+2, -904646.1, -1020821.6, 30130.816, -0.19489326, 0.05043214, -897296.5, 31377.256, 0.0, 10.000594, 9.999072 
1.4950436e+3, 2.1523623e+2, -782664.4, -898206.4, 38870.59, 0.021297617, 0.022317111, -770804.8, 59878.67, 0.0, 10.000712, 9.999182 
1.4950448e+3, 2.252356e+2, -642929.1, -680506.06, 5988.1475, 0.061488938, 0.00021239207, -641997.94, 90689.56, 0.0, 10.000553, 10.000091 
1.4950436e+3, 2.3523508e+2, -599362.06, -603161.25, 48572.65, -0.060036052, -0.0957185, -552651.9, 82035.25, 0.0, 10.000164, 10.000132 
1.4950438e+3, 2.4523424e+2, -606629.44, -850493.56, 20859.68, -0.0625728, -0.052150402, -604858.0, -68162.305, 0.0, 10.000702, 9.997504 
1.495045e+3, 2.5523293e+2, -294766.28, -638339.5, -24880.277, 0.04865757, 0.03139567, -292973.9, 145740.17, 0.00000015644366, 10.002129, 9.997599 
1.4950459e+3, 2.6523098e+2, -141350.53, -469208.8, -38048.203, 0.07046834, 0.061927527, -136992.92, 203742.28, 0.000006865855, 10.002325, 9.997985 
1.4950462e+3, 2.7522826e+2, -162601.08, -420303.66, -25912.041, 0.01445154, -0.039657507, -160021.44, 82738.77, 0.00004412461, 10.001473, 9.998057 
1.4950466e+3, 2.8522578e+2, -3260.194, -288697.7, -19884.354, -0.056870162, -0.09069692, -1881.6536, 142900.55, 0.00019465707, 10.001865, 9.998101 
1.495047e+3, 2.9522344e+2, 320512.97, -77354.58, 4665.8003, -0.13148312, -0.17828523, 320567.7, 367369.03, 0.00068026775, 10.003387, 9.998152 
1.4950477e+3, 3.0522227e+2, 344760.2, -218755.08, 4493.2686, -0.17328238, -0.01996769, 344796.03, 344796.03, 0.0016995047, 10.004022, 9.996535 
1.4950494e+3, 3.1521943e+2, 434925.6, 36773.453, 62817.336, -0.11777433, -0.0078318305, 444601.28, 444601.28, 0.0031810992, 10.003688, 9.998449 
1.5050395e+3, 1.2523448e+2, -1697384.4, -1685900.4, -118344.17, -0.085730635, -0.030056255, -1573159.0, 139535.56, 0.015336173, 9.999969, 10.000201 
1.505042e+3, 1.352339e+2, -1835707.3, -1752982.3, 84023.08, -0.07290982, -0.0872902, -1700692.6, -85988.13, 0.0091627855, 9.998599, 9.99973 
1.5050432e+3, 1.4523453e+2, -1657107.9, -1487019.1, -56125.832, 0.0017216982, -0.050455216, -1470168.1, 46529.707, 0.0040015904, 9.998605, 10.000868 
1.505041e+3, 1.5523516e+2, -1304947.1, -1260422.8, -98160.234, -0.07658123, -0.11135789, -1182031.9, 236655.44, 0.001031135, 10.00033, 10.000918 
1.5050408e+3, 1.6523555e+2, -1305805.3, -1400233.0, -2032.4988, -0.05560771, -0.070420444, -1305761.5, 14923.171, 0.000096309515, 10.000446, 9.999235 
1.5050432e+3, 1.752353e+2, -1358000.3, -1358054.8, 21559.59, 0.09761687, -0.0536641, -1336467.9, -113774.46, 0.000000575819, 9.999355, 9.999372 
1.5050429e+3, 1.8523584e+2, -1220667.1, -1125332.4, 7342.894, 0.048477642, 0.0138441315, -1124770.1, -79.71053, 0.0, 9.99913, 10.000402 
1.5050402e+3, 1.9523706e+2, -1013076.56, -962866.5, -27343.557, -0.20666775, 0.060278207, -950851.0, 75825.42, 0.0, 9.999842, 10.000495 
1.5050408e+3, 2.0523709e+2, -990700.56, -1057571.3, 19693.912, -0.17814901, 0.08910185, -985331.6, -56656.074, 0.0, 9.999993, 9.99911 
1.5050448e+3, 2.1523589e+2, -919065.5, -961341.56, 10660.531, 0.10988525, 0.025606964, -916529.44, -85841.51, 0.0, 9.9997635, 9.99921 
1.5050457e+3, 2.2523502e+2, -700982.06, -721874.2, -14661.25, 0.12486181, -0.012985427, -693426.1, 39267.94, 0.0, 10.000235, 9.999948 
1.5050438e+3, 2.3523436e+2, -430119.9, -536938.9, -68272.66, -0.117389455, -0.1075531, -396847.63, 237847.64, 0.0, 10.001401, 9.999983 
1.5050447e+3, 2.4523349e+2, -426211.94, -782939.8, -35494.785, -0.11154394, -0.04999632, -422714.44, 113989.74, 0.0, 10.002032, 9.997319 
1.5050478e+3, 2.5523236e+2, -292977.13, -654518.2, -6358.7134, 0.116849415, 0.068639256, -292865.3, 145855.44, 0.00000020302433, 10.002225, 9.99743 
1.5050489e+3, 2.6523027e+2, -131227.69, -479368.7, 7568.0107, 0.1359871, 0.098669514, -131063.24, 209679.73, 0.0000077496, 10.002461, 9.9978485 
1.5050477e+3, 2.7522704e+2, 22912.988, -345563.03, -14872.795, -0.036264725, -0.038779143, 23512.322, 266284.3, 0.000048509926, 10.002799, 9.997936 
1.5050486e+3, 2.8522423e+2, 108816.96, -249901.22, 28254.31, -0.07665777, -0.10673689, 111028.766, 255825.72, 0.00020995413, 10.002707, 9.997963 
1.5050513e+3, 2.9522187e+2, 158466.38, -157838.55, -15376.818, 0.016095456, -0.18749085, 159212.14, 206029.56, 0.0007218437, 10.002311, 9.998099 
1.5050523e+3, 3.0522117e+2, 177205.33, -235958.72, -21753.56, -0.03059539, -0.012550619, 178347.53, 178347.53, 0.0017668722, 10.002568, 9.997132 
1.5050523e+3, 3.1521776e+2, 352156.66, -2480.9707, -18867.04, -0.14537884, -0.1049522, 353157.56, 353157.56, 0.0032563144, 10.003081, 9.998491 
1.5150367e+3, 1.2523241e+2, -1645167.6, -1599175.3, -138145.42, -0.41303718, -0.13987301, -1482125.1, 230592.13, 0.016257107, 10.00006, 10.000764 
1.5150422e+3, 1.3523509e+2, -1796563.9, -1648729.5, 51495.18, 0.046532106, 0.035786517, -1632560.6, -17868.588, 0.009740974, 9.998519, 10.000478 
1.5150411e+3, 1.4523607e+2, -1713583.0, -1624974.3, -10941.224, -0.116848454, 0.12833825, -1623643.3, -106960.234, 0.0042781597, 9.998676, 9.999893 
1.5150419e+3, 1.5523475e+2, -1363069.5, -1379825.3, -25325.76, -0.052995402, -0.038859025, -1344771.9, 73923.65, 0.0011151112, 10.000316, 10.000108 
1.5150414e+3, 1.6523471e+2, -1228018.0, -1249884.0, -60288.906, -0.09200835, -0.05684192, -1177678.8, 143017.11, 0.000106548556, 10.000488, 10.000247 
1.5150401e+3, 1.7523533e+2, -1294934.8, -1221299.8, -8224.425, -0.18088059, -0.05717103, -1220392.3, 2297.2334, 0.0000007145684, 9.999326, 10.000326 
1.5150401e+3, 1.8523581e+2, -1262605.3, -1217076.8, 20793.469, -0.16481501, -0.008823643, -1209009.6, -84324.17, 0.0, 9.9991455, 9.999769 
1.5150416e+3, 1.9523616e+2, -1067558.6, -1059863.9, 7430.7046, -0.06698211, 0.014432351, -1055343.6, -28660.393, 0.0, 9.999773, 9.999864 
1.5150431e+3, 2.052354e+2, -997105.7, -1049100.9, -4581.117, 0.015497642, -0.008681377, -996705.1, -68014.766, 0.0, 9.999897, 9.999217 
1.5150446e+3, 2.1523352e+2, -935405.44, -958568.1, 13141.419, 0.09505127, -0.15238653, -929470.4, -98762.85, 0.0, 9.999604, 9.999308 
1.515045e+3, 2.2523272e+2, -802463.75, -890507.8, 17987.465, 0.015709493, -0.13344523, -798930.6, -66215.484, 0.0, 10.000052, 9.998879 
1.5150446e+3, 2.3523286e+2, -527371.25, -700441.9, -12274.469, -0.20286496, -0.03987835, -526505.06, 108209.91, 0.0, 10.001237, 9.9989395 
1.5150462e+3, 2.452318e+2, -368180.63, -627597.0, -42047.832, -0.1715643, -0.00814268, -361535.47, 175188.63, 0.0, 10.001874, 9.998467 
1.5150501e+3, 2.5522962e+2, -236206.0, -502170.4, 12056.565, 0.09609973, -0.10933772, -235660.58, 203081.73, 0.00000026346208, 10.00207, 9.998555 
1.5150508e+3, 2.6522776e+2, -173482.36, -531527.25, 9837.557, 0.060088214, -0.09480372, -173212.27, 167547.52, 0.000008336701, 10.002306, 9.997568 
1.5150486e+3, 2.7522612e+2, -21549.154, -397509.84, 14008.874, -0.25625828, -0.05387817, -21027.885, 221749.16, 0.00005112129, 10.002634, 9.997659 
1.5150502e+3, 2.8522375e+2, 45980.684, -351237.78, 883.71906, -0.20303378, -0.031849537, 45982.652, 190783.0, 0.00022272031, 10.002569, 9.997334 
1.5150557e+3, 2.9522076e+2, 92290.49, -259528.56, -10414.151, 0.20506276, -0.114534974, 92598.49, 139427.31, 0.000756888, 10.002152, 9.997476 
1.515057e+3, 3.0521956e+2, 171402.28, -189058.56, -10744.396, 0.15607521, 0.026196254, 171722.25, 171722.25, 0.0018087787, 10.002343, 9.99755 
1.5150546e+3, 3.1521633e+2, 276586.66, -65864.99, 40391.37, -0.28359303, -0.10010145, 281286.25, 281286.25, 0.0032696738, 10.002731, 9.9981985 
1.5250356e+3, 1.252316e+2, -1803216.9, -1694396.9, -60748.09, -0.47900906, -0.10092587, -1667254.6, 45470.25, 0.017244658, 9.999072, 10.000573 
1.525041e+3, 1.3523345e+2, -1804173.4, -1693669.6, -117956.586, 0.09552434, 0.024395954, -1618665.9, -3957.1572, 0.010359608, 9.998645, 10.000112 
1.525039e+3, 1.452339e+2, -1828247.5, -1674475.0, -75662.805, -0.14811954, 0.08709476, -1643489.4, -126784.06, 0.0045741852, 9.997883, 9.999926 
1.5250413e+3, 1.552332e+2, -1717189.6, -1531836.8, -45693.348, -0.008938506, -0.036766905, -1521184.5, -102472.22, 0.0012060112, 9.997809, 10.000265 
1.5250413e+3, 1.6523352e+2, -1513808.6, -1331731.5, -65299.242, -0.035368547, -0.049826063, -1310734.3, 9973.726, 0.000118081814, 9.998319, 10.000727 
1.5250391e+3, 1.7523451e+2, -1217565.9, -1126176.1, -80080.39, -0.21113448, -0.05896168, -1079670.8, 143024.84, 0.0000008766353, 9.999636, 10.000826 
1.5250395e+3, 1.852349e+2, -1154105.4, -1190215.0, -28621.494, -0.18494335, -0.03048314, -1138319.9, -13628.28, 0.0, 10.000005, 9.999543 
1.525042e+3, 1.9523473e+2, -1088491.1, -1099276.8, -36176.598, 0.008847974, -0.03469983, -1057307.6, -30612.105, 0.0, 9.999744, 9.999618 
1.525044e+3, 2.0523398e+2, -937882.1, -1022105.5, -3099.4407, 0.09979898, -0.043597292, -937768.25, -9065.198, 0.0, 10.000291, 9.999213 
1.5250452e+3, 2.1523266e+2, -649001.25, -820152.3, -16630.105, 0.09568386, -0.13479172, -647400.4, 183314.13, 0.0, 10.001559, 9.9993105 
1.525046e+3, 2.2523177e+2, -590168.8, -874868.56, 14162.914, 0.0139983725, -0.08745633, -589466.0, 143258.44, 0.0, 10.001867, 9.998119 
1.5250464e+3, 2.352312e+2, -564227.4, -797600.9, -11593.337, -0.13956557, 0.009753628, -563652.9, 71080.945, 0.0, 10.001317, 9.998237 
1.5250483e+3, 2.4522975e+2, -392291.66, -567795.8, -19885.953, -0.12345309, 0.0031604338, -390066.66, 146679.19, 0.0, 10.001419, 9.999087 
1.5250516e+3, 2.5522742e+2, -176787.42, -405516.16, -30076.332, 0.046613846, -0.17499618, -172898.7, 265862.47, 0.0000003530132, 10.002189, 9.999158 
1.5250528e+3, 2.6522565e+2, -146457.6, -533156.1, -35356.094, 0.01661024, -0.17434277, -143251.55, 197524.64, 0.000008619123, 10.002554, 9.997436 
1.5250516e+3, 2.752243e+2, -38418.523, -414888.84, -49757.0, -0.20002273, -0.08895533, -31953.31, 210838.3, 0.000051931653, 10.002567, 9.997561 
1.5250535e+3, 2.852221e+2, 74600.75, -353814.88, -17969.375, -0.13606586, -0.03774262, 75353.13, 220167.58, 0.00023518385, 10.002845, 9.997188 
1.5250583e+3, 2.952191e+2, 264420.8, -195163.92, -21768.523, 0.18850836, -0.104627796, 265449.6, 312294.44, 0.0007914608, 10.003404, 9.997332 
1.5250596e+3, 3.0521747e+2, 339046.25, -59497.78, 14016.103, 0.14512599, -0.02403771, 339538.56, 339538.56, 0.001844471, 10.003258, 9.998016 
1.5250579e+3, 3.1521505e+2, 191032.19, -130125.42, 15867.584, -0.18689084, -0.10759597, 191814.27, 191814.27, 0.0032658095, 10.00218, 9.998051 
1.5350372e+3, 1.2523179e+2, -1869516.8, -1829505.5, 62814.465, -0.28176177, 0.06412953, -1783587.8, -70867.664, 0.018294634, 9.99907, 9.999635 
1.5350385e+3, 1.3522916e+2, -1904249.8, -1897959.4, -140355.25, -0.049780224, -0.11022072, -1760714.1, -145961.66, 0.011016667, 9.998634, 9.9987135 
1.5350367e+3, 1.4522846e+2, -1738567.8, -1514451.5, -101463.15, -0.20345731, -0.14804414, -1475341.5, 41419.297, 0.0048880493, 9.997983, 10.000986 
1.5350391e+3, 1.552307e+2, -1651127.6, -1377068.1, -40032.445, -0.045298766, -0.085504696, -1371340.3, 47395.28, 0.0013030368, 9.997743, 10.001363 
1.5350404e+3, 1.6523221e+2, -1511201.6, -1337546.8, -32632.738, 0.00902657, -0.030649839, -1331617.0, -10898.201, 0.00013086536, 9.998358, 10.000673 
1.5350401e+3, 1.7523298e+2, -1228315.0, -1140131.8, -23290.15, -0.08491545, -0.05297486, -1134358.6, 88351.78, 0.0000010420176, 9.999602, 10.000747 
1.5350404e+3, 1.8523319e+2, -1143010.3, -1174094.1, -53515.7, -0.11922186, -0.043190733, -1102825.4, 21882.938, 0.0, 10.00003, 9.999643 
1.5350413e+3, 1.9523275e+2, -1086362.9, -1083517.5, -36345.69, -0.07287118, -0.087061144, -1048566.6, -21853.182, 0.0, 9.999693, 9.999751 
1.5350433e+3, 2.0523278e+2, -961835.8, -1040715.25, 33878.918, -0.02765107, -0.02053911, -949282.56, -20569.047, 0.0, 10.000162, 9.999145 
1.535046e+3, 2.1523324e+2, -683473.94, -849247.1, 40148.09, 0.01348598, 0.074580334, -674262.5, 156446.89, 0.0, 10.001378, 9.999197 
1.535048e+3, 2.2523208e+2, -645632.8, -945516.4, -19015.15, 0.010693587, 0.122529395, -644431.9, 88290.38, 0.0, 10.001672, 9.99773 
1.5350491e+3, 2.352294e+2, -612130.7, -859901.3, -17765.021, -0.018365327, 0.04381377, -610863.44, 23888.26, 0.0, 10.001155, 9.9978895 
1.5350506e+3, 2.4522728e+2, -416773.66, -572244.0, -1016.0201, -0.07138452, -0.01587952, -416767.0, 120002.68, 0.0, 10.001225, 9.999146 
1.5350522e+3, 2.552257e+2, -200144.77, -413302.4, 11628.222, -0.13496566, -0.12792677, -199512.3, 239265.11, 0.0000004707298, 10.002025, 9.999179 
1.5350543e+3, 2.652238e+2, -166341.81, -544387.6, -49529.35, -0.10721884, -0.13480423, -159960.48, 180832.11, 0.0000086272985, 10.002418, 9.997426 
1.5350565e+3, 2.7522165e+2, -58566.1, -424692.5, -39668.996, 0.010295351, -0.13471179, -54317.36, 188498.31, 0.000052741245, 10.002431, 9.9975605 
1.535058e+3, 2.8521928e+2, 70542.875, -328929.7, -9124.254, 0.00024804976, -0.11571981, 70751.164, 215591.66, 0.00024875673, 10.00269, 9.997439 
1.5350588e+3, 2.9521674e+2, 257992.47, -171210.98, 18580.57, -0.13971421, -0.16144016, 258795.33, 305662.0, 0.0008280687, 10.003241, 9.997575 
1.5350598e+3, 3.052148e+2, 338972.66, -8770.141, -38125.195, -0.17227353, -0.1471255, 343103.5, 343103.5, 0.001889822, 10.003057, 9.998454 
1.5350614e+3, 3.152141e+2, 151637.5, -119314.234, 11119.125, -0.085015245, -0.112297915, 152093.03, 152093.03, 0.003290945, 10.001822, 9.998277 
1.5450366e+3, 1.2522893e+2, -2149156.0, -1966061.1, 114702.305, -0.14303668, -0.015063501, -1910851.8, -198106.81, 0.019406972, 9.997161, 9.999611 
1.5450364e+3, 1.3522696e+2, -1801159.3, -1829476.3, -64065.703, -0.13074473, -0.14103612, -1749706.3, -134933.72, 0.0117135905, 9.999236, 9.998893 
1.5450364e+3, 1.452269e+2, -1547372.9, -1441870.6, -15555.368, -0.085589096, -0.11870475, -1439625.0, 77150.52, 0.0052204016, 9.999383, 10.0008135 
1.5450372e+3, 1.5522866e+2, -1513887.3, -1337476.1, -71102.51, -0.04977527, -0.08067937, -1312386.5, 106368.7, 0.0014059248, 9.998772, 10.001156 
1.5450385e+3, 1.6522986e+2, -1495299.3, -1335919.9, -40281.48, -0.020188862, -0.042322256, -1326317.6, -5576.1753, 0.00014487762, 9.998505, 10.000597 
1.5450399e+3, 1.7523065e+2, -1352686.6, -1211421.1, -56144.445, -0.04331344, -0.059257038, -1191825.4, 30907.33, 0.000001197513, 9.998784, 10.000646 
1.5450406e+3, 1.8523072e+2, -1216114.4, -1203690.8, -74139.93, -0.072382845, -0.060958706, -1135502.9, -10771.662, 0.0, 9.999516, 9.999681 
1.5450412e+3, 1.952301e+2, -915979.44, -992335.44, -83063.2, -0.09486316, -0.12743856, -862740.5, 163995.9, 0.0, 10.000841, 9.999818 
1.5450433e+3, 2.0523009e+2, -811704.5, -981245.4, 1057.6469, -0.079770915, -0.06588981, -811697.9, 117038.97, 0.0, 10.001261, 9.999025 
1.5450466e+3, 2.1523058e+2, -759244.94, -896612.3, -20287.979, -0.03906894, 0.049244553, -756311.25, 74421.8, 0.0, 10.000918, 9.999095 
1.5450493e+3, 2.252294e+2, -704604.0, -921900.56, -39999.38, 0.007812021, 0.07638549, -697474.94, 35270.305, 0.0, 10.001059, 9.998181 
1.5450512e+3, 2.352266e+2, -508387.7, -759633.2, -7813.8877, 0.057108965, -0.056991186, -508144.9, 126627.95, 0.0, 10.00167, 9.9983225 
1.5450527e+3, 2.4522462e+2, -354732.53, -623621.0, 43568.973, -0.007902912, -0.0879414, -347849.1, 188941.97, 0.000000000009610117, 10.001981, 9.998444 
1.5450539e+3, 2.552233e+2, -247414.9, -512650.9, -18522.658, -0.17427085, -0.097985595, -246127.63, 192673.73, 0.0000005675007, 10.002013, 9.998516 
1.5450561e+3, 2.6522148e+2, -205360.86, -529871.44, -83741.04, -0.12970719, -0.087154455, -185025.52, 155792.67, 0.000008574752, 10.002018, 9.997721 
1.5450595e+3, 2.7521893e+2, -93317.336, -418068.13, -79048.62, 0.09403507, -0.14459908, -75098.016, 167744.78, 0.00005426492, 10.002073, 9.997793 
1.545061e+3, 2.8521675e+2, -23746.621, -347354.03, -15983.961, 0.070861235, -0.13090593, -22959.041, 121906.14, 0.00026286932, 10.001953, 9.9976425 
1.5450606e+3, 2.9521483e+2, 44037.004, -256596.97, -25544.807, -0.19748113, -0.12830317, 46192.094, 93077.44, 0.0008684361, 10.001706, 9.997714 
1.545062e+3, 3.052123e+2, 299769.63, 9288.642, -51963.62, -0.22590333, -0.20093317, 308785.47, 308785.47, 0.0019566913, 10.002623, 9.998793 
1.5450653e+3, 3.1521228e+2, 567090.8, 124830.516, -63640.53, -0.0038774959, -0.12016602, 576066.44, 576066.44, 0.0033753177, 10.004479, 9.998693 
1.5550327e+3, 1.2522356e+2, -2072033.0, -1827900.3, 35657.496, -0.31553215, -0.2658882, -1822798.8, -110004.87, 0.020587768, 9.997247, 10.000523 
1.5550345e+3, 1.3522679e+2, -1679674.5, -1556011.5, -2683.3926, -0.28102645, -0.051390484, -1555953.4, 58815.895, 0.012455585, 9.999149, 10.000816 
1.555038e+3, 1.4522909e+2, -1630406.9, -1622710.5, -61431.516, 0.08488016, 0.16545713, -1565006.8, -48256.055, 0.0055746003, 9.999412, 9.9995575 
1.5550353e+3, 1.5522723e+2, -1619419.8, -1549010.0, -81003.586, -0.12937255, -0.015821967, -1495891.8, -77121.805, 0.001515748, 9.998752, 9.999707 
1.5550351e+3, 1.6522674e+2, -1489311.9, -1342373.6, -43205.156, -0.23278286, -0.06923323, -1330611.4, -9837.627, 0.00016035176, 9.998575, 10.0005245 
1.5550375e+3, 1.7522761e+2, -1360515.0, -1219132.5, -38385.836, -0.17187534, -0.070948355, -1209382.9, 13379.295, 0.0000013687348, 9.998748, 10.000612 
1.5550397e+3, 1.8522766e+2, -1217581.4, -1203013.9, -37278.258, -0.14001116, -0.07388016, -1172314.4, -47555.664, 0.0, 9.999501, 9.999692 
1.5550418e+3, 1.9522686e+2, -932555.75, -1003605.7, -23722.752, -0.15444995, -0.15692525, -925363.1, 101400.734, 0.0, 10.000749, 9.9997835 
1.5550439e+3, 2.052259e+2, -835866.6, -1014699.06, -25179.01, -0.1630861, -0.1759945, -832389.1, 96383.44, 0.0, 10.001177, 9.998843 
1.5550466e+3, 2.152248e+2, -787226.1, -925993.25, -21170.928, -0.15136506, -0.20426014, -784068.06, 46716.67, 0.0, 10.000783, 9.998966 
1.5550494e+3, 2.2522376e+2, -646203.75, -762843.4, -27411.365, -0.1003099, -0.2172892, -640083.06, 92709.84, 0.0, 10.000894, 9.999352 
1.5550524e+3, 2.3522273e+2, -453451.88, -614634.8, 26488.635, -0.01150057, -0.29068682, -449210.38, 185587.83, 0.0, 10.001532, 9.999388 
1.5550545e+3, 2.4522164e+2, -477658.3, -838410.2, 34429.332, -0.044876542, -0.2121541, -474401.88, 62409.313, 0.0, 10.001805, 9.997053 
1.555056e+3, 2.5522044e+2, -362567.0, -714871.06, -5443.5723, -0.16829057, -0.078203365, -362482.9, 76349.125, 0.0000005355393, 10.001857, 9.997201 
1.555058e+3, 2.652186e+2, -192142.83, -469198.88, -89141.305, -0.15980488, -0.026876166, -165940.2, 174912.17, 0.000008556659, 10.001871, 9.998209 
1.5550606e+3, 2.7521622e+2, -82036.65, -361211.94, -59115.313, -0.03471915, -0.12447084, -70034.945, 172837.6, 0.000056489618, 10.001933, 9.998246 
1.5550622e+3, 2.852145e+2, -47179.09, -360681.2, -35015.96, -0.021853121, -0.080273226, -43315.668, 101572.875, 0.00027893353, 10.001801, 9.997625 
1.5550634e+3, 2.9521334e+2, 23365.348, -260986.61, -15746.608, -0.10992822, -0.0106330495, 24234.693, 71136.46, 0.00091525615, 10.001549, 9.997754 
1.5550655e+3, 3.052099e+2, 269649.6, 2435.0593, 6272.479, -0.15052478, -0.17547493, 269796.75, 269796.75, 0.0020505092, 10.002407, 9.9988365 
1.5550688e+3, 3.1520912e+2, 555656.5, 207216.45, 44887.445, -0.13746454, -0.1882961, 561346.2, 561346.2, 0.0035280038, 10.004074, 9.99943 
1.5650307e+3, 1.2522082e+2, -2178001.0, -1830647.5, 3644.0977, -0.19261655, -0.23420337, -1830609.4, -117786.75, 0.021849003, 9.996326, 10.000957 
1.5650329e+3, 1.3522436e+2, -1745022.5, -1483568.8, -31778.406, -0.30577016, -0.074088596, -1479761.6, 135029.0, 0.013250772, 9.998246, 10.00177 
1.5650374e+3, 1.452266e+2, -1646840.4, -1656720.3, -139793.97, 0.09233274, 0.0985111, -1511899.1, 4872.29, 0.0059556314, 9.99943, 9.999311 
1.5650345e+3, 1.5522498e+2, -1473901.6, -1516742.4, -104996.08, -0.12931374, -0.027052196, -1388163.1, 30626.902, 0.0016345053, 9.999925, 9.999355 
1.5650344e+3, 1.6522428e+2, -1305075.4, -1304157.0, -6841.157, -0.23266451, -0.060436722, -1297759.6, 23037.268, 0.00017771397, 10.000049, 10.00009 
1.5650374e+3, 1.7522454e+2, -1183673.8, -1180111.0, -45750.45, -0.11926025, -0.078280054, -1136107.3, 86684.74, 0.0000016137079, 10.000145, 10.000219 
1.5650402e+3, 1.8522431e+2, -1150553.3, -1174243.8, -24335.035, -0.061591353, -0.09100428, -1135333.8, -10542.501, 0.0, 9.999975, 9.999661 
1.5650423e+3, 1.952235e+2, -1079208.9, -1080819.9, -34262.027, -0.10813069, -0.17180207, -1045742.9, -18947.68, 0.0, 9.999755, 9.999737 
1.5650447e+3, 2.0522246e+2, -1025096.1, -1074877.9, -19263.953, -0.12774204, -0.21012613, -1018512.3, -89708.51, 0.0, 9.999769, 9.999091 
1.5650475e+3, 2.1522124e+2, -851176.6, -923363.25, -5797.897, -0.11141328, -0.27681708, -850713.94, -19897.686, 0.0, 10.000227, 9.999232 
1.5650505e+3, 2.2522041e+2, -643583.56, -740266.7, 10991.806, -0.07993923, -0.29140872, -642349.7, 90472.164, 0.0, 10.00081, 9.999549 
1.5650536e+3, 2.3521988e+2, -441980.22, -584657.8, -24745.713, -0.037498984, -0.3369216, -437810.25, 197012.03, 0.0, 10.001492, 9.999611 
1.5650561e+3, 2.4521922e+2, -477851.97, -820677.3, 4730.9263, -0.04406817, -0.23414627, -477786.72, 59044.934, 0.0, 10.001721, 9.99722 
1.5650584e+3, 2.5521842e+2, -392080.03, -708549.44, 55883.258, -0.10056803, -0.07281657, -382501.84, 56347.793, 0.00000039469393, 10.001568, 9.997382 
1.5650606e+3, 2.652166e+2, -180485.39, -475183.38, 39758.246, -0.10367313, -0.02623353, -175215.77, 165654.81, 0.000008163994, 10.002009, 9.9980955 
1.5650626e+3, 2.752137e+2, 58684.387, -305782.2, -3171.24, -0.06609342, -0.16077888, 58711.98, 301607.3, 0.000058543963, 10.002959, 9.998129 
1.5650648e+3, 2.8521192e+2, 203366.27, -243255.27, 6650.1646, -0.02627653, -0.11468592, 203465.27, 348376.84, 0.00029613846, 10.003524, 9.997621 
1.5650672e+3, 2.9521114e+2, 343333.4, -112814.19, -9959.975, 0.0136923725, 0.002767543, 343550.78, 390471.38, 0.00096595153, 10.003759, 9.997724 
1.5650696e+3, 3.052072e+2, 380898.4, -27482.918, 29717.318, -0.033149414, -0.17626427, 383049.56, 383049.56, 0.0021626693, 10.003499, 9.998108 
1.5650721e+3, 3.1520516e+2, 347962.25, 77331.09, -25379.059, -0.13337788, -0.23895933, 350321.66, 350321.66, 0.0037320128, 10.002686, 9.999229 
1.5750277e+3, 1.2522008e+2, -2162291.8, -1816260.5, -78316.35, -0.16947165, 0.0009342198, -1799360.6, -86523.85, 0.023204513, 9.996383, 10.001038 
1.5750314e+3, 1.3522035e+2, -1760676.9, -1506672.6, 54129.434, -0.29950288, -0.15544017, -1495618.4, 119211.16, 0.014108494, 9.998219, 10.001617 
1.5750344e+3, 1.4521983e+2, -1583262.4, -1550657.5, -135277.3, -0.17501538, -0.2858156, -1430703.9, 86129.625, 0.0063687824, 9.999528, 10.000001 
1.5750347e+3, 1.5522186e+2, -1434875.1, -1427297.6, -81545.98, -0.13595088, -0.10966328, -1349452.4, 69363.14, 0.00176415, 9.999888, 9.999989 
1.5750358e+3, 1.6522247e+2, -1351060.6, -1404491.3, -19084.742, -0.1258005, -0.010540263, -1344944.0, -24132.932, 0.00019721544, 10.000066, 9.9993925 
1.575039e+3, 1.7522155e+2, -1238970.0, -1286400.4, -32059.58, 0.014021439, -0.077114664, -1222807.6, 13.527459, 0.0000019795527, 10.000113, 9.999503 
1.5750416e+3, 1.8522078e+2, -1145710.4, -1177967.1, -44433.02, 0.050520062, -0.10575924, -1114569.1, 10257.841, 0.0, 10.000023, 9.999617 
1.5750429e+3, 1.9522014e+2, -1092772.8, -1093726.0, -33602.5, -0.048627764, -0.16255783, -1059643.5, -32814.445, 0.0, 9.999687, 9.999683 
1.5750453e+3, 2.0521984e+2, -993086.1, -991563.25, -12876.151, -0.07847718, -0.15658316, -979426.06, -50596.727, 0.0, 9.999688, 9.9997015 
1.5750487e+3, 2.1521977e+2, -834183.94, -853976.06, 20389.596, -0.019824753, -0.1685916, -821415.75, 9412.751, 0.0, 10.000081, 9.999779 
1.5750518e+3, 2.2521918e+2, -712211.6, -846936.2, 27821.893, -0.035357073, -0.1546538, -706692.25, 26141.383, 0.0, 10.000653, 9.998891 
1.5750544e+3, 2.35218e+2, -510690.84, -686356.06, 9642.773, -0.114841774, -0.19844726, -510163.1, 124682.07, 0.0, 10.001317, 9.998996 
1.5750574e+3, 2.4521743e+2, -390381.75, -597000.9, -12882.261, -0.11632937, -0.14302994, -389581.66, 147270.1, 0.0, 10.001536, 9.998843 
1.5750605e+3, 2.552173e+2, -304238.03, -495629.3, 60843.406, -0.05214087, -0.07699858, -286533.6, 152320.78, 0.00000029448665, 10.001434, 9.998906 
1.5750633e+3, 2.6521534e+2, -256723.17, -603664.5, 66463.06, -0.049357474, -0.07845575, -244426.75, 96447.28, 0.000007127328, 10.001875, 9.997283 
1.5750653e+3, 2.7521133e+2, -12949.515, -422406.16, 47447.535, -0.10730248, -0.24424046, -7523.2397, 235388.39, 0.000059012113, 10.002822, 9.997395 
1.5750681e+3, 2.8520894e+2, 175359.5, -273919.1, 3309.1401, -0.06529019, -0.2186589, 175383.88, 320318.4, 0.00030982727, 10.003399, 9.997471 
1.5750718e+3, 2.952083e+2, 299938.75, -159383.42, 17796.34, 0.06903579, -0.07707101, 300627.25, 347568.66, 0.0010138974, 10.0035715, 9.997494 
1.5750737e+3, 3.0520415e+2, 246265.1, -247639.64, -9204.289, 0.0065716784, -0.1894224, 246436.56, 246436.56, 0.0022779866, 10.003271, 9.996687 
1.5750745e+3, 3.152002e+2, 220215.44, -83881.484, -4050.8777, -0.2179066, -0.31446493, 220269.39, 220269.39, 0.003951804, 10.002284, 9.998284 
1.585025e+3, 1.2521738e+2, -1919421.8, -1630185.0, -14957.315, -0.138713, 0.030320147, -1629413.6, 83453.37, 0.024665277, 9.997748, 10.001658 
1.5850298e+3, 1.352177e+2, -1886555.4, -1576053.5, 99088.71, -0.22994852, -0.11767408, -1547126.8, 67728.74, 0.0150364665, 9.997392, 10.001528 
1.585032e+3, 1.4521632e+2, -1811418.1, -1602630.3, -82985.72, -0.27298513, -0.35649127, -1573664.8, -56799.74, 0.0068181083, 9.99772, 10.000508 
1.5850346e+3, 1.5521868e+2, -1585993.1, -1446139.9, -71361.95, -0.06405672, -0.19545469, -1416155.3, 2686.4248, 0.0019058621, 9.9986105, 10.000478 
1.5850368e+3, 1.6521952e+2, -1482764.4, -1510212.3, 12450.576, 0.0000008026398, -0.07726716, -1477958.3, -157123.19, 0.0002187055, 9.9993515, 9.999005 
1.5850398e+3, 1.7521863e+2, -1242511.0, -1324132.6, -299.82886, 0.07268474, -0.10574373, -1242509.9, -19662.943, 0.000002466339, 10.00026, 9.999162 
1.5850425e+3, 1.8521775e+2, -1063341.0, -1158485.3, -5592.612, 0.10627196, -0.116366856, -1063013.4, 61841.973, 0.0, 10.000685, 9.999429 
1.5850441e+3, 1.9521695e+2, -926446.0, -1030091.56, -25568.451, 0.042415578, -0.17233522, -920481.7, 106378.54, 0.0, 10.000902, 9.99953 
1.5850465e+3, 2.0521663e+2, -797310.2, -911353.56, 411.55765, 0.010349581, -0.15621679, -797308.7, 131551.89, 0.0, 10.001074, 9.9996 
1.58505e+3, 2.1521658e+2, -663085.5, -786462.1, -37470.9, 0.03219041, -0.15360452, -652596.9, 178261.42, 0.0, 10.001281, 9.999684 
1.5850529e+3, 2.2521588e+2, -655353.6, -836166.06, -17949.158, -0.0049351696, -0.13702165, -653589.0, 79275.53, 0.0, 10.001133, 9.99874 
1.5850556e+3, 2.3521459e+2, -584956.06, -740717.1, -22771.582, -0.105806515, -0.17322452, -581695.25, 53183.547, 0.0, 10.00089, 9.998843 
1.585059e+3, 2.4521382e+2, -392231.56, -562320.3, -48454.47, -0.104244344, -0.1412401, -379396.53, 157490.0, 0.0, 10.001402, 9.999127 
1.585063e+3, 2.5521356e+2, -105580.96, -371549.97, -101649.734, -0.019904088, -0.11774569, -71181.04, 367707.4, 0.00000023115544, 10.0026865, 9.999146 
1.585066e+3, 2.6521164e+2, -90116.61, -501004.6, -97806.68, -0.008761267, -0.12977175, -68022.95, 272883.3, 0.0000061293663, 10.002933, 9.997468 
1.5850683e+3, 2.7520806e+2, -66048.84, -423612.22, -72480.54, -0.06938162, -0.2723101, -51915.21, 191025.08, 0.000060026516, 10.00237, 9.997591 
1.5850712e+3, 2.8520563e+2, 24467.475, -373719.84, -56407.027, -0.05514084, -0.25064546, 32303.846, 177267.9, 0.0003212461, 10.002485, 9.997218 
1.5850745e+3, 2.9520437e+2, 221338.92, -222194.75, -83411.09, 0.023102837, -0.14391059, 236506.55, 283483.34, 0.0010568721, 10.003128, 9.997272 
1.585077e+3, 3.0520067e+2, 265605.56, -274241.7, -64250.715, 0.0119493995, -0.1901319, 273147.13, 273147.13, 0.0023826924, 10.003519, 9.996424 
1.5850785e+3, 3.1519657e+2, 394666.06, -21680.191, -27079.506, -0.088476, -0.28767636, 396419.94, 396419.94, 0.004144855, 10.003554, 9.998136 
1.595023e+3, 1.2521407e+2, -1823242.5, -1469101.3, 64750.363, -0.1765663, -0.043336645, -1457633.8, 255266.13, 0.026239868, 9.997868, 10.002747 
1.5950279e+3, 1.3521633e+2, -1898920.8, -1598339.3, 102460.24, -0.17232662, 0.01277981, -1566736.0, 48133.086, 0.016040104, 9.997378, 10.001376 
1.5950297e+3, 1.4521599e+2, -1775003.5, -1558543.0, -63468.188, -0.31880847, -0.123558484, -1541306.1, -24439.844, 0.0073062, 9.997833, 10.000765 
1.595034e+3, 1.552156e+2, -1561364.5, -1403435.4, -29524.756, -0.008863761, -0.27222183, -1398096.1, 20770.111, 0.002060233, 9.998633, 10.000766 
1.5950367e+3, 1.6521569e+2, -1480999.1, -1520436.4, 29883.813, 0.042230785, -0.237084, -1464914.6, -144048.63, 0.00024185247, 9.99941, 9.998907 
1.5950394e+3, 1.7521589e+2, -1255857.4, -1344249.3, 40920.176, -0.01787189, -0.14684607, -1239822.5, -16954.166, 0.0000030340082, 10.00023, 9.999038 
1.5950425e+3, 1.8521526e+2, -1080671.6, -1198483.5, -10740.347, 0.006837961, -0.11402939, -1079700.5, 45175.688, 0.0, 10.000699, 9.999146 
1.5950455e+3, 1.9521394e+2, -962264.2, -1082294.9, -6805.5654, 0.07234605, -0.19428602, -961879.56, 65008.91, 0.0, 10.0008135, 9.999211 
1.5950482e+3, 2.0521285e+2, -865477.8, -1031609.2, -2475.18, 0.039677553, -0.19847591, -865440.94, 63456.254, 0.0, 10.000982, 9.9988165 
1.5950505e+3, 2.1521184e+2, -744208.8, -907649.4, -21935.012, -0.048711013, -0.21876511, -741316.1, 89587.87, 0.0, 10.001089, 9.9989395 
1.5950535e+3, 2.2521082e+2, -660037.56, -808237.7, -38403.74, -0.09204175, -0.21291724, -650677.06, 82234.96, 0.0, 10.000961, 9.999017 
1.5950567e+3, 2.3520976e+2, -595664.1, -723035.9, -15787.213, -0.102681406, -0.25251472, -593736.56, 41185.06, 0.0, 10.000717, 9.999047 
1.5950605e+3, 2.4520858e+2, -500174.25, -742570.1, -6291.209, -0.11143871, -0.214248, -500011.1, 36923.38, 0.0, 10.001216, 9.997976 
1.595065e+3, 2.5520718e+2, -210720.73, -538077.06, -42090.57, -0.10087199, -0.19197439, -205395.47, 233555.7, 0.00000009760233, 10.002479, 9.998095 
1.5950684e+3, 2.6520562e+2, -39699.043, -362269.34, -130664.8, -0.07618549, -0.1693566, 6587.934, 347554.34, 0.0000054247644, 10.002777, 9.998499 
1.5950711e+3, 2.7520394e+2, -21505.623, -293877.06, -77793.99, -0.04901463, -0.23256624, -852.3964, 242128.2, 0.0000627863, 10.002205, 9.998561 
1.5950733e+3, 2.852018e+2, -26532.014, -438097.38, -42803.895, -0.10511094, -0.20997955, -22127.432, 122873.945, 0.0003316825, 10.002304, 9.996865 
1.5950753e+3, 2.951991e+2, 173934.56, -274986.28, -40279.723, -0.2439231, -0.21538316, 177520.05, 224549.44, 0.0010852148, 10.002931, 9.997008 
1.5950792e+3, 3.0519643e+2, 278547.53, -184826.63, -75222.76, -0.14222719, -0.17559871, 290453.1, 290453.1, 0.0024471504, 10.003277, 9.997145 
1.5950839e+3, 3.1519434e+2, 362809.7, 12110.939, 16285.797, 0.052300386, -0.14554013, 363564.34, 363564.34, 0.004255502, 10.003165, 9.998544 
1.6050197e+3, 1.2521034e+2, -1876634.3, -1536757.1, 93052.836, -0.26064697, -0.064287804, -1512948.6, 199981.52, 0.027939666, 9.997731, 10.002329 
1.6050272e+3, 1.3521188e+2, -1826217.4, -1595753.1, 5368.9385, -0.022738103, -0.043479227, -1595628.1, 19281.537, 0.01712635, 9.998044, 10.001063 
1.6050299e+3, 1.4521194e+2, -1627917.9, -1489844.9, -102079.42, -0.12490025, -0.121022545, -1435648.9, 81256.07, 0.007836914, 9.998884, 10.0007105 
1.6050333e+3, 1.5521175e+2, -1273891.5, -1259980.6, -127809.23, -0.033779696, -0.25207546, -1138937.8, 279965.88, 0.0022287087, 10.000611, 10.000778 
1.6050363e+3, 1.652119e+2, -1268685.3, -1371543.4, -86573.75, -0.008767261, -0.23307268, -1219416.9, 101484.98, 0.00026665046, 10.000673, 9.999316 
1.6050397e+3, 1.7521212e+2, -1323383.1, -1332614.5, -58514.53, 0.022806242, -0.18015105, -1269302.5, -46400.234, 0.0000036433328, 9.999569, 9.999441 
1.605043e+3, 1.8521166e+2, -1264914.9, -1327518.1, -44227.5, 0.04627728, -0.13220368, -1242032.9, -117124.055, 0.0, 9.9996, 9.998793 
1.6050458e+3, 1.952105e+2, -971288.3, -1123798.4, -68744.98, 0.022547731, -0.16243565, -944875.44, 82046.37, 0.0, 10.000895, 9.998889 
1.6050488e+3, 2.0520908e+2, -814272.6, -1019591.94, -44627.313, 0.0032528301, -0.17695676, -804992.1, 123942.17, 0.0, 10.001405, 9.998694 
1.605052e+3, 2.1520738e+2, -715177.06, -904921.9, -39371.047, -0.0021473097, -0.25037616, -707332.1, 123614.34, 0.0, 10.001352, 9.998828 
1.6050555e+3, 2.2520594e+2, -604627.56, -818873.7, -35145.67, -0.013107632, -0.26247826, -599009.5, 133948.61, 0.0, 10.001506, 9.998671 
1.6050585e+3, 2.3520476e+2, -440973.4, -677787.7, -82977.75, -0.045598194, -0.28386822, -414793.0, 220176.11, 0.0, 10.001916, 9.998759 
1.6050622e+3, 2.452032e+2, -452034.28, -736889.44, -29579.78, -0.079227746, -0.26327056, -448995.1, 87990.305, 0.0, 10.001609, 9.997843 
1.6050665e+3, 2.552012e+2, -478664.53, -684471.3, -9822.011, -0.09581043, -0.28114262, -478196.84, -39189.508, 0.000000007673713, 10.000694, 9.997968 
1.6050705e+3, 2.651999e+2, -301393.8, -483210.22, -72007.52, -0.058813687, -0.23136817, -276330.53, 64690.72, 0.0000049768487, 10.000959, 9.998548 
1.6050738e+3, 2.7519923e+2, -6140.291, -287572.47, -128731.01, 0.013938162, -0.1883168, 43859.875, 286887.63, 0.00006482946, 10.002298, 9.998578 
1.6050765e+3, 2.8519732e+2, 110971.71, -324475.47, -66188.234, -0.03867528, -0.16468066, 120810.08, 265856.22, 0.00033743004, 10.003025, 9.997303 
1.6050786e+3, 2.951942e+2, 260931.89, -180782.67, -41053.957, -0.20934896, -0.25477198, 264715.13, 311790.78, 0.001089985, 10.003303, 9.997475 
1.6050832e+3, 3.05192e+2, 343495.97, -172374.66, -52616.5, -0.07703457, -0.18978477, 348807.9, 348807.9, 0.0024499798, 10.00381, 9.996956 
1.6050884e+3, 3.151899e+2, 499870.34, 11804.802, -86142.875, 0.13493599, -0.13882452, 514628.22, 514628.22, 0.0042540967, 10.00437, 9.997953 
1.6150162e+3, 1.2520562e+2, -2003847.5, -1841647.9, 91221.0, -0.45816484, -0.0994582, -1800688.5, -87725.1, 0.02978273, 9.997901, 10.000132 
1.6150267e+3, 1.352049e+2, -1863012.4, -1673175.9, 19880.115, 0.10837077, -0.24833898, -1671116.4, -56144.246, 0.018308382, 9.998045, 10.000536 
1.6150323e+3, 1.4520456e+2, -1641652.6, -1536880.3, -49394.11, 0.18329757, -0.31960914, -1517265.9, -288.93472, 0.008418617, 9.998957, 10.000352 
1.6150323e+3, 1.5520708e+2, -1301267.5, -1314132.3, -56367.574, -0.23137604, -0.13832766, -1250966.5, 167987.2, 0.0024150687, 10.000602, 10.00041 
1.6150348e+3, 1.6520803e+2, -1184583.0, -1224655.4, -146413.47, -0.26091313, -0.072783425, -1056841.1, 264102.72, 0.0002938315, 10.000775, 10.000282 
1.6150403e+3, 1.7520732e+2, -1259954.9, -1203903.0, -90749.91, 0.10820468, -0.20682128, -1136950.0, 85998.28, 0.000004294035, 9.999567, 10.000332 
1.6150436e+3, 1.8520689e+2, -1294499.9, -1393665.6, -8562.901, 0.12098454, -0.17350286, -1293765.9, -168812.5, 0.0, 9.999624, 9.998323 
1.6150446e+3, 1.9520667e+2, -1013339.9, -1195295.6, -11873.143, -0.19723214, -0.066951275, -1012568.4, 14391.39, 0.0, 10.000832, 9.998428 
1.6150483e+3, 2.0520541e+2, -793970.56, -952499.06, -61888.863, -0.20605168, -0.06807721, -772671.1, 156299.5, 0.0, 10.001296, 9.999205 
1.6150546e+3, 2.1520323e+2, -703546.75, -848285.7, -31932.186, 0.08773256, -0.2425917, -696815.0, 134170.47, 0.0, 10.001215, 9.999279 
1.6150586e+3, 2.2520126e+2, -702601.0, -977032.3, -31092.775, 0.13806672, -0.27890846, -699122.3, 33880.293, 0.0, 10.001315, 9.997675 
1.6150607e+3, 2.3519947e+2, -535282.4, -827778.75, -55945.785, -0.036812488, -0.26584476, -524946.8, 110075.45, 0.0, 10.001726, 9.997819 
1.6150635e+3, 2.4519756e+2, -413682.47, -622378.56, -76824.36, -0.11982136, -0.27552778, -388452.38, 148588.06, 0.0, 10.00145, 9.998709 
1.6150673e+3, 2.5519565e+2, -444541.78, -577371.6, -28554.201, -0.10666154, -0.38150573, -438663.66, 393.3383, 0.00000000987263, 10.000538, 9.9987755 
1.6150716e+3, 2.6519442e+2, -406396.8, -654363.5, -33462.414, -0.06395399, -0.30667728, -401960.53, -60889.64, 0.000004852571, 10.000764, 9.997463 
1.6150764e+3, 2.7519375e+2, -106192.82, -447207.8, -61170.582, 0.007084156, -0.15871285, -95552.19, 147531.69, 0.00006465758, 10.002111, 9.9975605 
1.6150805e+3, 2.8519216e+2, 165131.86, -174758.53, -70235.016, 0.027552852, -0.106591895, 179073.38, 324172.2, 0.0003366383, 10.002858, 9.998416 
1.6150844e+3, 2.9518986e+2, 310279.0, -35361.375, -11501.126, 0.0006364909, -0.23540483, 310661.25, 357775.84, 0.0010765177, 10.003115, 9.998569 
1.6150889e+3, 3.0518705e+2, 235436.31, -336165.97, -45083.977, 0.071016796, -0.2313556, 238970.36, 238970.36, 0.0024046022, 10.0035715, 9.995928 
1.6150911e+3, 3.1518385e+2, 328397.94, -227849.45, -24731.719, -0.07408973, -0.19427343, 329495.4, 329495.4, 0.004159517, 10.003921, 9.9964905 
1.6250156e+3, 1.2519848e+2, -2122094.5, -1973738.4, 60128.785, -0.26035005, -0.28689405, -1952429.0, -239405.6, 0.03179242, 9.997409, 9.999444 
1.6250247e+3, 1.3519904e+2, -1678936.1, -1589665.0, 14799.336, 0.048460353, -0.31074208, -1587275.5, 27747.773, 0.019603958, 9.999305, 10.000501 
1.625031e+3, 1.451988e+2, -1651653.6, -1543284.6, -28108.848, 0.16983055, -0.36888498, -1536427.5, -19397.863, 0.009062119, 9.998907, 10.000332 
1.6250317e+3, 1.5520163e+2, -1758765.1, -1528220.3, -20714.418, -0.18908203, -0.15832482, -1526373.9, -107368.54, 0.002624408, 9.99744, 10.0004635 
1.6250347e+3, 1.6520281e+2, -1580344.6, -1403828.3, -84203.36, -0.19995072, -0.07797667, -1370104.0, -49109.996, 0.00032476612, 9.998024, 10.000371 
1.6250405e+3, 1.7520213e+2, -1102732.8, -1113315.4, -118056.99, 0.11367386, -0.21997778, -989848.56, 233149.1, 0.000005034694, 10.000598, 10.000445 
1.6250439e+3, 1.8520147e+2, -1012606.4, -1252853.3, -31130.674, 0.108242996, -0.21867263, -1008638.06, 116365.78, 0.0, 10.001543, 9.998368 
1.6250455e+3, 1.9520083e+2, -957086.5, -1155022.6, -15848.56, -0.2001302, -0.15953992, -955825.56, 71186.37, 0.0, 10.001176, 9.998534 
1.6250494e+3, 2.0519975e+2, -861625.25, -1009996.1, -71765.77, -0.20229724, -0.13902634, -832593.44, 96428.336, 0.0, 10.0009365, 9.998983 
1.6250554e+3, 2.1519813e+2, -766490.56, -903352.06, -116493.56, 0.08107787, -0.23334925, -699815.75, 131218.69, 0.0, 10.000879, 9.999068 
1.62506e+3, 2.2519642e+2, -714911.6, -957128.0, -56805.836, 0.15914956, -0.24492157, -702251.0, 30799.164, 0.0, 10.001107, 9.997914 
1.625063e+3, 2.3519456e+2, -533210.6, -804784.8, -15739.694, 0.03254712, -0.25815168, -532301.44, 102767.79, 0.0, 10.001628, 9.998032 
1.6250658e+3, 2.4519293e+2, -359871.0, -608454.0, -43280.8, -0.052723557, -0.2476225, -352550.94, 184534.45, 0.0, 10.001875, 9.998591 
1.6250683e+3, 2.5519145e+2, -248581.5, -498186.5, -97304.18, -0.117116, -0.2951763, -215131.77, 223967.44, 0.000000011745934, 10.001939, 9.998645 
1.6250728e+3, 2.6518983e+2, -246173.77, -571776.94, -31958.908, -0.057466388, -0.25794244, -243066.56, 98049.92, 0.0000048598445, 10.0018425, 9.99751 
1.6250792e+3, 2.7518797e+2, -172022.3, -476346.6, -4542.5234, 0.11878427, -0.23016489, -171954.5, 71183.48, 0.00006306325, 10.001636, 9.99759 
1.625084e+3, 2.8518626e+2, 832.0185, -253879.88, 4811.286, 0.14987704, -0.19139166, 922.8671, 146076.94, 0.00033149842, 10.001754, 9.998394 
1.6250873e+3, 2.9518467e+2, 187000.89, -97532.32, -65034.223, 0.027903417, -0.24028775, 201160.75, 248326.11, 0.0010551804, 10.002285, 9.998537 
1.625092e+3, 3.051821e+2, 130756.016, -319343.97, -54575.945, 0.097024746, -0.24434157, 137278.97, 137278.97, 0.0023358958, 10.00254, 9.996561 
1.625095e+3, 3.1518018e+2, 145654.1, -274906.25, 21747.633, 0.018043118, -0.1290764, 146775.69, 146775.69, 0.004008395, 10.002412, 9.996938 
1.6350165e+3, 1.251893e+2, -2040065.8, -1822191.9, -1586.6392, 0.015770787, -0.6133023, -1822180.3, -109074.055, 0.03398967, 9.997485, 10.000446 
1.6350208e+3, 1.3519427e+2, -1656090.8, -1541136.5, 78954.38, -0.28583226, -0.23482816, -1500953.9, 114109.45, 0.02102759, 9.999303, 10.000842 
1.6350257e+3, 1.4519458e+2, -1604422.8, -1474810.5, -111855.91, -0.2780556, -0.27292252, -1410343.4, 106720.96, 0.009775217, 9.999017, 10.000762 
1.635031e+3, 1.5519567e+2, -1724251.9, -1456155.6, -64640.902, -0.021556307, -0.2905403, -1441383.9, -22327.822, 0.002860367, 9.997437, 10.000961 
1.6350356e+3, 1.6519648e+2, -1628224.3, -1515249.8, 338.92084, 0.05967862, -0.2325974, -1515248.6, -194198.58, 0.00036087315, 9.998069, 9.99959 
1.6350396e+3, 1.7519656e+2, -1163334.4, -1231807.6, -18740.006, -0.045519326, -0.21253787, -1158541.1, 64509.293, 0.000005927034, 10.000567, 9.999647 
1.6350438e+3, 1.8519531e+2, -959542.9, -1151641.1, -59252.277, -0.09167869, -0.26557618, -942736.94, 182323.69, 0.0, 10.001575, 9.999051 
1.6350482e+3, 1.9519293e+2, -920944.1, -1066320.8, -21394.537, -0.07661851, -0.447559, -917861.0, 109217.89, 0.0, 10.001116, 9.999176 
1.6350518e+3, 2.051919e+2, -942332.9, -1154603.8, -85656.664, -0.08486279, -0.40494248, -912079.94, 17009.617, 0.0, 10.000835, 9.998042 
1.6350546e+3, 2.1519198e+2, -851909.2, -1048196.2, -106099.0, -0.10863455, -0.23480919, -805521.9, 25572.48, 0.0, 10.000732, 9.99815 
1.6350591e+3, 2.2519135e+2, -649635.6, -773609.1, -46166.24, -0.06294189, -0.16072601, -634332.8, 98768.49, 0.0, 10.0009, 9.999272 
1.6350652e+3, 2.3519012e+2, -466688.47, -624569.9, 14855.39, 0.06826773, -0.25268492, -465302.84, 169807.03, 0.0, 10.001449, 9.999353 
1.6350687e+3, 2.4518922e+2, -472562.88, -790950.0, -52877.01, 0.013207269, -0.17568667, -464010.9, 73109.71, 0.0, 10.001657, 9.997442 
1.6350694e+3, 2.5518855e+2, -348759.66, -666880.44, -81702.32, -0.2236108, -0.022637248, -329003.16, 110130.99, 0.000000006263202, 10.0017805, 9.997559 
1.6350742e+3, 2.6518616e+2, -185486.06, -419685.2, -50334.75, -0.14234024, -0.06745872, -175126.23, 166030.5, 0.000005059976, 10.001714, 9.998625 
1.6350822e+3, 2.7518207e+2, -116328.23, -328416.88, 7501.5947, 0.24242133, -0.38282508, -116063.23, 127125.016, 0.000060994436, 10.001488, 9.998681 
1.6350864e+3, 2.8517962e+2, -118050.78, -454920.0, 13179.92, 0.1966794, -0.4064473, -117535.91, 27675.62, 0.0003219481, 10.00157, 9.997096 
1.635087e+3, 2.9517862e+2, 65468.438, -297340.34, -21757.033, -0.2468166, -0.26509696, 66768.516, 113996.65, 0.0010249827, 10.002076, 9.997257 
1.6350926e+3, 3.0517706e+2, 243480.9, -26928.633, -72460.125, -0.12030064, -0.20777398, 261673.66, 261673.66, 0.0022521797, 10.0023, 9.998681 
1.6350998e+3, 3.1517878e+2, 267940.22, 71027.875, 42558.594, 0.21685198, 0.042255335, 276744.72, 276744.72, 0.0038299921, 10.002045, 9.999481 
1.6450159e+3, 1.2518331e+2, -1659121.1, -1626460.0, 26156.86, 0.090025015, -0.63763297, -1611954.5, 101209.516, 0.036383986, 10.000075, 10.00057 
1.6450192e+3, 1.3518837e+2, -1817484.3, -1586356.6, 51334.684, -0.32050765, -0.2708482, -1575467.9, 39649.92, 0.022584815, 9.998066, 10.001127 
1.6450226e+3, 1.4518881e+2, -1847224.4, -1600895.1, -117074.95, -0.39257783, -0.30577734, -1554130.1, -37013.688, 0.010560797, 9.997385, 10.000679 
1.6450302e+3, 1.551895e+2, -1462025.5, -1343211.9, -131076.55, 0.08730984, -0.3564759, -1258708.3, 160403.84, 0.0031241647, 9.999269, 10.000862 
1.645036e+3, 1.6519009e+2, -1375798.5, -1431025.1, -13143.944, 0.19833651, -0.30022502, -1372829.8, -51720.64, 0.0004029895, 9.999966, 9.999252 
1.6450389e+3, 1.7519027e+2, -1320772.0, -1349076.8, -18852.455, -0.114521086, -0.23408179, -1311351.0, -88240.445, 0.0000070009137, 9.999658, 9.999289 
1.6450436e+3, 1.8518914e+2, -1197397.4, -1239815.3, -70915.73, -0.17919244, -0.2678719, -1144587.0, -19466.852, 0.0, 9.9998455, 9.999266 
1.6450498e+3, 1.9518684e+2, -963713.5, -1062754.1, -93547.59, -0.0067869257, -0.46583235, -907387.7, 119749.07, 0.0, 10.000724, 9.99938 
1.6450538e+3, 2.0518568e+2, -884534.44, -1134519.0, -123792.266, 0.008038373, -0.4413228, -833607.44, 95540.83, 0.0, 10.001266, 9.99797 
1.6450554e+3, 2.1518557e+2, -735974.7, -992201.75, -101186.71, -0.13507439, -0.28788775, -700834.3, 130320.85, 0.0, 10.001543, 9.998129 
1.6450596e+3, 2.25185e+2, -575469.9, -725793.1, -39235.715, -0.12007381, -0.21222404, -565845.2, 167316.34, 0.0, 10.001361, 9.999387 
1.645066e+3, 2.3518394e+2, -555630.6, -656282.5, -93625.36, 0.049233656, -0.29317293, -499662.6, 135506.05, 0.0, 10.000789, 9.999463 
1.6450702e+3, 2.4518326e+2, -593680.3, -835511.56, -123494.99, 0.054721657, -0.20687447, -541761.9, -4584.2915, 0.0, 10.000768, 9.997564 
1.645072e+3, 2.551828e+2, -412288.13, -689530.94, -83584.305, -0.117000274, -0.04098841, -389038.5, 50150.73, 0.000000005166704, 10.001304, 9.997641 
1.6450767e+3, 2.6518044e+2, -160565.92, -393120.75, -29902.36, -0.05326604, -0.08928688, -156782.56, 184428.4, 0.000005473011, 10.001824, 9.998745 
1.645084e+3, 2.7517626e+2, 36661.62, -236552.92, -84759.875, 0.21604311, -0.427794, 60820.586, 304063.22, 0.000058881178, 10.002474, 9.998825 
1.6450879e+3, 2.8517416e+2, 45422.484, -366868.22, -37996.152, 0.13222869, -0.429623, 48894.91, 194157.94, 0.0003079229, 10.002652, 9.997187 
1.645089e+3, 2.9517394e+2, 90019.055, -279949.66, -2207.772, -0.2657239, -0.21169968, 90032.234, 137305.45, 0.0009850244, 10.002225, 9.997305 
1.6450952e+3, 3.051719e+2, 297896.9, -31107.572, -34847.477, -0.09548353, -0.1943468, 301547.38, 301547.38, 0.00216182, 10.002761, 9.9984455 
1.6451034e+3, 3.151728e+2, 572680.8, 250597.58, -171664.14, 0.2902313, -0.0044810087, 647017.56, 647017.56, 0.0036594307, 10.003996, 9.999776 
1.6550136e+3, 1.2518051e+2, -1694300.4, -1719024.6, 31221.887, -0.21818303, -0.35071182, -1673082.4, 40113.938, 0.03897044, 10.000174, 9.99986 
1.655019e+3, 1.3518168e+2, -1802420.0, -1554071.3, -37857.926, -0.16826066, -0.3938157, -1548428.5, 66754.72, 0.024272982, 9.998051, 10.001364 
1.6550213e+3, 1.451817e+2, -1884873.6, -1684296.0, -70611.12, -0.2962662, -0.4578533, -1661931.8, -144747.75, 0.0114189135, 9.997406, 10.000097 
1.6550294e+3, 1.5518323e+2, -1513918.6, -1449217.4, -52445.605, 0.04561317, -0.3513464, -1419947.4, -775.1095, 0.0034161112, 9.999265, 10.000134 
1.6550353e+3, 1.6518375e+2, -1352406.3, -1406119.0, -37559.883, 0.09877938, -0.26949295, -1333089.0, -11918.712, 0.00045137366, 10.000056, 9.999383 
1.6550381e+3, 1.7518343e+2, -1309922.5, -1319775.6, -22081.977, -0.18339078, -0.2780382, -1292224.3, -69047.625, 0.000008273259, 9.999633, 9.999496 
1.6550429e+3, 1.8518303e+2, -1214668.0, -1285375.9, -48203.582, -0.24764965, -0.23342511, -1190243.3, -65061.61, 0.0, 9.999876, 9.998944 
1.6550499e+3, 1.951825e+2, -994748.2, -1115458.1, -53041.973, -0.08005291, -0.21842554, -974752.8, 52433.086, 0.0, 10.000663, 9.999054 
1.6550548e+3, 2.0518114e+2, -845592.44, -1027157.3, -123660.05, -0.033558335, -0.23834077, -782969.4, 146228.19, 0.0, 10.001153, 9.998759 
1.6550577e+3, 2.151789e+2, -704924.1, -891016.7, -81632.23, -0.091321364, -0.3778728, -674190.6, 157026.02, 0.0, 10.001386, 9.998899 
1.6550611e+3, 2.251772e+2, -676612.4, -897219.94, -73600.03, -0.122532606, -0.40040234, -654311.9, 78920.94, 0.0, 10.001193, 9.998292 
1.6550653e+3, 2.3517595e+2, -655490.5, -824289.4, -100373.414, -0.1188746, -0.38889837, -608748.44, 26498.1, 0.0, 10.000619, 9.998395 
1.6550702e+3, 2.4517499e+2, -530522.5, -661516.3, -108795.94, -0.047583107, -0.3417156, -469029.63, 68227.07, 0.0, 10.000586, 9.998843 
1.6550757e+3, 2.5517422e+2, -349960.22, -517713.8, -50785.215, 0.108183526, -0.3427963, -335783.7, 103480.48, 0.00000000856411, 10.001135, 9.998892 
1.6550805e+3, 2.6517263e+2, -252807.7, -551472.75, -17981.361, 0.10916587, -0.32267123, -251729.02, 89550.77, 0.0000057188686, 10.001672, 9.997736 
1.655084e+3, 2.7517033e+2, -50604.36, -383155.66, -44343.746, -0.05316329, -0.37379643, -44792.938, 198510.31, 0.00005720022, 10.002317, 9.997895 
1.6550879e+3, 2.851697e+2, 115427.83, -173344.63, -67823.055, -0.15163934, -0.25972548, 130563.86, 275874.16, 0.0002952708, 10.00244, 9.998619 
1.6550924e+3, 2.9517037e+2, 162712.11, -96152.72, 2871.8413, -0.16059397, -0.09993536, 162743.97, 210048.03, 0.00095027586, 10.002076, 9.998642 
1.6550995e+3, 3.0516627e+2, 71918.64, -432094.7, -2440.3994, 0.023348946, -0.21854134, 71930.46, 71930.46, 0.002094606, 10.002485, 9.995816 
1.6551055e+3, 3.1516176e+2, 371332.13, -74533.56, -78069.625, 0.045064025, -0.3072891, 384606.66, 384606.66, 0.0035466496, 10.003594, 9.997727 
1.6650116e+3, 1.2517531e+2, -2038380.8, -1925639.9, 44865.402, -0.30600888, -0.22066735, -1909965.0, -196713.44, 0.041736465, 9.997959, 9.999514 
1.6650178e+3, 1.3517545e+2, -1689213.3, -1507273.1, -166520.97, -0.11527304, -0.36512646, -1408493.9, 206754.2, 0.026087236, 9.998836, 10.001331 
1.6650212e+3, 1.4517523e+2, -1668663.5, -1597625.4, -104950.67, -0.14036706, -0.44194412, -1522346.3, -5096.593, 0.012349877, 9.99898, 9.999927 
1.6650282e+3, 1.5517646e+2, -1553300.9, -1481166.8, -61968.867, 0.013360254, -0.34602946, -1445533.3, -26294.629, 0.003737191, 9.99907, 9.999998 
1.665034e+3, 1.6517693e+2, -1477395.6, -1442894.3, -40732.598, 0.02540105, -0.27293596, -1415910.0, -94674.05, 0.00050616945, 9.999112, 9.999579 
1.665038e+3, 1.7517656e+2, -1347697.3, -1318653.9, -50631.004, -0.14392594, -0.30743256, -1280503.1, -57261.063, 0.000009797576, 9.999281, 9.999679 
1.6650434e+3, 1.8517642e+2, -1237955.0, -1294364.9, -4681.7915, -0.17697777, -0.2449459, -1237569.1, -112323.88, 0.0, 9.999713, 9.998956 
1.6650505e+3, 1.9517659e+2, -985312.06, -1102279.9, -4069.32, -0.090797156, -0.16407824, -985170.6, 42074.04, 0.0, 10.000709, 9.999107 
1.6650556e+3, 2.0517543e+2, -867382.75, -1012502.06, -100989.18, -0.04606784, -0.17948206, -815589.2, 113665.195, 0.0, 10.000897, 9.9989805 
1.665059e+3, 2.1517298e+2, -834250.94, -929242.3, -122691.086, -0.0370801, -0.36365947, -750183.2, 81091.125, 0.0, 10.000392, 9.999114 
1.6650628e+3, 2.2517118e+2, -807154.56, -985930.1, -78163.25, -0.033397943, -0.39291838, -777800.3, -44509.426, 0.0, 10.000411, 9.99805 
1.6650668e+3, 2.3517002e+2, -621743.2, -826853.3, -66419.41, -0.041218054, -0.35217452, -602113.6, 33190.64, 0.0, 10.000937, 9.998207 
1.6650717e+3, 2.4516854e+2, -424930.03, -627005.7, -59029.566, 0.01016496, -0.34413788, -408950.22, 128369.09, 0.0, 10.001357, 9.998732 
1.6650772e+3, 2.5516656e+2, -273038.13, -491538.8, -123251.36, 0.12379567, -0.45043907, -217587.11, 221750.13, 0.0000000057748837, 10.001697, 9.9988165 
1.665082e+3, 2.6516527e+2, -240048.23, -531938.06, -81670.84, 0.108474925, -0.4025432, -218750.67, 122599.71, 0.0000055479773, 10.001715, 9.997843 
1.6650859e+3, 2.751646e+2, -165853.86, -442259.3, -58115.707, -0.053799123, -0.2924934, -154131.84, 89227.47, 0.000055377644, 10.001515, 9.997893 
1.6650903e+3, 2.851639e+2, 14004.231, -242409.27, -80191.95, -0.117873855, -0.16975774, 37018.246, 182385.55, 0.00028510438, 10.001826, 9.998432 
1.6650954e+3, 2.9516327e+2, 221140.73, -86993.77, -171151.97, -0.081723586, -0.12570557, 297355.3, 344729.16, 0.00092673383, 10.002583, 9.998448 
1.6651025e+3, 3.05159e+2, 122835.86, -405649.72, -93035.63, 0.0797123, -0.25055555, 138735.67, 138735.67, 0.0020606702, 10.00282, 9.995832 
1.6651082e+3, 3.1515422e+2, 200838.98, -120735.72, -38509.816, 0.0487652, -0.36921805, 205386.39, 205386.39, 0.0035071587, 10.00227, 9.998039 
1.67501e+3, 1.2516828e+2, -2011777.4, -1878478.3, 64569.617, -0.32181698, -0.1855045, -1852330.3, -139005.97, 0.044670317, 9.997988, 9.999824 
1.6750154e+3, 1.3516974e+2, -1708456.3, -1553080.3, -138171.84, -0.27259928, -0.17138255, -1472253.6, 143057.63, 0.028026333, 9.998857, 10.001004 
1.6750216e+3, 1.4516929e+2, -1634352.4, -1540114.0, -118403.74, -0.027940443, -0.27783343, -1459798.3, 57516.277, 0.013357116, 9.999037, 10.000297 
1.6750264e+3, 1.5516931e+2, -1530430.8, -1431141.5, -48226.176, -0.10103906, -0.33995476, -1411573.8, 7736.805, 0.004090086, 9.999056, 10.000352 
1.675032e+3, 1.6516955e+2, -1452481.6, -1406200.5, -48681.297, -0.13353856, -0.3176386, -1375439.8, -54132.78, 0.0005678562, 9.99917, 9.999807 
1.675038e+3, 1.7516969e+2, -1340299.5, -1293604.8, -37643.445, -0.08305422, -0.31743026, -1272656.3, -49349.43, 0.000011659807, 9.999243, 9.99987 
1.6750444e+3, 1.851695e+2, -1207122.5, -1239823.5, 20357.207, -0.08171697, -0.28753772, -1197362.6, -72053.445, 0.0, 9.9997425, 9.999323 
1.675051e+3, 1.951691e+2, -972238.3, -1059546.8, 39946.496, -0.13376161, -0.29826882, -956719.8, 70593.375, 0.0, 10.000636, 9.999441 
1.6750559e+3, 2.051685e+2, -898602.75, -1059692.0, -132274.95, -0.12935787, -0.2609402, -824279.4, 105040.28, 0.0, 10.000816, 9.998697 
1.6750593e+3, 2.151676e+2, -877270.1, -987918.06, -131344.05, -0.06338224, -0.25691015, -790073.94, 41255.54, 0.0, 10.000251, 9.998785 
1.6750641e+3, 2.2516681e+2, -798108.4, -917551.44, -67999.664, 0.037419677, -0.1982085, -767327.9, -33990.94, 0.0, 10.000201, 9.998617 
1.6750702e+3, 2.351661e+2, -610277.56, -763661.44, -38018.207, 0.18412563, -0.17048611, -601371.4, 33971.137, 0.0, 10.00077, 9.998719 
1.6750742e+3, 2.4516374e+2, -548611.7, -843041.44, -60445.72, 0.1168204, -0.20341536, -536685.44, 681.26746, 0.0, 10.001178, 9.997335 
1.6750763e+3, 2.5515983e+2, -393940.75, -701489.5, -97379.75, -0.15655607, -0.36346778, -365700.34, 73707.88, 0.0000000017385277, 10.001517, 9.997459 
1.6750813e+3, 2.6515836e+2, -192025.9, -389050.28, -98508.14, -0.16099322, -0.32595605, -151223.69, 190198.64, 0.0000048816705, 10.001522, 9.998922 
1.6750892e+3, 2.7515894e+2, -114329.01, -305604.47, -45644.777, 0.10086526, -0.19659412, -103994.94, 139417.83, 0.000051551386, 10.001383, 9.9988985 
1.6750945e+3, 2.8515685e+2, -149911.6, -538308.2, -61102.105, 0.095892824, -0.16279082, -140525.89, 4908.7725, 0.0002714196, 10.001632, 9.996497 
1.6750978e+3, 2.9515254e+2, 74975.336, -357355.25, -118596.77, -0.148722, -0.29546788, 105371.66, 152854.88, 0.00089928973, 10.002417, 9.99668 
1.6751042e+3, 3.0515e+2, 243812.78, -66743.984, -122182.02, -0.058230575, -0.29453674, 286119.38, 286119.38, 0.0020308485, 10.002475, 9.998315 
1.675111e+3, 3.1514934e+2, 322124.5, 213480.14, -15380.783, 0.048176162, -0.25062412, 324259.97, 324259.97, 0.003496756, 10.001945, 10.0004835 
1.68501e+3, 1.2515996e+2, -1918322.4, -1807303.0, -6043.5137, -0.1328707, -0.19388852, -1806975.0, -93567.8, 0.04776628, 9.998531, 10.00004 
1.6850133e+3, 1.3516249e+2, -1770235.0, -1538271.3, -144268.28, -0.32683003, -0.1127414, -1469144.8, 146239.44, 0.030093629, 9.998261, 10.001384 
1.6850212e+3, 1.4516261e+2, -1657696.3, -1532315.0, -84472.57, 0.060055543, -0.19191954, -1489811.9, 27569.436, 0.0144471, 9.998786, 10.000472 
1.6850257e+3, 1.5516196e+2, -1473169.9, -1388254.6, -61528.207, -0.08996896, -0.3393066, -1355956.9, 63425.883, 0.004479329, 9.999378, 10.000498 
1.685031e+3, 1.651619e+2, -1384361.4, -1382320.5, -56450.58, -0.16470402, -0.34656873, -1326881.1, -5500.055, 0.0006375465, 9.999691, 9.999715 
1.6850378e+3, 1.7516224e+2, -1194552.4, -1224563.4, -82740.58, -0.08912744, -0.32250482, -1125467.6, 97910.72, 0.00001399049, 10.000265, 9.999837 
1.6850446e+3, 1.8516214e+2, -1154555.3, -1191415.3, -36705.1, -0.04351729, -0.29629067, -1131913.0, -6533.4116, 0.0, 10.000014, 9.999517 
1.6850515e+3, 1.9516163e+2, -1183487.8, -1145088.4, -46134.043, -0.070389666, -0.33518082, -1114318.3, -86933.836, 0.0, 9.999107, 9.999596 
1.6850567e+3, 2.0516092e+2, -1093478.1, -1166830.9, -178773.77, -0.07120275, -0.307102, -947657.3, -18264.428, 0.0, 9.999535, 9.998586 
1.6850601e+3, 2.1516013e+2, -744139.5, -928448.06, -187264.77, -0.039481286, -0.28243646, -627582.25, 203821.53, 0.0, 10.001195, 9.998737 
1.6850652e+3, 2.251597e+2, -553592.2, -764777.2, -120543.59, 0.06888699, -0.20249291, -498933.2, 234474.73, 0.0, 10.001713, 9.998956 
1.6850716e+3, 2.351595e+2, -536502.06, -694634.3, -123532.24, 0.23967554, -0.15408434, -468899.63, 166507.27, 0.0, 10.001119, 9.9990425 
1.6850756e+3, 2.4515732e+2, -594575.44, -907577.7, -80882.14, 0.15366039, -0.16423285, -574910.4, -37480.914, 0.0, 10.001053, 9.996934 
1.6850774e+3, 2.5515324e+2, -419948.3, -764580.56, -74279.36, -0.18842754, -0.30267766, -404620.44, 34853.83, 0.0000000018399801, 10.00154, 9.997013 
1.6850829e+3, 2.6515132e+2, -161806.77, -368876.34, -73919.9, -0.1595113, -0.28662297, -138126.77, 203365.5, 0.0000039092515, 10.001708, 9.99897 
1.6850917e+3, 2.7515137e+2, -64765.516, -262920.78, -121715.36, 0.22003336, -0.22071552, -6900.4644, 236585.83, 0.000046409757, 10.001684, 9.999027 
1.6850974e+3, 2.851489e+2, -108628.15, -535394.56, -49263.09, 0.21620071, -0.22390771, -103015.36, 42495.82, 0.00025645504, 10.001976, 9.996364 
1.6851002e+3, 2.951445e+2, 84202.71, -361849.34, -12010.411, -0.14205164, -0.35250548, 84525.87, 132087.19, 0.0008662299, 10.002512, 9.996611 
1.6851066e+3, 3.0514294e+2, 253810.84, 13489.223, -43503.848, -0.05061725, -0.28457245, 261443.63, 261443.63, 0.0019879541, 10.002177, 9.999035 
1.6851135e+3, 3.1514227e+2, 174358.02, 165543.89, -117195.3, 0.16909947, -0.29208508, 287229.1, 287229.1, 0.0034694744, 10.000757, 10.000774 
1.69501e+3, 1.2514912e+2, -1907359.9, -1811647.3, -192318.56, -0.039988283, -0.39563978, -1661320.1, 52192.145, 0.051028147, 9.998627, 9.999989 
1.6950114e+3, 1.351536e+2, -1711578.8, -1401710.0, -125172.13, -0.37728298, -0.21189925, -1357464.3, 258003.6, 0.032295942, 9.998188, 10.002381 
1.6950199e+3, 1.4515534e+2, -1647349.3, -1530549.6, -65054.56, 0.0060766046, -0.18309307, -1501527.3, 15921.774, 0.015627254, 9.998857, 10.000458 
1.6950256e+3, 1.5515462e+2, -1478295.9, -1407010.0, -31574.432, -0.051719867, -0.3236999, -1395036.1, 24416.955, 0.004910431, 9.999405, 10.000361 
1.695031e+3, 1.6515407e+2, -1397196.3, -1423844.8, -51479.594, -0.18254517, -0.356385, -1357344.5, -35887.22, 0.0007170378, 9.99975, 9.999401 
1.6950366e+3, 1.7515425e+2, -1219669.0, -1271639.5, -52711.777, -0.24877378, -0.31744447, -1186885.5, 36570.813, 0.000016975888, 10.000238, 9.999527 
1.6950437e+3, 1.8515432e+2, -1147065.5, -1187170.1, -83862.78, -0.16955553, -0.26102102, -1080891.0, 44565.348, 0.0, 10.000055, 9.99953 
1.6950515e+3, 1.9515404e+2, -1192182.6, -1148793.5, -71951.24, -0.0013215743, -0.2769163, -1095337.4, -67877.984, 0.0, 9.9990425, 9.999602 
1.6950573e+3, 2.0515275e+2, -1112957.6, -1168861.5, -128982.59, 0.022059046, -0.3101058, -1008932.94, -79459.664, 0.0, 9.999373, 9.998649 
1.6950615e+3, 2.151506e+2, -764431.7, -934283.75, -115164.55, -0.06398602, -0.42732668, -706265.8, 125231.164, 0.0, 10.001035, 9.998776 
1.695066e+3, 2.2514984e+2, -567708.5, -745428.44, -153267.19, -0.05541949, -0.3944121, -479404.9, 254099.11, 0.0, 10.00151, 9.999183 
1.6950709e+3, 2.3515029e+2, -552203.25, -678286.6, -129977.05, 0.03537828, -0.30194008, -470786.3, 164710.16, 0.0, 10.000913, 9.99925 
1.6950756e+3, 2.451492e+2, -598342.3, -857536.75, -72244.586, 0.021809531, -0.23769394, -579565.94, -42058.13, 0.0, 10.000806, 9.997399 
1.6950803e+3, 2.5514662e+2, -413021.06, -709842.8, -43302.29, -0.06815116, -0.26885527, -406832.84, 32703.809, 0.0000000033657745, 10.001371, 9.99747 
1.6950864e+3, 2.651442e+2, -258937.97, -523588.22, -84264.15, -0.008674098, -0.28200027, -234386.13, 107174.73, 0.0000030031388, 10.001508, 9.998004 
1.6950935e+3, 2.7514178e+2, -153497.81, -407772.7, -105898.375, 0.20522007, -0.36603016, -115171.08, 128409.87, 0.000041455987, 10.001517, 9.998112 
1.6950989e+3, 2.8513986e+2, -31747.572, -323119.4, -41915.188, 0.13412802, -0.353003, -25837.746, 119761.27, 0.0002433747, 10.00175, 9.997932 
1.6951026e+3, 2.951385e+2, 165907.64, -149474.3, 24369.88, -0.18423976, -0.32651094, 167779.61, 215393.47, 0.0008327765, 10.002318, 9.998169 
1.695109e+3, 3.051373e+2, 132622.39, -155209.3, -107005.164, -0.038507733, -0.25368783, 168043.88, 168043.88, 0.0019274647, 10.001844, 9.998024 
1.6951147e+3, 3.1513375e+2, 14517.259, -70139.875, -122940.945, 0.17812742, -0.44989455, 102212.47, 102212.47, 0.0033941083, 10.000375, 9.999316 
1.7050092e+3, 1.2514183e+2, -2005616.5, -1833774.5, -73437.805, 0.04399394, -0.4257681, -1806666.6, -93085.64, 0.054460447, 9.997838, 10.000212 
1.7050102e+3, 1.3514575e+2, -1597952.3, -1353208.3, -52174.473, -0.3247041, -0.29078096, -1342549.9, 272990.53, 0.034638863, 9.998975, 10.002353 
1.7050187e+3, 1.451466e+2, -1618656.4, -1543246.0, -30012.318, -0.014999254, -0.3361888, -1532759.6, -15229.063, 0.016903277, 9.999204, 10.000192 
1.705025e+3, 1.5514714e+2, -1568703.6, -1476919.5, -40749.453, -0.025283314, -0.32280007, -1461439.0, -41914.82, 0.00538814, 9.998916, 10.000104 
1.7050306e+3, 1.6514668e+2, -1507213.4, -1474190.0, -14485.096, -0.13234241, -0.33786064, -1468736.9, -147208.81, 0.0008082668, 9.998966, 9.999437 
1.7050366e+3, 1.7514594e+2, -1323745.6, -1315227.1, -5461.3647, -0.22132191, -0.39725202, -1312560.5, -89025.65, 0.000020835996, 9.999481, 9.999602 
1.7050433e+3, 1.8514599e+2, -1217471.0, -1204605.8, -37242.793, -0.17078084, -0.34873787, -1173244.1, -47709.516, 0.0, 9.999499, 9.99969 
1.7050502e+3, 1.9514662e+2, -1148395.1, -1108572.3, -34754.89, -0.04131635, -0.2912122, -1088429.1, -60899.22, 0.0, 9.999254, 9.999788 
1.7050566e+3, 2.0514593e+2, -1107175.1, -1116545.5, 7845.747, 0.02660709, -0.298097, -1102722.1, -173184.36, 0.0, 9.999202, 9.999079 
1.7050627e+3, 2.151441e+2, -970797.06, -989194.75, 27582.574, 0.043417912, -0.42501846, -950919.9, -119363.46, 0.0, 9.99943, 9.999166 
1.7050673e+3, 2.2514303e+2, -787817.7, -907587.4, -27517.133, 0.0068657063, -0.4173286, -781798.1, -48230.63, 0.0, 10.00024, 9.998677 
1.7050707e+3, 2.3514256e+2, -492605.97, -701656.1, -85500.59, -0.08422747, -0.36944926, -462090.88, 173481.63, 0.0, 10.00155, 9.99878 
1.7050761e+3, 2.4514164e+2, -374994.97, -680995.56, -31416.402, -0.06326422, -0.29289192, -371802.8, 165779.0, 0.0, 10.002046, 9.99802 
1.7050831e+3, 2.551403e+2, -308022.0, -585158.25, -14970.2295, 0.05629014, -0.26545286, -307215.7, 132379.56, 0.0000000026261497, 10.001791, 9.99812 
1.705089e+3, 2.6513785e+2, -256641.7, -582977.1, -12436.345, 0.1233907, -0.28224826, -256168.45, 85450.7, 0.0000021613648, 10.001771, 9.997474 
1.7050944e+3, 2.7513438e+2, -123363.54, -454213.56, -30453.633, 0.12843707, -0.41535422, -120583.74, 123068.89, 0.000036656253, 10.001972, 9.997579 
1.7050998e+3, 2.8513277e+2, -13237.55, -227679.39, 35274.17, 0.067665525, -0.38813144, -7584.235, 138083.81, 0.00022920681, 10.0015135, 9.998694 
1.7051052e+3, 2.9513273e+2, -58061.785, -174993.94, 12076.707, -0.050657477, -0.30342194, -56827.535, -9160.671, 0.00079251203, 10.000436, 9.998898 
1.7051122e+3, 3.0513158e+2, 18041.98, -287627.28, -73930.16, 0.12445632, -0.22058906, 34983.945, 34983.945, 0.0018379622, 10.001377, 9.997336 
1.7051166e+3, 3.1512737e+2, 463087.66, 16416.729, -133436.16, 0.16758832, -0.4126753, 499913.56, 499913.56, 0.0032495628, 10.004032, 9.998134 
1.7150065e+3, 1.2513807e+2, -1963010.4, -1737660.8, -4356.575, -0.06305046, -0.30071312, -1737576.6, -23963.293, 0.058051143, 9.997815, 10.0008745 
1.7150101e+3, 1.3513954e+2, -1683864.3, -1513679.0, -2913.632, -0.25805202, -0.29881266, -1513629.1, 101966.67, 0.037118543, 9.998933, 10.001228 
1.715017e+3, 1.4513655e+2, -1640078.9, -1614168.5, -53231.055, -0.13756657, -0.6394993, -1572338.9, -54714.613, 0.018276531, 9.999297, 9.999668 
1.7150234e+3, 1.5513936e+2, -1603830.3, -1548516.0, -39458.754, -0.115455486, -0.35207212, -1527987.0, -108389.05, 0.005915651, 9.998904, 9.999621 
1.71503e+3, 1.6513972e+2, -1469990.4, -1401857.1, -10190.917, -0.11808711, -0.2854879, -1400365.5, -78772.21, 0.0009130136, 9.998992, 9.999915 
1.7150375e+3, 1.7513742e+2, -1298171.9, -1250015.4, 20415.22, -0.10064143, -0.54902804, -1242525.6, -18912.89, 0.000025810483, 9.99944, 10.000064 
1.7150433e+3, 1.8513732e+2, -1195743.6, -1162443.5, -58134.72, -0.1541774, -0.5547167, -1118621.5, 6992.1475, 0.0, 9.999502, 9.999981 
1.7150472e+3, 1.9513938e+2, -1134721.3, -1066135.9, -33834.93, -0.2823859, -0.38475797, -1052254.0, -24657.803, 0.0, 9.999191, 10.000111 
1.715054e+3, 2.0514041e+2, -1067038.5, -1011158.6, 6649.589, -0.16819894, -0.27315775, -1010378.25, -80791.88, 0.0, 9.999105, 9.999849 
1.7150636e+3, 2.1514046e+2, -941421.94, -891164.9, 46612.1, 0.18740866, -0.29190132, -863339.4, -31755.066, 0.0, 9.9992695, 9.999916 
1.7150693e+3, 2.2513902e+2, -906160.7, -1103968.6, 12291.981, 0.16056646, -0.2950303, -905399.8, -171798.73, 0.0, 10.000022, 9.997439 
1.7150712e+3, 2.351362e+2, -602470.7, -892957.5, -23622.576, -0.22115551, -0.35528198, -600562.2, 35073.62, 0.0, 10.001381, 9.997554 
1.7150766e+3, 2.4513456e+2, -354872.03, -582831.8, -51999.79, -0.24022588, -0.33043495, -343570.7, 194081.64, 0.0, 10.001812, 9.998801 
1.7150854e+3, 2.5513402e+2, -282169.22, -490160.28, -10034.637, 0.09133407, -0.30525133, -281686.22, 157965.95, 0.0000000000058928205, 10.001613, 9.998857 
1.7150912e+3, 2.6513207e+2, -296558.6, -616962.0, -17891.44, 0.12917185, -0.29799423, -295562.63, 46107.44, 0.0000014626683, 10.001567, 9.997338 
1.7150941e+3, 2.75129e+2, -159358.39, -483109.56, -10995.774, -0.10952393, -0.37989426, -158985.38, 84718.586, 0.000032258973, 10.001775, 9.997477 
1.7150997e+3, 2.8512737e+2, -55511.332, -260690.81, -15957.761, -0.109779224, -0.3392216, -54277.64, 91442.664, 0.00021422074, 10.001277, 9.998584 
1.7151076e+3, 2.9512703e+2, -85575.67, -194750.89, -2099.0466, 0.12335838, -0.28253117, -85535.336, -37814.496, 0.0007452291, 10.000274, 9.998837 
1.7151156e+3, 3.0512565e+2, -74122.96, -405507.72, 11797.349, 0.305763, -0.1931122, -73703.5, -73703.5, 0.0017263927, 10.001081, 9.996665 
1.7151189e+3, 3.1512251e+2, 328847.94, -132041.47, 2042.9088, -0.06406841, -0.21367407, 328857.0, 328857.0, 0.0030576424, 10.003512, 9.997346 
1.7250048e+3, 1.2513122e+2, -1947228.8, -1764277.1, 17327.04, -0.020228082, -0.3808865, -1762650.6, -48974.46, 0.06177432, 9.998051, 10.000583 
1.7250091e+3, 1.3513306e+2, -1827324.8, -1656496.1, -35451.65, -0.2062782, -0.2851212, -1649431.1, -33772.95, 0.039721623, 9.998268, 10.000534 
1.7250165e+3, 1.4513001e+2, -1712916.5, -1650483.5, -21809.26, -0.0812819, -0.5958287, -1643619.6, -125931.34, 0.019743169, 9.998794, 9.999666 
1.725023e+3, 1.551321e+2, -1421708.1, -1451377.3, 4797.6426, -0.08620045, -0.3877702, -1420951.6, -1283.3778, 0.006494274, 10.000092, 9.999732 
1.7250298e+3, 1.651326e+2, -1350757.8, -1340208.1, 28294.62, -0.08135337, -0.3127635, -1316700.8, 4961.3784, 0.001032908, 9.999798, 9.999957 
1.7250368e+3, 1.7513093e+2, -1464680.9, -1326647.8, 2000.9076, -0.050093688, -0.5163748, -1326618.8, -102942.9, 0.00003215152, 9.998276, 10.000104 
1.7250426e+3, 1.8513067e+2, -1408201.4, -1247741.9, -40285.723, -0.0889967, -0.5460346, -1238195.5, -112517.664, 0.0, 9.997982, 10.000117 
1.725047e+3, 1.9513205e+2, -1128345.3, -1046336.6, -51782.656, -0.22834522, -0.45782134, -1021289.5, 6376.3257, 0.0, 9.999171, 10.000246 
1.7250538e+3, 2.0513305e+2, -949192.94, -955598.3, -34677.664, -0.1401639, -0.35670373, -917570.4, 12085.425, 0.0, 9.999922, 9.9998455 
1.7250632e+3, 2.1513358e+2, -785967.8, -817600.6, -72623.39, 0.16973525, -0.3223532, -727458.5, 104190.375, 0.0, 10.000341, 9.999914 
1.7250694e+3, 2.2513248e+2, -836080.7, -1055979.6, -51719.656, 0.16458198, -0.2973133, -824523.75, -90860.55, 0.0, 10.000457, 9.997548 
1.7250726e+3, 2.3512992e+2, -743933.3, -947536.5, -12830.119, -0.15667392, -0.34047616, -743128.0, -107431.55, 0.0, 10.000373, 9.99765 
1.7250784e+3, 2.4512823e+2, -505647.5, -636423.94, -7409.8945, -0.17563649, -0.3359908, -505228.97, 32484.393, 0.0, 10.0006895, 9.998967 
1.7250867e+3, 2.5512728e+2, -311748.22, -481215.38, -30062.662, 0.090091765, -0.36560374, -306573.28, 133141.9, 0.0000000000049057277, 10.001317, 9.99905 
1.7250924e+3, 2.651257e+2, -299560.56, -589647.5, -31824.828, 0.10869213, -0.34865317, -296110.2, 45619.23, 0.0000011502509, 10.001427, 9.997591 
1.7250955e+3, 2.7512354e+2, -253466.75, -504245.06, -25229.318, -0.108778045, -0.36406443, -250953.77, -7198.6577, 0.000029351942, 10.001019, 9.997699 
1.725101e+3, 2.8512186e+2, -77712.945, -324743.6, -1047.2585, -0.10614232, -0.3138151, -77708.51, 68063.92, 0.00020332911, 10.001361, 9.998095 
1.7251086e+3, 2.9512045e+2, 196845.63, -116472.7, -57995.84, 0.09494516, -0.31061262, 207236.19, 255020.0, 0.00070499646, 10.002481, 9.9983 
1.7251177e+3, 3.0511832e+2, 210829.63, -261934.11, 35232.156, 0.3262085, -0.27128994, 213440.84, 213440.84, 0.0016286852, 10.00298, 9.9967575 
1.7251228e+3, 3.151166e+2, 208040.89, -189818.56, 15649.625, 0.037159704, -0.15249653, 208655.52, 208655.52, 0.00288782, 10.002585, 9.997448 
1.7350036e+3, 1.2512247e+2, -2037542.4, -1954421.0, 24791.826, -0.012653783, -0.546744, -1947588.3, -233830.5, 0.06561491, 9.998082, 9.99925 
1.7350069e+3, 1.3512598e+2, -1857233.6, -1701735.0, -34336.72, -0.29497167, -0.27650663, -1694490.4, -78759.375, 0.042436883, 9.998203, 10.000253 
1.7350169e+3, 1.4512669e+2, -1672706.3, -1573523.0, 9109.171, 0.03569001, -0.21762593, -1572693.4, -54967.477, 0.021297567, 9.998818, 10.000179 
1.7350237e+3, 1.551254e+2, -1371126.0, -1347658.5, 59261.11, -0.05225921, -0.4196645, -1298980.6, 120754.15, 0.0071235094, 10.0001, 10.000439 
1.7350294e+3, 1.6512541e+2, -1361529.8, -1387082.5, -42690.52, -0.14892039, -0.41161898, -1329744.8, -8011.287, 0.0011691477, 9.999889, 9.999598 
1.7350344e+3, 1.7512642e+2, -1490779.1, -1386292.9, -46313.055, -0.15253076, -0.30839995, -1368720.3, -144995.45, 0.00004011834, 9.998289, 9.999693 
1.735041e+3, 1.851261e+2, -1410217.6, -1260524.3, -10266.813, -0.08351845, -0.31944203, -1259823.4, -134096.13, 0.0, 9.998016, 10.000014 
1.7350487e+3, 1.9512458e+2, -1150871.8, -1071195.3, 107.59206, 0.018158084, -0.51110053, -1071195.1, -43455.664, 0.0, 9.999077, 10.00012 
1.7350553e+3, 2.0512381e+2, -1021270.7, -1076802.4, -31321.146, 0.0006158155, -0.5415867, -1007180.1, -77433.984, 0.0, 9.999797, 9.999075 
1.7350611e+3, 2.1512364e+2, -858996.06, -937204.25, -46860.844, -0.105959386, -0.5019075, -837066.8, -5318.295, 0.0, 10.0002, 9.99916 
1.7350675e+3, 2.2512352e+2, -771817.3, -874126.0, -65008.137, -0.10608881, -0.40972602, -740250.25, -6497.8765, 0.0, 10.000251, 9.998893 
1.7350748e+3, 2.3512352e+2, -672812.1, -761265.0, -4089.6448, 0.0008434663, -0.33824098, -672623.44, -36866.61, 0.0, 10.000202, 9.99901 
1.7350812e+3, 2.4512239e+2, -567536.5, -708371.56, 6312.232, 0.017951073, -0.32531592, -567254.1, -29486.621, 0.0, 10.000453, 9.998587 
1.7350869e+3, 2.551202e+2, -365571.8, -544733.5, 7266.437, -0.04836504, -0.44499528, -365277.56, 74506.73, 0.000000000000012544113, 10.001118, 9.998707 
1.7350926e+3, 2.6511866e+2, -292816.8, -523550.34, -56531.69, -0.052320313, -0.43376684, -279710.53, 62087.13, 0.0000010511417, 10.001203, 9.998155 
1.7350979e+3, 2.7511793e+2, -241018.11, -436223.53, -23597.498, 0.007877942, -0.3642588, -238206.03, 5600.385, 0.000029114979, 10.000844, 9.998245 
1.7351031e+3, 2.85116e+2, -185713.23, -501276.28, 24269.816, -0.051680066, -0.31002676, -183857.56, -38031.574, 0.00019954717, 10.001151, 9.996987 
1.735108e+3, 2.951126e+2, 81735.38, -296538.2, 4125.916, -0.23880984, -0.40156513, 81780.38, 129639.61, 0.00068326393, 10.002228, 9.997187 
1.7351182e+3, 3.0510938e+2, 208201.72, -178810.39, 8550.2295, 0.04270404, -0.45126113, 208390.52, 208390.52, 0.0015767389, 10.002624, 9.997484 
1.7351277e+3, 3.1510872e+2, 214405.34, -37854.9, 30345.03, 0.22028716, -0.32058543, 218004.27, 218004.27, 0.0028063208, 10.002043, 9.998725 
1.7450018e+3, 1.2511653e+2, -2141051.3, -2003906.3, 12063.132, 0.058398925, -0.41843033, -2002853.3, -289035.03, 0.06957688, 9.997386, 9.999256 
1.7450058e+3, 1.351186e+2, -1659520.1, -1543982.3, 28737.076, -0.25419387, -0.34255293, -1537229.4, 78572.836, 0.045260757, 9.999279, 10.00085 
1.7450176e+3, 1.4512019e+2, -1516422.3, -1500437.9, 88447.53, 0.17909503, -0.22525081, -1419622.1, 98166.016, 0.022935338, 9.999927, 10.00014 
1.7450237e+3, 1.5511915e+2, -1567280.1, -1444391.8, 46560.05, 0.012531985, -0.3999699, -1428743.6, -8946.448, 0.0078018596, 9.998778, 10.000391 
1.7450285e+3, 1.6511944e+2, -1524589.5, -1419109.4, -45077.473, -0.13435598, -0.3847206, -1402470.1, -80676.305, 0.0013223152, 9.998572, 10.000015 
1.7450333e+3, 1.7512101e+2, -1250680.1, -1225376.3, -7886.9536, -0.15177564, -0.26429185, -1223119.3, 659.1419, 0.000049909977, 9.999751, 10.000096 
1.7450404e+3, 1.8512078e+2, -1117834.0, -1168172.6, 90350.0, -0.049788244, -0.26384705, -1049213.0, 76566.81, 0.0000000000000006446772, 10.00024, 9.99957 
1.7450492e+3, 1.9511874e+2, -1035128.06, -1066482.1, 51681.926, 0.10688648, -0.4629922, -996797.75, 31000.45, 0.0, 10.000094, 9.999655 
1.7450558e+3, 2.051175e+2, -991366.7, -1070654.4, 49310.24, 0.06002613, -0.5147918, -967740.25, -37930.383, 0.0, 10.000029, 9.999002 
1.7450604e+3, 2.1511705e+2, -863474.6, -941864.75, 61792.563, -0.17337736, -0.49808708, -829494.75, 2319.7446, 0.0, 10.000184, 9.99913 
1.7450671e+3, 2.2511698e+2, -719294.94, -820880.75, 45768.074, -0.16654924, -0.4122952, -701716.5, 32100.244, 0.0, 10.000475, 9.999164 
1.7450757e+3, 2.3511732e+2, -559697.44, -679235.25, 5662.6396, 0.05836935, -0.33170706, -559429.8, 76386.836, 0.0, 10.000851, 9.999273 
1.7450826e+3, 2.4511641e+2, -486949.03, -658101.06, 15316.066, 0.09435376, -0.3126947, -485589.22, 52235.586, 0.0, 10.000968, 9.998681 
1.7450877e+3, 2.551143e+2, -395396.6, -551582.8, 20463.053, -0.061848663, -0.43053767, -392760.1, 47081.48, 0.0, 10.000885, 9.998774 
1.7450935e+3, 2.6511276e+2, -300041.25, -504751.4, -26928.254, -0.057577997, -0.43464255, -296558.28, 45296.285, 0.0000010008785, 10.001052, 9.998354 
1.7450997e+3, 2.7511185e+2, -127659.484, -362766.6, -49156.664, 0.083086625, -0.39971438, -117795.555, 126067.79, 0.000030147008, 10.001531, 9.998419 
1.7451054e+3, 2.851097e+2, -58932.69, -423513.44, 82004.375, 0.023511117, -0.3811487, -41336.855, 104546.25, 0.00019895253, 10.001954, 9.997131 
1.7451102e+3, 2.9510608e+2, 77249.164, -298077.75, 110039.57, -0.23537856, -0.5070304, 107131.75, 155048.61, 0.0006793162, 10.00217, 9.997214 
1.7451203e+3, 3.0510277e+2, 174550.89, -169578.1, 143960.23, 0.028093172, -0.57610315, 226831.53, 226831.53, 0.0015806378, 10.002261, 9.997736 
1.7451303e+3, 3.1510234e+2, 334753.84, 96753.086, 38840.523, 0.26615927, -0.44663453, 340932.03, 340932.03, 0.0028403166, 10.002526, 9.999414 
1.7549981e+3, 1.2511165e+2, -2044432.8, -1802203.0, -153663.14, -0.10029645, -0.1611948, -1727662.1, -13787.774, 0.07366958, 9.997367, 10.000654 
1.7550059e+3, 1.3511126e+2, -1563642.5, -1336801.8, 120516.51, -0.20612304, -0.46966583, -1284727.8, 331141.38, 0.048192136, 9.99923, 10.002361 
1.7550184e+3, 1.4511105e+2, -1546507.4, -1582604.5, 40404.383, 0.22098707, -0.5844214, -1520303.6, -2433.0916, 0.024652572, 9.999997, 9.99954 
1.7550229e+3, 1.5511346e+2, -1626617.4, -1568599.9, 11936.334, 0.018715778, -0.32606214, -1566240.1, -146385.28, 0.008527423, 9.998774, 9.999549 
1.7550273e+3, 1.6511454e+2, -1443696.0, -1255661.8, -22945.23, -0.15049657, -0.24477638, -1252902.4, 68942.58, 0.0014925194, 9.998592, 10.001128 
1.7550333e+3, 1.7511466e+2, -1177185.5, -1057708.5, 44470.91, -0.14737104, -0.38760787, -1042973.1, 180864.39, 0.00006156021, 9.999695, 10.001268 
1.7550404e+3, 1.8511474e+2, -1172103.5, -1280950.8, 74371.05, -0.09854221, -0.37486637, -1134369.8, -8534.016, 0.0000000010737394, 10.000238, 9.998798 
1.7550479e+3, 1.9511454e+2, -1099269.1, -1185573.1, 55071.203, -0.056407254, -0.3129537, -1072457.4, -44615.19, 0.0, 10.000033, 9.998868 
1.7550547e+3, 2.0511407e+2, -964726.1, -992481.56, 41743.496, -0.077839814, -0.2771187, -934613.94, -4766.623, 0.0, 9.999928, 9.999588 
1.7550613e+3, 2.1511349e+2, -842756.25, -865836.94, 75834.55, -0.1292568, -0.33372742, -777588.94, 54260.78, 0.0, 10.000036, 9.999725 
1.7550683e+3, 2.2511262e+2, -804920.3, -951658.2, 49934.15, -0.12551238, -0.31819028, -789540.06, -55681.18, 0.0, 10.000277, 9.998362 
1.7550755e+3, 2.3511139e+2, -640268.44, -807903.2, 33204.496, -0.08164449, -0.31440666, -633931.0, 1944.0939, 0.0, 10.000684, 9.99847 
1.7550822e+3, 2.4511035e+2, -490105.0, -613574.6, 4623.0137, -0.07183104, -0.2914764, -489932.16, 47952.727, 0.0, 10.000745, 9.999095 
1.7550887e+3, 2.5510952e+2, -389409.8, -499064.8, 29722.557, -0.06594315, -0.32497168, -381871.56, 58016.688, 0.0, 10.000715, 9.999213 
1.7550951e+3, 2.6510775e+2, -341667.34, -557305.9, -22905.854, -0.026941307, -0.359434, -339261.06, 2641.6326, 0.00000094846536, 10.000895, 9.998075 
1.7551008e+3, 2.751052e+2, -167398.34, -403034.44, -14826.617, 0.014861601, -0.46599424, -166469.1, 77457.336, 0.000030605133, 10.00135, 9.998226 
1.7551073e+3, 2.8510296e+2, -3170.4631, -260255.45, 79446.73, -0.006232034, -0.51655066, 19399.438, 165343.39, 0.00020031627, 10.001744, 9.998355 
1.7551143e+3, 2.9510075e+2, 121767.984, -152231.58, 134047.44, -0.053912155, -0.6242331, 176438.89, 224397.16, 0.0006943286, 10.001945, 9.9983225 
1.7551236e+3, 3.0509844e+2, 89583.39, -269299.75, 130146.2, 0.100086175, -0.6103877, 131811.19, 131811.19, 0.0016369672, 10.001935, 9.997202 
1.7551304e+3, 3.1509763e+2, 233939.94, 10720.04, 74726.445, -0.03161466, -0.4983349, 256646.13, 256646.13, 0.0029657707, 10.002025, 9.999047 
1.7649975e+3, 1.2510589e+2, -1535658.4, -1536693.9, 2140.838, -0.061589394, -0.22885919, -1533973.6, 179958.97, 0.07790593, 10.000819, 10.000907 
1.7650063e+3, 1.3510534e+2, -1567940.3, -1423463.8, 143383.47, -0.09214779, -0.46869832, -1335149.3, 280778.6, 0.05123237, 9.999574, 10.001579 
1.7650162e+3, 1.451048e+2, -1748340.3, -1628525.5, -9774.082, 0.10053841, -0.6052491, -1627733.4, -109801.73, 0.026445003, 9.998385, 10.000012 
1.765021e+3, 1.5510759e+2, -1701544.1, -1556448.9, 33516.832, -0.008247653, -0.3505258, -1549080.6, -129170.305, 0.009296644, 9.998065, 9.999976 
1.7650265e+3, 1.6510874e+2, -1444445.5, -1268391.0, 101491.75, -0.08752228, -0.2762521, -1222070.3, 99828.91, 0.0016790463, 9.998659, 10.000992 
1.7650342e+3, 1.7510842e+2, -1130843.0, -1055848.1, 42968.94, -0.046109874, -0.45057255, -1036315.9, 187580.95, 0.000074904594, 10.000092, 10.001086 
1.7650412e+3, 1.851084e+2, -1165321.6, -1294519.8, 9595.316, -0.045633487, -0.43142283, -1164613.0, -38716.164, 0.000000009428086, 10.000359, 9.998651 
1.765047e+3, 1.9510859e+2, -1129249.1, -1212621.3, 14847.373, -0.1347469, -0.31412572, -1126683.9, -98784.055, 0.0, 9.999885, 9.99876 
1.765054e+3, 2.0510831e+2, -975450.7, -997484.44, 45336.38, -0.13828631, -0.25298315, -939811.8, -9908.3, 0.0, 9.999865, 9.99958 
1.765062e+3, 2.1510774e+2, -810897.2, -852448.9, 13123.242, -0.043933265, -0.30597177, -807099.56, 24806.627, 0.0, 10.000274, 9.9997 
1.7650695e+3, 2.2510652e+2, -789734.56, -941767.7, 8535.457, -0.012665477, -0.32449627, -789256.8, -55339.145, 0.0, 10.000377, 9.998373 
1.765076e+3, 2.3510467e+2, -701537.6, -832245.0, 23784.475, -0.064527996, -0.3847095, -697344.2, -61406.176, 0.0, 10.000254, 9.998501 
1.7650826e+3, 2.4510363e+2, -534131.56, -622189.2, 34411.28, -0.07315992, -0.37101662, -522279.47, 15667.86, 0.0, 10.000362, 9.999235 
1.7650898e+3, 2.5510332e+2, -383810.4, -487856.3, 21019.705, -0.03221239, -0.35956663, -379724.38, 60222.0, 0.0, 10.000686, 9.999323 
1.7650963e+3, 2.651018e+2, -318288.8, -549604.06, 2076.9307, 0.009709177, -0.3748481, -318270.2, 23689.037, 0.0000007067664, 10.001094, 9.99802 
1.7651023e+3, 2.7509904e+2, -134610.4, -394842.6, -11249.446, 0.019854948, -0.49410602, -134125.02, 109859.79, 0.000029110019, 10.001619, 9.998151 
1.7651093e+3, 2.8509673e+2, 52850.258, -188410.73, 66989.54, 0.014805037, -0.5651625, 70202.79, 216205.36, 0.00020317562, 10.001939, 9.99876 
1.7651172e+3, 2.950948e+2, 175957.84, -90093.14, 20253.758, 0.033474255, -0.6746903, 177490.88, 225504.3, 0.00072254677, 10.002165, 9.998647 
1.7651261e+3, 3.0509317e+2, 150997.89, -258265.19, 38849.668, 0.14845762, -0.60187304, 154653.1, 154653.1, 0.0017154181, 10.002421, 9.997045 
1.7651324e+3, 3.150913e+2, 278202.5, 6554.352, -71655.516, -0.04624057, -0.56785834, 295945.0, 295945.0, 0.003103051, 10.002392, 9.998867 
1.775e+3, 1.2510113e+2, -1580736.4, -1644355.0, -2899.6768, 0.025307432, -0.45123038, -1580604.5, 133369.14, 0.08231803, 10.000881, 10.000084 
1.7750072e+3, 1.3510105e+2, -1781833.1, -1859767.4, 104075.95, 0.010497591, -0.33871004, -1709668.5, -93691.38, 0.054393712, 9.999548, 9.998521 
1.7750108e+3, 1.4510114e+2, -1641336.0, -1414708.4, -44883.527, -0.3154294, -0.320983, -1406143.0, 111831.14, 0.02831169, 9.998399, 10.001497 
1.7750175e+3, 1.5510161e+2, -1583313.6, -1309118.3, 34072.598, -0.1807665, -0.47587657, -1304947.6, 115015.66, 0.010105246, 9.998049, 10.001688 
1.7750257e+3, 1.6510217e+2, -1541858.6, -1478051.4, 145881.48, -0.056511678, -0.47425675, -1360625.6, -38670.18, 0.0018804772, 9.998687, 9.99954 
1.7750356e+3, 1.7510235e+2, -1239698.1, -1273598.4, 105169.27, 0.061323732, -0.4476638, -1150121.8, 73833.875, 0.00008970714, 10.000061, 9.999603 
1.7750423e+3, 1.8510184e+2, -1130551.0, -1230754.1, -21769.197, -0.0053654592, -0.42655456, -1126026.0, -63.981045, 0.000000028818846, 10.000389, 9.999074 
1.7750461e+3, 1.9510087e+2, -1104987.0, -1149725.3, 7359.564, -0.2324556, -0.47049135, -1103807.4, -75835.56, 0.0, 9.999828, 9.99922 
1.7750531e+3, 2.0510025e+2, -1033572.4, -1094028.4, 49877.64, -0.23369153, -0.43746793, -1005477.94, -75499.31, 0.0, 9.999767, 9.99896 
1.775063e+3, 2.1509981e+2, -881691.6, -958091.94, 37713.723, -0.008568871, -0.41576853, -866211.5, -34227.95, 0.0, 10.000104, 9.999051 
1.775071e+3, 2.2509871e+2, -769038.9, -857413.7, -5158.628, 0.06856381, -0.42307928, -768738.75, -34745.668, 0.0, 10.000186, 9.999049 
1.7750773e+3, 2.3509704e+2, -669334.94, -738438.5, 31929.576, 0.01216398, -0.5395033, -656840.75, -20834.209, 0.0, 10.000125, 9.999212 
1.7750837e+3, 2.4509604e+2, -570609.5, -651511.06, 34917.13, -0.025372332, -0.5510104, -557623.6, -19609.414, 0.0, 10.000165, 9.999127 
1.7750904e+3, 2.550958e+2, -416823.28, -515193.3, 45747.35, -0.04778644, -0.5249866, -398836.97, 41178.324, 0.0, 10.000517, 9.999212 
1.7750971e+3, 2.6509494e+2, -348992.4, -565769.0, 13492.084, -0.046992518, -0.4683774, -348155.88, -6132.798, 0.00000032366296, 10.000889, 9.998011 
1.7751037e+3, 2.7509335e+2, -169654.31, -411672.97, 24800.459, -0.023092082, -0.4684005, -167139.08, 76898.99, 0.00002512301, 10.001395, 9.998136 
1.7751108e+3, 2.85091e+2, -25091.055, -300466.03, 58568.406, -0.048797715, -0.50775355, -13151.999, 132906.89, 0.0002007502, 10.001714, 9.998104 
1.7751184e+3, 2.9508814e+2, 111137.26, -179989.64, 45858.1, -0.092398286, -0.65919256, 118189.94, 166273.02, 0.0007396981, 10.001971, 9.998122 
1.7751275e+3, 3.0508676e+2, 111963.7, -259838.19, 30270.082, 0.03134935, -0.54889256, 114412.01, 114412.01, 0.0017576203, 10.002098, 9.997181 
1.7751355e+3, 3.150851e+2, 193422.86, -11267.867, -38581.027, -0.009575941, -0.4995232, 200453.31, 200453.31, 0.0031473008, 10.00178, 9.999003 
1.7850009e+3, 1.2509741e+2, -1743279.1, -1659461.8, 25072.8, 0.12076393, -0.4264915, -1652534.1, 61476.14, 0.08696164, 9.999434, 10.000654 
1.785007e+3, 1.3509697e+2, -1989011.5, -2058495.5, 88690.89, 0.08560407, -0.26026532, -1928500.8, -312480.97, 0.057701517, 9.998581, 9.997618 
1.7850085e+3, 1.4509666e+2, -1694718.5, -1451128.5, 65990.22, -0.37396842, -0.22765477, -1434400.1, 83620.414, 0.030258754, 9.998093, 10.001387 
1.7850168e+3, 1.5509577e+2, -1299095.3, -1180295.3, -1138.9662, -0.14344902, -0.51476854, -1180284.3, 239735.53, 0.0109521225, 10.000029, 10.001633 
1.785026e+3, 1.6509585e+2, -1317296.4, -1467329.5, 75973.664, 0.00566341, -0.5159887, -1285544.6, 36472.434, 0.0020959692, 10.00064, 9.998674 
1.7850353e+3, 1.7509612e+2, -1306051.3, -1400000.1, 50686.094, 0.03333772, -0.39415947, -1283919.4, -59899.395, 0.000105867584, 10.000018, 9.9987545 
1.7850423e+3, 1.8509543e+2, -1174975.8, -1216601.8, -46084.563, -0.022270521, -0.36240155, -1145222.4, -19194.113, 0.0000000562377, 9.999928, 9.999402 
1.785047e+3, 1.9509421e+2, -973368.4, -1046430.1, -41868.625, -0.1480676, -0.46869153, -954334.1, 73703.44, 0.0, 10.000546, 9.999589 
1.7850542e+3, 2.0509341e+2, -920013.44, -1050841.3, 31749.033, -0.13473146, -0.4653581, -912715.75, 17329.133, 0.0, 10.0005865, 9.998874 
1.7850633e+3, 2.150929e+2, -869766.6, -964349.44, 36164.813, 0.002797259, -0.44013172, -857523.44, -25471.758, 0.0, 10.000222, 9.998964 
1.7850712e+3, 2.2509204e+2, -725321.7, -790454.75, 34631.203, 0.062188577, -0.43809557, -710349.8, 23708.37, 0.0, 10.000307, 9.999448 
1.785078e+3, 2.3509096e+2, -537992.2, -632706.75, 20928.893, 0.046290684, -0.5325922, -533573.7, 102489.7, 0.0, 10.00086, 9.999582 
1.7850846e+3, 2.4508998e+2, -491315.47, -654409.56, 9369.662, 0.016711123, -0.5390169, -490778.97, 47292.266, 0.0, 10.000913, 9.998732 
1.7850909e+3, 2.5508916e+2, -441303.53, -572288.4, -28310.486, -0.047524173, -0.5296763, -435446.53, 4634.292, 0.0, 10.000563, 9.998787 
1.785098e+3, 2.6508823e+2, -339383.8, -526961.44, -14338.347, -0.030375369, -0.47506565, -338294.13, 3795.5425, 0.00000018370703, 10.000787, 9.998338 
1.7851058e+3, 2.750869e+2, -114062.97, -361711.97, -1111.674, 0.042750265, -0.47560734, -114057.98, 130041.805, 0.000020759246, 10.001629, 9.998391 
1.7851132e+3, 2.850846e+2, -15811.593, -369761.1, 61155.652, 0.023603389, -0.48756588, -5542.983, 140578.7, 0.00019246842, 10.00212, 9.997416 
1.7851208e+3, 2.950818e+2, 125752.87, -244407.3, 1471.9451, -0.054137383, -0.5621904, 125758.72, 173909.03, 0.0007361142, 10.002394, 9.997464 
1.7851298e+3, 3.050803e+2, 240398.89, -123802.29, 17330.773, 0.019476581, -0.46851003, 241221.73, 241221.73, 0.001742138, 10.0026655, 9.997838 
1.7851382e+3, 3.1507787e+2, 334981.0, 65092.863, -93295.414, 0.055519328, -0.54439646, 364091.6, 364091.6, 0.0030650639, 10.002684, 9.999111 
1.795001e+3, 1.2509352e+2, -1616489.5, -1408617.5, 163481.08, 0.13326693, -0.29360205, -1318830.1, 395223.88, 0.09190124, 9.999467, 10.002536 
1.795005e+3, 1.3509323e+2, -1896811.8, -1882685.5, 24688.826, 0.0011074288, -0.23395722, -1864069.4, -248014.66, 0.06119029, 9.998623, 9.998817 
1.7950086e+3, 1.4509147e+2, -1826924.8, -1721403.8, 106551.195, -0.19147237, -0.3110567, -1655265.9, -137196.7, 0.03230053, 9.998091, 9.999515 
1.7950186e+3, 1.5509017e+2, -1435151.1, -1449574.4, 82021.375, 0.011738609, -0.45350608, -1360025.0, 60053.918, 0.011841973, 9.999986, 9.999783 
1.7950268e+3, 1.6508982e+2, -1330359.8, -1508058.8, 40575.258, -0.010065634, -0.39301062, -1321533.3, 550.41626, 0.0023264778, 10.000686, 9.99838 
1.795033e+3, 1.7508961e+2, -1322398.4, -1436332.0, 33590.34, -0.21429786, -0.28920448, -1313232.5, -89141.46, 0.00012352158, 10.00002, 9.99851 
1.7950405e+3, 1.8508914e+2, -1152268.0, -1173167.3, -34694.836, -0.20509443, -0.2406195, -1126483.3, -387.19928, 0.000000085167756, 9.999948, 9.999688 
1.7950496e+3, 1.950886e+2, -969169.25, -1019591.9, -11183.481, 0.018351676, -0.30427217, -966800.1, 61296.773, 0.0, 10.00047, 9.999809 
1.7950568e+3, 2.0508792e+2, -903764.25, -995928.1, 4741.115, 0.042712376, -0.32068032, -903521.0, 26580.426, 0.0, 10.000485, 9.999304 
1.7950626e+3, 2.1508712e+2, -856403.9, -909405.9, 33088.164, -0.104739, -0.36920947, -840512.3, -8402.513, 0.0, 10.000094, 9.99941 
1.7950696e+3, 2.2508648e+2, -752195.4, -805067.56, 45454.363, -0.13426264, -0.36524126, -726048.5, 8064.8584, 0.0, 10.000128, 9.999435 
1.795078e+3, 2.3508622e+2, -567130.75, -648974.8, 52978.586, -0.048772987, -0.37910104, -541109.94, 95000.79, 0.0, 10.000672, 9.999559 
1.795085e+3, 2.4508518e+2, -577848.1, -785102.2, -12297.583, -0.052377824, -0.35141486, -577121.0, -39000.33, 0.0, 10.000699, 9.997941 
1.7950909e+3, 2.5508338e+2, -520271.38, -694886.25, -27942.887, -0.12618363, -0.36334258, -515908.78, -75765.734, 0.0, 10.000391, 9.998025 
1.7950988e+3, 2.6508155e+2, -324140.2, -451176.7, 7932.314, -0.05754594, -0.3883367, -323646.78, 18512.854, 0.00000013255313, 10.000594, 9.998952 
1.7951083e+3, 2.7507967e+2, -97868.4, -275543.22, 42748.633, 0.10881998, -0.513474, -88118.13, 156052.06, 0.0000188634, 10.001419, 9.999076 
1.7951165e+3, 2.8507772e+2, -110892.15, -518150.9, 56408.37, 0.10423104, -0.48390234, -103223.57, 42965.76, 0.00018763817, 10.001896, 9.996512 
1.7951241e+3, 2.9507592e+2, 25892.64, -381358.47, 35892.11, 0.0039206655, -0.36529446, 29031.709, 77245.516, 0.0007283647, 10.002104, 9.996657 
1.795132e+3, 3.0507374e+2, 243547.98, -40662.22, 4588.002, -0.041923746, -0.3383694, 243622.02, 243622.02, 0.0016996954, 10.00232, 9.998586 
1.7951395e+3, 3.1506982e+2, 304035.9, 113712.375, -30815.854, -0.12260508, -0.6568845, 308901.03, 308901.03, 0.002917687, 10.002236, 9.99964 
1.8049997e+3, 1.2508762e+2, -1888839.6, -1435516.3, 203275.6, 0.1892541, -0.25189883, -1357717.0, 356397.38, 0.097200245, 9.997121, 10.003492 
1.805003e+3, 1.3508673e+2, -1779292.4, -1786886.1, -137925.16, -0.07634224, -0.29146314, -1645111.9, -28993.729, 0.06490086, 9.999256, 9.999172 
1.8050092e+3, 1.4508557e+2, -1627247.6, -1713528.1, 4246.984, -0.018868992, -0.2922999, -1627039.1, -108911.4, 0.034457777, 9.999834, 9.998723 
1.8050186e+3, 1.5508428e+2, -1587525.6, -1611946.6, 39563.465, 0.05847929, -0.35076216, -1558331.3, -138189.81, 0.0127833225, 9.999322, 9.99898 
1.8050264e+3, 1.6508351e+2, -1517075.3, -1559428.4, 61156.574, -0.040683273, -0.3081313, -1473532.6, -151382.42, 0.0025744103, 9.999253, 9.998718 
1.8050328e+3, 1.7508267e+2, -1319477.3, -1389228.9, 78364.586, -0.21903919, -0.3052632, -1268578.3, -44418.707, 0.00014305822, 9.99986, 9.998904 
1.8050408e+3, 1.8508185e+2, -1159098.0, -1216595.4, 38348.68, -0.17200999, -0.29505825, -1139918.5, -13752.098, 0.00000010953618, 10.000065, 9.999332 
1.8050501e+3, 1.9508119e+2, -1065781.0, -1106139.9, -5308.258, 0.04788813, -0.33359703, -1065094.5, -36924.977, 0.0, 9.999988, 9.999442 
1.8050572e+3, 2.0508067e+2, -976608.7, -1037173.3, -20313.861, 0.069209695, -0.31241882, -970426.4, -40253.004, 0.0, 10.000013, 9.99925 
1.8050629e+3, 2.1508028e+2, -844155.3, -905182.25, -48877.945, -0.08071714, -0.31621453, -817048.25, 15129.913, 0.0, 10.000196, 9.999382 
1.8050699e+3, 2.2507946e+2, -746563.5, -826002.1, -30615.82, -0.12532066, -0.32017565, -736133.5, -1949.6534, 0.0, 10.000286, 9.999204 
1.8050781e+3, 2.3507828e+2, -627198.4, -708239.94, -61883.21, -0.08691867, -0.39508513, -593749.8, 42440.31, 0.0, 10.000393, 9.999283 
1.8050855e+3, 2.4507713e+2, -556001.25, -746146.7, -87274.1, -0.06450803, -0.37921813, -522017.44, 16183.173, 0.0, 10.000703, 9.998226 
1.8050922e+3, 2.55076e+2, -387375.0, -606345.94, -47749.42, -0.049363554, -0.3497967, -377415.63, 62799.746, 0.0, 10.001164, 9.998288 
1.8051004e+3, 2.6507425e+2, -202032.16, -409654.3, 35686.043, 0.009283195, -0.36607227, -196069.69, 146161.28, 0.00000007008213, 10.001518, 9.998787 
1.8051094e+3, 2.75072e+2, -49745.758, -276963.06, -20688.016, 0.05804098, -0.50751746, -47877.484, 196369.67, 0.000018211349, 10.001853, 9.998862 
1.805118e+3, 2.8507006e+2, -54977.547, -428678.0, 23623.994, 0.069364205, -0.4919302, -53490.047, 92775.33, 0.0001838329, 10.002005, 9.997071 
1.805127e+3, 2.9506853e+2, 70195.67, -304987.16, 75152.164, 0.09596858, -0.39405355, 84689.35, 132973.28, 0.0007150246, 10.002146, 9.997173 
1.8051352e+3, 3.0506623e+2, 227137.34, -76598.63, 83535.7, 0.051020138, -0.3941536, 248595.92, 248595.92, 0.0016464369, 10.002341, 9.998323 
1.8051428e+3, 3.1506386e+2, 275722.44, 19485.984, -77573.39, -0.033660676, -0.5096699, 297377.1, 297377.1, 0.0027767634, 10.002302, 9.999009 
1.814995e+3, 1.250801e+2, -1889130.6, -1447030.5, 135911.11, -0.061675996, -0.25175267, -1408590.8, 305597.1, 0.10291468, 9.997133, 10.003409 
1.8150005e+3, 1.3507724e+2, -1812853.0, -1843346.0, -54548.65, -0.28076303, -0.44299453, -1771460.3, -155247.66, 0.06887483, 9.99921, 9.998802 
1.81501e+3, 1.4507887e+2, -1586937.5, -1643241.9, -34045.78, 0.036853246, -0.1763225, -1570912.1, -52715.563, 0.036753505, 9.999876, 9.999194 
1.8150167e+3, 1.5507801e+2, -1564022.9, -1571508.4, 30338.797, -0.10066266, -0.21917348, -1537196.9, -116988.3, 0.01378539, 9.999342, 9.999257 
1.8150242e+3, 1.6507699e+2, -1445532.4, -1417711.6, 68925.72, -0.21567094, -0.26275513, -1361306.6, -39090.047, 0.002842686, 9.999282, 9.999674 
1.8150346e+3, 1.7507537e+2, -1258442.4, -1259779.4, 110198.57, -0.06393868, -0.43531555, -1148910.3, 75314.82, 0.00016504708, 9.999838, 9.999805 
1.8150428e+3, 1.8507364e+2, -1225419.0, -1352884.3, 23993.354, -0.020488558, -0.51240426, -1221052.3, -94813.445, 0.00000012908751, 10.000058, 9.998402 
1.8150482e+3, 1.9507201e+2, -1135335.0, -1243455.6, 1024.6244, -0.14816287, -0.5527073, -1135325.3, -107069.73, 0.0, 9.999952, 9.99852 
1.8150552e+3, 2.050716e+2, -1030814.6, -1125800.3, -21756.545, -0.1580811, -0.44929036, -1026068.44, -95806.836, 0.0, 9.999915, 9.998687 
1.8150638e+3, 2.1507224e+2, -906349.0, -999205.06, -31785.473, -0.011513237, -0.29088348, -896510.94, -64253.01, 0.0, 10.000045, 9.998809 
1.8150714e+3, 2.2507082e+2, -814287.06, -917022.1, -37388.883, -0.014381775, -0.30370337, -802120.75, -67849.84, 0.0, 10.000071, 9.998685 
1.8150778e+3, 2.3506734e+2, -689682.25, -797375.25, -45123.72, -0.1686668, -0.5574048, -673274.94, -36974.77, 0.0, 10.000218, 9.998755 
1.8150857e+3, 2.4506597e+2, -501367.03, -586705.5, -77692.82, -0.1400551, -0.59335816, -455397.44, 82912.484, 0.0, 10.0005, 9.999417 
1.815095e+3, 2.5506684e+2, -322113.5, -431923.3, -17929.88, 0.08516066, -0.49434373, -319260.03, 121039.33, 0.0, 10.0009985, 9.99956 
1.8151027e+3, 2.650662e+2, -308835.4, -583954.7, 37828.555, 0.06391984, -0.4136297, -303728.8, 38576.863, 0.0000000874347, 10.001307, 9.997694 
1.8151087e+3, 2.75064e+2, -159219.4, -448548.78, 8501.566, -0.20907806, -0.4480801, -158969.81, 85359.875, 0.00001648955, 10.001625, 9.997785 
1.8151174e+3, 2.850618e+2, 35087.395, -192100.89, 17624.025, -0.2135078, -0.48508385, 36446.44, 182794.47, 0.00017253889, 10.00178, 9.998809 
1.8151292e+3, 2.9505977e+2, 172641.67, -51318.918, 100483.836, 0.08255116, -0.6299016, 211115.98, 259475.9, 0.000680335, 10.001967, 9.998998 
1.8151386e+3, 3.0505782e+2, 70868.48, -330194.44, 66285.164, 0.13131805, -0.60264134, 81539.74, 81539.74, 0.0015763064, 10.002049, 9.996718 
1.8151452e+3, 3.1505767e+2, 89746.45, -196415.6, -1825.4899, -0.05633653, -0.34565985, 89758.09, 89758.09, 0.0026708979, 10.001647, 9.9978 
1.824992e+3, 1.2507266e+2, -1749292.8, -1415250.4, 163686.97, -0.103981264, -0.24714129, -1348413.8, 365842.88, 0.10907774, 9.99824, 10.003124 
1.825e+3, 1.3506916e+2, -1924901.3, -1971219.6, -14477.149, -0.22521046, -0.44272053, -1920748.6, -304459.1, 0.07313931, 9.998723, 9.998167 
1.8250102e+3, 1.4507002e+2, -1651868.9, -1658575.6, -50412.46, 0.09786976, -0.23432288, -1604698.4, -86415.31, 0.039204508, 9.999396, 9.999306 
1.8250157e+3, 1.5507004e+2, -1527042.1, -1557305.1, -41479.027, -0.13755062, -0.18824282, -1498020.8, -77732.484, 0.014855209, 9.999628, 9.99921 
1.8250231e+3, 1.650694e+2, -1432593.6, -1400349.3, -19672.313, -0.23601225, -0.19294153, -1391036.8, -68743.164, 0.0031336718, 9.999314, 9.999775 
1.8250352e+3, 1.7506784e+2, -1407741.9, -1311846.0, -58467.246, 0.09556034, -0.37533954, -1284180.3, -59878.797, 0.00019006866, 9.9987335, 9.999974 
1.8250439e+3, 1.8506613e+2, -1372687.5, -1420293.1, -95920.44, 0.13960807, -0.45988005, -1297660.6, -171345.56, 0.00000015151502, 9.999031, 9.998436 
1.8250477e+3, 1.950645e+2, -1084482.1, -1212569.6, -69328.72, -0.21385211, -0.5034327, -1054143.3, -25811.08, 0.0, 10.000295, 9.998561 
1.8250546e+3, 2.050639e+2, -913018.0, -1095374.5, -47681.492, -0.25565162, -0.40994006, -901303.1, 29036.795, 0.0, 10.000841, 9.998439 
1.8250647e+3, 2.1506408e+2, -824953.5, -988164.4, -53135.777, 0.03624292, -0.27407044, -809179.0, 23161.268, 0.0, 10.000728, 9.9985485 
1.8250728e+3, 2.250624e+2, -733742.6, -875094.94, -4755.3613, 0.092668265, -0.3008425, -733582.8, 772.1052, 0.0, 10.000578, 9.998741 
1.8250787e+3, 2.3505901e+2, -659795.2, -770776.3, 10617.088, -0.1048545, -0.5552356, -658788.6, -22406.03, 0.0, 10.000364, 9.998869 
1.8250865e+3, 2.4505767e+2, -492022.5, -578498.5, 349.861, -0.10948273, -0.59736824, -492021.1, 46370.125, 0.0, 10.000565, 9.999429 
1.8250959e+3, 2.5505835e+2, -297395.03, -419990.75, -55558.07, 0.07750792, -0.51294255, -275963.66, 164417.67, 0.0, 10.001177, 9.999542 
1.825104e+3, 2.6505765e+2, -301351.9, -580674.7, -6959.7544, 0.06324735, -0.43747893, -301178.63, 41209.81, 0.00000011582431, 10.001377, 9.997675 
1.8251105e+3, 2.7505547e+2, -215604.64, -485128.1, 5899.8047, -0.16475527, -0.45785967, -215475.55, 28937.67, 0.000015405387, 10.0012665, 9.997714 
1.8251196e+3, 2.850534e+2, 55027.89, -150848.92, 48653.125, -0.16772453, -0.4955787, 65946.59, 212377.13, 0.00016027999, 10.001791, 9.999084 
1.8251313e+3, 2.950516e+2, 325710.8, 42182.332, -18022.084, 0.042881727, -0.63281196, 326851.78, 375290.53, 0.00063771853, 10.00293, 9.999184 
1.8251412e+3, 3.0504948e+2, 238758.55, -290264.56, -65980.44, 0.11699631, -0.6174454, 246863.53, 246863.53, 0.0015065027, 10.003366, 9.996358 
1.8251486e+3, 3.1504872e+2, 327829.5, -116159.39, -85870.914, 0.07058203, -0.37030885, 343858.88, 343858.88, 0.0026114455, 10.003342, 9.997587 
1.8349904e+3, 1.2506354e+2, -1790572.9, -1502860.1, 162508.48, -0.16837664, -0.43988135, -1429682.8, 284655.13, 0.11569034, 9.998261, 10.002472 
1.8350014e+3, 1.350629e+2, -1980390.6, -2082819.5, 32156.457, 0.009381268, -0.26595503, -1971132.4, -354787.22, 0.07769921, 9.9987135, 9.997401 
1.835009e+3, 1.450591e+2, -1673094.9, -1713088.1, -47726.402, 0.011916885, -0.46863547, -1641345.3, -122958.74, 0.04181763, 9.999438, 9.998912 
1.8350154e+3, 1.5506035e+2, -1556488.4, -1621231.4, -23635.621, -0.16103487, -0.25843233, -1548778.0, -128396.82, 0.015997248, 9.999633, 9.998771 
1.8350232e+3, 1.650608e+2, -1474879.3, -1495393.3, -58553.277, -0.20102929, -0.09517682, -1425691.4, -103310.766, 0.0034491862, 9.999345, 9.999111 
1.8350351e+3, 1.7505991e+2, -1448326.8, -1401898.3, -72330.07, 0.17088825, -0.14433196, -1349148.4, -124758.17, 0.00021871291, 9.998747, 9.999356 
1.8350436e+3, 1.8505907e+2, -1307102.5, -1282640.1, -59372.938, 0.18306042, -0.16333315, -1234251.6, -107853.78, 0.00000018976193, 9.999031, 9.999377 
1.8350479e+3, 1.9505845e+2, -1032088.7, -1087827.3, -13045.183, -0.24401672, -0.19622843, -1029186.6, -785.48615, 0.0, 10.000224, 9.999452 
1.8350548e+3, 2.0505738e+2, -920162.1, -1084714.4, -62565.406, -0.33042875, -0.19921853, -899075.9, 31334.035, 0.0, 10.000731, 9.998564 
1.8350649e+3, 2.1505572e+2, -836607.25, -981219.7, -49624.66, -0.037243158, -0.25980943, -821216.25, 11209.058, 0.0, 10.000593, 9.998659 
1.8350734e+3, 2.2505423e+2, -717964.75, -796341.56, -21160.025, 0.08045372, -0.30296576, -712616.94, 21818.701, 0.0, 10.00038, 9.999379 
1.8350804e+3, 2.3505303e+2, -637723.0, -683512.3, 15259.936, 0.016065752, -0.40434375, -633103.5, 3336.322, 0.0, 10.000189, 9.999555 
1.8350877e+3, 2.4505189e+2, -606521.4, -763459.56, 12594.944, -0.06990527, -0.40564755, -605517.0, -67069.375, 0.0, 10.000336, 9.998273 
1.8350948e+3, 2.550507e+2, -411825.9, -607906.44, -18320.148, -0.16105755, -0.39105707, -410128.9, 30331.14, 0.0, 10.000975, 9.998349 
1.8351038e+3, 2.650489e+2, -275695.47, -488149.13, -19717.723, -0.11594913, -0.3981641, -273880.97, 68595.71, 0.000000090536304, 10.001198, 9.998401 
1.8351142e+3, 2.7504647e+2, -181416.27, -379096.28, 19700.506, 0.06419845, -0.5259237, -179472.06, 65026.387, 0.00001528185, 10.001114, 9.998514 
1.8351239e+3, 2.8504467e+2, -63257.58, -354108.66, 72675.64, 0.05774053, -0.5137195, -46109.023, 100405.56, 0.00015297614, 10.001598, 9.997786 
1.8351327e+3, 2.9504383e+2, 198928.19, -158460.14, 41985.984, -0.13929357, -0.42866474, 203794.44, 252316.44, 0.000605686, 10.002671, 9.997922 
1.8351422e+3, 3.0504122e+2, 214083.39, -256026.19, -82214.54, -0.13999131, -0.41405204, 228046.64, 228046.64, 0.0014557011, 10.003003, 9.996765 
1.8351513e+3, 3.1503764e+2, 292157.7, -73354.36, 11594.105, -0.04934624, -0.52081764, 292525.1, 292525.1, 0.0025875783, 10.0028715, 9.998088 
1.8449877e+3, 1.2505177e+2, -1857823.0, -1499780.0, 32939.563, -0.2035666, -0.54207915, -1496774.8, 217677.94, 0.12272786, 9.997612, 10.002809 
1.8450007e+3, 1.3505308e+2, -1840454.4, -1952251.3, -94775.02, 0.051114976, -0.22072212, -1786321.3, -169881.34, 0.08254445, 9.999446, 9.997936 
1.845008e+3, 1.450482e+2, -1567671.9, -1622163.8, -129390.07, -0.059802454, -0.5728326, -1462690.3, 55800.273, 0.04459436, 9.99997, 9.999305 
1.8450156e+3, 1.5505019e+2, -1576247.8, -1577903.1, -73108.53, -0.073495865, -0.33556372, -1503962.1, -83485.83, 0.017215712, 9.999264, 9.999255 
1.8450236e+3, 1.6505119e+2, -1544211.9, -1560291.8, -29114.78, -0.071332015, -0.12688002, -1522047.4, -199575.75, 0.0037916328, 9.999026, 9.998818 
1.8450338e+3, 1.7505036e+2, -1357475.6, -1391806.0, -40122.625, 0.12790564, -0.13762517, -1331000.6, -106515.78, 0.00025177147, 9.999538, 9.999042 
1.8450423e+3, 1.8504977e+2, -1220125.3, -1208605.5, -5449.4517, 0.13217099, -0.12723781, -1206436.1, -79944.59, 0.00000025167606, 9.999487, 9.999662 
1.8450485e+3, 1.9504976e+2, -1182454.4, -1126042.0, -26198.242, -0.12884933, -0.13336745, -1115752.3, -87263.6, 0.0, 9.999036, 9.999758 
1.8450563e+3, 2.0504868e+2, -1078199.4, -1126010.6, -61683.64, -0.19695832, -0.16862568, -1035951.06, -105454.9, 0.0, 9.999491, 9.998889 
1.8450654e+3, 2.1504648e+2, -759538.06, -906316.56, -53338.918, -0.055274483, -0.31325066, -742202.3, 90312.09, 0.0, 10.00097, 9.998999 
1.8450738e+3, 2.250453e+2, -591853.75, -756906.4, -66544.625, 0.047747117, -0.3346525, -568366.94, 166155.11, 0.0, 10.00136, 9.999165 
1.8450816e+3, 2.3504497e+2, -573945.56, -680436.4, -119676.44, 0.08463332, -0.3240374, -496204.22, 140315.84, 0.0, 10.000748, 9.999298 
1.8450889e+3, 2.4504359e+2, -591447.0, -799618.5, -73482.31, 0.016618695, -0.3177955, -568122.0, -29590.686, 0.0, 10.000633, 9.997875 
1.8450958e+3, 2.5504118e+2, -426853.13, -660854.6, -74014.05, -0.1648788, -0.38366476, -405408.0, 35147.58, 0.0, 10.001056, 9.997948 
1.8451048e+3, 2.650389e+2, -240241.14, -450642.9, -56916.46, -0.13091709, -0.42753652, -225831.36, 116744.484, 0.00000009817215, 10.001363, 9.998576 
1.845116e+3, 2.7503678e+2, -99162.03, -322078.13, -84296.34, 0.10059378, -0.54077697, -70874.7, 173718.31, 0.000013983738, 10.001612, 9.998661 
1.8451262e+3, 2.850352e+2, -36585.22, -360250.66, 30064.748, 0.11806767, -0.5044442, -33816.246, 112791.71, 0.00014295103, 10.001881, 9.997607 
1.8451354e+3, 2.9503465e+2, 119626.49, -211661.78, 31857.879, -0.09647437, -0.36579403, 122662.24, 171277.67, 0.00057309034, 10.002188, 9.997803 
1.8451458e+3, 3.0503243e+2, 192835.3, -198822.73, -19629.021, -0.039882947, -0.33653703, 193816.61, 193816.61, 0.0014018476, 10.002564, 9.997379 
1.8451539e+3, 3.1502706e+2, 400259.97, 41189.633, 43188.08, -0.07449386, -0.66697544, 405381.5, 405381.5, 0.0025416845, 10.003328, 9.998661 
1.854985e+3, 1.250388e+2, -1764202.8, -1350590.4, 153352.77, -0.29589432, -0.41737092, -1299936.1, 414650.8, 0.13014582, 9.997721, 10.003966 
1.8549979e+3, 1.3503948e+2, -1721285.3, -1704365.9, -23842.8, -0.19246924, -0.34207478, -1687526.5, -70950.28, 0.08765755, 9.99943, 9.999648 
1.8550065e+3, 1.4503738e+2, -1484479.0, -1450722.8, -160279.03, -0.23705533, -0.55458635, -1306435.6, 212159.17, 0.04753598, 9.999982, 10.000512 
1.855016e+3, 1.5503952e+2, -1477229.8, -1382624.8, -89557.664, 0.017646315, -0.4311198, -1328645.0, 91929.16, 0.01851746, 9.999296, 10.000593 
1.855024e+3, 1.6504046e+2, -1534263.6, -1550609.9, -24961.865, 0.021144396, -0.30196276, -1516170.9, -193603.34, 0.0041650403, 9.999071, 9.998862 
1.855031e+3, 1.750391e+2, -1363391.8, -1403533.8, -10807.232, -0.1240768, -0.36392015, -1360667.1, -136080.98, 0.00029041685, 9.999525, 9.99897 
1.8550396e+3, 1.8503824e+2, -1242404.5, -1255484.9, -34293.008, -0.11626492, -0.35781813, -1214033.6, -87436.75, 0.0000003514084, 9.999493, 9.999339 
1.8550494e+3, 1.9503844e+2, -1213163.3, -1174779.1, -35593.465, 0.029012665, -0.31162196, -1153533.3, -124938.445, 0.0, 9.998971, 9.999456 
1.8550582e+3, 2.050378e+2, -1059122.0, -1060778.9, -16686.512, 0.03027388, -0.3099385, -1043243.4, -112644.96, 0.0, 9.999382, 9.999389 
1.855066e+3, 2.150363e+2, -748628.0, -843742.94, 11694.104, -0.096125856, -0.43722728, -747211.4, 85396.945, 0.0, 10.000801, 9.999508 
1.855074e+3, 2.2503534e+2, -694460.0, -925622.25, -98915.97, -0.10261673, -0.40740275, -657911.7, 76704.37, 0.0, 10.00116, 9.998108 
1.8550816e+3, 2.3503487e+2, -673702.6, -852577.8, -130440.59, 0.0038889379, -0.30310988, -604982.6, 31639.777, 0.0, 10.000593, 9.998194 
1.8550898e+3, 2.4503301e+2, -601978.25, -777154.25, -68173.93, 0.025914693, -0.299294, -578573.75, -39933.9, 0.0, 10.00044, 9.998123 
1.8550983e+3, 2.5502983e+2, -432530.03, -626994.44, -46720.41, -0.029727792, -0.47187307, -421887.78, 18780.102, 0.0, 10.000869, 9.998264 
1.855107e+3, 2.6502767e+2, -295172.5, -516857.72, -59582.38, -0.08329886, -0.5060411, -280173.38, 62512.97, 0.00000008466028, 10.001158, 9.998221 
1.8551153e+3, 2.7502638e+2, -158233.8, -393328.16, -56429.547, -0.13909154, -0.50082064, -145390.67, 99306.55, 0.000011476472, 10.001401, 9.998271 
1.8551262e+3, 2.8502497e+2, -26636.467, -288488.38, 27728.986, -0.10320622, -0.4541203, -23732.295, 122977.734, 0.00012752597, 10.001649, 9.998218 
1.8551391e+3, 2.9502404e+2, 142106.61, -113077.14, 60082.727, 0.03733659, -0.4244857, 155545.31, 204264.61, 0.0005311809, 10.001963, 9.99859 
1.8551514e+3, 3.0502307e+2, 188773.31, -132984.86, -14567.802, 0.23455794, -0.34719956, 189431.53, 189431.53, 0.001327311, 10.002254, 9.997978 
1.8551575e+3, 3.1501883e+2, 346159.75, 79481.63, 117250.19, -0.09689981, -0.6128464, 390378.9, 390378.9, 0.002436143, 10.002719, 9.999204 
1.8649848e+3, 1.2502739e+2, -1589304.5, -1395064.1, 258080.86, -0.18702802, -0.31432402, -1216434.3, 498263.78, 0.1378835, 9.999691, 10.002679 
1.8649963e+3, 1.3502818e+2, -1993006.0, -1705905.4, 33601.34, -0.17653051, -0.34203258, -1702025.3, -85337.05, 0.09301642, 9.997015, 10.000792 
1.865005e+3, 1.4502764e+2, -1908854.0, -1590162.5, -72642.83, -0.22196393, -0.48771036, -1574385.4, -55694.105, 0.050644647, 9.9967985, 10.001033 
1.8650153e+3, 1.5502928e+2, -1453810.1, -1319969.0, -89252.87, 0.021253647, -0.4611058, -1275334.9, 145337.53, 0.01991141, 9.99925, 10.00104 
1.8650234e+3, 1.6503003e+2, -1367545.3, -1444912.8, -64821.85, 0.022616666, -0.38642368, -1330741.9, -8075.9224, 0.0045744055, 10.000097, 9.999088 
1.8650298e+3, 1.750291e+2, -1359988.4, -1371614.5, -51909.418, -0.17936379, -0.42925343, -1313567.5, -88888.23, 0.0003360051, 9.999425, 9.999225 
1.8650387e+3, 1.8502836e+2, -1270022.9, -1304620.6, -30274.383, -0.14504814, -0.40990266, -1252453.6, -125764.305, 0.00000050835786, 9.999455, 9.999021 
1.8650497e+3, 1.9502823e+2, -1026500.56, -1120028.5, -49610.55, 0.09591737, -0.3654552, -1005087.75, 23604.148, 0.0, 10.000401, 9.999148 
1.8650591e+3, 2.0502761e+2, -899131.06, -974410.4, -19186.424, 0.13610342, -0.353545, -894523.1, 36173.35, 0.0, 10.000448, 9.99946 
1.8650669e+3, 2.1502633e+2, -898680.6, -911544.94, -44610.477, -0.03594045, -0.46427646, -860040.94, -27336.34, 0.0, 9.999739, 9.999556 
1.865075e+3, 2.2502539e+2, -844110.6, -1009176.3, -109945.04, -0.06193003, -0.4295686, -789167.7, -54454.62, 0.0, 10.000187, 9.998009 
1.8650831e+3, 2.3502488e+2, -499722.22, -780611.3, -92160.266, 0.03688803, -0.3159686, -472184.06, 164536.75, 0.0, 10.001842, 9.998096 
1.8650916e+3, 2.4502297e+2, -352033.1, -667462.3, -16249.8, 0.08658868, -0.30809605, -351198.2, 187541.08, 0.0, 10.002202, 9.998025 
1.8651004e+3, 2.5501963e+2, -377644.22, -615785.25, -45294.402, 0.0736254, -0.4855685, -369320.2, 71448.18, 0.0, 10.00131, 9.99813 
1.8651089e+3, 2.6501745e+2, -262538.84, -512070.1, -4987.202, -0.0049212035, -0.5095048, -262439.22, 80347.79, 0.000000065173005, 10.001424, 9.998127 
1.865117e+3, 2.7501637e+2, 7176.6143, -324134.38, -14678.301, -0.16725624, -0.46914554, 7825.646, 252621.28, 0.000009433609, 10.002571, 9.998188 
1.8651278e+3, 2.8501472e+2, 138805.52, -209164.13, 56209.332, -0.14411633, -0.44614974, 147659.98, 294470.56, 0.00011541126, 10.00279, 9.998201 
1.8651414e+3, 2.9501286e+2, 177166.72, -96537.766, 4140.701, 0.06465484, -0.5093184, 177229.34, 226057.83, 0.0004957237, 10.002207, 9.998568 
1.865155e+3, 3.050123e+2, 196964.3, -101418.79, -55689.6, 0.37997895, -0.4028827, 207019.25, 207019.25, 0.001252489, 10.002174, 9.998224 
1.8651599e+3, 3.150097e+2, 339643.56, 77771.336, -34157.07, -0.10037476, -0.52813256, 344025.47, 344025.47, 0.002297273, 10.002615, 9.999245 
1.8749855e+3, 1.2501685e+2, -1844334.5, -1949862.9, -5756.3164, -0.149889, -0.32936698, -1844021.4, -129228.69, 0.14588223, 9.999781, 9.998471 
1.8749952e+3, 1.3501929e+2, -1951435.1, -1622443.9, -56322.664, -0.014412726, -0.22436726, -1613068.8, 3706.556, 0.0986057, 9.997019, 10.001371 
1.875003e+3, 1.4501898e+2, -1912388.3, -1610086.3, 7403.9463, -0.13828959, -0.3797284, -1609905.0, -91125.46, 0.053927336, 9.996844, 10.0008745 
1.8750131e+3, 1.5501937e+2, -1482997.6, -1383508.3, 15744.274, -0.16114922, -0.4337789, -1381076.1, 39695.965, 0.021407956, 9.999253, 10.000595 
1.8750219e+3, 1.6501984e+2, -1329431.8, -1372030.0, -101361.195, -0.18050441, -0.38749775, -1247156.1, 75610.99, 0.0050250688, 10.000125, 9.999579 
1.87503e+3, 1.7502034e+2, -1326299.8, -1299805.6, -69560.766, -0.14516053, -0.33687818, -1242241.9, -17476.93, 0.00038988978, 9.999406, 9.999734 
1.875039e+3, 1.8501997e+2, -1285545.3, -1338570.0, -8977.538, -0.08802684, -0.2932982, -1284066.5, -157296.05, 0.000000733184, 9.999467, 9.998784 
1.8750492e+3, 1.9501907e+2, -1056512.0, -1161726.8, -5676.9897, -0.01898814, -0.29812688, -1056206.6, -27425.863, 0.0, 10.00032, 9.9989 
1.8750587e+3, 2.0501795e+2, -931656.4, -1027817.5, -60748.938, 0.014425371, -0.3053983, -902263.25, 28528.166, 0.0, 10.000379, 9.999131 
1.8750674e+3, 2.1501662e+2, -945411.44, -976055.56, -61058.14, 0.021321457, -0.38725376, -897782.25, -64979.387, 0.0, 9.999596, 9.999184 
1.8750764e+3, 2.2501557e+2, -819071.8, -913813.44, -57783.707, 0.04211155, -0.3815091, -791723.44, -56911.85, 0.0, 9.99999, 9.99876 
1.8750857e+3, 2.350149e+2, -472293.5, -677563.4, -18089.633, 0.08522998, -0.36466563, -470711.5, 166105.19, 0.0, 10.001646, 9.998894 
1.8750942e+3, 2.4501316e+2, -416232.75, -752454.1, -59018.086, 0.08750142, -0.35560507, -406174.03, 132658.45, 0.0, 10.001988, 9.997551 
1.8751016e+3, 2.5501037e+2, -437976.38, -698131.75, -64208.188, 0.049356893, -0.4308589, -422992.38, 17866.402, 0.0, 10.001131, 9.997651 
1.8751104e+3, 2.6500818e+2, -284794.22, -517023.53, 27884.05, -0.0090554925, -0.43356353, -281493.1, 61384.934, 0.00000004605578, 10.001231, 9.998195 
1.8751204e+3, 2.7500677e+2, -15660.629, -322832.4, 42722.535, -0.101006866, -0.43373507, -9829.328, 235059.48, 0.000008319171, 10.002356, 9.998305 
1.8751308e+3, 2.8500447e+2, 59336.17, -319844.28, 20090.367, -0.15460722, -0.45457423, 60397.66, 207307.7, 0.00010877432, 10.002553, 9.99756 
1.8751422e+3, 2.9500097e+2, 79481.19, -228497.61, 7117.8867, -0.11261361, -0.60810614, 79645.6, 128589.445, 0.0004720907, 10.001912, 9.997804 
1.8751562e+3, 3.05e+2, 149305.13, -122683.19, -54073.273, 0.24304006, -0.5042198, 159661.0, 159661.0, 0.001187898, 10.00185, 9.998232 
1.8751629e+3, 3.1499895e+2, 223876.52, -10349.859, -22979.563, -0.12804803, -0.47742015, 226109.72, 226109.72, 0.0021561233, 10.002003, 9.998919 
1.8849853e+3, 1.2500565e+2, -2128795.8, -2120794.0, -99761.086, -0.057874527, -0.44222668, -2024953.5, -310055.1, 0.15411249, 9.997952, 9.998185 
1.8849936e+3, 1.3500819e+2, -1672844.6, -1506989.6, -78744.75, 0.042560358, -0.33946943, -1475559.4, 141322.23, 0.10442951, 9.998966, 10.001316 
1.885001e+3, 1.450097e+2, -1573309.8, -1449661.0, 25782.51, -0.1130655, -0.3062223, -1444500.4, 74368.68, 0.057399224, 9.999177, 10.000877 
1.8850113e+3, 1.5500958e+2, -1586229.0, -1406792.5, 56803.805, -0.2171197, -0.42664975, -1390322.0, 30544.734, 0.023018045, 9.998466, 10.000801 
1.885021e+3, 1.6500989e+2, -1507235.9, -1451260.5, -39119.49, -0.2026932, -0.41094205, -1431147.9, -108284.6, 0.005521801, 9.998866, 9.999644 
1.8850306e+3, 1.7501079e+2, -1153011.5, -1211734.4, -59353.656, -0.07064533, -0.3275567, -1116154.0, 108702.61, 0.0004532519, 10.000565, 9.99979 
1.88504e+3, 1.850104e+2, -1072186.1, -1236837.0, 1967.4373, -0.009228819, -0.28736278, -1072162.6, 54699.105, 0.0000010252129, 10.00094, 9.998766 
1.8850493e+3, 1.9500877e+2, -1062457.3, -1167360.8, 7514.9023, -0.03346175, -0.3667233, -1061921.6, -33043.066, 0.0, 10.000283, 9.998878 
1.8850587e+3, 2.050078e+2, -963548.5, -1054893.3, -20178.313, -0.0074966373, -0.3537436, -959289.6, -28400.791, 0.0, 10.00022, 9.999018 
1.885068e+3, 2.1500756e+2, -754730.5, -892380.9, -26550.752, 0.058820933, -0.315316, -749786.8, 83105.32, 0.0, 10.000953, 9.999097 
1.8850774e+3, 2.2500657e+2, -642928.9, -824216.3, 7697.492, 0.09359455, -0.3027076, -642602.6, 92298.4, 0.0, 10.001192, 9.998784 
1.8850867e+3, 2.3500471e+2, -563439.06, -723226.2, -28785.746, 0.07802841, -0.40224493, -558411.5, 78505.01, 0.0, 10.001019, 9.998881 
1.8850955e+3, 2.4500287e+2, -489428.78, -763853.1, -77527.414, 0.07379572, -0.41293797, -469041.2, 69891.53, 0.0, 10.001392, 9.997758 
1.8851036e+3, 2.5500104e+2, -245242.98, -587610.5, -62718.45, 0.07205635, -0.40909642, -234115.23, 206834.28, 0.0, 10.002374, 9.997816 
1.885113e+3, 2.6499897e+2, -137036.2, -488421.44, 64088.832, 0.05980915, -0.38977993, -125712.04, 217256.25, 0.000000017635879, 10.002451, 9.997792 
1.8851233e+3, 2.7499688e+2, -130322.45, -417807.75, 17212.576, -0.013089179, -0.41820347, -129295.555, 115691.36, 0.000007223604, 10.001763, 9.997925 
1.8851332e+3, 2.8499427e+2, -82535.97, -381271.38, 21817.502, -0.11413861, -0.4496804, -80950.984, 66060.18, 0.00010058898, 10.001575, 9.997599 
1.8851435e+3, 2.9499066e+2, 99386.63, -227671.97, 26159.13, -0.15312615, -0.6185319, 101465.7, 150510.92, 0.00044321027, 10.002079, 9.997734 
1.885158e+3, 3.0498937e+2, 212788.66, -95854.05, 16639.691, 0.24189046, -0.53608775, 213683.16, 213683.16, 0.0011140514, 10.002264, 9.998245 
1.8851654e+3, 3.1498954e+2, 214590.55, 57057.668, -90066.48, -0.029146407, -0.40169096, 255474.11, 255474.11, 0.002010626, 10.001609, 9.999585 
1.8949832e+3, 1.24995396e+2, -1822024.3, -1543784.4, -149759.78, -0.12058239, -0.53193533, -1478497.0, 236502.75, 0.16258536, 9.99808, 10.002363 
1.8949912e+3, 1.3499506e+2, -1736864.4, -1628424.9, -26530.137, -0.12802939, -0.6755963, -1622282.1, -5276.801, 0.110513955, 9.9989395, 10.000411 
1.894999e+3, 1.449997e+2, -1558841.0, -1413348.8, -13022.291, -0.2768851, -0.27364954, -1412192.4, 106767.93, 0.06108175, 9.99915, 10.001152 
1.8950097e+3, 1.5499982e+2, -1535351.1, -1296975.6, 39660.31, -0.24335589, -0.44472522, -1290550.3, 130407.1, 0.024752133, 9.998441, 10.001585 
1.8950206e+3, 1.6500004e+2, -1516151.0, -1482240.3, 14986.693, -0.1694361, -0.46721455, -1476566.3, -153610.48, 0.0060684755, 9.998919, 9.999406 
1.8950315e+3, 1.7500049e+2, -1178655.9, -1258162.6, 12699.676, -0.04701621, -0.39895833, -1176676.6, 48277.477, 0.0005270964, 10.000537, 9.999483 
1.8950412e+3, 1.8499964e+2, -1049796.0, -1197647.3, -34117.37, -0.011271749, -0.40190685, -1042303.0, 84660.35, 0.0000013718216, 10.000973, 9.999018 
1.8950495e+3, 1.9499755e+2, -1056954.3, -1137649.1, -11152.793, -0.05663245, -0.55339074, -1055441.3, -26457.805, 0.0, 10.000208, 9.999114 
1.8950588e+3, 2.049973e+2, -974168.56, -1059033.3, -2078.4004, -0.05639652, -0.4808015, -974117.7, -43130.516, 0.0, 10.00013, 9.999041 
1.8950684e+3, 2.1499904e+2, -770694.4, -894778.1, 11059.866, -0.0042172866, -0.24872315, -769716.3, 63257.05, 0.0, 10.00081, 9.999155 
1.8950778e+3, 2.2499806e+2, -722359.44, -940378.5, -9496.392, -0.006572018, -0.20337301, -721946.56, 13037.708, 0.0, 10.000983, 9.998086 
1.8950865e+3, 2.3499441e+2, -641103.9, -838550.75, -21680.293, -0.084523536, -0.4154087, -638751.3, -1731.9971, 0.0, 10.000828, 9.998178 
1.8950957e+3, 2.4499229e+2, -469180.7, -675574.4, -51984.258, -0.07226182, -0.45564216, -456826.88, 82211.21, 0.0, 10.001179, 9.998474 
1.8951058e+3, 2.5499168e+2, -223312.08, -494193.9, -14017.925, 0.051241085, -0.40478772, -222588.58, 218451.98, 0.0, 10.002171, 9.998554 
1.8951158e+3, 2.6498964e+2, -227672.66, -631890.7, 26500.307, 0.08866718, -0.36939472, -225942.72, 117116.46, 0.0000000071100716, 10.0022545, 9.996903 
1.8951252e+3, 2.7498654e+2, -223046.8, -558729.6, 5238.5454, -0.010199535, -0.4166572, -222965.06, 22126.336, 0.0000064443307, 10.0015545, 9.997052 
1.8951346e+3, 2.8498405e+2, -67425.57, -304612.72, 24953.729, -0.15448375, -0.42558652, -64828.695, 82286.42, 0.0000894982, 10.001363, 9.998234 
1.8951453e+3, 2.9498157e+2, 84771.52, -186847.88, 71213.445, -0.20591295, -0.5458491, 102309.9, 151445.8, 0.00040204544, 10.001766, 9.99817 
1.89516e+3, 3.0498022e+2, 145613.83, -141760.55, -13542.896, 0.17382368, -0.4763949, 146250.64, 146250.64, 0.001023062, 10.001886, 9.998099 
1.8951677e+3, 3.1498095e+2, 188353.69, 164929.38, -114371.7, -0.012362164, -0.28755435, 291611.38, 291611.38, 0.0018605974, 10.000988, 10.000599 
1.904982e+3, 1.2498704e+2, -1812231.0, -1397808.0, -116592.19, -0.006057252, -0.45393533, -1367258.4, 347823.25, 0.1713416, 9.997429, 10.003859 
1.9049883e+3, 1.3498445e+2, -1792335.9, -1734184.3, 18033.717, -0.3010815, -0.7906432, -1729045.8, -111940.0, 0.11689223, 9.9989395, 9.999665 
1.9049987e+3, 1.4498942e+2, -1635785.4, -1507512.5, -27726.578, -0.1992413, -0.2751961, -1501775.9, 17281.088, 0.06499328, 9.998873, 10.0006075 
1.9050092e+3, 1.5498939e+2, -1600849.9, -1341806.9, -65316.92, -0.119149946, -0.4467563, -1326269.4, 94788.53, 0.026617203, 9.998028, 10.001479 
1.90502e+3, 1.6498964e+2, -1597589.6, -1479025.6, 12253.303, -0.07878483, -0.48180115, -1477772.5, -154715.73, 0.0066676727, 9.998179, 9.999785 
1.9050315e+3, 1.7498997e+2, -1263422.5, -1253153.6, 40495.125, -0.058668602, -0.4613088, -1217468.8, 7586.1577, 0.0006122247, 9.999768, 9.99988 
1.9050413e+3, 1.8498956e+2, -1162096.4, -1219208.5, -51355.813, -0.03507069, -0.456656, -1131891.4, -4831.7544, 0.0000017786746, 10.000072, 9.999304 
1.9050495e+3, 1.9498846e+2, -1166151.1, -1160383.3, -48128.67, -0.0349491, -0.5332094, -1115052.1, -85981.95, 0.0, 9.999333, 9.999385 
1.9050588e+3, 2.0498823e+2, -1102160.5, -1119229.6, 35586.95, -0.017365633, -0.47073442, -1074099.0, -143025.63, 0.0, 9.999268, 9.999028 
1.9050689e+3, 2.1498887e+2, -883415.06, -952735.7, 20649.494, 0.014558441, -0.34638563, -877730.1, -44661.2, 0.0, 10.000057, 9.999115 
1.9050786e+3, 2.2498766e+2, -761103.25, -991264.5, 18205.572, -0.012501472, -0.3078293, -759672.06, -24589.697, 0.0, 10.000838, 9.997816 
1.9050872e+3, 2.3498471e+2, -536359.0, -821589.1, 15921.013, -0.11930584, -0.42295283, -535473.06, 101639.28, 0.0, 10.001676, 9.997893 
1.9050972e+3, 2.4498293e+2, -397247.66, -648102.5, -12227.239, -0.06657346, -0.4112211, -396653.1, 142476.34, 0.0, 10.001729, 9.998379 
1.9051084e+3, 2.5498205e+2, -376171.16, -575672.25, -59379.363, 0.14674696, -0.37621555, -359835.2, 81300.51, 0.0, 10.001158, 9.998473 
1.9051188e+3, 2.6497987e+2, -324921.53, -663586.75, 19828.19, 0.21028118, -0.36496946, -323764.56, 19392.01, 0.000000016068412, 10.001516, 9.997041 
1.9051282e+3, 2.7497664e+2, -11582.125, -450059.9, 44382.35, 0.065936394, -0.43077463, -7134.886, 238054.28, 0.000006020835, 10.002939, 9.997147 
1.9051372e+3, 2.8497446e+2, 158246.66, -166636.05, 76901.336, -0.10183808, -0.42716792, 175530.11, 322739.4, 0.00007835106, 10.002788, 9.998497 
1.905147e+3, 2.9497278e+2, 15683.643, -187375.22, 57471.613, -0.1819691, -0.49569926, 30821.309, 80043.01, 0.00035541624, 10.00116, 9.998449 
1.9051608e+3, 3.0497053e+2, -12153.517, -266832.06, 32756.178, 0.1475264, -0.50717765, -8007.9707, -8007.9707, 0.000923281, 10.001016, 9.997668 
1.9051711e+3, 3.149699e+2, 407873.4, 293727.3, -189576.28, 0.18882875, -0.40129408, 548781.44, 548781.44, 0.0017138573, 10.002316, 10.000894 
1.914981e+3, 1.2497934e+2, -1935558.1, -1599352.8, -137491.84, 0.09071151, -0.3400795, -1550286.0, 164870.64, 0.18042894, 9.997364, 10.00225 
1.9149846e+3, 1.3497618e+2, -1838390.6, -1825739.5, 59905.195, -0.5893075, -0.69571286, -1771826.9, -154642.44, 0.12358676, 9.998931, 9.999037 
1.915e+3, 1.4497858e+2, -1708437.8, -1680134.5, -71287.24, -0.0013337395, -0.33415863, -1621607.8, -102446.2, 0.069141634, 9.998968, 9.999371 
1.915009e+3, 1.5497835e+2, -1669630.4, -1479056.0, -89378.75, 0.043749526, -0.42743692, -1443697.9, -22529.668, 0.028615344, 9.998015, 10.000525 
1.9150189e+3, 1.6497883e+2, -1517447.4, -1327309.0, 56355.87, -0.05683114, -0.4415397, -1311860.6, 11304.122, 0.0073205116, 9.99824, 10.000795 
1.91503e+3, 1.749794e+2, -1201707.4, -1111169.4, 105814.94, -0.20253435, -0.4999015, -1041346.75, 183810.77, 0.00070924795, 9.999715, 10.000876 
1.9150402e+3, 1.849802e+2, -1138832.6, -1177307.6, -90884.55, -0.19343254, -0.43827942, -1065171.9, 61977.973, 0.0000023137907, 10.000089, 9.999589 
1.9150488e+3, 1.9498149e+2, -1155526.9, -1121962.8, -67196.375, -0.053935442, -0.3018444, -1069484.5, -40345.3, 0.0, 9.999261, 9.999685 
1.9150585e+3, 2.0498046e+2, -1122993.8, -1147799.9, 54869.7, 0.0025884693, -0.32772335, -1079142.8, -147994.05, 0.0, 9.999191, 9.998872 
1.9150692e+3, 2.1497706e+2, -912766.1, -984155.44, 58361.395, 0.009575252, -0.59591526, -880049.06, -46870.094, 0.0, 9.999923, 9.998963 
1.9150795e+3, 2.249754e+2, -779615.4, -982580.0, 41987.79, -0.03114261, -0.602191, -771272.2, -36077.145, 0.0, 10.000632, 9.997979 
1.915089e+3, 2.3497565e+2, -555067.7, -810531.56, 59825.06, -0.118441515, -0.41190994, -541751.8, 95443.74, 0.0, 10.00147, 9.998067 
1.9150995e+3, 2.4497458e+2, -492261.53, -796927.25, -42985.0, -0.033617634, -0.2894969, -486312.97, 52896.055, 0.0, 10.0015135, 9.997462 
1.9151106e+3, 2.5497216e+2, -464874.2, -717338.1, -68547.46, 0.2452336, -0.32044727, -447463.34, -6227.733, 0.0, 10.00098, 9.997582 
1.9151215e+3, 2.6496974e+2, -278760.9, -523766.6, 60155.27, 0.2998532, -0.34434515, -264788.1, 78471.3, 0.000000038925435, 10.00132, 9.998099 
1.9151317e+3, 2.7496728e+2, 25230.041, -313082.9, 111882.54, 0.09339078, -0.43837065, 58882.875, 304162.75, 0.0000054500297, 10.00269, 9.998203 
1.9151402e+3, 2.8496552e+2, 109183.88, -216261.34, 555.46027, -0.10780446, -0.43272173, 109184.83, 256478.73, 0.00006657065, 10.002556, 9.998273 
1.915148e+3, 2.9496408e+2, -36606.02, -239872.64, 12769.112, -0.20907906, -0.45449263, -35807.008, 13497.311, 0.00030457476, 10.000925, 9.998202 
1.9151609e+3, 3.0496052e+2, -94821.28, -384413.78, 64166.7, 0.009728148, -0.5531698, -81240.39, -81240.39, 0.00081276876, 10.000776, 9.996969 
1.9151725e+3, 3.1495854e+2, 309288.06, 247234.4, -86728.28, 0.04325191, -0.53441817, 370372.34, 370372.34, 0.0015532362, 10.001685, 10.000845 
1.9249795e+3, 1.2496985e+2, -1857365.9, -1657823.8, -168454.98, 0.17155586, -0.25895676, -1561810.9, 153438.95, 0.18987963, 9.998378, 10.001328 
1.9249831e+3, 1.3496645e+2, -1812001.9, -1771157.3, 20697.158, -0.6194176, -0.68132687, -1762503.1, -145224.92, 0.13060497, 9.998917, 9.999423 
1.925e+3, 1.4496803e+2, -1695962.8, -1721182.0, -42337.527, 0.10017559, -0.39837432, -1664396.9, -145134.94, 0.07352615, 9.999262, 9.998942 
1.9250081e+3, 1.5496705e+2, -1464581.0, -1426573.6, -44131.414, 0.08549674, -0.5256186, -1397528.3, 23747.438, 0.030745408, 9.999622, 10.0001135 
1.9250174e+3, 1.6496758e+2, -1366285.4, -1218736.0, 132680.56, -0.058076255, -0.53189707, -1140698.9, 182573.08, 0.008026891, 9.999142, 10.001105 
1.9250286e+3, 1.749693e+2, -1402343.8, -1175941.0, 111362.11, -0.2392287, -0.5069117, -1130346.6, 94906.89, 0.0008187495, 9.998199, 10.001166 
1.9250394e+3, 1.8497068e+2, -1358213.8, -1261648.9, -80909.484, -0.1931503, -0.41304877, -1215710.6, -88470.23, 0.0000031359323, 9.998482, 9.999785 
1.9250493e+3, 1.9497178e+2, -991070.6, -1017162.3, -83351.086, 0.01893351, -0.317086, -919750.6, 109480.58, 0.0, 10.000268, 9.999918 
1.9250591e+3, 2.0497051e+2, -858191.6, -1050762.4, 47523.055, 0.060210742, -0.3693379, -847102.4, 84140.94, 0.0, 10.001144, 9.9986 
1.925069e+3, 2.1496679e+2, -730193.1, -924112.75, 21608.383, -0.06421302, -0.6386765, -727814.44, 105462.35, 0.0, 10.001312, 9.998704 
1.9250798e+3, 2.2496523e+2, -661702.8, -892335.75, 22012.105, -0.08068785, -0.6370612, -659620.75, 75670.92, 0.0, 10.001321, 9.998256 
1.9250914e+3, 2.3496574e+2, -572015.2, -786981.25, 24243.2, -0.012644575, -0.44687927, -569315.06, 67973.48, 0.0, 10.001218, 9.998349 
1.9251019e+3, 2.4496454e+2, -520463.75, -836945.56, -39888.266, 0.07180318, -0.34203318, -515513.78, 23789.756, 0.0, 10.001416, 9.997243 
1.9251114e+3, 2.5496176e+2, -326122.1, -682320.44, -36023.953, 0.1689425, -0.3839837, -322515.34, 118820.15, 0.0, 10.002047, 9.997326 
1.9251221e+3, 2.6495957e+2, -193590.42, -422872.0, 119169.516, 0.20842524, -0.395094, -142871.36, 200485.78, 0.000000047147957, 10.0016575, 9.998628 
1.9251335e+3, 2.7495787e+2, -285316.94, -401203.5, 102896.945, 0.13870962, -0.47085097, -225170.39, 20199.254, 0.0000044268, 10.000294, 9.998754 
1.925143e+3, 2.8495634e+2, -174715.0, -372715.22, 14391.452, 0.027632743, -0.46018237, -173674.44, -26293.455, 0.000054025306, 10.000709, 9.998073 
1.9251515e+3, 2.9495504e+2, 274224.03, -118546.234, -6129.02, -0.06424301, -0.4397675, 274319.66, 323709.9, 0.0002523582, 10.003165, 9.997962 
1.9251633e+3, 3.04951e+2, 298850.63, -236282.31, 78016.32, 0.03255103, -0.553528, 309992.53, 309992.53, 0.00069489056, 10.00366, 9.996595 
1.9251744e+3, 3.1494787e+2, 286101.4, 81966.74, -99636.28, 0.0632691, -0.6018007, 326670.4, 326670.4, 0.0013684693, 10.002118, 9.999527 
1.9349754e+3, 1.24957286e+2, -1853535.6, -1671116.9, -152773.11, -0.14903392, -0.33474886, -1584397.1, 130976.516, 0.1997211, 9.998462, 10.001188 
1.9349834e+3, 1.3495497e+2, -1722189.3, -1577005.5, 38042.69, -0.51274586, -0.7641359, -1567641.1, 49748.215, 0.13795441, 9.9988575, 10.000836 
1.9349982e+3, 1.449581e+2, -1659929.1, -1654739.1, -37012.51, -0.054148737, -0.4318905, -1620230.8, -100875.54, 0.07814733, 9.999291, 9.999386 
1.9350064e+3, 1.549556e+2, -1454869.0, -1410251.8, -22970.227, -0.089485146, -0.7293638, -1400540.0, 20839.852, 0.033007, 9.999629, 10.000228 
1.9350155e+3, 1.6495574e+2, -1382888.1, -1263224.9, 82960.9, -0.20074806, -0.7600284, -1220771.0, 102608.484, 0.008786739, 9.999184, 10.00078 
1.9350268e+3, 1.7495963e+2, -1427721.9, -1225899.0, 84460.98, -0.25717038, -0.48383677, -1195217.3, 30126.19, 0.00094156526, 9.998187, 10.000833 
1.9350386e+3, 1.8496099e+2, -1341545.0, -1235391.6, -23342.26, -0.15435694, -0.38041744, -1230485.6, -103154.945, 0.0000044945964, 9.998512, 9.999953 
1.9350505e+3, 1.9495952e+2, -990094.3, -1004234.6, -6665.091, 0.086095445, -0.5607068, -987448.0, 41896.64, 0.0, 10.00021, 10.000042 
1.9350603e+3, 2.049584e+2, -899209.0, -1115580.4, 42635.67, 0.033350818, -0.58087796, -891110.8, 40245.85, 0.0, 10.001055, 9.998199 
1.9350682e+3, 2.1495794e+2, -787970.44, -1000310.25, 36199.98, -0.29150143, -0.48219547, -781968.6, 51395.113, 0.0, 10.001124, 9.998272 
1.9350794e+3, 2.2495677e+2, -673706.56, -855559.25, 9151.245, -0.2740602, -0.4354937, -673247.2, 62128.246, 0.0, 10.001064, 9.998628 
1.9350938e+3, 2.3495491e+2, -575968.5, -746018.56, 30996.05, 0.08831554, -0.5220012, -570494.9, 66897.195, 0.0, 10.001016, 9.998723 
1.9351041e+3, 2.4495289e+2, -521178.72, -791249.06, -29439.4, 0.12049496, -0.53885484, -518006.88, 21405.66, 0.0, 10.001209, 9.997661 
1.9351102e+3, 2.549508e+2, -323387.4, -633590.25, -3490.706, -0.16616403, -0.5530926, -323348.13, 118087.9, 0.0, 10.001867, 9.997746 
1.9351202e+3, 2.6494926e+2, -232733.06, -446105.94, 54765.215, -0.16492444, -0.51677996, -219497.75, 123953.83, 0.00000001782158, 10.001417, 9.99858 
1.9351335e+3, 2.7494824e+2, -321895.22, -419014.8, 63170.08, 0.10191909, -0.5204254, -290777.47, -45317.875, 0.0000033385966, 10.000068, 9.998727 
1.9351456e+3, 2.8494698e+2, -218528.94, -426923.22, 84372.266, 0.16883677, -0.46518156, -188652.5, -41183.39, 0.00004416703, 10.000533, 9.997794 
1.9351564e+3, 2.9494566e+2, 231765.67, -148041.77, 101975.04, 0.096190564, -0.43133804, 257413.17, 306892.75, 0.00021030295, 10.002924, 9.997872 
1.9351673e+3, 3.0494213e+2, 229988.44, -308983.5, 6384.6343, 0.045164127, -0.4770609, 230064.06, 230064.06, 0.00059144275, 10.003356, 9.9962435 
1.935175e+3, 3.1493643e+2, 5875.2944, -344415.5, -60381.62, -0.1243429, -0.7408219, 15991.469, 15991.469, 0.0011865399, 10.001512, 9.996859 
1.9449723e+3, 1.24943405e+2, -1942353.1, -1813757.1, -11624.278, -0.28087735, -0.49530518, -1812714.8, -97209.586, 0.20999403, 9.998303, 10.000118 
1.9449843e+3, 1.3494337e+2, -1801345.6, -1540613.9, -58008.305, -0.24336554, -0.7455253, -1528290.5, 89212.84, 0.14565058, 9.997929, 10.001603 
1.9449957e+3, 1.449475e+2, -1744799.4, -1640179.6, -97686.15, -0.17944734, -0.38847598, -1581679.3, -62218.617, 0.083007626, 9.998447, 9.99991 
1.9450054e+3, 1.5494542e+2, -1434602.5, -1380531.8, -110563.836, -0.14935397, -0.6685475, -1293746.0, 127733.33, 0.03539992, 9.999671, 10.000437 
1.945015e+3, 1.6494514e+2, -1333251.3, -1270466.3, -39685.01, -0.17448369, -0.73826087, -1251258.4, 72223.49, 0.009600047, 9.999648, 10.000513 
1.9450258e+3, 1.749483e+2, -1352526.1, -1214793.4, -49354.613, -0.20285937, -0.5092114, -1198934.0, 26518.998, 0.0010784023, 9.998809, 10.000607 
1.9450377e+3, 1.8494931e+2, -1285239.9, -1190842.8, -50292.86, -0.10048135, -0.4388438, -1169069.8, -41626.71, 0.0000066792873, 9.998843, 10.000092 
1.9450505e+3, 1.9494766e+2, -1013885.5, -995640.56, -54107.027, 0.09497739, -0.6502996, -949892.4, 79564.984, 0.0, 9.999992, 10.000192 
1.945061e+3, 2.0494707e+2, -987341.0, -1132278.5, -19404.207, 0.03916736, -0.6358866, -984788.1, -53323.766, 0.0, 10.000341, 9.998429 
1.945069e+3, 2.1494775e+2, -930391.8, -1044143.7, 4634.5874, -0.26895714, -0.44432145, -930203.3, -96741.09, 0.0, 10.000031, 9.998501 
1.94508e+3, 2.2494681e+2, -814980.5, -903367.3, 26961.121, -0.25638384, -0.39810684, -807405.6, -71933.664, 0.0, 9.999989, 9.998821 
1.9450942e+3, 2.3494416e+2, -663747.06, -767894.6, 17707.055, 0.07112581, -0.5793475, -660818.9, -23324.371, 0.0, 10.000313, 9.99892 
1.9451049e+3, 2.4494228e+2, -537058.56, -737365.0, 388.52914, 0.10097951, -0.6184514, -537057.8, 2454.5483, 0.0, 10.000859, 9.998198 
1.9451118e+3, 2.549411e+2, -301735.5, -568152.6, 8372.956, -0.18341713, -0.5882963, -301472.63, 140053.11, 0.0, 10.001781, 9.9982395 
1.9451217e+3, 2.6493993e+2, -160629.84, -440614.22, 21367.361, -0.174128, -0.52965057, -159008.55, 184529.7, 0.000000002142629, 10.002022, 9.998329 
1.9451343e+3, 2.749388e+2, -113147.016, -358073.75, -11462.675, 0.10330906, -0.51789445, -112611.73, 132937.48, 0.0000030022966, 10.00163, 9.998414 
1.9451468e+3, 2.8493693e+2, -65678.266, -378340.7, 119565.25, 0.19292757, -0.49690637, -25196.633, 122369.56, 0.00003904193, 10.00169, 9.997581 
1.9451593e+3, 2.949347e+2, 142508.47, -200586.48, 101653.484, 0.115844764, -0.5259829, 170365.03, 219950.7, 0.0001845939, 10.002335, 9.997806 
1.9451709e+3, 3.0493262e+2, 175664.52, -210435.17, -9635.038, 0.13156371, -0.48913807, 175904.81, 175904.81, 0.0005147042, 10.002466, 9.997337 
1.9451775e+3, 3.1492785e+2, 99415.54, -318122.6, 4616.9146, -0.046515554, -0.74129707, 99466.586, 99466.586, 0.0010263633, 10.002189, 9.996733 
1.9549699e+3, 1.2492902e+2, -2067093.3, -2114602.5, 248438.42, -0.41586995, -0.64743584, -1841276.4, -125639.93, 0.22070916, 9.998441, 9.998006 
1.9549862e+3, 1.3493162e+2, -1768170.6, -1501934.5, -57124.656, 0.09869082, -0.62021893, -1490195.3, 127424.67, 0.15369554, 9.998005, 10.001891 
1.9549921e+3, 1.4493614e+2, -1687048.0, -1541069.9, -60044.11, -0.41214824, -0.28433833, -1519546.0, 33.365143, 0.08810495, 9.998537, 10.0005455 
1.9550048e+3, 1.5493643e+2, -1414251.0, -1345165.9, -57827.79, -0.2023223, -0.35392222, -1312349.4, 109225.336, 0.037922986, 9.999683, 10.000679 
1.9550158e+3, 1.6493583e+2, -1335581.0, -1290161.3, -84431.25, -0.11073986, -0.46169898, -1225439.0, 98139.91, 0.010466628, 9.999711, 10.000349 
1.9550252e+3, 1.7493539e+2, -1362087.9, -1242130.4, -73365.93, -0.1720709, -0.576505, -1207346.3, 18235.418, 0.0012294218, 9.998831, 10.000412 
1.9550364e+3, 1.8493555e+2, -1271623.8, -1171399.8, -17413.518, -0.15653896, -0.58408284, -1168460.4, -40882.453, 0.000009908067, 9.998886, 10.000201 
1.9550493e+3, 1.9493614e+2, -1016287.7, -984681.1, -3226.2559, -0.047693096, -0.5812453, -984355.1, 45214.934, 0.0, 9.999926, 10.000299 
1.9550608e+3, 2.0493627e+2, -945000.25, -1015697.44, -42237.945, -0.03335952, -0.54332775, -925271.0, 6298.107, 0.0, 10.0002165, 9.9992895 
1.9550708e+3, 2.1493615e+2, -891016.56, -924293.1, 2008.4647, -0.10551783, -0.519721, -890895.75, -57322.848, 0.0, 9.999874, 9.999394 
1.9550812e+3, 2.2493525e+2, -837634.4, -910449.94, 31349.332, -0.1508579, -0.52002025, -825997.3, -90415.44, 0.0, 9.999806, 9.998864 
1.9550924e+3, 2.3493351e+2, -688790.8, -774535.06, 40046.426, -0.16042243, -0.6157123, -672996.6, -35400.656, 0.0, 10.000126, 9.99896 
1.9551037e+3, 2.4493262e+2, -535333.94, -679183.2, 24345.643, -0.11540855, -0.5827626, -531325.3, 8278.817, 0.0, 10.000623, 9.99871 
1.9551156e+3, 2.5493258e+2, -293966.2, -502264.4, 54813.12, 0.0020114726, -0.4950242, -280422.8, 161183.19, 0.0, 10.001579, 9.99878 
1.9551264e+3, 2.6493168e+2, -224033.45, -527399.8, -4237.332, 0.05060026, -0.41426098, -223974.27, 119641.92, 0.00000003752054, 10.001818, 9.997839 
1.9551353e+3, 2.7492955e+2, -173537.58, -442997.88, -13908.936, 0.030957324, -0.44936785, -172821.53, 72816.15, 0.0000033251551, 10.001458, 9.997914 
1.9551463e+3, 2.8492624e+2, -129790.49, -448981.3, 127554.69, -0.03456005, -0.53064513, -85080.02, 62590.098, 0.000036409245, 10.001422, 9.997223 
1.9551596e+3, 2.9492253e+2, 82094.47, -249745.42, 146461.78, -0.10564539, -0.68086505, 137489.88, 187195.56, 0.00016708692, 10.00202, 9.997612 
1.9551738e+3, 3.0492264e+2, 291515.38, 101880.18, -45481.33, 0.1278622, -0.535535, 301859.22, 301859.22, 0.00045037686, 10.002139, 9.999653 
1.9551827e+3, 3.1492123e+2, 198547.72, 6289.559, 41436.44, 0.2127225, -0.68226737, 207098.05, 207098.05, 0.00087174913, 10.001726, 9.999166 
1.9649678e+3, 1.2491372e+2, -2301005.5, -2299286.0, 109394.09, -0.3998646, -0.6288426, -2190748.3, -474960.25, 0.23177752, 9.997227, 9.997283 
1.9649853e+3, 1.3491842e+2, -1695643.5, -1303667.8, -104251.875, 0.23555811, -0.5536048, -1277665.3, 340086.4, 0.1620495, 9.997731, 10.003621 
1.9649903e+3, 1.4492331e+2, -1759922.8, -1514183.5, -50759.227, -0.40728268, -0.29844847, -1504111.6, 15595.529, 0.093428105, 9.997805, 10.001066 
1.9650036e+3, 1.5492436e+2, -1665829.8, -1408493.4, -62086.53, -0.1746706, -0.3374649, -1394297.1, 27396.713, 0.04057487, 9.997746, 10.001133 
1.9650155e+3, 1.6492403e+2, -1526255.9, -1390130.8, -63030.445, -0.030741004, -0.44185394, -1365428.3, -41733.348, 0.011385711, 9.998434, 10.000274 
1.9650252e+3, 1.7492314e+2, -1211990.4, -1178362.0, -62650.74, -0.099656016, -0.59164137, -1130308.4, 95393.55, 0.0013940044, 9.999905, 10.00033 
1.965036e+3, 1.8492334e+2, -1085892.5, -1056770.3, 10172.148, -0.13098416, -0.60718197, -1053569.1, 74128.67, 0.000014255441, 10.000039, 10.000438 
1.9650482e+3, 1.9492434e+2, -1131138.8, -1015807.5, 15621.815, -0.102329046, -0.5859999, -1013728.94, 15955.831, 0.0, 9.999021, 10.000525 
1.9650601e+3, 2.0492479e+2, -1078612.0, -1033905.3, -965.3548, -0.065232486, -0.5499331, -1033884.5, -102204.71, 0.0, 9.999092, 9.999706 
1.9650714e+3, 2.1492474e+2, -794801.8, -834800.44, -10795.741, -0.03972066, -0.5598666, -792074.0, 41607.855, 0.0, 10.00033, 9.999796 
1.9650823e+3, 2.2492392e+2, -677274.75, -832326.6, 4176.8643, -0.08180938, -0.5714911, -677162.3, 58527.355, 0.0, 10.0009165, 9.998866 
1.9650923e+3, 2.3492217e+2, -563946.75, -721037.9, -15277.526, -0.22100447, -0.6637025, -562474.8, 75229.72, 0.0, 10.000998, 9.998914 
1.9651039e+3, 2.4492139e+2, -482357.1, -613730.0, -17612.451, -0.16723223, -0.63451135, -480036.84, 59673.98, 0.0, 10.00079, 9.999085 
1.9651172e+3, 2.5492185e+2, -459017.78, -541553.8, -20860.6, 0.07547662, -0.5328784, -454044.97, -12339.033, 0.0, 10.0002575, 9.999151 
1.9651286e+3, 2.6492092e+2, -407089.13, -651312.0, -42421.785, 0.16537543, -0.45489115, -399930.25, -56213.438, 0.00000006167767, 10.000727, 9.99751 
1.9651377e+3, 2.7491826e+2, -74871.484, -433454.22, -73282.31, 0.07204126, -0.5110161, -60473.176, 185273.6, 0.000003603985, 10.002315, 9.997559 
1.965148e+3, 2.849151e+2, 32165.998, -289519.3, 95536.1, -0.04694197, -0.5922642, 58399.55, 206177.84, 0.00003430298, 10.002188, 9.997946 
1.9651602e+3, 2.949124e+2, -116541.63, -276871.94, 156864.39, -0.1600959, -0.7035571, -20545.238, 29257.223, 0.00015136057, 10.000344, 9.998245 
1.9651753e+3, 3.049128e+2, 28742.97, -34240.867, -15493.792, 0.17186873, -0.5528125, 32348.04, 32348.04, 0.0003913985, 10.000362, 9.999581 
1.9651845e+3, 3.1491303e+2, 285479.63, 114824.99, -209312.2, 0.22261253, -0.5242166, 426188.47, 426188.47, 0.0007265236, 10.0019865, 9.999818 
1.9749664e+3, 1.24898724e+2, -2233828.0, -2212189.8, -210060.69, -0.33603713, -0.35952395, -2012669.9, -296721.38, 0.24301729, 9.997421, 9.997806 
1.9749811e+3, 1.3490385e+2, -1502401.1, -950131.5, -71681.76, 0.037973613, -0.55447334, -940979.25, 676918.2, 0.17062773, 9.997775, 10.006556 
1.9749899e+3, 1.4490901e+2, -1720642.1, -1461237.3, -67785.914, -0.28261444, -0.4348444, -1444592.0, 75251.92, 0.09895461, 9.997887, 10.001441 
1.9750017e+3, 1.549091e+2, -1619271.1, -1327288.3, -57159.86, -0.16871725, -0.62392634, -1316497.3, 105340.6, 0.04335473, 9.997788, 10.001701 
1.975014e+3, 1.6490957e+2, -1506322.0, -1361629.0, -18619.516, -0.056067146, -0.6826385, -1359271.5, -35439.836, 0.012356995, 9.998498, 10.000437 
1.9750257e+3, 1.7491151e+2, -1205256.1, -1160638.1, 469.96988, -0.07412033, -0.5601995, -1160633.1, 65181.684, 0.0015709848, 9.999895, 10.000456 
1.9750364e+3, 1.8491249e+2, -1059375.6, -1004821.9, -39259.96, -0.13060585, -0.5195026, -984293.2, 143510.77, 0.000019593592, 10.000049, 10.000793 
1.9750467e+3, 1.9491218e+2, -1114211.3, -966097.44, -13481.046, -0.1799091, -0.6650409, -964880.44, 64921.797, 0.0, 9.9989605, 10.000895 
1.9750582e+3, 2.0491248e+2, -1101168.0, -1054152.4, 36938.383, -0.18511707, -0.6566396, -1033875.94, -102078.44, 0.0, 9.9989805, 9.9996195 
1.9750708e+3, 2.1491364e+2, -826891.75, -859483.44, 43393.152, -0.15837823, -0.5412263, -796835.5, 36952.293, 0.0, 10.000152, 9.999709 
1.9750825e+3, 2.2491287e+2, -721311.44, -874188.75, -4733.7397, -0.1656649, -0.53355455, -721165.0, 14629.881, 0.0, 10.000691, 9.998692 
1.9750936e+3, 2.3491006e+2, -599318.5, -757169.1, 33.85764, -0.20158267, -0.71944016, -599318.5, 38502.258, 0.0, 10.00083, 9.99875 
1.9751048e+3, 2.4490869e+2, -497663.75, -601298.75, -47459.02, -0.16737165, -0.75087017, -479214.53, 60616.9, 0.0, 10.000592, 9.99927 
1.9751164e+3, 2.5490904e+2, -465837.22, -521191.47, -30721.33, -0.048941057, -0.6824215, -452164.3, -10339.66, 0.0, 10.000109, 9.999365 
1.9751284e+3, 2.6490775e+2, -463386.6, -715019.3, 2978.918, 0.047246985, -0.6346019, -463351.34, -119511.695, 0.000000055759365, 10.000498, 9.99718 
1.9751406e+3, 2.7490485e+2, -128386.44, -486121.03, -430.9412, 0.11599483, -0.68601704, -128385.914, 117490.12, 0.0000036492006, 10.002073, 9.997304 
1.9751512e+3, 2.849036e+2, 110252.5, -77375.32, 10305.565, 0.024101568, -0.6481424, 110816.84, 258706.3, 0.00003270768, 10.001958, 9.999523 
1.9751605e+3, 2.9490405e+2, -33047.73, -65742.97, 108396.664, -0.18520728, -0.6071703, 60227.105, 110105.914, 0.00013942833, 10.000182, 9.999773 
1.975175e+3, 3.049031e+2, -224063.9, -469421.47, 28267.064, 0.085804276, -0.52852255, -220849.44, -220849.44, 0.00034788088, 9.999999, 9.996761 
1.9751853e+3, 3.149028e+2, 147491.25, -37614.688, -133736.53, 0.05430875, -0.28587967, 217577.48, 217577.48, 0.0006197176, 10.001453, 9.999005 
1.9849655e+3, 1.2488841e+2, -2059871.0, -1966153.6, 11324.615, -0.17672081, -0.28778434, -1964804.6, -248750.48, 0.25424254, 9.997901, 9.999279 
1.9849782e+3, 1.3489237e+2, -1536884.3, -1036568.56, 112216.76, -0.032764, -0.55378586, -1012552.1, 605457.4, 0.17932345, 9.997817, 10.00588 
1.9849886e+3, 1.4489652e+2, -1769380.6, -1510597.0, 14669.784, -0.16633971, -0.4802825, -1509768.0, 10195.849, 0.104643695, 9.997687, 10.00116 
1.9850004e+3, 1.5489647e+2, -1531446.1, -1294018.5, -34505.68, -0.10965566, -0.67404884, -1289105.5, 132854.9, 0.046255346, 9.998425, 10.001643 
1.9850127e+3, 1.648973e+2, -1508867.3, -1347027.6, 1312.2375, -0.026357828, -0.7008472, -1347017.0, -23065.793, 0.013380272, 9.998422, 10.0005665 
1.9850247e+3, 1.7489982e+2, -1486821.1, -1283339.6, 1626.5005, -0.054741815, -0.5321656, -1283326.6, -57397.867, 0.0017591557, 9.9979105, 10.000569 
1.9850355e+3, 1.8490103e+2, -1338686.9, -1154929.3, -50197.508, -0.1107159, -0.4678265, -1142110.9, -14194.687, 0.0000256483, 9.998183, 10.000664 
1.985046e+3, 1.9490057e+2, -1047658.5, -953460.8, -79313.05, -0.17513004, -0.6171963, -908316.2, 121601.09, 0.0, 9.999475, 10.000742 
1.9850577e+3, 2.0490053e+2, -947642.56, -985178.44, -8363.415, -0.17914145, -0.63351107, -945863.44, -13947.66, 0.0, 10.000055, 9.999577 
1.9850709e+3, 2.149011e+2, -840481.0, -874280.25, -21295.148, -0.14895695, -0.5674342, -830194.56, 3715.3628, 0.0, 10.000093, 9.999639 
1.985083e+3, 2.2490047e+2, -807665.56, -883736.2, -58506.11, -0.13856664, -0.5569408, -775918.0, -40002.754, 0.0, 9.999964, 9.99897 
1.9850942e+3, 2.3489851e+2, -750136.25, -797703.56, -42570.25, -0.15620993, -0.68340546, -725156.3, -87223.42, 0.0, 9.999663, 9.999023 
1.9851054e+3, 2.4489719e+2, -605161.25, -667302.56, -55790.336, -0.12896962, -0.7184942, -572373.06, -32429.727, 0.0, 9.99995, 9.999108 
1.9851166e+3, 2.5489643e+2, -350454.47, -487490.44, -90444.66, -0.0746049, -0.7382373, -305504.6, 136442.36, 0.0, 10.001002, 9.999164 
1.985129e+3, 2.64895e+2, -336112.78, -606913.8, -19058.275, 0.024299055, -0.71469223, -334778.1, 9185.077, 0.00000004684117, 10.00117, 9.997599 
1.9851421e+3, 2.7489308e+2, -337546.06, -544844.94, 1722.121, 0.14954525, -0.7072195, -337531.75, -91541.76, 0.000003631824, 10.000443, 9.997691 
1.9851533e+3, 2.8489247e+2, -69518.35, -136839.73, -15107.079, 0.121824756, -0.6326736, -66283.7, 81713.78, 0.000030883682, 10.000634, 9.999736 
1.9851628e+3, 2.9489285e+2, 211605.63, 66747.555, -61915.89, -0.04237676, -0.61138386, 234463.22, 284451.44, 0.00012822116, 10.001835, 9.99987 
1.9851765e+3, 3.0489153e+2, 108827.836, -322878.88, -32706.805, 0.12489886, -0.5636756, 111291.695, 111291.695, 0.00031412422, 10.002311, 9.996655 
1.9851863e+3, 3.1489104e+2, 223063.47, 15011.666, -101325.26, 0.021221494, -0.3333243, 264255.3, 264255.3, 0.00054942287, 10.001841, 9.999191 
1.9949634e+3, 1.2488305e+2, -1860489.9, -1600897.5, -288682.13, -0.24178378, -0.40908483, -1414174.5, 301927.78, 0.26535824, 9.998037, 10.002256 
1.9949757e+3, 1.3488406e+2, -1823844.3, -1569203.4, 114719.49, -0.082958564, -0.5516394, -1525143.9, 92943.01, 0.18805622, 9.99787, 10.001452 
1.9949865e+3, 1.4488572e+2, -1819024.3, -1638708.1, 27279.57, -0.18988082, -0.44322982, -1634671.5, -114603.445, 0.11045076, 9.997797, 10.000222 
1.9949992e+3, 1.5488635e+2, -1574938.5, -1383503.5, 1032.0745, -0.09240187, -0.49866992, -1383498.0, 38564.31, 0.04926506, 9.998443, 10.00099 
1.9950113e+3, 1.648871e+2, -1495356.1, -1332967.9, -29592.96, -0.04911033, -0.5039557, -1327743.1, -3688.598, 0.014456319, 9.998476, 10.00064 
1.995022e+3, 1.7488797e+2, -1478550.4, -1267232.6, -13559.224, -0.12972845, -0.51054484, -1266366.1, -40321.504, 0.0019582892, 9.997911, 10.000679 
1.9950333e+3, 1.8488877e+2, -1380156.5, -1242408.8, -10708.031, -0.1802875, -0.46371222, -1241581.4, -113544.89, 0.000032105352, 9.9981985, 10.000054 
1.9950457e+3, 1.9488941e+2, -1099986.4, -1042100.4, -22631.338, -0.17142989, -0.4413521, -1034302.75, -4272.0513, 0.0, 9.999402, 10.000162 
1.9950584e+3, 2.0488887e+2, -967569.56, -1002721.56, -19407.838, -0.1485661, -0.47711068, -958962.0, -26927.307, 0.0, 9.999947, 9.999511 
1.9950715e+3, 2.148871e+2, -866216.75, -894229.4, -9986.837, -0.108342476, -0.6399792, -863020.94, -28971.986, 0.0, 9.999948, 9.999572 
1.9950834e+3, 2.2488666e+2, -789775.75, -802042.3, -75288.34, -0.12218014, -0.64096916, -720371.3, 15679.704, 0.0, 9.999769, 9.999624 
1.9950938e+3, 2.348876e+2, -726743.44, -711886.25, -40147.77, -0.17933854, -0.54662514, -678485.6, -40445.26, 0.0, 9.999498, 9.999691 
1.9951053e+3, 2.4488668e+2, -683666.06, -778218.56, -28699.75, -0.17690252, -0.5427896, -675636.6, -135588.58, 0.0, 9.9997225, 9.998461 
1.9951175e+3, 2.5488397e+2, -420652.47, -589430.7, -40712.164, -0.09627487, -0.69939107, -411345.25, 30728.34, 0.0, 10.000814, 9.998553 
1.9951299e+3, 2.648826e+2, -300600.34, -477906.47, -56237.02, -0.013543361, -0.6896829, -284267.84, 59820.313, 0.000000042002604, 10.000937, 9.998595 
1.995142e+3, 2.7488273e+2, -298658.03, -412514.75, -11516.323, 0.06861184, -0.57808, -297504.84, -51414.77, 0.0000035134383, 10.000238, 9.998691 
1.995154e+3, 2.8488144e+2, -201790.66, -361656.44, 14424.419, 0.096820615, -0.54872453, -200499.6, -52395.13, 0.00002820436, 10.00041, 9.998304 
1.9951667e+3, 2.9487866e+2, 82026.6, -151930.86, -245.284, 0.11929237, -0.7163899, 82026.86, 132159.11, 0.00011358975, 10.001606, 9.99848 
1.995179e+3, 3.0487818e+2, 199994.08, -19201.02, -64459.375, 0.117784046, -0.63198745, 217544.61, 217544.61, 0.00027761376, 10.001849, 9.998949 
1.9951862e+3, 3.1487885e+2, 187979.97, 72074.45, -82415.21, -0.23713368, -0.53461593, 230778.33, 230778.33, 0.0004898738, 10.001326, 9.999807 
2.004961e+3, 1.24876e+2, -1972543.3, -1530009.6, -413738.13, -0.21872166, -0.4079468, -1282087.5, 434080.34, 0.27641812, 9.996639, 10.003716 
2.0049745e+3, 1.3487372e+2, -1844551.9, -1840837.5, 45728.33, -0.040683366, -0.64004594, -1796928.8, -178744.61, 0.1968332, 9.998908, 9.998953 
2.0049855e+3, 1.4487457e+2, -1639269.3, -1632614.6, 46447.484, -0.14065412, -0.45056948, -1589375.4, -69201.11, 0.11636926, 9.99939, 9.999486 
2.004998e+3, 1.5487504e+2, -1556010.0, -1454884.0, -868.071, -0.07598473, -0.4532032, -1454876.6, -32703.63, 0.05238356, 9.998924, 10.000252 
2.0050098e+3, 1.6487524e+2, -1490474.3, -1344984.5, -35798.21, -0.045318577, -0.4695537, -1336653.4, -12482.663, 0.015589432, 9.998553, 10.000526 
2.0050207e+3, 1.748751e+2, -1381005.0, -1231770.9, -48967.23, -0.08774084, -0.57415575, -1217138.4, 9029.706, 0.0021699998, 9.998607, 10.000595 
2.0050324e+3, 1.8487532e+2, -1322205.4, -1276056.1, 15373.661, -0.10970882, -0.5522505, -1271403.8, -143238.33, 0.00003871999, 9.998878, 9.999489 
2.0050456e+3, 1.9487604e+2, -1093714.6, -1105795.0, -15111.924, -0.13397256, -0.4630464, -1083480.5, -53318.832, 0.0, 9.999744, 9.9995575 
2.0050584e+3, 2.0487553e+2, -972895.56, -971257.44, -33867.414, -0.12982726, -0.47816408, -938199.2, -6033.0913, 0.0, 9.999779, 9.999804 
2.005071e+3, 2.1487373e+2, -970906.6, -908591.7, -17182.488, -0.10548032, -0.6743845, -904167.94, -69988.76, 0.0, 9.999081, 9.99989 
2.0050833e+3, 2.2487357e+2, -827355.5, -789669.4, -33595.496, -0.093265995, -0.6760477, -769993.4, -33815.52, 0.0, 9.999393, 9.999887 
2.0050946e+3, 2.3487511e+2, -504770.5, -572583.3, -53460.785, -0.109750494, -0.5456156, -475370.5, 162790.94, 0.0, 10.000904, 9.999968 
2.0051064e+3, 2.4487445e+2, -473298.9, -687839.6, -40084.793, -0.10138476, -0.52534395, -466054.13, 74113.39, 0.0, 10.001182, 9.998391 
2.0051181e+3, 2.5487155e+2, -531093.1, -652148.44, -31116.594, -0.07809475, -0.690807, -523563.16, -81366.55, 0.0, 10.000081, 9.99848 
2.00513e+3, 2.6487055e+2, -394077.5, -463805.3, -13538.979, -0.030596599, -0.6686635, -391540.94, -47333.598, 0.000000029896977, 10.000047, 9.999113 
2.0051423e+3, 2.7487117e+2, -113043.23, -271402.13, -30250.83, 0.024529971, -0.5542514, -107461.26, 138740.34, 0.0000031274246, 10.001272, 9.999166 
2.0051551e+3, 2.848698e+2, -44354.082, -337623.5, 40603.18, 0.10871994, -0.5414932, -38836.38, 109381.15, 0.000025154262, 10.001705, 9.997854 
2.0051688e+3, 2.9486644e+2, -21146.984, -261618.44, 47120.402, 0.21432406, -0.7053322, -12243.398, 38010.152, 0.00009776422, 10.001154, 9.997948 
2.0051807e+3, 3.0486688e+2, 149272.33, 51761.645, -15416.623, 0.15579355, -0.54049414, 151651.66, 151651.66, 0.0002403355, 10.001068, 9.999834 
2.0051889e+3, 3.1486505e+2, 227729.77, 91890.695, -168056.95, -0.09082541, -0.7729085, 341073.03, 341073.03, 0.00043342356, 10.001564, 9.99986 
2.0149575e+3, 1.24866255e+2, -1978823.3, -1567169.1, -45407.09, -0.2989643, -0.3662055, -1562220.1, 154040.78, 0.28771394, 9.996654, 10.003023 
2.0149742e+3, 1.3486113e+2, -1865481.9, -1886835.3, 106904.92, 0.012350598, -0.8322633, -1768721.8, -150418.45, 0.20582092, 9.998917, 9.99864 
2.0149852e+3, 1.4486304e+2, -1668812.6, -1708052.0, 18568.934, -0.14822309, -0.50145876, -1661418.6, -141135.78, 0.12247417, 9.999443, 9.998947 
2.0149964e+3, 1.5486248e+2, -1610010.0, -1569191.9, -13370.28, -0.16758026, -0.53402746, -1565202.3, -142909.03, 0.055639356, 9.998934, 9.999462 
2.0150077e+3, 1.6486175e+2, -1494492.0, -1371393.8, -46599.973, -0.1388574, -0.58992213, -1355742.8, -31443.252, 0.016791714, 9.998628, 10.000314 
2.0150203e+3, 1.7486115e+2, -1394832.1, -1257022.3, -40063.54, -0.010533682, -0.7188027, -1246221.6, -19922.457, 0.0023981123, 9.998594, 10.000427 
2.0150328e+3, 1.8486072e+2, -1357821.6, -1360793.1, 32778.117, -0.01271852, -0.7269643, -1326495.6, -198192.98, 0.000045425786, 9.998915, 9.998895 
2.0150451e+3, 1.9486049e+2, -1148222.8, -1201549.5, 22890.217, -0.16409935, -0.67031693, -1139745.0, -109434.89, 0.0, 9.999672, 9.998936 
2.0150572e+3, 2.0486061e+2, -945549.75, -884697.4, -69278.69, -0.24313319, -0.623807, -839457.94, 92851.32, 0.0, 9.999651, 10.000461 
2.0150691e+3, 2.1486102e+2, -953048.2, -829351.6, -33713.957, -0.22581664, -0.6599732, -820759.56, 13540.941, 0.0, 9.998906, 10.000519 
2.0150821e+3, 2.2486109e+2, -873690.7, -839626.5, 12577.136, -0.16327436, -0.65773165, -835486.06, -99189.07, 0.0, 9.999182, 9.999653 
2.0150964e+3, 2.3486088e+2, -540296.56, -614776.2, 13910.437, -0.043491747, -0.6791377, -537783.4, 100514.26, 0.0, 10.000754, 9.999755 
2.0151085e+3, 2.4486025e+2, -473402.34, -631859.6, -87139.87, -0.03085642, -0.671542, -434857.75, 105446.23, 0.0, 10.000948, 9.998884 
2.0151179e+3, 2.5485915e+2, -524343.56, -595169.2, -62959.844, -0.12092733, -0.7043034, -487520.6, -45204.04, 0.0, 9.999908, 9.998951 
2.0151293e+3, 2.6485857e+2, -423584.53, -482677.9, 20397.396, -0.15333694, -0.65931255, -417227.75, -72904.38, 0.0000000091701935, 9.99986, 9.999077 
2.0151426e+3, 2.748585e+2, -136981.52, -280032.03, 30613.805, -0.09389896, -0.6200011, -130705.305, 115619.1, 0.0000023642951, 10.001096, 9.999193 
2.0151559e+3, 2.8485757e+2, -66886.46, -323034.47, 2967.8784, -0.0019680886, -0.5721449, -66852.08, 81483.336, 0.000021595964, 10.001449, 9.998072 
2.0151693e+3, 2.9485586e+2, -34760.938, -253652.34, 38924.234, 0.11863439, -0.6002208, -28045.297, 22311.11, 0.000083873885, 10.000981, 9.99809 
2.015181e+3, 3.0485716e+2, 39507.684, -81861.09, -17822.742, 0.04726703, -0.3174293, 42070.785, 42070.785, 0.00020822523, 10.000695, 9.999078 
2.0151922e+3, 3.1485155e+2, 110342.63, 19485.822, -39095.93, 0.031822957, -0.870325, 124849.45, 124849.45, 0.0003832048, 10.0008955, 9.999647 
2.0249556e+3, 1.2485193e+2, -1788736.8, -1564148.1, -37513.08, -0.23345226, -0.38492003, -1558048.0, 158349.7, 0.29983783, 9.998345, 10.002244 
2.0249726e+3, 1.3484678e+2, -2023631.3, -1838444.1, -71655.19, 0.05982888, -0.94381917, -1813956.4, -195513.67, 0.21537028, 9.997304, 9.999738 
2.0249838e+3, 1.4485177e+2, -1861550.3, -1736068.4, -54749.938, -0.15085468, -0.40513057, -1715538.9, -195146.81, 0.12892798, 9.99783, 9.999537 
2.0249951e+3, 1.5484984e+2, -1650244.9, -1563206.5, -38726.477, -0.14567755, -0.5983362, -1548470.5, -126057.55, 0.05909158, 9.998546, 9.999694 
2.025007e+3, 1.6484846e+2, -1488518.3, -1435745.5, -22434.709, -0.09356296, -0.6998673, -1427497.3, -103070.88, 0.018083457, 9.99899, 9.999681 
2.0250198e+3, 1.7484856e+2, -1283558.1, -1272994.1, -68352.87, 0.049680542, -0.6931271, -1209719.5, 16703.56, 0.0026487417, 9.9997, 9.999768 
2.0250325e+3, 1.8484826e+2, -1253507.8, -1276179.5, 19201.273, 0.052437432, -0.668185, -1242545.9, -114120.195, 0.000052423693, 9.999477, 9.999201 
2.0250444e+3, 1.948473e+2, -1298205.1, -1243950.0, 61663.387, -0.13874395, -0.7160831, -1203710.8, -173273.4, 0.0, 9.998494, 9.999216 
2.0250566e+3, 2.0484729e+2, -1110639.4, -987733.0, 10261.518, -0.20327106, -0.6882504, -986882.1, -54445.13, 0.0, 9.998621, 10.000242 
2.0250693e+3, 2.148482e+2, -797733.75, -783183.44, -41156.055, -0.14826769, -0.65223193, -748664.44, 85760.24, 0.0, 10.000089, 10.000261 
2.0250827e+3, 2.2484809e+2, -702649.0, -787674.0, -4281.716, -0.08074429, -0.6422964, -702433.94, 33989.94, 0.0, 10.000488, 9.9993725 
2.0250969e+3, 2.3484702e+2, -695699.25, -720812.8, -24301.748, -0.018177321, -0.7217307, -680901.94, -42468.15, 0.0, 9.999823, 9.999468 
2.025109e+3, 2.4484652e+2, -619981.56, -662095.1, -138997.98, -0.009977966, -0.70539904, -500454.5, 39984.688, 0.0, 9.999784, 9.999227 
2.0251185e+3, 2.5484645e+2, -413171.38, -506592.56, -146065.06, -0.083887435, -0.6658176, -306529.8, 135911.36, 0.0, 10.000524, 9.99926 
2.02513e+3, 2.6484582e+2, -251226.52, -453355.75, -21496.354, -0.11952279, -0.6187508, -248965.67, 95483.39, 0.000000001074916, 10.0012665, 9.998607 
2.0251437e+3, 2.7484477e+2, -49762.934, -287820.84, -69778.34, -0.11719643, -0.6283968, -30817.58, 215644.0, 0.0000018159459, 10.001926, 9.998733 
2.0251569e+3, 2.8484392e+2, 48316.26, -204046.02, -138276.48, -0.0581183, -0.5738882, 109330.38, 257801.2, 0.000018189116, 10.001946, 9.998653 
2.0251693e+3, 2.9484335e+2, 42134.914, -133571.73, -109166.266, 0.02696965, -0.5498735, 94408.25, 144885.97, 0.000072171526, 10.001166, 9.998816 
2.0251825e+3, 3.0484354e+2, 86011.31, -151453.78, -61567.56, 0.12702318, -0.3829953, 101024.73, 101024.73, 0.00017992307, 10.001343, 9.998324 
2.0251954e+3, 3.1483987e+2, 302836.78, 75265.18, -96371.41, 0.20747504, -0.64109945, 338163.88, 338163.88, 0.0003355793, 10.002307, 9.999385 
2.0349552e+3, 1.2483264e+2, -1840994.4, -1671301.3, -61293.51, -0.1826138, -0.51817954, -1651477.6, 65104.59, 0.3135409, 9.9984865, 10.001187 
2.0349693e+3, 1.3483043e+2, -1838426.9, -1504545.4, -61382.12, -0.039937343, -0.9878057, -1493618.3, 124986.42, 0.22593072, 9.997362, 10.002251 
2.0349807e+3, 1.448406e+2, -1721553.6, -1481965.3, -34527.867, -0.28178757, -0.16116157, -1477088.6, 43414.75, 0.13594478, 9.997957, 10.0012665 
2.0349944e+3, 1.5483713e+2, -1554023.5, -1368348.1, -11296.234, -0.10184645, -0.64475876, -1367663.4, 54869.31, 0.06282382, 9.998556, 10.001045 
2.0350069e+3, 1.6483527e+2, -1560682.9, -1599714.6, -12711.262, -0.042702124, -0.80563754, -1556908.3, -232356.4, 0.019494196, 9.999044, 9.998532 
2.0350192e+3, 1.7483719e+2, -1357853.8, -1436664.5, -33815.168, -0.007049239, -0.50368375, -1345333.6, -118793.08, 0.0029308582, 9.99973, 9.9986315 
2.0350315e+3, 1.8483785e+2, -1164194.9, -1101708.5, -24209.607, -0.0335236, -0.38830853, -1093426.5, 35109.008, 0.00006041413, 9.999524, 10.000379 
2.035043e+3, 1.9483645e+2, -1221790.4, -1070140.9, 33034.918, -0.14832617, -0.59860694, -1063257.1, -32713.082, 0.0, 9.998432, 10.000439 
2.0350562e+3, 2.0483547e+2, -1202045.6, -1153914.1, 52723.305, -0.1438952, -0.67461985, -1120023.8, -187473.25, 0.0, 9.998524, 9.999146 
2.0350713e+3, 2.1483521e+2, -895060.75, -950843.5, 23260.684, 0.022999011, -0.64909184, -886634.25, -52081.723, 0.0, 9.999942, 9.999181 
2.0350845e+3, 2.2483456e+2, -759201.6, -846303.0, -35646.754, 0.026874801, -0.62283766, -746473.06, -9914.304, 0.0, 10.000246, 9.999082 
2.0350958e+3, 2.348335e+2, -748533.44, -782161.25, -35348.95, -0.1256702, -0.6717556, -726203.3, -87633.14, 0.0, 9.999627, 9.999135 
2.0351075e+3, 2.448331e+2, -643697.9, -663112.5, -120201.87, -0.1606362, -0.6321043, -532812.0, 7762.5635, 0.0, 9.999575, 9.999324 
2.0351194e+3, 2.5483343e+2, -421080.66, -494812.5, -107664.13, -0.06273457, -0.5711556, -344145.6, 98425.734, 0.0, 10.000393, 9.999409 
2.035132e+3, 2.6483232e+2, -356155.28, -608990.8, -4356.573, -0.06919109, -0.53382236, -356080.22, -11495.403, 0.000000023664393, 10.001019, 9.997649 
2.0351453e+3, 2.748297e+2, -151445.34, -449960.97, -28710.594, -0.16205059, -0.603241, -148709.1, 97906.73, 0.0000019634658, 10.001719, 9.997717 
2.0351578e+3, 2.848285e+2, 64405.383, -96628.22, -179047.39, -0.19377686, -0.5742376, 180207.0, 328834.03, 0.000016146072, 10.001639, 9.9995365 
2.0351689e+3, 2.9482892e+2, 92457.96, 12915.088, -120016.71, -0.16993013, -0.54698586, 179121.4, 229738.75, 0.00006227005, 10.000972, 9.999923 
2.0351847e+3, 3.0482596e+2, -55030.25, -326716.66, -43692.625, 0.16585785, -0.7088069, -48176.496, -48176.496, 0.00015436458, 10.000873, 9.997324 
2.0351994e+3, 3.1482685e+2, 220895.36, 48079.586, 85563.36, 0.31882644, -0.4125333, 256090.97, 256090.97, 0.00029086813, 10.001742, 9.999442 
2.044954e+3, 1.2481658e+2, -2070034.9, -1938360.8, 53409.9, -0.10559431, -0.59432447, -1919420.9, -202686.45, 0.3294151, 9.997688, 9.999569 
2.0449677e+3, 1.3481583e+2, -1746541.3, -1385224.8, 33303.418, 0.07612015, -1.0040503, -1382180.8, 236565.36, 0.23787552, 9.997531, 10.003247 
2.0449786e+3, 1.4482705e+2, -1751054.9, -1475865.4, -4356.152, -0.26609623, -0.1302778, -1475796.4, 44839.246, 0.14372098, 9.997668, 10.001451 
2.0449933e+3, 1.5482335e+2, -1572046.0, -1361012.3, -102923.92, -0.045050785, -0.65267056, -1319127.8, 103538.86, 0.06692591, 9.9983635, 10.001205 
2.0450063e+3, 1.648217e+2, -1556731.4, -1551870.3, -74478.43, 0.022012135, -0.8254282, -1479782.8, -155099.11, 0.021061258, 9.998871, 9.998943 
2.0450185e+3, 1.748241e+2, -1366080.9, -1403089.8, -3867.0125, -0.032138314, -0.51151836, -1365681.1, -139013.61, 0.003256253, 9.999505, 9.998973 
2.0450309e+3, 1.8482524e+2, -1133572.3, -1098186.1, -12728.75, -0.053935174, -0.35773656, -1094083.1, 34575.24, 0.00007088071, 9.999794, 10.000271 
2.0450427e+3, 1.9482431e+2, -1011194.06, -978764.44, -75535.43, -0.09000603, -0.5117238, -917723.06, 112941.13, 0.0, 9.999938, 10.000333 
2.0450562e+3, 2.048231e+2, -975707.6, -1061766.8, -1601.3445, -0.05139009, -0.5967564, -975677.9, -43004.633, 0.0, 10.000135, 9.999017 
2.0450719e+3, 2.1482196e+2, -817002.2, -921699.75, 22350.809, 0.07493264, -0.6458313, -812430.4, 22252.04, 0.0, 10.000522, 9.999103 
2.0450851e+3, 2.2482109e+2, -714673.75, -840201.9, -25348.055, 0.060723174, -0.6325056, -709748.44, 26942.533, 0.0, 10.000615, 9.998951 
2.0450959e+3, 2.348202e+2, -638780.9, -747367.5, -35248.285, -0.12006429, -0.64780676, -628342.4, 10359.52, 0.0, 10.00045, 9.998983 
2.0451076e+3, 2.448197e+2, -494363.63, -615127.6, -60612.184, -0.14824194, -0.5999348, -469189.66, 71518.12, 0.0, 10.000691, 9.999117 
2.0451204e+3, 2.5481975e+2, -294459.78, -452742.44, -91746.21, -0.0301615, -0.5440107, -252437.1, 190269.6, 0.0, 10.001349, 9.999227 
2.0451339e+3, 2.6481846e+2, -313237.66, -576487.75, 26411.293, -0.0010158566, -0.5247418, -310614.03, 34107.074, 0.00000011200642, 10.001236, 9.997775 
2.0451473e+3, 2.7481565e+2, -349495.38, -533716.94, 56118.902, -0.06165179, -0.6213166, -333746.4, -86994.48, 0.000002326167, 10.000295, 9.997833 
2.0451595e+3, 2.8481415e+2, -120380.29, -236166.98, -54365.965, -0.120806105, -0.6132787, -98855.14, 49911.36, 0.000014696717, 10.000578, 9.999089 
2.04517e+3, 2.9481393e+2, 211649.63, 20953.201, -137719.45, -0.19401757, -0.59321517, 283806.44, 334570.56, 0.00005375532, 10.00202, 9.999465 
2.0451878e+3, 3.0481103e+2, 194730.67, -274682.28, -67893.38, 0.310326, -0.6974849, 204353.16, 204353.16, 0.00013253847, 10.002875, 9.996708 
2.0452012e+3, 3.1481084e+2, 431069.13, 124776.85, 9118.487, 0.26630643, -0.4327101, 431340.38, 431340.38, 0.00025389736, 10.00324, 9.999256 
2.0549509e+3, 1.2480487e+2, -2207682.0, -2269988.8, -238797.67, -0.25556377, -0.543056, -1998014.1, -281170.72, 0.3476065, 9.997863, 9.997223 
2.0549677e+3, 1.348035e+2, -1786922.3, -1456316.6, 48854.96, 0.28545374, -0.9658087, -1449248.3, 169613.58, 0.2513395, 9.997559, 10.002623 
2.0549765e+3, 1.448111e+2, -1843156.0, -1672906.0, 7558.825, -0.2756124, -0.33859992, -1672571.0, -151781.36, 0.15236652, 9.997727, 10.000016 
2.0549914e+3, 1.5480869e+2, -1637973.6, -1502678.1, -66691.54, -0.09528366, -0.62315893, -1475331.3, -52518.008, 0.071473114, 9.998396, 10.000175 
2.0550051e+3, 1.6480781e+2, -1420503.1, -1292143.6, -62480.184, -0.023317063, -0.7531846, -1266753.3, 58067.285, 0.022826005, 9.998957, 10.000699 
2.0550177e+3, 1.7480929e+2, -1245895.6, -1148498.4, 25634.918, -0.11322696, -0.70537585, -1142163.3, 84640.27, 0.0036400491, 9.99948, 10.000737 
2.05503e+3, 1.8481031e+2, -1226557.9, -1304017.4, -17222.178, -0.1375686, -0.5821864, -1222901.4, -94105.516, 0.00008593674, 9.999835, 9.998845 
2.0550433e+3, 1.9481067e+2, -1111648.9, -1188044.9, -62501.715, -0.0712309, -0.4639731, -1076596.9, -45797.242, 0.0, 9.999927, 9.99891 
2.0550567e+3, 2.0481002e+2, -932046.44, -951119.5, 4270.2314, -0.053404633, -0.46247196, -931134.06, 1672.3438, 0.0, 10.000051, 9.999817 
2.055071e+3, 2.1480836e+2, -784471.94, -815764.94, 48635.047, -0.0831785, -0.6452472, -749028.5, 85787.11, 0.0, 10.000351, 9.999914 
2.0550843e+3, 2.248073e+2, -756700.0, -866171.0, -40052.906, -0.107472666, -0.6885619, -743610.7, -6786.793, 0.0, 10.0003605, 9.998893 
2.0550966e+3, 2.3480691e+2, -668424.75, -764102.1, -30886.037, -0.107916996, -0.6517223, -659320.56, -20489.277, 0.0, 10.000264, 9.998957 
2.0551088e+3, 2.448062e+2, -570074.56, -704956.4, -47337.035, -0.10445094, -0.6016438, -555119.6, -14279.321, 0.0, 10.000415, 9.998629 
2.0551215e+3, 2.5480524e+2, -363655.16, -542800.56, -55043.355, -0.08445222, -0.5963236, -348094.44, 94755.555, 0.0, 10.001134, 9.99871 
2.055135e+3, 2.64804e+2, -270366.16, -427647.6, -17808.174, -0.03509092, -0.5962544, -268375.03, 76485.484, 0.00000017468948, 10.000982, 9.998917 
2.0551492e+3, 2.7480248e+2, -290882.9, -377422.63, 33865.99, 0.06313299, -0.6826804, -279205.66, -32333.313, 0.0000023499456, 10.00014, 9.998983 
2.0551616e+3, 2.8480056e+2, -304478.25, -540962.2, -12715.168, -0.0011877674, -0.6795819, -303796.53, -154904.61, 0.000012296112, 10.00026, 9.997144 
2.0551723e+3, 2.9479814e+2, 36631.977, -292262.06, -64147.77, -0.19378556, -0.69577134, 48700.563, 99620.945, 0.000044415407, 10.001805, 9.997415 
2.0551917e+3, 3.047976e+2, 84506.516, -382194.0, -76085.484, 0.36858764, -0.43476266, 96597.375, 96597.375, 0.00011238554, 10.002389, 9.996187 
2.0552012e+3, 3.1479263e+2, 252280.22, -72619.37, 805.0688, -0.11516409, -0.61665535, 252282.22, 252282.22, 0.00022330374, 10.002524, 9.998232 
2.0649506e+3, 1.247929e+2, -1886836.4, -2056687.6, -167551.92, -0.13649826, -0.5585644, -1783916.3, -66957.09, 0.36771804, 9.999817, 9.997724 
2.0649661e+3, 1.3479038e+2, -1658222.1, -1531143.0, -19814.246, 0.29505643, -0.97787803, -1528125.3, 90862.266, 0.26616043, 9.99912, 10.001187 
2.0649742e+3, 1.4479582e+2, -1842026.8, -1738397.9, 19067.361, -0.3051258, -0.45842192, -1735000.9, -214064.1, 0.1618756, 9.998002, 9.999441 
2.0649907e+3, 1.5479393e+2, -1541922.0, -1490380.3, -5992.3706, -0.041392922, -0.66011, -1489692.8, -66735.73, 0.07651462, 9.999193, 9.999879 
2.0650052e+3, 1.6479357e+2, -1335313.1, -1216153.4, -42387.17, 0.061356604, -0.7434131, -1202613.9, 122345.17, 0.024829434, 9.999391, 10.001016 
2.0650163e+3, 1.7479457e+2, -1372872.4, -1174007.6, -82647.664, -0.12256028, -0.77542174, -1144144.1, 82800.195, 0.0041003036, 9.998462, 10.001046 
2.0650288e+3, 1.8479522e+2, -1433213.9, -1410315.8, -76488.22, -0.16497003, -0.70028424, -1344424.5, -215485.34, 0.000108260756, 9.9984665, 9.998761 
2.0650432e+3, 1.9479565e+2, -1125409.3, -1198440.9, -39955.92, -0.044217456, -0.5661708, -1107796.8, -76854.0, 0.0, 9.999865, 9.9988575 
2.0650572e+3, 2.047954e+2, -896814.4, -925011.75, 32421.818, -0.018331576, -0.52702963, -875558.5, 57388.27, 0.0, 10.000256, 9.999888 
2.0650706e+3, 2.1479431e+2, -883137.25, -856517.56, -1578.081, -0.12493241, -0.6597024, -856424.3, -21472.064, 0.0, 9.999651, 9.999966 
2.065084e+3, 2.2479369e+2, -852704.25, -889027.75, -72373.82, -0.13419259, -0.6729705, -796248.2, -59291.063, 0.0, 9.999575, 9.999129 
2.0650974e+3, 2.347936e+2, -685057.4, -743412.2, -58613.676, -0.035796672, -0.62667745, -648760.5, -9799.684, 0.0, 10.000021, 9.999222 
2.0651104e+3, 2.4479285e+2, -568005.94, -716396.94, -15939.218, -0.016494017, -0.58940274, -566313.2, -25343.232, 0.0, 10.00048, 9.998522 
2.0651223e+3, 2.547912e+2, -390838.03, -567000.56, -19558.828, -0.10671261, -0.6406902, -388692.6, 54293.383, 0.0, 10.000995, 9.99861 
2.0651357e+3, 2.6479e+2, -227360.1, -375976.75, -21933.34, -0.05646329, -0.64913905, -224190.69, 120804.85, 0.00000012472299, 10.001144, 9.999195 
2.0651501e+3, 2.747893e+2, -156749.45, -278622.28, -56652.914, 0.12966433, -0.67783165, -134482.5, 112515.35, 0.0000018192295, 10.000918, 9.999284 
2.0651634e+3, 2.847876e+2, -197680.72, -540216.1, 7744.1147, 0.1150904, -0.64785886, -197505.72, -48489.824, 0.000008845643, 10.001202, 9.996703 
2.065175e+3, 2.9478458e+2, 15523.453, -366958.06, 19211.906, -0.104498036, -0.6691229, 16486.037, 67538.99, 0.000033872344, 10.001938, 9.996841 
2.0651944e+3, 3.0478397e+2, 77562.914, -311722.06, 78126.73, 0.42988214, -0.4170415, 92657.13, 92657.13, 0.00009226444, 10.001957, 9.996921 
2.0652017e+3, 3.1477898e+2, 22163.215, -156694.48, 63081.785, -0.20622307, -0.6739775, 42173.074, 42173.074, 0.00019349625, 10.000781, 9.998525 
2.0749526e+3, 1.2478064e+2, -1661090.8, -1595994.9, 92881.625, -0.018980438, -0.6422941, -1530123.5, 186958.56, 0.38886976, 9.999879, 10.0013895 
2.0749621e+3, 1.3477626e+2, -1798092.9, -1820798.8, -106984.87, -0.043956142, -1.0500674, -1701860.3, -82735.03, 0.28190908, 9.999233, 9.998933 
2.0749708e+3, 1.4478108e+2, -1810396.5, -1688382.3, 28262.639, -0.487656, -0.48483044, -1682153.6, -161075.4, 0.17213808, 9.998067, 9.999755 
2.0749907e+3, 1.5477896e+2, -1502782.8, -1414284.3, 47472.16, 0.00807386, -0.7628665, -1393636.6, 29462.744, 0.08207624, 9.999214, 10.000402 
2.0750056e+3, 1.6477874e+2, -1397904.9, -1359802.0, -86746.586, 0.14283596, -0.80792695, -1290039.4, 35062.133, 0.027111659, 9.999457, 9.999983 
2.0750147e+3, 1.747799e+2, -1444318.0, -1323548.5, -113345.99, -0.15344664, -0.71816665, -1255505.8, -28416.121, 0.0046569863, 9.99847, 10.000012 
2.075027e+3, 1.8478e+2, -1341348.8, -1235780.8, -35237.695, -0.24558662, -0.7035813, -1225099.4, -96011.6, 0.00014131474, 9.998533, 9.9999275 
2.0750427e+3, 1.9477917e+2, -1051190.0, -1031826.75, 19586.697, -0.09404872, -0.81413203, -1019659.56, 11434.936, 0.0000000002137382, 9.999808, 10.0000305 
2.0750572e+3, 2.0477903e+2, -959127.3, -1030559.4, 616.9516, -0.064239755, -0.7925416, -959122.0, -26025.139, 0.0, 10.000148, 9.999215 
2.0750701e+3, 2.1477953e+2, -951188.1, -967166.3, -14060.919, -0.15320694, -0.69716275, -943005.2, -107909.98, 0.0, 9.999511, 9.999275 
2.0750837e+3, 2.2477993e+2, -851283.44, -824653.94, -61573.71, -0.13689181, -0.6012725, -774971.8, -37878.617, 0.0, 9.999327, 9.999681 
2.0750979e+3, 2.3478027e+2, -676629.6, -677546.6, -29742.62, 0.0022820137, -0.5720057, -647342.0, -8251.162, 0.0, 9.9998255, 9.999762 
2.0751108e+3, 2.447795e+2, -588810.0, -704345.8, -4878.869, -0.019968573, -0.57283026, -588604.4, -47506.094, 0.0, 10.000247, 9.998713 
2.0751226e+3, 2.5477752e+2, -403126.88, -552515.25, 8404.74, -0.20387532, -0.6769944, -402655.5, 40460.8, 0.0, 10.000825, 9.998787 
2.0751357e+3, 2.647763e+2, -309644.84, -480356.72, -43252.5, -0.19292746, -0.670602, -299311.63, 45815.74, 0.000000021824269, 10.000868, 9.998609 
2.0751505e+3, 2.747758e+2, -221701.42, -365302.28, -52306.56, 0.034164306, -0.618199, -204668.98, 42461.574, 0.00000084431264, 10.000725, 9.998778 
2.0751643e+3, 2.8477472e+2, -188030.27, -446093.8, 18746.518, 0.06877649, -0.54453856, -186675.58, -37532.465, 0.000005133315, 10.000891, 9.997496 
2.0751774e+3, 2.9477274e+2, 25462.227, -294999.88, 66056.2, -0.06017141, -0.54134345, 38544.223, 89711.555, 0.000023723636, 10.001698, 9.9974575 
2.0751953e+3, 3.0477014e+2, 104900.164, -100889.695, 20667.457, 0.31752008, -0.59381765, 106955.27, 106955.27, 0.00007269625, 10.001353, 9.9986315 
2.0752011e+3, 3.147704e+2, -175.37302, -13543.514, -56707.906, -0.37227663, -0.5333497, 50241.023, 50241.023, 0.00016043706, 10.000065, 9.99981 
2.0849511e+3, 1.2476719e+2, -2064901.8, -1616440.8, 198362.4, 0.051984347, -0.6121404, -1541293.6, 175921.9, 0.40993002, 9.996034, 10.0032835 
2.0849612e+3, 1.3476363e+2, -1871312.5, -1922342.6, -166945.25, -0.05739294, -0.8934106, -1727943.8, -108694.27, 0.29801235, 9.999002, 9.99835 
2.0849697e+3, 1.4476603e+2, -1498679.4, -1524360.8, 33864.297, -0.50107616, -0.5502885, -1475303.0, 45923.25, 0.18298064, 10.000221, 9.999853 
2.08499e+3, 1.5476489e+2, -1513500.8, -1419053.1, 1736.9707, 0.009546252, -0.73172677, -1419021.1, 4217.862, 0.088167645, 9.999143, 10.000398 
2.0850046e+3, 1.647652e+2, -1510934.8, -1424602.3, -103819.516, 0.1451591, -0.71462494, -1355332.6, -30096.045, 0.029713616, 9.998719, 9.999901 
2.0850137e+3, 1.747661e+2, -1304248.5, -1263357.9, -79260.78, -0.14414473, -0.64713204, -1201948.0, 25279.61, 0.005333032, 9.999447, 9.999967 
2.085026e+3, 1.8476577e+2, -1151643.0, -1121244.9, 48741.645, -0.22581203, -0.68288356, -1085387.5, 43840.496, 0.00018960002, 9.999737, 10.000143 
2.0850424e+3, 1.9476445e+2, -1027867.44, -997776.75, 14651.786, -0.11416006, -0.86422056, -991821.2, 39414.383, 0.000000020895914, 9.999873, 10.000236 
2.0850569e+3, 2.0476405e+2, -1034819.9, -1104117.6, -53238.2, -0.07906397, -0.8591318, -1005948.3, -72708.555, 0.0, 9.999813, 9.998867 
2.08507e+3, 2.1476464e+2, -938056.4, -995676.7, -64641.12, -0.12496058, -0.7190164, -896095.75, -60855.414, 0.0, 9.999772, 9.998944 
2.0850837e+3, 2.2476508e+2, -750832.44, -791233.4, -74240.734, -0.09655554, -0.5971665, -694093.0, 43146.47, 0.0, 10.000066, 9.999563 
2.0850982e+3, 2.3476534e+2, -548363.9, -627286.0, -111366.516, -0.006962006, -0.5650252, -469673.84, 169563.58, 0.0, 10.000737, 9.999676 
2.0851113e+3, 2.4476454e+2, -486275.78, -623270.6, -107160.52, -0.014684973, -0.57812446, -427591.16, 113652.83, 0.0, 10.000803, 9.999006 
2.0851238e+3, 2.5476253e+2, -461369.1, -551232.0, -101940.53, -0.1338799, -0.7113816, -394897.2, 48363.684, 0.0, 10.000281, 9.999067 
2.0851372e+3, 2.647614e+2, -389767.03, -517518.63, -97899.055, -0.08967211, -0.7077407, -336748.25, 8522.599, 0.0, 10.000313, 9.998617 
2.0851518e+3, 2.7476117e+2, -189183.5, -352350.53, -94730.74, 0.09928491, -0.631261, -145747.88, 101525.79, 0.000000115745564, 10.000966, 9.998746 
2.0851658e+3, 2.8476018e+2, -137431.77, -316988.1, 2637.175, 0.12616608, -0.5912478, -137393.05, 11890.735, 0.0000020138657, 10.000773, 9.998438 
2.0851786e+3, 2.9475838e+2, -221203.97, -294445.88, 28357.105, -0.008099062, -0.662697, -211508.4, -160207.38, 0.000014504671, 9.999511, 9.998504 
2.0851953e+3, 3.0475694e+2, -79588.71, -207763.88, 11515.633, 0.25302175, -0.653075, -78562.33, -78562.33, 0.000053401807, 10.000105, 9.998522 
2.0852043e+3, 3.147574e+2, 364279.16, 128244.195, -341772.88, -0.18186545, -0.5384249, 607837.1, 607837.1, 0.00012549982, 10.002601, 9.999603 
2.0949446e+3, 1.2475007e+2, -2075990.3, -1645373.9, 249773.83, -0.28632826, -0.67949116, -1530917.6, 186466.06, 0.42994058, 9.996097, 10.00313 
2.0949624e+3, 1.3475241e+2, -1768775.4, -1705209.6, -40717.543, 0.13469714, -0.4934341, -1685339.1, -65978.12, 0.31401625, 9.998999, 9.99984 
2.0949705e+3, 1.4475057e+2, -1494961.5, -1540494.9, -7973.044, -0.4918466, -0.65333277, -1493605.8, 27776.145, 0.19429262, 10.000313, 9.999689 
2.0949878e+3, 1.5475169e+2, -1542389.1, -1491911.0, -33478.832, -0.15176482, -0.5573659, -1475223.4, -51847.29, 0.094824284, 9.999191, 9.999875 
2.0950016e+3, 1.6475296e+2, -1437292.3, -1297803.8, -90954.93, -0.07125855, -0.45726576, -1252931.0, 72433.54, 0.032688897, 9.998822, 10.000736 
2.095013e+3, 1.7475319e+2, -1236563.0, -1128216.9, -46694.414, -0.18973416, -0.549206, -1110870.1, 116488.086, 0.0061590113, 9.999461, 10.000894 
2.0950261e+3, 1.8475257e+2, -1195070.0, -1223262.6, 42194.254, -0.23187917, -0.6270566, -1164679.8, -35319.92, 0.00026052183, 9.999785, 9.999418 
2.0950416e+3, 1.9475149e+2, -1088402.4, -1114920.5, 26297.318, -0.20669416, -0.70678854, -1072210.6, -40844.703, 0.00000016154512, 9.999838, 9.999448 
2.0950559e+3, 2.0475051e+2, -1056584.9, -1126446.3, -65580.625, -0.18129225, -0.7148043, -1017212.3, -83837.23, 0.0, 9.999716, 9.998758 
2.0950699e+3, 2.1474957e+2, -970773.3, -1025639.6, -57859.82, -0.13301744, -0.71637475, -934172.6, -98784.1, 0.0, 9.999612, 9.998813 
2.0950837e+3, 2.2474895e+2, -836515.75, -915751.1, -57808.316, -0.13026442, -0.6590494, -806052.3, -68654.8, 0.0, 9.999837, 9.998818 
2.0950975e+3, 2.3474875e+2, -629222.94, -750818.44, -75207.02, -0.16866647, -0.59612554, -593312.56, 46088.63, 0.0, 10.000547, 9.9989195 
2.0951113e+3, 2.447479e+2, -497312.4, -581270.56, -133981.78, -0.13583286, -0.59667206, -398887.22, 142520.84, 0.0, 10.000525, 9.999427 
2.0951255e+3, 2.5474626e+2, -455669.34, -498295.28, -108838.484, -0.0017305355, -0.741365, -366076.7, 77343.08, 0.0, 10.000104, 9.9995165 
2.0951396e+3, 2.647453e+2, -395352.0, -469416.0, -83115.43, 0.105320476, -0.76496196, -341392.0, 4034.9153, 0.0, 10.000066, 9.999063 
2.0951541e+3, 2.7474517e+2, -194150.25, -313315.53, -54814.51, 0.20162384, -0.7244157, -172771.66, 74657.55, 0.0, 10.000756, 9.999113 
2.095167e+3, 2.847439e+2, -123921.484, -197891.39, -55028.984, 0.14173645, -0.77448934, -94603.53, 54834.945, 0.00000039293647, 10.000392, 9.999437 
2.0951778e+3, 2.9474172e+2, -159191.28, -117604.29, 1239.8667, -0.0662569, -0.9973838, -117567.36, -66115.02, 0.000007667558, 9.9993105, 9.999813 
2.0951931e+3, 3.0474296e+2, -301468.53, -530013.56, 84488.15, -0.0025947199, -0.7026777, -273626.8, -273626.8, 0.000037309004, 9.999563, 9.996549 
2.0952104e+3, 3.1473923e+2, 160393.5, -82700.55, -136252.67, 0.111506425, -0.78375053, 221434.72, 221434.72, 0.00009605795, 10.001772, 9.998517 
2.1049409e+3, 1.2473247e+2, -1846178.9, -1539111.3, 165400.47, -0.3182869, -0.74614197, -1466968.4, 250586.45, 0.44859928, 9.997537, 10.003528 
2.1049619e+3, 1.3473816e+2, -1904630.6, -1603839.1, 11223.915, 0.2811502, -0.39539957, -1603420.9, 16078.799, 0.3298663, 9.997299, 10.001422 
2.1049699e+3, 1.4473543e+2, -1860313.8, -1661026.5, 14202.265, -0.41940397, -0.74844944, -1660019.4, -138490.34, 0.20615475, 9.997522, 10.000194 
2.104986e+3, 1.5473787e+2, -1667624.9, -1492068.8, 34067.22, -0.16331242, -0.5750255, -1485689.6, -62179.785, 0.10215144, 9.998101, 10.00038 
2.105e+3, 1.6473943e+2, -1446944.9, -1330983.3, 46909.734, -0.10522215, -0.45983458, -1314383.3, 11112.513, 0.036114734, 9.998882, 10.000461 
2.105013e+3, 1.7473944e+2, -1138388.8, -1111197.4, -13361.518, -0.16315985, -0.5447802, -1105730.8, 121761.914, 0.007176738, 10.000276, 10.000611 
2.1050268e+3, 1.8473873e+2, -1106849.9, -1249808.3, 2896.0344, -0.18057714, -0.5889208, -1106791.3, 22705.55, 0.0003661867, 10.000686, 9.998803 
2.1050413e+3, 1.9473729e+2, -1076624.4, -1177699.1, -22407.396, -0.22065443, -0.6402189, -1071879.6, -40371.254, 0.00000091193453, 10.00022, 9.99883 
2.1050555e+3, 2.04736e+2, -992658.5, -1098677.0, -72625.23, -0.21848634, -0.6483754, -955754.44, -22233.885, 0.0, 10.000126, 9.998767 
2.1050696e+3, 2.1473469e+2, -830115.8, -960973.94, -71093.05, -0.17066373, -0.68814516, -798926.1, 36609.363, 0.0, 10.000553, 9.998824 
2.1050838e+3, 2.2473362e+2, -722768.94, -873620.2, -16779.041, -0.13604009, -0.6686066, -720925.2, 16622.22, 0.0, 10.0006895, 9.998683 
2.1050982e+3, 2.3473273e+2, -609734.8, -754696.56, -11441.01, -0.14128955, -0.6625335, -608837.44, 30719.404, 0.0, 10.000749, 9.998782 
2.1051121e+3, 2.44732e+2, -500609.47, -554522.94, -75880.96, -0.09314531, -0.6553369, -447039.28, 94523.06, 0.0, 10.000377, 9.999688 
2.1051252e+3, 2.5473142e+2, -531147.3, -501056.56, -84819.33, -0.0038409359, -0.71801263, -429958.53, 13605.733, 0.0, 9.9994545, 9.999805 
2.1051393e+3, 2.647308e+2, -496567.34, -491726.47, -6432.2734, 0.116036855, -0.737853, -487274.3, -141705.81, 0.0, 9.999232, 9.999324 
2.1051548e+3, 2.747301e+2, -315671.47, -345317.22, -12020.544, 0.261399, -0.7766107, -311410.03, -63834.332, 0.0, 9.999791, 9.999366 
2.1051684e+3, 2.84729e+2, -55019.297, -184830.25, -44257.1, 0.23801889, -0.80921406, -41366.44, 108216.27, 0.00000006547354, 10.000976, 9.999232 
2.1051794e+3, 2.9472744e+2, 326110.13, 83484.836, -130516.17, 0.0009195453, -0.9374863, 382986.25, 434577.16, 0.000004738257, 10.002806, 9.999507 
2.1051946e+3, 3.0472693e+2, 195575.53, -346238.16, -18940.205, 0.014929121, -0.77943486, 196236.81, 196236.81, 0.00002905632, 10.00318, 9.996079 
2.1052127e+3, 3.1472284e+2, 189056.52, -42512.613, -141189.03, 0.16587496, -0.8412983, 255865.52, 255865.52, 0.00007990105, 10.001815, 9.998784 
2.1149409e+3, 1.24714784e+2, -1772763.1, -1488430.6, -58587.664, -0.16018705, -0.8314011, -1476831.6, 240893.66, 0.46656317, 9.997606, 10.004055 
2.1149589e+3, 1.3472079e+2, -1794032.3, -1460985.6, 14570.255, 0.23339972, -0.62164074, -1460349.4, 159316.66, 0.34608045, 9.997351, 10.002892 
2.1149677e+3, 1.4472048e+2, -1773957.0, -1519184.0, 31544.14, -0.43299747, -0.84423363, -1515336.5, 6332.5454, 0.21890919, 9.997661, 10.001118 
2.1149848e+3, 1.5472327e+2, -1541050.1, -1274663.8, 55624.61, -0.13624565, -0.7853356, -1263515.3, 160126.36, 0.110347085, 9.998209, 10.001951 
2.1149994e+3, 1.647245e+2, -1526157.5, -1513745.1, 85885.21, -0.09111184, -0.72668505, -1433842.1, -108211.05, 0.040102176, 9.998962, 9.999164 
2.1150135e+3, 1.7472483e+2, -1242630.4, -1330947.5, 46187.04, -0.1649784, -0.6316759, -1222888.9, 4742.5303, 0.008443992, 10.000285, 9.999091 
2.1150276e+3, 1.8472406e+2, -1141030.3, -1327683.5, -25110.656, -0.20180914, -0.5790997, -1137711.1, -8070.1616, 0.00052604213, 10.000716, 9.998252 
2.1150415e+3, 1.9472173e+2, -1122426.1, -1259430.3, -33182.38, -0.25253662, -0.6657337, -1114812.5, -83148.27, 0.0000034897541, 10.000164, 9.998294 
2.1150549e+3, 2.0472032e+2, -1002160.0, -1086391.8, -66169.836, -0.3134975, -0.665344, -965839.94, -32161.783, 0.0, 9.999992, 9.998914 
2.1150686e+3, 2.1471997e+2, -845390.6, -946235.75, -47803.9, -0.333814, -0.6270839, -826331.94, 9349.739, 0.0, 10.000374, 9.999002 
2.1150835e+3, 2.2471899e+2, -732115.1, -833132.75, -20772.395, -0.24379708, -0.62918806, -728010.5, 9679.656, 0.0, 10.000432, 9.9990835 
2.1151003e+3, 2.3471713e+2, -611769.6, -714480.4, 2723.964, -0.023902312, -0.7565141, -611697.44, 28008.305, 0.0, 10.000558, 9.99915 
2.1151133e+3, 2.4471667e+2, -535457.06, -563691.56, -117544.516, -0.02683717, -0.74691725, -431185.1, 110523.61, 0.0, 10.000112, 9.999745 
2.1151225e+3, 2.5471777e+2, -552986.1, -508134.63, -110375.65, -0.23716122, -0.6512385, -417929.56, 25767.879, 0.0, 9.999298, 9.999825 
2.115136e+3, 2.6471752e+2, -533189.6, -504992.47, 5249.3267, -0.18239026, -0.6340492, -504046.94, -158348.22, 0.0, 9.99897, 9.999354 
2.1151538e+3, 2.747158e+2, -323499.3, -334544.13, 24919.387, 0.16631348, -0.7834432, -303497.75, -55783.79, 0.0, 9.999672, 9.9994955 
2.1151696e+3, 2.8471497e+2, -213475.28, -446634.8, 9251.61, 0.21939525, -0.7258234, -213108.75, -63387.2, 0.00000005479561, 10.00069, 9.997569 
2.1151829e+3, 2.9471484e+2, 153168.19, -223015.02, -37862.324, 0.037021276, -0.5433981, 156941.14, 208664.16, 0.0000044706885, 10.002564, 9.99752 
2.1151985e+3, 3.0470866e+2, 127281.42, -288115.6, -86459.41, 0.039647806, -0.8737504, 144558.25, 144558.25, 0.000027145721, 10.002385, 9.996828 
2.1152115e+3, 3.1470814e+2, 125070.53, 15771.58, -13390.333, -0.20582044, -0.70524263, 126687.086, 126687.086, 0.00007500409, 10.001056, 9.999526 
2.1249402e+3, 1.2470195e+2, -1788873.0, -1732965.1, -262678.8, -0.09218502, -0.7978834, -1496757.0, 221091.81, 0.48543465, 9.999552, 10.00087 
2.1249561e+3, 1.3470635e+2, -1724264.0, -1503234.8, 107707.84, 0.15795498, -0.72134435, -1459430.0, 160377.77, 0.3637423, 9.998353, 10.0020485 
2.1249665e+3, 1.4470601e+2, -1563326.6, -1447296.9, 51804.94, -0.3988867, -0.8903375, -1427533.4, 94277.94, 0.23315269, 9.999156, 10.001051 
2.1249838e+3, 1.5470943e+2, -1365005.6, -1187677.1, -40888.11, -0.09871187, -0.7769799, -1178703.3, 245072.44, 0.1197026, 9.999388, 10.002091 
2.1249995e+3, 1.6471045e+2, -1427646.8, -1497098.4, -513.0308, -0.026301306, -0.73429674, -1427642.9, -101876.34, 0.044803485, 9.999762, 9.998906 
2.1250142e+3, 1.7470974e+2, -1191343.5, -1347457.0, 33274.453, -0.1599724, -0.705308, -1184547.3, 43230.477, 0.01004214, 10.000808, 9.998734 
2.1250285e+3, 1.8470883e+2, -1080703.0, -1282266.3, -12603.031, -0.18894339, -0.6535868, -1079918.0, 49870.973, 0.0007722133, 10.001048, 9.998398 
2.1250427e+3, 1.9470726e+2, -1033903.5, -1199566.4, 11617.024, -0.1567731, -0.6843937, -1033092.9, -1287.7813, 0.000010944595, 10.000683, 9.998453 
2.1250564e+3, 2.0470609e+2, -933108.6, -1085838.3, 34436.24, -0.1981085, -0.6553166, -925703.3, 8114.055, 0.0, 10.000632, 9.998599 
2.1250694e+3, 2.1470532e+2, -758601.75, -940719.06, -7792.82, -0.33458832, -0.62419254, -758268.9, 77556.836, 0.0, 10.0011425, 9.998661 
2.125084e+3, 2.2470427e+2, -656726.4, -767645.94, -21566.783, -0.25163445, -0.62845373, -652680.6, 85153.94, 0.0, 10.000804, 9.999366 
2.1251008e+3, 2.3470287e+2, -748021.5, -742504.3, -21477.707, 0.02939414, -0.74015915, -723608.75, -83764.53, 0.0, 9.999464, 9.999486 
2.1251138e+3, 2.4470247e+2, -690809.6, -659061.8, -112596.81, 0.07144167, -0.7332724, -561225.44, -19379.215, 0.0, 9.999145, 9.999552 
2.1251228e+3, 2.5470304e+2, -460052.2, -490055.9, -148419.75, -0.15127736, -0.6625158, -325878.06, 117963.266, 0.0, 10.0000515, 9.999591 
2.1251364e+3, 2.6470253e+2, -266201.9, -418259.4, -12987.334, -0.12537628, -0.6429938, -265100.63, 80745.555, 0.0, 10.0009985, 9.998966 
2.1251543e+3, 2.747006e+2, -30361.732, -236949.0, -59200.875, 0.12442665, -0.7628381, -14599.421, 233264.22, 0.0, 10.001899, 9.999088 
2.1251704e+3, 2.8469986e+2, -33279.93, -389995.03, -30395.33, 0.17218192, -0.6638435, -30708.512, 119163.24, 0.000000117451826, 10.002034, 9.997332 
2.1251851e+3, 2.9469997e+2, -34057.2, -334710.3, -4753.191, 0.060759608, -0.42293575, -33982.07, 17890.678, 0.0000050467984, 10.001366, 9.997335 
2.125202e+3, 3.046934e+2, 119801.84, -198821.2, 32099.525, 0.19766021, -0.83628607, 123003.52, 123003.52, 0.00002697455, 10.001846, 9.997754 
2.1252131e+3, 3.1469446e+2, 320605.03, 72897.53, 13475.47, -0.18978891, -0.57744646, 321335.94, 321335.94, 0.00007158717, 10.002467, 9.999296 
2.1349527e+3, 1.3469487e+2, -1929548.4, -1879029.3, 160054.72, -0.04699072, -0.6490435, -1742253.1, -122328.95, 0.38411817, 9.998376, 9.998896 
2.1349654e+3, 1.4469208e+2, -1627149.0, -1586403.6, 62700.6, -0.47743055, -0.86175793, -1540849.0, -18894.125, 0.24951555, 9.999259, 9.999868 
2.1349831e+3, 1.546963e+2, -1436755.8, -1346535.3, -32138.0, -0.1565126, -0.5443063, -1336257.9, 87654.59, 0.13052814, 9.999456, 10.000825 
2.1349995e+3, 1.6469698e+2, -1364938.8, -1392413.5, 23004.12, -0.04388121, -0.50420475, -1351882.4, -25977.584, 0.050404422, 9.999868, 9.999575 
2.1350144e+3, 1.7469403e+2, -1137819.1, -1233200.3, 77282.69, -0.24542423, -0.77603555, -1094696.6, 133235.84, 0.012084308, 10.000803, 9.999522 
2.1350293e+3, 1.84693e+2, -1015795.94, -1162793.6, -31686.33, -0.26773465, -0.81748354, -1009256.6, 120684.64, 0.001155736, 10.00111, 9.99919 
2.135045e+3, 1.9469385e+2, -981368.7, -1086357.0, 4685.849, -0.033314496, -0.68590695, -981160.0, 50771.316, 0.000030850606, 10.000659, 9.999246 
2.1350591e+3, 2.0469306e+2, -1009680.3, -1213946.9, 40065.03, -0.019754503, -0.6183919, -1002103.0, -68162.87, 0.0, 10.000503, 9.997782 
2.1350713e+3, 2.1469046e+2, -846022.75, -1079983.8, 20759.74, -0.26231855, -0.6838, -844195.0, -8224.75, 0.0, 10.000962, 9.997791 
2.1350847e+3, 2.246894e+2, -682780.9, -752645.56, -74645.76, -0.29476878, -0.65905935, -635298.06, 102683.29, 0.0, 10.000522, 9.999598 
2.1350993e+3, 2.3468985e+2, -755797.94, -723671.3, -61876.906, -0.07531216, -0.6103583, -675806.7, -35833.76, 0.0, 9.999313, 9.99969 
2.135113e+3, 2.4468917e+2, -760886.5, -755395.06, -89323.336, 0.06245399, -0.61571574, -668775.25, -126797.81, 0.0, 9.998939, 9.998986 
2.135126e+3, 2.5468716e+2, -518181.1, -580844.7, -102972.45, 0.143088, -0.7488056, -441879.22, 2117.4612, 0.0, 9.999923, 9.999027 
2.1351402e+3, 2.646855e+2, -373466.75, -579330.06, 12276.4, 0.1364678, -0.76515216, -372737.25, -26724.086, 0.0, 10.000749, 9.997974 
2.1351552e+3, 2.7468413e+2, -136199.97, -409181.47, -11546.687, 0.026272736, -0.73282117, -135712.42, 112315.54, 0.00000000014169585, 10.001697, 9.998002 
2.1351701e+3, 2.8468314e+2, -26211.525, -274252.13, -64305.504, -0.0834657, -0.6456955, -10531.315, 139507.13, 0.000000256191, 10.00163, 9.998303 
2.1351856e+3, 2.9468268e+2, 21344.97, -172017.98, 2230.3887, -0.041533787, -0.5842174, 21370.693, 73413.266, 0.0000052967753, 10.001148, 9.998558 
2.1352044e+3, 3.0467963e+2, 80489.67, -97148.4, 59982.8, 0.19881395, -0.75878376, 98846.93, 98846.93, 0.000025200057, 10.001137, 9.998758 
2.1352158e+3, 3.1467888e+2, 75485.4, -177396.33, 59574.305, -0.23121965, -0.7711066, 88817.17, 88817.17, 0.00006359548, 10.001445, 9.998028 
2.1449499e+3, 1.3468102e+2, -1966848.3, -1938058.9, 130900.51, -0.11086679, -0.56951857, -1820764.0, -200699.66, 0.40760165, 9.998224, 9.99857 
2.1449669e+3, 1.4467886e+2, -1611686.5, -1612102.1, 4082.1626, -0.2611626, -0.6932245, -1607806.9, -85718.555, 0.26811564, 9.999501, 9.99958 
2.1449824e+3, 1.5468137e+2, -1477692.0, -1404915.5, -33846.434, -0.15692411, -0.5093677, -1391607.8, 32454.217, 0.14296411, 9.999369, 10.000418 
2.1449988e+3, 1.646816e+2, -1412700.0, -1374715.3, 82140.3, -0.07262863, -0.5075793, -1309400.3, 16657.457, 0.057087187, 9.999384, 9.999924 
2.1450149e+3, 1.7467944e+2, -1293671.4, -1257876.1, 88901.93, -0.19244184, -0.7463192, -1185088.1, 42988.277, 0.014719365, 9.999533, 9.999953 
2.1450305e+3, 1.8467878e+2, -1186751.5, -1225826.1, -51743.195, -0.1794317, -0.7800834, -1150980.0, -20899.092, 0.0017550356, 9.999871, 9.999355 
2.1450464e+3, 1.9467962e+2, -936859.0, -1049334.0, -82405.266, 0.02871794, -0.66114175, -893330.4, 138740.45, 0.00008036648, 10.000915, 9.999376 
2.1450603e+3, 2.0467874e+2, -941745.7, -1171394.5, -42377.902, 0.058002952, -0.6115788, -934175.06, -94.86029, 0.000000018813253, 10.000926, 9.9978695 
2.1450728e+3, 2.14676e+2, -983964.75, -1137200.6, -8836.318, -0.15551648, -0.6999675, -983456.9, -147345.89, 0.0, 9.99997, 9.997875 
2.1450856e+3, 2.2467476e+2, -805444.06, -833952.7, -69088.266, -0.20045528, -0.6866701, -749155.0, -11031.224, 0.0, 9.999781, 9.999395 
2.1450993e+3, 2.3467498e+2, -589583.94, -666298.6, -111715.18, -0.0735537, -0.63713914, -509824.53, 130293.9, 0.0, 10.000563, 9.99948 
2.1451133e+3, 2.4467413e+2, -445917.72, -635317.06, -92716.15, 0.06419795, -0.6318773, -408086.97, 134037.75, 0.0, 10.001229, 9.998716 
2.1451275e+3, 2.546721e+2, -268652.9, -489178.6, -101121.664, 0.20278709, -0.73733956, -229304.64, 214839.55, 0.0, 10.00176, 9.998772 
2.1451421e+3, 2.6467034e+2, -240005.5, -547177.6, 47518.49, 0.20940062, -0.7404845, -232822.52, 113339.23, 0.0, 10.001786, 9.997704 
2.1451567e+3, 2.746687e+2, -225316.95, -479887.94, 48420.94, 0.03351675, -0.7066894, -216418.06, 31760.908, 0.00000000016893417, 10.001198, 9.997758 
2.1451713e+3, 2.846672e+2, -135320.02, -311311.84, 3809.1091, -0.058988143, -0.6698472, -135237.61, 14956.449, 0.0000002738674, 10.000764, 9.998481 
2.1451868e+3, 2.9466584e+2, -50256.137, -164162.19, -26717.607, 0.007097572, -0.7146603, -44300.676, 7906.362, 0.0000047479944, 10.000483, 9.998922 
2.1452057e+3, 3.0466557e+2, 158280.08, 30352.547, 69652.01, 0.2680953, -0.68503726, 188882.52, 188882.52, 0.000021563434, 10.001181, 9.999656 
2.145219e+3, 3.1466383e+2, 221006.34, -52226.83, -65429.12, -0.06505363, -0.8646259, 235866.03, 235866.03, 0.000054127435, 10.002141, 9.998557 
2.154948e+3, 1.3466501e+2, -1806712.9, -1624042.8, 219387.02, -0.22041242, -0.42786714, -1477737.9, 142487.98, 0.43279883, 9.998298, 10.001195 
2.1549697e+3, 1.446659e+2, -1537953.9, -1514330.4, -43634.797, 0.010649761, -0.43426502, -1480936.9, 41279.117, 0.28823382, 9.999729, 10.000217 
2.1549815e+3, 1.5466456e+2, -1440871.0, -1358905.5, -28260.482, -0.21439427, -0.6780462, -1350106.3, 74118.29, 0.15688464, 9.999462, 10.000741 
2.1549965e+3, 1.6466445e+2, -1393986.6, -1366446.1, 80394.516, -0.25781783, -0.7304712, -1298651.1, 27572.52, 0.06501248, 9.999524, 9.999911 
2.1550156e+3, 1.7466591e+2, -1292803.8, -1256353.6, 95614.68, -0.11044245, -0.60774, -1177242.6, 50967.313, 0.018139776, 9.999541, 9.999953 
2.155032e+3, 1.8466598e+2, -1214148.6, -1298885.1, -28149.361, -0.056326985, -0.5407552, -1205649.9, -75440.38, 0.0026903055, 9.999934, 9.998826 
2.1550463e+3, 1.946645e+2, -976023.94, -1121384.9, -35489.527, -0.07560036, -0.6054982, -967822.0, 64402.063, 0.00019736934, 10.000881, 9.998892 
2.15506e+3, 2.0466307e+2, -892787.6, -1046838.8, -85075.43, -0.09894877, -0.6316371, -855049.25, 79188.35, 0.0000007869328, 10.000823, 9.998775 
2.1550733e+3, 2.1466176e+2, -935656.94, -1008446.5, -38000.43, -0.11831819, -0.6751554, -919434.1, -83184.555, 0.0, 9.999843, 9.99882 
2.1550864e+3, 2.2466017e+2, -885934.4, -953863.8, -51547.5, -0.112518, -0.7121327, -858167.8, -119904.125, 0.0, 9.999575, 9.998671 
2.1551001e+3, 2.346581e+2, -663595.75, -786317.8, -72262.2, -0.07185815, -0.81531173, -630157.0, 10124.741, 0.0, 10.000409, 9.998731 
2.1551135e+3, 2.4465726e+2, -488120.78, -654256.4, -80065.15, -0.055245828, -0.776151, -455816.66, 86472.766, 0.0, 10.000948, 9.9987135 
2.155127e+3, 2.546577e+2, -293565.75, -502547.3, -70683.62, -0.04911541, -0.6379638, -271903.88, 172382.05, 0.0, 10.001592, 9.99876 
2.1551418e+3, 2.6465663e+2, -252809.98, -512096.0, 20372.25, -0.034948703, -0.58461076, -251219.1, 95076.41, 0.0, 10.001529, 9.998064 
2.1551582e+3, 2.7465385e+2, -220276.47, -435346.47, 38177.348, 0.032659374, -0.70915204, -213700.63, 34620.77, 0.0, 10.001045, 9.99814 
2.1551739e+3, 2.8465128e+2, -233935.77, -424823.6, -17794.041, 0.0703531, -0.76632184, -232291.23, -81944.86, 0.000000100631844, 10.000406, 9.997857 
2.1551882e+3, 2.946491e+2, -146171.4, -295878.97, -7475.1377, 0.07124233, -0.8262071, -145799.08, -93429.75, 0.0000031808167, 10.000194, 9.998157 
2.1552056e+3, 3.0465e+2, 74777.85, 59957.08, 92923.24, 0.07643509, -0.6603606, 160585.72, 160585.72, 0.000016664693, 10.00037, 10.0002165 
2.1552214e+3, 3.1464973e+2, 188384.69, 61778.355, 64199.383, -0.11203945, -0.80118346, 215241.67, 215241.67, 0.00004561872, 10.001386, 9.999694 
2.1649471e+3, 1.3464776e+2, -1405984.8, -1415075.0, 198562.92, -0.3052878, -0.6168658, -1211915.0, 408476.16, 0.45757636, 10.001956, 10.0015335 
2.164971e+3, 1.4465062e+2, -1734495.6, -1589465.6, -5941.2095, 0.22697555, -0.43337873, -1589222.6, -66861.42, 0.3088363, 9.998311, 10.000309 
2.1649817e+3, 1.5464857e+2, -1389606.4, -1354706.1, -30434.838, -0.1718509, -0.74075174, -1337073.6, 87304.78, 0.17204043, 9.999974, 10.00052 
2.1649963e+3, 1.6464828e+2, -1327963.1, -1371194.5, 19734.379, -0.26632634, -0.78247035, -1320309.6, 6071.032, 0.07433442, 10.000103, 9.999608 
2.1650153e+3, 1.7465e+2, -1290551.5, -1289560.5, 4229.5767, -0.083720654, -0.6062855, -1285797.5, -57431.56, 0.022589553, 9.999669, 9.999681 
2.1650322e+3, 1.8465032e+2, -1241585.5, -1234971.8, -43849.645, -0.0022484583, -0.5331239, -1194304.4, -63941.484, 0.00413868, 9.999428, 9.999503 
2.165047e+3, 1.9464907e+2, -1106939.1, -1113829.5, 11241.313, -0.049800485, -0.6380896, -1098626.9, -66253.45, 0.00045452762, 9.999677, 9.999531 
2.1650608e+3, 2.0464808e+2, -980516.9, -1066070.5, -26985.746, -0.06437173, -0.66531163, -972716.2, -38334.008, 0.000007502901, 10.000106, 9.998992 
2.1650739e+3, 2.146473e+2, -748838.25, -899664.2, -55317.848, -0.08332744, -0.6708814, -730724.9, 105664.84, 0.0, 10.001038, 9.998999 
2.1650875e+3, 2.246457e+2, -655301.6, -886614.06, -58361.824, -0.07322818, -0.69405884, -641410.7, 96993.63, 0.0, 10.00136, 9.998264 
2.1651009e+3, 2.3464312e+2, -585665.6, -796354.3, -76030.05, -0.05248986, -0.8119932, -561094.6, 79333.37, 0.0, 10.001155, 9.998297 
2.1651144e+3, 2.4464178e+2, -501345.2, -678650.7, -66817.84, -0.04056745, -0.78777003, -478984.72, 63455.57, 0.0, 10.000919, 9.998565 
2.1651277e+3, 2.546419e+2, -439965.38, -576196.0, -84882.11, -0.06957098, -0.6706721, -399247.47, 45192.55, 0.0, 10.000622, 9.998709 
2.1651429e+3, 2.64641e+2, -320586.84, -525560.06, 18531.68, -0.03550807, -0.6117142, -318924.84, 27522.83, 0.0, 10.000973, 9.99824 
2.1651602e+3, 2.7463865e+2, -56779.156, -330696.16, 2892.4216, 0.08944088, -0.7059757, -56748.617, 191719.64, 0.0, 10.00208, 9.998344 
2.165176e+3, 2.8463602e+2, 50349.758, -303040.75, -50629.867, 0.16173916, -0.77985847, 57460.37, 207954.16, 0.0000000029805467, 10.002408, 9.997734 
2.165189e+3, 2.9463336e+2, 38380.89, -225445.73, -41327.242, 0.072938696, -0.8619462, 44703.113, 97225.26, 0.000001345268, 10.001547, 9.997986 
2.1652056e+3, 3.0463487e+2, 42171.797, -21585.195, 92383.73, 0.07095367, -0.6055738, 108022.48, 108022.48, 0.000010778314, 10.000407, 9.999644 
2.1652226e+3, 3.146327e+2, -14040.566, 60321.52, -80271.836, -0.015093888, -0.85808045, 111605.15, 111605.15, 0.00003608632, 9.999601, 10.000533 
2.1749485e+3, 1.3463064e+2, -1485261.9, -1591184.6, -54019.016, -0.44401065, -1.0097593, -1462573.0, 157973.42, 0.48078975, 10.002346, 9.999025 
2.1749699e+3, 1.4463367e+2, -1775371.9, -1713596.1, 67698.4, 0.22815123, -0.6622369, -1670072.0, -147554.3, 0.32934, 9.998502, 9.999357 
2.1749824e+3, 1.5463348e+2, -1451218.8, -1485439.1, 23505.27, -0.12197413, -0.6867609, -1439255.6, -14732.761, 0.18832743, 9.99998, 9.999517 
2.1749969e+3, 1.646329e+2, -1352309.1, -1455480.4, -7752.2773, -0.26606756, -0.67032695, -1351729.9, -25198.773, 0.0852701, 10.000237, 9.998962 
2.1750139e+3, 1.7463182e+2, -1315016.9, -1351413.6, -2097.391, -0.22322081, -0.73027223, -1314896.4, -86353.03, 0.028395085, 9.99972, 9.999225 
2.1750306e+3, 1.8463181e+2, -1118008.0, -996599.44, -44691.92, -0.14921021, -0.7492355, -981922.1, 148618.97, 0.006367479, 9.999497, 10.001112 
2.1750474e+3, 1.9463311e+2, -995429.4, -876748.0, 25166.934, 0.0035906073, -0.7630934, -871631.75, 160889.22, 0.0009868387, 9.999647, 10.001172 
2.175062e+3, 2.0463346e+2, -1030293.94, -1148589.4, -4210.492, 0.009858524, -0.7194913, -1030144.25, -95627.37, 0.000047582707, 10.00001, 9.998474 
2.1750747e+3, 2.1463254e+2, -812937.9, -990337.7, -14893.745, -0.14036512, -0.68506426, -811696.1, 24836.125, 0.00000000032497088, 10.000855, 9.998463 
2.1750876e+3, 2.2463126e+2, -709743.0, -933933.7, -72519.766, -0.19518054, -0.6399133, -688330.0, 50216.895, 0.0, 10.001081, 9.998074 
2.1751015e+3, 2.3462953e+2, -628003.1, -839361.75, -73710.05, -0.1157736, -0.651408, -604836.44, 35724.875, 0.0, 10.000969, 9.998088 
2.1751155e+3, 2.446273e+2, -567348.25, -741312.44, -87155.94, -0.04487753, -0.69542795, -531196.1, 11385.429, 0.0, 10.000612, 9.998276 
2.1751297e+3, 2.546245e+2, -483471.22, -625676.7, -87103.04, 0.028948523, -0.8431827, -442134.9, 2473.5046, 0.0, 10.000453, 9.998446 
2.175145e+3, 2.646232e+2, -365834.03, -545199.75, 47385.117, 0.06130874, -0.81275773, -354085.3, -7465.3335, 0.0, 10.00067, 9.998243 
2.1751626e+3, 2.7462304e+2, -90006.67, -348309.78, 60613.133, 0.0890849, -0.6904884, -76490.516, 172129.73, 0.0, 10.001868, 9.998322 
2.1751775e+3, 2.84621e+2, 5828.447, -295833.06, -89627.02, 0.030652711, -0.7133001, 30448.309, 181088.5, 0.0, 10.002, 9.9979725 
2.1751887e+3, 2.94618e+2, 13535.665, -226636.02, -63048.895, -0.14887635, -0.86704, 29080.84, 81751.766, 0.00000028754212, 10.001331, 9.998079 
2.1752058e+3, 3.0461863e+2, -184036.92, -351593.06, 27864.79, -0.008964317, -0.58850044, -179524.5, -179524.5, 0.0000061263827, 9.999869, 9.997605 
2.1752237e+3, 3.1461424e+2, -100738.43, 73254.65, 36604.242, 0.06924374, -0.8978191, 80641.73, 80641.73, 0.000027574106, 9.998806, 10.000989 
2.1849695e+3, 1.4461865e+2, -1774806.3, -1724191.0, 23630.111, 0.3653069, -0.76095366, -1714874.1, -192212.66, 0.34983045, 9.998487, 9.999287 
2.1849813e+3, 1.5461811e+2, -1359242.3, -1540310.8, 71602.766, -0.28344482, -0.7002532, -1334349.5, 90320.66, 0.2059314, 10.001185, 9.998595 
2.1849988e+3, 1.6461675e+2, -1280297.9, -1455284.8, -4726.159, -0.119028054, -0.69873804, -1280170.4, 46516.387, 0.09816949, 10.000951, 9.998616 
2.1850143e+3, 1.746153e+2, -1301453.0, -1368998.1, 3238.4866, -0.14399807, -0.7654191, -1301298.1, -72594.35, 0.036017943, 9.999967, 9.998972 
2.1850295e+3, 1.8461509e+2, -1144766.6, -1010997.06, -46982.613, -0.18519716, -0.79036355, -996144.8, 134559.05, 0.009796201, 9.999292, 10.001122 
2.1850461e+3, 1.9461638e+2, -1080243.3, -918742.0, -113667.9, -0.031110216, -0.811034, -860061.44, 172622.86, 0.0020521113, 9.999051, 10.00117 
2.1850617e+3, 2.0461698e+2, -1129101.6, -1171415.3, -123119.98, 0.04106948, -0.74970645, -1025333.9, -90655.77, 0.00020967671, 9.999241, 9.998692 
2.1850757e+3, 2.1461669e+2, -887427.5, -997417.25, -97975.07, -0.08404788, -0.67376745, -830067.8, 6620.3564, 0.00000086887735, 10.000227, 9.998719 
2.1850893e+3, 2.2461574e+2, -720442.75, -928859.0, -120554.66, -0.13376047, -0.61418265, -665299.8, 73400.02, 0.0, 10.000942, 9.998186 
2.1851033e+3, 2.3461396e+2, -549047.2, -781707.4, -117492.59, -0.07752579, -0.64155555, -500037.63, 140676.42, 0.0, 10.001435, 9.998257 
2.1851172e+3, 2.446116e+2, -430596.97, -722871.06, -111951.54, 0.017776377, -0.6869993, -392643.88, 150091.89, 0.0, 10.001748, 9.997857 
2.1851316e+3, 2.5460854e+2, -305760.97, -596635.75, -148829.78, 0.11827205, -0.81181306, -243106.23, 201660.55, 0.0, 10.001892, 9.997965 
2.185147e+3, 2.6460704e+2, -218508.63, -419848.22, 11302.246, 0.15289344, -0.8007933, -217876.16, 128903.98, 0.0, 10.001426, 9.998755 
2.1851636e+3, 2.746068e+2, -269626.75, -378052.16, 40490.65, 0.09648255, -0.73560774, -256174.77, -7395.345, 0.0, 10.000371, 9.998858 
2.1851783e+3, 2.8460547e+2, -211794.55, -357921.38, -59309.688, 0.017082531, -0.73705924, -190752.16, -39961.66, 0.0, 10.000293, 9.998383 
2.1851902e+3, 2.946035e+2, 34050.676, -190336.34, -64193.85, -0.11913279, -0.81536204, 51117.504, 103927.67, 0.000000027227998, 10.001344, 9.99833 
2.1852078e+3, 3.0460224e+2, 27277.072, -385326.16, 64133.746, 0.13005686, -0.6831982, 37015.95, 37015.95, 0.0000044959556, 10.00184, 9.996463 
2.1852237e+3, 3.145984e+2, 275418.75, 295659.78, 21279.4, 0.088971086, -0.79413533, 309102.75, 309102.75, 0.000025056477, 10.00109, 10.001481 
2.1949685e+3, 1.4460424e+2, -1633110.1, -1459356.6, -129835.945, 0.33150938, -0.72936875, -1390012.6, 132792.97, 0.371045, 9.998538, 10.001485 
2.1949776e+3, 1.5460202e+2, -1395856.1, -1629896.3, 133507.2, -0.808953, -0.7758118, -1335343.5, 89481.04, 0.22535217, 10.001248, 9.997968 
2.195002e+3, 1.6459976e+2, -1270334.8, -1445037.6, -68941.39, 0.045710288, -0.8457146, -1246406.5, 80441.42, 0.113554515, 10.001032, 9.998653 
2.1950169e+3, 1.746001e+2, -1314738.1, -1390786.5, -23680.123, 0.06675851, -0.71875244, -1307967.4, -79117.39, 0.046104282, 9.999949, 9.998828 
2.1950285e+3, 1.845998e+2, -1238473.3, -1216633.6, -60009.836, -0.24172488, -0.67546165, -1166558.3, -35703.07, 0.015073848, 9.999344, 9.9996805 
2.1950434e+3, 1.9459882e+2, -1187588.3, -1136431.0, -117450.67, -0.24691296, -0.77044135, -1041805.94, -8942.779, 0.004138987, 9.999037, 9.9996805 
2.1950598e+3, 2.0459868e+2, -1085278.6, -1059001.9, -98034.26, -0.11130723, -0.74432176, -973229.44, -38364.32, 0.00072646124, 9.999151, 9.999503 
2.1950766e+3, 2.1459962e+2, -848015.5, -871793.3, -54455.25, -0.028893333, -0.6404483, -804166.44, 32692.36, 0.000022642807, 10.000046, 9.999661 
2.1950915e+3, 2.2459903e+2, -731519.94, -884833.44, -109403.74, -0.034074385, -0.6173978, -674589.9, 64274.277, 0.000000000011542125, 10.000653, 9.998626 
2.1951053e+3, 2.345964e+2, -537618.2, -726704.44, -90371.99, -0.043032527, -0.77589715, -501373.28, 139512.55, 0.0, 10.001295, 9.9987 
2.1951191e+3, 2.4459471e+2, -518967.22, -835283.9, -116537.98, -0.007305951, -0.74990624, -480669.03, 62233.805, 0.0, 10.001453, 9.997221 
2.1951333e+3, 2.5459385e+2, -382175.28, -714146.6, -133381.94, 0.08854278, -0.5872148, -335224.38, 109692.43, 0.0, 10.001716, 9.997242 
2.195148e+3, 2.645922e+2, -217741.81, -329664.1, -36058.855, 0.085169934, -0.59243435, -207130.5, 139801.31, 0.0, 10.001066, 9.999533 
2.195163e+3, 2.7458954e+2, -236507.88, -255737.89, 14685.092, -0.009953287, -0.86033154, -228570.1, 20378.826, 0.0, 10.000163, 9.999781 
2.1951783e+3, 2.845888e+2, -230208.53, -319751.6, -35970.89, -0.060951956, -0.87351006, -217548.4, -66597.695, 0.0, 9.999982, 9.998788 
2.1951932e+3, 2.9458976e+2, 15617.4795, -169195.34, -6945.516, 0.020860922, -0.69450706, 15878.134, 68818.42, 0.000000020729713, 10.001094, 9.998592 
2.1952108e+3, 3.04585e+2, -93583.734, -489203.94, 45189.016, 0.18935291, -0.89448386, -88487.74, -88487.74, 0.0000055230016, 10.00125, 9.996003 
2.195223e+3, 3.145836e+2, 60865.914, 71207.766, -13631.995, -0.1623908, -0.7462744, 80616.61, 80616.61, 0.000029811183, 10.000227, 10.000308 
2.2049665e+3, 1.4458664e+2, -1279324.4, -1230332.8, -82964.12, 0.16201763, -0.7807925, -1168323.6, 354658.66, 0.39437363, 10.001439, 10.002543 
2.2049777e+3, 1.5458585e+2, -1568767.3, -1652850.8, -18873.66, -0.8206503, -0.69909525, -1564725.1, -139739.97, 0.24751917, 9.99963, 9.998564 
2.2050022e+3, 1.6458361e+2, -1634538.1, -1532250.5, -137449.16, 0.14212595, -0.8515423, -1436738.4, -109732.39, 0.13222682, 9.998048, 9.999505 
2.2050166e+3, 1.7458452e+2, -1348109.9, -1363355.9, -25494.727, 0.08952348, -0.7186149, -1329122.9, -100122.555, 0.059555795, 9.999465, 9.999287 
2.2050288e+3, 1.8458426e+2, -1136548.8, -1252910.8, 2697.0823, -0.20861004, -0.6547955, -1136486.3, -5480.4634, 0.023171267, 10.000408, 9.998925 
2.2050433e+3, 1.9458288e+2, -961923.94, -1112105.1, -23872.676, -0.25252414, -0.71438, -958220.5, 74801.516, 0.008108057, 10.000952, 9.99894 
2.2050598e+3, 2.0458245e+2, -841219.0, -920112.75, 14128.8955, -0.11074572, -0.68682104, -838765.0, 96262.664, 0.0021629941, 10.000726, 9.999705 
2.2050771e+3, 2.1458305e+2, -851578.5, -853975.56, -9262.474, 0.03112638, -0.63697, -843437.3, -6415.6, 0.00023583506, 9.999911, 9.99986 
2.2050928e+3, 2.245823e+2, -786232.56, -894439.44, -46822.926, 0.064960964, -0.6448243, -768784.9, -29756.928, 0.0000019906881, 10.000203, 9.998779 
2.2051072e+3, 2.3458025e+2, -448497.06, -670533.94, -73375.234, 0.0040346384, -0.76150256, -426440.28, 214605.42, 0.0, 10.00184, 9.998837 
2.205121e+3, 2.4457894e+2, -378740.06, -713688.9, -111063.6, 0.016629193, -0.7210521, -345259.75, 197798.64, 0.0, 10.002171, 9.997718 
2.2051345e+3, 2.5457847e+2, -443775.3, -671212.25, -64667.34, 0.06762812, -0.5763458, -426674.22, 18391.588, 0.0, 10.001036, 9.997837 
2.2051485e+3, 2.64577e+2, -270717.94, -360880.38, 80196.484, 0.069644116, -0.5946724, -223800.28, 123278.08, 0.0, 10.000714, 9.999498 
2.2051638e+3, 2.7457425e+2, -63554.977, -190186.53, 44966.87, 0.0025325129, -0.8581521, -49211.836, 199886.0, 0.0, 10.001399, 9.999652 
2.2051796e+3, 2.8457376e+2, -9582.285, -218236.78, -22524.24, 0.022314264, -0.84029496, -7178.488, 143919.3, 0.0, 10.001523, 9.998737 
2.2051953e+3, 2.9457444e+2, 42078.043, -152130.03, -66438.06, 0.1323528, -0.6722103, 62631.176, 115720.85, 0.00000007580395, 10.00126, 9.998632 
2.2052124e+3, 3.0456892e+2, -51653.625, -434416.3, 30089.922, 0.2442021, -0.9867436, -49302.62, -49302.62, 0.0000083740215, 10.001352, 9.996351 
2.2052255e+3, 3.1456977e+2, 231751.61, 54965.477, -114006.08, 0.020228155, -0.6061622, 287617.75, 287617.75, 0.000042885644, 10.001781, 9.999454 
2.2149673e+3, 1.4456825e+2, -1308385.6, -1258278.3, 206269.75, 0.010639131, -0.6494124, -1075546.3, 447622.1, 0.4221777, 10.001306, 10.002429 
2.2149824e+3, 1.5456921e+2, -1467939.5, -1428991.3, -103771.22, -0.32427406, -0.47840515, -1342882.8, 82272.96, 0.27423543, 9.999609, 10.000245 
2.2149992e+3, 1.6456796e+2, -1499384.9, -1281765.9, -118778.63, -0.023298861, -0.71180695, -1229492.0, 97672.48, 0.15564767, 9.998137, 10.001279 
2.2150134e+3, 1.7456858e+2, -1265426.1, -1191203.9, 29268.83, -0.19593936, -0.75186616, -1181050.9, 48103.656, 0.07778218, 9.999456, 10.00049 
2.2150296e+3, 1.8456851e+2, -1143815.9, -1279184.6, 17339.38, -0.21243237, -0.7171869, -1141630.1, -10474.631, 0.035576556, 10.000451, 9.998728 
2.2150454e+3, 1.9456838e+2, -979380.1, -1127166.1, 1739.3018, -0.14729138, -0.64150256, -979359.7, 53802.76, 0.0154146915, 10.000866, 9.998876 
2.2150607e+3, 2.0456801e+2, -885981.75, -987171.3, -22123.736, -0.102060035, -0.58849424, -881356.1, 53812.29, 0.005714695, 10.000612, 9.999299 
2.2150767e+3, 2.1456684e+2, -903569.75, -930673.7, -30796.436, -0.013620594, -0.66985613, -883475.4, -46296.797, 0.0013616167, 9.99978, 9.999392 
2.2150925e+3, 2.2456579e+2, -850519.6, -959732.56, 2105.1582, 0.010136781, -0.6676769, -850479.06, -111290.27, 0.00013056793, 9.999913, 9.998469 
2.2151086e+3, 2.3456518e+2, -496236.2, -721353.94, -825.9444, -0.035845067, -0.6145977, -496233.16, 144963.05, 0.0000045921656, 10.001627, 9.9985895 
2.2151226e+3, 2.4456407e+2, -331735.1, -520245.78, -162805.9, -0.06040505, -0.6128559, -237868.58, 305336.16, 0.000000030624218, 10.001778, 9.999227 
2.2151345e+3, 2.5456223e+2, -359120.44, -441636.88, -99019.2, -0.044465493, -0.7727137, -293107.75, 152108.08, 0.0, 10.000817, 9.999511 
2.2151485e+3, 2.6456103e+2, -379530.25, -512075.78, 86240.42, -0.031728636, -0.8092156, -337039.56, 10184.797, 0.0, 10.000411, 9.9986 
2.2151658e+3, 2.7456066e+2, -169331.94, -352006.03, 77020.87, 0.0169461, -0.7394699, -141192.34, 108036.266, 0.0, 10.001164, 9.998645 
2.2151819e+3, 2.8456005e+2, -130869.68, -362109.88, -44642.48, 0.05853238, -0.64487857, -122550.445, 28683.984, 0.0, 10.001084, 9.997945 
2.2151965e+3, 2.945572e+2, -34188.086, -253288.72, -56173.184, 0.091128476, -0.7619325, -20625.86, 32634.824, 0.00000027397763, 10.001033, 9.998034 
2.2152121e+3, 3.0455327e+2, -39229.742, -296677.16, 34044.242, 0.053426497, -0.95325893, -34803.9, -34803.9, 0.000015050563, 10.0009165, 9.997481 
2.2152285e+3, 3.1455588e+2, -7912.6963, -232280.19, 20816.365, 0.09348385, -0.5100781, -5997.7397, -5997.7397, 0.00007034586, 10.000928, 9.99787 
2.2249688e+3, 1.445475e+2, -1442406.1, -1837904.1, 420489.8, -0.122083835, -0.60530126, -1175487.1, 347871.94, 0.45833316, 10.003498, 9.996605 
2.2249834e+3, 1.5454863e+2, -1545551.5, -1356007.5, -124693.26, -0.14068429, -0.74295807, -1294158.5, 131197.13, 0.30885017, 9.99848, 10.001455 
2.224998e+3, 1.6455236e+2, -1284115.0, -1156005.9, -68624.37, -0.017654316, -0.5503375, -1126186.6, 201132.77, 0.18666483, 9.99947, 10.001659 
2.2250125e+3, 1.74552e+2, -1173883.3, -1085893.3, -32197.848, -0.25104228, -0.7442439, -1075369.8, 153945.75, 0.103338934, 9.999837, 10.001111 
2.2250298e+3, 1.845517e+2, -1277607.1, -1323532.9, -52071.258, -0.16193596, -0.77672845, -1243660.4, -112343.2, 0.054786276, 9.999427, 9.99893 
2.2250466e+3, 1.9455197e+2, -1118579.9, -1174962.6, -57883.914, -0.05768621, -0.67667586, -1082387.3, -49066.402, 0.028543482, 9.999791, 9.999066 
2.225062e+3, 2.0455162e+2, -938857.3, -1054871.5, -66788.06, -0.040422536, -0.6173711, -908402.75, 26924.994, 0.013685946, 10.0004425, 9.99891 
2.2250769e+3, 2.1455024e+2, -722843.25, -895466.0, -101735.02, -0.042159256, -0.67144394, -675739.25, 161601.95, 0.005262215, 10.001265, 9.998921 
2.2250928e+3, 2.2454919e+2, -653076.3, -830078.06, -20343.598, -0.0059310575, -0.66037965, -650768.2, 88583.48, 0.001420654, 10.001094, 9.998802 
2.22511e+3, 2.3454875e+2, -741987.44, -793210.44, 8270.1, 0.016857857, -0.6284153, -740685.3, -99328.92, 0.0002619265, 9.999724, 9.9990225 
2.2251241e+3, 2.4454783e+2, -593175.25, -567768.75, -134985.44, 0.014247596, -0.66168404, -444890.13, 98470.875, 0.000035642544, 9.999627, 9.9999485 
2.2251356e+3, 2.545463e+2, -241259.94, -308861.3, -147565.45, -0.03867399, -0.86270684, -123673.54, 321692.6, 0.0000011567587, 10.001236, 10.000256 
2.2251497e+3, 2.6454517e+2, -220272.33, -466423.72, 25196.232, -0.014482687, -0.9152844, -217719.69, 129653.99, 0.0, 10.00163, 9.998326 
2.2251673e+3, 2.745448e+2, -225984.52, -405355.97, 30279.56, 0.07788064, -0.8123859, -221010.95, 28370.12, 0.0, 10.000919, 9.99839 
2.2251835e+3, 2.8454444e+2, -153194.47, -369572.0, 1143.4391, 0.14096577, -0.68223757, -153188.44, -1802.0875, 0.0, 10.000904, 9.997997 
2.2251983e+3, 2.945419e+2, 133761.1, -161053.53, 18998.13, 0.108975135, -0.76058036, 134980.31, 188390.89, 0.00000073017384, 10.00216, 9.998114 
2.2252145e+3, 3.0453917e+2, 241300.22, -62624.29, 96427.164, 0.12593034, -0.89777, 269312.2, 269312.2, 0.00002755439, 10.002392, 9.998401 
2.2252293e+3, 3.1453958e+2, 52183.6, -122379.11, -12801.139, 0.068586275, -0.7163206, 53117.348, 53117.348, 0.000118261974, 10.000951, 9.998646 
2.234979e+3, 1.545244e+2, -1532293.0, -1274819.9, -158543.7, -0.45979458, -1.4187146, -1199328.1, 226253.55, 0.35698506, 9.998189, 10.002492 
2.2349988e+3, 1.645363e+2, -1366625.8, -1298509.1, -34983.23, 0.044869915, -0.41240627, -1283743.4, 43732.78, 0.23053116, 9.99939, 10.000527 
2.2350134e+3, 1.7453441e+2, -1191474.1, -1103956.9, -28117.707, -0.16747086, -0.72470975, -1095701.8, 133784.97, 0.14104874, 9.999731, 10.001067 
2.235029e+3, 1.8453364e+2, -1242632.0, -1244940.8, -59865.04, -0.22255741, -0.84394926, -1183910.3, -52417.7, 0.08532412, 9.999399, 9.999481 
2.2350463e+3, 1.9453366e+2, -1095745.0, -1112121.6, -34239.992, -0.08510144, -0.8170563, -1068727.9, -35230.37, 0.05187056, 9.999721, 9.999535 
2.2350626e+3, 2.0453347e+2, -992720.1, -1134515.8, -43953.637, -0.066510536, -0.7416149, -980200.75, -44697.04, 0.030293982, 10.000306, 9.998427 
2.2350773e+3, 2.1453308e+2, -782014.0, -976317.4, -64027.195, -0.15065165, -0.64904714, -762813.06, 74698.21, 0.015773455, 10.001085, 9.998453 
2.235093e+3, 2.2453226e+2, -639916.94, -719547.7, -75470.09, -0.12980354, -0.6345655, -594403.5, 145115.48, 0.0069356123, 10.000752, 9.999717 
2.2351101e+3, 2.3453088e+2, -691568.1, -650355.9, -32922.188, 0.041227203, -0.80741453, -632122.8, 9404.078, 0.002541045, 9.999555, 10.000078 
2.2351246e+3, 2.4453022e+2, -656192.56, -616150.06, -93764.08, 0.07569225, -0.86076695, -540293.5, 3233.9011, 0.00075579167, 9.999289, 9.999771 
2.235137e+3, 2.5453064e+2, -285439.5, -339920.94, -79752.84, -0.033391457, -0.8614277, -228403.45, 217113.34, 0.00014769337, 10.000981, 10.000157 
2.2351511e+3, 2.6452953e+2, -288413.13, -494934.88, -21458.48, -0.055843927, -0.9039705, -286207.06, 61317.83, 0.000007045108, 10.00117, 9.998336 
2.2351682e+3, 2.7452672e+2, -252511.72, -403046.34, 12646.153, 0.06545843, -1.0637544, -251456.72, -1902.1914, 0.00000000065814787, 10.000676, 9.99851 
2.2351843e+3, 2.8452665e+2, -174486.06, -305394.8, 18157.566, 0.094770595, -0.9516674, -172014.2, -20457.5, 0.0, 10.000475, 9.998625 
2.2352e+3, 2.945282e+2, 96923.36, -132576.83, 80479.67, 0.03274351, -0.6904043, 122332.32, 175874.6, 0.0000012574419, 10.001741, 9.99849 
2.2352178e+3, 3.0452567e+2, 132090.7, -106131.43, 29636.018, 0.17281471, -0.82129794, 135722.22, 135722.22, 0.000044073433, 10.001654, 9.99843 
2.2352286e+3, 3.1452283e+2, 64009.383, 135696.75, 40278.71, -0.14007612, -0.99815524, 153771.0, 153771.0, 0.00018419352, 10.000036, 10.000826 
2.2449821e+3, 1.5451577e+2, -1271930.4, -1909418.9, 12190.154, -0.30693582, -1.032604, -1271697.3, 153957.1, 0.42759266, 10.004522, 9.994278 
2.2449988e+3, 1.6451843e+2, -1290862.0, -1293108.9, 18416.4, 0.084383465, -0.5171142, -1273534.8, 54113.484, 0.29616648, 10.00014, 10.000233 
2.2450134e+3, 1.7451686e+2, -1197733.4, -1106586.0, 19381.28, -0.118944265, -0.80860347, -1102636.0, 127021.76, 0.19952731, 9.999657, 10.001151 
2.2450286e+3, 1.8451646e+2, -1204968.9, -1212560.0, 21079.877, -0.19543608, -0.904656, -1187345.6, -55685.332, 0.13536815, 9.999581, 9.999618 
2.2450459e+3, 1.9451734e+2, -1001069.44, -1054051.9, -200.65388, -0.13670164, -0.80191606, -1001068.7, 32586.934, 0.09319166, 10.000337, 9.999651 
2.2450624e+3, 2.0451754e+2, -946292.8, -1130610.4, 3470.3013, -0.09530211, -0.6915183, -946227.5, -10569.356, 0.06306426, 10.000639, 9.998332 
2.2450787e+3, 2.1451648e+2, -883905.25, -1042029.0, -12312.006, -0.0800694, -0.6461478, -882952.4, -45278.77, 0.0400799, 10.000405, 9.998355 
2.2450942e+3, 2.2451554e+2, -727687.8, -717232.7, -54804.04, -0.020838171, -0.65246904, -667407.44, 72274.64, 0.023131557, 9.999935, 10.000149 
2.2451097e+3, 2.3451492e+2, -753721.0, -628690.2, -90361.89, 0.09578285, -0.79688543, -581326.3, 60354.336, 0.011994159, 9.998901, 10.000552 
2.245124e+3, 2.4451444e+2, -744373.7, -709948.44, -77574.016, 0.14491272, -0.83090675, -647700.4, -104020.336, 0.0054928027, 9.998868, 9.999344 
2.2451384e+3, 2.5451452e+2, -447229.38, -457698.25, -98146.89, 0.063229084, -0.82244366, -354177.44, 91499.05, 0.002050329, 10.000042, 9.999808 
2.2451526e+3, 2.6451343e+2, -367302.28, -473456.53, -81894.68, 0.02980868, -0.86561775, -322788.84, 24896.574, 0.0004876709, 10.000356, 9.998885 
2.2451684e+3, 2.7451107e+2, -238736.22, -320552.63, -21376.992, 0.05044974, -1.0417833, -233487.55, 16220.6875, 0.000047167257, 10.000444, 9.999191 
2.2451846e+3, 2.845114e+2, -124719.71, -204709.0, 54022.063, 0.0863047, -0.96486217, -97498.625, 54205.723, 0.00000034188096, 10.000464, 9.999333 
2.2452019e+3, 2.9451317e+2, 101005.07, -73201.39, 88731.555, 0.07564479, -0.7246475, 138241.14, 191926.7, 0.0000013302117, 10.001468, 9.999066 
2.2452202e+3, 3.0450982e+2, 132430.98, -183432.28, 6707.97, 0.25122002, -0.95144993, 132573.38, 132573.38, 0.0000584347, 10.001921, 9.9977865 
2.2452307e+3, 3.145079e+2, 283562.47, 258876.3, -164788.27, 0.024862524, -0.93099535, 436469.28, 436469.28, 0.00025945, 10.001359, 10.001048 
2.2549973e+3, 1.6449945e+2, -1383074.4, -1372243.1, -43085.887, -0.15908375, -0.77477235, -1334233.9, -6404.474, 0.39765337, 9.999571, 9.999847 
2.2550127e+3, 1.744991e+2, -1196409.1, -1101354.5, -6074.375, -0.22152074, -1.0044544, -1100967.9, 128863.086, 0.29298013, 9.999582, 10.001371 
2.2550288e+3, 1.8449983e+2, -1283668.6, -1314046.3, 5412.6465, -0.22652575, -0.9718285, -1282733.0, -150909.14, 0.21888196, 9.999323, 9.99903 
2.2550444e+3, 1.9450247e+2, -1059567.4, -1124769.8, 24152.576, -0.33224797, -0.66210717, -1051595.4, -17794.701, 0.16615056, 10.000097, 9.999263 
2.2550616e+3, 2.0450328e+2, -968793.7, -1113428.9, -10562.199, -0.30179995, -0.5001234, -968026.44, -32230.37, 0.12546477, 10.00037, 9.99856 
2.2550803e+3, 2.1450023e+2, -893633.0, -1022300.8, -12965.629, 0.029028079, -0.68551016, -892339.44, -54509.344, 0.0914258, 10.00024, 9.998552 
2.2550964e+3, 2.2449908e+2, -795754.6, -789791.7, -95330.21, 0.1590975, -0.71123904, -697396.4, 42444.824, 0.062582165, 9.9996395, 9.999798 
2.255109e+3, 2.3450075e+2, -796726.25, -678865.5, -120278.8, 0.10078299, -0.60356927, -603856.44, 37962.5, 0.039919913, 9.998715, 10.000307 
2.2551225e+3, 2.4450044e+2, -888428.6, -869145.94, -57799.77, 0.06593393, -0.5626222, -820188.9, -276369.56, 0.023601582, 9.99829, 9.998518 
2.2551392e+3, 2.54498e+2, -528690.3, -560275.25, -47644.73, 0.11965054, -0.75103396, -494288.94, -48444.58, 0.012405956, 9.999773, 9.999219 
2.2551535e+3, 2.644967e+2, -375825.16, -385835.75, -109360.17, 0.072257176, -0.8167877, -271355.8, 76500.805, 0.005154125, 9.99993, 9.999684 
2.2551677e+3, 2.744976e+2, -218479.88, -180587.27, -14398.394, -0.10294748, -0.7888125, -175737.0, 74107.695, 0.0013586987, 10.000046, 10.000334 
2.2551836e+3, 2.844983e+2, -201639.84, -198163.78, 47739.79, -0.09731237, -0.75032157, -152130.4, -297.62338, 0.00015517221, 9.999791, 9.999682 
2.2552036e+3, 2.944971e+2, 76181.64, -5794.0244, 138937.14, 0.097649984, -0.8449812, 180050.73, 233888.1, 0.0000026982873, 10.001034, 9.999697 
2.2552212e+3, 3.044919e+2, -67147.91, -454494.0, -29236.314, 0.09346179, -1.2396743, -64953.617, -64953.617, 0.000065484004, 10.001359, 9.996175 
2.2552326e+3, 3.1449172e+2, 36483.97, -81369.1, -40235.62, 0.019957237, -0.83815557, 48910.37, 48910.37, 0.00034262822, 10.000687, 9.999018 
2.2650146e+3, 1.7448717e+2, -1221188.1, -1640834.9, -215286.98, -0.06634339, -0.45662087, -1130388.3, 99569.56, 0.44342524, 10.001755, 9.99652 
2.26503e+3, 1.8448554e+2, -1174688.1, -1176436.0, -86206.33, -0.06894748, -0.65482146, -1089351.3, 42622.746, 0.3585124, 9.99961, 9.999946 
2.2650453e+3, 1.9448534e+2, -1059493.0, -983978.8, -650.0941, -0.2172864, -0.72714084, -983973.2, 49993.664, 0.29413474, 9.999395, 10.000669 
2.2650617e+3, 2.044847e+2, -1009604.06, -1070159.1, 61511.242, -0.27235258, -0.81675285, -971322.4, -35352.29, 0.24160613, 9.999714, 9.999208 
2.2650789e+3, 2.144837e+2, -869828.0, -971292.75, 45106.53, -0.14686072, -0.8362228, -852675.4, -14691.086, 0.1940874, 10.000168, 9.998966 
2.265095e+3, 2.2448316e+2, -639773.9, -790777.2, -29769.195, -0.004214033, -0.7863986, -634117.0, 105873.26, 0.14888066, 10.001137, 9.999085 
2.2651094e+3, 2.344836e+2, -436107.8, -585561.9, -118876.9, 0.13910313, -0.70800924, -370421.72, 271560.84, 0.108788945, 10.001732, 9.999549 
2.2651236e+3, 2.4448262e+2, -418200.88, -689956.44, -32440.025, 0.1860202, -0.67007065, -414382.13, 129610.05, 0.07581198, 10.001718, 9.998127 
2.2651394e+3, 2.5448075e+2, -356677.6, -550701.1, -34384.016, 0.11160768, -0.75393915, -350764.4, 95250.75, 0.048806984, 10.001199, 9.99866 
2.2651534e+3, 2.6447964e+2, -292545.66, -413095.53, -150018.22, 0.017786745, -0.72746575, -191146.44, 156881.6, 0.026684597, 10.000716, 9.999166 
2.265168e+3, 2.7448022e+2, -109787.91, -158952.47, -179095.73, -0.085544884, -0.70225877, 46404.74, 296426.03, 0.010897145, 10.000827, 10.000168 
2.2651838e+3, 2.8448093e+2, -239125.6, -177315.47, -152464.83, 0.0031011512, -0.67134655, -52654.95, 99354.66, 0.002788968, 9.999333, 10.000067 
2.2652051e+3, 2.9448062e+2, 4020.0308, -1374.8352, -35337.21, 0.18229255, -0.7002452, 36762.61, 90766.0, 0.0003034348, 10.000386, 10.000042 
2.2652227e+3, 3.0447575e+2, 42956.617, -375111.53, -132014.8, 0.09592178, -1.129483, 81153.51, 81153.51, 0.000074942734, 10.002065, 9.996381 
2.2652368e+3, 3.1447238e+2, 450971.28, -18186.123, -75523.766, 0.19630867, -0.8990283, 462829.22, 462829.22, 0.00045627946, 10.004002, 9.997952 
2.2750632e+3, 2.0446554e+2, -963972.2, -1085416.3, 73392.695, -0.16092165, -1.2343249, -929438.5, 6705.04, 0.4526298, 10.000252, 9.9988 
2.2750767e+3, 2.1446933e+2, -775095.94, -857507.06, 47198.066, -0.41179684, -0.83941, -753647.25, 84464.84, 0.38963944, 10.000911, 9.999388 
2.2750957e+3, 2.2446865e+2, -964741.56, -1138400.6, -28652.83, -0.109089814, -0.7838232, -960136.1, -220014.55, 0.32267725, 9.9996, 9.99739 
2.275113e+3, 2.3446229e+2, -762602.9, -902189.56, -78563.39, 0.30144513, -1.2590606, -727309.0, -85125.766, 0.25840095, 10.000013, 9.998094 
2.2751272e+3, 2.4445969e+2, -606787.44, -896025.1, -49501.38, 0.28654885, -1.2650607, -598550.1, -54338.594, 0.20062341, 10.000856, 9.997093 
2.2751394e+3, 2.544624e+2, -494425.47, -684327.6, -40091.766, -0.04971232, -0.88383013, -486308.34, -40116.41, 0.14660953, 10.000541, 9.998013 
2.2751516e+3, 2.6446265e+2, -687579.44, -892740.06, -180296.16, -0.2836704, -0.5591911, -582724.4, -234528.42, 0.09444842, 9.999272, 9.99652 
2.27517e+3, 2.7446e+2, -297538.84, -403556.3, -180725.19, -0.011473591, -0.7174037, -162208.75, 88018.98, 0.04983968, 10.00025, 9.998724 
2.2751856e+3, 2.8445992e+2, -390509.03, -255703.16, -235663.67, 0.19025254, -0.6918471, -77992.81, 74235.02, 0.019500945, 9.998367, 9.999971 
2.2752051e+3, 2.944637e+2, -90098.55, -50162.895, 7825.2817, 0.12824224, -0.34904754, -48684.297, 5498.5117, 0.004786881, 9.999818, 9.999943 
2.2752234e+3, 3.0446136e+2, -6454.3696, -226089.02, -120178.41, -0.08462894, -0.63288605, 46524.785, 46524.785, 0.0007184054, 10.001073, 9.997838 
2.275241e+3, 3.1445286e+2, 165709.63, -245172.75, 104843.31, 0.15943605, -0.9993115, 190915.8, 190915.8, 0.0007782504, 10.002632, 9.996954 
2.2851276e+3, 2.444505e+2, -260204.23, -609346.6, 153691.77, -0.032848295, -0.86312574, -202189.39, 342108.13, 0.45869297, 10.004035, 9.998296 
2.285144e+3, 2.544526e+2, -356820.8, -795625.7, -183465.34, 0.23906323, -0.13939553, -290221.56, 156063.69, 0.36361384, 10.002831, 9.996357 
2.2851525e+3, 2.644387e+2, -403215.5, -687882.3, -119168.71, -0.22160088, -1.1971092, -359914.9, -11485.697, 0.26167566, 10.000708, 9.997314 
2.2851728e+3, 2.7444062e+2, -116748.266, -455735.5, -12326.166, 0.18669352, -0.8121955, -116300.65, 134116.98, 0.1640845, 10.002154, 9.997547 
2.285186e+3, 2.8444064e+2, -127789.266, -234648.39, -134818.75, 0.31748077, -0.6161168, -36198.78, 116219.336, 0.0825175, 10.000564, 9.999126 
2.2852072e+3, 2.9443976e+2, 527236.8, 263947.9, 231845.8, 0.1739094, -0.7412375, 662205.8, 716625.5, 0.030766618, 10.003937, 10.000277 
2.2852305e+3, 3.0444115e+2, 732495.75, 295196.28, -15940.868, 0.3081131, -0.73153526, 733076.06, 733076.06, 0.009050321, 10.005309, 9.999457 
2.2852416e+3, 3.1443897e+2, 139826.61, 113069.49, -100896.12, 0.055487756, -0.6308298, 228227.28, 228227.28, 0.003966056, 10.000811, 10.000274 
2.2951673e+3, 2.7442625e+2, -254690.42, -590282.4, 81129.93, -0.6452665, -0.5895388, -236106.27, 14445.266, 0.434636, 10.001418, 9.996849 
2.2951846e+3, 2.8442416e+2, -1072528.5, -1131526.1, -346918.06, 0.021143045, -0.437484, -753857.3, -601286.2, 0.25417706, 9.996026, 9.995055 
2.2952114e+3, 2.9441312e+2, 360083.47, 245619.98, 391815.47, 0.1125178, -1.6858033, 698825.0, 753497.56, 0.121765375, 10.002906, 10.000752 
2.2952428e+3, 3.044188e+2, -232736.89, -319077.78, -166296.02, 0.90339464, -1.2212307, -104099.15, -104099.15, 0.0539907, 9.999442, 9.997926 
2.295242e+3, 3.1442747e+2, 229970.92, 715724.1, -543398.75, -0.15500152, -0.28518298, 1068054.4, 1068054.4, 0.031419467, 9.999295, 10.00515 
2.305219e+3, 2.94401e+2, -520253.4, 68081.06, -284252.28, 0.5095678, -1.072084, 182978.28, 237777.6, 0.36116892, 9.994511, 10.004644 
2.3052259e+3, 3.0442426e+2, 438078.06, 432011.56, -180279.27, -1.5320985, 0.5205755, 615349.6, 615349.6, 0.21475288, 10.002417, 10.002545 
2.3052573e+3, 3.143957e+2, -63852.62, -996503.7, 236347.84, 1.0838886, -1.5311774, -7378.184, -7378.184, 0.16673495, 10.003062, 9.992167 
2.3503682e+3, 2.7670294e+2, -361377.7, -219550.84, 120079.2, -1.1588587, 0.98457634, -151009.14, 77345.35, 0.450371, 9.997893, 10.000694 
2.350021e+3, 2.8668898e+2, 136687.94, -796222.25, -529988.4, 0.773861, 0.43884718, 376255.53, 506743.13, 0.3544872, 10.006204, 9.992306 
2.3496565e+3, 2.9669163e+2, 233102.73, -10096.636, 668772.2, -0.84068775, 1.0281842, 791240.3, 823701.5, 0.27868393, 10.003397, 9.999162 
2.3493284e+3, 3.0666506e+2, -845644.44, -563532.8, -327646.25, 0.3261895, -0.3523451, -347869.13, -347869.13, 0.22490159, 9.996217, 9.998263 
2.3639123e+3, 1.7712454e+2, -680880.9, -788293.2, 135490.47, -1.0620843, 0.49503842, -588840.6, 615371.75, 0.43641183, 10.004509, 10.002257 
2.3635747e+3, 1.8712047e+2, -1193118.0, -1376642.3, 90552.34, 0.28019172, 0.7990822, -1155961.5, -49710.33, 0.3776002, 10.000043, 9.997371 
2.3632205e+3, 1.9711368e+2, -1265669.1, -1394245.3, 25582.814, 0.6445451, 0.82600063, -1260765.9, -252446.55, 0.33353606, 9.998877, 9.997213 
2.3628618e+3, 2.0709376e+2, -693048.06, -826181.1, -146440.81, 0.021706006, -0.38208044, -598754.4, 311756.34, 0.30097765, 10.001869, 9.999207 
2.3625112e+3, 2.1709098e+2, -121057.195, -532992.5, 141806.08, 0.32741705, -0.06275153, -76961.586, 735570.06, 0.27814257, 10.006243, 9.999088 
2.3621568e+3, 2.2708946e+2, 1003597.9, -179086.0, -54555.313, 0.23009153, 0.619923, 1006109.1, 1720649.0, 0.26104498, 10.0171175, 9.996123 
2.3617959e+3, 2.3707289e+2, 447473.13, -376624.75, -318874.7, -0.6901039, -0.19918789, 556447.56, 1173143.0, 0.24562736, 10.010646, 9.996479 
2.3614459e+3, 2.4706437e+2, 426134.47, -532276.56, -232420.17, 0.16968866, -0.0060294373, 479523.6, 998312.06, 0.23008607, 10.010391, 9.99441 
2.3610903e+3, 2.5705722e+2, -489270.0, -814422.44, 184372.5, 0.37109292, 0.41943243, -406032.78, 14844.095, 0.20983039, 10.000406, 9.996572 
2.3607227e+3, 2.6705244e+2, 120317.195, 336269.63, -109713.82, -0.23433957, 0.34491107, 382228.44, 705155.75, 0.17457394, 10.000593, 10.004747 
2.3603657e+3, 2.7704522e+2, -800395.4, -909829.5, 19942.719, -0.647911, 0.056552757, -796874.4, -571881.0, 0.12479667, 9.997379, 9.995974 
2.3600122e+3, 2.870376e+2, 341680.7, 29810.945, -329103.06, -0.114116624, 0.13804421, 549922.3, 676989.3, 0.08189879, 10.003301, 9.999065 
2.3596662e+3, 2.97036e+2, -59392.047, 166122.23, 306788.28, 0.35283154, 0.124665305, 380218.63, 409302.0, 0.055389326, 9.998794, 10.001858 
2.3593113e+3, 3.070364e+2, -447275.78, -353004.22, -152657.52, -0.24491417, 1.0105844, -240371.11, -240371.11, 0.039833773, 9.998016, 9.998668 
2.374625e+3, 1.574902e+2, -2365343.3, -2056947.8, -301639.5, -0.17601128, 0.3441453, -1872378.1, -475760.0, 0.40917337, 9.993414, 9.998084 
2.3742752e+3, 1.6747852e+2, -437763.63, -955916.1, 258468.17, 0.7827438, -0.058703702, -330880.44, 967858.0, 0.3191415, 10.008672, 9.998676 
2.3739196e+3, 1.7747264e+2, -1270511.1, -1365524.9, 113679.44, 0.19539146, 0.034729265, -1194811.1, 5979.637, 0.25440004, 9.999524, 9.998594 
2.3735632e+3, 1.8746544e+2, -1249819.9, -1130766.9, -82332.836, -0.089497454, 0.0065733166, -1088695.6, 14166.798, 0.20803122, 9.998398, 10.000005 
2.373206e+3, 1.974609e+2, -923331.1, -1024380.5, -21762.852, -0.26059717, 0.14323676, -918843.4, 86067.05, 0.17323056, 10.000349, 9.999218 
2.3728465e+3, 2.0745462e+2, -1116856.0, -1117257.3, -10675.013, -0.76375484, 0.25221944, -1106379.6, -199408.31, 0.14628343, 9.998454, 9.998769 
2.3724896e+3, 2.1744864e+2, -1436693.1, -1227528.0, -65778.336, -0.95717347, 0.35122195, -1208561.8, -399534.06, 0.1255341, 9.995582, 9.998751 
2.3721431e+3, 2.2744106e+2, -1638521.3, -1478495.8, 65035.094, -0.2706657, 0.44009092, -1455398.9, -744295.7, 0.10829949, 9.994422, 9.996905 
2.3717971e+3, 2.3743029e+2, -1630154.5, -1357931.9, 25119.154, 0.41534832, 0.30491903, -1355633.4, -742422.1, 0.09199208, 9.993515, 9.997507 
2.37144e+3, 2.474243e+2, -922434.7, -595543.7, -59432.875, 0.4237695, 0.36636442, -585073.44, -69799.02, 0.07586676, 9.99614, 10.0008 
2.3710832e+3, 2.5741938e+2, -458347.44, -625415.7, 82053.84, 0.3096134, 0.57417935, -424788.5, -7459.816, 0.059159193, 10.000016, 9.998017 
2.370722e+3, 2.6741183e+2, 114265.4, -80249.14, -99041.43, 0.1510305, 0.5137974, 155818.0, 475219.13, 0.04041217, 10.002401, 10.00003 
2.3703648e+3, 2.7740175e+2, -296442.8, -618905.5, 247410.77, -0.12147724, 0.24498044, -162364.75, 59130.92, 0.021718537, 10.000764, 9.996265 
2.3700082e+3, 2.8739235e+2, -167971.88, -331218.28, -14864.544, -0.062167667, 0.23600098, -166629.4, -43041.332, 0.009489436, 10.000335, 9.997687 
2.369659e+3, 2.973858e+2, -244526.25, 24883.43, 283718.38, 0.3063384, 0.075111106, 204251.06, 229905.25, 0.0043449677, 9.997913, 10.000978 
2.3693044e+3, 3.073849e+2, 203234.2, 206196.64, -50623.07, -0.3425681, 0.7234278, 255360.16, 255360.16, 0.0025844586, 10.001164, 10.000629 
2.3849595e+3, 1.4784849e+2, -1132782.8, -1246267.1, 331401.75, -0.5461309, 0.0048797904, -853300.6, 637809.1, 0.38968232, 10.003191, 10.00068 
2.3846191e+3, 1.5784869e+2, -1273573.3, -1419686.0, 116501.57, 0.0115599325, 0.4835795, -1209116.5, 183988.28, 0.27836236, 10.001102, 9.998914 
2.3842649e+3, 1.6783829e+2, -1315797.4, -1533457.4, 34141.414, -0.13950764, 0.26982582, -1310567.8, -15363.218, 0.19862524, 10.000441, 9.997569 
2.383906e+3, 1.7782696e+2, -1392959.4, -1544851.9, 62756.406, -0.5684242, -0.07034793, -1370385.6, -173072.0, 0.1461588, 9.999273, 9.997451 
2.3835537e+3, 1.8782166e+2, -1021646.9, -1036049.6, 145192.9, -0.38347894, 0.1388952, -883476.9, 215889.58, 0.11113541, 10.000112, 9.999903 
2.3832057e+3, 1.9781725e+2, -783773.2, -962448.94, 64022.965, 0.20326936, 0.29134524, -763201.1, 238210.94, 0.08556882, 10.001398, 9.9991455 
2.3828527e+3, 2.0781086e+2, -718528.5, -988807.6, -11333.443, 0.46717083, 0.41055363, -718054.1, 185422.73, 0.065839775, 10.001649, 9.998084 
2.3824942e+3, 2.1780281e+2, -776398.44, -1051289.8, -46576.984, 0.32029036, 0.38658398, -768720.94, 36836.965, 0.050802168, 10.000804, 9.99743 
2.3821357e+3, 2.2779436e+2, -829033.0, -894725.75, 75105.64, -0.0794599, 0.3331782, -779905.4, -72258.16, 0.038884565, 9.999296, 9.998496 
2.3817798e+3, 2.3778552e+2, -1094723.1, -1056019.6, 26728.457, -0.29269418, 0.25055888, -1042372.94, -432631.56, 0.028499383, 9.997132, 9.997814 
2.381422e+3, 2.4778005e+2, -595622.8, -363701.56, 36313.656, -0.48907012, 0.299773, -358148.63, 153646.44, 0.019239577, 9.998188, 10.001365 
2.3810679e+3, 2.5777426e+2, -685683.1, -721075.5, 111951.09, -0.6421866, 0.32297292, -590038.25, -176188.9, 0.011432521, 9.998553, 9.998029 
2.3807146e+3, 2.677686e+2, -37477.59, -207370.94, -161416.7, -0.17766322, 0.4746353, 59979.926, 375881.75, 0.005416997, 10.001697, 9.999337 
2.3803642e+3, 2.7776113e+2, -124414.63, -467570.8, 31521.17, 0.32035822, 0.41110867, -121543.23, 96427.71, 0.001679893, 10.001693, 9.996859 
2.3800036e+3, 2.877493e+2, 91499.97, -342688.22, -120029.46, -0.037387177, 0.21138662, 122472.234, 242561.11, 0.00032890253, 10.002722, 9.99648 
2.379648e+3, 2.9774228e+2, -254138.34, -317183.66, 169277.38, -0.15021642, 0.20609707, -113473.58, -91312.87, 0.000101582686, 9.999253, 9.998042 
2.3793013e+3, 3.0773407e+2, -3315.4878, 357192.1, 154172.02, -0.31915352, 0.07719957, 414131.13, 414131.13, 0.00014370115, 9.998695, 10.002852 
2.3953217e+3, 1.3821232e+2, -2067111.4, -1480683.4, 172204.56, 0.5545993, 0.29689747, -1433854.9, 151681.61, 0.42782584, 9.994441, 10.003456 
2.3949577e+3, 1.4820774e+2, -1139557.5, -1388793.0, 170418.39, -0.55561054, 0.37803456, -1053054.5, 434527.16, 0.2998544, 10.003385, 9.998838 
2.3946127e+3, 1.5819725e+2, -1270085.9, -1503854.9, 81712.984, -0.22823113, 0.05785068, -1244355.5, 145327.39, 0.19614406, 10.001262, 9.998241 
2.39426e+3, 1.6819201e+2, -1170458.1, -1213834.3, -57232.54, -0.10991201, 0.20182313, -1130942.1, 160793.61, 0.12585048, 10.00036, 9.999958 
2.3939043e+3, 1.7818761e+2, -1228213.9, -1270974.0, 56055.027, -0.101700395, 0.3646931, -1189600.0, 4181.1387, 0.083471425, 9.999508, 9.999256 
2.3935518e+3, 1.8818028e+2, -880828.6, -967381.5, 189242.64, -0.06737531, 0.2864147, -729977.2, 365873.3, 0.057587944, 10.001041, 9.999915 
2.3932004e+3, 1.9817209e+2, -605710.8, -918590.2, 133271.22, -0.019427422, 0.09173178, -556639.94, 441287.94, 0.03970386, 10.002747, 9.99879 
2.3928443e+3, 2.081648e+2, -485831.6, -921400.3, -295.19836, -0.089144506, 0.16847034, -485831.4, 414172.63, 0.026570952, 10.003443, 9.997669 
2.3924863e+3, 2.181574e+2, -334952.3, -829447.06, 2290.5889, -0.22818577, 0.2786204, -334941.72, 467141.8, 0.017417854, 10.003853, 9.997477 
2.3921302e+3, 2.2815067e+2, -290410.3, -619637.2, 25174.074, -0.24641879, 0.38642895, -288496.53, 415658.88, 0.011141793, 10.002933, 9.998659 
2.3917754e+3, 2.381431e+2, -390138.06, -675014.5, 34269.13, -0.22957526, 0.43580392, -386073.66, 220161.25, 0.0065593217, 10.001782, 9.998168 
2.3914197e+3, 2.4813609e+2, -174527.17, -194366.67, 21744.88, -0.19507821, 0.34094864, -160546.27, 347753.94, 0.0032030866, 10.00124, 10.001028 
2.3910664e+3, 2.5812897e+2, -486078.6, -618033.3, 130000.234, -0.1528441, 0.24641141, -406271.63, 4093.2197, 0.0011282732, 9.999899, 9.998046 
2.3907112e+3, 2.6812163e+2, -180472.64, -481923.9, -49660.45, -0.09697107, 0.37252536, -172502.4, 139936.17, 0.00023273825, 10.001614, 9.99746 
2.3903571e+3, 2.7811342e+2, 102321.945, -298283.88, 12739.977, -0.11307531, 0.3720125, 102726.69, 317249.97, 0.000018051116, 10.002978, 9.9973545 
2.3899998e+3, 2.8810355e+2, 336943.78, -144537.97, -125653.12, -0.23879722, 0.28264633, 367762.97, 484386.4, 0.000004039042, 10.004025, 9.997197 
2.3896472e+3, 2.9809937e+2, 393516.6, -130022.18, 64191.504, 0.090127274, 0.628033, 401272.28, 419939.3, 0.00001362104, 10.004108, 9.997004 
2.3892957e+3, 3.0808613e+2, -27421.355, 170538.9, -261367.61, -0.13319772, 0.29091048, 351040.63, 351040.63, 0.00005414364, 9.999178, 10.00141 
2.4056605e+3, 1.285689e+2, -1548972.5, -1872868.0, 100938.664, 0.23616351, -0.3544535, -1520091.3, 159932.31, 0.49043512, 10.003057, 9.9965105 
2.4053037e+3, 1.3856779e+2, -1724692.3, -1978792.3, 15619.277, -0.47060966, 0.33997837, -1723735.8, -141689.84, 0.36336103, 10.000035, 9.996729 
2.4049546e+3, 1.4855948e+2, -1656793.4, -1623805.9, 123436.914, -0.39685777, 0.24239913, -1515765.6, -31636.97, 0.24041095, 9.998781, 9.999039 
2.4046065e+3, 1.5854917e+2, -1768099.4, -1680426.0, 85042.99, -0.20373498, -0.104214646, -1628586.4, -242358.08, 0.14389461, 9.997432, 9.998744 
2.4042536e+3, 1.6854553e+2, -1400597.3, -1259322.5, -49664.887, -0.06674519, 0.15168233, -1243610.4, 44657.08, 0.08188297, 9.998497, 10.000459 
2.4038999e+3, 1.7854276e+2, -1184997.6, -1204414.0, -68225.19, 0.107737236, 0.43677092, -1125793.4, 64505.2, 0.047678713, 9.999632, 9.999685 
2.4035473e+3, 1.8853527e+2, -1045594.25, -1018425.44, 84938.99, 0.03600824, 0.2904025, -945991.4, 146377.52, 0.028905774, 9.999763, 10.0001335 
2.4031943e+3, 1.9852671e+2, -1131081.0, -1198814.8, 3696.32, -0.13605866, 0.037647516, -1130879.9, -136431.4, 0.017015342, 9.999198, 9.998549 
2.402837e+3, 2.0851946e+2, -1025182.06, -1146121.4, -63591.367, -0.38683364, 0.09633815, -997899.56, -101373.83, 0.00915297, 9.999565, 9.997987 
2.4024795e+3, 2.185124e+2, -965066.7, -1142066.1, -39410.45, -0.503485, 0.21929029, -956688.2, -158084.4, 0.0045936005, 9.999585, 9.997393 
2.402125e+3, 2.2850637e+2, -672157.94, -796535.06, -1893.6799, -0.3382612, 0.37982923, -672129.1, 28537.23, 0.0022051786, 10.000299, 9.998695 
2.4017715e+3, 2.3849916e+2, -649708.6, -831609.2, 11036.586, -0.14195983, 0.44891515, -649041.44, -46302.773, 0.0009056362, 10.000183, 9.997868 
2.4014175e+3, 2.4849206e+2, -207777.06, -240937.7, -32949.223, 0.07914519, 0.36103192, -187471.64, 317332.16, 0.00023937336, 10.001265, 10.000627 
2.4010652e+3, 2.584844e+2, -480198.88, -733542.7, 13826.635, 0.31129786, 0.22092128, -479446.5, -72573.08, 0.000025130046, 10.000491, 9.996985 
2.400707e+3, 2.6847544e+2, -260264.05, -673102.7, -23051.031, -0.07246329, 0.3170993, -258980.97, 49988.305, 0.00000030344088, 10.001822, 9.996015 
2.400349e+3, 2.7846658e+2, -212979.58, -486510.63, -4801.89, -0.61770076, 0.3204942, -212895.31, -1827.8612, 0.000000006555133, 10.001017, 9.9970255 
2.3999964e+3, 2.884596e+2, 216830.75, -77847.22, -60782.645, -0.3405787, 0.4295558, 228875.92, 342015.47, 0.00000087941476, 10.002741, 9.998244 
2.399648e+3, 2.984561e+2, -174852.16, -687558.94, 38668.89, 0.32992408, 0.8851867, -171952.11, -156776.19, 0.0000072209577, 10.001521, 9.994401 
2.3992896e+3, 3.0844197e+2, -409678.78, -350355.84, -213648.03, -0.13001719, 0.6956946, -164320.13, -164320.13, 0.00003484927, 9.998159, 9.998202 
2.4156544e+3, 1.2892593e+2, -1647365.0, -1761760.5, -111758.375, -0.0934839, 0.43014497, -1579017.9, 97515.14, 0.44509998, 10.000807, 9.998569 
2.4152999e+3, 1.389123e+2, -1647736.0, -1760862.3, -28978.682, -0.3568616, -0.27105883, -1640744.8, -62076.434, 0.31930807, 9.999778, 9.998404 
2.4149495e+3, 1.4890899e+2, -1502141.1, -1349111.0, 41025.76, -0.23571962, -0.05575431, -1338806.4, 141892.67, 0.20041417, 9.998853, 10.001125 
2.4145994e+3, 1.5890609e+2, -1730072.3, -1586326.0, 76984.41, -0.13117212, 0.15840799, -1552879.0, -170154.03, 0.110025235, 9.997394, 9.999396 
2.4142456e+3, 1.6889788e+2, -1468240.5, -1464493.5, -13639.892, -0.13539012, 0.041653324, -1452599.1, -167791.75, 0.054970514, 9.998794, 9.998866 
2.4138914e+3, 1.78889e+2, -1182420.0, -1294176.6, -42895.664, -0.17023993, -0.14030184, -1167853.8, 19043.813, 0.027314784, 10.000025, 9.998868 
2.4135393e+3, 1.8888405e+2, -1012114.94, -986894.4, 24777.771, -0.16179149, -0.025748968, -971702.56, 117244.88, 0.013986388, 9.999898, 10.000291 
2.413187e+3, 1.9887945e+2, -1091551.5, -1087033.5, -27471.176, -0.2052694, 0.10418954, -1061728.6, -70735.41, 0.006556314, 9.999029, 9.999406 
2.4128321e+3, 2.088741e+2, -964288.06, -937633.7, -85067.42, -0.1776338, 0.20993622, -864855.8, 28194.637, 0.002469395, 9.99919, 9.999622 
2.4124764e+3, 2.1886805e+2, -873252.94, -954405.6, -986.283, -0.17214599, 0.2940023, -873241.0, -78125.945, 0.00078321603, 9.99952, 9.998738 
2.4121206e+3, 2.2886011e+2, -660080.5, -732071.4, 32496.955, -0.1836854, 0.18729544, -647581.3, 49607.875, 0.00023610769, 10.000083, 9.999249 
2.4117656e+3, 2.3885125e+2, -573827.3, -791650.75, 80441.516, -0.21569362, 0.046361808, -547341.1, 51930.285, 0.000047296035, 10.000629, 9.99793 
2.411411e+3, 2.4884397e+2, -319012.28, -534539.3, -6826.5723, -0.12414088, 0.095704325, -318796.28, 182547.39, 0.0000020598873, 10.001499, 9.998517 
2.4110578e+3, 2.5883672e+2, -302238.75, -686372.2, -3652.4517, -0.02297969, 0.17518164, -302204.0, 101213.42, 0.0, 10.001828, 9.9966545 
2.4107029e+3, 2.6882842e+2, -267067.97, -659237.75, -32841.145, -0.09243436, 0.33924368, -264336.78, 41172.598, 0.0, 10.001706, 9.996166 
2.4103475e+3, 2.7882037e+2, -137657.16, -349303.63, -11043.569, -0.28641853, 0.4302829, -137082.47, 70517.64, 0.0, 10.000982, 9.998014 
2.4099931e+3, 2.888129e+2, 216112.97, 60145.867, -54879.79, -0.26972264, 0.36567253, 233487.83, 343161.3, 0.0000001537889, 10.0019865, 9.999649 
2.4096416e+3, 2.9880795e+2, 210451.83, -344126.3, 3642.833, -0.03351809, 0.5893665, 210475.77, 222195.8, 0.000003139397, 10.003288, 9.995959 
2.4092855e+3, 3.0879474e+2, 21046.846, -183723.16, -231608.45, 0.088457584, 0.4668087, 171891.31, 171891.31, 0.000017282315, 10.00098, 9.998108 
2.4256502e+3, 1.292764e+2, -1767810.4, -1700683.6, 48252.89, 0.12297977, 0.37564084, -1675469.1, -2361.856, 0.4141129, 9.998848, 9.999836 
2.4252942e+3, 1.3926451e+2, -1798930.9, -1743772.1, -4213.452, -0.19731149, -0.235287, -1743452.1, -168229.33, 0.28877336, 9.998219, 9.999325 
2.4249436e+3, 1.4926161e+2, -1498752.4, -1301159.6, 22144.746, -0.09951831, -0.041022982, -1298708.1, 178538.47, 0.17287979, 9.998525, 10.00171 
2.424593e+3, 1.5925987e+2, -1500688.1, -1470831.3, -44057.566, 0.03574134, 0.2471561, -1439241.6, -59982.41, 0.08747846, 9.99879, 9.9996 
2.424239e+3, 1.6925055e+2, -1459745.3, -1495663.5, -16155.086, -0.07603794, 0.01658965, -1453548.3, -172196.88, 0.038149297, 9.998945, 9.998599 
2.4238846e+3, 1.7924017e+2, -1379689.5, -1409667.8, 17324.1, -0.18500318, -0.28276712, -1371770.1, -188314.89, 0.01570925, 9.998758, 9.9986725 
2.4235322e+3, 1.8923587e+2, -1161520.8, -1060535.6, 56234.61, -0.20093942, -0.10659015, -1035451.56, 50048.082, 0.0064830934, 9.998865, 10.000256 
2.4231802e+3, 1.9923258e+2, -1197773.0, -1145850.4, -26377.72, -0.13228552, 0.15723242, -1134801.3, -147266.58, 0.0021827125, 9.998361, 9.999319 
2.4228269e+3, 2.0922755e+2, -856053.7, -824390.25, -117220.04, 0.0054108477, 0.25402704, -721937.6, 167649.89, 0.00044835047, 9.999713, 10.000123 
2.4224728e+3, 2.1922171e+2, -725423.6, -829835.06, -138313.06, 0.13381265, 0.27665168, -629791.8, 161855.44, 0.000068581576, 10.000393, 9.999152 
2.422116e+3, 2.2921348e+2, -462941.7, -553220.1, -103371.08, -0.07054071, 0.065986976, -395284.06, 298435.53, 0.0000096515805, 10.001201, 9.999901 
2.4217598e+3, 2.3920424e+2, -593866.0, -864706.1, -62044.89, -0.24772203, -0.18159458, -580329.2, 15471.754, 0.00000040342232, 10.000861, 9.997313 
2.4214046e+3, 2.4919644e+2, -430414.53, -784290.56, -73625.02, -0.29464322, -0.065679386, -415707.8, 82174.66, 0.0, 10.001642, 9.996707 
2.4210508e+3, 2.5918886e+2, -528880.8, -913537.7, -71909.24, -0.29634362, 0.11707135, -515877.44, -115912.13, 0.0, 10.00084, 9.995591 
2.4206983e+3, 2.691816e+2, -338567.97, -618665.8, -49813.707, -0.08917807, 0.33934918, -329972.66, -27924.922, 0.0, 10.000961, 9.996759 
2.420346e+3, 2.7917427e+2, -449191.47, -579603.3, -3082.018, 0.10510348, 0.47607645, -449118.66, -244988.63, 0.0, 9.999255, 9.997274 
2.4199888e+3, 2.8916547e+2, -37494.215, 13234.952, 6360.0376, -0.2734904, 0.2743586, 14020.171, 120232.375, 0.0000000009564638, 10.000097, 10.000148 
2.4196343e+3, 2.9915804e+2, -439825.16, -563974.25, 17577.56, -0.46110725, 0.14289775, -437384.44, -429106.0, 0.0000004799063, 9.998577, 9.9967 
2.4192803e+3, 3.0914915e+2, 190970.08, -68651.27, -467733.03, -0.010341615, 0.2086286, 546571.56, 546571.56, 0.0000055147566, 10.002124, 9.998315 
2.435644e+3, 1.296286e+2, -1781953.0, -1766272.8, -8859.027, 0.142719, 0.2851531, -1762282.8, -92617.5, 0.39271495, 9.999082, 9.999255 
2.4352866e+3, 1.3962242e+2, -1853417.4, -1803350.8, 12472.203, -0.25879672, 0.31446525, -1800415.8, -228687.45, 0.26710206, 9.998075, 9.9989605 
2.4349365e+3, 1.496156e+2, -1538606.8, -1382996.9, 19323.818, -0.09862172, 0.17525236, -1380633.1, 93156.055, 0.15331793, 9.998641, 10.000954 
2.4345869e+3, 1.5960924e+2, -1502962.4, -1448354.6, -28909.348, 0.08498912, 0.062496293, -1435893.5, -60048.414, 0.07196278, 9.9987135, 9.999785 
2.4342331e+3, 1.6960439e+2, -1344624.3, -1288401.4, -25450.688, 0.033985566, 0.17636369, -1278592.0, -698.4054, 0.027363949, 9.999103, 9.99994 
2.4338786e+3, 1.79599e+2, -1329398.4, -1311314.3, 35546.387, -0.098803185, 0.26057547, -1283678.0, -103729.86, 0.009079448, 9.998807, 9.999302 
2.433526e+3, 1.8959269e+2, -1179911.9, -1104738.1, 51593.313, -0.11573468, 0.24613914, -1078492.1, 3516.6267, 0.002868925, 9.9989, 9.999929 
2.4331737e+3, 1.9958599e+2, -1172046.0, -1217962.0, 8150.3364, -0.11907299, 0.22578204, -1170642.1, -186568.92, 0.00059867656, 9.998873, 9.998583 
2.4328211e+3, 2.0957804e+2, -883793.1, -1030041.9, -77668.234, -0.011731273, 0.17471509, -850242.6, 35912.79, 0.000045539302, 10.000306, 9.998441 
2.4324678e+3, 2.1957022e+2, -562530.0, -782662.0, -137120.1, 0.050534092, 0.14359103, -496765.28, 291470.47, 0.0000022398012, 10.001603, 9.998883 
2.432111e+3, 2.2956486e+2, -277389.56, -379284.84, -150111.3, -0.14928056, 0.1704389, -169815.72, 520467.38, 0.000000052409952, 10.002082, 10.000683 
2.4317549e+3, 2.3955905e+2, -337006.84, -638427.5, -103049.18, -0.36076206, 0.1879162, -305144.63, 287189.3, 0.0, 10.0021305, 9.998259 
2.4314012e+3, 2.4954964e+2, -394401.75, -774759.7, -119410.086, -0.24128997, 0.12814476, -360021.56, 134407.4, 0.0, 10.0018635, 9.996701 
2.4310479e+3, 2.5954008e+2, -351525.2, -660573.8, -97083.41, -0.13962041, 0.09420631, -323558.56, 72968.88, 0.0, 10.001238, 9.997146 
2.4306922e+3, 2.695338e+2, -221100.83, -375917.6, -71847.42, -0.18616405, 0.2509872, -192896.19, 105697.43, 0.0, 10.000843, 9.998543 
2.4303374e+3, 2.79528e+2, -155615.23, -266424.94, 19993.355, -0.1910285, 0.40232462, -152118.2, 48536.973, 0.0, 10.000391, 9.9988985 
2.4299829e+3, 2.8951994e+2, -30027.273, 25588.586, 57916.6, -0.2293628, 0.23426212, 62027.164, 164755.53, 0.0, 9.999956, 10.000366 
2.4296309e+3, 2.9951206e+2, -125246.24, -225408.97, 169957.06, -0.18213366, 0.02453798, 1854.6421, 6653.804, 0.000000008678429, 9.999769, 9.998477 
2.4292819e+3, 3.09505e+2, 985516.7, 308255.28, -323936.6, 0.205109, 0.23176959, 1115507.0, 1115507.0, 0.0000009202062, 10.0072565, 9.998601 
2.445992e+3, 1.1999663e+2, -1781563.1, -1601337.4, -206910.92, -0.2828901, 0.6781014, -1465768.0, 298285.56, 0.4945417, 9.998561, 10.002767 
2.4456371e+3, 1.2998456e+2, -1665603.4, -1921056.4, 202753.67, 0.052974824, 0.18568297, -1553698.8, 112474.29, 0.3775347, 10.001234, 9.997329 
2.4452822e+3, 1.3997935e+2, -1498923.3, -1700276.1, 155225.84, -0.041119244, 0.51000804, -1414584.0, 153647.44, 0.25111946, 10.001082, 9.998304 
2.4449304e+3, 1.4997087e+2, -1456485.3, -1417498.0, 162677.94, 0.0014258921, 0.2795469, -1273149.9, 197159.77, 0.13882844, 9.999645, 10.000233 
2.4445796e+3, 1.5996218e+2, -1622451.1, -1547331.3, 131004.336, 0.1317387, 0.025553294, -1448608.8, -76219.555, 0.060861234, 9.998101, 9.999384 
2.4442267e+3, 1.6995814e+2, -1195796.8, -1221850.8, 65307.81, 0.059352852, 0.244789, -1142229.4, 132201.98, 0.02025213, 10.000225, 9.999839 
2.4438736e+3, 1.7995435e+2, -898933.0, -1120138.0, -22758.27, -0.015976533, 0.50312555, -896615.8, 279855.78, 0.0052852775, 10.001863, 9.999156 
2.4435206e+3, 1.8994713e+2, -897543.7, -993905.0, -26328.328, -0.018941013, 0.40495658, -890819.4, 187719.84, 0.0012089658, 10.000977, 9.9997 
2.443168e+3, 1.99939e+2, -1126782.8, -1242042.9, -20170.215, 0.02709293, 0.26659974, -1123354.9, -142739.11, 0.00012403581, 9.999448, 9.998128 
2.442815e+3, 2.0992981e+2, -1058959.0, -1173154.0, 26124.592, 0.008361106, 0.12825114, -1053266.3, -170557.23, 0.000001917801, 9.999425, 9.997832 
2.4424618e+3, 2.1992092e+2, -991403.4, -1084158.3, 30885.275, 0.0073442166, 0.059129912, -982060.4, -197260.36, 0.000000018702426, 9.999111, 9.9979925 
2.442106e+3, 2.2991699e+2, -529902.3, -537246.9, -67378.59, -0.19518088, 0.2738862, -466096.0, 220742.17, 0.0, 10.000508, 10.000325 
2.4417503e+3, 2.3991276e+2, -561989.5, -779071.9, -131379.05, -0.3528721, 0.46242797, -500114.6, 88763.516, 0.0, 10.000777, 9.997937 
2.4413975e+3, 2.4990262e+2, -401598.75, -698010.4, -114319.08, -0.15042223, 0.27672914, -362631.34, 128345.78, 0.0, 10.001595, 9.997304 
2.4410447e+3, 2.598921e+2, -358914.22, -626180.25, -68298.77, 0.03348939, 0.08599801, -342472.22, 50607.715, 0.0, 10.001125, 9.997424 
2.4406861e+3, 2.6988658e+2, -17859.645, -140374.78, -84545.6, -0.3051144, 0.21350977, 25288.002, 320421.6, 0.0, 10.001726, 9.999703 
2.4403286e+3, 2.7988157e+2, -91195.25, -204043.47, -73121.586, -0.5291252, 0.3226018, -55258.94, 141923.08, 0.0, 10.000784, 9.999149 
2.439978e+3, 2.8987423e+2, 90801.23, 83567.51, -88828.086, -0.12534285, 0.17077586, 176086.06, 275334.6, 0.0, 10.000873, 10.000289 
2.4396284e+3, 2.9986683e+2, -449675.94, -432718.56, 120015.99, 0.15326127, 0.0052235005, -320882.16, -319566.25, 0.0, 9.997901, 9.997953 
2.4392812e+3, 3.0985746e+2, 95307.055, 12711.118, 143643.19, 0.032036953, -0.17520502, 203471.08, 203471.08, 0.00000009984614, 10.000991, 9.9994 
2.4559885e+3, 1.2034984e+2, -1693655.8, -1471943.0, -57623.348, 0.051423375, -0.056167018, -1457861.1, 302711.56, 0.48539782, 9.998386, 10.004212 
2.4556309e+3, 1.3034175e+2, -1750553.8, -2203777.8, 195530.2, -0.120525315, -0.015170427, -1677858.0, -15199.975, 0.36593348, 10.0013485, 9.995196 
2.45528e+3, 1.4033619e+2, -1584793.8, -1908766.5, 148068.06, 0.1771312, 0.46659526, -1527317.8, 37406.957, 0.23856215, 10.001065, 9.996784 
2.4549247e+3, 1.5032807e+2, -1490722.3, -1496972.4, 107283.2, 0.042422812, 0.35218215, -1386518.6, 80283.125, 0.1275105, 9.9996805, 9.999565 
2.4545704e+3, 1.6031924e+2, -1726292.6, -1755396.0, 167793.88, -0.07397711, 0.16927913, -1572420.6, -203535.6, 0.052560914, 9.998112, 9.99793 
2.4542198e+3, 1.7031103e+2, -1285029.0, -1501420.8, 176087.81, -0.12047074, 0.16613148, -1186553.0, 84418.32, 0.01541553, 10.000625, 9.997725 
2.4538688e+3, 1.8030329e+2, -874071.4, -1205108.6, -1153.02, -0.17473802, 0.21591568, -874067.4, 298985.4, 0.0031067657, 10.00245, 9.998285 
2.4535164e+3, 1.9029725e+2, -814172.06, -932442.06, -81092.71, -0.0020661557, 0.24299769, -772942.8, 302167.0, 0.00048131414, 10.001466, 9.999875 
2.4531633e+3, 2.0029093e+2, -969854.5, -1035595.56, -41289.285, 0.12457455, 0.24817294, -949949.3, 27219.154, 0.000015932997, 9.999945, 9.999286 
2.4528083e+3, 2.1028371e+2, -916136.4, -891603.56, 32217.594, -0.009300582, 0.1424619, -869396.25, 9841.532, 0.0000000054715246, 9.999479, 9.999737 
2.4524537e+3, 2.202763e+2, -976220.9, -1089828.5, 102003.72, -0.16781743, 0.095384866, -916270.94, -134960.2, 0.0, 9.999211, 9.99792 
2.4521004e+3, 2.3026972e+2, -766075.2, -980127.1, 2720.668, -0.17561668, 0.27743316, -766040.6, -82658.82, 0.0, 10.000222, 9.997476 
2.4517474e+3, 2.4026291e+2, -498782.66, -739672.7, -108832.68, -0.18719253, 0.43929273, -456896.03, 128557.5, 0.0, 10.00108, 9.998082 
2.4513936e+3, 2.5025436e+2, -208186.34, -373522.63, -76143.22, -0.12372904, 0.26445705, -178463.16, 309069.28, 0.0, 10.00186, 9.999449 
2.4510396e+3, 2.6024583e+2, -79709.17, -384488.16, -21379.605, -0.10944832, 0.104251325, -78216.75, 311394.6, 0.0, 10.002455, 9.998476 
2.4506828e+3, 2.702392e+2, 67419.26, -251265.7, -91064.59, -0.2907349, 0.19471946, 91605.484, 383282.3, 0.0, 10.002831, 9.998477 
2.4503268e+3, 2.802326e+2, 173931.28, -226091.64, -156189.9, -0.40126157, 0.29170337, 227691.13, 421433.9, 0.0, 10.003112, 9.997907 
2.4499746e+3, 2.9022378e+2, 219332.92, -134266.3, -279507.94, -0.106531, 0.20560916, 373264.0, 469096.84, 0.0, 10.002822, 9.997914 
2.4496233e+3, 3.0021557e+2, 154212.36, -107938.47, -197455.05, 0.11011251, 0.14283991, 260137.5, 260137.5, 0.0, 10.001667, 9.99842 
2.449272e+3, 3.102112e+2, -94783.664, 238412.78, -64352.152, -0.21304949, 0.34443372, 250409.55, 250409.55, 0.000000000000427524, 9.997986, 10.002502 
2.4659786e+3, 1.2070045e+2, -1839595.0, -1547109.1, -47286.457, -0.13489257, -0.3955227, -1539654.3, 217475.52, 0.47722325, 9.997129, 10.003808 
2.465626e+3, 1.3069482e+2, -1893664.8, -2214349.8, -110464.74, -0.0809618, -0.14443183, -1859296.8, -200107.06, 0.3557266, 10.000034, 9.995801 
2.4652764e+3, 1.4068866e+2, -1713755.0, -1953878.4, -40097.61, 0.3695311, 0.22881955, -1707236.1, -145976.02, 0.22774403, 9.999954, 9.997024 
2.4649197e+3, 1.5068129e+2, -1254302.9, -1417669.9, -35692.258, 0.100474134, 0.19469687, -1246845.3, 216486.66, 0.11809006, 10.001656, 9.999164 
2.464564e+3, 1.6067336e+2, -1119731.1, -1526340.5, 67032.06, -0.122519165, 0.14422287, -1108965.5, 256444.08, 0.04605504, 10.0026245, 9.997337 
2.4642134e+3, 1.7066422e+2, -1271794.1, -1589359.6, 187293.97, -0.22921154, 0.11025498, -1185034.8, 82473.05, 0.012013259, 10.001114, 9.99688 
2.4638633e+3, 1.806553e+2, -1312752.4, -1467039.3, 57979.41, -0.24691914, 0.11219464, -1293393.4, -123790.52, 0.0018483637, 9.999622, 9.997862 
2.463511e+3, 1.9064903e+2, -1011094.4, -1061050.5, -58237.805, -0.003609202, 0.14244217, -972704.1, 98958.98, 0.00018026956, 10.000198, 9.999632 
2.4631582e+3, 2.006432e+2, -921553.44, -1007288.75, -42729.176, 0.22486375, 0.2121104, -903894.94, 69822.81, 0.0000007906511, 10.000296, 9.999326 
2.462802e+3, 2.1063739e+2, -628222.7, -695570.2, -71002.49, -0.02223439, 0.19677226, -583313.5, 292458.16, 0.0, 10.001241, 10.000261 
2.4624468e+3, 2.2063084e+2, -771633.2, -1074546.4, -78995.76, -0.22265318, 0.20775218, -752269.9, 25564.418, 0.0, 10.001091, 9.9971075 
2.462095e+3, 2.306221e+2, -806083.5, -1145269.0, -23838.982, -0.13669987, 0.273522, -804416.25, -124487.76, 0.0, 10.000774, 9.995982 
2.4617437e+3, 2.4061348e+2, -745263.3, -911797.25, -23249.107, -0.015344416, 0.36967558, -742078.5, -160058.28, 0.0, 9.999729, 9.997524 
2.4613892e+3, 2.5060627e+2, -260412.33, -296542.94, -72452.06, -0.113135464, 0.25631806, -203807.31, 280277.38, 0.0, 10.001064, 10.000353 
2.4610347e+3, 2.6059896e+2, -334246.63, -572620.44, -130741.46, -0.20398471, 0.14955065, -276518.72, 109631.09, 0.0, 10.001065, 9.997845 
2.4606802e+3, 2.7059102e+2, -224917.83, -511816.22, -153590.02, -0.18941258, 0.17754027, -158206.22, 130023.65, 0.0, 10.001433, 9.997311 
2.4603257e+3, 2.8058323e+2, -361614.66, -716841.5, -143934.55, -0.14857554, 0.28891447, -310615.56, -120304.586, 0.0, 10.000561, 9.9957485 
2.45997e+3, 2.9057345e+2, -169194.23, -562379.1, -142802.06, -0.22403976, 0.29846224, -122803.1, -30385.295, 0.0, 10.001278, 9.995683 
2.4596177e+3, 3.005631e+2, -412235.34, -584329.5, -49963.508, -0.027177915, 0.2803239, -398781.4, -398781.4, 0.0, 9.998866, 9.996456 
2.4592628e+3, 3.1056306e+2, -196738.8, 401617.34, -24822.133, -0.43675765, 0.84466726, 402645.3, 402645.3, 0.0, 9.996809, 10.004013 
2.475968e+3, 1.2105134e+2, -1874949.8, -1648056.6, 236709.36, -0.44328833, -0.19717406, -1499012.4, 254680.7, 0.4678463, 9.998101, 10.002346 
2.4756207e+3, 1.3104486e+2, -1729339.6, -1869527.5, -114822.414, -0.026824215, -0.18347876, -1664907.3, -9151.964, 0.34520847, 10.000112, 9.9980755 
2.475271e+3, 1.4103632e+2, -1710774.1, -1851495.6, -4903.0903, 0.3935736, -0.23800726, -1710603.5, -152761.81, 0.21743059, 9.999593, 9.997884 
2.4749152e+3, 1.5102988e+2, -1249870.9, -1411509.4, 33120.477, 0.07436295, -0.20145582, -1243347.6, 216559.25, 0.109704144, 10.001726, 9.999131 
2.4745603e+3, 1.6102369e+2, -1063780.8, -1440714.6, 67441.21, -0.22749488, -0.08758211, -1052077.5, 309893.75, 0.040704507, 10.002799, 9.997827 
2.4742076e+3, 1.7101757e+2, -1187291.5, -1446657.0, 112703.2, -0.36487916, 0.10049025, -1145161.5, 118880.016, 0.00953522, 10.001249, 9.997802 
2.4738552e+3, 1.8101095e+2, -1324223.5, -1442460.0, 50281.758, -0.44239897, 0.26498082, -1305732.4, -139616.69, 0.0011160366, 9.999414, 9.998129 
2.4735036e+3, 1.9100301e+2, -1053493.3, -1143066.3, -16106.898, -0.1444927, 0.17006294, -1050685.0, 17508.404, 0.00006263998, 10.000171, 9.999087 
2.4731518e+3, 2.009956e+2, -932316.1, -1149493.8, 4606.634, 0.07195302, 0.16502436, -932218.44, 38047.54, 0.0000000031066179, 10.000806, 9.998103 
2.4727976e+3, 2.1098989e+2, -637724.0, -945312.3, -47034.164, -0.07751925, 0.3691305, -630692.6, 241632.36, 0.0, 10.00219, 9.998133 
2.4724431e+3, 2.2098325e+2, -459485.84, -827726.7, -131473.67, -0.26612893, 0.50941175, -417363.8, 357028.06, 0.0, 10.00276, 9.998014 
2.4720894e+3, 2.3097312e+2, -530312.5, -730829.75, -75623.695, -0.2555446, 0.22404522, -504989.53, 171497.31, 0.0, 10.001404, 9.998553 
2.471736e+3, 2.4096356e+2, -644806.6, -862705.56, 18867.584, -0.22048168, 0.05944401, -643185.0, -64606.586, 0.0, 10.00033, 9.997586 
2.4713838e+3, 2.5095716e+2, -420499.5, -667930.6, -50263.695, -0.1574879, 0.23822807, -410678.63, 69966.8, 0.0, 10.001141, 9.99781 
2.4710312e+3, 2.6095054e+2, -231951.44, -539899.2, -191775.19, -0.112621695, 0.39315778, -139986.95, 242727.81, 0.0, 10.001726, 9.9977665 
2.470677e+3, 2.709423e+2, -184458.27, -397708.47, -214929.31, -0.014570379, 0.32650357, -51159.37, 233640.13, 0.0, 10.001233, 9.998218 
2.4703215e+3, 2.8093526e+2, -100431.56, -251776.84, -138776.73, -0.060639374, 0.37811455, -18036.707, 168835.08, 0.0, 10.000801, 9.998829 
2.4699624e+3, 2.9092982e+2, 64112.223, -76591.09, 5062.541, -0.4881668, 0.49846226, 64294.14, 153221.0, 0.0, 10.001091, 9.999204 
2.4696109e+3, 3.0092138e+2, 25965.797, -337991.2, 249521.0, -0.23566277, 0.46200162, 152818.81, 152818.81, 0.0, 10.001492, 9.996947 
2.4692605e+3, 3.109124e+2, 484501.94, 413896.47, 175007.44, -0.13723578, 0.4253422, 627731.8, 627731.8, 0.0, 10.002444, 10.00154 
2.485965e+3, 1.2140535e+2, -1525346.8, -1618985.3, 200560.19, -0.28085995, 0.19564669, -1366213.5, 384024.84, 0.45571515, 10.002235, 10.00037 
2.4856159e+3, 1.3139638e+2, -1673182.5, -1796986.8, -199174.84, 0.074071676, -0.032156795, -1526512.1, 125808.66, 0.33319858, 10.00046, 9.998605 
2.4852632e+3, 1.413862e+2, -1686337.0, -1747047.6, -116222.33, 0.28299555, -0.32372355, -1596571.3, -42153.438, 0.20679392, 9.999325, 9.998762 
2.4849096e+3, 1.5138127e+2, -1404836.3, -1464582.4, -25483.408, 0.0039579496, -0.19313453, -1395443.5, 61024.266, 0.10179194, 10.000332, 9.999477 
2.4845564e+3, 1.613763e+2, -1300512.5, -1494606.1, -42394.93, -0.1883043, 0.00089611346, -1291656.5, 66863.65, 0.036105353, 10.000824, 9.998413 
2.4842024e+3, 1.7137074e+2, -1241869.4, -1405297.1, -58537.188, -0.37737703, 0.17682916, -1223065.9, 37517.035, 0.0076701324, 10.000606, 9.998398 
2.483849e+3, 1.813646e+2, -1186369.0, -1384002.1, -66401.99, -0.44195607, 0.35290682, -1166131.3, -3481.0269, 0.000687035, 10.000446, 9.998003 
2.4834983e+3, 1.913563e+2, -801977.8, -1064611.8, -89566.695, -0.14882278, 0.22978418, -774340.94, 290390.38, 0.000019881356, 10.0021715, 9.998599 
2.4831475e+3, 2.0134802e+2, -735816.0, -1179691.8, -61856.1, 0.103695296, 0.19713385, -727357.25, 239456.03, 0.0, 10.002746, 9.996925 
2.4827932e+3, 2.1134146e+2, -855033.56, -1191449.9, -35445.758, -0.07827372, 0.42458358, -851339.44, 17544.664, 0.0, 10.001379, 9.996758 
2.482439e+3, 2.2133438e+2, -860287.0, -997556.0, -82370.78, -0.2396205, 0.60185266, -821703.8, -50746.85, 0.0, 9.999933, 9.998197 
2.482084e+3, 2.3132418e+2, -410110.53, -504710.5, -136874.7, -0.29211032, 0.17135344, -312593.47, 360452.13, 0.0, 10.001479, 10.000081 
2.48173e+3, 2.4131453e+2, -516392.8, -875153.25, -72952.836, -0.28484368, -0.10094517, -502125.47, 73007.1, 0.0, 10.001622, 9.996871 
2.4813786e+3, 2.5130835e+2, -549815.94, -908728.8, -6658.4263, -0.17896913, 0.22231136, -549692.44, -72488.1, 0.0, 10.001108, 9.996127 
2.4810274e+3, 2.6130196e+2, -569153.6, -768388.0, -61357.027, -0.018641938, 0.5426316, -551773.94, -172495.39, 0.0, 9.999804, 9.997119 
2.480673e+3, 2.7129406e+2, -230405.75, -334820.16, -122733.8, 0.08363745, 0.46107778, -149236.89, 132124.73, 0.0, 10.000629, 9.99892 
2.4803165e+3, 2.8128755e+2, -78895.3, -38954.332, -89230.76, -0.048260055, 0.46334884, 32513.408, 215941.22, 0.0, 10.000158, 10.0006 
2.4799548e+3, 2.9128543e+2, 211253.9, 419085.13, -62503.652, -0.7257175, 0.57090795, 436434.38, 521874.16, 0.0, 10.000452, 10.002835 
2.4796045e+3, 3.0128083e+2, -361507.28, -555037.5, 128607.49, -0.3952437, 0.6484124, -297327.16, -297327.16, 0.0, 9.999136, 9.996561 
2.4792615e+3, 3.112649e+2, -47436.56, -104834.63, 97194.984, 0.24690184, 0.013786064, 25207.879, 25207.879, 0.0, 10.000061, 9.9991 
2.4959658e+3, 1.2176195e+2, -1683812.6, -1859829.4, 124285.3, 0.06872266, 0.90409917, -1619530.8, 127236.484, 0.43991756, 10.001427, 9.998347 
2.495611e+3, 1.3174918e+2, -1688375.4, -1839225.5, -231837.9, 0.12581739, 0.33627427, -1520001.9, 128883.78, 0.31901658, 10.0005665, 9.998229 
2.4952526e+3, 1.4173815e+2, -1709703.1, -1732693.4, -91863.56, -0.162739, -0.02426647, -1628618.3, -77629.984, 0.19536594, 9.999123, 9.998932 
2.4949023e+3, 1.5173525e+2, -1376564.6, -1365423.0, 24263.746, -0.1768297, 0.24321397, -1346098.8, 106917.89, 0.094030365, 10.000186, 10.0002575 
2.494552e+3, 1.6173117e+2, -1308302.6, -1458812.3, -34003.21, -0.18260214, 0.46813703, -1300977.1, 54080.266, 0.032013185, 10.0006275, 9.998734 
2.4941975e+3, 1.7172295e+2, -1218622.8, -1365155.8, -57058.645, -0.32526097, 0.3458828, -1199025.5, 58114.918, 0.0062260167, 10.000655, 9.998626 
2.4938445e+3, 1.8171494e+2, -1144849.9, -1354486.5, -15294.827, -0.39681515, 0.31911185, -1143739.9, 15480.623, 0.00043419475, 10.000693, 9.998073 
2.4934965e+3, 1.9170797e+2, -707806.56, -1038623.7, -17366.295, -0.020357605, 0.34120694, -706897.44, 354389.47, 0.0000058323185, 10.002872, 9.998448 
2.4931465e+3, 2.0170008e+2, -554199.3, -1042380.2, -109851.414, 0.2018045, 0.3556922, -530619.3, 432743.53, 0.000000000090419006, 10.003739, 9.99739 
2.4927889e+3, 2.1169e+2, -776092.25, -1084109.1, -116360.75, -0.08716302, 0.17129555, -737076.25, 128387.14, 0.0, 10.001552, 9.997429 
2.4924324e+3, 2.2168098e+2, -852772.6, -1006788.0, -49498.332, -0.32792118, 0.11819602, -838236.5, -70682.95, 0.0, 9.999995, 9.998094 
2.4920815e+3, 2.3167528e+2, -392658.75, -627618.6, -67131.26, -0.15674138, 0.23979293, -374831.1, 294778.13, 0.0, 10.002121, 9.99895 
2.4917296e+3, 2.416689e+2, -123288.24, -505078.0, -134152.6, -0.07304545, 0.33105034, -80864.086, 490806.75, 0.0, 10.00348, 9.998517 
2.4913736e+3, 2.5166094e+2, -304310.0, -518192.38, -55363.36, -0.2322771, 0.24583435, -290828.94, 182921.05, 0.0, 10.001533, 9.998639 
2.4910183e+3, 2.616533e+2, -438196.22, -564683.9, 9317.846, -0.3290203, 0.25008917, -437513.5, -61685.43, 0.0, 10.000005, 9.998427 
2.490665e+3, 2.7164727e+2, -157010.81, -311084.22, 10775.185, -0.19447309, 0.36192757, -156260.89, 121632.38, 0.0, 10.001085, 9.998913 
2.4903104e+3, 2.8164104e+2, 140133.78, -16927.225, -28174.818, -0.21579134, 0.4337329, 145035.05, 324993.0, 0.0, 10.00186, 9.999969 
2.4899514e+3, 2.9163435e+2, 203767.67, 214087.08, -153899.92, -0.5756453, 0.2677288, 362913.75, 444929.47, 0.0, 10.00112, 10.001174 
2.4896014e+3, 3.0162847e+2, 388.07266, -196494.22, -16993.973, -0.19189239, 0.26700264, 1844.1456, 1844.1456, 0.0, 10.000693, 9.9983015 
2.4892549e+3, 3.1161985e+2, 272642.88, 236015.67, 24161.23, 0.099563785, 0.22056787, 284646.8, 284646.8, 0.0, 10.001148, 10.00104 
2.5059628e+3, 1.2210916e+2, -1800245.1, -1863038.9, 144914.06, 0.28905353, 0.6190507, -1683365.8, 60004.65, 0.42027465, 9.999785, 9.999186 
2.5056052e+3, 1.3210101e+2, -1482051.0, -1657572.0, -161798.7, 0.05322364, 0.46952033, -1385744.4, 259699.67, 0.30251706, 10.00196, 9.998924 
2.505247e+3, 1.4209132e+2, -1229453.0, -1482765.1, 12893.382, -0.21237424, 0.2277416, -1228798.4, 318735.88, 0.18302314, 10.002769, 9.999029 
2.504898e+3, 1.5208739e+2, -1062986.8, -1261628.3, 48483.92, -0.15239096, 0.4163641, -1051784.6, 397788.56, 0.08629053, 10.002649, 9.999872 
2.5045484e+3, 1.6208252e+2, -1089413.4, -1394456.5, -88099.516, -0.06562365, 0.5943999, -1065797.6, 285823.94, 0.028287582, 10.002316, 9.998374 
2.5041938e+3, 1.7207311e+2, -976114.2, -1311098.8, -171178.1, -0.24078813, 0.380119, -904116.2, 349597.9, 0.0050760456, 10.002514, 9.998137 
2.5038406e+3, 1.8206412e+2, -985212.25, -1270857.1, -119453.24, -0.29297715, 0.27206084, -941843.06, 213958.2, 0.00028139996, 10.00179, 9.998136 
2.5034925e+3, 1.9205791e+2, -1063564.6, -1180990.8, -83477.69, -0.0003980558, 0.34155628, -1020220.1, 37638.246, 0.0000014559199, 10.000376, 9.998686 
2.5031424e+3, 2.0205052e+2, -1134243.9, -1261535.8, -169630.61, 0.20563725, 0.3746072, -1016712.2, -56784.387, 0.0, 9.999545, 9.997918 
2.5027838e+3, 2.1203986e+2, -787096.3, -973948.2, -176880.23, -0.07652095, 0.03119935, -680484.7, 181546.72, 0.0, 10.001078, 9.998394 
2.5024274e+3, 2.2203074e+2, -698340.7, -984677.1, -19926.258, -0.25325137, -0.07547176, -696960.7, 67161.336, 0.0, 10.001343, 9.997603 
2.502078e+3, 2.3202717e+2, -654799.4, -841396.2, 39366.22, -0.041419003, 0.3239881, -646834.3, 19329.8, 0.0, 10.000749, 9.998124 
2.501727e+3, 2.4202262e+2, -586839.4, -628136.3, -71749.54, 0.07871392, 0.62496346, -532826.25, 35386.207, 0.0, 9.999916, 9.999378 
2.5013685e+3, 2.520137e+2, -294039.97, -267092.94, -104203.71, -0.25909284, 0.23978505, -175495.3, 294797.28, 0.0, 10.000634, 10.000754 
2.5010106e+3, 2.6200563e+2, -363253.7, -512201.53, -37145.68, -0.5163734, 0.05085176, -354504.0, 17864.018, 0.0, 10.000514, 9.998538 
2.5006577e+3, 2.7200073e+2, -160820.14, -347219.16, -15749.916, -0.4306977, 0.271385, -159498.72, 114924.664, 0.0, 10.001234, 9.99859 
2.500305e+3, 2.8199434e+2, -172967.5, -384063.94, -105848.766, -0.3113037, 0.41305572, -129035.33, 47455.043, 0.0, 10.000759, 9.9979515 
2.499949e+3, 2.919832e+2, -21995.168, -165387.34, -192265.88, -0.29511034, -0.008033415, 111507.414, 190101.83, 0.0, 10.000825, 9.998665 
2.4995966e+3, 3.0197495e+2, -114382.92, -149800.11, -13722.365, -0.11646943, -0.10681446, -109688.445, -109688.445, 0.0, 9.999654, 9.999072 
2.4992459e+3, 3.1197482e+2, -79561.25, 275048.0, 37856.12, -0.35756883, 0.38197055, 279044.28, 279044.28, 0.0, 9.998173, 10.002611 
2.5159565e+3, 1.2245283e+2, -1734959.0, -1619110.1, 159645.7, 0.16279815, 0.046303604, -1507205.3, 232789.95, 0.39734322, 9.999332, 10.001602 
2.5155988e+3, 1.3245131e+2, -1399848.0, -1479942.0, -102246.54, -0.17065856, 0.38445738, -1330085.6, 311919.88, 0.28406283, 10.002002, 10.0002985 
2.515246e+3, 1.4244439e+2, -1306842.5, -1599286.1, 36726.51, -0.07154635, 0.36908305, -1302300.8, 241769.89, 0.16993596, 10.002519, 9.99822 
2.514896e+3, 1.5243685e+2, -1141482.4, -1430530.6, 60058.934, -0.04003923, 0.31493098, -1129500.0, 316645.6, 0.078587286, 10.002694, 9.998553 
2.5145453e+3, 1.6242918e+2, -1168394.5, -1575379.5, -89340.86, -0.052341703, 0.35260108, -1149646.1, 198576.25, 0.024857625, 10.002388, 9.997083 
2.5141913e+3, 1.724202e+2, -1010465.4, -1439252.6, -151971.22, -0.20645727, 0.29244047, -962066.56, 288246.3, 0.0041356636, 10.002777, 9.997123 
2.5138366e+3, 1.8241142e+2, -911291.94, -1170823.8, -199314.36, -0.35088193, 0.25407267, -803223.0, 349175.88, 0.00018434241, 10.00203, 9.998691 
2.5134838e+3, 1.9240417e+2, -1049694.4, -1072885.0, -158355.78, -0.30402607, 0.1334668, -902509.94, 151954.78, 0.00000026313862, 10.00002, 9.999605 
2.5131312e+3, 2.0239775e+2, -1092958.4, -1067728.1, -135257.92, -0.23745576, 0.15718974, -944498.3, 12025.941, 0.0, 9.999075, 9.999468 
2.512779e+3, 2.1239322e+2, -617408.0, -736617.75, -77114.0, -0.10691647, 0.2899985, -579548.5, 279022.8, 0.0, 10.001541, 9.999826 
2.512426e+3, 2.223875e+2, -396615.3, -710066.06, -38229.957, -0.07733523, 0.4012403, -392019.97, 368609.63, 0.0, 10.002775, 9.998823 
2.5120714e+3, 2.3237978e+2, -614027.5, -740749.2, -5154.1094, -0.16634476, 0.31489456, -613818.2, 48888.74, 0.0, 10.000593, 9.99893 
2.5117177e+3, 2.4237277e+2, -634174.25, -613450.25, -11713.981, -0.21583039, 0.31766292, -608172.94, -43396.934, 0.0, 9.999362, 9.999748 
2.5113642e+3, 2.5236642e+2, -245980.77, -292238.97, -40987.58, -0.16289374, 0.22608843, -222046.75, 244788.14, 0.0, 10.001071, 10.000418 
2.5110102e+3, 2.6236007e+2, -106436.43, -414935.06, -70658.2, -0.15413715, 0.24731392, -91023.04, 277874.16, 0.0, 10.002278, 9.99839 
2.510656e+3, 2.723542e+2, -92585.22, -393031.75, -79414.26, -0.14975539, 0.4357505, -72885.99, 198080.25, 0.0, 10.001918, 9.998016 
2.510302e+3, 2.823472e+2, -38686.9, -345406.88, -164312.45, -0.15780611, 0.56465125, 32714.914, 205756.9, 0.0, 10.00167, 9.997807 
2.509946e+3, 2.923372e+2, 118380.055, -192597.6, -206603.9, -0.18597808, 0.32966143, 221468.0, 296603.72, 0.0, 10.002018, 9.997977 
2.5095922e+3, 3.023291e+2, 140419.28, -44648.56, -94946.99, -0.10511294, 0.29391056, 180465.36, 180465.36, 0.0, 10.001319, 9.999028 
2.5092396e+3, 3.123254e+2, -103571.21, 141169.73, -142709.94, -0.2092561, 0.5013492, 206790.38, 206790.38, 0.0, 9.998274, 10.001728 
2.5259486e+3, 1.22804224e+2, -1544713.1, -1544004.5, 123434.21, -0.08168633, 0.124878645, -1420924.1, 315628.47, 0.3720952, 10.001027, 10.001399 
2.5255948e+3, 1.3280082e+2, -1232340.1, -1411436.6, -126876.41, -0.21769816, 0.28423503, -1166593.5, 471985.9, 0.26429757, 10.003447, 10.000228 
2.525245e+3, 1.4279447e+2, -1085174.5, -1486406.9, -56246.227, 0.08292182, 0.32216415, -1077438.9, 463199.34, 0.15642525, 10.004308, 9.998174 
2.5248933e+3, 1.5278615e+2, -1090795.5, -1472124.8, -26600.992, -0.04525295, 0.22567976, -1088948.9, 353772.8, 0.071005836, 10.0033865, 9.997919 
2.5245413e+3, 1.6277793e+2, -1160777.0, -1533168.8, -67284.2, -0.08339011, 0.24484295, -1148992.9, 195811.23, 0.021693112, 10.00231, 9.997411 
2.5241876e+3, 1.7277014e+2, -1167028.3, -1443661.0, -23135.023, -0.16372527, 0.26595232, -1165106.9, 81775.57, 0.00335279, 10.001513, 9.997677 
2.5238326e+3, 1.8276216e+2, -1105946.9, -1251760.5, -30906.709, -0.24687931, 0.28622586, -1099666.4, 49294.14, 0.00011963712, 10.000604, 9.998826 
2.5234768e+3, 1.9275373e+2, -1056640.4, -1073530.4, -82646.625, -0.37332785, 0.044663552, -982008.44, 69029.45, 0.00000002568285, 9.999901, 9.99966 
2.5231227e+3, 2.0274737e+2, -1083172.0, -1061565.4, -22393.98, -0.35849047, 0.06739588, -1047505.0, -94406.96, 0.0, 9.999111, 9.999496 
2.522774e+3, 2.127453e+2, -916462.0, -862518.4, -60266.84, -0.08154433, 0.41636372, -823463.1, 31660.66, 0.0, 9.99937, 10.0000105 
2.5224227e+3, 2.2274111e+2, -884100.1, -883329.94, -156435.58, 0.06193184, 0.6405007, -727279.0, 29888.582, 0.0, 9.99925, 9.999299 
2.522065e+3, 2.3273149e+2, -720141.06, -702174.9, -163501.9, -0.23019363, 0.2563799, -547409.44, 111849.49, 0.0, 9.99953, 9.999692 
2.5217095e+3, 2.4272324e+2, -703269.7, -692111.6, -67022.72, -0.35932443, 0.09664551, -630436.1, -69098.59, 0.0, 9.999159, 9.999308 
2.5213596e+3, 2.5271872e+2, -479172.7, -457259.88, -54173.07, -0.07469186, 0.21106449, -412946.38, 50435.168, 0.0, 9.9997835, 9.999885 
2.5210088e+3, 2.627137e+2, -536253.56, -728612.3, -104166.41, 0.14371558, 0.44184998, -490654.56, -125219.99, 0.0, 9.999906, 9.997348 
2.5206542e+3, 2.7270707e+2, -391090.34, -590771.8, -118388.21, 0.12011637, 0.5853958, -336063.56, -68548.87, 0.0, 10.000235, 9.997395 
2.520299e+3, 2.8269958e+2, -331004.28, -549880.5, -163896.83, 0.012066823, 0.72599113, -243366.6, -73768.98, 0.0, 10.000081, 9.997135 
2.5199416e+3, 2.9269114e+2, -81793.414, -305606.72, -174699.77, -0.18054605, 0.64907104, 13768.257, 85446.26, 0.0, 10.000849, 9.997716 
2.5195873e+3, 3.0268374e+2, -128591.23, -328552.8, -134116.98, -0.100494765, 0.75675005, -61289.25, -61289.25, 0.0, 10.000284, 9.997536 
2.5192302e+3, 3.1267145e+2, -260513.11, -101237.96, -133006.34, -0.46403867, 0.20946778, -25850.28, -25850.28, 0.0, 9.998175, 10.000015 
2.535942e+3, 1.2315859e+2, -1678022.5, -1759900.6, 191729.22, -0.41162515, 0.528179, -1522910.3, 210175.84, 0.34545994, 10.000771, 9.999525 
2.535593e+3, 1.3314934e+2, -1280747.6, -1499725.6, -42457.684, -0.1755445, 0.1876197, -1272803.6, 362362.66, 0.24384509, 10.003311, 9.999401 
2.535243e+3, 1.4314163e+2, -1159939.1, -1516297.5, -55216.43, 0.010361955, 0.14125861, -1151579.6, 385656.63, 0.14280653, 10.003705, 9.998171 
2.5348884e+3, 1.53135e+2, -1075415.1, -1408561.1, -35846.703, -0.28098378, 0.17797655, -1071601.6, 367702.4, 0.06363834, 10.003299, 9.99837 
2.5345352e+3, 1.6312876e+2, -1022647.6, -1239008.8, -100306.04, -0.37846917, 0.29346153, -983300.8, 358065.5, 0.0187796, 10.002302, 9.999437 
2.5341824e+3, 1.7312318e+2, -994695.44, -1091758.1, -24498.256, -0.22939917, 0.29473588, -988862.7, 254556.89, 0.0026956536, 10.00149, 10.000124 
2.5338286e+3, 1.831168e+2, -1131889.9, -1275078.3, -27696.791, -0.15467022, 0.3387593, -1126719.3, 18761.416, 0.00007576087, 10.000502, 9.998693 
2.5334734e+3, 1.931085e+2, -1094377.1, -1197683.3, -66166.99, -0.12248055, 0.20652416, -1062089.0, -14529.252, 0.00000000011876218, 10.000086, 9.998718 
2.533119e+3, 2.0310043e+2, -1137378.5, -1261085.0, -22851.232, -0.123933464, 0.18636736, -1133292.4, -183652.95, 0.0, 9.999479, 9.997931 
2.5327668e+3, 2.1309309e+2, -1070404.9, -1153565.9, -67966.69, -0.112834305, 0.20863213, -1032308.5, -180590.56, 0.0, 9.999219, 9.998085 
2.5324142e+3, 2.2308661e+2, -859110.56, -806392.7, -182953.3, -0.12433938, 0.2911161, -647909.25, 105875.57, 0.0, 9.9991, 9.9999 
2.5320596e+3, 2.3308088e+2, -621637.0, -564705.1, -169730.27, -0.13371788, 0.22935404, -421070.34, 234767.33, 0.0, 9.999759, 10.000556 
2.5317052e+3, 2.4307497e+2, -515311.3, -528157.6, -112441.34, -0.19521523, 0.22684652, -409109.8, 148782.31, 0.0, 10.000036, 10.000037 
2.5313514e+3, 2.5306937e+2, -465007.7, -424940.9, -81250.59, -0.26848018, 0.22355245, -361290.4, 98653.79, 0.0, 9.999696, 10.000181 
2.5309986e+3, 2.6306364e+2, -537998.1, -698310.1, -110453.125, -0.242036, 0.35196984, -481681.16, -119677.55, 0.0, 9.999674, 9.997686 
2.5306472e+3, 2.7305686e+2, -423710.56, -619705.7, -111239.21, 0.0017362997, 0.5057062, -373459.38, -109375.69, 0.0, 9.999966, 9.997364 
2.5302938e+3, 2.830495e+2, -226422.48, -395440.94, -144474.06, 0.0648066, 0.62311894, -143556.2, 22608.045, 0.0, 10.00029, 9.998094 
2.529936e+3, 2.9304108e+2, -34206.664, -222594.11, -133959.0, -0.2009859, 0.51247394, 35360.02, 103603.516, 0.0, 10.000829, 9.998345 
2.529582e+3, 3.0303317e+2, 32990.004, -274222.28, -102400.9, -0.14102916, 0.55177784, 63993.695, 63993.695, 0.0, 10.0013485, 9.997463 
2.5292274e+3, 3.130238e+2, 220742.9, 37455.535, -93952.375, -0.20882735, 0.43230098, 260345.61, 260345.61, 0.0, 10.0016165, 9.999441 
2.545944e+3, 1.235104e+2, -1384799.9, -1482693.3, 192056.83, 0.14513896, 0.6185739, -1235550.6, 494088.7, 0.31815657, 10.00272, 10.000974 
2.545591e+3, 1.335011e+2, -1264870.5, -1452906.4, 48549.51, -0.07149077, 0.22490725, -1253075.3, 378643.8, 0.22319712, 10.003102, 9.999895 
2.5452387e+3, 1.4349377e+2, -1171015.4, -1490421.5, 58543.254, -0.13129978, 0.19067618, -1160623.3, 373161.8, 0.12934339, 10.003312, 9.998601 
2.5448844e+3, 1.5348668e+2, -1208433.9, -1465163.5, 53182.86, -0.34322503, 0.17595086, -1197852.9, 238004.3, 0.05657354, 10.002178, 9.998581 
2.5445306e+3, 1.6348079e+2, -1185627.3, -1228322.6, -45255.125, -0.34767038, 0.29322335, -1156937.4, 180978.64, 0.016116831, 10.000716, 10.000284 
2.5441778e+3, 1.7347643e+2, -1214157.9, -1122124.4, -119348.38, -0.14876917, 0.32749328, -1040228.75, 199728.2, 0.0021455006, 9.999573, 10.000857 
2.5438237e+3, 1.8347067e+2, -1338294.9, -1435401.4, -111747.555, -0.0017663871, 0.40586352, -1265008.4, -122996.414, 0.000046550977, 9.999329, 9.998174 
2.5434694e+3, 1.9346218e+2, -982821.25, -1229911.1, -131566.83, 0.033476464, 0.3074562, -925885.75, 118209.32, 0.0, 10.00122, 9.997967 
2.5431147e+3, 2.0345324e+2, -878498.6, -1245618.9, -38010.45, 0.03181038, 0.2852234, -874604.5, 71580.48, 0.0, 10.00178, 9.996911 
2.5427604e+3, 2.1344323e+2, -875015.8, -1172901.6, -18569.568, -0.13831308, 0.12974037, -873862.7, -25572.943, 0.0, 10.001112, 9.997016 
2.5424066e+3, 2.2343536e+2, -724575.5, -743219.25, -58981.477, -0.18094116, 0.1532612, -674183.8, 76186.09, 0.0, 10.000078, 9.999867 
2.542054e+3, 2.3343146e+2, -673510.6, -550703.25, -99010.52, -0.031977624, 0.24195465, -495601.6, 156802.9, 0.0, 9.9993105, 10.000847 
2.5417003e+3, 2.4342689e+2, -694008.75, -619212.94, -71021.37, -0.03602384, 0.37018543, -576344.8, -21899.818, 0.0, 9.998952, 9.999886 
2.5413436e+3, 2.534202e+2, -404828.66, -387015.88, -75361.69, -0.42590058, 0.22575055, -320036.13, 136469.16, 0.0, 10.000138, 10.000188 
2.5409895e+3, 2.634133e+2, -466175.38, -687163.94, -102486.02, -0.538723, 0.2592888, -425963.4, -67389.45, 0.0, 10.000376, 9.997391 
2.54064e+3, 2.734061e+2, -409074.25, -599306.5, -97203.695, -0.11315506, 0.33613864, -368191.72, -107535.32, 0.0, 10.000106, 9.997402 
2.540288e+3, 2.833992e+2, -339155.38, -429521.13, -117832.83, 0.10211255, 0.49685904, -258139.72, -95409.35, 0.0, 9.999533, 9.998201 
2.5399306e+3, 2.9339132e+2, -183846.6, -222072.6, -106308.28, -0.19661683, 0.3573958, -94946.83, -30143.805, 0.0, 9.999613, 9.998883 
2.5395763e+3, 3.0338174e+2, -296058.3, -504005.8, -58396.92, -0.2034253, 0.24434969, -280781.3, -280781.3, 0.0, 9.9995575, 9.996699 
2.539225e+3, 3.133756e+2, -41955.777, 33248.03, -35296.453, -0.02193109, 0.44039306, 47218.824, 47218.824, 0.0, 9.999481, 10.000387 
2.5559384e+3, 1.238585e+2, -1565321.0, -1695046.0, 22322.09, -0.14133933, 0.32894588, -1561587.5, 164637.73, 0.29081753, 10.001796, 9.999209 
2.5555885e+3, 1.3385512e+2, -1179491.1, -1270319.9, 114534.85, -0.08309142, 0.37911168, -1101695.5, 526552.9, 0.2027681, 10.00307, 10.0014105 
2.555233e+3, 1.438498e+2, -1170886.4, -1447015.6, 23781.287, -0.5213452, 0.45435467, -1168853.1, 361442.03, 0.11625642, 10.0031185, 9.998991 
2.554881e+3, 1.5384075e+2, -1204371.3, -1422506.1, 35579.504, -0.3154697, 0.19504663, -1198714.6, 233670.75, 0.04988728, 10.002041, 9.998918 
2.554528e+3, 1.6383357e+2, -1292149.5, -1399674.3, -86121.24, -0.13789946, 0.22047006, -1244387.3, 90070.086, 0.013707004, 10.0005245, 9.999184 
2.554173e+3, 1.7382887e+2, -1329177.3, -1321560.0, -139086.8, 0.010542651, 0.35929185, -1186229.6, 50275.473, 0.0016894786, 9.999422, 9.999556 
2.553818e+3, 1.8382245e+2, -1315282.8, -1434240.0, -50328.457, 0.011486445, 0.45433563, -1296846.9, -158277.6, 0.000027889511, 9.999539, 9.998065 
2.5534633e+3, 1.9381298e+2, -896104.44, -1188996.8, -33533.32, -0.14707507, 0.26113743, -892314.25, 148348.52, 0.0, 10.001818, 9.997958 
2.5531092e+3, 2.0380515e+2, -634507.2, -991280.8, -45382.484, -0.23131771, 0.29996377, -628824.94, 313917.13, 0.0, 10.002834, 9.998157 
2.5527558e+3, 2.137992e+2, -619492.1, -918953.94, 8200.033, -0.22053672, 0.4358029, -619267.75, 225537.89, 0.0, 10.002229, 9.998249 
2.5524017e+3, 2.2379278e+2, -575436.6, -697883.5, -59135.273, -0.1923026, 0.5438039, -551540.8, 195329.31, 0.0, 10.001191, 9.999642 
2.5520468e+3, 2.3378612e+2, -664102.4, -647958.8, -93885.266, -0.11538915, 0.46042296, -561799.0, 87132.24, 0.0, 9.999775, 9.9999695 
2.5516927e+3, 2.4377923e+2, -608461.1, -613659.2, 5097.114, -0.14223, 0.42001504, -605338.7, -54345.277, 0.0, 9.999614, 9.999625 
2.5513393e+3, 2.537712e+2, -278608.13, -397749.2, 5765.487, -0.35156396, 0.21466109, -278329.75, 174734.67, 0.0, 10.001208, 9.999642 
2.5509864e+3, 2.637634e+2, -182606.47, -469047.06, -111889.07, -0.4072733, 0.16233596, -144081.84, 211057.63, 0.0, 10.001878, 9.998202 
2.5506344e+3, 2.7375597e+2, -208564.89, -444838.72, -100303.734, -0.13944535, 0.1885751, -171727.06, 85493.73, 0.0, 10.001135, 9.998024 
2.5502813e+3, 2.8374952e+2, -136107.86, -252619.67, -115132.76, 0.0039227307, 0.32298076, -65331.594, 93956.99, 0.0, 10.000457, 9.999011 
2.5499249e+3, 2.9374355e+2, -149371.33, -188204.22, -110801.1, -0.122568004, 0.36910352, -56298.29, 5045.105, 0.0, 9.999635, 9.999168 
2.5495714e+3, 3.0373448e+2, -165559.33, -249790.6, -15551.334, 0.0020465604, 0.20542973, -162779.84, -162779.84, 0.0, 9.999491, 9.998535 
2.5492153e+3, 3.1372556e+2, 29168.676, 53187.42, -3190.5146, -0.3395818, 0.057401262, 53604.008, 53604.008, 0.0, 9.999799, 10.000461 
2.5659364e+3, 1.242126e+2, -1439801.5, -1563716.6, 11654.578, 0.07022921, 0.33998057, -1438714.9, 284035.8, 0.26403108, 10.002346, 10.000229 
2.565585e+3, 1.3420698e+2, -1533777.1, -1552354.9, 55809.332, -0.012921209, 0.30197003, -1486488.9, 138310.6, 0.18292536, 10.000573, 10.000217 
2.5652295e+3, 1.4420104e+2, -1545669.4, -1554924.0, -75678.3, -0.38409713, 0.34118465, -1474477.0, 52376.47, 0.1037245, 9.999791, 9.999823 
2.5648776e+3, 1.5419416e+2, -1283508.0, -1390858.4, -57418.22, -0.19412352, 0.19637269, -1258583.8, 170335.64, 0.043632858, 10.001048, 9.99965 
2.5645238e+3, 1.6418746e+2, -1135583.3, -1391127.9, -106866.734, -0.031308427, 0.24724026, -1096783.5, 234202.81, 0.011545959, 10.001936, 9.998532 
2.564167e+3, 1.7418121e+2, -924404.44, -1246515.6, -153345.77, -0.031102864, 0.322593, -863077.9, 369973.88, 0.0013158798, 10.002749, 9.998447 
2.5638118e+3, 1.8417384e+2, -914609.8, -1242298.3, 4284.3896, -0.055335514, 0.39137495, -914553.8, 220572.94, 0.000016496271, 10.002358, 9.998016 
2.5634584e+3, 1.9416448e+2, -1050620.3, -1274316.5, 5237.8335, -0.15845212, 0.20676284, -1050497.8, -13278.309, 0.0, 10.000829, 9.997866 
2.563105e+3, 2.0415746e+2, -989018.0, -1078959.1, -36760.82, -0.22094648, 0.31056905, -975904.94, -36614.438, 0.0, 10.000102, 9.998865 
2.562751e+3, 2.1415354e+2, -843623.44, -949679.9, -62822.508, -0.23580648, 0.56931, -814440.6, 26892.137, 0.0, 10.000419, 9.998913 
2.5623965e+3, 2.241478e+2, -715192.94, -854971.8, -164679.02, -0.18815205, 0.7417015, -606186.56, 137203.5, 0.0, 10.000675, 9.998779 
2.5620404e+3, 2.3413908e+2, -622758.75, -749019.6, -207165.66, -0.1533608, 0.52155346, -469318.03, 176153.69, 0.0, 10.000621, 9.99884 
2.5616866e+3, 2.4413057e+2, -558024.6, -659301.25, 3185.961, -0.15968059, 0.40990892, -557924.5, -10374.891, 0.0, 10.000335, 9.998939 
2.5613353e+3, 2.5412178e+2, -463331.8, -554994.9, 11958.761, -0.25972593, 0.15689872, -461797.28, -12169.958, 0.0, 10.000306, 9.998978 
2.5609833e+3, 2.6411396e+2, -438310.78, -555229.06, -141910.34, -0.23170932, 0.13003322, -343290.22, 8411.265, 0.0, 10.000087, 9.998408 
2.5606295e+3, 2.7410677e+2, -318066.5, -446964.75, -138139.5, -0.11875333, 0.097270444, -230081.36, 23696.383, 0.0, 10.000254, 9.99839 
2.5602746e+3, 2.8410015e+2, -184805.11, -272147.22, -166581.66, -0.080911204, 0.20229201, -56265.227, 99579.52, 0.0, 10.000204, 9.998959 
2.5599188e+3, 2.9409492e+2, -53873.41, -144102.98, -167627.0, -0.105296195, 0.27953407, 74603.73, 132497.02, 0.0, 10.000385, 9.999055 
2.5595674e+3, 3.0408803e+2, -20940.133, -116471.086, -70622.07, 0.23225538, 0.31912902, 16552.922, 16552.922, 0.0, 10.000379, 9.998933 
2.5592098e+3, 3.140834e+2, -199005.14, -174909.73, 94432.2, -0.31214693, 0.45532924, -91759.81, -91759.81, 0.0, 9.999022, 9.999144 
2.575928e+3, 1.2456987e+2, -1583122.0, -1777998.4, 8204.172, -0.4970187, 0.62137455, -1582777.3, 136467.48, 0.23823552, 10.001821, 9.998562 
2.5755808e+3, 1.3455565e+2, -1737192.6, -1944371.6, -4104.2837, 0.10008523, -0.028230725, -1737111.4, -115728.13, 0.16394834, 10.000398, 9.997448 
2.575228e+3, 1.4454766e+2, -1504775.9, -1395317.5, -21625.516, 0.042232964, -0.106813036, -1391199.9, 132258.23, 0.09188186, 9.999475, 10.001121 
2.574874e+3, 1.545468e+2, -1199681.6, -1180656.0, 25084.9, -0.10160998, 0.20047097, -1163340.8, 262119.69, 0.03784501, 10.000907, 10.001214 
2.5745177e+3, 1.6454208e+2, -1149793.4, -1428387.3, -72812.78, -0.2549649, 0.38974735, -1131910.9, 195594.83, 0.009625426, 10.002024, 9.998202 
2.5741598e+3, 1.7453271e+2, -902330.25, -1292717.3, -82127.01, -0.48857176, 0.2011962, -885756.56, 343846.1, 0.0010124295, 10.003161, 9.99792 
2.5738055e+3, 1.8452458e+2, -834647.44, -1171889.3, -57878.58, -0.4079997, 0.21556798, -824990.6, 306694.06, 0.000009793076, 10.002776, 9.998287 
2.5734556e+3, 1.9451739e+2, -1045482.0, -1245246.4, -31470.367, 0.06083525, 0.23644426, -1040641.56, -6887.338, 0.0, 10.00073, 9.998116 
2.5731024e+3, 2.0450996e+2, -1053948.4, -1160761.0, -14223.54, 0.10677407, 0.3050606, -1052086.8, -116259.1, 0.0, 9.999843, 9.998431 
2.572745e+3, 2.1450242e+2, -847999.94, -1025780.25, -22926.72, -0.27213264, 0.2764428, -845090.9, -7186.776, 0.0, 10.000658, 9.998293 
2.5723898e+3, 2.2449459e+2, -638024.25, -873932.44, -170594.11, -0.37590662, 0.29256448, -548576.56, 191404.83, 0.0, 10.001376, 9.998321 
2.5720358e+3, 2.3448582e+2, -479462.34, -765501.06, -195436.45, -0.1593767, 0.14638548, -380304.22, 261760.78, 0.0, 10.001865, 9.998159 
2.5716823e+3, 2.4447839e+2, -327252.16, -492217.97, -35440.44, -0.12739187, 0.15038511, -319960.6, 224174.89, 0.0, 10.001624, 9.999479 
2.5713295e+3, 2.5447226e+2, -391036.44, -487100.44, -5297.677, -0.29910073, 0.1522967, -390745.2, 55448.05, 0.0, 10.000582, 9.999347 
2.570977e+3, 2.6446578e+2, -388217.1, -477884.4, -133414.02, -0.2932869, 0.21920018, -292305.03, 55952.184, 0.0, 10.000115, 9.998934 
2.5706246e+3, 2.7445877e+2, -264166.9, -397869.25, -127403.45, -0.06487594, 0.19235693, -187140.64, 63190.508, 0.0, 10.000411, 9.998682 
2.5702703e+3, 2.8445205e+2, -8043.9824, -159048.02, -137710.38, -0.02847563, 0.25283533, 73504.0, 225901.5, 0.0, 10.001213, 9.9992695 
2.5699142e+3, 2.944458e+2, 296470.56, 6379.3535, -135137.02, -0.16507627, 0.26317063, 349667.84, 404121.63, 0.0, 10.002749, 9.998998 
2.5695622e+3, 3.04438e+2, 207327.36, -119969.305, -158550.33, 0.13036709, 0.257836, 271536.4, 271536.4, 0.0, 10.002294, 9.998032 
2.5692052e+3, 3.144326e+2, -230861.97, -335350.13, 20644.39, -0.14901657, 0.47985542, -226931.0, -226931.0, 0.0, 9.999174, 9.998039 
2.5859252e+3, 1.2492072e+2, -1492711.4, -1857334.3, 71475.31, -0.416697, 0.3848538, -1479201.0, 236601.1, 0.21373183, 10.002908, 9.997563 
2.5855756e+3, 1.3490985e+2, -1324147.4, -1755735.9, 24533.674, -0.020911535, 0.07093778, -1322757.3, 295155.66, 0.14603193, 10.003559, 9.997287 
2.585223e+3, 1.4490189e+2, -1109933.8, -1226776.5, 67695.484, 0.06622413, 0.019811675, -1078936.3, 441052.84, 0.080827504, 10.002549, 10.000868 
2.5848693e+3, 1.5489957e+2, -1261896.6, -1266794.1, -56303.758, -0.03322673, 0.2348044, -1207988.4, 214015.42, 0.032553293, 10.000716, 10.000679 
2.584513e+3, 1.6489378e+2, -1394353.6, -1593648.5, -149029.73, -0.23000756, 0.3539599, -1314726.3, 9332.461, 0.007938516, 10.000494, 9.997807 
2.5841555e+3, 1.7488377e+2, -1164147.1, -1463545.6, -163479.36, -0.54485875, 0.11674281, -1092181.4, 133980.34, 0.00076767127, 10.0015545, 9.997521 
2.5838012e+3, 1.8487589e+2, -920318.1, -1201725.5, -181013.39, -0.42797297, 0.16330543, -831754.75, 296485.78, 0.000005913737, 10.002157, 9.998368 
2.5834513e+3, 1.9486995e+2, -893991.75, -1160125.6, -192313.42, 0.16264689, 0.2774956, -793197.06, 237099.56, 0.0, 10.001768, 9.99817 
2.5830975e+3, 2.0486206e+2, -878600.56, -1162926.0, -73262.19, 0.23440723, 0.32568204, -860833.4, 71540.555, 0.0, 10.00143, 9.997647 
2.58274e+3, 2.1485184e+2, -842907.1, -1118082.9, -91445.44, -0.29370022, 0.07713614, -815290.0, 19186.105, 0.0, 10.001101, 9.997444 
2.5823843e+3, 2.2484286e+2, -775719.06, -921686.9, -186186.39, -0.418673, 0.014515631, -648722.94, 87840.32, 0.0, 10.000478, 9.998403 
2.5820312e+3, 2.3483472e+2, -836643.56, -933551.75, -148897.08, -0.11116385, -0.08491057, -728514.94, -89875.2, 0.0, 9.99952, 9.998113 
2.5816777e+3, 2.4482848e+2, -634444.5, -622884.6, 40559.49, -0.06795702, 0.045342997, -587695.3, -46994.586, 0.0, 9.99955, 9.9995365 
2.5813234e+3, 2.5482392e+2, -462064.13, -521791.72, 19211.215, -0.33855996, 0.17819877, -456418.53, -13670.281, 0.0, 10.000199, 9.999255 
2.5809705e+3, 2.6481816e+2, -359846.03, -449127.7, -88706.22, -0.33334115, 0.32886288, -305181.3, 39626.457, 0.0, 10.000305, 9.999043 
2.5806192e+3, 2.7481124e+2, -328672.94, -409596.9, -74929.59, -0.03154442, 0.2669281, -283978.5, -37098.508, 0.0, 9.999989, 9.998782 
2.580266e+3, 2.8480485e+2, -173968.03, -219404.58, -11469.372, 0.051564977, 0.3553945, -171237.02, -22295.271, 0.0, 10.000081, 9.999364 
2.5799102e+3, 2.9479778e+2, -34207.168, -159115.98, 8989.194, -0.18135206, 0.25039843, -33563.57, 17440.17, 0.0, 10.0006, 9.998866 
2.5795558e+3, 3.0478826e+2, -176058.9, -415363.7, -144603.05, -0.07233564, 0.15025327, -108023.43, -108023.43, 0.0, 10.000256, 9.996945 
2.5792032e+3, 3.1478763e+2, -270357.78, -72787.945, -216105.22, 0.33059996, 0.91787606, 66040.11, 66040.11, 0.0, 9.997866, 10.000446 
2.5959244e+3, 1.2526917e+2, -1500974.6, -1686927.4, 56561.125, -0.27082312, -0.046403103, -1485121.9, 227261.44, 0.19077115, 10.002125, 9.99911 
2.595569e+3, 1.352694e+2, -1281429.8, -1560869.6, 54503.086, -0.45939347, 0.5777807, -1271175.5, 343214.97, 0.12932457, 10.003127, 9.998873 
2.5952154e+3, 1.45262e+2, -1314074.9, -1580740.1, -2953.5854, -0.3849203, 0.62900156, -1314042.1, 202421.63, 0.07062259, 10.002225, 9.9984045 
2.5948635e+3, 1.5525082e+2, -1467214.6, -1652779.1, -93916.25, -0.093455724, 0.21703696, -1427978.6, -9412.334, 0.027766839, 10.000545, 9.998068 
2.59451e+3, 1.652418e+2, -1396918.0, -1576500.9, -107058.15, -0.041292872, 0.14152339, -1346981.3, -26327.783, 0.0064744665, 10.000424, 9.997946 
2.5941554e+3, 1.7523396e+2, -1157995.9, -1453088.8, -93188.5, -0.15093626, 0.116739534, -1131031.5, 91702.74, 0.0005723583, 10.001541, 9.997611 
2.5937998e+3, 1.8522704e+2, -906693.44, -1180822.4, -187387.73, -0.2158802, 0.24940962, -811592.4, 313211.25, 0.0000035552432, 10.002192, 9.998493 
2.593444e+3, 1.9522056e+2, -812370.25, -1124201.0, -173673.19, -0.21039625, 0.3158619, -734893.25, 291972.97, 0.0, 10.002298, 9.998181 
2.593089e+3, 2.0521265e+2, -768871.5, -1122029.6, -99178.72, -0.25447094, 0.36469764, -742925.06, 186020.9, 0.0, 10.002227, 9.997553 
2.592735e+3, 2.1520317e+2, -721255.1, -1087086.9, -99256.31, -0.37430412, 0.23884127, -696060.4, 134982.97, 0.0, 10.001993, 9.997267 
2.5923797e+3, 2.2519614e+2, -539465.4, -543506.9, -240385.23, -0.3185677, 0.2548776, -301092.4, 432016.94, 0.0, 10.000936, 10.000777 
2.5920248e+3, 2.3519099e+2, -697843.8, -633231.1, -135707.16, -0.08017985, 0.25261754, -526037.9, 109112.6, 0.0, 9.999398, 10.000252 
2.5916708e+3, 2.4518472e+2, -672579.6, -706238.56, 139904.33, -0.13022962, 0.30237255, -548496.2, -11285.733, 0.0, 9.999492, 9.999009 
2.5913173e+3, 2.551774e+2, -375574.4, -552251.6, 113744.06, -0.44417793, 0.25257114, -319894.2, 119392.93, 0.0, 10.001006, 9.998689 
2.5909647e+3, 2.6517093e+2, -126551.16, -227794.33, -78428.24, -0.42273068, 0.30218136, -83826.43, 257527.4, 0.0, 10.001405, 10.000039 
2.5906134e+3, 2.7516496e+2, -142926.0, -223531.64, -37898.88, -0.058360353, 0.29130432, -127905.76, 115507.99, 0.0, 10.000775, 9.999707 
2.59026e+3, 2.8515902e+2, -92542.88, -81131.15, 27633.15, 0.057289194, 0.3307038, -58620.92, 86847.58, 0.0, 10.000127, 10.000311 
2.5899044e+3, 2.951524e+2, -156243.19, -133859.67, 45438.27, -0.13653807, 0.21960348, -98255.16, -50729.875, 0.0, 9.999274, 9.999722 
2.5895497e+3, 3.051437e+2, -271762.53, -410459.75, -80369.51, 0.0009722896, 0.1467485, -234958.0, -234958.0, 0.0, 9.999308, 9.9974785 
2.5891888e+3, 3.1513497e+2, -55313.1, -109201.29, 74177.1, -0.40411204, 0.11799787, -3338.081, -3338.081, 0.0, 9.999814, 9.999305 
2.6059195e+3, 1.256223e+2, -1759759.5, -1893079.5, -38190.36, -0.27078027, 0.0058683204, -1749594.6, -40668.453, 0.16949552, 10.000217, 9.998599 
2.6055646e+3, 1.3562214e+2, -1446526.5, -1646324.8, -80559.19, -0.51329494, 0.59052986, -1418091.6, 192845.22, 0.11391175, 10.001765, 9.998924 
2.6052108e+3, 1.4561501e+2, -1308024.3, -1641265.0, -136482.36, -0.44690022, 0.67184275, -1259261.8, 253746.3, 0.061296463, 10.002538, 9.997833 
2.6048595e+3, 1.55603e+2, -1175581.0, -1601086.3, -114383.67, -0.05105014, 0.244963, -1146781.8, 268338.22, 0.023481611, 10.002982, 9.997246 
2.6045063e+3, 1.655935e+2, -1077162.6, -1396725.0, -18096.889, 0.071754724, 0.15450554, -1076141.0, 241070.69, 0.005220199, 10.0025015, 9.998209 
2.604152e+3, 1.7558612e+2, -1201939.0, -1471326.5, -31221.615, 0.023454169, 0.16879216, -1198367.8, 20918.594, 0.00041937284, 10.001202, 9.997681 
2.603796e+3, 1.8557929e+2, -1059767.3, -1248535.1, -73922.2, -0.12590693, 0.30809537, -1034264.5, 87090.18, 0.0000020172258, 10.001111, 9.9985485 
2.6034382e+3, 1.9557253e+2, -931773.1, -1201953.8, -84216.875, -0.37582698, 0.34685335, -907672.1, 115749.25, 0.0, 10.001579, 9.997986 
2.6030833e+3, 2.0556456e+2, -828487.06, -1157213.4, 3176.8213, -0.44693592, 0.41669887, -828456.3, 97046.164, 0.0, 10.001895, 9.997448 
2.6027307e+3, 2.1555549e+2, -813968.2, -1137119.9, -15010.283, -0.3506399, 0.33863652, -813272.5, 14324.121, 0.0, 10.001467, 9.99714 
2.6023754e+3, 2.2554965e+2, -456158.5, -409556.34, -236108.64, -0.22438358, 0.44406024, -195601.8, 534048.44, 0.0, 10.001129, 10.001599 
2.6020184e+3, 2.3554605e+2, -566061.0, -490955.47, -277993.56, -0.04987035, 0.48925513, -247989.73, 383684.53, 0.0, 10.00001, 10.000922 
2.601664e+3, 2.4553959e+2, -723676.56, -757906.9, 69641.48, -0.15904039, 0.49515486, -669077.94, -135343.02, 0.0, 9.999306, 9.998742 
2.601311e+3, 2.5553042e+2, -748850.94, -777627.3, 90655.836, -0.5033029, 0.2623802, -671448.56, -235618.89, 0.0, 9.998688, 9.998258 
2.600959e+3, 2.6552367e+2, -477176.4, -344783.9, -121267.49, -0.45861408, 0.28565148, -272821.75, 65076.28, 0.0, 9.998863, 10.000437 
2.6006073e+3, 2.755185e+2, -402421.5, -326510.63, -113874.18, -0.076090656, 0.28398684, -244432.97, -4484.1587, 0.0, 9.998964, 9.999866 
2.6002538e+3, 2.8551278e+2, -224494.33, -89064.49, -79704.58, 0.061282247, 0.3136982, -52193.895, 89806.08, 0.0, 9.999062, 10.000754 
2.599898e+3, 2.9550675e+2, -274593.97, -175771.28, -91836.086, -0.0795005, 0.18537058, -120897.69, -76847.055, 0.0, 9.998515, 9.999773 
2.5995433e+3, 3.0549902e+2, -257286.1, -375698.34, -157231.06, 0.067706235, 0.19584376, -148483.38, -148483.38, 0.0, 9.999424, 9.997595 
2.5991854e+3, 3.154883e+2, -94095.73, -43463.125, 345858.38, -0.17769903, -0.08423453, 278004.25, 278004.25, 0.0, 9.999349, 9.999938 
2.6159152e+3, 1.2597945e+2, -1802353.1, -1876217.3, 21351.3, -0.20316021, 0.5809232, -1796625.4, -91191.19, 0.14988421, 9.999856, 9.998851 
2.6155624e+3, 1.3596874e+2, -1518531.4, -1790153.0, -3272.256, -0.34068075, 0.17894706, -1518492.0, 89052.55, 0.09979623, 10.00168, 9.997942 
2.6152092e+3, 1.4596187e+2, -1240292.9, -1454373.9, -101006.18, -0.29383495, 0.2645583, -1200160.4, 309451.75, 0.05285716, 10.002382, 9.999183 
2.614857e+3, 1.5595661e+2, -1126900.5, -1480555.4, -63987.055, -0.05225762, 0.39638498, -1115679.3, 295980.56, 0.019694533, 10.002894, 9.998125 
2.6145014e+3, 1.6594905e+2, -1048311.6, -1330524.4, -58930.945, -0.09515004, 0.43994534, -1036500.1, 277231.75, 0.004163879, 10.002505, 9.998634 
2.614144e+3, 1.7593999e+2, -1187233.6, -1432012.1, -40717.91, -0.33524832, 0.25506637, -1180638.0, 35182.176, 0.00030229846, 10.001191, 9.997935 
2.6137894e+3, 1.8593287e+2, -1016491.44, -1188405.5, -32125.531, -0.34445632, 0.33604017, -1010684.3, 107206.01, 0.0000010444409, 10.001216, 9.998914 
2.6134357e+3, 1.9592676e+2, -873645.1, -1163762.4, -10535.788, -0.23761432, 0.42741734, -873263.0, 146688.13, 0.0, 10.001863, 9.998134 
2.6130813e+3, 2.0591861e+2, -747469.25, -1074786.6, 29369.213, -0.26280805, 0.45193535, -744854.94, 177176.81, 0.0, 10.002227, 9.997858 
2.6127267e+3, 2.1590891e+2, -687897.94, -1060462.1, 27642.527, -0.37765306, 0.2939525, -685858.2, 138269.52, 0.0, 10.002206, 9.997316 
2.6123703e+3, 2.2590119e+2, -501444.66, -711338.06, -243999.2, -0.31403765, 0.33008257, -340779.94, 385422.8, 0.0, 10.001954, 9.999155 
2.6120126e+3, 2.358948e+2, -516406.78, -720757.1, -312695.1, -0.13019778, 0.36728543, -289616.94, 338645.8, 0.0, 10.001327, 9.998752 
2.6116577e+3, 2.4588823e+2, -480656.13, -425683.53, -38341.848, -0.19420554, 0.34862617, -405993.63, 124330.08, 0.0, 9.999992, 10.000708 
2.6113042e+3, 2.558811e+2, -677909.06, -566017.75, 32874.52, -0.45306778, 0.16016679, -557073.9, -124683.55, 0.0, 9.998311, 9.999925 
2.6109523e+3, 2.658755e+2, -602863.6, -445539.25, -102447.88, -0.35943332, 0.2319122, -395037.53, -60590.68, 0.0, 9.998088, 10.00015 
2.610601e+3, 2.7587086e+2, -432773.78, -379575.6, -110087.97, 0.0036436839, 0.3500013, -292918.9, -56421.88, 0.0, 9.998802, 9.999617 
2.610247e+3, 2.858652e+2, -205050.55, -103140.305, -115865.04, 0.05542729, 0.39348757, -27520.813, 111030.7, 0.0, 9.999252, 10.000576 
2.6098904e+3, 2.9585898e+2, -119000.36, -124940.13, -138458.28, -0.16076088, 0.30806684, 16519.879, 57126.41, 0.0, 9.999619, 9.999609 
2.6095366e+3, 3.0585206e+2, -37070.258, -212321.27, -171135.98, -0.039926, 0.3601829, 67569.04, 67569.04, 0.0, 10.000529, 9.998231 
2.609183e+3, 3.1584433e+2, -20798.578, -347062.34, 10769.452, 0.115463905, 0.3478669, -20443.482, -20443.482, 0.0, 10.001111, 9.997023 
2.6259112e+3, 1.2633191e+2, -1353471.6, -1664339.9, 126992.95, -0.22228836, 0.47174677, -1308189.6, 393787.4, 0.13183987, 10.003385, 9.998629 
2.62556e+3, 1.3632141e+2, -1429143.1, -1766935.0, 91817.39, -0.20464024, 0.14226468, -1405798.9, 198286.69, 0.08692974, 10.00242, 9.997762 
2.6252064e+3, 1.4631426e+2, -1223878.5, -1458951.5, 5176.4507, -0.17380175, 0.21804048, -1223764.6, 282391.75, 0.045284748, 10.002414, 9.999191 
2.6248533e+3, 1.563094e+2, -1116112.4, -1465375.1, -54089.734, -0.06880894, 0.39811945, -1107927.5, 300274.47, 0.01638905, 10.002849, 9.998291 
2.624497e+3, 1.6630253e+2, -969225.2, -1311220.6, -94381.055, -0.16574183, 0.504162, -944907.75, 365361.38, 0.0032885466, 10.003116, 9.998488 
2.6241395e+3, 1.762939e+2, -940695.2, -1332973.5, -122453.58, -0.3939999, 0.37576884, -905608.4, 306746.2, 0.00021471751, 10.002944, 9.997794 
2.6237845e+3, 1.8628635e+2, -883025.7, -1120110.5, -108785.17, -0.335625, 0.404739, -840675.2, 273753.53, 0.00000047553752, 10.00211, 9.998958 
2.6234323e+3, 1.9627972e+2, -1090770.5, -1271376.0, -121694.49, -0.073908076, 0.43057954, -1029534.0, -13040.38, 0.0, 10.000422, 9.998089 
2.6230782e+3, 2.0627183e+2, -906667.8, -1062072.8, -8936.829, -0.10987827, 0.43241918, -906155.56, 12413.386, 0.0, 10.000772, 9.998638 
2.622723e+3, 2.1626276e+2, -778939.94, -1067937.3, 8820.446, -0.32554048, 0.24892993, -778671.0, 41983.773, 0.0, 10.001466, 9.997621 
2.6223654e+3, 2.26254e+2, -695268.56, -993956.44, -189822.38, -0.33926243, 0.26568675, -603083.75, 119658.664, 0.0, 10.001506, 9.997405 
2.6220065e+3, 2.3624542e+2, -830555.9, -1057272.3, -175813.8, -0.20021372, 0.25656, -734723.8, -109892.81, 0.0, 10.000068, 9.997022 
2.621651e+3, 2.4623863e+2, -484928.5, -333397.25, 50387.445, -0.22497094, 0.26415998, -318172.1, 208721.84, 0.0, 9.999644, 10.001472 
2.6212975e+3, 2.5623274e+2, -607627.4, -486472.0, -16911.736, -0.34894142, 0.112641394, -484155.63, -55212.49, 0.0, 9.998684, 10.000267 
2.6209453e+3, 2.6622754e+2, -557305.75, -477257.34, -107316.125, -0.24139917, 0.23383531, -402744.7, -71749.49, 0.0, 9.998682, 9.999609 
2.6205936e+3, 2.7622274e+2, -541540.94, -522409.34, -115336.88, 0.03338186, 0.3639755, -416242.25, -183192.67, 0.0, 9.998526, 9.998736 
2.6202393e+3, 2.8621727e+2, -279660.56, -155491.67, -107812.75, -0.019569729, 0.47858465, -93165.24, 41940.082, 0.0, 9.998919, 10.000339 
2.6198825e+3, 2.9621089e+2, -301361.53, -285307.44, -93901.25, -0.2827775, 0.37287405, -199090.77, -161924.4, 0.0, 9.998767, 9.998905 
2.619531e+3, 3.062053e+2, -184964.22, -204798.53, -119832.7, -0.0434787, 0.5656428, -74639.01, -74639.01, 0.0, 9.99928, 9.998854 
2.6191768e+3, 3.1619263e+2, -166451.9, -121597.41, 59439.027, -0.035656113, -0.03449858, -80495.3, -80495.3, 0.0, 9.999028, 9.999547 
2.6359075e+3, 1.2668301e+2, -1456729.0, -1735892.1, 69584.2, -0.39060032, 0.13118617, -1440346.0, 258179.61, 0.11528824, 10.002714, 9.998399 
2.6355565e+3, 1.3667877e+2, -1496014.0, -1860206.6, 81535.7, -0.21234083, 0.43278617, -1478593.1, 121981.86, 0.07524984, 10.002174, 9.997236 
2.6352027e+3, 1.4667061e+2, -1309112.3, -1580103.9, 27958.33, -0.23002006, 0.47471017, -1306257.9, 196399.1, 0.038529176, 10.002194, 9.998425 
2.6348487e+3, 1.5666042e+2, -1182191.8, -1575134.9, -8874.697, -0.27316847, 0.19071402, -1181991.5, 222764.22, 0.013527696, 10.002755, 9.997568 
2.634494e+3, 1.666534e+2, -984682.1, -1369557.6, -87251.36, -0.22185802, 0.33897316, -965826.06, 341002.8, 0.0025719018, 10.00324, 9.998025 
2.634139e+3, 1.7664766e+2, -938416.94, -1383063.0, -102394.2, -0.17358187, 0.55130607, -915970.5, 292921.44, 0.00015054179, 10.003162, 9.997347 
2.633783e+3, 1.8663907e+2, -890202.25, -1170585.4, -184051.86, -0.1543085, 0.5179755, -799031.0, 311945.78, 0.0000001940375, 10.002272, 9.9985285 
2.633426e+3, 1.9662914e+2, -1084430.8, -1266635.0, -155285.14, -0.17774373, 0.2557877, -995496.6, 17574.986, 0.0, 10.000411, 9.998139 
2.6330724e+3, 2.0662253e+2, -771313.56, -759665.2, 35246.92, -0.17935492, 0.25858554, -729764.5, 185366.7, 0.0, 10.000698, 10.000733 
2.63272e+3, 2.1661736e+2, -539075.1, -739571.7, 69208.66, -0.22223206, 0.27161467, -517505.7, 299669.9, 0.0, 10.002149, 9.999554 
2.632361e+3, 2.2661026e+2, -565177.0, -841514.7, -196749.02, -0.32608926, 0.32626975, -462927.88, 256318.81, 0.0, 10.001963, 9.99825 
2.6319987e+3, 2.3660219e+2, -680349.56, -924233.7, -106204.02, -0.46736747, 0.31151712, -640584.6, -19253.361, 0.0, 10.000756, 9.997624 
2.631644e+3, 2.4659476e+2, -577219.44, -679417.56, 104288.42, -0.34425992, 0.38219604, -512184.16, 11220.861, 0.0, 10.000256, 9.998815 
2.6312938e+3, 2.5658768e+2, -550361.1, -684942.7, -5790.4224, -0.118818074, 0.3894703, -550112.44, -124640.05, 0.0, 9.999974, 9.998293 
2.6309392e+3, 2.6657957e+2, -414232.8, -452807.88, -131269.63, -0.20636688, 0.3172282, -300841.34, 26709.566, 0.0, 9.999771, 9.9992895 
2.6305825e+3, 2.7657112e+2, -381181.13, -434307.53, -130337.336, -0.41611555, 0.1402607, -274727.7, -45094.324, 0.0, 9.99946, 9.998925 
2.6302308e+3, 2.865666e+2, -128023.266, 23992.65, -108103.12, -0.19930594, 0.2739638, 80134.2, 211812.22, 0.0, 9.999382, 10.001392 
2.6298803e+3, 2.9656368e+2, -123899.695, -68092.45, -61853.297, 0.16880916, 0.44060916, -28140.033, 5566.41, 0.0, 9.999285, 10.000191 
2.6295257e+3, 3.0655718e+2, -216770.39, -253041.27, -104210.37, 0.15608121, 0.49591306, -129129.2, -129129.2, 0.0, 9.999079, 9.998694 
2.6291707e+3, 3.1654748e+2, -55119.266, 418132.25, -153567.8, 0.15546392, 0.2502321, 463596.6, 463596.6, 0.0, 9.997476, 10.004095 
2.6459056e+3, 1.2703508e+2, -1251620.8, -1745241.3, -72177.23, -0.37626755, 0.09111296, -1241283.5, 453788.06, 0.10017185, 10.0046, 9.997503 
2.6455536e+3, 1.3702992e+2, -1145677.9, -1722199.8, -148831.11, -0.21620628, 0.38782796, -1109523.8, 487606.1, 0.06469282, 10.004907, 9.99688 
2.6451996e+3, 1.4702198e+2, -1105440.1, -1493054.4, -169477.36, -0.21820636, 0.4382177, -1041790.94, 457420.03, 0.032530583, 10.003684, 9.99831 
2.6448447e+3, 1.5701179e+2, -1366568.9, -1674953.8, -179552.88, -0.25842637, 0.16049306, -1284087.4, 117224.06, 0.011066901, 10.001509, 9.997484 
2.6444903e+3, 1.6700497e+2, -1292475.1, -1476656.1, -147756.75, -0.1750891, 0.29088652, -1210460.1, 92923.3, 0.0019930317, 10.000908, 9.998424 
2.6441363e+3, 1.769999e+2, -1334842.4, -1558596.1, -123988.45, -0.02416404, 0.5413162, -1279717.5, -74276.6, 0.00010503105, 10.0003395, 9.99753 
2.643779e+3, 1.8699159e+2, -1049408.3, -1178638.3, -115222.59, -0.061350722, 0.4937167, -981919.7, 125602.516, 0.00000008640195, 10.0009775, 9.999037 
2.6434204e+3, 1.969815e+2, -910998.5, -1144637.0, -43448.25, -0.18458833, 0.18006046, -903180.3, 106436.836, 0.0, 10.001499, 9.998431 
2.643067e+3, 2.0697558e+2, -743390.7, -672425.25, 122037.836, -0.18722367, 0.20523289, -580816.44, 330853.34, 0.0, 10.000574, 10.001405 
2.642716e+3, 2.1697186e+2, -1071996.8, -952759.56, -6630.836, -0.1049394, 0.29124546, -952391.94, -138691.97, 0.0, 9.998304, 9.999968 
2.642356e+3, 2.2696567e+2, -897368.4, -913845.6, -295606.53, -0.27448648, 0.365267, -609885.7, 105875.695, 0.0, 9.999329, 9.9990015 
2.641992e+3, 2.369582e+2, -750128.94, -956171.06, -213906.22, -0.5537266, 0.31492808, -615727.94, 2110.8518, 0.0, 10.00031, 9.997619 
2.6416382e+3, 2.469507e+2, -596575.6, -895963.0, 81262.77, -0.362005, 0.47681275, -575940.7, -56024.246, 0.0, 10.001061, 9.996925 
2.6412898e+3, 2.5694284e+2, -641284.1, -951098.6, 71453.54, 0.0698626, 0.59073985, -625598.7, -203601.88, 0.0, 10.000362, 9.996284 
2.6409328e+3, 2.669323e+2, -408118.72, -464947.5, -5510.123, -0.20213468, 0.37930238, -407589.38, -83492.85, 0.0, 9.999973, 9.999067 
2.640572e+3, 2.769206e+2, -567912.56, -571858.3, 807.4854, -0.7804601, -0.109597735, -567753.75, -341549.0, 0.0, 9.998475, 9.9984455 
2.640223e+3, 2.869168e+2, -201034.38, 78643.32, 5086.6216, -0.28687942, 0.08329241, 78735.805, 206976.08, 0.0, 9.998576, 10.002115 
2.639878e+3, 2.9691684e+2, -253134.6, -98525.88, -13322.743, 0.6298746, 0.46242675, -97386.25, -67145.72, 0.0, 9.998356, 10.000409 
2.6395184e+3, 3.0690858e+2, -271782.06, -273396.34, -46004.016, 0.1472154, 0.3221466, -226578.11, -226578.11, 0.0, 9.998805, 9.998605 
2.6391557e+3, 3.16901e+2, -372325.47, -109691.484, -75033.84, -0.50800073, 0.28699082, -89766.19, -89766.19, 0.0, 9.997083, 10.000588 
2.655904e+3, 1.2738743e+2, -1455337.4, -1970708.0, -64133.56, -0.4337543, 0.28414142, -1447476.4, 244143.3, 0.086430125, 10.003669, 9.996335 
2.6555517e+3, 1.3737544e+2, -1243743.5, -1869946.4, -103750.19, -0.3522711, -0.008786087, -1227001.6, 366742.1, 0.055199515, 10.00459, 9.996006 
2.6551968e+3, 1.4736888e+2, -1108388.9, -1426571.4, -218340.47, -0.2621312, 0.17261949, -997327.25, 498485.8, 0.027235242, 10.003397, 9.998889 
2.6548412e+3, 1.5736373e+2, -1360334.6, -1592517.9, -197192.34, -0.17064808, 0.34255975, -1247598.6, 150269.03, 0.0089680515, 10.001223, 9.998181 
2.654485e+3, 1.6735697e+2, -1219468.8, -1261971.4, -144013.92, -0.16499059, 0.35651925, -1095146.6, 204789.06, 0.0015322798, 10.000707, 9.99996 
2.654129e+3, 1.7734967e+2, -1235038.0, -1320962.8, -91618.42, -0.2160734, 0.236458, -1176809.0, 25199.39, 0.00007382683, 10.000211, 9.999216 
2.6537728e+3, 1.8734425e+2, -905291.4, -906610.1, -36537.277, -0.20885833, 0.3004355, -869407.5, 234651.39, 0.000000036839044, 10.001075, 10.000867 
2.6534164e+3, 1.9733919e+2, -739547.56, -942512.7, 37650.184, -0.2257629, 0.32577363, -732788.5, 273316.28, 0.0, 10.00212, 9.999527 
2.6530612e+3, 2.0733215e+2, -881512.44, -987042.2, 41682.97, -0.24373055, 0.33301318, -867034.5, 41138.605, 0.0, 10.000705, 9.9991665 
2.6527062e+3, 2.1732467e+2, -1197339.0, -1180766.0, -65704.766, -0.28937095, 0.26993486, -1122827.3, -312580.56, 0.0, 9.998116, 9.998499 
2.652349e+3, 2.2731745e+2, -888885.75, -847688.6, -231914.45, -0.25665915, 0.259887, -635459.75, 76856.62, 0.0, 9.999067, 9.9996 
2.6519904e+3, 2.3731036e+2, -498229.9, -723961.4, -148584.33, -0.23272768, 0.1933463, -424505.25, 189879.6, 0.0, 10.001465, 9.99868 
2.6516357e+3, 2.4730393e+2, -300113.4, -549096.1, 92411.69, -0.2129109, 0.310588, -269562.78, 246885.17, 0.0, 10.002146, 9.99882 
2.6512828e+3, 2.5729766e+2, -275995.25, -574484.8, 151228.0, -0.18538274, 0.42308742, -212769.06, 205741.31, 0.0, 10.001899, 9.998156 
2.6509267e+3, 2.6728895e+2, -258575.81, -361252.9, 62332.242, -0.26444995, 0.30706087, -229161.94, 91429.484, 0.0, 10.000791, 9.9994135 
2.6505694e+3, 2.7727923e+2, -410779.22, -443348.16, 101089.125, -0.37671176, 0.015107367, -324671.34, -101991.12, 0.0, 9.999214, 9.9990015 
2.6502165e+3, 2.8727293e+2, -224262.27, -102964.76, 131469.28, -0.19437629, 0.02791122, -18829.387, 105911.24, 0.0, 9.999025, 10.000717 
2.6498652e+3, 2.9726875e+2, -112210.16, -52270.418, 56991.508, 0.049108338, 0.14667891, -17849.1, 8933.492, 0.0, 9.999283, 10.000315 
2.6495108e+3, 3.0726334e+2, -41279.94, 151083.92, 34209.133, 0.11204591, 0.13207562, 156986.4, 156986.4, 0.0, 9.99893, 10.001508 
2.649152e+3, 3.1726247e+2, -101981.56, 13432.007, 220298.98, -0.10878389, 0.56480354, 183456.9, 183456.9, 0.0, 9.998776, 10.00067 
2.6659048e+3, 1.2773976e+2, -1449178.5, -1810328.4, 64081.027, -0.08838086, 0.26912528, -1438145.3, 250025.22, 0.07399981, 10.002903, 9.997795 
2.665548e+3, 1.3772821e+2, -1227798.0, -1767847.0, 96073.4, -0.52814865, -0.08464109, -1211216.0, 379068.72, 0.046711504, 10.004187, 9.996922 
2.6651925e+3, 1.4772196e+2, -1127400.3, -1452568.0, -52270.73, -0.3961948, 0.12511039, -1119204.3, 373147.5, 0.022592498, 10.003283, 9.998792 
2.6648375e+3, 1.5771787e+2, -1333266.1, -1558330.6, -75023.18, -0.044255074, 0.43771514, -1310550.5, 83848.164, 0.0071954923, 10.001266, 9.998435 
2.6644808e+3, 1.6771074e+2, -1095195.5, -1124992.1, -3057.6768, -0.060717974, 0.37154052, -1094885.0, 201582.89, 0.001170623, 10.001185, 10.000703 
2.6641235e+3, 1.777026e+2, -1048436.1, -1151727.3, -19102.418, -0.18018572, 0.100154884, -1045016.6, 153527.81, 0.00005271245, 10.001166, 9.9999275 
2.6637676e+3, 1.8769825e+2, -866061.2, -842121.25, -32579.443, -0.20845, 0.21301861, -819382.4, 281202.34, 0.000000014947995, 10.001123, 10.001308 
2.663412e+3, 1.9769533e+2, -1005267.1, -1084935.8, -88305.85, -0.15928224, 0.40890765, -948226.8, 54384.465, 0.0, 10.000383, 9.999396 
2.6630557e+3, 2.0768763e+2, -867974.56, -1110681.1, -65018.996, -0.25205064, 0.41294912, -851654.0, 53035.176, 0.0, 10.001427, 9.997927 
2.6626986e+3, 2.1767816e+2, -782650.6, -1105285.9, -80304.63, -0.36415797, 0.26670477, -763767.75, 43018.43, 0.0, 10.001602, 9.997298 
2.6623428e+3, 2.2767046e+2, -575322.56, -652151.06, -140506.73, -0.21279678, 0.22697881, -468073.5, 240785.2, 0.0, 10.00113, 9.999888 
2.6619878e+3, 2.3766339e+2, -778056.9, -833092.25, -105616.05, 0.054856353, 0.12450434, -696432.56, -85510.29, 0.0, 9.99952, 9.998848 
2.661632e+3, 2.4765731e+2, -533909.5, -524318.2, 14523.463, -0.105454296, 0.19052434, -513819.13, -839.67206, 0.0, 10.00002, 9.999994 
2.6612756e+3, 2.5765163e+2, -558023.75, -624473.1, -47907.336, -0.41628626, 0.22463295, -532947.56, -117913.92, 0.0, 9.999707, 9.998844 
2.6609206e+3, 2.6764524e+2, -452265.5, -394468.9, -166123.64, -0.2794243, 0.2602069, -254748.77, 62342.75, 0.0, 9.999345, 9.999812 
2.6605663e+3, 2.776383e+2, -663759.8, -605821.06, -82267.94, 0.04770355, 0.1796154, -547571.0, -328417.0, 0.0, 9.997792, 9.998533 
2.6602098e+3, 2.876295e+2, -454935.84, -353561.16, 38322.59, -0.14014399, 0.023629598, -340704.6, -219466.13, 0.0, 9.998191, 9.999324 
2.659852e+3, 2.9762068e+2, -402185.2, -295565.4, 1803.8099, -0.60887754, -0.20510113, -295534.9, -272209.97, 0.0, 9.997884, 9.999283 
2.6595044e+3, 3.0761877e+2, 33109.7, 448338.75, -140860.28, 0.22311753, 0.008319543, 491613.47, 491613.47, 0.0, 9.998424, 10.003735 
2.6591465e+3, 3.1761622e+2, -226802.2, -74473.04, 55956.035, 0.052311815, 0.017398879, -56127.72, -56127.72, 0.0, 9.998219, 10.000289 
2.6759064e+3, 1.2809223e+2, -1332368.5, -1384895.3, 100246.39, 0.31034344, 0.19579834, -1255002.3, 429719.1, 0.062782034, 10.002207, 10.00115 
2.6755428e+3, 1.3808648e+2, -1196160.4, -1542781.8, 120686.64, -0.9255662, 0.1005949, -1158279.6, 428490.47, 0.039146993, 10.003532, 9.998784 
2.6751864e+3, 1.4807983e+2, -1227105.3, -1580852.8, -114481.69, -0.70704484, 0.2526005, -1193288.8, 295552.03, 0.018543638, 10.002983, 9.998021 
2.6748332e+3, 1.5807317e+2, -1389414.8, -1639020.4, -84162.66, -0.03612154, 0.37903285, -1363688.3, 27226.803, 0.005710664, 10.00112, 9.997947 
2.6744774e+3, 1.6806628e+2, -1085432.8, -1108517.9, 33452.082, 0.06476914, 0.34305644, -1061587.9, 231392.52, 0.0008890518, 10.001227, 10.000772 
2.6741207e+3, 1.780592e+2, -1034996.3, -1189211.3, 25121.432, -0.058040593, 0.18295713, -1031007.25, 164037.22, 0.000037964888, 10.001448, 9.99952 
2.6737636e+3, 1.8805307e+2, -957668.94, -1062713.8, -49897.36, -0.116352454, 0.23848444, -937745.9, 159360.1, 0.0000000057994387, 10.001265, 9.999725 
2.673407e+3, 1.9804749e+2, -1030404.5, -1170289.3, -81591.6, -0.17235519, 0.31996116, -992880.0, 6283.7134, 0.0, 10.000499, 9.998756 
2.6730514e+3, 2.0804094e+2, -696130.75, -890023.2, 10041.277, -0.2697317, 0.38294712, -695612.1, 205618.08, 0.0, 10.001998, 9.999178 
2.6726958e+3, 2.1803373e+2, -375834.16, -797541.56, -22538.059, -0.4050355, 0.35539776, -374633.03, 428669.63, 0.0, 10.003839, 9.998351 
2.6723382e+3, 2.2802633e+2, -430826.88, -640868.56, -201780.06, -0.28288913, 0.3430867, -308373.4, 396997.06, 0.0, 10.002322, 9.999422 
2.67198e+3, 2.3801883e+2, -771656.25, -908137.0, -128084.58, -0.09998102, 0.27230346, -694767.7, -87330.33, 0.0, 9.999816, 9.998214 
2.6716244e+3, 2.4801002e+2, -714049.94, -823436.94, -1848.3871, -0.20418128, 0.20745035, -714018.75, -204495.38, 0.0, 9.999621, 9.998165 
2.6712692e+3, 2.5800127e+2, -562084.2, -703700.44, -140262.17, -0.4393163, 0.10893055, -475770.53, -64159.85, 0.0, 9.999906, 9.998232 
2.6709133e+3, 2.6799586e+2, -405974.7, -287331.38, -315382.63, -0.31028983, 0.1998949, -25739.865, 287921.03, 0.0, 9.999226, 10.000638 
2.6705575e+3, 2.779911e+2, -513406.97, -402046.06, -208145.25, -0.026526785, 0.26905295, -242262.45, -26559.771, 0.0, 9.998174, 9.999757 
2.6702031e+3, 2.8798354e+2, -424514.5, -267892.84, -36511.07, -0.01763943, 0.13993116, -259799.72, -142026.3, 0.0, 9.998047, 10.0000105 
2.6698476e+3, 2.979752e+2, -379111.5, -337358.06, -40346.906, -0.22357184, -0.07182633, -312806.72, -292953.9, 0.0, 9.99815, 9.998905 
2.6694974e+3, 3.0796924e+2, -195428.97, -171612.45, -288311.16, 0.25976396, 0.039418068, 105036.28, 105036.28, 0.0, 9.998952, 9.999273 
2.669134e+3, 3.1796303e+2, 91062.19, 142916.39, -197589.61, -0.53659236, 0.060578533, 316272.7, 316272.7, 0.0, 9.999895, 10.001037 
2.6859015e+3, 1.2844908e+2, -1187444.5, -1391039.1, 216730.48, 0.13191862, 0.28093278, -1049794.9, 631428.9, 0.05267765, 10.003383, 10.000615 
2.6855418e+3, 1.3844314e+2, -1530415.8, -1698353.3, -3672.5688, -0.6076711, 0.2199349, -1530335.5, 52942.055, 0.03242507, 10.0010395, 9.99892 
2.6851845e+3, 1.484363e+2, -1304494.6, -1561723.9, -158864.06, -0.5155725, 0.2952845, -1228708.9, 256638.58, 0.015032841, 10.002152, 9.998552 
2.6848292e+3, 1.5842895e+2, -995516.2, -1440650.0, -77233.32, -0.040318284, 0.31028208, -982496.56, 404928.1, 0.0044764117, 10.003806, 9.998006 
2.6844728e+3, 1.6842179e+2, -870208.06, -1123330.0, -15201.113, 0.02557516, 0.3176113, -869298.44, 420195.63, 0.00066900725, 10.003254, 9.999685 
2.684116e+3, 1.7841484e+2, -1067077.6, -1298331.4, -119225.336, -0.03400084, 0.26923212, -1016619.4, 174939.89, 0.000027210404, 10.001651, 9.998677 
2.683759e+3, 1.8840781e+2, -1022593.6, -1140472.3, -117673.71, -0.046714105, 0.2790817, -949923.9, 143705.78, 0.000000001728097, 10.001024, 9.999318 
2.6834023e+3, 1.9840105e+2, -1153592.6, -1248881.3, -38492.047, -0.0317348, 0.28433117, -1139986.5, -144287.36, 0.0, 9.999755, 9.998586 
2.683047e+3, 2.0839503e+2, -980258.75, -935105.2, 95560.51, -0.18767893, 0.3505224, -859490.75, 38268.875, 0.0, 9.99965, 10.000007 
2.682692e+3, 2.1838921e+2, -1088770.8, -1121264.1, -24603.955, -0.34361568, 0.39159235, -1075533.4, -275715.97, 0.0, 9.998887, 9.99853 
2.682333e+3, 2.2838186e+2, -774866.44, -863953.7, -249198.84, -0.29665267, 0.3990934, -566261.44, 135622.88, 0.0, 10.000217, 9.998901 
2.681973e+3, 2.3837398e+2, -800093.75, -1052193.3, -146738.16, -0.17625815, 0.34766477, -732699.4, -128744.25, 0.0, 10.000262, 9.997003 
2.6816174e+3, 2.4836335e+2, -783086.75, -982834.9, 95459.516, -0.27468562, 0.21034572, -744803.8, -238743.0, 0.0, 9.999828, 9.996877 
2.6812628e+3, 2.583525e+2, -909377.1, -990649.5, 17268.72, -0.42256963, 0.01709807, -905860.06, -497688.88, 0.0, 9.998153, 9.997068 
2.6809058e+3, 2.6834747e+2, -431637.63, -245231.31, -175755.98, -0.33828822, 0.16853352, -139494.78, 170724.39, 0.0, 9.998882, 10.001055 
2.6805487e+3, 2.783439e+2, -443115.66, -365983.44, -105154.75, -0.12906274, 0.3134587, -292545.7, -80294.04, 0.0, 9.99871, 9.999744 
2.6801968e+3, 2.883374e+2, -183528.16, -98231.164, 9738.918, 0.10283746, 0.26038325, -97133.336, 17178.33, 0.0, 9.999518, 10.0004425 
2.6798448e+3, 2.9833007e+2, -368942.6, -514069.47, -46801.984, 0.25048506, 0.12381398, -355158.63, -338778.3, 0.0, 9.999106, 9.997213 
2.6794896e+3, 3.0831948e+2, -494104.75, -859140.6, -168327.02, 0.21153404, 0.14679001, -428335.0, -428335.0, 0.0, 9.999374, 9.994279 
2.6791242e+3, 3.183114e+2, -138377.03, 236184.67, 119653.8, -0.93359774, 0.36219692, 271145.0, 271145.0, 0.0, 9.997682, 10.002678 
2.6958928e+3, 1.2880835e+2, -1545420.8, -1915119.9, 90026.86, -0.52390605, 0.4897745, -1524663.4, 153036.58, 0.0436191, 10.002475, 9.997252 
2.695545e+3, 1.3879801e+2, -1699627.0, -1938959.9, -27266.08, 0.16475461, 0.25163192, -1696560.0, -116751.89, 0.026486209, 10.000617, 9.997438 
2.6951855e+3, 1.4879137e+2, -1206587.9, -1309695.4, -61354.63, -0.0120902285, 0.2648214, -1178003.1, 303867.78, 0.012009438, 10.001982, 10.00036 
2.694825e+3, 1.587851e+2, -997198.75, -1426266.5, -16655.17, -0.27715433, 0.2452648, -996553.25, 387375.34, 0.003455713, 10.003745, 9.998118 
2.6944667e+3, 1.687768e+2, -1035084.75, -1491175.8, -56421.816, -0.30834696, 0.2968262, -1028208.6, 257806.0, 0.00049606664, 10.003343, 9.997106 
2.694109e+3, 1.7876843e+2, -1109132.6, -1437361.8, -145771.64, -0.3272882, 0.33657295, -1053741.0, 134360.52, 0.00001910138, 10.001852, 9.9976225 
2.6937535e+3, 1.88762e+2, -887840.44, -888953.25, -140130.34, -0.09359037, 0.3199804, -748265.4, 341895.16, 0.0000000002885943, 10.001132, 10.000979 
2.6933983e+3, 1.9875619e+2, -1014536.0, -1062700.3, -25951.275, 0.13241923, 0.27446878, -1003214.5, -11002.471, 0.0, 10.000149, 9.999671 
2.693042e+3, 2.0874976e+2, -1012831.7, -955528.44, 94035.73, -0.05500776, 0.26574644, -885876.25, 8399.044, 0.0, 9.999382, 10.000018 
2.6926848e+3, 2.1874323e+2, -1121959.0, -1125629.8, 1679.3079, -0.3353802, 0.24758245, -1121306.6, -324966.38, 0.0, 9.998551, 9.998662 
2.692327e+3, 2.2873542e+2, -806973.0, -906299.0, -155564.75, -0.28217933, 0.22385213, -693336.25, 5078.0127, 0.0, 10.000069, 9.998704 
2.6919684e+3, 2.3872747e+2, -506897.63, -810456.75, -84019.74, -0.18097594, 0.17781734, -485194.2, 115294.5, 0.0, 10.00178, 9.997938 
2.6916113e+3, 2.4871898e+2, -570523.8, -708283.06, 92509.36, -0.30179456, 0.12619658, -524067.47, -21496.215, 0.0, 10.000477, 9.998491 
2.691255e+3, 2.5871035e+2, -745626.5, -773775.6, 109944.43, -0.47935233, 0.039018486, -648859.44, -244202.94, 0.0, 9.99857, 9.99838 
2.6908988e+3, 2.6870468e+2, -376763.22, -294635.28, -40.892532, -0.35639042, 0.13073337, -294635.28, 12076.853, 0.0, 9.999483, 10.000478 
2.690543e+3, 2.7869964e+2, -183210.36, -350096.84, 57488.496, -0.14603089, 0.23399387, -165323.94, 43437.395, 0.0, 10.000846, 9.998846 
2.6901907e+3, 2.8869194e+2, -8374.346, -259466.02, 96267.016, -0.011159661, 0.24037473, 24285.68, 135127.19, 0.0, 10.001674, 9.9983225 
2.6898384e+3, 2.9868403e+2, 53401.36, -349899.13, -47399.918, 0.073167525, 0.2424146, 58897.38, 71821.125, 0.0, 10.002065, 9.996919 
2.6894832e+3, 3.0867726e+2, -168268.23, -472582.22, -76468.41, 0.17495707, 0.52092856, -150133.81, -150133.81, 0.0, 10.000494, 9.99644 
2.6891214e+3, 3.1866708e+2, -195909.67, 230913.31, 209094.4, -0.39835635, 0.39439753, 316274.22, 316274.22, 0.0, 9.996986, 10.003012 
2.7058908e+3, 1.2916166e+2, -1596078.1, -1938634.9, -76873.82, -0.35150856, 0.32346803, -1579617.8, 94619.805, 0.03554995, 10.001999, 9.997356 
2.705542e+3, 1.391532e+2, -1291891.6, -1744959.9, -49713.88, 0.3260627, 0.29954112, -1286500.9, 289828.34, 0.021269772, 10.003382, 9.997498 
2.7051827e+3, 1.4914617e+2, -1067786.9, -1250055.4, -119050.68, 0.07922567, 0.27066252, -1008992.7, 469402.78, 0.009415533, 10.002908, 10.000372 
2.7048212e+3, 1.5913942e+2, -1254227.6, -1536204.8, -194140.38, -0.3022251, 0.19545622, -1155282.3, 225174.53, 0.0026134893, 10.001865, 9.998295 
2.704463e+3, 1.6913156e+2, -1098686.5, -1498861.0, -90911.52, -0.35110787, 0.25570652, -1079001.6, 203535.86, 0.0003600524, 10.002764, 9.997345 
2.7041054e+3, 1.7912357e+2, -916115.6, -1321518.6, -6454.655, -0.3061307, 0.32417727, -916012.9, 268608.06, 0.000012952271, 10.003099, 9.997811 
2.7037486e+3, 1.89117e+2, -691763.8, -769886.6, -77337.66, -0.10168063, 0.28411233, -644182.8, 442495.94, 0.000000000007316074, 10.0024395, 10.001145 
2.7033925e+3, 1.9911088e+2, -928629.44, -1036731.3, -77798.05, 0.13744903, 0.20184234, -887948.94, 100781.266, 0.0, 10.000835, 9.999526 
2.7030355e+3, 2.0910434e+2, -947060.8, -936187.0, 4480.1045, -0.010708013, 0.18597096, -934579.0, -43784.418, 0.0, 9.999926, 9.999875 
2.702678e+3, 2.1909769e+2, -1182832.1, -1193431.4, -54905.008, -0.22859477, 0.16505896, -1132971.6, -340110.03, 0.0, 9.99837, 9.998266 
2.7023208e+3, 2.2908975e+2, -884596.25, -925741.2, -109021.94, -0.22708535, 0.11563272, -794222.75, -99284.9, 0.0, 9.999554, 9.998749 
2.7019635e+3, 2.390819e+2, -771204.44, -934754.3, -63989.086, -0.1644312, 0.06417459, -749144.2, -152131.44, 0.0, 10.00001, 9.997925 
2.7016056e+3, 2.4907508e+2, -579874.0, -579664.06, -29495.219, -0.29806864, 0.083991945, -550273.6, -51195.773, 0.0, 9.999875, 9.999641 
2.7012476e+3, 2.5906858e+2, -823286.7, -798009.4, -24415.975, -0.44060037, 0.088998765, -783154.8, -382014.63, 0.0, 9.998094, 9.998415 
2.700892e+3, 2.6906222e+2, -485433.1, -414659.9, -54385.27, -0.3271148, 0.13503793, -385162.25, -81959.234, 0.0, 9.999125, 9.999774 
2.7005374e+3, 2.790558e+2, -517344.38, -680285.0, 16407.54, -0.14948587, 0.16016921, -515708.63, -310440.9, 0.0, 9.999409, 9.9972515 
2.700185e+3, 2.8904697e+2, -393241.6, -653582.5, 105665.5, -0.12657529, 0.2299587, -355753.03, -248387.06, 0.0, 10.000066, 9.996344 
2.6998314e+3, 2.9903838e+2, -382120.84, -600244.94, 6833.3726, -0.16106598, 0.33506092, -381907.0, -372445.2, 0.0, 9.999361, 9.996495 
2.6994762e+3, 3.0903652e+2, -153303.02, -100757.07, -104919.75, 0.08735426, 0.88065076, -18870.791, -18870.791, 0.0, 9.999122, 9.999627 
2.6991197e+3, 3.1902036e+2, -309427.06, 41535.61, -59076.85, 0.31040436, -0.107043706, 51213.055, 51213.055, 0.0, 9.996982, 10.001696 
2.7158925e+3, 1.2951118e+2, -1531701.1, -1602125.6, -34851.02, 0.16090207, 0.030985976, -1517370.5, 153442.56, 0.028414978, 10.0012455, 10.000003 
2.7155343e+3, 1.3950852e+2, -1311313.8, -1690237.8, -16612.8, -0.2321553, 0.3427679, -1310586.8, 262256.53, 0.016713178, 10.003032, 9.998012 
2.7151757e+3, 1.4950033e+2, -1227711.3, -1522419.5, -142337.6, -0.27418897, 0.30417076, -1170191.6, 304734.56, 0.0071980846, 10.0027075, 9.998545 
2.7148178e+3, 1.5949166e+2, -1259839.4, -1480014.8, -178205.22, -0.2652847, 0.16670582, -1160460.1, 216551.94, 0.0019202423, 10.001613, 9.998785 
2.7144623e+3, 1.694862e+2, -838477.75, -951492.94, -21987.844, -0.123871095, 0.18470117, -834350.56, 444710.03, 0.00025324232, 10.002758, 10.001101 
2.7141058e+3, 1.7948084e+2, -792824.75, -1123832.3, 28604.39, -0.042608812, 0.20777246, -790371.06, 390736.88, 0.000008369746, 10.003336, 9.999059 
2.7137443e+3, 1.8947268e+2, -827539.25, -1082712.4, -93844.914, -0.19682504, 0.12971945, -796742.75, 286441.5, 0.0, 10.002582, 9.998928 
2.7133828e+3, 1.9946453e+2, -952668.6, -1176807.5, -93970.95, -0.37068608, 0.04915892, -918484.5, 66776.39, 0.0, 10.001211, 9.998385 
2.7130276e+3, 2.0945829e+2, -903613.1, -948585.56, -27823.033, -0.21857235, 0.1234296, -890325.75, -3000.6953, 0.0, 10.000344, 9.999612 
2.712673e+3, 2.1945246e+2, -981381.44, -1031040.56, -62219.52, -0.10120457, 0.20471932, -939220.1, -149834.39, 0.0, 9.999412, 9.998897 
2.712315e+3, 2.294454e+2, -758057.7, -763184.0, -63987.51, -0.20107006, 0.16900818, -696582.0, -5130.4644, 0.0, 9.999927, 9.999728 
2.7119562e+3, 2.3943827e+2, -639232.5, -807434.6, -33970.113, -0.32852647, 0.121324375, -632631.0, -39112.957, 0.0, 10.000564, 9.99854 
2.7115995e+3, 2.494312e+2, -593780.9, -664994.5, -68812.57, -0.294779, 0.15506382, -551908.56, -56319.31, 0.0, 10.000071, 9.998983 
2.7112424e+3, 2.5942436e+2, -664004.3, -746869.94, -78418.73, -0.25902176, 0.19958664, -616745.6, -219086.64, 0.0, 9.999222, 9.99822 
2.7108866e+3, 2.6941726e+2, -468408.53, -496486.56, -94277.05, -0.21059076, 0.22757976, -387130.94, -87402.04, 0.0, 9.999544, 9.999041 
2.7105314e+3, 2.7941012e+2, -393701.78, -538181.6, -47803.32, -0.12676863, 0.23028871, -379317.44, -177517.73, 0.0, 9.999836, 9.9980135 
2.7101794e+3, 2.894022e+2, -384409.53, -455043.13, 82096.19, 0.015553218, 0.2537948, -330355.97, -226471.08, 0.0, 9.999264, 9.998113 
2.7098262e+3, 2.9939464e+2, -382817.53, -400758.25, 65588.36, 0.039174926, 0.30514303, -325588.97, -319621.8, 0.0, 9.998389, 9.99835 
2.7094662e+3, 3.0939183e+2, -180498.75, -14824.957, -59290.008, -0.12868544, 0.65698564, 4206.968, 4206.968, 0.0, 9.998409, 10.000624 
2.7091104e+3, 3.1937954e+2, 41639.793, 128303.54, 62315.594, 0.1394726, 0.03518049, 160872.16, 160872.16, 0.0, 9.999607, 10.001072 
2.7258876e+3, 1.298651e+2, -1482414.1, -1512296.5, 104620.516, 0.1262218, 0.03842423, -1391673.3, 275673.16, 0.022191126, 10.001158, 10.000753 
2.725529e+3, 1.398627e+2, -1271387.9, -1626097.0, -89750.336, -0.41619977, 0.3537746, -1249971.9, 319402.28, 0.012784308, 10.003013, 9.998506 
2.7251714e+3, 1.498551e+2, -1288713.3, -1582465.6, -181217.06, -0.32676855, 0.36573833, -1202325.1, 269127.97, 0.00532732, 10.002368, 9.998334 
2.7248147e+3, 1.5984686e+2, -1307187.6, -1444927.1, -96523.875, -0.084920764, 0.29922804, -1257482.9, 116053.81, 0.0013580795, 10.001035, 9.99932 
2.7244592e+3, 1.6984187e+2, -1007469.75, -875587.56, -68501.82, 0.03113513, 0.24514173, -846445.94, 429131.44, 0.00016970174, 10.000958, 10.002487 
2.7241033e+3, 1.798371e+2, -1144073.6, -1269870.4, -194519.92, 0.10084887, 0.20657475, -1002535.7, 175078.88, 0.0000049540654, 10.000826, 9.999276 
2.72374e+3, 1.898283e+2, -976709.25, -1263442.6, -243526.94, -0.19703002, 0.102686785, -837481.94, 242215.9, 0.0, 10.001987, 9.997973 
2.723377e+3, 1.9981927e+2, -896535.5, -1247856.1, -154071.45, -0.46340632, 0.016852463, -838541.0, 143244.6, 0.0, 10.002044, 9.997486 
2.7230215e+3, 2.0981294e+2, -825860.56, -950094.75, -101772.02, -0.26823944, 0.12207052, -768746.5, 115104.66, 0.0, 10.00111, 9.999199 
2.722667e+3, 2.1980724e+2, -1014103.1, -1056139.0, -100795.29, -0.012547857, 0.24483325, -932157.75, -146247.45, 0.0, 9.999291, 9.998783 
2.722309e+3, 2.2980076e+2, -638018.1, -604704.6, -70001.18, -0.15588768, 0.19740652, -549405.75, 138563.03, 0.0, 10.00039, 10.000576 
2.7219507e+3, 2.397943e+2, -699419.56, -847192.4, -77465.0, -0.3222076, 0.15396354, -666254.5, -76227.16, 0.0, 10.000316, 9.998362 
2.7215934e+3, 2.4978727e+2, -702834.7, -773377.75, -120548.57, -0.24533261, 0.2176669, -612503.5, -120401.984, 0.0, 9.999653, 9.998398 
2.7212366e+3, 2.5978014e+2, -912668.7, -982912.2, -64169.605, -0.116536714, 0.3008409, -874638.0, -480460.66, 0.0, 9.998082, 9.997164 
2.7208808e+3, 2.6977202e+2, -505054.66, -573988.75, -17859.158, -0.1228556, 0.2820498, -500702.56, -204446.39, 0.0, 9.999627, 9.998451 
2.7205256e+3, 2.7976412e+2, -383953.47, -529937.8, 13527.441, -0.08754407, 0.25752872, -382710.53, -184378.0, 0.0, 9.999964, 9.998012 
2.720174e+3, 2.897575e+2, -255717.63, -183241.23, 58722.813, 0.14952962, 0.24970223, -150475.27, -50073.93, 0.0, 9.999283, 9.99994 
2.7198198e+3, 2.997513e+2, -488683.06, -363880.84, 10373.971, 0.1986038, 0.2678125, -363024.4, -360559.06, 0.0, 9.99738, 9.999068 
2.7194563e+3, 3.0974606e+2, -178471.66, 29701.146, -101879.84, -0.33698177, 0.30380723, 71263.23, 71263.23, 0.0, 9.998317, 10.000909 
2.7190998e+3, 3.197418e+2, -287241.3, -136607.53, 236255.03, -0.27616894, 0.4491856, 36045.49, 36045.49, 0.0, 9.997985, 9.999963 
2.7358776e+3, 1.3022153e+2, -1625733.9, -1685986.8, 159905.38, -0.4198747, 0.30148983, -1493141.8, 170714.34, 0.016854003, 10.000754, 9.9996605 
2.7355263e+3, 1.4021584e+2, -1384938.6, -1687557.1, -64225.805, -0.45289096, 0.3293252, -1371872.0, 194047.61, 0.009467282, 10.00232, 9.998382 
2.7351686e+3, 1.5021068e+2, -1236135.8, -1397735.0, -200239.1, -0.21700439, 0.4805148, -1101008.9, 366965.16, 0.0037924994, 10.002087, 9.999711 
2.734811e+3, 1.6020498e+2, -1347448.6, -1466897.3, -93141.7, 0.020056037, 0.56350505, -1296527.6, 73504.31, 0.0009170214, 10.000809, 9.999255 
2.7344534e+3, 1.7019822e+2, -1147271.3, -1116986.5, -50251.543, -0.050734315, 0.45746282, -1079645.5, 192447.86, 0.0001065257, 10.000786, 10.000895 
2.7340958e+3, 1.8019162e+2, -1168317.0, -1286502.0, -171544.05, -0.15781005, 0.36631888, -1045972.75, 128179.586, 0.0000025959862, 10.000692, 9.999214 
2.733737e+3, 1.9018392e+2, -874188.4, -1073772.4, -187144.88, -0.074824564, 0.279884, -761891.6, 314332.3, 0.0, 10.002054, 9.9992695 
2.733378e+3, 2.0017606e+2, -759910.25, -1122095.0, -146455.58, -0.047338188, 0.21507064, -708099.9, 270198.25, 0.0, 10.00269, 9.9980345 
2.7330175e+3, 2.101684e+2, -796444.2, -1007729.06, -140729.33, -0.20420678, 0.22075167, -726117.7, 154255.33, 0.0, 10.001583, 9.998588 
2.732658e+3, 2.2016127e+2, -812549.9, -929503.6, -92782.6, -0.33655667, 0.25013334, -761353.8, 21088.84, 0.0, 10.000489, 9.999077 
2.732304e+3, 2.3015462e+2, -486398.47, -474631.06, -27251.893, -0.15597694, 0.13741702, -452634.97, 231867.03, 0.0, 10.001132, 10.001127 
2.731949e+3, 2.401484e+2, -474649.6, -665889.5, -102337.305, -0.024453247, 0.07085161, -430212.06, 156346.25, 0.0, 10.001478, 9.999046 
2.7315876e+3, 2.501425e+2, -612793.4, -707094.4, -173497.8, -0.19834861, 0.22176422, -480153.28, 8468.196, 0.0, 10.000083, 9.998685 
2.7312267e+3, 2.6013616e+2, -730202.3, -788776.56, -27480.232, -0.35497883, 0.34972683, -719328.5, -328639.78, 0.0, 9.998793, 9.998161 
2.7308738e+3, 2.701264e+2, -341182.34, -429104.72, 102192.35, -0.22635442, 0.10858622, -273896.7, 18881.477, 0.0, 10.000398, 9.99911 
2.7305216e+3, 2.8011703e+2, -59611.914, -298361.88, 89077.914, -0.05312761, -0.1055869, -30039.719, 164824.52, 0.0, 10.001727, 9.998789 
2.7301663e+3, 2.9011256e+2, -129337.19, -129906.17, 24227.18, 0.02106505, 0.104290396, -105392.83, -8479.515, 0.0, 10.000042, 10.000013 
2.7298096e+3, 3.0010846e+2, -340035.63, -252054.13, -11568.902, -0.03513015, 0.33120832, -250558.33, -250558.33, 0.0, 9.99813, 9.99949 
2.7294505e+3, 3.1010053e+2, -103715.99, 17264.64, -82616.81, -0.16863714, 0.116489545, 59168.74, 59168.74, 0.0, 9.9989395, 10.000572 
2.7290946e+3, 3.2009745e+2, -403358.94, -176345.22, -105311.77, 0.07590778, 0.4406057, -135015.45, -135015.45, 0.0, 9.996898, 10.000281 
2.745875e+3, 1.3057655e+2, -1169029.6, -1618156.8, 193303.47, -0.36228853, 0.25146547, -1097291.0, 563085.75, 0.012358423, 10.004448, 9.998379 
2.7455214e+3, 1.4057133e+2, -1585390.3, -1765835.3, -53372.37, -0.437301, 0.45321757, -1570785.6, -8343.927, 0.006744914, 10.0007925, 9.998579 
2.7451643e+3, 1.5056588e+2, -1161075.5, -1241438.5, -171452.72, -0.199037, 0.48508766, -1025158.75, 439337.03, 0.0025850076, 10.002029, 10.000815 
2.744807e+3, 1.6056035e+2, -1001984.7, -1276326.0, -94588.9, 0.0653162, 0.5030429, -972533.44, 394015.25, 0.0005889778, 10.003034, 9.999488 
2.744448e+3, 1.7055365e+2, -1009755.2, -1156679.6, -13582.686, -0.09315802, 0.45192248, -1008510.06, 260101.63, 0.00006228534, 10.00211, 10.000008 
2.7440894e+3, 1.8054685e+2, -1184497.0, -1329360.1, -49990.895, -0.22436601, 0.42875826, -1168920.5, 1755.0256, 0.0000011486238, 10.000727, 9.998904 
2.7437332e+3, 1.9053999e+2, -967439.9, -1041485.2, -89459.85, 0.010235201, 0.3825779, -907644.44, 165095.56, 0.0, 10.001118, 9.999916 
2.7433762e+3, 2.0053297e+2, -997518.25, -1245264.0, -117891.08, 0.20873402, 0.3602679, -950385.9, 24420.15, 0.0, 10.001161, 9.997912 
2.7430132e+3, 2.1052408e+2, -791612.0, -1067579.3, -143932.92, -0.14669102, 0.2780912, -730206.1, 146684.94, 0.0, 10.001886, 9.998025 
2.7426517e+3, 2.2051555e+2, -748016.75, -944806.94, -76027.01, -0.42962614, 0.22256532, -722066.75, 56905.637, 0.0, 10.001178, 9.998626 
2.7422985e+3, 2.3050907e+2, -718744.1, -586251.25, -66986.984, -0.10623662, 0.12359461, -558285.94, 122745.25, 0.0, 9.999593, 10.001068 
2.741945e+3, 2.4050319e+2, -1044024.4, -976684.3, -182388.97, 0.19442672, 0.10128041, -824883.56, -241798.1, 0.0, 9.997766, 9.998703 
2.7415815e+3, 2.5049773e+2, -644274.4, -678725.7, -252726.55, -0.15006909, 0.24799536, -408187.1, 76955.57, 0.0, 9.999717, 9.999034 
2.7412188e+3, 2.6049182e+2, -510049.44, -670171.3, -55168.375, -0.49148768, 0.3794688, -492882.28, -105678.93, 0.0, 10.000357, 9.998194 
2.740867e+3, 2.7048117e+2, -365141.75, -373026.53, 83460.12, -0.30926123, -0.021218546, -285530.97, 3766.4795, 0.0, 10.0000105, 9.999639 
2.740516e+3, 2.804712e+2, -510818.13, -537040.06, -3640.4883, -0.07010721, -0.34319773, -510322.1, -318935.72, 0.0, 9.998845, 9.998504 
2.7401584e+3, 2.9046828e+2, -343938.0, -244915.47, -107275.74, -0.12201965, 0.011473061, -176276.61, -82855.586, 0.0, 9.9987335, 9.999806 
2.739799e+3, 3.0046538e+2, -499753.06, -397963.53, -74109.58, -0.2579979, 0.38263017, -358955.53, -358955.53, 0.0, 9.997464, 9.998788 
2.7394447e+3, 3.1045517e+2, -253634.16, -76531.016, -49029.68, -0.01548961, -0.04878422, -63863.566, -63863.566, 0.0, 9.998152, 10.000231 
2.7390897e+3, 3.2045063e+2, -446161.84, -157570.69, -481638.22, 0.48922738, 0.13184099, 200922.55, 200922.55, 0.0, 9.996639, 10.000476 
2.7558768e+3, 1.3093075e+2, -1398051.0, -1879348.5, 8103.715, -0.11546735, 0.06922703, -1397914.6, 258989.08, 0.00868532, 10.003627, 9.996936 
2.7555153e+3, 1.4092861e+2, -1678919.3, -1834458.9, -59948.65, -0.5830413, 0.66604364, -1658495.5, -99549.83, 0.004592608, 10.000318, 9.998316 
2.7551585e+3, 1.5092044e+2, -1134980.9, -1142757.0, -71214.29, -0.356122, 0.367208, -1067548.5, 393471.94, 0.0016782222, 10.001876, 10.001558 
2.7548024e+3, 1.6091262e+2, -1000071.25, -1222322.4, -71307.94, -0.113932036, 0.094628565, -979160.0, 383930.34, 0.0003582281, 10.002857, 9.999928 
2.7544433e+3, 1.7090784e+2, -1004116.6, -1121969.5, -34936.125, -0.15665081, 0.20651071, -994538.6, 270595.06, 0.000033741435, 10.002035, 10.000265 
2.7540842e+3, 1.80903e+2, -1173036.3, -1320984.0, -40433.254, -0.2423004, 0.36743116, -1162707.1, 4471.5127, 0.00000040337267, 10.000785, 9.998923 
2.7537265e+3, 1.9089635e+2, -996018.0, -1095068.6, -44460.168, -0.16126435, 0.37108204, -978989.06, 90255.305, 0.0, 10.001076, 9.999572 
2.7533686e+3, 2.0088926e+2, -967873.9, -1247722.0, -78621.44, -0.1005817, 0.38253856, -947298.44, 24015.46, 0.0, 10.001394, 9.997796 
2.7530092e+3, 2.1087955e+2, -724530.3, -1053232.4, -77918.16, -0.14513108, 0.23552582, -706995.4, 166412.28, 0.0, 10.002352, 9.997938 
2.75265e+3, 2.2087054e+2, -603902.1, -930931.5, -103093.12, -0.20676962, 0.15783325, -574115.94, 201379.16, 0.0, 10.002373, 9.998141 
2.752292e+3, 2.3086512e+2, -834350.3, -815038.9, -165081.98, -0.12739101, 0.3067356, -659330.44, 18219.732, 0.0, 9.999497, 9.999573 
2.7519342e+3, 2.4085975e+2, -1071346.6, -961801.44, -175017.86, -0.056266855, 0.44490942, -833185.7, -253581.44, 0.0, 9.997374, 9.999012 
2.7515763e+3, 2.508522e+2, -504373.16, -522522.38, -138665.39, -0.08509318, 0.3292718, -374485.75, 107190.18, 0.0, 10.000248, 9.999879 
2.751218e+3, 2.608449e+2, -126772.89, -396497.28, -55517.773, -0.18696615, 0.25538492, -115792.586, 267952.63, 0.0, 10.002527, 9.999036 
2.7508613e+3, 2.708379e+2, -311257.47, -354410.22, -24715.219, -0.30573803, 0.21529289, -300025.56, -14215.047, 0.0, 10.000337, 9.999647 
2.7505058e+3, 2.8083086e+2, -594794.3, -526412.8, -82531.0, -0.3342221, 0.1896168, -471270.63, -283394.8, 0.0, 9.997979, 9.998996 
2.7501503e+3, 2.908248e+2, -413894.16, -276658.1, -151063.05, -0.118137345, 0.23201115, -179359.05, -89423.06, 0.0, 9.9982195, 9.999855 
2.7497926e+3, 3.0081883e+2, -234534.92, -113598.87, -115583.195, -0.10959847, 0.2647783, -43622.055, -43622.055, 0.0, 9.998495, 10.000282 
2.749432e+3, 3.1081066e+2, -69846.79, 198660.4, -42453.5, -0.45376295, -0.12275412, 205212.8, 205212.8, 0.0, 9.998443, 10.00207 
2.7490795e+3, 3.2080805e+2, -211654.23, -255200.97, -436738.3, 0.29442233, 0.1943685, 203853.11, 203853.11, 0.0, 9.998949, 9.998728 
2.7658752e+3, 1.312896e+2, -1191628.4, -1756175.0, -53642.934, -0.057805806, 0.14731531, -1186576.5, 466815.38, 0.005822727, 10.004858, 9.997236 
2.7655113e+3, 1.4128648e+2, -1402084.6, -1678787.8, 45380.414, -0.45832717, 0.67161983, -1394832.1, 160606.7, 0.002969682, 10.002099, 9.998547 
2.7651545e+3, 1.5127821e+2, -991123.4, -1099741.8, 76848.38, -0.36657608, 0.38578844, -951330.7, 506184.9, 0.0010279784, 10.00298, 10.0013275 
2.7647987e+3, 1.6127004e+2, -910116.06, -1214396.6, -36814.977, -0.18767941, 0.11717381, -905725.2, 453864.03, 0.0002033788, 10.003564, 9.999684 
2.7644396e+3, 1.7126468e+2, -897577.4, -1094604.1, -87521.3, -0.14243981, 0.19357426, -864314.94, 397321.72, 0.000016580547, 10.002824, 10.000107 
2.7640802e+3, 1.812596e+2, -1087352.1, -1296560.1, -86100.07, -0.13033153, 0.34523663, -1056474.6, 107208.19, 0.00000009587778, 10.001478, 9.998759 
2.763721e+3, 1.9125266e+2, -1100781.1, -1173841.8, -89173.95, -0.17250912, 0.33885366, -1040945.1, 24806.932, 0.0, 10.00049, 9.999321 
2.763362e+3, 2.0124526e+2, -1269741.9, -1418572.5, -57575.117, -0.18125221, 0.35041687, -1250069.3, -282243.53, 0.0, 9.999448, 9.997572 
2.7630052e+3, 2.1123591e+2, -1033703.4, -1172957.4, -34948.844, -0.08700734, 0.21822688, -1025424.44, -155508.3, 0.0, 10.000155, 9.998157 
2.7626473e+3, 2.2122724e+2, -1006263.3, -1189392.9, -88521.64, -0.0025685264, 0.18217586, -970469.56, -198468.88, 0.0, 9.99998, 9.997507 
2.762285e+3, 2.3122174e+2, -855774.56, -930796.3, -136833.28, -0.1264525, 0.39707792, -751403.75, -77344.1, 0.0, 9.999869, 9.998577 
2.7619243e+3, 2.4121608e+2, -900037.44, -919424.1, 19779.67, -0.18729986, 0.60940033, -887703.6, -311585.2, 0.0, 9.998834, 9.998567 
2.7615708e+3, 2.5120735e+2, -504663.3, -455964.53, 100390.4, -0.005645796, 0.32561898, -377012.78, 101185.39, 0.0, 10.00002, 10.000406 
2.7612162e+3, 2.611993e+2, -507649.66, -615173.8, 46134.38, 0.0820219, 0.15984291, -490568.66, -110296.46, 0.0, 10.000141, 9.998683 
2.760855e+3, 2.7119523e+2, -583747.0, -493310.38, -23892.01, -0.30545086, 0.4272782, -487386.5, -205070.81, 0.0, 9.998633, 9.999474 
2.7604952e+3, 2.811905e+2, -832684.3, -684821.8, -3954.7615, -0.52554744, 0.6660281, -684716.06, -500352.13, 0.0, 9.996626, 9.998559 
2.760143e+3, 2.9118124e+2, -360834.1, -262320.6, -9670.45, -0.059549704, 0.3917218, -261380.3, -174929.97, 0.0, 9.998662, 9.999739 
2.759787e+3, 3.011727e+2, -106371.36, 38360.023, -24038.299, 0.0646947, 0.15931495, 42248.074, 42248.074, 0.0, 9.999103, 10.001007 
2.7594194e+3, 3.111669e+2, -69549.0, 402027.1, -51667.965, -0.9296506, -0.16217965, 407621.72, 407621.72, 0.0, 9.997694, 10.003774 
2.759068e+3, 3.211657e+2, -756960.5, -771999.94, -307748.78, -0.066502415, 0.23125054, -456639.56, -456639.56, 0.0, 9.996563, 9.996243 
2.7758723e+3, 1.3165107e+2, -1279207.1, -1644934.3, -240614.23, -0.24729027, 0.43457142, -1159855.0, 490002.4, 0.0036892195, 10.003721, 9.998475 
2.775509e+3, 1.4164428e+2, -1504143.6, -1756574.6, 46601.41, -0.27668765, 0.47543362, -1495815.3, 56113.324, 0.0018042208, 10.001602, 9.998213 
2.7751517e+3, 1.5163901e+2, -1105440.8, -1278537.4, 148837.63, -0.36009952, 0.57252604, -1019816.94, 434166.38, 0.00058557204, 10.002769, 10.000171 
2.774795e+3, 1.6163279e+2, -989708.3, -1352196.4, -37032.55, -0.33861542, 0.61005276, -985963.7, 370080.66, 0.00010501939, 10.003457, 9.998781 
2.7744362e+3, 1.7162432e+2, -933488.9, -1170180.8, -98359.44, -0.15306698, 0.4318539, -897950.7, 360170.0, 0.0000068884756, 10.0028305, 9.999584 
2.7740768e+3, 1.8161632e+2, -1089428.8, -1316259.4, -122003.93, -0.032128777, 0.34173486, -1036266.75, 123926.51, 0.00000000965895, 10.001566, 9.998569 
2.7737164e+3, 1.9160853e+2, -1114174.0, -1191777.4, -102008.02, -0.02647646, 0.26325563, -1043837.2, 18431.748, 0.0, 10.000432, 9.999237 
2.7733567e+3, 2.0160113e+2, -1234787.3, -1318292.4, -46043.44, -0.07039636, 0.2659804, -1214384.6, -250043.75, 0.0, 9.999342, 9.998289 
2.7729985e+3, 2.1159434e+2, -1023263.4, -1078950.4, 23988.588, -0.10763239, 0.3223863, -1014354.8, -147949.19, 0.0, 9.999863, 9.998936 
2.77264e+3, 2.2158714e+2, -865551.8, -996998.75, -51511.383, -0.14041057, 0.35476965, -847770.8, -79296.99, 0.0, 10.000357, 9.998664 
2.772279e+3, 2.3157853e+2, -679692.8, -751011.0, -57684.145, -0.12438229, 0.18543388, -647535.75, 23018.748, 0.0, 10.0006, 9.999508 
2.771919e+3, 2.415709e+2, -573291.94, -663217.4, 124632.195, -0.12567735, 0.12267356, -485760.0, 86866.164, 0.0, 10.000612, 9.999464 
2.7715644e+3, 2.515654e+2, -426774.5, -432780.03, 205514.28, -0.08473235, 0.17712703, -224241.06, 250437.5, 0.0, 10.000564, 10.000339 
2.7712086e+3, 2.6155955e+2, -490788.34, -573054.75, 81676.766, -0.09948201, 0.24472168, -440471.9, -63736.805, 0.0, 10.000025, 9.999046 
2.7708468e+3, 2.7155262e+2, -621657.44, -523365.13, 5180.213, -0.34653547, 0.25270197, -523092.88, -244287.75, 0.0, 9.998337, 9.999455 
2.7704877e+3, 2.8154588e+2, -642246.8, -503461.22, 163216.05, -0.43456987, 0.27937853, -395498.88, -214626.73, 0.0, 9.997441, 9.999422 
2.770138e+3, 2.9153872e+2, -72579.555, -79855.17, 232854.27, 0.057662036, 0.18199578, 156665.31, 239602.86, 0.0, 10.000282, 10.000277 
2.769783e+3, 3.015317e+2, 223116.48, 104874.57, 56237.473, 0.20729035, 0.10578943, 245591.73, 245591.73, 0.0, 10.00163, 10.00026 
2.7694142e+3, 3.1152493e+2, -227621.78, 92468.92, -147880.5, -0.60454637, -0.11264816, 150329.88, 150329.88, 0.0, 9.99752, 10.001743 
2.769058e+3, 3.2152134e+2, -733057.94, -576909.75, -218458.86, -0.031399827, 0.15890826, -422992.8, -422992.8, 0.0, 9.995781, 9.997968 
2.785869e+3, 1.3200967e+2, -1288766.5, -1414938.4, -332650.97, -0.2527724, 0.5209269, -1013272.3, 633077.75, 0.002170954, 10.002531, 10.000667 
2.785506e+3, 1.4200218e+2, -1240107.9, -1587224.4, -5711.583, -0.21257268, 0.3504934, -1240014.0, 308400.78, 0.0010072378, 10.003091, 9.998725 
2.7851486e+3, 1.5199767e+2, -1166786.3, -1393904.3, 124031.805, -0.2920058, 0.5673609, -1112180.1, 338285.5, 0.00030058212, 10.002576, 9.999552 
2.7847922e+3, 1.619923e+2, -1164851.3, -1397885.5, -14160.109, -0.2514647, 0.7240214, -1163994.0, 188528.2, 0.000046417692, 10.002071, 9.999147 
2.7844334e+3, 1.7198367e+2, -913512.7, -1101773.8, -15668.981, -0.073498055, 0.4798594, -912217.44, 342382.28, 0.0000020738605, 10.002712, 10.000122 
2.7840737e+3, 1.8197516e+2, -911992.94, -1246173.6, 23333.73, 0.07219099, 0.32957765, -910371.56, 246306.1, 0.00000000000031198744, 10.002846, 9.998429 
2.7837127e+3, 1.919674e+2, -768248.25, -1046790.06, -4314.9106, 0.06944396, 0.27751842, -768181.44, 290572.66, 0.0, 10.002942, 9.998997 
2.783352e+3, 2.0196013e+2, -827818.75, -1121816.6, 66749.24, 0.046160627, 0.3222644, -813373.75, 147451.0, 0.0, 10.002181, 9.998262 
2.782993e+3, 2.119536e+2, -810248.6, -938980.94, 85794.68, -0.06845289, 0.37827262, -767359.3, 95526.516, 0.0, 10.001201, 9.999242 
2.782634e+3, 2.2194646e+2, -908874.6, -977533.44, 1064.3984, -0.12578401, 0.3922036, -908858.1, -143907.0, 0.0, 9.999919, 9.998993 
2.7822736e+3, 2.3193628e+2, -641901.56, -655010.75, -42348.73, -0.07637428, -0.008824301, -605603.2, 61437.582, 0.0, 10.000562, 10.000157 
2.7819142e+3, 2.4192776e+2, -659568.75, -734641.6, 116624.49, -0.04480724, -0.19751652, -574588.8, -5471.735, 0.0, 10.00023, 9.999149 
2.781558e+3, 2.5192428e+2, -511334.47, -505435.63, 148013.31, -0.14188921, 0.07980018, -360342.34, 110811.055, 0.0, 10.000225, 9.999976 
2.781201e+3, 2.6191974e+2, -620993.44, -662324.44, -5774.1304, -0.21633773, 0.31856254, -620201.94, -247002.38, 0.0, 9.99939, 9.998691 
2.7808395e+3, 2.7191034e+2, -458970.4, -423195.4, -69704.62, -0.28982753, 0.044200636, -369119.75, -93828.73, 0.0, 9.999448, 9.999565 
2.7804813e+3, 2.8190193e+2, -482993.2, -406205.78, 202342.27, -0.2411166, -0.11066934, -238646.89, -61274.93, 0.0, 9.998564, 9.999522 
2.780133e+3, 2.918969e+2, -242534.44, -90010.734, 299927.22, 0.14993396, -0.06457087, 143198.25, 222615.19, 0.0, 9.998949, 10.000774 
2.7797785e+3, 3.0189174e+2, -323363.88, -354106.25, -33410.316, 0.2609647, 0.07589232, -301958.4, -301958.4, 0.0, 9.9988785, 9.998392 
2.7794096e+3, 3.1188378e+2, -276995.2, -203492.47, -257671.67, -0.1715029, -0.05460941, 20035.543, 20035.543, 0.0, 9.998483, 9.999213 
2.7790487e+3, 3.2187694e+2, -330922.66, -62721.05, -39940.1, -0.011366385, -0.0040047294, -56899.6, -56899.6, 0.0, 9.997331, 10.000743 
2.795865e+3, 1.3236652e+2, -1171209.0, -1043393.25, -279403.47, -0.29240692, 0.5243392, -820682.0, 822176.25, 0.0011673695, 10.002098, 10.003384 
2.7955014e+3, 1.4236054e+2, -1309423.9, -1587331.5, 18008.33, -0.38178235, 0.32523176, -1308261.9, 236632.11, 0.00050489604, 10.002544, 9.998956 
2.7951458e+3, 1.5235427e+2, -1235692.5, -1425016.9, 133075.3, -0.242279, 0.36004803, -1167045.3, 279916.34, 0.00013439951, 10.002159, 9.999506 
2.7947903e+3, 1.6234837e+2, -1119042.0, -1224832.1, 3837.6416, -0.0710374, 0.4266903, -1118903.0, 230120.23, 0.000016423304, 10.001771, 10.000468 
2.7944306e+3, 1.723428e+2, -804377.44, -844862.0, 49810.695, -0.01910434, 0.31314144, -770853.06, 480218.8, 0.0000003300107, 10.002601, 10.001931 
2.79407e+3, 1.823371e+2, -872826.5, -1206997.3, 61992.074, -0.027423443, 0.33062974, -861697.0, 291427.34, 0.0, 10.003012, 9.998625 
2.7937087e+3, 1.9233061e+2, -735855.75, -1087990.8, 51748.676, -0.053204108, 0.45974857, -728408.44, 326784.6, 0.0, 10.003387, 9.998521 
2.793348e+3, 2.023233e+2, -706864.7, -1066502.1, 59335.26, -0.0641129, 0.54400575, -697328.06, 259938.47, 0.0, 10.00304, 9.99821 
2.7929893e+3, 2.1231331e+2, -752139.25, -938285.06, 85005.695, -0.0020487763, 0.2863442, -719162.44, 140195.89, 0.0, 10.001719, 9.999001 
2.7926296e+3, 2.2230425e+2, -758244.8, -896965.9, 31253.64, -0.00084204425, 0.13075335, -751528.56, 9911.798, 0.0, 10.000851, 9.9991045 
2.792268e+3, 2.3229697e+2, -545672.8, -633891.8, 8756.242, -0.11492083, 0.041456345, -544812.1, 118692.42, 0.0, 10.001249, 9.999992 
2.791908e+3, 2.4229002e+2, -514120.53, -712420.0, 117683.75, -0.19918433, 0.04177922, -459386.75, 106181.45, 0.0, 10.001364, 9.99877 
2.7915522e+3, 2.5228354e+2, -466658.06, -590816.1, 139500.48, -0.18374127, 0.120977946, -376047.25, 91588.36, 0.0, 10.000885, 9.99913 
2.791196e+3, 2.6227728e+2, -380924.56, -445835.1, -7787.6865, -0.11748467, 0.20710613, -380003.28, -10304.408, 0.0, 10.000509, 9.999647 
2.790838e+3, 2.7227026e+2, -129933.93, -168633.22, -38318.37, 0.09905358, 0.089482345, -106356.82, 165406.55, 0.0, 10.001192, 10.00051 
2.79048e+3, 2.8226337e+2, -91959.45, -153337.69, 181614.89, 0.20923457, 0.014852157, 61540.984, 235368.1, 0.0, 10.000929, 10.000109 
2.7901238e+3, 2.922571e+2, -299884.78, -127617.43, 230624.19, -0.004220021, -0.045009166, 32432.813, 108319.88, 0.0, 9.998542, 10.000719 
2.789766e+3, 3.0225134e+2, -429813.78, -363542.8, 18973.846, -0.19188434, 0.021041011, -358494.97, -358494.97, 0.0, 9.9978285, 9.998866 
2.789406e+3, 3.1224588e+2, 267757.78, 50041.406, -85670.1, 0.027259521, 0.15735865, 297425.66, 297425.66, 0.0, 10.0020895, 9.999304 
2.789044e+3, 3.222388e+2, 311710.06, 259232.05, -138436.22, 0.121278584, 0.20552695, 426371.97, 426371.97, 0.0, 10.0014925, 10.001015 
2.805863e+3, 1.3272604e+2, -872775.1, -1068344.0, -67516.31, -0.18780921, 0.39619583, -851730.94, 787592.75, 0.0005664125, 10.004723, 10.002003 
2.8054988e+3, 1.42719e+2, -1071008.0, -1492651.8, 39239.367, -0.31634092, 0.20389663, -1067387.4, 473985.94, 0.00022570654, 10.004244, 9.998779 
2.8051424e+3, 1.5271193e+2, -1171121.6, -1387249.3, 129737.08, -0.17078996, 0.1589378, -1110337.9, 333109.06, 0.00005282333, 10.002543, 9.99958 
2.8047863e+3, 1.6270597e+2, -1216835.6, -1215346.3, 34257.32, 0.028339105, 0.19676688, -1181825.5, 163683.13, 0.000004777361, 10.000871, 10.000927 
2.8044257e+3, 1.7270222e+2, -1117303.3, -947556.0, -29206.201, 0.02711411, 0.21128856, -942671.4, 304871.4, 0.00000002399446, 10.000218, 10.002354 
2.804065e+3, 1.8269804e+2, -1297446.6, -1372598.5, -23848.146, -0.010352227, 0.33045802, -1290517.8, -140934.53, 0.0, 9.999967, 9.998947 
2.8037044e+3, 1.9269213e+2, -1040893.4, -1194534.0, 23898.139, -0.08250704, 0.4660704, -1037262.0, 14384.647, 0.0, 10.001132, 9.9988785 
2.8033438e+3, 2.026847e+2, -936814.5, -1215915.1, 72691.85, -0.07937893, 0.5353033, -919016.8, 34704.664, 0.0, 10.001603, 9.997898 
2.8029847e+3, 2.1267334e+2, -802062.1, -993197.4, 61542.504, 0.049272723, 0.15818955, -783960.7, 71865.42, 0.0, 10.001489, 9.998744 
2.8026253e+3, 2.226639e+2, -798151.3, -960822.6, 71241.1, 0.091793075, -0.0022202644, -771363.06, -13450.528, 0.0, 10.000892, 9.998612 
2.802263e+3, 2.3265868e+2, -574136.6, -689076.5, 11949.171, -0.120039865, 0.15099968, -572907.56, 87052.45, 0.0, 10.001334, 9.999551 
2.8019023e+3, 2.4265239e+2, -664742.9, -899372.6, 102971.2, -0.24335277, 0.292419, -625962.1, -63941.723, 0.0, 10.000899, 9.997698 
2.8015468e+3, 2.5264278e+2, -646402.94, -764799.6, 97303.24, -0.16100095, 0.12365809, -591705.0, -127585.78, 0.0, 10.000113, 9.998268 
2.8011912e+3, 2.62635e+2, -581202.1, -536125.3, -9856.91, 0.015593813, 0.11017858, -534064.1, -167867.11, 0.0, 9.999172, 9.999673 
2.8008354e+3, 2.7263036e+2, -218851.31, -137474.73, -64403.46, 0.41685334, 0.1552202, -101983.34, 166252.1, 0.0, 10.000304, 10.001149 
2.8004777e+3, 2.8262514e+2, -258677.05, -279860.2, 49089.8, 0.5221416, 0.21998568, -219049.2, -48766.8, 0.0, 10.000076, 9.999632 
2.8001142e+3, 2.926173e+2, -341976.16, -181703.1, 46604.188, -0.19662271, 0.009462845, -169136.81, -96775.695, 0.0, 9.998494, 10.000349 
2.7997532e+3, 3.0261108e+2, -524237.03, -385863.5, -2122.2336, -0.61819893, 0.046613723, -385830.97, -385830.97, 0.0, 9.997235, 9.99894 
2.7994025e+3, 3.1260842e+2, -122696.61, -58417.7, -3246.3984, 0.16532671, 0.38079724, -58254.156, -58254.156, 0.0, 9.999221, 9.999861 
2.7990377e+3, 3.2260147e+2, 23712.0, 79422.99, -437858.78, 0.018466426, 0.39448902, 490311.44, 490311.44, 0.0, 9.999994, 10.000385 
2.8158623e+3, 1.3308738e+2, -1291581.3, -1734669.3, -77224.76, -0.1453927, 0.26152986, -1278507.8, 357253.8, 0.00024939072, 10.003967, 9.9977455 
2.8154978e+3, 1.4307737e+2, -1194422.0, -1588868.0, 3920.4187, -0.23404105, 0.021714075, -1194383.1, 343472.28, 0.00009135431, 10.0036335, 9.99839 
2.8151384e+3, 1.5307084e+2, -1200736.5, -1340402.1, 97104.84, -0.21113807, -0.022147452, -1150961.8, 288958.25, 0.000018191195, 10.002118, 10.0001 
2.81478e+3, 1.6306524e+2, -1303745.8, -1324695.5, -483.82843, -0.120428, 0.052246887, -1303734.5, 38242.41, 0.000001253609, 10.00059, 10.000312 
2.8144193e+3, 1.7306174e+2, -1234150.3, -1122034.0, -25255.816, -0.049730603, 0.19777125, -1116607.5, 127408.16, 0.0000000065346386, 9.999946, 10.001289 
2.8140587e+3, 1.8305734e+2, -1259930.1, -1203576.8, -5896.4795, -0.050623666, 0.32156187, -1202966.4, -56905.617, 0.0, 9.999627, 10.000237 
2.8136986e+3, 1.9305019e+2, -955478.7, -953225.44, 94372.22, -0.120095946, 0.16620001, -859973.1, 188156.64, 0.0, 10.000871, 10.000654 
2.813339e+3, 2.0304295e+2, -878861.94, -1122731.6, 92733.31, -0.15612413, 0.13067612, -847605.44, 102594.086, 0.0, 10.001708, 9.998478 
2.8129786e+3, 2.1303493e+2, -745631.9, -967137.06, 105075.445, -0.13780516, 0.08899602, -703718.2, 148558.02, 0.0, 10.001832, 9.998775 
2.8126183e+3, 2.2302762e+2, -692684.0, -981943.06, 93789.86, -0.13777652, 0.17189193, -664935.4, 89411.51, 0.0, 10.001895, 9.997988 
2.8122583e+3, 2.3302154e+2, -517312.6, -790758.75, 54277.96, -0.15981236, 0.36051556, -506932.66, 149475.06, 0.0, 10.0022135, 9.998457 
2.811899e+3, 2.4301371e+2, -540140.7, -904043.25, 78491.13, -0.17399904, 0.43851992, -523932.66, 34553.1, 0.0, 10.00197, 9.997151 
2.8115416e+3, 2.530018e+2, -627964.6, -846387.44, 61314.156, -0.12954295, 0.13053152, -611930.06, -151326.36, 0.0, 10.000555, 9.997519 
2.811184e+3, 2.6299268e+2, -488990.34, -520342.2, -927.61646, -0.058919087, 0.033478472, -488962.9, -126269.33, 0.0, 9.9998255, 9.999501 
2.8108263e+3, 2.729885e+2, -193343.44, -203287.17, -50417.95, 0.08599805, 0.19328125, -147652.81, 117079.85, 0.0, 10.000682, 10.000582 
2.8104684e+3, 2.8298354e+2, -168345.22, -283499.88, -21134.719, 0.14858212, 0.33439907, -164588.83, 2192.136, 0.0, 10.000777, 9.999307 
2.8101087e+3, 2.929761e+2, -211346.03, -213533.89, -59083.023, -0.08646728, 0.2528918, -153346.81, -84488.38, 0.0, 9.99967, 9.999629 
2.8097484e+3, 3.0297017e+2, -262644.9, -120651.086, -91467.2, -0.28172955, 0.30770627, -75860.22, -75860.22, 0.0, 9.998353, 10.000233 
2.8093934e+3, 3.1296727e+2, -312599.44, -4059.8945, -60726.695, 0.07699007, 0.50046515, 7462.052, 7462.052, 0.0, 9.99718, 10.001262 
2.8090313e+3, 3.2295915e+2, 169997.75, 6865.4766, -219916.1, -0.058928575, 0.36252385, 322986.78, 322986.78, 0.0, 10.001384, 9.999297 
2.825861e+3, 1.3345e+2, -1176897.9, -1825881.6, -42288.66, -0.09819622, 0.06709172, -1174153.9, 458041.25, 0.00010698354, 10.005352, 9.996467 
2.825495e+3, 1.4344001e+2, -1276194.5, -1617216.8, 174648.81, -0.18378454, -0.041318625, -1202623.1, 331673.03, 0.000035101017, 10.003021, 9.998488 
2.8251356e+3, 1.5343322e+2, -1063192.3, -1272626.3, 205826.14, -0.13556473, -0.088793404, -936976.3, 499386.03, 0.0000055355054, 10.003088, 10.0000925 
2.8247753e+3, 1.6342731e+2, -1040784.3, -1289578.6, 103697.08, -0.06748984, 0.002287645, -1003231.7, 335190.84, 0.0000002527922, 10.002822, 9.999483 
2.8244132e+3, 1.734227e+2, -1003577.25, -1136166.1, 39702.14, -0.107025884, 0.1663833, -992598.06, 247877.17, 0.0, 10.0021305, 10.0001545 
2.824052e+3, 1.8341745e+2, -969698.5, -1091645.3, 87876.07, -0.12383583, 0.2956501, -923714.1, 218816.73, 0.0, 10.001695, 10.000037 
2.8236938e+3, 1.934098e+2, -770778.9, -867776.44, 34505.1, -0.09985354, 0.07983464, -759756.75, 284847.1, 0.0, 10.002093, 10.0006895 
2.8233346e+3, 2.0340271e+2, -854620.4, -1091546.9, -61957.598, -0.09700532, 0.04045729, -839396.4, 107275.0, 0.0, 10.001885, 9.998556 
2.8229734e+3, 2.1339628e+2, -795136.8, -975057.44, -66386.69, -0.1865396, 0.114050776, -773293.5, 75440.11, 0.0, 10.001507, 9.998834 
2.8226128e+3, 2.2338986e+2, -855296.5, -1136051.0, -7126.214, -0.22692001, 0.30314195, -855115.75, -104318.12, 0.0, 10.001157, 9.997264 
2.822254e+3, 2.3338258e+2, -697574.75, -944299.8, -3331.8813, -0.1484892, 0.40804806, -697529.8, -44657.227, 0.0, 10.001338, 9.9977865 
2.821895e+3, 2.433739e+2, -710129.3, -1034683.3, 55138.54, -0.09938372, 0.46303922, -701017.6, -146057.98, 0.0, 10.001117, 9.996642 
2.8215364e+3, 2.5336152e+2, -610437.9, -867446.56, 72607.44, -0.075620405, 0.12088047, -591344.06, -134264.67, 0.0, 10.000874, 9.997202 
2.8211772e+3, 2.6335192e+2, -530349.9, -648319.94, 91627.38, -0.10348038, 0.05093859, -480363.3, -121189.48, 0.0, 10.000139, 9.998419 
2.8208175e+3, 2.7334705e+2, -418870.2, -411448.06, 17748.37, -0.21551168, 0.22002798, -397026.94, -135801.78, 0.0, 9.999683, 9.999573 
2.8204593e+3, 2.8334185e+2, -507764.2, -535916.75, -2028.8456, -0.20009482, 0.44344258, -507618.72, -344338.5, 0.0, 9.998964, 9.998405 
2.8201032e+3, 2.9333484e+2, -396299.6, -352877.06, -17814.729, 0.07516865, 0.436399, -346503.75, -281148.38, 0.0, 9.998725, 9.999084 
2.819744e+3, 3.0332914e+2, -267451.16, -51104.105, -53524.297, 0.08298358, 0.5370147, -38586.445, -38586.445, 0.0, 9.998111, 10.000807 
2.8193825e+3, 3.133254e+2, -209824.89, 178990.47, -91756.195, -0.08568855, 0.51465625, 199556.14, 199556.14, 0.0, 9.9974, 10.002384 
2.8190264e+3, 3.2331574e+2, -189992.0, -233117.98, 245426.81, -0.10477595, 0.17225648, 34817.25, 34817.25, 0.0, 9.999422, 9.998514 
2.8358588e+3, 1.338143e+2, -1310538.3, -1800255.3, -220477.39, -0.20720948, -0.03963304, -1225903.3, 402714.28, 0.00005052783, 10.004119, 9.997209 
2.835491e+3, 1.438063e+2, -1379940.4, -1694183.3, 170093.0, -0.28763255, 0.006794581, -1305504.5, 225197.3, 0.000015386415, 10.002492, 9.99818 
2.835133e+3, 1.53799e+2, -1181261.9, -1403265.5, 242510.25, -0.069668144, -0.043582354, -1025556.75, 407218.0, 0.0000020566958, 10.002645, 9.999386 
2.8347728e+3, 1.63792e+2, -1166433.6, -1477108.1, 84913.11, -0.012792734, 0.03297882, -1144740.0, 190106.9, 0.00000005936716, 10.002532, 9.998315 
2.834407e+3, 1.7378473e+2, -1101041.4, -1344480.0, 53338.52, -0.317632, 0.06132901, -1089867.5, 147057.39, 0.0, 10.00214, 9.998717 
2.8340453e+3, 1.8377824e+2, -1073103.9, -1373148.9, 107129.234, -0.4015702, 0.23622514, -1038780.4, 100215.19, 0.0, 10.001961, 9.99799 
2.83369e+3, 1.9377191e+2, -900633.06, -1192719.0, 67041.45, -0.1229576, 0.3856714, -885980.3, 155084.1, 0.0, 10.00231, 9.998365 
2.833332e+3, 2.0376495e+2, -788936.1, -1033720.5, -103257.38, 0.018273164, 0.48087224, -751197.3, 191937.25, 0.0, 10.002231, 9.998785 
2.83297e+3, 2.1375637e+2, -718609.56, -905475.3, -81573.09, -0.08896099, 0.31918466, -688010.7, 157202.83, 0.0, 10.001864, 9.999159 
2.8326085e+3, 2.2374773e+2, -705037.9, -955202.8, -29543.584, -0.1693034, 0.22664565, -701596.25, 45698.516, 0.0, 10.001691, 9.998255 
2.832249e+3, 2.3373838e+2, -598971.9, -831120.75, 7403.164, -0.1801868, 0.06396663, -598736.06, 50649.38, 0.0, 10.001664, 9.998441 
2.83189e+3, 2.4373057e+2, -485502.1, -717212.56, 73228.086, -0.14482714, 0.09025432, -464299.72, 87160.734, 0.0, 10.001701, 9.998553 
2.8315324e+3, 2.537242e+2, -330704.47, -558478.6, 147511.75, -0.011376596, 0.19658908, -258231.72, 195288.95, 0.0, 10.001955, 9.998838 
2.8311735e+3, 2.637168e+2, -406720.94, -708832.1, 125286.81, 0.043537457, 0.30204043, -361525.22, -5930.162, 0.0, 10.001448, 9.997382 
2.8308126e+3, 2.73708e+2, -532972.9, -696143.4, 24124.695, -0.045790777, 0.29511845, -529480.75, -271790.44, 0.0, 9.999841, 9.997562 
2.8304535e+3, 2.8370014e+2, -441475.4, -387581.34, 60533.734, -0.04992473, 0.3218799, -348267.72, -188496.11, 0.0, 9.998842, 9.999502 
2.830096e+3, 2.93693e+2, -258445.14, -191091.98, 92710.25, 0.0670076, 0.22907537, -126131.33, -64291.676, 0.0, 9.999153, 10.000027 
2.8297368e+3, 3.0368736e+2, -128020.44, -99028.66, 57756.484, 0.05846119, 0.32970598, -53976.734, -53976.734, 0.0, 9.999441, 9.999873 
2.8293774e+3, 3.13684e+2, 15776.684, 54751.332, -66016.83, 0.116876185, 0.5459643, 104096.98, 104096.98, 0.0, 9.999797, 10.000437 
2.8290176e+3, 3.2367402e+2, -224199.33, -111265.56, 246894.89, -0.24079981, 0.2395223, 85537.36, 85537.36, 0.0, 9.998379, 9.999947 
2.8458554e+3, 1.3417807e+2, -1519799.9, -1694881.3, -340313.6, -0.14879307, -0.024158884, -1255948.0, 369110.38, 0.000026717622, 10.001593, 9.999252 
2.845488e+3, 1.4417166e+2, -1269555.3, -1666982.6, 91436.56, -0.2299483, 0.095704645, -1249527.6, 277592.94, 0.000008259606, 10.003299, 9.998002 
2.8451294e+3, 1.5416391e+2, -1142163.6, -1484185.1, 100722.695, -0.07447276, 0.07312072, -1114705.9, 314495.84, 0.0000013335809, 10.0032625, 9.998562 
2.8447685e+3, 1.6415617e+2, -1087215.9, -1491965.4, -15073.559, -0.04887232, 0.13055553, -1086655.4, 244626.36, 0.000000073245815, 10.003296, 9.997845 
2.8444028e+3, 1.7414764e+2, -941289.94, -1345159.9, -9208.399, -0.35715443, 0.08491472, -941080.1, 292288.78, 0.0, 10.00356, 9.998037 
2.8440413e+3, 1.8414003e+2, -928091.2, -1389258.1, 164659.83, -0.42677632, 0.22314326, -875334.56, 260114.6, 0.0, 10.003362, 9.997183 
2.8436863e+3, 1.9413327e+2, -885657.1, -1306603.6, 196663.48, -0.10727186, 0.41878128, -808075.7, 229448.94, 0.0, 10.002952, 9.997256 
2.8433284e+3, 2.041261e+2, -781374.8, -1025731.75, 84107.086, 0.072300375, 0.5727108, -755224.0, 184374.36, 0.0, 10.002265, 9.998831 
2.842966e+3, 2.1411735e+2, -815774.8, -944678.94, 55433.836, 0.008995549, 0.3823626, -795215.25, 46463.707, 0.0, 10.001199, 9.999197 
2.8426045e+3, 2.2410785e+2, -841852.3, -987581.3, 134410.3, -0.06507075, 0.2087228, -761826.75, -18059.271, 0.0, 10.000639, 9.99855 
2.8422445e+3, 2.3409699e+2, -650400.5, -826046.6, 113696.555, -0.14352459, -0.14641482, -594558.0, 51312.414, 0.0, 10.001204, 9.998712 
2.8418854e+3, 2.4408971e+2, -454489.7, -607146.4, 142196.27, -0.1395893, -0.10625599, -369430.94, 178507.33, 0.0, 10.001556, 9.999389 
2.8415284e+3, 2.5408694e+2, -318290.75, -447287.25, 101756.164, 0.043172684, 0.24335022, -262313.53, 187648.81, 0.0, 10.001661, 9.999739 
2.8411698e+3, 2.640809e+2, -532296.7, -901369.4, 25358.8, 0.15532643, 0.494783, -530562.44, -178537.8, 0.0, 10.001274, 9.9960985 
2.8408083e+3, 2.7406922e+2, -548414.25, -874605.8, -3543.493, 0.14968807, 0.3114501, -548375.8, -294224.0, 0.0, 10.000575, 9.995942 
2.8404477e+3, 2.8405938e+2, -293533.25, -261341.34, 112176.54, 0.108862884, 0.21650703, -164111.84, -7860.618, 0.0, 9.9997015, 9.99993 
2.8400883e+3, 2.940518e+2, -250129.66, -119296.78, 73245.4, 0.016688865, -0.013095232, -86508.336, -28192.506, 0.0, 9.9990015, 10.000574 
2.839729e+3, 3.040462e+2, -387568.4, -439492.5, 17871.332, -0.041476738, 0.15056512, -382012.0, -382012.0, 0.0, 9.998748, 9.997809 
2.8393728e+3, 3.1404266e+2, -296647.84, -365826.53, -73416.2, 0.30431116, 0.5475679, -250080.78, -250080.78, 0.0, 9.998979, 9.997875 
2.8390065e+3, 3.2403263e+2, -164154.56, 183938.5, 148733.86, -0.6062312, 0.22966574, 238832.92, 238832.92, 0.0, 9.997914, 10.002069 
2.8558505e+3, 1.3454142e+2, -1418318.9, -1282238.1, -248473.64, -0.15672778, 0.11462788, -1092657.4, 528853.9, 0.000013313982, 10.000799, 10.002445 
2.8554854e+3, 1.4453632e+2, -1409487.9, -1813931.5, 102012.96, -0.20617941, 0.23783073, -1385214.0, 138335.94, 0.0000038169696, 10.002736, 9.997235 
2.8551242e+3, 1.545281e+2, -1286084.8, -1684707.6, 134060.95, -0.29376853, 0.25813606, -1245193.4, 180448.34, 0.0000005153316, 10.00287, 9.997362 
2.8547636e+3, 1.6452016e+2, -1068666.0, -1428693.3, -6052.637, -0.27595374, 0.3402287, -1068564.4, 259159.63, 0.00000002542409, 10.003218, 9.9983015 
2.8544012e+3, 1.7451213e+2, -924444.3, -1297520.8, 38336.848, -0.28298146, 0.30048278, -920545.6, 309254.5, 0.0, 10.003529, 9.998368 
2.8540403e+3, 1.8450321e+2, -810331.5, -1193372.1, 175771.1, -0.2928009, 0.23880206, -741898.94, 389987.25, 0.0, 10.003585, 9.998406 
2.853682e+3, 1.9449295e+2, -778936.9, -1129473.1, 247327.23, -0.23742661, -0.020614943, -651071.9, 382915.28, 0.0, 10.003124, 9.998395 
2.8533223e+3, 2.0448552e+2, -756653.6, -1007705.06, 89037.555, -0.16386287, 0.04386981, -728282.0, 207779.31, 0.0, 10.002391, 9.998886 
2.8529602e+3, 2.1448046e+2, -813669.3, -968349.7, 89024.92, -0.091367126, 0.25535202, -773081.8, 65030.68, 0.0, 10.001279, 9.999001 
2.8525996e+3, 2.244736e+2, -784736.6, -979798.3, 217631.63, -0.051194355, 0.3689342, -643781.0, 96399.19, 0.0, 10.001095, 9.998376 
2.8522405e+3, 2.3446412e+2, -567524.5, -825363.5, 219575.33, -0.08092295, 0.2093791, -441819.66, 200453.06, 0.0, 10.001866, 9.998413 
2.8518817e+3, 2.444553e+2, -411738.75, -727988.5, 178401.64, -0.10493487, 0.16419601, -331471.88, 212885.92, 0.0, 10.002374, 9.998193 
2.851523e+3, 2.5444722e+2, -295125.0, -597755.1, 117113.3, -0.11334118, 0.15429534, -255098.03, 191335.88, 0.0, 10.002414, 9.998381 
2.8511634e+3, 2.6443958e+2, -290052.84, -635665.25, 2862.1396, -0.058618132, 0.24632165, -290029.16, 58482.18, 0.0, 10.002223, 9.997495 
2.8508028e+3, 2.744314e+2, -201608.22, -541415.7, 44960.01, 0.04306988, 0.3058226, -195760.19, 54840.168, 0.0, 10.002153, 9.997504 
2.8504425e+3, 2.8442305e+2, -115340.164, -333719.3, 125509.64, 0.079716586, 0.33466357, -58171.594, 94513.8, 0.0, 10.0015, 9.998609 
2.850082e+3, 2.944145e+2, -208403.52, -299068.16, 25368.348, 0.00093051296, 0.21804716, -201788.05, -147022.94, 0.0, 10.000065, 9.998864 
2.8497207e+3, 3.0440715e+2, -327245.78, -534267.3, 9937.467, -0.15844539, 0.3401107, -326769.88, -326769.88, 0.0, 9.999566, 9.996822 
2.8493622e+3, 3.1440103e+2, -164280.36, -430796.7, -44757.832, -0.09723576, 0.6176903, -156964.69, -156964.69, 0.0, 10.000309, 9.996856 
2.8490016e+3, 3.243911e+2, 168624.63, 316567.47, 12804.624, -0.4435716, 0.38289496, 317667.53, 317667.53, 0.0, 10.000034, 10.002088 
2.865844e+3, 1.3490273e+2, -1419490.3, -1231662.1, -88507.414, -0.23844342, 0.1286694, -1196528.1, 421448.2, 0.0000059672334, 10.000477, 10.002979 
2.8654826e+3, 1.4489773e+2, -1224804.5, -1722736.6, -57071.6, -0.15403622, 0.24795958, -1218346.9, 301663.06, 0.0000015122073, 10.003961, 9.997289 
2.8651205e+3, 1.5488935e+2, -1413271.5, -1754774.4, 7090.7905, -0.30178627, 0.2437515, -1413124.3, 8979.699, 0.0000000966577, 10.001991, 9.997317 
2.8647596e+3, 1.6488154e+2, -1287217.1, -1475748.6, -20620.166, -0.27818373, 0.3075039, -1284988.3, 39195.855, 0.00000000026919006, 10.001433, 9.998861 
2.8643984e+3, 1.7487432e+2, -1097744.9, -1335426.3, 4038.7324, -0.18947811, 0.29856673, -1097676.3, 128573.61, 0.0, 10.002106, 9.998814 
2.8640378e+3, 1.8486565e+2, -994221.06, -1248703.5, 98235.22, -0.18531674, 0.22423524, -960712.5, 167619.47, 0.0, 10.002254, 9.998649 
2.8636783e+3, 1.9485486e+2, -967265.9, -1185194.8, 55355.867, -0.21614009, -0.1229957, -954011.2, 76425.46, 0.0, 10.001781, 9.998621 
2.8633174e+3, 2.0484729e+2, -848951.4, -1066638.1, -102341.055, -0.19699669, -0.09558442, -808394.0, 124117.17, 0.0, 10.001787, 9.9988 
2.862955e+3, 2.1484292e+2, -741169.5, -970329.5, -98516.21, -0.10177249, 0.17455257, -704640.2, 129916.51, 0.0, 10.001886, 9.998735 
2.8625947e+3, 2.2483726e+2, -680524.6, -965033.56, 125367.96, -0.03925937, 0.42674357, -633165.1, 103449.59, 0.0, 10.002004, 9.998006 
2.8622368e+3, 2.3482947e+2, -573518.1, -873978.4, 115291.59, -0.006520536, 0.433327, -534377.6, 104315.81, 0.0, 10.002125, 9.997902 
2.861878e+3, 2.4481997e+2, -583997.3, -900291.56, 120812.04, -0.054873824, 0.3836001, -543131.75, -2345.4568, 0.0, 10.001738, 9.997213 
2.861518e+3, 2.5480786e+2, -644825.9, -906697.9, 114884.02, -0.18290278, 0.038358327, -601570.7, -158668.92, 0.0, 10.000735, 9.996994 
2.8611574e+3, 2.6479918e+2, -452364.8, -614745.25, 30139.4, -0.18657602, 0.06962036, -446951.13, -101962.84, 0.0, 10.000746, 9.998321 
2.8607976e+3, 2.747937e+2, -254215.7, -471405.7, 2183.5496, -0.03006502, 0.2685259, -254193.75, -7145.8853, 0.0, 10.001419, 9.998333 
2.860437e+3, 2.8478682e+2, -267731.63, -562142.44, 46210.863, 0.041940197, 0.46887437, -260648.75, -111529.39, 0.0, 10.001269, 9.997094 
2.8600755e+3, 2.9477763e+2, -356725.13, -579245.56, 24022.725, -0.005583957, 0.43195957, -354161.22, -302949.66, 0.0, 10.000061, 9.996906 
2.8597125e+3, 3.0476868e+2, -375044.8, -623196.0, 154425.88, -0.2851831, 0.5465898, -301024.22, -301024.22, 0.0, 9.9996605, 9.996105 
2.8593516e+3, 3.1476024e+2, -385331.56, -646234.56, 157501.69, -0.57609725, 0.629427, -311272.97, -311272.97, 0.0, 9.999402, 9.995758 
2.858999e+3, 3.2475004e+2, -106658.15, 220301.9, 181619.64, -0.059000675, 0.39889416, 301181.06, 301181.06, 0.0, 9.998204, 10.00222 
2.8758362e+3, 1.3526274e+2, -1564020.3, -1439307.1, 203000.56, -0.4831441, 0.15677418, -1289301.9, 325147.3, 0.0000021514043, 10.000159, 10.001679 
2.8754804e+3, 1.4525653e+2, -1246372.3, -1604616.1, -114199.836, -0.16706364, 0.17212008, -1213064.8, 303429.3, 0.00000043033984, 10.003303, 9.998396 
2.8751168e+3, 1.5524767e+2, -1447118.6, -1666881.8, -33164.14, -0.2330954, 0.017684862, -1442223.0, -23634.68, 0.000000019645139, 10.001335, 9.998235 
2.8747553e+3, 1.652401e+2, -1303733.4, -1409718.0, 2537.7222, -0.19661155, 0.024944691, -1303672.8, 16991.262, 0.0, 10.001035, 9.999491 
2.8743938e+3, 1.7523366e+2, -1127135.0, -1313456.3, 62852.125, -0.2513274, 0.051798277, -1107915.5, 114807.164, 0.0, 10.001752, 9.999136 
2.8740337e+3, 1.8522719e+2, -1098756.0, -1436184.5, 70316.98, -0.21878964, 0.2420504, -1084689.0, 40100.684, 0.0, 10.002098, 9.997442 
2.8736758e+3, 1.952199e+2, -1082797.6, -1399586.1, 48951.203, -0.076871775, 0.38222173, -1075406.0, -48534.383, 0.0, 10.001622, 9.9972515 
2.8733143e+3, 2.0521174e+2, -777469.5, -941902.75, -111501.78, -0.0644812, 0.3752131, -721150.1, 207802.86, 0.0, 10.00193, 9.9995575 
2.8729504e+3, 2.1520278e+2, -602043.44, -843990.44, -71314.95, -0.19841892, 0.13816096, -582587.56, 248447.83, 0.0, 10.00257, 9.999272 
2.8725898e+3, 2.2519533e+2, -511772.03, -853089.44, 108731.766, -0.22063102, 0.1673465, -480077.1, 253030.22, 0.0, 10.002993, 9.99831 
2.8722325e+3, 2.3518874e+2, -409485.66, -770033.75, 114450.23, -0.14773802, 0.2898443, -376223.78, 258950.94, 0.0, 10.003075, 9.998187 
2.8718737e+3, 2.4518074e+2, -405785.7, -675788.44, 63451.766, -0.06018509, 0.30869475, -391617.72, 145633.69, 0.0, 10.002292, 9.998524 
2.8715143e+3, 2.551708e+2, -537630.4, -727901.7, 107724.05, -0.0006569991, 0.09415263, -489046.63, -49703.477, 0.0, 10.000818, 9.998226 
2.871154e+3, 2.6516208e+2, -489307.44, -732173.5, 109932.016, -0.003608753, 0.09868174, -446938.7, -105508.195, 0.0, 10.000831, 9.997504 
2.8707933e+3, 2.7515444e+2, -189779.8, -543874.2, 46356.133, -0.04606976, 0.20785478, -183811.69, 59701.707, 0.0, 10.002207, 9.997484 
2.8704318e+3, 2.851474e+2, 22706.674, -213950.0, 19693.893, -0.032039717, 0.32957488, 24334.35, 169921.28, 0.0, 10.002306, 9.999003 
2.87007e+3, 2.9514015e+2, -1968.1461, -214773.48, 90583.24, -0.0297881, 0.33726534, 31367.695, 79026.74, 0.0, 10.001554, 9.998723 
2.8697085e+3, 3.0513337e+2, 36933.832, -148853.72, 335708.9, -0.17364137, 0.4622559, 292364.22, 292364.22, 0.0, 10.001204, 9.9986515 
2.8693488e+3, 3.151273e+2, 80703.49, -139260.88, 414712.7, -0.2875556, 0.6064211, 399769.9, 399769.9, 0.0, 10.001261, 9.998389 
2.8689897e+3, 3.2511762e+2, -131981.27, 176040.64, 291838.22, -0.17862257, 0.3380332, 352012.9, 352012.9, 0.0, 9.997984, 10.002071 
2.885833e+3, 1.356253e+2, -1167540.4, -1283702.4, 304810.16, -0.38056335, 0.29183453, -915326.94, 695568.8, 0.00000033823923, 10.002909, 10.001444 
2.8854755e+3, 1.4561613e+2, -1463712.0, -1628676.6, -45922.395, -0.22619738, 0.004088811, -1451789.9, 61181.016, 0.000000039050374, 10.001396, 9.99917 
2.8851125e+3, 1.5560986e+2, -1356740.5, -1564363.6, -7135.961, -0.15088396, 0.0657037, -1356495.5, 58543.063, 0.0000000006124831, 10.001645, 9.998819 
2.884751e+3, 1.6560242e+2, -1204167.6, -1396173.9, 61254.22, -0.12928434, 0.078663796, -1186290.6, 130821.85, 0.0, 10.001866, 9.999153 
2.884389e+3, 1.7559427e+2, -1109340.9, -1349420.0, 25980.715, -0.27476537, -0.046628702, -1106561.5, 112627.42, 0.0, 10.00204, 9.998735 
2.8840294e+3, 1.8558829e+2, -1092597.6, -1389099.0, 78214.91, -0.20628692, 0.18486664, -1073230.1, 48022.242, 0.0, 10.001993, 9.997817 
2.8836727e+3, 1.9558345e+2, -1085996.5, -1380768.5, 156288.92, 0.11402162, 0.542058, -1018559.6, 4752.2427, 0.0, 10.001536, 9.99744 
2.8833115e+3, 2.0557533e+2, -831827.94, -991702.5, 88894.21, 0.0941689, 0.5609461, -792215.44, 133178.66, 0.0, 10.001742, 9.99929 
2.8829464e+3, 2.1556415e+2, -674020.6, -921743.0, 25202.775, -0.18112397, 0.13176791, -671482.56, 156015.11, 0.0, 10.002359, 9.998816 
2.8825855e+3, 2.2555569e+2, -624676.06, -868780.0, 150079.27, -0.2836996, 0.07804612, -553284.3, 176294.55, 0.0, 10.0021305, 9.9986105 
2.882228e+3, 2.355494e+2, -736281.06, -919230.7, 130793.53, -0.20299189, 0.20034221, -668148.25, -36505.39, 0.0, 10.000896, 9.998205 
2.8818697e+3, 2.4554244e+2, -553941.1, -649215.0, 64121.516, -0.02475974, 0.28511894, -521697.88, 12010.785, 0.0, 10.000888, 9.999392 
2.881511e+3, 2.5553438e+2, -507200.75, -653501.8, 57688.875, 0.22003235, 0.15759082, -487190.1, -51409.34, 0.0, 10.000847, 9.998723 
2.8811502e+3, 2.6552582e+2, -551435.1, -813718.1, 162923.56, 0.16389777, 0.18155004, -473430.34, -135564.4, 0.0, 10.000736, 9.996953 
2.880788e+3, 2.7551624e+2, -575198.06, -824272.94, 164515.64, -0.073493995, 0.13894475, -493398.47, -253430.4, 0.0, 10.000073, 9.996563 
2.8804266e+3, 2.8550884e+2, -176739.4, -140800.56, 70150.9, -0.11335275, 0.20716995, -86354.19, 55690.242, 0.0, 10.00028, 10.000446 
2.8800648e+3, 2.9550284e+2, -160664.3, -159842.53, 49162.215, -0.0070156977, 0.1708723, -111089.484, -66985.95, 0.0, 9.999992, 9.999827 
2.8797054e+3, 3.0549866e+2, -4197.0166, 108248.26, 218050.73, 0.031240115, 0.37116152, 277208.0, 277208.0, 0.0, 9.999859, 10.001037 
2.8793484e+3, 3.1549573e+2, -171202.69, -66735.71, 233434.88, 0.18498391, 0.56693256, 120238.19, 120238.19, 0.0, 9.998817, 10.0000515 
2.8789777e+3, 3.254863e+2, -337918.13, 16510.53, -57638.414, -0.54899925, 0.17350051, 25648.3, 25648.3, 0.0, 9.997154, 10.001235 
2.8958318e+3, 1.3598925e+2, -1293587.1, -1288334.8, 125537.87, -0.21747899, 0.4999212, -1165395.6, 441932.53, 0.0000000028010363, 10.001886, 10.001883 
2.895468e+3, 1.4597648e+2, -1505339.4, -1595434.3, -32294.334, -0.4531931, -0.19125573, -1494959.4, 14481.699, 0.0, 10.000932, 9.999591 
2.8951076e+3, 1.5597603e+2, -1412532.0, -1568426.6, 35722.742, -0.21805865, 0.40675053, -1404736.1, 6717.5146, 0.0, 10.001181, 9.999007 
2.8947464e+3, 1.659684e+2, -1308532.1, -1574735.6, 74309.336, -0.19255245, 0.44886604, -1289193.9, 24337.264, 0.0, 10.001704, 9.997999 
2.8943837e+3, 1.75956e+2, -1188383.9, -1490540.8, 54948.008, -0.42805922, 0.020582773, -1178701.8, 36949.836, 0.0, 10.001933, 9.997821 
2.8940246e+3, 1.8594833e+2, -880908.44, -974613.2, 69099.01, -0.27819434, -0.027243128, -844275.4, 273448.94, 0.0, 10.002071, 10.00063 
2.8936684e+3, 1.959437e+2, -905450.1, -1029489.0, 190596.88, 0.13808805, 0.09191294, -767036.06, 252731.31, 0.0, 10.001584, 9.999849 
2.8933078e+3, 2.0593709e+2, -915627.5, -1225159.0, 144409.52, 0.16959493, 0.24378137, -858717.7, 63118.94, 0.0, 10.001963, 9.997585 
2.892944e+3, 2.1592854e+2, -698572.1, -1094434.0, 103733.54, -0.11158805, 0.25991914, -673036.5, 150891.73, 0.0, 10.002811, 9.997432 
2.8925824e+3, 2.2592077e+2, -557997.56, -808978.6, 115046.94, -0.22818998, 0.31852803, -513242.2, 212765.39, 0.0, 10.002422, 9.998894 
2.8922218e+3, 2.359136e+2, -686968.75, -850211.2, 126915.21, -0.2479186, 0.34608576, -617694.4, 10383.689, 0.0, 10.000945, 9.998683 
2.891864e+3, 2.4590614e+2, -535600.5, -658693.25, 121893.68, -0.07113752, 0.35904327, -460596.4, 69553.65, 0.0, 10.001014, 9.999294 
2.891506e+3, 2.55898e+2, -303082.2, -532101.0, 105421.984, 0.19489284, 0.2558816, -261943.92, 170283.4, 0.0, 10.002035, 9.999021 
2.8911445e+3, 2.6589045e+2, -271436.5, -419428.75, 146498.52, 0.09966734, 0.2383922, -181306.94, 152990.81, 0.0, 10.001496, 9.99931 
2.8907803e+3, 2.7588278e+2, -419391.5, -508949.1, 225658.23, -0.2526472, 0.19559127, -234112.1, 2257.2358, 0.0, 10.00003, 9.998763 
2.890419e+3, 2.8587466e+2, -411135.75, -509961.2, 168102.08, -0.18014677, 0.21278189, -285334.53, -146882.44, 0.0, 9.999665, 9.998244 
2.8900605e+3, 2.9586628e+2, -246713.48, -395848.53, 68910.99, 0.1703315, 0.18291703, -219747.56, -179206.13, 0.0, 10.000131, 9.998167 
2.8897017e+3, 3.0586106e+2, -68742.86, -8938.473, 103597.55, 0.33812314, 0.37953347, 68986.016, 68986.016, 0.0, 9.999711, 10.000359 
2.8893444e+3, 3.1585774e+2, -217722.36, -142952.66, 6102.029, 0.55170494, 0.63832754, -142457.94, -142457.94, 0.0, 9.998613, 9.999702 
2.8889766e+3, 3.2584816e+2, -41387.465, -40952.465, -334284.66, 0.09422374, 0.3929505, 293114.75, 293114.75, 0.0, 9.999813, 9.999734 
2.9058263e+3, 1.3634951e+2, -1233883.4, -1369335.4, 207185.14, -0.34970516, 0.14039266, -1083635.8, 520153.88, 0.00000000011876347, 10.0026655, 10.001019 
2.9054633e+3, 1.4634125e+2, -1232781.1, -1527791.3, -8494.127, -0.46418265, -0.0132255675, -1232536.8, 273329.9, 0.0, 10.003058, 9.999066 
2.9051024e+3, 1.5633878e+2, -1330226.3, -1567409.5, -20918.086, -0.23586491, 0.43846986, -1328395.5, 79505.74, 0.0, 10.001897, 9.998682 
2.9047418e+3, 1.6633128e+2, -1312256.1, -1533167.5, 95013.84, -0.17434296, 0.48263514, -1277013.1, 32964.273, 0.0, 10.001507, 9.998384 
2.90438e+3, 1.7631978e+2, -1269139.5, -1493017.3, 178557.34, -0.3130979, 0.11918538, -1170334.4, 41754.117, 0.0, 10.001216, 9.998173 
2.9040208e+3, 1.8631165e+2, -910449.7, -926635.7, 147591.75, -0.20887065, -0.012517702, -770729.2, 343434.03, 0.0, 10.001581, 10.001188 
2.9036638e+3, 1.9630583e+2, -816253.94, -929868.9, 76756.695, 0.13518938, -0.09295833, -777569.6, 238643.13, 0.0, 10.001959, 10.000319 
2.9033032e+3, 2.0629996e+2, -905080.1, -1250013.8, 91505.16, 0.15100336, 0.10778543, -882308.6, 35966.945, 0.0, 10.002163, 9.997292 
2.9029408e+3, 2.162935e+2, -880023.5, -1231224.5, 162121.17, -0.021027237, 0.3536361, -816628.6, 3723.8855, 0.0, 10.001809, 9.996953 
2.9025787e+3, 2.2628607e+2, -652828.25, -841671.1, 178056.95, -0.13946764, 0.4651389, -545706.44, 176723.36, 0.0, 10.001792, 9.998925 
2.902217e+3, 2.3627788e+2, -706559.44, -895285.3, 152499.47, -0.19993415, 0.3798955, -621589.0, 2919.872, 0.0, 10.001011, 9.99832 
2.901858e+3, 2.4627014e+2, -588839.5, -705255.6, 200661.03, -0.08158873, 0.40217006, -438114.47, 88471.414, 0.0, 10.000864, 9.998959 
2.901501e+3, 2.5626224e+2, -593728.1, -705875.7, 148071.17, 0.16241664, 0.3333519, -491468.9, -62803.195, 0.0, 10.00031, 9.998593 
2.9011387e+3, 2.6625553e+2, -269512.72, -215466.8, 95957.89, 0.019686446, 0.3209296, -142799.44, 187924.73, 0.0, 10.000697, 10.0010605 
2.900773e+3, 2.7624932e+2, -318094.84, -351808.1, 83261.36, -0.35237566, 0.21681151, -250000.89, -17229.152, 0.0, 10.000333, 9.999681 
2.9004124e+3, 2.8624076e+2, -500562.34, -747231.5, 99430.48, -0.20956795, 0.2408044, -465473.94, -330615.44, 0.0, 10.000023, 9.996407 
2.9000553e+3, 2.9623032e+2, -571922.3, -801279.4, 121602.69, 0.28641373, 0.19045642, -519453.06, -482479.6, 0.0, 9.999115, 9.995831 
2.8996906e+3, 3.0622363e+2, -205596.77, -226784.14, 126889.42, -0.109452866, 0.41830522, -88859.58, -88859.58, 0.0, 9.999611, 9.998758 
2.8993237e+3, 3.1621993e+2, -380557.22, -585901.44, 12670.955, -0.77516955, 0.8137208, -379778.3, -379778.3, 0.0, 9.999278, 9.99622 
2.898969e+3, 3.2620633e+2, 162460.81, -13466.984, 22084.469, -0.08024567, 0.29490563, 165190.75, 165190.75, 0.0, 10.001814, 9.998704 
2.9158202e+3, 1.3670993e+2, -1457631.1, -1612452.1, 206728.92, -0.68389845, -0.26631993, -1314294.6, 285951.38, 0.0000000000007792345, 10.001792, 9.999759 
2.9154605e+3, 1.4670904e+2, -1429221.0, -1769390.1, -58968.273, -0.40164983, 0.45534873, -1419288.9, 82972.44, 0.0, 10.002395, 9.997704 
2.9150966e+3, 1.5669762e+2, -1477815.1, -1751612.1, -37552.957, -0.3927868, 0.14205572, -1472757.9, -68371.805, 0.0, 10.00139, 9.997662 
2.914737e+3, 1.666912e+2, -1195642.0, -1223841.4, 82418.46, -0.1885518, 0.19951037, -1126125.9, 180323.38, 0.0, 10.001227, 10.000628 
2.914378e+3, 1.7668658e+2, -1206989.3, -1298234.0, 194986.48, -0.051279135, 0.3099597, -1052359.0, 156129.33, 0.0, 10.0009165, 9.999661 
2.9140174e+3, 1.866792e+2, -1075421.9, -1267737.3, 165814.75, -0.08706521, 0.31742412, -979900.56, 130660.39, 0.0, 10.001558, 9.998856 
2.913657e+3, 1.9667062e+2, -914125.8, -1160123.8, 90176.72, -0.18265975, 0.1959963, -884610.56, 128037.195, 0.0, 10.002035, 9.998713 
2.9132965e+3, 2.0666441e+2, -678370.2, -842659.5, 61260.855, -0.1531317, 0.27292195, -658042.25, 256669.17, 0.0, 10.002371, 10.000012 
2.912936e+3, 2.1665905e+2, -655965.94, -857180.3, 184130.72, -0.13639742, 0.3745728, -546749.56, 270017.72, 0.0, 10.00213, 9.9993925 
2.912575e+3, 2.2665098e+2, -628640.44, -867664.25, 195661.28, -0.10636859, 0.33652025, -518878.63, 199967.45, 0.0, 10.002071, 9.998639 
2.9122135e+3, 2.3664126e+2, -577786.06, -858189.8, 190423.16, -0.109551206, 0.15277301, -481519.03, 139419.75, 0.0, 10.001899, 9.998182 
2.9118532e+3, 2.466339e+2, -559179.7, -767747.8, 200228.67, -0.07903007, 0.25166357, -437705.72, 85308.66, 0.0, 10.001311, 9.998335 
2.9114935e+3, 2.5662756e+2, -572704.3, -733964.5, 159806.19, -0.039052527, 0.4155651, -474339.34, -49256.535, 0.0, 10.000494, 9.99834 
2.9111323e+3, 2.6662025e+2, -316703.25, -354200.84, 116744.016, -0.044656772, 0.40626433, -217212.11, 109939.95, 0.0, 10.000754, 10.000131 
2.9107702e+3, 2.766126e+2, -143997.06, -281921.72, 38573.813, -0.14050205, 0.2574537, -133942.05, 95277.48, 0.0, 10.00148, 9.999637 
2.9104075e+3, 2.8660515e+2, -149968.06, -292263.25, 63194.414, -0.13961038, 0.24344735, -125955.195, 5335.8765, 0.0, 10.001131, 9.999021 
2.9100448e+3, 2.965969e+2, -347904.8, -429105.06, 208126.23, -0.0677226, 0.18150389, -176455.67, -143080.5, 0.0, 9.999343, 9.998306 
2.9258177e+3, 1.370731e+2, -1563927.5, -1638010.0, -5014.7734, -0.4401817, -0.11553582, -1563589.5, 33100.266, 0.0, 10.000865, 10.000039 
2.925455e+3, 1.470714e+2, -1528267.3, -1761632.1, -86052.266, -0.5104576, 0.46914652, -1499967.8, -1256.4856, 0.0, 10.001413, 9.998245 
2.9250923e+3, 1.5705928e+2, -1194985.8, -1558916.8, 34932.39, -0.38126394, 0.04318089, -1191663.1, 209175.84, 0.0, 10.003049, 9.998194 
2.924733e+3, 1.6705288e+2, -963196.75, -1103159.5, 66925.11, -0.13260835, 0.0794847, -936346.5, 366554.1, 0.0, 10.002749, 10.00075 
2.924374e+3, 1.7704931e+2, -1128499.3, -1243108.4, 27254.143, 0.10342473, 0.27257383, -1122348.4, 82581.21, 0.0, 10.0013685, 9.999837 
2.9240128e+3, 1.8704252e+2, -1156910.8, -1357147.3, 104647.06, -0.055838257, 0.34027475, -1112202.6, -5204.298, 0.0, 10.00125, 9.998376 
2.9236507e+3, 1.9703366e+2, -1071085.0, -1299727.3, 155626.2, -0.30891302, 0.24222414, -992302.94, 16789.021, 0.0, 10.001209, 9.998177 
2.923291e+3, 2.0702766e+2, -684174.4, -751270.25, 75354.93, -0.29079235, 0.32014456, -635237.0, 275916.6, 0.0, 10.001988, 10.000811 
2.9229313e+3, 2.1702284e+2, -612136.75, -780047.1, 5584.268, -0.14283083, 0.37391356, -611951.25, 201249.81, 0.0, 10.00224, 9.999871 
2.9225713e+3, 2.2701433e+2, -539656.2, -857452.75, -14984.682, -0.04993139, 0.26902944, -538951.2, 176330.97, 0.0, 10.002862, 9.998315 
2.9222107e+3, 2.37004e+2, -490082.88, -864479.94, -22334.977, 0.030539932, 0.020533781, -488755.2, 128624.93, 0.0, 10.00279, 9.997692 
2.921849e+3, 2.4699715e+2, -424670.1, -713699.44, 26516.236, -0.039681874, 0.17627907, -422257.56, 97192.87, 0.0, 10.002343, 9.9981985 
2.9214865e+3, 2.5699174e+2, -577551.3, -796543.3, 50668.957, -0.13888228, 0.42322132, -566396.06, -144886.02, 0.0, 10.000795, 9.997764 
2.9211265e+3, 2.669843e+2, -484067.75, -511178.6, 88314.95, -0.062374964, 0.462917, -408273.97, -84688.62, 0.0, 10.000116, 9.999263 
2.9207665e+3, 2.7697596e+2, -552309.94, -518586.72, 38192.934, 0.05877004, 0.29783523, -493698.9, -268031.78, 0.0, 9.998967, 9.999189 
2.920402e+3, 2.8696993e+2, -225471.38, -19640.65, -4518.0156, -0.12648074, 0.2712373, -19541.525, 108179.26, 0.0, 9.999395, 10.001667 
2.9200336e+3, 2.9696405e+2, -422108.03, -199026.14, 36735.184, -0.4728142, 0.108776346, -193132.61, -163361.0, 0.0, 9.99782, 10.000601 
2.9358155e+3, 1.3743608e+2, -1603103.3, -1479985.5, -103887.625, -0.14373146, 0.25241795, -1420787.9, 172356.83, 0.0, 9.999944, 10.001534 
2.9354468e+3, 1.4742965e+2, -1424444.0, -1442722.6, -22199.979, -0.8229567, 0.14984842, -1409575.8, 85627.29, 0.0, 10.000977, 10.000643 
2.9350895e+3, 1.5742408e+2, -1182052.1, -1413275.0, 85752.35, -0.35867244, 0.16026135, -1153721.0, 243535.44, 0.0, 10.002539, 9.999446 
2.9347295e+3, 1.6741583e+2, -1148328.8, -1430134.9, 12841.174, -0.1209204, 0.08686271, -1147744.9, 151591.81, 0.0, 10.002517, 9.998604 
2.9343674e+3, 1.7740677e+2, -1240531.6, -1425585.5, -6621.805, -0.11480814, -0.06478957, -1240295.0, -38870.43, 0.0, 10.00114, 9.998701 
2.9340065e+3, 1.8740027e+2, -1007898.2, -1033230.5, 95995.234, -0.2156112, -0.06541507, -923737.06, 179749.86, 0.0, 10.001173, 10.000642 
2.933646e+3, 1.9739439e+2, -993401.5, -1117768.9, 184891.98, -0.34852657, -0.07156019, -860516.3, 145027.97, 0.0, 10.001105, 9.999477 
2.9332867e+3, 2.0738865e+2, -872971.2, -1153315.6, 96250.82, -0.27575496, 0.15238059, -843106.7, 64502.258, 0.0, 10.002047, 9.998018 
2.9329276e+3, 2.1738286e+2, -661868.2, -1049231.5, -3451.8186, -0.18277374, 0.39081016, -661837.44, 147839.66, 0.0, 10.002886, 9.997732 
2.9325685e+3, 2.2737464e+2, -420448.56, -834448.06, -71329.69, -0.041559014, 0.41153038, -408503.53, 303256.7, 0.0, 10.003701, 9.998129 
2.9322088e+3, 2.3736542e+2, -244116.2, -684916.94, -96803.56, 0.056417093, 0.2883985, -223794.22, 390055.63, 0.0, 10.004078, 9.998361 
2.9318467e+3, 2.4735811e+2, -154742.02, -403616.56, -96706.93, 0.038844734, 0.2597854, -121582.125, 394335.9, 0.0, 10.003322, 9.999914 
2.931483e+3, 2.573515e+2, -278116.94, -479764.47, -48958.457, -0.045472674, 0.23734954, -266858.75, 151120.8, 0.0, 10.001977, 9.999415 
2.93112e+3, 2.673453e+2, -478578.3, -538915.44, -17189.463, -0.07811349, 0.33684987, -474024.84, -153979.92, 0.0, 10.000173, 9.999086 
2.930757e+3, 2.7733904e+2, -574790.5, -496031.4, -51907.24, -0.123339295, 0.4018164, -470256.44, -248143.31, 0.0, 9.998483, 9.999635 
2.9303938e+3, 2.8733256e+2, -344164.63, -88700.586, -71780.81, -0.15338694, 0.2987143, -69913.14, 54259.023, 0.0, 9.998421, 10.001776 
2.9300272e+3, 2.973269e+2, -116468.52, 35013.273, -149944.88, -0.3468589, 0.16180564, 127260.914, 153478.88, 0.0, 9.999232, 10.001627 
2.945808e+3, 1.3779856e+2, -1316559.8, -1352861.0, 25958.973, -0.36161646, 0.19326353, -1303035.3, 286556.94, 0.0, 10.001809, 10.001566 
2.9454437e+3, 1.477921e+2, -1359398.8, -1380493.3, 157537.02, -0.6015042, 0.09556262, -1212056.4, 279591.8, 0.0, 10.001246, 10.000965 
2.9450867e+3, 1.577867e+2, -1183106.8, -1393484.3, 81689.38, -0.24075094, 0.09142669, -1155112.1, 238585.31, 0.0, 10.002417, 9.999656 
2.9447258e+3, 1.6777857e+2, -1108883.6, -1478310.6, 13746.302, -0.10948459, 0.061131965, -1108372.8, 187406.48, 0.0, 10.003111, 9.997979 
2.9443622e+3, 1.7776887e+2, -961803.8, -1325026.4, 93214.72, -0.18042292, -0.08604959, -939278.8, 258599.06, 0.0, 10.003212, 9.998367 
2.9440016e+3, 1.8776256e+2, -718891.7, -814212.5, 152809.77, -0.26442587, -0.097781524, -606482.3, 493454.78, 0.0, 10.002813, 10.001348 
2.943642e+3, 1.977574e+2, -864717.75, -1041718.25, 120351.555, -0.2493778, -0.101874694, -803829.94, 198153.4, 0.0, 10.001947, 9.999587 
2.943284e+3, 2.0775075e+2, -868253.5, -1298194.8, 145859.92, -0.16617791, 0.08873597, -823440.6, 80616.87, 0.0, 10.002704, 9.996705 
2.9429257e+3, 2.1774344e+2, -747834.8, -1255200.6, 159281.16, -0.043965444, 0.3261999, -701975.56, 104167.53, 0.0, 10.003027, 9.996262 
2.9425663e+3, 2.277357e+2, -594977.7, -904022.7, 130819.98, 0.019270584, 0.4562811, -547037.7, 161187.08, 0.0, 10.002565, 9.998116 
2.9422057e+3, 2.3772751e+2, -707580.8, -895661.06, 97076.664, 0.08434393, 0.43874392, -666463.94, -56157.023, 0.0, 10.000956, 9.99836 
2.9418427e+3, 2.4771965e+2, -428552.47, -374150.56, 43755.7, 0.05679104, 0.28246325, -349830.13, 162546.38, 0.0, 10.000892, 10.001209 
2.9414788e+3, 2.5771224e+2, -488704.53, -486942.94, 25582.145, 0.02595891, 0.049814913, -462226.44, -47787.46, 0.0, 10.000275, 10.00015 
2.9411134e+3, 2.6770726e+2, -474563.4, -538505.2, 57178.473, -0.114263095, 0.24658158, -441024.63, -124530.016, 0.0, 10.000241, 9.999062 
2.9407477e+3, 2.7770266e+2, -537405.8, -525856.4, 61105.223, -0.28736174, 0.48452115, -470253.6, -251702.11, 0.0, 9.999064, 9.999126 
2.9403862e+3, 2.8769478e+2, -288317.06, -114885.45, 52146.06, -0.13661693, 0.30797654, -100414.09, 20211.535, 0.0, 9.9992, 10.001151 
2.9400223e+3, 2.976886e+2, -285294.44, -28969.982, -55426.43, -0.13336089, 0.18597741, -17498.24, 5178.6094, 0.0, 9.998303, 10.001539 
2.9557997e+3, 1.3816309e+2, -1501722.8, -1525784.9, -170582.2, -0.74571157, 0.10823469, -1342747.9, 243263.45, 0.0, 10.00093, 10.000815 
2.9554436e+3, 1.4815792e+2, -1518368.0, -1633497.1, 184447.5, -0.10654675, 0.25577655, -1382711.0, 105345.92, 0.0, 10.000951, 9.999354 
2.9550833e+3, 1.5814699e+2, -1326441.8, -1573885.9, 106255.516, -0.24623924, -0.14710931, -1287076.8, 103087.27, 0.0, 10.001914, 9.99867 
2.954722e+3, 1.6814145e+2, -1062605.3, -1330147.5, 12538.309, -0.18242438, 0.04127731, -1062018.9, 230206.45, 0.0, 10.002882, 9.999106 
2.954359e+3, 1.7813721e+2, -940386.7, -1259387.6, 99543.09, -0.26962283, 0.3417372, -911873.25, 282402.2, 0.0, 10.003103, 9.998879 
2.953998e+3, 1.8813083e+2, -798531.5, -1016195.9, 111913.89, -0.26856175, 0.38883588, -751257.4, 345081.2, 0.0, 10.002945, 9.999903 
2.953639e+3, 1.981237e+2, -863249.94, -1106365.1, 101686.24, -0.21327464, 0.32919854, -826326.2, 172080.17, 0.0, 10.002176, 9.999053 
2.9532826e+3, 2.0811503e+2, -671208.9, -1002918.2, 175739.1, -0.0026394674, 0.21907681, -595419.2, 305070.84, 0.0, 10.003083, 9.998599 
2.9529256e+3, 2.1810593e+2, -500577.28, -945955.1, 190738.13, 0.16929688, 0.1048806, -430057.4, 372521.8, 0.0, 10.00382, 9.998032 
2.952563e+3, 2.2809856e+2, -562519.5, -841336.25, 113741.04, 0.04729168, 0.1850844, -522006.44, 182648.13, 0.0, 10.002566, 9.998561 
2.9521978e+3, 2.3809148e+2, -681504.3, -808817.94, 114103.26, -0.17667261, 0.25059673, -614502.25, -7774.9595, 0.0, 10.000722, 9.999085 
2.951834e+3, 2.4808428e+2, -496287.47, -435839.88, 109122.04, -0.22448073, 0.1466471, -352833.4, 155960.66, 0.0, 10.000431, 10.001071 
2.9514706e+3, 2.580772e+2, -361272.3, -372097.47, 76828.36, -0.22046341, -0.01910204, -289666.13, 121191.15, 0.0, 10.0007715, 10.000756 
2.951107e+3, 2.680736e+2, -244145.84, -288565.56, 110336.05, -0.23597783, 0.21342406, -153806.52, 159091.44, 0.0, 10.00111, 10.000418 
2.950742e+3, 2.780705e+2, -166106.72, -310610.6, 143875.22, -0.31265804, 0.5182142, -77360.47, 137576.42, 0.0, 10.001311, 9.999572 
2.950382e+3, 2.880605e+2, -211630.28, -398494.53, 95047.96, 0.06796727, 0.29311785, -171781.95, -54742.793, 0.0, 10.000939, 9.998439 
2.950017e+3, 2.98053e+2, -15691.531, 101955.61, -152767.53, 0.005327953, 0.3113915, 206833.39, 225945.16, 0.0, 9.99986, 10.001756 
2.965797e+3, 1.3852367e+2, -1611028.5, -1479275.4, -251886.58, -0.41196138, -0.0810235, -1284793.4, 297680.7, 0.0, 9.999743, 10.001711 
2.9654375e+3, 1.4852118e+2, -1381222.8, -1521774.1, 141719.4, -0.20914593, 0.27355897, -1293311.6, 191181.0, 0.0, 10.001714, 9.999769 
2.9650784e+3, 1.5850946e+2, -1461374.9, -1618271.4, 178249.23, -0.22718558, -0.22602509, -1345074.8, 41532.668, 0.0, 10.000855, 9.998897 
2.9647183e+3, 1.6850442e+2, -1242306.3, -1419104.1, 78884.49, -0.122734286, 0.006065291, -1212226.9, 76438.72, 0.0, 10.001577, 9.999163 
2.9643565e+3, 1.7850134e+2, -1057630.8, -1348803.8, 88346.02, -0.1237663, 0.4157718, -1032922.0, 157784.25, 0.0, 10.002418, 9.998617 
2.9639953e+3, 1.8849467e+2, -871223.75, -1177688.5, 64372.594, -0.20749195, 0.5147901, -858251.5, 234523.92, 0.0, 10.003062, 9.998714 
2.9636356e+3, 1.984865e+2, -798631.94, -1148605.1, 84314.65, -0.14507364, 0.4636064, -779378.25, 215478.16, 0.0, 10.003, 9.998354 
2.9632804e+3, 2.0847753e+2, -518443.06, -780837.0, 147072.08, 0.06925255, 0.25904244, -452554.16, 444383.2, 0.0, 10.0036, 9.999832 
2.962924e+3, 2.1846817e+2, -516107.25, -855459.3, 50089.383, 0.28664988, -0.018072646, -508868.3, 290152.0, 0.0, 10.003379, 9.998838 
2.9625583e+3, 2.2846131e+2, -549335.6, -774739.44, -71716.29, 0.0155969495, 0.03038174, -528452.56, 172636.5, 0.0, 10.00242, 9.999082 
2.9621902e+3, 2.384553e+2, -739073.25, -838421.5, -36549.688, -0.33145878, 0.13472745, -727075.7, -123923.664, 0.0, 10.000391, 9.999054 
2.961826e+3, 2.4844854e+2, -502090.7, -493450.94, -9692.218, -0.40913057, 0.09102843, -487159.47, 18058.795, 0.0, 10.000696, 10.000511 
2.9614636e+3, 2.5844175e+2, -448409.22, -458215.2, -61930.93, -0.3586946, -0.021586724, -391187.5, 16096.225, 0.0, 10.000468, 10.000275 
2.9611006e+3, 2.6843894e+2, -294954.03, -166238.31, -52907.523, -0.29734066, 0.20204364, -147282.67, 162030.64, 0.0, 10.00022, 10.001631 
2.9607365e+3, 2.7843663e+2, -551469.7, -539017.6, -24673.0, -0.2680394, 0.46556154, -519797.22, -308457.7, 0.0, 9.998996, 9.999077 
2.960378e+3, 2.884259e+2, -574554.06, -818093.75, 18156.781, 0.22345267, 0.30491424, -573207.8, -459752.97, 0.0, 9.999645, 9.996108 
2.9600105e+3, 2.9841644e+2, -80646.64, 134186.22, -246249.42, 0.023848215, 0.27429217, 295427.7, 310981.94, 0.0, 9.999329, 10.0021925 
2.975793e+3, 1.3888258e+2, -1556744.3, -1230769.3, -34338.43, -0.19810224, -0.22478472, -1227191.3, 351765.38, 0.0, 9.999275, 10.003603 
2.9754266e+3, 1.4888282e+2, -1313248.3, -1268136.3, 107422.05, -0.8144253, 0.20236966, -1180927.6, 300017.1, 0.0, 10.001272, 10.0017 
2.975072e+3, 1.5887444e+2, -1469082.6, -1541398.4, 161435.39, -0.34444317, -0.12915698, -1339805.4, 43218.527, 0.0, 10.000483, 9.999595 
2.9747146e+3, 1.6886732e+2, -1338421.0, -1568630.8, 117654.76, -0.01685046, -0.06674864, -1288930.1, -3830.2869, 0.0, 10.001379, 9.998226 
2.9743555e+3, 1.7886041e+2, -1141627.6, -1506631.3, 102613.61, 0.07322808, 0.066021316, -1114757.9, 72418.39, 0.0, 10.002329, 9.997584 
2.973993e+3, 1.8885246e+2, -900661.94, -1302891.3, 53009.38, -0.14058694, 0.13095607, -893793.2, 195467.08, 0.0, 10.003268, 9.997788 
2.9736313e+3, 1.9884416e+2, -758412.9, -1173633.8, 73128.28, -0.35448113, 0.14928406, -745910.06, 245435.89, 0.0, 10.003397, 9.998015 
2.973275e+3, 2.0883687e+2, -496968.8, -796297.25, 121071.88, -0.21926497, 0.1366544, -454129.06, 439283.66, 0.0, 10.003831, 9.999635 
2.9729182e+3, 2.188299e+2, -391923.03, -744077.7, -30768.455, -0.080146916, 0.107224375, -389254.94, 406219.72, 0.0, 10.003894, 9.9994 
2.9725525e+3, 2.2882435e+2, -409721.88, -615676.0, -182058.25, -0.19076093, 0.20415144, -303535.16, 393995.8, 0.0, 10.002842, 10.000045 
2.9721847e+3, 2.38819e+2, -542300.6, -718282.7, -117585.67, -0.3915926, 0.30356777, -483428.44, 116159.195, 0.0, 10.001517, 9.999374 
2.9718217e+3, 2.4881156e+2, -485380.13, -671363.25, -72488.875, -0.35203654, 0.2854215, -460464.66, 41201.395, 0.0, 10.001493, 9.998955 
2.97146e+3, 2.5880373e+2, -282084.75, -418029.56, -190401.4, -0.24987137, 0.20947899, -147886.58, 255860.83, 0.0, 10.001632, 10.000024 
2.9710963e+3, 2.6879862e+2, -203434.63, -43916.477, -231010.2, -0.13077089, 0.15637936, 120715.984, 426510.88, 0.0, 10.000396, 10.00246 
2.970731e+3, 2.7879432e+2, -416298.0, -296251.22, -177674.94, -0.10807401, 0.14147852, -168734.78, 39099.266, 0.0, 9.998981, 10.000816 
2.970369e+3, 2.8878978e+2, -398036.94, -454505.4, 4476.672, 0.016692966, 0.3673844, -397684.22, -287799.94, 0.0, 9.999514, 9.998759 
2.970006e+3, 2.987827e+2, 274323.47, 379195.0, -111918.4, 0.13449027, 0.3900445, 450352.25, 462309.5, 0.0, 10.001282, 10.003006 
2.985787e+3, 1.3924372e+2, -1621791.4, -1373831.8, 108006.1, -0.1015637, -0.2366975, -1333384.4, 242029.98, 0.0, 9.999208, 10.002685 
2.9854205e+3, 1.4924352e+2, -1415348.3, -1436341.5, -46357.02, -0.91928434, 0.25697994, -1378314.3, 99096.7, 0.0, 10.001008, 10.000713 
2.9850686e+3, 1.5923506e+2, -1274753.1, -1476464.3, -159243.8, -0.15707368, -0.033489894, -1187113.5, 192378.56, 0.0, 10.001892, 9.99941 
2.984711e+3, 1.6922806e+2, -1062407.3, -1356478.5, -99036.71, 0.048583336, -0.028624518, -1032164.1, 249398.19, 0.0, 10.002946, 9.998957 
2.984352e+3, 1.7922038e+2, -943659.8, -1423121.0, 15743.495, 0.07812316, -0.032330334, -943143.44, 240497.47, 0.0, 10.003726, 9.997512 
2.9839906e+3, 1.8921193e+2, -848078.75, -1317495.1, 6961.605, -0.10882671, 0.008208084, -847975.5, 237754.33, 0.0, 10.003788, 9.997464 
2.9836288e+3, 1.992039e+2, -793267.75, -1153044.4, 74392.83, -0.31304917, 0.050349284, -778492.0, 209322.28, 0.0, 10.002996, 9.998362 
2.9832706e+3, 2.0919691e+2, -742283.4, -861551.6, 193501.16, -0.33563504, 0.011114284, -599435.6, 290443.4, 0.0, 10.001862, 10.000159 
2.9829127e+3, 2.1919124e+2, -931022.9, -944513.44, 105317.84, -0.23217383, 0.05430042, -832234.5, -40304.953, 0.0, 9.999992, 9.999903 
2.9825473e+3, 2.2918689e+2, -661254.2, -645533.3, -66848.555, -0.24874204, 0.20978701, -586084.6, 107889.984, 0.0, 10.000824, 10.00078 
2.9821804e+3, 2.3918167e+2, -643778.75, -817987.8, -17229.623, -0.3007067, 0.2962912, -642091.06, -46060.45, 0.0, 10.001129, 9.998862 
2.9818174e+3, 2.4917404e+2, -539360.6, -796026.56, 82669.266, -0.29846564, 0.3468672, -515038.53, -16922.572, 0.0, 10.001683, 9.997964 
2.981456e+3, 2.5916606e+2, -422999.0, -596832.4, -12950.281, -0.17388846, 0.38097554, -422039.53, -21835.4, 0.0, 10.001253, 9.998971 
2.9810917e+3, 2.691591e+2, -148875.64, 38406.145, -126237.67, 0.040486686, 0.14558776, 101942.12, 404208.6, 0.0, 10.000615, 10.002896 
2.9807255e+3, 2.7915323e+2, -401926.8, -177510.33, -68812.24, 0.11303024, -0.086466156, -158091.02, 46224.938, 0.0, 9.99874, 10.001737 
2.9803595e+3, 2.8915384e+2, -261964.27, -35941.07, 104850.36, -0.19723925, 0.41304645, 5207.0522, 111517.77, 0.0, 9.999092, 10.00179 
2.9800043e+3, 2.9914662e+2, -26201.846, 229393.94, 97526.17, 0.5034692, 0.165701, 262355.66, 270737.4, 0.0, 9.999521, 10.002751 
2.9957807e+3, 1.3960496e+2, -1927266.0, -1821932.1, 177300.44, -0.11221324, -0.20376724, -1689641.6, -117771.32, 0.0, 9.998536, 9.999928 
2.9954174e+3, 1.4960185e+2, -1742059.8, -1951703.6, -35922.605, -0.70250034, 0.31429586, -1736075.3, -262170.6, 0.0, 10.000383, 9.997468 
2.9950675e+3, 1.5959063e+2, -1451504.8, -1655903.3, -122537.484, 0.14469492, 0.023310455, -1394141.8, -18122.906, 0.0, 10.001109, 9.998555 
2.9947078e+3, 1.6958526e+2, -968509.06, -1035241.6, -81917.734, 0.034317426, 0.03518121, -913423.0, 364643.88, 0.0, 10.002414, 10.001421 
2.994346e+3, 1.7958081e+2, -859788.06, -1152106.9, 14026.313, -0.35739073, 0.12079168, -859116.56, 320988.9, 0.0, 10.003351, 9.999532 
2.9939866e+3, 1.895734e+2, -787110.3, -1178059.1, 1676.4878, -0.28333116, 0.14339918, -787103.1, 295078.38, 0.0, 10.003788, 9.998396 
2.993628e+3, 1.9956563e+2, -742400.0, -943686.44, 27918.371, -0.08597704, 0.12650248, -738599.44, 245662.02, 0.0, 10.00254, 10.000008 
2.9932684e+3, 2.0955902e+2, -645528.06, -506943.78, 140206.77, -0.1039614, -0.11500516, -419841.13, 466479.38, 0.0, 10.0012045, 10.002906 
2.9929063e+3, 2.195521e+2, -845386.0, -746467.2, 110893.04, -0.24946964, -0.4156837, -674503.75, 113878.24, 0.0, 9.999847, 10.001333 
2.992542e+3, 2.2954582e+2, -698007.25, -706028.8, 5942.6025, -0.19895136, -0.44955942, -694848.6, -4403.7236, 0.0, 10.000673, 10.000479 
2.9921782e+3, 2.3954074e+2, -437828.9, -643787.06, 49806.707, -0.11954486, -0.3375556, -426416.56, 166082.31, 0.0, 10.002151, 9.9995775 
2.991813e+3, 2.4953592e+2, -328992.0, -617140.1, 141675.36, -0.33928558, -0.064883284, -271003.6, 223555.86, 0.0, 10.00274, 9.998729 
2.991448e+3, 2.5953078e+2, -193682.14, -417080.5, 57417.477, -0.535432, 0.20654963, -179788.83, 216833.42, 0.0, 10.002405, 9.999716 
2.9910865e+3, 2.6952723e+2, -105378.914, -20737.281, -72173.42, 0.06704158, 0.36827302, 20608.232, 319260.66, 0.0, 10.001194, 10.002287 
2.9907233e+3, 2.795233e+2, -153486.22, 581.2647, -8445.414, 0.5376906, 0.4030775, 1042.8286, 201726.31, 0.0, 10.000058, 10.002407 
2.9903555e+3, 2.895149e+2, -88649.13, 196687.88, 146611.4, 0.09943041, -0.098502286, 258590.16, 361354.78, 0.0, 9.999518, 10.003327 
2.9899913e+3, 2.9951e+2, -210171.02, -187569.17, 261457.66, -0.09709289, -0.1149743, 62831.684, 67647.29, 0.0, 9.999403, 10.000138 
3.0057746e+3, 1.3996549e+2, -1367089.5, -1346932.9, -210676.22, -0.23241065, 0.31010506, -1146094.1, 422255.97, 0.0, 10.001204, 10.001986 
3.0054128e+3, 1.4995898e+2, -1222814.9, -1410674.5, 41416.79, -0.6600077, 0.19466333, -1214089.1, 256318.22, 0.0, 10.00262, 10.000078 
3.0050611e+3, 1.5994903e+2, -1331124.6, -1655814.9, 228810.58, -0.057301067, -0.13393755, -1212916.3, 159585.77, 0.0, 10.002046, 9.998086 
3.0047032e+3, 1.699405e+2, -1252547.4, -1508021.8, -38267.734, 0.041423984, -0.19891019, -1246938.4, 27646.24, 0.0, 10.001799, 9.99842 
3.0043462e+3, 1.7993344e+2, -1093222.1, -1207654.6, -246702.17, 0.04801944, -0.22334753, -897188.2, 279463.63, 0.0, 10.001348, 10.000136 
3.0039835e+3, 1.8993138e+2, -1167068.0, -908429.94, -129891.24, -0.14756387, -0.06433937, -854459.2, 224211.22, 0.0, 9.999094, 10.002488 
3.0036214e+3, 1.9992565e+2, -1353655.3, -1168082.1, 165997.73, -0.23657155, -0.16559747, -1070698.8, -89973.266, 0.0, 9.997907, 10.000698 
3.0032635e+3, 2.0992364e+2, -863224.3, -591923.9, 112793.86, -0.0040121893, 0.015196026, -551155.75, 331586.7, 0.0, 9.999616, 10.003001 
3.0029035e+3, 2.1992077e+2, -647546.56, -774987.5, -125990.664, 0.010939753, 0.137845, -570079.4, 214688.08, 0.0, 10.001702, 10.000208 
3.0025366e+3, 2.299132e+2, -340477.2, -628304.3, -212511.36, -0.22898029, 0.0075240904, -227734.98, 459108.3, 0.0, 10.003537, 9.999527 
3.002172e+3, 2.3990725e+2, -356976.9, -604255.75, -210993.81, -0.34475747, 0.024170464, -236065.52, 352839.84, 0.0, 10.002704, 9.999526 
3.0018103e+3, 2.4990243e+2, -615931.3, -611873.2, -74723.93, -0.16213289, 0.14020228, -539150.75, -48185.797, 0.0, 10.00022, 9.99984 
3.001445e+3, 2.5989714e+2, -858705.8, -706879.0, -82198.914, -0.2661636, 0.2509876, -670901.8, -277873.78, 0.0, 9.997761, 9.999879 
3.0010766e+3, 2.6989156e+2, -527201.06, -240446.27, -110475.15, -0.25464076, 0.17229946, -202821.36, 92256.83, 0.0, 9.998505, 10.001908 
3.0007097e+3, 2.798865e+2, -345102.03, -299281.47, 7372.3105, -0.1713791, 0.1460055, -298124.53, -101003.02, 0.0, 9.999729, 10.000412 
3.0003524e+3, 2.8987396e+2, 11324.888, -3302.04, -202520.67, 0.45098832, -0.5787917, 206664.11, 305907.88, 0.0, 10.001465, 10.000844 
2.9999834e+3, 2.9988095e+2, -32.237812, -459078.2, -280368.72, -0.28531563, 0.756779, 132780.83, 133966.77, 0.0, 10.002685, 9.996535 
