coord_x,coord_y,stress_xx,stress_yy,tau_xy,velocity_x,velocity_y,stress_1,eps,damage,lx,ly
5.0010717e+0, 1.2369421e+2, -1379143.5, -1598621.0, 30151.242, -0.018167472, 0.12985721, -1375076.9, 352735.4, 0.0013801174, 10.002501, 9.99959 
5.001194e+0, 1.3369305e+2, -1391857.9, -1688776.0, 5633.988, 0.0031464526, 0.16765015, -1391751.0, 238072.31, 0.0008364695, 10.002321, 9.9983835 
5.001165e+0, 1.4369115e+2, -1301975.5, -1559334.8, -2864.921, 0.010711652, 0.12365013, -1301943.6, 229899.23, 0.00038681776, 10.002112, 9.998695 
5.000898e+0, 1.5369047e+2, -1241763.6, -1482292.6, 16858.94, -0.0035384882, 0.18262109, -1240587.8, 193262.73, 0.00011816065, 10.001864, 9.998671 
5.000701e+0, 1.6368976e+2, -1147219.3, -1327734.6, 22174.879, -0.009581013, 0.22169797, -1144535.1, 191322.4, 0.000016018055, 10.001591, 9.999193 
5.000628e+0, 1.7368855e+2, -1089663.1, -1241981.9, 4838.6177, -0.0013450132, 0.1711741, -1089509.6, 148358.23, 0.00000013955699, 10.001282, 9.999258 
5.0005203e+0, 1.8368733e+2, -1050642.0, -1199287.5, -425.6706, 0.002268681, 0.1340626, -1050640.8, 89237.85, 0.0, 10.000993, 9.999019 
5.0003505e+0, 1.9368623e+2, -994567.94, -1128005.5, 11467.109, -0.0016689091, 0.12165744, -993589.6, 48298.766, 0.0, 10.000733, 9.9989605 
5.000218e+0, 2.0368531e+2, -918955.44, -1016195.3, 17344.092, -0.001910081, 0.12727723, -915954.5, 27942.324, 0.0, 10.000474, 9.999179 
5.000145e+0, 2.1368477e+2, -857622.6, -934104.0, 12323.058, 0.0037003953, 0.14590123, -855686.06, -9783.486, 0.0, 10.000215, 9.999194 
5.0000036e+0, 2.2368394e+2, -822255.25, -901020.5, 9918.596, 0.0035483853, 0.15986879, -821025.44, -73113.67, 0.0, 9.999934, 9.998884 
4.999748e+0, 2.3368278e+2, -774701.94, -834193.44, 13555.775, -0.0061425073, 0.15483333, -771758.75, -121833.12, 0.0, 9.999618, 9.998822 
4.999597e+0, 2.4368203e+2, -677891.3, -667221.1, 12931.225, -0.0058163605, 0.16981676, -658567.7, -106633.35, 0.0, 9.99931, 9.999445 
4.9996215e+0, 2.536819e+2, -617051.2, -579376.7, 3391.0386, 0.011032847, 0.20034894, -579073.94, -125139.54, 0.0, 9.999021, 9.999515 
4.9994868e+0, 2.6368114e+2, -583524.9, -547185.44, 4138.8286, 0.012217941, 0.1890161, -546720.0, -190779.19, 0.0, 9.998728, 9.999203 
4.9990934e+0, 2.736796e+2, -533123.0, -478548.9, 20233.967, -0.012124334, 0.11653901, -471865.44, -213910.42, 0.0, 9.998429, 9.999145 
4.9989018e+0, 2.8367913e+2, -433683.03, -297970.06, 18857.316, -0.014188605, 0.123086005, -295398.56, -135440.48, 0.000000004221918, 9.998086, 9.999876 
4.9990314e+0, 2.936799e+2, -381952.6, -200346.5, -6562.481, 0.01941297, 0.19382854, -200109.67, -138162.44, 0.0000065845143, 9.997674, 10.000072 
4.9989015e+0, 3.036784e+2, -351670.56, -122274.21, -4371.063, 0.021077538, 0.015444291, -122190.95, -122190.95, 0.0000754208, 9.99738, 10.000419 
4.9984413e+0, 3.136792e+2, -374376.88, -148387.94, 29504.93, -0.020473149, 0.06424386, -144599.31, -144599.31, 0.0002698707, 9.997289, 10.000284 
1.5003212e+1, 1.23695016e+2, -1422017.8, -1686705.5, 21217.426, -0.054683145, 0.119632736, -1420327.8, 307475.3, 0.00135349, 10.002498, 9.998987 
1.5003584e+1, 1.3369383e+2, -1438260.6, -1784834.6, -1240.7631, 0.009490518, 0.22175957, -1438256.3, 191560.95, 0.0008181531, 10.00232, 9.9977255 
1.5003495e+1, 1.4369173e+2, -1274897.5, -1502275.1, -12296.163, 0.03211782, 0.17724316, -1274234.5, 257604.56, 0.00037595516, 10.00211, 9.999088 
1.5002696e+1, 1.5369062e+2, -1203924.1, -1403227.3, 7441.811, -0.0106165605, 0.1406251, -1203646.6, 230200.81, 0.00011312574, 10.001863, 9.999214 
1.5002102e+1, 1.6368978e+2, -1170617.6, -1375580.5, 10401.345, -0.028736513, 0.15041408, -1170091.1, 165763.6, 0.000014709239, 10.001588, 9.998866 
1.5001887e+1, 1.7368893e+2, -1122228.5, -1308995.9, -6783.729, -0.004033917, 0.1811617, -1121982.5, 115881.63, 0.00000010097208, 10.00128, 9.998799 
1.5001561e+1, 1.8368785e+2, -1035518.75, -1167085.3, -10493.535, 0.0067849695, 0.17537652, -1034687.06, 105187.36, 0.0, 10.00099, 9.999241 
1.5001053e+1, 1.9368659e+2, -971820.56, -1080459.3, 1813.945, -0.0050278553, 0.114472724, -971790.3, 70093.88, 0.0, 10.000732, 9.999288 
1.5000655e+1, 2.0368563e+2, -924286.56, -1026763.2, 7410.7017, -0.0057401164, 0.09801235, -923753.44, 20139.148, 0.0, 10.000472, 9.999107 
1.5000434e+1, 2.1368515e+2, -867267.44, -953511.75, 2706.5706, 0.011149581, 0.1389175, -867182.56, -21283.941, 0.0, 10.000213, 9.999063 
1.5000008e+1, 2.236844e+2, -816834.2, -889138.94, -1818.4291, 0.010588045, 0.16364048, -816788.5, -68880.914, 0.0, 9.999932, 9.998967 
1.4999244e+1, 2.3368332e+2, -767380.6, -818732.75, 1757.6337, -0.018372381, 0.15576296, -767320.56, -117400.445, 0.0, 9.999617, 9.998929 
1.499879e+1, 2.4368252e+2, -692609.06, -697469.9, 1758.0067, -0.017542845, 0.17148899, -692039.9, -140110.77, 0.0, 9.999309, 9.999238 
1.4998864e+1, 2.536822e+2, -634176.6, -614480.06, -7341.735, 0.033064455, 0.2072061, -612044.6, -158112.28, 0.0, 9.99902, 9.999274 
1.499846e+1, 2.636815e+2, -558799.8, -495330.4, -7304.3325, 0.03665297, 0.19575438, -494500.63, -138562.05, 0.0, 9.998726, 9.99956 
1.499728e+1, 2.7368036e+2, -503273.66, -416029.3, 9139.555, -0.03645469, 0.120678246, -415082.16, -157135.16, 0.0, 9.998427, 9.999576 
1.4996704e+1, 2.8367984e+2, -471045.78, -374988.63, 3681.9622, -0.042473715, 0.12314648, -374847.7, -214897.53, 0.0000000059189293, 9.998084, 9.999349 
1.4997093e+1, 2.9367986e+2, -428541.8, -296450.75, -21748.578, 0.05806736, 0.18727826, -292962.03, -231013.17, 0.0000065077284, 9.997671, 9.9994135 
1.4996706e+1, 3.036783e+2, -305347.13, -25516.44, -9584.742, 0.06344568, 0.010834471, -25188.527, -25188.527, 0.000074264535, 9.997378, 10.001084 
1.499532e+1, 3.136801e+2, -315154.03, -24493.572, 29041.6, -0.061839726, 0.07464956, -21620.26, -21620.26, 0.00026634705, 9.997286, 10.001137 
2.5005895e+1, 1.23696e+2, -1393540.5, -1680634.4, 3747.0464, -0.048003897, 0.13721758, -1393491.5, 334302.1, 0.0013145427, 10.0027275, 9.998919 
2.5005865e+1, 1.3369468e+2, -1439857.8, -1793990.4, 25332.438, 0.0039590206, 0.23159096, -1438054.9, 191754.13, 0.0007913486, 10.002347, 9.997651 
2.5005487e+1, 1.4369237e+2, -1284340.6, -1506612.5, 29399.68, 0.023554487, 0.17262295, -1280517.6, 251314.53, 0.00036019128, 10.002044, 9.999092 
2.5004587e+1, 1.5369113e+2, -1199679.1, -1400019.3, 10086.972, -0.009289219, 0.12068861, -1199172.5, 234669.0, 0.00010584406, 10.001887, 9.999226 
2.5003773e+1, 1.6369022e+2, -1161609.6, -1376174.6, -3483.6812, -0.024736935, 0.12711312, -1161553.1, 174296.03, 0.000012859098, 10.001671, 9.998822 
2.5003153e+1, 1.736895e+2, -1115272.6, -1311817.5, 8262.438, -0.009038992, 0.17323567, -1114925.9, 122932.266, 0.00000006033416, 10.001354, 9.998744 
2.5002497e+1, 1.836885e+2, -1020817.5, -1149609.3, 19399.305, -0.0011584369, 0.174938, -1017958.9, 121908.97, 0.0, 10.001046, 9.999334 
2.5001788e+1, 1.936873e+2, -959584.4, -1061597.4, 16501.28, -0.0061963038, 0.11004897, -956981.56, 84894.88, 0.0, 10.000761, 9.999403 
2.500112e+1, 2.0368636e+2, -930853.9, -1037399.7, 12570.623, -0.0056405202, 0.09250987, -929390.8, 14493.805, 0.0, 10.00046, 9.999041 
2.5000522e+1, 2.1368583e+2, -886890.7, -973798.7, 10068.763, 0.002855361, 0.13565835, -885739.4, -39847.215, 0.0, 10.000124, 9.998966 
2.4999796e+1, 2.236851e+2, -821477.8, -875662.5, 10413.076, 0.0012109795, 0.16334482, -819545.56, -71644.49, 0.0, 9.999832, 9.999108 
2.4998876e+1, 2.3368429e+2, -755594.8, -793479.3, 18772.375, -0.016628966, 0.1631938, -747868.5, -97958.055, 0.0, 9.999614, 9.9991045 
2.4998175e+1, 2.4368353e+2, -693393.0, -710078.5, 24120.518, -0.012289059, 0.17981248, -676213.2, -124294.516, 0.0, 9.999355, 9.999129 
2.4997842e+1, 2.5368294e+2, -642153.1, -634904.9, 22396.043, 0.028085535, 0.20361485, -615841.6, -161916.64, 0.0, 9.999036, 9.999126 
2.4997137e+1, 2.6368216e+2, -558734.8, -487105.44, 16125.332, 0.03357663, 0.18994589, -483642.66, -127710.5, 0.0, 9.998692, 9.999634 
2.4995857e+1, 2.7368128e+2, -512164.2, -409105.84, 7071.984, -0.016074354, 0.12917116, -408622.8, -150684.83, 0.0, 9.998318, 9.999676 
2.4995022e+1, 2.836808e+2, -479497.72, -391907.78, 5835.3564, -0.019084848, 0.13413228, -391520.72, -231579.97, 0.0000000086392555, 9.998081, 9.999234 
2.4994852e+1, 2.9368052e+2, -382937.03, -290947.72, 19654.188, 0.047540534, 0.1825021, -286924.4, -224981.9, 0.0000063841276, 9.998055, 9.999267 
2.4994044e+1, 3.036789e+2, -252230.08, 2863.7524, 25482.559, 0.04163687, 0.0052987277, 5384.421, 5384.421, 0.00007245599, 9.997733, 10.001109 
2.4992658e+1, 3.1368086e+2, -364140.16, -45966.727, 4452.7646, -0.03937476, 0.081958376, -45904.426, -45904.426, 0.00026087384, 9.996942, 10.001155 
3.500911e+1, 1.2369717e+2, -1360998.9, -1613306.4, -11650.442, -0.00037538543, 0.1810005, -1360462.0, 367322.1, 0.0012623775, 10.002728, 9.999381 
3.500803e+1, 1.3369556e+2, -1403314.9, -1719071.4, 11007.797, -0.014958202, 0.19607143, -1402931.6, 226867.13, 0.000755357, 10.002351, 9.998163 
3.500714e+1, 1.436931e+2, -1311316.4, -1562634.5, 21904.434, -0.016104413, 0.109289706, -1309421.5, 222400.83, 0.00033918672, 10.002044, 9.998708 
3.5006568e+1, 1.53692e+2, -1236293.1, -1475542.9, 4309.957, -0.00023076264, 0.124059275, -1236215.5, 197617.02, 0.00009620481, 10.001885, 9.998709 
3.500571e+1, 1.6369113e+2, -1145479.4, -1341813.6, -14740.331, 0.0014734154, 0.15166353, -1144378.9, 191461.89, 0.000010539653, 10.001668, 9.99906 
3.5004425e+1, 1.7369023e+2, -1090721.9, -1260727.6, -3550.2627, -0.017629294, 0.14648722, -1090647.9, 147202.16, 0.000000028001644, 10.001354, 9.999095 
3.5003334e+1, 1.8368925e+2, -1023474.44, -1154706.5, 8226.759, -0.022637883, 0.13221443, -1022960.7, 116898.18, 0.0, 10.001045, 9.9993 
3.5002556e+1, 1.9368838e+2, -966608.75, -1075312.5, 5951.7036, -0.005606215, 0.10909733, -966283.9, 75581.305, 0.0, 10.000758, 9.9993105 
3.5001618e+1, 2.0368756e+2, -935843.0, -1046919.75, 227.33247, -0.0023480246, 0.11102694, -935842.56, 8030.472, 0.0, 10.000457, 9.998978 
3.5000402e+1, 2.1368676e+2, -891206.44, -982523.4, -2405.734, -0.021912858, 0.13594793, -891143.1, -45259.727, 0.0, 10.000123, 9.998907 
3.4999362e+1, 2.2368607e+2, -807431.75, -846237.7, 1523.6093, -0.025624769, 0.15873964, -807372.06, -59479.86, 0.0, 9.999831, 9.9993105 
3.4998643e+1, 2.3368566e+2, -738596.8, -758014.9, 10722.924, -0.0015227116, 0.17718588, -733840.5, -83943.71, 0.0, 9.999613, 9.999349 
3.499775e+1, 2.4368505e+2, -694125.3, -711117.75, 12368.156, 0.009196402, 0.19454262, -687616.3, -135713.27, 0.0, 9.999354, 9.999123 
3.4996554e+1, 2.5368416e+2, -645987.3, -642319.5, 10384.451, -0.0045432, 0.1898368, -633608.25, -179695.94, 0.0, 9.999034, 9.999076 
3.4995517e+1, 2.6368317e+2, -573793.44, -518036.88, 2096.9158, 0.0020530294, 0.17128193, -517958.13, -162036.52, 0.0, 9.998691, 9.999422 
3.4994817e+1, 2.7368242e+2, -528126.25, -441718.47, -6703.637, 0.04798212, 0.1424234, -441201.5, -183273.53, 0.0, 9.998316, 9.999453 
3.4993848e+1, 2.8368202e+2, -458966.9, -348458.1, 3003.5313, 0.05519266, 0.15598914, -348376.53, -188446.7, 0.000000011844628, 9.998078, 9.999534 
3.49923e+1, 2.9368186e+2, -357379.53, -236744.5, 18880.844, -0.013397689, 0.18007757, -233858.47, -171930.27, 0.0000061783935, 9.998053, 9.99964 
3.4990913e+1, 3.0368012e+2, -295887.75, -87413.195, -1148.7969, -0.044955783, -0.0013636802, -87406.87, -87406.87, 0.00006980885, 9.997731, 10.00049 
3.4990448e+1, 3.1368142e+2, -421301.28, -164070.03, -23000.883, 0.044901393, 0.086168, -162029.55, -162029.55, 0.00025299258, 9.996941, 10.000344 
4.501185e+1, 1.23698205e+2, -1388329.9, -1612507.5, 6078.601, 0.013706745, 0.1787142, -1388165.3, 339609.06, 0.0011988538, 10.002481, 9.999507 
4.5010337e+1, 1.3369666e+2, -1375192.9, -1688933.5, 1653.0165, -0.025362028, 0.1859914, -1375184.1, 254603.19, 0.0007112032, 10.002474, 9.998312 
4.5009166e+1, 1.436942e+2, -1279408.1, -1552464.3, 4245.4233, -0.030206751, 0.09404579, -1279342.1, 252468.36, 0.00031351, 10.002286, 9.998661 
4.5008525e+1, 1.5369318e+2, -1250877.9, -1491221.6, 18506.693, 0.010289337, 0.12371352, -1249461.1, 184359.22, 0.000084590996, 10.001823, 9.9986315 
4.5007443e+1, 1.6369236e+2, -1167702.9, -1341929.9, 16672.883, 0.017864825, 0.15401451, -1166121.8, 169706.95, 0.000007991499, 10.00147, 9.999155 
4.5005685e+1, 1.736914e+2, -1088779.9, -1246224.4, 11311.316, -0.025045807, 0.13301836, -1087971.4, 149866.34, 0.000000008983813, 10.001309, 9.999216 
4.500422e+1, 1.8369047e+2, -1021384.1, -1155463.3, 10789.062, -0.039750412, 0.11685156, -1020521.5, 119324.65, 0.0, 10.001068, 9.999284 
4.5003223e+1, 1.9368976e+2, -979720.2, -1085891.9, 11626.439, -0.010716504, 0.11279675, -978461.94, 63389.695, 0.0, 10.000687, 9.999272 
4.500204e+1, 2.03689e+2, -945123.9, -1042919.75, 14893.393, -0.00032714574, 0.12025915, -942906.06, 953.00415, 0.0, 10.000357, 9.999054 
4.5000535e+1, 2.1368815e+2, -886241.75, -969413.1, 23697.223, -0.019977763, 0.1305888, -879963.8, -34094.316, 0.0, 10.000113, 9.999002 
4.499922e+1, 2.2368744e+2, -808536.06, -850209.75, 27291.164, -0.023437766, 0.14753042, -795036.6, -47158.316, 0.0, 9.999839, 9.99928 
4.499823e+1, 2.3368706e+2, -756005.7, -771823.56, 14784.531, 0.0008883866, 0.17380999, -747147.56, -97264.734, 0.0, 9.9995165, 9.999301 
4.4997054e+1, 2.436865e+2, -704061.7, -704235.44, 8014.9736, 0.010384404, 0.19244285, -696133.1, -144244.38, 0.0, 9.999235, 9.999228 
4.4995552e+1, 2.5368562e+2, -638712.75, -624987.2, 18203.53, -0.007684704, 0.17983294, -612395.75, -158498.73, 0.0, 9.999024, 9.9992 
4.4994223e+1, 2.6368463e+2, -570583.5, -534427.56, 17580.863, -0.00096856774, 0.15939146, -527288.5, -171382.03, 0.0, 9.99879, 9.999262 
4.4993293e+1, 2.7368373e+2, -513304.0, -456874.22, 10921.654, 0.05412833, 0.13640535, -454834.13, -196919.06, 0.0, 9.998513, 9.999254 
4.4992083e+1, 2.836833e+2, -429162.25, -317266.75, 21790.068, 0.064538695, 0.15244043, -313173.2, -153255.86, 0.000000014278152, 9.998212, 9.999684 
4.4990265e+1, 2.9368332e+2, -368653.75, -220238.1, 25002.826, -0.013549932, 0.17533015, -216139.2, -154226.22, 0.0000058442592, 9.99788, 9.999837 
4.4988522e+1, 3.036817e+2, -316631.66, -118344.32, 4803.091, -0.05444717, 0.0012026365, -118228.05, -118228.05, 0.000066210356, 9.99768, 10.000303 
4.498779e+1, 3.1368273e+2, -336298.38, -157227.98, 22085.744, 0.048501983, 0.085222766, -154544.25, -154544.25, 0.0002424885, 9.997669, 10.000042 
5.5014116e+1, 1.2369914e+2, -1402805.4, -1643994.3, 4244.8037, -0.00900139, 0.13227415, -1402730.6, 325033.16, 0.0011275938, 10.002488, 9.999288 
5.501279e+1, 1.33698e+2, -1390635.4, -1720353.3, 1217.5994, -0.027570192, 0.20275372, -1390630.9, 239143.66, 0.00066134764, 10.002471, 9.998098 
5.501156e+1, 1.4369571e+2, -1259564.8, -1510279.9, -10871.331, -0.02023565, 0.12623042, -1259094.3, 272702.34, 0.00028458898, 10.002282, 9.998953 
5.5010444e+1, 1.5369469e+2, -1224703.8, -1437810.1, 1385.0231, 0.0190303, 0.11843789, -1224694.8, 209110.69, 0.00007188515, 10.001827, 9.998997 
5.500896e+1, 1.6369388e+2, -1170717.8, -1348376.8, 9037.185, 0.022325102, 0.13360511, -1170259.3, 165553.39, 0.0000055425044, 10.0014715, 9.99911 
5.5006933e+1, 1.7369305e+2, -1096970.6, -1261911.0, 5547.0464, -0.0312101, 0.13414745, -1096784.3, 141036.81, 0.00000000116644, 10.001305, 9.999111 
5.500515e+1, 1.8369216e+2, -1022188.2, -1155815.8, -2404.0469, -0.053446725, 0.12926897, -1022145.0, 117684.54, 0.0, 10.001062, 9.999284 
5.5003786e+1, 1.9369142e+2, -978589.06, -1083464.4, -2566.632, -0.023471097, 0.12036832, -978526.25, 63309.563, 0.0, 10.000687, 9.9992895 
5.500239e+1, 2.0369068e+2, -929732.4, -1010868.9, 4990.8447, -0.0012511417, 0.11985241, -929426.56, 14416.286, 0.0, 10.000356, 9.999273 
5.5000925e+1, 2.1368997e+2, -868977.06, -933162.75, 14755.209, 0.00760645, 0.11950854, -865747.56, -19897.016, 0.0, 10.000111, 9.999252 
5.4999363e+1, 2.2368921e+2, -827353.5, -888648.9, 15472.979, 0.0066767987, 0.1297124, -823669.06, -75809.72, 0.0, 9.999836, 9.999018 
5.499764e+1, 2.3368847e+2, -779842.6, -821170.56, 2804.301, -0.010178547, 0.15310352, -779653.25, -129784.55, 0.0, 9.999516, 9.998962 
5.499609e+1, 2.4368782e+2, -689083.25, -673034.4, -548.2259, -0.009976552, 0.17355885, -673015.6, -121139.85, 0.0, 9.999235, 9.999442 
5.499483e+1, 2.5368738e+2, -618028.5, -581832.56, 10483.809, 0.01705214, 0.17366612, -579015.3, -125136.26, 0.0, 9.999023, 9.999497 
5.499326e+1, 2.6368654e+2, -578176.3, -549664.5, 7323.024, 0.02330841, 0.15391172, -547893.6, -192006.83, 0.0, 9.998788, 9.999158 
5.499128e+1, 2.7368525e+2, -525476.44, -481394.34, 421.00507, 0.0011360772, 0.111468986, -481390.3, -223491.03, 0.0, 9.998511, 9.999086 
5.4989725e+1, 2.8368467e+2, -429594.25, -317926.94, 9377.587, 0.007385046, 0.123068415, -317144.9, -157241.58, 0.000000014996283, 9.998211, 9.9996805 
5.498874e+1, 2.9368496e+2, -366924.5, -216199.34, 13043.302, 0.045795575, 0.16860528, -215078.95, -153182.1, 0.0000053587105, 9.997878, 9.999866 
5.4986864e+1, 3.0368364e+2, -299825.0, -83097.27, 2634.6667, 0.011866699, 0.0125530325, -83065.25, -83065.25, 0.00006167987, 9.997678, 10.000546 
5.498466e+1, 3.1368476e+2, -321947.13, -126640.32, 23917.705, -0.03204087, 0.07918743, -123753.96, -123753.96, 0.00022941288, 9.997667, 10.000253 
6.501645e+1, 1.23700686e+2, -1393830.0, -1644018.8, 16837.242, -0.028363764, 0.11803125, -1392702.0, 335046.22, 0.001052614, 10.002568, 9.999248 
6.501524e+1, 1.3369966e+2, -1436104.4, -1744673.4, 28768.18, -0.014761065, 0.20313333, -1433445.1, 196312.89, 0.00060904585, 10.00217, 9.9980755 
6.501383e+1, 1.4369741e+2, -1308355.3, -1516233.3, 19095.168, 0.00027601293, 0.12528718, -1306615.8, 225164.02, 0.000254567, 10.001872, 9.99911 
6.501214e+1, 1.5369655e+2, -1218983.8, -1414749.5, 17187.818, 0.00806065, 0.115386724, -1217486.1, 216300.47, 0.00005931439, 10.00178, 9.999178 
6.501028e+1, 1.6369581e+2, -1153484.1, -1338494.6, 19212.17, 0.0009302964, 0.12826134, -1151510.1, 184282.6, 0.0000034805446, 10.001584, 9.999124 
6.50082e+1, 1.7369495e+2, -1110945.9, -1269555.6, 22892.246, -0.030071046, 0.12566815, -1107707.9, 130093.6, 0.00000000000024211628, 10.001213, 9.999103 
6.500621e+1, 1.8369408e+2, -1043828.8, -1160943.4, 20062.834, -0.04464439, 0.11974905, -1040487.25, 99322.65, 0.0, 10.000892, 9.9993305 
6.5004396e+1, 1.9369341e+2, -978660.44, -1077294.9, 22499.92, -0.0301626, 0.113726296, -973770.3, 68045.29, 0.0, 10.00066, 9.999345 
6.500268e+1, 2.0369273e+2, -924881.56, -1012860.4, 24762.354, -0.01076179, 0.11754476, -918390.9, 25431.373, 0.0, 10.000408, 9.999235 
6.500111e+1, 2.1369207e+2, -870350.0, -939715.9, 12044.849, 0.014456378, 0.12444442, -868318.06, -22488.074, 0.0, 10.000127, 9.9992 
6.499933e+1, 2.2369125e+2, -824826.06, -886629.94, 7851.208, 0.019526593, 0.13282041, -823844.3, -76005.055, 0.0, 9.99985, 9.999024 
6.499721e+1, 2.3369034e+2, -769931.94, -814357.3, 21186.547, -0.0077965953, 0.13818386, -761448.1, -111598.23, 0.0, 9.999576, 9.9989805 
6.499533e+1, 2.4368967e+2, -683049.56, -673319.1, 26737.227, -0.01177016, 0.15603532, -651008.06, -99150.75, 0.0, 9.99929, 9.9994135 
6.499388e+1, 2.536894e+2, -624460.2, -588464.9, 13388.011, 0.021695558, 0.17998497, -584031.44, -130172.375, 0.0, 9.998995, 9.999466 
6.499202e+1, 2.6368865e+2, -580893.6, -538587.9, 3137.9224, 0.024311919, 0.16793664, -538356.4, -182490.69, 0.0, 9.998715, 9.999269 
6.498958e+1, 2.736873e+2, -522504.84, -465623.94, 18047.227, -0.017466618, 0.10473762, -460381.13, -202502.97, 0.0, 9.998469, 9.999215 
6.498775e+1, 2.8368664e+2, -433422.13, -328123.25, 36529.176, -0.011785542, 0.10307341, -316691.94, -156809.05, 0.000000013847158, 9.99822, 9.999606 
6.498675e+1, 2.9368687e+2, -363100.44, -225402.55, 30467.406, 0.055198357, 0.15152654, -218962.45, -157084.66, 0.0000047556837, 9.997952, 9.999767 
6.498467e+1, 3.0368575e+2, -288897.38, -55190.15, 18053.037, 0.025841918, 0.012835943, -53803.84, -53803.84, 0.000056396846, 9.997656, 10.000748 
6.4982134e+1, 3.1368715e+2, -359354.97, -125471.36, 39008.863, -0.034245387, 0.08262312, -119136.74, -119136.74, 0.00021408794, 9.997328, 10.000423 
7.501883e+1, 1.237028e+2, -1383149.5, -1622505.9, 965.82495, -0.048353523, 0.1331213, -1383145.6, 344582.0, 0.0009783517, 10.002569, 9.999395 
7.501765e+1, 1.3370165e+2, -1422813.6, -1719370.1, 14142.107, 0.008506811, 0.18623817, -1422140.8, 207597.33, 0.00055803865, 10.002178, 9.998245 
7.501599e+1, 1.4369932e+2, -1306237.9, -1513026.4, 14071.493, 0.028073637, 0.09124559, -1305284.8, 226475.25, 0.00022607559, 10.001878, 9.999129 
7.501362e+1, 1.5369879e+2, -1220197.4, -1416125.3, 13999.52, -0.02227498, 0.115165174, -1219202.1, 214561.95, 0.000048170983, 10.001775, 9.999171 
7.5011384e+1, 1.636982e+2, -1148737.0, -1327374.0, 6775.25, -0.047073413, 0.13809903, -1148480.5, 187288.55, 0.0000019773436, 10.001578, 9.999202 
7.500948e+1, 1.7369713e+2, -1104134.1, -1256019.8, 9280.278, -0.024845902, 0.10710746, -1103569.3, 134209.69, 0.0, 10.001216, 9.999193 
7.500739e+1, 1.8369621e+2, -1036923.9, -1146988.8, 10683.967, -0.016173033, 0.088010006, -1035896.4, 103890.9, 0.0, 10.000894, 9.999426 
7.500504e+1, 1.9369575e+2, -972429.6, -1063573.9, 13972.804, -0.03097771, 0.09353555, -970335.6, 71455.3, 0.0, 10.000657, 9.99944 
7.5002897e+1, 2.0369518e+2, -946137.06, -1056349.5, 14409.37, -0.02917381, 0.113770165, -944284.3, -486.98798, 0.0, 10.000406, 9.998938 
7.5001085e+1, 2.1369438e+2, -895470.9, -991636.0, 1681.991, -0.0008850851, 0.1453298, -895441.44, -49633.668, 0.0, 10.000126, 9.998843 
7.4999124e+1, 2.2369352e+2, -805362.4, -846138.6, -2533.9624, 0.013593342, 0.15685351, -805205.5, -57387.51, 0.0, 9.999849, 9.999303 
7.499693e+1, 2.3369266e+2, -743911.06, -760267.44, 10916.292, 0.0067561157, 0.12876594, -738449.25, -88622.68, 0.0, 9.999575, 9.9993515 
7.499478e+1, 2.43692e+2, -702119.7, -712588.56, 15548.016, 0.004042575, 0.13918366, -690948.6, -139115.19, 0.0, 9.999289, 9.999145 
7.4992716e+1, 2.5369176e+2, -650167.0, -641514.3, 2220.0408, 0.0052851746, 0.19890566, -640977.94, -187141.0, 0.0, 9.998993, 9.999102 
7.499051e+1, 2.636911e+2, -558038.94, -490807.5, -6603.383, 0.0011972435, 0.20175464, -490165.06, -134321.94, 0.0, 9.998714, 9.999598 
7.49882e+1, 2.7368996e+2, -492953.4, -403863.47, 9111.373, -0.0027905137, 0.11617813, -402941.2, -145089.5, 0.0, 9.998468, 9.9996395 
7.498615e+1, 2.8368923e+2, -443636.9, -349152.44, 26358.676, 0.005658456, 0.092355296, -342296.53, -182440.48, 0.000000011324871, 9.9982195, 9.999461 
7.4984276e+1, 2.9368904e+2, -378980.6, -258080.6, 20301.17, 0.012595538, 0.12425332, -254762.73, -192906.98, 0.000004098041, 9.9979515, 9.999543 
7.4981916e+1, 3.0368805e+2, -277630.47, -31394.967, 5667.6157, -0.015033175, 0.0024448945, -31264.584, -31264.584, 0.000050636394, 9.997655, 10.000912 
7.49802e+1, 3.1368992e+2, -350019.13, -104746.63, 28431.17, 0.040045656, 0.096600704, -101494.12, -101494.12, 0.00019707165, 9.997323, 10.000567 
8.502146e+1, 1.2370529e+2, -1427078.4, -1635465.3, 16497.473, -0.025253804, 0.15047432, -1425780.4, 301923.06, 0.00090933184, 10.002232, 9.99947 
8.501977e+1, 1.3370407e+2, -1418272.9, -1704227.1, 25335.492, 0.0036233086, 0.18640013, -1416045.5, 213668.27, 0.0005120121, 10.002153, 9.998362 
8.501774e+1, 1.4370161e+2, -1300094.3, -1517323.9, 20176.043, 0.011314929, 0.073558375, -1298236.3, 233500.56, 0.00020159004, 10.001951, 9.999064 
8.501524e+1, 1.5370111e+2, -1256437.9, -1443837.4, 14166.41, -0.02764343, 0.11060875, -1255373.0, 178367.98, 0.000039447743, 10.001571, 9.999079 
8.50128e+1, 1.6370057e+2, -1186629.0, -1331951.9, 4317.7007, -0.04655486, 0.13816561, -1186500.9, 149244.61, 0.0000010481418, 10.00126, 9.999324 
8.501061e+1, 1.7369957e+2, -1113989.5, -1243885.6, 10457.999, -0.025087584, 0.098275535, -1113152.9, 124601.195, 0.0, 10.001076, 9.999345 
8.500832e+1, 1.8369865e+2, -1040741.8, -1157440.1, 11512.997, -0.014031261, 0.07407599, -1039616.8, 100145.41, 0.0, 10.000904, 9.99935 
8.500582e+1, 1.9369811e+2, -966281.7, -1072262.0, 433.83786, -0.0237962, 0.080961145, -966279.9, 75487.41, 0.0, 10.00075, 9.999335 
8.500338e+1, 2.036975e+2, -929859.9, -1042410.56, -1099.846, -0.026213894, 0.10373764, -929849.1, 13925.024, 0.0, 10.000492, 9.998991 
8.500103e+1, 2.1369684e+2, -898722.1, -984689.94, 17292.176, -0.015861662, 0.13956197, -895374.25, -49590.746, 0.0, 10.000067, 9.99892 
8.499874e+1, 2.236961e+2, -824235.8, -854912.56, 26384.1, -0.003211094, 0.1575389, -809055.56, -61262.883, 0.0, 9.999719, 9.999306 
8.4996545e+1, 2.3369533e+2, -754462.2, -765995.94, 11660.408, 0.014332907, 0.14067596, -747220.5, -97420.05, 0.0, 9.999505, 9.999346 
8.4994215e+1, 2.4369466e+2, -704512.75, -709217.44, 8401.634, 0.020107463, 0.148307, -698140.4, -146333.03, 0.0, 9.999252, 9.999186 
8.4991646e+1, 2.536942e+2, -655668.6, -638917.6, 25344.242, 0.002247733, 0.18342303, -620600.8, -166788.63, 0.0, 9.998933, 9.999149 
8.498908e+1, 2.636935e+2, -566420.6, -495025.3, 25886.97, -0.0095677, 0.17990749, -486626.97, -130808.52, 0.0, 9.998657, 9.999597 
8.4986687e+1, 2.7369258e+2, -495767.38, -405908.9, 8945.842, 0.00029022867, 0.11630231, -405026.97, -147201.8, 0.0, 9.998451, 9.999635 
8.498447e+1, 2.8369188e+2, -438739.2, -348195.66, 13254.006, 0.013990322, 0.09819319, -346295.38, -186466.19, 0.000000007967864, 9.998259, 9.999451 
8.498225e+1, 2.9369155e+2, -357897.66, -249343.97, 23241.379, 0.0075930916, 0.11543405, -244577.28, -182746.9, 0.0000034232567, 9.998102, 9.999532 
8.4979594e+1, 3.036906e+2, -239966.94, -16434.465, 8690.45, -0.026118347, -0.00034196922, -16097.108, -16097.108, 0.00004462947, 9.997926, 10.000884 
8.497784e+1, 3.1369224e+2, -307722.34, -96214.11, 12958.113, 0.05453738, 0.073408015, -95423.18, -95423.18, 0.00017893763, 9.997663, 10.000463 
9.5024323e+1, 1.23708144e+2, -1427073.6, -1635764.3, 12285.917, 0.037204176, 0.17193493, -1426352.8, 301322.97, 0.0008487081, 10.002233, 9.999467 
9.5021594e+1, 1.3370693e+2, -1414493.9, -1696687.4, 22314.785, -0.029662069, 0.20227309, -1412740.3, 216945.39, 0.00047347447, 10.002154, 9.998412 
9.501907e+1, 1.4370425e+2, -1309684.9, -1537041.8, 7232.6064, -0.05094455, 0.07129635, -1309455.0, 222255.5, 0.00018256163, 10.00195, 9.998929 
9.501697e+1, 1.5370354e+2, -1267633.6, -1467785.3, 271.34253, -0.0120066125, 0.10212212, -1267633.4, 166084.05, 0.00003354367, 10.001574, 9.998913 
9.501452e+1, 1.6370293e+2, -1175333.5, -1308902.6, -3289.9778, -0.0008695605, 0.12871099, -1175252.5, 160469.73, 0.00000057940093, 10.001262, 9.999481 
9.5011634e+1, 1.7370224e+2, -1099930.4, -1214269.1, 3780.9307, -0.030810717, 0.09892273, -1099805.5, 137921.77, 0.0, 10.001074, 9.999549 
9.500897e+1, 1.8370137e+2, -1057576.5, -1192118.9, 5569.431, -0.038535777, 0.0780851, -1057346.4, 82388.52, 0.0, 10.000903, 9.999112 
9.5006704e+1, 1.9370045e+2, -987308.4, -1116057.6, -5134.718, -0.010325021, 0.07622577, -987103.94, 54640.87, 0.0, 10.000751, 9.999034 
9.5004106e+1, 2.0369974e+2, -901568.06, -983729.25, -15858.216, -0.0033122732, 0.0876708, -898613.44, 45139.266, 0.0, 10.000492, 9.999394 
9.5000947e+1, 2.1369942e+2, -863051.06, -910498.44, 1349.1102, -0.031459928, 0.1070734, -863012.75, -17255.654, 0.0, 10.000066, 9.99943 
9.4998175e+1, 2.2369893e+2, -843820.44, -895287.2, 17234.832, -0.031900905, 0.1350226, -838582.1, -90818.75, 0.0, 9.999718, 9.999029 
9.4996053e+1, 2.3369834e+2, -782168.06, -823105.25, 3778.7856, 0.014591728, 0.17345403, -781822.2, -132050.56, 0.0, 9.999504, 9.998955 
9.499363e+1, 2.4369761e+2, -679911.94, -657912.94, -3414.3347, 0.035912853, 0.18379875, -657395.2, -105616.18, 0.0, 9.999251, 9.999537 
9.499067e+1, 2.5369677e+2, -623748.0, -572430.7, 13373.958, 0.011364645, 0.13296637, -569154.44, -115369.625, 0.0, 9.998932, 9.999606 
9.498775e+1, 2.636959e+2, -590239.5, -544119.7, 17454.572, -0.008902802, 0.10196268, -538258.6, -182466.88, 0.0, 9.998656, 9.99926 
9.498504e+1, 2.736952e+2, -526958.6, -470447.3, 1081.0592, -0.009654306, 0.10520193, -470426.66, -212628.0, 0.0, 9.99845, 9.999192 
9.49827e+1, 2.8369468e+2, -429660.28, -329390.3, 6554.64, 0.0119083, 0.12101094, -328963.66, -169161.39, 0.0000000042394483, 9.998259, 9.999579 
9.498068e+1, 2.936944e+2, -344204.8, -220427.72, 17625.818, 0.040070664, 0.124474704, -217966.73, -156165.02, 0.000002739973, 9.9981, 9.999731 
9.49777e+1, 3.036934e+2, -255690.55, -48102.117, -445.00128, -0.0077268668, 0.0038516314, -48101.164, -48101.164, 0.000038513957, 9.997923, 10.000668 
9.497501e+1, 3.1369412e+2, -332946.2, -147546.69, 4032.5686, 0.0052509964, 0.013688134, -147459.03, -147459.03, 0.00016010099, 9.997659, 10.000112 
1.0502663e+2, 1.23710826e+2, -1423837.8, -1645271.8, 10043.152, 0.042334072, 0.166028, -1423383.1, 304265.88, 0.00079770345, 10.002303, 9.999367 
1.0502365e+2, 1.3370962e+2, -1444758.5, -1717180.4, 12770.635, -0.029756926, 0.20456892, -1444161.1, 185498.03, 0.0004431459, 10.001973, 9.998359 
1.0502086e+2, 1.4370692e+2, -1340350.3, -1536818.4, -984.477, -0.053358607, 0.06778798, -1340345.3, 191339.22, 0.00016917764, 10.001675, 9.999064 
1.0501848e+2, 1.5370634e+2, -1275941.4, -1454491.8, 14661.723, -0.010776899, 0.09689757, -1274745.5, 158943.83, 0.000030278157, 10.001441, 9.999069 
1.05015814e+2, 1.637058e+2, -1188092.8, -1328451.0, 20214.729, 0.003947967, 0.12430991, -1185239.4, 150454.33, 0.0000004316036, 10.00123, 9.999363 
1.0501277e+2, 1.7370501e+2, -1114648.9, -1238603.8, 1720.029, -0.023645943, 0.102001876, -1114625.0, 123075.234, 0.0, 10.001047, 9.999395 
1.0500987e+2, 1.8370412e+2, -1067220.4, -1188698.3, -3151.9429, -0.03385805, 0.082881615, -1067138.6, 72569.93, 0.0, 10.000802, 9.999184 
1.0500727e+2, 1.937032e+2, -1021404.4, -1121188.5, 15330.143, -0.014761245, 0.07203761, -1019102.3, 22615.613, 0.0, 10.000466, 9.999136 
1.0500441e+2, 2.0370255e+2, -937125.6, -992413.6, 10259.586, -0.0073286905, 0.08150588, -935283.2, 8441.72, 0.0, 10.000211, 9.999471 
1.0500113e+2, 2.1370241e+2, -855726.06, -898212.3, -4898.25, -0.020443434, 0.11087653, -855168.6, -9441.042, 0.0, 10.000079, 9.999507 
1.0499806e+2, 2.2370201e+2, -823118.4, -884005.6, 1586.6167, -0.021473775, 0.14180715, -823077.06, -75344.055, 0.0, 9.999854, 9.999041 
1.04995385e+2, 2.337013e+2, -786303.8, -825176.06, 17260.592, -0.0013166012, 0.1715044, -779745.9, -130004.09, 0.0, 9.9994755, 9.998955 
1.0499263e+2, 2.4370052e+2, -690875.6, -663182.56, 17058.092, 0.014546083, 0.17301618, -655058.56, -103308.79, 0.0, 9.999176, 9.999538 
1.04989715e+2, 2.5369957e+2, -612555.0, -566879.3, -992.5689, 0.018769914, 0.113626316, -566857.75, -113101.66, 0.0, 9.999007, 9.999608 
1.04986675e+2, 2.6369867e+2, -561720.7, -536965.94, -2910.9832, 0.0069256974, 0.08192627, -536628.2, -180864.97, 0.0, 9.9988785, 9.999203 
1.0498358e+2, 2.73698e+2, -479240.47, -454867.2, 9869.451, -0.01869732, 0.09530486, -451372.0, -193602.03, 0.0, 9.998809, 9.999127 
1.0498103e+2, 2.8369743e+2, -386828.53, -316923.16, 18534.781, 0.0017449029, 0.11117059, -312312.88, -152538.45, 0.0000000012344323, 9.998587, 9.999508 
1.04979046e+2, 2.93697e+2, -348896.38, -231348.81, 7740.2373, 0.06655724, 0.105840884, -230841.33, -169065.64, 0.0000020653147, 9.998102, 9.999657 
1.0497584e+2, 3.0369613e+2, -271006.78, -70738.99, -8762.383, 0.016840551, 0.009180882, -70356.34, -70356.34, 0.00003243676, 9.99788, 10.000535 
1.0497271e+2, 3.1369665e+2, -286410.5, -147106.75, 6577.1323, -0.01188174, 0.014980031, -146796.9, -146796.9, 0.00014094144, 9.998072, 9.999917 
1.150284e+2, 1.2371328e+2, -1437309.6, -1673684.6, -4128.8335, -0.01246031, 0.12947017, -1437237.5, 290386.16, 0.0007564602, 10.002305, 9.99917 
1.1502592e+2, 1.3371217e+2, -1456210.8, -1739869.0, 520.29816, -0.00013279983, 0.19487034, -1456209.8, 173424.77, 0.00042056636, 10.001968, 9.998206 
1.1502307e+2, 1.4370964e+2, -1313737.4, -1480550.1, -9870.412, 0.00034644827, 0.06446156, -1313155.4, 218503.34, 0.00016082273, 10.00167, 9.999453 
1.1501978e+2, 1.5370952e+2, -1242778.8, -1386638.3, 6352.914, -0.025387483, 0.09327647, -1242498.8, 191158.5, 0.000029173776, 10.001446, 9.999533 
1.15016684e+2, 1.6370909e+2, -1214037.0, -1383091.5, 12858.735, -0.032720875, 0.12413514, -1213064.5, 122595.555, 0.0000005105562, 10.001233, 9.998987 
1.15013994e+2, 1.737079e+2, -1149593.6, -1311266.9, -5010.786, -0.005460605, 0.10858765, -1149438.5, 88234.375, 0.0, 10.001047, 9.998897 
1.1501099e+2, 1.8370686e+2, -1041198.9, -1134351.1, -15048.907, -0.0018131484, 0.089105874, -1038828.06, 100854.984, 0.0, 10.0008, 9.9995575 
1.15007505e+2, 1.9370635e+2, -986007.6, -1047788.06, 2847.953, -0.037525333, 0.06790837, -985876.6, 55810.086, 0.0, 10.000466, 9.99964 
1.1500431e+2, 2.0370595e+2, -954574.25, -1028477.7, 4353.896, -0.038780063, 0.08497827, -954318.6, -10627.803, 0.0, 10.00021, 9.999224 
1.1500158e+2, 2.1370582e+2, -880720.7, -949928.9, -9647.823, 0.016601795, 0.1510434, -879400.94, -33705.84, 0.0, 10.000078, 9.999152 
1.1499841e+2, 2.237053e+2, -802130.6, -840294.0, -11667.62, 0.027396312, 0.17779292, -798846.2, -51144.473, 0.0, 9.999853, 9.999341 
1.1499453e+2, 2.3370428e+2, -758671.0, -767627.06, 3031.9766, -0.034187768, 0.13497321, -757741.1, -108030.07, 0.0, 9.999475, 9.999351 
1.1499121e+2, 2.4370335e+2, -716391.25, -715710.2, 9562.362, -0.045014255, 0.11620704, -706482.3, -154762.72, 0.0, 9.999174, 9.999179 
1.1498877e+2, 2.5370264e+2, -645105.25, -634207.8, -7284.219, 0.023354476, 0.12555312, -630559.94, -176833.72, 0.0, 9.999006, 9.999146 
1.1498585e+2, 2.6370186e+2, -545531.2, -503458.8, -6425.034, 0.03725994, 0.119808964, -502499.5, -146766.42, 0.0, 9.998879, 9.999433 
1.1498231e+2, 2.73701e+2, -457173.2, -408792.56, 7337.731, -0.02720908, 0.08588043, -407704.16, -149965.0, 0.0, 9.998808, 9.999444 
1.1497942e+2, 2.8370017e+2, -406547.06, -356898.06, 2057.0925, -0.016718552, 0.06813557, -356812.97, -197067.3, 0.00000000006210851, 9.998584, 9.999235 
1.1497733e+2, 2.9369935e+2, -373611.72, -281938.38, -10326.046, 0.085120924, 0.05999767, -280789.63, -219037.44, 0.0000014487281, 9.9981, 9.9993105 
1.1497402e+2, 3.036988e+2, -274152.56, -77256.47, -4689.92, 0.045995627, 0.016485188, -77144.82, -77144.82, 0.000026628812, 9.99788, 10.00049 
1.1497092e+2, 3.1369987e+2, -289592.6, -153206.0, 14260.178, 0.001729598, 0.07731679, -151730.95, -151730.95, 0.00012196842, 9.99807, 9.999876 
1.2503046e+2, 1.237161e+2, -1491360.1, -1688216.3, -4743.6235, -0.01721277, 0.11507652, -1491245.9, 236350.1, 0.0007247361, 10.001884, 9.999274 
1.2502782e+2, 1.3371529e+2, -1480710.3, -1731852.5, 24854.205, 0.006543699, 0.19269584, -1478274.3, 151329.69, 0.00040489552, 10.001715, 9.9983835 
1.2502475e+2, 1.4371286e+2, -1332308.9, -1488563.8, 18302.063, 0.009271, 0.062832765, -1330193.8, 201433.33, 0.00015657058, 10.001537, 9.999462 
1.2502117e+2, 1.5371284e+2, -1257791.0, -1395683.9, -666.74786, -0.025977595, 0.10415754, -1257787.8, 175837.06, 0.000029665785, 10.001349, 9.999517 
1.2501782e+2, 1.6371241e+2, -1230623.5, -1392188.3, -3238.1948, -0.036712, 0.13558035, -1230558.6, 105069.234, 0.0000007617598, 10.001123, 9.998978 
1.2501496e+2, 1.7371103e+2, -1181218.5, -1328134.8, 14157.877, -0.0030975207, 0.10125308, -1179866.6, 57775.74, 0.0, 10.000835, 9.998883 
1.2501173e+2, 1.8370998e+2, -1067901.8, -1139317.9, 14253.965, 0.003144726, 0.077592336, -1065161.9, 74490.69, 0.0, 10.000582, 9.99963 
1.2500793e+2, 1.9370975e+2, -993229.75, -1041535.06, 1227.0917, -0.03686517, 0.077516615, -993198.6, 48454.777, 0.0, 10.000375, 9.999727 
1.2500449e+2, 2.0370945e+2, -963554.3, -1038471.1, -4656.3296, -0.040847298, 0.10134399, -963266.0, -19609.484, 0.0, 10.000173, 9.999173 
1.2500158e+2, 2.1370907e+2, -899932.6, -967451.5, 2554.667, 0.0141892405, 0.14991367, -899836.1, -54172.97, 0.0, 9.999981, 9.99908 
1.2499821e+2, 2.2370842e+2, -807830.06, -835927.5, 589.3027, 0.026531303, 0.1645273, -807817.7, -60146.844, 0.0, 9.9997835, 9.999406 
1.2499409e+2, 2.3370744e+2, -738250.2, -748063.94, -8834.67, -0.03057128, 0.118027866, -733051.2, -83372.06, 0.0, 9.999573, 9.999436 
1.24990515e+2, 2.4370652e+2, -692012.5, -716234.06, -1852.3342, -0.04270189, 0.100456834, -691871.7, -140184.28, 0.0, 9.999394, 9.99907 
1.2498782e+2, 2.537058e+2, -617279.56, -636381.2, 6712.155, 0.014486168, 0.12170577, -615156.9, -161462.05, 0.0, 9.999265, 9.999008 
1.2498474e+2, 2.6370502e+2, -516075.84, -484005.1, 13507.088, 0.02863025, 0.12367292, -479074.44, -123372.73, 0.0, 9.999059, 9.99948 
1.2498118e+2, 2.7370423e+2, -464678.13, -404672.53, 7444.7407, -0.015885858, 0.08597733, -403762.66, -146055.64, 0.0, 9.998721, 9.999516 
1.2497808e+2, 2.8370327e+2, -422305.94, -374155.78, -2274.0813, -0.005056696, 0.05848384, -374048.63, -214334.2, 0.0, 9.998515, 9.99915 
1.2497542e+2, 2.9370224e+2, -320243.53, -268245.9, 3255.2283, 0.0631103, 0.040110327, -268042.9, -206319.38, 0.00000094519226, 9.998518, 9.999203 
1.2497185e+2, 3.0370203e+2, -208354.63, -48585.246, 22327.791, 0.019157644, 0.033048466, -45523.605, -45523.605, 0.000021325412, 9.998346, 10.000463 
1.24969244e+2, 3.1370315e+2, -324639.3, -172402.47, 40406.703, 0.038804702, 0.10538641, -162342.5, -162342.5, 0.00010374953, 9.997839, 9.999858 
1.3503276e+2, 1.2371931e+2, -1466202.6, -1633724.0, -12336.521, 0.025169386, 0.12673788, -1465299.1, 262266.78, 0.0007016644, 10.001875, 9.999654 
1.3502936e+2, 1.3371891e+2, -1444604.9, -1659213.6, 18868.39, -0.012650218, 0.1963659, -1442958.5, 186609.2, 0.00039489288, 10.001724, 9.998878 
1.3502592e+2, 1.4371654e+2, -1356261.1, -1540188.3, 10616.235, -0.02865277, 0.060925294, -1355650.4, 175939.66, 0.00015526546, 10.001545, 9.9991045 
1.3502264e+2, 1.5371634e+2, -1291876.5, -1465570.1, -7815.1504, -0.014374447, 0.13113822, -1291525.5, 142066.52, 0.000031126172, 10.001346, 9.99904 
1.3501921e+2, 1.6371578e+2, -1207032.4, -1341918.3, -13556.083, -0.010100031, 0.16003025, -1205683.4, 129913.53, 0.0000011270397, 10.001118, 9.999326 
1.3501565e+2, 1.7371437e+2, -1147929.0, -1259651.6, 3612.608, -0.017915195, 0.078689225, -1147812.3, 89796.734, 0.0, 10.000838, 9.999352 
1.3501209e+2, 1.837134e+2, -1083172.5, -1171539.0, 6040.882, -0.01995543, 0.047352675, -1082761.4, 56856.082, 0.0, 10.000584, 9.999408 
1.3500854e+2, 1.9371341e+2, -1015885.4, -1088863.3, -6407.71, -0.013632931, 0.10124177, -1015327.06, 26290.85, 0.0, 10.000376, 9.999403 
1.3500491e+2, 2.0371304e+2, -953577.1, -1017750.94, -12080.884, -0.014584087, 0.13085775, -951378.2, -7756.154, 0.0, 10.000172, 9.999316 
1.3500114e+2, 2.1371216e+2, -885298.5, -936705.4, -4458.897, -0.028310083, 0.10760855, -884914.6, -39282.87, 0.0, 9.999979, 9.999292 
1.3499749e+2, 2.2371136e+2, -820540.25, -861815.4, -7273.8247, -0.025059303, 0.10256633, -819295.94, -71655.56, 0.0, 9.999781, 9.999229 
1.3499404e+2, 2.3371078e+2, -754158.75, -781044.0, -16639.205, 0.008278506, 0.12031324, -746210.5, -96564.45, 0.0, 9.999573, 9.99921 
1.3499054e+2, 2.4371004e+2, -681677.5, -694884.06, -7313.6143, 0.02037855, 0.12501368, -678427.25, -126773.98, 0.0, 9.999394, 9.999216 
1.3498685e+2, 2.5370905e+2, -603715.4, -608050.0, 2001.0526, -0.008254681, 0.1019255, -602932.9, -149270.94, 0.0, 9.999264, 9.999203 
1.3498332e+2, 2.6370823e+2, -526498.2, -505009.97, 1667.4883, -0.019296682, 0.09352185, -504881.34, -149212.25, 0.0, 9.999056, 9.999337 
1.3498019e+2, 2.7370763e+2, -477171.3, -430382.03, -5081.363, 0.013360303, 0.09628603, -429836.53, -172163.02, 0.0, 9.99872, 9.999339 
1.34977e+2, 2.8370678e+2, -414868.03, -358807.2, -4049.371, 0.03464992, 0.082418926, -358516.22, -198835.56, 0.0, 9.998515, 9.999256 
1.349733e+2, 2.9370573e+2, -311185.47, -248956.88, 3932.5295, -0.00141623, 0.04584521, -248709.34, -187019.6, 0.0000005800232, 9.998516, 9.999337 
1.3496935e+2, 3.0370575e+2, -209359.66, -49498.68, 5638.921, -0.064723365, 0.058029618, -49300.02, -49300.02, 0.000016654767, 9.9983425, 10.000458 
1.3496767e+2, 3.1370658e+2, -324519.06, -169921.31, 20356.941, 0.09772732, 0.09966064, -167285.7, -167285.7, 0.00008670888, 9.997831, 9.999877 
1.4503475e+2, 1.23722866e+2, -1461055.4, -1626858.8, 4653.421, 0.035788197, 0.13803396, -1460924.9, 266607.0, 0.0006852014, 10.00189, 9.999693 
1.4503103e+2, 1.3372266e+2, -1449975.6, -1646720.0, 10335.642, -0.012423913, 0.21385902, -1449434.1, 180097.33, 0.00038852147, 10.001622, 9.999012 
1.4502735e+2, 1.4372027e+2, -1382706.0, -1561041.1, -2885.8167, -0.032668795, 0.07242331, -1382659.3, 148894.52, 0.00015533686, 10.001398, 9.999032 
1.4502396e+2, 1.5371993e+2, -1317987.6, -1490509.0, 5792.3457, -0.010967791, 0.13754643, -1317793.4, 115764.56, 0.00003278088, 10.001219, 9.99893 
1.4502032e+2, 1.6371933e+2, -1214793.9, -1330777.8, 5881.4194, -0.0040877894, 0.16361827, -1214496.4, 121066.914, 0.0000015078091, 10.000999, 9.999459 
1.4501643e+2, 1.7371812e+2, -1155068.1, -1244241.3, 69.80637, -0.017190449, 0.08716742, -1155068.0, 82504.35, 0.0, 10.000708, 9.999521 
1.4501263e+2, 1.8371722e+2, -1105675.4, -1195680.5, -2278.696, -0.018001748, 0.056898545, -1105617.8, 33962.258, 0.0, 10.000485, 9.9992895 
1.4500906e+2, 1.9371697e+2, -1027130.7, -1112687.6, -2480.878, -0.00017235326, 0.10280737, -1027058.8, 14524.485, 0.0, 10.000377, 9.999239 
1.4500524e+2, 2.0371649e+2, -942658.94, -1001546.25, -5255.3667, -0.0011359153, 0.12464833, -942193.56, 1395.0715, 0.0, 10.000199, 9.9994135 
1.4500102e+2, 2.1371569e+2, -885827.3, -921564.94, -3777.618, -0.033705804, 0.096009076, -885432.4, -39835.73, 0.0, 9.999909, 9.99943 
1.4499715e+2, 2.2371492e+2, -836226.2, -883108.25, -2925.3906, -0.034733668, 0.09254105, -836044.4, -88439.74, 0.0, 9.999732, 9.999106 
1.4499381e+2, 2.3371431e+2, -740544.7, -792605.3, -6384.08, 0.018261591, 0.12188417, -739773.25, -90161.63, 0.0, 9.999743, 9.999049 
1.4499022e+2, 2.4371356e+2, -641830.3, -659740.4, 232.31458, 0.038905904, 0.12917292, -641827.3, -90208.27, 0.0, 9.999599, 9.999359 
1.4498617e+2, 2.5371265e+2, -600480.7, -585916.0, 7375.173, -0.0003953501, 0.095877096, -582833.7, -129207.78, 0.0, 9.999197, 9.999387 
1.4498228e+2, 2.6371184e+2, -553929.56, -534411.56, 9741.698, -0.022090076, 0.086129695, -530381.44, -174748.94, 0.0, 9.998938, 9.999192 
1.4497888e+2, 2.7371117e+2, -464722.28, -445290.03, 2979.2927, 0.0018429136, 0.09799552, -444843.5, -187204.94, 0.0, 9.998898, 9.99915 
1.4497553e+2, 2.837102e+2, -381114.22, -338539.06, 1529.3575, 0.025206285, 0.08180857, -338484.2, -178837.0, 0.0, 9.998731, 9.999291 
1.449718e+2, 2.9370907e+2, -329967.28, -252257.98, 3703.4512, 0.0058227303, 0.033563558, -252081.88, -190425.23, 0.00000034163278, 9.998361, 9.99939 
1.4496765e+2, 3.037094e+2, -233699.47, -54154.902, 1836.9738, -0.06059615, 0.06808715, -54136.11, -54136.11, 0.000012640429, 9.998143, 10.000523 
1.4496553e+2, 3.1370994e+2, -276180.22, -130405.58, 19859.34, 0.087970324, 0.07585844, -127748.51, -127748.51, 0.000071064576, 9.998093, 10.000023 
1.5503639e+2, 1.23726726e+2, -1480390.6, -1668555.9, -8462.767, 0.010260179, 0.14578392, -1480010.8, 247483.97, 0.0006719969, 10.001897, 9.999404 
1.5503284e+2, 1.3372654e+2, -1465252.6, -1677426.9, 205.49384, 0.00539137, 0.24667586, -1465252.4, 164242.44, 0.00038301162, 10.001617, 9.998804 
1.5502904e+2, 1.4372407e+2, -1369452.1, -1531695.6, -9905.7705, -0.0049134223, 0.09909154, -1368849.6, 162668.5, 0.00015494693, 10.00139, 9.999237 
1.5502511e+2, 1.5372355e+2, -1299550.0, -1452949.8, -464.4041, -0.017999252, 0.1223624, -1299548.6, 133974.08, 0.000033834087, 10.001222, 9.999186 
1.5502116e+2, 1.6372304e+2, -1220005.9, -1342426.5, -4861.5527, -0.02044649, 0.14514865, -1219813.1, 115713.84, 0.0000017896223, 10.001003, 9.999377 
1.5501729e+2, 1.7372231e+2, -1163968.3, -1262634.6, -10937.584, -0.0019438263, 0.12739888, -1162770.3, 74762.2, 0.0, 10.000707, 9.999395 
1.5501338e+2, 1.8372142e+2, -1107169.6, -1198289.5, -7293.627, 0.0076902523, 0.10690013, -1106589.5, 32950.645, 0.0, 10.0004835, 9.999273 
1.5500946e+2, 1.9372046e+2, -1027067.75, -1112608.8, -6345.121, 0.002482495, 0.081955224, -1026599.7, 14949.994, 0.0, 10.000377, 9.99924 
1.5500543e+2, 2.037198e+2, -939165.25, -994170.06, -15416.709, -0.0013750831, 0.082494736, -935139.0, 8417.458, 0.0, 10.000198, 9.999465 
1.5500124e+2, 2.1371965e+2, -881585.44, -912710.5, -14582.34, -0.0032537773, 0.11481085, -875821.06, -30263.145, 0.0, 9.999909, 9.999491 
1.549972e+2, 2.2371912e+2, -841007.5, -892872.2, -4000.8147, -0.003756188, 0.1339804, -840700.7, -93136.97, 0.0, 9.999732, 9.99904 
1.5499336e+2, 2.3371802e+2, -746911.0, -805604.25, -5735.388, -0.0007508085, 0.12288827, -746355.8, -96780.01, 0.0, 9.9997425, 9.9989605 
1.5498957e+2, 2.437171e+2, -632629.06, -640391.4, -13080.753, 0.012334916, 0.11360753, -622865.8, -71281.164, 0.0, 9.9995985, 9.999493 
1.5498571e+2, 2.537166e+2, -588352.3, -560878.7, -7687.029, 0.03601885, 0.10353163, -558874.1, -105287.195, 0.0, 9.999197, 9.999559 
1.5498163e+2, 2.637159e+2, -564178.75, -555461.9, 6492.2446, 0.018191326, 0.10084847, -552000.8, -196408.69, 0.0, 9.998937, 9.999048 
1.5497725e+2, 2.737148e+2, -478486.06, -473272.8, 1712.9757, -0.051655006, 0.09096321, -472760.34, -215158.05, 0.0, 9.998895, 9.99896 
1.5497366e+2, 2.8371352e+2, -383801.4, -344117.1, -11129.451, -0.033722352, 0.056198638, -341208.97, -181594.89, 0.0, 9.99873, 9.999254 
1.5497094e+2, 2.9371235e+2, -331139.78, -255013.08, -9507.313, 0.0848647, 0.003287655, -253843.69, -192219.47, 0.00000019535571, 9.998362, 9.999371 
1.549667e+2, 3.0371293e+2, -225182.17, -35798.4, -765.71497, 0.03009886, 0.06302291, -35795.305, -35795.305, 0.000009261703, 9.99814, 10.000649 
1.5496276e+2, 3.1371328e+2, -258258.98, -92030.766, 17503.45, 0.0014831966, 0.033849154, -90207.69, -90207.69, 0.000056915687, 9.998088, 10.000288 
1.6503808e+2, 1.23730674e+2, -1518843.6, -1694595.1, -7871.7188, 0.0013828522, 0.15248151, -1518491.9, 208964.4, 0.00065754744, 10.001664, 9.999336 
1.650345e+2, 1.337305e+2, -1461928.1, -1672702.8, 20661.36, 0.009757408, 0.25176042, -1459921.9, 169534.69, 0.00037533476, 10.001626, 9.998832 
1.6503055e+2, 1.4372803e+2, -1355277.5, -1515225.6, 11618.317, 0.00485618, 0.098284766, -1354438.0, 177041.75, 0.00015252095, 10.001446, 9.999323 
1.6502629e+2, 1.5372758e+2, -1324595.9, -1454763.5, 7294.361, -0.010558473, 0.1180669, -1324188.4, 109295.055, 0.000033788867, 10.001006, 9.999277 
1.650221e+2, 1.637271e+2, -1261253.4, -1365126.4, 3403.7173, -0.013181004, 0.14408591, -1261142.0, 74344.99, 0.0000018950186, 10.000732, 9.999352 
1.650181e+2, 1.7372648e+2, -1164327.8, -1267681.5, 3942.1655, 0.0074690906, 0.1406003, -1164177.6, 73314.43, 0.0, 10.000726, 9.9993515 
1.6501401e+2, 1.8372561e+2, -1089105.9, -1184081.5, 10563.206, 0.016643612, 0.121716104, -1087945.3, 51554.598, 0.0, 10.000584, 9.999322 
1.650098e+2, 1.9372453e+2, -1045787.56, -1114739.0, 15310.517, 0.0064026136, 0.07850132, -1042540.75, -1030.8661, 0.0, 10.000218, 9.999301 
1.650056e+2, 2.037238e+2, -972058.8, -1018586.2, 8699.585, 0.0049332962, 0.07397149, -970485.4, -26968.408, 0.0, 10.00001, 9.999389 
1.6500144e+2, 2.1372372e+2, -866932.1, -916465.4, -1660.8135, 0.01711771, 0.122190796, -866876.5, -21358.184, 0.0, 10.000056, 9.999394 
1.649972e+2, 2.2372323e+2, -803532.0, -863329.3, 5968.4194, 0.014686636, 0.14592074, -802942.1, -55418.38, 0.0, 9.99994, 9.999143 
1.6499291e+2, 2.3372214e+2, -764263.25, -799301.2, 20008.055, -0.010025421, 0.12180967, -755188.3, -105653.234, 0.0, 9.999561, 9.999091 
1.6498883e+2, 2.4372117e+2, -676483.6, -676021.3, 14472.511, -0.007920814, 0.10681397, -661778.1, -110233.99, 0.0, 9.99936, 9.999363 
1.64985e+2, 2.5372058e+2, -563617.8, -567183.9, -4968.802, 0.032239474, 0.1040883, -560121.8, -106573.82, 0.0, 9.999447, 9.999395 
1.6498081e+2, 2.6371983e+2, -501879.53, -523015.13, -1414.4181, 0.0227214, 0.104723625, -501785.3, -146231.47, 0.0, 9.999354, 9.999069 
1.6497616e+2, 2.7371874e+2, -465835.06, -461920.38, 10785.516, -0.05219397, 0.08868845, -452916.03, -195352.55, 0.0, 9.998959, 9.999006 
1.6497236e+2, 2.8371736e+2, -397363.13, -352507.22, 6979.444, -0.032299887, 0.043723136, -351446.3, -191870.64, 0.0, 9.998646, 9.999236 
1.6496952e+2, 2.9371607e+2, -318539.13, -252405.92, 7475.2295, 0.09959482, -0.0177808, -251571.52, -189984.48, 0.00000010392393, 9.998466, 9.999337 
1.6496502e+2, 3.0371678e+2, -210404.55, -47403.996, 12173.551, 0.039343335, 0.06329762, -46499.844, -46499.844, 0.0000064948904, 9.998323, 10.00048 
1.6496079e+2, 3.1371668e+2, -247424.25, -89145.82, 3115.787, -0.00829573, 0.0031329321, -89084.51, -89084.51, 0.00004432351, 9.998171, 10.000266 
1.750398e+2, 1.2373474e+2, -1509338.6, -1674141.8, -11655.875, 0.0060367784, 0.1595988, -1508518.4, 218897.8, 0.0006370072, 10.001661, 9.999477 
1.7503603e+2, 1.3373451e+2, -1443346.3, -1634804.9, 20156.564, -0.0011806219, 0.22857763, -1441247.1, 188169.44, 0.00036284848, 10.001629, 9.99909 
1.750319e+2, 1.437321e+2, -1357402.6, -1520363.3, -3383.8364, -0.005000849, 0.06909753, -1357332.4, 174106.64, 0.00014707113, 10.001449, 9.999287 
1.750275e+2, 1.5373194e+2, -1329540.9, -1465349.8, -9385.523, 0.00981016, 0.12560737, -1328895.3, 104544.8, 0.00003249045, 10.001007, 9.999204 
1.7502314e+2, 1.6373156e+2, -1259133.1, -1360524.4, 1093.0568, 0.01606336, 0.16130425, -1259121.3, 76321.87, 0.0000018022155, 10.000731, 9.999385 
1.7501885e+2, 1.7373067e+2, -1161387.4, -1261533.9, 4168.2095, 0.009727304, 0.12652884, -1161214.3, 76237.03, 0.0, 10.000726, 9.999394 
1.750145e+2, 1.837298e+2, -1081537.0, -1168242.9, -1610.4542, 0.007310691, 0.10095956, -1081507.1, 57951.832, 0.0, 10.000584, 9.999432 
1.7501006e+2, 1.9372919e+2, -1037281.3, -1097049.8, 1584.8583, 0.010926384, 0.09255459, -1037239.3, 4224.7715, 0.0, 10.000218, 9.999423 
1.7500572e+2, 2.0372854e+2, -986438.06, -1048373.5, 8517.86, 0.017052915, 0.099192016, -985287.94, -41817.61, 0.0, 10.00001, 9.999185 
1.7500158e+2, 2.1372794e+2, -884845.0, -953298.0, 315.7397, 0.026521351, 0.11814552, -884843.56, -39365.777, 0.0, 10.000054, 9.999143 
1.749972e+2, 2.2372729e+2, -784708.8, -823967.5, -6448.3096, 0.019672452, 0.1287468, -783676.8, -36192.246, 0.0, 9.999938, 9.9994135 
1.7499247e+2, 2.3372665e+2, -739728.06, -748466.3, 5794.956, -0.010914762, 0.11809215, -736839.75, -87350.21, 0.0, 9.999561, 9.99944 
1.7498803e+2, 2.4372579e+2, -704299.7, -733602.5, 15495.976, -0.023181418, 0.10824494, -697625.3, -146127.73, 0.0, 9.999359, 9.998967 
1.7498401e+2, 2.537246e+2, -598899.6, -640292.25, -1427.334, -0.012569323, 0.09752441, -598850.5, -145341.3, 0.0, 9.999446, 9.998894 
1.7497987e+2, 2.6372367e+2, -488513.3, -495517.94, -14183.986, -0.008590933, 0.0978613, -477405.63, -121887.86, 0.0, 9.999355, 9.999258 
1.7497565e+2, 2.7372292e+2, -445267.75, -419716.63, -3950.8704, -0.00032334006, 0.090735696, -419119.66, -161597.44, 0.0, 9.9989605, 9.999295 
1.7497161e+2, 2.8372172e+2, -398009.9, -353304.2, -961.13605, 0.027758658, 0.044041716, -353283.53, -193751.44, 0.0, 9.998644, 9.999231 
1.7496745e+2, 2.9372025e+2, -322909.88, -260567.31, 1425.2516, 0.04661433, -0.028383061, -260534.75, -198989.63, 0.00000004563321, 9.998462, 9.999282 
1.7496258e+2, 3.037209e+2, -242398.47, -114237.07, 6938.8174, -0.035776366, 0.070090294, -113862.49, -113862.49, 0.000004309572, 9.998323, 10.000021 
1.7495966e+2, 3.1372002e+2, -267796.5, -132427.19, -5133.3965, 0.05983566, -0.014767455, -132232.8, -132232.8, 0.000033325945, 9.998175, 9.999968 
1.8504159e+2, 1.2373902e+2, -1477881.1, -1671489.3, 22858.934, 0.0055159833, 0.1273882, -1475218.8, 252153.55, 0.0006065531, 10.00193, 9.999366 
1.8503763e+2, 1.3373901e+2, -1466484.4, -1647784.8, 36031.703, 0.0037804355, 0.22037272, -1459585.9, 169785.9, 0.00034376056, 10.001477, 9.999073 
1.8503328e+2, 1.437367e+2, -1388890.6, -1530691.0, 4763.893, 0.0003890497, 0.070501454, -1388730.8, 142662.86, 0.00013809917, 10.001211, 9.99933 
1.8502864e+2, 1.537365e+2, -1292592.1, -1441451.8, 8171.7246, 0.010884069, 0.11649902, -1292144.9, 141249.81, 0.000029920388, 10.001235, 9.999258 
1.8502405e+2, 1.6373609e+2, -1209785.0, -1338243.3, 21493.871, 0.01675958, 0.14700359, -1206284.0, 129114.0, 0.0000015280342, 10.001077, 9.999371 
1.8501958e+2, 1.7373523e+2, -1179957.4, -1273313.8, 18829.086, 0.01520973, 0.11958254, -1176302.8, 61103.523, 0.0, 10.000609, 9.999369 
1.8501502e+2, 1.8373445e+2, -1118387.3, -1183787.9, 9313.068, 0.014575824, 0.10261665, -1117086.9, 22326.736, 0.0, 10.00032, 9.999452 
1.8501036e+2, 1.9373396e+2, -1020399.1, -1085677.5, 5776.8955, 0.014868055, 0.10375323, -1019891.8, 21525.533, 0.0, 10.00032, 9.999453 
1.8500584e+2, 2.0373333e+2, -955283.6, -1032416.56, 18513.97, 0.017443912, 0.10869385, -951069.94, -7646.5703, 0.0, 10.000219, 9.999193 
1.8500154e+2, 2.1373253e+2, -898675.56, -959617.44, 29392.115, 0.022802988, 0.108986795, -886810.06, -41377.707, 0.0, 9.999958, 9.9991455 
1.8499704e+2, 2.237318e+2, -808666.8, -840949.94, 20618.424, 0.017376129, 0.11350663, -798623.06, -51183.313, 0.0, 9.999798, 9.999365 
1.8499225e+2, 2.3373125e+2, -708006.06, -739325.9, 2223.7021, -0.0024282872, 0.11753579, -707848.94, -58405.035, 0.0, 9.999805, 9.999386 
1.8498766e+2, 2.4373037e+2, -661300.1, -724158.3, 7540.579, -0.0131449895, 0.1139107, -660408.2, -108955.805, 0.0, 9.999703, 9.998866 
1.849834e+2, 2.5372905e+2, -610506.5, -658071.0, 20133.545, -0.016324714, 0.09703397, -603128.6, -149662.36, 0.0, 9.999419, 9.998784 
1.8497907e+2, 2.6372802e+2, -512270.03, -499652.13, 13039.456, -0.013014208, 0.096473634, -491475.56, -136000.14, 0.0, 9.999161, 9.999323 
1.8497477e+2, 2.7372745e+2, -441472.75, -407300.66, 7233.702, 0.016737424, 0.094816476, -405832.47, -148354.56, 0.0, 9.998942, 9.999389 
1.8497048e+2, 2.8372625e+2, -378773.47, -346593.63, 7708.7515, 0.045001224, 0.048255906, -344842.28, -185355.08, 0.0, 9.998787, 9.9992075 
1.8496585e+2, 2.9372478e+2, -288826.3, -249791.92, 11486.748, 0.028524911, -0.02614692, -246662.58, -185161.3, 0.000000013949684, 9.99872, 9.999231 
1.8496072e+2, 3.0372548e+2, -228497.48, -121340.516, 20626.406, -0.061589357, 0.092695735, -117507.31, -117507.31, 0.0000026617806, 9.998479, 9.999897 
1.8495795e+2, 3.1372446e+2, -296481.47, -130935.336, 32768.797, 0.085051514, -0.0026656587, -124684.95, -124684.95, 0.00002394661, 9.997912, 10.000104 
1.9504346e+2, 1.23743504e+2, -1503630.8, -1724984.1, 3289.0688, -0.0016676837, 0.056441262, -1503582.0, 223742.78, 0.0005643703, 10.00193, 9.998999 
1.950393e+2, 1.3374399e+2, -1486475.6, -1689691.1, 19362.832, 0.023287896, 0.2276311, -1484647.3, 144674.92, 0.00031730495, 10.001479, 9.998785 
1.950347e+2, 1.4374183e+2, -1380178.0, -1512813.6, 3569.0244, 0.01907051, 0.10264918, -1380082.0, 151261.66, 0.00012543245, 10.001212, 9.999452 
1.9502969e+2, 1.5374121e+2, -1279829.6, -1415110.1, 9703.016, -0.0081728585, 0.09062324, -1279137.3, 154210.02, 0.000026112697, 10.001235, 9.999438 
1.9502485e+2, 1.6374068e+2, -1214474.6, -1347653.9, 6106.061, -0.011781687, 0.10118105, -1214195.3, 121156.15, 0.0000011234973, 10.001075, 9.999308 
1.9502026e+2, 1.737402e+2, -1186655.6, -1287221.0, 1318.8027, 0.023398606, 0.120140575, -1186638.4, 50718.836, 0.0, 10.000609, 9.999273 
1.9501558e+2, 1.8373956e+2, -1123101.9, -1193515.6, 7232.731, 0.037328333, 0.12692893, -1122366.6, 16997.133, 0.0, 10.00032, 9.999385 
1.950107e+2, 1.9373885e+2, -1024894.7, -1094821.5, 6061.095, 0.017350754, 0.11219225, -1024373.2, 16996.594, 0.0, 10.0003195, 9.99939 
1.9500595e+2, 2.0373814e+2, -940029.56, -1000560.25, 9757.733, 0.005130734, 0.10289148, -938495.44, 4880.687, 0.0, 10.000218, 9.999413 
1.9500133e+2, 2.137375e+2, -880582.1, -921717.06, 19718.48, 0.0048505664, 0.094421126, -872656.8, -27274.799, 0.0, 9.999956, 9.999407 
1.9499673e+2, 2.2373678e+2, -835013.3, -895561.4, 19587.414, 0.0068733823, 0.10033193, -829229.3, -81839.914, 0.0, 9.999797, 9.99899 
1.9499221e+2, 2.3373595e+2, -740464.8, -806600.56, 2766.9067, 0.014747442, 0.11991225, -740349.25, -90950.805, 0.0, 9.999805, 9.998924 
1.9498773e+2, 2.4373496e+2, -647804.1, -696205.2, -1941.015, 0.02175311, 0.12409905, -647726.44, -96317.77, 0.0, 9.999703, 9.999058 
1.9498318e+2, 2.5373384e+2, -590420.0, -616521.94, 9543.799, 0.020347843, 0.10203516, -587302.7, -133883.44, 0.0, 9.999419, 9.999069 
1.9497845e+2, 2.6373297e+2, -517078.1, -509439.9, 4286.937, 0.008769546, 0.10024638, -507517.63, -152090.8, 0.0, 9.99916, 9.999256 
1.9497353e+2, 2.737323e+2, -449522.3, -423881.47, -966.17554, -0.0027983738, 0.101545915, -423845.1, -166414.45, 0.0, 9.998941, 9.999275 
1.9496901e+2, 2.8373104e+2, -381519.9, -351950.97, 4538.876, 0.01772225, 0.057044968, -351269.9, -191828.81, 0.0, 9.998786, 9.999171 
1.9496475e+2, 2.9372957e+2, -291675.03, -256184.58, 9801.095, 0.045679387, -0.011798481, -253657.8, -192202.11, 0.0000000023315327, 9.998722, 9.9991865 
1.9495945e+2, 3.0373058e+2, -213516.23, -90328.38, 1589.1334, -0.03777859, 0.13039187, -90307.89, -90307.89, 0.0000014940416, 9.99848, 10.00011 
1.9495565e+2, 3.1372988e+2, -257443.64, -48865.035, 8539.626, 0.06292544, 0.041006368, -48515.99, -48515.99, 0.000016254342, 9.997909, 10.000669 
2.050452e+2, 1.2374855e+2, -1529331.8, -1747024.3, -14484.898, -0.014419875, 0.04590783, -1528372.1, 198902.14, 0.0005112227, 10.001797, 9.998912 
2.0504087e+2, 1.3374901e+2, -1462106.8, -1676790.9, 26281.098, 0.024256356, 0.21465075, -1458936.3, 170335.8, 0.00028397882, 10.001643, 9.998795 
2.0503606e+2, 1.4374691e+2, -1345130.6, -1493188.5, 24809.617, 0.023278723, 0.09421063, -1341084.0, 190209.16, 0.000109345056, 10.001441, 9.999476 
2.0503084e+2, 1.5374638e+2, -1294614.0, -1419092.1, 19829.62, -0.01179847, 0.08842808, -1291531.4, 141764.28, 0.000021261263, 10.00112, 9.999467 
2.0502575e+2, 1.6374584e+2, -1251209.4, -1375648.3, 4183.69, -0.018346371, 0.09992842, -1251068.9, 84231.17, 0.00000067965186, 10.000867, 9.999216 
2.050209e+2, 1.737452e+2, -1176311.8, -1294044.9, -2474.2932, 0.02048636, 0.113168366, -1176259.8, 61048.08, 0.0, 10.000731, 9.999168 
2.0501599e+2, 1.837445e+2, -1086913.4, -1172651.3, 12306.113, 0.03604448, 0.119937964, -1085182.0, 54133.07, 0.0, 10.000554, 9.999415 
2.0501098e+2, 1.9374393e+2, -1023516.75, -1088460.6, 20074.908, 0.014375666, 0.113587946, -1017812.44, 23507.227, 0.0, 10.000304, 9.999441 
2.0500608e+2, 2.0374322e+2, -959012.5, -1015774.2, 18189.15, 0.00199596, 0.10464185, -953684.0, -10358.278, 0.0, 10.000114, 9.999358 
2.050013e+2, 2.137424e+2, -875316.5, -926824.4, 3182.2368, 0.003465856, 0.083993666, -875120.6, -29787.203, 0.0, 10.000025, 9.999338 
2.049966e+2, 2.237416e+2, -817264.0, -888752.94, 5521.412, 0.0065915566, 0.08730726, -816840.06, -69498.46, 0.0, 9.999927, 9.998974 
2.0499203e+2, 2.337409e+2, -739580.4, -807031.44, 22980.242, 0.01420427, 0.11946806, -732495.3, -83145.31, 0.0, 9.999815, 9.998916 
2.0498742e+2, 2.4373998e+2, -655578.25, -696050.8, 24529.555, 0.02563966, 0.1301318, -644015.06, -92655.38, 0.0, 9.999635, 9.999092 
2.0498273e+2, 2.5373888e+2, -599100.7, -616132.56, 16357.578, 0.03656271, 0.10530936, -589175.06, -135805.11, 0.0, 9.999341, 9.999109 
2.0497774e+2, 2.6373798e+2, -517846.25, -510126.84, 8807.667, 0.022232225, 0.10136493, -504370.28, -148992.81, 0.0, 9.999156, 9.999253 
2.0497243e+2, 2.737373e+2, -421689.16, -411626.2, 11785.873, -0.015861392, 0.10281191, -403842.72, -146460.97, 0.0, 9.999137, 9.999266 
2.049677e+2, 2.837361e+2, -355893.9, -325376.97, 20067.666, 0.0039909272, 0.057502616, -315425.7, -156033.78, 0.0, 9.9989, 9.999299 
2.0496354e+2, 2.9373476e+2, -342496.7, -265379.16, 37433.09, 0.07293628, -0.012369681, -250197.67, -188792.9, 0.000000000097020676, 9.998308, 9.999323 
2.0495795e+2, 3.0373585e+2, -287149.9, -142839.86, 30608.412, -0.013556229, 0.13562883, -136616.17, -136616.17, 0.00000072960836, 9.998047, 9.999959 
2.0495331e+2, 3.13735e+2, -196529.33, -5783.6885, 525.0396, 0.021479612, 0.050906476, -5782.243, -5782.243, 0.000010315381, 9.998266, 10.000794 
2.150468e+2, 1.23754136e+2, -1516199.9, -1719951.5, -24019.563, -0.035019014, 0.09467744, -1513406.6, 213814.48, 0.00045034575, 10.001797, 9.999098 
2.1504234e+2, 1.3375407e+2, -1440723.5, -1632810.1, 21496.502, 0.0062334784, 0.18130922, -1438347.3, 190874.63, 0.0002457903, 10.001644, 9.999097 
2.150374e+2, 1.4375195e+2, -1350270.6, -1503892.4, 13538.437, 0.012162245, 0.045632817, -1349086.6, 182155.36, 0.00009091271, 10.001442, 9.999403 
2.1503206e+2, 1.53752e+2, -1303390.0, -1437050.1, 7940.03, -0.0007959929, 0.109957546, -1302920.0, 130320.02, 0.000015871614, 10.001119, 9.999345 
2.1502677e+2, 1.6375154e+2, -1259734.6, -1393226.6, -1669.6725, -0.0042941757, 0.14290458, -1259713.8, 75530.31, 0.00000031009594, 10.000866, 9.999096 
2.1502149e+2, 1.737502e+2, -1184288.4, -1311101.6, -7213.515, 0.005609854, 0.09882481, -1183879.4, 53379.09, 0.0, 10.000733, 9.999051 
2.1501629e+2, 1.8374929e+2, -1077648.0, -1153657.0, 3404.5862, 0.009672211, 0.081930265, -1077495.8, 61772.023, 0.0, 10.000555, 9.999545 
2.1501121e+2, 1.9374919e+2, -1011911.1, -1064308.3, 10850.914, 0.0054418375, 0.10800804, -1009752.9, 31514.145, 0.0, 10.000304, 9.999606 
2.1500625e+2, 2.0374858e+2, -982140.8, -1063668.0, 14196.729, 0.007255868, 0.1139575, -979739.44, -36467.117, 0.0, 10.0001135, 9.999029 
2.1500146e+2, 2.1374722e+2, -903184.56, -984470.4, 169.61617, 0.0178726, 0.077979445, -903184.2, -57897.63, 0.0, 10.000025, 9.998943 
2.149966e+2, 2.2374627e+2, -793377.1, -838940.44, 1353.1499, 0.015598195, 0.074746095, -793336.94, -46040.47, 0.0, 9.999926, 9.999317 
2.1499166e+2, 2.337461e+2, -708429.0, -742130.3, 18925.299, -0.0048282803, 0.11601781, -699939.75, -50641.03, 0.0, 9.999815, 9.999362 
2.1498679e+2, 2.4374542e+2, -664590.7, -714943.9, 14018.981, -0.0021456145, 0.13241445, -660950.75, -109645.234, 0.0, 9.999635, 9.998963 
2.14982e+2, 2.5374413e+2, -613579.75, -646001.4, 5322.5176, 0.031052552, 0.10676883, -612728.3, -159409.95, 0.0, 9.99934, 9.998905 
2.1497692e+2, 2.6374313e+2, -514120.72, -501833.34, 6904.3716, 0.026404036, 0.10029162, -498734.97, -143407.56, 0.0, 9.999154, 9.999311 
2.149715e+2, 2.737425e+2, -415161.3, -398249.06, 11566.787, -0.02318942, 0.09772742, -392377.0, -135045.55, 0.0, 9.999138, 9.999357 
2.1496661e+2, 2.8374144e+2, -335365.3, -283276.75, -300.4401, 0.0036620556, 0.048661157, -283275.03, -123935.234, 0.0, 9.998901, 9.999588 
2.149622e+2, 2.9374036e+2, -320607.5, -219954.16, 14991.586, 0.10875008, -0.02766599, -217768.72, -156420.13, 0.0, 9.998307, 9.999637 
2.1495622e+2, 3.0374125e+2, -324228.47, -217917.39, 36018.164, 0.009269554, 0.10900703, -206863.75, -206863.75, 0.0000002906552, 9.998041, 9.999446 
2.1495095e+2, 3.1373984e+2, -218981.2, -52061.914, 5677.6436, -0.042213574, 0.024774268, -51869.016, -51869.016, 0.0000060416633, 9.998266, 10.000476 
2.2504859e+2, 1.2375978e+2, -1526782.0, -1718003.5, -5404.4956, -0.031259734, 0.115705915, -1526629.4, 200537.08, 0.0003861587, 10.001696, 9.999161 
2.2504386e+2, 1.3375959e+2, -1421526.3, -1606229.3, 33259.79, -0.0080947755, 0.17529891, -1415719.6, 213447.63, 0.00020573656, 10.001702, 9.999251 
2.2503872e+2, 1.4375748e+2, -1340742.9, -1506086.8, 8889.411, -0.004573757, 0.034666147, -1340266.3, 190920.5, 0.00007189719, 10.001536, 9.999343 
2.2503325e+2, 1.537575e+2, -1311883.9, -1450714.0, 3762.4595, 0.006425583, 0.10311765, -1311781.9, 121403.695, 0.000010694928, 10.001102, 9.999259 
2.2502775e+2, 1.6375698e+2, -1262043.6, -1391238.6, 11570.389, 0.010303774, 0.1350241, -1261015.5, 74174.64, 0.000000092361944, 10.000837, 9.999124 
2.250222e+2, 1.7375562e+2, -1166428.4, -1297395.9, 19445.742, -0.0011274427, 0.08420696, -1163602.1, 73602.28, 0.0, 10.000834, 9.999097 
2.2501679e+2, 1.8375465e+2, -1061441.5, -1158190.9, 22349.338, -0.0042646346, 0.06549874, -1056528.3, 82685.66, 0.0, 10.000719, 9.999435 
2.2501159e+2, 1.9375448e+2, -1003445.44, -1075093.4, 6335.689, 0.006928886, 0.09667369, -1002889.5, 38325.094, 0.0, 10.000426, 9.999475 
2.2500648e+2, 2.0375384e+2, -966539.25, -1054437.1, 15051.46, 0.013934812, 0.10625459, -964033.3, -20812.762, 0.0, 10.000214, 9.999045 
2.250015e+2, 2.1375252e+2, -884705.25, -971284.2, 34065.67, 0.012679648, 0.07159236, -872908.9, -27674.713, 0.0, 10.0001335, 9.998981 
2.2499645e+2, 2.2375163e+2, -796001.8, -844078.3, 35396.387, 0.0068116733, 0.07256345, -777252.9, -30009.115, 0.0, 9.999925, 9.999282 
2.2499132e+2, 2.3375149e+2, -756777.06, -771024.56, 15340.78, -0.003848403, 0.12384313, -746986.75, -97740.625, 0.0, 9.999506, 9.999312 
2.2498628e+2, 2.4375086e+2, -703459.44, -718229.7, 4993.6514, 0.000028263303, 0.13929619, -701929.56, -150676.83, 0.0, 9.999301, 9.999101 
2.249813e+2, 2.5374952e+2, -587800.4, -615538.94, 24200.547, 0.020324014, 0.09473309, -573776.56, -120511.58, 0.0, 9.999439, 9.999066 
2.2497606e+2, 2.637486e+2, -493289.97, -492093.34, 31845.55, 0.017132886, 0.085249595, -460840.5, -105567.23, 0.0, 9.999298, 9.999309 
2.2497056e+2, 2.7374816e+2, -481475.75, -433024.8, 26472.207, -0.007733673, 0.10711024, -421366.44, -164090.39, 0.0, 9.998695, 9.999331 
2.2496545e+2, 2.8374723e+2, -404175.06, -307166.66, 6407.94, 0.023473686, 0.06697161, -306745.22, -147461.69, 0.0, 9.998389, 9.999671 
2.2496055e+2, 2.9374602e+2, -278140.94, -190150.56, 4925.894, 0.1010514, -0.029644499, -189875.66, -128583.055, 0.0, 9.998557, 9.999722 
2.249543e+2, 3.0374664e+2, -274987.3, -208416.58, 30660.426, -0.006977938, 0.078426726, -196447.36, -196447.36, 0.000000085825576, 9.998439, 9.99932 
2.2494908e+2, 3.1374523e+2, -271040.53, -61074.25, 31379.895, -0.034437895, 0.010217011, -56484.777, -56484.777, 0.0000031779714, 9.99784, 10.00062 
2.3505053e+2, 1.23765476e+2, -1531850.4, -1728483.4, -9895.595, -0.0072021526, 0.11023116, -1531353.6, 195756.73, 0.00032267286, 10.001696, 9.999088 
2.3504546e+2, 1.3376558e+2, -1421944.6, -1605686.1, 33763.133, -0.019540265, 0.197402, -1415937.0, 213171.36, 0.0001666326, 10.001697, 9.999258 
2.3504002e+2, 1.4376348e+2, -1345093.3, -1514181.1, -5361.288, -0.027423842, 0.061470773, -1344923.4, 186204.11, 0.00005400246, 10.001532, 9.99929 
2.3503438e+2, 1.5376282e+2, -1314804.4, -1458127.6, -12304.811, 0.008376075, 0.06782378, -1313755.6, 119377.17, 0.000006396683, 10.001108, 9.999207 
2.3502873e+2, 1.6376214e+2, -1248858.4, -1364782.3, 9434.95, 0.023495484, 0.07635747, -1248095.5, 87043.11, 0.000000013163342, 10.000841, 9.999303 
2.3502305e+2, 1.7376141e+2, -1151490.4, -1266438.8, 19644.363, -0.00036871774, 0.06930121, -1148225.9, 88919.57, 0.0, 10.000834, 9.999309 
2.350175e+2, 1.8376061e+2, -1086634.5, -1209955.8, 12676.988, -0.006576352, 0.070597135, -1085344.8, 53808.78, 0.0, 10.000717, 9.999081 
2.3501213e+2, 1.937598e+2, -1033468.94, -1137791.9, -4542.2183, 0.018155498, 0.07990994, -1033271.56, 7890.884, 0.0, 10.000428, 9.999043 
2.3500676e+2, 2.03759e+2, -941162.5, -1001833.8, 11039.304, 0.021031132, 0.081866466, -939216.3, 3954.1711, 0.0, 10.000214, 9.999407 
2.3500137e+2, 2.1375832e+2, -851699.7, -902573.06, 31346.553, -0.013046564, 0.06474281, -836767.7, 8408.659, 0.0, 10.000133, 9.999454 
2.349961e+2, 2.2375765e+2, -825376.6, -904703.75, 21068.004, -0.020837339, 0.081121705, -820128.5, -72944.96, 0.0, 9.999923, 9.998867 
2.3499103e+2, 2.3375711e+2, -794529.1, -849049.0, -274.28488, 0.016912136, 0.14312638, -794527.75, -145335.55, 0.0, 9.999505, 9.998777 
2.349859e+2, 2.4375625e+2, -675767.2, -660550.75, 7713.8125, 0.031695385, 0.15072012, -657324.4, -106123.01, 0.0, 9.9993, 9.999498 
2.3498055e+2, 2.537551e+2, -551044.06, -539203.56, 29801.88, 0.0029068342, 0.06870795, -514739.56, -61529.625, 0.0, 9.999439, 9.999591 
2.3497513e+2, 2.6375437e+2, -497630.03, -501275.1, 11989.987, -0.0068129934, 0.056127973, -487324.84, -132109.72, 0.0, 9.999299, 9.999247 
2.3496963e+2, 2.7375436e+2, -491318.78, -452801.84, 3418.2583, 0.02995206, 0.13152985, -452500.84, -195285.33, 0.0, 9.9986925, 9.999198 
2.3496424e+2, 2.837535e+2, -414045.63, -326751.4, 9533.466, 0.063045874, 0.11322647, -325722.38, -166499.28, 0.0, 9.998385, 9.999539 
2.3495857e+2, 2.937518e+2, -288123.8, -211728.47, 12036.698, 0.047543272, -0.01877426, -209876.88, -148639.89, 0.0, 9.998561, 9.999572 
2.3495217e+2, 3.0375195e+2, -255654.52, -168823.13, 11031.431, -0.06424855, 0.042974394, -167443.56, -167443.56, 0.000000016806371, 9.998441, 9.999591 
2.349477e+2, 3.1375125e+2, -228539.83, 28477.139, 4856.5825, 0.043268777, 0.004949468, 28568.875, 28568.875, 0.0000014346882, 9.997834, 10.001238 
2.4505243e+2, 1.2377139e+2, -1490144.6, -1718986.3, 13230.895, -0.0024082172, 0.07879787, -1489382.3, 237667.95, 0.00026299746, 10.002026, 9.998995 
2.4504718e+2, 1.3377161e+2, -1435239.4, -1615487.6, 57846.336, -0.012929654, 0.18018346, -1418272.1, 210775.48, 0.0001305452, 10.001619, 9.999228 
2.450415e+2, 1.4376962e+2, -1370981.0, -1533740.5, 17807.23, -0.02516804, 0.05847371, -1369055.5, 162010.81, 0.000038366878, 10.001386, 9.999227 
2.4503551e+2, 1.5376873e+2, -1276762.8, -1447162.4, 9731.536, -0.003312868, 0.050468285, -1276208.9, 156865.02, 0.000003303544, 10.001401, 9.999141 
2.4502966e+2, 1.6376798e+2, -1188676.5, -1335601.4, 24864.62, 0.012235816, 0.055147648, -1184582.6, 150497.78, 0.00000000018007511, 10.001254, 9.999305 
2.4502398e+2, 1.7376742e+2, -1148537.1, -1263666.9, 19464.383, 0.008894641, 0.06279126, -1145335.5, 91750.18, 0.0, 10.00085, 9.999321 
2.4501826e+2, 1.8376665e+2, -1107593.5, -1224965.1, 16527.137, 0.006889307, 0.069197394, -1105310.8, 33782.746, 0.0, 10.000595, 9.999038 
2.4501255e+2, 1.9376567e+2, -1014837.8, -1134129.3, 27822.688, 0.01078022, 0.06752471, -1008667.75, 32436.48, 0.0, 10.00058, 9.998995 
2.4500693e+2, 2.0376484e+2, -914787.3, -993080.56, 43696.03, 0.0069925147, 0.071329564, -895267.06, 47845.883, 0.0, 10.000413, 9.999371 
2.4500145e+2, 2.1376437e+2, -873432.1, -917217.8, 25458.838, -0.011606775, 0.07743111, -861747.5, -16630.174, 0.0, 10.000001, 9.999416 
2.4499598e+2, 2.2376375e+2, -846376.44, -910454.5, 10940.001, -0.014839794, 0.09763489, -844560.2, -97435.98, 0.0, 9.99976, 9.998906 
2.449906e+2, 2.3376295e+2, -749150.06, -821272.1, 33357.77, 0.009774005, 0.1311089, -736087.4, -86952.81, 0.0, 9.999791, 9.99883 
2.4498525e+2, 2.4376208e+2, -633069.2, -640741.8, 52645.6, 0.023333602, 0.13218756, -584120.3, -32976.37, 0.0, 9.999597, 9.999491 
2.4497989e+2, 2.5376114e+2, -610902.4, -569830.56, 34517.42, 0.01246695, 0.07899433, -550202.1, -97051.74, 0.0, 9.999036, 9.999576 
2.4497429e+2, 2.637605e+2, -575690.44, -535518.4, -3179.668, 0.007891869, 0.07267493, -535268.25, -180113.13, 0.0, 9.998749, 9.999276 
2.4496841e+2, 2.7376026e+2, -458319.53, -433378.94, 208.91418, 0.028226363, 0.120589525, -433377.2, -176219.5, 0.0, 9.998903, 9.99923 
2.4496272e+2, 2.8375942e+2, -356198.25, -300466.16, 18710.69, 0.053716578, 0.10159429, -294767.25, -135602.03, 0.0, 9.998789, 9.999526 
2.4495697e+2, 2.9375806e+2, -339005.44, -239121.66, 29769.07, 0.047580156, 0.004441595, -230922.42, -169746.22, 0.0, 9.998225, 9.999545 
2.449504e+2, 3.0375797e+2, -336410.25, -203987.8, 22918.213, -0.05655805, 0.043797955, -200133.55, -200133.55, 0.0000000018495133, 9.997872, 9.999622 
2.4494559e+2, 3.1375733e+2, -206162.69, 66057.57, -10904.423, 0.048172776, 0.008494042, 66493.67, 66493.67, 0.00000052479436, 9.997871, 10.001478 
2.5505432e+2, 1.2377751e+2, -1498627.8, -1734759.0, -6756.9966, -0.017258618, 0.022212824, -1498434.6, 228551.56, 0.000209724, 10.002017, 9.998891 
2.5504902e+2, 1.3377765e+2, -1438087.5, -1623379.3, 43019.91, 0.007970991, 0.12228101, -1428586.6, 200398.92, 0.00009902971, 10.001627, 9.99917 
2.5504315e+2, 1.4377584e+2, -1375220.9, -1544267.8, 15994.435, -0.001905974, 0.024514673, -1373720.9, 157282.61, 0.000025643241, 10.001392, 9.999151 
2.5503665e+2, 1.5377523e+2, -1282424.6, -1458396.4, 10073.971, -0.028948717, 0.051776562, -1281849.9, 151159.06, 0.0000014046367, 10.001398, 9.999065 
2.5503057e+2, 1.6377449e+2, -1202130.6, -1362413.6, 11354.062, -0.023224724, 0.072238564, -1201330.4, 133685.5, 0.0, 10.001249, 9.999124 
2.55025e+2, 1.7377359e+2, -1161479.5, -1291316.1, 4286.1304, 0.025103157, 0.06443913, -1161338.1, 75686.96, 0.0, 10.000853, 9.999129 
2.5501913e+2, 1.8377274e+2, -1088196.4, -1185295.5, 14112.477, 0.034076493, 0.060865726, -1086186.9, 52846.785, 0.0, 10.000597, 9.999309 
2.5501287e+2, 1.9377209e+2, -991110.1, -1085023.3, 27515.43, -0.015964383, 0.059207156, -983642.25, 57397.965, 0.0, 10.000581, 9.999331 
2.55007e+2, 2.0377138e+2, -945620.56, -1056676.9, 29952.352, -0.028706519, 0.07436742, -938057.4, 4990.6743, 0.0, 10.000411, 9.998935 
2.5500175e+2, 2.1377066e+2, -911593.06, -996205.6, 10130.167, 0.016633375, 0.10980679, -910397.1, -65339.965, 0.0, 10.0, 9.998875 
2.5499615e+2, 2.2376987e+2, -811882.25, -838610.0, 10154.31, 0.024059402, 0.121750906, -808462.1, -61396.25, 0.0, 9.999759, 9.9994 
2.5499004e+2, 2.3376903e+2, -704491.9, -728415.44, 34864.42, -0.02698703, 0.08764306, -679594.3, -30521.111, 0.0, 9.99979, 9.999468 
2.5498435e+2, 2.4376826e+2, -661656.5, -700012.75, 33854.79, -0.02709979, 0.083947055, -641925.1, -90844.734, 0.0, 9.999597, 9.999084 
2.5497928e+2, 2.5376776e+2, -649368.9, -649230.4, 13272.95, 0.04943628, 0.12601946, -636026.5, -182940.31, 0.0, 9.999034, 9.999031 
2.549736e+2, 2.6376703e+2, -568068.2, -519632.8, -418.8633, 0.06173745, 0.13486886, -519629.2, -164535.89, 0.0, 9.998748, 9.999386 
2.5496688e+2, 2.7376586e+2, -444265.38, -405033.03, 6623.8174, -0.01591671, 0.073332086, -403944.88, -146842.14, 0.0, 9.998906, 9.999424 
2.549609e+2, 2.8376496e+2, -348566.47, -284539.03, 140.45154, -0.00798581, 0.031097118, -284538.72, -125428.68, 0.0, 9.998789, 9.999635 
2.5495574e+2, 2.9376474e+2, -332810.6, -224597.08, 8046.3047, 0.10128888, 0.040035117, -224002.06, -162891.81, 0.0, 9.998219, 9.999647 
2.54949e+2, 3.0376464e+2, -352480.97, -236399.38, 20673.99, 0.017337976, 0.081131645, -232827.28, -232827.28, 0.000000000039700524, 9.997867, 9.999403 
2.5494277e+2, 3.1376347e+2, -215160.11, 45721.113, -13427.751, -0.023033347, 0.0176287, 46410.426, 46410.426, 0.00000015406697, 9.997877, 10.001337 
2.650563e+2, 1.2378403e+2, -1505683.8, -1759912.5, -11645.405, -0.022973515, -0.008498097, -1505151.4, 221768.2, 0.0001649167, 10.002063, 9.998696 
2.650507e+2, 1.3378398e+2, -1414044.3, -1629924.5, 35914.973, 0.002520643, 0.08943568, -1408226.1, 220695.88, 0.000073287774, 10.00187, 9.999008 
2.6504466e+2, 1.4378224e+2, -1335854.0, -1529801.5, 11907.418, -0.003470866, 0.009815015, -1335125.6, 195814.19, 0.000016155976, 10.001683, 9.999111 
2.6503813e+2, 1.5378179e+2, -1270163.4, -1454202.0, 10461.606, -0.023335686, 0.05404256, -1269570.6, 163373.14, 0.00000046134082, 10.001492, 9.999049 
2.6503187e+2, 1.6378103e+2, -1204536.5, -1373288.1, 10302.593, -0.017893571, 0.07791005, -1203909.9, 131041.21, 0.0, 10.001276, 9.999036 
2.6502585e+2, 1.7377988e+2, -1143606.0, -1293602.9, 8731.272, 0.017062942, 0.054844454, -1143099.5, 93863.61, 0.0, 10.001024, 9.999031 
2.650197e+2, 1.8377899e+2, -1061705.9, -1171361.5, 20462.531, 0.022496777, 0.05179105, -1058011.9, 80960.62, 0.0, 10.000774, 9.999318 
2.6501343e+2, 1.937786e+2, -996068.44, -1084738.5, 11226.863, -0.016306985, 0.07466008, -994669.06, 46307.32, 0.0, 10.000535, 9.999356 
2.650074e+2, 2.0377795e+2, -961979.06, -1070048.1, 8077.058, -0.022788828, 0.096388236, -961378.7, -18395.021, 0.0, 10.000322, 9.998886 
2.6500186e+2, 2.1377695e+2, -893212.44, -993637.5, 23449.969, 0.02120484, 0.10962508, -888006.56, -43010.99, 0.0, 10.0001545, 9.998818 
2.6499602e+2, 2.2377603e+2, -785629.7, -821762.25, 33846.156, 0.028243886, 0.11068062, -765329.94, -18324.531, 0.0, 9.999921, 9.999438 
2.6498973e+2, 2.3377533e+2, -731651.3, -735823.7, 15436.413, -0.022450518, 0.08471237, -718160.75, -69149.6, 0.0, 9.999579, 9.999519 
2.6498383e+2, 2.4377467e+2, -704210.8, -723523.25, -3870.89, -0.024163464, 0.088773474, -703463.9, -152446.45, 0.0, 9.999317, 9.999058 
2.6497838e+2, 2.537742e+2, -630476.44, -644161.75, 12213.654, 0.048095357, 0.13616474, -623319.25, -170295.89, 0.0, 9.999181, 9.998995 
2.6497242e+2, 2.6377338e+2, -533949.44, -504400.8, 25867.23, 0.05818293, 0.1403397, -489385.97, -134354.61, 0.0, 9.998987, 9.999375 
2.6496562e+2, 2.7377203e+2, -475228.63, -420294.44, 19389.627, -0.018535143, 0.062336907, -414140.13, -157097.78, 0.0, 9.998696, 9.999419 
2.649595e+2, 2.8377122e+2, -391332.78, -293851.47, -6003.406, -0.009966355, 0.02385874, -293483.16, -134434.48, 0.0, 9.998448, 9.999734 
2.6495394e+2, 2.9377136e+2, -320268.03, -206236.6, 227.73416, 0.09981603, 0.058928907, -206236.14, -145191.3, 0.0, 9.998252, 9.999758 
2.6494697e+2, 3.0377093e+2, -339390.63, -238460.9, 26211.566, 0.021101248, 0.06605495, -232059.72, -232059.72, 0.0, 9.997993, 9.999328 
2.649406e+2, 3.1376985e+2, -251812.31, 20921.42, 722.6861, -0.017760469, 0.019019585, 20923.334, 20923.334, 0.000000038019415, 9.99766, 10.001269 
2.7505836e+2, 1.2379092e+2, -1525595.1, -1801960.1, -25985.736, -0.024679502, -0.015581751, -1523173.0, 203677.72, 0.00012966055, 10.002067, 9.998405 
2.7505225e+2, 1.3379063e+2, -1433188.4, -1668664.9, 28087.703, -0.028911443, 0.08405019, -1429884.5, 198972.17, 0.00005392466, 10.001866, 9.998745 
2.7504608e+2, 1.4378886e+2, -1336868.6, -1530696.5, 4530.6914, -0.029542038, 0.016878817, -1336762.8, 194112.4, 0.0000098627, 10.0016775, 9.999107 
2.7503997e+2, 1.5378839e+2, -1266521.0, -1447236.6, 3362.3867, 0.010452888, 0.055765994, -1266458.5, 166420.14, 0.00000011248763, 10.001493, 9.999096 
2.7503356e+2, 1.6378759e+2, -1204075.6, -1373156.1, 672.5079, 0.024725653, 0.07026149, -1204072.9, 130813.3, 0.0, 10.001279, 9.999036 
2.7502656e+2, 1.737863e+2, -1144073.9, -1294680.4, -924.72833, -0.015636398, 0.03461786, -1144068.1, 92831.67, 0.0, 10.001024, 9.999024 
2.7502e+2, 1.837854e+2, -1079843.4, -1208481.1, 11207.3545, -0.02793886, 0.042783123, -1078874.3, 60035.563, 0.0, 10.000772, 9.999064 
2.750142e+2, 1.9378522e+2, -1016328.7, -1126800.5, 2305.0388, 0.008773923, 0.113956325, -1016280.6, 24632.227, 0.0, 10.000535, 9.999067 
2.7500817e+2, 2.0378456e+2, -938166.4, -1020499.56, 1451.8389, 0.023465335, 0.13708068, -938140.75, 4779.148, 0.0, 10.000321, 9.999227 
2.750018e+2, 2.1378325e+2, -863143.94, -931246.4, 17462.496, 0.00081402675, 0.07661832, -858927.4, -13994.765, 0.0, 10.0001545, 9.999247 
2.7499563e+2, 2.2378224e+2, -815198.94, -882776.6, 21685.424, -0.0035478184, 0.064227745, -808838.75, -61895.836, 0.0, 9.999919, 9.99902 
2.749898e+2, 2.3378186e+2, -768952.25, -813328.56, 2636.1301, 0.023951322, 0.1221436, -768796.2, -119847.65, 0.0, 9.999579, 9.998987 
2.7498373e+2, 2.4378125e+2, -679542.5, -672314.2, -10029.441, 0.03236467, 0.14604056, -665267.56, -114312.56, 0.0, 9.999317, 9.99941 
2.7497715e+2, 2.537804e+2, -597559.94, -575845.06, 7237.641, 0.0051605273, 0.10883667, -573653.9, -120691.77, 0.0, 9.99918, 9.999465 
2.7497077e+2, 2.6377955e+2, -542899.5, -522459.25, 15220.047, -0.006272348, 0.08896725, -514346.3, -159376.9, 0.0, 9.998985, 9.999252 
2.7496475e+2, 2.7377877e+2, -489465.66, -449093.38, 8578.766, 0.021453423, 0.087859735, -447346.1, -190369.58, 0.0, 9.998693, 9.999223 
2.7495852e+2, 2.8377816e+2, -385868.0, -282145.94, -13644.675, 0.04925658, 0.0797151, -280381.03, -121399.95, 0.0, 9.998446, 9.999816 
2.749516e+2, 2.9377788e+2, -311520.25, -189506.52, -7002.26, 0.03984839, 0.06014439, -189105.98, -128125.87, 0.0, 9.998257, 9.999871 
2.7494425e+2, 3.037769e+2, -334680.3, -228804.14, 13680.535, -0.049955998, -0.0023423755, -227065.02, -227065.02, 0.0, 9.997994, 9.999393 
2.7493903e+2, 3.1377643e+2, -252269.47, 21251.223, -15592.685, 0.062316317, 0.010436028, 22137.25, 22137.25, 0.00000000643165, 9.997654, 10.001274 
2.8506044e+2, 1.2379793e+2, -1533230.3, -1810938.1, -45662.367, -0.022151725, 0.005568976, -1525914.9, 200867.75, 0.00010364884, 10.002038, 9.998359 
2.850542e+2, 1.337975e+2, -1396012.4, -1651998.5, 33008.684, -0.034570914, 0.09199167, -1391824.5, 236965.13, 0.000040612387, 10.002127, 9.9987335 
2.850479e+2, 1.4379568e+2, -1290786.8, -1514057.4, 10403.139, -0.034344908, 0.023895498, -1290303.0, 240505.25, 0.0000062724685, 10.002019, 9.999057 
2.8504154e+2, 1.53795e+2, -1255197.6, -1447465.6, 383.2428, 0.010888619, 0.04555315, -1255196.9, 177616.88, 0.000000028346124, 10.001596, 9.999045 
2.850349e+2, 1.6379413e+2, -1203960.3, -1377892.3, -3466.8882, 0.027594252, 0.05863189, -1203891.3, 130930.805, 0.0, 10.001302, 9.998992 
2.8502765e+2, 1.7379303e+2, -1119218.3, -1286916.8, -7434.2354, -0.016959634, 0.04662693, -1118889.4, 117944.76, 0.0, 10.001214, 9.998985 
2.850209e+2, 1.8379211e+2, -1044111.56, -1194581.9, 7255.562, -0.02850853, 0.05719025, -1043762.5, 95081.53, 0.0, 10.001034, 9.999034 
2.8501493e+2, 1.9379161e+2, -993120.9, -1119104.0, 16519.229, 0.017707283, 0.09873481, -990990.9, 49858.793, 0.0, 10.0007105, 9.999035 
2.8500864e+2, 2.0379083e+2, -923818.4, -1012433.44, 18063.963, 0.031354032, 0.11109682, -920277.56, 22580.03, 0.0, 10.000415, 9.999237 
2.8500187e+2, 2.1378972e+2, -860262.8, -927772.1, 3593.254, -0.009710766, 0.06881459, -860072.1, -15203.473, 0.0, 10.000165, 9.999266 
2.8499538e+2, 2.2378881e+2, -820338.6, -887976.6, 125.31163, -0.016163042, 0.06692126, -820338.44, -73460.27, 0.0, 9.999896, 9.998996 
2.849895e+2, 2.3378839e+2, -768863.44, -816585.8, 18068.473, 0.035936877, 0.12438983, -762794.25, -113910.016, 0.0, 9.999595, 9.998958 
2.8498322e+2, 2.4378777e+2, -669632.75, -657891.1, 23700.307, 0.04977247, 0.1437872, -639345.3, -88454.42, 0.0, 9.999344, 9.9994955 
2.849762e+2, 2.537869e+2, -591576.8, -561448.5, 14292.257, -0.0026597795, 0.09464716, -555747.3, -102849.67, 0.0, 9.999172, 9.999567 
2.8496954e+2, 2.6378608e+2, -549815.44, -519883.56, 6264.113, -0.022684963, 0.07114476, -518625.5, -163721.19, 0.0, 9.998914, 9.999304 
2.8496334e+2, 2.737855e+2, -513786.13, -455281.94, 16464.898, 0.023031158, 0.08313595, -450966.5, -194056.77, 0.0, 9.998504, 9.999272 
2.8495693e+2, 2.8378502e+2, -415892.38, -294729.1, 10644.369, 0.05584046, 0.08355083, -293801.1, -134887.97, 0.0, 9.998233, 9.999832 
2.8494978e+2, 2.937847e+2, -320207.38, -192123.67, 10175.306, 0.0329804, 0.057537872, -191320.36, -130407.75, 0.0, 9.998194, 9.999882 
2.8494224e+2, 3.0378333e+2, -327471.16, -211304.28, 18384.838, -0.04968251, -0.047035344, -208464.1, -208464.1, 0.0, 9.997984, 9.999517 
2.849368e+2, 3.1378326e+2, -279712.4, 5137.3604, -10836.766, 0.08349995, -0.0073202667, 5549.0366, 5549.0366, 0.00000000043435586, 9.997478, 10.001249 
2.950625e+2, 1.2380509e+2, -1519527.5, -1783310.9, -49681.324, -0.018235067, 0.0561876, -1510480.8, 216234.19, 0.000085497144, 10.002041, 9.998547 
2.950565e+2, 1.3380456e+2, -1379164.5, -1617361.1, 37002.07, -0.017654762, 0.109970175, -1373548.9, 255172.17, 0.000032281903, 10.002128, 9.998971 
2.9505002e+2, 1.438027e+2, -1298866.6, -1530541.5, -3545.5999, -0.02123836, 0.02800577, -1298812.4, 231926.83, 0.0000046245973, 10.002018, 9.998944 
2.9504278e+2, 1.5380162e+2, -1266619.3, -1470959.5, -15854.108, -0.02294635, 0.025970811, -1265396.5, 167352.44, 0.00000001715619, 10.0015955, 9.998884 
2.9503584e+2, 1.6380069e+2, -1210047.8, -1390002.9, -8519.935, -0.009980377, 0.045970432, -1209645.3, 125112.79, 0.0, 10.0013, 9.99891 
2.9502913e+2, 1.7380008e+2, -1124430.5, -1297084.0, -10445.762, 0.011213133, 0.08979067, -1123800.9, 112965.09, 0.0, 10.001212, 9.998917 
2.9502237e+2, 1.8379915e+2, -1031722.75, -1168260.9, -3908.2466, 0.01882053, 0.09342755, -1031610.94, 107164.53, 0.0, 10.001031, 9.999216 
2.9501554e+2, 1.937978e+2, -977791.3, -1087345.1, 4438.398, 0.009793814, 0.029163156, -977611.8, 63175.055, 0.0, 10.0007105, 9.999253 
2.9500872e+2, 2.0379677e+2, -946292.1, -1059013.3, 8253.211, 0.00059414026, 0.018904697, -945691.06, -2894.2769, 0.0, 10.000415, 9.998918 
2.95002e+2, 2.1379636e+2, -887877.7, -984961.3, -5583.176, -0.011048977, 0.085947044, -887557.6, -42753.926, 0.0, 10.000164, 9.998874 
2.9499537e+2, 2.2379574e+2, -794386.3, -833779.75, -11042.611, -0.010453366, 0.118350156, -791502.06, -44690.938, 0.0, 9.999894, 9.999369 
2.9498887e+2, 2.3379496e+2, -735674.25, -747397.0, 6862.867, 0.011471838, 0.09118682, -732510.44, -83692.05, 0.0, 9.999593, 9.9994335 
2.9498234e+2, 2.4379422e+2, -682346.56, -684020.4, 16589.963, 0.026328545, 0.08196805, -666572.44, -115747.36, 0.0, 9.999343, 9.999317 
2.9497567e+2, 2.5379366e+2, -610138.3, -600124.4, 8133.892, 0.025177978, 0.093017995, -595579.9, -142749.67, 0.0, 9.999173, 9.999301 
2.9496878e+2, 2.6379296e+2, -534216.44, -487327.66, -8315.24, 0.0098224515, 0.08622468, -485896.72, -131060.54, 0.0, 9.998913, 9.999528 
2.9496145e+2, 2.7379218e+2, -493435.72, -412960.7, 872.38153, -0.017308367, 0.046977296, -412951.25, -156109.03, 0.0, 9.998503, 9.999563 
2.9495466e+2, 2.8379172e+2, -419913.16, -302328.38, 7242.1357, 0.0059351614, 0.034627758, -301884.03, -143039.1, 0.0, 9.99823, 9.999782 
2.9494843e+2, 2.937917e+2, -327259.84, -206192.83, 9168.472, 0.0798024, 0.05078538, -205502.42, -144659.98, 0.0, 9.998191, 9.999786 
2.9494095e+2, 3.037902e+2, -315159.5, -185159.63, 1318.8478, 0.023256915, -0.067896806, -185146.25, -185146.25, 0.0, 9.997981, 9.999699 
2.9493386e+2, 3.137903e+2, -281634.06, -747.4755, -31857.518, 0.041625466, -0.038127147, 2820.4114, 2820.4114, 0.0, 9.997484, 10.001205 
3.050646e+2, 1.2381224e+2, -1496694.0, -1768358.3, -25492.902, -0.021598293, 0.06050232, -1494322.5, 232322.38, 0.000073591786, 10.002184, 9.99858 
3.0505863e+2, 1.3381161e+2, -1397871.5, -1619856.4, 55066.43, -0.007198598, 0.09907749, -1384962.3, 243689.13, 0.000027638554, 10.001972, 9.999029 
3.050521e+2, 1.4380981e+2, -1333765.8, -1554389.5, 1693.3171, -0.004677253, 0.023639757, -1333752.8, 196916.1, 0.000004191702, 10.001809, 9.998881 
3.0504432e+2, 1.538087e+2, -1261559.6, -1476962.8, -6114.1226, -0.033191066, 0.02595776, -1261386.3, 171293.14, 0.000000032166714, 10.001668, 9.998808 
3.0503705e+2, 1.6380772e+2, -1185960.9, -1381269.1, 10607.889, -0.026142657, 0.04697785, -1185386.4, 149302.86, 0.0, 10.001479, 9.998883 
3.0503044e+2, 1.7380707e+2, -1122538.6, -1298854.3, 12032.155, 0.01878297, 0.08855365, -1121721.3, 114975.95, 0.0, 10.001236, 9.998894 
3.050235e+2, 1.8380608e+2, -1039519.3, -1172437.6, 9882.101, 0.031411406, 0.08812482, -1038788.6, 99918.414, 0.0, 10.000979, 9.999212 
3.050161e+2, 1.9380464e+2, -978487.7, -1086893.8, 1420.2974, -0.0015751157, 0.015489043, -978469.06, 62249.88, 0.0, 10.000704, 9.999259 
3.05009e+2, 2.0380357e+2, -947881.4, -1065075.0, 6653.627, -0.013593321, 0.002232787, -947504.8, -4775.57, 0.0, 10.000428, 9.998869 
3.0500233e+2, 2.1380317e+2, -892636.9, -993797.06, 17765.873, 0.005149953, 0.07611884, -889607.5, -44871.113, 0.0, 10.000159, 9.998816 
3.0499545e+2, 2.2380261e+2, -785921.3, -816805.7, 17481.268, 0.009948538, 0.11064504, -778038.5, -31295.135, 0.0, 9.999897, 9.999484 
3.049883e+2, 2.3380189e+2, -718808.75, -723723.9, 9913.832, -0.005565764, 0.077351436, -711052.44, -62303.21, 0.0, 9.999642, 9.999573 
3.0498138e+2, 2.4380119e+2, -692761.94, -695118.06, 8142.438, -0.0012232466, 0.06755196, -685712.75, -134957.53, 0.0, 9.999297, 9.999262 
3.0497473e+2, 2.5380066e+2, -668076.94, -636788.44, 13057.011, 0.030799733, 0.08770859, -632055.5, -179294.63, 0.0, 9.998814, 9.999223 
3.0496767e+2, 2.6379997e+2, -578814.25, -490695.88, 7517.3135, 0.028700085, 0.07573986, -490059.2, -135292.11, 0.0, 9.998529, 9.999689 
3.0495998e+2, 2.7379906e+2, -470503.7, -380243.66, 9856.373, -0.017902795, 0.010150166, -379179.88, -122407.02, 0.0, 9.998569, 9.999756 
3.0495292e+2, 2.837987e+2, -397647.1, -299862.44, 9024.398, -0.0025907797, 0.0006451901, -299036.56, -140262.13, 0.0, 9.99842, 9.999706 
3.0494654e+2, 2.9379904e+2, -370218.78, -238911.84, 9036.857, 0.085266896, 0.062818035, -238292.83, -177523.03, 0.0, 9.997949, 9.999679 
3.0493897e+2, 3.0379757e+2, -338134.1, -169168.03, 5477.925, 0.0417305, -0.060305916, -168990.63, -168990.63, 0.0, 9.997707, 9.999941 
3.049316e+2, 3.137976e+2, -233217.42, 21432.191, -26110.21, 0.050789427, -0.059995476, 24081.805, 24081.805, 0.0, 9.997824, 10.001194 
3.150666e+2, 1.2381936e+2, -1505623.1, -1786894.8, -40497.703, -0.034864973, 0.017893782, -1499908.3, 226664.22, 0.00006650563, 10.002184, 9.998452 
3.1506062e+2, 1.3381869e+2, -1405598.1, -1637481.1, 48099.73, -0.007022926, 0.06274653, -1396016.8, 232563.61, 0.000025576577, 10.001979, 9.998905 
3.150541e+2, 1.4381708e+2, -1333654.5, -1554981.0, -3972.5242, 0.01153678, 0.014085393, -1333583.3, 197013.38, 0.000004447986, 10.001813, 9.998877 
3.1504607e+2, 1.5381624e+2, -1260972.5, -1475166.0, -11263.186, -0.021660373, 0.043077596, -1260381.9, 172223.4, 0.00000006594377, 10.001666, 9.998822 
3.1503853e+2, 1.6381522e+2, -1186039.6, -1380484.4, 1865.7391, -0.022389056, 0.05869047, -1186021.8, 148593.94, 0.0, 10.001474, 9.99889 
3.1503153e+2, 1.7381401e+2, -1122123.6, -1297987.4, 3025.328, 0.004431402, 0.044146392, -1122071.6, 114556.36, 0.0, 10.001236, 9.998899 
3.1502423e+2, 1.8381295e+2, -1052521.6, -1199406.0, -538.1246, 0.0078124236, 0.043283634, -1052519.6, 86118.96, 0.0, 10.000978, 9.999028 
3.1501666e+2, 1.9381216e+2, -993402.4, -1117314.0, -8733.891, -0.017201016, 0.05732411, -992789.8, 47856.105, 0.0, 10.000701, 9.999052 
3.1500947e+2, 2.0381123e+2, -932935.5, -1033503.3, -3409.5745, -0.012021556, 0.060132865, -932820.06, 9835.131, 0.0, 10.000425, 9.999087 
3.150028e+2, 2.1381015e+2, -873589.7, -953855.75, 7955.929, 0.03776726, 0.03925008, -872808.7, -28141.9, 0.0, 10.000157, 9.99909 
3.149957e+2, 2.2380939e+2, -796141.56, -837981.25, 7952.8477, 0.044106144, 0.04407756, -794680.9, -48005.92, 0.0, 9.999896, 9.999339 
3.1498784e+2, 2.3380917e+2, -732800.0, -752921.2, 520.31085, -0.015724193, 0.08262142, -732786.5, -84109.664, 0.0, 9.999642, 9.9993725 
3.1498036e+2, 2.4380869e+2, -687940.1, -685121.8, -9365.951, -0.03343447, 0.10050939, -677059.6, -126378.08, 0.0, 9.999297, 9.999331 
3.1497335e+2, 2.5380784e+2, -660599.9, -620769.44, -5337.5283, 0.011779638, 0.0782426, -620066.56, -167376.8, 0.0, 9.998811, 9.999334 
3.1496626e+2, 2.6380694e+2, -572318.06, -476767.06, 6578.0225, 0.0321694, 0.039452523, -476316.34, -121619.25, 0.0, 9.998528, 9.999785 
3.1495896e+2, 2.7380618e+2, -463908.47, -366592.03, 11904.3, 0.02164759, -0.027453769, -365156.97, -108455.24, 0.0, 9.998569, 9.999849 
3.1495166e+2, 2.8380597e+2, -405304.13, -315269.84, -6778.3755, 0.030860467, -0.017997868, -314762.38, -156060.66, 0.0, 9.998418, 9.999602 
3.149441e+2, 2.938067e+2, -378561.2, -256697.52, -8959.346, 0.045752183, 0.092281, -256042.36, -195347.47, 0.0, 9.997951, 9.999557 
3.1493628e+2, 3.0380535e+2, -317442.8, -126122.8, 7187.045, 0.0023185476, -0.025993954, -125853.19, -125853.19, 0.0, 9.997707, 10.0002365 
3.1493002e+2, 3.1380522e+2, -231298.83, 25227.777, -24126.402, 0.10960921, -0.071448304, 27477.148, 27477.148, 0.0, 9.997824, 10.001221 
3.250691e+2, 1.23826645e+2, -1476420.0, -1771714.3, -55851.543, -0.017428264, -0.00898379, -1466209.4, 260290.5, 0.00006287029, 10.00238, 9.998461 
3.2506248e+2, 1.3382599e+2, -1394702.8, -1629271.3, 50820.92, -0.023681698, 0.036524344, -1384165.4, 244341.86, 0.000025189593, 10.002042, 9.998931 
3.2505575e+2, 1.4382455e+2, -1335231.5, -1565172.1, 7945.2314, -0.0023381852, 0.0061493507, -1334957.3, 195565.05, 0.0000050024137, 10.001843, 9.998791 
3.250479e+2, 1.5382372e+2, -1242133.3, -1476953.3, -7711.402, -0.012694695, 0.045435466, -1241880.4, 190651.61, 0.000000115129794, 10.001842, 9.998725 
3.2504025e+2, 1.638227e+2, -1151853.8, -1357331.1, -5526.507, -0.010885079, 0.06338553, -1151705.3, 182837.45, 0.0, 10.00168, 9.99895 
3.2503256e+2, 1.7382148e+2, -1112353.6, -1283621.6, 73.28865, -0.014869434, 0.039032843, -1112353.6, 124200.836, 0.0, 10.001263, 9.998984 
3.2502493e+2, 1.838204e+2, -1067989.6, -1218311.0, 5688.217, -0.0185525, 0.038647536, -1067774.8, 70790.32, 0.0, 10.000923, 9.998924 
3.250174e+2, 1.9381966e+2, -999613.7, -1135413.3, 2989.6106, -0.014542803, 0.069922075, -999547.94, 41025.03, 0.0, 10.000722, 9.998918 
3.2501003e+2, 2.0381877e+2, -921568.94, -1016756.0, 4790.312, 0.0016725233, 0.0785876, -921328.44, 21253.666, 0.0, 10.000454, 9.999189 
3.250029e+2, 2.138177e+2, -875952.75, -939556.3, 4990.348, 0.03443845, 0.045922425, -875563.56, -30970.979, 0.0, 10.000075, 9.999228 
3.2499543e+2, 2.2381689e+2, -822922.1, -856108.06, 4603.37, 0.036148034, 0.040181097, -822295.4, -75694.77, 0.0, 9.999736, 9.999292 
3.2498747e+2, 2.3381652e+2, -764091.06, -775908.75, 7001.0024, -0.009275122, 0.07034118, -760838.6, -112234.53, 0.0, 9.999461, 9.999302 
3.249797e+2, 2.4381599e+2, -687154.4, -673828.94, 2892.2412, -0.024638187, 0.083919294, -673228.25, -122619.125, 0.0, 9.999256, 9.999429 
3.2497227e+2, 2.5381526e+2, -601297.7, -579091.4, 7411.2524, 0.0037899853, 0.06444783, -576845.1, -124229.34, 0.0, 9.999162, 9.999452 
3.2496485e+2, 2.6381454e+2, -521661.03, -455033.78, 16747.332, 0.023352329, 0.033858195, -451061.1, -96439.336, 0.0, 9.998887, 9.999763 
3.2495755e+2, 2.7381387e+2, -501732.1, -389113.3, 11576.208, 0.037314896, -0.015901318, -387935.7, -131310.25, 0.0, 9.998327, 9.999811 
3.2495004e+2, 2.8381366e+2, -453826.75, -326714.1, -2117.5217, 0.048019823, -0.013133896, -326678.84, -168053.02, 0.0, 9.998034, 9.999708 
3.24942e+2, 2.938141e+2, -338980.3, -223492.31, 14747.536, 0.029515214, 0.055781912, -221638.83, -161017.45, 0.0, 9.998162, 9.999681 
3.2493404e+2, 3.0381298e+2, -264328.4, -92163.81, 32161.768, -0.011168073, -0.048164275, -86351.93, -86351.93, 0.0, 9.998036, 10.000312 
3.2492793e+2, 3.1381354e+2, -302025.88, -35618.125, -23170.836, 0.13594262, -0.032183707, -33617.86, -33617.86, 0.0, 9.997453, 10.000981 
3.350719e+2, 1.23834126e+2, -1465921.8, -1751482.0, -75318.67, 0.023959756, -0.018445166, -1447273.6, 279152.88, 0.000061273975, 10.002388, 9.998596 
3.3506417e+2, 1.3383356e+2, -1383013.6, -1604271.6, 39160.465, -0.056478273, 0.018308604, -1376287.1, 252145.05, 0.000025556885, 10.002039, 9.9991045 
3.3505717e+2, 1.4383224e+2, -1348651.5, -1591795.1, 7130.0957, -0.045492187, -0.002550638, -1348442.6, 182003.4, 0.0000055599335, 10.001838, 9.9986105 
3.350498e+2, 1.5383114e+2, -1257412.3, -1508794.0, -6923.1216, -0.01026318, 0.034620292, -1257221.6, 175237.47, 0.00000016881297, 10.0018425, 9.998506 
3.350421e+2, 1.6383018e+2, -1143350.4, -1339955.4, -19406.457, 0.0043013226, 0.0633157, -1141453.1, 193016.92, 0.0, 10.001681, 9.99907 
3.350336e+2, 1.7382944e+2, -1100933.6, -1259519.4, -15349.341, -0.03898262, 0.072140895, -1099461.6, 137015.28, 0.0, 10.001261, 9.999151 
3.3502555e+2, 1.8382846e+2, -1071180.1, -1224100.5, -2741.599, -0.04785452, 0.07252917, -1071131.0, 67355.57, 0.0, 10.000919, 9.998886 
3.350183e+2, 1.9382715e+2, -1004838.25, -1145786.1, -4230.7075, 0.005040053, 0.05327043, -1004711.4, 35788.703, 0.0, 10.00072, 9.998848 
3.350107e+2, 2.0382617e+2, -922786.8, -1018837.6, -8604.329, 0.025753627, 0.05857279, -922022.1, 20488.033, 0.0, 10.000452, 9.999176 
3.3500257e+2, 2.138258e+2, -876306.56, -940190.4, -8932.8125, -0.0057272892, 0.096180685, -875081.0, -30567.09, 0.0, 10.000074, 9.999224 
3.349946e+2, 2.2382508e+2, -819499.7, -848997.44, -6275.6587, -0.014838345, 0.09904876, -818220.06, -71699.49, 0.0, 9.999735, 9.999341 
3.3498713e+2, 2.338239e+2, -759776.9, -766800.56, -3136.731, 0.013189393, 0.040424533, -758580.0, -110048.95, 0.0, 9.99946, 9.999365 
3.3497947e+2, 2.4382311e+2, -678671.94, -656256.9, -1473.52, 0.024350813, 0.017932108, -656160.44, -105622.38, 0.0, 9.999256, 9.999549 
3.3497143e+2, 2.53823e+2, -592529.1, -560888.3, 4158.1367, 0.0061277584, 0.046411116, -560351.0, -107812.055, 0.0, 9.999162, 9.999577 
3.3496353e+2, 2.638227e+2, -532202.8, -476841.88, -2625.1548, 0.0016085958, 0.059727877, -476717.66, -122176.64, 0.0, 9.998886, 9.999613 
3.3495575e+2, 2.7382222e+2, -514100.38, -414517.94, -9794.138, 0.026458424, 0.043828763, -413563.8, -157019.69, 0.0, 9.998326, 9.999637 
3.3494806e+2, 2.8382167e+2, -431779.44, -280523.1, -570.04645, 0.0466522, 0.014183629, -280520.97, -121974.055, 0.0, 9.998032, 10.000027 
3.3494022e+2, 2.938212e+2, -312006.2, -167683.92, 20379.057, 0.036988974, -0.046840712, -164861.48, -104312.24, 0.0, 9.998162, 10.000065 
3.3493218e+2, 3.038205e+2, -275551.22, -115117.51, 13192.955, 0.0018268033, -0.12748557, -114039.85, -114039.85, 0.0, 9.9980345, 10.0001545 
3.3492526e+2, 3.138225e+2, -337387.0, -109151.49, -46566.266, 0.124230735, 0.05873104, -100016.336, -100016.336, 0.0, 9.997454, 10.000476 
3.4507415e+2, 1.23842105e+2, -1505252.8, -1773514.8, -63017.633, 0.024660401, -0.007511587, -1491186.8, 235162.27, 0.000060228966, 10.0021305, 9.9985695 
3.4506628e+2, 1.3384145e+2, -1328335.1, -1579476.3, 45025.168, -0.06717697, 0.02304327, -1320506.9, 307848.44, 0.000025763518, 10.002418, 9.999092 
3.4505922e+2, 1.4384021e+2, -1273850.3, -1547983.1, 2564.0735, -0.04764464, 0.00797401, -1273826.3, 256541.9, 0.000005876301, 10.002317, 9.99868 
3.4505135e+2, 1.5383907e+2, -1292209.0, -1516007.0, 9215.426, -0.023605764, 0.029719256, -1291830.3, 140551.06, 0.0000002059256, 10.001562, 9.99859 
3.4504333e+2, 1.6383806e+2, -1225893.6, -1388045.1, 11402.628, -0.011120942, 0.053905006, -1225095.6, 109296.734, 0.0, 10.00115, 9.998995 
3.4503478e+2, 1.7383738e+2, -1101014.1, -1270493.0, -3486.7556, -0.046496358, 0.07751521, -1100942.4, 135457.1, 0.0, 10.001307, 9.999054 
3.4502658e+2, 1.8383642e+2, -1031190.2, -1198949.8, -7758.998, -0.048897166, 0.08382118, -1030832.1, 107577.016, 0.0, 10.001167, 9.9989395 
3.45019e+2, 1.938351e+2, -1022816.44, -1145430.3, 153.57767, 0.010087976, 0.05668256, -1022816.25, 17606.025, 0.0, 10.000559, 9.998927 
3.4501106e+2, 2.038341e+2, -968500.6, -1046732.2, 7466.073, 0.028277798, 0.057464626, -967794.44, -25362.203, 0.0, 10.000164, 9.999123 
3.450025e+2, 2.1383366e+2, -875971.5, -948182.44, 2722.0679, -0.02092208, 0.09586398, -875869.06, -31432.373, 0.0, 10.000112, 9.999152 
3.449943e+2, 2.2383292e+2, -792566.9, -831916.5, -2896.8647, -0.0315837, 0.096654154, -792354.75, -45911.137, 0.0, 9.999902, 9.999378 
3.4498665e+2, 2.338317e+2, -758781.3, -760430.1, -1290.7368, 0.020009274, 0.031643126, -758074.2, -109620.23, 0.0, 9.999442, 9.999417 
3.449788e+2, 2.4383093e+2, -704396.5, -664487.44, 3802.7246, 0.044351913, 0.007561178, -664128.3, -113667.88, 0.0, 9.999062, 9.999587 
3.4497058e+2, 2.5383094e+2, -641467.06, -580216.44, 3128.2197, 0.022973139, 0.04292977, -580057.1, -127596.94, 0.0, 9.998808, 9.999615 
3.4496236e+2, 2.638307e+2, -562750.5, -486704.72, -3776.4946, 0.009171497, 0.05546485, -486517.66, -132055.8, 0.0, 9.998655, 9.999656 
3.4495413e+2, 2.7383006e+2, -462113.22, -385217.97, 5178.3965, 0.014072719, 0.024017092, -384870.78, -128404.84, 0.0, 9.998664, 9.999677 
3.4494612e+2, 2.8382957e+2, -378282.16, -246074.94, 13983.453, 0.03242123, -0.012122438, -244612.11, -86143.33, 0.0, 9.99836, 10.000106 
3.4493822e+2, 2.938293e+2, -391199.44, -196527.47, 12207.827, 0.052853197, -0.058953132, -195764.9, -135295.94, 0.0, 9.997578, 10.00015 
3.4493017e+2, 3.03829e+2, -364698.16, -144163.02, 13833.357, 0.031209584, -0.105975546, -143298.69, -143298.69, 0.0, 9.997362, 10.000278 
3.4492287e+2, 3.1383055e+2, -264441.88, -80385.555, -20330.213, 0.11618625, 0.022766398, -78166.7, -78166.7, 0.0, 9.997982, 10.000419 
3.5507587e+2, 1.2385052e+2, -1518487.9, -1800578.5, -59443.543, -0.015957618, 0.021260798, -1506473.4, 219794.25, 0.00005843651, 10.002128, 9.998384 
3.5506874e+2, 1.3384967e+2, -1341396.4, -1607272.6, 57804.84, -0.061433118, 0.05107768, -1329372.6, 298904.1, 0.000025162195, 10.002419, 9.998901 
3.5506186e+2, 1.438485e+2, -1250964.5, -1500933.6, -21020.83, -0.014745614, 0.038633663, -1249209.0, 281079.47, 0.0000057861466, 10.002319, 9.999002 
3.5505265e+2, 1.5384743e+2, -1264906.8, -1459199.1, -19241.316, -0.051379606, 0.029879114, -1263019.5, 169279.0, 0.00000020730299, 10.001561, 9.998981 
3.5504404e+2, 1.6384631e+2, -1245469.6, -1428684.9, 13518.016, -0.055966135, 0.03433423, -1244477.5, 89832.32, 0.0, 10.00115, 9.998716 
3.5503617e+2, 1.7384525e+2, -1126918.5, -1324234.1, 3130.7751, -0.040389497, 0.05537477, -1126868.8, 109453.6, 0.0, 10.001306, 9.998686 
3.5502797e+2, 1.8384427e+2, -1020502.8, -1176440.0, -27360.238, -0.02516494, 0.07340475, -1015841.6, 122491.18, 0.0, 10.001165, 9.999095 
3.5501948e+2, 1.9384351e+2, -1006614.1, -1112122.5, -22553.67, 0.00048538062, 0.079819284, -1001995.25, 38344.23, 0.0, 10.000559, 9.999156 
3.5501102e+2, 2.0384255e+2, -975415.75, -1061102.8, 3161.2908, 0.009180153, 0.07479737, -975299.25, -32950.703, 0.0, 10.000164, 9.999024 
3.5500267e+2, 2.1384129e+2, -886063.06, -968865.06, 1244.355, -0.011853845, 0.044840258, -886044.3, -41683.41, 0.0, 10.00011, 9.999011 
3.5499436e+2, 2.2384033e+2, -791231.25, -828757.1, -18520.406, -0.015701136, 0.03307532, -783630.3, -37260.39, 0.0, 9.999901, 9.999401 
3.5498598e+2, 2.3383993e+2, -756027.9, -754700.9, -18588.37, 0.010232388, 0.044178434, -736764.2, -88391.29, 0.0, 9.999442, 9.999457 
3.5497776e+2, 2.4383949e+2, -707811.44, -671309.94, -6866.7617, 0.034489326, 0.053074103, -670060.94, -119684.586, 0.0, 9.999061, 9.99954 
3.549697e+2, 2.5383908e+2, -645180.1, -587376.7, -6476.4844, 0.053463936, 0.053468153, -586659.94, -134280.23, 0.0, 9.998805, 9.999566 
3.5496137e+2, 2.6383844e+2, -546401.56, -452258.03, -4830.295, 0.045089804, 0.020099886, -452010.84, -97626.48, 0.0, 9.998653, 9.999894 
3.5495263e+2, 2.7383748e+2, -443252.1, -346223.66, 5792.761, -0.00019037108, -0.07569301, -345879.03, -89488.12, 0.0, 9.998665, 9.999944 
3.5494417e+2, 2.8383723e+2, -390240.6, -270895.2, -12619.827, 0.0050009075, -0.09188418, -269575.34, -111184.0, 0.0, 9.99836, 9.999935 
3.5493603e+2, 2.9383832e+2, -407329.28, -228847.66, -17606.26, 0.0742262, 0.01975015, -227127.47, -166746.89, 0.0, 9.997572, 9.99993 
3.5492796e+2, 3.0383852e+2, -336967.25, -84991.836, 31576.703, 0.07408848, 0.016171213, -81095.016, -81095.016, 0.0, 9.997355, 10.000689 
3.549208e+2, 3.1383774e+2, -235672.05, -21522.166, 2307.3337, 0.110133514, -0.1394038, -21497.31, -21497.31, 0.0, 9.997986, 10.000821 
3.6507818e+2, 1.2385931e+2, -1414725.6, -1755402.4, -45625.74, -0.033168368, 0.044996455, -1408721.0, 317460.94, 0.000055122826, 10.002861, 9.998341 
3.65071e+2, 1.3385814e+2, -1403392.8, -1642907.1, 88607.695, -0.06255077, 0.047994856, -1374176.4, 254017.86, 0.000023501116, 10.00202, 9.998849 
3.6506408e+2, 1.4385699e+2, -1344238.9, -1540739.0, 8126.2266, 0.009724338, 0.039526965, -1343903.4, 186302.19, 0.00000526637, 10.001657, 9.999048 
3.6505434e+2, 1.5385605e+2, -1199345.9, -1420608.4, -15098.137, -0.05696117, 0.037331473, -1198320.4, 233893.56, 0.00000017249042, 10.001981, 9.999043 
3.650454e+2, 1.6385493e+2, -1143115.6, -1384150.4, 9305.306, -0.069108084, 0.038814757, -1142757.0, 191468.16, 0.0, 10.001872, 9.998673 
3.6503747e+2, 1.7385362e+2, -1161187.9, -1346523.6, 21693.74, -0.02794247, 0.042180356, -1158682.4, 77557.27, 0.0, 10.001095, 9.998633 
3.6502907e+2, 1.8385255e+2, -1092326.8, -1211960.1, 2234.3643, -0.0089769745, 0.054203827, -1092285.1, 45965.9, 0.0, 10.000676, 9.999087 
3.6501998e+2, 1.9385193e+2, -967938.7, -1093788.3, -9956.692, -0.015008316, 0.073491745, -967155.8, 73100.69, 0.0, 10.000825, 9.999154 
3.6501125e+2, 2.0385098e+2, -903251.3, -1024062.4, 5591.2314, -0.0111440215, 0.06999635, -902993.06, 39272.195, 0.0, 10.0006485, 9.999045 
3.650029e+2, 2.1384957e+2, -906133.0, -975119.94, 15311.497, 0.004836158, 0.023334665, -902887.4, -58608.68, 0.0, 9.999958, 9.999041 
3.6499432e+2, 2.2384861e+2, -845260.1, -854747.7, 6919.186, 0.012013613, 0.009460991, -841614.7, -95327.13, 0.0, 9.999529, 9.999401 
3.6498544e+2, 2.3384842e+2, -746447.3, -750480.94, 3633.206, 0.008197769, 0.04191272, -744308.7, -96019.984, 0.0, 9.99951, 9.999454 
3.6497682e+2, 2.43848e+2, -667792.06, -654581.6, 11937.492, 0.020815857, 0.052466508, -647543.8, -97251.7, 0.0, 9.999346, 9.999517 
3.649686e+2, 2.5384727e+2, -624747.6, -580495.6, 13829.343, 0.055976108, 0.023917349, -576529.25, -124231.016, 0.0, 9.998958, 9.99954 
3.6496013e+2, 2.638466e+2, -551728.25, -446454.6, 16347.586, 0.060393374, -0.014083584, -443974.44, -89671.39, 0.0, 9.998579, 9.99997 
3.649513e+2, 2.73846e+2, -500274.44, -363470.5, 13486.654, 0.021848937, -0.07915877, -362153.63, -105847.71, 0.0, 9.998229, 10.000035 
3.6494258e+2, 2.8384584e+2, -434408.53, -298355.66, -13003.845, 0.021211341, -0.090693615, -297123.9, -138818.13, 0.0, 9.998083, 9.999881 
3.6493385e+2, 2.9384658e+2, -315429.9, -193608.14, -7352.672, 0.06736794, -0.007804334, -193165.97, -132867.23, 0.0, 9.998241, 9.99985 
3.649256e+2, 3.0384707e+2, -237222.77, -35691.023, 43316.78, 0.06903694, 0.018866722, -26775.063, -26775.063, 0.0, 9.998034, 10.000701 
3.6491856e+2, 3.1384605e+2, -339486.94, -65804.84, -21850.094, 0.12037136, -0.16434467, -64071.367, -64071.367, 0.0, 9.997246, 10.0008745 
3.7508106e+2, 1.2386843e+2, -1409639.9, -1742718.6, -80962.875, -0.03208646, 0.064150296, -1391002.8, 335089.3, 0.00005010573, 10.002852, 9.998431 
3.750729e+2, 1.3386683e+2, -1397708.1, -1631045.3, 57831.184, -0.06944121, 0.014646815, -1384161.5, 243946.45, 0.000020857056, 10.002019, 9.998931 
3.7506592e+2, 1.4386569e+2, -1359813.4, -1573539.8, 15963.371, 0.026088761, 0.01142597, -1358627.8, 171491.73, 0.000004428325, 10.0016575, 9.998823 
3.7505645e+2, 1.538649e+2, -1217975.8, -1459151.3, -2208.4075, -0.04409121, 0.052253075, -1217955.5, 214172.17, 0.00000011962439, 10.00198, 9.99878 
3.7504742e+2, 1.6386387e+2, -1129203.5, -1354870.5, -15464.671, -0.054400783, 0.06735946, -1128148.8, 205989.45, 0.0, 10.00187, 9.998877 
3.7503874e+2, 1.7386247e+2, -1142413.5, -1308065.4, -7541.8784, -0.008940276, 0.03746027, -1142070.8, 94080.87, 0.0, 10.001097, 9.998898 
3.750298e+2, 1.8386126e+2, -1104378.3, -1237348.5, 3991.61, -0.0006631334, 0.02607385, -1104258.5, 33905.36, 0.0, 10.000677, 9.998913 
3.750206e+2, 1.9386032e+2, -984463.1, -1127986.8, -3770.0715, -0.037641663, 0.037706047, -984364.2, 55809.31, 0.0, 10.000824, 9.99892 
3.7501162e+2, 2.0385939e+2, -893269.56, -1002723.56, -16858.541, -0.034300834, 0.04308444, -890731.8, 51450.688, 0.0, 10.000646, 9.999193 
3.7500307e+2, 2.1385853e+2, -892353.25, -946364.75, -10602.035, 0.028283117, 0.03117981, -890346.7, -46156.656, 0.0, 9.999957, 9.999239 
3.7499425e+2, 2.2385778e+2, -846970.8, -858016.4, 3284.8108, 0.050762832, 0.025667321, -846067.75, -99871.055, 0.0, 9.999528, 9.999379 
3.7498498e+2, 2.3385718e+2, -749857.56, -757495.25, 3197.384, 0.013289911, 0.024216752, -748695.75, -100494.33, 0.0, 9.999509, 9.999406 
3.7497598e+2, 2.4385643e+2, -667924.75, -654565.3, -1269.8591, 0.0018750846, 0.004834075, -654445.7, -104237.87, 0.0, 9.999345, 9.999518 
3.7496728e+2, 2.538555e+2, -624347.2, -579963.06, -839.7906, 0.029510329, -0.04584237, -579947.2, -127731.375, 0.0, 9.998959, 9.999544 
3.7495863e+2, 2.6385516e+2, -558213.3, -459756.8, 2662.89, 0.054604664, -0.046895143, -459684.84, -105466.96, 0.0, 9.998579, 9.999879 
3.749501e+2, 2.7385572e+2, -507628.78, -377309.94, 260.60727, 0.079039924, 0.014354158, -377309.4, -121098.52, 0.0, 9.998222, 9.999944 
3.7494123e+2, 2.8385544e+2, -430488.0, -288701.2, -9418.478, 0.07944008, -0.0080756275, -288078.28, -129866.19, 0.0, 9.998076, 9.99995 
3.7493172e+2, 2.9385406e+2, -309028.2, -181809.56, -1057.3992, 0.031777933, -0.14305249, -181800.77, -121577.34, 0.0, 9.998247, 9.999928 
3.749231e+2, 3.0385458e+2, -264148.94, -92811.54, 17483.848, 0.015387246, -0.09967447, -91045.63, -91045.63, 0.0, 9.998039, 10.000305 
3.74916e+2, 3.1385544e+2, -363042.4, -111363.875, -53810.004, 0.14271583, -0.04799606, -100341.766, -100341.766, 0.0, 9.997232, 10.000568 
3.8508373e+2, 1.23877235e+2, -1494163.5, -1775035.5, -79447.58, -0.017709184, 0.028921502, -1473248.4, 252756.23, 0.00004363311, 10.002235, 9.998507 
3.8507494e+2, 1.3387594e+2, -1319696.1, -1586619.8, 62064.35, -0.09416783, 0.0021986002, -1305970.9, 322046.8, 0.000017489165, 10.002522, 9.998993 
3.8506788e+2, 1.4387499e+2, -1255068.6, -1538510.3, 25418.037, 0.017647484, 0.022102127, -1252807.3, 277220.16, 0.0000034194288, 10.002443, 9.998685 
3.8505837e+2, 1.5387386e+2, -1261719.8, -1498380.1, 14349.312, -0.037598748, 0.043899488, -1260852.9, 171186.8, 0.00000006772674, 10.001757, 9.998618 
3.8504916e+2, 1.6387267e+2, -1199996.5, -1378157.5, -4494.0444, -0.042021815, 0.05199611, -1199883.3, 134168.22, 0.0, 10.001337, 9.998974 
3.8504e+2, 1.7387156e+2, -1096671.8, -1270962.5, -7351.5903, -0.008271689, 0.035473794, -1096362.3, 139699.5, 0.0, 10.001345, 9.999033 
3.850307e+2, 1.8387045e+2, -1040566.2, -1214464.4, 9217.343, -0.0035497043, 0.029421184, -1040079.0, 97993.9, 0.0, 10.001148, 9.998843 
3.850214e+2, 1.9386934e+2, -1018966.9, -1154873.6, 12451.713, -0.030765325, 0.032704834, -1017835.44, 22249.465, 0.0, 10.000631, 9.998829 
3.8501218e+2, 2.0386836e+2, -944118.0, -1021769.94, -4848.8438, -0.025919918, 0.03681008, -943816.4, -1721.7034, 0.0, 10.000273, 9.999243 
3.8500312e+2, 2.138677e+2, -858225.4, -922268.06, -9551.773, 0.025453065, 0.03687088, -856831.06, -12730.799, 0.0, 10.000158, 9.999308 
3.8499394e+2, 2.23867e+2, -786308.8, -824842.5, 7491.2017, 0.04625666, 0.0341995, -784903.7, -38797.83, 0.0, 9.9999275, 9.999414 
3.8498458e+2, 2.3386633e+2, -746098.7, -752016.94, 14063.008, 0.021042971, 0.020039998, -734686.8, -86575.73, 0.0, 9.999519, 9.999438 
3.8497537e+2, 2.4386548e+2, -694305.7, -675756.0, 8263.702, 0.014565861, -0.006297962, -672608.6, -122490.414, 0.0, 9.9992, 9.999443 
3.8496634e+2, 2.538645e+2, -621887.3, -588562.8, 880.96423, 0.036255825, -0.054436192, -588539.56, -136412.33, 0.0, 9.999018, 9.999456 
3.8495737e+2, 2.6386416e+2, -530137.8, -451912.03, 1034.5559, 0.056335796, -0.046522796, -451898.34, -97768.97, 0.0, 9.9987955, 9.999828 
3.8494843e+2, 2.7386487e+2, -469875.4, -364454.25, 2489.7979, 0.07661579, 0.032526843, -364395.5, -108274.36, 0.0, 9.998504, 9.999897 
3.8493937e+2, 2.838645e+2, -413278.9, -273231.53, 2380.6755, 0.081562005, 0.00063306064, -273191.1, -115067.97, 0.0, 9.998161, 10.000015 
3.8492996e+2, 2.938627e+2, -375180.56, -205861.7, 10179.567, 0.053889323, -0.1829403, -205251.89, -145113.8, 0.0, 9.997759, 9.999999 
3.8492113e+2, 3.038635e+2, -335222.06, -154882.77, 30052.014, 0.0365215, -0.10707922, -150006.7, -150006.7, 0.0, 9.997671, 10.000056 
3.8491324e+2, 3.1386453e+2, -247044.6, -60967.79, -30437.217, 0.10310865, -0.011283022, -56115.594, -56115.594, 0.000000000002787424, 9.998052, 10.00052 
3.9508623e+2, 1.2388572e+2, -1489893.3, -1766260.8, -73788.266, 0.007548524, -0.058805935, -1471426.3, 254493.36, 0.0000362571, 10.002236, 9.998567 
3.9507702e+2, 1.3388543e+2, -1316752.4, -1580136.3, 73721.22, -0.13832541, 0.010476778, -1297521.9, 330401.63, 0.000013744367, 10.002521, 9.999039 
3.9507e+2, 1.4388487e+2, -1259787.6, -1546854.9, 3606.8242, -0.017363964, 0.07054038, -1259742.4, 270187.3, 0.0000023661473, 10.002436, 9.9986315 
3.9506015e+2, 1.5388288e+2, -1266197.4, -1507757.6, -11566.709, -0.037911523, 0.012050646, -1265644.9, 166305.33, 0.000000028035489, 10.001757, 9.998554 
3.9505056e+2, 1.638814e+2, -1200252.3, -1378910.3, -7134.3223, -0.032961123, -0.0062994557, -1199967.8, 133997.27, 0.0, 10.001337, 9.998968 
3.9504114e+2, 1.7388089e+2, -1096651.6, -1270562.9, -6602.2817, -0.026661856, 0.03655888, -1096401.3, 139568.86, 0.0, 10.001343, 9.999037 
3.9503172e+2, 1.838801e+2, -1038357.94, -1209142.5, -8177.9434, -0.018578025, 0.063851036, -1037967.2, 100011.1, 0.0, 10.001145, 9.998881 
3.9502236e+2, 1.9387895e+2, -1015823.06, -1148210.9, -6874.7217, 0.004567851, 0.05776634, -1015467.0, 24523.979, 0.0, 10.00063, 9.998875 
3.9501283e+2, 2.0387788e+2, -947614.9, -1028714.75, -10833.484, 0.012763355, 0.051114067, -946192.7, -4190.6997, 0.0, 10.000272, 9.999195 
3.9500296e+2, 2.1387705e+2, -862591.8, -931162.1, -13420.993, -0.004885373, 0.03989164, -860058.56, -16049.04, 0.0, 10.000157, 9.999247 
3.9499334e+2, 2.2387633e+2, -779957.2, -811287.94, -6638.313, -0.0028412587, 0.034445725, -778608.7, -32593.486, 0.0, 9.999926, 9.999509 
3.949842e+2, 2.3387587e+2, -738013.94, -735417.1, -1225.3611, 0.030940656, 0.029554978, -734930.2, -86912.49, 0.0, 9.999519, 9.999553 
3.94975e+2, 2.4387516e+2, -705229.3, -698112.0, 293.32565, 0.05852694, 0.019248726, -698099.9, -148076.58, 0.0, 9.999198, 9.99929 
3.9496577e+2, 2.5387427e+2, -635236.75, -615337.25, -5768.4546, 0.07513151, -0.0017171607, -613786.0, -161753.44, 0.0, 9.999014, 9.999274 
3.9495623e+2, 2.6387367e+2, -530852.5, -452487.6, -9772.83, 0.063900135, -0.013272595, -451287.22, -97249.56, 0.0, 9.998792, 9.999826 
3.9494628e+2, 2.7387345e+2, -468085.8, -361954.6, -8613.6045, 0.012707947, -0.025827501, -361260.03, -105223.32, 0.0, 9.998508, 9.999912 
3.9493695e+2, 2.8387302e+2, -409180.9, -265059.22, -12679.924, 0.026043577, -0.0658364, -263952.13, -105913.3, 0.0, 9.998163, 10.000071 
3.949285e+2, 2.9387257e+2, -372690.2, -197694.03, -5044.985, 0.13247533, -0.12563473, -197548.7, -137506.14, 0.0, 9.9977455, 10.000061 
3.9491978e+2, 3.0387378e+2, -343900.9, -169781.7, 41324.902, 0.13145101, -0.0009819148, -160471.6, -160471.6, 0.0, 9.997658, 9.999961 
3.9491025e+2, 3.138732e+2, -231011.17, -30016.566, -15108.43, -0.0026721, -0.056832775, -28887.236, -28887.236, 0.000000001718879, 9.998062, 10.000727 
4.0508872e+2, 1.2389531e+2, -1404153.6, -1728348.9, -58446.332, 0.0019767885, -0.06688137, -1393938.8, 331886.2, 0.000028702449, 10.002841, 9.998535 
4.0507928e+2, 1.3389489e+2, -1359291.4, -1609492.5, 82757.09, -0.15219206, -0.0003881465, -1334395.6, 293434.3, 0.000010028613, 10.002266, 9.998961 
4.050723e+2, 1.4389445e+2, -1333799.9, -1574492.9, 3710.4014, -0.0009986795, 0.07014157, -1333742.6, 196092.4, 0.0000013962007, 10.001892, 9.998704 
4.0506193e+2, 1.5389241e+2, -1256742.1, -1492452.6, -2249.3901, -0.037213378, -0.0018244757, -1256720.6, 175135.0, 0.000000006286357, 10.001776, 9.998651 
4.0505195e+2, 1.6389094e+2, -1173533.5, -1373346.8, 14291.604, -0.040574662, -0.023454173, -1172516.4, 161354.19, 0.0, 10.001553, 9.998902 
4.0504235e+2, 1.7389046e+2, -1126971.0, -1294885.0, 8932.467, -0.032980792, 0.031707186, -1126497.1, 109378.805, 0.0, 10.001177, 9.99895 
4.050327e+2, 1.8388973e+2, -1078538.1, -1223061.9, -2400.2407, -0.018447071, 0.065518446, -1078498.3, 59385.83, 0.0, 10.000847, 9.998929 
4.0502313e+2, 1.9388859e+2, -1017221.2, -1141229.6, -837.9438, 0.019397661, 0.057500016, -1017215.56, 22680.594, 0.0, 10.000588, 9.998942 
4.0501326e+2, 2.0388758e+2, -931278.6, -1020298.44, 6895.661, 0.026931902, 0.052331973, -930747.6, 11158.978, 0.0, 10.000381, 9.9992 
4.0500304e+2, 2.1388681e+2, -849083.25, -924768.2, 9328.189, -0.015875412, 0.047084134, -847950.5, -4036.5598, 0.0, 10.000251, 9.999246 
4.0499318e+2, 2.2388606e+2, -765935.44, -811598.56, 5789.1587, -0.019196052, 0.042160224, -765212.9, -19292.775, 0.0, 10.000052, 9.999445 
4.049839e+2, 2.3388545e+2, -709394.75, -728952.25, -3751.618, 0.04025089, 0.029646417, -708699.75, -60775.68, 0.0, 9.999748, 9.999486 
4.049745e+2, 2.4388477e+2, -673988.94, -677568.8, -1108.4454, 0.07717201, 0.021257376, -673673.56, -123743.98, 0.0, 9.999389, 9.999339 
4.0496475e+2, 2.538841e+2, -640514.0, -610685.1, 11542.3955, 0.07815183, 0.01711898, -606740.44, -154804.11, 0.0, 9.998946, 9.999339 
4.0495488e+2, 2.638834e+2, -555913.44, -472090.3, 21026.305, 0.059968334, 0.00065040146, -467111.75, -113170.13, 0.0, 9.9986515, 9.999761 
4.0494487e+2, 2.7388275e+2, -460905.06, -368215.3, 14651.135, 0.014256248, -0.05058386, -365954.6, -110009.414, 0.0, 9.998599, 9.9998255 
4.0493524e+2, 2.838822e+2, -378485.94, -264326.25, -7146.0557, 0.024089979, -0.09174823, -263880.7, -105931.91, 0.0, 9.998435, 9.999946 
4.0492624e+2, 2.9388216e+2, -334942.88, -194011.64, -15217.735, 0.11665411, -0.09588859, -192387.16, -132437.89, 0.0, 9.998067, 9.999932 
4.049174e+2, 3.0388352e+2, -329703.1, -162906.2, 44956.582, 0.12370239, 0.04647615, -151560.81, -151560.81, 0.0, 9.997755, 9.999961 
4.0490806e+2, 3.1388232e+2, -275084.5, -9848.067, -805.3415, -0.003123379, -0.07508302, -9845.623, -9845.623, 0.00000001196501, 9.9975815, 10.001097 
4.1509116e+2, 1.2390596e+2, -1414199.4, -1747268.5, -80333.76, -0.037948072, 0.00027141077, -1395835.9, 329884.94, 0.000021697306, 10.002833, 9.998408 
4.150817e+2, 1.3390438e+2, -1372756.3, -1638609.1, 62045.953, -0.13734625, -0.031376038, -1358988.6, 268748.22, 0.000006740833, 10.00227, 9.99876 
4.1507483e+2, 1.4390373e+2, -1320416.5, -1546559.5, -1941.5488, 0.06363597, 0.02205083, -1320399.9, 209343.72, 0.0000006540361, 10.001892, 9.998897 
4.1506368e+2, 1.5390247e+2, -1239418.3, -1456284.9, -6450.1553, -0.03622419, 0.0027268166, -1239226.5, 192529.55, 0.0000000002364484, 10.001775, 9.998899 
4.1505325e+2, 1.6390125e+2, -1183072.5, -1392404.8, 797.7573, -0.0651982, -0.00017137837, -1183069.5, 150698.89, 0.0, 10.00155, 9.998774 
4.1504356e+2, 1.7390025e+2, -1139483.6, -1320541.0, -5020.0225, -0.028710963, 0.020272808, -1139344.6, 96434.766, 0.0, 10.001175, 9.998775 
4.1503367e+2, 1.8389925e+2, -1074739.8, -1214765.6, -12481.976, -0.0051245997, 0.03452912, -1073635.8, 64154.387, 0.0, 10.000845, 9.998987 
4.1502365e+2, 1.9389828e+2, -1011395.94, -1128977.9, -10114.023, 0.01314994, 0.032000795, -1010532.3, 29268.105, 0.0, 10.000587, 9.999027 
4.1501355e+2, 2.0389746e+2, -927435.6, -1012206.0, 1476.0677, 0.016264882, 0.04016383, -927409.94, 14398.837, 0.0, 10.000381, 9.999256 
4.1500336e+2, 2.1389697e+2, -845405.75, -916929.4, 4736.758, -0.008588427, 0.058600433, -845093.44, -1279.7567, 0.0, 10.00025, 9.9993 
4.1499338e+2, 2.238962e+2, -781459.6, -843484.3, -5070.628, -0.0039492734, 0.057410315, -781047.8, -35227.098, 0.0, 10.0000515, 9.999228 
4.1498372e+2, 2.3389508e+2, -727188.7, -765571.2, -15054.24, 0.047732912, 0.019507298, -721988.7, -74158.3, 0.0, 9.999747, 9.999235 
4.149738e+2, 2.4389425e+2, -655989.7, -639830.2, -17342.686, 0.06910351, -0.0012706667, -628777.5, -78940.36, 0.0, 9.999388, 9.999599 
4.1496333e+2, 2.5389397e+2, -617753.06, -563905.4, -5173.8335, 0.04379799, 0.0014853927, -563412.75, -111574.3, 0.0, 9.998947, 9.99966 
4.1495338e+2, 2.638935e+2, -565778.94, -492251.22, 17378.37, 0.04347272, -0.0052172407, -488350.72, -134509.53, 0.0, 9.998651, 9.999622 
4.149441e+2, 2.7389282e+2, -475512.94, -396763.47, 13355.348, 0.08102327, -0.041426554, -394560.16, -138713.67, 0.0, 9.998592, 9.999633 
4.149342e+2, 2.838921e+2, -400989.97, -309645.22, -19895.273, 0.074869365, -0.07657416, -305500.06, -147647.19, 0.0, 9.998428, 9.999638 
4.1492316e+2, 2.9389158e+2, -356165.22, -239849.36, -29747.717, 0.002340319, -0.09452461, -232682.94, -172824.63, 0.0, 9.998075, 9.999614 
4.14914e+2, 3.0389264e+2, -322542.47, -148809.23, 37147.28, 0.009026915, 0.034226783, -141199.77, -141199.77, 0.0, 9.99776, 10.000055 
4.1490668e+2, 3.1389177e+2, -240208.06, 66200.195, -7724.7144, 0.10089267, -0.07240968, 66394.82, 66394.82, 0.000000036873733, 9.997566, 10.001626 
4.2509392e+2, 1.2391654e+2, -1445385.6, -1750349.9, -70864.484, -0.028575568, 0.028355667, -1429723.3, 295893.8, 0.000015823704, 10.002572, 9.998512 
4.2508388e+2, 1.339145e+2, -1370048.9, -1633704.8, 85664.91, -0.1481983, -0.05114242, -1344660.1, 282976.5, 0.0000041887733, 10.002275, 9.99879 
4.2507696e+2, 1.439138e+2, -1305100.6, -1547233.5, 31549.898, 0.08024486, -0.0017285908, -1301057.3, 228586.33, 0.00000021832761, 10.002033, 9.998823 
4.2506546e+2, 1.5391265e+2, -1238304.6, -1465122.0, 3419.4487, -0.03798845, -0.00088094966, -1238253.1, 193402.3, 0.0, 10.001823, 9.998815 
4.2505476e+2, 1.6391146e+2, -1179300.9, -1387205.4, -3780.4553, -0.07093089, 0.0022734152, -1179232.3, 154435.39, 0.0, 10.001561, 9.998804 
4.2504483e+2, 1.7391035e+2, -1128953.8, -1310447.0, 4939.0703, -0.019951446, 0.007414593, -1128819.4, 106860.125, 0.0, 10.001227, 9.998818 
4.2503464e+2, 1.8390933e+2, -1051900.0, -1193943.9, 12525.668, 0.0035366148, 0.013247853, -1050803.9, 86886.375, 0.0, 10.00096, 9.999074 
4.250242e+2, 1.9390847e+2, -974433.06, -1100844.9, 15956.047, 0.00026758417, 0.012595676, -972450.2, 67248.76, 0.0, 10.000798, 9.999118 
4.2501384e+2, 2.0390768e+2, -915366.7, -1021300.56, 19380.84, 0.0023471555, 0.02452011, -911932.25, 29774.766, 0.0, 10.000529, 9.999122 
4.250037e+2, 2.1390708e+2, -878702.3, -950707.3, 6105.913, 0.0075362376, 0.04854511, -878188.2, -34474.32, 0.0, 10.000099, 9.999141 
4.249935e+2, 2.2390628e+2, -816851.4, -852326.6, -1068.1722, 0.018207848, 0.04895462, -816819.2, -71097.56, 0.0, 9.999773, 9.9993 
4.2498332e+2, 2.3390523e+2, -740612.44, -760712.25, 15013.897, 0.039570246, 0.008501842, -732595.3, -84865.05, 0.0, 9.999606, 9.999337 
4.2497298e+2, 2.4390441e+2, -646146.44, -637428.56, 17071.063, 0.047476742, -0.014989178, -624168.75, -74432.16, 0.0, 9.999465, 9.999578 
4.249624e+2, 2.5390404e+2, -558865.44, -539510.6, 1915.3918, 0.034891497, -0.017267037, -539322.94, -87584.17, 0.0, 9.99937, 9.999624 
4.2495227e+2, 2.639036e+2, -514172.0, -484943.22, 7290.529, 0.04632172, -0.015778212, -483225.66, -129483.625, 0.0, 9.999081, 9.999465 
4.249428e+2, 2.73903e+2, -502922.66, -428883.72, 4488.3906, 0.09396489, -0.020890076, -428612.63, -172865.56, 0.0, 9.998485, 9.999463 
4.2493257e+2, 2.839023e+2, -431949.75, -323207.8, -7431.1465, 0.08293456, -0.04776539, -322702.34, -164948.61, 0.0, 9.99821, 9.99965 
4.2492124e+2, 2.9390147e+2, -301626.56, -209558.47, 9382.336, -0.015694339, -0.10000465, -208612.06, -148850.98, 0.0, 9.998431, 9.99965 
4.2491183e+2, 3.0390203e+2, -278473.72, -161128.36, 62396.13, -0.0044062203, -0.00736985, -134151.98, -134151.98, 0.0, 9.998206, 9.999756 
4.2490414e+2, 3.1390122e+2, -275628.94, 48169.75, -20631.258, 0.104339994, -0.07700955, 49479.004, 49479.004, 0.00000007454206, 9.997326, 10.001618 
4.3509704e+2, 1.2392706e+2, -1424171.6, -1706189.9, -78747.71, 0.024127124, 0.020059897, -1403672.9, 321840.44, 0.0000113764345, 10.002571, 9.9988165 
4.3508574e+2, 1.3392527e+2, -1352480.3, -1598743.5, 75175.0, -0.18531795, -0.059185956, -1331345.9, 296183.47, 0.0000025044064, 10.00228, 9.999029 
4.3507868e+2, 1.4392464e+2, -1328511.8, -1595284.3, 23469.654, 0.049105477, -0.001839485, -1326462.8, 203072.64, 0.000000047491298, 10.002031, 9.998494 
4.3506724e+2, 1.5392295e+2, -1266931.6, -1523893.3, -3927.849, -0.04335092, -0.014314748, -1266871.5, 164682.11, 0.0, 10.001821, 9.998413 
4.350564e+2, 1.6392156e+2, -1167673.1, -1361757.8, -15464.566, -0.059956733, -0.017335633, -1166448.6, 167119.72, 0.0, 10.001556, 9.9989805 
4.3504617e+2, 1.7392077e+2, -1111592.3, -1274075.4, -7210.4917, -0.007844316, -0.0065019783, -1111273.0, 124303.625, 0.0, 10.001225, 9.999069 
4.3503565e+2, 1.8391995e+2, -1044213.1, -1177429.3, 5537.994, 0.006790731, 0.0020977706, -1043983.3, 93601.16, 0.0, 10.0009575, 9.999188 
4.3502477e+2, 1.9391915e+2, -967937.44, -1086653.4, 10032.902, -0.020097068, -0.00033680923, -967095.5, 72496.234, 0.0, 10.000795, 9.999217 
4.3501422e+2, 2.0391823e+2, -938459.75, -1068584.1, 4249.4336, -0.015709484, 0.0054072756, -938321.1, 3280.4165, 0.0, 10.000526, 9.998798 
4.3500403e+2, 2.1391714e+2, -905220.4, -1005390.5, -9832.297, 0.031477485, 0.016290562, -904264.44, -60649.773, 0.0, 10.000097, 9.998766 
4.3499357e+2, 2.2391628e+2, -791405.25, -799281.2, -8387.108, 0.046397995, 0.01646428, -786077.6, -40454.56, 0.0, 9.999772, 9.999665 
4.3498266e+2, 2.3391588e+2, -708775.3, -694751.75, 8916.694, 0.014449415, -0.00340488, -690420.2, -42796.45, 0.0, 9.999606, 9.99979 
4.3497208e+2, 2.4391526e+2, -667933.25, -682439.94, 13104.443, 0.011245235, -0.019903848, -660208.7, -110580.74, 0.0, 9.999464, 9.9992695 
4.3496194e+2, 2.539143e+2, -587142.94, -597770.8, -1409.3925, 0.05080972, -0.039306544, -586959.25, -135321.86, 0.0, 9.999368, 9.999225 
4.3495157e+2, 2.6391363e+2, -526475.4, -510239.3, -13395.491, 0.06775062, -0.031098008, -502693.97, -149049.69, 0.0, 9.999079, 9.999292 
4.3494081e+2, 2.7391338e+2, -512618.4, -449500.38, -18443.965, 0.050201237, 0.011526572, -444505.97, -188859.05, 0.0, 9.9984865, 9.999321 
4.3493038e+2, 2.8391284e+2, -408664.7, -274113.75, -2329.0044, 0.045611273, -0.0049707266, -274073.44, -116422.14, 0.0, 9.998207, 9.999988 
4.3492046e+2, 2.9391184e+2, -274268.97, -151723.13, 18513.154, 0.0644595, -0.113804586, -148987.39, -89329.77, 0.0, 9.998427, 10.000049 
4.3491092e+2, 3.0391175e+2, -328709.7, -264334.22, 32911.56, 0.08496269, -0.07907922, -250486.95, -250486.95, 0.0, 9.998201, 9.999049 
4.3490043e+2, 3.139106e+2, -314438.84, -32407.984, -51589.223, -0.0006952893, -0.09692441, -23267.498, -23267.498, 0.0000001100893, 9.997326, 10.001065 
4.450997e+2, 1.23937614e+2, -1441793.9, -1725711.1, -53338.31, 0.037752144, -0.02498965, -1432104.1, 293302.94, 0.000008277144, 10.002498, 9.998717 
4.4508788e+2, 1.3393587e+2, -1362706.6, -1627259.6, 63402.39, -0.20225687, -0.07995839, -1348296.6, 279127.13, 0.0000015575915, 10.00231, 9.99882 
4.4508082e+2, 1.4393534e+2, -1323159.3, -1586124.0, 3704.3394, 0.060326822, -0.0037840435, -1323107.0, 206322.27, 0.000000013935479, 10.00204, 9.998553 
4.4506893e+2, 1.539336e+2, -1292795.4, -1526145.5, 9929.251, -0.043495405, -0.03099087, -1292373.6, 139074.28, 0.0, 10.0016, 9.998504 
4.450578e+2, 1.6393217e+2, -1206487.6, -1382964.4, 16380.858, -0.063649826, -0.040638886, -1204980.0, 128482.82, 0.0, 10.001301, 9.998958 
4.4504747e+2, 1.7393138e+2, -1113670.5, -1278833.9, 4857.2217, -0.003752356, -0.024056438, -1113527.8, 121943.17, 0.0, 10.001228, 9.999035 
4.450367e+2, 1.8393062e+2, -1036181.94, -1178924.1, -1500.9275, 0.014938734, -0.0068586357, -1036166.2, 101312.516, 0.0, 10.001038, 9.999139 
4.4502556e+2, 1.9392991e+2, -990871.4, -1103318.8, -8928.032, -0.014354652, 0.003375892, -990166.9, 49318.84, 0.0, 10.000663, 9.9991665 
4.450147e+2, 2.0392898e+2, -954094.44, -1067710.3, -7835.2974, -0.01281073, 0.006805319, -953556.6, -12060.951, 0.0, 10.000383, 9.998873 
4.450042e+2, 2.139277e+2, -876906.8, -981704.3, 12335.465, 0.03177864, -0.0067164865, -875474.44, -31964.89, 0.0, 10.000249, 9.998856 
4.4499344e+2, 2.2392681e+2, -754330.0, -787735.6, 20867.885, 0.043154225, -0.012778542, -744303.56, 1214.5217, 0.0, 10.000054, 9.999608 
4.4498226e+2, 2.3392655e+2, -690498.6, -694260.7, -1285.203, 0.005017138, -0.012220264, -690101.5, -42583.547, 0.0, 9.999768, 9.999715 
4.4497144e+2, 2.4392597e+2, -676312.1, -694539.5, -11523.018, 0.002296084, -0.015458412, -670734.3, -121212.11, 0.0, 9.999441, 9.999198 
4.4496116e+2, 2.53925e+2, -638063.5, -629779.7, -1815.2322, 0.053253625, -0.033005584, -629399.4, -177866.61, 0.0, 9.99905, 9.999157 
4.4495055e+2, 2.6392418e+2, -558052.8, -522513.53, 7002.0938, 0.07097839, -0.033089668, -521183.72, -167642.84, 0.0, 9.998849, 9.999318 
4.4493943e+2, 2.7392378e+2, -443508.16, -412459.9, 15096.594, 0.037015744, -0.0097107, -406329.78, -150785.42, 0.0, 9.998945, 9.999355 
4.4492877e+2, 2.839233e+2, -336377.3, -256218.86, 24380.135, 0.033532675, -0.015671715, -249386.08, -91837.94, 0.0, 9.9987755, 9.999837 
4.4491893e+2, 2.939226e+2, -323419.22, -193630.13, 1599.5659, 0.08428199, -0.07819654, -193610.42, -134057.88, 0.0, 9.998168, 9.9998865 
4.4490924e+2, 3.0392203e+2, -396139.5, -304635.78, 6435.7026, 0.118791476, -0.07666631, -304185.34, -304185.34, 0.00000000000009396187, 9.99777, 9.9989805 
4.4489777e+2, 3.1392083e+2, -241197.0, 15969.982, -18692.922, -0.020549944, -0.09575239, 17321.627, 17321.627, 0.00000013361628, 9.997773, 10.001182 
4.5510194e+2, 1.2394819e+2, -1474617.4, -1794018.8, -52544.797, 0.010103117, -0.1055616, -1466195.3, 259103.03, 0.0000061456926, 10.0025, 9.998247 
4.5509022e+2, 1.3394627e+2, -1406782.4, -1718211.9, 57637.03, -0.1999215, -0.11573262, -1396457.6, 230862.33, 0.0000010596042, 10.002307, 9.9981985 
4.5508337e+2, 1.4394587e+2, -1294727.9, -1525593.0, -10559.086, 0.11080838, -0.009730552, -1294245.9, 235079.56, 0.000000007555667, 10.002033, 9.998972 
4.5507056e+2, 1.5394455e+2, -1253842.1, -1445867.4, -6345.4253, -0.041072097, -0.04933516, -1253632.8, 177705.53, 0.0, 10.001602, 9.999054 
4.550589e+2, 1.6394328e+2, -1220745.8, -1413176.3, 11771.048, -0.08318339, -0.06563538, -1220028.4, 113322.64, 0.0, 10.001304, 9.998749 
4.5504865e+2, 1.7394224e+2, -1135448.1, -1323247.5, 2693.4204, -0.00758647, -0.04543912, -1135409.5, 99953.4, 0.0, 10.001225, 9.998732 
4.5503786e+2, 1.8394135e+2, -1052127.8, -1210513.5, -14067.562, 0.026913458, -0.014838996, -1050888.0, 86485.13, 0.0, 10.001031, 9.998925 
4.550265e+2, 1.939407e+2, -1005339.06, -1132845.6, -22672.135, 0.015629156, 0.022886511, -1001427.7, 37953.406, 0.0, 10.000661, 9.998964 
4.550153e+2, 2.0393988e+2, -921239.8, -999275.2, -13878.737, 0.009501689, 0.028427914, -918844.94, 22544.652, 0.0, 10.000382, 9.999343 
4.5500422e+2, 2.1393882e+2, -838211.9, -901348.5, 7522.449, 0.00762019, -0.019935297, -837328.0, 6070.637, 0.0, 10.000249, 9.999407 
4.5499313e+2, 2.239379e+2, -788454.1, -858522.94, 10549.621, 0.007873142, -0.03855867, -786900.25, -41493.445, 0.0, 10.000054, 9.999123 
4.5498207e+2, 2.3393722e+2, -733284.2, -782973.6, -12149.343, 0.011166989, -0.018032687, -730472.7, -83059.5, 0.0, 9.999767, 9.999106 
4.5497108e+2, 2.439366e+2, -664694.06, -670035.7, -26109.875, 0.020284113, -0.001262414, -641118.75, -91699.3, 0.0, 9.999439, 9.999367 
4.5496008e+2, 2.5393605e+2, -619580.56, -590807.5, -16697.893, 0.040292565, 0.0015320238, -583153.3, -131728.22, 0.0, 9.999047, 9.999426 
4.5494923e+2, 2.639353e+2, -542752.7, -490248.4, 8690.918, 0.054521322, -0.022094157, -488847.22, -135415.33, 0.0, 9.998847, 9.999541 
4.5493853e+2, 2.7393425e+2, -428274.25, -381420.78, 19571.518, 0.054523446, -0.08685592, -374321.2, -118881.664, 0.0, 9.998947, 9.999568 
4.5492765e+2, 2.8393367e+2, -382632.0, -351855.75, 4189.6997, 0.046139736, -0.081278846, -351295.6, -193851.17, 0.0, 9.998775, 9.999181 
4.5491666e+2, 2.9393375e+2, -375990.88, -301947.72, -22514.521, 0.039493155, 0.008697807, -295639.16, -236193.17, 0.0, 9.998164, 9.999144 
4.5490676e+2, 3.0393296e+2, -356184.44, -219732.16, 3141.1804, 0.09341732, 0.0027877965, -219659.88, -219659.88, 0.00000000000087855477, 9.997763, 9.999567 
4.548962e+2, 3.139318e+2, -184236.97, 134242.48, -14340.449, 0.046537187, -0.0847805, 134886.89, 134886.89, 0.00000014519496, 9.997773, 10.001994 
4.6510455e+2, 1.239592e+2, -1425141.4, -1754327.9, -82445.94, 0.012124272, -0.11163557, -1405647.0, 319542.2, 0.000004581255, 10.002773, 9.998387 
4.6509212e+2, 1.3395704e+2, -1453994.5, -1739247.9, 61745.344, -0.22068049, -0.14947386, -1441202.9, 186009.81, 0.0000007444035, 10.001975, 9.998214 
4.6508533e+2, 1.4395663e+2, -1362067.8, -1561465.4, 18442.53, 0.12722348, -0.04329139, -1360376.4, 168841.89, 0.0000000034677494, 10.001586, 9.998941 
4.6507242e+2, 1.5395556e+2, -1228753.9, -1437054.9, -18067.129, -0.02401322, -0.053888313, -1227198.4, 204030.77, 0.0, 10.00179, 9.999023 
4.6506047e+2, 1.639544e+2, -1167329.0, -1385147.4, -23785.51, -0.072382875, -0.05888512, -1164762.0, 168479.39, 0.0, 10.001661, 9.998769 
4.6504968e+2, 1.7395325e+2, -1161348.6, -1333050.3, -10535.759, -0.014745932, -0.052971657, -1160704.6, 74549.516, 0.0, 10.001036, 9.998755 
4.650386e+2, 1.8395229e+2, -1102211.1, -1233920.6, 534.1329, 0.017842067, -0.030696554, -1102209.0, 35056.05, 0.0, 10.000683, 9.998933 
4.6502733e+2, 1.9395165e+2, -992157.2, -1125660.5, 8867.059, 0.029386776, 0.0073726545, -991570.8, 47702.15, 0.0, 10.000748, 9.998972 
4.6501595e+2, 2.0395087e+2, -884962.9, -984108.6, 6702.6733, 0.02547388, 0.018460983, -884511.75, 56769.33, 0.0, 10.000642, 9.999323 
4.650043e+2, 2.1394992e+2, -836685.1, -903385.7, -15610.54, -0.007228357, -0.016786877, -833212.44, 10076.724, 0.0, 10.000271, 9.999382 
4.6499288e+2, 2.2394899e+2, -803116.9, -864363.94, -20038.879, -0.014038148, -0.03463955, -797143.2, -51845.83, 0.0, 9.9999485, 9.999133 
4.649819e+2, 2.3394817e+2, -741810.9, -785279.7, 3556.7712, 0.018693937, -0.030962365, -741521.75, -94216.71, 0.0, 9.9997015, 9.999122 
4.6497065e+2, 2.439475e+2, -667002.8, -681562.56, 5668.9316, 0.03370228, -0.014616984, -665055.94, -115743.99, 0.0, 9.999469, 9.999273 
4.6495906e+2, 2.5394708e+2, -596753.25, -592070.4, -13346.462, 0.024333801, 0.01101338, -580861.56, -129544.26, 0.0, 9.999257, 9.999317 
4.6494797e+2, 2.6394632e+2, -509981.72, -467341.9, -902.79614, 0.03390791, -0.009616031, -467322.78, -113998.57, 0.0, 9.999041, 9.999606 
4.649375e+2, 2.739451e+2, -441645.6, -378062.75, 295.2963, 0.065800644, -0.09785991, -378061.4, -122728.9, 0.0, 9.998814, 9.999655 
4.649265e+2, 2.8394452e+2, -407224.53, -371175.47, -9803.201, 0.061337408, -0.09405601, -368682.03, -211344.98, 0.0, 9.998637, 9.999114 
4.649148e+2, 2.9394478e+2, -329318.25, -287673.16, 12211.748, 0.01871383, 0.019050414, -284356.4, -225018.77, 0.0, 9.998521, 9.999071 
4.649046e+2, 3.0394363e+2, -292911.75, -196755.6, 48022.81, 0.07931345, -0.015360451, -176880.06, -176880.06, 0.00000000000042122027, 9.998228, 9.999501 
4.648942e+2, 3.1394306e+2, -201750.55, 110801.234, -26610.535, 0.07069489, -0.035334613, 113050.66, 113050.66, 0.00000014428599, 9.997716, 10.001862 
4.7510758e+2, 1.23970635e+2, -1378200.8, -1653074.9, -98143.97, 0.036718223, -0.04572396, -1346755.6, 378323.97, 0.0000033199578, 10.002756, 9.99909 
4.7509366e+2, 1.3396816e+2, -1410645.3, -1650654.1, 31752.3, -0.26601154, -0.17847405, -1406515.6, 220586.33, 0.00000048107097, 10.001979, 9.99882 
4.7508672e+2, 1.439676e+2, -1392163.6, -1626198.5, 22374.967, 0.10863879, -0.09976166, -1390043.6, 139063.95, 0.000000000765976, 10.0015955, 9.998493 
4.7507453e+2, 1.539666e+2, -1270051.3, -1521465.5, -9378.145, 0.006966673, -0.04642963, -1269702.0, 161419.05, 0.0, 10.001784, 9.998447 
4.7506252e+2, 1.6396551e+2, -1151926.8, -1351147.9, -43621.086, -0.03334143, -0.023330893, -1142794.1, 190339.69, 0.0, 10.001653, 9.999006 
4.7505057e+2, 1.7396438e+2, -1137824.4, -1284294.8, -33692.117, -0.028034037, -0.046730757, -1130446.0, 104698.95, 0.0, 10.001036, 9.999089 
4.7503898e+2, 1.8396342e+2, -1085278.4, -1199485.9, 300.29065, -0.014479875, -0.0530196, -1085277.6, 51876.836, 0.0, 10.000686, 9.999167 
4.7502807e+2, 1.9396275e+2, -976585.44, -1093573.5, 11697.733, 0.027145764, -0.042147987, -975427.25, 63734.188, 0.0, 10.000748, 9.999192 
4.7501668e+2, 2.0396194e+2, -921519.3, -1059242.4, -5659.5938, 0.034601737, -0.022903865, -921287.1, 19883.15, 0.0, 10.000638, 9.998808 
4.750045e+2, 2.13961e+2, -878832.56, -990718.8, -29545.094, -0.013906276, 0.0024066956, -871510.0, -28328.627, 0.0, 10.00027, 9.998783 
4.7499272e+2, 2.2396012e+2, -767642.56, -790484.4, -30051.25, -0.023724295, -0.001157832, -746915.1, -1725.3214, 0.0, 9.999947, 9.999641 
4.7498167e+2, 2.3395938e+2, -696794.75, -691539.06, -5536.001, 0.026319604, -0.05179729, -688038.8, -40845.17, 0.0, 9.9997, 9.999766 
4.749702e+2, 2.439587e+2, -693278.6, -735972.5, -2614.6184, 0.041371997, -0.05647527, -693119.1, -143919.34, 0.0, 9.999468, 9.9989 
4.7495812e+2, 2.5395805e+2, -631336.6, -664333.75, -21345.133, 0.004875119, -0.004630315, -620857.06, -169647.7, 0.0, 9.999258, 9.99882 
4.7494674e+2, 2.6395726e+2, -517161.16, -482047.2, -9742.23, 0.008739331, 0.0055448017, -479525.34, -126307.38, 0.0, 9.999041, 9.999505 
4.7493634e+2, 2.7395642e+2, -445503.38, -385027.22, -8484.64, 0.06909213, -0.040886562, -383859.4, -128636.06, 0.0, 9.998809, 9.999609 
4.7492528e+2, 2.839559e+2, -369655.0, -292124.8, -14775.677, 0.07777587, -0.05329659, -289404.3, -132178.19, 0.0, 9.998632, 9.99966 
4.7491333e+2, 2.9395562e+2, -285124.25, -196736.89, 8357.049, 0.021377997, -0.052080244, -195953.67, -136725.8, 0.0, 9.998524, 9.999694 
4.749028e+2, 3.03954e+2, -346001.8, -306321.7, 29536.102, 0.07574846, -0.13625623, -290580.72, -290580.72, 0.0, 9.998226, 9.99875 
4.7489166e+2, 3.1395453e+2, -279504.03, -49085.695, -40309.71, 0.04662295, 0.045395162, -42237.4, -42237.4, 0.00000012581201, 9.99771, 10.000766 
4.8510987e+2, 1.2398192e+2, -1486010.4, -1685452.5, -59852.5, 0.03336792, -0.035962224, -1469427.5, 255542.2, 0.0000022837717, 10.001934, 9.999263 
4.8509574e+2, 1.3397954e+2, -1357825.6, -1618644.3, 13407.628, -0.2719502, -0.16467623, -1357138.3, 269851.97, 0.0000002759338, 10.002314, 9.998879 
4.8508883e+2, 1.4397892e+2, -1305741.0, -1576663.5, -7294.7344, 0.13468881, -0.099353604, -1305544.8, 223451.23, 0.000000000009128432, 10.002154, 9.998564 
4.8507592e+2, 1.5397777e+2, -1356703.0, -1555475.9, 5764.31, 0.0019816153, -0.06863322, -1356536.0, 74474.51, 0.0, 10.001155, 9.998518 
4.850636e+2, 1.639767e+2, -1278890.1, -1405141.8, 4542.1353, -0.04562637, -0.050921775, -1278726.9, 54296.184, 0.0, 10.000749, 9.999072 
4.8505187e+2, 1.7397583e+2, -1102286.3, -1259259.1, -3406.0354, -0.01258059, -0.053969476, -1102212.4, 132819.23, 0.0, 10.0012455, 9.999161 
4.8504013e+2, 1.8397498e+2, -1000900.2, -1160652.6, 3143.4487, 0.0039128563, -0.05393327, -1000838.3, 136201.86, 0.0, 10.001272, 9.999152 
4.8502856e+2, 1.9397414e+2, -1001783.56, -1108502.8, -5121.3745, 0.010676715, -0.056672208, -1001538.4, 37510.273, 0.0, 10.0005865, 9.999167 
4.8501685e+2, 2.0397325e+2, -979537.9, -1085728.3, -7623.644, 0.009837883, -0.04465649, -978993.3, -37935.16, 0.0, 10.000233, 9.998822 
4.8500487e+2, 2.1397234e+2, -862320.1, -980632.56, 15429.371, -0.006956983, -0.016377361, -860341.0, -17272.281, 0.0, 10.000374, 9.998803 
4.84993e+2, 2.239715e+2, -728417.1, -782721.5, 11369.804, -0.0074350974, -0.013301839, -726132.75, 18944.47, 0.0, 10.000264, 9.999541 
4.849813e+2, 2.3397076e+2, -693961.4, -702936.75, -22165.912, 0.01746998, -0.05241561, -675833.44, -28751.56, 0.0, 9.999774, 9.999652 
4.849695e+2, 2.4397004e+2, -691723.94, -732152.8, -28573.637, 0.026833251, -0.05594359, -676937.3, -127848.78, 0.0, 9.999465, 9.998928 
4.8495755e+2, 2.539693e+2, -603147.94, -645774.75, -6707.912, 0.013296093, -0.018732412, -602117.25, -151018.88, 0.0, 9.999432, 9.998864 
4.84946e+2, 2.6396847e+2, -492333.72, -478234.7, 21579.076, 0.02227901, -0.011846142, -462582.84, -109475.61, 0.0, 9.999247, 9.999432 
4.8493508e+2, 2.7396768e+2, -450841.34, -397786.84, 19481.998, 0.061606262, -0.042663675, -391401.44, -136288.63, 0.0, 9.9988165, 9.999518 
4.8492372e+2, 2.8396726e+2, -382872.25, -292440.47, 2278.081, 0.062487666, -0.04463827, -292383.13, -135268.14, 0.0, 9.998516, 9.999714 
4.8491177e+2, 2.93967e+2, -295593.3, -192159.75, -15822.458, 0.018749222, -0.045341723, -189793.48, -130678.266, 0.0, 9.99841, 9.999781 
4.8490107e+2, 3.0396506e+2, -345677.5, -296882.5, -169.11266, 0.08398213, -0.17445892, -296881.9, -296881.9, 0.0, 9.998187, 9.998835 
4.848893e+2, 3.1396577e+2, -281840.25, -73096.97, 9392.308, 0.038453475, 0.020645404, -72675.22, -72675.22, 0.00000009052117, 9.997793, 10.000561 
4.9511144e+2, 1.2399311e+2, -1507733.6, -1732799.6, -28350.713, -0.0020774326, -0.07473668, -1504217.4, 220641.8, 0.0000015131136, 10.001944, 9.998933 
4.9509835e+2, 1.3399118e+2, -1391660.4, -1686972.4, 28477.816, -0.24182285, -0.11177874, -1388939.3, 237938.61, 0.00000014199817, 10.002304, 9.998416 
4.9509168e+2, 1.4399058e+2, -1268146.8, -1495269.1, -39191.426, 0.20090021, -0.04582555, -1261574.1, 267309.44, 0.0, 10.002139, 9.999129 
4.9507663e+2, 1.5398908e+2, -1308128.1, -1455591.5, -32264.666, -0.04052078, -0.11760905, -1301377.8, 129520.01, 0.0, 10.001159, 9.999202 
4.950637e+2, 1.6398796e+2, -1283575.5, -1417536.9, 17237.47, -0.10990568, -0.13639815, -1281393.0, 51516.016, 0.0, 10.00076, 9.998982 
4.9505353e+2, 1.7398758e+2, -1114996.4, -1285767.4, 15970.89, 0.030614974, -0.07429626, -1113515.6, 121398.836, 0.0, 10.0012455, 9.99898 
4.950421e+2, 1.839869e+2, -1020056.0, -1198926.4, -18273.092, 0.07095953, -0.03438191, -1018208.4, 118714.27, 0.0, 10.0012665, 9.998893 
4.9502885e+2, 1.9398579e+2, -1020464.8, -1147333.8, -30860.268, -0.021553578, -0.037171446, -1013356.44, 25578.252, 0.0, 10.0005865, 9.998901 
4.950165e+2, 2.0398478e+2, -941343.44, -1006598.7, -5466.7197, -0.049879886, -0.04722896, -940888.7, 56.119606, 0.0, 10.000233, 9.999366 
4.9500546e+2, 2.1398398e+2, -817610.8, -887872.06, 21161.096, 0.013011135, -0.07354719, -811729.8, 31221.496, 0.0, 10.000374, 9.99944 
4.949937e+2, 2.2398314e+2, -779305.06, -888030.44, -4891.352, 0.03343259, -0.07159637, -779085.44, -34125.902, 0.0, 10.000262, 9.99882 
4.949808e+2, 2.3398232e+2, -755508.4, -830976.2, -40830.164, -0.008453078, -0.03175115, -737646.0, -90676.38, 0.0, 9.999775, 9.998774 
4.949686e+2, 2.4398156e+2, -661492.2, -669329.25, -31890.941, -0.010352305, -0.011476768, -633279.94, -84301.87, 0.0, 9.999465, 9.99936 
4.949573e+2, 2.5398082e+2, -561978.9, -560087.94, -7569.615, 0.048617825, -0.031957176, -553404.94, -102420.65, 0.0, 9.99943, 9.999454 
4.9494576e+2, 2.6397988e+2, -495909.06, -485405.78, 6831.0835, 0.07347357, -0.063813835, -482040.97, -129048.74, 0.0, 9.999245, 9.999383 
4.949337e+2, 2.739789e+2, -459888.9, -416533.4, 3376.8813, 0.041615345, -0.105762005, -416271.97, -161270.88, 0.0, 9.9988165, 9.99939 
4.9492174e+2, 2.8397855e+2, -415851.47, -360130.7, -2966.9695, 0.014136588, -0.0686884, -359973.16, -202969.52, 0.0, 9.998512, 9.999251 
4.949101e+2, 2.9397893e+2, -329340.0, -261378.16, -19659.768, 0.010395014, 0.04385104, -256100.84, -197101.19, 0.0, 9.998406, 9.999308 
4.9489945e+2, 3.0397677e+2, -279447.2, -157476.95, -14849.593, 0.103982426, -0.12703799, -155695.08, -155695.08, 0.0, 9.998179, 9.999795 
4.9488714e+2, 3.1397665e+2, -230277.33, 35751.293, 1593.836, 0.041643135, -0.12323925, 35760.844, 35760.844, 0.000000050936965, 9.9977865, 10.001311 
5.0511396e+2, 1.24004774e+2, -1377189.5, -1665566.3, -8863.449, 0.013097087, -0.08819101, -1376917.3, 347826.84, 0.0000009949754, 10.002824, 9.99897 
5.0510013e+2, 1.3400288e+2, -1525417.6, -1760408.4, 52838.42, -0.2442759, -0.11382333, -1514083.4, 112679.49, 0.000000065122016, 10.001423, 9.998337 
5.050934e+2, 1.4400221e+2, -1440774.0, -1565748.8, 1129.6459, 0.22135341, -0.054628283, -1440763.8, 88005.59, 0.0, 10.000899, 9.999244 
5.0507814e+2, 1.540009e+2, -1227398.1, -1400902.3, -31552.639, -0.029875154, -0.12188311, -1221838.4, 208942.92, 0.0, 10.001644, 9.999343 
5.0506496e+2, 1.6399984e+2, -1143406.4, -1350813.3, -4202.6387, -0.10728608, -0.14166613, -1143321.3, 189470.22, 0.0, 10.001724, 9.998976 
5.0505453e+2, 1.7399937e+2, -1179790.8, -1319642.3, 5324.086, 0.029400911, -0.08650536, -1179588.4, 55209.445, 0.0, 10.000811, 9.998957 
5.0504285e+2, 1.8399869e+2, -1138476.6, -1250473.8, -9022.078, 0.06796902, -0.048751302, -1137754.5, -948.42163, 0.0, 10.000428, 9.998943 
5.050295e+2, 1.939977e+2, -980518.7, -1121462.6, 2733.4302, -0.024870856, -0.04593372, -980465.7, 58351.496, 0.0, 10.000832, 9.998961 
5.05017e+2, 2.0399673e+2, -859364.44, -966311.0, 18944.35, -0.052687295, -0.054389637, -856107.9, 84718.83, 0.0, 10.000792, 9.999373 
5.0500566e+2, 2.1399587e+2, -858035.6, -906965.44, -2582.5017, 0.011835928, -0.08619944, -857899.7, -15066.268, 0.0, 10.000094, 9.999444 
5.049937e+2, 2.2399502e+2, -854430.0, -931371.25, -26827.068, 0.03197602, -0.08481546, -845999.9, -101157.81, 0.0, 9.999778, 9.998756 
5.049806e+2, 2.3399419e+2, -725273.8, -824890.75, -2253.8406, -0.013759578, -0.037858125, -725222.9, -78369.99, 0.0, 10.00002, 9.998697 
5.049682e+2, 2.4399339e+2, -587700.06, -630810.56, 21181.639, -0.017000219, -0.015996357, -579034.6, -30172.984, 0.0, 9.999959, 9.999386 
5.049567e+2, 2.5399262e+2, -557210.25, -553756.9, 3902.6624, 0.04489338, -0.04287681, -551216.0, -100348.44, 0.0, 9.999445, 9.99949 
5.049449e+2, 2.639917e+2, -513655.84, -497879.34, -1901.5107, 0.071504414, -0.076559715, -497653.4, -144778.08, 0.0, 9.999141, 9.999347 
5.0493264e+2, 2.7399066e+2, -413616.97, -399652.47, -517.6619, 0.038128775, -0.115669, -399633.3, -144748.56, 0.0, 9.999158, 9.999341 
5.049204e+2, 2.839903e+2, -351483.44, -341966.75, 6980.4966, 0.008476773, -0.07491867, -338277.06, -181389.13, 0.0, 9.99901, 9.999136 
5.049085e+2, 2.9399067e+2, -311103.4, -265243.63, 18323.896, 0.0047433283, 0.047082536, -258821.44, -199937.19, 0.0, 9.998587, 9.999193 
5.0489765e+2, 3.0398843e+2, -261145.2, -116174.98, 10195.861, 0.10833763, -0.13837178, -115461.41, -115461.41, 0.0, 9.998166, 10.000085 
5.04885e+2, 3.1398833e+2, -236780.75, 25489.176, -28275.055, 0.05568228, -0.16071671, 28502.852, 28502.852, 0.000000020855737, 9.997773, 10.001247 
5.1511735e+2, 1.2401689e+2, -1353070.0, -1611128.5, -36444.402, 0.06860562, -0.076432444, -1348021.9, 376603.1, 0.00000067894854, 10.002804, 9.999353 
5.1510125e+2, 1.3401467e+2, -1504337.4, -1718774.5, -1236.773, -0.27946898, -0.16560555, -1504330.3, 122315.2, 0.000000029496794, 10.001431, 9.99862 
5.15094e+2, 1.4401388e+2, -1461081.9, -1611503.5, 21157.078, 0.19547388, -0.118804716, -1458162.8, 70490.44, 0.0, 10.000915, 9.998923 
5.150804e+2, 1.5401322e+2, -1254788.1, -1457093.1, -2963.3958, 0.02989258, -0.08295435, -1254744.8, 175916.61, 0.0, 10.001641, 9.998959 
5.1506734e+2, 1.6401233e+2, -1138804.6, -1339161.0, -33128.61, -0.04185439, -0.06955365, -1133468.9, 199201.97, 0.0, 10.001715, 9.999061 
5.150549e+2, 1.7401123e+2, -1170147.4, -1299910.3, -29280.475, -0.016680356, -0.09096633, -1163846.3, 70835.48, 0.0, 10.000812, 9.999092 
5.1504254e+2, 1.8401034e+2, -1112895.0, -1198314.1, 1362.1816, -0.005085031, -0.09561444, -1112873.4, 23817.262, 0.0, 10.000432, 9.9993 
5.1503056e+2, 1.9400983e+2, -953889.44, -1066200.6, 18251.479, -0.00009440878, -0.08253039, -950997.9, 87698.19, 0.0, 10.000831, 9.999341 
5.150182e+2, 2.040091e+2, -896858.06, -1043225.5, -3654.7034, -0.000366709, -0.06634604, -896766.9, 43937.086, 0.0, 10.000788, 9.998848 
5.1500547e+2, 2.1400806e+2, -901978.44, -998188.5, -28997.316, -0.011503302, -0.05378925, -893914.6, -51199.563, 0.0, 10.000094, 9.998817 
5.1499295e+2, 2.2400711e+2, -812757.2, -844821.5, -21251.27, -0.012734048, -0.05253627, -802168.94, -57444.188, 0.0, 9.999777, 9.999351 
5.1498085e+2, 2.3400635e+2, -673777.56, -718210.1, 7424.503, 0.0008890106, -0.07217871, -672569.8, -25838.035, 0.0, 10.00002, 9.99943 
5.149684e+2, 2.4400558e+2, -615330.56, -688163.06, 4420.068, 0.005646006, -0.071679555, -615063.3, -66323.83, 0.0, 9.999959, 9.998993 
5.149557e+2, 2.5400475e+2, -593774.7, -629542.5, -15674.416, 0.00042807282, -0.05100868, -587877.94, -137129.89, 0.0, 9.999445, 9.99897 
5.149435e+2, 2.640039e+2, -515953.63, -502819.44, -3246.6895, 0.015224728, -0.04823208, -502060.72, -149304.25, 0.0, 9.999141, 9.999314 
5.149319e+2, 2.7400306e+2, -411178.22, -395411.94, 728.42267, 0.051155686, -0.07033761, -395378.34, -140614.64, 0.0, 9.99916, 9.99937 
5.149198e+2, 2.8400248e+2, -334536.22, -306337.8, -7483.662, 0.04540738, -0.063009076, -304474.78, -147706.89, 0.0, 9.999009, 9.999381 
5.1490706e+2, 2.9400215e+2, -293235.34, -226472.23, 2639.6975, -0.0016415042, -0.040441915, -226368.03, -167598.67, 0.0, 9.998581, 9.999462 
5.148957e+2, 3.0399996e+2, -291418.7, -178077.69, -5009.9116, 0.09417055, -0.21259692, -177856.67, -177856.67, 0.0, 9.998161, 9.999663 
5.1488304e+2, 3.1400084e+2, -300374.25, -106473.13, -36725.93, 0.081000835, -0.0862633, -99750.14, -99750.14, 0.0000000053166334, 9.997772, 10.000341 
5.2512014e+2, 1.2402902e+2, -1472649.8, -1657991.0, -21277.53, 0.10928937, -0.07682414, -1470238.4, 254268.38, 0.0000005002885, 10.001941, 9.999446 
5.2510285e+2, 1.3402697e+2, -1399052.8, -1665604.6, -34319.633, -0.29388162, -0.15045366, -1394704.9, 231820.31, 0.000000016983103, 10.002143, 9.998642 
5.2509534e+2, 1.4402606e+2, -1318599.1, -1551549.5, 4804.167, 0.18497172, -0.11390991, -1318500.0, 210034.2, 0.0, 10.00193, 9.998845 
5.25082e+2, 1.5402539e+2, -1342891.0, -1509313.6, 3548.7603, 0.055886343, -0.06981864, -1342815.4, 87727.45, 0.0, 10.001079, 9.998872 
5.2506876e+2, 1.6402449e+2, -1274100.0, -1387251.3, -19273.545, -0.013813806, -0.05940762, -1270907.1, 61645.133, 0.0, 10.000712, 9.999214 
5.250556e+2, 1.7402337e+2, -1121462.5, -1256417.6, -13921.262, -0.036975786, -0.10059024, -1120041.5, 114521.06, 0.0, 10.00106, 9.999271 
5.2504295e+2, 1.8402255e+2, -1031876.2, -1160008.5, 11196.936, -0.036772415, -0.10863874, -1030905.06, 105665.42, 0.0, 10.000991, 9.999293 
5.2503127e+2, 1.9402222e+2, -1031866.06, -1106475.1, -1818.74, 0.0105878515, -0.074661784, -1031821.75, 6752.841, 0.0, 10.000307, 9.999317 
5.250189e+2, 2.0402151e+2, -1008108.06, -1093911.9, -23667.463, 0.022625297, -0.0550383, -1002012.8, -61430.51, 0.0, 10.0000105, 9.998874 
5.2500564e+2, 2.1402031e+2, -873355.4, -981049.1, -825.705, -0.02123065, -0.062356595, -873349.06, -30754.297, 0.0, 10.000277, 9.998848 
5.249928e+2, 2.2401933e+2, -742870.0, -803351.9, 19051.895, -0.030843645, -0.06735841, -737368.94, 7235.4043, 0.0, 10.000223, 9.999421 
5.249808e+2, 2.3401877e+2, -713420.06, -728725.06, -1347.479, 0.010402459, -0.075605676, -713302.3, -66692.805, 0.0, 9.999711, 9.999507 
5.2496827e+2, 2.4401806e+2, -683974.0, -724572.1, -18998.395, 0.018536597, -0.07026959, -676470.4, -127853.96, 0.0, 9.999503, 9.998962 
5.249551e+2, 2.5401717e+2, -554654.06, -615745.8, -4373.356, -0.019827427, -0.052565437, -554342.56, -103716.89, 0.0, 9.999736, 9.998924 
5.249426e+2, 2.6401627e+2, -448117.38, -477733.13, 21997.781, -0.0136456685, -0.050327253, -436407.8, -83773.07, 0.0, 9.99964, 9.999246 
5.24931e+2, 2.7401534e+2, -432634.66, -413375.0, 18609.205, 0.050382357, -0.07264582, -402051.66, -147408.95, 0.0, 9.999047, 9.9993 
5.249187e+2, 2.8401467e+2, -383005.4, -322258.56, 643.3104, 0.05320056, -0.074322075, -322251.75, -165604.03, 0.0, 9.998645, 9.999446 
5.2490544e+2, 2.9401425e+2, -294481.3, -218422.67, -4130.731, -0.014760985, -0.06505337, -218198.98, -159549.58, 0.0, 9.998534, 9.999539 
5.248938e+2, 3.0401242e+2, -255993.95, -155973.05, -5218.054, 0.08070271, -0.21220464, -155701.55, -155701.55, 0.0, 9.998382, 9.999709 
5.248812e+2, 3.1401333e+2, -268145.75, -124442.875, 10883.925, 0.09504751, -0.086182386, -123623.21, -123623.21, 0.00000000056215, 9.998138, 10.000042 
5.351223e+2, 1.2404121e+2, -1484980.8, -1686722.0, 11121.389, 0.12882245, -0.08365959, -1484369.5, 240019.31, 0.00000041209, 10.001954, 9.999242 
5.3510505e+2, 1.3403977e+2, -1416587.0, -1701421.6, -27254.322, -0.2914859, -0.07096209, -1414002.6, 212399.72, 0.000000018082496, 10.002138, 9.998399 
5.350973e+2, 1.4403872e+2, -1309140.3, -1528987.1, -23774.092, 0.18636435, -0.04291176, -1306598.8, 221813.97, 0.0, 10.001917, 9.999006 
5.35083e+2, 1.5403743e+2, -1328792.1, -1480029.4, -28861.232, 0.048479635, -0.08134081, -1323471.5, 106953.984, 0.0, 10.001079, 9.999072 
5.350694e+2, 1.6403638e+2, -1258238.4, -1355549.8, -10628.561, -0.023393894, -0.10784423, -1257091.0, 75344.586, 0.0, 10.000717, 9.99943 
5.350567e+2, 1.7403582e+2, -1106145.3, -1224646.4, -438.95825, -0.033628374, -0.11478711, -1106143.6, 128296.586, 0.0, 10.00106, 9.999491 
5.35044e+2, 1.8403529e+2, -1057974.3, -1213066.3, -11347.401, -0.02979857, -0.08823406, -1057148.4, 79297.484, 0.0, 10.000986, 9.998932 
5.350315e+2, 1.9403484e+2, -1061650.0, -1168374.4, -27689.545, 0.006414616, -0.023053758, -1054893.8, -16440.887, 0.0, 10.000307, 9.998893 
5.350188e+2, 2.04034e+2, -967861.94, -1010222.2, -17057.6, 0.01573882, -0.020593401, -961847.25, -21385.57, 0.0, 10.0000105, 9.999449 
5.350059e+2, 2.1403262e+2, -825756.9, -881980.44, 9407.281, -0.017944995, -0.113032706, -824224.56, 18247.941, 0.0, 10.000275, 9.999529 
5.349931e+2, 2.2403169e+2, -775399.8, -870616.8, 2202.6091, -0.023360943, -0.13073474, -775348.9, -30867.783, 0.0, 10.000222, 9.99896 
5.349805e+2, 2.3403147e+2, -754403.75, -813850.5, -20738.436, 0.01382378, -0.04714543, -747884.06, -101398.05, 0.0, 9.999711, 9.998922 
5.349678e+2, 2.440309e+2, -660616.1, -675998.0, -12834.83, 0.020340608, -0.0103121465, -653344.4, -104852.0, 0.0, 9.999502, 9.999296 
5.3495485e+2, 2.540299e+2, -523925.4, -552776.75, 5034.6753, -0.016253145, -0.04766251, -523072.06, -72571.54, 0.0, 9.999739, 9.999355 
5.349422e+2, 2.640288e+2, -455661.34, -493364.3, 2390.3196, -0.015439391, -0.084460795, -455510.4, -103000.09, 0.0, 9.99964, 9.999138 
5.349299e+2, 2.740275e+2, -445253.72, -437992.03, -4038.269, 0.033412933, -0.12494358, -436192.34, -181670.44, 0.0, 9.999041, 9.999134 
5.349171e+2, 2.8402686e+2, -392544.13, -341008.56, -5101.4185, 0.029133389, -0.10966095, -340508.4, -183980.89, 0.0, 9.998639, 9.999321 
5.3490376e+2, 2.940271e+2, -302523.25, -235695.48, -7276.989, -0.034668475, -0.02230316, -234912.25, -176388.08, 0.0, 9.998535, 9.999421 
5.34892e+2, 3.0402583e+2, -218790.77, -78088.22, -14305.306, 0.067655034, -0.13373615, -76648.52, -76648.52, 0.0, 9.99838, 10.000244 
5.3487927e+2, 3.1402576e+2, -246114.83, -75688.86, 9215.109, 0.09170466, -0.16297095, -75192.04, -75192.04, 0.0000000000003731001, 9.998127, 10.000381 
5.4512435e+2, 1.2405367e+2, -1415781.5, -1646015.5, 33773.75, 0.117397636, -0.07067766, -1410929.4, 313338.88, 0.00000036785775, 10.002397, 9.999308 
5.451072e+2, 1.3405249e+2, -1494592.6, -1731594.0, -10349.158, -0.2632423, -0.040682383, -1494141.5, 132137.58, 0.000000024396927, 10.001571, 9.998466 
5.450991e+2, 1.440513e+2, -1414087.0, -1557903.8, 6068.767, 0.21726927, -0.037181195, -1413831.4, 114458.81, 0.0, 10.001104, 9.999199 
5.450839e+2, 1.5405001e+2, -1303215.8, -1444859.4, -1346.2733, 0.02309755, -0.0969388, -1303203.0, 127099.1, 0.0, 10.001156, 9.999276 
5.4506993e+2, 1.6404906e+2, -1214861.4, -1340488.8, 21436.412, -0.0585289, -0.12050624, -1211304.4, 121006.56, 0.0, 10.00104, 9.999376 
5.450578e+2, 1.7404878e+2, -1167170.1, -1262558.3, 10976.945, -0.008290386, -0.09007597, -1165923.3, 68390.58, 0.0, 10.000679, 9.999413 
5.450451e+2, 1.8404831e+2, -1131322.6, -1243218.3, -9754.498, 0.010886342, -0.057423256, -1130478.6, 5840.696, 0.0, 10.000461, 9.998978 
5.450317e+2, 1.9404754e+2, -1037818.56, -1150362.5, 7788.9136, -0.004616846, -0.030388514, -1037282.06, 1046.4843, 0.0, 10.000443, 9.998951 
5.4501873e+2, 2.0404662e+2, -920592.9, -982556.3, 31960.209, -0.011021443, -0.040677518, -907062.5, 33275.15, 0.0, 10.000314, 9.999493 
5.4500616e+2, 2.140455e+2, -858664.44, -893021.56, 11729.209, -0.007646803, -0.11046605, -855042.06, -12695.812, 0.0, 10.000029, 9.999572 
5.4499334e+2, 2.2404468e+2, -826765.94, -900725.7, -14534.007, -0.0023810344, -0.118471466, -824012.3, -79658.29, 0.0, 9.999892, 9.998912 
5.449803e+2, 2.340443e+2, -720737.0, -804167.1, 454.29794, 0.006847596, -0.043980062, -720734.5, -74374.14, 0.0, 9.99997, 9.998864 
5.449673e+2, 2.4404365e+2, -605062.06, -642886.5, 25704.264, 0.0053711687, -0.015058369, -592062.2, -43694.83, 0.0, 9.999857, 9.999352 
5.4495454e+2, 2.5404266e+2, -558480.94, -561534.2, 16908.182, -0.010541273, -0.057468247, -543030.6, -92655.625, 0.0, 9.999469, 9.999425 
5.449417e+2, 2.640416e+2, -517259.2, -521356.53, -5388.4883, -0.0078514, -0.093020126, -513543.06, -161159.16, 0.0, 9.999211, 9.999152 
5.449288e+2, 2.740404e+2, -430931.6, -430610.34, -743.655, 0.015807383, -0.1275565, -430010.16, -175615.34, 0.0, 9.999137, 9.999138 
5.449157e+2, 2.8403965e+2, -351234.4, -326113.4, 11964.953, 0.003542849, -0.119912565, -321326.7, -164925.17, 0.0, 9.998944, 9.999275 
5.449022e+2, 2.940397e+2, -300276.6, -240368.44, 15081.912, -0.04421012, -0.04785729, -236785.81, -178385.25, 0.0, 9.998578, 9.999368 
5.4489034e+2, 3.040389e+2, -224983.84, -46181.25, -1366.7557, 0.06761957, -0.119746685, -46170.805, -46170.805, 0.0, 9.998188, 10.000555 
5.4487723e+2, 3.1403887e+2, -287112.9, -73040.59, 9260.989, 0.099493645, -0.18192957, -72640.695, -72640.695, 0.000000000015387011, 9.997747, 10.000583 
5.5512625e+2, 1.24066405e+2, -1391682.5, -1595085.4, 32171.475, 0.071521096, -0.038844272, -1386715.3, 337429.88, 0.0000003291145, 10.002394, 9.999659 
5.5510926e+2, 1.3406512e+2, -1467505.5, -1676721.1, -42336.305, -0.21085823, -0.05771234, -1459263.1, 166892.17, 0.000000025104656, 10.001576, 9.998839 
5.551007e+2, 1.4406385e+2, -1398637.5, -1527066.4, 5157.0693, 0.2741769, -0.09338444, -1398430.8, 129735.51, 0.0, 10.001109, 9.999409 
5.550845e+2, 1.540631e+2, -1289116.5, -1415878.9, 812.2307, -0.022032822, -0.11546353, -1289111.4, 141060.97, 0.0, 10.001156, 9.9994755 
5.550704e+2, 1.6406254e+2, -1237797.5, -1386858.3, 8630.745, -0.11998364, -0.098030135, -1237299.4, 94878.82, 0.0, 10.001036, 9.999061 
5.5505896e+2, 1.740623e+2, -1193583.8, -1316868.3, -2650.413, 0.038206894, -0.027773866, -1193526.9, 40656.477, 0.0, 10.000676, 9.999041 
5.550463e+2, 1.840616e+2, -1100259.4, -1178257.0, -11553.355, 0.083659865, -0.016988533, -1098584.0, 37606.97, 0.0, 10.000458, 9.999425 
5.5503196e+2, 1.940603e+2, -1000353.7, -1072665.1, 7307.6436, -0.023209715, -0.0966551, -999622.6, 38579.117, 0.0, 10.0004425, 9.999485 
5.5501854e+2, 2.0405936e+2, -955031.7, -1053916.0, 21848.46, -0.058140606, -0.115469106, -950419.4, -10208.946, 0.0, 10.000314, 9.999003 
5.550063e+2, 2.1405897e+2, -900669.56, -979987.5, 1060.4886, 0.00833126, -0.053719305, -900655.4, -58439.527, 0.0, 10.000027, 9.998976 
5.5499357e+2, 2.240583e+2, -801246.75, -847484.9, -12929.157, 0.03054284, -0.029982159, -797877.06, -53653.97, 0.0, 9.999891, 9.999278 
5.5498004e+2, 2.3405726e+2, -688083.75, -736557.1, 3578.2441, -0.011030275, -0.06723594, -687821.0, -41588.3, 0.0, 9.999971, 9.999328 
5.549668e+2, 2.4405628e+2, -620762.25, -675680.56, 12475.304, -0.026799196, -0.08636723, -618061.2, -69819.484, 0.0, 9.999858, 9.999126 
5.5495405e+2, 2.5405547e+2, -579589.8, -604837.56, 2307.7915, -0.003763053, -0.08235382, -579380.6, -129131.47, 0.0, 9.999467, 9.999128 
5.5494106e+2, 2.6405472e+2, -508419.28, -502304.44, -9150.687, 0.0075732903, -0.07536123, -495713.9, -143458.31, 0.0, 9.9992075, 9.999285 
5.549277e+2, 2.7405402e+2, -418243.72, -405120.78, -2845.821, -0.0033308845, -0.07910515, -404530.22, -150268.86, 0.0, 9.99914, 9.999311 
5.549143e+2, 2.8405303e+2, -349292.0, -322091.66, -1202.026, -0.02436146, -0.104187116, -322038.63, -165769.0, 0.0, 9.998945, 9.999303 
5.549008e+2, 2.9405198e+2, -301317.13, -240342.38, 1142.7733, -0.045007512, -0.14435431, -240320.97, -182042.13, 0.0, 9.998569, 9.9993725 
5.548886e+2, 3.0405167e+2, -220449.55, -33993.97, -17605.984, 0.07866609, -0.17238687, -32346.096, -32346.096, 0.0, 9.998175, 10.000646 
5.548752e+2, 3.1405276e+2, -282692.0, -62481.74, -1307.5382, 0.115706906, -0.13462055, -62473.973, -62473.973, 0.0000000020600701, 9.997741, 10.000658 
5.651287e+2, 1.2407968e+2, -1405473.0, -1598146.9, 98790.016, 0.07919766, -0.04110878, -1363823.5, 360191.4, 0.00000027083397, 10.002286, 9.999688 
5.6511086e+2, 1.3407843e+2, -1469768.0, -1669423.4, -30014.324, -0.20799434, -0.06482956, -1465353.6, 160671.03, 0.000000017878008, 10.001523, 9.998916 
5.6510174e+2, 1.4407705e+2, -1400676.9, -1528055.5, 29373.252, 0.26567313, -0.11427457, -1394229.8, 133806.72, 0.0, 10.001095, 9.999408 
5.650858e+2, 1.540766e+2, -1288414.4, -1415737.6, 12969.247, -0.006781308, -0.1068837, -1287106.8, 142933.23, 0.0, 10.001164, 9.999472 
5.650715e+2, 1.640761e+2, -1245451.9, -1393053.3, 5148.413, -0.10141193, -0.08087084, -1245272.5, 86772.89, 0.0, 10.000996, 9.999037 
5.650594e+2, 1.7407562e+2, -1225799.1, -1335565.1, 16167.272, 0.032713726, -0.032174084, -1223467.4, 10585.425, 0.0, 10.000469, 9.999012 
5.650465e+2, 1.8407486e+2, -1121880.0, -1175001.4, 29422.281, 0.07050881, -0.031986065, -1108803.0, 27257.873, 0.0, 10.000252, 9.999547 
5.650325e+2, 1.9407374e+2, -985042.2, -1049800.6, 20649.447, -0.021829102, -0.107459895, -979018.06, 59051.344, 0.0, 10.000482, 9.999622 
5.65019e+2, 2.0407288e+2, -937752.94, -1059663.8, 17571.8, -0.050968725, -0.11975847, -935270.75, 4806.6216, 0.0, 10.000493, 9.998877 
5.6500643e+2, 2.1407244e+2, -888168.3, -990956.3, 27916.13, 0.009286501, -0.047259305, -881076.0, -38991.895, 0.0, 10.000186, 9.998823 
5.6499344e+2, 2.2407176e+2, -786342.6, -828427.94, 32691.197, 0.028675938, -0.020288056, -768507.1, -24415.594, 0.0, 9.999944, 9.999383 
5.649799e+2, 2.3407076e+2, -703854.8, -729147.44, 25094.91, -0.011362267, -0.065915875, -688399.8, -42299.926, 0.0, 9.999799, 9.999461 
5.6496656e+2, 2.4406977e+2, -659457.0, -703415.9, 16358.979, -0.027855633, -0.09210785, -654037.3, -105928.38, 0.0, 9.999631, 9.999045 
5.6495345e+2, 2.540688e+2, -592746.44, -622889.7, 19027.434, -0.00828947, -0.0914387, -583544.6, -133426.53, 0.0, 9.999427, 9.999023 
5.649402e+2, 2.6406807e+2, -505818.22, -502057.63, 16563.896, 0.0027963812, -0.07850844, -487267.66, -135142.75, 0.0, 9.99923, 9.999275 
5.649268e+2, 2.740675e+2, -432057.94, -410853.8, 9925.7705, -0.004248732, -0.06700228, -406932.63, -152803.53, 0.0, 9.999043, 9.999317 
5.649132e+2, 2.8406647e+2, -362159.25, -318808.06, -530.5016, -0.020071317, -0.102253795, -318801.6, -162663.84, 0.0, 9.9988165, 9.999387 
5.648994e+2, 2.9406515e+2, -302486.38, -232622.25, 6849.9414, -0.03379173, -0.17838238, -231956.97, -173807.88, 0.0, 9.998525, 9.999446 
5.648868e+2, 3.040652e+2, -210196.52, -54583.67, -15468.987, 0.0738145, -0.16533089, -53060.85, -53060.85, 0.0, 9.998355, 10.000418 
5.6487286e+2, 3.1406602e+2, -203629.94, -42006.926, -21936.664, 0.08013263, -0.12785704, -39082.438, -39082.438, 0.000000017271022, 9.998361, 10.0005 
5.751315e+2, 1.2409351e+2, -1425274.0, -1641238.8, 96986.34, 0.1309474, -0.0773663, -1388113.3, 335764.0, 0.00000019303324, 10.002294, 9.999389 
5.7511187e+2, 1.3409242e+2, -1484288.1, -1701435.9, -60101.543, -0.25432363, -0.061159745, -1468763.3, 157123.53, 0.000000007774616, 10.001529, 9.998694 
5.751021e+2, 1.4409092e+2, -1415147.1, -1557855.1, 29054.797, 0.19342041, -0.1004983, -1409458.4, 118442.52, 0.0, 10.001094, 9.999204 
5.750877e+2, 1.5409048e+2, -1302744.9, -1445096.3, 16023.441, 0.066089086, -0.07335745, -1300963.5, 128941.6, 0.0, 10.001163, 9.99927 
5.750735e+2, 1.6408977e+2, -1228130.1, -1356207.4, -12617.162, -0.0069163316, -0.070072286, -1226899.0, 105013.17, 0.0, 10.000991, 9.999292 
5.7505935e+2, 1.7408878e+2, -1204113.3, -1291322.9, -3458.6897, -0.024858952, -0.10180628, -1203976.3, 29945.955, 0.0, 10.000471, 9.999315 
5.7504576e+2, 1.840881e+2, -1136173.8, -1205055.5, 35404.51, -0.027812928, -0.10123175, -1121221.8, 14707.502, 0.0, 10.000253, 9.99934 
5.750331e+2, 1.9408785e+2, -1003439.06, -1087586.5, 29557.822, -0.0016177762, -0.062802404, -994094.3, 43837.316, 0.0, 10.00048, 9.999364 
5.750201e+2, 2.0408715e+2, -921764.75, -1025700.4, 7525.4243, 0.008738645, -0.054099806, -921222.7, 18715.697, 0.0, 10.000489, 9.999112 
5.750065e+2, 2.140859e+2, -868356.3, -949365.6, 16277.8, -0.0055776034, -0.09174973, -865207.9, -23256.895, 0.0, 10.000184, 9.999109 
5.74993e+2, 2.2408506e+2, -797210.7, -851078.0, 26494.654, -0.008449875, -0.08976443, -786363.56, -42404.15, 0.0, 9.999944, 9.999228 
5.7497984e+2, 2.3408484e+2, -717843.94, -758217.25, 19968.23, 0.0051900954, -0.03940681, -709636.4, -63674.6, 0.0, 9.999799, 9.999262 
5.7496643e+2, 2.4408409e+2, -655248.94, -694625.3, 8748.22, 0.0012738185, -0.031613264, -653392.9, -105423.95, 0.0, 9.999631, 9.999105 
5.7495266e+2, 2.5408268e+2, -587055.8, -611044.56, 11487.285, -0.02548203, -0.08494344, -582442.3, -132460.3, 0.0, 9.999426, 9.999105 
5.7493913e+2, 2.6408157e+2, -516841.47, -525062.9, 9283.893, -0.023373825, -0.102770306, -510798.94, -158807.06, 0.0, 9.99923, 9.999117 
5.74926e+2, 2.7408084e+2, -444879.63, -436609.44, 2929.2014, 0.01307324, -0.09164259, -435677.06, -181678.84, 0.0, 9.999039, 9.999143 
5.7491237e+2, 2.8407994e+2, -352913.53, -297911.78, -11257.744, 0.0162071, -0.11371542, -295696.75, -139690.84, 0.0, 9.998809, 9.999535 
5.748982e+2, 2.9407918e+2, -291359.88, -209825.78, -3612.2773, -0.012701415, -0.14903536, -209666.05, -151654.81, 0.0, 9.998526, 9.999602 
5.748849e+2, 3.040794e+2, -250514.02, -138675.1, -16476.896, 0.049731065, -0.09733167, -136298.11, -136298.11, 0.00000000021282408, 9.998356, 9.999839 
5.748703e+2, 3.140786e+2, -234416.2, -104878.14, -16708.764, -0.012417435, -0.16049902, -102757.64, -102757.64, 0.0000000699572, 9.998356, 10.000071 
5.851337e+2, 1.2410756e+2, -1488126.5, -1701424.0, 105202.75, 0.13981828, -0.085649304, -1444970.1, 278768.3, 0.00000011738098, 10.001991, 9.999122 
5.851136e+2, 1.3410646e+2, -1436128.8, -1697002.1, -75002.06, -0.2564542, -0.05165209, -1416102.6, 209646.52, 0.0000000014227642, 10.001942, 9.998525 
5.8510315e+2, 1.4410482e+2, -1343888.9, -1525462.9, 26227.033, 0.16252314, -0.09456022, -1340176.5, 187588.78, 0.0, 10.001594, 9.999185 
5.850888e+2, 1.5410441e+2, -1349801.5, -1468509.1, 26167.34, 0.07664921, -0.064686954, -1344289.3, 85479.98, 0.0, 10.000843, 9.999264 
5.850745e+2, 1.641037e+2, -1284245.3, -1370388.1, 9851.287, 0.014154522, -0.06657783, -1283133.0, 48642.934, 0.0, 10.00055, 9.999407 
5.8505994e+2, 1.7410265e+2, -1131330.9, -1241821.3, 6693.512, -0.0345916, -0.1166342, -1130926.9, 102858.695, 0.0, 10.000911, 9.999442 
5.850462e+2, 1.8410194e+2, -1061362.6, -1189900.8, 34515.637, -0.045100056, -0.11541872, -1052680.8, 83111.96, 0.0, 10.000857, 9.999152 
5.850336e+2, 1.9410178e+2, -1058504.9, -1138330.0, 30834.89, 0.005964557, -0.04886822, -1047981.3, -10185.44, 0.0, 10.000207, 9.999146 
5.850204e+2, 2.0410115e+2, -987394.8, -1028152.75, 17672.508, 0.024649223, -0.034696307, -980799.3, -40997.004, 0.0, 9.999913, 9.9993725 
5.850066e+2, 2.1409991e+2, -854459.1, -908402.2, 28242.283, -0.0052854605, -0.10008333, -842378.25, -565.3362, 0.0, 10.000133, 9.999416 
5.84993e+2, 2.2409904e+2, -784993.2, -863716.8, 31760.861, -0.016270744, -0.110564224, -773777.25, -29956.219, 0.0, 10.000107, 9.999063 
5.8497953e+2, 2.3409869e+2, -741446.56, -793359.56, 23043.156, 0.0007305274, -0.05134251, -732693.9, -86868.33, 0.0, 9.99974, 9.999049 
5.84966e+2, 2.4409795e+2, -672981.8, -694484.3, 15239.983, 0.0010007652, -0.0347973, -665082.44, -117249.29, 0.0, 9.999472, 9.999183 
5.849521e+2, 2.5409672e+2, -590375.0, -600239.2, 19844.594, -0.021960437, -0.07948268, -574858.8, -125014.57, 0.0, 9.999351, 9.999215 
5.849384e+2, 2.640957e+2, -515207.7, -520932.94, 25695.932, -0.019378046, -0.09906389, -492215.44, -140362.16, 0.0, 9.999228, 9.999146 
5.8492506e+2, 2.7409482e+2, -435039.1, -429807.53, 34100.242, 0.014962796, -0.104641035, -398222.9, -144362.36, 0.0, 9.999098, 9.999162 
5.849112e+2, 2.840938e+2, -339178.88, -302311.13, 17134.256, 0.018019995, -0.13020106, -295577.75, -139708.78, 0.0, 9.998951, 9.999435 
5.8489686e+2, 2.9409313e+2, -264490.44, -210844.67, 1389.6255, -0.010348414, -0.14737202, -210808.7, -152934.22, 0.0, 9.998771, 9.999477 
5.8488315e+2, 3.040935e+2, -242919.92, -151177.11, -7207.174, 0.036558803, -0.06900716, -150614.38, -150614.38, 0.000000006848287, 9.998478, 9.999695 
5.848682e+2, 3.140921e+2, -268379.38, -105307.766, 36060.906, -0.039671786, -0.17832576, -97689.34, -97689.34, 0.00000018333391, 9.9980545, 10.000213 
5.9513533e+2, 1.2412183e+2, -1503204.3, -1734295.1, 126440.86, 0.10570355, -0.06901651, -1447466.1, 276132.34, 0.000000058921596, 10.001998, 9.998893 
5.951159e+2, 1.3412058e+2, -1444284.3, -1714080.5, -77428.13, -0.21779245, -0.038294327, -1423642.6, 201969.0, 0.000000000010343272, 10.001942, 9.998408 
5.951048e+2, 1.4411879e+2, -1334150.5, -1504196.9, 572.45276, 0.16911454, -0.09816649, -1334148.6, 193480.9, 0.0, 10.001588, 9.999333 
5.950892e+2, 1.5411842e+2, -1336883.3, -1442703.8, -1744.9021, 0.0257843, -0.079816334, -1336854.4, 92777.79, 0.0, 10.000846, 9.99944 
5.950745e+2, 1.6411792e+2, -1286048.9, -1375000.8, 19687.938, -0.036819357, -0.06978408, -1281886.1, 49750.54, 0.0, 10.000554, 9.999373 
5.950612e+2, 1.7411724e+2, -1135093.1, -1249368.0, 20620.324, 0.00148672, -0.07773325, -1131486.1, 102156.84, 0.0, 10.000909, 9.999392 
5.950476e+2, 1.8411644e+2, -1073633.6, -1214401.1, 13215.244, 0.015465338, -0.07596348, -1072403.8, 63247.69, 0.0, 10.000853, 9.998987 
5.950337e+2, 1.9411552e+2, -1070630.9, -1163860.8, 6375.647, -0.000019745212, -0.06550435, -1070196.9, -32534.646, 0.0, 10.000208, 9.998971 
5.9502006e+2, 2.0411482e+2, -967100.44, -986644.0, 22953.426, -0.0034215937, -0.061286826, -951925.3, -12256.257, 0.0, 9.999916, 9.999656 
5.950069e+2, 2.1411447e+2, -831570.2, -860744.6, 36724.29, 0.009032469, -0.07174761, -806642.06, 35027.758, 0.0, 10.000132, 9.999743 
5.949933e+2, 2.2411369e+2, -797768.75, -890128.3, 19453.213, 0.0039963294, -0.08267187, -793838.6, -50162.145, 0.0, 10.000106, 9.998881 
5.9497905e+2, 2.3411234e+2, -758069.4, -827342.06, 9046.816, -0.026087044, -0.10205501, -756907.4, -111216.09, 0.0, 9.999737, 9.998817 
5.9496516e+2, 2.4411134e+2, -666156.06, -680282.9, 9756.439, -0.030032156, -0.10169272, -661174.56, -113472.95, 0.0, 9.999472, 9.999281 
5.949517e+2, 2.54111e+2, -580757.5, -580318.56, 15543.636, 0.0025015338, -0.0742402, -564992.9, -115288.164, 0.0, 9.999351, 9.999352 
5.94938e+2, 2.641104e+2, -499751.28, -488951.1, 20946.33, 0.015316976, -0.06658508, -472719.97, -121011.03, 0.0, 9.999228, 9.999367 
5.9492403e+2, 2.7410936e+2, -419530.56, -397870.28, 29699.395, -0.0021555163, -0.107462935, -377088.0, -123371.875, 0.0, 9.999098, 9.999381 
5.949098e+2, 2.8410813e+2, -365143.38, -356104.9, 10549.191, -0.019345725, -0.15339062, -349147.7, -193420.6, 0.0, 9.99895, 9.999067 
5.9489536e+2, 2.9410702e+2, -295622.2, -274318.8, -5728.9106, -0.027429486, -0.17247377, -272875.9, -215137.0, 0.0, 9.998765, 9.999044 
5.9488165e+2, 3.0410743e+2, -221416.64, -104152.17, -22677.227, 0.036216695, -0.07767446, -99919.51, -99919.51, 0.000000033052434, 9.998467, 10.000023 
5.9486663e+2, 3.1410652e+2, -216513.13, 4106.8745, 24966.54, -0.0027226808, -0.18206489, 6896.937, 6896.937, 0.00000037488923, 9.998048, 10.000967 
6.051371e+2, 1.2413596e+2, -1448753.1, -1696274.3, 129525.266, 0.06596025, -0.06324232, -1393367.1, 330093.5, 0.000000021349177, 10.002323, 9.998996 
6.051179e+2, 1.3413489e+2, -1503239.1, -1716388.1, -73136.49, -0.18340228, -0.039041985, -1480557.8, 144913.73, 0.0, 10.001426, 9.998641 
6.051061e+2, 1.441332e+2, -1420421.6, -1541924.4, 24560.54, 0.1767359, -0.102744475, -1415644.8, 111843.39, 0.0, 10.00098, 9.999368 
6.0508996e+2, 1.5413287e+2, -1279388.6, -1412693.3, 10872.669, 0.0064888825, -0.080798686, -1278507.6, 150982.94, 0.0, 10.001232, 9.999458 
6.0507506e+2, 1.6413242e+2, -1209524.1, -1347296.6, 27927.576, -0.058087308, -0.06283139, -1204078.3, 127416.58, 0.0, 10.001119, 9.99929 
6.05062e+2, 1.7413178e+2, -1204267.6, -1293043.0, 25816.95, 0.016137622, -0.057121634, -1197305.8, 36195.54, 0.0, 10.000479, 9.999299 
6.050484e+2, 1.8413097e+2, -1154449.9, -1236484.5, 26889.889, 0.0424084, -0.05858311, -1146421.5, -10911.75, 0.0, 10.000225, 9.999137 
6.0503405e+2, 1.9412996e+2, -1012744.06, -1116907.9, 45194.414, 0.004221917, -0.075072266, -995869.06, 41651.38, 0.0, 10.000524, 9.999142 
6.050202e+2, 2.041292e+2, -898508.4, -974732.1, 60406.207, -0.011490418, -0.0760762, -865196.0, 74331.56, 0.0, 10.000478, 9.999467 
6.050068e+2, 2.141289e+2, -873308.4, -905893.7, 32863.51, 0.0040614153, -0.06137087, -852920.5, -11391.098, 0.0, 9.999953, 9.999519 
6.049931e+2, 2.2412813e+2, -849123.56, -893018.44, 5838.5415, 0.002601777, -0.06620278, -848360.25, -104824.23, 0.0, 9.99966, 9.999076 
6.0497874e+2, 2.341268e+2, -747602.06, -796268.25, 29945.682, -0.02398346, -0.10597306, -733349.6, -87800.23, 0.0, 9.999697, 9.99905 
6.0496473e+2, 2.4412581e+2, -646676.4, -679074.9, 44569.547, -0.02605461, -0.1149592, -615453.5, -67894.27, 0.0, 9.99964, 9.9992075 
6.049511e+2, 2.541254e+2, -573417.7, -588737.25, 31883.688, 0.0068786526, -0.08048936, -548286.56, -98723.49, 0.0, 9.999453, 9.999246 
6.0493726e+2, 2.6412484e+2, -490984.22, -476795.28, 21389.133, 0.017525194, -0.06710603, -461354.75, -109787.49, 0.0, 9.999253, 9.999437 
6.04923e+2, 2.7412397e+2, -422112.38, -389084.63, 19347.258, -0.0061424416, -0.10382658, -380161.8, -126588.81, 0.0, 9.999037, 9.999471 
6.0490865e+2, 2.8412277e+2, -374648.63, -350685.16, 11162.592, -0.024436366, -0.15403816, -346291.13, -190707.89, 0.0, 9.998841, 9.999157 
6.048941e+2, 2.9412156e+2, -304971.13, -271076.2, 32861.844, -0.02737546, -0.19035588, -251049.11, -193453.67, 0.00000000003092486, 9.998667, 9.999114 
6.0488e+2, 3.0412188e+2, -232122.45, -119274.89, 16858.79, 0.03145078, -0.102845915, -116810.12, -116810.12, 0.00000008707832, 9.998438, 9.999933 
6.048647e+2, 3.1412113e+2, -183716.36, 44138.49, 26375.36, 0.0015791804, -0.18601552, 47151.723, 47151.723, 0.0000006525611, 9.998169, 10.001184 
6.1513895e+2, 1.24149956e+2, -1420461.9, -1636851.3, 114931.52, 0.01769938, -0.07214408, -1370810.6, 352514.25, 0.0000000039655865, 10.002319, 9.999406 
6.1511964e+2, 1.3414939e+2, -1464051.5, -1635460.9, -107800.305, -0.15417093, -0.052072756, -1412038.4, 213290.14, 0.0, 10.001427, 9.999196 
6.151072e+2, 1.4414804e+2, -1425906.6, -1554396.8, 30144.002, 0.18392327, -0.10695591, -1419186.3, 108154.77, 0.0, 10.000983, 9.999281 
6.150913e+2, 1.5414774e+2, -1289757.6, -1433867.3, 20870.63, 0.01661326, -0.068468265, -1286795.9, 142548.42, 0.0, 10.00123, 9.999315 
6.150763e+2, 1.641472e+2, -1218914.6, -1366156.6, 6502.379, -0.052018996, -0.04626104, -1218628.0, 112722.5, 0.0, 10.001116, 9.999164 
6.150624e+2, 1.7414628e+2, -1212612.4, -1311445.1, 1861.2299, 0.008644106, -0.054550312, -1212577.4, 20783.033, 0.0, 10.000483, 9.999171 
6.150485e+2, 1.8414555e+2, -1121924.8, -1170452.0, 34993.56, 0.035133738, -0.062923096, -1103605.9, 31761.613, 0.0, 10.000231, 9.999588 
6.150347e+2, 1.9414507e+2, -977157.75, -1043111.1, 56589.508, 0.01754883, -0.07708739, -944637.6, 92732.72, 0.0, 10.000524, 9.999648 
6.1502075e+2, 2.0414428e+2, -945404.75, -1071680.8, 42670.01, -0.0009118624, -0.07859221, -932338.2, 7039.7085, 0.0, 10.000476, 9.998802 
6.150065e+2, 2.1414314e+2, -927601.06, -1018254.94, 12870.899, -0.021357337, -0.06867988, -925809.1, -84417.625, 0.0, 9.999951, 9.998749 
6.1499256e+2, 2.2414236e+2, -809174.56, -809959.6, 5231.193, -0.021405017, -0.060397256, -804321.2, -60921.684, 0.0, 9.999659, 9.999647 
6.1497873e+2, 2.3414211e+2, -698015.94, -693702.9, 31668.436, 0.0069790008, -0.06245932, -664117.6, -18717.988, 0.0, 9.999699, 9.999753 
6.149647e+2, 2.4414136e+2, -664535.1, -716878.44, 38085.313, 0.012886377, -0.074151814, -644495.9, -97090.055, 0.0, 9.999643, 9.998947 
6.1495036e+2, 2.5414e+2, -598674.8, -640905.06, 24858.67, -0.0115757305, -0.09964873, -587173.94, -137754.39, 0.0, 9.999451, 9.998888 
6.149362e+2, 2.6413906e+2, -497227.94, -489188.13, 13225.177, -0.015921984, -0.10138643, -479385.4, -127957.07, 0.0, 9.99925, 9.999354 
6.149221e+2, 2.741386e+2, -425669.84, -395912.94, 11308.13, 0.0042475546, -0.09045077, -392103.38, -138672.33, 0.0, 9.999035, 9.999425 
6.149078e+2, 2.8413776e+2, -335439.8, -268748.13, 4529.9453, 0.0053079273, -0.12844369, -268441.84, -113004.71, 0.0, 9.998838, 9.999722 
6.148929e+2, 2.941368e+2, -263067.22, -183618.66, 26768.588, -0.0138926115, -0.20453548, -175441.2, -117997.02, 0.0000000010306047, 9.998664, 9.999717 
6.148783e+2, 3.0413684e+2, -271835.8, -200338.97, 7169.9497, 0.016533192, -0.14923906, -199627.03, -199627.03, 0.00000016756015, 9.998431, 9.99938 
6.148626e+2, 3.1413582e+2, -210626.8, -9278.787, 18892.313, -0.030472662, -0.19162615, -7521.4746, -7521.4746, 0.000001002472, 9.998158, 10.000822 
6.2514085e+2, 1.24164835e+2, -1469272.3, -1667205.1, 170926.9, -0.00624205, -0.07832844, -1370728.3, 352450.13, 0.00000000008306351, 10.002014, 9.999344 
6.251214e+2, 1.3416427e+2, -1419361.5, -1607933.9, -105635.91, -0.13291508, -0.061365984, -1372053.8, 253128.17, 0.0, 10.001708, 9.999249 
6.251082e+2, 1.4416301e+2, -1382232.4, -1535928.1, 32746.363, 0.1686589, -0.11030879, -1375546.3, 151647.42, 0.0, 10.001295, 9.999257 
6.250923e+2, 1.5416263e+2, -1354464.1, -1468628.0, 32842.438, 0.022799423, -0.0778268, -1345690.4, 83507.62, 0.0, 10.000801, 9.999283 
6.2507725e+2, 1.6416204e+2, -1284784.1, -1392608.3, 27729.156, -0.038465224, -0.05934659, -1278071.0, 53133.555, 0.0, 10.000642, 9.99921 
6.250632e+2, 1.7416118e+2, -1141825.5, -1271127.9, 35621.176, 0.012886473, -0.06915055, -1132661.8, 100552.26, 0.0, 10.000942, 9.999226 
6.2504905e+2, 1.8416049e+2, -1028437.56, -1128229.1, 61281.84, 0.03275771, -0.07204409, -999307.7, 135912.88, 0.0, 10.000885, 9.999562 
6.250351e+2, 1.9416012e+2, -1006988.9, -1061296.3, 42650.137, 0.0105318455, -0.07127468, -983582.1, 53640.5, 0.0, 10.000335, 9.999615 
6.250209e+2, 2.041594e+2, -1006024.2, -1093657.3, 28457.465, -0.0056945286, -0.070541084, -997594.06, -58364.13, 0.0, 10.000029, 9.998867 
6.250066e+2, 2.1415816e+2, -905419.9, -999570.8, 60946.133, -0.014819248, -0.07573815, -875485.4, -34241.223, 0.0, 10.00007, 9.99882 
6.2499243e+2, 2.241574e+2, -767145.25, -797920.75, 69821.25, -0.010418094, -0.06641589, -711036.2, 32215.982, 0.0, 9.999983, 9.999574 
6.2497854e+2, 2.341573e+2, -701846.44, -705400.7, 37059.008, 0.012598409, -0.04432601, -666522.0, -21270.613, 0.0, 9.999715, 9.999665 
6.2496436e+2, 2.4415655e+2, -672037.2, -711706.4, 23399.932, 0.014375972, -0.052575674, -661196.56, -113939.32, 0.0, 9.999554, 9.999026 
6.249498e+2, 2.5415504e+2, -578829.56, -621019.44, 43394.47, -0.013708918, -0.10551281, -551674.3, -102402.45, 0.0, 9.999542, 9.9989805 
6.2493545e+2, 2.64154e+2, -484583.25, -488108.1, 44410.785, -0.017968716, -0.11858616, -441899.94, -90618.61, 0.0, 9.999359, 9.99931 
6.2492114e+2, 2.7415362e+2, -444577.9, -411725.5, 40824.938, 0.009104173, -0.09217198, -384146.1, -130862.086, 0.0, 9.998933, 9.999366 
6.249066e+2, 2.8415295e+2, -347516.03, -260538.38, 26392.639, 0.011657344, -0.11634384, -253156.3, -97867.59, 0.0, 9.998695, 9.999846 
6.248915e+2, 2.9415214e+2, -246353.23, -160574.95, 12196.81, -0.015944263, -0.18965086, -158874.39, -101581.07, 0.000000004235602, 9.998714, 9.99985 
6.248766e+2, 3.041519e+2, -273558.03, -211750.66, -21827.383, 0.005636709, -0.16895053, -204819.53, -204819.53, 0.000000262113, 9.998466, 9.999285 
6.2486064e+2, 3.1415087e+2, -243750.55, -14267.524, 30852.668, -0.02160923, -0.20145147, -10191.943, -10191.943, 0.0000013873902, 9.997884, 10.000919 
6.351428e+2, 1.24180526e+2, -1504236.4, -1740673.3, 168921.47, -0.010049734, -0.08650437, -1416275.1, 306747.06, 0.0, 10.002018, 9.998839 
6.351232e+2, 1.3417956e+2, -1449981.6, -1670633.8, -118299.92, -0.12015071, -0.06731287, -1398546.4, 226485.4, 0.0, 10.001703, 9.998821 
6.3510907e+2, 1.441781e+2, -1379973.3, -1531014.9, 14146.033, 0.1310756, -0.11287893, -1378659.9, 148386.25, 0.0, 10.001293, 9.999292 
6.3509315e+2, 1.5417752e+2, -1348730.4, -1457905.9, 14345.476, 0.023359856, -0.10812709, -1346876.9, 82174.56, 0.0, 10.000806, 9.999355 
6.350781e+2, 1.6417696e+2, -1269007.4, -1361279.9, 36264.36, -0.019974433, -0.10082398, -1256460.9, 74596.04, 0.0, 10.000647, 9.999423 
6.350642e+2, 1.7417642e+2, -1125782.5, -1237819.9, 46988.3, 0.02800044, -0.09989746, -1108684.9, 124377.49, 0.0, 10.000941, 9.999455 
6.3505e+2, 1.8417583e+2, -1063998.0, -1201326.0, 42720.15, 0.034256186, -0.08526377, -1051793.3, 83275.836, 0.0, 10.000882, 9.999063 
6.350351e+2, 1.9417515e+2, -1046226.5, -1143264.9, 21831.982, -0.017591352, -0.057707813, -1041540.9, -4463.719, 0.0, 10.000337, 9.999051 
6.3502073e+2, 2.0417453e+2, -950530.25, -979115.2, 27820.742, -0.02704527, -0.05215501, -933545.44, 5538.132, 0.0, 10.0000305, 9.999653 
6.35007e+2, 2.1417394e+2, -841560.94, -867357.6, 62570.99, 0.023000129, -0.08292406, -790572.7, 50514.715, 0.0, 10.000071, 9.999728 
6.3499284e+2, 2.2417323e+2, -818766.1, -904847.2, 60367.387, 0.034187842, -0.08451358, -787666.9, -44572.723, 0.0, 9.999982, 9.998839 
6.3497806e+2, 2.3417234e+2, -763958.56, -833998.5, 27013.723, -0.008378374, -0.051873494, -754750.3, -109645.6, 0.0, 9.999713, 9.998783 
6.349635e+2, 2.4417143e+2, -642681.5, -650409.75, 22046.604, -0.023109304, -0.049942274, -624162.94, -77049.445, 0.0, 9.999552, 9.999448 
6.349495e+2, 2.541705e+2, -540020.56, -540923.9, 43361.246, 0.0007387654, -0.09621305, -497108.6, -47988.88, 0.0, 9.999544, 9.99953 
6.349351e+2, 2.6416972e+2, -485343.75, -490355.75, 29811.102, 0.011811037, -0.11698521, -457933.5, -106807.62, 0.0, 9.999361, 9.999293 
6.3492006e+2, 2.7416906e+2, -450351.34, -422762.72, 25182.545, 0.004942476, -0.11192542, -407843.9, -154711.88, 0.0, 9.998928, 9.999292 
6.349051e+2, 2.8416833e+2, -372093.16, -309800.03, 25990.164, -0.009757036, -0.12104171, -300380.66, -145242.42, 0.0, 9.998688, 9.999512 
6.348901e+2, 2.941677e+2, -271720.72, -212150.05, 13011.478, -0.033195205, -0.14113107, -209432.08, -152289.44, 0.000000008608103, 9.998711, 9.999497 
6.3487506e+2, 3.0416706e+2, -247135.5, -156517.06, -42549.28, 0.0008415884, -0.15549085, -139670.3, -139670.3, 0.00000035003856, 9.998463, 9.999667 
6.34859e+2, 3.141662e+2, -203665.8, 70955.125, 11164.244, 0.025384393, -0.21968396, 71408.24, 71408.24, 0.0000017531552, 9.997874, 10.001511 
6.45145e+2, 1.2419616e+2, -1512962.0, -1755897.4, 156033.11, 0.010035371, -0.09168497, -1436690.6, 286177.06, 0.0, 10.002004, 9.998742 
6.451249e+2, 1.3419515e+2, -1481554.1, -1690644.6, -111601.414, -0.10210325, -0.07320544, -1433179.1, 191699.38, 0.0, 10.001508, 9.998778 
6.451099e+2, 1.4419375e+2, -1399299.3, -1543486.8, 40220.19, 0.08807158, -0.1079979, -1388838.9, 138053.52, 0.0, 10.001175, 9.999264 
6.4509416e+2, 1.5419294e+2, -1302934.4, -1439028.5, 32565.006, 0.02766206, -0.12420008, -1295543.5, 133356.5, 0.0, 10.001134, 9.999326 
6.450791e+2, 1.6419235e+2, -1217806.6, -1328144.1, 54135.758, 0.00030365918, -0.12034041, -1195682.0, 135223.42, 0.0, 10.000962, 9.999498 
6.4506495e+2, 1.7419209e+2, -1169300.9, -1249769.0, 54290.746, 0.02414192, -0.09954041, -1141960.8, 90946.91, 0.0, 10.000605, 9.9995365 
6.4505047e+2, 1.8419155e+2, -1137253.8, -1242980.8, 51621.766, 0.023446422, -0.080651015, -1116229.8, 18684.225, 0.0, 10.000407, 9.999004 
6.450355e+2, 1.9419065e+2, -1037381.4, -1146613.8, 66259.695, -0.013028969, -0.068704404, -1006129.75, 30795.371, 0.0, 10.000432, 9.998981 
6.45021e+2, 2.0419002e+2, -907056.4, -949045.94, 71262.91, -0.017597426, -0.0634728, -853760.0, 85171.82, 0.0, 10.000292, 9.999733 
6.45007e+2, 2.1418972e+2, -856774.8, -864539.6, 44971.836, 0.022539875, -0.0748046, -815518.1, 25414.023, 0.0, 9.999923, 9.999819 
6.4499265e+2, 2.2418901e+2, -857921.7, -933614.5, 35303.87, 0.028218726, -0.07666692, -844011.75, -101073.19, 0.0, 9.999756, 9.998752 
6.4497775e+2, 2.3418775e+2, -748695.6, -838307.4, 59970.043, -0.014283944, -0.07071162, -718641.8, -73688.734, 0.0, 9.999868, 9.998678 
6.4496315e+2, 2.4418676e+2, -616305.44, -632850.8, 67153.83, -0.023370009, -0.07492122, -556916.6, -9953.581, 0.0, 9.999713, 9.999491 
6.4494896e+2, 2.541861e+2, -588304.25, -557859.25, 50549.402, 0.013263506, -0.09942199, -520290.0, -71323.51, 0.0, 9.999186, 9.999586 
6.449343e+2, 2.641854e+2, -540158.25, -512956.72, 23709.521, 0.022163048, -0.113044314, -499223.97, -148252.5, 0.0, 9.998969, 9.999327 
6.449189e+2, 2.7418467e+2, -412526.1, -400889.56, 26940.363, -0.0071390867, -0.11910429, -379146.34, -126167.93, 0.0, 9.999173, 9.999325 
6.449038e+2, 2.8418395e+2, -320510.4, -294303.53, 37184.316, -0.023634845, -0.12411245, -267981.4, -112996.79, 0.0, 9.999083, 9.999428 
6.448889e+2, 2.941834e+2, -297612.28, -235569.55, 42492.727, -0.021371465, -0.12669235, -213979.53, -156990.75, 0.000000011710588, 9.99858, 9.999399 
6.4487356e+2, 3.0418244e+2, -271044.94, -171530.0, -17567.002, 0.014090655, -0.1678536, -168520.0, -168520.0, 0.00000040808163, 9.998313, 9.999635 
6.448572e+2, 3.1418195e+2, -126836.43, 106408.49, -452.7636, 0.032994345, -0.1946397, 106409.375, 106409.375, 0.0000020409286, 9.998409, 10.001496 
6.5514743e+2, 1.2421173e+2, -1493124.8, -1714113.1, 139828.75, 0.05180439, -0.09818843, -1425402.8, 297312.13, 0.0, 10.002, 9.999031 
6.5512663e+2, 1.3421105e+2, -1458969.1, -1643693.4, -131570.11, -0.08204346, -0.078542724, -1390578.5, 234143.44, 0.0, 10.001507, 9.999101 
6.5511054e+2, 1.4420997e+2, -1405991.8, -1557415.6, 35977.414, 0.03722549, -0.09597667, -1397878.5, 128854.28, 0.0, 10.001174, 9.999168 
6.550954e+2, 1.5420887e+2, -1312257.4, -1457987.6, 30982.072, 0.035468623, -0.1265125, -1305944.1, 122799.47, 0.0, 10.001132, 9.999197 
6.5508026e+2, 1.6420822e+2, -1222991.9, -1338391.9, 41205.316, 0.02226507, -0.11816239, -1209789.4, 120960.45, 0.0, 10.000959, 9.99943 
6.550653e+2, 1.742082e+2, -1173596.4, -1259365.4, 40744.754, -0.00012001046, -0.069504626, -1157326.8, 75423.35, 0.0, 10.000607, 9.99947 
6.5505064e+2, 1.8420771e+2, -1110727.3, -1188264.0, 50829.234, -0.0017184641, -0.059161156, -1085569.1, 49186.188, 0.0, 10.000408, 9.99938 
6.5503633e+2, 1.9420666e+2, -1008309.06, -1086357.0, 67018.91, 0.023917155, -0.10404171, -969780.44, 66985.99, 0.0, 10.000432, 9.999395 
6.5502167e+2, 2.0420589e+2, -951774.06, -1041384.3, 58135.836, 0.021835318, -0.10415509, -923181.1, 15593.372, 0.0, 10.000289, 9.9991 
6.550065e+2, 2.1420552e+2, -907623.3, -970116.1, 31067.662, -0.017038863, -0.05149967, -894806.9, -54028.46, 0.0, 9.999922, 9.999094 
6.549918e+2, 2.2420478e+2, -818447.4, -851728.1, 37770.836, -0.029408127, -0.042873636, -793813.8, -51028.45, 0.0, 9.999755, 9.999314 
6.549777e+2, 2.3420355e+2, -700904.6, -739850.75, 64493.43, -0.0054358877, -0.10117937, -653008.56, -8212.086, 0.0, 9.99987, 9.999353 
6.549632e+2, 2.4420251e+2, -641297.4, -684873.75, 49082.15, 0.012256849, -0.12788485, -609384.7, -62578.883, 0.0, 9.999713, 9.999133 
6.5494823e+2, 2.5420177e+2, -620453.94, -623446.56, 30733.709, 0.022208644, -0.11642365, -591180.1, -142367.77, 0.0, 9.999181, 9.999139 
6.5493315e+2, 2.642011e+2, -534706.94, -500417.16, 29315.0, 0.011695557, -0.10788912, -483601.53, -132783.36, 0.0, 9.998963, 9.999415 
6.549179e+2, 2.7420053e+2, -402193.97, -379905.94, 35434.395, -0.027528388, -0.1111752, -353904.5, -101081.68, 0.0, 9.999175, 9.999468 
6.5490276e+2, 2.8419992e+2, -308527.7, -270247.22, 20482.172, -0.030584212, -0.12262899, -261354.11, -106526.61, 0.0, 9.999085, 9.999592 
6.548878e+2, 2.941993e+2, -287218.78, -212277.13, 23690.6, 0.017739471, -0.15024087, -205416.17, -148584.27, 0.000000011654482, 9.998571, 9.999564 
6.548721e+2, 3.04198e+2, -305716.88, -241234.14, -15459.379, 0.042997018, -0.21075569, -237719.42, -237719.42, 0.00000041978168, 9.998302, 9.999161 
6.548553e+2, 3.1419808e+2, -171373.5, 13506.299, 4127.549, -0.0022180649, -0.123092376, 13598.402, 13598.402, 0.000002202322, 9.99841, 10.000856 
6.6514915e+2, 1.24227524e+2, -1538866.6, -1726905.9, 145065.75, 0.041414924, -0.10573595, -1460017.0, 262542.34, 0.0, 10.001646, 9.999113 
6.6512847e+2, 1.3422675e+2, -1467347.0, -1638744.9, -145547.44, -0.043973852, -0.10117068, -1384142.5, 240424.67, 0.0, 10.001412, 9.99918 
6.651115e+2, 1.4422598e+2, -1405733.4, -1550602.5, 26923.088, 0.02501651, -0.09545945, -1400891.6, 125683.66, 0.0, 10.001148, 9.999228 
6.6509634e+2, 1.5422513e+2, -1340982.5, -1466180.4, 35920.46, 0.028074963, -0.107312195, -1331408.8, 97175.47, 0.0, 10.000911, 9.999248 
6.650811e+2, 1.6422449e+2, -1255824.6, -1352676.0, 52989.293, 0.018692793, -0.10291082, -1232466.5, 98123.9, 0.0, 10.000729, 9.999442 
6.6506594e+2, 1.7422411e+2, -1171726.4, -1257210.0, 56900.094, 0.0004503098, -0.08855172, -1143303.0, 89290.1, 0.0, 10.000616, 9.999478 
6.6505116e+2, 1.8422353e+2, -1100535.1, -1186737.6, 62490.055, 0.004592991, -0.08609237, -1067723.8, 66875.21, 0.0, 10.000495, 9.999348 
6.6503686e+2, 1.9422272e+2, -1021436.25, -1097105.4, 44853.516, 0.036622558, -0.10374831, -1000591.25, 36017.23, 0.0, 10.0003605, 9.999355 
6.65022e+2, 2.04222e+2, -957235.25, -1048358.1, 33530.13, 0.030714829, -0.09560103, -946227.1, -7610.7095, 0.0, 10.00027, 9.999062 
6.650065e+2, 2.1422143e+2, -863327.1, -952575.06, 56819.875, -0.025583485, -0.058882963, -835702.94, 4919.0293, 0.0, 10.000245, 9.999058 
6.649916e+2, 2.2422063e+2, -776522.9, -828604.9, 73555.695, -0.038084827, -0.056478605, -724534.56, 18095.012, 0.0, 10.000031, 9.999339 
6.6497755e+2, 2.3421948e+2, -743283.9, -756789.4, 51651.793, 0.008338342, -0.10841113, -697945.3, -53305.28, 0.0, 9.999565, 9.999384 
6.649629e+2, 2.4421857e+2, -686631.25, -700902.56, 24614.578, 0.027880173, -0.12795064, -668138.94, -121490.59, 0.0, 9.999376, 9.999186 
6.649475e+2, 2.5421795e+2, -561520.3, -589115.9, 43448.9, 0.011773247, -0.10890356, -529731.0, -81077.516, 0.0, 9.999559, 9.999191 
6.649322e+2, 2.6421723e+2, -467875.8, -470208.38, 59323.67, -0.0034406893, -0.10808472, -409706.97, -59047.27, 0.0, 9.999432, 9.999396 
6.6491705e+2, 2.7421638e+2, -446377.6, -403716.5, 52441.95, -0.018330237, -0.13738856, -368433.0, -115766.06, 0.0, 9.998883, 9.999444 
6.649018e+2, 2.8421578e+2, -374784.9, -299602.9, 24577.92, -0.013576776, -0.14455019, -292281.13, -137609.95, 0.0, 9.998621, 9.999613 
6.648865e+2, 2.942156e+2, -259545.05, -195399.97, 16614.318, 0.01853902, -0.13305236, -191352.11, -134680.4, 0.000000008469742, 9.998748, 9.999594 
6.648705e+2, 3.042141e+2, -249020.44, -217695.42, -7728.7876, 0.03196808, -0.21346715, -215892.3, -215892.3, 0.00000038345433, 9.99871, 9.9991255 
6.6485375e+2, 3.1421402e+2, -184823.44, -19949.564, 47642.65, 0.0063622016, -0.13774808, -7172.6865, -7172.6865, 0.0000022156387, 9.998434, 10.000614 
6.751502e+2, 1.2424352e+2, -1548811.6, -1745988.5, 129638.39, -0.020050354, -0.12045086, -1484532.6, 237868.86, 0.0, 10.001638, 9.998986 
6.751304e+2, 1.3424236e+2, -1477902.4, -1660379.6, -154763.7, 0.01055429, -0.14108585, -1389485.0, 234929.06, 0.0, 10.001411, 9.999032 
6.751129e+2, 1.4424188e+2, -1391604.1, -1521539.5, 17312.16, 0.049129065, -0.10633613, -1389337.0, 137082.58, 0.0, 10.001148, 9.999427 
6.75097e+2, 1.5424174e+2, -1325455.1, -1434072.9, 27052.455, 0.0029590921, -0.06741181, -1319090.4, 109331.27, 0.0, 10.000911, 9.999469 
6.750815e+2, 1.6424115e+2, -1250329.9, -1340330.4, 47863.09, -0.012501084, -0.07529686, -1229634.6, 100792.25, 0.0, 10.000725, 9.999529 
6.7506677e+2, 1.742399e+2, -1166036.0, -1245469.5, 52757.35, 0.025871532, -0.15569264, -1139716.8, 92719.586, 0.0, 10.000616, 9.999559 
6.75052e+2, 1.8423909e+2, -1131960.3, -1252032.8, 57182.83, 0.04178782, -0.16042769, -1109085.5, 25359.137, 0.0, 10.000495, 9.9989 
6.75037e+2, 1.9423887e+2, -1056210.4, -1169237.5, 39726.04, 0.023646884, -0.068720825, -1043644.7, -7193.4146, 0.0, 10.00036, 9.998861 
6.75022e+2, 2.0423836e+2, -918437.06, -967578.75, 31754.463, 0.007623169, -0.038677104, -902857.3, 35600.137, 0.0, 10.000269, 9.999617 
6.75007e+2, 2.1423747e+2, -818223.9, -858990.9, 55825.316, -0.0033684084, -0.097353116, -779177.1, 61285.586, 0.0, 10.000244, 9.999701 
6.749921e+2, 2.2423656e+2, -813269.4, -904665.8, 56876.156, 0.0010917765, -0.11745621, -786007.2, -43536.023, 0.0, 10.0000305, 9.998817 
6.7497724e+2, 2.3423558e+2, -786953.44, -847123.56, 34131.023, 0.026497016, -0.092325516, -771540.8, -127057.14, 0.0, 9.999563, 9.998765 
6.749622e+2, 2.442349e+2, -653455.8, -632054.6, 29569.2, 0.022734545, -0.07493236, -611309.4, -64818.906, 0.0, 9.999376, 9.999659 
6.749467e+2, 2.5423464e+2, -521484.1, -507002.84, 50895.09, -0.019798128, -0.0758398, -462835.94, -14346.311, 0.0, 9.999563, 9.999754 
6.749314e+2, 2.642338e+2, -477284.9, -490373.78, 40673.51, -0.025416337, -0.11282947, -442632.7, -92136.83, 0.0, 9.9994335, 9.999257 
6.7491627e+2, 2.7423215e+2, -461518.66, -433477.5, 31826.857, 0.020064034, -0.2003962, -412719.84, -160208.89, 0.0, 9.998876, 9.999244 
6.749008e+2, 2.8423157e+2, -384826.72, -318207.47, 27666.6, 0.027164947, -0.19238827, -308216.16, -153700.25, 0.0, 9.998611, 9.99949 
6.7488486e+2, 2.9423234e+2, -267192.78, -211184.39, 22241.035, -0.021695467, -0.07141841, -203426.9, -146919.05, 0.0000000040864183, 9.998748, 9.999485 
6.7486864e+2, 3.0423078e+2, -219265.83, -156772.9, -16732.7, -0.021934157, -0.17298318, -152574.7, -152574.7, 0.0000003121116, 9.998713, 9.999543 
6.748527e+2, 3.142297e+2, -172552.31, 6813.3535, 38043.66, 0.05723304, -0.2391302, 14548.849, 14548.849, 0.0000020914758, 9.998428, 10.000802 
6.8515146e+2, 1.242597e+2, -1603879.8, -1743468.5, 124706.8, -0.035417724, -0.12325028, -1530764.9, 191478.17, 0.0, 10.001136, 9.999248 
6.8513197e+2, 1.3425861e+2, -1493866.3, -1645343.8, -125861.31, 0.03394895, -0.1552011, -1422712.4, 201541.56, 0.0, 10.001205, 9.999234 
6.8511385e+2, 1.4425835e+2, -1405758.1, -1533563.3, 44661.33, 0.028511098, -0.10804323, -1391698.1, 134559.19, 0.0, 10.001076, 9.999379 
6.850977e+2, 1.5425812e+2, -1353448.0, -1455704.0, 31964.977, -0.0049383487, -0.07206233, -1344278.1, 83982.65, 0.0, 10.000755, 9.999394 
6.8508214e+2, 1.6425747e+2, -1261936.9, -1344608.0, 49792.36, -0.011287619, -0.081804335, -1238558.4, 91708.29, 0.0, 10.000641, 9.999538 
6.850676e+2, 1.7425622e+2, -1139882.1, -1231337.3, 49650.527, 0.034734387, -0.16307202, -1118110.1, 114165.78, 0.0, 10.00079, 9.999572 
6.850527e+2, 1.8425538e+2, -1101591.4, -1244169.0, 56122.99, 0.048172142, -0.16927603, -1082150.5, 52134.035, 0.0, 10.000732, 9.998838 
6.850374e+2, 1.9425508e+2, -1052388.3, -1173699.1, 70073.07, 0.012444877, -0.079731524, -1020365.06, 15926.73, 0.0, 10.000417, 9.998801 
6.850222e+2, 2.0425457e+2, -932697.1, -966996.7, 66562.27, -0.003985856, -0.049469054, -881110.8, 57187.15, 0.0, 10.000141, 9.999681 
6.8500715e+2, 2.1425378e+2, -859944.1, -870998.9, 47555.785, 0.006957617, -0.105612576, -817595.56, 22706.842, 0.0, 9.999923, 9.999773 
6.849921e+2, 2.2425291e+2, -848253.44, -922291.56, 39786.945, 0.013074647, -0.12275759, -830927.2, -88616.86, 0.0, 9.999793, 9.998812 
6.849768e+2, 2.3425199e+2, -755637.5, -832784.56, 61718.066, 0.013487218, -0.092759244, -721430.3, -77107.7, 0.0, 9.999783, 9.998757 
6.8496156e+2, 2.4425134e+2, -616658.4, -615055.2, 71382.24, 0.0069598397, -0.07139719, -544470.0, 1859.2888, 0.0, 9.999633, 9.999651 
6.8494624e+2, 2.542511e+2, -559352.25, -525574.3, 49986.48, -0.00966569, -0.07119221, -489700.75, -41372.063, 0.0, 9.999306, 9.999749 
6.8493086e+2, 2.6425022e+2, -524868.8, -514799.06, 13734.708, -0.008525193, -0.10862551, -505205.47, -154870.38, 0.0, 9.999115, 9.999243 
6.849153e+2, 2.7424854e+2, -430107.75, -420103.22, 17710.902, 0.019885398, -0.19852914, -406701.72, -154351.38, 0.0, 9.9991, 9.999227 
6.8489957e+2, 2.8424793e+2, -331278.38, -296376.88, 33263.957, 0.023080625, -0.19262594, -276264.1, -121908.52, 0.0, 9.998997, 9.999454 
6.848836e+2, 2.942486e+2, -263699.4, -212938.89, 33869.32, -0.013960044, -0.07405715, -195995.53, -139647.52, 0.0000000009738006, 9.998787, 9.9994545 
6.848674e+2, 3.0424705e+2, -222868.27, -138962.08, -17126.1, -0.015730383, -0.18252145, -135601.11, -135601.11, 0.00000022618863, 9.998604, 9.999718 
6.848512e+2, 3.1424612e+2, -178325.33, -5637.5474, 15033.923, 0.06804382, -0.25285858, -4338.49, -4338.49, 0.0000018666766, 9.998431, 10.000714 
6.951528e+2, 1.2427608e+2, -1560419.8, -1654318.8, 115284.14, -0.0107315965, -0.116928175, -1482891.5, 239192.11, 0.0, 10.001139, 9.999859 
6.95133e+2, 1.3427557e+2, -1457237.8, -1567145.3, -123820.49, 0.025079504, -0.14435697, -1376724.0, 247362.77, 0.0, 10.001197, 9.999775 
6.951142e+2, 1.4427543e+2, -1427532.1, -1576795.4, 32811.918, -0.03670759, -0.10099318, -1420637.8, 105450.43, 0.0, 10.001067, 9.999086 
6.950985e+2, 1.5427427e+2, -1377167.4, -1506512.3, 20883.031, 0.0033979977, -0.12074542, -1373879.4, 54221.918, 0.0, 10.000762, 9.9990425 
6.950831e+2, 1.6427349e+2, -1267210.0, -1356864.0, 54105.41, 0.020080235, -0.12234387, -1241774.3, 88335.336, 0.0, 10.000647, 9.999452 
6.9506824e+2, 1.7427309e+2, -1145346.5, -1241792.0, 55135.477, 0.0246243, -0.11190131, -1120320.6, 111791.24, 0.0, 10.000786, 9.999502 
6.950531e+2, 1.842724e+2, -1079146.5, -1196112.5, 44891.35, 0.021768626, -0.11413278, -1063903.8, 70214.695, 0.0, 10.000726, 9.999172 
6.9503766e+2, 1.9427134e+2, -1026688.7, -1120102.6, 58300.145, 0.003362851, -0.13675946, -998693.25, 37436.68, 0.0, 10.000415, 9.99917 
6.950223e+2, 2.0427062e+2, -963111.5, -1030457.3, 57542.67, -0.0042456747, -0.1273922, -930113.44, 8024.4487, 0.0, 10.000141, 9.999246 
6.95007e+2, 2.1427032e+2, -895574.56, -944627.3, 39220.324, 0.0038957282, -0.083497845, -873843.25, -33702.258, 0.0, 9.999921, 9.9992695 
6.949917e+2, 2.2426972e+2, -811673.0, -846465.1, 38582.12, -0.0037282996, -0.07249642, -786746.5, -44599.477, 0.0, 9.999793, 9.999332 
6.949761e+2, 2.3426871e+2, -713299.94, -745425.25, 61534.504, -0.0319014, -0.109934464, -665766.2, -21609.559, 0.0, 9.9997835, 9.999357 
6.949609e+2, 2.4426787e+2, -651066.1, -686864.56, 59672.18, -0.020466205, -0.11794428, -606666.5, -60501.746, 0.0, 9.999634, 9.999158 
6.9494605e+2, 2.5426725e+2, -600641.9, -610617.56, 37666.77, 0.04265345, -0.09583341, -567634.2, -119463.375, 0.0, 9.999303, 9.999167 
6.9493055e+2, 2.6426652e+2, -517183.97, -497777.63, 12274.387, 0.047750723, -0.095979586, -491834.34, -141656.8, 0.0, 9.99911, 9.999362 
6.949139e+2, 2.7426556e+2, -417946.53, -394846.56, 17524.447, -0.021830669, -0.12897383, -385408.28, -133223.48, 0.0, 9.9991, 9.9994 
6.9489807e+2, 2.8426486e+2, -327215.22, -288842.84, 25870.326, -0.028730964, -0.14286436, -275820.6, -121630.77, 0.0, 9.999, 9.999504 
6.94883e+2, 2.9426438e+2, -261221.75, -206799.08, 26542.012, 0.042966723, -0.1447739, -195998.11, -139805.6, 0.000000000021633938, 9.998782, 9.999499 
6.9486666e+2, 3.0426288e+2, -230125.38, -152002.14, -23735.465, 0.052190963, -0.24552901, -145356.17, -145356.17, 0.00000014519733, 9.998595, 9.999632 
6.948493e+2, 3.142634e+2, -206377.64, -61805.023, 7179.27, 0.03197034, -0.1638121, -61449.387, -61449.387, 0.0000015881137, 9.998423, 10.000333 
7.051539e+2, 1.24292925e+2, -1600795.9, -1667386.3, 145051.28, -0.0012409117, -0.122788586, -1485267.5, 236650.39, 0.0, 10.000834, 9.999914 
7.051341e+2, 1.3429248e+2, -1529154.4, -1608482.4, -124943.266, 0.038141668, -0.13813925, -1437730.4, 186190.77, 0.0, 10.000733, 9.999713 
7.051148e+2, 1.4429235e+2, -1464613.1, -1590279.1, 22048.438, -0.06679769, -0.09105137, -1460856.9, 65065.254, 0.0, 10.000794, 9.999125 
7.050995e+2, 1.542909e+2, -1318928.8, -1473876.3, 39253.074, 0.009534222, -0.1472379, -1309552.1, 118385.22, 0.0, 10.001143, 9.999083 
7.050841e+2, 1.6429001e+2, -1213244.4, -1351920.6, 76698.13, 0.03373995, -0.1498937, -1179188.3, 150758.31, 0.0, 10.001109, 9.999262 
7.050687e+2, 1.7428987e+2, -1189937.8, -1285839.3, 66946.28, 0.007457226, -0.09431202, -1155541.1, 76407.07, 0.0, 10.000579, 9.999298 
7.050534e+2, 1.8428926e+2, -1121673.1, -1192118.4, 51650.668, -0.0004970689, -0.08620806, -1094378.4, 39575.63, 0.0, 10.00033, 9.999389 
7.0503813e+2, 1.942881e+2, -1004419.7, -1082224.5, 55080.07, 0.009711108, -0.14486827, -975889.06, 60075.72, 0.0, 10.00045, 9.9994135 
7.0502263e+2, 2.0428728e+2, -939275.9, -1038124.8, 53238.535, 0.007044036, -0.15037465, -916056.56, 21916.531, 0.0, 10.000387, 9.999075 
7.050069e+2, 2.1428692e+2, -884218.6, -961319.06, 56737.035, -0.01036815, -0.09318296, -854174.3, -14196.337, 0.0, 10.000095, 9.99907 
7.0499134e+2, 2.2428633e+2, -789859.6, -821316.06, 62043.977, -0.023086153, -0.074475124, -741581.4, 402.6532, 0.0, 9.999881, 9.999462 
7.049759e+2, 2.3428547e+2, -703649.9, -723286.56, 51476.293, -0.03042763, -0.11201503, -661063.94, -17072.615, 0.0, 9.999775, 9.999513 
7.0496064e+2, 2.442846e+2, -661051.75, -712952.9, 36474.19, -0.008938693, -0.12292541, -642238.5, -96238.77, 0.0, 9.999658, 9.998967 
7.0494556e+2, 2.5428373e+2, -584179.94, -627339.3, 40792.414, 0.051012024, -0.105929606, -559610.94, -111601.445, 0.0, 9.999521, 9.998947 
7.049298e+2, 2.6428294e+2, -468329.63, -470010.47, 34874.258, 0.04934792, -0.10034435, -434285.66, -84268.56, 0.0, 9.999427, 9.9994 
7.04913e+2, 2.7428225e+2, -370264.88, -365029.25, 31576.42, -0.032571856, -0.11420235, -335962.34, -83940.8, 0.0, 9.999398, 9.999461 
7.0489705e+2, 2.8428152e+2, -298447.97, -281836.66, 22051.459, -0.03714671, -0.13076982, -266578.53, -112551.92, 0.0, 9.999228, 9.999442 
7.048819e+2, 2.9428068e+2, -253005.63, -210357.23, 13551.451, 0.056799337, -0.16238326, -206415.58, -150382.48, 0.0, 9.998871, 9.999432 
7.0486546e+2, 3.042794e+2, -204507.16, -140209.0, -26828.578, 0.06575759, -0.23859356, -130485.23, -130485.23, 0.00000008201181, 9.998774, 9.999627 
7.0484793e+2, 3.1428015e+2, -139646.92, -55204.55, 8618.423, 0.032299325, -0.12996252, -54333.906, -54333.906, 0.0000012936833, 9.998989, 10.000106 
7.1515465e+2, 1.2431026e+2, -1635297.5, -1738242.6, 124085.195, -0.0071879504, -0.13989235, -1552432.6, 169313.1, 0.0, 10.00083, 9.999432 
7.1513516e+2, 1.3430937e+2, -1571681.3, -1699275.6, -128275.43, 0.068974644, -0.13757366, -1492214.1, 131542.63, 0.0, 10.000745, 9.999085 
7.151156e+2, 1.4430918e+2, -1439492.4, -1539975.1, 33198.223, -0.066721566, -0.080118544, -1429514.9, 96244.125, 0.0, 10.000803, 9.999466 
7.151007e+2, 1.5430795e+2, -1291589.8, -1415297.0, 52347.19, 0.011694182, -0.15156469, -1272411.9, 155356.92, 0.0, 10.001135, 9.999488 
7.1508515e+2, 1.6430707e+2, -1234030.0, -1393190.8, 58904.09, 0.028653136, -0.16431238, -1214601.6, 115175.805, 0.0, 10.0011, 9.998984 
7.1506906e+2, 1.7430659e+2, -1212200.3, -1333138.1, 47601.543, -0.01720754, -0.11027006, -1195712.0, 36072.605, 0.0, 10.000583, 9.998972 
7.150535e+2, 1.8430601e+2, -1115142.9, -1179730.5, 54202.844, -0.01954061, -0.08554691, -1084342.8, 49448.258, 0.0, 10.000335, 9.999473 
7.150388e+2, 1.9430536e+2, -997186.5, -1066346.8, 59415.414, 0.029258365, -0.10376373, -963020.94, 72775.33, 0.0, 10.000445, 9.999525 
7.150232e+2, 2.0430455e+2, -932627.1, -1024032.56, 42635.96, 0.027966995, -0.118458495, -915827.3, 21976.168, 0.0, 10.000385, 9.999173 
7.150067e+2, 2.1430355e+2, -877426.8, -947226.2, 45638.984, -0.03633842, -0.13497554, -854873.0, -15059.646, 0.0, 10.000094, 9.999167 
7.14991e+2, 2.2430278e+2, -807858.2, -859166.9, 56995.195, -0.045097496, -0.12847307, -771009.75, -29188.455, 0.0, 9.999882, 9.999202 
7.1497613e+2, 2.3430231e+2, -724076.25, -765589.8, 47563.902, 0.017557269, -0.09859774, -692937.3, -49110.688, 0.0, 9.999774, 9.999224 
7.1496075e+2, 2.4430157e+2, -652961.44, -696038.1, 31283.654, 0.04087784, -0.08572401, -636518.6, -90684.44, 0.0, 9.999657, 9.9990835 
7.149447e+2, 2.5430053e+2, -573823.94, -606131.1, 35877.25, 0.013123844, -0.10075309, -550631.44, -102786.84, 0.0, 9.999523, 9.999092 
7.149286e+2, 2.642995e+2, -470910.97, -476318.47, 33517.484, -0.0057232506, -0.12203442, -439988.38, -90134.69, 0.0, 9.999431, 9.999355 
7.1491265e+2, 2.7429855e+2, -374452.25, -373702.75, 30925.6, -0.011919413, -0.15685542, -343149.63, -91288.89, 0.0, 9.999397, 9.999402 
7.148966e+2, 2.8429785e+2, -311472.3, -308334.5, 9318.724, -0.0019620557, -0.15804884, -300453.53, -146587.39, 0.0, 9.999225, 9.999262 
7.148804e+2, 2.942975e+2, -266367.56, -237372.05, 463.83, 0.024087075, -0.1229757, -237364.63, -181495.13, 0.0, 9.998868, 9.999248 
7.148638e+2, 3.0429658e+2, -198276.78, -127857.22, -19702.6, 0.021666698, -0.15824018, -122719.49, -122719.49, 0.00000004119849, 9.9987755, 9.999712 
7.148473e+2, 3.1429648e+2, -145431.1, -66922.57, 15790.984, 0.06827745, -0.1427814, -63865.46, -63865.46, 0.0000010048329, 9.998987, 10.000027 
7.251551e+2, 1.2432745e+2, -1694485.4, -1769760.8, 88571.805, -0.02344265, -0.13363892, -1635886.1, 85690.8, 0.0, 10.000434, 9.999407 
7.2513616e+2, 1.3432628e+2, -1540969.8, -1701702.1, -111562.25, 0.090049125, -0.14283222, -1483841.0, 139750.34, 0.0, 10.001031, 9.998929 
7.251165e+2, 1.4432605e+2, -1385923.5, -1508174.3, 47303.293, -0.07087287, -0.08325509, -1369757.9, 155836.27, 0.0, 10.001146, 9.999517 
7.2510153e+2, 1.5432505e+2, -1350168.6, -1436693.3, 40546.8, 0.0029000342, -0.13900271, -1334137.9, 93463.29, 0.0, 10.000704, 9.999548 
7.2508585e+2, 1.6432418e+2, -1307561.4, -1426647.0, 42667.332, 0.018540584, -0.1549831, -1293852.3, 35757.043, 0.0, 10.0005865, 9.9990015 
7.250697e+2, 1.7432344e+2, -1166361.9, -1309840.1, 55548.047, -0.022463715, -0.12693313, -1147370.1, 84248.89, 0.0, 10.000892, 9.998983 
7.250541e+2, 1.8432282e+2, -1049896.0, -1162870.6, 65331.895, -0.02495533, -0.101485305, -1020017.4, 113608.836, 0.0, 10.000846, 9.999342 
7.25039e+2, 1.9432238e+2, -1020556.06, -1092924.5, 52034.582, 0.015956488, -0.085834645, -993361.3, 42268.816, 0.0, 10.000353, 9.999387 
7.250233e+2, 2.0432158e+2, -962214.9, -1025390.8, 30317.895, 0.016132703, -0.096781075, -950019.56, -12382.525, 0.0, 10.000128, 9.999288 
7.250069e+2, 2.1432038e+2, -845598.9, -917331.75, 35289.754, -0.034570333, -0.14802474, -831148.6, 8499.1455, 0.0, 10.00025, 9.999298 
7.249911e+2, 2.2431949e+2, -773930.9, -859704.6, 47864.84, -0.035335124, -0.15205345, -752550.2, -10893.656, 0.0, 10.000188, 9.99905 
7.2497606e+2, 2.3431905e+2, -718605.4, -782158.56, 46564.492, 0.028651781, -0.10181868, -694008.2, -50345.617, 0.0, 9.999894, 9.999051 
7.249605e+2, 2.4431837e+2, -630618.44, -671425.6, 41185.88, 0.04508419, -0.0812478, -605059.2, -59389.266, 0.0, 9.99975, 9.9992075 
7.2494423e+2, 2.5431737e+2, -522477.6, -564783.3, 45965.418, -0.0012017445, -0.104670234, -493031.4, -45352.67, 0.0, 9.9998045, 9.999241 
7.24928e+2, 2.6431635e+2, -447308.22, -476641.63, 34710.344, -0.018437915, -0.12999187, -424293.1, -74605.46, 0.0, 9.999644, 9.99925 
7.249121e+2, 2.7431527e+2, -411610.03, -405927.4, 26145.453, 0.004296853, -0.16440205, -382469.34, -130772.74, 0.0, 9.999204, 9.999275 
7.248959e+2, 2.8431448e+2, -343753.56, -328371.16, 12188.655, 0.013813323, -0.16604307, -321649.94, -167946.63, 0.0, 9.9990225, 9.999222 
7.248792e+2, 2.943141e+2, -220777.27, -218821.34, 15168.315, -0.00027472887, -0.12841879, -204599.5, -148892.72, 0.0, 9.999196, 9.999217 
7.248625e+2, 3.0431348e+2, -127887.305, -92645.56, 3828.0325, -0.0076586315, -0.13426365, -92234.55, -92234.55, 0.000000018939705, 9.999255, 9.9997225 
7.248466e+2, 3.143129e+2, -128412.17, -65646.39, 29884.094, 0.094169274, -0.16830517, -53694.02, -53694.02, 0.0000007295325, 9.999136, 9.999964 
7.351552e+2, 1.2434452e+2, -1667721.4, -1712760.9, 90475.72, -0.05468061, -0.10543164, -1597004.9, 124406.19, 0.0, 10.000427, 9.999802 
7.3513734e+2, 1.3434328e+2, -1521993.4, -1659116.3, -89565.93, 0.10168704, -0.15217325, -1477759.8, 145664.9, 0.0, 10.0010195, 9.999227 
7.351176e+2, 1.4434303e+2, -1402541.3, -1541573.0, 32779.375, -0.079360545, -0.09825429, -1395200.5, 130226.63, 0.0, 10.001141, 9.999291 
7.35102e+2, 1.543422e+2, -1367744.1, -1475013.3, 24638.844, -0.019081654, -0.111259885, -1362355.5, 65078.582, 0.0, 10.000711, 9.999282 
7.3508626e+2, 1.6434136e+2, -1286442.3, -1384043.0, 52114.35, 0.0010573287, -0.12416707, -1263846.8, 65595.28, 0.0, 10.000591, 9.999292 
7.3507077e+2, 1.7434047e+2, -1143854.0, -1262059.3, 66900.03, -0.009740474, -0.14303498, -1113688.9, 117762.13, 0.0, 10.000887, 9.999314 
7.3505497e+2, 1.8433972e+2, -1073645.3, -1211389.3, 48105.066, -0.01824173, -0.13273954, -1058508.6, 74950.63, 0.0, 10.000841, 9.999012 
7.350389e+2, 1.9433916e+2, -1046816.0, -1147794.6, 33384.176, -0.030767648, -0.09102785, -1036777.06, -1310.8038, 0.0, 10.000353, 9.99901 
7.35023e+2, 2.043384e+2, -953049.4, -1007091.6, 32976.3, -0.028762676, -0.085198216, -937437.44, 36.049362, 0.0, 10.00013, 9.999413 
7.350074e+2, 2.143374e+2, -834556.8, -894109.3, 39855.813, -0.006250646, -0.13183649, -814582.6, 24898.473, 0.0, 10.000248, 9.999458 
7.349916e+2, 2.2433649e+2, -776986.06, -866004.44, 37314.652, 0.004939709, -0.1448417, -763413.8, -21924.264, 0.0, 10.000187, 9.999008 
7.3497564e+2, 2.343357e+2, -722362.44, -790214.5, 35449.676, 0.0014425626, -0.12149295, -707220.56, -63721.45, 0.0, 9.999895, 9.998997 
7.3495984e+2, 2.4433498e+2, -620806.5, -651570.75, 42191.76, 0.002413453, -0.109800085, -591280.3, -45773.496, 0.0, 9.999752, 9.999344 
7.349441e+2, 2.5433427e+2, -511897.6, -542770.94, 48332.46, 0.0076062307, -0.118152045, -476596.53, -29084.71, 0.0, 9.999804, 9.9993925 
7.3492795e+2, 2.6433343e+2, -459608.9, -501819.1, 19262.898, 0.011105812, -0.12407094, -452139.8, -102620.88, 0.0, 9.999642, 9.999079 
7.349114e+2, 2.7433243e+2, -426063.5, -435268.63, 9654.159, 0.015268516, -0.13435738, -419970.9, -168442.05, 0.0, 9.999201, 9.999075 
7.348948e+2, 2.843314e+2, -335691.6, -311640.9, 17461.67, 0.00869941, -0.15296769, -302464.4, -148926.53, 0.0, 9.999022, 9.999337 
7.3487824e+2, 2.943305e+2, -211249.27, -198562.63, 23222.244, -0.017952096, -0.18141127, -180832.92, -125288.02, 0.0, 9.999193, 9.999358 
7.3486155e+2, 3.0433008e+2, -134070.02, -105196.57, 753.91785, -0.024492646, -0.1701229, -105176.9, -105176.9, 0.0000000073965225, 9.999254, 9.999637 
7.348459e+2, 3.1432948e+2, -135926.22, -79813.78, 23512.006, 0.10575394, -0.19651467, -71264.45, -71264.45, 0.0000004773962, 9.99913, 9.999869 
7.4515545e+2, 1.2436101e+2, -1698358.3, -1686258.9, 75335.29, -0.049740076, -0.11182891, -1616730.8, 104520.22, 0.0, 10.00004, 10.00017 
7.4513805e+2, 1.343603e+2, -1581188.3, -1658560.4, -89440.625, 0.10446928, -0.13037814, -1522425.8, 100832.3, 0.0, 10.000488, 9.999485 
7.4511826e+2, 1.4436015e+2, -1460179.4, -1571597.9, 14218.931, -0.10146467, -0.08186175, -1458393.4, 66865.91, 0.0, 10.000752, 9.999272 
7.4510264e+2, 1.5435901e+2, -1347482.1, -1469848.1, 21729.607, -0.028732676, -0.12124886, -1343738.0, 83531.62, 0.0, 10.00087, 9.999241 
7.450869e+2, 1.6435814e+2, -1251368.4, -1358837.6, 56372.598, -0.00087568007, -0.13737196, -1227223.1, 102054.65, 0.0, 10.000797, 9.999365 
7.450714e+2, 1.743576e+2, -1197468.4, -1279387.8, 52746.15, -0.009504843, -0.13102713, -1171645.9, 59637.383, 0.0, 10.000483, 9.99939 
7.4505556e+2, 1.843569e+2, -1140965.5, -1245076.6, 30545.555, -0.019907614, -0.11839909, -1132665.3, 625.44, 0.0, 10.000383, 9.999001 
7.450392e+2, 1.9435605e+2, -1017188.0, -1135932.8, 41425.176, -0.040242575, -0.10251097, -1004164.75, 31135.688, 0.0, 10.0005665, 9.998989 
7.450232e+2, 2.043552e+2, -902312.2, -991264.0, 49707.574, -0.037250515, -0.10110554, -880087.6, 57221.117, 0.0, 10.000516, 9.999335 
7.4500763e+2, 2.1435434e+2, -851558.5, -911216.56, 38282.605, -0.0024110263, -0.12560676, -832855.8, 6459.5, 0.0, 10.000171, 9.999378 
7.449918e+2, 2.243535e+2, -798513.7, -866720.1, 30720.309, 0.010295492, -0.1318329, -786717.4, -45394.273, 0.0, 9.999998, 9.999095 
7.449755e+2, 2.3435271e+2, -694219.06, -765618.25, 39894.383, -0.0061000595, -0.12081778, -676383.4, -33050.945, 0.0, 10.000041, 9.999095 
7.449596e+2, 2.4435192e+2, -589334.94, -635873.75, 49482.04, -0.006089617, -0.11784115, -557924.06, -12583.844, 0.0, 9.999968, 9.999347 
7.449439e+2, 2.543512e+2, -521371.25, -548126.9, 43373.023, 0.013936205, -0.12967992, -489359.78, -42014.164, 0.0, 9.9997425, 9.999385 
7.4492764e+2, 2.6435044e+2, -468191.06, -508691.97, 7898.367, 0.019462945, -0.12741469, -466705.25, -117353.055, 0.0, 9.999594, 9.999055 
7.449107e+2, 2.7434957e+2, -375767.88, -413714.1, 10717.244, 0.008996183, -0.116153836, -372950.2, -121589.73, 0.0, 9.9995575, 9.999051 
7.44894e+2, 2.8434846e+2, -270700.22, -285195.9, 29898.16, 0.002473714, -0.14362231, -247183.94, -93813.33, 0.0, 9.99949, 9.999293 
7.4487764e+2, 2.9434708e+2, -187147.23, -192173.36, 21622.61, -0.005138027, -0.21628276, -167892.14, -112510.125, 0.0, 9.999381, 9.999311 
7.4486095e+2, 3.043468e+2, -117313.664, -100437.734, -6315.7197, -0.016019419, -0.18656118, -98335.89, -98335.89, 0.0000000015345106, 9.999384, 9.999607 
7.4484503e+2, 3.1434608e+2, -72298.49, -39764.598, 18500.713, 0.087601274, -0.22368816, -31396.408, -31396.408, 0.00000026410652, 9.999527, 9.999953 
7.5515586e+2, 1.2437704e+2, -1676023.6, -1641760.4, 72093.484, -0.015328954, -0.14584257, -1584791.0, 136304.19, 0.0, 10.000046, 10.000473 
7.551385e+2, 1.3437739e+2, -1566667.9, -1628269.0, -72621.76, 0.09540491, -0.080222435, -1518585.0, 104506.37, 0.0, 10.000487, 9.999693 
7.5511867e+2, 1.4437738e+2, -1447727.4, -1545515.8, 18230.898, -0.1392139, -0.036509994, -1444439.1, 80651.49, 0.0, 10.0007515, 9.999453 
7.551035e+2, 1.5437554e+2, -1334652.4, -1443122.3, 26176.967, -0.026526101, -0.16577202, -1328665.6, 98441.62, 0.0, 10.000869, 9.999425 
7.5508785e+2, 1.6437459e+2, -1261097.5, -1379319.3, 45237.43, 0.011683674, -0.19142991, -1245773.8, 83342.43, 0.0, 10.000798, 9.999225 
7.550717e+2, 1.743748e+2, -1208669.4, -1303283.9, 40945.41, -0.02298813, -0.09232868, -1193410.6, 37704.945, 0.0, 10.000484, 9.999226 
7.550558e+2, 1.8437436e+2, -1120122.9, -1202082.4, 35969.57, -0.03141635, -0.060532406, -1106576.0, 26544.45, 0.0, 10.000384, 9.999296 
7.5504005e+2, 1.9437309e+2, -994287.44, -1088499.3, 48271.88, -0.013327218, -0.11999302, -973946.0, 61186.523, 0.0, 10.0005665, 9.999315 
7.55024e+2, 2.0437202e+2, -922247.94, -1032663.06, 37190.7, -0.010315124, -0.14366432, -910889.56, 26253.12, 0.0, 10.000515, 9.999052 
7.5500757e+2, 2.1437123e+2, -874105.44, -958126.06, 24932.447, -0.024500772, -0.12900135, -867264.0, -28113.63, 0.0, 10.00017, 9.999057 
7.549915e+2, 2.2437054e+2, -783284.3, -835000.6, 31096.414, -0.020676415, -0.11275753, -768699.5, -27542.477, 0.0, 9.999997, 9.999313 
7.5497574e+2, 2.3437002e+2, -676609.5, -728892.56, 41582.46, 0.00576273, -0.10003854, -653634.0, -10471.65, 0.0, 10.000041, 9.999348 
7.5495976e+2, 2.4436924e+2, -599221.2, -656211.3, 41556.113, 0.019588327, -0.10527653, -577328.94, -32159.068, 0.0, 9.999966, 9.999208 
7.5494367e+2, 2.5436813e+2, -533240.9, -572801.1, 35015.82, 0.016704544, -0.13823122, -512804.6, -65624.56, 0.0, 9.999742, 9.999216 
7.549271e+2, 2.6436728e+2, -458637.94, -488893.22, 6014.519, 0.0046650786, -0.13951516, -457486.13, -108298.79, 0.0, 9.999594, 9.999191 
7.5491e+2, 2.743668e+2, -364629.63, -390186.1, 10214.622, -0.017130712, -0.1114552, -361048.72, -109857.3, 0.0, 9.999556, 9.999214 
7.548934e+2, 2.8436562e+2, -286276.8, -317806.84, 26314.012, -0.006785642, -0.13923097, -271366.72, -118165.22, 0.0, 9.99949, 9.99907 
7.5487745e+2, 2.943638e+2, -205025.53, -229929.97, 17963.78, 0.03907565, -0.22965834, -195620.14, -140402.23, 0.0, 9.999383, 9.999051 
7.5486064e+2, 3.043636e+2, -113011.15, -91778.95, -1284.9769, 0.017758941, -0.17934917, -91701.47, -91701.47, 0.00000000001992495, 9.999385, 9.999665 
7.54844e+2, 3.143627e+2, -54594.64, -1438.8918, 22801.617, 0.032207366, -0.24351977, 7001.76, 7001.76, 0.000000109993245, 9.999519, 10.00022 
7.651561e+2, 1.24394e+2, -1618385.3, -1616949.1, 99323.78, -0.021442091, -0.13927647, -1518340.9, 202588.36, 0.0, 10.000452, 10.000448 
7.6513904e+2, 1.343941e+2, -1572919.8, -1643108.1, -49300.156, 0.107829444, -0.08880771, -1547498.6, 75429.16, 0.0, 10.000497, 9.999586 
7.651193e+2, 1.4439395e+2, -1472408.8, -1549085.8, 22048.46, -0.13581595, -0.05470272, -1466520.9, 58407.445, 0.0, 10.000547, 9.999526 
7.651042e+2, 1.5439248e+2, -1358730.4, -1446203.4, 22255.305, -0.032773476, -0.15281361, -1353393.6, 73547.84, 0.0, 10.000666, 9.999503 
7.650885e+2, 1.6439167e+2, -1277771.6, -1381355.1, 31533.697, 0.004324031, -0.17352477, -1268927.0, 60022.246, 0.0, 10.000656, 9.99928 
7.650722e+2, 1.7439167e+2, -1203579.3, -1294702.1, 41951.504, -0.022290189, -0.09981676, -1187207.1, 43742.99, 0.0, 10.000493, 9.999281 
7.650562e+2, 1.8439123e+2, -1113087.8, -1191829.9, 49477.547, -0.02691699, -0.0744273, -1089228.3, 43726.613, 0.0, 10.000403, 9.999357 
7.650406e+2, 1.9439018e+2, -1013548.25, -1091173.8, 42737.457, -0.010050093, -0.117908455, -994629.56, 40335.313, 0.0, 10.000405, 9.999374 
7.650244e+2, 2.043892e+2, -943237.06, -1041281.8, 20944.627, -0.008862249, -0.1360297, -938950.25, -1976.0083, 0.0, 10.000364, 9.999064 
7.6500773e+2, 2.1438836e+2, -860445.4, -950843.3, 32228.64, -0.026401501, -0.12818895, -850131.9, -11149.128, 0.0, 10.000261, 9.999063 
7.649915e+2, 2.2438763e+2, -760129.4, -821122.75, 50826.258, -0.02264337, -0.117181346, -731352.5, 9637.1455, 0.0, 10.000146, 9.999336 
7.649757e+2, 2.343871e+2, -679233.2, -727951.6, 43542.8, 0.007808224, -0.10786724, -653699.06, -10704.638, 0.0, 10.000013, 9.999367 
7.649597e+2, 2.443863e+2, -614425.75, -671005.56, 32833.13, 0.020434825, -0.110540845, -599375.9, -54374.02, 0.0, 9.999893, 9.999142 
7.6494336e+2, 2.5438523e+2, -530521.94, -579446.6, 32759.54, 0.009327211, -0.13379933, -514099.13, -67086.53, 0.0, 9.999796, 9.999144 
7.649267e+2, 2.6438436e+2, -432834.72, -475395.5, 9096.218, -0.0035756882, -0.13482352, -430972.16, -81951.73, 0.0, 9.999768, 9.999199 
7.649097e+2, 2.7438375e+2, -325005.84, -369731.8, 1663.569, -0.016454203, -0.118957765, -324944.06, -73919.04, 0.0, 9.999822, 9.999226 
7.6489305e+2, 2.8438258e+2, -255946.03, -312020.3, 11029.592, 0.0016688379, -0.14771073, -253854.56, -100819.23, 0.0, 9.999736, 9.998991 
7.64877e+2, 2.9438078e+2, -195434.19, -235170.22, 14883.497, 0.053662844, -0.2230305, -190477.69, -135426.3, 0.0, 9.999491, 9.998963 
7.648601e+2, 3.0438066e+2, -108080.53, -119328.44, 6950.734, 0.021798955, -0.15143459, -104763.48, -104763.48, 0.0, 9.999547, 9.999398 
7.6484346e+2, 3.143792e+2, 6781.3066, 23642.39, 1080.4371, 0.010202689, -0.24463071, 23711.342, 23711.342, 0.000000028836135, 9.999959, 10.000181 
7.75156e+2, 1.24411866e+2, -1642564.0, -1665432.6, 81845.125, -0.071095884, -0.09055334, -1571358.3, 149394.69, 0.00000000003061157, 10.000443, 10.00012 
7.751398e+2, 1.3441044e+2, -1599960.4, -1699949.3, -47838.957, 0.13969266, -0.15179442, -1580759.4, 42007.26, 0.0, 10.000502, 9.999193 
7.751203e+2, 1.4440995e+2, -1473723.0, -1554069.9, 25606.375, -0.09476473, -0.13169986, -1466256.3, 58515.367, 0.0, 10.000556, 9.999489 
7.7510476e+2, 1.5440992e+2, -1360371.9, -1449728.5, 26837.465, -0.048689436, -0.08555103, -1352931.1, 73841.32, 0.0, 10.000666, 9.999479 
7.7508885e+2, 1.6440938e+2, -1261404.0, -1346675.8, 25459.17, -0.023641419, -0.0872387, -1254381.1, 74396.07, 0.0, 10.000652, 9.99952 
7.750729e+2, 1.7440826e+2, -1184795.6, -1256198.9, 35725.684, -0.0082862, -0.15209344, -1169990.5, 60796.027, 0.0, 10.000494, 9.999544 
7.7505684e+2, 1.8440758e+2, -1125005.1, -1216688.8, 48790.45, -0.00796203, -0.15749876, -1103899.3, 28894.033, 0.0, 10.000403, 9.999187 
7.7504075e+2, 1.9440736e+2, -1027701.1, -1120402.5, 42755.008, -0.031067112, -0.09603512, -1010993.25, 23803.842, 0.0, 10.000404, 9.999175 
7.7502453e+2, 2.0440678e+2, -922281.75, -997201.75, 16741.307, -0.03383509, -0.079191014, -918711.0, 18092.295, 0.0, 10.000361, 9.999369 
7.750082e+2, 2.1440573e+2, -837246.3, -902627.3, 28112.541, -0.008421019, -0.1239585, -826820.9, 11991.456, 0.0, 10.000261, 9.999393 
7.7499187e+2, 2.2440477e+2, -773157.44, -847992.3, 45427.957, 0.003799135, -0.14566414, -751721.1, -10900.285, 0.0, 10.000145, 9.999152 
7.7497566e+2, 2.3440395e+2, -694135.4, -759140.3, 38645.24, -0.0013970233, -0.14407377, -676141.6, -33313.13, 0.0, 10.000013, 9.999153 
7.749593e+2, 2.4440318e+2, -614001.9, -669852.3, 28790.854, -0.005594925, -0.13365832, -601818.1, -56982.063, 0.0, 9.999892, 9.99915 
7.7494293e+2, 2.5440252e+2, -529151.06, -576011.8, 29317.588, -0.009444318, -0.1171445, -515051.44, -68208.16, 0.0, 9.999793, 9.999169 
7.7492636e+2, 2.6440164e+2, -442325.44, -494927.3, 11026.184, -0.0054536243, -0.113495275, -440107.7, -91256.26, 0.0, 9.999766, 9.999066 
7.7490973e+2, 2.7440047e+2, -335280.22, -391570.38, 4225.2666, 0.010780344, -0.13653208, -334964.8, -84103.63, 0.0, 9.999824, 9.999076 
7.7489305e+2, 2.8439927e+2, -249033.42, -298207.44, 2278.4863, 0.02619735, -0.16736956, -248928.06, -96056.125, 0.0, 9.999738, 9.999085 
7.748763e+2, 2.9439804e+2, -188470.13, -219785.8, 6807.664, 0.034370344, -0.19914338, -187054.23, -132171.73, 0.0, 9.999486, 9.999072 
7.7485937e+2, 3.0439788e+2, -153089.98, -211629.48, 22323.416, -0.007277513, -0.10372459, -145548.69, -145548.69, 0.0, 9.999542, 9.998767 
7.748435e+2, 3.143955e+2, -20958.762, -34912.9, 14899.359, 0.019497052, -0.2224889, -11483.767, -11483.767, 0.0000000029769756, 9.999963, 9.999778 
7.851563e+2, 1.244289e+2, -1667462.9, -1680167.5, 51325.59, -0.07244874, -0.088562615, -1622098.0, 98488.125, 0.0000000009851104, 10.000285, 10.000096 
7.851404e+2, 1.3442753e+2, -1558874.5, -1687968.5, -38770.676, 0.12578735, -0.1381736, -1548125.5, 74473.81, 0.0, 10.000817, 9.999125 
7.851209e+2, 1.4442685e+2, -1427258.0, -1539430.1, 30088.488, -0.107042834, -0.12978794, -1419696.9, 104909.47, 0.0, 10.000907, 9.999421 
7.851054e+2, 1.544268e+2, -1387645.9, -1470319.6, 27413.258, -0.035655297, -0.077759326, -1379382.1, 47225.79, 0.0, 10.000511, 9.999413 
7.8508955e+2, 1.6442631e+2, -1289518.5, -1339861.4, 28848.906, -0.006720205, -0.07895664, -1276403.4, 52208.754, 0.0, 10.000373, 9.9997015 
7.850733e+2, 1.7442535e+2, -1162140.0, -1224019.5, 33771.465, -0.01320816, -0.14941032, -1147278.3, 83341.03, 0.0, 10.000558, 9.999735 
7.850571e+2, 1.8442471e+2, -1110276.8, -1206669.4, 43984.426, -0.016991314, -0.16013022, -1093223.4, 39401.664, 0.0, 10.000492, 9.999213 
7.850411e+2, 1.9442448e+2, -1069032.1, -1138267.8, 53060.277, -0.024091747, -0.102495626, -1040295.5, -5666.2314, 0.0, 10.000113, 9.999192 
7.850248e+2, 2.0442398e+2, -971178.3, -1014014.3, 35986.938, -0.0195033, -0.08060111, -950718.0, -14083.114, 0.0, 9.999998, 9.999429 
7.8500855e+2, 2.1442315e+2, -840046.94, -897400.56, 27065.566, 0.0034348734, -0.10894697, -829291.5, 9350.685, 0.0, 10.000214, 9.999453 
7.849921e+2, 2.2442223e+2, -755829.0, -836073.8, 33841.82, 0.010133914, -0.1318958, -743462.56, -2812.4211, 0.0, 10.000249, 9.999183 
7.8497565e+2, 2.344212e+2, -684953.7, -751256.1, 44077.414, -0.0057060444, -0.15469751, -662952.2, -20293.16, 0.0, 10.000064, 9.999182 
7.849592e+2, 2.4442033e+2, -605315.44, -672142.9, 46108.043, -0.014317022, -0.1518228, -581786.9, -37119.65, 0.0, 9.999981, 9.999091 
7.8494275e+2, 2.5441974e+2, -500615.84, -569838.94, 39555.43, -0.014316723, -0.121056594, -482667.03, -35992.867, 0.0, 10.000022, 9.999102 
7.849263e+2, 2.644189e+2, -414289.16, -484753.5, 21009.145, -0.0063909413, -0.110923074, -408500.72, -59818.38, 0.0, 9.999973, 9.999037 
7.849096e+2, 2.744177e+2, -336544.38, -395400.88, 22691.602, 0.013752881, -0.13735461, -328811.75, -78119.22, 0.0, 9.999829, 9.999046 
7.848928e+2, 2.8441635e+2, -239798.36, -301955.9, 19825.861, 0.026620677, -0.17084518, -234013.14, -81309.13, 0.0, 9.999837, 9.999012 
7.84876e+2, 2.9441503e+2, -116487.73, -193927.58, 9252.717, 0.02520222, -0.20524967, -115397.54, -60681.72, 0.0, 10.000019, 9.998992 
7.8485894e+2, 3.044148e+2, -105691.625, -213195.14, 36361.61, -0.020931, -0.10423341, -94547.945, -94547.945, 0.0, 9.999973, 9.9985485 
7.848432e+2, 3.1441242e+2, -62058.883, -49327.87, 59925.152, 0.009573798, -0.19850415, 4568.913, 4568.913, 0.0, 9.999658, 9.9998255 
7.9515696e+2, 1.2444525e+2, -1648893.3, -1644082.5, 53416.633, -0.035674956, -0.12486814, -1593017.1, 127410.04, 0.0000000034592607, 10.000294, 10.00034 
7.9514056e+2, 1.3444534e+2, -1543704.9, -1654768.5, -19198.633, 0.06731619, -0.052111167, -1540479.9, 81946.055, 0.0, 10.00081, 9.999355 
7.9512113e+2, 1.4444464e+2, -1435159.1, -1554241.9, 15533.939, -0.1708679, -0.052950718, -1433166.1, 91266.71, 0.0, 10.000899, 9.999323 
7.9510635e+2, 1.5444322e+2, -1394786.5, -1485398.8, 12607.777, 0.0032816695, -0.12709053, -1393065.0, 33382.457, 0.0, 10.000512, 9.999309 
7.9509044e+2, 1.6444258e+2, -1280844.9, -1322785.0, 34394.527, 0.051206917, -0.14451839, -1261531.9, 66921.36, 0.0, 10.000375, 9.999818 
7.950736e+2, 1.7444295e+2, -1153756.4, -1206414.4, 40927.57, -0.036859937, -0.09288489, -1131420.4, 99027.47, 0.0, 10.000556, 9.999857 
7.9505724e+2, 1.8444267e+2, -1095805.4, -1175647.8, 30342.746, -0.054133333, -0.08494934, -1085583.0, 46866.92, 0.0, 10.000487, 9.999429 
7.950415e+2, 1.9444154e+2, -1053420.4, -1105992.3, 38487.44, 0.009511966, -0.13829955, -1033099.1, 1362.101, 0.0, 10.000113, 9.999414 
7.9502535e+2, 2.0444085e+2, -984325.1, -1041332.5, 42207.32, 0.032392167, -0.13995115, -961898.25, -25429.385, 0.0, 9.999997, 9.999241 
7.950088e+2, 2.1444067e+2, -854661.2, -927998.44, 35054.773, 0.0080765905, -0.08255815, -840600.9, -2128.9368, 0.0, 10.000214, 9.999243 
7.9499227e+2, 2.2444005e+2, -738961.1, -800972.7, 27177.355, -0.005098239, -0.07603569, -728736.25, 11741.135, 0.0, 10.000248, 9.999425 
7.9497564e+2, 2.3443885e+2, -666248.0, -712382.75, 37047.32, -0.0053502745, -0.13998033, -645673.56, -3187.6248, 0.0, 10.000063, 9.99945 
7.9495925e+2, 2.4443778e+2, -614735.3, -691642.8, 47155.313, -0.005773801, -0.16519392, -592342.4, -47847.184, 0.0, 9.99998, 9.998959 
7.9494286e+2, 2.5443694e+2, -511673.1, -592931.0, 41571.94, -0.006975862, -0.14496337, -494173.4, -47668.305, 0.0, 10.000022, 9.998943 
7.949262e+2, 2.6443613e+2, -408470.7, -473135.44, 15788.091, -0.008708973, -0.12712944, -404821.84, -56308.84, 0.0, 9.999974, 9.999116 
7.949092e+2, 2.744353e+2, -330100.47, -381694.97, 17822.541, -0.0097673405, -0.12315719, -324542.66, -74023.72, 0.0, 9.999826, 9.999142 
7.948924e+2, 2.844339e+2, -258821.7, -340824.5, 27032.754, 0.001368039, -0.15894707, -250712.17, -98180.72, 0.0, 9.999834, 9.998747 
7.94876e+2, 2.9443184e+2, -136530.78, -236197.94, 17243.527, 0.023699522, -0.23899111, -133631.78, -79080.61, 0.0, 10.000022, 9.998701 
7.9485893e+2, 3.044314e+2, -88342.516, -178014.56, 25331.857, -0.022436049, -0.15083463, -81681.24, -81681.24, 0.0, 9.999976, 9.998789 
7.9484254e+2, 3.1442997e+2, -25191.152, 28494.354, 47341.777, -0.025176173, -0.18105745, 56073.813, 56073.813, 0.0, 9.999651, 10.000363 
8.051573e+2, 1.2446203e+2, -1603591.8, -1620334.8, 40776.94, -0.047472972, -0.112574466, -1570335.9, 149928.03, 0.0000000057252847, 10.000595, 10.0003605 
8.0514115e+2, 1.3446218e+2, -1608445.1, -1682092.9, -32099.908, 0.07079189, -0.03718976, -1596418.1, 25843.82, 0.0, 10.00035, 9.99939 
8.051219e+2, 1.4446142e+2, -1504487.1, -1565768.4, 2.8274841, -0.15824817, -0.052980766, -1504487.1, 19781.916, 0.0, 10.000332, 9.9995165 
8.051069e+2, 1.5446027e+2, -1360261.9, -1446929.4, 18833.992, 0.003907727, -0.12218538, -1356346.0, 69934.7, 0.0, 10.000654, 9.999504 
8.0509096e+2, 1.6445978e+2, -1244100.4, -1304911.1, 44684.734, 0.051302336, -0.1352515, -1220457.5, 107827.56, 0.0, 10.000627, 9.99982 
8.050741e+2, 1.7446019e+2, -1210096.3, -1234618.1, 40525.82, -0.025733003, -0.07758025, -1180017.3, 50262.64, 0.0, 10.000175, 9.999846 
8.0505764e+2, 1.8445997e+2, -1150017.3, -1182750.5, 26170.785, -0.040756583, -0.07073869, -1135516.8, -3235.536, 0.0, 10.000034, 9.999597 
8.0504173e+2, 1.9445892e+2, -1016898.7, -1068627.6, 30982.703, 0.01568914, -0.1343226, -1002403.56, 31887.41, 0.0, 10.000278, 9.99959 
8.050255e+2, 2.0445825e+2, -942081.44, -1024687.2, 40547.953, 0.033880647, -0.14062253, -925504.56, 10793.529, 0.0, 10.000304, 9.999207 
8.050089e+2, 2.1445805e+2, -880698.56, -945361.9, 45123.08, 0.005725394, -0.08113212, -857519.6, -19217.752, 0.0, 10.000058, 9.999197 
8.049923e+2, 2.2445747e+2, -769032.7, -808250.44, 38088.277, -0.0068629202, -0.070820935, -745802.0, -5494.893, 0.0, 10.000011, 9.999488 
8.049758e+2, 2.344564e+2, -640156.44, -692173.25, 32649.848, 0.00033636714, -0.1284463, -624422.2, 17892.127, 0.0, 10.00021, 9.999517 
8.049594e+2, 2.4445538e+2, -578410.75, -674266.1, 36818.68, 0.00294196, -0.15441443, -565901.06, -21578.002, 0.0, 10.000231, 9.998957 
8.049429e+2, 2.5445443e+2, -509390.72, -592359.5, 41718.31, -0.0014078547, -0.14482889, -492041.7, -45708.164, 0.0, 10.00004, 9.998938 
8.0492616e+2, 2.6445353e+2, -411120.03, -478705.97, 19233.861, -0.0065127634, -0.13389957, -406029.78, -57687.637, 0.0, 9.999975, 9.999077 
8.0490905e+2, 2.7445263e+2, -298500.97, -371318.06, 10505.224, -0.010786923, -0.13109958, -297015.72, -46666.863, 0.0, 10.000065, 9.999099 
8.0489236e+2, 2.8445122e+2, -225383.42, -330735.06, 25766.004, -0.0019045951, -0.16351256, -219419.42, -67057.87, 0.0, 10.00009, 9.998692 
8.048759e+2, 2.9444915e+2, -138721.72, -243370.06, 33173.883, 0.019475201, -0.23645078, -129091.67, -74710.74, 0.0, 10.000034, 9.998646 
8.0485874e+2, 3.044485e+2, -101171.92, -183764.72, 29491.938, -0.030134361, -0.17015256, -91722.22, -91722.22, 0.0, 9.9998865, 9.998793 
8.04842e+2, 3.1444713e+2, -14425.456, 58886.758, 27096.42, -0.03855865, -0.1907348, 67814.484, 67814.484, 0.0, 9.999617, 10.000588 
8.1515723e+2, 1.2447927e+2, -1617318.6, -1647588.9, 18066.297, -0.11272614, -0.05128912, -1608885.5, 111210.47, 0.000000004999778, 10.000589, 10.000175 
8.151421e+2, 1.3447814e+2, -1619376.8, -1703297.0, -41043.906, 0.13048472, -0.08919754, -1602640.5, 19466.115, 0.0, 10.000346, 9.999245 
8.15123e+2, 1.4447735e+2, -1471247.6, -1498303.4, 10795.648, -0.0757363, -0.12399802, -1467468.0, 56645.836, 0.0, 10.000336, 9.999979 
8.1510717e+2, 1.5447795e+2, -1325792.9, -1375885.6, 31740.578, -0.03289178, -0.06448487, -1310406.8, 115700.62, 0.0, 10.000655, 9.999992 
8.15091e+2, 1.6447788e+2, -1253008.3, -1322675.8, 28608.418, -0.0051538222, -0.054374274, -1242766.1, 85341.36, 0.0, 10.000624, 9.999699 
8.150746e+2, 1.744771e+2, -1220879.0, -1256278.5, 23428.201, 0.01736619, -0.104003854, -1209216.1, 20898.783, 0.0, 10.000173, 9.999699 
8.150583e+2, 1.8447667e+2, -1141501.9, -1165063.9, 33748.09, 0.019658858, -0.11573265, -1117537.6, 14581.051, 0.0, 10.000033, 9.99972 
8.150418e+2, 1.9447665e+2, -1007026.44, -1048840.5, 40187.625, -0.005739063, -0.08995298, -982632.8, 51485.32, 0.0, 10.00028, 9.999725 
8.150253e+2, 2.0447624e+2, -934333.0, -1008553.06, 31612.545, -0.015225819, -0.08360515, -922693.6, 13428.648, 0.0, 10.000304, 9.999318 
8.150089e+2, 2.1447533e+2, -873162.5, -929527.56, 35532.965, -0.004494194, -0.10540593, -855992.56, -17860.715, 0.0, 10.000056, 9.999307 
8.149924e+2, 2.2447453e+2, -777142.0, -825094.4, 44127.285, 0.003939588, -0.11652724, -750897.94, -10758.644, 0.0, 10.000011, 9.999373 
8.1497616e+2, 2.344739e+2, -648890.56, -710753.94, 40186.023, 0.010095574, -0.11985085, -629110.44, 13033.499, 0.0, 10.000211, 9.99939 
8.149597e+2, 2.4447311e+2, -569387.9, -656172.25, 30113.219, 0.010198268, -0.11959089, -559962.56, -15812.065, 0.0, 10.000232, 9.999081 
8.14943e+2, 2.544722e+2, -499481.84, -571914.1, 34543.65, 0.0019862885, -0.120785534, -485649.28, -39489.98, 0.0, 10.00004, 9.999079 
8.149262e+2, 2.6447108e+2, -423282.78, -503542.28, 22207.73, 0.00030801812, -0.13068052, -417547.75, -69378.125, 0.0, 9.999973, 9.998908 
8.149093e+2, 2.744697e+2, -312080.94, -398984.34, 14672.392, 0.008495767, -0.1594998, -309670.56, -59488.434, 0.0, 10.000062, 9.99891 
8.148926e+2, 2.8446832e+2, -212822.86, -305346.25, 23893.516, 0.014063044, -0.18345642, -207016.86, -54822.676, 0.0, 10.000091, 9.998867 
8.1487584e+2, 2.9446703e+2, -124728.95, -215353.53, 31823.762, 0.010558063, -0.20047519, -114670.17, -60464.996, 0.0, 10.000036, 9.998837 
8.148585e+2, 3.0446604e+2, -120421.03, -221953.47, 20852.559, -0.045131687, -0.16400366, -116305.21, -116305.21, 0.0, 9.99988, 9.998532 
8.148417e+2, 3.1446388e+2, -23903.775, 41504.855, 15864.246, -0.03555325, -0.23523836, 45149.496, 45149.496, 0.0000000016901937, 9.999607, 10.000473 
8.251576e+2, 1.2449626e+2, -1654179.9, -1659881.5, 28803.816, -0.12162554, -0.044577967, -1628086.1, 91843.74, 0.0000000017683296, 10.000314, 10.000222 
8.2514256e+2, 1.3449506e+2, -1593932.8, -1681894.0, -2840.5232, 0.13633433, -0.096030325, -1593841.1, 28099.342, 0.0, 10.00048, 9.999327 
8.2512355e+2, 1.4449427e+2, -1452878.0, -1479903.5, 46968.387, -0.057286475, -0.14284496, -1417517.3, 106430.66, 0.0, 10.000422, 10.000064 
8.251075e+2, 1.5449516e+2, -1392957.5, -1398341.1, 38023.305, -0.031944666, -0.06110398, -1357530.9, 68407.74, 0.0, 10.000153, 10.00008 
8.250913e+2, 1.6449524e+2, -1324794.1, -1348794.6, 21816.459, -0.009236098, -0.04668928, -1311895.3, 16042.247, 0.0, 10.000096, 9.999772 
8.25075e+2, 1.7449434e+2, -1196864.4, -1237316.8, 32363.219, 0.023984533, -0.11229987, -1178926.8, 51019.016, 0.0, 10.000305, 9.999764 
8.250585e+2, 1.8449393e+2, -1096124.5, -1142147.0, 53404.52, 0.026452113, -0.12674323, -1060984.5, 70964.85, 0.0, 10.000341, 9.999728 
8.2504195e+2, 1.9449407e+2, -1022231.25, -1055287.6, 49940.004, -0.013376848, -0.0874039, -986155.44, 47792.285, 0.0, 10.000174, 9.999732 
8.250254e+2, 2.044937e+2, -954204.75, -1005278.8, 31724.72, -0.02524981, -0.08002052, -939015.9, -3064.9387, 0.0, 10.000113, 9.999433 
8.25009e+2, 2.1449277e+2, -847267.5, -903648.25, 36148.97, -0.0010871588, -0.116082706, -829616.4, 8343.758, 0.0, 10.000177, 9.999426 
8.249926e+2, 2.2449198e+2, -762740.1, -829421.0, 50476.03, 0.0129481265, -0.1283199, -735587.44, 4380.126, 0.0, 10.000158, 9.999272 
8.249763e+2, 2.3449138e+2, -682435.06, -739393.7, 46990.168, 0.014161322, -0.11636403, -655967.6, -13994.79, 0.0, 10.000035, 9.999277 
8.249598e+2, 2.4449061e+2, -591778.3, -658545.44, 33908.64, 0.010987189, -0.11300166, -577577.6, -33598.18, 0.0, 10.000043, 9.999155 
8.249431e+2, 2.5448963e+2, -467593.88, -547017.2, 33741.02, 0.0020115108, -0.12728375, -455195.3, -9207.375, 0.0, 10.000218, 9.999164 
8.249263e+2, 2.644885e+2, -387803.9, -499162.38, 21262.635, 0.0021174403, -0.13972472, -383882.16, -35883.547, 0.0, 10.000273, 9.998793 
8.249095e+2, 2.7448708e+2, -304895.38, -409376.3, 17755.68, 0.015402755, -0.15635952, -301960.38, -51948.285, 0.0, 10.000173, 9.998784 
8.248927e+2, 2.8448582e+2, -204695.31, -291580.2, 25348.316, 0.020513944, -0.17016979, -197840.81, -45817.332, 0.0, 10.000106, 9.998954 
8.248759e+2, 2.9448467e+2, -110076.76, -196992.11, 25156.209, 0.010243331, -0.18223628, -103320.85, -49288.758, 0.0, 10.00009, 9.998938 
8.248585e+2, 3.0448323e+2, -106037.625, -248342.47, 6881.9395, -0.046223883, -0.179789, -105705.58, -105705.58, 0.0, 10.000121, 9.998235 
8.2484156e+2, 3.14481e+2, 42898.055, 49421.313, -4387.0527, -0.03128367, -0.23139623, 51626.35, 51626.35, 0.000000023716037, 10.000172, 10.000256 
8.351583e+2, 1.245131e+2, -1635900.6, -1622435.5, 24077.852, -0.08628608, -0.08678376, -1604166.6, 115598.27, 0.000000000051048894, 10.000313, 10.000482 
8.3514255e+2, 1.3451302e+2, -1571619.5, -1637113.6, 4068.2817, 0.08914053, -0.059655886, -1571367.9, 50395.695, 0.0, 10.000485, 9.999632 
8.3512354e+2, 1.4451215e+2, -1473218.1, -1522975.4, 36370.684, -0.10147638, -0.11271778, -1454031.3, 69739.984, 0.0, 10.000425, 9.999766 
8.3510804e+2, 1.5451194e+2, -1415707.4, -1443813.6, 27889.89, 0.004231418, -0.110614516, -1398530.1, 27243.707, 0.0, 10.000146, 9.99977 
8.350918e+2, 1.6451187e+2, -1306061.1, -1309836.8, 28918.43, 0.03515105, -0.107806005, -1278969.0, 48805.504, 0.0, 10.000094, 10.000042 
8.3507496e+2, 1.7451198e+2, -1175898.9, -1195183.4, 40673.723, -0.006122664, -0.10150085, -1143740.1, 86031.83, 0.0, 10.00031, 10.000052 
8.3505833e+2, 1.8451178e+2, -1104040.1, -1158795.3, 47294.55, -0.020506069, -0.10460956, -1076770.6, 55002.734, 0.0, 10.000342, 9.999613 
8.350421e+2, 1.9451116e+2, -1032009.06, -1074779.9, 43357.594, -0.008541831, -0.127237, -1005049.7, 28729.736, 0.0, 10.00017, 9.999599 
8.350257e+2, 2.045107e+2, -945905.06, -987950.25, 33136.766, 0.002313573, -0.129452, -927684.9, 8098.9927, 0.0, 10.000112, 9.999552 
8.350093e+2, 2.1451043e+2, -837538.8, -884076.56, 38117.195, 0.014749731, -0.11271846, -816149.44, 21636.977, 0.0, 10.000179, 9.99956 
8.349928e+2, 2.2450984e+2, -769209.75, -843341.06, 45561.82, 0.019066647, -0.106485, -747540.9, -7749.075, 0.0, 10.000159, 9.999177 
8.349763e+2, 2.345089e+2, -689800.9, -754925.8, 42070.25, 0.012164517, -0.11764382, -669163.5, -27362.893, 0.0, 10.000035, 9.999171 
8.349598e+2, 2.445079e+2, -590242.0, -655355.2, 39655.855, 0.0049680592, -0.13434039, -571490.5, -27680.75, 0.0, 10.000042, 9.999178 
8.3494323e+2, 2.5450677e+2, -465942.25, -543156.5, 40895.17, -0.0035534278, -0.16481234, -448309.5, -2490.1077, 0.0, 10.000216, 9.999191 
8.349265e+2, 2.6450577e+2, -392165.44, -508841.4, 18015.867, -0.0036353867, -0.16136584, -389446.97, -41617.93, 0.0, 10.000274, 9.998727 
8.349096e+2, 2.7450487e+2, -309237.4, -419251.6, 14125.881, 0.00834455, -0.12221905, -307452.6, -57613.902, 0.0, 10.0001745, 9.998716 
8.3489275e+2, 2.8450367e+2, -205709.36, -293350.6, 24948.32, 0.0166817, -0.12325029, -199105.13, -47255.746, 0.0, 10.000104, 9.998942 
8.3487606e+2, 2.9450208e+2, -111776.78, -198944.36, 25572.62, 0.016258543, -0.18058154, -104828.34, -50966.645, 0.0, 10.000083, 9.998927 
8.348587e+2, 3.045001e+2, -130012.96, -297604.16, 9220.706, -0.03586197, -0.21622536, -129507.17, -129507.17, 0.0, 10.000118, 9.997899 
8.348417e+2, 3.1449825e+2, 22128.854, 3649.1697, -3182.0383, -0.031380482, -0.19020975, 22661.424, 22661.424, 0.00000010288848, 10.000181, 9.999937 
8.451587e+2, 1.245304e+2, -1678060.3, -1640064.6, 35934.805, -0.053841174, -0.09838534, -1618414.9, 101179.75, 0.0, 10.000011, 10.000505 
8.451427e+2, 1.3453056e+2, -1600961.0, -1640991.1, 6716.3257, 0.07090643, -0.054480057, -1599864.1, 21726.63, 0.0, 10.000243, 9.99972 
8.451237e+2, 1.4452967e+2, -1497745.8, -1540711.6, 24357.555, -0.119240485, -0.11165165, -1486750.9, 36847.992, 0.0, 10.000284, 9.999711 
8.451083e+2, 1.5452933e+2, -1422445.3, -1453913.4, 34366.97, 0.013282192, -0.11770396, -1400381.9, 25221.416, 0.0, 10.00013, 9.999709 
8.4509206e+2, 1.645292e+2, -1306834.8, -1306825.8, 50129.203, 0.04802009, -0.11717021, -1256701.0, 70903.35, 0.0, 10.000074, 10.000072 
8.45075e+2, 1.745294e+2, -1196337.1, -1200897.0, 42663.574, -0.01912987, -0.10608737, -1155892.6, 73708.25, 0.0, 10.000153, 10.000089 
8.450585e+2, 1.8452924e+2, -1126457.8, -1163645.3, 35926.47, -0.03670126, -0.10842088, -1104598.5, 27002.98, 0.0, 10.000162, 9.999667 
8.4504235e+2, 1.9452865e+2, -1041296.4, -1072902.5, 45844.492, -0.00031756304, -0.13490632, -1008607.6, 24999.84, 0.0, 10.000078, 9.999657 
8.45026e+2, 2.045282e+2, -952122.4, -994929.5, 46060.06, 0.01923066, -0.13759618, -922735.75, 12876.196, 0.0, 10.000086, 9.9995165 
8.450095e+2, 2.1452792e+2, -836612.0, -888071.5, 38001.94, 0.021173256, -0.11774263, -816448.75, 21166.057, 0.0, 10.000204, 9.99952 
8.44993e+2, 2.2452736e+2, -750541.3, -826496.8, 38453.51, 0.016581556, -0.11096315, -734472.94, 5147.0156, 0.0, 10.000256, 9.999245 
8.449763e+2, 2.3452646e+2, -656423.94, -730785.56, 47533.57, 0.002641014, -0.12480818, -633257.0, 8370.929, 0.0, 10.00023, 9.999242 
8.4495986e+2, 2.4452542e+2, -576269.3, -660184.06, 52008.793, -0.0025355069, -0.14259121, -551403.5, -7766.1753, 0.0, 10.000189, 9.999073 
8.4494346e+2, 2.545242e+2, -487183.4, -565972.0, 41806.19, 0.00222565, -0.17207761, -469134.97, -23486.314, 0.0, 10.000126, 9.999078 
8.4492683e+2, 2.645232e+2, -395954.25, -503113.5, 19745.74, 0.0019020207, -0.16510609, -392431.6, -44773.168, 0.0, 10.0002165, 9.998793 
8.449098e+2, 2.7452245e+2, -255649.3, -385100.2, 26227.258, -0.002891658, -0.11838109, -250537.42, -871.06683, 0.0, 10.000508, 9.998789 
8.448929e+2, 2.845213e+2, -148182.39, -284352.94, 29145.475, 0.005218067, -0.11271956, -142206.45, 9470.417, 0.0, 10.000581, 9.998774 
8.4487635e+2, 2.9451954e+2, -83801.48, -205359.13, 15669.03, 0.026385827, -0.16728164, -81814.195, -28122.926, 0.0, 10.000361, 9.998748 
8.44859e+2, 3.045172e+2, -108353.62, -283814.56, 12525.27, -0.018052557, -0.22846106, -107464.016, -107464.016, 0.00000000024035085, 10.000253, 9.997928 
8.4484196e+2, 3.1451586e+2, 36931.824, 10737.982, 27337.994, -0.028562889, -0.15846586, 54148.188, 54148.188, 0.00000026211356, 10.000283, 9.999936 
8.551589e+2, 1.2454816e+2, -1691957.0, -1671325.8, 37255.234, -0.034175966, -0.08175783, -1642984.4, 76434.64, 0.0, 10.000021, 10.000287 
8.551431e+2, 1.3454777e+2, -1612881.3, -1663065.0, 15022.217, 0.080780104, -0.07767132, -1608728.1, 12693.594, 0.0, 10.000232, 9.999574 
8.55124e+2, 1.4454691e+2, -1485143.0, -1512870.9, 18728.027, -0.11305677, -0.13575573, -1475705.6, 47724.43, 0.0, 10.000275, 9.9999075 
8.5510814e+2, 1.5454735e+2, -1407419.1, -1424807.1, 29196.506, -0.0068171113, -0.083039455, -1385649.6, 39776.81, 0.0, 10.000136, 9.999906 
8.5509187e+2, 1.6454726e+2, -1321365.0, -1338593.5, 52334.977, 0.027698917, -0.07726216, -1276940.1, 50487.07, 0.0, 10.000081, 9.99985 
8.550752e+2, 1.7454663e+2, -1212868.8, -1234198.8, 45575.4, -0.015578245, -0.1265785, -1176727.1, 52705.113, 0.0, 10.000148, 9.999863 
8.550587e+2, 1.845464e+2, -1110697.4, -1130194.0, 32853.66, -0.023465116, -0.13712758, -1086176.3, 45257.434, 0.0, 10.000157, 9.999899 
8.5504246e+2, 1.9454658e+2, -1023365.2, -1036434.06, 42401.895, 0.009743942, -0.110065244, -986997.2, 46434.234, 0.0, 10.000081, 9.999907 
8.550261e+2, 2.0454623e+2, -965351.7, -1022957.7, 49400.617, 0.024457056, -0.10511878, -936970.5, -1535.6334, 0.0, 10.000088, 9.999324 
8.550097e+2, 2.145453e+2, -851619.0, -919138.8, 42053.168, 0.017383726, -0.13094158, -831451.1, 5993.8237, 0.0, 10.000203, 9.999308 
8.549931e+2, 2.2454455e+2, -734551.94, -793517.3, 36970.598, 0.0046879128, -0.14091891, -716747.7, 22704.014, 0.0, 10.000256, 9.999472 
8.5497636e+2, 2.3454408e+2, -638627.8, -694133.75, 46604.926, -0.015772441, -0.13845694, -612138.3, 29316.152, 0.0, 10.000231, 9.999494 
8.549599e+2, 2.4454324e+2, -593494.6, -696443.75, 49550.094, -0.012775138, -0.1382416, -573521.0, -30058.982, 0.0, 10.00019, 9.998825 
8.5494375e+2, 2.5454193e+2, -505932.47, -605305.44, 39367.867, 0.018805373, -0.14779465, -492226.72, -46751.156, 0.0, 10.000126, 9.998808 
8.549272e+2, 2.645408e+2, -381615.5, -473857.13, 29959.602, 0.018632783, -0.1495953, -372738.97, -25252.287, 0.0, 10.000218, 9.998993 
8.5491014e+2, 2.7453986e+2, -240341.42, -353203.0, 38161.125, -0.020029496, -0.14541993, -228649.5, 20845.45, 0.0, 10.000507, 9.999009 
8.548933e+2, 2.8453863e+2, -172093.44, -334490.13, 22426.44, -0.016079089, -0.139067, -169053.33, -17547.408, 0.0, 10.000582, 9.998429 
8.548768e+2, 2.94537e+2, -108854.45, -258301.47, 7963.7007, 0.03737576, -0.14282303, -108431.29, -54910.31, 0.0, 10.000364, 9.9983835 
8.548595e+2, 3.045346e+2, -79092.5, -223239.05, 13617.278, 0.005282127, -0.21721867, -77817.38, -77817.38, 0.0000000059514194, 10.000254, 9.998343 
8.548423e+2, 3.1453365e+2, 61060.45, 61921.664, 28686.94, -0.025296839, -0.14914483, 90181.23, 90181.23, 0.0000005093443, 10.000278, 10.000291 
8.6515903e+2, 1.2456555e+2, -1655651.0, -1665105.6, 17385.127, -0.035256486, -0.088198826, -1642362.0, 76885.54, 0.00000000000000000000885557, 10.000321, 10.000183 
8.651432e+2, 1.3456503e+2, -1679866.5, -1699299.4, 8489.47, 0.09615007, -0.095073074, -1676680.3, -55428.184, 0.0, 9.99979, 9.999537 
8.651242e+2, 1.445642e+2, -1568840.4, -1545190.1, 22566.33, -0.088435926, -0.15091528, -1531538.4, -8277.872, 0.0, 9.999666, 9.999979 
8.6510813e+2, 1.5456496e+2, -1414083.3, -1419484.0, 23031.111, -0.018219942, -0.07419617, -1393594.8, 31659.166, 0.0, 10.000054, 9.999982 
8.650918e+2, 1.6456495e+2, -1312163.0, -1334675.5, 41322.527, 0.007586126, -0.06381358, -1280591.0, 46662.754, 0.0, 10.000145, 9.999847 
8.6507523e+2, 1.7456415e+2, -1252459.3, -1253606.4, 51512.664, -0.013418105, -0.13003379, -1201517.0, 27743.404, 0.0, 9.999877, 9.99986 
8.650588e+2, 1.8456388e+2, -1156693.6, -1152077.5, 46591.93, -0.014558628, -0.1447648, -1107736.5, 23525.865, 0.0, 9.999842, 9.999901 
8.6504257e+2, 1.9456416e+2, -1022799.1, -1036157.1, 37260.47, 0.007499515, -0.10722459, -991623.8, 41635.617, 0.0, 10.000085, 9.999907 
8.650262e+2, 2.0456389e+2, -953231.8, -1013694.44, 39393.133, 0.017944261, -0.09613866, -933806.75, 1455.443, 0.0, 10.000156, 9.999354 
8.650098e+2, 2.14563e+2, -876239.44, -927442.56, 50023.918, 0.013722389, -0.11996792, -845646.44, -8374.734, 0.0, 10.000019, 9.99934 
8.649932e+2, 2.2456223e+2, -771930.44, -818109.9, 47461.797, 0.004182076, -0.13260467, -742239.9, -2961.0244, 0.0, 10.000028, 9.999413 
8.6497664e+2, 2.3456159e+2, -646304.75, -704585.94, 32545.256, -0.011721476, -0.13923354, -631760.5, 9522.829, 0.0, 10.000208, 9.999432 
8.6496013e+2, 2.4456076e+2, -571780.2, -685495.25, 30020.17, -0.01270531, -0.1346942, -564341.6, -21050.742, 0.0, 10.000338, 9.998828 
8.6494386e+2, 2.545597e+2, -463422.16, -584348.0, 40131.02, 0.00394011, -0.12344031, -451316.06, -6013.755, 0.0, 10.000417, 9.998812 
8.6492735e+2, 2.6455846e+2, -352766.56, -465033.28, 36315.438, 0.0074200295, -0.13061889, -342043.63, 5270.309, 0.0, 10.00044, 9.998946 
8.649107e+2, 2.7455714e+2, -261474.78, -369028.6, 23410.756, -0.004575801, -0.16267787, -256600.02, -7274.291, 0.0, 10.000387, 9.998958 
8.64894e+2, 2.8455585e+2, -186189.88, -340160.4, 6962.4805, -0.0011617207, -0.15975244, -185875.67, -34538.52, 0.0, 10.000482, 9.998438 
8.6487716e+2, 2.9455456e+2, -51035.867, -228468.67, 20277.404, 0.018542338, -0.12908414, -48748.02, 4601.1006, 0.0, 10.000754, 9.9984 
8.648599e+2, 3.0455205e+2, -1756.112, -181984.73, 21139.783, -0.008520693, -0.2149489, 690.2569, 690.2569, 0.000000027135602, 10.000768, 9.998379 
8.6484295e+2, 3.145513e+2, 75709.07, 56594.074, 2183.0496, 0.007123221, -0.13436644, 75955.22, 75955.22, 0.00000083365, 10.000432, 10.000179 
8.7515914e+2, 1.24582656e+2, -1656787.1, -1663787.5, -8065.365, -0.06325679, -0.11448314, -1651495.3, 67584.12, 0.0000000055054987, 10.000303, 10.000201 
8.751431e+2, 1.3458237e+2, -1672886.5, -1686215.4, -11204.597, 0.112314, -0.10757497, -1666514.3, -45432.727, 0.0, 9.999796, 9.999624 
8.751243e+2, 1.4458157e+2, -1572815.0, -1556418.0, 35562.305, -0.050675407, -0.15901114, -1528121.4, -5031.787, 0.0, 9.999679, 9.999896 
8.751082e+2, 1.5458219e+2, -1419368.6, -1429586.6, 37850.004, -0.020361323, -0.08969251, -1386284.4, 38800.86, 0.0, 10.00005, 9.999915 
8.7509173e+2, 1.6458233e+2, -1297121.3, -1302240.3, 31651.203, -0.0116722025, -0.073756024, -1267926.3, 59157.535, 0.0, 10.000139, 10.000074 
8.750751e+2, 1.7458199e+2, -1235936.9, -1220240.3, 41261.594, -0.01510937, -0.11607473, -1186087.1, 42997.887, 0.0, 9.999881, 10.000088 
8.7505865e+2, 1.845817e+2, -1172489.5, -1185867.3, 54405.16, -0.012409182, -0.13196619, -1124363.6, 6723.6563, 0.0, 9.999845, 9.999668 
8.750425e+2, 1.9458142e+2, -1040216.5, -1072296.3, 46164.28, -0.0075499425, -0.12610513, -1007384.9, 25706.143, 0.0, 10.000084, 9.99966 
8.750261e+2, 2.045812e+2, -935721.0, -977310.4, 34101.848, -0.0008400329, -0.10967962, -916573.8, 18519.832, 0.0, 10.0001545, 9.999605 
8.750097e+2, 2.1458107e+2, -856785.0, -887226.2, 44360.43, 0.008985503, -0.08520902, -825106.6, 11988.035, 0.0, 10.000019, 9.999616 
8.749933e+2, 2.2458038e+2, -796759.25, -870178.1, 53050.758, 0.014256139, -0.086873755, -768955.4, -29854.227, 0.0, 10.000029, 9.999056 
8.7497705e+2, 2.3457903e+2, -673020.4, -760645.44, 39160.1, 0.014552038, -0.12624626, -658070.25, -16955.963, 0.0, 10.00021, 9.999047 
8.7496054e+2, 2.4457805e+2, -553177.0, -647525.1, 32627.744, -0.0034006024, -0.13034953, -542992.9, 130.7379, 0.0, 10.0003395, 9.999088 
8.749438e+2, 2.5457746e+2, -443057.25, -542450.2, 43499.93, -0.044536013, -0.09912314, -426708.4, 18420.262, 0.0, 10.000418, 9.999099 
8.749274e+2, 2.645762e+2, -374940.84, -511475.9, 34928.582, -0.03335543, -0.108555175, -366524.22, -19384.156, 0.0, 10.00044, 9.998628 
8.7491155e+2, 2.7457422e+2, -285349.66, -418584.5, 21813.104, 0.0424974, -0.17005347, -281869.34, -32710.555, 0.0, 10.000386, 9.998618 
8.74895e+2, 2.8457287e+2, -159778.1, -285441.84, 16789.1, 0.049022224, -0.17462687, -157573.69, -6403.0024, 0.0, 10.000481, 9.998815 
8.748774e+2, 2.9457217e+2, -21859.188, -168520.13, 31870.512, -0.03160141, -0.12669879, -15232.874, 37942.746, 0.0, 10.000757, 9.998811 
8.748601e+2, 3.045696e+2, -27822.635, -236192.13, 10523.88, -0.06119398, -0.22181205, -27292.465, -27292.465, 0.00000006425192, 10.000769, 9.998006 
8.7484396e+2, 3.145686e+2, 33923.324, -29340.531, -10417.099, 0.062987074, -0.12477292, 35594.473, 35594.473, 0.0000011924308, 10.000429, 9.99959 
8.851591e+2, 1.2459996e+2, -1778657.3, -1710171.3, -9695.619, -0.05220382, -0.118591376, -1708825.1, 10084.912, 0.00000006865042, 9.999414, 10.000313 
8.851428e+2, 1.3459995e+2, -1631730.1, -1647213.1, -5313.967, 0.09635731, -0.09931931, -1630081.8, -9172.866, 0.0, 9.999996, 9.999797 
8.851241e+2, 1.4459918e+2, -1520476.5, -1538364.1, 42136.15, -0.05616829, -0.15461557, -1486345.4, 36571.336, 0.0, 10.000069, 9.999832 
8.851081e+2, 1.545995e+2, -1492511.3, -1472519.6, 45110.742, -0.006116878, -0.107727535, -1436310.5, -11395.279, 0.0, 9.999582, 9.9998455 
8.8509166e+2, 1.6459964e+2, -1383808.1, -1332623.3, 39464.83, 0.002456928, -0.09342389, -1311179.0, 15734.782, 0.0, 9.999497, 10.000174 
8.850749e+2, 1.7459962e+2, -1230169.8, -1206615.5, 38389.25, -0.022879018, -0.113540314, -1178237.5, 50674.355, 0.0, 9.999872, 10.000185 
8.850584e+2, 1.8459941e+2, -1155072.1, -1188057.9, 51490.836, -0.026362976, -0.12223652, -1117497.3, 13416.287, 0.0, 10.00001, 9.999575 
8.8504237e+2, 1.9459894e+2, -1078555.5, -1101752.9, 54078.016, -0.011964798, -0.12571792, -1034846.3, -1926.7355, 0.0, 9.999868, 9.999561 
8.8502616e+2, 2.0459864e+2, -970519.4, -993326.6, 39984.05, -0.00087862136, -0.11233868, -940344.56, -5421.466, 0.0, 9.999914, 9.99961 
8.8500977e+2, 2.1459854e+2, -833103.9, -874613.25, 29732.047, 0.008518457, -0.08425113, -817599.06, 19324.428, 0.0, 10.000177, 9.999625 
8.849935e+2, 2.2459787e+2, -764010.25, -860282.8, 38784.523, 0.014431988, -0.08256978, -750329.5, -11399.668, 0.0, 10.000279, 9.999002 
8.849772e+2, 2.345965e+2, -679106.25, -770128.5, 48728.77, 0.0155258635, -0.11727825, -657940.9, -16997.66, 0.0, 10.000196, 9.998989 
8.849609e+2, 2.4459545e+2, -569906.2, -661896.7, 46930.094, -0.0006613443, -0.12146761, -550189.94, -7236.675, 0.0, 10.000253, 9.999031 
8.8494426e+2, 2.5459474e+2, -438281.0, -546232.9, 30942.11, -0.03874736, -0.096595846, -430041.06, 14918.545, 0.0, 10.000478, 9.999043 
8.849279e+2, 2.6459345e+2, -348481.0, -500961.88, 14899.437, -0.0326116, -0.11020221, -347038.78, -67.14409, 0.0, 10.000631, 9.998608 
8.8491195e+2, 2.7459142e+2, -241057.73, -399177.28, 25584.34, 0.028212486, -0.17255889, -237021.14, 11969.092, 0.0, 10.0007, 9.9986 
8.8489544e+2, 2.845901e+2, -124925.22, -270831.06, 23273.834, 0.03638503, -0.17407368, -121302.68, 29699.275, 0.0, 10.000731, 9.998794 
8.848782e+2, 2.9458946e+2, -29533.826, -174434.92, 5350.0615, -0.022071874, -0.11886731, -29336.56, 23670.145, 0.0, 10.000713, 9.998792 
8.8486105e+2, 3.045868e+2, -21509.977, -230514.13, -25943.92, -0.047828164, -0.22306173, -18337.678, -18337.678, 0.00000010587227, 10.000799, 9.998031 
8.848445e+2, 3.1458592e+2, 101854.59, -16316.508, -16300.105, 0.050166354, -0.11319472, 104061.75, 104061.75, 0.0000015115112, 10.00098, 9.999414 
8.951588e+2, 1.2461746e+2, -1766418.0, -1684369.3, 9664.715, -0.018238027, -0.104414284, -1683246.3, 35493.24, 0.00000033535434, 9.999412, 10.000491 
8.951424e+2, 1.3461785e+2, -1617190.4, -1614794.6, 16226.521, 0.051242296, -0.06913322, -1599721.8, 21012.15, 0.00000000007521531, 9.999986, 10.000024 
8.9512366e+2, 1.4461707e+2, -1522900.8, -1543142.8, 23538.016, -0.10104935, -0.13479772, -1507400.0, 15341.117, 0.0, 10.000066, 9.999803 
8.95108e+2, 1.5461694e+2, -1495387.9, -1479415.4, 26511.56, 0.020530695, -0.12817273, -1459713.3, -34969.676, 0.0, 9.999585, 9.999797 
8.9509153e+2, 1.6461693e+2, -1386020.9, -1338790.0, 52424.504, 0.044572864, -0.12350024, -1304907.5, 21836.182, 0.0, 9.999502, 10.000129 
8.950746e+2, 1.746171e+2, -1232421.3, -1211688.1, 52511.74, -0.037238803, -0.122138575, -1168529.5, 60211.004, 0.0, 9.999873, 10.000151 
8.950581e+2, 1.8461706e+2, -1152084.3, -1182190.5, 46030.414, -0.05665708, -0.114458, -1118708.0, 12032.562, 0.0, 10.00001, 9.999615 
8.950423e+2, 1.9461675e+2, -1075111.0, -1095067.1, 48081.965, -0.0066033485, -0.10622354, -1035982.7, -3237.9065, 0.0, 9.99987, 9.999607 
8.9502627e+2, 2.0461622e+2, -987326.25, -1028900.75, 48256.73, 0.016976498, -0.1045438, -955570.0, -20819.57, 0.0, 9.999916, 9.999366 
8.9500993e+2, 2.1461548e+2, -850834.5, -911852.56, 39099.613, 0.010938628, -0.116596326, -831749.4, 5008.523, 0.0, 10.000178, 9.999371 
8.949936e+2, 2.2461475e+2, -746444.25, -824071.2, 35426.285, 0.0026156667, -0.11835995, -732707.7, 6056.745, 0.0, 10.000279, 9.999251 
8.9497715e+2, 2.3461407e+2, -660122.94, -730875.75, 45577.383, -0.0096793035, -0.11284794, -637803.7, 2966.1245, 0.0, 10.000196, 9.999259 
8.9496106e+2, 2.4461305e+2, -597334.9, -719370.06, 54815.156, -0.0046068532, -0.10921866, -576329.0, -33549.27, 0.0, 10.000254, 9.998636 
8.949453e+2, 2.546116e+2, -467276.6, -606997.06, 39731.742, 0.021404492, -0.11633007, -456768.53, -11973.429, 0.0, 10.000479, 9.998627 
8.9492893e+2, 2.6461017e+2, -327945.2, -458538.38, 17440.678, 0.008449095, -0.13525099, -325656.13, 21152.516, 0.0, 10.000632, 9.998899 
8.949119e+2, 2.7460873e+2, -218549.28, -352822.97, 28757.572, -0.050029334, -0.16993578, -212649.47, 36170.38, 0.0, 10.000701, 9.998919 
8.948954e+2, 2.8460747e+2, -155838.28, -335771.72, 23429.053, -0.04100036, -0.15728998, -152837.63, -2006.8372, 0.0, 10.000732, 9.998347 
8.9487964e+2, 2.9460636e+2, -62850.945, -243681.36, 5421.2676, 0.046602547, -0.1047981, -62688.563, -9846.014, 0.0, 10.000711, 9.998318 
8.9486253e+2, 3.0460358e+2, 8597.658, -166867.0, -19192.732, 0.030478038, -0.21887332, 10672.47, 10672.47, 0.00000013409642, 10.000794, 9.99847 
8.948446e+2, 3.1460315e+2, 120491.516, 22410.473, -8798.34, -0.037674617, -0.110962786, 121274.516, 121274.516, 0.0000016978646, 10.000981, 9.99968 
9.0515816e+2, 1.24634735e+2, -1791469.5, -1691958.5, 8649.639, -0.010889747, -0.09445301, -1691212.3, 27358.318, 0.0000010631732, 9.999218, 10.000535 
9.0514195e+2, 1.3463514e+2, -1722600.0, -1654101.9, 6946.9053, 0.051583935, -0.06822027, -1653404.5, -32839.55, 0.000000007369457, 9.999213, 10.000126 
9.051234e+2, 1.4463449e+2, -1612365.6, -1569339.9, 4161.71, -0.09600551, -0.13389757, -1568941.1, -46370.4, 0.0, 9.999381, 9.999951 
9.0510756e+2, 1.5463452e+2, -1462728.4, -1447523.1, 19319.393, 0.016747521, -0.12590098, -1434364.3, -9793.307, 0.0, 9.99974, 9.999943 
9.050912e+2, 1.6463451e+2, -1343315.9, -1334596.5, 56144.887, 0.044705722, -0.12113725, -1282642.3, 43928.605, 0.0, 9.9998665, 9.999983 
9.0507454e+2, 1.7463452e+2, -1261213.9, -1242437.3, 47328.965, -0.022738837, -0.120256074, -1203574.5, 24995.463, 0.0, 9.999751, 9.999997 
9.0505815e+2, 1.8463437e+2, -1186893.4, -1201944.6, 30828.805, -0.041177664, -0.11317534, -1162684.9, -32113.625, 0.0, 9.999786, 9.999586 
9.0504223e+2, 1.9463404e+2, -1060007.1, -1091072.4, 27126.955, -0.0033262542, -0.10557083, -1044280.6, -11705.086, 0.0, 9.999989, 9.999577 
9.050262e+2, 2.0463347e+2, -964850.5, -1021640.75, 35584.887, 0.01365921, -0.105205, -947720.1, -13138.643, 0.0, 10.000086, 9.999334 
9.0501e+2, 2.1463268e+2, -869090.5, -924477.56, 42216.957, 0.005553186, -0.11891198, -846294.4, -9704.918, 0.0, 10.000071, 9.999335 
9.049938e+2, 2.2463192e+2, -757376.94, -824386.44, 38176.98, -0.0023089861, -0.12365027, -740087.44, -1491.434, 0.0, 10.000184, 9.999295 
9.049775e+2, 2.3463124e+2, -619717.44, -706127.6, 30784.61, -0.010930398, -0.12231597, -609871.9, 30729.027, 0.0, 10.000452, 9.999306 
9.0496147e+2, 2.4463019e+2, -563178.0, -715648.1, 40603.586, -0.0022627949, -0.118929744, -553039.2, -10428.133, 0.0, 10.000545, 9.998522 
9.0494585e+2, 2.5462866e+2, -482833.94, -627967.7, 47447.707, 0.02721762, -0.1219879, -468698.8, -24071.166, 0.0, 10.000431, 9.998506 
9.049296e+2, 2.646272e+2, -345861.78, -468225.13, 30625.234, 0.012520204, -0.13666523, -338624.88, 8016.8604, 0.0, 10.000514, 9.998889 
9.0491253e+2, 2.7462584e+2, -200308.02, -344865.47, 16652.047, -0.0544884, -0.16634098, -198414.61, 50238.02, 0.0, 10.00083, 9.998911 
9.0489614e+2, 2.8462455e+2, -126425.72, -333297.6, 3245.257, -0.04906303, -0.15095003, -126374.82, 24289.184, 0.0, 10.000984, 9.998244 
9.0488034e+2, 2.946233e+2, -37618.625, -242697.13, 12338.611, 0.04174923, -0.09806931, -36878.938, 15798.044, 0.0, 10.000935, 9.998216 
9.048634e+2, 3.046205e+2, 39427.586, -144665.88, -3250.531, 0.029161392, -0.21147108, 39484.965, 39484.965, 0.0000001316986, 10.000976, 9.998535 
9.0484554e+2, 3.1462017e+2, 130498.45, 10684.818, -25052.516, -0.045626983, -0.09988718, 135525.88, 135525.88, 0.0000016698094, 10.00112, 9.999534 
9.151571e+2, 1.2465188e+2, -1792859.1, -1698774.6, 6700.2524, -0.034660734, -0.085000806, -1698299.9, 20102.553, 0.0000026057617, 9.999233, 10.000482 
9.151415e+2, 1.3465191e+2, -1722694.9, -1653592.1, 6232.79, 0.09121061, -0.09599663, -1653034.5, -32633.4, 0.00000007607973, 9.999209, 10.000132 
9.151233e+2, 1.446515e+2, -1591795.5, -1526141.0, 17464.129, -0.048942845, -0.15243895, -1521784.6, 619.8644, 0.0, 9.999378, 10.000249 
9.1510695e+2, 1.546523e+2, -1440639.5, -1401611.5, 32850.34, -0.017164553, -0.10086866, -1382916.4, 41480.28, 0.0, 9.999739, 10.0002575 
9.150907e+2, 1.6465244e+2, -1359974.0, -1370918.1, 50939.293, 0.0046885475, -0.08485733, -1314213.6, 12181.314, 0.0, 9.999872, 9.999732 
9.150747e+2, 1.7465194e+2, -1279763.5, -1281731.6, 42349.33, 0.019127496, -0.10751902, -1238386.8, -9987.02, 0.0, 9.999754, 9.999727 
9.1505855e+2, 1.8465143e+2, -1193764.8, -1216718.3, 37428.9, 0.01734031, -0.118257865, -1166092.6, -35687.508, 0.0, 9.999787, 9.999484 
9.150422e+2, 1.9465084e+2, -1066633.5, -1105069.9, 34335.965, -0.003993199, -0.12357771, -1046503.25, -14091.838, 0.0, 9.999989, 9.999481 
9.15026e+2, 2.0465042e+2, -953424.7, -998200.06, 34370.355, -0.012694836, -0.113556296, -934793.75, -377.93677, 0.0, 10.000086, 9.9994955 
9.1501e+2, 2.1465017e+2, -856755.6, -899000.25, 40995.85, -0.00750016, -0.09158284, -831760.56, 4657.337, 0.0, 10.000071, 9.999511 
9.1499394e+2, 2.2464938e+2, -769079.1, -849224.4, 47084.05, 0.000047369806, -0.09905062, -747323.56, -8899.017, 0.0, 10.000185, 9.999125 
9.1497815e+2, 2.3464803e+2, -632107.6, -732525.94, 40799.055, 0.010708284, -0.14551839, -617621.2, 22815.154, 0.0, 10.000453, 9.999124 
9.149621e+2, 2.446469e+2, -551043.5, -690667.44, 36588.51, 0.0038790181, -0.14976932, -542036.5, 410.60092, 0.0, 10.000545, 9.998693 
9.149457e+2, 2.5464597e+2, -470222.97, -601604.8, 43406.008, -0.023172988, -0.11301857, -457177.75, -12720.831, 0.0, 10.000429, 9.998687 
9.1492975e+2, 2.6464456e+2, -368675.75, -516244.53, 42348.344, -0.020942405, -0.11431507, -357386.56, -10915.91, 0.0, 10.000515, 9.998559 
9.149141e+2, 2.7464265e+2, -224329.22, -395656.7, 29335.873, 0.015527803, -0.16232197, -219445.34, 29043.316, 0.0, 10.000832, 9.998563 
9.148977e+2, 2.8464124e+2, -109248.695, -296767.97, 1762.0334, 0.011500229, -0.1554849, -109232.14, 41269.555, 0.0, 10.000981, 9.998496 
9.148805e+2, 2.946403e+2, -18464.973, -202098.36, 11187.675, -0.040862, -0.098896965, -17785.885, 34723.96, 0.0, 10.000932, 9.998496 
9.148635e+2, 3.046376e+2, 16656.223, -192231.73, 2665.224, -0.054775935, -0.20135145, 16690.223, 16690.223, 0.00000009563079, 10.000976, 9.998209 
9.148474e+2, 3.1463695e+2, 92077.36, -70105.91, -18544.705, 0.026014024, -0.09000017, 94170.81, 94170.81, 0.0000014046396, 10.001122, 9.998978 
9.2515635e+2, 1.2466878e+2, -1797403.3, -1693158.4, 4437.139, -0.02679323, -0.0914143, -1692969.9, 25267.11, 0.000005355975, 9.999171, 10.000547 
9.251408e+2, 1.3466893e+2, -1712940.0, -1636923.0, 9832.721, 0.097318165, -0.10146857, -1635671.8, -15437.346, 0.00000033393198, 9.999226, 10.000238 
9.251227e+2, 1.4466867e+2, -1600215.9, -1529090.8, 24512.215, -0.039466683, -0.14910792, -1521461.4, 775.07074, 0.0, 9.999317, 10.0002575 
9.251065e+2, 1.5466951e+2, -1477415.6, -1417639.9, 17182.23, -0.02117851, -0.092856124, -1413053.0, 11175.196, 0.0, 9.999482, 10.00027 
9.250904e+2, 1.6466963e+2, -1394900.9, -1394492.4, 22854.04, -0.002046149, -0.076930545, -1371841.8, -45614.742, 0.0, 9.999665, 9.999668 
9.250745e+2, 1.7466901e+2, -1268819.8, -1284450.4, 28236.725, 0.023019277, -0.10443412, -1247336.8, -19103.654, 0.0, 9.999864, 9.999656 
9.250585e+2, 1.8466844e+2, -1169038.8, -1204120.8, 36756.676, 0.025323411, -0.116784126, -1145852.1, -15613.205, 0.0, 9.999955, 9.99949 
9.2504215e+2, 1.9466792e+2, -1073770.9, -1107011.4, 40546.88, -0.0017782527, -0.11954837, -1046570.1, -14325.46, 0.0, 9.999935, 9.999493 
9.2502606e+2, 2.046675e+2, -962797.25, -999133.0, 39884.375, -0.012487689, -0.11043138, -937137.8, -2889.2173, 0.0, 10.000009, 9.999526 
9.250101e+2, 2.1466722e+2, -838061.0, -886773.2, 35374.45, -0.004270698, -0.0926177, -819468.6, 16781.727, 0.0, 10.000185, 9.999539 
9.249943e+2, 2.2466642e+2, -759061.75, -853643.9, 41876.902, 0.0031865838, -0.10093572, -743185.44, -4928.0527, 0.0, 10.000296, 9.999041 
9.249785e+2, 2.34665e+2, -656333.75, -753835.3, 41595.926, 0.0099020675, -0.1453267, -640999.75, -729.32574, 0.0, 10.00033, 9.999037 
9.249625e+2, 2.4466383e+2, -554431.56, -683070.94, 35287.836, -0.0024784144, -0.15246747, -545387.44, -3106.0723, 0.0, 10.000482, 9.9987755 
9.249462e+2, 2.546629e+2, -413272.88, -564283.6, 34166.637, -0.037656065, -0.12264333, -405902.3, 38387.563, 0.0, 10.000778, 9.9987755 
9.249303e+2, 2.646615e+2, -334590.88, -519831.63, 33977.035, -0.030532049, -0.12176638, -328555.44, 17748.36, 0.0, 10.000835, 9.998381 
9.249149e+2, 2.746595e+2, -269604.47, -438140.56, 32697.486, 0.02666071, -0.15787843, -263483.2, -15159.47, 0.0, 10.000611, 9.998377 
9.248986e+2, 2.8465804e+2, -152270.84, -305698.53, 9451.653, 0.021706657, -0.15030077, -151690.78, -1353.3721, 0.0, 10.000636, 9.998601 
9.248812e+2, 2.9465714e+2, -7861.62, -184012.45, 5504.002, -0.05694505, -0.104788326, -7689.8096, 44654.85, 0.0, 10.000949, 9.998613 
9.2486453e+2, 3.046545e+2, 49097.51, -178037.8, 3736.5886, -0.06959912, -0.20423943, 49158.965, 49158.965, 0.00000004550982, 10.0012045, 9.998197 
9.248487e+2, 3.1465372e+2, 115934.34, -80752.25, 7840.1943, 0.036931228, -0.10220807, 116246.37, 116246.37, 0.0000009683944, 10.001383, 9.998779 
9.351558e+2, 1.2468547e+2, -1787558.0, -1671111.4, 6816.891, -0.003241317, -0.119036466, -1670713.6, 47360.344, 0.000009813605, 9.999165, 10.000702 
9.351398e+2, 1.3468626e+2, -1699091.6, -1609787.9, 11821.194, 0.07085062, -0.082655236, -1608249.6, 11814.676, 0.0000009955157, 9.999233, 10.00042 
9.351218e+2, 1.4468607e+2, -1616091.4, -1566836.1, 29110.906, -0.065602005, -0.1203576, -1553332.9, -31267.127, 0.00000000002439963, 9.999335, 9.999992 
9.351062e+2, 1.5468626e+2, -1496891.6, -1458458.3, 23068.684, 0.0023342, -0.1005358, -1447650.9, -23586.178, 0.0, 9.999481, 9.999991 
9.3509024e+2, 1.6468619e+2, -1387506.0, -1378456.8, 30061.24, 0.02070914, -0.09656132, -1352581.5, -26515.607, 0.0, 9.999662, 9.99978 
9.3507403e+2, 1.7468582e+2, -1260515.6, -1266941.0, 35559.39, -0.011600443, -0.111024916, -1228024.1, 45.17996, 0.0, 9.999863, 9.999776 
9.35058e+2, 1.846855e+2, -1161992.1, -1190039.4, 35457.395, -0.017595964, -0.108211055, -1137885.9, -7813.618, 0.0, 9.999956, 9.999587 
9.350422e+2, 1.9468525e+2, -1066008.0, -1091792.1, 39213.395, 0.0036384247, -0.09350313, -1037621.8, -5546.9146, 0.0, 9.999938, 9.999597 
9.350263e+2, 2.0468472e+2, -969551.9, -1014026.4, 45282.582, 0.013957283, -0.09590374, -941341.06, -7261.4785, 0.0, 10.000011, 9.999423 
9.3501043e+2, 2.146839e+2, -846036.0, -903307.2, 41495.438, 0.0132987695, -0.12149775, -824254.7, 11831.733, 0.0, 10.000184, 9.999427 
9.349946e+2, 2.2468305e+2, -759415.44, -854528.25, 42630.574, 0.0046269507, -0.1284844, -743104.94, -5010.853, 0.0, 10.000295, 9.999036 
9.349786e+2, 2.3468216e+2, -656542.25, -754145.06, 42681.094, -0.01369902, -0.121493176, -640511.1, -408.19962, 0.0, 10.000329, 9.999035 
9.3496275e+2, 2.4468099e+2, -554976.8, -684972.06, 45893.1, -0.021252226, -0.12684315, -540407.7, 1705.9681, 0.0, 10.000484, 9.998762 
9.3494713e+2, 2.546795e+2, -413297.97, -565754.2, 45840.453, -0.017137464, -0.1519999, -400576.25, 43550.27, 0.0, 10.000783, 9.998764 
9.349313e+2, 2.6467797e+2, -336046.34, -522833.44, 25986.299, -0.01810498, -0.16016285, -332498.47, 13642.673, 0.0, 10.000835, 9.99836 
9.34915e+2, 2.7467638e+2, -271942.66, -441630.88, 24502.707, -0.024338445, -0.15285535, -268475.34, -20317.756, 0.0, 10.000605, 9.998355 
9.348988e+2, 2.8467503e+2, -156414.98, -313923.78, 21152.277, -0.02063201, -0.13494143, -153623.86, -3452.9023, 0.0, 10.000632, 9.998547 
9.348827e+2, 2.9467377e+2, -11048.447, -191925.78, 18296.955, -0.0058908476, -0.116034366, -9216.149, 42965.26, 0.0, 10.000952, 9.998558 
9.348662e+2, 3.0467123e+2, 70261.15, -132574.11, 10648.293, -0.015355474, -0.22134587, 70818.625, 70818.625, 0.000000010385675, 10.0012, 9.998511 
9.348495e+2, 3.146705e+2, 126985.93, -54987.906, 16252.406, -0.021672687, -0.14616227, 128426.07, 128426.07, 0.00000050425, 10.001372, 9.9989605 
9.451549e+2, 1.2470243e+2, -1800745.8, -1687908.9, 13100.149, -0.0038258194, -0.109179564, -1686407.9, 31500.135, 0.000016619406, 9.99912, 10.000608 
9.45139e+2, 1.3470317e+2, -1674770.5, -1605096.1, -3415.7776, 0.059127286, -0.073157765, -1604929.0, 14970.142, 0.0000023427797, 9.999432, 10.000356 
9.4512117e+2, 1.4470293e+2, -1588534.9, -1560617.9, 6148.713, -0.066732444, -0.107855245, -1559323.6, -37422.473, 0.0000000053592455, 9.999558, 9.999925 
9.4510585e+2, 1.54703e+2, -1501823.5, -1468115.9, 14658.987, 0.020135622, -0.09398091, -1462632.8, -38731.082, 0.0, 9.999481, 9.999925 
9.4509006e+2, 1.6470289e+2, -1402824.8, -1377528.0, 34382.47, 0.036783226, -0.09212533, -1353541.3, -27638.148, 0.0, 9.999522, 9.999852 
9.4507366e+2, 1.7470263e+2, -1277794.4, -1265756.0, 36146.914, -0.022662042, -0.104451746, -1235130.5, -7225.3843, 0.0, 9.999705, 9.999858 
9.4505775e+2, 1.8470241e+2, -1170073.4, -1192563.0, 28273.889, -0.034771506, -0.09833419, -1150890.3, -20983.074, 0.0, 9.999897, 9.999597 
9.450422e+2, 1.9470221e+2, -1042400.1, -1079878.0, 24663.93, 0.0044409423, -0.07833008, -1030163.94, 1745.3589, 0.0, 10.000099, 9.9996 
9.450265e+2, 2.0470162e+2, -948026.6, -1003783.0, 28828.123, 0.022078905, -0.086792074, -935801.75, -1887.4346, 0.0, 10.00016, 9.999421 
9.4501054e+2, 2.1470061e+2, -863282.4, -911537.4, 32403.686, 0.016050791, -0.13138056, -847010.2, -11087.624, 0.0, 10.000067, 9.999426 
9.4499475e+2, 2.2469975e+2, -778541.06, -864856.75, 42766.637, 0.0032865803, -0.13810526, -760940.5, -23010.246, 0.0, 10.00017, 9.999024 
9.4497895e+2, 2.3469907e+2, -632308.1, -743953.4, 41641.285, -0.0177183, -0.10827828, -618487.7, 21449.746, 0.0, 10.000502, 9.999022 
9.449634e+2, 2.4469791e+2, -532152.2, -676360.25, 42038.36, -0.021245262, -0.11128052, -520792.38, 21155.717, 0.0, 10.000652, 9.998741 
9.4494796e+2, 2.546962e+2, -442626.84, -582090.4, 40339.77, -0.0049588433, -0.15794988, -431799.22, 12163.641, 0.0, 10.000592, 9.998744 
9.4493204e+2, 2.6469457e+2, -361796.13, -531116.9, 16526.49, -0.011410931, -0.17331918, -360198.13, -14220.418, 0.0, 10.000642, 9.998397 
9.449155e+2, 2.7469313e+2, -238468.83, -421079.0, 18855.697, -0.043699343, -0.15615785, -236542.17, 11450.379, 0.0, 10.000816, 9.998395 
9.4489944e+2, 2.8469172e+2, -126322.7, -316164.84, 21740.354, -0.037153263, -0.13776413, -123864.86, 26141.668, 0.0, 10.000912, 9.998397 
9.4488376e+2, 2.9469025e+2, -27723.385, -217075.73, 11200.465, 0.014273233, -0.1275798, -27063.162, 24956.871, 0.0, 10.000913, 9.998404 
9.448675e+2, 3.0468783e+2, 63111.38, -107405.99, -607.94653, 0.0058990736, -0.22363833, 63113.547, 63113.547, 0.00000000032400083, 10.001028, 9.998766 
9.448505e+2, 3.1468722e+2, 120701.64, -42214.195, -1441.3497, -0.04703869, -0.16239633, 120714.39, 120714.39, 0.00000016973306, 10.001261, 9.999102 
9.551537e+2, 1.24719754e+2, -1819858.5, -1733925.3, 26423.242, -0.03997085, -0.06174225, -1726450.6, -8712.284, 0.000026449812, 9.999145, 10.000282 
9.551384e+2, 1.3471971e+2, -1696558.4, -1649106.0, 8107.635, 0.06029303, -0.07305938, -1647759.0, -28020.902, 0.0000047469885, 9.999425, 10.000058 
9.551209e+2, 1.4471935e+2, -1582242.5, -1545127.5, 3634.512, -0.04568154, -0.1120848, -1544774.9, -23033.006, 0.000000046136613, 9.999548, 10.000036 
9.551054e+2, 1.5471978e+2, -1492910.0, -1450087.0, 11802.884, 0.03143362, -0.073479705, -1447049.4, -23310.955, 0.0, 9.999483, 10.000048 
9.550896e+2, 1.6471985e+2, -1399224.1, -1372007.4, 40470.313, 0.0448868, -0.06309292, -1342918.8, -17180.908, 0.0, 9.999529, 9.999888 
9.550735e+2, 1.7471953e+2, -1274608.1, -1260185.1, 42860.957, -0.011434233, -0.084347606, -1223933.3, 3806.8699, 0.0, 9.999708, 9.999896 
9.550577e+2, 1.8471919e+2, -1175611.6, -1204677.8, 35036.21, -0.028110266, -0.08653345, -1152213.9, -22470.744, 0.0, 9.999899, 9.999513 
9.5504224e+2, 1.9471884e+2, -1049007.0, -1093377.4, 31702.951, -0.00045552195, -0.073393136, -1032497.75, -750.4574, 0.0, 10.000097, 9.999509 
9.550265e+2, 2.0471825e+2, -941663.3, -990627.56, 24670.363, 0.010739719, -0.0827425, -931389.1, 2363.281, 0.0, 10.000159, 9.999513 
9.550105e+2, 2.1471737e+2, -856151.75, -896864.9, 28231.295, 0.0035912895, -0.12229481, -841703.2, -5944.751, 0.0, 10.000067, 9.999527 
9.5499486e+2, 2.2471656e+2, -779521.6, -867732.3, 53939.336, -0.0012143636, -0.12949748, -753951.06, -16185.574, 0.0, 10.000173, 9.999004 
9.549796e+2, 2.3471579e+2, -633359.0, -746975.56, 54191.445, -0.003503254, -0.10611611, -611656.8, 28116.764, 0.0, 10.0005045, 9.999001 
9.5496416e+2, 2.4471463e+2, -534629.4, -681981.44, 40021.4, -0.003828404, -0.10618919, -524461.06, 17323.357, 0.0, 10.000653, 9.998702 
9.5494854e+2, 2.54713e+2, -445865.72, -588120.2, 38245.49, -0.0020812557, -0.1390105, -436235.28, 7563.2056, 0.0, 10.000588, 9.998704 
9.549327e+2, 2.647114e+2, -355384.53, -517879.72, 23044.57, -0.011123349, -0.15916021, -352179.63, -6366.418, 0.0, 10.000641, 9.998488 
9.549164e+2, 2.747098e+2, -230612.25, -406378.63, 26131.238, -0.032357316, -0.16882907, -226809.58, 21018.969, 0.0, 10.000821, 9.998494 
9.549004e+2, 2.8470817e+2, -144140.3, -353117.9, 21922.193, -0.029068742, -0.16070437, -141865.39, 7978.8394, 0.0, 10.000912, 9.998143 
9.548846e+2, 2.9470652e+2, -47250.176, -255701.69, 11896.205, 0.00025996077, -0.14044262, -46573.46, 5287.123, 0.0, 10.000904, 9.998143 
9.5486844e+2, 3.0470434e+2, 74755.6, -80844.38, 8523.514, -0.00896384, -0.21057098, 75221.12, 75221.12, 0.0, 10.001017, 9.998955 
9.5485187e+2, 3.147039e+2, 127594.11, -26959.053, 8896.074, -0.041949745, -0.15017754, 128104.484, 128104.484, 0.000000027453995, 10.001256, 9.999209 
9.651529e+2, 1.2473624e+2, -1763442.0, -1711259.0, 1761.4886, -0.051768236, -0.057227004, -1711199.6, 6377.033, 0.00003990401, 9.999555, 10.000237 
9.651377e+2, 1.3473614e+2, -1739736.8, -1673132.8, -1769.9376, 0.065173306, -0.073685095, -1673085.8, -53508.42, 0.000008636752, 9.9991455, 10.000027 
9.651204e+2, 1.4473578e+2, -1643605.8, -1577145.5, 9284.281, -0.033491116, -0.10647335, -1575872.9, -54291.754, 0.00000019058375, 9.999139, 10.000012 
9.6510494e+2, 1.547362e+2, -1480939.4, -1446204.1, 5812.991, 0.02980766, -0.067514054, -1445257.1, -21679.041, 0.0, 9.999576, 10.000028 
9.6508926e+2, 1.647363e+2, -1362932.4, -1349845.6, 24352.555, 0.042811647, -0.05585986, -1331172.8, -5595.382, 0.0, 9.99976, 9.9999275 
9.650732e+2, 1.7473605e+2, -1277142.3, -1256440.8, 26811.523, -0.0014854181, -0.07451615, -1238051.4, -10472.769, 0.0, 9.999671, 9.999939 
9.6505755e+2, 1.8473572e+2, -1201298.9, -1214270.6, 28773.955, -0.017985644, -0.08017192, -1178288.9, -48707.36, 0.0, 9.999712, 9.9995365 
9.650422e+2, 1.9473529e+2, -1076410.1, -1103380.9, 33643.31, -0.002833459, -0.0773697, -1053650.1, -22063.87, 0.0, 9.999897, 9.999536 
9.6502656e+2, 2.047347e+2, -952787.4, -995146.06, 23284.229, 0.003470722, -0.087499335, -942491.0, -8899.851, 0.0, 10.000081, 9.999518 
9.6501064e+2, 2.1473393e+2, -826801.9, -882347.25, 19118.889, -0.0006344694, -0.11754288, -820857.3, 14738.889, 0.0, 10.000267, 9.999531 
9.649952e+2, 2.2473311e+2, -747512.06, -851900.94, 47525.043, 0.0006782831, -0.12503666, -729116.94, 8486.176, 0.0, 10.00039, 9.999008 
9.649802e+2, 2.3473224e+2, -641605.9, -750107.25, 48861.883, 0.007785097, -0.113363415, -622845.44, 16766.697, 0.0, 10.000445, 9.999007 
9.6496487e+2, 2.4473107e+2, -550640.56, -687863.2, 31637.516, 0.0029099314, -0.114424594, -543697.6, -2074.6355, 0.0, 10.000537, 9.998716 
9.64949e+2, 2.5472957e+2, -432648.22, -579737.44, 33510.797, -0.015176074, -0.13498302, -425373.38, 18262.498, 0.0, 10.000672, 9.998721 
9.649332e+2, 2.64728e+2, -341434.72, -512079.1, 18953.6, -0.021717478, -0.15386952, -339354.88, 6295.545, 0.0, 10.000742, 9.998479 
9.6491736e+2, 2.7472627e+2, -244217.55, -413987.97, 13404.39, -0.015394813, -0.17508283, -243165.72, 4501.0303, 0.0, 10.000734, 9.998484 
9.6490145e+2, 2.847246e+2, -152999.98, -359017.44, 15107.227, -0.014388486, -0.17173755, -151898.06, -2215.1218, 0.0, 10.000858, 9.998128 
9.6488535e+2, 2.9472297e+2, -16007.496, -242211.22, 22385.957, -0.020341935, -0.14779152, -13813.382, 37885.81, 0.0, 10.001126, 9.998128 
9.648693e+2, 3.0472088e+2, 101566.96, -78282.14, 17562.008, -0.027018446, -0.20231628, 103265.82, 103265.82, 0.0, 10.0012455, 9.998862 
9.6485335e+2, 3.1472033e+2, 109161.67, -53485.395, -4265.7153, -0.018886719, -0.14387721, 109273.48, 109273.48, 0.00000000015790982, 10.001206, 9.999052 
9.7515243e+2, 1.2475198e+2, -1750492.1, -1680722.5, -8641.471, -0.05385706, -0.09965542, -1679668.1, 37754.08, 0.000057479218, 9.999538, 10.000455 
9.751369e+2, 1.347525e+2, -1723558.6, -1641564.6, -17007.346, 0.07115181, -0.07408302, -1638176.9, -18760.695, 0.000014404859, 9.999153, 10.000239 
9.7511953e+2, 1.4475235e+2, -1653226.3, -1599898.5, 24629.705, -0.03325484, -0.09002798, -1590263.8, -68845.64, 0.0000005546723, 9.999149, 9.999852 
9.7510433e+2, 1.5475236e+2, -1492619.0, -1470465.0, 22385.14, 0.01475506, -0.07545566, -1456566.1, -33146.117, 0.0, 9.999574, 9.999863 
9.750889e+2, 1.6475232e+2, -1360413.3, -1344232.0, 20992.61, 0.030036733, -0.069583945, -1329824.9, -4404.0205, 0.0, 9.999758, 9.999969 
9.75073e+2, 1.7475227e+2, -1273950.3, -1250229.5, 23135.65, 0.006738148, -0.07432857, -1236091.3, -8671.167, 0.0, 9.999672, 9.999982 
9.7505736e+2, 1.8475203e+2, -1191703.3, -1194996.0, 34735.04, -0.0056215855, -0.07941081, -1158575.6, -29153.893, 0.0, 9.999713, 9.999669 
9.7504205e+2, 1.9475159e+2, -1066228.3, -1083090.8, 40091.785, -0.003986766, -0.090366475, -1033690.8, -2265.1084, 0.0, 9.9999, 9.999674 
9.7502655e+2, 2.0475103e+2, -958091.06, -1007232.7, 29105.6, -0.0011983815, -0.10070748, -944571.7, -11141.498, 0.0, 10.000085, 9.999434 
9.7501093e+2, 2.147503e+2, -833126.06, -895535.44, 25559.328, 0.0023229108, -0.116485134, -823994.56, 11440.757, 0.0, 10.000266, 9.99944 
9.749956e+2, 2.2474945e+2, -746231.7, -849290.75, 48902.164, 0.0080279345, -0.12470432, -726721.0, 10721.777, 0.0, 10.00039, 9.999026 
9.7498065e+2, 2.3474842e+2, -640181.4, -746926.75, 50671.137, 0.01585487, -0.12916674, -619959.2, 19493.623, 0.0, 10.000443, 9.999029 
9.749653e+2, 2.4474728e+2, -545591.0, -677739.25, 36326.14, -0.0016576533, -0.13439289, -536263.6, 5199.792, 0.0, 10.000537, 9.998787 
9.749494e+2, 2.5474593e+2, -426929.03, -568780.8, 38952.39, -0.046558157, -0.14748707, -416936.63, 26538.305, 0.0, 10.000675, 9.9987955 
9.7493374e+2, 2.6474437e+2, -349767.1, -529718.7, 19022.754, -0.04498543, -0.15994999, -347778.16, -2288.767, 0.0, 10.000743, 9.998358 
9.7491825e+2, 2.7474257e+2, -253463.3, -432582.0, 13851.89, 0.006451984, -0.17506917, -252398.42, -4891.3657, 0.0, 10.0007305, 9.998358 
9.7490245e+2, 2.8474098e+2, -138076.73, -327581.97, 25660.322, 0.005563202, -0.16895074, -134663.63, 14858.825, 0.0, 10.000855, 9.998346 
9.748862e+2, 2.9473957e+2, 724.97797, -208393.38, 33636.875, -0.051253263, -0.1480086, 6002.32, 57537.97, 0.0, 10.001129, 9.99836 
9.748703e+2, 3.0473745e+2, 73685.64, -135596.42, 16351.458, -0.051326975, -0.19876772, 74955.49, 74955.49, 0.0, 10.001243, 9.99847 
9.748549e+2, 3.1473637e+2, 76288.64, -118681.9, -4191.3696, 0.018918997, -0.15594524, 76378.7, 76378.7, 0.0, 10.001192, 9.9986105 
9.851516e+2, 1.2476779e+2, -1832386.1, -1714128.1, -12124.497, -0.053985644, -0.11135164, -1712897.9, 4369.189, 0.00007951568, 9.99895, 10.000509 
9.8513615e+2, 1.347684e+2, -1668772.9, -1609627.0, -40246.02, 0.06687468, -0.08057813, -1589256.9, 30003.225, 0.000022398126, 9.999505, 10.000289 
9.851188e+2, 1.447684e+2, -1580312.9, -1559088.8, 1159.8446, -0.036419794, -0.08699429, -1559025.6, -37764.895, 0.0000013019285, 9.999626, 9.999902 
9.851038e+2, 1.5476847e+2, -1533188.9, -1483713.9, 14556.528, 0.0148405945, -0.07348993, -1479748.8, -56486.777, 0.0, 9.9992695, 9.999918 
9.850884e+2, 1.6476843e+2, -1420411.4, -1374239.0, 27734.383, 0.029027227, -0.06959977, -1361239.6, -35976.707, 0.0, 9.999351, 9.999958 
9.8507273e+2, 1.7476833e+2, -1240396.5, -1235232.0, 25234.535, 0.0009948834, -0.07793042, -1212448.0, 14814.953, 0.0, 9.9999075, 9.99997 
9.8505723e+2, 1.847681e+2, -1136525.6, -1163842.4, 22127.941, -0.010496979, -0.082183786, -1124180.3, 5084.041, 0.0, 10.0000725, 9.999709 
9.8504186e+2, 1.9476776e+2, -1075496.8, -1082984.0, 19749.438, -0.003974911, -0.087653, -1059139.3, -27872.238, 0.0, 9.999816, 9.999716 
9.8502654e+2, 2.0476721e+2, -997989.9, -1024840.56, 18364.143, 0.0048499517, -0.10027327, -988667.0, -55395.69, 0.0, 9.999804, 9.999449 
9.8501116e+2, 2.147664e+2, -861610.94, -907376.94, 22158.342, 0.015855005, -0.12743223, -852640.8, -17363.62, 0.0, 10.000064, 9.999456 
9.8499596e+2, 2.2476552e+2, -767262.0, -856378.0, 44348.418, 0.018077355, -0.13930857, -748953.5, -11668.815, 0.0, 10.000235, 9.999051 
9.84981e+2, 2.3476459e+2, -658318.56, -752868.1, 45414.3, 0.010637343, -0.1381506, -640039.06, -745.26794, 0.0, 10.000308, 9.999054 
9.849657e+2, 2.4476348e+2, -561611.25, -680664.0, 32858.063, -0.009787451, -0.1418288, -553144.7, -11840.689, 0.0, 10.000408, 9.998828 
9.8495e+2, 2.5476214e+2, -444591.06, -572593.6, 32085.418, -0.045195073, -0.15883538, -436998.78, 6316.903, 0.0, 10.000534, 9.9988365 
9.8493445e+2, 2.6476067e+2, -359607.88, -528771.94, 13624.672, -0.04278726, -0.16665313, -358517.56, -13188.056, 0.0, 10.000651, 9.998407 
9.8491895e+2, 2.7475908e+2, -245959.75, -422896.06, 20607.24, 0.0007395763, -0.16702859, -243591.39, 3753.9758, 0.0, 10.000758, 9.99841 
9.849033e+2, 2.847575e+2, -140664.14, -325296.3, 36297.156, 0.0028997178, -0.16087903, -133784.75, 15575.612, 0.0, 10.000825, 9.998376 
9.8488724e+2, 2.94756e+2, -39001.293, -224187.3, 29375.533, -0.03846385, -0.15524532, -34453.23, 16921.361, 0.0, 10.000843, 9.998388 
9.848715e+2, 3.0475393e+2, 49408.504, -142593.3, 21996.133, -0.041378032, -0.20168158, 51896.195, 51896.195, 0.0, 10.001058, 9.99851 
9.84856e+2, 3.1475288e+2, 118204.48, -97556.98, 33475.566, 0.0036473274, -0.15989837, 123278.89, 123278.89, 0.0, 10.001476, 9.998619 
9.951505e+2, 1.24783725e+2, -1838872.1, -1729717.5, 15511.253, -0.06422762, -0.09617228, -1727556.1, -10445.707, 0.00010622788, 9.99896, 10.000399 
9.951355e+2, 1.3478395e+2, -1677708.4, -1626850.8, -18920.834, 0.053072967, -0.09315876, -1620583.8, -1475.4495, 0.00003292342, 9.999499, 10.0001745 
9.951184e+2, 1.4478405e+2, -1563809.5, -1523169.8, -11800.108, -0.042725403, -0.096642554, -1519992.0, 1115.958, 0.0000026281716, 9.999618, 10.000153 
9.951031e+2, 1.5478458e+2, -1513992.3, -1445043.4, 1203.0029, 0.027490966, -0.062230133, -1445022.4, -21918.9, 0.00000000019976186, 9.999273, 10.000182 
9.950878e+2, 1.6478465e+2, -1424136.3, -1383347.3, 47451.25, 0.03728567, -0.057115182, -1352093.4, -26990.363, 0.0, 9.999355, 9.999894 
9.9507236e+2, 1.7478427e+2, -1244849.0, -1245000.9, 45933.64, -0.01993004, -0.08546301, -1198991.3, 28115.047, 0.0, 9.999908, 9.999904 
9.9505705e+2, 1.8478401e+2, -1140385.1, -1172070.0, 12095.412, -0.034366578, -0.087827064, -1136295.6, -7187.0327, 0.0, 10.0000725, 9.999653 
9.9504167e+2, 1.9478388e+2, -1079306.6, -1091134.8, 9326.215, -0.0030321223, -0.068343334, -1074177.4, -43067.68, 0.0, 9.999816, 9.99966 
9.9502647e+2, 2.0478329e+2, -990142.75, -1008971.75, 26598.791, 0.02142079, -0.08633526, -971341.5, -38227.61, 0.0, 9.9998045, 9.9995575 
9.9501145e+2, 2.1478222e+2, -853380.44, -890589.0, 31235.191, 0.03893405, -0.15044427, -835628.75, -507.2759, 0.0, 10.000064, 9.999572 
9.949963e+2, 2.2478136e+2, -764847.06, -852095.06, 46371.113, 0.0293367, -0.16818462, -744805.25, -7676.8286, 0.0, 10.0002365, 9.999081 
9.9498105e+2, 2.3478071e+2, -656100.56, -748612.25, 48051.17, -0.0094014015, -0.14098589, -635659.2, 3475.6099, 0.0, 10.000309, 9.9990835 
9.94966e+2, 2.4477969e+2, -561504.5, -680408.3, 37417.387, -0.022957971, -0.13818285, -550709.75, -9565.276, 0.0, 10.000407, 9.998831 
9.949509e+2, 2.5477824e+2, -444384.97, -572401.06, 37366.113, -0.010562746, -0.16817603, -434276.5, 8881.364, 0.0, 10.000535, 9.998837 
9.949354e+2, 2.6477692e+2, -344587.66, -498138.34, 17941.742, -0.015082309, -0.17106028, -342519.13, 2651.1284, 0.0, 10.000653, 9.998618 
9.949193e+2, 2.7477574e+2, -230660.84, -391098.38, 25297.52, -0.03673796, -0.14962402, -226766.5, 20414.998, 0.0, 10.000757, 9.99863 
9.949038e+2, 2.8477418e+2, -152471.89, -348948.6, 37549.336, -0.026164321, -0.14830472, -145540.25, 3656.5332, 0.0, 10.00082, 9.998217 
9.9488866e+2, 2.9477215e+2, -51320.23, -248731.84, 31473.828, 0.018920023, -0.17264618, -46423.73, 4792.55, 0.0, 10.000838, 9.998222 
9.9487305e+2, 3.0477032e+2, 81889.1, -74095.414, 39114.633, 0.002580849, -0.21296528, 91147.91, 91147.91, 0.0, 10.001052, 9.998984 
9.948568e+2, 3.147699e+2, 149848.75, -30459.332, 52471.4, -0.073618256, -0.15692481, 164006.73, 164006.73, 0.0, 10.00147, 9.9990835 
1.0051496e+3, 1.24799594e+2, -1773260.5, -1705826.1, 22718.877, -0.070603795, -0.084885456, -1698886.3, 18067.99, 0.00013782152, 9.999441, 10.000332 
1.0051347e+3, 1.3479945e+2, -1759735.9, -1674616.4, -15319.167, 0.058013793, -0.11027463, -1671943.3, -52987.19, 0.000046236724, 9.99897, 10.000103 
1.0051178e+3, 1.4479958e+2, -1635733.3, -1541090.9, -3911.0254, -0.035548184, -0.11408001, -1540929.5, -19974.154, 0.00000474816, 9.999052, 10.000302 
1.00510255e+3, 1.5480042e+2, -1438381.1, -1391652.6, -201.9899, 0.02297677, -0.06513837, -1391651.8, 31295.691, 0.000000004412824, 9.999719, 10.000334 
1.00508735e+3, 1.648006e+2, -1358292.8, -1357011.9, 38181.313, 0.033671074, -0.0546321, -1319465.6, 5480.3086, 0.0, 9.99983, 9.9998455 
1.0050721e+3, 1.7480014e+2, -1329591.8, -1291371.4, 37437.89, -0.011890329, -0.08665069, -1268448.3, -41497.63, 0.0, 9.999351, 9.999854 
1.0050569e+3, 1.8479982e+2, -1239613.9, -1220078.3, 11748.466, -0.024212783, -0.09108123, -1214567.5, -85613.8, 0.0, 9.999393, 9.999651 
1.0050416e+3, 1.9479968e+2, -1052723.8, -1078262.8, 12781.236, 0.00045092285, -0.0724948, -1047426.1, -16471.283, 0.0, 9.999999, 9.99966 
1.0050265e+3, 2.0479912e+2, -930021.94, -981255.7, 23301.303, 0.020952951, -0.086291485, -921009.7, 11949.055, 0.0, 10.000224, 9.999544 
1.0050115e+3, 2.1479815e+2, -857341.6, -894204.6, 17667.781, 0.036602434, -0.1395521, -850241.4, -15275.775, 0.0, 10.000045, 9.999556 
1.00499645e+3, 2.2479728e+2, -786890.3, -854759.9, 33266.484, 0.027166782, -0.16106685, -773304.25, -36331.727, 0.0, 10.0000515, 9.99915 
1.0049813e+3, 2.347965e+2, -657554.8, -740903.25, 37140.816, -0.009971685, -0.15557243, -643406.25, -4426.5044, 0.0, 10.000263, 9.999157 
1.0049663e+3, 2.4479553e+2, -557656.5, -669348.5, 28794.365, -0.021569615, -0.1538939, -550670.25, -9681.596, 0.0, 10.000396, 9.998911 
1.00495145e+3, 2.547944e+2, -452523.38, -566748.5, 34058.137, -0.005888732, -0.1605651, -443139.3, -140.0855, 0.0, 10.000441, 9.99892 
1.00493595e+3, 2.6479316e+2, -368617.22, -506671.2, 10048.092, -0.008733154, -0.16055469, -367889.72, -22878.805, 0.0, 10.000477, 9.998643 
1.00492e+3, 2.747918e+2, -266425.1, -405634.06, 2476.624, -0.031436708, -0.1595484, -266381.06, -19357.115, 0.0, 10.000501, 9.998652 
1.0049045e+3, 2.8479025e+2, -164680.11, -341717.84, 21880.014, -0.022644408, -0.16254176, -162016.05, -12977.133, 0.0, 10.000681, 9.998332 
1.0048896e+3, 2.947885e+2, -15073.858, -217573.25, 35177.918, 0.020409768, -0.17350394, -9136.862, 41918.926, 0.0, 10.00103, 9.998343 
1.0048741e+3, 3.0478686e+2, 95405.68, -59254.387, 35873.902, 0.0020241335, -0.20417412, 103321.586, 103321.586, 0.0, 10.001109, 9.999059 
1.0048579e+3, 3.1478634e+2, 70076.64, -61984.523, 18488.984, -0.077699415, -0.16401559, 72616.32, 72616.32, 0.0, 10.000895, 9.999143 
1.0151488e+3, 1.2481538e+2, -1775887.9, -1708553.1, 11452.711, -0.09028857, -0.08267574, -1706658.5, 10139.773, 0.00017450533, 9.999431, 10.000318 
1.0151339e+3, 1.3481499e+2, -1760541.3, -1677153.8, -32733.547, 0.07701842, -0.13234629, -1665839.5, -47036.723, 0.000062540406, 9.998974, 10.000083 
1.015117e+3, 1.4481507e+2, -1631954.5, -1535213.4, 20016.201, -0.018319098, -0.13965172, -1531235.5, -10433.138, 0.000007860604, 9.999059, 10.00034 
1.01510204e+3, 1.5481606e+2, -1435630.1, -1385724.8, 24734.07, 0.0010295783, -0.08139312, -1375543.3, 47249.93, 0.000000028517778, 9.999717, 10.000377 
1.015087e+3, 1.6481635e+2, -1361429.6, -1363092.0, 20042.527, 0.0170079, -0.060321104, -1342201.1, -17410.195, 0.0, 9.999827, 9.999805 
1.0150718e+3, 1.7481595e+2, -1331801.0, -1296655.5, 18952.264, 0.023505904, -0.08137054, -1288382.8, -61587.402, 0.0, 9.999353, 9.999817 
1.0150567e+3, 1.8481559e+2, -1235475.0, -1212791.4, 32882.86, 0.018914178, -0.09279488, -1189349.3, -60550.258, 0.0, 9.999397, 9.9997 
1.0150417e+3, 1.9481522e+2, -1048560.25, -1070287.9, 35023.547, 0.004714255, -0.10034905, -1022754.3, 8047.6304, 0.0, 10.000001, 9.999714 
1.0150266e+3, 2.0481478e+2, -939585.44, -1001711.25, 15927.387, 0.0011368259, -0.09958636, -935740.06, -2934.7654, 0.0, 10.000226, 9.999403 
1.0150112e+3, 2.1481425e+2, -867545.1, -915411.6, 10218.953, 0.008075897, -0.0944932, -865454.8, -30645.707, 0.0, 10.000044, 9.999411 
1.0149963e+3, 2.2481333e+2, -779717.5, -839767.1, 40077.992, 0.010861855, -0.118477665, -759665.0, -22848.465, 0.0, 10.000051, 9.999254 
1.0149818e+3, 2.3481196e+2, -649423.7, -724782.0, 44988.37, 0.009067826, -0.18141127, -628420.0, 10408.205, 0.0, 10.000266, 9.999267 
1.0149669e+3, 2.4481104e+2, -546341.06, -646764.56, 30221.459, -0.006067634, -0.1869772, -537947.75, 2888.2734, 0.0, 10.000398, 9.999065 
1.01495154e+3, 2.5481066e+2, -441704.75, -543938.0, 35977.6, -0.03438866, -0.13566694, -430313.0, 12526.511, 0.0, 10.000437, 9.99908 
1.0149363e+3, 2.6480943e+2, -380834.56, -530956.94, 11240.533, -0.026910638, -0.13686995, -379997.56, -35146.0, 0.0, 10.000471, 9.998479 
1.014921e+3, 2.7480724e+2, -278047.88, -430144.8, 4392.0366, 0.017454943, -0.19935459, -277921.16, -31048.346, 0.0, 10.000502, 9.998484 
1.0149056e+3, 2.8480577e+2, -137863.67, -287120.88, 35660.69, 0.013603986, -0.20420526, -129781.25, 19105.447, 0.0, 10.000684, 9.998706 
1.01489e+3, 2.9480502e+2, 11206.354, -162063.58, 49570.01, -0.04036268, -0.1531205, 24385.23, 75277.99, 0.0, 10.001024, 9.998728 
1.0148747e+3, 3.0480355e+2, 70349.94, -108470.28, 28374.037, -0.04882119, -0.17090608, 74744.164, 74744.164, 0.0, 10.001097, 9.998727 
1.01485945e+3, 3.1480208e+2, 43403.297, -114299.555, 11855.818, -0.008488253, -0.19018017, 44289.613, 44289.613, 0.0, 10.000881, 9.99879 
1.0251483e+3, 1.2483082e+2, -1813869.3, -1725678.0, 12601.263, -0.07134617, -0.107072845, -1723912.8, -7267.104, 0.0002164286, 9.999166, 10.000326 
1.02513306e+3, 1.3483061e+2, -1690803.1, -1644487.8, -38855.96, 0.06584691, -0.13722748, -1622412.0, -3763.5537, 0.00008198819, 9.999456, 10.000074 
1.0251161e+3, 1.4483075e+2, -1580603.3, -1518366.6, 20145.715, -0.033533767, -0.13685648, -1512414.8, 8233.073, 0.000012107449, 9.999446, 10.00027 
1.02510154e+3, 1.5483148e+2, -1527628.9, -1437947.0, 15942.797, 0.0068347184, -0.09471914, -1435197.3, -12555.799, 0.00000009714164, 9.99912, 10.000306 
1.0250866e+3, 1.6483176e+2, -1441768.3, -1389497.4, 8882.633, 0.0264783, -0.07668642, -1388029.1, -63389.88, 0.0, 9.999225, 9.999914 
1.0250713e+3, 1.7483158e+2, -1260928.0, -1250378.0, 18004.988, 0.019946534, -0.08707033, -1236891.1, -10249.719, 0.0, 9.999787, 9.999926 
1.02505624e+3, 1.8483129e+2, -1153245.8, -1173588.5, 41438.95, 0.014377301, -0.094872944, -1120748.1, 7896.0874, 0.0, 9.999965, 9.999695 
1.02504164e+3, 1.9483091e+2, -1085874.3, -1088856.9, 38740.5, 0.009887983, -0.105841175, -1048596.4, -17948.842, 0.0, 9.999748, 9.999708 
1.0250266e+3, 2.0483042e+2, -1007636.06, -1042135.1, 15589.379, 0.0055473056, -0.103830256, -1001635.3, -68983.81, 0.0, 9.999792, 9.999334 
1.02501124e+3, 2.1482989e+2, -861649.06, -920170.7, 14989.597, 0.0005700779, -0.09312293, -858033.1, -23377.035, 0.0, 10.000118, 9.999342 
1.02499634e+3, 2.2482897e+2, -754427.2, -823086.94, 43793.117, 0.0015624402, -0.11427251, -733111.94, 3551.6013, 0.0, 10.000206, 9.999292 
1.02498196e+3, 2.3482768e+2, -679386.8, -734536.3, 42710.797, 0.0089896945, -0.17516722, -656122.8, -17448.678, 0.0, 10.000042, 9.999307 
1.0249671e+3, 2.448268e+2, -597466.4, -664673.8, 23700.18, -0.0028323832, -0.18300322, -589949.44, -49267.99, 0.0, 10.000019, 9.999125 
1.0249518e+3, 2.5482637e+2, -480403.9, -555944.5, 21182.701, -0.03522159, -0.14017181, -474869.47, -32184.186, 0.0, 10.000143, 9.999138 
1.02493666e+3, 2.6482514e+2, -388657.7, -530980.94, 4855.5215, -0.02676519, -0.14459285, -388492.22, -43795.023, 0.0, 10.000402, 9.998511 
1.0249216e+3, 2.7482307e+2, -231774.0, -403478.47, 12046.443, 0.024686392, -0.2044135, -230932.97, 15784.726, 0.0, 10.000803, 9.99852 
1.02490634e+3, 2.8482163e+2, -111343.484, -275403.03, 29721.482, 0.020002209, -0.20593248, -106125.05, 42606.117, 0.0, 10.000873, 9.998694 
1.0248908e+3, 2.948209e+2, -52687.83, -194162.1, 13808.208, -0.043681614, -0.15109652, -51352.715, -615.52985, 0.0, 10.000592, 9.998714 
1.02487564e+3, 3.0481946e+2, 15582.212, -134091.52, -4213.9053, -0.047656294, -0.16735068, 15700.756, 15700.756, 0.0, 10.000718, 9.998732 
1.02486074e+3, 3.1481782e+2, 97889.38, -89146.63, 3772.7607, 0.0108674485, -0.20435072, 97965.45, 97965.45, 0.0, 10.001258, 9.998781 
1.035148e+3, 1.24845974e+2, -1813812.6, -1725170.6, 28946.553, -0.029995741, -0.15939793, -1716555.3, -59.707634, 0.0002637313, 9.999164, 10.000331 
1.0351321e+3, 1.3484642e+2, -1691508.0, -1644670.6, -28167.154, 0.025102513, -0.1248334, -1631458.4, -12966.156, 0.00010469639, 9.999451, 10.000076 
1.0351151e+3, 1.4484665e+2, -1594009.6, -1545420.1, 7552.3057, -0.080973014, -0.10519697, -1544273.4, -23782.178, 0.000017566988, 9.999441, 10.000087 
1.035101e+3, 1.5484679e+2, -1540040.0, -1464164.1, 3768.6846, 0.03782045, -0.10556631, -1463977.4, -41486.07, 0.00000023822265, 9.999122, 10.000125 
1.0350862e+3, 1.6484693e+2, -1423372.9, -1353351.1, 28799.283, 0.060217857, -0.10438757, -1343028.1, -18537.55, 0.0, 9.999231, 10.00016 
1.03507064e+3, 1.7484711e+2, -1242992.4, -1213420.8, 38666.664, -0.023478143, -0.10351956, -1186809.4, 39678.918, 0.0, 9.999787, 10.00018 
1.0350558e+3, 1.8484707e+2, -1158259.0, -1183974.0, 32493.594, -0.039728764, -0.09604625, -1136171.5, -7683.164, 0.0, 9.999964, 9.999624 
1.03504136e+3, 1.9484678e+2, -1091070.9, -1099647.9, 29734.996, 0.01599563, -0.08840194, -1065316.6, -34825.66, 0.0, 9.999747, 9.999634 
1.0350266e+3, 2.0484616e+2, -1007373.5, -1042129.5, 26333.375, 0.034452237, -0.09909247, -993200.9, -60704.055, 0.0, 9.999794, 9.999334 
1.0350115e+3, 2.1484514e+2, -861074.5, -919534.44, 26610.727, 0.012915286, -0.13569817, -850775.75, -16269.589, 0.0, 10.00012, 9.999346 
1.0349964e+3, 2.2484432e+2, -756344.7, -827787.75, 37039.59, -0.0026495398, -0.14743827, -740607.9, -4094.9163, 0.0, 10.000208, 9.99926 
1.0349818e+3, 2.3484369e+2, -681876.6, -739770.56, 36370.9, -0.011656667, -0.13696994, -664339.5, -25822.396, 0.0, 10.000041, 9.999272 
1.034967e+3, 2.4484278e+2, -600842.25, -670971.25, 28032.203, -0.0136745265, -0.14366756, -591014.44, -50489.613, 0.0, 10.000015, 9.999083 
1.03495225e+3, 2.5484157e+2, -482914.6, -561978.25, 26342.066, -0.008563718, -0.17523497, -474942.0, -32405.686, 0.0, 10.000146, 9.999095 
1.0349373e+3, 2.648404e+2, -372671.06, -499089.16, 20215.178, -0.008613988, -0.1827439, -369517.2, -24969.766, 0.0, 10.000407, 9.998729 
1.03492215e+3, 2.7483925e+2, -216305.4, -371017.63, 27934.719, -0.013481609, -0.17066963, -211416.05, 35142.047, 0.0, 10.0008, 9.998745 
1.03490695e+3, 2.8483784e+2, -140439.45, -333896.88, 19728.844, -0.0071796644, -0.16524959, -138448.0, 10124.093, 0.0, 10.000864, 9.998298 
1.034892e+3, 2.9483607e+2, -81272.33, -252917.86, 4351.6997, 0.011153213, -0.17206404, -81162.07, -30572.525, 0.0, 10.000589, 9.998313 
1.03487685e+3, 3.0483449e+2, 39566.68, -84979.65, 17353.7, 0.0059906696, -0.1984879, 41939.46, 41939.46, 0.0, 10.000719, 9.999069 
1.0348616e+3, 3.148335e+2, 121406.04, -40750.727, 26695.512, -0.025759809, -0.20393477, 125687.805, 125687.805, 0.0, 10.001258, 9.999115 
1.0451471e+3, 1.2486122e+2, -1798049.8, -1708973.5, 16421.85, -0.030269315, -0.16721919, -1706042.5, 10303.231, 0.00031664252, 9.999234, 10.000408 
1.04513146e+3, 1.3486174e+2, -1740172.1, -1660328.9, -43621.22, 0.035984546, -0.13183564, -1641118.9, -22777.482, 0.00013079311, 9.999082, 10.000147 
1.0451144e+3, 1.4486203e+2, -1639035.4, -1568792.0, -1220.2747, -0.0720875, -0.11056543, -1568770.8, -48431.07, 0.000024312307, 9.999141, 10.00007 
1.0451001e+3, 1.5486203e+2, -1497534.6, -1446148.6, 5728.3374, 0.02638874, -0.12110575, -1445517.9, -23176.701, 0.0000004785213, 9.999423, 10.000103 
1.04508534e+3, 1.6486217e+2, -1380732.4, -1333504.8, 37847.74, 0.04558851, -0.11863541, -1312508.5, 11832.049, 0.0, 9.999528, 10.000153 
1.0450703e+3, 1.748625e+2, -1289632.3, -1236119.8, 27967.285, -0.026026398, -0.1029927, -1224171.1, 2165.9763, 0.0, 9.999469, 10.000176 
1.0450554e+3, 1.8486252e+2, -1218193.0, -1209048.9, 6767.194, -0.038747218, -0.09245057, -1205454.0, -77117.16, 0.0, 9.999537, 9.999656 
1.045041e+3, 1.9486217e+2, -1089624.9, -1095390.8, 11533.028, 0.012465319, -0.09398325, -1080619.9, -50280.004, 0.0, 9.9997425, 9.999664 
1.0450265e+3, 2.0486154e+2, -993158.9, -1035511.3, 20526.564, 0.031882424, -0.105930634, -984843.2, -52497.465, 0.0, 9.999894, 9.9993305 
1.0450116e+3, 2.1486059e+2, -878966.9, -928437.2, 19623.16, 0.016265495, -0.13458887, -872128.3, -37773.813, 0.0, 10.0, 9.999342 
1.0449967e+3, 2.2485977e+2, -771950.06, -837094.2, 21355.424, -0.0004555046, -0.14472894, -765573.56, -29212.191, 0.0, 10.000109, 9.999244 
1.0449818e+3, 2.3485908e+2, -656567.9, -729370.25, 20819.883, -0.01834859, -0.13958718, -651034.44, -12668.403, 0.0, 10.000222, 9.999255 
1.044967e+3, 2.4485809e+2, -565310.25, -662284.0, 16082.271, -0.018921128, -0.14995152, -562712.7, -22338.09, 0.0, 10.000296, 9.999006 
1.0449525e+3, 2.548568e+2, -461587.28, -559834.6, 11180.488, -0.0013009952, -0.18287264, -460331.0, -17943.686, 0.0, 10.000329, 9.999021 
1.04493774e+3, 2.648557e+2, -371044.8, -487033.16, 4522.3296, -0.00068990985, -0.18304509, -370868.75, -26471.15, 0.0, 10.000371, 9.998828 
1.0449226e+3, 2.7485484e+2, -263757.94, -382588.16, 2871.812, -0.01775625, -0.15469566, -263688.56, -17283.275, 0.0, 10.000425, 9.998846 
1.0449077e+3, 2.8485337e+2, -179273.25, -366042.25, -5298.9033, -0.009996495, -0.15205029, -179123.03, -30703.262, 0.0, 10.000655, 9.998177 
1.0448928e+3, 2.9485124e+2, -21316.2, -237305.44, -1327.4501, 0.025158703, -0.1813069, -21308.041, 29133.148, 0.0, 10.00106, 9.998192 
1.0448779e+3, 3.0484968e+2, 101904.77, -49564.2, 13861.014, 0.020152058, -0.20454039, 103162.76, 103162.76, 0.0, 10.001125, 9.999117 
1.0448626e+3, 3.14849e+2, 64782.934, -62885.42, 1260.3539, -0.029930104, -0.18566366, 64795.375, 64795.375, 0.0, 10.000849, 9.999158 
1.0551458e+3, 1.2487662e+2, -1788469.1, -1688053.1, 18204.137, -0.08313602, -0.13572562, -1684854.9, 31340.78, 0.0003754383, 9.999229, 10.000554 
1.0551311e+3, 1.3487671e+2, -1730684.3, -1640436.6, -48975.93, 0.094966836, -0.15737711, -1618966.1, -771.3131, 0.00016041061, 9.999081, 10.000284 
1.0551141e+3, 1.4487697e+2, -1629017.3, -1549208.0, 8693.556, -0.011297853, -0.15150805, -1548272.0, -28079.25, 0.000032450233, 9.999145, 10.000203 
1.055099e+3, 1.5487732e+2, -1488527.0, -1427036.1, 16029.648, -0.02785782, -0.14044434, -1423108.4, -918.35144, 0.0000008393984, 9.99942, 10.000236 
1.05508424e+3, 1.648776e+2, -1399233.1, -1371920.8, 35011.145, -0.01838287, -0.11778953, -1347996.8, -23808.412, 0.0, 9.999527, 9.99989 
1.0550701e+3, 1.7487784e+2, -1307981.6, -1274595.5, 25489.787, 0.011393637, -0.085208975, -1260819.1, -34631.777, 0.0, 9.999471, 9.999912 
1.05505556e+3, 1.8487766e+2, -1208418.0, -1189934.9, 13423.736, 0.016166735, -0.084424675, -1182879.1, -54690.137, 0.0, 9.999541, 9.999786 
1.05504066e+3, 1.9487709e+2, -1079900.0, -1075512.0, 18637.201, -0.0026919574, -0.12320122, -1058940.1, -28746.523, 0.0, 9.999743, 9.999802 
1.055026e+3, 2.0487663e+2, -994208.44, -1038268.9, 23502.47, -0.004625253, -0.12374039, -984025.4, -51827.83, 0.0, 9.999895, 9.999311 
1.05501145e+3, 2.148763e+2, -880316.9, -931617.75, 23001.334, 0.010213009, -0.089583345, -871514.3, -37313.555, 0.0, 10.0, 9.99932 
1.05499685e+3, 2.2487539e+2, -771873.75, -837544.44, 24743.256, 0.0077353683, -0.10667074, -763594.75, -27386.424, 0.0, 10.000111, 9.999241 
1.054982e+3, 2.3487389e+2, -656075.06, -729298.44, 24910.043, -0.012056965, -0.1835902, -648404.4, -10183.84, 0.0, 10.000225, 9.999255 
1.0549674e+3, 2.4487278e+2, -572769.25, -678870.9, 17172.156, -0.019786656, -0.20097892, -570059.25, -29828.799, 0.0, 10.000299, 9.998892 
1.05495274e+3, 2.5487208e+2, -469591.9, -576653.8, 12753.795, -0.015004286, -0.16159894, -468093.56, -25855.686, 0.0, 10.000328, 9.998907 
1.054938e+3, 2.648711e+2, -372775.63, -489890.56, 6581.2813, -0.0045771333, -0.14567529, -372406.94, -28159.414, 0.0, 10.000366, 9.998811 
1.0549233e+3, 2.7486977e+2, -264827.0, -384893.44, 5614.274, 0.010894365, -0.159786, -264565.03, -18305.604, 0.0, 10.000424, 9.998831 
1.05490856e+3, 2.8486827e+2, -168906.98, -345167.3, 10735.182, 0.0103001585, -0.1687017, -168255.56, -19981.342, 0.0, 10.000656, 9.99832 
1.05489366e+3, 2.948665e+2, -11005.707, -216413.4, 15250.155, -0.0049289567, -0.1751921, -9879.658, 40412.06, 0.0, 10.00106, 9.998336 
1.0548787e+3, 3.0486506e+2, 84014.8, -85761.32, 3502.4514, -0.00847967, -0.18084902, 84087.02, 84087.02, 0.0, 10.001121, 9.99887 
1.0548636e+3, 3.1486425e+2, 47077.105, -98699.32, -8123.9917, -0.0046947813, -0.14867301, 47528.453, 47528.453, 0.0, 10.000845, 9.998914 
1.065145e+3, 1.2489194e+2, -1812788.3, -1695739.3, 43827.633, -0.06614937, -0.13796006, -1681147.6, 34897.773, 0.00044023, 9.999047, 10.000588 
1.06513016e+3, 1.3489209e+2, -1745858.1, -1645857.9, -40223.516, 0.10140001, -0.15357381, -1631686.8, -13642.744, 0.0001936281, 9.998967, 10.000302 
1.06511325e+3, 1.4489236e+2, -1640122.1, -1555775.5, 24302.22, -0.010974709, -0.14666577, -1549274.5, -29232.791, 0.00004209593, 9.999075, 10.000191 
1.0650983e+3, 1.5489261e+2, -1492291.0, -1429828.4, 20194.637, -0.03712186, -0.14578462, -1423868.1, -1828.4019, 0.0000013547506, 9.999401, 10.000225 
1.06508374e+3, 1.6489282e+2, -1402839.5, -1382804.0, 27763.516, -0.025669258, -0.12578958, -1363306.1, -39267.484, 0.0, 9.999544, 9.999805 
1.0650697e+3, 1.7489302e+2, -1309501.9, -1285091.3, 31153.277, 0.018912064, -0.088725016, -1263837.6, -37799.293, 0.0, 9.999503, 9.999825 
1.0650552e+3, 1.848928e+2, -1204060.5, -1191232.6, 30071.531, 0.026108848, -0.08680121, -1166898.6, -38857.97, 0.0, 9.999587, 9.999755 
1.0650404e+3, 1.9489218e+2, -1071180.8, -1074463.9, 22236.992, -0.005389367, -0.12712316, -1050524.9, -20479.121, 0.0, 9.999818, 9.999772 
1.0650258e+3, 2.048917e+2, -981573.75, -1031065.2, 17526.889, -0.013548554, -0.12884568, -975995.5, -43945.734, 0.0, 9.999978, 9.999321 
1.0650115e+3, 2.1489137e+2, -869649.56, -925389.75, 18848.299, 0.002116068, -0.09514852, -863874.44, -29821.707, 0.0, 10.000069, 9.99933 
1.06499694e+3, 2.2489046e+2, -772248.6, -845061.1, 19203.256, 0.005096497, -0.11078081, -767494.44, -31433.887, 0.0, 10.00014, 9.999174 
1.0649824e+3, 2.3488891e+2, -664966.25, -740806.7, 13708.793, -0.0047480497, -0.18402967, -662564.3, -24490.775, 0.0, 10.000196, 9.999189 
1.0649677e+3, 2.448878e+2, -574715.4, -681153.7, 7179.8325, -0.011386696, -0.19704132, -574233.25, -34149.707, 0.0, 10.000293, 9.998879 
1.0649531e+3, 2.5488713e+2, -455245.47, -570935.94, 9806.838, -0.015046882, -0.1527274, -454420.06, -12329.736, 0.0, 10.000431, 9.998897 
1.06493846e+3, 2.6488602e+2, -350392.78, -489797.88, 4974.0635, -0.0057455925, -0.14324574, -350215.53, -6114.438, 0.0, 10.0005665, 9.998715 
1.0649239e+3, 2.7488446e+2, -232658.11, -379745.22, -2745.208, 0.016824912, -0.17504653, -232606.89, 13509.001, 0.0, 10.000691, 9.998737 
1.0649093e+3, 2.8488296e+2, -152588.67, -327751.88, 495.80264, 0.012390481, -0.17820041, -152587.27, -4457.0313, 0.0, 10.000729, 9.998404 
1.0648943e+3, 2.9488164e+2, -58858.46, -229799.9, 672.23724, -0.019118544, -0.15463333, -58855.82, -8711.969, 0.0, 10.0006895, 9.998422 
1.0648795e+3, 3.0488017e+2, 40237.77, -114550.67, -11630.25, -0.018985078, -0.16300957, 41106.746, 41106.746, 0.0, 10.000854, 9.9988 
1.06486484e+3, 3.1487906e+2, 94414.05, -83327.59, -12730.118, 0.011331338, -0.15266575, 95321.164, 95321.164, 0.0, 10.001204, 9.998846 
1.0751448e+3, 1.2490727e+2, -1820165.1, -1708028.0, 47222.813, 0.0044019697, -0.17144771, -1690791.1, 25102.975, 0.00051082077, 9.999036, 10.000508 
1.0751287e+3, 1.34908e+2, -1753044.1, -1659953.0, -43743.402, 0.056114912, -0.12075043, -1642623.9, -24735.53, 0.00023041679, 9.998964, 10.000207 
1.0751117e+3, 1.4490831e+2, -1650996.1, -1578857.1, 35733.727, -0.070723884, -0.0970421, -1564153.5, -44267.484, 0.000053336094, 9.999076, 10.000032 
1.075098e+3, 1.5490799e+2, -1503261.8, -1452985.0, 32396.225, -0.0032143071, -0.1373476, -1437117.9, -15228.344, 0.0000020676762, 9.999402, 10.000066 
1.07508376e+3, 1.649079e+2, -1396416.8, -1369954.0, 25515.781, 0.020762766, -0.1427652, -1354443.0, -30552.14, 0.0000000000166348, 9.999545, 9.999894 
1.07506886e+3, 1.7490812e+2, -1303294.6, -1272287.6, 29246.908, -0.004564744, -0.113437384, -1254689.3, -28799.615, 0.0, 9.999502, 9.999912 
1.0750544e+3, 1.8490797e+2, -1218171.0, -1220948.1, 37602.15, -0.010881846, -0.098482214, -1181931.8, -54040.684, 0.0, 9.999588, 9.999551 
1.07504025e+3, 1.9490749e+2, -1085395.8, -1104524.3, 30251.379, 0.004198182, -0.10495977, -1063232.8, -33337.016, 0.0, 9.99982, 9.999565 
1.075026e+3, 2.0490676e+2, -978399.0, -1025794.75, 19771.33, 0.00478081, -0.1210319, -971234.4, -39332.426, 0.0, 9.999982, 9.999355 
1.07501134e+3, 2.1490584e+2, -866819.9, -919859.1, 21578.127, -0.009736591, -0.15177007, -859150.25, -25240.28, 0.0, 10.00007, 9.999368 
1.074997e+3, 2.2490498e+2, -781428.6, -864471.25, 20479.117, -0.010314359, -0.15644193, -776652.94, -40735.383, 0.0, 10.00014, 9.999042 
1.07498266e+3, 2.349042e+2, -674219.5, -760601.5, 15754.496, 0.0032384428, -0.14008917, -671435.9, -33511.234, 0.0, 10.000197, 9.999054 
1.0749683e+3, 2.449032e+2, -568132.56, -668182.25, 12231.051, 0.005666891, -0.13809817, -566659.06, -26725.492, 0.0, 10.000295, 9.998968 
1.0749536e+3, 2.5490203e+2, -448416.84, -557465.4, 15489.948, -0.0031728263, -0.15738739, -446259.22, -4314.8237, 0.0, 10.000434, 9.998988 
1.0749391e+3, 2.6490057e+2, -362679.9, -516237.1, 10212.475, -0.005694707, -0.1764438, -362003.72, -18045.66, 0.0, 10.000569, 9.998533 
1.0749245e+3, 2.748989e+2, -245375.78, -406570.28, 2741.3508, -0.0013261971, -0.19964977, -245329.17, 645.20483, 0.0, 10.000691, 9.998553 
1.0749098e+3, 2.848976e+2, -150957.14, -323676.7, -1074.4275, -0.0053436127, -0.17986433, -150950.47, -2962.8433, 0.0, 10.000725, 9.998434 
1.07489504e+3, 2.948966e+2, -56879.563, -224959.11, 198.58784, -0.019118367, -0.12199877, -56879.33, -6881.673, 0.0, 10.000686, 9.998457 
1.0748805e+3, 3.0489495e+2, 46512.04, -101431.414, 3110.8096, -0.012717054, -0.15382811, 46577.42, 46577.42, 0.0, 10.000852, 9.998892 
1.07486606e+3, 3.1489345e+2, 101884.68, -69184.45, 2354.4277, 0.015009904, -0.19368291, 101917.08, 101917.08, 0.0, 10.001207, 9.998942 
1.0851439e+3, 1.2492252e+2, -1894730.3, -1748550.8, 34082.957, 0.03370762, -0.1649882, -1740994.6, -25250.084, 0.0005868495, 9.998546, 10.000466 
1.0851276e+3, 1.349231e+2, -1729532.4, -1655078.1, -64020.91, 0.03983767, -0.124148965, -1618247.6, -506.77786, 0.00027068684, 9.999154, 10.000149 
1.08511075e+3, 1.4492346e+2, -1608653.9, -1556649.3, 16570.506, -0.09215402, -0.09357575, -1551818.1, -32079.893, 0.00006622561, 9.999362, 10.000046 
1.0850973e+3, 1.5492328e+2, -1534291.6, -1466712.1, 24941.426, 0.003146714, -0.12063891, -1458504.0, -36763.77, 0.000003027, 9.999185, 10.000075 
1.08508326e+3, 1.6492316e+2, -1437850.9, -1393453.3, 23786.04, 0.032595064, -0.12864037, -1383116.5, -59374.793, 0.000000000186287, 9.999277, 9.999862 
1.08506836e+3, 1.7492314e+2, -1284475.9, -1266270.5, 17695.693, -0.011382099, -0.11706608, -1255473.5, -29731.436, 0.0, 9.999647, 9.999883 
1.08505405e+3, 1.849229e+2, -1187606.0, -1218727.3, 24372.104, -0.020939915, -0.1070579, -1174250.6, -46505.86, 0.0, 9.999853, 9.999437 
1.0850402e+3, 1.9492236e+2, -1082179.1, -1115934.4, 23763.066, 0.0066188746, -0.1060352, -1069910.0, -40159.902, 0.0, 9.999898, 9.999449 
1.085026e+3, 2.0492162e+2, -974895.5, -1026491.94, 15110.6045, 0.011396572, -0.11886477, -970795.94, -39039.082, 0.0, 10.000018, 9.999333 
1.08501144e+3, 2.1492064e+2, -846333.8, -912064.4, 11646.331, -0.008335317, -0.1506283, -844331.25, -10566.073, 0.0, 10.00022, 9.999349 
1.0849972e+3, 2.2491978e+2, -755058.56, -854968.0, 8484.272, -0.012131134, -0.15349288, -754343.2, -18570.41, 0.0, 10.000336, 9.999012 
1.0849829e+3, 2.3491904e+2, -652085.1, -753051.2, 10744.344, 0.000029732948, -0.13195024, -650954.44, -13174.779, 0.0, 10.000363, 9.999025 
1.0849685e+3, 2.4491802e+2, -554016.44, -665068.75, 8695.148, 0.0060735727, -0.12997934, -553339.75, -13550.846, 0.0, 10.000407, 9.998935 
1.0849541e+3, 2.5491673e+2, -445710.8, -559621.9, 2205.905, 0.0062167747, -0.15489548, -445668.1, -3867.5361, 0.0, 10.000467, 9.998957 
1.0849397e+3, 2.6491523e+2, -366900.0, -524563.0, -1732.7562, -0.00026241943, -0.17441207, -366880.94, -23066.238, 0.0, 10.000568, 9.998476 
1.0849251e+3, 2.7491355e+2, -245768.3, -413279.0, -71.27394, -0.013636644, -0.19243313, -245768.27, 62.939972, 0.0, 10.000717, 9.998495 
1.08491056e+3, 2.849122e+2, -136058.02, -319242.3, -5387.6177, -0.016056526, -0.17223008, -135899.69, 11945.107, 0.0, 10.000838, 9.998409 
1.084896e+3, 2.9491118e+2, -23526.486, -211301.44, -9682.034, -0.0070956415, -0.11857374, -23028.582, 26826.777, 0.0, 10.000926, 9.998435 
1.0848815e+3, 3.0490935e+2, 68606.47, -88591.516, -4583.695, -0.0023523837, -0.16399711, 68740.01, 68740.01, 0.0, 10.000995, 9.998911 
1.08486705e+3, 3.1490797e+2, 84433.42, -73185.734, -11078.179, -0.0019714553, -0.19613355, 85208.234, 85208.234, 0.0, 10.001069, 9.998981 
1.0951422e+3, 1.24937735e+2, -1895455.6, -1749175.0, 65756.71, 0.017249899, -0.12416842, -1723961.6, -8365.689, 0.00066827383, 9.998543, 10.0004635 
1.0951269e+3, 1.349375e+2, -1732548.3, -1660191.9, -41261.79, 0.049813382, -0.16145411, -1641493.9, -23893.588, 0.00031450897, 9.999148, 10.000117 
1.09511025e+3, 1.4493792e+2, -1597093.5, -1531187.9, 9240.424, -0.07862711, -0.13339669, -1529916.8, -10319.606, 0.000080840386, 9.999355, 10.000224 
1.0950963e+3, 1.5493853e+2, -1522143.3, -1441992.8, 18176.758, -0.018236909, -0.09610672, -1438063.3, -16472.17, 0.0000043066148, 9.9991865, 10.000245 
1.09508224e+3, 1.6493861e+2, -1448259.3, -1416006.6, 36763.098, 0.0086647915, -0.08438557, -1391988.4, -68397.78, 0.0000000006358386, 9.999281, 9.999705 
1.0950681e+3, 1.7493819e+2, -1295206.0, -1289397.4, 31145.893, -0.0027098737, -0.09952308, -1261020.6, -35425.4, 0.0, 9.99965, 9.9997225 
1.0950541e+3, 1.8493763e+2, -1188934.8, -1222241.4, 24956.934, -0.0059572887, -0.112670116, -1175585.0, -47983.96, 0.0, 9.999856, 9.999413 
1.0950401e+3, 1.9493687e+2, -1083794.3, -1119438.8, 24794.781, 0.0009797432, -0.13045633, -1071081.0, -41472.82, 0.0, 9.999898, 9.999426 
1.095026e+3, 2.0493628e+2, -981018.25, -1039563.56, 21613.523, 0.005103265, -0.12180578, -973903.6, -42289.805, 0.0, 10.000018, 9.999244 
1.0950118e+3, 2.1493585e+2, -852164.2, -924981.7, 18720.02, 0.005538251, -0.09118896, -847633.56, -14015.69, 0.0, 10.000222, 9.999259 
1.0949975e+3, 2.249349e+2, -749382.7, -844386.7, 8582.87, -0.0013837196, -0.10167199, -748613.5, -12987.555, 0.0, 10.0003395, 9.9990835 
1.094983e+3, 2.349334e+2, -646780.94, -742403.6, 11559.94, -0.015682593, -0.16041254, -645403.3, -7764.945, 0.0, 10.000364, 9.999099 
1.0949688e+3, 2.449322e+2, -564869.5, -688026.8, 10823.7295, -0.011238268, -0.17330034, -563925.5, -24276.254, 0.0, 10.000408, 9.998777 
1.0949547e+3, 2.549313e+2, -456668.1, -582586.3, 4829.9995, 0.012505354, -0.14486615, -456483.1, -14824.578, 0.0, 10.000467, 9.9988 
1.0949403e+3, 2.6493004e+2, -362185.75, -514783.4, 4102.031, 0.00967647, -0.13614765, -362075.56, -18404.777, 0.0, 10.000567, 9.998544 
1.0949256e+3, 2.7492845e+2, -240563.13, -402957.63, 6509.8213, -0.021297662, -0.15274541, -240302.58, 5383.4414, 0.0, 10.000718, 9.998566 
1.09491125e+3, 2.8492686e+2, -142289.16, -332857.5, -1257.3514, -0.020415954, -0.15467496, -142280.86, 5420.6436, 0.0, 10.000841, 9.998315 
1.0948971e+3, 2.949253e+2, -30218.596, -225512.66, -5219.0117, 0.015916968, -0.14567457, -30079.223, 19637.818, 0.0, 10.000926, 9.998338 
1.0948826e+3, 3.0492336e+2, 64894.387, -96256.37, -2083.054, 0.009826864, -0.19477057, 64921.31, 64921.31, 0.0, 10.000994, 9.998859 
1.09486766e+3, 3.1492263e+2, 83278.75, -75244.44, -6968.476, -0.044023056, -0.15643916, 83584.49, 83584.49, 0.0, 10.001066, 9.998969 
1.1051409e+3, 1.24952115e+2, -1855456.9, -1713975.4, 61425.67, 0.016341563, -0.13051507, -1691028.5, 24427.406, 0.00075577793, 9.998748, 10.000607 
1.1051256e+3, 1.3495213e+2, -1807370.5, -1682731.8, -46666.426, 0.04949904, -0.15355499, -1667195.8, -49738.414, 0.00036234639, 9.998574, 10.00024 
1.1051092e+3, 1.4495268e+2, -1679775.8, -1573663.8, 4390.123, -0.075422734, -0.117260255, -1573482.4, -54029.586, 0.00009737699, 9.998799, 10.000201 
1.10509545e+3, 1.5495315e+2, -1486638.4, -1427121.4, -1870.1311, -0.034562163, -0.093750685, -1427062.6, -5614.0483, 0.0000060098255, 9.999442, 10.000223 
1.1050815e+3, 1.6495319e+2, -1385943.9, -1390652.5, 11072.885, -0.0073175333, -0.08436629, -1376977.8, -53528.992, 0.0000000015512864, 9.999731, 9.999661 
1.1050679e+3, 1.7495279e+2, -1294834.5, -1294309.1, 13632.473, 0.0011441789, -0.091258965, -1280936.8, -55483.668, 0.0, 9.999676, 9.999677 
1.10505395e+3, 1.8495226e+2, -1197810.9, -1222827.1, 14263.618, 0.0041332804, -0.10002672, -1191347.9, -63889.4, 0.0, 9.999779, 9.999445 
1.10504e+3, 1.9495155e+2, -1060095.5, -1103865.8, 17659.266, 0.0028235577, -0.116874345, -1053859.4, -24394.352, 0.0, 10.000044, 9.999461 
1.105026e+3, 2.0495094e+2, -957660.5, -1039799.8, 16498.766, -0.00007239165, -0.10635149, -954470.4, -22999.514, 0.0, 10.000229, 9.99914 
1.105012e+3, 2.1495044e+2, -843284.7, -932446.4, 11847.4795, -0.005477254, -0.07336814, -841737.3, -8261.18, 0.0, 10.000335, 9.999153 
1.1049978e+3, 2.249494e+2, -736564.7, -834083.0, -4715.531, -0.0108348075, -0.08909974, -736337.2, -852.2036, 0.0, 10.000411, 9.999119 
1.10498354e+3, 2.3494782e+2, -630321.25, -730488.3, -5207.7974, -0.015978826, -0.1611497, -630051.2, 7446.4624, 0.0, 10.000461, 9.999134 
1.1049692e+3, 2.4494658e+2, -556887.94, -696367.8, -4609.136, -0.0064280606, -0.17405728, -556735.8, -17227.033, 0.0, 10.000517, 9.998668 
1.1049552e+3, 2.549457e+2, -447740.78, -590635.25, -8070.434, 0.017680746, -0.13141826, -447286.44, -5768.2974, 0.0, 10.000583, 9.998689 
1.1049409e+3, 2.649444e+2, -348557.97, -506488.3, -7432.5835, 0.013741767, -0.12208843, -348208.94, -4678.014, 0.0, 10.000653, 9.998559 
1.1049264e+3, 2.749427e+2, -237662.1, -399511.34, -9607.469, -0.019006362, -0.1517708, -237093.78, 8453.322, 0.0, 10.0007305, 9.998583 
1.1049121e+3, 2.849411e+2, -142176.42, -331288.0, -15310.635, -0.021874826, -0.15306143, -140944.89, 6617.3447, 0.0, 10.000836, 9.998328 
1.1048979e+3, 2.949397e+2, -22585.959, -220568.88, -11314.939, 0.008085664, -0.13009538, -21941.396, 27634.773, 0.0, 10.000974, 9.998349 
1.10488355e+3, 3.0493766e+2, 65402.957, -103336.58, -7511.0347, 0.0005886228, -0.18958609, 65736.63, 65736.63, 0.0, 10.00103, 9.998793 
1.10486865e+3, 3.1493688e+2, 74933.63, -81031.44, -16200.682, -0.04782612, -0.14815524, 76598.69, 76598.69, 0.0, 10.001019, 9.998951 
1.1151398e+3, 1.2496574e+2, -1836269.1, -1672157.3, 66400.88, 0.026454955, -0.18497908, -1648656.3, 66667.43, 0.00085057894, 9.99874, 10.000896 
1.115124e+3, 1.3496707e+2, -1787904.1, -1643849.5, -53304.176, 0.037435483, -0.1032646, -1626270.6, -8959.142, 0.00041499882, 9.99858, 10.000505 
1.11510806e+3, 1.4496784e+2, -1694282.9, -1604513.5, 27282.455, -0.08439792, -0.049013097, -1596872.4, -77567.484, 0.00011616446, 9.998802, 9.999988 
1.1150947e+3, 1.5496722e+2, -1501826.4, -1458537.5, 21943.053, -0.047979586, -0.11257175, -1449360.1, -28048.295, 0.000008247579, 9.999441, 10.000009 
1.11508116e+3, 1.6496694e+2, -1381556.8, -1381366.3, 8156.7197, -0.017552024, -0.12665862, -1373304.3, -49988.887, 0.0000000033697685, 9.999729, 9.999726 
1.1150675e+3, 1.7496702e+2, -1289696.3, -1284549.9, 11258.278, -0.00009509671, -0.092094466, -1275574.5, -50259.56, 0.0, 9.999679, 9.9997425 
1.11505374e+3, 1.8496688e+2, -1191725.4, -1210746.5, 23204.146, 0.008418745, -0.06956121, -1176158.4, -48842.043, 0.0, 9.999781, 9.999528 
1.1150402e+3, 1.9496647e+2, -1053787.4, -1091729.8, 26965.297, 0.010479018, -0.06531669, -1039788.44, -10468.648, 0.0, 10.000048, 9.999543 
1.1150261e+3, 2.0496565e+2, -965598.56, -1057437.0, 19157.887, -0.0058967997, -0.07275036, -961762.4, -30434.86, 0.0, 10.000233, 9.999018 
1.11501195e+3, 2.1496445e+2, -851906.7, -950253.8, 15110.997, -0.04176377, -0.097599536, -849637.25, -16297.616, 0.0, 10.000334, 9.999032 
1.11499794e+3, 2.2496332e+2, -737174.4, -835279.4, -3732.0637, -0.040746894, -0.11590254, -737032.6, -1683.1096, 0.0, 10.00041, 9.999112 
1.114984e+3, 2.3496228e+2, -630446.4, -731149.56, -3486.297, -0.0016689702, -0.13308294, -630325.8, 7031.246, 0.0, 10.000462, 9.999129 
1.1149701e+3, 2.4496116e+2, -561671.8, -706490.44, -2256.6704, 0.019081203, -0.13082688, -561636.6, -22269.695, 0.0, 10.000517, 9.998599 
1.11495584e+3, 2.5495994e+2, -452510.53, -601052.94, -5085.1104, 0.020830287, -0.1145467, -452336.66, -10957.511, 0.0, 10.000585, 9.998616 
1.11494154e+3, 2.6495832e+2, -351071.7, -512648.56, -4361.561, 0.011761181, -0.13329805, -350954.03, -7558.9746, 0.0, 10.000657, 9.998515 
1.1149272e+3, 2.7495626e+2, -241216.3, -406371.88, -6087.959, -0.008212274, -0.19207387, -240992.19, 4422.434, 0.0, 10.000728, 9.998538 
1.11491285e+3, 2.84955e+2, -133585.64, -312541.66, -9680.714, -0.023212112, -0.16858512, -133063.47, 14363.539, 0.0, 10.000832, 9.99846 
1.11489855e+3, 2.9495448e+2, -12583.662, -201019.3, -4512.2544, -0.032977607, -0.06832093, -12475.675, 36956.52, 0.0, 10.0009775, 9.998482 
1.11488424e+3, 3.0495226e+2, 58924.723, -118431.52, -7292.565, -0.030694969, -0.14420426, 59224.074, 59224.074, 0.0, 10.001036, 9.998687 
1.11487e+3, 3.1495076e+2, 71345.85, -87334.23, -15148.619, -0.014608003, -0.16536522, 72779.09, 72779.09, 0.0, 10.001013, 9.998912 
1.1251383e+3, 1.24980114e+2, -1847277.5, -1677299.1, 80916.94, 0.013239141, -0.1611899, -1644939.6, 70244.81, 0.00095378526, 9.998665, 10.000898 
1.1251227e+3, 1.3498132e+2, -1728346.9, -1615216.1, -70375.28, 0.024988817, -0.09053958, -1581491.3, 35681.457, 0.00047316175, 9.998989, 10.000504 
1.125107e+3, 1.4498207e+2, -1646274.5, -1591502.6, 16062.085, -0.07791447, -0.033725016, -1587139.9, -67973.62, 0.00013752929, 9.999176, 9.999896 
1.125094e+3, 1.5498129e+2, -1535821.1, -1485915.9, 18850.277, -0.053407233, -0.103697, -1479596.0, -58420.832, 0.00001111389, 9.999254, 9.99991 
1.12508066e+3, 1.6498096e+2, -1415601.8, -1392704.6, 1655.6575, -0.02934938, -0.11976081, -1392585.5, -69406.44, 0.0000000061074554, 9.999473, 9.999772 
1.1250672e+3, 1.7498113e+2, -1264638.6, -1266849.9, 2445.6611, -0.011854944, -0.08227326, -1263060.4, -37882.805, 0.0, 9.999827, 9.999792 
1.1250535e+3, 1.8498103e+2, -1154328.3, -1190528.3, 12201.088, -0.0026814544, -0.058183808, -1150599.9, -23421.61, 0.0, 10.000029, 9.999547 
1.12504005e+3, 1.9498064e+2, -1047467.06, -1086750.6, 10695.2, -0.0004613456, -0.05462181, -1044744.0, -15562.379, 0.0, 10.000083, 9.99956 
1.1250263e+3, 2.049798e+2, -978603.56, -1057339.8, 3758.5376, -0.015600351, -0.06764312, -978424.56, -47235.227, 0.0, 10.000117, 9.999074 
1.1250121e+3, 2.1497855e+2, -876955.4, -955990.0, 12281.834, -0.049047414, -0.10325329, -875090.75, -41889.156, 0.0, 10.000135, 9.999088 
1.12499826e+3, 2.2497746e+2, -760850.25, -855038.8, 1861.6086, -0.043769658, -0.11692027, -760813.44, -25602.191, 0.0, 10.000284, 9.999037 
1.1249846e+3, 2.3497656e+2, -620434.44, -734268.1, -4488.777, 0.00069814496, -0.11268324, -620257.75, 16960.38, 0.0, 10.0005665, 9.999057 
1.1249707e+3, 2.4497536e+2, -534018.75, -692069.75, -8334.6875, 0.020939123, -0.11462897, -533580.44, 5648.1646, 0.0, 10.000704, 9.998607 
1.1249564e+3, 2.5497386e+2, -436271.38, -592226.7, -5570.2793, 0.016321668, -0.12918916, -436072.7, 5170.1196, 0.0, 10.000693, 9.998625 
1.1249422e+3, 2.6497215e+2, -340430.7, -512924.13, 680.2021, 0.0061003333, -0.1513209, -340428.0, 2831.1228, 0.0, 10.000755, 9.998466 
1.124928e+3, 2.749703e+2, -221183.36, -402455.6, -2239.2744, -0.009629236, -0.18546204, -221155.7, 24121.693, 0.0, 10.000891, 9.998486 
1.1249137e+3, 2.849691e+2, -117798.266, -299925.75, -11645.896, -0.026682472, -0.15497229, -117056.61, 30232.738, 0.0, 10.000918, 9.998504 
1.1248993e+3, 2.9496852e+2, -27660.684, -202955.9, -14520.257, -0.04473853, -0.064877145, -26466.066, 22828.785, 0.0, 10.000853, 9.998528 
1.12488516e+3, 3.049662e+2, 46900.492, -134017.64, -15612.794, -0.040182147, -0.149218, 48237.953, 48237.953, 0.0, 10.000996, 9.998599 
1.1248712e+3, 3.1496498e+2, 119705.08, -63520.496, -21765.941, -0.00750023, -0.13575175, 122255.23, 122255.23, 0.0, 10.001342, 9.998917 
1.13513656e+3, 1.2499524e+2, -1866908.6, -1716414.8, 101474.98, -0.02562943, -0.0653715, -1665331.8, 49706.33, 0.0010657869, 9.998659, 10.000631 
1.1351216e+3, 1.3499501e+2, -1746425.6, -1652304.0, -59157.082, 0.009779992, -0.11295299, -1623772.0, -6731.841, 0.00053702114, 9.998987, 10.000251 
1.13510646e+3, 1.4499553e+2, -1645090.4, -1588999.9, 18004.064, -0.058355458, -0.06788351, -1583718.1, -64682.438, 0.00016162105, 9.999175, 9.999915 
1.1350933e+3, 1.5499546e+2, -1533788.1, -1483369.5, 21604.934, -0.052277938, -0.06859869, -1475378.1, -54340.246, 0.000014669085, 9.999261, 9.999926 
1.1350799e+3, 1.6499531e+2, -1413505.4, -1389310.9, 14039.269, -0.044138763, -0.06633667, -1382875.9, -59836.29, 0.000000009421829, 9.999476, 9.999795 
1.1350667e+3, 1.7499518e+2, -1262543.3, -1263312.8, 15221.839, -0.035709146, -0.061948765, -1247701.3, -22660.9, 0.0, 9.99983, 9.999815 
1.1350532e+3, 1.849948e+2, -1157088.9, -1197132.0, 12906.396, -0.030817745, -0.06560277, -1153289.5, -26245.791, 0.0, 10.000031, 9.999501 
1.1350398e+3, 1.9499412e+2, -1050473.8, -1093268.4, 11991.398, -0.029666144, -0.08417114, -1047342.7, -18292.871, 0.0, 10.000083, 9.9995165 
1.1350262e+3, 2.0499346e+2, -962950.44, -1024855.8, 3347.1216, -0.029134838, -0.09048617, -962769.94, -31714.229, 0.0, 10.000116, 9.999298 
1.1350124e+3, 2.1499278e+2, -860761.94, -923131.75, 12426.35, -0.029253395, -0.08958975, -858377.3, -25315.816, 0.0, 10.000137, 9.999313 
1.1349988e+3, 2.2499186e+2, -771189.6, -877030.44, 11480.421, -0.022531927, -0.091424376, -769958.7, -34888.863, 0.0, 10.000286, 9.998886 
1.134985e+3, 2.3499066e+2, -630820.7, -756266.75, 5904.7305, -0.009096786, -0.10103738, -630543.3, 6537.1963, 0.0, 10.000567, 9.998906 
1.1349711e+3, 2.4498919e+2, -527731.06, -679524.7, -9019.989, -0.00089628855, -0.12731919, -527196.94, 11896.611, 0.0, 10.000706, 9.9986925 
1.1349569e+3, 2.5498742e+2, -430426.22, -579606.3, -5530.5713, 0.0022791033, -0.17603338, -430221.47, 10887.435, 0.0, 10.00069, 9.998713 
1.13494284e+3, 2.6498595e+2, -344875.8, -521263.75, 6423.8545, -0.0056657335, -0.17491826, -344642.16, -1519.4883, 0.0, 10.000751, 9.998411 
1.1349287e+3, 2.7498487e+2, -224034.06, -409768.84, 4278.0464, -0.024822049, -0.12846614, -223935.58, 21199.205, 0.0, 10.0008955, 9.998434 
1.1349145e+3, 2.849835e+2, -121355.52, -309453.8, -13857.355, -0.03265021, -0.11047765, -120340.125, 26808.713, 0.0, 10.000927, 9.998435 
1.1349003e+3, 2.9498178e+2, -33841.69, -214119.17, -16157.2, -0.028522355, -0.12575407, -32405.066, 16759.705, 0.0, 10.000844, 9.998456 
1.1348862e+3, 3.0497944e+2, 42600.383, -140668.1, -1756.6633, -0.030098932, -0.20939775, 42617.22, 42617.22, 0.0, 10.000985, 9.998558 
1.1348723e+3, 3.1497964e+2, 127501.71, -50207.758, -6059.1265, -0.032042883, -0.045850836, 127708.06, 127708.06, 0.0, 10.001353, 9.999003 
1.1451352e+3, 1.2500909e+2, -1878682.6, -1731748.4, 76774.16, -0.027182784, -0.02685459, -1698953.1, 15950.71, 0.001186206, 9.998622, 10.000544 
1.14512034e+3, 1.3500841e+2, -1749734.4, -1661369.5, -80825.34, -0.009906132, -0.113296345, -1613438.8, 3471.5286, 0.00060623896, 9.998996, 10.000186 
1.1451057e+3, 1.4500895e+2, -1625855.4, -1572884.4, -1963.3243, -0.052716386, -0.06416908, -1572811.8, -53906.324, 0.00018835878, 9.999277, 9.999976 
1.1450926e+3, 1.5500914e+2, -1496227.1, -1458577.9, 4127.7354, -0.049810804, -0.04513564, -1458130.6, -37225.926, 0.000018936791, 9.999491, 9.999985 
1.1450796e+3, 1.6500904e+2, -1384389.4, -1373213.8, 2217.8345, -0.04691063, -0.04481512, -1372789.8, -49883.824, 0.000000013934886, 9.999668, 9.999812 
1.1450664e+3, 1.7500867e+2, -1264238.5, -1262482.4, 2647.6406, -0.044444017, -0.06431453, -1260571.0, -35662.42, 0.0, 9.99981, 9.999831 
1.1450531e+3, 1.8500824e+2, -1174520.3, -1202729.8, -4456.877, -0.04192486, -0.0741876, -1173832.8, -46920.598, 0.0, 9.999901, 9.999525 
1.14503965e+3, 1.9500771e+2, -1069126.0, -1099334.8, -1056.6615, -0.039872162, -0.08149568, -1069089.0, -40171.86, 0.0, 9.999944, 9.999541 
1.1450262e+3, 2.0500712e+2, -965513.9, -1018341.25, -10174.09, -0.034520242, -0.08405074, -963622.1, -32699.857, 0.0, 10.000067, 9.999366 
1.1450127e+3, 2.150065e+2, -837106.44, -903577.44, -13581.866, -0.02652302, -0.0860794, -834438.4, -1510.9792, 0.0, 10.000266, 9.999384 
1.14499904e+3, 2.250056e+2, -757103.3, -866156.9, -12185.764, -0.019543495, -0.08920205, -755758.25, -20823.035, 0.0, 10.000367, 9.99892 
1.1449855e+3, 2.3500444e+2, -657509.4, -765499.44, -4097.8193, -0.01412963, -0.09949533, -657354.06, -20408.213, 0.0, 10.000369, 9.998938 
1.1449717e+3, 2.45003e+2, -550972.8, -685204.56, -13575.582, -0.010932806, -0.12589274, -549613.56, -10655.105, 0.0, 10.000523, 9.998741 
1.1449576e+3, 2.550013e+2, -407374.16, -562982.25, -14283.178, -0.009400198, -0.17316546, -406073.97, 34899.004, 0.0, 10.000826, 9.998761 
1.14494346e+3, 2.6499987e+2, -329484.94, -512943.75, -8901.885, -0.017019609, -0.17212728, -329054.0, 13932.344, 0.0, 10.000854, 9.998419 
1.14492945e+3, 2.7499878e+2, -264903.6, -428423.3, -6965.3486, -0.03472892, -0.1276788, -264607.44, -19608.893, 0.0, 10.000612, 9.998442 
1.1449153e+3, 2.8499734e+2, -157459.95, -334178.94, -14493.109, -0.037635993, -0.10972162, -156279.23, -9266.385, 0.0, 10.000712, 9.998368 
1.1449014e+3, 2.949956e+2, 3976.6313, -204187.48, -16711.512, -0.0237315, -0.12396885, 5309.702, 54339.074, 0.0, 10.001141, 9.998382 
1.1448874e+3, 3.04993e+2, 83387.984, -130549.42, -4332.1914, -0.026092792, -0.2225471, 83475.67, 83475.67, 0.0, 10.001308, 9.998472 
1.14487365e+3, 3.149932e+2, 115823.305, -47719.395, -15304.138, -0.037308473, -0.0535416, 117243.125, 117243.125, 0.0, 10.001242, 9.999073 
1.15513414e+3, 1.250218e+2, -1874298.0, -1721149.3, 97937.336, 0.0028696025, -0.04262389, -1673404.0, 41376.44, 0.0013141764, 9.998616, 10.000619 
1.155119e+3, 1.3502158e+2, -1741481.4, -1645186.8, -67337.78, -0.0363711, -0.09331881, -1610554.0, 6228.575, 0.0006802459, 9.998999, 10.000296 
1.15510486e+3, 1.4502244e+2, -1618245.4, -1558278.6, 4748.8174, -0.061680935, -0.024745654, -1557904.9, -39130.46, 0.00021757523, 9.999281, 10.000076 
1.1550922e+3, 1.5502246e+2, -1488957.3, -1444036.5, 11629.582, -0.047160555, -0.032170687, -1441204.3, -20429.477, 0.000023929451, 9.999493, 10.000084 
1.1550794e+3, 1.6502218e+2, -1383394.0, -1371618.0, 6483.009, -0.039514955, -0.053354457, -1368748.3, -45971.074, 0.000000023716384, 9.999669, 9.999824 
1.1550663e+3, 1.7502168e+2, -1263515.9, -1260890.9, 7348.4487, -0.039392836, -0.08874941, -1254738.6, -29957.516, 0.0, 9.999809, 9.999843 
1.1550531e+3, 1.8502145e+2, -1168642.1, -1190663.6, -3757.919, -0.037399877, -0.08408188, -1168018.5, -41235.56, 0.0, 9.9999, 9.999609 
1.1550398e+3, 1.9502144e+2, -1062511.6, -1086767.0, -21.951994, -0.033156347, -0.047169134, -1062511.6, -33728.473, 0.0, 9.999948, 9.999626 
1.1550263e+3, 2.0502086e+2, -971334.44, -1031608.8, -3849.9766, -0.03416995, -0.048833076, -971089.5, -40300.99, 0.0, 10.000071, 9.999273 
1.15501285e+3, 2.1501972e+2, -843268.4, -916655.7, -6841.1196, -0.04052725, -0.093373604, -842636.06, -9837.191, 0.0, 10.000267, 9.999295 
1.1549993e+3, 2.2501874e+2, -741852.2, -834381.7, -13013.376, -0.034434088, -0.110999, -740056.8, -5249.5874, 0.0, 10.000366, 9.999139 
1.1549859e+3, 2.3501793e+2, -642250.3, -733876.94, -4107.871, -0.015884496, -0.10743013, -642066.5, -5252.876, 0.0, 10.000369, 9.999155 
1.1549722e+3, 2.4501686e+2, -551103.6, -685035.94, -2221.4648, -0.01132236, -0.10871327, -551066.75, -12243.957, 0.0, 10.00052, 9.998745 
1.1549582e+3, 2.5501552e+2, -406412.34, -562157.56, -2445.8054, -0.01994724, -0.119637266, -406373.94, 34460.73, 0.0, 10.00083, 9.998766 
1.1549442e+3, 2.6501387e+2, -324687.97, -504295.8, -17984.701, -0.029070826, -0.14424874, -322904.78, 19945.281, 0.0, 10.000858, 9.998476 
1.1549299e+3, 2.7501196e+2, -261969.14, -420712.9, -15599.306, -0.040422957, -0.18693002, -260450.77, -15581.827, 0.0, 10.000605, 9.998499 
1.154916e+3, 2.850107e+2, -161627.6, -340727.6, 2729.649, -0.04300035, -0.15416723, -161586.0, -14704.646, 0.0, 10.000702, 9.998328 
1.15490235e+3, 2.9501003e+2, 2405.2146, -209734.33, 1702.5009, -0.034980252, -0.0532726, 2418.877, 51306.51, 0.0, 10.001149, 9.99834 
1.15488864e+3, 3.05007e+2, 71972.87, -157722.44, -6497.366, -0.031829976, -0.18484132, 72156.51, 72156.51, 0.0, 10.001322, 9.998281 
1.154875e+3, 3.1500554e+2, 114533.1, -50067.47, -16834.639, -0.024427168, -0.16194667, 116237.234, 116237.234, 0.0, 10.001239, 9.999059 
1.165133e+3, 1.2503427e+2, -1824556.8, -1699850.4, 96738.414, 0.0043971213, -0.053288024, -1647111.3, 67547.42, 0.0014487223, 9.99897, 10.000595 
1.1651179e+3, 1.3503428e+2, -1722186.6, -1631845.0, -81043.32, -0.05108404, -0.08597698, -1584234.3, 32424.648, 0.0007585872, 9.999113, 10.000333 
1.1651043e+3, 1.450353e+2, -1615899.4, -1549013.5, -14330.37, -0.04925218, -0.0071145357, -1546072.5, -27423.363, 0.00024917058, 9.999263, 10.000148 
1.16509154e+3, 1.5503518e+2, -1492715.6, -1438403.6, -10201.601, -0.051991016, -0.03436384, -1436550.6, -15900.019, 0.000029664654, 9.9994335, 10.000152 
1.1650789e+3, 1.6503498e+2, -1393192.8, -1365183.8, -15969.112, -0.04804415, -0.057539247, -1357948.3, -35295.945, 0.00000004774233, 9.999555, 9.999922 
1.1650661e+3, 1.7503472e+2, -1281696.9, -1258642.6, -9641.664, -0.0366255, -0.078108646, -1255141.9, -30488.205, 0.0, 9.999639, 9.99994 
1.16505295e+3, 1.8503456e+2, -1183069.4, -1189820.3, -17396.865, -0.03102912, -0.07320581, -1168723.5, -42068.78, 0.0, 9.999768, 9.999678 
1.1650397e+3, 1.950345e+2, -1057704.6, -1076434.6, -15093.369, -0.032655105, -0.049256414, -1049306.9, -20651.5, 0.0, 9.999947, 9.999697 
1.16502635e+3, 2.0503399e+2, -968635.44, -1025884.06, -13408.187, -0.036776908, -0.050233647, -965650.7, -34990.52, 0.0, 10.000072, 9.999311 
1.16501294e+3, 2.1503301e+2, -857693.6, -919568.75, -7375.966, -0.042892896, -0.08183585, -856826.5, -24157.387, 0.0, 10.000151, 9.9993305 
1.1649995e+3, 2.2503208e+2, -751985.4, -831075.06, -16720.854, -0.038237106, -0.10090276, -748595.6, -13918.622, 0.0, 10.000261, 9.999211 
1.1649861e+3, 2.350312e+2, -632276.7, -720428.8, -20101.82, -0.02290832, -0.111669086, -627909.2, 8774.651, 0.0, 10.0004015, 9.99923 
1.16497256e+3, 2.4503024e+2, -562065.94, -682672.6, -20349.023, -0.016366167, -0.10887379, -558725.2, -20033.125, 0.0, 10.000413, 9.998812 
1.16495885e+3, 2.5502917e+2, -479406.97, -589739.2, -15988.805, -0.019196482, -0.098826185, -477136.7, -36434.94, 0.0, 10.000298, 9.998832 
1.1649449e+3, 2.6502755e+2, -375390.56, -521176.66, -28616.572, -0.02691978, -0.12663059, -369974.6, -27257.951, 0.0, 10.000478, 9.998543 
1.16493076e+3, 2.7502546e+2, -207930.89, -387776.75, -26063.156, -0.039055742, -0.19600672, -204229.98, 40506.6, 0.0, 10.000945, 9.998561 
1.1649169e+3, 2.8502417e+2, -106461.24, -314945.66, -4955.1206, -0.045138728, -0.1676193, -106343.54, 40405.297, 0.0, 10.001085, 9.998322 
1.16490334e+3, 2.9502368e+2, -32849.496, -227292.52, -5217.683, -0.044783294, -0.049754642, -32709.586, 16044.116, 0.0, 10.000912, 9.998333 
1.1648898e+3, 3.050205e+2, 30177.168, -193303.81, -6741.0566, -0.037194915, -0.18856955, 30380.318, 30380.318, 0.0, 10.001103, 9.99814 
1.1648766e+3, 3.1501877e+2, 175850.03, -15184.709, -11717.841, -0.007583895, -0.18026505, 176566.11, 176566.11, 0.0, 10.001637, 9.999107 
1.1751316e+3, 1.2504663e+2, -1832135.8, -1717400.6, 104144.516, -0.022922872, -0.057659734, -1655868.5, 58668.906, 0.001589411, 9.998977, 10.000472 
1.175117e+3, 1.350466e+2, -1724057.4, -1636223.9, -76210.05, -0.055672485, -0.08992221, -1592182.4, 24355.818, 0.0008411694, 9.999114, 10.000303 
1.17510386e+3, 1.4504762e+2, -1613524.1, -1543605.0, -8878.119, -0.017786888, -0.009632486, -1542495.4, -23966.754, 0.0002831922, 9.99926, 10.000186 
1.1750908e+3, 1.550474e+2, -1490047.1, -1432285.8, -4123.019, -0.065873064, -0.051292215, -1431992.9, -11461.609, 0.000036181405, 9.999432, 10.000195 
1.17507815e+3, 1.6504748e+2, -1380763.5, -1340328.8, -13616.63, -0.073651664, -0.05802495, -1336170.9, -13640.415, 0.00000010132158, 9.999557, 10.000093 
1.1750656e+3, 1.7504784e+2, -1268956.4, -1233419.1, -6947.9272, -0.03692033, -0.03321844, -1232109.0, -7583.1577, 0.0, 9.999641, 10.000113 
1.17505275e+3, 1.8504767e+2, -1178650.3, -1181597.3, -11876.204, -0.024608258, -0.041336734, -1168156.5, -41629.75, 0.0, 9.999771, 9.999733 
1.17503956e+3, 1.9504698e+2, -1053904.1, -1068472.0, -9086.087, -0.038126007, -0.08683114, -1049542.9, -21009.68, 0.0, 9.999946, 9.999753 
1.1750264e+3, 2.0504656e+2, -957328.6, -1002667.6, -11434.737, -0.04233545, -0.08766916, -954608.0, -24071.303, 0.0, 10.000072, 9.999471 
1.1750132e+3, 2.1504644e+2, -846327.5, -896388.94, -4889.908, -0.03578588, -0.051721793, -845854.3, -13316.768, 0.0, 10.000152, 9.99949 
1.17499985e+3, 2.2504565e+2, -757840.5, -843509.25, -12292.446, -0.033679087, -0.058862485, -756111.56, -21567.424, 0.0, 10.000261, 9.999126 
1.17498636e+3, 2.3504427e+2, -637351.7, -731966.4, -15241.708, -0.035603788, -0.11303018, -634957.0, 1599.223, 0.0, 10.000404, 9.99915 
1.1749729e+3, 2.4504316e+2, -552733.7, -663675.7, -25265.691, -0.02649417, -0.1280642, -547250.7, -8684.625, 0.0, 10.000414, 9.998941 
1.17495924e+3, 2.5504228e+2, -470933.03, -571106.9, -20052.627, -0.007304002, -0.111114636, -467068.06, -26494.11, 0.0, 10.000292, 9.998963 
1.1749455e+3, 2.65041e+2, -370206.06, -509531.22, -10300.086, -0.010530513, -0.11809973, -369448.72, -26863.107, 0.0, 10.000473, 9.998626 
1.17493175e+3, 2.7503932e+2, -201358.98, -375421.47, -7119.2217, -0.035098374, -0.15239653, -201068.3, 43532.57, 0.0, 10.00095, 9.998644 
1.1749178e+3, 2.850378e+2, -106395.43, -316603.03, -11208.715, -0.049092896, -0.15010472, -105799.445, 40815.574, 0.0, 10.001091, 9.998307 
1.1749042e+3, 2.9503644e+2, -34256.56, -229325.77, -11365.049, -0.052903324, -0.118909255, -33596.645, 15031.619, 0.0, 10.000907, 9.9983225 
1.17489085e+3, 3.0503345e+2, 27270.082, -198223.25, 14566.773, -0.040942933, -0.23676592, 28207.193, 28207.193, 0.0, 10.001098, 9.99811 
1.1748783e+3, 3.1503302e+2, 189173.36, 10510.907, 12033.104, 0.0055449167, -0.0948654, 189980.16, 189980.16, 0.0, 10.001645, 9.999281 
1.1851306e+3, 1.2505892e+2, -1777731.6, -1698586.8, 99115.1, -0.03268675, -0.055362795, -1631436.3, 82981.2, 0.0017368259, 9.999383, 10.000404 
1.18511595e+3, 1.350589e+2, -1712336.8, -1627282.1, -78887.164, -0.07596651, -0.08856356, -1580189.4, 36228.6, 0.00092832, 9.99918, 10.000333 
1.1851033e+3, 1.4505997e+2, -1627801.6, -1550233.1, -2349.4094, 0.0029531992, -0.0059292624, -1550162.1, -31754.21, 0.0003198089, 9.999163, 10.000186 
1.1850903e+3, 1.5505973e+2, -1503265.3, -1438653.6, -1585.7725, -0.05576286, -0.0505876, -1438614.6, -18203.846, 0.0000435681, 9.999342, 10.000193 
1.18507765e+3, 1.6505982e+2, -1387742.0, -1335307.4, -19156.613, -0.07341117, -0.058442157, -1329054.4, -6644.5664, 0.00000019883093, 9.999474, 10.000167 
1.1850652e+3, 1.7506029e+2, -1274832.1, -1227410.1, -19914.453, -0.043302562, -0.031598162, -1220156.6, 4247.6973, 0.0, 9.999564, 10.000191 
1.1850525e+3, 1.8506025e+2, -1185965.5, -1173211.4, -23960.729, -0.028865008, -0.03560438, -1154793.6, -28389.617, 0.0, 9.999671, 9.999838 
1.1850394e+3, 1.950597e+2, -1067796.4, -1063473.1, -18207.459, -0.032808598, -0.07620909, -1047299.5, -18890.824, 0.0, 9.999801, 9.999856 
1.1850264e+3, 2.0505932e+2, -973672.44, -1002279.1, -23537.854, -0.035274986, -0.08300401, -960432.8, -30021.076, 0.0, 9.999924, 9.999545 
1.1850133e+3, 2.1505912e+2, -856657.56, -892224.4, -24028.438, -0.03508208, -0.062030174, -844547.56, -12134.413, 0.0, 10.000043, 9.99957 
1.185e+3, 2.2505842e+2, -770595.8, -836188.5, -27049.617, -0.033026103, -0.069076374, -760880.0, -26461.344, 0.0, 10.000117, 9.999246 
1.1849867e+3, 2.350573e+2, -666402.56, -732745.44, -15217.776, -0.02992932, -0.109729, -663078.5, -26650.33, 0.0, 10.000149, 9.999269 
1.1849733e+3, 2.4505626e+2, -568202.4, -670911.56, -23065.42, -0.021481693, -0.12345583, -563260.3, -24822.87, 0.0, 10.000307, 9.998943 
1.1849597e+3, 2.550553e+2, -427190.7, -549879.25, -28734.54, -0.006960648, -0.11623501, -420794.34, 19652.31, 0.0, 10.000592, 9.998964 
1.1849461e+3, 2.6505408e+2, -339194.88, -484614.6, -21363.168, -0.011778839, -0.12211902, -336121.44, 6336.2944, 0.0, 10.000645, 9.9987135 
1.1849324e+3, 2.7505255e+2, -264710.9, -395770.72, -18973.832, -0.03698853, -0.14569522, -262019.28, -17548.52, 0.0, 10.000474, 9.998733 
1.1849188e+3, 2.8505105e+2, -172459.31, -349295.5, -22236.486, -0.045826748, -0.14681333, -169706.03, -23221.244, 0.0, 10.000644, 9.998298 
1.18490525e+3, 2.9504952e+2, -784.41223, -214866.02, -21643.645, -0.036605187, -0.13245045, 1381.8396, 49881.78, 0.0, 10.001143, 9.998307 
1.1848922e+3, 3.0504662e+2, 65773.96, -181974.72, 8184.9165, -0.031849325, -0.23875241, 66044.07, 66044.07, 0.0, 10.001372, 9.998089 
1.1848796e+3, 3.1504643e+2, 157027.88, 16823.898, 3051.9238, -0.008528395, -0.072327316, 157094.28, 157094.28, 0.0, 10.001331, 9.999475 
1.1951301e+3, 1.2507121e+2, -1780831.5, -1701889.4, 89995.66, -0.029026218, -0.04844921, -1643089.5, 71208.484, 0.0018922538, 9.999371, 10.000387 
1.1951148e+3, 1.3507128e+2, -1706217.6, -1614861.0, -86842.51, -0.11279028, -0.08166214, -1562416.3, 53880.96, 0.00102056, 9.999181, 10.000418 
1.19510256e+3, 1.4507242e+2, -1629599.5, -1556412.6, 3495.804, 0.011922604, 0.004251986, -1556246.0, -37959.793, 0.0003592124, 9.999171, 10.000141 
1.19509e+3, 1.550722e+2, -1505924.3, -1445697.5, 4643.405, -0.023020059, -0.032455575, -1445341.5, -25052.992, 0.00005194898, 9.999346, 10.000143 
1.1950773e+3, 1.6507208e+2, -1389003.3, -1338526.3, -16524.146, -0.049689133, -0.0574276, -1333598.0, -11308.536, 0.00000035173326, 9.9994755, 10.000144 
1.19506456e+3, 1.7507212e+2, -1275889.1, -1229760.5, -16896.666, -0.05630808, -0.07192091, -1224233.5, 54.93843, 0.0, 9.999564, 10.0001745 
1.195052e+3, 1.8507235e+2, -1175351.5, -1152081.0, -19961.33, -0.044856854, -0.056105103, -1140611.4, -14325.728, 0.0, 9.999674, 9.999983 
1.19503945e+3, 1.9507273e+2, -1057185.6, -1042362.2, -14075.369, -0.018698266, -0.01891982, -1033866.4, -5584.8755, 0.0, 9.999803, 10.000001 
1.1950265e+3, 2.050723e+2, -974433.0, -1004281.56, -20100.81, -0.018074267, -0.036528103, -964321.75, -34036.9, 0.0, 9.999925, 9.999531 
1.1950133e+3, 2.1507111e+2, -857096.94, -893854.9, -20311.98, -0.04048378, -0.11237162, -848083.1, -15787.669, 0.0, 10.000045, 9.999558 
1.1950001e+3, 2.2507046e+2, -747463.5, -788889.25, -26727.9, -0.036243234, -0.13134058, -734362.1, -61.97201, 0.0, 10.00012, 9.99957 
1.1949871e+3, 2.3507036e+2, -643854.25, -686169.9, -14103.233, -0.0064448942, -0.1013455, -639584.6, -3285.4739, 0.0, 10.000149, 9.999589 
1.1949737e+3, 2.4506961e+2, -577897.06, -691308.06, -12498.156, -0.0023506626, -0.09432637, -576536.06, -38230.324, 0.0, 10.000307, 9.998804 
1.1949602e+3, 2.5506824e+2, -436375.66, -569654.9, -17727.535, -0.021815728, -0.11486835, -434058.03, 6261.5024, 0.0, 10.000594, 9.998828 
1.19494654e+3, 2.6506677e+2, -333910.44, -474245.84, -27672.72, -0.034589205, -0.1405683, -328650.78, 13682.253, 0.0, 10.000646, 9.998786 
1.19493276e+3, 2.750652e+2, -259986.23, -385469.03, -24933.979, -0.043111082, -0.17685989, -255213.3, -10866.903, 0.0, 10.00047, 9.998806 
1.1949196e+3, 2.8506395e+2, -171054.17, -346059.16, -2742.527, -0.03325366, -0.15702151, -171011.2, -24653.182, 0.0, 10.000641, 9.998322 
1.19490676e+3, 2.9506302e+2, -59.972225, -212958.7, -922.4336, -0.002964047, -0.08757364, -55.97564, 48312.152, 0.0, 10.001142, 9.998322 
1.19489364e+3, 3.050601e+2, 60200.35, -193996.47, 7420.946, -0.018378511, -0.19319335, 60416.813, 60416.813, 0.0, 10.001372, 9.998007 
1.1948806e+3, 3.1505898e+2, 166370.0, 35749.785, 2867.636, -0.049905244, -0.10917091, 166432.92, 166432.92, 0.0, 10.001331, 9.999604 
1.2051294e+3, 1.2508364e+2, -1824284.5, -1736077.3, 91512.5, -0.020714575, -0.024738181, -1678595.1, 35581.895, 0.0020569195, 9.99913, 10.000267 
1.2051139e+3, 1.3508357e+2, -1657064.1, -1595269.5, -92664.83, -0.13201624, -0.06650729, -1528486.6, 87691.03, 0.0011183886, 9.999536, 10.0003805 
1.20510206e+3, 1.4508459e+2, -1563877.8, -1515871.3, -7812.37, 0.026193138, 0.0061855963, -1514631.9, 3535.4536, 0.00040151636, 9.999585, 10.000219 
1.2050894e+3, 1.5508439e+2, -1507524.4, -1437528.9, 2160.3909, -0.018467305, -0.037424292, -1437462.3, -17293.531, 0.000061428385, 9.999299, 10.000221 
1.20507665e+3, 1.6508427e+2, -1412530.6, -1353305.0, -4263.2427, -0.047883894, -0.06362398, -1352999.8, -30830.424, 0.00000057087306, 9.9993305, 10.000111 
1.20506436e+3, 1.7508431e+2, -1262127.9, -1227125.8, -6715.4307, -0.04808766, -0.07524815, -1225881.5, -1712.7955, 0.0, 9.999678, 10.000137 
1.2050518e+3, 1.8508452e+2, -1157269.3, -1143684.0, -23238.559, -0.035214804, -0.05874361, -1126265.6, -99.25461, 0.0, 9.999799, 9.999979 
1.2050392e+3, 1.950849e+2, -1072096.1, -1048875.8, -28700.625, -0.014001355, -0.021593347, -1029525.94, -1363.4614, 0.0, 9.9997, 10.000005 
1.20502636e+3, 2.0508458e+2, -994699.1, -995862.56, -29256.74, -0.0141472975, -0.036828484, -966018.3, -35853.727, 0.0, 9.999709, 9.999692 
1.2050133e+3, 2.1508358e+2, -877903.6, -886115.06, -16907.625, -0.03356188, -0.10872655, -864610.3, -32437.629, 0.0, 9.9998255, 9.999717 
1.2050003e+3, 2.25083e+2, -767366.06, -798790.9, -29609.299, -0.027448982, -0.13184686, -749558.44, -15381.489, 0.0, 9.999985, 9.999567 
1.2049873e+3, 2.3508278e+2, -638200.56, -682996.44, -42520.246, 0.0037175552, -0.11267953, -612539.8, 23637.61, 0.0, 10.000187, 9.999591 
1.2049741e+3, 2.4508211e+2, -572793.7, -678730.4, -42682.305, 0.005697102, -0.10285328, -557736.9, -19553.54, 0.0, 10.0003, 9.998893 
1.2049606e+3, 2.5508097e+2, -469154.13, -575059.5, -31426.137, -0.020674892, -0.10923093, -460530.94, -20336.201, 0.0, 10.000326, 9.9989195 
1.204947e+3, 2.6507953e+2, -361648.84, -494664.9, -41621.75, -0.034419525, -0.13400917, -349698.7, -7490.5684, 0.0, 10.000487, 9.99872 
1.20493345e+3, 2.750778e+2, -218285.44, -372448.56, -49293.63, -0.036263365, -0.18132718, -203871.48, 40351.934, 0.0, 10.000788, 9.998742 
1.2049204e+3, 2.8507653e+2, -121686.88, -317984.84, -24246.973, -0.03009595, -0.16100247, -118736.22, 27498.979, 0.0, 10.000962, 9.998359 
1.20490775e+3, 2.950757e+2, -16842.252, -216794.16, -23492.748, -0.0149115445, -0.08078569, -14119.128, 34124.59, 0.0, 10.00101, 9.998357 
1.2048948e+3, 3.0507284e+2, 26430.695, -226690.6, -20297.365, -0.034070488, -0.17560863, 28047.973, 28047.973, 0.0, 10.001213, 9.997858 
1.204882e+3, 3.1507125e+2, 203190.9, 58648.18, -27878.941, -0.051527057, -0.12602933, 208381.7, 208381.7, 0.0, 10.001564, 9.999649 
1.2151287e+3, 1.2509625e+2, -1839628.1, -1769693.6, 98197.32, -0.010997763, 0.016453154, -1700423.5, 13630.127, 0.0022312584, 9.999136, 10.000034 
1.2151134e+3, 1.3509583e+2, -1668523.5, -1619452.9, -78311.97, -0.1361508, -0.043987546, -1561922.6, 54135.977, 0.0012220372, 9.999536, 10.000216 
1.2151018e+3, 1.4509659e+2, -1550195.1, -1486950.4, -19406.068, 0.04318565, -0.00016859149, -1481470.6, 36579.883, 0.0004466493, 9.999581, 10.00042 
1.2150884e+3, 1.5509638e+2, -1492925.4, -1407914.1, -8513.186, -0.041611157, -0.06510559, -1407069.9, 12980.496, 0.00007201624, 9.999301, 10.000424 
1.2150758e+3, 1.6509648e+2, -1416264.6, -1362272.6, 7768.7944, -0.06869127, -0.07772818, -1361177.0, -39128.53, 0.0000008702971, 9.999334, 10.000048 
1.2150642e+3, 1.7509691e+2, -1266611.4, -1237198.1, 5609.6567, -0.02046708, -0.04268254, -1236164.5, -12119.884, 0.0, 9.999679, 10.000068 
1.21505186e+3, 1.8509685e+2, -1167525.1, -1165022.4, -27917.516, -0.002346627, -0.04246743, -1138328.3, -12282.758, 0.0, 9.999799, 9.999833 
1.2150388e+3, 1.9509631e+2, -1081279.3, -1069053.8, -32810.977, -0.018612484, -0.08291655, -1041790.94, -13740.137, 0.0, 9.999702, 9.999866 
1.215026e+3, 2.0509623e+2, -970822.25, -947744.4, -25966.398, -0.023861889, -0.08370842, -930868.5, -818.0777, 0.0, 9.999714, 10.00002 
1.21501334e+3, 2.1509661e+2, -855174.3, -839075.6, -13156.246, -0.015982255, -0.051915422, -831701.6, 342.90906, 0.0, 9.999825, 10.000041 
1.2150004e+3, 2.2509603e+2, -791116.9, -848015.2, -22869.273, -0.008265114, -0.07110308, -783064.56, -49015.797, 0.0, 9.999983, 9.99923 
1.2149874e+3, 2.3509456e+2, -661122.75, -731246.7, -35227.883, -0.0008128034, -0.14425391, -646482.1, -10419.51, 0.0, 10.000189, 9.99926 
1.2149744e+3, 2.4509373e+2, -550058.06, -632341.6, -42094.92, 0.0013565146, -0.14978091, -532338.75, 5731.4277, 0.0, 10.000302, 9.999211 
1.214961e+3, 2.550935e+2, -446676.7, -529066.0, -30025.645, -0.0024131709, -0.09801366, -436895.47, 3176.4736, 0.0, 10.000327, 9.999235 
1.2149478e+3, 2.650923e+2, -375517.8, -524212.0, -29948.482, -0.010248902, -0.10071007, -369712.53, -27629.934, 0.0, 10.000489, 9.998517 
1.21493444e+3, 2.750903e+2, -232755.3, -402063.8, -36892.3, -0.021928092, -0.15927777, -225065.72, 19036.006, 0.0, 10.000785, 9.998541 
1.2149212e+3, 2.8508872e+2, -120508.32, -316035.28, -21869.229, -0.043099802, -0.16006768, -118092.16, 28024.254, 0.0, 10.000963, 9.998373 
1.2149082e+3, 2.9508758e+2, -15105.361, -214571.39, -21410.434, -0.07213279, -0.11335895, -12833.078, 35294.13, 0.0, 10.001014, 9.998371 
1.2148956e+3, 3.0508488e+2, 15369.554, -250935.39, -6589.66, -0.07789756, -0.18580152, 15532.514, 15532.514, 0.0, 10.001218, 9.997689 
1.2148839e+3, 3.1508332e+2, 202258.6, 58258.547, -11500.464, -0.02127762, -0.115303196, 203171.28, 203171.28, 0.0, 10.001557, 9.99965 
1.225128e+3, 1.2510826e+2, -1773065.1, -1737772.6, 74164.42, -0.007775695, 0.018020403, -1679184.0, 34752.063, 0.002414319, 9.999596, 10.00003 
1.2251125e+3, 1.351078e+2, -1728981.8, -1641808.1, -77294.82, -0.14295536, -0.050007973, -1596657.6, 19283.44, 0.0013311396, 9.999094, 10.000274 
1.22510135e+3, 1.4510855e+2, -1615708.1, -1511520.3, -8863.355, 0.06702365, -0.013728316, -1510771.5, 7161.4116, 0.0004943066, 9.9991045, 10.000479 
1.2250878e+3, 1.5510854e+2, -1446237.3, -1379075.6, -10296.947, -0.046069354, -0.06478071, -1377532.4, 42398.48, 0.000083587045, 9.999596, 10.000478 
1.2250752e+3, 1.6510867e+2, -1363597.8, -1337302.5, 251.60913, -0.07931696, -0.07535951, -1337300.0, -15371.62, 0.0000012652538, 9.999698, 10.000044 
1.2250639e+3, 1.7510903e+2, -1303819.5, -1254420.0, 2448.0547, -0.011467113, -0.048084028, -1254299.0, -30373.668, 0.0, 9.999423, 10.0000725 
1.22505166e+3, 1.8510893e+2, -1213066.0, -1183695.5, -17572.766, 0.010996425, -0.052486796, -1175479.6, -49553.387, 0.0, 9.999474, 9.999861 
1.22503854e+3, 1.951084e+2, -1058821.0, -1055196.3, -10360.36, -0.01897617, -0.09605267, -1046490.94, -18559.365, 0.0, 9.999845, 9.999891 
1.2250257e+3, 2.0510834e+2, -932358.7, -934395.6, -15502.459, -0.02667529, -0.09405095, -917841.3, 12089.908, 0.0, 10.000001, 9.999973 
1.2250132e+3, 2.1510877e+2, -840270.8, -836329.4, -31314.291, -0.008754707, -0.052781083, -806923.9, 25001.309, 0.0, 9.999948, 9.999999 
1.2250005e+3, 2.251082e+2, -785580.44, -847307.6, -35730.31, -0.0016822035, -0.06827947, -769229.44, -35299.906, 0.0, 10.0000305, 9.999211 
1.2249876e+3, 2.3510668e+2, -654715.7, -730233.06, -25159.902, -0.006400106, -0.14405257, -647101.06, -11157.093, 0.0, 10.000242, 9.99924 
1.2249746e+3, 2.4510585e+2, -539086.94, -626788.25, -38645.92, -0.003857772, -0.14883341, -524487.75, 13464.059, 0.0, 10.000378, 9.999212 
1.2249616e+3, 2.5510567e+2, -428178.0, -519585.25, -51279.895, 0.005602338, -0.091868676, -405190.66, 34762.645, 0.0, 10.000453, 9.999239 
1.2249485e+3, 2.6510456e+2, -358079.56, -518519.56, -48232.383, -0.0001638291, -0.08957495, -344696.06, -2732.4558, 0.0, 10.000622, 9.998491 
1.2249352e+3, 2.751025e+2, -222511.77, -399671.0, -43404.367, -0.020707823, -0.14465949, -212449.16, 31533.32, 0.0, 10.000868, 9.998516 
1.2249221e+3, 2.851008e+2, -119914.984, -324203.8, -32793.96, -0.044924587, -0.15483324, -114779.74, 31218.71, 0.0, 10.001005, 9.998295 
1.2249092e+3, 2.950994e+2, -14733.286, -223137.89, -39073.273, -0.07153697, -0.12874383, -7648.39, 40363.51, 0.0, 10.001056, 9.998292 
1.22489676e+3, 3.0509678e+2, 9886.812, -260535.2, -15219.903, -0.08207555, -0.18239331, 10740.723, 10740.723, 0.0, 10.001211, 9.997626 
1.2248853e+3, 3.1509498e+2, 190293.95, 60182.438, -14002.065, -0.029945165, -0.13093863, 191783.75, 191783.75, 0.0, 10.001442, 9.999718 
1.2351276e+3, 1.2511972e+2, -1759492.6, -1707165.9, 42048.645, -0.014865298, -0.020585833, -1683805.4, 30017.97, 0.0026041293, 9.999584, 10.000246 
1.2351116e+3, 1.351196e+2, -1709067.1, -1602252.8, -95562.49, -0.15215184, -0.08326693, -1546186.1, 69638.03, 0.0014447866, 9.9991, 10.000544 
1.2351007e+3, 1.4512056e+2, -1621254.3, -1525192.0, 8773.446, 0.09655786, -0.033796523, -1524397.3, -6583.399, 0.00054404186, 9.999112, 10.000382 
1.2350875e+3, 1.5512091e+2, -1453196.3, -1394513.9, 7371.158, -0.034778856, -0.037221175, -1393602.1, 26207.268, 0.00009593835, 9.999598, 10.000372 
1.2350749e+3, 1.6512094e+2, -1359626.1, -1328831.3, -10806.313, -0.08251613, -0.056571737, -1325417.6, -3609.2285, 0.0000017602412, 9.999696, 10.000104 
1.2350632e+3, 1.7512074e+2, -1298170.5, -1244348.4, -7959.4287, -0.020958828, -0.091278076, -1243196.0, -19386.008, 0.0, 9.999428, 10.000139 
1.235051e+3, 1.8512084e+2, -1198742.4, -1155575.6, -4933.9907, 0.0038494624, -0.08984062, -1155018.8, -29210.273, 0.0, 9.999479, 10.0000515 
1.2350385e+3, 1.951212e+2, -1045759.5, -1028536.3, 2643.8083, -0.016527086, -0.061816238, -1028139.6, -335.203, 0.0, 9.9998455, 10.000074 
1.23502575e+3, 2.0512094e+2, -962087.6, -996200.56, -18536.322, -0.023525532, -0.067679845, -953954.44, -24147.979, 0.0, 10.0, 9.99955 
1.2350131e+3, 2.151201e+2, -868852.44, -896574.25, -33831.445, -0.013019913, -0.11082661, -846152.56, -14338.452, 0.0, 9.99995, 9.999585 
1.2350005e+3, 2.2511952e+2, -764057.5, -803880.44, -28602.709, -0.00896174, -0.12294669, -749118.1, -15299.25, 0.0, 10.000034, 9.999508 
1.2349878e+3, 2.3511916e+2, -634133.2, -688111.1, -17314.998, -0.013359195, -0.11146359, -629056.4, 6764.6616, 0.0, 10.000243, 9.99953 
1.234975e+3, 2.4511848e+2, -561933.06, -674732.3, -36187.324, -0.010420686, -0.09937183, -551321.94, -13494.211, 0.0, 10.000379, 9.998883 
1.2349619e+3, 2.5511748e+2, -451212.34, -567168.5, -47878.09, 0.000115493895, -0.09169163, -433998.88, 5839.8296, 0.0, 10.000451, 9.998914 
1.234949e+3, 2.6511616e+2, -347910.06, -497921.28, -38418.98, -0.0072645308, -0.10183336, -338643.16, 3208.1074, 0.0, 10.000622, 9.998633 
1.23493604e+3, 2.7511445e+2, -211904.86, -379130.25, -33442.8, -0.031997953, -0.13631064, -205464.77, 38400.906, 0.0, 10.000873, 9.998655 
1.2349232e+3, 2.8511277e+2, -130623.46, -347774.03, -30625.648, -0.035007007, -0.14301467, -126386.86, 19494.377, 0.0, 10.00101, 9.998131 
1.2349108e+3, 2.951111e+2, -27334.61, -247918.11, -35559.566, -0.01669322, -0.1271762, -21743.863, 26154.014, 0.0, 10.001049, 9.998125 
1.23489834e+3, 3.0510855e+2, 9842.617, -260117.61, -5343.277, -0.050972633, -0.165907, 9948.334, 9948.334, 0.0, 10.001206, 9.997632 
1.2348862e+3, 3.1510627e+2, 196378.94, 72022.234, -2374.0835, -0.080279425, -0.16327453, 196424.25, 196424.25, 0.0, 10.001444, 9.999799 
1.24512695e+3, 1.2513159e+2, -1843324.8, -1742191.3, 57260.844, -0.00030405214, -0.044959355, -1716365.6, -2659.4392, 0.0027991196, 9.998988, 10.000292 
1.24511085e+3, 1.3513169e+2, -1615582.6, -1549361.8, -82589.96, -0.1695294, -0.09262032, -1493492.4, 122212.195, 0.0015621701, 9.999709, 10.000611 
1.24510035e+3, 1.4513263e+2, -1528617.8, -1490733.1, 8731.928, 0.10938249, -0.044368044, -1488817.4, 28877.326, 0.00059554225, 9.999792, 10.000291 
1.245087e+3, 1.5513295e+2, -1511369.8, -1431743.5, 7710.2183, -0.018982062, -0.040835805, -1431003.8, -11312.849, 0.00010892916, 9.999241, 10.000287 
1.2450745e+3, 1.6513295e+2, -1422311.6, -1354063.9, -3382.1235, -0.074808754, -0.06132131, -1353896.6, -32206.373, 0.0000023447426, 9.999247, 10.000146 
1.2450627e+3, 1.7513269e+2, -1243323.1, -1213375.0, -3190.538, -0.028792912, -0.106024705, -1213038.9, 10653.278, 0.0, 9.999786, 10.000178 
1.24505065e+3, 1.8513285e+2, -1131093.4, -1124292.3, -10864.362, -0.0035894408, -0.10045207, -1116308.8, 9381.438, 0.0, 9.99995, 10.000039 
1.24503836e+3, 1.9513339e+2, -1062067.8, -1037479.94, -18839.328, -0.0088650705, -0.05381002, -1027278.06, 406.34796, 0.0, 9.99974, 10.000063 
1.2450258e+3, 2.0513304e+2, -997266.06, -1027531.5, -32780.855, -0.012741496, -0.060922753, -976293.6, -46606.18, 0.0, 9.999822, 9.99942 
1.2450132e+3, 2.1513186e+2, -844125.9, -898838.5, -27196.854, -0.011663868, -0.12524016, -832907.1, -1208.3324, 0.0, 10.000182, 9.999456 
1.2450006e+3, 2.2513124e+2, -723724.8, -781440.8, -25734.99, -0.011067524, -0.13546179, -713916.6, 19787.44, 0.0, 10.000299, 9.999534 
1.2449881e+3, 2.3513116e+2, -639678.3, -687308.94, -35553.395, -0.012708171, -0.09993826, -620701.0, 15002.592, 0.0, 10.000192, 9.999559 
1.24497525e+3, 2.4513048e+2, -583420.1, -698160.0, -51448.887, -0.0116267, -0.0839644, -563729.75, -26019.21, 0.0, 10.000289, 9.998764 
1.24496244e+3, 2.551292e+2, -441994.8, -575645.9, -48478.973, -0.0071548102, -0.092408344, -426262.1, 13462.482, 0.0, 10.00057, 9.998796 
1.24494955e+3, 2.651278e+2, -330504.6, -483407.25, -35829.816, -0.014436835, -0.103895135, -322524.97, 19212.61, 0.0, 10.000717, 9.998686 
1.2449367e+3, 2.751263e+2, -225821.66, -379713.4, -37878.55, -0.033895038, -0.12518148, -217003.61, 26746.2, 0.0, 10.0007515, 9.998709 
1.2449243e+3, 2.851246e+2, -149287.13, -367020.22, -35255.367, -0.029367534, -0.13313282, -143720.88, 2044.8749, 0.0, 10.000927, 9.998038 
1.2449121e+3, 2.9512268e+2, -9655.1455, -249134.39, -36934.55, -0.00044695011, -0.13189259, -4088.191, 43697.0, 0.0, 10.001213, 9.998036 
1.24489956e+3, 3.0512038e+2, 26179.318, -246248.69, -4282.3203, -0.045835376, -0.1438552, 26246.617, 26246.617, 0.0, 10.001294, 9.997684 
1.2448873e+3, 3.151179e+2, 164743.08, 65563.836, 4372.7085, -0.10120148, -0.16820504, 164935.5, 164935.5, 0.0, 10.001189, 9.999877 
1.2551263e+3, 1.2514398e+2, -1851917.6, -1762051.9, 66974.516, 0.032705203, -0.053281534, -1726334.0, -12750.473, 0.0029989923, 9.998995, 10.000154 
1.2551102e+3, 1.3514413e+2, -1626230.8, -1571377.5, -56461.92, -0.19771238, -0.07983979, -1536033.4, 79548.61, 0.001683169, 9.999706, 10.000463 
1.2550999e+3, 1.451448e+2, -1534307.3, -1502012.6, -12641.765, 0.10314703, -0.04785292, -1497652.6, 19922.416, 0.0006488858, 9.999788, 10.000216 
1.2550865e+3, 1.5514475e+2, -1514344.1, -1440419.6, -12688.383, 0.0014748308, -0.07596433, -1438302.4, -18727.586, 0.00012258759, 9.999249, 10.000224 
1.2550738e+3, 1.6514479e+2, -1420425.0, -1352532.0, 15705.243, -0.057168856, -0.089772925, -1349075.0, -27501.346, 0.0000030126384, 9.999255, 10.000153 
1.2550624e+3, 1.7514494e+2, -1242550.5, -1213159.5, 16210.747, -0.036768373, -0.09222176, -1205974.8, 17596.666, 0.0, 9.999791, 10.000178 
1.2550506e+3, 1.8514502e+2, -1145847.6, -1155318.5, -19582.9, -0.01250683, -0.084129654, -1130435.8, -4865.203, 0.0, 9.99995, 9.999826 
1.2550382e+3, 1.9514501e+2, -1075570.4, -1067048.5, -27074.547, 0.0028780103, -0.072209045, -1043901.7, -16330.746, 0.0, 9.999744, 9.999859 
1.2550257e+3, 2.0514469e+2, -985848.06, -1005137.44, -20397.662, 0.0037933595, -0.07460296, -972929.9, -43356.11, 0.0, 9.9998255, 9.999573 
1.2550135e+3, 2.1514407e+2, -833482.06, -877366.5, -14371.377, -0.005230272, -0.09601477, -829194.6, 2384.2205, 0.0, 10.000184, 9.999604 
1.2550008e+3, 2.2514342e+2, -741084.2, -817832.56, -30787.21, -0.008164165, -0.105702765, -730260.5, 3324.2095, 0.0, 10.000299, 9.999285 
1.2549883e+3, 2.351427e+2, -656505.6, -722571.7, -39640.27, -0.0060501243, -0.1097205, -637938.94, -2347.6243, 0.0, 10.000192, 9.999317 
1.2549756e+3, 2.4514183e+2, -576895.44, -685288.2, -40869.414, -0.009236035, -0.10312597, -563212.9, -25612.893, 0.0, 10.00029, 9.998854 
1.2549628e+3, 2.551408e+2, -435359.28, -562879.2, -37394.863, -0.01644306, -0.092853025, -425202.34, 14408.36, 0.0, 10.000573, 9.998884 
1.2549502e+3, 2.6513955e+2, -332828.28, -489243.63, -34285.31, -0.022465544, -0.09390886, -325643.2, 15979.145, 0.0, 10.00072, 9.998646 
1.2549376e+3, 2.7513805e+2, -228794.73, -385593.72, -35307.176, -0.029300164, -0.11152715, -221211.22, 22423.672, 0.0, 10.000749, 9.99867 
1.2549251e+3, 2.8513625e+2, -152189.83, -373461.88, -23366.55, -0.030758647, -0.12626787, -149749.22, -4096.981, 0.0, 10.000927, 9.997994 
1.254913e+3, 2.9513413e+2, -11615.941, -254691.39, -25282.938, -0.0246027, -0.14239554, -9014.045, 38660.08, 0.0, 10.001218, 9.997997 
1.2549007e+3, 3.0513227e+2, 35368.47, -228130.36, -7863.437, -0.06881807, -0.11450324, 35602.92, 35602.92, 0.0, 10.001298, 9.997807 
1.2548886e+3, 3.1512994e+2, 169602.48, 77537.42, 4334.8335, -0.097107075, -0.13542277, 169806.14, 169806.14, 0.0, 10.00118, 9.999964 
1.2651254e+3, 1.2515625e+2, -1802187.5, -1742031.1, 50975.688, 0.030858237, -0.055696547, -1712921.4, 541.15485, 0.0032043438, 9.999352, 10.000118 
1.2651096e+3, 1.351565e+2, -1701855.0, -1612815.5, -47019.098, -0.20758083, -0.06976998, -1592583.4, 22877.219, 0.0018082228, 9.99921, 10.000416 
1.2650998e+3, 1.45157e+2, -1590926.6, -1536556.1, -8653.171, 0.11470879, -0.04871702, -1535212.1, -17756.81, 0.0007044779, 9.9994335, 10.000148 
1.2650862e+3, 1.551567e+2, -1416355.3, -1401364.5, -10426.08, 0.0019902107, -0.0919352, -1396019.1, 23438.096, 0.00013709594, 9.999959, 10.00015 
1.2650734e+3, 1.6515672e+2, -1309234.0, -1306259.3, 18819.352, -0.060248703, -0.10131748, -1288868.6, 32587.773, 0.0000037895563, 10.000051, 10.000086 
1.2650622e+3, 1.7515706e+2, -1255688.4, -1226306.9, 13714.63, -0.031549197, -0.08109522, -1220900.1, 2552.1755, 0.0, 9.999732, 10.000115 
1.2650505e+3, 1.8515702e+2, -1182856.6, -1191344.5, -22727.484, -0.004784237, -0.07255574, -1163980.3, -38527.445, 0.0, 9.999777, 9.999661 
1.2650383e+3, 1.9515662e+2, -1025789.75, -1061038.4, -27510.102, 0.0043449374, -0.081996545, -1010742.6, 16714.871, 0.0, 10.000166, 9.999696 
1.2650259e+3, 2.0515622e+2, -919341.0, -965962.7, -23126.105, 0.004942349, -0.0865963, -909815.7, 19645.338, 0.0, 10.000254, 9.999635 
1.2650135e+3, 2.1515585e+2, -848797.8, -877849.44, -24820.83, 0.0027468728, -0.09191243, -834564.75, -3101.3828, 0.0, 10.000051, 9.999664 
1.2650011e+3, 2.2515523e+2, -769372.2, -840286.44, -35897.48, -0.0022112962, -0.09506669, -754373.06, -20904.285, 0.0, 10.000145, 9.999205 
1.2649885e+3, 2.351544e+2, -615023.44, -711462.2, -33066.945, -0.011244688, -0.10223511, -604774.6, 30702.436, 0.0, 10.000516, 9.999237 
1.264976e+3, 2.4515343e+2, -521252.03, -659246.8, -32297.52, -0.018032618, -0.10306324, -514066.97, 23419.906, 0.0, 10.000675, 9.998846 
1.2649634e+3, 2.551523e+2, -425180.28, -558464.44, -37043.883, -0.02257359, -0.10397436, -415576.6, 23921.58, 0.0, 10.000647, 9.9988785 
1.264951e+3, 2.6515105e+2, -332372.5, -498173.03, -39070.832, -0.024807002, -0.09956178, -323626.8, 17882.926, 0.0, 10.000763, 9.998563 
1.2649384e+3, 2.751497e+2, -197301.84, -379399.5, -44274.652, -0.025475308, -0.096594706, -187107.73, 56413.918, 0.0, 10.001004, 9.998589 
1.2649262e+3, 2.851478e+2, -123299.71, -365422.28, -31959.248, -0.031759676, -0.1107778, -119152.26, 26387.684, 0.0, 10.001152, 9.997941 
1.2649141e+3, 2.9514542e+2, -15228.464, -262163.88, -35221.594, -0.04201831, -0.14446802, -10302.887, 37261.266, 0.0, 10.001218, 9.997945 
1.2649018e+3, 3.051439e+2, 26795.697, -225708.06, -31417.156, -0.08445524, -0.087086484, 30645.988, 30645.988, 0.0, 10.001211, 9.997865 
1.2648898e+3, 3.1514144e+2, 158409.97, 67860.31, -23832.773, -0.08879138, -0.12460669, 164299.69, 164299.69, 0.0, 10.001122, 9.999924 
1.2751244e+3, 1.2516852e+2, -1798002.9, -1731691.8, 23300.674, -0.00812218, -0.051670875, -1724323.1, -10980.794, 0.0034160875, 9.999344, 10.000195 
1.2751089e+3, 1.3516884e+2, -1696608.5, -1603569.4, -51710.59, -0.19942643, -0.062361985, -1580532.8, 34806.598, 0.0019378624, 9.999217, 10.000477 
1.2750995e+3, 1.451693e+2, -1594698.3, -1547171.0, 10391.795, 0.14281817, -0.04638404, -1544998.1, -27663.49, 0.0007627392, 9.999444, 10.000072 
1.2750858e+3, 1.5516894e+2, -1422500.6, -1415235.5, 8212.923, -0.019409323, -0.088809885, -1409887.6, 9449.896, 0.0001526722, 9.999961, 10.000054 
1.2750733e+3, 1.6516882e+2, -1319007.1, -1326764.6, 5801.485, -0.08533784, -0.09688805, -1315907.3, 5430.44, 0.000004722807, 10.000051, 9.999947 
1.2750621e+3, 1.7516905e+2, -1264153.0, -1245316.5, 1461.8729, -0.014052794, -0.07339861, -1245203.6, -21869.25, 0.0, 9.999737, 9.999984 
1.2750503e+3, 1.8516886e+2, -1190586.8, -1208689.0, -9211.861, 0.017557982, -0.06666288, -1186723.5, -61387.04, 0.0, 9.999782, 9.999541 
1.2750383e+3, 1.9516829e+2, -1033578.6, -1078282.3, -13707.507, -0.0048263553, -0.08292706, -1029710.25, -2366.678, 0.0, 10.00017, 9.999577 
1.275026e+3, 2.0516773e+2, -921769.44, -971830.9, -31664.754, -0.009033994, -0.09674958, -906436.9, 22911.893, 0.0, 10.000256, 9.999594 
1.2750137e+3, 2.151672e+2, -851147.25, -883342.56, -32677.951, 0.01065301, -0.112988904, -830817.1, 534.88947, 0.0, 10.0000515, 9.999627 
1.2750013e+3, 2.2516674e+2, -763237.8, -827773.25, -22783.383, 0.0044208537, -0.103754215, -756005.06, -22649.094, 0.0, 10.000144, 9.999291 
1.274989e+3, 2.3516634e+2, -608770.6, -699324.8, -19396.283, -0.028498868, -0.076985724, -604790.9, 30569.549, 0.0, 10.000518, 9.99932 
1.2749764e+3, 2.4516529e+2, -529023.56, -676272.8, -33620.215, -0.03863005, -0.08308033, -521710.5, 15660.4, 0.0, 10.000678, 9.998729 
1.2749639e+3, 2.551636e+2, -432888.88, -574923.9, -37435.133, -0.027304582, -0.1259636, -423626.4, 15760.505, 0.0, 10.000647, 9.998766 
1.2749517e+3, 2.6516226e+2, -341060.75, -517146.72, -29284.352, -0.02257064, -0.12183223, -336318.28, 5081.5493, 0.0, 10.000765, 9.998433 
1.2749395e+3, 2.7516115e+2, -205645.61, -398047.16, -34228.246, -0.023021739, -0.07996213, -199737.8, 43672.324, 0.0, 10.001008, 9.998461 
1.2749274e+3, 2.8515923e+2, -127236.83, -374571.97, -28995.781, -0.033907354, -0.08534707, -123883.05, 21545.793, 0.0, 10.001154, 9.997877 
1.2749152e+3, 2.9515666e+2, -20056.822, -271606.8, -31687.674, -0.05528794, -0.13692153, -16126.544, 31328.727, 0.0, 10.001215, 9.997882 
1.2749028e+3, 3.0515522e+2, 24303.055, -230526.0, -33631.01, -0.09420151, -0.06135217, 28666.775, 28666.775, 0.0, 10.001207, 9.997834 
1.274891e+3, 3.1515247e+2, 144259.78, 38604.824, -22807.2, -0.07830847, -0.1266617, 148972.83, 148972.83, 0.0, 10.001121, 9.999724 
1.2851234e+3, 1.2518042e+2, -1852171.5, -1752183.0, -5624.1772, -0.017371047, -0.052816693, -1751867.6, -38641.992, 0.0036351434, 9.998948, 10.000244 
1.2851083e+3, 1.3518076e+2, -1646607.8, -1574811.3, -61183.914, -0.19545381, -0.06597645, -1539771.9, 75450.59, 0.002072395, 9.999541, 10.000517 
1.2850992e+3, 1.4518122e+2, -1543678.0, -1531295.5, -917.8031, 0.16188952, -0.046678502, -1531227.9, -14010.186, 0.00082385907, 9.999832, 9.999992 
1.2850857e+3, 1.5518096e+2, -1454450.9, -1439401.6, -3799.7307, -0.018177077, -0.07169864, -1438496.8, -19276.656, 0.00016942424, 9.999782, 9.999974 
1.2850733e+3, 1.6518076e+2, -1347602.5, -1343725.9, -11067.42, -0.088645615, -0.08502287, -1334428.4, -13207.265, 0.00000585612, 9.99987, 9.999916 
1.2850621e+3, 1.7518069e+2, -1215168.8, -1225366.4, -8329.659, -0.0062597473, -0.086499035, -1210501.3, 12718.759, 0.0, 10.00009, 9.999949 
1.2850505e+3, 1.8518047e+2, -1141611.8, -1194784.9, -6622.567, 0.024758916, -0.07906756, -1140799.4, -15576.795, 0.0, 10.000161, 9.999453 
1.2850383e+3, 1.9518004e+2, -1051234.0, -1096206.4, -9367.299, -0.010183955, -0.07136803, -1049360.9, -22132.166, 0.0, 10.000091, 9.999491 
1.285026e+3, 2.0517942e+2, -934108.94, -980865.06, -30708.598, -0.014131811, -0.08371851, -918892.25, 10342.187, 0.0, 10.000186, 9.999565 
1.285014e+3, 2.1517868e+2, -797662.1, -860500.44, -31467.727, 0.01729628, -0.11949318, -784613.5, 46626.09, 0.0, 10.000433, 9.9995985 
1.2850016e+3, 2.2517817e+2, -715191.8, -810856.2, -22312.023, 0.009823641, -0.11100494, -710243.9, 23000.209, 0.0, 10.000503, 9.999234 
1.2849893e+3, 2.3517787e+2, -629135.06, -715133.0, -30765.592, -0.036892176, -0.067674525, -619262.2, 15985.689, 0.0, 10.000405, 9.999265 
1.2849769e+3, 2.4517682e+2, -549425.9, -688115.2, -45543.543, -0.05150819, -0.06912488, -535807.3, 1450.9783, 0.0, 10.000547, 9.99871 
1.2849647e+3, 2.5517508e+2, -396300.8, -559697.0, -43000.313, -0.035717558, -0.11850485, -385675.53, 53599.258, 0.0, 10.000909, 9.998744 
1.2849525e+3, 2.651736e+2, -302151.03, -513406.5, -32662.184, -0.028118784, -0.11684636, -297216.4, 44072.457, 0.0, 10.001098, 9.998298 
1.2849405e+3, 2.7517235e+2, -197118.5, -408549.03, -38706.883, -0.02782237, -0.07388113, -190255.17, 53045.59, 0.0, 10.00113, 9.998329 
1.2849285e+3, 2.851704e+2, -126345.32, -370786.16, -34101.01, -0.037428416, -0.080985345, -121677.164, 23642.99, 0.0, 10.001146, 9.997907 
1.2849163e+3, 2.951678e+2, -28870.719, -272281.47, -30951.813, -0.05641636, -0.13587709, -24996.586, 22349.65, 0.0, 10.001139, 9.997913 
1.2849039e+3, 3.0516657e+2, 20358.969, -228198.2, -27481.25, -0.095381945, -0.045806263, 23361.12, 23361.12, 0.0, 10.001164, 9.9978695 
1.2848923e+3, 3.1516352e+2, 146333.0, 18975.553, -9290.677, -0.080674715, -0.14379922, 147007.19, 147007.19, 0.0, 10.0012245, 9.999539 
1.2951225e+3, 1.251921e+2, -1850807.9, -1751422.9, -6281.654, -0.0012005274, -0.057538185, -1751027.5, -37916.164, 0.0038618036, 9.998955, 10.000247 
1.2951078e+3, 1.3519235e+2, -1646527.9, -1574590.8, -39152.582, -0.1971841, -0.08013049, -1557392.9, 57715.824, 0.0022117733, 9.99954, 10.00052 
1.2950991e+3, 1.451929e+2, -1549079.6, -1542952.0, -3177.811, 0.17000614, -0.04989219, -1541601.6, -24498.041, 0.000887706, 9.999832, 9.999913 
1.2950857e+3, 1.5519288e+2, -1458117.3, -1448604.4, -5902.229, 0.0043866173, -0.041235507, -1445780.5, -26676.6, 0.0001872894, 9.999787, 9.999909 
1.2950732e+3, 1.6519257e+2, -1341976.5, -1333658.5, -3811.4805, -0.071794815, -0.0660152, -1332176.1, -11070.258, 0.0000072252774, 9.999875, 9.999984 
1.2950622e+3, 1.7519206e+2, -1210422.3, -1216798.4, -841.16815, -0.008820185, -0.12014779, -1210313.1, 12795.326, 0.0, 10.000093, 10.000008 
1.2950505e+3, 1.8519185e+2, -1145660.4, -1204300.0, -10273.951, 0.016198322, -0.109666705, -1143912.4, -18801.732, 0.0, 10.000164, 9.999387 
1.2950383e+3, 1.9519189e+2, -1055218.8, -1105348.6, -12423.897, -0.01288306, -0.04712003, -1052308.6, -25196.064, 0.0, 10.0000925, 9.999428 
1.2950262e+3, 2.0519136e+2, -935319.2, -983812.25, -22424.068, -0.012353309, -0.047607172, -926539.44, 2578.2483, 0.0, 10.000186, 9.999545 
1.2950145e+3, 2.151903e+2, -798620.0, -863560.94, -22889.498, 0.02242034, -0.1120233, -791363.1, 39762.66, 0.0, 10.000437, 9.9995775 
1.2950023e+3, 2.2518955e+2, -729319.25, -841134.25, -26698.305, 0.0136543, -0.11747199, -723271.5, 9861.389, 0.0, 10.000505, 9.999025 
1.2949896e+3, 2.3518904e+2, -643083.4, -744579.2, -34106.902, -0.037734445, -0.074385054, -632686.94, 2452.147, 0.0, 10.000406, 9.9990635 
1.2949774e+3, 2.4518809e+2, -544212.25, -677551.3, -32006.314, -0.0582482, -0.06117466, -536927.5, 221.2591, 0.0, 10.000547, 9.998783 
1.2949654e+3, 2.551867e+2, -391051.97, -549729.0, -29069.727, -0.048308905, -0.08076924, -385894.03, 53267.664, 0.0, 10.000912, 9.998813 
1.2949535e+3, 2.6518515e+2, -311758.47, -534563.06, -30917.305, -0.042579312, -0.08366591, -307547.84, 33628.793, 0.0, 10.001101, 9.998152 
1.2949415e+3, 2.7518338e+2, -206765.81, -428504.8, -36374.96, -0.042449012, -0.078019656, -200951.2, 42242.31, 0.0, 10.001128, 9.998194 
1.2949295e+3, 2.851813e+2, -118390.48, -354612.0, -33297.004, -0.043912165, -0.09797197, -113786.766, 31427.164, 0.0, 10.001145, 9.998019 
1.2949176e+3, 2.9517892e+2, -20257.898, -255360.89, -29930.451, -0.04532136, -0.14161088, -16507.348, 30729.861, 0.0, 10.001142, 9.99803 
1.2949052e+3, 3.051779e+2, 28632.943, -211509.4, -24374.96, -0.08832774, -0.041255694, 31082.074, 31082.074, 0.0, 10.001165, 9.997985 
1.2948932e+3, 3.151747e+2, 133772.98, -4708.676, -2270.0115, -0.10123581, -0.16593143, 133810.17, 133810.17, 0.0, 10.001214, 9.999382 
1.3051216e+3, 1.2520358e+2, -1847856.1, -1754394.1, -10046.406, 0.015000182, -0.07229427, -1753326.5, -40327.9, 0.004094851, 9.998996, 10.000206 
1.3051073e+3, 1.3520394e+2, -1637243.0, -1573427.3, -24658.416, -0.20426832, -0.078398556, -1565009.6, 49985.555, 0.0023553874, 9.99962, 10.000488 
1.305099e+3, 1.4520447e+2, -1537083.4, -1540576.6, -11189.152, 0.16258062, -0.046827935, -1527505.3, -10515.034, 0.00095388794, 9.999931, 9.999881 
1.3050857e+3, 1.5520434e+2, -1446024.9, -1446313.4, -12686.964, 0.01376663, -0.046741437, -1433481.4, -14489.638, 0.0002061118, 9.9998865, 9.999876 
1.3050732e+3, 1.6520403e+2, -1335985.5, -1333114.6, -5074.423, -0.061278105, -0.06802458, -1329276.5, -8282.797, 0.000008878666, 9.9999275, 9.999961 
1.3050623e+3, 1.7520365e+2, -1217036.8, -1221722.4, -8572.846, -0.009464541, -0.10802552, -1210492.4, 12503.211, 0.0, 10.000058, 9.99999 
1.3050508e+3, 1.8520337e+2, -1141073.5, -1198312.1, -22496.441, 0.015463313, -0.10368841, -1133290.1, -8292.188, 0.0, 10.000181, 9.999419 
1.3050386e+3, 1.9520321e+2, -1023983.25, -1086522.1, -17968.924, -0.0051919846, -0.065065324, -1019188.06, 7812.828, 0.0, 10.000293, 9.99946 
1.3050266e+3, 2.0520271e+2, -916855.94, -987685.44, -23049.309, -0.008926107, -0.05859898, -910015.8, 18990.164, 0.0, 10.00037, 9.99943 
1.3050148e+3, 2.152019e+2, -809933.06, -881496.56, -31730.22, 0.009945168, -0.08804076, -797890.75, 33122.21, 0.0, 10.000414, 9.999464 
1.3050027e+3, 2.2520104e+2, -728765.7, -845751.7, -36664.535, 0.002903382, -0.09556548, -718224.5, 14796.745, 0.0, 10.000531, 9.998981 
1.3049902e+3, 2.3520012e+2, -601251.94, -729117.2, -32608.447, -0.030794082, -0.088852786, -593416.25, 41614.344, 0.0, 10.000714, 9.999021 
1.3049781e+3, 2.4519911e+2, -514116.44, -666579.0, -24715.238, -0.04987496, -0.076262996, -510210.0, 26830.584, 0.0, 10.00077, 9.998751 
1.3049662e+3, 2.5519803e+2, -423256.06, -568628.1, -30552.584, -0.05361794, -0.063557826, -417095.9, 21955.238, 0.0, 10.000706, 9.998781 
1.3049543e+3, 2.6519647e+2, -355519.78, -550162.5, -30241.828, -0.050880857, -0.06611775, -350929.34, -9863.367, 0.0, 10.000778, 9.998199 
1.3049425e+3, 2.751945e+2, -225256.98, -431985.88, -22402.773, -0.043979228, -0.090379134, -222857.1, 20227.797, 0.0, 10.000979, 9.99824 
1.3049306e+3, 2.8519237e+2, -119243.08, -347428.53, -16903.705, -0.0441939, -0.11617473, -117997.664, 27107.373, 0.0, 10.001109, 9.998086 
1.3049187e+3, 2.9519022e+2, -10802.051, -243039.66, -17632.975, -0.049004454, -0.14331242, -9470.872, 37654.98, 0.0, 10.001174, 9.998098 
1.3049063e+3, 3.0518937e+2, 49098.44, -186131.06, -11973.354, -0.09067062, -0.037598304, 49706.324, 49706.324, 0.0, 10.001241, 9.998122 
1.3048944e+3, 3.1518614e+2, 137455.47, -20133.209, 12548.965, -0.10258354, -0.1785197, 138448.48, 138448.48, 0.0, 10.001312, 9.999229 
1.3151209e+3, 1.2521493e+2, -1853764.8, -1766788.6, -9464.926, 0.027890008, -0.09328674, -1765770.5, -52884.227, 0.0043321527, 9.998995, 10.000123 
1.3151067e+3, 1.3521563e+2, -1640907.9, -1582164.1, -953.98224, -0.21768555, -0.062049482, -1582148.6, 32732.164, 0.0025021203, 9.999624, 10.000426 
1.3150987e+3, 1.4521603e+2, -1536027.6, -1540297.1, -13198.291, 0.13816206, -0.038144697, -1524792.5, -7915.5513, 0.0010219518, 9.999938, 9.999881 
1.3150854e+3, 1.5521541e+2, -1446737.3, -1448532.1, -14978.927, 0.009807317, -0.08723461, -1432628.9, -13746.262, 0.000225761, 9.999888, 9.999861 
1.3150732e+3, 1.6521521e+2, -1343320.9, -1349334.4, -1330.5782, -0.057988938, -0.09029522, -1343039.6, -22155.545, 0.000010883995, 9.99993, 9.999849 
1.3150622e+3, 1.7521551e+2, -1223363.0, -1236060.5, -4241.0454, -0.009373906, -0.050626636, -1222076.8, 803.91174, 0.0, 10.000062, 9.99989 
1.3150509e+3, 1.852151e+2, -1131572.5, -1179373.5, -19266.8, 0.020648891, -0.06176028, -1124773.8, 110.23348, 0.0, 10.000183, 9.999549 
1.3150391e+3, 1.9521405e+2, -1014787.3, -1068763.1, -14434.825, 0.012329113, -0.12595913, -1011169.5, 15723.925, 0.0, 10.000297, 9.999581 
1.315027e+3, 2.0521352e+2, -931365.0, -1019142.75, -22360.996, -0.004655986, -0.11727303, -925996.94, 2902.0063, 0.0, 10.000374, 9.999212 
1.315015e+3, 2.1521348e+2, -824689.4, -912623.6, -30312.443, -0.021247003, -0.04698838, -815252.8, 15647.871, 0.0, 10.000415, 9.999251 
1.3150029e+3, 2.2521266e+2, -720847.75, -829317.4, -30499.06, -0.024028292, -0.04470659, -712860.3, 20048.326, 0.0, 10.000529, 9.999096 
1.3149911e+3, 2.3521113e+2, -593272.3, -713427.06, -25930.24, -0.016414933, -0.11148463, -587915.25, 47006.95, 0.0, 10.000717, 9.999128 
1.3149792e+3, 2.4520995e+2, -523705.8, -687304.5, -27259.305, -0.027029606, -0.1153772, -519283.34, 17650.29, 0.0, 10.000772, 9.998609 
1.314967e+3, 2.552091e+2, -432721.38, -588057.75, -32128.123, -0.053467184, -0.0668218, -426338.6, 12604.405, 0.0, 10.000704, 9.99865 
1.314955e+3, 2.6520765e+2, -339477.8, -516904.56, -21947.932, -0.05448007, -0.064244404, -336803.16, 4153.693, 0.0, 10.000776, 9.998429 
1.3149436e+3, 2.7520564e+2, -209064.56, -399420.44, -13616.812, -0.032360643, -0.110897, -208095.44, 34879.49, 0.0, 10.000982, 9.998464 
1.3149318e+3, 2.8520367e+2, -117232.0, -344589.4, -13694.359, -0.03900229, -0.1353396, -116410.125, 28583.383, 0.0, 10.001113, 9.998104 
1.3149197e+3, 2.9520175e+2, -10508.178, -240191.27, -13589.027, -0.07201387, -0.14009102, -9706.987, 37305.094, 0.0, 10.0011635, 9.998124 
1.3149075e+3, 3.05201e+2, 58018.426, -166173.86, -7772.8716, -0.10644043, -0.03423227, 58287.59, 58287.59, 0.0, 10.001232, 9.998264 
1.3148959e+3, 3.151979e+2, 127390.664, -42065.7, 20212.83, -0.08463261, -0.17314935, 129768.305, 129768.305, 0.0, 10.001316, 9.999078 
1.3251199e+3, 1.2522621e+2, -1833335.8, -1764827.4, -24929.803, 0.027194355, -0.09703762, -1756716.0, -43940.61, 0.0045723, 9.999168, 10.000052 
1.3251065e+3, 1.35227e+2, -1656041.8, -1592388.5, 6339.1323, -0.20405437, -0.05318978, -1591763.4, 23006.28, 0.0026508812, 9.999536, 10.000398 
1.3250986e+3, 1.4522737e+2, -1549920.3, -1546061.6, -20901.32, 0.14159614, -0.032748785, -1527000.8, -10234.65, 0.0010914269, 9.999841, 9.999887 
1.3250855e+3, 1.552266e+2, -1427723.3, -1439615.6, -22852.025, 0.00578833, -0.094930254, -1410056.5, 8715.915, 0.00024614425, 10.000022, 9.999858 
1.3250731e+3, 1.6522637e+2, -1325087.9, -1355809.5, -8724.835, -0.0631615, -0.096000165, -1322783.0, -2008.3708, 0.000013287297, 10.000123, 9.999711 
1.3250624e+3, 1.752267e+2, -1219660.5, -1248558.6, -15034.716, -0.008012413, -0.038234927, -1213257.3, 9514.723, 0.0, 10.00015, 9.999762 
1.3250512e+3, 1.8522634e+2, -1119428.3, -1159251.9, -30223.23, 0.021849148, -0.046953283, -1103147.3, 21627.734, 0.0, 10.000206, 9.999676 
1.3250393e+3, 1.9522527e+2, -1006574.06, -1050818.6, -25619.158, 0.0055467356, -0.12481627, -994847.6, 31935.588, 0.0, 10.000294, 9.999705 
1.3250273e+3, 2.0522466e+2, -933013.4, -1033325.75, -29862.26, -0.011613446, -0.12274835, -924796.6, 3992.598, 0.0, 10.000422, 9.999091 
1.3250154e+3, 2.1522452e+2, -808605.6, -917331.9, -31408.883, -0.020918839, -0.0512452, -800184.44, 30608.486, 0.0, 10.000581, 9.999138 
1.3250035e+3, 2.2522372e+2, -696968.6, -807934.94, -29252.332, -0.022462722, -0.04458928, -689729.56, 43071.133, 0.0, 10.000653, 9.999183 
1.3249917e+3, 2.3522235e+2, -597819.44, -705825.7, -27439.889, -0.019347152, -0.10473009, -591247.94, 43564.145, 0.0, 10.000646, 9.999214 
1.3249798e+3, 2.4522115e+2, -528738.94, -692042.4, -25877.857, -0.030059054, -0.113907576, -524736.3, 12087.215, 0.0, 10.000749, 9.998587 
1.3249677e+3, 2.552201e+2, -397454.06, -572719.75, -23011.92, -0.053236824, -0.0815976, -394483.0, 44351.68, 0.0, 10.000955, 9.998632 
1.324956e+3, 2.652187e+2, -308478.56, -496920.2, -17666.861, -0.054441024, -0.07518369, -306836.53, 34011.68, 0.0, 10.00097, 9.998473 
1.3249445e+3, 2.7521697e+2, -231116.28, -405183.34, -23885.195, -0.034707997, -0.099793084, -227898.28, 14965.797, 0.0, 10.000812, 9.998507 
1.3249327e+3, 2.8521505e+2, -147337.45, -350934.06, -23732.545, -0.04104474, -0.12282502, -144607.63, 274.17633, 0.0, 10.000874, 9.998176 
1.3249208e+3, 2.9521307e+2, -8922.556, -230303.73, -21624.86, -0.07153485, -0.14479654, -6829.985, 40070.703, 0.0, 10.001137, 9.998203 
1.3249087e+3, 3.0521226e+2, 68277.37, -149924.98, -18795.67, -0.10600444, -0.053788118, 69884.57, 69884.57, 0.0, 10.001257, 9.9983635 
1.3248971e+3, 3.1520966e+2, 106706.055, -70612.62, 8483.46, -0.09527435, -0.15419881, 107111.0, 107111.0, 0.0, 10.001257, 9.998909 
1.3351189e+3, 1.2523751e+2, -1837603.1, -1775937.8, -32422.951, 0.009552412, -0.085611224, -1762027.8, -49362.688, 0.0048153205, 9.999176, 9.999974 
1.3351065e+3, 1.3523817e+2, -1656817.8, -1593937.1, 20162.3, -0.16319649, -0.05039273, -1588027.6, 26633.004, 0.0028011485, 9.999536, 10.000387 
1.3350987e+3, 1.4523858e+2, -1548864.1, -1544116.3, -14664.386, 0.17095532, -0.029301299, -1531634.9, -14978.024, 0.001161807, 9.999841, 9.999902 
1.3350853e+3, 1.5523802e+2, -1425889.6, -1437439.6, -16728.477, -0.000782123, -0.07155652, -1413967.4, 4692.976, 0.00026710884, 10.000028, 9.99987 
1.3350731e+3, 1.6523755e+2, -1336689.4, -1381481.8, -8719.313, -0.07879655, -0.08614656, -1335051.9, -14387.024, 0.000016044773, 10.000128, 9.999534 
1.3350625e+3, 1.7523728e+2, -1230997.0, -1273483.4, -14686.27, -0.00569944, -0.07042132, -1226414.6, -3745.747, 0.00000000003443261, 10.0001545, 9.99959 
1.3350512e+3, 1.852371e+2, -1109836.9, -1140659.5, -28072.133, 0.018017288, -0.05918557, -1093223.9, 31446.432, 0.0, 10.00021, 9.999803 
1.3350393e+3, 1.9523692e+2, -997626.25, -1033199.06, -22858.992, -0.02600708, -0.061787672, -986449.06, 40220.688, 0.0, 10.000297, 9.9998255 
1.3350275e+3, 2.0523621e+2, -934909.6, -1037591.3, -24832.602, -0.030609984, -0.07510858, -929219.4, -542.9408, 0.0, 10.000422, 9.999063 
1.3350162e+3, 2.1523504e+2, -810204.0, -921430.8, -26091.174, 0.00974063, -0.10170545, -804387.75, 26301.72, 0.0, 10.000583, 9.99911 
1.3350046e+3, 2.2523427e+2, -692327.2, -799154.2, -30299.219, 0.006248991, -0.096291035, -684331.9, 48365.37, 0.0, 10.000655, 9.999242 
1.3349922e+3, 2.3523383e+2, -593610.4, -697380.2, -27377.188, -0.040629026, -0.06818736, -586830.56, 47869.52, 0.0, 10.000645, 9.999273 
1.3349803e+3, 2.4523276e+2, -522513.7, -679193.9, -18032.385, -0.06010395, -0.0713022, -520465.1, 16244.864, 0.0, 10.000748, 9.998675 
1.3349687e+3, 2.552311e+2, -391434.44, -561158.06, -14936.463, -0.053535003, -0.1077648, -390129.97, 48596.164, 0.0, 10.0009575, 9.998712 
1.3349569e+3, 2.652297e+2, -318149.22, -518262.06, -23248.627, -0.051542107, -0.09886973, -315483.75, 25256.428, 0.0, 10.000975, 9.998325 
1.3349451e+3, 2.7522847e+2, -241963.88, -425930.9, -28232.695, -0.054506153, -0.05644381, -237728.63, 5023.759, 0.0, 10.000803, 9.998369 
1.3349335e+3, 2.8522658e+2, -140941.94, -336474.2, -12662.695, -0.05330356, -0.07773199, -140125.31, 4644.704, 0.0, 10.000867, 9.998279 
1.3349222e+3, 2.9522413e+2, -550.5394, -214657.22, -10558.523, -0.046783026, -0.15604672, -31.113241, 46760.81, 0.0, 10.0011425, 9.998309 
1.3349101e+3, 3.0522308e+2, 74220.18, -139677.47, -18088.37, -0.09011701, -0.09544518, 75739.05, 75739.05, 0.0, 10.001265, 9.99843 
1.3348979e+3, 3.1522134e+2, 92907.0, -95143.29, 12665.897, -0.14240266, -0.11778206, 93756.266, 93756.266, 0.0, 10.001239, 9.99875 
1.3451183e+3, 1.2524845e+2, -1810699.0, -1772009.1, -55469.855, 0.023711786, -0.07726413, -1732607.8, -20049.094, 0.0050627007, 9.999401, 9.999892 
1.3451062e+3, 1.3524911e+2, -1625265.4, -1581807.4, 13886.014, -0.1526634, -0.039584838, -1577749.3, 36804.69, 0.002953265, 9.999766, 10.00036 
1.3450985e+3, 1.4524941e+2, -1522762.5, -1536161.9, -30858.89, 0.16237949, -0.024341678, -1497884.4, 18666.78, 0.0012327734, 10.00004, 9.999859 
1.3450855e+3, 1.5524887e+2, -1409501.5, -1434225.8, -39742.016, 0.008155407, -0.06185029, -1380243.4, 38311.53, 0.00028840025, 10.000161, 9.999827 
1.3450734e+3, 1.6524836e+2, -1325105.3, -1373477.5, -31685.65, -0.068348095, -0.07902072, -1309429.8, 11129.937, 0.00001901083, 10.000198, 9.999555 
1.3450626e+3, 1.7524803e+2, -1226486.5, -1268798.9, -22785.318, -0.0084985895, -0.073199324, -1216550.0, 6014.226, 0.0000000014653116, 10.000175, 9.999611 
1.3450514e+3, 1.8524788e+2, -1107937.3, -1139998.0, -30439.66, 0.009386925, -0.05723759, -1089564.9, 35000.35, 0.0, 10.000225, 9.999799 
1.3450396e+3, 1.9524789e+2, -992506.2, -1030248.25, -35978.8, -0.033678714, -0.040235467, -970749.8, 55813.313, 0.0, 10.000331, 9.999828 
1.345028e+3, 2.052472e+2, -936037.9, -1026939.06, -37916.465, -0.03360947, -0.057745133, -922298.8, 6270.69, 0.0, 10.000367, 9.999162 
1.3450167e+3, 2.1524586e+2, -838156.0, -923635.6, -29840.387, 0.014018445, -0.11182232, -828769.6, 1813.8594, 0.0, 10.000342, 9.99921 
1.345005e+3, 2.2524513e+2, -725222.0, -810965.7, -30174.66, 0.012380684, -0.10842051, -715667.7, 16922.941, 0.0, 10.000414, 9.999276 
1.3449928e+3, 2.3524494e+2, -601774.9, -696498.5, -30539.91, -0.037575115, -0.05831034, -592782.25, 41809.004, 0.0, 10.000571, 9.999313 
1.3449809e+3, 2.4524394e+2, -534220.2, -680009.44, -22460.24, -0.05928679, -0.058525816, -530838.4, 5762.031, 0.0, 10.00065, 9.998715 
1.3449694e+3, 2.552422e+2, -432316.5, -576473.44, -23605.45, -0.053523924, -0.110092066, -428549.6, 10067.681, 0.0, 10.000661, 9.998748 
1.3449578e+3, 2.6524076e+2, -351301.34, -539017.4, -33195.664, -0.054729655, -0.10443922, -345603.94, -4972.182, 0.0, 10.00077, 9.99828 
1.3449459e+3, 2.7523956e+2, -220596.89, -419485.3, -32249.248, -0.06345498, -0.054716244, -215498.45, 27145.703, 0.0, 10.00097, 9.998331 
1.3449343e+3, 2.8523773e+2, -111963.42, -315084.34, -10408.579, -0.06125799, -0.07065836, -111431.445, 33229.598, 0.0, 10.001038, 9.9983425 
1.3449232e+3, 2.952354e+2, -17533.559, -214985.2, -11635.128, -0.047301915, -0.14493285, -16850.307, 29830.988, 0.0, 10.000996, 9.998376 
1.3449113e+3, 3.0523404e+2, 45576.758, -147625.7, -24381.217, -0.08222154, -0.120487034, 48606.055, 48606.055, 0.0, 10.001044, 9.998482 
1.3448991e+3, 3.1523263e+2, 75327.7, -113401.57, 5051.751, -0.13850246, -0.11273475, 75462.83, 75462.83, 0.0, 10.001162, 9.998661 
1.3551182e+3, 1.2525915e+2, -1817005.3, -1785759.5, -59096.547, 0.06665872, -0.0709281, -1740255.6, -27800.754, 0.00531726, 9.999402, 9.999799 
1.3551056e+3, 1.3525987e+2, -1627117.3, -1587045.8, 27885.625, -0.17446004, -0.02283711, -1572744.4, 41704.66, 0.003108456, 9.999772, 10.00032 
1.3550982e+3, 1.4525998e+2, -1529891.5, -1553019.1, -26403.334, 0.113346554, -0.019433038, -1512630.8, 3817.5796, 0.0013043365, 10.000048, 9.999742 
1.355086e+3, 1.5525924e+2, -1417156.1, -1450696.1, -35964.484, 0.03249589, -0.06417761, -1394244.0, 24210.88, 0.00030973944, 10.000162, 9.999715 
1.355074e+3, 1.6525887e+2, -1309652.0, -1341830.1, -33848.527, -0.03270065, -0.07356657, -1288263.4, 32194.824, 0.000021994929, 10.000199, 9.999772 
1.3550627e+3, 1.7525896e+2, -1211179.1, -1238206.3, -24072.162, -0.017692167, -0.047962833, -1197086.8, 25370.783, 0.0000000068048798, 10.000179, 9.99982 
1.3550515e+3, 1.8525875e+2, -1117015.6, -1159870.3, -27385.5, -0.0056332387, -0.041429296, -1103670.9, 20788.258, 0.0, 10.000228, 9.999662 
1.3550399e+3, 1.9525827e+2, -1000638.9, -1048351.56, -32684.701, -0.01895956, -0.05996542, -984030.2, 42432.555, 0.0, 10.000335, 9.999703 
1.3550285e+3, 2.0525767e+2, -919309.06, -993611.9, -39841.492, -0.022277875, -0.071393944, -901985.06, 26482.992, 0.0, 10.000372, 9.99939 
1.3550168e+3, 2.1525702e+2, -822173.3, -891122.94, -31085.416, -0.008459782, -0.08135551, -810228.1, 20246.445, 0.0, 10.000344, 9.9994335 
1.3550052e+3, 2.2525637e+2, -725082.44, -810825.8, -24823.314, -0.004138259, -0.08066026, -718414.44, 14065.999, 0.0, 10.000413, 9.999279 
1.3549936e+3, 2.3525573e+2, -601907.25, -697037.8, -24788.238, -0.011139146, -0.075313754, -595835.7, 38649.8, 0.0, 10.000571, 9.9993105 
1.354982e+3, 2.4525473e+2, -534335.8, -680728.8, -22297.63, -0.028885346, -0.07624192, -531014.9, 5479.988, 0.0, 10.000651, 9.998711 
1.35497e+3, 2.5525334e+2, -432697.9, -576724.9, -22299.246, -0.05530322, -0.08843786, -429324.4, 9183.611, 0.0, 10.000657, 9.998749 
1.3549586e+3, 2.6525185e+2, -349216.16, -534425.25, -24849.602, -0.06570524, -0.09208929, -345940.03, -5417.029, 0.0, 10.000767, 9.998314 
1.354947e+3, 2.752502e+2, -217755.75, -414771.7, -23691.537, -0.062394857, -0.09372508, -214946.84, 27592.703, 0.0, 10.000973, 9.998363 
1.3549353e+3, 2.852485e+2, -109010.23, -310689.88, -11475.626, -0.0670381, -0.100222945, -108359.36, 36195.754, 0.0, 10.001043, 9.99837 
1.354924e+3, 2.9524678e+2, -17233.488, -211990.33, -11370.889, -0.07810589, -0.112293854, -16571.848, 29997.438, 0.0, 10.000984, 9.998403 
1.3549124e+3, 3.0524498e+2, 45542.17, -145847.47, -18707.846, -0.08619057, -0.13036063, 47353.668, 47353.668, 0.0, 10.001035, 9.9985 
1.3549007e+3, 3.1524345e+2, 74481.64, -115592.0, 12745.112, -0.083908305, -0.14225219, 75332.44, 75332.44, 0.0, 10.001163, 9.998647 
1.3651177e+3, 1.2526977e+2, -1760477.5, -1760043.5, -71999.11, 0.06648006, -0.052965187, -1688261.0, 24091.041, 0.005582378, 9.999797, 9.999784 
1.3651057e+3, 1.3527034e+2, -1586812.5, -1564363.9, 33614.207, -0.16467606, -0.02189399, -1540149.5, 74197.24, 0.0032685762, 10.000037, 10.000348 
1.365098e+3, 1.4527036e+2, -1522968.9, -1550644.5, -25913.203, 0.09873343, -0.028911423, -1507430.1, 8916.823, 0.0013768864, 10.000101, 9.999731 
1.365086e+3, 1.5526988e+2, -1445274.0, -1465472.9, -28498.14, 0.031709284, -0.045815907, -1425138.6, -6786.976, 0.00033094976, 9.999975, 9.999703 
1.365074e+3, 1.652696e+2, -1334765.3, -1344730.1, -25371.756, -0.026522763, -0.050696075, -1313891.4, 6462.8525, 0.000024852021, 9.999988, 9.999854 
1.365063e+3, 1.7526959e+2, -1214682.8, -1230772.5, -26328.473, -0.010853821, -0.04136566, -1195197.5, 27156.07, 0.000000016360648, 10.000116, 9.999901 
1.3650517e+3, 1.8526934e+2, -1125987.4, -1165923.6, -29345.678, 0.0010512942, -0.04116884, -1110460.5, 13894.947, 0.0, 10.000175, 9.999645 
1.3650402e+3, 1.9526887e+2, -1023905.44, -1061088.6, -26108.174, -0.014400996, -0.058490314, -1010445.75, 15913.947, 0.0, 10.000182, 9.999689 
1.3650286e+3, 2.0526837e+2, -927838.8, -988834.25, -34444.71, -0.02393507, -0.06432835, -912330.56, 16033.578, 0.0, 10.000276, 9.999468 
1.3650171e+3, 2.152679e+2, -801906.56, -872212.1, -37679.49, -0.019379972, -0.063322484, -785528.1, 44840.266, 0.0, 10.000446, 9.999513 
1.3650057e+3, 2.2526725e+2, -707834.56, -802539.0, -36516.92, -0.011689649, -0.06683673, -695389.44, 36984.69, 0.0, 10.000534, 9.999275 
1.3649942e+3, 2.3526643e+2, -605906.1, -699458.0, -37444.633, -0.004261854, -0.080495946, -592764.75, 41616.414, 0.0, 10.000547, 9.999305 
1.3649827e+3, 2.4526544e+2, -540935.0, -677187.2, -34756.793, -0.018666562, -0.08017623, -532581.06, 3809.089, 0.0, 10.000579, 9.998769 
1.3649708e+3, 2.5526434e+2, -432456.1, -569294.0, -31545.824, -0.051868074, -0.0735466, -425533.88, 12866.839, 0.0, 10.00063, 9.998811 
1.3649592e+3, 2.6526275e+2, -356912.53, -529496.5, -26769.375, -0.06310416, -0.08887502, -352855.72, -12439.936, 0.0, 10.000681, 9.998386 
1.3649477e+3, 2.752608e+2, -247849.55, -420846.25, -23460.39, -0.055262428, -0.12853289, -244724.48, -2289.8362, 0.0, 10.000734, 9.998434 
1.3649362e+3, 2.8525925e+2, -142247.13, -320313.8, -13796.782, -0.06729029, -0.12541302, -141184.48, 3264.1643, 0.0, 10.00079, 9.9984255 
1.3649246e+3, 2.9525807e+2, -34624.742, -213035.7, -12992.365, -0.09519951, -0.087954916, -33683.566, 12774.368, 0.0, 10.000835, 9.9984665 
1.3649133e+3, 3.0525598e+2, 31263.379, -147458.66, -11958.166, -0.085802704, -0.14633936, 32059.941, 32059.941, 0.0, 10.000916, 9.998546 
1.3649023e+3, 3.1525442e+2, 65190.414, -108087.54, 21564.246, -0.05344934, -0.16147438, 67833.734, 67833.734, 0.0, 10.001046, 9.9987545 
1.375117e+3, 1.2528035e+2, -1756445.9, -1752888.9, -76541.48, 0.02127102, -0.026832364, -1678105.3, 34144.49, 0.0058605294, 9.9998, 9.999833 
1.3751063e+3, 1.3528064e+2, -1581269.9, -1551885.8, 42286.8, -0.123023674, -0.033773094, -1521811.4, 92434.81, 0.0034352848, 10.000032, 10.000437 
1.3750982e+3, 1.4528063e+2, -1516368.8, -1537706.6, -31351.697, 0.11777307, -0.05009667, -1493920.4, 22325.887, 0.0014510443, 10.000102, 9.999821 
1.3750857e+3, 1.5528084e+2, -1438056.6, -1452469.6, -33397.227, 0.0042901915, -0.008885439, -1411097.3, 7147.791, 0.0003520353, 9.999982, 9.999789 
1.3750738e+3, 1.6528058e+2, -1337439.9, -1352463.5, -21329.04, -0.051503237, -0.011956327, -1322338.5, -2091.1853, 0.000027536262, 9.999995, 9.999798 
1.3750634e+3, 1.7528003e+2, -1217315.3, -1237630.9, -22185.734, 0.011080226, -0.052319895, -1203072.5, 19179.197, 0.000000027808229, 10.000121, 9.999853 
1.3750522e+3, 1.8527977e+2, -1118597.1, -1151890.4, -30239.623, 0.027835334, -0.056294683, -1100725.0, 23528.584, 0.0, 10.000179, 9.999741 
1.3750404e+3, 1.9527975e+2, -1016904.4, -1047858.3, -26270.91, -0.020181347, -0.036456212, -1001890.4, 24363.057, 0.0, 10.000186, 9.999779 
1.3750288e+3, 2.0527932e+2, -932623.94, -999461.06, -28942.346, -0.03829709, -0.036408413, -921833.2, 6424.2236, 0.0, 10.0002775, 9.999394 
1.3750176e+3, 2.1527855e+2, -806718.4, -882707.1, -31777.402, -0.020233203, -0.057702657, -795181.2, 35083.484, 0.0, 10.000447, 9.999441 
1.3750063e+3, 2.2527778e+2, -708524.9, -804400.7, -36623.168, -0.012581248, -0.067929454, -696136.2, 36135.348, 0.0, 10.000535, 9.999263 
1.3749947e+3, 2.3527704e+2, -606239.44, -700579.56, -36765.2, -0.017847018, -0.073449865, -593604.0, 40673.883, 0.0, 10.000547, 9.999297 
1.374983e+3, 2.4527614e+2, -533458.56, -661955.6, -32746.676, -0.029075377, -0.07018629, -525594.56, 10691.427, 0.0, 10.000579, 9.998874 
1.3749714e+3, 2.5527513e+2, -425443.13, -554575.3, -29034.055, -0.044276495, -0.06412923, -419215.44, 19079.887, 0.0, 10.000628, 9.998914 
1.37496e+3, 2.652735e+2, -349019.72, -513417.5, -24462.459, -0.04851714, -0.093787715, -345456.9, -5146.7095, 0.0, 10.000681, 9.998498 
1.3749486e+3, 2.752714e+2, -240313.86, -404898.3, -20090.639, -0.044904996, -0.16093883, -237896.9, 4432.949, 0.0, 10.000731, 9.998546 
1.374937e+3, 2.8527e+2, -137552.4, -310524.28, -10973.34, -0.06469296, -0.14792478, -136859.05, 7483.03, 0.0, 10.000788, 9.998494 
1.3749254e+3, 2.9526937e+2, -29672.26, -202471.33, -9813.876, -0.10148385, -0.06709409, -29116.682, 17230.54, 0.0, 10.000833, 9.998542 
1.3749142e+3, 3.0526698e+2, 36772.68, -136559.1, -6067.577, -0.08508653, -0.16389078, 36984.82, 36984.82, 0.0, 10.0009165, 9.99862 
1.3749033e+3, 3.1526545e+2, 81174.64, -73281.76, 28986.055, -0.052351065, -0.18211278, 86435.14, 86435.14, 0.0, 10.001039, 9.998997 
1.3851167e+3, 1.2529086e+2, -1744422.5, -1745982.1, -63630.58, 0.0075837364, -0.026918184, -1681566.9, 30580.164, 0.006152381, 9.99988, 9.999842 
1.3851063e+3, 1.3529122e+2, -1598623.9, -1558515.8, 59410.27, -0.09548683, -0.02753228, -1515866.3, 98276.26, 0.0036092806, 9.999907, 10.000451 
1.3850984e+3, 1.4529108e+2, -1521890.9, -1539373.8, -22582.475, 0.119170494, -0.058976606, -1506417.0, 9726.796, 0.0015272575, 10.000061, 9.999828 
1.3850857e+3, 1.5529136e+2, -1392142.0, -1429163.3, -31851.93, -0.0038479771, -0.008950556, -1373812.6, 44329.117, 0.0003731033, 10.000293, 9.9998 
1.3850738e+3, 1.6529116e+2, -1290721.0, -1328563.6, -22173.664, -0.059140973, -0.0093903635, -1280492.9, 39650.85, 0.000030085705, 10.000311, 9.999809 
1.3850635e+3, 1.7529057e+2, -1210899.3, -1233426.4, -18689.75, 0.01051874, -0.053907707, -1200341.4, 21806.91, 0.000000039188958, 10.000161, 9.999862 
1.3850524e+3, 1.852903e+2, -1123497.3, -1155114.3, -25954.107, 0.030975904, -0.05838395, -1108916.3, 15234.121, 0.0, 10.000151, 9.999732 
1.3850406e+3, 1.9529033e+2, -1006996.2, -1043737.7, -30270.264, -0.015479009, -0.033888027, -989958.25, 36191.66, 0.0, 10.000258, 9.999771 
1.3850291e+3, 2.052899e+2, -927360.2, -998370.06, -32685.041, -0.033287037, -0.033050682, -914606.3, 13547.743, 0.0, 10.000322, 9.999379 
1.3850181e+3, 2.1528907e+2, -822662.5, -892054.0, -31881.332, -0.017135102, -0.05872925, -810239.1, 19922.86, 0.0, 10.000346, 9.999425 
1.3850068e+3, 2.2528832e+2, -733694.7, -816743.4, -37418.57, -0.011836161, -0.06706798, -719322.5, 12846.354, 0.0, 10.000364, 9.99926 
1.3849951e+3, 2.3528764e+2, -630744.8, -711502.9, -37846.516, -0.0196188, -0.06495083, -615781.06, 18393.453, 0.0, 10.000379, 9.999303 
1.3849835e+3, 2.4528676e+2, -557519.6, -667105.4, -35000.996, -0.02996405, -0.06350981, -547294.56, -11112.085, 0.0, 10.000389, 9.998928 
1.384972e+3, 2.5528568e+2, -455147.5, -562421.3, -35522.703, -0.041617166, -0.067560144, -444451.06, -6258.7065, 0.0, 10.000399, 9.998969 
1.3849606e+3, 2.652842e+2, -370303.13, -501244.75, -28290.725, -0.042292442, -0.09636189, -364452.2, -24246.611, 0.0, 10.000441, 9.998696 
1.3849494e+3, 2.7528238e+2, -259543.89, -392206.38, -18759.635, -0.03426528, -0.15459193, -256942.14, -14720.424, 0.0, 10.000506, 9.99874 
1.3849379e+3, 2.852811e+2, -173840.66, -331357.44, -10562.552, -0.050431546, -0.1400759, -173135.53, -28902.42, 0.0, 10.000556, 9.998461 
1.3849263e+3, 2.952804e+2, -63875.027, -221474.83, -18186.832, -0.08515814, -0.06396386, -61803.516, -15563.809, 0.0, 10.000612, 9.998515 
1.3849151e+3, 3.0527773e+2, 6960.3145, -151971.4, -18843.639, -0.072266735, -0.18451822, 9163.944, 9163.944, 0.0, 10.000719, 9.998609 
1.3849041e+3, 3.1527662e+2, 68443.125, -51003.957, 9216.801, -0.06431405, -0.1602692, 69150.13, 69150.13, 0.0, 10.000832, 9.9992485 
1.3951169e+3, 1.2530136e+2, -1746099.4, -1750664.8, -71164.6, 0.024570385, -0.052147586, -1677180.9, 34862.547, 0.006457894, 9.999883, 9.999809 
1.3951065e+3, 1.3530216e+2, -1602472.6, -1567250.0, 60572.566, -0.084124364, -0.004480048, -1521780.4, 92254.57, 0.0037909818, 9.999909, 10.00039 
1.3950983e+3, 1.4530171e+2, -1526100.4, -1550023.9, -14788.519, 0.09959869, -0.057352833, -1519041.5, -3002.3535, 0.0016060187, 10.000068, 9.999753 
1.3950862e+3, 1.5530157e+2, -1396648.5, -1438874.5, -24451.363, 0.006719702, -0.043637466, -1385456.3, 32584.715, 0.00039434384, 10.000294, 9.999733 
1.3950743e+3, 1.653014e+2, -1285277.9, -1318732.5, -29104.17, -0.050250847, -0.04024382, -1268436.5, 51606.086, 0.000032562886, 10.000316, 9.999876 
1.3950634e+3, 1.7530127e+2, -1205602.4, -1224246.4, -24718.73, -0.01291952, -0.046962213, -1188506.3, 33536.75, 0.00000005013657, 10.000167, 9.999923 
1.3950524e+3, 1.85301e+2, -1130650.0, -1171305.5, -22809.676, 0.0099007925, -0.048003107, -1120424.5, 3620.6328, 0.0, 10.0001545, 9.9996195 
1.395041e+3, 1.9530065e+2, -1013981.94, -1059392.1, -26762.861, -0.0016067686, -0.05036647, -1001590.44, 24458.174, 0.0, 10.000262, 9.999663 
1.3950297e+3, 2.0530012e+2, -924487.3, -993170.75, -32484.469, -0.011276488, -0.054912195, -911557.5, 16496.203, 0.0, 10.000324, 9.999415 
1.3950184e+3, 2.1529949e+2, -819904.9, -887244.75, -31256.986, -0.010588102, -0.066235855, -807632.8, 22427.219, 0.0, 10.000348, 9.999457 
1.395007e+3, 2.2529884e+2, -733249.44, -816461.8, -37341.62, -0.009285808, -0.063963264, -718949.7, 13116.142, 0.0, 10.000365, 9.999262 
1.3949956e+3, 2.3529825e+2, -630594.4, -711508.6, -37230.723, -0.010568348, -0.054535262, -616070.56, 18000.197, 0.0, 10.000378, 9.999304 
1.394984e+3, 2.4529728e+2, -557147.6, -666386.7, -34746.625, -0.02331183, -0.06056688, -547032.1, -10952.412, 0.0, 10.000387, 9.998935 
1.3949724e+3, 2.5529602e+2, -454091.72, -560435.9, -34471.023, -0.045941316, -0.084681794, -443895.66, -5803.8027, 0.0, 10.000399, 9.998984 
1.394961e+3, 2.6529485e+2, -350907.7, -461513.56, -24904.98, -0.046086967, -0.09720092, -345558.56, -5456.5757, 0.0, 10.000441, 9.99897 
1.39495e+3, 2.7529383e+2, -241544.27, -354249.16, -15020.824, -0.025531422, -0.10503232, -239576.7, 2533.2617, 0.0, 10.000502, 9.999003 
1.3949385e+3, 2.852925e+2, -184104.44, -352677.0, -7824.737, -0.027065294, -0.098052956, -183742.02, -39620.38, 0.0, 10.000554, 9.998316 
1.3949272e+3, 2.9529104e+2, -74473.805, -243705.39, -14378.052, -0.04865335, -0.08297042, -73260.92, -27124.633, 0.0, 10.000611, 9.9983635 
1.3949162e+3, 3.0528817e+2, 830.20526, -165389.8, -13567.703, -0.050033353, -0.21154009, 1930.3868, 1930.3868, 0.0, 10.00072, 9.998516 
1.3949046e+3, 3.1528783e+2, 86315.984, -12899.178, 14142.898, -0.094743356, -0.101249926, 88292.64, 88292.64, 0.0, 10.000826, 9.999514 
1.4051169e+3, 1.2531193e+2, -1737971.9, -1753247.1, -79932.55, 0.04364514, -0.053544775, -1665312.9, 46626.77, 0.0067786416, 9.999967, 9.999752 
1.4051065e+3, 1.3531269e+2, -1562164.5, -1559518.5, 53149.707, -0.08390581, 0.0028507013, -1507675.4, 106256.4, 0.0039822184, 10.000237, 10.000285 
1.4050981e+3, 1.4531206e+2, -1488906.8, -1527058.8, -22389.95, 0.067377925, -0.06781433, -1478568.4, 37369.516, 0.0016886669, 10.000303, 9.999796 
1.4050864e+3, 1.5531199e+2, -1407879.4, -1439676.0, -24283.89, 0.009392447, -0.0529273, -1394752.5, 23186.314, 0.0004161435, 10.000197, 9.999773 
1.4050746e+3, 1.6531183e+2, -1310528.9, -1339940.4, -34484.785, -0.039350156, -0.0434702, -1287745.1, 32194.973, 0.000035020938, 10.000183, 9.999793 
1.4050634e+3, 1.7531171e+2, -1199141.9, -1229653.9, -41767.023, -0.01950272, -0.040134847, -1169931.8, 52009.15, 0.00000006103049, 10.00025, 9.9998455 
1.4050525e+3, 1.8531144e+2, -1116795.1, -1161855.6, -37434.656, 0.0018497106, -0.041064844, -1095633.6, 28309.854, 0.0, 10.000239, 9.999642 
1.4050412e+3, 1.9531102e+2, -1025619.94, -1062416.0, -31982.729, 0.0023502484, -0.051941182, -1007121.06, 18826.326, 0.0, 10.000173, 9.999684 
1.40503e+3, 2.0531055e+2, -947223.44, -1002170.9, -33257.152, -0.005656672, -0.05368168, -931559.7, -3607.633, 0.0, 10.00016, 9.999432 
1.4050187e+3, 2.1531004e+2, -840161.6, -894613.5, -33900.88, -0.012382716, -0.05185589, -823907.44, 6049.6416, 0.0, 10.000201, 9.999476 
1.4050074e+3, 2.2530942e+2, -753965.7, -821283.4, -40705.414, -0.013291097, -0.05217008, -734805.5, -2842.7483, 0.0, 10.000202, 9.999307 
1.4049959e+3, 2.353087e+2, -658620.44, -720427.94, -38024.594, -0.012678805, -0.059668265, -640525.1, -6556.4077, 0.0, 10.000166, 9.999344 
1.4049843e+3, 2.4530776e+2, -583569.2, -674105.3, -30603.027, -0.02031124, -0.06684171, -574195.25, -38217.984, 0.0, 10.000185, 9.998979 
1.4049728e+3, 2.5530666e+2, -472245.0, -564132.9, -28416.447, -0.03461398, -0.079573356, -464167.28, -26179.328, 0.0, 10.000252, 9.999028 
1.4049615e+3, 2.6530558e+2, -373947.75, -471270.94, -28777.791, -0.03761607, -0.08567497, -366075.2, -26077.738, 0.0, 10.000278, 9.99898 
1.4049502e+3, 2.753046e+2, -273640.4, -367971.72, -39815.92, -0.030262234, -0.089426786, -259081.61, -17076.29, 0.0, 10.000277, 9.999017 
1.4049391e+3, 2.8530332e+2, -213536.88, -365670.53, -33067.066, -0.028980613, -0.08101931, -206660.39, -62643.453, 0.0, 10.000348, 9.998325 
1.404928e+3, 2.953018e+2, -94102.71, -252499.1, -28085.75, -0.032549523, -0.07083473, -89270.17, -43238.23, 0.0, 10.000473, 9.998369 
1.404917e+3, 3.052989e+2, -36624.43, -191775.0, -22534.346, -0.029051278, -0.19866885, -33417.777, -33417.777, 0.0, 10.0005, 9.998441 
1.4049052e+3, 3.1529868e+2, 53004.887, 2966.5466, 2413.787, -0.0991518, -0.07176544, 53121.055, 53121.055, 0.0, 10.000461, 9.999798 
1.4151171e+3, 1.253226e+2, -1743447.6, -1765499.8, -74967.91, 0.061491147, -0.03446335, -1678699.3, 33136.277, 0.0071187555, 9.999969, 9.999667 
1.4151065e+3, 1.3532296e+2, -1573283.0, -1581544.5, 62353.33, -0.094087444, -0.0030689547, -1514923.8, 98907.914, 0.0041865646, 10.000235, 10.000135 
1.415098e+3, 1.4532219e+2, -1477451.3, -1504748.6, -27576.943, 0.022595916, -0.087447114, -1460330.3, 55508.74, 0.001777482, 10.000307, 9.9999485 
1.4150865e+3, 1.5532261e+2, -1397209.4, -1418878.0, -28625.662, 0.0024431678, -0.037626486, -1377436.4, 40398.11, 0.00043918352, 10.000201, 9.999915 
1.4150749e+3, 1.653225e+2, -1326129.9, -1374044.5, -32948.777, -0.028992603, -0.019926183, -1309349.3, 10486.494, 0.000037541082, 10.000189, 9.9995575 
1.4150639e+3, 1.7532198e+2, -1213956.4, -1261806.8, -39897.227, -0.010250983, -0.03351413, -1191360.5, 30481.006, 0.00000007226826, 10.000255, 9.999623 
1.4150527e+3, 1.8532164e+2, -1105631.1, -1140077.5, -40787.207, 0.004981668, -0.037521698, -1078579.8, 45265.082, 0.0, 10.000244, 9.999791 
1.4150414e+3, 1.9532147e+2, -1014974.06, -1041729.6, -34748.367, -0.003952955, -0.038969733, -991117.25, 34728.605, 0.0, 10.000176, 9.9998255 
1.41503e+3, 2.0532116e+2, -946855.25, -1002622.2, -32483.73, -0.016401881, -0.029580781, -931928.94, -4080.2046, 0.0, 10.000164, 9.999427 
1.4150187e+3, 2.1532078e+2, -839924.7, -894904.56, -32691.182, -0.023895776, -0.01583351, -824701.5, 5151.3267, 0.0, 10.000202, 9.999475 
1.4150073e+3, 2.2532003e+2, -748316.94, -809639.2, -42334.863, -0.026165584, -0.03262548, -726706.25, 5153.321, 0.0, 10.000201, 9.999388 
1.4149958e+3, 2.3531899e+2, -652611.3, -708725.56, -39003.33, -0.026776096, -0.08062712, -632622.0, 1246.1554, 0.0, 10.000168, 9.999424 
1.4149845e+3, 2.4531817e+2, -577944.06, -663269.5, -27755.502, -0.021362247, -0.08267872, -569710.06, -33834.93, 0.0, 10.000187, 9.999053 
1.4149733e+3, 2.553176e+2, -468007.3, -555151.7, -25306.148, -0.008753227, -0.050276976, -461191.66, -23311.24, 0.0, 10.00025, 9.999092 
1.414962e+3, 2.6531637e+2, -392280.06, -509785.63, -28332.518, -0.018977258, -0.060527332, -385805.38, -45913.43, 0.0, 10.0002775, 9.998716 
1.4149503e+3, 2.7531466e+2, -291189.28, -405113.5, -38621.33, -0.051419195, -0.110768594, -279330.7, -37422.383, 0.0, 10.0002775, 9.998762 
1.414939e+3, 2.853135e+2, -200765.0, -339634.03, -27586.205, -0.05910493, -0.09135059, -195485.72, -51566.25, 0.0, 10.000349, 9.998505 
1.4149283e+3, 2.953127e+2, -82833.945, -228185.78, -22143.648, -0.040437397, -0.02260848, -79535.33, -33609.02, 0.0, 10.000467, 9.99854 
1.4149176e+3, 3.0530995e+2, -42476.543, -204053.22, -23058.344, -0.012912432, -0.14025173, -39250.344, -39250.344, 0.0, 10.000498, 9.998358 
1.414906e+3, 3.1530893e+2, 71337.734, 40968.324, 305.996, -0.07991469, -0.0856545, 71340.82, 71340.82, 0.0, 10.00046, 10.00006 
1.425117e+3, 1.253331e+2, -1695094.1, -1728437.4, -75117.695, 0.04758048, -0.028223487, -1634820.3, 76913.164, 0.007483504, 10.000243, 9.999789 
1.425107e+3, 1.3533346e+2, -1605074.3, -1595182.3, 76456.77, -0.074842945, 0.0020417874, -1523511.6, 90217.13, 0.004407692, 10.000009, 10.00015 
1.425098e+3, 1.4533259e+2, -1519858.9, -1527955.5, -12957.338, 0.016142169, -0.09140683, -1510332.3, 5404.7285, 0.0018747556, 10.0000305, 9.999922 
1.4250867e+3, 1.5533315e+2, -1387370.1, -1416401.6, -27881.727, -0.007008459, -0.027147023, -1370451.9, 47279.766, 0.0004643644, 10.00028, 9.999894 
1.4250751e+3, 1.6533302e+2, -1303960.6, -1362936.0, -31863.682, -0.03493899, -0.009166847, -1290033.8, 29699.271, 0.000040275583, 10.000341, 9.999558 
1.425064e+3, 1.7533237e+2, -1214650.6, -1261964.1, -22225.943, -0.009774463, -0.036183517, -1205847.6, 15892.263, 0.00000008454083, 10.000251, 9.999622 
1.425053e+3, 1.8533199e+2, -1118796.5, -1150924.5, -24425.021, 0.006004673, -0.041020762, -1105626.4, 18117.252, 0.0, 10.0001745, 9.999749 
1.4250416e+3, 1.953319e+2, -1026242.25, -1050866.9, -32603.908, -0.0066003595, -0.031224988, -1003703.3, 22040.748, 0.0, 10.000118, 9.99979 
1.4250301e+3, 2.053316e+2, -950109.94, -1000609.0, -31202.715, -0.019707449, -0.02117067, -935220.4, -7473.528, 0.0, 10.000128, 9.999457 
1.4250189e+3, 2.1533117e+2, -838736.2, -891160.75, -29604.68, -0.026416603, -0.016133204, -825407.1, 4344.1587, 0.0, 10.000198, 9.999502 
1.4250076e+3, 2.253304e+2, -752618.06, -817157.4, -46881.02, -0.026432725, -0.03156583, -727974.06, 3784.0122, 0.0, 10.0001955, 9.999339 
1.424996e+3, 2.353294e+2, -661050.4, -717366.5, -54091.9, -0.023065994, -0.06962735, -628226.44, 5540.2285, 0.0, 10.000131, 9.999382 
1.4249846e+3, 2.4532863e+2, -584889.4, -657252.3, -44313.254, -0.01702275, -0.07195287, -563862.75, -28089.459, 0.0, 10.000099, 9.999136 
1.4249735e+3, 2.5532806e+2, -484573.22, -554335.2, -41677.37, -0.007415928, -0.048870586, -465106.38, -27328.334, 0.0, 10.000099, 9.999169 
1.4249621e+3, 2.6532677e+2, -413688.78, -536869.3, -37042.715, -0.017319085, -0.05987513, -403407.47, -63617.2, 0.0, 10.000203, 9.998567 
1.4249507e+3, 2.7532494e+2, -282603.75, -416841.94, -39481.21, -0.04635339, -0.10381033, -271852.84, -30044.395, 0.0, 10.000403, 9.998621 
1.4249395e+3, 2.8532377e+2, -182339.08, -311858.9, -29117.54, -0.059814196, -0.087665014, -176094.22, -32274.479, 0.0, 10.000395, 9.9986725 
1.4249285e+3, 2.9532307e+2, -108503.27, -223052.97, -25863.014, -0.054898966, -0.030675558, -102934.64, -57109.465, 0.0, 10.000218, 9.998693 
1.4249179e+3, 3.0532053e+2, -99467.35, -252485.67, -29079.164, -0.015111298, -0.12216684, -94127.56, -94127.56, 0.0, 10.000198, 9.998169 
1.4249064e+3, 3.1531915e+2, 54241.945, 43571.715, -17035.434, -0.06013707, -0.08435214, 66758.15, 66758.15, 0.0, 10.000296, 10.000156 
1.4351168e+3, 1.2534349e+2, -1672880.8, -1682973.5, -85103.234, 0.0029347748, -0.035201434, -1592674.4, 118958.23, 0.007877122, 10.000243, 10.000104 
1.4351073e+3, 1.3534428e+2, -1593036.9, -1570515.1, 67516.92, -0.029845612, 0.01836763, -1513326.4, 100295.945, 0.00464788, 10.00001, 10.0003195 
1.4350984e+3, 1.4534332e+2, -1533938.5, -1558872.5, -4888.149, 0.043471903, -0.08002406, -1533014.4, -17383.117, 0.0019819823, 10.000035, 9.999708 
1.4350867e+3, 1.5534362e+2, -1400065.1, -1443549.1, -19562.102, -0.019285409, -0.02125921, -1392560.0, 25069.574, 0.00049257313, 10.000283, 9.999707 
1.4350753e+3, 1.6534346e+2, -1287334.0, -1330211.8, -36432.527, -0.057268463, -0.00982968, -1266500.5, 53130.797, 0.000043431377, 10.000347, 9.999782 
1.4350642e+3, 1.7534292e+2, -1199548.3, -1232119.4, -26239.223, -0.018942593, -0.048036985, -1184951.5, 36684.207, 0.00000010052836, 10.000256, 9.9998255 
1.435053e+3, 1.8534254e+2, -1133985.0, -1184076.0, -27529.854, 0.0035610914, -0.051380496, -1121812.6, 1826.6318, 0.0, 10.00018, 9.999519 
1.4350416e+3, 1.9534233e+2, -1040866.06, -1082736.5, -35015.953, -0.006752308, -0.028785065, -1021004.2, 4637.487, 0.0, 10.000122, 9.99957 
1.4350303e+3, 2.0534186e+2, -945322.06, -991692.94, -29032.705, -0.017350454, -0.028533828, -931352.94, -3706.7488, 0.0, 10.000131, 9.999518 
1.4350192e+3, 2.1534118e+2, -834475.44, -883701.8, -27169.557, -0.020606413, -0.053090874, -822428.06, 7224.0996, 0.0, 10.000202, 9.999553 
1.4350078e+3, 2.2534055e+2, -764977.2, -843855.8, -49586.566, -0.01445239, -0.049648058, -741058.1, -9399.816, 0.0, 10.000198, 9.999155 
1.4349963e+3, 2.3534e+2, -673332.06, -743394.5, -56241.73, -0.002576358, -0.025870958, -642103.8, -8439.723, 0.0, 10.000132, 9.999204 
1.4349848e+3, 2.4533911e+2, -578217.75, -643866.25, -44179.25, -0.009542273, -0.034154005, -556003.5, -20331.629, 0.0, 10.000099, 9.9992285 
1.4349733e+3, 2.5533795e+2, -478447.13, -542049.1, -40807.29, -0.032421462, -0.07666639, -458512.84, -20831.848, 0.0, 10.000099, 9.999255 
1.4349622e+3, 2.6533675e+2, -415600.13, -541341.9, -28713.596, -0.03341682, -0.08476217, -409353.6, -69661.055, 0.0, 10.000204, 9.998536 
1.4349514e+3, 2.7533555e+2, -284397.7, -420326.53, -31091.1, -0.015619676, -0.066067174, -277623.78, -35918.332, 0.0, 10.000401, 9.9986 
1.4349402e+3, 2.853342e+2, -172262.55, -291949.25, -34819.215, -0.03335596, -0.068008, -162870.03, -19152.438, 0.0, 10.000397, 9.998809 
1.4349285e+3, 2.9533276e+2, -100956.82, -208075.6, -30540.734, -0.080020726, -0.09919121, -92861.164, -47131.957, 0.0, 10.000218, 9.998797 
1.4349179e+3, 3.0533057e+2, -119312.41, -293355.47, -24884.16, -0.038959086, -0.14731856, -115824.44, -115824.44, 0.0, 10.000196, 9.9978895 
1.4349069e+3, 3.1532937e+2, 47573.707, 31187.033, -15237.577, -0.041948944, -0.06494319, 56681.08, 56681.08, 0.0, 10.000289, 10.000074 
1.445117e+3, 1.2535413e+2, -1699211.3, -1684060.0, -65436.313, 0.008655669, -0.03827454, -1625762.3, 85766.234, 0.008301398, 10.000015, 10.000204 
1.4451076e+3, 1.35355e+2, -1564628.9, -1560321.5, 69594.16, -0.017432477, 0.02421177, -1492847.8, 120669.69, 0.0049079615, 10.000221, 10.000286 
1.4450984e+3, 1.453539e+2, -1503329.5, -1549930.6, -9.789353, 0.031199824, -0.082412526, -1503329.5, 12197.96, 0.0020998851, 10.000274, 9.999653 
1.445087e+3, 1.5535405e+2, -1413273.5, -1454917.4, -4215.598, -0.018335734, -0.03341304, -1412851.1, 4676.0205, 0.00052445993, 10.000216, 9.99966 
1.4450756e+3, 1.6535388e+2, -1309368.6, -1339953.9, -29211.518, -0.05328487, -0.019127158, -1291688.9, 27839.828, 0.000047180834, 10.0001955, 9.999785 
1.4450644e+3, 1.7535348e+2, -1205394.9, -1234599.6, -35685.414, -0.024048273, -0.044611864, -1181439.8, 40092.094, 0.00000012546444, 10.000217, 9.9998255 
1.4450532e+3, 1.8535303e+2, -1122848.5, -1190028.6, -36520.586, -0.0013307277, -0.049148258, -1106819.6, 16716.531, 0.0, 10.000308, 9.999415 
1.445042e+3, 1.9535261e+2, -998693.56, -1073952.3, -35644.863, -0.0034970113, -0.037740365, -984491.2, 41049.535, 0.0, 10.0004635, 9.999465 
1.4450306e+3, 2.0535205e+2, -907094.5, -981867.9, -34974.91, -0.013343723, -0.037323404, -893285.4, 34260.87, 0.0, 10.000431, 9.99944 
1.4450194e+3, 2.1535139e+2, -834790.9, -892124.2, -44002.004, -0.022091325, -0.052766595, -810941.3, 18611.066, 0.0, 10.000237, 9.999476 
1.445008e+3, 2.2535074e+2, -768891.8, -850339.06, -63201.586, -0.016660161, -0.044901617, -734430.0, -2871.137, 0.0, 10.000193, 9.999112 
1.4449966e+3, 2.3535015e+2, -655881.7, -739929.25, -59722.05, -0.0021365376, -0.020446355, -624880.0, 8685.189, 0.0, 10.000273, 9.999159 
1.444985e+3, 2.4534923e+2, -566818.8, -646380.06, -52594.004, -0.00969964, -0.026134465, -540655.3, -5081.733, 0.0, 10.000213, 9.999157 
1.4449733e+3, 2.5534806e+2, -492481.75, -555906.0, -62405.813, -0.03585418, -0.06530072, -454192.84, -16609.346, 0.0, 10.000032, 9.999192 
1.4449623e+3, 2.6534688e+2, -442030.4, -533464.44, -41177.273, -0.03372139, -0.074093185, -426220.06, -86625.85, 0.0, 9.999934, 9.998719 
1.4449516e+3, 2.7534583e+2, -343902.7, -428795.94, -28341.313, -0.007173257, -0.058840245, -335310.63, -93705.805, 0.0, 9.999907, 9.998778 
1.4449404e+3, 2.8534448e+2, -237643.72, -330931.56, -35407.58, -0.023865772, -0.06744803, -225726.97, -82109.89, 0.0, 9.999981, 9.998741 
1.4449286e+3, 2.9534286e+2, -115376.46, -222932.92, -47170.26, -0.07616097, -0.10949709, -97620.56, -51989.57, 0.0, 10.000154, 9.998727 
1.4449179e+3, 3.0534106e+2, -129836.68, -288940.63, -36078.43, -0.036852587, -0.11911626, -122037.81, -122037.81, 0.0, 10.000084, 9.9979725 
1.4449069e+3, 3.1533954e+2, -11433.744, 20558.402, -4087.0361, -0.04424637, -0.07860558, 21072.271, 21072.271, 0.0, 9.999809, 10.000232 
1.4551176e+3, 1.2536508e+2, -1706543.0, -1701175.5, -57447.883, 0.060318634, -0.036774408, -1646348.8, 65071.605, 0.008755289, 10.000021, 10.000084 
1.4551076e+3, 1.3536565e+2, -1580940.8, -1594940.4, 76067.86, -0.03685497, 0.020139879, -1511551.4, 101861.66, 0.0051877103, 10.000225, 10.000047 
1.4550981e+3, 1.4536437e+2, -1495642.0, -1536436.8, -4286.768, -0.01967616, -0.09691591, -1495196.4, 20228.26, 0.0022286694, 10.000282, 9.9997425 
1.4550874e+3, 1.5536447e+2, -1406502.8, -1442209.5, -7186.634, -0.0061594597, -0.06288769, -1405110.6, 12312.914, 0.0005603208, 10.00022, 9.999745 
1.455076e+3, 1.6536438e+2, -1323421.5, -1371598.3, -29659.068, -0.026125377, -0.035685513, -1309301.1, 10123.592, 0.00005156165, 10.000204, 9.999565 
1.4550646e+3, 1.753641e+2, -1219051.0, -1264965.1, -35274.78, -0.026074128, -0.02613304, -1199920.8, 21507.107, 0.00000016567238, 10.000224, 9.999615 
1.4550535e+3, 1.8536353e+2, -1120961.3, -1187910.8, -31516.691, -0.010022832, -0.03411042, -1108459.3, 14974.474, 0.0, 10.000314, 9.999429 
1.4550425e+3, 1.9536275e+2, -997606.06, -1073477.9, -30494.14, 0.0024125043, -0.058791254, -986869.4, 38571.65, 0.0, 10.000469, 9.999466 
1.4550312e+3, 2.0536217e+2, -922049.9, -1014348.5, -43020.625, -0.008539739, -0.048518807, -905107.7, 22339.303, 0.0, 10.000436, 9.999216 
1.4550196e+3, 2.1536179e+2, -849187.6, -923049.06, -51126.23, -0.03206802, -0.014847458, -823048.8, 6402.8584, 0.0, 10.00024, 9.999264 
1.4550081e+3, 2.2536097e+2, -761981.8, -836240.3, -60293.59, -0.034934755, -0.016871862, -728302.2, 3157.399, 0.0, 10.000192, 9.99921 
1.4549966e+3, 2.3535986e+2, -649375.56, -727208.2, -56545.418, -0.022411209, -0.05429685, -619648.8, 13821.092, 0.0, 10.000275, 9.999247 
1.4549851e+3, 2.4535896e+2, -583643.75, -682112.56, -59067.145, -0.01753478, -0.04927406, -555982.44, -20503.807, 0.0, 10.000215, 9.998912 
1.4549735e+3, 2.5535828e+2, -508145.1, -588621.6, -68175.31, -0.018578684, -0.013667982, -469219.0, -31733.514, 0.0, 10.000031, 9.998969 
1.4549623e+3, 2.6535717e+2, -414370.16, -476155.34, -41544.7, -0.020480866, -0.02638869, -393491.0, -53995.656, 0.0, 9.999933, 9.999114 
1.4549515e+3, 2.7535582e+2, -318459.66, -375599.7, -27988.582, -0.023591243, -0.08309326, -307034.6, -65527.715, 0.0, 9.999903, 9.9991455 
1.4549403e+3, 2.8535455e+2, -256177.53, -369583.16, -28138.893, -0.03227499, -0.086954415, -249579.42, -106060.914, 0.0, 9.99998, 9.998477 
1.4549293e+3, 2.9535335e+2, -132973.22, -259691.7, -39965.242, -0.043739654, -0.06009016, -121421.76, -75891.12, 0.0, 10.000153, 9.998476 
1.4549184e+3, 3.05352e+2, -98445.12, -224305.44, -45330.973, -0.011685269, -0.035113033, -83818.19, -83818.19, 0.0, 10.000085, 9.998417 
1.4549065e+3, 3.153497e+2, 12235.495, 70156.42, -16651.008, -0.07217788, -0.117500864, 74602.016, 74602.016, 0.0, 9.999805, 10.000575 
1.4651176e+3, 1.253758e+2, -1688767.0, -1708945.5, -55235.527, 0.06308635, -0.04301548, -1642706.8, 68607.44, 0.009235504, 10.000216, 9.999936 
1.4651081e+3, 1.3537617e+2, -1584850.9, -1624842.9, 73618.35, -0.025776297, 0.018364575, -1528561.3, 84749.016, 0.0054858825, 10.00032, 9.999794 
1.4650984e+3, 1.4537482e+2, -1476562.8, -1523745.0, -14958.274, -0.029629387, -0.09513024, -1472220.3, 43102.582, 0.002367959, 10.000402, 9.999769 
1.4650877e+3, 1.553749e+2, -1364995.4, -1418994.6, -23195.988, -0.010273549, -0.06721814, -1356399.6, 60921.62, 0.0006001031, 10.000494, 9.999772 
1.4650764e+3, 1.6537474e+2, -1283181.6, -1368167.0, -44417.99, -0.02549639, -0.0389987, -1264204.1, 55118.758, 0.00005646771, 10.000551, 9.99942 
1.465065e+3, 1.7537439e+2, -1176409.5, -1259924.4, -45798.727, -0.024717784, -0.021559108, -1156189.4, 65137.94, 0.00000022299002, 10.000586, 9.999474 
1.4650539e+3, 1.8537377e+2, -1099159.4, -1180555.8, -43599.09, -0.012707504, -0.026787769, -1080215.1, 43118.855, 0.0, 10.00048, 9.999398 
1.4650427e+3, 1.9537294e+2, -1030207.06, -1092346.4, -45991.277, -0.008127566, -0.05342155, -1005774.25, 19567.324, 0.0, 10.000262, 9.999435 
1.4650314e+3, 2.0537235e+2, -952028.6, -1032429.75, -52018.125, -0.018325107, -0.042349737, -926487.5, 860.4054, 0.0, 10.000248, 9.999181 
1.4650197e+3, 2.1537197e+2, -827716.0, -916499.6, -46789.445, -0.03464544, -0.0040532225, -807610.6, 21742.012, 0.0, 10.000406, 9.9992285 
1.4650083e+3, 2.2537114e+2, -737578.06, -825001.3, -55470.113, -0.036768083, -0.006177853, -710666.5, 20694.338, 0.0, 10.000362, 9.999205 
1.4649966e+3, 2.3536997e+2, -668431.0, -736547.94, -60671.688, -0.028967565, -0.049274232, -632911.94, 459.60013, 0.0, 10.000146, 9.999243 
1.4649852e+3, 2.4536905e+2, -599781.5, -688362.75, -55749.695, -0.022808125, -0.046270415, -572870.4, -37489.98, 0.0, 10.000098, 9.998924 
1.4649737e+3, 2.553684e+2, -484585.53, -575885.0, -46080.117, -0.017637977, -0.008901986, -465371.75, -27984.66, 0.0, 10.00019, 9.99898 
1.4649624e+3, 2.6536736e+2, -387489.7, -467439.56, -29934.414, -0.017974263, -0.013368295, -377524.0, -38127.46, 0.0, 10.000137, 9.999075 
1.4649513e+3, 2.753661e+2, -311490.03, -375909.28, -50064.152, -0.023015907, -0.056543518, -284169.2, -42761.723, 0.0, 9.999968, 9.999112 
1.4649402e+3, 2.8536478e+2, -267597.97, -362841.78, -44358.195, -0.0309513, -0.06858612, -250139.19, -106719.77, 0.0, 9.999849, 9.998587 
1.4649291e+3, 2.9536343e+2, -180945.27, -271257.03, -28708.404, -0.03970109, -0.067035355, -172592.02, -127159.445, 0.0, 9.999775, 9.998577 
1.4649184e+3, 3.0536252e+2, -129118.086, -228999.83, -38187.375, -0.00868938, -0.0063097407, -116191.11, -116191.11, 0.0, 9.99983, 9.998507 
1.4649063e+3, 3.1536013e+2, 35693.074, 69729.52, -42200.72, -0.070882455, -0.10870928, 98214.27, 98214.27, 0.0, 10.000017, 10.000468 
1.4751175e+3, 1.2538642e+2, -1699028.9, -1733724.0, -50029.734, 0.019762378, -0.054631475, -1663424.5, 47784.832, 0.00973839, 10.000228, 9.999761 
1.4751087e+3, 1.3538665e+2, -1602951.0, -1663166.8, 76569.9, 0.013043006, 0.019467145, -1550782.3, 62425.855, 0.005800612, 10.000323, 9.99953 
1.4750992e+3, 1.4538531e+2, -1478845.5, -1530641.4, -13047.668, -0.0033176274, -0.076104775, -1475744.4, 39476.785, 0.0025169705, 10.00041, 9.99972 
1.475088e+3, 1.5538536e+2, -1367508.4, -1425355.8, -20379.66, -0.03126833, -0.047261827, -1361049.6, 56169.934, 0.000643619, 10.000498, 9.999726 
1.4750767e+3, 1.6538504e+2, -1287749.8, -1379695.4, -44426.254, -0.051623177, -0.02864904, -1269791.5, 49431.227, 0.00006177202, 10.000558, 9.999339 
1.4750656e+3, 1.7538442e+2, -1181282.6, -1271898.6, -45371.004, -0.020850595, -0.03104093, -1162470.9, 58758.945, 0.0000002932695, 10.000592, 9.99939 
1.4750543e+3, 1.8538378e+2, -1103516.4, -1191572.5, -52600.62, -0.0113506075, -0.02717836, -1078949.4, 44287.156, 0.0, 10.000486, 9.99932 
1.4750427e+3, 1.9538322e+2, -1034399.4, -1102653.5, -53987.14, -0.03574181, -0.021357127, -1004657.3, 20584.87, 0.0, 10.000267, 9.999363 
1.4750314e+3, 2.0538259e+2, -941368.44, -1011099.8, -46501.555, -0.04364335, -0.018144391, -918113.5, 9135.172, 0.0, 10.00025, 9.999328 
1.4750202e+3, 2.1538192e+2, -817605.44, -896895.94, -41248.945, -0.030876694, -0.02166382, -800038.6, 29216.723, 0.0, 10.00041, 9.999362 
1.4750087e+3, 2.253812e+2, -745679.2, -842621.9, -63836.395, -0.02319401, -0.014579457, -713997.2, 17265.389, 0.0, 10.000364, 9.9990835 
1.474997e+3, 2.3538043e+2, -675683.06, -752319.94, -67987.336, -0.022521116, -0.0042994926, -635959.3, -2689.3994, 0.0, 10.000148, 9.999135 
1.4749852e+3, 2.4537948e+2, -580869.7, -649228.1, -52000.234, -0.0270032, -0.015923942, -552821.56, -17542.78, 0.0, 10.000097, 9.999194 
1.4749736e+3, 2.5537837e+2, -467768.3, -541080.56, -42063.867, -0.03452401, -0.052030075, -448629.8, -11341.351, 0.0, 10.000189, 9.999219 
1.4749624e+3, 2.6537737e+2, -420932.9, -537829.5, -35562.418, -0.026525808, -0.036153343, -410964.16, -71666.11, 0.0, 10.000139, 9.998592 
1.4749514e+3, 2.7537662e+2, -342870.78, -441370.34, -55132.89, -0.0065517877, 0.021639012, -318193.72, -76886.984, 0.0, 9.999967, 9.998665 
1.4749402e+3, 2.8537515e+2, -234109.06, -292765.5, -46450.07, -0.022701073, -0.011000471, -208503.2, -65183.17, 0.0, 9.999846, 9.999069 
1.4749287e+3, 2.9537308e+2, -150469.88, -207504.25, -29846.78, -0.06651148, -0.13203745, -137706.8, -92369.56, 0.0, 9.999772, 9.999017 
1.474918e+3, 3.053726e+2, -147068.97, -267339.28, -30616.426, -0.028343374, -0.034390215, -139723.75, -139723.75, 0.0, 9.999833, 9.998243 
1.4749067e+3, 3.15371e+2, -5007.131, -16290.819, -38171.984, -0.042499486, -0.03127906, 27937.69, 27937.69, 0.0, 10.000021, 9.999878 
1.485118e+3, 1.2539686e+2, -1625413.1, -1701338.5, -58076.85, 0.014279351, -0.060971122, -1593992.3, 117114.55, 0.010262846, 10.000754, 9.999728 
1.4851092e+3, 1.3539705e+2, -1573162.6, -1660980.5, 74873.13, 0.014253698, 0.017621694, -1530273.0, 82833.445, 0.0061310735, 10.000581, 9.99942 
1.4850993e+3, 1.453958e+2, -1467720.4, -1532030.3, -5684.1567, -0.01335142, -0.060706444, -1467221.9, 47897.09, 0.0026753244, 10.000517, 9.999658 
1.4850885e+3, 1.553958e+2, -1360525.4, -1427572.0, -14483.392, -0.02839829, -0.028752707, -1357530.5, 59587.496, 0.00069087674, 10.000571, 9.999675 
1.4850773e+3, 1.6539538e+2, -1288104.1, -1380084.6, -38661.652, -0.046101086, -0.018345095, -1274012.5, 45109.5, 0.00006744942, 10.00056, 9.999334 
1.4850661e+3, 1.7539458e+2, -1194367.1, -1278586.6, -34894.586, -0.024870252, -0.038377352, -1181788.1, 39342.35, 0.00000037325287, 10.000506, 9.999384 
1.4850548e+3, 1.8539394e+2, -1105129.9, -1193544.4, -40644.098, -0.017702373, -0.0335001, -1089285.3, 33851.703, 0.0, 10.000482, 9.999308 
1.485043e+3, 1.9539358e+2, -1004300.5, -1089529.0, -37489.766, -0.03766804, -0.008960809, -990156.9, 34984.14, 0.0, 10.000482, 9.999349 
1.4850315e+3, 2.0539287e+2, -923965.4, -1010939.06, -32276.822, -0.042473875, -0.005838762, -913296.0, 13852.149, 0.0, 10.000406, 9.999252 
1.4850207e+3, 2.1539196e+2, -843224.75, -916697.4, -44637.58, -0.02860897, -0.027393317, -822150.4, 7007.143, 0.0, 10.000268, 9.999292 
1.485009e+3, 2.2539124e+2, -755602.44, -837203.0, -68990.39, -0.024774585, -0.021682238, -716250.75, 14913.848, 0.0, 10.000255, 9.999173 
1.4849971e+3, 2.3539071e+2, -641954.7, -727058.06, -57926.52, -0.032193244, 0.002529344, -612630.56, 20538.611, 0.0, 10.000342, 9.999213 
1.4849854e+3, 2.4538971e+2, -554301.94, -645226.44, -47141.18, -0.03337783, -0.009870247, -534272.94, 905.19604, 0.0, 10.00032, 9.999113 
1.484974e+3, 2.5538838e+2, -471641.7, -551783.8, -65207.258, -0.027768074, -0.060121574, -435177.28, 2013.002, 0.0, 10.000202, 9.999138 
1.4849627e+3, 2.653874e+2, -431852.13, -545999.25, -57422.863, -0.020265207, -0.039872773, -407964.1, -68763.9, 0.0, 10.000078, 9.998565 
1.4849512e+3, 2.753868e+2, -347485.9, -446502.22, -43060.203, -0.013396128, 0.037174806, -331379.75, -90172.336, 0.0, 9.999949, 9.998636 
1.4849399e+3, 2.8538525e+2, -235012.88, -293022.22, -35202.207, -0.031406246, -0.00016590739, -218405.42, -75184.125, 0.0, 9.999841, 9.999069 
1.4849284e+3, 2.9538298e+2, -153871.5, -209112.42, -56496.508, -0.06575519, -0.1441064, -118605.2, -73364.6, 0.0, 9.99975, 9.999016 
1.4849177e+3, 3.053827e+2, -154080.48, -248915.2, -48489.074, -0.024607165, -0.03543174, -133677.53, -133677.53, 0.0, 9.999693, 9.998436 
1.4849067e+3, 3.1538144e+2, -66757.164, -63648.082, -25480.652, -0.031266227, -0.019583369, -39674.598, -39674.598, 0.0, 9.999675, 9.999718 
1.4951189e+3, 1.2540726e+2, -1619197.8, -1689265.3, -61778.58, 0.04288608, -0.061725933, -1583210.8, 127795.01, 0.010811674, 10.000756, 9.999811 
1.4951093e+3, 1.3540743e+2, -1571599.9, -1658378.0, 67478.086, -0.021522006, 0.013307366, -1534764.9, 78239.61, 0.0064788726, 10.000584, 9.999436 
1.4950995e+3, 1.4540632e+2, -1471210.5, -1541909.3, -5716.7773, -0.058874965, -0.04712996, -1470751.3, 44264.367, 0.00284381, 10.000526, 9.999586 
1.4950894e+3, 1.5540633e+2, -1364052.3, -1436069.0, -13512.43, -0.0033817072, -0.011321169, -1361600.4, 55415.32, 0.00074233697, 10.000575, 9.999616 
1.495078e+3, 1.6540584e+2, -1282863.6, -1371230.4, -41848.18, -0.012416179, -0.0075577004, -1266191.1, 52829.22, 0.000073667885, 10.0005665, 9.9993925 
1.4950666e+3, 1.7540492e+2, -1189717.4, -1270612.9, -37403.84, -0.037511583, -0.043651637, -1175073.6, 45955.316, 0.00000046463128, 10.000511, 9.999437 
1.4950551e+3, 1.854043e+2, -1100966.4, -1186251.9, -41431.86, -0.03245718, -0.04459249, -1084153.3, 38881.81, 0.0, 10.000485, 9.999356 
1.4950436e+3, 1.9540398e+2, -1000541.2, -1083929.8, -38025.043, -0.0154321585, -0.016989889, -985805.7, 39232.242, 0.0, 10.000489, 9.999385 
1.4950323e+3, 2.0540321e+2, -944631.75, -1055433.6, -38023.188, -0.016671708, -0.0070856954, -932838.75, -5792.4136, 0.0, 10.000411, 9.998945 
1.4950208e+3, 2.1540208e+2, -862216.6, -957461.2, -49587.125, -0.028390255, -0.020237297, -841087.44, -12028.332, 0.0, 10.000272, 9.999012 
1.4950092e+3, 2.2540125e+2, -734684.06, -794125.06, -65829.016, -0.04228056, -0.026469605, -692177.4, 38889.406, 0.0, 10.000255, 9.99947 
1.4949971e+3, 2.3540074e+2, -622996.1, -688230.06, -54443.43, -0.059298363, -0.029849002, -592146.94, 40922.473, 0.0, 10.000343, 9.99948 
1.4949857e+3, 2.4539976e+2, -585788.8, -711024.2, -51145.84, -0.043024525, -0.029608816, -567555.56, -32477.008, 0.0, 10.00032, 9.998662 
1.4949745e+3, 2.5539848e+2, -500894.0, -612756.5, -68728.58, 0.0019945141, -0.03215527, -468214.16, -31121.438, 0.0, 10.000201, 9.99872 
1.4949629e+3, 2.653974e+2, -401464.72, -482692.78, -61731.85, -0.000627153, -0.023910528, -368184.78, -29081.584, 0.0, 10.000076, 9.999001 
1.494951e+3, 2.753966e+2, -319559.34, -388796.25, -46618.734, -0.044987064, -0.011484812, -296111.06, -55001.27, 0.0, 9.999949, 9.999033 
1.4949395e+3, 2.853951e+2, -269866.16, -366702.22, -37716.3, -0.057711873, -0.037610054, -256909.72, -113786.08, 0.0, 9.999845, 9.998563 
1.4949284e+3, 2.9539308e+2, -187247.5, -278418.2, -58872.348, -0.040229753, -0.10197438, -158374.95, -113231.86, 0.0, 9.999747, 9.998543 
1.4949177e+3, 3.0539277e+2, -107934.94, -151585.14, -48867.168, -0.001434285, -0.008893695, -76240.555, -76240.555, 0.0, 9.999686, 9.999108 
1.4949062e+3, 3.153915e+2, -47586.125, -23594.07, -27248.623, -0.03942288, -0.058624648, -5817.7593, -5817.7593, 0.0, 9.999674, 9.999993 
1.5051195e+3, 1.2541772e+2, -1620481.0, -1684830.5, -73821.53, 0.031794813, -0.031507265, -1572127.3, 138777.61, 0.011389687, 10.000726, 9.999858 
1.5051101e+3, 1.3541754e+2, -1535151.8, -1637968.6, 50659.164, -0.015700135, 0.004882682, -1514385.6, 98520.47, 0.006846775, 10.000824, 9.99946 
1.5051001e+3, 1.454165e+2, -1444905.0, -1530400.5, -21760.123, -0.060766403, -0.048447005, -1439685.4, 75230.82, 0.0030239136, 10.000714, 9.999574 
1.5050898e+3, 1.554166e+2, -1380661.5, -1444226.6, -25979.588, -0.0068289284, -0.0016248226, -1371394.4, 45521.293, 0.000798702, 10.000462, 9.999614 
1.5050787e+3, 1.6541615e+2, -1291644.4, -1363858.3, -44314.035, -0.015398763, 0.001208405, -1270589.8, 48330.035, 0.0000807338, 10.000457, 9.9994955 
1.505067e+3, 1.7541525e+2, -1161538.0, -1246102.6, -37377.22, -0.0406611, -0.04442831, -1147385.8, 73541.92, 0.00000057502143, 10.000659, 9.999534 
1.5050557e+3, 1.854146e+2, -1072689.3, -1178353.1, -47742.85, -0.030921698, -0.049358323, -1054313.1, 68620.7, 0.0, 10.000707, 9.999303 
1.5050444e+3, 1.9541423e+2, -984053.5, -1081728.3, -53033.754, -0.005337202, -0.02175855, -960796.06, 64141.434, 0.0, 10.000628, 9.999331 
1.5050328e+3, 2.0541345e+2, -928668.5, -1052620.0, -49071.17, -0.011093826, -0.008600177, -911593.8, 15352.301, 0.0, 10.000544, 9.9989 
1.5050212e+3, 2.1541235e+2, -840162.3, -951937.9, -41684.27, -0.038503714, -0.014314801, -826329.06, 2629.5208, 0.0, 10.000447, 9.998965 
1.5050092e+3, 2.2541144e+2, -722180.9, -795940.06, -59144.543, -0.052963737, -0.021290436, -689359.8, 41607.184, 0.0, 10.000377, 9.999397 
1.5049975e+3, 2.3541076e+2, -630452.75, -699525.6, -76926.92, -0.05770435, -0.03327009, -580665.3, 52306.082, 0.0, 10.000328, 9.99941 
1.5049858e+3, 2.4540982e+2, -601639.7, -716776.8, -73534.49, -0.03958976, -0.028501226, -565819.5, -30839.102, 0.0, 10.000205, 9.998677 
1.5049745e+3, 2.554087e+2, -526467.2, -623093.9, -56962.12, -0.0023869073, -0.015553107, -500088.72, -63095.906, 0.0, 10.00002, 9.998736 
1.5049627e+3, 2.6540753e+2, -417178.22, -482928.94, -45546.184, -0.005074636, -0.02031693, -393882.03, -54878.3, 0.0, 9.999939, 9.999064 
1.504951e+3, 2.754064e+2, -315976.2, -380261.47, -59313.07, -0.041951917, -0.046136115, -280656.34, -39643.594, 0.0, 9.999948, 9.999092 
1.5049393e+3, 2.85405e+2, -270107.03, -367184.72, -45715.586, -0.0537253, -0.063414134, -251968.03, -108942.516, 0.0, 9.999846, 9.998558 
1.5049282e+3, 2.954035e+2, -200948.66, -284645.44, -29524.795, -0.042067245, -0.07465093, -191581.8, -146541.23, 0.0, 9.999654, 9.998544 
1.5049173e+3, 3.0540305e+2, -99609.945, -125374.33, -12008.342, -0.0062716845, -0.009550299, -94881.03, -94881.03, 0.0, 9.999648, 9.999307 
1.5049061e+3, 3.154017e+2, -34618.695, -28407.754, -29505.94, -0.024432344, -0.08693107, -1844.3112, -1844.3112, 0.0, 9.999811, 9.999894 
1.5151198e+3, 1.2542833e+2, -1616749.4, -1679561.3, -68830.32, -0.016913278, 0.033798825, -1572498.5, 138304.8, 0.012000226, 10.000735, 9.99989 
1.5151115e+3, 1.3542743e+2, -1532194.4, -1632158.5, 52764.87, 0.028643249, -0.0074980212, -1509496.8, 103313.61, 0.0072362158, 10.000826, 9.9995 
1.5151012e+3, 1.4542641e+2, -1441843.1, -1525874.9, -32772.16, -0.023625338, -0.06337868, -1430573.5, 84246.38, 0.003216304, 10.000721, 9.999603 
1.51509e+3, 1.554267e+2, -1377440.3, -1439417.3, -35305.17, -0.038859528, 0.00083969184, -1361452.8, 55364.637, 0.00086027547, 10.000468, 9.999645 
1.5150787e+3, 1.654264e+2, -1279860.1, -1341695.9, -37764.883, -0.054640397, 0.009543752, -1261971.3, 56848.535, 0.00008890055, 10.000464, 9.999645 
1.5150678e+3, 1.754256e+2, -1151085.6, -1226258.1, -30801.799, -0.03583059, -0.04155803, -1140076.9, 80749.48, 0.00000071310234, 10.000666, 9.999668 
1.5150565e+3, 1.854249e+2, -1083375.6, -1202183.5, -51417.258, -0.015686503, -0.049266655, -1064213.9, 58619.21, 0.0, 10.000711, 9.999139 
1.515045e+3, 1.9542435e+2, -993950.56, -1103781.9, -56230.203, -0.0076787923, -0.022711143, -970268.7, 54570.484, 0.0, 10.000633, 9.999179 
1.5150332e+3, 2.0542361e+2, -913645.4, -1022279.5, -53126.438, -0.025699688, -0.008976025, -891983.75, 34863.32, 0.0, 10.0005455, 9.999108 
1.5150213e+3, 2.1542276e+2, -827300.9, -926071.2, -45221.37, -0.06042936, -0.010731249, -809724.4, 19131.52, 0.0, 10.000449, 9.999143 
1.5150097e+3, 2.254218e+2, -753762.0, -861947.44, -61000.438, -0.058534764, -0.008027586, -726325.1, 4540.3467, 0.0, 10.000377, 9.998944 
1.5149982e+3, 2.3542081e+2, -659145.1, -759943.7, -78496.53, -0.02769401, -0.0067242375, -616261.0, 16614.15, 0.0, 10.00033, 9.998995 
1.5149862e+3, 2.4541987e+2, -567900.5, -647173.6, -80303.15, -0.02397693, -0.005989406, -517984.56, 16899.143, 0.0, 10.000206, 9.999156 
1.5149741e+3, 2.5541905e+2, -495122.56, -558219.94, -62829.086, -0.042477097, -0.0112218205, -456366.1, -19475.36, 0.0, 10.000019, 9.999183 
1.5149625e+3, 2.6541778e+2, -439882.97, -530132.56, -44279.754, -0.034770805, -0.02980908, -421786.38, -82884.31, 0.0, 9.999938, 9.998741 
1.5149511e+3, 2.754162e+2, -336684.16, -423181.97, -57936.973, -0.0056014443, -0.066012114, -307633.97, -66717.45, 0.0, 9.999946, 9.998799 
1.5149395e+3, 2.85415e+2, -234032.39, -292543.66, -52419.344, -0.021434441, -0.076775, -203257.38, -60330.21, 0.0, 9.9998455, 9.999071 
1.5149274e+3, 2.9541427e+2, -166558.1, -214819.55, -35085.45, -0.07275797, -0.063278474, -148106.19, -103172.94, 0.0, 9.999659, 9.9990225 
1.5149166e+3, 3.0541345e+2, -119034.75, -167571.6, -4668.206, -0.04062327, -0.041042063, -118589.84, -118589.84, 0.0, 9.999655, 9.999015 
1.5149063e+3, 3.1541204e+2, -67869.195, -97128.055, -22693.365, 0.008551441, -0.09678854, -55498.457, -55498.457, 0.0, 9.999807, 9.999425 
1.5251206e+3, 1.2543857e+2, -1555298.9, -1657428.6, -55033.855, -0.027149212, 0.04490385, -1531288.1, 179416.19, 0.01264397, 10.001199, 9.99982 
1.5251122e+3, 1.354377e+2, -1527216.9, -1633753.6, 56415.734, 0.036773715, 0.009821101, -1502895.0, 109816.375, 0.007646962, 10.000878, 9.999464 
1.525102e+3, 1.4543672e+2, -1437930.6, -1521936.1, -31902.213, -0.019015072, -0.03970985, -1427188.9, 87531.234, 0.0034202072, 10.000739, 9.999621 
1.5250906e+3, 1.5543674e+2, -1333715.9, -1415942.3, -35277.043, -0.040163506, -0.0055294647, -1320655.6, 96064.09, 0.0009266569, 10.000759, 9.999666 
1.5250792e+3, 1.6543645e+2, -1247216.8, -1325514.5, -38502.9, -0.054300472, 0.0032301531, -1231455.6, 87266.336, 0.000098221106, 10.000689, 9.999647 
1.5250684e+3, 1.7543592e+2, -1167928.0, -1234001.4, -43209.066, -0.030118072, -0.021505697, -1146573.0, 74153.336, 0.0000008739153, 10.000549, 9.99967 
1.5250571e+3, 1.8543525e+2, -1103837.3, -1205675.1, -60590.176, -0.015297269, -0.0264387, -1075611.4, 47121.26, 0.0, 10.0005455, 9.999194 
1.5250455e+3, 1.9543462e+2, -986858.0, -1094317.9, -49584.566, -0.020832753, -0.015946167, -967474.8, 57264.555, 0.0, 10.000657, 9.999231 
1.5250337e+3, 2.0543383e+2, -897871.5, -1009463.25, -50651.867, -0.03757771, -0.009591828, -878309.6, 48437.47, 0.0, 10.000634, 9.999153 
1.5250218e+3, 2.1543303e+2, -817618.75, -916999.06, -55959.68, -0.0590805, -0.011804514, -792471.75, 36283.297, 0.0, 10.000499, 9.99918 
1.52501e+3, 2.2543208e+2, -760605.56, -872134.2, -60640.973, -0.052952945, -0.0060466286, -733986.7, -3222.1516, 0.0, 10.000361, 9.998881 
1.5249984e+3, 2.3543109e+2, -679138.2, -776055.25, -49711.727, -0.026193587, 0.0009353783, -658174.25, -25399.541, 0.0, 10.000222, 9.998936 
1.5249865e+3, 2.454301e+2, -577178.44, -646011.8, -57014.42, -0.024736403, -0.0027136595, -544998.2, -10214.484, 0.0, 10.00012, 9.999205 
1.5249741e+3, 2.554292e+2, -487837.84, -549303.75, -72738.51, -0.04336155, -0.019710047, -439606.22, -2815.211, 0.0, 10.000048, 9.99923 
1.5249623e+3, 2.6542798e+2, -443944.44, -525498.6, -53320.02, -0.034249697, -0.03921945, -417596.28, -78794.65, 0.0, 9.999884, 9.998799 
1.524951e+3, 2.7542654e+2, -377496.4, -435837.8, -39066.418, -0.003065966, -0.069067866, -357911.44, -117096.67, 0.0, 9.999637, 9.99886 
1.5249394e+3, 2.8542548e+2, -271019.9, -300468.66, -35149.336, -0.015575491, -0.075782366, -247635.44, -104811.21, 0.0, 9.999551, 9.999159 
1.5249273e+3, 2.9542488e+2, -168369.08, -205139.39, -50218.313, -0.062443543, -0.05710173, -133276.27, -88447.33, 0.0, 9.999603, 9.999115 
1.5249163e+3, 3.0542368e+2, -114983.56, -155570.44, -12530.363, -0.04004546, -0.08157767, -111426.766, -111426.766, 0.0, 9.999642, 9.999103 
1.524906e+3, 3.1542265e+2, -84460.88, -99115.83, -2672.1553, 0.009909387, -0.10322258, -83988.85, -83988.85, 0.0, 9.999671, 9.999476 
1.5351221e+3, 1.2544851e+2, -1567556.5, -1684107.5, -66305.766, -0.0019615907, 0.0053375443, -1537556.9, 173050.05, 0.013320751, 10.001203, 9.999634 
1.5351129e+3, 1.3544838e+2, -1535155.9, -1652143.4, 44113.656, 0.008672819, 0.05642508, -1520386.1, 92222.32, 0.008079103, 10.000886, 9.999334 
1.5351024e+3, 1.454475e+2, -1435329.3, -1519421.0, -32774.605, -0.046358358, 0.02209309, -1424064.4, 90552.06, 0.0036348698, 10.00075, 9.999635 
1.5350915e+3, 1.5544677e+2, -1331953.0, -1413735.3, -35363.02, -0.013064122, -0.02126171, -1318782.8, 97839.54, 0.0009972175, 10.000765, 9.99968 
1.5350804e+3, 1.6544636e+2, -1256852.9, -1347572.4, -44521.176, -0.018081227, -0.017412966, -1238654.5, 79971.43, 0.000108598695, 10.000695, 9.999494 
1.5350689e+3, 1.7544624e+2, -1176559.3, -1253910.6, -48177.813, -0.024199992, 0.016232193, -1153453.8, 67173.67, 0.0000010362653, 10.000556, 9.999531 
1.5350576e+3, 1.8544576e+2, -1084204.6, -1166534.9, -56928.195, -0.029843295, 0.020260364, -1055117.5, 67514.43, 0.0, 10.00055, 9.999461 
1.535046e+3, 1.9544503e+2, -968892.1, -1058182.5, -45918.906, -0.046338327, -0.0028621044, -949492.5, 75145.33, 0.0, 10.000661, 9.999479 
1.5350342e+3, 2.0544416e+2, -906636.56, -1028557.6, -56147.707, -0.04887862, -0.012524176, -884719.2, 41926.984, 0.0, 10.000635, 9.9990225 
1.5350226e+3, 2.154432e+2, -825144.4, -933398.3, -60770.65, -0.035092253, -0.016504738, -797890.75, 30765.188, 0.0, 10.000501, 9.999068 
1.5350106e+3, 2.2544232e+2, -737777.2, -825306.1, -65990.766, -0.03698491, -0.013999842, -702357.6, 28306.414, 0.0, 10.000362, 9.999204 
1.5349983e+3, 2.3544161e+2, -658650.9, -734100.56, -54266.66, -0.054181274, -0.01117599, -630284.6, 2385.5273, 0.0, 10.000223, 9.999224 
1.5349863e+3, 2.4544051e+2, -604389.44, -702858.94, -59314.54, -0.0426636, -0.019671576, -576538.06, -41857.492, 0.0, 10.00012, 9.998815 
1.5349744e+3, 2.554392e+2, -513101.3, -602217.06, -74746.27, -0.0060448367, -0.040314253, -470639.6, -33945.84, 0.0, 10.000048, 9.998868 
1.5349625e+3, 2.654381e+2, -412316.84, -460588.47, -61837.367, -0.005524853, -0.048760902, -370071.97, -31369.271, 0.0, 9.999885, 9.999246 
1.5349503e+3, 2.7543736e+2, -348109.75, -375826.5, -46667.527, -0.03625627, -0.057337426, -313286.38, -72578.54, 0.0, 9.999639, 9.999272 
1.5349387e+3, 2.854363e+2, -295822.6, -352184.47, -32073.6, -0.037522927, -0.06174387, -281308.3, -138591.2, 0.0, 9.999551, 9.998805 
1.5349273e+3, 2.9543525e+2, -191130.61, -251715.66, -47141.383, -0.012498369, -0.05434222, -165387.9, -120659.97, 0.0, 9.9995985, 9.998798 
1.5349163e+3, 3.0543363e+2, -81183.805, -85568.766, -10565.315, -0.0059067127, -0.13052265, -72585.875, -72585.875, 0.0, 9.99964, 9.999585 
1.5349053e+3, 3.1543344e+2, -40056.38, -8518.853, 1968.0889, -0.0268183, -0.11844702, -8396.51, -8396.51, 0.0, 9.999676, 10.000097 
1.5451236e+3, 1.2545894e+2, -1571937.1, -1704031.3, -56680.81, 0.017220445, -0.0006276059, -1550950.1, 159554.61, 0.014032979, 10.001251, 9.999474 
1.5451139e+3, 1.3545886e+2, -1487220.5, -1639080.5, 54144.78, -0.0040275874, 0.06650865, -1469892.6, 142614.19, 0.008535393, 10.001264, 9.999242 
1.5451032e+3, 1.4545809e+2, -1387118.5, -1499789.5, -22536.418, -0.06297032, 0.0501367, -1382778.0, 131736.02, 0.0038615032, 10.001101, 9.999599 
1.5450925e+3, 1.554572e+2, -1328428.9, -1415795.5, -29658.035, -0.0055186595, -0.0049438537, -1319312.3, 97208.64, 0.0010719306, 10.000806, 9.999645 
1.5450811e+3, 1.6545671e+2, -1257405.1, -1351866.9, -32146.752, -0.008639916, -0.006411151, -1247503.1, 71022.21, 0.000119982535, 10.00071, 9.999457 
1.5450695e+3, 1.7545658e+2, -1145485.6, -1242437.1, -27996.287, -0.032935224, 0.029363155, -1137982.0, 82545.25, 0.0000011877057, 10.000786, 9.999498 
1.545058e+3, 1.854561e+2, -1057332.8, -1146654.9, -42007.68, -0.039476544, 0.03243452, -1040681.06, 81850.44, 0.0, 10.000707, 9.999521 
1.5450466e+3, 1.954554e+2, -988265.44, -1060562.5, -47011.414, -0.042997964, 0.0051407106, -965111.44, 59425.504, 0.0, 10.000499, 9.999539 
1.5450348e+3, 2.0545454e+2, -940721.94, -1032800.5, -56984.688, -0.039078567, -0.009658511, -913502.3, 13042.267, 0.0, 10.000351, 9.999129 
1.545023e+3, 2.1545364e+2, -853446.06, -935278.75, -44580.344, -0.024739565, -0.018885989, -833851.6, -5298.277, 0.0, 10.000257, 9.999171 
1.5450108e+3, 2.2545283e+2, -759209.9, -827631.2, -51713.684, -0.032509204, -0.021391015, -731415.1, -854.33453, 0.0, 10.000182, 9.999273 
1.5449984e+3, 2.3545212e+2, -668972.94, -732344.0, -59312.637, -0.060397096, -0.023639001, -633412.94, -846.4949, 0.0, 10.000124, 9.999283 
1.5449865e+3, 2.4545103e+2, -615120.6, -715726.9, -58358.613, -0.044645615, -0.029728614, -588377.44, -53800.563, 0.0, 10.000081, 9.998745 
1.5449747e+3, 2.554497e+2, -517595.13, -611752.3, -50869.87, 0.007143373, -0.041873995, -495361.84, -58771.4, 0.0, 10.000051, 9.9988 
1.5449625e+3, 2.654487e+2, -405495.03, -450465.22, -49185.21, 0.003255942, -0.04645779, -373899.03, -35299.816, 0.0, 9.999905, 9.999305 
1.5449499e+3, 2.7544796e+2, -340590.22, -366314.84, -63561.043, -0.047159687, -0.055058587, -288603.13, -47999.332, 0.0, 9.999667, 9.999324 
1.5449381e+3, 2.8544697e+2, -297715.2, -353693.44, -39227.05, -0.045873918, -0.05802818, -277515.6, -134902.84, 0.0, 9.999542, 9.998798 
1.544927e+3, 2.9544592e+2, -204762.75, -257630.63, -29487.797, 0.00026580138, -0.046457574, -191595.13, -146971.78, 0.0, 9.999505, 9.998802 
1.5449159e+3, 3.054441e+2, -106547.47, -92582.5, 1106.3782, 0.0022152914, -0.14828841, -92495.39, -92495.39, 0.0, 9.999447, 9.999629 
1.5449049e+3, 3.1544438e+2, -62743.6, 14249.5, -18095.727, -0.028933413, -0.09545879, 18290.459, 18290.459, 0.0, 9.999378, 10.000395 
1.5551248e+3, 1.2546991e+2, -1579580.9, -1722054.0, -57208.54, 0.030961392, 0.028146427, -1559453.0, 150944.16, 0.014788676, 10.001259, 9.999346 
1.5551151e+3, 1.3546923e+2, -1490625.6, -1646789.6, 52956.508, -0.003176227, 0.040761504, -1474361.5, 138044.36, 0.009022213, 10.001266, 9.999188 
1.5551041e+3, 1.454686e+2, -1392997.0, -1513570.9, -34772.152, -0.07149063, 0.046736844, -1383687.9, 130724.21, 0.0041039125, 10.001105, 9.999503 
1.5550931e+3, 1.5546814e+2, -1333956.3, -1429244.0, -40477.465, -0.018213984, 0.043540347, -1319083.1, 97331.93, 0.0011519974, 10.000813, 9.999551 
1.5550816e+3, 1.6546758e+2, -1251027.5, -1341143.5, -30241.5, -0.02615893, 0.03607104, -1241819.8, 76600.1, 0.00013256267, 10.000719, 9.999527 
1.5550701e+3, 1.7546697e+2, -1140533.9, -1233684.6, -26065.686, -0.057469137, 0.017095642, -1133736.1, 86689.38, 0.0000013544981, 10.000791, 9.9995575 
1.5550587e+3, 1.8546633e+2, -1067111.6, -1168005.8, -50294.22, -0.04689763, 0.010140304, -1046323.75, 76107.54, 0.0, 10.00071, 9.999374 
1.5550473e+3, 1.9546576e+2, -996345.44, -1078715.6, -54473.742, -0.011423167, 0.009514267, -969240.0, 55196.395, 0.0, 10.000504, 9.9994135 
1.5550354e+3, 2.0546508e+2, -916923.0, -984771.6, -60778.246, -0.008689707, 0.00053828437, -881242.4, 45199.63, 0.0, 10.000355, 9.999458 
1.5550232e+3, 2.1546438e+2, -832055.6, -891202.0, -48037.39, -0.029649846, -0.019736521, -805218.1, 23229.15, 0.0, 10.000257, 9.9994755 
1.555011e+3, 2.2546352e+2, -771950.25, -854553.2, -53823.73, -0.041287016, -0.029497853, -745407.75, -14952.864, 0.0, 10.000182, 9.99909 
1.5549986e+3, 2.3546262e+2, -680458.0, -756981.2, -60718.742, -0.045608804, -0.035685737, -646951.1, -14487.419, 0.0, 10.000126, 9.999114 
1.5549865e+3, 2.4546166e+2, -597892.25, -680771.2, -58922.934, -0.03241688, -0.032450903, -567296.06, -32823.25, 0.0, 10.000083, 9.998984 
1.5549746e+3, 2.5546077e+2, -501809.9, -579979.56, -51301.26, -0.0049019638, -0.02556136, -476401.0, -39919.67, 0.0, 10.000053, 9.999018 
1.5549622e+3, 2.6545966e+2, -428457.9, -499136.72, -57242.332, -0.008080954, -0.032763522, -396525.06, -58033.543, 0.0, 9.999907, 9.99897 
1.5549496e+3, 2.754584e+2, -362797.4, -412754.38, -70757.23, -0.037347503, -0.061037637, -312739.2, -72236.34, 0.0, 9.999666, 9.999007 
1.5549377e+3, 2.8545743e+2, -273475.72, -303853.06, -39532.402, -0.043323662, -0.06407781, -246314.6, -103803.125, 0.0, 9.999542, 9.999141 
1.5549262e+3, 2.954569e+2, -181840.5, -211402.73, -29516.96, -0.028630393, -0.036381666, -163610.53, -119094.82, 0.0, 9.999509, 9.999119 
1.554915e+3, 3.05455e+2, -136546.86, -155508.14, -738.3909, -0.019599006, -0.1373297, -136518.14, -136518.14, 0.0, 9.999448, 9.999197 
1.5549046e+3, 3.154551e+2, -65388.35, 8699.374, -15871.303, 0.001995901, -0.054429658, 11956.207, 11956.207, 0.0, 9.999377, 10.00036 
1.5651262e+3, 1.2548055e+2, -1510440.0, -1703845.1, -71934.805, 0.012017717, 0.037975598, -1486618.6, 223674.98, 0.015601244, 10.001812, 9.999204 
1.5651165e+3, 1.3547976e+2, -1503803.3, -1659128.6, 35266.297, 0.003996073, 0.046788894, -1496171.1, 116132.61, 0.009548585, 10.001202, 9.999133 
1.5651053e+3, 1.4547925e+2, -1410679.3, -1513761.9, -39654.105, -0.061251458, 0.060924977, -1397190.1, 117118.66, 0.0043674232, 10.000949, 9.999577 
1.565094e+3, 1.5547878e+2, -1300800.9, -1405328.3, -33045.117, -0.026199827, 0.0498186, -1291230.4, 125080.945, 0.0012395727, 10.001009, 9.999619 
1.5650824e+3, 1.6547816e+2, -1218501.0, -1330600.0, -18499.729, -0.033995192, 0.035476808, -1215526.9, 102789.6, 0.00014677673, 10.000967, 9.999478 
1.565071e+3, 1.7547745e+2, -1136976.1, -1237135.6, -24430.098, -0.051188827, 0.012314417, -1131335.0, 88988.0, 0.0000015913902, 10.000839, 9.999509 
1.5650596e+3, 1.8547684e+2, -1065107.8, -1161160.0, -49755.414, -0.036820114, 0.0068073124, -1043981.1, 78347.586, 0.0, 10.000699, 9.999426 
1.5650478e+3, 1.9547637e+2, -984973.06, -1067453.9, -40205.465, -0.006004013, 0.012449575, -968617.9, 55714.8, 0.0, 10.000558, 9.999464 
1.5650359e+3, 2.0547576e+2, -901367.3, -968164.7, -47946.207, -0.006351463, 0.00559234, -876333.94, 50003.42, 0.0, 10.000424, 9.999538 
1.5650235e+3, 2.1547514e+2, -821448.9, -878153.9, -54383.754, -0.02948898, -0.016249655, -788470.7, 39871.188, 0.0, 10.000297, 9.999545 
1.5650113e+3, 2.2547428e+2, -774230.2, -857010.0, -60761.492, -0.03711374, -0.028399259, -742100.8, -11751.354, 0.0, 10.000175, 9.999075 
1.5649989e+3, 2.3547333e+2, -690500.5, -762788.5, -56438.67, -0.03329863, -0.03715604, -659624.25, -27265.363, 0.0, 10.000063, 9.999104 
1.5649867e+3, 2.4547248e+2, -606503.06, -668788.3, -51893.168, -0.027212888, -0.032037977, -577124.94, -42757.918, 0.0, 9.999956, 9.999127 
1.5649745e+3, 2.5547177e+2, -521570.53, -574954.94, -52714.51, -0.0186144, -0.019877005, -489175.56, -52802.336, 0.0, 9.999857, 9.999146 
1.564962e+3, 2.6547065e+2, -462866.25, -528045.4, -58304.617, -0.016553208, -0.02779081, -428661.28, -90277.64, 0.0, 9.999726, 9.998858 
1.5649493e+3, 2.7546924e+2, -385325.9, -434982.38, -55506.895, -0.020900436, -0.06171306, -349347.44, -108950.125, 0.0, 9.999563, 9.998902 
1.5649372e+3, 2.8546825e+2, -273972.94, -288502.28, -17848.695, -0.03107914, -0.06555908, -261967.13, -119561.36, 0.0, 9.999474, 9.999279 
1.5649256e+3, 2.9546788e+2, -181323.83, -196338.89, -23947.521, -0.04570374, -0.03345271, -163734.61, -119327.055, 0.0, 9.999451, 9.99925 
1.5649143e+3, 3.05466e+2, -161868.45, -188287.95, 5196.6577, -0.036752425, -0.13082355, -160883.05, -160883.05, 0.0, 9.999363, 9.999013 
1.564904e+3, 3.154659e+2, -77796.82, 20584.27, 11447.926, 0.015763946, -0.053446423, 21898.82, 21898.82, 0.0, 9.999214, 10.00052 
1.5751274e+3, 1.2549098e+2, -1523130.9, -1730372.4, -97642.805, -0.041006792, 0.03019323, -1484374.0, 225819.13, 0.016485114, 10.00181, 9.999025 
1.5751179e+3, 1.3549057e+2, -1508503.3, -1670619.6, 12761.107, 0.01589349, 0.084533386, -1507504.9, 104694.8, 0.010123526, 10.001207, 9.999052 
1.5751064e+3, 1.4549007e+2, -1392258.6, -1478475.5, -38837.656, -0.03381683, 0.092909805, -1377343.9, 136860.0, 0.004657013, 10.00096, 9.999815 
1.5750949e+3, 1.5548916e+2, -1284515.8, -1373375.6, -31542.988, -0.030749027, 0.014838325, -1274457.4, 141751.75, 0.00133678, 10.001016, 9.999836 
1.5750834e+3, 1.654885e+2, -1229452.4, -1355159.0, -24060.896, -0.034723632, -0.0059885355, -1225004.4, 93210.21, 0.00016297578, 10.000974, 9.999308 
1.5750723e+3, 1.7548807e+2, -1147375.3, -1260241.9, -29420.377, -0.015415924, 0.015416647, -1140166.8, 80052.664, 0.0000019381066, 10.000844, 9.999349 
1.5750605e+3, 1.8548761e+2, -1047971.25, -1127287.8, -55487.84, -0.010566333, 0.022242913, -1019426.3, 102797.16, 0.0, 10.000705, 9.999657 
1.5750483e+3, 1.9548723e+2, -969881.7, -1037004.8, -45735.125, -0.028393291, 0.013351102, -946715.1, 77510.73, 0.0, 10.00056, 9.999673 
1.575036e+3, 2.0548664e+2, -913075.8, -992934.6, -53012.625, -0.033925734, 0.005150841, -886637.3, 39593.43, 0.0, 10.000424, 9.999369 
1.5750238e+3, 2.1548593e+2, -832159.75, -901221.25, -58653.363, -0.02469624, -0.007881538, -798627.4, 29609.621, 0.0, 10.0002985, 9.999386 
1.5750115e+3, 2.2548509e+2, -764063.6, -837094.9, -64651.203, -0.021020727, -0.017369537, -726328.56, 3915.9402, 0.0, 10.000178, 9.999211 
1.5749991e+3, 2.3548424e+2, -680838.6, -743468.9, -59988.62, -0.024154019, -0.028686546, -644483.44, -12231.194, 0.0, 10.000065, 9.999237 
1.5749866e+3, 2.4548341e+2, -603290.6, -662771.3, -55088.613, -0.029581536, -0.028884148, -570427.1, -36167.3, 0.0, 9.999956, 9.999169 
1.574974e+3, 2.5548267e+2, -518933.66, -569632.4, -55477.516, -0.0360831, -0.023947453, -483288.4, -47022.04, 0.0, 9.999855, 9.999185 
1.5749617e+3, 2.6548165e+2, -455797.44, -513745.06, -63197.21, -0.02495459, -0.031471636, -415248.8, -76972.89, 0.0, 9.999725, 9.998958 
1.5749492e+3, 2.754804e+2, -377643.88, -420771.06, -59840.27, 0.0006986052, -0.059609856, -335600.5, -95312.68, 0.0, 9.999569, 9.998999 
1.574937e+3, 2.854794e+2, -278222.56, -298836.78, -17874.303, -0.010196904, -0.06398227, -267896.5, -125600.29, 0.0, 9.999478, 9.999207 
1.5749249e+3, 2.9547894e+2, -185687.36, -206330.86, -23662.748, -0.052238543, -0.0371813, -170193.14, -125893.75, 0.0, 9.999452, 9.999182 
1.5749136e+3, 3.054771e+2, -157094.94, -178419.69, 730.74176, -0.051311966, -0.12821135, -157069.92, -157069.92, 0.0, 9.999362, 9.999083 
1.574903e+3, 3.154764e+2, -52051.16, 73040.36, 12275.219, 0.0018187953, -0.118436396, 74233.55, 74233.55, 0.0, 9.999217, 10.000879 
1.585129e+3, 1.2550199e+2, -1595632.3, -1747959.4, -90608.914, -0.03256249, 0.064277165, -1553428.4, 156659.22, 0.017450042, 10.001231, 9.999182 
1.585119e+3, 1.3550144e+2, -1453456.0, -1619268.8, 44931.156, 0.01706975, 0.08263455, -1442063.5, 170029.9, 0.010752754, 10.001488, 9.999269 
1.5851077e+3, 1.4550093e+2, -1340423.1, -1474903.4, -11523.629, -0.026202073, 0.08943874, -1339442.9, 174654.48, 0.0049755895, 10.001415, 9.999619 
1.5850961e+3, 1.5549995e+2, -1288006.1, -1395397.6, -37615.742, -0.015130138, 0.023085676, -1276141.4, 139963.19, 0.0014447373, 10.001081, 9.999651 
1.5850843e+3, 1.6549928e+2, -1236271.8, -1344541.1, -32165.227, -0.022062544, 0.004662039, -1227436.9, 90673.07, 0.00018110967, 10.000869, 9.99943 
1.585073e+3, 1.7549892e+2, -1150908.0, -1248858.1, -16617.416, -0.014944718, 0.021009404, -1148165.5, 71947.74, 0.000002389593, 10.000767, 9.999463 
1.5850611e+3, 1.8549849e+2, -1048456.6, -1127897.9, -41505.793, -0.014098626, 0.02425309, -1030727.6, 91389.336, 0.0, 10.000707, 9.99965 
1.5850489e+3, 1.9549808e+2, -953761.4, -1030160.5, -50249.67, -0.029803295, 0.013806017, -928840.1, 95279.77, 0.0, 10.000677, 9.999662 
1.5850365e+3, 2.0549752e+2, -902232.56, -987939.25, -63200.38, -0.032953594, 0.008997664, -868726.9, 57397.902, 0.0, 10.000502, 9.999365 
1.585024e+3, 2.1549687e+2, -845505.56, -907496.5, -57595.438, -0.021549635, 0.0032593447, -811094.94, 17035.623, 0.0, 10.000208, 9.999386 
1.5850118e+3, 2.2549608e+2, -772017.94, -831255.8, -54369.98, -0.015971282, -0.0069808513, -739722.6, -9585.055, 0.0, 10.000083, 9.999297 
1.5849991e+3, 2.3549522e+2, -669643.25, -728860.0, -54026.867, -0.0173489, -0.025782162, -637643.5, -5498.697, 0.0, 10.000104, 9.999317 
1.5849866e+3, 2.4549441e+2, -606575.5, -663814.3, -58803.39, -0.021943148, -0.028078428, -569796.8, -35644.68, 0.0, 9.999935, 9.999171 
1.584974e+3, 2.554937e+2, -554899.3, -586275.6, -63076.89, -0.02954536, -0.02025264, -505588.9, -69430.195, 0.0, 9.999608, 9.999188 
1.5849613e+3, 2.6549277e+2, -478762.38, -509269.03, -63880.88, -0.022471204, -0.027745927, -428339.0, -90171.61, 0.0, 9.999502, 9.999095 
1.5849487e+3, 2.754916e+2, -366815.56, -400588.8, -58803.617, -0.0020460482, -0.057386916, -322521.94, -82344.48, 0.0, 9.999581, 9.99913 
1.5849364e+3, 2.854906e+2, -280118.25, -302525.22, -17615.969, -0.008990903, -0.07045613, -270444.94, -128258.87, 0.0, 9.99948, 9.999179 
1.5849243e+3, 2.9548994e+2, -220749.03, -225293.0, -20992.24, -0.040440865, -0.05907769, -201906.19, -157714.9, 0.0, 9.999224, 9.99916 
1.5849128e+3, 3.0548844e+2, -196615.42, -194040.02, 4987.573, -0.043827616, -0.118467085, -190176.6, -190176.6, 0.0, 9.999078, 9.99911 
1.5849018e+3, 3.1548747e+2, -68356.4, 86317.39, 16368.533, -0.021417053, -0.13367541, 88030.63, 88030.63, 0.0, 9.999017, 10.001065 
1.595131e+3, 1.2551366e+2, -1559960.4, -1676894.5, -83331.65, 0.034146544, 0.14273255, -1516630.8, 193345.27, 0.01849943, 10.0012455, 9.999665 
1.5951204e+3, 1.3551249e+2, -1417730.3, -1547128.5, 52756.176, 0.00613707, 0.0416985, -1398947.8, 213036.44, 0.011438222, 10.001496, 9.999764 
1.595109e+3, 1.455119e+2, -1382891.8, -1565861.8, -25568.584, -0.039582975, 0.05192683, -1379386.0, 134602.92, 0.0053240876, 10.001425, 9.99899 
1.5950975e+3, 1.5551117e+2, -1327842.6, -1480510.6, -50054.598, 0.019132676, 0.07313147, -1312894.9, 103102.36, 0.0015636364, 10.00109, 9.999064 
1.5950856e+3, 1.6551054e+2, -1207031.0, -1286394.4, -36684.71, 0.0024601214, 0.065738276, -1192671.9, 125330.59, 0.0002008773, 10.000878, 9.9998255 
1.5950733e+3, 1.7551003e+2, -1124637.9, -1195860.4, -20495.258, -0.05058078, 0.029429188, -1119161.3, 100843.234, 0.000002909139, 10.0007715, 9.999825 
1.5950616e+3, 1.8550946e+2, -1064615.3, -1162630.8, -43002.01, -0.04882573, 0.014425843, -1048423.9, 73585.11, 0.0, 10.00071, 9.999411 
1.5950496e+3, 1.9550891e+2, -968838.6, -1062980.1, -51490.586, -0.010790095, 0.013472082, -946146.0, 77868.72, 0.0, 10.000682, 9.999435 
1.5950373e+3, 2.055084e+2, -891514.6, -967337.3, -74197.87, -0.0047837207, 0.01646055, -846103.75, 79915.77, 0.0, 10.000506, 9.999505 
1.5950243e+3, 2.1550795e+2, -835924.75, -888055.6, -67791.664, -0.021547131, 0.017345741, -789360.2, 38662.613, 0.0, 10.000208, 9.99952 
1.5950117e+3, 2.255072e+2, -769312.25, -826066.3, -53604.063, -0.023417214, 0.0032441362, -737037.4, -7008.444, 0.0, 10.000083, 9.999333 
1.5949993e+3, 2.3550627e+2, -667386.4, -724731.4, -52868.707, -0.0142037505, -0.028038487, -635915.6, -3878.9878, 0.0, 10.000104, 9.999346 
1.5949868e+3, 2.4550545e+2, -610287.2, -672315.75, -70381.445, -0.006128016, -0.029152583, -564389.6, -30345.39, 0.0, 9.999936, 9.999113 
1.5949738e+3, 2.5550482e+2, -557333.5, -592642.25, -73502.195, 0.0007395607, -0.009682512, -499395.22, -63344.375, 0.0, 9.999611, 9.999145 
1.594961e+3, 2.655039e+2, -466006.13, -484263.38, -60008.76, -0.009188538, -0.016804444, -414435.63, -76377.125, 0.0, 9.999507, 9.999266 
1.594948e+3, 2.7550286e+2, -355954.25, -378238.03, -55175.203, -0.03211157, -0.054226622, -310807.2, -70740.56, 0.0, 9.99958, 9.999285 
1.5949357e+3, 2.8550175e+2, -279813.0, -301917.94, -26159.232, -0.030949846, -0.08524353, -262467.2, -120391.164, 0.0, 9.999478, 9.999186 
1.5949239e+3, 2.9550081e+2, -219181.38, -224280.48, -28894.133, -0.01332999, -0.1023796, -192724.53, -148640.17, 0.0, 9.999231, 9.999165 
1.5949121e+3, 3.054999e+2, -197980.72, -197523.58, 2910.1094, -0.01683362, -0.101372376, -194833.08, -194833.08, 0.0, 9.99908, 9.999086 
1.5949005e+3, 3.154991e+2, -71580.53, 79846.0, 17797.63, -0.0582809, -0.102180555, 81909.69, 81909.69, 0.0, 9.999014, 10.001023 
1.6051325e+3, 1.2552518e+2, -1470563.4, -1655108.9, -35969.61, 0.035846274, 0.13858725, -1463800.4, 246061.9, 0.019635098, 10.001968, 9.999468 
1.6051221e+3, 1.3552386e+2, -1419820.3, -1563009.9, 50449.992, 0.013102553, 0.03723973, -1403830.6, 208041.98, 0.012182242, 10.00155, 9.999628 
1.6051106e+3, 1.4552327e+2, -1388774.5, -1573809.0, -28507.379, -0.0271937, 0.05586396, -1384482.1, 129395.71, 0.0057041305, 10.00141, 9.998941 
1.6050988e+3, 1.5552254e+2, -1270099.6, -1457880.5, -10642.405, 0.021037338, 0.082432956, -1269498.4, 146387.95, 0.0016940435, 10.0015135, 9.999013 
1.6050866e+3, 1.6552185e+2, -1141779.1, -1260615.1, -662.12885, 0.0014297176, 0.07553192, -1141775.5, 176116.61, 0.00022220024, 10.001355, 9.99977 
1.6050744e+3, 1.755213e+2, -1098709.9, -1189120.5, -18759.299, -0.048645757, 0.038681656, -1094972.0, 124922.58, 0.000003466771, 10.0009775, 9.99977 
1.6050622e+3, 1.8552066e+2, -1068781.1, -1165049.1, -42552.12, -0.046103697, 0.020754123, -1052669.0, 69230.76, 0.0, 10.000685, 9.999405 
1.6050503e+3, 1.9552003e+2, -1000293.6, -1078451.4, -34500.66, -0.009773598, 0.013160237, -987243.3, 36662.96, 0.0, 10.00047, 9.99943 
1.6050377e+3, 2.0551954e+2, -900751.8, -964505.25, -52439.53, 0.000013757214, 0.017116537, -871260.56, 54650.063, 0.0, 10.000415, 9.999567 
1.6050248e+3, 2.1551925e+2, -791429.44, -860520.0, -52260.746, -0.008458214, 0.026358645, -763328.44, 64583.895, 0.0, 10.000489, 9.999573 
1.605012e+3, 2.255185e+2, -740032.25, -817774.4, -47122.35, -0.012676028, 0.0107232295, -717817.5, 12101.107, 0.0, 10.000312, 9.999279 
1.6049993e+3, 2.3551741e+2, -697553.8, -745278.8, -55110.16, -0.015176747, -0.030198827, -661361.8, -29433.813, 0.0, 9.999925, 9.99929 
1.6049865e+3, 2.4551657e+2, -630304.4, -679066.3, -70423.24, -0.009472622, -0.031887673, -580161.06, -46225.324, 0.0, 9.999787, 9.999138 
1.6049735e+3, 2.55516e+2, -519592.94, -571496.0, -67992.59, 0.0027081775, -0.005665328, -472767.6, -36826.176, 0.0, 9.999861, 9.999167 
1.6049606e+3, 2.6551515e+2, -439400.4, -472566.84, -60474.133, -0.0044407803, -0.011977228, -393276.97, -55327.953, 0.0, 9.999699, 9.99925 
1.6049474e+3, 2.7551404e+2, -391776.56, -397278.3, -70402.58, -0.026914908, -0.05288229, -324071.13, -84113.28, 0.0, 9.999345, 9.999266 
1.6049351e+3, 2.8551295e+2, -313952.38, -311527.66, -43558.25, -0.029383535, -0.0831736, -269164.88, -127197.836, 0.0, 9.999217, 9.999244 
1.604923e+3, 2.955121e+2, -211026.75, -213302.67, -43814.016, -0.018776314, -0.09602751, -168335.92, -124361.51, 0.0, 9.99926, 9.999224 
1.6049111e+3, 3.0551156e+2, -203075.73, -196938.81, -12658.646, -0.017517751, -0.060491778, -186982.03, -186982.03, 0.0, 9.999033, 9.999111 
1.6048992e+3, 3.1551048e+2, -139040.3, 33151.746, 5021.5347, -0.07535579, -0.09138786, 33298.063, 33298.063, 0.0, 9.998614, 10.000893 
1.6151339e+3, 1.2553662e+2, -1529467.4, -1780089.0, -58014.566, -0.026412025, 0.054862786, -1516689.5, 193056.42, 0.02086322, 10.001974, 9.998603 
1.6151239e+3, 1.3553563e+2, -1470926.1, -1672370.3, 35214.234, 0.036564436, 0.06958842, -1464947.9, 146810.45, 0.0129916845, 10.00156, 9.99887 
1.6151123e+3, 1.4553508e+2, -1351597.8, -1499054.0, -25703.076, 0.008778652, 0.10125419, -1347246.0, 166517.78, 0.0061206263, 10.00142, 9.99945 
1.6150999e+3, 1.555341e+2, -1237472.9, -1391614.1, -7838.781, -0.010526355, 0.05242229, -1237075.3, 178696.06, 0.0018382268, 10.001518, 9.999466 
1.6150877e+3, 1.6553327e+2, -1175893.5, -1333248.8, -15597.6455, -0.026420023, 0.036513522, -1174362.4, 143416.08, 0.00024563554, 10.00136, 9.99927 
1.6150756e+3, 1.755327e+2, -1130403.4, -1257255.3, -32691.256, -0.010565711, 0.047915205, -1122474.0, 97309.6, 0.0000040686878, 10.000985, 9.999301 
1.6150633e+3, 1.8553208e+2, -1052937.1, -1134069.5, -51015.063, -0.008143978, 0.04145229, -1028325.5, 93463.79, 0.0, 10.000691, 9.999615 
1.6150506e+3, 1.9553146e+2, -986009.6, -1050000.3, -41948.855, -0.027761314, 0.0140708415, -965246.94, 58547.688, 0.0, 10.000474, 9.999624 
1.6150379e+3, 2.05531e+2, -901197.25, -966526.0, -49841.87, -0.019469367, 0.012976499, -874269.9, 51528.28, 0.0, 10.000417, 9.999553 
1.6150256e+3, 2.1553078e+2, -792490.06, -863929.3, -49557.094, 0.016374871, 0.029675512, -767121.25, 60678.004, 0.0, 10.000493, 9.999548 
1.6150126e+3, 2.2552991e+2, -751272.1, -842374.06, -61323.26, 0.014192971, 0.014714272, -720433.06, 9373.82, 0.0, 10.000315, 9.999109 
1.6149992e+3, 2.3552859e+2, -708151.25, -768099.06, -68054.445, -0.020568877, -0.03205778, -663762.25, -31943.078, 0.0, 9.999926, 9.999134 
1.614986e+3, 2.4552773e+2, -622739.75, -664257.0, -67206.53, -0.03243483, -0.035826217, -573158.94, -39331.707, 0.0, 9.999789, 9.99924 
1.6149731e+3, 2.555273e+2, -513830.88, -559737.2, -64726.3, -0.026113834, -0.0077377986, -468108.4, -32277.598, 0.0, 9.99986, 9.999249 
1.6149601e+3, 2.6552632e+2, -454625.2, -504905.9, -72766.02, -0.01098779, -0.012525305, -402779.0, -64939.54, 0.0, 9.9997, 9.99903 
1.6149473e+3, 2.7552503e+2, -405185.3, -427191.34, -81721.19, 0.012534994, -0.053238265, -333729.75, -93877.87, 0.0, 9.9993515, 9.999058 
1.6149345e+3, 2.8552407e+2, -305723.0, -296374.28, -41364.27, -0.0050391024, -0.063731045, -259421.11, -117561.04, 0.0, 9.999223, 9.999346 
1.6149218e+3, 2.955237e+2, -203784.02, -198919.98, -42712.586, -0.05991646, -0.03999708, -158570.23, -114707.73, 0.0, 9.99926, 9.999324 
1.6149099e+3, 3.0552337e+2, -198629.14, -187085.42, -28292.277, -0.049470402, 0.0046513737, -163982.25, -163982.25, 0.0, 9.99903, 9.999181 
1.6148977e+3, 3.1552172e+2, -157831.81, -6062.822, -10740.963, -0.0797648, -0.086212546, -5306.4346, -5306.4346, 0.0, 9.998614, 10.000625 
1.6251357e+3, 1.2554808e+2, -1572764.1, -1814018.0, -88049.02, -0.02851521, 0.010689265, -1544047.5, 165584.52, 0.022194505, 10.001731, 9.998487 
1.6251256e+3, 1.3554746e+2, -1415903.1, -1654673.0, 61866.258, 0.034255017, 0.07072552, -1400825.4, 210816.45, 0.013876058, 10.001986, 9.998786 
1.6251141e+3, 1.4554697e+2, -1285829.1, -1467957.1, 1640.9647, 0.013370328, 0.112738736, -1285814.4, 227832.64, 0.0065799933, 10.001881, 9.999441 
1.6251014e+3, 1.5554576e+2, -1241506.3, -1394826.0, -19717.139, -0.017815238, 0.042371254, -1239011.3, 176645.44, 0.0019995468, 10.001499, 9.999453 
1.625089e+3, 1.6554485e+2, -1195508.6, -1352972.8, -31382.334, -0.029811846, 0.023147976, -1189484.6, 128180.15, 0.00027234203, 10.001273, 9.999176 
1.6250768e+3, 1.7554429e+2, -1109318.9, -1257061.8, -19031.13, 0.0038252322, 0.045760732, -1106906.8, 112763.83, 0.0000047643325, 10.001176, 9.999208 
1.6250643e+3, 1.8554373e+2, -1002790.6, -1106002.3, -30501.215, 0.008058027, 0.04842866, -994450.8, 127224.99, 0.0, 10.001022, 9.999647 
1.6250512e+3, 1.9554323e+2, -934832.9, -1022535.9, -34957.992, -0.02326835, 0.029573627, -922603.94, 101075.734, 0.0, 10.000815, 9.999647 
1.6250384e+3, 2.0554268e+2, -877367.75, -962299.6, -45585.184, -0.01894799, 0.02194654, -857533.06, 68150.97, 0.0, 10.000614, 9.999486 
1.625026e+3, 2.155422e+2, -808607.56, -878852.9, -51110.21, 0.018561548, 0.019026458, -781715.25, 45972.598, 0.0, 10.000415, 9.999482 
1.6250128e+3, 2.2554137e+2, -747843.4, -840617.1, -62200.145, 0.013929055, 0.012457885, -716637.7, 13057.524, 0.0, 10.0003395, 9.999108 
1.6249992e+3, 2.3554038e+2, -643961.2, -737337.6, -56310.742, -0.02674471, -0.0031377415, -617501.0, 14203.862, 0.0, 10.00037, 9.99913 
1.624986e+3, 2.4553941e+2, -576493.6, -646637.6, -56566.47, -0.037168097, -0.011896522, -545008.8, -11295.21, 0.0, 10.00013, 9.999194 
1.624973e+3, 2.555386e+2, -544570.9, -579707.8, -66538.125, -0.023714257, -0.01693534, -493320.94, -57600.477, 0.0, 9.999673, 9.999201 
1.6249597e+3, 2.6553768e+2, -481056.1, -519506.2, -68486.26, -0.011653641, -0.0155102145, -429147.66, -91418.69, 0.0, 9.999527, 9.999011 
1.6249466e+3, 2.7553672e+2, -366401.5, -409974.34, -62514.28, 0.00080664956, -0.019682717, -321986.1, -82247.42, 0.0, 9.999627, 9.999042 
1.6249338e+3, 2.8553572e+2, -282411.53, -287819.47, -24624.342, -0.016304182, -0.031964142, -260343.14, -118595.83, 0.0, 9.999397, 9.999318 
1.624921e+3, 2.9553503e+2, -258309.3, -227024.81, -37647.01, -0.06188238, -0.038839623, -201899.7, -158147.06, 0.0, 9.998897, 9.999304 
1.6249087e+3, 3.055347e+2, -237232.52, -189029.19, -21477.033, -0.04327236, -0.00017015939, -180848.45, -180848.45, 0.0, 9.998693, 9.99933 
1.6248961e+3, 3.1553343e+2, -149494.97, -20116.172, -1995.7018, -0.10368157, -0.06663911, -20085.395, -20085.395, 0.0, 9.998748, 10.0004635 
1.635138e+3, 1.2555966e+2, -1529923.9, -1726981.1, -82827.57, 0.022525452, 0.0082071945, -1499734.6, 209785.02, 0.023638725, 10.001745, 9.99908 
1.6351274e+3, 1.3555937e+2, -1376440.5, -1574095.5, 69321.99, 0.004343062, 0.040287063, -1354551.8, 256971.25, 0.014842009, 10.001994, 9.999338 
1.6351156e+3, 1.4555895e+2, -1321153.1, -1543622.3, -14184.376, -0.014102956, 0.090786114, -1320252.4, 193275.19, 0.0070861573, 10.001888, 9.998918 
1.6351031e+3, 1.5555756e+2, -1273821.0, -1464363.8, -33642.992, -0.0019598794, 0.052149657, -1268055.3, 147486.48, 0.00218032, 10.001507, 9.998973 
1.6350904e+3, 1.6555658e+2, -1173872.4, -1309825.0, -35599.727, -0.010484296, 0.03484828, -1165114.6, 152436.4, 0.00030356596, 10.001279, 9.99947 
1.635078e+3, 1.7555608e+2, -1089930.1, -1218306.1, -22927.379, -0.006232533, 0.03306221, -1085958.4, 133596.95, 0.000005612588, 10.001181, 9.999473 
1.6350654e+3, 1.8555564e+2, -1012370.4, -1127161.8, -38441.24, 0.001501729, 0.04332083, -1000686.44, 120872.63, 0.0, 10.001025, 9.999501 
1.6350523e+3, 1.9555533e+2, -944310.3, -1043708.3, -42337.17, 0.0021560004, 0.05838389, -928722.06, 94839.57, 0.0, 10.00082, 9.9995 
1.6350393e+3, 2.0555454e+2, -886325.25, -982314.75, -52972.04, -0.00043950835, 0.042018257, -862839.0, 62729.586, 0.0, 10.000618, 9.999348 
1.6350262e+3, 2.1555348e+2, -817252.7, -897642.6, -57705.08, -0.0019658918, -0.0043928176, -787123.3, 40454.82, 0.0, 10.000417, 9.999353 
1.6350129e+3, 2.2555287e+2, -735293.44, -815482.5, -60917.957, -0.01359936, 0.0061392128, -702459.44, 27124.262, 0.0, 10.000341, 9.999281 
1.6349995e+3, 2.355527e+2, -633243.3, -715826.2, -55165.867, -0.035215802, 0.056473684, -605627.2, 25958.164, 0.0, 10.000371, 9.999278 
1.6349863e+3, 2.4555162e+2, -590971.8, -677549.0, -72968.78, -0.025699712, 0.03987629, -549417.4, -15822.057, 0.0, 10.000131, 9.998982 
1.6349728e+3, 2.5554994e+2, -557580.94, -608017.25, -81400.61, 0.009351895, -0.033143505, -497581.63, -61970.77, 0.0, 9.999676, 9.999006 
1.6349593e+3, 2.655491e+2, -467323.22, -492734.44, -63778.164, -0.0072022374, -0.02102911, -414997.4, -77379.16, 0.0, 9.999533, 9.999194 
1.6349456e+3, 2.7554905e+2, -354669.1, -386698.3, -58650.656, -0.064401545, 0.048186116, -309885.94, -70267.125, 0.0, 9.999629, 9.999202 
1.6349326e+3, 2.8554782e+2, -294297.3, -313017.44, -42772.87, -0.06616175, 0.0123567805, -259872.36, -118242.76, 0.0, 9.999397, 9.999146 
1.6349202e+3, 2.9554597e+2, -268324.3, -249323.3, -54781.902, -0.027675627, -0.09293775, -203224.19, -159578.38, 0.0, 9.9989, 9.99915 
1.634908e+3, 3.0554545e+2, -220183.61, -154720.61, -19112.723, -0.0008785385, -0.07586263, -149548.97, -149548.97, 0.0, 9.998696, 9.999564 
1.6348945e+3, 3.1554574e+2, -152738.14, -27576.188, -5717.6333, -0.14673875, -0.0091111595, -27315.537, -27315.537, 0.0, 9.998749, 10.000413 
1.6451402e+3, 1.2557194e+2, -1450169.4, -1677628.1, -57316.25, 0.037372127, 0.03962037, -1436542.9, 272857.84, 0.025201252, 10.002266, 9.999168 
1.6451292e+3, 1.355713e+2, -1359682.6, -1557347.5, 58731.48, -0.012768017, 0.027351877, -1343548.8, 267857.56, 0.015891703, 10.002077, 9.9994135 
1.6451174e+3, 1.4557084e+2, -1325845.9, -1555446.6, -34954.773, -0.02043539, 0.07580095, -1320642.3, 192768.78, 0.007640092, 10.0019, 9.99883 
1.6451047e+3, 1.5556964e+2, -1246029.5, -1460644.0, -23200.947, 0.004790611, 0.065897994, -1243550.0, 171874.14, 0.002381096, 10.001742, 9.998883 
1.6450919e+3, 1.6556871e+2, -1140236.5, -1290017.6, -19954.7, -0.004987575, 0.055497292, -1137623.6, 179809.55, 0.00034007852, 10.001495, 9.9995 
1.6450791e+3, 1.7556813e+2, -1089364.4, -1215408.5, -27179.383, -0.012484657, 0.04399335, -1083753.4, 135684.55, 0.000006640927, 10.001175, 9.999495 
1.6450661e+3, 1.8556763e+2, -1020702.8, -1137785.8, -45250.84, -0.0027128512, 0.050693464, -1005252.8, 116189.375, 0.0, 10.0009985, 9.99944 
1.6450532e+3, 1.9556728e+2, -931658.8, -1044444.94, -44249.59, 0.009669165, 0.06612303, -916370.6, 107074.695, 0.0, 10.000938, 9.999437 
1.64504e+3, 2.0556648e+2, -861774.3, -970790.56, -49345.652, 0.0024755355, 0.05188916, -842756.06, 82696.305, 0.0, 10.000791, 9.999343 
1.6450265e+3, 2.1556544e+2, -795279.94, -888021.94, -44514.52, -0.016416464, 0.009789883, -777371.8, 50089.848, 0.0, 10.000574, 9.999343 
1.6450132e+3, 2.2556481e+2, -737205.7, -816909.25, -47137.844, -0.025004586, 0.018391047, -715331.1, 14136.461, 0.0, 10.000333, 9.999274 
1.6449998e+3, 2.3556456e+2, -676998.5, -737429.06, -56717.742, -0.027485343, 0.062051862, -642949.75, -11479.691, 0.0, 10.000074, 9.999272 
1.6449863e+3, 2.4556354e+2, -607113.0, -677170.4, -71877.29, -0.0204782, 0.0477368, -562183.25, -28703.951, 0.0, 9.999986, 9.999055 
1.6449726e+3, 2.55562e+2, -501504.6, -573650.0, -59377.496, -0.005868859, -0.01666937, -468101.2, -32608.195, 0.0, 10.0000305, 9.99907 
1.6449589e+3, 2.6556113e+2, -436876.53, -481310.38, -41409.117, -0.023480728, -0.010975057, -412100.8, -74600.01, 0.0, 9.999758, 9.999162 
1.644945e+3, 2.7556086e+2, -413913.6, -418844.16, -53462.855, -0.06577635, 0.040794477, -362859.2, -123355.63, 0.0, 9.99924, 9.9991665 
1.6449317e+3, 2.8555968e+2, -343253.34, -334377.16, -37275.348, -0.068907164, 0.011234165, -301276.63, -159762.83, 0.0, 9.999053, 9.999165 
1.6449189e+3, 2.955581e+2, -237527.77, -231084.56, -35643.633, -0.044205673, -0.06769868, -198517.23, -154990.08, 0.0, 9.999099, 9.999178 
1.6449067e+3, 3.0555722e+2, -186893.3, -133726.05, 2696.2078, -0.0044316086, -0.09177554, -133589.66, -133589.66, 0.0, 9.998905, 9.999606 
1.6448933e+3, 3.1555766e+2, -182576.13, -46043.668, -9186.353, -0.13629569, -0.015607806, -45428.35, -45428.35, 0.0, 9.998564, 10.000373 
1.6551422e+3, 1.2558492e+2, -1476208.4, -1734500.8, -69389.63, 0.015116423, 0.103263, -1458747.4, 250527.89, 0.026885493, 10.002275, 9.998772 
1.6551313e+3, 1.3558327e+2, -1384453.3, -1611243.9, 52007.996, -0.018065419, 0.032398123, -1373095.5, 238195.67, 0.017026437, 10.002088, 9.999036 
1.6551195e+3, 1.4558269e+2, -1302672.6, -1508960.8, -41512.03, -0.007886522, 0.068009704, -1294632.4, 218664.53, 0.008242797, 10.001907, 9.999147 
1.6551064e+3, 1.5558203e+2, -1225093.4, -1419580.9, -29436.943, 0.0003273388, 0.08240066, -1220735.6, 194567.9, 0.002602117, 10.001751, 9.999162 
1.6550933e+3, 1.6558123e+2, -1155019.0, -1323250.9, -32306.465, -0.015041773, 0.084540196, -1149028.4, 168282.9, 0.00038217273, 10.001505, 9.9992695 
1.6550802e+3, 1.7558047e+2, -1103275.0, -1246607.5, -38379.38, -0.015693987, 0.07793433, -1093645.4, 125673.13, 0.000007868034, 10.001183, 9.999278 
1.6550672e+3, 1.8557973e+2, -1019285.56, -1136601.3, -47531.332, -0.005924668, 0.069917396, -1002445.3, 118879.85, 0.0, 10.001004, 9.999446 
1.6550541e+3, 1.9557905e+2, -930586.56, -1043284.1, -46517.23, -0.00083378324, 0.054188035, -913866.6, 109464.04, 0.0, 10.000941, 9.999445 
1.6550407e+3, 2.0557848e+2, -852252.75, -952237.8, -57434.074, -0.010571499, 0.05354514, -826101.2, 99234.28, 0.0, 10.000793, 9.99947 
1.655027e+3, 2.1557805e+2, -787462.4, -872801.94, -52081.887, -0.026798356, 0.060287982, -762802.9, 64535.766, 0.0, 10.000576, 9.999447 
1.6550136e+3, 2.2557713e+2, -750652.56, -846056.4, -56495.563, -0.022725014, 0.047534104, -724413.8, 4933.4478, 0.0, 10.000336, 9.999074 
1.6550002e+3, 2.3557591e+2, -688808.5, -762859.2, -64799.668, -0.0039438945, 0.013909914, -651202.25, -19842.926, 0.0, 10.000076, 9.999098 
1.6549861e+3, 2.4557513e+2, -581772.0, -625610.94, -69360.3, -0.022389093, 0.012615542, -530950.06, 2415.8843, 0.0, 9.999989, 9.999409 
1.654972e+3, 2.555748e+2, -478649.9, -527554.6, -57502.918, -0.07089518, 0.033048, -440616.25, -5249.0205, 0.0, 10.000034, 9.999386 
1.6549581e+3, 2.655737e+2, -454721.88, -519745.7, -60090.992, -0.061696474, 0.015457131, -418911.38, -81534.234, 0.0, 9.999762, 9.998898 
1.6549449e+3, 2.7557206e+2, -430242.88, -454357.4, -70160.97, -0.004861067, -0.042647325, -371110.7, -131717.0, 0.0, 9.999244, 9.998922 
1.6549313e+3, 2.8557125e+2, -328110.4, -304193.2, -34504.355, -0.026416443, -0.036069497, -279633.88, -138233.08, 0.0, 9.999056, 9.999371 
1.6549173e+3, 2.9557142e+2, -222864.86, -201654.05, -34200.094, -0.11337981, 0.038183954, -176452.73, -133055.38, 0.0, 9.999101, 9.99938 
1.6549051e+3, 3.0556992e+2, -198085.05, -156856.42, -9560.115, -0.055671252, -0.04925646, -154747.48, -154747.48, 0.0, 9.998903, 9.999449 
1.6548924e+3, 3.1556916e+2, -183549.33, -48488.02, -32250.164, -0.07162347, -0.07472709, -41182.438, -41182.438, 0.0, 9.998565, 10.000357 
1.6651446e+3, 1.255978e+2, -1445436.6, -1735694.5, -56736.473, 0.013768416, 0.12693729, -1434740.6, 274409.47, 0.028695665, 10.002571, 9.998619 
1.6651332e+3, 1.3559598e+2, -1370101.1, -1623404.3, 84394.72, -0.021334777, 0.055956908, -1344558.4, 266609.66, 0.018249702, 10.0022745, 9.998862 
1.6651216e+3, 1.4559525e+2, -1275264.0, -1488470.6, -8438.342, 0.0059940773, 0.08256406, -1274930.6, 238244.38, 0.008897193, 10.002068, 9.99921 
1.6651084e+3, 1.5559453e+2, -1194591.0, -1399010.1, -14747.302, 0.007573906, 0.08397892, -1193532.6, 221648.97, 0.002844578, 10.001937, 9.999213 
1.665095e+3, 1.655937e+2, -1119685.3, -1320008.6, -24087.375, -0.012671639, 0.08811969, -1116829.6, 200359.9, 0.00043000115, 10.001808, 9.999145 
1.6650817e+3, 1.7559297e+2, -1040017.7, -1229589.6, -23727.016, -0.014907211, 0.095760554, -1037093.1, 182103.95, 0.000009349905, 10.001676, 9.999156 
1.6650684e+3, 1.8559211e+2, -967861.75, -1108626.8, -30474.148, -0.0076770717, 0.082214996, -961547.6, 159656.94, 0.0, 10.001345, 9.999474 
1.6650549e+3, 1.9559126e+2, -941346.06, -1045925.5, -28065.668, -0.0068113348, 0.045326017, -934290.25, 88921.0, 0.0, 10.000858, 9.999466 
1.6650413e+3, 2.0559067e+2, -880895.94, -969778.9, -39978.035, -0.012020395, 0.04468157, -865560.44, 59655.61, 0.0, 10.000615, 9.999434 
1.6650276e+3, 2.1559037e+2, -791991.25, -878518.06, -48059.617, -0.017015938, 0.067780696, -770590.5, 56627.855, 0.0, 10.000562, 9.999414 
1.6650139e+3, 2.2558945e+2, -730997.06, -831096.1, -50099.855, -0.016478045, 0.053334117, -710230.3, 18996.748, 0.0, 10.000448, 9.999122 
1.6650002e+3, 2.3558812e+2, -655019.75, -741535.3, -40519.582, -0.013252317, 0.0042446116, -639006.3, -7766.637, 0.0, 10.000288, 9.999141 
1.664986e+3, 2.4558736e+2, -578654.5, -619608.75, -48605.934, -0.037211455, 0.001152482, -546388.4, -13142.359, 0.0, 9.999992, 9.999447 
1.6649717e+3, 2.5558716e+2, -539904.75, -553060.2, -61635.52, -0.08275102, 0.03163398, -484496.97, -49250.77, 0.0, 9.999598, 9.99942 
1.6649577e+3, 2.655861e+2, -480632.9, -528990.44, -61095.324, -0.06788223, 0.016692828, -439105.88, -101850.23, 0.0, 9.999571, 9.998925 
1.6649443e+3, 2.7558446e+2, -344729.3, -410480.47, -49830.055, -0.004212483, -0.045714583, -317907.0, -78634.75, 0.0, 9.999821, 9.998945 
1.6649304e+3, 2.8558373e+2, -267081.13, -274227.3, -21409.836, -0.028419666, -0.033463016, -248948.27, -107669.47, 0.0, 9.999475, 9.999374 
1.6649161e+3, 2.9558402e+2, -286242.94, -230513.08, -37617.27, -0.12369996, 0.054142002, -211564.4, -168290.13, 0.0, 9.998661, 9.9993925 
1.6649036e+3, 3.0558226e+2, -267879.25, -203794.06, -4921.5005, -0.06959039, -0.055796795, -203418.31, -203418.31, 0.0, 9.998484, 9.999328 
1.6648911e+3, 3.1558168e+2, -137675.97, -4006.1235, -37976.89, -0.07005407, -0.049540203, 6029.958, 6029.958, 0.0, 9.998787, 10.000554 
1.6751473e+3, 1.2561068e+2, -1439774.0, -1724613.0, -72160.31, 0.026996963, 0.11378588, -1422536.3, 286488.25, 0.03063352, 10.002577, 9.998694 
1.6751355e+3, 1.356094e+2, -1367725.3, -1620618.0, 73256.734, -0.024774635, 0.09665632, -1348037.4, 262999.72, 0.019565674, 10.002286, 9.998877 
1.6751237e+3, 1.4560853e+2, -1286586.9, -1514673.0, -13886.929, 0.019200705, 0.1182888, -1285744.5, 227300.81, 0.009607708, 10.002078, 9.999025 
1.6751105e+3, 1.5560716e+2, -1204894.5, -1423075.0, -19188.33, 0.026043072, 0.07144576, -1203219.8, 211838.33, 0.0031109226, 10.001946, 9.999044 
1.6750969e+3, 1.6560616e+2, -1121140.6, -1324775.3, -29203.729, 0.0009555662, 0.06737914, -1117035.3, 200032.63, 0.00048388963, 10.001814, 9.99911 
1.6750833e+3, 1.7560561e+2, -1042036.7, -1234855.5, -29303.521, -0.011998413, 0.09791214, -1037681.7, 181392.05, 0.0000111741165, 10.001678, 9.99912 
1.6750696e+3, 1.856048e+2, -964122.3, -1101897.5, -48831.246, -0.009791523, 0.08785928, -948570.7, 172509.86, 0.0, 10.001347, 9.99952 
1.6750558e+3, 1.9560388e+2, -938635.2, -1041797.44, -44842.78, -0.009374821, 0.038997177, -921868.0, 101219.15, 0.0, 10.000862, 9.999494 
1.675042e+3, 2.0560305e+2, -894554.75, -999605.2, -41822.266, -0.0033711006, 0.024921877, -879938.3, 45156.125, 0.0, 10.00062, 9.9992285 
1.6750285e+3, 2.156024e+2, -804406.6, -905133.06, -49527.32, 0.012492046, 0.033800203, -784134.06, 42966.965, 0.0, 10.000564, 9.999231 
1.6750145e+3, 2.2560173e+2, -710055.9, -788533.8, -55644.633, -0.0068936604, 0.037883766, -681206.5, 47900.504, 0.0, 10.00045, 9.999414 
1.675e+3, 2.3560114e+2, -636607.3, -704593.5, -45983.023, -0.056699507, 0.03248406, -613416.8, 17694.768, 0.0, 10.000292, 9.999394 
1.6749859e+3, 2.4560016e+2, -598248.75, -661674.6, -62952.32, -0.06614649, 0.01265694, -559472.6, -26352.53, 0.0, 9.999995, 9.999158 
1.6749717e+3, 2.5559902e+2, -557855.1, -591229.4, -73773.87, -0.042604625, -0.021433197, -498904.66, -63774.05, 0.0, 9.999599, 9.999159 
1.6749576e+3, 2.6559833e+2, -457838.88, -482607.44, -50267.176, -0.043812253, -0.0079226075, -418452.9, -81315.91, 0.0, 9.999573, 9.999244 
1.6749436e+3, 2.7559802e+2, -323408.53, -368474.34, -41156.69, -0.06500463, 0.032310843, -299020.16, -59880.324, 0.0, 9.999828, 9.999231 
1.6749294e+3, 2.8559706e+2, -281610.9, -305816.16, -51566.223, -0.07564304, 0.020065123, -240746.11, -99597.664, 0.0, 9.999478, 9.999157 
1.6749153e+3, 2.9559585e+2, -300110.5, -259569.81, -64500.16, -0.07768656, -0.019489609, -212229.81, -169071.03, 0.0, 9.998659, 9.999195 
1.6749023e+3, 3.0559412e+2, -274796.78, -218494.7, 7807.442, -0.049569655, -0.11245298, -217432.1, -217432.1, 0.0, 9.998483, 9.9992285 
1.6748895e+3, 3.1559494e+2, -105644.555, 60378.797, -38181.133, -0.12825462, 0.046515204, 68738.55, 68738.55, 0.0, 9.998795, 10.000994 
1.68515e+3, 1.2562367e+2, -1391144.6, -1691532.3, -65195.766, 0.026497543, 0.088404335, -1377605.0, 331291.75, 0.032695845, 10.002891, 9.99877 
1.6851379e+3, 1.3562274e+2, -1332550.9, -1603317.1, 81037.83, -0.026829835, 0.102102615, -1310150.3, 300755.9, 0.020976465, 10.002536, 9.998876 
1.6851261e+3, 1.4562184e+2, -1258124.5, -1518429.5, 3164.1624, 0.03345041, 0.12869075, -1258086.0, 254828.9, 0.010378638, 10.002354, 9.998866 
1.6851127e+3, 1.5562019e+2, -1160841.5, -1418365.6, -2329.664, 0.026982587, 0.071572356, -1160820.4, 254110.28, 0.0034044879, 10.002323, 9.998895 
1.6850987e+3, 1.656191e+2, -1093090.0, -1307366.0, -18734.621, -0.0030852351, 0.06481722, -1091464.4, 225476.92, 0.00054462755, 10.00199, 9.999145 
1.6850848e+3, 1.7561862e+2, -1078602.6, -1248974.1, -13362.133, -0.012615228, 0.09773127, -1077561.0, 141385.56, 0.000013478055, 10.001413, 9.99915 
1.685071e+3, 1.8561786e+2, -991174.2, -1116228.0, -28600.82, -0.0065057524, 0.09091788, -984943.4, 136009.5, 0.0, 10.001168, 9.999507 
1.6850568e+3, 1.9561696e+2, -894063.4, -1022576.94, -29877.29, -0.0033257988, 0.046845324, -887457.06, 135502.08, 0.0, 10.001179, 9.999473 
1.6850428e+3, 2.0561606e+2, -841099.1, -979627.5, -20425.564, -0.0019758313, 0.029277062, -838150.25, 86816.84, 0.0, 10.001013, 9.999176 
1.6850291e+3, 2.1561526e+2, -786614.2, -901607.25, -17579.67, 0.004158167, 0.028663792, -783986.7, 42988.563, 0.0, 10.00071, 9.999184 
1.6850148e+3, 2.2561462e+2, -719709.5, -789873.7, -32656.484, -0.015154286, 0.036586333, -706862.5, 22118.557, 0.0, 10.000372, 9.999441 
1.6850002e+3, 2.3561418e+2, -676612.4, -721565.94, -43314.79, -0.057822783, 0.04545336, -650289.8, -19305.791, 0.0, 10.00001, 9.999413 
1.6849859e+3, 2.4561322e+2, -611906.1, -673894.9, -54405.313, -0.0608965, 0.027845126, -580285.94, -47293.246, 0.0, 9.999928, 9.999105 
1.6849716e+3, 2.5561196e+2, -493613.66, -565439.9, -48402.652, -0.031203412, -0.014118023, -469255.97, -34251.305, 0.0, 10.000064, 9.999111 
1.6849573e+3, 2.6561123e+2, -424514.38, -455672.97, -28513.945, -0.045154583, -0.0041018515, -407601.22, -70590.21, 0.0, 9.999756, 9.99934 
1.6849427e+3, 2.7561104e+2, -422102.63, -405787.16, -37060.78, -0.09427281, 0.038851447, -375996.9, -136984.64, 0.0, 9.999109, 9.99932 
1.6849285e+3, 2.856101e+2, -349718.3, -338078.97, -47450.254, -0.09907437, 0.024665255, -296092.84, -155072.17, 0.0, 9.99901, 9.99916 
1.6849144e+3, 2.956088e+2, -203244.33, -212250.53, -44304.43, -0.06603512, -0.026617235, -163214.73, -120182.24, 0.0, 9.999324, 9.9992 
1.684901e+3, 3.0560723e+2, -222447.44, -209262.11, 30284.137, -0.053643968, -0.09458397, -184861.36, -184861.36, 0.0, 9.998911, 9.999085 
1.6848877e+3, 3.1560782e+2, -214560.28, 42095.473, -30724.557, -0.1293654, 0.055807777, 45722.297, 45722.297, 0.0, 9.997899, 10.001299 
1.6951527e+3, 1.2563688e+2, -1386897.9, -1682664.3, -80555.555, 0.008813648, 0.0523588, -1366380.8, 342385.56, 0.03487983, 10.002894, 9.998833 
1.6951405e+3, 1.35636e+2, -1331697.3, -1604444.8, 68351.39, -0.028467229, 0.07280742, -1315526.9, 295248.2, 0.022483114, 10.002551, 9.99886 
1.6951287e+3, 1.4563514e+2, -1267415.1, -1540720.4, 999.1018, 0.047082927, 0.113556385, -1267411.4, 245372.45, 0.011213223, 10.002365, 9.99871 
1.6951147e+3, 1.5563363e+2, -1170105.9, -1439033.4, -4783.037, 0.0087093, 0.084387325, -1170020.9, 244778.44, 0.0037287846, 10.002328, 9.998752 
1.6951005e+3, 1.6563258e+2, -1084944.5, -1291904.1, -40599.688, -0.026197854, 0.08051758, -1077265.0, 239545.03, 0.0006135235, 10.001994, 9.99925 
1.6950862e+3, 1.7563199e+2, -1070624.8, -1234837.3, -33476.043, -0.016815992, 0.09484286, -1064062.6, 154753.06, 0.000016459384, 10.001422, 9.999245 
1.6950722e+3, 1.8563126e+2, -996057.75, -1128127.4, -28161.002, 0.0013734774, 0.091610074, -990303.7, 130518.07, 0.0, 10.001174, 9.999424 
1.695058e+3, 1.9563049e+2, -898886.56, -1033633.4, -29770.217, 0.010138809, 0.06922104, -892602.4, 130224.79, 0.0, 10.001181, 9.999397 
1.6950439e+3, 2.0562968e+2, -834176.0, -966043.2, -31736.455, -0.008832536, 0.057917405, -826935.56, 97898.65, 0.0, 10.001014, 9.9992695 
1.6950293e+3, 2.156289e+2, -781141.6, -891148.56, -28479.047, -0.042994168, 0.050991986, -774206.1, 52635.348, 0.0, 10.000711, 9.999256 
1.6950148e+3, 2.2562806e+2, -736165.06, -824890.5, -46049.79, -0.04238175, 0.048412334, -716585.4, 12264.237, 0.0, 10.000374, 9.999202 
1.6950007e+3, 2.3562726e+2, -691984.75, -754258.44, -54650.875, -0.017018862, 0.04343856, -660223.06, -29365.63, 0.0, 10.0000105, 9.999188 
1.6949861e+3, 2.456265e+2, -599349.7, -648315.25, -48119.918, -0.022133628, 0.047520116, -569842.3, -36978.2, 0.0, 9.999928, 9.999282 
1.6949715e+3, 2.5562587e+2, -481893.97, -542723.44, -43595.37, -0.04964707, 0.054369856, -459152.22, -24283.375, 0.0, 10.00007, 9.999267 
1.6949567e+3, 2.6562482e+2, -433483.13, -475740.1, -52235.57, -0.07267987, 0.028546065, -398264.75, -61386.51, 0.0, 9.99976, 9.999201 
1.694942e+3, 2.7562347e+2, -430536.03, -423865.84, -58015.125, -0.09429567, -0.027768912, -369090.03, -130199.56, 0.0, 9.999108, 9.999198 
1.6949275e+3, 2.856228e+2, -334000.34, -305762.4, -34234.984, -0.10104853, -0.021012213, -282849.22, -141952.83, 0.0, 9.999009, 9.999383 
1.6949135e+3, 2.9562277e+2, -188244.1, -183070.27, -33063.344, -0.08981574, 0.03413121, -152492.8, -109596.72, 0.0, 9.99933, 9.999398 
1.6948995e+3, 3.0562153e+2, -235197.34, -237455.78, -7289.3545, -0.08351411, -0.0018967924, -228950.27, -228950.27, 0.0, 9.998917, 9.998891 
1.6948861e+3, 3.1562e+2, -202527.52, 67530.055, -75205.35, -0.07189898, -0.04542503, 87060.695, 87060.695, 0.0, 9.997895, 10.001476 
1.7051558e+3, 1.256507e+2, -1373268.4, -1697923.9, -59263.395, 0.009605533, 0.043943416, -1362788.5, 345841.34, 0.037186548, 10.003098, 9.998626 
1.7051432e+3, 1.3564952e+2, -1262886.9, -1599287.5, 69546.27, -0.044040706, 0.06097654, -1249076.1, 361566.5, 0.02408674, 10.003165, 9.998599 
1.7051312e+3, 1.4564858e+2, -1197880.0, -1500900.1, -5362.233, 0.049361505, 0.10347756, -1197785.1, 314867.4, 0.012113362, 10.002827, 9.998761 
1.7051171e+3, 1.5564731e+2, -1189286.6, -1443877.6, 3826.666, 0.00699507, 0.093793646, -1189229.0, 225436.25, 0.0040865135, 10.002178, 9.998791 
1.7051025e+3, 1.6564626e+2, -1108331.5, -1311976.4, -31125.96, -0.03037901, 0.09425624, -1103680.3, 212995.66, 0.000691961, 10.001872, 9.99917 
1.7050877e+3, 1.7564555e+2, -1015800.4, -1217231.6, -38844.883, -0.01994836, 0.1009524, -1008569.0, 210114.56, 0.000020346932, 10.001836, 9.999166 
1.7050734e+3, 1.8564475e+2, -937564.3, -1100360.9, -33232.418, -0.0039032726, 0.096188754, -931041.75, 189648.45, 0.0, 10.001578, 9.999419 
1.7050593e+3, 1.95644e+2, -904181.06, -1036274.1, -29643.328, -0.00094481674, 0.07714578, -897833.7, 124861.51, 0.0, 10.001147, 9.999393 
1.7050445e+3, 2.0564322e+2, -863975.3, -977635.3, -34768.066, -0.01777585, 0.06843247, -854183.44, 70518.38, 0.0, 10.0008, 9.999291 
1.7050299e+3, 2.156425e+2, -809712.56, -903622.6, -37745.613, -0.044197556, 0.06367863, -796422.25, 30286.38, 0.0, 10.000512, 9.999266 
1.7050153e+3, 2.2564161e+2, -745559.7, -834589.0, -47482.082, -0.040507965, 0.058683977, -724989.0, 3728.2346, 0.0, 10.000334, 9.999153 
1.7050007e+3, 2.356407e+2, -660980.25, -743411.2, -42893.98, -0.015213712, 0.04847175, -642709.5, -11983.22, 0.0, 10.000243, 9.999149 
1.704986e+3, 2.4563995e+2, -587613.5, -627464.8, -29217.729, -0.024563197, 0.049505424, -572173.8, -39441.33, 0.0, 9.999946, 9.999415 
1.704971e+3, 2.5563946e+2, -558329.2, -565460.25, -28476.346, -0.05968254, 0.054099645, -533196.0, -98460.6, 0.0, 9.999487, 9.999389 
1.7049561e+3, 2.656384e+2, -488463.0, -503839.63, -36001.7, -0.07941525, 0.024714127, -459337.8, -122593.3, 0.0, 9.9993925, 9.999184 
1.7049411e+3, 2.7563703e+2, -364404.44, -393557.53, -33349.03, -0.089696825, -0.03480282, -342585.47, -103828.055, 0.0, 9.999572, 9.999182 
1.7049266e+3, 2.8563637e+2, -289887.4, -277268.2, -9040.286, -0.09476218, -0.028283756, -272553.38, -131789.9, 0.0, 9.999284, 9.999446 
1.7049125e+3, 2.9563636e+2, -283857.8, -222298.11, -20857.072, -0.08683191, 0.022006182, -215897.1, -173133.63, 0.0, 9.998646, 9.999457 
1.7048979e+3, 3.0563575e+2, -314565.63, -260390.84, -3328.964, -0.10760261, 0.039511386, -260187.05, -260187.05, 0.0, 9.998307, 9.999026 
1.7048845e+3, 3.1563348e+2, -153766.27, 114441.93, -50680.3, -0.051116213, -0.08886865, 123698.92, 123698.92, 0.0, 9.998134, 10.001682 
1.715159e+3, 1.2566516e+2, -1404263.6, -1766110.0, -59089.117, 0.022520863, 0.06057256, -1394858.9, 313628.66, 0.039617054, 10.003109, 9.998154 
1.715146e+3, 1.3566335e+2, -1296654.6, -1671609.9, 70366.17, -0.07418405, 0.06854515, -1283884.3, 326624.06, 0.02578764, 10.003171, 9.9981 
1.715134e+3, 1.456622e+2, -1180407.0, -1465457.8, -30028.842, 0.039194554, 0.10123175, -1177278.0, 335242.34, 0.013079771, 10.0028305, 9.999006 
1.7151193e+3, 1.5566123e+2, -1173237.8, -1412839.0, -19060.701, 0.02025741, 0.09801538, -1171731.0, 242797.84, 0.0044793175, 10.002188, 9.999 
1.7151044e+3, 1.656602e+2, -1125967.9, -1351070.5, -32750.066, -0.01749837, 0.10478682, -1121300.0, 195239.28, 0.0007811272, 10.001881, 9.998899 
1.7150895e+3, 1.7565924e+2, -1032502.25, -1253651.0, -40837.15, -0.023678131, 0.11640498, -1025202.25, 193347.83, 0.000025375884, 10.001842, 9.998915 
1.7150748e+3, 1.856583e+2, -932131.1, -1090433.9, -49428.87, -0.023935637, 0.10501449, -917965.06, 202593.27, 0.0, 10.001581, 9.999487 
1.7150599e+3, 1.9565749e+2, -899373.25, -1027680.75, -45079.59, -0.036684334, 0.070087574, -885118.6, 137444.89, 0.0, 10.001151, 9.999452 
1.7150453e+3, 2.0565669e+2, -867341.3, -985429.44, -45278.2, -0.029401759, 0.060937356, -851978.94, 72591.23, 0.0, 10.000802, 9.999238 
1.7150308e+3, 2.1565603e+2, -812955.2, -911091.8, -47213.48, -0.00047981486, 0.06730899, -793929.4, 32647.447, 0.0, 10.000513, 9.999215 
1.7150159e+3, 2.2565523e+2, -736550.3, -816525.1, -50204.555, -0.010779906, 0.0679891, -712354.44, 16229.8125, 0.0, 10.000335, 9.999277 
1.7150006e+3, 2.3565446e+2, -651716.2, -725348.75, -46037.895, -0.053796094, 0.05998635, -629583.94, 1007.16895, 0.0, 10.000246, 9.999273 
1.7149855e+3, 2.4565354e+2, -581102.06, -614464.3, -45786.68, -0.06966971, 0.03256702, -549052.5, -16454.025, 0.0, 9.999947, 9.999505 
1.7149706e+3, 2.5565258e+2, -552457.3, -553621.44, -42912.684, -0.06254903, -0.016038679, -510122.75, -75517.55, 0.0, 9.999487, 9.999472 
1.7149557e+3, 2.656519e+2, -481300.66, -489681.03, -27955.328, -0.06594286, -0.016183984, -457223.22, -120612.62, 0.0, 9.999393, 9.999282 
1.714941e+3, 2.7565157e+2, -357835.1, -381535.28, -27180.152, -0.08133782, 0.019659903, -340034.13, -101420.45, 0.0, 9.999577, 9.999264 
1.714926e+3, 2.856507e+2, -297229.1, -293264.06, -32600.186, -0.08136956, 0.003579852, -262586.16, -121963.52, 0.0, 9.999286, 9.999336 
1.7149113e+3, 2.9564935e+2, -290750.88, -236994.88, -41429.945, -0.058898155, -0.066150345, -214487.98, -171851.97, 0.0, 9.998646, 9.999358 
1.714896e+3, 3.0564973e+2, -282319.13, -193995.92, -9009.839, -0.12925282, 0.029649178, -193086.2, -193086.2, 0.0, 9.998307, 9.999483 
1.7148823e+3, 3.1564823e+2, -142162.63, 137939.17, -53600.54, -0.07185608, -0.07099138, 147845.84, 147845.84, 0.0, 9.998136, 10.001844 
1.7251621e+3, 1.2567948e+2, -1341228.8, -1731201.5, -69920.67, 0.0031608439, 0.07456466, -1329071.3, 379276.53, 0.042172503, 10.003556, 9.998177 
1.7251492e+3, 1.3567762e+2, -1309609.1, -1684108.4, 91564.04, -0.07703282, 0.083715096, -1288420.8, 321947.72, 0.027585778, 10.003112, 9.998044 
1.7251368e+3, 1.4567629e+2, -1194771.9, -1480184.5, -14001.976, 0.053856026, 0.10344251, -1194086.6, 318295.7, 0.014112073, 10.0027685, 9.998933 
1.7251214e+3, 1.556752e+2, -1126744.9, -1398497.3, -26239.273, 0.0024919054, 0.09684268, -1124234.5, 290157.44, 0.004907627, 10.002545, 9.998926 
1.7251062e+3, 1.656741e+2, -1076509.5, -1330612.1, -32322.867, -0.0362397, 0.10103347, -1072462.4, 243940.7, 0.0008819792, 10.002237, 9.998867 
1.7250915e+3, 1.7567307e+2, -1033670.56, -1258303.9, -23702.945, -0.017400412, 0.108904116, -1031196.7, 187217.48, 0.000031776486, 10.001853, 9.998876 
1.7250766e+3, 1.856721e+2, -943499.44, -1103062.5, -35031.223, -0.013296493, 0.10054226, -936147.25, 184275.48, 0.0, 10.001536, 9.999421 
1.7250611e+3, 1.956713e+2, -886798.5, -1029157.5, -41774.15, -0.038720064, 0.07588861, -875445.56, 146982.69, 0.0, 10.00127, 9.999384 
1.7250462e+3, 2.0567048e+2, -844554.5, -972904.1, -42832.535, -0.030163988, 0.06390214, -831573.44, 92862.05, 0.0, 10.000953, 9.999251 
1.7250314e+3, 2.1566968e+2, -799715.6, -902399.9, -40472.418, 0.011295458, 0.056518596, -785681.7, 40761.305, 0.0, 10.000597, 9.999233 
1.7250162e+3, 2.2566894e+2, -738299.0, -805166.25, -37458.77, -0.0015633762, 0.055493344, -721523.4, 6926.2476, 0.0, 10.000273, 9.999384 
1.7250006e+3, 2.3566835e+2, -685644.5, -730349.44, -35702.71, -0.05963938, 0.05594128, -665874.3, -35419.95, 0.0, 9.999968, 9.999372 
1.7249852e+3, 2.4566747e+2, -615090.44, -629920.9, -44671.117, -0.075515725, 0.026688231, -577223.25, -44761.836, 0.0, 9.999712, 9.99951 
1.72497e+3, 2.556664e+2, -550701.94, -551617.6, -48537.586, -0.056106534, -0.032678023, -502620.03, -68150.63, 0.0, 9.999496, 9.999479 
1.7249551e+3, 2.6566586e+2, -496054.03, -479731.13, -24604.416, -0.05680322, -0.028405398, -461969.88, -125496.37, 0.0, 9.999221, 9.999433 
1.7249402e+3, 2.7566585e+2, -446330.25, -407975.7, -21466.008, -0.077309884, 0.025732696, -398368.28, -159895.23, 0.0, 9.998902, 9.999405 
1.724925e+3, 2.8566498e+2, -376771.5, -325996.8, -28285.068, -0.0748175, 0.0027111485, -313376.75, -172894.86, 0.0, 9.998717, 9.999384 
1.7249101e+3, 2.956634e+2, -290402.16, -233100.69, -24575.387, -0.041945722, -0.09838649, -224004.72, -181506.48, 0.0, 9.998635, 9.999388 
1.7248942e+3, 3.056643e+2, -247113.77, -149713.89, 6735.3306, -0.14888076, 0.042420655, -149250.33, -149250.33, 0.0, 9.998433, 9.999727 
1.7248803e+3, 3.156629e+2, -165462.11, 100201.164, -46263.79, -0.06891565, -0.076691575, 108027.2, 108027.2, 0.0, 9.998091, 10.001606 
1.735165e+3, 1.2569375e+2, -1312097.9, -1665950.9, -85602.9, -0.05173832, 0.089662485, -1292477.0, 415732.84, 0.04485813, 10.003551, 9.998638 
1.7351525e+3, 1.3569236e+2, -1285113.6, -1632731.4, 73872.79, -0.05552946, 0.10322115, -1270066.3, 340157.06, 0.029481819, 10.00312, 9.998393 
1.7351401e+3, 1.4569081e+2, -1220500.6, -1535970.9, -23663.889, 0.090053216, 0.10703115, -1218735.4, 293503.34, 0.015208748, 10.002778, 9.998545 
1.7351235e+3, 1.5568927e+2, -1149931.3, -1448732.0, -34863.92, -0.046384156, 0.0926859, -1145917.4, 268337.3, 0.0053705308, 10.002553, 9.998578 
1.7351079e+3, 1.65688e+2, -1062118.0, -1302210.6, -46764.457, -0.08694491, 0.086231105, -1053331.0, 262936.03, 0.0009949692, 10.002242, 9.999062 
1.7350934e+3, 1.75687e+2, -1021440.8, -1234486.9, -37632.5, -0.0019879246, 0.078217715, -1014988.8, 203287.16, 0.000039781222, 10.001858, 9.999038 
1.7350784e+3, 1.8568613e+2, -957651.4, -1133398.6, -44819.23, 0.026160726, 0.08260584, -946881.56, 173402.31, 0.0, 10.001538, 9.999213 
1.7350626e+3, 1.956855e+2, -899827.06, -1057246.4, -51246.145, -0.009028329, 0.094311945, -884614.56, 137675.06, 0.0, 10.001273, 9.999191 
1.7350471e+3, 2.0568453e+2, -839728.06, -963666.06, -56002.27, -0.021937132, 0.07701066, -818172.1, 106125.89, 0.0, 10.000954, 9.999315 
1.7350319e+3, 2.1568342e+2, -794807.25, -893132.2, -52922.156, -0.009772424, 0.03077262, -771736.06, 54571.516, 0.0, 10.000599, 9.999297 
1.7350164e+3, 2.2568266e+2, -731896.56, -792201.56, -48229.26, -0.013718937, 0.021045588, -705169.94, 23143.957, 0.0, 10.000273, 9.999474 
1.7350009e+3, 2.3568232e+2, -680589.2, -720319.94, -45669.066, -0.033347856, 0.03660222, -650652.0, -20335.502, 0.0, 9.999968, 9.999441 
1.7349853e+3, 2.4568166e+2, -621634.4, -643843.9, -51940.242, -0.04270846, 0.032272223, -579625.06, -47303.18, 0.0, 9.999712, 9.999415 
1.7349698e+3, 2.5568083e+2, -555758.56, -562912.56, -55638.53, -0.04188797, 0.004579927, -503582.16, -69253.52, 0.0, 9.999497, 9.999402 
1.7349544e+3, 2.6568013e+2, -482929.44, -452869.53, -35908.348, -0.053901196, -0.011969717, -428972.53, -92638.49, 0.0, 9.999221, 9.999618 
1.7349389e+3, 2.756797e+2, -433058.25, -381326.5, -32070.824, -0.080464475, -0.017410414, -365990.66, -127654.086, 0.0, 9.998904, 9.999588 
1.7349239e+3, 2.8567913e+2, -361084.3, -294703.84, -30805.22, -0.07727327, -0.031883504, -282611.03, -142268.72, 0.0, 9.998721, 9.9995985 
1.7349088e+3, 2.9567835e+2, -278863.22, -210591.19, -26021.32, -0.037563644, -0.074834, -201804.3, -159453.19, 0.0, 9.998639, 9.999542 
1.7348924e+3, 3.0567947e+2, -245853.31, -147313.39, -5738.4785, -0.16958602, 0.08030456, -146980.34, -146980.34, 0.0, 9.998433, 9.999744 
1.7348787e+3, 3.1567782e+2, -214976.95, -3719.668, -41457.04, -0.051001728, -0.06302909, 4124.577, 4124.577, 0.0, 9.998095, 10.000891 
1.7451689e+3, 1.2570831e+2, -1320481.5, -1659309.9, -71256.51, -0.029601464, 0.10429922, -1306106.0, 401961.66, 0.047677938, 10.003455, 9.998732 
1.7451555e+3, 1.3570666e+2, -1256323.1, -1614368.0, 58561.895, -0.0845433, 0.08849414, -1246988.1, 363094.34, 0.031474058, 10.003315, 9.998423 
1.7451428e+3, 1.4570497e+2, -1196096.1, -1533033.8, -39034.406, 0.08114601, 0.08159677, -1191633.0, 320466.3, 0.016366446, 10.002994, 9.99846 
1.7451262e+3, 1.5570366e+2, -1152197.6, -1458228.5, -29568.113, -0.03510217, 0.0990522, -1149367.0, 264746.72, 0.005865922, 10.002577, 9.998501 
1.7451103e+3, 1.6570243e+2, -1058149.9, -1291953.8, -37593.09, -0.07630305, 0.096292034, -1052254.0, 263871.63, 0.0011198252, 10.002235, 9.999134 
1.7450954e+3, 1.7570132e+2, -1004648.44, -1220115.9, -38539.03, -0.004888286, 0.06937597, -997962.75, 220172.08, 0.00004956382, 10.001948, 9.999092 
1.7450799e+3, 1.8570036e+2, -962763.8, -1148808.5, -46681.254, 0.027888805, 0.06913726, -951707.9, 168435.8, 0.0000000000000006446772, 10.001561, 9.999096 
1.7450641e+3, 1.9569968e+2, -932571.06, -1084534.1, -47021.813, 0.009016019, 0.087178096, -919198.0, 102952.86, 0.0, 10.001101, 9.999085 
1.7450482e+3, 2.0569876e+2, -858002.4, -961272.1, -44688.453, -0.008229271, 0.075146034, -841349.5, 82809.3, 0.0, 10.000783, 9.999413 
1.7450324e+3, 2.156978e+2, -793244.2, -882819.8, -40226.023, -0.015916668, 0.034242235, -777831.7, 48334.65, 0.0, 10.000569, 9.999381 
1.7450166e+3, 2.2569704e+2, -742485.56, -799830.8, -43235.484, -0.020291971, 0.021421734, -719279.25, 8893.461, 0.0, 10.000213, 9.99945 
1.7450008e+3, 2.3569657e+2, -714162.9, -738899.1, -49619.195, -0.025564298, 0.026926335, -675393.6, -45216.77, 0.0, 9.99975, 9.999417 
1.744985e+3, 2.4569596e+2, -646422.0, -651441.5, -44953.035, -0.026496062, 0.028866142, -603908.7, -71726.96, 0.0, 9.999525, 9.999453 
1.7449693e+3, 2.5569537e+2, -556242.2, -558333.25, -40302.18, -0.021961898, 0.02060519, -516971.97, -82785.66, 0.0, 9.999477, 9.999441 
1.7449535e+3, 2.656947e+2, -490670.28, -443279.47, -30656.043, -0.04518408, -0.002005789, -428228.72, -92037.305, 0.0, 9.999114, 9.999733 
1.7449374e+3, 2.7569416e+2, -482540.9, -392024.34, -31221.408, -0.09426838, -0.034396935, -382300.0, -144104.77, 0.0, 9.998512, 9.999702 
1.7449223e+3, 2.8569373e+2, -405815.16, -299616.7, -17909.04, -0.08575302, -0.04516764, -296677.88, -156478.73, 0.0, 9.998344, 9.999744 
1.7449076e+3, 2.9569337e+2, -291460.7, -202896.81, -19977.416, -0.018780002, -0.056770936, -198599.05, -156395.77, 0.0, 9.998496, 9.999663 
1.7448908e+3, 3.056944e+2, -248827.47, -116742.67, -4367.609, -0.17272866, 0.06764847, -116598.41, -116598.41, 0.0, 9.998276, 10.00003 
1.7448767e+3, 3.1569308e+2, -277840.0, -63432.99, 1846.1299, -0.05159088, -0.07299029, -63417.094, -63417.094, 0.0, 9.997792, 10.000626 
1.755173e+3, 1.2572314e+2, -1337739.0, -1696445.3, -73224.99, 0.05727387, 0.116392486, -1323367.0, 384554.4, 0.05062381, 10.003468, 9.99846 
1.7551579e+3, 1.3572064e+2, -1274449.9, -1652792.4, 52089.207, -0.16229662, 0.044229984, -1267409.4, 342535.84, 0.03355527, 10.003318, 9.998158 
1.7551452e+3, 1.4571887e+2, -1183668.3, -1506365.6, -55036.05, 0.02866742, 0.032488987, -1174540.1, 337423.03, 0.017580096, 10.002993, 9.998645 
1.7551294e+3, 1.5571839e+2, -1139911.0, -1433935.9, -44515.465, 0.032613102, 0.11381394, -1133319.1, 280650.38, 0.0063910303, 10.002583, 9.998666 
1.7551132e+3, 1.6571736e+2, -1061255.6, -1299857.0, -48459.824, -0.008612285, 0.12834539, -1051789.1, 264190.1, 0.0012556869, 10.002239, 9.999079 
1.755097e+3, 1.7571601e+2, -1007402.3, -1227621.4, -49486.383, -0.027069617, 0.082135186, -996793.1, 221197.7, 0.00006111771, 10.001953, 9.99904 
1.7550811e+3, 1.857148e+2, -964658.4, -1154176.9, -63778.37, -0.008946772, 0.06062103, -945194.2, 174808.1, 0.0000000010737394, 10.001565, 9.999058 
1.7550652e+3, 1.9571382e+2, -933836.7, -1088916.6, -62917.105, 0.015360051, 0.054850254, -911521.7, 110490.48, 0.0, 10.001106, 9.999054 
1.7550491e+3, 2.0571314e+2, -848935.6, -943387.4, -52096.883, 0.01040347, 0.059133757, -825845.3, 98172.73, 0.0, 10.000785, 9.999535 
1.755033e+3, 2.1571277e+2, -785949.5, -868428.06, -47735.22, -0.008290594, 0.066458955, -764106.9, 61912.746, 0.0, 10.00057, 9.99948 
1.7550167e+3, 2.2571199e+2, -752858.4, -821997.1, -59893.516, -0.023040975, 0.05570217, -718273.75, 9752.68, 0.0, 10.000214, 9.999298 
1.7550004e+3, 2.3571102e+2, -722991.1, -758335.0, -64680.496, -0.037697464, 0.026165904, -673611.8, -43575.777, 0.0, 9.999753, 9.999284 
1.7549846e+3, 2.4571034e+2, -635067.3, -628379.5, -46016.227, -0.028236743, 0.01614754, -585585.9, -53544.176, 0.0, 9.999526, 9.999612 
1.754969e+3, 2.5570998e+2, -545176.1, -536511.8, -42369.758, 0.0019796418, 0.015667327, -498253.3, -64210.242, 0.0, 9.99948, 9.999591 
1.7549528e+3, 2.6570946e+2, -487031.84, -436933.16, -52697.38, -0.03237993, 0.0015324305, -403634.56, -67588.15, 0.0, 9.999118, 9.999776 
1.7549358e+3, 2.75709e+2, -479872.44, -386908.78, -50491.83, -0.12023691, -0.025503572, -364761.28, -126711.414, 0.0, 9.998511, 9.999739 
1.7549205e+3, 2.857086e+2, -401618.9, -291171.5, -11528.611, -0.1016538, -0.03683011, -289980.97, -149927.67, 0.0, 9.998344, 9.999804 
1.7549063e+3, 2.957084e+2, -284663.44, -192037.03, -15606.0205, 0.01067773, -0.044436656, -189478.36, -147422.44, 0.0, 9.9985075, 9.999733 
1.754889e+3, 3.0570894e+2, -207027.61, -32115.566, -23071.049, -0.16285442, 0.0028550557, -29123.652, -29123.652, 0.0, 9.998283, 10.0006075 
1.7548741e+3, 3.157091e+2, -265008.03, -35277.375, 14509.058, -0.08248307, -0.049796626, -34364.656, -34364.656, 0.0, 9.997784, 10.000824 
1.7651768e+3, 1.2573782e+2, -1270587.1, -1675840.1, -61950.5, 0.052127633, 0.084846616, -1261328.4, 446448.38, 0.053677697, 10.004024, 9.99834 
1.7651612e+3, 1.3573568e+2, -1286541.4, -1671229.4, 67134.21, -0.16299254, 0.062456135, -1275162.0, 334636.0, 0.035715524, 10.003294, 9.998044 
1.7651483e+3, 1.457338e+2, -1203248.1, -1507104.4, -34173.254, 0.049899653, 0.04267595, -1199452.3, 312364.78, 0.018844124, 10.002824, 9.998719 
1.7651321e+3, 1.5573317e+2, -1130412.3, -1422087.9, -31034.607, 0.03404465, 0.10142195, -1127146.8, 286677.63, 0.0069425246, 10.002621, 9.998727 
1.7651154e+3, 1.6573218e+2, -1053112.5, -1300850.3, -38564.34, -0.0113347955, 0.11852205, -1047248.2, 268585.66, 0.0014012909, 10.00232, 9.999031 
1.765099e+3, 1.7573097e+2, -1011917.1, -1234685.8, -40762.64, -0.022058306, 0.092629746, -1004692.6, 213151.94, 0.0000742067, 10.001947, 9.998992 
1.7650828e+3, 1.8572977e+2, -954100.0, -1148182.8, -54497.918, -0.0044532525, 0.072900094, -939844.25, 180011.86, 0.000000009428086, 10.001636, 9.9990635 
1.7650664e+3, 1.9572869e+2, -895234.7, -1069856.9, -51385.082, 0.012981921, 0.05611867, -881236.06, 140630.81, 0.0, 10.00137, 9.999057 
1.76505e+3, 2.0572798e+2, -827054.1, -930150.9, -44543.95, 0.007463183, 0.059375234, -810474.7, 113397.984, 0.0, 10.000925, 9.9995575 
1.7650335e+3, 2.157277e+2, -817943.94, -881637.0, -48466.215, -0.007633024, 0.07281175, -791797.56, 34076.035, 0.0, 10.000344, 9.999497 
1.7650169e+3, 2.2572696e+2, -778551.8, -841287.6, -54882.7, -0.016893093, 0.06815796, -746705.4, -18825.064, 0.0, 10.000069, 9.999233 
1.7650004e+3, 2.35726e+2, -688272.9, -747723.3, -53853.86, -0.024840467, 0.044530954, -656485.3, -26595.09, 0.0, 10.000019, 9.999227 
1.7649841e+3, 2.4572521e+2, -615476.2, -606705.3, -38059.742, -0.021398585, 0.023721464, -572779.2, -40882.9, 0.0, 9.999609, 9.99972 
1.7649683e+3, 2.5572476e+2, -618234.6, -560834.3, -38901.445, -0.0072660735, 0.0014025344, -541191.7, -107293.72, 0.0, 9.998933, 9.999686 
1.7649516e+3, 2.6572433e+2, -552715.6, -471652.56, -51413.67, -0.03882115, -0.007173583, -446715.25, -110814.555, 0.0, 9.998681, 9.999747 
1.7649345e+3, 2.7572405e+2, -447774.3, -373128.3, -54858.96, -0.10805794, -0.011470082, -344099.88, -106196.81, 0.0, 9.99874, 9.999722 
1.764919e+3, 2.8572378e+2, -377954.63, -261240.02, -10650.583, -0.090074375, -0.018999487, -260276.08, -120370.945, 0.0, 9.998428, 9.999968 
1.7649044e+3, 2.957237e+2, -372443.25, -217243.47, -7443.1934, 0.0040138057, -0.0277894, -216887.31, -174982.08, 0.0, 9.997835, 9.999883 
1.764887e+3, 3.0572367e+2, -298930.03, -66352.305, -31207.096, -0.1648839, -0.052245952, -62237.754, -62237.754, 0.0, 9.997613, 10.000693 
1.7648719e+3, 3.1572455e+2, -270074.3, -25835.314, -1555.6493, -0.0720254, -0.042478435, -25825.408, -25825.408, 0.0, 9.9977, 10.000927 
1.7751798e+3, 1.2575242e+2, -1274381.9, -1679253.8, -82006.49, -0.043283902, 0.017266065, -1258402.3, 449230.38, 0.056830134, 10.004015, 9.998321 
1.7751652e+3, 1.3575172e+2, -1286069.3, -1670773.4, 40770.375, -0.093014665, 0.13826881, -1281795.9, 327845.28, 0.037950285, 10.003302, 9.998043 
1.7751521e+3, 1.4574972e+2, -1204435.9, -1511180.9, -42938.17, 0.13740748, 0.107194826, -1198538.8, 313122.66, 0.020155376, 10.002832, 9.998689 
1.775134e+3, 1.5574802e+2, -1131618.9, -1426404.6, -38806.285, -0.0291312, 0.06389131, -1126595.9, 287082.2, 0.007517709, 10.002628, 9.998694 
1.775117e+3, 1.657469e+2, -1056097.0, -1308873.5, -52538.254, -0.082607396, 0.07030766, -1045612.1, 270077.06, 0.0015554583, 10.002327, 9.998974 
1.7751013e+3, 1.757462e+2, -1014736.44, -1242432.9, -53963.484, 0.008917745, 0.10067529, -1002594.7, 215101.33, 0.000088497945, 10.001953, 9.998938 
1.7750849e+3, 1.8574521e+2, -951020.9, -1142683.5, -64031.723, 0.038907364, 0.10512838, -931597.25, 188108.25, 0.000000028818846, 10.001637, 9.999102 
1.7750676e+3, 1.9574419e+2, -892550.2, -1065423.8, -61341.914, 0.00071657094, 0.08962952, -872995.75, 148719.67, 0.0, 10.001373, 9.999087 
1.7750506e+3, 2.0574328e+2, -832750.7, -942996.4, -65815.79, -0.018533014, 0.07462565, -802023.4, 121699.95, 0.0, 10.000927, 9.99947 
1.7750336e+3, 2.1574257e+2, -823117.56, -893795.56, -67852.09, -0.0149540035, 0.053325284, -781953.3, 43775.45, 0.0, 10.000348, 9.9994135 
1.7750171e+3, 2.2574191e+2, -776580.75, -838112.56, -55882.938, -0.002734664, 0.059805475, -743554.44, -15819.7705, 0.0, 10.000071, 9.999256 
1.7750007e+3, 2.357414e+2, -686047.7, -744317.5, -56009.367, 0.012389943, 0.0822808, -652048.7, -22308.875, 0.0, 10.000022, 9.99925 
1.7749839e+3, 2.4574056e+2, -611910.56, -600107.94, -62654.367, -0.007474345, 0.0505391, -543077.56, -11331.398, 0.0, 9.999611, 9.999764 
1.7749667e+3, 2.5573963e+2, -616211.7, -557371.3, -61112.867, -0.051365107, -0.024136214, -518965.75, -85213.82, 0.0, 9.998934, 9.999711 
1.77495e+3, 2.657392e+2, -560347.9, -488286.53, -48157.848, -0.06576162, -0.028715303, -464172.5, -128417.34, 0.0, 9.998682, 9.999634 
1.7749338e+3, 2.7573922e+2, -451706.8, -384216.72, -53125.86, -0.061054584, 0.009244068, -355024.63, -117269.016, 0.0, 9.998751, 9.999642 
1.7749177e+3, 2.8573912e+2, -357188.06, -220410.8, -33044.246, -0.05469063, 0.008837016, -212845.98, -73090.48, 0.0, 9.998437, 10.000245 
1.7749019e+3, 2.9573923e+2, -356711.53, -184849.75, -27618.744, -0.03928179, -0.0085509755, -180520.39, -138768.14, 0.0, 9.997833, 10.000107 
1.7748845e+3, 3.057384e+2, -329430.1, -128228.305, -27940.52, -0.17807497, -0.10043213, -124420.33, -124420.33, 0.0, 9.997605, 10.000273 
1.77487e+3, 3.1573942e+2, -264750.25, -17510.332, 34477.617, -0.03785658, -0.037284493, -12792.454, -12792.454, 0.0, 9.997708, 10.000982 
1.7851837e+3, 1.2576802e+2, -1302029.3, -1685639.3, -63116.867, -0.043912146, 0.009219075, -1291911.3, 415568.44, 0.06009126, 10.003798, 9.998378 
1.7851685e+3, 1.3576752e+2, -1256046.9, -1647223.9, 55777.605, -0.10216808, 0.14121994, -1248249.0, 361236.88, 0.04026372, 10.003489, 9.998114 
1.7851551e+3, 1.457654e+2, -1175366.4, -1511446.9, -20458.918, 0.14352864, 0.10267395, -1174125.5, 337381.75, 0.02151503, 10.003107, 9.998551 
1.7851366e+3, 1.5576355e+2, -1120522.9, -1435820.5, -24642.951, -0.044103146, 0.058491196, -1118608.4, 294917.16, 0.008116559, 10.002773, 9.998559 
1.7851193e+3, 1.6576238e+2, -1047020.8, -1310256.4, -46129.758, -0.09732245, 0.06911802, -1039171.06, 276366.56, 0.0017178453, 10.002417, 9.99892 
1.7851032e+3, 1.7576168e+2, -1007352.06, -1244582.5, -48113.49, 0.013241551, 0.107025184, -997965.44, 219579.36, 0.00010376792, 10.00203, 9.998884 
1.7850865e+3, 1.8576072e+2, -952988.06, -1141603.1, -57716.14, 0.04924933, 0.11495062, -936728.6, 182825.56, 0.0000000562377, 10.001618, 9.999117 
1.785069e+3, 1.9575971e+2, -918822.0, -1077275.4, -58195.234, 0.0052358736, 0.100506954, -899745.3, 121818.15, 0.0, 10.001193, 9.99909 
1.7850514e+3, 2.0575875e+2, -855367.9, -968601.3, -68981.53, -0.01595364, 0.08553607, -822743.9, 100828.48, 0.0, 10.000837, 9.999336 
1.7850342e+3, 2.1575788e+2, -804946.4, -898212.25, -74455.38, -0.010885202, 0.06358612, -763725.9, 61854.07, 0.0, 10.00053, 9.999294 
1.7850174e+3, 2.257572e+2, -758389.7, -812634.56, -52374.156, 0.0042344723, 0.0659865, -726531.8, 1053.9413, 0.0, 10.000125, 9.999404 
1.7850007e+3, 2.3575678e+2, -731798.3, -751246.0, -44650.52, 0.023243526, 0.08143587, -695825.06, -66236.09, 0.0, 9.999645, 9.999384 
1.7849834e+3, 2.4575597e+2, -654459.9, -631874.7, -58472.203, -0.0007374082, 0.050257586, -583614.6, -52019.477, 0.0, 9.999368, 9.999663 
1.7849657e+3, 2.5575495e+2, -579195.25, -550100.44, -67739.79, -0.054580744, -0.017946301, -495363.63, -61761.664, 0.0, 9.999234, 9.999617 
1.7849487e+3, 2.6575452e+2, -532223.94, -465311.84, -45130.043, -0.06513236, -0.024917495, -442589.34, -106983.94, 0.0, 9.998835, 9.999717 
1.7849323e+3, 2.7575454e+2, -520018.66, -408583.72, -35828.01, -0.046151333, 0.0023808246, -398058.56, -160452.89, 0.0, 9.998246, 9.999717 
1.7849159e+3, 2.8575447e+2, -419091.13, -250963.86, -23399.848, -0.048970763, 0.003188136, -247767.84, -108162.72, 0.0, 9.998015, 10.000238 
1.7848995e+3, 2.9575473e+2, -327961.75, -170710.03, -41131.84, -0.06064145, 0.002912303, -160601.14, -119000.734, 0.0, 9.99803, 10.00011 
1.7848824e+3, 3.0575374e+2, -332791.78, -156167.81, -37239.313, -0.15861055, -0.09878278, -148637.36, -148637.36, 0.0, 9.997696, 10.000037 
1.7848675e+3, 3.157546e+2, -324375.6, -15188.593, 63411.297, -0.04015394, -0.023584165, -2688.8762, -2688.8762, 0.0, 9.997169, 10.001257 
1.7951882e+3, 1.2578456e+2, -1295303.6, -1669290.1, -63867.035, 0.03458028, 0.05654115, -1284697.6, 422620.6, 0.063480884, 10.0037985, 9.998498 
1.7951712e+3, 1.3578309e+2, -1245996.3, -1625814.9, 42337.516, -0.18591139, 0.07604587, -1241334.3, 367997.5, 0.042666107, 10.003497, 9.998257 
1.7951575e+3, 1.4578089e+2, -1192332.0, -1548776.5, -34628.957, 0.073149666, 0.0344641, -1188999.0, 322355.0, 0.022929061, 10.003114, 9.998294 
1.7951396e+3, 1.557797e+2, -1137082.9, -1471721.3, -36682.07, -0.014503398, 0.083482504, -1133109.1, 280257.97, 0.008742895, 10.002778, 9.998311 
1.7951219e+3, 1.6577855e+2, -1051257.6, -1319890.6, -60257.266, -0.060156144, 0.11256513, -1038360.5, 277018.94, 0.0018895128, 10.0024185, 9.998855 
1.795105e+3, 1.7577742e+2, -1010418.75, -1252863.1, -62190.516, -0.009313984, 0.11126214, -995396.75, 221994.45, 0.00012002824, 10.002037, 9.998825 
1.7950879e+3, 1.8577626e+2, -953210.5, -1144102.0, -73388.55, 0.026019642, 0.10288487, -928257.9, 191144.47, 0.000000085167756, 10.001625, 9.999098 
1.7950703e+3, 1.9577524e+2, -920186.3, -1082133.4, -72907.06, 0.025346883, 0.08965569, -892200.44, 129210.89, 0.0, 10.0012, 9.999056 
1.7950526e+3, 2.0577432e+2, -867650.4, -995263.44, -79697.1, 0.014023201, 0.09299196, -829364.3, 94055.83, 0.0, 10.00084, 9.999153 
1.7950349e+3, 2.1577361e+2, -815026.25, -920358.4, -84933.37, 0.0038779664, 0.10255587, -767755.4, 57672.242, 0.0, 10.000533, 9.999143 
1.7950173e+3, 2.257728e+2, -739796.1, -774925.8, -69450.836, 0.002843753, 0.084642045, -685723.4, 41710.777, 0.0, 10.000126, 9.999663 
1.7950001e+3, 2.3577204e+2, -716056.7, -719792.9, -60548.227, 0.0059868093, 0.04104859, -657347.75, -27909.193, 0.0, 9.999647, 9.999599 
1.7949829e+3, 2.4577132e+2, -671660.44, -668186.8, -62491.293, -0.0024789865, 0.023533799, -607408.2, -75964.27, 0.0, 9.999369, 9.999414 
1.7949653e+3, 2.5577074e+2, -592749.5, -579589.75, -72614.84, -0.018384181, 0.022325205, -513257.28, -79808.77, 0.0, 9.999237, 9.9994135 
1.7949478e+3, 2.6577023e+2, -511764.4, -424608.97, -66615.45, -0.038566045, 0.0039819665, -388583.7, -53131.51, 0.0, 9.99884, 9.999995 
1.7949304e+3, 2.7576983e+2, -503767.66, -376604.0, -54729.07, -0.0638941, -0.037205227, -356293.5, -118839.06, 0.0, 9.998251, 9.999935 
1.7949137e+3, 2.857697e+2, -439898.44, -295236.47, -21830.826, -0.07328777, -0.03862549, -292013.78, -152558.8, 0.0, 9.998018, 9.999933 
1.7948975e+3, 2.9577014e+2, -343560.22, -205219.7, -41999.39, -0.067204416, 0.010360505, -193467.31, -152017.0, 0.0, 9.998036, 9.99987 
1.7948803e+3, 3.0576944e+2, -336369.22, -164483.98, -58312.797, -0.113008425, -0.046414264, -146568.45, -146568.45, 0.0, 9.997699, 9.999979 
1.794864e+3, 3.1576955e+2, -285813.34, 62578.938, 60838.363, -0.08840717, -0.039371677, 72897.305, 72897.305, 0.0, 9.997175, 10.001789 
1.8051924e+3, 1.2580122e+2, -1253864.5, -1669414.4, -42385.184, 0.050861064, 0.087631054, -1249585.4, 457570.25, 0.067016125, 10.004212, 9.998298 
1.8051745e+3, 1.3579915e+2, -1216276.9, -1624605.3, 26039.598, -0.20133132, 0.06257626, -1214623.0, 394551.88, 0.04517134, 10.003781, 9.998127 
1.8051606e+3, 1.4579687e+2, -1163556.3, -1525703.1, -47825.63, 0.07427901, 0.013930939, -1157346.9, 353850.8, 0.024407428, 10.003285, 9.998368 
1.8051425e+3, 1.5579605e+2, -1124700.1, -1459802.4, -26204.172, -0.0056829536, 0.09279454, -1122663.4, 290543.38, 0.009402774, 10.002843, 9.998361 
1.8051246e+3, 1.6579486e+2, -1058043.0, -1338403.6, -42111.832, -0.052742556, 0.12447245, -1051854.3, 263365.34, 0.0020725057, 10.002441, 9.998714 
1.8051071e+3, 1.7579341e+2, -1014669.56, -1268908.9, -50860.137, -0.011763081, 0.105644174, -1004872.56, 212362.17, 0.00013754408, 10.002071, 9.998697 
1.8050894e+3, 1.8579215e+2, -936944.1, -1133884.3, -62981.09, 0.016223231, 0.0917025, -918525.44, 200721.45, 0.00000010953618, 10.001729, 9.999117 
1.8050714e+3, 1.9579118e+2, -889640.06, -1066244.9, -60488.29, 0.010506091, 0.08200046, -870909.06, 150346.03, 0.0, 10.001407, 9.9990635 
1.8050535e+3, 2.057903e+2, -852047.75, -995867.06, -62525.66, 0.008158481, 0.092473075, -828666.0, 94597.66, 0.0, 10.000984, 9.999078 
1.8050355e+3, 2.157896e+2, -826932.25, -934057.5, -60797.766, 0.016581079, 0.11174489, -799468.2, 25803.121, 0.0, 10.000489, 9.999067 
1.8050176e+3, 2.257887e+2, -747527.06, -788629.9, -56013.418, 0.010235662, 0.09295478, -708413.9, 18864.996, 0.0, 10.000118, 9.999573 
1.8049997e+3, 2.3578776e+2, -695133.94, -719450.9, -73428.336, -0.0094840685, 0.041092854, -632864.25, -3579.2314, 0.0, 9.999834, 9.999512 
1.8049821e+3, 2.4578702e+2, -666441.4, -662423.44, -73022.97, -0.0150184035, 0.023939446, -591381.8, -60091.15, 0.0, 9.999391, 9.999444 
1.8049645e+3, 2.5578654e+2, -650430.7, -604139.06, -63295.098, -0.00962705, 0.029152036, -559890.5, -126596.14, 0.0, 9.998829, 9.99944 
1.8049467e+3, 2.6578608e+2, -555604.4, -448324.78, -61429.043, -0.028144088, 0.015829684, -420412.4, -85114.836, 0.0, 9.998551, 9.999971 
1.8049288e+3, 2.757857e+2, -473585.6, -365532.7, -72452.96, -0.06336186, -0.02237021, -329180.56, -91880.81, 0.0, 9.998473, 9.999906 
1.8049116e+3, 2.857854e+2, -434217.84, -295052.6, -34867.234, -0.07806159, -0.03508239, -286805.5, -147503.83, 0.0, 9.998068, 9.99991 
1.8048951e+3, 2.9578564e+2, -430815.53, -246434.73, -34843.527, -0.07961315, -0.0067296037, -240069.86, -198770.55, 0.0, 9.997436, 9.999875 
1.8048783e+3, 3.0578542e+2, -423558.44, -220162.77, -43151.133, -0.06469036, -0.007537685, -211386.77, -211386.77, 0.0, 9.997162, 9.999854 
1.804861e+3, 3.1578514e+2, -279145.16, 75487.27, 70031.91, -0.12149952, -0.027961038, 88816.04, 88816.04, 0.0, 9.997178, 10.001878 
1.8151961e+3, 1.2581803e+2, -1288088.3, -1741493.4, -43958.13, 0.0046215584, 0.10453263, -1283865.8, 423125.6, 0.07070999, 10.00422, 9.997784 
1.8151788e+3, 1.358157e+2, -1243508.9, -1681525.9, 9840.172, -0.15598886, 0.09651674, -1243288.0, 365727.1, 0.04779401, 10.003778, 9.997738 
1.8151645e+3, 1.4581332e+2, -1139301.6, -1473197.1, -64757.926, 0.1382029, 0.03770257, -1127182.0, 383856.3, 0.025961049, 10.003281, 9.998738 
1.8151453e+3, 1.5581258e+2, -1101638.9, -1412952.5, -42091.875, -0.017448388, 0.08709332, -1096048.1, 316996.72, 0.010102001, 10.002849, 9.99868 
1.8151267e+3, 1.658113e+2, -1072099.4, -1370175.8, -56008.89, -0.07453503, 0.106762536, -1061922.6, 253135.33, 0.0022691044, 10.00245, 9.998494 
1.8151094e+3, 1.7580965e+2, -1027362.25, -1297588.1, -63774.77, 0.0041736886, 0.09102323, -1013067.25, 204008.4, 0.00015675182, 10.002079, 9.998498 
1.8150912e+3, 1.8580835e+2, -933256.25, -1127684.6, -74419.95, 0.017945854, 0.081695706, -908041.1, 211047.02, 0.00000012908751, 10.001733, 9.999159 
1.8150724e+3, 1.9580749e+2, -885861.06, -1060206.3, -72117.414, -0.039055012, 0.0765505, -859896.6, 161198.61, 0.0, 10.001411, 9.999104 
1.815054e+3, 2.058066e+2, -849708.6, -992578.25, -80441.56, -0.033921752, 0.08298861, -813561.94, 109541.55, 0.0, 10.000989, 9.9991 
1.815036e+3, 2.158058e+2, -827159.4, -936380.5, -77607.94, 0.025524456, 0.09172881, -786873.6, 38237.836, 0.0, 10.000495, 9.999051 
1.8150178e+3, 2.2580484e+2, -778040.6, -852726.44, -65724.33, 0.024693867, 0.09217267, -739791.3, -12670.809, 0.0, 10.000119, 9.999133 
1.8149994e+3, 2.3580389e+2, -721263.4, -775069.2, -83350.38, -0.023504544, 0.08177609, -660581.75, -31452.805, 0.0, 9.999837, 9.99913 
1.8149813e+3, 2.4580298e+2, -645068.2, -619336.3, -93197.29, -0.038981523, 0.049647607, -538121.06, -6985.0283, 0.0, 9.999393, 9.999739 
1.814963e+3, 2.5580224e+2, -633072.5, -569479.75, -81770.164, -0.030142589, 0.000055791734, -513541.5, -80400.94, 0.0, 9.998832, 9.999679 
1.8149452e+3, 2.6580194e+2, -578550.44, -496508.2, -63396.48, -0.035205316, 0.010161391, -462018.75, -126876.22, 0.0, 9.998552, 9.999641 
1.8149273e+3, 2.7580205e+2, -492901.9, -406347.4, -75705.445, -0.04806486, 0.05114884, -362422.38, -125280.3, 0.0, 9.998474, 9.999625 
1.8149099e+3, 2.8580153e+2, -414483.84, -256315.25, -58337.527, -0.067072645, 0.015932908, -237126.5, -97980.6, 0.0, 9.998075, 10.000175 
1.8148923e+3, 2.9580104e+2, -411296.25, -209840.27, -56454.152, -0.09717638, -0.053596098, -195098.78, -153950.02, 0.0, 9.997449, 10.000122 
1.814876e+3, 3.0580154e+2, -437632.72, -250226.67, -42773.492, -0.010180037, 0.014298244, -240925.67, -240925.67, 0.0, 9.997167, 9.999645 
1.8148577e+3, 3.1580094e+2, -308308.6, 15470.969, 54494.99, -0.14962839, -0.012696587, 24396.893, 24396.893, 0.0, 9.997174, 10.001468 
1.8252006e+3, 1.258349e+2, -1249740.4, -1714682.1, -29734.543, 0.015383716, 0.09900138, -1247846.5, 458980.38, 0.07457228, 10.004494, 9.997834 
1.8251826e+3, 1.3583292e+2, -1252970.3, -1677673.0, 42638.09, -0.15043859, 0.11996683, -1248732.0, 360114.84, 0.050543234, 10.003683, 9.997811 
1.825168e+3, 1.4583054e+2, -1166725.6, -1493757.9, -22438.766, 0.15310907, 0.061681196, -1165193.1, 345676.9, 0.02759675, 10.003127, 9.998666 
1.8251482e+3, 1.558295e+2, -1101683.6, -1420179.6, -30070.334, -0.011391172, 0.08812482, -1098869.5, 314010.25, 0.010844452, 10.002885, 9.998611 
1.8251291e+3, 1.6582814e+2, -1048297.3, -1354829.1, -47641.785, -0.07626717, 0.1013106, -1041063.44, 273830.03, 0.0024812517, 10.002601, 9.998525 
1.8251115e+3, 1.7582658e+2, -998363.25, -1281485.3, -38697.055, -0.004990442, 0.09200343, -993169.44, 223740.47, 0.00017806876, 10.002272, 9.998514 
1.8250929e+3, 1.8582532e+2, -924293.94, -1132789.5, -49612.484, 0.010162007, 0.088961355, -913090.44, 205831.83, 0.00000015151502, 10.001838, 9.999072 
1.8250737e+3, 1.9582441e+2, -904092.8, -1078756.4, -57660.59, -0.03980405, 0.090299346, -886774.75, 134155.11, 0.0, 10.001331, 9.999014 
1.8250549e+3, 2.0582338e+2, -847872.5, -1001392.06, -71238.05, -0.037730426, 0.091248624, -819909.2, 103030.25, 0.0, 10.001046, 9.99901 
1.8250366e+3, 2.1582235e+2, -772839.5, -920472.3, -77855.6, 0.011572357, 0.0859875, -739369.56, 85579.66, 0.0, 10.000915, 9.998957 
1.825018e+3, 2.258213e+2, -744228.4, -851805.3, -63715.54, 0.013427719, 0.0883148, -714633.0, 12326.513, 0.0, 10.000419, 9.998995 
1.8249992e+3, 2.3582034e+2, -756897.75, -806072.5, -59257.996, -0.023087649, 0.090970926, -717328.7, -88359.91, 0.0, 9.999656, 9.999003 
1.8249805e+3, 2.4581942e+2, -659690.5, -628005.06, -65570.36, -0.038253833, 0.06374697, -576390.7, -45414.383, 0.0, 9.999302, 9.9997225 
1.824962e+3, 2.5581864e+2, -575489.94, -544609.94, -78066.37, -0.036906518, 0.012527612, -480471.34, -47490.41, 0.0, 9.999241, 9.999652 
1.8249437e+3, 2.658183e+2, -558447.9, -493102.28, -62847.176, -0.037561085, 0.023477789, -454942.3, -119958.96, 0.0, 9.998718, 9.999584 
1.8249257e+3, 2.7581835e+2, -586944.44, -456989.1, -55209.06, -0.037756268, 0.068769366, -436701.7, -199718.34, 0.0, 9.997854, 9.999575 
1.8249077e+3, 2.8581783e+2, -492693.3, -294250.16, -33874.887, -0.063466035, 0.031663943, -288626.97, -149639.23, 0.0, 9.9975395, 10.000172 
1.8248898e+3, 2.958172e+2, -385827.78, -194347.63, -53453.047, -0.11312477, -0.050028536, -180436.48, -139444.67, 0.0, 9.99761, 10.000152 
1.8248737e+3, 3.058181e+2, -406137.66, -208890.86, -29059.172, 0.029109865, 0.043458983, -204698.83, -204698.83, 0.0, 9.997272, 9.999877 
1.8248543e+3, 3.158174e+2, -389953.06, -43263.71, 70665.625, -0.17947984, -0.015081376, -29413.281, -29413.281, 0.0, 9.996697, 10.001294 
1.8352056e+3, 1.2585182e+2, -1217239.1, -1640166.4, -40142.05, 0.067650326, 0.072335884, -1213462.8, 493199.16, 0.07861015, 10.004482, 9.998389 
1.8351859e+3, 1.3585085e+2, -1220268.9, -1605963.6, 12732.977, -0.18147297, 0.13478301, -1219849.0, 388821.2, 0.053423177, 10.003692, 9.9983 
1.8351708e+3, 1.4584853e+2, -1198927.8, -1564624.9, -33254.586, 0.12254061, 0.08753505, -1195928.4, 314764.94, 0.029318087, 10.00314, 9.998173 
1.8351513e+3, 1.558468e+2, -1130632.1, -1482667.0, -38470.668, 0.009479685, 0.09484121, -1126477.1, 286234.56, 0.011632793, 10.002892, 9.998181 
1.835132e+3, 1.6584536e+2, -1030274.8, -1318412.8, -59211.066, -0.061761234, 0.10676645, -1018581.75, 296144.5, 0.0027105468, 10.002604, 9.998775 
1.8351133e+3, 1.7584416e+2, -982423.8, -1250627.3, -51054.453, -0.039247308, 0.1072523, -973034.0, 243703.94, 0.00020187897, 10.002279, 9.998724 
1.8350945e+3, 1.8584296e+2, -938605.0, -1165008.1, -68482.45, -0.007853173, 0.11301312, -919502.2, 199247.39, 0.00000018976193, 10.001846, 9.998848 
1.8350755e+3, 1.9584194e+2, -918176.6, -1111091.8, -74632.89, 0.0059585604, 0.123196065, -892674.6, 128084.85, 0.0, 10.001343, 9.998788 
1.8350562e+3, 2.058406e+2, -861167.9, -1030879.5, -75215.17, -0.00536747, 0.117133595, -832631.3, 90140.68, 0.0, 10.001052, 9.998807 
1.8350372e+3, 2.1583919e+2, -784299.7, -945838.0, -83264.734, -0.025574874, 0.09328597, -749066.0, 75719.21, 0.0, 10.000918, 9.998782 
1.835018e+3, 2.2583796e+2, -733489.44, -830228.25, -91532.35, -0.023942316, 0.079522066, -678332.2, 48464.383, 0.0, 10.000421, 9.999143 
1.8349989e+3, 2.3583704e+2, -748803.4, -790493.9, -84450.055, -0.009782027, 0.068440475, -682663.94, -53858.684, 0.0, 9.999658, 9.99911 
1.83498e+3, 2.4583621e+2, -682794.94, -676337.1, -66659.15, -0.014107836, 0.06674117, -612828.75, -82016.62, 0.0, 9.999302, 9.999392 
1.8349613e+3, 2.5583562e+2, -594822.25, -585979.94, -81181.53, -0.03134781, 0.067800544, -509099.25, -76282.984, 0.0, 9.999244, 9.999368 
1.8349424e+3, 2.6583505e+2, -543285.56, -463425.8, -94750.734, -0.03683766, 0.055197664, -400534.97, -65714.055, 0.0, 9.998723, 9.999787 
1.8349236e+3, 2.758346e+2, -575135.6, -434263.72, -83841.57, -0.03306076, 0.027192144, -395197.94, -158373.27, 0.0, 9.997858, 9.99973 
1.8349051e+3, 2.8583416e+2, -511226.6, -333702.94, -30466.398, -0.06770188, 0.009403635, -328619.88, -189791.47, 0.0, 9.997543, 9.9999 
1.8348871e+3, 2.9583403e+2, -398578.5, -222215.63, -52853.54, -0.13371174, 0.005769625, -207589.17, -166759.8, 0.0, 9.997615, 9.999958 
1.834871e+3, 3.0583507e+2, -358173.72, -111059.65, -50764.574, 0.047819592, 0.08429781, -101037.56, -101037.56, 0.0, 9.997276, 10.000548 
1.8348509e+3, 3.1583476e+2, -390411.66, -48431.145, 3610.5168, -0.19365369, 0.0031732197, -48393.03, -48393.03, 0.0, 9.996712, 10.001254 
1.84521e+3, 1.2586963e+2, -1225734.1, -1645768.4, 12802.315, 0.071455255, 0.04964975, -1225344.3, 481142.38, 0.08283136, 10.004448, 9.998365 
1.8451896e+3, 1.358688e+2, -1192268.6, -1594426.0, 6451.5576, -0.1881357, 0.12885119, -1192165.1, 416328.75, 0.056441274, 10.003919, 9.998273 
1.845174e+3, 1.4586654e+2, -1162272.8, -1556154.8, -27592.557, 0.11299267, 0.093785554, -1160349.3, 350167.6, 0.031130945, 10.003451, 9.998078 
1.8451542e+3, 1.5586473e+2, -1104248.3, -1480228.0, -5581.118, 0.0012543472, 0.10094475, -1104165.5, 308371.03, 0.012470454, 10.003124, 9.998084 
1.8451345e+3, 1.6586323e+2, -1013930.9, -1316166.5, -30236.535, -0.0649168, 0.11541681, -1010935.56, 303616.16, 0.0029586433, 10.002744, 9.998721 
1.8451156e+3, 1.7586204e+2, -981634.1, -1257653.0, -44602.61, -0.039703853, 0.122198485, -974605.7, 241957.63, 0.00022870715, 10.002319, 9.998654 
1.8450965e+3, 1.8586071e+2, -919260.1, -1175345.0, -67466.64, -0.0066330745, 0.12843525, -902573.06, 216003.28, 0.00000025167606, 10.002067, 9.99867 
1.8450771e+3, 1.9585945e+2, -843674.9, -1093754.5, -71699.03, 0.009769847, 0.13448383, -824576.9, 196011.89, 0.0, 10.001937, 9.998619 
1.8450575e+3, 2.05858e+2, -803425.56, -1005322.6, -67367.52, -0.004917793, 0.1254005, -783011.06, 139591.31, 0.0, 10.00146, 9.998784 
1.8450378e+3, 2.1585655e+2, -813445.9, -962893.56, -63048.023, -0.033827424, 0.0996642, -790401.06, 34214.523, 0.0, 10.000734, 9.998753 
1.8450183e+3, 2.258553e+2, -754277.44, -846402.7, -76822.99, -0.027191492, 0.08722255, -710765.8, 15861.602, 0.0, 10.000306, 9.999085 
1.8449989e+3, 2.3585434e+2, -690567.44, -768584.8, -85739.57, 0.0024743315, 0.080074064, -635379.75, -6742.9263, 0.0, 10.000087, 9.999053 
1.8449795e+3, 2.4585353e+2, -651289.4, -661635.44, -58268.508, -0.005885442, 0.08278523, -597964.75, -67321.055, 0.0, 9.999522, 9.999386 
1.8449602e+3, 2.5585297e+2, -674321.6, -625139.3, -49445.4, -0.041077062, 0.08777808, -594507.56, -161860.25, 0.0, 9.998706, 9.999356 
1.844941e+3, 2.6585227e+2, -603630.9, -501399.03, -65594.01, -0.043645054, 0.06688134, -469356.0, -134702.73, 0.0, 9.99835, 9.999704 
1.8449217e+3, 2.7585152e+2, -512372.5, -412330.72, -76228.53, -0.022384908, 0.022808103, -371176.63, -134517.05, 0.0, 9.998327, 9.999654 
1.8449028e+3, 2.8585127e+2, -482607.16, -311436.75, -18346.682, -0.061904624, 0.019037353, -309492.38, -170830.38, 0.0, 9.9977045, 9.999974 
1.8448842e+3, 2.9585156e+2, -537245.1, -278984.8, -16220.927, -0.14488472, 0.047407113, -277969.97, -237310.83, 0.0, 9.996623, 10.000044 
1.8448678e+3, 3.0585226e+2, -461393.6, -136001.88, -4445.7173, 0.040140174, 0.07813583, -135941.16, -135941.16, 0.0, 9.996464, 10.000767 
1.8448478e+3, 3.1585225e+2, -350208.16, -36208.563, -33377.27, -0.19299996, 0.0094421925, -32699.86, -32699.86, 0.0, 9.99702, 10.001188 
1.8552141e+3, 1.258883e+2, -1261623.1, -1720565.6, 12429.301, 0.025959319, 0.033213075, -1261286.8, 445014.56, 0.087245464, 10.004462, 9.997808 
1.8551937e+3, 1.358868e+2, -1226188.9, -1666000.9, -13193.348, -0.17593616, 0.10120043, -1225793.5, 382524.38, 0.059609566, 10.003919, 9.997777 
1.8551774e+3, 1.4588459e+2, -1145898.6, -1519596.4, -40195.9, 0.11820976, 0.079079755, -1141624.0, 368716.72, 0.033044614, 10.0034485, 9.998333 
1.8551569e+3, 1.5588322e+2, -1089823.8, -1451720.9, -17840.83, -0.035199884, 0.10718267, -1088946.3, 323408.3, 0.01336274, 10.003133, 9.998277 
1.855137e+3, 1.6588171e+2, -1036382.06, -1366214.1, -46502.23, -0.08511641, 0.12974027, -1029951.2, 284419.03, 0.0032280337, 10.002756, 9.998373 
1.8551181e+3, 1.7588018e+2, -1003017.4, -1305214.5, -59146.18, -0.00847292, 0.13701251, -991853.7, 224532.53, 0.000259364, 10.00233, 9.998324 
1.8550988e+3, 1.8587853e+2, -928866.7, -1197169.4, -71612.15, 0.011398963, 0.13454367, -910949.4, 207453.42, 0.0000003514084, 10.002072, 9.998518 
1.8550788e+3, 1.9587696e+2, -851698.6, -1112037.1, -77296.04, -0.028198654, 0.12397759, -830478.6, 189939.44, 0.0, 10.001942, 9.998492 
1.8550585e+3, 2.0587553e+2, -792668.25, -984234.06, -94052.41, -0.03626865, 0.11621521, -754211.75, 168219.31, 0.0, 10.001464, 9.998929 
1.8550387e+3, 2.1587437e+2, -805282.3, -947507.6, -87478.3, -0.014812778, 0.10524991, -763658.7, 60782.363, 0.0, 10.000738, 9.9988575 
1.8550189e+3, 2.258732e+2, -773140.44, -886212.06, -83959.45, 0.0021327343, 0.1114379, -728456.25, -2003.4491, 0.0, 10.000307, 9.998814 
1.854999e+3, 2.3587218e+2, -705706.2, -801456.75, -94302.21, 0.0130742295, 0.12529485, -647822.56, -19358.23, 0.0, 10.000091, 9.998826 
1.854979e+3, 2.4587126e+2, -629379.25, -617050.56, -88303.51, -0.014643347, 0.11046025, -534696.5, -4224.6416, 0.0, 9.999524, 9.999692 
1.8549587e+3, 2.5587058e+2, -656509.3, -589079.44, -76644.25, -0.068156645, 0.071497194, -539062.44, -106587.48, 0.0, 9.998707, 9.999604 
1.854939e+3, 2.6586986e+2, -630154.5, -557080.3, -65449.332, -0.058575593, 0.058239266, -518660.25, -184178.89, 0.0, 9.998351, 9.999323 
1.8549202e+3, 2.7586916e+2, -533256.7, -457960.75, -78596.414, -0.007219564, 0.057113856, -408460.75, -171971.83, 0.0, 9.998335, 9.999338 
1.8549006e+3, 2.8586906e+2, -452567.9, -251158.8, -59341.797, -0.04897064, 0.061323904, -234975.14, -96485.69, 0.0, 9.997711, 10.000386 
1.8548808e+3, 2.9586956e+2, -512671.38, -228716.44, -53027.008, -0.148831, 0.07256436, -219137.11, -178654.66, 0.0, 9.996623, 10.000391 
1.8548639e+3, 3.058695e+2, -477301.94, -170254.03, 17591.422, 0.005565321, 0.021069996, -169249.47, -169249.47, 0.0, 9.996469, 10.00053 
1.8548453e+3, 3.1587046e+2, -357795.25, -55408.91, -66394.21, -0.14898176, 0.073250316, -41473.14, -41473.14, 0.0, 9.997034, 10.00105 
1.8652186e+3, 1.259073e+2, -1221487.3, -1722325.3, 16164.197, 0.017437786, 0.04042046, -1220966.1, 485148.75, 0.09186013, 10.004889, 9.99759 
1.8651976e+3, 1.3590553e+2, -1219130.0, -1687311.0, -9905.68, -0.17323057, 0.10613915, -1218920.5, 389214.38, 0.06293764, 10.004092, 9.997546 
1.8651807e+3, 1.4590314e+2, -1127785.6, -1512412.4, -24072.023, 0.111933835, 0.079117425, -1126284.9, 383874.5, 0.035067152, 10.003595, 9.99831 
1.8651602e+3, 1.5590173e+2, -1058285.0, -1440790.3, -21122.121, -0.036671378, 0.10499631, -1057122.1, 355051.0, 0.0143153975, 10.003377, 9.998233 
1.86514e+3, 1.6590011e+2, -999589.75, -1366068.1, -54165.37, -0.0821858, 0.12840845, -991751.75, 322437.94, 0.0035219262, 10.003089, 9.998212 
1.8651207e+3, 1.7589843e+2, -951977.3, -1297137.9, -54898.863, -0.007080875, 0.13750921, -943455.9, 272751.72, 0.00029482722, 10.002754, 9.998175 
1.865101e+3, 1.8589668e+2, -895318.94, -1181520.5, -54178.367, 0.00805395, 0.13250251, -885406.2, 232818.89, 0.00000050835786, 10.002307, 9.998511 
1.8650804e+3, 1.9589506e+2, -877021.7, -1125516.8, -50846.953, -0.03720707, 0.11744359, -867019.94, 153220.55, 0.0, 10.001775, 9.998479 
1.8650599e+3, 2.0589364e+2, -816227.9, -998888.2, -78896.84, -0.04024623, 0.11130214, -786868.7, 135385.02, 0.0, 10.001318, 9.998897 
1.8650396e+3, 2.1589251e+2, -782015.9, -939540.8, -86031.375, -0.0068180594, 0.10649881, -744138.2, 80125.8, 0.0, 10.000915, 9.998825 
1.8650194e+3, 2.258914e+2, -756307.94, -876524.6, -69405.17, 0.010754157, 0.12181876, -724600.75, 1674.4309, 0.0, 10.000419, 9.998825 
1.8649991e+3, 2.3589051e+2, -740259.8, -817427.94, -59683.97, 0.013656753, 0.1469728, -707774.1, -79488.63, 0.0, 9.999853, 9.99883 
1.8649782e+3, 2.4588951e+2, -643567.5, -628411.25, -65771.28, -0.022056667, 0.12629549, -569782.94, -39489.0, 0.0, 9.99945, 9.999648 
1.8649572e+3, 2.5588858e+2, -594313.75, -562426.4, -80738.664, -0.081578135, 0.06915762, -496072.22, -63772.707, 0.0, 9.999151, 9.999572 
1.8649375e+3, 2.6588795e+2, -577180.75, -514075.56, -49358.84, -0.06778881, 0.057700213, -487046.06, -152741.25, 0.0, 9.998642, 9.999476 
1.8649183e+3, 2.7588758e+2, -576387.4, -462728.88, -24174.38, -0.008275468, 0.07324597, -457800.8, -221492.14, 0.0, 9.997974, 9.999477 
1.8648984e+3, 2.858875e+2, -495534.38, -280889.66, -23756.725, -0.04130337, 0.07895794, -278291.72, -139982.92, 0.0, 9.997458, 10.000302 
1.8648778e+3, 2.9588783e+2, -455612.6, -210753.4, -52808.043, -0.1217071, 0.07724287, -199849.98, -159545.7, 0.0, 9.997059, 10.000303 
1.86486e+3, 3.0588728e+2, -461752.78, -160841.6, 38255.414, -0.034443375, -0.013775436, -156054.27, -156054.27, 0.0, 9.996569, 10.000545 
1.864842e+3, 3.158887e+2, -491214.66, -77150.47, -64590.332, -0.12389874, 0.078976594, -67308.87, -67308.87, 0.0, 9.995937, 10.001427 
1.8752238e+3, 1.259266e+2, -1222069.1, -1714439.0, 5802.837, 0.033883896, 0.06598617, -1222000.8, 483926.47, 0.09668089, 10.004872, 9.997653 
1.8752016e+3, 1.3592497e+2, -1219549.8, -1688322.3, -38259.32, -0.18019891, 0.14401834, -1216447.6, 391497.47, 0.06643121, 10.004105, 9.997536 
1.8751842e+3, 1.4592224e+2, -1145113.0, -1552587.1, -32681.727, 0.093806565, 0.09791044, -1142508.5, 367464.28, 0.03720408, 10.0036125, 9.998027 
1.8751638e+3, 1.5592024e+2, -1075931.9, -1478145.6, -29092.492, -0.006871995, 0.093533054, -1073838.5, 338153.5, 0.015333298, 10.003379, 9.997977 
1.8751433e+3, 1.6591842e+2, -1000295.3, -1367395.4, -66502.234, -0.05980318, 0.10908662, -988619.44, 325390.94, 0.003843571, 10.003086, 9.998206 
1.8751232e+3, 1.759168e+2, -951150.25, -1297031.5, -67334.234, -0.03545528, 0.1242739, -938504.4, 277523.22, 0.00033613745, 10.002759, 9.998174 
1.875103e+3, 1.8591516e+2, -885481.94, -1162807.9, -73653.27, -0.017047457, 0.12468056, -867134.6, 250908.86, 0.000000733184, 10.002312, 9.998639 
1.8750824e+3, 1.9591373e+2, -869628.8, -1111892.1, -69612.625, -0.01897587, 0.11485683, -851050.75, 169005.81, 0.0, 10.0017805, 9.998571 
1.8750615e+3, 2.0591223e+2, -831056.2, -1030892.25, -93225.51, -0.018621419, 0.109976724, -794319.1, 127751.88, 0.0, 10.001321, 9.998677 
1.8750404e+3, 2.1591085e+2, -793782.4, -965511.25, -100282.58, -0.010336674, 0.10297169, -747626.75, 76458.305, 0.0, 10.000919, 9.998647 
1.8750195e+3, 2.2590983e+2, -735597.1, -834449.75, -89701.516, -0.0020886175, 0.118053906, -682606.06, 43489.168, 0.0, 10.000421, 9.999114 
1.8749988e+3, 2.3590924e+2, -723847.0, -784498.0, -78522.445, 0.0026096632, 0.14487225, -669997.6, -41896.496, 0.0, 9.999856, 9.999056 
1.8749776e+3, 2.4590817e+2, -671901.6, -688351.1, -75791.445, -0.028854687, 0.12985447, -603889.94, -73779.086, 0.0, 9.999452, 9.999237 
1.8749565e+3, 2.5590694e+2, -615640.1, -609365.3, -91830.08, -0.082487136, 0.08042304, -520619.06, -88497.18, 0.0, 9.999161, 9.999247 
1.874936e+3, 2.6590645e+2, -527846.94, -413589.6, -74202.96, -0.07287778, 0.06472092, -377071.25, -42946.668, 0.0, 9.998649, 10.000164 
1.874916e+3, 2.7590668e+2, -534754.7, -377827.22, -47757.676, -0.027348142, 0.070009336, -364435.88, -128316.13, 0.0, 9.997978, 10.000059 
1.8748957e+3, 2.859065e+2, -537076.5, -368459.66, -38460.617, -0.03939596, 0.07151303, -360101.3, -221980.19, 0.0, 9.997462, 9.999701 
1.8748754e+3, 2.9590613e+2, -492060.7, -289102.25, -66712.67, -0.064539574, 0.06277384, -269137.6, -229011.89, 0.0, 9.997068, 9.999763 
1.874856e+3, 3.059055e+2, -441366.94, -121862.945, 15107.192, -0.08327364, -0.029855913, -121150.22, -121150.22, 0.0, 9.996579, 10.00081 
1.8748382e+3, 3.1590697e+2, -424126.8, 59063.094, -104176.24, -0.09926071, 0.043715633, 80566.62, 80566.62, 0.0, 9.995948, 10.002358 
1.8852283e+3, 1.259459e+2, -1274705.1, -1732615.8, 11273.677, 0.028141119, 0.095016025, -1274427.6, 431312.22, 0.10171663, 10.004456, 9.997728 
1.8852063e+3, 1.3594413e+2, -1160465.9, -1651680.9, -49844.703, -0.15575314, 0.15181306, -1155459.0, 452299.25, 0.07009577, 10.00453, 9.997582 
1.885188e+3, 1.4594126e+2, -1079698.3, -1527227.6, -38483.473, 0.09307709, 0.094249465, -1076413.1, 433373.66, 0.039459232, 10.004123, 9.997955 
1.885167e+3, 1.5593927e+2, -1075547.3, -1485570.5, -21186.791, -0.011518446, 0.09885658, -1074455.4, 337350.75, 0.016419558, 10.003419, 9.997906 
1.8851463e+3, 1.659374e+2, -1015372.94, -1372969.5, -45790.55, -0.058548596, 0.11166823, -1009602.56, 304222.25, 0.004195435, 10.002977, 9.998219 
1.885126e+3, 1.7593569e+2, -957400.94, -1298919.3, -46912.477, -0.030384306, 0.11732153, -951074.0, 264768.38, 0.00038428378, 10.002713, 9.998182 
1.8851052e+3, 1.8593407e+2, -886215.06, -1159267.0, -64830.152, -0.014811195, 0.11802021, -871604.4, 246253.67, 0.0000010250507, 10.002292, 9.998672 
1.885084e+3, 1.9593273e+2, -869629.7, -1109152.6, -68314.51, -0.02150727, 0.11512684, -851515.56, 168354.88, 0.0, 10.00177, 9.998594 
1.8850628e+3, 2.0593128e+2, -830078.2, -1032746.75, -81564.945, -0.019492708, 0.114474855, -801329.9, 120554.78, 0.0, 10.001341, 9.998653 
1.8850414e+3, 2.1592988e+2, -787638.6, -964613.94, -75556.234, -0.006517592, 0.10986028, -759769.9, 64128.99, 0.0, 10.000972, 9.998626 
1.8850198e+3, 2.2592883e+2, -711047.75, -817683.06, -73451.37, -0.011047728, 0.11952517, -673602.6, 52306.605, 0.0, 10.00057, 9.999156 
1.8849984e+3, 2.3592816e+2, -680176.0, -759583.06, -81495.84, -0.030340252, 0.13593921, -629226.7, -1311.324, 0.0, 10.000142, 9.999087 
1.884977e+3, 2.4592714e+2, -664481.0, -690294.56, -71098.74, -0.042325456, 0.12671697, -605127.0, -75202.07, 0.0, 9.99953, 9.999185 
1.8849558e+3, 2.55926e+2, -672925.6, -641146.94, -60747.434, -0.04610169, 0.093626775, -594245.2, -162309.55, 0.0, 9.998788, 9.999207 
1.8849348e+3, 2.6592556e+2, -574265.4, -419258.4, -55740.01, -0.047776975, 0.07621727, -401296.0, -67358.125, 0.0, 9.9982605, 10.000311 
1.8849137e+3, 2.7592584e+2, -540461.56, -364979.25, -70859.75, -0.058125325, 0.06992429, -339939.13, -104007.02, 0.0, 9.997875, 10.000196 
1.884893e+3, 2.859257e+2, -538355.06, -363955.28, -46192.574, -0.0565911, 0.066911645, -352476.03, -214543.02, 0.0, 9.997435, 9.999743 
1.8848729e+3, 2.959253e+2, -504324.88, -293334.0, -25176.096, -0.008734932, 0.051010612, -290371.53, -250433.28, 0.0, 9.996981, 9.999773 
1.8848522e+3, 3.0592504e+2, -471839.3, -139061.81, 50248.742, -0.11944198, 0.0026182584, -131639.88, -131639.88, 0.0, 9.996383, 10.000785 
1.8848342e+3, 3.159262e+2, -468693.66, 67451.93, -86228.164, -0.07312719, 0.040541787, 80978.7, 80978.7, 0.0, 9.995518, 10.002621 
1.8952323e+3, 1.2596528e+2, -1270673.9, -1722142.6, 27671.275, -0.0050343582, 0.13247837, -1268984.1, 436567.8, 0.10697774, 10.004474, 9.997793 
1.8952113e+3, 1.35963e+2, -1158697.5, -1640112.9, -49594.133, -0.10384137, 0.12936658, -1153641.5, 453932.38, 0.073935226, 10.004514, 9.997671 
1.8951924e+3, 1.4596015e+2, -1075080.0, -1512144.9, -64022.984, 0.10568745, 0.065700665, -1065894.8, 443706.97, 0.04183367, 10.0041065, 9.99807 
1.89517e+3, 1.559588e+2, -1068479.6, -1472144.0, -45209.777, -0.050476804, 0.12133598, -1063478.1, 348137.3, 0.017575108, 10.003427, 9.997996 
1.895149e+3, 1.6595703e+2, -1012530.75, -1369867.0, -55124.1, -0.0794544, 0.13953862, -1004220.3, 309412.6, 0.004578995, 10.002989, 9.998237 
1.8951291e+3, 1.7595504e+2, -956273.8, -1297693.1, -56910.055, 0.005769283, 0.11557262, -947037.5, 268614.97, 0.00044013254, 10.002715, 9.998191 
1.8951078e+3, 1.8595333e+2, -891070.9, -1169824.0, -83913.266, 0.012406114, 0.11008687, -867759.8, 249909.61, 0.0000013628122, 10.002292, 9.9986 
1.8950856e+3, 1.9595203e+2, -872584.6, -1116840.0, -86259.01, -0.044877533, 0.11804191, -845193.8, 174488.69, 0.0, 10.001775, 9.998541 
1.8950638e+3, 2.059507e+2, -818610.4, -1010324.2, -94416.29, -0.0432621, 0.1254242, -779920.0, 141775.16, 0.0, 10.001344, 9.998807 
1.8950425e+3, 2.1594954e+2, -779266.4, -948159.25, -88050.27, 0.0026930275, 0.12665074, -741712.6, 81993.5, 0.0, 10.000974, 9.99874 
1.8950205e+3, 2.259483e+2, -725017.0, -847605.44, -88595.72, -0.01758309, 0.12551364, -678579.2, 47138.875, 0.0, 10.000571, 9.998951 
1.894998e+3, 2.3594722e+2, -690980.8, -783724.94, -97290.36, -0.0859395, 0.12020856, -629576.3, -1847.3392, 0.0, 10.000147, 9.99892 
1.8949763e+3, 2.4594635e+2, -642857.9, -646752.8, -98151.23, -0.06293874, 0.11740648, -546634.8, -16897.895, 0.0, 9.999534, 9.999483 
1.8949553e+3, 2.5594574e+2, -655743.44, -606781.75, -86113.21, 0.027334465, 0.108672746, -541737.25, -109995.695, 0.0, 9.998792, 9.999442 
1.8949334e+3, 2.659452e+2, -602423.6, -479298.6, -69379.16, 0.007242474, 0.0911444, -448106.53, -114360.87, 0.0, 9.998264, 9.999898 
1.8949111e+3, 2.7594492e+2, -561757.1, -412125.94, -85726.516, -0.104755625, 0.071337335, -373159.25, -137412.17, 0.0, 9.997885, 9.999869 
1.89489e+3, 2.8594494e+2, -488135.44, -261291.0, -63524.438, -0.09572708, 0.06450052, -244713.39, -106967.75, 0.0, 9.997439, 10.000446 
1.8948705e+3, 2.959452e+2, -463848.6, -211198.19, -39330.016, 0.046818063, 0.043656435, -205217.28, -165474.72, 0.0, 9.996985, 10.000337 
1.8948483e+3, 3.0594593e+2, -495066.1, -190215.97, 18902.502, -0.14491098, 0.0862255, -189048.38, -189048.38, 0.0, 9.996391, 10.000431 
1.8948297e+3, 3.1594628e+2, -498538.25, 2619.0042, -84364.89, -0.06329271, 0.0760735, 16439.854, 16439.854, 0.0, 9.995529, 10.0021715 
1.9052373e+3, 1.2598488e+2, -1192049.1, -1671128.9, 47289.24, 0.007897709, 0.1520878, -1187425.9, 517935.6, 0.112457745, 10.005056, 9.997891 
1.9052155e+3, 1.3598253e+2, -1219731.4, -1653321.4, -36007.965, -0.09305468, 0.12686405, -1216761.4, 390621.6, 0.07794173, 10.003999, 9.997827 
1.9051959e+3, 1.4597975e+2, -1139047.6, -1534688.1, -40771.99, 0.08538187, 0.05652352, -1134889.6, 374520.47, 0.044322032, 10.003617, 9.998148 
1.9051737e+3, 1.5597872e+2, -1029933.8, -1445019.4, -26451.078, -0.039750405, 0.14080462, -1028255.06, 383165.94, 0.018797796, 10.003667, 9.998066 
1.9051524e+3, 1.6597706e+2, -962367.56, -1331916.6, -38419.63, -0.06412128, 0.15946238, -958415.56, 355021.66, 0.004994357, 10.003279, 9.998356 
1.9051316e+3, 1.7597498e+2, -964774.0, -1291078.6, -33854.54, -0.0010664643, 0.11340037, -961298.56, 254158.47, 0.0005042276, 10.002613, 9.998284 
1.9051099e+3, 1.8597324e+2, -923737.94, -1197837.1, -58605.598, 0.0057249893, 0.10797023, -911733.2, 205741.28, 0.000001731659, 10.002122, 9.998488 
1.9050874e+3, 1.9597198e+2, -883326.8, -1132360.0, -64795.85, -0.033902835, 0.13314398, -867476.44, 152011.45, 0.0, 10.001747, 9.9984455 
1.9050653e+3, 2.0597067e+2, -804212.75, -990494.6, -73249.55, -0.036376417, 0.1390782, -778860.1, 142640.23, 0.0, 10.0013895, 9.99892 
1.9050433e+3, 2.1596947e+2, -762297.2, -929372.6, -71451.15, -0.01018946, 0.12532398, -735908.5, 87602.23, 0.0, 10.001047, 9.998832 
1.9050209e+3, 2.2596817e+2, -741239.5, -863808.6, -74061.06, -0.025818227, 0.11859622, -706394.8, 19128.3, 0.0, 10.000499, 9.998873 
1.904998e+3, 2.3596701e+2, -744744.9, -816716.4, -73601.65, -0.07326063, 0.11441664, -698802.75, -71267.66, 0.0, 9.999811, 9.998855 
1.9049758e+3, 2.459662e+2, -662219.44, -643630.1, -77683.48, -0.051868677, 0.11455553, -574687.25, -45144.73, 0.0, 9.99935, 9.999592 
1.9049542e+3, 2.5596577e+2, -613646.56, -575851.75, -80831.76, 0.0237621, 0.1097423, -511737.8, -80192.39, 0.0, 9.999038, 9.999535 
1.9049318e+3, 2.6596522e+2, -580846.7, -473954.6, -55811.87, 0.004607409, 0.090643145, -450125.53, -116575.93, 0.0, 9.998438, 9.99985 
1.9049089e+3, 2.7596483e+2, -600366.44, -433676.13, -44334.113, -0.09906683, 0.06548064, -422618.28, -187066.0, 0.0, 9.997636, 9.99984 
1.9048873e+3, 2.8596497e+2, -514678.34, -251934.28, -23697.313, -0.08833535, 0.0604874, -249814.1, -112264.305, 0.0, 9.997165, 10.000642 
1.9048676e+3, 2.9596546e+2, -461683.16, -194666.31, -37947.293, 0.05897301, 0.04739773, -189378.14, -149834.28, 0.0, 9.996938, 10.000472 
1.9048443e+3, 3.0596653e+2, -498441.44, -170605.67, 4288.633, -0.17578956, 0.11095395, -170549.58, -170549.58, 0.0, 9.996279, 10.00062 
1.9048254e+3, 3.159667e+2, -564529.9, -49381.504, -13702.667, -0.024567936, 0.058841802, -49017.277, -49017.277, 0.0, 9.995169, 10.001986 
1.9152428e+3, 1.2600467e+2, -1189225.8, -1655193.3, 20254.941, 0.055384018, 0.15256548, -1188347.0, 516822.0, 0.11811217, 10.005037, 9.998027 
1.9152193e+3, 1.3600273e+2, -1204702.4, -1620721.4, -67783.29, -0.12331905, 0.1453116, -1193936.8, 413248.75, 0.082086414, 10.004017, 9.998047 
1.915199e+3, 1.4600001e+2, -1135757.3, -1530109.3, -37832.37, 0.03161797, 0.06946323, -1132160.6, 377051.47, 0.046909783, 10.003635, 9.998172 
1.915178e+3, 1.5599903e+2, -1028923.56, -1440401.4, -26752.32, 0.016923793, 0.15604976, -1027191.56, 384031.3, 0.020081861, 10.003658, 9.998103 
1.9151561e+3, 1.6599745e+2, -949509.7, -1302783.1, -63273.4, -0.015865032, 0.16850333, -938519.0, 374719.22, 0.005439926, 10.003268, 9.998563 
1.9151336e+3, 1.7599544e+2, -952248.9, -1266843.6, -56937.35, -0.05032709, 0.11099596, -942261.06, 272995.38, 0.0005767601, 10.002618, 9.99845 
1.9151115e+3, 1.8599378e+2, -934160.06, -1221679.6, -71947.75, -0.035547186, 0.11378279, -917161.1, 200112.3, 0.0000021934447, 10.002129, 9.998323 
1.9150896e+3, 1.9599257e+2, -893051.8, -1153855.4, -77728.87, 0.008865504, 0.1603073, -871643.2, 147644.1, 0.0, 10.001751, 9.998299 
1.915067e+3, 2.059911e+2, -799419.06, -981462.56, -84965.266, -0.0007059402, 0.15458952, -765925.5, 155375.47, 0.0, 10.00139, 9.998982 
1.9150439e+3, 2.159896e+2, -757657.56, -920901.6, -84027.28, -0.045359917, 0.10613586, -722135.5, 101177.766, 0.0, 10.001049, 9.99889 
1.9150212e+3, 2.2598837e+2, -737784.0, -857585.9, -98908.234, -0.03601202, 0.099289425, -682052.06, 43272.875, 0.0, 10.000501, 9.998917 
1.9149986e+3, 2.3598747e+2, -742189.5, -812321.06, -96676.484, 0.006559331, 0.118189596, -674415.8, -47081.367, 0.0, 9.999812, 9.998886 
1.9149756e+3, 2.459866e+2, -668323.56, -657530.44, -88161.086, -0.010592417, 0.11680682, -574600.9, -45258.29, 0.0, 9.999352, 9.999496 
1.9149522e+3, 2.5598592e+2, -616877.94, -584724.1, -93061.23, -0.061463617, 0.09652996, -506361.3, -75013.11, 0.0, 9.999044, 9.999472 
1.9149296e+3, 2.6598546e+2, -557007.25, -426549.9, -85567.16, -0.058390327, 0.07560395, -384184.34, -50833.887, 0.0, 9.998444, 10.0001745 
1.9149071e+3, 2.7598545e+2, -580215.25, -394424.44, -71634.47, -0.038502295, 0.052316774, -370012.3, -134663.84, 0.0, 9.997643, 10.000108 
1.9148852e+3, 2.859856e+2, -537003.7, -300403.53, -31689.904, -0.032829836, 0.05331567, -296232.53, -158886.16, 0.0, 9.997171, 10.000307 
1.9148642e+3, 2.9598594e+2, -481877.06, -240459.56, -46416.344, 0.02116191, 0.058141407, -231842.83, -192499.16, 0.0, 9.996951, 10.000153 
1.9148402e+3, 3.0598676e+2, -444884.97, -62566.957, -36435.242, -0.21795227, 0.07558629, -59125.62, -59125.62, 0.0, 9.996288, 10.001359 
1.914821e+3, 3.15988e+2, -559612.7, -40703.355, 6974.937, 0.0023660513, 0.053747263, -40609.617, -40609.617, 0.0, 9.9951725, 10.002045 
1.9252476e+3, 1.2602496e+2, -1243936.8, -1681540.1, 52749.684, 0.0669361, 0.13836785, -1237668.0, 467302.66, 0.12385658, 10.004641, 9.998013 
1.9252239e+3, 1.360236e+2, -1108803.9, -1558310.9, -47462.645, -0.102699175, 0.17464033, -1103847.0, 503134.97, 0.08631915, 10.004692, 9.998174 
1.9252028e+3, 1.4602092e+2, -1065202.5, -1486132.5, -18821.0, 0.0140154315, 0.094722375, -1064362.6, 444645.2, 0.049571946, 10.004119, 9.998246 
1.9251814e+3, 1.5601969e+2, -1105588.0, -1471118.8, -4979.1494, 0.025747161, 0.1474008, -1105520.1, 305500.75, 0.021416502, 10.003096, 9.998161 
1.9251592e+3, 1.6601813e+2, -1026023.56, -1333948.1, -38983.617, 0.0011492814, 0.15874441, -1021164.9, 291871.06, 0.005912063, 10.002717, 9.998612 
1.9251363e+3, 1.7601639e+2, -926904.4, -1249117.9, -46015.32, -0.048143253, 0.12373891, -920461.75, 294590.06, 0.0006577095, 10.002771, 9.998496 
1.925114e+3, 1.8601479e+2, -885380.2, -1192065.9, -62994.168, -0.03597348, 0.12918186, -872945.2, 244122.77, 0.000002911813, 10.00244, 9.998375 
1.9250914e+3, 1.9601353e+2, -875596.4, -1141303.6, -53624.043, 0.017883984, 0.16409065, -865182.4, 153899.72, 0.0, 10.001855, 9.998333 
1.9250683e+3, 2.0601203e+2, -816546.6, -992936.75, -57182.844, 0.0068815537, 0.15530938, -799631.06, 121465.23, 0.0, 10.00129, 9.998951 
1.9250448e+3, 2.1601051e+2, -803971.75, -944760.7, -64995.797, -0.048491996, 0.10990412, -778554.75, 44554.316, 0.0, 10.000741, 9.998874 
1.9250216e+3, 2.2600938e+2, -755472.75, -847250.8, -80093.19, -0.036604702, 0.10484768, -709054.0, 16065.582, 0.0, 10.0003, 9.999083 
1.9249985e+3, 2.3600866e+2, -714442.6, -782680.25, -69057.01, 0.019049406, 0.12335099, -671535.7, -44408.676, 0.0, 9.999934, 9.99903 
1.9249749e+3, 2.460078e+2, -668101.44, -657706.56, -52229.65, -0.0007173091, 0.11764627, -610416.4, -81281.61, 0.0, 9.999357, 9.999492 
1.9249511e+3, 2.5600705e+2, -676409.3, -613707.94, -51367.85, -0.066713095, 0.093508035, -584879.56, -153738.61, 0.0, 9.998639, 9.999467 
1.9249278e+3, 2.660066e+2, -592815.9, -438317.88, -54108.273, -0.062965885, 0.06912641, -421252.97, -88109.836, 0.0, 9.998178, 10.00022 
1.9249049e+3, 2.760065e+2, -542245.3, -371360.8, -61715.816, -0.027651848, 0.03703557, -351402.78, -116261.52, 0.0, 9.997887, 10.000148 
1.9248824e+3, 2.860067e+2, -522662.0, -297402.2, -16879.363, -0.02633334, 0.042243127, -296144.4, -159005.61, 0.0, 9.99729, 10.00027 
1.9248606e+3, 2.960073e+2, -556352.6, -281726.3, -8568.6, 0.00467172, 0.07532834, -281459.22, -242325.3, 0.0, 9.996467, 10.0001 
1.9248363e+3, 3.0600747e+2, -504881.4, -76556.0, -23228.35, -0.20584856, 0.024796614, -75299.99, -75299.99, 0.0, 9.995815, 10.00149 
1.9248162e+3, 3.1600913e+2, -550892.44, -33076.926, 24868.686, 0.018042874, 0.027414579, -31885.32, -31885.32, 0.0, 9.995219, 10.002073 
1.9352521e+3, 1.2604572e+2, -1252665.0, -1700816.3, 55930.47, 0.041944716, 0.10728568, -1245790.3, 458977.0, 0.12960081, 10.004672, 9.997851 
1.9352292e+3, 1.3604504e+2, -1110992.9, -1555915.9, -47817.7, -0.03680037, 0.21322176, -1105911.8, 500861.13, 0.0905829, 10.00468, 9.9982 
1.935207e+3, 1.4604244e+2, -1060382.0, -1471500.4, -54278.184, 0.027471896, 0.1298147, -1053336.6, 455461.28, 0.052277103, 10.0041065, 9.99836 
1.9351842e+3, 1.5604064e+2, -1097605.5, -1458286.3, -37701.203, -0.012631864, 0.11717052, -1093706.8, 317108.4, 0.02278699, 10.003115, 9.998242 
1.9351618e+3, 1.6603911e+2, -1031661.44, -1350224.1, -36197.383, -0.014040597, 0.13416393, -1027600.2, 285230.03, 0.0064059095, 10.002735, 9.998494 
1.9351396e+3, 1.7603776e+2, -932762.3, -1261568.8, -45404.19, 0.0020517386, 0.15100792, -926607.75, 288235.78, 0.00074702007, 10.00277, 9.998413 
1.9351166e+3, 1.8603623e+2, -868519.0, -1156340.9, -84308.52, 0.0017501459, 0.15191711, -845641.8, 271216.94, 0.0000041218373, 10.002435, 9.998625 
1.935093e+3, 1.9603477e+2, -860148.6, -1110404.3, -74106.75, -0.006654023, 0.14429528, -839850.25, 179022.73, 0.0, 10.001857, 9.998546 
1.9350694e+3, 2.0603335e+2, -826252.06, -1014087.44, -76775.62, -0.013947891, 0.1418121, -798864.2, 122022.586, 0.0, 10.001291, 9.998806 
1.9350457e+3, 2.1603212e+2, -811413.9, -960293.5, -83221.875, -0.021811366, 0.13719755, -774197.25, 48701.504, 0.0, 10.000738, 9.99877 
1.935022e+3, 2.2603112e+2, -735456.25, -806639.56, -92511.85, -0.029492835, 0.13514777, -671925.75, 52982.137, 0.0, 10.000302, 9.999362 
1.9349979e+3, 2.3603044e+2, -695532.6, -745055.94, -82376.61, -0.03748145, 0.13020779, -634276.56, -7363.07, 0.0, 9.999939, 9.999287 
1.9349742e+3, 2.4602966e+2, -662393.3, -647590.56, -78370.48, -0.02282018, 0.117877625, -576272.75, -47352.977, 0.0, 9.999361, 9.999561 
1.9349505e+3, 2.5602904e+2, -672465.7, -607488.2, -75716.64, 0.00977254, 0.09914431, -557584.44, -126659.9, 0.0, 9.998645, 9.999509 
1.9349265e+3, 2.6602843e+2, -609356.4, -473982.28, -64228.02, -0.008637784, 0.06932047, -448359.22, -115430.484, 0.0, 9.998181, 9.999974 
1.9349024e+3, 2.7602792e+2, -555860.9, -401489.1, -73431.42, -0.07401232, 0.020386439, -372139.38, -137207.73, 0.0, 9.997892, 9.999939 
1.9348791e+3, 2.8602818e+2, -502417.1, -258282.7, -47823.3, -0.0744998, 0.027850645, -249248.9, -112320.9, 0.0, 9.997298, 10.000536 
1.9348572e+3, 2.960294e+2, -537807.9, -248580.81, -37552.684, 0.01271635, 0.097034365, -243784.58, -204868.81, 0.0, 9.996486, 10.000321 
1.934833e+3, 3.0602854e+2, -537459.2, -146466.13, -44076.723, -0.13558607, -0.041562967, -141558.94, -141558.94, 0.0, 9.995824, 10.001006 
1.934811e+3, 3.1603032e+2, -543270.4, -19665.328, 49805.664, -0.020532219, 0.023007276, -14969.887, -14969.887, 0.0, 9.995227, 10.002164 
1.9452572e+3, 1.2606785e+2, -1130878.5, -1660006.3, 87217.44, 0.025949823, 0.11850675, -1116873.0, 587677.5, 0.13529366, 10.005765, 9.997643 
1.945234e+3, 1.3606687e+2, -1173873.1, -1591360.3, -15682.813, 0.0015733956, 0.20158803, -1173284.8, 433274.88, 0.09483565, 10.004249, 9.99814 
1.9452108e+3, 1.4606434e+2, -1105970.4, -1495994.0, -16293.245, 0.025025496, 0.13219497, -1105290.9, 403292.78, 0.054996606, 10.003799, 9.998329 
1.9451874e+3, 1.5606256e+2, -979801.56, -1403508.5, -11673.29, -0.027447736, 0.12283867, -979480.2, 431120.44, 0.02417866, 10.003966, 9.998207 
1.9451648e+3, 1.6606095e+2, -937720.56, -1310467.9, -14523.961, -0.017352503, 0.13917582, -937155.5, 375460.9, 0.006916636, 10.003417, 9.998436 
1.9451423e+3, 1.7605956e+2, -987637.2, -1291935.4, -19301.959, 0.018641615, 0.1552486, -986417.75, 228213.19, 0.00084444886, 10.002414, 9.998375 
1.9451189e+3, 1.8605806e+2, -931788.6, -1167091.3, -55207.742, 0.015017213, 0.15256563, -919479.44, 197166.0, 0.0000060577904, 10.001918, 9.998798 
1.9450949e+3, 1.9605672e+2, -864111.5, -1094498.9, -52824.137, -0.010532279, 0.13857387, -852577.2, 166080.64, 0.0, 10.001757, 9.998701 
1.9450706e+3, 2.060554e+2, -830130.75, -1013465.1, -60378.43, -0.01612691, 0.13888961, -812032.6, 108638.01, 0.0, 10.001257, 9.998826 
1.9450465e+3, 2.1605428e+2, -839543.3, -971369.06, -54704.89, -0.010478257, 0.14350694, -819799.1, 2883.0276, 0.0, 10.000536, 9.99879 
1.9450222e+3, 2.2605333e+2, -764007.6, -811000.06, -57249.84, -0.023208726, 0.14233834, -725619.94, -929.2243, 0.0, 10.000068, 9.999443 
1.9449976e+3, 2.3605268e+2, -715084.8, -745371.0, -63958.793, -0.04823849, 0.13226268, -664500.94, -37805.22, 0.0, 9.999769, 9.999365 
1.9449733e+3, 2.4605195e+2, -665102.25, -642048.25, -76609.586, -0.028501365, 0.11800036, -576103.3, -47401.99, 0.0, 9.999318, 9.999619 
1.9449492e+3, 2.560514e+2, -652244.25, -592573.8, -74066.04, 0.023700166, 0.099538095, -542559.7, -111854.18, 0.0, 9.998764, 9.999553 
1.9449247e+3, 2.6605082e+2, -609070.56, -477021.8, -46859.75, 0.0075289183, 0.0743787, -462082.88, -129373.51, 0.0, 9.9981985, 9.999944 
1.9449002e+3, 2.7605033e+2, -599009.7, -425315.44, -41419.86, -0.064792834, 0.030905835, -415943.9, -181231.53, 0.0, 9.997612, 9.999908 
1.9448762e+3, 2.8605047e+2, -537225.44, -270711.34, -27172.88, -0.07699617, 0.02687581, -267969.1, -131259.33, 0.0, 9.997045, 10.000571 
1.9448534e+3, 2.9605162e+2, -531447.25, -236153.81, -34160.66, -0.012906152, 0.08654393, -232253.5, -193555.77, 0.0, 9.996493, 10.0004015 
1.9448291e+3, 3.060508e+2, -563608.2, -192481.77, -37880.0, -0.090188906, -0.0385727, -188654.9, -188654.9, 0.0, 9.995792, 10.000704 
1.944806e+3, 3.1605273e+2, -572282.44, 747.4868, 87764.46, -0.039544966, 0.0733843, 13888.034, 13888.034, 0.0, 9.994884, 10.002468 
1.9552629e+3, 1.2609118e+2, -1153295.8, -1695615.6, 31451.719, 0.009098997, 0.16260894, -1151477.8, 552844.06, 0.14093617, 10.005745, 9.997373 
1.9552383e+3, 1.3608906e+2, -1180505.4, -1609380.3, -59348.715, 0.013001034, 0.14441587, -1172444.1, 433898.44, 0.099067986, 10.004281, 9.997997 
1.9552144e+3, 1.4608668e+2, -1115178.4, -1520603.3, -8692.061, 0.006783225, 0.105980225, -1114992.1, 393373.25, 0.05771846, 10.00383, 9.998142 
1.9551913e+3, 1.5608536e+2, -992497.2, -1428166.0, -9255.432, -0.021400584, 0.16197823, -992300.6, 418077.34, 0.02558323, 10.003961, 9.99804 
1.9551682e+3, 1.6608362e+2, -939305.94, -1312073.6, -51494.336, -0.010923648, 0.17103933, -932323.25, 380071.94, 0.0074405526, 10.003408, 9.998431 
1.9551447e+3, 1.7608172e+2, -985759.7, -1291127.4, -52478.63, 0.002115745, 0.13700092, -976992.7, 237421.83, 0.00094927935, 10.002424, 9.998377 
1.9551207e+3, 1.8608023e+2, -924244.1, -1153839.1, -59716.254, 0.0029208362, 0.13272658, -909641.06, 206787.52, 0.000008849083, 10.001925, 9.998887 
1.9550967e+3, 1.9607927e+2, -857701.4, -1081290.1, -59419.445, 0.004295695, 0.14788981, -842891.44, 175545.67, 0.0, 10.001755, 9.998795 
1.955072e+3, 2.0607807e+2, -818932.9, -990757.3, -86438.195, -0.0012685918, 0.14627095, -782974.4, 137474.14, 0.0, 10.001257, 9.998983 
1.955047e+3, 2.1607688e+2, -829597.44, -952392.3, -78564.66, -0.015315267, 0.12833461, -791285.06, 31175.139, 0.0, 10.000541, 9.998919 
1.9550222e+3, 2.2607592e+2, -771729.94, -828718.2, -67227.805, -0.018469276, 0.12611252, -727207.0, -2737.9207, 0.0, 10.0000725, 9.999321 
1.9549976e+3, 2.3607525e+2, -722141.06, -761143.8, -74703.59, -0.013989748, 0.12957333, -664435.4, -37960.89, 0.0, 9.999771, 9.999257 
1.9549727e+3, 2.4607453e+2, -662196.2, -637346.06, -96405.37, -0.019322509, 0.117752045, -552568.4, -24087.898, 0.0, 9.999321, 9.99965 
1.9549476e+3, 2.5607395e+2, -648403.56, -586432.6, -93786.78, -0.029460479, 0.09577718, -518645.34, -88160.58, 0.0, 9.998769, 9.999594 
1.9549227e+3, 2.6607367e+2, -596049.56, -451700.44, -68413.62, -0.017016107, 0.0860546, -424428.56, -91942.6, 0.0, 9.998203, 10.000118 
1.9548984e+3, 2.7607358e+2, -587640.2, -405788.97, -62861.813, 0.0027366674, 0.06636195, -386174.66, -151689.86, 0.0, 9.997626, 10.000038 
1.9548738e+3, 2.8607342e+2, -550513.44, -301014.97, -48848.78, -0.032509815, 0.0379311, -291791.9, -155306.42, 0.0, 9.997054, 10.0003605 
1.954849e+3, 2.9607385e+2, -536636.3, -247951.31, -55608.426, -0.08036276, 0.046191674, -237610.1, -199129.03, 0.0, 9.996494, 10.000321 
1.9548249e+3, 3.060741e+2, -571299.2, -209584.02, -70266.74, -0.07420624, 0.03185875, -196413.56, -196413.56, 0.0, 9.995794, 10.0005865 
1.9548008e+3, 3.1607503e+2, -525289.06, 89603.93, 50738.152, -0.042514596, 0.0634445, 93762.484, 93762.484, 0.0, 9.994916, 10.003065 
1.9652683e+3, 1.2611502e+2, -1230529.8, -1762540.3, 46604.31, 0.012136898, 0.18928199, -1226478.1, 477610.88, 0.14656115, 10.005265, 9.997139 
1.9652432e+3, 1.361124e+2, -1033620.2, -1554394.4, -37827.89, 0.021382824, 0.14495653, -1030886.75, 575228.0, 0.10330097, 10.005513, 9.997813 
1.9652186e+3, 1.4611016e+2, -976172.4, -1450834.9, 17812.95, -0.010036017, 0.12680294, -975504.9, 532631.4, 0.06045125, 10.004856, 9.998148 
1.9651952e+3, 1.5610874e+2, -1055621.0, -1460598.5, 28466.88, -0.005901448, 0.17180105, -1053629.8, 356519.53, 0.027000824, 10.003529, 9.998025 
1.9651715e+3, 1.6610685e+2, -1012638.7, -1359004.1, -8948.115, 0.0062272428, 0.17429513, -1012407.7, 299760.2, 0.007975056, 10.002953, 9.998327 
1.9651471e+3, 1.7610483e+2, -925542.94, -1270760.3, -18063.709, -0.006042954, 0.13965578, -924600.3, 289588.3, 0.0010600544, 10.00288, 9.998295 
1.9651227e+3, 1.8610339e+2, -863854.44, -1115908.0, -29923.03, -0.008502031, 0.1391735, -860350.75, 255851.61, 0.000012480936, 10.002307, 9.9989605 
1.9650982e+3, 1.9610257e+2, -903985.5, -1096113.3, -31049.586, 0.006917673, 0.16045912, -899092.25, 119117.2, 0.0, 10.001408, 9.9988575 
1.9650732e+3, 2.0610137e+2, -858612.06, -1005888.9, -59663.887, 0.0053428384, 0.15615833, -837475.0, 82745.51, 0.0, 10.00097, 9.999016 
1.9650477e+3, 2.1610011e+2, -784971.7, -927563.9, -62550.895, -0.012540991, 0.12923072, -761421.9, 60810.727, 0.0, 10.000837, 9.998944 
1.9650225e+3, 2.260991e+2, -733307.1, -811392.8, -53235.207, -0.012690155, 0.12263276, -706332.3, 17909.525, 0.0, 10.000345, 9.999307 
1.9649975e+3, 2.3609844e+2, -745087.8, -773302.25, -53379.93, 0.000022028116, 0.1253076, -703982.44, -77734.93, 0.0, 9.99962, 9.999245 
1.9649719e+3, 2.4609771e+2, -689518.6, -644938.56, -69089.06, -0.013825233, 0.11341903, -594632.8, -66379.44, 0.0, 9.999111, 9.999698 
1.9649461e+3, 2.560972e+2, -650957.8, -581980.8, -67030.37, -0.04420938, 0.09209521, -541086.75, -110829.414, 0.0, 9.998732, 9.9996395 
1.9649208e+3, 2.6609704e+2, -602398.6, -451947.25, -53511.79, -0.031050036, 0.09345912, -434856.03, -102598.62, 0.0, 9.998153, 10.000138 
1.964896e+3, 2.760972e+2, -614704.9, -416775.28, -59631.883, 0.007540033, 0.09472769, -400197.9, -165943.66, 0.0, 9.997436, 10.000052 
1.9648705e+3, 2.860969e+2, -591619.94, -321322.9, -38662.703, -0.029456807, 0.052177273, -315901.4, -179645.08, 0.0, 9.996777, 10.000353 
1.9648452e+3, 2.9609686e+2, -579246.6, -259730.61, -29316.195, -0.10446128, 0.01207375, -257063.06, -218806.53, 0.0, 9.996168, 10.000396 
1.964821e+3, 3.060981e+2, -584819.06, -210943.67, -38571.965, -0.037498876, 0.08937453, -207005.75, -207005.75, 0.0, 9.995681, 10.00063 
1.9647956e+3, 3.160985e+2, -497561.06, 94391.76, 68348.13, -0.0688137, 0.07595986, 102180.88, 102180.88, 0.0, 9.995147, 10.002986 
1.9752736e+3, 1.2613927e+2, -1241647.5, -1789240.9, 42175.68, 0.03152641, 0.19445182, -1238418.1, 465434.25, 0.15221578, 10.005294, 9.9969425 
1.9752488e+3, 1.3613689e+2, -1052577.4, -1583987.1, -32990.082, 0.023685647, 0.19883245, -1050537.3, 555339.6, 0.10756769, 10.005491, 9.997599 
1.9752233e+3, 1.4613473e+2, -969923.75, -1431656.1, -27119.75, -0.029619066, 0.19122835, -968336.3, 539560.44, 0.06321238, 10.004838, 9.998301 
1.9751991e+3, 1.5613262e+2, -1045835.06, -1443651.1, -14411.878, 0.017200299, 0.1543348, -1045313.6, 364601.28, 0.028436413, 10.003548, 9.998134 
1.9751748e+3, 1.6613063e+2, -1024964.75, -1389181.9, -11338.562, 0.031802423, 0.15177344, -1024612.06, 287322.56, 0.0085188765, 10.002971, 9.998113 
1.97515e+3, 1.7612886e+2, -938438.2, -1297858.4, -22892.748, -0.0074243117, 0.16279225, -936985.94, 276968.1, 0.001174899, 10.002879, 9.99811 
1.9751248e+3, 1.8612745e+2, -860492.56, -1109072.9, -62686.34, -0.020379499, 0.17051126, -845579.2, 270388.44, 0.000016759132, 10.002305, 9.99901 
1.9750994e+3, 1.961265e+2, -900311.94, -1091060.6, -60384.95, -0.003505078, 0.17536178, -882803.1, 135172.52, 0.0, 10.001416, 9.99889 
1.9750741e+3, 2.0612524e+2, -864328.56, -1020216.0, -63151.254, 0.0027849176, 0.16779535, -841956.25, 78031.21, 0.0, 10.0009775, 9.998916 
1.9750486e+3, 2.1612395e+2, -790646.3, -939956.94, -67947.734, -0.0033626754, 0.14682966, -764354.56, 57645.61, 0.0, 10.000836, 9.998861 
1.9750229e+3, 2.2612287e+2, -727774.75, -800834.9, -79171.28, -0.0072784876, 0.1324945, -677112.3, 46897.49, 0.0, 10.000346, 9.99938 
1.974997e+3, 2.361221e+2, -739376.44, -763165.1, -77580.38, -0.008084016, 0.11900459, -672783.9, -46768.195, 0.0, 9.999624, 9.999313 
1.974971e+3, 2.4612144e+2, -685053.25, -637435.0, -82444.63, -0.01269573, 0.105288394, -575430.44, -47409.324, 0.0, 9.999115, 9.999749 
1.9749449e+3, 2.56121e+2, -647634.3, -577789.3, -81885.25, -0.02093847, 0.08752251, -523690.6, -93666.1, 0.0, 9.99874, 9.999665 
1.9749188e+3, 2.6612082e+2, -611117.94, -472468.63, -80807.67, -0.036334068, 0.09522284, -435323.63, -103298.55, 0.0, 9.99816, 9.999994 
1.9748928e+3, 2.76121e+2, -621760.75, -433007.13, -86659.984, -0.05582448, 0.11508016, -399255.34, -165233.23, 0.0, 9.997439, 9.999941 
1.974867e+3, 2.8612077e+2, -578179.5, -293770.2, -62107.36, -0.07161169, 0.071005255, -280799.2, -144775.67, 0.0, 9.996776, 10.000544 
1.9748415e+3, 2.9612046e+2, -561232.75, -227588.42, -49585.87, -0.0853676, -0.015805624, -220374.98, -182349.45, 0.0, 9.996187, 10.000609 
1.9748172e+3, 3.061226e+2, -570822.7, -187550.23, -59592.754, 0.021019304, 0.1302273, -178498.3, -178498.3, 0.0, 9.995703, 10.000783 
1.9747902e+3, 3.1612223e+2, -562793.9, -46143.254, -3572.123, -0.100072645, 0.032526452, -46118.555, -46118.555, 0.0, 9.995164, 10.002014 
1.9852793e+3, 1.2616393e+2, -1153073.0, -1706332.0, 35682.176, 0.028909411, 0.20526907, -1150781.1, 552830.75, 0.15794863, 10.005915, 9.99721 
1.9852543e+3, 1.361615e+2, -1142405.9, -1619653.0, -3041.6675, 0.06565375, 0.1945688, -1142386.5, 463249.4, 0.11189563, 10.004779, 9.99768 
1.9852279e+3, 1.4615951e+2, -1041547.25, -1474877.8, -2302.3447, -0.011763753, 0.20583656, -1041535.0, 466119.16, 0.0660145, 10.004367, 9.998211 
1.9852029e+3, 1.5615723e+2, -948095.6, -1401924.3, -7269.629, 0.014112012, 0.15845375, -947979.25, 461695.47, 0.029894378, 10.004278, 9.998067 
1.985178e+3, 1.661552e+2, -927356.2, -1330958.0, 6076.8667, 0.029776933, 0.15237091, -927264.7, 384429.78, 0.009071907, 10.00361, 9.998201 
1.9851528e+3, 1.7615356e+2, -976245.0, -1308648.8, 15112.862, 0.0022439815, 0.16807194, -975559.3, 238152.66, 0.0012922568, 10.002591, 9.998173 
1.985127e+3, 1.861521e+2, -901622.7, -1139863.9, -21998.504, -0.013293649, 0.1742153, -899608.44, 216117.73, 0.000021359581, 10.002072, 9.99891 
1.9851011e+3, 1.9615097e+2, -839724.5, -1071677.3, -30907.334, -0.008041349, 0.17153539, -835676.75, 182059.61, 0.0, 10.001878, 9.998799 
1.9850752e+3, 2.0614971e+2, -807770.8, -993525.8, -30841.229, -0.0037813121, 0.16961272, -802784.06, 116964.23, 0.0, 10.001372, 9.998907 
1.9850492e+3, 2.1614856e+2, -816499.8, -953039.3, -30939.186, -0.0057608234, 0.16346522, -809816.3, 11943.393, 0.0, 10.000665, 9.998853 
1.985023e+3, 2.2614743e+2, -764072.44, -816367.9, -47936.043, -0.010540478, 0.14538437, -735616.44, -11846.761, 0.0, 10.000091, 9.999395 
1.9849966e+3, 2.3614652e+2, -742001.5, -761982.25, -50251.727, -0.014515132, 0.116504945, -700756.7, -74979.74, 0.0, 9.9996, 9.999331 
1.9849701e+3, 2.4614595e+2, -690153.6, -637466.25, -53346.57, -0.016183764, 0.10990179, -604313.3, -76531.67, 0.0, 9.999076, 9.999765 
1.9849436e+3, 2.5614572e+2, -676571.5, -589318.1, -55720.25, -0.018774306, 0.11143161, -562177.4, -132394.06, 0.0, 9.998534, 9.999684 
1.9849169e+3, 2.6614544e+2, -631131.0, -475927.63, -52442.203, -0.04125917, 0.105019115, -459869.25, -128084.375, 0.0, 9.997998, 10.000047 
1.98489e+3, 2.7614543e+2, -617977.2, -425195.78, -45448.297, -0.07193218, 0.09719481, -415018.56, -181234.67, 0.0, 9.997445, 9.999989 
1.9848636e+3, 2.8614542e+2, -582217.75, -292342.9, -24562.004, -0.07872725, 0.07614429, -290276.4, -154493.67, 0.0, 9.9967375, 10.000569 
1.9848377e+3, 2.9614547e+2, -599996.1, -243108.05, -23019.64, -0.077941746, 0.024988895, -241629.38, -203848.2, 0.0, 9.995913, 10.000632 
1.9848129e+3, 3.0614725e+2, -579779.1, -150704.75, -21246.223, 0.02163332, 0.11456998, -149655.28, -149655.28, 0.0, 9.995466, 10.001148 
1.9847853e+3, 3.161468e+2, -569325.3, -97163.31, 17098.67, -0.10934681, -0.025377896, -96544.92, -96544.92, 0.0, 9.995328, 10.001582 
1.9952849e+3, 1.2618898e+2, -1122885.4, -1631050.0, -13593.49, -0.003829623, 0.21807435, -1122522.0, 580845.4, 0.16379088, 10.005892, 9.997832 
1.9952598e+3, 1.3618627e+2, -1121814.5, -1576637.5, -33489.438, 0.14237478, 0.13901232, -1119361.9, 486029.9, 0.116303444, 10.0048065, 9.997988 
1.9952329e+3, 1.461845e+2, -1059546.8, -1516944.5, -3879.4253, 0.039557, 0.17767861, -1059513.9, 447894.53, 0.06886752, 10.0043955, 9.997894 
1.9952069e+3, 1.5618244e+2, -964667.4, -1435335.4, -13581.078, -0.01454798, 0.18235996, -964275.8, 445153.25, 0.031379096, 10.004273, 9.997839 
1.9951813e+3, 1.6618049e+2, -904209.56, -1281219.8, -30907.883, 0.00018676044, 0.17392288, -901692.5, 409755.34, 0.009635128, 10.003602, 9.998549 
1.9951555e+3, 1.7617884e+2, -955262.1, -1267978.5, -18298.572, 0.021265905, 0.15635838, -954195.0, 259268.22, 0.0014115352, 10.002602, 9.998448 
1.9951293e+3, 1.8617728e+2, -917693.75, -1176120.5, -28223.332, 0.010094028, 0.15145023, -914647.4, 200831.23, 0.000025947349, 10.002082, 9.998657 
1.9951029e+3, 1.961759e+2, -854538.25, -1103606.1, -38635.047, -0.007700801, 0.15033506, -848682.9, 168809.36, 0.0, 10.001881, 9.99858 
1.9950764e+3, 2.0617473e+2, -803255.25, -985273.44, -56225.4, -0.015051656, 0.16251726, -787287.94, 132215.83, 0.0, 10.001374, 9.998964 
1.9950497e+3, 2.1617384e+2, -812630.75, -946508.06, -54880.445, -0.021298895, 0.17930272, -793009.3, 28502.88, 0.0, 10.000669, 9.998898 
1.9950229e+3, 2.2617273e+2, -766039.7, -822308.8, -65197.844, -0.02341278, 0.16106613, -723165.0, 357.5273, 0.0, 10.000095, 9.999353 
1.994996e+3, 2.3617163e+2, -744539.94, -768690.8, -67377.07, -0.020153388, 0.1176861, -688164.75, -62632.543, 0.0, 9.999603, 9.999286 
1.994969e+3, 2.4617118e+2, -691769.1, -642467.9, -73129.55, -0.025932223, 0.12734169, -589946.06, -62409.953, 0.0, 9.99908, 9.99973 
1.9949418e+3, 2.5617126e+2, -675227.9, -588653.7, -75120.88, -0.040183656, 0.16341127, -545240.6, -115705.75, 0.0, 9.99854, 9.999687 
1.9949149e+3, 2.6617077e+2, -613972.5, -442032.66, -73140.46, -0.04558942, 0.12360775, -415129.4, -83591.61, 0.0, 9.998003, 10.000279 
1.9948877e+3, 2.761702e+2, -603203.4, -399208.13, -67027.266, -0.041081745, 0.03992558, -379155.88, -145614.89, 0.0, 9.997461, 10.00016 
1.9948606e+3, 2.8617066e+2, -590873.3, -313895.94, -56901.3, -0.052847713, 0.06540532, -302661.97, -167126.33, 0.0, 9.996751, 10.000416 
1.9948334e+3, 2.9617175e+2, -611450.5, -269316.66, -53469.47, -0.08658249, 0.13152808, -261155.03, -223629.77, 0.0, 9.99592, 10.00045 
1.9948077e+3, 3.0617192e+2, -538529.94, -66533.414, -28936.123, -0.039428473, 0.046516277, -64766.08, -64766.08, 0.0, 9.995469, 10.001726 
1.9947815e+3, 3.1617382e+2, -569678.06, -101738.33, -20682.68, -0.04028928, 0.07036759, -100825.945, -100825.945, 0.0, 9.995344, 10.001544 
2.0052908e+3, 1.2621494e+2, -1146376.8, -1638626.3, 35493.996, 0.02048378, 0.1820571, -1143830.6, 559281.3, 0.16975866, 10.00572, 9.997856 
2.0052649e+3, 1.362124e+2, -1040898.2, -1557354.0, -999.25336, 0.13248524, 0.13929579, -1040896.25, 564239.2, 0.120810315, 10.005564, 9.997772 
2.0052375e+3, 1.462105e+2, -988400.44, -1490063.4, 24188.352, 0.028146379, 0.18261002, -987236.9, 519916.78, 0.071786806, 10.00498, 9.997802 
2.0052111e+3, 1.562082e+2, -1005758.1, -1462846.3, 26049.506, 0.0034987163, 0.17326699, -1004278.4, 404898.66, 0.03289797, 10.004022, 9.99777 
2.0051849e+3, 1.6620633e+2, -925503.8, -1280471.4, -88.03941, 0.01567789, 0.16959552, -925503.8, 385691.38, 0.010210481, 10.00341, 9.998647 
2.0051582e+3, 1.7620492e+2, -887103.4, -1226727.4, -5042.945, 0.014554384, 0.16700825, -887028.5, 326179.53, 0.0015329993, 10.003038, 9.99852 
2.0051315e+3, 1.8620333e+2, -864868.06, -1161739.9, -7286.3994, 0.00041949723, 0.16280611, -864689.4, 250534.2, 0.000030288733, 10.002497, 9.998554 
2.0051047e+3, 1.9620177e+2, -867092.0, -1119757.9, -8672.465, -0.008533525, 0.15461732, -866794.6, 150444.39, 0.0, 10.001842, 9.998486 
2.0050777e+3, 2.0620051e+2, -822145.75, -993930.3, -31223.498, -0.013355878, 0.16344634, -816646.6, 102604.836, 0.0, 10.0012455, 9.998965 
2.0050505e+3, 2.1619962e+2, -810330.25, -946226.94, -34567.47, -0.021032242, 0.17866269, -802042.9, 19217.273, 0.0, 10.00069, 9.998888 
2.005023e+3, 2.2619857e+2, -764173.44, -828053.3, -43781.207, -0.02365608, 0.17093147, -741919.7, -18649.441, 0.0, 10.00014, 9.99929 
2.0049956e+3, 2.3619759e+2, -749168.44, -776188.56, -48729.97, -0.020712674, 0.14573923, -712110.44, -86831.016, 0.0, 9.999597, 9.999236 
2.0049681e+3, 2.4619713e+2, -700527.9, -636995.94, -51999.133, -0.031930715, 0.15476131, -607827.6, -80544.39, 0.0, 9.998979, 9.999816 
2.0049402e+3, 2.5619718e+2, -703914.0, -592319.75, -45526.996, -0.053081088, 0.17981559, -576102.75, -146820.72, 0.0, 9.998303, 9.999774 
2.0049125e+3, 2.6619676e+2, -647609.2, -450101.16, -44801.62, -0.052372422, 0.13648272, -440413.75, -109129.125, 0.0, 9.997743, 10.000346 
2.0048851e+3, 2.7619624e+2, -627853.6, -402649.63, -50843.71, -0.03478712, 0.05078068, -391702.88, -158415.31, 0.0, 9.99726, 10.000232 
2.0048574e+3, 2.861969e+2, -582796.3, -294216.16, -38825.44, -0.03747121, 0.08803898, -289083.88, -153803.95, 0.0, 9.996742, 10.000553 
2.0048296e+3, 2.9619843e+2, -579685.1, -248912.05, -15924.152, -0.061669555, 0.18579945, -248147.2, -210882.28, 0.0, 9.99612, 10.000491 
2.0048027e+3, 3.0619752e+2, -561511.3, -83415.67, 2247.6284, -0.089497246, -0.005905236, -83405.11, -83405.11, 0.0, 9.995339, 10.001673 
2.0047764e+3, 3.1620026e+2, -639643.8, -89573.24, -32745.527, -0.037047092, 0.09978312, -87630.766, -87630.766, 0.0, 9.994673, 10.001947 
2.0152973e+3, 1.2624183e+2, -1175351.5, -1697622.4, 14835.778, 0.08907081, 0.11125773, -1174930.4, 527915.2, 0.17589518, 10.005754, 9.997354 
2.0152695e+3, 1.3623972e+2, -1084240.4, -1647480.9, -6280.874, 0.041947607, 0.18706638, -1084170.4, 520697.5, 0.1254529, 10.005566, 9.997108 
2.0152415e+3, 1.4623743e+2, -985121.0, -1480216.9, -7024.8213, -0.042482756, 0.21358894, -985021.4, 521869.3, 0.074797794, 10.004978, 9.997878 
2.0152158e+3, 1.5623449e+2, -1001188.4, -1455281.4, -5207.016, 0.062987134, 0.13479522, -1001128.7, 407790.3, 0.03446406, 10.004035, 9.997818 
2.0151888e+3, 1.6623268e+2, -934309.5, -1301981.8, -13370.172, 0.07039713, 0.14414804, -933823.94, 377112.9, 0.010802848, 10.003424, 9.998492 
2.0151609e+3, 1.7623168e+2, -895609.2, -1246458.3, -19088.543, -0.01722383, 0.19880754, -894573.7, 318373.28, 0.0016580658, 10.003045, 9.998383 
2.0151335e+3, 1.8623017e+2, -862120.25, -1157237.3, -30765.271, -0.041207217, 0.20623676, -858947.1, 256014.7, 0.00003433834, 10.0025, 9.998586 
2.0151065e+3, 1.962285e+2, -865153.8, -1117433.5, -31496.49, -0.011601485, 0.18387023, -861281.0, 155696.58, 0.0, 10.001846, 9.998501 
2.0150791e+3, 2.06227e+2, -825735.1, -1003474.7, -50710.625, -0.00038709564, 0.17165208, -812284.8, 106707.4, 0.0, 10.001251, 9.9988985 
2.0150511e+3, 2.1622579e+2, -814913.2, -957170.94, -53621.12, -0.0061517605, 0.16126591, -796966.06, 24038.398, 0.0, 10.000694, 9.998813 
2.0150232e+3, 2.2622485e+2, -770519.3, -842792.94, -62997.54, -0.012588919, 0.17548665, -734029.94, -11016.21, 0.0, 10.000144, 9.999189 
2.0149952e+3, 2.362243e+2, -752680.2, -785571.25, -68432.195, -0.017943261, 0.20116481, -698745.2, -73725.72, 0.0, 9.999602, 9.99917 
2.0149669e+3, 2.4622373e+2, -685624.94, -608246.25, -76594.07, -0.034809113, 0.19228552, -561124.6, -34100.62, 0.0, 9.998985, 10.000011 
2.0149383e+3, 2.5622338e+2, -692505.94, -571100.06, -69646.305, -0.059299584, 0.15903716, -539415.5, -110389.48, 0.0, 9.99831, 9.999918 
2.0149101e+3, 2.6622322e+2, -654393.56, -466243.5, -63457.523, -0.06393572, 0.14399363, -446841.8, -115815.26, 0.0, 9.997748, 10.000234 
2.0148821e+3, 2.7622333e+2, -628607.44, -407473.0, -68436.05, -0.055683088, 0.13171734, -388007.16, -154982.31, 0.0, 9.997272, 10.0001955 
2.0148543e+3, 2.86224e+2, -552030.5, -232892.42, -62601.313, -0.03268302, 0.14477137, -221052.0, -86035.2, 0.0, 9.99675, 10.000972 
2.0148262e+3, 2.9622534e+2, -559708.8, -211968.5, -43645.3, -0.0038435317, 0.18412817, -206574.2, -169572.48, 0.0, 9.996137, 10.000739 
2.0147975e+3, 3.0622378e+2, -608834.06, -184364.27, -27897.29, -0.13361047, -0.043600276, -182538.63, -182538.63, 0.0, 9.995348, 10.000976 
2.0147708e+3, 3.1622702e+2, -569333.44, 56069.66, -17952.066, -0.065410845, 0.1688648, 56584.547, 56584.547, 0.0, 9.994675, 10.002947 
2.0253034e+3, 1.2626971e+2, -1108052.4, -1681850.6, 15155.973, 0.09226355, 0.10239549, -1107652.4, 594919.4, 0.18229055, 10.0064535, 9.997148 
2.0252751e+3, 1.3626751e+2, -1059413.8, -1667683.3, 28471.852, 0.027600873, 0.2065652, -1058083.9, 546512.1, 0.13028997, 10.005939, 9.996791 
2.0252466e+3, 1.4626485e+2, -946860.5, -1463886.5, 18868.83, -0.050573565, 0.21172155, -946172.8, 560449.9, 0.077934615, 10.005292, 9.9978485 
2.0252198e+3, 1.5626192e+2, -946856.06, -1434931.6, 14080.544, 0.05426607, 0.13738038, -946450.2, 462200.16, 0.036096137, 10.00446, 9.99775 
2.0251924e+3, 1.6626002e+2, -895173.25, -1308401.5, 14021.6455, 0.06389899, 0.15485951, -894698.06, 415971.34, 0.011421337, 10.003812, 9.998258 
2.025164e+3, 1.7625886e+2, -873688.1, -1257448.1, 1074.3055, -0.017195642, 0.21580984, -873685.1, 338996.88, 0.0017896859, 10.003293, 9.998185 
2.025136e+3, 1.8625724e+2, -835411.75, -1135855.4, -18675.77, -0.03461186, 0.21900694, -834255.3, 280442.28, 0.000038280064, 10.002649, 9.998658 
2.0251085e+3, 1.9625555e+2, -849751.8, -1105322.9, -16987.854, -0.0004109304, 0.18713546, -848627.56, 168085.25, 0.0, 10.001934, 9.998541 
2.0250805e+3, 2.0625402e+2, -816752.75, -1014769.25, -32648.143, 0.008227103, 0.17697746, -811508.75, 107219.32, 0.0, 10.001383, 9.998756 
2.025052e+3, 2.1625273e+2, -788613.5, -956349.25, -42875.61, -0.0036046125, 0.17503184, -778289.3, 42452.27, 0.0, 10.000929, 9.998704 
2.0250234e+3, 2.262518e+2, -744893.56, -817309.5, -49303.27, -0.013650073, 0.18706825, -719931.06, 2819.7122, 0.0, 10.000266, 9.999305 
2.0249946e+3, 2.3625125e+2, -765955.1, -782187.06, -38889.293, -0.021121318, 0.20388582, -734343.94, -109588.47, 0.0, 9.999472, 9.999255 
2.0249659e+3, 2.4625066e+2, -712833.25, -632461.8, -52302.113, -0.033944555, 0.19245344, -606689.94, -79929.125, 0.0, 9.99885, 9.999908 
2.0249368e+3, 2.5625023e+2, -694780.75, -580736.9, -67952.05, -0.05055632, 0.16217278, -549051.5, -120287.09, 0.0, 9.998335, 9.999839 
2.0249078e+3, 2.6625028e+2, -650877.0, -448421.3, -57355.363, -0.06173062, 0.16297455, -433301.78, -102538.56, 0.0, 9.9977045, 10.000377 
2.024879e+3, 2.7625072e+2, -660373.56, -407330.72, -43036.047, -0.06832875, 0.17093836, -400211.7, -167453.7, 0.0, 9.996989, 10.00033 
2.0248507e+3, 2.8625125e+2, -583064.2, -238628.73, -42564.992, -0.041745793, 0.16023512, -233446.56, -98695.4, 0.0, 9.9965, 10.001051 
2.0248225e+3, 2.9625228e+2, -552042.2, -200240.48, -52881.29, 0.005373957, 0.16215914, -192463.52, -155724.63, 0.0, 9.996159, 10.000807 
2.0247927e+3, 3.0625132e+2, -638523.94, -230528.61, -38576.863, -0.13144043, 0.006615051, -226913.13, -226913.13, 0.0, 9.995281, 10.00069 
2.024765e+3, 3.162544e+2, -624553.6, 89407.7, 40764.8, -0.07451496, 0.23050469, 91727.695, 91727.695, 0.0, 9.994042, 10.003478 
2.0353092e+3, 1.2629855e+2, -1109710.1, -1679000.9, -10270.605, 0.03216406, 0.15129426, -1109524.9, 592765.4, 0.18903822, 10.00647, 9.997167 
2.0352815e+3, 1.3629583e+2, -1064662.8, -1673726.9, 13252.558, 0.07710011, 0.20535643, -1064374.5, 539945.25, 0.13538373, 10.005941, 9.996748 
2.0352523e+3, 1.4629284e+2, -956214.44, -1482129.1, -8664.889, -0.007389243, 0.18725657, -956071.7, 550277.7, 0.08123514, 10.005301, 9.99771 
2.0352237e+3, 1.5629038e+2, -956343.9, -1458943.8, -14007.266, -0.018145662, 0.17552586, -955953.8, 452418.47, 0.037816986, 10.004479, 9.997578 
2.0351955e+3, 1.6628824e+2, -915348.56, -1353932.8, -4039.9, 0.00071810564, 0.19515282, -915311.3, 395082.47, 0.0120779285, 10.003824, 9.997941 
2.0351677e+3, 1.7628641e+2, -891643.5, -1296063.4, -17572.293, 0.011739694, 0.2187484, -890881.44, 321532.16, 0.0019321534, 10.003295, 9.997921 
2.0351394e+3, 1.8628453e+2, -828351.2, -1122335.9, -44408.25, 0.015274468, 0.20350027, -821789.5, 292641.72, 0.000042609576, 10.002652, 9.998752 
2.0351106e+3, 1.9628288e+2, -845254.25, -1098150.3, -41067.38, 0.023397567, 0.16593124, -838752.56, 177692.72, 0.0, 10.001941, 9.998589 
2.0350818e+3, 2.0628147e+2, -831550.7, -1047515.3, -48303.457, 0.012039951, 0.18017241, -821239.25, 97220.36, 0.0, 10.001389, 9.99853 
2.0350528e+3, 2.162804e+2, -798885.4, -979083.8, -59531.918, -0.014706685, 0.22044049, -780994.25, 39478.164, 0.0, 10.000932, 9.998548 
2.0350234e+3, 2.262793e+2, -721266.3, -770148.9, -77929.57, -0.027930222, 0.205227, -664035.1, 58447.12, 0.0, 10.000271, 9.999627 
2.034994e+3, 2.3627837e+2, -749213.7, -749130.3, -65931.98, -0.030969296, 0.15241766, -683240.0, -58751.484, 0.0, 9.999476, 9.999482 
2.0349646e+3, 2.4627776e+2, -741609.56, -694106.94, -71110.766, -0.029895196, 0.15525301, -642885.8, -116391.27, 0.0, 9.998855, 9.999485 
2.0349354e+3, 2.562776e+2, -715381.25, -626428.1, -87518.0, -0.027946796, 0.19030868, -572733.56, -144235.25, 0.0, 9.998343, 9.999523 
2.0349057e+3, 2.6627773e+2, -621114.44, -389545.5, -84762.75, -0.046244122, 0.1923835, -361835.13, -31339.295, 0.0, 9.997714, 10.000778 
2.034876e+3, 2.762782e+2, -637546.0, -362956.1, -68726.66, -0.075840846, 0.1636041, -346715.2, -114226.79, 0.0, 9.996999, 10.000632 
2.034847e+3, 2.8627852e+2, -602812.1, -280997.75, -56153.195, -0.06748405, 0.13345356, -271481.03, -136996.83, 0.0, 9.996504, 10.00076 
2.0348182e+3, 2.9627913e+2, -559398.7, -219227.42, -70222.71, -0.035183966, 0.12455649, -205301.23, -168823.8, 0.0, 9.996171, 10.000672 
2.0347884e+3, 3.0628e+2, -626006.1, -207198.5, -87463.42, -0.08458939, 0.1425271, -189666.61, -189666.61, 0.0, 9.99529, 10.000849 
2.0347586e+3, 3.1628072e+2, -610518.8, 116386.2, 47643.313, -0.11032596, 0.12652265, 119495.57, 119495.57, 0.0, 9.994049, 10.003662 
2.0453158e+3, 1.2632798e+2, -1028050.06, -1659104.6, -501.42883, 0.0136383, 0.17813145, -1028049.6, 673953.56, 0.19617571, 10.00733, 9.996922 
2.0452873e+3, 1.3632491e+2, -1071912.1, -1694504.5, 25272.842, 0.07398491, 0.21646437, -1070887.9, 533148.06, 0.14076847, 10.005991, 9.996581 
2.0452578e+3, 1.4632156e+2, -948651.7, -1489529.8, 15131.935, 0.007572388, 0.17864285, -948228.7, 557840.06, 0.08472705, 10.005432, 9.99759 
2.0452283e+3, 1.5631935e+2, -852232.6, -1421270.9, 8650.925, -0.02909709, 0.20425543, -852101.1, 555988.0, 0.039645907, 10.005298, 9.997441 
2.0451996e+3, 1.66317e+2, -831493.8, -1336423.8, 12356.867, -0.0098332185, 0.21944696, -831191.56, 478921.22, 0.012783497, 10.004514, 9.997728 
2.045171e+3, 1.763146e+2, -897537.7, -1320591.6, 6635.304, 0.023020752, 0.2104172, -897433.6, 314704.25, 0.0020902196, 10.00335, 9.9977255 
2.0451419e+3, 1.8631262e+2, -824529.4, -1126683.6, -13317.196, 0.027371744, 0.19585566, -823943.56, 290213.16, 0.00004822457, 10.002707, 9.998694 
2.0451128e+3, 1.9631113e+2, -785535.0, -1073259.0, -21765.219, 0.02137903, 0.18005615, -783897.9, 232271.64, 0.0, 10.002371, 9.99855 
2.0450832e+3, 2.0630975e+2, -783534.25, -1016179.8, -24752.42, 0.007234437, 0.1954324, -780929.8, 137253.5, 0.0, 10.001687, 9.9986 
2.0450535e+3, 2.1630862e+2, -815077.44, -980374.6, -15335.645, -0.015152725, 0.22429685, -813666.7, 6529.431, 0.0, 10.000795, 9.998603 
2.0450236e+3, 2.2630748e+2, -736532.9, -778170.6, -39334.473, -0.03069936, 0.20377587, -712847.5, 9358.724, 0.0, 10.000172, 9.999619 
2.0449935e+3, 2.3630653e+2, -715489.56, -733023.56, -52356.348, -0.03950019, 0.14929971, -671171.3, -46958.41, 0.0, 9.999712, 9.999477 
2.0449635e+3, 2.4630597e+2, -708826.94, -676668.8, -45911.523, -0.037123885, 0.15593964, -644102.1, -117883.67, 0.0, 9.999075, 9.999497 
2.0449334e+3, 2.5630587e+2, -716525.6, -626138.7, -29885.465, -0.029190613, 0.19772115, -617151.06, -188929.6, 0.0, 9.998335, 9.999528 
2.0449035e+3, 2.663059e+2, -625044.06, -396151.28, -36580.49, -0.037891705, 0.19190931, -390447.3, -60227.324, 0.0, 9.99771, 10.000733 
2.0448732e+3, 2.7630618e+2, -620196.75, -358798.84, -54326.844, -0.055120077, 0.14983334, -347957.6, -115743.266, 0.0, 9.99714, 10.000591 
2.0448433e+3, 2.8630653e+2, -611255.3, -286610.63, -36319.35, -0.07547431, 0.12639534, -282597.06, -148387.05, 0.0, 9.996455, 10.000744 
2.0448135e+3, 2.963073e+2, -622978.6, -243912.27, -31895.598, -0.09909074, 0.12893796, -241247.23, -205044.61, 0.0, 9.995711, 10.000723 
2.0447841e+3, 3.0630863e+2, -646473.06, -197788.06, -58258.867, -0.032397907, 0.18319559, -190346.94, -190346.94, 0.0, 9.9950695, 10.001018 
2.044753e+3, 3.163087e+2, -589518.44, 85342.125, 87913.336, -0.095899396, 0.096512616, 96606.48, 96606.48, 0.0, 9.994373, 10.00329 
2.0553233e+3, 1.2635806e+2, -1063318.1, -1720311.5, -45457.18, 0.021696348, 0.2003017, -1060187.9, 641521.94, 0.20367056, 10.007307, 9.996448 
2.0552927e+3, 1.363546e+2, -1087534.0, -1732271.4, -11842.805, 0.023136567, 0.23156747, -1087316.5, 516429.56, 0.1464344, 10.006025, 9.996305 
2.0552632e+3, 1.4635092e+2, -953752.06, -1502584.9, 11596.5625, -0.002588149, 0.17677645, -953507.1, 552275.1, 0.08841561, 10.005462, 9.99748 
2.0552339e+3, 1.5634882e+2, -861627.06, -1438703.4, 291.11844, 0.013934482, 0.22618864, -861626.9, 546174.4, 0.04159245, 10.005292, 9.997327 
2.0552044e+3, 1.6634627e+2, -841754.75, -1356614.4, -29995.785, 0.024179542, 0.23305152, -840013.06, 469813.5, 0.0135457795, 10.004508, 9.997594 
2.0551743e+3, 1.7634343e+2, -905772.0, -1341748.6, -31549.563, 0.016076429, 0.19203132, -903500.75, 308354.8, 0.002268348, 10.0033655, 9.997574 
2.0551445e+3, 1.8634143e+2, -836597.9, -1155153.5, -24229.232, 0.0033223128, 0.19482, -834765.56, 279109.56, 0.000056267494, 10.002718, 9.998495 
2.0551148e+3, 1.9634022e+2, -794357.5, -1092254.6, -35235.42, -0.006219723, 0.22760609, -790246.56, 225639.75, 0.0, 10.002371, 9.998422 
2.0550847e+3, 2.0633878e+2, -759197.56, -966613.25, -57077.742, -0.006895405, 0.22172761, -744528.1, 173371.94, 0.0, 10.001688, 9.998941 
2.0550545e+3, 2.1633734e+2, -797221.44, -944542.9, -44997.977, -0.0058151684, 0.18700618, -784564.6, 35349.094, 0.0, 10.000798, 9.99885 
2.0550239e+3, 2.2633629e+2, -760336.1, -829345.4, -55187.38, -0.022785326, 0.18373655, -729754.5, -7830.888, 0.0, 10.000176, 9.999267 
2.0549932e+3, 2.3633565e+2, -731844.0, -768878.3, -69561.97, -0.04867647, 0.19597796, -678376.75, -54447.418, 0.0, 9.999717, 9.99923 
2.0549624e+3, 2.4633516e+2, -676422.94, -611573.75, -73414.98, -0.05709215, 0.19506048, -563741.8, -37808.31, 0.0, 9.999082, 9.999943 
2.0549317e+3, 2.5633496e+2, -692803.9, -579260.56, -56199.848, -0.05598546, 0.18222722, -556148.25, -128213.33, 0.0, 9.998342, 9.999848 
2.0549011e+3, 2.6633468e+2, -660558.44, -471826.78, -57953.945, -0.037620205, 0.16099086, -455451.63, -125514.89, 0.0, 9.997716, 10.000213 
2.0548709e+3, 2.7633455e+2, -646549.0, -417057.4, -77081.95, -0.006935597, 0.13055284, -393570.7, -161633.78, 0.0, 9.997151, 10.000188 
2.0548399e+3, 2.863352e+2, -590592.7, -246890.02, -65516.656, -0.0663963, 0.13885823, -234824.77, -100895.08, 0.0, 9.996466, 10.001013 
2.0548083e+3, 2.9633653e+2, -603960.3, -208316.1, -58722.82, -0.18896271, 0.17060453, -199784.25, -163868.52, 0.0, 9.995725, 10.000963 
2.0547798e+3, 3.0633706e+2, -637198.4, -177830.19, -83275.56, 0.024214871, 0.12582047, -163199.72, -163199.72, 0.0, 9.995067, 10.001157 
2.0547475e+3, 3.1633818e+2, -670368.75, -84599.4, 26806.23, -0.0889592, 0.13579157, -83375.234, -83375.234, 0.0, 9.994376, 10.002125 
2.0653303e+3, 1.2638848e+2, -1130161.3, -1771419.6, -48990.39, 0.036016177, 0.24014209, -1126440.1, 574973.7, 0.21144645, 10.006842, 9.996322 
2.065299e+3, 1.3638473e+2, -943846.44, -1643576.6, 4691.9985, -0.006555098, 0.23563683, -943814.94, 659636.75, 0.152335, 10.007198, 9.996348 
2.065269e+3, 1.463808e+2, -841966.25, -1465815.8, 23185.766, -0.002258381, 0.16572838, -841105.75, 664384.2, 0.09228187, 10.006414, 9.997298 
2.0652393e+3, 1.563787e+2, -912909.3, -1481558.4, 7031.8955, 0.040800117, 0.23334, -912822.3, 494687.22, 0.04365382, 10.005009, 9.997169 
2.065209e+3, 1.6637611e+2, -863916.8, -1364290.8, -13868.545, 0.040148497, 0.24332048, -863532.75, 446002.06, 0.014367414, 10.004343, 9.99762 
2.0651777e+3, 1.7637323e+2, -799377.1, -1290187.5, -3944.8555, 0.0043113497, 0.19650276, -799345.44, 412218.03, 0.0024691618, 10.0041, 9.997574 
2.0651472e+3, 1.8637115e+2, -765685.75, -1141103.8, 6525.1797, -0.010523367, 0.20070426, -765572.4, 348011.88, 0.00006770486, 10.003296, 9.998312 
2.0651169e+3, 1.9636983e+2, -834882.0, -1127153.9, -4322.6294, -0.00961003, 0.23965472, -834818.06, 180779.58, 0.0, 10.002161, 9.998282 
2.0650862e+3, 2.0636837e+2, -778429.0, -958405.2, -30880.03, -0.00628626, 0.2319812, -773278.06, 144333.02, 0.0, 10.001483, 9.999095 
2.0650554e+3, 2.16367e+2, -747871.7, -906314.0, -33478.734, -0.0030608731, 0.18923602, -741088.1, 78534.945, 0.0, 10.001078, 9.998975 
2.0650242e+3, 2.2636598e+2, -727281.25, -819692.3, -34035.848, -0.020565333, 0.18743318, -716098.75, 5533.9507, 0.0, 10.000434, 9.999207 
2.0649926e+3, 2.3636538e+2, -744394.9, -779569.94, -27991.104, -0.049287874, 0.20901966, -728924.5, -105285.74, 0.0, 9.999654, 9.999186 
2.0649612e+3, 2.4636489e+2, -679617.9, -603221.9, -40954.445, -0.060540047, 0.20767434, -585416.75, -59774.12, 0.0, 9.99902, 10.000029 
2.0649299e+3, 2.5636467e+2, -670055.4, -559714.0, -50934.207, -0.062399153, 0.18712783, -539797.44, -112154.1, 0.0, 9.998465, 9.999922 
2.0648986e+3, 2.6636437e+2, -654736.4, -472178.47, -39756.508, -0.043141298, 0.15948306, -463896.25, -134250.6, 0.0, 9.997772, 10.000182 
2.0648679e+3, 2.763642e+2, -669115.25, -429567.8, -23244.215, -0.0061267545, 0.12574443, -427333.2, -195686.25, 0.0, 9.997005, 10.000172 
2.0648362e+3, 2.8636506e+2, -615425.06, -249833.14, -10695.179, -0.0661168, 0.15295717, -249520.53, -115883.016, 0.0, 9.996259, 10.001092 
2.0648037e+3, 2.963667e+2, -635124.94, -214486.58, -18884.58, -0.20026328, 0.21129051, -213640.45, -178020.48, 0.0, 9.995478, 10.001037 
2.064775e+3, 3.063663e+2, -649019.56, -171442.25, -40296.863, 0.04994944, 0.06484282, -168065.97, -168065.97, 0.0, 9.994938, 10.00126 
2.0647417e+3, 3.163679e+2, -653544.4, -99276.67, 22922.771, -0.11127366, 0.11187385, -98330.27, -98330.27, 0.0, 9.994589, 10.001923 
2.0753375e+3, 1.2641919e+2, -1122527.9, -1741620.3, -33901.703, 0.05255129, 0.29418063, -1120677.0, 580438.5, 0.21942098, 10.006865, 9.996514 
2.0753062e+3, 1.3641527e+2, -931807.9, -1599645.6, 9227.454, -0.021831386, 0.23487106, -931680.4, 671472.06, 0.15841407, 10.007182, 9.996663 
2.0752753e+3, 1.4641123e+2, -863751.7, -1503251.4, -24857.412, 0.00201588, 0.1534691, -862786.94, 642404.8, 0.09629496, 10.006402, 9.997023 
2.0752443e+3, 1.5640889e+2, -926025.1, -1512379.1, -36584.27, 0.050751712, 0.22525159, -923751.4, 483463.4, 0.04581705, 10.005025, 9.996951 
2.0752132e+3, 1.6640644e+2, -849147.6, -1336963.5, -21114.55, 0.038531326, 0.2468839, -848235.4, 461003.22, 0.015244545, 10.00436, 9.997802 
2.0751816e+3, 1.7640392e+2, -789848.4, -1270845.1, -15955.829, -0.012704979, 0.22093341, -789319.7, 421942.84, 0.0026922727, 10.004099, 9.997708 
2.0751505e+3, 1.864017e+2, -778901.7, -1168784.0, -35129.668, -0.0162684, 0.21309437, -775761.7, 337523.34, 0.00008301991, 10.003293, 9.998124 
2.0751193e+3, 1.9639984e+2, -845636.06, -1151772.1, -41605.996, 0.008765741, 0.21919295, -840082.25, 175221.95, 0.0, 10.002169, 9.998111 
2.0750879e+3, 2.0639847e+2, -779444.75, -963250.2, -44374.03, 0.007863733, 0.22786857, -769292.75, 148024.45, 0.0, 10.0014925, 9.999059 
2.0750564e+3, 2.1639752e+2, -747780.75, -907207.3, -48716.734, -0.008407142, 0.23074517, -734072.8, 85252.234, 0.0, 10.00108, 9.99897 
2.0750244e+3, 2.2639647e+2, -711485.9, -788429.7, -62164.27, -0.025219278, 0.2150492, -676851.8, 44482.516, 0.0, 10.000438, 9.999421 
2.0749924e+3, 2.3639557e+2, -733697.3, -759006.5, -54756.03, -0.041912936, 0.18694708, -690152.6, -66810.25, 0.0, 9.999658, 9.999327 
2.0749605e+3, 2.4639508e+2, -699120.6, -645448.25, -61157.0, -0.047944795, 0.19292477, -605498.56, -80151.54, 0.0, 9.999024, 9.999738 
2.0749284e+3, 2.5639498e+2, -681975.0, -586773.0, -73083.375, -0.05035298, 0.21363766, -547155.7, -119807.85, 0.0, 9.998471, 9.999734 
2.0748962e+3, 2.6639488e+2, -621600.6, -405552.5, -69359.77, -0.05570667, 0.18898007, -385202.22, -55854.39, 0.0, 9.997778, 10.000638 
2.0748642e+3, 2.7639496e+2, -641434.6, -374867.34, -51409.152, -0.054901265, 0.13470414, -365296.4, -133950.84, 0.0, 9.997014, 10.000545 
2.0748323e+3, 2.8639594e+2, -625086.06, -272221.34, -41283.4, -0.07652297, 0.16775301, -267455.78, -134121.03, 0.0, 9.996265, 10.0009365 
2.0747998e+3, 2.963977e+2, -642480.8, -233343.52, -49570.32, -0.13467109, 0.25070083, -227423.33, -192106.52, 0.0, 9.995489, 10.000904 
2.0747697e+3, 3.0639625e+2, -641655.2, -156400.17, -54356.27, 0.04571216, 0.00011983526, -150385.94, -150385.94, 0.0, 9.994939, 10.001363 
2.074736e+3, 3.1639913e+2, -598536.56, 9580.941, -56517.625, -0.1283106, 0.16030233, 14789.011, 14789.011, 0.0, 9.994605, 10.0026655 
2.0853442e+3, 1.264498e+2, -1038979.2, -1685699.4, -97.489235, 0.025747295, 0.27174163, -1038979.2, 661836.75, 0.2275324, 10.007644, 9.996548 
2.0853132e+3, 1.3644639e+2, -987449.6, -1609269.8, 21314.857, 0.012089752, 0.24439585, -986719.9, 616127.94, 0.16462682, 10.006684, 9.996833 
2.0852819e+3, 1.4644259e+2, -916174.44, -1531108.0, -21899.04, 0.036765076, 0.18136609, -915395.5, 589489.25, 0.10042256, 10.006031, 9.997009 
2.0852496e+3, 1.5644e+2, -845426.3, -1472026.5, -12832.284, 0.0205679, 0.22905521, -845163.6, 561747.1, 0.048061028, 10.005622, 9.996939 
2.0852175e+3, 1.6643745e+2, -771253.75, -1300120.8, 11020.6045, 0.007249374, 0.24454367, -771024.25, 537911.2, 0.016166598, 10.004916, 9.9977865 
2.0851858e+3, 1.7643504e+2, -802119.8, -1278420.0, -702.8068, -0.005560427, 0.22894675, -802118.8, 408839.44, 0.0029343483, 10.0040245, 9.997692 
2.0851538e+3, 1.864328e+2, -776857.2, -1170219.3, -26681.39, -0.0032949145, 0.22390333, -775055.7, 337925.03, 0.00010212097, 10.003319, 9.998102 
2.0851216e+3, 1.9643088e+2, -766282.1, -1115292.5, -20626.307, 0.007874169, 0.22524628, -765067.4, 249933.34, 0.0, 10.002723, 9.998094 
2.0850894e+3, 2.0642945e+2, -709970.0, -929617.3, -10008.813, -0.0023179105, 0.2311752, -709514.8, 207499.06, 0.0, 10.001972, 9.999057 
2.0850572e+3, 2.1642853e+2, -740307.1, -903307.7, -13377.781, -0.025160134, 0.235172, -739216.5, 79804.77, 0.0, 10.001133, 9.998969 
2.0850247e+3, 2.2642748e+2, -715368.4, -787628.56, -37855.41, -0.03643564, 0.21842319, -699168.6, 21861.98, 0.0, 10.000403, 9.999442 
2.084992e+3, 2.3642655e+2, -720348.44, -748987.6, -45072.72, -0.040056057, 0.18553616, -687375.3, -64336.207, 0.0, 9.999738, 9.999355 
2.0849594e+3, 2.4642606e+2, -698560.3, -635771.25, -36908.91, -0.040691435, 0.18656082, -618710.8, -93667.266, 0.0, 9.998991, 9.999819 
2.0849268e+3, 2.5642604e+2, -715384.2, -593122.3, -21754.455, -0.041321825, 0.20550647, -589366.8, -162323.38, 0.0, 9.998203, 9.999819 
2.0848937e+3, 2.6642612e+2, -653691.25, -406175.4, -24751.164, -0.056455508, 0.18982905, -403724.6, -74682.9, 0.0, 9.997497, 10.000769 
2.0848611e+3, 2.7642643e+2, -659917.44, -369736.72, -31279.86, -0.07377794, 0.14877771, -366403.22, -135365.97, 0.0, 9.99683, 10.000667 
2.0848283e+3, 2.864274e+2, -633088.7, -264034.0, -18665.295, -0.08058808, 0.1684014, -263092.38, -130065.81, 0.0, 9.99616, 10.001043 
2.0847957e+3, 2.9642898e+2, -636278.25, -216259.06, -7866.6406, -0.09872967, 0.22771886, -216111.78, -181102.17, 0.0, 9.995472, 10.00103 
2.0847641e+3, 3.0642807e+2, -661478.0, -139248.17, 7280.4785, 0.0062615494, 0.011711288, -139146.69, -139146.69, 0.0, 9.994689, 10.001601 
2.0847303e+3, 3.164313e+2, -690384.56, -17160.84, -19661.768, -0.12920454, 0.18335529, -16587.1, -16587.1, 0.0, 9.993903, 10.002819 
2.095351e+3, 1.2648037e+2, -1051830.9, -1699625.9, -19245.045, -0.04196443, 0.18261284, -1051259.6, 649255.3, 0.23575829, 10.007651, 9.996422 
2.0953208e+3, 1.3647798e+2, -991752.06, -1609796.6, -5542.4087, 0.08759388, 0.26073372, -991702.4, 610836.2, 0.17095128, 10.006687, 9.996828 
2.0952886e+3, 1.4647475e+2, -903526.2, -1497548.4, -34371.715, 0.095568955, 0.24102838, -901543.94, 603026.6, 0.1046396, 10.006034, 9.997244 
2.0952544e+3, 1.5647195e+2, -833892.06, -1445695.8, -27646.607, -0.047834765, 0.24353962, -832645.25, 573953.25, 0.050363295, 10.005627, 9.997119 
2.0952217e+3, 1.6646914e+2, -786622.06, -1332606.0, -20477.893, -0.052795883, 0.23861697, -785855.1, 522770.66, 0.017120248, 10.004918, 9.997563 
2.09519e+3, 1.7646652e+2, -813809.9, -1304364.6, -30696.896, 0.022164363, 0.22357418, -811896.44, 398754.53, 0.003190493, 10.004029, 9.997514 
2.0951575e+3, 1.8646443e+2, -766922.56, -1151392.5, -47306.316, 0.025513316, 0.23374578, -761187.4, 351484.44, 0.00012447778, 10.003324, 9.998231 
2.095124e+3, 1.9646284e+2, -758436.4, -1099580.6, -42358.855, -0.012464488, 0.25552234, -753255.5, 261432.69, 0.0, 10.002722, 9.998203 
2.095091e+3, 2.0646128e+2, -708191.3, -926774.1, -40289.71, -0.036903024, 0.2412513, -701001.5, 215700.63, 0.0, 10.001973, 9.999078 
2.0950581e+3, 2.1645993e+2, -740754.5, -905049.8, -41916.01, -0.05407387, 0.20310271, -730678.56, 88034.086, 0.0, 10.001134, 9.998959 
2.0950249e+3, 2.2645888e+2, -727935.06, -815057.7, -61421.605, -0.05468613, 0.1975998, -696195.6, 24526.85, 0.0, 10.000406, 9.999254 
2.0949917e+3, 2.3645818e+2, -726912.4, -764015.06, -69394.0, -0.04530365, 0.20552807, -673632.8, -50902.74, 0.0, 9.999741, 9.999252 
2.0949583e+3, 2.4645773e+2, -666457.06, -570987.5, -66555.43, -0.039913103, 0.19048522, -536818.5, -12085.353, 0.0, 9.998996, 10.000263 
2.094925e+3, 2.564577e+2, -690001.4, -542652.1, -50599.87, -0.037049964, 0.1612986, -526949.5, -100218.09, 0.0, 9.998209, 10.000164 
2.0948914e+3, 2.6645792e+2, -668040.5, -438122.34, -50540.313, -0.046296977, 0.15935439, -427503.1, -98774.53, 0.0, 9.997502, 10.000547 
2.0948578e+3, 2.7645847e+2, -668317.9, -390601.16, -57093.848, -0.06230687, 0.16496544, -379321.72, -148598.11, 0.0, 9.996841, 10.00052 
2.0948245e+3, 2.864593e+2, -606453.6, -210462.55, -46131.13, -0.07893796, 0.15498348, -205159.5, -72445.23, 0.0, 9.996165, 10.00141 
2.0947911e+3, 2.9646054e+2, -608489.75, -160087.31, -35535.95, -0.09784601, 0.14362997, -157288.56, -122589.37, 0.0, 9.995475, 10.001416 
2.094758e+3, 3.0646166e+2, -637182.8, -90177.73, -26080.598, -0.07120382, 0.093249366, -88937.05, -88937.05, 0.0, 9.994692, 10.001939 
2.0947249e+3, 3.164639e+2, -713531.25, -69816.45, -38780.07, -0.057680756, 0.14092359, -67488.59, -67488.59, 0.0, 9.993921, 10.002449 
2.1053594e+3, 1.2651297e+2, -1014104.4, -1677893.8, 26106.998, 0.0040635793, 0.16677439, -1013079.1, 687115.56, 0.24411811, 10.008061, 9.996418 
2.1053271e+3, 1.3651052e+2, -970805.25, -1601366.9, 37368.848, 0.05368274, 0.24421799, -968598.4, 633620.94, 0.17738175, 10.006929, 9.996772 
2.1052942e+3, 1.4650749e+2, -890846.3, -1498130.9, 18282.355, 0.065980114, 0.25338274, -890296.44, 613953.5, 0.10892454, 10.006196, 9.99716 
2.1052602e+3, 1.5650468e+2, -823388.3, -1445874.5, 3564.6416, -0.027512206, 0.25999478, -823367.9, 582910.94, 0.052700892, 10.005743, 9.99706 
2.1052268e+3, 1.665018e+2, -772820.7, -1327335.6, -1723.8098, -0.035339456, 0.25257605, -772815.3, 535491.44, 0.018090894, 10.005027, 9.997546 
2.1051939e+3, 1.7649911e+2, -796399.44, -1297779.0, 3770.1182, 0.008400493, 0.23406345, -796371.1, 413961.34, 0.003454742, 10.00416, 9.997494 
2.1051607e+3, 1.8649697e+2, -759779.3, -1150415.5, -7155.1797, 0.010496711, 0.24220663, -759648.3, 352705.38, 0.00014922666, 10.0033865, 9.998205 
2.1051267e+3, 1.9649532e+2, -768317.6, -1105574.3, -14952.309, -0.013213674, 0.2620953, -767656.0, 246714.36, 0.0, 10.002663, 9.998189 
2.105093e+3, 2.0649374e+2, -721271.7, -928178.25, -21480.066, -0.0361774, 0.24190952, -719065.25, 197319.22, 0.0, 10.001864, 9.999119 
2.105059e+3, 2.1649233e+2, -753039.75, -906393.25, -21949.34, -0.057890806, 0.19450827, -749960.06, 68435.164, 0.0, 10.001032, 9.998997 
2.1050252e+3, 2.2649133e+2, -740622.1, -815525.56, -24377.227, -0.05582698, 0.19131187, -733387.4, -12982.98, 0.0, 10.000298, 9.999301 
2.1049915e+3, 2.3649079e+2, -740539.9, -762571.7, -16004.572, -0.04013453, 0.21028794, -732126.5, -109715.89, 0.0, 9.999617, 9.99932 
2.1049573e+3, 2.4649039e+2, -668634.6, -550185.6, -21047.27, -0.039213803, 0.18648228, -546556.9, -22144.115, 0.0, 9.99889, 10.000455 
2.1049231e+3, 2.564903e+2, -690047.8, -524808.4, -23725.37, -0.04552551, 0.1362079, -521469.3, -95058.83, 0.0, 9.998135, 10.00032 
2.1048889e+3, 2.6649067e+2, -682560.4, -444948.94, -17098.03, -0.048762947, 0.14191394, -443724.88, -115318.4, 0.0, 9.997404, 10.000547 
2.1048547e+3, 2.764915e+2, -690839.75, -400177.88, -8281.719, -0.052652232, 0.17170632, -399942.1, -169542.13, 0.0, 9.996683, 10.000529 
2.1048206e+3, 2.8649223e+2, -637308.1, -217085.48, -5518.056, -0.075430915, 0.15224124, -217013.03, -84621.77, 0.0, 9.995919, 10.001482 
2.1047863e+3, 2.9649332e+2, -648230.6, -167534.78, -17171.756, -0.09974616, 0.116262004, -166922.14, -132544.4, 0.0, 9.995154, 10.001518 
2.1047522e+3, 3.06495e+2, -620798.7, -31042.514, -13661.565, -0.09794728, 0.097848214, -30726.217, -30726.217, 0.0, 9.994584, 10.002396 
2.104719e+3, 3.1649762e+2, -730610.94, -119493.11, 14150.243, -0.02210824, 0.14250208, -119165.64, -119165.64, 0.0, 9.993987, 10.002074 
2.1153688e+3, 1.2654732e+2, -1017251.7, -1666860.4, 1592.7875, 0.14575239, 0.20974629, -1017247.75, 682610.2, 0.25264248, 10.00805, 9.996527 
2.1153328e+3, 1.3654396e+2, -979128.94, -1615106.5, 5669.064, -0.0809253, 0.19925176, -979078.4, 622812.5, 0.18390784, 10.006951, 9.996664 
2.1152993e+3, 1.4654082e+2, -915491.5, -1554068.8, 3783.9526, -0.043854583, 0.22623704, -915469.06, 588454.1, 0.11324841, 10.006217, 9.996763 
2.1152669e+3, 1.5653807e+2, -844068.25, -1489924.9, -12829.449, 0.071484335, 0.2793948, -843813.5, 562139.0, 0.05504724, 10.005747, 9.9967575 
2.1152326e+3, 1.6653529e+2, -761728.2, -1303147.1, -32021.594, 0.049999803, 0.28417492, -759840.9, 548138.9, 0.019063001, 10.005026, 9.997715 
2.1151975e+3, 1.765327e+2, -787678.4, -1280512.4, -26118.334, -0.045089148, 0.25800785, -786298.06, 423705.97, 0.00372091, 10.004162, 9.997613 
2.1151634e+3, 1.8653034e+2, -771688.94, -1176461.8, -32843.23, -0.046079997, 0.24873228, -769041.4, 342985.94, 0.00017539466, 10.003389, 9.998027 
2.1151297e+3, 1.965283e+2, -777844.6, -1126450.4, -40477.254, 0.0037527129, 0.2470268, -773206.5, 240841.45, 0.00000000000010610821, 10.002665, 9.998047 
2.115095e+3, 2.0652673e+2, -717541.2, -922016.7, -51014.39, -0.0021215181, 0.23393524, -705520.4, 210541.38, 0.0, 10.001868, 9.999161 
2.1150601e+3, 2.165256e+2, -747868.0, -896113.4, -50259.863, -0.03863692, 0.2096486, -732434.94, 85634.88, 0.0, 10.001031, 9.99907 
2.1150257e+3, 2.2652476e+2, -721389.75, -776786.4, -48510.215, -0.041434593, 0.20133084, -693227.2, 26849.959, 0.0, 10.000299, 9.999568 
2.114991e+3, 2.3652424e+2, -723936.0, -730200.44, -40711.31, -0.025846308, 0.19890091, -686236.6, -64154.703, 0.0, 9.999622, 9.999541 
2.1149561e+3, 2.4652389e+2, -672973.75, -560868.94, -49225.56, -0.039555956, 0.17189662, -542322.25, -18238.443, 0.0, 9.998895, 10.0003805 
2.1149209e+3, 2.565238e+2, -692051.06, -531364.94, -52035.348, -0.06826094, 0.12928936, -515986.06, -89904.1, 0.0, 9.998142, 10.000274 
2.114886e+3, 2.665243e+2, -666023.8, -413130.63, -44957.43, -0.06483061, 0.14005117, -405376.22, -77299.93, 0.0, 9.997412, 10.000764 
2.1148513e+3, 2.7652532e+2, -677600.75, -375583.0, -36772.35, -0.048472106, 0.17126045, -371170.22, -141103.3, 0.0, 9.996692, 10.000696 
2.1148165e+3, 2.8652608e+2, -654038.44, -252914.5, -35792.023, -0.072434604, 0.15875489, -249745.83, -117687.19, 0.0, 9.995922, 10.001236 
2.1147813e+3, 2.965271e+2, -661151.1, -197048.42, -43430.75, -0.10158471, 0.1382965, -193019.16, -158972.11, 0.0, 9.995162, 10.001313 
2.114747e+3, 3.0652815e+2, -581214.2, 48455.004, -36791.59, -0.07423482, 0.03327882, 50597.445, 50597.445, 0.0, 9.994593, 10.002939 
2.1147124e+3, 3.1653216e+2, -755316.06, -172940.47, 42053.918, -0.07203732, 0.16693632, -169919.39, -169919.39, 0.0, 9.993997, 10.001702 
2.1253769e+3, 1.2658213e+2, -1023729.8, -1684118.4, 28930.957, 0.13807791, 0.21750678, -1022464.8, 677051.8, 0.26131234, 10.008164, 9.996313 
2.1253398e+3, 1.3657852e+2, -917322.44, -1607970.4, 10141.389, -0.08177438, 0.21579853, -917173.56, 684379.6, 0.19048508, 10.007662, 9.996369 
2.1253057e+3, 1.4657523e+2, -839759.8, -1509807.0, 20585.418, -0.054448683, 0.23918314, -839128.0, 664458.94, 0.117565006, 10.006826, 9.996772 
2.1252725e+3, 1.5657236e+2, -834745.0, -1485365.5, 30936.258, 0.071744785, 0.28007472, -833277.3, 572339.3, 0.057371277, 10.005833, 9.996746 
2.1252376e+3, 1.6656949e+2, -774961.4, -1322144.1, 8164.1567, 0.05365803, 0.28356075, -774839.6, 532805.3, 0.020021526, 10.004996, 9.997596 
2.1252017e+3, 1.7656682e+2, -781309.7, -1286385.1, -6416.42, -0.045579586, 0.2619389, -781228.2, 428442.44, 0.003983623, 10.004249, 9.997529 
2.1251668e+3, 1.8656453e+2, -754741.3, -1156321.1, -6631.4385, -0.047825392, 0.258405, -754631.8, 357061.2, 0.00020211155, 10.003457, 9.998132 
2.1251321e+3, 1.9656263e+2, -774912.25, -1115985.3, 4231.842, 0.0038879563, 0.26151392, -774859.75, 238851.9, 0.0000000000129771185, 10.002647, 9.998126 
2.1250969e+3, 2.06561e+2, -724289.56, -931547.94, -5103.366, 0.006619559, 0.24296871, -724164.0, 191562.11, 0.0, 10.001852, 9.999102 
2.1250613e+3, 2.1655974e+2, -745406.06, -897818.06, -11864.009, -0.018459909, 0.2102936, -744488.1, 73247.914, 0.0, 10.001064, 9.99904 
2.1250258e+3, 2.2655894e+2, -707373.7, -754356.44, -14608.636, -0.027106838, 0.20253633, -703201.75, 16540.734, 0.0, 10.000332, 9.999704 
2.1249905e+3, 2.3655859e+2, -714636.94, -712527.7, -17981.373, -0.026434597, 0.20269637, -695570.0, -73824.73, 0.0, 9.999632, 9.999657 
2.1249548e+3, 2.4655831e+2, -681973.9, -563764.9, -29353.145, -0.043207787, 0.17855667, -556877.3, -33130.8, 0.0, 9.998829, 10.000391 
2.124919e+3, 2.5655827e+2, -716003.7, -539308.4, -24998.143, -0.06812352, 0.14197999, -535839.8, -110095.34, 0.0, 9.997966, 10.000302 
2.1248832e+3, 2.665588e+2, -679162.94, -406194.06, -14579.805, -0.06607708, 0.14531048, -405417.53, -77679.04, 0.0, 9.997268, 10.000879 
2.1248479e+3, 2.7655974e+2, -677105.75, -364621.44, -16306.898, -0.053798866, 0.15795554, -363772.78, -134043.63, 0.0, 9.996653, 10.000789 
2.124812e+3, 2.8656062e+2, -674257.9, -264282.0, -14052.792, -0.08300259, 0.1552508, -263800.88, -132080.92, 0.0, 9.995793, 10.001218 
2.1247761e+3, 2.96562e+2, -715873.06, -229558.7, -759.0127, -0.11641494, 0.17277016, -229557.53, -195851.75, 0.0, 9.994818, 10.001253 
2.124742e+3, 3.0656233e+2, -640622.44, -8329.718, -9918.541, -0.021311391, 0.01715415, -8174.167, -8174.167, 0.0, 9.9943075, 10.0026865 
2.1247064e+3, 3.1656623e+2, -759136.5, -137107.56, 28953.252, -0.07727582, 0.15693544, -135762.8, -135762.8, 0.0, 9.993809, 10.002038 
2.1353835e+3, 1.2661742e+2, -1055135.1, -1753478.5, 18540.932, 0.0033125698, 0.19619831, -1054643.3, 644527.7, 0.2700187, 10.008196, 9.995789 
2.1353486e+3, 1.3661411e+2, -951121.4, -1681170.1, -5897.424, 0.034547314, 0.28809094, -951073.7, 650133.44, 0.19702642, 10.007659, 9.99587 
2.1353133e+3, 1.4661059e+2, -820193.06, -1461195.8, -11050.119, 0.019821636, 0.28678656, -820002.6, 683239.8, 0.12181726, 10.006821, 9.9971485 
2.1352774e+3, 1.5660742e+2, -818060.5, -1448457.8, -1990.3192, -0.019497095, 0.26265776, -818054.2, 587218.0, 0.059644204, 10.005842, 9.996995 
2.135242e+3, 1.6660431e+2, -801161.0, -1380288.8, -17974.254, -0.017551288, 0.25372383, -800603.7, 506699.47, 0.020955173, 10.005009, 9.997193 
2.1352063e+3, 1.7660141e+2, -800085.9, -1327542.9, -32475.877, 0.0021468683, 0.24882688, -798093.8, 411238.9, 0.0042391666, 10.004255, 9.997245 
2.1351704e+3, 1.8659946e+2, -729395.7, -1105225.8, -35180.066, -0.00022919041, 0.27173543, -726130.94, 385220.66, 0.00022873028, 10.00346, 9.998482 
2.1351345e+3, 1.9659822e+2, -755904.8, -1076929.0, -24062.99, -0.013026819, 0.30469468, -754111.1, 259251.7, 0.0000000000136278775, 10.002646, 9.998396 
2.1350986e+3, 2.0659643e+2, -735454.44, -955782.0, -33272.684, -0.009588071, 0.26919597, -730539.4, 184839.3, 0.0, 10.001853, 9.998937 
2.1350625e+3, 2.1659459e+2, -754269.9, -918057.75, -38835.066, 0.0016099669, 0.1956077, -745528.44, 71866.414, 0.0, 10.001068, 9.998901 
2.1350263e+3, 2.2659378e+2, -707181.2, -755869.7, -39427.54, -0.01383649, 0.192829, -685187.8, 34213.89, 0.0, 10.000337, 9.999693 
2.13499e+3, 2.3659372e+2, -714093.7, -712878.7, -43869.17, -0.043074705, 0.22243886, -669612.8, -48210.984, 0.0, 9.999635, 9.999655 
2.1349536e+3, 2.4659358e+2, -675154.06, -551239.4, -61860.258, -0.05075336, 0.20972708, -525644.44, -2242.6174, 0.0, 9.998833, 10.000477 
2.134917e+3, 2.5659364e+2, -708864.25, -526902.8, -56047.063, -0.04648533, 0.17466743, -511024.9, -85625.75, 0.0, 9.9979725, 10.000386 
2.1348806e+3, 2.66594e+2, -677739.44, -405188.97, -38520.0, -0.054300647, 0.15566866, -399849.47, -72454.95, 0.0, 9.997273, 10.000885 
2.1348442e+3, 2.7659458e+2, -673764.9, -361073.94, -42827.324, -0.07045525, 0.12923552, -355314.22, -125926.15, 0.0, 9.996664, 10.000809 
2.1348076e+3, 2.865957e+2, -659587.75, -236583.44, -53299.063, -0.10724244, 0.14026836, -229971.05, -98594.555, 0.0, 9.995801, 10.001407 
2.1347705e+3, 2.965978e+2, -710259.06, -220514.95, -33373.727, -0.14731044, 0.2167156, -218251.16, -184895.8, 0.0, 9.994825, 10.001314 
2.134737e+3, 3.0659762e+2, -713525.2, -158700.72, -23889.447, 0.057312153, 0.05912714, -157674.0, -157674.0, 0.0, 9.994303, 10.001657 
2.1346997e+3, 3.1659973e+2, -682738.9, 21142.857, -4104.346, -0.1047938, 0.11105407, 21166.79, 21166.79, 0.0, 9.993806, 10.003128 
2.1453916e+3, 1.266538e+2, -965090.8, -1700165.3, 31101.64, -0.061266556, 0.20309247, -963777.25, 735037.75, 0.27857578, 10.009176, 9.995682 
2.1453567e+3, 1.3665044e+2, -961286.3, -1700853.9, 36207.813, 0.075887874, 0.30548626, -959517.9, 641333.9, 0.20341429, 10.007688, 9.995722 
2.1453203e+3, 1.4664654e+2, -834519.3, -1478181.6, 33187.69, 0.045041468, 0.28264868, -832812.7, 670077.7, 0.12594268, 10.006795, 9.997026 
2.1452832e+3, 1.5664321e+2, -775929.4, -1436425.0, 11664.43, -0.03994361, 0.2534629, -775723.44, 629198.1, 0.06183831, 10.006209, 9.9969 
2.1452469e+3, 1.6664013e+2, -746189.6, -1350264.1, 974.52325, -0.03244448, 0.25232682, -746188.06, 560764.0, 0.02185404, 10.00539, 9.997213 
2.1452107e+3, 1.7663737e+2, -770127.8, -1311307.3, 14606.148, 0.017717302, 0.2580997, -769733.9, 439246.6, 0.0044848397, 10.004459, 9.997256 
2.1451741e+3, 1.8663532e+2, -716787.3, -1098651.3, 5812.5615, 0.015218516, 0.27121684, -716698.9, 394301.25, 0.00025483372, 10.003549, 9.998483 
2.1451372e+3, 1.9663388e+2, -755122.5, -1075980.1, -7866.401, -0.0135802515, 0.2863103, -754929.75, 258083.13, 0.000000000027357056, 10.002653, 9.998397 
2.1451004e+3, 2.0663221e+2, -732030.3, -954530.06, -14959.085, -0.013881659, 0.26234695, -731029.06, 183998.9, 0.0, 10.001882, 9.99893 
2.1450634e+3, 2.1663058e+2, -738804.9, -910492.75, -11208.836, 0.00027541353, 0.21299943, -738076.2, 78966.29, 0.0, 10.001176, 9.998899 
2.1450266e+3, 2.2662975e+2, -717651.8, -753959.44, -8905.201, -0.0145693105, 0.20391756, -715585.25, 3464.4443, 0.0, 10.0002365, 9.999753 
2.1449892e+3, 2.3662955e+2, -777579.5, -737319.94, -6895.303, -0.044064354, 0.21384865, -736171.75, -115120.86, 0.0, 9.999175, 9.999706 
2.1449521e+3, 2.466295e+2, -722180.94, -575471.0, -19436.525, -0.048536852, 0.20928212, -572939.6, -49889.35, 0.0, 9.99852, 10.00046 
2.144915e+3, 2.5662977e+2, -693324.6, -517896.22, -22849.102, -0.04006252, 0.19459455, -514969.03, -89922.445, 0.0, 9.9980755, 10.000397 
2.1448779e+3, 2.666301e+2, -676071.56, -390604.16, -8135.467, -0.046967536, 0.17127842, -390372.5, -63331.113, 0.0, 9.997228, 10.001006 
2.1448408e+3, 2.7663067e+2, -740871.25, -382871.6, -2900.1296, -0.059076086, 0.13060233, -382848.1, -153813.69, 0.0, 9.996161, 10.000899 
2.1448033e+3, 2.8663173e+2, -689954.75, -251414.75, -13155.129, -0.10203036, 0.13405775, -251020.48, -119997.09, 0.0, 9.995597, 10.001402 
2.1447654e+3, 2.9663372e+2, -644064.56, -192839.75, -7980.2124, -0.16823459, 0.1986415, -192698.66, -159694.55, 0.0, 9.9953, 10.001274 
2.1447317e+3, 3.0663413e+2, -715963.56, -212054.7, 19856.049, 0.08407537, 0.12573099, -211273.52, -211273.52, 0.0, 9.994514, 10.001185 
2.1446931e+3, 3.1663525e+2, -716632.56, 61533.855, 29506.377, -0.1172963, 0.12637779, 62651.07, 62651.07, 0.0, 9.993338, 10.003628 
2.1554007e+3, 1.2669112e+2, -965735.4, -1676261.4, -11043.521, -0.06445467, 0.23251404, -965563.75, 732886.44, 0.28678727, 10.009131, 9.995924 
2.155364e+3, 1.3668743e+2, -955903.6, -1678279.0, -3925.052, 0.046858292, 0.27424678, -955882.3, 644605.5, 0.20952524, 10.007706, 9.995866 
2.1553266e+3, 1.4668308e+2, -869356.1, -1557931.8, 15644.47, 0.024087222, 0.23389715, -869000.9, 633530.44, 0.1298756, 10.006821, 9.996446 
2.1552898e+3, 1.5667967e+2, -803700.6, -1497053.3, -8667.645, 0.0029440073, 0.2532946, -803592.25, 600973.1, 0.06392385, 10.006215, 9.996482 
2.1552524e+3, 1.666769e+2, -720028.7, -1294310.4, -31509.338, 0.0024271612, 0.27727172, -718305.0, 588287.5, 0.02270772, 10.005388, 9.9976015 
2.1552151e+3, 1.7667454e+2, -750966.0, -1272063.6, -18399.412, 0.0024096395, 0.28805143, -750317.1, 458298.06, 0.004718555, 10.00446, 9.997527 
2.1551774e+3, 1.8667199e+2, -739963.75, -1148534.3, -26292.346, 0.00000827454, 0.25742966, -738278.75, 372361.0, 0.00028024003, 10.003552, 9.99814 
2.1551399e+3, 1.966696e+2, -772173.5, -1113679.8, -38260.066, 0.00043761407, 0.20879321, -767939.6, 244722.98, 0.00000000007381513, 10.00266, 9.998137 
2.1551023e+3, 2.0666826e+2, -722237.44, -935999.06, -39594.254, -0.008043585, 0.22330767, -715139.25, 199535.58, 0.0, 10.001886, 9.999057 
2.1550645e+3, 2.1666765e+2, -730431.8, -892988.5, -37594.53, -0.02285806, 0.2634661, -722158.44, 94521.53, 0.0, 10.001172, 9.999023 
2.1550266e+3, 2.2666676e+2, -709505.2, -737443.56, -47463.207, -0.029507788, 0.23742543, -673998.2, 44689.133, 0.0, 10.000236, 9.999869 
2.1549885e+3, 2.3666595e+2, -771034.0, -725484.1, -41988.504, -0.030730687, 0.17549513, -700491.6, -79797.99, 0.0, 9.99918, 9.999787 
2.1549506e+3, 2.466659e+2, -730389.7, -594556.6, -35842.473, -0.038066015, 0.17426394, -585679.0, -62985.55, 0.0, 9.998526, 10.000328 
2.1549128e+3, 2.5666645e+2, -696929.25, -528512.25, -43292.313, -0.050963562, 0.20149907, -518035.5, -93347.64, 0.0, 9.998085, 10.00032 
2.154875e+3, 2.666671e+2, -657609.4, -354740.97, -49744.938, -0.04407043, 0.19295456, -346779.8, -20099.816, 0.0, 9.997235, 10.00125 
2.1548371e+3, 2.7666795e+2, -729447.6, -359921.25, -39475.11, -0.019468749, 0.16039492, -355751.34, -127082.125, 0.0, 9.996161, 10.00106 
2.1547991e+3, 2.8666866e+2, -705971.4, -285565.13, -24728.191, -0.06838089, 0.13823932, -284115.63, -153454.14, 0.0, 9.995598, 10.001168 
2.1547605e+3, 2.966697e+2, -652032.6, -215326.47, -24043.24, -0.18205746, 0.12599832, -214006.73, -181354.28, 0.0, 9.995322, 10.00111 
2.1547258e+3, 3.0667147e+2, -706953.44, -197867.0, -23400.633, 0.056742143, 0.19418216, -196793.63, -196793.63, 0.0, 9.99453, 10.001278 
2.1546865e+3, 3.1667238e+2, -726087.0, 37620.875, -90703.445, -0.11594151, 0.16602412, 48245.656, 48245.656, 0.0, 9.993345, 10.003466 
2.1654095e+3, 1.2672901e+2, -1042267.5, -1705967.6, 4594.9497, -0.049627207, 0.24461348, -1042235.7, 655844.1, 0.29449815, 10.008427, 9.995999 
2.1653718e+3, 1.3672525e+2, -862909.1, -1604306.6, 10302.656, 0.017926566, 0.26513532, -862766.0, 737350.44, 0.2152482, 10.0085, 9.995991 
2.1653335e+3, 1.4672075e+2, -777975.25, -1526597.4, 34973.777, -0.0052490486, 0.21474744, -776344.9, 725816.56, 0.13354976, 10.007661, 9.996255 
2.1652961e+3, 1.5671736e+2, -802708.75, -1514002.6, 35724.246, 0.02773491, 0.25548324, -800919.0, 603277.06, 0.06586948, 10.006312, 9.996318 
2.1652581e+3, 1.6671455e+2, -727219.9, -1294766.3, 11419.656, 0.024826605, 0.2822633, -726990.2, 579233.44, 0.023505706, 10.005333, 9.997623 
2.1652192e+3, 1.7671211e+2, -736467.44, -1264431.3, -511.74225, -0.009872977, 0.28305107, -736466.94, 471779.9, 0.0049384222, 10.004562, 9.997528 
2.1651809e+3, 1.8670951e+2, -724172.75, -1154559.3, -8448.02, -0.0119621605, 0.25562453, -724007.0, 386265.13, 0.00030483707, 10.003724, 9.998014 
2.1651426e+3, 1.9670707e+2, -751361.06, -1114386.9, -6586.481, 0.0076721446, 0.21747458, -751241.56, 261054.13, 0.000000000201105, 10.0028515, 9.998038 
2.165104e+3, 2.067057e+2, -724910.9, -930187.75, -6746.8447, -0.0033103512, 0.22935192, -724689.4, 189619.02, 0.0, 10.00184, 9.999117 
2.1650653e+3, 2.1670508e+2, -786072.5, -912802.5, -9727.819, -0.032009203, 0.26132575, -785330.1, 30983.455, 0.0, 10.000764, 9.999082 
2.1650267e+3, 2.2670427e+2, -734077.75, -749596.4, -22781.195, -0.03656352, 0.24142231, -717770.7, 549.6465, 0.0, 10.000072, 9.999863 
2.164988e+3, 2.3670357e+2, -712740.75, -695796.3, -26328.857, -0.026384214, 0.19162714, -676610.1, -56284.355, 0.0, 9.999577, 9.999799 
2.1649492e+3, 2.467035e+2, -703646.7, -570308.8, -11421.725, -0.032315657, 0.18396617, -569337.5, -47012.086, 0.0, 9.998662, 10.000427 
2.1649106e+3, 2.5670397e+2, -770772.4, -554139.06, -1357.8799, -0.049987648, 0.19510344, -554130.56, -129810.55, 0.0, 9.997538, 10.000407 
2.1648721e+3, 2.6670465e+2, -703217.6, -376711.66, -12132.265, -0.046537578, 0.18579215, -376261.47, -49949.492, 0.0, 9.996924, 10.001247 
2.1648335e+3, 2.7670562e+2, -669771.94, -330763.78, -20189.902, -0.020452082, 0.16494334, -329565.6, -101265.17, 0.0, 9.996572, 10.001061 
2.164795e+3, 2.8670648e+2, -680531.56, -270398.03, 3417.1282, -0.049283743, 0.15401915, -270369.56, -140078.03, 0.0, 9.995762, 10.001192 
2.1647559e+3, 2.9670742e+2, -750102.25, -261288.8, 20073.607, -0.14540072, 0.13437141, -260465.83, -228182.84, 0.0, 9.994647, 10.001119 
2.1647196e+3, 3.0670902e+2, -779056.3, -208165.81, 29591.766, -0.0014090177, 0.17377837, -206636.05, -206636.05, 0.0, 9.993936, 10.001491 
2.1646796e+3, 3.1671008e+2, -673476.4, 40651.914, -64737.08, -0.13509616, 0.13717608, 46473.0, 46473.0, 0.0, 9.993806, 10.003263 
2.1754181e+3, 1.267674e+2, -1052707.8, -1719251.0, 1064.2074, -0.022119207, 0.24029744, -1052706.0, 644998.3, 0.30160886, 10.008432, 9.995907 
2.1753798e+3, 1.3676387e+2, -865118.75, -1592898.8, 7614.1245, -0.012403007, 0.27554154, -865039.06, 734699.3, 0.22050397, 10.008472, 9.996095 
2.1753408e+3, 1.4675947e+2, -775755.5, -1509466.8, -8299.262, -0.04302407, 0.22140151, -775661.6, 726120.25, 0.13691515, 10.007635, 9.996386 
2.1753025e+3, 1.5675615e+2, -801616.75, -1508251.1, -7451.1113, 0.03473529, 0.25962907, -801538.2, 602276.9, 0.067652546, 10.006306, 9.996362 
2.1752635e+3, 1.66753e+2, -749139.1, -1341562.5, -15261.763, 0.03411635, 0.26938248, -748746.2, 557100.2, 0.024241494, 10.005335, 9.997301 
2.1752237e+3, 1.7675e+2, -753355.9, -1301404.4, -27912.643, -0.020194657, 0.24606457, -751937.94, 455938.13, 0.005143482, 10.004567, 9.997274 
2.1751843e+3, 1.8674779e+2, -719214.1, -1145574.9, -39053.164, -0.02191212, 0.2654042, -715666.5, 394231.53, 0.00032857415, 10.003726, 9.998076 
2.1751453e+3, 1.9674623e+2, -748652.1, -1108844.1, -38280.55, 0.007934633, 0.30905393, -744628.7, 267284.84, 0.0000000007393769, 10.002849, 9.998079 
2.1751057e+3, 2.0674446e+2, -725705.6, -933018.9, -45593.434, 0.000036360663, 0.2788335, -716121.56, 197808.31, 0.0, 10.001842, 9.999099 
2.1750659e+3, 2.1674277e+2, -787385.5, -917900.75, -44612.13, -0.029244632, 0.20633234, -773593.75, 42350.78, 0.0, 10.000771, 9.999045 
2.1750267e+3, 2.2674216e+2, -742121.56, -768596.56, -39623.5, -0.037506826, 0.215826, -713582.8, 4367.0366, 0.0, 10.000078, 9.999731 
2.1749873e+3, 2.367423e+2, -716009.0, -704285.5, -47704.83, -0.03212126, 0.26385057, -662083.6, -42135.383, 0.0, 9.999579, 9.999741 
2.174948e+3, 2.4674225e+2, -680279.06, -523180.28, -54273.855, -0.031530075, 0.23956464, -506253.7, 15693.346, 0.0, 9.998665, 10.0007515 
2.1749082e+3, 2.5674227e+2, -754594.75, -521442.66, -39331.344, -0.038760867, 0.17399538, -514986.47, -91042.39, 0.0, 9.997539, 10.000633 
2.1748686e+3, 2.667427e+2, -722131.75, -417305.56, -25533.197, -0.05678621, 0.147768, -415181.63, -89243.03, 0.0, 9.996927, 10.00097 
2.1748295e+3, 2.7674356e+2, -678231.7, -353778.03, -37136.152, -0.06646595, 0.14315876, -349581.78, -121652.33, 0.0, 9.996592, 10.000895 
2.1747905e+3, 2.86745e+2, -656950.56, -225791.48, -41321.773, -0.04689583, 0.18089354, -221866.98, -91952.266, 0.0, 9.995777, 10.001493 
2.1747512e+3, 2.9674688e+2, -738114.06, -235743.03, -23530.748, -0.05828619, 0.2246023, -234643.27, -202746.88, 0.0, 9.99464, 10.0013 
2.1747124e+3, 3.0674663e+2, -763478.0, -173530.6, 16599.035, -0.09151533, 0.06412623, -173063.92, -173063.92, 0.0, 9.993923, 10.001736 
2.1746738e+3, 3.1675014e+2, -681282.06, 16730.32, -73672.34, -0.092820525, 0.23740688, 24421.39, 24421.39, 0.0, 9.9938345, 10.003087 
2.185427e+3, 1.2680659e+2, -1004703.8, -1687763.3, 13276.266, -0.011965762, 0.24626197, -1004445.9, 692875.06, 0.3080737, 10.008976, 9.995888 
2.1853879e+3, 1.3680318e+2, -935517.1, -1617902.0, 29218.303, -0.0026907963, 0.28377753, -934268.4, 665085.25, 0.22525764, 10.007826, 9.996224 
2.185348e+3, 1.4679892e+2, -851117.6, -1534962.3, 3888.9333, -0.04809445, 0.23073491, -851095.5, 650299.8, 0.13994943, 10.006992, 9.996517 
2.1853086e+3, 1.5679559e+2, -797298.3, -1496374.9, 5660.981, 0.021554762, 0.25610656, -797252.44, 606175.75, 0.06926271, 10.00631, 9.996439 
2.1852686e+3, 1.6679241e+2, -737065.1, -1348932.8, 13094.005, 0.029248456, 0.26604983, -736785.06, 568675.06, 0.024912262, 10.005485, 9.997177 
2.1852283e+3, 1.7678936e+2, -757720.4, -1314213.1, 12731.417, -0.010047671, 0.2507133, -757429.25, 450061.56, 0.005333467, 10.004587, 9.997175 
2.185188e+3, 1.8678714e+2, -728924.56, -1146917.6, 1610.9792, -0.016631925, 0.27307096, -728918.4, 380594.56, 0.0003514264, 10.003649, 9.998103 
2.185148e+3, 1.9678561e+2, -770049.6, -1117794.1, -238.2167, -0.001112351, 0.3171882, -770049.5, 241478.58, 0.000000002893483, 10.0027, 9.998087 
2.1851076e+3, 2.0678376e+2, -716201.7, -940606.75, -9959.149, -0.008375036, 0.2861266, -715760.56, 197784.69, 0.0, 10.001964, 9.998986 
2.185067e+3, 2.1678194e+2, -712315.06, -891660.0, -16421.21, -0.029586552, 0.21174556, -710823.9, 104737.53, 0.0, 10.001332, 9.998954 
2.1850266e+3, 2.267813e+2, -701873.1, -747941.5, -6197.4956, -0.0398228, 0.22255182, -701054.0, 16513.053, 0.0, 10.000352, 9.99974 
2.1849866e+3, 2.367815e+2, -771855.0, -730636.7, -4667.997, -0.04104073, 0.2743535, -730114.7, -110549.62, 0.0, 9.999197, 9.999742 
2.1849462e+3, 2.467814e+2, -711814.3, -541816.06, -24745.758, -0.033782437, 0.24873056, -538287.2, -16722.965, 0.0, 9.9984665, 10.000718 
2.184906e+3, 2.5678134e+2, -698422.0, -496902.53, -35970.49, -0.02685459, 0.17935866, -490674.4, -67112.43, 0.0, 9.997938, 10.000608 
2.1848658e+3, 2.6678178e+2, -705842.1, -405786.03, -12074.714, -0.0544015, 0.15453681, -405300.9, -79744.57, 0.0, 9.9970255, 10.000999 
2.1848257e+3, 2.7678266e+2, -772706.2, -397066.75, -244.06226, -0.08717332, 0.14993261, -397066.6, -169519.55, 0.0, 9.995936, 10.000912 
2.1847862e+3, 2.867841e+2, -715160.94, -254430.69, -15148.638, -0.048880186, 0.18706441, -253933.14, -124400.516, 0.0, 9.995383, 10.001484 
2.1847463e+3, 2.9678613e+2, -674919.94, -200582.3, -26021.965, -0.013987673, 0.2473618, -199159.0, -167645.92, 0.0, 9.995058, 10.001338 
2.1847056e+3, 3.0678576e+2, -731328.0, -139210.03, 14148.675, -0.14705358, 0.06187507, -138872.14, -138872.14, 0.0, 9.994063, 10.0019045 
2.1846673e+3, 3.1678975e+2, -794661.0, -17267.482, -44138.563, -0.09951009, 0.26839277, -14769.428, -14769.428, 0.0, 9.9929695, 10.00327 
2.1954358e+3, 1.2684642e+2, -1014404.3, -1686614.6, -23706.174, -0.02216797, 0.2531774, -1013569.3, 683361.9, 0.31392062, 10.008918, 9.995927 
2.1953963e+3, 1.3684317e+2, -933586.7, -1597410.8, -46.151756, 0.03995031, 0.29112807, -933586.7, 665375.9, 0.22953254, 10.007801, 9.996377 
2.1953553e+3, 1.4683908e+2, -847223.7, -1519990.5, -16739.613, -0.027308973, 0.2437608, -846807.44, 654194.9, 0.14266461, 10.006984, 9.996627 
2.1953145e+3, 1.5683563e+2, -792339.75, -1482692.8, -17842.99, -0.0117484005, 0.24544944, -791878.94, 611157.2, 0.07070294, 10.006304, 9.996538 
2.195274e+3, 1.6683266e+2, -735181.75, -1343713.5, -18473.898, 0.010494885, 0.27102897, -734621.44, 570444.4, 0.025518151, 10.005479, 9.997217 
2.1952331e+3, 1.7683004e+2, -756477.44, -1311092.8, -19645.467, 0.018420845, 0.29396722, -755782.44, 451310.03, 0.005508532, 10.004582, 9.997201 
2.1951918e+3, 1.8682744e+2, -729915.0, -1149981.4, -32653.652, 0.001614567, 0.27867445, -727391.8, 381726.06, 0.00037344254, 10.00365, 9.998084 
2.1951504e+3, 1.9682513e+2, -771930.06, -1124080.1, -32087.531, -0.020733709, 0.24598883, -769030.1, 242109.92, 0.000000010094747, 10.002707, 9.998043 
2.1951091e+3, 2.0682351e+2, -729747.06, -971029.56, -31990.66, -0.02908074, 0.2538782, -725577.56, 187577.77, 0.0, 10.00197, 9.998776 
2.1950682e+3, 2.1682246e+2, -722801.4, -914320.6, -41244.184, -0.03327777, 0.27717817, -714297.0, 100868.24, 0.0, 10.001333, 9.998799 
2.1950269e+3, 2.2682156e+2, -692094.1, -728750.2, -48437.566, -0.043744776, 0.2606368, -658633.06, 58539.855, 0.0, 10.000354, 9.999872 
2.1949856e+3, 2.3682097e+2, -768861.75, -725930.25, -42902.355, -0.05503921, 0.22155517, -699423.2, -80245.9, 0.0, 9.9992, 9.999775 
2.1949446e+3, 2.468208e+2, -739905.7, -602075.75, -44405.434, -0.040761203, 0.2109985, -589008.3, -67830.13, 0.0, 9.998471, 10.000303 
2.1949041e+3, 2.5682104e+2, -716600.06, -538397.75, -60239.41, -0.016154619, 0.21300542, -519945.16, -96770.3, 0.0, 9.997951, 10.000319 
2.1948628e+3, 2.6682177e+2, -680042.3, -354908.03, -55619.6, -0.03941926, 0.20828894, -345656.63, -20490.428, 0.0, 9.997034, 10.001348 
2.1948215e+3, 2.768228e+2, -759208.44, -368357.34, -36874.61, -0.081239715, 0.18732187, -364908.84, -137755.0, 0.0, 9.99593, 10.001115 
2.1947813e+3, 2.8682357e+2, -743164.0, -312841.63, -27755.273, -0.056930188, 0.169625, -311058.84, -181912.0, 0.0, 9.995381, 10.001086 
2.1947415e+3, 2.9682484e+2, -680708.75, -220022.94, -47465.117, -0.020232972, 0.19133031, -215183.38, -184047.25, 0.0, 9.995086, 10.001193 
2.1946995e+3, 3.0682638e+2, -714696.2, -110555.305, -38403.965, -0.16798155, 0.18599278, -108123.83, -108123.83, 0.0, 9.994085, 10.002092 
2.1946599e+3, 3.1682807e+2, -751601.3, 75459.53, -1815.3344, -0.11275911, 0.15910493, 75463.516, 75463.516, 0.0, 9.992957, 10.003912 
2.2054443e+3, 1.2688726e+2, -1086689.8, -1722541.9, -1289.0294, -0.010633357, 0.26004314, -1086687.1, 609844.25, 0.31926733, 10.008211, 9.99599 
2.205404e+3, 1.3688396e+2, -935916.06, -1591222.8, 26939.838, 0.04008908, 0.2864732, -934810.44, 663753.06, 0.23341037, 10.007777, 9.996444 
2.205362e+3, 1.4688009e+2, -846079.9, -1512977.5, 7137.6177, -0.026491202, 0.25555778, -846003.5, 654597.7, 0.14510295, 10.006989, 9.996672 
2.2053206e+3, 1.5687665e+2, -830416.44, -1497726.4, 2844.2646, -0.01784891, 0.25418678, -830404.3, 572230.44, 0.07198649, 10.006012, 9.996574 
2.205279e+3, 1.6687365e+2, -777985.94, -1361100.1, 562.98456, 0.0031328087, 0.27467093, -777985.44, 526679.1, 0.0260604, 10.005167, 9.997246 
2.2052376e+3, 1.7687102e+2, -782979.4, -1321853.9, -2173.1345, 0.014469219, 0.2950504, -782970.6, 423720.5, 0.0056682024, 10.004395, 9.997215 
2.2051953e+3, 1.868684e+2, -732942.94, -1157484.5, -16519.906, -0.004692429, 0.27986693, -732301.1, 376415.7, 0.00039458892, 10.003658, 9.998026 
2.2051531e+3, 1.96866e+2, -741326.1, -1114371.0, -18942.654, -0.033306666, 0.24693158, -740366.7, 270372.9, 0.000000028477277, 10.002942, 9.997995 
2.2051111e+3, 2.0686437e+2, -716536.8, -966304.0, -9856.541, -0.03943911, 0.25410846, -716148.44, 196606.83, 0.0, 10.002071, 9.998758 
2.2050694e+3, 2.1686327e+2, -754967.44, -932923.7, -7576.152, -0.035947215, 0.27815214, -754645.5, 60119.848, 0.0, 10.001129, 9.998769 
2.205027e+3, 2.2686233e+2, -693876.1, -741517.8, -24760.293, -0.04253741, 0.2634126, -683338.5, 33435.285, 0.0, 10.000397, 9.999762 
2.2049849e+3, 2.3686163e+2, -694295.3, -700684.2, -35821.176, -0.052724436, 0.2254577, -661526.4, -42747.09, 0.0, 9.999763, 9.999676 
2.2049432e+3, 2.4686138e+2, -701229.9, -591057.0, -23374.63, -0.044954866, 0.21763864, -586302.9, -65521.797, 0.0, 9.998774, 10.000232 
2.2049016e+3, 2.568616e+2, -771386.1, -573981.5, -14088.433, -0.028597753, 0.22419527, -572981.1, -150202.55, 0.0, 9.997618, 10.000234 
2.2048596e+3, 2.668623e+2, -705480.7, -380312.94, -23870.334, -0.036994193, 0.2291715, -378569.97, -53799.566, 0.0, 9.99692, 10.001226 
2.2048178e+3, 2.7686337e+2, -696777.56, -349434.06, -40217.934, -0.055314966, 0.22098728, -344838.16, -118079.88, 0.0, 9.996409, 10.001012 
2.2047766e+3, 2.8686383e+2, -735194.75, -311713.78, -17570.408, -0.055506412, 0.1821233, -310986.03, -182232.25, 0.0, 9.99545, 10.00106 
2.2047356e+3, 2.9686466e+2, -783301.7, -266511.38, -9545.548, -0.055705838, 0.16096327, -266335.13, -235587.89, 0.0, 9.994371, 10.001218 
2.2046939e+3, 3.0686727e+2, -755699.3, -141355.28, -21638.13, -0.12523632, 0.2672373, -140594.11, -140594.11, 0.0, 9.993853, 10.001992 
2.204653e+3, 3.168684e+2, -707911.44, 102816.875, 37098.082, -0.1028756, 0.20368095, 104510.91, 104510.91, 0.0, 9.993236, 10.0039625 
2.2154526e+3, 1.26929e+2, -1091284.3, -1718773.0, -17750.23, 0.011522126, 0.26380175, -1090782.6, 605340.2, 0.32428953, 10.00819, 9.996028 
2.215411e+3, 1.3692547e+2, -943123.6, -1595887.3, 13417.473, -0.0016476518, 0.2713905, -942847.94, 655309.2, 0.23700544, 10.007755, 9.996412 
2.2153686e+3, 1.4692184e+2, -850088.94, -1517929.3, -23524.846, -0.047239836, 0.2669723, -849261.25, 650931.3, 0.14732519, 10.00698, 9.996644 
2.2153267e+3, 1.5691854e+2, -832400.75, -1501528.4, -28701.617, -0.00025211595, 0.28108427, -831171.9, 571053.0, 0.07313634, 10.006012, 9.996551 
2.2152841e+3, 1.6691528e+2, -777593.44, -1361402.8, -26304.83, 0.0050605824, 0.27781126, -776410.56, 527846.44, 0.026542623, 10.005171, 9.997245 
2.2152415e+3, 1.7691225e+2, -782946.56, -1323905.0, -29371.545, -0.020826833, 0.25790012, -781356.5, 424930.72, 0.005811445, 10.0044, 9.9972 
2.2151987e+3, 1.8690991e+2, -738912.44, -1171712.6, -41955.56, -0.034899782, 0.27770162, -734882.75, 373427.66, 0.00041453022, 10.003663, 9.997929 
2.2151558e+3, 1.9690815e+2, -745339.7, -1123250.4, -45282.11, -0.03956941, 0.31633008, -739989.6, 270338.13, 0.00000006498394, 10.002941, 9.997936 
2.215113e+3, 2.0690617e+2, -705774.0, -945340.5, -43899.094, -0.040110793, 0.28466782, -697983.1, 214362.92, 0.0, 10.002073, 9.998902 
2.2150703e+3, 2.169043e+2, -750346.6, -925040.94, -39095.14, -0.039560154, 0.21569066, -741996.6, 72366.125, 0.0, 10.001133, 9.998822 
2.2150277e+3, 2.2690347e+2, -717860.5, -793024.6, -46987.78, -0.037536785, 0.23275873, -695273.94, 21096.643, 0.0, 10.000401, 9.999409 
2.2149849e+3, 2.3690337e+2, -710058.56, -735365.25, -62174.316, -0.034742877, 0.28740558, -659263.06, -40891.023, 0.0, 9.999767, 9.999437 
2.2149418e+3, 2.4690306e+2, -681649.2, -552323.94, -67791.73, -0.04664126, 0.26839003, -523301.06, -2927.036, 0.0, 9.998778, 10.000497 
2.2148986e+3, 2.569029e+2, -763952.44, -559976.9, -53252.023, -0.06586778, 0.21075556, -546911.25, -124537.08, 0.0, 9.997621, 10.00033 
2.2148564e+3, 2.6690325e+2, -748334.3, -471384.28, -43150.902, -0.048789673, 0.215297, -464816.8, -140446.52, 0.0, 9.996924, 10.000601 
2.2148147e+3, 2.7690414e+2, -723741.06, -411115.06, -66741.53, -0.013160329, 0.2505959, -397462.8, -171100.97, 0.0, 9.99643, 10.00058 
2.2147723e+3, 2.8690484e+2, -706866.25, -255233.75, -62521.633, -0.04581264, 0.2280233, -246738.38, -118383.99, 0.0, 9.995458, 10.001446 
2.2147292e+3, 2.9690555e+2, -771191.94, -237565.03, -41247.074, -0.11591023, 0.16064382, -234395.63, -204049.16, 0.0, 9.994351, 10.001428 
2.2146887e+3, 3.0690825e+2, -787024.0, -207632.23, -38396.453, -0.018020751, 0.2925585, -205098.77, -205098.77, 0.0, 9.993853, 10.00154 
2.2146454e+3, 3.1690884e+2, -769138.2, -35381.24, 5908.996, -0.16944622, 0.22182176, -35333.656, -35333.656, 0.0, 9.99328, 10.002993 
2.225461e+3, 1.269717e+2, -1075086.0, -1704929.5, 2036.0557, 0.013373157, 0.27771202, -1075079.5, 620625.7, 0.32914388, 10.008404, 9.996019 
2.2254184e+3, 1.3696797e+2, -972465.6, -1624566.1, 35740.723, -0.022709707, 0.2769822, -970512.56, 627229.25, 0.2404195, 10.007566, 9.996306 
2.2253755e+3, 1.4696433e+2, -866016.56, -1521573.3, -3549.3022, -0.05065361, 0.27544615, -865997.4, 633779.94, 0.14938892, 10.00685, 9.996678 
2.2253327e+3, 1.5696107e+2, -809771.8, -1487751.9, -4672.957, 0.0033984971, 0.2919732, -809739.56, 592069.25, 0.074178, 10.006182, 9.996561 
2.2252893e+3, 1.6695774e+2, -757016.5, -1363145.5, -4885.6523, 0.00071992236, 0.28650212, -756977.1, 546864.7, 0.026970647, 10.005372, 9.997134 
2.2252455e+3, 1.7695455e+2, -773882.5, -1327219.1, -15305.827, -0.037697654, 0.26327047, -773459.44, 432414.13, 0.005937345, 10.004499, 9.997129 
2.2252022e+3, 1.8695219e+2, -742671.25, -1165525.6, -22455.623, -0.047681708, 0.281075, -741482.06, 366414.56, 0.00043258598, 10.003606, 9.997996 
2.2251585e+3, 1.969505e+2, -776202.06, -1133292.6, -15508.72, -0.041038573, 0.31883198, -775529.8, 234383.27, 0.000000118630574, 10.002711, 9.997976 
2.225115e+3, 2.069485e+2, -726276.7, -965117.4, -21019.32, -0.038463686, 0.2910099, -724440.94, 187490.63, 0.0, 10.001979, 9.998811 
2.2250715e+3, 2.1694659e+2, -727325.25, -920320.56, -33806.73, -0.038554374, 0.22683749, -721574.75, 92374.35, 0.0, 10.001323, 9.998761 
2.2250278e+3, 2.2694568e+2, -712467.56, -785612.9, -28315.58, -0.03683021, 0.23632023, -702787.3, 13170.306, 0.0, 10.000422, 9.999448 
2.2249843e+3, 2.369455e+2, -761682.7, -757580.3, -15679.394, -0.033500418, 0.27989477, -743818.56, -125858.914, 0.0, 9.999406, 9.999456 
2.2249404e+3, 2.4694526e+2, -699316.8, -568601.56, -29507.305, -0.04849953, 0.27193096, -562249.4, -42288.32, 0.0, 9.998695, 10.000423 
2.2248966e+3, 2.569452e+2, -697957.6, -536817.9, -38319.15, -0.072753444, 0.23287573, -528169.7, -106209.266, 0.0, 9.998116, 10.000248 
2.2248533e+3, 2.6694533e+2, -711386.0, -471789.9, -7870.926, -0.053466808, 0.22992721, -471531.63, -147572.73, 0.0, 9.997261, 10.000433 
2.2248107e+3, 2.7694592e+2, -753961.6, -439392.25, -966.17487, -0.010363245, 0.25187328, -439389.28, -213435.6, 0.0, 9.996286, 10.000453 
2.2247674e+3, 2.8694674e+2, -700380.25, -248194.95, -9917.564, -0.051674258, 0.24599017, -247977.55, -120032.67, 0.0, 9.99549, 10.001476 
2.2247234e+3, 2.9694757e+2, -723517.94, -226448.34, -13050.084, -0.14093679, 0.18930691, -226105.97, -196170.52, 0.0, 9.994736, 10.001316 
2.2246829e+3, 3.0694962e+2, -807987.75, -245508.7, -6821.459, 0.04177666, 0.2774629, -245426.0, -245426.0, 0.0, 9.9938345, 10.001286 
2.2246385e+3, 3.169493e+2, -831119.94, -46768.58, 25813.38, -0.1738729, 0.1297692, -45919.965, -45919.965, 0.0, 9.992783, 10.003152 
2.2354689e+3, 1.2701538e+2, -1084144.9, -1714099.4, -22339.004, -0.014632724, 0.31288412, -1083353.8, 611924.9, 0.33390614, 10.008377, 9.995972 
2.235426e+3, 1.3701135e+2, -984301.9, -1647973.5, 14835.0625, -0.026773544, 0.30097875, -983970.44, 613347.94, 0.24371748, 10.00756, 9.996146 
2.2353823e+3, 1.4700751e+2, -863022.1, -1512872.9, -23624.104, -0.03972819, 0.28198066, -862164.5, 637191.2, 0.15134089, 10.006853, 9.99674 
2.2353387e+3, 1.5700419e+2, -809875.44, -1486787.5, -28153.018, -0.008422235, 0.28898248, -808706.56, 592680.6, 0.07513736, 10.006178, 9.9965725 
2.2352944e+3, 1.6700092e+2, -771999.8, -1394671.3, -35260.16, -0.012723459, 0.30093285, -770009.5, 533410.3, 0.027354158, 10.005368, 9.9969225 
2.23525e+3, 1.7699784e+2, -782763.0, -1346500.3, -45544.258, -0.03867039, 0.30752724, -779107.2, 426343.9, 0.006047621, 10.004499, 9.996999 
2.2352056e+3, 1.8699518e+2, -727333.94, -1135916.0, -54121.047, -0.044491127, 0.28904104, -720286.56, 387189.72, 0.00044849698, 10.0036125, 9.9981985 
2.235161e+3, 1.96993e+2, -767666.9, -1118313.6, -45645.75, -0.039255034, 0.25871596, -761822.3, 247673.89, 0.0000001807627, 10.00272, 9.998076 
2.235117e+3, 2.069913e+2, -748106.0, -1012367.9, -44007.48, -0.035557423, 0.27611658, -740970.1, 170542.55, 0.0, 10.001984, 9.998486 
2.2350727e+3, 2.1699007e+2, -739780.1, -946828.25, -58686.945, -0.033728357, 0.3103273, -724302.56, 89222.84, 0.0, 10.001322, 9.998582 
2.2350281e+3, 2.2698885e+2, -683222.1, -726129.4, -65360.645, -0.040764615, 0.27231166, -635884.25, 79651.77, 0.0, 10.000423, 9.999857 
2.2349834e+3, 2.369879e+2, -743562.75, -721544.56, -49887.37, -0.050785426, 0.20124365, -681466.0, -63922.83, 0.0, 9.999409, 9.999704 
2.234939e+3, 2.4698786e+2, -728576.1, -631129.06, -51156.543, -0.05119397, 0.22814912, -609205.8, -89662.51, 0.0, 9.998699, 9.999994 
2.2348945e+3, 2.5698844e+2, -715323.5, -576550.94, -63713.285, -0.049830627, 0.2932085, -551736.1, -130197.76, 0.0, 9.998128, 9.999971 
2.2348505e+3, 2.669885e+2, -688864.25, -427519.7, -46615.418, -0.051968545, 0.27425757, -419453.94, -95916.83, 0.0, 9.997269, 10.000735 
2.2348066e+3, 2.7698863e+2, -741245.75, -413744.8, -36020.055, -0.04916448, 0.22100396, -409829.94, -184295.17, 0.0, 9.996286, 10.000631 
2.2347628e+3, 2.8698945e+2, -726367.0, -304322.06, -38860.668, -0.07481105, 0.23213983, -300773.72, -173247.3, 0.0, 9.995495, 10.00109 
2.2347182e+3, 2.969906e+2, -753793.44, -296685.47, -45667.07, -0.13411295, 0.24765323, -292167.75, -262652.22, 0.0, 9.994762, 10.000823 
2.2346768e+3, 3.069912e+2, -811492.06, -253719.33, -45701.434, 0.04634207, 0.22142786, -249999.56, -249999.56, 0.0, 9.993836, 10.001229 
2.2346316e+3, 3.1699282e+2, -730839.9, 164038.31, -74829.125, -0.13047339, 0.24062644, 170252.33, 170252.33, 0.0, 9.992761, 10.004616 
2.2454773e+3, 1.2705971e+2, -1083813.4, -1716858.4, 4096.799, 0.0009930143, 0.32156074, -1083786.9, 611058.56, 0.33855113, 10.00845, 9.995915 
2.2454336e+3, 1.3705571e+2, -955619.75, -1639991.0, 46935.902, -0.034233585, 0.32325357, -952415.75, 644469.5, 0.24691291, 10.007894, 9.996045 
2.2453894e+3, 1.4705162e+2, -840974.2, -1507568.3, 5099.211, -0.035797738, 0.29030496, -840935.2, 657989.8, 0.15320817, 10.007082, 9.996664 
2.2453445e+3, 1.570483e+2, -818072.9, -1494040.1, -5438.9785, -0.016399192, 0.30342212, -818029.1, 582927.56, 0.07603578, 10.006138, 9.99654 
2.2452995e+3, 1.6704507e+2, -772587.3, -1379072.0, 1524.4862, -0.022166306, 0.3157557, -772583.5, 530404.7, 0.027704027, 10.005301, 9.997059 
2.2452544e+3, 1.7704207e+2, -773578.75, -1332636.1, 13637.968, -0.04010231, 0.31729382, -773246.25, 431771.88, 0.006146558, 10.004526, 9.997079 
2.2452092e+3, 1.870393e+2, -717672.8, -1147573.5, -4475.5186, -0.040409807, 0.29431206, -717626.2, 389418.28, 0.00046287233, 10.003753, 9.99805 
2.245164e+3, 1.9703692e+2, -737877.5, -1115081.9, -20688.87, -0.033074915, 0.26029986, -736746.2, 272320.56, 0.0000002419392, 10.002975, 9.997974 
2.2451189e+3, 2.0703527e+2, -738165.7, -997874.44, -7869.2207, -0.034295436, 0.28159496, -737927.44, 173155.13, 0.0, 10.002015, 9.998569 
2.2450738e+3, 2.1703418e+2, -787486.5, -965436.2, 4708.177, -0.03935711, 0.32409573, -787362.0, 25731.393, 0.0, 10.000979, 9.998618 
2.2450283e+3, 2.270329e+2, -724425.56, -762477.8, -19828.98, -0.046499837, 0.28757825, -715971.1, -866.0507, 0.0, 10.000215, 9.999705 
2.2449829e+3, 2.3703177e+2, -727900.7, -726525.56, -43384.945, -0.05343157, 0.2133167, -683822.75, -66708.11, 0.0, 9.999575, 9.999587 
2.2449377e+3, 2.4703166e+2, -707462.1, -620849.4, -30650.451, -0.05080523, 0.23735206, -611100.2, -91984.84, 0.0, 9.998849, 9.9999895 
2.2448926e+3, 2.570322e+2, -725055.44, -583143.06, -15089.968, -0.045939703, 0.30252025, -581556.25, -160446.17, 0.0, 9.998075, 9.999949 
2.2448477e+3, 2.6703224e+2, -706676.6, -445007.6, -17244.951, -0.054846052, 0.2852063, -443876.0, -120766.7, 0.0, 9.99719, 10.000649 
2.2448027e+3, 2.7703223e+2, -751073.8, -425436.53, -33557.863, -0.062287316, 0.22875683, -422014.28, -196905.92, 0.0, 9.996256, 10.000562 
2.244758e+3, 2.8703296e+2, -736617.06, -309966.56, -21751.113, -0.075026035, 0.23316956, -308860.53, -181759.55, 0.0, 9.995434, 10.001078 
2.2447132e+3, 2.9703414e+2, -771730.25, -301252.44, -3333.5706, -0.11446837, 0.25681466, -301228.8, -272139.47, 0.0, 9.994628, 10.000854 
2.2446701e+3, 3.0703482e+2, -810936.4, -220023.56, 31964.887, 0.0128980875, 0.22333333, -218299.48, -218299.48, 0.0, 9.993701, 10.001523 
2.2446245e+3, 3.1703717e+2, -742559.9, 128584.9, -33438.266, -0.10973201, 0.282138, 129866.516, 129866.516, 0.0, 9.992812, 10.004346 
2.2554861e+3, 1.271049e+2, -1093316.8, -1729882.3, -8328.813, 0.044782706, 0.33109564, -1093207.8, 601196.06, 0.34297237, 10.0084305, 9.995836 
2.2554411e+3, 1.3710093e+2, -966285.8, -1655313.0, 29978.37, -0.051478088, 0.3456408, -964983.94, 631459.3, 0.24996248, 10.007863, 9.995952 
2.2553962e+3, 1.4709659e+2, -856791.3, -1538490.4, -24385.705, -0.04474122, 0.30154985, -855920.06, 642565.9, 0.1549891, 10.007056, 9.996468 
2.2553506e+3, 1.5709326e+2, -824721.5, -1505400.9, -35308.95, -0.021808444, 0.33322993, -822894.8, 577623.4, 0.07688523, 10.006124, 9.996471 
2.2553048e+3, 1.6709012e+2, -744428.75, -1318165.6, -25025.936, -0.027394176, 0.330136, -743339.2, 559208.75, 0.028029203, 10.005296, 9.997482 
2.2552589e+3, 1.7708716e+2, -757313.25, -1298643.9, -14234.875, -0.04322908, 0.29619354, -756939.2, 447636.5, 0.006238515, 10.004523, 9.997316 
2.255213e+3, 1.8708445e+2, -751846.25, -1218598.0, -32069.094, -0.037617058, 0.29887825, -749653.2, 356949.16, 0.00047659312, 10.003749, 9.997566 
2.2551669e+3, 1.9708216e+2, -757993.4, -1157183.5, -49341.223, -0.024060376, 0.32023397, -751985.06, 256640.55, 0.00000029306102, 10.002974, 9.997688 
2.2551206e+3, 2.070803e+2, -706166.75, -933272.0, -44988.09, -0.034999654, 0.30492613, -697579.56, 213062.78, 0.0, 10.002019, 9.999012 
2.2550745e+3, 2.1707886e+2, -771514.5, -934550.7, -29541.928, -0.056499004, 0.26917014, -766326.6, 46327.563, 0.0, 10.000985, 9.998829 
2.2550283e+3, 2.2707774e+2, -773828.4, -866700.7, -42548.926, -0.0546304, 0.28389344, -757282.56, -42616.797, 0.0, 10.000218, 9.99899 
2.2549824e+3, 2.37077e+2, -760770.25, -796808.94, -67650.83, -0.04202619, 0.3173215, -708780.06, -92105.01, 0.0, 9.99958, 9.9991045 
2.2549365e+3, 2.4707653e+2, -677843.75, -561152.5, -60122.004, -0.048070747, 0.2995292, -535719.44, -17041.133, 0.0, 9.998854, 10.000399 
2.2548904e+3, 2.5707638e+2, -709026.06, -552247.94, -46072.887, -0.064211845, 0.25755948, -539710.94, -119034.27, 0.0, 9.998081, 10.00016 
2.2548448e+3, 2.6707637e+2, -742072.8, -520015.84, -54435.504, -0.063291274, 0.26072705, -507389.38, -184712.6, 0.0, 9.997193, 10.000135 
2.254799e+3, 2.770766e+2, -774837.0, -476635.1, -69368.97, -0.048903182, 0.277113, -461288.03, -236612.19, 0.0, 9.99626, 10.000211 
2.2547534e+3, 2.8707713e+2, -709431.75, -255086.22, -54368.816, -0.05156689, 0.25139025, -248670.81, -122000.95, 0.0, 9.995436, 10.001456 
2.2547078e+3, 2.9707813e+2, -729306.7, -216063.94, -37805.75, -0.08431802, 0.21688198, -213294.1, -184636.3, 0.0, 9.994636, 10.001438 
2.2546628e+3, 3.0708045e+2, -763504.0, -122644.51, -4205.1646, -0.059844665, 0.27647147, -122616.914, -122616.914, 0.0, 9.993703, 10.0021925 
2.2546174e+3, 3.1708178e+2, -878412.7, -159206.58, -63039.586, -0.08239751, 0.21653566, -153722.86, -153722.86, 0.0, 9.992829, 10.002364 
2.2654946e+3, 1.2715058e+2, -1088915.1, -1724629.4, 2054.12, 0.05756762, 0.34192875, -1088908.5, 605049.75, 0.347006, 10.008515, 9.995831 
2.2654487e+3, 1.3714693e+2, -974120.44, -1647180.9, 44687.414, -0.0680431, 0.37848148, -971166.44, 624827.7, 0.25276947, 10.00776, 9.99606 
2.2654031e+3, 1.4714248e+2, -884584.56, -1545772.4, -1094.9448, -0.044519704, 0.31561399, -884582.75, 613454.9, 0.15664665, 10.006811, 9.996532 
2.2653565e+3, 1.5713921e+2, -862170.5, -1516405.9, 5965.6763, -0.017294634, 0.34527504, -862116.1, 537953.4, 0.077681996, 10.005816, 9.996541 
2.2653098e+3, 1.6713612e+2, -778627.8, -1325885.1, 13787.531, -0.02515548, 0.34158447, -778280.7, 523817.72, 0.028333096, 10.005019, 9.9975605 
2.2652632e+3, 1.7713319e+2, -782864.7, -1303395.9, 2138.4924, -0.043355923, 0.30522364, -782855.94, 421269.34, 0.0063252314, 10.004317, 9.99738 
2.2652163e+3, 1.8713056e+2, -773913.06, -1226601.0, 697.01154, -0.03813525, 0.31065756, -773912.0, 332239.34, 0.00048994226, 10.003591, 9.997585 
2.2651696e+3, 1.9712833e+2, -775665.56, -1165237.5, 14591.077, -0.025043117, 0.3380263, -775119.9, 233054.2, 0.00000031998934, 10.002853, 9.997689 
2.2651225e+3, 2.0712632e+2, -697793.06, -939185.25, -742.7564, -0.038459715, 0.31231883, -697790.75, 212401.44, 0.0, 10.002122, 9.9989195 
2.2650754e+3, 2.1712458e+2, -720021.56, -921098.5, -22429.275, -0.062458966, 0.25906613, -717550.06, 94656.24, 0.0, 10.001392, 9.998722 
2.2650285e+3, 2.2712344e+2, -737049.75, -868367.7, -16381.898, -0.057389542, 0.28737378, -735036.94, -20818.412, 0.0, 10.000559, 9.998813 
2.2649819e+3, 2.3712279e+2, -757336.94, -810701.1, -3467.7007, -0.038912892, 0.34892657, -757112.56, -140884.84, 0.0, 9.999674, 9.998962 
2.2649354e+3, 2.4712217e+2, -688173.8, -566222.75, -6582.119, -0.04725804, 0.3222846, -565868.5, -47636.22, 0.0, 9.998787, 10.000395 
2.2648881e+3, 2.5712177e+2, -737536.8, -567328.0, -22783.797, -0.06890888, 0.25452203, -564331.0, -144098.42, 0.0, 9.997896, 10.000143 
2.2648418e+3, 2.671217e+2, -755439.44, -531437.56, -16324.144, -0.06412177, 0.2571848, -530254.2, -208020.89, 0.0, 9.997128, 10.000086 
2.2647955e+3, 2.77122e+2, -760160.2, -472393.2, 893.735, -0.040182773, 0.2847444, -472390.44, -248158.17, 0.0, 9.996378, 10.00018 
2.264749e+3, 2.8712255e+2, -724297.6, -254417.39, 7127.145, -0.035241283, 0.2650783, -254309.31, -128084.05, 0.0, 9.995305, 10.001521 
2.2647023e+3, 2.9712373e+2, -787412.44, -221596.2, 405.82904, -0.06305991, 0.2368556, -221595.9, -193384.63, 0.0, 9.994146, 10.001632 
2.2646563e+3, 3.0712587e+2, -747890.06, -69140.96, 16648.006, -0.09328969, 0.24519576, -68732.875, -68732.875, 0.0, 9.993617, 10.002598 
2.2646105e+3, 3.1712836e+2, -848842.0, -205360.36, -25332.473, -0.06238406, 0.27847055, -204364.61, -204364.61, 0.0, 9.993297, 10.00182 
2.2755027e+3, 1.2719692e+2, -1086831.9, -1709446.9, -10461.112, 0.03113653, 0.37428257, -1086656.1, 606850.6, 0.35046837, 10.00852, 9.995934 
2.2754563e+3, 1.3719366e+2, -963650.9, -1606243.8, 22539.287, -0.08547791, 0.42033648, -962861.25, 632677.0, 0.25521642, 10.007733, 9.99635 
2.2754098e+3, 1.4718923e+2, -872186.94, -1510163.1, -32166.918, -0.036759052, 0.33142534, -870569.2, 627011.8, 0.15812624, 10.006794, 9.99679 
2.2753623e+3, 1.5718599e+2, -853325.9, -1494966.3, -25589.682, -0.006685375, 0.34204116, -852306.94, 547304.6, 0.078412145, 10.005809, 9.996695 
2.2753146e+3, 1.6718297e+2, -795643.4, -1360981.8, -10431.834, -0.01973433, 0.35208917, -795450.94, 506189.4, 0.028615125, 10.005011, 9.997325 
2.2752674e+3, 1.7718008e+2, -789643.25, -1316370.6, -21992.291, -0.042061403, 0.3414946, -788726.6, 414941.06, 0.00640684, 10.004309, 9.997297 
2.27522e+3, 1.871775e+2, -742594.56, -1162154.9, -25085.186, -0.042079456, 0.32707325, -741100.06, 364592.38, 0.0005028644, 10.003589, 9.998031 
2.2751723e+3, 1.971753e+2, -759723.25, -1133589.5, -11625.567, -0.03655655, 0.31551537, -759362.06, 248351.13, 0.00000031187102, 10.002856, 9.997908 
2.2751245e+3, 2.0717315e+2, -739771.94, -1027205.44, -26803.05, -0.045247067, 0.30619654, -737293.94, 172439.25, 0.0, 10.002122, 9.998318 
2.2750767e+3, 2.1717124e+2, -748160.1, -980307.4, -48481.86, -0.058455184, 0.2923967, -738441.94, 73308.86, 0.0, 10.001391, 9.998319 
2.2750291e+3, 2.271699e+2, -713724.5, -820989.44, -47933.113, -0.05582703, 0.29663596, -695426.25, 18338.006, 0.0, 10.00056, 9.999139 
2.2749814e+3, 2.3716906e+2, -744373.06, -785631.94, -35756.465, -0.04644369, 0.30687487, -723721.75, -107948.19, 0.0, 9.999679, 9.999134 
2.2749339e+3, 2.4716847e+2, -718696.44, -631160.3, -40839.633, -0.049489193, 0.30519986, -615065.9, -97287.56, 0.0, 9.99879, 9.9999485 
2.2748862e+3, 2.571682e+2, -754560.0, -605008.0, -55603.68, -0.060371995, 0.29438663, -586600.2, -166821.3, 0.0, 9.997902, 9.999884 
2.2748388e+3, 2.671681e+2, -724539.9, -469147.53, -45471.645, -0.056916866, 0.27555135, -461293.03, -139513.42, 0.0, 9.997132, 10.000513 
2.2747914e+3, 2.7716827e+2, -737713.5, -429332.34, -32155.383, -0.03932023, 0.25121146, -426015.13, -202237.08, 0.0, 9.996388, 10.000473 
2.2747442e+3, 2.871692e+2, -745102.25, -298404.84, -39483.918, -0.029450867, 0.27229497, -294941.7, -169173.69, 0.0, 9.995305, 10.001221 
2.2746965e+3, 2.9717073e+2, -807973.56, -261472.56, -36574.793, -0.053534314, 0.30952907, -259035.64, -231284.02, 0.0, 9.99413, 10.0013685 
2.2746499e+3, 3.0717102e+2, -739435.1, -53831.402, 3703.9648, -0.08173264, 0.14074177, -53811.39, -53811.39, 0.0, 9.993622, 10.002704 
2.2746035e+3, 3.1717482e+2, -793203.4, -100395.16, -19914.746, -0.090157926, 0.28105605, -99823.18, -99823.18, 0.0, 9.99334, 10.0025215 
2.2855112e+3, 1.2724437e+2, -1016227.6, -1676678.9, 19444.844, -0.0032481127, 0.38609177, -1015655.6, 677387.44, 0.35321316, 10.009356, 9.995812 
2.2854638e+3, 1.372412e+2, -999166.44, -1615283.9, 43394.26, -0.062228534, 0.43164054, -996125.1, 598948.56, 0.25720283, 10.00736, 9.996472 
2.2854166e+3, 1.4723691e+2, -923863.0, -1527853.6, -73.54438, -0.008320157, 0.3471323, -923863.0, 573251.9, 0.15937008, 10.006335, 9.996884 
2.2853678e+3, 1.5723377e+2, -848056.3, -1482834.3, -1367.8981, -0.01629464, 0.35942543, -848053.4, 551091.0, 0.07905113, 10.005816, 9.996771 
2.2853196e+3, 1.6723071e+2, -797414.3, -1359046.0, 20275.926, -0.027991371, 0.36315215, -796683.25, 504490.06, 0.028868854, 10.0049925, 9.997345 
2.2852714e+3, 1.7722777e+2, -828104.8, -1331486.0, 25514.791, -0.029956441, 0.34451875, -826814.8, 376386.4, 0.0064824834, 10.004032, 9.997325 
2.2852235e+3, 1.8722524e+2, -774011.2, -1170026.0, 14368.4375, -0.035624955, 0.33322725, -773490.56, 331734.53, 0.0005155005, 10.003346, 9.998091 
2.285175e+3, 1.9722316e+2, -767678.8, -1132416.8, 279.0269, -0.047687244, 0.328678, -767678.6, 239565.9, 0.00000027835299, 10.002785, 9.997947 
2.2851264e+3, 2.0722094e+2, -754706.9, -1039507.0, 786.27637, -0.048482157, 0.31380314, -754704.7, 154560.44, 0.0, 10.002047, 9.998266 
2.2850782e+3, 2.1721889e+2, -773733.0, -995376.2, 16406.842, -0.042613268, 0.29019868, -772525.06, 38759.242, 0.0, 10.001231, 9.99829 
2.2850296e+3, 2.272175e+2, -712625.06, -811791.7, 16799.164, -0.047033284, 0.28813362, -709856.56, 3441.1865, 0.0, 10.000533, 9.999213 
2.284981e+3, 2.3721667e+2, -713804.0, -767783.6, 9562.405, -0.05508301, 0.2933408, -712160.06, -96853.8, 0.0, 9.99988, 9.999157 
2.2849326e+3, 2.4721602e+2, -697075.44, -641238.7, 8601.267, -0.054974988, 0.2969884, -639943.75, -122631.836, 0.0, 9.99903, 9.999762 
2.284884e+3, 2.5721568e+2, -736180.94, -608510.75, 12945.343, -0.0532633, 0.29648015, -607211.4, -187897.17, 0.0, 9.998085, 9.999769 
2.2848359e+3, 2.6721558e+2, -719220.6, -453359.97, 14417.767, -0.051281646, 0.27958798, -452580.38, -131265.78, 0.0, 9.997115, 10.000628 
2.2847879e+3, 2.7721584e+2, -767798.7, -433424.84, 2999.7751, -0.039436277, 0.2551308, -433397.94, -210086.3, 0.0, 9.9961405, 10.000563 
2.2847395e+3, 2.8721678e+2, -731492.7, -294608.78, -133.54224, -0.0344695, 0.27711228, -294608.72, -169307.28, 0.0, 9.995414, 10.001192 
2.2846907e+3, 2.972182e+2, -731377.0, -240194.4, 21835.184, -0.06734999, 0.30674526, -239225.64, -211938.98, 0.0, 9.994727, 10.0012245 
2.2846435e+3, 3.072184e+2, -780444.4, -121987.26, 46576.195, -0.052848496, 0.16324107, -118709.0, -118709.0, 0.0, 9.993552, 10.002267 
2.2845963e+3, 3.172212e+2, -868807.75, -48546.004, -541.1734, -0.09851433, 0.22459461, -48545.65, -48545.65, 0.0, 9.992448, 10.003303 
2.29552e+3, 1.2729283e+2, -1036570.3, -1713889.4, -22965.934, -0.055314276, 0.38461396, -1035792.5, 656775.7, 0.35516557, 10.009295, 9.99553 
2.2954717e+3, 1.3728948e+2, -1003325.7, -1619788.1, -3728.3987, -0.007183755, 0.4179869, -1003303.1, 591298.0, 0.25866494, 10.007346, 9.996442 
2.2954232e+3, 1.4728546e+2, -927582.56, -1537711.8, -15115.705, 0.0341188, 0.3640572, -927208.3, 569431.75, 0.16032481, 10.006338, 9.996819 
2.2953732e+3, 1.5728244e+2, -848301.8, -1483102.9, -20059.607, -0.04574454, 0.39413813, -847668.56, 551000.2, 0.07956352, 10.005814, 9.996773 
2.2953242e+3, 1.6727927e+2, -782383.56, -1328270.6, -13132.746, -0.04925693, 0.37282926, -782067.8, 518630.47, 0.029080478, 10.004995, 9.997557 
2.2952756e+3, 1.7727615e+2, -819905.9, -1317132.3, -5914.462, -0.009067746, 0.31771505, -819835.56, 382891.34, 0.0065499726, 10.004041, 9.997421 
2.2952266e+3, 1.8727373e+2, -794535.3, -1214238.0, -4907.657, -0.020936204, 0.33192226, -794477.94, 310272.38, 0.0005282581, 10.003348, 9.997787 
2.2951774e+3, 1.9727185e+2, -776905.2, -1151611.1, -19989.766, -0.059328474, 0.37441543, -775841.8, 230927.05, 0.0000002503307, 10.002781, 9.997819 
2.2951284e+3, 2.072696e+2, -723221.2, -974902.9, -27685.574, -0.04900579, 0.3324496, -720211.7, 188577.44, 0.0, 10.002047, 9.998713 
2.2950795e+3, 2.1726738e+2, -751487.8, -950667.9, -10765.784, -0.01728468, 0.25239033, -750907.56, 59900.492, 0.0, 10.001233, 9.998598 
2.2950302e+3, 2.2726613e+2, -725623.8, -840120.1, -6160.627, -0.032271273, 0.2628376, -725293.25, -12473.221, 0.0, 10.000535, 9.99902 
2.2949807e+3, 2.372655e+2, -722076.6, -787240.06, -16509.918, -0.06588278, 0.30812734, -718132.4, -103305.484, 0.0, 9.999886, 9.999023 
2.2949314e+3, 2.4726471e+2, -691446.0, -631419.94, -27515.88, -0.06402671, 0.29718542, -620715.56, -103881.48, 0.0, 9.999035, 9.999829 
2.2948821e+3, 2.5726405e+2, -733710.9, -605881.2, -23293.352, -0.051079005, 0.25966093, -601768.94, -182929.7, 0.0, 9.998092, 9.999786 
2.2948328e+3, 2.672641e+2, -734368.6, -486762.16, -23784.846, -0.04993918, 0.2683748, -484498.1, -163659.14, 0.0, 9.997119, 10.000399 
2.2947837e+3, 2.7726468e+2, -775807.3, -452029.8, -31265.19, -0.041762654, 0.2958868, -449038.38, -226204.4, 0.0, 9.996144, 10.000435 
2.2947346e+3, 2.8726536e+2, -713235.75, -259190.11, -26319.83, -0.050625052, 0.27908483, -257669.5, -132843.05, 0.0, 9.99542, 10.001434 
2.2946848e+3, 2.972662e+2, -732013.7, -246870.9, -12593.382, -0.1099493, 0.23235105, -246544.23, -219727.72, 0.0, 9.994745, 10.001172 
2.2946374e+3, 3.0726793e+2, -853209.56, -274090.34, -3440.1182, -0.008217122, 0.3113266, -274069.9, -274069.9, 0.0, 9.993552, 10.001225 
2.2945888e+3, 3.1726864e+2, -795483.2, 108622.59, -46758.84, -0.07011799, 0.24217701, 111034.445, 111034.445, 0.0, 9.992423, 10.0043955 
2.3055288e+3, 1.2734228e+2, -1092210.8, -1753515.0, -14501.426, -0.05894002, 0.3987306, -1091892.9, 600191.25, 0.35626382, 10.008704, 9.995543 
2.305479e+3, 1.3733882e+2, -964915.9, -1580251.4, 12439.278, 0.0028820096, 0.40385658, -964664.5, 629453.56, 0.2595411, 10.007629, 9.996607 
2.3054297e+3, 1.4733511e+2, -890358.7, -1509376.5, 32366.5, 0.043158725, 0.37261242, -888670.94, 607482.6, 0.16092841, 10.006623, 9.996872 
2.3053789e+3, 1.5733206e+2, -856545.0, -1485363.3, 37462.14, -0.047168184, 0.39424595, -854321.0, 543861.5, 0.07990081, 10.005749, 9.996786 
2.3053291e+3, 1.6732879e+2, -785848.2, -1342080.9, 30323.385, -0.053058684, 0.37164623, -784199.94, 516013.2, 0.029226586, 10.005029, 9.997444 
2.3052798e+3, 1.7732564e+2, -777464.0, -1301811.8, 17207.861, -0.01205389, 0.32359493, -776899.9, 425342.72, 0.0066033155, 10.004362, 9.997369 
2.30523e+3, 1.873232e+2, -761478.94, -1183248.0, 34402.33, -0.018511469, 0.33180162, -758691.3, 345574.47, 0.00054096367, 10.003517, 9.997916 
2.3051801e+3, 1.9732133e+2, -795577.06, -1148092.9, 46303.9, -0.049733553, 0.36197424, -789596.4, 216687.5, 0.00000026008487, 10.002604, 9.997926 
2.3051304e+3, 2.0731919e+2, -744517.9, -980188.2, 27559.707, -0.043906413, 0.32801715, -741337.94, 166965.16, 0.0, 10.001883, 9.998753 
2.3050806e+3, 2.1731718e+2, -747439.56, -943143.56, 15241.85, -0.02051892, 0.26466417, -746259.6, 64060.918, 0.0, 10.001243, 9.998642 
2.3050305e+3, 2.2731593e+2, -736534.4, -841053.4, 22117.068, -0.033828754, 0.27135316, -732046.9, -19714.557, 0.0, 10.000446, 9.999054 
2.3049805e+3, 2.3731521e+2, -765034.75, -805381.44, 27622.303, -0.061471418, 0.30524915, -751003.5, -136663.92, 0.0, 9.999582, 9.9990425 
2.3049302e+3, 2.4731438e+2, -723365.8, -648669.6, 15464.638, -0.05931932, 0.29230252, -645594.56, -129247.41, 0.0, 9.998826, 9.999809 
2.3048802e+3, 2.5731373e+2, -735536.94, -610562.75, 11738.963, -0.047608763, 0.25683132, -609469.7, -191117.02, 0.0, 9.998098, 9.999749 
2.3048298e+3, 2.673137e+2, -718673.5, -489687.78, 13056.442, -0.049763076, 0.26918477, -488945.72, -168592.72, 0.0, 9.997276, 10.000301 
2.3047797e+3, 2.7731422e+2, -741537.06, -442261.44, 16781.158, -0.04530229, 0.30039284, -441323.44, -218974.63, 0.0, 9.996413, 10.000371 
2.3047297e+3, 2.8731486e+2, -693415.2, -246016.13, 16898.797, -0.06338739, 0.2834402, -245378.75, -121037.24, 0.0, 9.995544, 10.001464 
2.3046792e+3, 2.9731575e+2, -754564.1, -263515.84, 7693.253, -0.12935102, 0.23742577, -263395.34, -237063.94, 0.0, 9.994617, 10.001119 
2.3046312e+3, 3.073173e+2, -885106.44, -326042.63, 42633.523, 0.023981439, 0.3190924, -322810.16, -322810.16, 0.0, 9.993491, 10.000897 
2.3045811e+3, 3.1731746e+2, -766780.6, 154601.4, 30398.777, -0.095685035, 0.22353081, 155603.25, 155603.25, 0.0, 9.992491, 10.004675 
2.3155376e+3, 1.273925e+2, -1083457.1, -1714753.1, -32655.525, -0.029298248, 0.41127932, -1081772.4, 609820.8, 0.35636693, 10.008655, 9.995837 
2.3154864e+3, 1.3738911e+2, -952163.4, -1547357.0, -16050.725, -0.030297445, 0.39003545, -951730.9, 641894.56, 0.2597155, 10.007591, 9.99693 
2.3154359e+3, 1.4738578e+2, -884717.06, -1493321.4, 5199.3296, 0.020642493, 0.3738992, -884672.7, 610984.0, 0.16109014, 10.00661, 9.996992 
2.3153847e+3, 1.5738252e+2, -856768.4, -1486123.8, 10064.117, -0.024590068, 0.36542073, -856607.44, 541079.3, 0.08000142, 10.005747, 9.996783 
2.315334e+3, 1.673792e+2, -813740.2, -1402254.9, 8208.619, -0.042705968, 0.362255, -813625.75, 486093.16, 0.029275667, 10.005027, 9.997034 
2.3152837e+3, 1.7737608e+2, -791854.0, -1331170.6, -6461.3237, -0.03777456, 0.35732606, -791776.56, 409972.84, 0.0066321096, 10.004355, 9.997172 
2.3152333e+3, 1.8737353e+2, -727299.0, -1112597.3, 2402.491, -0.028218402, 0.33054993, -727284.0, 376488.72, 0.0005523075, 10.003514, 9.9984045 
2.3151828e+3, 1.9737145e+2, -774869.9, -1106213.9, 15884.974, -0.022114573, 0.29556182, -774110.06, 231680.63, 0.0000003305962, 10.0026045, 9.998216 
2.315132e+3, 2.0736964e+2, -768564.56, -1031680.2, 5319.4116, -0.03457317, 0.30427927, -768457.06, 139350.89, 0.0, 10.001885, 9.9984 
2.3150814e+3, 2.1736816e+2, -761903.9, -974171.2, -8281.607, -0.052369535, 0.32470477, -761581.25, 48241.61, 0.0, 10.001243, 9.998431 
2.3150307e+3, 2.2736676e+2, -719528.44, -806825.9, -8825.191, -0.051698893, 0.31163695, -718645.25, -6809.526, 0.0, 10.000447, 9.99929 
2.31498e+3, 2.3736565e+2, -753336.25, -782637.25, -2929.6511, -0.044117134, 0.283631, -753046.2, -139200.81, 0.0, 9.999585, 9.9992 
2.3149292e+3, 2.4736491e+2, -731635.7, -667439.2, -12225.813, -0.04219031, 0.2826573, -665189.7, -149337.63, 0.0, 9.99883, 9.9996805 
2.3148781e+3, 2.5736457e+2, -740916.94, -625034.75, -17604.047, -0.04423363, 0.29009527, -622419.44, -204564.11, 0.0, 9.998109, 9.999646 
2.3148271e+3, 2.6736432e+2, -715627.9, -485915.22, -21352.549, -0.05069165, 0.28236842, -483947.3, -164089.69, 0.0, 9.997283, 10.000326 
2.3147762e+3, 2.7736437e+2, -740982.06, -443149.63, -16025.2, -0.0538948, 0.26557788, -442289.88, -220432.77, 0.0, 9.996417, 10.000364 
2.314725e+3, 2.8736532e+2, -706708.0, -275372.56, -18331.797, -0.07500119, 0.2914485, -274594.84, -150747.77, 0.0, 9.995547, 10.001263 
2.3146738e+3, 2.9736686e+2, -755970.44, -270255.28, -31912.553, -0.121776134, 0.3285633, -268167.53, -242336.14, 0.0, 9.994629, 10.001069 
2.3146248e+3, 3.073662e+2, -855620.5, -266654.63, -1150.8633, 0.039174546, 0.16300482, -266652.38, -266652.38, 0.0, 9.993495, 10.001307 
2.3145732e+3, 3.1736887e+2, -801879.2, 82419.61, -23765.938, -0.092115484, 0.2933833, 83057.87, 83057.87, 0.0, 9.992483, 10.004185 
2.3255464e+3, 1.27444e+2, -1125832.5, -1730337.0, 9024.414, 0.015144429, 0.418766, -1125697.8, 565391.2, 0.35521138, 10.0081215, 9.995981 
2.3254934e+3, 1.374406e+2, -988300.94, -1559459.0, 11334.8125, -0.041920044, 0.3889097, -988076.06, 605045.0, 0.2589845, 10.0072155, 9.996998 
2.3254421e+3, 1.474375e+2, -905676.1, -1505957.9, 33172.83, 0.0094385715, 0.39439455, -903848.5, 591301.4, 0.16067241, 10.006441, 9.996984 
2.3253906e+3, 1.5743394e+2, -849166.7, -1478251.0, 33175.227, -0.0041370443, 0.35689816, -847422.0, 549760.6, 0.07978548, 10.005792, 9.996814 
2.3253392e+3, 1.6743064e+2, -807757.25, -1384658.6, 54325.168, -0.02612825, 0.3460447, -802686.2, 496528.25, 0.02918926, 10.005012, 9.997159 
2.3252879e+3, 1.7742772e+2, -812453.9, -1330971.5, 73315.4, -0.040631693, 0.34978482, -802286.9, 398955.88, 0.006623042, 10.004174, 9.997258 
2.3252365e+3, 1.8742517e+2, -751578.7, -1130005.4, 63807.973, -0.02940479, 0.32536894, -741109.44, 362156.7, 0.00056003453, 10.003377, 9.998349 
2.3251855e+3, 1.97423e+2, -777790.2, -1111742.0, 41890.887, -0.012591952, 0.28735358, -772615.56, 232669.69, 0.000000474156, 10.002607, 9.998173 
2.325134e+3, 2.0742123e+2, -763871.4, -1031158.8, 42951.914, -0.030089032, 0.30451986, -757138.75, 150163.77, 0.0, 10.00193, 9.998379 
2.3250826e+3, 2.1741986e+2, -756246.94, -972291.9, 49034.527, -0.059144378, 0.3403527, -745638.75, 63678.08, 0.0, 10.001289, 9.99842 
2.325031e+3, 2.2741845e+2, -705200.56, -798962.25, 38198.383, -0.055973943, 0.3268311, -691608.8, 19721.078, 0.0, 10.000545, 9.999296 
2.3249795e+3, 2.3741727e+2, -728972.6, -768901.94, 28444.69, -0.03916218, 0.2909067, -714185.5, -100845.18, 0.0, 9.999748, 9.999213 
2.324928e+3, 2.4741654e+2, -714354.75, -655928.0, 25000.846, -0.03969632, 0.28985497, -646690.56, -131343.7, 0.0, 9.998939, 9.999704 
2.324876e+3, 2.5741622e+2, -737382.4, -619431.6, 30216.375, -0.046980076, 0.30205747, -612141.44, -194791.94, 0.0, 9.998121, 9.999677 
2.3248242e+3, 2.6741603e+2, -703593.56, -470690.5, 31039.95, -0.050647575, 0.2894696, -466624.66, -147273.28, 0.0, 9.997329, 10.000406 
2.3247725e+3, 2.77416e+2, -725521.44, -431000.1, 36967.76, -0.05193455, 0.25931942, -426430.84, -205079.89, 0.0, 9.996507, 10.000403 
2.3247205e+3, 2.8741688e+2, -724409.6, -291205.47, 36933.082, -0.08228668, 0.2804242, -288079.25, -164737.2, 0.0, 9.995462, 10.001192 
2.3246682e+3, 2.9741845e+2, -789144.9, -283423.13, 33057.133, -0.12331995, 0.33385864, -281271.47, -255945.45, 0.0, 9.994396, 10.001087 
2.3246184e+3, 3.0741787e+2, -789562.3, -207164.66, 63599.906, 0.0486263, 0.16136168, -200300.22, -200300.22, 0.0, 9.993832, 10.001551 
2.3245661e+3, 3.174212e+2, -754344.75, 62076.484, -16367.9375, -0.08108715, 0.34469518, 62404.504, 62404.504, 0.0, 9.992996, 10.003798 
2.335555e+3, 1.2749644e+2, -1127447.8, -1734817.8, -8210.174, 0.062275853, 0.40164846, -1127336.8, 563238.25, 0.35246596, 10.008084, 9.995967 
2.3355004e+3, 1.374932e+2, -994414.06, -1576035.9, -11883.101, -0.037141617, 0.39965156, -994171.4, 598434.8, 0.2570913, 10.00722, 9.9968405 
2.3354484e+3, 1.4749017e+2, -910686.3, -1525069.8, 13559.023, 0.0062268805, 0.4316988, -910387.25, 584247.06, 0.159511, 10.006455, 9.996847 
2.3353966e+3, 1.5748623e+2, -846119.5, -1472406.3, 11025.04, 0.012215825, 0.3650185, -845925.44, 550745.6, 0.07916788, 10.005787, 9.996858 
2.3353443e+3, 1.6748297e+2, -768940.44, -1301791.0, 25223.258, -0.005703066, 0.32320312, -767749.1, 530951.75, 0.02893142, 10.005007, 9.997731 
2.335292e+3, 1.774804e+2, -791070.0, -1287569.5, 43374.227, -0.023864495, 0.30664504, -787309.3, 413414.63, 0.0065642474, 10.004176, 9.997558 
2.33524e+3, 1.8747798e+2, -790013.75, -1211906.8, 35673.49, -0.023679517, 0.31862298, -787018.6, 315728.6, 0.0005615863, 10.003382, 9.9977865 
2.335188e+3, 1.9747579e+2, -802015.06, -1163857.9, 16370.141, -0.020858115, 0.33148617, -801276.0, 203493.05, 0.0000006857514, 10.002611, 9.997815 
2.3351358e+3, 2.0747381e+2, -744122.8, -991889.7, 21024.15, -0.030764068, 0.32519233, -742351.5, 164436.55, 0.0, 10.001934, 9.998649 
2.3350838e+3, 2.1747221e+2, -745572.7, -951058.1, 26017.604, -0.04398622, 0.31245828, -742329.6, 66473.79, 0.0, 10.001289, 9.998568 
2.3350315e+3, 2.2747092e+2, -721065.4, -833352.44, 9373.084, -0.048150767, 0.3192794, -720288.3, -9472.401, 0.0, 10.000547, 9.99906 
2.334979e+3, 2.3746996e+2, -737563.1, -788725.2, -1222.5059, -0.04842559, 0.32793188, -737533.94, -124708.67, 0.0, 9.999753, 9.999077 
2.3349266e+3, 2.4746914e+2, -701748.94, -631816.7, -6702.989, -0.052570026, 0.3134574, -631180.0, -116347.52, 0.0, 9.998944, 9.999869 
2.334874e+3, 2.5746867e+2, -725379.3, -596439.25, -732.45026, -0.05872021, 0.2906161, -596435.1, -179598.89, 0.0, 9.998125, 9.999835 
2.3348215e+3, 2.674687e+2, -694548.56, -453450.72, -527.03265, -0.05113497, 0.29052097, -453449.56, -134614.58, 0.0, 9.997332, 10.000526 
2.3347688e+3, 2.7746907e+2, -718040.56, -419555.22, 1843.5211, -0.040556878, 0.2858246, -419543.8, -198713.25, 0.0, 9.99652, 10.000478 
2.3347156e+3, 2.8746933e+2, -722200.1, -288726.16, -6428.3516, -0.085473664, 0.24584243, -288630.84, -165803.36, 0.0, 9.995467, 10.001209 
2.3346624e+3, 2.974703e+2, -785769.5, -275257.66, -63.233406, -0.13761488, 0.2359532, -275257.63, -250439.89, 0.0, 9.994387, 10.00115 
2.334612e+3, 3.0747277e+2, -776726.4, -183381.34, 46997.957, 0.04828026, 0.35492817, -179681.78, -179681.78, 0.0, 9.993839, 10.001713 
2.3345587e+3, 3.1747264e+2, -809798.56, -61442.91, -101953.91, -0.12633795, 0.1893717, -47801.65, -47801.65, 0.0, 9.993028, 10.002935 
2.345563e+3, 1.2754995e+2, -1113836.4, -1712129.1, 15107.139, 0.07057479, 0.41427162, -1113455.1, 576595.75, 0.34786117, 10.008114, 9.996111 
2.345508e+3, 1.3754646e+2, -958849.3, -1565038.1, 12760.2, -0.016609542, 0.3939605, -958580.9, 633503.1, 0.25382224, 10.007553, 9.996778 
2.3454551e+3, 1.4754353e+2, -879795.25, -1505032.5, 46498.88, 0.01381485, 0.43718654, -876356.0, 617755.25, 0.15747273, 10.006689, 9.996871 
2.3454021e+3, 1.5753952e+2, -849110.5, -1468647.3, 54542.477, 0.01151667, 0.36092257, -844345.4, 551803.7, 0.078086026, 10.00574, 9.996905 
2.3453492e+3, 1.6753635e+2, -770884.0, -1290165.5, 52241.953, -0.001426828, 0.31969285, -765680.4, 532497.44, 0.028479336, 10.004941, 9.997842 
2.3452961e+3, 1.7753394e+2, -780645.5, -1273254.4, 40875.066, -0.011574612, 0.31090662, -777276.9, 422922.03, 0.006448061, 10.004213, 9.997635 
2.3452431e+3, 1.8753156e+2, -771887.75, -1205279.3, 52076.594, -0.017205507, 0.32461601, -765718.06, 336504.0, 0.000554494, 10.003521, 9.997762 
2.3451905e+3, 1.975293e+2, -771534.25, -1151806.5, 66792.05, -0.024402697, 0.33572266, -760143.94, 244100.69, 0.0000009107791, 10.002837, 9.9977865 
2.3451377e+3, 2.0752722e+2, -737351.4, -993184.3, 64748.97, -0.03109401, 0.3231335, -721897.56, 184367.17, 0.0, 10.002004, 9.998604 
2.345085e+3, 2.175255e+2, -773201.8, -967500.75, 47343.574, -0.03552453, 0.30381963, -762279.8, 46001.242, 0.0, 10.001118, 9.998535 
2.3450318e+3, 2.2752424e+2, -745821.3, -846457.44, 37474.82, -0.04370744, 0.31578696, -733399.7, -23106.172, 0.0, 10.000387, 9.999044 
2.3449787e+3, 2.3752335e+2, -742996.25, -789692.6, 41790.39, -0.052247904, 0.33435532, -718474.06, -106171.664, 0.0, 9.999713, 9.999087 
2.3449253e+3, 2.4752255e+2, -700156.9, -622298.2, 33951.098, -0.057207305, 0.31831688, -609573.2, -95263.71, 0.0, 9.998921, 9.999945 
2.3448718e+3, 2.575221e+2, -726773.4, -586092.9, 32807.746, -0.059973497, 0.28929767, -578818.06, -162504.81, 0.0, 9.998073, 9.999929 
2.3448186e+3, 2.675223e+2, -706707.75, -446770.34, 30488.674, -0.051943302, 0.29869118, -443242.16, -124931.99, 0.0, 9.997199, 10.000633 
2.344765e+3, 2.7752292e+2, -741936.7, -417557.47, 29536.926, -0.041173358, 0.31039235, -414889.88, -194586.72, 0.0, 9.996304, 10.000593 
2.344711e+3, 2.87523e+2, -719956.06, -274758.63, 24078.633, -0.08430269, 0.24190448, -273460.1, -151158.45, 0.0, 9.995432, 10.001321 
2.3446567e+3, 2.9752362e+2, -760320.4, -260312.16, 41383.754, -0.13417082, 0.18486576, -256910.14, -232614.7, 0.0, 9.994554, 10.001172 
2.3446055e+3, 3.0752748e+2, -782832.0, -180851.78, 87619.26, 0.030418308, 0.44472182, -168357.94, -168357.94, 0.0, 9.993779, 10.001757 
2.344552e+3, 3.1752685e+2, -819430.56, -53888.785, -100780.48, -0.06808416, 0.21694145, -40843.734, -40843.734, 0.0, 9.992921, 10.003034 
2.3555705e+3, 1.2760428e+2, -1094500.3, -1677779.9, 4402.3794, 0.039180823, 0.43691048, -1094467.0, 595052.1, 0.34135464, 10.008124, 9.996378 
2.3555157e+3, 1.376004e+2, -956006.56, -1562635.9, -4384.7017, 0.014875117, 0.37331545, -955974.9, 635580.06, 0.24913034, 10.007525, 9.996811 
2.3554617e+3, 1.4759754e+2, -872050.06, -1489799.9, 16685.4, 0.028891113, 0.41577274, -871599.75, 621981.7, 0.15452562, 10.006677, 9.9969845 
2.3554075e+3, 1.5759368e+2, -845786.2, -1465781.8, 23836.873, -0.0047264392, 0.34730586, -844871.1, 550746.56, 0.07652708, 10.005748, 9.996922 
2.3553538e+3, 1.6759062e+2, -790226.1, -1335012.3, 26892.115, -0.012196732, 0.33406132, -788901.9, 508744.66, 0.027829064, 10.004949, 9.997531 
2.3553003e+3, 1.7758824e+2, -788653.5, -1291470.5, 16287.78, -0.0047912635, 0.35634464, -788126.44, 411542.06, 0.006271743, 10.004214, 9.997511 
2.3552468e+3, 1.8758579e+2, -740863.7, -1141728.8, 28168.191, -0.011193841, 0.34081465, -738894.0, 362797.3, 0.000536974, 10.003521, 9.9982 
2.355193e+3, 1.9758345e+2, -754963.3, -1117721.1, 40443.004, -0.024729347, 0.30317122, -750509.1, 253203.73, 0.0000010540285, 10.002834, 9.998024 
2.3551394e+3, 2.0758136e+2, -761799.75, -1045142.9, 32258.916, -0.031497832, 0.30162475, -758173.5, 147559.9, 0.0, 10.002006, 9.998249 
2.3550859e+3, 2.175796e+2, -788295.9, -999751.0, 17801.232, -0.035222884, 0.31297404, -786807.75, 20943.172, 0.0, 10.001118, 9.998316 
2.355032e+3, 2.2757828e+2, -731906.75, -819231.3, 13780.212, -0.043350562, 0.31494954, -729783.8, -20020.059, 0.0, 10.00039, 9.999232 
2.3549783e+3, 2.3757732e+2, -732521.94, -770145.75, 15438.151, -0.05309963, 0.3094507, -726998.2, -115225.55, 0.0, 9.999719, 9.999221 
2.3549241e+3, 2.4757668e+2, -701618.5, -627296.06, 1323.8821, -0.05448425, 0.30520612, -627272.44, -113493.734, 0.0, 9.998925, 9.999909 
2.3548698e+3, 2.575764e+2, -724767.8, -584630.3, -386.48196, -0.053159434, 0.29980117, -584629.25, -168847.84, 0.0, 9.99808, 9.999938 
2.3548156e+3, 2.6757675e+2, -700899.44, -436119.94, -5257.796, -0.054273453, 0.3139847, -436015.56, -118237.734, 0.0, 9.997202, 10.000707 
2.3547612e+3, 2.775775e+2, -732057.25, -396926.4, -5331.241, -0.05505245, 0.33061773, -396841.6, -177071.63, 0.0, 9.9963, 10.000738 
2.3547062e+3, 2.875779e+2, -704120.0, -241909.02, -10104.208, -0.079071306, 0.2736402, -241688.23, -119923.46, 0.0, 9.995427, 10.001551 
2.3546511e+3, 2.975785e+2, -760357.25, -265589.44, 10104.776, -0.11715716, 0.19472845, -265383.16, -241625.14, 0.0, 9.994571, 10.00113 
2.354599e+3, 3.075815e+2, -796418.56, -211863.05, 57419.2, -0.0077725756, 0.3918239, -206276.33, -206276.33, 0.0, 9.993788, 10.001542 
2.3545448e+3, 3.175833e+2, -725194.4, 140221.83, -155853.67, -0.04059772, 0.38852158, 167434.0, 167434.0, 0.0, 9.992921, 10.004372 
2.3655786e+3, 1.2765944e+2, -1045571.25, -1658151.5, 33349.94, 0.023142083, 0.4358531, -1043760.94, 645216.94, 0.33318266, 10.008556, 9.996369 
2.3655231e+3, 1.3765524e+2, -979070.2, -1590041.6, 13405.541, 0.034739204, 0.36135742, -978776.2, 612241.2, 0.24317461, 10.00735, 9.996645 
2.3654683e+3, 1.4765239e+2, -880366.2, -1490375.1, 34773.703, 0.039779454, 0.41012418, -878390.3, 614653.7, 0.15075678, 10.006569, 9.997028 
2.3654132e+3, 1.5764874e+2, -813596.44, -1445824.6, 38231.043, -0.006141346, 0.35756686, -811293.0, 583785.5, 0.074528016, 10.005967, 9.99695 
2.3653586e+3, 1.6764563e+2, -759189.5, -1321709.1, 52427.867, -0.011551214, 0.34264866, -754344.8, 542762.8, 0.026991313, 10.005179, 9.997508 
2.3653044e+3, 1.7764315e+2, -775482.8, -1287127.5, 59492.76, 0.0015225507, 0.35705894, -768656.25, 430474.53, 0.0060361335, 10.004319, 9.997488 
2.36525e+3, 1.876407e+2, -750375.8, -1148823.0, 54292.305, -0.008406683, 0.34639838, -743110.44, 358043.25, 0.00050837, 10.003471, 9.998174 
2.3651958e+3, 1.9763844e+2, -783909.3, -1131512.1, 34472.46, -0.027789466, 0.31836683, -780523.56, 222651.36, 0.0000010408802, 10.00264, 9.998021 
2.3651414e+3, 2.0763633e+2, -768813.1, -1042800.25, 37550.563, -0.03228421, 0.31165218, -763759.94, 141435.48, 0.0, 10.001937, 9.998296 
2.365087e+3, 2.176345e+2, -761827.5, -980666.44, 49621.23, -0.03026304, 0.3126786, -751101.7, 56111.332, 0.0, 10.001277, 9.998368 
2.3650324e+3, 2.2763315e+2, -720870.4, -807094.9, 46987.008, -0.037958063, 0.30738896, -700213.94, 9011.822, 0.0, 10.000441, 9.9992895 
2.3649777e+3, 2.3763219e+2, -755536.44, -774947.4, 39222.89, -0.048301518, 0.29680318, -724836.06, -113601.64, 0.0, 9.999538, 9.999272 
2.3649229e+3, 2.4763167e+2, -735683.0, -642545.06, 23677.744, -0.053621218, 0.3014436, -636871.3, -123631.33, 0.0, 9.9986925, 9.999915 
2.3648676e+3, 2.5763154e+2, -755024.6, -594675.2, 24772.387, -0.057520866, 0.31030735, -590935.3, -175693.38, 0.0, 9.997858, 9.999973 
2.3648125e+3, 2.6763195e+2, -706641.44, -426389.53, 22792.547, -0.06432971, 0.3262206, -424547.94, -107310.08, 0.0, 9.997114, 10.0008135 
2.3647574e+3, 2.7763277e+2, -709911.4, -374673.06, 23872.148, -0.06454669, 0.34001684, -372981.7, -153752.17, 0.0, 9.996408, 10.000835 
2.364702e+3, 2.8763342e+2, -659653.25, -215224.75, 6672.7905, -0.06754655, 0.2980841, -215124.58, -93902.39, 0.0, 9.995717, 10.001591 
2.364646e+3, 2.976342e+2, -698036.3, -224242.0, 10815.689, -0.095356196, 0.23686033, -223995.22, -200782.13, 0.0, 9.994957, 10.001224 
2.3645921e+3, 3.0763644e+2, -781724.7, -190933.86, 84629.01, -0.05588671, 0.34451234, -179050.05, -179050.05, 0.0, 9.993834, 10.001662 
2.3645371e+3, 3.1763765e+2, -730347.7, 99204.39, -112120.7, -0.09328954, 0.27639636, 114091.26, 114091.26, 0.0, 9.993055, 10.004024 
2.375587e+3, 1.2771536e+2, -1059004.4, -1695013.3, 2000.5646, 0.015440781, 0.4113377, -1058998.1, 629430.25, 0.32376957, 10.008483, 9.996048 
2.3755305e+3, 1.3771094e+2, -994569.4, -1644748.9, -16146.345, 0.038625028, 0.35930744, -994168.6, 596303.2, 0.23625039, 10.007338, 9.996276 
2.3754746e+3, 1.4770804e+2, -876911.2, -1493710.5, 16795.979, 0.041777853, 0.42114025, -876454.1, 616045.2, 0.1463343, 10.006579, 9.997001 
2.3754191e+3, 1.5770458e+2, -809856.5, -1441622.8, 16865.729, 0.0043138317, 0.38773614, -809406.56, 585125.6, 0.07216312, 10.005966, 9.996982 
2.3753637e+3, 1.6770132e+2, -745046.7, -1292292.9, 22047.893, -0.0009518418, 0.34438187, -744159.8, 552402.2, 0.02599118, 10.005174, 9.997715 
2.3753086e+3, 1.776986e+2, -773796.06, -1283741.0, 28276.537, 0.0070488644, 0.31693462, -772232.9, 426353.6, 0.0057471995, 10.004315, 9.997516 
2.3752534e+3, 1.8769625e+2, -782710.6, -1217122.3, 24064.736, -0.0094103245, 0.34375426, -781381.6, 319228.38, 0.00046961068, 10.003472, 9.997705 
2.375198e+3, 1.9769417e+2, -800199.0, -1166774.6, 7249.5884, -0.035325203, 0.3775902, -800055.7, 202575.94, 0.00000087333115, 10.002642, 9.99778 
2.375143e+3, 2.0769201e+2, -738886.4, -982333.1, 14920.873, -0.034299664, 0.35062936, -737975.3, 166676.27, 0.0, 10.00194, 9.998712 
2.3750882e+3, 2.1769011e+2, -741877.25, -940036.94, 24527.451, -0.023242136, 0.30301777, -738886.44, 67781.81, 0.0, 10.001276, 9.99865 
2.3750328e+3, 2.2768876e+2, -725847.56, -819077.44, 13940.68, -0.02848704, 0.29462326, -723807.6, -15127.24, 0.0, 10.000443, 9.9992075 
2.3749773e+3, 2.3768786e+2, -758424.6, -782620.1, 6257.883, -0.039552014, 0.29615337, -756901.94, -146213.11, 0.0, 9.999541, 9.99922 
2.3749214e+3, 2.476874e+2, -733099.2, -638394.1, -8840.647, -0.055377144, 0.30668166, -637575.9, -124881.67, 0.0, 9.998693, 9.999945 
2.3748653e+3, 2.5768736e+2, -751151.75, -588267.6, -6929.4287, -0.0757338, 0.32162884, -587973.4, -173277.56, 0.0, 9.997862, 10.000018 
2.3748094e+3, 2.6768783e+2, -697710.56, -409092.0, -5707.549, -0.08334337, 0.33527696, -408979.2, -92287.99, 0.0, 9.997115, 10.000934 
2.3747534e+3, 2.7768862e+2, -707252.2, -372175.8, -3080.1099, -0.0747209, 0.33520505, -372147.5, -153464.42, 0.0, 9.996417, 10.000851 
2.3746975e+3, 2.8768933e+2, -671817.25, -244686.23, -23318.783, -0.052084744, 0.31449145, -243416.94, -122741.66, 0.0, 9.995731, 10.001384 
2.3746412e+3, 2.9769063e+2, -679073.4, -190211.88, -27362.35, -0.0639542, 0.3193562, -188685.14, -166023.44, 0.0, 9.994976, 10.001451 
2.374585e+3, 3.0769214e+2, -744124.56, -111305.68, 37370.254, -0.11724199, 0.29839623, -109106.47, -109106.47, 0.0, 9.993823, 10.002215 
2.3745303e+3, 3.1769276e+2, -815645.8, -80673.21, -78827.47, -0.07522585, 0.16104628, -72313.87, -72313.87, 0.0, 9.993063, 10.002786 
2.385595e+3, 1.2777187e+2, -1110739.1, -1727330.1, 1083.846, 0.036109664, 0.41205058, -1110737.1, 577137.7, 0.31359178, 10.007819, 9.996148 
2.3855376e+3, 1.3776743e+2, -962158.94, -1630328.8, 7069.797, 0.029725157, 0.36180362, -962084.1, 627834.0, 0.22868711, 10.007585, 9.996253 
2.3854811e+3, 1.4776447e+2, -837297.6, -1474540.6, 47620.19, 0.03013418, 0.41946673, -833758.7, 658187.7, 0.14144897, 10.006868, 9.997008 
2.3854251e+3, 1.5776111e+2, -812088.0, -1445200.0, 48705.47, 0.012099199, 0.39657563, -808362.94, 585615.44, 0.06952415, 10.005947, 9.996965 
2.385369e+3, 1.6775778e+2, -761443.56, -1309066.8, 40185.402, 0.0044257767, 0.35127717, -758510.44, 537498.8, 0.024866339, 10.005095, 9.997636 
2.3853128e+3, 1.7775488e+2, -780633.1, -1291348.4, 29230.625, 0.00025253385, 0.3154036, -778965.56, 419070.03, 0.0054172184, 10.004291, 9.997472 
2.3852569e+3, 1.8775256e+2, -766196.25, -1202639.1, 47945.75, -0.012212938, 0.34415418, -760991.25, 339067.44, 0.00042333477, 10.003563, 9.997759 
2.3852007e+3, 1.977506e+2, -766300.56, -1144694.9, 63872.508, -0.027418245, 0.3846862, -755809.8, 246269.31, 0.00000061647575, 10.002854, 9.997827 
2.385145e+3, 2.0774847e+2, -730104.56, -971769.9, 61435.516, -0.028560169, 0.35752583, -715383.3, 188715.33, 0.0, 10.001978, 9.998764 
2.3850891e+3, 2.1774659e+2, -770982.0, -945993.3, 44525.77, -0.024277117, 0.30740368, -760305.25, 45809.836, 0.0, 10.001046, 9.998717 
2.3850329e+3, 2.2774532e+2, -747069.1, -818707.0, 36021.4, -0.030184627, 0.29903316, -732089.06, -23962.752, 0.0, 10.000257, 9.999299 
2.3849766e+3, 2.3774451e+2, -759530.1, -778068.25, 40826.582, -0.03825254, 0.3021231, -726933.6, -116799.92, 0.0, 9.999516, 9.999262 
2.38492e+3, 2.4774398e+2, -727079.9, -642905.94, 25159.457, -0.058373578, 0.31125462, -635959.1, -123819.32, 0.0, 9.998772, 9.999874 
2.384863e+3, 2.5774384e+2, -730118.9, -580896.3, 19153.17, -0.08413306, 0.32325965, -578477.1, -164334.45, 0.0, 9.998024, 9.999987 
2.3848061e+3, 2.6774433e+2, -678413.44, -391033.63, 16321.509, -0.093393475, 0.33469075, -390109.63, -73971.65, 0.0, 9.997216, 10.001006 
2.3847495e+3, 2.777452e+2, -712952.06, -371032.7, 15586.238, -0.08552466, 0.33482662, -370323.7, -152194.52, 0.0, 9.9963665, 10.000881 
2.3846932e+3, 2.87746e+2, -688581.9, -257662.31, 6652.3926, -0.05841914, 0.32744458, -257559.64, -137439.06, 0.0, 9.995644, 10.001334 
2.384636e+3, 2.9774737e+2, -672825.0, -178741.34, 5827.075, -0.05931104, 0.34402072, -178672.63, -156566.0, 0.0, 9.99499, 10.001519 
2.3845786e+3, 3.0774865e+2, -709091.5, -64255.152, 24823.193, -0.119988285, 0.28116947, -63300.99, -63300.99, 0.0, 9.993937, 10.002481 
2.384523e+3, 3.177526e+2, -803816.9, 30014.645, -20321.44, -0.083197996, 0.46394262, 30509.607, 30509.607, 0.0, 9.992699, 10.003718 
2.395603e+3, 1.278289e+2, -1075364.3, -1663989.5, -5308.317, 0.06654532, 0.4333774, -1075316.4, 612000.94, 0.30310124, 10.007843, 9.996637 
2.395545e+3, 1.3782465e+2, -942536.44, -1592025.5, -2524.7168, 0.00930745, 0.36321422, -942526.6, 646830.7, 0.220794, 10.007568, 9.996525 
2.3954876e+3, 1.4782159e+2, -835392.7, -1476499.9, 18432.967, 0.00757072, 0.40142447, -834863.1, 656523.06, 0.1362828, 10.006851, 9.997003 
2.395431e+3, 1.5781829e+2, -817872.2, -1460090.4, 17839.885, 0.015408517, 0.38692734, -817377.0, 576040.75, 0.06670566, 10.005936, 9.996869 
2.3953737e+3, 1.6781494e+2, -784224.5, -1358918.0, 12003.337, 0.0021487838, 0.36519304, -783973.9, 511475.97, 0.023660602, 10.005091, 9.997297 
2.3953167e+3, 1.7781195e+2, -787998.5, -1308161.4, 2668.9634, -0.019602714, 0.35006684, -787984.8, 409493.75, 0.0050627794, 10.004292, 9.997358 
2.39526e+3, 1.8780959e+2, -730372.4, -1129086.9, 23323.701, -0.016967062, 0.34687135, -729012.6, 370487.88, 0.00037348678, 10.003563, 9.998266 
2.3952036e+3, 1.9780764e+2, -747052.1, -1104538.3, 36201.277, -0.006060857, 0.34193438, -743423.0, 258095.39, 0.00000034817865, 10.00285, 9.998106 
2.395147e+3, 2.0780562e+2, -751636.44, -1017143.2, 27104.496, -0.016385201, 0.3348462, -748897.7, 154639.86, 0.0, 10.001977, 9.998455 
2.3950899e+3, 2.1780385e+2, -781825.44, -969235.5, 13263.961, -0.0345982, 0.32479227, -780891.4, 24663.176, 0.0, 10.001045, 9.998561 
2.395033e+3, 2.2780272e+2, -728980.44, -782649.56, 9399.166, -0.043332566, 0.32011947, -727381.94, -19817.467, 0.0, 10.000259, 9.999547 
2.3949759e+3, 2.3780204e+2, -750414.2, -761086.6, 13050.485, -0.048090756, 0.3158162, -741651.1, -132081.19, 0.0, 9.99952, 9.999379 
2.3949185e+3, 2.4780135e+2, -739669.06, -671344.2, -3928.071, -0.06382548, 0.31554413, -671119.06, -159541.48, 0.0, 9.998777, 9.999679 
2.3948608e+3, 2.5780088e+2, -738019.7, -600313.7, -10872.467, -0.08459163, 0.31263018, -599460.56, -185876.86, 0.0, 9.998033, 9.999852 
2.3948032e+3, 2.6780134e+2, -677466.7, -390813.5, -17847.78, -0.09540175, 0.324484, -389706.53, -74127.35, 0.0, 9.99722, 10.001007 
2.3947456e+3, 2.778024e+2, -709096.6, -365255.78, -17268.357, -0.097951524, 0.34613803, -364390.72, -146822.67, 0.0, 9.996372, 10.00092 
2.3946883e+3, 2.8780323e+2, -682985.75, -246584.06, -20156.62, -0.08776889, 0.3327699, -245655.05, -126095.57, 0.0, 9.995642, 10.001413 
2.3946306e+3, 2.9780397e+2, -682945.5, -199832.63, -22004.238, -0.087934054, 0.27872005, -198832.47, -177280.34, 0.0, 9.994987, 10.001378 
2.394573e+3, 3.0780625e+2, -710127.25, -68030.65, -30030.85, -0.06496531, 0.3347756, -66629.164, -66629.164, 0.0, 9.993938, 10.002458 
2.3945151e+3, 3.1780976e+2, -802432.44, 28726.605, -2451.79, -0.11599929, 0.45436478, 28733.836, 28733.836, 0.0, 9.992711, 10.003706 
2.4056111e+3, 1.2788682e+2, -1013315.2, -1635153.8, 27838.46, 0.076670796, 0.4351944, -1012071.44, 674678.94, 0.29265442, 10.008337, 9.9966755 
2.4055523e+3, 1.3788265e+2, -951258.8, -1600565.5, 15530.228, 0.008159539, 0.37417132, -950887.56, 637901.9, 0.21282403, 10.007428, 9.996534 
2.4054942e+3, 1.4787948e+2, -854084.56, -1483069.1, 28882.082, 0.0068091373, 0.4001468, -852761.06, 638058.3, 0.1309928, 10.006656, 9.997041 
2.4054368e+3, 1.5787625e+2, -818518.56, -1459085.5, 31818.984, 0.025959088, 0.39038336, -816941.9, 575908.44, 0.06379372, 10.005913, 9.996885 
2.405379e+3, 1.6787297e+2, -775744.6, -1357717.4, 44011.746, 0.012508238, 0.37790665, -772435.06, 522446.84, 0.022414705, 10.005161, 9.99727 
2.405321e+3, 1.7787e+2, -771040.6, -1300937.1, 52998.387, -0.014332663, 0.36980316, -765791.9, 431118.7, 0.004699929, 10.004414, 9.997347 
2.4052635e+3, 1.8786755e+2, -727408.94, -1122435.9, 54362.355, -0.016253399, 0.35485074, -720064.3, 378868.94, 0.000324155, 10.003565, 9.998308 
2.4052063e+3, 1.9786547e+2, -768707.6, -1108682.1, 35164.457, -0.008926809, 0.3343743, -765108.56, 235843.2, 0.0000001406684, 10.00268, 9.9981575 
2.4051487e+3, 2.0786354e+2, -766966.75, -1017631.44, 34946.137, -0.01830867, 0.33028388, -762186.0, 140783.98, 0.0, 10.001847, 9.998511 
2.4050908e+3, 2.1786189e+2, -782665.0, -967698.7, 45605.207, -0.033404287, 0.32917115, -772035.3, 32950.445, 0.0, 10.001035, 9.998573 
2.405033e+3, 2.2786073e+2, -733747.7, -793318.9, 34073.56, -0.04821736, 0.32709268, -718276.4, -11279.997, 0.0, 10.000267, 9.999468 
2.4049751e+3, 2.3786e+2, -753997.6, -766738.2, 15815.535, -0.060878336, 0.32415888, -743317.6, -134314.78, 0.0, 9.999517, 9.999339 
2.404917e+3, 2.478593e+2, -722789.7, -655781.0, 9862.506, -0.06972165, 0.32185766, -654359.6, -143349.4, 0.0, 9.998865, 9.999741 
2.4048589e+3, 2.578588e+2, -709904.1, -584103.56, 18686.371, -0.07788462, 0.31329924, -581386.56, -168370.77, 0.0, 9.998218, 9.999872 
2.4048004e+3, 2.6785913e+2, -662365.6, -391008.78, 6555.5825, -0.09417915, 0.31639886, -390850.5, -75838.1, 0.0, 9.997361, 10.0009365 
2.4047416e+3, 2.778601e+2, -700890.1, -364223.78, 2030.9556, -0.107689515, 0.335642, -364211.53, -147209.31, 0.0, 9.9964485, 10.000887 
2.4046835e+3, 2.8786102e+2, -683095.25, -241328.08, -863.6213, -0.10333028, 0.33003527, -241326.39, -122333.38, 0.0, 9.995624, 10.001455 
2.4046253e+3, 2.978616e+2, -712868.5, -218404.66, -5784.0933, -0.10205172, 0.26111823, -218337.02, -197349.8, 0.0, 9.9948015, 10.001338 
2.4045669e+3, 3.078643e+2, -695960.7, -69008.93, -20617.877, -0.052297004, 0.36506084, -68331.625, -68331.625, 0.0, 9.994075, 10.002382 
2.4045083e+3, 3.1786418e+2, -800990.9, -85826.2, 25959.305, -0.09026102, 0.12276728, -84885.164, -84885.164, 0.0, 9.99323, 10.002663 
2.4156192e+3, 1.2794533e+2, -1022664.8, -1669110.1, 1388.5724, 0.065800376, 0.4075349, -1022661.8, 663514.6, 0.28245604, 10.008308, 9.996356 
2.4155596e+3, 1.379414e+2, -957894.2, -1632841.0, -6987.245, 0.018550303, 0.40050524, -957821.8, 630392.6, 0.20494659, 10.00742, 9.996318 
2.4155007e+3, 1.4793816e+2, -846059.9, -1475536.1, 6707.4375, 0.019026088, 0.4212057, -845988.44, 644257.25, 0.12570378, 10.006656, 9.997103 
2.4154426e+3, 1.5793492e+2, -810421.06, -1444869.9, 7270.958, 0.03995756, 0.40502974, -810337.75, 581938.9, 0.060864784, 10.005907, 9.996987 
2.415384e+3, 1.6793177e+2, -760525.56, -1326554.3, 18053.174, 0.03355994, 0.38675654, -759950.3, 534356.2, 0.021165311, 10.005156, 9.997488 
2.4153255e+3, 1.7792894e+2, -768254.4, -1294869.3, 24926.082, 0.012930621, 0.37271023, -767077.2, 429255.97, 0.0043425015, 10.004408, 9.997394 
2.4152668e+3, 1.8792634e+2, -755392.25, -1180120.3, 22344.818, -0.012306247, 0.36743835, -754219.94, 344137.94, 0.00027860896, 10.003559, 9.997917 
2.4152085e+3, 1.9792403e+2, -781182.2, -1134320.5, 4844.6475, -0.03647314, 0.36044538, -781115.7, 219264.02, 0.00000003428923, 10.002675, 9.997986 
2.4151501e+3, 2.0792215e+2, -739505.0, -961999.06, 6017.424, -0.03372448, 0.3433174, -739342.4, 163054.14, 0.0, 10.001849, 9.998894 
2.4150918e+3, 2.1792065e+2, -771995.4, -946665.9, 17448.123, -0.023823984, 0.3213964, -770269.5, 34140.105, 0.0, 10.001036, 9.99872 
2.4150331e+3, 2.279193e+2, -762175.7, -854337.0, 6790.8506, -0.046556067, 0.3210893, -761677.94, -55255.16, 0.0, 10.000272, 9.999048 
2.4149744e+3, 2.3791824e+2, -767576.3, -797561.3, -10832.949, -0.07779755, 0.32610184, -764072.1, -155638.52, 0.0, 9.999524, 9.999126 
2.4149156e+3, 2.4791774e+2, -699898.0, -610041.44, -15065.764, -0.07601199, 0.3297314, -607582.7, -97144.18, 0.0, 9.998869, 10.000054 
2.414857e+3, 2.579176e+2, -696773.4, -559651.44, -9880.589, -0.066702664, 0.3275943, -558943.2, -146503.66, 0.0, 9.998225, 10.000039 
2.4147975e+3, 2.6791766e+2, -673855.75, -417173.22, -30131.299, -0.090476975, 0.3098841, -413683.63, -99245.07, 0.0, 9.997366, 10.000756 
2.4147381e+3, 2.7791813e+2, -710064.4, -384965.38, -32682.18, -0.117955625, 0.29684895, -381712.38, -165278.92, 0.0, 9.996451, 10.000746 
2.414679e+3, 2.879193e+2, -681007.4, -237226.9, -33750.484, -0.106279776, 0.3208319, -234674.8, -116252.78, 0.0, 9.995621, 10.001487 
2.4146199e+3, 2.9792053e+2, -707717.3, -208750.25, -36342.082, -0.09989232, 0.31344497, -206117.19, -185706.97, 0.0, 9.9948015, 10.001407 
2.4145606e+3, 3.0792236e+2, -718951.0, -118029.805, -50050.387, -0.08383261, 0.3404031, -113889.664, -113889.664, 0.0, 9.994077, 10.002047 
2.414501e+3, 3.1792423e+2, -767827.44, -24471.748, 950.0501, -0.11603567, 0.34278065, -24470.533, -24470.533, 0.0, 9.993252, 10.003079 
2.4256274e+3, 1.280049e+2, -1000285.5, -1661595.8, 13242.927, 0.06625388, 0.4085588, -1000020.44, 685572.9, 0.27255154, 10.008425, 9.996368 
2.4255669e+3, 1.3800113e+2, -942490.06, -1628616.8, 24695.814, 0.035555616, 0.41875604, -941602.3, 646027.4, 0.19723836, 10.0075035, 9.996307 
2.4255073e+3, 1.4799772e+2, -847754.6, -1481797.0, 42935.73, 0.031807315, 0.42856005, -844860.3, 644802.2, 0.12049758, 10.006633, 9.997061 
2.4254483e+3, 1.5799442e+2, -824464.44, -1453773.5, 39906.777, 0.045081858, 0.40944755, -821943.94, 569750.56, 0.05797863, 10.005797, 9.996978 
2.4253888e+3, 1.6799134e+2, -766606.3, -1321542.8, 45732.895, 0.035968956, 0.39431232, -762862.7, 530860.94, 0.019942641, 10.005076, 9.997559 
2.4253295e+3, 1.7798859e+2, -768689.4, -1289952.0, 42072.73, 0.014204637, 0.38363564, -765315.4, 430433.75, 0.0040012584, 10.004388, 9.997435 
2.4252702e+3, 1.8798594e+2, -758885.6, -1185295.3, 50388.75, -0.015055097, 0.3755654, -753012.1, 344762.2, 0.00023879341, 10.003555, 9.997881 
2.4252109e+3, 1.9798355e+2, -780707.6, -1136524.3, 55972.77, -0.043432765, 0.36413923, -772110.4, 227686.88, 0.000000003872902, 10.00269, 9.997962 
2.4251519e+3, 2.0798168e+2, -714325.25, -947102.75, 48394.203, -0.042871688, 0.3483726, -704665.06, 197148.94, 0.0, 10.002013, 9.998916 
2.4250928e+3, 2.1798022e+2, -720875.8, -920203.8, 32885.184, -0.033311818, 0.33094513, -715590.56, 88235.86, 0.0, 10.001385, 9.998731 
2.4250332e+3, 2.2797881e+2, -730586.75, -841964.94, 33984.2, -0.048835974, 0.3267629, -721036.3, -15196.187, 0.0, 10.000505, 9.999019 
2.4249737e+3, 2.3797764e+2, -764624.75, -795882.4, 45427.13, -0.07005118, 0.32395908, -732213.1, -124361.15, 0.0, 9.999548, 9.999124 
2.4249142e+3, 2.4797717e+2, -716073.75, -610046.5, 39187.23, -0.073785946, 0.32867435, -597135.3, -87278.95, 0.0, 9.99873, 10.000119 
2.4248548e+3, 2.5797713e+2, -734232.7, -574894.0, 24590.783, -0.07317937, 0.33268157, -571185.2, -159329.22, 0.0, 9.997962, 10.000058 
2.4247947e+3, 2.6797712e+2, -696162.06, -438908.4, 1254.2347, -0.09212216, 0.3141828, -438902.3, -125046.445, 0.0, 9.997265, 10.000654 
2.4247344e+3, 2.7797735e+2, -702849.7, -392000.4, 2708.2668, -0.10948147, 0.28997472, -391976.8, -176123.66, 0.0, 9.996548, 10.000649 
2.4246746e+3, 2.8797847e+2, -662657.5, -230517.47, 754.3305, -0.09944225, 0.3160044, -230516.16, -112673.87, 0.0, 9.99576, 10.001464 
2.4246144e+3, 2.9798007e+2, -682173.56, -196777.7, -6834.617, -0.10144978, 0.34555876, -196681.5, -176854.17, 0.0, 9.9949875, 10.001395 
2.4245544e+3, 3.0798128e+2, -734314.6, -152261.27, -24223.02, -0.10062057, 0.3254025, -151254.92, -151254.92, 0.0, 9.994091, 10.001802 
2.4244939e+3, 3.1798366e+2, -737439.44, 80314.82, 59513.363, -0.1384123, 0.4036207, 84623.305, 84623.305, 0.0, 9.99307, 10.003888 
2.4356355e+3, 1.2806547e+2, -981635.5, -1637454.1, -11435.292, 0.06663733, 0.44083557, -981436.2, 703564.75, 0.2628777, 10.008403, 9.996597 
2.4355745e+3, 1.3806163e+2, -930012.0, -1611244.0, -1123.852, 0.05419569, 0.42225847, -930010.1, 657027.06, 0.18970509, 10.007499, 9.996428 
2.4355139e+3, 1.4805801e+2, -851383.9, -1501496.5, 15706.246, 0.043058425, 0.41644403, -851004.6, 638067.4, 0.11541401, 10.00664, 9.996919 
2.4354538e+3, 1.5805463e+2, -829449.6, -1470065.1, 13285.888, 0.041347302, 0.40486425, -829174.2, 561930.6, 0.055172414, 10.005799, 9.996867 
2.4353938e+3, 1.6805162e+2, -771106.56, -1331712.4, 22767.074, 0.020372216, 0.40372747, -770183.5, 522950.1, 0.018766511, 10.00507, 9.997494 
2.4353337e+3, 1.7804895e+2, -768317.4, -1287103.6, 16854.525, -0.010330711, 0.4048951, -767770.4, 427388.28, 0.0036825843, 10.004374, 9.997462 
2.4352737e+3, 1.880463e+2, -741299.3, -1148920.0, 19338.512, -0.024548985, 0.38029945, -740383.9, 356799.3, 0.00020527234, 10.0035515, 9.998135 
2.4352136e+3, 1.980439e+2, -774761.4, -1125645.5, 27783.332, -0.0325901, 0.34539822, -772575.06, 226630.44, 0.0000000002134854, 10.002693, 9.998037 
2.4351536e+3, 2.0804201e+2, -737363.7, -996087.25, 26544.676, -0.04735485, 0.34600002, -734668.3, 166554.94, 0.0, 10.002015, 9.998581 
2.4350938e+3, 2.1804053e+2, -730696.7, -940743.3, 7635.4854, -0.0630668, 0.35612363, -730419.5, 72817.664, 0.0, 10.001382, 9.998593 
2.4350335e+3, 2.280392e+2, -706338.2, -792660.25, -1297.2744, -0.05485091, 0.34291998, -706318.7, -1069.4952, 0.0, 10.000507, 9.999358 
2.4349734e+3, 2.3803814e+2, -752097.94, -770525.44, 11549.629, -0.040527783, 0.3194921, -746537.1, -139278.52, 0.0, 9.999546, 9.999301 
2.4349128e+3, 2.4803755e+2, -730313.0, -640780.0, 9077.965, -0.064931795, 0.3199534, -639868.8, -130604.58, 0.0, 9.998731, 9.99991 
2.4348523e+3, 2.5803736e+2, -744307.8, -597788.75, -4315.3667, -0.10133422, 0.328584, -597661.75, -186395.63, 0.0, 9.997967, 9.999901 
2.4347918e+3, 2.6803747e+2, -697948.9, -443851.28, -26714.549, -0.09933645, 0.33054924, -441073.03, -127808.04, 0.0, 9.997266, 10.000622 
2.434731e+3, 2.7803782e+2, -705222.94, -400535.3, -26556.992, -0.079478316, 0.32022056, -398237.9, -182976.44, 0.0, 9.996558, 10.000588 
2.4346702e+3, 2.8803852e+2, -672510.06, -254321.6, -30933.691, -0.083231375, 0.3140855, -252045.8, -134790.84, 0.0, 9.9957695, 10.001298 
2.4346091e+3, 2.980399e+2, -691987.44, -218598.06, -38676.996, -0.118090264, 0.3445438, -215458.88, -196217.48, 0.0, 9.994989, 10.001246 
2.4345483e+3, 3.080412e+2, -735671.2, -153651.25, -66352.22, -0.093174756, 0.3368301, -146182.72, -146182.72, 0.0, 9.994082, 10.0018 
2.4344867e+3, 3.1804228e+2, -786674.6, -18392.521, 24071.035, -0.11979395, 0.28663957, -17639.092, -17639.092, 0.0, 9.993054, 10.003219 
2.4456435e+3, 1.2812693e+2, -972878.9, -1650516.1, 23984.459, 0.046588324, 0.44051823, -972031.0, 712367.44, 0.25332308, 10.008475, 9.996437 
2.445582e+3, 1.38123e+2, -913918.0, -1620239.6, 23020.85, 0.078056075, 0.42631042, -913168.44, 673267.75, 0.18231136, 10.0076475, 9.996295 
2.4455208e+3, 1.4811926e+2, -834158.7, -1505528.9, 38793.016, 0.053514406, 0.42001677, -831924.6, 656548.06, 0.110457964, 10.0068035, 9.99681 
2.4454595e+3, 1.5811583e+2, -805163.25, -1462574.0, 37920.42, 0.023144543, 0.41471857, -802983.2, 587523.0, 0.05245834, 10.005985, 9.996827 
2.4453984e+3, 1.6811283e+2, -762882.56, -1315932.8, 56411.23, 0.011371318, 0.40977594, -757187.25, 535347.25, 0.01764314, 10.005073, 9.997601 
2.4453379e+3, 1.7811015e+2, -796432.4, -1293869.1, 61214.67, 0.0010735377, 0.4030921, -789010.06, 405549.06, 0.0033873802, 10.0041485, 9.997525 
2.4452771e+3, 1.8810757e+2, -748564.9, -1153707.9, 55806.594, -0.013118408, 0.38210833, -741018.3, 355565.2, 0.00017744735, 10.00351, 9.99812 
2.4452163e+3, 1.9810522e+2, -737729.3, -1105305.6, 45297.8, -0.027090242, 0.35544923, -732229.4, 266376.13, 0.00000000008671795, 10.002945, 9.998052 
2.4451552e+3, 2.0810337e+2, -736570.8, -990807.25, 56513.207, -0.04952192, 0.35953766, -724574.75, 176048.03, 0.0, 10.002006, 9.998619 
2.4450944e+3, 2.1810192e+2, -789305.5, -965490.94, 62843.652, -0.07226192, 0.37020394, -769187.06, 33449.316, 0.0, 10.000967, 9.998622 
2.4450336e+3, 2.2810054e+2, -732991.8, -801613.1, 45112.31, -0.0629063, 0.35098037, -710624.94, -5976.256, 0.0, 10.000311, 9.999389 
2.4449728e+3, 2.3809944e+2, -719924.7, -752220.94, 35104.695, -0.04353352, 0.32108158, -697432.1, -90773.86, 0.0, 9.999761, 9.99932 
2.4449116e+3, 2.4809885e+2, -703695.5, -631623.56, 35514.95, -0.066578574, 0.32394278, -617064.06, -108400.305, 0.0, 9.998933, 9.999874 
2.44485e+3, 2.5809866e+2, -740135.2, -599869.75, 36157.918, -0.101464346, 0.33664492, -591097.5, -180431.8, 0.0, 9.998015, 9.999862 
2.4447888e+3, 2.680987e+2, -695028.25, -447780.44, 20280.576, -0.09192341, 0.33929285, -446127.97, -133462.78, 0.0, 9.997313, 10.00057 
2.4447276e+3, 2.78099e+2, -692934.56, -400948.03, 16568.225, -0.063749015, 0.32796174, -400010.9, -185348.38, 0.0, 9.996676, 10.000525 
2.4446657e+3, 2.880996e+2, -664994.8, -265622.97, 9310.306, -0.09000165, 0.3239978, -265406.03, -148748.98, 0.0, 9.995888, 10.001162 
2.4446037e+3, 2.9810092e+2, -702483.7, -240292.78, 2349.3687, -0.14805089, 0.35980996, -240280.84, -221636.23, 0.0, 9.994987, 10.001101 
2.4445428e+3, 3.0810204e+2, -716421.6, -137819.88, -24295.875, -0.036193203, 0.34437647, -136801.47, -136801.47, 0.0, 9.994186, 10.001858 
2.4444798e+3, 3.1810445e+2, -770103.6, -81909.11, 56953.336, -0.1465158, 0.420836, -77227.63, -77227.63, 0.0, 9.993485, 10.002568 
2.4556516e+3, 1.281891e+2, -987053.25, -1694620.4, -108.872665, 0.007772873, 0.4077695, -987053.25, 696735.1, 0.24379443, 10.008439, 9.996073 
2.4555898e+3, 1.3818526e+2, -927123.0, -1664410.5, -836.1375, 0.1012848, 0.4373286, -927122.06, 658704.7, 0.175013, 10.007628, 9.995999 
2.4555273e+3, 1.4818144e+2, -839411.25, -1526339.9, 14016.947, 0.05873124, 0.4431351, -839125.4, 648739.1, 0.10561345, 10.006799, 9.996671 
2.4554649e+3, 1.5817788e+2, -805271.1, -1465388.3, 10362.844, -0.0104972, 0.4373013, -805108.5, 584790.9, 0.04982989, 10.005977, 9.996814 
2.4554034e+3, 1.681748e+2, -746915.25, -1283777.9, 23359.193, 0.0064116796, 0.41054252, -745900.8, 546026.8, 0.016568221, 10.005069, 9.997825 
2.4553423e+3, 1.7817208e+2, -790941.2, -1284281.0, 31679.83, 0.043135636, 0.3782883, -788915.2, 405036.63, 0.0031126074, 10.004151, 9.997591 
2.4552807e+3, 1.8816958e+2, -767046.2, -1192619.8, 36699.285, 0.016103579, 0.3818004, -763904.6, 332071.56, 0.0001540495, 10.003508, 9.997856 
2.455219e+3, 1.9816738e+2, -743433.0, -1114898.4, 20953.201, -0.02873164, 0.39367175, -742254.9, 255743.2, 0.00000000016280782, 10.002932, 9.997995 
2.4551572e+3, 2.0816569e+2, -710639.2, -936557.94, 18137.074, -0.049788084, 0.38837773, -709192.44, 190820.9, 0.0, 10.002, 9.998996 
2.4550955e+3, 2.1816432e+2, -778087.2, -942494.4, 31184.012, -0.0637342, 0.37424248, -772371.1, 29653.78, 0.0, 10.000964, 9.998783 
2.4550337e+3, 2.2816278e+2, -753441.9, -846080.2, 26578.014, -0.07471402, 0.35232526, -746358.25, -42318.945, 0.0, 10.000316, 9.9990835 
2.454972e+3, 2.3816146e+2, -730048.25, -776798.2, 10558.514, -0.08238999, 0.3281943, -727774.2, -121722.13, 0.0, 9.999772, 9.999149 
2.4549101e+3, 2.4816097e+2, -693222.8, -612099.1, -1093.4391, -0.07881633, 0.3399294, -612084.4, -104028.43, 0.0, 9.998939, 10.000008 
2.4548481e+3, 2.5816098e+2, -734733.5, -590144.94, 3165.6777, -0.07357637, 0.35929146, -590075.7, -180020.42, 0.0, 9.998017, 9.999929 
2.4547862e+3, 2.6816076e+2, -700482.25, -460793.34, -4674.6265, -0.07065862, 0.339086, -460702.2, -148645.08, 0.0, 9.997315, 10.000482 
2.4547242e+3, 2.7816078e+2, -697000.06, -411656.2, -9294.326, -0.06822538, 0.30735788, -411353.78, -197296.31, 0.0, 9.996682, 10.000451 
2.4546611e+3, 2.8816178e+2, -668725.75, -274546.16, -25093.613, -0.12281571, 0.35066444, -272955.1, -156906.8, 0.0, 9.995889, 10.001103 
2.4545981e+3, 2.981633e+2, -708469.1, -255303.0, -31074.844, -0.18894498, 0.41363758, -253182.05, -235147.86, 0.0, 9.994992, 10.000998 
2.4545379e+3, 3.0816352e+2, -714360.56, -137465.39, -47381.65, 0.072516456, 0.31247905, -133599.73, -133599.73, 0.0, 9.994198, 10.001857 
2.4544725e+3, 3.1816548e+2, -759373.56, -60999.457, -9093.409, -0.20428692, 0.34018636, -60881.074, -60881.074, 0.0, 9.99349, 10.00271 
2.46566e+3, 1.2825225e+2, -999702.6, -1708166.6, 9400.251, 0.040974718, 0.42975217, -999577.94, 683592.56, 0.23423404, 10.008242, 9.996077 
2.4655972e+3, 1.3824819e+2, -901755.6, -1651077.9, 20445.494, 0.0770345, 0.4384392, -901198.2, 684012.7, 0.16775501, 10.00778, 9.996018 
2.4655339e+3, 1.4824443e+2, -826827.0, -1520744.8, 41491.688, 0.04746224, 0.4483467, -824354.9, 662893.2, 0.10083766, 10.006866, 9.996677 
2.4654707e+3, 1.5824094e+2, -822763.44, -1477184.1, 48564.297, 0.011276772, 0.45144215, -819179.1, 570102.94, 0.0472601, 10.005851, 9.996794 
2.4654084e+3, 1.6823778e+2, -749837.1, -1293283.5, 53021.098, 0.015950676, 0.42176172, -744712.5, 546598.9, 0.015528214, 10.005084, 9.997749 
2.4653462e+3, 1.7823492e+2, -757334.1, -1266597.0, 44158.31, 0.02851491, 0.38355446, -753533.5, 439803.56, 0.0028527987, 10.004384, 9.997597 
2.4652839e+3, 1.8823256e+2, -765764.25, -1176167.9, 66371.375, 0.007386268, 0.39186862, -755297.5, 340062.4, 0.00013361072, 10.003453, 9.997993 
2.4652214e+3, 1.9823056e+2, -803607.7, -1134570.5, 74055.25, -0.0229657, 0.4117619, -787793.0, 209586.67, 0.00000000021615258, 10.002476, 9.99808 
2.465159e+3, 2.0822883e+2, -741494.3, -950903.94, 55173.457, -0.040969677, 0.39998445, -727847.06, 171548.4, 0.0, 10.001788, 9.998998 
2.4650964e+3, 2.1822734e+2, -745084.9, -923830.5, 43361.42, -0.054932125, 0.3755969, -735121.4, 66286.82, 0.0, 10.001186, 9.9988 
2.465034e+3, 2.2822586e+2, -734934.25, -836884.44, 55245.953, -0.07316811, 0.36035186, -710739.0, -7317.0356, 0.0, 10.000446, 9.999082 
2.4649714e+3, 2.3822463e+2, -745569.75, -782363.06, 59794.906, -0.088789806, 0.34665892, -701405.5, -95971.72, 0.0, 9.999661, 9.999162 
2.464909e+3, 2.482241e+2, -692348.06, -606185.9, 44059.164, -0.079541095, 0.3493435, -587645.56, -80207.57, 0.0, 9.998925, 10.000052 
2.4648462e+3, 2.5822398e+2, -708544.6, -575333.94, 42394.86, -0.06441437, 0.3537367, -562986.1, -153548.08, 0.0, 9.998193, 9.999945 
2.4647835e+3, 2.6822373e+2, -692806.56, -463690.44, 36850.902, -0.06670528, 0.33301818, -457909.22, -146468.66, 0.0, 9.997399, 10.000421 
2.4647205e+3, 2.782237e+2, -715743.56, -424526.2, 32490.797, -0.07118785, 0.30821407, -420945.25, -207504.03, 0.0, 9.996571, 10.000417 
2.4646567e+3, 2.8822482e+2, -680978.9, -274940.2, 17598.51, -0.12565152, 0.3634694, -274178.84, -158748.1, 0.0, 9.995784, 10.001149 
2.4645928e+3, 2.982264e+2, -701401.8, -242745.64, 19484.42, -0.19270663, 0.4237828, -241919.4, -224503.1, 0.0, 9.995009, 10.00107 
2.4645323e+3, 3.0822623e+2, -678094.5, -117100.74, 24454.55, 0.10389225, 0.28370976, -116036.75, -116036.75, 0.0, 9.994444, 10.001874 
2.4644661e+3, 3.1822824e+2, -732399.2, -78797.42, -9440.557, -0.1775897, 0.3226223, -78661.086, -78661.086, 0.0, 9.993809, 10.002435 
2.475669e+3, 1.283163e+2, -979473.44, -1677230.1, -133.91234, 0.12196778, 0.49489465, -979473.44, 703071.56, 0.22457348, 10.008238, 9.996298 
2.475604e+3, 1.3831173e+2, -889364.5, -1625602.4, 2107.754, 0.007915322, 0.43064907, -889358.44, 695231.0, 0.16044793, 10.007737, 9.996213 
2.4755403e+3, 1.4830808e+2, -816744.5, -1503761.8, 7058.8647, 0.02063431, 0.43800983, -816672.0, 669952.75, 0.09605407, 10.006852, 9.996802 
2.475477e+3, 1.583049e+2, -820981.94, -1480514.5, 17124.885, 0.079214096, 0.4598525, -820537.56, 568117.94, 0.04470286, 10.005862, 9.996766 
2.4754134e+3, 1.6830164e+2, -771529.9, -1342175.0, 29903.93, 0.03592086, 0.44441912, -769967.06, 520719.6, 0.014502973, 10.005089, 9.997414 
2.4753496e+3, 1.782986e+2, -762458.56, -1275693.1, 17329.3, -0.038352333, 0.4174765, -761874.06, 430841.16, 0.002601762, 10.004373, 9.997542 
2.4752866e+3, 1.882964e+2, -733261.9, -1108336.3, 30835.525, -0.0360192, 0.41068074, -730743.7, 363991.8, 0.00011496107, 10.003447, 9.998466 
2.4752238e+3, 1.982946e+2, -790490.4, -1108083.0, 42973.67, -0.011462208, 0.40906975, -784778.3, 211973.22, 0.00000000023303823, 10.002475, 9.998264 
2.4751607e+3, 2.0829263e+2, -767565.3, -1006677.5, 33881.516, -0.02451305, 0.39536232, -762857.06, 135913.06, 0.0, 10.001791, 9.998615 
2.4750975e+3, 2.1829087e+2, -755960.7, -947129.25, 20294.318, -0.048656322, 0.3755586, -753830.0, 46957.105, 0.0, 10.001184, 9.998644 
2.4750341e+3, 2.2828971e+2, -712803.25, -792390.56, 26449.238, -0.05867135, 0.3755872, -704815.1, -2017.6444, 0.0, 10.000449, 9.999388 
2.4749713e+3, 2.382889e+2, -732214.6, -755781.9, 31082.922, -0.06315077, 0.37784973, -710756.7, -105952.67, 0.0, 9.999662, 9.999346 
2.4749078e+3, 2.4828808e+2, -696503.8, -616613.2, 16091.518, -0.06954187, 0.35152283, -613493.8, -106683.21, 0.0, 9.998929, 9.999981 
2.474844e+3, 2.5828752e+2, -711434.3, -585343.5, 13251.502, -0.07938216, 0.31700706, -583965.9, -175150.72, 0.0, 9.998206, 9.999872 
2.4747805e+3, 2.6828745e+2, -695747.2, -471146.94, 3751.1816, -0.08188584, 0.32166907, -471084.3, -160268.16, 0.0, 9.9974, 10.00037 
2.4747168e+3, 2.782878e+2, -716971.4, -426753.38, 917.5101, -0.072048865, 0.33864984, -426750.47, -213936.9, 0.0, 9.996564, 10.000406 
2.4746525e+3, 2.882886e+2, -673784.25, -260774.67, -13567.728, -0.09616015, 0.35576496, -260329.45, -145523.78, 0.0, 9.995782, 10.001249 
2.4745879e+3, 2.9828972e+2, -683726.75, -208640.75, -9158.1, -0.16037372, 0.36079198, -208464.28, -191669.63, 0.0, 9.995016, 10.001304 
2.4745259e+3, 3.0829063e+2, -669443.6, -97730.53, 6398.775, 0.046012916, 0.3025196, -97658.92, -97658.92, 0.0, 9.994435, 10.002012 
2.4744602e+3, 3.182932e+2, -771685.94, -173056.78, -71965.625, -0.13895842, 0.4120456, -164526.81, -164526.81, 0.0, 9.993841, 10.001783 
2.485677e+3, 1.2838079e+2, -940311.25, -1667786.8, 31270.23, 0.113395594, 0.49339807, -938969.6, 742944.06, 0.21469161, 10.008526, 9.996243 
2.4856116e+3, 1.3837633e+2, -920147.75, -1644047.1, 25051.352, 0.02594691, 0.44649675, -919281.9, 664675.44, 0.15296833, 10.007426, 9.996236 
2.4855469e+3, 1.4837272e+2, -820296.94, -1487959.1, 31606.236, 0.025421537, 0.44657603, -818804.06, 667187.8, 0.09116766, 10.006721, 9.996971 
2.4854827e+3, 1.5836957e+2, -776723.9, -1449283.4, 43114.688, 0.06408629, 0.45681134, -773971.25, 614050.56, 0.042105228, 10.006131, 9.996849 
2.4854182e+3, 1.6836631e+2, -763645.6, -1349464.9, 66144.61, 0.025647737, 0.4488427, -756270.1, 533783.0, 0.013471992, 10.005189, 9.997315 
2.4853538e+3, 1.7836331e+2, -795803.2, -1296883.9, 66452.516, -0.03901137, 0.4341478, -787140.1, 404942.03, 0.0023543544, 10.004163, 9.9974985 
2.4852897e+3, 1.8836102e+2, -744782.4, -1105964.6, 61481.297, -0.03706641, 0.41865373, -734603.75, 359499.22, 0.00009743898, 10.003337, 9.998532 
2.4852264e+3, 1.9835915e+2, -772276.3, -1092352.6, 50357.48, -0.01396099, 0.40185806, -764540.5, 231578.9, 0.00000000017417703, 10.002579, 9.998318 
2.4851623e+3, 2.0835724e+2, -759959.8, -1004635.3, 61676.184, -0.025007315, 0.3937201, -745292.2, 152845.34, 0.0, 10.001856, 9.998595 
2.4850984e+3, 2.1835557e+2, -761191.6, -945626.5, 70436.52, -0.045913998, 0.38558894, -737368.7, 62785.09, 0.0, 10.001134, 9.998677 
2.4850345e+3, 2.2835441e+2, -721024.7, -778123.5, 69084.15, -0.05269736, 0.37824053, -674823.3, 27340.326, 0.0, 10.000318, 9.999547 
2.4849707e+3, 2.3835365e+2, -750784.8, -751715.75, 63711.023, -0.05317917, 0.36898232, -687537.56, -83368.12, 0.0, 9.999484, 9.999457 
2.4849065e+3, 2.483529e+2, -721065.8, -629392.94, 53927.21, -0.06401014, 0.34662232, -604454.25, -98278.59, 0.0, 9.998768, 9.9999695 
2.4848421e+3, 2.583524e+2, -728405.94, -589710.1, 54988.113, -0.07997048, 0.3187553, -570554.8, -162374.86, 0.0, 9.998077, 9.999902 
2.4847776e+3, 2.683524e+2, -692145.9, -456148.5, 54037.99, -0.08596542, 0.32401577, -444363.53, -134183.64, 0.0, 9.997374, 10.000484 
2.4847132e+3, 2.7835283e+2, -699575.8, -409687.25, 62142.816, -0.07621451, 0.33984572, -396927.47, -184751.31, 0.0, 9.996653, 10.000478 
2.4846484e+3, 2.8835347e+2, -649206.3, -250799.13, 45840.797, -0.082616225, 0.343569, -245592.7, -131423.02, 0.0, 9.995963, 10.001228 
2.4845833e+3, 2.983544e+2, -644915.06, -193498.78, 40168.063, -0.13297866, 0.33386195, -189952.39, -173791.67, 0.0, 9.995299, 10.001271 
2.4845198e+3, 3.0835596e+2, -644690.06, -96900.69, 31482.799, -0.009846387, 0.34650478, -95097.23, -95097.23, 0.0, 9.994658, 10.001907 
2.4844536e+3, 3.1835702e+2, -726764.1, -104635.33, -53536.473, -0.15382084, 0.31539235, -100061.94, -100061.94, 0.0, 9.993953, 10.002196 
2.4956846e+3, 1.2844568e+2, -945392.06, -1695099.4, -2148.7932, 0.037543837, 0.44703662, -945385.9, 735891.06, 0.20445205, 10.008493, 9.996045 
2.4956197e+3, 1.3844189e+2, -920648.94, -1655970.9, -3227.5251, 0.11018927, 0.48431492, -920634.75, 662680.7, 0.14520808, 10.007406, 9.996164 
2.4955536e+3, 1.4843825e+2, -807992.1, -1467475.3, 14443.2705, 0.0504398, 0.4710646, -807676.0, 677674.4, 0.0861071, 10.006703, 9.997133 
2.4954878e+3, 1.5843488e+2, -769074.75, -1430504.3, 18337.572, -0.02311682, 0.4431787, -768566.75, 618815.2, 0.039432134, 10.006102, 9.996994 
2.4954228e+3, 1.6843174e+2, -759568.06, -1339114.3, 28562.91, -0.009722148, 0.43698946, -758163.75, 531248.1, 0.012424431, 10.005172, 9.997396 
2.4953581e+3, 1.7842892e+2, -799807.8, -1305880.1, 32164.275, 0.017898006, 0.43560845, -797771.75, 393667.5, 0.0021084785, 10.004161, 9.997439 
2.4952932e+3, 1.8842639e+2, -765762.3, -1151155.4, 34182.004, -0.0021064351, 0.41800082, -762754.06, 330708.97, 0.00008074701, 10.00334, 9.998222 
2.4952285e+3, 1.9842416e+2, -777779.8, -1104596.6, 24265.014, -0.031464033, 0.3936258, -775988.06, 219495.52, 0.00000000005180779, 10.002578, 9.998237 
2.4951638e+3, 2.0842256e+2, -737067.25, -958148.1, 36334.848, -0.04156802, 0.39607322, -731248.7, 166249.45, 0.0, 10.001856, 9.998917 
2.4950993e+3, 2.1842133e+2, -747107.6, -916853.5, 43913.11, -0.047631457, 0.40249994, -736420.25, 63088.97, 0.0, 10.001131, 9.9988785 
2.4950346e+3, 2.2841996e+2, -722472.9, -782535.4, 38519.45, -0.056093562, 0.36633316, -703661.25, -2140.0305, 0.0, 10.00032, 9.999517 
2.49497e+3, 2.3841879e+2, -750223.94, -752885.44, 33783.33, -0.06313413, 0.32037747, -717745.2, -114214.12, 0.0, 9.999489, 9.999449 
2.494905e+3, 2.4841845e+2, -716788.06, -622086.25, 26448.004, -0.063855074, 0.3364984, -615200.56, -109666.83, 0.0, 9.998771, 10.000019 
2.49484e+3, 2.5841856e+2, -718914.9, -571168.4, 27830.951, -0.065960474, 0.3641423, -566099.75, -158567.23, 0.0, 9.998078, 10.0000305 
2.4947749e+3, 2.684185e+2, -672203.9, -416602.28, 26254.889, -0.07888167, 0.33980042, -413933.3, -104401.055, 0.0, 9.997376, 10.000756 
2.4947095e+3, 2.7841866e+2, -687348.56, -388538.9, 35087.492, -0.08698125, 0.3049111, -384474.06, -172944.3, 0.0, 9.996666, 10.000619 
2.4946442e+3, 2.8841946e+2, -659940.0, -274969.75, 19861.637, -0.08741731, 0.3281989, -273947.75, -160424.95, 0.0, 9.995967, 10.001063 
2.4945784e+3, 2.9842064e+2, -670837.3, -246618.88, 17290.904, -0.112380885, 0.36036813, -245915.28, -230402.27, 0.0, 9.995293, 10.000912 
2.4945137e+3, 3.084219e+2, -677707.9, -169784.8, 2620.8552, -0.06555815, 0.3974479, -169771.27, -169771.27, 0.0, 9.994672, 10.001403 
2.494448e+3, 3.18423e+2, -647665.94, 52974.22, -67555.55, -0.09032952, 0.3842869, 59428.453, 59428.453, 0.0, 9.993985, 10.003262 
2.5056925e+3, 1.2851173e+2, -944805.8, -1687363.0, 7067.994, 0.031540286, 0.44101295, -944738.56, 735891.2, 0.1937765, 10.008354, 9.996164 
2.5056267e+3, 1.3850813e+2, -922690.75, -1651803.1, 24631.512, 0.10332347, 0.48669165, -921859.56, 660806.9, 0.13712752, 10.007301, 9.996244 
2.50556e+3, 1.485045e+2, -842493.5, -1487214.1, 49277.227, 0.047793508, 0.47374198, -838748.9, 645952.4, 0.080856666, 10.006425, 9.997121 
2.5054935e+3, 1.5850109e+2, -833241.2, -1460068.6, 41919.87, -0.021004166, 0.44299477, -830450.2, 556283.25, 0.03668041, 10.00562, 9.997021 
2.5054276e+3, 1.6849805e+2, -796320.56, -1345835.4, 46717.758, -0.003932075, 0.43923163, -792377.1, 496385.56, 0.011362246, 10.0048685, 9.997493 
2.5053623e+3, 1.7849533e+2, -800316.06, -1300350.5, 53535.34, 0.028254332, 0.44147888, -794648.6, 396140.3, 0.0018650707, 10.004138, 9.997484 
2.5052968e+3, 1.884928e+2, -762638.44, -1157160.6, 71719.59, 0.008761835, 0.42737326, -750005.1, 342807.84, 0.00006485423, 10.003398, 9.998151 
2.505231e+3, 1.9849055e+2, -767221.75, -1099322.0, 75372.945, -0.02227065, 0.40733403, -750915.9, 243918.17, 0.0000000000010010511, 10.002651, 9.998237 
2.5051656e+3, 2.0848897e+2, -731746.25, -940270.94, 78714.39, -0.03823213, 0.40422443, -705369.4, 191478.84, 0.0, 10.00183, 9.99905 
2.5051e+3, 2.1848777e+2, -760207.6, -910676.9, 71205.8, -0.04907134, 0.40278637, -731854.06, 67004.586, 0.0, 10.000995, 9.998983 
2.5050348e+3, 2.2848652e+2, -738519.06, -788081.4, 65667.75, -0.055085666, 0.37699682, -693112.2, 7757.3394, 0.0, 10.000205, 9.999533 
2.5049692e+3, 2.384855e+2, -756402.3, -749991.75, 67518.25, -0.058133706, 0.34395257, -685602.75, -82724.375, 0.0, 9.999426, 9.999496 
2.5049037e+3, 2.4848512e+2, -717551.7, -610357.7, 67205.39, -0.06255359, 0.34799537, -577994.2, -73112.91, 0.0, 9.998718, 10.000123 
2.5048378e+3, 2.5848514e+2, -720621.75, -560843.94, 70286.516, -0.068045475, 0.3608069, -534325.94, -127445.6, 0.0, 9.998023, 10.000126 
2.504772e+3, 2.6848528e+2, -665747.8, -406521.44, 57637.945, -0.08098426, 0.35014132, -394283.6, -85405.59, 0.0, 9.997395, 10.000815 
2.504706e+3, 2.7848566e+2, -668681.3, -375838.16, 49816.793, -0.08924902, 0.32951748, -367595.6, -156721.98, 0.0, 9.996781, 10.000649 
2.50464e+3, 2.8848618e+2, -646540.75, -273519.2, 36678.035, -0.09024739, 0.32385474, -269946.97, -157077.19, 0.0, 9.996084, 10.001015 
2.5045735e+3, 2.9848704e+2, -669083.06, -260916.33, 47485.887, -0.1095433, 0.3356453, -255464.66, -240601.84, 0.0, 9.995374, 10.0007715 
2.5045082e+3, 3.084891e+2, -650281.3, -178936.73, 59737.758, -0.07907059, 0.472202, -171483.48, -171483.48, 0.0, 9.994958, 10.001201 
2.504442e+3, 3.1848902e+2, -588833.1, 101810.62, -14336.252, -0.08748574, 0.3483036, 102108.08, 102108.08, 0.0, 9.994309, 10.003435 
2.515701e+3, 1.2857874e+2, -930721.4, -1654048.3, -26463.057, 0.06823415, 0.46143526, -929754.5, 750219.4, 0.18268207, 10.008232, 9.996489 
2.5156328e+3, 1.3857499e+2, -909102.9, -1630045.0, -7413.383, 0.023669614, 0.46153426, -909026.6, 672984.2, 0.12876983, 10.007281, 9.996402 
2.515566e+3, 1.4857142e+2, -848104.06, -1510663.8, 21129.625, 0.025526613, 0.46166107, -847430.9, 636614.5, 0.07545742, 10.006429, 9.996959 
2.5154996e+3, 1.585681e+2, -836915.4, -1470874.4, 14138.166, 0.05367915, 0.45604438, -836600.25, 549477.0, 0.033875592, 10.005613, 9.996952 
2.5154328e+3, 1.6856512e+2, -789942.94, -1332858.1, 20523.658, 0.033334896, 0.4540344, -789168.2, 498937.94, 0.01029695, 10.004861, 9.997587 
2.515366e+3, 1.7856246e+2, -792443.4, -1283766.1, 27180.479, -0.0035310355, 0.45148727, -790944.3, 399187.63, 0.0016271643, 10.004132, 9.997603 
2.5152996e+3, 1.8856013e+2, -754182.94, -1139655.5, 44880.56, -0.0014579671, 0.44545218, -749026.5, 343127.22, 0.000050066847, 10.003393, 9.998276 
2.5152338e+3, 1.9855812e+2, -764368.0, -1093043.0, 47473.766, 0.010138386, 0.43806216, -757648.25, 236523.95, 0.0, 10.0026455, 9.998284 
2.5151673e+3, 2.0855632e+2, -737090.3, -951909.3, 47990.08, -0.01741911, 0.41647002, -726856.94, 169331.84, 0.0, 10.001828, 9.998973 
2.5151008e+3, 2.1855482e+2, -762023.5, -914453.75, 41671.16, -0.053130496, 0.39107427, -751375.4, 46827.152, 0.0, 10.00099, 9.998962 
2.5150347e+3, 2.2855411e+2, -733286.6, -778592.25, 37101.91, -0.050417632, 0.41356024, -712468.75, -12259.81, 0.0, 10.000207, 9.9995985 
2.5149685e+3, 2.3855375e+2, -748485.94, -736168.0, 39531.664, -0.039311837, 0.4394782, -702318.4, -100106.44, 0.0, 9.9994335, 9.999591 
2.514902e+3, 2.4855283e+2, -707691.75, -591907.06, 40224.688, -0.060636353, 0.37818995, -579304.4, -75085.23, 0.0, 9.998723, 10.00025 
2.5148356e+3, 2.585521e+2, -717972.44, -557762.56, 44050.832, -0.09020042, 0.30428493, -546449.4, -140224.98, 0.0, 9.998029, 10.000146 
2.514769e+3, 2.6855275e+2, -678222.94, -433470.78, 33001.688, -0.094193645, 0.35597602, -429099.0, -120881.15, 0.0, 9.997395, 10.000631 
2.5147027e+3, 2.7855384e+2, -675292.2, -389829.03, 23990.094, -0.08581671, 0.42244458, -387826.97, -177619.16, 0.0, 9.996778, 10.000557 
2.5146356e+3, 2.885535e+2, -640759.7, -262658.5, 8186.8765, -0.09059901, 0.3316985, -262481.3, -150270.08, 0.0, 9.996084, 10.001092 
2.5145686e+3, 2.9855353e+2, -657100.94, -240653.55, 25942.732, -0.11819466, 0.25218618, -239043.66, -224832.64, 0.0, 9.995388, 10.000906 
2.514503e+3, 3.0855763e+2, -637662.25, -156748.08, 46297.215, -0.059730537, 0.5737182, -152331.64, -152331.64, 0.0, 9.99497, 10.001349 
2.5144354e+3, 3.1855476e+2, -621499.6, 35321.813, -55799.258, -0.1573089, 0.16667072, 40028.426, 40028.426, 0.0, 9.994301, 10.002984 
2.5257084e+3, 1.2864618e+2, -1032549.2, -1690428.8, -9502.321, 0.042592112, 0.4771339, -1032412.0, 646902.1, 0.17125167, 10.007195, 9.9967 
2.5256398e+3, 1.3864253e+2, -903466.0, -1613775.4, -396.70874, 0.023689054, 0.46968293, -903465.8, 677883.7, 0.12021839, 10.0072, 9.9965515 
2.5255722e+3, 1.4863901e+2, -842462.6, -1504367.8, 25385.795, 0.029723486, 0.46701702, -841490.44, 641893.1, 0.06997208, 10.006427, 9.996998 
2.5255048e+3, 1.5863574e+2, -850362.6, -1470875.3, 30969.95, 0.057176426, 0.46159935, -848820.75, 536594.5, 0.031052887, 10.005479, 9.997013 
2.5254372e+3, 1.6863291e+2, -800553.7, -1326841.6, 45120.87, 0.03185986, 0.4649223, -796713.3, 490729.47, 0.0092429165, 10.004739, 9.9976845 
2.5253695e+3, 1.7863038e+2, -797364.4, -1275489.9, 50002.527, -0.010925263, 0.4680989, -792191.06, 397276.1, 0.0013986959, 10.004056, 9.997694 
2.5253028e+3, 1.8862803e+2, -768853.7, -1140015.1, 61165.57, -0.010623072, 0.45416498, -759033.7, 332455.28, 0.00003693245, 10.003269, 9.99833 
2.5252357e+3, 1.9862595e+2, -786711.6, -1095331.1, 58506.125, 0.0017158042, 0.4355184, -775992.7, 217515.27, 0.0, 10.002461, 9.998355 
2.525169e+3, 2.0862429e+2, -752580.0, -950086.7, 66471.26, -0.016520217, 0.41954914, -732292.8, 163230.52, 0.0, 10.001687, 9.999051 
2.525102e+3, 2.1862294e+2, -767793.6, -910771.25, 70790.04, -0.041322354, 0.4044357, -738674.94, 58860.594, 0.0, 10.000927, 9.999015 
2.5250345e+3, 2.2862224e+2, -728746.06, -775641.4, 66287.42, -0.041714683, 0.42613557, -681881.44, 17660.703, 0.0, 10.00024, 9.9996 
2.5249678e+3, 2.3862185e+2, -727747.25, -723379.75, 63366.13, -0.035878394, 0.44973984, -662159.75, -60614.113, 0.0, 9.999569, 9.99961 
2.5249007e+3, 2.4862097e+2, -686934.1, -579818.44, 57269.715, -0.059918214, 0.39208075, -554965.4, -51413.055, 0.0, 9.998861, 10.000263 
2.5248334e+3, 2.5862026e+2, -701925.2, -550085.94, 54532.266, -0.09153904, 0.32034886, -532530.6, -126973.38, 0.0, 9.998144, 10.00014 
2.524766e+3, 2.6862082e+2, -670556.06, -435407.5, 50758.703, -0.097754434, 0.3664694, -424918.66, -117366.836, 0.0, 9.997477, 10.000576 
2.5246993e+3, 2.786218e+2, -673531.44, -394605.28, 49493.594, -0.08926864, 0.4307877, -386083.34, -176540.56, 0.0, 9.9968195, 10.000501 
2.524632e+3, 2.8862157e+2, -605750.7, -249997.2, 29086.715, -0.08347555, 0.3562015, -247634.73, -136089.84, 0.0, 9.996348, 10.001048 
2.5245643e+3, 2.9862162e+2, -589122.56, -210106.63, 33971.465, -0.10026404, 0.27934173, -207085.81, -193541.33, 0.0, 9.9958725, 10.000879 
2.5244975e+3, 3.0862486e+2, -663308.1, -173281.25, 33616.883, -0.08617097, 0.5230629, -170985.81, -170985.81, 0.0, 9.994821, 10.001305 
2.5244302e+3, 3.1862414e+2, -604008.1, 60039.082, -39852.15, -0.08955585, 0.33806995, 62422.22, 62422.22, 0.0, 9.994351, 10.00313 
2.5357145e+3, 1.2871407e+2, -1016265.56, -1671867.6, -5850.9307, -0.03245984, 0.49180007, -1016213.3, 662436.8, 0.15959294, 10.007189, 9.996839 
2.5356475e+3, 1.3871077e+2, -895653.3, -1596199.8, -8951.269, 0.08460119, 0.5041164, -895538.94, 685143.5, 0.111555226, 10.007135, 9.996704 
2.5355786e+3, 1.4870726e+2, -832695.06, -1483146.4, -7421.902, 0.051524065, 0.48572305, -832610.4, 650105.75, 0.064456984, 10.006387, 9.997166 
2.5355098e+3, 1.5870394e+2, -840900.8, -1451206.8, 765.07117, -0.00025811853, 0.46025723, -840899.9, 543847.9, 0.028244654, 10.005464, 9.997158 
2.5354415e+3, 1.687013e+2, -795061.75, -1315345.3, 21188.305, -0.001740697, 0.47274217, -794200.3, 492572.9, 0.0082142735, 10.00473, 9.99777 
2.5353736e+3, 1.7869902e+2, -795402.94, -1270182.6, 23694.7, 0.0020594897, 0.49053356, -794223.4, 394571.9, 0.0011840152, 10.0040455, 9.997738 
2.5353056e+3, 1.8869644e+2, -771990.94, -1145630.1, 31599.688, -0.020795109, 0.45441097, -769337.3, 321481.97, 0.000025994234, 10.003261, 9.998298 
2.5352377e+3, 1.9869405e+2, -782715.3, -1086233.6, 29991.52, -0.04586215, 0.4056287, -779780.2, 213061.14, 0.0, 10.002454, 9.998423 
2.53517e+3, 2.086928e+2, -737124.2, -918883.3, 38606.535, -0.03390275, 0.4163875, -729263.9, 165588.28, 0.0, 10.001687, 9.999268 
2.5351027e+3, 2.1869203e+2, -759819.56, -896033.44, 44682.28, -0.015969297, 0.43803793, -746470.6, 50388.047, 0.0, 10.00093, 9.999117 
2.535035e+3, 2.2869082e+2, -734301.44, -789037.75, 42052.38, -0.029950043, 0.4114622, -711495.7, -12625.623, 0.0, 10.000244, 9.999509 
2.534967e+3, 2.3868972e+2, -733495.44, -737059.1, 37221.996, -0.050034773, 0.37529126, -698012.7, -97132.55, 0.0, 9.999573, 9.9995165 
2.534899e+3, 2.4868952e+2, -693770.3, -595565.06, 28828.443, -0.061057396, 0.39295647, -587727.9, -84846.43, 0.0, 9.998864, 10.000155 
2.5348312e+3, 2.5868967e+2, -703802.1, -556437.1, 27261.564, -0.07339754, 0.41551125, -551555.6, -146676.45, 0.0, 9.998151, 10.000096 
2.5347635e+3, 2.6868942e+2, -666278.3, -428173.88, 24068.535, -0.09044784, 0.3793542, -425765.28, -118884.4, 0.0, 9.997479, 10.000627 
2.5346956e+3, 2.786894e+2, -676191.8, -402514.88, 26351.154, -0.097746424, 0.34242582, -400000.75, -191120.34, 0.0, 9.996825, 10.000446 
2.5346282e+3, 2.8869033e+2, -620235.7, -283614.06, 10113.553, -0.07240811, 0.4016559, -283310.5, -172438.92, 0.0, 9.99636, 10.0008135 
2.5345603e+3, 2.9869124e+2, -605458.9, -248190.67, 3354.4897, -0.07095022, 0.43530062, -248159.19, -235295.8, 0.0, 9.995886, 10.000613 
2.5344914e+3, 3.0869034e+2, -681843.44, -208077.67, -17109.463, -0.13520582, 0.28636748, -207460.58, -207460.58, 0.0, 9.994801, 10.001077 
2.5344247e+3, 3.1869388e+2, -579107.7, 93552.34, 32838.23, -0.05904968, 0.54011774, 95151.66, 95151.66, 0.0, 9.994407, 10.0033455 
2.5457215e+3, 1.2878278e+2, -986147.2, -1662620.9, 35967.48, -0.018976938, 0.4862366, -984240.2, 693736.9, 0.14781141, 10.007362, 9.996828 
2.5456542e+3, 1.3877957e+2, -984539.0, -1640476.8, 24861.563, 0.09171173, 0.50928664, -983598.06, 596410.8, 0.10284982, 10.006371, 9.996769 
2.5455844e+3, 1.4877625e+2, -904363.1, -1501920.3, 22649.486, 0.045994017, 0.49566665, -903505.9, 578534.94, 0.058957938, 10.005756, 9.997337 
2.5455147e+3, 1.587731e+2, -863909.3, -1451362.9, 30210.879, -0.017967649, 0.47265306, -862359.75, 521710.97, 0.02547837, 10.005243, 9.99726 
2.545446e+3, 1.687704e+2, -824703.06, -1331912.0, 44732.023, -0.010627221, 0.47914052, -820788.25, 465308.44, 0.007223763, 10.004534, 9.997749 
2.5453773e+3, 1.7876802e+2, -831724.6, -1283069.4, 39563.902, 0.006306709, 0.4898001, -828282.8, 359836.78, 0.0009869179, 10.003778, 9.997776 
2.5453085e+3, 1.8876557e+2, -796589.8, -1142491.1, 53382.53, -0.018478483, 0.4552894, -788538.75, 301603.7, 0.000017543054, 10.003032, 9.998426 
2.5452396e+3, 1.9876333e+2, -798148.56, -1081207.9, 61584.863, -0.04838479, 0.4111146, -785330.1, 206832.69, 0.0, 10.002299, 9.9985285 
2.5451717e+3, 2.0876215e+2, -741819.9, -915716.4, 63855.39, -0.03798852, 0.42343694, -720890.9, 173282.05, 0.0, 10.0016365, 9.999311 
2.5451034e+3, 2.1876141e+2, -749926.6, -887328.0, 57369.527, -0.020011289, 0.44478172, -729122.9, 67056.18, 0.0, 10.000987, 9.999147 
2.545035e+3, 2.2876006e+2, -732744.3, -789449.2, 56650.77, -0.036093056, 0.40710643, -697747.2, 444.30835, 0.0, 10.000265, 9.999494 
2.5449663e+3, 2.3875885e+2, -741529.3, -742100.4, 58779.887, -0.057766654, 0.35935265, -683034.25, -82831.38, 0.0, 9.999527, 9.999501 
2.544898e+3, 2.4875878e+2, -687845.0, -594734.94, 57991.484, -0.06091789, 0.39345556, -566923.44, -64720.37, 0.0, 9.998919, 10.0001335 
2.5448295e+3, 2.5875908e+2, -683164.4, -553339.56, 60270.184, -0.06251612, 0.43837714, -529673.7, -125474.31, 0.0, 9.998327, 10.00003 
2.544761e+3, 2.6875857e+2, -643234.25, -433167.97, 45642.766, -0.08327607, 0.38746527, -423679.4, -117475.516, 0.0, 9.997712, 10.000478 
2.5446925e+3, 2.7875817e+2, -646200.8, -399047.7, 35716.43, -0.09652176, 0.32665947, -393989.75, -185782.56, 0.0, 9.997084, 10.000343 
2.5446242e+3, 2.8875932e+2, -620691.1, -288768.78, 30378.89, -0.066673115, 0.411273, -286011.28, -175814.56, 0.0, 9.996381, 10.000766 
2.544556e+3, 2.987605e+2, -642447.1, -281041.72, 35153.473, -0.06436384, 0.48180452, -277654.13, -265468.13, 0.0, 9.995698, 10.000478 
2.5444862e+3, 3.087586e+2, -581483.6, -183330.11, 14849.532, -0.1483475, 0.2541873, -182777.05, -182777.05, 0.0, 9.995596, 10.000861 
2.5444186e+3, 3.187604e+2, -575437.3, 54612.51, 65036.28, -0.10174966, 0.35014135, 61255.773, 61255.773, 0.0, 9.99462, 10.002968 
2.5557294e+3, 1.2885223e+2, -990660.3, -1681303.8, 4138.336, 0.05525545, 0.4683039, -990635.5, 686660.25, 0.1360116, 10.00731, 9.996706 
2.5556597e+3, 1.3884893e+2, -979714.25, -1642412.0, -979.15454, 0.05198985, 0.49225262, -979712.8, 599616.2, 0.094172806, 10.00637, 9.996757 
2.5555897e+3, 1.4884591e+2, -890010.9, -1480672.3, 6084.559, 0.017465033, 0.49909306, -889948.2, 591410.1, 0.053521164, 10.005762, 9.997484 
2.5555196e+3, 1.5884311e+2, -861428.25, -1446495.0, 9107.321, -0.003970547, 0.4967165, -861286.5, 522098.6, 0.022780832, 10.005227, 9.997304 
2.5554502e+3, 1.6884017e+2, -835093.9, -1352306.1, 17834.229, -0.00047271675, 0.48495898, -834479.7, 450934.0, 0.00628286, 10.00452, 9.997618 
2.5553808e+3, 1.7883743e+2, -830709.7, -1280801.8, 13048.843, 0.0015047287, 0.47049814, -830331.7, 357108.44, 0.0008097347, 10.003774, 9.997796 
2.5553116e+3, 1.8883535e+2, -777592.25, -1105022.9, 26700.994, -0.004835251, 0.45804027, -775429.1, 314029.72, 0.000011470139, 10.003036, 9.998685 
2.5552422e+3, 1.9883367e+2, -788993.7, -1064730.1, 35887.93, -0.011766796, 0.44620007, -784399.3, 207074.3, 0.0, 10.002306, 9.998641 
2.555173e+3, 2.0883226e+2, -750918.06, -936459.25, 40188.99, -0.03125873, 0.4382435, -742587.0, 150899.31, 0.0, 10.00164, 9.999169 
2.555104e+3, 2.1883108e+2, -754511.06, -897130.94, 32907.383, -0.05373941, 0.4279407, -747284.4, 48212.49, 0.0, 10.000984, 9.9990835 
2.5550348e+3, 2.2883e+2, -729014.06, -782576.44, 29237.805, -0.060126536, 0.41595426, -716145.75, -18639.059, 0.0, 10.000265, 9.999542 
2.5549656e+3, 2.3882917e+2, -737000.2, -735169.0, 33044.395, -0.061357286, 0.40152854, -703027.5, -103513.14, 0.0, 9.999534, 9.999548 
2.5548965e+3, 2.4882868e+2, -683955.2, -588703.6, 35217.07, -0.059556812, 0.39022154, -577097.2, -75579.11, 0.0, 9.998922, 10.0001745 
2.5548276e+3, 2.588285e+2, -690493.56, -571211.0, 36749.434, -0.06042232, 0.3822973, -560798.0, -157279.03, 0.0, 9.998334, 9.999906 
2.5547585e+3, 2.6882827e+2, -668707.7, -488451.6, 20570.723, -0.07859531, 0.39305618, -486133.88, -180612.52, 0.0, 9.997719, 10.000097 
2.5546893e+3, 2.7882817e+2, -655242.4, -421130.78, 9285.794, -0.09011994, 0.39691007, -420763.06, -213240.28, 0.0, 9.997093, 10.000189 
2.5546205e+3, 2.8882834e+2, -608279.56, -263731.53, 1291.9342, -0.06275452, 0.37581053, -263726.7, -154204.86, 0.0, 9.996379, 10.000941 
2.5545514e+3, 2.988291e+2, -643034.75, -280199.16, 19802.291, -0.06906787, 0.38977167, -279121.63, -267606.53, 0.0, 9.995685, 10.000492 
2.5544816e+3, 3.0883026e+2, -601858.1, -236534.73, 15662.4795, -0.15498865, 0.49242818, -235864.47, -235864.47, 0.0, 9.995638, 10.000478 
2.5544128e+3, 3.1882876e+2, -585989.06, 40149.457, -92592.89, -0.09545112, 0.29728743, 53555.016, 53555.016, 0.0, 9.994594, 10.002878 
2.5657365e+3, 1.2892272e+2, -1019113.94, -1694080.1, 26754.484, 0.081074946, 0.48188794, -1018055.1, 658550.3, 0.124323, 10.006973, 9.996785 
2.5656658e+3, 1.3891926e+2, -937223.4, -1617702.9, 30027.318, 0.020429153, 0.48466787, -935900.94, 642739.06, 0.08561403, 10.006624, 9.996804 
2.565595e+3, 1.4891633e+2, -882542.3, -1479620.5, 30104.227, 0.00018717592, 0.5011802, -881028.3, 599640.4, 0.04820172, 10.005801, 9.997471 
2.5655246e+3, 1.5891367e+2, -903726.25, -1463843.5, 25670.111, 0.006931632, 0.5139688, -902552.25, 480142.16, 0.020180173, 10.004906, 9.997338 
2.5654542e+3, 1.6891062e+2, -865014.1, -1356193.3, 46370.64, 0.006727309, 0.48724523, -860674.75, 424048.63, 0.0054012947, 10.004269, 9.99771 
2.5653842e+3, 1.7890778e+2, -838118.75, -1278385.8, 53198.9, -0.0012785705, 0.45387182, -831781.75, 354968.72, 0.00065313006, 10.0037, 9.997847 
2.5653142e+3, 1.8890586e+2, -774956.3, -1107422.0, 52379.31, -0.006677951, 0.4585424, -766899.3, 321868.9, 0.000007326987, 10.003074, 9.998649 
2.5652444e+3, 1.9890438e+2, -773587.94, -1059502.0, 41793.887, -0.010165639, 0.46965957, -767603.94, 223177.81, 0.0, 10.002425, 9.998618 
2.5651744e+3, 2.089028e+2, -751087.6, -938186.5, 47552.574, -0.032068383, 0.4494074, -739695.44, 153100.44, 0.0, 10.001651, 9.999149 
2.5651044e+3, 2.1890143e+2, -771348.5, -903785.7, 48060.086, -0.058104377, 0.42170325, -755746.06, 39062.086, 0.0, 10.000867, 9.999092 
2.5650346e+3, 2.289005e+2, -724816.06, -774828.06, 47812.79, -0.06506184, 0.42306218, -695865.0, 951.3299, 0.0, 10.000274, 9.99959 
2.564965e+3, 2.3889989e+2, -710596.44, -721944.8, 51276.57, -0.06449206, 0.42699006, -664681.06, -65859.17, 0.0, 9.999719, 9.999547 
2.5648952e+3, 2.4889913e+2, -667659.06, -591816.1, 45473.008, -0.060227327, 0.39788294, -570527.56, -69699.43, 0.0, 9.999087, 10.000071 
2.5648257e+3, 2.5889862e+2, -681417.8, -574333.0, 38613.785, -0.059462797, 0.3673042, -561861.7, -159029.38, 0.0, 9.998434, 9.999834 
2.564756e+3, 2.688986e+2, -655244.75, -484827.5, 42608.797, -0.08349782, 0.40311986, -474767.97, -169935.14, 0.0, 9.997828, 10.000068 
2.5646862e+3, 2.788988e+2, -642463.2, -423182.72, 52233.66, -0.09850776, 0.43765488, -411376.1, -204544.11, 0.0, 9.997221, 10.000112 
2.5646168e+3, 2.888984e+2, -581019.8, -266259.22, 26021.646, -0.056730315, 0.3764283, -264122.5, -155285.83, 0.0, 9.99664, 10.000795 
2.564547e+3, 2.9889867e+2, -595636.3, -259250.0, 27406.852, -0.05088913, 0.3549939, -257031.69, -246196.78, 0.0, 9.996026, 10.000467 
2.5644764e+3, 3.0890137e+2, -675663.3, -262473.03, 53254.645, -0.18774909, 0.60528886, -255719.61, -255719.61, 0.0, 9.995095, 10.00056 
2.5644076e+3, 3.1890112e+2, -517257.94, 107505.8, -62718.234, -0.071218155, 0.53401035, 113739.7, 113739.7, 0.0, 9.994919, 10.003184 
2.5757432e+3, 1.28994e+2, -1002732.0, -1662292.6, 16216.762, 0.0668551, 0.5165642, -1002333.5, 673574.2, 0.112913735, 10.006912, 9.99704 
2.575672e+3, 1.3899046e+2, -936808.1, -1612017.0, 10583.647, -0.0070158313, 0.48744634, -936642.25, 641300.44, 0.07728764, 10.006545, 9.996881 
2.5756004e+3, 1.4898744e+2, -894285.25, -1505856.6, -2856.8174, -0.0106198825, 0.5057221, -894271.9, 585700.4, 0.043065693, 10.005769, 9.997309 
2.5755292e+3, 1.5898472e+2, -900976.4, -1462257.1, -2126.5725, 0.014230987, 0.52623343, -900968.3, 481030.47, 0.017706765, 10.004909, 9.997351 
2.5754586e+3, 1.6898175e+2, -845739.75, -1317847.9, 25751.828, 0.010804878, 0.48572326, -844339.25, 439687.16, 0.0045874617, 10.004269, 9.997975 
2.5753877e+3, 1.78979e+2, -835699.6, -1272178.5, 30671.629, -0.0047348854, 0.4378789, -833554.9, 352496.97, 0.0005169369, 10.003691, 9.997896 
2.575317e+3, 1.8897702e+2, -797187.4, -1153637.4, 28949.424, -0.023680508, 0.45682487, -794851.5, 293219.56, 0.0000045842844, 10.00307, 9.998335 
2.5752464e+3, 1.989754e+2, -784859.3, -1083287.0, 16978.44, -0.040461596, 0.48456386, -783896.5, 206190.58, 0.0, 10.002423, 9.998458 
2.5751758e+3, 2.0897378e+2, -745502.5, -928082.75, 18198.031, -0.03935009, 0.45930347, -743706.3, 148395.28, 0.0, 10.001654, 9.99922 
2.575105e+3, 2.189724e+2, -766485.3, -895629.7, 22671.102, -0.036755286, 0.42346367, -762621.06, 31492.645, 0.0, 10.000871, 9.999148 
2.5750348e+3, 2.2897154e+2, -721617.4, -770467.2, 28013.928, -0.052158047, 0.4269331, -708875.7, -12754.585, 0.0, 10.000279, 9.9996195 
2.5749645e+3, 2.3897097e+2, -715677.2, -734292.06, 29038.793, -0.0683892, 0.43521625, -694490.7, -96364.67, 0.0, 9.9997225, 9.999463 
2.574894e+3, 2.4897014e+2, -686389.9, -631569.2, 19399.639, -0.064258665, 0.41867244, -625398.7, -125265.0, 0.0, 9.999088, 9.999799 
2.574824e+3, 2.589695e+2, -681794.75, -577162.0, 13496.067, -0.062675625, 0.3980709, -575449.25, -173309.52, 0.0, 9.998439, 9.999815 
2.5747535e+3, 2.6896954e+2, -630679.2, -435761.16, 18637.822, -0.09758559, 0.41615036, -433995.06, -129856.016, 0.0, 9.997831, 10.000405 
2.5746828e+3, 2.7896988e+2, -643398.0, -426725.97, 29664.14, -0.12198323, 0.43975174, -422738.1, -216602.2, 0.0, 9.997224, 10.000089 
2.5746134e+3, 2.8896952e+2, -619288.1, -348330.84, 2277.4285, -0.054813534, 0.4223219, -348311.72, -240170.69, 0.0, 9.996647, 10.000231 
2.574543e+3, 2.989694e+2, -598299.06, -269766.53, -3963.2288, -0.022115782, 0.40402257, -269718.75, -259574.31, 0.0, 9.996043, 10.00039 
2.574471e+3, 3.0897138e+2, -624949.4, -150459.22, 13200.596, -0.2205517, 0.5364816, -150092.27, -150092.27, 0.0, 9.995062, 10.001348 
2.574402e+3, 3.189722e+2, -556664.06, 15099.974, 10796.54, -0.08332733, 0.5122209, 15303.7705, 15303.7705, 0.0, 9.994952, 10.002541 
2.5857496e+3, 1.290654e+2, -1010086.56, -1658579.8, 16180.685, 0.056980748, 0.52349216, -1009683.06, 665526.25, 0.101949185, 10.006733, 9.997158 
2.5856778e+3, 1.3906218e+2, -1053279.8, -1660066.9, 7143.897, -0.0030289977, 0.51536095, -1053195.6, 524045.3, 0.06930794, 10.00558, 9.997016 
2.5856057e+3, 1.4905915e+2, -962970.25, -1527823.1, 13588.898, -0.0013706717, 0.51866084, -962643.5, 516626.97, 0.038179245, 10.0052, 9.997429 
2.5855342e+3, 1.5905632e+2, -884738.2, -1445909.3, 25461.043, 0.025570435, 0.51915336, -883585.4, 497712.34, 0.015389589, 10.004979, 9.997427 
2.5854623e+3, 1.6905345e+2, -852264.3, -1319630.3, 37840.383, 0.008400915, 0.4872016, -849220.4, 434103.97, 0.0038482163, 10.004219, 9.997986 
2.5853908e+3, 1.7905083e+2, -880757.8, -1289482.1, 31332.598, -0.021918278, 0.45245782, -878369.8, 306978.75, 0.00040077142, 10.0033655, 9.997932 
2.5853196e+3, 1.8904886e+2, -829126.6, -1162246.6, 50193.586, -0.0338777, 0.4669557, -821727.94, 265639.8, 0.00000279495, 10.002826, 9.998392 
2.5852484e+3, 1.9904721e+2, -795543.56, -1089238.4, 56365.664, -0.040374145, 0.48755702, -785097.44, 204286.63, 0.0, 10.002357, 9.998447 
2.585177e+3, 2.0904553e+2, -738616.6, -937153.2, 48187.477, -0.043127716, 0.4661249, -727538.94, 163860.47, 0.0, 10.00176, 9.9991045 
2.585106e+3, 2.1904409e+2, -732831.9, -885546.44, 41795.402, -0.04516215, 0.43666914, -722141.5, 71270.76, 0.0, 10.001135, 9.999087 
2.585035e+3, 2.290432e+2, -686461.7, -753912.1, 45039.53, -0.055840652, 0.43843564, -663920.1, 31499.89, 0.0, 10.000528, 9.99961 
2.5849637e+3, 2.3904257e+2, -692474.4, -729022.06, 42502.496, -0.06628216, 0.44492313, -664483.8, -67058.484, 0.0, 9.999911, 9.999406 
2.584893e+3, 2.490417e+2, -679296.0, -642321.06, 38423.063, -0.06376161, 0.43582338, -618169.1, -118735.4, 0.0, 9.999202, 9.999669 
2.584822e+3, 2.59041e+2, -682742.4, -586111.75, 40935.19, -0.06320151, 0.42338237, -571102.0, -169661.38, 0.0, 9.998474, 9.999734 
2.584751e+3, 2.6904094e+2, -627869.7, -436074.03, 26419.674, -0.09520223, 0.43602845, -432501.28, -129060.38, 0.0, 9.997863, 10.000385 
2.58468e+3, 2.790412e+2, -642520.44, -433420.47, 14363.811, -0.116746634, 0.45319617, -432438.4, -226999.8, 0.0, 9.997265, 10.00002 
2.5846097e+3, 2.890408e+2, -631195.5, -370877.1, 8833.554, -0.057650246, 0.44505832, -370577.66, -263133.6, 0.0, 9.99664, 10.000078 
2.5845388e+3, 2.9904056e+2, -597935.7, -267848.75, 28762.74, -0.03136992, 0.4296626, -265361.22, -255912.75, 0.0, 9.996039, 10.000404 
2.5844663e+3, 3.0904245e+2, -481620.4, -41508.35, 23034.219, -0.2024888, 0.52653635, -40306.09, -40306.09, 0.0, 9.995879, 10.0017 
2.5843966e+3, 3.1904215e+2, -600281.0, -116054.91, 9887.959, -0.120629884, 0.37142578, -115853.08, -115853.08, 0.0, 9.995137, 10.001546 
2.595756e+3, 1.2913702e+2, -1012198.44, -1661020.5, -25035.059, 0.0443943, 0.5148926, -1011233.9, 663274.94, 0.09154012, 10.006655, 9.997172 
2.595683e+3, 1.3913438e+2, -1040030.2, -1638529.4, -21276.555, 0.02369642, 0.56018007, -1039274.75, 537260.56, 0.061761472, 10.005572, 9.997168 
2.595611e+3, 1.4913134e+2, -938680.06, -1480883.6, 7302.9897, 0.023219524, 0.5350136, -938581.75, 539982.4, 0.03359687, 10.005194, 9.997758 
2.595539e+3, 1.5912841e+2, -880310.06, -1431992.0, 8463.14, 0.03662739, 0.4966224, -880180.25, 500411.2, 0.013253022, 10.004946, 9.997541 
2.5954664e+3, 1.6912572e+2, -869260.2, -1352194.4, 5570.405, -0.0014101722, 0.49269983, -869195.94, 413421.34, 0.0031887305, 10.004201, 9.997773 
2.5953937e+3, 1.791233e+2, -879153.56, -1287596.4, 6552.5396, -0.050213587, 0.4950425, -879048.5, 305592.03, 0.00030400298, 10.003368, 9.997946 
2.595322e+3, 1.8912137e+2, -803855.94, -1111966.9, 34058.945, -0.03809436, 0.48811904, -800135.94, 286522.47, 0.0000016192165, 10.002831, 9.998736 
2.5952506e+3, 1.991197e+2, -788685.5, -1075640.0, 36833.504, -0.016011432, 0.47796923, -784032.94, 204640.73, 0.0, 10.002356, 9.998544 
2.5951788e+3, 2.0911798e+2, -758170.8, -979746.6, 25041.617, -0.045322027, 0.46939918, -755375.94, 135314.1, 0.0, 10.001763, 9.998813 
2.5951064e+3, 2.1911645e+2, -745922.4, -914240.9, 19932.4, -0.082251504, 0.4601101, -743594.1, 49110.32, 0.0, 10.001137, 9.998892 
2.5950348e+3, 2.2911543e+2, -691287.9, -764410.5, 22939.05, -0.07575685, 0.45847857, -684687.5, 10026.099, 0.0, 10.000527, 9.999539 
2.5949636e+3, 2.3911466e+2, -694616.0, -734927.94, 17589.326, -0.06046227, 0.45600322, -688020.4, -91300.13, 0.0, 9.999914, 9.999366 
2.594892e+3, 2.4911378e+2, -678511.94, -642468.94, 9752.732, -0.058626972, 0.44812974, -639999.25, -141270.48, 0.0, 9.999206, 9.999669 
2.5948203e+3, 2.591131e+2, -694666.25, -612910.4, 14772.992, -0.06274562, 0.44122374, -610322.8, -209587.1, 0.0, 9.998478, 9.99955 
2.5947487e+3, 2.6911283e+2, -658377.9, -499745.03, 2196.2952, -0.07764074, 0.4646792, -499714.63, -196975.4, 0.0, 9.997861, 9.99995 
2.5946772e+3, 2.791127e+2, -650738.06, -451386.88, -11084.336, -0.08500918, 0.48453334, -450772.47, -246031.55, 0.0, 9.997265, 9.999899 
2.594606e+3, 2.8911212e+2, -607706.25, -322584.94, -16970.963, -0.06169684, 0.4383773, -321578.34, -214831.08, 0.0, 9.996638, 10.000413 
2.5945342e+3, 2.9911205e+2, -591208.3, -253127.55, 14148.488, -0.07044056, 0.4135909, -252536.47, -243787.77, 0.0, 9.996032, 10.000511 
2.5944623e+3, 3.091148e+2, -496239.03, -82108.92, 20060.87, -0.1565371, 0.6131505, -81139.42, -81139.42, 0.0, 9.995917, 10.001406 
2.5943914e+3, 3.1911346e+2, -631757.3, -182576.02, -70430.22, -0.13866536, 0.39342666, -171791.69, -171791.69, 0.0, 9.995141, 10.001087 
2.6057622e+3, 1.2920982e+2, -1052563.8, -1680442.6, 3525.855, 0.04794249, 0.5355903, -1052544.0, 621252.56, 0.08173702, 10.006276, 9.997214 
2.6056886e+3, 1.3920696e+2, -1010662.6, -1617318.3, 14069.548, 0.04468269, 0.554847, -1010336.5, 565488.7, 0.054699797, 10.005722, 9.997241 
2.605616e+3, 1.492041e+2, -951809.8, -1475922.1, 39626.863, 0.027529856, 0.53927904, -948830.7, 529021.6, 0.029355401, 10.005037, 9.997865 
2.605543e+3, 1.5920143e+2, -955456.7, -1455163.5, 24396.9, 0.02227579, 0.5155926, -954268.4, 425608.97, 0.01131409, 10.004361, 9.997662 
2.6054698e+3, 1.6919883e+2, -911099.4, -1357576.6, 32382.834, -0.0016744771, 0.50949126, -908762.9, 373139.25, 0.0026117712, 10.003851, 9.997903 
2.605397e+3, 1.7919645e+2, -872277.56, -1274828.4, 53303.31, -0.033316612, 0.50644356, -865339.06, 318585.66, 0.00022568276, 10.003378, 9.998027 
2.6053247e+3, 1.891945e+2, -804107.7, -1110732.0, 69303.53, -0.03377685, 0.49649885, -789171.2, 296771.34, 0.00000086705097, 10.00283, 9.998743 
2.6052526e+3, 1.991928e+2, -801743.94, -1081707.5, 50986.047, -0.027107121, 0.48403767, -792747.6, 195210.27, 0.0, 10.002272, 9.998539 
2.6051798e+3, 2.091911e+2, -765049.25, -987330.2, 47539.805, -0.053295694, 0.4794874, -755308.6, 134665.69, 0.0, 10.0017395, 9.99877 
2.6051074e+3, 2.1918957e+2, -742228.44, -921313.8, 54973.56, -0.08427429, 0.47611675, -726699.8, 65289.188, 0.0, 10.001204, 9.99881 
2.6050353e+3, 2.2918835e+2, -700361.6, -783847.8, 55275.9, -0.07688019, 0.46914372, -672837.75, 21162.207, 0.0, 10.000533, 9.999402 
2.6049635e+3, 2.3918737e+2, -711115.9, -752552.8, 46482.344, -0.059951287, 0.46029255, -680943.6, -84935.01, 0.0, 9.999848, 9.999273 
2.604891e+3, 2.491865e+2, -658243.5, -638378.2, 36011.504, -0.060486432, 0.4586655, -610954.6, -112937.195, 0.0, 9.999374, 9.999613 
2.604819e+3, 2.5918585e+2, -639537.06, -598295.5, 37725.332, -0.06622905, 0.4610568, -575923.06, -175898.58, 0.0, 9.998914, 9.999438 
2.6047465e+3, 2.691854e+2, -609764.06, -498184.6, 38594.54, -0.06940981, 0.48841485, -486136.03, -184106.38, 0.0, 9.998293, 9.999751 
2.6046747e+3, 2.7918512e+2, -606774.8, -441903.6, 38658.586, -0.06472026, 0.5079737, -433289.13, -229255.58, 0.0, 9.997622, 9.99979 
2.6046023e+3, 2.8918436e+2, -559299.9, -296652.78, 14272.827, -0.07239304, 0.44727647, -295879.44, -189838.13, 0.0, 9.996965, 10.000431 
2.60453e+3, 2.991842e+2, -553319.44, -237881.27, 28184.47, -0.10961589, 0.41439235, -235382.77, -227339.7, 0.0, 9.996312, 10.000478 
2.6044586e+3, 3.0918732e+2, -548887.56, -128963.23, 43746.637, -0.093583845, 0.6621481, -124454.23, -124454.23, 0.0, 9.995651, 10.001211 
2.6043865e+3, 3.1918612e+2, -595004.25, -134895.33, -57564.1, -0.11007223, 0.47997698, -127802.82, -127802.82, 0.0, 9.995269, 10.00135 
2.6157683e+3, 1.2928356e+2, -1048186.2, -1669631.3, -16127.641, 0.06366478, 0.5723198, -1047767.94, 625306.9, 0.07256177, 10.006215, 9.997317 
2.6156944e+3, 1.3927998e+2, -1012004.5, -1618650.9, -7138.617, 0.053391036, 0.5112183, -1011920.5, 563189.44, 0.04814774, 10.005677, 9.997254 
2.6156205e+3, 1.4927745e+2, -961335.25, -1496215.9, 14906.967, 0.011315778, 0.5361817, -960920.06, 516214.63, 0.025472423, 10.0050125, 9.99774 
2.615547e+3, 1.5927525e+2, -949671.3, -1442772.9, 3212.0806, -0.012104682, 0.5690394, -949650.44, 429505.53, 0.009579656, 10.00435, 9.997754 
2.6154736e+3, 1.6927269e+2, -884173.1, -1301798.1, 15499.581, 0.0065185577, 0.5353611, -883598.6, 397580.94, 0.002116751, 10.003845, 9.998291 
2.6154006e+3, 1.7927024e+2, -865188.1, -1259363.0, 34157.56, 0.018851792, 0.49168026, -862250.06, 320951.78, 0.00016455278, 10.003371, 9.998138 
2.6153275e+3, 1.8926823e+2, -824177.06, -1153342.9, 48611.99, -0.024183696, 0.49335945, -817148.06, 268072.6, 0.00000042407203, 10.00283, 9.998453 
2.6152542e+3, 1.9926651e+2, -808554.44, -1097006.6, 31770.404, -0.06947994, 0.50266093, -805096.6, 182140.33, 0.0, 10.002273, 9.998436 
2.6151815e+3, 2.0926486e+2, -754604.4, -965906.25, 28833.703, -0.06589579, 0.49672905, -750740.44, 138512.03, 0.0, 10.001738, 9.9989195 
2.6151088e+3, 2.1926336e+2, -742953.44, -921887.0, 33567.594, -0.055932622, 0.48477253, -736863.5, 54402.867, 0.0, 10.001196, 9.998812 
2.6150358e+3, 2.2926193e+2, -714795.4, -815180.3, 29243.936, -0.060996562, 0.470066, -706897.44, -13617.781, 0.0, 10.000535, 9.999188 
2.6149628e+3, 2.392607e+2, -722141.9, -777974.94, 24071.29, -0.06691026, 0.4560642, -713197.06, -117905.95, 0.0, 9.999855, 9.999099 
2.61489e+3, 2.4925981e+2, -666789.7, -657256.8, 18621.816, -0.07081451, 0.46787116, -642801.1, -145500.86, 0.0, 9.999376, 9.999484 
2.6148173e+3, 2.592592e+2, -640813.9, -604200.0, 17154.338, -0.07663533, 0.48453486, -597418.8, -198111.52, 0.0, 9.998923, 9.999394 
2.6147446e+3, 2.692587e+2, -604707.8, -491008.1, 12899.792, -0.069904864, 0.50543106, -489562.9, -188250.3, 0.0, 9.998303, 9.999798 
2.6146722e+3, 2.7925837e+2, -613449.0, -459127.22, 13805.147, -0.056022033, 0.51978904, -457902.0, -254585.25, 0.0, 9.997632, 9.999669 
2.614599e+3, 2.8925747e+2, -585267.75, -353097.0, -11933.143, -0.09736933, 0.4767719, -352485.25, -247159.2, 0.0, 9.996972, 10.000042 
2.6145253e+3, 2.99257e+2, -567486.8, -270447.5, 1776.513, -0.1671925, 0.4468396, -270436.88, -263105.53, 0.0, 9.996321, 10.000252 
2.6144552e+3, 3.0925956e+2, -552122.7, -133100.73, 15961.479, 0.021397602, 0.6462206, -132493.6, -132493.6, 0.0, 9.995636, 10.001192 
2.614381e+3, 3.192588e+2, -565246.6, -73668.88, -65589.05, -0.15297079, 0.49608913, -65068.11, -65068.11, 0.0, 9.995265, 10.001777 
2.625774e+3, 1.2935755e+2, -1106248.0, -1692387.6, 16261.1875, 0.07479776, 0.5722961, -1105797.3, 566553.5, 0.06402695, 10.005699, 9.99741 
2.6256996e+3, 1.393542e+2, -1019558.7, -1613645.0, 16457.697, 0.05150527, 0.52817297, -1019103.1, 555280.56, 0.042109456, 10.005552, 9.997348 
2.625625e+3, 1.4935176e+2, -976841.06, -1494459.3, 40847.965, 0.009444809, 0.55422276, -973637.3, 502770.34, 0.021946805, 10.004854, 9.997825 
2.625551e+3, 1.5934964e+2, -979001.4, -1445699.3, 44391.53, -0.010062901, 0.585251, -974816.44, 403611.97, 0.008045366, 10.004099, 9.997851 
2.6254773e+3, 1.6934714e+2, -902389.44, -1297125.4, 51233.203, 0.008835316, 0.55006784, -895848.25, 384602.88, 0.0016991812, 10.003669, 9.9984045 
2.6254037e+3, 1.7934477e+2, -873092.4, -1255959.9, 51635.098, 0.021188866, 0.5044959, -866250.9, 316221.53, 0.00011854705, 10.003293, 9.998196 
2.6253298e+3, 1.8934274e+2, -842880.9, -1166016.8, 72084.45, -0.022829557, 0.5048129, -827529.75, 256961.73, 0.00000019125741, 10.002723, 9.998414 
2.6252562e+3, 1.9934097e+2, -832952.25, -1112119.3, 67996.36, -0.069295466, 0.51398844, -817271.25, 169237.05, 0.0, 10.002123, 9.998403 
2.625183e+3, 2.0933926e+2, -783680.3, -982611.1, 58463.555, -0.060691945, 0.50668794, -767770.9, 120753.38, 0.0, 10.001554, 9.998891 
2.6251096e+3, 2.1933772e+2, -773575.7, -941817.5, 52850.066, -0.04377983, 0.4932934, -758351.44, 32187.191, 0.0, 10.001015, 9.998758 
2.6250362e+3, 2.2933619e+2, -703334.8, -821784.56, 53440.566, -0.053129904, 0.47884083, -682788.25, 9764.751, 0.0, 10.000671, 9.999074 
2.6249626e+3, 2.3933484e+2, -663183.8, -762334.5, 53010.395, -0.065474585, 0.4668837, -640179.44, -45613.902, 0.0, 10.0003195, 9.9989805 
2.624889e+3, 2.4933384e+2, -645661.5, -660896.2, 46157.996, -0.07441221, 0.48151034, -606496.56, -109920.71, 0.0, 9.999584, 9.999357 
2.624816e+3, 2.593331e+2, -663890.0, -622786.1, 45855.4, -0.082431994, 0.49941266, -593087.7, -194503.67, 0.0, 9.998801, 9.999324 
2.6247427e+3, 2.6933253e+2, -595276.2, -487759.13, 38779.676, -0.07235759, 0.51247346, -475231.6, -174641.1, 0.0, 9.998379, 9.999782 
2.6246697e+3, 2.793321e+2, -565578.3, -441803.56, 34177.29, -0.053185064, 0.5216516, -432993.44, -230398.02, 0.0, 9.997992, 9.999612 
2.6245958e+3, 2.893314e+2, -529439.75, -340220.25, 20712.592, -0.101656556, 0.5102798, -337979.5, -233376.73, 0.0, 9.997421, 9.999911 
2.6245213e+3, 2.99331e+2, -514516.13, -259979.92, 48166.0, -0.18083395, 0.5005348, -251170.36, -244562.89, 0.0, 9.996753, 10.0001135 
2.624451e+3, 3.0933225e+2, -533661.5, -137725.42, 52389.992, 0.05831582, 0.58671194, -130910.516, -130910.516, 0.0, 9.995829, 10.001063 
2.6243752e+3, 3.193319e+2, -599133.75, -56578.64, -34339.03, -0.23017284, 0.47350273, -54413.914, -54413.914, 0.0, 9.994896, 10.0020685 
2.6357797e+3, 1.2943187e+2, -1101682.3, -1686331.6, 12604.755, 0.07812512, 0.54874396, -1101410.6, 570212.7, 0.05613652, 10.005674, 9.997461 
2.635705e+3, 1.3942952e+2, -1017334.94, -1600051.8, 1818.9528, 0.037257597, 0.59578717, -1017329.3, 556318.1, 0.036577642, 10.005484, 9.997475 
2.6356298e+3, 1.4942695e+2, -962951.8, -1462778.3, 10830.952, 0.017065115, 0.5894342, -962717.25, 512954.84, 0.018768055, 10.004822, 9.998062 
2.6355553e+3, 1.5942454e+2, -973678.06, -1434120.6, 21250.676, 0.018922059, 0.5712191, -972699.3, 404995.63, 0.006701016, 10.004087, 9.997939 
2.6354808e+3, 1.6942216e+2, -912128.9, -1316699.5, 38143.17, 0.0041019837, 0.554562, -908564.1, 371152.75, 0.0013522848, 10.003661, 9.998276 
2.6354063e+3, 1.7941998e+2, -874499.94, -1257994.6, 34806.94, -0.019258028, 0.53860766, -871366.4, 310370.5, 0.00008496919, 10.003285, 9.998188 
2.6353323e+3, 1.8941797e+2, -833902.9, -1146518.8, 49973.652, -0.02850219, 0.5298673, -826108.6, 257646.72, 0.00000008629741, 10.002715, 9.998554 
2.6352584e+3, 1.9941612e+2, -834705.44, -1113944.9, 46470.023, -0.033414084, 0.5208534, -827175.1, 158597.17, 0.0, 10.002111, 9.998398 
2.6351842e+3, 2.0941424e+2, -796698.5, -1011235.94, 37738.883, -0.040607598, 0.50995886, -790253.56, 97536.664, 0.0, 10.001557, 9.998694 
2.63511e+3, 2.1941254e+2, -780185.7, -958781.3, 37057.81, -0.04841109, 0.49809915, -772801.7, 17004.904, 0.0, 10.001025, 9.998639 
2.6350364e+3, 2.2941105e+2, -704999.3, -826650.3, 42746.957, -0.053140823, 0.4951811, -691480.7, 339.64963, 0.0, 10.000674, 9.999042 
2.6349625e+3, 2.3940976e+2, -668242.0, -773816.56, 33123.57, -0.05763565, 0.49337268, -658710.25, -64877.91, 0.0, 10.0003195, 9.998903 
2.6348886e+3, 2.4940857e+2, -655277.25, -681783.2, 14420.895, -0.07096182, 0.4989489, -648944.44, -153099.88, 0.0, 9.999585, 9.999215 
2.6348144e+3, 2.5940755e+2, -671662.4, -640894.75, 22048.443, -0.08650875, 0.5050063, -629393.7, -231538.55, 0.0, 9.998806, 9.999199 
2.6347408e+3, 2.694068e+2, -601967.1, -502866.0, 24235.934, -0.080036454, 0.50946987, -497256.44, -197392.63, 0.0, 9.998381, 9.999679 
2.6346672e+3, 2.7940625e+2, -563787.4, -441260.78, 15784.684, -0.061350584, 0.51516527, -439259.97, -237389.89, 0.0, 9.998001, 9.999613 
2.634593e+3, 2.894061e+2, -515374.7, -315663.4, -3220.3066, -0.077198215, 0.5469199, -315611.5, -211739.8, 0.0, 9.9974375, 10.000074 
2.6345184e+3, 2.9940617e+2, -515423.5, -266708.53, 18500.734, -0.13302311, 0.57251996, -265339.9, -259468.48, 0.0, 9.99677, 10.000062 
2.6344454e+3, 3.0940542e+2, -556704.8, -186478.1, 15162.984, -0.029936925, 0.48361245, -185858.11, -185858.11, 0.0, 9.995827, 10.000732 
2.6343703e+3, 3.1940627e+2, -565192.0, 16014.813, -64309.656, -0.1638403, 0.5113996, 23045.531, 23045.531, 0.0, 9.994877, 10.002581 
2.6457852e+3, 1.29507e+2, -1077857.4, -1657232.6, 21365.75, 0.077696174, 0.5608841, -1077070.5, 593818.2, 0.048883345, 10.005726, 9.997642 
2.6457095e+3, 1.3950501e+2, -1113529.3, -1630041.0, 20223.338, 0.036454584, 0.6282767, -1112738.6, 460170.34, 0.031543188, 10.0047, 9.997645 
2.645634e+3, 1.4950243e+2, -1027792.1, -1477188.9, 29267.348, 0.018303918, 0.60408986, -1025894.1, 449039.44, 0.015925517, 10.004291, 9.998214 
2.6455587e+3, 1.5949993e+2, -978610.94, -1426265.5, 34737.965, 0.023673203, 0.56436074, -975931.3, 401025.66, 0.0055354713, 10.004011, 9.998027 
2.645484e+3, 1.6949771e+2, -930741.3, -1325221.1, 58659.59, 0.003639572, 0.5619925, -922203.4, 356774.28, 0.0010684432, 10.003536, 9.998275 
2.645409e+3, 1.794957e+2, -909906.4, -1269405.9, 58792.13, -0.025365444, 0.56453604, -900535.8, 280460.34, 0.000061065744, 10.003023, 9.998233 
2.6453346e+3, 1.8949367e+2, -862523.3, -1148946.4, 68806.71, -0.024021558, 0.54485774, -846851.5, 236163.1, 0.000000036839044, 10.002476, 9.99865 
2.6452604e+3, 1.9949174e+2, -856291.44, -1120892.8, 65626.7, -0.016531419, 0.5208055, -840908.9, 144122.94, 0.0, 10.001956, 9.998421 
2.645186e+3, 2.0948981e+2, -790624.94, -1016855.5, 66834.83, -0.03192655, 0.5099924, -772355.44, 114694.79, 0.0, 10.001641, 9.998612 
2.645111e+3, 2.1948805e+2, -740977.3, -947605.4, 70584.99, -0.05065201, 0.50315714, -719167.3, 69899.695, 0.0, 10.001331, 9.998566 
2.645037e+3, 2.2948655e+2, -700955.1, -832117.94, 73336.4, -0.058721703, 0.5059777, -668153.9, 22927.436, 0.0, 10.000737, 9.998972 
2.6449627e+3, 2.3948525e+2, -704122.8, -797068.6, 60040.26, -0.06218033, 0.5087635, -674671.0, -81577.15, 0.0, 10.000104, 9.998845 
2.644888e+3, 2.4948391e+2, -646186.94, -683918.7, 43786.62, -0.06705019, 0.508489, -617374.8, -122267.79, 0.0, 9.99968, 9.999152 
2.6448134e+3, 2.594828e+2, -612580.56, -619093.56, 58077.605, -0.074685365, 0.5073988, -557668.25, -160549.5, 0.0, 9.999246, 9.999135 
2.6447392e+3, 2.694819e+2, -578058.7, -499473.53, 64033.207, -0.08421729, 0.51113576, -463638.5, -164510.19, 0.0, 9.998584, 9.999602 
2.644665e+3, 2.794813e+2, -581081.25, -451700.88, 56621.566, -0.080071926, 0.5171608, -430421.2, -229285.84, 0.0, 9.997895, 9.99959 
2.6445904e+3, 2.8948128e+2, -509989.44, -308264.6, 30650.082, -0.06218242, 0.56072116, -303710.4, -200574.8, 0.0, 9.997458, 10.000113 
2.6445153e+3, 2.9948145e+2, -485213.66, -254442.4, 35121.324, -0.084242165, 0.5956525, -249215.64, -244081.48, 0.0, 9.996993, 10.000035 
2.6444405e+3, 3.0947998e+2, -537950.3, -189464.22, 33372.773, -0.10072756, 0.44538236, -186297.05, -186297.05, 0.0, 9.996012, 10.00062 
2.644366e+3, 3.1948164e+2, -523446.66, 46052.96, -7166.565, -0.079649456, 0.5594915, 46143.13, 46143.13, 0.0, 9.995129, 10.002663 
2.6557902e+3, 1.2958284e+2, -1063117.0, -1619321.4, -17470.135, 0.06751724, 0.5997304, -1062568.8, 607578.9, 0.04224951, 10.005658, 9.997944 
2.6557142e+3, 1.3958079e+2, -1100878.9, -1602193.9, -6006.057, 0.044956565, 0.63082784, -1100806.9, 471360.88, 0.02699337, 10.004674, 9.997849 
2.655638e+3, 1.4957823e+2, -1024899.94, -1471984.6, 20016.908, 0.014148923, 0.60127664, -1024005.5, 450186.13, 0.013406002, 10.004279, 9.998258 
2.6555625e+3, 1.5957579e+2, -975747.06, -1418294.9, 21498.857, 0.0059832856, 0.56358445, -974705.1, 401509.2, 0.0045358995, 10.003995, 9.998091 
2.655487e+3, 1.695738e+2, -927114.06, -1314832.1, 40351.367, 0.004613339, 0.57406336, -922959.06, 355274.1, 0.0008393713, 10.003518, 9.998357 
2.6554123e+3, 1.7957197e+2, -908166.2, -1262182.4, 39866.51, -0.004070874, 0.58656913, -903732.25, 276517.94, 0.000044250475, 10.003004, 9.998294 
2.655337e+3, 1.8956982e+2, -859525.94, -1143388.9, 48867.125, -0.012010284, 0.55008084, -851349.0, 230920.53, 0.000000014947995, 10.002475, 9.99869 
2.655262e+3, 1.9956774e+2, -852283.94, -1115766.6, 50306.16, -0.018010143, 0.50871265, -843005.8, 141281.95, 0.0, 10.0019655, 9.998453 
2.655187e+3, 2.0956591e+2, -790072.4, -1016557.94, 57403.688, -0.03384545, 0.5065243, -776354.06, 109950.64, 0.0, 10.001641, 9.998617 
2.655112e+3, 2.1956424e+2, -746556.2, -956437.6, 55238.39, -0.053010058, 0.50992316, -732905.8, 55414.453, 0.0, 10.001316, 9.998515 
2.655037e+3, 2.2956264e+2, -709890.56, -850512.75, 49367.91, -0.070751235, 0.5118961, -694289.8, -3953.5774, 0.0, 10.000734, 9.998848 
2.6549625e+3, 2.3956119e+2, -706556.8, -805011.5, 39662.297, -0.08282075, 0.5121714, -692566.8, -100216.06, 0.0, 10.000113, 9.998788 
2.6548874e+3, 2.4955985e+2, -644258.2, -681643.25, 28159.29, -0.06370767, 0.5095442, -629151.94, -134788.17, 0.0, 9.999683, 9.999168 
2.6548126e+3, 2.5955868e+2, -611799.3, -620544.2, 37678.734, -0.04800855, 0.5068701, -578240.2, -181865.19, 0.0, 9.999255, 9.999122 
2.6547372e+3, 2.6955783e+2, -582027.75, -508929.06, 36280.574, -0.0835954, 0.5167487, -493979.53, -195595.39, 0.0, 9.998586, 9.999538 
2.654662e+3, 2.795572e+2, -585891.7, -461958.28, 34824.688, -0.11171408, 0.5288134, -452843.13, -252451.95, 0.0, 9.997892, 9.999523 
2.6545876e+3, 2.895569e+2, -518859.25, -326928.75, 15409.916, -0.062939346, 0.5492154, -325699.38, -223304.44, 0.0, 9.997456, 9.999988 
2.6545125e+3, 2.9955676e+2, -485821.25, -256053.89, 8446.082, -0.045923382, 0.56657106, -255743.83, -251347.36, 0.0, 9.99699, 10.000028 
2.654436e+3, 3.095561e+2, -525629.5, -165478.39, -8600.258, -0.129825, 0.48390278, -165273.14, -165273.14, 0.0, 9.996014, 10.000787 
2.6543608e+3, 3.1955743e+2, -577090.94, -69412.42, 7450.4766, -0.07441113, 0.56901574, -69303.1, -69303.1, 0.0, 9.995143, 10.001864 
2.6657954e+3, 1.296592e+2, -1145505.3, -1649199.3, 8852.032, 0.076022066, 0.6144309, -1145349.8, 524050.88, 0.03620738, 10.004991, 9.998052 
2.6657182e+3, 1.3965714e+2, -1105132.5, -1593150.6, 15235.06, 0.045258645, 0.63393456, -1104657.3, 466763.4, 0.022902207, 10.00458, 9.997955 
2.665642e+3, 1.4965473e+2, -1038955.3, -1469542.4, 49340.555, 0.019106887, 0.6098889, -1033373.75, 440069.34, 0.0111859795, 10.004138, 9.998339 
2.6655662e+3, 1.5965244e+2, -1011067.2, -1422604.6, 49247.465, 0.01706605, 0.579067, -1005255.94, 370208.3, 0.003684678, 10.003698, 9.998201 
2.6654902e+3, 1.6965048e+2, -966425.44, -1317705.5, 67123.02, 0.01682453, 0.5820851, -954036.44, 323446.06, 0.00065566646, 10.003184, 9.998495 
2.6654148e+3, 1.796487e+2, -948161.1, -1271759.5, 71136.84, 0.008251964, 0.5866195, -933213.5, 246285.53, 0.000032246808, 10.002692, 9.998376 
2.665339e+3, 1.896466e+2, -873122.5, -1148898.8, 81595.63, -0.006624605, 0.55719143, -850788.94, 230728.63, 0.0000000057994387, 10.002383, 9.998693 
2.6652637e+3, 1.9964464e+2, -832211.0, -1099036.1, 79849.66, -0.019308899, 0.52398354, -810140.8, 173394.08, 0.0, 10.002078, 9.998511 
2.6651883e+3, 2.0964277e+2, -800074.3, -1008518.75, 90591.125, -0.033686087, 0.5091918, -766205.9, 119345.734, 0.0, 10.001522, 9.998728 
2.665113e+3, 2.1964106e+2, -800179.44, -978995.75, 92853.305, -0.049131587, 0.49946585, -760686.25, 26880.836, 0.0, 10.000938, 9.998539 
2.6650375e+3, 2.2963949e+2, -750474.2, -879749.5, 89380.83, -0.066352054, 0.5107545, -704807.94, -15224.592, 0.0, 10.000501, 9.998757 
2.664962e+3, 2.3963805e+2, -714193.8, -815441.06, 84483.984, -0.07810966, 0.52231884, -666327.4, -74729.11, 0.0, 10.000093, 9.998723 
2.6648867e+3, 2.4963656e+2, -641460.06, -684904.75, 71920.01, -0.065559626, 0.51260906, -588053.5, -94441.15, 0.0, 9.999726, 9.999124 
2.6648113e+3, 2.5963527e+2, -603462.06, -617874.3, 72461.47, -0.054511584, 0.50093204, -537849.25, -142224.66, 0.0, 9.999322, 9.999106 
2.6647356e+3, 2.6963446e+2, -559465.7, -498733.03, 67680.66, -0.08770872, 0.5169229, -454918.6, -157285.47, 0.0, 9.998748, 9.999528 
2.66466e+3, 2.7963385e+2, -555111.2, -451836.6, 72029.3, -0.10999473, 0.5336764, -414847.53, -215207.72, 0.0, 9.998129, 9.999476 
2.6645848e+3, 2.896332e+2, -514925.53, -336307.56, 56280.203, -0.054382533, 0.53211415, -320053.5, -218406.53, 0.0, 9.997535, 9.999883 
2.6645094e+3, 2.9963288e+2, -494047.6, -258047.63, 44173.92, -0.039343424, 0.5368372, -250050.27, -246399.31, 0.0, 9.996929, 10.000042 
2.6644316e+3, 3.0963328e+2, -466358.88, -123091.96, 18254.121, -0.14682618, 0.5519767, -122123.98, -122123.98, 0.0, 9.9963665, 10.000906 
2.664356e+3, 3.1963378e+2, -520756.53, -88632.27, 47448.707, -0.07954693, 0.55450946, -83483.586, -83483.586, 0.0, 9.995736, 10.001442 
2.6758003e+3, 1.297361e+2, -1153831.8, -1657477.1, -5795.6313, 0.09720128, 0.61123097, -1153765.0, 514883.1, 0.030720191, 10.004927, 9.998021 
2.6757225e+3, 1.397341e+2, -1106619.8, -1592344.6, 1497.1855, 0.03317641, 0.64131814, -1106615.1, 464052.38, 0.019230098, 10.004545, 9.997978 
2.6756456e+3, 1.4973189e+2, -1034063.6, -1458272.1, 34316.41, 0.026537662, 0.62988305, -1031305.5, 441382.47, 0.00923278, 10.004119, 9.998429 
2.67557e+3, 1.5972978e+2, -1004434.94, -1406031.9, 32199.475, 0.050292764, 0.60802186, -1001869.6, 372837.63, 0.0029605862, 10.003679, 9.998326 
2.6754934e+3, 1.6972773e+2, -955770.6, -1295419.8, 47697.14, 0.038270004, 0.58440065, -949199.6, 327526.56, 0.0005076618, 10.00318, 9.998652 
2.6754174e+3, 1.7972583e+2, -941704.94, -1259976.5, 55532.92, 0.011217858, 0.56423825, -932293.7, 246449.64, 0.000023462153, 10.002696, 9.998457 
2.6753414e+3, 1.8972407e+2, -875940.8, -1154581.3, 71821.05, -0.00804449, 0.56709594, -858517.94, 222241.02, 0.000000001728097, 10.0023775, 9.998659 
2.6752654e+3, 1.9972241e+2, -830456.25, -1091971.0, 64939.53, -0.022199234, 0.56646127, -815218.3, 167555.25, 0.0, 10.00206, 9.99857 
2.6751897e+3, 2.0972034e+2, -788085.9, -983282.2, 68314.766, -0.03258039, 0.5174908, -766552.56, 118238.8, 0.0, 10.001517, 9.998904 
2.6751137e+3, 2.197184e+2, -794056.9, -968086.5, 73954.06, -0.042991698, 0.46964234, -766875.44, 19932.885, 0.0, 10.000942, 9.998613 
2.675038e+3, 2.2971702e+2, -753897.44, -888264.56, 73996.43, -0.04622021, 0.5020711, -721135.5, -32312.508, 0.0, 10.000504, 9.998699 
2.6749623e+3, 2.3971577e+2, -720216.5, -828312.44, 69842.96, -0.049591452, 0.5396532, -685951.25, -95114.695, 0.0, 10.000092, 9.998637 
2.6748863e+3, 2.4971406e+2, -650212.44, -703780.7, 57879.703, -0.0733938, 0.51745164, -613220.0, -120366.9, 0.0, 9.999726, 9.998995 
2.67481e+3, 2.5971252e+2, -604327.7, -622983.1, 53946.664, -0.10104179, 0.4913026, -558908.25, -164040.45, 0.0, 9.999332, 9.999067 
2.674734e+3, 2.6971176e+2, -555861.4, -492933.47, 43723.25, -0.09909116, 0.5120025, -470529.97, -173654.6, 0.0, 9.998751, 9.999568 
2.674658e+3, 2.7971122e+2, -557165.44, -457621.53, 49464.582, -0.07490686, 0.5317908, -437222.3, -238340.95, 0.0, 9.998132, 9.999437 
2.6745823e+3, 2.8971022e+2, -521815.44, -351605.72, 32922.098, -0.032728937, 0.5061586, -345459.8, -244567.72, 0.0, 9.997535, 9.99978 
2.6745057e+3, 2.9970977e+2, -492374.38, -255685.83, 21880.336, -0.060878493, 0.5063615, -253680.13, -250782.55, 0.0, 9.996929, 10.00006 
2.6744276e+3, 3.0971164e+2, -462956.6, -118403.29, -1899.077, -0.17335458, 0.6618532, -118392.82, -118392.82, 0.0, 9.996372, 10.0009365 
2.674352e+3, 3.1971055e+2, -507814.1, -70723.74, -2974.928, -0.051628448, 0.50173026, -70703.5, -70703.5, 0.0, 9.995764, 10.001557 
2.6858047e+3, 1.2981379e+2, -1222053.5, -1675960.3, 19653.357, 0.09656611, 0.6397954, -1221204.1, 446683.56, 0.025741844, 10.004351, 9.998171 
2.685727e+3, 1.3981159e+2, -1150061.3, -1601261.9, 33401.07, 0.050229717, 0.63475, -1147602.0, 422306.66, 0.015934186, 10.004174, 9.9980955 
2.6856497e+3, 1.4980951e+2, -1078347.6, -1471625.5, 64071.387, 0.03243437, 0.6285571, -1068172.6, 403755.28, 0.007513115, 10.003776, 9.9985 
2.685573e+3, 1.5980758e+2, -1047763.25, -1422111.6, 59377.88, 0.044889938, 0.6184017, -1038570.6, 335374.97, 0.002343117, 10.003362, 9.998366 
2.6854962e+3, 1.6980554e+2, -980878.9, -1307541.8, 66854.04, 0.039828558, 0.5981629, -967726.25, 308238.13, 0.00038708578, 10.003011, 9.998648 
2.6854196e+3, 1.7980365e+2, -942273.6, -1252706.4, 66256.45, 0.020157779, 0.5780358, -928723.75, 249257.9, 0.000016815515, 10.002664, 9.998519 
2.6853433e+3, 1.8980192e+2, -895797.56, -1150152.1, 88123.78, -0.0064967116, 0.5720952, -868249.7, 211747.16, 0.0000000002885943, 10.002185, 9.998779 
2.685267e+3, 1.9980027e+2, -876438.9, -1104080.1, 86579.24, -0.027634108, 0.56325865, -847252.1, 134758.78, 0.0, 10.001704, 9.998656 
2.6851907e+3, 2.0979829e+2, -811166.8, -989255.9, 83155.03, -0.032707915, 0.51826316, -778376.7, 105651.164, 0.0, 10.001341, 9.998945 
2.6851144e+3, 2.1979645e+2, -785588.75, -959814.1, 81404.41, -0.035602763, 0.47618836, -753473.5, 32570.324, 0.0, 10.000988, 9.998646 
2.6850384e+3, 2.2979505e+2, -745782.6, -882647.7, 83770.75, -0.039845698, 0.5075896, -706046.06, -17987.58, 0.0, 10.000556, 9.998711 
2.6849622e+3, 2.3979379e+2, -716206.2, -821907.06, 86456.55, -0.04436646, 0.5422765, -667726.0, -77653.805, 0.0, 10.000104, 9.9986725 
2.6848856e+3, 2.4979208e+2, -649953.56, -699393.56, 87724.93, -0.07408866, 0.5171142, -583532.25, -91443.664, 0.0, 9.999714, 9.999029 
2.684809e+3, 2.5979057e+2, -608219.25, -624748.9, 89565.05, -0.10669405, 0.48927733, -526538.5, -132435.27, 0.0, 9.9993105, 9.999064 
2.6847324e+3, 2.6978981e+2, -552466.2, -495939.53, 69701.78, -0.10339435, 0.51706284, -448988.8, -152878.19, 0.0, 9.998798, 9.999522 
2.684656e+3, 2.7978927e+2, -541989.7, -451608.13, 71323.125, -0.07565118, 0.5408482, -412364.34, -214247.63, 0.0, 9.998245, 9.999421 
2.6845795e+3, 2.897882e+2, -490328.16, -336275.4, 62262.324, -0.0390118, 0.5058729, -314258.06, -214129.83, 0.0, 9.997756, 9.999777 
2.6845023e+3, 2.9978764e+2, -447573.56, -234161.64, 53646.473, -0.07048335, 0.49629125, -221435.17, -219300.63, 0.0, 9.997243, 10.000053 
2.6844236e+3, 3.0978957e+2, -446553.16, -110717.99, 20417.084, -0.18174912, 0.6634103, -109481.3, -109481.3, 0.0, 9.996491, 10.000929 
2.6843473e+3, 3.1978825e+2, -507721.88, -55005.035, 11866.234, -0.026870415, 0.48039374, -54694.223, -54694.223, 0.0, 9.995704, 10.001691 
2.6958087e+3, 1.298922e+2, -1200139.9, -1634334.5, 14524.976, 0.07411838, 0.69155955, -1199654.5, 467466.16, 0.021226665, 10.004353, 9.998459 
2.695731e+3, 1.3988954e+2, -1138252.0, -1576448.5, 22575.129, 0.08983025, 0.6170203, -1137092.0, 432052.5, 0.012978367, 10.004161, 9.998273 
2.695653e+3, 1.4988755e+2, -1076309.6, -1466997.3, 47283.99, 0.036999855, 0.6099323, -1070668.4, 400494.7, 0.005999628, 10.003764, 9.99854 
2.6955757e+3, 1.5988576e+2, -1052355.6, -1428705.4, 44294.633, 0.005460026, 0.61365706, -1047212.6, 325967.0, 0.0018157347, 10.003345, 9.998332 
2.6954988e+3, 1.698839e+2, -992252.8, -1328992.6, 54948.902, 0.023573881, 0.6223043, -983513.1, 291684.22, 0.0002879219, 10.002997, 9.998508 
2.6954222e+3, 1.7988214e+2, -941695.25, -1249767.6, 51849.043, 0.03313737, 0.6233114, -933203.06, 244011.05, 0.000011615146, 10.002652, 9.998547 
2.6953453e+3, 1.8988012e+2, -881066.6, -1119743.4, 69619.875, -0.003622526, 0.57166046, -862243.6, 216987.8, 0.000000000007316074, 10.002183, 9.998991 
2.6952684e+3, 1.9987819e+2, -870118.56, -1091769.9, 70293.125, -0.03848149, 0.5176194, -849706.06, 131541.27, 0.0, 10.001705, 9.998742 
2.6951915e+3, 2.098766e+2, -815963.2, -1000231.8, 70366.43, -0.03403498, 0.51307994, -792165.75, 91095.4, 0.0, 10.001342, 9.998871 
2.6951152e+3, 2.1987516e+2, -787851.2, -962797.44, 67613.0, -0.028704617, 0.51729465, -764766.4, 20507.588, 0.0, 10.0009775, 9.998632 
2.6950386e+3, 2.2987358e+2, -742454.7, -875835.1, 67518.42, -0.048269708, 0.526348, -714243.25, -26953.184, 0.0, 10.000554, 9.998759 
2.6949617e+3, 2.3987208e+2, -705257.25, -802034.0, 70473.305, -0.068101786, 0.5316005, -668159.25, -78853.83, 0.0, 10.0001135, 9.998806 
2.694885e+3, 2.4987064e+2, -634942.25, -669892.2, 72131.6, -0.06801895, 0.511987, -578199.0, -86879.89, 0.0, 9.999718, 9.999231 
2.6948082e+3, 2.5986937e+2, -606751.9, -622225.8, 72240.086, -0.07064157, 0.49636135, -541835.6, -148504.73, 0.0, 9.999309, 9.9990835 
2.694731e+3, 2.698686e+2, -564019.4, -520069.25, 48864.05, -0.09967656, 0.5323737, -488466.34, -193127.3, 0.0, 9.998796, 9.999359 
2.6946536e+3, 2.79868e+2, -541222.8, -452554.3, 51210.895, -0.11816512, 0.56640553, -429153.2, -231807.44, 0.0, 9.998253, 9.999413 
2.6945767e+3, 2.898671e+2, -481097.34, -319835.03, 43669.168, -0.082295366, 0.5376986, -308768.97, -209414.11, 0.0, 9.997763, 9.999888 
2.6944992e+3, 2.9986644e+2, -451104.63, -243020.61, 30629.674, -0.07958805, 0.50800365, -238605.64, -237244.11, 0.0, 9.997245, 9.999993 
2.6944202e+3, 3.0986673e+2, -454885.4, -129554.74, -11835.581, -0.14388925, 0.52662706, -129124.73, -129124.73, 0.0, 9.996494, 10.000799 
2.6943424e+3, 3.1986737e+2, -503172.9, -44909.695, -5976.824, -0.057591558, 0.54390657, -44831.758, -44831.758, 0.0, 9.995693, 10.001769 
2.7058125e+3, 1.2997054e+2, -1183910.4, -1632421.5, 41955.0, 0.07202044, 0.67765164, -1180019.5, 486333.28, 0.01714753, 10.004472, 9.998415 
2.705735e+3, 1.3996808e+2, -1171101.6, -1591379.8, 31438.092, 0.114228085, 0.62621826, -1168763.0, 399612.28, 0.010339092, 10.003919, 9.998286 
2.7056566e+3, 1.4996614e+2, -1120851.6, -1482548.1, 52685.08, 0.056047324, 0.62145406, -1113333.8, 357059.6, 0.0046731182, 10.00343, 9.99859 
2.7055785e+3, 1.5996438e+2, -1097936.1, -1443449.4, 53081.684, 0.013545855, 0.62275946, -1089965.0, 282444.72, 0.0013670569, 10.003001, 9.998393 
2.7055013e+3, 1.6996253e+2, -1030435.3, -1339688.5, 76950.32, 0.027642995, 0.62368965, -1012346.1, 262081.52, 0.00020647723, 10.002706, 9.998573 
2.7054244e+3, 1.7996076e+2, -971849.6, -1257477.4, 80606.47, 0.035945036, 0.6198454, -950672.0, 225772.4, 0.0000075413723, 10.00242, 9.998603 
2.705347e+3, 1.8995892e+2, -901560.9, -1125303.8, 87733.2, -0.00093178026, 0.5835315, -871262.25, 207197.89, 0.0, 10.0020275, 9.999025 
2.7052698e+3, 1.9995716e+2, -878701.7, -1091022.0, 80545.85, -0.035578005, 0.54408354, -851604.1, 128870.47, 0.0, 10.001629, 9.998781 
2.705193e+3, 2.0995554e+2, -824787.5, -1000926.94, 85556.45, -0.034142066, 0.5324733, -790072.1, 92416.836, 0.0, 10.00127, 9.9988985 
2.705116e+3, 2.1995403e+2, -793805.1, -959165.25, 85949.84, -0.030578239, 0.52770233, -757223.44, 27278.977, 0.0, 10.000912, 9.998686 
2.7050385e+3, 2.2995245e+2, -744515.8, -868741.2, 87385.586, -0.05075248, 0.5307659, -699417.4, -12899.317, 0.0, 10.000509, 9.998827 
2.7049613e+3, 2.3995098e+2, -704445.3, -794302.06, 90403.88, -0.06898072, 0.5322757, -648421.1, -59888.4, 0.0, 10.000092, 9.998867 
2.7048844e+3, 2.4994971e+2, -646043.1, -669780.75, 80607.516, -0.06279008, 0.52676165, -576435.3, -85890.44, 0.0, 9.999622, 9.999276 
2.7048075e+3, 2.5994858e+2, -628599.25, -626759.44, 71982.71, -0.057680596, 0.5213878, -555690.75, -163135.17, 0.0, 9.999138, 9.999133 
2.7047294e+3, 2.6994765e+2, -565932.9, -518386.66, 60058.324, -0.09002847, 0.53789604, -477567.5, -183002.56, 0.0, 9.998776, 9.999377 
2.7046517e+3, 2.7994692e+2, -521638.06, -443352.53, 70090.39, -0.11551044, 0.55494034, -402215.66, -205642.88, 0.0, 9.998394, 9.999406 
2.704574e+3, 2.899462e+2, -479657.44, -322727.5, 50398.203, -0.10383321, 0.54950446, -307936.2, -209356.13, 0.0, 9.997792, 9.999852 
2.7044955e+3, 2.9994562e+2, -467300.56, -255974.23, 27277.137, -0.11367929, 0.5350902, -252510.2, -251924.45, 0.0, 9.99716, 9.999945 
2.704417e+3, 3.099452e+2, -427145.3, -127990.74, -10803.467, -0.08178703, 0.48793966, -127601.1, -127601.1, 0.0, 9.996738, 10.000691 
2.704338e+3, 3.1994635e+2, -397056.7, -32160.354, 15805.301, -0.08106638, 0.57533026, -31477.035, -31477.035, 0.0, 9.996592, 10.001421 
2.7158168e+3, 1.3004895e+2, -1205267.9, -1673046.3, 19195.736, 0.08264131, 0.61769724, -1204481.4, 461101.9, 0.013503265, 10.004444, 9.998144 
2.7157387e+3, 1.4004718e+2, -1177870.1, -1607575.4, 12245.908, 0.12314598, 0.65696025, -1177521.5, 390079.4, 0.008008536, 10.003919, 9.998176 
2.71566e+3, 1.5004528e+2, -1116050.1, -1476682.1, 35834.31, 0.084371336, 0.65623856, -1112523.9, 357094.84, 0.003524537, 10.00344, 9.998629 
2.7155817e+3, 1.6004345e+2, -1088633.1, -1425743.1, 40007.895, 0.058762558, 0.64268285, -1083950.1, 287685.8, 0.0009912022, 10.003004, 9.998515 
2.715504e+3, 1.7004138e+2, -1015832.2, -1309905.8, 66713.586, 0.04705983, 0.6060094, -1001405.3, 272249.88, 0.00014094682, 10.002705, 9.998779 
2.7154264e+3, 1.8003953e+2, -968432.56, -1249506.8, 67253.54, 0.0280187, 0.57611376, -953169.44, 222503.0, 0.0000045032148, 10.002414, 9.998663 
2.7153486e+3, 1.9003828e+2, -910171.2, -1142744.4, 72752.27, 0.0016168861, 0.6073686, -889288.3, 188395.03, 0.0, 10.002023, 9.99891 
2.715271e+3, 2.000371e+2, -880794.4, -1093606.0, 67052.586, -0.021884883, 0.6328606, -861429.56, 118263.93, 0.0, 10.001618, 9.998771 
2.7151936e+3, 2.1003506e+2, -819228.0, -989374.75, 72789.86, -0.034900878, 0.572851, -792337.8, 89373.83, 0.0, 10.001267, 9.9989805 
2.7151164e+3, 2.2003305e+2, -787142.1, -946000.5, 71801.24, -0.045782514, 0.5112927, -759499.3, 24230.016, 0.0, 10.000912, 9.998777 
2.715039e+3, 2.3003167e+2, -737029.0, -854891.06, 71854.2, -0.047411744, 0.5227641, -703030.5, -17287.936, 0.0, 10.000513, 9.998922 
2.7149615e+3, 2.4003047e+2, -706231.25, -797857.25, 73743.93, -0.048317667, 0.54462934, -665228.4, -77474.086, 0.0, 10.000088, 9.998847 
2.7148837e+3, 2.5002933e+2, -656561.4, -691085.94, 61942.918, -0.05945659, 0.56125605, -609520.4, -119754.14, 0.0, 9.999618, 9.999132 
2.7148062e+3, 2.6002824e+2, -623298.7, -618056.8, 55199.406, -0.07418918, 0.56938136, -565416.2, -173638.94, 0.0, 9.999145, 9.99919 
2.714728e+3, 2.7002698e+2, -549932.2, -486919.13, 45691.563, -0.07463168, 0.5326888, -462924.5, -169135.78, 0.0, 9.998779, 9.999595 
2.71465e+3, 2.8002587e+2, -522572.66, -445917.7, 51453.89, -0.06553647, 0.5001674, -420085.25, -224286.56, 0.0, 9.998392, 9.999392 
2.7145714e+3, 2.9002538e+2, -497552.75, -358754.34, 24594.018, -0.099180005, 0.5375928, -354525.3, -256720.55, 0.0, 9.997785, 9.99961 
2.714492e+3, 3.0002525e+2, -471038.53, -262613.63, 5592.2783, -0.16948526, 0.58656275, -262463.7, -262463.7, 0.0, 9.997151, 9.999905 
2.7144143e+3, 3.1002524e+2, -424260.7, -124895.11, -25110.008, -0.009707393, 0.5743758, -122803.555, -122803.555, 0.0, 9.996745, 10.000712 
2.714334e+3, 3.2002494e+2, -461449.6, -175961.05, 60749.16, -0.1166833, 0.5433591, -163571.88, -163571.88, 0.0, 9.996639, 10.000408 
2.725821e+3, 1.3012834e+2, -1229805.8, -1684942.4, 19464.865, 0.09264976, 0.6388446, -1228974.9, 435831.44, 0.010308292, 10.004258, 9.998154 
2.7257422e+3, 1.401264e+2, -1171962.1, -1596293.4, 24966.555, 0.112563625, 0.6611129, -1170498.1, 396327.1, 0.005992332, 10.003917, 9.998253 
2.7256632e+3, 1.5012456e+2, -1112213.3, -1460939.6, 53922.023, 0.09053009, 0.6546549, -1104065.9, 364776.5, 0.002554453, 10.003408, 9.998749 
2.7255848e+3, 1.601228e+2, -1095522.9, -1420031.4, 64168.26, 0.0840913, 0.63996965, -1083295.0, 287563.53, 0.00068608, 10.002921, 9.998592 
2.7255067e+3, 1.7012092e+2, -1033215.3, -1314836.3, 84786.26, 0.062691115, 0.6168951, -1009659.44, 263216.9, 0.000090375084, 10.002575, 9.998806 
2.7254283e+3, 1.8011922e+2, -988122.5, -1249291.0, 73728.77, 0.03147188, 0.5982864, -968746.2, 206146.33, 0.0000024128854, 10.00224, 9.998746 
2.7253503e+3, 1.9011794e+2, -936031.8, -1141611.8, 88066.79, 0.0059759393, 0.61487323, -903464.7, 173438.84, 0.0, 10.001791, 9.999027 
2.7252725e+3, 2.0011672e+2, -914645.0, -1104878.5, 97045.38, -0.014345752, 0.62807035, -873875.75, 105038.22, 0.0, 10.001369, 9.998811 
2.7251947e+3, 2.101148e+2, -839907.4, -1004393.2, 100098.83, -0.031357337, 0.5855802, -792598.44, 88332.836, 0.0, 10.001152, 9.998931 
2.725117e+3, 2.2011295e+2, -782613.6, -936764.6, 87504.89, -0.045107882, 0.53994876, -743079.75, 39868.406, 0.0, 10.0009165, 9.998837 
2.725039e+3, 2.3011154e+2, -740632.2, -838832.4, 85355.27, -0.043165002, 0.53728944, -691262.25, -6301.2607, 0.0, 10.000416, 9.999078 
2.724961e+3, 2.4011031e+2, -729854.2, -800880.1, 93558.914, -0.03992546, 0.54321843, -665294.94, -78322.555, 0.0, 9.999894, 9.998917 
2.724883e+3, 2.5010917e+2, -668830.1, -701466.4, 90886.65, -0.0627789, 0.5637414, -592808.3, -103823.94, 0.0, 9.9995575, 9.999088 
2.724805e+3, 2.601081e+2, -611654.2, -609557.3, 87772.914, -0.08615942, 0.577951, -522826.56, -131831.13, 0.0, 9.999218, 9.999211 
2.7247265e+3, 2.7010688e+2, -551929.6, -478179.56, 67436.3, -0.071539305, 0.5387366, -438194.84, -145188.4, 0.0, 9.99873, 9.999676 
2.724648e+3, 2.801058e+2, -546372.4, -451808.03, 64610.848, -0.048107438, 0.5004166, -419026.7, -224010.53, 0.0, 9.99821, 9.999435 
2.7245688e+3, 2.9010543e+2, -495670.3, -358841.0, 50592.43, -0.10816737, 0.5507017, -342166.53, -245145.33, 0.0, 9.997808, 9.999595 
2.7244887e+3, 3.0010536e+2, -431056.8, -248777.19, 49090.414, -0.19556122, 0.61184406, -236397.27, -236397.27, 0.0, 9.9974575, 9.999848 
2.7244115e+3, 3.101049e+2, -347381.03, -96855.26, 12543.29, 0.055944793, 0.5636478, -96228.81, -96228.81, 0.0, 9.997318, 10.000625 
2.7243295e+3, 3.2010478e+2, -454110.03, -168292.7, 89388.39, -0.20406266, 0.5531393, -142639.3, -142639.3, 0.0, 9.996679, 10.000438 
2.735825e+3, 1.302085e+2, -1215220.3, -1653493.0, 9498.778, 0.09606489, 0.7182264, -1215014.5, 449008.28, 0.0075796433, 10.004247, 9.998373 
2.7357456e+3, 1.4020585e+2, -1159742.5, -1568283.3, 10282.118, 0.08553934, 0.64417195, -1159483.9, 406563.75, 0.0043012956, 10.003899, 9.998454 
2.7356663e+3, 1.5020405e+2, -1099821.6, -1437373.3, 34316.758, 0.079167336, 0.62475663, -1096368.1, 371695.53, 0.0017663585, 10.003411, 9.998912 
2.7355874e+3, 1.6020252e+2, -1092773.4, -1416553.4, 48164.363, 0.09166952, 0.6196889, -1085760.5, 284316.8, 0.00044962642, 10.002927, 9.998615 
2.7355087e+3, 1.702011e+2, -1042463.06, -1334601.9, 73393.72, 0.074124105, 0.65232325, -1025061.06, 247030.6, 0.000053713382, 10.002575, 9.9986725 
2.7354303e+3, 1.8019971e+2, -982341.1, -1236014.1, 59463.723, 0.042819127, 0.6744811, -969093.94, 205011.36, 0.0000011019603, 10.002233, 9.998842 
2.735352e+3, 1.9019784e+2, -915286.1, -1099113.6, 70905.33, 0.010648298, 0.60632586, -891114.94, 185005.92, 0.0, 10.001791, 9.99932 
2.7352735e+3, 2.0019609e+2, -910181.25, -1096800.3, 85018.47, -0.015145402, 0.5425719, -877257.6, 100877.71, 0.0, 10.001372, 9.998865 
2.7351955e+3, 2.1019483e+2, -851121.94, -1029114.8, 93108.7, -0.023534503, 0.5755843, -811317.75, 68830.055, 0.0, 10.001155, 9.998761 
2.7351177e+3, 2.2019362e+2, -782271.44, -934041.2, 73947.47, -0.03128963, 0.608712, -752200.0, 29959.635, 0.0, 10.000905, 9.998863 
2.7350393e+3, 2.3019202e+2, -727853.0, -811922.44, 65369.29, -0.039594892, 0.57131314, -692169.9, -7996.238, 0.0, 10.000413, 9.999265 
2.7349606e+3, 2.4019052e+2, -719374.6, -781322.2, 77331.38, -0.04935884, 0.53184754, -667044.6, -80857.73, 0.0, 9.999901, 9.999049 
2.7348822e+3, 2.5018927e+2, -663591.75, -692645.8, 78255.62, -0.07334869, 0.5343153, -598526.2, -110326.81, 0.0, 9.999562, 9.999148 
2.734804e+3, 2.6018822e+2, -613165.25, -613284.75, 72179.07, -0.096227065, 0.54516, -541045.94, -150835.67, 0.0, 9.999217, 9.999187 
2.734725e+3, 2.7018744e+2, -560012.4, -493388.2, 47414.49, -0.0830485, 0.55754024, -468753.5, -176535.39, 0.0, 9.998721, 9.999577 
2.734646e+3, 2.801868e+2, -540523.5, -438802.63, 46757.113, -0.06787384, 0.5682325, -420576.06, -226351.55, 0.0, 9.998204, 9.999529 
2.734566e+3, 2.901864e+2, -478391.16, -323869.25, 35348.29, -0.13472025, 0.5927398, -316166.94, -219937.9, 0.0, 9.997807, 9.999839 
2.734486e+3, 3.0018595e+2, -435910.75, -261902.38, 41255.617, -0.19924714, 0.6000474, -252616.61, -252616.61, 0.0, 9.997466, 9.999756 
2.7344096e+3, 3.1018397e+2, -367460.88, -143612.25, 8462.742, 0.1278867, 0.42781308, -143292.77, -143292.77, 0.0, 9.997339, 10.000294 
2.7343252e+3, 3.201861e+2, -352882.06, 34822.793, -34239.31, -0.2799022, 0.6345471, 37823.34, 37823.34, 0.0, 9.996684, 10.001843 
2.7458292e+3, 1.3028856e+2, -1223008.4, -1645359.9, 44480.914, 0.1118234, 0.70764214, -1218374.6, 444863.75, 0.0053267246, 10.0041275, 9.998489 
2.745749e+3, 1.402861e+2, -1199336.3, -1581891.3, 39422.44, 0.08925109, 0.6453712, -1195316.0, 369945.38, 0.0029393765, 10.0036, 9.998505 
2.7456692e+3, 1.5028438e+2, -1119244.8, -1450620.6, 53186.676, 0.0747353, 0.6356571, -1110917.5, 356359.6, 0.0011569083, 10.003299, 9.998872 
2.74559e+3, 1.6028288e+2, -1077699.3, -1402496.1, 55537.05, 0.08237703, 0.6364198, -1068465.5, 300825.2, 0.00027635536, 10.003006, 9.998672 
2.745511e+3, 1.7028145e+2, -1051517.3, -1325590.5, 92020.98, 0.066216394, 0.6571698, -1023487.56, 247817.38, 0.000029153769, 10.002458, 9.998788 
2.7454323e+3, 1.8028006e+2, -1018443.06, -1244263.3, 92532.84, 0.03875003, 0.66910523, -985370.2, 187948.27, 0.00000039166414, 10.001948, 9.9989195 
2.7453536e+3, 1.9027834e+2, -916884.56, -1096894.9, 91915.76, 0.016822284, 0.61223656, -878245.1, 197087.77, 0.0, 10.001772, 9.999342 
2.745275e+3, 2.0027672e+2, -876523.0, -1074781.4, 89978.36, -0.00009422669, 0.55946577, -841776.5, 135569.86, 0.0, 10.001582, 9.998915 
2.7451965e+3, 2.1027544e+2, -860402.25, -1026007.1, 108340.73, -0.014029657, 0.58563495, -806845.06, 72513.94, 0.0, 10.001062, 9.998825 
2.745118e+3, 2.2027422e+2, -827975.2, -947249.25, 101653.12, -0.027107725, 0.6120679, -769756.7, 11614.249, 0.0, 10.000558, 9.998938 
2.7450392e+3, 2.3027278e+2, -735663.94, -809591.9, 86972.62, -0.040477253, 0.58417803, -678126.25, 5257.409, 0.0, 10.000337, 9.999315 
2.7449605e+3, 2.402714e+2, -684167.5, -755909.5, 89638.2, -0.052935913, 0.55283564, -623489.4, -38093.734, 0.0, 10.000111, 9.999121 
2.7448815e+3, 2.5027013e+2, -645313.56, -673841.1, 88840.67, -0.07358812, 0.5455759, -569598.9, -82190.97, 0.0, 9.99965, 9.999233 
2.7448025e+3, 2.6026905e+2, -620526.0, -614073.4, 84208.91, -0.09294131, 0.54531235, -533029.0, -143610.03, 0.0, 9.999159, 9.999208 
2.7447233e+3, 2.7026835e+2, -550456.4, -495307.1, 62278.023, -0.088277124, 0.5717245, -454772.16, -163345.75, 0.0, 9.998821, 9.999512 
2.7446437e+3, 2.802678e+2, -503669.34, -424088.56, 60462.258, -0.07879768, 0.59857583, -391498.28, -198065.88, 0.0, 9.998478, 9.9994955 
2.7445638e+3, 2.9026726e+2, -448676.4, -309431.97, 30938.646, -0.13595787, 0.61234367, -302867.22, -207429.31, 0.0, 9.998016, 9.999834 
2.744483e+3, 3.0026665e+2, -422844.4, -245882.48, 30453.602, -0.19114941, 0.6006324, -240788.33, -240788.33, 0.0, 9.997519, 9.999839 
2.7444062e+3, 3.1026474e+2, -387981.78, -136095.5, 34304.75, 0.12146, 0.42217058, -131507.08, -131507.08, 0.0, 9.997128, 10.000446 
2.7443215e+3, 3.2026753e+2, -317438.5, 62754.996, -33832.332, -0.27058643, 0.67928624, 65742.164, 65742.164, 0.0, 9.996887, 10.001935 
2.755833e+3, 1.3036862e+2, -1216880.0, -1635796.4, 23176.375, 0.13531846, 0.6323202, -1215601.8, 446850.7, 0.0035421206, 10.004137, 9.998549 
2.7557525e+3, 1.403671e+2, -1203175.3, -1593106.5, 23540.861, 0.111789644, 0.6623698, -1201759.1, 362708.1, 0.0018934835, 10.003609, 9.998425 
2.755672e+3, 1.5036546e+2, -1134383.4, -1482771.9, 44451.266, 0.072221, 0.67955613, -1128801.3, 337682.13, 0.0007103048, 10.003297, 9.998654 
2.7555922e+3, 1.6036387e+2, -1074137.5, -1392610.3, 40982.066, 0.057779666, 0.6829863, -1068948.4, 299550.5, 0.0001569409, 10.002993, 9.998747 
2.755513e+3, 1.70362e+2, -1030187.0, -1280985.0, 70775.92, 0.042504303, 0.63429034, -1011592.44, 258923.66, 0.000014099469, 10.002455, 9.999097 
2.755434e+3, 1.8036033e+2, -1016206.25, -1240120.8, 79643.28, 0.021200228, 0.5944592, -990768.2, 181763.2, 0.00000009505926, 10.001948, 9.998949 
2.755355e+3, 1.903594e+2, -933375.7, -1130963.0, 87386.17, 0.023555148, 0.6333887, -900273.44, 174266.25, 0.0, 10.00177, 9.99911 
2.7552763e+3, 2.0035848e+2, -875636.3, -1070438.3, 76728.99, 0.026528044, 0.6663469, -849044.2, 127503.71, 0.0, 10.00157, 9.998952 
2.7551973e+3, 2.103566e+2, -842244.0, -988182.56, 87549.04, -0.0041175447, 0.6113355, -801242.5, 77322.695, 0.0, 10.00106, 9.999087 
2.7551183e+3, 2.2035481e+2, -821096.7, -934090.06, 88323.59, -0.0366728, 0.5583203, -772746.2, 7835.3584, 0.0, 10.00056, 9.999028 
2.7550393e+3, 2.3035382e+2, -740088.0, -821349.4, 80095.86, -0.046084415, 0.57994294, -690906.6, -8315.905, 0.0, 10.000345, 9.999232 
2.75496e+3, 2.4035297e+2, -683880.4, -755256.4, 76381.45, -0.05204553, 0.6058687, -635260.9, -50662.074, 0.0, 10.000108, 9.999128 
2.7548808e+3, 2.5035176e+2, -639857.8, -661679.3, 69798.586, -0.06350206, 0.5967094, -580122.4, -93512.1, 0.0, 9.999644, 9.99932 
2.7548015e+3, 2.603506e+2, -616466.56, -607660.25, 68315.95, -0.07884639, 0.5843005, -543605.7, -154984.39, 0.0, 9.999166, 9.99925 
2.754722e+3, 2.7034962e+2, -551718.75, -500143.06, 49244.164, -0.0875546, 0.58123034, -470343.13, -179711.48, 0.0, 9.998826, 9.999479 
2.754642e+3, 2.8034875e+2, -515474.1, -450570.56, 44862.48, -0.0858106, 0.5841257, -427653.03, -235012.22, 0.0, 9.998483, 9.999312 
2.7545616e+3, 2.90348e+2, -471715.28, -356608.0, 10825.432, -0.106210545, 0.6048281, -355598.75, -260949.64, 0.0, 9.998013, 9.999513 
2.7544808e+3, 3.0034754e+2, -404924.75, -205007.03, 11121.195, -0.15802713, 0.6218497, -204390.28, -204390.28, 0.0, 9.9975, 10.00013 
2.7544016e+3, 3.1034768e+2, -337397.4, -27144.457, 18560.762, -0.0069130245, 0.58689207, -26038.012, -26038.012, 0.0, 9.997105, 10.001209 
2.7543187e+3, 3.203485e+2, -443985.2, -194869.88, 29422.93, -0.21374135, 0.6396325, -191441.9, -191441.9, 0.0, 9.996881, 10.00016 
2.765837e+3, 1.3044994e+2, -1218261.6, -1660813.9, 38697.47, 0.13476141, 0.63174766, -1214903.3, 446752.16, 0.0021977946, 10.004226, 9.998335 
2.7657562e+3, 1.4044842e+2, -1195674.9, -1594795.0, 27940.27, 0.13116965, 0.680965, -1193728.4, 369942.97, 0.0011324923, 10.003683, 9.998376 
2.7656752e+3, 1.5044671e+2, -1161461.0, -1488308.0, 65167.85, 0.07754794, 0.6871438, -1148946.8, 316741.34, 0.0004011587, 10.00308, 9.998719 
2.7655947e+3, 1.6044506e+2, -1133596.8, -1414085.5, 75009.34, 0.04974177, 0.68068135, -1114797.5, 252906.61, 0.000080078404, 10.002555, 9.99881 
2.7655149e+3, 1.7044339e+2, -1043821.6, -1281477.9, 92727.8, 0.040504593, 0.6462214, -1011923.0, 257796.56, 0.000005757098, 10.002339, 9.999146 
2.7654356e+3, 1.804419e+2, -990327.56, -1224951.3, 89456.44, 0.026062846, 0.619094, -960111.4, 211621.95, 0.00000000965895, 10.002122, 9.998968 
2.7653563e+3, 1.9044088e+2, -955811.1, -1146347.0, 107161.98, 0.027082905, 0.6523462, -907692.6, 166050.2, 0.0, 10.001638, 9.999066 
2.7652773e+3, 2.0043986e+2, -926043.2, -1086731.8, 105694.586, 0.029341139, 0.6785624, -873622.5, 102129.766, 0.0, 10.00119, 9.999021 
2.765198e+3, 2.1043815e+2, -835916.25, -968223.94, 110424.37, -0.004920755, 0.6269939, -773346.06, 104421.55, 0.0, 10.001035, 9.999235 
2.7651188e+3, 2.2043651e+2, -776011.5, -908394.8, 103347.91, -0.040768836, 0.5785565, -719475.3, 60306.914, 0.0, 10.000857, 9.999059 
2.7650392e+3, 2.3043548e+2, -739473.44, -829929.1, 92844.48, -0.048965614, 0.60120684, -681426.6, 365.6366, 0.0, 10.000392, 9.999149 
2.76496e+3, 2.4043453e+2, -710100.06, -767166.75, 88920.73, -0.051274057, 0.626094, -645246.9, -61445.414, 0.0, 9.999928, 9.999131 
2.7648804e+3, 2.5043336e+2, -627338.3, -649320.3, 80246.92, -0.06312972, 0.61671805, -557333.2, -71520.76, 0.0, 9.999708, 9.999372 
2.7648005e+3, 2.6043224e+2, -572520.7, -584941.56, 74449.06, -0.078297816, 0.6057875, -504023.5, -116200.59, 0.0, 9.999467, 9.999258 
2.7647203e+3, 2.7043128e+2, -529252.0, -494329.13, 51918.29, -0.09251842, 0.6082473, -457014.56, -167181.4, 0.0, 9.999007, 9.99943 
2.7646402e+3, 2.8043035e+2, -513245.34, -457131.13, 49994.11, -0.0925169, 0.6102511, -427859.25, -236016.1, 0.0, 9.998534, 9.999241 
2.7645597e+3, 2.9042932e+2, -440646.38, -353302.4, 30729.22, -0.08658926, 0.611744, -343574.7, -249720.3, 0.0, 9.998282, 9.999402 
2.7644783e+3, 3.0042875e+2, -337512.63, -176398.38, 31026.46, -0.12772223, 0.62838334, -170630.0, -170630.0, 0.0, 9.997988, 10.000088 
2.7643976e+3, 3.1042987e+2, -302500.94, -14270.698, -18359.104, -0.097758636, 0.69302124, -13106.004, -13106.004, 0.0, 9.997366, 10.001168 
2.7643156e+3, 3.204294e+2, -427684.72, -229123.94, 17179.543, -0.20585698, 0.63198006, -227648.53, -227648.53, 0.0, 9.997183, 9.999775 
2.7758405e+3, 1.3053223e+2, -1249337.3, -1722576.9, 18447.324, 0.11425643, 0.6854878, -1248619.3, 412230.25, 0.0012474314, 10.004213, 9.997916 
2.7757594e+3, 1.4053008e+2, -1200086.5, -1600593.4, 8467.508, 0.14497359, 0.69975334, -1199907.5, 362965.63, 0.00061432703, 10.003666, 9.998345 
2.775678e+3, 1.5052815e+2, -1142452.3, -1450264.5, 43636.2, 0.08860161, 0.664137, -1136385.9, 328505.34, 0.00020190713, 10.003083, 9.998981 
2.775597e+3, 1.605265e+2, -1129734.3, -1408515.0, 61417.883, 0.05558392, 0.6380811, -1116803.3, 250103.13, 0.00003484893, 10.002563, 9.998845 
2.775517e+3, 1.7052558e+2, -1055351.1, -1306205.1, 87348.38, 0.054475754, 0.6902056, -1027932.9, 240982.83, 0.0000017161015, 10.002341, 9.998977 
2.7754375e+3, 1.8052463e+2, -991732.7, -1226660.3, 76810.46, 0.04535405, 0.73043144, -968848.4, 202076.88, 0.00000000000031198744, 10.002114, 9.998961 
2.7753577e+3, 1.9052272e+2, -947981.0, -1130813.1, 88714.98, 0.026724217, 0.6666812, -912010.8, 160931.73, 0.0, 10.001639, 9.999174 
2.775278e+3, 2.0052095e+2, -920119.7, -1075477.5, 95027.35, 0.009454698, 0.6074549, -875062.25, 99896.32, 0.0, 10.001193, 9.999098 
2.7751988e+3, 2.1052007e+2, -833321.3, -963819.75, 106110.19, -0.015994504, 0.63631386, -774003.94, 102962.26, 0.0, 10.001038, 9.999265 
2.7751192e+3, 2.2051924e+2, -779948.25, -914988.6, 90698.02, -0.041394167, 0.6665718, -734397.2, 44576.39, 0.0, 10.000849, 9.99902 
2.7750394e+3, 2.3051767e+2, -746408.6, -844670.2, 74059.95, -0.049710564, 0.64398855, -706664.75, -25676.037, 0.0, 10.000391, 9.999049 
2.7749595e+3, 2.4051614e+2, -710975.4, -770587.4, 76143.74, -0.056478646, 0.61754507, -659011.8, -76008.34, 0.0, 9.999933, 9.999106 
2.7748796e+3, 2.5051495e+2, -625766.1, -647701.75, 72347.81, -0.07403209, 0.6072197, -563559.5, -78544.93, 0.0, 9.999712, 9.999383 
2.7747995e+3, 2.6051402e+2, -574526.7, -590432.7, 60596.59, -0.09467411, 0.6093392, -521363.44, -134339.42, 0.0, 9.99947, 9.999221 
2.774719e+3, 2.7051336e+2, -536068.6, -507810.63, 32273.65, -0.103826486, 0.6539722, -486708.7, -197677.47, 0.0, 9.999002, 9.99934 
2.7746382e+3, 2.8051266e+2, -510370.1, -450820.78, 36067.895, -0.09782126, 0.68509704, -433825.53, -242786.45, 0.0, 9.998531, 9.999287 
2.7745575e+3, 2.9051122e+2, -431242.34, -336302.16, 21591.988, -0.08120925, 0.63555485, -331622.22, -238568.56, 0.0, 9.998289, 9.999517 
2.774476e+3, 3.0051023e+2, -365847.4, -242582.44, 13250.535, -0.11511781, 0.6129963, -241174.14, -241174.14, 0.0, 9.998015, 9.999622 
2.7743942e+3, 3.1051093e+2, -375019.56, -165364.03, -47484.125, -0.12693621, 0.72064114, -155110.95, -155110.95, 0.0, 9.997367, 10.000132 
2.7743125e+3, 3.2051057e+2, -316403.72, -7660.269, 13678.814, -0.19908263, 0.7068858, -7055.4165, -7055.4165, 0.0, 9.997199, 10.001301 
2.7858442e+3, 1.306144e+2, -1283961.4, -1721915.1, 14874.039, 0.11034261, 0.701471, -1283456.8, 376589.28, 0.000630316, 10.003895, 9.9980755 
2.7857625e+3, 1.4061232e+2, -1232800.0, -1603384.5, 34586.66, 0.14703488, 0.70991355, -1229599.6, 332468.88, 0.00029209515, 10.003386, 9.998462 
2.7856806e+3, 1.5061055e+2, -1145811.9, -1445588.6, 64957.21, 0.09107486, 0.6834191, -1132341.9, 331743.2, 0.00008601583, 10.003037, 9.999033 
2.7855992e+3, 1.6060899e+2, -1106096.1, -1392920.9, 75199.02, 0.06038692, 0.66379493, -1087576.5, 278522.78, 0.000011710244, 10.002713, 9.9988785 
2.7855194e+3, 1.7060795e+2, -1071373.6, -1314870.6, 109606.13, 0.060890034, 0.7039714, -1029304.56, 238805.19, 0.00000025139548, 10.002237, 9.998968 
2.7854392e+3, 1.806069e+2, -1033561.5, -1243705.4, 107043.375, 0.051407255, 0.73517174, -988638.8, 181481.52, 0.0, 10.001812, 9.998991 
2.785359e+3, 1.9060513e+2, -940419.2, -1120589.0, 117788.79, 0.021315372, 0.6813237, -882215.56, 189920.86, 0.0, 10.001668, 9.9992285 
2.7852792e+3, 2.006035e+2, -874376.4, -1051636.9, 120336.29, -0.0057709804, 0.6314857, -813553.8, 160597.48, 0.0, 10.001509, 9.999106 
2.7851996e+3, 2.1060255e+2, -833283.75, -970788.3, 124374.414, -0.02200684, 0.65800655, -759923.9, 116235.88, 0.0, 10.001072, 9.999198 
2.7851197e+3, 2.2060162e+2, -806078.1, -927159.5, 105121.484, -0.035920125, 0.684091, -745310.5, 32857.664, 0.0, 10.0006695, 9.999022 
2.7850395e+3, 2.3060001e+2, -716353.5, -825071.2, 97775.2, -0.051729895, 0.6563246, -658842.44, 21340.852, 0.0, 10.000579, 9.999092 
2.7849594e+3, 2.4059848e+2, -639129.6, -738763.7, 104699.13, -0.065979876, 0.6273198, -572999.94, 9198.098, 0.0, 10.000443, 9.999077 
2.7848792e+3, 2.5059736e+2, -604648.56, -649451.7, 90644.75, -0.07934111, 0.62994194, -533678.3, -49468.996, 0.0, 9.999912, 9.999273 
2.7847984e+3, 2.6059636e+2, -590361.5, -603287.1, 72896.734, -0.09522296, 0.64073324, -523641.66, -137422.38, 0.0, 9.999386, 9.999171 
2.7847174e+3, 2.7059558e+2, -508931.38, -495479.22, 49512.74, -0.11153611, 0.6722904, -452237.8, -164010.08, 0.0, 9.999198, 9.999327 
2.7846366e+3, 2.805948e+2, -443791.28, -420202.66, 56105.836, -0.10508024, 0.69611603, -374664.84, -184428.63, 0.0, 9.999003, 9.999266 
2.784556e+3, 2.9059353e+2, -382716.72, -317694.8, 30628.557, -0.06363257, 0.66964835, -305539.56, -213290.38, 0.0, 9.998648, 9.999471 
2.7844742e+3, 3.0059254e+2, -350708.44, -261126.97, 13262.771, -0.091826074, 0.6571397, -259204.63, -259204.63, 0.0, 9.998234, 9.999388 
2.784391e+3, 3.1059223e+2, -343868.25, -192755.27, -12201.075, -0.17717674, 0.70129776, -191776.47, -191776.47, 0.0, 9.997769, 9.999746 
2.7843097e+3, 3.2059214e+2, -311111.63, 47716.61, 79063.16, -0.15515085, 0.7288812, 64364.75, 64364.75, 0.0, 9.997016, 10.001766 
2.795848e+3, 1.306965e+2, -1245067.6, -1635209.0, -3339.383, 0.11571714, 0.69064564, -1245039.0, 414204.56, 0.0002731668, 10.00387, 9.998682 
2.7957657e+3, 1.4069508e+2, -1218736.8, -1571890.9, 19819.422, 0.13905501, 0.71503174, -1217627.9, 343630.16, 0.0001156043, 10.003374, 9.998684 
2.7956834e+3, 1.5069377e+2, -1153089.0, -1461641.1, 55192.086, 0.084576584, 0.73798543, -1143513.6, 319757.16, 0.00002830601, 10.003039, 9.998923 
2.7956018e+3, 1.6069242e+2, -1106166.5, -1391620.9, 62147.848, 0.058152243, 0.745113, -1093222.9, 272061.03, 0.000002446046, 10.002705, 9.998892 
2.795521e+3, 1.7069049e+2, -1064924.8, -1301792.8, 92163.78, 0.060321897, 0.689172, -1033289.5, 234012.5, 0.0000000042322403, 10.002235, 9.99906 
2.7954406e+3, 1.806888e+2, -1029108.6, -1235495.4, 96501.984, 0.048793476, 0.6476157, -991016.8, 178301.17, 0.0, 10.001815, 9.999047 
2.79536e+3, 1.906881e+2, -939306.8, -1119397.3, 114075.79, 0.010537745, 0.6992599, -884019.9, 187304.55, 0.0, 10.001672, 9.999235 
2.79528e+3, 2.0068736e+2, -880861.94, -1063999.6, 108849.01, -0.020769818, 0.7410555, -830188.2, 143143.28, 0.0, 10.001502, 9.999025 
2.7952e+3, 2.106855e+2, -844024.56, -994029.1, 107201.68, -0.023753867, 0.6887906, -788192.8, 87155.945, 0.0, 10.001074, 9.999039 
2.7951202e+3, 2.206837e+2, -803134.94, -921941.8, 96793.87, -0.029234257, 0.6378657, -748969.75, 28395.598, 0.0, 10.000671, 9.999058 
2.7950397e+3, 2.3068255e+2, -703796.1, -800327.9, 96208.89, -0.056113027, 0.64177775, -644424.9, 34950.855, 0.0, 10.000583, 9.999261 
2.7949592e+3, 2.4068154e+2, -643550.1, -748201.7, 91417.73, -0.080076344, 0.6554296, -590542.25, -9156.949, 0.0, 10.0004425, 9.999014 
2.7948788e+3, 2.5068048e+2, -622883.3, -686975.4, 68162.125, -0.07856644, 0.6841033, -579609.9, -96213.016, 0.0, 9.999909, 9.999018 
2.7947977e+3, 2.6067936e+2, -594449.5, -613141.0, 59543.47, -0.083804086, 0.7025041, -543522.8, -158114.13, 0.0, 9.999391, 9.999103 
2.7947164e+3, 2.7067786e+2, -504112.3, -487309.53, 43218.05, -0.11689068, 0.65970945, -451683.84, -164260.77, 0.0, 9.999203, 9.999383 
2.7946353e+3, 2.8067657e+2, -449396.28, -435704.66, 45463.09, -0.11996266, 0.63378006, -396574.84, -207139.2, 0.0, 9.999018, 9.999154 
2.7945545e+3, 2.9067624e+2, -399850.38, -354528.4, 14569.896, -0.03128774, 0.7189947, -350248.7, -258807.69, 0.0, 9.9986515, 9.999216 
2.7944723e+3, 3.0067575e+2, -349298.2, -255385.63, -5136.9395, -0.046196476, 0.776872, -255105.48, -255105.48, 0.0, 9.9982195, 9.999434 
2.7943876e+3, 3.1067368e+2, -317366.84, -138644.63, -29592.682, -0.2677704, 0.6174335, -133872.13, -133872.13, 0.0, 9.997767, 10.000121 
2.7943066e+3, 3.206741e+2, -400419.1, -126188.48, 42695.87, -0.12627327, 0.6962936, -119694.79, -119694.79, 0.0, 9.996973, 10.000588 
2.8058517e+3, 1.3077964e+2, -1246503.8, -1611793.0, 20804.63, 0.12900488, 0.7019567, -1245322.6, 413107.8, 0.00009546091, 10.003754, 9.998899 
2.8057683e+3, 1.4077835e+2, -1276045.4, -1585136.5, 34902.0, 0.1273268, 0.72411466, -1272153.3, 288289.4, 0.0000345017, 10.002918, 9.998813 
2.8056857e+3, 1.507771e+2, -1207623.9, -1482761.5, 83145.56, 0.08105917, 0.7462618, -1184449.5, 278005.53, 0.0000060034013, 10.002645, 9.998968 
2.805604e+3, 1.6077577e+2, -1143342.6, -1410515.5, 93665.48, 0.06439863, 0.7535965, -1113777.1, 250691.0, 0.00000016363987, 10.002454, 9.998883 
2.805523e+3, 1.707738e+2, -1068153.0, -1309509.6, 116581.52, 0.05509167, 0.69877285, -1021038.25, 245448.64, 0.0, 10.002246, 9.999 
2.8054422e+3, 1.8077207e+2, -998221.4, -1218625.6, 116373.5, 0.033313952, 0.6575482, -948150.9, 220352.44, 0.0, 10.0020275, 9.999056 
2.8053614e+3, 1.9077145e+2, -935347.8, -1116557.3, 133280.28, 0.0059539545, 0.7143265, -864791.56, 205717.64, 0.0, 10.001697, 9.999242 
2.8052813e+3, 2.0077075e+2, -896977.44, -1070832.8, 127561.95, -0.014227484, 0.7616038, -829540.4, 142975.4, 0.0, 10.001384, 9.999037 
2.8052008e+3, 2.1076885e+2, -826048.56, -983346.9, 135408.86, -0.030766467, 0.70425117, -748105.1, 126428.43, 0.0, 10.001191, 9.999055 
2.8051203e+3, 2.2076698e+2, -758604.94, -900445.5, 134565.72, -0.047901593, 0.6481034, -677414.7, 99136.07, 0.0, 10.000983, 9.999051 
2.8050402e+3, 2.3076588e+2, -699867.1, -803108.94, 121869.52, -0.06112045, 0.65851283, -619136.6, 59424.418, 0.0, 10.000634, 9.999215 
2.8049594e+3, 2.4076487e+2, -666034.2, -759730.06, 104000.55, -0.07087742, 0.67835015, -598817.06, -18246.568, 0.0, 10.000294, 9.999005 
2.804878e+3, 2.5076377e+2, -591133.56, -670798.94, 94419.664, -0.08168102, 0.70342344, -528488.4, -45905.99, 0.0, 10.000128, 9.999022 
2.804797e+3, 2.607626e+2, -520893.2, -579660.94, 101348.445, -0.093819864, 0.7176191, -444754.94, -60160.266, 0.0, 9.999909, 9.999081 
2.8047156e+3, 2.70761e+2, -468974.47, -477532.8, 78895.26, -0.10546127, 0.6717266, -394242.44, -107632.58, 0.0, 9.999476, 9.999318 
2.804634e+3, 2.807596e+2, -454638.6, -446472.56, 73418.16, -0.09732298, 0.6427542, -377023.97, -188400.58, 0.0, 9.999015, 9.999083 
2.8045526e+3, 2.907593e+2, -414033.0, -370940.28, 50461.43, -0.053967975, 0.73901635, -337617.7, -246988.98, 0.0, 9.998599, 9.999127 
2.80447e+3, 3.0075884e+2, -340419.0, -238072.55, 42251.04, -0.085750036, 0.8041131, -222884.27, -222884.27, 0.0, 9.99823, 9.999546 
2.804386e+3, 3.1075668e+2, -254534.56, -80103.65, 15162.272, -0.17851055, 0.6116523, -78795.484, -78795.484, 0.0, 9.998078, 10.000374 
2.8043032e+3, 3.207573e+2, -380205.88, -191719.11, 43658.95, -0.15629901, 0.7138286, -182097.6, -182097.6, 0.0, 9.99744, 9.99991 
2.8158548e+3, 1.3086356e+2, -1256836.8, -1626844.0, -13733.271, 0.140567, 0.72781205, -1256327.8, 401281.2, 0.000023604834, 10.003731, 9.998805 
2.8157708e+3, 1.4086208e+2, -1278154.6, -1581510.6, 18014.611, 0.10931265, 0.73454994, -1277088.6, 282534.47, 0.0000064184533, 10.002885, 9.998854 
2.815688e+3, 1.5086055e+2, -1199019.1, -1464895.1, 76913.08, 0.08019823, 0.71775335, -1178372.9, 283264.97, 0.00000052844416, 10.002641, 9.999094 
2.8156066e+3, 1.6085912e+2, -1141841.6, -1412175.6, 86404.19, 0.0793688, 0.70614636, -1116584.9, 247066.95, 0.0000000005064632, 10.002473, 9.998864 
2.8155246e+3, 1.7085782e+2, -1076758.9, -1331152.1, 110478.73, 0.042895004, 0.73144686, -1035478.44, 230186.44, 0.0, 10.00226, 9.998845 
2.8154433e+3, 1.8085656e+2, -1002625.2, -1228002.4, 107580.24, 0.0000010698244, 0.7496456, -959518.3, 208159.33, 0.0, 10.002027, 9.998993 
2.815363e+3, 1.9085509e+2, -936077.0, -1118694.3, 121639.0, 0.0064502624, 0.72413695, -875289.2, 194401.83, 0.0, 10.001697, 9.9992285 
2.8152823e+3, 2.0085374e+2, -890378.56, -1057127.1, 118646.37, 0.0108703915, 0.7022892, -828741.75, 142961.8, 0.0, 10.001383, 9.999133 
2.8152016e+3, 2.1085258e+2, -814857.9, -960069.8, 128922.86, -0.043887183, 0.70758724, -739501.94, 134212.11, 0.0, 10.00119, 9.999216 
2.8151205e+3, 2.2085142e+2, -765841.6, -912780.56, 123551.74, -0.0920022, 0.7115273, -695565.5, 80159.45, 0.0, 10.00097, 9.998974 
2.8150403e+3, 2.3084994e+2, -717995.6, -841458.56, 107968.36, -0.066441596, 0.70431775, -655356.9, 22382.703, 0.0, 10.000635, 9.998952 
2.8149596e+3, 2.4084848e+2, -660837.9, -751415.44, 94536.164, -0.045813672, 0.69691825, -601302.25, -21548.58, 0.0, 10.000302, 9.99906 
2.814878e+3, 2.5084725e+2, -571703.5, -631950.8, 88495.08, -0.09081871, 0.68701977, -508345.56, -26579.762, 0.0, 10.000131, 9.999289 
2.8147963e+3, 2.608461e+2, -519835.8, -579601.7, 89108.3, -0.12733378, 0.6847171, -455733.22, -71956.13, 0.0, 9.999916, 9.999079 
2.8147152e+3, 2.708451e+2, -483955.13, -509214.94, 61535.957, -0.07436407, 0.71319914, -433766.34, -147978.86, 0.0, 9.999477, 9.999101 
2.8146333e+3, 2.8084406e+2, -456472.72, -449812.72, 56750.293, -0.033615205, 0.734571, -396294.8, -208496.53, 0.0, 9.999011, 9.999063 
2.81455e+3, 2.9084268e+2, -409473.25, -358944.66, 34758.434, -0.14614868, 0.7191226, -341238.8, -251426.02, 0.0, 9.998585, 9.999219 
2.8144664e+3, 3.0084163e+2, -327159.06, -210510.02, 35866.527, -0.23705256, 0.71296555, -200364.4, -200364.4, 0.0, 9.998227, 9.999739 
2.814387e+3, 3.1084168e+2, -243566.92, -61481.445, 12823.654, 0.14988904, 0.7237949, -60582.754, -60582.754, 0.0, 9.998095, 10.000495 
2.8142992e+3, 3.2084146e+2, -372976.66, -178780.23, -19476.139, -0.2765561, 0.73898476, -176846.22, -176846.22, 0.0, 9.9974375, 10.000006 
2.8258583e+3, 1.3094802e+2, -1338130.4, -1665681.9, -4277.333, 0.14162265, 0.74876666, -1338074.5, 318707.63, 0.0000033256797, 10.003168, 9.998811 
2.825773e+3, 1.4094631e+2, -1303062.8, -1592098.6, 46575.754, 0.11499755, 0.73365724, -1295742.9, 263055.53, 0.00000050691085, 10.0027075, 9.998865 
2.8256905e+3, 1.5094484e+2, -1203412.6, -1467048.5, 111275.11, 0.08537826, 0.72092247, -1162725.1, 298087.5, 0.0000000023756648, 10.002616, 9.999088 
2.8256086e+3, 1.6094345e+2, -1131668.4, -1405728.3, 110131.25, 0.08259213, 0.71503437, -1092897.0, 269929.1, 0.0, 10.00254, 9.998874 
2.8255266e+3, 1.7094222e+2, -1087464.4, -1338388.8, 136004.72, 0.041975096, 0.74597293, -1027891.3, 236947.58, 0.0, 10.002195, 9.998828 
2.825445e+3, 1.8094093e+2, -1027808.8, -1244718.3, 140644.52, -0.0038006098, 0.7687043, -958659.1, 208192.56, 0.0, 10.00187, 9.998957 
2.8253642e+3, 1.9093929e+2, -937423.44, -1124959.6, 155183.8, -0.0010781073, 0.72981066, -849878.3, 218988.63, 0.0, 10.001717, 9.999174 
2.8252834e+3, 2.0093778e+2, -868329.94, -1045999.5, 147176.22, 0.00081690145, 0.6975439, -785256.44, 185624.48, 0.0, 10.001541, 9.999128 
2.8252023e+3, 2.1093686e+2, -821650.56, -963850.75, 144729.19, -0.04587817, 0.72459227, -731500.06, 141389.77, 0.0, 10.00115, 9.9992075 
2.8251213e+3, 2.2093588e+2, -786945.75, -916365.2, 136673.58, -0.08606766, 0.7477128, -700437.06, 74462.11, 0.0, 10.000798, 9.999032 
2.8250405e+3, 2.309343e+2, -701637.1, -823643.8, 144635.33, -0.07405236, 0.72523993, -605666.6, 71247.47, 0.0, 10.000708, 9.999039 
2.8249595e+3, 2.4093279e+2, -619515.56, -729086.75, 146097.1, -0.061547354, 0.70352995, -518269.7, 60659.063, 0.0, 10.00058, 9.999077 
2.8248778e+3, 2.5093156e+2, -565187.3, -632970.1, 118553.4, -0.08739762, 0.699525, -475776.1, 5164.86, 0.0, 10.0001955, 9.9992485 
2.8247958e+3, 2.6093045e+2, -533488.25, -585042.44, 102152.64, -0.10938603, 0.70368475, -453910.63, -70958.49, 0.0, 9.999817, 9.999089 
2.8247142e+3, 2.7092955e+2, -461197.06, -494454.06, 88964.375, -0.07571711, 0.7405009, -387320.5, -102359.35, 0.0, 9.999621, 9.999131 
2.8246322e+3, 2.8092852e+2, -402673.2, -426952.94, 95687.625, -0.0475895, 0.7644935, -318358.4, -131386.97, 0.0, 9.999402, 9.999028 
2.8245485e+3, 2.909267e+2, -340100.84, -337342.72, 60875.453, -0.15599406, 0.7112539, -277830.72, -188840.11, 0.0, 9.999114, 9.999112 
2.8244644e+3, 3.0092537e+2, -262171.38, -183888.5, 43588.5, -0.2382346, 0.6865635, -164446.58, -164446.58, 0.0, 9.998692, 9.999699 
2.824385e+3, 3.1092638e+2, -284163.6, -88139.6, -577.0147, 0.18211193, 0.80232346, -88137.91, -88137.91, 0.0, 9.997849, 10.000428 
2.824296e+3, 3.209254e+2, -299742.38, -132518.45, -24265.16, -0.2996721, 0.7408673, -129068.61, -129068.61, 0.0, 9.997902, 10.000095 
2.8358608e+3, 1.3103297e+2, -1336418.8, -1651936.4, -24748.133, 0.14223723, 0.7700231, -1334489.4, 321461.6, 0.00000016214108, 10.003126, 9.998924 
2.8357756e+3, 1.410311e+2, -1297015.9, -1588736.6, 38720.516, 0.12768915, 0.729449, -1291963.9, 266004.88, 0.0000000020979667, 10.002748, 9.99887 
2.8356928e+3, 1.5102986e+2, -1206803.8, -1481264.6, 110945.53, 0.08527087, 0.74900496, -1167565.8, 292414.94, 0.0, 10.002645, 9.99898 
2.8356105e+3, 1.6102861e+2, -1132337.5, -1406460.5, 101809.766, 0.07254922, 0.7646664, -1098662.1, 263330.72, 0.0, 10.002535, 9.998873 
2.8355286e+3, 1.710269e+2, -1083448.0, -1330361.1, 121839.445, 0.052878913, 0.74439114, -1033450.3, 230559.17, 0.0, 10.002195, 9.998883 
2.835447e+3, 1.8102528e+2, -1028142.1, -1246200.4, 131260.3, 0.019570464, 0.7283422, -966535.4, 199489.98, 0.0, 10.001873, 9.998945 
2.8353655e+3, 1.9102402e+2, -942124.44, -1135823.6, 150129.97, -0.018360764, 0.7335395, -860315.56, 207721.75, 0.0, 10.001719, 9.999099 
2.8352845e+3, 2.0102282e+2, -878229.4, -1064357.5, 135769.98, -0.04469277, 0.7407221, -806689.7, 163359.19, 0.0, 10.00153, 9.999008 
2.8352034e+3, 2.1102159e+2, -832544.7, -987703.56, 129413.98, -0.03728606, 0.7533477, -759238.25, 112822.96, 0.0, 10.001153, 9.9990425 
2.8351223e+3, 2.2102039e+2, -772677.8, -887815.94, 129530.42, -0.039357316, 0.75737923, -688499.44, 85573.695, 0.0, 10.000801, 9.999228 
2.8350407e+3, 2.3101905e+2, -672541.1, -763400.75, 142528.48, -0.086065605, 0.72203565, -568377.4, 107707.055, 0.0, 10.000707, 9.999454 
2.8349593e+3, 2.4101779e+2, -624573.06, -738400.0, 135773.13, -0.116781525, 0.69966173, -534267.4, 43828.23, 0.0, 10.000573, 9.999018 
2.834878e+3, 2.5101674e+2, -592313.44, -689470.6, 102776.65, -0.069821686, 0.7434739, -527213.0, -47105.125, 0.0, 10.0001955, 9.998861 
2.834796e+3, 2.6101568e+2, -529065.7, -578504.94, 90918.28, -0.04475856, 0.7790389, -459566.47, -77446.734, 0.0, 9.999826, 9.999131 
2.8347132e+3, 2.7101436e+2, -438886.13, -449368.78, 81787.77, -0.11717637, 0.74993426, -362171.9, -78040.9, 0.0, 9.999623, 9.999442 
2.83463e+3, 2.8101304e+2, -404916.3, -435194.97, 87305.12, -0.1533099, 0.72129005, -331447.63, -145304.33, 0.0, 9.999415, 9.998965 
2.834548e+3, 2.9101145e+2, -362074.97, -386949.84, 50515.94, -0.06481527, 0.7223817, -322487.9, -234326.77, 0.0, 9.99913, 9.998764 
2.8344646e+3, 3.0101028e+2, -285079.94, -232296.61, 16590.809, -0.059392948, 0.7472783, -227514.98, -227514.98, 0.0, 9.998693, 9.999367 
2.8343788e+3, 3.1101057e+2, -316021.16, -142423.95, -38345.082, -0.17303796, 0.8214131, -134331.34, -134331.34, 0.0, 9.997796, 10.000082 
2.8342953e+3, 3.2100958e+2, -299235.9, -140173.23, 58361.242, -0.12950356, 0.78548074, -121057.375, -121057.375, 0.0, 9.997938, 10.000027 
2.8458634e+3, 1.3111806e+2, -1391323.4, -1671382.6, -4200.488, 0.16092753, 0.7759274, -1391260.4, 263857.53, 0.00000000032983427, 10.002715, 9.99899 
2.8457782e+3, 1.4111638e+2, -1270234.1, -1579750.8, 49260.566, 0.10590718, 0.7510694, -1262583.4, 294550.97, 0.0, 10.002948, 9.998836 
2.8456947e+3, 1.5111494e+2, -1225897.5, -1505831.9, 115781.055, 0.0681573, 0.7628979, -1184216.5, 274931.7, 0.0, 10.002581, 9.998841 
2.8456125e+3, 1.6111355e+2, -1176524.1, -1429421.5, 106084.086, 0.06761846, 0.77268976, -1137918.0, 223243.77, 0.0, 10.002239, 9.9988575 
2.8455305e+3, 1.7111194e+2, -1089990.4, -1326079.9, 127919.195, 0.05683494, 0.7578392, -1033972.25, 229205.06, 0.0, 10.002123, 9.998945 
2.8454486e+3, 1.8111038e+2, -1012216.75, -1236641.0, 137765.19, 0.027432472, 0.7438171, -946747.1, 218445.27, 0.0, 10.00198, 9.998955 
2.8453666e+3, 1.9110906e+2, -963609.1, -1153176.0, 154865.42, -0.017483313, 0.7478694, -876823.8, 190381.22, 0.0, 10.001604, 9.999036 
2.8452855e+3, 2.011078e+2, -911946.3, -1080366.3, 145899.6, -0.047969166, 0.7554041, -827698.5, 141518.73, 0.0, 10.001295, 9.999014 
2.8452042e+3, 2.1110652e+2, -806153.56, -970665.2, 153939.66, -0.042235196, 0.7594519, -713871.56, 157358.33, 0.0, 10.001317, 9.999081 
2.8451228e+3, 2.211053e+2, -700705.9, -843708.94, 157637.11, -0.044260487, 0.7574046, -599112.3, 174129.56, 0.0, 10.001258, 9.999309 
2.8450412e+3, 2.3110415e+2, -662069.44, -748250.6, 145939.44, -0.0858464, 0.73169154, -552991.94, 122259.47, 0.0, 10.000738, 9.999541 
2.8449595e+3, 2.4110304e+2, -665377.1, -752353.6, 128839.65, -0.11168748, 0.71690977, -572884.2, 4376.9653, 0.0, 10.00027, 9.999066 
2.8448775e+3, 2.5110194e+2, -582345.4, -684175.3, 123559.96, -0.0715072, 0.7548647, -499621.25, -20347.672, 0.0, 10.000263, 9.998864 
2.8447956e+3, 2.6110083e+2, -475733.25, -548789.94, 128913.99, -0.05004697, 0.78421366, -378272.25, 3013.5632, 0.0, 10.00018, 9.999163 
2.844712e+3, 2.7109945e+2, -411258.13, -431235.22, 100779.47, -0.13072486, 0.7461506, -319973.4, -36675.79, 0.0, 9.999792, 9.999486 
2.844629e+3, 2.8109813e+2, -408258.2, -435021.66, 93016.016, -0.1675034, 0.7142746, -327666.25, -142356.27, 0.0, 9.999379, 9.998988 
2.844547e+3, 2.9109687e+2, -376253.34, -394773.38, 78336.516, -0.032289147, 0.7489125, -306631.44, -219306.55, 0.0, 9.999038, 9.998755 
2.8444633e+3, 3.010958e+2, -275715.28, -245969.88, 65142.492, -0.018396473, 0.7914711, -194023.86, -194023.86, 0.0, 9.998845, 9.999196 
2.8443757e+3, 3.1109506e+2, -132785.86, -89220.086, 15877.047, -0.30469003, 0.78997135, -84047.92, -84047.92, 0.0, 9.999211, 9.999764 
2.8442943e+3, 3.2109454e+2, -285452.44, -152067.16, 90842.086, -0.003541608, 0.8277436, -106064.664, -106064.664, 0.0, 9.998112, 9.999863 
2.855866e+3, 1.312033e+2, -1397259.8, -1672572.1, 6492.0234, 0.17240205, 0.77007955, -1397106.8, 257176.5, 0.0, 10.002672, 9.999001 
2.85578e+3, 1.4120206e+2, -1274661.6, -1590646.9, 42515.32, 0.0654316, 0.791644, -1269041.3, 287254.78, 0.0, 10.002955, 9.998756 
2.8556967e+3, 1.5120013e+2, -1235054.4, -1528992.3, 98228.66, 0.045832112, 0.7685347, -1205250.3, 253064.44, 0.0, 10.002596, 9.998676 
2.8556144e+3, 1.6119836e+2, -1175898.0, -1429296.1, 97102.35, 0.065435894, 0.7532724, -1142967.8, 217364.06, 0.0, 10.002243, 9.9988575 
2.8555322e+3, 1.7119728e+2, -1082910.4, -1313093.1, 124060.95, 0.04847083, 0.783027, -1028776.6, 233565.72, 0.0, 10.002129, 9.999032 
2.85545e+3, 1.8119612e+2, -1012454.8, -1237352.3, 126886.3, 0.016252654, 0.80197984, -955360.5, 208993.22, 0.0, 10.00198, 9.998952 
2.8553683e+3, 1.9119439e+2, -967996.25, -1163736.5, 139791.31, -0.00006170053, 0.7704132, -895220.06, 171150.38, 0.0, 10.001607, 9.998963 
2.8552866e+3, 2.0119277e+2, -904073.06, -1063704.1, 141183.73, -0.015867991, 0.7434156, -821705.44, 146680.42, 0.0, 10.001293, 9.999129 
2.855205e+3, 2.1119167e+2, -791375.9, -939586.4, 156001.22, -0.061253667, 0.74461925, -692773.4, 177622.53, 0.0, 10.001314, 9.999295 
2.8551233e+3, 2.2119063e+2, -707424.44, -853303.94, 144926.92, -0.09737696, 0.7490202, -618117.4, 154287.98, 0.0, 10.001238, 9.999252 
2.8550416e+3, 2.3118961e+2, -679305.75, -784262.6, 124214.83, -0.073541716, 0.75564617, -596938.7, 77476.586, 0.0, 10.000737, 9.999295 
2.85496e+3, 2.4118853e+2, -650729.75, -725748.94, 120992.25, -0.057919633, 0.75557435, -561566.2, 14859.396, 0.0, 10.000284, 9.999243 
2.8548774e+3, 2.5118718e+2, -552039.75, -622130.5, 124132.73, -0.096640036, 0.73008555, -458100.22, 20338.016, 0.0, 10.000265, 9.999291 
2.8547946e+3, 2.6118588e+2, -474946.88, -549130.7, 119626.66, -0.12884758, 0.7124084, -386793.63, -6343.1694, 0.0, 10.000187, 9.999158 
2.854712e+3, 2.7118483e+2, -431334.34, -473489.13, 85144.17, -0.11041617, 0.72980803, -364697.5, -82236.625, 0.0, 9.999794, 9.999196 
2.854629e+3, 2.8118387e+2, -399089.7, -415805.2, 77276.35, -0.080634125, 0.7532864, -329720.44, -145249.56, 0.0, 9.999375, 9.999123 
2.8545454e+3, 2.9118302e+2, -352137.78, -340712.6, 66087.766, -0.074943185, 0.79180413, -280091.0, -193609.67, 0.0, 9.999019, 9.999136 
2.8544608e+3, 3.0118194e+2, -272956.7, -242019.69, 73912.4, -0.14890964, 0.80716074, -181974.5, -181974.5, 0.0, 9.998853, 9.99922 
2.854376e+3, 3.111799e+2, -137785.06, -120888.77, 38146.24, -0.15636952, 0.69624805, -90266.38, -90266.38, 0.0, 9.999303, 9.999504 
2.854292e+3, 3.2118e+2, -317203.0, -198735.14, -89580.72, -0.004070028, 0.82147944, -150575.58, -150575.58, 0.0, 9.99803, 9.999581 
2.865868e+3, 1.3128814e+2, -1465522.6, -1702021.6, 9590.54, 0.15826333, 0.76619726, -1465134.4, 188318.72, 0.0, 10.002182, 9.999038 
2.8657824e+3, 1.4128736e+2, -1302021.5, -1596386.5, 27121.371, 0.051912475, 0.8266667, -1299543.5, 255918.56, 0.0, 10.002734, 9.998823 
2.865699e+3, 1.512854e+2, -1246613.5, -1526486.3, 81107.836, 0.045549106, 0.793731, -1224807.3, 232673.4, 0.0, 10.002485, 9.998744 
2.8656164e+3, 1.6128355e+2, -1180194.4, -1424962.3, 95334.77, 0.07282697, 0.7650885, -1147444.4, 212053.97, 0.0, 10.002189, 9.998911 
2.8655338e+3, 1.7128246e+2, -1104323.0, -1320724.1, 121037.984, 0.04264821, 0.78987825, -1050173.4, 211335.61, 0.0, 10.001971, 9.999055 
2.8654513e+3, 1.8128134e+2, -1038026.1, -1245947.1, 118456.336, 0.002862692, 0.8109586, -984380.5, 179139.42, 0.0, 10.001786, 9.998987 
2.8653693e+3, 1.9127975e+2, -960133.9, -1156173.8, 136136.3, -0.0040640966, 0.7908165, -890401.0, 175134.33, 0.0, 10.001647, 9.998995 
2.865288e+3, 2.0127822e+2, -870588.44, -1033555.5, 145195.0, -0.012934689, 0.76739424, -785575.25, 181974.6, 0.0, 10.001466, 9.99925 
2.8652057e+3, 2.112771e+2, -814190.0, -933611.7, 156070.19, -0.059470825, 0.7507928, -706798.25, 162761.42, 0.0, 10.001088, 9.999444 
2.865124e+3, 2.2127607e+2, -773839.1, -882921.4, 141630.77, -0.09466043, 0.7459766, -676610.6, 94958.03, 0.0, 10.000773, 9.999272 
2.865042e+3, 2.312752e+2, -683541.94, -795497.6, 130402.01, -0.07570675, 0.7734794, -597610.6, 75967.17, 0.0, 10.000749, 9.999211 
2.8649598e+3, 2.4127425e+2, -587673.0, -677812.0, 135786.0, -0.061468054, 0.78675383, -489672.25, 85915.16, 0.0, 10.000646, 9.999396 
2.8648773e+3, 2.5127286e+2, -544950.2, -587547.6, 128145.26, -0.09628606, 0.73201007, -436345.7, 41253.527, 0.0, 10.000183, 9.999567 
2.8647944e+3, 2.6127154e+2, -527951.75, -562339.9, 119911.445, -0.12532252, 0.68965524, -424007.9, -44397.254, 0.0, 9.999769, 9.999269 
2.8647113e+3, 2.7127066e+2, -436524.7, -477444.97, 104859.875, -0.10261551, 0.72084415, -350147.53, -68527.66, 0.0, 9.999766, 9.999181 
2.864628e+3, 2.8126988e+2, -352140.28, -386368.03, 105115.54, -0.06784775, 0.7615444, -262754.56, -79125.93, 0.0, 9.999677, 9.999176 
2.864544e+3, 2.912691e+2, -290749.5, -300580.16, 75543.38, -0.091380484, 0.80186284, -219961.7, -134323.44, 0.0, 9.999399, 9.999228 
2.864459e+3, 3.0126807e+2, -214929.34, -192437.56, 83201.26, -0.16974281, 0.8079202, -119725.61, -119725.61, 0.0, 9.999158, 9.999416 
2.864376e+3, 3.1126592e+2, -164422.95, -113809.484, 88347.7, -0.06258517, 0.66759264, -47215.477, -47215.477, 0.0, 9.999038, 9.9996805 
2.8642902e+3, 3.21266e+2, -131010.92, -178958.55, -107143.48, -0.04645996, 0.79966706, -45191.887, -45191.887, 0.0, 9.999618, 9.998948 
2.8758696e+3, 1.3137281e+2, -1457709.3, -1686561.0, 36731.344, 0.13184464, 0.76800126, -1451958.3, 200667.16, 0.0, 10.00219, 9.999138 
2.875785e+3, 1.4137243e+2, -1295516.4, -1571635.6, 30079.809, 0.049233977, 0.85662305, -1292277.5, 262353.1, 0.0, 10.0026865, 9.999016 
2.8757012e+3, 1.5137078e+2, -1233464.8, -1494161.3, 68282.37, 0.05306036, 0.8297939, -1216662.9, 239983.11, 0.0, 10.002461, 9.998979 
2.8756183e+3, 1.6136907e+2, -1176859.9, -1416982.9, 85309.0, 0.08338973, 0.7971042, -1149638.0, 209023.98, 0.0, 10.002183, 9.998969 
2.8755355e+3, 1.7136756e+2, -1108092.1, -1328807.8, 113219.54, 0.041235596, 0.7830707, -1060343.9, 200332.75, 0.0, 10.00197, 9.9990015 
2.8754526e+3, 1.8136619e+2, -1034378.06, -1236645.5, 112352.44, -0.0106115015, 0.7821835, -984346.0, 178343.81, 0.0, 10.001779, 9.999055 
2.8753707e+3, 1.913652e+2, -951155.7, -1137208.9, 131261.61, -0.029029552, 0.80993885, -883298.56, 181401.0, 0.0, 10.001645, 9.9991255 
2.8752884e+3, 2.0136416e+2, -864917.5, -1018922.8, 134053.23, -0.03928002, 0.8218039, -787324.94, 179384.63, 0.0, 10.001452, 9.999358 
2.8752068e+3, 2.1136284e+2, -808286.0, -921874.06, 141278.38, -0.039086252, 0.77628565, -712813.4, 155907.83, 0.0, 10.001087, 9.999526 
2.8751248e+3, 2.2136165e+2, -768210.7, -869877.3, 135817.77, -0.048919443, 0.74578893, -674025.06, 96706.74, 0.0, 10.000767, 9.999366 
2.8750423e+3, 2.3136096e+2, -678021.6, -783567.75, 130543.58, -0.093531795, 0.78385097, -589987.6, 82751.49, 0.0, 10.000748, 9.999294 
2.8749597e+3, 2.413602e+2, -579967.25, -661785.3, 124316.51, -0.118648574, 0.80881554, -490001.75, 84745.01, 0.0, 10.000645, 9.999508 
2.8748775e+3, 2.5135902e+2, -538877.0, -575406.1, 108580.234, -0.06882241, 0.7639336, -447035.88, 29720.625, 0.0, 10.000183, 9.999651 
2.8747946e+3, 2.6135784e+2, -510251.63, -527304.4, 112699.21, -0.045592688, 0.7234344, -405756.7, -26990.635, 0.0, 9.999775, 9.999507 
2.8747106e+3, 2.713569e+2, -415735.16, -433434.3, 105000.86, -0.11375291, 0.7190216, -319211.63, -38437.08, 0.0, 9.999762, 9.999485 
2.8746268e+3, 2.81356e+2, -352493.66, -392102.53, 97032.13, -0.144859, 0.72916853, -273265.53, -90481.92, 0.0, 9.999696, 9.999128 
2.874543e+3, 2.9135504e+2, -306435.66, -338183.75, 66929.34, -0.076976225, 0.77247304, -253523.64, -168727.19, 0.0, 9.999417, 9.998962 
2.874459e+3, 3.013542e+2, -183700.38, -128081.46, 72810.484, -0.060297027, 0.7974101, -77950.35, -77950.35, 0.0, 9.999163, 9.999856 
2.874375e+3, 3.113535e+2, -121841.98, -10702.555, 87057.79, -0.028831562, 0.7356096, 37009.156, 37009.156, 0.0, 9.998982, 10.000413 
2.8742886e+3, 3.21353e+2, -195734.89, -342349.25, -18817.492, -0.120475315, 0.79271597, -193358.25, -193358.25, 0.0, 9.999734, 9.997775 
2.8858712e+3, 1.3145798e+2, -1478696.9, -1680013.0, 56611.54, 0.10639019, 0.81300586, -1463869.4, 187923.44, 0.0, 10.001967, 9.999292 
2.8857872e+3, 1.4145723e+2, -1389976.9, -1598533.5, 39211.84, 0.07525509, 0.8508195, -1382848.1, 170952.78, 0.0, 10.001957, 9.999182 
2.885703e+3, 1.514559e+2, -1304284.0, -1512662.9, 64988.094, 0.05500489, 0.8383173, -1285677.3, 170136.31, 0.0, 10.001909, 9.999116 
2.88562e+3, 1.6145447e+2, -1214899.4, -1422511.4, 79492.164, 0.06473571, 0.8216484, -1187958.8, 169868.13, 0.0, 10.001866, 9.9990835 
2.8855368e+3, 1.7145301e+2, -1126623.9, -1327631.1, 115650.06, 0.036212627, 0.8060892, -1073909.0, 185931.61, 0.0, 10.0018, 9.999091 
2.885454e+3, 1.814517e+2, -1039414.6, -1224673.4, 121381.01, -0.004773307, 0.79784805, -979356.25, 182497.11, 0.0, 10.001682, 9.999181 
2.8853717e+3, 1.9145074e+2, -974235.6, -1131771.3, 139352.19, -0.027515313, 0.8149275, -892930.3, 170932.11, 0.0, 10.001417, 9.999271 
2.8852895e+3, 2.0144981e+2, -901274.8, -1029606.8, 140348.36, -0.039257243, 0.8268031, -811119.94, 154751.23, 0.0, 10.001173, 9.99942 
2.8852075e+3, 2.1144874e+2, -817351.0, -924989.44, 141824.67, -0.042141177, 0.80556077, -719477.3, 148403.67, 0.0, 10.0010195, 9.999538 
2.8851253e+3, 2.2144774e+2, -747282.2, -843551.8, 136939.67, -0.051235646, 0.788426, -650263.9, 119626.36, 0.0, 10.000841, 9.99951 
2.8850427e+3, 2.3144697e+2, -694360.7, -766721.9, 140453.73, -0.081678905, 0.7958203, -585502.4, 86395.555, 0.0, 10.00053, 9.999515 
2.88496e+3, 2.4144618e+2, -630170.0, -670344.9, 138122.31, -0.097638704, 0.8011908, -510682.1, 63223.016, 0.0, 10.000234, 9.999646 
2.8848773e+3, 2.5144538e+2, -550842.0, -573943.9, 117675.67, -0.06641303, 0.7857572, -444151.7, 31759.879, 0.0, 10.0000725, 9.999713 
2.8847942e+3, 2.614445e+2, -474393.6, -486374.34, 127758.26, -0.04916295, 0.7669413, -352485.34, 25432.908, 0.0, 9.999928, 9.999709 
2.88471e+3, 2.7144358e+2, -393318.3, -396596.66, 115524.18, -0.09795737, 0.73687416, -279421.7, 504.5868, 0.0, 9.999809, 9.999711 
2.884626e+3, 2.8144258e+2, -372663.78, -382009.38, 98066.75, -0.12432687, 0.7200003, -279158.56, -97223.11, 0.0, 9.999474, 9.999302 
2.884542e+3, 2.9144165e+2, -349710.47, -362892.63, 100487.6, -0.09341871, 0.75758886, -255598.02, -171649.9, 0.0, 9.999143, 9.998921 
2.8844574e+3, 3.014409e+2, -151344.34, -102906.63, 123409.836, -0.083957285, 0.79484606, -1361.6628, -1361.6628, 0.0, 9.999351, 9.999937 
2.8843746e+3, 3.114408e+2, 82036.9, 83918.02, 88908.84, 0.013017258, 0.7843795, 171891.28, 171891.28, 0.0, 10.000409, 10.000383 
2.8842884e+3, 3.214396e+2, -110604.12, -341735.97, -40714.965, -0.14026208, 0.79714185, -103641.71, -103641.71, 0.0, 10.000486, 9.997434 
2.8958723e+3, 1.315435e+2, -1467427.9, -1652467.1, 55736.16, 0.07788284, 0.8827124, -1451936.4, 199020.45, 0.0, 10.001957, 9.999483 
2.8957894e+3, 1.4154193e+2, -1381714.4, -1581020.5, 37319.29, 0.120680735, 0.82059866, -1374955.6, 178016.06, 0.0, 10.001957, 9.999302 
2.8957045e+3, 1.5154086e+2, -1299257.6, -1505362.3, 62804.543, 0.05366996, 0.83014804, -1281627.8, 173354.19, 0.0, 10.001921, 9.999162 
2.895621e+3, 1.6153984e+2, -1203004.0, -1398988.8, 77854.984, 0.024783302, 0.8440537, -1175840.9, 181150.95, 0.0, 10.001871, 9.999243 
2.8955382e+3, 1.7153883e+2, -1112422.6, -1297022.0, 112355.18, 0.025119008, 0.8503462, -1059316.3, 199685.27, 0.0, 10.001794, 9.999304 
2.895456e+3, 1.8153773e+2, -1030711.0, -1202633.8, 112644.87, 0.011190528, 0.8454845, -974974.75, 186037.03, 0.0, 10.001665, 9.999341 
2.895373e+3, 1.9153637e+2, -964734.44, -1111329.6, 128709.09, -0.0034208745, 0.80647004, -889915.3, 173108.73, 0.0, 10.001411, 9.999416 
2.8952906e+3, 2.0153524e+2, -902008.94, -1028442.25, 132911.5, -0.019806167, 0.7876234, -818046.06, 146988.3, 0.0, 10.001162, 9.9994335 
2.8952077e+3, 2.1153486e+2, -821571.06, -932617.75, 136438.83, -0.0679237, 0.8393876, -729790.7, 137248.25, 0.0, 10.001015, 9.999488 
2.8951252e+3, 2.2153433e+2, -735966.9, -817182.94, 127167.45, -0.09824253, 0.8693023, -643081.2, 125963.1, 0.0, 10.000828, 9.999698 
2.8950432e+3, 2.3153318e+2, -670846.9, -717378.7, 128472.41, -0.04193602, 0.80953187, -563550.7, 107503.43, 0.0, 10.000526, 9.999855 
2.8949606e+3, 2.415322e+2, -619464.56, -648637.6, 128948.2, -0.010874554, 0.76528704, -504280.53, 68781.805, 0.0, 10.000235, 9.999796 
2.8948766e+3, 2.5153193e+2, -549057.6, -568940.5, 111629.766, -0.0927834, 0.79679924, -446927.5, 28137.135, 0.0, 10.000068, 9.999749 
2.894793e+3, 2.6153153e+2, -461847.4, -463736.47, 124927.266, -0.14323036, 0.8177404, -337861.1, 39206.53, 0.0, 9.999942, 9.999858 
2.8947103e+3, 2.7153063e+2, -384384.75, -379485.28, 106739.73, -0.050402865, 0.77751964, -275167.2, 3907.9375, 0.0, 9.999812, 9.999826 
2.894627e+3, 2.815297e+2, -342224.13, -320342.25, 76150.74, 0.0037851976, 0.7400721, -254350.48, -73266.734, 0.0, 9.999476, 9.999725 
2.89454e+3, 2.9152894e+2, -338726.97, -328625.7, 99654.59, -0.15205048, 0.75677574, -233893.84, -150801.11, 0.0, 9.999103, 9.999169 
2.8944546e+3, 3.0152816e+2, -178342.83, -153724.36, 156235.8, -0.27924538, 0.78760046, -9313.649, -9313.649, 0.0, 9.999331, 9.999594 
2.894375e+3, 3.1152707e+2, 20535.912, -57078.004, 128290.64, 0.059590712, 0.7568539, 115760.555, 115760.555, 0.0, 10.000473, 9.999385 
2.894289e+3, 3.2152507e+2, -57254.355, -225474.45, -99080.34, -0.094275735, 0.7477483, -11397.426, -11397.426, 0.0, 10.000467, 9.998241 
2.9058737e+3, 1.3162848e+2, -1499803.0, -1663621.0, 55618.195, 0.08184743, 0.90115654, -1482704.6, 167420.64, 0.0, 10.001708, 9.999529 
2.905791e+3, 1.416268e+2, -1400001.0, -1572693.1, 32005.521, 0.14813712, 0.81872404, -1394260.1, 157880.81, 0.0, 10.001755, 9.999457 
2.9057062e+3, 1.5162604e+2, -1301893.6, -1484524.8, 64247.48, 0.049649287, 0.8396828, -1281556.8, 172591.53, 0.0, 10.001807, 9.999358 
2.9056224e+3, 1.6162527e+2, -1211608.9, -1393734.1, 79127.71, -0.0014990845, 0.86304957, -1182033.3, 174122.63, 0.0, 10.001771, 9.999327 
2.9055396e+3, 1.716243e+2, -1154399.6, -1312438.6, 99840.94, 0.020407492, 0.8689566, -1106091.6, 152073.88, 0.0, 10.001486, 9.999347 
2.905457e+3, 1.8162328e+2, -1081402.0, -1208312.4, 94180.45, 0.024760174, 0.8633525, -1031294.4, 128880.72, 0.0, 10.001234, 9.999511 
2.9053742e+3, 1.9162211e+2, -984531.56, -1095425.3, 114973.57, -0.0014398721, 0.82148075, -912333.3, 149851.64, 0.0, 10.0011635, 9.999645 
2.9052913e+3, 2.0162112e+2, -912328.5, -1023754.1, 123051.67, -0.025679203, 0.79779124, -832964.94, 131228.61, 0.0, 10.001045, 9.999522 
2.9052085e+3, 2.1162069e+2, -861639.44, -948218.5, 130288.016, -0.058508225, 0.8427628, -767637.5, 98561.27, 0.0, 10.000723, 9.999522 
2.9051256e+3, 2.2162026e+2, -784794.8, -823105.1, 124155.375, -0.07799119, 0.8726305, -678325.6, 89878.016, 0.0, 10.000416, 9.999857 
2.905043e+3, 2.3161946e+2, -700560.44, -703951.1, 118364.586, -0.03892721, 0.8259908, -583879.06, 86330.74, 0.0, 10.000202, 10.000105 
2.9049605e+3, 2.4161875e+2, -636779.7, -640078.2, 120081.75, -0.014799518, 0.78707963, -518335.88, 53879.3, 0.0, 10.000046, 9.999945 
2.9048765e+3, 2.5161836e+2, -534143.25, -543633.44, 111081.11, -0.08102431, 0.7961438, -427705.94, 46512.313, 0.0, 10.000093, 9.99991 
2.9047924e+3, 2.6161808e+2, -447558.4, -430797.13, 124545.71, -0.12555526, 0.8067406, -314350.4, 61870.152, 0.0, 9.999928, 10.00009 
2.9047096e+3, 2.7161777e+2, -443208.75, -369779.4, 108371.79, -0.049515326, 0.79675484, -292072.0, -13849.305, 0.0, 9.999246, 10.000164 
2.9046255e+3, 2.8161737e+2, -383261.03, -295796.44, 105651.2, 0.009165141, 0.7799718, -225184.11, -44957.92, 0.0, 9.999018, 10.000109 
2.9045388e+3, 2.9161692e+2, -279690.44, -214622.9, 114775.7, -0.14426047, 0.77430546, -127859.11, -45627.9, 0.0, 9.999146, 9.99993 
2.9158756e+3, 1.3171314e+2, -1497713.0, -1666519.4, 56188.527, 0.1055544, 0.88888174, -1480720.8, 168575.63, 0.0, 10.001745, 9.999489 
2.9157925e+3, 1.417118e+2, -1388132.0, -1545190.1, 34641.887, 0.15914308, 0.8380467, -1380830.5, 170478.3, 0.0, 10.001743, 9.999651 
2.9157075e+3, 1.5171134e+2, -1284139.8, -1442275.4, 64636.008, 0.040992428, 0.8596343, -1261082.5, 192230.52, 0.0, 10.001782, 9.999661 
2.9156235e+3, 1.6171072e+2, -1215670.3, -1393724.8, 71341.22, -0.0206113, 0.8775861, -1190612.4, 164706.73, 0.0, 10.001734, 9.999346 
2.9155406e+3, 1.7170952e+2, -1162553.6, -1327837.5, 88980.305, 0.021681506, 0.8680638, -1123757.6, 133574.1, 0.0, 10.001476, 9.999247 
2.915458e+3, 1.8170847e+2, -1069795.8, -1183894.3, 90066.125, 0.03543094, 0.8592511, -1020231.06, 139111.13, 0.0, 10.001233, 9.99968 
2.9153746e+3, 1.9170797e+2, -964565.9, -1052289.1, 112774.99, -0.020905154, 0.85710996, -887423.2, 173921.97, 0.0, 10.001155, 9.999946 
2.9152918e+3, 2.0170736e+2, -904886.2, -1003728.56, 113329.766, -0.055970028, 0.8482923, -830670.44, 132679.03, 0.0, 10.001025, 9.999669 
2.9152092e+3, 2.1170628e+2, -854973.6, -933240.56, 117276.336, -0.017524336, 0.81695396, -770473.94, 94886.47, 0.0, 10.000716, 9.999628 
2.9151267e+3, 2.2170554e+2, -777701.2, -805979.7, 114337.68, -0.0029777682, 0.8030962, -676631.9, 90736.17, 0.0, 10.000404, 9.999981 
2.9150426e+3, 2.3170578e+2, -689137.8, -680271.94, 110314.914, -0.0735431, 0.8468658, -574300.94, 95064.0, 0.0, 10.000201, 10.000268 
2.9149592e+3, 2.4170578e+2, -625191.7, -617716.5, 118930.17, -0.1107347, 0.8642158, -502465.2, 68898.69, 0.0, 10.000052, 10.000094 
2.9148766e+3, 2.5170472e+2, -514985.34, -503037.34, 113022.02, -0.029878603, 0.78235865, -395831.56, 77540.96, 0.0, 10.000091, 10.000189 
2.9147935e+3, 2.6170406e+2, -425379.53, -390324.22, 103498.47, 0.0015144874, 0.7303617, -302879.72, 72497.72, 0.0, 9.999948, 10.0003605 
2.9147077e+3, 2.7170488e+2, -407643.6, -296153.56, 79301.945, -0.10903601, 0.79343164, -254964.03, 22405.656, 0.0, 9.999241, 10.000676 
2.9146227e+3, 2.8170556e+2, -370009.56, -263875.88, 130747.63, -0.14505403, 0.84302956, -175836.25, 3527.3228, 0.0, 9.999007, 10.000332 
2.9145387e+3, 2.9170555e+2, -191836.34, -44783.574, 80350.336, -0.04797425, 0.8158266, -9395.744, 71969.1, 0.0, 9.999213, 10.001064 
2.9258773e+3, 1.3179798e+2, -1462258.9, -1659409.8, 42075.15, 0.124331556, 0.89468485, -1453654.9, 194810.56, 0.0, 10.002031, 9.999399 
2.9257935e+3, 1.4179668e+2, -1425200.8, -1555082.1, 23890.484, 0.13105422, 0.8496272, -1420945.8, 129532.875, 0.0, 10.001452, 9.999725 
2.9257086e+3, 1.5179639e+2, -1355843.3, -1459817.8, 46278.324, 0.045977823, 0.8732044, -1338229.1, 114252.15, 0.0, 10.001216, 9.999815 
2.9256248e+3, 1.6179593e+2, -1299963.4, -1412726.4, 52708.49, 0.0075290864, 0.8916736, -1279162.9, 75322.62, 0.0, 10.001059, 9.999542 
2.9255414e+3, 1.7179488e+2, -1192710.0, -1317099.4, 88729.72, 0.015938386, 0.87477654, -1146548.1, 109948.234, 0.0, 10.001157, 9.9994755 
2.9254586e+3, 1.8179396e+2, -1077648.5, -1181137.5, 97903.34, 0.0070174737, 0.86316067, -1018656.56, 139848.83, 0.0, 10.001144, 9.999743 
2.925375e+3, 1.9179358e+2, -1016386.3, -1076635.8, 100974.11, -0.025458034, 0.8728052, -941138.94, 119368.734, 0.0, 10.000794, 9.999953 
2.9252923e+3, 2.0179313e+2, -966984.06, -1011954.44, 92140.914, -0.040001947, 0.8705524, -894624.5, 67886.4, 0.0, 10.000504, 9.999866 
2.9252097e+3, 2.1179217e+2, -872732.56, -909600.2, 107565.68, -0.0063376077, 0.82388425, -782032.6, 82487.15, 0.0, 10.000453, 9.999919 
2.9251269e+3, 2.2179154e+2, -772102.8, -792180.75, 113948.58, 0.0031992437, 0.79917496, -667751.8, 98773.78, 0.0, 10.000393, 10.000081 
2.9250428e+3, 2.317919e+2, -682479.0, -671641.6, 101034.65, -0.07776654, 0.8510585, -575880.5, 92641.24, 0.0, 10.000221, 10.000319 
2.924959e+3, 2.4179207e+2, -620756.44, -603744.2, 106593.54, -0.12071713, 0.8772403, -505317.9, 65201.516, 0.0, 10.000027, 10.000206 
2.9248765e+3, 2.5179118e+2, -536856.7, -488336.22, 97355.7, -0.020900602, 0.79516894, -412263.56, 60262.824, 0.0, 9.9998255, 10.000421 
2.924793e+3, 2.6179072e+2, -462909.0, -396943.47, 75230.47, 0.022325076, 0.7408437, -347783.16, 26746.463, 0.0, 9.999632, 10.000473 
2.9247066e+3, 2.7179164e+2, -339619.53, -238467.25, 28347.57, -0.13036595, 0.79891557, -231064.69, 45456.2, 0.0, 9.999594, 10.000906 
2.924621e+3, 2.8179252e+2, -294320.97, -205361.2, 90092.31, -0.1833531, 0.84343624, -149366.78, 29146.059, 0.0, 9.999412, 10.000554 
2.924538e+3, 2.9179278e+2, -137171.64, 2318.4614, -14836.39, -0.02159391, 0.8220079, 3879.0244, 84390.44, 0.0, 9.9994755, 10.00128 
2.9358792e+3, 1.3188294e+2, -1486498.1, -1684130.1, 15209.752, 0.1364327, 0.9093743, -1485334.5, 162299.19, 0.0, 10.001926, 9.999277 
2.935794e+3, 1.4188142e+2, -1428986.8, -1557990.0, 13681.886, 0.07283714, 0.8533661, -1427551.6, 122098.375, 0.0, 10.001432, 9.999714 
2.9357097e+3, 1.518812e+2, -1351747.0, -1454302.9, 38899.703, 0.061679848, 0.880486, -1338661.9, 112990.484, 0.0, 10.001227, 9.999847 
2.9356262e+3, 1.6188094e+2, -1274992.1, -1363541.6, 54298.1, 0.07018786, 0.90432227, -1249205.9, 104448.85, 0.0, 10.00107, 9.999874 
2.9355422e+3, 1.718803e+2, -1160563.6, -1247561.9, 92017.85, 0.0009309835, 0.88539207, -1102281.4, 153378.78, 0.0, 10.001144, 9.999959 
2.9354587e+3, 1.818797e+2, -1083688.5, -1187475.6, 87844.42, -0.0548922, 0.87231606, -1033554.7, 124111.016, 0.0, 10.001117, 9.999713 
2.935376e+3, 1.91879e+2, -1033142.9, -1111752.0, 86760.11, -0.017142236, 0.8712099, -977199.5, 82472.92, 0.0, 10.000793, 9.999714 
2.935293e+3, 2.0187846e+2, -949246.5, -975399.5, 87363.53, 0.010345898, 0.8671604, -873986.25, 87691.016, 0.0, 10.0005045, 10.000116 
2.9352096e+3, 2.1187834e+2, -839715.2, -841080.25, 106095.94, -0.024107222, 0.86100274, -734299.56, 129377.37, 0.0, 10.000453, 10.000389 
2.935126e+3, 2.218782e+2, -768226.4, -782350.4, 109087.125, -0.05478704, 0.8538047, -665972.9, 99704.06, 0.0, 10.000385, 10.000153 
2.9350427e+3, 2.3187785e+2, -688954.3, -682172.06, 93452.086, -0.05307793, 0.838599, -592049.56, 75630.52, 0.0, 10.000209, 10.000252 
2.9349592e+3, 2.4187765e+2, -615947.0, -594920.8, 98884.33, -0.050749324, 0.8288247, -505992.3, 63689.54, 0.0, 10.00003, 10.000267 
2.9348755e+3, 2.518778e+2, -522627.4, -462249.5, 89108.35, -0.059077606, 0.83956033, -398355.13, 73324.5, 0.0, 9.999837, 10.000598 
2.934791e+3, 2.6187804e+2, -460403.0, -396927.88, 71502.84, -0.079624675, 0.8461886, -350435.47, 23241.084, 0.0, 9.999655, 10.00046 
2.934706e+3, 2.7187803e+2, -341597.1, -248410.48, 26693.506, -0.10912793, 0.81305945, -241305.75, 34370.625, 0.0, 9.999621, 10.00082 
2.934621e+3, 2.8187802e+2, -263013.06, -170912.05, 72044.375, -0.10593474, 0.7707389, -131457.94, 46218.13, 0.0, 9.99953, 10.00074 
2.934536e+3, 2.9187906e+2, -156718.84, -39935.49, 332.26398, -0.10700548, 0.83437765, -39934.543, 39732.063, 0.0, 9.999478, 10.000989 
2.9458803e+3, 1.3196765e+2, -1624750.8, -1725328.1, 2827.5498, 0.17623813, 0.9099545, -1624671.4, 22134.326, 0.0, 10.000858, 9.9995165 
2.9457942e+3, 1.4196663e+2, -1463596.8, -1559922.3, 23821.242, 0.013908573, 0.88202614, -1458027.8, 90789.27, 0.0, 10.00113, 9.999847 
2.9457104e+3, 1.5196648e+2, -1352975.1, -1451500.4, 46533.637, 0.05226992, 0.9107235, -1334472.0, 116346.625, 0.0, 10.001202, 9.999881 
2.9456273e+3, 1.6196619e+2, -1264405.6, -1354625.1, 54707.742, 0.102469355, 0.93081504, -1238608.3, 114213.14, 0.0, 10.001123, 9.999912 
2.9455432e+3, 1.7196573e+2, -1203132.9, -1256790.1, 67191.25, 0.027062507, 0.91886604, -1157612.0, 97213.27, 0.0, 10.0008, 10.000064 
2.9454592e+3, 1.8196525e+2, -1159756.3, -1205853.8, 53356.11, -0.039338946, 0.9057639, -1124683.4, 32146.15, 0.0, 10.000513, 9.99988 
2.9453763e+3, 1.9196461e+2, -1045699.8, -1098553.8, 79478.68, -0.008393766, 0.8942101, -988369.7, 70465.734, 0.0, 10.000618, 9.999892 
2.9452932e+3, 2.019642e+2, -916364.75, -948659.75, 93799.84, 0.0150154065, 0.8867032, -837332.6, 123506.35, 0.0, 10.000673, 10.000223 
2.9452097e+3, 2.1196425e+2, -843044.94, -836196.3, 84727.15, -0.025750728, 0.8898078, -754824.3, 108012.734, 0.0, 10.000394, 10.000455 
2.9451263e+3, 2.2196424e+2, -789752.4, -787983.7, 72643.07, -0.058057107, 0.8878221, -716219.56, 48616.293, 0.0, 10.000208, 10.000204 
2.9450428e+3, 2.3196377e+2, -676787.6, -669474.1, 65065.215, -0.039025787, 0.856483, -607963.0, 58876.88, 0.0, 10.000254, 10.000321 
2.944959e+3, 2.4196354e+2, -589610.25, -571632.06, 75337.61, -0.027916782, 0.8341875, -504749.16, 64092.883, 0.0, 10.000159, 10.000365 
2.944875e+3, 2.51964e+2, -515335.3, -444675.0, 62100.44, -0.072113514, 0.86273885, -408558.1, 62278.83, 0.0, 9.999821, 10.00073 
2.9447904e+3, 2.6196456e+2, -463234.88, -393876.13, 52977.8, -0.10797455, 0.8897866, -365236.4, 7594.5024, 0.0, 9.999615, 10.0005045 
2.9447058e+3, 2.7196446e+2, -306034.6, -243285.19, 18343.13, -0.073709495, 0.85485613, -238316.5, 36514.88, 0.0, 9.999907, 10.000727 
2.944621e+3, 2.819639e+2, -204989.72, -156386.48, 38036.184, -0.04987717, 0.7747168, -135551.42, 41284.67, 0.0, 9.999985, 10.000616 
2.944535e+3, 2.9196522e+2, -143260.69, -36151.52, -30978.338, -0.14714865, 0.87576556, -27837.283, 50986.715, 0.0, 9.999571, 10.000963 
2.9558814e+3, 1.3205226e+2, -1594236.8, -1650107.0, 14289.498, 0.22724041, 0.91112286, -1590794.3, 55185.49, 0.0, 10.000813, 10.000052 
2.9557943e+3, 1.4205225e+2, -1450026.9, -1528281.5, 31525.357, -0.047855113, 0.93943936, -1438906.9, 109073.07, 0.0, 10.001118, 10.00007 
2.9557112e+3, 1.5205213e+2, -1355251.0, -1450288.6, 45446.082, 0.023790404, 0.96612525, -1337017.4, 112963.72, 0.0, 10.001176, 9.999903 
2.955628e+3, 1.6205166e+2, -1283956.6, -1385461.8, 45711.082, 0.11209293, 0.9751215, -1266406.0, 85579.67, 0.0, 10.0010805, 9.999722 
2.9555443e+3, 1.7205109e+2, -1217261.9, -1284159.8, 54185.23, 0.08626997, 0.97173536, -1187032.9, 66958.93, 0.0, 10.00079, 9.999882 
2.9554603e+3, 1.8205059e+2, -1136010.0, -1157408.3, 50898.406, 0.035845812, 0.95675033, -1094698.4, 61298.38, 0.0, 10.000517, 10.000211 
2.9553765e+3, 1.920504e+2, -1009216.6, -1020618.1, 84816.47, -0.0005699648, 0.9379749, -929909.5, 128087.4, 0.0, 10.000608, 10.000432 
2.9552934e+3, 2.0205033e+2, -922312.8, -956074.9, 87142.47, -0.01789183, 0.929659, -850431.3, 109564.97, 0.0, 10.000652, 10.000183 
2.9552096e+3, 2.1204992e+2, -866362.8, -883258.0, 72385.85, -0.013349995, 0.914891, -801933.3, 60066.34, 0.0, 10.000387, 10.000136 
2.9551265e+3, 2.2204962e+2, -788014.1, -781642.4, 72030.914, -0.01835003, 0.9043876, -712726.94, 51275.016, 0.0, 10.0001955, 10.000254 
2.9550427e+3, 2.3204969e+2, -662360.8, -638021.75, 65998.336, -0.03720178, 0.9052076, -583080.4, 82920.555, 0.0, 10.000248, 10.00054 
2.9549587e+3, 2.4204974e+2, -576107.94, -546069.7, 64690.95, -0.053074848, 0.8929818, -494677.28, 73322.625, 0.0, 10.000168, 10.000538 
2.9548746e+3, 2.5204974e+2, -506637.72, -426764.2, 48463.363, -0.060203034, 0.8622992, -403902.53, 66095.74, 0.0, 9.99982, 10.000854 
2.95479e+3, 2.6205027e+2, -453551.34, -377099.94, 56689.676, -0.06180656, 0.8705924, -346952.22, 25040.3, 0.0, 9.999627, 10.000614 
2.954706e+3, 2.7205116e+2, -304785.28, -247114.88, 38345.156, -0.027795242, 0.9317657, -227972.8, 46011.523, 0.0, 9.999934, 10.000688 
2.9546207e+3, 2.820506e+2, -226772.7, -216623.02, 21649.666, -0.035821073, 0.87097234, -199461.36, -23471.475, 0.0, 10.00004, 10.000179 
2.954534e+3, 2.9205018e+2, -137116.33, -30416.215, -38120.418, -0.1707705, 0.84294766, -18196.5, 59797.633, 0.0, 9.999598, 10.000991 
2.965882e+3, 1.3213728e+2, -1602681.8, -1614855.9, 29645.334, 0.24837616, 0.947201, -1578505.0, 66643.82, 0.0, 10.0005865, 10.0004015 
2.9657948e+3, 1.421376e+2, -1466214.1, -1538694.4, 23761.174, -0.060219493, 0.98885524, -1459119.0, 88026.63, 0.0, 10.001014, 10.000052 
2.965711e+3, 1.5213701e+2, -1419053.1, -1489056.9, 14217.277, -0.01628127, 0.97593945, -1416275.9, 32875.65, 0.0, 10.000771, 9.999834 
2.965628e+3, 1.621364e+2, -1368534.5, -1413541.4, 25022.365, 0.05721382, 0.9670459, -1357385.0, -6227.21, 0.0, 10.000442, 9.99984 
2.965544e+3, 1.7213589e+2, -1254336.1, -1293492.3, 53956.477, 0.025362054, 0.96125895, -1216515.6, 36647.293, 0.0, 10.000493, 9.999965 
2.9654598e+3, 1.821356e+2, -1133506.4, -1151074.3, 56016.035, -0.016608652, 0.95971686, -1085589.8, 69575.91, 0.0, 10.000504, 10.000266 
2.9653764e+3, 1.9213566e+2, -1036258.94, -1027864.44, 61751.62, -0.026071506, 0.9607837, -970167.56, 86995.875, 0.0, 10.000394, 10.000488 
2.9652932e+3, 2.0213561e+2, -967066.0, -973145.94, 39433.945, -0.028115986, 0.9512683, -930555.0, 28607.537, 0.0, 10.000323, 10.000225 
2.9652098e+3, 2.121351e+2, -867074.1, -871026.56, 48869.52, -0.02827269, 0.9166564, -820140.9, 41025.484, 0.0, 10.000324, 10.000252 
2.9651263e+3, 2.2213487e+2, -764136.06, -761484.4, 75210.39, -0.028990857, 0.9020743, -687588.1, 75579.78, 0.0, 10.000318, 10.000336 
2.9650426e+3, 2.3213531e+2, -674572.3, -640829.3, 56865.25, -0.034082852, 0.9338784, -598385.5, 66778.37, 0.0, 10.000141, 10.000578 
2.9649585e+3, 2.4213558e+2, -600894.2, -548357.4, 41396.41, -0.04270001, 0.93769735, -525598.3, 41562.49, 0.0, 9.999945, 10.000637 
2.964874e+3, 2.5213534e+2, -485639.25, -417452.16, 18558.467, -0.055813972, 0.87398577, -412728.34, 56433.03, 0.0, 9.999953, 10.000861 
2.9647896e+3, 2.6213562e+2, -398831.56, -343975.22, 27695.705, -0.052366942, 0.8590101, -332424.47, 38732.895, 0.0, 9.999964, 10.000686 
2.9647055e+3, 2.721368e+2, -316561.8, -254020.47, 17561.313, -0.003813, 0.9460307, -249426.75, 23719.822, 0.0, 9.999858, 10.000678 
2.9646206e+3, 2.8213653e+2, -255617.95, -230827.3, 4845.869, -0.019381085, 0.9082128, -229913.73, -54763.613, 0.0, 9.999852, 10.000178 
2.9645333e+3, 2.921358e+2, -52661.36, 17257.754, -23475.328, -0.19676715, 0.8633238, 24408.313, 101564.93, 0.0, 10.000178, 10.001041 
2.9758823e+3, 1.3222228e+2, -1619939.9, -1607255.1, 39965.277, 0.25637218, 0.9792043, -1573132.1, 71185.695, 0.0, 10.000403, 10.00054 
2.975796e+3, 1.4222237e+2, -1493129.4, -1571755.3, 23989.523, -0.03935885, 1.0017173, -1486388.0, 59929.066, 0.0, 10.000917, 9.99987 
2.9757112e+3, 1.5222101e+2, -1412496.4, -1498028.5, -3387.7695, -0.07071397, 0.92662317, -1412362.5, 35968.605, 0.0, 10.000868, 9.999726 
2.975627e+3, 1.6222034e+2, -1315815.3, -1346307.3, 20607.047, -0.055373345, 0.90052766, -1305427.5, 44910.254, 0.0, 10.000624, 10.000213 
2.9755425e+3, 1.7222019e+2, -1218583.6, -1243356.1, 56829.703, -0.1348479, 0.89472884, -1172806.0, 79531.99, 0.0, 10.000597, 10.000258 
2.9754585e+3, 1.8222034e+2, -1142060.5, -1177788.4, 53098.75, -0.17256974, 0.9289579, -1103901.3, 50434.285, 0.0, 10.000542, 10.000064 
2.975376e+3, 1.9222042e+2, -1059191.8, -1081608.4, 59129.7, -0.082730554, 0.96402943, -1010217.44, 46117.258, 0.0, 10.00042, 10.000107 
2.975293e+3, 2.0222002e+2, -955343.6, -952221.7, 39773.535, -0.028733203, 0.9437451, -913978.5, 44359.438, 0.0, 10.000338, 10.000361 
2.9752094e+3, 2.122198e+2, -828678.44, -790871.94, 49531.785, -0.0689419, 0.8909916, -756758.9, 103578.484, 0.0, 10.000322, 10.000804 
2.9751256e+3, 2.2222e+2, -759179.6, -747209.6, 72501.37, -0.08249507, 0.88002944, -680446.6, 81887.07, 0.0, 10.0003, 10.0004425 
2.9750425e+3, 2.3222072e+2, -683942.25, -659853.56, 49025.973, -0.028900454, 0.9479837, -621414.1, 42913.797, 0.0, 10.000137, 10.00045 
2.9749584e+3, 2.4222119e+2, -602035.0, -548632.44, 37246.938, -0.0032006386, 0.9770933, -529504.8, 36818.938, 0.0, 9.999935, 10.00064 
2.9748735e+3, 2.5222075e+2, -494496.2, -437398.9, 22150.652, -0.06222484, 0.902834, -429813.4, 38512.31, 0.0, 9.999961, 10.00072 
2.9747888e+3, 2.6222068e+2, -391504.7, -333592.44, 23135.396, -0.087269, 0.8580717, -325485.06, 44840.055, 0.0, 9.999985, 10.000747 
2.974705e+3, 2.7222145e+2, -310684.5, -243016.42, 15009.243, -0.009059434, 0.8875868, -239836.69, 32482.164, 0.0, 9.999862, 10.000753 
2.9746202e+3, 2.8222173e+2, -218032.83, -155326.84, 10964.084, -0.013720772, 0.8858115, -153465.06, 20851.072, 0.0, 9.999877, 10.000682 
2.974533e+3, 2.9222265e+2, -52229.06, 10072.725, 3607.1423, -0.19888285, 0.9622351, 10280.875, 86586.984, 0.0, 10.000241, 10.00095 
2.9858798e+3, 1.3230637e+2, -1697174.6, -1669337.4, 26642.287, 0.015298306, 0.9648224, -1653197.1, -9700.907, 0.0, 9.999974, 10.000331 
2.985797e+3, 1.4230672e+2, -1607850.5, -1588315.0, 34506.227, 0.051810298, 1.0095767, -1562220.6, -16727.69, 0.0, 9.9999695, 10.000214 
2.9857135e+3, 1.523071e+2, -1399958.1, -1468422.1, 18739.313, 0.12632017, 1.0777148, -1395164.6, 52324.383, 0.0, 10.000858, 9.99993 
2.9856297e+3, 1.6230683e+2, -1272417.6, -1329161.0, 7440.9824, 0.20024924, 1.0858554, -1271458.1, 78033.164, 0.0, 10.000947, 10.000171 
2.985546e+3, 1.7230688e+2, -1222964.8, -1222101.4, 30323.86, 0.18484434, 1.09017, -1192206.1, 59283.51, 0.0, 10.000475, 10.000458 
2.9854614e+3, 1.8230647e+2, -1192821.0, -1189033.4, 31977.98, 0.12536754, 1.0476441, -1158893.3, -5400.4824, 0.0, 10.000145, 10.000173 
2.9853773e+3, 1.9230582e+2, -1095905.5, -1095993.4, 71783.77, 0.06631599, 1.0075984, -1024165.7, 31332.652, 0.0, 10.000155, 10.000135 
2.985294e+3, 2.0230567e+2, -934000.7, -928500.9, 81223.65, 0.034448337, 1.0035882, -849980.6, 107518.125, 0.0, 10.0004225, 10.000489 
2.9852098e+3, 2.1230547e+2, -852670.75, -808047.3, 45430.332, 0.009217501, 0.95217544, -779745.5, 79753.22, 0.0, 10.000176, 10.000761 
2.985126e+3, 2.2230536e+2, -844498.5, -787011.2, 41987.344, -0.015075166, 0.91357857, -764871.3, -3372.8008, 0.0, 9.999703, 10.000461 
2.9850423e+3, 2.323058e+2, -688799.0, -649417.6, 43373.02, -0.006250398, 0.9451838, -621474.9, 42019.867, 0.0, 10.000049, 10.000565 
2.9849586e+3, 2.423062e+2, -514211.75, -511633.88, 36562.375, -0.0108753815, 0.9624772, -476337.72, 89153.31, 0.0, 10.000563, 10.000591 
2.9848737e+3, 2.52306e+2, -427356.06, -418998.25, 15135.317, -0.049998365, 0.9209027, -407475.53, 60015.848, 0.0, 10.000481, 10.000596 
2.9847887e+3, 2.62306e+2, -359475.84, -322016.5, 9650.592, -0.06866939, 0.8937324, -319676.4, 49814.1, 0.0, 10.000213, 10.000724 
2.984704e+3, 2.7230656e+2, -315934.44, -250193.22, -7650.341, -0.04096325, 0.9048263, -249314.69, 22171.404, 0.0, 9.999827, 10.000732 
2.984619e+3, 2.8230712e+2, -216882.2, -139876.95, -7357.2124, -0.07307302, 0.91905874, -139180.33, 34300.652, 0.0, 9.999816, 10.000842 
2.9845336e+3, 2.9230738e+2, -22030.283, -42559.99, -30970.486, -0.14752533, 0.93581426, 332.12555, 75809.02, 0.0, 10.000672, 10.000463 
2.995881e+3, 1.3239112e+2, -1568577.3, -1639820.0, -32055.139, 0.19312641, 1.0499731, -1556277.8, 86391.055, 0.0, 10.0009985, 10.00004 
2.9957965e+3, 1.4239183e+2, -1527138.9, -1467380.0, 16365.849, 0.056292497, 1.1093541, -1463191.5, 81470.05, 0.0, 10.000159, 10.000957 
2.9957134e+3, 1.5239142e+2, -1461026.0, -1461327.5, -2831.8103, 0.050232958, 1.0408173, -1458340.9, -11677.236, 0.0, 10.000257, 10.000281 
2.9956278e+3, 1.6239001e+2, -1456890.8, -1463650.4, 29176.15, -0.030964285, 0.94142354, -1430899.3, -82223.12, 0.0, 9.999853, 9.999786 
2.9955435e+3, 1.7239028e+2, -1295221.4, -1256803.5, 27256.957, -0.061847046, 0.98192155, -1242666.9, 8006.8823, 0.0, 9.999955, 10.000481 
2.9954597e+3, 1.8239112e+2, -1169456.9, -1143460.1, -46570.043, -0.007238588, 1.0465429, -1108108.4, 44556.465, 0.0, 10.000132, 10.0005045 
2.9953766e+3, 1.9238965e+2, -1017872.5, -1013180.9, 5970.9536, -0.012320362, 0.8816455, -1009111.44, 45564.816, 0.0, 10.000471, 10.000563 
2.995293e+3, 2.023905e+2, -972621.94, -947447.5, 2241.3855, -0.039670967, 0.93361574, -947249.5, 9416.175, 0.0, 10.000139, 10.000504 
2.99521e+3, 2.1239103e+2, -885593.56, -892878.2, -27372.02, 0.045624092, 1.0003482, -861622.56, -2961.452, 0.0, 10.0002365, 10.000153 
2.9951254e+3, 2.2239064e+2, -738629.3, -742692.8, -8948.342, -0.019876488, 0.97597086, -731484.94, 29180.174, 0.0, 10.000455, 10.000403 
2.9950416e+3, 2.3239058e+2, -691367.1, -609957.44, 861.2285, -0.06409853, 0.92836815, -609948.3, 52715.746, 0.0, 9.999854, 10.000929 
2.994958e+3, 2.4239048e+2, -517218.44, -521474.06, 14609.949, -0.0852187, 0.8798577, -504582.16, 60081.688, 0.0, 10.000578, 10.000514 
2.994874e+3, 2.5239113e+2, -423119.3, -423364.0, 5311.7017, -0.021921685, 0.9265304, -417928.53, 48729.242, 0.0, 10.00054, 10.000533 
2.9947895e+3, 2.6239175e+2, -365434.75, -342393.06, -3636.544, 0.009521397, 0.96981055, -341832.75, 26819.398, 0.0, 10.000238, 10.000575 
2.9947028e+3, 2.7239236e+2, -325412.56, -279849.7, -17055.566, -0.11248397, 1.0074068, -274172.63, -3525.4111, 0.0, 9.999856, 10.000524 
2.994617e+3, 2.8239256e+2, -248515.95, -180980.25, 10245.891, -0.22905518, 1.0032392, -179460.05, -6814.484, 0.0, 9.999755, 10.0005665 
2.9945347e+3, 2.9239076e+2, -76665.34, -107681.266, 22467.066, -0.05115868, 0.8414907, -64873.746, 9786.923, 0.0, 10.000528, 10.000055 
