coord_x,coord_y,stress_xx,stress_yy,tau_xy,velocity_x,velocity_y,stress_1,eps,damage,lx,ly
5.0009847e+0, 1.2334629e+2, -1500801.8, -1923721.3, -14383.602, -0.04216002, -0.31104627, -1500313.1, 230864.28, 0.0014207864, 10.002768, 9.997229 
5.0010467e+0, 1.3334543e+2, -1495747.8, -1767904.5, 20271.64, 0.018041536, -0.22881292, -1494246.1, 138952.25, 0.00085293356, 10.001708, 9.99813 
5.000831e+0, 1.4334673e+2, -1358275.4, -1443051.5, 54923.46, 0.027806316, 0.010779042, -1331285.3, 203905.17, 0.00039112536, 10.001085, 9.999983 
5.000243e+0, 1.5334441e+2, -1213736.8, -1294712.3, 17949.77, -0.041026395, -0.267979, -1209936.3, 227269.2, 0.00011897274, 10.001285, 10.000232 
5.000021e+0, 1.6334341e+2, -1268046.3, -1480455.9, -6977.159, -0.056013867, -0.3090656, -1267817.4, 71395.805, 0.000016044252, 10.001144, 9.998354 
5.000547e+0, 1.7334436e+2, -1319942.5, -1506760.4, 21947.725, 0.036522906, -0.031672195, -1317398.6, -76185.664, 0.00000013955699, 10.000343, 9.997887 
5.0006324e+0, 1.83344e+2, -1258997.5, -1342832.6, 67642.414, 0.07552032, 0.11556105, -1221337.6, -78115.52, 0.0, 9.999733, 9.998632 
4.999867e+0, 1.9334142e+2, -1196702.5, -1258265.8, 97323.81, 0.012180251, -0.033647712, -1125408.5, -80161.71, 0.0, 9.999472, 9.998668 
4.999475e+0, 2.0333919e+2, -1070878.1, -1053694.8, 102592.14, -0.016490322, -0.15515278, -959335.2, -12069.508, 0.0, 9.999262, 9.999496 
4.9998164e+0, 2.133376e+2, -983173.7, -951944.25, 41115.15, 0.023001628, -0.29399145, -923578.6, -74304.14, 0.0, 9.999153, 9.999576 
4.9998847e+0, 2.2333637e+2, -955973.25, -992133.25, 21439.02, 0.03162962, -0.33454087, -946008.4, -194724.86, 0.0, 9.999118, 9.998643 
4.9994326e+0, 2.3333572e+2, -861815.44, -929504.06, 55130.91, -0.01924643, -0.26240742, -830969.3, -177675.88, 0.0, 9.999232, 9.998348 
4.999238e+0, 2.433355e+2, -732044.5, -728219.3, 70302.266, -0.030378258, -0.14992832, -659803.6, -104505.125, 0.0, 9.999068, 9.999137 
4.9995404e+0, 2.533357e+2, -729952.8, -674661.7, 63330.367, 0.03316757, -0.07079853, -633205.8, -175908.16, 0.0, 9.998402, 9.999153 
4.9993953e+0, 2.6333523e+2, -634786.0, -392050.03, 49626.516, 0.05955389, -0.09871513, -382296.03, -22994.947, 0.000000019594776, 9.997585, 10.000811 
4.9984017e+0, 2.7333423e+2, -674890.06, -331671.94, 15139.623, 0.013687607, -0.32757393, -331005.4, -69699.83, 0.00000061394036, 9.996511, 10.00107 
4.9980146e+0, 2.833353e+2, -668067.6, -342692.03, 25407.664, -0.008089469, -0.30232307, -340719.97, -177425.83, 0.000004739669, 9.99617, 10.000481 
4.998713e+0, 2.9333833e+2, -450083.22, -219448.38, 16885.12, 0.013886997, -0.052405205, -218218.73, -152946.61, 0.00003407196, 9.997128, 10.000196 
4.9988037e+0, 3.0333644e+2, -490079.66, -373800.06, -9471.001, 0.019200874, -0.18503, -373033.72, -373033.72, 0.00018243087, 9.997206, 9.998769 
4.997751e+0, 3.1333816e+2, -447930.4, 53201.957, 24115.916, -0.013271073, 0.09287355, 54359.81, 54359.81, 0.0005320596, 9.995725, 10.002419 
1.5002929e+1, 1.23347335e+2, -1444253.1, -1786516.5, -65322.992, -0.12858142, -0.21923336, -1432209.6, 298961.56, 0.0013868158, 10.002695, 9.99821 
1.5003124e+1, 1.3334519e+2, -1423701.9, -1609141.6, -16863.967, 0.052455373, -0.36270043, -1422180.8, 211015.61, 0.0008316136, 10.001681, 9.999236 
1.5002507e+1, 1.4334655e+2, -1407587.1, -1537911.1, 53312.387, 0.08514915, -0.1527084, -1388557.1, 146628.08, 0.00037937044, 10.001056, 9.9993515 
1.5000713e+1, 1.5334654e+2, -1286884.9, -1436841.5, 30751.459, -0.12484086, -0.09614701, -1280823.8, 156362.23, 0.000113649534, 10.001247, 9.999278 
1.5000087e+1, 1.6334566e+2, -1228378.9, -1389288.9, -33703.86, -0.16559497, -0.09846956, -1221604.5, 117590.5, 0.000014715262, 10.001108, 9.999003 
1.5001643e+1, 1.7334291e+2, -1255546.3, -1363818.4, -5524.2188, 0.10908963, -0.27658185, -1255265.1, -14042.7, 0.00000010097208, 10.000306, 9.998889 
1.5001889e+1, 1.8334155e+2, -1206082.9, -1220122.6, 52728.16, 0.22619349, -0.32473952, -1159909.4, -16673.775, 0.0, 9.999684, 9.999498 
1.4999586e+1, 1.9334291e+2, -1143280.0, -1135050.4, 91470.37, 0.03520591, -0.15827303, -1047602.25, -2380.7878, 0.0, 9.999424, 9.9995365 
1.4998427e+1, 2.0334291e+2, -1158569.0, -1224657.4, 95360.58, -0.04963701, -0.061668254, -1090689.6, -143467.73, 0.0, 9.99922, 9.998346 
1.4999445e+1, 2.1334031e+2, -1101285.0, -1183029.9, 41402.39, 0.06884357, -0.13991322, -1083979.1, -234729.0, 0.0, 9.999099, 9.998018 
1.4999646e+1, 2.2333854e+2, -921027.5, -905572.2, 22044.979, 0.09426849, -0.16785401, -889939.6, -138671.11, 0.0, 9.999064, 9.999265 
1.499829e+1, 2.3333853e+2, -795472.9, -777552.1, 63151.836, -0.057893597, -0.12649849, -722728.1, -69461.234, 0.0, 9.999178, 9.999418 
1.4997718e+1, 2.4333818e+2, -729304.2, -712448.8, 46803.473, -0.090727955, -0.094398074, -673320.3, -118050.91, 0.0, 9.999026, 9.999271 
1.4998628e+1, 2.5333694e+2, -735682.94, -674671.1, 40768.113, 0.100028254, -0.15016857, -654258.94, -196976.55, 0.0, 9.998351, 9.999183 
1.4998184e+1, 2.6333588e+2, -684284.25, -485153.5, 8670.982, 0.17816672, -0.21671699, -484776.66, -125483.695, 0.0000000045160005, 9.997547, 10.000194 
1.4995219e+1, 2.7333575e+2, -736884.2, -449754.22, -22418.986, 0.041677732, -0.27269322, -448014.28, -186721.94, 0.00000044568839, 9.996467, 10.000285 
1.4994024e+1, 2.8333735e+2, -702542.7, -400239.06, 48440.695, -0.025258832, -0.13177337, -392666.7, -229388.63, 0.000003862279, 9.996119, 10.0001135 
1.499614e+1, 2.933405e+2, -472970.56, -253904.67, 59004.754, 0.04115402, 0.16972493, -239022.89, -173768.56, 0.000030142082, 9.997074, 9.999989 
1.4996402e+1, 3.0333763e+2, -423620.9, -223462.58, -53749.02, 0.056976676, -0.10058461, -209942.45, -209942.45, 0.0001696507, 9.997166, 9.999823 
1.499322e+1, 3.13336e+2, -394268.25, 189531.61, -21185.006, -0.043056093, -0.268763, 190299.36, 190299.36, 0.00050278765, 9.99563, 10.003404 
2.5005507e+1, 1.2334821e+2, -1593742.5, -1787155.4, -51830.21, -0.0711513, -0.16177922, -1580728.9, 150438.13, 0.0013409767, 10.001375, 9.998833 
2.5004476e+1, 1.33346e+2, -1363914.3, -1515869.9, -48184.008, 0.014868053, -0.37202692, -1349923.6, 283263.38, 0.00080172316, 10.001819, 9.999812 
2.5003064e+1, 1.4334737e+2, -1378938.0, -1566693.9, 3130.0918, 0.017900812, -0.17917427, -1378885.9, 156287.94, 0.00036253707, 10.001441, 9.998962 
2.5001454e+1, 1.5334724e+2, -1565324.0, -1639509.6, 3740.1062, -0.093057826, -0.08056672, -1565135.9, -127956.305, 0.0001060576, 9.999634, 9.99866 
2.5000826e+1, 1.6334628e+2, -1502709.0, -1470048.1, -1937.9181, -0.09629826, -0.073510416, -1469933.5, -130742.59, 0.000012859101, 9.999017, 9.999447 
2.500203e+1, 1.7334357e+2, -1168597.6, -1250525.5, 5233.946, 0.10387258, -0.31323197, -1168264.6, 72949.79, 0.00000006033416, 10.000604, 9.999518 
2.500197e+1, 1.8334228e+2, -972895.4, -1096068.0, -4390.5063, 0.1899324, -0.39394215, -972739.06, 170485.64, 0.0, 10.001232, 9.999603 
2.4999532e+1, 1.9334391e+2, -1058669.6, -1094659.1, -39902.24, 0.05940957, -0.20500465, -1032892.2, 12316.647, 0.0, 10.000005, 9.999531 
2.4998192e+1, 2.0334423e+2, -1161234.5, -1263574.6, -9680.541, -0.0014127609, -0.05983659, -1160326.9, -213118.83, 0.0, 9.999363, 9.99801 
2.4998909e+1, 2.1334207e+2, -1026317.44, -1193967.9, 22984.873, 0.07121004, -0.057667762, -1023223.3, -173987.16, 0.0, 9.999814, 9.997599 
2.4998754e+1, 2.2334047e+2, -842659.3, -832710.3, 20937.174, 0.08071367, -0.057701297, -816164.8, -64910.36, 0.0, 9.999442, 9.999583 
2.4996948e+1, 2.333402e+2, -1005990.7, -829726.1, 12085.195, -0.025545912, -0.08695424, -828901.4, -175649.81, 0.0, 9.997515, 9.999861 
2.4995968e+1, 2.4333972e+2, -1063386.0, -846754.75, 19473.254, -0.04724325, -0.10527679, -845018.2, -289764.84, 0.0, 9.996626, 9.9994955 
2.4996527e+1, 2.5333852e+2, -815376.5, -692938.0, 31071.469, 0.08715156, -0.1812649, -685504.25, -228237.63, 0.0, 9.9977255, 9.999349 
2.4995905e+1, 2.6333752e+2, -567905.4, -460269.47, 1001.7459, 0.14965923, -0.23515475, -460260.13, -100983.25, 0.00000000030772893, 9.9984865, 9.999907 
2.4993101e+1, 2.7333763e+2, -462857.88, -360403.4, -8459.359, 0.08071552, -0.2317872, -359709.63, -98434.56, 0.00000033210142, 9.99854, 9.999893 
2.4991737e+1, 2.8333914e+2, -434889.47, -279336.97, 104418.945, 0.04315969, -0.07601416, -226911.61, -63649.906, 0.0000031221457, 9.99798, 10.00005 
2.4993065e+1, 2.933417e+2, -591457.0, -307376.25, 133862.69, 0.06912716, 0.1612685, -254238.02, -188996.56, 0.000025684236, 9.996249, 10.000019 
2.4992666e+1, 3.0333883e+2, -656168.7, -287421.3, 22560.469, 0.058081593, -0.12889893, -286046.16, -286046.16, 0.0001534223, 9.99537, 10.00025 
2.4989153e+1, 3.1333768e+2, -335284.4, 210209.98, -13071.838, -0.031635016, -0.29641354, 210523.05, 210523.05, 0.00046499635, 9.996077, 10.003327 
3.5008597e+1, 1.2334881e+2, -1577948.6, -1747764.9, -45137.93, 0.081484005, -0.1597648, -1566696.4, 164468.97, 0.0012839544, 10.001352, 9.999112 
3.5004994e+1, 1.333479e+2, -1351730.4, -1488665.0, -29354.025, -0.1251063, -0.2519657, -1345703.1, 287466.88, 0.00076322694, 10.001819, 9.999995 
3.5002434e+1, 1.4334917e+2, -1388922.4, -1582812.6, -56054.38, -0.19939981, -0.0771711, -1373883.4, 161273.0, 0.00034052896, 10.001423, 9.998861 
3.500237e+1, 1.5334654e+2, -1579564.9, -1660423.6, -61944.99, 0.023932228, -0.21186715, -1546023.3, -108836.914, 0.00009623152, 9.999606, 9.998528 
3.500216e+1, 1.633453e+2, -1485536.4, -1432679.8, 34881.17, 0.12535836, -0.23705116, -1415345.6, -76144.92, 0.000010539653, 9.999006, 9.99971 
3.5001588e+1, 1.7334624e+2, -1145578.6, -1200615.9, 69398.54, -0.009907642, -0.14280757, -1098441.9, 142747.67, 0.000000028001644, 10.000596, 9.999864 
3.5000816e+1, 1.8334618e+2, -1018589.75, -1186159.6, -36623.7, -0.057043612, -0.09762401, -1010935.0, 132254.48, 0.0, 10.001211, 9.998995 
3.4999642e+1, 1.9334438e+2, -1120446.3, -1213535.4, -84123.164, 0.059527095, -0.16834222, -1070849.8, -25640.94, 0.0, 9.999965, 9.998734 
3.499869e+1, 2.0334314e+2, -1131623.8, -1189665.9, -6634.999, 0.10503906, -0.1555077, -1130875.0, -183650.78, 0.0, 9.999314, 9.998539 
3.4998116e+1, 2.1334282e+2, -976872.6, -1077781.4, 44276.563, 0.0026996857, -0.045409687, -960199.9, -110966.89, 0.0, 9.99976, 9.998421 
3.499712e+1, 2.2334209e+2, -842963.06, -819810.44, -40441.793, -0.034649707, -0.01154109, -789320.75, -38079.34, 0.0, 9.999388, 9.999698 
3.4995326e+1, 2.3334081e+2, -1014379.6, -834189.6, -58107.13, 0.0533586, -0.1383636, -817076.7, -163829.48, 0.0, 9.997461, 9.999856 
3.4993917e+1, 2.4334015e+2, -1044599.9, -799351.94, 40026.785, 0.076770134, -0.18789658, -792984.5, -237734.34, 0.0, 9.99659, 9.999841 
3.499318e+1, 2.5334036e+2, -793862.9, -637947.6, 76326.86, -0.029966194, -0.15845025, -606803.56, -149553.17, 0.0, 9.99768, 9.99975 
3.4992504e+1, 2.6334018e+2, -565502.44, -447181.06, 5904.819, -0.047016345, -0.16021104, -446887.1, -87633.99, 0.00000000006499392, 9.998455, 10.0000105 
3.499193e+1, 2.7333987e+2, -463623.47, -350864.63, -3665.9014, 0.10059616, -0.20442681, -350745.6, -89491.33, 0.00000028362408, 9.998495, 9.99998 
3.4991062e+1, 2.8334063e+2, -417524.66, -234169.53, 45946.27, 0.17000301, -0.14225322, -223300.34, -60054.695, 0.0000026203563, 9.997946, 10.000377 
3.4989402e+1, 2.9334185e+2, -569490.0, -253701.47, 69847.02, 0.06954658, -0.07378603, -238942.3, -173708.64, 0.000020827198, 9.996213, 10.000406 
3.4987518e+1, 3.0334e+2, -670448.5, -309194.75, 33642.25, 0.0009885101, -0.2833631, -306088.5, -306088.5, 0.0001336939, 9.995339, 10.000114 
3.4985438e+1, 3.133432e+2, -416488.5, 51137.848, 23572.588, -0.027888507, 0.024070583, 52323.117, 52323.117, 0.000419702, 9.996037, 10.0022545 
4.5010188e+1, 1.233507e+2, -1538701.1, -1712976.3, 28741.414, 0.104032375, -0.12659727, -1534083.4, 197064.53, 0.0012178852, 10.001542, 9.99927 
4.5006233e+1, 1.3334943e+2, -1528149.4, -1572863.5, 23002.838, -0.1163678, -0.25831538, -1518428.9, 114725.53, 0.0007174344, 10.000595, 10.000015 
4.5003566e+1, 1.4335033e+2, -1533036.8, -1651678.0, 93.05863, -0.17429945, -0.11978809, -1533036.6, 2106.399, 0.00031418403, 10.000431, 9.998872 
4.5003724e+1, 1.5334734e+2, -1269441.5, -1514082.8, -4103.4565, 0.09691133, -0.2892697, -1269372.8, 167803.84, 0.000084591054, 10.001738, 9.998514 
4.5003304e+1, 1.6334617e+2, -1083378.8, -1267289.4, 91531.11, 0.19836678, -0.2945558, -1045589.2, 293601.75, 0.000007991499, 10.001889, 9.999459 
4.5001754e+1, 1.7334802e+2, -1268603.4, -1293927.8, 71972.78, -0.015452498, -0.07923991, -1208187.4, 32985.777, 0.000000008983813, 9.999894, 9.999565 
4.5000285e+1, 1.8334815e+2, -1385325.8, -1382511.1, -48429.105, -0.10724511, 0.008792786, -1335468.9, -192295.9, 0.0, 9.99878, 9.998822 
4.4998887e+1, 1.9334523e+2, -1228960.9, -1282976.9, -54499.617, 0.025144992, -0.15793124, -1195144.3, -149940.77, 0.0, 9.999294, 9.998585 
4.4997796e+1, 2.0334363e+2, -1067728.3, -1084761.1, 71581.13, 0.08171552, -0.1990335, -1004158.7, -56937.25, 0.0, 9.999431, 9.999205 
4.4997323e+1, 2.1334445e+2, -1063953.5, -1027414.06, 119972.54, 0.0011278999, -0.055048957, -924328.1, -75111.7, 0.0, 9.998761, 9.9992485 
4.4996288e+1, 2.233443e+2, -954209.8, -867201.75, 27122.87, -0.014144086, -0.014148375, -859439.3, -108221.1, 0.0, 9.998604, 9.999747 
4.4994155e+1, 2.3334244e+2, -734566.06, -709415.9, -4938.696, 0.095153585, -0.19067052, -708480.8, -55249.395, 0.0, 9.99943, 9.999762 
4.4992185e+1, 2.433418e+2, -630855.44, -581345.1, 98102.19, 0.109320834, -0.2388704, -504922.94, 50312.2, 0.0, 9.999353, 10.000006 
4.4990516e+1, 2.5334322e+2, -788278.5, -612755.4, 116719.44, -0.05803733, -0.107572936, -554484.3, -97261.14, 0.0, 9.997622, 9.999954 
4.4989437e+1, 2.6334357e+2, -825071.94, -572771.2, 60438.242, -0.10733707, -0.069337964, -559040.56, -199819.78, 0.00000000016705606, 9.996675, 10.000009 
4.498956e+1, 2.7334243e+2, -649270.4, -445536.16, 40981.13, 0.07986335, -0.19181141, -437601.8, -176371.27, 0.00000025695456, 9.997241, 9.999939 
4.4988713e+1, 2.8334254e+2, -498734.25, -245759.14, 36905.13, 0.17729554, -0.20140037, -240485.2, -77258.055, 0.0000021581377, 9.997276, 10.000619 
4.4985828e+1, 2.933437e+2, -526793.75, -198910.88, 38142.59, 0.086376384, -0.16869321, -194532.22, -129319.88, 0.000016077325, 9.996364, 10.000711 
4.4983226e+1, 3.033424e+2, -604811.5, -287306.22, 62820.527, 0.017440338, -0.33661646, -275328.6, -275328.6, 0.00011232623, 9.995822, 10.000037 
4.498141e+1, 3.1334606e+2, -529044.56, -114366.64, 58687.875, -0.013852161, 0.036523484, -106220.77, -106220.77, 0.00037058155, 9.995733, 10.001269 
5.500992e+1, 1.2335397e+2, -1527394.5, -1706673.3, -16622.09, -0.1047413, -0.050685283, -1525866.5, 205247.31, 0.0011443315, 10.001611, 9.999281 
5.5008066e+1, 1.3335064e+2, -1529801.1, -1585411.4, -10724.1045, -0.0071863616, -0.38154796, -1527804.6, 105334.38, 0.00066645315, 10.000634, 9.999909 
5.5006295e+1, 1.4335093e+2, -1524256.8, -1640073.3, 34394.047, 0.042073112, -0.30145004, -1514812.9, 20320.3, 0.0002850611, 10.000457, 9.998938 
5.500531e+1, 1.5334964e+2, -1258010.8, -1495664.6, 50718.38, 0.06687235, -0.31223294, -1247639.4, 189510.86, 0.000071885835, 10.001761, 9.998628 
5.5004066e+1, 1.6334893e+2, -1138676.9, -1382736.5, 31262.736, 0.07455348, -0.24492954, -1134735.9, 204425.58, 0.0000055425044, 10.001893, 9.998666 
5.500242e+1, 1.733489e+2, -1338175.6, -1434747.0, -2601.7764, 0.05078549, -0.120626934, -1338105.6, -96940.41, 0.00000000116644, 9.999883, 9.998603 
5.5000246e+1, 1.8334821e+2, -1369040.6, -1345681.1, -46757.47, 0.0013499334, -0.069556326, -1309166.8, -165992.13, 0.0, 9.998766, 9.999082 
5.4997075e+1, 1.933464e+2, -1193854.5, -1209418.8, -30716.553, -0.097260624, -0.1747716, -1169949.6, -124756.766, 0.0, 9.999292, 9.999089 
5.4995364e+1, 2.0334569e+2, -1013566.06, -968486.06, 50075.465, -0.1139382, -0.19072594, -936111.56, 11088.247, 0.0, 9.999413, 10.000011 
5.4996413e+1, 2.1334699e+2, -1008411.75, -906499.1, 96944.4, 0.023416229, -0.08479347, -847934.9, 1251.7052, 0.0, 9.998736, 10.000091 
5.4996127e+1, 2.2334711e+2, -957532.06, -868492.44, 46104.652, 0.09859964, -0.0661354, -848921.3, -97736.375, 0.0, 9.998579, 9.999749 
5.499332e+1, 2.333451e+2, -752334.4, -738457.75, 28934.156, 0.057909705, -0.24261011, -715641.7, -62437.574, 0.0, 9.999396, 9.9995775 
5.4990613e+1, 2.433447e+2, -638094.94, -587024.4, 45014.04, 0.008217659, -0.25670016, -560807.25, -5599.1416, 0.0, 9.999317, 9.999982 
5.4988307e+1, 2.533471e+2, -794834.9, -614030.8, 53020.86, -0.051414743, -0.030232642, -599629.5, -142444.5, 0.0, 9.997573, 9.999966 
5.4986566e+1, 2.6334766e+2, -835397.1, -591568.06, 64844.008, -0.071313046, 0.035403136, -575396.06, -216216.0, 0.00000000012003064, 9.996659, 9.999889 
5.498588e+1, 2.7334526e+2, -664717.56, -469425.75, 65434.457, -0.020930996, -0.19680682, -449528.53, -188324.55, 0.00000017731924, 9.997204, 9.999793 
5.498462e+1, 2.8334486e+2, -493737.2, -229263.06, 7221.523, 0.031233452, -0.2535294, -229066.03, -65859.81, 0.0000014062957, 9.9972515, 10.000743 
5.498221e+1, 2.9334718e+2, -517871.94, -168771.58, 7834.454, 0.07774693, -0.12553938, -168595.84, -103417.97, 0.00001153016, 9.996315, 10.000939 
5.497967e+1, 3.033461e+2, -606333.56, -284494.8, 54113.445, 0.07103436, -0.2936276, -275639.9, -275639.9, 0.000091940805, 9.995795, 10.000071 
5.497674e+1, 3.133461e+2, -592644.9, -240522.17, 64876.27, -0.074596785, -0.27530295, -228949.5, -228949.5, 0.00032222702, 9.995705, 10.000417 
6.501195e+1, 1.23356655e+2, -1546802.1, -1749808.1, 53919.535, -0.057921678, -0.12993008, -1533369.6, 197712.6, 0.0010668379, 10.001634, 9.998969 
6.501028e+1, 1.333529e+2, -1307899.3, -1531686.3, 19332.742, 0.06685686, -0.4548997, -1306241.4, 326872.53, 0.000613461, 10.002387, 9.999432 
6.500828e+1, 1.433532e+2, -1267196.8, -1535942.3, 51302.28, 0.1058477, -0.34016, -1257736.4, 277373.1, 0.00025505704, 10.00231, 9.998759 
6.500637e+1, 1.5335277e+2, -1393065.3, -1572609.9, 46342.926, 0.04387008, -0.2523652, -1381809.1, 55309.21, 0.00005932674, 10.000888, 9.998519 
6.5004534e+1, 1.6335212e+2, -1389849.8, -1526358.0, 25165.477, 0.015651068, -0.1657587, -1385358.3, -46229.086, 0.0000034805446, 10.000262, 9.998466 
6.500284e+1, 1.7335065e+2, -1180385.3, -1385155.9, 38054.293, 0.047816083, -0.16677962, -1173541.9, 67605.16, 0.00000000000024211628, 10.001076, 9.998369 
6.5000594e+1, 1.833494e+2, -990135.7, -1140605.6, 43046.277, 0.03734898, -0.16390914, -978691.44, 164470.34, 0.0, 10.001274, 9.999279 
6.499734e+1, 1.9334877e+2, -1029849.8, -1097896.1, 39396.996, -0.04693081, -0.17719236, -1011818.2, 33350.387, 0.0, 10.000278, 9.999379 
6.49952e+1, 2.0334868e+2, -994884.25, -922123.5, 84518.555, -0.06785566, -0.16306378, -866488.0, 80681.11, 0.0, 9.999378, 10.000347 
6.499512e+1, 2.1334952e+2, -998114.56, -860689.9, 84528.95, 0.02858826, -0.13788722, -820468.6, 28689.766, 0.0, 9.998632, 10.000454 
6.499413e+1, 2.233497e+2, -1038025.2, -918104.8, 45907.766, 0.069149405, -0.12862322, -902548.44, -151392.0, 0.0, 9.998069, 9.9996605 
6.4991415e+1, 2.3334876e+2, -994098.75, -874222.1, 26779.87, 0.009734513, -0.18202423, -868511.7, -215341.34, 0.0, 9.997815, 9.999414 
6.498887e+1, 2.4334867e+2, -824108.3, -654096.75, 30416.615, -0.026100568, -0.16027494, -648818.8, -93645.836, 0.0, 9.997927, 10.000201 
6.498678e+1, 2.5335023e+2, -612400.7, -492868.5, 49619.098, -0.013077747, -0.048865397, -474955.5, -17800.441, 0.0, 9.9986725, 10.000276 
6.498463e+1, 2.6335058e+2, -580663.2, -460086.44, 75793.555, -0.014258451, -0.023830166, -423527.75, -64377.39, 0.00000000000043891748, 9.998373, 9.999964 
6.4982355e+1, 2.7334908e+2, -807062.5, -536651.3, 81280.195, -0.041886717, -0.17020455, -514100.7, -252933.22, 0.00000007111923, 9.996222, 9.999804 
6.498028e+1, 2.8334904e+2, -769539.56, -372819.47, 66968.945, -0.031883273, -0.19054295, -361819.66, -198651.77, 0.0000006300397, 9.9954, 10.000651 
6.4978576e+1, 2.9335093e+2, -418071.25, -129007.65, 47152.547, 0.05176008, -0.090152286, -121510.49, -56366.816, 0.000007787418, 9.997033, 10.000868 
6.497618e+1, 3.0335054e+2, -350341.6, -69099.11, 52229.03, 0.0781866, -0.22659291, -59713.0, -59713.0, 0.0000752456, 9.99716, 10.000885 
6.4972067e+1, 3.1335047e+2, -769148.5, -288305.3, 111600.33, -0.03907544, -0.30274183, -263666.22, -263666.22, 0.00028007472, 9.994336, 10.000745 
7.501594e+1, 1.2335869e+2, -1577991.0, -1827386.8, 69118.88, 0.15367103, -0.36592296, -1560116.1, 170937.89, 0.0009912563, 10.00169, 9.998407 
7.50127e+1, 1.3335618e+2, -1364164.9, -1657811.4, 48783.676, 0.057365976, -0.4805918, -1356272.5, 276806.8, 0.00056215044, 10.002426, 9.9985485 
7.500935e+1, 1.4335713e+2, -1290534.8, -1589674.0, 7207.0234, -0.030177798, -0.23288697, -1290361.3, 244710.92, 0.00022657555, 10.002336, 9.998378 
7.500679e+1, 1.5335675e+2, -1413229.6, -1617302.3, -4319.581, -0.015757427, -0.10889848, -1413138.3, 23942.617, 0.000048209964, 10.0009, 9.998207 
7.500453e+1, 1.6335577e+2, -1362449.3, -1468967.4, 41363.98, -0.021911884, -0.05356494, -1348273.1, -9179.328, 0.000001977347, 10.00026, 9.99886 
7.5002855e+1, 1.7335321e+2, -1141343.4, -1307625.4, 73364.125, -0.07046921, -0.21483795, -1113602.9, 127515.79, 0.0, 10.001091, 9.998894 
7.50012e+1, 1.8335171e+2, -979271.2, -1120337.5, 13142.594, -0.04017447, -0.27349752, -978057.2, 165077.08, 0.0, 10.001283, 9.9994135 
7.4999565e+1, 1.9335237e+2, -1028425.44, -1093139.0, 4013.8645, 0.1366738, -0.16600583, -1028177.44, 16953.414, 0.0, 10.00027, 9.999416 
7.4997145e+1, 2.0335262e+2, -1007703.75, -942661.25, 53040.715, 0.17907573, -0.11428924, -912965.56, 34163.74, 0.0, 9.999352, 10.0002165 
7.499327e+1, 2.1335205e+2, -1015075.2, -889107.75, 60338.977, -0.031036945, -0.21484971, -864869.1, -15737.239, 0.0, 9.998601, 10.000274 
7.4990106e+1, 2.2335207e+2, -1056697.6, -948886.94, 30470.242, -0.14941481, -0.20234069, -940871.2, -189738.25, 0.0, 9.998035, 9.999463 
7.4988294e+1, 2.3335333e+2, -1016454.44, -909834.5, 22126.406, -0.09138995, -0.016086547, -905425.06, -252294.55, 0.0, 9.997768, 9.999191 
7.4986786e+1, 2.4335377e+2, -796228.8, -587244.2, 50861.926, -0.035095442, 0.049662944, -575523.0, -20393.305, 0.0, 9.997891, 10.000674 
7.498583e+1, 2.5335267e+2, -575714.6, -409837.44, 81174.04, 0.016168902, -0.16178596, -376724.2, 80408.29, 0.0, 9.998641, 10.00086 
7.4983513e+1, 2.6335242e+2, -567116.1, -426976.34, 8795.887, 0.027441597, -0.2449961, -426426.4, -67295.22, 0.0, 9.998351, 10.000201 
7.49788e+1, 2.733539e+2, -802514.0, -516216.13, 3568.5972, -0.030418549, -0.11138704, -516171.66, -255051.06, 0.000000009748358, 9.996175, 9.999965 
7.49755e+1, 2.83355e+2, -792696.06, -416259.06, 104002.69, -0.058263082, -0.011648609, -389436.28, -226324.64, 0.00000018216522, 9.99538, 10.000362 
7.497482e+1, 2.93355e+2, -448695.16, -185914.5, 114893.73, -0.037862483, -0.06789681, -142765.48, -77656.08, 0.000005368871, 9.997001, 10.000494 
7.4972653e+1, 3.033557e+2, -245431.84, 150301.14, -27544.434, 0.00047097498, -0.13634923, 152209.14, 152209.14, 0.00006268461, 9.997151, 10.002395 
7.496716e+1, 3.133591e+2, -676728.25, -79795.05, 11006.024, 0.017376147, -0.051019035, -79592.19, -79592.19, 0.00024571895, 9.99426, 10.002212 
8.501794e+1, 1.2336123e+2, -1482773.0, -1803073.0, -67683.58, 0.151283, -0.33931923, -1469057.8, 261974.75, 0.00092211243, 10.002423, 9.998224 
8.501521e+1, 1.3335927e+2, -1325922.8, -1681797.3, -57075.87, 0.045569308, -0.36524287, -1316992.9, 316061.4, 0.0005160493, 10.002878, 9.998161 
8.5011697e+1, 1.4335999e+2, -1212942.8, -1540199.8, -111526.85, -0.05048982, -0.121266626, -1178549.6, 356499.56, 0.00020217389, 10.002812, 9.99849 
8.500803e+1, 1.5335847e+2, -1250031.5, -1512523.9, -98383.664, -0.028822774, -0.13166262, -1217250.5, 219815.53, 0.00003951026, 10.001907, 9.998442 
8.500507e+1, 1.6335714e+2, -1212067.0, -1333785.9, 20426.438, -0.029963624, -0.14982828, -1208730.5, 130349.14, 0.0000010481427, 10.001024, 9.999419 
8.500352e+1, 1.7335564e+2, -1231464.4, -1279367.6, 62205.91, -0.065097995, -0.26728535, -1188758.3, 52333.65, 0.0, 10.000162, 9.999536 
8.5001785e+1, 1.8335494e+2, -1213215.1, -1214288.3, -5101.301, -0.02344762, -0.29054698, -1208622.3, -65523.105, 0.0, 9.999597, 9.999585 
8.499969e+1, 1.9335593e+2, -1127268.4, -1130209.3, -19993.934, 0.16218273, -0.15804742, -1108690.9, -63595.96, 0.0, 9.999549, 9.999511 
8.4996814e+1, 2.0335634e+2, -981470.44, -914235.0, 47299.086, 0.20763315, -0.100789405, -889823.8, 57269.32, 0.0, 9.999463, 10.000364 
8.4992445e+1, 2.1335566e+2, -908458.2, -819860.1, 71319.5, -0.0033063774, -0.22527047, -780201.56, 68894.41, 0.0, 9.999255, 10.00044 
8.4988844e+1, 2.2335586e+2, -921306.06, -858835.1, 74047.52, -0.11779581, -0.21633282, -809704.6, -58609.51, 0.0, 9.998858, 9.999684 
8.4986717e+1, 2.3335774e+2, -944396.1, -848379.06, 91309.52, -0.0428723, 0.009389232, -793226.3, -140139.81, 0.0, 9.998149, 9.999428 
8.498484e+1, 2.4335837e+2, -852371.25, -597555.9, 154117.0, 0.0061973506, 0.07475396, -525001.6, 30082.238, 0.0, 9.997437, 10.000822 
8.4983426e+1, 2.533567e+2, -832920.75, -516231.44, 148268.69, 0.005904468, -0.20629452, -457650.7, -558.66473, 0.0, 9.996807, 10.001011 
8.4980863e+1, 2.6335645e+2, -757463.1, -511472.75, 45704.617, -0.0029895375, -0.29992995, -503255.4, -144164.78, 0.0, 9.997008, 10.000273 
8.497633e+1, 2.7335888e+2, -433935.72, -333137.22, 20659.016, -0.017237518, -0.075408734, -329067.4, -67996.49, 0.0, 9.998673, 10.000024 
8.497274e+1, 2.8335997e+2, -314804.94, -198199.81, 116421.62, -0.03576659, 0.02565089, -126297.984, 36764.367, 0.000000023853914, 9.998706, 10.00026 
8.4970945e+1, 2.9335856e+2, -630248.25, -285135.03, 139536.63, -0.062578164, -0.15993628, -235776.69, -170702.1, 0.0000039776505, 9.995806, 10.000388 
8.496817e+1, 3.0336e+2, -622457.75, 6709.539, -28360.018, -0.023409836, -0.1648362, 7985.294, 7985.294, 0.000053629374, 9.994402, 10.002734 
8.496265e+1, 3.1336537e+2, -463927.53, 59993.45, -114063.37, 0.08044693, 0.075825654, 83749.164, 83749.164, 0.00021910039, 9.995561, 10.002542 
9.501773e+1, 1.2336427e+2, -1463720.8, -1764892.1, -68748.555, -0.13373984, -0.049629457, -1448769.8, 282248.03, 0.00086183957, 10.002434, 9.99848 
9.5017624e+1, 1.3336207e+2, -1316136.8, -1667431.4, -39908.137, -0.011812355, -0.109493695, -1311660.1, 321379.13, 0.0004777314, 10.002901, 9.998249 
9.501516e+1, 1.433617e+2, -1163982.8, -1439952.6, -139505.55, 0.0039647655, -0.0088057965, -1105749.4, 429291.88, 0.00018322817, 10.002819, 9.999173 
9.500996e+1, 1.5335798e+2, -1193485.8, -1398745.4, -128149.59, -0.04027492, -0.3196145, -1131935.1, 305138.38, 0.00003359176, 10.0019245, 9.999211 
9.500602e+1, 1.6335629e+2, -1160297.8, -1227745.6, -14231.553, -0.047068834, -0.44700179, -1157417.9, 181668.31, 0.00000057940093, 10.00103, 10.000145 
9.500466e+1, 1.7335792e+2, -1180437.0, -1175173.6, 32545.643, 0.022729961, -0.32247907, -1145153.4, 95913.41, 0.0, 10.000167, 10.000251 
9.50022e+1, 1.8335909e+2, -1200069.8, -1184555.9, -13384.607, 0.05063611, -0.21101184, -1176842.9, -33786.63, 0.0, 9.999586, 9.999793 
9.499759e+1, 1.9335943e+2, -1122030.9, -1115443.6, -16723.68, -0.014298106, -0.15384376, -1101692.4, -56631.35, 0.0, 9.999535, 9.999618 
9.4994074e+1, 2.0335984e+2, -954806.3, -854983.25, 37429.895, -0.021743182, -0.11996259, -842507.6, 104553.016, 0.0, 9.999447, 10.000777 
9.4992524e+1, 2.1336037e+2, -879930.3, -754007.0, 67595.4, 0.07044899, -0.17240216, -724592.75, 124458.09, 0.0, 9.999225, 10.000907 
9.499024e+1, 2.23361e+2, -882038.1, -769676.2, 47825.81, 0.12655579, -0.1723631, -752076.3, -1033.1732, 0.0, 9.998826, 10.000312 
9.4986534e+1, 2.3336193e+2, -904566.44, -755757.06, 66790.51, 0.11586778, -0.107968464, -730176.56, -77137.72, 0.0, 9.998105, 10.000086 
9.4982886e+1, 2.4336247e+2, -868879.75, -622262.94, 126214.67, 0.05937912, -0.0834222, -569119.94, -14084.5205, 0.0, 9.997398, 10.000669 
9.4979423e+1, 2.5336233e+2, -861103.4, -565909.56, 128453.71, -0.08185631, -0.18284573, -517840.44, -60807.094, 0.0, 9.996769, 10.000688 
9.497657e+1, 2.633627e+2, -770740.1, -534090.3, 93864.21, -0.13979416, -0.19028068, -501381.22, -142352.45, 0.0, 9.996986, 10.00013 
9.4974816e+1, 2.7336398e+2, -446400.44, -351276.13, 88475.99, -0.04452494, -0.069862604, -298388.5, -37369.246, 0.0, 9.998639, 9.999917 
9.4971865e+1, 2.83364e+2, -309490.9, -182922.28, 29567.248, -0.0035843337, -0.07980254, -176355.84, -13335.625, 0.000000004406078, 9.99869, 10.00037 
9.496681e+1, 2.9336166e+2, -628365.94, -269380.13, 32598.879, -0.06446389, -0.36724472, -266443.9, -201404.84, 0.0000031202694, 9.995754, 10.000521 
9.4962573e+1, 3.033634e+2, -685400.3, -118024.04, -5891.9966, -0.030135015, -0.31300977, -117962.86, -117962.86, 0.00004667503, 9.994374, 10.001891 
9.495822e+1, 3.1336924e+2, -532644.06, -68687.445, -59731.51, 0.059654806, 0.07472146, -61120.797, -61120.797, 0.0001974869, 9.995499, 10.001688 
1.0502086e+2, 1.2336791e+2, -1367172.6, -1663756.9, 48059.59, -0.07986429, 0.11023088, -1359579.4, 371410.16, 0.0008120373, 10.002849, 9.998976 
1.0501979e+2, 1.3336469e+2, -1631787.0, -1781166.9, 82811.484, 0.03577497, -0.09003151, -1594958.6, 38058.883, 0.0004481052, 10.000556, 9.998604 
1.05016775e+2, 1.4336388e+2, -1624061.4, -1628202.3, 24805.697, 0.051764928, -0.06648844, -1601239.9, -66217.69, 0.00016990113, 9.999515, 9.999475 
1.05011865e+2, 1.5336111e+2, -1332978.9, -1437244.3, -681.3549, 0.016066369, -0.30889508, -1332974.4, 104071.47, 0.00003029556, 10.00084, 9.999475 
1.0500773e+2, 1.6336012e+2, -1083111.6, -1141672.3, 51574.67, 0.0066537336, -0.39932787, -1053085.3, 285966.25, 0.0000004316036, 10.001358, 10.000574 
1.0500529e+2, 1.7336197e+2, -1124913.1, -1096806.3, 64620.906, 0.0623213, -0.29968676, -1044728.3, 196299.98, 0.0, 10.0003395, 10.000699 
1.050019e+2, 1.8336318e+2, -1184162.3, -1164076.9, 38324.07, 0.061523624, -0.21225911, -1134501.5, 8514.153, 0.0, 9.999636, 9.999907 
1.0499672e+2, 1.933634e+2, -1124584.6, -1112560.6, 29709.193, -0.05012527, -0.1766736, -1088261.3, -43240.008, 0.0, 9.99949, 9.999659 
1.04992874e+2, 2.0336384e+2, -1004165.2, -884474.25, 60292.87, -0.06834008, -0.14077695, -859368.5, 87652.27, 0.0, 9.999137, 10.000722 
1.04991555e+2, 2.1336468e+2, -1008221.44, -822512.0, 41418.625, 0.0958402, -0.15483718, -813693.2, 35315.926, 0.0, 9.998378, 10.000841 
1.0498933e+2, 2.2336532e+2, -987155.0, -784831.1, 1855.8575, 0.19844072, -0.16280176, -784814.06, -33813.17, 0.0, 9.997952, 10.000631 
1.049854e+2, 2.3336573e+2, -863819.6, -690070.75, -2033.452, 0.19035491, -0.18829069, -690046.94, -37048.63, 0.0, 9.998191, 10.000494 
1.049813e+2, 2.4336626e+2, -750405.1, -584203.25, 45998.387, 0.11798674, -0.18264729, -572322.0, -17327.818, 0.0, 9.99829, 10.0005 
1.04977034e+2, 2.53367e+2, -686858.0, -512803.34, 42778.074, -0.062231608, -0.1672861, -502857.9, -45870.902, 0.0, 9.998097, 10.00041 
1.0497381e+2, 2.6336774e+2, -674941.0, -470748.84, 48309.457, -0.14291902, -0.12698127, -459896.22, -100915.65, 0.0, 9.997573, 10.0002775 
1.0497245e+2, 2.7336848e+2, -740708.06, -466566.44, 67635.69, -0.035915073, -0.08859511, -450787.7, -189812.34, 0.0, 9.996504, 10.000152 
1.049694e+2, 2.833683e+2, -664951.06, -340845.78, -11164.092, 0.008011213, -0.13112536, -340461.7, -177484.84, 0.0000000012345152, 9.996191, 10.000494 
1.049634e+2, 2.933668e+2, -405517.16, -149032.28, -27334.957, -0.051708333, -0.34872055, -146151.4, -81163.38, 0.0000025058646, 9.997228, 10.000639 
1.0495872e+2, 3.0336842e+2, -270719.9, -18821.908, -23615.158, -0.013160234, -0.27381086, -16627.135, -16627.135, 0.000040625986, 9.997646, 10.001003 
1.049543e+2, 3.1337145e+2, -381906.28, -76899.4, -82153.79, 0.053196248, -0.059704196, -56178.867, -56178.867, 0.00017793833, 9.996874, 10.000978 
1.1502692e+2, 1.2337202e+2, -1314844.9, -1564872.1, -42204.29, 0.21560718, 0.12488659, -1307913.1, 423035.94, 0.0007723001, 10.002888, 9.999638 
1.1502153e+2, 1.3336706e+2, -1586191.3, -1689896.1, -3771.696, 0.1425679, -0.30800438, -1586054.3, 46935.414, 0.0004262412, 10.000572, 9.99922 
1.1501648e+2, 1.4336653e+2, -1631898.8, -1644984.4, 50980.207, 0.06049939, -0.2879714, -1587043.3, -52051.43, 0.0001616302, 9.999516, 9.99936 
1.1501356e+2, 1.5336786e+2, -1345414.1, -1467188.4, 56372.188, 0.0907009, -0.09919474, -1323325.0, 113658.02, 0.0000291778, 10.000861, 9.999257 
1.15010016e+2, 1.633686e+2, -1072188.5, -1125139.5, 24198.65, 0.088796936, -0.008941108, -1062795.9, 276180.03, 0.0000005105562, 10.001377, 10.000682 
1.1500527e+2, 1.733677e+2, -1109183.3, -1067819.4, 28067.418, 0.015775584, -0.20307943, -1053637.0, 187339.98, 0.0, 10.000354, 10.000892 
1.1500082e+2, 1.8336722e+2, -1184418.3, -1160070.6, 25596.113, -0.019070378, -0.29653072, -1143900.8, -922.9855, 0.0, 9.999617, 9.999946 
1.1499692e+2, 1.933678e+2, -1125418.8, -1109802.6, 27000.854, 0.0104687195, -0.22430629, -1089503.5, -44527.664, 0.0, 9.999472, 9.999686 
1.14993095e+2, 2.033683e+2, -1044366.94, -962755.2, 31852.441, 0.032807887, -0.16073231, -951795.3, -4821.8003, 0.0, 9.999114, 10.000196 
1.1498938e+2, 2.1336856e+2, -1056340.9, -914459.25, 14766.065, 0.032296497, -0.17218588, -912938.8, -63967.82, 0.0, 9.998343, 10.000227 
1.1498599e+2, 2.2336881e+2, -990148.6, -783983.25, 2317.8696, 0.06188216, -0.18589245, -783957.2, -32988.69, 0.0, 9.997921, 10.000652 
1.14983186e+2, 2.3336913e+2, -858143.06, -670956.75, 11142.413, 0.14174892, -0.2352113, -670295.8, -17330.404, 0.0, 9.998157, 10.000644 
1.1498001e+2, 2.4336967e+2, -770321.0, -614462.2, 37937.918, 0.15182182, -0.22683883, -605718.2, -50757.38, 0.0, 9.998245, 10.000314 
1.1497614e+2, 2.533707e+2, -709681.2, -550296.9, 36565.934, 0.029823886, -0.16073692, -542308.3, -85354.99, 0.0, 9.998055, 10.000174 
1.1497245e+2, 2.633716e+2, -645989.94, -404332.84, 10200.145, -0.043126132, -0.110006094, -403903.06, -44956.965, 0.0, 9.997546, 10.000748 
1.1496911e+2, 2.733723e+2, -705025.25, -384360.25, 30843.527, -0.028960798, -0.1323556, -381420.47, -120481.02, 0.0, 9.996468, 10.000737 
1.1496523e+2, 2.83373e+2, -661822.25, -326257.97, 12653.001, -0.033634305, -0.12679103, -325781.56, -162849.27, 0.00000000007947066, 9.996159, 10.000609 
1.1496059e+2, 2.93374e+2, -409242.53, -147395.13, 15658.2705, -0.06361066, -0.09595122, -146462.1, -81540.92, 0.000001910546, 9.997189, 10.0006695 
1.1495647e+2, 3.0337504e+2, -338121.06, -149693.13, -42033.05, -0.009076356, -0.041431036, -140741.94, -140741.94, 0.000034739915, 9.997616, 10.0001135 
1.14950605e+2, 3.1337193e+2, -431777.94, -160956.19, -102883.984, -0.021729821, -0.34105605, -126304.664, -126304.664, 0.00015856141, 9.996798, 10.000433 
1.2502983e+2, 1.2337567e+2, -1533722.6, -1654119.4, 19289.924, 0.29891506, -0.010158731, -1530707.5, 200201.8, 0.0007402133, 10.001332, 9.99977 
1.2502359e+2, 1.3337205e+2, -1313440.3, -1560217.9, 498.7566, 0.20024358, -0.30747524, -1313439.3, 319500.53, 0.00041027935, 10.002461, 9.999201 
1.2501779e+2, 1.4337215e+2, -1219614.8, -1438935.4, 45479.566, 0.103510626, -0.22644648, -1210557.9, 324379.9, 0.00015727745, 10.002322, 9.999417 
1.2501436e+2, 1.5337363e+2, -1473064.5, -1524044.9, 62254.395, 0.13163774, -0.0266707, -1431283.9, 5644.08, 0.000029667526, 9.999967, 9.999295 
1.2501031e+2, 1.6337436e+2, -1471950.6, -1347022.4, 50151.992, 0.11286119, 0.07227301, -1329380.4, 9541.596, 0.0000007617598, 9.998762, 10.000419 
1.2500507e+2, 1.7337324e+2, -1230947.9, -1166672.3, 13064.298, -0.0030812689, -0.10996394, -1164118.4, 76809.14, 0.0, 9.999682, 10.000542 
1.2500049e+2, 1.833724e+2, -1111373.6, -1120161.3, -17918.941, -0.0353734, -0.22296168, -1097317.8, 45614.65, 0.0, 10.000102, 9.999985 
1.2499712e+2, 1.9337235e+2, -1122420.9, -1096540.6, -18243.896, 0.08697244, -0.21978834, -1087113.6, -42180.848, 0.0, 9.999449, 9.999788 
1.2499314e+2, 2.0337254e+2, -1064786.8, -966084.8, 10872.995, 0.13660166, -0.19783571, -964901.25, -17969.785, 0.0, 9.998945, 10.000254 
1.2498806e+2, 2.1337305e+2, -1004136.7, -884689.25, 35849.414, 0.05137773, -0.18988758, -874755.94, -25829.105, 0.0, 9.998682, 10.000267 
1.2498377e+2, 2.233734e+2, -914837.0, -778309.56, 71542.51, 0.018816136, -0.18319125, -747688.2, 3235.9253, 0.0, 9.998564, 10.000382 
1.2498101e+2, 2.3337357e+2, -806096.7, -683011.9, 42595.223, 0.08621263, -0.21464892, -669709.0, -16784.803, 0.0, 9.998673, 10.000312 
1.2497792e+2, 2.4337411e+2, -737511.4, -576121.7, 41918.094, 0.11379773, -0.19632673, -565883.7, -10963.467, 0.0, 9.998373, 10.000516 
1.2497423e+2, 2.533754e+2, -792500.2, -558652.4, 72090.984, 0.0715053, -0.12910539, -538214.3, -81305.58, 0.0, 9.997347, 10.000462 
1.2497035e+2, 2.6337644e+2, -726695.94, -423430.25, 77867.586, 0.025788952, -0.09122187, -404605.25, -45705.984, 0.0, 9.996907, 10.000924 
1.2496612e+2, 2.7337688e+2, -534423.9, -283890.38, 60840.055, -0.026874825, -0.15250257, -269897.4, -9003.567, 0.0, 9.997568, 10.000892 
1.2496171e+2, 2.833776e+2, -429785.1, -242738.78, 34757.496, -0.08456847, -0.14459132, -236488.88, -73601.74, 0.00000000021645001, 9.99787, 10.000358 
1.2495723e+2, 2.9337907e+2, -399564.03, -176733.17, 9562.445, -0.12503052, -0.039138, -176323.56, -111448.71, 0.0000014014497, 9.997399, 10.000367 
1.2495363e+2, 3.0338007e+2, -405622.63, -182097.16, -46698.01, -0.027636986, 0.030707298, -172733.45, -172733.45, 0.000028974657, 9.997141, 10.000128 
1.2494832e+2, 3.1337723e+2, -315659.34, -53672.21, -34591.83, 0.046782766, -0.2523257, -49181.797, -49181.797, 0.0001384936, 9.99737, 10.000898 
1.3502933e+2, 1.2337898e+2, -1565583.6, -1719375.5, 46159.473, 0.09439453, -0.2826091, -1552793.0, 178076.63, 0.0007144517, 10.001334, 9.999318 
1.3502581e+2, 1.333797e+2, -1350489.5, -1643233.0, 46775.44, 0.16615793, -0.08666851, -1343197.3, 289669.88, 0.00039893613, 10.002495, 9.998609 
1.3502058e+2, 1.4338072e+2, -1206085.5, -1416942.5, -27126.629, 0.13908301, 0.11468395, -1202651.5, 332208.38, 0.00015564491, 10.002343, 9.999559 
1.3501413e+2, 1.5337841e+2, -1451104.3, -1480076.6, -25359.105, 0.10111443, -0.09228506, -1436385.4, 495.2567, 0.000031126172, 9.999973, 9.999594 
1.3500848e+2, 1.6337746e+2, -1521406.5, -1447674.8, 63220.08, 0.045172952, -0.15154816, -1411356.9, -72467.22, 0.0000011270397, 9.998754, 9.999734 
1.350045e+2, 1.733786e+2, -1288239.0, -1288967.1, 54184.063, -0.039736997, -0.021376263, -1234417.8, 6462.376, 0.0, 9.9997015, 9.999691 
1.3500072e+2, 1.8337871e+2, -1109794.5, -1119579.0, -36289.355, -0.032662597, 0.010780259, -1078069.0, 64810.12, 0.0, 10.000107, 9.9999895 
1.3499714e+2, 1.9337705e+2, -1108651.0, -1068668.8, -40241.52, 0.13339712, -0.16742156, -1043726.3, 1166.0688, 0.0, 9.999449, 9.999981 
1.349929e+2, 2.0337652e+2, -1024142.75, -877647.9, -4000.3364, 0.20958768, -0.25399756, -877538.75, 69356.17, 0.0, 9.998926, 10.000872 
1.3498746e+2, 2.1337807e+2, -959590.56, -783706.25, 30209.71, 0.113628566, -0.2100623, -778662.1, 70215.01, 0.0, 9.998645, 10.0009775 
1.3498257e+2, 2.2337908e+2, -959340.5, -865460.56, 70171.17, 0.03358822, -0.15472215, -827976.9, -77108.98, 0.0, 9.998539, 9.999797 
1.349787e+2, 2.33379e+2, -866031.56, -803139.56, 49189.65, -0.02128546, -0.13018541, -776203.44, -123328.484, 0.0, 9.9986515, 9.999497 
1.3497488e+2, 2.4337953e+2, -701947.2, -491963.56, 7144.8257, -0.034879472, -0.09326152, -491720.72, 63152.12, 0.0, 9.998331, 10.001113 
1.3497122e+2, 2.5338122e+2, -737435.9, -434280.88, 36217.848, 0.029295133, -0.07388202, -430014.0, 26839.129, 0.0, 9.997306, 10.001333 
1.349674e+2, 2.633823e+2, -741922.25, -447960.8, 91288.76, 0.034058984, -0.07112499, -421918.5, -63078.754, 0.0, 9.996878, 10.00077 
1.349633e+2, 2.733823e+2, -563414.3, -334734.13, 90931.836, -0.07552056, -0.14596355, -302984.3, -42145.723, 0.0, 9.997527, 10.000564 
1.3495865e+2, 2.8338215e+2, -473570.88, -325895.53, 21210.984, -0.18545161, -0.18359384, -322909.3, -160067.61, 0.000000004047862, 9.997842, 9.999799 
1.3495329e+2, 2.9338187e+2, -448602.97, -270137.25, -5774.145, -0.26729295, -0.18888648, -269950.63, -205100.3, 0.0000011638989, 9.997364, 9.999743 
1.3495012e+2, 3.033834e+2, -343450.22, -42806.707, -44054.246, -0.09809179, -0.06576735, -36484.258, -36484.258, 0.00002372901, 9.997104, 10.0011015 
1.349472e+2, 3.133875e+2, -219997.66, 162504.63, -12151.878, 0.1799722, 0.21878932, 162890.28, 162890.28, 0.000118264084, 9.997303, 10.002416 
1.450305e+2, 1.2338332e+2, -1552417.1, -1685990.0, -69128.97, 0.085538045, -0.2946825, -1523082.6, 207747.08, 0.00069468515, 10.001297, 9.999572 
1.4502719e+2, 1.3338517e+2, -1685973.3, -1783640.3, -16831.857, 0.17667323, -0.009273467, -1683153.9, -50336.23, 0.0003911828, 10.000083, 9.998815 
1.4502168e+2, 1.4338632e+2, -1564077.0, -1555491.3, -58059.5, 0.14710325, 0.18155152, -1501566.1, 33242.355, 0.00015550133, 9.99974, 9.999864 
1.4501418e+2, 1.5338327e+2, -1278675.6, -1364934.8, -64041.16, 0.05844732, -0.13143584, -1244594.9, 192237.88, 0.00003278088, 10.001019, 9.999883 
1.4500815e+2, 1.6338179e+2, -1165368.8, -1322218.8, 51641.184, 0.0076815323, -0.24147984, -1149893.4, 188952.03, 0.0000015078091, 10.001395, 9.999319 
1.4500503e+2, 1.7338292e+2, -1284402.5, -1352327.3, 58959.57, 0.030239914, -0.05851486, -1250323.1, -9483.257, 0.0, 10.000003, 9.999112 
1.4500125e+2, 1.8338338e+2, -1218864.8, -1127492.1, -671.4389, 0.059785157, 0.025423316, -1127487.3, 15350.245, 0.0, 9.999169, 10.000383 
1.4499609e+2, 1.9338267e+2, -1077954.1, -992302.3, 17568.973, 0.08920767, -0.11399638, -988838.6, 56001.24, 0.0, 9.999389, 10.000535 
1.4499103e+2, 2.0338254e+2, -962035.4, -853709.75, 49010.33, 0.10918971, -0.1896417, -834827.2, 112009.95, 0.0, 9.999381, 10.000814 
1.4498618e+2, 2.1338354e+2, -938038.44, -795947.6, 8478.321, 0.111308746, -0.18227051, -795443.56, 53381.06, 0.0, 9.998889, 10.000776 
1.4498144e+2, 2.2338429e+2, -970259.25, -870594.4, 43851.52, 0.07159261, -0.14106965, -854047.4, -103229.445, 0.0, 9.998469, 9.999794 
1.4497691e+2, 2.3338455e+2, -928552.8, -830979.25, 79570.99, -0.040695574, -0.08474467, -786429.56, -133607.4, 0.0, 9.998216, 9.999517 
1.4497253e+2, 2.4338515e+2, -739627.25, -506096.03, 47840.734, -0.08617013, -0.043757986, -496675.47, 58143.54, 0.0, 9.998051, 10.001153 
1.4496848e+2, 2.5338644e+2, -631137.7, -376560.56, 6396.157, -0.008005984, -0.06746982, -376399.94, 80401.336, 0.0, 9.998012, 10.001388 
1.4496474e+2, 2.6338717e+2, -627380.6, -423526.6, 45538.684, 0.03696428, -0.09077392, -413816.3, -55025.766, 0.0, 9.997795, 10.000497 
1.4496152e+2, 2.7338699e+2, -633275.44, -404090.88, 43625.668, 0.013300014, -0.15181419, -396067.53, -135275.16, 0.0, 9.997204, 10.000243 
1.4495704e+2, 2.833869e+2, -611365.0, -369084.8, -4343.167, -0.07556879, -0.17743032, -369007.0, -206211.77, 0.000000009906891, 9.996789, 10.000014 
1.4495051e+2, 2.9338694e+2, -523007.84, -267567.78, 30655.645, -0.24538434, -0.18064922, -263940.28, -199141.77, 0.0000010384059, 9.996689, 10.000085 
1.4494702e+2, 3.0338785e+2, -332119.1, -43211.71, 46389.184, -0.11897734, -0.14014749, -35945.84, -35945.84, 0.000019000812, 9.997205, 10.001047 
1.4494495e+2, 3.1339163e+2, -21047.318, 240854.05, -26014.23, 0.1581517, 0.12493419, 243412.98, 243412.98, 0.0000984148, 9.998736, 10.002266 
1.5503305e+2, 1.233886e+2, -1477099.3, -1539825.8, -124782.88, 0.18852007, -0.055903442, -1379798.5, 350991.97, 0.00067905197, 10.001339, 10.000555 
1.5502751e+2, 1.3338847e+2, -1609899.5, -1629622.0, -60399.957, 0.19147384, -0.07254802, -1558561.1, 74229.95, 0.00038494365, 10.000096, 9.9998665 
1.5502092e+2, 1.4338903e+2, -1531628.3, -1490339.6, -26867.607, 0.085929394, -0.021594856, -1477101.0, 57681.973, 0.0001550827, 9.999749, 10.000307 
1.5501438e+2, 1.5338817e+2, -1253211.9, -1316121.4, -10472.37, -0.033813223, -0.14638472, -1251514.4, 185269.77, 0.000033834087, 10.001038, 10.000208 
1.550092e+2, 1.6338734e+2, -1177816.5, -1346736.5, 12060.55, -0.03642348, -0.20233746, -1176959.8, 161829.64, 0.0000017896223, 10.00139, 9.999153 
1.5500656e+2, 1.7338623e+2, -1301828.8, -1387756.5, 9025.114, 0.17105001, -0.21869501, -1300891.1, -60084.7, 0.0, 10.000001, 9.99887 
1.5500197e+2, 1.8338645e+2, -1167338.8, -1020567.3, -4194.124, 0.20525067, -0.17690998, -1020447.56, 122359.2, 0.0, 9.999168, 10.00112 
1.5499383e+2, 1.933892e+2, -1016009.1, -858451.2, 30533.26, -0.0846614, -0.059213243, -852741.06, 192033.97, 0.0, 9.99937, 10.001463 
1.5498738e+2, 2.0339061e+2, -1019706.06, -969068.6, 32255.996, -0.20269798, -0.0019790377, -953381.44, -6623.199, 0.0, 9.999359, 10.000034 
1.5498401e+2, 2.1338946e+2, -1018577.0, -955233.1, -7646.3115, -0.003866914, -0.10563761, -954323.2, -105553.76, 0.0, 9.998857, 9.999697 
1.5498023e+2, 2.2338906e+2, -937359.8, -794752.8, 29312.836, 0.09604815, -0.1400219, -788962.6, -38188.406, 0.0, 9.998436, 10.000333 
1.5497561e+2, 2.3339015e+2, -872332.44, -709485.3, 74013.34, -0.0019553155, -0.082235344, -680873.56, -28107.361, 0.0, 9.99819, 10.000366 
1.5497078e+2, 2.4339092e+2, -781212.7, -585623.1, 42057.75, -0.0744975, -0.049984053, -576962.9, -22203.896, 0.0, 9.99802, 10.000622 
1.5496585e+2, 2.5339106e+2, -691796.44, -495781.2, 8296.636, -0.08009712, -0.11180977, -495430.66, -38676.82, 0.0, 9.99798, 10.000586 
1.549622e+2, 2.6339105e+2, -657084.5, -479474.72, 23044.143, -0.0029360582, -0.1494102, -476533.53, -117781.26, 0.0, 9.997774, 10.00012 
1.5496072e+2, 2.733909e+2, -661471.25, -454062.1, 23329.398, 0.2052332, -0.17618361, -451470.38, -190714.02, 0.0, 9.997166, 9.999919 
1.5495679e+2, 2.8339168e+2, -542151.6, -218611.13, -14291.254, 0.21381545, -0.12975484, -217981.1, -55232.54, 0.000000005626964, 9.996759, 10.0010605 
1.5494874e+2, 2.933943e+2, -435085.6, -76810.41, 32844.934, -0.09929221, -0.012072338, -73824.23, -9105.194, 0.00000082513446, 9.996648, 10.001416 
1.549442e+2, 3.033934e+2, -415888.38, -206216.33, 94315.23, -0.12875253, -0.18693346, -170034.78, -170034.78, 0.000014599608, 9.997167, 9.99994 
1.5494134e+2, 3.1338948e+2, -155540.39, -28039.857, 47585.49, -0.093276605, -0.53364956, -12238.41, -12238.41, 0.00007959566, 9.998697, 10.000433 
1.6503473e+2, 1.23395726e+2, -1446146.6, -1551348.1, 109375.15, 0.20828992, 0.036962837, -1377381.3, 353340.7, 0.0006627113, 10.001668, 10.000315 
1.6502844e+2, 1.333943e+2, -1341646.0, -1531685.1, 65775.36, 0.17734559, -0.0771771, -1321101.3, 311633.13, 0.00037672563, 10.002087, 9.999574 
1.6502157e+2, 1.4339411e+2, -1213724.3, -1350829.4, 48729.7, 0.0666963, -0.08012289, -1198169.5, 336564.03, 0.00015263935, 10.002, 10.000177 
1.6501579e+2, 1.5339397e+2, -1257525.1, -1330717.9, 30884.092, 0.006152862, -0.12127739, -1246235.0, 190493.61, 0.000033788867, 10.001059, 10.000096 
1.6501068e+2, 1.6339359e+2, -1314653.6, -1383965.1, 20472.31, 0.028534032, -0.1379937, -1309058.5, 29671.225, 0.0000018950186, 10.000319, 9.999416 
1.6500686e+2, 1.7339243e+2, -1288615.3, -1343519.9, 48116.977, 0.2074656, -0.19384706, -1260670.1, -19924.629, 0.0, 9.999927, 9.99921 
1.6500145e+2, 1.8339245e+2, -1120317.4, -1024599.94, 63560.63, 0.21585312, -0.17814574, -992894.8, 149851.97, 0.0, 9.999612, 10.000876 
1.6499314e+2, 1.9339488e+2, -1039819.3, -909046.44, 1236.6699, -0.09025212, -0.059506297, -909034.75, 135684.39, 0.0, 9.999376, 10.001111 
1.6498637e+2, 2.0339592e+2, -1060278.4, -1024061.8, -39326.273, -0.23068158, -0.0053948383, -998875.0, -52168.277, 0.0, 9.999233, 9.99972 
1.649825e+2, 2.1339437e+2, -980377.0, -972145.8, -28234.385, -0.057678692, -0.116321824, -947728.6, -99006.27, 0.0, 9.9992695, 9.999386 
1.6497841e+2, 2.2339371e+2, -876583.25, -773858.9, 15256.943, 0.04893193, -0.1559491, -771640.75, -20911.252, 0.0, 9.998897, 10.000249 
1.6497369e+2, 2.3339485e+2, -941097.0, -745185.5, -16400.434, 0.013920316, -0.08795449, -743822.06, -91103.125, 0.0, 9.997742, 10.000331 
1.6496888e+2, 2.4339533e+2, -924506.3, -707235.25, -45517.418, -0.027393166, -0.06480275, -698084.9, -143370.66, 0.0, 9.997264, 10.000152 
1.64964e+2, 2.533945e+2, -721707.9, -571269.44, -61306.35, -0.06369489, -0.16653614, -549450.5, -92730.19, 0.0, 9.998035, 10.000042 
1.6496024e+2, 2.6339424e+2, -571641.0, -424956.47, -44207.684, -0.0009575241, -0.2063219, -412663.4, -53940.844, 0.0, 9.998294, 10.000248 
1.6495831e+2, 2.73395e+2, -576036.9, -383473.63, -13456.271, 0.22770037, -0.16787149, -382537.84, -121820.96, 0.0, 9.997619, 10.000186 
1.649543e+2, 2.8339624e+2, -464465.13, -187492.94, -27734.418, 0.2644481, -0.090300165, -184743.08, -22039.08, 0.00000000009995645, 9.997323, 10.001001 
1.6494694e+2, 2.933985e+2, -278748.94, -13682.194, -91229.41, 0.0020299763, 0.0073830457, 14681.606, 79358.75, 0.00000049216277, 9.997778, 10.001304 
1.6494255e+2, 3.0339703e+2, -366076.66, -205658.11, -62188.42, -0.02785378, -0.21048169, -184373.89, -184373.89, 0.000010365808, 9.997597, 9.9997425 
1.6493852e+2, 3.1339282e+2, -559753.06, -282092.34, -13715.348, -0.11510143, -0.5667584, -281416.53, -281416.53, 0.000061981555, 9.99618, 9.999896 
1.7503534e+2, 1.2340472e+2, -1545753.0, -1758325.0, 111780.836, 0.08359605, -0.0075178966, -1497793.5, 232830.39, 0.00064073, 10.001671, 9.998891 
1.7502986e+2, 1.3340269e+2, -1457971.4, -1772137.6, 80543.65, 0.10234219, -0.017210143, -1438525.8, 194121.73, 0.000363663, 10.002088, 9.997919 
1.7502362e+2, 1.4340147e+2, -1259986.9, -1451096.8, 16270.184, 0.062110014, 0.001757519, -1258611.5, 276049.5, 0.00014712822, 10.002013, 9.999484 
1.7501827e+2, 1.5340061e+2, -1293927.3, -1404760.3, -2076.5012, 0.13545574, -0.059370648, -1293888.3, 142778.44, 0.00003249045, 10.001054, 9.99959 
1.7501247e+2, 1.6340056e+2, -1265426.4, -1282327.4, -877.24207, 0.16395201, -0.044324066, -1265381.0, 73284.71, 0.0000018022155, 10.000317, 10.000116 
1.7500584e+2, 1.734015e+2, -1223524.5, -1209651.4, 36125.156, 0.10243366, 0.021497408, -1179802.9, 60853.98, 0.0, 9.999931, 10.000126 
1.7499956e+2, 1.8340144e+2, -1207882.8, -1205537.6, 51630.117, 0.056413077, 0.024765093, -1155066.8, -12409.576, 0.0, 9.999604, 9.99964 
1.7499381e+2, 1.9339964e+2, -1158102.5, -1150387.8, -4122.758, 0.031342257, -0.11730736, -1148599.1, -103926.56, 0.0, 9.999357, 9.999465 
1.7498788e+2, 2.0339842e+2, -1052084.8, -1002811.1, -43349.156, -0.010256404, -0.20021696, -977586.9, -30903.844, 0.0, 9.999213, 9.999876 
1.7498156e+2, 2.1339826e+2, -947973.7, -900878.56, -22929.307, -0.086699136, -0.21871357, -891559.1, -42875.29, 0.0, 9.999251, 9.999884 
1.7497581e+2, 2.2339831e+2, -932564.1, -881964.56, -23234.695, -0.10730136, -0.18587844, -872914.25, -122230.945, 0.0, 9.998863, 9.999522 
1.7497106e+2, 2.3339863e+2, -1014557.3, -890509.7, -56225.31, -0.03182129, -0.10561889, -868818.3, -216137.45, 0.0, 9.997709, 9.99935 
1.7496665e+2, 2.4339826e+2, -956613.6, -768205.75, -31396.348, 0.01531975, -0.09174165, -763111.6, -208426.19, 0.0, 9.99724, 9.9997425 
1.7496285e+2, 2.5339675e+2, -749444.4, -619260.4, -28897.307, 0.00956948, -0.23461254, -613134.25, -156432.81, 0.0, 9.997994, 9.999731 
1.749588e+2, 2.633967e+2, -525950.94, -327234.38, -64605.324, 0.018983936, -0.26006293, -308077.2, 50624.453, 0.0, 9.9982815, 10.000926 
1.7495418e+2, 2.7339926e+2, -519978.75, -261219.11, -36411.12, 0.04392277, -0.12716968, -256193.19, 4480.9585, 0.0, 9.997589, 10.001043 
1.7494944e+2, 2.8340045e+2, -552353.0, -365914.84, -21675.105, 0.0365293, -0.054749195, -363428.1, -200766.4, 0.0, 9.997307, 9.999783 
1.7494497e+2, 2.9339942e+2, -398754.72, -256825.06, -70559.89, 0.017725885, -0.12515074, -227716.39, -163042.0, 0.00000022526268, 9.997749, 9.999649 
1.7494203e+2, 3.0339858e+2, -312737.94, -90272.34, -108887.02, 0.15391894, -0.21802868, -45848.086, -45848.086, 0.0000067412816, 9.99758, 10.000543 
1.749363e+2, 3.134017e+2, -517623.06, -177843.27, -52261.914, 0.026306618, 0.039867386, -169986.48, -169986.48, 0.000045960638, 9.996107, 10.000648 
1.8503635e+2, 1.2341058e+2, -1594862.0, -1813431.5, -92267.625, 0.03198648, -0.0688969, -1561120.6, 169441.39, 0.00060965505, 10.001459, 9.998614 
1.8503162e+2, 1.3340844e+2, -1538376.3, -1847773.3, -29971.738, 0.091017805, -0.06065117, -1535499.6, 97087.29, 0.00034424968, 10.001673, 9.997606 
1.8502562e+2, 1.4340691e+2, -1331388.9, -1502192.6, -44844.26, 0.084416546, -0.04919047, -1320331.0, 214273.52, 0.00013810549, 10.001593, 9.999332 
1.8501979e+2, 1.534063e+2, -1292703.5, -1418614.3, -48099.258, 0.18061268, -0.07104231, -1276431.9, 160178.27, 0.000029920388, 10.001123, 9.999462 
1.8501343e+2, 1.6340646e+2, -1183376.6, -1237058.6, -26779.875, 0.2023365, -0.029198777, -1172301.9, 166306.22, 0.0000015280342, 10.00087, 10.000156 
1.8500608e+2, 1.7340752e+2, -1059498.0, -1124628.8, -56523.887, 0.08088216, 0.044402033, -1026829.5, 213766.9, 0.0, 10.001032, 10.000181 
1.8499942e+2, 1.8340716e+2, -1050787.9, -1184544.9, -59170.027, 0.018509299, 0.033776432, -1028370.1, 114229.16, 0.0, 10.000919, 9.999146 
1.8499388e+2, 1.9340436e+2, -1064376.6, -1172402.8, -45448.816, 0.05830316, -0.15012164, -1047799.3, -3172.9187, 0.0, 10.00029, 9.998863 
1.849881e+2, 2.0340276e+2, -966422.56, -970429.5, -26884.162, 0.059928335, -0.23370792, -941467.4, 5174.6143, 0.0, 9.999842, 9.999791 
1.8498176e+2, 2.1340343e+2, -875243.0, -863495.2, -46668.07, -0.013480742, -0.16984159, -822332.8, 26302.408, 0.0, 9.99974, 9.999903 
1.8497567e+2, 2.234036e+2, -788407.56, -817093.25, -51479.395, -0.055940382, -0.12395571, -749310.3, 1322.1752, 0.0, 9.999859, 9.9994955 
1.8497002e+2, 2.3340286e+2, -634032.9, -711582.7, -21882.693, -0.034353524, -0.14824498, -628284.25, 24352.822, 0.0, 10.000329, 9.999322 
1.84965e+2, 2.4340206e+2, -601898.9, -645810.75, 42432.863, -0.004902714, -0.15539815, -576078.1, -21433.104, 0.0, 9.999888, 9.999305 
1.849611e+2, 2.5340137e+2, -804329.94, -702007.94, 20836.525, 0.04308467, -0.16577122, -697927.56, -241270.02, 0.0, 9.997864, 9.999223 
1.8495676e+2, 2.634015e+2, -749106.6, -439578.88, -22545.016, 0.06261958, -0.13899183, -437945.38, -79287.68, 0.0, 9.996777, 10.000875 
1.8495142e+2, 2.7340314e+2, -537106.9, -260219.4, -56756.836, 0.020881625, -0.10389497, -249036.92, 11599.612, 0.0, 9.997443, 10.001113 
1.8494624e+2, 2.834036e+2, -546275.0, -389922.75, -49257.87, -0.016970411, -0.10029519, -375698.4, -213067.83, 0.0, 9.997461, 9.999544 
1.8494187e+2, 2.934024e+2, -636710.4, -406950.88, -8764.624, 0.009774199, -0.159011, -406617.03, -341969.03, 0.000000073239775, 9.996272, 9.999327 
1.849393e+2, 3.034027e+2, -446875.3, -82112.62, 36977.926, 0.18707019, -0.14884077, -78401.72, -78401.72, 0.000003933053, 9.99634, 10.0012 
1.8493392e+2, 3.1340766e+2, -113806.836, 80371.73, 72691.71, 0.05737585, 0.21129958, 104568.94, 104568.94, 0.000032239117, 9.998597, 10.001229 
1.9503757e+2, 1.23413295e+2, -1532726.4, -1686191.4, -100729.56, -0.0140997, -0.15503228, -1482832.1, 247704.6, 0.00056699646, 10.00147, 9.999481 
1.9503357e+2, 1.3341156e+2, -1468904.9, -1695540.0, -20467.05, 0.109897666, -0.20953418, -1467071.4, 165481.1, 0.00031769412, 10.00165, 9.998655 
1.9502752e+2, 1.4341049e+2, -1305674.6, -1451001.0, -63523.168, 0.10285584, -0.22715935, -1281822.9, 252740.25, 0.00012543336, 10.001595, 9.999687 
1.9502023e+2, 1.5341112e+2, -1277367.5, -1386166.9, -63620.14, 0.104328394, -0.15053898, -1248060.4, 188498.02, 0.000026112697, 10.00112, 9.999687 
1.9501343e+2, 1.6341136e+2, -1227688.5, -1328962.8, -25734.18, 0.10765097, -0.08636504, -1221524.5, 117032.14, 0.0000011234973, 10.000866, 9.999529 
1.9500749e+2, 1.734105e+2, -1115881.0, -1239912.1, -44827.992, 0.108102925, -0.12856135, -1101375.5, 139188.89, 0.0, 10.001025, 9.9993925 
1.9500093e+2, 1.8340966e+2, -1034508.9, -1150665.5, -81708.2, 0.06872656, -0.14878644, -992340.9, 150232.02, 0.0, 10.000914, 9.999386 
1.9499321e+2, 1.9340904e+2, -1033466.06, -1107664.1, -66468.59, -0.047887187, -0.157582, -994444.06, 50136.45, 0.0, 10.000285, 9.9993105 
1.9498686e+2, 2.0340897e+2, -993887.94, -1021433.4, -36313.703, -0.056516107, -0.10058523, -968822.9, -22239.703, 0.0, 9.999816, 9.999454 
1.9498299e+2, 2.134098e+2, -914271.3, -937530.3, -46470.25, 0.1252257, 0.025151191, -877997.5, -29420.18, 0.0, 9.999711, 9.999407 
1.9497791e+2, 2.2340958e+2, -743588.7, -717577.75, -40491.316, 0.17407341, 0.03158987, -688054.5, 62522.86, 0.0, 9.999831, 10.000192 
1.9497049e+2, 2.3340754e+2, -572027.8, -576542.2, -716.0559, -0.028329112, -0.21188235, -571917.0, 80670.42, 0.0, 10.000302, 10.000261 
1.9496383e+2, 2.4340677e+2, -636994.56, -716582.2, -23062.08, -0.118781865, -0.25271204, -630794.8, -76202.086, 0.0, 9.999877, 9.998825 
1.949586e+2, 2.5340837e+2, -862109.06, -814825.06, -54161.56, 0.00082574686, 0.03977372, -779370.4, -322781.75, 0.0, 9.99783, 9.998466 
1.9495393e+2, 2.6340875e+2, -805150.56, -550082.56, -15513.83, 0.09673786, 0.16355997, -549142.44, -190552.27, 0.0, 9.996753, 10.000128 
1.9494998e+2, 2.7340662e+2, -593774.5, -372217.3, -26981.086, 0.12258692, -0.09954195, -368978.9, -108374.484, 0.0, 9.997415, 10.0003605 
1.9494471e+2, 2.8340557e+2, -493417.22, -276491.13, -87015.97, 0.07390012, -0.23383081, -245900.17, -83288.586, 0.0, 9.997446, 10.00033 
1.9493754e+2, 2.934074e+2, -574125.75, -266697.84, -50157.203, -0.05837732, -0.09253908, -258721.6, -194123.61, 0.000000013907536, 9.996224, 10.000315 
1.9493419e+2, 3.034093e+2, -412486.06, 597.25146, 101703.96, 0.036425896, -0.0030358527, 24279.729, 24279.729, 0.0000021091166, 9.9963, 10.001782 
1.9493115e+2, 3.134107e+2, -89088.74, 143049.42, 176863.8, -0.0947679, -0.054856442, 238528.98, 238528.98, 0.000021823846, 9.998552, 10.00168 
2.0503941e+2, 1.2341783e+2, -1347332.3, -1536110.5, -25465.99, -0.025133638, -0.17128333, -1343957.3, 386536.78, 0.0005131865, 10.002492, 10.000018 
2.0503539e+2, 1.3341658e+2, -1415552.4, -1598834.0, 17527.113, 0.12700419, -0.24177155, -1413891.3, 218610.58, 0.00028433715, 10.001711, 9.999294 
2.0502925e+2, 1.4341554e+2, -1365412.8, -1514016.6, -44767.27, 0.13291852, -0.27906936, -1352968.5, 181542.25, 0.00010935022, 10.001339, 9.999376 
2.0502174e+2, 1.5341619e+2, -1202636.5, -1404808.9, -103990.016, 0.109085225, -0.15305987, -1158697.4, 277810.2, 0.000021261263, 10.001865, 9.999199 
2.0501462e+2, 1.6341601e+2, -1112682.1, -1313300.9, -98978.66, 0.09465719, -0.08748512, -1072070.4, 266440.56, 0.00000067965186, 10.001829, 9.999169 
2.050082e+2, 1.7341414e+2, -1183690.0, -1309933.0, -95127.18, 0.092962295, -0.19865716, -1132647.1, 107881.46, 0.0, 10.000724, 9.999056 
2.0500131e+2, 1.8341321e+2, -1140250.0, -1158396.9, -94343.55, 0.061767388, -0.22397815, -1054544.6, 87993.016, 0.0, 10.000005, 9.99977 
2.0499353e+2, 1.934142e+2, -1032194.5, -1051225.6, -80176.83, -0.030427614, -0.122265026, -960970.56, 83558.8, 0.0, 10.00005, 9.999815 
2.0498715e+2, 2.034147e+2, -959101.06, -1036260.25, -26880.35, -0.025281569, -0.025091207, -950660.06, -4133.983, 0.0, 10.000191, 9.999173 
2.0498332e+2, 2.1341425e+2, -841379.8, -952076.7, -36724.76, 0.15434049, 0.016681531, -830304.2, 18228.004, 0.0, 10.000423, 9.998968 
2.0497805e+2, 2.2341332e+2, -727602.7, -713256.6, -66965.086, 0.20029561, -0.019934328, -653081.5, 97457.58, 0.0, 9.999962, 10.0001545 
2.0497002e+2, 2.3341164e+2, -864263.5, -713505.0, -106090.01, -0.0021939597, -0.23277664, -658741.56, -6195.148, 0.0, 9.998283, 10.000292 
2.049627e+2, 2.4341092e+2, -991079.56, -897200.4, -148777.55, -0.09779511, -0.26584587, -788133.25, -233582.56, 0.0, 9.997488, 9.998739 
2.0495683e+2, 2.5341213e+2, -793219.94, -793910.25, -137273.1, 0.01538281, -0.0013212871, -656291.56, -199743.48, 0.0, 9.998356, 9.998359 
2.0495164e+2, 2.6341212e+2, -595896.94, -518083.75, -49488.1, 0.10831521, 0.11546359, -494039.6, -135486.34, 0.0, 9.998481, 9.999518 
2.0494752e+2, 2.7340955e+2, -670739.44, -488245.84, -62763.734, 0.14583309, -0.12121665, -468744.0, -208168.63, 0.0, 9.997226, 9.999656 
2.049418e+2, 2.8340846e+2, -624649.3, -295355.2, -140819.55, 0.093457945, -0.23719896, -243348.61, -80764.055, 0.0, 9.996359, 10.000725 
2.0493375e+2, 2.934111e+2, -533633.06, -179951.42, -143014.25, -0.057609685, -0.07654845, -129359.28, -64798.85, 0.0000000026409164, 9.996222, 10.000909 
2.0493026e+2, 3.0341354e+2, -495243.3, -56437.62, 17884.545, 0.04144517, 0.04296623, -55709.902, -55709.902, 0.000001406237, 9.99581, 10.001629 
2.0492816e+2, 3.134131e+2, -634542.3, -120176.58, 37974.81, -0.059172884, -0.1673277, -117388.08, -117388.08, 0.000015573223, 9.994827, 10.001658 
2.1504162e+2, 1.2342421e+2, -1332793.0, -1507046.4, -68912.48, -0.07190164, -0.11431223, -1308834.3, 421599.9, 0.00045153208, 10.002496, 10.000219 
2.1503699e+2, 1.3342354e+2, -1394061.6, -1557182.6, -10572.521, 0.10729823, -0.15069702, -1393379.1, 239055.55, 0.00024600755, 10.001725, 9.999575 
2.1503069e+2, 1.4342214e+2, -1432137.4, -1656676.5, -34832.68, 0.1327026, -0.19920397, -1426858.0, 107589.0, 0.00009091891, 10.001355, 9.99839 
2.1502422e+2, 1.5342152e+2, -1286621.9, -1579746.5, -79099.63, 0.15731269, -0.07876002, -1266639.1, 169818.78, 0.000015871614, 10.001871, 9.997994 
2.1501692e+2, 1.6342045e+2, -1120883.3, -1328958.6, -135309.77, 0.13170666, -0.027521666, -1054238.3, 284232.63, 0.00000031009594, 10.0018215, 9.999068 
2.1500811e+2, 1.734184e+2, -1176304.0, -1291353.5, -134825.72, 0.003676126, -0.166883, -1087244.0, 153245.06, 0.0, 10.000712, 9.999187 
2.1500039e+2, 1.8341775e+2, -1107747.8, -1087019.1, -101859.19, -0.037012663, -0.19298226, -994998.3, 147495.48, 0.0, 9.999987, 10.000272 
2.1499476e+2, 1.9341977e+2, -993316.44, -967022.44, -72888.26, 0.07839583, -0.045140862, -906105.0, 138368.31, 0.0, 10.000035, 10.0004 
2.149889e+2, 2.0341994e+2, -978598.8, -1072359.0, -21405.838, 0.12210897, -0.00405181, -973943.0, -27472.379, 0.0, 10.000171, 9.998934 
2.1498263e+2, 2.134168e+2, -872048.4, -1008464.5, -24660.918, 0.03379887, -0.19530202, -867727.1, -19227.324, 0.0, 10.000394, 9.998593 
2.1497594e+2, 2.2341482e+2, -788481.6, -833504.9, -123421.44, -0.013810166, -0.28079578, -685535.56, 64982.227, 0.0, 9.999933, 9.999343 
2.1496847e+2, 2.3341508e+2, -932652.56, -844771.75, -166905.28, 0.008710404, -0.21213031, -716119.8, -63605.176, 0.0, 9.9982395, 9.999411 
2.1496154e+2, 2.4341452e+2, -972775.5, -853199.1, -133989.88, 0.030739397, -0.19172846, -766263.4, -211744.14, 0.0, 9.99746, 9.999057 
2.1495564e+2, 2.5341257e+2, -759004.25, -714025.5, -100131.36, 0.054128435, -0.29380047, -633889.06, -177352.3, 0.0, 9.998318, 9.998926 
2.1494982e+2, 2.6341155e+2, -633201.9, -590324.3, -87475.97, 0.06936222, -0.2903721, -521698.3, -163150.56, 0.0, 9.998461, 9.99903 
2.1494386e+2, 2.7341193e+2, -726413.94, -594759.06, -108511.484, 0.049485646, -0.1685339, -533669.25, -273119.44, 0.0, 9.997188, 9.998941 
2.1493734e+2, 2.834122e+2, -625477.2, -288680.97, -156398.66, 0.008862074, -0.10685275, -227256.39, -64706.754, 0.0, 9.996324, 10.000788 
2.149304e+2, 2.934133e+2, -524466.0, -156524.75, -146100.45, -0.022012774, -0.12097379, -105568.72, -41032.227, 0.000000034055795, 9.9962, 10.001084 
2.1492748e+2, 3.0341527e+2, -564973.9, -193826.88, -17006.65, 0.17855082, -0.015501118, -193049.23, -193049.23, 0.0000015569075, 9.99578, 10.000699 
2.1492472e+2, 3.1341496e+2, -691262.5, -221548.27, 18572.84, 0.09884455, -0.11041962, -220815.03, -220815.03, 0.000013189906, 9.994756, 10.000998 
2.2504446e+2, 1.2343145e+2, -1374312.9, -1630289.4, 48207.043, -0.040938646, -0.12854438, -1365535.3, 364823.75, 0.00038670175, 10.002652, 9.999297 
2.2503968e+2, 1.3343094e+2, -1249936.3, -1591870.8, 9488.683, 0.13406378, -0.05671546, -1249673.1, 382689.06, 0.00020580785, 10.003171, 9.998634 
2.2503316e+2, 1.4342886e+2, -1172218.1, -1568470.5, -37176.3, 0.14964607, -0.10435746, -1168760.4, 365622.47, 0.00007189735, 10.003298, 9.998064 
2.2502644e+2, 1.5342689e+2, -1182543.0, -1555649.3, -12010.134, 0.15503606, -0.098772295, -1182156.8, 254248.47, 0.000010694928, 10.002693, 9.99777 
2.2501884e+2, 1.6342528e+2, -1055436.0, -1281491.1, -32355.14, 0.124583356, -0.09483863, -1050896.1, 287525.47, 0.000000092361944, 10.0022, 9.999213 
2.250095e+2, 1.7342412e+2, -993458.7, -1183128.8, -35962.105, 0.017289042, -0.16369413, -986869.06, 253560.66, 0.0, 10.001876, 9.999374 
2.2500159e+2, 1.8342356e+2, -903166.94, -1057632.6, -5271.2363, 0.00067102566, -0.1640322, -902987.3, 239445.92, 0.0, 10.001689, 9.99965 
2.2499622e+2, 1.9342428e+2, -808444.6, -964622.0, -79061.586, 0.14193834, -0.07130648, -775409.2, 269018.2, 0.0, 10.001685, 9.999619 
2.2499013e+2, 2.0342365e+2, -807601.1, -966557.56, -83428.414, 0.17492053, -0.074271046, -771853.06, 174579.5, 0.0, 10.001246, 9.999144 
2.249826e+2, 2.1342057e+2, -897045.44, -975565.94, -38234.61, 0.011592971, -0.29795238, -881503.75, -33045.81, 0.0, 10.000029, 9.998995 
2.2497524e+2, 2.2341882e+2, -901403.4, -970459.8, -93217.836, -0.053238127, -0.35205546, -836524.56, -86050.64, 0.0, 9.999516, 9.998603 
2.2496822e+2, 2.3341957e+2, -704915.25, -843245.1, -148178.53, 0.062507726, -0.13977233, -610554.44, 41918.367, 0.0, 10.000267, 9.998445 
2.2496127e+2, 2.4341887e+2, -530721.6, -617770.75, -102700.77, 0.11351971, -0.08632014, -462703.22, 91777.71, 0.0, 10.0004, 9.999254 
2.2495441e+2, 2.534156e+2, -568917.7, -576373.94, -84051.38, 0.045707393, -0.3591713, -488511.78, -32007.1, 0.0, 9.999424, 9.999336 
2.249476e+2, 2.6341408e+2, -670427.3, -632278.0, -102815.18, 0.010823127, -0.42357606, -546783.06, -188265.31, 0.0, 9.998309, 9.998816 
2.2494073e+2, 2.7341548e+2, -775485.0, -655113.9, -108463.85, 0.028757907, -0.16621374, -591256.25, -330743.3, 0.0, 9.99701, 9.998613 
2.2493379e+2, 2.834158e+2, -615759.1, -340807.1, -93392.4, 0.008112261, -0.058997758, -312085.03, -149571.08, 0.00000000075483947, 9.996627, 10.000287 
2.2492726e+2, 2.9341504e+2, -343154.75, -136162.06, -138218.27, -0.030450694, -0.20293814, -66985.945, -2468.2007, 0.0000002669958, 9.997726, 10.000489 
2.249239e+2, 3.0341625e+2, -345052.0, -88404.875, -86049.37, 0.17089237, -0.13536051, -62224.613, -62224.613, 0.0000027230408, 9.99728, 10.000701 
2.2491941e+2, 3.134173e+2, -711769.7, -155510.97, 33759.195, 0.11712967, -0.11709889, -153469.63, -153469.63, 0.000014136897, 9.994271, 10.001692 
2.350477e+2, 1.2343958e+2, -1518262.8, -1933136.9, 50336.113, -0.0023074974, -0.21366104, -1512242.9, 218025.42, 0.0003234225, 10.002674, 9.997209 
2.3504338e+2, 1.3343874e+2, -1400168.5, -1909327.3, 28562.512, 0.17801988, 0.042248163, -1398571.1, 233713.92, 0.00016666431, 10.003193, 9.9964485 
2.3503657e+2, 1.4343564e+2, -1147918.6, -1515619.4, -57739.258, 0.15241294, 0.003859626, -1139065.1, 395254.44, 0.00005400246, 10.003288, 9.998431 
2.3502831e+2, 1.5343224e+2, -1121352.6, -1432180.6, -32533.115, 0.060243573, -0.21124616, -1117984.0, 318365.8, 0.000006396683, 10.002708, 9.9986105 
2.3502022e+2, 1.6343042e+2, -1032145.5, -1231275.5, -49833.547, 0.033751845, -0.29169592, -1020370.6, 317993.16, 0.000000013163342, 10.0021925, 9.999562 
2.3501232e+2, 1.7343122e+2, -972543.8, -1139741.9, -44644.383, 0.10334188, -0.19249596, -961369.9, 278981.16, 0.0, 10.001875, 9.999674 
2.3500478e+2, 1.8343063e+2, -1031683.06, -1318028.6, -9515.595, 0.14202939, -0.13885762, -1031367.2, 110988.89, 0.0, 10.001663, 9.997875 
2.3499782e+2, 1.9342768e+2, -959460.0, -1277609.1, -76827.305, 0.12424953, -0.19801293, -941879.1, 102512.81, 0.0, 10.001682, 9.997472 
2.3499064e+2, 2.0342572e+2, -761748.06, -866208.8, -126135.9, 0.0964511, -0.23976889, -677456.3, 268956.56, 0.0, 10.0012245, 9.999843 
2.349831e+2, 2.1342555e+2, -816845.7, -799099.94, -80759.33, 0.050945424, -0.29028276, -726727.5, 121678.88, 0.0, 9.999987, 10.000226 
2.3497587e+2, 2.2342539e+2, -957220.06, -1075509.6, -77661.23, 0.051203668, -0.23017772, -918746.4, -168339.48, 0.0, 9.999472, 9.997904 
2.3496924e+2, 2.3342514e+2, -782606.6, -997702.1, -114921.086, 0.12854454, -0.011766525, -732758.8, -80338.086, 0.0, 10.00024, 9.997396 
2.349618e+2, 2.4342397e+2, -528020.3, -609501.1, -133056.27, 0.11587652, 0.052063808, -429607.03, 124828.97, 0.0, 10.000388, 9.999317 
2.3495299e+2, 2.5342125e+2, -556422.2, -541352.4, -119577.98, -0.047024775, -0.19496669, -429072.13, 27380.18, 0.0, 9.999386, 9.999595 
2.3494491e+2, 2.634197e+2, -669142.44, -622599.06, -152753.27, -0.09456601, -0.27715614, -491354.97, -132891.95, 0.0, 9.9982815, 9.998894 
2.3493801e+2, 2.7342016e+2, -776153.5, -646119.8, -152693.66, 0.04717569, -0.11668581, -545177.2, -284712.2, 0.0, 9.996967, 9.998693 
2.3493098e+2, 2.8341928e+2, -698218.9, -505118.97, -66427.89, 0.05817563, -0.09279602, -484474.38, -321996.8, 0.00000003119879, 9.996597, 9.999174 
2.3492418e+2, 2.9341632e+2, -442464.06, -336393.16, -93624.164, -0.121495396, -0.32185218, -281826.34, -217321.77, 0.00000087505157, 9.997702, 9.999127 
2.3491943e+2, 3.034165e+2, -276543.8, 57488.03, -180456.27, -0.010898315, -0.3172605, 136355.78, 136355.78, 0.0000050395365, 9.997266, 10.001712 
2.349118e+2, 3.1342018e+2, -571486.6, 152759.1, -60107.387, -0.082924105, -0.18737397, 157713.7, 157713.7, 0.00001767749, 9.994202, 10.003842 
2.4505134e+2, 1.2344583e+2, -1218068.9, -1809790.6, -97183.875, -0.009323531, -0.2969646, -1202516.3, 527685.06, 0.00026460417, 10.00483, 9.997019 
2.4504657e+2, 1.3344441e+2, -1295623.6, -1864950.0, 35709.746, 0.14381418, -0.09063096, -1293392.5, 338830.34, 0.00013068788, 10.003935, 9.9964 
2.4503934e+2, 1.4344122e+2, -1157813.8, -1504975.4, 29357.018, 0.110306926, -0.1426357, -1155348.6, 378909.56, 0.000038366878, 10.003158, 9.998566 
2.4503076e+2, 1.5343893e+2, -1117850.3, -1412007.4, -1936.0469, 0.039755546, -0.26197055, -1117837.6, 318441.16, 0.000003303544, 10.002663, 9.998769 
2.450226e+2, 1.6343752e+2, -1003406.25, -1235257.9, -41990.637, 0.041371148, -0.30329943, -996035.6, 342253.53, 0.00000000018007511, 10.002468, 9.999401 
2.4501519e+2, 1.7343754e+2, -866904.2, -1113740.1, -77510.016, 0.16168416, -0.26138043, -844583.4, 395699.97, 0.0, 10.002709, 9.999448 
2.450075e+2, 1.8343632e+2, -915527.5, -1315944.9, -24172.3, 0.1996065, -0.23807418, -914073.56, 228221.0, 0.0, 10.002694, 9.997394 
2.4499941e+2, 1.9343299e+2, -925940.4, -1321348.8, 22036.986, 0.091915146, -0.28466398, -924716.0, 119619.7, 0.0, 10.002171, 9.996937 
2.4499148e+2, 2.0343097e+2, -719101.5, -890142.2, -4814.9946, 0.035044223, -0.28226167, -718966.0, 227392.77, 0.0, 10.001708, 9.999448 
2.4498402e+2, 2.1343146e+2, -655280.75, -763006.44, -88970.93, 0.080760606, -0.22982031, -605138.6, 243209.6, 0.0, 10.001279, 9.999853 
2.4497655e+2, 2.234312e+2, -786632.2, -995669.3, -105004.23, 0.115026444, -0.15613866, -742995.4, 7354.6846, 0.0, 10.00065, 9.997886 
2.4496908e+2, 2.3342955e+2, -867224.56, -1032171.4, -61518.188, 0.12190367, -0.0832398, -846808.0, -194433.08, 0.0, 9.999634, 9.997454 
2.4496101e+2, 2.4342798e+2, -766403.1, -727461.5, -48130.504, 0.08107142, -0.06165576, -695012.56, -140619.56, 0.0, 9.998766, 9.99929 
2.449519e+2, 2.5342658e+2, -725606.6, -627651.4, -66308.85, -0.034874916, -0.17051277, -594193.1, -137795.1, 0.0, 9.998243, 9.999556 
2.4494345e+2, 2.6342544e+2, -711636.5, -658990.3, -105321.23, -0.056081284, -0.20366405, -576752.5, -218346.95, 0.0, 9.99805, 9.998759 
2.4493597e+2, 2.7342477e+2, -577210.06, -568615.5, -125177.586, 0.07948431, -0.14297554, -447661.47, -187243.48, 0.0, 9.998406, 9.998536 
2.4492852e+2, 2.834235e+2, -514565.2, -418471.88, -8151.183, 0.092644796, -0.14299451, -417785.38, -255352.3, 0.00000009380251, 9.99787, 9.999152 
2.4492137e+2, 2.9342145e+2, -734418.25, -477568.1, 53542.926, -0.07016444, -0.28590083, -466853.53, -402402.4, 0.0000015673739, 9.995704, 9.99912 
2.4491562e+2, 3.0342093e+2, -735216.2, -231799.34, -42387.863, 0.024637016, -0.32157493, -228255.22, -228255.22, 0.000007492646, 9.994417, 10.001098 
2.449062e+2, 3.1342348e+2, -485608.38, 156825.23, -89784.016, -0.09693025, -0.23153841, 169137.14, 169137.14, 0.000021673697, 9.994961, 10.003501 
2.550552e+2, 1.2345026e+2, -1095709.1, -1562005.1, -147562.84, -0.12750305, -0.37391, -1052935.5, 677221.75, 0.00021213775, 10.00485, 9.9987135 
2.5504917e+2, 1.3344799e+2, -1146314.8, -1558660.5, 2945.8188, 0.0013906491, -0.45740554, -1146293.8, 485881.72, 0.000099274104, 10.003949, 9.998496 
2.5504142e+2, 1.4344557e+2, -1168546.6, -1526659.4, 5333.097, -0.0054687154, -0.54475856, -1168467.3, 365732.03, 0.000025643254, 10.003155, 9.998419 
2.550336e+2, 1.534469e+2, -1152160.0, -1485979.0, -16960.646, 0.048357043, -0.25519258, -1151300.5, 284892.22, 0.0000014046367, 10.002675, 9.998254 
2.550258e+2, 1.6344656e+2, -1050713.5, -1333262.4, -39722.92, 0.1082887, -0.13177814, -1045235.1, 292963.06, 0.0, 10.002466, 9.998732 
2.5501794e+2, 1.7344311e+2, -913760.1, -1213564.5, -65249.88, 0.15615542, -0.36513478, -900174.7, 340051.6, 0.0, 10.002721, 9.998757 
2.5500968e+2, 1.8344067e+2, -859128.2, -1197681.9, -42035.375, 0.13959979, -0.4588047, -853987.06, 288261.3, 0.0, 10.002688, 9.99821 
2.5500083e+2, 1.9344012e+2, -849415.9, -1159993.8, 5781.8438, 0.008343957, -0.33429277, -849308.3, 194950.78, 0.0, 10.002159, 9.998051 
2.5499254e+2, 2.0343934e+2, -832667.6, -1117555.9, -23393.504, -0.037258808, -0.2077603, -830759.5, 115511.41, 0.0, 10.001672, 9.997904 
2.549852e+2, 2.1343815e+2, -800112.0, -1060473.6, -101456.5, 0.06428804, -0.12345639, -765245.94, 83038.555, 0.0, 10.001262, 9.997821 
2.5497714e+2, 2.2343615e+2, -740789.5, -894648.9, -144032.42, 0.10034541, -0.13637365, -654429.5, 95875.11, 0.0, 10.000627, 9.99859 
2.5496766e+2, 2.3343274e+2, -788157.9, -858842.9, -97435.46, 0.011333944, -0.3576698, -719853.06, -67517.12, 0.0, 9.999593, 9.998664 
2.5495878e+2, 2.4343084e+2, -780299.2, -747710.4, -72752.24, -0.024109684, -0.43288928, -689450.1, -135097.72, 0.0, 9.998731, 9.9991665 
2.5495103e+2, 2.534316e+2, -756908.3, -683081.9, -82877.875, 0.04717322, -0.29248214, -629268.44, -172925.83, 0.0, 9.9982, 9.999195 
2.549431e+2, 2.634313e+2, -741340.4, -712645.25, -98745.13, 0.098452345, -0.20432808, -627210.75, -268864.84, 0.0, 9.998018, 9.998408 
2.549346e+2, 2.734292e+2, -608552.75, -623690.7, -106781.375, 0.09313092, -0.24822015, -509072.4, -248700.0, 0.0, 9.998362, 9.998182 
2.5492632e+2, 2.8342858e+2, -444558.63, -265797.75, -79127.92, 0.07639951, -0.21164176, -235804.44, -73423.83, 0.00000013915765, 9.997842, 10.000214 
2.5491872e+2, 2.9343042e+2, -649527.9, -285091.38, -28670.957, 0.08924187, -0.09443707, -282849.56, -218492.25, 0.0000020008988, 9.995632, 10.000476 
2.5491232e+2, 3.034296e+2, -907826.25, -572187.06, -38739.37, 0.24957709, -0.14496398, -567773.8, -567773.8, 0.000009108913, 9.994346, 9.998794 
2.5490254e+2, 3.1342712e+2, -700470.06, -275111.8, -45303.324, 0.02126456, -0.25856802, -270340.25, -270340.25, 0.000024996654, 9.994903, 10.000562 
2.6505992e+2, 1.23457305e+2, -1227934.8, -1547919.4, -34828.918, -0.0745777, -0.37657002, -1224187.6, 505902.2, 0.00016808572, 10.003611, 9.999399 
2.650529e+2, 1.3345551e+2, -1189178.9, -1479493.8, 26346.545, 0.022142006, -0.50109917, -1186807.3, 445290.63, 0.000073608266, 10.00322, 9.999391 
2.650445e+2, 1.4345324e+2, -1186335.0, -1574815.1, 4264.926, -0.011223431, -0.6105006, -1186288.1, 347829.7, 0.000016155976, 10.003206, 9.998062 
2.6503676e+2, 1.534543e+2, -1008616.06, -1483097.8, -25619.46, 0.036483567, -0.29171333, -1007236.8, 428879.75, 0.00000046134082, 10.003948, 9.997661 
2.650288e+2, 1.6345373e+2, -864944.4, -1290572.6, -60101.61, 0.09002181, -0.13869482, -856620.44, 481506.28, 0.0, 10.003946, 9.998313 
2.6502022e+2, 1.7345022e+2, -962835.6, -1280905.8, -73406.81, 0.12360342, -0.34003115, -946711.56, 293446.7, 0.0, 10.002574, 9.998366 
2.6501158e+2, 1.8344778e+2, -972078.7, -1207323.5, -34273.285, 0.11154324, -0.42789444, -967187.0, 174993.58, 0.0, 10.0017185, 9.9986105 
2.65003e+2, 1.9344741e+2, -869687.7, -1110011.8, -32105.107, 0.0299, -0.33723444, -865472.7, 178712.78, 0.0, 10.0017605, 9.998587 
2.6499447e+2, 2.034466e+2, -847757.3, -1152462.1, -41603.33, -0.007996852, -0.23626815, -842179.06, 104016.875, 0.0, 10.001696, 9.997649 
2.6498616e+2, 2.1344489e+2, -811754.9, -1112648.9, -4821.2627, 0.030186633, -0.16333598, -811677.7, 36539.38, 0.0, 10.001386, 9.9974 
2.6497728e+2, 2.2344257e+2, -699535.9, -862071.6, -10147.315, 0.043284856, -0.18846357, -698904.8, 51336.05, 0.0, 10.000854, 9.998704 
2.6496744e+2, 2.334393e+2, -724361.7, -804766.56, -48993.85, 0.015936388, -0.4152114, -701187.2, -48919.258, 0.0, 9.999928, 9.998873 
2.649582e+2, 2.4343738e+2, -708635.6, -753995.94, -42950.32, 0.011634087, -0.48850635, -682745.0, -128461.27, 0.0, 9.999399, 9.9988 
2.6495e+2, 2.5343785e+2, -586065.06, -649683.6, -59765.152, 0.059288178, -0.33187371, -550171.3, -93891.62, 0.0, 9.999594, 9.998747 
2.649416e+2, 2.6343736e+2, -592245.5, -626856.94, -82030.766, 0.10052676, -0.24527247, -525714.8, -167428.64, 0.0, 9.998984, 9.998528 
2.649325e+2, 2.734353e+2, -801697.7, -688746.25, -56238.355, 0.123221844, -0.30456397, -665520.9, -405211.38, 0.0, 9.996925, 9.998422 
2.6492354e+2, 2.834349e+2, -706561.0, -401836.28, -19914.854, 0.1054945, -0.25629175, -400540.28, -238225.88, 0.00000017298198, 9.99608, 10.000129 
2.649149e+2, 2.9343697e+2, -409164.66, -178428.5, -84185.26, 0.061737426, -0.101415634, -150978.69, -86688.74, 0.0000022405377, 9.997321, 10.000392 
2.649078e+2, 3.0343556e+2, -480206.78, -392232.78, -91413.35, 0.21979408, -0.19785072, -334773.94, -334773.94, 0.00001010162, 9.997374, 9.998575 
2.6489908e+2, 3.1343347e+2, -678692.9, -313788.47, 109883.5, 0.17198412, -0.24920912, -283254.3, -283254.3, 0.00002797797, 9.99525, 10.00013 
2.7506524e+2, 1.2346678e+2, -1251985.3, -1596954.6, -69955.98, 0.07738515, -0.3116491, -1238338.9, 491662.25, 0.00013396774, 10.003605, 9.999064 
2.750576e+2, 1.3346691e+2, -1201359.3, -1508477.9, 10573.1455, 0.1601374, -0.22359124, -1200995.8, 430995.34, 0.00005449833, 10.003241, 9.999177 
2.750485e+2, 1.4346425e+2, -1224410.4, -1659273.1, 20965.24, 0.05754284, -0.33640152, -1223401.9, 310612.06, 0.00000986275, 10.003224, 9.997478 
2.7504018e+2, 1.5346111e+2, -1051991.4, -1574565.1, 6212.466, -0.025537657, -0.36828533, -1051917.5, 384132.38, 0.00000011248763, 10.003956, 9.997029 
2.7503154e+2, 1.6345906e+2, -877600.06, -1317410.1, -103058.52, -0.04327823, -0.3209806, -854648.6, 483425.9, 0.0, 10.003947, 9.998127 
2.7502188e+2, 1.7345877e+2, -969495.8, -1294019.8, -122937.42, 0.022823084, -0.1920627, -928183.3, 311896.6, 0.0, 10.002572, 9.998276 
2.7501306e+2, 1.8345757e+2, -978272.3, -1214945.3, -42832.086, 0.08043007, -0.14920592, -970759.2, 171332.7, 0.0, 10.001697, 9.998569 
2.750057e+2, 1.9345486e+2, -873178.3, -1112520.1, -26528.082, 0.11864015, -0.29015833, -870273.25, 173841.28, 0.0, 10.001744, 9.998573 
2.7499726e+2, 2.0345278e+2, -778027.7, -1003705.3, -53923.266, 0.09173302, -0.35795835, -765805.25, 180327.94, 0.0, 10.001676, 9.998682 
2.7498674e+2, 2.1345164e+2, -729144.06, -933662.1, -12210.24, -0.058599133, -0.35015813, -728417.7, 119728.125, 0.0, 10.001352, 9.998645 
2.749769e+2, 2.2345042e+2, -742666.94, -942448.0, -44000.902, -0.08597964, -0.31420454, -733405.25, 16753.67, 0.0, 10.0008135, 9.998173 
2.7496833e+2, 2.3344915e+2, -788694.56, -930586.94, -80382.766, 0.1053137, -0.26074767, -752427.2, -100255.43, 0.0, 9.999894, 9.998026 
2.7495915e+2, 2.4344754e+2, -752589.06, -839846.4, -44455.805, 0.15837698, -0.22920913, -733929.9, -179742.28, 0.0, 9.999377, 9.99822 
2.7494878e+2, 2.5344524e+2, -629059.56, -732954.94, -49455.8, -0.037088957, -0.29476178, -609282.5, -153072.47, 0.0, 9.999564, 9.998192 
2.7493882e+2, 2.6344347e+2, -555166.2, -539873.1, -150860.88, -0.085482106, -0.3281414, -396465.13, -38238.3, 0.0, 9.998947, 9.999141 
2.7492958e+2, 2.7344295e+2, -750431.44, -572352.75, -130963.26, 0.12825829, -0.3182737, -503027.38, -242797.13, 0.00000000009324417, 9.9968815, 9.999242 
2.7492005e+2, 2.8344238e+2, -797697.7, -582669.56, 8416.468, 0.14045018, -0.28335762, -582340.6, -420105.1, 0.00000023612336, 9.996046, 9.998901 
2.7490973e+2, 2.9344094e+2, -524390.06, -412883.38, -31170.006, -0.19981393, -0.32242572, -404761.8, -340510.72, 0.0000024950837, 9.997294, 9.998796 
2.7490196e+2, 3.0343878e+2, -343117.0, -98773.49, -156994.17, -0.114178956, -0.4898599, -22015.334, -22015.334, 0.000010927285, 9.997349, 10.000594 
2.7489555e+2, 3.1344253e+2, -541417.5, -6425.822, 45758.098, 0.27313206, -0.21205135, -2540.3289, -2540.3289, 0.000030095847, 9.995155, 10.002283 
2.8507018e+2, 1.2347703e+2, -1252362.9, -1704371.1, 21633.664, 0.19125414, -0.27182022, -1251329.9, 478569.78, 0.00010938032, 10.004065, 9.998105 
2.8506213e+2, 1.3347651e+2, -975381.44, -1502555.1, 47894.723, 0.19076312, -0.1571824, -971065.44, 660834.3, 0.00004175051, 10.005235, 9.998259 
2.850527e+2, 1.4347333e+2, -917923.0, -1493575.3, 24873.834, 0.05258001, -0.27568108, -916850.2, 617078.06, 0.000006290213, 10.005254, 9.997635 
2.8504387e+2, 1.5346958e+2, -1123740.5, -1571388.6, 69290.69, -0.018731829, -0.40389043, -1113260.5, 322705.6, 0.000000028346124, 10.00329, 9.997376 
2.8503484e+2, 1.6346723e+2, -1117196.6, -1472783.1, 21629.229, -0.030959219, -0.38975814, -1115885.8, 222106.36, 0.0, 10.002484, 9.997764 
2.8502512e+2, 1.7346725e+2, -827018.94, -1283247.6, -31787.195, 0.028992213, -0.17724328, -824814.9, 415183.5, 0.0, 10.003801, 9.997761 
2.8501603e+2, 1.8346618e+2, -642362.5, -1051520.5, 9592.538, 0.0938067, -0.09026766, -642137.75, 499873.06, 0.0, 10.004003, 9.998577 
2.8500807e+2, 1.9346328e+2, -809290.2, -1072935.3, 21026.797, 0.16330542, -0.2605806, -807623.75, 236409.95, 0.0, 10.002141, 9.998656 
2.8499883e+2, 2.034611e+2, -896324.6, -1035151.3, -6848.1885, 0.13376388, -0.3538813, -895987.6, 50064.63, 0.0, 10.000747, 9.998914 
2.849873e+2, 2.1346016e+2, -877237.44, -975154.2, -43409.555, -0.077559344, -0.35132393, -860764.1, -12700.952, 0.0, 10.000209, 9.998911 
2.84977e+2, 2.2345932e+2, -839300.8, -981141.4, -82243.266, -0.12096976, -0.2959017, -801622.56, -51549.664, 0.0, 10.000119, 9.99824 
2.84969e+2, 2.3345868e+2, -656740.75, -862255.56, -57204.45, 0.14103422, -0.18176858, -641891.0, 10188.657, 0.0, 10.000781, 9.998067 
2.8495964e+2, 2.4345717e+2, -601524.25, -804608.9, 12116.491, 0.21574156, -0.12824515, -600803.94, -46708.77, 0.0, 10.000573, 9.9978895 
2.8494784e+2, 2.5345403e+2, -758817.9, -839258.4, 8028.798, -0.047463026, -0.23566593, -758024.4, -301897.47, 0.0, 9.998863, 9.997802 
2.849368e+2, 2.6345173e+2, -688137.1, -583547.7, -96817.69, -0.1264126, -0.30879176, -525804.25, -167655.53, 0.0, 9.997941, 9.999328 
2.8492734e+2, 2.7345127e+2, -512752.28, -420885.6, -124583.375, 0.1441944, -0.3229567, -334037.6, -73888.84, 0.0000000018932573, 9.998354, 9.999572 
2.8491738e+2, 2.8345063e+2, -521304.66, -481733.53, 53403.547, 0.17255287, -0.30250773, -444568.2, -282414.6, 0.00000028816427, 9.998078, 9.998622 
2.8490642e+2, 2.9344898e+2, -646638.75, -508876.53, 105041.75, -0.22520687, -0.32434362, -452145.63, -387972.13, 0.0000027347362, 9.996619, 9.998465 
2.8489745e+2, 3.03447e+2, -556730.1, -80851.15, -42525.758, -0.19278237, -0.4993096, -77080.805, -77080.805, 0.000011893844, 9.995353, 10.001683 
2.8489015e+2, 3.1345206e+2, -651133.44, 34199.75, 42276.188, 0.2823104, -0.22034957, 36797.793, 36797.793, 0.000031796684, 9.99401, 10.003113 
2.9507443e+2, 1.2348823e+2, -1365891.5, -1947975.4, 39301.645, 0.18603018, -0.24460728, -1363249.9, 366533.8, 0.000092256116, 10.004095, 9.996423 
2.950664e+2, 1.3348438e+2, -1090168.9, -1741964.6, 93864.25, 0.08216907, -0.3002244, -1076920.9, 554902.7, 0.000033956963, 10.0052395, 9.9966135 
2.9505688e+2, 1.4348046e+2, -860275.1, -1369842.8, -37391.563, -0.060952634, -0.43096012, -857546.0, 676315.1, 0.000004691967, 10.005234, 9.998495 
2.9504755e+2, 1.5347965e+2, -1034901.25, -1380724.9, -3711.1416, 0.013464425, -0.39566413, -1034861.44, 401003.66, 0.00000001715619, 10.003266, 9.998694 
2.9503858e+2, 1.6347824e+2, -1159582.6, -1559465.4, 50404.83, 0.08744458, -0.33817264, -1153327.0, 184552.56, 0.0, 10.002476, 9.997171 
2.950298e+2, 1.7347571e+2, -891573.5, -1417423.9, 23758.256, 0.10693242, -0.29147533, -890502.25, 349411.06, 0.0, 10.003804, 9.996836 
2.9502034e+2, 1.8347368e+2, -642046.56, -1049096.5, -46321.07, 0.1177898, -0.24949467, -636841.94, 505095.34, 0.0, 10.003992, 9.9986 
2.9500994e+2, 1.9347258e+2, -798169.0, -1046878.56, -47117.05, 0.12702979, -0.2565927, -789542.06, 254401.52, 0.0, 10.002128, 9.998842 
2.9499918e+2, 2.0347145e+2, -943920.2, -1126135.8, -36817.48, 0.0822547, -0.22781588, -936762.2, 9191.486, 0.0, 10.000715, 9.998303 
2.949877e+2, 2.1347031e+2, -936328.94, -1087078.9, -58902.305, -0.06581598, -0.17324021, -916043.75, -68073.46, 0.0, 10.000163, 9.998164 
2.9497746e+2, 2.2346912e+2, -798349.2, -884270.2, -67560.14, -0.09644126, -0.1381226, -761247.3, -11263.476, 0.0, 10.000069, 9.998929 
2.9496932e+2, 2.3346788e+2, -597425.0, -729021.4, -28057.531, 0.08901403, -0.17617017, -591692.56, 60299.19, 0.0, 10.000738, 9.999002 
2.9495966e+2, 2.4346629e+2, -609707.4, -817324.1, -42673.723, 0.15029846, -0.18111256, -601278.44, -47272.438, 0.0, 10.000553, 9.997812 
2.9494715e+2, 2.534641e+2, -781562.5, -880986.7, -53513.367, -0.011277565, -0.17052469, -758233.7, -302202.16, 0.0, 9.998836, 9.997531 
2.9493552e+2, 2.6346195e+2, -708941.06, -620238.3, -94456.15, -0.055492807, -0.2001056, -560239.25, -202185.95, 0.0, 9.997913, 9.999089 
2.9492557e+2, 2.7346015e+2, -533167.2, -458518.13, -104608.8, 0.12131648, -0.3275665, -384774.56, -124708.32, 0.0000000016821552, 9.998329, 9.999328 
2.9491547e+2, 2.8345963e+2, -474063.28, -377963.97, 3096.283, 0.16237687, -0.3082816, -377864.3, -215795.47, 0.00000022409213, 9.998058, 9.999343 
2.9490483e+2, 2.9346105e+2, -588573.56, -378376.34, 57129.758, -0.055114284, -0.107806884, -363852.5, -299795.5, 0.0000026529046, 9.996574, 9.999383 
2.948943e+2, 3.034604e+2, -555221.0, -62590.082, -92367.375, -0.04886846, -0.22218898, -45840.84, -45840.84, 0.000012290724, 9.995291, 10.001837 
2.9488245e+2, 3.134617e+2, -698262.94, -54089.434, 5475.657, 0.09077657, -0.3063275, -54042.89, -54042.89, 0.000033071607, 9.993963, 10.002529 
3.0507913e+2, 1.23497896e+2, -1242783.6, -1890024.9, -68956.41, 0.20940754, -0.23857608, -1235518.6, 494170.22, 0.000080399295, 10.004953, 9.996408 
3.050709e+2, 1.3349381e+2, -1351043.9, -1858032.3, 113447.14, 0.10797321, -0.3244047, -1326816.0, 304915.63, 0.000029419189, 10.003398, 9.996711 
3.0506122e+2, 1.4349023e+2, -1249706.8, -1556311.0, 21007.617, -0.011377323, -0.43107232, -1248274.0, 285492.8, 0.00000428039, 10.002559, 9.998503 
3.0505112e+2, 1.5348977e+2, -1073370.1, -1403523.9, -56315.215, 0.058349043, -0.35581616, -1064028.5, 371739.13, 0.000000032166714, 10.003019, 9.998658 
3.0504167e+2, 1.6348852e+2, -1037610.4, -1454626.8, 13493.6455, 0.11865681, -0.297227, -1037174.2, 300605.53, 0.0, 10.00311, 9.997586 
3.050329e+2, 1.7348586e+2, -1044363.7, -1433075.6, 92855.08, 0.10645547, -0.31394702, -1023321.6, 216490.14, 0.0, 10.002502, 9.9973545 
3.0502295e+2, 1.8348381e+2, -937146.4, -1212258.8, 40465.81, 0.078763075, -0.29643843, -931317.8, 210517.42, 0.0, 10.002057, 9.998413 
3.0501106e+2, 1.9348289e+2, -848878.94, -1104435.5, -11171.942, 0.041633666, -0.25482336, -848391.44, 195451.53, 0.0, 10.001925, 9.998544 
3.0499962e+2, 2.0348181e+2, -817060.0, -1085620.8, 14328.051, 0.011686979, -0.1963351, -816297.75, 129556.63, 0.0, 10.001676, 9.99812 
3.0498892e+2, 2.1348049e+2, -798881.0, -1040439.44, 31973.55, -0.010004289, -0.14296888, -794720.56, 53151.46, 0.0, 10.001185, 9.997995 
3.0497855e+2, 2.2347902e+2, -727547.44, -837763.5, 49324.746, -0.009638672, -0.12989917, -708697.2, 41190.293, 0.0, 10.000501, 9.999041 
3.0496886e+2, 2.3347735e+2, -769290.0, -792165.2, 24197.902, 0.035422225, -0.22678371, -753962.75, -102063.71, 0.0, 9.999478, 9.999173 
3.0495834e+2, 2.4347585e+2, -826480.2, -870707.25, -20450.768, 0.051882055, -0.25139067, -818473.25, -264561.4, 0.0, 9.998848, 9.998265 
3.049463e+2, 2.5347477e+2, -729593.56, -796643.8, 17331.006, 0.01741382, -0.18261313, -725378.8, -269452.53, 0.0, 9.998942, 9.998055 
3.049345e+2, 2.6347324e+2, -583887.1, -586915.7, 46621.074, 0.0058947047, -0.17056172, -538755.75, -180813.31, 0.0, 9.998888, 9.998849 
3.0492327e+2, 2.7347103e+2, -521844.47, -496845.3, 25099.39, 0.05014992, -0.29751498, -481305.3, -221344.19, 0.00000000014964384, 9.998597, 9.998936 
3.0491248e+2, 2.8347048e+2, -479512.7, -298962.88, 75377.49, 0.08004093, -0.29140782, -271631.13, -109666.87, 0.00000013461268, 9.997672, 10.000067 
3.049022e+2, 2.934728e+2, -663705.25, -310525.88, 113949.03, 0.0754193, -0.096234925, -276953.0, -213012.48, 0.0000024042524, 9.995621, 10.000303 
3.0489063e+2, 3.0347285e+2, -664660.56, -182153.73, 90.66689, 0.07998607, -0.16457413, -182153.72, -182153.72, 0.000011913728, 9.994823, 10.001243 
3.0487594e+2, 3.134725e+2, -499606.63, -87896.19, 31603.502, -0.04595992, -0.32805288, -85484.39, -85484.39, 0.0000326923, 9.995875, 10.001382 
3.150841e+2, 1.2350604e+2, -1124287.6, -1651509.0, -142713.69, 0.19175278, -0.25446305, -1088135.4, 641479.1, 0.00007245084, 10.004988, 9.998029 
3.1507564e+2, 1.3350496e+2, -1218584.4, -1588458.3, 57437.03, 0.23039025, -0.22163135, -1209870.4, 421752.44, 0.000027007593, 10.003427, 9.998546 
3.1506556e+2, 1.4350264e+2, -1310697.4, -1688721.1, 22973.53, 0.15722935, -0.26676518, -1309306.4, 224338.55, 0.0000045002253, 10.002581, 9.997584 
3.1505442e+2, 1.5349987e+2, -1171054.0, -1608170.4, -35086.08, 0.07740206, -0.28650188, -1168255.6, 267418.8, 0.00000006594377, 10.003027, 9.99725 
3.15044e+2, 1.63498e+2, -937918.1, -1245790.3, -7929.911, 0.032098386, -0.27193132, -937714.0, 399979.47, 0.0, 10.003099, 9.999026 
3.1503436e+2, 1.7349766e+2, -910293.1, -1150567.3, 71574.95, -0.00655121, -0.24603756, -890587.8, 349106.28, 0.0, 10.002487, 9.999301 
3.150237e+2, 1.834966e+2, -965828.1, -1271320.0, 29429.209, -0.060199674, -0.22540434, -963018.94, 178685.5, 0.0, 10.002049, 9.9980135 
3.1501138e+2, 1.9349419e+2, -908356.2, -1222703.0, -12205.285, -0.12905851, -0.2561471, -907883.0, 135849.17, 0.0, 10.001901, 9.9977455 
3.1500015e+2, 2.0349212e+2, -804981.2, -1050364.3, -6447.074, -0.111244254, -0.26020715, -804811.9, 140942.84, 0.0, 10.001634, 9.998383 
3.149908e+2, 2.1349072e+2, -773780.56, -978987.25, 16866.006, 0.050995, -0.2551379, -772403.56, 75364.29, 0.0, 10.001147, 9.998436 
3.149802e+2, 2.234891e+2, -763329.25, -906352.75, 11072.069, 0.09774703, -0.26363716, -762477.2, -12694.246, 0.0, 10.000476, 9.998583 
3.149675e+2, 2.3348704e+2, -818619.4, -886837.25, -10362.951, -0.057079066, -0.3379602, -817079.9, -165277.72, 0.0, 9.999442, 9.998543 
3.149556e+2, 2.4348578e+2, -758505.2, -723023.8, -26689.441, -0.114808165, -0.34692794, -708716.75, -154902.92, 0.0, 9.99882, 9.999292 
3.1494513e+2, 2.5348604e+2, -641133.9, -604005.9, 23585.395, 0.0016495277, -0.27205077, -592555.0, -136743.98, 0.0, 9.998903, 9.999397 
3.149337e+2, 2.6348567e+2, -601615.3, -621040.75, 35903.875, 0.026864344, -0.21378002, -574133.56, -216318.33, 0.0, 9.998875, 9.998624 
3.1492034e+2, 2.7348405e+2, -559842.44, -570390.7, 18585.215, -0.11194224, -0.23528789, -545797.5, -285964.3, 0.00000000001473293, 9.99857, 9.998445 
3.1490827e+2, 2.8348318e+2, -435876.1, -198074.3, 3992.4377, -0.11287262, -0.26150772, -198007.28, -36167.035, 0.000000108201135, 9.99763, 10.00078 
3.1489825e+2, 2.9348397e+2, -607848.8, -181067.8, 41292.77, 0.11039361, -0.3055372, -177109.27, -113284.016, 0.0000022594174, 9.9955635, 10.00122 
3.1488624e+2, 3.0348432e+2, -762874.44, -379448.84, 27436.215, 0.15206899, -0.34094846, -377495.56, -377495.56, 0.000011524727, 9.994796, 9.999902 
3.1487036e+2, 3.1348446e+2, -618890.0, -329987.63, 78494.51, -0.21299332, -0.28787553, -310038.3, -310038.3, 0.00003194629, 9.9958515, 9.999729 
3.25089e+2, 1.2351561e+2, -1010805.4, -1592059.1, -31101.33, 0.15329996, -0.33352575, -1009145.94, 720374.56, 0.000067480614, 10.005744, 9.99807 
3.2508e+2, 1.3351564e+2, -966166.4, -1455173.4, 37143.57, 0.2473214, -0.19966707, -963361.2, 668158.4, 0.000026163485, 10.005109, 9.99865 
3.2506958e+2, 1.4351396e+2, -1048901.6, -1565846.5, -6526.79, 0.21155807, -0.1845374, -1048819.3, 484717.1, 0.0000050157096, 10.004396, 9.997549 
3.2505745e+2, 1.5351051e+2, -1094330.4, -1573626.4, 33315.863, 0.05370664, -0.26967147, -1092025.8, 343546.6, 0.000000115129794, 10.0035715, 9.997219 
3.2504627e+2, 1.635084e+2, -984724.44, -1234307.4, 68858.16, -0.022717698, -0.28854063, -966987.44, 370605.66, 0.0, 10.002642, 9.999322 
3.2503632e+2, 1.735087e+2, -1022910.4, -1168012.8, 19822.814, -0.009413104, -0.23411147, -1020251.06, 219336.0, 0.0, 10.0015545, 9.999631 
3.2502526e+2, 1.83508e+2, -1138388.8, -1338014.1, -46163.594, -0.04153657, -0.20072001, -1128230.3, 13363.219, 0.0, 10.000801, 9.998153 
3.2501248e+2, 1.9350556e+2, -1088118.4, -1297785.1, -24367.148, -0.14406422, -0.24587183, -1085323.6, -41701.51, 0.0, 10.00062, 9.997845 
3.2500082e+2, 2.0350356e+2, -942549.4, -1077398.4, 27577.354, -0.14817536, -0.26428428, -937127.6, 8516.342, 0.0, 10.000521, 9.9987335 
3.249913e+2, 2.1350248e+2, -840476.1, -965696.1, 41054.992, 0.021057926, -0.26742044, -828216.06, 19436.254, 0.0, 10.000497, 9.99884 
3.2498035e+2, 2.2350112e+2, -805701.8, -934379.2, 33230.984, 0.078439005, -0.2725684, -797626.6, -47961.848, 0.0, 10.000212, 9.998521 
3.2496694e+2, 2.3349917e+2, -811748.25, -898574.8, 40201.043, -0.059828356, -0.3227754, -795993.7, -144309.0, 0.0, 9.999548, 9.998414 
3.2495454e+2, 2.4349803e+2, -710479.1, -673632.6, 53182.79, -0.11157099, -0.3220108, -635772.44, -82076.414, 0.0, 9.999033, 9.999533 
3.249439e+2, 2.534984e+2, -629068.44, -562254.8, 27530.72, -0.0041511827, -0.26687145, -552372.44, -96681.23, 0.0, 9.99883, 9.99972 
3.2493225e+2, 2.6349828e+2, -672897.06, -615655.2, -5004.2837, 0.032744333, -0.21615617, -615221.0, -257528.66, 0.0, 9.998219, 9.998974 
3.249187e+2, 2.734971e+2, -777665.0, -636931.44, 30972.96, -0.048538316, -0.227026, -630416.44, -370710.06, 0.00000000010851988, 9.996913, 9.998786 
3.2490572e+2, 2.8349626e+2, -633293.2, -294618.03, 37234.617, -0.05932551, -0.2694799, -290572.72, -128859.08, 0.00000014601811, 9.99628, 10.000769 
3.248937e+2, 2.9349655e+2, -432134.38, -108342.24, -5413.3184, 0.041119576, -0.35789812, -108251.766, -44547.715, 0.000002235968, 9.996822, 10.001113 
3.2488075e+2, 3.0349737e+2, -538449.6, -247518.02, -9255.891, 0.055527944, -0.34447137, -247223.84, -247223.84, 0.000011294619, 9.996242, 10.000108 
3.2486618e+2, 3.1349823e+2, -927204.5, -407304.16, 172711.16, -0.0936046, -0.2543008, -355159.4, -355159.4, 0.000031418378, 9.993443, 10.000355 
3.3509368e+2, 1.2352665e+2, -1113612.3, -1808762.8, -74684.74, 0.024444021, -0.46403787, -1105678.9, 623727.75, 0.000064750086, 10.005761, 9.996573 
3.3508405e+2, 1.3352574e+2, -1077042.0, -1686345.3, 14924.422, 0.13065016, -0.2624568, -1076676.8, 554746.2, 0.000026237916, 10.005115, 9.997059 
3.3507317e+2, 1.4352411e+2, -988522.7, -1437116.3, -39072.33, 0.12280948, -0.19094421, -985144.94, 548296.94, 0.000005563539, 10.004385, 9.998436 
3.3506006e+2, 1.5352175e+2, -1001460.94, -1378498.5, 6002.6455, -0.052167077, -0.29765606, -1001365.4, 434095.3, 0.00000016881297, 10.003565, 9.998559 
3.3504838e+2, 1.6351983e+2, -1046985.5, -1362497.1, 26650.313, -0.086005606, -0.33640108, -1044750.25, 292727.72, 0.0, 10.002635, 9.998447 
3.350387e+2, 1.7351896e+2, -1111127.5, -1350572.5, -17373.1, 0.06414854, -0.27543664, -1109873.6, 129616.97, 0.0, 10.00155, 9.998382 
3.3502758e+2, 1.8351802e+2, -1094853.0, -1242036.8, -60924.484, 0.100422904, -0.22245727, -1072906.6, 68595.74, 0.0, 10.000776, 9.998823 
3.3501416e+2, 1.9351698e+2, -1020490.3, -1152787.8, -27065.668, -0.04587308, -0.22466269, -1015167.4, 28346.004, 0.0, 10.000602, 9.998848 
3.3500153e+2, 2.0351614e+2, -914132.3, -1012511.06, 23305.682, -0.13606581, -0.20422834, -908890.56, 36631.37, 0.0, 10.000497, 9.999189 
3.3499026e+2, 2.1351567e+2, -822026.1, -915903.2, 43434.035, -0.13296258, -0.18427387, -805013.56, 42512.824, 0.0, 10.000449, 9.999204 
3.3497885e+2, 2.2351493e+2, -785790.56, -884106.4, 7630.4233, -0.09736785, -0.16250242, -785201.94, -35667.98, 0.0, 10.000173, 9.998885 
3.3496708e+2, 2.3351373e+2, -792104.5, -847807.4, 17251.672, -0.007161069, -0.17429905, -787194.3, -135647.83, 0.0, 9.999504, 9.998786 
3.34955e+2, 2.4351263e+2, -749227.1, -751001.6, 40357.047, 0.028025677, -0.16830999, -709747.56, -156189.52, 0.0, 9.999019, 9.999008 
3.3494252e+2, 2.5351182e+2, -682402.25, -666847.44, 22298.865, -0.036783714, -0.16563924, -651008.6, -195441.67, 0.0, 9.998803, 9.999013 
3.3493018e+2, 2.6351106e+2, -612769.8, -484520.78, -52164.402, -0.0031042965, -0.17826018, -465982.88, -108408.516, 0.0, 9.998191, 9.999887 
3.349182e+2, 2.7351016e+2, -698522.0, -460799.03, -16129.012, 0.20572141, -0.2775968, -459709.7, -200128.34, 0.000000000044508567, 9.996862, 10.000019 
3.3490476e+2, 2.835097e+2, -691366.8, -410544.4, 46627.49, 0.20798843, -0.32034406, -403004.84, -241420.14, 0.00000018850986, 9.996254, 9.999987 
3.348884e+2, 2.9351056e+2, -516146.28, -282924.94, 20274.834, -0.1806281, -0.24372001, -281175.5, -217598.95, 0.0000021997091, 9.996819, 9.999916 
3.34874e+2, 3.0351207e+2, -414638.34, 14754.083, -99475.96, -0.249468, -0.16670719, 36679.785, 36679.785, 0.000010789971, 9.996223, 10.001916 
3.348632e+2, 3.135136e+2, -736188.25, 19509.422, 65063.125, 0.24893287, -0.24414182, 25070.229, 25070.229, 0.000030295108, 9.993318, 10.003343 
3.45099e+2, 1.2353979e+2, -1332710.9, -1933332.9, -68015.22, 0.055511516, -0.40876412, -1325105.0, 404174.72, 0.00006300336, 10.004335, 9.9964075 
3.450883e+2, 1.3353805e+2, -1184662.0, -1761533.6, 123116.9, 0.082407966, -0.27069902, -1159485.0, 471819.9, 0.00002625186, 10.004472, 9.996857 
3.4507692e+2, 1.435365e+2, -1028010.7, -1422116.9, 87233.23, 0.082102746, -0.19235846, -1009565.44, 523757.47, 0.0000058764194, 10.003962, 9.998745 
3.4506294e+2, 1.535348e+2, -1147319.8, -1406873.6, 49532.363, -0.05566984, -0.2700401, -1138188.5, 297144.97, 0.0000002059256, 10.002374, 9.998942 
3.4505054e+2, 1.6353293e+2, -1254693.1, -1518372.1, 74211.35, -0.06984935, -0.30518332, -1235241.5, 102108.67, 0.0, 10.001444, 9.997952 
3.4504023e+2, 1.7353101e+2, -1138601.5, -1433671.3, 73897.22, 0.05892173, -0.28601587, -1121129.4, 118246.31, 0.0, 10.001664, 9.997754 
3.4502885e+2, 1.8352993e+2, -924409.44, -1087197.3, 64159.74, 0.10799036, -0.23999812, -902162.44, 239227.14, 0.0, 10.001633, 9.999475 
3.4501588e+2, 1.9353026e+2, -884217.4, -990888.44, 82833.02, 0.043382857, -0.18864776, -839033.94, 204349.77, 0.0, 10.00112, 9.999713 
3.4500298e+2, 2.0353009e+2, -949179.7, -1048418.5, 102808.47, -0.02729907, -0.1441595, -884642.75, 60742.113, 0.0, 10.000331, 9.999027 
3.449902e+2, 2.1352895e+2, -1047515.4, -1062502.8, 64260.824, -0.11370878, -0.15754998, -990312.75, -142913.88, 0.0, 9.999057, 9.99887 
3.4497783e+2, 2.235281e+2, -1007032.06, -937111.94, 27480.906, -0.12834562, -0.14603822, -927604.0, -178195.2, 0.0, 9.998432, 9.999354 
3.4496617e+2, 2.3352787e+2, -832027.8, -796958.9, 50717.125, -0.0135782445, -0.123048745, -760830.7, -109419.984, 0.0, 9.998938, 9.999402 
3.4495416e+2, 2.435273e+2, -751398.0, -736895.9, 95260.95, 0.045824803, -0.10440041, -648610.44, -95193.9, 0.0, 9.998945, 9.999138 
3.4494135e+2, 2.5352624e+2, -785867.75, -713825.8, 124087.29, 0.0062316745, -0.12919334, -620637.0, -165208.05, 0.0, 9.998079, 9.9990425 
3.449284e+2, 2.6352552e+2, -668085.4, -483485.03, 67997.25, 0.029512996, -0.1463294, -461142.5, -103705.84, 0.0, 9.997691, 10.000135 
3.4491542e+2, 2.735254e+2, -493119.2, -327336.84, 29566.404, 0.17758396, -0.19966586, -322221.66, -62784.832, 0.0, 9.998133, 10.00032 
3.4490138e+2, 2.835255e+2, -454227.66, -291591.63, 80863.92, 0.17077982, -0.20476858, -258229.25, -96793.72, 0.00000016974016, 9.997869, 10.000023 
3.448854e+2, 2.9352638e+2, -587144.06, -325151.03, 132620.23, -0.13638228, -0.12332753, -269738.8, -206309.95, 0.0000019719364, 9.99636, 9.999852 
3.4487027e+2, 3.0352744e+2, -560990.25, -48171.887, -28810.639, -0.18801448, -0.08282604, -46558.355, -46558.355, 0.0000096256135, 9.995173, 10.001993 
3.44857e+2, 3.135293e+2, -526691.0, 187290.44, -62496.863, 0.24855095, -0.14672893, 192719.69, 192719.69, 0.00002817607, 9.994444, 10.003962 
3.5510468e+2, 1.2355487e+2, -1247164.1, -1765804.4, -84430.39, 0.16497174, -0.17814314, -1233765.8, 495375.44, 0.000060733924, 10.004378, 9.997536 
3.5509256e+2, 1.3355254e+2, -1098762.9, -1587843.8, 130465.85, 0.051709343, -0.21967714, -1066136.8, 565029.3, 0.000025432406, 10.004494, 9.998036 
3.5508057e+2, 1.4355113e+2, -1047085.4, -1464932.5, 32501.69, 0.04102983, -0.18116827, -1044572.4, 488607.25, 0.0000057861466, 10.003976, 9.998446 
3.5506603e+2, 1.5354963e+2, -1183552.1, -1486728.5, -8072.438, 0.0071234177, -0.18450518, -1183337.4, 251853.8, 0.00000020730299, 10.002394, 9.998385 
3.5505268e+2, 1.6354758e+2, -1261006.1, -1530142.0, 68952.19, -0.008267909, -0.20075987, -1244369.1, 92841.63, 0.0, 10.001439, 9.997872 
3.5504073e+2, 1.735448e+2, -1140950.8, -1435519.6, 86207.71, -0.062821075, -0.2666827, -1117576.3, 121666.74, 0.0, 10.001652, 9.997746 
3.5502893e+2, 1.8354365e+2, -886974.9, -1001719.7, 46271.457, -0.052749783, -0.25191277, -870640.9, 270614.63, 0.0, 10.0016, 10.000076 
3.5501754e+2, 1.9354536e+2, -838231.44, -887446.94, 66475.8, 0.092605144, -0.13582611, -791954.94, 251278.81, 0.0, 10.001087, 10.000438 
3.5500515e+2, 2.0354535e+2, -1006579.8, -1162234.0, 56595.543, 0.15058042, -0.08313444, -988177.44, -42944.35, 0.0, 10.000305, 9.998259 
3.549909e+2, 2.1354236e+2, -1124233.3, -1213480.0, 19926.828, 0.045527104, -0.18315618, -1119986.1, -272716.78, 0.0, 9.999021, 9.997851 
3.549771e+2, 2.2354072e+2, -972763.3, -857177.56, 35469.754, -0.04823126, -0.21627426, -847161.0, -97872.43, 0.0, 9.998394, 9.999922 
3.5496417e+2, 2.3354155e+2, -777653.7, -678507.94, 74034.84, -0.11580194, -0.16792595, -638981.8, 12295.461, 0.0, 9.998913, 10.000228 
3.549518e+2, 2.4354196e+2, -700216.5, -625872.8, 66635.586, -0.08969321, -0.13229245, -586742.3, -33470.344, 0.0, 9.998924, 9.999911 
3.549403e+2, 2.535416e+2, -736306.1, -602136.6, 93490.15, 0.08957542, -0.16291596, -554152.8, -98875.164, 0.0, 9.998042, 9.999826 
3.5492685e+2, 2.635418e+2, -704799.1, -553234.75, 77406.94, 0.09728117, -0.11896437, -520689.75, -163410.9, 0.0, 9.997663, 9.99967 
3.5491002e+2, 2.7354285e+2, -544752.4, -432683.63, 51609.676, -0.1838275, 0.016169166, -412537.9, -153265.94, 0.0, 9.998123, 9.9996 
3.5489547e+2, 2.8354365e+2, -392479.88, -164370.34, 30813.594, -0.21632156, 0.08429618, -160281.28, 984.46783, 0.00000011654808, 9.997871, 10.0008955 
3.5488474e+2, 2.9354388e+2, -511740.7, -161122.4, 79732.16, 0.15298176, -0.009818443, -143842.58, -80581.336, 0.0000016005947, 9.9963255, 10.000995 
3.5486957e+2, 3.0354357e+2, -690686.8, -305787.66, -56285.457, 0.21974324, -0.10013979, -297725.66, -297725.66, 0.00000802472, 9.995127, 10.000245 
3.548471e+2, 3.1354553e+2, -661144.8, -80116.23, -87462.234, -0.2053858, 0.058302682, -67236.06, -67236.06, 0.000025457135, 9.994401, 10.002141 
3.651093e+2, 1.23569734e+2, -1162048.5, -1681763.6, -10782.891, 0.17241004, -0.09164842, -1161824.9, 567174.7, 0.000056913836, 10.00478, 9.997919 
3.650959e+2, 1.3356711e+2, -1175212.5, -1589543.4, 134662.56, -0.022879006, -0.19320573, -1135291.9, 495733.2, 0.000023619004, 10.003816, 9.99835 
3.6508387e+2, 1.4356591e+2, -1164736.5, -1540431.0, 3705.6643, 0.012443088, -0.14614923, -1164699.9, 368336.53, 0.00000526637, 10.003252, 9.998274 
3.6506957e+2, 1.5356438e+2, -1061955.9, -1454414.0, -23962.664, 0.07713833, -0.12717198, -1060498.3, 374552.28, 0.00000017249042, 10.003342, 9.998152 
3.6505577e+2, 1.6356243e+2, -1024062.25, -1366657.1, 92930.695, 0.08802108, -0.13872546, -1000477.9, 336591.3, 0.0, 10.002854, 9.998313 
3.650422e+2, 1.7355995e+2, -1147104.9, -1376418.9, 144571.58, -0.06520111, -0.22930972, -1077243.1, 161851.28, 0.0, 10.001342, 9.998302 
3.6502925e+2, 1.8355872e+2, -1108631.5, -1151035.1, 110538.25, -0.11126343, -0.23863745, -1017280.1, 123825.94, 0.0, 10.000259, 9.9997 
3.6501762e+2, 1.9355959e+2, -1046605.4, -1046453.3, 35956.332, 0.05100426, -0.15343745, -1010572.94, 32521.83, 0.0, 9.999906, 9.999917 
3.650051e+2, 2.0355922e+2, -1075415.4, -1182258.5, 2047.8574, 0.14263672, -0.111584805, -1075376.1, -130277.125, 0.0, 9.999786, 9.998367 
3.6499098e+2, 2.1355674e+2, -962979.44, -1111702.5, 46308.406, 0.09958619, -0.1807526, -949739.0, -102608.43, 0.0, 10.000032, 9.99806 
3.6497685e+2, 2.2355543e+2, -761803.56, -731337.06, 114797.86, 0.022870129, -0.20143113, -630766.2, 118380.24, 0.0, 9.999731, 10.000146 
3.6496302e+2, 2.3355629e+2, -827814.44, -678411.06, 104092.43, -0.09861565, -0.17018884, -624989.5, 26144.947, 0.0, 9.998457, 10.000452 
3.649499e+2, 2.4355698e+2, -867129.06, -663888.8, 59971.17, -0.10077557, -0.1363471, -647512.4, -94385.98, 0.0, 9.997593, 10.000293 
3.6493808e+2, 2.535573e+2, -795874.06, -583558.8, 52425.867, 0.0955156, -0.14172101, -571319.2, -116193.12, 0.0, 9.997431, 10.000249 
3.64924e+2, 2.6355785e+2, -781660.25, -532871.9, 61658.605, 0.090175584, -0.1026891, -518429.16, -161306.66, 0.0, 9.996892, 10.000181 
3.6490622e+2, 2.7355906e+2, -859829.44, -530006.2, 120503.96, -0.25322464, -0.0053234096, -490670.28, -231558.17, 0.0, 9.995721, 10.000095 
3.6489144e+2, 2.835602e+2, -804669.4, -361191.22, 116973.266, -0.26352027, 0.06460633, -332229.34, -171127.14, 0.000000055764154, 9.9950285, 10.000918 
3.6488172e+2, 2.9356083e+2, -699571.5, -255359.3, 63469.598, 0.28441548, 0.016245227, -246468.63, -183372.78, 0.0000011854916, 9.995058, 10.0009575 
3.648662e+2, 3.0355954e+2, -700668.25, -348256.22, -49678.8, 0.37317708, -0.15294172, -341387.0, -341387.0, 0.0000066145303, 9.995226, 9.999906 
3.6484116e+2, 3.1356114e+2, -511893.25, -59797.547, 35534.25, -0.2990302, 0.010347052, -57021.637, -57021.637, 0.00002317202, 9.995656, 10.001677 
3.751124e+2, 1.2358443e+2, -1183301.1, -1730572.1, -57944.004, -0.012890426, -0.1354166, -1177233.4, 551621.4, 0.000051895368, 10.004798, 9.997575 
3.7509835e+2, 1.335818e+2, -1207814.1, -1662953.6, 101642.94, -0.17197666, -0.1881996, -1186146.5, 444735.53, 0.000021050106, 10.0038395, 9.997834 
3.7508675e+2, 1.4358075e+2, -1167807.4, -1544410.0, -1338.2424, -0.033958927, -0.09451613, -1167802.6, 365091.34, 0.000004428325, 10.0032425, 9.998251 
3.750734e+2, 1.53579e+2, -1056245.5, -1445793.6, -16059.728, 0.11245158, -0.10365348, -1055584.5, 379327.56, 0.00000011962439, 10.003354, 9.998205 
3.750596e+2, 1.6357745e+2, -959990.7, -1230745.1, 41910.652, 0.1771929, -0.12026346, -953651.7, 383274.22, 0.0, 10.002841, 9.999251 
3.7504444e+2, 1.7357643e+2, -1070695.1, -1220191.4, 89721.766, 0.014020263, -0.17107953, -1028664.56, 210265.88, 0.0, 10.0013485, 9.999373 
3.7502962e+2, 1.8357503e+2, -1203174.0, -1344323.4, 87807.09, -0.10588067, -0.20314804, -1161094.9, -20152.625, 0.0, 10.000248, 9.998376 
3.750159e+2, 1.9357292e+2, -1172690.8, -1301693.3, 26701.588, -0.11745569, -0.24475227, -1167382.4, -124415.195, 0.0, 9.99988, 9.998176 
3.7500268e+2, 2.035717e+2, -1012693.8, -1047327.9, 5726.925, -0.08180757, -0.22836037, -1011771.44, -66788.52, 0.0, 9.999764, 9.999305 
3.7499017e+2, 2.1357204e+2, -868950.8, -909278.3, 60431.527, 0.010918049, -0.15152895, -825407.9, 21574.969, 0.0, 10.0, 9.999466 
3.7497693e+2, 2.235722e+2, -776698.4, -753294.6, 70860.58, 0.051283155, -0.1014235, -693176.2, 55806.484, 0.0, 9.999693, 10.000013 
3.749626e+2, 2.3357208e+2, -860167.0, -735621.56, 58451.848, 0.006890458, -0.13263716, -712486.4, -61503.98, 0.0, 9.998412, 10.000079 
3.749484e+2, 2.4357238e+2, -874526.4, -668630.9, 45906.61, -0.016843708, -0.11552929, -658859.25, -105879.6, 0.0, 9.997549, 10.000281 
3.7493446e+2, 2.5357327e+2, -797737.7, -581133.44, 50695.777, -0.012826107, -0.06542828, -569855.4, -114881.4, 0.0, 9.997403, 10.000278 
3.7491983e+2, 2.635738e+2, -682870.25, -321514.3, 18284.518, -0.023440484, -0.09790701, -320591.5, 36376.375, 0.0, 9.996865, 10.001645 
3.7490392e+2, 2.7357388e+2, -747077.7, -281012.25, 79997.82, -0.058389172, -0.28273696, -267663.34, -8705.012, 0.0, 9.995657, 10.001836 
3.7488917e+2, 2.8357494e+2, -877746.2, -497731.53, 111604.2, 0.00042306478, -0.27554986, -467379.4, -306434.06, 0.00000003400916, 9.994962, 10.000014 
3.7487608e+2, 2.9357705e+2, -798517.75, -452393.13, 68622.21, 0.20896032, -0.047254194, -439284.63, -376351.56, 0.0000008994765, 9.995019, 9.999625 
3.7486e+2, 3.0357525e+2, -626181.0, -188833.23, -37915.063, 0.22225739, -0.24077111, -185570.61, -185570.61, 0.000005653272, 9.995205, 10.001012 
3.7483904e+2, 3.1357598e+2, -443717.84, 87623.95, 53918.617, -0.0918296, -0.3070794, 93040.2, 93040.2, 0.000021689997, 9.995626, 10.002706 
3.8511667e+2, 1.23599336e+2, -1247420.6, -1740171.0, -79575.734, -0.035835832, -0.16319993, -1234888.5, 493820.28, 0.000046341724, 10.004275, 9.997754 
3.8510248e+2, 1.3359664e+2, -1290834.0, -1700108.3, 104329.03, -0.11171953, -0.22828665, -1265773.6, 364962.66, 0.000017966191, 10.003255, 9.997862 
3.850909e+2, 1.4359577e+2, -1251948.1, -1559595.8, 68682.78, 0.093964994, -0.1280795, -1237311.0, 295435.3, 0.0000034200007, 10.002546, 9.9984865 
3.8507605e+2, 1.5359442e+2, -1199877.1, -1483264.9, 65358.35, 0.1057263, -0.12436419, -1185529.8, 249231.13, 0.00000006772674, 10.0022335, 9.998488 
3.850615e+2, 1.6359314e+2, -1100529.3, -1318701.4, 79815.36, 0.13092501, -0.12237765, -1074447.8, 262324.97, 0.0, 10.001954, 9.99908 
3.8504666e+2, 1.7359215e+2, -1032012.44, -1225645.9, 22416.988, 0.08682064, -0.14826226, -1029451.06, 209327.52, 0.0, 10.001716, 9.999159 
3.8503146e+2, 1.8359065e+2, -1077471.6, -1284130.5, 14887.46, 0.012058703, -0.17709924, -1076404.6, 64387.645, 0.0, 10.00111, 9.998375 
3.8501614e+2, 1.935882e+2, -1178491.6, -1302525.0, 75973.09, -0.074976906, -0.25589538, -1142437.0, -99616.65, 0.0, 9.9998255, 9.9981985 
3.8500205e+2, 2.035872e+2, -1070537.1, -1021918.8, 160433.31, -0.08927954, -0.23897804, -883963.44, 60869.87, 0.0, 9.999129, 9.999788 
3.8498983e+2, 2.1358868e+2, -912659.1, -868858.75, 154439.5, 0.010219165, -0.101873316, -734774.4, 112045.91, 0.0, 9.999425, 10.000025 
3.8497642e+2, 2.2358942e+2, -869998.94, -800824.2, 84569.875, 0.06434457, -0.027078269, -744042.25, 4771.7417, 0.0, 9.999067, 9.999986 
3.8496098e+2, 2.3358884e+2, -988308.1, -809662.06, 73645.63, 0.046578933, -0.09034912, -783216.9, -132397.81, 0.0, 9.997597, 9.999959 
3.8494596e+2, 2.4358884e+2, -982304.5, -730405.3, 125929.484, 0.018449267, -0.09433831, -678249.5, -125429.414, 0.0, 9.996851, 10.000192 
3.8493165e+2, 2.535897e+2, -816659.4, -603187.0, 123093.17, -0.030897232, -0.040158976, -546998.25, -92183.06, 0.0, 9.997326, 10.000167 
3.8491693e+2, 2.635901e+2, -583515.8, -239846.63, 16594.266, -0.022649873, -0.0877215, -239047.22, 117762.38, 0.0, 9.997393, 10.001954 
3.8490152e+2, 2.7359012e+2, -567776.44, -151658.3, -37099.77, 0.08782022, -0.31659654, -148376.48, 110423.29, 0.0, 9.996701, 10.002219 
3.8488618e+2, 2.8359142e+2, -686045.1, -420684.0, 5567.128, 0.14198235, -0.30567482, -420567.25, -259782.77, 0.000000026095549, 9.996351, 9.999868 
3.848707e+2, 2.9359406e+2, -581768.5, -370915.03, 45903.38, 0.0932508, -0.0026072722, -361355.2, -298587.3, 0.0000006696504, 9.9966135, 9.999412 
3.848545e+2, 3.0359212e+2, -345643.72, -1333.5029, -20823.955, 0.074482225, -0.22242878, -78.639175, -78.639175, 0.000004955279, 9.996904, 10.001479 
3.8483712e+2, 3.135926e+2, -246899.03, 169054.23, -21349.506, 0.08929023, -0.36005816, 170147.16, 170147.16, 0.000021234744, 9.997039, 10.0025835 
3.9512187e+2, 1.2361446e+2, -1205533.3, -1652984.1, -123670.74, 0.036531497, -0.17771599, -1173627.0, 554934.3, 0.000040237814, 10.004277, 9.998354 
3.9510807e+2, 1.3361152e+2, -1252305.1, -1623749.9, 68515.72, 0.1112537, -0.32102036, -1240069.9, 390519.2, 0.000014593971, 10.003271, 9.99838 
3.9509603e+2, 1.4361088e+2, -1218415.6, -1491601.1, 50241.945, 0.34423962, -0.24410032, -1209468.6, 323125.97, 0.0000023747907, 10.002552, 9.998951 
3.9507747e+2, 1.5361059e+2, -1164126.9, -1412629.8, 56380.29, 0.013017856, -0.18354067, -1151933.6, 282663.6, 0.000000028035489, 10.002248, 9.998966 
3.950614e+2, 1.636094e+2, -1185701.5, -1497029.1, 64876.76, -0.084185354, -0.1463438, -1172723.0, 163887.67, 0.0, 10.001957, 9.997858 
3.950488e+2, 1.7360704e+2, -1135781.9, -1441058.3, 16214.4375, 0.122554824, -0.16136415, -1134923.0, 103716.27, 0.0, 10.001713, 9.9976845 
3.9503467e+2, 1.8360557e+2, -988786.1, -1094354.4, -30693.006, 0.21470639, -0.16193481, -980511.06, 160145.11, 0.0, 10.001084, 9.999691 
3.950182e+2, 1.9360542e+2, -1057645.4, -1045144.0, 30062.086, 0.13765685, -0.1836279, -1020689.6, 21964.885, 0.0, 9.999798, 9.999978 
3.95003e+2, 2.0360567e+2, -1073504.6, -1019834.06, 159288.97, 0.08656332, -0.1449863, -885135.75, 59515.188, 0.0, 9.999097, 9.999819 
3.9498988e+2, 2.1360663e+2, -938499.3, -908047.5, 169108.0, 0.06462206, -0.036630776, -753481.4, 93162.24, 0.0, 9.999369, 9.999781 
3.9497524e+2, 2.2360703e+2, -870522.8, -793209.56, 34100.51, 0.0335651, 0.018942326, -780318.4, -31677.69, 0.0, 9.999025, 10.000061 
3.94958e+2, 2.3360653e+2, -984666.9, -793138.1, 21139.988, -0.017467689, -0.050993938, -790832.56, -140187.52, 0.0, 9.997557, 10.000093 
3.9494234e+2, 2.4360631e+2, -1000142.75, -759077.75, 131967.0, -0.03229298, -0.07648825, -700883.2, -148235.08, 0.0, 9.996818, 10.000011 
3.9492944e+2, 2.5360644e+2, -837062.4, -635316.44, 146754.67, 0.008024985, -0.07101162, -558109.94, -103460.2, 0.0, 9.997281, 9.999968 
3.9491525e+2, 2.6360685e+2, -652869.56, -375308.2, -5041.0386, 0.06436263, -0.07136989, -375216.7, -18569.152, 0.0, 9.997355, 10.001043 
3.9489892e+2, 2.7360785e+2, -641630.7, -301245.3, -60444.727, 0.14797363, -0.09805146, -290830.38, -32193.766, 0.0, 9.996683, 10.001203 
3.9488238e+2, 2.836096e+2, -640411.94, -322963.25, 6575.439, 0.11999754, -0.012320426, -322827.13, -162207.44, 0.000000010243951, 9.996342, 10.000545 
3.9486545e+2, 2.9361176e+2, -514628.4, -226551.25, 61316.387, -0.10133929, 0.15188141, -214043.31, -151442.92, 0.00000051187845, 9.996592, 10.000416 
3.948497e+2, 3.0361006e+2, -365531.06, -38190.42, -14247.259, -0.10425878, -0.09837935, -37571.492, -37571.492, 0.0000058094397, 9.996887, 10.001232 
3.9483517e+2, 3.1361115e+2, -347772.2, -32644.389, -16349.324, 0.17293935, -0.120688885, -31798.432, -31798.432, 0.000025375839, 9.997011, 10.001209 
4.051254e+2, 1.2363061e+2, -1437472.1, -1702319.3, -95459.48, 0.062311247, -0.13509744, -1406652.0, 321755.6, 0.00003342241, 10.002409, 9.998918 
4.0511084e+2, 1.3362837e+2, -1322301.8, -1607306.4, 78914.84, 0.10063785, -0.25455946, -1301910.1, 328516.75, 0.000011011933, 10.002571, 9.998831 
4.0509886e+2, 1.4362788e+2, -1221278.5, -1486123.6, 56204.492, 0.3766969, -0.1915357, -1209844.6, 322584.84, 0.0000014144953, 10.002507, 9.999007 
4.0507957e+2, 1.536269e+2, -1183152.3, -1421673.6, 19930.455, 0.008983131, -0.19881567, -1181498.4, 252939.08, 0.000000006286357, 10.002114, 9.998968 
4.0506306e+2, 1.6362551e+2, -1222256.0, -1519198.4, 55349.254, -0.10023512, -0.18243667, -1212274.6, 124178.91, 0.0, 10.00174, 9.997803 
4.0505046e+2, 1.7362367e+2, -1191747.0, -1477900.6, 100955.13, 0.13662311, -0.1362025, -1159715.5, 78764.62, 0.0, 10.001379, 9.997588 
4.0503606e+2, 1.8362278e+2, -950963.2, -1047991.5, 76707.52, 0.24546213, -0.08300112, -908715.75, 231776.97, 0.0, 10.001223, 9.999944 
4.0501902e+2, 1.9362332e+2, -803385.7, -886941.6, 24412.28, 0.16380686, -0.06638691, -796776.06, 245706.81, 0.0, 10.0013895, 10.000299 
4.0500313e+2, 2.0362346e+2, -816572.56, -895745.56, 90847.445, 0.106343314, -0.057627894, -757061.4, 187416.88, 0.0, 10.000863, 9.999817 
4.0498936e+2, 2.1362291e+2, -973376.3, -932747.9, 107052.72, 0.08823084, -0.09383566, -844099.0, 2383.6104, 0.0, 9.999162, 9.999711 
4.049741e+2, 2.2362266e+2, -952931.4, -842179.3, -1869.8933, 0.047328062, -0.097106606, -842147.75, -93662.875, 0.0, 9.998504, 9.999973 
4.0495637e+2, 2.3362294e+2, -687709.2, -663719.5, -35096.24, -0.035538927, -0.07965299, -638625.0, 11858.49, 0.0, 9.999649, 9.999976 
4.0494022e+2, 2.4362306e+2, -607049.56, -567065.44, 53866.184, -0.058205806, -0.06375819, -529601.0, 22882.809, 0.0, 9.999503, 10.000036 
4.0492675e+2, 2.5362298e+2, -843281.75, -629869.9, 77378.04, 0.02007, -0.08776862, -604767.1, -150280.27, 0.0, 9.997208, 10.000036 
4.0491202e+2, 2.6362348e+2, -890956.25, -542125.9, -14959.022, 0.07663215, -0.061639424, -541485.56, -185000.75, 0.0, 9.99595, 10.000572 
4.0489492e+2, 2.7362514e+2, -717319.7, -400631.4, -34546.523, 0.09550091, 0.029846268, -396906.63, -138434.28, 0.0, 9.996438, 10.000635 
4.048781e+2, 2.8362688e+2, -573399.06, -214973.39, 54215.17, 0.057333246, 0.12364163, -206952.34, -46496.418, 0.0000000008315615, 9.996471, 10.001223 
4.0486193e+2, 2.9362828e+2, -576916.9, -153282.36, 95338.87, -0.063334584, 0.118169576, -132815.2, -70375.984, 0.00000071034475, 9.99572, 10.001334 
4.048466e+2, 3.0362752e+2, -598930.1, -130211.19, 42873.363, -0.01109308, -0.097031966, -126321.87, -126321.87, 0.000009258835, 9.9951935, 10.001416 
4.048313e+2, 3.1363022e+2, -699514.06, -265243.38, 68625.08, 0.19569331, 0.03687233, -254657.05, -254657.05, 0.000036115405, 9.99485, 10.000657 
4.1512698e+2, 1.2364768e+2, -1389612.1, -1616510.3, -95047.96, -0.041248597, -0.04224886, -1355058.5, 373189.5, 0.000026017107, 10.002463, 9.999478 
4.1511074e+2, 1.3364725e+2, -1288734.1, -1546119.4, 86618.07, -0.17286834, -0.026283748, -1262299.5, 367949.44, 0.0000074121376, 10.002604, 9.999234 
4.1509932e+2, 1.4364676e+2, -1241375.9, -1532494.9, 42514.336, 0.16413938, 0.028648786, -1235294.3, 296956.72, 0.00000065885274, 10.002527, 9.998681 
4.1508228e+2, 1.5364346e+2, -1211704.1, -1481945.3, 10235.153, 0.059927855, -0.16942564, -1211317.1, 222963.72, 0.0000000002364484, 10.002121, 9.998551 
4.1506633e+2, 1.636415e+2, -1150978.0, -1372358.4, 38734.934, 0.046370614, -0.22874863, -1144396.3, 191904.48, 0.0, 10.001741, 9.998811 
4.1505146e+2, 1.73642e+2, -1104910.0, -1296972.5, 90325.61, 0.089651786, -0.07321371, -1069105.4, 169196.14, 0.0, 10.001376, 9.998832 
4.150356e+2, 1.8364222e+2, -1007655.06, -1164236.9, 77064.055, 0.06779641, 0.05659623, -976090.0, 164212.73, 0.0, 10.001215, 9.999149 
4.150185e+2, 1.9364192e+2, -884632.9, -1049872.4, 34210.42, -0.03413168, 0.0975966, -877830.1, 164475.13, 0.0, 10.001367, 9.99919 
4.150024e+2, 2.0364061e+2, -823155.6, -904274.56, 32966.355, -0.058762155, 0.027137442, -811448.0, 132866.84, 0.0, 10.000835, 9.999773 
4.1498807e+2, 2.136376e+2, -971647.9, -916163.0, 45308.914, 0.039553896, -0.26945385, -890777.9, -44441.125, 0.0, 9.999107, 9.99985 
4.1497284e+2, 2.236363e+2, -977699.94, -888233.6, 24980.168, 0.0634772, -0.3726357, -881731.4, -133384.9, 0.0, 9.998478, 9.999672 
4.14956e+2, 2.3363796e+2, -716627.9, -717445.25, 12683.879, -0.04467829, -0.18079747, -704346.1, -54010.965, 0.0, 9.999622, 9.9996195 
4.1493943e+2, 2.4363907e+2, -593109.8, -534557.2, -19556.018, -0.09358161, -0.056391183, -528626.4, 23701.248, 0.0, 9.999488, 10.000265 
4.149235e+2, 2.5363913e+2, -825673.9, -585601.5, -8498.359, -0.03521056, -0.09401748, -585301.06, -130973.61, 0.0, 9.997174, 10.000357 
4.1490698e+2, 2.6363993e+2, -894312.94, -540334.56, -12998.133, -0.025989253, -0.06049456, -539857.94, -183535.95, 0.0, 9.995915, 10.0006 
4.1488928e+2, 2.736419e+2, -725685.75, -407482.25, -10710.585, -0.11705069, 0.06665335, -407122.16, -148815.28, 0.0, 9.996394, 10.000608 
4.1487324e+2, 2.836433e+2, -529944.75, -119638.73, 29305.096, -0.08445452, 0.0947394, -117556.25, 42736.97, 0.00000000001177225, 9.996447, 10.001891 
4.148601e+2, 2.9364341e+2, -526597.5, -40249.848, 70387.11, 0.17357983, -0.114770584, -30267.885, 32017.473, 0.0000013013552, 9.995681, 10.0021305 
4.148453e+2, 3.0364448e+2, -556940.1, -31408.852, 29174.506, 0.33186638, -0.22535132, -29794.209, -29794.209, 0.000013961503, 9.995146, 10.002117 
4.1482508e+2, 3.1364992e+2, -691082.56, -219436.42, 62788.082, 0.07395886, 0.12043888, -211220.84, -211220.84, 0.00004972542, 9.994734, 10.001025 
4.2513126e+2, 1.23665415e+2, -1317883.6, -1625641.4, 71850.63, 0.108900174, -0.08928613, -1301935.5, 426135.7, 0.000018965507, 10.003145, 9.999086 
4.2511287e+2, 1.3366503e+2, -1261356.1, -1599441.6, 159736.2, -0.239341, -0.011602878, -1197824.0, 432251.03, 0.000004437736, 10.003076, 9.998644 
4.2510122e+2, 1.4366424e+2, -1206607.9, -1544886.6, 67095.0, 0.08654959, 0.06090321, -1193786.1, 338295.94, 0.00000021832761, 10.002888, 9.9984255 
4.2508486e+2, 1.536608e+2, -1196566.6, -1497421.4, 38851.926, 0.10013317, -0.13234574, -1191630.4, 242483.78, 0.0, 10.002318, 9.998352 
4.2506886e+2, 1.6365884e+2, -1120951.8, -1321658.6, 67151.46, 0.122201994, -0.19151765, -1100557.0, 235576.27, 0.0, 10.001794, 9.999133 
4.2505255e+2, 1.736596e+2, -1065708.4, -1232366.8, 51413.664, 0.060615, -0.05147967, -1051123.8, 187005.38, 0.0, 10.001444, 9.999244 
4.2503595e+2, 1.836597e+2, -1057689.0, -1246305.6, 26607.926, -0.012113969, 0.06523408, -1054007.3, 86123.76, 0.0, 10.001126, 9.998628 
4.2501917e+2, 1.936587e+2, -1008092.94, -1184696.9, 11597.383, -0.07226199, 0.10211288, -1007334.6, 34809.12, 0.0, 10.000847, 9.998513 
4.2500284e+2, 2.0365706e+2, -887181.56, -936004.6, -3191.069, -0.074307226, 0.036483176, -886973.94, 57184.19, 0.0, 10.000401, 9.999764 
4.249872e+2, 2.1365435e+2, -881484.56, -863512.94, -6399.6406, 0.013436116, -0.23568, -861467.0, -15291.366, 0.0, 9.999682, 9.999936 
4.2497128e+2, 2.2365315e+2, -917536.44, -844352.7, 34923.93, 0.045010235, -0.34028548, -830361.5, -82178.24, 0.0, 9.998832, 9.999801 
4.2495486e+2, 2.3365451e+2, -968314.0, -823031.7, 58618.92, -0.026446948, -0.19168355, -802329.8, -152156.17, 0.0, 9.997829, 9.999759 
4.249381e+2, 2.4365555e+2, -885179.2, -644088.56, 20686.854, -0.06574862, -0.09368799, -642326.4, -90161.12, 0.0, 9.997344, 10.000548 
4.2492083e+2, 2.53656e+2, -723481.2, -503964.56, 20579.154, -0.040729158, -0.1253908, -502051.97, -47892.29, 0.0, 9.99773, 10.000652 
4.2490345e+2, 2.6365665e+2, -637159.44, -418122.6, 47284.645, -0.053881086, -0.116461486, -408350.94, -52197.71, 0.0, 9.997686, 10.000589 
4.2488572e+2, 2.7365777e+2, -649764.7, -376716.8, 43592.06, -0.13761526, -0.07188732, -369926.22, -111781.13, 0.0, 9.996941, 10.00056 
4.248696e+2, 2.836586e+2, -568933.9, -197022.28, 38798.06, -0.08853692, -0.07318893, -193017.95, -32880.65, 0.0000000012455732, 9.996434, 10.001366 
4.248565e+2, 2.9365903e+2, -472150.34, -80506.0, -32682.912, 0.21657985, -0.19085698, -77797.33, -15666.97, 0.0000019618685, 9.996337, 10.001543 
4.248417e+2, 3.0366114e+2, -369802.56, 65365.61, -135749.55, 0.4023452, -0.16632843, 104239.66, 104239.66, 0.000018429422, 9.996403, 10.00218 
4.2482036e+2, 3.136656e+2, -387343.2, -41994.395, -151742.77, 0.041885626, 0.06031998, 15205.775, 15205.775, 0.00006268099, 9.996693, 10.0013 
4.351378e+2, 1.236839e+2, -1403223.9, -1815634.3, 73599.33, 0.42991757, -0.25683218, -1390482.9, 337393.9, 0.000013718704, 10.003201, 9.997755 
4.351171e+2, 1.3368171e+2, -1365462.6, -1826985.5, 159826.06, -0.13602193, -0.20201609, -1315519.3, 314385.63, 0.000002582885, 10.0031185, 9.997065 
4.351044e+2, 1.436804e+2, -1220871.3, -1574492.6, 47046.527, 0.10727566, -0.088077396, -1214719.0, 317203.28, 0.000000047491298, 10.002891, 9.998219 
4.3508714e+2, 1.5367891e+2, -1195486.4, -1496653.1, 19780.8, 0.088665865, -0.08387716, -1194192.8, 239744.81, 0.0, 10.002326, 9.998353 
4.3507037e+2, 1.6367751e+2, -1144288.8, -1372173.8, 49290.586, 0.08975803, -0.07107474, -1134084.4, 201867.45, 0.0, 10.001801, 9.998784 
4.3505365e+2, 1.736765e+2, -1093333.9, -1290730.6, 42010.254, 0.017950403, -0.06721073, -1084765.3, 153197.42, 0.0, 10.001446, 9.998843 
4.35037e+2, 1.8367527e+2, -1079550.4, -1286374.5, 12044.528, -0.026491286, -0.04969086, -1078851.3, 61125.67, 0.0, 10.001104, 9.998362 
4.3502092e+2, 1.9367363e+2, -1030255.8, -1223153.4, 4530.1895, 0.011989363, -0.054174624, -1030149.44, 11848.811, 0.0, 10.000815, 9.998264 
4.3500426e+2, 2.0367278e+2, -893139.25, -938634.56, -31136.445, 0.021876402, -0.02705711, -877326.1, 66681.96, 0.0, 10.0003605, 9.9997635 
4.349865e+2, 2.1367326e+2, -884361.44, -860081.8, -30714.207, -0.026244357, 0.015130925, -839195.3, 6803.4634, 0.0, 9.999644, 9.999976 
4.3496928e+2, 2.2367331e+2, -884617.6, -767798.4, -5847.8047, -0.043678842, 0.0100941295, -767506.4, -19511.896, 0.0, 9.9987955, 10.000344 
4.3495288e+2, 2.336726e+2, -932388.3, -735343.75, 22696.033, -0.012471916, -0.10936128, -732763.4, -82764.484, 0.0, 9.997774, 10.000387 
4.349361e+2, 2.4367253e+2, -868598.6, -598201.06, 25812.04, -0.0045550438, -0.17287062, -595759.1, -43762.51, 0.0, 9.997296, 10.000886 
4.3491867e+2, 2.5367352e+2, -707509.56, -463111.8, 39294.453, -0.03675967, -0.17864077, -456949.4, -2966.2412, 0.0, 9.997699, 10.000947 
4.3490136e+2, 2.6367372e+2, -641648.44, -428007.38, 22646.264, -0.03772647, -0.22969052, -425633.22, -69655.09, 0.0, 9.997686, 10.000523 
4.3488413e+2, 2.7367258e+2, -658901.75, -393428.4, 19451.316, 0.0009349946, -0.40049854, -392010.78, -134022.88, 0.0, 9.996927, 10.000452 
4.348671e+2, 2.8367272e+2, -698419.0, -459594.53, 29926.86, 0.013846953, -0.38960475, -455901.53, -295912.56, 0.000000012355592, 9.996412, 9.999571 
4.3485093e+2, 2.936752e+2, -623570.4, -385083.28, -31501.424, 0.017741667, -0.09569681, -380992.47, -319018.8, 0.0000026583295, 9.9963, 9.999468 
4.348357e+2, 3.0367753e+2, -412950.8, -26730.791, -131285.63, 0.15279694, 0.0958755, 13670.211, 13670.211, 0.000022356537, 9.996409, 10.001545 
4.3481714e+2, 3.1367657e+2, -384685.88, -29429.518, -129749.62, 0.028554583, -0.17862038, 12912.148, 12912.148, 0.000073377385, 9.996671, 10.001391 
4.4514158e+2, 1.23701885e+2, -1190691.8, -1761231.4, -55054.586, 0.40383586, -0.28076217, -1185427.8, 542270.8, 0.000011010127, 10.004885, 9.997314 
4.4512078e+2, 1.3369927e+2, -1257565.3, -1832082.5, 73844.07, -0.124615826, -0.21904139, -1248225.8, 381507.06, 0.0000016611234, 10.00412, 9.996543 
4.4510826e+2, 1.4369753e+2, -1160129.0, -1558393.4, 7442.937, 0.18520454, -0.11117583, -1159990.0, 371765.97, 0.000000013935479, 10.003367, 9.998099 
4.450897e+2, 1.5369654e+2, -1157569.3, -1480684.0, -33291.273, 0.098956086, -0.053195592, -1154174.9, 279592.72, 0.0, 10.002602, 9.998329 
4.4507205e+2, 1.6369529e+2, -1113345.0, -1368718.3, 23155.473, 0.068394326, -0.021699362, -1111262.4, 224518.19, 0.0, 10.002051, 9.998692 
4.450553e+2, 1.7369387e+2, -1048116.8, -1279105.8, 34407.074, 0.024935964, -0.049627777, -1043100.6, 194693.17, 0.0, 10.0018015, 9.998753 
4.450384e+2, 1.8369232e+2, -1039928.5, -1248709.6, 27256.453, -0.00023376364, -0.065952845, -1036428.8, 103381.13, 0.0, 10.00129, 9.998534 
4.4502178e+2, 1.9369052e+2, -1091276.6, -1227541.6, 44740.875, 0.045964375, -0.10607283, -1077899.6, -36067.656, 0.0, 10.000284, 9.99849 
4.4500458e+2, 2.0369002e+2, -971419.75, -973061.3, 52587.27, 0.047948133, -0.05779438, -919646.9, 24192.174, 0.0, 9.999812, 9.999789 
4.4498637e+2, 2.1369164e+2, -806215.56, -823241.7, 45802.32, -0.030489556, 0.09986925, -768141.9, 77679.45, 0.0, 10.000189, 9.999966 
4.449684e+2, 2.236921e+2, -702352.4, -679024.5, 28549.973, -0.0692328, 0.13622844, -659847.75, 87966.195, 0.0, 10.000041, 10.000354 
4.4495097e+2, 2.3369056e+2, -746900.3, -645787.44, 1702.3706, -0.039312746, -0.06609166, -645758.75, 4065.632, 0.0, 9.9990425, 10.000393 
4.449336e+2, 2.4368997e+2, -733786.25, -546369.1, 3587.846, -0.028813496, -0.17769216, -546300.5, 5525.5537, 0.0, 9.998276, 10.00077 
4.449163e+2, 2.5369102e+2, -687023.3, -467581.94, -17213.482, -0.050705325, -0.16640505, -466239.88, -12427.372, 0.0, 9.997902, 10.000817 
4.4489917e+2, 2.636913e+2, -664654.75, -453125.4, -66396.59, -0.020025799, -0.19552359, -434011.44, -78204.89, 0.0, 9.997591, 10.000392 
4.448821e+2, 2.736903e+2, -599598.44, -381337.66, -79428.53, 0.08623182, -0.338774, -355492.72, -97678.18, 0.0, 9.997406, 10.000303 
4.4486454e+2, 2.8369015e+2, -609718.5, -454051.8, -7624.2915, 0.07943233, -0.3343192, -453679.28, -293860.88, 0.00000003060041, 9.997174, 9.999243 
4.448466e+2, 2.9369172e+2, -577482.9, -400278.7, 53118.637, -0.065227345, -0.09907167, -385575.78, -323763.3, 0.000003132682, 9.996778, 9.999129 
4.4483113e+2, 3.036935e+2, -450197.16, -115125.445, 48792.51, 0.061868366, 0.087224565, -108164.96, -108164.96, 0.000025258936, 9.996459, 10.000913 
4.4481412e+2, 3.136917e+2, -428365.1, -70355.91, 32720.662, 0.07665274, -0.20494103, -67389.94, -67389.94, 0.00008019797, 9.996431, 10.001238 
4.551424e+2, 1.237194e+2, -1164787.9, -1701879.8, -69861.73, -0.02132792, -0.16937481, -1155849.5, 571686.3, 0.000010069824, 10.0048685, 9.997726 
4.5512384e+2, 1.337175e+2, -1227386.6, -1767594.9, 47815.906, -0.23892212, -0.079146, -1223187.0, 406373.03, 0.0000013447798, 10.004115, 9.996986 
4.551127e+2, 1.4371553e+2, -1160685.8, -1559788.1, -21680.422, 0.28144017, -0.018661141, -1159511.4, 372072.44, 0.000000007555667, 10.003366, 9.998091 
4.550923e+2, 1.5371369e+2, -1160847.0, -1490995.9, -55289.945, 0.0915992, -0.040298536, -1151833.6, 281770.34, 0.0, 10.002616, 9.998251 
4.5507377e+2, 1.6371222e+2, -1098968.0, -1340297.6, 7898.1216, 0.024846701, -0.034707148, -1098709.8, 236909.1, 0.0, 10.002057, 9.998884 
4.5505744e+2, 1.7371157e+2, -1031569.7, -1247528.4, 28651.244, 0.049109675, -0.006356002, -1027833.2, 209790.27, 0.0, 10.00181, 9.998966 
4.550401e+2, 1.837107e+2, -1000079.8, -1161176.8, -8301.98, 0.033785738, 0.0062446897, -999653.06, 139978.0, 0.0, 10.001271, 9.999143 
4.5502162e+2, 1.9370934e+2, -1048384.2, -1133318.3, 10981.14, -0.0095482245, -0.054324817, -1046987.4, -5342.23, 0.0, 10.000262, 9.999147 
4.5500365e+2, 2.0370875e+2, -973891.6, -968776.1, 55186.6, -0.03161655, -0.053008873, -916088.06, 27563.107, 0.0, 9.999772, 9.999839 
4.5498657e+2, 2.1370946e+2, -817425.3, -832009.9, 63744.633, -0.034667913, 0.015200692, -760557.2, 85086.47, 0.0, 10.000128, 9.999935 
4.5496854e+2, 2.2370948e+2, -746765.8, -761870.56, -5083.4106, -0.06635301, 0.03339332, -745214.4, 2427.7212, 0.0, 9.999998, 9.999807 
4.54949e+2, 2.3370837e+2, -793214.9, -736303.2, -32203.244, -0.14681605, -0.0645012, -721784.8, -72134.45, 0.0, 9.999017, 9.999783 
4.5493048e+2, 2.437079e+2, -779103.7, -633580.44, -16889.307, -0.17640464, -0.10516266, -631646.0, -79992.555, 0.0, 9.998247, 10.000186 
4.5491362e+2, 2.5370842e+2, -732994.6, -552382.6, -28970.742, -0.115874104, -0.087152466, -547849.44, -94201.35, 0.0, 9.997856, 10.0002575 
4.548967e+2, 2.6370943e+2, -685829.0, -488585.66, -76607.75, -0.028518466, -0.006853599, -462327.44, -106688.68, 0.0, 9.997556, 10.000165 
4.548795e+2, 2.7371106e+2, -617866.75, -411744.94, -82472.07, 0.07988781, 0.13320038, -382808.9, -125184.484, 0.0, 9.997376, 10.000108 
4.548617e+2, 2.8371105e+2, -524071.78, -272132.66, -23779.848, 0.072489135, 0.110463515, -269907.78, -110283.37, 0.000000022691747, 9.997155, 10.000504 
4.5484346e+2, 2.9370862e+2, -476974.56, -184971.2, 42119.54, -0.061891917, -0.19947363, -179017.14, -117371.39, 0.0000032965943, 9.996746, 10.000627 
4.548281e+2, 3.037091e+2, -496934.25, -207516.11, 48061.81, 0.1063515, -0.20326921, -199743.53, -199743.53, 0.000026467469, 9.996443, 10.000285 
4.5481116e+2, 3.1371126e+2, -461665.0, -121124.95, 59587.23, 0.122119784, -0.009522898, -110999.52, -110999.52, 0.00008171888, 9.996363, 10.000919 
4.6514612e+2, 1.2373793e+2, -1318460.1, -1726159.6, 26067.537, -0.06387772, -0.08314143, -1316800.1, 410559.25, 0.000009633629, 10.003589, 9.998179 
4.651273e+2, 1.3373624e+2, -1397302.0, -1795088.6, 107755.39, -0.22895694, -0.025718348, -1369988.0, 259390.14, 0.0000012728954, 10.002696, 9.997492 
4.6511608e+2, 1.4373395e+2, -1329043.8, -1658472.0, 69304.29, 0.342868, -0.016069168, -1315057.5, 216345.72, 0.0000000036726717, 10.002282, 9.997936 
4.6509442e+2, 1.5373188e+2, -1163427.9, -1519434.8, 17607.65, 0.041725226, -0.035980318, -1162559.1, 270867.4, 0.0, 10.002709, 9.998013 
4.650752e+2, 1.6373034e+2, -1019575.25, -1297858.6, 63467.18, -0.060576905, -0.02839052, -1005783.94, 329658.97, 0.0, 10.0026, 9.998908 
4.6505925e+2, 1.7372973e+2, -1050050.4, -1248231.8, 62950.258, 0.063955165, 0.0008229055, -1031745.56, 205700.81, 0.0, 10.001657, 9.999033 
4.6504167e+2, 1.8372901e+2, -1031091.6, -1157658.9, 11141.443, 0.079987004, 0.014994677, -1030118.4, 109333.22, 0.0, 10.000983, 9.999303 
4.6502173e+2, 1.937279e+2, -962767.8, -1074081.3, -10224.315, -0.04508688, -0.037821293, -961836.5, 79624.516, 0.0, 10.000774, 9.999309 
4.65003e+2, 2.037271e+2, -911349.6, -970055.7, 22824.785, -0.094920866, -0.056407098, -903519.7, 39948.563, 0.0, 10.000332, 9.999561 
4.6498632e+2, 2.137268e+2, -938811.9, -930120.2, 1253.2303, -0.03187502, -0.05335976, -929943.1, -84471.43, 0.0, 9.999459, 9.999584 
4.649683e+2, 2.2372645e+2, -897821.2, -836534.3, -60724.887, -0.03566397, -0.052076757, -799159.1, -51684.586, 0.0, 9.998974, 9.9997835 
4.6494803e+2, 2.3372594e+2, -770951.3, -723896.6, -48577.902, -0.15061496, -0.093503915, -693448.56, -43971.5, 0.0, 9.999166, 9.999795 
4.64929e+2, 2.4372572e+2, -651907.75, -585936.75, 18337.965, -0.18901668, -0.10169626, -581182.0, -29704.406, 0.0, 9.999178, 10.000065 
4.6491218e+2, 2.53726e+2, -588131.06, -499071.8, 33181.938, -0.09513979, -0.094515055, -488068.3, -34593.074, 0.0, 9.998919, 10.000113 
4.648948e+2, 2.637269e+2, -577111.0, -440760.53, 3401.8008, -0.00767899, -0.013574352, -440675.72, -85208.2, 0.0, 9.998309, 10.000135 
4.648764e+2, 2.7372876e+2, -655756.3, -429535.9, 3755.9175, 0.049262922, 0.15001367, -429473.56, -172021.8, 0.0, 9.997107, 10.000117 
4.6485803e+2, 2.8372902e+2, -620701.75, -271284.0, 62331.797, 0.036747202, 0.13272658, -260497.75, -101048.85, 0.00000001636591, 9.996286, 10.000929 
4.648402e+2, 2.9372674e+2, -537364.8, -156490.52, 46387.555, -0.027428571, -0.20951216, -150922.28, -89456.414, 0.0000038137496, 9.996084, 10.001141 
4.6482465e+2, 3.0372715e+2, -571030.25, -205382.03, 49996.85, 0.1531546, -0.26113722, -198668.97, -198668.97, 0.000027236774, 9.995767, 10.0006275 
4.6480632e+2, 3.1373042e+2, -574204.4, -111054.49, 161657.77, 0.057269454, 0.00986634, -60210.97, -60210.97, 0.00008037478, 9.995323, 10.001483 
4.751523e+2, 1.2375736e+2, -1278245.5, -1649804.1, 11777.692, 0.17501758, -0.02463126, -1277872.5, 449298.34, 0.000008776239, 10.003617, 9.998688 
4.7513095e+2, 1.3375546e+2, -1354757.4, -1706058.0, 76410.04, -0.13870588, -0.04729752, -1338857.4, 290329.66, 0.0000011544781, 10.002698, 9.998098 
4.751184e+2, 1.4375286e+2, -1344898.8, -1698384.4, 77354.81, 0.33550072, -0.09290141, -1328712.1, 202501.39, 0.0000000025241675, 10.002306, 9.997654 
4.7509593e+2, 1.537511e+2, -1190378.0, -1577197.0, 37865.82, -0.08953099, -0.040751386, -1186706.3, 246529.88, 0.0, 10.002717, 9.997614 
4.750763e+2, 1.6374955e+2, -1027482.06, -1315276.6, 30891.523, -0.22027151, -0.0046509495, -1024203.56, 311050.2, 0.0, 10.002601, 9.998791 
4.750607e+2, 1.7374834e+2, -1055833.4, -1260201.0, 30705.854, 0.035019398, -0.026518634, -1051319.6, 185943.42, 0.0, 10.001657, 9.998951 
4.7504294e+2, 1.8374722e+2, -1049135.8, -1193360.6, -3715.4482, 0.10300198, -0.03470366, -1049040.1, 90231.42, 0.0, 10.000973, 9.999065 
4.7502202e+2, 1.9374613e+2, -982210.8, -1113124.5, -14200.318, -0.10166254, -0.058030747, -980688.2, 60591.72, 0.0, 10.000764, 9.999047 
4.7500256e+2, 2.0374496e+2, -958657.8, -1060646.4, -9510.916, -0.17925684, -0.07248407, -957778.44, -14487.705, 0.0, 10.000299, 9.998957 
4.749856e+2, 2.137437e+2, -989984.94, -1027839.06, -29102.36, -0.059178147, -0.101233386, -974196.3, -128891.07, 0.0, 9.999423, 9.998931 
4.7496757e+2, 2.23743e+2, -866473.5, -765305.8, -61785.113, -0.011058918, -0.11933936, -736039.0, 11272.46, 0.0, 9.998944, 10.00029 
4.7494793e+2, 2.337432e+2, -730640.44, -629303.44, -37369.18, -0.080729954, -0.1544044, -617013.56, 32291.178, 0.0, 9.999117, 10.00047 
4.7492915e+2, 2.4374343e+2, -632252.25, -539542.1, 8805.515, -0.097795315, -0.1714215, -538713.2, 12585.64, 0.0, 9.999151, 10.000397 
4.7491187e+2, 2.5374368e+2, -572773.8, -464140.0, 27677.28, -0.024218824, -0.19509177, -457494.97, -4200.4844, 0.0, 9.998901, 10.000362 
4.7489333e+2, 2.6374367e+2, -564575.94, -410016.84, -39388.137, 0.007481077, -0.22660239, -400557.97, -45264.684, 0.0, 9.99829, 10.000355 
4.7487265e+2, 2.7374327e+2, -647309.75, -400555.0, -37779.65, -0.043935925, -0.31180194, -394900.28, -137602.58, 0.0, 9.997056, 10.00034 
4.7485337e+2, 2.8374386e+2, -659811.8, -344020.06, 49559.113, -0.064032234, -0.2874284, -336425.13, -177132.3, 0.0000000367379, 9.996249, 10.000447 
4.7483668e+2, 2.9374602e+2, -586166.2, -249042.42, 42881.03, 0.0056371116, -0.12733313, -243673.6, -182400.63, 0.000004802636, 9.996041, 10.000528 
4.7482058e+2, 3.0374777e+2, -478358.94, -1838.3463, 30708.125, 0.1662456, -0.074849695, 132.40802, 132.40802, 0.000029242266, 9.995718, 10.0020485 
4.7479916e+2, 3.1374916e+2, -473093.44, 111089.81, 176241.28, -0.204985, -0.15712611, 160141.13, 160141.13, 0.000080926366, 9.995266, 10.003038 
4.8515683e+2, 1.2377623e+2, -1228876.1, -1648670.5, 71102.34, 0.2473032, -0.07712694, -1217160.3, 509821.56, 0.000007320519, 10.004055, 9.998482 
4.85134e+2, 1.3377406e+2, -1175035.4, -1631287.5, 37976.246, -0.16192886, -0.11675738, -1171896.0, 457105.22, 0.00000091388534, 10.003974, 9.997995 
4.85121e+2, 1.437714e+2, -1168878.5, -1590161.0, 42809.895, 0.3128343, -0.17156549, -1164572.3, 366456.2, 0.000000012071465, 10.003424, 9.997854 
4.8509848e+2, 1.5377061e+2, -1242793.1, -1573840.9, 42512.465, -0.076490924, -0.046544217, -1237421.0, 195620.22, 0.0, 10.002236, 9.997868 
4.8507848e+2, 1.637693e+2, -1209211.4, -1454554.3, 60722.18, -0.20436125, 0.019691654, -1195005.3, 140051.67, 0.0, 10.001576, 9.998328 
4.8506206e+2, 1.7376713e+2, -1071439.0, -1330537.8, 21388.578, 0.0013868083, -0.045201086, -1069685.3, 167392.38, 0.0, 10.00182, 9.998388 
4.8504376e+2, 1.8376538e+2, -976662.4, -1188249.5, -36050.26, 0.061576635, -0.07497778, -970688.8, 168404.67, 0.0, 10.001596, 9.9988 
4.8502275e+2, 1.9376425e+2, -1026346.56, -1156936.6, -50204.79, -0.08551404, -0.08182222, -1009276.75, 31825.363, 0.0, 10.000563, 9.998841 
4.8500288e+2, 2.037631e+2, -1037177.3, -1093903.5, -16850.324, -0.15010166, -0.08438071, -1032549.5, -89437.05, 0.0, 9.999747, 9.998993 
4.8498467e+2, 2.1376184e+2, -999924.4, -1024029.7, 14150.733, -0.08259129, -0.117843606, -993389.1, -148263.25, 0.0, 9.999321, 9.999006 
4.8496613e+2, 2.2376117e+2, -881124.94, -772121.7, 16019.178, -0.04301619, -0.13720213, -769816.25, -22684.84, 0.0, 9.99884, 10.000294 
4.8494694e+2, 2.3376141e+2, -852458.5, -687580.1, -13640.201, -0.047153734, -0.16993177, -686459.3, -37334.65, 0.0, 9.998277, 10.000472 
4.8492816e+2, 2.4376166e+2, -864432.5, -644906.3, -13921.055, -0.031146174, -0.18843256, -644027.0, -92908.516, 0.0, 9.99753, 10.000453 
4.8491004e+2, 2.537619e+2, -918965.56, -622511.0, -19471.783, 0.023700422, -0.21919246, -621237.56, -168123.97, 0.0, 9.9964905, 10.000436 
4.848909e+2, 2.6376164e+2, -853293.9, -570732.56, -78504.64, 0.0315482, -0.27424943, -550386.44, -195271.69, 0.0, 9.996407, 10.000157 
4.8487005e+2, 2.7376044e+2, -548101.0, -378034.25, -112242.84, -0.040935308, -0.41219166, -322251.66, -65125.043, 0.0, 9.997847, 10.000115 
4.8485044e+2, 2.8376094e+2, -382109.6, -235800.97, -56270.957, -0.078977235, -0.37645274, -216662.4, -57539.08, 0.00000008825205, 9.998267, 10.000216 
4.848329e+2, 2.9376417e+2, -457321.4, -215283.11, -49087.047, -0.019800544, -0.084917784, -205706.8, -144612.16, 0.0000054540624, 9.997048, 10.000273 
4.84816e+2, 3.0376592e+2, -480668.13, 38203.816, -91570.414, 0.15026571, -0.031461913, 53889.938, 53889.938, 0.000030858784, 9.9955225, 10.002415 
4.8479438e+2, 3.1376642e+2, -716567.25, 15544.236, -36389.555, -0.11993929, -0.24957176, 17348.53, 17348.53, 0.00008250138, 9.9935055, 10.003226 
4.9515945e+2, 1.2379465e+2, -1283725.9, -1773679.0, 90465.29, 0.079932325, -0.22485909, -1267555.9, 459235.47, 0.0000055444975, 10.004098, 9.997604 
4.9513638e+2, 1.337921e+2, -1232085.0, -1744746.6, 34260.43, -0.32927647, -0.22587672, -1229805.6, 399014.6, 0.0000005764362, 10.003954, 9.997227 
4.9512377e+2, 1.4378963e+2, -1119663.4, -1488509.8, 158.78172, 0.23699425, -0.24861827, -1119663.3, 411184.4, 0.0000000083036555, 10.003421, 9.998554 
4.9510193e+2, 1.5379053e+2, -1180075.0, -1443625.8, -606.5779, 0.0375283, -0.044409048, -1180073.6, 252767.72, 0.0, 10.002236, 9.998762 
4.9508163e+2, 1.6378969e+2, -1263086.5, -1567798.6, 58615.633, -0.056998834, 0.053855866, -1252199.9, 82652.31, 0.0, 10.001581, 9.99755 
4.9506328e+2, 1.7378609e+2, -1142387.3, -1476896.9, 34064.004, -0.07077795, -0.05507719, -1138953.8, 97936.664, 0.0, 10.001815, 9.997386 
4.9504405e+2, 1.837834e+2, -999278.2, -1229417.8, -72280.52, -0.073544554, -0.10969632, -978460.0, 160457.75, 0.0, 10.001572, 9.998529 
4.9502397e+2, 1.9378218e+2, -1041080.56, -1182926.6, -87878.664, -0.029437138, -0.107771926, -999075.56, 41852.55, 0.0, 10.000542, 9.998674 
4.9500376e+2, 2.037814e+2, -989874.94, -991080.06, -38992.68, -0.040624507, -0.09479659, -951480.2, -8546.214, 0.0, 9.999723, 9.999711 
4.9498346e+2, 2.1378125e+2, -946216.2, -906355.2, 1820.0076, -0.14183886, -0.10151885, -906272.25, -61338.805, 0.0, 9.9992895, 9.999831 
4.949637e+2, 2.2378094e+2, -923211.9, -850532.8, -7832.7817, -0.17116211, -0.10828279, -849698.25, -102763.7, 0.0, 9.9988, 9.999775 
4.9494484e+2, 2.3378046e+2, -907916.06, -793138.8, -32335.742, -0.08751813, -0.14223032, -784655.94, -135718.48, 0.0, 9.998236, 9.999768 
4.9492577e+2, 2.437803e+2, -882881.44, -675751.06, -53961.94, -0.025912376, -0.15363814, -662535.94, -111598.62, 0.0, 9.997496, 10.000259 
4.9490637e+2, 2.5378057e+2, -936098.8, -645877.7, -56255.18, 0.005914255, -0.16698925, -635354.94, -182421.86, 0.0, 9.996434, 10.000304 
4.9488732e+2, 2.6378065e+2, -904550.1, -666546.6, -37475.28, 0.029975347, -0.15182471, -660785.3, -305852.9, 0.0, 9.996361, 9.999522 
4.9486864e+2, 2.7378032e+2, -601245.5, -482716.63, -53358.953, 0.022078298, -0.1382483, -462234.88, -205296.52, 0.0, 9.997822, 9.999408 
4.9484915e+2, 2.837803e+2, -381332.75, -232805.81, -94675.86, -0.040662244, -0.11191578, -186742.3, -27802.604, 0.00000018947561, 9.998261, 10.000239 
4.9482873e+2, 2.93781e+2, -448581.78, -195136.58, -92084.69, -0.15074265, -0.087540716, -165212.42, -104280.08, 0.000005346717, 9.997038, 10.000416 
4.9481082e+2, 3.0378136e+2, -543014.0, -84796.016, -168464.11, 0.0741389, -0.14647125, -29526.586, -29526.586, 0.000029419843, 9.995493, 10.001585 
4.9479184e+2, 3.137819e+2, -828935.3, -194084.81, -92745.21, 0.26413247, -0.26755765, -180813.13, -180813.13, 0.000078988014, 9.993403, 10.001836 
5.0516284e+2, 1.2381293e+2, -1299927.1, -1806826.6, 34868.03, 0.0142211635, -0.29712084, -1297539.9, 429070.03, 0.000003822316, 10.004119, 9.99736 
5.05139e+2, 1.3381113e+2, -1459498.5, -1866110.4, -24437.035, -0.38496146, -0.21018662, -1458035.1, 170598.11, 0.00000027176793, 10.002444, 9.997126 
5.051261e+2, 1.4380871e+2, -1393367.9, -1626070.8, -26059.44, 0.22877409, -0.22017607, -1390485.3, 140175.77, 0.000000000047981483, 10.001574, 9.9985 
5.0510466e+2, 1.5380879e+2, -1203406.9, -1460216.6, -102107.125, 0.10242984, -0.09149444, -1167757.9, 264903.66, 0.0, 10.002101, 9.998712 
5.050841e+2, 1.6380778e+2, -1155507.4, -1485646.0, -36867.4, 0.00789823, -0.019589307, -1151440.4, 183232.86, 0.0, 10.002185, 9.997822 
5.050645e+2, 1.7380503e+2, -1163239.3, -1452512.5, 28074.674, -0.10873967, -0.074978426, -1160539.8, 76163.19, 0.0, 10.00152, 9.997697 
5.050446e+2, 1.8380284e+2, -1088785.8, -1263158.1, -22917.963, -0.14377405, -0.098925956, -1085824.0, 52901.617, 0.0, 10.000919, 9.998611 
5.050245e+2, 1.9380163e+2, -1052030.1, -1180820.8, -28902.309, -0.021034272, -0.10240624, -1045841.44, -5104.7925, 0.0, 10.000441, 9.998734 
5.0500417e+2, 2.0380077e+2, -947500.7, -979028.4, 21072.055, 0.017728064, -0.09579894, -936948.56, 5794.821, 0.0, 10.000046, 9.9996395 
5.0498354e+2, 2.1380049e+2, -886307.7, -886252.4, -12679.851, -0.07902718, -0.106464565, -873600.1, -28856.238, 0.0, 9.999742, 9.999749 
5.049634e+2, 2.2380014e+2, -851807.8, -821843.4, -46432.453, -0.10777091, -0.11172007, -788035.8, -41290.51, 0.0, 9.999317, 9.999723 
5.049439e+2, 2.3379967e+2, -847021.0, -770237.4, -29720.197, -0.024007225, -0.13928643, -760077.94, -111329.875, 0.0, 9.99868, 9.999713 
5.049241e+2, 2.4379933e+2, -757735.2, -677494.5, -12974.059, 0.007952881, -0.13990143, -675448.94, -124698.13, 0.0, 9.998628, 9.9997015 
5.049039e+2, 2.5379914e+2, -527333.8, -516683.8, -55552.906, -0.03336052, -0.13720448, -466201.28, -13447.308, 0.0, 9.999539, 9.999693 
5.0488466e+2, 2.637992e+2, -496555.16, -443807.88, -39123.332, -0.0035156037, -0.10130583, -422998.84, -68244.56, 0.0, 9.999052, 9.999754 
5.048667e+2, 2.737995e+2, -792166.3, -537904.94, 11911.284, 0.1233301, -0.05447245, -537348.1, -280597.03, 0.00000000061010413, 9.996358, 9.999733 
5.048473e+2, 2.8379935e+2, -823294.94, -432771.28, 42433.324, 0.09878446, -0.06520529, -428213.78, -269461.7, 0.00000027554938, 9.995172, 10.000355 
5.0482565e+2, 2.9379877e+2, -547921.44, -233715.8, 37478.406, -0.12489026, -0.17483272, -229307.23, -168550.44, 0.000004532087, 9.996322, 10.000497 
5.048063e+2, 3.0379927e+2, -423763.78, -63150.965, -76512.195, 0.026914151, -0.20917656, -47588.754, -47588.754, 0.0000250645, 9.996468, 10.001267 
5.047866e+2, 3.138006e+2, -647589.94, -170768.16, 36451.457, 0.33508688, -0.21080072, -167997.66, -167997.66, 0.0000692816, 9.994922, 10.001267 
5.1516676e+2, 1.23831086e+2, -1266200.9, -1752029.8, 1270.9658, -0.031251036, -0.29150417, -1266197.6, 460238.97, 0.0000028115885, 10.004181, 9.997705 
5.151416e+2, 1.3383122e+2, -1418186.1, -1787421.5, -86220.79, -0.37002945, -0.06640817, -1399044.8, 229394.77, 0.0000001045094, 10.002477, 9.997648 
5.15128e+2, 1.4382865e+2, -1442708.1, -1740570.6, -18482.268, 0.24624583, -0.08304196, -1441565.8, 88902.38, 0.0, 10.001622, 9.997691 
5.151066e+2, 1.538254e+2, -1270560.4, -1601878.8, -76570.35, 0.08009879, -0.19043365, -1253720.3, 178781.16, 0.0, 10.002114, 9.997731 
5.150859e+2, 1.6382363e+2, -1066659.5, -1298898.6, -57416.938, -0.041010525, -0.19795357, -1053239.6, 281279.8, 0.0, 10.002174, 9.999107 
5.1506567e+2, 1.7382401e+2, -1052724.0, -1223031.6, 6053.3613, -0.15190072, -0.09889829, -1052509.1, 184005.92, 0.0, 10.001519, 9.999272 
5.150451e+2, 1.8382376e+2, -1059272.8, -1200177.3, -45886.7, -0.19191496, -0.036905378, -1045647.0, 92869.5, 0.0, 10.000913, 9.999045 
5.1502424e+2, 1.9382256e+2, -1035819.1, -1143743.4, -43350.2, -0.0979429, -0.06693828, -1020563.1, 19964.531, 0.0, 10.000422, 9.999 
5.1500404e+2, 2.0382115e+2, -1015060.06, -1111955.0, 5492.99, -0.006786971, -0.09057076, -1014749.6, -72208.49, 0.0, 10.000012, 9.998742 
5.149849e+2, 2.1381949e+2, -962147.7, -1038649.56, -21598.158, 0.07359697, -0.13835792, -956471.25, -111913.21, 0.0, 9.999718, 9.998714 
5.14965e+2, 2.2381863e+2, -826518.06, -762711.9, -73201.484, 0.11655525, -0.15433325, -714763.44, 31801.367, 0.0, 9.999288, 10.000144 
5.1494396e+2, 2.33819e+2, -809264.7, -682830.8, -51824.19, 0.105070844, -0.15856746, -664303.5, -15746.994, 0.0, 9.998642, 10.000331 
5.149231e+2, 2.4381875e+2, -826252.44, -815834.8, 12394.092, 0.03342377, -0.14513947, -807599.44, -257040.81, 0.0, 9.99861, 9.998762 
5.1490253e+2, 2.538175e+2, -605603.4, -679751.1, -15841.375, -0.13500792, -0.13475473, -602360.7, -149784.03, 0.0, 9.999541, 9.998573 
5.1488274e+2, 2.6381713e+2, -418040.63, -281253.1, -129509.51, -0.10603173, -0.12691748, -203187.25, 151393.52, 0.0, 9.999055, 10.000869 
5.148641e+2, 2.7381787e+2, -701555.44, -336467.88, -87190.95, 0.22281635, -0.17499052, -316713.63, -60148.105, 0.0000000018853024, 9.996301, 10.001144 
5.1484454e+2, 2.8381795e+2, -820063.2, -410329.94, 69471.48, 0.30588293, -0.2517908, -398871.3, -240310.33, 0.00000034744536, 9.995104, 10.000543 
5.148235e+2, 2.9381746e+2, -553346.4, -235429.19, 90190.49, 0.02272093, -0.3554434, -211625.22, -151057.17, 0.0000038784074, 9.996282, 10.0005045 
5.148022e+2, 3.038198e+2, -406241.1, -26258.078, -121317.32, -0.027397448, -0.2203695, 9171.5, 9171.5, 0.000021208403, 9.996463, 10.001527 
5.147782e+2, 3.1382298e+2, -630309.75, -125856.37, 2335.0593, -0.014022322, -0.061087508, -125845.555, -125845.555, 0.00006028198, 9.994889, 10.00159 
5.251722e+2, 1.2385123e+2, -1107193.3, -1668218.8, 67346.375, 0.04451106, -0.19474518, -1099222.1, 627023.06, 0.0000031817692, 10.005236, 9.997776 
5.2514553e+2, 1.3385116e+2, -1193101.6, -1652727.5, -96839.99, -0.29330435, -0.013615169, -1173531.4, 454716.53, 0.00000018909998, 10.003892, 9.997896 
5.251305e+2, 1.4384842e+2, -1256711.6, -1651252.1, 51810.17, 0.27286124, -0.058412235, -1250021.5, 280254.22, 0.0, 10.002907, 9.997682 
5.251084e+2, 1.5384485e+2, -1207310.8, -1576965.4, 58572.457, 0.024742188, -0.19499065, -1198251.9, 234058.84, 0.0, 10.002571, 9.997683 
5.2508724e+2, 1.6384293e+2, -1122493.5, -1317519.8, 43480.492, -0.099303894, -0.21799216, -1113238.9, 221090.61, 0.0, 10.001752, 9.999188 
5.2506715e+2, 1.7384349e+2, -1227151.8, -1293856.8, -10997.083, -0.091062255, -0.10733956, -1225385.5, 10937.673, 0.0, 10.000262, 9.999394 
5.2504635e+2, 1.8384336e+2, -1236531.4, -1282028.1, -90463.73, -0.08954164, -0.04150476, -1165999.6, -27675.816, 0.0, 9.999677, 9.999083 
5.2502483e+2, 1.9384213e+2, -1032534.06, -1136539.0, -108647.94, -0.0732399, -0.07734336, -964084.75, 76250.664, 0.0, 10.000422, 9.999047 
5.250041e+2, 2.0384072e+2, -950795.75, -1085505.1, -61221.85, -0.024408028, -0.10380778, -927129.75, 15219.542, 0.0, 10.000478, 9.9987 
5.249845e+2, 2.1383904e+2, -1006211.9, -1067076.8, -25250.41, 0.077638954, -0.14472982, -997100.44, -152733.92, 0.0, 9.999447, 9.9986515 
5.2496415e+2, 2.2383821e+2, -901725.9, -802009.9, -35361.086, 0.13487738, -0.15441836, -790743.2, -44369.68, 0.0, 9.998788, 10.000114 
5.2494276e+2, 2.3383856e+2, -799351.7, -681746.75, -67676.836, 0.12510884, -0.1552064, -650894.94, -2529.2554, 0.0, 9.99873, 10.000297 
5.249219e+2, 2.4383827e+2, -889124.9, -832634.2, 12959.116, 0.075812645, -0.14704509, -829803.2, -279435.16, 0.0, 9.998124, 9.998877 
5.249016e+2, 2.5383705e+2, -1015123.7, -863858.44, 72214.36, -0.037794862, -0.14950362, -834919.5, -382534.03, 0.0, 9.996676, 9.998689 
5.248812e+2, 2.638367e+2, -812330.6, -447150.75, -34184.902, -0.029672034, -0.15527362, -443978.22, -89589.28, 0.0, 9.996241, 10.001088 
5.248603e+2, 2.7383745e+2, -535152.8, -228511.4, -86150.69, 0.17482194, -0.22598335, -205965.17, 50407.977, 0.00000000009174081, 9.997322, 10.001394 
5.2483994e+2, 2.8383777e+2, -525507.5, -239332.38, 39171.93, 0.24929507, -0.30410266, -234067.36, -75701.234, 0.00000033351301, 9.997006, 10.000798 
5.2481997e+2, 2.9383793e+2, -787200.4, -324800.4, 67826.36, 0.12643167, -0.3693434, -315056.75, -254688.98, 0.000003888586, 9.994577, 10.000711 
5.2479804e+2, 3.038411e+2, -776391.56, -181142.02, -108534.43, 0.04046171, -0.16346541, -161969.97, -161969.97, 0.000020489533, 9.993829, 10.001727 
5.2477205e+2, 3.1384403e+2, -495414.47, -6538.8794, 2726.4478, -0.15235741, -0.05752048, -6523.6743, -6523.6743, 0.000057556197, 9.99557, 10.002086 
5.351787e+2, 1.238732e+2, -1121385.4, -1691651.8, 42278.176, 0.1530665, -0.01567261, -1118268.1, 607769.2, 0.0000042697948, 10.00522, 9.997618 
5.3515047e+2, 1.3387096e+2, -1199117.8, -1659550.6, -148041.56, -0.19601429, -0.042747293, -1155626.5, 472431.13, 0.0000004930781, 10.003878, 9.997854 
5.351335e+2, 1.4386807e+2, -1200414.6, -1542602.8, 32269.174, 0.27087125, -0.13358575, -1197398.1, 332685.25, 0.000000000000035628842, 10.002934, 9.998417 
5.351098e+2, 1.5386699e+2, -1148801.5, -1457752.8, 47421.79, -0.099082835, -0.105255015, -1141686.4, 290404.28, 0.0, 10.002578, 9.998499 
5.35088e+2, 1.638655e+2, -1198076.4, -1474951.4, -13992.757, -0.20555952, -0.08001167, -1197371.0, 136733.44, 0.0, 10.001756, 9.998104 
5.3506875e+2, 1.7386343e+2, -1318638.3, -1487212.4, -65023.72, 0.03735678, -0.10386651, -1296471.6, -60343.355, 0.0, 10.000279, 9.998058 
5.350483e+2, 1.8386167e+2, -1258251.9, -1329082.6, -74153.81, 0.13075149, -0.11196147, -1211490.4, -73343.09, 0.0, 9.999684, 9.998756 
5.350262e+2, 1.9386037e+2, -1048737.4, -1168274.1, -76710.4, 0.012375572, -0.13428582, -1011259.94, 28899.78, 0.0, 10.000411, 9.9988365 
5.3500414e+2, 2.0385948e+2, -898773.94, -971702.4, -95561.73, -0.072716534, -0.13190769, -832955.8, 109211.84, 0.0, 10.000453, 9.999493 
5.349822e+2, 2.1385922e+2, -947687.3, -936117.3, -60812.06, -0.10457788, -0.12382356, -880815.7, -36646.918, 0.0, 9.999405, 9.999571 
5.3496075e+2, 2.2385888e+2, -943606.75, -883157.6, -44657.56, -0.089993514, -0.111129016, -859457.94, -113286.88, 0.0, 9.998759, 9.999573 
5.349403e+2, 2.3385833e+2, -853822.6, -787622.1, -66282.914, -0.0019673833, -0.13157505, -746634.25, -98458.516, 0.0, 9.998698, 9.999584 
5.349203e+2, 2.438579e+2, -813407.06, -666600.06, -39471.594, 0.1020582, -0.14849895, -656660.44, -106481.12, 0.0, 9.998087, 10.000034 
5.3490096e+2, 2.538577e+2, -925650.3, -664801.0, 19858.633, 0.2288765, -0.186459, -663297.8, -211117.11, 0.0, 9.996619, 10.000082 
5.348797e+2, 2.6385784e+2, -869471.8, -552066.1, -3116.2979, 0.19769342, -0.18855797, -552035.5, -197857.02, 0.0, 9.996183, 10.000395 
5.348553e+2, 2.738583e+2, -605397.75, -367569.63, -38171.066, -0.07278451, -0.19784224, -361593.4, -105420.195, 0.0, 9.997294, 10.000452 
5.348333e+2, 2.838589e+2, -503102.4, -196912.25, -44178.137, -0.1252933, -0.20943642, -190665.52, -32498.3, 0.00000019037492, 9.99702, 10.001084 
5.3481483e+2, 2.9386023e+2, -767456.3, -265539.7, -23981.063, 0.15100235, -0.20000482, -264396.5, -204241.55, 0.000003945089, 9.9945, 10.001154 
5.3479356e+2, 3.0386338e+2, -781605.75, -173491.33, -57534.72, 0.21160236, -0.027120654, -168095.75, -168095.75, 0.000021599248, 9.9937525, 10.001817 
5.3476787e+2, 3.138633e+2, -454715.0, 93284.484, 78054.914, -0.13633348, -0.2286179, 104185.48, 104185.48, 0.000060066017, 9.995516, 10.002792 
5.451836e+2, 1.23894565e+2, -1449271.8, -1872566.4, 110170.0, 0.23666033, 0.053019058, -1422314.8, 303515.34, 0.0000049758, 10.003068, 9.99742 
5.4515487e+2, 1.3389151e+2, -1214574.4, -1680355.9, -133698.31, -0.13612372, -0.04139493, -1178925.9, 448932.03, 0.00000077340394, 10.003831, 9.997736 
5.4513687e+2, 1.4388846e+2, -1099253.9, -1487733.4, 12998.203, 0.28651223, -0.14464805, -1098819.4, 431065.3, 0.0000000021181117, 10.003604, 9.998471 
5.4511255e+2, 1.5388769e+2, -1202420.9, -1474283.6, -38403.18, -0.056472767, -0.091697514, -1197100.3, 234788.06, 0.0, 10.002168, 9.998583 
5.4509e+2, 1.6388631e+2, -1229555.4, -1494603.6, -71559.45, -0.16503876, -0.06043088, -1211469.4, 122431.53, 0.0, 10.00157, 9.998055 
5.4507005e+2, 1.7388393e+2, -1041019.1, -1362241.0, -36850.37, 0.048723686, -0.10484629, -1036845.9, 199082.11, 0.0, 10.002225, 9.997979 
5.4504913e+2, 1.8388209e+2, -911819.8, -1159891.8, 25150.049, 0.13355933, -0.1174967, -909295.7, 228652.6, 0.0, 10.002051, 9.998778 
5.4502684e+2, 1.938811e+2, -1010039.8, -1145627.0, 34196.742, 0.032844424, -0.11283946, -1001903.25, 38054.79, 0.0, 10.000656, 9.998876 
5.4500425e+2, 2.038804e+2, -1000167.6, -981963.56, -2.5078075, -0.057839625, -0.107097514, -981963.56, -40000.105, 0.0, 9.999591, 9.999837 
5.4498106e+2, 2.1388017e+2, -977169.4, -904973.56, -12504.979, -0.12959099, -0.13388985, -902868.94, -58906.133, 0.0, 9.999009, 9.999972 
5.449591e+2, 2.2387995e+2, -948115.25, -906110.6, 34021.85, -0.1298148, -0.12269447, -887130.6, -141166.39, 0.0, 9.998823, 9.999381 
5.449391e+2, 2.3387966e+2, -788285.1, -786281.3, 42546.504, -0.014971912, -0.09065127, -744724.94, -96755.32, 0.0, 9.999279, 9.999312 
5.4491895e+2, 2.4387941e+2, -637854.8, -530165.8, 17735.861, 0.11293573, -0.09556947, -527320.0, 22652.262, 0.0, 9.99906, 10.000507 
5.4489845e+2, 2.538793e+2, -712420.44, -497014.88, 1967.3337, 0.25934044, -0.18048067, -496996.9, -45026.73, 0.0, 9.9978, 10.000668 
5.448766e+2, 2.6387966e+2, -748827.9, -518320.03, 36187.188, 0.22988324, -0.1820965, -512772.53, -158807.03, 0.0, 9.997119, 10.0001745 
5.448527e+2, 2.7388054e+2, -617712.9, -410675.06, 49695.55, -0.06488671, -0.11448448, -399364.5, -143404.78, 0.0, 9.99737, 10.000121 
5.448302e+2, 2.8388134e+2, -462914.94, -175754.48, -12480.04, -0.14710782, -0.08555213, -175213.13, -17259.982, 0.00000011177434, 9.9972925, 10.001096 
5.4480976e+2, 2.9388252e+2, -446571.3, -106785.516, -37997.465, 0.09631829, -0.10064849, -102588.195, -42647.156, 0.0000044340386, 9.996682, 10.001193 
5.4478776e+2, 3.038849e+2, -504885.0, -70559.86, -29007.926, 0.16507967, 0.011072434, -68631.03, -68631.03, 0.000024114986, 9.995787, 10.001539 
5.44764e+2, 3.1388408e+2, -597683.56, 42912.695, 60756.816, -0.02223869, -0.23685642, 48624.203, 48624.203, 0.00006615612, 9.994457, 10.002956 
5.551868e+2, 1.23915404e+2, -1449796.1, -1888618.1, 147697.95, 0.22961389, 0.026167475, -1404715.4, 320907.88, 0.000004911429, 10.003136, 9.997276 
5.551586e+2, 1.3391282e+2, -1225053.9, -1701154.4, -107043.55, -0.14691317, -0.0056741764, -1202094.1, 425554.78, 0.0000009248103, 10.003831, 9.997592 
5.551405e+2, 1.4390957e+2, -1142675.9, -1576752.4, -38585.926, 0.28269318, -0.092437774, -1139272.5, 390407.13, 0.000000015756708, 10.003596, 9.997866 
5.551165e+2, 1.5390706e+2, -1248184.5, -1569467.3, -88083.58, 0.108300366, -0.14911658, -1225620.1, 206082.44, 0.0, 10.0021715, 9.997928 
5.5509317e+2, 1.6390544e+2, -1160159.0, -1355158.1, -57416.06, -0.017182456, -0.14723018, -1144509.3, 189208.23, 0.0, 10.001586, 9.999005 
5.55071e+2, 1.7390501e+2, -962749.5, -1196312.0, -7740.8, -0.08720964, -0.10999398, -962493.25, 273228.97, 0.0, 10.002212, 9.999124 
5.550488e+2, 1.8390463e+2, -891130.56, -1112028.5, -22924.61, -0.10687233, -0.055878308, -888776.56, 248949.9, 0.0, 10.002028, 9.999119 
5.550268e+2, 1.9390427e+2, -997568.94, -1115759.0, -15589.006, -0.043682482, -0.011810764, -995547.4, 44182.965, 0.0, 10.000636, 9.999093 
5.5500436e+2, 2.0390342e+2, -1006249.6, -990960.06, -28034.676, -0.014093152, -0.029779507, -969546.56, -27809.393, 0.0, 9.999576, 9.999782 
5.5498105e+2, 2.139019e+2, -990318.3, -923438.94, -30919.229, -0.032147102, -0.17670682, -911335.1, -67586.59, 0.0, 9.998971, 9.999865 
5.549592e+2, 2.2390142e+2, -944008.2, -888570.0, 44048.3, -0.014645962, -0.18967353, -864244.9, -118491.984, 0.0, 9.998787, 9.999518 
5.5493915e+2, 2.3390254e+2, -784470.5, -766299.94, 64587.97, 0.057867534, -0.034575492, -710161.44, -62414.277, 0.0, 9.999229, 9.999474 
5.549177e+2, 2.4390282e+2, -658319.25, -566386.6, -24508.893, 0.0750249, 0.015432099, -560260.8, -10514.35, 0.0, 9.999031, 10.000273 
5.548938e+2, 2.5390184e+2, -736866.8, -540789.8, -41044.76, 0.010107371, -0.12789568, -532544.6, -80790.99, 0.0, 9.99777, 10.0003805 
5.5487174e+2, 2.6390216e+2, -732817.7, -482078.56, 36786.76, 0.028724061, -0.13283792, -476792.88, -123042.836, 0.0, 9.997107, 10.000427 
5.5485255e+2, 2.7390426e+2, -602989.5, -371934.16, 63697.953, 0.17929228, 0.026295198, -355537.34, -99805.23, 0.0, 9.9973345, 10.000404 
5.5483073e+2, 2.839052e+2, -485302.66, -220216.23, -31807.408, 0.17151815, 0.067051314, -216453.13, -58729.5, 0.00000024371042, 9.997279, 10.0008 
5.5480474e+2, 2.9390466e+2, -469732.06, -159179.42, -54910.33, -0.08261109, -0.07989433, -149756.39, -90029.74, 0.0000057652805, 9.996698, 10.000828 
5.547805e+2, 3.0390573e+2, -552416.7, -174781.92, -78630.03, -0.157184, -0.049868945, -159064.02, -159064.02, 0.000028463612, 9.99581, 10.000812 
5.5476004e+2, 3.139062e+2, -634328.44, -16573.016, 7410.005, 0.12287544, -0.09710509, -16484.145, -16484.145, 0.00007494189, 9.994385, 10.002581 
5.651908e+2, 1.23935536e+2, -1197818.4, -1757080.5, 158801.2, 0.23774463, -0.046054784, -1155873.0, 569551.8, 0.0000041574185, 10.004817, 9.997369 
5.6516224e+2, 1.3393357e+2, -1263516.0, -1711146.9, -123658.72, -0.14836064, -0.024690818, -1231626.9, 395818.75, 0.00000091742504, 10.003514, 9.99768 
5.651431e+2, 1.4393106e+2, -1277970.4, -1602052.4, -22523.34, 0.24740098, -0.059996765, -1276412.5, 253057.7, 0.00000003778011, 10.0025, 9.998218 
5.6511927e+2, 1.5392882e+2, -1230725.6, -1519403.8, -9420.637, 0.18214647, -0.1265927, -1230418.5, 201071.95, 0.0, 10.0021105, 9.9983015 
5.6509566e+2, 1.6392736e+2, -1154033.6, -1343330.4, 71520.99, 0.07889099, -0.1307706, -1130049.9, 203453.94, 0.0, 10.001594, 9.999083 
5.650725e+2, 1.7392701e+2, -1144337.9, -1278153.1, 36400.434, -0.09101604, -0.09213038, -1135077.1, 100431.14, 0.0, 10.000938, 9.999174 
5.650495e+2, 1.8392678e+2, -1100698.0, -1168489.0, -42708.96, -0.15800355, -0.043226246, -1080068.6, 57441.938, 0.0, 10.000404, 9.999509 
5.6502694e+2, 1.9392672e+2, -1052681.0, -1089519.9, -29047.85, -0.063326046, -0.012213059, -1036704.9, 2805.181, 0.0, 10.000038, 9.999555 
5.650043e+2, 2.0392606e+2, -943347.25, -970650.25, 3000.1313, 0.0029683968, -0.035598956, -943021.44, -1506.5293, 0.0, 10.000054, 9.999692 
5.649815e+2, 2.1392445e+2, -754222.1, -825482.94, -7466.7607, 0.032571685, -0.1739468, -753448.2, 90079.766, 0.0, 10.000665, 9.999721 
5.649593e+2, 2.2392398e+2, -701956.7, -749088.56, 54110.445, 0.05019899, -0.18776011, -666503.2, 79029.67, 0.0, 10.000344, 9.999725 
5.6493807e+2, 2.3392524e+2, -852423.6, -767197.56, 73973.69, 0.05968696, -0.046308722, -724440.94, -76915.11, 0.0, 9.998624, 9.999757 
5.649156e+2, 2.4392587e+2, -825930.4, -652101.06, 16208.106, 0.021898653, 0.026719457, -650602.7, -101080.62, 0.0, 9.997921, 10.000209 
5.6489104e+2, 2.539255e+2, -592715.9, -483405.84, 5090.511, -0.086503595, -0.04683417, -483169.28, -31644.693, 0.0, 9.998819, 10.000264 
5.6486875e+2, 2.639258e+2, -499376.03, -356875.94, 73614.44, -0.05372845, -0.050252914, -325677.7, 27843.648, 0.0, 9.998661, 10.000536 
5.6484985e+2, 2.739271e+2, -651936.94, -373565.03, 79726.445, 0.20547852, 0.014703696, -352348.25, -96838.61, 0.0, 9.996919, 10.000585 
5.64828e+2, 2.8392774e+2, -672790.1, -317806.44, 15047.996, 0.2366832, 0.020098502, -317169.7, -159666.88, 0.00000046127252, 9.996026, 10.000733 
5.648012e+2, 2.9392758e+2, -513023.75, -189278.58, 8112.4067, -0.08917239, -0.07862307, -189075.42, -129573.805, 0.000007729108, 9.996444, 10.000745 
5.6477606e+2, 3.0392808e+2, -504829.7, -232447.75, -27314.096, -0.20209058, -0.06909529, -229735.73, -229735.73, 0.000034443015, 9.996468, 10.000105 
5.6475544e+2, 3.1392843e+2, -486472.25, -31313.176, 29984.22, 0.1674947, -0.047426973, -29346.424, -29346.424, 0.00008580813, 9.995755, 10.001825 
5.751954e+2, 1.2395507e+2, -1172050.1, -1714294.8, 125478.4, 0.18962501, -0.16433187, -1144421.5, 580812.2, 0.0000029824241, 10.00486, 9.997642 
5.7516545e+2, 1.3395393e+2, -1243118.6, -1666994.9, -170360.0, -0.17856374, -0.090032674, -1183137.1, 444109.72, 0.0000006733273, 10.003508, 9.997986 
5.751447e+2, 1.4395303e+2, -1188526.6, -1419509.6, -43395.41, 0.14940237, -0.03900864, -1180643.0, 348612.66, 0.00000002938157, 10.00251, 9.999469 
5.75121e+2, 1.5395291e+2, -1136521.5, -1324937.3, -19529.635, 0.13654622, -0.024134338, -1134518.5, 296734.4, 0.0, 10.002116, 9.999636 
5.7509744e+2, 1.6395201e+2, -1206208.4, -1456491.1, 43821.66, 0.09177628, -0.0123964455, -1198757.6, 134503.55, 0.0, 10.001607, 9.9983015 
5.750744e+2, 1.7394985e+2, -1215504.4, -1428463.0, 15760.971, -0.0027504996, -0.051734906, -1214344.3, 20942.11, 0.0, 10.000946, 9.99814 
5.750509e+2, 1.8394856e+2, -1065886.3, -1094213.6, -60015.184, -0.06309397, -0.07532009, -1018386.06, 118913.94, 0.0, 10.000399, 10.000021 
5.7502705e+2, 1.939485e+2, -1009606.94, -992999.1, -38990.58, -0.06357243, -0.11048842, -961438.0, 77858.914, 0.0, 10.000008, 10.000234 
5.75004e+2, 2.039483e+2, -955982.2, -991399.75, 18509.951, -0.03877318, -0.11921848, -948074.2, -6777.5874, 0.0, 10.000028, 9.999562 
5.7498217e+2, 2.1394782e+2, -776169.5, -862778.75, 19037.371, 0.025943758, -0.12380898, -772169.6, 71131.6, 0.0, 10.000627, 9.999484 
5.749595e+2, 2.2394758e+2, -681945.06, -699063.1, -4797.441, 0.028066663, -0.11789465, -680692.25, 64612.215, 0.0, 10.000308, 10.000086 
5.749356e+2, 2.3394774e+2, -831602.06, -711923.44, 12420.467, -0.052210238, -0.12464172, -710648.0, -63342.56, 0.0, 9.998572, 10.000162 
5.749125e+2, 2.4394852e+2, -821863.75, -641556.0, 37020.668, -0.08664195, -0.06410297, -634250.94, -84951.414, 0.0, 9.997905, 10.000293 
5.7489026e+2, 2.539502e+2, -593490.2, -479878.44, 43838.44, -0.05848389, 0.06454552, -464929.75, -13646.356, 0.0, 9.9987955, 10.000301 
5.748676e+2, 2.6395056e+2, -499773.88, -359838.56, 14870.868, -0.042987533, 0.06680197, -358275.7, -4996.577, 0.0, 9.998664, 10.000517 
5.7484436e+2, 2.739489e+2, -658875.2, -381171.2, 15893.602, -0.042537387, -0.16073436, -380264.53, -124971.24, 0.0, 9.9968815, 10.000554 
5.748216e+2, 2.8394884e+2, -667149.94, -293217.78, 18843.217, -0.010511923, -0.23553619, -292270.63, -134978.81, 0.0000006054728, 9.995971, 10.000928 
5.747991e+2, 2.9395127e+2, -505477.47, -161910.2, 32249.74, 0.052969847, -0.09701562, -158909.22, -99643.55, 0.000009214798, 9.996393, 10.000956 
5.7477486e+2, 3.0395198e+2, -552942.0, -331596.7, -48452.727, 0.019543262, -0.048738983, -321455.0, -321455.0, 0.00003883035, 9.996464, 9.999429 
5.7475007e+2, 3.1395063e+2, -564017.2, -186242.86, 1544.8425, 0.036849264, -0.117828414, -186236.55, -186236.55, 0.00009398202, 9.99573, 10.000775 
5.851993e+2, 1.2397866e+2, -1128471.0, -1631207.4, 242055.23, 0.102303125, -0.102978684, -1030874.06, 694130.9, 0.0000016040275, 10.0049, 9.998187 
5.851695e+2, 1.3397723e+2, -1371414.4, -1668542.6, -70451.53, -0.062253825, -0.11004611, -1355556.1, 271461.44, 0.00000026139512, 10.002369, 9.998522 
5.8514726e+2, 1.4397646e+2, -1378856.6, -1507709.4, 113233.98, 0.22547723, -0.07211607, -1313003.6, 216020.22, 0.0000000021906112, 10.001199, 9.99949 
5.8512217e+2, 1.539768e+2, -1117038.8, -1317577.5, 38899.973, 0.041480705, -0.012420868, -1109757.4, 321262.0, 0.0, 10.002264, 9.999609 
5.8509797e+2, 1.6397603e+2, -1135896.9, -1413225.3, 25683.275, -0.033495493, 0.011659797, -1133538.4, 199488.72, 0.0, 10.002049, 9.998383 
5.8507544e+2, 1.7397365e+2, -1353693.8, -1482445.9, 65619.516, 0.061037987, -0.059757464, -1326144.9, -91091.38, 0.0, 9.999948, 9.998247 
5.85052e+2, 1.8397222e+2, -1239571.1, -1178082.4, 85840.27, 0.07039323, -0.10169323, -1117646.9, 19421.113, 0.0, 9.999201, 10.000028 
5.850274e+2, 1.9397223e+2, -954286.5, -965617.4, 57040.535, -0.041050028, -0.13011587, -902630.75, 136433.84, 0.0, 10.000382, 10.000243 
5.8500373e+2, 2.039722e+2, -891255.5, -970017.5, 70301.08, -0.08486526, -0.117352046, -850056.7, 91006.74, 0.0, 10.000515, 9.999474 
5.849815e+2, 2.1397206e+2, -999537.9, -978369.9, 71912.61, -0.02213419, -0.080052495, -916266.56, -73200.17, 0.0, 9.999127, 9.999411 
5.849585e+2, 2.2397196e+2, -945921.06, -823944.44, 40697.098, -0.0074346387, -0.056038838, -811612.7, -66543.97, 0.0, 9.998493, 10.000105 
5.8493435e+2, 2.339719e+2, -771591.1, -680860.4, 19431.672, -0.055820882, -0.087860964, -676873.9, -29803.06, 0.0, 9.998976, 10.000185 
5.8491105e+2, 2.4397236e+2, -690889.75, -571531.5, 52644.4, -0.055001035, -0.06263741, -551630.3, -2563.6636, 0.0, 9.998772, 10.000359 
5.848892e+2, 2.5397366e+2, -755371.25, -548794.8, 60030.016, 0.016645236, 0.020695742, -532617.3, -81564.375, 0.0, 9.997644, 10.000384 
5.8486587e+2, 2.6397398e+2, -741893.5, -486828.44, 13831.967, -0.003476187, 0.016072154, -486080.53, -133031.48, 0.0, 9.997051, 10.000416 
5.8484036e+2, 2.7397266e+2, -604285.75, -370394.7, -2284.1975, -0.15372093, -0.16579737, -370372.38, -115311.18, 0.0, 9.997321, 10.000414 
5.8481675e+2, 2.8397274e+2, -466048.4, -173608.5, 27531.873, -0.14690338, -0.2254921, -171039.08, -13980.72, 0.00000055145284, 9.997253, 10.00113 
5.847959e+2, 2.9397517e+2, -450116.63, -106228.16, 38223.637, 0.08616528, -0.111448966, -102030.78, -43000.063, 0.000008696917, 9.996653, 10.001208 
5.8477217e+2, 3.0397588e+2, -501636.97, -313357.47, -1766.6018, 0.0916894, -0.07077712, -313340.9, -313340.9, 0.000037738446, 9.996853, 9.99936 
5.847463e+2, 3.1397492e+2, -249502.69, -84295.62, 73853.85, -0.02771718, -0.09481093, -56094.207, -56094.207, 0.000093645554, 9.998102, 10.000327 
5.952026e+2, 1.2400603e+2, -1072906.5, -1509997.6, 154252.33, -0.077181, 0.12687038, -1023952.7, 700788.5, 0.0000005356581, 10.004877, 9.999028 
5.951742e+2, 1.3400328e+2, -1317110.8, -1559715.9, -166970.75, 0.16307014, -0.08954895, -1232031.3, 394728.38, 0.000000019858655, 10.002385, 9.999263 
5.9515053e+2, 1.4400136e+2, -1454455.9, -1671912.0, 136926.45, 0.42254165, -0.15710567, -1388339.4, 140436.44, 0.0, 10.001227, 9.998349 
5.951227e+2, 1.5400046e+2, -1210247.5, -1512043.0, 84408.97, -0.14115879, -0.08426238, -1188243.5, 242546.11, 0.0, 10.002267, 9.998274 
5.950972e+2, 1.6399951e+2, -1073593.8, -1279251.9, -44745.55, -0.32253453, -0.050095066, -1064280.1, 268520.94, 0.0, 10.002028, 9.999314 
5.950755e+2, 1.7399836e+2, -1267698.4, -1309670.0, -10356.523, 0.07033663, -0.115039825, -1265282.0, -30471.69, 0.0, 9.9999695, 9.999425 
5.950526e+2, 1.8399772e+2, -1271722.6, -1245851.0, 115584.94, 0.20621046, -0.119576335, -1142480.3, -5665.307, 0.0, 9.9992075, 9.9995575 
5.9502786e+2, 1.9399785e+2, -1003110.6, -1064432.6, 105458.21, -0.0334434, -0.072529756, -923946.6, 114867.06, 0.0, 10.000369, 9.999573 
5.950034e+2, 2.0399772e+2, -894051.6, -969174.06, 24423.215, -0.1711841, -0.034759454, -886809.56, 54006.35, 0.0, 10.000487, 9.999491 
5.949794e+2, 2.1399723e+2, -1001832.0, -971343.75, 23561.275, -0.15062433, -0.0393164, -958525.1, -115701.945, 0.0, 9.999079, 9.999482 
5.9495616e+2, 2.2399719e+2, -974001.6, -876245.44, 48546.332, -0.09435514, 0.0019149872, -856233.6, -111408.15, 0.0, 9.998463, 9.999762 
5.9493405e+2, 2.3399775e+2, -805433.1, -742999.2, 41111.434, 0.013236733, 0.07227365, -722595.94, -75774.49, 0.0, 9.998939, 9.999777 
5.949113e+2, 2.439974e+2, -686507.1, -561229.06, 10978.17, 0.083760016, 0.03489458, -560274.3, -11450.733, 0.0, 9.998761, 10.000437 
5.948877e+2, 2.5399578e+2, -751409.1, -530394.75, 18489.363, 0.10159309, -0.18583669, -528858.7, -78024.61, 0.0, 9.997599, 10.000533 
5.948633e+2, 2.6399592e+2, -760883.9, -516923.44, 16972.693, 0.031077577, -0.20739938, -515748.28, -162916.56, 0.0, 9.99701, 10.00023 
5.9483767e+2, 2.7399838e+2, -624273.7, -406684.3, 13243.255, -0.16304399, 0.010423313, -405881.25, -151068.27, 0.0, 9.997297, 10.000177 
5.948135e+2, 2.8399956e+2, -450649.63, -143798.02, 2652.3638, -0.20494737, 0.065022, -143775.08, 13026.439, 0.0000003359344, 9.997261, 10.001331 
5.9479135e+2, 2.9399925e+2, -437596.06, -72931.31, 16146.415, -0.03748759, -0.12165525, -72217.79, -13420.391, 0.00000683328, 9.996617, 10.001456 
5.9476775e+2, 3.0399978e+2, -466416.84, -230128.78, 40437.504, -0.036140285, -0.13940023, -223400.06, -223400.06, 0.0000338567, 9.996815, 9.9999485 
5.947439e+2, 3.1400165e+2, -234385.06, -51637.613, 118187.1, -0.096837975, 0.057755377, 6378.5854, 6378.5854, 0.00008915562, 9.998097, 10.000555 
6.052066e+2, 1.2403212e+2, -1483369.6, -1698855.6, 239336.08, -0.012567715, 0.09104491, -1328643.0, 395839.63, 0.00000012693685, 10.002007, 9.999128 
6.0517675e+2, 1.3402972e+2, -1224160.4, -1510575.4, -156166.25, 0.1551741, -0.09128215, -1155480.4, 471017.72, 0.000000000013925105, 10.00301, 9.999297 
6.0515153e+2, 1.4402783e+2, -1266057.1, -1605243.0, 165623.78, 0.3355984, -0.14602567, -1198599.4, 329915.47, 0.0, 10.002623, 9.998135 
6.051248e+2, 1.5402651e+2, -1477711.9, -1667430.4, 186443.8, -0.07230192, -0.09271063, -1363383.3, 67151.67, 0.0, 10.000544, 9.998038 
6.0509926e+2, 1.6402549e+2, -1342846.8, -1376650.8, 99334.38, -0.21143669, -0.06298987, -1258986.6, 73560.66, 0.0, 10.000042, 9.999603 
6.050763e+2, 1.7402487e+2, -981149.44, -1132337.6, 69558.17, 0.06501796, -0.108162545, -954016.7, 280532.7, 0.0, 10.00177, 9.999776 
6.050527e+2, 1.840244e+2, -889625.5, -1107480.4, 163649.28, 0.16272213, -0.09809612, -801966.44, 334585.88, 0.0, 10.002029, 9.999146 
6.0502845e+2, 1.9402407e+2, -1069053.6, -1147139.6, 158405.4, -0.0030380615, -0.045798585, -944950.6, 93606.47, 0.0, 10.000144, 9.999108 
6.0500383e+2, 2.0402361e+2, -1068777.3, -1058232.9, 86805.164, -0.115658365, -0.013331957, -976539.94, -35976.742, 0.0, 9.999304, 9.999455 
6.04979e+2, 2.1402289e+2, -876545.06, -910201.9, 75539.81, -0.1364902, -0.041664384, -815981.9, 26589.92, 0.0, 9.9999275, 9.999499 
6.049554e+2, 2.2402267e+2, -754908.9, -801353.0, 121693.98, -0.09574213, -0.0065159807, -654241.1, 90334.41, 0.0, 10.000102, 9.999485 
6.049335e+2, 2.3402312e+2, -722205.06, -734040.06, 117100.86, 0.03536706, 0.08205612, -610872.25, 35700.97, 0.0, 9.999648, 9.999493 
6.049103e+2, 2.4402262e+2, -663915.06, -559958.1, 55603.816, 0.10973237, 0.051185362, -535821.25, 12755.742, 0.0, 9.99897, 10.000338 
6.0488546e+2, 2.540208e+2, -698474.3, -513754.22, 34112.01, 0.101553194, -0.18039192, -507656.13, -57066.926, 0.0, 9.998003, 10.000449 
6.0486054e+2, 2.6402083e+2, -709369.44, -510618.1, 70101.77, 0.038411256, -0.1999266, -488380.5, -135792.69, 0.0, 9.997434, 10.000077 
6.0483557e+2, 2.7402338e+2, -615072.6, -418900.44, 71183.24, -0.09760957, 0.042334564, -395792.72, -141224.13, 0.0, 9.997424, 10.000039 
6.0481143e+2, 2.8402445e+2, -477675.88, -182369.14, 32195.604, -0.13551667, 0.102956355, -178899.8, -22340.738, 0.00000016006682, 9.9971895, 10.001101 
6.04788e+2, 2.9402378e+2, -446886.0, -105739.38, -2044.6483, -0.03178401, -0.09493337, -105727.125, -47167.49, 0.0000051844427, 9.996676, 10.001202 
6.0476404e+2, 3.0402467e+2, -533748.6, -205943.89, 33623.254, -0.05138302, -0.08596941, -202530.67, -202530.67, 0.000029848581, 9.996102, 10.000461 
6.047406e+2, 3.1402665e+2, -608660.3, -174641.31, 87308.734, -0.09380479, 0.0635602, -157736.44, -157736.44, 0.00008365637, 9.995288, 10.001064 
6.1521107e+2, 1.240572e+2, -1514174.8, -1769898.6, 258763.94, 0.21499155, -0.17306347, -1353406.4, 370820.9, 0.000000033346588, 10.002045, 9.998616 
6.151772e+2, 1.3405658e+2, -1271893.6, -1609011.9, -118743.9, -0.10653445, -0.10703495, -1234267.6, 391965.03, 0.0, 10.00301, 9.998619 
6.1515045e+2, 1.4405578e+2, -1218890.4, -1508537.9, 91717.195, -0.047122702, -0.04789061, -1192290.8, 335951.34, 0.0, 10.00262, 9.998803 
6.151281e+2, 1.5405475e+2, -1415242.8, -1548199.0, 109927.24, 0.20428136, -0.044216353, -1353255.6, 77001.234, 0.0, 10.000581, 9.998841 
6.1510396e+2, 1.6405384e+2, -1364337.8, -1423127.0, 149122.61, 0.24468532, -0.032110155, -1241740.3, 90526.93, 0.0, 10.000054, 9.999278 
6.1507756e+2, 1.7405309e+2, -1012162.3, -1198367.8, 139147.45, 0.012497206, -0.04637239, -937843.0, 296429.06, 0.0, 10.001777, 9.99932 
6.1505234e+2, 1.8405215e+2, -917437.5, -1157642.6, 101613.914, -0.08393505, -0.04307887, -880218.7, 256061.83, 0.0, 10.001998, 9.998816 
6.150288e+2, 1.9405097e+2, -1096511.1, -1199882.4, 90245.734, 0.016081415, -0.046573076, -1044198.2, -5903.647, 0.0, 10.000122, 9.998757 
6.1500484e+2, 2.0404994e+2, -1077488.5, -1070380.4, 98756.82, 0.04841174, -0.04697184, -975113.6, -34808.402, 0.0, 9.999279, 9.999382 
6.149802e+2, 2.140491e+2, -884264.94, -919089.06, 102695.945, -0.012828062, -0.083545834, -797515.4, 44796.61, 0.0, 9.999895, 9.999454 
6.149561e+2, 2.2404845e+2, -770946.06, -828405.06, 105899.266, -0.043557566, -0.0824929, -689948.44, 54370.336, 0.0, 10.000074, 9.999312 
6.1493254e+2, 2.34048e+2, -739558.9, -763074.3, 103922.26, -0.027391547, -0.0649065, -646731.3, -404.9228, 0.0, 9.999618, 9.999309 
6.149081e+2, 2.4404804e+2, -689665.9, -607841.56, 17200.988, -0.018635804, -0.016267791, -604372.6, -56045.734, 0.0, 9.998944, 10.000021 
6.148823e+2, 2.5404888e+2, -728535.56, -570064.44, 798.77954, -0.021005757, 0.048113845, -570060.44, -119742.99, 0.0, 9.997974, 10.000078 
6.1485744e+2, 2.6404887e+2, -718334.06, -525792.06, 64151.375, -0.016429648, 0.051760778, -506375.94, -154059.73, 0.0, 9.99742, 9.999977 
6.148341e+2, 2.740476e+2, -625246.25, -430447.38, 74598.83, 0.0025943266, -0.08203512, -405161.7, -150833.22, 0.0, 9.997386, 9.999975 
6.148103e+2, 2.8404728e+2, -531389.44, -288729.03, 11066.798, 0.03088486, -0.12419406, -288225.38, -131893.9, 0.00000012615395, 9.997163, 10.000383 
6.147858e+2, 2.9404873e+2, -510230.5, -229082.23, -17735.43, 0.067058876, -0.031400546, -227967.86, -169650.44, 0.000004328694, 9.996638, 10.000374 
6.147608e+2, 3.0405053e+2, -513746.63, -148801.17, 37.58905, 0.014813677, 0.0964509, -148801.17, -148801.17, 0.000026339554, 9.996039, 10.000882 
6.1473596e+2, 3.1404978e+2, -580555.75, -79294.58, 54226.66, -0.093909636, -0.08402215, -73495.41, -73495.41, 0.00007734693, 9.995134, 10.001791 
6.252141e+2, 1.2408361e+2, -1358450.3, -1704897.8, 261452.81, 0.2653869, -0.3026988, -1218043.6, 505919.0, 0.000000002341805, 10.003158, 9.998527 
6.251801e+2, 1.3408351e+2, -1373935.5, -1677440.3, -86850.52, -0.073415875, -0.16599786, -1350840.0, 275126.7, 0.0, 10.002398, 9.998443 
6.251522e+2, 1.4408313e+2, -1309357.8, -1509831.9, 104831.95, -0.09338397, -0.072301045, -1264552.6, 263420.63, 0.0, 10.001827, 9.999172 
6.251296e+2, 1.5408257e+2, -1202913.9, -1397736.9, 87270.19, 0.23394595, -0.06322828, -1169538.9, 260442.3, 0.0, 10.001843, 9.999261 
6.2510514e+2, 1.6408184e+2, -1163730.0, -1355365.1, 170039.34, 0.2944171, -0.044603717, -1064369.8, 267619.4, 0.0, 10.00155, 9.999024 
6.2507874e+2, 1.7408086e+2, -1186237.9, -1315087.1, 167106.4, 0.008013146, -0.05079858, -1071567.4, 162430.23, 0.0, 10.000726, 9.999023 
6.250534e+2, 1.8407957e+2, -1178004.5, -1324744.3, 98472.77, -0.09413783, -0.050147407, -1128573.6, 7437.5605, 0.0, 10.0003805, 9.998451 
6.250297e+2, 1.940778e+2, -1041823.3, -1214640.4, 74080.05, 0.06561456, -0.074916296, -1014415.0, 23617.86, 0.0, 10.000669, 9.998396 
6.250056e+2, 2.0407665e+2, -884882.06, -954297.75, 122253.19, 0.1426277, -0.07755386, -792505.4, 147539.17, 0.0, 10.0005045, 9.999588 
6.2498116e+2, 2.140763e+2, -897256.1, -892067.75, 143856.63, 0.10661036, -0.091355495, -750781.94, 91260.97, 0.0, 9.999673, 9.999742 
6.249565e+2, 2.2407553e+2, -942985.0, -946280.44, 150240.3, 0.04698535, -0.102911435, -794383.4, -50334.203, 0.0, 9.999038, 9.999005 
6.249315e+2, 2.3407412e+2, -902062.4, -883295.75, 127614.42, -0.038636677, -0.14407873, -764720.1, -118652.75, 0.0, 9.998675, 9.998941 
6.2490636e+2, 2.4407388e+2, -765234.9, -697084.75, 40361.887, -0.06636674, -0.083057866, -678337.56, -130265.07, 0.0, 9.998644, 9.9995575 
6.2488085e+2, 2.5407538e+2, -597535.25, -557782.9, 8309.161, -0.011395365, 0.09473538, -556115.94, -106057.055, 0.0, 9.999092, 9.999623 
6.24856e+2, 2.6407528e+2, -511234.97, -445343.84, 62099.22, 0.028651277, 0.12025972, -407992.0, -55932.934, 0.0, 9.998927, 9.999804 
6.2483215e+2, 2.7407274e+2, -558965.94, -414447.63, 58857.816, 0.054431632, -0.12554525, -393510.06, -139429.02, 0.0, 9.997907, 9.999836 
6.248078e+2, 2.8407183e+2, -539288.44, -336828.2, 17939.072, 0.06757349, -0.20020902, -335250.97, -179161.84, 0.000000116905284, 9.997291, 9.999997 
6.247826e+2, 2.9407367e+2, -454328.44, -251536.81, 10424.633, 0.061295528, -0.026820809, -251002.34, -192928.48, 0.000004282829, 9.997227, 9.99994 
6.247572e+2, 3.0407542e+2, -392211.16, -96286.84, 20276.525, 0.009935561, 0.12305615, -94903.98, -94903.98, 0.000025214384, 9.996898, 10.00083 
6.2473136e+2, 3.1407326e+2, -399906.94, 47056.406, 15096.852, -0.10607732, -0.19980982, 47565.746, 47565.746, 0.00007395699, 9.996186, 10.002158 
6.3521576e+2, 1.2411125e+2, -1333246.3, -1654363.1, 208595.7, 0.0957344, -0.31237608, -1230572.5, 493116.6, 0.00000000026546584, 10.003164, 9.998873 
6.3518536e+2, 1.341105e+2, -1352629.8, -1634900.9, -117206.96, 0.20625369, -0.26952815, -1310307.6, 315392.47, 0.0, 10.002403, 9.998734 
6.351564e+2, 1.4410987e+2, -1303239.9, -1500168.0, 96964.766, 0.14099443, -0.21432123, -1263510.9, 264197.38, 0.0, 10.001837, 9.999236 
6.351291e+2, 1.5410993e+2, -1196682.9, -1390363.8, 92555.23, -0.0068257037, -0.15135536, -1159566.1, 270142.2, 0.0, 10.001864, 9.999304 
6.351031e+2, 1.6410944e+2, -1176159.5, -1377253.9, 137425.34, -0.07691002, -0.10576903, -1106426.1, 225287.3, 0.0, 10.001536, 9.9988785 
6.350796e+2, 1.7410816e+2, -1198641.5, -1341707.9, 138372.31, 0.02122638, -0.12086609, -1114406.0, 119319.89, 0.0, 10.000726, 9.998842 
6.350557e+2, 1.8410662e+2, -1206800.9, -1381993.8, 102620.9, 0.093009315, -0.12029692, -1159474.4, -23729.943, 0.0, 10.000371, 9.998062 
6.350308e+2, 1.9410455e+2, -1072847.1, -1275331.5, 88123.125, 0.11341624, -0.1333805, -1039866.9, -2094.5635, 0.0, 10.000652, 9.997988 
6.350061e+2, 2.0410368e+2, -855367.06, -883818.2, 90131.15, 0.14145005, -0.10784225, -778345.75, 161435.67, 0.0, 10.000465, 10.000091 
6.3498163e+2, 2.1410446e+2, -863763.56, -811130.6, 115508.66, 0.18517534, -0.06674007, -718978.5, 122786.15, 0.0, 9.999622, 10.000321 
6.349565e+2, 2.2410393e+2, -983377.25, -1015890.56, 132148.58, 0.13987252, -0.06545683, -866489.2, -122722.42, 0.0, 9.99898, 9.998553 
6.349303e+2, 2.341015e+2, -946004.56, -965074.4, 118209.82, -0.032348927, -0.15383455, -836945.7, -191149.69, 0.0, 9.998636, 9.998397 
6.3490504e+2, 2.4410015e+2, -810996.4, -786569.6, 52014.94, -0.06509621, -0.14952959, -745353.44, -197540.1, 0.0, 9.998619, 9.998957 
6.348811e+2, 2.5410026e+2, -642137.6, -646491.4, 28435.518, 0.09890712, -0.047064353, -615795.75, -165981.69, 0.0, 9.999073, 9.999026 
6.3485616e+2, 2.6409993e+2, -531121.56, -483702.03, 25003.803, 0.14309624, -0.0019312295, -472953.94, -121136.445, 0.0, 9.998918, 9.999543 
6.3482976e+2, 2.7409878e+2, -581240.8, -450337.13, 23376.07, 0.017040852, -0.08246227, -446288.03, -192461.86, 0.0, 9.997865, 9.999609 
6.348038e+2, 2.8409818e+2, -543086.6, -340138.6, 7982.0254, -0.07107772, -0.11672464, -339825.16, -183993.78, 0.0000001448745, 9.997269, 9.999989 
6.3477826e+2, 2.9409856e+2, -459168.4, -253269.34, 11426.766, -0.10106367, -0.0873402, -252637.14, -194808.25, 0.0000050785306, 9.997194, 9.999946 
6.3475287e+2, 3.040993e+2, -433869.8, -178910.3, -3913.4224, -0.11384707, -0.009838628, -178850.25, -178850.25, 0.000027373664, 9.996882, 10.00027 
6.347267e+2, 3.1409717e+2, -418940.25, 32797.824, -3228.5696, -0.21434078, -0.27279767, 32820.9, 32820.9, 0.00007720963, 9.99609, 10.002104 
6.452178e+2, 1.2414051e+2, -1536417.4, -1779484.3, 230466.42, 0.052579474, -0.21143116, -1397403.0, 326000.03, 0.000000000003799065, 10.001881, 9.998635 
6.4518815e+2, 1.3413882e+2, -1391726.9, -1685196.6, -131624.19, 0.2622797, -0.2330364, -1341342.4, 284081.97, 0.0, 10.002275, 9.998448 
6.451585e+2, 1.4413759e+2, -1245264.9, -1489754.3, 64687.82, 0.15366895, -0.21890432, -1229204.6, 298234.16, 0.0, 10.002308, 9.9990835 
6.451307e+2, 1.5413749e+2, -1174037.4, -1392990.9, 39614.445, -0.03838807, -0.15551913, -1167090.5, 262348.16, 0.0, 10.002075, 9.999184 
6.451043e+2, 1.6413686e+2, -1174790.1, -1379487.9, 62299.73, -0.10455781, -0.11787169, -1157320.3, 174124.52, 0.0, 10.001555, 9.998856 
6.450808e+2, 1.7413545e+2, -1215680.6, -1350488.0, 66254.516, 0.07254129, -0.14610215, -1188570.1, 44889.06, 0.0, 10.00061, 9.998838 
6.4505666e+2, 1.8413411e+2, -1218089.3, -1368648.0, 103875.15, 0.16558991, -0.13025188, -1165083.8, -29608.176, 0.0, 10.000212, 9.99823 
6.450315e+2, 1.9413275e+2, -1074126.3, -1252799.8, 132190.2, 0.12481355, -0.09286905, -1003915.8, 33579.69, 0.0, 10.000548, 9.998189 
6.450065e+2, 2.0413193e+2, -810305.06, -895255.9, 120299.77, 0.1107735, -0.0625592, -725202.25, 214301.88, 0.0, 10.000917, 9.999793 
6.449816e+2, 2.141318e+2, -644083.06, -747816.06, 65601.64, 0.14456616, -0.074726075, -612321.2, 229176.17, 0.0, 10.001309, 9.999947 
6.4495635e+2, 2.2413106e+2, -677695.9, -860586.3, 49618.242, 0.13177587, -0.07824283, -665101.7, 78400.055, 0.0, 10.001038, 9.9986315 
6.449303e+2, 2.3412937e+2, -767055.3, -864133.25, 76513.48, 0.053567287, -0.10617993, -724983.3, -79460.61, 0.0, 9.999802, 9.998529 
6.4490503e+2, 2.441279e+2, -718297.0, -760115.3, 105203.914, 0.03746964, -0.11224052, -631944.56, -84404.336, 0.0, 9.999335, 9.998795 
6.4488065e+2, 2.541267e+2, -526863.2, -612618.6, 112562.34, 0.11125232, -0.12170782, -449288.5, 264.7178, 0.0, 9.999955, 9.9988365 
6.448551e+2, 2.6412603e+2, -425656.28, -450343.38, 75621.12, 0.11270207, -0.090133645, -361377.9, -9817.793, 0.0, 9.999715, 9.99939 
6.448278e+2, 2.7412608e+2, -532316.5, -443787.25, 67707.77, 0.015074559, -0.04063678, -407158.75, -153599.38, 0.000000000000000000046744374, 9.998276, 9.9994545 
6.448011e+2, 2.8412572e+2, -518197.72, -352429.53, 102017.945, -0.0770095, -0.033011142, -303869.97, -148306.84, 0.00000034821963, 9.997554, 9.99976 
6.447752e+2, 2.9412478e+2, -386375.03, -245170.08, 83856.945, -0.14932422, -0.10781366, -206151.86, -148579.39, 0.000006846114, 9.997808, 9.999703 
6.447497e+2, 3.0412474e+2, -433764.94, -207442.03, 25022.219, -0.11967839, -0.08342086, -204708.6, -204708.6, 0.000033104992, 9.997004, 10.000015 
6.4472294e+2, 3.1412396e+2, -592454.0, -39524.496, 33806.32, -0.12550198, -0.18984392, -37465.234, -37465.234, 0.000088752815, 9.994843, 10.002208 
6.552199e+2, 1.2417125e+2, -1588175.4, -1888821.5, 207684.81, 0.06003145, -0.018390778, -1482119.8, 240985.64, 0.0, 10.001891, 9.99788 
6.551886e+2, 1.3416849e+2, -1450389.8, -1809142.5, -117956.9, 0.0717764, -0.064024955, -1415080.9, 210058.3, 0.0, 10.002286, 9.997592 
6.5515864e+2, 1.4416614e+2, -1268388.5, -1539152.6, 51653.13, -0.073574305, -0.09883226, -1258869.4, 268295.88, 0.0, 10.002312, 9.998745 
6.551342e+2, 1.5416524e+2, -1195573.3, -1437905.1, 34574.445, 0.09720707, -0.08509232, -1190736.9, 238435.78, 0.0, 10.002073, 9.998879 
6.551085e+2, 1.6416414e+2, -1168286.1, -1366598.4, 25539.9, 0.15775678, -0.081305124, -1165049.8, 166133.08, 0.0, 10.001556, 9.998942 
6.55082e+2, 1.741627e+2, -1203508.8, -1333745.9, 33412.84, 0.121484876, -0.12510127, -1195436.9, 37760.35, 0.0, 10.000643, 9.9989395 
6.5505624e+2, 1.8416205e+2, -1162614.4, -1253545.3, 107759.4, 0.09130577, -0.082362704, -1091121.8, 44082.785, 0.0, 10.000215, 9.999019 
6.550315e+2, 1.941624e+2, -1018152.94, -1129089.6, 147802.16, 0.062204663, 0.04325322, -915753.56, 121448.81, 0.0, 10.000519, 9.999051 
6.5500647e+2, 2.0416135e+2, -896030.94, -1065576.1, 131528.27, 0.014551367, 0.057171635, -824323.25, 114889.57, 0.0, 10.000882, 9.998643 
6.54981e+2, 2.1415828e+2, -740592.7, -942211.8, 84210.12, -0.056069154, -0.11766313, -710048.1, 131193.39, 0.0, 10.001283, 9.998625 
6.54956e+2, 2.2415687e+2, -640226.1, -772258.2, 3872.842, -0.010129756, -0.14389975, -640112.6, 103142.08, 0.0, 10.000996, 9.999257 
6.5493155e+2, 2.3415773e+2, -717120.56, -748701.06, 32523.44, 0.19120444, 0.0020357133, -696756.9, -51509.6, 0.0, 9.999755, 9.999342 
6.5490615e+2, 2.441572e+2, -702604.94, -720603.9, 119812.28, 0.21162163, 0.032348882, -591454.56, -44201.96, 0.0, 9.999305, 9.999082 
6.548794e+2, 2.541547e+2, -512342.38, -577540.9, 140533.08, -0.014660323, -0.12900855, -400677.1, 48598.867, 0.0, 9.999937, 9.999085 
6.5485275e+2, 2.6415375e+2, -426648.06, -452386.84, 25035.79, -0.09865124, -0.1431184, -411367.63, -60081.54, 0.0, 9.999711, 9.99938 
6.5482605e+2, 2.7415478e+2, -540320.9, -452059.8, 18317.014, 0.009955493, 0.012738705, -448409.4, -195130.8, 0.0000000002377775, 9.998239, 9.999418 
6.547996e+2, 2.8415453e+2, -553825.25, -419561.2, 106023.305, 0.01327848, 0.057924956, -361203.56, -205920.77, 0.0000008000927, 9.997527, 9.99931 
6.547734e+2, 2.941525e+2, -427535.2, -317408.28, 98765.055, -0.11827353, -0.083415896, -259394.23, -202090.63, 0.0000102621225, 9.997758, 9.999229 
6.5474755e+2, 3.0415195e+2, -430082.84, -195759.38, -52207.05, -0.03671991, -0.08950229, -184654.02, -184654.02, 0.000043104363, 9.996984, 10.000109 
6.547202e+2, 3.141539e+2, -586828.5, -1615.2668, -28421.928, 0.10004643, 0.06833764, -238.1458, -238.1458, 0.000108066146, 9.994738, 10.002518 
6.652216e+2, 1.2419831e+2, -1616074.1, -1851291.6, 68553.0, 0.06564973, -0.0054784045, -1597553.1, 125291.09, 0.00000000000077884655, 10.001467, 9.998345 
6.651898e+2, 1.3419637e+2, -1526293.1, -1791843.6, -152628.45, 0.015478117, -0.018559303, -1456769.9, 168097.39, 0.0, 10.001525, 9.998082 
6.651595e+2, 1.4419423e+2, -1405744.8, -1611333.8, 73436.914, -0.16247922, -0.057115737, -1382207.5, 144682.89, 0.0, 10.001403, 9.998682 
6.6513646e+2, 1.5419307e+2, -1313495.3, -1506675.3, 63408.13, 0.163972, -0.05685199, -1294542.0, 134359.61, 0.0, 10.001323, 9.998765 
6.6511106e+2, 1.641919e+2, -1192717.9, -1402713.3, 58328.652, 0.26263988, -0.043918148, -1177604.1, 153309.6, 0.0, 10.001497, 9.99872 
6.6508305e+2, 1.7419063e+2, -1026204.94, -1268037.5, 33594.785, 0.10830848, -0.05200443, -1021624.75, 211302.78, 0.0, 10.001957, 9.998748 
6.6505677e+2, 1.8418972e+2, -877643.8, -1091965.0, 90037.31, 0.04081959, -0.03347774, -844839.75, 290096.34, 0.0, 10.002068, 9.999236 
6.6503274e+2, 1.941893e+2, -835588.0, -1014350.9, 78597.92, 0.08144605, -0.010875422, -805945.6, 230992.2, 0.0, 10.001652, 9.999298 
6.650077e+2, 2.0418815e+2, -885934.2, -1064221.3, 73213.92, 0.049332406, -0.018908547, -859722.44, 79225.734, 0.0, 10.000964, 9.998612 
6.6498137e+2, 2.1418586e+2, -946562.5, -1047486.1, 114439.28, -0.07308363, -0.10938783, -871953.4, -30981.488, 0.0, 9.999897, 9.998568 
6.6495603e+2, 2.2418469e+2, -827199.94, -872959.9, 75379.47, -0.035622653, -0.10565842, -771304.5, -28320.021, 0.0, 9.999762, 9.999158 
6.64932e+2, 2.3418501e+2, -564721.1, -689285.6, 29572.496, 0.21658078, -0.00010806128, -558056.94, 86925.09, 0.0, 10.000858, 9.999222 
6.649064e+2, 2.441845e+2, -500245.53, -579970.7, 64495.3, 0.25145885, 0.019975882, -464288.13, 82698.27, 0.0, 10.000512, 9.999463 
6.648785e+2, 2.5418273e+2, -731589.2, -636330.6, 87909.59, -0.012977516, -0.11335601, -583976.7, -134975.58, 0.0, 9.99823, 9.999503 
6.6485137e+2, 2.6418197e+2, -711862.44, -597075.5, 19807.35, -0.10877574, -0.12286585, -593753.7, -242745.0, 0.0, 9.997782, 9.999315 
6.6482514e+2, 2.741827e+2, -313681.13, -353055.25, 5775.798, 0.025943892, 0.011381312, -312851.34, -59844.906, 0.0000000023427176, 9.999836, 9.999328 
6.647986e+2, 2.8418258e+2, -185966.1, -243142.6, 71922.24, 0.052525535, 0.072933115, -137158.63, 17852.113, 0.0000014418595, 10.0000515, 9.999309 
6.6477174e+2, 2.9418108e+2, -427264.53, -311493.72, 90856.305, -0.056868054, -0.014944695, -261649.89, -204623.83, 0.000014782389, 9.997732, 9.999283 
6.647451e+2, 3.041802e+2, -446744.72, -208781.7, -20985.191, 0.030030927, -0.057359297, -206945.25, -206945.25, 0.000056755354, 9.996898, 10.000059 
6.6471666e+2, 3.1418237e+2, -112181.7, 199145.23, -14760.921, 0.12108982, 0.13366237, 199843.53, 199843.53, 0.00013493579, 9.998117, 10.002272 
6.7522264e+2, 1.24222e+2, -1504798.0, -1617879.8, 35744.375, 0.0075273057, -0.16124594, -1494446.9, 228169.03, 0.000000002274426, 10.001463, 9.999944 
6.7519176e+2, 1.3422258e+2, -1404749.0, -1538737.3, -151325.7, 0.049940303, -0.095753275, -1306250.9, 318356.5, 0.0, 10.001526, 9.999815 
6.75161e+2, 1.442219e+2, -1392150.8, -1585383.5, 64458.19, -0.1627743, -0.0893623, -1372622.5, 153991.44, 0.0, 10.00141, 9.998858 
6.751374e+2, 1.5422109e+2, -1306509.9, -1498727.4, 63365.418, 0.11393946, -0.06120489, -1287501.0, 141124.23, 0.0, 10.0013485, 9.998808 
6.7511183e+2, 1.6422018e+2, -1222385.8, -1466520.6, 69666.68, 0.1778268, -0.0025080906, -1203904.6, 126732.75, 0.0, 10.001507, 9.998279 
6.750841e+2, 1.7421919e+2, -1059562.9, -1339038.1, 55308.145, 0.003914838, 0.068200536, -1049015.5, 183634.8, 0.0, 10.001963, 9.9982605 
6.750583e+2, 1.8421711e+2, -905574.75, -1145778.1, 73020.875, -0.02174883, 0.011800848, -885118.75, 249551.66, 0.0, 10.0020485, 9.998877 
6.7503506e+2, 1.9421348e+2, -865661.56, -1068979.5, 65677.53, 0.14155439, -0.2506257, -846291.3, 190409.89, 0.0, 10.001619, 9.998939 
6.7501e+2, 2.0421238e+2, -814051.75, -906862.3, 31330.145, 0.18049636, -0.28412443, -804465.7, 134243.64, 0.0, 10.000926, 9.999712 
6.7498267e+2, 2.1421462e+2, -866068.25, -870234.06, 77221.195, 0.060193565, -0.04544872, -790901.9, 49786.008, 0.0, 9.999853, 9.999805 
6.7495644e+2, 2.2421452e+2, -893460.3, -1001698.25, 108076.86, 0.021057561, 0.038894884, -826709.6, -84018.78, 0.0, 9.999722, 9.998295 
6.7493165e+2, 2.342112e+2, -641470.2, -842258.9, 76028.4, 0.08986306, -0.11678748, -615930.7, 28796.479, 0.0, 10.000832, 9.998183 
6.749056e+2, 2.442098e+2, -472601.78, -517091.53, -15953.757, 0.116207734, -0.1525479, -467472.28, 79269.35, 0.0, 10.000489, 9.999905 
6.7487776e+2, 2.5421074e+2, -702672.1, -560215.06, 2603.7686, 0.08781754, -0.06824705, -560167.5, -111439.5, 0.0, 9.99816, 10.000059 
6.748508e+2, 2.6421082e+2, -728420.6, -618471.8, 83291.875, 0.058468763, -0.021356396, -573647.8, -222920.44, 0.0, 9.997726, 9.999195 
6.74825e+2, 2.7420974e+2, -325264.06, -378600.03, 89948.14, 0.020555692, -0.051345687, -258113.88, -5369.8374, 0.0000000015372758, 9.999843, 9.999149 
6.747982e+2, 2.842097e+2, -143190.13, -162972.22, -7623.33, -0.0062026507, 0.0028854928, -140593.27, 14154.818, 0.0000017821444, 10.000089, 9.99984 
6.7477e+2, 2.942108e+2, -394009.28, -229602.56, 5155.721, -0.006703861, 0.11508304, -229441.03, -172703.44, 0.000018938657, 9.997676, 9.999871 
6.7474204e+2, 3.0420962e+2, -470141.97, -248661.4, 15987.359, 0.0323339, 0.024344258, -247513.33, -247513.33, 0.00007225524, 9.996861, 9.9998 
6.7471206e+2, 3.14209e+2, -165696.63, 82053.96, 56072.203, -0.17886771, -0.027692841, 94153.59, 94153.59, 0.00016863653, 9.99815, 10.001446 
6.852223e+2, 1.2424757e+2, -1673676.6, -1602690.8, 69295.164, -0.077569544, -0.17729944, -1560327.6, 162041.77, 0.0000000036242784, 9.999881, 10.000817 
6.8519366e+2, 1.3424914e+2, -1451423.1, -1450368.8, -159695.34, 0.13807558, -0.10847926, -1291199.8, 333147.5, 0.0, 10.000738, 10.000796 
6.851631e+2, 1.4424895e+2, -1422569.0, -1589733.1, 16353.581, -0.072779745, -0.110578716, -1420984.1, 105363.18, 0.0, 10.001152, 9.998954 
6.8513805e+2, 1.5424812e+2, -1330684.3, -1508442.5, 6266.9946, 0.06065434, -0.08657639, -1330463.6, 97896.305, 0.0, 10.001167, 9.998834 
6.851121e+2, 1.6424732e+2, -1253163.8, -1449942.0, 50494.293, 0.08319493, -0.03287745, -1240963.1, 89408.09, 0.0, 10.001158, 9.998567 
6.8508565e+2, 1.742466e+2, -1163845.8, -1357627.0, 87008.75, 0.012891249, 0.035116818, -1130512.3, 101868.28, 0.0, 10.001103, 9.998553 
6.8506026e+2, 1.8424489e+2, -1031571.56, -1202028.6, 145730.53, 0.01814491, -0.0012153935, -947976.9, 186420.53, 0.0, 10.001165, 9.998915 
6.850361e+2, 1.9424173e+2, -902841.0, -1082159.4, 160361.97, 0.11202154, -0.22019966, -808775.56, 227650.22, 0.0, 10.001348, 9.998975 
6.850108e+2, 2.0424093e+2, -756502.94, -861705.2, 92694.375, 0.15884507, -0.23118651, -702524.9, 235907.11, 0.0, 10.001252, 9.999863 
6.849838e+2, 2.1424334e+2, -717310.3, -780388.06, 49212.26, 0.14470243, 0.008055134, -690397.94, 150010.7, 0.0, 10.000795, 9.9999695 
6.8495727e+2, 2.2424316e+2, -797203.3, -948182.6, 114003.5, 0.1067431, 0.07282604, -735961.5, 6450.167, 0.0, 10.000349, 9.998361 
6.8493146e+2, 2.3423943e+2, -768997.56, -897141.9, 159075.39, 0.037255127, -0.13106032, -661575.6, -17124.506, 0.0, 9.999924, 9.998245 
6.84905e+2, 2.4423786e+2, -540840.94, -574092.4, 60160.715, 0.027826907, -0.17385718, -495050.9, 51416.31, 0.0, 10.000119, 9.999693 
6.8487746e+2, 2.5423914e+2, -281046.8, -381883.6, 10892.63, 0.09912351, -0.03443897, -279883.6, 168568.72, 0.0, 10.001163, 9.999837 
6.848504e+2, 2.642392e+2, -295210.84, -417270.84, 88854.36, 0.102816105, 0.026441127, -248445.86, 102006.91, 0.0, 10.000733, 9.999128 
6.848241e+2, 2.742376e+2, -544794.7, -489826.97, 97026.234, 0.016837439, -0.048711013, -416467.13, -163993.03, 0.00000000039754933, 9.998358, 9.999103 
6.847969e+2, 2.8423762e+2, -488049.22, -330587.06, -21163.086, -0.025464505, 0.013840435, -327792.34, -173314.52, 0.0000019350068, 9.997727, 9.999826 
6.847686e+2, 2.9423952e+2, -135312.78, -103954.93, -62148.2, 0.0065602795, 0.21071884, -55538.402, 921.6837, 0.000022513892, 9.999448, 9.999881 
6.847401e+2, 3.042384e+2, -118533.195, -76060.836, -69765.24, 0.038582996, 0.11913416, -24371.271, -24371.271, 0.000087464054, 9.999248, 9.99984 
6.847091e+2, 3.1423664e+2, -468211.22, -109996.055, -1030.2086, -0.19636975, -0.050128665, -109993.086, -109993.086, 0.00020410729, 9.996263, 10.001037 
6.9522065e+2, 1.2427488e+2, -1648148.1, -1562141.6, 61566.09, -0.25781238, -0.0705706, -1530047.3, 192058.56, 0.00000000017840025, 9.999939, 10.001061 
6.951955e+2, 1.3427612e+2, -1430288.3, -1411319.8, -123476.39, 0.23951992, -0.059978753, -1296963.9, 327121.88, 0.0, 10.000763, 10.001048 
6.9516575e+2, 1.4427546e+2, -1417852.3, -1584872.4, 15478.945, 0.0673061, -0.124533445, -1416429.9, 109659.72, 0.0, 10.001173, 9.998977 
6.951384e+2, 1.5427426e+2, -1324164.0, -1504807.8, 12624.45, -0.036721487, -0.13831648, -1323286.0, 104818.96, 0.0, 10.001207, 9.99884 
6.9511193e+2, 1.642734e+2, -1183802.3, -1311098.4, 45646.555, -0.059237875, -0.13558608, -1169126.1, 160988.73, 0.0, 10.001178, 9.99951 
6.950877e+2, 1.7427294e+2, -1091962.4, -1209351.9, 88412.555, 0.09407835, -0.14392921, -1044535.25, 187582.28, 0.0, 10.001104, 9.999571 
6.9506246e+2, 1.8427312e+2, -1002295.06, -1136076.0, 149084.66, 0.11975557, -0.067835286, -905782.44, 228333.97, 0.0, 10.001143, 9.999377 
6.95036e+2, 1.9427402e+2, -878009.5, -1024649.6, 170375.1, -0.042143736, 0.07778829, -765847.75, 270263.84, 0.0, 10.001323, 9.999381 
6.9501e+2, 2.0427376e+2, -817636.4, -982572.75, 72557.03, -0.050909903, 0.13623857, -790261.4, 147855.13, 0.0, 10.001225, 9.999046 
6.949846e+2, 2.1427198e+2, -787826.8, -918421.0, 35040.93, 0.14399648, 0.04877468, -779018.75, 61115.742, 0.0, 10.000758, 9.999041 
6.9495845e+2, 2.242706e+2, -731811.7, -804604.7, 94034.74, 0.18839647, -0.0012405606, -667375.5, 74771.45, 0.0, 10.000315, 9.999362 
6.949313e+2, 2.3426968e+2, -696312.1, -732348.1, 146107.11, 0.030812604, -0.03877298, -567116.2, 77037.13, 0.0, 9.999866, 9.999403 
6.949044e+2, 2.4426879e+2, -606399.4, -700852.75, 93816.54, -0.046946738, -0.03765743, -548593.2, -2431.0947, 0.0, 10.00008, 9.998842 
6.9487745e+2, 2.5426787e+2, -350874.3, -528502.06, 55318.688, -0.022240367, -0.014988037, -335055.22, 113118.75, 0.0, 10.001169, 9.998827 
6.948501e+2, 2.642671e+2, -294558.38, -420399.34, 3924.4692, -0.012191992, 0.0168954, -294436.1, 55748.91, 0.0, 10.000753, 9.999098 
6.948221e+2, 2.742664e+2, -552549.06, -489707.75, 8492.79, -0.020457776, 0.027597647, -488580.2, -236384.5, 0.0000000054780975, 9.998288, 9.999137 
6.947945e+2, 2.8426635e+2, -542348.2, -426866.84, 32264.338, -0.038388703, 0.11462357, -418463.94, -264264.4, 0.000002355568, 9.997656, 9.9992 
6.9476736e+2, 2.9426715e+2, -180361.7, -200001.89, 11283.217, -0.0778783, 0.26512784, -175223.67, -119028.46, 0.000026314181, 9.999459, 9.999215 
6.9473916e+2, 3.0426633e+2, -87015.125, -14145.45, -176698.23, 0.007483869, 0.21765268, 129835.24, 129835.24, 0.00010198075, 9.999268, 10.000254 
6.9470763e+2, 3.142655e+2, -485931.94, -113015.51, -103761.03, 0.029416922, 0.096839, -86089.055, -86089.055, 0.00023747227, 9.996126, 10.001079 
7.0522135e+2, 1.2430338e+2, -1552125.5, -1611844.1, 205277.42, -0.2254346, -0.051842395, -1374547.1, 347278.03, 0.0, 10.001009, 10.00021 
7.051962e+2, 1.3430388e+2, -1432168.0, -1505592.1, -42683.824, 0.22500344, -0.029618863, -1412580.1, 211236.28, 0.0, 10.00115, 10.000216 
7.051663e+2, 1.4430293e+2, -1412355.3, -1553629.1, 56861.03, 0.014755093, -0.08868817, -1392312.9, 133511.72, 0.0, 10.00109, 9.99923 
7.051388e+2, 1.5430237e+2, -1311263.8, -1456559.0, 70864.875, -0.103494465, -0.07383573, -1282424.9, 145407.77, 0.0, 10.001129, 9.999202 
7.051124e+2, 1.6430157e+2, -1179562.4, -1276989.8, 94081.71, -0.11124795, -0.09579623, -1122330.9, 207509.13, 0.0, 10.00108, 9.999785 
7.0508856e+2, 1.7430042e+2, -1116100.3, -1188715.4, 73722.02, 0.099486, -0.1999038, -1070230.1, 161616.66, 0.0, 10.00081, 9.999849 
7.050632e+2, 1.843008e+2, -1113036.4, -1158052.5, 98644.266, 0.13051264, -0.13233197, -1034364.8, 99478.03, 0.0, 10.000248, 9.999658 
7.0503575e+2, 1.9430305e+2, -1151033.1, -1127048.4, 100907.836, -0.09417782, 0.12240214, -1037422.8, -1596.7604, 0.0, 9.999315, 9.99965 
7.050097e+2, 2.0430303e+2, -1075034.3, -1137102.9, 61124.59, -0.114621, 0.2001436, -1037516.8, -99686.555, 0.0, 9.999587, 9.998777 
7.0498556e+2, 2.1429993e+2, -717489.9, -918710.3, 65227.2, 0.13946654, 0.013358067, -698196.0, 141666.38, 0.0, 10.0013895, 9.998735 
7.049596e+2, 2.2429848e+2, -479525.53, -628236.4, 81421.18, 0.19862814, -0.05206653, -443617.03, 298259.0, 0.0, 10.001816, 9.999848 
7.0493114e+2, 2.3429908e+2, -570027.75, -610122.5, 77043.17, 0.0010039401, 0.008344149, -510466.4, 133400.08, 0.0, 10.000471, 9.999949 
7.0490354e+2, 2.4429877e+2, -712036.2, -756603.2, 74093.14, -0.0936202, 0.041935936, -656948.2, -111079.25, 0.0, 9.999374, 9.998798 
7.04877e+2, 2.5429723e+2, -730447.8, -722421.1, 102278.64, -0.053136297, 0.007374165, -624077.1, -176189.33, 0.0, 9.998608, 9.998731 
7.0484984e+2, 2.6429614e+2, -579604.3, -591779.4, 64184.383, -0.016376624, 0.029495655, -521219.44, -171317.22, 0.0, 9.998946, 9.998789 
7.048219e+2, 2.742956e+2, -223382.16, -365611.06, 31611.283, 0.021603392, 0.08844867, -216672.84, 35238.695, 0.000000016182126, 10.0007, 9.998824 
7.047939e+2, 2.8429505e+2, -122728.75, -237292.47, 69499.12, -0.006724999, 0.14450566, -89947.63, 63972.383, 0.0000029996863, 10.000588, 9.999091 
7.0476556e+2, 2.942945e+2, -393489.13, -313608.63, 87785.836, -0.124200575, 0.16873501, -257104.19, -201176.61, 0.000030264622, 9.998038, 9.999122 
7.0473707e+2, 3.0429417e+2, -337307.13, -145723.02, -92394.58, -0.032060865, 0.18288082, -108425.336, -108425.336, 0.00011479558, 9.997601, 10.000152 
7.047068e+2, 3.1429452e+2, 33778.45, 107576.87, -71358.945, 0.16319704, 0.19457246, 151012.28, 151012.28, 0.0002649436, 9.999813, 10.000825 
7.152241e+2, 1.2433299e+2, -1670436.3, -1873002.9, 172667.0, -0.0748611, -0.112863176, -1571539.1, 149989.63, 0.0, 10.001077, 9.998383 
7.151958e+2, 1.3433233e+2, -1555449.0, -1771567.5, -37474.69, 0.06382655, -0.023723574, -1549135.4, 74404.6, 0.0, 10.001194, 9.998369 
7.151648e+2, 1.443314e+2, -1371642.8, -1478935.6, 53619.152, -0.25395018, -0.008306065, -1349440.9, 176111.33, 0.0, 10.001131, 9.999724 
7.1513927e+2, 1.5433243e+2, -1263938.0, -1361555.6, 77121.305, -0.17594148, 0.10432479, -1221478.0, 206065.0, 0.0, 10.001139, 9.999851 
7.151136e+2, 1.6433182e+2, -1206947.9, -1331653.6, 82177.42, -0.11192289, 0.08314641, -1166145.5, 163401.53, 0.0, 10.00107, 9.999414 
7.1508837e+2, 1.7432903e+2, -1145176.1, -1254356.1, 68302.234, -0.0048843445, -0.13941345, -1112328.9, 119239.56, 0.0, 10.000832, 9.999389 
7.150624e+2, 1.8432793e+2, -1104807.4, -1143990.5, 62443.57, 0.018200094, -0.20010243, -1058954.0, 74622.62, 0.0, 10.0002575, 9.999751 
7.1503526e+2, 1.943289e+2, -1144650.5, -1108887.1, 70522.95, -0.08165525, -0.08701113, -1054014.1, -18445.31, 0.0, 9.999292, 9.999786 
7.1500975e+2, 2.043288e+2, -1062043.9, -1100195.0, 119041.93, -0.068493284, -0.034261122, -960558.8, -22986.398, 0.0, 9.999549, 9.999047 
7.1498656e+2, 2.1432725e+2, -705007.5, -881420.0, 135468.69, 0.09488562, -0.097410955, -631559.44, 208032.52, 0.0, 10.001345, 9.999011 
7.149605e+2, 2.2432674e+2, -488514.9, -636268.7, 34148.305, 0.10532669, -0.079676874, -481004.47, 260594.64, 0.0, 10.001767, 9.999819 
7.149308e+2, 2.3432758e+2, -577643.06, -619455.56, 29484.48, -0.087478295, 0.0106524, -562405.06, 81185.555, 0.0, 10.000441, 9.999901 
7.1490246e+2, 2.4432781e+2, -662260.0, -643009.2, 38480.645, -0.14583834, 0.06271188, -612968.4, -67380.445, 0.0, 9.999332, 9.999599 
7.148759e+2, 2.5432718e+2, -681215.75, -602518.9, 75037.18, -0.025635976, 0.0337159, -557139.06, -109545.66, 0.0, 9.998533, 9.999589 
7.1484953e+2, 2.6432633e+2, -628755.6, -682616.7, 123813.38, 0.06011778, 0.06293096, -528977.8, -179373.89, 0.0, 9.998897, 9.99819 
7.148235e+2, 2.7432516e+2, -272974.28, -467410.78, 105324.59, 0.10016716, 0.12955567, -226858.47, 24763.389, 0.000000020828322, 10.000696, 9.998127 
7.14795e+2, 2.8432354e+2, -86653.3, -168013.63, -21290.87, 0.035648037, 0.09485897, -81418.57, 72221.2, 0.0000037479972, 10.000611, 9.999558 
7.1476316e+2, 2.9432148e+2, -366452.4, -239282.23, -4714.33, -0.16821189, -0.087748274, -239107.72, -183450.94, 0.000034324887, 9.997967, 9.999666 
7.147338e+2, 3.0432194e+2, -388364.06, -242856.66, -15789.34, -0.123478785, 0.0055976175, -241163.03, -241163.03, 0.00012562028, 9.997557, 9.999505 
7.147061e+2, 3.14324e+2, -2719.5464, 25213.0, 33449.45, 0.0878179, 0.25539997, 47494.793, 47494.793, 0.00028501154, 9.999846, 10.000237 
7.252263e+2, 1.2436252e+2, -1599646.3, -1865660.0, 70141.52, 0.012349951, -0.06001638, -1582284.6, 138955.55, 0.0, 10.001656, 9.998167 
7.251963e+2, 1.3436125e+2, -1514260.0, -1766335.0, -7253.9116, -0.019981157, -0.017554833, -1514051.5, 109205.4, 0.0, 10.001541, 9.998238 
7.2516495e+2, 1.4435987e+2, -1400959.3, -1546376.1, 113148.59, -0.34345558, -0.015336294, -1339171.9, 186101.89, 0.0, 10.001161, 9.9992485 
7.2514105e+2, 1.5436064e+2, -1384647.1, -1474890.6, 46356.58, -0.072115295, 0.119158514, -1365078.0, 62190.805, 0.0, 10.0005455, 9.99936 
7.251154e+2, 1.6436017e+2, -1288205.6, -1346537.8, 49210.625, 0.0070101856, 0.12746549, -1260167.3, 69104.984, 0.0, 10.0004015, 9.999637 
7.2508824e+2, 1.7435807e+2, -1120491.5, -1210520.8, 81908.94, -0.10202729, -0.05431205, -1072042.9, 159243.98, 0.0, 10.000864, 9.999673 
7.2506166e+2, 1.8435675e+2, -998277.94, -1097732.3, 79970.484, -0.11562473, -0.14908725, -953834.7, 179461.28, 0.0, 10.001011, 9.999706 
7.2503585e+2, 1.9435637e+2, -941629.2, -1017412.9, 65837.375, -0.022309884, -0.16535507, -903558.25, 131740.67, 0.0, 10.000716, 9.999726 
7.250104e+2, 2.0435612e+2, -976222.56, -1007922.56, 149379.53, 0.025366819, -0.14659424, -841854.5, 95448.08, 0.0, 9.999916, 9.999504 
7.2498566e+2, 2.1435593e+2, -1091702.5, -1013820.44, 178498.05, 0.024551047, -0.121053986, -870065.1, -30756.553, 0.0, 9.998452, 9.999497 
7.249594e+2, 2.2435616e+2, -1026684.3, -923967.75, 78309.05, -0.002282712, -0.044806376, -881677.9, -140367.81, 0.0, 9.998191, 9.999566 
7.249309e+2, 2.3435692e+2, -748377.0, -735841.5, 45423.613, -0.06494562, 0.066671684, -696255.25, -52949.047, 0.0, 9.999417, 9.999594 
7.249029e+2, 2.4435687e+2, -534095.7, -571117.94, 15986.943, -0.06255869, 0.103754506, -528147.8, 17159.371, 0.0, 10.000166, 9.999692 
7.2487575e+2, 2.5435573e+2, -413859.6, -459371.16, -9239.904, 0.024657492, 0.013083361, -412055.22, 35259.836, 0.0, 10.000303, 9.999722 
7.248489e+2, 2.643549e+2, -475990.88, -582035.7, 69395.72, 0.064543426, 0.024040984, -441679.78, -92355.77, 0.0, 9.999831, 9.998429 
7.248226e+2, 2.7435434e+2, -560332.0, -579767.3, 116656.93, 0.048087634, 0.12410479, -452988.66, -201652.78, 0.000000011844985, 9.99861, 9.998362 
7.247941e+2, 2.8435293e+2, -394594.5, -302241.84, -14730.585, -0.0054194187, 0.094861835, -299949.2, -146598.52, 0.0000046664522, 9.998448, 9.999669 
7.2476244e+2, 2.9435065e+2, -115157.35, -108536.12, -43946.902, -0.11601218, -0.11891899, -67775.31, -12406.937, 0.00003902921, 9.999654, 9.999748 
7.247328e+2, 3.0435085e+2, -60660.64, -147880.19, -5381.9434, -0.092979334, -0.025334405, -60329.797, -60329.797, 0.00013569239, 10.00008, 9.998943 
7.247048e+2, 3.143518e+2, -72138.695, -37496.613, 48736.785, -0.0019144889, 0.17158605, -3094.423, -3094.423, 0.0002996597, 9.999482, 9.999988 
7.3522776e+2, 1.24391995e+2, -1508751.4, -1669592.3, 31594.191, -0.01362579, 0.096618034, -1502767.9, 218190.69, 0.0, 10.00163, 9.999521 
7.351975e+2, 1.343907e+2, -1410506.4, -1553116.3, -13171.134, -0.058826048, -0.009016103, -1409300.1, 213666.48, 0.0, 10.001551, 9.999697 
7.351666e+2, 1.4438844e+2, -1500377.1, -1753258.9, 86052.63, -0.2997718, -0.1068874, -1473872.4, 51116.86, 0.0, 10.001167, 9.997821 
7.3514396e+2, 1.543871e+2, -1494106.9, -1711774.1, 28953.752, 0.15815678, -0.023009963, -1490321.3, -63311.953, 0.0, 10.000587, 9.997713 
7.3511785e+2, 1.6438672e+2, -1224930.4, -1223695.4, 61592.992, 0.204145, 0.042951558, -1162716.8, 166297.95, 0.0, 10.000435, 10.000464 
7.3508793e+2, 1.7438754e+2, -1051800.6, -1067049.3, 103182.71, -0.2197487, 0.055464927, -955960.94, 275040.75, 0.0, 10.000857, 10.000664 
7.350609e+2, 1.8438725e+2, -1015889.44, -1125546.6, 68168.57, -0.2981243, 0.01906878, -983235.9, 149764.92, 0.0, 10.000976, 9.999532 
7.3503727e+2, 1.9438545e+2, -964023.4, -1056484.0, 58814.723, 0.049169693, -0.112755775, -935444.5, 99571.91, 0.0, 10.000687, 9.999472 
7.350114e+2, 2.0438497e+2, -932472.56, -911157.5, 94195.05, 0.13228914, -0.13670321, -827018.94, 110001.73, 0.0, 9.999887, 10.000183 
7.349828e+2, 2.1438603e+2, -1041760.9, -905136.2, 126882.21, -0.11306312, -0.05895781, -829345.56, 9666.044, 0.0, 9.998427, 10.000256 
7.3495597e+2, 2.2438677e+2, -1069576.0, -1001571.4, 114428.51, -0.15912463, 0.051932905, -916200.1, -175191.83, 0.0, 9.998143, 9.999057 
7.349314e+2, 2.3438701e+2, -797445.4, -826953.56, 95103.71, 0.041286245, 0.17086156, -715958.1, -72944.734, 0.0, 9.999371, 9.998992 
7.3490506e+2, 2.4438585e+2, -581522.6, -662614.75, 20651.58, 0.12575826, 0.15804255, -576566.3, -31538.857, 0.0, 10.000137, 9.999077 
7.3487645e+2, 2.5438288e+2, -460219.9, -549516.2, -931.39856, 0.0625073, -0.056962483, -460210.2, -13156.738, 0.0, 10.000278, 9.999113 
7.348478e+2, 2.6438183e+2, -401131.53, -420364.2, 21441.871, -0.039610542, -0.086787514, -387248.34, -38185.49, 0.0, 9.999805, 9.999553 
7.3481894e+2, 2.743831e+2, -485540.8, -406572.75, 73645.18, -0.18434283, 0.07519432, -362494.8, -111441.76, 0.000000051096855, 9.998533, 9.999589 
7.347907e+2, 2.843833e+2, -423650.3, -348435.25, 25008.807, -0.18160953, 0.15171215, -340879.0, -187827.19, 0.0000058850314, 9.998387, 9.99938 
7.347633e+2, 2.9438224e+2, -147074.0, -169284.75, 10085.536, -0.000888434, 0.10126289, -143177.78, -88117.29, 0.000043358832, 9.999631, 9.99934 
7.3473424e+2, 3.043812e+2, -93420.03, -219540.75, -26249.17, 0.034023, 0.11288965, -88174.984, -88174.984, 0.00014281429, 10.000101, 9.998439 
7.347026e+2, 3.1437787e+2, -84885.84, -37267.37, 34607.652, -0.18586577, -0.07100693, -19069.83, -19069.83, 0.00030710292, 9.99938, 10.000031 
7.452276e+2, 1.2441952e+2, -1823632.6, -1794799.8, -4591.776, -0.07133708, 0.13738616, -1794086.1, -73393.15, 0.0, 9.999353, 9.999758 
7.4519944e+2, 1.3441858e+2, -1426318.3, -1521335.6, -120319.88, 0.0079367785, 0.035319287, -1344467.1, 278230.38, 0.0, 10.001282, 10.00004 
7.4516904e+2, 1.4441657e+2, -1346577.9, -1613032.4, -46860.355, -0.20342872, -0.08548787, -1338577.0, 186138.8, 0.0, 10.001937, 9.998413 
7.451444e+2, 1.5441507e+2, -1367989.3, -1582277.3, 46912.848, 0.11793613, -0.076625876, -1358168.9, 68563.9, 0.0, 10.001163, 9.998322 
7.451174e+2, 1.6441488e+2, -1248297.4, -1255094.5, 155031.9, 0.12252932, -0.014880869, -1096626.8, 232108.86, 0.0, 10.000363, 10.000283 
7.450881e+2, 1.7441627e+2, -1262075.5, -1193669.3, 102336.484, -0.22341317, 0.07800807, -1119971.5, 110749.51, 0.0, 9.999522, 10.000437 
7.4506116e+2, 1.8441635e+2, -1238296.6, -1196142.9, 55483.395, -0.27637064, 0.07501445, -1157867.9, -25149.834, 0.0, 9.999288, 9.999861 
7.4503726e+2, 1.9441466e+2, -1066186.5, -1064997.5, 87280.62, 0.0279504, -0.083626114, -978309.3, 56422.043, 0.0, 9.999807, 9.999837 
7.450112e+2, 2.0441431e+2, -888410.2, -895046.9, 102572.914, 0.11198195, -0.11104067, -789101.94, 147631.72, 0.0, 10.000212, 10.000138 
7.449826e+2, 2.1441561e+2, -754543.4, -773229.06, 66907.26, -0.074083686, -0.0038997503, -696329.8, 142392.67, 0.0, 10.000433, 10.000195 
7.449556e+2, 2.2441603e+2, -777588.6, -864325.56, 72485.695, -0.10651583, 0.07995046, -736488.2, 4233.6934, 0.0, 10.000161, 9.999028 
7.449308e+2, 2.3441525e+2, -816216.0, -839604.2, 91114.78, 0.05276336, 0.10050437, -736047.94, -93312.26, 0.0, 9.999251, 9.998966 
7.4490434e+2, 2.4441406e+2, -742926.1, -756350.9, 75111.664, 0.09925873, 0.0920128, -674227.5, -129476.57, 0.0, 9.999098, 9.998935 
7.448759e+2, 2.5441226e+2, -522020.8, -597083.3, 80077.58, 0.0048630442, 0.012070796, -471115.56, -24346.918, 0.0, 9.99993, 9.998955 
7.4484706e+2, 2.6441154e+2, -352122.63, -376068.03, 38871.004, -0.09727138, 0.011728604, -323422.22, 25353.54, 0.0, 10.00005, 9.99974 
7.4481755e+2, 2.7441204e+2, -361218.16, -321215.47, 3316.837, -0.20086743, 0.07847274, -320942.34, -70171.93, 0.00000017449423, 9.999278, 9.999814 
7.4478954e+2, 2.844122e+2, -335394.28, -323169.1, -7271.54, -0.16677992, 0.14472407, -319782.28, -167013.3, 0.0000070142673, 9.999063, 9.999233 
7.447633e+2, 2.9441187e+2, -172332.25, -202011.89, -9982.25, 0.042974696, 0.18472104, -169287.28, -114514.69, 0.000045203302, 9.999538, 9.999165 
7.4473435e+2, 3.044103e+2, -150486.34, -246708.0, -55999.023, 0.065919735, 0.15541303, -124769.38, -124769.38, 0.00014394909, 9.999696, 9.998454 
7.44702e+2, 3.1440607e+2, -54236.8, 20530.637, 28210.607, -0.17742081, -0.12613271, 29980.46, 29980.46, 0.00030552503, 9.999394, 10.000428 
7.552255e+2, 1.2444523e+2, -1870867.6, -1906596.6, 35007.46, -0.23499659, 0.06807936, -1849430.0, -128987.734, 0.0, 9.999418, 9.998958 
7.552022e+2, 1.3444498e+2, -1478341.6, -1631157.3, -42891.38, 0.14197972, 0.10753842, -1467126.3, 155322.0, 0.0, 10.00129, 9.99928 
7.5517225e+2, 1.4444424e+2, -1171990.4, -1246805.0, -73224.055, -0.08775928, 0.03767267, -1127172.0, 397280.75, 0.0, 10.001918, 10.000938 
7.5514233e+2, 1.5444459e+2, -1174744.3, -1181918.6, 22021.043, -0.21422064, -0.04188641, -1156020.1, 270419.06, 0.0, 10.0011635, 10.001071 
7.551141e+2, 1.6444463e+2, -1328706.1, -1424892.0, 119494.95, -0.25644422, -0.049035102, -1247989.3, 80446.57, 0.0, 10.000375, 9.999113 
7.5508845e+2, 1.7444429e+2, -1361467.4, -1402392.5, 73978.33, -0.14481, 0.013696642, -1305173.8, -74729.01, 0.0, 9.999531, 9.9990015 
7.5506234e+2, 1.8444413e+2, -1178767.6, -1070700.9, 69732.555, -0.09156459, 0.020940084, -1036517.25, 95930.15, 0.0, 9.999281, 10.000724 
7.5503564e+2, 1.94444e+2, -1000677.8, -921897.75, 110273.51, -0.1218171, -0.07856466, -844190.3, 190253.48, 0.0, 9.999778, 10.000834 
7.550097e+2, 2.0444418e+2, -948427.44, -1010680.6, 107913.34, -0.062198848, -0.0689309, -867241.25, 69200.12, 0.0, 10.000174, 9.999363 
7.549849e+2, 2.1444464e+2, -822628.1, -904575.0, 77861.625, 0.11285197, 0.042768158, -775617.2, 62824.074, 0.0, 10.00039, 9.999312 
7.5495815e+2, 2.2444393e+2, -751885.3, -799222.25, 37019.637, 0.123848006, 0.03669927, -731614.6, 8836.022, 0.0, 10.000112, 9.9995 
7.5492877e+2, 2.3444168e+2, -783209.94, -760587.2, 60152.023, -0.07160982, -0.14640532, -710692.25, -68219.445, 0.0, 9.9992075, 9.999529 
7.5490063e+2, 2.4444158e+2, -726209.06, -714252.4, 99720.44, -0.18377317, -0.088618465, -620331.25, -75854.516, 0.0, 9.999064, 9.999241 
7.54874e+2, 2.5444403e+2, -505678.72, -558873.3, 115565.56, -0.19231825, 0.22672068, -413689.28, 32770.36, 0.0, 9.999908, 9.99923 
7.5484663e+2, 2.6444408e+2, -411969.56, -492634.03, 12035.338, -0.14510812, 0.3295404, -410212.16, -61750.426, 0.0, 10.000022, 9.99895 
7.548187e+2, 2.7444115e+2, -427873.44, -449511.47, -19777.236, -0.026220767, 0.13607375, -416149.38, -165661.25, 0.0000002213921, 9.999237, 9.998951 
7.547905e+2, 2.844395e+2, -339786.16, -328523.72, 3953.8354, 0.014321492, 0.069396265, -327274.28, -174770.66, 0.000006955663, 9.999045, 9.999205 
7.5476205e+2, 2.944394e+2, -177107.63, -201957.44, 10393.679, -0.04360525, 0.12622277, -173333.55, -118827.29, 0.000043838252, 9.999494, 9.999188 
7.547329e+2, 3.044382e+2, -114308.28, -156255.2, -66499.45, -0.05585598, 0.10229615, -65553.234, -65553.234, 0.0001394824, 9.999637, 9.999102 
7.547029e+2, 3.1443647e+2, -5534.224, 142751.89, 28110.197, -0.0347328, 0.0059595727, 147901.81, 147901.81, 0.0002957357, 9.999309, 10.001308 
7.6522654e+2, 1.24472484e+2, -1422445.3, -1707043.3, 165641.53, -0.2189991, -0.04852977, -1346372.6, 373798.28, 0.0, 10.002552, 9.9988165 
7.652031e+2, 1.3447317e+2, -1582039.5, -1693845.0, 138223.55, 0.15028492, 0.096788265, -1488842.1, 133327.6, 0.0, 10.0006275, 9.999168 
7.6517314e+2, 1.444731e+2, -1470285.0, -1356283.5, 66379.41, -0.0689939, 0.08407296, -1325789.6, 198379.44, 0.0, 9.999718, 10.001248 
7.6514274e+2, 1.5447362e+2, -1280769.3, -1196719.8, -17911.742, -0.23518974, -0.011685614, -1193061.8, 233092.36, 0.0, 10.000271, 10.001405 
7.651144e+2, 1.6447341e+2, -1310408.4, -1404078.0, 23044.764, -0.2521613, -0.06344144, -1305045.9, 23106.215, 0.0, 10.00045, 9.999221 
7.650893e+2, 1.7447238e+2, -1258833.3, -1340842.8, 80354.516, -0.03638227, -0.08296325, -1209625.9, 20540.225, 0.0, 10.000187, 9.999107 
7.650629e+2, 1.8447228e+2, -1097667.1, -1040315.94, 130863.1, 0.01762537, -0.071236394, -935023.44, 197145.05, 0.0, 9.999875, 10.000648 
7.6503503e+2, 1.9447319e+2, -1048948.4, -954318.3, 87033.555, -0.13962448, -0.058220442, -902570.0, 131588.02, 0.0, 9.999484, 10.000753 
7.6500875e+2, 2.0447367e+2, -1095636.9, -1084008.3, 74267.0, -0.1254114, -0.013369456, -1015328.3, -79174.055, 0.0, 9.999172, 9.999342 
7.649845e+2, 2.1447353e+2, -1033566.7, -1010387.25, 102454.4, 0.10628407, 0.03940289, -918869.1, -80709.22, 0.0, 9.998955, 9.99928 
7.649577e+2, 2.2447264e+2, -889965.3, -844133.75, 83225.44, 0.13202877, 0.009076984, -780726.8, -40556.805, 0.0, 9.999077, 9.999686 
7.6492786e+2, 2.3447078e+2, -717658.44, -707480.44, 69661.445, -0.10144487, -0.15288311, -642722.4, -536.0826, 0.0, 9.999571, 9.999715 
7.6489955e+2, 2.4447098e+2, -661511.25, -680410.5, 99755.33, -0.22054422, -0.07694954, -570759.0, -26572.258, 0.0, 9.999498, 9.999262 
7.6487315e+2, 2.5447366e+2, -675440.1, -636446.56, 89240.19, -0.19913863, 0.26013726, -564598.25, -118429.95, 0.0, 9.998736, 9.999256 
7.648463e+2, 2.644735e+2, -598588.1, -635967.5, 979.0063, -0.12106426, 0.36105856, -598562.5, -250389.14, 0.0, 9.998968, 9.998476 
7.64819e+2, 2.744697e+2, -298331.03, -442618.63, -12792.371, 0.037951823, 0.13136673, -297205.66, -46997.086, 0.00000016204108, 10.000362, 9.998458 
7.647907e+2, 2.8446755e+2, -173470.83, -281301.16, -8758.879, 0.07664138, 0.053596396, -172764.0, -20534.3, 0.0000062859385, 10.000327, 9.998914 
7.6476103e+2, 2.9446727e+2, -333414.94, -305123.34, -33291.44, -0.037723918, 0.124861114, -283097.0, -228862.45, 0.000041485197, 9.998547, 9.998934 
7.6473194e+2, 3.0446598e+2, -223991.05, -157519.66, -63901.625, -0.059182968, 0.080763176, -118727.38, -118727.38, 0.00013263787, 9.998667, 9.999555 
7.647039e+2, 3.1446594e+2, 259325.3, 314066.25, 3239.3303, 0.062240012, 0.10297506, 314257.28, 314257.28, 0.0002807991, 10.000952, 10.001686 
7.752304e+2, 1.245013e+2, -1390192.6, -1639415.9, 66192.836, -0.11047619, -0.20416275, -1373703.0, 346176.16, 0.00000000003061157, 10.002548, 9.999285 
7.7520233e+2, 1.3450313e+2, -1543064.1, -1620930.8, 63956.37, 0.003841755, 0.0057286383, -1507122.8, 114740.53, 0.0, 10.000657, 9.999657 
7.751719e+2, 1.4450306e+2, -1592945.0, -1616392.8, 75952.94, -0.1759021, 0.052268643, -1527816.5, -3950.2583, 0.0, 9.9997425, 9.999451 
7.751456e+2, 1.545022e+2, -1413789.8, -1478105.9, 7086.379, 0.01184465, 0.014913936, -1413018.3, 12858.738, 0.0, 10.000293, 9.999463 
7.7511835e+2, 1.645014e+2, -1211812.0, -1203405.6, 12266.846, 0.084109664, -0.060588337, -1194641.9, 133241.2, 0.0, 10.000465, 10.00059 
7.750906e+2, 1.7450058e+2, -1147408.3, -1113437.3, 73998.65, 0.062895045, -0.21250145, -1054499.6, 175384.77, 0.0, 10.0002, 10.000664 
7.7506286e+2, 1.8450083e+2, -1169146.4, -1185674.0, 113275.14, 0.01805564, -0.20155229, -1063834.0, 68047.42, 0.0, 9.999863, 9.999656 
7.750353e+2, 1.9450225e+2, -1133406.9, -1122166.8, 75368.2, -0.062308356, -0.02592233, -1052209.4, -18335.42, 0.0, 9.99945, 9.999619 
7.75008e+2, 2.0450282e+2, -1052031.3, -981541.7, 61919.367, -0.11506949, 0.05396808, -945539.0, -9666.942, 0.0, 9.999124, 10.000068 
7.749811e+2, 2.1450229e+2, -983654.25, -893817.7, 96968.79, -0.13285191, -0.013645742, -831868.75, 6009.1787, 0.0, 9.998903, 10.000103 
7.749543e+2, 2.245022e+2, -908277.1, -870267.0, 96374.695, -0.119083114, 0.0019369124, -791041.3, -51162.11, 0.0, 9.999024, 9.999533 
7.749278e+2, 2.3450258e+2, -737387.75, -739568.3, 91929.39, -0.06600512, 0.082120925, -646542.1, -4666.0654, 0.0, 9.999532, 9.999515 
7.7490085e+2, 2.4450223e+2, -686086.9, -721104.0, 68906.68, -0.036778558, 0.1267813, -632499.2, -88618.195, 0.0, 9.999456, 9.999003 
7.7487355e+2, 2.54501e+2, -700915.1, -677444.25, 63331.84, -0.0370042, 0.09736268, -624769.75, -178873.69, 0.0, 9.998684, 9.9990015 
7.74846e+2, 2.6449952e+2, -616636.4, -663658.2, 47976.664, -0.048825137, 0.08790264, -586719.56, -238807.03, 0.0, 9.998924, 9.998308 
7.748184e+2, 2.7449763e+2, -312023.0, -468749.1, 45296.434, -0.066146374, 0.06544105, -299873.4, -49941.32, 0.00000014054619, 10.000348, 9.99829 
7.747899e+2, 2.8449628e+2, -212389.77, -356833.84, -75557.586, -0.03984461, 0.10221823, -180089.2, -28142.057, 0.000005985507, 10.000309, 9.998401 
7.747603e+2, 2.9449543e+2, -380055.44, -388723.53, -97500.34, 0.03041008, 0.16983241, -286792.84, -232834.38, 0.000039454848, 9.998491, 9.998384 
7.747316e+2, 3.044935e+2, -217968.45, -134801.02, 16903.38, 0.033209283, 0.08257869, -131496.77, -131496.77, 0.00012495591, 9.998621, 9.999734 
7.7470446e+2, 3.1449434e+2, 247093.63, 288133.28, 100865.88, -0.00092965877, 0.17333277, 370545.44, 370545.44, 0.00026321306, 10.000949, 10.001513 
7.8523284e+2, 1.24530874e+2, -1474996.9, -1630781.3, -75195.734, -0.072963126, -0.1471195, -1444622.8, 274967.6, 0.0000000009851104, 10.001756, 9.999727 
7.8520286e+2, 1.3453196e+2, -1437364.8, -1518067.1, -84075.695, -0.025323542, -0.05617111, -1384458.5, 237118.38, 0.0, 10.001171, 10.000111 
7.8517205e+2, 1.4453161e+2, -1492128.3, -1643029.8, 24988.473, -0.17506412, -0.03260183, -1488098.0, 35484.25, 0.0, 10.000761, 9.998776 
7.851467e+2, 1.5453069e+2, -1419837.3, -1562602.3, 38875.793, 0.09148286, -0.003533268, -1409937.6, 15660.403, 0.0, 10.000611, 9.998726 
7.8511965e+2, 1.6453001e+2, -1175154.3, -1161918.0, 46969.582, 0.16785416, -0.03625964, -1121102.6, 206502.47, 0.0, 10.000617, 10.0008 
7.850909e+2, 1.7452958e+2, -1043148.9, -1031800.5, 6332.7144, 0.057882585, -0.1766071, -1028971.75, 200630.53, 0.0, 10.000787, 10.0009365 
7.850629e+2, 1.8453e+2, -1049104.5, -1133036.5, 23210.871, 0.0019578475, -0.15969415, -1043113.3, 88483.734, 0.0, 10.000707, 9.999611 
7.850358e+2, 1.9453137e+2, -1017268.44, -1071373.0, 57977.406, 0.0050083497, 0.016361175, -980342.56, 53247.32, 0.0, 10.000273, 9.999569 
7.850083e+2, 2.0453179e+2, -886166.5, -889672.3, 88787.07, -0.044411078, 0.07649773, -799115.0, 136474.02, 0.0, 10.000211, 10.000174 
7.8498054e+2, 2.1453093e+2, -740780.9, -764231.25, 64463.676, -0.15209162, -0.034164384, -686984.75, 150612.03, 0.0, 10.000516, 10.000216 
7.849535e+2, 2.2453097e+2, -684049.4, -743925.5, 55416.633, -0.17089583, -0.021777926, -651001.0, 88595.12, 0.0, 10.000485, 9.999695 
7.8492737e+2, 2.34532e+2, -646511.75, -677111.44, 71076.516, -0.08033698, 0.10855041, -589107.0, 52479.043, 0.0, 10.000077, 9.999679 
7.84901e+2, 2.4453129e+2, -567174.56, -695513.2, 73023.62, -0.015444347, 0.12113471, -534132.0, 9461.37, 0.0, 10.000415, 9.998713 
7.8487414e+2, 2.5452837e+2, -294630.63, -517173.53, 54920.637, 0.017074589, -0.04498335, -281814.97, 163807.61, 0.0, 10.001628, 9.998679 
7.8484654e+2, 2.645266e+2, -248869.84, -465703.22, 40213.785, -0.00041783226, -0.07529513, -241652.08, 105989.266, 0.0, 10.001358, 9.998495 
7.848181e+2, 2.7452618e+2, -442414.22, -504893.1, 60180.082, -0.071369916, 0.027621983, -405848.47, -156200.53, 0.0000001311964, 9.999343, 9.998522 
7.847897e+2, 2.8452525e+2, -351133.16, -449177.72, -5581.8677, -0.04427345, 0.10348185, -350816.38, -199157.48, 0.000005888669, 9.999465, 9.998174 
7.847612e+2, 2.945235e+2, 119829.01, -175563.73, -12795.147, 0.1029791, 0.10778096, 120382.2, 174059.14, 0.000037310834, 10.002044, 9.998137 
7.8473246e+2, 3.0452096e+2, 246546.45, -25822.844, 65721.61, 0.093231484, 0.01909907, 261575.53, 261575.53, 0.00011684081, 10.0022955, 9.99872 
7.8470457e+2, 3.1452158e+2, -36538.2, -21625.469, 34527.242, -0.020122426, 0.1952095, 6241.3594, 6241.3594, 0.00024566453, 9.999727, 9.999984 
7.9523367e+2, 1.2456127e+2, -1452664.8, -1577964.4, -117277.51, -0.184831, 0.09989795, -1382352.1, 336950.8, 0.0000000034592607, 10.001733, 10.000101 
7.9520464e+2, 1.345599e+2, -1404615.5, -1456476.4, -103377.57, 0.028541598, -0.09149295, -1323965.9, 297342.1, 0.0, 10.001203, 10.000518 
7.951736e+2, 1.4455894e+2, -1460153.4, -1585291.4, 14580.65, -0.100637086, -0.16828161, -1458476.9, 64838.07, 0.0, 10.000795, 9.999157 
7.951462e+2, 1.5455915e+2, -1386566.8, -1503623.3, 38471.645, -0.028019886, -0.06646222, -1375054.9, 50262.02, 0.0, 10.000649, 9.999114 
7.9511833e+2, 1.6455929e+2, -1240190.8, -1296560.3, 50745.582, -0.026742382, 0.006581638, -1210328.1, 116990.23, 0.0, 10.000617, 9.999875 
7.9509044e+2, 1.7455935e+2, -1113213.4, -1177350.4, 16664.758, -0.07574506, 0.016789382, -1109141.8, 120177.69, 0.0, 10.000787, 9.999937 
7.950631e+2, 1.8455985e+2, -987698.94, -1001443.56, 6005.8276, -0.059992146, 0.047136623, -985444.44, 145870.52, 0.0, 10.000688, 10.000524 
7.950363e+2, 1.9456066e+2, -949675.75, -927544.8, 45422.246, 0.020344157, 0.06837288, -891859.6, 141445.5, 0.0, 10.000256, 10.000565 
7.950095e+2, 2.0456064e+2, -927270.8, -966479.1, 95259.36, 0.04795349, 0.057793435, -849619.25, 85685.37, 0.0, 10.000175, 9.999663 
7.949828e+2, 2.1455947e+2, -788368.0, -853130.0, 79696.3, 0.017658796, -0.027632907, -734725.56, 102590.84, 0.0, 10.000474, 9.999626 
7.9495513e+2, 2.245589e+2, -656561.06, -677056.94, 36989.246, -0.057505604, -0.06725842, -628426.44, 110894.266, 0.0, 10.000442, 10.000175 
7.9492646e+2, 2.3455903e+2, -615164.75, -603621.1, 58316.29, -0.18453754, -0.07959211, -550791.7, 90524.61, 0.0, 10.000038, 10.000203 
7.948996e+2, 2.4455813e+2, -593850.9, -748614.8, 112834.94, -0.19991764, -0.09773256, -534412.94, 8911.223, 0.0, 10.0004015, 9.998356 
7.948749e+2, 2.545558e+2, -322933.3, -576778.0, 104237.92, -0.0837284, -0.1636255, -285615.53, 159732.5, 0.0, 10.001627, 9.998273 
7.9484785e+2, 2.645548e+2, -205890.17, -375201.06, -37100.797, -0.018018477, -0.124854565, -198117.19, 149242.27, 0.0, 10.001352, 9.99912 
7.948181e+2, 2.7455536e+2, -404294.7, -413099.8, -12998.872, -0.011289675, 0.010199963, -394973.06, -145616.75, 0.000000103459534, 9.9992895, 9.999178 
7.9479e+2, 2.8455448e+2, -351696.6, -442798.9, 87345.16, 0.03814474, 0.0519827, -298738.44, -147373.84, 0.000005445095, 9.999432, 9.998235 
7.947636e+2, 2.945516e+2, 129694.93, -165239.5, 96453.79, 0.12967911, -0.05987669, 158437.58, 211825.88, 0.000034263594, 10.002087, 9.998189 
7.9473466e+2, 3.0454832e+2, 89898.52, -361117.28, -27405.543, 0.0684394, -0.117103085, 91557.695, 91557.695, 0.000108508386, 10.00234, 9.996392 
7.9470384e+2, 3.145476e+2, -263990.38, -465389.56, -66559.66, -0.07692588, 0.1733912, -243981.23, -243981.23, 0.00023086925, 9.999612, 9.996987 
8.05234e+2, 1.2459125e+2, -1739750.9, -1763585.5, 9785.716, -0.21809696, 0.14909154, -1736248.0, -17238.15, 0.0000000057252847, 9.999968, 9.999683 
8.0520636e+2, 1.3458924e+2, -1431802.3, -1519876.1, -35593.113, 0.08354138, -0.06293046, -1419216.5, 201806.94, 0.0, 10.001229, 10.000076 
8.0517554e+2, 1.4458804e+2, -1291825.6, -1428336.4, 43738.125, -0.02096987, -0.17011285, -1279014.3, 244017.23, 0.0, 10.001628, 9.999831 
8.0514675e+2, 1.5458842e+2, -1261071.8, -1362689.8, 80428.06, -0.05945841, -0.123279765, -1216748.0, 208278.72, 0.0, 10.00117, 9.999828 
8.051184e+2, 1.6458893e+2, -1253096.0, -1353645.1, 134907.39, -0.0835177, -0.030041259, -1159400.0, 167624.08, 0.0, 10.000748, 9.999422 
8.050911e+2, 1.7458956e+2, -1220888.9, -1286411.6, 131658.89, -0.059248425, 0.08892749, -1117976.4, 111047.56, 0.0, 10.000297, 9.999426 
8.050637e+2, 1.8458965e+2, -1076400.5, -1062168.0, 107494.94, -0.032237496, 0.11711683, -961554.06, 169470.42, 0.0, 10.000162, 10.000357 
8.0503625e+2, 1.94589e+2, -940671.75, -941169.94, 55295.082, -0.010729139, 0.006689422, -885625.2, 147401.63, 0.0, 10.000399, 10.000403 
8.050094e+2, 2.0458853e+2, -926913.75, -980607.3, 77069.4, 0.021853367, -0.033267885, -872149.0, 62880.33, 0.0, 10.000243, 9.999534 
8.049833e+2, 2.1458814e+2, -926340.94, -932461.3, 87077.24, 0.075020105, -0.02828268, -842270.1, -5236.7393, 0.0, 9.999585, 9.999508 
8.0495596e+2, 2.2458753e+2, -804776.3, -804212.7, 49360.504, 0.022245262, -0.042856645, -755133.2, -16094.027, 0.0, 9.999663, 9.999678 
8.04927e+2, 2.3458661e+2, -570259.4, -638305.06, -11850.216, -0.15551603, -0.10897331, -568254.75, 72792.8, 0.0, 10.0005865, 9.9997015 
8.048998e+2, 2.4458577e+2, -536198.4, -638468.3, 38564.387, -0.2108829, -0.12937598, -523286.5, 19767.63, 0.0, 10.000442, 9.999095 
8.0487484e+2, 2.5458488e+2, -638704.8, -640219.0, 112379.4, -0.11766737, -0.13168189, -527079.94, -82019.81, 0.0, 9.999076, 9.999069 
8.048477e+2, 2.645841e+2, -547316.44, -577595.2, -14268.109, -0.04881297, -0.09805323, -541652.44, -194584.56, 0.0, 9.999175, 9.998777 
8.048182e+2, 2.7458337e+2, -188205.17, -354078.2, -80210.98, -0.0037486057, -0.05171728, -155762.89, 93315.09, 0.00000004701224, 10.000963, 9.998779 
8.0479056e+2, 2.84582e+2, -41058.945, -305308.94, 23088.01, 0.04624279, -0.029656406, -39056.87, 112033.95, 0.0000040934947, 10.001617, 9.998127 
8.0476475e+2, 2.9457968e+2, -31470.041, -252707.38, 15655.062, 0.092498094, -0.07924527, -30367.76, 22740.963, 0.000029452855, 10.001022, 9.9981 
8.047361e+2, 3.0457655e+2, -107090.93, -508587.16, -109274.59, 0.0347047, -0.0958088, -79276.71, -79276.71, 0.000100260084, 10.001217, 9.995921 
8.047051e+2, 3.145739e+2, 51038.75, -393290.16, -13473.031, -0.029186307, 0.05242002, 51446.906, 51446.906, 0.00022208261, 10.002118, 9.996275 
8.152339e+2, 1.24621026e+2, -1801334.4, -1925309.1, 36230.66, -0.2476779, 0.021109318, -1791522.8, -72812.55, 0.000000004999778, 10.0001135, 9.998504 
8.152078e+2, 1.3461989e+2, -1511096.5, -1691681.8, 13793.899, 0.09539771, 0.014690905, -1510048.9, 110675.58, 0.0, 10.001262, 9.99888 
8.1517774e+2, 1.446189e+2, -1231867.1, -1298304.4, 26030.416, 0.026840424, -0.052008662, -1222883.1, 299848.78, 0.0, 10.001603, 10.000736 
8.151482e+2, 1.5461853e+2, -1188733.6, -1216209.1, 67906.15, -0.037740048, -0.17724189, -1133189.5, 291537.94, 0.0, 10.001184, 10.000828 
8.151197e+2, 1.6461894e+2, -1251736.6, -1353782.5, 113355.53, -0.037869543, -0.14526208, -1178450.3, 148271.69, 0.0, 10.000761, 9.9994135 
8.150926e+2, 1.7462021e+2, -1222093.1, -1292068.4, 116286.41, 0.064453766, 0.04084381, -1135644.9, 93070.73, 0.0, 10.000308, 9.999382 
8.1506467e+2, 1.8461952e+2, -1167483.1, -1246013.5, 112770.2, 0.04450122, 0.053206183, -1087337.8, 43387.336, 0.0, 10.000142, 9.9991045 
8.150355e+2, 1.9461642e+2, -1036046.9, -1134272.0, 68813.09, -0.12717307, -0.17046747, -1000617.8, 32136.725, 0.0, 10.000377, 9.999088 
8.1500787e+2, 2.046155e+2, -916817.44, -949405.75, 50105.543, -0.15761411, -0.19901298, -880423.2, 54339.5, 0.0, 10.0002, 9.999767 
8.14982e+2, 2.14617e+2, -912303.94, -893056.1, 64893.074, -0.016850317, -0.03295898, -837077.25, -330.22314, 0.0, 9.99954, 9.999801 
8.149558e+2, 2.246169e+2, -913961.8, -1020171.6, 77607.78, 0.03039543, 0.058138676, -873029.0, -134277.9, 0.0, 9.999616, 9.998219 
8.149289e+2, 2.346148e+2, -685414.1, -866752.44, 25995.795, -0.03043205, 0.025906514, -681761.1, -40981.723, 0.0, 10.000542, 9.998155 
8.149016e+2, 2.4461435e+2, -407161.03, -364008.47, -15697.561, -0.08230959, 0.03331259, -358902.38, 183880.39, 0.0, 10.000407, 10.000999 
8.148739e+2, 2.5461572e+2, -504776.84, -347751.22, 63423.8, -0.11975451, 0.054790318, -325334.16, 119423.83, 0.0, 9.999008, 10.001114 
8.1484616e+2, 2.646145e+2, -654851.1, -786006.75, 48961.06, -0.12866205, 0.0058529684, -638589.9, -291823.7, 0.0, 9.999114, 9.997375 
8.148184e+2, 2.7461013e+2, -301415.97, -582337.1, -5698.526, -0.09751895, -0.1578262, -301300.44, -52486.766, 0.000000004527389, 10.0009365, 9.997225 
8.147911e+2, 2.8460783e+2, -59041.113, -347763.9, -4674.1436, -0.07238144, -0.13718219, -58965.46, 91873.39, 0.0000024308686, 10.001634, 9.99783 
8.147643e+2, 2.9460776e+2, -57770.953, -297086.16, -8155.6597, -0.05542299, 0.06547862, -57493.336, -4654.049, 0.000024457544, 10.000973, 9.997823 
8.147364e+2, 3.0460572e+2, -1189.2394, -270773.84, -73315.78, -0.043546412, 0.094454736, 17459.55, 17459.55, 0.00009519151, 10.001148, 9.9975815 
8.147083e+2, 3.1460086e+2, 172589.98, -137293.66, 36544.934, 0.05885201, -0.15622035, 176841.44, 176841.44, 0.00022313076, 10.002108, 9.998037 
8.2523674e+2, 1.2465045e+2, -1308654.0, -1722485.6, -312.21674, -0.14329734, -0.11120973, -1308653.8, 409761.44, 0.0000000017683296, 10.003638, 9.998192 
8.2520866e+2, 1.3465029e+2, -1507800.0, -1731428.1, 29192.89, 0.058900457, 0.013587533, -1504052.0, 116371.95, 0.0, 10.001457, 9.998512 
8.2517815e+2, 1.4464952e+2, -1449591.9, -1460379.4, 51375.38, -0.01979506, 0.0138638485, -1403327.9, 119104.16, 0.0, 10.000356, 10.000225 
8.2514924e+2, 1.5464835e+2, -1313303.0, -1334537.8, -23126.62, -0.015722362, -0.14117333, -1298473.0, 125964.24, 0.0, 10.000579, 10.000305 
8.2512087e+2, 1.6464807e+2, -1244074.0, -1351553.8, -28266.98, 0.0023502063, -0.15160237, -1237093.3, 89345.016, 0.0, 10.000822, 9.999396 
8.250934e+2, 1.7464882e+2, -1105791.9, -1237673.8, -29938.21, 0.06839447, -0.017631257, -1099313.9, 129120.84, 0.0, 10.001113, 9.999367 
8.2506526e+2, 1.8464811e+2, -1048913.0, -1226273.5, 7906.71, 0.044556003, 0.008660079, -1048561.2, 81883.12, 0.0, 10.00112, 9.998767 
8.250364e+2, 1.9464557e+2, -1008811.6, -1158324.8, 26451.098, -0.09199683, -0.12722804, -1004270.0, 28200.646, 0.0, 10.000733, 9.998746 
8.250086e+2, 2.0464458e+2, -841134.0, -919155.3, 40954.75, -0.13001795, -0.1425133, -823583.9, 110895.88, 0.0, 10.000741, 9.999716 
8.2498205e+2, 2.1464537e+2, -678162.5, -782908.3, 25608.344, -0.04097591, -0.04333113, -672236.94, 164232.11, 0.0, 10.00116, 9.999776 
8.249557e+2, 2.2464499e+2, -696229.94, -919533.94, 97039.4, -0.001364307, 0.02236112, -659953.5, 78520.83, 0.0, 10.001127, 9.998185 
8.249295e+2, 2.3464307e+2, -687922.1, -871408.2, 150909.13, -0.018210912, 0.011606438, -603057.25, 37442.54, 0.0, 10.000539, 9.998126 
8.249025e+2, 2.4464263e+2, -408942.5, -411006.13, 71684.195, -0.045043565, 0.0425904, -338282.7, 204221.44, 0.0, 10.000602, 10.000579 
8.2487446e+2, 2.5464383e+2, -179087.73, -236145.47, -47296.367, -0.079652414, 0.09018273, -152382.17, 292102.28, 0.0, 10.001451, 10.0007 
8.2484674e+2, 2.6464233e+2, -257541.0, -584193.3, -56893.465, -0.10095659, 0.029175065, -247915.42, 98579.89, 0.0, 10.001792, 9.997474 
8.2481945e+2, 2.7463755e+2, -204932.39, -519795.94, 11819.049, -0.09874753, -0.19030179, -204489.36, 44053.434, 0.0, 10.001532, 9.997365 
8.2479244e+2, 2.8463516e+2, -111135.81, -363248.34, 55668.508, -0.07578084, -0.18694174, -99390.9, 51176.914, 0.000001518397, 10.001239, 9.997911 
8.247655e+2, 2.9463547e+2, -63590.695, -289974.3, 69969.234, -0.026076151, 0.04624192, -43710.793, 8856.639, 0.000022006743, 10.000892, 9.997909 
8.2473785e+2, 3.0463427e+2, 7201.1313, -133798.61, 40933.086, 0.009778817, 0.10011264, 18222.727, 18222.727, 0.00009542949, 10.000631, 9.99877 
8.2471013e+2, 3.1462944e+2, 29364.99, -33462.68, 92717.41, 0.12333159, -0.27736124, 95845.73, 95845.73, 0.0002328845, 10.000382, 9.999576 
8.3524203e+2, 1.24679655e+2, -1286313.5, -1658245.3, -95362.1, -0.00037599672, -0.2508525, -1263288.4, 454834.97, 0.000000000051048894, 10.003558, 9.9986725 
8.352091e+2, 1.346806e+2, -1471829.1, -1662137.4, -50057.99, -0.05664037, -0.060563553, -1459465.3, 160655.31, 0.0, 10.001479, 9.998977 
8.3517694e+2, 1.4468007e+2, -1575765.1, -1735455.3, 52748.832, -0.18694444, 0.030597724, -1559914.4, -37783.656, 0.0, 10.000411, 9.998312 
8.351497e+2, 1.5467794e+2, -1448701.0, -1620777.9, -9263.563, -0.034752794, -0.019596126, -1448203.8, -24048.822, 0.0, 10.000602, 9.998331 
8.351217e+2, 1.6467643e+2, -1244407.0, -1353015.3, -17191.477, -0.00051087356, -0.053646337, -1241750.8, 84420.734, 0.0, 10.000823, 9.999387 
8.350931e+2, 1.7467554e+2, -1099317.6, -1228878.8, -11732.21, -0.07649686, -0.088033855, -1098263.9, 129915.945, 0.0, 10.001132, 9.999417 
8.3506536e+2, 1.8467554e+2, -1011101.4, -1149359.8, -8352.585, -0.06063872, -0.018656814, -1010598.56, 119582.22, 0.0, 10.001122, 9.999296 
8.3503866e+2, 1.9467638e+2, -969818.3, -1077051.6, 15330.844, 0.055491153, 0.13086352, -967669.56, 64505.574, 0.0, 10.000724, 9.9993105 
8.350113e+2, 2.0467572e+2, -867383.8, -964521.75, 52025.086, 0.06645087, 0.13263945, -844780.06, 89400.49, 0.0, 10.000704, 9.999421 
8.3498335e+2, 2.1467325e+2, -707250.5, -834208.56, 45319.945, -0.03552774, -0.0637276, -692732.8, 143466.64, 0.0, 10.0011215, 9.999441 
8.349558e+2, 2.2467183e+2, -603596.06, -714914.5, 71082.32, -0.1097212, -0.15390724, -568974.3, 169234.2, 0.0, 10.001074, 9.999617 
8.3492863e+2, 2.3467147e+2, -588152.3, -656499.56, 132508.3, -0.15846324, -0.15438306, -485481.9, 154725.6, 0.0, 10.000502, 9.999622 
8.349022e+2, 2.4467061e+2, -616261.56, -834901.75, 99317.63, -0.13524832, -0.10477749, -577883.06, -35665.395, 0.0, 10.000572, 9.997684 
8.348765e+2, 2.5466898e+2, -394583.6, -684897.9, -11222.67, -0.029246412, -0.03595094, -394150.4, 50091.297, 0.0, 10.001452, 9.997619 
8.3484966e+2, 2.646674e+2, -131895.8, -324340.63, -71118.28, 0.0030464795, -0.03169841, -108466.375, 237790.83, 0.0, 10.001798, 9.999255 
8.3482164e+2, 2.7466568e+2, -72449.74, -238483.9, 4944.846, -0.043105774, -0.13937081, -72302.6, 175961.95, 0.0, 10.0015, 9.999315 
8.347945e+2, 2.8466415e+2, -82510.74, -290635.25, 42072.61, 0.0056122406, -0.17611904, -74327.48, 75948.72, 0.0000012583888, 10.001188, 9.998431 
8.347683e+2, 2.9466274e+2, -39510.105, -228725.17, 65251.76, 0.16081451, -0.16126676, -19189.932, 33103.52, 0.000022643984, 10.000844, 9.998353 
8.3474004e+2, 3.046622e+2, 47234.027, -39115.395, 33645.543, 0.16806267, -0.09571618, 58795.758, 58795.758, 0.000101563375, 10.000582, 9.999447 
8.3471006e+2, 3.146597e+2, 92762.82, 120145.35, 95937.16, 0.07241956, -0.30173087, 203363.27, 203363.27, 0.0002494841, 10.000283, 10.000686 
8.452436e+2, 1.2470933e+2, -1838935.0, -1847742.8, -182259.19, 0.026487194, -0.22997548, -1661026.5, 56809.164, 0.0, 9.999447, 9.999351 
8.452098e+2, 1.3471025e+2, -1532483.6, -1619562.1, -135668.52, -0.088112615, -0.10441248, -1433539.1, 186290.64, 0.0, 10.000765, 9.99961 
8.4517753e+2, 1.4471005e+2, -1427681.1, -1678441.4, 64202.727, -0.21281002, -0.006190067, -1412199.0, 109636.81, 0.0, 10.001498, 9.998173 
8.451508e+2, 1.5470853e+2, -1293499.9, -1565180.0, 126866.805, -0.036624026, 0.020265233, -1243469.8, 180386.05, 0.0, 10.001753, 9.998156 
8.4512293e+2, 1.6470689e+2, -1165540.3, -1364219.4, 163197.81, 0.011758186, 0.005564092, -1073825.3, 252049.23, 0.0, 10.001575, 9.998951 
8.450942e+2, 1.7470506e+2, -1174824.3, -1313953.6, 125941.87, -0.060980454, -0.07611144, -1100511.9, 127379.46, 0.0, 10.000825, 9.998982 
8.450665e+2, 1.8470454e+2, -1068534.5, -1196765.1, 107251.07, -0.04089951, -0.02728135, -1007695.6, 122201.62, 0.0, 10.000814, 9.99912 
8.4503996e+2, 1.9470541e+2, -854489.6, -1041031.9, 70958.69, 0.08119753, 0.14140108, -830565.9, 201325.39, 0.0, 10.001602, 9.999137 
8.450128e+2, 2.0470472e+2, -705139.0, -920496.7, 83457.63, 0.08391038, 0.1639245, -676583.06, 257314.45, 0.0, 10.001963, 9.999119 
8.4498465e+2, 2.1470207e+2, -635112.1, -836356.7, 70127.234, -0.04037618, -0.017124297, -613085.9, 222833.34, 0.0, 10.001771, 9.999115 
8.449568e+2, 2.247004e+2, -524367.8, -621968.2, 43941.63, -0.12730253, -0.1369623, -507499.7, 230428.94, 0.0, 10.00139, 10.000095 
8.4492916e+2, 2.3469985e+2, -512629.1, -561136.9, 19372.83, -0.17259015, -0.2112783, -505841.78, 134082.42, 0.0, 10.000781, 10.000135 
8.449028e+2, 2.4469851e+2, -647969.94, -942704.2, 80190.945, -0.13055567, -0.19475622, -627564.44, -85626.46, 0.0, 10.000751, 9.996859 
8.448782e+2, 2.5469613e+2, -475041.66, -819556.3, 130089.055, 0.011799816, -0.1150793, -431438.5, 12535.255, 0.0, 10.001315, 9.9967575 
8.448517e+2, 2.646947e+2, -179144.75, -279655.38, 71912.09, 0.060217164, -0.079554915, -141667.83, 204321.1, 0.0, 10.001184, 9.999855 
8.4482306e+2, 2.7469423e+2, -201335.44, -224548.53, 39679.914, 0.012306792, -0.1257685, -171599.42, 76382.0, 0.0000000050987805, 10.000298, 9.999987 
8.4479535e+2, 2.8469303e+2, -226446.19, -346956.56, 43048.78, 0.03332835, -0.172056, -212648.11, -62659.016, 0.0000017148438, 10.000138, 9.998553 
8.447688e+2, 2.946908e+2, -55070.887, -219439.75, 31788.646, 0.14127709, -0.25151896, -49137.223, 2877.967, 0.000025402682, 10.0006695, 9.998498 
8.4474075e+2, 3.046902e+2, 69350.52, -64468.168, -53010.53, 0.16722399, -0.18387191, 87804.97, 87804.97, 0.00011168263, 10.000882, 9.999132 
8.447114e+2, 3.1468895e+2, 163886.34, 170773.61, -79569.09, 0.16223152, -0.23556022, 246973.55, 246973.55, 0.00027089723, 10.000704, 10.00083 
8.552417e+2, 1.2473955e+2, -1777350.9, -1735433.9, -145359.86, -0.12372145, -0.06148158, -1609529.4, 108020.875, 0.0, 9.999508, 10.000093 
8.552108e+2, 1.3473938e+2, -1482010.5, -1513926.8, -85012.52, -0.06738528, -0.11704176, -1411471.3, 208078.33, 0.0, 10.000766, 10.000333 
8.5517985e+2, 1.4473963e+2, -1314438.9, -1448089.3, 72606.375, -0.13721839, -0.088573195, -1282586.4, 238959.25, 0.0, 10.001511, 9.999751 
8.5515237e+2, 1.547401e+2, -1178751.6, -1334183.6, 142005.98, -0.06287627, -0.022096394, -1094586.5, 328953.84, 0.0, 10.001781, 9.999728 
8.5512453e+2, 1.6473942e+2, -1224255.4, -1492931.3, 131160.78, 0.0041487045, 0.024390908, -1170844.0, 154703.98, 0.0, 10.001601, 9.998056 
8.5509646e+2, 1.7473736e+2, -1236916.5, -1449441.8, 99817.42, 0.07796748, 0.013914283, -1197387.3, 30183.023, 0.0, 10.00085, 9.998042 
8.550684e+2, 1.8473515e+2, -1129453.3, -1323957.5, 132896.06, 0.06319382, -0.015798924, -1062025.9, 67567.64, 0.0, 10.000814, 9.998247 
8.550404e+2, 1.9473264e+2, -915105.06, -1170002.9, 104837.59, -0.052100156, -0.09808936, -877526.25, 154092.86, 0.0, 10.001609, 9.99825 
8.5501283e+2, 2.0473157e+2, -730239.9, -968099.5, 73578.266, -0.10590464, -0.052175175, -709319.5, 224310.92, 0.0, 10.001941, 9.998805 
8.5498595e+2, 2.1473195e+2, -658734.2, -878807.0, 66805.36, -0.09061796, 0.09878793, -640042.4, 195585.05, 0.0, 10.001739, 9.998842 
8.549586e+2, 2.2473085e+2, -570166.6, -703826.75, 17455.926, -0.08867799, 0.07438471, -567924.5, 169709.31, 0.0, 10.001333, 9.999562 
8.5493064e+2, 2.3472807e+2, -555034.06, -642849.56, 329.53726, -0.09689197, -0.16610388, -555032.8, 84618.17, 0.0, 10.00075, 9.99959 
8.549043e+2, 2.4472629e+2, -558136.6, -745908.9, 95981.914, -0.06633913, -0.2325063, -517757.63, 23907.94, 0.0, 10.000709, 9.99823 
8.548795e+2, 2.5472543e+2, -379945.72, -612645.2, 156140.6, 0.010603822, -0.1432182, -301572.22, 142106.58, 0.0, 10.001272, 9.9982 
8.5485274e+2, 2.647244e+2, -235216.06, -381280.0, 37617.887, 0.04603337, -0.10980512, -226097.11, 119591.31, 0.0, 10.001123, 9.9991865 
8.548235e+2, 2.7472314e+2, -266175.84, -341338.78, 11272.262, 0.030975506, -0.16122502, -264521.72, -16827.553, 0.0000001292932, 10.000222, 9.999221 
8.5479486e+2, 2.8472164e+2, -254055.7, -388321.25, 61012.332, -0.03383275, -0.1822119, -230472.9, -80765.13, 0.000003149254, 10.00007, 9.998302 
8.547666e+2, 2.9471967e+2, -78033.0, -258047.42, 56527.68, -0.1529993, -0.21519992, -61754.39, -10021.851, 0.000029420804, 10.000624, 9.998259 
8.547394e+2, 3.0471826e+2, -36657.6, -270595.7, -63215.168, -0.04973511, -0.14715464, -20668.326, -20668.326, 0.00012215794, 10.000833, 9.997737 
8.5471404e+2, 3.1471637e+2, 80857.94, 18014.436, -82330.414, 0.34080854, -0.11668511, 137558.97, 137558.97, 0.00029314935, 10.000627, 9.999815 
8.6524105e+2, 1.247701e+2, -1719238.8, -1686257.8, -7117.4507, -0.15010828, 0.015934791, -1684787.3, 32466.98, 0.00000000000000000000885557, 9.999813, 10.000279 
8.652119e+2, 1.3476954e+2, -1438208.8, -1478328.1, 5019.1772, -0.028560909, -0.0931224, -1437590.4, 181664.58, 0.0, 10.000989, 10.000472 
8.651819e+2, 1.4476958e+2, -1323828.0, -1457972.3, 49988.465, -0.07129938, -0.0910169, -1307249.0, 214002.77, 0.0, 10.001473, 9.9997015 
8.651539e+2, 1.5476991e+2, -1252168.3, -1375468.9, -8769.738, -0.055618837, -0.031908117, -1251547.6, 171700.16, 0.0, 10.001301, 9.999679 
8.6512583e+2, 1.6476922e+2, -1228976.5, -1490819.3, -40990.55, -0.011537917, 0.012807983, -1222709.6, 102545.195, 0.0, 10.00155, 9.998092 
8.6509794e+2, 1.7476735e+2, -1024925.8, -1343398.1, -6526.96, 0.07578761, 0.014147869, -1024792.1, 202482.14, 0.0, 10.002286, 9.998076 
8.6507e+2, 1.8476485e+2, -905149.75, -1261344.8, 96003.0, 0.06275299, -0.02832617, -880922.5, 248376.98, 0.0, 10.002552, 9.997836 
8.650421e+2, 1.9476151e+2, -851992.56, -1184571.1, 97158.43, -0.060296163, -0.14835955, -825689.3, 205642.7, 0.0, 10.002246, 9.997836 
8.650145e+2, 2.0475993e+2, -790547.1, -1039231.44, 60381.188, -0.11914498, -0.116641656, -776661.7, 156687.45, 0.0, 10.001713, 9.998423 
8.6498713e+2, 2.1476008e+2, -812503.56, -994993.25, 37642.195, -0.103875756, 0.051751874, -805044.0, 30306.148, 0.0, 10.000873, 9.998458 
8.649597e+2, 2.2475909e+2, -677579.2, -810244.0, 15550.35, -0.075845554, 0.081036136, -675780.8, 61577.164, 0.0, 10.000825, 9.999078 
8.649324e+2, 2.347567e+2, -465191.13, -654856.4, -3686.8484, -0.030339817, -0.074701585, -465119.5, 174254.88, 0.0, 10.001603, 9.999095 
8.6490595e+2, 2.4475487e+2, -392030.94, -582708.56, 66694.66, -0.0017828203, -0.1553952, -371018.28, 170369.64, 0.0, 10.001496, 9.998968 
8.648804e+2, 2.547536e+2, -443618.7, -555072.4, 68615.336, 0.008297328, -0.18720584, -410951.28, 32447.992, 0.0, 10.000463, 9.998982 
8.6485314e+2, 2.6475248e+2, -359153.56, -463860.03, -44177.4, 0.023135427, -0.19352564, -343004.94, 2403.317, 0.0000000005766255, 10.000362, 9.998987 
8.6482435e+2, 2.747514e+2, -133929.56, -306163.3, -37577.65, 0.047362287, -0.20138216, -126087.95, 121327.67, 0.000000514823, 10.001238, 9.998977 
8.6479557e+2, 2.8475025e+2, -65598.305, -301023.16, 49216.074, -0.022690553, -0.17849714, -55723.754, 93704.28, 0.0000053955687, 10.001378, 9.998272 
8.6476684e+2, 2.9474866e+2, -59606.45, -248683.94, 52730.445, -0.19205974, -0.16627729, -45895.14, 5552.8877, 0.00003455936, 10.000754, 9.998259 
8.6473984e+2, 3.0474678e+2, -51018.27, -300382.75, 6617.756, -0.091682486, -0.1395163, -50842.766, -50842.766, 0.000132535, 10.000822, 9.997538 
8.647152e+2, 3.147452e+2, 209226.78, 78845.41, 73943.4, 0.3615804, -0.06169483, 242613.23, 242613.23, 0.00031326473, 10.001505, 9.999808 
8.752411e+2, 1.2480106e+2, -1733197.0, -1724074.8, 26249.916, -0.14363143, 0.015080734, -1701992.6, 14954.964, 0.0000000055054987, 9.99985, 10.0 
8.752132e+2, 1.3480073e+2, -1463375.0, -1529179.8, 49270.047, -0.0080576, -0.03756982, -1437031.3, 181914.86, 0.0, 10.000987, 10.000121 
8.751837e+2, 1.4479996e+2, -1436332.3, -1697499.0, 39992.11, -0.049796052, -0.016651357, -1430345.5, 90608.13, 0.0, 10.001495, 9.998048 
8.751553e+2, 1.5479815e+2, -1365043.3, -1612942.9, -11830.537, -0.04775228, -0.007081754, -1364479.9, 58496.156, 0.0, 10.001315, 9.998042 
8.751269e+2, 1.6479653e+2, -1157263.5, -1347142.8, -16903.672, -0.06802575, -0.021562392, -1155770.4, 169222.13, 0.0, 10.001571, 9.99907 
8.750986e+2, 1.7479509e+2, -952471.6, -1196723.0, 24285.375, -0.096252516, -0.07772646, -950080.44, 276921.97, 0.0, 10.002299, 9.999079 
8.750713e+2, 1.8479368e+2, -903761.44, -1253887.8, 82721.55, -0.068628445, -0.062665164, -885201.3, 243812.73, 0.0, 10.002533, 9.997897 
8.7504524e+2, 1.9479214e+2, -851407.25, -1179185.1, 89215.49, 0.020676194, -0.0124070365, -828697.75, 202331.7, 0.0, 10.002224, 9.997886 
8.750175e+2, 2.0478974e+2, -830465.5, -1111003.3, 24829.0, 0.009930799, -0.03669095, -828284.94, 104768.81, 0.0, 10.001666, 9.997952 
8.749879e+2, 2.1478646e+2, -852519.7, -1070111.9, 8564.121, -0.11236788, -0.16713199, -852183.1, -17095.01, 0.0, 10.000836, 9.997961 
8.749601e+2, 2.2478512e+2, -713061.5, -874912.4, 39111.42, -0.1211243, -0.124122314, -704105.75, 32995.77, 0.0, 10.000785, 9.998654 
8.749344e+2, 2.347858e+2, -499411.78, -717323.4, 28657.002, -0.0035341887, 0.07022134, -495706.2, 143387.23, 0.0, 10.001563, 9.998688 
8.7490785e+2, 2.4478433e+2, -393373.25, -575864.06, 24290.92, 0.02819205, 0.040625934, -390195.28, 150909.1, 0.0, 10.001453, 9.999035 
8.748804e+2, 2.5478047e+2, -448868.63, -550972.6, 31674.451, -0.03440423, -0.254755, -439840.88, 3295.669, 0.0, 10.000399, 9.999041 
8.748529e+2, 2.6477867e+2, -342481.78, -421258.6, -15485.005, -0.041185256, -0.34340325, -339547.22, 5603.271, 0.0000000691861, 10.000323, 9.9993 
8.7482536e+2, 2.7477908e+2, -115531.78, -260062.9, 897.2608, 0.017782845, -0.24025321, -115526.21, 131619.56, 0.000001269736, 10.001205, 9.99931 
8.7479764e+2, 2.847789e+2, -52332.926, -271399.75, 22125.82, 0.036842465, -0.14694554, -50120.555, 99028.12, 0.000008177336, 10.001368, 9.998482 
8.747696e+2, 2.9477778e+2, -52256.75, -221859.52, 32434.03, 0.012076648, -0.11122183, -46265.84, 4896.639, 0.000040999803, 10.000702, 9.998469 
8.747418e+2, 3.0477566e+2, 24369.598, -131726.38, 35462.914, 0.02589348, -0.17459261, 32048.541, 32048.541, 0.00014405875, 10.000775, 9.998716 
8.747145e+2, 3.1477496e+2, 283867.72, 244897.84, 119852.305, 0.11895001, -0.1221442, 385808.63, 385808.63, 0.00033067827, 10.001465, 10.000968 
8.852414e+2, 1.2483006e+2, -1731191.6, -1771812.8, -65183.754, -0.09954257, -0.0005785282, -1683227.4, 33433.94, 0.00000006865043, 10.000075, 9.999571 
8.8521427e+2, 1.3482974e+2, -1562119.9, -1630141.3, -65781.27, 0.033427067, -0.004090682, -1522077.1, 96585.38, 0.0, 10.00054, 9.999646 
8.8518536e+2, 1.4482856e+2, -1534754.9, -1777506.0, -43156.45, 0.0015089391, 0.013340542, -1527310.9, -6635.8003, 0.0, 10.000958, 9.997759 
8.8515705e+2, 1.5482582e+2, -1350766.5, -1637070.6, -2202.793, -0.01255712, -0.043708198, -1350749.6, 71956.086, 0.0, 10.001544, 9.997766 
8.851286e+2, 1.6482393e+2, -1104518.1, -1304605.9, 25532.375, -0.063968204, -0.076045305, -1101311.5, 223412.81, 0.0, 10.001865, 9.99922 
8.851002e+2, 1.7482303e+2, -1005123.3, -1202796.0, -3324.8726, -0.13823478, -0.09518467, -1005067.4, 221661.94, 0.0, 10.001862, 9.999248 
8.850728e+2, 1.8482217e+2, -979286.8, -1229293.5, 24212.057, -0.1208456, -0.061020423, -976963.56, 151771.13, 0.0, 10.001749, 9.998446 
8.8504684e+2, 1.9482122e+2, -918496.2, -1148277.9, 60812.156, -0.0050607794, -0.004667537, -903394.6, 127347.19, 0.0, 10.0014925, 9.99845 
8.850193e+2, 2.0481881e+2, -832290.75, -1151071.9, 39450.832, 0.022429405, -0.043810785, -827481.1, 105284.24, 0.0, 10.001821, 9.997603 
8.8499033e+2, 2.1481478e+2, -604993.5, -991065.94, 27964.05, -0.04074727, -0.21083456, -602978.5, 231828.56, 0.0, 10.002709, 9.997601 
8.849625e+2, 2.2481304e+2, -464967.34, -776672.9, 69621.83, -0.04828185, -0.18054932, -450123.66, 286701.9, 0.0, 10.002585, 9.998459 
8.849359e+2, 2.3481372e+2, -538440.2, -757000.44, 66392.41, 0.008716567, 0.033589825, -519852.8, 118966.98, 0.0, 10.0013895, 9.998497 
8.849086e+2, 2.4481253e+2, -477187.75, -597057.8, 69181.68, 0.006149474, 0.034559082, -445589.66, 95238.96, 0.0, 10.000788, 9.999214 
8.8488066e+2, 2.548092e+2, -372071.75, -494858.25, 78409.305, -0.061086312, -0.22828685, -333880.1, 108974.64, 0.00000000006372724, 10.000829, 9.999225 
8.848531e+2, 2.6480752e+2, -297402.47, -412706.78, 57337.27, -0.06465918, -0.30776888, -273744.5, 71123.195, 0.00000025387644, 10.000702, 9.999171 
8.84826e+2, 2.7480766e+2, -230290.03, -326787.75, 28977.383, 0.0034496996, -0.21788864, -222257.1, 24609.865, 0.0000021793016, 10.000479, 9.999194 
8.847988e+2, 2.848073e+2, -147314.34, -282364.94, 25673.422, 0.06660344, -0.14941718, -142598.45, 6271.965, 0.00001103343, 10.000569, 9.998789 
8.847715e+2, 2.9480615e+2, 9385.519, -154268.67, 38045.87, 0.12641326, -0.14762901, 17797.893, 68678.74, 0.00004783983, 10.000961, 9.998807 
8.847431e+2, 3.048039e+2, 10283.014, -106583.25, 14118.155, 0.09701608, -0.2578288, 11964.382, 11964.382, 0.00015538944, 10.000537, 9.99901 
8.847139e+2, 3.1480443e+2, -43526.5, 89170.84, 17818.486, 0.028744085, -0.107319236, 91521.84, 91521.84, 0.00034428985, 9.999204, 10.000993 
8.952416e+2, 1.2485732e+2, -1762132.5, -1845335.6, -59697.49, -0.10496957, -0.02597406, -1730970.9, -14577.741, 0.00000033567557, 10.00012, 9.9990425 
8.952152e+2, 1.348569e+2, -1602793.5, -1717236.3, -47127.402, 0.06598733, 0.020225566, -1585884.8, 32515.834, 0.00000000007521531, 10.000556, 9.999041 
8.951869e+2, 1.4485566e+2, -1457444.0, -1622786.1, -24162.129, 0.047671575, 0.013231004, -1453985.5, 66427.13, 0.0, 10.00098, 9.998812 
8.951589e+2, 1.5485303e+2, -1274861.9, -1484800.3, 25720.4, 0.007435321, -0.13865724, -1271756.8, 150678.84, 0.0, 10.001565, 9.998802 
8.9513075e+2, 1.6485153e+2, -1149918.0, -1402533.1, 23820.877, -0.042096, -0.14949276, -1147691.4, 176758.16, 0.0, 10.00188, 9.998541 
8.951026e+2, 1.748512e+2, -1053118.4, -1304122.4, 991.143, -0.085943244, -0.04327099, -1053114.5, 173340.23, 0.0, 10.001865, 9.998551 
8.9507455e+2, 1.8485034e+2, -909651.6, -1079532.0, 11586.0205, -0.1295247, -0.025448272, -908865.06, 219595.73, 0.0, 10.001727, 9.999484 
8.9504665e+2, 1.9484884e+2, -847175.3, -996124.5, 54217.76, -0.17593604, -0.13082936, -829530.25, 200938.67, 0.0, 10.001474, 9.999503 
8.950198e+2, 2.0484716e+2, -850991.9, -1184656.6, 67990.69, -0.1110263, -0.14012383, -837669.4, 94814.25, 0.0, 10.001794, 9.997388 
8.949942e+2, 2.1484518e+2, -626933.1, -1027223.1, 64985.6, 0.07206189, -0.07894871, -616647.25, 217858.89, 0.0, 10.002667, 9.997374 
8.9496666e+2, 2.2484297e+2, -472513.53, -780890.8, 21353.672, 0.10381248, -0.08474661, -471041.9, 265487.28, 0.0, 10.002533, 9.998455 
8.94937e+2, 2.3484044e+2, -545405.4, -761910.1, 24420.303, -0.03089985, -0.19215685, -542685.1, 95868.46, 0.0, 10.001347, 9.998484 
8.9490837e+2, 2.4483947e+2, -461429.66, -555185.56, 66647.46, -0.10299038, -0.18292537, -426824.94, 113735.805, 0.0, 10.00075, 9.999519 
8.948811e+2, 2.5484e+2, -358777.0, -454680.03, 84513.71, -0.108127065, -0.09196659, -309559.0, 132992.55, 0.0000000002378373, 10.000776, 9.999526 
8.948537e+2, 2.6483923e+2, -343919.34, -504916.6, 44883.754, -0.08622227, -0.06457495, -332251.9, 12305.175, 0.00000030747992, 10.00068, 9.998549 
8.948262e+2, 2.7483717e+2, -286348.2, -428483.0, 24368.248, -0.03303253, -0.13160212, -282286.44, -35707.645, 0.0000026197797, 10.000413, 9.998529 
8.9479905e+2, 2.848354e+2, -124612.35, -223015.64, 38310.332, 0.02624105, -0.18885823, -111456.3, 37137.29, 0.000013141425, 10.000515, 9.999221 
8.9477235e+2, 2.948338e+2, 37775.426, -91065.3, 58787.164, 0.09692199, -0.2783863, 60566.953, 111170.086, 0.00005419451, 10.000938, 9.999253 
8.9474344e+2, 3.0483142e+2, -45834.5, -212048.1, -40626.047, 0.07446726, -0.391228, -36436.08, -36436.08, 0.0001662128, 10.000493, 9.998302 
8.9471304e+2, 3.1483307e+2, -150088.92, -95503.04, -27984.781, 0.02177269, -0.058362503, -83705.664, -83705.664, 0.0003568497, 9.999049, 9.999794 
9.0524256e+2, 1.248849e+2, -1646176.5, -1792974.1, -277.02515, -0.05688457, -0.077309474, -1646175.9, 69943.92, 0.0000010657902, 10.000926, 9.999018 
9.0521604e+2, 1.3488428e+2, -1602140.3, -1725489.9, 32793.54, 0.102902345, -0.041917484, -1593963.8, 24165.742, 0.000000007369457, 10.000597, 9.998965 
9.0518796e+2, 1.4488342e+2, -1435771.8, -1548254.6, 90752.82, 0.07220957, -0.03640557, -1385246.4, 134891.02, 0.0, 10.000855, 9.999381 
9.0516037e+2, 1.5488169e+2, -1213058.6, -1390625.6, 98211.97, -0.0026043882, -0.15483646, -1169448.4, 252701.39, 0.0, 10.001715, 9.999377 
9.0513265e+2, 1.6488056e+2, -1187840.9, -1462594.1, 58933.688, -0.028729456, -0.140591, -1175733.3, 148427.39, 0.0, 10.001794, 9.998173 
9.05105e+2, 1.7487995e+2, -1195736.0, -1413693.3, 51449.156, 0.009172847, -0.020491157, -1184201.8, 41969.02, 0.0, 10.001064, 9.998183 
9.050766e+2, 1.8487865e+2, -1038981.6, -1169178.1, 53232.813, -0.051172886, -0.018291106, -1019987.56, 108195.61, 0.0, 10.000953, 9.999242 
9.0504766e+2, 1.9487643e+2, -864223.7, -1032644.25, -3970.6033, -0.21316257, -0.17033444, -864130.1, 166069.17, 0.0, 10.00147, 9.99926 
9.0502083e+2, 2.0487498e+2, -835699.25, -1091365.3, 7042.33, -0.17328878, -0.18221027, -835505.44, 96705.016, 0.0, 10.001535, 9.998149 
9.0499616e+2, 2.1487424e+2, -797204.0, -1024007.8, 67614.2, 0.079925366, -0.075926006, -778576.8, 55640.508, 0.0, 10.001134, 9.998133 
9.049686e+2, 2.248722e+2, -703492.5, -934234.6, 31393.648, 0.12751259, -0.08412496, -699297.5, 36940.324, 0.0, 10.001128, 9.998079 
9.0493816e+2, 2.3486874e+2, -546100.3, -806528.9, -2727.6328, -0.044552505, -0.24499516, -546071.75, 92201.77, 0.0, 10.001533, 9.998089 
9.0490943e+2, 2.4486755e+2, -375967.84, -529256.94, 17701.303, -0.102848716, -0.22944328, -373950.28, 166334.08, 0.0, 10.001405, 9.999379 
9.0488243e+2, 2.5486872e+2, -375555.0, -475494.47, -7610.105, -0.040513728, -0.060332466, -374978.84, 67291.32, 0.0, 10.000722, 9.999405 
9.04855e+2, 2.6486793e+2, -342673.3, -517157.0, -15026.687, -0.014526813, -0.026462795, -341388.66, 2888.022, 0.0000002007212, 10.000747, 9.998434 
9.0482724e+2, 2.7486503e+2, -130547.53, -366280.38, -2143.6785, -0.017879853, -0.16346464, -130528.04, 115777.7, 0.0000025589381, 10.001535, 9.998419 
9.0479946e+2, 2.8486308e+2, -6707.4663, -162561.61, 1168.9504, -0.021478672, -0.23475614, -6698.699, 141623.11, 0.000014744336, 10.0013075, 9.999259 
9.0477157e+2, 2.9486206e+2, -92720.01, -143413.94, -20144.17, -0.021353407, -0.27281007, -85690.19, -35364.79, 0.00006127167, 10.000008, 9.999338 
9.047426e+2, 3.048595e+2, -122153.38, -271097.78, -94743.84, -0.030002978, -0.39653006, -76116.234, -76116.234, 0.00017929857, 10.000058, 9.998111 
9.0471345e+2, 3.1486034e+2, 140269.7, -28379.082, -51325.13, 0.052467853, -0.12436945, 154661.44, 154661.44, 0.00037394426, 10.001349, 9.999151 
9.1524374e+2, 1.24912985e+2, -1608066.9, -1727431.4, -17751.59, -0.04262295, -0.1470512, -1605482.9, 110357.0, 0.000002613721, 10.000979, 9.999443 
9.1521674e+2, 1.3491198e+2, -1567438.0, -1665126.0, 21568.555, 0.103579134, -0.1883838, -1562887.9, 54961.18, 0.00000007607973, 10.000641, 9.999359 
9.151886e+2, 1.4491181e+2, -1425404.6, -1534014.3, 118811.414, 0.03992696, -0.14011641, -1349075.6, 170774.28, 0.0, 10.000882, 9.999467 
9.1516143e+2, 1.5491177e+2, -1202343.5, -1372090.4, 133856.75, -0.07660325, -0.10053096, -1128720.5, 293128.44, 0.0, 10.001729, 9.999497 
9.151342e+2, 1.64911e+2, -1195325.3, -1474338.9, 26381.072, -0.055689093, -0.052262314, -1192852.8, 131004.766, 0.0, 10.001781, 9.998096 
9.1510713e+2, 1.7490941e+2, -1202266.5, -1426494.5, 26842.053, 0.111205146, -0.02374841, -1199098.0, 26778.867, 0.0, 10.001061, 9.998096 
9.1507894e+2, 1.8490717e+2, -1142988.9, -1382131.1, 69388.89, 0.080936536, -0.0375387, -1124313.6, 3587.6838, 0.0, 10.000938, 9.997788 
9.1504973e+2, 1.9490415e+2, -970503.4, -1249076.8, 20429.234, -0.15516439, -0.12476416, -969013.2, 60918.797, 0.0, 10.0014515, 9.997784 
9.150221e+2, 2.0490246e+2, -723322.56, -850092.6, -10930.577, -0.20327388, -0.16881567, -722386.94, 209557.73, 0.0, 10.001499, 9.999823 
9.1499597e+2, 2.1490201e+2, -685704.06, -778595.1, 56340.703, -0.055328287, -0.20204695, -659132.75, 174807.36, 0.0, 10.001075, 9.9998455 
9.1496843e+2, 2.2490078e+2, -765841.2, -1052141.6, 41862.285, -0.010064105, -0.1769086, -759845.7, -23894.646, 0.0, 10.001076, 9.997297 
9.1493946e+2, 2.3489869e+2, -607949.0, -927219.6, 16469.697, -0.070895605, -0.1221432, -607101.6, 30877.207, 0.0, 10.001497, 9.997277 
9.1491157e+2, 2.448969e+2, -422702.3, -618089.5, -11505.331, -0.034379717, -0.097528964, -422027.16, 117971.47, 0.0, 10.0013685, 9.998787 
9.148847e+2, 2.5489533e+2, -424884.25, -567565.9, -30305.574, 0.108230494, -0.13884039, -418714.2, 23297.166, 0.0, 10.000674, 9.998798 
9.1485727e+2, 2.648935e+2, -316176.63, -455531.1, 10759.425, 0.12287125, -0.20363846, -315350.78, 28676.895, 0.00000011562638, 10.000718, 9.998871 
9.14829e+2, 2.7489117e+2, -101127.78, -302847.5, 32565.066, 0.005558946, -0.32559982, -96000.875, 150048.08, 0.0000025826089, 10.001522, 9.998863 
9.147997e+2, 2.8489035e+2, -39693.934, -223413.97, -53307.32, -0.12729356, -0.28887734, -25346.92, 122708.6, 0.000017158924, 10.001276, 9.998855 
9.1476905e+2, 2.9489097e+2, -134087.16, -212342.63, -66797.7, -0.27543983, -0.12009413, -95800.984, -45753.34, 0.000070174305, 9.99993, 9.998904 
9.147405e+2, 3.0488822e+2, -104521.555, -216031.95, -47636.703, -0.2516845, -0.26360473, -86942.6, -86942.6, 0.00019601652, 9.999984, 9.998523 
9.14715e+2, 3.1488612e+2, 137505.42, -29665.85, 9824.094, 0.049360264, -0.32716325, 138080.77, 138080.77, 0.00039683623, 10.001336, 9.999147 
9.252448e+2, 1.2494119e+2, -1656449.6, -1709080.8, -33542.387, -0.0029098273, -0.14284255, -1640131.9, 75429.17, 0.0000053718704, 10.000473, 9.999807 
9.2521816e+2, 1.3493966e+2, -1439578.6, -1568143.0, -14765.944, 0.14991146, -0.27292535, -1437904.5, 179667.97, 0.00000033393198, 10.001367, 9.999676 
9.251899e+2, 1.4493936e+2, -1387794.0, -1550016.9, 61201.39, 0.074255235, -0.2335975, -1367295.1, 152279.17, 0.0, 10.001301, 9.99915 
9.2516226e+2, 1.5493967e+2, -1426333.5, -1515132.0, 32747.52, -0.093139015, -0.12859824, -1415563.1, 6009.9873, 0.0, 10.000352, 9.999173 
9.25135e+2, 1.6493888e+2, -1380132.0, -1528827.4, -63139.094, -0.07270397, -0.08052652, -1356939.4, -33357.04, 0.0, 10.000365, 9.998403 
9.251085e+2, 1.74937e+2, -1141373.0, -1363801.3, -41017.42, 0.1441583, -0.11357243, -1134050.1, 91552.055, 0.0, 10.001337, 9.998393 
9.2508096e+2, 1.8493491e+2, -1049989.0, -1326957.4, 72119.164, 0.16139919, -0.13104565, -1032335.25, 95289.06, 0.0, 10.001535, 9.99788 
9.250521e+2, 1.9493254e+2, -1049011.4, -1276600.6, 127303.75, -0.029109528, -0.161453, -992056.25, 37593.38, 0.0, 10.0008745, 9.99787 
9.250241e+2, 2.0493107e+2, -819654.94, -911423.3, 103230.31, -0.11436572, -0.1800891, -752570.7, 179090.67, 0.0, 10.0008955, 9.999695 
9.24997e+2, 2.149304e+2, -614852.1, -759933.8, 26207.908, -0.08697149, -0.22258721, -610263.06, 223397.36, 0.0, 10.001618, 9.999715 
9.2496926e+2, 2.2492911e+2, -692098.44, -1007443.25, -30898.568, -0.055062506, -0.20225248, -689099.44, 46572.98, 0.0, 10.001547, 9.997375 
9.2494106e+2, 2.3492712e+2, -723073.4, -974190.06, 817.60455, -0.019187283, -0.14225121, -723070.75, -85372.57, 0.0, 10.00067, 9.997354 
9.249132e+2, 2.4492522e+2, -582180.7, -721946.94, 28464.344, 0.0471477, -0.12301833, -576606.06, -36886.348, 0.0, 10.000387, 9.99855 
9.2488575e+2, 2.5492325e+2, -433679.63, -597373.8, 28696.91, 0.14762497, -0.17913169, -428794.6, 12943.32, 0.0, 10.000726, 9.998569 
9.248579e+2, 2.6492158e+2, -324596.8, -435971.72, 92344.78, 0.13336515, -0.22505829, -272448.06, 71305.2, 0.00000007319143, 10.00055, 9.999088 
9.248297e+2, 2.7492005e+2, -328900.13, -385133.25, 89818.5, 0.008063174, -0.29431108, -262900.25, -17133.346, 0.0000027897247, 9.99984, 9.9991045 
9.248003e+2, 2.849195e+2, -223813.13, -324315.5, 9948.692, -0.13025497, -0.23536481, -222837.78, -75066.27, 0.000020132902, 10.000059, 9.998748 
9.247695e+2, 2.9492003e+2, 44603.457, -140317.5, 12886.378, -0.27696273, -0.06586785, 45497.133, 95264.01, 0.00008107723, 10.001213, 9.998784 
9.2474097e+2, 3.0491754e+2, 111471.87, -51337.73, 66414.516, -0.25500467, -0.20133528, 135127.19, 135127.19, 0.00021777536, 10.001203, 9.999064 
9.247158e+2, 3.149149e+2, -50702.715, -93826.12, 115462.74, 0.07647804, -0.37283137, 45194.313, 45194.313, 0.000428338, 9.999923, 9.999386 
9.352453e+2, 1.24969415e+2, -1631817.4, -1661846.3, -5951.9473, -0.016646314, -0.09650307, -1630680.6, 84603.625, 0.000009857008, 10.000489, 10.000126 
9.352201e+2, 1.3496737e+2, -1415578.1, -1525169.8, 19910.871, 0.20321214, -0.3020916, -1412072.8, 205225.42, 0.0000009955157, 10.001396, 9.999955 
9.351919e+2, 1.4496636e+2, -1437591.1, -1662270.9, 20885.45, 0.13538222, -0.3120632, -1435666.3, 83641.336, 0.00000000002439963, 10.001332, 9.998369 
9.3516266e+2, 1.549656e+2, -1478418.9, -1629588.0, 2004.4547, -0.09142271, -0.2343253, -1478392.3, -57072.137, 0.0, 10.000377, 9.998378 
9.35135e+2, 1.6496445e+2, -1328360.9, -1425833.9, -29987.059, -0.11669739, -0.21854225, -1319874.4, 3458.1587, 0.0, 10.000385, 9.999099 
9.3510926e+2, 1.749629e+2, -1088105.1, -1258374.3, 452.67245, 0.07337759, -0.28889716, -1088103.9, 137241.27, 0.0, 10.00136, 9.999106 
9.3508244e+2, 1.84962e+2, -945783.2, -1105326.0, 44462.355, 0.15855563, -0.29683548, -934228.9, 193122.23, 0.0, 10.001513, 9.999414 
9.350546e+2, 1.9496168e+2, -943631.2, -1053076.5, 106089.44, 0.1288056, -0.27654326, -878982.44, 150369.52, 0.0, 10.000854, 9.999416 
9.3502676e+2, 2.0496085e+2, -957252.7, -1191763.1, 124501.26, 0.05768971, -0.21369807, -903483.44, 27877.182, 0.0, 10.000871, 9.997784 
9.34999e+2, 2.1495946e+2, -756830.56, -1045942.7, 56754.082, -0.052163064, -0.13515054, -746088.56, 87289.36, 0.0, 10.001579, 9.997772 
9.34971e+2, 2.2495724e+2, -634026.8, -873690.6, -68587.95, -0.04364039, -0.1563003, -615786.3, 119614.79, 0.0, 10.0014925, 9.998318 
9.349427e+2, 2.3495406e+2, -664625.5, -840059.7, -28535.268, 0.08693338, -0.3122208, -660100.8, -22669.193, 0.0, 10.000615, 9.9983015 
9.3491423e+2, 2.4495251e+2, -579987.4, -705647.75, 37469.215, 0.10930479, -0.31084934, -569663.06, -30215.611, 0.0, 10.000337, 9.998686 
9.348853e+2, 2.5495255e+2, -431015.2, -584485.75, 46148.117, 0.028544063, -0.1821832, -418207.47, 23241.807, 0.0, 10.00069, 9.998676 
9.348569e+2, 2.649524e+2, -328132.78, -433956.84, 62731.773, -0.02437102, -0.08265021, -298978.03, 44473.957, 0.00000003612581, 10.000509, 9.999123 
9.3482906e+2, 2.7495188e+2, -338185.53, -386996.13, 67713.305, -0.04651366, -0.051812045, -290613.7, -45156.48, 0.0000027028154, 9.9997635, 9.999128 
9.3480116e+2, 2.849508e+2, -216727.63, -292734.22, 53666.66, -0.052600175, -0.059810467, -188971.05, -41503.54, 0.000022320448, 9.9999895, 9.998999 
9.347731e+2, 2.9494917e+2, 61528.082, -106548.81, 66738.086, -0.048214003, -0.12566324, 84804.28, 134287.02, 0.000092742026, 10.001219, 9.999014 
9.347441e+2, 3.049475e+2, 155274.33, 43199.742, 16237.074, -0.06367148, -0.22539529, 157579.3, 157579.3, 0.0002446386, 10.001189, 9.999722 
9.347155e+2, 3.1494728e+2, -40663.836, -32958.7, 73193.82, 0.047608297, -0.22732359, 36483.87, 36483.87, 0.00047061927, 9.999759, 9.999879 
9.4524693e+2, 1.24996565e+2, -1695733.9, -1724107.9, -72.86496, 0.12369389, -0.10834729, -1695733.8, 19284.605, 0.000016753027, 10.000189, 9.999846 
9.4522053e+2, 1.349949e+2, -1593727.3, -1648098.0, -39077.18, 0.16470955, -0.24535087, -1573309.4, 43723.164, 0.000002343361, 10.0003395, 9.999622 
9.451924e+2, 1.4499415e+2, -1478899.0, -1639955.8, -30111.459, 0.07233664, -0.22917283, -1473453.5, 45586.652, 0.0000000053592455, 10.00087, 9.998743 
9.4516426e+2, 1.5499349e+2, -1232632.4, -1472921.5, 27293.666, -0.039756645, -0.17771605, -1229571.1, 191478.83, 0.0, 10.001894, 9.998724 
9.451367e+2, 1.649923e+2, -1071437.9, -1260284.6, 32763.156, -0.059286248, -0.20052269, -1065915.3, 257145.66, 0.0, 10.0019655, 9.999476 
9.451099e+2, 1.7499061e+2, -1110729.6, -1227046.1, 31011.701, 0.02729069, -0.32107598, -1102978.0, 122094.76, 0.0, 10.001021, 9.999485 
9.45083e+2, 1.8499008e+2, -1015542.9, -1103806.5, 24409.426, 0.10209084, -0.330116, -1009242.2, 117831.89, 0.0, 10.000888, 9.999719 
9.450561e+2, 1.9499055e+2, -817933.1, -958990.2, -12411.078, 0.1574412, -0.26149824, -816849.44, 212216.9, 0.0, 10.0015745, 9.999709 
9.4502866e+2, 2.0498966e+2, -900992.3, -1222244.9, 16732.602, 0.13727362, -0.19420831, -900123.2, 30953.719, 0.0, 10.001509, 9.997266 
9.45001e+2, 2.149874e+2, -930815.7, -1185805.0, 45530.56, 0.047772735, -0.15177618, -922929.7, -89823.77, 0.0, 10.00063, 9.997266 
9.449727e+2, 2.2498515e+2, -728679.9, -866887.2, -33857.17, 0.033623118, -0.17433408, -720831.44, 14298.632, 0.0, 10.000611, 9.998792 
9.449439e+2, 2.3498277e+2, -508212.3, -708981.44, -37456.24, 0.10346538, -0.29834044, -501451.97, 135698.77, 0.0, 10.00145, 9.998797 
9.4491506e+2, 2.4498168e+2, -370992.22, -605969.94, 18222.152, 0.09043909, -0.27602917, -369587.5, 169574.11, 0.0, 10.001775, 9.998677 
9.44886e+2, 2.5498182e+2, -300518.4, -520807.9, 9837.66, -0.0045900415, -0.13610925, -300079.97, 141083.36, 0.0, 10.001584, 9.998682 
9.4485754e+2, 2.6498148e+2, -215475.22, -403829.4, -1774.9899, -0.04792846, -0.043130975, -215458.48, 127709.59, 0.000000027783642, 10.001389, 9.998905 
9.448296e+2, 2.7498057e+2, -142799.1, -317982.34, -24084.723, -0.030862866, -0.031093057, -139548.19, 105629.08, 0.000002328807, 10.001214, 9.998906 
9.448022e+2, 2.8497922e+2, -76063.875, -227711.83, -16474.707, 0.014534616, -0.052969124, -74294.734, 72895.96, 0.000023776485, 10.000969, 9.998973 
9.447753e+2, 2.9497752e+2, -33288.62, -154699.92, -31289.287, 0.082465135, -0.1294271, -25699.357, 23509.012, 0.00010394975, 10.000584, 9.998986 
9.447457e+2, 3.0497655e+2, 100718.84, 45148.64, -131007.36, 0.0076313345, -0.16710268, 206855.14, 206855.14, 0.00027361658, 10.000691, 9.999978 
9.44715e+2, 3.149766e+2, 193295.31, 100771.53, -120261.38, -0.043778073, -0.1650422, 275885.9, 275885.9, 0.00052026927, 10.001259, 10.00009 
9.552492e+2, 1.2502299e+2, -1746190.1, -1848674.0, 6098.885, 0.310182, -0.16053766, -1745828.5, -31068.623, 0.00002677623, 10.000275, 9.998946 
9.552193e+2, 1.3502236e+2, -1655325.5, -1780659.8, -29841.033, 0.007435085, -0.10452627, -1648583.3, -31810.31, 0.0000047533053, 10.000359, 9.998701 
9.5519114e+2, 1.4502273e+2, -1381744.5, -1435529.6, 8837.617, -0.1407252, -0.0017445649, -1380329.6, 138441.64, 0.000000046136613, 10.000855, 10.000154 
9.551668e+2, 1.5502325e+2, -1132492.3, -1263734.3, 71587.12, 0.013231843, 0.027041405, -1101000.8, 319762.6, 0.0, 10.001889, 10.000162 
9.551398e+2, 1.6502245e+2, -1067589.9, -1250790.0, -6622.8804, 0.048673358, -0.03490114, -1067350.8, 255416.84, 0.0, 10.001959, 9.999544 
9.5511043e+2, 1.7502023e+2, -1104987.3, -1218295.9, -1538.5208, -0.029820118, -0.21563643, -1104966.4, 119818.28, 0.0, 10.001035, 9.999538 
9.550826e+2, 1.8501918e+2, -1078604.6, -1235943.8, 47003.863, -0.04128542, -0.23257317, -1065632.1, 61160.395, 0.0, 10.00089, 9.998812 
9.550563e+2, 1.950192e+2, -882396.25, -1090903.9, 18014.84, 0.016660415, -0.118548915, -880851.25, 147940.94, 0.0, 10.001564, 9.998811 
9.550298e+2, 2.0501757e+2, -844901.9, -1098719.0, -20889.73, 0.08941496, -0.12455046, -843194.1, 87615.16, 0.0, 10.001476, 9.99813 
9.550029e+2, 2.1501422e+2, -877870.4, -1063658.6, 15463.3545, 0.17506771, -0.2764054, -876592.1, -43747.81, 0.0, 10.000577, 9.998131 
9.5497435e+2, 2.2501287e+2, -734256.3, -866870.06, -7011.8105, 0.13955283, -0.2546519, -733886.6, 972.4096, 0.0, 10.00056, 9.9988165 
9.549442e+2, 2.3501332e+2, -513160.47, -711020.75, -1473.1876, -0.012494286, -0.09519961, -513149.5, 123705.4, 0.0, 10.00141, 9.998806 
9.549154e+2, 2.4501276e+2, -385469.8, -627315.56, 7524.953, -0.05299886, -0.013779017, -385235.9, 153625.67, 0.0, 10.00174, 9.998546 
9.5488787e+2, 2.5501108e+2, -313645.0, -541851.2, 6009.6416, 0.017226767, -0.041040253, -313486.84, 127392.984, 0.0, 10.001558, 9.9985485 
9.5485985e+2, 2.650088e+2, -253473.4, -477044.03, -10817.272, 0.03985479, -0.1125427, -252951.25, 89951.09, 0.000000030362223, 10.001365, 9.998415 
9.5483136e+2, 2.7500582e+2, -180992.28, -393222.47, -25410.412, 0.0143687, -0.2579319, -177992.28, 66937.766, 0.000002140531, 10.001196, 9.998401 
9.5480335e+2, 2.8500453e+2, -103331.26, -276398.75, -36316.992, 0.025196394, -0.23383974, -96019.31, 50924.516, 0.000025776937, 10.0009365, 9.998652 
9.5477575e+2, 2.9500493e+2, -64401.08, -205085.14, -44388.44, 0.07366427, -0.06453268, -51566.58, -2623.0134, 0.00011520068, 10.000522, 9.998669 
9.547455e+2, 3.050047e+2, 78163.09, 16476.527, -110590.25, -0.082088664, -0.010119784, 162130.58, 162130.58, 0.0003025404, 10.000615, 9.999817 
9.5471394e+2, 3.1500277e+2, 184399.8, 92865.2, -93853.78, -0.29062644, -0.1906205, 243050.78, 243050.78, 0.00057311467, 10.00122, 10.00005 
9.652499e+2, 1.2505005e+2, -1548563.6, -1738524.0, 47230.844, 0.2898861, -0.20095065, -1537468.4, 177026.44, 0.000040530904, 10.001563, 9.999082 
9.652193e+2, 1.3505054e+2, -1577862.9, -1727219.4, 62874.223, -0.048858095, -0.046508238, -1554919.4, 61578.566, 0.000008656152, 10.000818, 9.998846 
9.651915e+2, 1.4505106e+2, -1473782.5, -1458327.0, 126396.42, -0.15530911, 0.055683337, -1339422.3, 179072.05, 0.00000019058375, 10.00013, 10.000347 
9.651682e+2, 1.5505072e+2, -1466447.1, -1402505.9, 92551.32, 0.090209775, -0.021313634, -1336558.9, 83934.32, 0.0, 9.999504, 10.000359 
9.651416e+2, 1.6505004e+2, -1371761.8, -1422384.0, -27903.111, 0.13575467, -0.06777979, -1359400.1, -36902.92, 0.0, 9.999984, 9.999315 
9.651118e+2, 1.7504893e+2, -1037104.9, -1212596.1, -51277.59, -0.015427163, -0.115646444, -1023220.4, 201286.89, 0.0, 10.001615, 9.999299 
9.6508384e+2, 1.8504782e+2, -952377.4, -1208648.1, -4806.397, -0.043400627, -0.1124076, -952287.25, 174230.53, 0.0, 10.001899, 9.998517 
9.650578e+2, 1.9504665e+2, -1014079.0, -1187873.3, 2547.3665, 0.052974645, -0.08671391, -1014041.7, 14487.92, 0.0, 10.000804, 9.998514 
9.650309e+2, 2.0504497e+2, -920581.2, -1033550.5, -2721.6567, 0.107976675, -0.12830625, -920515.6, 10029.829, 0.0, 10.000529, 9.99903 
9.650032e+2, 2.1504267e+2, -740332.75, -897208.3, 27616.242, 0.123462215, -0.2663108, -735613.2, 96953.2, 0.0, 10.001097, 9.999021 
9.6497464e+2, 2.250419e+2, -641311.06, -818614.75, 29391.76, 0.08711324, -0.230263, -636565.8, 98007.9, 0.0, 10.001183, 9.99885 
9.6494544e+2, 2.3504256e+2, -598639.25, -745965.7, 27055.012, 0.001790644, -0.054463357, -593828.0, 42740.36, 0.0, 10.000797, 9.99886 
9.64917e+2, 2.4504164e+2, -571588.94, -748516.3, 24995.93, -0.009158628, 0.0019556559, -568125.4, -29546.24, 0.0, 10.000597, 9.998264 
9.6488935e+2, 2.5503907e+2, -474239.94, -650397.94, 4814.32, 0.061418995, -0.08586338, -474108.47, -33501.855, 0.0, 10.000595, 9.998265 
9.648614e+2, 2.6503664e+2, -310234.63, -518539.1, 19208.451, 0.077343024, -0.14946401, -308478.16, 34152.926, 0.000000012060779, 10.001036, 9.998289 
9.64833e+2, 2.7503425e+2, -92544.41, -364534.56, 25121.168, 0.033645697, -0.2243754, -90243.664, 154410.4, 0.0000023356135, 10.001863, 9.998276 
9.6480453e+2, 2.8503275e+2, -1388.07, -246781.3, 1120.853, 0.018004468, -0.2065535, -1382.9504, 145286.66, 0.000028836348, 10.001717, 9.998482 
9.647759e+2, 2.9503226e+2, -61114.45, -225368.3, -6277.5522, 0.038560744, -0.11011354, -60874.88, -12198.037, 0.00012695143, 10.000637, 9.998476 
9.64746e+2, 3.050321e+2, 70885.36, -97682.54, -20641.258, -0.108956516, 0.016479876, 73376.09, 73376.09, 0.00033048782, 10.001044, 9.998825 
9.6471614e+2, 3.150303e+2, 348199.53, 81945.5, -86331.63, -0.26131067, -0.053669285, 373741.84, 373741.84, 0.00062489236, 10.002734, 9.999246 
9.7524875e+2, 1.2507771e+2, -1470669.0, -1573009.5, 18065.342, 0.0018296489, -0.2317138, -1467573.6, 246649.9, 0.000058506626, 10.001541, 10.000229 
9.752202e+2, 1.3507943e+2, -1492489.9, -1559946.8, 34075.41, -0.04632769, -0.06628737, -1478273.1, 137934.8, 0.00001444443, 10.000853, 9.999979 
9.751929e+2, 1.450792e+2, -1535759.4, -1596078.8, 95818.97, -0.027067559, -0.049518242, -1465465.8, 52743.914, 0.0000005546723, 10.00017, 9.999385 
9.751684e+2, 1.5507606e+2, -1532177.8, -1543057.1, 70458.79, 0.15659328, -0.30865952, -1466949.0, -46710.867, 0.0, 9.999523, 9.999386 
9.75142e+2, 1.6507535e+2, -1404700.0, -1495052.4, 29919.541, 0.17269935, -0.28435534, -1395690.6, -73443.3, 0.0, 10.0, 9.99881 
9.75114e+2, 1.7507686e+2, -1070048.4, -1284979.9, 14083.5625, 0.036504682, -0.019127367, -1069129.5, 155109.77, 0.0, 10.001627, 9.998797 
9.750868e+2, 1.8507606e+2, -934985.06, -1168021.8, -48641.316, 0.056894872, 0.026677804, -925239.75, 201009.58, 0.0, 10.00188, 9.998806 
9.750604e+2, 1.95073e+2, -996261.56, -1146691.4, -34359.03, 0.22825946, -0.16557015, -988785.3, 39492.387, 0.0, 10.000786, 9.998805 
9.75032e+2, 2.0507196e+2, -858537.1, -902278.4, 14693.201, 0.15647517, -0.20194665, -854059.8, 76224.734, 0.0, 10.000513, 9.999941 
9.750016e+2, 2.1507277e+2, -681023.25, -768545.5, 52123.426, -0.14638701, -0.11977138, -656726.44, 175545.3, 0.0, 10.001068, 9.999921 
9.749734e+2, 2.2507226e+2, -643487.94, -814869.0, 10300.491, -0.16048546, -0.10568431, -642871.06, 91402.98, 0.0, 10.001147, 9.998891 
9.7494733e+2, 2.350704e+2, -606161.4, -746639.4, 15376.838, 0.10795398, -0.18535084, -604497.9, 31793.637, 0.0, 10.000735, 9.998884 
9.749196e+2, 2.4506825e+2, -608236.7, -814816.94, 20607.246, 0.19038422, -0.2309564, -606201.06, -67886.484, 0.0, 10.00055, 9.997834 
9.7489023e+2, 2.550657e+2, -510000.0, -716165.0, 9282.387, 0.09164343, -0.27519295, -509582.94, -69238.98, 0.0, 10.000553, 9.997837 
9.748619e+2, 2.6506504e+2, -300265.78, -485186.53, 49219.46, 0.023796614, -0.15494175, -287981.34, 54372.742, 0.0000000034767167, 10.000987, 9.998539 
9.748345e+2, 2.7506605e+2, -80283.59, -328528.53, 62251.48, -0.010859719, 0.08750603, -65547.74, 178799.48, 0.0000028342504, 10.0018215, 9.998541 
9.7480565e+2, 2.8506404e+2, -8240.456, -253467.25, -40939.414, -0.0421811, 0.044987213, -1586.3751, 144779.6, 0.000032308424, 10.001685, 9.998452 
9.7477543e+2, 2.950593e+2, -70895.336, -237285.5, -37220.707, -0.075781435, -0.28369093, -62948.754, -14540.035, 0.00013865711, 10.000601, 9.998412 
9.74747e+2, 3.0505866e+2, -75218.34, -387340.3, 44810.992, -0.11146639, -0.10188651, -68912.29, -68912.29, 0.0003574127, 10.00099, 9.99686 
9.747217e+2, 3.1505936e+2, 225811.58, -159098.86, -13741.872, 0.008260803, 0.2708565, 226301.56, 226301.56, 0.0006733306, 10.002687, 9.997605 
9.852479e+2, 1.251047e+2, -1805026.1, -1712733.0, -33233.797, -0.10367819, -0.20585275, -1702011.4, 11950.193, 0.00008108169, 9.999152, 10.0004225 
9.8522186e+2, 1.3510633e+2, -1511165.9, -1545536.9, -103830.555, 0.055502824, -0.069415845, -1423108.3, 192838.1, 0.000022462764, 10.000627, 10.000187 
9.851947e+2, 1.4510608e+2, -1417133.8, -1547110.1, -73478.375, 0.09626766, -0.06242016, -1384027.4, 133920.7, 0.0000013019285, 10.00102, 9.999308 
9.851676e+2, 1.5510288e+2, -1394485.1, -1484263.5, -41913.25, 0.08379997, -0.32433307, -1377959.6, 42017.76, 0.0, 10.000502, 9.999313 
9.8514104e+2, 1.6510245e+2, -1332021.5, -1427016.4, 41498.805, 0.06415574, -0.2822853, -1316446.3, 5537.9756, 0.0, 10.000357, 9.999105 
9.851152e+2, 1.7510463e+2, -1213225.1, -1317892.5, 76736.875, 0.049193945, 0.020137714, -1172675.3, 51295.016, 0.0, 10.000499, 9.999111 
9.8508847e+2, 1.8510427e+2, -1065380.5, -1202134.4, 6337.582, 0.085992634, 0.080390036, -1065087.4, 60889.293, 0.0, 10.000861, 9.999061 
9.850609e+2, 1.9510138e+2, -884235.8, -1064095.4, 11553.936, 0.16976362, -0.12002517, -883496.6, 144507.02, 0.0, 10.0014305, 9.999062 
9.8503226e+2, 2.0510057e+2, -741233.75, -837659.06, 39264.7, 0.1078378, -0.15026976, -727267.8, 202740.33, 0.0, 10.001278, 10.00002 
9.850028e+2, 2.1510166e+2, -772659.56, -802284.6, 7457.4077, -0.09389056, -0.04979147, -770888.25, 61103.742, 0.0, 10.000392, 10.000015 
9.8497486e+2, 2.2510085e+2, -779773.5, -890328.3, -52667.223, -0.07955426, -0.06521903, -758700.25, -24703.516, 0.0, 10.000257, 9.998803 
9.849485e+2, 2.3509812e+2, -596734.44, -751522.8, -61767.215, 0.15157594, -0.22230518, -575108.2, 60914.24, 0.0, 10.000841, 9.998801 
9.8492074e+2, 2.4509603e+2, -471878.2, -722286.0, -20952.768, 0.21097559, -0.27073348, -470137.1, 67907.3, 0.0, 10.001383, 9.998065 
9.8489153e+2, 2.550944e+2, -295675.75, -588201.9, 7375.531, 0.09921759, -0.24554417, -295489.9, 144573.88, 0.0, 10.00192, 9.998055 
9.8486316e+2, 2.650941e+2, -211204.0, -463077.38, 47723.53, 0.023561638, -0.08959807, -202464.83, 139605.94, 0.00000001775074, 10.001679, 9.998363 
9.8483574e+2, 2.7509508e+2, -256593.1, -432265.0, 19943.93, -0.004836793, 0.16363192, -254357.33, -10290.944, 0.000003544514, 10.000688, 9.998377 
9.848072e+2, 2.8509286e+2, -115414.125, -334241.6, -88982.234, -0.020932928, 0.12054771, -83798.77, 62288.633, 0.000035208486, 10.001074, 9.998195 
9.8477745e+2, 2.9508764e+2, 222312.03, -127782.1, -109448.28, -0.031824365, -0.22689646, 253712.05, 301845.2, 0.00014828902, 10.0027485, 9.998135 
9.8474944e+2, 3.050863e+2, 174704.55, -316348.2, 34847.676, -0.05368951, -0.07995317, 177165.19, 177165.19, 0.00038101713, 10.002914, 9.996421 
9.8472446e+2, 3.150861e+2, 62804.75, -258835.77, 75375.59, 0.076461986, 0.2470041, 79592.586, 79592.586, 0.0007157471, 10.00164, 9.997433 
9.952472e+2, 1.2513112e+2, -1838938.8, -1804012.3, 23931.594, -0.11542337, -0.13263349, -1791849.8, -78142.04, 0.000108580556, 9.999249, 9.999747 
9.9522424e+2, 1.351315e+2, -1558307.3, -1636002.1, -47493.57, 0.22373624, -0.05857782, -1535797.0, 79912.9, 0.000033028722, 10.0006, 9.999578 
9.9519664e+2, 1.4513192e+2, -1370575.3, -1444115.4, -94184.375, 0.18412401, 0.009185113, -1306237.8, 211469.19, 0.0000026281716, 10.000985, 10.000035 
9.951658e+2, 1.5513115e+2, -1334840.6, -1370447.6, -54988.156, -0.15714456, -0.0836706, -1294845.6, 124865.13, 0.00000000019976186, 10.000539, 10.000079 
9.9513865e+2, 1.6513129e+2, -1255009.5, -1270746.0, 43491.25, -0.21643312, -0.07822503, -1218680.5, 103027.92, 0.0, 10.000376, 10.000168 
9.9511516e+2, 1.7513223e+2, -1139651.4, -1164394.5, 84146.164, -0.0067813867, -0.004107325, -1066972.3, 156728.33, 0.0, 10.000495, 10.000167 
9.950886e+2, 1.8513241e+2, -1053798.5, -1170977.6, 22896.35, 0.011661294, 0.04667475, -1049483.5, 76216.52, 0.0, 10.00083, 9.99929 
9.9505913e+2, 1.9513175e+2, -869812.8, -1031810.44, 35043.59, -0.15086828, 0.04469325, -862557.06, 165150.66, 0.0, 10.001418, 9.99929 
9.9503183e+2, 2.0513074e+2, -799715.25, -948582.7, 594.8986, -0.06623959, 0.021833371, -799712.9, 130003.516, 0.0, 10.001236, 9.999277 
9.9500674e+2, 2.1512935e+2, -833247.6, -913015.0, -23146.09, 0.2519046, -0.051360395, -827017.9, 4708.828, 0.0, 10.000329, 9.999286 
9.9497896e+2, 2.2512773e+2, -800506.8, -919589.1, -34665.387, 0.299483, -0.10287344, -791150.6, -57409.477, 0.0, 10.000197, 9.998631 
9.949488e+2, 2.3512584e+2, -615527.25, -778076.1, -36400.31, 0.09519916, -0.1609107, -607748.25, 28012.09, 0.0, 10.00079, 9.998644 
9.949202e+2, 2.4512504e+2, -416442.88, -600047.8, -4092.9148, 0.013161353, -0.11277138, -416351.7, 121416.3, 0.0, 10.001349, 9.998921 
9.94893e+2, 2.5512522e+2, -240595.69, -467689.44, 31532.377, 0.048113517, 0.008239928, -236298.66, 203466.95, 0.0, 10.001891, 9.9988985 
9.948651e+2, 2.6512393e+2, -259932.63, -557288.9, 6604.778, 0.043652177, 0.051176164, -259785.98, 81994.69, 0.000000028595345, 10.001647, 9.997732 
9.9483657e+2, 2.751211e+2, -312846.66, -531981.25, -13091.368, 0.004426488, -0.009010108, -312067.3, -68254.195, 0.000003781716, 10.000612, 9.997729 
9.94809e+2, 2.8511894e+2, -158862.56, -409486.44, -26378.91, 0.0447329, 0.00967584, -156116.2, -10280.363, 0.000036350866, 10.00101, 9.997708 
9.947822e+2, 2.9511738e+2, 194277.11, -189490.3, -40034.516, 0.16021974, 0.076153465, 198409.02, 246258.72, 0.00015374523, 10.002767, 9.997701 
9.9475336e+2, 3.051151e+2, 258858.66, -143090.67, -16253.967, 0.038432255, 0.090719074, 259514.86, 259514.86, 0.0003968945, 10.002923, 9.997606 
9.9472374e+2, 3.1510997e+2, 140597.11, -59033.895, 37294.063, -0.1727781, -0.19659826, 147336.67, 147336.67, 0.00074672204, 10.001482, 9.998878 
1.0052495e+3, 1.2515882e+2, -1472782.1, -1657450.6, 81828.97, 0.054734264, -0.025645541, -1441740.6, 271700.6, 0.00014134821, 10.001906, 9.999467 
1.00522354e+3, 1.3515854e+2, -1821100.0, -1789331.0, 13186.401, 0.1833958, 0.005673522, -1784571.0, -169119.89, 0.000046426092, 9.998916, 9.999336 
1.0051956e+3, 1.451592e+2, -1677835.9, -1528897.6, 49928.67, 0.1073959, 0.0835063, -1513708.9, 3736.9146, 0.00000474816, 9.998618, 10.000589 
1.0051664e+3, 1.5515955e+2, -1253424.0, -1272211.1, 63247.086, -0.16628851, 0.050333757, -1198876.8, 220561.45, 0.000000004412824, 10.000852, 10.000603 
1.0051395e+3, 1.6515969e+2, -1155658.5, -1209027.8, 59514.43, -0.1995464, 0.025277903, -1117120.1, 204314.23, 0.0, 10.000995, 10.000297 
1.005115e+3, 1.7515963e+2, -1319297.1, -1235448.0, 26815.313, -0.001478667, -0.014521043, -1227605.8, -4171.6294, 0.0, 9.999196, 10.000306 
1.0050883e+3, 1.8515976e+2, -1313722.8, -1260642.0, 5866.8496, 0.00513327, 0.00776538, -1260001.3, -134568.25, 0.0, 9.99889, 9.999611 
1.00505956e+3, 1.9515996e+2, -1068981.6, -1093219.0, 15697.343, -0.17095302, 0.059419118, -1061269.3, -33837.074, 0.0, 9.999905, 9.999598 
1.0050326e+3, 2.0515922e+2, -928526.56, -1040007.44, -34778.07, -0.07295714, 0.06004214, -918566.9, 10872.68, 0.0, 10.000481, 9.99901 
1.0050075e+3, 2.151575e+2, -810978.06, -931603.06, -30099.645, 0.2869025, -0.018193806, -803884.44, 27570.893, 0.0, 10.000612, 9.999018 
1.00497976e+3, 2.25156e+2, -671203.06, -837232.0, 33347.973, 0.32428142, -0.054690637, -664755.3, 68714.35, 0.0, 10.0009985, 9.99881 
1.0049495e+3, 2.3515457e+2, -483220.28, -695045.0, 48414.926, 0.056894463, -0.083296284, -472679.1, 162804.53, 0.0, 10.001612, 9.998817 
1.00492105e+3, 2.45154e+2, -369064.25, -574713.8, 46319.61, -0.03909408, -0.023058195, -359112.94, 178375.72, 0.0, 10.0016575, 9.99895 
1.0048943e+3, 2.551542e+2, -341978.7, -510177.3, 12797.056, 0.03303875, 0.095384076, -341010.63, 98475.07, 0.0, 10.001174, 9.99895 
1.0048667e+3, 2.6515222e+2, -333270.2, -611129.56, -27918.912, 0.07200589, 0.076860435, -330492.7, 11013.424, 0.000000017098808, 10.001237, 9.997553 
1.00483835e+3, 2.75148e+2, -152093.02, -474366.1, -20818.367, 0.07554088, -0.103110455, -150753.75, 92796.336, 0.000003428396, 10.001807, 9.997546 
1.004811e+3, 2.851459e+2, -21003.959, -347626.03, 47608.227, 0.11105773, -0.06686157, -14206.095, 131366.03, 0.00003625069, 10.001971, 9.99767 
1.0047847e+3, 2.951458e+2, 41908.734, -266923.1, 59300.234, 0.1842764, 0.15047875, 52903.8, 100477.266, 0.00015665985, 10.001732, 9.997666 
1.0047557e+3, 3.051434e+2, 130894.62, -195226.89, 15939.133, 0.03390875, 0.14251494, 131671.78, 131671.78, 0.0004073917, 10.001996, 9.997696 
1.0047254e+3, 3.151368e+2, 338574.0, 71960.6, -29086.418, -0.20543815, -0.29686853, 341710.34, 341710.34, 0.0007688647, 10.002681, 9.999204 
1.015254e+3, 1.2518786e+2, -1480462.3, -1660948.9, -28495.605, 0.3059808, 0.10882614, -1476070.3, 237091.53, 0.0001798155, 10.001844, 9.999475 
1.0152198e+3, 1.351874e+2, -1801882.8, -1773974.5, -91923.664, -0.089314915, 0.11571434, -1694951.9, -79781.55, 0.000062927356, 9.999012, 9.999397 
1.0151917e+3, 1.4518793e+2, -1644560.1, -1479902.5, 129607.43, -0.15486205, 0.16108489, -1408686.3, 108479.0, 0.000007860604, 9.998704, 10.000885 
1.015169e+3, 1.5518813e+2, -1240472.0, -1235390.5, 146262.0, 0.0074717263, 0.08520317, -1091647.3, 327512.2, 0.000000028517778, 10.000811, 10.0008745 
1.0151431e+3, 1.6518779e+2, -1213298.3, -1321544.3, -13064.209, 0.060973622, 0.037584238, -1211743.9, 109417.22, 0.0, 10.0009575, 9.999543 
1.01511456e+3, 1.751869e+2, -1362324.0, -1337727.8, -34928.844, 0.028436063, -0.013565924, -1312995.3, -89825.055, 0.0, 9.999247, 9.999581 
1.0150875e+3, 1.8518639e+2, -1284333.6, -1202821.1, 40285.813, 0.0326967, -0.039753467, -1186271.1, -61096.41, 0.0, 9.998904, 10.000001 
1.0150619e+3, 1.951861e+2, -1045225.3, -1037176.4, 56120.86, 0.06644751, -0.07586235, -984935.9, 42240.254, 0.0, 9.999873, 9.999998 
1.0150343e+3, 2.0518604e+2, -922700.4, -1015803.75, -34231.176, 0.04414229, -0.03551603, -911469.44, 17707.398, 0.0, 10.00043, 9.999203 
1.01500496e+3, 2.1518613e+2, -801220.0, -905559.75, -21738.477, -0.027594771, 0.047254115, -796872.1, 34305.65, 0.0, 10.000586, 9.999211 
1.0149771e+3, 2.2518559e+2, -642540.6, -764549.25, 51890.688, -0.04016262, 0.07198236, -623456.44, 109726.06, 0.0, 10.000944, 9.999333 
1.01495065e+3, 2.3518439e+2, -456116.72, -626508.8, 74823.16, 0.00085493893, 0.012060467, -427924.63, 207267.0, 0.0, 10.001558, 9.999313 
1.0149233e+3, 2.4518295e+2, -434619.7, -696741.2, 23290.11, 0.019329801, 0.0021821305, -432566.4, 104639.17, 0.0, 10.001597, 9.998139 
1.0148954e+3, 2.551812e+2, -404567.06, -630220.75, -1901.2333, 0.019757053, 0.0067850566, -404551.03, 34673.855, 0.0, 10.001128, 9.998149 
1.014868e+3, 2.6517883e+2, -319155.34, -570614.6, -7928.281, 0.07524307, -0.024632147, -318905.63, 22342.863, 0.000000011022683, 10.001188, 9.997855 
1.0148413e+3, 2.7517578e+2, -132885.03, -429958.2, 7483.9224, 0.18048061, -0.1197548, -132696.63, 110580.44, 0.0000031084232, 10.001786, 9.997863 
1.0148133e+3, 2.8517386e+2, 4498.769, -286855.22, 35564.316, 0.14305834, -0.10548723, 8777.125, 154072.44, 0.000035475463, 10.001942, 9.998098 
1.0147844e+3, 2.9517296e+2, 53446.414, -218335.53, 56124.418, -0.017864821, -0.012246392, 64580.293, 111884.48, 0.000157892, 10.001628, 9.998047 
1.01475626e+3, 3.0517104e+2, 39748.88, -362166.8, 46863.97, -0.11891628, 0.075438574, 45140.95, 45140.95, 0.00041497048, 10.001902, 9.996594 
1.0147296e+3, 3.1516677e+2, 264107.97, -66323.016, 10109.69, -0.066984355, -0.023203565, 264417.0, 264417.0, 0.00078651373, 10.002618, 9.998281 
1.0252539e+3, 1.252152e+2, -1907644.8, -1813985.0, -32523.156, 0.27868453, 0.10781648, -1803799.1, -90904.016, 0.00022439056, 9.998679, 9.999952 
1.0252193e+3, 1.3521454e+2, -1397453.6, -1523526.4, -82655.88, -0.15628007, 0.042058643, -1356540.1, 258361.45, 0.0000828242, 10.001542, 9.999899 
1.0251919e+3, 1.4521517e+2, -1298577.1, -1354267.4, 115399.25, -0.13546984, 0.091686204, -1207711.1, 309184.4, 0.000012107546, 10.001249, 10.000521 
1.02516964e+3, 1.5521587e+2, -1651390.5, -1472410.1, 79667.45, 0.13855346, 0.10177156, -1442086.4, -23197.42, 0.00000009714164, 9.998154, 10.000527 
1.0251438e+3, 1.652157e+2, -1622326.3, -1521232.5, -23593.156, 0.17590594, 0.08634252, -1515997.5, -195106.44, 0.0, 9.998165, 9.999517 
1.0251145e+3, 1.7521462e+2, -1105075.4, -1218003.8, -4341.592, 0.0138532845, 0.019957982, -1104908.6, 117993.07, 0.0, 10.00103, 9.999546 
1.0250874e+3, 1.8521398e+2, -933648.2, -1040481.2, 42423.168, 0.01109493, -0.01173585, -918851.44, 206055.52, 0.0, 10.001345, 9.999937 
1.0250623e+3, 1.9521368e+2, -1129374.4, -1082497.6, 18580.898, 0.14557433, -0.042688873, -1076026.0, -49117.92, 0.0, 9.999325, 9.999947 
1.0250346e+3, 2.0521355e+2, -1066605.1, -1063396.4, -23613.797, 0.09896111, -0.017394349, -1041332.5, -112423.164, 0.0, 9.999343, 9.999402 
1.025005e+3, 2.1521355e+2, -698791.2, -834083.06, -20806.404, -0.11159174, 0.03624404, -695663.7, 135247.56, 0.0, 10.001193, 9.999411 
1.0249773e+3, 2.2521333e+2, -594765.44, -729401.0, -12114.454, -0.120631315, 0.07821685, -593684.06, 139228.98, 0.0, 10.001217, 9.999445 
1.0249516e+3, 2.3521286e+2, -747632.6, -754682.56, -26555.809, 0.059729908, 0.08129439, -724368.9, -89453.16, 0.0, 9.999508, 9.999421 
1.0249248e+3, 2.4521136e+2, -744424.06, -865813.2, -19633.732, 0.11235241, 0.06837996, -741327.44, -204396.36, 0.0, 9.999566, 9.997952 
1.0248967e+3, 2.552088e+2, -406571.78, -652086.44, -9994.889, 0.04609441, 0.009996614, -406165.56, 32793.75, 0.0, 10.001211, 9.997956 
1.0248695e+3, 2.6520655e+2, -214720.44, -490451.88, -5020.4604, 0.07970025, -0.014186212, -214629.05, 126351.94, 0.00000001218603, 10.001763, 9.998134 
1.024843e+3, 2.7520454e+2, -187341.19, -422933.97, 2843.3367, 0.20969236, -0.036054935, -187306.89, 55690.332, 0.0000027111198, 10.0012665, 9.99816 
1.0248153e+3, 2.8520256e+2, -75132.6, -335015.03, 19826.486, 0.17767447, -0.034710262, -73628.734, 71386.51, 0.00003356216, 10.001442, 9.998006 
1.0247864e+3, 2.9520065e+2, 131629.3, -189005.69, -9523.581, 0.00069164287, -0.0330625, 131911.92, 178947.22, 0.00015613875, 10.002207, 9.997968 
1.02475844e+3, 3.0519867e+2, 107679.734, -293225.63, 21972.303, -0.09346269, 0.034203134, 108880.37, 108880.37, 0.00041835016, 10.0022135, 9.996919 
1.0247323e+3, 3.151958e+2, 121354.95, -88310.07, 81620.32, -0.0016990207, 0.04122067, 149382.27, 149382.27, 0.00079985755, 10.001432, 9.9987 
1.0352492e+3, 1.2524116e+2, -1834308.4, -1678609.1, 67072.38, -0.072845064, -0.009210267, -1653700.5, 58938.38, 0.00027553758, 9.998758, 10.00084 
1.0352218e+3, 1.352402e+2, -1345553.9, -1397143.1, 18625.469, -0.064513505, -0.19670634, -1339532.3, 275110.34, 0.000106410545, 10.001471, 10.000798 
1.0351956e+3, 1.4524116e+2, -1371427.0, -1496904.3, -7275.031, 0.105330095, -0.1090685, -1371006.6, 145628.27, 0.000017580353, 10.001206, 9.999565 
1.0351685e+3, 1.552429e+2, -1702046.4, -1596960.8, -28094.553, 0.18902479, 0.09674888, -1589921.3, -171295.42, 0.00000023822265, 9.998234, 9.999636 
1.0351415e+3, 1.6524345e+2, -1566329.0, -1423573.8, 79616.86, 0.11873139, 0.16654377, -1388023.4, -67399.9, 0.0, 9.998241, 10.000153 
1.03511475e+3, 1.7524284e+2, -1065054.1, -1132639.6, 102494.92, -0.075156204, 0.08424883, -990924.9, 231703.14, 0.0, 10.001016, 10.000141 
1.0350876e+3, 1.8524261e+2, -977016.3, -1121633.1, -38817.887, -0.096235834, 0.091301434, -967255.6, 157373.7, 0.0, 10.001306, 9.999398 
1.0350604e+3, 1.9524266e+2, -1166463.4, -1159400.9, -52492.426, 0.03507479, 0.14874525, -1110321.1, -83692.484, 0.0, 9.999321, 9.999421 
1.0350337e+3, 2.0524171e+2, -1056154.4, -1035188.56, 40631.887, 0.06271028, 0.106551565, -1003709.1, -75071.81, 0.0, 9.999314, 9.999608 
1.0350073e+3, 2.1523975e+2, -689532.3, -807960.1, 49646.12, -0.0015575138, -0.05623511, -671473.8, 159181.83, 0.0, 10.00116, 9.999607 
1.0349802e+3, 2.2523923e+2, -626074.3, -779303.3, -82247.66, 0.046185374, -0.03943427, -590285.75, 142375.69, 0.0, 10.001153, 9.999132 
1.03495255e+3, 2.3523995e+2, -774912.7, -800768.94, -85267.92, 0.19473718, 0.114277735, -701598.4, -66941.98, 0.0, 9.999459, 9.999129 
1.0349253e+3, 2.452392e+2, -725365.06, -811998.5, 39119.348, 0.20055392, 0.16900776, -710315.2, -173649.55, 0.0, 9.999504, 9.998353 
1.0348983e+3, 2.5523695e+2, -380183.88, -595004.6, 55676.836, 0.07950735, 0.10314696, -366611.2, 72077.734, 0.0, 10.001196, 9.998358 
1.034871e+3, 2.652354e+2, -200341.63, -452068.63, -26915.72, 0.05280897, 0.112325765, -197495.84, 143207.19, 0.00000000560088, 10.00173, 9.998413 
1.0348434e+3, 2.7523428e+2, -180193.48, -391085.13, -9712.177, 0.11426372, 0.15378343, -179747.16, 62962.84, 0.0000022721786, 10.001193, 9.998415 
1.0348168e+3, 2.8523207e+2, -134296.27, -439296.3, 47005.48, 0.17243274, 0.1513773, -127216.3, 17515.875, 0.00003115889, 10.001364, 9.997327 
1.0347909e+3, 2.9522887e+2, 85645.82, -280514.22, 24964.68, 0.221241, 0.091486715, 87340.06, 134107.8, 0.00015172908, 10.002188, 9.997349 
1.03476256e+3, 3.0522612e+2, 233995.89, -21349.123, -8819.847, 0.09115115, 0.015165959, 234300.17, 234300.17, 0.00041655955, 10.002181, 9.998798 
1.0347327e+3, 3.1522363e+2, 230489.67, 178282.06, 65581.79, -0.11256276, -0.12328816, 274971.84, 274971.84, 0.00080520567, 10.001274, 10.000603 
1.04524754e+3, 1.252682e+2, -1666673.6, -1623287.5, 105699.164, -0.17777497, -0.020044098, -1537078.3, 175295.63, 0.0003338259, 10.00001, 10.00062 
1.0452223e+3, 1.3526742e+2, -1736847.5, -1604867.3, -31977.436, -0.02744812, -0.17402664, -1597527.6, 16850.209, 0.00013404706, 9.998853, 10.000641 
1.04519665e+3, 1.4526825e+2, -1663112.6, -1649110.6, -96860.0, 0.19859129, -0.08675446, -1558999.0, -42626.746, 0.000024406929, 9.999259, 9.999458 
1.04516774e+3, 1.5526982e+2, -1295249.6, -1414537.8, -69694.61, 0.15293828, 0.113993555, -1263161.8, 155203.39, 0.0000004785213, 10.001084, 9.999516 
1.0451404e+3, 1.6527049e+2, -1165155.1, -1200587.8, 89832.69, 0.057090316, 0.18922782, -1091308.5, 229052.61, 0.0, 10.000877, 10.000406 
1.0451146e+3, 1.7527029e+2, -1356632.6, -1243123.4, 78632.82, -0.06766381, 0.121502265, -1202902.6, 19457.838, 0.0, 9.998895, 10.000396 
1.045088e+3, 1.8527007e+2, -1299635.9, -1285194.6, -58043.082, -0.08437665, 0.11823388, -1233924.8, -109563.03, 0.0, 9.999123, 9.99933 
1.0450603e+3, 1.9526976e+2, -882959.44, -1030495.75, -44406.465, -0.0063803457, 0.14846276, -870624.9, 155739.88, 0.0, 10.001299, 9.999355 
1.0450338e+3, 2.0526895e+2, -802932.9, -915367.9, 49473.605, 0.06358639, 0.12458011, -784263.5, 144109.28, 0.0, 10.001068, 9.999584 
1.04500845e+3, 2.1526751e+2, -1057233.5, -986562.5, 33226.543, 0.12966958, 0.015138761, -973394.4, -143007.61, 0.0, 9.998649, 9.999588 
1.04498155e+3, 2.2526689e+2, -948816.7, -955333.2, -63516.81, 0.17373078, 0.03340744, -888474.6, -156080.28, 0.0, 9.999024, 9.99895 
1.0449531e+3, 2.3526703e+2, -434380.06, -657421.1, -68387.99, 0.19779716, 0.14660482, -415081.1, 219315.3, 0.0, 10.001885, 9.998944 
1.0449259e+3, 2.452662e+2, -272811.78, -575535.94, 43944.746, 0.16674565, 0.19586423, -266561.63, 269844.44, 0.0, 10.00252, 9.99853 
1.0448995e+3, 2.552644e+2, -375848.84, -572178.44, 37234.434, 0.088615686, 0.15447184, -369024.47, 69399.26, 0.0, 10.001132, 9.998547 
1.0448724e+3, 2.6526296e+2, -293588.2, -494883.97, -54167.586, 0.054316863, 0.167539, -279937.7, 60498.574, 0.0000000009945924, 10.001085, 9.9984255 
1.0448445e+3, 2.7526176e+2, -32136.447, -319951.97, -67999.35, 0.062310386, 0.19562213, -16879.654, 225565.83, 0.0000020282196, 10.002212, 9.998411 
1.04481824e+3, 2.8525954e+2, -19762.568, -392233.1, -2688.665, 0.14961818, 0.19862962, -19743.162, 124725.07, 0.000028619394, 10.002175, 9.997263 
1.04479335e+3, 2.9525647e+2, -84927.16, -367363.22, 12757.787, 0.3113204, 0.15786642, -84352.055, -37848.977, 0.00014518836, 10.001034, 9.997309 
1.0447649e+3, 3.05254e+2, 129310.06, -29824.125, -36702.758, 0.16461796, 0.09066009, 137367.25, 137367.25, 0.0004080561, 10.001281, 9.999172 
1.0447339e+3, 3.152525e+2, 470430.1, 335131.84, -92168.32, -0.17649424, 0.01250366, 517111.22, 517111.22, 0.00079624756, 10.002732, 10.00099 
1.0552481e+3, 1.2529631e+2, -1747536.1, -1793827.4, 45404.6, -0.14395815, 0.05780226, -1719718.1, -7617.5386, 0.00039971265, 10.000028, 9.999437 
1.0552206e+3, 1.352962e+2, -1808054.6, -1761729.8, -67826.55, -0.08649481, 0.08655036, -1713219.8, -99113.33, 0.00016604259, 9.998898, 9.999539 
1.0551952e+3, 1.4529657e+2, -1611960.1, -1555062.9, -30912.002, 0.11756817, 0.1482446, -1541501.1, -25395.258, 0.000032768716, 9.999305, 10.000085 
1.0551674e+3, 1.5529686e+2, -1255866.1, -1328931.3, -954.3195, 0.0018155364, 0.15877917, -1255853.6, 162250.81, 0.0000008393984, 10.001064, 10.0001135 
1.0551403e+3, 1.6529703e+2, -1177735.1, -1221974.1, 12145.939, -0.045776322, 0.16178226, -1174619.8, 145482.19, 0.0, 10.000855, 10.00027 
1.0551143e+3, 1.7529702e+2, -1359372.5, -1257471.0, 11439.1045, -0.0055988533, 0.12650493, -1256202.8, -34103.746, 0.0, 9.99893, 10.000281 
1.05508804e+3, 1.852964e+2, -1269989.3, -1224367.3, 19031.613, 0.0061110607, 0.06831533, -1217470.6, -93367.19, 0.0, 9.9991255, 9.999745 
1.0550615e+3, 1.9529514e+2, -860213.75, -975660.9, 36295.78, -0.018057313, -0.039495803, -849750.9, 176364.44, 0.0, 10.0012665, 9.999747 
1.0550349e+3, 2.0529537e+2, -827918.9, -959217.7, -47226.332, 0.06636736, 0.037526086, -812697.0, 115417.805, 0.0, 10.00103, 9.999303 
1.0550083e+3, 2.1529683e+2, -1081881.6, -1029909.5, -50353.223, 0.24970913, 0.2463999, -999232.3, -169128.02, 0.0, 9.998611, 9.99931 
1.05498105e+3, 2.2529636e+2, -961852.5, -971768.7, 40846.54, 0.22861405, 0.29677394, -925664.25, -193552.72, 0.0, 9.998977, 9.99886 
1.0549535e+3, 2.352941e+2, -441782.34, -670267.44, 39619.87, 0.028542578, 0.17795222, -435107.2, 199028.17, 0.0, 10.001872, 9.998863 
1.0549265e+3, 2.452924e+2, -279037.56, -583370.3, -13434.227, -0.029193284, 0.14593065, -278445.7, 257706.47, 0.0, 10.002498, 9.9984865 
1.05490014e+3, 2.552911e+2, -385661.56, -582562.75, -9803.9375, 0.03988646, 0.15908943, -385174.63, 52989.094, 0.0, 10.001088, 9.998497 
1.0548734e+3, 2.652892e+2, -322635.88, -542066.56, -12979.703, 0.051943313, 0.14208943, -321870.78, 18310.934, 0.000000000012280949, 10.00103, 9.998127 
1.05484635e+3, 2.7528667e+2, -54108.777, -361195.5, -20807.145, 0.010564198, 0.0718017, -52705.37, 189500.44, 0.0000016155456, 10.002193, 9.998136 
1.0548197e+3, 2.8528485e+2, 17191.955, -309817.1, -49927.508, 0.067483835, 0.09509679, 24644.986, 168870.0, 0.00002530106, 10.00215, 9.997842 
1.05479345e+3, 2.952835e+2, -58149.14, -292886.47, -22099.861, 0.21915895, 0.16786782, -56086.625, -9845.719, 0.00013660942, 10.000954, 9.997858 
1.05476536e+3, 3.0528232e+2, 27558.623, -226387.31, 18129.209, 0.081292205, 0.27148804, 28846.338, 28846.338, 0.00039378775, 10.001212, 9.997859 
1.05473585e+3, 3.152823e+2, 374795.88, 147345.98, -26900.793, -0.27137387, 0.4711292, 377934.2, 377934.2, 0.00077582727, 10.002688, 9.99972 
1.06524915e+3, 1.2532412e+2, -1721202.3, -1793217.6, -21073.09, -0.04620072, 0.15182155, -1715489.1, -3656.6992, 0.00047318285, 10.000261, 9.999328 
1.06521994e+3, 1.3532428e+2, -1717900.0, -1730223.8, -57945.09, -0.06844939, 0.22057481, -1665790.0, -51953.906, 0.00020250746, 9.999565, 9.999434 
1.0651946e+3, 1.4532425e+2, -1597873.0, -1517863.1, 74580.59, 0.13027912, 0.23284239, -1473235.6, 42602.344, 0.000042863663, 9.999276, 10.000349 
1.0651671e+3, 1.5532376e+2, -1480483.8, -1409429.6, 66713.09, -0.04125735, 0.1407508, -1369373.5, 48467.05, 0.0000013547858, 9.999407, 10.000358 
1.0651404e+3, 1.6532356e+2, -1364054.6, -1334318.8, 12412.111, -0.057646777, 0.10555441, -1329818.8, -9978.219, 0.0, 9.999671, 10.0000725 
1.0651147e+3, 1.7532362e+2, -1211900.8, -1207590.8, 1040.2949, 0.1001605, 0.09783926, -1207352.8, 14485.382, 0.0, 10.000033, 10.000095 
1.06508866e+3, 1.8532331e+2, -1126286.8, -1135579.5, 64696.832, 0.11617006, 0.07109012, -1066069.6, 57770.81, 0.0, 10.000029, 9.99992 
1.065062e+3, 1.9532256e+2, -1078273.5, -1063727.8, 54913.64, -0.009382362, -0.003990371, -1015607.5, 10240.63, 0.0, 9.999692, 9.999903 
1.0650352e+3, 2.0532274e+2, -948341.7, -1041926.3, -77259.836, 0.028188622, 0.07237487, -904809.0, 23039.623, 0.0, 10.000311, 9.999081 
1.0650082e+3, 2.1532376e+2, -636003.4, -838333.8, -83139.49, 0.21624884, 0.25923422, -606223.7, 223619.42, 0.0, 10.001776, 9.999099 
1.0649811e+3, 2.2532319e+2, -548860.2, -768572.3, 70018.89, 0.19532898, 0.30712703, -528443.44, 203407.8, 0.0, 10.001798, 9.998897 
1.06495425e+3, 2.3532107e+2, -633726.94, -756303.25, 71255.586, -0.010082034, 0.19921927, -601027.9, 32844.867, 0.0, 10.000533, 9.998916 
1.0649275e+3, 2.4531952e+2, -568588.3, -697820.0, -1691.5717, -0.06404767, 0.16907452, -568566.2, -32678.541, 0.0, 10.000411, 9.9987 
1.0649011e+3, 2.553184e+2, -342581.53, -538503.94, 10973.154, 0.0155423125, 0.17796992, -341968.88, 95928.66, 0.0, 10.001289, 9.998699 
1.06487475e+3, 2.6531667e+2, -253028.38, -515677.63, 59117.4, 0.05831159, 0.17132278, -240335.56, 99579.3, 0.0, 10.001537, 9.998065 
1.0648485e+3, 2.753143e+2, -203272.72, -436964.38, 60361.582, 0.0690889, 0.122035645, -188602.5, 53336.805, 0.00000091217555, 10.001187, 9.9981 
1.0648214e+3, 2.8531244e+2, -56889.445, -306754.5, 16609.623, 0.07325129, 0.12898536, -55790.168, 88167.12, 0.00002073869, 10.001483, 9.99818 
1.0647937e+3, 2.9531094e+2, 169719.72, -151297.39, 16651.234, 0.07722648, 0.15376918, 170581.11, 216551.8, 0.00012474366, 10.002378, 9.998147 
1.0647661e+3, 3.0530944e+2, 121879.33, -287806.0, 87599.664, -0.013015601, 0.25861102, 139824.05, 139824.05, 0.00037290223, 10.002312, 9.996905 
1.06473915e+3, 3.1530926e+2, 115471.83, -80554.46, 56195.723, -0.14629579, 0.5377867, 130438.93, 130438.93, 0.00074591686, 10.001328, 9.998809 
1.07525036e+3, 1.2535171e+2, -1660584.0, -1663553.6, -77253.84, 0.02813512, 0.2572208, -1584800.8, 126767.49, 0.00055371417, 10.000251, 10.00022 
1.0752202e+3, 1.3535188e+2, -1658586.6, -1605495.8, -81125.58, -0.008068879, 0.23876584, -1546683.0, 66882.38, 0.00024334127, 9.999566, 10.000286 
1.07519455e+3, 1.4535145e+2, -1599395.1, -1534514.6, 75130.32, 0.19817273, 0.17812039, -1485120.1, 30447.414, 0.00005483326, 9.999325, 10.0002165 
1.07516676e+3, 1.5535058e+2, -1482465.1, -1423030.0, 74927.74, -0.022701459, 0.05900641, -1372141.8, 45431.492, 0.000002073113, 9.999445, 10.000246 
1.0751405e+3, 1.6535023e+2, -1379127.0, -1370714.9, 21177.404, -0.018999618, 0.027350161, -1353329.9, -33753.977, 0.0000000000166348, 9.999692, 9.999813 
1.07511595e+3, 1.7535023e+2, -1225770.5, -1241765.3, 17240.574, 0.21886618, 0.03734696, -1214762.8, 6814.2417, 0.0, 10.000054, 9.99985 
1.0750897e+3, 1.8535091e+2, -1134352.5, -1149321.6, 47435.723, 0.2127982, 0.12598468, -1093814.5, 29757.508, 0.0, 10.000017, 9.999831 
1.0750616e+3, 1.9535206e+2, -1085418.3, -1075464.8, 46042.023, -0.01868005, 0.25274578, -1034131.3, -8568.652, 0.0, 9.99968, 9.999828 
1.07503444e+3, 2.0535114e+2, -963756.2, -1069651.5, -27261.219, -0.086177826, 0.22959855, -957150.25, -29576.676, 0.0, 10.000288, 9.998904 
1.0750077e+3, 2.1534835e+2, -652152.2, -864132.75, -27907.752, -0.006389801, 0.05238782, -648539.6, 181063.08, 0.0, 10.001738, 9.998941 
1.0749815e+3, 2.2534743e+2, -544145.2, -745568.2, 17224.85, 0.040281463, 0.06356262, -542682.8, 188930.17, 0.0, 10.001741, 9.999082 
1.0749555e+3, 2.3534803e+2, -629782.8, -732485.94, 29045.25, 0.055659458, 0.20992397, -622137.7, 11470.1045, 0.0, 10.000467, 9.999111 
1.07492894e+3, 2.4534763e+2, -547386.1, -639916.5, 29726.965, 0.03298177, 0.2639212, -538658.94, -3047.0244, 0.0, 10.000348, 9.99913 
1.0749021e+3, 2.553463e+2, -316133.84, -478674.6, 48950.516, -0.020094385, 0.20993346, -302530.5, 135094.31, 0.0, 10.001264, 9.9991255 
1.0748762e+3, 2.653454e+2, -244543.0, -490006.53, 43548.598, 0.043451387, 0.2563699, -237045.88, 102589.23, 0.000000000031670343, 10.001503, 9.99826 
1.0748512e+3, 2.7534476e+2, -199114.64, -413956.6, 54756.84, 0.21043716, 0.35963932, -185963.73, 55680.28, 0.00000057346807, 10.001125, 9.998289 
1.0748236e+3, 2.8534257e+2, -57137.395, -297938.9, 49217.453, 0.1330211, 0.31695846, -47466.246, 96196.664, 0.00001665899, 10.001439, 9.998263 
1.0747937e+3, 2.9533893e+2, 173248.33, -143131.05, 58506.367, -0.16124924, 0.12190088, 183720.94, 229411.73, 0.000111651505, 10.002373, 9.998207 
1.0747671e+3, 3.0533522e+2, 79038.58, -372015.3, 53215.285, -0.15830097, 0.03465004, 85231.875, 85231.875, 0.00034802445, 10.0022955, 9.996335 
1.0747435e+3, 3.15333e+2, 53567.67, -175960.63, 36768.617, 0.14853711, 0.16911274, 59313.86, 59313.86, 0.00071029784, 10.00119, 9.998221 
1.0852496e+3, 1.2537792e+2, -1876970.8, -1718039.4, -40910.18, 0.032138433, 0.1843807, -1708127.0, 3182.5608, 0.00064071716, 9.998556, 10.000664 
1.08521946e+3, 1.3537808e+2, -1546242.1, -1509244.5, -67181.69, -0.05536648, 0.12451351, -1458061.3, 155243.03, 0.00028839763, 10.000156, 10.000664 
1.0851946e+3, 1.4537783e+2, -1431709.3, -1480606.5, 52370.484, 0.20937786, 0.07516068, -1398361.6, 116943.38, 0.00006873226, 10.000609, 9.999961 
1.0851674e+3, 1.5537749e+2, -1414214.5, -1420081.1, 29990.79, 0.06677687, 0.037240673, -1387013.9, 30294.207, 0.0000030594845, 10.00005, 9.999974 
1.085141e+3, 1.6537747e+2, -1334338.8, -1345222.0, 9341.935, 0.048951928, 0.050496895, -1328969.1, -9659.768, 0.000000000186287, 9.999985, 9.999843 
1.0851158e+3, 1.7537767e+2, -1178978.6, -1217364.4, 16271.787, 0.18103641, 0.07729157, -1173009.3, 48300.7, 0.0, 10.00037, 9.999864 
1.0850894e+3, 1.8537831e+2, -1100638.6, -1131324.4, 38546.16, 0.16784975, 0.16133308, -1074494.0, 48811.51, 0.0, 10.00024, 9.999846 
1.08506165e+3, 1.953793e+2, -1091035.9, -1076769.6, 39730.848, 0.012434994, 0.26869324, -1043536.7, -18239.379, 0.0, 9.99964, 9.999836 
1.08503476e+3, 2.053783e+2, -1017413.44, -1081190.3, 48176.42, -0.049450878, 0.23182596, -991527.8, -64219.406, 0.0, 9.999865, 9.999023 
1.0850087e+3, 2.1537544e+2, -785929.25, -916779.56, 57991.582, -0.026498023, 0.03800462, -763927.44, 65409.945, 0.0, 10.00077, 9.999044 
1.0849825e+3, 2.2537461e+2, -611170.44, -755835.9, 53844.71, 0.010758742, 0.04240605, -593329.56, 138016.56, 0.0, 10.001185, 9.999279 
1.08495615e+3, 2.3537545e+2, -515195.78, -656734.06, 58017.453, 0.05987701, 0.19323082, -494453.72, 138883.92, 0.0, 10.001164, 9.999296 
1.0849298e+3, 2.4537502e+2, -427079.53, -613400.06, 82907.984, 0.04477702, 0.24912365, -395529.84, 139812.33, 0.0, 10.001306, 9.998853 
1.0849035e+3, 2.553734e+2, -289415.2, -493197.5, 40642.63, -0.025026325, 0.19277795, -281608.44, 155750.42, 0.0, 10.001568, 9.998878 
1.08487755e+3, 2.6537248e+2, -240605.77, -469424.5, -19552.008, 0.04319821, 0.24200532, -238947.11, 100422.36, 0.000000020287489, 10.001451, 9.998423 
1.08485244e+3, 2.753721e+2, -208172.77, -401120.6, -16782.604, 0.23501787, 0.35274318, -206723.89, 34651.824, 0.0000009638229, 10.000992, 9.998439 
1.0848251e+3, 2.8537005e+2, -82917.49, -332125.03, 24813.88, 0.15081164, 0.32995442, -80470.766, 62921.973, 0.000015514439, 10.001359, 9.998065 
1.08479604e+3, 2.9536656e+2, 163519.52, -164370.58, -354.95593, -0.17225417, 0.16178691, 163519.89, 208939.34, 0.000103128805, 10.002387, 9.998048 
1.0847697e+3, 3.0536205e+2, 130735.555, -332127.25, -43458.89, -0.1370466, -0.004731493, 134780.63, 134780.63, 0.00032888047, 10.002597, 9.996461 
1.084746e+3, 3.1535837e+2, 191982.42, -90686.54, -17667.242, 0.24438545, -0.030457215, 193082.38, 193082.38, 0.0006831545, 10.002085, 9.998363 
1.0952472e+3, 1.254031e+2, -1869013.6, -1710705.6, -17805.27, -0.08909435, -0.0495062, -1708727.8, 2326.2214, 0.000734217, 9.998595, 10.000695 
1.0952178e+3, 1.3540326e+2, -1553319.3, -1519888.5, -6254.93, -0.24174938, -0.10375281, -1518756.5, 94292.984, 0.00033773432, 10.000142, 10.000596 
1.09519444e+3, 1.4540361e+2, -1464045.4, -1545572.4, 28865.383, 0.12264497, -0.06671427, -1454860.1, 60187.56, 0.0000845864, 10.000598, 9.999522 
1.0951687e+3, 1.5540454e+2, -1445456.8, -1482278.8, 16202.4795, 0.19437075, 0.06828136, -1439342.5, -22298.3, 0.0000043925156, 10.000042, 9.99955 
1.0951417e+3, 1.6540533e+2, -1312132.0, -1304098.1, 21723.445, 0.114689596, 0.16833974, -1286023.4, 33016.953, 0.0000000006358386, 9.999999, 10.000123 
1.095114e+3, 1.7540592e+2, -1153617.5, -1173009.0, 33659.234, -0.04216271, 0.20534866, -1128285.4, 92751.64, 0.0, 10.000399, 10.000157 
1.0950874e+3, 1.8540557e+2, -1095694.3, -1116413.0, 11997.702, -0.048867688, 0.17077921, -1090202.4, 32838.164, 0.0, 10.000225, 9.999954 
1.09506175e+3, 1.9540434e+2, -1084775.3, -1059201.4, 22881.85, 0.055302665, 0.04684069, -1045776.0, -20725.17, 0.0, 9.999622, 9.999965 
1.0950363e+3, 2.0540428e+2, -995764.6, -1029911.7, 77918.7, 0.10644414, 0.07762778, -933070.8, -6018.5874, 0.0, 9.999836, 9.999392 
1.095011e+3, 2.154051e+2, -765571.3, -865137.1, 94053.15, 0.11903386, 0.21412115, -708938.4, 120108.44, 0.0, 10.000727, 9.999421 
1.0949843e+3, 2.2540475e+2, -608373.5, -735243.2, 48861.625, 0.06802238, 0.24133314, -591736.9, 139313.33, 0.0, 10.001121, 9.999452 
1.0949564e+3, 2.3540333e+2, -511377.78, -641197.6, 62692.09, -0.038893983, 0.14634837, -486045.8, 147016.25, 0.0, 10.001128, 9.99942 
1.09493e+3, 2.4540162e+2, -501351.1, -758572.3, 88603.69, -0.06934977, 0.12043153, -473784.56, 61294.113, 0.0, 10.001267, 9.997875 
1.0949049e+3, 2.553996e+2, -359705.97, -629645.06, 52650.57, -0.03152518, 0.123981856, -349800.2, 87299.73, 0.0, 10.001528, 9.99796 
1.0948789e+3, 2.6539785e+2, -239817.83, -453607.22, -39925.496, 0.024946172, 0.1236707, -232605.03, 106513.4, 0.00000010014453, 10.0013895, 9.998562 
1.094852e+3, 2.7539614e+2, -205520.95, -386129.66, -25841.219, 0.09170189, 0.089555986, -201896.36, 39239.254, 0.0000018004142, 10.000949, 9.998564 
1.09482594e+3, 2.8539476e+2, -124226.54, -410313.63, 59689.594, 0.086930014, 0.14955257, -112272.336, 30876.734, 0.000016749296, 10.001322, 9.997549 
1.0948004e+3, 2.9539356e+2, 125035.91, -236559.1, 39697.17, 0.030732188, 0.26571143, 129342.7, 174502.14, 0.00009990713, 10.002348, 9.997577 
1.0947738e+3, 3.0538982e+2, 186155.58, -205492.42, -65769.82, 0.01742514, 0.15484622, 196905.31, 196905.31, 0.00031833374, 10.002552, 9.99735 
1.0947461e+3, 3.153855e+2, 243626.86, 24201.7, -23567.387, 0.032415994, -0.025679028, 246129.58, 246129.58, 0.0006679341, 10.002048, 9.999174 
1.1052463e+3, 1.2543035e+2, -1808877.9, -1686120.3, -28047.951, -0.046278346, -0.044792324, -1680015.4, 30770.168, 0.00083503575, 9.999017, 10.000663 
1.1052178e+3, 1.3543044e+2, -1707923.3, -1603918.8, -814.523, -0.20602426, -0.09800056, -1603912.4, 8870.63, 0.0003918232, 9.999108, 10.000523 
1.1051945e+3, 1.4543101e+2, -1632158.3, -1577335.5, 37706.12, 0.13591184, -0.05835225, -1558130.0, -43351.188, 0.000102570426, 9.999237, 9.999955 
1.10516794e+3, 1.5543243e+2, -1526357.1, -1475667.4, 79179.07, 0.16486527, 0.082427956, -1417875.8, -1106.5212, 0.0000061708192, 9.99929, 9.999954 
1.10514075e+3, 1.6543329e+2, -1434376.0, -1370749.4, 122237.69, 0.06959692, 0.17426136, -1276252.9, 42511.367, 0.0000000015512864, 9.999203, 10.000047 
1.10511325e+3, 1.7543362e+2, -1352317.0, -1276158.0, 100824.73, -0.08141196, 0.19600122, -1206461.5, 14302.422, 0.0, 9.999079, 10.000081 
1.1050874e+3, 1.8543305e+2, -1169761.8, -1180504.0, 70117.13, -0.054266546, 0.15413146, -1104810.4, 17960.572, 0.0, 9.999837, 9.9997015 
1.1050626e+3, 1.9543156e+2, -858888.06, -975488.8, 46380.633, 0.1039155, 0.028576247, -842689.44, 182095.86, 0.0, 10.001282, 9.999739 
1.10503726e+3, 2.0543179e+2, -764784.44, -875132.5, 74152.58, 0.15495357, 0.081366494, -727531.3, 199251.97, 0.0, 10.001234, 9.999782 
1.1050113e+3, 2.1543348e+2, -855591.44, -867711.94, 83338.36, 0.123883285, 0.26426423, -778093.3, 50674.46, 0.0, 9.999938, 9.9997835 
1.1049847e+3, 2.2543307e+2, -770779.75, -858020.94, 57977.367, 0.049598325, 0.28880596, -741846.0, -11073.994, 0.0, 10.0002, 9.999048 
1.1049575e+3, 2.3543076e+2, -452441.63, -655479.3, 18348.771, -0.06457839, 0.14575888, -450796.75, 181997.64, 0.0, 10.00172, 9.999034 
1.1049316e+3, 2.4542883e+2, -372825.5, -669654.9, 45982.05, -0.07549314, 0.104391485, -365865.56, 168947.22, 0.0, 10.002041, 9.998111 
1.10490665e+3, 2.5542724e+2, -372321.34, -614383.4, 92499.125, 0.003265468, 0.12451137, -341021.8, 95806.4, 0.0, 10.001354, 9.998147 
1.10488035e+3, 2.6542512e+2, -247094.44, -520311.13, 36734.65, 0.025567278, 0.112803794, -242241.58, 96608.1, 0.00000018749917, 10.001609, 9.997999 
1.1048528e+3, 2.754225e+2, -3525.3179, -350280.22, -12526.978, -0.0028321082, 0.043397024, -3073.3535, 237803.9, 0.0000025324416, 10.0026, 9.998017 
1.10482715e+3, 2.85421e+2, 36448.836, -322983.7, 68437.27, 0.0386062, 0.118340895, 49038.57, 191931.47, 0.000018771152, 10.00239, 9.997633 
1.1048033e+3, 2.954205e+2, -41407.406, -306535.8, 84901.75, 0.14863338, 0.29406306, -16549.963, 28348.477, 0.0001004618, 10.001164, 9.9976635 
1.1047766e+3, 3.054173e+2, -12700.286, -265100.1, -7196.0864, 0.12233354, 0.21424077, -12495.288, -12495.288, 0.00031494282, 10.001007, 9.997696 
1.1047473e+3, 3.1541342e+2, 209017.23, 51567.0, -18702.178, -0.028144293, 0.042381022, 211208.22, 211208.22, 0.0006609371, 10.001618, 9.99957 
1.1152467e+3, 1.2545963e+2, -1816563.5, -1697703.9, -66837.22, 0.07233744, 0.17041068, -1667695.9, 42808.37, 0.000944546, 9.999008, 10.000586 
1.11521915e+3, 1.3545963e+2, -1712020.0, -1613892.5, 10263.271, 0.012430529, 0.12701303, -1612830.6, -326.49222, 0.00045159098, 9.999125, 10.000443 
1.1151945e+3, 1.4546008e+2, -1535992.3, -1391484.9, 36191.758, 0.20935036, 0.09305236, -1382927.5, 131570.05, 0.00012308804, 9.99929, 10.001208 
1.1151651e+3, 1.5546125e+2, -1437780.5, -1299651.3, 81414.68, -0.05614661, 0.084029876, -1261953.1, 154528.89, 0.000008505592, 9.999321, 10.001148 
1.11513816e+3, 1.6546147e+2, -1462920.8, -1435970.8, 110582.14, -0.12118785, 0.07736219, -1338045.6, -19565.184, 0.0000000033697685, 9.999225, 9.999591 
1.1151135e+3, 1.7546086e+2, -1379507.8, -1340651.0, 100803.875, 0.02932463, 0.049753036, -1257420.3, -36929.83, 0.0, 9.99911, 9.999626 
1.1150888e+3, 1.8546075e+2, -1212914.9, -1268236.1, 120017.46, 0.108508855, 0.10801126, -1117411.8, 5084.8486, 0.0, 9.999831, 9.999102 
1.1150641e+3, 1.9546093e+2, -902661.9, -1059342.4, 98652.54, 0.11423055, 0.2093886, -855027.9, 169472.6, 0.0, 10.001251, 9.999177 
1.1150375e+3, 2.0546088e+2, -745218.4, -823955.4, 18842.74, 0.05747591, 0.23997214, -740941.4, 185559.84, 0.0, 10.001188, 10.0001545 
1.1150095e+3, 2.1546052e+2, -839862.5, -825100.5, 42819.453, -0.049480185, 0.18167385, -789030.56, 39469.727, 0.0, 9.999894, 10.000096 
1.1149836e+3, 2.2545947e+2, -846301.7, -1004308.3, 111507.414, -0.08257439, 0.17769413, -788646.94, -58135.15, 0.0, 10.000156, 9.998065 
1.1149595e+3, 2.3545775e+2, -517702.84, -783436.8, 75477.3, -0.05085539, 0.19195591, -497761.28, 134773.08, 0.0, 10.001687, 9.998172 
1.1149343e+3, 2.4545674e+2, -278409.7, -463594.47, 16881.172, -0.008156588, 0.2055183, -276883.4, 257660.44, 0.0, 10.001994, 9.99955 
1.11490846e+3, 2.554562e+2, -284582.97, -427619.9, 75292.58, 0.04101344, 0.1906551, -252256.05, 184287.27, 0.0, 10.001331, 9.999442 
1.11488186e+3, 2.6545435e+2, -344292.06, -714984.8, 72757.586, 0.0099911, 0.20909853, -330523.03, 8039.864, 0.00000020790911, 10.001578, 9.996677 
1.1148546e+3, 2.7545124e+2, -91426.555, -529082.6, 28317.895, -0.08559481, 0.22406913, -89601.89, 150998.05, 0.0000030041272, 10.002583, 9.9967985 
1.1148289e+3, 2.8544903e+2, 80274.664, -222342.53, 19581.283, -0.037208583, 0.24603923, 81536.44, 224159.61, 0.000021469468, 10.002349, 9.998342 
1.1148043e+3, 2.954474e+2, -2094.1206, -214398.77, 49806.594, 0.13183916, 0.24234109, 9009.739, 53645.42, 0.00010445724, 10.001119, 9.998318 
1.11477785e+3, 3.0544448e+2, -38062.445, -303749.75, 18282.861, 0.1436567, 0.16932711, -36810.242, -36810.242, 0.00031704624, 10.000952, 9.997457 
1.11474924e+3, 3.154421e+2, 178906.92, 14378.403, 19563.398, -0.004384665, 0.17099452, 181201.14, 181201.14, 0.00065944524, 10.001513, 9.999367 
1.1252457e+3, 1.2548666e+2, -1842616.5, -1703266.1, -67710.914, 0.091159604, 0.16731955, -1675784.8, 34454.48, 0.0010643419, 9.998793, 10.000655 
1.12521864e+3, 1.3548711e+2, -1623639.0, -1570309.9, 41039.168, 0.02860215, 0.16603383, -1548033.5, 64202.668, 0.00051804923, 9.999728, 10.000451 
1.12519376e+3, 1.4548747e+2, -1410950.1, -1327415.4, 13494.554, 0.17059982, 0.122206554, -1325289.5, 188940.69, 0.00014661087, 10.000132, 10.001244 
1.1251643e+3, 1.55488e+2, -1332187.0, -1244173.4, -40386.74, -0.1071984, 0.04330761, -1228450.0, 187769.56, 0.00001150662, 10.000026, 10.001192 
1.1251376e+3, 1.6548818e+2, -1315414.8, -1328079.1, -9383.452, -0.13840602, 0.014436322, -1310426.8, 7790.078, 0.0000000061074554, 10.00008, 9.999917 
1.12511374e+3, 1.7548804e+2, -1186365.6, -1213563.9, 29417.225, 0.082211226, 0.0014485852, -1167556.3, 52664.766, 0.0, 10.000287, 9.999931 
1.1250891e+3, 1.8548845e+2, -1204477.1, -1246392.8, 115843.99, 0.15570757, 0.08847731, -1107710.4, 14511.273, 0.0, 9.999806, 9.999267 
1.12506375e+3, 1.9548924e+2, -1251591.9, -1213113.3, 142228.13, 0.086855814, 0.23404698, -1088829.1, -64608.94, 0.0, 9.998786, 9.999315 
1.1250374e+3, 2.0548883e+2, -1057834.9, -1011174.9, 67226.59, 0.032611754, 0.24084738, -963345.2, -37120.496, 0.0, 9.999205, 9.999821 
1.12501025e+3, 2.154873e+2, -728276.44, -805412.5, 28686.307, -0.0054280586, 0.09813699, -718777.9, 109457.516, 0.0, 10.000811, 9.999786 
1.12498485e+3, 2.2548604e+2, -694846.44, -922532.25, 133045.31, -0.015318077, 0.08376476, -633585.75, 96663.02, 0.0, 10.001159, 9.998148 
1.1249611e+3, 2.3548497e+2, -686249.2, -854566.1, 167776.8, 0.000347954, 0.15522406, -582706.56, 49558.07, 0.0, 10.000492, 9.9982605 
1.1249359e+3, 2.4548428e+2, -458354.06, -568272.8, 77918.945, 0.01600117, 0.20812681, -417962.0, 116309.81, 0.0, 10.000838, 9.999385 
1.1249099e+3, 2.5548384e+2, -200403.28, -404534.75, 8393.048, 0.028520143, 0.215321, -200058.78, 236214.28, 0.0, 10.001984, 9.999286 
1.1248835e+3, 2.6548213e+2, -225517.2, -630862.25, 25961.469, -0.004386353, 0.2460509, -223861.2, 114429.76, 0.00000016860811, 10.002285, 9.996911 
1.1248569e+3, 2.7547932e+2, -176981.6, -543149.94, 87583.73, -0.072884165, 0.2654226, -157110.78, 83212.6, 0.0000038179373, 10.001888, 9.997028 
1.1248309e+3, 2.854769e+2, -9048.203, -277705.84, 72957.555, -0.033241633, 0.26402152, 9485.781, 151833.98, 0.000026281929, 10.001781, 9.998238 
1.1248054e+3, 2.9547477e+2, 100361.04, -174303.03, 33505.543, 0.09733981, 0.21443097, 104389.22, 148756.69, 0.00011318937, 10.001859, 9.998237 
1.1247794e+3, 3.0547202e+2, 136633.03, -228477.63, 31086.7, 0.14911503, 0.16949543, 139260.94, 139260.94, 0.0003258272, 10.002199, 9.99737 
1.1247523e+3, 3.1547037e+2, 346501.16, 84001.18, 35556.973, 0.1048838, 0.259118, 351232.25, 351232.25, 0.00066508714, 10.002704, 9.999279 
1.13524325e+3, 1.2551172e+2, -1824986.8, -1665346.5, -71273.06, -0.043506607, -0.042780396, -1638156.8, 71831.67, 0.0011953667, 9.998803, 10.000905 
1.1352163e+3, 1.355131e+2, -1622545.0, -1554028.6, 77189.69, -0.18471058, 0.030689579, -1503836.4, 108141.17, 0.00059164723, 9.99968, 10.000582 
1.13519214e+3, 1.4551343e+2, -1493700.1, -1492786.1, 6902.1475, -0.01581335, 0.034213338, -1486325.9, 27649.201, 0.00017336896, 10.000097, 10.00013 
1.1351652e+3, 1.5551291e+2, -1400440.9, -1389103.3, -36801.07, -0.031819757, -0.036952022, -1357536.9, 58442.246, 0.000015247707, 10.000036, 10.000194 
1.1351388e+3, 1.6551365e+2, -1242431.4, -1178649.9, -4241.5786, -0.033457924, -0.016369177, -1178369.1, 139602.02, 0.000000009421829, 10.000086, 10.00094 
1.1351136e+3, 1.7551531e+2, -1114467.4, -1065233.4, 38668.89, 0.038004387, 0.045297824, -1044010.6, 175943.7, 0.0, 10.000289, 10.000949 
1.135088e+3, 1.8551625e+2, -1142822.5, -1119738.8, 72341.7, 0.05086059, 0.092492215, -1058024.0, 63921.402, 0.0, 9.999811, 10.0001335 
1.1350617e+3, 1.9551653e+2, -1196602.3, -1099370.4, 110813.26, -0.011635698, 0.1000136, -1026977.7, -3034.0146, 0.0, 9.998786, 10.000095 
1.1350367e+3, 2.055157e+2, -1135209.9, -1168422.8, 121718.54, 0.047609694, 0.08354504, -1028970.1, -103017.01, 0.0, 9.999188, 9.998751 
1.1350134e+3, 2.1551387e+2, -801726.9, -948266.25, 86030.6, 0.2201157, 0.017537275, -761993.44, 65979.055, 0.0, 10.000767, 9.998828 
1.1349884e+3, 2.2551283e+2, -623542.8, -760345.25, 101725.3, 0.21172968, 0.011750078, -569360.3, 160621.97, 0.0, 10.001099, 9.999289 
1.1349621e+3, 2.3551239e+2, -623651.75, -714155.06, 148902.61, 0.051716812, 0.030248858, -513276.6, 118708.37, 0.0, 10.000447, 9.999245 
1.1349363e+3, 2.4551144e+2, -592235.25, -836413.4, 117758.22, -0.03944968, 0.10505968, -544699.06, -10701.777, 0.0, 10.000794, 9.997566 
1.134911e+3, 2.5551003e+2, -316826.44, -640078.0, 51590.023, -0.07117901, 0.19664048, -308792.5, 127225.56, 0.0, 10.001955, 9.997683 
1.1348854e+3, 2.6550844e+2, -100773.02, -363722.5, 8192.855, -0.054052077, 0.21953408, -100518.0, 237516.17, 0.00000020663475, 10.002249, 9.998765 
1.1348596e+3, 2.7550665e+2, -63390.54, -300232.5, 80222.336, 0.0025820106, 0.15631703, -38776.03, 201271.63, 0.0000055002247, 10.001856, 9.998715 
1.13483325e+3, 2.855046e+2, -85884.21, -426635.5, 74571.67, 0.01647539, 0.16330014, -70279.23, 71789.195, 0.00003348498, 10.001739, 9.997234 
1.1348064e+3, 2.955024e+2, 28632.783, -312096.5, 43511.67, 0.0018364092, 0.20711386, 34101.52, 78196.1, 0.00012691141, 10.001812, 9.9973135 
1.1347811e+3, 3.0549982e+2, 138531.03, -214258.1, 48267.195, 0.09571442, 0.21659955, 145015.56, 145015.56, 0.00034269853, 10.002156, 9.997485 
1.1347565e+3, 3.154983e+2, 345694.16, 97578.91, 69698.65, 0.22354163, 0.30271402, 363932.7, 363932.7, 0.0006829697, 10.002648, 9.999392 
1.1452423e+3, 1.2553884e+2, -1898745.4, -1721195.9, -76828.4, 0.0032866949, -0.034420703, -1692567.3, 17156.51, 0.0013373722, 9.99836, 10.000751 
1.1452148e+3, 1.3553989e+2, -1903339.8, -1706722.8, 54568.035, -0.18619354, 0.022797232, -1692593.6, -80876.73, 0.000672049, 9.997806, 10.000451 
1.1451905e+3, 1.4554048e+2, -1773252.9, -1602339.3, 43860.453, -0.0665987, 0.046700086, -1591740.9, -78029.03, 0.0002032588, 9.998079, 10.000344 
1.14516556e+3, 1.5554036e+2, -1551423.5, -1444279.0, 77298.21, 0.063741125, -0.003339081, -1403803.4, 11907.908, 0.000019742625, 9.998925, 10.00035 
1.14513926e+3, 1.6554104e+2, -1411364.1, -1285585.4, 90825.0, 0.070557795, 0.015888693, -1238001.9, 79701.81, 0.000000013934886, 9.99904, 10.000709 
1.1451129e+3, 1.7554227e+2, -1372413.1, -1211683.4, 34933.05, 0.026390838, 0.059742022, -1204419.4, 15271.67, 0.0, 9.998616, 10.000748 
1.145087e+3, 1.8554284e+2, -1208669.0, -1113199.6, 25463.291, 0.0073467623, 0.06060188, -1106832.8, 14851.166, 0.0, 9.9992075, 10.0004635 
1.14506125e+3, 1.9554275e+2, -903634.4, -921472.6, 16617.07, -0.015776165, -0.0024006504, -893694.06, 129988.3, 0.0, 10.000653, 10.00041 
1.1450371e+3, 2.0554212e+2, -832778.2, -1042721.3, 74936.77, 0.062559485, -0.00627659, -808774.75, 116915.07, 0.0, 10.0013485, 9.998576 
1.14501454e+3, 2.1554096e+2, -717829.75, -925470.06, 96128.1, 0.23451905, 0.01303641, -680160.56, 147544.69, 0.0, 10.001421, 9.9986725 
1.1449897e+3, 2.2554019e+2, -542784.8, -696276.94, 71061.36, 0.22301893, 0.031595536, -514937.97, 214774.6, 0.0, 10.001541, 9.999516 
1.1449631e+3, 2.3553969e+2, -433363.66, -602907.0, 42987.758, 0.056350302, 0.022341525, -423087.0, 208627.11, 0.0, 10.001659, 9.999429 
1.1449375e+3, 2.4553823e+2, -498825.5, -833243.56, 75768.5, -0.03729199, 0.056378353, -482459.7, 51271.363, 0.0, 10.001617, 9.997191 
1.1449126e+3, 2.5553596e+2, -411864.53, -721257.0, 107051.65, -0.06999908, 0.09926039, -378435.88, 57325.13, 0.0, 10.001467, 9.997356 
1.1448876e+3, 2.6553434e+2, -163784.92, -370830.1, 32398.621, -0.034447115, 0.12139786, -158833.56, 178944.2, 0.00000038376965, 10.001709, 9.99898 
1.1448622e+3, 2.7553314e+2, 6864.35, -248061.22, -26137.08, 0.056251746, 0.09580282, 9516.547, 249301.56, 0.0000075917305, 10.002248, 9.99889 
1.1448357e+3, 2.8553116e+2, 12334.793, -439667.97, -52939.52, 0.047940984, 0.1279822, 18452.385, 160258.75, 0.00004126663, 10.002674, 9.996695 
1.1448084e+3, 2.9552853e+2, 158914.52, -307273.28, -58254.496, -0.034576677, 0.18635209, 166083.7, 209922.53, 0.00014267156, 10.002957, 9.996794 
1.1447832e+3, 3.05526e+2, 198806.55, -178407.28, -49894.25, 0.074048765, 0.22031257, 205294.48, 205294.48, 0.0003640664, 10.002534, 9.99755 
1.14475906e+3, 3.155246e+2, 184894.66, 33846.81, -46347.395, 0.28211242, 0.3107462, 197981.94, 197981.94, 0.00071067613, 10.001482, 9.999511 
1.1552422e+3, 1.255678e+2, -1930923.5, -1785569.3, -108749.305, 0.14442694, 0.15989852, -1727447.4, -18000.443, 0.001489488, 9.99835, 10.000309 
1.1552144e+3, 1.3556768e+2, -1913776.3, -1740787.0, 45877.977, -0.029682197, 0.13571233, -1729372.9, -117921.26, 0.00075867696, 9.997862, 10.000184 
1.1551892e+3, 1.455688e+2, -1669259.9, -1407555.9, 75054.6, -0.026742486, 0.15816395, -1387558.8, 125879.63, 0.0002361324, 9.9981575, 10.00165 
1.1551653e+3, 1.5557031e+2, -1462521.9, -1269000.0, 109064.664, 0.13644712, 0.13597937, -1219960.5, 195456.31, 0.000024990082, 9.998959, 10.001539 
1.15513906e+3, 1.6557027e+2, -1510070.1, -1495098.1, 68016.97, 0.12845722, 0.103594914, -1434156.5, -116740.836, 0.000000023716384, 9.999059, 9.999263 
1.1551114e+3, 1.7556901e+2, -1465080.0, -1407946.5, 25307.9, 0.014402589, 0.042260993, -1398348.5, -178918.08, 0.0, 9.998636, 9.99939 
1.1550861e+3, 1.8556833e+2, -1219207.8, -1143396.1, 76099.99, -0.0075642243, -0.0046538035, -1096283.9, 25151.943, 0.0, 9.999237, 10.000246 
1.1550625e+3, 1.95568e+2, -915030.0, -946198.4, 71084.51, 0.03349512, -0.07366248, -857841.44, 165593.72, 0.0, 10.00065, 10.000246 
1.1550382e+3, 2.0556812e+2, -789593.75, -944516.0, 70858.664, 0.03220746, -0.028998502, -762073.06, 163361.03, 0.0, 10.001312, 9.999266 
1.1550137e+3, 2.1556854e+2, -679417.0, -837306.6, 101470.86, 0.00084549957, 0.07816889, -629798.1, 197635.4, 0.0, 10.001381, 9.999296 
1.154989e+3, 2.2556812e+2, -602059.5, -805485.6, 71220.51, -0.012360424, 0.13824444, -579603.7, 149835.83, 0.0, 10.001483, 9.998793 
1.1549641e+3, 2.3556694e+2, -481519.38, -694723.8, 50157.008, -0.015873348, 0.1323302, -470309.2, 161142.33, 0.0, 10.001627, 9.998813 
1.1549393e+3, 2.4556471e+2, -430912.03, -681902.1, 64430.277, -0.011293789, 0.06262331, -415338.75, 118133.97, 0.0, 10.001573, 9.998252 
1.1549148e+3, 2.555616e+2, -353768.44, -590614.94, 105754.88, 0.00082105, -0.084984876, -313420.88, 122080.84, 0.0, 10.001421, 9.998275 
1.1548899e+3, 2.655597e+2, -277944.53, -596213.0, 49603.684, 0.024827724, -0.05412131, -270392.75, 67129.34, 0.0000005356376, 10.001659, 9.997456 
1.15486436e+3, 2.7555868e+2, -99077.086, -454377.47, -2342.5627, 0.049670275, 0.08776334, -99061.64, 140474.75, 0.000008957139, 10.0021925, 9.9974985 
1.1548381e+3, 2.8555647e+2, 5328.1523, -441151.47, -45881.184, 0.019167744, 0.16182274, 9994.234, 151557.22, 0.000047151985, 10.00262, 9.99671 
1.1548113e+3, 2.9555315e+2, 156400.55, -311230.53, -42812.04, -0.048438083, 0.1500504, 160287.72, 203888.53, 0.00015594735, 10.00295, 9.996773 
1.1547854e+3, 3.055505e+2, 183759.83, -199583.63, -92145.6, 0.04720235, 0.17791557, 204758.89, 204758.89, 0.00038533346, 10.002496, 9.997421 
1.15475975e+3, 3.1554914e+2, 165579.86, 23773.094, -73588.28, 0.20023732, 0.28363067, 196865.14, 196865.14, 0.0007418619, 10.001355, 9.999502 
1.16523996e+3, 1.2559566e+2, -1879844.0, -1728267.8, -41725.688, 0.08994001, 0.19539455, -1717540.6, -8365.339, 0.0016512593, 9.998564, 10.000594 
1.16521366e+3, 1.355955e+2, -1693692.6, -1601360.4, 136088.22, 0.049425382, 0.13280226, -1503820.9, 107357.164, 0.0008513687, 9.999224, 10.000487 
1.1651879e+3, 1.455967e+2, -1517776.3, -1379141.6, 133891.28, -0.03171785, 0.16901335, -1297688.4, 215475.81, 0.00027198074, 9.999398, 10.001245 
1.1651642e+3, 1.5559803e+2, -1456603.1, -1309383.6, 33860.664, 0.12764654, 0.16977456, -1301969.0, 113177.11, 0.00003101119, 9.99919, 10.00115 
1.1651383e+3, 1.6559753e+2, -1453866.5, -1490426.9, -6568.9365, 0.1294505, 0.122090496, -1452722.0, -135572.75, 0.00000004774233, 9.999545, 9.999059 
1.1651111e+3, 1.7559564e+2, -1224291.0, -1317468.0, 32492.77, 0.02276302, 0.018236397, -1214079.3, 5089.746, 0.0, 10.0004, 9.999162 
1.1650863e+3, 1.855947e+2, -1045454.1, -1111655.5, 132027.97, 0.02466993, -0.021543158, -942440.75, 178736.92, 0.0, 10.0006485, 9.999785 
1.16506375e+3, 1.9559437e+2, -976505.6, -1021832.06, 101377.586, 0.10458076, -0.041273125, -895288.9, 127889.62, 0.0, 10.000424, 9.999837 
1.1650392e+3, 2.0559455e+2, -940125.44, -982346.7, 59770.72, 0.053704903, 0.011687307, -897846.8, 27330.043, 0.0, 10.000132, 9.999572 
1.1650133e+3, 2.1559511e+2, -895410.56, -909973.1, 52994.395, -0.096641004, 0.09943373, -849199.56, -22026.158, 0.0, 9.999767, 9.999572 
1.1649888e+3, 2.2559457e+2, -837064.3, -963153.44, 52165.844, -0.105428934, 0.15464903, -818280.44, -89098.93, 0.0, 10.000059, 9.998397 
1.1649653e+3, 2.3559304e+2, -619267.06, -798086.94, 45186.71, -0.0020760903, 0.1525558, -608497.25, 22702.756, 0.0, 10.000844, 9.998478 
1.1649414e+3, 2.4559104e+2, -399816.16, -593605.0, 49435.434, 0.049240068, 0.08982863, -387933.78, 145284.42, 0.0, 10.0014715, 9.998905 
1.164917e+3, 2.5558868e+2, -234915.03, -469995.63, 50945.895, 0.05789919, -0.04661855, -224349.11, 210887.53, 0.0, 10.001956, 9.998851 
1.16489194e+3, 2.6558694e+2, -271142.5, -628257.06, 32580.035, 0.062228017, -0.00899685, -268194.53, 69060.33, 0.00000056359414, 10.001863, 9.997134 
1.16486624e+3, 2.7558562e+2, -248727.53, -561013.4, 60571.563, 0.058772936, 0.13708983, -237390.52, 1883.234, 0.0000092835935, 10.001317, 9.997187 
1.16484046e+3, 2.855831e+2, -102065.19, -471633.25, 97316.43, 0.04305712, 0.18354546, -78005.67, 63297.59, 0.000049926817, 10.001786, 9.996904 
1.1648149e+3, 2.955795e+2, 184814.66, -274165.97, 99661.1, 0.022160176, 0.12502263, 205520.55, 248862.36, 0.00016435768, 10.003054, 9.996973 
1.1647888e+3, 3.0557668e+2, 352937.6, -162303.72, 14681.27, 0.078451894, 0.1502832, 353355.6, 353355.6, 0.00040264626, 10.003849, 9.997032 
1.1647617e+3, 3.1557465e+2, 542432.2, 166488.17, 5753.0537, 0.13122357, 0.22999012, 542520.2, 542520.2, 0.0007698302, 10.004107, 9.999171 
1.1752361e+3, 1.2562265e+2, -1820553.4, -1604511.3, 7435.2104, -0.17794809, 0.07783352, -1604255.6, 104651.84, 0.0018234614, 9.998564, 10.001443 
1.1752126e+3, 1.356235e+2, -1645535.0, -1494165.4, 156584.84, 0.027097512, 0.022263845, -1395933.5, 214961.95, 0.0009506097, 9.999189, 10.001242 
1.1751864e+3, 1.4562424e+2, -1663378.8, -1673827.8, 120238.25, -0.120298944, 0.083596446, -1548251.5, -35362.92, 0.00031097958, 9.999363, 9.99924 
1.1751622e+3, 1.5562373e+2, -1582685.3, -1573706.9, 33333.734, 0.004927038, 0.10260444, -1544561.4, -129664.56, 0.00003785508, 9.999204, 9.999329 
1.17513694e+3, 1.656231e+2, -1384709.3, -1355334.5, 21488.076, 0.036907595, 0.07642019, -1343993.9, -27091.682, 0.00000010132158, 9.999577, 9.999971 
1.17511146e+3, 1.7562231e+2, -1167182.3, -1196889.4, 64208.74, 0.020445777, -0.010095458, -1116131.4, 102774.15, 0.0, 10.000388, 9.999995 
1.17508754e+3, 1.8562196e+2, -1098958.9, -1217260.3, 118613.55, 0.069872454, 0.01071497, -1025565.3, 95343.41, 0.0, 10.000626, 9.999072 
1.1750647e+3, 1.956219e+2, -1025763.06, -1119308.8, 95942.83, 0.15813226, 0.084403776, -965799.2, 57113.418, 0.0, 10.000404, 9.999177 
1.1750397e+3, 2.0562147e+2, -948925.3, -994750.56, 40623.504, 0.08955646, 0.11162302, -925198.3, -280.59015, 0.0, 10.000105, 9.999501 
1.175013e+3, 2.1562071e+2, -905305.25, -923174.0, 44683.285, -0.094186634, 0.0752481, -868671.9, -41747.566, 0.0, 9.999731, 9.999499 
1.17498904e+3, 2.2561952e+2, -852706.25, -983015.94, 76146.016, -0.088732764, 0.07623399, -817644.5, -88705.87, 0.0, 10.000003, 9.998288 
1.1749669e+3, 2.3561797e+2, -630987.44, -808931.06, 77726.97, 0.06076423, 0.079876155, -601817.5, 29141.838, 0.0, 10.000787, 9.99843 
1.17494345e+3, 2.4561733e+2, -392978.5, -569660.75, 63293.715, 0.105589665, 0.14307651, -372644.66, 160322.2, 0.0, 10.001425, 9.999096 
1.17491916e+3, 2.5561732e+2, -220426.72, -433918.0, 71633.75, 0.067425795, 0.22003163, -198618.77, 236346.23, 0.0, 10.001927, 9.999112 
1.1748937e+3, 2.656162e+2, -217213.86, -504116.1, 8675.867, 0.04736975, 0.2610656, -216951.73, 120023.52, 0.0000005132723, 10.001812, 9.998011 
1.1748673e+3, 2.756141e+2, -199533.7, -442980.0, 51890.824, 0.03996788, 0.23928474, -188934.6, 50061.73, 0.000009280944, 10.001252, 9.998027 
1.17484264e+3, 2.856112e+2, -90863.97, -436913.78, 146267.16, 0.07581199, 0.19790015, -37323.883, 103701.56, 0.000050485156, 10.001734, 9.997169 
1.1748193e+3, 2.9560766e+2, 199704.33, -238226.3, 154155.02, 0.1438466, 0.112202324, 248525.45, 291586.38, 0.00016787817, 10.003023, 9.997238 
1.1747933e+3, 3.0560464e+2, 310649.1, -239026.45, 28780.512, 0.1361949, 0.13076806, 312151.9, 312151.9, 0.00041124242, 10.003807, 9.996521 
1.17476456e+3, 3.1560126e+2, 499335.06, 86567.99, 37239.41, -0.017063273, 0.12860744, 502667.84, 502667.84, 0.0007823176, 10.004075, 9.998631 
1.1852341e+3, 1.256491e+2, -1962581.1, -1721996.1, -61025.83, -0.18175642, 0.102293916, -1707401.9, 1246.6913, 0.0020081834, 9.99782, 10.000985 
1.18521154e+3, 1.3564946e+2, -1944379.0, -1674676.3, -69247.28, 0.09629266, 0.030501667, -1657935.9, -47292.984, 0.0010574218, 9.997303, 10.000909 
1.1851846e+3, 1.4565007e+2, -1906610.5, -1785597.6, -36058.883, -0.15253386, 0.09137789, -1775667.8, -263029.8, 0.00035351914, 9.997681, 9.999276 
1.1851605e+3, 1.5564974e+2, -1626017.9, -1589581.8, 10955.238, -0.063754305, 0.12058591, -1586541.5, -171896.81, 0.00004562391, 9.998888, 9.999366 
1.18513614e+3, 1.6564912e+2, -1411436.1, -1362506.5, 30100.924, 0.002903232, 0.09117112, -1348182.3, -31532.68, 0.00000019883093, 9.999374, 10.00002 
1.1851117e+3, 1.7564823e+2, -1316260.3, -1260213.6, 3761.723, 0.06299449, -0.010954892, -1259962.3, -41308.824, 0.0, 9.99933, 10.000071 
1.1850876e+3, 1.8564829e+2, -1265404.6, -1262742.8, 62945.125, 0.08881959, 0.030529784, -1201114.5, -80462.2, 0.0, 9.999341, 9.999373 
1.1850637e+3, 1.9564903e+2, -1153251.0, -1151716.3, 104996.734, 0.07705571, 0.1570264, -1047484.06, -24836.195, 0.0, 9.999409, 9.999432 
1.1850393e+3, 2.0564836e+2, -982695.6, -1052331.1, 93549.016, 0.049442284, 0.16749881, -917695.06, 6960.5293, 0.0, 10.000047, 9.999137 
1.18501455e+3, 2.1564649e+2, -724303.06, -872902.94, 69026.46, 0.015490142, 0.055464048, -697187.3, 129486.41, 0.0, 10.001133, 9.999171 
1.1849906e+3, 2.2564514e+2, -633093.06, -858695.7, 105503.4, 0.0052218726, 0.048890006, -591443.4, 137246.05, 0.0, 10.001438, 9.998446 
1.1849673e+3, 2.3564419e+2, -570527.25, -766149.3, 115498.195, 0.00874604, 0.09841098, -516988.25, 113715.48, 0.0, 10.001139, 9.998556 
1.1849441e+3, 2.456439e+2, -441650.47, -605845.5, 108271.85, 0.032776568, 0.19599335, -387870.13, 144838.64, 0.0, 10.001147, 9.99898 
1.18492074e+3, 2.5564405e+2, -296484.97, -480469.34, 79833.06, 0.0696064, 0.30075744, -266674.53, 168032.81, 0.0, 10.001453, 9.999019 
1.1848958e+3, 2.6564282e+2, -132986.39, -426106.72, -16949.1, 0.056850426, 0.31597054, -132009.6, 204708.5, 0.0000005059796, 10.002226, 9.998348 
1.1848691e+3, 2.7564037e+2, 123931.99, -250432.55, -25992.04, 0.0053469804, 0.22860457, 125728.0, 364467.56, 0.000009346627, 10.003312, 9.99836 
1.1848451e+3, 2.8563774e+2, 149356.58, -284924.47, 59733.13, 0.07577035, 0.17863816, 157422.75, 298187.0, 0.000050141156, 10.003233, 9.997489 
1.18482284e+3, 2.956349e+2, 108461.93, -250152.8, 62453.996, 0.24366266, 0.13297954, 119027.24, 161818.7, 0.0001672216, 10.00226, 9.997522 
1.18479736e+3, 3.056321e+2, 159992.34, -316035.72, -8524.93, 0.21514656, 0.16174123, 160144.97, 160144.97, 0.00040719297, 10.00278, 9.996489 
1.1847683e+3, 3.1562772e+2, 536787.4, 88958.25, 19653.898, -0.051307555, 0.061183967, 537648.25, 537648.25, 0.00076922204, 10.004383, 9.998503 
1.1952343e+3, 1.2567507e+2, -2072968.4, -1948947.5, -15260.0205, 0.0343934, 0.24411266, -1947097.4, -238699.47, 0.0022081332, 9.997816, 9.999426 
1.19521e+3, 1.3567373e+2, -2026307.9, -1852530.9, -80439.16, 0.21083921, 0.14764273, -1821013.0, -210596.81, 0.0011730703, 9.9973345, 9.999674 
1.1951823e+3, 1.4567448e+2, -1770902.0, -1512284.9, 8666.268, -0.16385359, 0.18256143, -1511994.9, 413.77527, 0.00040013902, 9.99771, 10.001141 
1.19515896e+3, 1.5567613e+2, -1506916.1, -1341417.8, 56608.73, -0.11345885, 0.22358187, -1323907.4, 90480.99, 0.00005450229, 9.998882, 10.001074 
1.19513534e+3, 1.6567564e+2, -1463479.0, -1470301.5, 23187.72, -0.013594327, 0.16661084, -1443453.0, -127061.77, 0.00000035173326, 9.999372, 9.999283 
1.1951116e+3, 1.756735e+2, -1358422.9, -1348138.0, 6043.157, 0.1120446, 0.0130499685, -1345345.4, -126933.91, 0.0, 9.999332, 9.999466 
1.19508654e+3, 1.8567382e+2, -1176485.0, -1081182.4, 61576.207, 0.041742917, 0.040033076, -1050973.0, 69433.664, 0.0, 9.999351, 10.000617 
1.1950607e+3, 1.9567591e+2, -1077982.1, -992498.0, 112738.03, -0.17082357, 0.17775075, -914671.6, 107712.02, 0.0, 9.999393, 10.000534 
1.19503796e+3, 2.0567527e+2, -1032541.2, -1149231.9, 127764.36, -0.09701068, 0.17767896, -950430.44, -26040.002, 0.0, 10.00002, 9.998485 
1.19501755e+3, 2.1567254e+2, -772035.56, -958372.7, 108706.17, 0.19237302, 0.041818254, -722034.94, 104385.875, 0.0, 10.001079, 9.998609 
1.1949934e+3, 2.2567153e+2, -614069.56, -807049.8, 89091.86, 0.13307647, 0.0745161, -579229.2, 149203.92, 0.0, 10.001383, 9.998829 
1.1949664e+3, 2.3567183e+2, -554929.5, -722691.25, 109556.84, -0.19154425, 0.20944387, -500829.6, 129602.62, 0.0, 10.001092, 9.998877 
1.1949429e+3, 2.4567084e+2, -480197.88, -678980.25, 115236.06, -0.20525919, 0.24967858, -427411.7, 105031.6, 0.0, 10.001113, 9.998496 
1.1949217e+3, 2.5566885e+2, -337406.63, -551069.8, 97603.21, 0.018635973, 0.18790188, -299533.78, 134930.23, 0.0, 10.001392, 9.998563 
1.194898e+3, 2.6566672e+2, -160509.03, -473881.7, 21223.307, 0.046076898, 0.15167235, -159078.2, 177405.86, 0.0000006389743, 10.00218, 9.998046 
1.19487174e+3, 2.756644e+2, 106114.63, -284549.66, 15190.924, -0.08153333, 0.10183066, 106704.44, 345209.1, 0.000009277396, 10.0033, 9.998133 
1.19484775e+3, 2.8566262e+2, 174013.16, -229361.23, 16490.201, 0.010971697, 0.12890118, 174686.16, 315206.88, 0.000049688064, 10.003212, 9.997882 
1.1948255e+3, 2.9566115e+2, 124622.49, -202586.4, 37768.563, 0.2732506, 0.18150878, 128925.4, 171459.77, 0.00016438575, 10.002196, 9.997881 
1.19480066e+3, 3.0565906e+2, 170283.34, -273107.6, 52575.707, 0.26916313, 0.24765341, 176432.31, 176432.31, 0.00039412206, 10.002693, 9.996821 
1.19477294e+3, 3.156541e+2, 536518.3, 114607.81, 94820.57, -0.042665627, 0.052327435, 556848.7, 556848.7, 0.00073558954, 10.004277, 9.998725 
1.20523185e+3, 1.2569915e+2, -2045829.4, -1881876.8, 32651.357, 0.016006177, 0.2379059, -1875613.5, -167449.73, 0.0024257244, 9.997777, 9.999904 
1.2052076e+3, 1.356986e+2, -1946284.1, -1762202.0, 14993.302, 0.22854996, 0.17389068, -1760988.9, -150816.38, 0.0012988481, 9.997646, 10.000152 
1.2051805e+3, 1.4569941e+2, -1751374.4, -1485843.0, 148254.73, -0.10018884, 0.18401688, -1419595.6, 92567.93, 0.00045139206, 9.997773, 10.001294 
1.2051581e+3, 1.5570086e+2, -1583960.5, -1360030.5, 62766.22, -0.053223595, 0.18918705, -1343637.5, 70507.39, 0.00006471426, 9.998273, 10.001242 
1.2051346e+3, 1.6570087e+2, -1545459.6, -1487469.8, 873.1379, 0.0136812115, 0.1638415, -1487456.6, -171313.06, 0.00000057087306, 9.998707, 9.999485 
1.2051105e+3, 1.756998e+2, -1375994.5, -1337906.4, 43027.934, 0.07815202, 0.096822046, -1309896.4, -91741.27, 0.0, 9.999126, 9.999637 
1.2050856e+3, 1.856998e+2, -1156022.1, -1099396.6, 77694.86, 0.005894632, 0.09785727, -1045016.56, 75137.31, 0.0, 9.999607, 10.00037 
1.20506056e+3, 1.9570048e+2, -983756.94, -968560.3, 13476.855, -0.16207469, 0.119245164, -960687.4, 61456.59, 0.0, 10.000127, 10.000344 
1.205038e+3, 2.0570008e+2, -1009047.6, -1097937.3, 30968.31, -0.08986949, 0.12946942, -999322.56, -75173.875, 0.0, 10.00001, 9.99884 
1.2050175e+3, 2.1569878e+2, -988712.8, -1025766.2, 76563.38, 0.16048925, 0.10304855, -928466.5, -102301.15, 0.0, 9.999424, 9.998947 
1.2049938e+3, 2.2569813e+2, -808628.44, -870497.0, 102076.3, 0.113691404, 0.14126946, -732902.0, -4729.1865, 0.0, 9.999912, 9.999105 
1.2049679e+3, 2.3569798e+2, -515275.78, -675720.0, 102683.336, -0.16160984, 0.20337908, -465192.66, 164981.14, 0.0, 10.0012455, 9.999126 
1.2049443e+3, 2.456966e+2, -448936.88, -703733.3, 94538.52, -0.1856691, 0.2123798, -417691.34, 114496.695, 0.0, 10.001502, 9.998135 
1.2049225e+3, 2.556942e+2, -428366.63, -637444.2, 80704.945, -0.022285035, 0.1484908, -400838.6, 33374.92, 0.00000000020898414, 10.00094, 9.998191 
1.2048994e+3, 2.6569182e+2, -314324.5, -578169.9, 62229.36, 0.028219135, 0.11516165, -300383.94, 35853.43, 0.00000074892756, 10.001266, 9.997762 
1.2048751e+3, 2.756893e+2, -52495.49, -387011.5, 41261.31, -0.010708824, 0.07600141, -47481.223, 190779.44, 0.000008958339, 10.002329, 9.997889 
1.20485105e+3, 2.8568748e+2, 121402.86, -231037.16, -18332.85, 0.050505724, 0.09890598, 122353.914, 262630.84, 0.000049074697, 10.002753, 9.998087 
1.20482706e+3, 2.9568613e+2, 205459.33, -138241.89, -21283.883, 0.18972956, 0.14142439, 206772.33, 249061.03, 0.00016160097, 10.002647, 9.998102 
1.20480284e+3, 3.0568478e+2, 195827.16, -204172.67, 54585.664, 0.22206904, 0.2447889, 203142.38, 203142.38, 0.0003810888, 10.00262, 9.99733 
1.2047776e+3, 3.156804e+2, 298771.1, 31134.914, 92516.78, 0.081093, 0.060356338, 327638.72, 327638.72, 0.000699887, 10.002516, 9.998993 
1.2152272e+3, 1.2572165e+2, -1882500.1, -1542847.0, 88138.26, -0.25051638, 0.099229574, -1521337.8, 186605.0, 0.0026624324, 9.997784, 10.002225 
1.2152042e+3, 1.3572422e+2, -1804745.1, -1472028.0, 7859.8213, 0.12440043, 0.12195193, -1471842.4, 138068.97, 0.0014356553, 9.99766, 10.002137 
1.2151794e+3, 1.457249e+2, -1848383.8, -1692192.8, 159893.42, 0.0036972966, 0.10242269, -1592342.1, -80439.16, 0.0005075534, 9.99779, 9.99987 
1.2151577e+3, 1.5572406e+2, -1670459.6, -1541417.6, 85200.89, 0.07270847, 0.0199834, -1499064.1, -85151.164, 0.000076397075, 9.9982815, 9.999991 
1.2151337e+3, 1.6572498e+2, -1469618.5, -1332994.4, 10427.219, 0.041197717, 0.08766102, -1332203.1, -16298.178, 0.0000008702971, 9.998717, 10.000541 
1.2151082e+3, 1.7572714e+2, -1315319.5, -1212227.6, 60138.555, -0.06363009, 0.23811482, -1184567.4, 33317.004, 0.0, 9.999125, 10.0005 
1.2150847e+3, 1.8572623e+2, -1272591.3, -1341278.4, 91745.734, -0.048300993, 0.1979368, -1208971.8, -89077.6, 0.0, 9.999605, 9.998712 
1.2150629e+3, 1.9572295e+2, -1087721.4, -1179438.9, 33603.71, 0.054904867, -0.015324008, -1076727.5, -54799.87, 0.0, 10.000105, 9.998908 
1.2150392e+3, 2.0572293e+2, -921449.75, -907845.9, 2394.758, 0.018288374, 0.029718835, -907436.6, 16492.197, 0.0, 9.999974, 10.000161 
1.21501416e+3, 2.1572532e+2, -909713.56, -848368.2, 62186.426, -0.11703049, 0.23980783, -809701.4, 16205.155, 0.0, 9.999369, 10.000188 
1.2149918e+3, 2.2572502e+2, -805190.44, -854788.0, 146037.39, -0.084627934, 0.24759234, -681861.25, 46047.047, 0.0, 9.999872, 9.999235 
1.2149715e+3, 2.3572268e+2, -513785.56, -661436.0, 152050.89, 0.068112195, 0.07783276, -418585.22, 211343.08, 0.0, 10.001196, 9.9992485 
1.2149482e+3, 2.4572122e+2, -475045.6, -743108.75, 68997.51, 0.04941066, 0.084544055, -458328.66, 73614.305, 0.0, 10.001439, 9.997893 
1.2149228e+3, 2.557203e+2, -452223.63, -674906.56, 67823.11, -0.09001542, 0.18876904, -433192.97, 761.9378, 0.00000000018849695, 10.000893, 9.997953 
1.2149002e+3, 2.657182e+2, -337843.38, -622070.56, 98350.89, -0.028742572, 0.21396807, -307130.0, 28846.879, 0.00000061447383, 10.001239, 9.997476 
1.2148795e+3, 2.7571514e+2, -81110.6, -432217.8, 84694.84, 0.1801485, 0.14925547, -61748.113, 176259.02, 0.00000822272, 10.002264, 9.997611 
1.2148549e+3, 2.8571233e+2, 103433.27, -249665.7, -23704.63, 0.14576489, 0.0895309, 105017.53, 245050.47, 0.000047693058, 10.002672, 9.997999 
1.2148273e+3, 2.9570967e+2, 199174.84, -142044.95, -16404.514, -0.06366007, 0.007884962, 199961.7, 242017.4, 0.00015870755, 10.002607, 9.9980955 
1.2148036e+3, 3.057091e+2, 236399.42, -106094.09, 46956.48, 0.030975254, 0.15108587, 242720.56, 242720.56, 0.00037049488, 10.002563, 9.998032 
1.21478185e+3, 3.1570667e+2, 300599.44, 71492.72, 102561.61, 0.24647672, 0.08987265, 339803.56, 339803.56, 0.0006721112, 10.002363, 9.999342 
1.2252242e+3, 1.2574436e+2, -2014061.3, -1603182.3, 148646.47, -0.26950634, -0.0016913336, -1555045.0, 152671.38, 0.0029179724, 9.996859, 10.002267 
1.2252008e+3, 1.357481e+2, -1744804.1, -1444833.5, -150595.89, -0.00076980866, 0.14247558, -1382275.4, 227398.78, 0.0015834377, 9.998073, 10.002132 
1.2251777e+3, 1.4574863e+2, -1809283.4, -1684066.6, -26495.982, 0.036777608, 0.10995819, -1678690.8, -167022.95, 0.00056846405, 9.998111, 9.999767 
1.22515604e+3, 1.5574679e+2, -1804468.5, -1615533.0, -15950.199, 0.124910556, -0.062826246, -1614196.0, -200507.88, 0.00008951281, 9.997403, 9.999907 
1.22513205e+3, 1.6574791e+2, -1613739.6, -1363942.5, -45048.477, 0.074964434, 0.011173778, -1356066.8, -40388.383, 0.0000012652538, 9.997565, 10.000884 
1.22510694e+3, 1.7575121e+2, -1400760.1, -1216618.3, -53986.145, -0.062427077, 0.24033755, -1201957.9, 15688.827, 0.0, 9.998384, 10.000825 
1.2250842e+3, 1.857507e+2, -1407232.8, -1409338.0, 17115.035, -0.01578641, 0.2251338, -1391138.0, -271484.44, 0.0, 9.998702, 9.998676 
1.2250632e+3, 1.9574726e+2, -1296770.3, -1281335.1, 65881.13, 0.158511, 0.00044963622, -1222721.0, -201031.3, 0.0, 9.998685, 9.998889 
1.2250393e+3, 2.0574717e+2, -1051684.6, -970069.8, 32468.43, 0.09004054, 0.039283562, -958728.94, -35036.95, 0.0, 9.999075, 10.00017 
1.2250132e+3, 2.1574956e+2, -852520.94, -819698.2, -11640.875, -0.15462777, 0.24839543, -815988.8, 9680.474, 0.0, 9.999754, 10.000201 
1.22499146e+3, 2.2574924e+2, -787452.8, -840031.3, 54836.594, -0.10069244, 0.24979807, -752929.44, -25258.955, 0.0, 9.99997, 9.999283 
1.22497305e+3, 2.3574682e+2, -705004.3, -751033.06, 41920.547, 0.16966733, 0.06584341, -680196.2, -50505.883, 0.0, 9.9998665, 9.999274 
1.2249503e+3, 2.4574515e+2, -560629.3, -794761.06, -25502.34, 0.1459813, 0.053821854, -557883.75, -26177.09, 0.0, 10.000892, 9.997808 
1.22492455e+3, 2.5574395e+2, -176808.64, -544711.6, -26158.186, -0.095639355, 0.14034773, -174958.08, 258763.13, 0.0, 10.002797, 9.9979315 
1.224902e+3, 2.657424e+2, -52563.1, -435111.5, 22058.182, -0.048824966, 0.19579598, -51295.402, 284442.5, 0.0000003685213, 10.002988, 9.997918 
1.22488186e+3, 2.7574044e+2, -109097.18, -402421.3, 54644.297, 0.21182752, 0.1964996, -99248.03, 138509.27, 0.000007319039, 10.001884, 9.998 
1.2248573e+3, 2.8573754e+2, 41250.383, -299903.1, 3442.0127, 0.15481552, 0.1221821, 41285.105, 181068.64, 0.000046575948, 10.002327, 9.99782 
1.2248297e+3, 2.9573393e+2, 376052.2, -77753.984, -9762.68, -0.13740353, -0.03698403, 376262.13, 418077.63, 0.0001562628, 10.003914, 9.99791 
1.2248064e+3, 3.0573308e+2, 434007.47, -46859.574, -32407.898, -0.010429776, 0.107270725, 436181.75, 436181.75, 0.00036177837, 10.004086, 9.9977045 
1.2247854e+3, 3.157307e+2, 368106.8, 31771.266, -72051.73, 0.32987976, 0.079537585, 382892.16, 382892.16, 0.0006523267, 10.003124, 9.998711 
1.23522215e+3, 1.257673e+2, -2148458.0, -1884685.4, 190465.1, -0.1695568, -0.06007321, -1784901.8, -77417.04, 0.0031899144, 9.996875, 10.000322 
1.2351971e+3, 1.3577051e+2, -1868161.8, -1700047.0, -110658.16, -0.18331021, 0.23007554, -1645140.9, -35682.93, 0.0017411282, 9.998075, 10.000374 
1.2351753e+3, 1.4577085e+2, -1730427.3, -1529292.1, -57524.582, -0.028962148, 0.20008615, -1514002.5, -2547.378, 0.0006337289, 9.998139, 10.000821 
1.2351529e+3, 1.5576911e+2, -1732404.8, -1475844.9, -35582.945, 0.076237, -0.06488014, -1471001.3, -57531.85, 0.00010392506, 9.997438, 10.000853 
1.23512976e+3, 1.6576976e+2, -1629256.8, -1403657.9, -20053.281, 0.0800337, -0.06520316, -1401889.3, -86426.59, 0.0000017603737, 9.997595, 10.000597 
1.2351063e+3, 1.7577223e+2, -1409561.8, -1237876.3, -23123.883, 0.03648844, 0.10780035, -1234816.3, -17376.248, 0.0, 9.998395, 10.000675 
1.2350837e+3, 1.8577336e+2, -1303252.9, -1193507.8, 10894.438, 0.060095023, 0.1839894, -1192436.8, -73006.44, 0.0, 9.998701, 10.00016 
1.23506166e+3, 1.9577338e+2, -1208927.9, -1096947.0, 70022.016, 0.12104355, 0.15929213, -1063282.5, -41851.465, 0.0, 9.998673, 10.000163 
1.2350386e+3, 2.0577276e+2, -1143298.6, -1154685.1, 50781.133, 0.09571397, 0.15181176, -1097892.6, -174453.55, 0.0, 9.999052, 9.998912 
1.23501465e+3, 2.1577159e+2, -940373.4, -993330.0, 14407.444, 0.010119428, 0.13163896, -936707.44, -111254.695, 0.0, 9.999714, 9.999029 
1.2349928e+3, 2.2577089e+2, -801839.44, -853959.6, 44456.883, 0.020206032, 0.15210865, -776367.56, -48909.004, 0.0, 9.999904, 9.99922 
1.2349722e+3, 2.3577042e+2, -718724.4, -764695.06, 46972.74, 0.10362277, 0.1702054, -689414.75, -59955.258, 0.0, 9.999807, 9.9992075 
1.2349504e+3, 2.4576838e+2, -559613.94, -787821.75, 41621.96, 0.060488444, 0.12343049, -552259.6, -20780.572, 0.0, 10.000867, 9.997869 
1.2349276e+3, 2.5576517e+2, -170267.83, -525679.7, 41923.26, -0.07752283, -0.00068049476, -165389.66, 268123.22, 0.0, 10.0027685, 9.998077 
1.23490475e+3, 2.6576436e+2, 20310.475, -270944.4, -24786.053, -0.07319927, 0.05730355, 22404.73, 357925.75, 0.00000016286783, 10.002934, 9.999071 
1.23488195e+3, 2.7576515e+2, -44968.832, -254567.56, 25582.426, 0.03775841, 0.21991429, -41891.566, 195619.67, 0.0000066111284, 10.001824, 9.9990425 
1.23485856e+3, 2.857631e+2, 17026.693, -341791.88, 61912.19, 0.029883256, 0.19826438, 27408.902, 166937.81, 0.000046430763, 10.002288, 9.997552 
1.23483434e+3, 2.957589e+2, 345270.34, -135601.06, 51718.984, -0.065384686, 0.007893803, 350769.94, 392337.84, 0.00015647624, 10.003885, 9.997526 
1.23481125e+3, 3.057567e+2, 325531.4, -269955.66, -69219.85, 0.058584876, 0.11021206, 333471.7, 333471.7, 0.00036044128, 10.004068, 9.996182 
1.2347877e+3, 3.1575236e+2, 233827.75, -223702.55, -91879.01, 0.22882858, 0.044483177, 251588.95, 251588.95, 0.00064737466, 10.003027, 9.996999 
1.2452206e+3, 1.2578982e+2, -2217423.8, -1926106.1, 40206.656, 0.010580994, 0.09706143, -1920658.8, -213391.81, 0.003475539, 9.996441, 10.000239 
1.2451948e+3, 1.357904e+2, -1996286.1, -1767593.6, -125405.86, -0.1751118, 0.13351141, -1712229.3, -102963.55, 0.0019075654, 9.997218, 10.000323 
1.2451742e+3, 1.4579114e+2, -1763913.1, -1479854.4, -70785.51, 0.08079276, 0.113794915, -1463192.4, 48066.41, 0.0007030745, 9.997631, 10.001404 
1.24515064e+3, 1.55792e+2, -1656299.5, -1379525.4, -89502.26, 0.0852286, 0.052636053, -1353104.5, 60143.23, 0.00011956255, 9.997706, 10.001384 
1.24512754e+3, 1.6579282e+2, -1551259.4, -1352434.9, -27948.31, 0.07344976, 0.03701685, -1348580.9, -33342.37, 0.0000023468863, 9.998075, 10.000718 
1.24510534e+3, 1.7579369e+2, -1354197.5, -1194158.5, -14892.199, 0.08883909, 0.03796398, -1192784.5, 24445.295, 0.0, 9.998703, 10.000827 
1.2450828e+3, 1.8579489e+2, -1276962.6, -1123093.1, -37108.445, 0.101484455, 0.087071, -1114611.3, 4606.394, 0.0, 9.998625, 10.00068 
1.2450597e+3, 1.9579624e+2, -1268666.1, -1073380.3, -48589.547, 0.09714629, 0.14114827, -1061958.5, -40754.21, 0.0, 9.99803, 10.000637 
1.2450376e+3, 2.0579585e+2, -1124933.3, -1150957.5, 29310.008, 0.09858285, 0.13825718, -1105876.8, -182668.05, 0.0, 9.999194, 9.998873 
1.2450164e+3, 2.1579416e+2, -663767.0, -865452.94, 66988.35, 0.11102794, 0.066196196, -643544.94, 181681.78, 0.0, 10.00164, 9.99898 
1.2449944e+3, 2.2579312e+2, -526838.44, -780619.5, 50046.48, 0.088049725, 0.08447595, -517325.66, 209911.25, 0.0, 10.002044, 9.998694 
1.2449719e+3, 2.3579244e+2, -581890.6, -744905.3, 13587.61, 0.038333293, 0.13443442, -580765.8, 48476.83, 0.0, 10.00094, 9.998798 
1.2449502e+3, 2.457907e+2, -613709.75, -730827.1, 75686.73, -0.0055953553, 0.094810866, -576573.06, -45314.082, 0.0, 10.000144, 9.998605 
1.24492906e+3, 2.5578815e+2, -584521.25, -650597.5, 114868.44, -0.046618108, -0.037810333, -498034.16, -64750.543, 0.0, 9.999606, 9.998741 
1.2449067e+3, 2.657873e+2, -358587.9, -473869.72, 7136.6753, -0.046968594, -0.002456499, -358147.78, -22856.14, 0.000000050542315, 10.000414, 9.99889 
1.2448834e+3, 2.7578756e+2, -1517.9734, -251067.63, -51901.984, -0.017531712, 0.12638064, 8846.289, 246134.69, 0.000006130949, 10.002191, 9.998894 
1.2448606e+3, 2.8578582e+2, 76382.35, -300592.13, -25393.982, 0.004912967, 0.13384703, 78085.266, 217389.72, 0.0000467863, 10.002655, 9.997654 
1.24483824e+3, 2.9578245e+2, 109049.375, -236809.73, -18893.549, 0.02227928, 0.0134381335, 110078.42, 151414.88, 0.00016088788, 10.002212, 9.997633 
1.2448153e+3, 3.0578038e+2, 200983.03, -317575.5, -50323.438, 0.11092284, 0.1225968, 205821.52, 205821.52, 0.00037296448, 10.003154, 9.996293 
1.2447906e+3, 3.1577626e+2, 522564.16, -105434.28, 37414.3, 0.124765396, 0.06670522, 524785.3, 524785.3, 0.0006689744, 10.005099, 9.996816 
1.2552182e+3, 1.2581216e+2, -2090589.3, -1688662.9, 4926.9863, 0.10542004, 0.46277392, -1688602.5, 18457.34, 0.0037739007, 9.9965315, 10.001832 
1.2551937e+3, 1.35808e+2, -1885885.1, -1542911.9, -90681.95, -0.01699701, -0.14018968, -1520411.6, 88683.32, 0.0020822603, 9.997233, 10.001859 
1.2551743e+3, 1.4580975e+2, -1751772.5, -1460506.4, -69952.766, 0.3205391, -0.1358728, -1444577.1, 66499.7, 0.0007764397, 9.997651, 10.001528 
1.2551486e+3, 1.558156e+2, -1638920.5, -1350941.5, -80454.32, 0.11046471, 0.28603825, -1329989.0, 83033.05, 0.00013646827, 9.997736, 10.001565 
1.2551251e+3, 1.658171e+2, -1517985.5, -1288757.5, -8982.647, 0.021707384, 0.30710188, -1288406.0, 26599.521, 0.0000030208696, 9.998093, 10.001148 
1.255104e+3, 1.7581554e+2, -1326697.9, -1139364.1, 7682.7954, 0.07065861, 0.022170914, -1139049.5, 77966.43, 0.0, 9.99871, 10.001201 
1.2550811e+3, 1.8581532e+2, -1301426.9, -1176466.9, -64852.76, 0.07954433, -0.067992836, -1148893.4, -29877.883, 0.0, 9.998635, 10.000309 
1.2550573e+3, 1.9581597e+2, -1285291.3, -1108170.1, -58909.652, 0.043347973, -0.0505359, -1090366.6, -69358.19, 0.0, 9.99803, 10.000397 
1.2550364e+3, 2.0581663e+2, -1048082.4, -984131.75, 115279.66, 0.060469154, -0.0006180293, -896475.06, 26524.945, 0.0, 9.999163, 10.000035 
1.2550181e+3, 2.1581724e+2, -600092.5, -724824.56, 151021.48, 0.11722865, 0.046265878, -499066.34, 325924.78, 0.0, 10.001604, 9.999964 
1.2549962e+3, 2.2581588e+2, -601971.0, -924732.1, 3150.9653, 0.06561996, 0.03746679, -601940.25, 125066.02, 0.0, 10.001993, 9.997729 
1.2549719e+3, 2.3581298e+2, -644193.6, -862341.75, -22171.814, -0.0618147, -0.040878676, -641962.94, -12923.48, 0.0, 10.000888, 9.998018 
1.2549496e+3, 2.4581222e+2, -522433.84, -528002.1, 49874.742, -0.08678099, -0.023004869, -475265.6, 55779.902, 0.0, 10.000087, 10.000026 
1.2549289e+3, 2.558129e+2, -513485.8, -486394.4, 105930.67, -0.036252707, 0.032067295, -393146.88, 39885.957, 0.0, 9.999535, 9.999903 
1.2549075e+3, 2.6581115e+2, -478218.03, -707603.75, 73074.57, -0.006115635, 0.010976832, -456916.97, -121866.59, 0.00000007625481, 10.000348, 9.997318 
1.2548858e+3, 2.7580762e+2, -109072.9, -460933.3, 14748.745, 0.01024289, -0.09021599, -108455.766, 128634.34, 0.0000061180435, 10.002132, 9.99748 
1.2548637e+3, 2.8580558e+2, 102696.695, -235782.06, -47979.797, 0.042075872, -0.073459215, 109366.46, 248478.08, 0.00004818149, 10.002608, 9.998122 
1.2548412e+3, 2.9580444e+2, 137337.77, -159241.9, -23178.635, 0.092334315, -0.013059418, 139138.31, 180259.78, 0.00017152917, 10.0021305, 9.998205 
1.2548184e+3, 3.0580422e+2, 322011.22, -56162.27, 25031.25, 0.103022106, 0.1561282, 323660.8, 323660.8, 0.00040416588, 10.003106, 9.998113 
1.254794e+3, 3.1580245e+2, 609707.1, 97611.766, 127326.65, -0.06760762, 0.15265149, 639618.3, 639618.3, 0.00072634866, 10.005007, 9.998256 
1.2652154e+3, 1.258328e+2, -1850845.3, -1530403.4, 165601.36, 0.10582736, 0.3355061, -1460201.8, 246653.56, 0.004085261, 9.997992, 10.002222 
1.265191e+3, 1.3583131e+2, -1910091.1, -1508174.1, 48053.65, 0.009449475, -0.040030323, -1502508.6, 106356.7, 0.0022650692, 9.996875, 10.002265 
1.2651727e+3, 1.4583321e+2, -1857364.3, -1542513.3, 49768.535, 0.42026636, -0.02678401, -1534833.6, -23987.201, 0.00085386867, 9.997075, 10.001237 
1.2651463e+3, 1.5583728e+2, -1613959.8, -1367931.4, -5682.557, 0.09207199, 0.2506154, -1367800.1, 45009.03, 0.00015477135, 9.998042, 10.001296 
1.2651227e+3, 1.6583864e+2, -1497456.5, -1272909.1, 30901.07, -0.024697332, 0.26733065, -1268734.4, 46060.223, 0.0000038088367, 9.998217, 10.001191 
1.2651022e+3, 1.7583807e+2, -1437462.3, -1191314.5, 13621.382, 0.06512049, 0.0765324, -1190563.1, 26232.582, 0.0, 9.997949, 10.001207 
1.2650803e+3, 1.8583773e+2, -1300544.1, -1215584.1, -50060.21, 0.105652526, -0.006784579, -1192409.3, -73612.63, 0.0, 9.99882, 9.999949 
1.265057e+3, 1.9583747e+2, -948064.1, -980731.9, -55059.645, 0.08919302, -0.042758457, -906966.7, 113831.75, 0.0, 10.000505, 10.000076 
1.2650363e+3, 2.058377e+2, -914706.5, -909512.75, 69583.09, 0.0819905, -0.02726444, -842478.1, 80315.43, 0.0, 10.000039, 10.000119 
1.2650174e+3, 2.1583821e+2, -1115541.4, -961438.25, 17350.018, 0.08420014, -0.0005686457, -959509.0, -134724.6, 0.0, 9.998012, 10.000068 
1.2649961e+3, 2.2583722e+2, -1080300.1, -1104254.9, -80516.914, 0.03418261, -0.00089287997, -1010874.56, -284079.06, 0.0, 9.998485, 9.998189 
1.2649727e+3, 2.3583513e+2, -634215.56, -809636.7, -12349.855, -0.054684553, -0.045843147, -633350.4, -4528.943, 0.0, 10.000753, 9.998444 
1.2649506e+3, 2.4583474e+2, -317067.22, -448861.8, 10424.88, -0.053558208, -0.002472139, -316247.72, 214576.94, 0.0, 10.001582, 9.999848 
1.2649296e+3, 2.558354e+2, -256765.78, -381405.72, -56094.555, 0.013954471, 0.06866797, -235238.4, 197574.52, 0.0, 10.001374, 9.999739 
1.2649089e+3, 2.6583356e+2, -303607.44, -635697.6, -12640.495, 0.03529015, 0.050478876, -303126.97, 31705.121, 0.00000015326442, 10.001604, 9.997208 
1.2648882e+3, 2.7582982e+2, -106062.13, -467183.16, 23839.043, 0.022825925, -0.057142906, -104495.23, 132378.95, 0.000006713193, 10.00219, 9.997408 
1.2648663e+3, 2.858277e+2, 94829.77, -221866.45, -44944.266, 0.050883915, -0.054872748, 101084.55, 239980.69, 0.000050966704, 10.002469, 9.998286 
1.2648436e+3, 2.9582667e+2, 210154.27, -102654.72, -48277.05, 0.10992518, -0.005394309, 217435.56, 258340.0, 0.00018813205, 10.002534, 9.998401 
1.2648214e+3, 3.0582634e+2, 325768.72, -5647.9604, -11643.212, 0.09909987, 0.120417185, 326177.25, 326177.25, 0.00045240638, 10.002929, 9.998545 
1.2647976e+3, 3.1582525e+2, 417949.0, 30305.645, -35245.27, -0.12858182, 0.14188471, 421127.5, 421127.5, 0.0008181, 10.003575, 9.998482 
1.275211e+3, 1.2585215e+2, -1903326.8, -1638783.4, 22859.924, -0.1637472, -0.22956662, -1636822.5, 69828.055, 0.0044096503, 9.99798, 10.001485 
1.2751867e+3, 1.358602e+2, -1957384.3, -1604451.3, 15325.132, -0.112042524, 0.41717863, -1603787.0, 4791.4663, 0.0024558255, 9.996877, 10.001598 
1.275169e+3, 1.4586133e+2, -1898507.4, -1643817.1, 82020.44, 0.34491313, 0.419989, -1619689.0, -109119.51, 0.00093550276, 9.997136, 10.000516 
1.2751436e+3, 1.558572e+2, -1662242.5, -1474575.6, 29175.043, 0.002254379, -0.046049643, -1470144.6, -57536.363, 0.00017466526, 9.998066, 10.000555 
1.2751204e+3, 1.6585766e+2, -1516736.0, -1319963.1, 13743.857, -0.10060686, -0.0672452, -1319007.9, -4404.09, 0.0000047674703, 9.99824, 10.000859 
1.2750998e+3, 1.7586137e+2, -1455394.8, -1235121.3, 11369.424, 0.03445879, 0.20116097, -1234536.0, -17968.094, 0.0, 9.997974, 10.0008955 
1.2750794e+3, 1.8586215e+2, -1324384.5, -1270056.4, 9276.383, 0.13960914, 0.2643284, -1268516.1, -149955.7, 0.0, 9.9988365, 9.99957 
1.2750585e+3, 1.9586076e+2, -978856.56, -1044306.0, 532.8355, 0.19622734, 0.15611476, -978852.25, 41721.76, 0.0, 10.000501, 9.999644 
1.275037e+3, 2.0585908e+2, -988978.6, -1057127.9, -13048.54, 0.12659329, 0.055348326, -986565.6, -63976.668, 0.0, 10.000009, 9.999122 
1.2750146e+3, 2.1585712e+2, -1175795.6, -1073686.9, -42263.902, -0.021494813, -0.07024138, -1058463.3, -233857.42, 0.0, 9.997956, 9.999323 
1.2749939e+3, 2.2585729e+2, -956409.94, -832743.56, 129.27087, -0.04054807, -0.023193737, -832743.44, -106139.99, 0.0, 9.998424, 10.000081 
1.2749743e+3, 2.3585893e+2, -530276.2, -583815.4, 70649.09, 0.02821939, 0.11928784, -481495.1, 147093.1, 0.0, 10.00071, 10.000017 
1.2749535e+3, 2.4585816e+2, -449283.97, -714097.06, -1594.6567, 0.059013885, 0.1524636, -449274.38, 81322.86, 0.0, 10.001541, 9.998046 
1.2749316e+3, 2.5585562e+2, -368872.03, -606007.75, -57369.62, 0.067593, 0.07579454, -355721.97, 76902.26, 0.0, 10.001339, 9.998213 
1.2749107e+3, 2.6585454e+2, -210537.7, -438046.63, 4577.8496, 0.03873329, 0.12952283, -210445.63, 124190.82, 0.00000020123079, 10.00158, 9.998578 
1.27489e+3, 2.7585438e+2, -26694.625, -290566.28, 50598.62, -0.01650506, 0.24069513, -17324.814, 219314.7, 0.0000075115454, 10.002137, 9.998648 
1.2748681e+3, 2.8585234e+2, 75652.67, -248391.05, -45657.625, -0.017734123, 0.20649001, 81962.93, 220620.17, 0.000055155855, 10.002415, 9.998126 
1.2748455e+3, 2.9584897e+2, 181946.84, -144366.69, -36386.76, 0.027797135, 0.035990108, 185955.05, 226640.97, 0.00020861672, 10.002461, 9.998147 
1.274824e+3, 3.058464e+2, 238856.06, -172339.63, 9094.997, 0.05609313, 0.011242735, 239057.14, 239057.14, 0.00051064143, 10.002867, 9.997431 
1.2748013e+3, 3.1584433e+2, 314366.84, -147571.66, -670.58954, -0.12201969, 0.04203448, 314367.8, 314367.8, 0.0009327419, 10.00342, 9.997334 
1.2852089e+3, 1.2587462e+2, -2278239.8, -1897358.3, -186631.6, -0.046773754, -0.24512511, -1821154.9, -114729.7, 0.0047468157, 9.995729, 10.000804 
1.2851834e+3, 1.3588114e+2, -1888913.9, -1641664.3, -132362.25, -0.14676593, 0.31708863, -1584173.5, 24196.79, 0.0026545508, 9.997656, 10.000964 
1.2851658e+3, 1.4588195e+2, -1708375.6, -1555553.8, -34644.25, 0.26209465, 0.31981346, -1548066.8, -37701.996, 0.0010215283, 9.998457, 10.0004835 
1.2851422e+3, 1.558787e+2, -1609251.0, -1458078.6, -50365.48, 0.05093918, -0.058748186, -1442835.5, -30440.697, 0.00019628371, 9.998467, 10.000475 
1.2851195e+3, 1.6587886e+2, -1504612.0, -1379459.0, -59611.41, -0.023059128, -0.07327346, -1355610.1, -41215.813, 0.0000059623408, 9.998603, 10.000279 
1.2850983e+3, 1.7588155e+2, -1365851.8, -1249063.3, -84942.77, 0.051383294, 0.15021522, -1204379.1, 11992.069, 0.0, 9.998832, 10.000388 
1.2850781e+3, 1.8588263e+2, -1293626.1, -1234310.4, -33865.273, 0.12989451, 0.25495076, -1218952.1, -100589.88, 0.0, 9.998962, 9.999752 
1.2850583e+3, 1.9588245e+2, -1172638.8, -1122223.8, -13805.861, 0.18540768, 0.25027892, -1118690.8, -98326.35, 0.0, 9.999106, 9.999781 
1.2850367e+3, 2.0588084e+2, -1048039.1, -1116917.8, -21536.979, 0.12813057, 0.16444504, -1041859.4, -119479.82, 0.0, 9.9997425, 9.998839 
1.285014e+3, 2.1587807e+2, -793734.1, -915085.06, -3156.758, -0.0014438112, -0.01128722, -793652.06, 30752.828, 0.0, 10.000691, 9.999093 
1.2849936e+3, 2.2587799e+2, -629276.25, -655529.75, 37441.457, -0.02386299, 0.010706401, -602727.1, 123677.47, 0.0, 10.000591, 10.000252 
1.2849745e+3, 2.3587976e+2, -655047.1, -621838.1, -31922.139, 0.026129285, 0.14883062, -602460.25, 25926.094, 0.0, 9.999764, 10.000206 
1.2849542e+3, 2.4587919e+2, -646847.2, -792903.7, -70426.56, 0.051910006, 0.18363577, -618420.9, -88027.49, 0.0, 10.000111, 9.998196 
1.2849328e+3, 2.558769e+2, -364491.56, -583552.75, 8689.02, 0.06337138, 0.11724641, -364147.44, 68271.59, 0.0, 10.001283, 9.998394 
1.2849121e+3, 2.6587594e+2, -202352.84, -388561.72, 79993.555, 0.03892713, 0.15380336, -172707.92, 161720.75, 0.00000014147287, 10.001441, 9.998982 
1.2848915e+3, 2.7587584e+2, -183165.86, -326986.4, 45674.14, -0.0138655985, 0.23181516, -169886.86, 66541.164, 0.00000765521, 10.000892, 9.998997 
1.2848702e+3, 2.8587395e+2, -32520.035, -335348.6, -42368.02, -0.023519814, 0.21488734, -26704.123, 111739.734, 0.00005963982, 10.001822, 9.997818 
1.2848483e+3, 2.9587078e+2, 358738.38, -92682.24, -62381.598, 0.007066221, 0.0955363, 367200.25, 407672.53, 0.00023270336, 10.003822, 9.9978485 
1.2848277e+3, 3.0586722e+2, 422047.88, -123358.23, -11397.63, 0.085133076, 0.0031075177, 422285.97, 422285.97, 0.0005778234, 10.004295, 9.997079 
1.2848058e+3, 3.1586438e+2, 330453.56, -171800.44, 19250.676, -0.015122386, -0.007005272, 331190.34, 331190.34, 0.0010639558, 10.003663, 9.997049 
1.295208e+3, 1.259e+2, -2313592.5, -1987961.8, -180837.75, 0.27029434, 0.22852719, -1907443.8, -201263.08, 0.0050962004, 9.995802, 10.000152 
1.2951815e+3, 1.3589473e+2, -1935388.6, -1734970.3, -59682.758, -0.12160714, -0.3129099, -1718543.6, -110309.055, 0.0028611089, 9.997655, 10.000319 
1.2951632e+3, 1.4589569e+2, -1664486.1, -1471633.1, -39407.863, 0.12981145, -0.29276955, -1463891.3, 46335.42, 0.00111182, 9.998479, 10.001054 
1.2951422e+3, 1.5590186e+2, -1570443.8, -1383470.0, -45550.344, 0.19314918, 0.20989943, -1372963.5, 39203.926, 0.000219555, 9.998485, 10.000982 
1.29512e+3, 1.6590227e+2, -1558227.9, -1493139.1, -55874.35, 0.16016707, 0.23688926, -1461022.3, -146856.11, 0.0000074533, 9.998614, 9.999493 
1.2950976e+3, 1.7589878e+2, -1415223.9, -1350750.5, -73642.32, 0.08441561, -0.07679808, -1302598.1, -86394.27, 0.0, 9.998831, 9.999689 
1.2950765e+3, 1.8589936e+2, -1244694.5, -1134597.1, -33612.277, 0.044462994, -0.024227228, -1125146.8, -6946.7925, 0.0, 9.998966, 10.000436 
1.2950557e+3, 1.9590265e+2, -1125354.9, -1024607.44, -1938.8302, 0.026220223, 0.24576508, -1024570.2, -4401.9063, 0.0, 9.999107, 10.000451 
1.2950358e+3, 2.0590292e+2, -1020201.1, -1056955.0, 9820.438, 0.052061245, 0.2969047, -1017741.75, -95576.67, 0.0, 9.999732, 9.999255 
1.2950158e+3, 2.1590106e+2, -784617.75, -884220.4, 29832.068, 0.109198935, 0.17019033, -776366.25, 47815.71, 0.0, 10.000641, 9.999329 
1.2949948e+3, 2.2589931e+2, -747862.0, -889825.75, 912.56744, 0.044923756, 0.101116925, -747856.1, -21657.219, 0.0, 10.000537, 9.998669 
1.294973e+3, 2.3589756e+2, -749681.4, -807314.7, -51803.02, -0.10177112, 0.039916262, -719219.44, -91003.016, 0.0, 9.999714, 9.998957 
1.2949526e+3, 2.4589777e+2, -504500.22, -484014.84, -30617.408, -0.11530814, 0.093794584, -461972.25, 68240.99, 0.0, 10.000054, 10.000342 
1.2949333e+3, 2.5589925e+2, -239497.83, -311827.22, 54035.617, -0.033398937, 0.19380936, -210641.5, 221555.22, 0.0, 10.001231, 10.000285 
1.2949131e+3, 2.658977e+2, -253038.34, -483230.53, 56336.266, -0.0035295105, 0.11965777, -239990.44, 94218.484, 0.000000052184554, 10.001392, 9.998358 
1.2948924e+3, 2.7589405e+2, -237652.31, -420429.72, 40032.785, -0.009458591, -0.10024801, -229268.67, 6972.6196, 0.000006761853, 10.000806, 9.998397 
1.2948722e+3, 2.8589246e+2, -74297.72, -408768.84, 31771.664, -0.006668921, -0.037216306, -71306.45, 66950.64, 0.000062792315, 10.0017605, 9.997346 
1.2948523e+3, 2.9589218e+2, 324259.53, -158850.58, 14329.66, 0.009132122, 0.18426734, 324684.2, 364947.16, 0.00025878826, 10.003794, 9.997413 
1.2948328e+3, 3.0588886e+2, 445832.94, -63858.637, -37709.57, 0.14222774, 0.1131624, 448607.78, 448607.78, 0.00065176375, 10.00426, 9.997499 
1.294811e+3, 3.158854e+2, 347329.34, -94844.375, 9892.984, 0.12070546, -0.004105396, 347550.6, 347550.6, 0.0012059709, 10.003497, 9.997651 
1.3052061e+3, 1.259206e+2, -1954466.4, -1740573.5, -189317.89, 0.40312052, 0.285216, -1630083.1, 75900.18, 0.0054552136, 9.997945, 10.000815 
1.30518e+3, 1.359151e+2, -1822778.3, -1639938.0, 17254.158, -0.05415299, -0.32007587, -1638324.0, -30289.342, 0.003073975, 9.998258, 10.000677 
1.3051604e+3, 1.4591596e+2, -1697370.4, -1489586.0, 20121.643, 0.025367897, -0.32391742, -1487655.4, 22371.592, 0.0012055306, 9.998268, 10.001028 
1.3051401e+3, 1.5592255e+2, -1613996.6, -1405104.3, -38497.367, 0.15899916, 0.22162727, -1398235.4, 13730.041, 0.000244213, 9.998197, 10.000968 
1.3051188e+3, 1.6592318e+2, -1586101.4, -1520612.3, -18038.318, 0.18685989, 0.2779406, -1515972.5, -202009.92, 0.000009295233, 9.998491, 9.999361 
1.305097e+3, 1.7591968e+2, -1384791.4, -1350798.8, 3329.8352, 0.13291267, -0.021356229, -1350475.6, -134475.34, 0.0, 9.99911, 9.999555 
1.3050757e+3, 1.8591958e+2, -1186066.0, -1116884.0, 29033.908, 0.056032762, -0.024303066, -1106314.1, 11688.289, 0.0, 9.999411, 10.000344 
1.3050544e+3, 1.9592178e+2, -1074857.5, -1004693.9, -3539.9846, -0.038005225, 0.14278851, -1004515.7, 15465.045, 0.0, 9.99947, 10.000412 
1.305035e+3, 2.0592257e+2, -959804.56, -991037.5, 16121.887, 0.0066726543, 0.2299341, -952975.75, -31003.184, 0.0, 9.999994, 9.999579 
1.305017e+3, 2.1592239e+2, -726565.7, -821228.5, 16463.375, 0.14706868, 0.2363409, -723784.2, 100189.79, 0.0, 10.000894, 9.999638 
1.3049959e+3, 2.2592074e+2, -706321.9, -869918.3, 4678.851, 0.084431365, 0.16555887, -706188.1, 19800.549, 0.0, 10.000822, 9.998669 
1.3049728e+3, 2.3591802e+2, -699268.56, -784761.0, 63235.914, -0.11828159, 0.0078099566, -665686.4, -37672.797, 0.0, 10.000065, 9.998944 
1.3049522e+3, 2.4591783e+2, -558282.06, -530538.3, 86020.73, -0.1390728, 0.03383124, -457278.13, 72736.05, 0.0, 9.999774, 10.00016 
1.3049339e+3, 2.5591937e+2, -450169.38, -429181.6, -14107.828, -0.031199537, 0.15620883, -422092.75, 9905.708, 0.0, 9.9998455, 10.000149 
1.3049144e+3, 2.659178e+2, -309113.16, -483497.2, -39743.152, -0.0033192975, 0.07478673, -300482.6, 33526.91, 0.000000019202236, 10.0008955, 9.998592 
1.304894e+3, 2.7591407e+2, 50207.48, -260091.47, -3567.611, -0.03184038, -0.17852944, 50248.492, 286288.4, 0.0000058574187, 10.002688, 9.99859 
1.3048744e+3, 2.8591236e+2, 111911.195, -345569.7, 43726.67, -0.029546864, -0.122344784, 116053.16, 254110.0, 0.00006594774, 10.003155, 9.9971075 
1.3048553e+3, 2.959121e+2, 154966.73, -259892.73, 34301.633, -0.002834814, 0.11942439, 157783.75, 197848.86, 0.00028475493, 10.002716, 9.997233 
1.3048367e+3, 3.0590892e+2, 295532.28, -116902.16, -30965.236, 0.1685326, 0.06253874, 297844.16, 297844.16, 0.0007251385, 10.003134, 9.997685 
1.3048156e+3, 3.1590647e+2, 477093.3, 14996.086, -20788.691, 0.19830723, 0.028302412, 478026.66, 478026.66, 0.0013470041, 10.0041685, 9.998096 
1.315203e+3, 1.2593699e+2, -1820934.5, -1471036.5, -169262.75, 0.27515805, -0.04277583, -1402557.9, 303269.63, 0.005819013, 9.997963, 10.002668 
1.315179e+3, 1.3594206e+2, -1737499.4, -1461203.1, 27845.443, 0.020086445, 0.2647347, -1458424.8, 149347.75, 0.0032902497, 9.998244, 10.001916 
1.3151576e+3, 1.4594251e+2, -1736479.5, -1570764.3, 8769.2705, -0.098914705, 0.1942071, -1570301.5, -60533.473, 0.0013013786, 9.99827, 10.000471 
1.3151361e+3, 1.5594089e+2, -1650502.1, -1479435.8, -36810.414, -0.07567567, -0.019123204, -1471851.1, -60063.855, 0.00026992275, 9.998194, 10.000459 
1.3151158e+3, 1.6594175e+2, -1551707.4, -1453370.0, -1843.9076, 0.031603176, 0.060373783, -1453335.4, -139553.3, 0.00001153221, 9.998502, 9.999822 
1.3150966e+3, 1.7594421e+2, -1355234.1, -1293851.1, 27401.434, 0.16551977, 0.30685008, -1283398.9, -67637.914, 0.0, 9.999124, 9.999941 
1.3150758e+3, 1.8594323e+2, -1245464.0, -1240445.6, 26301.635, 0.12107614, 0.24221435, -1216533.8, -98763.164, 0.0, 9.999413, 9.999496 
1.315054e+3, 1.9593987e+2, -1131731.5, -1117698.9, 3494.0107, -0.041759856, -0.058140334, -1116877.0, -97075.47, 0.0, 9.999448, 9.999648 
1.3150346e+3, 2.0593984e+2, -947184.5, -956917.6, 44620.184, -0.040104806, -0.031406194, -907166.3, 14635.021, 0.0, 9.999959, 9.99983 
1.3150172e+3, 2.1594204e+2, -707982.0, -771969.8, 48718.934, 0.07766936, 0.18817262, -681690.9, 142089.55, 0.0, 10.000847, 9.999999 
1.3149965e+3, 2.2594233e+2, -601553.06, -642128.75, -28095.334, 0.05527068, 0.20659204, -587186.25, 138587.28, 0.0, 10.000775, 10.0002575 
1.3149734e+3, 2.359412e+2, -624221.2, -616137.5, 44001.023, -0.062352255, 0.054946978, -575993.06, 51784.016, 0.0, 10.000009, 10.000132 
1.314953e+3, 2.4593942e+2, -747386.2, -909643.4, 84468.94, -0.057564378, 0.0076064393, -711395.8, -181600.1, 0.0, 9.999715, 9.997586 
1.3149343e+3, 2.559372e+2, -616704.25, -758220.4, 365.65005, 0.035653986, 0.0065187314, -616703.25, -184878.63, 0.0, 9.999774, 9.997925 
1.3149153e+3, 2.6593623e+2, -240177.31, -329001.97, 25325.105, -0.00082450494, 0.023868462, -233464.16, 100366.78, 0.000000054232096, 10.000842, 9.99968 
1.3148957e+3, 2.7593598e+2, 112467.4, -122085.19, 63973.656, -0.124838434, 0.01709004, 128781.37, 364604.34, 0.0000056747863, 10.002654, 9.999556 
1.3148765e+3, 2.8593376e+2, 111930.27, -339544.1, 22649.557, -0.13658188, -0.023320708, 113063.71, 250905.98, 0.00007077781, 10.003128, 9.997162 
1.3148575e+3, 2.9593027e+2, 142201.9, -260836.78, 29813.17, -0.0695263, -0.11126073, 144395.28, 184275.52, 0.000310223, 10.002608, 9.997279 
1.3148394e+3, 3.059272e+2, 280348.9, -129490.086, 8868.163, 0.11691633, -0.15805925, 280540.7, 280540.7, 0.00079265307, 10.003054, 9.997637 
1.3148192e+3, 3.1592754e+2, 479568.16, 50164.496, 33174.207, 0.1224722, 0.09040661, 482115.97, 482115.97, 0.0014745404, 10.004053, 9.998389 
1.3251986e+3, 1.259558e+2, -1907881.5, -1484234.9, -118847.64, 0.08014695, -0.13228905, -1453171.8, 252471.63, 0.006183249, 9.997229, 10.002934 
1.3251776e+3, 1.3596292e+2, -1945869.3, -1560665.5, -73835.664, 0.11580316, 0.3735873, -1546997.8, 60571.742, 0.0035072896, 9.9968195, 10.001908 
1.3251556e+3, 1.4596365e+2, -1950235.6, -1713476.5, -97921.51, -0.05235065, 0.35302058, -1678225.5, -168662.06, 0.0013982238, 9.996979, 10.00011 
1.325134e+3, 1.5596043e+2, -1707193.9, -1535744.3, -132495.5, -0.075012915, 0.010670748, -1463659.8, -52059.668, 0.00029637254, 9.997927, 10.000203 
1.325114e+3, 1.6596104e+2, -1527467.8, -1359005.0, -73094.79, 0.02913975, 0.037520666, -1331711.6, -18116.348, 0.000014169166, 9.998313, 10.000556 
1.3250951e+3, 1.759643e+2, -1437536.8, -1262293.0, -33785.066, 0.1650082, 0.28894612, -1256005.1, -40442.848, 0.0, 9.99825, 10.000577 
1.3250753e+3, 1.8596387e+2, -1300775.4, -1283360.9, 27288.414, 0.15658537, 0.25885332, -1263424.3, -145858.75, 0.0, 9.99911, 9.999344 
1.3250549e+3, 1.9596088e+2, -966090.7, -1057186.6, 44038.668, 0.060012463, 0.010644552, -948282.4, 71311.55, 0.0, 10.000671, 9.999473 
1.3250352e+3, 2.0596005e+2, -887457.3, -964532.44, 54709.324, 0.00704573, -0.017023578, -859075.1, 62526.848, 0.0, 10.000517, 9.999514 
1.3250162e+3, 2.1596073e+2, -972345.6, -927301.6, 8420.081, -0.01600315, 0.08030489, -925779.06, -102183.086, 0.0, 9.999147, 9.999755 
1.3249959e+3, 2.2596128e+2, -765514.94, -693863.3, -113638.08, -0.0019581236, 0.1255466, -610537.56, 115049.305, 0.0, 9.999545, 10.000489 
1.324975e+3, 2.3596174e+2, -436260.06, -502635.94, -152655.53, 0.03524428, 0.10422561, -313226.53, 314349.7, 0.0, 10.001214, 10.000323 
1.3249548e+3, 2.4595988e+2, -470335.75, -821090.94, -62585.71, 0.051918745, 0.06266829, -459503.03, 70092.234, 0.0, 10.001813, 9.997179 
1.3249351e+3, 2.5595644e+2, -368268.84, -679106.75, 6410.551, 0.055385463, -0.019594915, -368136.7, 63498.4, 0.0, 10.001662, 9.997552 
1.3249166e+3, 2.6595524e+2, -165731.33, -321788.56, 76672.5, 0.021965038, 0.003634925, -134365.53, 199278.67, 0.00000008813443, 10.001477, 9.999429 
1.3248986e+3, 2.7595538e+2, -99992.555, -247865.58, 4202.931, -0.039124526, 0.06312921, -99873.195, 135760.45, 0.000005758402, 10.00129, 9.999354 
1.3248797e+3, 2.859531e+2, -131565.48, -441966.28, -95275.52, -0.050701316, 0.015861778, -104654.41, 32999.223, 0.000075127005, 10.001398, 9.99729 
1.32486e+3, 2.9594913e+2, 36136.09, -296817.25, -93173.29, -0.027250586, -0.12942947, 60436.105, 100130.836, 0.00033038916, 10.001814, 9.997414 
1.324842e+3, 3.0594593e+2, 200582.58, -172081.48, -62522.78, 0.119126216, -0.1950551, 210792.47, 210792.47, 0.00084619236, 10.002523, 9.997599 
1.3248223e+3, 3.159463e+2, 416153.4, 53962.793, -56654.445, 0.06600152, 0.059592042, 424808.56, 424808.56, 0.0015748155, 10.003451, 9.998711 
1.3351929e+3, 1.2597694e+2, -1995977.3, -1656934.1, -79470.445, -0.22921355, -0.004339209, -1639231.0, 66201.13, 0.0065457188, 9.997206, 10.001746 
1.3351753e+3, 1.3597809e+2, -2025820.9, -1727174.6, -91655.22, 0.19808258, 0.032673266, -1701289.1, -93867.734, 0.0037237175, 9.996833, 10.000754 
1.3351545e+3, 1.4597973e+2, -1953219.4, -1730003.5, -70192.12, 0.12021228, 0.16509013, -1709765.9, -200355.92, 0.0014951822, 9.997014, 9.999985 
1.3351339e+3, 1.5598117e+2, -1700013.0, -1529452.1, -93373.58, 0.10929635, 0.29711056, -1488275.6, -76872.37, 0.00032323142, 9.997957, 10.000235 
1.3351135e+3, 1.6598111e+2, -1459575.0, -1220331.0, -79917.35, 0.12794401, 0.20022991, -1196091.3, 117310.42, 0.000017128494, 9.9983225, 10.001506 
1.335093e+3, 1.7598018e+2, -1374197.9, -1131896.4, -29347.0, 0.100254074, -0.058165167, -1128392.6, 87009.36, 0.00000000003443261, 9.998258, 10.001466 
1.3350743e+3, 1.859817e+2, -1262423.8, -1209451.0, 79123.78, 0.13251746, 0.040303618, -1152498.3, -35112.973, 0.0, 9.999128, 9.999846 
1.3350573e+3, 1.9598472e+2, -939529.5, -1000251.5, 95072.266, 0.2286617, 0.34122327, -870088.06, 149270.55, 0.0, 10.000661, 9.999869 
1.335037e+3, 2.0598318e+2, -952720.2, -1092913.0, -3652.96, 0.106985465, 0.26866746, -952625.06, -31250.379, 0.0, 10.0004835, 9.998649 
1.335014e+3, 2.1597847e+2, -1044354.5, -1064966.6, -29173.842, -0.1677367, -0.08204188, -1023719.9, -200299.88, 0.0, 9.999091, 9.99884 
1.3349944e+3, 2.2597764e+2, -851441.7, -858874.06, -54842.87, -0.12603125, -0.07422724, -800189.25, -74760.65, 0.0, 9.999486, 9.999386 
1.3349773e+3, 2.3597947e+2, -501163.06, -626508.6, -90512.53, 0.13772465, 0.15156537, -453743.16, 173668.78, 0.0, 10.001166, 9.999496 
1.3349576e+3, 2.4597912e+2, -349383.03, -562855.06, -72128.72, 0.1451274, 0.19759986, -327296.97, 202116.83, 0.0, 10.001779, 9.99897 
1.3349363e+3, 2.5597715e+2, -269939.0, -471473.16, 5738.1274, -0.01896025, 0.088272266, -269775.75, 161653.61, 0.0, 10.001643, 9.998989 
1.3349181e+3, 2.6597476e+2, -283847.0, -558535.5, 65409.156, 0.019978803, 0.018795412, -269066.94, 64382.934, 0.00000008397673, 10.001441, 9.99782 
1.3349022e+3, 2.7597204e+2, -214003.77, -462155.2, 5329.445, 0.19506526, -0.0525365, -213889.36, 21584.78, 0.0000056271715, 10.001198, 9.997926 
1.3348836e+3, 2.8597015e+2, -130400.68, -423570.1, -84501.34, 0.19396836, -0.0047072843, -107788.6, 29704.197, 0.0000764955, 10.001324, 9.997453 
1.334863e+3, 2.9596877e+2, 34357.32, -283989.66, -68419.69, 0.089353256, 0.09091449, 48439.285, 87947.49, 0.0003400778, 10.001739, 9.997541 
1.3348447e+3, 3.059652e+2, 192449.55, -170645.06, -27665.936, 0.12812136, -0.02037532, 194545.45, 194545.45, 0.0008788174, 10.002457, 9.997633 
1.3348249e+3, 3.159624e+2, 410140.75, 86908.06, -12345.182, -0.03981729, -0.08615788, 410611.56, 410611.56, 0.0016415936, 10.003271, 9.999019 
1.3451894e+3, 1.2599607e+2, -2196193.0, -1789139.6, -104682.08, -0.23016825, 0.10921976, -1763796.4, -58550.563, 0.0069055543, 9.995992, 10.001422 
1.3451718e+3, 1.3599488e+2, -1882175.4, -1674472.5, -122813.76, 0.11333689, -0.0691033, -1617487.5, -10228.825, 0.0039389143, 9.997876, 10.000626 
1.345152e+3, 1.4599694e+2, -1701329.4, -1548216.1, -38108.24, 0.10040279, 0.08211965, -1539255.8, -30013.717, 0.0015916337, 9.998488, 10.000518 
1.3451335e+3, 1.5599975e+2, -1566555.0, -1413877.5, -26321.24, 0.23017472, 0.29919356, -1409467.3, 1752.3309, 0.0003501717, 9.998666, 10.00068 
1.3451132e+3, 1.659998e+2, -1367504.1, -1212313.6, -49861.402, 0.23031747, 0.21171597, -1197674.5, 115542.484, 0.000020254476, 9.999122, 10.001171 
1.3450916e+3, 1.7599812e+2, -1178855.6, -1070087.4, -100195.63, 0.07147693, -0.087238386, -1010468.0, 204758.4, 0.0000000014653116, 9.999741, 10.001178 
1.345073e+3, 1.8599956e+2, -1198843.3, -1143642.5, -31584.621, 0.07432521, -0.002280334, -1129298.0, -12087.03, 0.0, 9.999415, 10.000157 
1.3450567e+3, 1.9600298e+2, -1239144.9, -1107655.8, -42678.52, 0.20677191, 0.30587903, -1095017.9, -75837.95, 0.0, 9.998448, 10.000196 
1.3450369e+3, 2.0600206e+2, -1123753.4, -1121184.5, -82552.25, 0.123771876, 0.25788736, -1039906.7, -118718.195, 0.0, 9.999089, 9.999122 
1.3450143e+3, 2.159982e+2, -760030.8, -882847.06, -17620.97, -0.11666047, -0.05877284, -757552.7, 65671.64, 0.0, 10.00086, 9.99923 
1.344995e+3, 2.2599716e+2, -669997.75, -838034.56, 37370.21, -0.08612936, -0.05681586, -662061.7, 63174.402, 0.0, 10.001009, 9.998798 
1.3449778e+3, 2.3599806e+2, -692967.3, -773508.9, 32727.49, 0.13659558, 0.13444689, -681345.7, -54114.152, 0.0, 10.000075, 9.999016 
1.3449585e+3, 2.4599771e+2, -514697.9, -604208.6, 17810.262, 0.13383432, 0.18440212, -511284.3, 17948.617, 0.0, 10.000484, 9.9993105 
1.3449378e+3, 2.559964e+2, -223165.38, -416928.75, -24851.748, -0.028126322, 0.10666735, -220028.72, 211210.58, 0.0, 10.001834, 9.999273 
1.34492e+3, 2.6599386e+2, -228703.14, -573101.0, 20398.934, 0.030272866, 0.029243344, -227499.1, 105762.43, 0.00000006157407, 10.002001, 9.997447 
1.3449039e+3, 2.7599043e+2, -204027.0, -488779.8, 44893.805, 0.23951428, -0.0799087, -197116.78, 38178.5, 0.0000055913592, 10.001403, 9.997639 
1.3448857e+3, 2.859886e+2, -16269.494, -336031.16, 53726.98, 0.2444312, -0.02856852, -7483.5874, 129829.47, 0.00007682173, 10.001963, 9.99775 
1.3448657e+3, 2.9598793e+2, 286208.94, -129963.03, 65124.984, 0.113776766, 0.11023565, 296162.06, 335481.47, 0.00034345183, 10.003331, 9.997831 
1.3448478e+3, 3.059846e+2, 285347.5, -179993.45, 65516.47, 0.15769947, 0.034193683, 294395.78, 294395.78, 0.0008946951, 10.003317, 9.997165 
1.3448282e+3, 3.1598064e+2, 259542.02, -7827.6797, 22844.123, 0.020624656, -0.10065963, 261479.77, 261479.77, 0.0016793058, 10.002333, 9.998816 
1.3551882e+3, 1.2601317e+2, -2163405.0, -1723715.0, 16326.581, 0.03437371, 0.17651974, -1723109.6, -18025.188, 0.0072628423, 9.996016, 10.001854 
1.3551667e+3, 1.3601336e+2, -1820445.6, -1544540.9, -61343.38, -0.17705958, 0.04900986, -1531516.9, 75564.21, 0.004152666, 9.997873, 10.001516 
1.3551481e+3, 1.4601542e+2, -1629499.8, -1398523.5, -38644.89, -0.1411937, 0.1043305, -1392229.4, 116829.54, 0.0016872559, 9.998482, 10.001553 
1.3551325e+3, 1.5601645e+2, -1511085.6, -1298244.0, -13860.047, 0.25470486, 0.03996043, -1297345.3, 113701.625, 0.0003769789, 9.998663, 10.001474 
1.3551131e+3, 1.6601725e+2, -1474266.3, -1439297.6, -32424.195, 0.2992444, 0.07715356, -1419944.0, -106903.45, 0.000023370363, 9.999136, 9.999612 
1.355091e+3, 1.7601803e+2, -1275857.4, -1271285.3, -78179.66, 0.04446389, 0.17938359, -1195358.3, 19678.332, 0.0000000068048798, 9.999737, 9.9998 
1.3550712e+3, 1.8601747e+2, -1193548.0, -1135314.4, -72063.336, -0.06336009, 0.12325983, -1086707.9, 30334.29, 0.0, 9.999421, 10.000214 
1.3550527e+3, 1.9601585e+2, -1221631.1, -1074303.1, -65503.727, -0.0430249, -0.07796345, -1049391.6, -30336.191, 0.0, 9.998456, 10.000423 
1.355035e+3, 2.0601693e+2, -997453.6, -858261.7, -20792.637, 0.021196363, -0.037345063, -855222.06, 65819.555, 0.0, 9.999081, 10.000933 
1.3550174e+3, 2.1601984e+2, -651257.25, -649367.2, 43033.82, 0.10204778, 0.14435174, -607268.06, 215741.33, 0.0, 10.000822, 10.000856 
1.3549978e+3, 2.2601974e+2, -681486.1, -847707.8, -3939.3872, 0.078704074, 0.1696968, -681392.8, 43617.566, 0.0, 10.000949, 9.998761 
1.3549766e+3, 2.3601758e+2, -713193.2, -801149.06, 9792.19, -0.0071229506, 0.059577964, -712116.2, -85081.805, 0.0, 10.000014, 9.998856 
1.3549575e+3, 2.4601574e+2, -601460.44, -770823.25, 64914.43, -0.022867408, 0.03049058, -579442.1, -50389.97, 0.0, 10.000423, 9.9981985 
1.35494e+3, 2.560141e+2, -294056.94, -553509.0, 24807.498, 0.000793831, 0.028096655, -291706.25, 139359.75, 0.0, 10.001786, 9.998361 
1.3549219e+3, 2.6601237e+2, -174947.81, -451397.13, -5881.7397, 0.018593132, 0.026413158, -174822.73, 158257.9, 0.000000036385206, 10.001956, 9.998304 
1.3549034e+3, 2.7601048e+2, -158084.67, -377855.3, 36313.344, 0.04337157, -0.010803791, -152239.95, 82856.94, 0.000005925218, 10.001334, 9.998436 
1.3548855e+3, 2.8600842e+2, 7717.0786, -272536.97, 104018.77, 0.03555774, -0.045997098, 42105.063, 179219.16, 0.00007720777, 10.001909, 9.998208 
1.3548681e+3, 2.960063e+2, 298024.9, -92157.914, 117761.445, 0.00077333784, -0.09707571, 330811.6, 369942.75, 0.00034341367, 10.003277, 9.9981165 
1.3548514e+3, 3.060038e+2, 209618.52, -323987.9, 26102.426, 0.17116086, -0.04279301, 210892.33, 210892.33, 0.00089620176, 10.003264, 9.996197 
1.3548322e+3, 3.1600094e+2, 170913.33, -149065.28, 23.826246, 0.18068114, 0.020621534, 170913.33, 170913.33, 0.0016848987, 10.002154, 9.99793 
1.3651846e+3, 1.2603022e+2, -2114628.5, -1690875.4, 165626.33, 0.058543462, 0.14553691, -1633821.1, 71096.74, 0.0076198755, 9.99629, 10.001958 
1.3651633e+3, 1.3603191e+2, -1922362.0, -1538866.8, 13389.508, -0.24913685, 0.11837286, -1538399.8, 68499.875, 0.004366158, 9.996915, 10.002027 
1.3651457e+3, 1.4603402e+2, -1833991.8, -1483147.4, -34824.496, -0.15024179, 0.14333506, -1479724.1, 29152.273, 0.0017823466, 9.99702, 10.001674 
1.365129e+3, 1.5603413e+2, -1725370.6, -1396761.8, -77535.37, 0.13382424, -0.019670112, -1379386.0, 31485.867, 0.0004035849, 9.997163, 10.001526 
1.3651106e+3, 1.6603516e+2, -1692116.5, -1554814.4, -35164.418, 0.20214209, 0.04386953, -1546332.5, -233468.02, 0.000026350568, 9.997684, 9.9995165 
1.3650905e+3, 1.7603695e+2, -1468512.4, -1369989.1, 11428.88, 0.07875935, 0.25332072, -1368680.8, -153827.33, 0.000000016360648, 9.998438, 9.999745 
1.365071e+3, 1.8603629e+2, -1213053.3, -1115061.9, 52723.64, -0.013101713, 0.17580755, -1092082.9, 24776.31, 0.0, 9.999174, 10.000467 
1.3650516e+3, 1.9603385e+2, -984571.6, -930638.1, 68291.44, -0.06933106, -0.13381822, -884181.94, 134695.56, 0.0, 9.999967, 10.000678 
1.3650344e+3, 2.0603494e+2, -854508.56, -776033.0, 75458.32, 0.016714372, -0.10810909, -730220.44, 190642.14, 0.0, 10.000006, 10.001052 
1.3650185e+3, 2.1603848e+2, -831919.6, -722193.7, 4162.4536, 0.18851703, 0.12435507, -722036.06, 100788.75, 0.0, 9.999526, 10.000977 
1.3649987e+3, 2.2603868e+2, -798675.1, -903482.1, -97541.14, 0.13156767, 0.1714779, -740351.94, -15528.866, 0.0, 10.000147, 9.99876 
1.3649766e+3, 2.3603654e+2, -503098.44, -702202.2, -88097.336, -0.075584136, 0.06272341, -469715.3, 157131.17, 0.0, 10.001469, 9.998835 
1.3649583e+3, 2.4603435e+2, -439220.5, -710650.44, 26368.43, -0.051686235, 0.0089275595, -436682.63, 92185.164, 0.0, 10.001623, 9.998029 
1.3649425e+3, 2.560321e+2, -413229.0, -624373.7, 45885.44, 0.12059361, -0.03660004, -403688.38, 27199.56, 0.0, 10.001033, 9.99823 
1.3649245e+3, 2.660306e+2, -221962.03, -466597.6, 15078.622, 0.100592576, -0.014422375, -221036.14, 111865.01, 0.000000033203506, 10.001605, 9.998369 
1.3649046e+3, 2.7602953e+2, 82875.914, -251046.03, -14014.446, -0.043352645, 0.02235626, 83463.055, 318373.34, 0.000006027052, 10.002949, 9.998528 
1.364887e+3, 2.8602746e+2, 90803.1, -222797.0, 6558.026, -0.0355578, -0.022995496, 90940.18, 227867.55, 0.00007555986, 10.002442, 9.998293 
1.3648707e+3, 2.960247e+2, -62523.742, -253734.23, -12651.382, 0.07335245, -0.14427306, -61690.3, -22740.893, 0.00033532447, 10.000744, 9.998226 
1.3648544e+3, 3.0602276e+2, -18761.242, -432596.3, -23837.855, 0.24153048, -0.045370962, -17392.652, -17392.652, 0.00087567023, 10.001682, 9.996216 
1.364835e+3, 3.1602004e+2, 495913.34, -2832.0986, -5728.562, 0.15155518, 0.03202612, 495979.16, 495979.16, 0.0016473876, 10.004411, 9.997857 
1.3751787e+3, 1.260469e+2, -2124061.3, -1709943.9, 171173.84, -0.17814156, -0.012351887, -1648350.8, 56398.863, 0.0079810945, 9.996305, 10.001811 
1.3751614e+3, 1.3605072e+2, -1908553.8, -1507394.6, 32825.406, -0.15145189, 0.1508762, -1504726.4, 101986.766, 0.0045821774, 9.996909, 10.002244 
1.3751446e+3, 1.4605276e+2, -1882697.9, -1591219.0, -38757.965, 0.02276003, 0.19761816, -1586153.4, -77459.21, 0.0018779465, 9.997045, 10.000924 
1.3751233e+3, 1.560528e+2, -1762307.8, -1480670.8, -64127.563, -0.16401677, 0.10242532, -1466756.6, -56061.77, 0.00043006244, 9.997194, 10.000936 
1.3751054e+3, 1.6605367e+2, -1597889.3, -1367082.4, -11135.094, -0.0979586, 0.10872184, -1366546.5, -53858.945, 0.000029160963, 9.997712, 10.000794 
1.3750896e+3, 1.7605515e+2, -1382441.4, -1193931.0, 42190.117, 0.14021817, 0.15849516, -1184919.3, 29755.213, 0.000000027808229, 9.998445, 10.000955 
1.375072e+3, 1.8605614e+2, -1177687.9, -1046469.44, 76129.805, 0.18001544, 0.16684717, -1011578.3, 105082.875, 0.0, 9.999192, 10.000931 
1.3750534e+3, 1.9605675e+2, -967955.5, -896297.25, 95408.625, 0.088456534, 0.12064205, -830212.0, 188436.19, 0.0, 9.999965, 10.000918 
1.375035e+3, 2.0605597e+2, -965255.94, -1001029.4, 50851.645, 0.067364216, 0.03297542, -929236.94, -8584.046, 0.0, 9.999985, 9.9995165 
1.3750172e+3, 2.1605425e+2, -935631.0, -926639.44, -3954.3298, 0.09922526, -0.11002892, -925147.8, -102478.1, 0.0, 9.999478, 9.999597 
1.374998e+3, 2.2605406e+2, -803961.2, -897614.7, -51080.363, 0.029113363, -0.04249988, -781491.8, -56818.523, 0.0, 10.000075, 9.998836 
1.3749777e+3, 2.360549e+2, -501146.28, -684747.8, -40728.844, -0.108453594, 0.14128622, -492516.88, 134151.27, 0.0, 10.001416, 9.998977 
1.3749605e+3, 2.4605346e+2, -393440.06, -607441.7, -1925.8605, 0.008666696, 0.114513, -393422.75, 135257.88, 0.0, 10.001581, 9.99876 
1.3749455e+3, 2.5605044e+2, -378831.53, -542840.3, 35397.918, 0.2963497, -0.08438791, -371517.75, 59187.484, 0.0, 10.000983, 9.9988165 
1.3749275e+3, 2.6604855e+2, -280374.94, -577286.4, 62958.543, 0.23846169, -0.08507947, -267576.56, 65146.67, 0.000000022673568, 10.001559, 9.997631 
1.3749076e+3, 2.7604735e+2, 26088.02, -355811.38, 31499.557, -0.05409881, 0.014459393, 28668.705, 263406.25, 0.0000059199137, 10.002898, 9.997831 
1.3748899e+3, 2.8604552e+2, 67283.78, -262036.13, -63526.61, 0.00034859224, 0.040417146, 79113.29, 215868.11, 0.00007240238, 10.002398, 9.998046 
1.3748738e+3, 2.960433e+2, -87370.4, -280347.47, -53205.727, 0.300147, -0.00909323, -73673.24, -34899.246, 0.00031832908, 10.000631, 9.998102 
1.3748571e+3, 3.0604142e+2, 42429.188, -286324.75, 80953.47, 0.31672725, 0.043479826, 61282.27, 61282.27, 0.0008297466, 10.001605, 9.997253 
1.3748366e+3, 3.1603745e+2, 524645.2, 87407.01, 104513.42, -0.168972, -0.09761533, 548342.75, 548342.75, 0.0015628281, 10.004293, 9.998529 
1.3851753e+3, 1.2606533e+2, -2041978.5, -1698625.8, 193911.28, -0.18228802, -0.051969763, -1611315.0, 93250.76, 0.008351057, 9.996984, 10.001568 
1.3851582e+3, 1.3606952e+2, -1953745.3, -1553219.1, 44477.34, -0.15235716, 0.17238078, -1548339.5, 58187.58, 0.004803759, 9.996708, 10.002025 
1.3851431e+3, 1.4607093e+2, -1880932.0, -1646675.8, -5541.8506, 0.1540678, 0.19044237, -1646544.8, -138028.42, 0.0019753822, 9.997303, 10.000418 
1.3851216e+3, 1.560709e+2, -1600020.9, -1447568.5, -22651.969, -0.12330578, 0.14224413, -1444274.0, -33754.39, 0.00045665295, 9.998505, 10.000531 
1.3851035e+3, 1.6607177e+2, -1410457.8, -1208107.6, 2052.5657, -0.11057746, 0.13420306, -1208086.8, 104424.09, 0.00003186285, 9.998713, 10.001399 
1.3850878e+3, 1.7607325e+2, -1358027.4, -1121486.3, 236.27734, 0.122155115, 0.12304927, -1121486.0, 93007.95, 0.000000039188958, 9.998359, 10.001489 
1.3850711e+3, 1.8607451e+2, -1229686.1, -1102686.3, 19888.695, 0.18238531, 0.14622328, -1099644.5, 16833.537, 0.0, 9.998959, 10.000661 
1.3850535e+3, 1.9607557e+2, -951611.25, -921126.3, -25848.74, 0.11046171, 0.1710742, -906360.6, 112102.266, 0.0, 10.000213, 10.0006275 
1.385035e+3, 2.0607448e+2, -941308.44, -1067020.6, -92398.695, 0.052149303, 0.09995452, -892413.0, 28060.266, 0.0, 10.000482, 9.998824 
1.3850161e+3, 2.1607184e+2, -878736.0, -966061.8, -87554.53, 0.0123416595, -0.06543281, -824561.06, -2059.7751, 0.0, 10.00015, 9.999005 
1.3849978e+3, 2.2607115e+2, -723813.75, -840233.7, -44701.42, -0.00037159276, -0.03310868, -708630.1, 15879.676, 0.0, 10.000537, 9.999015 
1.3849802e+3, 2.3607172e+2, -484116.03, -656095.56, -41873.246, 0.00211396, 0.10696862, -474462.66, 152042.83, 0.0, 10.001435, 9.999171 
1.384963e+3, 2.4607079e+2, -347284.78, -546188.25, -56794.74, 0.09540736, 0.10541268, -332210.13, 196301.75, 0.0, 10.001742, 9.999095 
1.3849461e+3, 2.5606886e+2, -251113.97, -447522.97, -57077.68, 0.24385168, -0.018632159, -235731.56, 194794.08, 0.0, 10.001723, 9.99911 
1.3849288e+3, 2.660671e+2, -245897.9, -564261.94, 34415.887, 0.20737429, -0.020539964, -242219.95, 90322.87, 0.0000000049794013, 10.001817, 9.997593 
1.384911e+3, 2.7606532e+2, -103555.0, -426499.25, 41782.164, 0.045343872, 0.02264356, -98236.85, 136326.58, 0.0000059839426, 10.002039, 9.997758 
1.3848935e+3, 2.860632e+2, 71651.45, -317957.4, -75237.67, 0.11641954, 0.053233013, 85675.836, 222260.19, 0.00006977794, 10.002686, 9.997522 
1.3848764e+3, 2.9606095e+2, 329292.2, -116935.02, -92672.59, 0.34610844, 0.053528056, 347773.03, 386377.75, 0.00029839875, 10.003675, 9.997746 
1.3848597e+3, 3.0605876e+2, 402405.03, -81994.195, 67446.02, 0.30559584, 0.07539748, 411620.66, 411620.66, 0.00077244354, 10.003949, 9.997526 
1.38484e+3, 3.1605366e+2, 439292.2, 40812.242, 15402.42, -0.21714003, -0.20933867, 439886.66, 439886.66, 0.0014546064, 10.003721, 9.998485 
1.3951738e+3, 1.2608525e+2, -2062212.5, -1732809.5, 97160.58, -0.046672545, -0.0019511344, -1706286.6, -1918.4526, 0.008733579, 9.996953, 10.001343 
1.3951536e+3, 1.360884e+2, -1995359.8, -1648276.4, 41393.465, -0.2832963, 0.18257499, -1643408.1, -37067.61, 0.005033633, 9.996747, 10.001351 
1.395141e+3, 1.4608856e+2, -1890751.3, -1679297.3, 31273.303, 0.2067599, 0.122443154, -1674769.0, -166426.81, 0.002076125, 9.997353, 10.000172 
1.3951235e+3, 1.5608862e+2, -1618197.9, -1482040.1, 20436.012, 0.20250703, 0.10731359, -1479039.0, -68693.98, 0.00048381835, 9.998493, 10.000298 
1.3951044e+3, 1.6608961e+2, -1412015.8, -1217808.5, -18039.725, 0.106883354, 0.12508021, -1216147.0, 96186.57, 0.000034571214, 9.9987335, 10.001327 
1.395085e+3, 1.7609121e+2, -1366593.9, -1145629.9, -4556.0884, -0.004537302, 0.13356996, -1145536.0, 68776.836, 0.00000005013657, 9.998381, 10.001316 
1.395068e+3, 1.8609136e+2, -1289795.8, -1232759.5, 60970.832, -0.039276533, 0.10811262, -1193967.0, -77656.96, 0.0, 9.998982, 9.999755 
1.3950524e+3, 1.960905e+2, -1009750.9, -1039062.5, 16936.287, -0.036985915, 0.026797889, -1002009.56, 16310.373, 0.0, 10.000198, 9.9998255 
1.3950345e+3, 2.0609057e+2, -933244.1, -1044839.25, -110160.52, -0.06794931, 0.100320145, -865556.0, 54766.24, 0.0, 10.000458, 9.998987 
1.395015e+3, 2.1609126e+2, -873828.9, -946367.2, -91900.32, -0.11273742, 0.25340152, -811299.7, 11019.976, 0.0, 10.00011, 9.99916 
1.3949986e+3, 2.2608986e+2, -711598.2, -805957.9, -15674.476, 0.0026997738, 0.19425008, -709062.56, 15270.686, 0.0, 10.000494, 9.999271 
1.3949838e+3, 2.3608704e+2, -474997.63, -624813.2, -7159.315, 0.22439378, -0.035348468, -474656.28, 151701.63, 0.0, 10.001381, 9.999411 
1.3949656e+3, 2.4608646e+2, -360320.34, -564169.94, -62240.43, 0.16528651, -0.008429972, -342819.28, 185541.42, 0.0, 10.001698, 9.998997 
1.3949446e+3, 2.5608733e+2, -262781.72, -457816.97, -51419.49, -0.07904603, 0.16085841, -250055.73, 180293.7, 0.0, 10.001665, 9.999067 
1.3949284e+3, 2.660861e+2, -205050.28, -470266.0, 39249.32, -0.02963891, 0.17790419, -199363.69, 132997.03, 0.0000000011462398, 10.001773, 9.998261 
1.394915e+3, 2.7608335e+2, -79159.13, -358132.78, 59867.563, 0.21844359, 0.05691968, -66854.33, 167533.36, 0.000005942459, 10.001961, 9.998267 
1.3948978e+3, 2.8608048e+2, 7172.2285, -441482.25, -40783.95, 0.25677362, 0.03310521, 10849.465, 147264.78, 0.00006702102, 10.002638, 9.9966955 
1.3948783e+3, 2.9607746e+2, 268556.13, -239196.61, -50803.91, 0.15518087, 0.038566306, 273589.5, 312033.34, 0.00027987466, 10.003654, 9.996921 
1.3948622e+3, 3.060745e+2, 373689.25, -138333.94, 55467.086, 0.1569646, 0.041763872, 379629.06, 379629.06, 0.0007224766, 10.003938, 9.997143 
1.3948454e+3, 3.1606844e+2, 355414.6, -95440.336, 18270.125, -0.04797353, -0.29314488, 356153.75, 356153.75, 0.0013611753, 10.003557, 9.997631 
1.405171e+3, 1.2610386e+2, -2283693.5, -1829359.9, -34792.727, 0.066145785, 0.088271156, -1826710.9, -122523.58, 0.009133226, 9.995385, 10.001434 
1.4051509e+3, 1.36105e+2, -1795397.9, -1590203.9, -9413.72, -0.29644388, 0.10660466, -1589773.0, 16404.219, 0.005275387, 9.998275, 10.001016 
1.405139e+3, 1.461051e+2, -1670179.6, -1542218.5, -32664.945, 0.20817992, 0.0416935, -1534362.4, -26184.268, 0.0021822979, 9.998736, 10.00044 
1.4051217e+3, 1.5610637e+2, -1758722.5, -1529901.6, -13453.022, 0.24473774, 0.119627886, -1529113.5, -118945.05, 0.00051218417, 9.997442, 10.000476 
1.405103e+3, 1.6610692e+2, -1566696.9, -1361799.6, -21700.514, 0.13370614, 0.11997807, -1359526.6, -47365.21, 0.000037386584, 9.997975, 10.000702 
1.405084e+3, 1.7610697e+2, -1188706.0, -1120948.6, -60657.344, -0.017437078, 0.033756305, -1085350.1, 128806.3, 0.00000006103049, 9.999861, 10.000774 
1.4050673e+3, 1.8610695e+2, -1162782.3, -1171112.9, 14850.745, -0.04764399, 0.012707359, -1151523.8, -35366.598, 0.0, 9.999859, 9.999755 
1.405052e+3, 1.9610682e+2, -1222601.9, -1134560.8, 32093.805, -0.021616252, 0.006274981, -1124103.6, -105941.68, 0.0, 9.998714, 9.999884 
1.4050345e+3, 2.0610756e+2, -1051556.4, -1067110.6, -26178.385, -0.04502616, 0.12524842, -1032024.25, -111865.59, 0.0, 9.999498, 9.999299 
1.405016e+3, 2.1610883e+2, -640239.8, -798705.44, -8488.848, -0.09150077, 0.30466336, -639786.4, 182364.0, 0.0, 10.00157, 9.999469 
1.4049995e+3, 2.2610772e+2, -592583.75, -732570.2, 30552.066, 0.025465073, 0.25509644, -586206.3, 137953.89, 0.0, 10.001259, 9.999397 
1.4049844e+3, 2.3610498e+2, -749922.75, -743810.94, 25963.305, 0.24339283, 0.021864804, -720724.3, -94541.59, 0.0, 9.999442, 9.999523 
1.4049666e+3, 2.4610396e+2, -552549.94, -665135.94, 37318.98, 0.16565457, 0.0041753245, -541303.25, -13114.338, 0.0, 10.000413, 9.998921 
1.4049467e+3, 2.5610405e+2, -40626.46, -362053.6, 31742.947, -0.11341493, 0.10217048, -37521.637, 392663.2, 0.0, 10.003236, 9.99897 
1.4049308e+3, 2.6610276e+2, 36716.492, -393074.75, 23075.822, -0.049369164, 0.13786379, 37951.9, 370149.75, 0.0000000047036606, 10.003606, 9.997908 
1.4049172e+3, 2.7610055e+2, -29996.04, -366603.4, -40219.773, 0.24091375, 0.10730562, -25257.068, 208964.83, 0.0000060153247, 10.0024395, 9.997978 
1.4049003e+3, 2.860976e+2, 62181.715, -405764.88, -56222.18, 0.22500512, 0.081374474, 68841.83, 205092.78, 0.000064346226, 10.00298, 9.996773 
1.4048809e+3, 2.9609397e+2, 420681.94, -154031.84, -16478.268, 0.0066590584, 0.017564144, 421154.0, 459438.7, 0.0002689041, 10.004647, 9.997027 
1.4048654e+3, 3.060914e+2, 408074.88, -103106.95, 69691.164, 0.078136906, 0.048543606, 417405.78, 417405.78, 0.0006960124, 10.004085, 9.997326 
1.4048497e+3, 3.1608707e+2, 127701.484, -221731.69, 56900.184, 0.09434542, -0.1324663, 136733.4, 136733.4, 0.0013118144, 10.002071, 9.997475 
1.4151667e+3, 1.2612161e+2, -2243918.5, -1760215.1, -22357.234, 0.07642677, 0.23451655, -1759183.9, -55166.008, 0.009556688, 9.995442, 10.00188 
1.4151499e+3, 1.3611956e+2, -1809803.5, -1602776.6, 93442.9, -0.22993603, -0.056260463, -1566838.9, 39195.83, 0.0055341963, 9.998214, 10.000952 
1.4151369e+3, 1.4612073e+2, -1613650.8, -1434117.4, -86622.21, 0.11678606, -0.051837415, -1399138.5, 108884.21, 0.0022969088, 9.998761, 10.00118 
1.4151166e+3, 1.561243e+2, -1714516.9, -1447497.3, -48087.94, -0.021389619, 0.1829023, -1439101.0, -29112.38, 0.0005425403, 9.9974785, 10.001026 
1.415099e+3, 1.6612387e+2, -1640471.8, -1525190.4, 43210.984, -0.060758717, 0.12502475, -1510791.9, -198799.1, 0.000040406845, 9.998019, 9.99956 
1.4150845e+3, 1.7612071e+2, -1256383.6, -1253943.5, 2546.1003, 0.04657916, -0.16992676, -1252340.3, -38317.19, 0.00000007226826, 9.999832, 9.999874 
1.4150688e+3, 1.8612139e+2, -1099709.5, -1043746.56, -33517.668, 0.1109096, -0.13028356, -1028065.75, 87951.92, 0.0, 9.999867, 10.0006275 
1.4150521e+3, 1.9612457e+2, -1166235.8, -1018007.4, 5235.833, 0.11480655, 0.1087289, -1017822.6, 166.36517, 0.0, 9.9987135, 10.000686 
1.4150356e+3, 2.0612538e+2, -1017954.2, -996369.3, 46094.69, 0.0836413, 0.17359413, -959820.5, -39837.293, 0.0, 9.999491, 9.999788 
1.415019e+3, 2.1612455e+2, -617996.25, -739382.9, 57363.5, 0.047639307, 0.09208691, -595177.56, 226815.55, 0.0, 10.00151, 9.999907 
1.415001e+3, 2.2612473e+2, -603019.8, -739150.0, -44132.414, 0.029191813, 0.15309826, -589964.44, 134025.98, 0.0, 10.001192, 9.999385 
1.4149816e+3, 2.3612559e+2, -763214.1, -754763.1, -18637.62, 0.01861296, 0.2824696, -739878.0, -113898.38, 0.0, 9.999375, 9.999478 
1.414966e+3, 2.4612333e+2, -560631.8, -676237.4, 141870.7, 0.049817275, 0.14530498, -465240.4, 62756.04, 0.0, 10.0003805, 9.998864 
1.4149524e+3, 2.5611895e+2, -59283.34, -393792.38, 128522.02, 0.11143562, -0.19681965, -15606.627, 414425.25, 0.0, 10.0032015, 9.998771 
1.414936e+3, 2.6611707e+2, -68538.98, -604707.3, -24826.62, 0.10824482, -0.13230452, -67391.86, 264662.22, 0.000000079284355, 10.003572, 9.996471 
1.414918e+3, 2.7611676e+2, -120452.42, -543663.9, -65712.1, 0.06537805, 0.16831063, -110484.086, 123583.63, 0.0000071917057, 10.002391, 9.996787 
1.4149007e+3, 2.8611434e+2, 132466.1, -252479.81, 5853.958, -0.02569908, 0.19281171, 132555.1, 268648.28, 0.000065903274, 10.002944, 9.997845 
1.4148842e+3, 2.9611042e+2, 484381.66, -13105.099, 42487.78, -0.13603222, -0.006009463, 487984.25, 526111.9, 0.0002735358, 10.0046015, 9.998023 
1.4148688e+3, 3.061096e+2, 449684.9, 3253.8975, -8213.543, 0.020697774, 0.114695564, 449835.97, 449835.97, 0.00070340955, 10.004009, 9.998083 
1.414852e+3, 3.1610966e+2, 122066.16, -195451.02, -1521.405, 0.11576097, 0.29022083, 122073.445, 122073.445, 0.0013185545, 10.001916, 9.997725 
1.4251637e+3, 1.2613754e+2, -1774419.9, -1481923.8, -65737.92, 0.10045816, 0.2120207, -1467828.6, 236035.78, 0.010011913, 9.998426, 10.002372 
1.4251481e+3, 1.3613608e+2, -2025468.4, -1658881.1, 143598.23, -0.1409057, -0.06718822, -1609329.3, -3456.0842, 0.0058154534, 9.9965315, 10.001378 
1.4251345e+3, 1.4613792e+2, -1848639.6, -1545188.6, -38530.73, 0.084708184, -0.011613251, -1540372.6, -32519.316, 0.002423067, 9.997158, 10.001182 
1.4251146e+3, 1.5614071e+2, -1438370.9, -1310850.1, -68062.35, -0.052616574, 0.1411042, -1281348.1, 128478.2, 0.00057589856, 9.999356, 10.00106 
1.4250979e+3, 1.6614048e+2, -1440580.6, -1419141.5, 59786.793, -0.0514988, 0.09701295, -1369120.9, -57291.164, 0.00004378684, 9.999352, 9.99964 
1.425084e+3, 1.7613834e+2, -1500553.8, -1358326.5, 99265.93, 0.106064215, -0.106674865, -1307330.0, -93477.64, 0.00000008454083, 9.998102, 9.999987 
1.4250687e+3, 1.8613942e+2, -1269897.0, -1101140.4, 77126.375, 0.16794026, -0.042298675, -1071202.6, 44640.69, 0.0, 9.998605, 10.000838 
1.4250517e+3, 1.9614261e+2, -920400.5, -875563.7, 60954.523, 0.13833983, 0.17456481, -833035.7, 184777.97, 0.0, 10.000302, 10.000895 
1.4250356e+3, 2.0614308e+2, -905234.5, -931945.8, 80112.984, 0.10441135, 0.19259992, -837371.56, 82438.04, 0.0, 10.00022, 9.999878 
1.4250195e+3, 2.1614175e+2, -973729.4, -902220.94, 50178.348, 0.07832448, 0.050735556, -876361.6, -54538.906, 0.0, 9.999025, 9.999983 
1.4250018e+3, 2.2614159e+2, -770593.9, -841868.94, -63561.246, 0.040672272, 0.08380375, -733361.2, -9538.573, 0.0, 10.000129, 9.999194 
1.4249824e+3, 2.3614222e+2, -286563.1, -547622.4, -58162.04, -0.012692595, 0.20824215, -274191.34, 351622.66, 0.0, 10.002736, 9.999286 
1.4249675e+3, 2.4614006e+2, -227248.69, -551029.1, 105513.086, 0.04555066, 0.11071224, -195899.55, 331931.78, 0.0, 10.002835, 9.998539 
1.4249551e+3, 2.561361e+2, -337033.66, -554060.5, 58835.99, 0.1713936, -0.16453525, -322109.5, 107756.59, 0.00000000006254562, 10.001413, 9.998528 
1.4249389e+3, 2.6613417e+2, -322571.7, -705076.06, -37531.785, 0.12239683, -0.09828914, -318923.8, 12964.902, 0.00000036239143, 10.001734, 9.996666 
1.4249197e+3, 2.7613372e+2, 11924.778, -451440.22, 37569.945, -0.04001256, 0.16414234, 14951.208, 248854.45, 0.000010031926, 10.00318, 9.997035 
1.424903e+3, 2.861317e+2, 145649.03, -202542.89, 137959.34, -0.099459246, 0.1968184, 193684.08, 329608.28, 0.00007404044, 10.002845, 9.9982395 
1.4248876e+3, 2.9612863e+2, 55053.62, -170048.69, 109315.54, -0.085317895, 0.041577365, 99402.59, 137352.66, 0.00029423018, 10.001443, 9.998462 
1.4248723e+3, 3.0612788e+2, 230560.33, -57110.676, 34673.016, 0.048116174, 0.12217334, 234680.45, 234680.45, 0.00074220623, 10.002293, 9.998497 
1.4248545e+3, 3.161287e+2, 514601.78, 20099.604, -454.06668, 0.051076517, 0.3357588, 514602.22, 514602.22, 0.0013785001, 10.004486, 9.997972 
1.435162e+3, 1.2615193e+2, -1745289.0, -1412566.4, -174768.7, 0.045515098, 0.043918453, -1337639.1, 366084.56, 0.010506618, 9.998383, 10.002878 
1.4351454e+3, 1.3615474e+2, -1963759.5, -1530373.3, 94243.195, -0.065371096, 0.083524235, -1510766.4, 94924.29, 0.006123269, 9.996534, 10.002258 
1.4351316e+3, 1.4615688e+2, -1886012.5, -1642652.3, 40436.758, 0.062254135, 0.16725673, -1636109.1, -128440.84, 0.002563054, 9.997232, 10.000483 
1.4351158e+3, 1.5615574e+2, -1475003.8, -1378422.5, 3862.3005, 0.10941241, -0.0052835783, -1378268.3, 31412.11, 0.0006133788, 9.999322, 10.000613 
1.435099e+3, 1.6615695e+2, -1351355.1, -1236159.3, 6326.9277, 0.11091194, 0.043272622, -1235812.8, 75857.65, 0.000047750204, 9.999354, 10.0009 
1.4350824e+3, 1.7615984e+2, -1426609.5, -1208356.6, 67088.49, 0.12302117, 0.22334072, -1189383.6, 24260.838, 0.00000010052836, 9.998113, 10.001015 
1.4350665e+3, 1.86161e+2, -1295388.8, -1159461.1, 134679.11, 0.09123275, 0.27318925, -1076568.9, 39065.65, 0.0, 9.998626, 10.000429 
1.435051e+3, 1.961609e+2, -950609.94, -934460.2, 116237.98, 0.017575681, 0.20133513, -826016.94, 191619.08, 0.0, 10.000285, 10.000501 
1.4350346e+3, 2.0616072e+2, -928490.56, -975862.1, 28208.807, -0.026927043, 0.18709303, -915342.2, 4295.019, 0.0, 10.000198, 9.999587 
1.4350174e+3, 2.1616045e+2, -1004179.0, -955676.0, 24840.666, -0.041889038, 0.18270914, -945211.56, -123572.85, 0.0, 9.998981, 9.999639 
1.4350016e+3, 2.2615823e+2, -805733.5, -899592.9, 30911.443, 0.01726027, 0.047939662, -796467.9, -72810.88, 0.0, 10.000066, 9.998827 
1.4349866e+3, 2.3615482e+2, -323535.2, -608041.44, 28240.701, 0.12024553, -0.19557044, -320759.06, 304926.8, 0.0, 10.002669, 9.998902 
1.4349711e+3, 2.4615422e+2, -275591.44, -641183.2, 44258.96, 0.106738456, -0.09058204, -270309.72, 257383.8, 0.0, 10.002785, 9.997947 
1.4349551e+3, 2.5615534e+2, -368897.72, -607069.94, 20378.287, 0.023186391, 0.20560701, -367166.7, 62521.277, 0.000000006122379, 10.001354, 9.998194 
1.4349389e+3, 2.6615414e+2, -193681.2, -425821.22, 15461.553, -0.04637872, 0.24560708, -192655.92, 139046.08, 0.0000008787704, 10.00168, 9.998611 
1.4349222e+3, 2.7615145e+2, 123241.375, -211662.81, 88630.61, -0.10917596, 0.09761802, 145250.6, 378978.84, 0.000014099222, 10.0031395, 9.998706 
1.4349064e+3, 2.861497e+2, 116331.914, -250359.34, 80290.19, -0.042158842, 0.10067251, 133141.56, 268885.06, 0.00008672284, 10.002788, 9.997937 
1.4348912e+3, 2.961484e+2, 21204.215, -223597.03, 80716.71, 0.11749453, 0.15004922, 45422.484, 83176.17, 0.0003265314, 10.001362, 9.998137 
1.4348754e+3, 3.0614582e+2, 230557.34, -34564.563, 120118.17, 0.11504307, 0.05592647, 276884.0, 276884.0, 0.0008091992, 10.002209, 9.998688 
1.4348571e+3, 3.1614408e+2, 517402.2, 49202.484, 98432.91, -0.17414024, -0.0047931788, 537254.6, 537254.6, 0.0014919054, 10.004392, 9.998219 
1.4451596e+3, 1.2616868e+2, -2085749.6, -1702987.8, -89988.164, 0.07256275, 0.026323555, -1682886.9, 20669.887, 0.011047917, 9.9966, 10.001721 
1.4451434e+3, 1.361716e+2, -1722132.8, -1464116.0, 38719.36, -0.01313172, 0.1327664, -1458430.9, 147096.9, 0.00646129, 9.998392, 10.001824 
1.4451285e+3, 1.4617375e+2, -1706178.9, -1487915.3, 19337.045, -0.026807085, 0.20441297, -1486215.3, 21290.125, 0.0027186894, 9.998186, 10.001077 
1.4451142e+3, 1.5617271e+2, -1768400.3, -1457618.6, 62628.414, 0.14230314, -0.018180123, -1445472.5, -35958.85, 0.0006559602, 9.997047, 10.00116 
1.4450979e+3, 1.6617411e+2, -1635285.6, -1367772.0, 43555.29, 0.16687898, 0.023078192, -1360859.1, -49358.402, 0.000052490832, 9.997396, 10.000934 
1.4450806e+3, 1.7617732e+2, -1329736.4, -1161338.6, 10368.713, 0.10819143, 0.23057519, -1160702.6, 52769.367, 0.00000012546444, 9.998781, 10.001013 
1.445065e+3, 1.8617828e+2, -1237135.1, -1168977.4, 79366.93, 0.04028538, 0.2790555, -1116682.1, -1217.5703, 0.0, 9.999178, 10.000101 
1.44505e+3, 1.9617769e+2, -1158962.1, -1065969.1, 55657.555, -0.044626046, 0.18773459, -1039941.9, -22470.14, 0.0, 9.998981, 10.000227 
1.4450343e+3, 2.0617732e+2, -996110.4, -1014121.44, -32823.645, -0.047406115, 0.16952789, -971079.3, -51604.11, 0.0, 9.999769, 9.999528 
1.445018e+3, 2.1617708e+2, -679276.1, -798549.75, -22962.38, 0.009248563, 0.17505975, -675008.1, 146468.23, 0.0, 10.001222, 9.999633 
1.445003e+3, 2.2617516e+2, -595642.1, -773323.3, 58154.797, 0.079471186, 0.05567317, -578300.6, 145191.0, 0.0, 10.0014, 9.999051 
1.4449885e+3, 2.3617215e+2, -586665.2, -710283.06, 83579.945, 0.15246697, -0.17137313, -544522.44, 80993.664, 0.0, 10.000752, 9.999123 
1.4449729e+3, 2.4617182e+2, -581885.0, -775949.0, 105323.234, 0.124545984, -0.054229394, -535710.2, -8188.877, 0.0, 10.000626, 9.99806 
1.4449564e+3, 2.5617313e+2, -426745.22, -619403.56, 132173.94, 0.029270343, 0.2522416, -359522.38, 69992.33, 0.000000012932129, 10.000881, 9.9983425 
1.4449404e+3, 2.6617196e+2, -240698.66, -403818.8, 136531.77, -0.031235049, 0.26875195, -163221.11, 168306.08, 0.0000016431604, 10.001162, 9.999012 
1.4449249e+3, 2.761693e+2, -89771.37, -276682.38, 79956.63, -0.07014821, 0.07974421, -60235.023, 173316.06, 0.000019264668, 10.001513, 9.999041 
1.4449097e+3, 2.861674e+2, 89427.195, -299284.3, 11724.906, 0.00489385, 0.07128521, 89780.54, 225347.77, 0.0001032448, 10.00276, 9.99761 
1.4448945e+3, 2.9616582e+2, 458375.13, -45103.87, 4172.8267, 0.15982364, 0.12542874, 458409.7, 495990.3, 0.00037109887, 10.004518, 9.997834 
1.4448786e+3, 3.0616236e+2, 527313.0, 69884.04, 44200.89, 0.1171004, -0.026971495, 531544.94, 531544.94, 0.00090732204, 10.004412, 9.998355 
1.4448605e+3, 3.1616053e+2, 334419.56, -37274.758, -32851.38, -0.19866647, -0.06760149, 337300.72, 337300.72, 0.001663997, 10.003134, 9.998227 
1.4551568e+3, 1.2618756e+2, -2262960.3, -2096565.0, 13089.216, 0.10999794, 0.124712534, -2095541.6, -392175.66, 0.011640448, 9.996713, 9.998965 
1.4551419e+3, 1.3618688e+2, -1847780.4, -1709099.3, 95463.86, -0.0060160784, 0.08676998, -1660450.5, -55068.633, 0.0068325973, 9.998331, 10.000165 
1.4551248e+3, 1.461888e+2, -1584762.4, -1233687.3, -31128.348, -0.21921292, 0.108387664, -1230948.6, 276413.53, 0.0028915813, 9.998167, 10.002838 
1.4551099e+3, 1.5619175e+2, -1666033.3, -1247749.8, 32840.516, 0.004257914, 0.10795148, -1245187.1, 164138.17, 0.00070428615, 9.997061, 10.002593 
1.4550945e+3, 1.6619213e+2, -1703513.9, -1526293.8, 89111.99, 0.07301446, 0.043399412, -1489234.9, -177915.06, 0.000058062662, 9.997461, 9.999819 
1.4550787e+3, 1.7619084e+2, -1400451.9, -1311151.5, 60421.266, 0.032092087, -0.08492047, -1280672.6, -67338.48, 0.00000016567238, 9.998789, 9.999984 
1.4550635e+3, 1.861914e+2, -1252663.4, -1201628.8, 66412.25, -0.025794271, -0.019213427, -1156000.3, -40668.23, 0.0, 9.999181, 9.999875 
1.4550486e+3, 1.9619307e+2, -1175512.9, -1097814.3, 58124.17, -0.09054394, 0.14191061, -1066751.5, -49431.836, 0.0, 9.998972, 10.000013 
1.4550346e+3, 2.061929e+2, -987243.06, -990994.3, 16486.99, 0.00051498757, 0.14522319, -972525.3, -53202.223, 0.0, 9.999747, 9.999699 
1.455021e+3, 2.1619159e+2, -666139.06, -761829.7, 26783.844, 0.19328819, 0.02252648, -659152.4, 162183.9, 0.0, 10.001179, 9.9999075 
1.4550056e+3, 2.261923e+2, -543528.4, -652006.06, 28813.264, 0.18258129, 0.10424978, -536350.1, 186976.97, 0.0, 10.001344, 9.999912 
1.4549883e+3, 2.3619422e+2, -539943.3, -595626.56, 68276.766, 0.042260446, 0.28954735, -494049.78, 131254.23, 0.0, 10.000682, 9.999944 
1.4549729e+3, 2.4619286e+2, -530851.8, -658483.06, 111710.99, 0.054041367, 0.22146282, -466013.75, 61300.91, 0.0, 10.000572, 9.998893 
1.4549586e+3, 2.561894e+2, -392019.22, -535814.56, 148576.19, 0.1578329, -0.036394484, -298858.84, 130488.02, 0.000000017460069, 10.000832, 9.9989395 
1.4549434e+3, 2.661877e+2, -332836.25, -581153.75, 147452.5, 0.12874185, -0.033468015, -264231.84, 67132.79, 0.000002726617, 10.0011, 9.997825 
1.4549275e+3, 2.7618712e+2, -175068.33, -439156.34, 106131.66, 0.02807449, 0.10650083, -137702.92, 95670.19, 0.000025068905, 10.00145, 9.997954 
1.4549124e+3, 2.861847e+2, 62457.35, -342861.56, 77830.85, -0.0064250366, 0.10441322, 76888.88, 212285.81, 0.00012308941, 10.002706, 9.997337 
1.4548975e+3, 2.9618087e+2, 431885.25, -101722.51, 65679.84, -0.00010076907, -0.03606195, 439850.66, 477282.88, 0.0004267935, 10.004515, 9.997452 
1.454882e+3, 3.061774e+2, 459060.4, -59485.313, -9205.954, 0.012642671, -0.11946489, 459223.78, 459223.78, 0.0010335945, 10.004364, 9.997484 
1.4548647e+3, 3.1617805e+2, 286995.97, -111278.336, -61719.71, -0.098429345, 0.16716833, 296341.25, 296341.25, 0.0018913441, 10.003026, 9.99777 
1.4651544e+3, 1.2620446e+2, -1771263.3, -1840210.8, -33217.19, 0.037427083, 0.11582047, -1757864.1, -54664.664, 0.012283002, 10.000006, 9.999136 
1.4651398e+3, 1.3620389e+2, -2258818.0, -1903928.0, 136047.63, 0.09357795, 0.07842801, -1857775.9, -252563.33, 0.00723705, 9.995503, 10.000191 
1.4651215e+3, 1.4620474e+2, -2015038.3, -1488482.8, 76497.12, -0.21206893, 0.020474512, -1477594.6, 29609.35, 0.0030819494, 9.995427, 10.002404 
1.4651072e+3, 1.562081e+2, -1440330.1, -1177433.8, -28200.469, -0.06260897, 0.10041735, -1174442.8, 234723.03, 0.0007585455, 9.998764, 10.002262 
1.4650925e+3, 1.6620885e+2, -1384686.4, -1342425.8, 4036.353, 0.02129257, 0.07372843, -1342043.8, -30887.11, 0.00006440502, 9.999524, 10.000085 
1.4650774e+3, 1.7620775e+2, -1402378.1, -1291224.6, 65761.41, 0.027245313, -0.063155845, -1260700.6, -47533.008, 0.00000022299002, 9.998693, 10.000162 
1.4650628e+3, 1.8620764e+2, -1350483.3, -1298627.4, 110155.51, 0.017135393, -0.044814944, -1211389.5, -96217.87, 0.0, 9.998735, 9.999418 
1.4650486e+3, 1.9620825e+2, -1144009.5, -1119100.5, 79254.48, 0.0068775904, 0.05421449, -1051327.9, -34157.68, 0.0, 9.999353, 9.999679 
1.465035e+3, 2.0620853e+2, -1005880.56, -952303.6, 67047.3, 0.0852184, 0.092524976, -906891.25, 12278.129, 0.0, 9.999408, 10.000131 
1.4650215e+3, 2.1620856e+2, -931093.5, -844068.3, 86203.516, 0.21353826, 0.061651997, -791018.0, 30151.115, 0.0, 9.999159, 10.000321 
1.465006e+3, 2.2620958e+2, -729969.9, -720198.75, 66194.9, 0.17002697, 0.14623904, -658709.4, 64447.266, 0.0, 9.99997, 10.000107 
1.464989e+3, 2.3621117e+2, -408203.22, -512217.28, 45818.8, 0.01916605, 0.27736568, -390898.7, 234238.05, 0.0, 10.001495, 10.000127 
1.4649738e+3, 2.4620952e+2, -310409.38, -553179.4, 31744.658, 0.02952694, 0.17327239, -306327.06, 220822.52, 0.0, 10.0021, 9.998878 
1.4649598e+3, 2.562058e+2, -197684.4, -446554.4, -3658.5454, 0.13597946, -0.10603457, -197630.64, 231552.61, 0.000000044837254, 10.0021925, 9.998892 
1.4649451e+3, 2.6620403e+2, -168081.22, -549452.06, 17901.164, 0.13294391, -0.08453476, -167242.8, 163959.1, 0.0000038968087, 10.002439, 9.997399 
1.4649299e+3, 2.762035e+2, -8995.917, -401286.3, 26517.78, 0.0638675, 0.10097034, -7211.5034, 225999.48, 0.000030358568, 10.002768, 9.997584 
1.4649151e+3, 2.862011e+2, 33882.367, -353828.47, 52526.64, 0.01909446, 0.116309784, 40872.59, 176108.34, 0.00014179094, 10.002498, 9.997366 
1.4649007e+3, 2.961974e+2, 50031.3, -289086.16, 46564.81, -0.011403512, -0.011130945, 56308.984, 93580.02, 0.00048334265, 10.001914, 9.997415 
1.4648856e+3, 3.061938e+2, 227236.7, -230819.38, 1844.8203, 0.008161134, -0.079867505, 227244.13, 227244.13, 0.0011703909, 10.003021, 9.996948 
1.4648694e+3, 3.1619424e+2, 589082.75, 23711.178, -32379.102, -0.03824032, 0.23938373, 590931.1, 590931.1, 0.0021459658, 10.005149, 9.997676 
1.4751525e+3, 1.2621966e+2, -1559420.9, -1393905.6, -129319.43, -0.18531314, 0.011030462, -1323130.4, 379923.8, 0.012969953, 9.999981, 10.002234 
1.4751367e+3, 1.3622278e+2, -2141524.5, -1673495.0, -8534.121, 0.2264868, 0.12241382, -1673339.4, -68321.305, 0.0076708426, 9.995558, 10.001746 
1.4751185e+3, 1.4622158e+2, -2179108.5, -1849560.5, 191790.63, -0.0707596, -0.06290116, -1761482.6, -254451.42, 0.0032881629, 9.995513, 9.999888 
1.4751057e+3, 1.562219e+2, -1587681.0, -1472381.3, 85456.516, -0.08860286, -0.03865802, -1426947.1, -17913.496, 0.00081847684, 9.998724, 10.000253 
1.4750916e+3, 1.662245e+2, -1276286.3, -1120518.3, -32682.248, -0.02662337, 0.122201644, -1113939.0, 197070.05, 0.000071419374, 9.999528, 10.001609 
1.4750764e+3, 1.7622805e+2, -1310040.3, -1104355.5, 42405.902, 0.051900167, 0.29506105, -1095955.8, 117016.57, 0.0000002932695, 9.99871, 10.001439 
1.4750628e+3, 1.8622698e+2, -1390681.1, -1389011.3, 128744.96, 0.12463693, 0.19699986, -1261098.5, -146114.78, 0.0, 9.998762, 9.998788 
1.4750502e+3, 1.9622318e+2, -1178359.5, -1189475.8, 102804.32, 0.20708486, -0.080173835, -1080963.1, -63939.414, 0.0, 9.999347, 9.999201 
1.4750353e+3, 2.0622419e+2, -961322.3, -854987.56, 50231.215, 0.15972725, 0.010944087, -835011.6, 84002.555, 0.0, 9.999387, 10.000809 
1.4750189e+3, 2.1622805e+2, -903601.1, -772090.1, 86843.12, 0.029397953, 0.2997344, -728916.7, 92057.5, 0.0, 9.999099, 10.000842 
1.4750044e+3, 2.2622703e+2, -771192.1, -793729.25, 119089.74, 0.005224809, 0.18445712, -662839.0, 60141.113, 0.0, 9.999912, 9.999633 
1.4749908e+3, 2.3622297e+2, -450625.75, -587926.3, 101983.28, 0.044450253, -0.20737709, -396339.25, 228675.19, 0.0, 10.001443, 9.999633 
1.4749758e+3, 2.462218e+2, -376308.8, -685280.06, 30728.678, 0.0051304665, -0.1915725, -373282.34, 153743.78, 0.0, 10.00207, 9.997989 
1.47496e+3, 2.5622237e+2, -256562.73, -561063.44, 6165.2065, -0.07775767, 0.04880983, -256437.97, 172586.38, 0.000000082863835, 10.002153, 9.998128 
1.4749455e+3, 2.6622102e+2, -151122.2, -500770.3, 28135.027, -0.06766172, 0.12173359, -148872.73, 182166.92, 0.0000048986644, 10.002383, 9.997757 
1.4749321e+3, 2.7621838e+2, 7366.161, -353494.5, 42267.68, -0.0026857306, 0.059911754, 12250.862, 245316.4, 0.00003468843, 10.002712, 9.997935 
1.474918e+3, 2.8621662e+2, 39678.977, -326588.16, 25459.959, 0.041740026, 0.11405431, 41440.277, 176524.3, 0.00015700818, 10.002428, 9.997588 
1.4749035e+3, 2.9621533e+2, 53017.027, -269245.78, 43755.98, 0.080045074, 0.20059328, 58852.43, 95951.01, 0.00053551164, 10.001848, 9.997584 
1.4748892e+3, 3.0621123e+2, 203178.25, -254431.61, 83194.54, 0.058899254, 0.087257676, 217833.84, 217833.84, 0.0013029033, 10.002922, 9.996827 
1.474874e+3, 3.16209e+2, 591687.94, 66292.63, 64788.96, -0.10628259, 0.13851587, 599559.44, 599559.44, 0.0023894673, 10.005008, 9.998028 
1.4851503e+3, 1.2623619e+2, -2150213.3, -1615230.8, -61627.0, -0.18089308, 0.035660777, -1608223.5, 94671.64, 0.013700781, 9.995649, 10.002788 
1.4851342e+3, 1.36239e+2, -1607982.6, -1454761.5, -203441.4, 0.23263977, 0.14710452, -1313984.0, 290876.44, 0.00813248, 9.999365, 10.001433 
1.4851163e+3, 1.4623743e+2, -1691139.4, -1607234.3, 70613.2, -0.014740197, -0.061301943, -1567051.3, -60175.445, 0.0035089266, 9.99884, 9.999939 
1.4851034e+3, 1.5623751e+2, -1958833.6, -1640691.0, 149159.72, -0.059813328, -0.07110209, -1581697.4, -172818.05, 0.0008836724, 9.99614, 10.000339 
1.4850897e+3, 1.6624023e+2, -1708696.6, -1334804.9, 64049.586, -0.011592624, 0.1022715, -1324137.1, -13282.825, 0.00007901186, 9.996603, 10.001543 
1.4850755e+3, 1.762441e+2, -1251076.3, -1073767.6, 9615.072, 0.05698424, 0.31376207, -1073247.8, 139568.52, 0.00000037325287, 9.99911, 10.001454 
1.485062e+3, 1.8624349e+2, -1220535.9, -1255027.9, 77943.31, 0.12981196, 0.23291259, -1157953.4, -43130.746, 0.0, 9.999707, 9.999252 
1.4850494e+3, 1.9624023e+2, -1177005.9, -1142938.4, 124727.48, 0.21133168, -0.037116032, -1034086.9, -17231.854, 0.0, 9.999162, 9.999609 
1.4850345e+3, 2.0624089e+2, -966173.94, -872612.0, 82505.71, 0.15565896, 0.011631539, -824547.56, 94299.49, 0.0, 9.999422, 10.000669 
1.4850183e+3, 2.1624392e+2, -759192.44, -726336.3, 52896.492, 0.009480276, 0.22825006, -687375.56, 133438.9, 0.0, 10.00019, 10.000629 
1.4850046e+3, 2.2624232e+2, -734329.3, -854541.25, 79261.59, 0.003035162, 0.10501449, -694961.06, 27866.834, 0.0, 10.000511, 9.998921 
1.4849922e+3, 2.3623785e+2, -616990.06, -738111.25, 29130.924, 0.07436639, -0.2547487, -610348.0, 14521.692, 0.0, 10.000603, 9.999004 
1.4849778e+3, 2.4623701e+2, -491375.7, -734782.75, -8151.2573, 0.027459571, -0.18255897, -491103.03, 35776.473, 0.0, 10.001252, 9.998044 
1.4849621e+3, 2.562384e+2, -235324.83, -542739.9, 28847.09, -0.093183726, 0.13207243, -232641.31, 196228.16, 0.00000011463164, 10.002264, 9.998201 
1.4849481e+3, 2.6623666e+2, -73926.43, -454414.47, 69172.01, -0.080952436, 0.16032603, -61741.32, 269145.63, 0.000005857849, 10.002879, 9.997834 
1.4849351e+3, 2.7623293e+2, 93142.89, -307592.13, 46120.387, 0.011196197, -0.016776426, 98382.36, 331303.75, 0.000039061, 10.003286, 9.9979725 
1.484921e+3, 2.8623125e+2, 184252.56, -273949.03, -9119.513, 0.05679714, 0.052637022, 184434.0, 319373.7, 0.00017259391, 10.003502, 9.997427 
1.4849061e+3, 2.962308e+2, 299505.5, -158576.78, -27624.738, 0.07617226, 0.24070124, 301165.4, 338113.53, 0.0005883142, 10.003581, 9.997508 
1.4848925e+3, 3.062271e+2, 317219.2, -139642.28, 80636.37, 0.07796502, 0.13497633, 331033.84, 331033.84, 0.001426776, 10.003425, 9.997392 
1.484879e+3, 3.1622386e+2, 369902.66, 41408.934, 97784.88, -0.024477983, 0.03599592, 396807.34, 396807.34, 0.0026008342, 10.003109, 9.998783 
1.4951478e+3, 1.2625459e+2, -2256766.3, -1862086.6, 121761.59, -0.020395296, 0.2366258, -1827545.3, -124828.22, 0.014485426, 9.99577, 10.001023 
1.4951321e+3, 1.3625288e+2, -1762823.1, -1763429.6, -95244.74, 0.08875684, 0.15776716, -1667881.1, -63145.063, 0.008627366, 9.999317, 9.999323 
1.4951147e+3, 1.4625253e+2, -1514456.3, -1245749.8, -40389.355, -0.06909964, 0.028529353, -1239810.1, 266925.3, 0.0037456865, 9.998844, 10.002432 
1.4951e+3, 1.5625508e+2, -1810227.8, -1340293.6, 73851.945, -0.024107045, 0.01124425, -1328960.8, 79741.39, 0.0009542572, 9.996171, 10.002387 
1.4950868e+3, 1.6625619e+2, -1809988.5, -1562619.6, 153312.19, 0.011492245, 0.024065852, -1489320.8, -178629.14, 0.00008722728, 9.996676, 9.999946 
1.495074e+3, 1.7625609e+2, -1341199.6, -1256697.1, 93480.32, 0.015071218, 0.00012255827, -1196363.0, 16335.148, 0.0000004647829, 9.999096, 10.000205 
1.4950605e+3, 1.8625732e+2, -1112830.5, -1035006.8, 51941.26, -0.0024045804, 0.07491206, -1009018.5, 105668.24, 0.0, 9.999714, 10.000762 
1.4950463e+3, 1.9625944e+2, -1090173.6, -966366.75, 112123.766, -0.021628154, 0.19036818, -900193.0, 116470.484, 0.0, 9.999172, 10.000817 
1.4950329e+3, 2.062587e+2, -1030527.94, -1004545.94, 105858.84, 0.02966568, 0.09599352, -910883.94, 7783.963, 0.0, 9.999412, 9.999768 
1.4950196e+3, 2.1625617e+2, -830181.2, -862739.44, 82702.3, 0.12154997, -0.15376183, -762171.06, 58518.57, 0.0, 10.000144, 9.999714 
1.4950064e+3, 2.2625548e+2, -812197.4, -1009717.75, 77098.445, 0.122280546, -0.08791429, -785666.94, -62967.367, 0.0, 10.000475, 9.997877 
1.4949928e+3, 2.3625588e+2, -680815.2, -856939.5, 39606.168, 0.068523265, 0.14389677, -672318.56, -47616.19, 0.0, 10.000544, 9.998218 
1.4949794e+3, 2.4625519e+2, -428731.28, -589787.1, 26587.01, 0.051953983, 0.20743318, -424455.78, 102253.68, 0.0, 10.001185, 9.999073 
1.4949659e+3, 2.5625378e+2, -181925.7, -419143.9, 70919.766, 0.055641808, 0.13660261, -162340.27, 266379.2, 0.00000015644366, 10.00221, 9.999077 
1.4949524e+3, 2.662509e+2, -99778.28, -495039.84, 82345.68, 0.058302436, 0.031138089, -83309.234, 247435.19, 0.000006865855, 10.002821, 9.997584 
1.494939e+3, 2.7624717e+2, 65156.984, -354971.4, 66807.836, 0.06575653, -0.12561306, 75524.76, 308303.75, 0.000043953176, 10.003241, 9.99767 
1.4949241e+3, 2.8624487e+2, 132722.25, -367848.97, -8193.354, 0.015177683, -0.06837823, 132856.33, 267660.34, 0.00018936266, 10.003443, 9.99681 
1.4949083e+3, 2.9624358e+2, 266294.5, -218271.02, -17947.57, -0.07209435, 0.09382396, 266958.34, 303780.6, 0.00063824415, 10.003537, 9.997119 
1.4948955e+3, 3.062411e+2, 388139.3, 35533.133, 65320.31, 0.018799229, 0.0585823, 399850.9, 399850.9, 0.0015283045, 10.003321, 9.998637 
1.4948836e+3, 3.162388e+2, 428952.13, 199102.44, 109425.11, 0.12227018, -0.07361399, 472714.3, 472714.3, 0.002757357, 10.002971, 9.999928 
1.5051456e+3, 1.2627096e+2, -1889382.1, -1720249.4, 187602.5, 0.04243682, 0.2320364, -1599034.0, 103519.84, 0.015336173, 9.9984455, 10.0007105 
1.5051298e+3, 1.3626796e+2, -2200264.8, -2021454.0, 82815.5, 0.054872308, 0.06666981, -1988991.6, -384402.6, 0.0091627855, 9.996518, 9.998902 
1.5051138e+3, 1.4626883e+2, -1789531.5, -1373493.8, 71676.625, 0.054665796, 0.07951448, -1361491.4, 145085.31, 0.0040015904, 9.996946, 10.002462 
1.505099e+3, 1.5627153e+2, -1385541.5, -1132596.4, 315.9319, 0.11457913, 0.07041817, -1132595.9, 275944.5, 0.001031135, 9.999064, 10.002422 
1.5050854e+3, 1.6627184e+2, -1487063.8, -1432246.0, 107350.78, 0.09963054, 0.013727156, -1348860.3, -38323.6, 0.000096309515, 9.998995, 9.999722 
1.5050726e+3, 1.762706e+2, -1557599.6, -1379030.3, 140278.3, 0.033874016, -0.10267487, -1302032.9, -89479.0, 0.000000575819, 9.9976845, 10.000046 
1.5050592e+3, 1.862719e+2, -1322772.3, -1114439.8, 90423.86, -0.021926928, -0.023450725, -1080667.3, 33874.082, 0.0, 9.998191, 10.000944 
1.5050453e+3, 1.9627482e+2, -977183.5, -900070.1, 44928.93, -0.072985016, 0.1510474, -879421.8, 137088.45, 0.0, 9.999904, 10.000917 
1.5050328e+3, 2.0627414e+2, -893788.5, -1007225.06, 16757.709, 0.02506597, 0.094484165, -891364.7, 27151.764, 0.0, 10.000657, 9.999147 
1.505021e+3, 2.1627124e+2, -763919.4, -888153.2, 3683.8213, 0.21000034, -0.13071835, -763810.2, 56735.727, 0.0, 10.00085, 9.999199 
1.5050079e+3, 2.2627077e+2, -657401.8, -909747.4, 72498.734, 0.18902296, -0.031158999, -638056.06, 84497.92, 0.0, 10.001442, 9.998094 
1.5049939e+3, 2.3627181e+2, -414166.9, -707315.25, 119878.766, 0.03923667, 0.24243768, -371387.16, 253161.63, 0.0, 10.002289, 9.998404 
1.5049808e+3, 2.4627072e+2, -251269.83, -506525.56, 99497.05, 0.03176572, 0.25980094, -217068.97, 309489.56, 0.0, 10.002431, 9.999036 
1.5049686e+3, 2.562683e+2, -189505.61, -427412.22, 49009.13, 0.10363665, 0.09134929, -179805.19, 248772.28, 0.00000020302433, 10.002185, 9.999025 
1.5049554e+3, 2.662656e+2, -199813.16, -552748.1, 41277.082, 0.11262909, 0.0086233, -195049.94, 135551.31, 0.0000077496, 10.002174, 9.9974985 
1.504942e+3, 2.762627e+2, -71541.87, -431764.1, 31928.83, 0.08237858, -0.05089753, -68733.7, 163894.77, 0.0000483451, 10.002342, 9.997578 
1.5049271e+3, 2.8625995e+2, 41050.27, -426010.56, -2575.4016, -0.0066610556, -0.031107474, 41064.47, 175722.17, 0.00020448776, 10.002877, 9.996682 
1.5049113e+3, 2.962574e+2, 271535.78, -232263.4, 5489.806, -0.13092612, 0.021923425, 271595.6, 308282.0, 0.0006792943, 10.003658, 9.996962 
1.5048991e+3, 3.0625516e+2, 490274.56, 23991.424, 19209.418, 0.01755399, 0.04295209, 491064.6, 491064.6, 0.001598027, 10.004264, 9.998115 
1.5048884e+3, 3.1625274e+2, 622821.0, 214336.61, -81281.48, 0.23308824, -0.04360886, 638400.5, 638400.5, 0.0028442324, 10.0046215, 9.999253 
1.5151434e+3, 1.2628578e+2, -1816309.5, -1574450.0, 90529.734, -0.04972874, 0.056811534, -1544318.0, 158083.31, 0.016257107, 9.998456, 10.0017185 
1.5151265e+3, 1.3628435e+2, -2110973.0, -1845889.3, 27259.328, 0.074862115, -0.11610381, -1843115.1, -238696.27, 0.009740974, 9.996561, 10.000085 
1.5151134e+3, 1.4628653e+2, -1940215.3, -1714001.5, 142974.22, 0.2968022, 0.10705591, -1644804.3, -138405.94, 0.0042781597, 9.997059, 10.0000725 
1.5151002e+3, 1.5628698e+2, -1521649.5, -1414603.1, 67312.6, 0.31915295, 0.11052615, -1382128.0, 26264.818, 0.0011151112, 9.999065, 10.000483 
1.5150857e+3, 1.662873e+2, -1403651.3, -1267078.8, 51602.98, 0.21245217, 0.07721126, -1249773.6, 60614.52, 0.000106548556, 9.9990225, 10.000843 
1.5150708e+3, 1.7628768e+2, -1492243.6, -1250646.6, 106878.234, 0.07070357, 0.0059516183, -1210152.8, 2229.9512, 0.0000007145684, 9.997714, 10.000911 
1.515058e+3, 1.862873e+2, -1391865.8, -1269615.4, 150469.73, 0.026611103, -0.061841916, -1168329.3, -53943.332, 0.0, 9.9982395, 9.999858 
1.5150462e+3, 1.9628642e+2, -1050508.8, -1050216.3, 105463.086, 0.02370996, -0.15449919, -944899.3, 71495.336, 0.0, 9.999896, 9.99989 
1.5150343e+3, 2.0628731e+2, -923897.75, -1066412.1, 17850.014, 0.10181271, 0.012449484, -921696.0, -3304.1165, 0.0, 10.000638, 9.998753 
1.5150222e+3, 2.1628919e+2, -780551.94, -914079.7, 16850.195, 0.2371087, 0.3048118, -778458.4, 41924.21, 0.0, 10.000809, 9.999043 
1.5150091e+3, 2.2628829e+2, -562228.7, -694874.25, 100964.25, 0.1590689, 0.28051057, -507752.06, 214638.4, 0.0, 10.0013685, 9.999604 
1.5149954e+3, 2.3628564e+2, -340924.53, -542628.0, 152820.89, -0.050311286, 0.03639229, -258677.11, 365731.84, 0.0, 10.002236, 9.99956 
1.5149823e+3, 2.4628359e+2, -341653.78, -681933.75, 85743.414, -0.07857908, -0.02525872, -321269.38, 205157.31, 0.0, 10.002377, 9.99786 
1.5149698e+3, 2.562819e+2, -267604.8, -579393.75, 45767.402, 0.0110224625, 0.00036022248, -261025.47, 167418.39, 0.00000026346208, 10.002139, 9.998006 
1.514957e+3, 2.6628062e+2, -203322.83, -545668.1, 44686.97, 0.035485975, 0.0955239, -197585.89, 132872.42, 0.0000083363275, 10.002113, 9.997577 
1.5149438e+3, 2.762795e+2, -73841.05, -418609.0, 47708.086, 0.017367776, 0.20424497, -67361.12, 165109.89, 0.000050820046, 10.00227, 9.9977 
1.5149297e+3, 2.8627643e+2, 53066.297, -385624.8, 24045.33, -0.054425113, 0.17128366, 54380.324, 188881.4, 0.00021708227, 10.002804, 9.996998 
1.514915e+3, 2.9627228e+2, 267308.8, -234654.13, 43086.777, -0.14555617, 0.029837528, 270980.38, 307521.13, 0.0007143993, 10.003623, 9.9969635 
1.5149038e+3, 3.0626905e+2, 307944.47, -326408.13, 31970.188, 0.028327845, 0.088913634, 309551.66, 309551.66, 0.0016458306, 10.004159, 9.995749 
1.514893e+3, 3.162652e+2, 428558.66, -151348.1, -54451.168, 0.21826392, 0.09194327, 433627.13, 433627.13, 0.002877265, 10.004485, 9.996787 
1.5251409e+3, 1.2629962e+2, -2287384.3, -1801526.4, 8731.148, 0.0353431, -0.033352938, -1801369.6, -99105.45, 0.017244658, 9.995255, 10.001677 
1.5251248e+3, 1.3630027e+2, -1472517.5, -1464289.6, -112437.305, 0.038961906, -0.0781338, -1355891.0, 248370.78, 0.010359608, 10.000624, 10.000757 
1.525113e+3, 1.4630279e+2, -1371566.6, -1516180.1, 5827.0913, 0.33738267, 0.18526421, -1371332.3, 134906.77, 0.0045741852, 10.001307, 9.999378 
1.525099e+3, 1.5630123e+2, -1549777.3, -1498211.3, 41123.586, 0.29523996, 0.05546797, -1475456.5, -67201.36, 0.0012060112, 9.999171, 9.999859 
1.5250844e+3, 1.6630152e+2, -1379618.1, -1242448.0, 40046.973, 0.1787971, 0.04061402, -1231612.3, 78639.016, 0.000118081814, 9.999144, 10.000955 
1.52507e+3, 1.7630327e+2, -1067947.9, -1038491.2, 11483.475, 0.080844656, 0.099847324, -1034543.5, 177688.2, 0.0000008766353, 10.000596, 10.000982 
1.5250579e+3, 1.8630281e+2, -1082034.6, -1151729.9, 76288.55, 0.069032654, 0.037008837, -1033011.56, 81224.6, 0.0, 10.000502, 9.9995775 
1.5250465e+3, 1.9630094e+2, -1115865.5, -1107856.0, 84399.266, 0.07483228, -0.12723827, -1027366.5, -11110.501, 0.0, 9.999553, 9.999663 
1.5250346e+3, 2.0630185e+2, -1066458.3, -1108484.1, 59462.92, 0.13265425, 0.04040815, -1024404.75, -106151.516, 0.0, 9.999545, 9.998988 
1.5250225e+3, 2.1630453e+2, -859547.5, -923469.9, 96516.13, 0.23116334, 0.38598594, -789838.25, 30397.787, 0.0, 10.000145, 9.999296 
1.5250099e+3, 2.2630355e+2, -641441.0, -704098.1, 157504.11, 0.1442053, 0.32978934, -512179.97, 210062.77, 0.0, 10.000696, 9.999865 
1.5249968e+3, 2.3630032e+2, -482838.88, -594444.4, 106040.2, -0.06139803, 0.0016305076, -418814.78, 205449.42, 0.0, 10.001191, 9.999702 
1.5249841e+3, 2.4629793e+2, -467866.6, -825367.25, 18713.967, -0.106468394, -0.059044596, -466889.66, 59396.78, 0.0, 10.001855, 9.99713 
1.5249714e+3, 2.562961e+2, -242542.08, -634138.9, 5314.86, -0.05069826, 0.023260556, -242469.95, 185838.73, 0.0000003530132, 10.002597, 9.997411 
1.5249588e+3, 2.66295e+2, -105212.266, -484095.6, 17243.64, -0.020372825, 0.15329304, -104429.09, 225893.3, 0.00000861748, 10.002725, 9.997707 
1.524946e+3, 2.7629417e+2, -35315.81, -390566.66, 18186.281, -0.010193726, 0.28031456, -34387.227, 197944.19, 0.000051570143, 10.002494, 9.997786 
1.5249331e+3, 2.86291e+2, 119324.266, -373153.44, 20484.313, -0.014252271, 0.24371858, 120174.83, 254536.94, 0.00022931791, 10.003345, 9.996825 
1.5249205e+3, 2.962865e+2, 438015.88, -168042.95, -14740.041, -0.023421882, 0.08706672, 438374.16, 474779.28, 0.0007484077, 10.004861, 9.996831 
1.5249088e+3, 3.0628332e+2, 430351.06, -254960.63, 38536.63, 0.09429677, 0.14634952, 432511.25, 432511.25, 0.0016856223, 10.00494, 9.995872 
1.5248963e+3, 3.1627956e+2, 339763.6, -235348.14, 121251.75, 0.12757665, 0.15934934, 364282.03, 364282.03, 0.0028898565, 10.004028, 9.996446 
1.5351379e+3, 1.263126e+2, -2354763.0, -1969503.9, 142272.52, 0.19165973, -0.04712681, -1922659.8, -220519.27, 0.018294634, 9.995359, 10.000483 
1.5351242e+3, 1.3631594e+2, -1470190.9, -1444400.1, 56342.926, -0.0914167, 0.18485746, -1399495.8, 204619.14, 0.011016667, 10.000561, 10.000924 
1.5351126e+3, 1.4631787e+2, -1308080.8, -1383034.3, -83138.086, 0.15009706, 0.32251558, -1254362.9, 251733.22, 0.0048880493, 10.001296, 10.000306 
1.5350953e+3, 1.5631442e+2, -1509025.5, -1401723.5, -20905.82, 0.0101104155, -0.08204636, -1397794.3, 10331.509, 0.0013030368, 9.999133, 10.000536 
1.5350814e+3, 1.6631468e+2, -1437154.5, -1375238.3, 88016.88, -0.040816847, -0.07699651, -1312893.8, -2770.0635, 0.00013086536, 9.999189, 10.000027 
1.5350702e+3, 1.7631754e+2, -1124760.9, -1151475.1, 57761.887, 0.03847432, 0.18459333, -1078831.9, 133267.2, 0.0000010420176, 10.000575, 10.000217 
1.5350585e+3, 1.8631859e+2, -1045779.56, -1081379.9, 35658.188, 0.06837522, 0.279901, -1023725.56, 90365.17, 0.0, 10.000518, 10.000053 
1.5350458e+3, 1.9631836e+2, -1077089.4, -1027959.2, 59297.813, 0.041316908, 0.22931316, -988339.56, 27754.549, 0.0, 9.999553, 10.000212 
1.5350337e+3, 2.063178e+2, -1009432.94, -985375.2, 77430.55, 0.074234545, 0.17671275, -919044.75, -944.6373, 0.0, 9.999523, 9.999844 
1.5350221e+3, 2.1631712e+2, -822625.94, -838484.5, 122753.68, 0.15677693, 0.10458558, -707545.7, 112561.2, 0.0, 10.000107, 9.999898 
1.5350103e+3, 2.263165e+2, -722332.44, -854247.8, 171368.34, 0.106047474, 0.11268146, -604666.8, 117444.56, 0.0, 10.000619, 9.998872 
1.5349986e+3, 2.3631583e+2, -552217.8, -727706.5, 130092.88, -0.029345147, 0.13807538, -483044.25, 141070.64, 0.0, 10.001143, 9.998812 
1.5349862e+3, 2.4631375e+2, -496932.28, -866235.0, 43871.0, -0.095137686, 0.1606431, -491792.2, 34345.758, 0.0, 10.001777, 9.996885 
1.5349735e+3, 2.5631088e+2, -264287.38, -665972.6, 34344.85, -0.11579472, 0.15988426, -261371.98, 166800.28, 0.0000004707298, 10.0025425, 9.997216 
1.5349609e+3, 2.6630864e+2, -102962.92, -465124.97, 3057.4573, -0.09390923, 0.18031576, -102937.11, 227257.17, 0.000008627056, 10.002662, 9.997869 
1.534948e+3, 2.763067e+2, -39745.145, -386552.3, 22436.076, -0.04605731, 0.17825112, -38299.707, 193910.05, 0.00005249565, 10.0024395, 9.997839 
1.5349373e+3, 2.8630358e+2, 56153.246, -490287.13, 76174.35, 0.06302927, 0.18721545, 66573.33, 200814.9, 0.0002422882, 10.00328, 9.996056 
1.5349276e+3, 2.9629996e+2, 414359.0, -213008.14, 39587.95, 0.20137422, 0.18723962, 416847.22, 453128.66, 0.0007821786, 10.004838, 9.996533 
1.5349147e+3, 3.0629778e+2, 599902.25, 123952.46, 832.0241, 0.18105, 0.21303017, 599903.7, 599903.7, 0.0017262091, 10.004844, 9.998514 
1.534898e+3, 3.1629583e+2, 452867.72, 50266.88, 106967.63, -0.13723786, 0.14016046, 479523.28, 479523.28, 0.002912146, 10.003844, 9.998481 
1.5451354e+3, 1.2632562e+2, -1959054.3, -1750272.8, 51334.94, 0.26655677, 0.06443931, -1738333.4, -36313.086, 0.019406972, 9.997955, 10.000729 
1.5451223e+3, 1.363289e+2, -2163646.3, -1688982.9, 73577.12, -0.06866398, 0.21382633, -1677839.4, -73848.75, 0.0117135905, 9.995406, 10.001718 
1.5451114e+3, 1.4633085e+2, -2016259.4, -1650352.5, -83432.36, 0.16656065, 0.27634785, -1632226.6, -126256.484, 0.0052204016, 9.996115, 10.00096 
1.5450938e+3, 1.5632899e+2, -1518011.8, -1351377.1, -52007.023, -0.03983251, -0.02922897, -1336477.8, 71506.27, 0.0014059248, 9.998818, 10.00104 
1.5450804e+3, 1.6632928e+2, -1428160.4, -1386560.4, 96382.766, -0.0708355, -0.034562234, -1308758.8, 1222.8328, 0.00014487762, 9.999326, 9.999875 
1.5450703e+3, 1.7633115e+2, -1411645.6, -1305863.3, 112472.414, 0.08467851, 0.14069371, -1234466.4, -22499.945, 0.000001197513, 9.998667, 10.000076 
1.5450585e+3, 1.8633232e+2, -1282694.6, -1199317.4, 85217.164, 0.108336866, 0.25664797, -1146138.1, -32180.488, 0.0, 9.998918, 10.000011 
1.5450452e+3, 1.9633298e+2, -1039279.6, -1008095.06, 63094.055, 0.015847327, 0.29826337, -958695.2, 57258.273, 0.0, 9.999817, 10.000216 
1.5450332e+3, 2.0633207e+2, -856849.25, -902614.94, 58597.555, 0.0266496, 0.20580813, -816825.06, 101136.32, 0.0, 10.000537, 9.999925 
1.5450223e+3, 2.1633032e+2, -670026.7, -764273.44, 38817.598, 0.114314035, 0.019075667, -656097.44, 163878.31, 0.0, 10.001163, 9.999897 
1.5450114e+3, 2.2632974e+2, -580546.9, -845175.06, 95553.62, 0.08773768, 0.06343642, -549650.94, 172330.31, 0.0, 10.001849, 9.998341 
1.5450004e+3, 2.3632984e+2, -379288.78, -692199.56, 74770.07, -0.018866617, 0.21828677, -362340.44, 261641.27, 0.0, 10.002538, 9.998385 
1.5449885e+3, 2.4632812e+2, -381777.56, -776587.06, 16847.23, -0.058022853, 0.2772502, -381059.94, 144942.84, 0.000000000009610117, 10.002424, 9.997188 
1.5449764e+3, 2.5632524e+2, -350021.53, -678482.6, 42000.87, -0.05477176, 0.25196773, -344735.88, 83300.39, 0.0000005675007, 10.001835, 9.997473 
1.5449639e+3, 2.6632255e+2, -114561.65, -460255.03, 47250.297, -0.050183967, 0.20814571, -108219.695, 221841.64, 0.000008574752, 10.002543, 9.997955 
1.5449512e+3, 2.7631983e+2, 196251.81, -260251.72, 46746.5, -0.051111594, 0.12132371, 200989.55, 433071.34, 0.000054083343, 10.00401, 9.997949 
1.5449408e+3, 2.8631708e+2, 140623.7, -406729.2, 141681.3, 0.065064415, 0.14096081, 175123.16, 309232.38, 0.0002552123, 10.003682, 9.9964285 
1.5449315e+3, 2.9631445e+2, 68590.88, -339419.16, 178510.75, 0.24380761, 0.20703311, 135665.44, 171805.02, 0.00081604347, 10.002292, 9.996889 
1.544919e+3, 3.0631232e+2, 368700.94, 72907.625, 90447.37, 0.22244428, 0.19003665, 394165.6, 394165.6, 0.0017762218, 10.002977, 9.999064 
1.5449022e+3, 3.1631097e+2, 602220.06, 143167.67, 9461.997, -0.13223691, 0.1294793, 602415.0, 602415.0, 0.0029654303, 10.004747, 9.9987 
1.5551329e+3, 1.2633905e+2, -1840250.1, -1512347.5, -125605.9, 0.18846165, 0.31391436, -1469763.4, 232136.11, 0.020587768, 9.997975, 10.002386 
1.5551192e+3, 1.3633949e+2, -2067911.8, -1485501.5, 8011.9395, 0.06859332, 0.030217037, -1485391.4, 118494.36, 0.012455585, 9.995395, 10.003125 
1.5551092e+3, 1.4634195e+2, -1976694.4, -1588809.3, 16076.557, 0.32377958, 0.060710676, -1588144.1, -82285.54, 0.0055746003, 9.99619, 10.001351 
1.555094e+3, 1.5634511e+2, -1491061.6, -1297955.9, 37897.41, 0.093887, 0.2194236, -1290784.8, 117043.65, 0.001515748, 9.998831, 10.0014 
1.5550809e+3, 1.6634548e+2, -1379883.3, -1296678.0, 63567.24, 0.039711013, 0.17361829, -1262309.8, 47513.59, 0.00016035176, 9.999364, 10.000478 
1.5550701e+3, 1.763442e+2, -1378640.4, -1236438.8, 95939.625, 0.18699773, -0.023454197, -1188125.5, 23707.645, 0.0000013687348, 9.998665, 10.000554 
1.5550579e+3, 1.8634416e+2, -1317739.1, -1279502.9, 113755.55, 0.14837241, -0.017983194, -1183270.1, -69434.7, 0.0, 9.998946, 9.999449 
1.5550445e+3, 1.9634488e+2, -1082660.5, -1096460.4, 98939.86, -0.037989073, 0.086734384, -990380.3, 25452.846, 0.0, 9.999809, 9.999613 
1.555033e+3, 2.0634472e+2, -907269.9, -1005743.0, 75398.17, -0.046002544, 0.13587457, -866455.75, 51380.523, 0.0, 10.000524, 9.999227 
1.555023e+3, 2.1634407e+2, -716589.06, -856066.5, 65674.78, 0.06834126, 0.12625371, -690532.9, 129309.86, 0.0, 10.001135, 9.999284 
1.5550128e+3, 2.2634323e+2, -596782.9, -864373.25, 118881.15, 0.04130122, 0.17647691, -551597.94, 170254.97, 0.0, 10.001784, 9.998241 
1.5550025e+3, 2.363423e+2, -383930.6, -691955.5, 99552.39, -0.0733942, 0.23643915, -354556.8, 269308.47, 0.0, 10.002494, 9.998407 
1.5549913e+3, 2.4634095e+2, -335410.28, -665000.6, -10669.435, -0.036840916, 0.28674614, -335065.25, 190816.34, 0.0, 10.002357, 9.99799 
1.5549797e+3, 2.5633925e+2, -308627.56, -578878.5, 34724.004, 0.09320617, 0.29786614, -304237.25, 123663.42, 0.0000005355393, 10.001777, 9.998184 
1.5549676e+3, 2.6633665e+2, -128596.086, -473031.53, 103435.2, 0.0641645, 0.234609, -99921.336, 230002.27, 0.000008556659, 10.00247, 9.997903 
1.5549552e+3, 2.763335e+2, 202783.86, -239266.3, 96203.266, -0.06266358, 0.103628226, 222813.03, 454761.25, 0.00005618316, 10.00398, 9.998104 
1.5549433e+3, 2.8633142e+2, 235387.98, -195865.1, 83605.5, -0.04597315, 0.10149291, 251029.0, 384994.63, 0.0002694524, 10.00362, 9.9979105 
1.554932e+3, 2.9632998e+2, 135978.92, -184190.05, 150651.56, 0.054898, 0.13784723, 195719.23, 231698.61, 0.00085404597, 10.002225, 9.997988 
1.5549214e+3, 3.0632684e+2, 219178.75, -200071.9, 159727.97, 0.16766012, 0.07388678, 273098.13, 273098.13, 0.0018453075, 10.0028305, 9.997253 
1.5549092e+3, 3.163248e+2, 471110.1, -90704.89, 83955.39, 0.07432292, 0.12052278, 483387.75, 483387.75, 0.003067723, 10.004609, 9.997142 
1.5651289e+3, 1.2635173e+2, -2073827.0, -1530897.5, -42874.164, 0.11435382, 0.3140492, -1527532.6, 174244.64, 0.021849003, 9.995963, 10.003232 
1.5651166e+3, 1.3635252e+2, -1598684.4, -1219822.1, 66756.875, 0.1431231, 0.014872087, -1208403.5, 395352.06, 0.013250772, 9.998418, 10.003526 
1.5651071e+3, 1.463545e+2, -1591288.1, -1433830.3, 57163.977, 0.363856, -0.0031659876, -1415266.0, 90467.23, 0.0059556314, 9.99898, 10.00107 
1.5650932e+3, 1.5635787e+2, -1563649.1, -1358861.5, 16875.332, 0.15024684, 0.2056145, -1357480.1, 50223.3, 0.0016345053, 9.998449, 10.001165 
1.5650806e+3, 1.6635853e+2, -1441514.8, -1319333.9, -14922.185, 0.08569182, 0.19604608, -1317537.9, -7840.782, 0.00017771397, 9.998918, 10.000535 
1.5650696e+3, 1.7635751e+2, -1164679.5, -1127253.5, -28546.324, 0.19467643, 0.017448707, -1111833.4, 99871.74, 0.0000016137079, 10.000113, 10.000604 
1.5650576e+3, 1.8635723e+2, -1097058.8, -1182345.8, 6190.5454, 0.15281186, 0.00019412371, -1096611.8, 17097.953, 0.0, 10.0005, 9.999367 
1.565045e+3, 1.9635744e+2, -995872.8, -1070383.8, 22953.146, -0.016214637, 0.06348096, -989369.7, 26341.945, 0.0, 10.000465, 9.99948 
1.5650338e+3, 2.0635727e+2, -861594.3, -1023153.1, 48407.984, -0.056255445, 0.1367409, -848200.25, 69514.81, 0.0, 10.001008, 9.998869 
1.5650237e+3, 2.1635689e+2, -618911.56, -837726.4, 50195.12, -0.011392784, 0.18893443, -607946.5, 211772.9, 0.0, 10.00193, 9.999022 
1.565014e+3, 2.2635596e+2, -616697.44, -845367.75, 103162.164, 0.002806728, 0.2254472, -577035.94, 144694.67, 0.0, 10.001526, 9.998495 
1.5650046e+3, 2.363547e+2, -679627.56, -804383.3, 104928.984, -0.008313797, 0.22818919, -619935.44, 3810.453, 0.0, 10.000331, 9.998678 
1.5649934e+3, 2.4635352e+2, -532448.2, -709481.7, 16085.251, 0.017794626, 0.2595235, -530998.56, -5239.7344, 0.0, 10.000775, 9.99845 
1.5649812e+3, 2.563524e+2, -221061.64, -495341.8, 24062.285, 0.058764312, 0.2778329, -218966.69, 208803.78, 0.00000039469393, 10.002192, 9.998562 
1.5649702e+3, 2.6635003e+2, -105641.71, -480189.47, 94174.19, 0.060620897, 0.2372006, -83296.22, 246494.88, 0.000008163994, 10.002713, 9.997738 
1.5649594e+3, 2.7634698e+2, 8512.545, -350483.94, 60474.676, 0.033255167, 0.13882764, 18426.037, 250243.03, 0.000058034057, 10.002714, 9.997958 
1.5649472e+3, 2.8634512e+2, 149936.67, -192267.61, -46273.027, 0.015581837, 0.14191554, 156083.33, 289916.1, 0.00028458447, 10.002848, 9.998305 
1.5649341e+3, 2.9634398e+2, 277747.8, -88079.73, -67244.83, -0.0031853826, 0.17151204, 289716.84, 325559.22, 0.0008958851, 10.00309, 9.998231 
1.5649244e+3, 3.0634037e+2, 389151.75, -185203.33, 55349.773, 0.1256719, 0.082385644, 394437.06, 394437.06, 0.0019320635, 10.004274, 9.996666 
1.5649152e+3, 3.163385e+2, 645065.75, -54325.47, 47816.15, 0.14894637, 0.20772502, 648319.75, 648319.75, 0.003219907, 10.005987, 9.996745 
1.5751235e+3, 1.2636413e+2, -2061184.5, -1515566.0, -2468.3806, -0.05187644, 0.10764875, -1515554.9, 186094.36, 0.023204513, 9.996002, 10.003324 
1.575115e+3, 1.3636826e+2, -1646785.3, -1308554.0, 149784.06, 0.115366146, 0.18502314, -1251759.5, 351838.2, 0.014108494, 9.998387, 10.002922 
1.575105e+3, 1.4636865e+2, -1651575.4, -1568630.5, 29400.139, 0.24603197, 0.094830394, -1559266.6, -53674.426, 0.0063687824, 9.999014, 10.000131 
1.5750913e+3, 1.5636751e+2, -1620413.6, -1478001.8, 7966.41, 0.10389846, -0.059108526, -1477557.5, -69950.2, 0.00176415, 9.998453, 10.000346 
1.575079e+3, 1.6636871e+2, -1470688.9, -1385985.1, 26340.178, 0.02799658, 0.044284444, -1378462.4, -68861.945, 0.00019721544, 9.998941, 10.000067 
1.5750685e+3, 1.7637119e+2, -1195711.6, -1186833.6, 14661.333, 0.07238803, 0.26423615, -1175954.1, 35627.215, 0.0000019795527, 10.000093, 10.000202 
1.5750577e+3, 1.8637152e+2, -1067209.0, -1126053.3, 270.76395, 0.08249843, 0.3068192, -1067207.8, 46372.184, 0.0, 10.000518, 9.999746 
1.575046e+3, 1.9637066e+2, -972668.4, -1021835.94, 28992.813, 0.04136661, 0.22346154, -959239.75, 56348.844, 0.0, 10.0004635, 9.999815 
1.5750349e+3, 2.0636976e+2, -866653.0, -1028851.9, 80652.0, -0.052141942, 0.20850965, -833376.5, 84220.53, 0.0, 10.000984, 9.99884 
1.5750243e+3, 2.1636881e+2, -625079.94, -836020.9, 78683.83, -0.16137326, 0.20720945, -598963.3, 220642.06, 0.0, 10.00187, 9.999061 
1.5750149e+3, 2.2636789e+2, -585468.5, -765581.2, 52696.992, -0.06831992, 0.21183024, -571183.5, 150430.83, 0.0, 10.001458, 9.999077 
1.5750064e+3, 2.3636699e+2, -652277.94, -732861.0, 76314.984, 0.13610306, 0.19065714, -606271.25, 17352.445, 0.0, 10.000268, 9.999199 
1.5749946e+3, 2.4636586e+2, -541380.75, -708624.5, 66005.28, 0.054090347, 0.20031847, -518469.47, 7164.6245, 0.0, 10.00069, 9.998495 
1.5749809e+3, 2.5636458e+2, -228115.58, -499203.56, 75384.23, -0.19496585, 0.19856125, -208562.97, 219082.28, 0.00000029448665, 10.002148, 9.998553 
1.5749714e+3, 2.663627e+2, -137533.61, -537586.6, 91569.39, -0.09813532, 0.22388017, -117570.22, 212093.75, 0.000007127328, 10.00267, 9.997368 
1.574964e+3, 2.7636036e+2, -27751.947, -411158.75, 68201.88, 0.19786003, 0.22793503, -15981.293, 215706.86, 0.000058357444, 10.00265, 9.997572 
1.574952e+3, 2.863582e+2, 77747.62, -328772.47, -39273.586, 0.20088461, 0.2694921, 81507.05, 215217.28, 0.0002965309, 10.002782, 9.997402 
1.5749376e+3, 2.9635635e+2, 221979.38, -196598.75, -42138.883, 0.03232209, 0.3153259, 226179.42, 261909.06, 0.0009366221, 10.003055, 9.997502 
1.5749282e+3, 3.063527e+2, 423196.8, -93047.59, 117253.79, 0.052775294, 0.21965066, 448580.38, 448580.38, 0.0020277782, 10.004199, 9.997329 
1.5749198e+3, 3.1635204e+2, 691590.4, 83837.7, 119586.15, -0.00045364242, 0.38810182, 714274.44, 714274.44, 0.0034017141, 10.0058365, 9.997755 
1.5851195e+3, 1.2637705e+2, -2010061.8, -1613962.9, -46398.08, -0.0889734, 0.05970226, -1608600.5, 92915.945, 0.024665277, 9.996909, 10.002189 
1.5851137e+3, 1.3638017e+2, -2087783.5, -1647578.5, 33343.83, 0.27385017, 0.1666801, -1645067.3, -41584.938, 0.0150364665, 9.995922, 10.001751 
1.5851028e+3, 1.4638056e+2, -2022811.4, -1731977.6, -56888.906, 0.25404614, 0.12145623, -1721245.9, -215766.75, 0.0068181083, 9.996406, 10.000262 
1.5850891e+3, 1.5637963e+2, -1676873.8, -1495489.9, -13461.579, 0.071348764, -0.024542501, -1494496.3, -87004.93, 0.0019058621, 9.998024, 10.000431 
1.5850775e+3, 1.6638075e+2, -1567645.5, -1466460.9, 43921.93, 0.014959527, 0.08518505, -1450055.3, -140569.61, 0.0002187055, 9.998425, 9.999762 
1.5850678e+3, 1.7638297e+2, -1497697.5, -1361437.4, 40200.32, 0.08206426, 0.3099745, -1350461.4, -138990.89, 0.000002466339, 9.998146, 9.999941 
1.5850574e+3, 1.8638344e+2, -1258474.0, -1218549.0, 39617.316, 0.08425768, 0.3754382, -1194149.0, -80680.836, 0.0, 9.999213, 9.999739 
1.5850465e+3, 1.963829e+2, -872315.25, -966731.7, 24523.447, 0.019676426, 0.3236396, -866325.56, 149147.42, 0.0, 10.001128, 9.999869 
1.5850359e+3, 2.0638187e+2, -849605.75, -984898.8, 49067.94, -0.052382626, 0.2773622, -833683.7, 83797.22, 0.0, 10.000953, 9.999159 
1.5850253e+3, 2.1638055e+2, -941279.9, -963158.0, 68337.65, -0.116528034, 0.20938894, -883011.3, -63520.305, 0.0, 9.999584, 9.999297 
1.5850161e+3, 2.2637929e+2, -726318.1, -854991.44, 52780.184, -0.05069643, 0.18132779, -707438.5, 14063.972, 0.0, 10.000586, 9.998882 
1.5850075e+3, 2.3637813e+2, -258265.52, -561432.4, 5001.162, 0.07860379, 0.15478481, -258183.03, 365331.1, 0.0, 10.003052, 9.999039 
1.5849963e+3, 2.4637717e+2, -145325.81, -502329.44, -30548.078, 0.018390747, 0.18212903, -142730.73, 382791.56, 0.0, 10.003365, 9.9986105 
1.5849836e+3, 2.5637633e+2, -186322.52, -475496.16, -27223.064, -0.15803064, 0.21225199, -183782.03, 243746.58, 0.00000023115544, 10.002424, 9.998575 
1.5849741e+3, 2.663741e+2, -189355.0, -596472.2, 803.61084, -0.07168956, 0.22540012, -189353.42, 140197.8, 0.0000061293663, 10.002464, 9.997054 
1.5849665e+3, 2.7637115e+2, 20787.432, -419889.1, -33057.137, 0.16556285, 0.19704074, 23253.398, 254836.92, 0.00005923624, 10.003132, 9.997272 
1.584955e+3, 2.8636885e+2, 194716.39, -305536.56, -101143.875, 0.18659373, 0.25132915, 214392.31, 348000.7, 0.0003070384, 10.003728, 9.997105 
1.5849416e+3, 2.9636708e+2, 375178.44, -152730.42, -71247.34, 0.07017047, 0.3350314, 384625.03, 420252.6, 0.00097578176, 10.0042305, 9.997237 
1.5849324e+3, 3.0636355e+2, 421238.5, -85558.05, 98348.67, 0.065534405, 0.26126292, 439654.78, 439654.78, 0.0021235773, 10.00412, 9.997435 
1.5849242e+3, 3.163632e+2, 404464.88, -2999.298, 35058.426, -0.032435093, 0.4435374, 407459.3, 407459.3, 0.0035817549, 10.003604, 9.998245 
1.5951167e+3, 1.2639064e+2, -2167639.0, -1959757.3, -60490.207, -0.079644814, 0.16613394, -1943436.9, -242059.34, 0.026239868, 9.996988, 9.999766 
1.5951128e+3, 1.3638848e+2, -2203864.3, -1895053.9, 9994.373, 0.5829861, -0.038922537, -1894730.8, -291323.97, 0.016040104, 9.99595, 10.000039 
1.5951002e+3, 1.463904e+2, -1935263.0, -1567923.0, -913.58307, 0.34400117, 0.079082176, -1567920.8, -62529.016, 0.0073062, 9.996471, 10.001362 
1.5950866e+3, 1.563943e+2, -1613317.3, -1364312.3, 42827.86, 0.01329132, 0.3087521, -1357151.9, 50202.78, 0.002060233, 9.998026, 10.001333 
1.5950759e+3, 1.6639473e+2, -1573230.6, -1484781.3, 28251.117, 0.0017973777, 0.3200044, -1476527.9, -167175.4, 0.00024185247, 9.998452, 9.999622 
1.5950671e+3, 1.7639305e+2, -1507766.4, -1384441.1, 43848.27, 0.18914479, 0.16588919, -1370440.4, -159069.08, 0.0000030340082, 9.9981575, 9.999776 
1.5950571e+3, 1.8639311e+2, -1280362.5, -1270487.1, 108414.62, 0.11869883, 0.21813865, -1166897.8, -53524.89, 0.0, 9.999239, 9.999371 
1.5950465e+3, 1.9639422e+2, -894843.5, -1006706.2, 85263.63, -0.110917784, 0.37116975, -848803.25, 166560.33, 0.0, 10.001102, 9.999607 
1.5950365e+3, 2.0639366e+2, -808452.5, -898258.25, -8781.482, -0.092086434, 0.34975076, -807601.9, 109764.41, 0.0, 10.000943, 9.999761 
1.595027e+3, 2.163921e+2, -919386.44, -907048.3, 37568.816, 0.0812072, 0.19509369, -875145.44, -55769.258, 0.0, 9.999539, 9.999702 
1.5950173e+3, 2.2639021e+2, -804746.56, -1004487.8, 142767.78, 0.0051565804, 0.1414612, -730385.2, -8990.997, 0.0, 10.000522, 9.99789 
1.5950076e+3, 2.3638815e+2, -326236.72, -689382.44, 87072.21, -0.21848509, 0.12277455, -306438.6, 316978.16, 0.0, 10.002993, 9.99819 
1.5949982e+3, 2.4638747e+2, -147730.69, -492284.25, -68714.945, -0.13328701, 0.20753871, -134532.31, 390890.97, 0.0, 10.003298, 9.9987135 
1.594989e+3, 2.563875e+2, -190201.02, -471088.6, -49049.457, 0.13601445, 0.31773883, -181882.22, 245538.8, 0.00000009760233, 10.002373, 9.998631 
1.5949784e+3, 2.6638433e+2, -220662.06, -651232.56, 22364.383, 0.10115627, 0.24911326, -219503.55, 109949.19, 0.0000054247644, 10.002413, 9.996706 
1.594967e+3, 2.7637935e+2, -5230.6606, -463135.6, -846.84814, -0.10952631, 0.05070271, -5229.094, 226274.72, 0.000061938634, 10.003082, 9.996999 
1.5949562e+3, 2.8637683e+2, 206464.02, -266354.78, -84009.266, -0.08283502, 0.08152508, 220946.95, 354475.88, 0.0003176525, 10.003664, 9.997405 
1.594946e+3, 2.963758e+2, 384105.03, -124901.6, -49434.973, 0.07618059, 0.21268654, 388861.72, 424400.53, 0.0010060582, 10.004187, 9.997454 
1.5949371e+3, 3.0637282e+2, 366407.1, -168508.03, 75919.82, 0.12218537, 0.20689945, 376973.56, 376973.56, 0.0021941096, 10.004007, 9.996909 
1.5949279e+3, 3.1637195e+2, 373212.8, -14891.689, 39395.027, -0.027574005, 0.38877225, 377171.28, 377171.28, 0.0037093721, 10.0034075, 9.998244 
1.6051151e+3, 1.2640184e+2, -2136275.5, -1988366.9, -70451.69, 0.047787115, 0.13865529, -1960180.8, -258914.16, 0.027939666, 9.997394, 9.999372 
1.6051093e+3, 1.364e+2, -1904313.3, -1771196.0, 64422.395, 0.5350552, -0.009968995, -1745124.8, -141828.11, 0.01712635, 9.998093, 9.999852 
1.6050962e+3, 1.4640214e+2, -1721394.1, -1447415.5, 101181.72, 0.22841226, 0.12870006, -1414099.8, 91180.37, 0.007836914, 9.997875, 10.001509 
1.6050854e+3, 1.5640652e+2, -1650654.9, -1372282.1, 68575.65, 0.101350054, 0.3932688, -1356305.8, 50931.047, 0.0022287087, 9.997724, 10.001424 
1.6050754e+3, 1.6640644e+2, -1549704.9, -1497919.6, 35442.316, 0.09518249, 0.3597835, -1479919.4, -170680.94, 0.00026665046, 9.998724, 9.999403 
1.6050658e+3, 1.7640361e+2, -1185936.0, -1249625.8, 34825.938, 0.13698046, 0.1151514, -1170590.4, 40676.906, 0.0000036433328, 10.000452, 9.999599 
1.6050562e+3, 1.8640336e+2, -1106316.0, -1180757.4, 111094.28, 0.05120348, 0.14128128, -1026373.0, 86897.57, 0.0, 10.000406, 9.999423 
1.6050467e+3, 1.9640464e+2, -1145762.1, -1131624.9, 109906.47, -0.108433485, 0.30568027, -1028559.94, -13301.387, 0.0, 9.999382, 9.999582 
1.6050373e+3, 2.0640408e+2, -946912.2, -1009821.0, -14298.327, -0.06277783, 0.30722615, -943814.9, -26552.111, 0.0, 10.000194, 9.999353 
1.6050279e+3, 2.1640247e+2, -562053.6, -768231.9, -51277.363, 0.09751731, 0.18871292, -550004.9, 269271.06, 0.0, 10.002143, 9.999397 
1.6050187e+3, 2.2640084e+2, -560719.6, -850286.8, 103295.62, 0.013521431, 0.15714994, -527648.56, 193642.52, 0.0, 10.002052, 9.998204 
1.6050094e+3, 2.3639925e+2, -631395.75, -809632.44, 131419.69, -0.21737581, 0.1550648, -561727.4, 61579.543, 0.0, 10.000794, 9.998414 
1.6050002e+3, 2.4639808e+2, -521136.5, -723247.44, -25102.457, -0.13050063, 0.20690472, -518065.4, 7253.247, 0.0, 10.000944, 9.998271 
1.6049913e+3, 2.5639716e+2, -275499.13, -547095.3, -50699.01, 0.14042836, 0.26601547, -266343.75, 160983.98, 0.000000007673713, 10.001938, 9.998324 
1.6049811e+3, 2.6639432e+2, -150748.77, -565217.5, 69281.59, 0.12293599, 0.21861959, -139474.5, 189881.0, 0.0000049766613, 10.002673, 9.99717 
1.6049704e+3, 2.7639034e+2, 45528.48, -397298.75, 92187.96, -0.06702656, 0.08031083, 63953.582, 295347.88, 0.00006397672, 10.003247, 9.997375 
1.60496e+3, 2.8638774e+2, 220800.52, -264730.72, 22566.543, -0.075243406, 0.08678623, 221847.11, 355266.5, 0.00032418658, 10.003782, 9.997363 
1.6049495e+3, 2.9638603e+2, 396451.34, -124443.59, 14332.007, 0.018921077, 0.15454751, 396845.38, 432280.56, 0.0010178614, 10.004298, 9.997401 
1.6049413e+3, 3.0638307e+2, 418749.22, -183900.8, 122869.64, 0.11353137, 0.17532931, 442837.34, 442837.34, 0.0022177913, 10.004537, 9.996549 
1.6049333e+3, 3.163814e+2, 527188.7, 34585.164, 77553.69, 0.11100689, 0.31639415, 539109.94, 539109.94, 0.0037492951, 10.004555, 9.998042 
1.6151148e+3, 1.264107e+2, -2016617.5, -1754512.8, 30728.826, 0.2503277, -0.0383865, -1750958.4, -49775.36, 0.02978273, 9.99745, 10.000952 
1.6151032e+3, 1.3641493e+2, -1818090.0, -1590097.5, 76738.01, 0.10440734, 0.26488975, -1566675.1, 36474.633, 0.018308382, 9.998076, 10.001111 
1.6150905e+3, 1.4641581e+2, -1771564.8, -1559712.9, 86977.83, -0.13282506, 0.27196336, -1528578.8, -23435.24, 0.008418617, 9.99791, 10.000718 
1.6150852e+3, 1.5641643e+2, -1701040.5, -1478498.1, 77009.62, 0.29818368, 0.23996644, -1454448.4, -47311.78, 0.0024150687, 9.997738, 10.000686 
1.6150758e+3, 1.6641597e+2, -1557262.4, -1532757.9, 95433.53, 0.25286266, 0.215089, -1448793.3, -139650.63, 0.0002938315, 9.9987955, 9.999133 
1.615064e+3, 1.7641471e+2, -1199684.3, -1279336.6, 88918.79, -0.10218383, 0.15478775, -1142080.1, 69077.67, 0.000004294035, 10.000451, 9.999398 
1.6150548e+3, 1.864142e+2, -1075362.6, -1117853.6, 67966.195, -0.15606904, 0.14124995, -1025398.7, 87762.47, 0.0, 10.000414, 9.99985 
1.6150472e+3, 1.9641417e+2, -1134150.9, -1107199.9, 90590.2, -0.0178393, 0.13237697, -1029088.44, -13931.137, 0.0, 9.999382, 9.999749 
1.615038e+3, 2.0641318e+2, -1051719.5, -1218794.1, 52855.47, -0.016907549, 0.16437556, -1036402.44, -119233.234, 0.0, 10.000157, 9.997935 
1.6150282e+3, 2.1641167e+2, -640523.5, -918545.75, 9421.916, -0.09530248, 0.1944547, -640204.56, 178984.98, 0.0, 10.00209, 9.998388 
1.6150202e+3, 2.264112e+2, -463083.16, -629529.3, 49973.832, -0.058837205, 0.23313606, -449231.7, 271960.94, 0.0, 10.001975, 9.999758 
1.6150129e+3, 2.3641135e+2, -556508.25, -637969.8, 99360.78, 0.04065986, 0.250864, -489853.9, 133331.44, 0.0, 10.000728, 9.999622 
1.6150023e+3, 2.46409e+2, -599077.0, -870596.6, 7545.2993, -0.025267955, 0.19008854, -598867.5, -73659.0, 0.0, 10.000877, 9.9972925 
1.61499e+3, 2.5640523e+2, -331934.63, -650406.9, -9098.117, -0.1852183, 0.059142254, -331674.9, 95573.94, 0.00000000987263, 10.001876, 9.997644 
1.6149822e+3, 2.6640397e+2, -78731.62, -398813.66, 88416.26, -0.0473567, 0.12893707, -55932.37, 273328.34, 0.000004852554, 10.002599, 9.99835 
1.6149771e+3, 2.7640405e+2, 105433.19, -258828.64, 120746.0, 0.2589871, 0.27734149, 141822.9, 373079.72, 0.00006378427, 10.003193, 9.99835 
1.6149662e+3, 2.864015e+2, 184847.73, -329857.53, 38528.0, 0.1677312, 0.2765915, 187715.75, 320995.63, 0.0003243077, 10.0037365, 9.996938 
1.6149522e+3, 2.9639775e+2, 361519.97, -185801.69, 41479.875, -0.15325403, 0.17024417, 364645.75, 399962.47, 0.0010126696, 10.004244, 9.997008 
1.6149446e+3, 3.0639422e+2, 384928.0, -224471.53, 120331.37, -0.016785307, 0.16793211, 407827.97, 407827.97, 0.0021994086, 10.00443, 9.99631 
1.6149399e+3, 3.163914e+2, 477429.0, -23118.557, 99951.77, 0.30174133, 0.22241122, 496649.78, 496649.78, 0.0037067733, 10.0043955, 9.997703 
1.6251108e+3, 1.2641981e+2, -2292136.0, -1776680.4, 84872.62, 0.23064464, -0.084481366, -1763065.3, -61970.508, 0.03179242, 9.995091, 10.001928 
1.6251004e+3, 1.3642566e+2, -1976814.1, -1617968.9, -46078.938, 0.08760582, 0.3222337, -1612146.4, -9104.288, 0.019603958, 9.996771, 10.001546 
1.6250885e+3, 1.4642578e+2, -1825420.9, -1622237.6, -49819.934, -0.120252214, 0.25224087, -1610679.5, -105636.305, 0.009062119, 9.99771, 10.0003805 
1.625083e+3, 1.5642534e+2, -1554822.0, -1434812.6, -23344.266, 0.23936342, 0.14668892, -1430431.6, -23383.617, 0.002624408, 9.998872, 10.000428 
1.6250744e+3, 1.6642536e+2, -1506059.1, -1503522.6, 33972.27, 0.21894667, 0.18108726, -1470795.0, -161744.7, 0.00032476612, 9.999134, 9.999163 
1.625064e+3, 1.764254e+2, -1436047.8, -1385591.0, 38635.06, -0.058671743, 0.24312238, -1364676.9, -153622.98, 0.000005034694, 9.998799, 9.999459 
1.6250551e+3, 1.8642475e+2, -1218706.4, -1165581.3, 5859.304, -0.105505325, 0.20184098, -1164942.8, -51885.305, 0.0, 9.99934, 10.000041 
1.6250472e+3, 1.9642386e+2, -970548.7, -1006537.75, 8253.008, -0.00697812, 0.0866436, -968746.4, 46313.137, 0.0, 10.000428, 9.999928 
1.6250384e+3, 2.0642284e+2, -975097.94, -1202660.4, 61742.336, -0.03176173, 0.11673181, -959425.4, -42353.707, 0.0, 10.000767, 9.997756 
1.6250293e+3, 2.1642168e+2, -857704.75, -1039100.25, 93646.52, -0.12854768, 0.20105278, -818034.7, 1055.2169, 0.0, 10.000661, 9.998257 
1.6250215e+3, 2.2642139e+2, -671962.3, -713591.2, 52994.973, -0.04069392, 0.25564927, -635840.75, 85250.875, 0.0, 10.000462, 9.999911 
1.6250142e+3, 2.3642163e+2, -618956.6, -656645.44, -1258.4271, 0.14237599, 0.2684985, -618914.7, 4168.7695, 0.0, 10.00024, 9.999735 
1.6250041e+3, 2.4641931e+2, -565724.5, -848178.3, -10488.906, 0.055128552, 0.2021346, -565335.5, -40229.29, 0.0, 10.001081, 9.997341 
1.6249919e+3, 2.564155e+2, -230383.83, -598801.4, 29267.383, -0.19614187, 0.05947992, -228073.3, 199073.67, 0.000000011745934, 10.00255, 9.997675 
1.6249844e+3, 2.664141e+2, -51286.035, -380678.22, 72190.84, -0.09642191, 0.11337323, -36159.1, 292999.78, 0.0000048598445, 10.00277, 9.99839 
1.6249792e+3, 2.764141e+2, -22516.578, -321224.22, 12851.093, 0.20525345, 0.25164145, -21964.715, 209189.31, 0.000062331186, 10.002316, 9.998343 
1.6249695e+3, 2.8641137e+2, 61199.68, -417925.44, -56839.6, 0.166384, 0.24521503, 67850.36, 201029.63, 0.00032084328, 10.00302, 9.996673 
1.6249573e+3, 2.9640728e+2, 370080.9, -201452.95, -68496.81, -0.075813994, 0.13759598, 378175.44, 413395.6, 0.0009993218, 10.004398, 9.996821 
1.6249496e+3, 3.0640382e+2, 443313.1, -185030.44, 12393.883, 0.033462353, 0.13580029, 443557.47, 443557.47, 0.0021563887, 10.004765, 9.996434 
1.6249439e+3, 3.1640044e+2, 481945.1, -53286.168, 11348.866, 0.2703146, 0.13116772, 482185.63, 482185.63, 0.0036075087, 10.004517, 9.997465 
1.6351031e+3, 1.264296e+2, -2252168.0, -1714167.3, 195368.38, -0.07111721, 0.017813733, -1650707.1, 50290.69, 0.03398967, 9.9951725, 10.002327 
1.6351007e+3, 1.3643247e+2, -2008297.1, -1686639.6, 4941.6367, 0.4338885, 0.17686969, -1686563.8, -83592.62, 0.02102759, 9.996785, 10.001067 
1.6350897e+3, 1.4643215e+2, -1806180.3, -1594357.1, -20123.135, 0.21051921, 0.077090725, -1592462.4, -87484.984, 0.009775217, 9.997753, 10.000554 
1.6350783e+3, 1.5643336e+2, -1542124.6, -1408240.8, 18023.254, -0.11210184, 0.11813714, -1405856.9, 1112.67, 0.002860367, 9.998868, 10.000614 
1.635071e+3, 1.664347e+2, -1481381.5, -1455774.3, 17239.064, -0.044492103, 0.25714427, -1447104.1, -138143.56, 0.00036087315, 9.99915, 9.999482 
1.6350658e+3, 1.7643566e+2, -1414913.4, -1343939.1, 34706.215, 0.22906248, 0.38144657, -1329789.0, -118833.59, 0.000005927034, 9.998813, 9.999739 
1.6350572e+3, 1.8643501e+2, -1212050.4, -1159847.8, 42735.633, 0.15575732, 0.32653663, -1135873.0, -22914.059, 0.0, 9.999369, 10.00007 
1.6350466e+3, 1.9643366e+2, -957609.2, -980861.9, 46812.24, -0.109046385, 0.16030794, -921001.1, 93964.3, 0.0, 10.00043, 10.000107 
1.6350381e+3, 2.0643292e+2, -905211.3, -1049790.6, 52171.46, -0.14301054, 0.15167205, -888351.3, 28619.936, 0.0, 10.000735, 9.99882 
1.635031e+3, 2.1643247e+2, -815352.44, -938017.1, 92932.35, -0.041815132, 0.20244698, -765338.1, 53639.39, 0.0, 10.000603, 9.99898 
1.6350226e+3, 2.2643143e+2, -774843.4, -906998.4, 40540.59, 0.01406974, 0.22384906, -763398.1, -42409.703, 0.0, 10.000372, 9.998629 
1.6350137e+3, 2.364301e+2, -695145.75, -798236.3, 4282.4966, 0.049217533, 0.20472832, -694968.1, -71966.62, 0.0, 10.000172, 9.998794 
1.6350053e+3, 2.4642898e+2, -507064.44, -705130.9, 41840.438, 0.069613196, 0.24017937, -498588.6, 26423.594, 0.0, 10.000991, 9.998367 
1.6349973e+3, 2.5642794e+2, -186829.27, -495065.88, 80127.35, 0.07277163, 0.27584642, -167244.25, 259777.53, 0.000000006263202, 10.002499, 9.99841 
1.6349876e+3, 2.6642483e+2, -135165.53, -548076.1, 50881.64, -0.06781253, 0.19279408, -128987.98, 200060.77, 0.000005059976, 10.002733, 9.997262 
1.6349769e+3, 2.764205e+2, -101712.37, -471984.28, 12543.339, -0.2785625, 0.005645899, -101287.94, 129798.27, 0.000060572125, 10.002254, 9.99734 
1.6349697e+3, 2.8641716e+2, 34569.863, -453885.34, -7262.185, -0.13247286, -0.010111898, 34677.81, 167796.92, 0.00031395786, 10.002938, 9.996465 
1.6349648e+3, 2.9641455e+2, 357132.44, -219408.05, -16139.112, 0.2131306, 0.05544322, 357583.88, 392731.53, 0.0009779993, 10.004359, 9.996718 
1.6349563e+3, 3.0641168e+2, 467062.28, -112373.945, -2503.2124, 0.22115494, 0.08972918, 467073.1, 467073.1, 0.0020963156, 10.004676, 9.996969 
1.6349451e+3, 3.1640834e+2, 459123.34, -56083.79, 31674.904, -0.0708928, 0.03046656, 461063.4, 461063.4, 0.0034770938, 10.004348, 9.997514 
1.645099e+3, 1.2643711e+2, -1918808.5, -1455219.6, 64342.23, -0.08229342, 0.1046923, -1446455.1, 254472.58, 0.036383986, 9.997021, 10.003265 
1.6450962e+3, 1.3643877e+2, -2182227.3, -1730440.3, -81451.555, 0.37888992, 0.10335144, -1716204.1, -113296.164, 0.022584815, 9.995434, 10.001416 
1.6450873e+3, 1.4643914e+2, -2053540.3, -1701743.3, -23830.26, 0.2833768, 0.051656358, -1700136.4, -195229.66, 0.010560797, 9.995999, 10.000667 
1.6450763e+3, 1.564407e+2, -1675632.0, -1451110.5, -5352.246, -0.15059602, 0.115968704, -1450983.0, -44086.1, 0.0031241647, 9.997845, 10.000818 
1.6450699e+3, 1.6644225e+2, -1459299.3, -1362409.8, -19430.709, -0.07697757, 0.22232899, -1358658.3, -49773.715, 0.0004029895, 9.998937, 10.000235 
1.6450655e+3, 1.7644347e+2, -1240391.4, -1189950.9, 22336.854, 0.28334227, 0.29975763, -1181481.4, 29392.209, 0.0000070009137, 9.999704, 10.000373 
1.6450572e+3, 1.8644339e+2, -1167996.4, -1153927.0, 44553.535, 0.21877754, 0.2840946, -1115856.1, -2983.8198, 0.0, 9.99975, 9.999918 
1.6450466e+3, 1.964427e+2, -1104958.1, -1060916.6, 22966.22, -0.09775085, 0.19962698, -1051119.8, -36244.13, 0.0, 9.999457, 10.000026 
1.6450384e+3, 2.0644182e+2, -1051885.5, -1058134.0, -4142.5854, -0.1203306, 0.1485622, -1049821.1, -132939.97, 0.0, 9.999448, 9.999384 
1.6450316e+3, 2.1644083e+2, -929081.3, -940502.0, -3274.5576, 0.026317671, 0.08785079, -928209.06, -109321.01, 0.0, 9.9995985, 9.999437 
1.6450232e+3, 2.2643952e+2, -761402.4, -933861.9, 6765.843, 0.034641843, 0.07853042, -761137.3, -40236.21, 0.0, 10.000611, 9.998329 
1.645014e+3, 2.36438e+2, -429566.2, -703220.44, 32505.965, -0.038357135, 0.07189851, -425757.97, 197159.83, 0.0, 10.00213, 9.998509 
1.6450067e+3, 2.464372e+2, -291955.63, -609699.8, 51614.08, 0.024499547, 0.15622258, -283781.75, 241144.95, 0.0, 10.002511, 9.998288 
1.6450004e+3, 2.5643682e+2, -232166.89, -534751.25, -4875.146, 0.14992599, 0.2682166, -232088.36, 194842.48, 0.000000005166704, 10.002267, 9.99825 
1.6449907e+3, 2.6643342e+2, -188320.86, -631547.25, -46635.54, -0.0108697545, 0.18839416, -183467.11, 145495.17, 0.000005473011, 10.002621, 9.996741 
1.644979e+3, 2.7642813e+2, 28761.564, -461329.16, -53521.78, -0.33223557, -0.03961681, 34538.473, 265548.63, 0.000058693688, 10.003381, 9.996868 
1.6449726e+3, 2.8642443e+2, 68519.47, -457980.3, -35308.715, -0.16573706, -0.057277877, 70876.83, 203923.75, 0.00030226927, 10.003267, 9.996275 
1.6449688e+3, 2.96422e+2, 100832.99, -351373.56, -51120.746, 0.27647159, 0.040428404, 106540.03, 141614.4, 0.00094657025, 10.002647, 9.996629 
1.6449612e+3, 3.0641937e+2, 360045.03, -118340.62, -15024.546, 0.28969, 0.07934284, 360516.44, 360516.44, 0.0020278285, 10.003711, 9.997401 
1.6449502e+3, 3.1641677e+2, 660944.75, 53675.027, -6183.3774, -0.06831489, 0.055022907, 661007.7, 661007.7, 0.0033499354, 10.005667, 9.997637 
1.6550982e+3, 1.2644279e+2, -1797759.3, -1231571.9, -32816.91, 0.09338293, 0.21191604, -1229676.1, 471203.7, 0.03897044, 9.997094, 10.00483 
1.6550869e+3, 1.3644473e+2, -2102156.8, -1567472.0, -120612.81, -0.10482347, 0.102072746, -1541523.8, 61327.383, 0.024272982, 9.995439, 10.002543 
1.6550812e+3, 1.4644681e+2, -2047215.9, -1697485.8, 41520.805, 0.06799118, 0.1714484, -1692623.9, -187793.42, 0.0114189135, 9.996034, 10.00068 
1.6550764e+3, 1.564475e+2, -1661545.0, -1426051.3, 61378.19, 0.07357169, 0.14586076, -1411014.1, -4185.3506, 0.0034161112, 9.997864, 10.000981 
1.6550702e+3, 1.6644816e+2, -1366580.3, -1184457.6, 3258.3452, 0.0597114, 0.09181733, -1184399.4, 124420.88, 0.00045137366, 9.998989, 10.001434 
1.6550632e+3, 1.7644896e+2, -1170413.1, -1044637.0, 48685.168, 0.07683573, 0.0050206846, -1027994.2, 182812.69, 0.000008273259, 9.999701, 10.001374 
1.6550554e+3, 1.8644992e+2, -1195436.6, -1213887.0, 29132.64, 0.05219701, 0.07327722, -1174103.4, -61306.21, 0.0, 9.99976, 9.999504 
1.655047e+3, 1.9645095e+2, -1131031.8, -1112435.1, 18045.588, -0.010337951, 0.20370291, -1101433.1, -86642.984, 0.0, 9.999446, 9.999679 
1.655039e+3, 2.0644958e+2, -1051125.9, -1045128.0, -1345.0427, -0.011003637, 0.11390637, -1044840.2, -128039.73, 0.0, 9.999404, 9.999493 
1.6550314e+3, 2.164469e+2, -922573.2, -915187.75, 12733.632, 0.036975957, -0.1296824, -905622.2, -86801.8, 0.0, 9.999552, 9.999634 
1.6550232e+3, 2.2644569e+2, -723569.75, -841914.0, 59401.723, -0.028802605, -0.174935, -698897.3, 21932.254, 0.0, 10.000547, 9.998994 
1.6550149e+3, 2.3644535e+2, -410993.56, -650657.2, 86678.44, -0.16089849, -0.12864013, -382930.78, 239901.67, 0.0, 10.002068, 9.998902 
1.6550077e+3, 2.46444e+2, -387367.72, -791842.2, 38823.426, -0.13187696, -0.045947358, -383674.97, 141174.73, 0.0, 10.0024395, 9.997073 
1.6550012e+3, 2.5644207e+2, -315402.4, -690557.06, -3295.6636, -0.000054541593, 0.029782753, -315373.47, 111501.58, 0.00000000856411, 10.002198, 9.9972105 
1.6549939e+3, 2.6643965e+2, -196776.89, -637396.6, -21051.873, 0.037039127, 0.09588207, -195773.36, 133127.3, 0.0000057188686, 10.002564, 9.996731 
1.654986e+3, 2.7643687e+2, 21249.04, -466574.6, -24721.18, 0.011082816, 0.11799922, 22498.62, 253425.53, 0.000057056757, 10.003332, 9.996857 
1.6549776e+3, 2.8643328e+2, 48525.227, -485210.06, -62712.76, 0.020800963, 0.11785132, 55794.83, 188757.39, 0.00029066612, 10.0032015, 9.996121 
1.6549695e+3, 2.9642937e+2, 84339.2, -371939.9, -51118.375, 0.07015861, 0.082081676, 89996.02, 124998.484, 0.00091773167, 10.002582, 9.996521 
1.654964e+3, 3.064266e+2, 359748.25, -78406.445, 56631.207, 0.19393648, 0.093361504, 366949.44, 366949.44, 0.0019788642, 10.003563, 9.997733 
1.6549587e+3, 3.1642583e+2, 636698.2, 60647.113, 80304.68, 0.21126644, 0.2176346, 647683.6, 647683.6, 0.003275254, 10.005446, 9.997777 
1.665094e+3, 1.264488e+2, -2273432.0, -1533770.5, 87577.57, 0.12801342, 0.16399765, -1523542.5, 177273.5, 0.041736465, 9.9941635, 10.004111 
1.6650821e+3, 1.3645057e+2, -1828076.3, -1440712.1, -66414.03, -0.20890532, 0.054020353, -1429641.8, 173150.2, 0.026087236, 9.997319, 10.002533 
1.6650786e+3, 1.4645365e+2, -1693145.8, -1497043.9, 77501.25, 0.090703316, 0.20439467, -1470113.1, 34648.094, 0.012349877, 9.998342, 10.000941 
1.665075e+3, 1.5645362e+2, -1636119.1, -1382024.1, 102881.266, 0.13495103, 0.082528785, -1345592.0, 61172.195, 0.003737191, 9.997908, 10.001262 
1.6650687e+3, 1.6645427e+2, -1544097.5, -1222176.3, 11591.801, 0.088481374, -0.0095154345, -1221759.4, 86995.086, 0.00050616945, 9.997584, 10.001841 
1.6650616e+3, 1.764556e+2, -1462614.6, -1146763.5, -9488.315, 0.047194712, -0.08438049, -1146478.8, 64255.96, 0.000009797576, 9.997534, 10.001708 
1.6650543e+3, 1.8645653e+2, -1395867.4, -1317626.9, -18055.268, 0.028521825, -0.032145135, -1313661.4, -200935.38, 0.0, 9.998407, 9.999447 
1.6650468e+3, 1.964571e+2, -1069491.8, -1083139.6, -10003.924, -0.0057988395, 0.057642218, -1064206.0, -49481.406, 0.0, 9.999871, 9.999669 
1.6650392e+3, 2.064563e+2, -845185.06, -940304.94, -20161.441, 0.0029313304, 0.017962461, -841088.1, 75642.484, 0.0, 10.000796, 9.999544 
1.6650319e+3, 2.164547e+2, -653183.4, -786450.6, -18794.928, 0.046517428, -0.118933775, -650583.44, 168157.16, 0.0, 10.001401, 9.999634 
1.6650245e+3, 2.264536e+2, -663638.9, -837459.44, -10488.898, 0.011461059, -0.14044388, -663008.25, 57741.55, 0.0, 10.001069, 9.998768 
1.6650169e+3, 2.3645277e+2, -692909.75, -804999.2, -58212.074, -0.07996306, -0.12113195, -668148.2, -45389.543, 0.0, 10.000214, 9.998728 
1.6650097e+3, 2.4645108e+2, -612619.94, -889195.44, -50339.766, -0.09659586, -0.07230784, -603742.5, -78963.914, 0.0, 10.000837, 9.997183 
1.6650029e+3, 2.564489e+2, -281880.03, -662832.56, -1684.0043, -0.06700351, -0.03534079, -281872.56, 144932.58, 0.0000000057748837, 10.00237, 9.997322 
1.6649969e+3, 2.6644677e+2, -62739.074, -554743.06, 38738.71, 0.024781426, 0.050648067, -59707.598, 269120.22, 0.0000055479773, 10.003413, 9.996886 
1.664991e+3, 2.764448e+2, 157086.55, -386065.25, 28806.125, 0.13558921, 0.13830572, 158610.02, 389457.6, 0.000055266635, 10.004192, 9.996998 
1.6649821e+3, 2.8644133e+2, 237490.47, -373053.38, -17770.977, 0.094183646, 0.13267368, 238007.3, 370888.1, 0.00028124312, 10.004404, 9.996315 
1.6649719e+3, 2.9643705e+2, 339201.0, -240024.0, 9016.756, -0.020625323, 0.04453551, 339341.34, 374262.63, 0.0008989328, 10.004298, 9.996599 
1.6649674e+3, 3.0643368e+2, 382698.75, -151985.89, 127050.336, 0.15987094, 0.032707628, 411352.56, 411352.56, 0.0019605802, 10.004068, 9.996995 
1.6649646e+3, 3.1643298e+2, 343382.66, -142652.56, 52161.535, 0.34284702, 0.24233218, 348917.63, 348917.63, 0.0032687788, 10.003669, 9.997248 
1.6750865e+3, 1.264548e+2, -2467333.3, -1934241.9, 118510.836, -0.0752829, -0.059787992, -1909083.3, -208343.66, 0.044670317, 9.994196, 10.001287 
1.6750818e+3, 1.3645644e+2, -1910042.5, -1604191.1, 41536.164, 0.016976885, -0.030410346, -1598650.6, 4078.3801, 0.028026333, 9.997314, 10.00138 
1.6750792e+3, 1.4645976e+2, -1646192.6, -1410985.3, 60357.355, 0.29182628, 0.15460654, -1396401.0, 108296.734, 0.013357116, 9.998379, 10.001522 
1.6750717e+3, 1.564592e+2, -1609323.3, -1329172.4, 92345.69, 0.0050826008, -0.07271421, -1301471.6, 105230.62, 0.004090086, 9.997911, 10.001628 
1.6750653e+3, 1.664605e+2, -1568718.8, -1279013.9, 3189.913, -0.027223678, -0.09215201, -1278978.8, 29708.799, 0.0005678562, 9.997609, 10.001437 
1.6750602e+3, 1.7646338e+2, -1486462.5, -1194650.6, -1598.86, 0.16007829, 0.032056853, -1194641.9, 16014.889, 0.000011659807, 9.99753, 10.001382 
1.6750535e+3, 1.8646325e+2, -1367054.5, -1264892.6, 33528.86, 0.10054516, -0.026978564, -1254871.6, -142213.92, 0.0, 9.998432, 9.9998 
1.6750455e+3, 1.9646125e+2, -1050944.4, -1041041.5, 43674.098, -0.12265143, -0.23243693, -1002039.06, 12639.421, 0.0, 9.999856, 9.999968 
1.675039e+3, 2.0646194e+2, -846660.4, -939099.94, -1884.5651, -0.121914595, -0.13570355, -846621.94, 70049.79, 0.0, 10.000775, 9.999563 
1.6750333e+3, 2.1646419e+2, -673467.5, -817282.5, 685.1489, 0.022380669, 0.11419341, -673464.25, 145184.88, 0.0, 10.001347, 9.999451 
1.6750266e+3, 2.2646315e+2, -758045.1, -1012104.7, -46417.906, 0.111371264, 0.17425437, -749830.0, -29167.46, 0.0, 10.00098, 9.99761 
1.6750197e+3, 2.3646022e+2, -756985.3, -924222.1, -73390.055, 0.16873997, 0.09559331, -729346.6, -106649.98, 0.0, 10.000156, 9.997936 
1.6750124e+3, 2.4645841e+2, -521849.34, -686111.06, 3279.2756, 0.07960988, 0.08296519, -521783.9, 2929.8098, 0.0, 10.0007715, 9.998609 
1.675005e+3, 2.5645724e+2, -202982.42, -482435.47, 59078.76, -0.09079754, 0.08294034, -191005.94, 235714.69, 0.0000000017385277, 10.0023, 9.998593 
1.6749991e+3, 2.6645485e+2, -52847.51, -519432.7, 65027.56, -0.09334627, 0.0659004, -43954.19, 284788.8, 0.0000048816705, 10.0033455, 9.997165 
1.674994e+3, 2.7645168e+2, 168454.53, -348529.5, 61583.16, 0.0018024691, 0.011553573, 175689.08, 406463.22, 0.00005151775, 10.00413, 9.997289 
1.6749859e+3, 2.8644833e+2, 260940.75, -306000.6, -23669.934, 0.002750091, -0.022039706, 261927.27, 394730.9, 0.00026885065, 10.004323, 9.996814 
1.6749762e+3, 2.9644495e+2, 340992.16, -222804.92, 16345.825, -0.046596114, -0.06807912, 341465.66, 376297.1, 0.000877451, 10.0042305, 9.996754 
1.6749713e+3, 3.0644053e+2, 233248.53, -424196.0, 109194.9, 0.1318502, -0.09292587, 250910.23, 250910.23, 0.0019473834, 10.003921, 9.995188 
1.6749674e+3, 3.1643814e+2, 228411.31, -333058.47, 60943.355, 0.23742682, 0.12584147, 234950.11, 234950.11, 0.0032898928, 10.003488, 9.996014 
1.6850825e+3, 1.2646078e+2, -1944834.5, -1811430.6, -14064.017, -0.10712172, -0.1357572, -1809964.0, -109289.33, 0.04776628, 9.998342, 10.000126 
1.685079e+3, 1.3646206e+2, -2082766.0, -1709913.4, 35981.887, 0.05866155, -0.10298032, -1706472.8, -103802.484, 0.030093629, 9.996244, 10.001157 
1.6850764e+3, 1.4646536e+2, -1968257.6, -1537197.1, 62971.734, 0.2902223, 0.069566794, -1528186.3, -23545.848, 0.0144471, 9.996055, 10.001765 
1.6850688e+3, 1.5646587e+2, -1749027.0, -1382488.6, 58578.098, -0.02062924, -0.0731347, -1373354.6, 33279.508, 0.004479329, 9.996896, 10.001747 
1.6850628e+3, 1.6646716e+2, -1580300.9, -1350077.1, -25093.504, -0.03758879, -0.063623, -1347373.8, -38752.48, 0.0006375465, 9.9978075, 10.000858 
1.6850586e+3, 1.764694e+2, -1317930.8, -1158123.6, -43364.387, 0.17300613, 0.049216595, -1147114.9, 63485.152, 0.00001399049, 9.998877, 10.000984 
1.6850527e+3, 1.8646958e+2, -1246315.4, -1158755.4, 972.84235, 0.14214613, 0.015562756, -1158744.6, -46146.906, 0.0, 9.999069, 10.000213 
1.6850455e+3, 1.9646843e+2, -1175211.9, -1063410.9, 8047.4937, -0.058585476, -0.1448553, -1062834.5, -48226.344, 0.0, 9.998837, 10.000306 
1.6850391e+3, 2.0646876e+2, -1111314.5, -1061583.4, -33309.57, -0.09224387, -0.09855498, -1044881.9, -128278.18, 0.0, 9.99894, 9.999605 
1.6850331e+3, 2.1647012e+2, -973792.44, -951335.6, -34788.23, -0.015825734, 0.053863492, -926008.6, -107419.32, 0.0, 9.999254, 9.999529 
1.685027e+3, 2.2646928e+2, -774715.3, -1025020.3, -6878.4634, 0.07409975, 0.13123994, -774526.44, -53925.742, 0.0, 10.000876, 9.99758 
1.6850212e+3, 2.3646717e+2, -312727.28, -710818.06, 38045.945, 0.16112532, 0.13563609, -309123.8, 313503.34, 0.0, 10.003212, 9.997934 
1.6850145e+3, 2.4646516e+2, -150275.31, -499583.78, 68752.25, 0.0873211, 0.103856325, -137230.39, 387414.34, 0.0, 10.003291, 9.998673 
1.6850074e+3, 2.5646326e+2, -229683.7, -487517.9, 14370.723, -0.08254931, 0.02018767, -228885.2, 197772.14, 0.0000000018399801, 10.002072, 9.9986725 
1.6850016e+3, 2.6646072e+2, -231961.77, -578665.75, 8975.659, -0.10993873, -0.022947313, -231729.55, 96950.84, 0.0000039092515, 10.001998, 9.997406 
1.6849966e+3, 2.7645782e+2, -26449.271, -409433.34, -9215.412, -0.057706814, -0.07896817, -26227.656, 204482.31, 0.000046398793, 10.002658, 9.997572 
1.6849893e+3, 2.8645498e+2, 191491.8, -300627.88, -96275.31, -0.038747266, -0.093643695, 209656.08, 342390.56, 0.0002549296, 10.003677, 9.997162 
1.6849807e+3, 2.9645243e+2, 457204.7, -137594.2, -84046.07, -0.040866237, -0.0929935, 468852.47, 503606.5, 0.0008502066, 10.004909, 9.997011 
1.684976e+3, 3.064478e+2, 410601.34, -394715.34, 58584.15, 0.15769729, -0.11894549, 414840.84, 414840.84, 0.0019210442, 10.005364, 9.994703 
1.6849717e+3, 3.1644395e+2, 483885.9, -234834.55, 81117.83, 0.25049874, 0.0012137855, 492927.47, 492927.47, 0.003294295, 10.005308, 9.995837 
1.6950811e+3, 1.264664e+2, -1900493.6, -1733056.4, -141493.45, -0.0890295, -0.11074165, -1652369.4, 48254.19, 0.051028147, 9.998385, 10.000662 
1.6950735e+3, 1.3646759e+2, -2044062.4, -1623238.5, -21877.8, -0.10970697, -0.15835789, -1622104.1, -19489.676, 0.032295942, 9.996214, 10.00177 
1.6950701e+3, 1.4647034e+2, -1969214.6, -1545583.4, 91513.23, 0.056149445, -0.062576234, -1526660.0, -22070.197, 0.015627254, 9.996078, 10.0016985 
1.6950661e+3, 1.5647364e+2, -1762621.3, -1411855.9, 94417.445, 0.012444211, 0.08741516, -1388055.9, 18503.615, 0.004910431, 9.9969015, 10.001545 
1.6950613e+3, 1.6647433e+2, -1618654.9, -1438748.9, 10135.592, -0.0014099763, 0.08164649, -1438179.6, -129624.695, 0.0007170378, 9.997844, 10.000234 
1.6950564e+3, 1.7647375e+2, -1351367.4, -1229632.8, -6653.4185, 0.05480557, -0.024438273, -1229270.3, -18707.096, 0.000016975888, 9.998881, 10.000494 
1.6950515e+3, 1.8647555e+2, -1210130.6, -1090049.0, -12788.529, 0.11184984, 0.09539622, -1088702.1, 23843.652, 0.0, 9.999093, 10.000674 
1.6950466e+3, 1.964786e+2, -1150841.0, -1008528.9, 5498.041, 0.14725806, 0.31339267, -1008316.8, 6197.64, 0.0, 9.99882, 10.000692 
1.6950394e+3, 2.0647688e+2, -1111730.3, -1053771.0, -27129.63, 0.048529603, 0.13307226, -1043053.8, -126527.87, 0.0, 9.998902, 9.999679 
1.6950315e+3, 2.1647255e+2, -963801.9, -924002.9, -8263.067, -0.11113176, -0.29004464, -922355.44, -103794.66, 0.0, 9.99922, 9.999737 
1.6950257e+3, 2.2647198e+2, -702444.9, -860579.2, 77333.05, -0.15608828, -0.26175046, -670913.6, 49650.887, 0.0, 10.000814, 9.998737 
1.6950215e+3, 2.3647353e+2, -271332.47, -605414.4, 114602.3, -0.14043818, -0.0024265787, -235799.06, 386751.6, 0.0, 10.003125, 9.998702 
1.6950159e+3, 2.4647121e+2, -260934.38, -700863.8, 19926.855, -0.11660097, -0.022447627, -260033.63, 264539.75, 0.0, 10.003172, 9.997348 
1.6950095e+3, 2.5646678e+2, -319609.7, -655569.0, -15522.211, -0.08033969, -0.22646311, -318894.06, 107722.43, 0.0000000033657745, 10.001997, 9.997554 
1.695004e+3, 2.6646438e+2, -229893.48, -555919.6, 30800.756, -0.07952727, -0.21977413, -227009.14, 101632.09, 0.0000030031388, 10.001917, 9.9976 
1.694999e+3, 2.7646315e+2, -24828.328, -387541.4, 26131.78, -0.09467393, -0.1287783, -22955.326, 207700.34, 0.000041424442, 10.0025835, 9.997754 
1.6949928e+3, 2.8646123e+2, 192982.23, -280850.9, -53943.75, -0.07829532, -0.06891861, 199045.89, 331719.6, 0.00024197518, 10.003601, 9.997337 
1.6949858e+3, 2.964591e+2, 468300.1, -99658.36, -35194.598, -0.042888954, -0.044598963, 470472.7, 505165.16, 0.0008200037, 10.004837, 9.997311 
1.6949819e+3, 3.0645514e+2, 445042.13, -281856.88, 53911.13, 0.18609765, -0.068244845, 449018.75, 449018.75, 0.0018730989, 10.005204, 9.995546 
1.6949776e+3, 3.1645072e+2, 525417.94, -83970.76, 89002.16, 0.2706354, -0.08841989, 538150.75, 538150.75, 0.0032468883, 10.005066, 9.996972 
1.7050779e+3, 1.26473e+2, -2475521.0, -1897507.3, -112089.82, -0.027027017, 0.030470792, -1876531.8, -175965.42, 0.054460447, 9.99395, 10.001663 
1.7050707e+3, 1.3647394e+2, -1809370.1, -1480992.9, -27522.896, -0.0816918, -0.09201669, -1478702.0, 123852.34, 0.034638863, 9.997664, 10.002083 
1.7050667e+3, 1.464757e+2, -1718056.1, -1473377.8, 30442.223, -0.00024601002, -0.07806972, -1469647.0, 34891.26, 0.016903277, 9.99802, 10.001257 
1.7050634e+3, 1.5647937e+2, -1826961.8, -1472832.5, 8747.799, 0.08092363, 0.14689681, -1472616.5, -66110.664, 0.00538814, 9.996596, 10.0012665 
1.7050593e+3, 1.6648014e+2, -1736683.4, -1463624.4, 19265.348, 0.075859606, 0.14096552, -1462271.8, -153771.73, 0.0008082668, 9.996892, 10.0005245 
1.7050548e+3, 1.7647925e+2, -1427495.4, -1238417.8, 57544.9, 0.045191467, -0.025199164, -1222281.4, -11772.0205, 0.000020835996, 9.9982395, 10.000746 
1.7050505e+3, 1.8648086e+2, -1258531.8, -1123726.0, 18366.414, 0.10579097, 0.07409568, -1121268.5, -8775.341, 0.0, 9.998802, 10.000588 
1.7050458e+3, 1.9648394e+2, -1134464.0, -1011752.0, -5253.482, 0.20491529, 0.30100036, -1011527.5, 2934.789, 0.0, 9.998981, 10.000592 
1.7050394e+3, 2.0648207e+2, -965780.2, -1023366.1, -29100.96, 0.103723414, 0.13093646, -953635.4, -37159.72, 0.0, 10.000082, 9.9993105 
1.7050318e+3, 2.1647747e+2, -613951.3, -783151.75, -54862.62, -0.11135453, -0.28486788, -597719.5, 220794.13, 0.0, 10.001745, 9.999485 
1.7050266e+3, 2.2647664e+2, -633149.7, -767498.5, -32098.38, -0.1691026, -0.30000496, -625874.75, 94643.1, 0.0, 10.001041, 9.999263 
1.7050226e+3, 2.3647796e+2, -838808.4, -825548.3, -49648.785, -0.1347372, -0.11673658, -782088.9, -159585.73, 0.0, 9.999004, 9.9991665 
1.7050174e+3, 2.464761e+2, -721574.0, -927929.44, -66026.76, -0.11624434, -0.10913327, -702256.1, -177734.11, 0.0, 10.000029, 9.997307 
1.7050116e+3, 2.5647247e+2, -197170.53, -593845.06, -18644.078, -0.10979636, -0.22844869, -196296.17, 230263.81, 0.0000000026261497, 10.002831, 9.997573 
1.7050067e+3, 2.6647037e+2, -3742.5818, -424947.47, 44614.16, -0.06365117, -0.20668757, 931.1056, 329513.28, 0.0000021613648, 10.003385, 9.99779 
1.7050026e+3, 2.7646917e+2, -14.983713, -356641.28, 32586.271, 0.00017876063, -0.12849075, 2938.0918, 233532.89, 0.000036573332, 10.002672, 9.997928 
1.7049971e+3, 2.864675e+2, 132063.78, -289262.25, 3872.8286, 0.026729694, -0.06069993, 132099.38, 264710.63, 0.00022739316, 10.003101, 9.997517 
1.704991e+3, 2.9646558e+2, 395689.63, -109509.05, 908.6157, 0.031952064, -0.031645622, 395691.25, 430321.1, 0.00078073447, 10.00423, 9.997536 
1.7049873e+3, 3.0646232e+2, 456761.5, -216426.53, 56078.06, 0.21896836, -0.02429395, 461400.94, 461400.94, 0.0017917925, 10.005026, 9.9960785 
1.7049825e+3, 3.1645814e+2, 633019.56, 11382.843, 22362.873, 0.24882446, -0.074943975, 633823.0, 633823.0, 0.0031246087, 10.005603, 9.997368 
1.7150724e+3, 1.2648056e+2, -2365622.0, -1676067.0, 62244.26, -0.0069920565, 0.27428514, -1670493.5, 30008.838, 0.058051143, 9.993972, 10.003182 
1.7150703e+3, 1.3648134e+2, -1818139.8, -1492137.5, 88137.28, 0.08343941, 0.107815064, -1469834.6, 132653.2, 0.037118543, 9.997638, 10.002022 
1.7150652e+3, 1.4648162e+2, -1766049.0, -1585397.3, -28481.803, 0.051531233, 0.030544551, -1581013.3, -76528.67, 0.018276531, 9.998063, 10.00047 
1.7150609e+3, 1.5648307e+2, -1854445.3, -1534450.5, -25851.955, 0.1461113, 0.10293514, -1532375.4, -125902.13, 0.005915651, 9.996609, 10.000842 
1.7150572e+3, 1.6648453e+2, -1647165.5, -1281413.3, 63339.82, 0.15700324, 0.112196945, -1270754.9, 37701.977, 0.0009130136, 9.996911, 10.001763 
1.7150538e+3, 1.7648584e+2, -1365985.0, -1103536.3, 104687.81, 0.10620751, 0.047917195, -1066893.5, 143545.42, 0.000025810483, 9.998214, 10.001681 
1.715049e+3, 1.8648559e+2, -1298673.8, -1209051.1, 20410.13, 0.07695008, -0.04518912, -1204621.9, -92182.016, 0.0, 9.998806, 10.000001 
1.7150436e+3, 1.9648454e+2, -1177919.0, -1103407.8, 14209.578, 0.07154316, -0.17389326, -1100789.9, -86338.99, 0.0, 9.998985, 9.999963 
1.7150389e+3, 2.0648439e+2, -1021992.44, -1138830.5, 31319.908, 0.018450748, -0.10072658, -1014126.3, -97673.89, 0.0, 10.000077, 9.99852 
1.7150342e+3, 2.1648476e+2, -674584.56, -890303.6, -7542.3267, -0.05634326, 0.06092908, -674321.2, 144127.3, 0.0, 10.001666, 9.998786 
1.7150295e+3, 2.2648312e+2, -658247.3, -796169.6, -113708.83, 0.000676337, 0.0028372295, -594222.25, 126239.76, 0.0, 10.000939, 9.999118 
1.7150243e+3, 2.3648043e+2, -843670.3, -820203.3, -96121.6, 0.12971343, -0.20236528, -735101.7, -112616.88, 0.0, 9.9989395, 9.999235 
1.7150189e+3, 2.464798e+2, -638890.1, -742503.6, 35872.703, 0.024593461, -0.1510481, -627682.6, -103191.47, 0.0, 9.999966, 9.99861 
1.7150134e+3, 2.564803e+2, -128417.164, -435462.56, 74637.984, -0.2105028, 0.014797215, -111235.305, 315253.25, 0.0000000000058928205, 10.002763, 9.998693 
1.71501e+3, 2.664786e+2, -6375.862, -412260.9, 13348.884, -0.10623868, 0.022352362, -5937.313, 322566.66, 0.0000014626683, 10.003306, 9.997917 
1.7150073e+3, 2.7647567e+2, -3990.2356, -342358.03, 22725.123, 0.18552889, -0.08325744, -2470.8162, 228058.38, 0.000032081512, 10.00258, 9.99807 
1.7150024e+3, 2.8647354e+2, 125494.734, -278991.72, 42511.727, 0.22127545, -0.07895775, 129914.445, 262463.63, 0.00021176567, 10.0029955, 9.997639 
1.7149962e+3, 2.964718e+2, 389116.78, -99394.86, 52587.965, 0.121177346, -0.04532806, 394713.72, 429280.13, 0.00073353085, 10.0041275, 9.997653 
1.7149922e+3, 3.0646938e+2, 443201.2, -209417.27, 74734.64, 0.18868692, 0.036651995, 451650.03, 451650.03, 0.0016856325, 10.004884, 9.996194 
1.714987e+3, 3.164654e+2, 578668.94, -40236.52, 44296.473, 0.106304824, -0.0029334435, 581823.3, 581823.3, 0.0029491729, 10.005364, 9.99712 
1.7250693e+3, 1.264853e+2, -1657894.5, -1349309.1, 120709.86, 0.037322182, 0.22147727, -1307701.1, 392753.94, 0.06177432, 9.998815, 10.003237 
1.7250668e+3, 1.3648647e+2, -2326518.8, -1778372.6, 30648.178, 0.13676062, 0.13815102, -1776664.4, -174225.55, 0.039721623, 9.994356, 10.0016 
1.7250618e+3, 1.4648703e+2, -2155730.0, -1717570.9, 30865.861, 0.050731067, 0.083299376, -1715407.3, -210976.69, 0.019743169, 9.995149, 10.000971 
1.725059e+3, 1.564873e+2, -1449624.8, -1292028.8, 105316.8, 0.16895781, -0.017036155, -1239294.5, 167132.2, 0.006494274, 9.999167, 10.0012865 
1.7250559e+3, 1.6648862e+2, -1347126.3, -1181723.0, 104764.51, 0.22362256, -0.017070374, -1130951.3, 177460.02, 0.001032908, 9.999166, 10.00136 
1.7250523e+3, 1.7649044e+2, -1573698.8, -1245932.1, 28602.584, 0.20493, 0.00812731, -1243454.9, -33064.824, 0.00003215152, 9.996971, 10.001298 
1.7250477e+3, 1.8649015e+2, -1455441.1, -1324351.0, -15668.088, 0.11270525, -0.054569207, -1322504.4, -210110.34, 0.0, 9.997904, 9.999644 
1.7250426e+3, 1.964887e+2, -941534.06, -1011663.94, -20812.06, -0.013227497, -0.1888951, -935822.9, 78588.81, 0.0, 10.000703, 9.9997635 
1.7250386e+3, 2.0648919e+2, -884813.5, -1011089.9, 26403.633, -0.042504635, -0.07399526, -879514.94, 36892.355, 0.0, 10.000746, 9.999083 
1.7250352e+3, 2.1649078e+2, -990622.56, -997091.2, 81682.83, -0.016334899, 0.15381882, -912110.06, -93719.25, 0.0, 9.999291, 9.999202 
1.7250307e+3, 2.2648892e+2, -762421.9, -900269.44, 14385.53, 0.070445806, 0.08439762, -760936.6, -40529.523, 0.0, 10.000462, 9.998628 
1.7250258e+3, 2.3648523e+2, -258477.48, -583379.2, -2516.1035, 0.17745867, -0.17033337, -258458.0, 363982.84, 0.0, 10.003153, 9.998833 
1.725021e+3, 2.4648468e+2, -160367.73, -485184.16, 85520.53, 0.07162491, -0.106061265, -139227.08, 385219.56, 0.0, 10.003149, 9.998837 
1.7250161e+3, 2.564859e+2, -271495.22, -471306.9, 31863.764, -0.15743835, 0.10887649, -266537.0, 159899.5, 0.0000000000049057277, 10.001642, 9.998984 
1.725013e+3, 2.6648435e+2, -130852.64, -394816.2, -28610.244, -0.06792849, 0.076600775, -127787.26, 200660.67, 0.0000011502509, 10.002115, 9.998609 
1.7250104e+3, 2.7648118e+2, 202211.73, -184450.2, 11939.856, 0.19695085, -0.12224707, 202580.08, 433051.47, 0.000029088935, 10.003735, 9.9986 
1.7250058e+3, 2.8647858e+2, 252701.3, -259066.83, 31357.977, 0.23216644, -0.16343167, 254615.56, 387110.66, 0.0002003837, 10.004053, 9.997264 
1.7250001e+3, 2.964763e+2, 305600.06, -167381.14, -13632.755, 0.13000828, -0.14410497, 305992.66, 340511.16, 0.00069333543, 10.003686, 9.99739 
1.7249963e+3, 3.0647418e+2, 361688.72, -221904.36, 29043.494, 0.16551855, -0.04157431, 363130.56, 363130.56, 0.0015908227, 10.004189, 9.996456 
1.7249922e+3, 3.1647143e+2, 537442.75, -80880.58, -24703.393, 0.109545454, 0.023942146, 538428.1, 538428.1, 0.002788529, 10.005133, 9.996976 
1.735068e+3, 1.2648752e+2, -1752525.5, -1538432.0, 23555.842, 0.010026295, -0.10067978, -1535870.9, 164550.7, 0.06561491, 9.998814, 10.001856 
1.7350602e+3, 1.3648929e+2, -2382259.5, -1894403.9, -97241.92, 0.036756963, -0.0052199303, -1875735.5, -273328.06, 0.042436883, 9.994355, 10.000807 
1.7350563e+3, 1.4649184e+2, -2026619.3, -1458518.4, 178544.36, -0.042153805, 0.07235192, -1407065.1, 97312.49, 0.021297567, 9.995177, 10.002748 
1.7350575e+3, 1.5649214e+2, -1364141.3, -1107866.6, 225751.61, 0.096327074, -0.2044629, -976421.6, 429943.8, 0.0071235094, 9.999144, 10.002568 
1.7350551e+3, 1.6649255e+2, -1480136.5, -1468648.4, 14676.308, 0.21782874, -0.2368309, -1458632.1, -150270.16, 0.0011691477, 9.999201, 9.999377 
1.7350504e+3, 1.7649318e+2, -1691187.4, -1496778.5, -25077.475, 0.30404636, -0.13602534, -1493595.8, -283233.97, 0.00004011834, 9.996993, 9.999571 
1.7350464e+3, 1.8649453e+2, -1460561.1, -1343045.3, 85000.17, 0.16979747, 0.048464336, -1298471.0, -186115.38, 0.0, 9.997939, 9.999499 
1.7350428e+3, 1.9649628e+2, -939890.4, -994851.2, 64662.26, -0.083723284, 0.24893376, -897111.4, 117234.68, 0.0, 10.000647, 9.9999075 
1.7350388e+3, 2.0649639e+2, -757447.8, -734603.94, -36417.94, -0.12337016, 0.20874783, -707858.8, 208482.78, 0.0, 10.000692, 10.001006 
1.7350343e+3, 2.1649557e+2, -894558.06, -783037.7, 52968.688, -0.039665643, 0.006632671, -761889.6, 56450.266, 0.0, 9.999231, 10.000699 
1.7350304e+3, 2.2649407e+2, -830748.94, -1028389.06, 113172.66, -0.019576726, -0.04162728, -779324.4, -58971.97, 0.0, 10.0004015, 9.997778 
1.735027e+3, 2.3649228e+2, -329213.22, -711180.94, 81560.336, -0.03381575, -0.023561168, -312526.84, 309845.25, 0.0, 10.003072, 9.997993 
1.7350233e+3, 2.4649069e+2, -238475.33, -623086.75, 24310.773, -0.02103547, 0.022508856, -236944.77, 287444.5, 0.0, 10.003043, 9.997943 
1.7350195e+3, 2.564892e+2, -322440.8, -559180.7, -842.4898, 0.005476822, 0.054492757, -322437.8, 103967.03, 0.000000000000012544113, 10.001569, 9.998415 
1.7350158e+3, 2.6648745e+2, -56211.008, -218295.17, 30742.584, -0.0013187791, -0.043131303, -50575.953, 277839.03, 0.0000010511417, 10.002022, 9.999866 
1.7350121e+3, 2.7648562e+2, 252193.63, -57604.52, 70504.555, -0.020848408, -0.23492165, 267484.5, 497905.97, 0.000028849088, 10.003641, 9.999513 
1.7350078e+3, 2.8648266e+2, 173810.53, -406315.6, 11220.651, -0.009555392, -0.29626384, 174027.48, 306476.13, 0.00019663657, 10.003974, 9.996293 
1.7350027e+3, 2.9647884e+2, 238314.31, -288124.25, -12030.404, 0.008208049, -0.3381569, 238589.1, 273078.5, 0.0006721827, 10.0036, 9.996604 
1.7349999e+3, 3.0647632e+2, 368077.25, -169070.11, 59614.348, 0.07918945, -0.2633692, 374613.9, 374613.9, 0.0015399737, 10.00403, 9.996885 
1.7349976e+3, 3.164754e+2, 488164.22, -103149.79, 21395.184, 0.12922806, -0.06593841, 488937.34, 488937.34, 0.0027089822, 10.00482, 9.996954 
1.7450649e+3, 1.2649058e+2, -2389385.3, -1883334.8, -15597.064, 0.024307135, -0.18682088, -1882854.4, -182467.36, 0.06957688, 9.994666, 10.001413 
1.7450565e+3, 1.3649254e+2, -1689577.6, -1572530.0, -135720.61, -0.005410472, -0.06064246, -1483252.9, 119120.45, 0.045260757, 9.999147, 10.000736 
1.7450535e+3, 1.4649533e+2, -1550171.6, -1252124.4, 105902.375, 0.0074230595, 0.051541835, -1218327.5, 286014.88, 0.022935338, 9.998538, 10.002569 
1.7450549e+3, 1.5649584e+2, -1929977.9, -1397036.4, 2679.7131, 0.09965992, -0.18797253, -1397023.0, 9305.655, 0.0078018596, 9.995338, 10.002399 
1.7450528e+3, 1.6649623e+2, -1831866.3, -1644462.3, -145281.36, 0.1782388, -0.21083249, -1565286.4, -256960.34, 0.0013223152, 9.99682, 9.999318 
1.7450488e+3, 1.7649673e+2, -1106428.1, -1217190.9, -58552.723, 0.24253395, -0.11569899, -1081214.8, 129113.46, 0.000049909977, 10.001018, 9.999551 
1.7450452e+3, 1.8649821e+2, -1084497.9, -1139001.9, 87111.49, 0.14003403, 0.07071472, -1020475.1, 91845.32, 0.0000000000000006446772, 10.000424, 9.9997 
1.7450419e+3, 1.9650021e+2, -1428458.1, -1202935.1, 88581.414, -0.060000017, 0.27471712, -1172302.6, -157995.61, 0.0, 9.997174, 10.00015 
1.7450383e+3, 2.0650022e+2, -1163734.8, -885153.6, -34637.36, -0.06673892, 0.19015996, -880911.6, 35390.977, 0.0, 9.9977045, 10.00141 
1.7450348e+3, 2.1649913e+2, -688447.94, -642687.44, -63791.11, 0.030139247, -0.08008236, -597797.4, 220505.33, 0.0, 10.00046, 10.001072 
1.7450315e+3, 2.2649826e+2, -705691.2, -956374.75, 25991.469, 0.0026501943, -0.08930832, -703024.7, 17284.813, 0.0, 10.001213, 9.997883 
1.7450282e+3, 2.364975e+2, -645366.1, -853499.75, 46228.824, -0.093930066, 0.025359675, -635560.2, -13240.343, 0.0, 10.00086, 9.998081 
1.7450252e+3, 2.4649526e+2, -515169.3, -756926.4, 13037.947, -0.028996132, 0.0028335752, -514468.22, 9873.412, 0.0, 10.001144, 9.997935 
1.7450222e+3, 2.564922e+2, -292744.5, -552805.8, 48361.816, 0.11594388, -0.12253256, -284042.2, 142327.3, 0.0, 10.001805, 9.998344 
1.7450188e+3, 2.6649055e+2, -65970.43, -266838.78, 75331.77, 0.096320935, -0.18625578, -40858.203, 287522.6, 0.0000010008785, 10.002142, 9.999477 
1.7450151e+3, 2.7648976e+2, 46861.305, -191698.83, -21338.482, -0.024979189, -0.23021394, 48754.934, 279136.56, 0.00002996529, 10.002375, 9.999205 
1.7450109e+3, 2.8648743e+2, 95149.71, -422407.8, -70762.05, -0.04069586, -0.22841014, 104650.12, 237054.13, 0.00019663862, 10.003353, 9.996478 
1.7450067e+3, 2.9648378e+2, 408621.25, -201924.75, -24461.854, -0.001363348, -0.2666505, 409599.75, 444041.6, 0.0006695037, 10.004748, 9.996649 
1.7450042e+3, 3.0648014e+2, 556400.56, -109055.11, 58670.605, 0.04155202, -0.28811568, 561533.7, 561533.7, 0.0015442559, 10.00544, 9.996629 
1.7450035e+3, 3.164789e+2, 645425.0, -40182.594, -58077.21, 0.17372364, -0.10396643, 650309.9, 650309.9, 0.0027394614, 10.005935, 9.996854 
1.7550597e+3, 1.2649424e+2, -2365724.8, -1826303.0, 176664.9, 0.015161776, -0.06828866, -1773594.1, -73240.87, 0.07366958, 9.994645, 10.00181 
1.7550555e+3, 1.3649638e+2, -1649700.4, -1484107.6, -13877.299, -0.046580724, -0.016909085, -1482952.8, 119382.04, 0.048192136, 9.9991045, 10.001375 
1.7550536e+3, 1.4649774e+2, -1696571.6, -1551771.1, -23880.87, 0.14242554, 0.040296007, -1547934.4, -43612.19, 0.024652572, 9.998535, 10.000475 
1.7550507e+3, 1.5649848e+2, -2039761.6, -1625058.9, -72812.59, 0.13848464, 0.032089613, -1612646.1, -206331.22, 0.008527423, 9.995342, 10.000832 
1.7550486e+3, 1.6649966e+2, -1704037.8, -1384964.8, 10325.25, 0.062228926, 0.054986708, -1384631.0, -76327.58, 0.0014925194, 9.996841, 10.001091 
1.7550473e+3, 1.765011e+2, -999699.6, -984698.0, 63292.133, -0.018051343, 0.06641654, -928463.8, 281825.97, 0.00006156021, 10.000973, 10.001169 
1.755044e+3, 1.8650122e+2, -1043738.0, -1053168.3, -41516.234, -0.023892166, 0.0143781165, -1006670.0, 105618.44, 0.0000000010737394, 10.000413, 10.000294 
1.7550398e+3, 1.965006e+2, -1407458.4, -1158250.5, 2587.4485, 0.0037675183, -0.10157468, -1158223.6, -143929.7, 0.0, 9.997169, 10.000459 
1.7550376e+3, 2.0650077e+2, -1241492.8, -1046269.5, 64842.03, 0.06864731, -0.12007819, -1026695.25, -110405.414, 0.0, 9.9977, 10.000306 
1.7550366e+3, 2.1650141e+2, -750920.75, -760408.75, 26246.67, 0.1567377, -0.10908491, -728992.8, 89286.914, 0.0, 10.000405, 10.000292 
1.7550337e+3, 2.2650139e+2, -643308.9, -812527.94, 8630.763, 0.093907386, -0.05956672, -642869.8, 77409.26, 0.0, 10.001148, 9.998902 
1.7550296e+3, 2.3650092e+2, -586358.7, -716100.0, 44685.7, -0.052439053, -0.01967573, -572457.44, 49826.62, 0.0, 10.000797, 9.999053 
1.7550266e+3, 2.464984e+2, -469434.44, -643671.5, 33804.81, -0.01775043, -0.15719382, -463105.66, 61198.176, 0.0, 10.001061, 9.998756 
1.7550243e+3, 2.5649482e+2, -274590.8, -497517.38, 75400.17, 0.12758905, -0.41663194, -251483.47, 174847.78, 0.0, 10.001731, 9.998759 
1.7550218e+3, 2.664935e+2, -221610.77, -576720.0, 79339.66, 0.17107871, -0.34353325, -204690.66, 123655.43, 0.00000094846536, 10.002079, 9.997381 
1.755019e+3, 2.7649355e+2, -74926.13, -424400.56, 1210.3303, 0.14119753, -0.10175175, -74921.94, 155430.81, 0.000030532858, 10.002293, 9.997643 
1.7550157e+3, 2.864927e+2, 175695.23, -238737.4, -21470.53, 0.08768219, 0.041352715, 176804.58, 309167.13, 0.00019883417, 10.003273, 9.997783 
1.755012e+3, 2.9649106e+2, 450645.97, -86587.38, 32008.709, 0.03633192, 0.07294474, 452546.38, 486923.16, 0.00068595225, 10.004627, 9.9975 
1.755009e+3, 3.0648577e+2, 451583.63, -278810.0, 68312.4, -0.031634968, -0.08138127, 457917.8, 457917.8, 0.0016003789, 10.005247, 9.995548 
1.7550094e+3, 3.1648254e+2, 556406.5, -151531.11, -8263.048, 0.16494152, -0.006713374, 556502.94, 556502.94, 0.0028589256, 10.005654, 9.996208 
1.7650561e+3, 1.264967e+2, -1998868.4, -1610611.9, 139432.36, 0.08635514, 0.041868977, -1565727.3, 134607.13, 0.07790593, 9.99696, 10.002236 
1.765052e+3, 1.3649893e+2, -2192728.0, -1696186.5, -102097.4, -0.10119172, 0.06455764, -1676013.1, -73700.79, 0.05123237, 9.995188, 10.001767 
1.765052e+3, 1.4649917e+2, -1996329.9, -1676559.3, -57871.9, 0.23206858, -0.021313554, -1666407.9, -162098.7, 0.026445003, 9.996403, 10.000642 
1.7650479e+3, 1.5650079e+2, -1440091.3, -1324270.0, 49713.086, 0.13144784, 0.048807237, -1305858.8, 100433.625, 0.009296644, 9.99941, 10.000938 
1.7650455e+3, 1.6650248e+2, -1463788.3, -1240846.3, 147790.63, 0.004896539, 0.10295279, -1167201.5, 141074.17, 0.0016790463, 9.998373, 10.001338 
1.7650448e+3, 1.765039e+2, -1836381.5, -1360544.8, 75789.59, -0.058755, 0.08718677, -1348764.9, -138502.89, 0.000074904594, 9.9951105, 10.001411 
1.7650425e+3, 1.8650365e+2, -1588063.0, -1287654.4, -75334.266, -0.025343856, -0.027631877, -1269821.3, -157558.1, 0.000000009428086, 9.996557, 10.0005455 
1.7650391e+3, 1.965026e+2, -865087.7, -878706.4, -64042.992, 0.02859372, -0.21049356, -807493.06, 206778.25, 0.0, 10.000809, 10.0006275 
1.7650373e+3, 2.065031e+2, -708522.44, -833900.56, 40657.242, 0.08099087, -0.17775577, -696492.5, 219772.44, 0.0, 10.001563, 9.999901 
1.7650367e+3, 2.1650451e+2, -775734.6, -801626.4, 39793.063, 0.14053327, -0.049353857, -746834.56, 71415.664, 0.0, 10.000377, 10.000017 
1.765035e+3, 2.2650443e+2, -701365.75, -795535.94, 3247.3228, 0.13571191, -0.017918758, -701253.9, 18996.6, 0.0, 10.000551, 9.999308 
1.7650321e+3, 2.3650347e+2, -452970.3, -608766.8, -14080.179, 0.08535448, -0.06707319, -451708.03, 170551.25, 0.0, 10.00152, 9.999445 
1.7650291e+3, 2.4650154e+2, -263828.38, -509697.75, -45778.438, 0.07783649, -0.17894372, -255581.5, 268691.4, 0.0, 10.002331, 9.999064 
1.7650263e+3, 2.5649914e+2, -68458.16, -382919.47, -55446.95, 0.09270436, -0.34522614, -58967.96, 367320.88, 0.0, 10.003087, 9.998894 
1.7650244e+3, 2.6649755e+2, -48344.83, -581394.75, -8450.706, 0.15433833, -0.25991723, -48210.89, 280097.6, 0.0000007067664, 10.003659, 9.996584 
1.765023e+3, 2.764964e+2, 147593.23, -390896.25, -1223.1888, 0.22671746, -0.05966201, 147596.02, 377926.16, 0.00002910251, 10.004134, 9.996988 
1.7650205e+3, 2.864953e+2, 356290.06, -113693.836, -15422.167, 0.18732406, 0.06957858, 356795.6, 489138.22, 0.00020243107, 10.004351, 9.998118 
1.765017e+3, 2.9649428e+2, 452466.38, -57144.863, -57226.477, 0.09680902, 0.12827721, 458813.53, 493163.47, 0.000715469, 10.00452, 9.997747 
1.7650138e+3, 3.0648926e+2, 377692.13, -330340.25, 8333.044, -0.04595465, -0.001836673, 377790.2, 377790.2, 0.0016784801, 10.004785, 9.995424 
1.7650148e+3, 3.1648535e+2, 525114.56, -123927.4, 21994.709, 0.17038384, 0.017836634, 525859.06, 525859.06, 0.0029898125, 10.005202, 9.99664 
1.7750539e+3, 1.264983e+2, -1964003.5, -1545982.5, -14526.493, 0.13890103, 0.16458713, -1545478.4, 154848.36, 0.08231803, 9.9969635, 10.002706 
1.775046e+3, 1.3650025e+2, -2178064.5, -1669574.8, -140048.44, -0.21859463, 0.17864968, -1633554.3, -31248.85, 0.054393712, 9.995198, 10.001947 
1.7750485e+3, 1.4649951e+2, -1827524.8, -1339274.4, 47972.086, 0.22651051, -0.14898293, -1334605.6, 169698.95, 0.02831169, 9.996431, 10.002979 
1.7750464e+3, 1.5650281e+2, -1319885.4, -1070964.0, 132871.73, 0.032035917, -0.13663355, -1013366.0, 392894.9, 0.010105246, 9.99939, 10.002704 
1.7750435e+3, 1.6650473e+2, -1554406.4, -1431604.3, 15600.047, -0.051394206, -0.05771083, -1429653.5, -121411.28, 0.0018804772, 9.9983835, 10.000023 
1.7750414e+3, 1.765052e+2, -1915505.6, -1524000.9, -5933.219, 0.07382758, -0.041042324, -1523911.0, -313666.47, 0.00008970714, 9.995113, 10.000286 
1.7750405e+3, 1.8650553e+2, -1588849.1, -1299021.5, 81049.41, 0.08583435, -0.044618152, -1277896.1, -165651.72, 0.000000028818846, 9.996594, 10.000451 
1.7750394e+3, 1.9650611e+2, -871328.7, -885040.3, 70222.49, -0.025182387, -0.054512676, -807628.1, 206611.5, 0.0, 10.000783, 10.000596 
1.7750375e+3, 2.065072e+2, -690294.1, -795394.3, -10103.424, -0.07612674, 0.020653082, -689331.7, 226896.44, 0.0, 10.001556, 10.000169 
1.7750353e+3, 2.1650836e+2, -772564.94, -781691.0, 10407.815, -0.06056578, 0.09783303, -765763.8, 52450.86, 0.0, 10.00032, 10.000179 
1.775035e+3, 2.2650732e+2, -729304.56, -837156.06, 37070.902, 0.07994358, 0.043164726, -717791.5, 2432.5137, 0.0, 10.000475, 9.99906 
1.7750357e+3, 2.3650512e+2, -477273.94, -645835.06, 27048.793, 0.27877626, -0.110362, -473039.8, 149205.72, 0.0, 10.001457, 9.999223 
1.775033e+3, 2.4650462e+2, -293068.5, -552967.06, -21882.742, 0.20402502, -0.057307005, -291238.9, 233010.45, 0.0, 10.0022545, 9.998804 
1.7750283e+3, 2.5650513e+2, -90024.12, -412438.8, -22577.691, -0.022848915, 0.09085866, -88450.75, 337792.06, 0.0, 10.003026, 9.998718 
1.7750268e+3, 2.665026e+2, -27511.832, -522649.28, 6605.885, 0.0063634096, 0.06379223, -27423.715, 300845.28, 0.00000032366296, 10.003588, 9.997025 
1.7750269e+3, 2.7649826e+2, 147578.98, -358871.78, 22755.566, 0.17787312, -0.095889345, 148599.36, 378913.47, 0.00002512301, 10.004008, 9.997265 
1.775025e+3, 2.8649527e+2, 289035.66, -234093.11, -14024.74, 0.18971576, -0.12251015, 289411.38, 421755.06, 0.00020045038, 10.004255, 9.997345 
1.775022e+3, 2.9649323e+2, 406823.56, -134375.16, -42506.73, 0.12122389, -0.0921669, 410141.78, 444504.38, 0.0007335647, 10.004441, 9.997257 
1.7750184e+3, 3.0649036e+2, 418142.84, -204838.72, 16291.663, -0.076766685, -0.04487273, 418568.6, 418568.6, 0.0017200765, 10.004624, 9.996356 
1.7750196e+3, 3.1648922e+2, 587064.75, 102309.09, 119237.79, 0.114477836, 0.15435171, 614806.6, 614806.6, 0.0030266484, 10.004842, 9.998343 
1.7850511e+3, 1.2649971e+2, -2286406.8, -1655630.5, 23500.426, 0.28099564, 0.15085198, -1654756.3, 45557.13, 0.08696164, 9.994612, 10.003013 
1.785042e+3, 1.3650177e+2, -1728068.0, -1464257.4, -7770.3896, -0.2941335, 0.18391418, -1464028.8, 138260.92, 0.057701517, 9.9983015, 10.001915 
1.7850456e+3, 1.4650054e+2, -1494233.5, -1154970.8, 71925.59, 0.18777709, -0.20516181, -1140352.1, 363941.1, 0.030258754, 9.998598, 10.00324 
1.785044e+3, 1.5650447e+2, -1708955.4, -1237519.4, -10753.511, 0.0026286908, -0.15394896, -1237274.3, 168969.56, 0.0109521225, 9.996624, 10.002884 
1.7850412e+3, 1.6650638e+2, -1720731.4, -1504400.1, -143010.45, -0.05138328, -0.08787872, -1433256.6, -125032.086, 0.0020959692, 9.997215, 10.000085 
1.7850395e+3, 1.7650633e+2, -1276178.6, -1209607.0, -62757.164, 0.1545342, -0.12679967, -1171854.8, 38375.504, 0.000105867584, 9.999471, 10.000345 
1.785039e+3, 1.8650717e+2, -1182006.1, -1090179.8, 137900.02, 0.15277502, -0.08898794, -990750.44, 121474.695, 0.0000000562377, 9.999344, 10.000558 
1.7850384e+3, 1.9650885e+2, -1279115.6, -1074133.6, 129421.91, -0.054409187, -0.000563732, -1011535.44, 2674.863, 0.0, 9.997953, 10.000662 
1.7850369e+3, 2.0650965e+2, -1097878.1, -1009039.7, 11024.319, -0.13488963, 0.051919896, -1007692.06, -91489.93, 0.0, 9.998834, 10.000016 
1.7850354e+3, 2.165098e+2, -674921.0, -749445.75, -11859.309, -0.11278609, 0.04503156, -673079.3, 145119.73, 0.0, 10.001049, 10.000053 
1.7850359e+3, 2.2650863e+2, -580368.75, -757405.3, 17283.207, 0.075972214, -0.021113353, -578697.3, 141512.22, 0.0, 10.001467, 9.999131 
1.7850374e+3, 2.3650683e+2, -562923.06, -683449.6, 23090.072, 0.33754125, -0.13876802, -558651.0, 63575.457, 0.0, 10.00086, 9.999252 
1.7850351e+3, 2.4650672e+2, -398024.2, -629577.06, 23453.486, 0.23707318, -0.0357088, -395672.53, 128556.586, 0.0, 10.001647, 9.9985695 
1.7850308e+3, 2.565075e+2, -72661.81, -425966.38, 7646.93, -0.06754684, 0.16394076, -72496.38, 353727.7, 0.0, 10.003226, 9.998533 
1.7850299e+3, 2.6650497e+2, -9811.995, -478091.1, 2997.0632, -0.028111229, 0.13031693, -9792.814, 318456.53, 0.00000018370703, 10.003551, 9.997348 
1.7850307e+3, 2.7650055e+2, 52094.566, -391487.8, 2985.726, 0.19128545, -0.07259456, 52114.664, 282407.06, 0.000020759246, 10.003273, 9.9974 
1.7850295e+3, 2.8649673e+2, 259676.5, -337414.34, 6722.112, 0.19651563, -0.13791113, 259752.16, 392082.4, 0.00019220688, 10.004467, 9.99652 
1.7850272e+3, 2.964937e+2, 666811.8, -79797.61, -55180.297, 0.089405686, -0.1205528, 670868.0, 705229.3, 0.0007298802, 10.006548, 9.996614 
1.7850241e+3, 3.0649137e+2, 729238.3, -5881.4546, -61259.285, -0.07039903, -0.016672391, 734308.2, 734308.2, 0.0017018687, 10.006557, 9.996794 
1.7850247e+3, 3.1648958e+2, 683486.2, 183843.5, 10299.067, 0.11417551, 0.07966698, 683698.44, 683698.44, 0.002935036, 10.005343, 9.998668 
1.7950471e+3, 1.2650104e+2, -2273731.5, -1638014.3, 22735.299, 0.39695165, 0.0036351415, -1637202.3, 63091.03, 0.09190124, 9.994633, 10.003141 
1.7950396e+3, 1.3650362e+2, -1749049.8, -1498791.4, 111960.68, -0.37687814, 0.08660106, -1456014.3, 146249.45, 0.06119029, 9.998278, 10.001685 
1.795043e+3, 1.4650245e+2, -1622806.1, -1418813.3, -6920.3936, 0.0631391, -0.17994042, -1418578.8, 85694.445, 0.03230053, 9.99861, 10.001372 
1.7950408e+3, 1.5650581e+2, -1807743.3, -1438699.0, -61637.63, -0.00036737003, -0.0005591275, -1428676.5, -22436.43, 0.011841973, 9.996618, 10.0014925 
1.7950387e+3, 1.6650742e+2, -1619121.9, -1300013.6, -62722.715, -0.041340813, 0.014121664, -1288127.8, 20094.129, 0.0023264778, 9.997232, 10.001484 
1.7950389e+3, 1.7650734e+2, -1188826.4, -1029428.94, 5391.912, 0.14707923, -0.16748017, -1029246.75, 180972.33, 0.00012352158, 9.99947, 10.001586 
1.7950381e+3, 1.8650861e+2, -1158648.9, -1045802.6, 78887.27, 0.123546034, -0.15633723, -1005237.25, 106967.914, 0.000000085167756, 9.99936, 10.0008545 
1.795036e+3, 1.9651084e+2, -1271266.4, -1054845.8, 99312.51, -0.10205791, -0.040533844, -1016180.44, -1997.2822, 0.0, 9.997941, 10.000799 
1.7950357e+3, 2.0651057e+2, -1142804.1, -1097637.0, 91081.37, -0.14829412, -0.06398434, -1026381.2, -110195.32, 0.0, 9.99881, 9.999421 
1.7950371e+3, 2.165089e+2, -711881.25, -817236.6, 61803.477, -0.055445254, -0.1985554, -683351.75, 134851.13, 0.0, 10.001009, 9.999609 
1.7950375e+3, 2.2650835e+2, -566985.06, -713274.5, -9400.722, 0.08009824, -0.20364289, -566383.44, 153823.6, 0.0, 10.001401, 9.999465 
1.7950371e+3, 2.3650849e+2, -558893.0, -655555.1, 17512.848, 0.2227845, -0.15774943, -555817.94, 66385.45, 0.0, 10.000779, 9.999481 
1.7950359e+3, 2.4650769e+2, -429314.63, -672451.44, 80964.59, 0.13055289, -0.117421925, -404820.9, 119392.68, 0.0, 10.001552, 9.998322 
1.7950341e+3, 2.5650632e+2, -98131.39, -457930.4, 63496.51, -0.08153052, -0.11006836, -87254.484, 338977.63, 0.0, 10.003143, 9.998352 
1.7950338e+3, 2.6650476e+2, -9648.216, -462415.13, -12161.399, -0.0060049673, -0.045958977, -9321.794, 318927.44, 0.00000013255313, 10.003479, 9.997492 
1.7950341e+3, 2.7650315e+2, 41440.324, -394931.13, 11633.638, 0.21336381, 0.014455571, 41750.258, 272015.84, 0.000018862323, 10.0032, 9.997409 
1.7950335e+3, 2.8649977e+2, 177063.55, -490382.84, 79459.086, 0.14403602, 0.043898247, 186392.7, 318694.63, 0.00018714569, 10.004375, 9.995519 
1.7950323e+3, 2.9649568e+2, 592534.1, -205180.58, 18459.99, -0.0563298, 0.05295846, 592961.06, 627307.4, 0.00072079286, 10.006427, 9.995809 
1.7950302e+3, 3.064923e+2, 684587.06, -57993.395, -114380.87, -0.11266181, 0.10272006, 701806.0, 701806.0, 0.0016543686, 10.006382, 9.996521 
1.7950295e+3, 3.1648603e+2, 600672.3, 67279.0, 34370.836, 0.04069475, -0.2231677, 602877.94, 602877.94, 0.0027781199, 10.005132, 9.9979515 
1.8050428e+3, 1.2650286e+2, -2056862.1, -1549905.1, -97555.63, 0.42799637, 0.013930928, -1531780.1, 168494.11, 0.097200245, 9.996149, 10.003092 
1.8050373e+3, 1.3650493e+2, -2223888.8, -1715664.6, 87681.6, -0.2773748, 0.032589033, -1700962.6, -98714.18, 0.06490086, 9.994987, 10.001734 
1.8050402e+3, 1.4650388e+2, -2072062.4, -1700983.9, -10337.551, 0.0657361, -0.19129862, -1700696.1, -196437.05, 0.034457777, 9.99583, 10.000753 
1.8050382e+3, 1.565076e+2, -1689095.1, -1443372.3, 15255.752, 0.03132088, 0.08688422, -1442428.8, -36202.434, 0.0127833225, 9.997695, 10.000942 
1.8050362e+3, 1.6650876e+2, -1498269.8, -1236031.9, 26268.416, -0.048036557, 0.07881994, -1233426.4, 74786.03, 0.0025744103, 9.99805, 10.001525 
1.8050365e+3, 1.7650793e+2, -1445299.0, -1141896.3, -20210.063, 0.04784801, -0.18241014, -1140556.0, 69658.61, 0.00014305822, 9.99768, 10.001669 
1.8050364e+3, 1.8650907e+2, -1295204.8, -1093017.4, -13277.546, 0.062971815, -0.19798838, -1092149.1, 20050.67, 0.00000010953618, 9.998333, 10.001029 
1.8050353e+3, 1.965115e+2, -1020216.1, -920885.8, -1673.0176, -0.054195162, -0.0780504, -920857.6, 93316.15, 0.0, 9.999611, 10.000913 
1.8050362e+3, 2.0651114e+2, -955778.06, -1044863.25, 51554.293, -0.059769746, -0.1000327, -932189.25, -16011.094, 0.0, 10.000259, 9.999082 
1.8050388e+3, 2.165091e+2, -794155.7, -888325.2, 24224.545, 0.030148942, -0.23509128, -788289.5, 29910.81, 0.0, 10.000585, 9.999323 
1.8050388e+3, 2.2650862e+2, -626978.56, -732074.9, -91647.65, 0.106260695, -0.2262313, -573882.94, 146321.08, 0.0, 10.000952, 9.999548 
1.8050374e+3, 2.3650907e+2, -474603.44, -613731.1, -84069.08, 0.1546692, -0.1586381, -435049.28, 187147.66, 0.0, 10.001354, 9.999489 
1.8050373e+3, 2.4650788e+2, -376541.9, -678476.06, 23446.127, 0.09713929, -0.13886231, -374732.1, 149479.05, 0.0, 10.002042, 9.998049 
1.8050377e+3, 2.5650585e+2, -148457.42, -509074.0, -12034.055, -0.013190462, -0.16959396, -148056.28, 278180.78, 0.0, 10.002902, 9.998123 
1.8050383e+3, 2.6650453e+2, 79065.01, -418634.2, -108400.234, 0.06164509, -0.074161515, 101649.99, 429902.78, 0.00000007008213, 10.0041, 9.99749 
1.8050386e+3, 2.7650356e+2, 376540.6, -232693.23, -111456.31, 0.21977714, 0.060943887, 396290.72, 626553.6, 0.000018204471, 10.005505, 9.997418 
1.8050383e+3, 2.865004e+2, 351593.25, -369267.4, 24621.527, 0.14533706, 0.09442954, 352433.25, 484729.2, 0.00018314367, 10.00541, 9.995853 
1.805038e+3, 2.9649627e+2, 342612.2, -301647.53, 43922.363, -0.040346127, 0.07013459, 345592.8, 379931.63, 0.000706029, 10.004591, 9.996037 
1.8050374e+3, 3.0649242e+2, 570527.3, -176177.88, -60177.258, 0.0044296305, 0.08863473, 575345.94, 575345.94, 0.0015972494, 10.005855, 9.995964 
1.8050362e+3, 3.1648585e+2, 944558.5, 84462.34, 35080.066, 0.05943235, -0.18689264, 945986.94, 945986.94, 0.0026300664, 10.008082, 9.996685 
1.8150377e+3, 1.265051e+2, -2077574.3, -1597568.5, -224308.61, 0.27959237, 0.16743731, -1509066.0, 191190.6, 0.10291468, 9.996177, 10.002768 
1.8150346e+3, 1.3650578e+2, -2200950.0, -1664606.8, 68816.69, -0.04030636, 0.021107625, -1655917.9, -53674.863, 0.06887483, 9.994981, 10.002084 
1.815037e+3, 1.4650485e+2, -2023526.0, -1610518.3, 55740.883, 0.14046958, -0.24023764, -1603127.5, -98877.45, 0.036753505, 9.995864, 10.001363 
1.8150362e+3, 1.5650979e+2, -1662663.3, -1396039.3, 77905.75, 0.054300547, 0.10379272, -1374944.8, 31257.895, 0.01378539, 9.997722, 10.001261 
1.8150337e+3, 1.6651046e+2, -1587009.5, -1427841.0, 5657.4766, -0.12698048, 0.10978518, -1427640.1, -119444.945, 0.002842686, 9.99808, 10.000194 
1.815032e+3, 1.7650813e+2, -1523371.0, -1307757.4, -21900.605, -0.17469303, -0.1697523, -1305555.4, -95338.984, 0.00016504708, 9.997692, 10.000526 
1.8150334e+3, 1.8650858e+2, -1286803.8, -1079593.0, 32814.45, -0.07125023, -0.20995265, -1074520.5, 37688.223, 0.00000012908751, 9.99835, 10.001113 
1.815036e+3, 1.9651088e+2, -1014226.94, -909985.6, 45905.754, 0.047370423, -0.112826735, -892652.0, 121530.195, 0.0, 9.9996195, 10.000981 
1.815038e+3, 2.0651118e+2, -963730.2, -1063601.3, 58764.84, 0.08545388, -0.06261217, -936549.8, -20369.615, 0.0, 10.000265, 9.998953 
1.8150401e+3, 2.1651022e+2, -808111.75, -910064.5, 40453.984, 0.1073759, -0.078912534, -794010.4, 24183.082, 0.0, 10.000548, 9.999192 
1.81504e+3, 2.2650933e+2, -651744.2, -763413.4, -79452.29, 0.10999797, -0.09504698, -610469.75, 109732.01, 0.0, 10.000862, 9.999379 
1.8150383e+3, 2.3650855e+2, -495308.28, -646547.56, -58907.23, 0.090527385, -0.1340641, -475071.84, 147135.23, 0.0, 10.001309, 9.999287 
1.8150394e+3, 2.4650735e+2, -409888.78, -734895.94, 52886.152, 0.08421265, -0.088255815, -401499.53, 122721.9, 0.0, 10.001985, 9.997689 
1.8150419e+3, 2.56506e+2, -178007.23, -557646.75, 29678.572, 0.093953244, -0.018984664, -175701.11, 250539.02, 0.0, 10.002846, 9.997816 
1.8150431e+3, 2.6650408e+2, 50171.875, -460671.47, -57596.246, 0.12416594, 0.044649445, 56585.184, 384846.66, 0.0000000874347, 10.004015, 9.997245 
1.8150435e+3, 2.7650177e+2, 361287.4, -239288.92, -61561.277, 0.16181657, 0.063780755, 367532.72, 597817.9, 0.00001648279, 10.005403, 9.997418 
1.8150437e+3, 2.8649873e+2, 443221.3, -159773.08, -10455.511, 0.1279159, 0.024727754, 443402.56, 575715.1, 0.00017185928, 10.005322, 9.997336 
1.8150438e+3, 2.9649538e+2, 419566.53, -131768.92, 42784.14, 0.07183163, -0.07453387, 422866.88, 457207.03, 0.0006706459, 10.0045395, 9.99723 
1.8150455e+3, 3.0649158e+2, 468718.75, -349946.9, 20747.91, 0.19048136, -0.04100116, 469244.25, 469244.25, 0.0015242501, 10.005703, 9.994838 
1.8150432e+3, 3.1648657e+2, 784165.2, -166972.97, 113254.98, -0.06995281, -0.048121408, 797464.9, 797464.9, 0.0025166892, 10.007771, 9.995081 
1.8250322e+3, 1.2650615e+2, -2347910.0, -1753565.8, -144374.8, 0.20326337, 0.123233885, -1720351.3, -20106.414, 0.10907774, 9.994485, 10.002384 
1.8250325e+3, 1.3650747e+2, -1810535.5, -1508451.4, 129878.21, 0.112879656, 0.05441279, -1460289.9, 141937.17, 0.07313931, 9.997754, 10.001892 
1.8250345e+3, 1.4650635e+2, -1667686.1, -1464674.9, 61409.4, 0.17031921, -0.20294985, -1447544.5, 56691.6, 0.039204508, 9.998422, 10.001139 
1.8250348e+3, 1.5650992e+2, -1632086.5, -1399415.4, 14623.403, 0.12560165, 0.02402907, -1398499.9, 7701.352, 0.014855209, 9.998018, 10.001087 
1.8250327e+3, 1.6651091e+2, -1586399.9, -1436111.3, -34645.344, -0.03426723, 0.07216755, -1428509.3, -120318.086, 0.0031336718, 9.99812, 10.000117 
1.8250307e+3, 1.7650992e+2, -1419518.5, -1281791.3, 29060.115, -0.11198405, -0.06356032, -1275910.6, -65710.5, 0.00019006866, 9.998506, 10.000312 
1.8250325e+3, 1.8650971e+2, -1213764.5, -1145108.1, 112817.195, -0.0508816, -0.106607094, -1061512.0, 50688.58, 0.00000015151502, 9.9993, 10.000201 
1.8250357e+3, 1.9651023e+2, -960581.9, -967448.3, 36145.074, 0.018488897, -0.09747861, -927707.4, 86486.15, 0.0, 10.000359, 10.000228 
1.825038e+3, 2.0651034e+2, -931329.2, -1015548.2, 5200.5254, 0.06577984, -0.049722724, -931009.25, -14815.992, 0.0, 10.000356, 9.999233 
1.8250404e+3, 2.1651015e+2, -901876.06, -931545.9, 16178.149, 0.11740017, -0.016128812, -894760.9, -76563.234, 0.0, 9.999814, 9.9993925 
1.8250407e+3, 2.2650945e+2, -631836.1, -783271.56, -41969.516, 0.10305665, -0.008207542, -620982.4, 99222.04, 0.0, 10.0011215, 9.999117 
1.8250401e+3, 2.365085e+2, -204802.03, -534509.0, -45776.477, 0.036820557, -0.035215814, -198564.44, 423647.56, 0.0, 10.0034275, 9.999035 
1.825042e+3, 2.4650687e+2, -158240.61, -640453.6, 36355.438, 0.077713706, -0.0071136355, -155515.08, 368714.66, 0.0, 10.003837, 9.997441 
1.8250456e+3, 2.565049e+2, -143588.0, -558157.94, 14615.002, 0.17885311, 0.023868706, -143073.4, 283179.47, 0.0, 10.003164, 9.997653 
1.8250467e+3, 2.6650256e+2, -48497.867, -460166.38, -7059.914, 0.1394154, 0.029443603, -48376.83, 279899.3, 0.00000011582431, 10.003135, 9.997672 
1.8250465e+3, 2.7650005e+2, 114273.54, -318092.84, 19400.4, 0.013389792, -0.011100867, 115142.3, 345441.8, 0.000015404023, 10.003518, 9.997789 
1.8250476e+3, 2.8649732e+2, 357820.6, -189513.38, 20378.86, 0.019361382, -0.04179365, 358578.3, 490901.28, 0.00015967502, 10.004687, 9.99744 
1.8250494e+3, 2.9649457e+2, 680522.5, 1028.058, -44333.152, 0.098184995, -0.0880669, 683402.75, 717747.6, 0.00062656205, 10.006302, 9.997299 
1.8250526e+3, 3.0649048e+2, 649839.94, -252122.89, -15595.273, 0.29075167, -0.09007971, 650109.5, 650109.5, 0.0014471678, 10.006914, 9.994925 
1.8250507e+3, 3.1648618e+2, 691154.7, -198230.25, 82749.17, -0.053891025, -0.024699187, 698788.2, 698788.2, 0.0024397287, 10.007019, 9.995259 
1.8350261e+3, 1.2650605e+2, -2374383.8, -1817037.1, -1134.6367, 0.12419464, -0.12265502, -1817034.8, -116796.086, 0.11569034, 9.994527, 10.001925 
1.8350306e+3, 1.3651013e+2, -1863182.6, -1605957.9, 228642.22, 0.14364377, 0.14094293, -1472237.6, 129961.19, 0.07769921, 9.997736, 10.001211 
1.8350323e+3, 1.4650854e+2, -1743244.4, -1622972.8, 38466.11, 0.09985274, -0.068353996, -1611722.6, -107507.31, 0.04181763, 9.998428, 10.000039 
1.8350337e+3, 1.5650806e+2, -1677200.4, -1497328.6, 9953.402, 0.1975178, -0.14544696, -1496779.5, -90558.42, 0.015997248, 9.9980345, 10.000408 
1.8350331e+3, 1.6651012e+2, -1499721.5, -1264822.4, -25626.777, 0.17831065, -0.029859629, -1262059.0, 46140.688, 0.0034491862, 9.998154, 10.001279 
1.8350324e+3, 1.7651322e+2, -1368656.6, -1181494.1, 49015.918, 0.19685403, 0.1310838, -1169434.5, 40732.32, 0.00021871291, 9.998526, 10.000993 
1.8350331e+3, 1.8651237e+2, -1347678.1, -1428197.3, 149175.0, 0.071363024, 0.105249606, -1233425.5, -121249.016, 0.00000018976193, 9.999319, 9.99825 
1.8350342e+3, 1.9650947e+2, -1069937.6, -1193391.9, 71676.24, -0.1783693, -0.035404455, -1037072.3, -22864.123, 0.0, 10.000354, 9.998677 
1.8350364e+3, 2.065086e+2, -886326.94, -920750.5, -19290.78, -0.16005014, -0.057452288, -877685.7, 38531.254, 0.0, 10.000345, 9.999892 
1.8350393e+3, 2.1650888e+2, -872257.9, -861648.06, 15363.158, 0.02471315, -0.04189215, -850699.7, -32486.832, 0.0, 9.999778, 9.99989 
1.8350413e+3, 2.2650887e+2, -672727.0, -849761.9, 44328.227, 0.040790044, 0.038769662, -662247.8, 57964.664, 0.0, 10.001039, 9.998702 
1.8350428e+3, 2.365087e+2, -238416.06, -588780.1, 31060.91, -0.044043384, 0.12659879, -235683.72, 386530.4, 0.0, 10.003359, 9.998696 
1.8350457e+3, 2.4650629e+2, -182214.64, -668067.6, 7800.497, 0.034482185, 0.09758738, -182089.44, 342148.75, 0.0, 10.0037365, 9.997304 
1.8350492e+3, 2.5650254e+2, -152201.19, -562584.56, 2306.228, 0.20528844, -0.030883264, -152188.23, 274087.25, 0.0, 10.003105, 9.997653 
1.8350492e+3, 2.6650006e+2, 11731.481, -324175.63, 4411.6216, 0.056069165, -0.09624304, 11789.411, 340085.63, 0.000000090536304, 10.003081, 9.998634 
1.8350473e+3, 2.7649835e+2, 152433.39, -225922.2, 49334.36, -0.27196047, -0.15694731, 158760.38, 389067.5, 0.000015281823, 10.00346, 9.998452 
1.8350498e+3, 2.8649613e+2, 252388.94, -390505.88, 73664.484, -0.242466, -0.08900641, 260721.6, 393049.88, 0.00015214673, 10.004607, 9.996099 
1.8350548e+3, 2.9649365e+2, 592222.7, -155834.17, 18127.455, -0.015390946, 0.024895517, 592661.7, 627016.0, 0.00059047295, 10.006194, 9.996268 
1.8350592e+3, 3.064891e+2, 701691.2, -111881.59, -14273.055, 0.23618653, -0.03550606, 701941.5, 701941.5, 0.0013810629, 10.006779, 9.995948 
1.835057e+3, 3.1648576e+2, 764199.6, 12573.82, 42610.2, -0.13456936, -0.0013268992, 766607.5, 766607.5, 0.0023821802, 10.006787, 9.996808 
1.845022e+3, 1.265059e+2, -2058825.9, -1664586.4, -43548.363, 0.14794835, -0.17373143, -1659833.3, 40405.188, 0.12272786, 9.996667, 10.001979 
1.8450269e+3, 1.3651007e+2, -2267668.0, -1827698.6, 127117.555, 0.13568553, 0.12093035, -1793612.3, -191412.5, 0.08254445, 9.995093, 10.000906 
1.8450283e+3, 1.4650956e+2, -2174431.3, -1844856.3, 2519.1494, 0.013393423, 0.045569494, -1844837.0, -340630.84, 0.04459436, 9.995534, 9.999909 
1.8450318e+3, 1.565079e+2, -1722547.6, -1529947.4, 34373.62, 0.23199521, -0.14387803, -1523996.5, -117772.95, 0.017215712, 9.9977665, 10.000318 
1.8450324e+3, 1.6650927e+2, -1458204.8, -1281748.5, -64781.93, 0.27650818, -0.07233757, -1260519.4, 47689.188, 0.0037916328, 9.998606, 10.000945 
1.8450317e+3, 1.7651227e+2, -1376703.8, -1215876.1, -103947.516, 0.2689764, 0.11325766, -1164869.0, 45307.363, 0.00025177147, 9.998611, 10.000711 
1.8450326e+3, 1.8651158e+2, -1376748.3, -1437899.4, 82426.414, 0.098401874, 0.11520367, -1319409.3, -207225.0, 0.00000025167606, 9.999101, 9.998283 
1.845034e+3, 1.9650888e+2, -1132362.1, -1226752.3, 133176.53, -0.1945567, -0.009476215, -1038265.44, -24051.346, 0.0, 9.999928, 9.998657 
1.8450366e+3, 2.0650788e+2, -904225.7, -952546.4, 22938.623, -0.16689637, -0.032187056, -895070.9, 21153.016, 0.0, 10.000318, 9.999689 
1.8450397e+3, 2.165079e+2, -782169.06, -850525.44, -3527.5344, 0.04394577, -0.019228764, -781987.5, 36234.164, 0.0, 10.000526, 9.999613 
1.8450429e+3, 2.265071e+2, -657856.8, -900185.0, 70187.35, 0.06371439, 0.024572434, -638995.9, 81233.36, 0.0, 10.001407, 9.998172 
1.8450458e+3, 2.365058e+2, -365249.2, -696044.3, 21250.93, -0.036219325, 0.05552751, -363889.56, 258352.72, 0.0, 10.002695, 9.998274 
1.8450487e+3, 2.4650355e+2, -300184.16, -683724.0, -56041.273, 0.019468062, 0.03826981, -292163.34, 232101.14, 0.0, 10.002758, 9.997663 
1.8450512e+3, 2.5650078e+2, -273307.16, -590261.8, -28447.738, 0.15227449, -0.026792528, -270774.13, 155517.05, 0.0, 10.00215, 9.997921 
1.8450521e+3, 2.6649836e+2, -40766.465, -387420.03, -14110.688, 0.056528945, -0.07933388, -40193.03, 288117.75, 0.00000009817215, 10.002888, 9.998289 
1.8450522e+3, 2.7649614e+2, 258279.53, -213874.5, -79370.37, -0.16991138, -0.15261964, 271264.78, 501590.97, 0.000013983584, 10.004366, 9.998091 
1.8450552e+3, 2.8649327e+2, 196900.5, -452557.47, -52179.61, -0.15613669, -0.11425863, 201066.06, 333420.38, 0.00014145234, 10.004382, 9.99578 
1.8450594e+3, 2.964901e+2, 197485.86, -367574.1, -53080.3, -0.020878073, -0.040243078, 202428.84, 236817.56, 0.00055188657, 10.003564, 9.996084 
1.8450642e+3, 3.06486e+2, 345835.78, -235353.36, -52822.004, 0.20076056, -0.07218205, 350597.56, 350597.56, 0.0013075696, 10.004105, 9.996402 
1.8450636e+3, 3.1648242e+2, 657324.25, 36526.676, -117133.56, -0.08621988, -0.10337022, 678689.94, 678689.94, 0.0022947467, 10.005687, 9.997515 
1.8550195e+3, 1.2650599e+2, -2010129.8, -1591092.5, -18054.785, 0.20041354, -0.008756021, -1590316.0, 109925.51, 0.13014582, 9.996727, 10.002529 
1.8550214e+3, 1.3650733e+2, -2259977.5, -1817630.3, 77470.69, 0.049019128, -0.009920123, -1804454.8, -202225.92, 0.08765755, 9.995117, 10.000961 
1.8550225e+3, 1.465094e+2, -2114442.8, -1732819.4, 78722.805, -0.13888274, 0.13331357, -1717217.9, -213009.25, 0.04753598, 9.995582, 10.000659 
1.8550293e+3, 1.5650932e+2, -1686494.3, -1462284.3, 110859.48, 0.18823786, 0.023058737, -1416727.1, -10518.018, 0.01851746, 9.997795, 10.00077 
1.8550305e+3, 1.6650836e+2, -1578712.0, -1541633.8, -67738.4, 0.20639765, -0.0569362, -1489943.4, -181725.8, 0.0041650403, 9.998646, 9.99914 
1.8550284e+3, 1.7650713e+2, -1460040.6, -1398487.5, -94833.336, 0.069295734, -0.118763134, -1329561.8, -119333.445, 0.00029041685, 9.998648, 9.999442 
1.8550308e+3, 1.8650737e+2, -1236449.5, -1156927.6, 110029.3, -0.013000659, -0.07967951, -1079695.5, 32528.6, 0.0000003514084, 9.99914, 10.000196 
1.8550354e+3, 1.965084e+2, -1028433.06, -1012079.25, 163163.06, -0.07204479, -0.019007912, -856888.4, 157323.63, 0.0, 9.99993, 10.000132 
1.8550387e+3, 2.0650809e+2, -982064.9, -1113327.5, 24793.346, -0.0025869845, 0.028074898, -977537.94, -61323.066, 0.0, 10.00031, 9.998592 
1.8550412e+3, 2.1650708e+2, -858154.44, -999621.0, 13788.036, 0.14114845, 0.04478958, -856823.1, -38597.555, 0.0, 10.000489, 9.998608 
1.855045e+3, 2.2650407e+2, -713695.25, -1005707.1, 116951.79, 0.12567344, -0.049240153, -672630.5, 47624.754, 0.0, 10.001354, 9.997477 
1.8550491e+3, 2.364999e+2, -407100.34, -773252.8, 66297.805, 0.019481415, -0.23819543, -395465.75, 226830.33, 0.0, 10.0026455, 9.997772 
1.8550512e+3, 2.4649875e+2, -257089.53, -578483.2, -82802.27, -0.01897173, -0.16548012, -237011.11, 287296.66, 0.0, 10.002687, 9.99842 
1.8550518e+3, 2.5649938e+2, -249961.98, -530241.8, -34354.668, -0.014590771, 0.032585386, -245812.47, 180489.48, 0.0, 10.002099, 9.998357 
1.8550555e+3, 2.6649722e+2, -163483.75, -630048.56, 38198.22, 0.09910719, 0.078223504, -160377.11, 167945.13, 0.00000008466028, 10.0028305, 9.996654 
1.855061e+3, 2.764933e+2, 154258.45, -411066.16, -26270.09, 0.27326012, -0.0036785463, 155476.58, 385834.97, 0.000011475584, 10.004285, 9.996777 
1.8550633e+3, 2.864887e+2, 225391.77, -373475.3, -88488.48, 0.21810757, -0.11512874, 238193.16, 370595.28, 0.00012546952, 10.00429, 9.996371 
1.8550637e+3, 2.9648387e+2, 221223.58, -301157.3, -65210.094, 0.029384281, -0.26689237, 229240.86, 263689.28, 0.0005056256, 10.003486, 9.996582 
1.8550676e+3, 3.0648112e+2, 314434.44, -273413.5, -2512.472, 0.11471766, -0.17649083, 314445.16, 314445.16, 0.0012185171, 10.004, 9.9961815 
1.8550715e+3, 3.1647807e+2, 613564.9, 9062.874, -64389.945, 0.100240774, -0.1297367, 620347.4, 620347.4, 0.002161532, 10.005439, 9.997434 
1.8650158e+3, 1.265043e+2, -2081717.0, -1590742.4, 15051.028, 0.20355758, 0.047806986, -1590281.4, 109977.8, 0.1378835, 9.996094, 10.002841 
1.8650186e+3, 1.3650402e+2, -1990836.5, -1724658.0, -27674.578, 0.1587471, -0.080679424, -1721811.1, -119548.0, 0.09301642, 9.997116, 10.00064 
1.8650198e+3, 1.4650747e+2, -1832436.3, -1538249.8, 12399.323, -0.05425611, 0.19062099, -1537728.0, -33499.46, 0.050644647, 9.997275, 10.001169 
1.8650268e+3, 1.5650778e+2, -1719654.4, -1437894.4, 22851.012, 0.18050738, 0.064288646, -1436053.1, -29829.652, 0.01991141, 9.997403, 10.001121 
1.8650287e+3, 1.6650623e+2, -1584379.8, -1623713.8, -105448.07, 0.16076604, -0.047745083, -1496780.4, -188542.45, 0.0045744055, 9.998952, 9.998425 
1.8650275e+3, 1.7650409e+2, -1123678.0, -1307759.5, -72909.766, -0.012200239, -0.13069391, -1098299.3, 111959.58, 0.0003360051, 10.001269, 9.998794 
1.8650305e+3, 1.8650381e+2, -1018995.2, -1081364.3, 7183.988, -0.022663087, -0.100652054, -1018178.4, 94081.63, 0.00000050835786, 10.000767, 9.999928 
1.8650359e+3, 1.9650452e+2, -1217437.8, -1132105.3, -93310.06, 0.050990976, -0.04565503, -1072169.5, -57918.445, 0.0, 9.998764, 9.999869 
1.8650399e+3, 2.0650406e+2, -1047407.6, -1159026.9, -168392.11, 0.11077847, 0.0074452627, -925817.7, -9562.435, 0.0, 9.999946, 9.998444 
1.865043e+3, 2.1650302e+2, -505617.78, -839545.3, -132184.83, 0.15233241, 0.034634385, -459626.78, 358639.6, 0.0, 10.002963, 9.998507 
1.865047e+3, 2.2650029e+2, -469011.88, -859235.25, -14879.353, 0.12766701, -0.042079613, -468445.34, 251847.69, 0.0, 10.002911, 9.997733 
1.8650515e+3, 2.3649669e+2, -611187.4, -850424.7, 4978.8315, 0.05748273, -0.19829729, -611083.8, 11243.931, 0.0, 10.001154, 9.997961 
1.8650538e+3, 2.4649534e+2, -341149.6, -649442.8, -116534.766, 0.002400837, -0.13808031, -302056.66, 222284.98, 0.0, 10.002234, 9.998151 
1.865055e+3, 2.5649527e+2, 137401.0, -373322.88, -157037.2, -0.04524932, 0.01700726, 181822.98, 608166.56, 0.0, 10.00488, 9.998096 
1.8650596e+3, 2.6649296e+2, 183408.22, -459757.94, -50098.85, 0.09799291, 0.057365865, 187287.22, 515652.75, 0.000000065173005, 10.00521, 9.996675 
1.865066e+3, 2.764893e+2, 158088.73, -404129.7, -9055.352, 0.34694272, -0.0018916136, 158234.55, 388633.6, 0.000009431314, 10.004278, 9.996832 
1.8650687e+3, 2.864849e+2, 313723.9, -295891.28, -29183.354, 0.30556723, -0.11158561, 315117.78, 447557.97, 0.00011311228, 10.00475, 9.996678 
1.8650691e+3, 2.964804e+2, 613477.3, -76167.65, -44494.8, 0.09185075, -0.2656448, 616336.2, 650819.6, 0.00046899397, 10.006047, 9.99688 
1.8650727e+3, 3.0647826e+2, 654339.0, -104517.7, 50809.258, 0.11227421, -0.12564065, 657725.8, 657725.8, 0.0011409054, 10.006311, 9.996227 
1.8650775e+3, 3.1647602e+2, 695934.6, 583.2251, -12269.791, 0.1304276, 0.0003456701, 696151.06, 696151.06, 0.0020244443, 10.006201, 9.997006 
1.875011e+3, 1.2650095e+2, -2072675.3, -1590716.3, 113644.664, 0.08311667, 0.0032066512, -1565263.3, 135026.92, 0.14588223, 9.99616, 10.002843 
1.8750185e+3, 1.3650025e+2, -2040873.5, -1830735.9, -1364.281, 0.43098587, -0.086243644, -1830727.0, -228425.75, 0.0986057, 9.997126, 9.999908 
1.87502e+3, 1.4650388e+2, -1811925.3, -1500728.6, 11507.888, 0.21951397, 0.22137697, -1500303.6, 3961.1978, 0.053927336, 9.997294, 10.001418 
1.8750243e+3, 1.5650326e+2, -1697867.1, -1398061.1, 46136.516, 0.17118458, -0.024110798, -1391121.9, 15144.945, 0.021407956, 9.997423, 10.001386 
1.8750273e+3, 1.665029e+2, -1556651.4, -1573418.6, -18957.32, 0.096049495, -0.04722022, -1544306.6, -236037.17, 0.0050250688, 9.99898, 9.998758 
1.8750289e+3, 1.7650312e+2, -1124983.6, -1313945.3, -5531.877, -0.009521205, 0.07671855, -1124821.8, 85446.375, 0.00038988978, 10.00128, 9.998749 
1.8750319e+3, 1.8650094e+2, -1183913.4, -1429056.1, -75083.336, 0.023629189, 0.05269496, -1162744.5, -50452.52, 0.000000733184, 10.000791, 9.997533 
1.8750356e+3, 1.9649729e+2, -1353339.0, -1414587.4, -138166.16, 0.13919625, -0.08803938, -1242443.9, -228113.17, 0.0, 9.998768, 9.99793 
1.8750402e+3, 2.0649582e+2, -995002.3, -1054540.0, -55940.727, 0.1267395, -0.096044466, -961402.8, -45057.87, 0.0, 9.999952, 9.999164 
1.875045e+3, 2.1649568e+2, -458469.16, -734306.44, -39546.727, 0.042598005, -0.046642922, -452911.34, 365432.97, 0.0, 10.002921, 9.999255 
1.875049e+3, 2.2649571e+2, -397664.28, -692376.75, -85057.77, 0.024211982, 0.054332994, -374877.38, 345465.16, 0.0, 10.002829, 9.998919 
1.8750525e+3, 2.364959e+2, -563063.2, -733768.0, -31047.443, 0.042534035, 0.15829788, -557591.75, 64747.996, 0.0, 10.001085, 9.998794 
1.8750565e+3, 2.4649306e+2, -444216.22, -841805.2, -16378.965, 0.036554076, 0.10685352, -443542.63, 80825.984, 0.0, 10.002142, 9.996877 
1.8750605e+3, 2.5648847e+2, 66074.63, -504130.97, -69207.84, 0.01814691, -0.0659735, 74354.41, 500770.25, 0.0, 10.004806, 9.997235 
1.875064e+3, 2.6648566e+2, 282332.47, -238592.64, -90815.5, 0.011781465, -0.12433087, 297710.78, 626150.3, 0.00000004605578, 10.005134, 9.998236 
1.875067e+3, 2.7648398e+2, 238519.7, -216249.39, -25246.08, 0.009768478, -0.13708311, 239916.94, 470365.8, 0.000008317364, 10.0041895, 9.998167 
1.8750711e+3, 2.8648177e+2, 302149.3, -301637.06, 13902.459, 0.047190167, -0.087466285, 302469.25, 434938.72, 0.00010628609, 10.004667, 9.996682 
1.8750754e+3, 2.964792e+2, 596030.4, -82579.53, 7454.664, 0.12549776, -0.0451497, 596112.25, 630609.25, 0.0004458049, 10.005921, 9.996899 
1.8750793e+3, 3.064771e+2, 662113.9, -60143.77, 33554.688, 0.125457, 0.075566866, 663669.4, 663669.4, 0.0010829802, 10.00619, 9.996589 
1.8750834e+3, 3.1647438e+2, 604511.9, -125378.04, 49804.414, 0.079053655, 0.124730475, 607894.6, 607894.6, 0.0019086462, 10.005945, 9.996257 
1.885007e+3, 1.2649652e+2, -2248147.3, -1656908.6, 21943.742, 0.14100252, 0.086708374, -1656095.3, 44240.273, 0.15411249, 9.994911, 10.0029 
1.885015e+3, 1.3649406e+2, -2228223.8, -1950632.8, -109247.414, 0.44735333, -0.15298624, -1912795.4, -310432.22, 0.10442951, 9.995956, 9.999652 
1.8850178e+3, 1.4649832e+2, -1811568.6, -1470317.9, -78201.695, 0.27422282, 0.21362671, -1453250.6, 51069.09, 0.057399224, 9.99716, 10.00171 
1.8850219e+3, 1.5649803e+2, -1548193.1, -1289535.5, -45624.563, 0.15570699, -0.030469792, -1281723.8, 124594.52, 0.023018045, 9.998292, 10.001725 
1.8850261e+3, 1.664981e+2, -1524816.0, -1508729.6, -70065.53, 0.09290309, -0.050603766, -1446247.1, -137930.53, 0.005521801, 9.998988, 9.9992 
1.8850298e+3, 1.7649888e+2, -1345826.1, -1388941.5, -64286.953, 0.026510214, 0.08654116, -1299578.6, -89268.73, 0.0004532519, 9.999622, 9.999042 
1.885033e+3, 1.8649678e+2, -1218195.4, -1505585.4, -90586.26, 0.054036744, 0.09192512, -1192025.4, -79691.36, 0.0000010252129, 10.000805, 9.997003 
1.8850361e+3, 1.9649291e+2, -868612.25, -1229303.1, -17385.01, 0.13505848, -0.021955824, -867776.25, 146600.89, 0.0, 10.002294, 9.997502 
1.8850407e+3, 2.0649111e+2, -757708.5, -919591.1, 122208.71, 0.12718931, -0.054402918, -692067.2, 224326.52, 0.0, 10.001496, 9.999344 
1.8850464e+3, 2.164907e+2, -942321.8, -946254.6, 89778.266, 0.059879154, -0.050980676, -854488.44, -36095.01, 0.0, 9.999517, 9.999435 
1.8850505e+3, 2.2649074e+2, -768331.2, -867002.1, -24589.66, 0.027646707, 0.038626324, -762542.8, -42152.066, 0.0, 10.000271, 9.998948 
1.8850541e+3, 2.3649092e+2, -348897.75, -631619.0, -59834.906, 0.013437332, 0.14110927, -336755.78, 285631.97, 0.0, 10.002557, 9.998787 
1.8850587e+3, 2.4648815e+2, -323742.53, -789580.1, 13845.746, 0.008126406, 0.10213614, -323331.38, 201085.16, 0.0, 10.003004, 9.996818 
1.885064e+3, 2.564838e+2, -278868.47, -676647.56, 34307.793, 0.0030454646, -0.038345575, -275931.16, 150531.33, 0.0, 10.002469, 9.997175 
1.8850678e+3, 2.6648098e+2, -23701.732, -378757.25, -47644.836, -0.011242604, -0.09981367, -17419.44, 311067.94, 0.000000017635879, 10.003004, 9.998294 
1.8850707e+3, 2.7647915e+2, 242859.97, -200855.73, -99371.92, -0.04861753, -0.13646163, 264098.16, 494597.16, 0.000007212163, 10.004173, 9.998276 
1.885075e+3, 2.8647733e+2, 309823.22, -265110.25, -55643.24, -0.025229221, -0.06944105, 315158.97, 447674.66, 0.00009799476, 10.004599, 9.996956 
1.8850803e+3, 2.9647535e+2, 439253.78, -139064.23, -61174.676, 0.07808941, 0.0066364855, 445654.03, 480190.9, 0.00041787952, 10.004756, 9.997071 
1.8850847e+3, 3.0647257e+2, 604680.8, -90192.88, -39436.19, 0.07092597, 0.0541267, 606911.8, 606911.8, 0.001018887, 10.00578, 9.996595 
1.8850885e+3, 3.164704e+2, 780882.3, -19837.924, -43618.66, -0.048358176, 0.1609672, 783251.44, 783251.44, 0.0017938823, 10.007045, 9.996464 
1.8950035e+3, 1.2649092e+2, -2237518.3, -1641883.5, 33348.96, 0.273798, 0.2724088, -1640022.1, 60374.46, 0.16258536, 9.994931, 10.003015 
1.8950082e+3, 1.3648538e+2, -2216561.8, -1922528.1, -63524.664, 0.16186933, -0.28820688, -1909390.9, -306942.13, 0.110513955, 9.995945, 9.999847 
1.895013e+3, 1.4649084e+2, -1783113.0, -1418348.4, -36091.426, 0.066617966, 0.16736408, -1414811.6, 89581.09, 0.06108175, 9.997173, 10.002083 
1.8950197e+3, 1.5649216e+2, -1521876.1, -1239215.4, -2710.5713, 0.10305133, 0.04928799, -1239189.4, 167187.67, 0.024752133, 9.9983015, 10.002079 
1.8950254e+3, 1.6649184e+2, -1482189.0, -1428816.0, -50702.527, 0.10418102, -0.052841995, -1398205.8, -89826.83, 0.0060684755, 9.999022, 9.999733 
1.8950298e+3, 1.764913e+2, -1298466.6, -1293882.6, -33028.527, 0.06401042, -0.10098342, -1263066.6, -52682.69, 0.0005270964, 9.999633, 9.999692 
1.8950337e+3, 1.864913e+2, -1123998.0, -1309225.9, -35099.01, 0.027625576, 0.00731399, -1117570.1, -5183.263, 0.0000013718216, 10.000803, 9.99835 
1.8950373e+3, 1.9649135e+2, -795877.3, -1072070.4, 22728.037, 0.0027970453, 0.15484577, -794019.5, 220371.34, 0.0, 10.002268, 9.998592 
1.8950419e+3, 2.0648998e+2, -783672.7, -972516.6, 40379.902, 0.063646145, 0.1368861, -775400.75, 141001.08, 0.0, 10.001487, 9.998987 
1.895047e+3, 2.1648794e+2, -979611.44, -1016689.3, 40668.203, 0.16700508, 0.014180441, -953455.94, -135040.48, 0.0, 9.999481, 9.998973 
1.8950516e+3, 2.2648509e+2, -855673.25, -1033572.0, 59078.68, 0.09709477, -0.10037109, -837841.2, -117400.89, 0.0, 10.000204, 9.99784 
1.8950558e+3, 2.364818e+2, -416204.9, -753077.8, 16740.91, -0.072441675, -0.23520103, -415375.0, 207096.61, 0.0, 10.002479, 9.99799 
1.8950604e+3, 2.4648082e+2, -257331.8, -636045.7, -12640.075, -0.13340038, -0.12538016, -256910.39, 267573.56, 0.0, 10.002927, 9.997913 
1.8950652e+3, 2.564812e+2, -238262.86, -576197.1, 28748.533, -0.12451741, 0.1002448, -235834.64, 190650.47, 0.0, 10.002397, 9.997902 
1.895071e+3, 2.664787e+2, -133649.02, -589823.5, -5070.0913, -0.01602287, 0.12161682, -133592.67, 194918.6, 0.0000000071100716, 10.002928, 9.996882 
1.8950765e+3, 2.7647457e+2, 150631.92, -369748.06, -53344.023, 0.12057771, -0.0047641224, 156043.92, 386595.03, 0.0000064261117, 10.004083, 9.997157 
1.8950802e+3, 2.8647152e+2, 334232.47, -200771.58, -56983.53, 0.02863152, -0.043802477, 340234.5, 472813.63, 0.000087012646, 10.004524, 9.99744 
1.8950833e+3, 2.964687e+2, 438720.13, -116173.29, -32574.414, -0.11025241, -0.094338864, 440625.8, 475229.38, 0.00037824424, 10.00464, 9.997292 
1.8950886e+3, 3.064647e+2, 555819.6, -148981.3, 7509.3013, -0.14465326, -0.15459383, 555899.6, 555899.6, 0.000936401, 10.005619, 9.996258 
1.8950929e+3, 3.1646425e+2, 755992.94, 25703.34, 58501.227, -0.3251391, 0.13677165, 760649.6, 760649.6, 0.0016674058, 10.006682, 9.996932 
1.9049999e+3, 1.264837e+2, -1937609.0, -1472242.3, 7510.0156, 0.329704, 0.34113023, -1472121.1, 228351.63, 0.1713416, 9.996736, 10.003551 
1.9050047e+3, 1.3647817e+2, -1914150.3, -1637869.5, 26277.184, 0.13306408, -0.3588451, -1635392.5, -32874.48, 0.11689223, 9.997431, 10.00108 
1.9050105e+3, 1.4648455e+2, -1724314.1, -1439343.4, 49207.547, 0.08087387, 0.1566106, -1431085.6, 73366.54, 0.06499328, 9.997788, 10.0016365 
1.9050175e+3, 1.564855e+2, -1627251.3, -1336027.9, 11600.664, 0.063094884, 0.051044267, -1335566.5, 70876.625, 0.026617203, 9.997771, 10.001659 
1.905024e+3, 1.6648503e+2, -1568747.0, -1462781.6, -58656.53, 0.097877674, -0.052695207, -1436721.5, -128273.11, 0.0066676727, 9.998393, 9.999803 
1.9050303e+3, 1.7648476e+2, -1289035.1, -1266687.9, -82236.195, 0.14806575, -0.08252377, -1194869.6, 15582.531, 0.0006122247, 9.999605, 9.999885 
1.9050345e+3, 1.8648542e+2, -1243957.6, -1274196.1, -133098.48, 0.10169559, 0.03620607, -1125122.4, -12675.133, 0.0000017786746, 9.999584, 9.999173 
1.9050378e+3, 1.964863e+2, -1237929.1, -1217189.3, -120630.26, -0.0034566582, 0.18616183, -1106484.0, -92043.69, 0.0, 9.998944, 9.999198 
1.9050425e+3, 2.0648485e+2, -956585.7, -1109748.5, -117878.055, 0.03898235, 0.16438101, -892597.0, 23855.236, 0.0, 10.000544, 9.998493 
1.9050483e+3, 2.1648218e+2, -438658.06, -805504.7, -136465.61, 0.15866733, 0.027994541, -393461.66, 425012.25, 0.0, 10.003414, 9.998525 
1.9050537e+3, 2.2647895e+2, -384164.72, -810232.25, -67073.875, 0.122862756, -0.1024892, -373855.03, 346647.78, 0.0, 10.003464, 9.997798 
1.9050586e+3, 2.3647551e+2, -495548.38, -790866.75, -40404.168, -0.009008519, -0.24799429, -490120.22, 132414.84, 0.0, 10.001931, 9.997993 
1.9050632e+3, 2.4647486e+2, -375793.06, -648104.4, -69940.97, -0.09519544, -0.12547188, -358879.78, 165664.23, 0.0, 10.00193, 9.9983015 
1.9050676e+3, 2.564758e+2, -146077.78, -488867.34, -87869.99, -0.15428966, 0.11165474, -124865.96, 301674.3, 0.0, 10.00285, 9.998276 
1.9050738e+3, 2.6647362e+2, -41832.645, -532829.56, -35549.3, -0.037692405, 0.14560978, -39272.15, 289291.06, 0.000000016068412, 10.003507, 9.996993 
1.905081e+3, 2.7646995e+2, 151946.81, -370290.56, 8838.498, 0.14702651, 0.05124313, 152096.36, 382695.97, 0.000006012808, 10.004082, 9.997159 
1.905085e+3, 2.8646672e+2, 305794.34, -257436.47, -2009.2799, 0.05334832, 0.020612342, 305801.53, 438431.28, 0.0000762193, 10.004517, 9.997052 
1.9050878e+3, 2.9646355e+2, 461555.63, -147710.61, -52708.055, -0.12456968, -0.027718112, 466081.8, 500740.06, 0.00033430677, 10.004989, 9.996901 
1.9050945e+3, 3.0645868e+2, 519336.5, -235284.23, -3230.122, -0.10028269, -0.12566276, 519350.3, 519350.3, 0.0008450269, 10.005658, 9.995657 
1.9051002e+3, 3.164557e+2, 686823.0, -4759.25, -29451.383, -0.22991262, -0.029494869, 688074.94, 688074.94, 0.0015380242, 10.006152, 9.996996 
1.9149953e+3, 1.2647453e+2, -1876869.1, -1367263.6, -33715.8, 0.18443435, 0.25460485, -1365042.8, 335524.53, 0.18042894, 9.996725, 10.00445 
1.9150041e+3, 1.3647236e+2, -1760848.5, -1351610.4, 53698.37, 0.32565176, -0.36594936, -1344681.6, 257889.44, 0.12358676, 9.997429, 10.003285 
1.9150104e+3, 1.4647944e+2, -1802593.5, -1610931.0, 47137.45, 0.27357545, 0.18690772, -1599965.4, -95467.22, 0.069141634, 9.997845, 10.000398 
1.9150145e+3, 1.5647805e+2, -1709102.6, -1502674.0, 18671.361, -0.006449537, -0.025939306, -1500998.8, -94482.14, 0.028615344, 9.997769, 10.000502 
1.9150218e+3, 1.6647774e+2, -1588101.6, -1514158.0, -17111.291, 0.019497722, -0.043998577, -1510390.3, -201865.75, 0.0073205116, 9.998435, 9.999431 
1.915031e+3, 1.7647927e+2, -1304432.4, -1306973.0, -42479.402, 0.2410107, 0.14185737, -1263204.3, -52689.984, 0.00070924795, 9.999637, 9.999594 
1.9150355e+3, 1.8647921e+2, -1218890.4, -1228639.4, -161156.22, 0.23006146, 0.18574725, -1062535.0, 49979.46, 0.0000023137907, 9.999611, 9.9994755 
1.9150375e+3, 1.9647785e+2, -1227333.5, -1194778.4, -121373.016, 0.07647292, 0.08384442, -1088596.4, -74071.72, 0.0, 9.998941, 9.999354 
1.9150428e+3, 2.0647575e+2, -1008216.7, -1214478.3, -9776.953, 0.008087996, 0.031070575, -1007754.3, -91209.72, 0.0, 10.000527, 9.997785 
1.9150503e+3, 2.1647345e+2, -477807.78, -874644.0, -46283.406, -0.0025572141, 0.000123094, -472481.2, 346086.94, 0.0, 10.003357, 9.998078 
1.9150567e+3, 2.2647233e+2, -325368.03, -667988.8, -126457.086, 0.05992751, 0.0401812, -283749.72, 436828.0, 0.0, 10.003373, 9.998821 
1.9150622e+3, 2.3647189e+2, -448339.2, -675134.44, -77802.76, 0.16036516, 0.09518508, -424214.84, 198364.52, 0.0, 10.001856, 9.998825 
1.9150668e+3, 2.4647006e+2, -409597.13, -701224.5, -37568.82, 0.066300616, 0.080556564, -404835.1, 119763.98, 0.0, 10.001853, 9.997976 
1.9150707e+3, 2.5646746e+2, -164339.44, -502198.84, -49870.516, -0.13633259, -0.00093859085, -157131.94, 269496.56, 0.0, 10.00275, 9.998229 
1.9150765e+3, 2.66466e+2, 57410.19, -310305.44, -20493.33, -0.1296235, 0.01021664, 58548.79, 387190.25, 0.000000038925435, 10.0034275, 9.998564 
1.9150834e+3, 2.7646512e+2, 219018.9, -210870.45, 35249.965, -0.022233529, 0.045230117, 221890.14, 452535.53, 0.000005434598, 10.003999, 9.998293 
1.9150889e+3, 2.864628e+2, 205669.64, -451618.44, 7943.2925, -0.024379341, 0.13238823, 205765.63, 338434.38, 0.00006479498, 10.004451, 9.995754 
1.915094e+3, 2.9645953e+2, 355965.9, -338921.9, -22924.645, -0.025899585, 0.20188944, 356721.4, 391425.63, 0.00028691624, 10.004869, 9.995646 
1.9151026e+3, 3.0645436e+2, 448977.4, -355922.34, 14797.138, 0.12434069, 0.17163715, 449249.34, 449249.34, 0.00074433314, 10.005544, 9.994879 
1.9151077e+3, 3.1644756e+2, 630330.56, -45559.15, -36554.93, -0.11922782, -0.045295015, 632301.9, 632301.9, 0.0013945741, 10.005852, 9.996843 
1.9249925e+3, 1.2646727e+2, -1887876.8, -1464738.8, 45159.55, 0.20097362, 0.22303961, -1459972.8, 240667.56, 0.18987963, 9.997106, 10.003492 
1.9250022e+3, 1.3646673e+2, -1739395.9, -1353225.0, -22862.654, 0.38700795, -0.21836407, -1351876.1, 250754.67, 0.13060497, 9.997602, 10.003215 
1.9250089e+3, 1.4647333e+2, -1769736.6, -1604823.6, -70418.0, 0.32650813, 0.2920171, -1578846.9, -74284.21, 0.07352615, 9.998126, 10.000299 
1.9250132e+3, 1.5647066e+2, -1585863.9, -1453205.3, -23372.7, 0.040965766, -0.033403967, -1449207.8, -42615.598, 0.030745408, 9.998661, 10.000408 
1.9250207e+3, 1.664705e+2, -1452934.0, -1418028.5, 32773.43, 0.02355688, -0.0471899, -1398350.4, -89752.59, 0.008026891, 9.999244, 9.999695 
1.92503e+3, 1.7647305e+2, -1245081.6, -1257887.3, 41902.324, 0.16799007, 0.2158151, -1209095.8, 1481.6224, 0.0008187495, 9.999969, 9.999769 
1.9250354e+3, 1.8647267e+2, -1020633.56, -1163704.6, -99494.445, 0.18111601, 0.23528498, -969627.3, 142953.02, 0.0000031359323, 10.001103, 9.999205 
1.9250384e+3, 1.9647016e+2, -725449.5, -978293.25, -106803.86, 0.10297107, 0.046117164, -686373.5, 328227.88, 0.0, 10.00249, 9.999133 
1.9250444e+3, 2.0646803e+2, -847678.56, -1124115.4, 34544.773, 0.044459846, -0.007656902, -843427.1, 73195.49, 0.0, 10.00158, 9.997895 
1.9250517e+3, 2.1646641e+2, -1038564.2, -1129151.6, 46574.094, -0.0011940305, 0.019523863, -1018891.25, -200250.23, 0.0, 9.999451, 9.998208 
1.9250579e+3, 2.2646612e+2, -797148.25, -864047.75, -42970.438, 0.036924556, 0.11909477, -776143.0, -55499.563, 0.0, 9.999995, 9.999106 
1.9250637e+3, 2.3646642e+2, -405659.0, -631049.06, -59163.1, 0.11345041, 0.22030316, -391073.06, 231565.23, 0.0, 10.002036, 9.999048 
1.9250686e+3, 2.4646431e+2, -364258.34, -693446.2, -28014.672, 0.041239366, 0.17588858, -361891.25, 162768.75, 0.0, 10.002225, 9.997851 
1.9250728e+3, 2.5646102e+2, -363435.2, -615662.2, -28733.521, -0.120432064, 0.040827643, -360203.3, 66491.66, 0.0, 10.001443, 9.998089 
1.9250795e+3, 2.664595e+2, -82249.51, -368314.56, -12197.086, -0.12539303, 0.050228734, -81730.4, 246977.7, 0.000000047147957, 10.002439, 9.998637 
1.9250871e+3, 2.7645886e+2, 292755.4, -167157.16, -86442.34, -0.06649961, 0.100816496, 308465.94, 539175.9, 0.000004366453, 10.004472, 9.998365 
1.9250931e+3, 2.864562e+2, 273447.44, -429210.28, -126121.15, -0.057203244, 0.15762973, 295399.3, 428136.7, 0.00005224593, 10.004979, 9.995647 
1.9250987e+3, 2.964527e+2, 335207.47, -357221.7, -80919.99, -0.024999645, 0.21490678, 344538.38, 379314.94, 0.00023738036, 10.004763, 9.99557 
1.9251078e+3, 3.0644813e+2, 478530.94, -287547.38, 93424.19, 0.107325725, 0.2253134, 489759.56, 489759.56, 0.00063668075, 10.005503, 9.995372 
1.9251147e+3, 3.164424e+2, 739141.06, 1309.6431, 35674.324, -0.025568707, 0.06398355, 740861.9, 740861.9, 0.0012294181, 10.006566, 9.996848 
1.9349904e+3, 1.2646188e+2, -2073186.8, -1810498.0, 18857.123, 0.26296592, 0.24661346, -1809151.3, -108458.95, 0.1997211, 9.997167, 10.00071 
1.9349986e+3, 1.364613e+2, -1902874.1, -1651433.0, 258.64478, 0.2636588, 0.087583244, -1651432.6, -48736.105, 0.13795441, 9.997587, 10.000917 
1.9350056e+3, 1.4646631e+2, -1698734.9, -1466058.9, -49868.46, 0.17645715, 0.47804686, -1455821.3, 48823.383, 0.07814733, 9.998139, 10.001276 
1.9350132e+3, 1.5646338e+2, -1518715.6, -1323466.3, 3195.7651, 0.16719162, 0.033439845, -1323413.9, 83255.3, 0.033007, 9.998685, 10.00131 
1.9350204e+3, 1.664634e+2, -1386328.4, -1286813.0, 54212.313, 0.059651855, -0.04985436, -1262985.4, 45682.293, 0.008786739, 9.999272, 10.000585 
1.9350274e+3, 1.764661e+2, -1200318.3, -1167042.3, 76455.95, -0.10435793, 0.14226438, -1105434.9, 105206.77, 0.00094156526, 9.999975, 10.000391 
1.935034e+3, 1.864657e+2, -1079829.8, -1287412.5, -48222.51, -0.0877309, 0.18058652, -1069174.4, 43471.703, 0.0000044945964, 10.001106, 9.998355 
1.9350404e+3, 1.9646318e+2, -768071.4, -1062905.1, -68555.14, 0.035685148, 0.072389394, -752910.5, 261760.69, 0.0, 10.002477, 9.998557 
1.9350465e+3, 2.0646165e+2, -787538.0, -999138.5, -51119.86, 0.09664738, 0.05245493, -775835.4, 140851.34, 0.0, 10.0015745, 9.998758 
1.9350524e+3, 2.1646091e+2, -998604.6, -1037550.0, -7000.7676, 0.117227264, 0.08373519, -997384.44, -178690.06, 0.0, 9.99941, 9.998858 
1.9350578e+3, 2.2646004e+2, -843589.3, -939584.44, 31452.627, 0.0038950793, 0.12566358, -834201.94, -113499.16, 0.0, 9.9999075, 9.998627 
1.9350629e+3, 2.3645903e+2, -446071.56, -691904.56, 7168.048, -0.18699215, 0.14127398, -445862.72, 176849.45, 0.0, 10.001946, 9.998667 
1.9350684e+3, 2.4645773e+2, -368952.0, -690813.44, -65414.926, -0.2184148, 0.18999216, -356165.1, 168560.58, 0.0, 10.002163, 9.997904 
1.935074e+3, 2.5645632e+2, -381715.22, -641450.06, -38847.945, -0.15281476, 0.23782218, -376029.28, 50711.64, 0.0, 10.001392, 9.997937 
1.9350824e+3, 2.6645404e+2, -195439.75, -583873.9, 60136.133, -0.08553726, 0.25919306, -186342.7, 142421.78, 0.00000001782158, 10.002356, 9.997196 
1.9350919e+3, 2.764511e+2, 196167.34, -330442.47, -15457.484, -0.038432382, 0.22306195, 196620.67, 427414.34, 0.0000032438913, 10.004327, 9.997306 
1.9350977e+3, 2.8644723e+2, 330551.9, -294943.4, -146338.42, -0.10755341, 0.14287107, 363095.5, 495928.38, 0.00004226928, 10.004893, 9.996619 
1.935102e+3, 2.9644302e+2, 397846.06, -205849.0, -73210.29, -0.19461063, 0.0341946, 406597.44, 441472.7, 0.0001971199, 10.004669, 9.996656 
1.9351102e+3, 3.0644014e+2, 570605.8, -59891.305, 133060.06, -0.21914315, 0.07391319, 597536.5, 597536.5, 0.00054246525, 10.005353, 9.997005 
1.9351198e+3, 3.1643826e+2, 713538.0, 39370.953, 26043.984, -0.1901511, 0.13488987, 714542.6, 714542.6, 0.0010686613, 10.006226, 9.99725 
1.9449884e+3, 1.2645486e+2, -1878145.9, -1775598.6, -70347.19, 0.2614829, 0.26060206, -1739822.3, -39060.6, 0.20999403, 9.998761, 10.00017 
1.9449963e+3, 1.364537e+2, -1757934.1, -1694146.0, 25624.652, 0.20328587, 0.14956054, -1685127.3, -82351.664, 0.14565058, 9.999059, 9.99991 
1.9450033e+3, 1.4645785e+2, -1619232.1, -1431305.6, -32878.51, 0.09878428, 0.50163496, -1425719.5, 79013.79, 0.083007626, 9.998685, 10.001272 
1.9450124e+3, 1.5645555e+2, -1608445.5, -1354653.8, -56096.06, 0.23612024, 0.11623187, -1342807.8, 63944.027, 0.03539992, 9.998024, 10.001407 
1.94502e+3, 1.6645566e+2, -1530043.8, -1307406.6, -18737.262, 0.14191048, 0.009532263, -1305840.8, 2906.441, 0.009600047, 9.998069, 10.001026 
1.9450265e+3, 1.7645791e+2, -1367167.9, -1203335.3, -31415.156, -0.110543996, 0.11529395, -1197517.9, 13204.047, 0.0010784023, 9.99863, 10.0007925 
1.9450338e+3, 1.8645777e+2, -1324229.5, -1386198.4, -98010.11, -0.11551617, 0.15241517, -1252422.9, -139699.22, 0.0000066792873, 9.999352, 9.998516 
1.9450416e+3, 1.9645599e+2, -1088201.6, -1202113.4, -64560.684, 0.020784719, 0.10180879, -1059064.3, -44321.04, 0.0, 10.000222, 9.998683 
1.9450481e+3, 2.0645502e+2, -854894.56, -1026081.7, -112115.38, 0.122199446, 0.13112772, -799434.56, 117319.35, 0.0, 10.001088, 9.998807 
1.9450538e+3, 2.1645463e+2, -628058.56, -862587.3, -128013.01, 0.19116032, 0.19305667, -571719.2, 247039.38, 0.0, 10.00196, 9.998836 
1.9450592e+3, 2.2645296e+2, -555320.9, -832594.4, -44365.727, 0.058652706, 0.1750258, -548395.06, 172379.28, 0.0, 10.0020275, 9.998337 
1.9450645e+3, 2.364506e+2, -502096.94, -748032.0, -67016.586, -0.1932129, 0.08483119, -485020.75, 137775.56, 0.0, 10.001686, 9.99841 
1.9450706e+3, 2.4644905e+2, -325501.13, -666922.25, -144777.67, -0.22595315, 0.12051748, -272375.44, 252435.48, 0.0, 10.002462, 9.997921 
1.9450767e+3, 2.5644794e+2, -15510.184, -470119.4, -135628.86, -0.1422472, 0.19758776, 21878.566, 448700.28, 0.0, 10.003927, 9.997893 
1.9450854e+3, 2.6644555e+2, -93198.46, -565514.9, 13348.162, -0.07201514, 0.22954533, -92821.53, 236025.3, 0.000000002142629, 10.003191, 9.996919 
1.9450949e+3, 2.764426e+2, -268330.06, -583142.75, 12807.456, -0.02571863, 0.21641402, -267809.88, -36930.688, 0.0000029419668, 10.001243, 9.997063 
1.9451016e+3, 2.8643903e+2, -99434.65, -466274.22, -75682.8, -0.057822734, 0.16522759, -84433.914, 48482.344, 0.00003739492, 10.001794, 9.99693 
1.945107e+3, 2.9643545e+2, 312963.6, -192923.22, -72064.266, -0.11271269, 0.08614104, 323028.97, 357982.03, 0.0001735075, 10.003847, 9.997145 
1.9451144e+3, 3.064329e+2, 512240.66, 8279.351, 84606.664, -0.28217366, 0.08212218, 526065.44, 526065.44, 0.00047425277, 10.004541, 9.99786 
1.9451255e+3, 3.1643257e+2, 534410.06, 9531.872, -83880.83, -0.15201354, 0.23677361, 547489.1, 547489.1, 0.00092858315, 10.0047035, 9.997791 
1.9549857e+3, 1.264466e+2, -1749265.9, -1560737.9, -27601.875, 0.08519511, 0.29856837, -1556779.8, 144064.98, 0.22070916, 9.998814, 10.001895 
1.9549952e+3, 1.3644391e+2, -1732666.0, -1650202.3, 32615.627, 0.17099732, -0.030506007, -1638861.8, -35993.88, 0.15369554, 9.999089, 10.000199 
1.9550015e+3, 1.4644799e+2, -1678321.8, -1561314.1, -64608.813, 0.037728008, 0.36416903, -1532657.3, -27828.408, 0.08810495, 9.998738, 10.000308 
1.9550101e+3, 1.5644705e+2, -1656501.4, -1457532.8, -71963.6, 0.20242864, 0.20450974, -1434233.1, -27392.16, 0.037922986, 9.998043, 10.000678 
1.9550188e+3, 1.6644716e+2, -1526892.3, -1306466.5, -1986.4016, 0.21382912, 0.1280082, -1306448.5, 2388.6917, 0.010466628, 9.998092, 10.001021 
1.9550274e+3, 1.7644845e+2, -1351738.8, -1179376.5, -6012.4106, 0.10989027, 0.13560323, -1179167.0, 31651.42, 0.0012294218, 9.998659, 10.000943 
1.9550349e+3, 1.8644881e+2, -1243018.8, -1221193.4, -67271.984, 0.046254322, 0.15280601, -1163954.8, -51141.246, 0.000009908067, 9.999371, 9.999638 
1.9550419e+3, 1.9644845e+2, -1029065.3, -1081546.9, -26297.36, 0.01999187, 0.13515635, -1018156.0, -3337.6538, 0.0, 10.000229, 9.999509 
1.9550489e+3, 2.0644796e+2, -918410.4, -1146330.4, -83345.39, 0.07795985, 0.22274642, -891184.9, 25640.98, 0.0, 10.001041, 9.998003 
1.9550557e+3, 2.1644746e+2, -685524.44, -964449.44, -96948.73, 0.184388, 0.35245892, -655137.44, 163696.58, 0.0, 10.001891, 9.998166 
1.9550623e+3, 2.2644483e+2, -574575.8, -854842.8, -58712.41, 0.1505022, 0.2700711, -562773.3, 158085.14, 0.0, 10.0019455, 9.998226 
1.9550686e+3, 2.3644103e+2, -523587.38, -771808.56, -63872.48, 0.03967137, 0.048950765, -508115.97, 114775.36, 0.0, 10.001602, 9.998284 
1.9550748e+3, 2.4643819e+2, -348357.28, -691061.2, -91903.74, -0.04989861, -0.033854093, -325267.0, 199649.33, 0.0, 10.002362, 9.997802 
1.955081e+3, 2.564359e+2, -26304.156, -470344.1, -92155.266, -0.13073933, -0.064842366, -7938.0605, 418998.63, 0.0, 10.003842, 9.997926 
1.9550881e+3, 2.6643443e+2, -43629.574, -451857.28, -67447.914, -0.13019179, 0.0042095263, -32774.39, 296177.97, 0.00000003752054, 10.003135, 9.997732 
1.9550955e+3, 2.7643326e+2, -228352.53, -494410.75, -34140.563, -0.084133245, 0.09680516, -224041.47, 6924.978, 0.0000033154865, 10.001218, 9.9976845 
1.9551043e+3, 2.8643152e+2, -141534.0, -538427.5, -6846.2295, 0.01640466, 0.2280974, -141415.94, -8427.621, 0.000035473782, 10.001728, 9.996468 
1.9551137e+3, 2.9642987e+2, 282502.72, -229566.5, 3179.9963, 0.15921, 0.3816784, 282522.44, 317533.0, 0.00015924606, 10.003746, 9.996936 
1.9551204e+3, 3.0642647e+2, 502902.03, 1628.8064, 69793.836, -0.17144655, 0.2889969, 512438.22, 512438.22, 0.0004199948, 10.004469, 9.997856 
1.955133e+3, 3.1642482e+2, 534221.7, 69485.016, 27961.951, 0.09751233, 0.31662065, 535898.0, 535898.0, 0.0007956754, 10.004482, 9.99829 
1.964983e+3, 1.264369e+2, -1820761.6, -1504062.8, -41393.51, -0.012151573, 0.29822913, -1498741.9, 202200.58, 0.23177752, 9.997858, 10.002877 
1.9649935e+3, 1.3643473e+2, -1962589.6, -1670125.9, -31496.479, 0.19646013, -0.07906428, -1666772.4, -63815.867, 0.1620495, 9.997137, 10.0009985 
1.9650003e+3, 1.4643916e+2, -1808112.5, -1666056.1, -38302.605, 0.09184824, 0.34194607, -1656386.8, -151472.22, 0.093428105, 9.998049, 9.999914 
1.9650088e+3, 1.5643886e+2, -1356090.3, -1354741.4, -22910.71, 0.15621175, 0.28091267, -1332495.1, 74428.72, 0.04057487, 10.0003, 10.000306 
1.965018e+3, 1.6643848e+2, -1215188.8, -1196517.9, 15950.358, 0.21161973, 0.19033766, -1187371.9, 121553.664, 0.011385711, 10.000415, 10.000663 
1.9650276e+3, 1.7643869e+2, -1272274.4, -1166504.0, -16224.955, 0.22386909, 0.124380246, -1164071.0, 46845.242, 0.0013940044, 9.999331, 10.000702 
1.9650353e+3, 1.8643916e+2, -1158602.8, -1130918.1, -69262.53, 0.14481847, 0.13762365, -1074128.3, 38781.375, 0.000014255441, 9.99973, 10.00009 
1.9650425e+3, 1.964396e+2, -892620.1, -973352.7, -88590.586, 0.022061462, 0.15601002, -835632.8, 179273.55, 0.0, 10.000984, 9.999888 
1.9650495e+3, 2.0643897e+2, -874238.9, -1129063.8, -141299.28, 0.038397837, 0.21739574, -811389.9, 105525.04, 0.0, 10.001349, 9.997981 
1.9650567e+3, 2.1643783e+2, -785557.94, -1013977.06, -109973.88, 0.127595, 0.28258112, -741217.56, 77712.01, 0.0, 10.001203, 9.998163 
1.965064e+3, 2.264356e+2, -653265.2, -891969.8, -51284.2, 0.15882064, 0.24119946, -642713.56, 78236.96, 0.0, 10.001404, 9.998235 
1.9650714e+3, 2.364327e+2, -488178.75, -764066.44, -53861.88, 0.14311147, 0.11371376, -478036.13, 144939.38, 0.0, 10.001865, 9.99822 
1.9650781e+3, 2.4642959e+2, -372959.5, -723936.56, -42454.723, 0.04632109, 0.017417189, -367897.13, 157106.16, 0.0, 10.002271, 9.997623 
1.9650845e+3, 2.564265e+2, -210778.89, -580276.56, -65544.07, -0.10381211, -0.07405307, -199496.72, 227534.33, 0.0, 10.002658, 9.9977455 
1.9650917e+3, 2.6642495e+2, 27910.123, -422499.97, -114427.914, -0.10380122, 0.0027900974, 55313.59, 384360.88, 0.00000006167767, 10.003658, 9.997679 
1.9650993e+3, 2.7642417e+2, 321973.78, -238172.8, -151899.66, -0.027585575, 0.13427365, 360514.0, 591572.25, 0.000003603985, 10.00504, 9.997603 
1.9651085e+3, 2.86422e+2, 373872.38, -307123.47, -83884.54, 0.09157676, 0.237263, 384053.0, 517136.2, 0.00003404661, 10.005343, 9.996315 
1.9651188e+3, 2.9641965e+2, 457196.84, -170482.19, -77344.89, 0.22901072, 0.3396385, 466587.1, 501697.84, 0.00014739127, 10.005046, 9.996721 
1.965126e+3, 3.064164e+2, 519936.75, -49752.76, -57289.594, -0.066066526, 0.30285546, 525640.8, 525640.8, 0.00037289204, 10.004854, 9.997317 
1.9651377e+3, 3.164146e+2, 557344.25, 8971.853, -73025.516, 0.11135333, 0.38355458, 566902.3, 566902.3, 0.0006757329, 10.004901, 9.9977045 
1.9749802e+3, 1.2642565e+2, -1792320.9, -1477052.8, -5590.54, -0.11131475, 0.24141377, -1476953.6, 224102.02, 0.24301729, 9.9979315, 10.003114 
1.9749913e+3, 1.3642612e+2, -1868639.1, -1502142.1, -49177.27, 0.24015293, -0.005113416, -1495658.3, 107383.92, 0.17062773, 9.997155, 10.002298 
1.9749998e+3, 1.4643149e+2, -1797561.6, -1648876.4, 41213.37, 0.2064195, 0.44123647, -1638216.9, -133226.95, 0.09895461, 9.998062, 10.00003 
1.9750082e+3, 1.5643096e+2, -1353152.4, -1358285.9, 45820.5, 0.058809843, 0.34982207, -1309826.9, 97174.09, 0.04335473, 10.000336, 10.000271 
1.9750173e+3, 1.6642958e+2, -1255823.6, -1289656.4, -30008.758, 0.084729314, 0.20152915, -1238291.6, 70720.81, 0.012356995, 10.000452, 10.0 
1.9750267e+3, 1.7642848e+2, -1311663.5, -1255292.0, -39659.125, 0.19739768, 0.07495794, -1234823.0, -23806.264, 0.0015709848, 9.999359, 10.000082 
1.9750352e+3, 1.8642865e+2, -1173558.4, -1162735.5, -24329.143, 0.13655615, 0.09817126, -1143223.3, -30209.766, 0.000019593592, 9.999734, 9.999869 
1.9750433e+3, 1.9642934e+2, -900952.4, -985194.3, -42701.39, -0.018612355, 0.1607795, -883093.5, 131914.56, 0.0, 10.000962, 9.999817 
1.9750501e+3, 2.0642804e+2, -830857.5, -1026771.6, -148181.5, -0.053527895, 0.115114905, -751181.94, 165839.78, 0.0, 10.001299, 9.998707 
1.9750565e+3, 2.1642578e+2, -751432.2, -930871.25, -106111.234, -0.018930402, -0.0003224331, -702194.2, 116850.516, 0.0, 10.001148, 9.99876 
1.9750643e+3, 2.264252e+2, -662640.75, -893753.4, -36680.14, 0.030275714, 0.09550804, -656958.9, 64092.734, 0.0, 10.001326, 9.998259 
1.9750728e+3, 2.364255e+2, -495766.06, -765799.3, -31709.082, 0.086998895, 0.2820466, -492092.53, 130957.43, 0.0, 10.001808, 9.998233 
1.9750804e+3, 2.4642324e+2, -402368.2, -769298.6, -31330.28, 0.0230444, 0.28619966, -399712.28, 125359.52, 0.0, 10.002201, 9.997348 
1.9750872e+3, 2.5641963e+2, -244023.95, -635890.0, -40399.51, -0.108487844, 0.1666345, -239902.31, 187204.05, 0.0, 10.002604, 9.997388 
1.9750959e+3, 2.6641706e+2, -55599.26, -571831.06, -67116.8, -0.061018094, 0.2143977, -47015.926, 282117.34, 0.000000055759365, 10.003554, 9.996702 
1.9751056e+3, 2.7641517e+2, 251521.98, -358491.1, -100874.62, 0.09176718, 0.32919905, 267770.3, 498925.75, 0.0000036492006, 10.00494, 9.996818 
1.9751142e+3, 2.864108e+2, 365021.22, -307787.1, -103649.805, 0.11196788, 0.23658587, 380627.03, 513824.78, 0.00003269789, 10.005259, 9.996356 
1.9751221e+3, 2.9640493e+2, 439943.4, -194329.72, -77538.85, 0.043719545, -0.011415886, 449284.8, 484537.03, 0.00013819415, 10.004994, 9.996583 
1.975131e+3, 3.064028e+2, 400218.84, -261157.92, -73280.125, -0.057802185, 0.14963958, 408240.94, 408240.94, 0.00033973978, 10.004705, 9.9959345 
1.9751425e+3, 3.164021e+2, 423432.06, -209351.34, 67937.31, 0.08379669, 0.4708796, 430643.8, 430643.8, 0.0005926145, 10.004685, 9.996288 
1.9849797e+3, 1.264151e+2, -1981237.9, -1651143.8, 107655.305, 0.08159939, 0.2203545, -1619137.1, 82019.63, 0.25424254, 9.9972315, 10.001937 
1.9849885e+3, 1.3641673e+2, -1539713.6, -1356046.3, -97597.59, 0.14605033, 0.09410602, -1313869.9, 289264.88, 0.17932345, 9.999447, 10.002418 
1.984999e+3, 1.464212e+2, -1592785.8, -1542880.4, -46289.418, 0.25999564, 0.43414888, -1515246.5, -10154.786, 0.104643695, 9.999436, 10.000093 
1.9850083e+3, 1.5642034e+2, -1583517.3, -1457323.6, -52814.79, 0.120903194, 0.3074068, -1438136.8, -31032.076, 0.046255346, 9.998713, 10.000346 
1.9850169e+3, 1.6641954e+2, -1425293.4, -1335259.0, -103624.586, 0.061664686, 0.193838, -1267295.6, 41815.1, 0.013380272, 9.999131, 10.000322 
1.9850251e+3, 1.764194e+2, -1183394.0, -1165270.0, -46136.625, 0.058404576, 0.13218649, -1127313.9, 83792.805, 0.0017591557, 10.000117, 10.000334 
1.9850342e+3, 1.8641962e+2, -1196989.1, -1188594.8, 9292.992, 0.06172463, 0.155809, -1182595.1, -69491.56, 0.0000256483, 9.999632, 9.999741 
1.9850436e+3, 1.9641979e+2, -1280026.8, -1176471.4, -6045.669, 0.055273544, 0.17902464, -1176119.6, -161016.22, 0.0, 9.998389, 9.999745 
1.985051e+3, 2.0641856e+2, -1107667.6, -1126058.6, -88510.41, 0.014959278, 0.12604602, -1027876.3, -110759.96, 0.0, 9.999256, 9.999003 
1.9850574e+3, 2.1641667e+2, -699853.56, -883656.8, -89514.63, -0.047316995, 0.01939241, -663463.44, 155671.94, 0.0, 10.001412, 9.998952 
1.9850655e+3, 2.2641616e+2, -498007.56, -855461.5, -54982.54, -0.030769166, 0.13353767, -489741.47, 231401.53, 0.0, 10.00263, 9.997894 
1.9850747e+3, 2.3641637e+2, -305653.6, -707126.94, -88371.945, 0.027701743, 0.34605074, -287062.2, 336082.44, 0.0, 10.003265, 9.99793 
1.9850829e+3, 2.4641436e+2, -234882.81, -689164.06, -95979.61, 0.015394725, 0.39058772, -215436.84, 309727.63, 0.0, 10.003371, 9.997328 
1.9850905e+3, 2.5641108e+2, -163031.73, -608999.06, -94543.46, -0.051107395, 0.31127328, -143816.75, 283378.4, 0.0, 10.003215, 9.997282 
1.9850996e+3, 2.664078e+2, -162245.6, -670703.56, -66772.82, -0.010512336, 0.31343368, -153622.94, 175605.84, 0.00000004684117, 10.003019, 9.9962845 
1.9851094e+3, 2.7640468e+2, -92557.84, -574493.5, -75644.04, 0.08748206, 0.35468698, -80963.77, 150298.33, 0.000003631824, 10.002777, 9.996386 
1.9851181e+3, 2.8640014e+2, 156929.73, -417718.03, -52524.855, 0.045984272, 0.27142853, 161691.23, 294996.75, 0.00003088302, 10.003883, 9.996256 
1.985126e+3, 2.9639447e+2, 547226.9, -156403.7, -61782.254, -0.10608989, 0.053476077, 552610.5, 587967.94, 0.00012805921, 10.005802, 9.996451 
1.9851369e+3, 3.0639154e+2, 586152.44, -162485.5, -35980.344, -0.0010097906, 0.13965218, 587877.7, 587877.7, 0.0003118684, 10.005927, 9.99603 
1.9851466e+3, 3.163902e+2, 460015.78, -168537.05, 184697.58, 0.027317, 0.38873756, 510270.38, 510270.38, 0.0005380696, 10.004797, 9.996533 
1.9949812e+3, 1.2640502e+2, -2162425.0, -2013822.5, 216647.02, 0.4855164, 0.21050099, -1859089.6, -157842.3, 0.26535824, 9.997258, 9.999261 
1.9949853e+3, 1.3640657e+2, -1602000.9, -1487582.4, -52220.17, -0.13125221, 0.22213325, -1467333.0, 135901.31, 0.18805622, 9.999477, 10.00132 
1.994998e+3, 1.4640824e+2, -1582290.8, -1533738.8, -82084.72, 0.20334172, 0.31941846, -1472415.5, 32804.863, 0.11045076, 9.99949, 10.000151 
1.9950089e+3, 1.5640686e+2, -1568748.9, -1432874.5, -65524.434, 0.29857028, 0.1435503, -1406424.6, 811.81604, 0.04926506, 9.998736, 10.0005045 
1.9950165e+3, 1.6640815e+2, -1331175.6, -1143320.5, -68698.08, 0.09308552, 0.15644428, -1120878.9, 188343.39, 0.014456319, 9.999138, 10.00165 
1.9950224e+3, 1.7641133e+2, -1104141.0, -1003724.8, -19831.574, -0.22614837, 0.29484484, -999950.1, 211237.05, 0.0019582892, 10.000126, 10.001443 
1.995032e+3, 1.8641189e+2, -1198274.0, -1194390.6, -42982.99, -0.123821355, 0.30729496, -1153305.5, -40124.008, 0.000032105352, 9.999646, 9.999695 
1.9950436e+3, 1.9641078e+2, -1283029.0, -1181993.1, -32471.848, 0.20391469, 0.20982052, -1172457.1, -157262.89, 0.0, 9.998391, 9.999705 
1.9950522e+3, 2.0641029e+2, -1118715.6, -1146504.6, -11678.61, 0.19780567, 0.2396696, -1114459.5, -197258.23, 0.0, 9.999241, 9.998872 
1.9950594e+3, 2.1641026e+2, -721705.6, -917255.56, -11694.001, 0.0055070883, 0.3294281, -721008.8, 98195.375, 0.0, 10.001359, 9.998748 
1.9950679e+3, 2.2640833e+2, -558955.7, -965752.8, -30662.926, -0.07212169, 0.35322148, -556657.4, 164568.88, 0.0, 10.002558, 9.997172 
1.9950768e+3, 2.3640527e+2, -358140.8, -800927.6, -59202.33, -0.08197625, 0.30944604, -350361.88, 272897.8, 0.0, 10.003197, 9.997317 
1.9950858e+3, 2.4640286e+2, -243971.73, -680611.06, -104815.375, -0.04320686, 0.33094034, -220114.31, 305167.9, 0.0, 10.003253, 9.997442 
1.9950946e+3, 2.5640085e+2, -162848.92, -594132.56, -95491.086, 0.02639949, 0.36497512, -142651.94, 284646.25, 0.0, 10.003156, 9.997409 
1.9951028e+3, 2.6639718e+2, -172964.88, -674657.56, -80662.164, 0.001741204, 0.3229108, -160314.97, 169018.47, 0.000000042002604, 10.002943, 9.996294 
1.9951107e+3, 2.7639264e+2, -103352.08, -583644.75, -67210.016, -0.07897189, 0.219232, -94124.305, 137255.02, 0.0000035134383, 10.002728, 9.996342 
1.9951199e+3, 2.863898e+2, 112224.305, -483677.38, 13436.952, -0.17494847, 0.33239102, 112527.14, 245936.06, 0.00002820436, 10.003767, 9.99586 
1.9951302e+3, 2.963878e+2, 521779.72, -189282.89, 3653.3975, -0.27821416, 0.5108183, 521798.47, 557229.2, 0.00011358282, 10.005712, 9.996268 
1.9951433e+3, 3.0638254e+2, 638641.75, 309.44135, -83597.516, 0.0447512, 0.3009091, 649408.3, 649408.3, 0.00027727833, 10.0057125, 9.997243 
1.9951491e+3, 3.163789e+2, 543295.5, 58334.75, 75394.79, -0.22936615, 0.17857097, 554746.44, 554746.44, 0.00048601098, 10.004603, 9.99816 
2.0049793e+3, 1.2639327e+2, -1746982.6, -1893374.9, 111154.9, 0.4068087, 0.17237827, -1687088.3, 14270.867, 0.27641812, 10.000481, 9.998539 
2.0049846e+3, 1.3639526e+2, -1752847.1, -1538989.4, -63002.45, -0.09856888, 0.23316102, -1521809.0, 81534.83, 0.1968332, 9.998369, 10.001436 
2.0049982e+3, 1.4639597e+2, -1760628.4, -1565624.5, -25411.785, 0.33736673, 0.19263914, -1562367.4, -57028.234, 0.11636926, 9.998033, 10.000615 
2.0050068e+3, 1.5639545e+2, -1531716.0, -1387833.5, 19576.451, 0.21078289, 0.06742214, -1385217.5, 22127.793, 0.05238356, 9.998852, 10.000776 
2.0050147e+3, 1.6639742e+2, -1356866.4, -1156151.3, -19691.494, 0.0070033157, 0.13805486, -1154237.6, 155088.22, 0.015589432, 9.998956, 10.001655 
2.0050226e+3, 1.7640103e+2, -1312592.3, -1098157.1, -76309.47, -0.1552842, 0.31803387, -1073774.0, 137515.92, 0.0021699998, 9.99867, 10.001494 
2.0050323e+3, 1.8640175e+2, -1221411.8, -1176793.3, -123736.11, -0.053893946, 0.32982165, -1073371.4, 39911.785, 0.00003871999, 9.999371, 9.999944 
2.0050426e+3, 1.964007e+2, -931496.8, -994618.4, -93626.78, 0.16053642, 0.21380392, -864254.5, 151039.56, 0.0, 10.000729, 9.999864 
2.0050524e+3, 2.0640035e+2, -803644.44, -1013625.56, -20029.244, 0.16871956, 0.25962475, -801751.0, 115548.92, 0.0, 10.001489, 9.998702 
2.0050617e+3, 2.1640044e+2, -640416.9, -892014.8, -35532.227, 0.060249712, 0.38233858, -635495.06, 183807.39, 0.0, 10.001975, 9.998626 
2.0050707e+3, 2.2639851e+2, -597725.75, -963656.6, -40757.727, -0.009990265, 0.4003649, -593241.06, 128083.34, 0.0, 10.002213, 9.99735 
2.0050798e+3, 2.3639536e+2, -475837.47, -844601.7, -18959.691, -0.06758282, 0.33356076, -474865.25, 148492.64, 0.0, 10.002342, 9.997427 
2.0050889e+3, 2.4639247e+2, -344259.6, -758820.1, -56242.07, -0.034920283, 0.31593487, -336764.9, 188619.73, 0.0, 10.00267, 9.997193 
2.0050979e+3, 2.5638977e+2, -196782.52, -642707.0, -80756.19, 0.043484773, 0.30750036, -182608.25, 244798.88, 0.0, 10.003046, 9.997132 
2.0051064e+3, 2.6638588e+2, -77425.45, -656810.2, -74171.63, 0.025510594, 0.27218112, -68080.87, 261363.1, 0.000000029896977, 10.003728, 9.996029 
2.0051146e+3, 2.7638134e+2, 160305.28, -479570.2, -94192.01, -0.055637553, 0.19314292, 173882.6, 405372.0, 0.0000031274246, 10.004637, 9.996133 
2.005124e+3, 2.8637862e+2, 148763.2, -427981.13, 12615.06, -0.15093108, 0.30811748, 149039.0, 282557.3, 0.000025154262, 10.003839, 9.996215 
2.005134e+3, 2.9637712e+2, -19464.666, -423148.56, 34762.082, -0.27194473, 0.5091131, -16493.104, 19043.113, 0.00009776422, 10.001882, 9.996504 
2.005148e+3, 3.0637243e+2, 231847.48, -163983.47, -34335.047, 0.08666509, 0.333319, 234803.69, 234803.69, 0.00024026696, 10.002762, 9.997541 
2.0051545e+3, 3.163679e+2, 671508.8, 164642.9, -66643.5, -0.18612137, 0.087696336, 680124.75, 680124.75, 0.0004319432, 10.005255, 9.998603 
2.0149733e+3, 1.2637983e+2, -1664781.3, -1709833.3, -29305.16, -0.2614641, 0.09197658, -1650344.9, 51147.88, 0.28771394, 10.000529, 9.999796 
2.014986e+3, 1.3638271e+2, -1665185.8, -1386114.4, -108470.2, 0.19841406, 0.11606629, -1348913.0, 254551.4, 0.20582092, 9.998368, 10.002767 
2.0149991e+3, 1.4638425e+2, -1701207.9, -1452243.0, 23.785275, 0.6042534, 0.047014806, -1452243.0, 53206.164, 0.12247417, 9.998039, 10.001441 
2.0150018e+3, 1.5638605e+2, -1501705.8, -1330540.4, 47658.31, -0.18489563, 0.08407419, -1318165.4, 89265.78, 0.055639356, 9.998858, 10.001192 
2.0150112e+3, 1.6638741e+2, -1443863.9, -1338506.9, -33315.35, -0.24871038, 0.14851688, -1328856.1, -19435.283, 0.016791714, 9.998975, 10.000378 
2.0150252e+3, 1.763885e+2, -1380845.9, -1243619.8, -72811.67, 0.22853184, 0.20390615, -1212186.4, -771.30444, 0.0023981123, 9.998686, 10.000486 
2.0150346e+3, 1.8638913e+2, -1182077.8, -1099905.8, -77188.5, 0.22169007, 0.2202979, -1053549.6, 59859.508, 0.000045425786, 9.999388, 10.000464 
2.0150408e+3, 1.9638951e+2, -907185.25, -940118.1, -42885.258, -0.11154246, 0.19801362, -877713.8, 137689.33, 0.0, 10.000711, 10.000246 
2.0150511e+3, 2.0638873e+2, -822538.06, -1046308.1, -4576.1978, -0.12365321, 0.19769172, -822444.5, 94967.57, 0.0, 10.00146, 9.998492 
2.0150639e+3, 2.163873e+2, -656135.1, -907700.5, -12617.011, 0.07543524, 0.1879626, -655503.9, 163925.9, 0.0, 10.0019045, 9.998552 
2.0150742e+3, 2.2638662e+2, -546814.9, -834456.6, -38043.05, 0.103276156, 0.28255427, -541868.44, 179570.0, 0.0, 10.002107, 9.998288 
2.0150833e+3, 2.363864e+2, -429958.25, -741039.06, -7011.2827, 0.030194994, 0.41376784, -429800.3, 193641.4, 0.0, 10.002297, 9.998162 
2.0150918e+3, 2.46383e+2, -399943.13, -850850.6, -43430.176, -0.013283356, 0.34673956, -395798.16, 129675.69, 0.0, 10.002579, 9.996603 
2.0151003e+3, 2.5637776e+2, -249003.36, -733276.44, -57180.57, -0.03488155, 0.14192957, -242343.36, 185179.63, 0.0, 10.002979, 9.996538 
2.01511e+3, 2.6637375e+2, -132086.77, -749613.3, -41753.977, 0.00639486, 0.15552883, -129276.36, 200285.52, 0.0000000091701935, 10.003638, 9.995436 
2.0151208e+3, 2.7637056e+2, 126870.03, -533749.0, -62786.68, 0.10263021, 0.2651522, 132784.45, 364379.25, 0.0000023642951, 10.00457, 9.995793 
2.0151296e+3, 2.863667e+2, 192521.77, -304265.1, -67166.28, 0.034976825, 0.22575504, 201442.55, 335075.56, 0.000021595964, 10.003709, 9.997122 
2.0151372e+3, 2.9636255e+2, 19771.01, -337763.78, -12081.373, -0.14870664, 0.07248554, 20178.783, 55852.535, 0.0000838711, 10.001861, 9.997099 
2.0151503e+3, 3.063608e+2, 152514.9, -280991.03, 57399.69, 0.03895941, 0.21229683, 159986.31, 159986.31, 0.00020805722, 10.00258, 9.996816 
2.0151608e+3, 3.1635943e+2, 603038.94, 109707.21, -50906.58, -0.09253337, 0.3372653, 608237.2, 608237.2, 0.00038165474, 10.004935, 9.998349 
2.0249726e+3, 1.2636915e+2, -1914796.5, -1753038.9, 60851.227, -0.2700311, 0.07171848, -1732703.8, -31104.75, 0.29983783, 9.998346, 10.000523 
2.0249847e+3, 1.363729e+2, -1448946.5, -1255303.9, -28875.854, 0.15486954, 0.13278815, -1251089.8, 352470.7, 0.21537028, 9.999906, 10.003166 
2.024997e+3, 1.4637457e+2, -1394489.1, -1309703.9, 34909.168, 0.5103188, 0.055603202, -1297180.4, 208362.69, 0.12892798, 10.000217, 10.00152 
2.025001e+3, 1.56377e+2, -1425098.5, -1295362.9, 26721.979, -0.18442556, 0.15103166, -1290074.5, 117444.65, 0.05909158, 9.999391, 10.001186 
2.0250107e+3, 1.6637808e+2, -1422195.1, -1353103.6, -12940.994, -0.20004295, 0.2027864, -1350759.3, -41247.82, 0.018083457, 9.999241, 10.000142 
2.0250247e+3, 1.7637828e+2, -1255640.6, -1210501.0, 20441.123, 0.2788308, 0.19208449, -1202620.3, 8894.174, 0.0026487417, 9.999675, 10.000234 
2.0250347e+3, 1.8637834e+2, -1100143.3, -1093714.9, 40539.64, 0.26397714, 0.17742078, -1056262.3, 57251.69, 0.000052423693, 10.000085, 10.000172 
2.0250414e+3, 1.963783e+2, -945639.6, -983259.06, 6166.35, -0.089432724, 0.14202489, -944654.6, 70856.69, 0.0, 10.000544, 10.000031 
2.0250522e+3, 2.063778e+2, -899751.6, -1056269.8, 34684.652, -0.11552956, 0.16283345, -892409.9, 25107.703, 0.0, 10.000818, 9.998728 
2.0250651e+3, 2.1637698e+2, -770385.4, -942518.1, 48423.82, 0.057576858, 0.18982968, -757698.06, 61831.53, 0.0, 10.001034, 9.998729 
2.0250759e+3, 2.2637604e+2, -674635.9, -910019.75, -6963.9316, 0.085924774, 0.25763866, -674430.06, 47110.375, 0.0, 10.001289, 9.998162 
2.025085e+3, 2.363751e+2, -542171.1, -806353.7, -56462.26, 0.017078318, 0.32906047, -530609.75, 92940.52, 0.0, 10.00158, 9.998056 
2.0250943e+3, 2.4637203e+2, -423837.7, -863016.5, -71622.48, -0.007855432, 0.29987848, -412452.47, 113127.766, 0.0, 10.002419, 9.996597 
2.0251036e+3, 2.5636765e+2, -158236.61, -686274.94, -55043.316, -0.014045448, 0.18739936, -152559.86, 275062.53, 0.0, 10.00359, 9.996567 
2.0251141e+3, 2.663639e+2, -96654.62, -696723.6, 7401.5044, 0.047126174, 0.20145988, -96563.336, 233095.73, 0.000000001074916, 10.0037155, 9.995769 
2.0251252e+3, 2.763605e+2, -66329.23, -603569.2, 34214.133, 0.15081467, 0.26552442, -64159.066, 167533.08, 0.0000018159459, 10.003141, 9.996004 
2.025134e+3, 2.8635645e+2, 132286.28, -381340.25, -19842.23, 0.09637422, 0.21975307, 133051.69, 266785.2, 0.000018189116, 10.003495, 9.996696 
2.0251408e+3, 2.9635212e+2, 365822.06, -205011.81, -71070.27, -0.08864121, 0.091753416, 374537.44, 410315.84, 0.000072167386, 10.004388, 9.996795 
2.0251529e+3, 3.0635077e+2, 372714.22, -147182.95, 67300.28, -0.012603996, 0.2674827, 381284.9, 381284.9, 0.00017965562, 10.003918, 9.997112 
2.0251644e+3, 3.1635076e+2, 247007.53, -52846.93, -50892.313, -0.08123171, 0.51427305, 255409.72, 255409.72, 0.00033328187, 10.0023985, 9.998471 
2.0349766e+3, 1.2636161e+2, -1902914.8, -1736857.5, 16733.154, 0.26024625, 0.13071854, -1735188.1, -33513.742, 0.3135409, 9.998373, 10.000626 
2.0349804e+3, 1.363658e+2, -1477641.5, -1324351.6, 20300.162, -0.2898492, 0.29177773, -1321708.8, 281922.88, 0.22593072, 9.9999485, 10.002579 
2.0349923e+3, 1.4636691e+2, -1426672.1, -1387044.5, 4320.878, -0.007260635, 0.22257417, -1386578.9, 119042.32, 0.13594478, 10.000272, 10.000891 
2.035004e+3, 1.5636815e+2, -1451053.3, -1352920.3, 5046.373, 0.16551882, 0.2611649, -1352661.5, 54949.04, 0.06282382, 9.999415, 10.000756 
2.035013e+3, 1.6636929e+2, -1362500.3, -1238186.8, -3670.9836, 0.09283807, 0.29170707, -1238078.5, 71520.96, 0.019494196, 9.999271, 10.000925 
2.0350213e+3, 1.7637022e+2, -1216175.8, -1134411.4, 39909.332, -0.0435711, 0.2786637, -1118161.1, 93428.3, 0.0029308582, 9.999692, 10.000752 
2.0350325e+3, 1.8636915e+2, -1174039.3, -1248734.0, 56682.605, 0.021653648, 0.1898349, -1143506.3, -29907.094, 0.00006041413, 10.000094, 9.999104 
2.0350449e+3, 1.96367e+2, -1004142.4, -1103270.9, 26884.182, 0.18225805, 0.04606424, -997320.7, 18299.023, 0.0, 10.000539, 9.999211 
2.0350556e+3, 2.0636737e+2, -854542.56, -958209.4, 38293.35, 0.12990524, 0.15204008, -841931.56, 75686.66, 0.0, 10.0008, 9.999409 
2.0350653e+3, 2.1636921e+2, -746322.44, -884321.9, 61523.234, -0.033772618, 0.38238755, -722877.2, 96726.875, 0.0, 10.000995, 9.99915 
2.0350751e+3, 2.2636662e+2, -766610.75, -1078304.4, 2309.7039, -0.1133742, 0.32680574, -766593.6, -44961.91, 0.0, 10.001198, 9.997048 
2.0350851e+3, 2.3636137e+2, -616220.3, -945922.56, -31528.783, -0.13900737, 0.08056003, -613232.4, 10451.75, 0.0, 10.001523, 9.997124 
2.0350961e+3, 2.4635935e+2, -403063.16, -798359.56, -28802.445, -0.0690944, 0.16918735, -400975.56, 124729.9, 0.0, 10.002327, 9.997085 
2.0351082e+3, 2.5635925e+2, -123268.125, -603756.56, -12900.404, 0.06289786, 0.4303406, -122922.016, 304786.13, 0.0, 10.003539, 9.997162 
2.0351183e+3, 2.6635605e+2, -36230.445, -539358.0, -16774.678, 0.08210008, 0.41113806, -35671.78, 294065.97, 0.000000023664393, 10.003592, 9.996902 
2.0351273e+3, 2.7635095e+2, -27106.799, -503286.4, 26814.127, 0.04773164, 0.18863656, -25601.627, 206182.75, 0.0000019634658, 10.003064, 9.996728 
2.0351364e+3, 2.8634748e+2, -11855.265, -645362.5, 8324.761, -0.018690474, 0.26979458, -11745.89, 122077.664, 0.000016146072, 10.003351, 9.994951 
2.035145e+3, 2.9634532e+2, 277668.94, -379015.2, -34084.848, -0.12338301, 0.5301572, 279433.34, 315287.72, 0.000062268045, 10.004334, 9.995631 
2.0351554e+3, 3.0634204e+2, 403891.78, -9226.405, 6079.293, -0.1800189, 0.48911005, 403981.22, 403981.22, 0.00015400637, 10.003637, 9.998176 
2.0351663e+3, 3.1633976e+2, 256079.22, 42947.773, -25654.428, -0.1499653, 0.40605155, 259123.73, 259123.73, 0.00028763196, 10.002112, 9.999242 
2.0449759e+3, 1.2635347e+2, -1797742.4, -1691406.3, 36904.746, 0.3249186, 0.11122742, -1679853.4, 21897.262, 0.3294151, 9.999084, 10.000659 
2.0449805e+3, 1.3635695e+2, -1579235.9, -1450770.4, 40746.746, -0.24177329, 0.278095, -1438936.4, 164779.64, 0.23787552, 9.999466, 10.001718 
2.0449917e+3, 1.4635776e+2, -1614840.5, -1533076.1, -27295.146, -0.03745342, 0.25796902, -1524801.6, -19091.924, 0.14372098, 9.99918, 10.000289 
2.0450029e+3, 1.5635787e+2, -1612090.8, -1479123.1, -29520.857, 0.17315781, 0.235116, -1472863.6, -65152.04, 0.06692591, 9.99854, 10.000285 
2.0450123e+3, 1.6635868e+2, -1424665.9, -1261919.3, -15305.216, 0.10527024, 0.24933043, -1260492.5, 49211.07, 0.021061258, 9.998822, 10.000975 
2.0450209e+3, 1.7635979e+2, -1204591.4, -1119811.3, -35533.438, -0.05658213, 0.24723552, -1106888.3, 104802.13, 0.003256253, 9.999735, 10.000827 
2.0450327e+3, 1.86359e+2, -1164629.1, -1219687.4, 13785.298, 0.039392322, 0.17270194, -1161370.5, -47674.44, 0.00007088071, 10.000063, 9.999318 
2.045046e+3, 1.9635719e+2, -1061627.0, -1116423.6, 72281.734, 0.25330696, 0.04304763, -1011725.1, 3987.1619, 0.0, 10.000095, 9.9993305 
2.045057e+3, 2.0635724e+2, -924363.5, -1060133.6, 76318.29, 0.20183636, 0.14488903, -890107.2, 27608.35, 0.0, 10.000615, 9.998802 
2.045067e+3, 2.1635836e+2, -705082.8, -912892.6, -2812.4707, 0.0005096179, 0.36401653, -705044.75, 114666.484, 0.0, 10.001501, 9.998706 
2.0450771e+3, 2.26356e+2, -587168.5, -948166.56, -23318.65, -0.09720637, 0.32749075, -585668.5, 136068.05, 0.0, 10.002232, 9.997447 
2.0450872e+3, 2.3635143e+2, -399395.0, -803336.4, 45293.65, -0.14151591, 0.10905142, -394378.53, 229401.9, 0.0, 10.002841, 9.997469 
2.0450987e+3, 2.4634929e+2, -319328.2, -762681.3, 76855.17, -0.08278936, 0.17431037, -306383.34, 219418.78, 0.0, 10.002915, 9.997046 
2.0451109e+3, 2.563487e+2, -256648.97, -670365.5, 40419.71, 0.027445842, 0.38969916, -252737.0, 175072.98, 0.0, 10.002638, 9.997132 
2.0451207e+3, 2.663458e+2, -183071.08, -604960.25, -43423.375, 0.032256085, 0.39870352, -178648.05, 151190.16, 0.00000011200642, 10.002556, 9.996952 
2.0451295e+3, 2.7634153e+2, -91373.44, -522769.44, -87228.46, -0.015027048, 0.25336212, -74403.37, 157475.78, 0.000002326167, 10.002581, 9.996821 
2.0451389e+3, 2.863382e+2, -86338.36, -641827.9, -2369.4158, -0.049329244, 0.32697415, -86328.25, 47587.47, 0.000014696717, 10.002649, 9.995319 
2.0451486e+3, 2.9633573e+2, 48219.645, -446322.5, 74779.19, -0.11612628, 0.51885504, 59279.58, 95226.68, 0.000053738604, 10.002581, 9.996007 
2.0451587e+3, 3.063321e+2, 208264.23, -82894.89, 90561.76, -0.11714236, 0.41779464, 234133.9, 234133.9, 0.00013193817, 10.0022, 9.998361 
2.045169e+3, 3.163306e+2, 269891.06, 109313.7, -12137.673, -0.07488889, 0.40629593, 270803.3, 270803.3, 0.0002496462, 10.001908, 9.999816 
2.0549704e+3, 1.2634487e+2, -1797324.4, -1697585.5, 52764.777, -0.16804332, 0.015691634, -1674852.8, 26973.588, 0.3476065, 9.999121, 10.000616 
2.0549849e+3, 1.3634625e+2, -1648972.4, -1578669.9, 59877.023, 0.23344009, 0.07787638, -1544388.6, 59425.715, 0.2513395, 9.999509, 10.000595 
2.0549949e+3, 1.4634705e+2, -1654033.0, -1618968.5, -56012.83, 0.34344396, 0.14575742, -1577808.1, -71998.52, 0.15236652, 9.999201, 9.99969 
2.0549978e+3, 1.5634614e+2, -1645281.4, -1554430.6, -41011.383, -0.21306518, 0.07451981, -1538656.4, -130833.92, 0.071473114, 9.998563, 9.99976 
2.0550081e+3, 1.6634618e+2, -1469305.6, -1360072.1, 15323.909, -0.21700466, 0.07482596, -1357963.1, -48139.04, 0.022826005, 9.998848, 10.000283 
2.0550232e+3, 1.7634694e+2, -1232275.1, -1179452.4, -1415.5758, 0.19437118, 0.10641771, -1179414.5, 32402.846, 0.0036400491, 9.9997425, 10.000416 
2.055035e+3, 1.8634781e+2, -1054210.4, -996711.75, 11222.988, 0.25613472, 0.12939388, -994598.8, 119206.73, 0.00008593674, 10.000084, 10.000839 
2.0550445e+3, 1.9634877e+2, -987563.25, -966248.75, 81422.41, 0.08104658, 0.12935019, -894789.1, 121001.67, 0.0, 10.000106, 10.000359 
2.0550561e+3, 2.0634726e+2, -1057145.6, -1333841.6, 105822.67, 0.04838368, 0.13786256, -1021313.8, -103502.65, 0.0, 10.000608, 9.996924 
2.0550695e+3, 2.1634428e+2, -807968.9, -1118485.8, 34675.895, 0.117886126, 0.13041264, -804143.7, 15708.709, 0.0, 10.001464, 9.997313 
2.0550811e+3, 2.2634384e+2, -471046.97, -682869.3, -2668.7517, 0.0746766, 0.24236426, -471013.34, 250844.7, 0.0, 10.0021305, 9.999316 
2.0550911e+3, 2.363449e+2, -301342.38, -583079.0, 68744.36, -0.037188344, 0.40161467, -285463.53, 338378.97, 0.0, 10.002767, 9.999018 
2.0551015e+3, 2.4634169e+2, -378256.22, -851310.1, 62399.34, -0.108473495, 0.3203611, -370163.72, 155708.44, 0.0, 10.00278, 9.9965 
2.0551118e+3, 2.5633588e+2, -310532.63, -765977.9, 38589.83, -0.15483862, 0.07130229, -307286.06, 120643.17, 0.0, 10.002573, 9.996507 
2.0551215e+3, 2.6633298e+2, -268310.53, -760780.5, -44854.484, -0.1505634, 0.16354395, -264258.5, 65703.414, 0.00000017468948, 10.002466, 9.995926 
2.0551313e+3, 2.7633187e+2, -135022.42, -611829.44, -75203.13, -0.09432126, 0.43887064, -123442.44, 108536.74, 0.0000023499456, 10.002559, 9.996227 
2.0551413e+3, 2.8632838e+2, 42311.363, -329755.56, -9383.993, -0.08423179, 0.39129046, 42547.89, 176560.42, 0.000012296112, 10.002477, 9.997535 
2.0551512e+3, 2.9632318e+2, 160932.23, -193775.25, 77471.5, -0.12814814, 0.08407034, 177114.48, 213172.16, 0.00004437096, 10.002503, 9.997776 
2.0551634e+3, 3.0632028e+2, 106761.14, -221222.27, 58083.047, 0.08224349, 0.02349283, 116743.34, 116743.34, 0.00011165042, 10.001922, 9.997532 
2.0551726e+3, 3.163223e+2, 240740.98, 103870.516, 17371.352, 0.056700133, 0.43229666, 242911.31, 242911.31, 0.0002192235, 10.001679, 9.9998865 
2.064969e+3, 1.2633544e+2, -1860173.1, -1719397.4, 9768.275, -0.18940078, -0.052501954, -1718722.8, -16809.633, 0.36771804, 9.998675, 10.000593 
2.0649841e+3, 1.3633619e+2, -1658669.9, -1624263.8, 40166.67, 0.20504276, -0.009054755, -1597771.3, 6137.6816, 0.26616043, 9.999646, 10.000114 
2.0649946e+3, 1.4633739e+2, -1549721.9, -1569750.9, -57071.406, 0.3556229, 0.12312916, -1501793.0, 4107.796, 0.1618756, 9.99993, 9.999674 
2.0649971e+3, 1.5633647e+2, -1488512.4, -1481314.1, -9575.884, -0.204297, 0.04436259, -1474683.3, -66769.5, 0.07651462, 9.999653, 9.999733 
2.0650074e+3, 1.6633606e+2, -1375999.8, -1367766.6, 122481.54, -0.2012891, 0.023405802, -1249332.5, 60587.625, 0.024829434, 9.9997, 9.999833 
2.0650235e+3, 1.763362e+2, -1211847.8, -1212616.9, 116186.516, 0.2203158, 0.036053125, -1096045.1, 115874.83, 0.0041003036, 10.000061, 10.000038 
2.0650354e+3, 1.8633734e+2, -1001926.4, -983000.7, 59366.41, 0.2626644, 0.106112495, -932347.7, 181559.36, 0.000108260756, 10.000497, 10.000732 
2.0650445e+3, 1.9633894e+2, -849441.7, -906779.94, 5711.6543, 0.038958255, 0.18140064, -848878.3, 167009.73, 0.0, 10.001084, 10.000296 
2.0650569e+3, 2.063373e+2, -906433.9, -1247905.0, 99203.49, 0.014860747, 0.17126475, -879705.6, 38203.57, 0.0, 10.001581, 9.997049 
2.0650713e+3, 2.1633375e+2, -715998.1, -1065059.4, 165092.47, 0.11528032, 0.09353226, -650286.25, 169667.66, 0.0, 10.002053, 9.997398 
2.0650837e+3, 2.2633323e+2, -510276.28, -724474.4, 78490.42, 0.1398472, 0.20759031, -484593.72, 237366.88, 0.0, 10.001961, 9.999112 
2.0650947e+3, 2.3633455e+2, -490413.3, -686076.7, -11109.687, 0.110673316, 0.41200146, -489784.53, 134160.17, 0.0, 10.001529, 9.998903 
2.0651047e+3, 2.4633162e+2, -490986.34, -852329.94, -16564.781, -0.003469663, 0.33846143, -490228.56, 35742.55, 0.0, 10.001777, 9.996976 
2.0651141e+3, 2.5632605e+2, -306050.13, -720578.6, 22059.818, -0.18091622, 0.06596947, -304879.47, 123144.64, 0.0, 10.002421, 9.996891 
2.065124e+3, 2.6632285e+2, -228616.42, -777158.75, 8116.891, -0.17082207, 0.12663515, -228496.33, 101563.53, 0.00000012472299, 10.002882, 9.995618 
2.0651348e+3, 2.7632114e+2, -54311.17, -589034.25, 15372.849, -0.03972192, 0.37112072, -53869.582, 178214.58, 0.0000018192295, 10.00319, 9.996076 
2.0651451e+3, 2.8631827e+2, 178907.7, -179162.64, 34032.184, 0.0010465377, 0.35233033, 182113.53, 316223.56, 0.000008845643, 10.003039, 9.998305 
2.0651543e+3, 2.9631433e+2, 197747.66, -109541.15, -9130.142, -0.05258197, 0.09785741, 198018.69, 234159.27, 0.000033808126, 10.0024805, 9.998363 
2.0651662e+3, 3.0631042e+2, 274031.6, -137185.17, 10125.746, 0.1534942, -0.08733653, 274280.78, 274280.78, 0.00009162271, 10.002993, 9.997629 
2.0651762e+3, 3.1631187e+2, 520612.9, 156137.9, -38449.61, 0.14323726, 0.25339276, 524624.94, 524624.94, 0.00019045938, 10.003928, 9.999182 
2.0749712e+3, 1.2632474e+2, -1859935.0, -1724655.5, 9399.571, 0.1251606, -0.13111962, -1724005.5, -21990.012, 0.38886976, 9.998699, 10.000547 
2.0749778e+3, 1.3632673e+2, -1639981.1, -1596369.1, 67435.23, -0.3995582, 0.016610106, -1547301.9, 56698.61, 0.28190908, 9.999695, 10.000374 
2.0749904e+3, 1.4632879e+2, -1508579.3, -1493325.5, -65009.918, -0.06081956, 0.19147933, -1435496.6, 70487.05, 0.17213808, 9.999982, 10.000234 
2.0750003e+3, 1.563287e+2, -1448378.8, -1410213.5, -14347.344, 0.14452516, 0.14115097, -1405421.6, 2565.7307, 0.08207624, 9.999698, 10.000203 
2.07501e+3, 1.6632809e+2, -1380284.4, -1381034.3, 128623.945, 0.08788874, 0.08832374, -1252034.9, 57958.98, 0.027111659, 9.9997225, 9.999729 
2.0750213e+3, 1.7632751e+2, -1234711.1, -1260410.5, 132409.8, -0.019100329, 0.042020172, -1114529.0, 97469.98, 0.0046569863, 10.000065, 9.999708 
2.0750335e+3, 1.8632744e+2, -1115218.8, -1225683.9, 77370.6, 0.013853261, 0.101222076, -1075389.0, 38613.203, 0.00014131474, 10.000528, 9.999052 
2.0750462e+3, 1.963276e+2, -933264.94, -1079838.0, 31364.04, 0.090303205, 0.19633251, -926835.6, 89169.69, 0.0000000002137382, 10.001079, 9.999111 
2.0750588e+3, 2.0632723e+2, -759403.5, -937870.44, 114749.81, 0.046814267, 0.24570931, -703274.9, 214735.81, 0.0, 10.001562, 9.999185 
2.0750718e+3, 2.1632661e+2, -619268.6, -846336.0, 183775.86, -0.046817068, 0.25310665, -516785.03, 303231.97, 0.0, 10.001976, 9.998936 
2.0750849e+3, 2.2632408e+2, -682885.25, -1057125.1, 61153.152, 0.052312966, 0.2227256, -673145.94, 48899.297, 0.0, 10.001855, 9.996876 
2.0750979e+3, 2.3632036e+2, -623886.1, -948670.4, -13740.196, 0.26121607, 0.14505276, -623305.9, 781.00385, 0.0, 10.001469, 9.9971285 
2.0751084e+3, 2.463189e+2, -403835.75, -652428.4, 5676.446, 0.16856726, 0.21638614, -403706.22, 122394.67, 0.0, 10.001693, 9.998389 
2.0751172e+3, 2.5631884e+2, -223533.58, -538926.75, 51024.34, -0.10455274, 0.35308945, -215484.3, 212613.8, 0.0, 10.002372, 9.998163 
2.0751277e+3, 2.6631507e+2, -227075.89, -737211.5, 14874.789, -0.09621865, 0.2844535, -226642.53, 103492.375, 0.000000021824269, 10.002735, 9.995958 
2.0751394e+3, 2.7630898e+2, -50618.92, -561513.3, 32667.06, 0.09625903, 0.057634912, -48538.63, 183657.8, 0.00000084431264, 10.003111, 9.996302 
2.0751494e+3, 2.863073e+2, 108093.58, -287276.84, 5083.7793, 0.12346117, 0.18107715, 108158.94, 242372.61, 0.000005133315, 10.002879, 9.997636 
2.0751578e+3, 2.9630843e+2, 148356.94, -209624.22, -14012.606, 0.031195039, 0.5007307, 148904.61, 185107.14, 0.000023674193, 10.002451, 9.997694 
2.0751679e+3, 3.0630207e+2, 268126.53, -43959.28, 37736.504, -0.0036730345, 0.06201608, 272624.7, 272624.7, 0.00007214658, 10.002598, 9.99843 
2.0751789e+3, 3.163015e+2, 339452.03, -103292.07, -42896.33, -0.00797911, 0.10698197, 343569.84, 343569.84, 0.00015812898, 10.003493, 9.997577 
2.08497e+3, 1.263142e+2, -1844191.1, -1725002.3, -40248.918, 0.12337272, -0.08294234, -1712683.8, -10564.776, 0.40993002, 9.998844, 10.000473 
2.0849766e+3, 1.3631587e+2, -1730740.9, -1564500.0, 39462.652, -0.4522695, -0.044074867, -1555608.0, 48496.387, 0.29801235, 9.9986725, 10.001116 
2.0849907e+3, 1.4631824e+2, -1572272.6, -1520612.5, -80777.68, -0.024347967, 0.12161044, -1461635.5, 44449.184, 0.18298064, 9.9995165, 10.000252 
2.085001e+3, 1.563188e+2, -1241055.9, -1322023.6, -81878.86, 0.16970919, 0.14582324, -1190199.3, 217884.75, 0.088167645, 10.001281, 10.000104 
2.0850106e+3, 1.6631849e+2, -1146345.9, -1259908.5, 17482.32, 0.08321814, 0.12550606, -1143715.5, 166371.69, 0.029713616, 10.001335, 9.999787 
2.085021e+3, 1.7631796e+2, -1190048.3, -1240725.9, 30095.092, -0.05823785, 0.076795824, -1176045.4, 36044.586, 0.005333032, 10.000389, 9.999681 
2.0850335e+3, 1.8631718e+2, -1190777.6, -1341330.0, 62542.363, -0.0315904, 0.102749385, -1168186.3, -54084.863, 0.00018960002, 10.000346, 9.99835 
2.0850466e+3, 1.9631614e+2, -989863.8, -1168641.5, 78410.88, 0.036333986, 0.14905636, -960346.7, 55772.184, 0.000000020895914, 10.000948, 9.998569 
2.0850599e+3, 2.0631604e+2, -824959.94, -920558.4, 98570.83, 0.019432869, 0.22404607, -763210.2, 154911.42, 0.0, 10.000907, 9.999617 
2.0850733e+3, 2.1631649e+2, -795607.5, -888176.2, 36362.81, -0.028071238, 0.29720268, -783031.9, 37083.92, 0.0, 10.000581, 9.999318 
2.0850861e+3, 2.2631408e+2, -802308.56, -1099693.8, -10621.741, 0.040453557, 0.2550324, -801929.7, -79787.38, 0.0, 10.000962, 9.997024 
2.0850983e+3, 2.3630989e+2, -568747.1, -907843.94, 79620.37, 0.16547115, 0.116058454, -550982.75, 73206.19, 0.0, 10.001778, 9.997268 
2.0851097e+3, 2.463087e+2, -368693.47, -630884.5, 113676.54, 0.12664111, 0.20409495, -326271.28, 199930.31, 0.0, 10.001916, 9.998427 
2.0851201e+3, 2.5630933e+2, -315664.6, -565592.44, 50435.36, -0.018960437, 0.4076068, -305870.56, 122323.15, 0.0, 10.001666, 9.998313 
2.0851308e+3, 2.6630598e+2, -290556.1, -652875.3, 21913.955, 0.0002788713, 0.31346697, -289235.5, 40988.61, 0.0, 10.0018, 9.996986 
2.0851421e+3, 2.7630004e+2, -140539.58, -524130.47, 72412.15, 0.1142795, 0.0017305485, -127325.24, 104953.81, 0.000000115745564, 10.002144, 9.997026 
2.0851521e+3, 2.8629807e+2, -8221.971, -481858.2, 40549.99, 0.115516976, 0.13611805, -4775.3955, 129525.914, 0.0000020138657, 10.002662, 9.996408 
2.0851605e+3, 2.962987e+2, 185723.53, -302553.47, -38164.39, 0.018265376, 0.5317535, 188688.5, 224990.16, 0.000014488007, 10.003194, 9.9966955 
2.0851697e+3, 3.0629408e+2, 351300.56, 28835.533, 14210.214, -0.089400195, 0.2889302, 351925.53, 351925.53, 0.000052987816, 10.002985, 9.998763 
2.0851813e+3, 3.1629252e+2, 161454.25, -209546.94, -148494.53, -0.018807508, 0.21724077, 213569.1, 213569.1, 0.00012349615, 10.002303, 9.997444 
2.0949645e+3, 1.2630412e+2, -1854980.0, -1753523.3, -26751.977, -0.32929912, 0.12292792, -1746901.5, -44680.95, 0.42994058, 9.998876, 10.000265 
2.0949797e+3, 1.3630351e+2, -1641664.5, -1441802.4, 27630.016, -0.010049609, -0.19817285, -1438053.0, 166168.56, 0.31401625, 9.998705, 10.002324 
2.0949946e+3, 1.4630565e+2, -1602034.3, -1588387.0, -27136.178, 0.39445227, -0.085751675, -1567229.6, -61024.67, 0.19429262, 9.999535, 9.999739 
2.0949988e+3, 1.5630674e+2, -1275067.0, -1396522.5, -30379.127, -0.18246739, 0.060321856, -1267892.3, 140312.0, 0.094824284, 10.001309, 9.999531 
2.0950085e+3, 1.6630718e+2, -1125741.1, -1227473.4, -20427.684, -0.27154306, 0.12656152, -1121792.5, 188408.58, 0.032688897, 10.001381, 10.000001 
2.0950226e+3, 1.7630748e+2, -1167462.8, -1202553.8, 4073.2173, 0.0614941, 0.1405681, -1166996.1, 45197.516, 0.0061590113, 10.000422, 9.999933 
2.0950349e+3, 1.8630646e+2, -1168436.8, -1300313.5, 81215.2, 0.07107683, 0.11747372, -1129762.6, -15557.333, 0.00026052183, 10.000371, 9.998618 
2.0950456e+3, 1.963045e+2, -988114.6, -1162634.0, 99547.69, -0.1589495, 0.047701996, -942996.1, 73233.28, 0.00000016154512, 10.000937, 9.998614 
2.0950596e+3, 2.0630357e+2, -918004.75, -1105711.3, 80636.06, -0.10875504, 0.10685456, -888122.0, 30121.494, 0.0, 10.000876, 9.998358 
2.0950754e+3, 2.1630332e+2, -857885.8, -1003571.56, 34512.008, 0.13099384, 0.22998096, -850123.7, -29872.975, 0.0, 10.000525, 9.99855 
2.0950875e+3, 2.2630309e+2, -643253.06, -748812.44, 18632.002, 0.056536008, 0.3011867, -640060.94, 82192.55, 0.0, 10.000873, 9.9994755 
2.0950967e+3, 2.3630288e+2, -444534.84, -627975.4, 111302.91, -0.21070428, 0.32005394, -392029.78, 232223.67, 0.0, 10.001687, 9.999232 
2.0951086e+3, 2.4630079e+2, -476677.0, -825447.1, 100076.695, -0.1832004, 0.30385703, -450001.13, 76274.35, 0.0, 10.001792, 9.997149 
2.0951223e+3, 2.5629747e+2, -384807.56, -701267.7, 50481.324, 0.031538673, 0.23610759, -376949.94, 51361.863, 0.0, 10.001632, 9.9974 
2.0951334e+3, 2.6629522e+2, -189475.72, -419652.25, 30652.69, 0.050763614, 0.20230705, -185463.63, 144866.44, 0.0, 10.001706, 9.998631 
2.0951428e+3, 2.7629375e+2, -70192.87, -360440.78, 92536.55, -0.039442148, 0.17919262, -43200.656, 189135.77, 0.0, 10.002072, 9.998183 
2.0951529e+3, 2.862903e+2, -165924.95, -756729.94, 52476.063, -0.09303189, 0.21393456, -161300.17, -26924.857, 0.00000039293647, 10.002445, 9.994623 
2.0951624e+3, 2.962854e+2, 77339.664, -508791.5, -9064.064, -0.12210339, 0.22860014, 77479.8, 113915.5, 0.000007661527, 10.003108, 9.995325 
2.0951714e+3, 3.0628505e+2, 283963.56, -13847.275, -22580.863, -0.24551436, 0.47305512, 285666.0, 285666.0, 0.000036947218, 10.002612, 9.9986315 
2.0951846e+3, 3.162831e+2, 214016.94, 4051.8545, -48467.4, 0.0248456, 0.39114538, 224664.94, 224664.94, 0.00009410404, 10.001904, 9.9990835 
2.1049644e+3, 1.262921e+2, -1698062.9, -1746919.1, -23186.883, -0.3039179, 0.1384285, -1688810.8, 13529.809, 0.44859928, 10.000329, 9.999616 
2.1049793e+3, 1.3629115e+2, -1551720.9, -1366436.9, -26602.404, 0.057849973, -0.26950616, -1362693.0, 241652.69, 0.3298663, 9.999215, 10.002891 
2.1049929e+3, 1.4629559e+2, -1689991.0, -1633329.5, -52353.855, 0.32172933, 0.04170001, -1602132.5, -95825.66, 0.20615475, 9.998944, 9.999714 
2.1049981e+3, 1.5629591e+2, -1651371.1, -1590070.9, -31353.146, -0.25344694, 0.11660699, -1576875.3, -168561.77, 0.10215144, 9.998663, 9.999468 
2.1050085e+3, 1.6629563e+2, -1398112.3, -1345799.5, -10156.342, -0.30700564, 0.10834718, -1343896.9, -33580.37, 0.036114734, 9.999405, 10.000119 
2.1050233e+3, 1.7629594e+2, -1078271.9, -1145533.8, 547.9466, 0.040455583, 0.103626855, -1078267.5, 134040.66, 0.007176738, 10.00097, 10.000061 
2.1050356e+3, 1.862953e+2, -1054221.4, -1239357.9, 58786.223, 0.056327716, 0.11263747, -1037132.5, 77182.516, 0.0003661867, 10.001133, 9.998669 
2.1050464e+3, 1.9629373e+2, -1056657.0, -1193139.9, 54338.8, -0.170075, 0.07876674, -1037665.44, -21330.33, 0.00000091193453, 10.000468, 9.998628 
2.1050604e+3, 2.0629248e+2, -951551.75, -1134325.0, 100310.41, -0.11503551, 0.1123292, -907241.3, 11110.944, 0.0, 10.000688, 9.998257 
2.1050765e+3, 2.1629155e+2, -718041.2, -937061.1, 129619.81, 0.11616238, 0.1766559, -657864.06, 162502.11, 0.0, 10.001484, 9.9985485 
2.1050884e+3, 2.262917e+2, -518670.25, -618659.2, 65149.586, 0.04170063, 0.24975245, -486543.38, 235820.9, 0.0, 10.001436, 10.000089 
2.1050976e+3, 2.3629236e+2, -516939.03, -602003.1, 14399.162, -0.2349526, 0.29479453, -514567.72, 109786.66, 0.0, 10.00093, 9.999767 
2.1051098e+3, 2.4629067e+2, -516078.75, -818456.5, 40656.117, -0.2067643, 0.28282437, -510707.75, 15665.024, 0.0, 10.001409, 9.997385 
2.105124e+3, 2.5628746e+2, -250966.64, -616226.4, 86642.25, -0.0008671092, 0.20621781, -231456.58, 196952.52, 0.0, 10.002474, 9.997577 
2.1051355e+3, 2.6628575e+2, -93583.94, -414467.44, 10201.104, 0.043843087, 0.235148, -93259.97, 237165.16, 0.0, 10.002531, 9.998276 
2.105145e+3, 2.7628493e+2, -104610.914, -402699.22, -75958.695, -0.021010643, 0.31485248, -86371.23, 146057.3, 0.0, 10.00194, 9.997959 
2.1051553e+3, 2.8628114e+2, -131393.25, -638325.9, -6283.9136, -0.06301614, 0.27461845, -131315.38, 3152.9106, 0.00000006547354, 10.002253, 9.9955225 
2.1051656e+3, 2.9627505e+2, 124372.59, -408697.2, 88607.055, -0.1058176, 0.08638519, 138715.0, 175249.11, 0.0000047361223, 10.0031185, 9.995999 
2.1051751e+3, 3.0627513e+2, 322322.13, -97960.59, 77910.805, -0.16057874, 0.38911298, 336300.13, 336300.13, 0.00002876755, 10.003266, 9.997759 
2.1051867e+3, 3.162741e+2, 345565.22, 93226.25, -9955.388, 0.01851231, 0.48776376, 345957.38, 345957.38, 0.00007801721, 10.002648, 9.999358 
2.1149687e+3, 1.2627815e+2, -1753691.4, -1904538.0, -103041.84, 0.06666531, -0.047641367, -1701418.5, 1060.1976, 0.46656317, 10.000431, 9.998477 
2.1149752e+3, 1.3627884e+2, -1551035.4, -1378371.9, -36344.492, -0.31776682, -0.2573358, -1371033.5, 233443.25, 0.34608045, 9.999279, 10.002794 
2.1149859e+3, 1.4628783e+2, -1648858.3, -1570788.0, -57424.06, -0.3149845, 0.47877204, -1540387.8, -33994.777, 0.21890919, 9.999031, 10.000105 
2.1149985e+3, 1.5628617e+2, -1606549.4, -1517866.1, -34187.71, -0.09918182, 0.30510443, -1506216.9, -97803.69, 0.110347085, 9.998742, 9.999926 
2.1150103e+3, 1.6628389e+2, -1388714.4, -1336515.8, 43662.152, -0.09002593, 0.07520727, -1311747.0, -1313.9291, 0.040102176, 9.99945, 10.000159 
2.1150222e+3, 1.7628326e+2, -1074993.6, -1143943.5, 51980.836, -0.1635177, -0.027104616, -1047094.5, 165339.08, 0.008443992, 10.000992, 10.000062 
2.1150349e+3, 1.8628356e+2, -1062993.9, -1261219.5, 29095.613, -0.12727958, 0.08240114, -1058811.5, 55620.78, 0.00052604213, 10.001148, 9.998511 
2.1150482e+3, 1.9628371e+2, -1055432.4, -1194731.0, 41686.023, -0.04399422, 0.2364408, -1043910.56, -27473.402, 0.0000034897541, 10.000484, 9.998609 
2.1150617e+3, 2.0628269e+2, -884637.7, -988143.4, 128898.59, -0.056153096, 0.23668723, -797490.56, 120958.445, 0.0, 10.000656, 9.999275 
2.1150757e+3, 2.162812e+2, -679333.7, -837369.2, 158666.95, -0.10864341, 0.14534418, -581097.4, 239365.14, 0.0, 10.001404, 9.99927 
2.1150889e+3, 2.262798e+2, -621627.6, -804578.5, 43809.445, -0.06226096, 0.10061073, -611678.06, 110798.195, 0.0, 10.001315, 9.99887 
2.1151014e+3, 2.3627833e+2, -585130.0, -729145.6, 8823.345, 0.039347645, 0.05275875, -584591.44, 39900.22, 0.0, 10.000869, 9.998925 
2.1151133e+3, 2.4627826e+2, -411448.44, -578945.56, 79865.14, -0.01557821, 0.14567217, -379472.06, 147022.05, 0.0, 10.001313, 9.999073 
2.115125e+3, 2.562791e+2, -181123.05, -456125.47, 125052.52, -0.15419236, 0.3092327, -132762.16, 295726.25, 0.0, 10.002405, 9.998711 
2.1151367e+3, 2.6627725e+2, -270404.22, -747416.44, -15863.525, -0.08561109, 0.40354687, -269877.25, 60634.54, 0.0, 10.002391, 9.996053 
2.1151485e+3, 2.7627358e+2, -215069.64, -622058.7, -81445.32, 0.11105865, 0.41280332, -199376.2, 33178.273, 0.0, 10.001896, 9.996474 
2.1151595e+3, 2.862701e+2, 76550.73, -171517.33, 24736.389, 0.090942346, 0.28336075, 78993.3, 213577.67, 0.00000005479561, 10.0021105, 9.998793 
2.1151696e+3, 2.9626703e+2, 286562.13, -58581.52, 132568.89, -0.024041038, 0.072237186, 331603.6, 368206.9, 0.0000044705935, 10.003048, 9.998443 
2.1151802e+3, 3.0626395e+2, 132572.0, -364268.6, 43529.71, -0.011311492, 0.052785274, 136356.94, 136356.94, 0.0000269908, 10.002766, 9.996147 
2.1151885e+3, 3.1626505e+2, 171431.13, -167971.05, 27545.604, -0.10424772, 0.49795544, 173652.17, 173652.17, 0.00007366217, 10.002255, 9.997739 
2.1249683e+3, 1.2627065e+2, -2184841.5, -2654428.5, -32150.422, -0.0077804783, 0.52262795, -2182650.5, -480087.5, 0.48543465, 9.999795, 9.993637 
2.1249741e+3, 1.3626726e+2, -1516578.1, -1336562.1, -68530.67, -0.3359608, -0.19219977, -1313442.3, 291157.4, 0.3637423, 9.99948, 10.0032015 
2.1249829e+3, 1.4627787e+2, -1665660.5, -1543031.4, -21838.293, -0.5013207, 0.68043596, -1539258.4, -32762.607, 0.23315269, 9.99876, 10.000425 
2.1249978e+3, 1.5627393e+2, -1387229.0, -1371852.3, -11333.2, -0.10946648, 0.23634885, -1365845.6, 42687.203, 0.1197026, 10.000081, 10.00032 
2.1250108e+3, 1.6627151e+2, -1257745.5, -1320006.9, 53557.574, -0.04057679, -0.006341241, -1226928.4, 83626.836, 0.044803485, 10.000571, 9.999745 
2.1250227e+3, 1.7627193e+2, -1183545.8, -1239832.3, 13916.112, -0.19137822, 0.0491824, -1180293.1, 32256.7, 0.01004214, 10.000433, 9.999672 
2.1250354e+3, 1.8627271e+2, -1127518.6, -1251303.9, -23199.268, -0.16637044, 0.20302175, -1123313.5, -8768.995, 0.0007722133, 10.000521, 9.99888 
2.1250488e+3, 1.962729e+2, -974575.4, -1116644.8, 20429.656, -0.044551827, 0.3217504, -971695.94, 44851.227, 0.000010944595, 10.000871, 9.998955 
2.1250625e+3, 2.0627166e+2, -903356.6, -990029.3, 91093.33, -0.03757332, 0.28036156, -845816.6, 72742.94, 0.0, 10.000499, 9.999335 
2.1250762e+3, 2.1626973e+2, -918209.3, -949009.3, 42956.906, -0.10961213, 0.14024264, -887975.4, -67399.08, 0.0, 9.999746, 9.999301 
2.1250896e+3, 2.2626841e+2, -757502.7, -854600.0, -10259.515, -0.058633372, 0.0956065, -756430.5, -33841.305, 0.0, 10.000318, 9.999007 
2.1251027e+3, 2.3626742e+2, -452512.44, -644731.25, 44397.15, 0.04959441, 0.08057086, -442753.4, 181847.19, 0.0, 10.001697, 9.999104 
2.125115e+3, 2.462677e+2, -323259.75, -504742.2, 87426.31, 0.0069382605, 0.18334259, -287995.7, 238603.83, 0.0, 10.001787, 9.9993515 
2.125127e+3, 2.562688e+2, -350518.88, -509050.63, 25111.805, -0.13052279, 0.34879136, -346636.2, 81954.37, 0.0, 10.001119, 9.998964 
2.125139e+3, 2.6626697e+2, -366465.84, -772436.44, -28614.477, -0.0634505, 0.42234862, -364458.9, -33844.457, 0.0, 10.001643, 9.99624 
2.1251509e+3, 2.76263e+2, -61303.336, -515935.25, 60953.234, 0.11594429, 0.38211697, -53273.08, 179388.33, 0.0, 10.002828, 9.996746 
2.125162e+3, 2.8626043e+2, 291374.53, -5277.8237, 130219.11, 0.11681105, 0.30041254, 340425.34, 475106.97, 0.000000117451826, 10.003304, 9.999367 
2.1251734e+3, 2.9625922e+2, 368077.0, 38404.4, 29167.191, 0.027089396, 0.21787862, 370637.63, 407318.7, 0.0000050467984, 10.003366, 9.998949 
2.1251844e+3, 3.062555e+2, 335744.2, -278243.88, -43923.684, 0.08058401, 0.114454724, 338870.47, 338870.47, 0.000026928557, 10.004165, 9.996088 
2.1251926e+3, 3.1625488e+2, 453212.4, -132056.45, -38312.77, -0.034175817, 0.40741944, 455709.75, 455709.75, 0.000070946146, 10.00458, 9.99688 
2.1349768e+3, 1.3625611e+2, -1474231.9, -1254206.5, -125512.08, -0.041023597, -0.07021785, -1197317.8, 407399.44, 0.38411817, 9.999504, 10.004198 
2.1349838e+3, 1.4626583e+2, -1644748.1, -1513720.6, 10638.145, -0.298759, 0.6706772, -1512862.6, -6248.1206, 0.24951555, 9.998813, 10.000604 
2.1349959e+3, 1.5625921e+2, -1363400.4, -1330730.1, 30840.998, -0.32516974, -0.07985098, -1312165.4, 96507.52, 0.13052814, 10.000116, 10.000633 
2.1350098e+3, 1.662582e+2, -1309447.4, -1445370.6, 46612.36, -0.21270572, -0.15350592, -1294998.5, 15687.141, 0.050404422, 10.000628, 9.998851 
2.1350242e+3, 1.7626183e+2, -1232522.0, -1352128.0, 12764.517, -0.09021837, 0.32007805, -1231175.0, -18516.457, 0.012084308, 10.000475, 9.9988785 
2.1350366e+3, 1.8626268e+2, -1064640.6, -1130532.4, -12204.5625, -0.121690005, 0.47168267, -1062452.8, 52200.086, 0.001155736, 10.000558, 9.999693 
2.135048e+3, 1.9626123e+2, -927649.9, -1022497.6, 31754.92, -0.21135473, 0.3427971, -918000.1, 98665.93, 0.000030850606, 10.000881, 9.999597 
2.1350622e+3, 2.0625924e+2, -970047.94, -1119107.3, 56982.438, -0.11896099, 0.2434648, -950760.4, -32074.525, 0.0, 10.000461, 9.998468 
2.1350776e+3, 2.1625702e+2, -966123.44, -1036905.44, 29159.912, 0.071170144, 0.1633772, -955657.9, -134949.52, 0.0, 9.999699, 9.998721 
2.1350905e+3, 2.2625746e+2, -669049.75, -647387.5, 42824.984, -0.0048222807, 0.23587975, -614045.2, 108658.37, 0.0, 10.000217, 10.000477 
2.1351016e+3, 2.3625942e+2, -387941.4, -490454.3, 93029.65, -0.23378031, 0.3721184, -332982.3, 291701.06, 0.0, 10.001609, 10.000206 
2.135115e+3, 2.4625875e+2, -416825.6, -670976.9, 57189.734, -0.19352162, 0.3939599, -404549.56, 122141.58, 0.0, 10.00167, 9.998264 
2.1351296e+3, 2.562565e+2, -401757.25, -602877.94, 14839.541, 0.018251933, 0.32766858, -400668.25, 28047.807, 0.0, 10.001065, 9.998345 
2.1351418e+3, 2.6625466e+2, -213993.95, -425724.5, 13246.368, 0.041086588, 0.28965098, -213168.44, 117566.78, 0.0, 10.001525, 9.9986725 
2.135152e+3, 2.762529e+2, 49697.945, -260838.44, 106396.47, -0.049867332, 0.23085792, 82654.14, 315406.78, 0.00000000014169585, 10.002723, 9.9985485 
2.1351638e+3, 2.862516e+2, 118613.92, -307935.25, 123929.76, -0.07786756, 0.31244528, 152006.39, 286771.8, 0.000000256191, 10.0030775, 9.997387 
2.1351768e+3, 2.962511e+2, 252308.7, -185979.0, 54698.176, -0.0005673014, 0.4908106, 259031.89, 295802.88, 0.0000052967753, 10.003283, 9.997454 
2.1351872e+3, 3.0624822e+2, 367858.66, -88683.78, -12974.415, -0.067329034, 0.45164207, 368227.1, 368227.1, 0.000025183504, 10.0037, 9.997583 
2.135197e+3, 3.162408e+2, 344921.16, -193232.55, -8218.777, -0.08857414, -0.07134031, 345046.66, 345046.66, 0.0000632292, 10.003941, 9.996739 
2.1449754e+3, 1.3624574e+2, -1574811.6, -1261645.1, -27585.492, -0.04126639, 0.06320982, -1259233.8, 345589.22, 0.40760165, 9.9980345, 10.004954 
2.1449856e+3, 1.4625347e+2, -1442317.5, -1460644.8, 27682.102, -0.084650144, 0.5990638, -1422321.8, 84416.39, 0.26811564, 10.000547, 10.0002365 
2.1449953e+3, 1.5624791e+2, -1386632.3, -1366065.3, 15050.743, -0.38343775, -0.018390818, -1358120.4, 50667.137, 0.14296411, 10.000047, 10.000394 
2.1450087e+3, 1.662473e+2, -1435843.5, -1490600.4, 36259.86, -0.31160954, -0.046887554, -1417786.8, -106991.06, 0.057087187, 9.999695, 9.99899 
2.1450242e+3, 1.7625041e+2, -1347698.3, -1392308.3, 79633.11, -0.10281156, 0.3602309, -1287305.3, -74533.234, 0.014719365, 9.999628, 9.999011 
2.1450369e+3, 1.862508e+2, -1129077.0, -1155014.4, 81374.81, -0.12473384, 0.45593444, -1059644.0, 55126.246, 0.0017550356, 10.000104, 9.999741 
2.1450485e+3, 1.962491e+2, -911605.94, -1014101.2, 53321.8, -0.2639011, 0.300986, -888897.3, 127888.53, 0.00008036648, 10.000997, 9.999603 
2.145063e+3, 2.0624751e+2, -833272.7, -1039195.2, 73522.47, -0.13877599, 0.23796193, -809716.9, 109084.73, 0.000000018813253, 10.001336, 9.998598 
2.1450786e+3, 2.1624614e+2, -708452.1, -903383.1, 111604.914, 0.114986576, 0.22845809, -657744.8, 163070.94, 0.0, 10.001429, 9.998804 
2.1450913e+3, 2.262466e+2, -592308.9, -652137.6, 94042.44, 0.016496321, 0.3176965, -523537.66, 199274.63, 0.0, 10.000919, 10.00011 
2.1451019e+3, 2.3624797e+2, -633030.5, -643145.0, 4209.913, -0.29673532, 0.43549508, -631507.56, -6707.6104, 0.0, 10.000072, 9.999901 
2.1451154e+3, 2.4624708e+2, -598636.6, -728584.06, -16371.68, -0.22813627, 0.43300617, -596605.75, -69796.22, 0.0, 10.000289, 9.998538 
2.1451314e+3, 2.5624475e+2, -361230.72, -545562.44, 30412.3, 0.06829258, 0.3310748, -356342.72, 72490.664, 0.0, 10.001174, 9.998691 
2.1451437e+3, 2.6624322e+2, -217314.53, -337128.13, 5320.3413, 0.11761435, 0.26286125, -217078.73, 113767.87, 0.0, 10.001103, 9.999488 
2.1451543e+3, 2.7624217e+2, -228816.19, -317401.0, -25242.03, 0.001595161, 0.19404463, -222128.42, 10725.681, 0.00000000016893417, 10.000477, 9.999241 
2.1451662e+3, 2.862415e+2, -139067.75, -459860.06, 66277.0, -0.034939017, 0.31954733, -125914.01, 8948.903, 0.0000002738674, 10.001405, 9.997163 
2.14518e+3, 2.96241e+2, 243283.8, -185861.66, 99185.93, -0.0038887525, 0.52469975, 265099.1, 301973.1, 0.0000047479944, 10.003212, 9.997484 
2.145191e+3, 3.0623907e+2, 423299.25, 22392.957, 31260.504, -0.053497504, 0.5234717, 425722.16, 425722.16, 0.00002151286, 10.003631, 9.9984255 
2.1452019e+3, 3.1623155e+2, 269555.1, -122233.31, -53648.977, 0.0795838, -0.08518382, 276768.63, 276768.63, 0.000053598036, 10.002939, 9.99771 
2.15497e+3, 1.3623671e+2, -1564186.6, -1250466.5, 117812.19, -0.4340688, 0.2523873, -1211151.1, 393760.13, 0.43279883, 9.998028, 10.005269 
2.1549878e+3, 1.462404e+2, -1479935.0, -1578757.4, 1542.583, 0.036444504, 0.4232329, -1479911.0, 26959.25, 0.28823382, 10.000667, 9.999258 
2.1549961e+3, 1.5623996e+2, -1433896.5, -1477470.5, 1868.5602, -0.33153933, 0.41558522, -1433816.5, -24938.943, 0.15688464, 10.000098, 9.999558 
2.1550079e+3, 1.6623895e+2, -1349469.1, -1323407.1, 29173.408, -0.3975969, 0.3292422, -1304486.8, 6397.9214, 0.06501248, 9.999747, 10.000113 
2.1550222e+3, 1.7623773e+2, -1273487.8, -1241557.6, 84044.586, -0.27254555, 0.17956118, -1171975.3, 40915.156, 0.018139776, 9.999643, 10.000038 
2.1550359e+3, 1.8623696e+2, -1178327.0, -1267306.5, 111916.0, -0.23586738, 0.15906744, -1102382.0, 12515.922, 0.0026903055, 10.000142, 9.998955 
2.1550497e+3, 1.962364e+2, -950215.3, -1096133.9, 88187.59, -0.24733293, 0.19426574, -908718.9, 108188.695, 0.00019736934, 10.001008, 9.999032 
2.1550642e+3, 2.0623644e+2, -764686.25, -891991.94, 75322.05, -0.16032834, 0.2612641, -729723.2, 189184.3, 0.0000007869328, 10.001313, 9.99962 
2.1550788e+3, 2.1623686e+2, -671245.94, -814058.9, 114232.95, -0.013374621, 0.32743925, -607937.7, 212963.4, 0.0, 10.00137, 9.999447 
2.1550916e+3, 2.2623557e+2, -759768.75, -976351.75, 59974.883, -0.048754536, 0.3350361, -744269.94, -21352.041, 0.0, 10.000822, 9.997929 
2.1551031e+3, 2.3623309e+2, -763840.56, -897102.9, -13739.654, -0.19344163, 0.281941, -762438.75, -137488.53, 0.0, 9.999998, 9.998191 
2.1551166e+3, 2.462326e+2, -506674.97, -508010.97, 15546.255, -0.16359927, 0.30613935, -491782.38, 35173.156, 0.0, 10.000169, 10.000105 
2.1551315e+3, 2.5623327e+2, -282293.66, -368219.4, 61206.207, -0.015637029, 0.35198608, -250476.8, 178468.4, 0.0, 10.001119, 9.999935 
2.1551448e+3, 2.6623237e+2, -282618.22, -448727.13, -23167.717, 0.095586985, 0.33101407, -279447.47, 51504.137, 0.0, 10.001008, 9.998762 
2.1551567e+3, 2.7623042e+2, -262489.16, -384258.97, -31392.748, 0.20419922, 0.24709605, -254872.42, -21903.727, 0.0, 10.0004635, 9.998787 
2.1551697e+3, 2.8622955e+2, -66247.91, -267084.28, 131302.0, 0.14166014, 0.28837097, -1366.2798, 133613.38, 0.000000100631844, 10.00125, 9.998547 
2.1551828e+3, 2.962289e+2, 300100.84, -34715.47, 171209.03, -0.048172023, 0.34051397, 372146.28, 409136.7, 0.0000031808088, 10.003063, 9.998597 
2.1551943e+3, 3.062272e+2, 354393.34, 14542.505, -6775.9272, -0.113613725, 0.31256, 354528.38, 354528.38, 0.000016571294, 10.003097, 9.998599 
2.1552064e+3, 3.1622818e+2, 273245.72, -36441.832, 42766.63, 0.19736181, 0.50373566, 279043.1, 279043.1, 0.000044980578, 10.002605, 9.998459 
2.1649686e+3, 1.3622507e+2, -1929348.8, -1542948.9, 125300.37, -0.28225163, 0.3484902, -1505874.3, 99146.85, 0.45757636, 9.99662, 10.00262 
2.1649846e+3, 1.4622524e+2, -2011068.9, -1803463.3, -134084.63, -0.12804852, 0.26292524, -1737696.9, -230674.06, 0.3088363, 9.996795, 9.999579 
2.1649961e+3, 1.5622838e+2, -1624680.9, -1550160.0, -64988.863, -0.26834098, 0.5912405, -1512507.9, -103510.836, 0.17204043, 9.99871, 9.999722 
2.1650085e+3, 1.6622746e+2, -1372866.5, -1317612.9, -48197.086, -0.286803, 0.4974758, -1289686.1, 21315.295, 0.07433442, 9.999508, 10.000273 
2.1650222e+3, 1.7622374e+2, -1184521.6, -1173724.9, -69341.71, -0.23582435, 0.07867489, -1109571.8, 103455.445, 0.022589553, 10.000144, 10.00027 
2.1650362e+3, 1.8622307e+2, -1181166.5, -1232522.0, -23748.494, -0.21565941, 0.036519956, -1171868.0, -56835.24, 0.00413868, 9.999956, 9.999286 
2.16505e+3, 1.9622436e+2, -1169085.3, -1168895.6, 23944.652, -0.22850229, 0.22756357, -1145045.6, -128020.78, 0.00045452762, 9.99935, 9.999335 
2.1650645e+3, 2.062248e+2, -1036546.06, -987051.0, 21463.754, -0.15764055, 0.3033076, -979039.8, -60019.234, 0.000007502901, 9.999291, 9.99994 
2.1650791e+3, 2.1622461e+2, -893217.3, -894928.75, -1778.5514, -0.045432873, 0.2805351, -892099.3, -71079.7, 0.0, 9.999737, 9.999678 
2.1650921e+3, 2.262231e+2, -897501.1, -1067028.6, -2012.2036, -0.03620253, 0.2719991, -897477.25, -174439.0, 0.0, 9.999989, 9.997704 
2.165104e+3, 2.3622076e+2, -748948.4, -912238.7, 62220.992, -0.0957614, 0.255159, -727941.75, -102872.71, 0.0, 10.000202, 9.997985 
2.1651177e+3, 2.4622011e+2, -441125.38, -498988.03, 115566.266, -0.090988316, 0.27923468, -350924.06, 176152.48, 0.0, 10.000707, 9.999912 
2.1651326e+3, 2.5622037e+2, -248162.13, -360943.8, 26950.555, -0.0603219, 0.3046521, -242052.89, 187017.53, 0.0, 10.001409, 9.999834 
2.165146e+3, 2.662198e+2, -110438.13, -350906.13, -83385.52, 0.059373282, 0.3085467, -84352.75, 246720.7, 0.0, 10.002135, 9.998887 
2.165159e+3, 2.7621847e+2, 98748.61, -195196.16, -40691.42, 0.24745892, 0.27643457, 104277.61, 337361.44, 0.0, 10.002895, 9.998908 
2.1651724e+3, 2.862174e+2, 126331.73, -174383.47, 99051.875, 0.23005153, 0.29030335, 156026.02, 291122.66, 0.0000000029805467, 10.002559, 9.998558 
2.1651855e+3, 2.9621616e+2, 63896.945, -133169.42, 21194.596, 0.0020305698, 0.2912233, 66150.66, 103264.48, 0.0000013452404, 10.001397, 9.99871 
2.1651973e+3, 3.0621493e+2, 240982.06, -20324.455, -149495.3, -0.06272755, 0.28275648, 308871.28, 308871.28, 0.000010696579, 10.002199, 9.998805 
2.1652095e+3, 3.1621656e+2, 617677.56, 211076.94, -149777.17, 0.14778921, 0.5295116, 666893.0, 666893.0, 0.000035608395, 10.004623, 9.999186 
2.1749714e+3, 1.362105e+2, -2261174.8, -2276914.3, -31627.086, 0.30010587, 0.3136856, -2236453.0, -631297.6, 0.48078975, 9.997114, 9.996801 
2.1749768e+3, 1.4620824e+2, -1902545.4, -1582189.8, -35183.125, -0.63172233, 0.13880253, -1578371.3, -71177.85, 0.32934, 9.99682, 10.0010805 
2.1749951e+3, 1.5621316e+2, -1548973.6, -1395449.8, -1018.6414, -0.24262266, 0.5106645, -1395443.0, 13702.984, 0.18832743, 9.998708, 10.000801 
2.1750104e+3, 1.6621262e+2, -1416155.6, -1431092.1, -31063.047, -0.060686696, 0.45262793, -1391675.8, -80527.81, 0.0852701, 9.999601, 9.999442 
2.1750246e+3, 1.7620842e+2, -1215187.0, -1248986.4, -44658.434, -0.044517674, 0.057834696, -1184337.6, 28845.19, 0.028395085, 10.0001955, 9.999717 
2.1750371e+3, 1.86209e+2, -1079867.5, -1038789.5, -51306.26, -0.12367475, 0.09433536, -1004063.9, 111111.48, 0.006367479, 10.000023, 10.0005865 
2.1750493e+3, 1.9621277e+2, -1085710.5, -1000838.06, 6190.032, -0.24543616, 0.3996057, -1000389.0, 16750.246, 0.0009868387, 9.999369, 10.000479 
2.1750635e+3, 2.0621243e+2, -1062549.9, -1045965.56, 33737.887, -0.19324075, 0.36868146, -1019515.75, -100373.45, 0.000047582707, 9.999304, 9.999534 
2.1750791e+3, 2.1620937e+2, -912234.75, -923955.56, 18276.12, -0.026552403, 0.096055984, -898902.44, -77731.06, 0.00000000032497088, 9.999688, 9.999503 
2.1750925e+3, 2.2620913e+2, -799212.5, -837980.75, 3609.6956, 0.002076337, 0.13222153, -798879.25, -75705.26, 0.0, 9.999882, 9.999325 
2.1751048e+3, 2.3621067e+2, -672611.0, -740516.2, 77440.734, -0.04580901, 0.3411694, -622006.8, 3153.33, 0.0, 10.000146, 9.999189 
2.1751186e+3, 2.4620932e+2, -589140.94, -772500.5, 137441.45, -0.08471713, 0.34458697, -515607.72, 11567.499, 0.0, 10.000573, 9.998093 
2.1751332e+3, 2.5620607e+2, -367296.25, -583765.8, 58553.848, -0.11456892, 0.1922245, -352472.84, 76736.57, 0.0, 10.001309, 9.998348 
2.1751472e+3, 2.6620534e+2, -71854.84, -232130.56, -59591.668, -0.055855665, 0.2019291, -52126.58, 279087.03, 0.0, 10.001977, 9.999775 
2.1751603e+3, 2.7620608e+2, 123201.71, -119167.11, -12494.117, 0.088295825, 0.2859683, 123844.08, 357045.03, 0.0, 10.002794, 9.999475 
2.175174e+3, 2.8620476e+2, 1646.1586, -379736.03, 49971.41, 0.12683159, 0.32797483, 8085.0596, 143302.0, 0.0, 10.002346, 9.997241 
2.1751875e+3, 2.9620224e+2, -22374.035, -306715.03, -2669.554, 0.05120116, 0.32345462, -22348.975, 14900.696, 0.00000028754212, 10.001367, 9.997534 
2.1752e+3, 3.0620086e+2, 193812.66, -23037.236, -76243.016, -0.055876955, 0.35225686, 217935.69, 217935.69, 0.0000061160813, 10.001853, 9.998921 
2.1752127e+3, 3.1619817e+2, 552666.2, 223754.95, -70209.29, -0.02551782, 0.14850023, 567026.1, 567026.1, 0.00002746077, 10.004008, 9.999564 
2.1849751e+3, 1.4619441e+2, -1671245.4, -1475935.9, 67796.15, -0.5482898, 0.1729312, -1454709.4, 52615.645, 0.34983045, 9.998336, 10.00125 
2.1849939e+3, 1.5619747e+2, -1451874.3, -1374860.5, 20610.21, -0.26724032, 0.387936, -1369691.8, 39603.598, 0.2059314, 9.999471, 10.000622 
2.1850127e+3, 1.661959e+2, -1373002.9, -1351708.8, -25602.107, 0.18296498, 0.20785482, -1334628.1, -23318.889, 0.09816949, 9.99966, 9.99996 
2.1850242e+3, 1.7619596e+2, -1277399.9, -1225909.3, 48102.777, -0.07469428, 0.19315864, -1197095.5, 16210.062, 0.036017943, 9.999558, 10.000182 
2.185036e+3, 1.8619724e+2, -1125932.9, -1033103.8, 24747.717, -0.23728563, 0.2628582, -1026918.4, 88372.55, 0.009796201, 9.999592, 10.000833 
2.185049e+3, 1.9619876e+2, -999119.4, -938526.06, -4542.4795, -0.23225443, 0.32051885, -938187.44, 79086.766, 0.0020521113, 9.999878, 10.000657 
2.1850637e+3, 2.0619826e+2, -959577.25, -1002264.7, 29370.041, -0.1272489, 0.2702691, -944614.56, -25334.9, 0.00020967671, 10.000054, 9.999468 
2.1850793e+3, 2.1619661e+2, -823898.2, -878100.94, 26955.414, -0.012693783, 0.14550267, -812775.5, 8522.186, 0.00000086887735, 10.000289, 9.999527 
2.1850927e+3, 2.261967e+2, -634647.1, -712100.0, -16233.625, -0.011479767, 0.18932143, -631382.3, 91913.76, 0.0, 10.000795, 9.999759 
2.1851055e+3, 2.3619783e+2, -450053.78, -589029.06, -37969.43, -0.06816248, 0.31356144, -440356.78, 184925.98, 0.0, 10.001494, 9.999577 
2.1851198e+3, 2.4619627e+2, -491587.78, -761138.25, 50561.81, -0.05876299, 0.29826096, -482415.6, 44882.746, 0.0, 10.001384, 9.997788 
2.1851352e+3, 2.5619286e+2, -464464.63, -669807.8, 72774.41, -0.021167813, 0.1662224, -441288.8, -11954.955, 0.0, 10.000791, 9.998019 
2.1851489e+3, 2.6619175e+2, -259130.73, -370769.03, -32275.549, -0.0046466985, 0.16941151, -250471.3, 80872.09, 0.0, 10.000878, 9.999363 
2.1851616e+3, 2.7619177e+2, -93088.055, -268523.84, -95940.68, 0.008118789, 0.23307316, -50809.633, 182529.52, 0.0, 10.001486, 9.99909 
2.1851757e+3, 2.8619033e+2, -59539.836, -420518.75, -36663.633, 0.07417751, 0.28022003, -55853.652, 79502.15, 0.0, 10.00196, 9.997156 
2.1851899e+3, 2.9618785e+2, 124083.87, -249588.2, -18433.225, 0.12044405, 0.29734978, 124990.98, 162377.64, 0.000000027227998, 10.002431, 9.997417 
2.1852028e+3, 3.0618608e+2, 244881.0, -30147.754, -32040.447, 0.03432924, 0.2953317, 248564.34, 248564.34, 0.0000044959556, 10.00229, 9.998691 
2.1852146e+3, 3.1618235e+2, 195321.55, 91779.21, -88712.13, -0.073464476, 0.02951634, 246264.05, 246264.05, 0.000025056414, 10.00131, 9.999982 
2.1949795e+3, 1.461829e+2, -1730718.0, -1581281.6, -10779.075, 0.0073822867, 0.3171988, -1580508.1, -73082.01, 0.371045, 9.998355, 10.000338 
2.1949922e+3, 1.5618114e+2, -1550245.0, -1574179.5, 60754.355, -0.40052104, 0.23064823, -1500290.5, -90843.78, 0.22535217, 9.999493, 9.999178 
2.1950147e+3, 1.6617727e+2, -1246615.5, -1111340.9, -34199.92, 0.3937078, -0.21518856, -1103186.0, 208299.5, 0.113554515, 9.999715, 10.0017605 
2.195021e+3, 1.7618623e+2, -1174887.6, -1018434.56, 47106.293, -0.35946462, 0.4833759, -1005346.3, 208050.73, 0.046104282, 9.999564, 10.001661 
2.195032e+3, 1.8618752e+2, -1178591.3, -1149016.8, 37156.7, -0.6098528, 0.53207636, -1123813.0, -8430.762, 0.015073848, 9.999619, 10.000022 
2.1950491e+3, 1.9618236e+2, -1050474.9, -1043645.1, 11367.578, -0.23585418, 0.0055831713, -1035190.56, -17761.291, 0.004138987, 9.999878, 9.999932 
2.1950649e+3, 2.0618227e+2, -948355.3, -978967.1, 33950.71, -0.031883262, 0.02145943, -926419.8, -6987.3325, 0.00072646124, 10.000051, 9.999628 
2.1950793e+3, 2.1618603e+2, -825484.9, -866075.2, 40350.766, -0.052754883, 0.4165645, -800612.8, 20788.686, 0.000022642807, 10.000227, 9.999634 
2.1950923e+3, 2.2618562e+2, -702715.9, -823788.6, 7157.6294, -0.13534053, 0.44107208, -702294.2, 21111.982, 0.000000000011542125, 10.000666, 9.999053 
2.1951057e+3, 2.3618218e+2, -492034.47, -664749.9, -13689.23, -0.20487522, 0.17595293, -490956.22, 134480.73, 0.0, 10.00144, 9.999082 
2.195121e+3, 2.461808e+2, -438272.25, -613301.44, 20776.996, -0.08032182, 0.13808677, -435839.72, 91607.7, 0.0, 10.001235, 9.998867 
2.1951382e+3, 2.5618064e+2, -422871.6, -566378.9, 58242.68, 0.16290677, 0.2198385, -402208.8, 27237.076, 0.0, 10.000723, 9.998757 
2.1951513e+3, 2.6617867e+2, -408782.5, -637673.8, -14287.511, 0.12838432, 0.20913002, -407894.13, -76428.87, 0.0, 10.000708, 9.997601 
2.1951626e+3, 2.761754e+2, -199646.03, -472361.0, -67156.02, -0.055699114, 0.10812772, -184005.83, 49493.99, 0.0, 10.001425, 9.99771 
2.1951768e+3, 2.861737e+2, -6633.179, -285935.2, -25259.777, -0.026794022, 0.13390347, -4367.097, 131150.48, 0.0, 10.001865, 9.99812 
2.1951929e+3, 2.9617295e+2, 153629.03, -159770.25, 8067.808, 0.14602464, 0.23048063, 153836.58, 191361.55, 0.000000020729713, 10.002314, 9.998088 
2.1952051e+3, 3.0617008e+2, 152295.55, -134336.38, -63261.45, 0.0032849847, 0.12997004, 165636.77, 165636.77, 0.0000055230016, 10.001948, 9.998112 
2.1952161e+3, 3.1616578e+2, 56885.105, -90932.78, 18600.793, -0.10280963, -0.15314093, 59189.82, 59189.82, 0.000029811183, 10.000919, 9.998883 
2.2049777e+3, 1.461659e+2, -1668929.9, -1592049.5, -223284.7, -0.005889457, 0.22363439, -1403920.3, 103672.09, 0.39437363, 9.999033, 10.000215 
2.2049898e+3, 1.5616664e+2, -1803617.4, -1613018.9, -30146.895, -0.4725524, 0.3346564, -1608364.3, -198777.27, 0.24751917, 9.99738, 9.999939 
2.205014e+3, 1.6616192e+2, -1625003.9, -1230421.5, -59394.93, 0.5181503, -0.274699, -1221674.9, 89958.625, 0.13222682, 9.996802, 10.002274 
2.2050197e+3, 1.7617099e+2, -1370723.5, -1095113.6, -83909.19, -0.3578583, 0.41326532, -1071577.4, 141966.36, 0.059555795, 9.998085, 10.001865 
2.2050308e+3, 1.8617262e+2, -1263997.0, -1148342.4, -94111.26, -0.6510635, 0.46962693, -1095711.9, 19812.715, 0.023171267, 9.998839, 10.000412 
2.2050487e+3, 1.961681e+2, -1124325.9, -1038848.25, -38830.33, -0.22390325, -0.036143992, -1023842.8, -6278.225, 0.008108057, 9.999186, 10.000313 
2.2050649e+3, 2.0616814e+2, -1051262.8, -1034996.44, 18144.063, -0.013259062, -0.01938321, -1023246.06, -103680.14, 0.0021629941, 9.999362, 9.999585 
2.2050786e+3, 2.1617167e+2, -922763.8, -927600.7, 1134.5859, -0.0952257, 0.35974482, -922510.9, -100973.305, 0.00023583506, 9.999606, 9.999518 
2.2050925e+3, 2.2617102e+2, -816420.25, -924584.56, -3509.3875, -0.15275726, 0.39398694, -816306.5, -92760.24, 0.0000019906881, 10.000091, 9.998634 
2.2051072e+3, 2.3616762e+2, -612001.1, -758038.2, -22501.28, -0.15422547, 0.17247078, -608612.8, 16966.754, 0.0, 10.000757, 9.998779 
2.2051226e+3, 2.4616617e+2, -469538.34, -561444.56, -32022.33, -0.022318171, 0.11272005, -459481.47, 68107.57, 0.0, 10.000727, 9.999471 
2.2051384e+3, 2.5616613e+2, -441821.97, -507594.47, -33931.81, 0.15798058, 0.14080386, -427454.94, 2127.1218, 0.0, 10.000346, 9.999318 
2.2051527e+3, 2.661643e+2, -358481.84, -663400.06, 2696.202, 0.15461153, 0.13808963, -358458.0, -26857.662, 0.0, 10.001259, 9.997168 
2.2051658e+3, 2.7616093e+2, 11983.364, -418125.1, 32048.275, 0.045643464, 0.07251189, 14358.235, 247997.17, 0.0, 10.003076, 9.997295 
2.20518e+3, 2.8615913e+2, 155377.55, -225351.4, 13385.094, 0.038396582, 0.1131207, 155847.55, 291505.5, 0.0, 10.003063, 9.99796 
2.2051941e+3, 2.9615808e+2, 110112.73, -193449.95, -51053.8, 0.06269867, 0.20948955, 118469.03, 156136.22, 0.00000007580395, 10.0020685, 9.997981 
2.2052078e+3, 3.06155e+2, 280926.03, -59145.63, -73851.734, 0.04831559, 0.06967511, 296271.6, 296271.6, 0.0000083740215, 10.002736, 9.998272 
2.2052205e+3, 3.1615236e+2, 492555.06, 9421.482, 17659.484, 0.09196167, -0.028799305, 493199.7, 493199.7, 0.000042885644, 10.004343, 9.997941 
2.2149712e+3, 1.4614543e+2, -1612108.9, -1488734.4, -161206.86, -0.59887844, 0.12024063, -1377815.3, 129989.25, 0.4221777, 9.999045, 10.001075 
2.2149871e+3, 1.5615359e+2, -1599200.1, -1244074.8, -84521.97, -0.50123423, 0.6886809, -1224984.3, 184735.67, 0.27423543, 9.997367, 10.002939 
2.2150107e+3, 1.6614951e+2, -1669911.9, -1315259.5, -32188.266, 0.47394523, 0.02867466, -1312361.9, -605.574, 0.15564767, 9.996816, 10.001595 
2.2150202e+3, 1.7615025e+2, -1437801.5, -1227844.0, -35885.02, -0.125577, -0.0045127105, -1221880.1, -8134.515, 0.07778218, 9.998082, 10.0009 
2.215032e+3, 1.8615262e+2, -1150106.1, -933289.5, -80614.53, -0.42582747, 0.09159969, -906601.3, 209116.48, 0.035576556, 9.9988985, 10.001908 
2.215048e+3, 1.9615573e+2, -1025760.25, -836977.4, -25187.936, -0.23637629, 0.19221751, -833674.5, 184007.42, 0.0154146915, 9.9991865, 10.001716 
2.2150633e+3, 2.0615566e+2, -1068458.0, -1070169.9, 23100.139, -0.13236421, 0.14412159, -1046197.94, -126515.82, 0.005714695, 9.999357, 9.999346 
2.2150774e+3, 2.1615353e+2, -946201.2, -968070.1, 16407.793, -0.18896104, -0.01508087, -937418.2, -115712.586, 0.0013616167, 9.99957, 9.999257 
2.2150931e+3, 2.2615314e+2, -852984.56, -974056.25, 18051.318, -0.13784355, 0.07273543, -850350.5, -126636.22, 0.00013056793, 9.999977, 9.99835 
2.2151099e+3, 2.3615389e+2, -633232.56, -785500.56, 3603.234, 0.03181091, 0.28858677, -633147.3, -7434.493, 0.0000045921656, 10.000684, 9.998626 
2.215124e+3, 2.461523e+2, -488870.7, -560052.6, -54943.81, 0.04047444, 0.21619286, -458997.63, 68726.51, 0.000000030624218, 10.00056, 9.999557 
2.2151367e+3, 2.561493e+2, -436202.84, -480753.84, -36410.0, -0.0717211, -0.06509321, -415794.78, 13947.879, 0.0, 10.000282, 9.999534 
2.2151524e+3, 2.6614818e+2, -323727.6, -554304.56, 57898.254, 0.009163126, -0.04969993, -310005.8, 21746.248, 0.0, 10.001115, 9.997979 
2.2151709e+3, 2.7614808e+2, 28452.713, -348839.8, 87468.41, 0.24690849, 0.12593159, 47744.266, 281502.66, 0.0, 10.002935, 9.997832 
2.2151843e+3, 2.8614628e+2, 16151.157, -446637.13, -35834.52, 0.15771343, 0.22240914, 18909.447, 154689.3, 0.0, 10.00279, 9.99656 
2.2151938e+3, 2.961429e+2, 12993.945, -367797.2, -65100.316, -0.17791721, 0.21942097, 23815.98, 61632.176, 0.00000027397763, 10.001972, 9.996816 
2.2152106e+3, 3.0614012e+2, 307025.72, 64221.805, -19328.445, 0.031543426, 0.11164694, 308554.72, 308554.72, 0.000015050563, 10.002479, 9.999222 
2.2152254e+3, 3.161413e+2, 292767.84, -258228.5, 83081.1, 0.12398942, 0.30243754, 305022.53, 305022.53, 0.00007034586, 10.003761, 9.996363 
2.224977e+3, 1.4613329e+2, -940544.25, -1232051.6, -85146.58, -0.34471816, 0.38456482, -917496.06, 590418.0, 0.45833316, 10.007171, 10.000075 
2.2249861e+3, 1.5613607e+2, -1486657.4, -1306770.6, -98187.445, -0.39595395, 0.47140774, -1263557.8, 146333.22, 0.30885017, 9.998746, 10.001757 
2.2250064e+3, 1.661359e+2, -1394001.0, -1182432.6, -5459.079, 0.26880586, 0.24981587, -1182291.9, 129597.95, 0.18666483, 9.998598, 10.00184 
2.2250195e+3, 1.7613432e+2, -1235044.1, -1097930.0, 65122.668, -0.058701657, -0.056353766, -1071930.0, 141968.4, 0.103338934, 9.999325, 10.00128 
2.2250327e+3, 1.861361e+2, -1108603.4, -933982.1, -11491.479, -0.25617978, -0.029878203, -933229.2, 182646.83, 0.054786276, 9.999254, 10.001762 
2.2250473e+3, 1.9614021e+2, -996863.0, -842898.9, -83696.85, -0.19775647, 0.18922713, -806164.6, 211667.38, 0.028543482, 9.999454, 10.001562 
2.2250625e+3, 2.061401e+2, -952113.7, -1022144.06, -62976.824, -0.15970722, 0.14499582, -915072.3, 4760.4087, 0.013685946, 10.00019, 9.999271 
2.2250775e+3, 2.1613719e+2, -736794.7, -871504.1, -71698.36, -0.21518245, -0.08407334, -705776.06, 116087.0, 0.005262215, 10.001028, 9.999223 
2.2250935e+3, 2.2613692e+2, -664766.8, -857144.75, -43672.406, -0.121909596, 0.003719944, -655316.8, 68553.31, 0.001420654, 10.001135, 9.998604 
2.2251111e+3, 2.361385e+2, -602408.06, -745462.8, -27742.441, 0.08408136, 0.27446938, -597216.4, 28644.057, 0.0002619265, 10.000773, 9.998866 
2.225125e+3, 2.4613714e+2, -426871.3, -551179.0, -72757.26, 0.0659432, 0.22766829, -393334.4, 134535.72, 0.000035642544, 10.001061, 9.999384 
2.2251372e+3, 2.5613394e+2, -204279.61, -388922.44, -71512.016, -0.12302916, -0.05676771, -179822.55, 250069.45, 0.0000011567587, 10.001929, 9.99939 
2.2251536e+3, 2.661324e+2, -189748.72, -517019.38, -6404.9634, -0.026135102, -0.0635126, -189623.42, 142283.14, 0.0, 10.002148, 9.997735 
2.2251736e+3, 2.7613187e+2, -81138.63, -410280.78, -72364.86, 0.25434422, 0.09421639, -65931.195, 167985.78, 0.0, 10.002235, 9.997738 
2.2251868e+3, 2.861307e+2, -28818.963, -414755.44, -175825.7, 0.17286092, 0.22295816, 39271.066, 175203.25, 0.0, 10.002234, 9.997057 
2.2251958e+3, 2.9612803e+2, 107914.625, -296502.63, -79354.15, -0.20060217, 0.25725126, 122928.03, 160889.1, 0.00000073017384, 10.002508, 9.997049 
2.2252129e+3, 3.06125e+2, 287961.25, 4402.8105, -7671.877, 0.021472929, 0.12717298, 288168.66, 288168.66, 0.00002755439, 10.002544, 9.99879 
2.2252287e+3, 3.1612447e+2, 84784.37, -328326.47, -97629.62, 0.1655113, 0.20275056, 106694.875, 106694.875, 0.000118261974, 10.002149, 9.996671 
2.2349866e+3, 1.5611441e+2, -1864438.0, -2000152.9, -258158.11, -0.22936082, -0.2602257, -1665368.0, -255271.63, 0.35698506, 9.998546, 9.996696 
2.235001e+3, 1.6612099e+2, -1335379.5, -1085770.5, 34618.535, -0.14957798, 0.3732223, -1081058.3, 230977.42, 0.23053116, 9.998541, 10.002797 
2.2350176e+3, 1.7612283e+2, -1143290.3, -913111.75, 74703.87, -0.19500932, 0.23412575, -890992.44, 323013.25, 0.14104874, 9.999269, 10.002821 
2.2350325e+3, 1.8612266e+2, -1234116.4, -1180241.8, -18092.719, -0.21395457, 0.082892455, -1174729.6, -58726.64, 0.08532412, 9.999235, 10.000006 
2.2350474e+3, 1.9612144e+2, -1112613.5, -1072866.6, -70175.414, -0.15490548, -0.048240215, -1019804.9, -1789.3251, 0.05187056, 9.999422, 9.999963 
2.235063e+3, 2.061216e+2, -955367.75, -1014836.06, -28642.475, -0.15994433, 0.0010720422, -943816.2, -23799.738, 0.030293982, 10.000132, 9.99935 
2.2350787e+3, 2.1612242e+2, -736074.5, -851805.94, -39160.293, -0.21710785, 0.13515282, -724069.1, 97942.74, 0.015773455, 10.000957, 9.999393 
2.2350943e+3, 2.2612213e+2, -641812.7, -762369.44, -60843.805, -0.17355789, 0.1754561, -616443.8, 107572.02, 0.0069356123, 10.000949, 9.999336 
2.2351106e+3, 2.3612134e+2, -565505.1, -653222.4, -33177.91, -0.04360801, 0.12926148, -554369.6, 71653.5, 0.002541045, 10.000709, 9.999525 
2.2351255e+3, 2.4612059e+2, -483545.78, -628681.06, -49756.844, -0.018773705, 0.14205837, -468125.88, 59902.258, 0.00075579167, 10.000901, 9.998921 
2.2351399e+3, 2.5611997e+2, -254075.77, -461953.38, -40464.664, -0.06374595, 0.14625302, -246476.84, 183554.06, 0.00014769337, 10.0018, 9.998946 
2.2351557e+3, 2.6611698e+2, -336513.47, -744595.0, -19121.004, -0.047556695, 0.09436028, -335619.5, -3556.7136, 0.000007045108, 10.001842, 9.996306 
2.2351736e+3, 2.761125e+2, -169063.86, -551824.7, -61815.023, 0.030600348, -0.016342588, -159328.48, 74784.51, 0.00000000065814787, 10.002077, 9.996827 
2.2351877e+3, 2.861122e+2, 92044.86, -107979.87, -184517.25, 0.00576449, 0.107852094, 201911.25, 338028.25, 0.0, 10.002018, 9.999254 
2.2351995e+3, 2.9611358e+2, 166266.27, -114109.625, -66486.59, -0.10054283, 0.33778644, 181233.48, 219334.3, 0.0000012574419, 10.002268, 9.9984045 
2.2352138e+3, 3.0610904e+2, 67576.305, -322946.0, -27998.14, -0.16692476, 0.12060124, 69573.39, 69573.39, 0.000044073433, 10.002031, 9.996764 
2.235232e+3, 3.1610617e+2, 65874.016, -211216.48, -90213.98, 0.23709776, 0.12579718, 92656.766, 92656.766, 0.00018419352, 10.00155, 9.997738 
2.2449835e+3, 1.5610363e+2, -1329377.5, -1914806.6, -162396.48, -0.6903943, -0.05651015, -1287346.8, 122843.77, 0.42759266, 10.003736, 9.994753 
2.245e+3, 1.6610608e+2, -989613.4, -1048500.2, 110992.32, -0.27463466, 0.32126063, -904225.56, 407951.94, 0.29616648, 10.002482, 10.001453 
2.2450165e+3, 1.7610642e+2, -1132848.3, -1046390.75, -50222.14, -0.23919234, 0.18523395, -1023354.94, 190810.23, 0.19952731, 10.0000515, 10.001472 
2.2450322e+3, 1.8610619e+2, -1243294.6, -1165791.9, -140149.36, -0.15951775, 0.071534805, -1059135.1, 57030.027, 0.13536815, 9.999079, 10.000224 
2.2450475e+3, 1.9610588e+2, -1126559.0, -1058621.9, -54857.945, -0.061632253, 0.011396174, -1028067.2, -9897.282, 0.09319166, 9.999215, 10.000177 
2.2450635e+3, 2.0610626e+2, -1042639.75, -1060961.6, 69127.07, -0.08045873, 0.0688479, -982069.25, -61901.58, 0.06306426, 9.999517, 9.999352 
2.2450793e+3, 2.1610643e+2, -915190.75, -952428.3, 25665.525, -0.16891655, 0.15276319, -902101.8, -79934.46, 0.0400799, 9.999754, 9.9993 
2.2450955e+3, 2.261054e+2, -694566.25, -793602.4, -24537.313, -0.1196939, 0.12733501, -688820.25, 35356.676, 0.023131557, 10.000585, 9.999312 
2.2451124e+3, 2.361039e+2, -446920.2, -606200.56, -65747.336, 0.019221744, 0.0099571245, -423287.6, 202902.27, 0.011994159, 10.001569, 9.99944 
2.2451274e+3, 2.461032e+2, -409088.63, -688753.8, -119572.42, 0.047591187, 0.081028335, -364935.56, 163262.42, 0.0054928027, 10.00181, 9.998081 
2.2451419e+3, 2.5610343e+2, -321029.25, -551375.2, -149876.98, -0.023311725, 0.24523795, -247183.92, 183014.83, 0.002050329, 10.0015745, 9.998451 
2.2451572e+3, 2.6610085e+2, -406184.44, -680999.56, -49030.266, -0.010542521, 0.21133542, -397698.88, -65473.613, 0.0004876709, 10.000926, 9.997195 
2.2451752e+3, 2.7609637e+2, -287577.25, -521446.97, 78872.66, 0.063675515, 0.012148588, -263463.7, -29194.545, 0.000047167257, 10.0008745, 9.997627 
2.2451897e+3, 2.8609577e+2, -128605.4, -247648.02, -91655.32, 0.085642874, 0.08743328, -78840.45, 57434.996, 0.00000034188096, 10.000658, 9.998941 
2.2452022e+3, 2.960966e+2, -39617.69, -268352.28, -172074.52, 0.00039630476, 0.31078455, 52629.434, 90897.82, 0.0000013302117, 10.001088, 9.997917 
2.2452158e+3, 3.060924e+2, -95417.78, -455575.4, -112549.375, -0.1183943, 0.15919869, -63139.016, -63139.016, 0.0000584347, 10.001093, 9.9963255 
2.2452341e+3, 3.1608942e+2, 77331.16, 18676.314, -90938.9, 0.36532998, 0.20905252, 143554.67, 143554.67, 0.00025944764, 10.0006, 9.9997835 
2.2550035e+3, 1.6609119e+2, -1249706.3, -1585622.4, 41046.984, -0.23136741, 0.10502108, -1244763.3, 67552.016, 0.39765337, 10.002121, 9.997181 
2.2550172e+3, 1.7608517e+2, -1407627.5, -1610086.1, -159698.95, -0.2416322, -0.19931488, -1319777.1, -105400.27, 0.29298013, 10.000006, 9.997346 
2.2550318e+3, 1.8608673e+2, -1142837.3, -938723.3, -130778.95, -0.1467447, -0.06054366, -874892.5, 241469.77, 0.21888196, 9.9988785, 10.002211 
2.2550479e+3, 1.9609319e+2, -1015915.9, -832928.7, -43858.836, 0.029301127, 0.34757274, -822959.6, 195338.72, 0.16615056, 9.999094, 10.002031 
2.255064e+3, 2.0609362e+2, -1068790.4, -1092497.6, 78376.7, -0.008015819, 0.32268023, -1001376.0, -81084.836, 0.12546477, 9.999417, 9.999177 
2.2550793e+3, 2.16089e+2, -946051.9, -1008002.75, 39561.48, -0.14162543, -0.045637567, -926782.06, -104449.875, 0.0914258, 9.999711, 9.998934 
2.2550972e+3, 2.260867e+2, -766841.7, -916518.4, 14342.198, -0.040700734, -0.1391884, -765479.8, -41125.832, 0.062582165, 10.000463, 9.998528 
2.2551163e+3, 2.3608622e+2, -514273.16, -727051.7, -27219.55, 0.22971532, -0.08381005, -510846.3, 115514.21, 0.039919913, 10.001494, 9.998652 
2.2551306e+3, 2.4608514e+2, -560389.25, -912032.75, -140520.05, 0.176833, 0.07031863, -511135.06, 17242.535, 0.023601582, 10.001435, 9.996719 
2.2551431e+3, 2.5608456e+2, -386369.6, -645774.6, -157912.47, -0.05825374, 0.25413492, -311721.72, 118671.36, 0.012405956, 10.001422, 9.997866 
2.2551587e+3, 2.660838e+2, -237486.75, -275154.25, -82216.17, 0.0034174132, 0.2725526, -171974.73, 160421.73, 0.005154125, 10.000701, 10.000089 
2.2551782e+3, 2.7608332e+2, -156651.94, -185834.47, 76365.375, 0.2615547, 0.16387862, -93496.336, 140891.84, 0.0013586987, 10.000613, 10.0000515 
2.2551924e+3, 2.8608146e+2, -407157.97, -708285.5, -111173.36, 0.27020153, 0.16499671, -370561.47, -234152.84, 0.00015517221, 10.00019, 9.995985 
2.2552039e+3, 2.9607725e+2, -243599.84, -622861.5, -150402.86, 0.05806207, 0.17821324, -191195.81, -152733.92, 0.0000026982873, 10.000854, 9.995563 
2.2552185e+3, 3.0607483e+2, -72613.055, -339093.44, -133100.06, -0.0118319355, 0.23570119, -17522.223, -17522.223, 0.000065484004, 10.00084, 9.997225 
2.2552337e+3, 3.1607175e+2, 189854.2, 325195.72, 151588.88, 0.20940787, 0.21491098, 423532.56, 423532.56, 0.00034262595, 10.000311, 10.002035 
2.2650176e+3, 1.7607927e+2, -1145471.9, -1289880.8, 221873.95, -0.24933925, 0.35602367, -984349.2, 230073.11, 0.44342524, 10.001442, 9.999398 
2.2650334e+3, 1.8607152e+2, -1073269.4, -1381410.6, 238954.56, -0.018365223, -0.38278913, -943021.44, 173482.53, 0.3585124, 10.002022, 9.99745 
2.2650476e+3, 1.9607578e+2, -1146013.5, -1315374.0, -143577.42, 0.042936243, 0.2885079, -1064004.8, -45535.293, 0.29413474, 10.000178, 9.9979105 
2.2650632e+3, 2.0607509e+2, -948131.8, -977586.75, -116196.555, -0.035599243, 0.30749062, -845733.1, 74741.24, 0.24160613, 10.000019, 9.999754 
2.2650793e+3, 2.1607071e+2, -752368.25, -863100.7, -101290.555, -0.17853357, -0.08793683, -692299.7, 130210.03, 0.1940874, 10.000945, 9.999406 
2.2650973e+3, 2.2606911e+2, -535626.56, -806689.7, -60221.395, -0.13343592, -0.13088664, -522849.6, 201676.02, 0.14888066, 10.002303, 9.99842 
2.2651163e+3, 2.3606966e+2, -395436.63, -659407.5, -98425.15, 0.046942033, 0.051189695, -362778.03, 263747.7, 0.108788945, 10.002454, 9.998688 
2.2651318e+3, 2.460692e+2, -414195.2, -715347.56, -91488.44, 0.13760144, 0.19871831, -388580.22, 139955.25, 0.07581198, 10.001901, 9.997879 
2.2651467e+3, 2.5606826e+2, -316307.22, -542513.3, 33557.703, 0.15000737, 0.25293228, -311433.9, 119115.375, 0.048806984, 10.001543, 9.998568 
2.2651614e+3, 2.6606682e+2, -181685.36, -330385.6, 9553.75, 0.1860225, 0.22895026, -181074.06, 151484.22, 0.026684597, 10.001399, 9.9993925 
2.2651792e+3, 2.760659e+2, 26979.018, -135940.53, -77222.26, 0.23983061, 0.10964238, 57764.387, 292320.7, 0.010897145, 10.001972, 9.999781 
2.2651926e+3, 2.860636e+2, -278440.2, -628042.7, -236057.83, 0.26247382, 0.07458903, -159508.95, -22928.217, 0.002788968, 10.000958, 9.996184 
2.2652066e+3, 2.9605937e+2, -35697.28, -473851.6, -14052.733, 0.17795427, 0.05926639, -35247.04, 3386.1062, 0.0003034348, 10.00208, 9.99599 
2.2652224e+3, 3.0605686e+2, 218956.64, -189809.31, 36202.918, 0.19829717, 0.040965162, 222138.23, 222138.23, 0.000074942734, 10.002862, 9.99726 
2.2652327e+3, 3.160557e+2, 564483.0, 453092.94, 202919.23, -0.05782603, 0.34953007, 719211.7, 719211.7, 0.00045627917, 10.003034, 10.001651 
2.2750628e+3, 2.0605093e+2, -974887.8, -920454.7, -64355.406, -0.14423892, 0.052811265, -877797.4, 42917.445, 0.4526298, 9.9994545, 10.000494 
2.2750811e+3, 2.1605146e+2, -848376.2, -793731.06, 11964.145, -0.12866528, 0.014060584, -791226.44, 31474.406, 0.38963944, 9.999537, 10.000617 
2.2750992e+3, 2.2605261e+2, -1007090.4, -1026811.2, 55576.664, -0.24612671, 0.15987706, -960506.2, -235814.4, 0.32267725, 9.998742, 9.998598 
2.2751135e+3, 2.3605318e+2, -651527.6, -706123.06, -60842.926, -0.47560713, 0.295286, -612139.3, 14556.632, 0.25840095, 10.000153, 9.999436 
2.275131e+3, 2.4605377e+2, -328181.9, -361856.5, -94086.24, -0.18371178, 0.33150792, -249438.27, 279249.0, 0.20062341, 10.001343, 10.000838 
2.275152e+3, 2.5605416e+2, -237037.86, -278537.13, 21640.033, 0.52071935, 0.19880345, -227806.86, 202865.48, 0.14660953, 10.001274, 10.000658 
2.2751655e+3, 2.6605052e+2, -614548.1, -1053276.9, 4039.3557, 0.42303437, 0.118073195, -614510.94, -281804.78, 0.09444842, 10.000628, 9.994779 
2.2751787e+3, 2.7604508e+2, -203618.69, -552546.75, -63669.773, -0.033751328, -0.094784655, -192363.75, 42399.613, 0.04983968, 10.001731, 9.997 
2.2751911e+3, 2.8604275e+2, -151131.42, -240062.08, -285664.97, -0.015183798, -0.16810676, 93508.14, 230294.67, 0.019500945, 10.0004835, 9.999064 
2.2752093e+3, 2.9604325e+2, 96439.875, -100226.58, 20487.209, 0.23093383, -0.037288304, 98551.41, 137331.22, 0.004786881, 10.001699, 9.998717 
2.2752261e+3, 3.060394e+2, 75399.22, -347033.72, -2816.4893, 0.27381864, -0.298969, 75418.0, 75418.0, 0.0007184054, 10.002336, 9.996394 
2.2752304e+3, 3.1604096e+2, 218021.69, -79600.78, 73514.35, -0.611847, 0.47146466, 235189.8, 235189.8, 0.000778247, 10.002407, 9.998202 
2.2851372e+3, 2.4603504e+2, -552793.7, -908979.75, 414351.28, 0.20835407, -0.07559128, -279883.28, 248966.58, 0.45869297, 10.001968, 9.99727 
2.2851467e+3, 2.56029e+2, -291629.28, -443231.44, -281963.44, -0.18532042, -0.6102607, -75455.734, 355445.97, 0.36361384, 10.002087, 9.9995775 
2.2851606e+3, 2.6603326e+2, -413658.22, -863120.8, -26526.93, -0.17566179, 0.08747416, -412098.03, -79232.89, 0.26167566, 10.001484, 9.995726 
2.285185e+3, 2.7602735e+2, 394602.88, -234734.34, 152168.86, 0.19320709, -0.1737428, 429464.94, 664401.0, 0.1640845, 10.006673, 9.996932 
2.2851957e+3, 2.860272e+2, 423307.97, 172926.31, -209393.45, 0.22533013, -0.08081169, 542081.0, 679022.3, 0.0825175, 10.004099, 10.000373 
2.2852075e+3, 2.960329e+2, 107146.484, 32619.715, 105298.13, -0.07015735, 0.42936411, 181580.27, 220462.98, 0.03076659, 10.0011425, 9.999974 
2.2852263e+3, 3.0602524e+2, -171119.2, -455815.2, 94171.61, 0.13936836, -0.26988864, -142788.42, -142788.42, 0.009048166, 10.000476, 9.996596 
2.2852369e+3, 3.1602293e+2, 60768.516, -42168.13, 69176.88, -0.1373047, 0.064553075, 95523.33, 95523.33, 0.0039510843, 10.000824, 9.999212 
2.295191e+3, 2.7600917e+2, -372060.97, -367071.97, 198639.1, 0.10087504, -0.48275903, -170911.7, 64196.992, 0.43463287, 9.999387, 9.999622 
2.2952051e+3, 2.8601694e+2, -545026.56, -401845.2, -585158.06, 0.68711, 0.2656693, 116085.27, 253129.27, 0.2541604, 9.997752, 9.999585 
2.2952019e+3, 2.960302e+2, -72080.17, 1306.2518, 6011.0034, -0.7527005, 1.4402481, 1795.347, 40717.855, 0.12162859, 9.99974, 10.000369 
2.2952229e+3, 3.0601588e+2, -492611.88, -625417.6, 70468.61, -0.28629002, 0.08390065, -462189.28, -462189.28, 0.05348807, 9.998467, 9.996317 
2.2952515e+3, 3.1600413e+2, 173488.7, 383753.22, -43806.863, 1.2267456, -0.71018225, 392514.9, 392514.9, 0.030311517, 10.000162, 10.002459 
2.3052031e+3, 2.9599446e+2, -1147865.0, -618999.94, 943795.8, -0.5817881, -0.049482256, 96707.91, 135957.3, 0.35797346, 9.992502, 10.000051 
2.3052503e+3, 3.0599025e+2, 2634114.0, 1720085.0, -512736.03, 1.2910252, -1.0846772, 2863947.8, 2863947.8, 0.20897399, 10.020522, 10.005005 
2.305232e+3, 3.1601033e+2, -748311.94, -838700.0, -180416.03, -0.6705829, 1.3201483, -607515.5, -607515.5, 0.15818293, 9.996483, 9.996122 
2.3502366e+3, 2.7526855e+2, -814095.44, -1599214.4, -640789.94, 0.51125157, 0.6947361, -455179.9, -212808.78, 0.44721872, 10.000092, 9.989949 
2.349832e+3, 2.8524116e+2, 669708.44, 211487.25, -547065.0, -0.6602872, -0.95851666, 1033701.4, 1178357.3, 0.34772092, 10.007882, 9.999518 
2.3494779e+3, 2.9525793e+2, 200994.17, 713687.1, 380723.84, 0.8954411, 0.7014194, 916322.3, 962784.56, 0.26751348, 9.998688, 10.007287 
2.3491064e+3, 3.052379e+2, -575147.4, -21549.037, -400456.7, -0.44215298, -0.7273275, 188461.16, 188461.16, 0.2105118, 9.995876, 10.001827 
2.3640858e+3, 1.757138e+2, -969711.6, -560023.1, -370721.28, 0.10117941, 0.65398616, -341316.4, 876723.3, 0.43640524, 9.998309, 10.008215 
2.3636958e+3, 1.857028e+2, -115914.19, -818915.3, -177927.86, -0.17167425, 0.008982169, -73446.52, 1046688.4, 0.37759876, 10.0118, 9.996996 
2.363312e+3, 1.9569574e+2, -1014790.44, -1281835.3, 217564.45, -0.41323698, 0.24410094, -893043.3, 129161.8, 0.33353576, 10.000979, 9.997206 
2.3629345e+3, 2.0568599e+2, -1130481.3, -1238604.0, 106733.016, 0.28226253, 0.2929242, -1064899.1, -140598.3, 0.30097625, 9.999, 9.997636 
2.3625432e+3, 2.1567741e+2, 321297.84, -416377.13, -279499.6, 0.17506324, 0.34304512, 415235.8, 1241618.5, 0.27813876, 10.011124, 9.9979515 
2.3621546e+3, 2.2566302e+2, 509447.97, -590407.2, -317229.56, 0.06621433, 0.011188684, 594386.44, 1322912.4, 0.26103714, 10.013571, 9.994142 
2.3617685e+3, 2.3565471e+2, -344715.03, -918541.8, -475185.6, 0.065096356, 0.36020494, -76542.266, 554071.4, 0.24560684, 10.004185, 9.995724 
2.3613763e+3, 2.4564701e+2, -793433.1, -751302.9, -407819.56, -0.20862739, 0.53033143, -364004.78, 168679.8, 0.23007017, 9.997991, 9.999099 
2.3609905e+3, 2.5563174e+2, -691321.5, -401242.16, -251671.33, 0.03276659, -0.16468948, -255808.14, 179013.63, 0.20981891, 9.996806, 10.001451 
2.360607e+3, 2.6563063e+2, 45753.813, 536355.0, -333898.75, 0.58317715, -0.17137, 705374.0, 1042211.0, 0.17452675, 9.998708, 10.007457 
2.3602337e+3, 2.756346e+2, -397753.72, -425811.38, -68895.77, 0.9503173, 0.50808847, -341472.97, -102655.53, 0.12457938, 9.998869, 9.99865 
2.3598433e+3, 2.8562498e+2, 531463.06, 49579.605, -519264.1, 0.42823642, 0.42830706, 862961.8, 1003870.06, 0.08128593, 10.004947, 9.998585 
2.3594543e+3, 2.9561427e+2, 152588.9, 514532.06, 93521.02, -0.7178017, -0.29344082, 537268.4, 580258.06, 0.054040506, 9.999145, 10.004164 
2.3591048e+3, 3.056138e+2, -1145160.8, -1195579.4, 167546.08, 0.32560125, 0.6668761, -1000938.1, -1000938.1, 0.037602715, 9.994923, 9.994328 
2.3748457e+3, 1.5610267e+2, -1400094.6, -1176312.6, 164935.84, -0.6634413, 0.36938697, -1088896.3, 321352.2, 0.4091495, 9.998155, 10.003078 
2.3744664e+3, 1.6610424e+2, -2106047.0, -1660833.1, -108318.2, 0.15366548, 1.1669927, -1635878.6, -323648.72, 0.31913945, 9.993944, 9.999899 
2.3740825e+3, 1.7608905e+2, -1430376.5, -1227752.5, -332505.28, 0.7512291, 0.3180766, -981467.2, 232909.64, 0.25440004, 9.997644, 10.000802 
2.3737004e+3, 1.8607886e+2, -1102402.8, -996086.56, -133291.3, 1.0184522, -0.084388606, -905744.3, 210727.42, 0.20803122, 9.999089, 10.000919 
2.3733157e+3, 1.960742e+2, -1033923.9, -948783.0, -107693.68, 0.7593917, 0.062087286, -875551.1, 142960.56, 0.17323056, 9.998962, 10.000558 
2.3729268e+3, 2.0606852e+2, -1130254.3, -1083124.4, -249203.31, 0.4214626, 0.23384689, -856374.3, 64188.83, 0.14628343, 9.998279, 9.999171 
2.372536e+3, 2.1606222e+2, -1090276.5, -1000483.3, -161099.5, 0.29176453, 0.40411595, -878141.3, -55519.813, 0.1255341, 9.99779, 9.9992695 
2.3721527e+3, 2.260534e+2, -1135856.8, -1131684.5, 118002.31, 0.65522444, 0.409115, -1015749.94, -291038.03, 0.10829949, 9.99749, 9.997842 
2.3717725e+3, 2.3604174e+2, -861335.0, -861017.75, 159645.47, 1.2733755, 0.24335645, -701530.8, -74695.88, 0.09199208, 9.998379, 9.998583 
2.3713815e+3, 2.4603285e+2, -268688.5, -280635.03, 109387.34, 1.1246805, 0.093918025, -165111.45, 363809.1, 0.07586676, 10.000785, 10.000905 
2.370989e+3, 2.560237e+2, 42030.996, -295913.97, 154138.31, 0.4792118, 0.0032240844, 101773.01, 532774.7, 0.05915913, 10.003441, 9.998685 
2.3705998e+3, 2.6601774e+2, 508873.28, 324293.13, 53252.99, 0.3288111, 0.06470541, 523135.25, 856192.6, 0.040411502, 10.004332, 10.002035 
2.3702216e+3, 2.7601388e+2, -283041.8, -416925.34, 304384.13, 0.5165079, 0.33430564, -38325.26, 196771.77, 0.021716034, 10.000145, 9.99796 
2.3698369e+3, 2.8600544e+2, -377195.38, -676101.94, -12964.642, 0.34764147, 0.5907488, -376634.1, -239453.75, 0.0094800135, 9.999979, 9.995541 
2.3694547e+3, 2.9599547e+2, -129419.25, -13396.309, 313584.78, 0.035593245, 0.42593798, 247497.77, 286773.22, 0.0043066265, 9.999273, 10.000022 
2.3690894e+3, 3.0598727e+2, -1316376.1, -634566.1, 409700.7, 0.2700912, 0.51829785, -442488.13, -442488.13, 0.0024546392, 9.991312, 9.999614 
2.3852395e+3, 1.4649244e+2, -1803380.6, -1384045.1, -126927.21, 0.33772328, 0.16992514, -1348618.9, 155804.16, 0.3896719, 9.996076, 10.00271 
2.3848474e+3, 1.5648988e+2, -1259509.1, -1158293.3, -209187.64, 0.2710509, 0.36128575, -993678.9, 412763.25, 0.2783619, 9.999899, 10.0018635 
2.3844582e+3, 1.6648316e+2, -1161206.0, -1446945.6, -48143.91, 0.2872164, 0.4760893, -1153312.4, 155198.13, 0.19862524, 10.001846, 9.997556 
2.3840691e+3, 1.7647545e+2, -935806.6, -1275100.5, 15256.682, 0.09807587, 0.6701698, -935122.0, 275472.16, 0.1461588, 10.002708, 9.997675 
2.3836836e+3, 1.8646947e+2, -860806.75, -876069.3, 106316.734, 0.028787145, 0.8727422, -761847.75, 350806.84, 0.11113541, 10.000941, 10.000788 
2.383302e+3, 1.9646394e+2, -1185104.8, -984154.1, -38061.566, 0.20397484, 0.94855744, -977186.56, 37519.28, 0.08556882, 9.997798, 10.00076 
2.382916e+3, 2.064543e+2, -1012861.75, -771528.4, -180993.36, 0.23721403, 0.58891344, -674665.7, 242128.34, 0.065839775, 9.9979925, 10.001497 
2.3825257e+3, 2.1644288e+2, -637261.06, -535985.9, -168239.28, 0.07999883, 0.022728689, -410928.78, 407969.44, 0.050802168, 9.999919, 10.001535 
2.3821363e+3, 2.264397e+2, -588881.0, -548092.56, -26892.723, -0.13081971, 0.29521823, -534735.6, 186196.17, 0.038884565, 9.999941, 10.000703 
2.3817483e+3, 2.3643953e+2, -603902.7, -612566.8, -53700.83, -0.334764, 1.0035579, -554359.5, 68581.8, 0.028499383, 9.999653, 9.999684 
2.381363e+3, 2.4643177e+2, -431226.72, -570751.75, -74746.28, -0.101207756, 1.0106491, -398745.34, 126272.83, 0.019239577, 10.000537, 9.99889 
2.3809844e+3, 2.5641868e+2, -434087.03, -747105.44, -18241.213, 0.43905294, 0.671971, -433027.63, -5885.398, 0.011432521, 10.00092, 9.996756 
2.3805976e+3, 2.6640755e+2, 112249.12, -162026.55, -222890.86, 0.4507854, 0.43994278, 236811.72, 566054.7, 0.005416997, 10.002802, 9.99921 
2.38021e+3, 2.7639616e+2, -125939.66, -428699.25, -44609.68, -0.021446731, 0.11364143, -119503.52, 111841.17, 0.001679893, 10.00153, 9.997237 
2.3798276e+3, 2.863871e+2, -239901.4, -777131.3, -54875.902, 0.0722854, 0.41604635, -234353.34, -100912.25, 0.00032890108, 10.001581, 9.994124 
2.3794582e+3, 2.9638574e+2, -436700.38, -507656.1, 185837.63, 1.0996665, 1.3513485, -282984.4, -247512.94, 0.0001013413, 9.998464, 9.997131 
2.37907e+3, 3.0636328e+2, -600750.44, 484681.47, 48551.777, -0.26545858, -0.18348403, 486848.88, 486848.88, 0.00013852342, 9.992652, 10.006793 
2.3956054e+3, 1.368942e+2, -1431772.9, -2252495.3, -26926.545, -0.4812683, 0.9743245, -1430890.4, 167593.42, 0.42781487, 10.004975, 9.992509 
2.395231e+3, 1.468808e+2, -1748732.6, -1393132.6, -93162.32, 0.58338517, 0.48312882, -1370203.8, 130420.52, 0.29985383, 9.9966345, 10.002189 
2.3948364e+3, 1.5687566e+2, -1164517.9, -1141576.3, -114087.48, -0.12517558, 0.51740897, -1038384.4, 364284.28, 0.19614404, 10.000722, 10.001387 
2.39445e+3, 1.6686824e+2, -842106.75, -1039440.25, -24187.893, -0.07013469, 0.43457922, -839185.2, 465551.03, 0.12585048, 10.002914, 10.00016 
2.3940673e+3, 1.7685977e+2, -622131.4, -948824.44, 53012.79, 0.2984065, 0.31746125, -613744.25, 593071.5, 0.083471425, 10.003989, 9.999487 
2.3936804e+3, 1.868523e+2, -913547.75, -1232601.3, 6032.684, 0.27837852, 0.4743839, -913433.7, 195464.06, 0.057587944, 10.001897, 9.997708 
2.393292e+3, 1.9684538e+2, -1250462.0, -1247081.4, -112377.67, 0.12346004, 0.7263617, -1136381.3, -125402.3, 0.03970386, 9.998355, 9.998656 
2.3929052e+3, 2.0683815e+2, -859908.94, -605461.9, -93421.58, 0.078768596, 0.6399086, -574845.56, 338198.94, 0.026570952, 9.998658, 10.002273 
2.3925191e+3, 2.1683057e+2, -429105.9, -391226.28, -89260.09, 0.06988656, 0.40390337, -318918.72, 496186.38, 0.017417854, 10.001204, 10.001837 
2.392133e+3, 2.2682483e+2, -372551.6, -540897.8, -115836.12, 0.14263846, 0.47303677, -313535.6, 403622.28, 0.011141793, 10.001878, 9.999779 
2.3917478e+3, 2.3681888e+2, -388500.63, -644046.1, -168440.23, 0.24046867, 0.70040935, -304854.4, 314364.0, 0.0065593217, 10.001766, 9.998409 
2.3913604e+3, 2.4680907e+2, -418831.5, -768410.9, -236350.98, 0.25126317, 0.66098106, -299659.94, 221658.6, 0.0032030866, 10.00155, 9.996994 
2.3909763e+3, 2.5679702e+2, -623638.6, -960320.2, -161900.92, 0.32686073, 0.567322, -558418.9, -134978.48, 0.0011282732, 10.000225, 9.995569 
2.3905914e+3, 2.667872e+2, -214892.64, -445540.13, -241207.11, 0.3578514, 0.59011656, -62858.14, 262674.34, 0.00023273825, 10.001199, 9.997964 
2.3902068e+3, 2.7677718e+2, -877.23627, -253842.75, -135106.48, 0.17892636, 0.46347973, 57712.016, 285334.53, 0.000018051116, 10.001986, 9.998151 
2.389823e+3, 2.8676644e+2, -77011.31, -330058.13, -131380.2, 0.16045783, 0.34855053, -21137.002, 108594.25, 0.000004039042, 10.001183, 9.997336 
2.389448e+3, 2.9676265e+2, -349483.53, -382742.4, 141303.66, 0.93886983, 0.8616106, -223834.14, -192055.75, 0.000013542408, 9.998707, 9.997846 
2.3890598e+3, 3.067473e+2, -174422.03, 535990.44, -306477.03, 0.014845593, 0.13663805, 649932.0, 649932.0, 0.000052298794, 9.996224, 10.005418 
2.4060039e+3, 1.2727205e+2, -1724460.9, -1598457.3, -50376.695, 0.13870382, -0.23690288, -1580792.9, 111969.6, 0.49042445, 9.998817, 10.001211 
2.4056116e+3, 1.3727248e+2, -1430528.3, -1399564.4, -97079.29, 0.53709805, 0.43129194, -1316740.3, 278044.53, 0.36336058, 10.000579, 10.001296 
2.405221e+3, 1.4726827e+2, -1257223.6, -1230114.0, 77719.38, 0.4219314, 0.5812018, -1164776.3, 332054.13, 0.24041095, 10.000945, 10.001398 
2.4048296e+3, 1.5726188e+2, -1294105.1, -1220866.9, 40748.535, -0.1124285, 0.56144494, -1202700.9, 196186.27, 0.14389461, 9.999777, 10.001026 
2.4044439e+3, 1.6725461e+2, -1239194.0, -1100194.1, 54743.332, -0.077084705, 0.44894993, -1081223.3, 219727.06, 0.08188297, 9.999223, 10.001368 
2.404062e+3, 1.772465e+2, -1308322.6, -1209438.0, 11033.273, 0.3268007, 0.2549387, -1208221.9, -5200.405, 0.047678713, 9.99863, 10.000125 
2.4036746e+3, 1.8723814e+2, -1294564.4, -1534149.6, 2339.2646, 0.3454512, 0.34832767, -1294541.5, -189427.33, 0.028905774, 9.999733, 9.99666 
2.4032839e+3, 1.9723003e+2, -950031.56, -1216761.0, 49927.11, 0.12060631, 0.60872626, -940992.44, 66220.32, 0.017015342, 10.000977, 9.997588 
2.4028972e+3, 2.0722374e+2, -607949.4, -508165.8, 117268.59, 0.04489845, 0.6824919, -430616.97, 478652.75, 0.00915297, 10.000536, 10.002005 
2.4025127e+3, 2.1721776e+2, -706274.0, -622379.56, 12080.187, 0.10126161, 0.6525879, -620674.75, 190638.06, 0.0045936005, 9.9997, 10.000935 
2.4021292e+3, 2.27209e+2, -683991.5, -799463.94, -49605.984, 0.375475, 0.52223754, -665607.9, 47783.7, 0.0022051786, 10.000201, 9.998793 
2.4017465e+3, 2.3719798e+2, -588158.2, -866020.5, -65901.47, 0.70493054, 0.3363545, -573320.5, 42176.617, 0.0009056362, 10.0009365, 9.997292 
2.4013577e+3, 2.4718723e+2, -426568.78, -890987.5, -122318.68, 0.535024, 0.32276753, -396322.34, 121286.72, 0.00023937336, 10.002055, 9.995882 
2.4009682e+3, 2.5717643e+2, -449562.97, -970222.7, -45399.535, 0.18476565, 0.44058895, -445633.94, -25908.676, 0.000025130046, 10.001814, 9.994756 
2.4005839e+3, 2.671677e+2, -207261.17, -518853.6, -33723.633, 0.22387731, 0.67328686, -203653.05, 118158.25, 0.00000030344088, 10.001576, 9.9972925 
2.4002032e+3, 2.771599e+2, -263943.75, -281528.94, -4063.5208, 0.35656345, 0.7908877, -263050.16, -39166.387, 0.000000006555133, 9.999686, 9.999119 
2.3998179e+3, 2.871481e+2, -72568.695, 56509.406, -59328.023, 0.2793506, 0.31127617, 79635.08, 205632.05, 0.00000087941476, 9.999527, 10.000812 
2.3994346e+3, 2.971388e+2, -429907.56, -386635.72, 117352.94, 0.35208428, 0.06559948, -288940.9, -260853.83, 0.0000071974287, 9.997949, 9.998229 
2.3990545e+3, 3.071373e+2, -376780.63, -49879.367, -135358.22, 0.47130007, 0.9860926, -1108.5168, -1108.5168, 0.00003374468, 9.996846, 10.001122 
2.4159952e+3, 1.2767252e+2, -1952409.3, -1852808.1, -64428.723, 0.23121889, 0.5658671, -1821176.8, -132328.67, 0.4450997, 9.99801, 9.9993105 
2.4155964e+3, 1.3766588e+2, -1468393.6, -1570579.3, -44210.496, -0.31119713, 0.75125325, -1451921.4, 139010.5, 0.31930807, 10.00103, 9.99925 
2.4152102e+3, 1.4765806e+2, -1251805.5, -1312662.0, 47224.742, -0.04855751, 0.70305073, -1226055.0, 266954.75, 0.20041417, 10.001378, 10.000353 
2.4148273e+3, 1.5764922e+2, -1251370.8, -1264246.4, 19498.867, 0.38373715, 0.53775764, -1237274.4, 157816.58, 0.110025235, 10.000415, 10.00031 
2.4144395e+3, 1.6764262e+2, -1231500.8, -1141342.8, 16710.998, 0.297299, 0.544475, -1138345.0, 158805.64, 0.054970514, 9.999492, 10.000883 
2.4140508e+3, 1.7763644e+2, -1288066.6, -1179433.0, 4230.768, 0.1019087, 0.5905504, -1179268.5, 19938.06, 0.027314784, 9.998663, 10.000321 
2.4136654e+3, 1.8762866e+2, -1091567.4, -1185079.3, 92594.234, 0.18948254, 0.5989383, -1034593.9, 66692.39, 0.013986388, 10.000015, 9.998939 
2.4132805e+3, 1.9762014e+2, -697410.1, -960312.8, 155401.06, 0.32971302, 0.6176258, -625320.44, 378056.2, 0.006556314, 10.002112, 9.998808 
2.4128936e+3, 2.076106e+2, -674276.1, -842470.2, 85361.484, 0.30868128, 0.49813426, -638544.56, 266921.22, 0.002469395, 10.001376, 9.999286 
2.4125063e+3, 2.1760066e+2, -843273.1, -905303.7, 7869.166, 0.25483352, 0.34509823, -842290.4, -34736.03, 0.00078321603, 9.999673, 9.998998 
2.4121213e+3, 2.2759195e+2, -711240.3, -791132.5, 26633.28, 0.33915734, 0.2906596, -703175.75, 6458.4644, 0.00023610769, 9.999915, 9.9989805 
2.411738e+3, 2.3758283e+2, -570041.4, -815300.6, 56467.637, 0.47090107, 0.27522242, -557665.0, 54054.75, 0.000047296035, 10.000886, 9.99765 
2.4113514e+3, 2.4757203e+2, -419459.06, -888951.6, 15704.234, 0.43305975, 0.26574287, -418934.34, 94895.92, 0.0000020598873, 10.002119, 9.99587 
2.4109651e+3, 2.5756043e+2, -269688.0, -797922.1, 79659.02, 0.32007575, 0.2946006, -257936.63, 158015.3, 0.0, 10.002701, 9.995492 
2.4105793e+3, 2.6755083e+2, -298970.03, -547127.3, 45531.074, 0.34826142, 0.41431704, -290879.88, 27168.023, 0.0, 10.000939, 9.997373 
2.4101946e+3, 2.775425e+2, -521555.88, -380803.2, 75528.01, 0.4053812, 0.5040233, -347945.28, -127817.055, 0.0, 9.99778, 9.999364 
2.4098074e+3, 2.8753394e+2, -321849.03, -12151.1045, 30765.152, 0.18028101, 0.31744647, -9124.496, 113084.97, 0.0000001537889, 9.997544, 10.001325 
2.4094228e+3, 2.975274e+2, -325838.94, -345667.03, 150560.27, 0.08430672, 0.34207755, -184866.66, -160595.81, 0.000003139397, 9.998687, 9.998144 
2.4090488e+3, 3.0751786e+2, -276852.94, -203566.45, -53335.71, 0.91523176, 0.53298676, -175499.38, -175499.38, 0.000017109696, 9.998472, 9.99924 
2.425985e+3, 1.2806079e+2, -1909648.1, -1817527.4, -179990.55, 0.173369, 0.50332266, -1677797.1, 7251.171, 0.4141129, 9.998205, 9.999451 
2.425588e+3, 1.3805497e+2, -2037946.5, -1909486.6, -92781.59, -0.2906123, 0.73101974, -1860872.0, -273758.72, 0.28877336, 9.997, 9.998749 
2.4252029e+3, 1.4804608e+2, -1613241.8, -1562239.8, 104451.4, -0.053744663, 0.6439504, -1480221.5, 8978.058, 0.17287979, 9.998879, 9.999548 
2.4248213e+3, 1.5803629e+2, -1157978.6, -1307618.3, 39430.496, 0.43631127, 0.46357313, -1148224.4, 243067.38, 0.08747846, 10.001485, 9.999467 
2.4244326e+3, 1.6802941e+2, -1100874.0, -1152582.3, -26348.37, 0.3406696, 0.51343924, -1089813.8, 203543.69, 0.038149297, 10.000777, 10.000155 
2.4240415e+3, 1.7802355e+2, -1266273.5, -1198726.3, -32475.46, 0.032624412, 0.6543269, -1185645.6, 9768.344, 0.01570925, 9.99898, 10.000019 
2.4236572e+3, 1.8801615e+2, -1152081.3, -1082833.3, 54413.184, 0.1586024, 0.6251602, -1052962.1, 44523.9, 0.0064830934, 9.999055, 10.000097 
2.4232754e+3, 1.9800776e+2, -1050445.5, -1097327.0, -3055.4385, 0.45012707, 0.5386692, -1050247.1, -50679.434, 0.0021827125, 9.999563, 9.999092 
2.4228881e+3, 2.0799719e+2, -1003581.2, -1160695.1, -49676.64, 0.444856, 0.37310973, -989192.1, -87524.09, 0.00044835047, 9.9998255, 9.997835 
2.4224995e+3, 2.1798564e+2, -950108.06, -1100124.5, 18005.75, 0.33271652, 0.19257258, -947977.2, -144200.14, 0.000068581576, 9.999598, 9.997693 
2.4221137e+3, 2.2797681e+2, -631946.25, -788671.56, 74112.26, 0.28792313, 0.19680095, -602451.0, 103408.97, 0.0000096515805, 10.000663, 9.99862 
2.42173e+3, 2.379685e+2, -461672.03, -785631.06, 17947.447, 0.28433704, 0.27515048, -460680.75, 147257.39, 0.00000040342232, 10.001749, 9.997444 
2.4213453e+3, 2.4795805e+2, -407768.16, -808433.56, 5783.5728, 0.3458529, 0.26418573, -407684.7, 102357.85, 0.0, 10.001926, 9.996495 
2.4209611e+3, 2.5794655e+2, -464844.9, -801812.2, 71908.46, 0.41470024, 0.21790276, -450141.3, -37982.043, 0.0, 10.000974, 9.996317 
2.4205737e+3, 2.6793602e+2, -213313.84, -467733.44, 19238.945, 0.41116613, 0.18460254, -211867.23, 102396.23, 0.0, 10.001382, 9.9977 
2.4201855e+3, 2.779266e+2, -155244.42, -300689.06, 50545.863, 0.3437474, 0.1776648, -139403.66, 76952.27, 0.0, 10.000695, 9.998534 
2.4197964e+3, 2.8792083e+2, -97237.305, -17340.469, 81365.055, -0.016646491, 0.38668612, 33354.086, 151764.48, 0.0000000009564638, 9.999554, 10.000347 
2.4194126e+3, 2.9791677e+2, -449478.94, -386664.6, 169341.64, -0.17349872, 0.696954, -245842.25, -225394.66, 0.0000004799063, 9.997727, 9.998361 
2.4190393e+3, 3.078985e+2, -330365.56, -373773.72, -171689.33, 0.74670446, -0.052582204, -179013.89, -179013.89, 0.0000055147566, 9.998564, 9.99811 
2.4359728e+3, 1.2844558e+2, -1737807.9, -1678707.0, -182812.64, -0.14581604, 0.2302806, -1523071.9, 158206.67, 0.39271495, 9.999236, 10.000312 
2.4355853e+3, 1.3844009e+2, -1870101.9, -1735414.3, -80779.92, 0.44337574, 0.42075562, -1697588.8, -114262.09, 0.26710206, 9.997736, 9.999592 
2.4351977e+3, 1.4843187e+2, -1562600.5, -1578289.4, 192373.97, 0.26073802, 0.39540622, -1377911.1, 107493.56, 0.15331793, 9.999425, 9.99925 
2.4348108e+3, 1.5842275e+2, -1118924.3, -1339302.6, 85603.41, -0.062798485, 0.32217482, -1089580.0, 297912.2, 0.07196278, 10.001952, 9.999007 
2.4344231e+3, 1.6841438e+2, -1111939.9, -1269474.0, -96465.17, 0.045564577, 0.31010044, -1066168.8, 223406.42, 0.027363949, 10.00115, 9.999162 
2.4340351e+3, 1.784063e+2, -1262181.9, -1289786.9, -60257.93, 0.21499352, 0.3294215, -1214165.9, -22509.934, 0.009079448, 9.999406, 9.999176 
2.4336503e+3, 1.883984e+2, -1187921.6, -1189129.8, 46949.934, 0.28869843, 0.33848572, -1141571.9, -47836.598, 0.002868925, 9.999204, 9.999285 
2.4332666e+3, 1.9839042e+2, -1048506.6, -1075027.0, -22147.88, 0.35442835, 0.35900828, -1035952.8, -40137.773, 0.00059867656, 9.999473, 9.999287 
2.4328794e+3, 2.083837e+2, -899845.94, -910831.3, -58680.883, 0.34703138, 0.4549638, -846401.25, 51477.332, 0.000045539302, 9.999656, 9.999639 
2.4324916e+3, 2.1837649e+2, -877387.4, -1004008.5, 80407.055, 0.30815765, 0.5521326, -838357.7, -38411.52, 0.0000022398012, 9.999825, 9.998233 
2.4321087e+3, 2.2836491e+2, -719465.3, -1096184.3, 144729.6, 0.38684866, 0.43292803, -670283.3, 31777.129, 0.000000052409952, 10.001188, 9.996264 
2.4317273e+3, 2.3835249e+2, -385308.06, -793349.44, 23774.959, 0.49657327, 0.29854992, -383927.47, 220256.42, 0.0, 10.002474, 9.99703 
2.4313405e+3, 2.4834436e+2, -307420.44, -486225.66, -48537.62, 0.45267847, 0.3754029, -295094.38, 211169.75, 0.0, 10.001448, 9.998932 
2.4309531e+3, 2.5833696e+2, -470641.06, -547496.3, 86161.37, 0.34739488, 0.4990289, -414726.4, -6389.706, 0.0, 9.999821, 9.9986 
2.4305654e+3, 2.683273e+2, -108366.18, -340658.88, 128779.87, 0.1495225, 0.4244351, -51093.3, 259335.67, 0.0, 10.001735, 9.99842 
2.4301778e+3, 2.783172e+2, 348010.97, -89210.5, 121865.46, -0.01013893, 0.32147288, 379683.75, 592208.75, 0.0, 10.004249, 9.998282 
2.429792e+3, 2.8830835e+2, 164652.66, -115259.79, 27649.576, 0.14718843, 0.36848056, 167357.73, 281969.56, 0.0, 10.002278, 9.998376 
2.4294102e+3, 2.983005e+2, -341626.8, -322975.06, 143668.16, 0.5154184, 0.4552481, -188330.44, -171640.36, 0.000000008678429, 9.998423, 9.998466 
2.4290276e+3, 3.082907e+2, -255359.95, -148307.16, -245494.34, 0.5418412, 0.39087272, 49428.363, 49428.363, 0.0000009202062, 9.998203, 9.999877 
2.4463576e+3, 1.1884796e+2, -1787173.3, -2056141.6, 188609.63, -0.18262951, 0.859895, -1690012.0, 85322.13, 0.4945404, 10.0013, 9.997105 
2.4459659e+3, 1.2883209e+2, -1409459.3, -1584540.8, -208475.95, -0.22427268, 0.14307268, -1270890.3, 406597.0, 0.37753466, 10.00293, 9.999287 
2.4455781e+3, 1.3882592e+2, -1387261.5, -1543456.9, -160304.47, 0.49289373, 0.33571765, -1287042.8, 292496.34, 0.25111946, 10.001728, 9.999192 
2.4451903e+3, 1.4881745e+2, -1495192.4, -1557579.6, 84218.62, 0.2537554, 0.2807237, -1436576.0, 45042.414, 0.13882844, 9.99991, 9.999115 
2.4448022e+3, 1.5880823e+2, -1723186.5, -1664459.8, -8595.048, -0.17317581, 0.2012642, -1663227.6, -279520.8, 0.060861234, 9.997816, 9.998726 
2.4444152e+3, 1.6879989e+2, -1412093.8, -1458399.3, -151829.98, -0.008860117, 0.21305837, -1281661.4, 4129.6016, 0.02025213, 9.999297, 9.998718 
2.4440286e+3, 1.787915e+2, -1094679.3, -1279860.3, -75927.2, 0.30191165, 0.2436355, -1067528.6, 120348.37, 0.0052852775, 10.0008955, 9.998521 
2.4436435e+3, 1.8878283e+2, -1015316.4, -1178412.0, 57039.258, 0.35215846, 0.23575984, -997347.7, 92617.0, 0.0012089658, 10.000711, 9.998628 
2.4432588e+3, 1.9877443e+2, -974002.56, -1042498.56, -353.38608, 0.3402684, 0.26559615, -974000.7, 18048.521, 0.00012403581, 10.000034, 9.999229 
2.442871e+3, 2.0876959e+2, -730909.94, -708186.06, -84264.49, 0.26149812, 0.47173458, -634520.94, 259573.73, 0.000001917801, 10.000351, 10.000669 
2.4424835e+3, 2.1876474e+2, -774603.4, -944132.5, 2605.6216, 0.20868744, 0.70835674, -774563.3, 21576.275, 0.000000018702426, 10.00053, 9.99829 
2.4421027e+3, 2.2875203e+2, -855919.25, -1278201.6, 194541.7, 0.4201353, 0.5374066, -779959.25, -81691.72, 0.0, 10.000795, 9.995187 
2.4417236e+3, 2.3873757e+2, -664683.75, -951119.5, 146532.8, 0.6651872, 0.2899345, -603003.56, -2589.4756, 0.0, 10.000666, 9.996824 
2.441335e+3, 2.4873108e+2, -301780.9, -311862.66, -36779.508, 0.51512134, 0.43715242, -269698.44, 232779.55, 0.0, 10.000748, 10.000464 
2.4409446e+3, 2.5872663e+2, -327994.84, -350610.38, 24056.29, 0.22058266, 0.69591725, -312721.22, 91799.05, 0.0, 10.00023, 9.999778 
2.4405569e+3, 2.6871815e+2, -202762.78, -310205.3, 148546.4, -0.13319503, 0.6464529, -98521.984, 208076.06, 0.0, 10.000744, 9.999113 
2.4401706e+3, 2.7870804e+2, -103610.49, -333934.84, 79720.29, -0.3589754, 0.47535476, -78709.64, 129981.89, 0.0, 10.001262, 9.998053 
2.439789e+3, 2.8869584e+2, -97827.78, -433494.13, -92377.93, 0.36899766, 0.2878861, -74084.195, 36730.984, 0.0, 10.001328, 9.996635 
2.4394074e+3, 2.986844e+2, -211131.48, -271360.06, 59272.03, 1.0602325, 0.1632636, -174762.36, -161829.89, 0.0, 9.999355, 9.998385 
2.4390122e+3, 3.08682e+2, -117607.13, 231197.28, 48518.574, -0.12702455, 0.6286893, 237820.44, 237820.44, 0.00000009975268, 9.997903, 10.002582 
2.4563557e+3, 1.19234286e+2, -1790975.0, -2068565.6, 309586.53, 0.15085414, 0.76690465, -1590494.6, 181043.23, 0.4853974, 10.00163, 9.997089 
2.4559619e+3, 1.2921794e+2, -1467337.6, -1761319.3, -285327.4, -0.15488996, 0.09153722, -1293364.3, 380335.97, 0.36593348, 10.003098, 9.997907 
2.4555667e+3, 1.3921212e+2, -1357306.9, -1593412.9, -185704.23, -0.098852806, 0.44566098, -1255308.5, 320444.72, 0.23856215, 10.002306, 9.998524 
2.4551804e+3, 1.4920264e+2, -1434874.9, -1496632.4, 5007.9136, 0.019066893, 0.30165583, -1434471.4, 43370.266, 0.1275105, 10.000209, 9.999366 
2.4547961e+3, 1.5919256e+2, -1640316.5, -1578885.9, -21576.549, 0.15084195, 0.10672675, -1572064.9, -192127.56, 0.052560914, 9.99818, 9.999126 
2.4544092e+3, 1.6918607e+2, -1350279.0, -1404580.8, -67604.68, 0.17600562, 0.27773055, -1304576.9, -22571.764, 0.01541553, 9.999607, 9.998935 
2.4540217e+3, 1.791797e+2, -989999.56, -1209191.6, -25163.049, 0.20119993, 0.49845132, -987148.0, 196924.7, 0.0031067657, 10.00151, 9.998709 
2.4536374e+3, 1.8917029e+2, -952154.94, -1155143.8, 38042.902, 0.3728155, 0.42084813, -945259.4, 140907.11, 0.00048131414, 10.001163, 9.998576 
2.4532537e+3, 1.9916035e+2, -927660.9, -1040416.7, 8318.017, 0.51486343, 0.30635762, -927050.56, 61213.75, 0.000015932997, 10.000426, 9.999042 
2.452864e+3, 2.0915239e+2, -736105.9, -809648.9, -71828.77, 0.22605537, 0.2715098, -692183.4, 198155.88, 0.0000000054715246, 10.000726, 9.999792 
2.4524744e+3, 2.1914476e+2, -635518.6, -786641.94, -9257.909, -0.072925724, 0.28613314, -634953.56, 157456.88, 0.0, 10.001084, 9.9991045 
2.452095e+3, 2.2913566e+2, -680347.6, -860972.2, 185963.31, 0.29482046, 0.25374222, -563926.56, 130571.484, 0.0, 10.000562, 9.998168 
2.4517171e+3, 2.391257e+2, -705474.8, -841806.56, 206049.22, 0.730667, 0.20613709, -556608.75, 39986.836, 0.0, 9.999804, 9.99799 
2.4513276e+3, 2.491168e+2, -522478.63, -667710.75, 12485.6045, 0.4736856, 0.23977403, -521413.06, -22726.66, 0.0, 10.000288, 9.998255 
2.4509366e+3, 2.5910866e+2, -310355.22, -440031.8, -16352.569, 0.07892666, 0.32743374, -308324.9, 92444.29, 0.0, 10.000729, 9.998938 
2.4505515e+3, 2.6910096e+2, -306111.25, -281118.34, 47431.4, 0.06558348, 0.3237754, -244564.84, 58275.227, 0.0, 9.999632, 9.999873 
2.4501677e+3, 2.79093e+2, -447955.28, -444204.9, 8158.973, 0.15651235, 0.2897067, -437708.4, -232795.19, 0.0, 9.998632, 9.998559 
2.4497803e+3, 2.8908285e+2, -226318.63, -534507.9, -95927.95, 0.18007194, 0.31229725, -198899.27, -91878.85, 0.0, 10.000588, 9.9963 
2.4493936e+3, 2.9907224e+2, 163376.47, -148303.66, -50423.05, 0.27997977, 0.31808653, 171330.83, 180464.08, 0.0, 10.002113, 9.997913 
2.4490078e+3, 3.0906636e+2, -66673.26, 358222.9, -143023.73, 0.39430255, 0.46775606, 401880.25, 401880.25, 0.000000000000427524, 9.997876, 10.003415 
2.4663481e+3, 1.1961306e+2, -2130212.5, -1975180.0, 67993.0, 0.114902295, 0.3502789, -1949585.6, -181766.72, 0.47722235, 9.997366, 9.999458 
2.465955e+3, 1.2960254e+2, -1829670.6, -1820285.8, -345473.72, -0.17162697, 0.055271596, -1479472.6, 190450.53, 0.3557266, 9.999186, 9.999348 
2.4655634e+3, 1.3959834e+2, -1312787.9, -1511282.0, -130803.945, 0.10751221, 0.46264935, -1247841.0, 324121.47, 0.22774403, 10.002374, 9.999026 
2.4651751e+3, 1.4958861e+2, -1281023.9, -1425234.1, -10600.255, 0.12532172, 0.28261605, -1280248.9, 193806.6, 0.11809006, 10.001461, 9.99928 
2.4647883e+3, 1.5957823e+2, -1377231.3, -1437451.1, 909.7904, 0.20392054, 0.06246824, -1377217.5, -1062.4695, 0.04605504, 9.999955, 9.99924 
2.4644023e+3, 1.6957214e+2, -1122899.3, -1258211.6, 50900.563, 0.21038243, 0.24460748, -1105890.0, 172327.69, 0.012013259, 10.001045, 9.999256 
2.4640161e+3, 1.7956634e+2, -908859.06, -1179633.5, 41483.918, 0.1984738, 0.50388813, -902646.1, 277632.56, 0.0018483637, 10.002124, 9.998627 
2.4636309e+3, 1.8955693e+2, -1062369.3, -1248189.8, 12451.104, 0.3486278, 0.45495427, -1061538.6, 20835.217, 0.00018026956, 10.000607, 9.998197 
2.4632458e+3, 1.9954662e+2, -1225769.6, -1263492.5, -12725.303, 0.5023526, 0.3464638, -1221878.4, -237401.84, 0.0000007906511, 9.998761, 9.998312 
2.4628565e+3, 2.095365e+2, -960662.3, -1032940.9, -42068.53, 0.17853296, 0.18418248, -941341.6, -54768.348, 0.0, 9.99971, 9.998741 
2.4624671e+3, 2.1952675e+2, -689113.2, -803047.8, -21918.617, -0.16648065, 0.061354093, -685041.94, 103623.36, 0.0, 10.000688, 9.999192 
2.4620877e+3, 2.2952005e+2, -546554.75, -570420.44, 44847.805, 0.21103728, 0.107964866, -512079.4, 178646.72, 0.0, 10.000536, 10.000159 
2.461709e+3, 2.3951337e+2, -681079.7, -789176.9, -20216.514, 0.6711618, 0.19831976, -677422.5, -84634.89, 0.0, 9.999821, 9.998344 
2.4613196e+3, 2.495026e+2, -626426.75, -899026.3, -68599.89, 0.38956708, 0.12786128, -610136.94, -115238.55, 0.0, 10.000368, 9.996627 
2.4609295e+3, 2.594912e+2, -403460.16, -583829.2, -27832.09, 0.015069069, 0.032143626, -399263.13, -2247.476, 0.0, 10.000525, 9.998058 
2.4605466e+3, 2.6948363e+2, -196852.58, -178117.34, -5063.647, 0.32347172, 0.024009852, -176836.36, 122249.34, 0.0, 10.000184, 10.000312 
2.4601643e+3, 2.7947742e+2, -303362.2, -360156.03, -15172.393, 0.62519217, 0.13309385, -299563.03, -98421.055, 0.0, 9.99956, 9.998712 
2.4597698e+3, 2.8947e+2, -228620.78, -541150.6, 2139.544, -0.20352767, 0.41049385, -228606.14, -125381.03, 0.0, 10.000566, 9.996292 
2.4593796e+3, 2.994593e+2, -167358.08, -499894.44, -66194.42, -0.5873279, 0.48819175, -154665.9, -149326.11, 0.0, 10.000648, 9.996227 
2.4590074e+3, 3.094468e+2, -44090.91, 247854.33, -224316.06, 1.2327193, 0.14697015, 369511.5, 369511.5, 0.0, 9.998542, 10.002339 
2.4763352e+3, 1.1999006e+2, -1741350.3, -1524000.1, -41032.85, -0.24720088, -0.0050584003, -1516511.6, 247606.39, 0.46784535, 9.998164, 10.003592 
2.4759465e+3, 1.2998666e+2, -1551637.4, -1404802.8, -151986.47, -0.198295, 0.080425344, -1309430.3, 356718.75, 0.34520847, 9.999616, 10.002542 
2.4755672e+3, 1.3998415e+2, -1206650.0, -1331361.0, -90548.35, 0.9630355, 0.3825384, -1159063.6, 409108.9, 0.21743059, 10.002527, 10.000516 
2.4751726e+3, 1.4997491e+2, -1266640.8, -1447189.8, -64693.836, 0.46560478, 0.24240176, -1245853.1, 224411.4, 0.109704144, 10.001683, 9.999 
2.4747783e+3, 1.5996489e+2, -1295739.0, -1367900.8, 13622.11, -0.09258653, 0.07534007, -1293253.3, 79110.56, 0.040704507, 10.000404, 9.999499 
2.4743953e+3, 1.699572e+2, -1011806.7, -1135119.3, 120102.375, 0.10338536, 0.05190475, -938459.0, 335977.72, 0.00953522, 10.00149, 9.999902 
2.4740125e+3, 1.7994988e+2, -846383.56, -1151187.5, 48987.355, 0.33424965, 0.11499034, -838703.94, 337803.6, 0.0011160366, 10.002545, 9.998615 
2.4736229e+3, 1.8994178e+2, -1112612.8, -1371386.3, -64847.586, 0.23074852, 0.26971242, -1097271.8, -18676.807, 0.00006263998, 10.0006695, 9.997324 
2.4732333e+3, 1.9993319e+2, -1293033.1, -1377128.5, -17365.393, 0.12605506, 0.4186198, -1289588.4, -308901.03, 0.0000000031066179, 9.998658, 9.997571 
2.4728492e+3, 2.099235e+2, -1036738.0, -1183734.3, 18160.586, 0.22180235, 0.40276778, -1034527.56, -151743.17, 0.0, 9.999661, 9.997748 
2.472465e+3, 2.1991365e+2, -724530.3, -915973.25, 10797.528, 0.28090557, 0.37055165, -723923.2, 60958.77, 0.0, 10.000831, 9.998354 
2.472081e+3, 2.2990529e+2, -617290.4, -734007.9, -19946.982, 0.22740977, 0.36184672, -613975.56, 72987.25, 0.0, 10.000583, 9.999029 
2.4716973e+3, 2.398973e+2, -579439.5, -674458.75, -113631.15, 0.22916476, 0.39260107, -503785.8, 85254.21, 0.0, 10.000207, 9.998953 
2.4713127e+3, 2.498889e+2, -452949.6, -577674.06, -106048.96, 0.3867825, 0.38486147, -392285.7, 98839.7, 0.0, 10.000518, 9.998772 
2.4709275e+3, 2.5987998e+2, -290692.3, -415154.9, -6776.3096, 0.49717242, 0.3509623, -290324.47, 102891.31, 0.0, 10.000803, 9.999072 
2.4705403e+3, 2.6987168e+2, -128256.51, -228230.66, -15304.508, 0.34436992, 0.29839435, -125966.09, 169326.55, 0.0, 10.001008, 9.999577 
2.4701528e+3, 2.7986446e+2, -31678.398, -172315.64, -48450.14, 0.15971658, 0.35829744, -16603.08, 180755.25, 0.0, 10.001163, 9.99923 
2.4697658e+3, 2.8985652e+2, -118117.11, -281484.4, -24947.83, 0.096902534, 0.43338495, -114392.26, -14954.18, 0.0, 10.00039, 9.998185 
2.4693838e+3, 2.998455e+2, -270234.56, -496360.13, 16055.559, 0.5783175, 0.3311595, -269100.25, -267552.2, 0.0, 9.9996805, 9.996734 
2.4689914e+3, 3.098319e+2, 365443.56, 328539.56, -125339.73, 0.3596276, -0.026381738, 473682.22, 473682.22, 0.0, 10.001812, 10.00135 
2.4863257e+3, 1.2037719e+2, -1823863.9, -1601140.6, 146878.64, -0.2962842, -0.014922762, -1528179.9, 232135.19, 0.45571485, 9.998167, 10.002705 
2.4859378e+3, 1.3037233e+2, -1710698.9, -1518046.8, -64522.645, -0.2335103, 0.010778867, -1498433.8, 163928.14, 0.33319858, 9.998472, 10.001899 
2.4855596e+3, 1.4036742e+2, -1818913.9, -1625604.0, -162940.28, 0.94235563, 0.11719663, -1532807.9, 31603.193, 0.20679392, 9.997703, 10.00043 
2.485165e+3, 1.5036091e+2, -1623686.8, -1604434.1, -141792.25, 0.42772147, 0.21999393, -1471941.9, -5460.924, 0.10179194, 9.998938, 9.999248 
2.4847706e+3, 1.6035329e+2, -1364420.9, -1389449.4, -9794.865, -0.16327034, 0.2674411, -1361043.4, 7516.6396, 0.036105353, 9.999863, 9.999614 
2.4843885e+3, 1.70344e+2, -1321529.3, -1272901.9, 76343.805, 0.08587061, 0.062035978, -1217093.6, 53551.59, 0.0076701324, 9.9993, 10.000003 
2.4840066e+3, 1.8033482e+2, -1364052.9, -1416256.0, -35611.215, 0.38298208, -0.06541503, -1346001.8, -173271.81, 0.000687035, 9.999076, 9.998462 
2.4836157e+3, 1.903273e+2, -1014508.9, -1325827.6, -91496.55, 0.1629358, 0.1340778, -989609.5, 85202.34, 0.000019881356, 10.001394, 9.997262 
2.4832249e+3, 2.0031957e+2, -696616.25, -1147756.9, 40888.68, -0.036110684, 0.38860074, -692940.3, 283956.94, 0.0, 10.003022, 9.997039 
2.4828428e+3, 2.103104e+2, -693244.44, -1095196.8, 133050.92, 0.24749787, 0.4886937, -653193.7, 225799.19, 0.0, 10.002391, 9.997016 
2.4824612e+3, 2.2030078e+2, -732610.7, -1012593.9, 119296.29, 0.5168908, 0.56321996, -688674.94, 92416.57, 0.0, 10.001203, 9.997504 
2.4820738e+3, 2.3029082e+2, -833782.4, -932710.1, 114592.05, 0.21333666, 0.48613784, -758434.4, -75243.414, 0.0, 9.999523, 9.998167 
2.4816868e+3, 2.4028152e+2, -853128.94, -764239.94, 82403.78, -0.052861232, 0.45816523, -715059.2, -129775.48, 0.0, 9.99817, 9.999318 
2.4813056e+3, 2.5027564e+2, -392767.16, -348285.53, 65865.6, 0.39114082, 0.5692211, -301007.03, 186337.19, 0.0, 10.000066, 10.000565 
2.4809246e+3, 2.6026934e+2, -184017.17, -339214.4, 66248.5, 0.81935626, 0.6641199, -159584.38, 229823.78, 0.0, 10.001433, 9.9993 
2.4805333e+3, 2.7026019e+2, -194944.42, -381619.63, 23414.156, 0.28189766, 0.6014823, -192052.45, 99442.15, 0.0, 10.001075, 9.998488 
2.4801421e+3, 2.802512e+2, -138785.47, -194628.9, -42550.695, -0.29744866, 0.55897653, -115813.336, 77764.914, 0.0, 10.000304, 9.999495 
2.4797629e+3, 2.9024205e+2, -8547.203, 14970.494, -41353.164, 0.5048467, 0.3501275, 46204.14, 141864.69, 0.0, 10.000124, 10.000334 
2.4793881e+3, 3.0023238e+2, -210555.52, -358980.4, 19508.604, 1.7648531, 0.1935841, -208034.17, -208034.17, 0.0, 9.999628, 9.997711 
2.4789736e+3, 3.1022212e+2, 267547.94, 229804.94, -102989.13, -0.89944, 0.15471037, 353380.28, 353380.28, 0.0, 10.001299, 10.000962 
2.4963196e+3, 1.2076957e+2, -1906508.6, -1881847.1, 254503.63, -0.06555751, 0.15526927, -1639375.6, 117084.23, 0.43991756, 9.999117, 9.999606 
2.4959277e+3, 1.3075839e+2, -1844269.6, -1861851.4, -119713.1, -0.34566426, -0.125663, -1733025.1, -74452.66, 0.31901658, 9.998975, 9.998822 
2.4955425e+3, 1.4074838e+2, -1809043.6, -1705563.5, -129909.11, 0.17118433, -0.28170788, -1617470.1, -56794.652, 0.19536594, 9.998133, 9.999627 
2.4951535e+3, 1.5074646e+2, -1521930.9, -1460110.9, -71633.664, 0.11573604, 0.23598439, -1413002.9, 49703.027, 0.094030365, 9.99921, 10.000129 
2.4947649e+3, 1.6074322e+2, -1315045.0, -1350115.1, 12817.751, 0.022918653, 0.6610389, -1310859.8, 53886.766, 0.032013185, 10.000148, 9.999742 
2.494381e+3, 1.7073248e+2, -1349143.0, -1340613.1, 49037.906, 0.1599302, 0.3519585, -1295655.0, -28809.512, 0.0062260167, 9.999342, 9.999511 
2.4939974e+3, 1.8072145e+2, -1321171.4, -1311517.6, 20824.307, 0.29006273, 0.051634505, -1294968.1, -126021.11, 0.00043419475, 9.998999, 9.999209 
2.4936111e+3, 1.90713e+2, -829070.6, -1068405.6, 40594.953, 0.25676286, 0.037108894, -822372.56, 248657.58, 0.0000058323185, 10.001919, 9.998784 
2.4932241e+3, 2.0070471e+2, -441008.53, -937545.75, 94128.61, 0.19431491, 0.11305109, -423763.47, 549350.3, 0.000000000090419006, 10.004385, 9.997821 
2.4928379e+3, 2.1069615e+2, -563062.25, -1028836.8, 109513.62, 0.16340527, 0.2638878, -538598.2, 336604.44, 0.0, 10.003244, 9.99706 
2.4924521e+3, 2.2068706e+2, -635056.1, -891138.1, 94082.836, 0.18556453, 0.37176105, -604207.0, 173088.75, 0.0, 10.001537, 9.998164 
2.4920666e+3, 2.3067649e+2, -835012.6, -854787.0, 96889.33, 0.3111356, 0.17444748, -747507.3, -68109.73, 0.0, 9.999164, 9.99888 
2.4916814e+3, 2.4066691e+2, -924965.75, -762649.0, 209317.17, 0.36594632, 0.07104013, -619307.1, -37816.12, 0.0, 9.997511, 9.999631 
2.4912974e+3, 2.5066292e+2, -426038.22, -407902.63, 246467.72, 0.28788105, 0.40118137, -170335.95, 313201.78, 0.0, 9.999994, 10.000192 
2.490914e+3, 2.606579e+2, -114883.695, -416143.25, 130030.77, 0.30971244, 0.6877125, -66522.69, 319071.56, 0.0, 10.002338, 9.998341 
2.4905291e+3, 2.706462e+2, -265761.28, -585639.0, 8563.979, 0.4728525, 0.51896036, -265532.16, 22177.828, 0.0, 10.001286, 9.996997 
2.4901421e+3, 2.8063488e+2, -162990.9, -174937.9, -29561.996, 0.4533749, 0.3485721, -138804.92, 51014.574, 0.0, 9.999955, 9.999806 
2.4897537e+3, 2.9062793e+2, 85028.914, 219596.75, -21328.307, 0.32017308, 0.24908987, 222896.27, 314774.53, 0.0, 10.000035, 10.001805 
2.4893712e+3, 3.006212e+2, -86770.23, -281034.47, 34547.047, 0.7983198, 0.26784208, -80809.44, -80809.44, 0.0, 10.000422, 9.997839 
2.4889724e+3, 3.1061023e+2, 1390.731, -73859.89, -178123.92, -0.30410194, 0.27639169, 145819.8, 145819.8, 0.0, 10.000278, 9.999315 
2.5063133e+3, 1.21154696e+2, -1791049.5, -1801050.3, -50143.656, 0.055709124, 0.22862107, -1745657.5, 7038.295, 0.42027465, 9.999663, 9.999585 
2.5059202e+3, 1.3114482e+2, -1727159.9, -1716658.5, -250356.17, -0.2809978, -0.037571236, -1471498.0, 183292.98, 0.30251706, 9.999614, 9.999781 
2.5055292e+3, 1.4113614e+2, -1619359.4, -1567951.1, -57698.8, -0.25491962, -0.13610767, -1530490.0, 26386.719, 0.18302314, 9.9992285, 10.0000725 
2.505144e+3, 1.511331e+2, -1436921.0, -1390228.0, 11095.014, -0.056501888, 0.23053512, -1387725.8, 71188.54, 0.08629053, 9.999646, 10.00042 
2.504759e+3, 1.6112934e+2, -1368181.1, -1410956.4, 43253.52, 0.16510922, 0.59313494, -1341316.4, 19641.8, 0.028287582, 9.999925, 9.999433 
2.5043744e+3, 1.7111903e+2, -1290605.5, -1387044.3, 46316.625, 0.25811198, 0.37759975, -1271964.4, -8907.209, 0.0050760456, 10.000081, 9.998831 
2.5039896e+3, 1.8110824e+2, -1199139.3, -1265275.4, 46357.836, 0.31744683, 0.15268505, -1175264.0, -10104.155, 0.00028139996, 9.999909, 9.999095 
2.5036055e+3, 1.9109935e+2, -1080370.8, -1132416.3, 35010.87, 0.32557985, 0.046836484, -1062770.8, 4474.054, 0.0000014559199, 9.999977, 9.999282 
2.5032207e+3, 2.0109066e+2, -1008917.6, -1168612.0, -26682.744, 0.3085519, 0.028126087, -1004577.25, -35248.574, 0.0, 10.000318, 9.998205 
2.5028324e+3, 2.110825e+2, -842521.6, -1110184.4, -6179.863, 0.10724016, 0.14937685, -842379.06, 29032.578, 0.0, 10.001111, 9.997534 
2.5024444e+3, 2.2107372e+2, -644956.25, -881712.9, -21962.979, -0.00076997274, 0.24658018, -642936.06, 130563.59, 0.0, 10.001439, 9.9982815 
2.50206e+3, 2.3106265e+2, -503798.13, -681471.9, -79793.3, 0.36164767, -0.027016828, -473224.1, 202379.77, 0.0, 10.001395, 9.998989 
2.5016752e+3, 2.4105284e+2, -490714.1, -597015.94, 58272.508, 0.6000936, -0.17121895, -464993.56, 112704.62, 0.0, 10.000688, 9.9992485 
2.5012887e+3, 2.5104964e+2, -461970.3, -500277.94, 151788.98, 0.12366985, 0.27949384, -328131.44, 151608.56, 0.0, 10.000102, 9.999499 
2.500904e+3, 2.6104507e+2, -530852.3, -702837.56, -18513.398, -0.15821727, 0.66909295, -528882.0, -147086.84, 0.0, 9.99988, 9.997556 
2.5005242e+3, 2.7103156e+2, -473854.97, -764357.9, -59769.727, 0.6335973, 0.3726253, -462038.28, -178107.77, 0.0, 10.000206, 9.996293 
2.5001416e+3, 2.8101897e+2, -132894.34, -132991.2, -3332.5198, 1.1214794, 0.11990514, -129609.9, 56444.4, 0.0, 10.000053, 10.000057 
2.4997431e+3, 2.9101494e+2, 168773.7, 355221.7, -926.5701, 0.009595142, 0.2278645, 355226.28, 443311.6, 0.0, 10.000216, 10.002648 
2.4993514e+3, 3.0100995e+2, -86161.5, -322002.66, 1483.603, -0.5095273, 0.36888948, -86152.17, -86152.17, 0.0, 10.000607, 9.997475 
2.4989763e+3, 3.109971e+2, 50736.203, -343599.16, -80140.586, 0.71948594, 0.2914394, 66400.87, 66400.87, 0.0, 10.001868, 9.996707 
2.5163072e+3, 1.2153453e+2, -1642060.9, -1543634.3, -13719.756, 0.19628412, 0.18291467, -1541757.6, 207237.17, 0.3973432, 9.9999075, 10.002137 
2.515914e+3, 1.3153139e+2, -1440650.5, -1235472.4, -200822.48, -0.103785984, 0.22993559, -1112552.6, 538462.8, 0.28406283, 9.999962, 10.003765 
2.5155196e+3, 1.4152855e+2, -1457667.6, -1349282.8, -33363.25, -0.4402015, 0.4021136, -1339836.1, 213198.25, 0.16993596, 9.999726, 10.001586 
2.5151357e+3, 1.5151948e+2, -1390853.4, -1362291.4, 37487.453, -0.12220909, 0.14306448, -1336456.9, 118661.47, 0.078587286, 9.999965, 10.000463 
2.5147524e+3, 1.6151057e+2, -1343261.5, -1441583.4, 70178.59, 0.22340496, 0.0054854555, -1306738.0, 50466.125, 0.024857625, 10.000266, 9.99906 
2.514369e+3, 1.7150278e+2, -1282219.4, -1456573.1, 63182.035, 0.41886, 0.114982404, -1261731.1, -2443.8625, 0.0041356636, 10.000431, 9.998199 
2.5139847e+3, 1.8149458e+2, -1182818.8, -1340926.9, 48556.152, 0.5004947, 0.22296056, -1169097.6, -7723.793, 0.00018434241, 10.000366, 9.998353 
2.5135982e+3, 1.9148614e+2, -1160598.6, -1277737.9, 16776.297, 0.32835844, 0.25815484, -1158243.4, -94782.336, 0.00000026313862, 9.99987, 9.998339 
2.513212e+3, 2.0147762e+2, -1043140.5, -1098435.8, -15920.866, 0.19435902, 0.29670787, -1038884.1, -73336.98, 0.0, 9.999706, 9.998974 
2.512827e+3, 2.1146958e+2, -780775.5, -906647.56, 25520.125, 0.2203269, 0.29821336, -775798.2, 91826.87, 0.0, 10.000778, 9.999099 
2.512441e+3, 2.2146085e+2, -609398.6, -902478.3, -1347.4889, 0.22562174, 0.3078742, -609392.44, 160317.5, 0.0, 10.001813, 9.997966 
2.512053e+3, 2.3144987e+2, -451100.34, -839641.25, -102637.63, 0.20495804, 0.18646191, -425653.94, 246163.61, 0.0, 10.002524, 9.997366 
2.5116658e+3, 2.4143963e+2, -294217.13, -628793.6, -50330.566, 0.18652326, 0.13830599, -286809.84, 287109.9, 0.0, 10.002568, 9.998118 
2.511281e+3, 2.514331e+2, -519608.1, -650914.1, -29206.57, 0.07083661, 0.36081988, -513404.7, -37412.305, 0.0, 10.000215, 9.99842 
2.5108972e+3, 2.6142648e+2, -607607.6, -522555.38, -124547.42, 0.035806593, 0.5520094, -433474.03, -55410.824, 0.0, 9.9984, 9.999514 
2.5105143e+3, 2.7141714e+2, -333046.63, -299600.84, -43902.06, 0.4477954, 0.346614, -269344.53, 10803.981, 0.0, 9.999446, 9.999867 
2.5101304e+3, 2.8140807e+2, -20871.959, -23080.201, 67529.67, 0.7072886, 0.1871397, 45562.62, 227795.77, 0.0, 10.000569, 10.000566 
2.509738e+3, 2.9140294e+2, 102566.875, 124826.1, -8148.3564, 0.1581312, 0.3137891, 127490.11, 211776.63, 0.0, 10.000581, 10.0008955 
2.509349e+3, 3.0139756e+2, 54139.652, -171318.33, 29291.746, -0.08324002, 0.5144213, 57883.113, 57883.113, 0.0, 10.001186, 9.9982395 
2.5089726e+3, 3.1138796e+2, 665767.6, 148432.3, 111420.73, 0.71093535, 0.5737823, 688744.3, 688744.3, 0.0, 10.005225, 9.998491 
2.5262985e+3, 1.2192173e+2, -1771322.9, -1704522.0, 178308.52, 0.021499358, 0.3364817, -1556512.6, 188688.4, 0.3720946, 9.999531, 10.000707 
2.5259075e+3, 1.319172e+2, -1346483.0, -1251966.1, -186486.48, -0.04931576, 0.32875115, -1106843.3, 540396.44, 0.26429734, 10.001181, 10.002887 
2.525514e+3, 1.4191309e+2, -1223311.1, -1272202.8, -211642.19, -0.32576206, 0.4249794, -1034707.6, 514563.13, 0.15642525, 10.001852, 10.001138 
2.5251293e+3, 1.5190297e+2, -1237335.4, -1312645.6, -206720.5, -0.07848627, 0.057767194, -1064868.4, 386490.75, 0.071005836, 10.001262, 10.000191 
2.5247458e+3, 1.6189311e+2, -1321347.6, -1472094.9, -175701.19, 0.24583974, -0.16689104, -1205535.3, 147915.06, 0.021693112, 10.000634, 9.998673 
2.5243628e+3, 1.7188652e+2, -1293275.1, -1488256.0, -142005.45, 0.47712538, 0.060293067, -1218516.0, 37009.855, 0.00335279, 10.000508, 9.997935 
2.5239787e+3, 1.8187962e+2, -1183980.1, -1376752.5, -98577.195, 0.5868708, 0.30679232, -1142497.6, 15106.263, 0.00011963712, 10.000533, 9.998021 
2.5235912e+3, 1.9187121e+2, -946063.0, -1217178.0, -58708.49, 0.32061124, 0.361171, -933896.0, 125796.69, 0.00000002568285, 10.001536, 9.997946 
2.5232047e+3, 2.01863e+2, -695555.9, -892123.94, -55218.727, 0.13806525, 0.43291423, -681106.4, 280671.5, 0.0, 10.001928, 9.999318 
2.522821e+3, 2.1185581e+2, -660265.75, -756298.94, -52637.69, 0.2663827, 0.42764702, -637034.06, 226813.08, 0.0, 10.001211, 9.999918 
2.522436e+3, 2.2184764e+2, -811490.4, -1056675.3, -110087.305, 0.3255842, 0.4422741, -769315.94, -3389.2913, 0.0, 10.000678, 9.9974575 
2.522046e+3, 2.318368e+2, -755545.06, -1100651.9, -113582.42, 0.04270848, 0.40435714, -721517.6, -53481.906, 0.0, 10.000928, 9.996346 
2.5216573e+3, 2.4182607e+2, -579605.0, -870551.56, -40602.375, -0.14461799, 0.40993184, -574045.06, -3900.6514, 0.0, 10.001077, 9.997178 
2.5212738e+3, 2.5181663e+2, -478901.72, -730306.5, -6813.324, 0.036023326, 0.4223088, -478717.22, -6474.591, 0.0, 10.000926, 9.997532 
2.5208902e+3, 2.6180828e+2, -222699.9, -148948.9, -55484.76, 0.19799384, 0.45190445, -119203.38, 255122.27, 0.0, 10.000237, 10.001197 
2.5205043e+3, 2.7180287e+2, -116322.88, 151692.19, -54409.07, 0.18909396, 0.3498516, 162316.48, 438681.4, 0.0, 9.999459, 10.002948 
2.520118e+3, 2.817969e+2, -249867.89, -159189.53, -57194.49, 0.19536175, 0.28770375, -131543.44, 46872.42, 0.0, 9.999119, 10.000328 
2.5197324e+3, 2.9179004e+2, -204921.83, -235831.64, -86031.05, 0.3288204, 0.38543192, -132968.53, -52471.125, 0.0, 9.999398, 9.998986 
2.5193498e+3, 3.017846e+2, -38164.016, -120530.34, 83057.49, 0.57834375, 0.6780677, 13359.886, 13359.886, 0.0, 10.000148, 9.999095 
2.5189623e+3, 3.11776e+2, 549743.7, 360847.66, 254002.08, -0.1318349, 0.5975932, 726289.2, 726289.2, 0.0, 10.003342, 10.000833 
2.536287e+3, 1.2231354e+2, -1940606.4, -2179015.3, 214361.1, -0.43222493, 0.6529947, -1814534.8, -73183.125, 0.34545884, 9.99989, 9.99684 
2.5359014e+3, 1.3230124e+2, -1543461.5, -1701202.1, -160181.83, -0.042747337, 0.2715275, -1443785.6, 199690.53, 0.24384478, 10.001321, 9.998888 
2.535512e+3, 1.4229083e+2, -1290360.4, -1436386.1, -197281.39, -0.0133239, 0.051575206, -1153014.5, 392561.03, 0.14280652, 10.001958, 9.999742 
2.5351244e+3, 1.522839e+2, -1213566.4, -1322939.0, -215680.53, 0.043030307, 0.054770853, -1045747.2, 401887.03, 0.06363834, 10.001533, 9.999971 
2.5347388e+3, 1.6227672e+2, -1257477.1, -1427700.0, -173651.42, 0.16660473, 0.1147302, -1149201.0, 200499.52, 0.0187796, 10.00101, 9.998794 
2.5343552e+3, 1.7226948e+2, -1229825.0, -1419494.4, -148547.03, 0.39017725, 0.25667682, -1148421.6, 103360.19, 0.0026956536, 10.00076, 9.998289 
2.533971e+3, 1.8226177e+2, -1071431.4, -1226172.0, -71892.375, 0.5057995, 0.3673208, -1043186.0, 110680.18, 0.00007576087, 10.000893, 9.998867 
2.5335863e+3, 1.9225267e+2, -800181.2, -1046872.25, -18212.854, 0.33728945, 0.27030724, -798843.8, 257113.55, 0.00000000011876218, 10.002098, 9.99884 
2.5332004e+3, 2.022446e+2, -575321.4, -823560.44, -74238.42, 0.18666527, 0.2963991, -554813.8, 403225.88, 0.0, 10.00269, 9.999416 
2.5328138e+3, 2.1223965e+2, -637153.56, -788937.3, -119476.25, 0.16544896, 0.55389744, -571503.44, 288590.84, 0.0, 10.001536, 9.999536 
2.5324273e+3, 2.22233e+2, -756750.1, -925346.3, -154531.28, 0.13494839, 0.7121764, -665019.56, 97143.81, 0.0, 10.000582, 9.998403 
2.532039e+3, 2.3222204e+2, -722318.75, -926063.94, -119933.125, 0.046987813, 0.53543925, -666831.94, -2561.584, 0.0, 10.000442, 9.99779 
2.531652e+3, 2.4221146e+2, -571050.56, -751381.0, 19068.307, -0.017863652, 0.42845225, -569056.3, -2682.9617, 0.0, 10.000602, 9.998235 
2.531268e+3, 2.5220287e+2, -331286.94, -580954.56, 86495.42, 0.043692637, 0.45989248, -304249.28, 164207.42, 0.0, 10.001576, 9.998256 
2.5308833e+3, 2.6219434e+2, -64453.04, -172697.11, -29611.705, 0.09800105, 0.4610379, -56881.902, 313655.9, 0.0, 10.001749, 10.000303 
2.5304952e+3, 2.721863e+2, -230520.72, -116183.58, -160781.42, 0.113775745, 0.27531216, -2709.5, 269899.16, 0.0, 9.999556, 10.001074 
2.5301084e+3, 2.821792e+2, -441738.25, -269454.44, -178302.13, 0.14464326, 0.22241376, -157575.94, 17098.797, 0.0, 9.997891, 10.000145 
2.529723e+3, 2.9217437e+2, -342617.2, -251257.06, -152960.95, 0.2655479, 0.48673674, -137300.9, -60567.832, 0.0, 9.998245, 9.999431 
2.529341e+3, 3.0216834e+2, -209597.45, -225186.67, 103900.61, 0.5151191, 0.69537795, -113199.49, -113199.49, 0.0, 9.999078, 9.998885 
2.5289583e+3, 3.1215727e+2, 148107.23, 135419.22, 177115.31, 0.008609106, 0.42279345, 318992.13, 318992.13, 0.0, 10.00068, 10.000597 
2.5462812e+3, 1.2269448e+2, -2095051.6, -2203168.8, -92467.836, -0.19946484, 0.35193363, -2041999.8, -304386.9, 0.3181562, 9.998688, 9.997245 
2.5458944e+3, 1.3268529e+2, -1686264.0, -1795981.8, -180669.64, -0.047671065, 0.24648228, -1552308.1, 87402.69, 0.22319707, 10.000241, 9.998698 
2.5455067e+3, 1.426752e+2, -1420497.0, -1575587.0, -82796.49, 0.039640423, 0.11073696, -1384602.8, 157208.72, 0.12934339, 10.001249, 9.9990225 
2.5451192e+3, 1.5266763e+2, -1284344.5, -1454318.4, -130125.05, 0.09951189, 0.14172603, -1213911.6, 229968.3, 0.05657354, 10.001429, 9.999096 
2.5447324e+3, 1.6266018e+2, -1246808.4, -1436745.8, -106074.336, 0.17256789, 0.24523683, -1199401.4, 146549.53, 0.016116831, 10.001163, 9.998647 
2.544347e+3, 1.7265256e+2, -1212833.1, -1406832.5, -100157.59, 0.25010115, 0.33525383, -1170403.8, 77630.56, 0.0021455006, 10.00087, 9.998317 
2.5439626e+3, 1.8264453e+2, -1116522.4, -1178389.3, -10937.083, 0.30768177, 0.39512223, -1114645.8, 35473.21, 0.000046550977, 10.000298, 9.999489 
2.543579e+3, 1.926357e+2, -1118971.4, -1104577.1, 49417.65, 0.24389517, 0.23936665, -1061835.3, -9630.978, 0.0, 9.999515, 9.999691 
2.543194e+3, 2.0262791e+2, -1078663.4, -1084292.6, -34560.246, 0.15803331, 0.25203457, -1046803.3, -92520.35, 0.0, 9.999336, 9.999243 
2.5428063e+3, 2.1262327e+2, -867401.0, -960167.1, -87114.234, 0.018876282, 0.5852811, -815091.25, 41248.19, 0.0, 10.000247, 9.998976 
2.5424188e+3, 2.2261716e+2, -667191.7, -795685.94, -119711.82, -0.04442703, 0.81196094, -595576.3, 162830.34, 0.0, 10.000858, 9.999159 
2.5420326e+3, 2.3260704e+2, -531582.6, -686071.06, -88780.445, 0.045489248, 0.59070075, -491146.63, 169356.63, 0.0, 10.001153, 9.999088 
2.5416464e+3, 2.4259733e+2, -427638.0, -588035.5, 45392.74, 0.105716616, 0.4602479, -415682.88, 146911.56, 0.0, 10.001196, 9.999071 
2.5412622e+3, 2.5258946e+2, -380150.38, -514837.97, 120836.836, 0.048486844, 0.4760643, -309158.6, 155506.28, 0.0, 10.000872, 9.999042 
2.5408766e+3, 2.6258063e+2, -335172.3, -465363.75, -68575.75, 0.0038114241, 0.4497035, -305716.0, 61030.715, 0.0, 10.000588, 9.99886 
2.5404873e+3, 2.7256978e+2, -301384.66, -408161.75, -173832.88, 0.06597751, 0.1932486, -172926.55, 95925.99, 0.0, 10.000192, 9.998763 
2.5400993e+3, 2.8256157e+2, -197243.27, -196687.06, -127687.86, 0.14210963, 0.20129758, -69277.01, 101656.74, 0.0, 9.999772, 9.999746 
2.539713e+3, 2.9255888e+2, -9692.986, -40772.51, -112329.766, 0.14195043, 0.63977575, 88166.81, 161132.86, 0.0, 10.000327, 9.999874 
2.5393313e+3, 3.0255023e+2, -52699.883, -247870.22, 146309.89, 0.29802513, 0.601994, 25582.652, 25582.652, 0.0, 10.00057, 9.998021 
2.538955e+3, 3.1253535e+2, 122828.81, 157965.84, 222586.67, 0.29570594, 0.041297436, 363676.25, 363676.25, 0.0, 10.0003395, 10.000928 
2.5562772e+3, 1.230694e+2, -1866072.1, -1774256.1, -92444.055, 0.22031382, -0.27246055, -1716948.5, 16986.252, 0.29081702, 9.998866, 10.000133 
2.555887e+3, 1.3306981e+2, -1468248.5, -1411768.8, -83724.78, -0.115547806, 0.31611264, -1351649.5, 284289.88, 0.20276809, 10.000551, 10.001517 
2.5554985e+3, 1.4306468e+2, -1390535.4, -1593286.6, -65257.445, -0.17968605, 0.52002585, -1371347.5, 166646.78, 0.11625642, 10.001607, 9.998708 
2.5551134e+3, 1.5305327e+2, -1327196.3, -1600552.5, -113534.484, 0.10933813, 0.27936015, -1286192.1, 153913.3, 0.04988728, 10.001651, 9.997964 
2.5547272e+3, 1.63043e+2, -1217917.3, -1458215.6, -91159.695, 0.23197027, 0.18703625, -1187249.0, 154957.4, 0.013707004, 10.001492, 9.998351 
2.554339e+3, 1.7303519e+2, -1166587.8, -1389751.4, -87724.62, 0.035208285, 0.2805688, -1136232.5, 108054.82, 0.0016894786, 10.001184, 9.998293 
2.553952e+3, 1.8302779e+2, -1010715.5, -1019534.75, -21454.816, -0.07028242, 0.36543995, -993221.8, 153140.19, 0.000027889511, 10.000558, 10.000447 
2.5535685e+3, 1.9302122e+2, -1065448.9, -958590.75, 32721.377, -0.0050508115, 0.34335852, -949367.2, 99056.02, 0.0, 9.999362, 10.000768 
2.553184e+3, 2.0301394e+2, -1139672.6, -1121486.5, 20673.404, -0.010757984, 0.35060072, -1107994.8, -157499.03, 0.0, 9.99894, 9.999179 
2.5527975e+3, 2.1300578e+2, -900715.94, -1019409.8, -7823.0083, -0.14273366, 0.37814328, -900202.56, -47617.008, 0.0, 10.000177, 9.998612 
2.5524113e+3, 2.2299834e+2, -560423.44, -663094.2, -57356.938, -0.16513425, 0.4672376, -534783.9, 219881.06, 0.0, 10.001236, 9.9998865 
2.5520265e+3, 2.329921e+2, -378948.16, -515181.63, -42318.137, 0.04282147, 0.5610909, -366873.16, 289851.53, 0.0, 10.0017805, 9.999961 
2.5516415e+3, 2.429845e+2, -278992.63, -419790.1, 49865.71, 0.18011564, 0.55888134, -263121.03, 295674.34, 0.0, 10.001794, 9.999932 
2.5512567e+3, 2.5297487e+2, -372764.94, -432376.2, 92857.82, 0.16694966, 0.3333446, -305046.47, 155835.47, 0.0, 10.000568, 9.999755 
2.5508705e+3, 2.629657e+2, -436737.06, -562192.06, -40375.113, 0.15696931, 0.25108868, -424866.38, -61898.453, 0.0, 10.0000725, 9.998447 
2.550482e+3, 2.7295762e+2, -234421.11, -468855.06, -103673.87, 0.2011228, 0.35955063, -195151.38, 69901.05, 0.0, 10.001032, 9.997949 
2.550094e+3, 2.8294954e+2, 50217.12, -211963.75, -21052.275, 0.20856825, 0.47930518, 51896.79, 219032.58, 0.0, 10.002024, 9.998562 
2.5497076e+3, 2.929415e+2, 265364.2, -63243.84, -57638.81, 0.12966415, 0.5329846, 275180.94, 344397.25, 0.0, 10.002854, 9.998517 
2.5493273e+3, 3.02931e+2, 280267.6, -78132.31, 119879.81, 0.41515395, 0.3908006, 316668.66, 316668.66, 0.0, 10.002827, 9.998091 
2.548948e+3, 3.1291997e+2, -1846.719, -27567.36, 162104.75, 0.2999222, 0.1965619, 147907.05, 147907.05, 0.0, 10.000034, 9.999787 
2.566269e+3, 1.2345389e+2, -1979941.5, -1699361.6, 15637.464, 0.29899922, -0.16575854, -1698492.9, 31678.291, 0.26402995, 9.997517, 10.001346 
2.5658798e+3, 1.3345394e+2, -1597204.3, -1469915.4, -80623.75, -0.09312623, 0.3726689, -1430842.8, 201335.52, 0.18292515, 9.999467, 10.0015 
2.5654912e+3, 1.4344925e+2, -1480334.9, -1615665.6, -176795.63, -0.29230994, 0.6010315, -1358698.1, 175530.98, 0.1037245, 10.000833, 9.998947 
2.5651073e+3, 1.5343843e+2, -1350459.9, -1597680.6, -143216.33, 0.11384525, 0.36849955, -1284886.6, 151449.83, 0.043632858, 10.001418, 9.998086 
2.564722e+3, 1.6342826e+2, -1165957.4, -1350800.4, -35108.82, 0.2973538, 0.2514542, -1159513.5, 178921.97, 0.011545959, 10.001536, 9.999043 
2.5643322e+3, 1.7342019e+2, -1149477.9, -1305679.8, 30102.133, 0.00059866323, 0.24426408, -1143877.6, 96633.81, 0.0013158798, 10.001017, 9.998933 
2.5639445e+3, 1.834126e+2, -1008722.7, -1060657.4, 84254.62, -0.16269271, 0.30233353, -946524.6, 196060.2, 0.000016496271, 10.000776, 10.000051 
2.5635606e+3, 1.9340621e+2, -911616.9, -956872.94, -4493.6016, -0.065716125, 0.34960598, -911175.0, 133473.3, 0.0, 10.000741, 10.000114 
2.563176e+3, 2.0339885e+2, -922098.75, -1012497.5, -44917.63, -0.05520418, 0.38316685, -903575.44, 43147.492, 0.0, 10.000425, 9.999214 
2.5627893e+3, 2.1338941e+2, -952964.44, -1025754.7, 776.52893, -0.22507262, 0.25231555, -952956.2, -104133.8, 0.0, 9.999753, 9.998775 
2.562404e+3, 2.233816e+2, -820956.2, -745903.6, -42120.81, -0.19984819, 0.28072515, -727017.3, 23885.777, 0.0, 9.999276, 10.0002575 
2.5620204e+3, 2.3337726e+2, -797602.7, -669331.1, -48626.855, 0.108363, 0.5118582, -652981.06, -36.888264, 0.0, 9.998712, 10.000376 
2.561636e+3, 2.4337062e+2, -699088.6, -602582.25, -13926.6, 0.27219218, 0.57098824, -600612.75, -45606.586, 0.0, 9.998843, 10.000094 
2.56125e+3, 2.5335976e+2, -469046.3, -459567.2, -20336.807, 0.18939346, 0.18994732, -443424.97, 13680.954, 0.0, 9.999836, 9.99992 
2.560864e+3, 2.6335096e+2, -397638.6, -582554.75, -127337.21, 0.21947856, 0.13537607, -332733.22, 26457.123, 0.0, 10.000526, 9.998086 
2.5604767e+3, 2.733458e+2, -239976.97, -517781.66, -118204.65, 0.33524796, 0.5617768, -196489.06, 64759.39, 0.0, 10.001204, 9.997532 
2.5600892e+3, 2.8333703e+2, -72759.2, -413239.0, -4848.8228, 0.27437875, 0.69137406, -72690.164, 90649.414, 0.0, 10.001799, 9.997288 
2.5597024e+3, 2.9332286e+2, 101080.766, -312052.28, 7870.0884, 0.048662625, 0.2657451, 101230.63, 166708.58, 0.0, 10.002465, 9.996986 
2.5593248e+3, 3.0331331e+2, 212093.9, -110045.88, 94907.7, 0.5745954, 0.31344584, 237975.83, 237975.83, 0.0, 10.002358, 9.998101 
2.5589427e+3, 3.133083e+2, 36413.496, 116977.92, 133965.58, 0.4558532, 0.67474157, 216586.5, 216586.5, 0.0, 9.999792, 10.000889 
2.5762612e+3, 1.2384315e+2, -1883881.9, -1693432.0, 84689.14, 0.44349924, 0.32484305, -1661220.6, 65145.227, 0.23823424, 9.998285, 10.001064 
2.5758728e+3, 1.3383652e+2, -1652132.9, -1638767.1, 6437.8657, -0.019697003, 0.35535073, -1636170.6, -7734.036, 0.16394804, 9.999768, 9.999934 
2.5754845e+3, 1.438295e+2, -1373675.5, -1432345.0, -117569.37, -0.35840133, 0.39282984, -1281836.5, 248672.88, 0.09188185, 10.000983, 10.000163 
2.5751016e+3, 1.5382317e+2, -1190064.1, -1322509.9, -94306.28, 0.1085094, 0.45356634, -1141051.9, 291520.53, 0.03784501, 10.001661, 9.999891 
2.5747168e+3, 1.6381589e+2, -989697.06, -1042575.6, -24346.03, 0.36326066, 0.43691814, -980195.2, 354443.06, 0.009625426, 10.001798, 10.001041 
2.5743285e+3, 1.7380776e+2, -968755.2, -997677.8, 42580.676, 0.22924647, 0.24330193, -938247.1, 298455.78, 0.0010124295, 10.001303, 10.000903 
2.5739413e+3, 1.8379895e+2, -1128295.9, -1379700.1, 116626.34, 0.1498273, 0.17596294, -1082525.8, 56260.23, 0.000009793076, 10.001077, 9.997712 
2.5735572e+3, 1.9378933e+2, -1043739.0, -1353929.6, 15244.088, 0.21400328, 0.21340856, -1042991.6, -2098.212, 0.0, 10.001246, 9.997149 
2.5731716e+3, 2.0378135e+2, -773125.4, -831903.8, -72716.95, 0.16511746, 0.30631375, -724083.2, 218896.86, 0.0, 10.000942, 10.0002165 
2.5727835e+3, 2.1377565e+2, -816291.5, -789912.25, -20769.271, -0.05952273, 0.4076914, -778498.44, 66539.33, 0.0, 9.999917, 10.00033 
2.5723973e+3, 2.2376879e+2, -880805.1, -764016.8, -64168.02, -0.03195036, 0.436723, -735650.3, 11454.515, 0.0, 9.998814, 10.000341 
2.5720137e+3, 2.3376067e+2, -972396.0, -786301.0, -87033.79, 0.3982086, 0.324846, -751940.8, -102760.66, 0.0, 9.997631, 10.0000925 
2.5716284e+3, 2.4375258e+2, -930995.2, -824423.1, 36500.98, 0.4493449, 0.2978786, -813120.25, -261861.75, 0.0, 9.997713, 9.999117 
2.57124e+3, 2.5374436e+2, -549428.2, -630896.5, 3988.4827, -0.057564672, 0.30158415, -549233.4, -95890.984, 0.0, 9.999822, 9.998764 
2.570854e+3, 2.6373634e+2, -231003.92, -394241.8, -163393.45, -0.124484316, 0.34852886, -129978.2, 225442.72, 0.0, 10.001211, 9.999044 
2.5704718e+3, 2.7372885e+2, -126327.84, -325044.44, -134844.34, 0.42129472, 0.42448524, -58189.668, 199300.84, 0.0, 10.00139, 9.998769 
2.5700858e+3, 2.837193e+2, -51166.285, -363786.2, 34317.043, 0.50694543, 0.3894627, -47443.55, 112140.19, 0.0, 10.001766, 9.997637 
2.569697e+3, 2.9370725e+2, 86691.305, -313487.97, 74094.195, 0.028339487, 0.16997556, 99969.46, 161674.25, 0.0, 10.002324, 9.997046 
2.5693175e+3, 3.036993e+2, 112287.695, -152932.17, 110408.555, 0.39824533, 0.3733332, 152233.39, 152233.39, 0.0, 10.001622, 9.998173 
2.5689328e+3, 3.1368965e+2, 99944.41, 354281.66, -4508.178, 0.26844782, 0.2854151, 354361.56, 354361.56, 0.0, 9.999292, 10.002779 
2.5862515e+3, 1.2423061e+2, -1718151.1, -1742411.8, 183549.83, 0.23748378, 0.3636753, -1546331.3, 176232.4, 0.21372877, 10.0001545, 9.999863 
2.585866e+3, 1.3422203e+2, -1712264.1, -1784155.9, 186409.19, 0.00116151, 0.28683335, -1558366.6, 66286.48, 0.1460315, 9.999865, 9.998942 
2.5854784e+3, 1.4421377e+2, -1586060.4, -1570351.9, 44102.977, -0.21736425, 0.2898139, -1533409.3, -6670.37, 0.0808275, 9.999616, 9.999798 
2.585095e+3, 1.5420757e+2, -1468785.8, -1485143.5, -51267.85, 0.10153442, 0.39046803, -1425048.5, 3754.402, 0.032553293, 9.999836, 9.999616 
2.5847098e+3, 1.6420083e+2, -1153760.0, -1097032.8, -106225.164, 0.3040019, 0.42471898, -1015449.6, 315414.5, 0.007938516, 10.000571, 10.001238 
2.584323e+3, 1.7419323e+2, -909557.3, -946663.56, -162643.84, 0.28322718, 0.23633808, -764411.8, 468510.34, 0.00076767127, 10.001632, 10.00109 
2.5839365e+3, 1.841843e+2, -1081199.0, -1473505.8, -92038.1, 0.26453552, 0.17314972, -1060679.5, 74327.73, 0.000005913737, 10.001919, 9.996659 
2.5835514e+3, 1.9417347e+2, -1176259.8, -1551267.5, -23083.305, 0.25599536, 0.17618294, -1174844.3, -137713.78, 0.0, 10.000948, 9.995929 
2.5831652e+3, 2.0416549e+2, -869544.44, -817420.3, -68287.43, 0.21336447, 0.3123752, -770390.6, 168828.73, 0.0, 10.000052, 10.000731 
2.5827768e+3, 2.1416172e+2, -901693.56, -755895.06, -92729.94, 0.060109984, 0.5307281, -710840.3, 130416.28, 0.0, 9.99904, 10.000974 
2.5823903e+3, 2.241552e+2, -872681.9, -760503.6, -147318.22, 0.12856384, 0.55359834, -658958.2, 84359.086, 0.0, 9.99889, 10.000334 
2.5820062e+3, 2.3414476e+2, -690654.56, -659061.4, -123254.62, 0.5394459, 0.20438227, -550595.25, 94816.586, 0.0, 9.999629, 10.000003 
2.5816202e+3, 2.4413595e+2, -692305.9, -818447.94, 99627.8, 0.5032887, 0.15491682, -637463.1, -89964.23, 0.0, 9.999832, 9.998137 
2.581231e+3, 2.5412965e+2, -683976.4, -815159.94, 113626.92, -0.2153361, 0.45049194, -618368.44, -168796.22, 0.0, 9.999436, 9.997684 
2.5808457e+3, 2.6412162e+2, -388785.88, -373626.72, -102973.6, -0.32507694, 0.52667457, -277954.1, 73697.27, 0.0, 9.999722, 9.999901 
2.5804657e+3, 2.7411133e+2, -182105.9, -229045.55, -99533.195, 0.4370736, 0.20553182, -103312.89, 150424.86, 0.0, 10.000492, 9.999852 
2.5800818e+3, 2.841018e+2, -118202.914, -357321.22, 52955.36, 0.65310603, 0.09962185, -107000.22, 48825.355, 0.0, 10.00114, 9.997989 
2.5796926e+3, 2.940935e+2, -12638.306, -322458.28, 94439.53, 0.06853884, 0.20900477, 13879.182, 71793.26, 0.0, 10.001475, 9.9974 
2.5793087e+3, 3.0408525e+2, 43159.906, -178347.25, 15582.484, 0.10462171, 0.3637853, 44250.723, 44250.723, 0.0, 10.001134, 9.998222 
2.5789252e+3, 3.1407276e+2, 139576.69, 222426.28, -78494.234, 0.27864218, -0.00434231, 269755.97, 269755.97, 0.0, 10.000227, 10.00142 
2.5962403e+3, 1.24617115e+2, -1701542.6, -1818047.1, 138136.98, -0.20272237, 0.13417242, -1609877.8, 108884.58, 0.19076471, 10.000614, 9.999034 
2.595859e+3, 1.3460998e+2, -1707148.8, -1809673.4, 165685.97, 0.045748886, 0.2515413, -1584976.3, 35860.56, 0.12932351, 9.999983, 9.998711 
2.5954735e+3, 1.446008e+2, -1689983.4, -1814715.9, 53726.766, 0.0587249, 0.25899467, -1670032.5, -147100.31, 0.070622586, 9.999741, 9.998064 
2.5950873e+3, 1.5459064e+2, -1559370.8, -1733998.4, -22886.795, 0.0604657, 0.16606139, -1556421.0, -131383.08, 0.027766839, 10.000095, 9.99778 
2.594701e+3, 1.6458218e+2, -1216563.5, -1295450.4, -52340.33, 0.076418124, 0.19610927, -1190468.4, 136654.28, 0.0064744665, 10.000841, 9.99974 
2.594316e+3, 1.7457555e+2, -949873.0, -1136337.0, -114508.34, 0.10669114, 0.2692207, -895442.0, 333741.84, 0.0005723583, 10.002054, 9.999594 
2.5939292e+3, 1.8456793e+2, -899224.1, -1172288.6, -128699.39, 0.04676677, 0.33132118, -848127.5, 283131.9, 0.0000035552432, 10.002227, 9.998586 
2.5935414e+3, 1.9455923e+2, -985299.8, -1209829.8, -44376.9, -0.115719296, 0.33499935, -976847.2, 56505.57, 0.0, 10.001155, 9.998181 
2.593155e+3, 2.0455165e+2, -899153.5, -903200.2, -83758.74, -0.09481694, 0.41876024, -817393.7, 118041.46, 0.0, 10.000149, 10.000101 
2.5927693e+3, 2.1454576e+2, -959537.25, -904675.5, -130556.59, 0.121545, 0.5417125, -798699.2, 38800.74, 0.0, 9.999132, 9.999926 
2.592383e+3, 2.2453925e+2, -734636.06, -575112.4, -101297.85, 0.23220097, 0.5712035, -525943.25, 213618.13, 0.0, 9.999322, 10.001391 
2.5919965e+3, 2.3453179e+2, -411084.22, -401190.13, -56445.49, 0.26034477, 0.41168213, -349475.3, 292146.6, 0.0, 10.000995, 10.001114 
2.5916114e+3, 2.445238e+2, -484812.53, -694585.56, 87553.2, 0.2981416, 0.3834513, -453072.75, 90625.93, 0.0, 10.001137, 9.998356 
2.591228e+3, 2.5451565e+2, -680237.94, -786899.0, 108412.625, 0.2820912, 0.48164925, -612748.6, -166958.64, 0.0, 9.9993305, 9.997926 
2.5908428e+3, 2.6450658e+2, -518101.66, -455825.66, -13706.583, 0.2249149, 0.4511242, -452942.4, -105063.76, 0.0, 9.998925, 9.999703 
2.5904566e+3, 2.7449638e+2, -249290.27, -297969.66, -40223.098, 0.25465506, 0.18209556, -226615.94, 23348.402, 0.0, 10.000176, 9.999522 
2.5900725e+3, 2.8448746e+2, -154083.0, -344481.88, 56833.023, 0.363077, 0.14461596, -138408.98, 13637.98, 0.0, 10.000779, 9.99824 
2.5896895e+3, 2.9448017e+2, -124622.64, -328917.16, 71928.36, 0.40765744, 0.33049718, -101838.914, -47713.73, 0.0, 10.000511, 9.997815 
2.5893053e+3, 3.044706e+2, -65141.957, -404459.94, -9015.366, 0.3921189, 0.39748898, -64902.598, -64902.598, 0.0, 10.001136, 9.996663 
2.5889224e+3, 3.1445864e+2, 403918.78, 298078.7, 73122.23, 0.5542387, 0.25143042, 441261.63, 441261.63, 0.0, 10.00227, 10.000943 
2.6062316e+3, 1.249998e+2, -1550816.5, -1738974.6, -209746.72, -0.45986205, 0.11244344, -1415016.1, 299998.47, 0.1694871, 10.001856, 9.999036 
2.605852e+3, 1.3499406e+2, -1666168.4, -1735411.9, -174461.75, 0.087450504, 0.26416394, -1522926.3, 94146.3, 0.11391, 10.000098, 9.999164 
2.6054674e+3, 1.4498553e+2, -1716188.4, -1783747.4, -131923.33, 0.23356117, 0.2650886, -1613788.5, -94631.09, 0.061296422, 9.999376, 9.998446 
2.6050797e+3, 1.5497458e+2, -1586606.3, -1735070.4, -48807.86, 0.053373184, 0.04077112, -1571997.9, -150731.9, 0.023481611, 9.9998455, 9.997905 
2.6046932e+3, 1.6496585e+2, -1461130.5, -1490948.0, 25911.018, -0.013476128, 0.07175505, -1446145.3, -122789.59, 0.005220199, 9.9995, 9.999051 
2.6043084e+3, 1.7495948e+2, -1581473.1, -1545986.4, 22327.186, 0.05150933, 0.25822076, -1535210.8, -309787.2, 0.00041937284, 9.998183, 9.998656 
2.6039216e+3, 1.8495253e+2, -1357887.1, -1226264.1, 9528.473, -0.016626773, 0.37748766, -1225578.0, -98083.125, 0.0000020172258, 9.998359, 10.000082 
2.6035333e+3, 1.9494514e+2, -1116267.8, -1103779.5, 34111.145, -0.24481165, 0.35536924, -1075345.6, -45777.43, 0.0, 9.999523, 9.999704 
2.6031464e+3, 2.0493773e+2, -997914.5, -1046883.56, -52771.24, -0.18929115, 0.42609704, -964224.3, -32576.498, 0.0, 9.999919, 9.999215 
2.6027614e+3, 2.1493031e+2, -1017826.7, -1048000.75, -78950.7, 0.17305882, 0.4957768, -952534.4, -118801.56, 0.0, 9.999268, 9.998868 
2.6023751e+3, 2.2492371e+2, -717699.4, -513612.75, 260.23376, 0.25527793, 0.55349064, -513612.4, 222184.17, 0.0, 9.999225, 10.001858 
2.6019874e+3, 2.3491804e+2, -584072.44, -430563.88, -18637.678, 0.036136758, 0.52063435, -428333.47, 209503.86, 0.0, 9.999592, 10.001587 
2.601604e+3, 2.4491067e+2, -675926.0, -754935.5, 944.9148, 0.19475392, 0.519309, -675914.7, -136007.47, 0.0, 9.999718, 9.99862 
2.6012245e+3, 2.5490153e+2, -692745.25, -752560.1, 33101.945, 0.72588474, 0.4686843, -678041.1, -236033.28, 0.0, 9.999087, 9.998281 
2.6008388e+3, 2.64892e+2, -478161.3, -482763.97, 16103.151, 0.66287726, 0.38894737, -464195.88, -120095.39, 0.0, 9.9994135, 9.999289 
2.6004472e+3, 2.7488226e+2, -246390.83, -358828.06, 27421.223, 0.031237584, 0.21219034, -240059.81, 6123.598, 0.0, 10.0004835, 9.998963 
2.6000634e+3, 2.8487357e+2, -125138.72, -322828.56, 65806.13, 0.10385605, 0.23069842, -105236.99, 43028.082, 0.0, 10.000944, 9.998317 
2.599686e+3, 2.9486632e+2, -112635.68, -318533.4, 72716.72, 0.74299604, 0.40577918, -89544.12, -39201.75, 0.0, 10.000569, 9.997866 
2.599302e+3, 3.048558e+2, -213140.88, -688112.2, 68716.98, 0.6676254, 0.46600428, -203398.98, -203398.98, 0.0, 10.0010395, 9.99476 
2.598912e+3, 3.1484118e+2, 57054.6, -231067.17, 102964.164, 0.011151852, 0.25339323, 90067.59, 90067.59, 0.0, 10.001461, 9.997688 
2.616225e+3, 1.2538028e+2, -1453093.5, -1498494.8, -189983.92, -0.6491913, 0.21434857, -1284458.8, 426839.47, 0.14987738, 10.001584, 10.00096 
2.615845e+3, 1.353751e+2, -1542285.0, -1542279.5, -185360.89, 0.1072596, 0.31602892, -1356921.4, 256426.95, 0.09979477, 10.000375, 10.0004225 
2.6154605e+3, 1.4536807e+2, -1490569.1, -1394329.5, -78250.914, 0.31082773, 0.28424338, -1350586.8, 164824.17, 0.052857112, 9.999707, 10.001005 
2.6150727e+3, 1.5535939e+2, -1366375.6, -1353393.6, -5297.2593, 0.08210911, 0.046686947, -1351506.5, 65979.68, 0.019694533, 10.000154, 10.000392 
2.614686e+3, 1.6535164e+2, -1423838.9, -1441924.4, -9625.184, 0.03220492, 0.042126384, -1419675.0, -100111.36, 0.004163879, 9.999611, 9.999332 
2.6143e+3, 1.7534493e+2, -1567325.3, -1504521.8, -2128.6653, 0.14439116, 0.17646328, -1504449.8, -282809.53, 0.00030229846, 9.998123, 9.998961 
2.6139143e+3, 1.8533789e+2, -1316977.4, -1119003.6, 99220.48, 0.16834663, 0.23374432, -1077836.6, 45875.293, 0.0000010444409, 9.998243, 10.000876 
2.613529e+3, 1.9533066e+2, -1036056.6, -989175.56, 117685.555, 0.11449441, 0.16766192, -892618.8, 133160.31, 0.0, 9.999705, 10.000414 
2.6131418e+3, 2.053233e+2, -999011.7, -1098107.8, -40866.063, 0.0950233, 0.23372144, -984333.2, -56476.168, 0.0, 10.000113, 9.99877 
2.6127532e+3, 2.1531591e+2, -991389.3, -1080635.3, -57266.723, 0.13848169, 0.36439487, -963412.8, -133470.02, 0.0, 9.999632, 9.998461 
2.6123667e+3, 2.2530808e+2, -762267.4, -657366.94, 34640.023, 0.1925742, 0.37385452, -646960.5, 85059.88, 0.0, 9.999428, 10.000777 
2.6119816e+3, 2.3530015e+2, -698402.0, -612416.7, -10720.312, 0.24931023, 0.23963113, -611100.25, 22987.186, 0.0, 9.999324, 10.000473 
2.611598e+3, 2.4529316e+2, -679067.44, -664040.8, 1420.1694, 0.39895168, 0.29007733, -663907.75, -127751.19, 0.0, 9.999293, 9.999449 
2.6112157e+3, 2.5528672e+2, -589025.06, -618086.44, 36196.83, 0.64571536, 0.44338846, -564551.25, -126321.04, 0.0, 9.999418, 9.99905 
2.6108307e+3, 2.6527873e+2, -339820.88, -355703.9, 75010.8, 0.5859846, 0.4513674, -272332.38, 67975.29, 0.0, 10.00009, 9.999837 
2.6104432e+3, 2.7526963e+2, -128880.7, -252914.22, 99642.555, 0.2689023, 0.3011386, -73531.72, 168853.95, 0.0, 10.0010605, 9.999415 
2.6100597e+3, 2.8526053e+2, -97106.14, -352718.06, 100654.734, 0.3237806, 0.2818959, -62229.164, 82244.03, 0.0, 10.001336, 9.997911 
2.6096788e+3, 2.952518e+2, -84385.414, -347902.47, 88370.016, 0.6519695, 0.3588135, -57494.742, -10928.796, 0.0, 10.000961, 9.997467 
2.6092938e+3, 3.0524272e+2, -87688.79, -359017.22, 186195.28, 0.4842725, 0.46624157, 7023.778, 7023.778, 0.0, 10.00074, 9.997159 
2.608904e+3, 3.152319e+2, 342402.25, 460014.9, 215102.7, -0.14537835, 0.41104615, 624204.9, 624204.9, 0.0, 10.001033, 10.002639 
2.626219e+3, 1.2576512e+2, -2001550.4, -1802487.0, 135147.3, -0.42949495, 0.1292235, -1734175.5, -26658.371, 0.13183594, 9.997818, 10.000395 
2.625837e+3, 1.3575792e+2, -1493364.6, -1558749.6, 52511.8, -0.021761952, 0.09736907, -1464200.1, 145391.64, 0.08692923, 10.000939, 9.999959 
2.625452e+3, 1.4575152e+2, -1183206.3, -1165125.0, 35439.316, 0.12542523, 0.12381985, -1137591.4, 374058.2, 0.04528474, 10.001535, 10.001779 
2.6250654e+3, 1.5574531e+2, -1336344.8, -1266984.8, 5920.189, 0.0721492, 0.056851327, -1266483.0, 147215.42, 0.01638905, 10.00006, 10.001042 
2.6246786e+3, 1.657379e+2, -1392585.8, -1472749.9, -63214.246, 0.09815975, 0.076019906, -1357817.1, -42043.46, 0.0032885466, 10.000029, 9.998923 
2.6242924e+3, 1.7572989e+2, -1218851.6, -1369836.5, -96651.766, 0.19375844, 0.10618483, -1171703.6, 46161.914, 0.00021471751, 10.000669, 9.998668 
2.623907e+3, 1.8572296e+2, -987220.75, -906559.2, 5119.8535, 0.244563, 0.14624201, -906235.5, 213700.17, 0.00000047553752, 10.000314, 10.001325 
2.623523e+3, 1.9571665e+2, -1114873.3, -1004171.0, 5087.2754, 0.2685748, 0.10968182, -1003937.75, 18053.307, 0.0, 9.99911, 10.000585 
2.6231354e+3, 2.0570928e+2, -1059968.0, -1167839.5, -138481.27, 0.20987974, 0.17928706, -965289.8, -41222.46, 0.0, 9.999864, 9.998414 
2.6227456e+3, 2.1570139e+2, -770987.3, -1024771.1, -128846.47, 0.0763252, 0.27828068, -717039.6, 109117.43, 0.0, 10.001371, 9.998011 
2.622359e+3, 2.2569264e+2, -556969.9, -662800.6, -44355.492, 0.15520625, 0.25350717, -540838.56, 187406.08, 0.0, 10.001308, 9.9998255 
2.6219752e+3, 2.3568325e+2, -712541.4, -737299.4, -51856.266, 0.40073627, 0.057867393, -671607.0, -41276.723, 0.0, 9.999757, 9.999408 
2.621591e+3, 2.4567652e+2, -565499.25, -547266.0, -8919.48, 0.4834527, 0.1535924, -543628.4, -11230.169, 0.0, 9.99981, 9.999997 
2.621206e+3, 2.5567183e+2, -425092.4, -489145.75, 15950.747, 0.4250844, 0.41552663, -421340.13, 13112.724, 0.0, 10.000332, 9.999498 
2.6208222e+3, 2.6566496e+2, -252689.97, -276477.25, 38061.63, 0.44517183, 0.49237123, -224706.97, 111812.0, 0.0, 10.000537, 10.000168 
2.6204395e+3, 2.7565658e+2, -226301.81, -286723.4, 39284.574, 0.5159655, 0.36633146, -206954.86, 31637.467, 0.0, 10.000341, 9.999535 
2.620055e+3, 2.856472e+2, -255910.67, -455573.75, 14290.72, 0.48748726, 0.3212397, -254893.02, -114209.03, 0.0, 10.000371, 9.997669 
2.6196694e+3, 2.956371e+2, -216465.3, -433166.47, 56334.746, 0.37229633, 0.27314383, -202695.23, -159905.08, 0.0, 10.000146, 9.997283 
2.6192853e+3, 3.056301e+2, -33200.99, 5678.4063, 134407.0, 0.30856243, 0.4397533, 122044.24, 122044.24, 0.0, 9.999651, 10.0002 
2.6189026e+3, 3.1561947e+2, -24269.115, 108756.71, 49714.35, 0.33581227, 0.09956757, 125282.85, 125282.85, 0.0, 9.999267, 10.001087 
2.6362145e+3, 1.2615247e+2, -1973033.0, -1978883.0, 233090.11, -0.017672068, -0.06916145, -1742849.5, -39151.254, 0.11528488, 9.998819, 9.998705 
2.6358277e+3, 1.3614151e+2, -1558149.3, -1748265.4, 154047.1, -0.33796957, -0.30507278, -1472192.0, 133626.05, 0.07524954, 10.001118, 9.998571 
2.635442e+3, 1.4613537e+2, -1208045.5, -1222167.5, -6722.5103, -0.2770446, -0.16835445, -1205357.1, 302522.7, 0.038529173, 10.001539, 10.001357 
2.635058e+3, 1.5613201e+2, -1329251.4, -1317295.4, -19245.52, 0.037191615, 0.09887536, -1303120.8, 106786.586, 0.013527696, 10.000338, 10.000553 
2.6346722e+3, 1.661242e+2, -1412137.4, -1593351.3, -11377.904, 0.16329454, 0.16087273, -1411425.9, -99435.32, 0.0025719018, 10.000352, 9.9979515 
2.634286e+3, 1.7611386e+2, -1175876.4, -1425044.0, -52637.44, 0.17459723, 0.062749475, -1165212.9, 48893.137, 0.00015054179, 10.001256, 9.9980135 
2.6338992e+3, 1.8610725e+2, -920776.7, -858965.94, -44719.098, 0.11711689, 0.15503249, -835512.0, 280661.2, 0.0000001940375, 10.000707, 10.001457 
2.6335123e+3, 1.9610292e+2, -1079670.4, -975862.94, -41914.035, 0.021362247, 0.31246543, -961052.44, 57157.918, 0.0, 9.999282, 10.000697 
2.633126e+3, 2.0609547e+2, -1014847.75, -1123484.6, -62026.742, 0.027979014, 0.36216816, -986717.4, -66431.04, 0.0, 10.000081, 9.998604 
2.63274e+3, 2.1608625e+2, -607447.94, -909770.3, -62890.363, 0.090581566, 0.3150253, -594887.1, 227498.2, 0.0, 10.002319, 9.998341 
2.632354e+3, 2.2607782e+2, -436713.3, -624545.7, -107314.62, 0.16251007, 0.31201747, -388022.78, 336447.47, 0.0, 10.002197, 9.999668 
2.631967e+3, 2.3606995e+2, -607722.44, -692794.5, -95438.11, 0.26599845, 0.29281804, -545770.44, 80774.48, 0.0, 10.00048, 9.999364 
2.6315814e+3, 2.4606246e+2, -475935.44, -494956.8, 33758.24, 0.24265124, 0.31376454, -450373.75, 78244.59, 0.0, 10.000377, 10.000084 
2.6311967e+3, 2.5605556e+2, -285602.28, -405849.94, 34876.81, 0.14492679, 0.3518508, -276218.8, 154469.23, 0.0, 10.001211, 9.999639 
2.6308134e+3, 2.660477e+2, -240956.1, -360096.25, -18120.355, 0.22018564, 0.36279744, -238261.1, 94503.38, 0.0, 10.000989, 9.999378 
2.630431e+3, 2.760393e+2, -310646.75, -387382.7, -49787.01, 0.42434177, 0.3177159, -286158.94, -51315.32, 0.0, 10.000003, 9.999007 
2.630047e+3, 2.8603095e+2, -261606.55, -287192.4, -37969.684, 0.44232354, 0.30560616, -234332.58, -97408.21, 0.0, 9.999561, 9.999228 
2.6296613e+3, 2.9602253e+2, -220643.3, -262925.6, 37522.566, 0.31688935, 0.27769807, -198716.0, -159708.67, 0.0, 9.999355, 9.99884 
2.6292762e+3, 3.0601406e+2, -161889.52, -5329.584, 51117.98, 0.25094095, 0.19946696, 9882.7, 9882.7, 0.0, 9.998543, 10.00066 
2.628899e+3, 3.1600672e+2, -351473.9, 17172.725, -204996.45, 0.9834832, 0.13896647, 108527.9, 108527.9, 0.0, 9.996732, 10.001668 
2.6462096e+3, 1.2653936e+2, -1454211.1, -1793501.0, -16009.846, 0.11014919, 0.014844282, -1453457.4, 246452.84, 0.100167856, 10.002917, 9.998008 
2.6458204e+3, 1.3652876e+2, -1960647.3, -2021558.4, -34193.004, -0.32269496, -0.13854578, -1945313.0, -343284.5, 0.06469216, 9.998673, 9.997846 
2.6454344e+3, 1.46522e+2, -1703967.9, -1505228.1, -121221.32, -0.29525283, -0.028715124, -1447853.0, 56243.69, 0.03253055, 9.9983015, 10.000878 
2.6450506e+3, 1.5651771e+2, -1448201.9, -1439688.8, -142130.64, 0.04242593, 0.17288424, -1301751.0, 104383.35, 0.011066901, 9.999834, 9.999936 
2.644665e+3, 1.665095e+2, -1342430.1, -1549368.1, -56521.066, 0.13341281, 0.20581195, -1327998.9, -19778.975, 0.0019930317, 10.000804, 9.998026 
2.6442787e+3, 1.7649896e+2, -1239173.5, -1471646.3, -26764.107, 0.06932788, 0.081324264, -1236132.0, -25798.127, 0.00010503105, 10.000911, 9.997861 
2.6438913e+3, 1.8649225e+2, -872039.6, -899663.5, -63409.05, -0.0120561505, 0.19367741, -820955.7, 291446.28, 0.00000008640195, 10.001314, 10.000881 
2.6435038e+3, 1.9648796e+2, -836569.75, -926686.1, -107321.24, -0.11045797, 0.40244466, -765231.7, 249209.13, 0.0, 10.001272, 10.000073 
2.6431185e+3, 2.0648037e+2, -863583.8, -990029.1, -58036.402, -0.062026136, 0.4286868, -840985.0, 75531.49, 0.0, 10.000886, 9.999123 
2.6427343e+3, 2.1647081e+2, -903850.5, -1018798.0, -32292.428, 0.084119864, 0.28977957, -895399.8, -76785.63, 0.0, 10.00017, 9.998625 
2.6423475e+3, 2.2646292e+2, -673387.56, -775154.44, -139102.3, 0.12642866, 0.34215033, -576154.25, 144540.19, 0.0, 10.000732, 9.99934 
2.6419586e+3, 2.364561e+2, -552276.1, -714495.6, -128258.87, 0.094216995, 0.45674926, -481632.34, 141130.47, 0.0, 10.001079, 9.998936 
2.6415727e+3, 2.4644805e+2, -439854.94, -477032.97, 22896.865, 0.051525082, 0.43618664, -428951.28, 95888.99, 0.0, 10.0006485, 10.000068 
2.6411888e+3, 2.5643936e+2, -559105.94, -562827.4, 21810.023, -0.022054091, 0.2890798, -539077.4, -112154.71, 0.0, 9.999466, 9.999403 
2.6408052e+3, 2.6643065e+2, -472752.6, -538428.5, -28219.51, 0.05977152, 0.2518751, -462293.06, -133284.86, 0.0, 9.999695, 9.998769 
2.6404223e+3, 2.7642187e+2, -342178.44, -465617.63, -4462.2, 0.2587123, 0.23218405, -342017.34, -110922.22, 0.0, 10.000061, 9.998445 
2.6400387e+3, 2.864144e+2, -52894.008, -36313.93, -20763.658, 0.36703333, 0.2687033, -22246.547, 110918.6, 0.0, 10.000379, 10.000543 
2.6396534e+3, 2.9640794e+2, 9425.386, -23479.65, -12148.534, 0.2956233, 0.29418537, 13424.573, 48647.996, 0.0, 10.000402, 9.999976 
2.6392663e+3, 3.0639687e+2, 118117.625, 96568.055, -79970.25, 0.09002281, -0.08892158, 188035.7, 188035.7, 0.0, 10.000616, 10.000357 
2.6388848e+3, 3.1639203e+2, -31486.48, -74702.09, -16684.027, 0.51764196, 0.12625007, -25794.945, -25794.945, 0.0, 9.999992, 9.999469 
2.6562047e+3, 1.2692629e+2, -1532876.6, -1837168.6, -150139.13, 0.045645, 0.27960852, -1471270.1, 224868.08, 0.08642747, 10.00229, 9.998037 
2.6558146e+3, 1.3691877e+2, -1880089.9, -1973456.0, -125150.27, -0.03633164, 0.44686803, -1793199.4, -194973.36, 0.055198986, 9.999165, 9.997945 
2.655428e+3, 1.4691032e+2, -1679193.5, -1542709.0, -29636.404, -0.04190892, 0.41142368, -1536551.5, -36243.137, 0.027235191, 9.998699, 10.000416 
2.6550436e+3, 1.5690182e+2, -1394862.6, -1420681.1, -57348.586, 0.042152975, 0.2498196, -1348988.4, 53395.87, 0.0089680515, 10.000213, 9.999879 
2.6546574e+3, 1.6689366e+2, -1219722.0, -1331545.9, -23847.063, -0.013255793, 0.21478382, -1214848.9, 89614.22, 0.0015322798, 10.000989, 9.999425 
2.6542702e+3, 1.7688546e+2, -1108191.9, -1291606.4, 11153.858, -0.14925708, 0.1996341, -1107516.1, 99029.96, 0.00007382683, 10.0012865, 9.99892 
2.6538846e+3, 1.8687746e+2, -922676.9, -1088266.0, -28595.406, -0.10730104, 0.22756605, -917877.9, 190747.69, 0.000000036839044, 10.001657, 9.999433 
2.6534995e+3, 1.9686998e+2, -785466.25, -994086.5, -91633.27, 0.00321137, 0.26598382, -750933.8, 259764.97, 0.0, 10.002001, 9.999258 
2.653113e+3, 2.0686223e+2, -724230.7, -781304.94, -95886.836, 0.022443594, 0.23908176, -652724.56, 260047.7, 0.0, 10.001238, 10.000381 
2.6527262e+3, 2.1685429e+2, -864854.1, -886858.5, -49927.527, 0.013555778, 0.14761987, -824730.94, -9883.754, 0.0, 9.999933, 9.999645 
2.6523393e+3, 2.2684658e+2, -746034.75, -868590.56, -70091.12, 0.024582693, 0.20914434, -714211.94, 2713.5095, 0.0, 10.000474, 9.99883 
2.6519525e+3, 2.368391e+2, -452468.44, -706932.06, -79594.01, 0.051556624, 0.31676254, -429623.13, 189380.4, 0.0, 10.001898, 9.998606 
2.6515678e+3, 2.4683155e+2, -402916.0, -470601.3, -36734.64, 0.19049083, 0.36735168, -386811.1, 134267.05, 0.0, 10.000933, 9.999986 
2.6511842e+3, 2.5682402e+2, -654265.25, -586792.94, -22880.943, 0.36085793, 0.35080355, -579765.56, -156614.88, 0.0, 9.998702, 9.999603 
2.6507995e+3, 2.6681557e+2, -494787.1, -418187.72, 56330.066, 0.32490778, 0.2712807, -388370.28, -63140.43, 0.0, 9.99899, 9.999918 
2.6504156e+3, 2.7680686e+2, -218674.56, -326308.84, 103613.03, 0.27190503, 0.15101042, -155735.78, 71575.92, 0.0, 10.000551, 9.999166 
2.6500317e+3, 2.8679863e+2, -4701.0625, -217674.53, 36538.64, 0.2926782, 0.19174413, 1393.2715, 130784.805, 0.0, 10.001573, 9.99873 
2.6496467e+3, 2.9679102e+2, 149224.8, -139472.53, -45662.727, 0.22288293, 0.2888755, 156275.0, 187741.03, 0.0, 10.002152, 9.9983225 
2.649262e+3, 3.0677864e+2, 368132.88, -12031.744, -162970.84, 0.15933448, -0.052950196, 428431.84, 428431.84, 0.0, 10.003331, 9.998296 
2.6488817e+3, 3.167762e+2, 609674.56, 193182.11, -193980.11, 0.6170319, 0.5932574, 686024.2, 686024.2, 0.0, 10.004559, 9.999125 
2.6661944e+3, 1.2731189e+2, -2140415.5, -2070107.8, -135656.42, -0.19024572, 0.45209315, -1965124.4, -272755.34, 0.073997386, 9.99773, 9.998602 
2.6658106e+3, 1.3730392e+2, -1290257.1, -1652291.1, -98125.19, 0.16792141, 0.5062608, -1265372.0, 329083.06, 0.046710845, 10.003193, 9.998214 
2.6654235e+3, 1.4729548e+2, -1090718.5, -1295214.4, -41800.23, 0.13662003, 0.47288948, -1082504.3, 414032.78, 0.022592422, 10.002958, 10.000097 
2.665036e+3, 1.5728681e+2, -1429161.0, -1455508.5, -42515.22, 0.0035766964, 0.32248852, -1397825.4, 791.5982, 0.0071954923, 10.00007, 9.999712 
2.6646498e+3, 1.6727921e+2, -1347363.0, -1266092.5, 10728.541, -0.06457766, 0.2824308, -1264700.1, 35987.77, 0.001170623, 9.9995575, 10.000563 
2.6642635e+3, 1.772722e+2, -1330701.3, -1329433.4, 37494.984, -0.13009852, 0.27050534, -1292567.0, -89812.63, 0.00005271245, 9.999489, 9.999523 
2.6638782e+3, 1.8726322e+2, -1246978.1, -1335705.1, 34847.242, -0.10604318, 0.226698, -1234928.5, -130086.625, 0.000000014947995, 9.999854, 9.998599 
2.6634932e+3, 1.9725356e+2, -1159253.9, -1256086.3, 8424.133, -0.008029361, 0.14048126, -1158526.5, -151589.92, 0.0, 9.999815, 9.998516 
2.6631063e+3, 2.0724566e+2, -882433.8, -818221.06, -67540.13, 0.0019219097, 0.11017005, -775544.5, 133465.94, 0.0, 9.999993, 10.00072 
2.662718e+3, 2.1723868e+2, -911052.3, -899847.4, -88966.305, -0.050610404, 0.07821092, -816307.3, -5233.7783, 0.0, 9.999599, 9.999717 
2.6623315e+3, 2.2723068e+2, -864336.3, -944899.8, -42925.023, -0.045487173, 0.11506793, -845752.3, -132598.69, 0.0, 9.999776, 9.998624 
2.661946e+3, 2.3722237e+2, -776942.75, -897615.8, -34172.57, 0.0050541717, 0.15566842, -767937.7, -152697.52, 0.0, 9.999864, 9.998267 
2.6615623e+3, 2.4721505e+2, -547519.6, -583804.9, -87783.695, 0.30533433, 0.26382604, -476023.34, 41290.89, 0.0, 10.000158, 9.999568 
2.661179e+3, 2.572082e+2, -515490.63, -554403.6, -78532.47, 0.6654468, 0.35023063, -454040.38, -34658.523, 0.0, 9.999822, 9.99929 
2.660794e+3, 2.6720008e+2, -271984.94, -229494.63, 25614.172, 0.5319477, 0.26215228, -217461.53, 103994.13, 0.0, 10.000167, 10.000658 
2.6604083e+3, 2.771915e+2, -221608.27, -311771.9, 24535.219, 0.2324613, 0.07233548, -215364.19, 8167.1455, 0.0, 10.0004835, 9.999301 
2.6600248e+3, 2.8718254e+2, -195157.77, -512270.2, -31921.867, 0.18759146, 0.12795079, -191976.3, -66355.54, 0.0, 10.001136, 9.996921 
2.6596406e+3, 2.971734e+2, -126376.59, -505811.03, -23067.027, 0.120378174, 0.25449204, -124979.414, -97263.4, 0.0, 10.001259, 9.996252 
2.659259e+3, 3.071603e+2, -14814.24, -447951.9, -57246.766, 0.32114026, 0.05547764, -7375.8154, -7375.8154, 0.0, 10.001788, 9.996044 
2.658878e+3, 3.1715298e+2, 415181.56, 309842.56, -282295.8, 0.55492955, 0.40041518, 649679.25, 649679.25, 0.0, 10.002317, 10.001015 
2.6761818e+3, 1.2769577e+2, -1927335.0, -1843350.1, 111034.28, -0.528862, 0.47475648, -1766633.0, -78023.63, 0.0627766, 9.998689, 9.999683 
2.6758078e+3, 1.3768484e+2, -1217994.9, -1515310.9, 58780.965, 0.29460037, 0.14553817, -1206795.4, 383917.88, 0.03914479, 10.003225, 9.999161 
2.67542e+3, 1.4767797e+2, -1106667.4, -1303563.9, -117754.766, 0.23216218, 0.2376348, -1051628.6, 441151.78, 0.01854302, 10.0028515, 10.000079 
2.6750278e+3, 1.5767245e+2, -1362027.1, -1382988.0, -91690.36, -0.08159404, 0.408767, -1280220.3, 114614.77, 0.005710628, 10.000341, 10.000081 
2.6746425e+3, 1.6766576e+2, -1255501.9, -1104033.0, 37964.6, 0.0077514905, 0.38352033, -1095050.1, 201847.78, 0.0008890518, 9.999676, 10.0016165 
2.6742592e+3, 1.7765874e+2, -1222327.5, -1171037.9, 62636.49, 0.1935428, 0.27442306, -1128999.8, 69963.73, 0.000037964888, 9.999765, 10.000464 
2.6738715e+3, 1.8764968e+2, -1225400.6, -1297445.4, 64673.207, 0.01323017, 0.18164206, -1187394.4, -86346.875, 0.0000000057994387, 9.999875, 9.998856 
2.673483e+3, 1.9764009e+2, -1141842.6, -1245077.4, 50182.74, -0.2640073, 0.08655159, -1121469.3, -118332.09, 0.0, 9.999899, 9.99855 
2.6730967e+3, 2.0763202e+2, -982252.56, -1016912.1, -32568.262, -0.18125959, 0.1256922, -962690.44, -57473.434, 0.0, 9.99994, 9.999391 
2.672711e+3, 2.1762456e+2, -899136.1, -972255.06, -75759.42, 0.00024532428, 0.18127774, -851576.1, -44284.117, 0.0, 9.999975, 9.999044 
2.6723242e+3, 2.2761582e+2, -809685.8, -826975.3, -35222.547, 0.00011539831, 0.12018068, -782062.7, -72686.79, 0.0, 9.999726, 9.999468 
2.6719376e+3, 2.3760673e+2, -815908.8, -874034.75, -1503.2157, -0.031913105, 0.015731128, -815869.94, -204407.38, 0.0, 9.999385, 9.998661 
2.671554e+3, 2.4759753e+2, -655974.25, -799134.0, -35210.156, 0.24564129, 0.015358371, -647783.0, -134228.98, 0.0, 10.000099, 9.998124 
2.671172e+3, 2.5758854e+2, -411171.75, -646417.0, -55545.11, 0.6154705, 0.036901753, -398716.16, 16928.385, 0.0, 10.001114, 9.998047 
2.6707867e+3, 2.6758012e+2, -214017.05, -360931.84, -20266.045, 0.43178356, 0.052797876, -211272.72, 106452.48, 0.0, 10.001218, 9.999269 
2.6704007e+3, 2.7757195e+2, -203549.56, -363354.75, -77699.18, 0.10528504, 0.032698467, -171999.98, 47801.33, 0.0, 10.000848, 9.998771 
2.6700187e+3, 2.875633e+2, -146671.72, -312378.66, -82796.48, 0.19670562, 0.037128933, -112392.98, 9492.668, 0.0, 10.00071, 9.998509 
2.6696363e+3, 2.9755443e+2, -137660.67, -369598.75, 453.6089, 0.33671477, 0.04588643, -137659.8, -113685.78, 0.0, 10.000544, 9.997544 
2.669253e+3, 3.0754405e+2, -232653.92, -482784.3, 42138.246, 0.3582068, 0.047312196, -225745.89, -225745.89, 0.0, 10.0000105, 9.996649 
2.6688677e+3, 3.1753552e+2, 41548.453, 156023.89, -94379.16, 0.24130322, 0.22390835, 209165.42, 209165.42, 0.0, 9.999624, 10.001244 
2.686178e+3, 1.2808014e+2, -1290326.4, -1454315.6, 245918.48, -0.31764862, 0.27249798, -1113093.4, 571733.6, 0.052667595, 10.002838, 10.000447 
2.6858017e+3, 1.3806905e+2, -1654799.4, -1679926.4, 182268.4, 0.27055025, -0.14885084, -1484662.0, 102267.516, 0.032421984, 9.999944, 9.999588 
2.685413e+3, 1.4806223e+2, -1477312.4, -1511170.4, -13450.211, 0.16237462, -0.046486527, -1472619.6, 16379.493, 0.015032093, 10.000347, 9.999844 
2.685021e+3, 1.5805702e+2, -1239994.3, -1363363.4, 5363.883, -0.11010604, 0.18447156, -1239761.5, 151294.05, 0.0044763535, 10.001357, 9.999732 
2.684636e+3, 1.6805126e+2, -1032190.94, -1048366.5, 56623.18, 0.035834793, 0.29866216, -983080.9, 310033.28, 0.00066900725, 10.00145, 10.001143 
2.6842532e+3, 1.78045e+2, -1082592.8, -1137688.9, -18177.11, 0.28503034, 0.30587426, -1077136.3, 118039.11, 0.000027210404, 10.000899, 10.000148 
2.683865e+3, 1.8803564e+2, -954116.2, -1109735.9, -9898.076, 0.03595149, 0.15020081, -953489.2, 143770.2, 0.000000001728097, 10.001539, 9.999319 
2.6834753e+3, 1.9802561e+2, -889308.1, -1138938.0, -22367.879, -0.36448288, -0.033054795, -887319.75, 112028.984, 0.0, 10.001732, 9.998393 
2.683089e+3, 2.0801748e+2, -998440.0, -1153855.3, -105167.47, -0.21022344, 0.06927871, -945385.75, -43953.09, 0.0, 10.000405, 9.998214 
2.682704e+3, 2.1800989e+2, -1196916.5, -1204049.5, -99686.664, 0.10326824, 0.21646267, -1100732.6, -297217.72, 0.0, 9.9983425, 9.998239 
2.6823175e+3, 2.2800088e+2, -754435.06, -729091.75, -42194.645, 0.074581034, 0.1134366, -697707.06, 7891.8423, 0.0, 9.999829, 10.000082 
2.6819304e+3, 2.3799147e+2, -502538.44, -732373.25, -28410.908, -0.043496758, -0.08246234, -499078.53, 108604.93, 0.0, 10.001613, 9.998558 
2.6815468e+3, 2.4798091e+2, -439985.97, -821364.06, -17135.975, 0.16297169, -0.15031935, -439217.56, 70569.79, 0.0, 10.002136, 9.996983 
2.6811644e+3, 2.5797024e+2, -406522.13, -793271.0, 12816.604, 0.45069277, -0.18328656, -406097.84, 5797.1694, 0.0, 10.001819, 9.99669 
2.680779e+3, 2.6796126e+2, -243727.25, -534244.5, 46799.063, 0.27821544, -0.08261911, -236374.53, 77610.55, 0.0, 10.001723, 9.997816 
2.6803935e+3, 2.7795294e+2, -206417.02, -442399.2, 11144.538, -0.012103364, 0.021028128, -205891.88, 10176.094, 0.0, 10.001178, 9.998069 
2.6800123e+3, 2.8794456e+2, -41843.883, -63614.133, -35593.44, 0.2331985, -0.037935518, -15508.328, 102639.48, 0.0, 10.000578, 10.000268 
2.6796314e+3, 2.979363e+2, -184873.86, -243824.2, -3095.2754, 0.54041135, -0.14090219, -184711.78, -164486.67, 0.0, 9.999596, 9.99886 
2.6792446e+3, 3.07929e+2, -180927.47, -343262.97, 18737.773, 0.26197177, 0.06167564, -178792.72, -178792.72, 0.0, 9.999869, 9.997675 
2.6788592e+3, 3.179177e+2, -21552.162, -43903.625, 41658.605, 0.12465973, -0.11404026, 10403.724, 10403.724, 0.0, 9.999944, 9.999712 
2.6961783e+3, 1.284645e+2, -1298274.4, -1384388.3, 132947.03, 0.13083695, -0.11520061, -1201585.8, 479447.63, 0.04360755, 10.002414, 10.001124 
2.6957926e+3, 1.3845536e+2, -1617107.9, -1602584.6, 120482.79, 0.0680019, -0.39921215, -1489144.9, 93973.78, 0.026483878, 9.999947, 10.000106 
2.6954043e+3, 1.4844729e+2, -1479268.5, -1540228.1, 48048.51, -0.027192665, -0.41743195, -1452847.8, 32355.773, 0.012009026, 10.000457, 9.999593 
2.6950157e+3, 1.5844002e+2, -1240413.0, -1446534.9, 56028.92, -0.09110085, -0.3520933, -1226167.5, 161116.13, 0.0034556554, 10.001697, 9.998991 
2.6946297e+3, 1.684353e+2, -1142216.4, -1338275.9, 64990.426, -0.030509098, 0.030787569, -1122629.9, 166709.9, 0.00049606664, 10.001689, 9.999038 
2.6942447e+3, 1.7843081e+2, -1083537.9, -1256607.4, -551.97046, 0.04510282, 0.41284633, -1083536.1, 107855.71, 0.00001910138, 10.001383, 9.999093 
2.6938587e+3, 1.8842027e+2, -831292.8, -952475.44, 31773.879, -0.031133229, 0.11937914, -823467.1, 270018.8, 0.0000000002885943, 10.001951, 10.000198 
2.6934728e+3, 1.9840851e+2, -729329.44, -1011592.7, -30148.203, -0.14138317, -0.31070983, -726145.25, 269443.2, 0.0, 10.002574, 9.998864 
2.6930848e+3, 2.0840058e+2, -992901.5, -1214257.4, -187769.6, 0.047540348, -0.16364503, -885618.3, 12053.517, 0.0, 10.000669, 9.997693 
2.692697e+3, 2.1839379e+2, -1212111.1, -1229177.5, -100553.53, 0.31318885, 0.11534957, -1119729.4, -319981.06, 0.0, 9.998287, 9.998087 
2.692312e+3, 2.283853e+2, -706304.75, -725361.9, 85589.516, 0.2506387, 0.08178684, -629715.0, 72114.32, 0.0, 10.000228, 9.999922 
2.6919276e+3, 2.3837648e+2, -255089.42, -585863.6, 37836.184, 0.1140092, -0.038227756, -250816.67, 353093.7, 0.0, 10.003179, 9.998803 
2.6915422e+3, 2.483676e+2, -203936.66, -631404.5, -20674.281, 0.12510012, 0.011656238, -202939.1, 303058.56, 0.0, 10.00341, 9.997681 
2.691157e+3, 2.5835866e+2, -234071.81, -651664.1, 48443.13, 0.1956098, 0.09373626, -228525.78, 179561.94, 0.0, 10.002732, 9.997217 
2.6907733e+3, 2.6834854e+2, -163551.72, -519251.47, 117433.53, 0.1954774, 0.085085355, -128279.06, 181911.03, 0.0, 10.002373, 9.997606 
2.6903898e+3, 2.7833846e+2, -113868.016, -425772.03, 94200.31, 0.19136538, 0.052900814, -87625.83, 124666.28, 0.0, 10.001923, 9.997815 
2.690007e+3, 2.8833032e+2, -92024.7, -159418.95, -19626.467, 0.3932785, 0.08345578, -86725.74, 27647.346, 0.0, 10.000538, 9.999617 
2.6896232e+3, 2.983229e+2, -267855.13, -266122.72, -16624.783, 0.56545013, 0.115191564, -250341.58, -233895.63, 0.0, 9.998947, 9.999004 
2.6892334e+3, 3.083144e+2, -85806.98, -139132.81, 79262.234, -0.09795511, 0.10420173, -28843.268, -28843.268, 0.0, 9.999829, 9.999109 
2.688855e+3, 3.1830168e+2, 59920.293, -45156.637, 10255.54, 0.40044668, -0.31799287, 60911.88, 60911.88, 0.0, 10.000675, 9.999356 
2.7061725e+3, 1.288485e+2, -1798299.1, -1693237.9, 16147.791, 0.24071859, -0.4385956, -1690812.0, -13551.743, 0.035537582, 9.999179, 10.000474 
2.7057838e+3, 1.3884422e+2, -1773348.5, -1745524.4, -48599.0, -0.017754009, -0.1921546, -1708885.4, -129577.76, 0.0212677, 9.999147, 9.999519 
2.7053964e+3, 1.4883557e+2, -1591414.3, -1611242.1, -80459.49, -0.073100984, -0.25726107, -1520260.3, -38862.543, 0.009415013, 9.9998, 9.999418 
2.70501e+3, 1.5882641e+2, -1447740.4, -1582500.0, -67978.52, -0.03582106, -0.3714229, -1419406.5, -35913.133, 0.0026133023, 10.00045, 9.998661 
2.7046236e+3, 1.6882049e+2, -1150870.5, -1378917.8, 35259.996, -0.070647806, -0.09661352, -1145543.1, 140016.03, 0.00036005196, 10.001816, 9.998681 
2.7042374e+3, 1.7881532e+2, -946314.1, -1238309.0, 78478.44, -0.12913033, 0.25997692, -926558.4, 261058.66, 0.000012952271, 10.002554, 9.998656 
2.703853e+3, 1.8880548e+2, -892891.94, -979021.94, 70027.52, -0.075411774, 0.05054155, -853747.2, 235959.14, 0.000000000007316074, 10.001507, 10.0002365 
2.7034682e+3, 1.987943e+2, -1123026.1, -1236612.0, -55603.008, 0.0071867513, -0.31877246, -1100338.6, -108533.42, 0.0, 10.000053, 9.998536 
2.70308e+3, 2.0878531e+2, -813959.25, -1178167.1, -229439.31, 0.18756662, -0.2431444, -703139.56, 190758.8, 0.0, 10.002138, 9.997229 
2.7026907e+3, 2.1877742e+2, -443854.22, -919052.8, -100275.695, 0.3792811, -0.03129508, -423560.8, 372423.44, 0.0, 10.003852, 9.997538 
2.702307e+3, 2.2876969e+2, -326194.63, -583096.44, 120292.77, 0.36634713, 0.04212771, -278662.63, 419396.97, 0.0, 10.0030365, 9.999532 
2.7019244e+3, 2.3876189e+2, -522148.72, -747717.6, 40000.332, 0.26660678, 0.054423112, -515265.47, 84867.85, 0.0, 10.001508, 9.998496 
2.7015376e+3, 2.4875365e+2, -397797.16, -664822.9, -99126.92, 0.11052887, 0.13528131, -365021.63, 137192.2, 0.0, 10.001847, 9.998191 
2.7011502e+3, 2.587455e+2, -351571.63, -689944.4, -55594.844, -0.019083116, 0.24089761, -342671.47, 61623.563, 0.0, 10.001876, 9.997369 
2.7007675e+3, 2.6873517e+2, -268817.53, -566284.75, 19059.553, 0.14386243, 0.19223665, -267601.3, 38799.664, 0.0, 10.001655, 9.997622 
2.700386e+3, 2.7872452e+2, -307513.0, -559517.56, 996.90497, 0.36665708, 0.09843128, -307509.06, -98998.31, 0.0, 10.00079, 9.997446 
2.7000016e+3, 2.887169e+2, -232383.58, -344986.1, -114948.91, 0.5338982, 0.2531955, -160688.4, -50096.93, 0.0, 10.000087, 9.998565 
2.6996148e+3, 2.9870996e+2, -279330.25, -296069.63, -42122.168, 0.5177912, 0.42373672, -244754.28, -232090.11, 0.0, 9.998977, 9.998796 
2.6992223e+3, 3.0869964e+2, -13336.173, 59868.133, 101290.266, -0.5016085, 0.12267144, 130966.66, 130966.66, 0.0, 9.999629, 10.000576 
2.6988545e+3, 3.186882e+2, 7394.9307, -70077.016, -146914.64, 0.99685246, -0.2894824, 120594.43, 120594.43, 0.0, 10.000316, 9.999371 
2.716164e+3, 1.2923281e+2, -1845385.8, -1866278.8, 10330.412, 0.15037876, -0.6680102, -1841140.5, -167644.64, 0.02840032, 9.999481, 9.999152 
2.7157757e+3, 1.3923514e+2, -1778738.3, -1837257.4, -21769.332, -0.03794157, 0.37691206, -1771528.4, -196032.84, 0.016710699, 9.999479, 9.998731 
2.715389e+3, 1.492266e+2, -1571642.6, -1611846.4, -23305.62, -0.031890213, 0.3608007, -1560967.3, -83384.61, 0.0071977535, 9.999983, 9.999326 
2.7150038e+3, 1.5921606e+2, -1343025.6, -1449656.8, 4414.3945, 0.027543413, 0.109893754, -1342843.1, 36842.17, 0.0019202116, 10.000806, 9.9994 
2.714618e+3, 1.6920638e+2, -999371.2, -1120111.4, 109612.46, -0.07814472, -0.1237826, -934603.56, 347172.13, 0.00025324232, 10.0020485, 10.000354 
2.7142325e+3, 1.791976e+2, -823285.94, -1102891.3, 103889.55, -0.21088916, -0.2682712, -788911.06, 394946.78, 0.000008369746, 10.0030365, 9.999361 
2.7138466e+3, 1.8919179e+2, -965875.7, -1135437.8, 20514.816, -0.108129494, -0.01372613, -963428.94, 122487.3, 0.0, 10.001512, 9.999167 
2.7134612e+3, 1.9918557e+2, -1187373.1, -1344881.9, -31648.654, 0.032410443, 0.2151635, -1181251.8, -193272.92, 0.0, 9.999939, 9.997847 
2.713074e+3, 2.0917271e+2, -739980.4, -1179813.6, -70479.69, 0.10417147, -0.034156542, -728962.6, 161142.34, 0.0, 10.002819, 9.996889 
2.712687e+3, 2.191597e+2, -128475.13, -788416.1, -38930.355, 0.17986485, -0.2953957, -126186.54, 666046.44, 0.0, 10.006087, 9.99736 
2.7123037e+3, 2.2915342e+2, -205038.06, -584083.44, 22547.447, 0.35116372, -0.029716369, -203701.55, 490593.1, 0.0, 10.004114, 9.999015 
2.7119207e+3, 2.3914778e+2, -593376.44, -836143.5, -14688.08, 0.49001107, 0.25626737, -592491.0, 3858.4924, 0.0, 10.001222, 9.998025 
2.7115333e+3, 2.4913533e+2, -519080.7, -797829.94, -83376.07, 0.28569785, -0.01823925, -496045.78, 2423.1658, 0.0, 10.001309, 9.997549 
2.7111453e+3, 2.5912255e+2, -348143.22, -680335.75, -84226.766, 0.061198507, -0.31759724, -328008.13, 72584.23, 0.0, 10.001852, 9.9974375 
2.710762e+3, 2.6911548e+2, -282836.94, -512821.78, -48340.605, 0.17865191, -0.08826751, -273089.34, 29580.256, 0.0, 10.0012865, 9.998173 
2.7103797e+3, 2.7910924e+2, -332286.34, -512515.88, -64204.813, 0.4098328, 0.20792513, -311753.34, -107013.12, 0.0, 10.000364, 9.997961 
2.7099946e+3, 2.8910196e+2, -253990.78, -355839.38, -147237.8, 0.61529845, 0.3753533, -149119.53, -42297.574, 0.0, 9.999954, 9.998546 
2.7096078e+3, 2.9909417e+2, -192247.44, -251063.5, -37500.652, 0.63950264, 0.4707097, -173999.08, -165092.84, 0.0, 9.999544, 9.998829 
2.7092174e+3, 3.0908352e+2, -58877.375, 29947.916, 73631.14, -0.19286732, 0.14333823, 71523.805, 71523.805, 0.0, 9.999348, 10.0005 
2.7088484e+3, 3.1907535e+2, 231278.25, 360657.16, -75038.44, 1.11826, -0.00021444766, 395040.88, 395040.88, 0.0, 10.000473, 10.002236 
2.726155e+3, 1.2962009e+2, -1726494.0, -1791662.1, -58896.563, -0.011068794, -0.4384501, -1691768.9, -22059.941, 0.022174302, 10.00023, 9.999303 
2.7257678e+3, 1.3962114e+2, -1499797.9, -1693789.3, -38873.37, -0.12736894, 0.4584499, -1492298.1, 79422.14, 0.012780927, 10.001349, 9.998822 
2.7253821e+3, 1.496126e+2, -1301190.0, -1432575.0, 15757.093, -0.09088581, 0.3961894, -1299326.6, 174476.27, 0.0053271013, 10.001615, 9.999774 
2.7249974e+3, 1.5960227e+2, -1278465.6, -1422420.3, 69036.305, 0.004637455, 0.13449937, -1250709.6, 125189.47, 0.0013580795, 10.001275, 9.999369 
2.7246127e+3, 1.6959195e+2, -1226954.6, -1250575.6, 51635.797, -0.053263143, -0.14707254, -1185795.9, 92198.336, 0.00016970174, 10.000606, 10.000151 
2.7242276e+3, 1.7958227e+2, -1313875.0, -1377504.5, -82873.95, -0.14410888, -0.37447134, -1256918.9, -76835.305, 0.0000049540654, 9.999878, 9.998992 
2.723841e+3, 1.8957749e+2, -1020564.7, -1214953.8, -148914.34, -0.066455856, 0.0016234416, -939932.75, 142202.7, 0.0, 10.001399, 9.998663 
2.7234548e+3, 1.9957274e+2, -871156.4, -1258375.9, -101038.77, 0.04644009, 0.42428955, -846377.5, 137810.47, 0.0, 10.002415, 9.997242 
2.723069e+3, 2.0955853e+2, -715377.3, -1182019.8, -38756.96, 0.024496423, 0.049222007, -712180.3, 174144.47, 0.0, 10.003072, 9.996737 
2.7226833e+3, 2.1954356e+2, -559547.1, -1040804.56, -52261.03, 0.009083111, -0.3950888, -553937.4, 234530.45, 0.0, 10.003359, 9.996935 
2.7222997e+3, 2.2953746e+2, -348885.6, -716457.06, -92245.25, 0.29220536, -0.07087131, -327034.8, 363494.13, 0.0, 10.003422, 9.998428 
2.721916e+3, 2.3953223e+2, -453085.3, -845055.1, -81604.336, 0.5744964, 0.3166653, -436774.78, 155806.7, 0.0, 10.002552, 9.997319 
2.7215287e+3, 2.4951746e+2, -376703.72, -772387.7, -52895.26, 0.37899324, -0.14943987, -369754.7, 124967.1, 0.0, 10.002511, 9.997125 
2.7211407e+3, 2.5950208e+2, -325197.44, -703085.56, -42247.242, 0.10792828, -0.67156434, -320531.88, 76336.94, 0.0, 10.002179, 9.9971285 
2.7207562e+3, 2.6949686e+2, -229857.06, -451148.9, -64399.25, 0.187237, -0.2731229, -212480.4, 86448.516, 0.0, 10.00151, 9.998479 
2.7203724e+3, 2.7949354e+2, -332587.75, -499886.34, -101155.15, 0.3731531, 0.27760342, -284975.6, -84002.03, 0.0, 10.000321, 9.998075 
2.7199876e+3, 2.8948626e+2, -199068.4, -308971.3, -161281.72, 0.6309587, 0.426269, -83633.68, 19423.848, 0.0, 10.000253, 9.998723 
2.7196008e+3, 2.99478e+2, -174380.05, -265566.3, -35962.992, 0.69473827, 0.46201172, -161903.66, -156754.23, 0.0, 9.999786, 9.998612 
2.719214e+3, 3.094674e+2, -121693.734, -56923.32, 61692.605, 0.23918015, 0.17539552, -19632.283, -19632.283, 0.0, 9.99916, 9.999989 
2.7188355e+3, 3.194632e+2, 250641.89, 770575.1, 173015.36, 0.48405844, 0.38132468, 822885.56, 822885.56, 0.0, 9.998895, 10.005813 
2.736146e+3, 1.3000856e+2, -1682148.6, -1662315.5, 1054.2463, -0.26075122, -0.008449896, -1662259.6, 3653.3572, 0.01683331, 10.000066, 10.000272 
2.7357602e+3, 1.4000303e+2, -1418706.3, -1526229.9, 3228.2783, -0.3122697, 0.1347016, -1418609.4, 149366.72, 0.009463002, 10.001349, 9.999974 
2.735375e+3, 1.4999408e+2, -1223182.5, -1279925.4, 34595.176, -0.25720295, -0.07047925, -1206812.9, 263242.4, 0.0037922803, 10.001656, 10.0008 
2.73499e+3, 1.5998483e+2, -1267568.5, -1465711.1, 69695.91, -0.13987878, -0.28755167, -1245509.1, 126628.04, 0.0009170214, 10.001563, 9.998916 
2.7346066e+3, 1.6997744e+2, -1377811.1, -1562526.6, 33836.652, 0.014459988, -0.093345575, -1371808.0, -97594.1, 0.0001065257, 10.000626, 9.997987 
2.7342227e+3, 1.7997004e+2, -1343980.5, -1476572.5, -60347.277, 0.11880573, 0.09578337, -1320627.5, -144336.27, 0.0000025959862, 10.000019, 9.9982395 
2.7338368e+3, 1.899609e+2, -942481.7, -1126529.4, -67882.49, 0.08779746, 0.02799361, -920153.4, 158226.8, 0.0, 10.001682, 9.999152 
2.7334508e+3, 1.9995184e+2, -691728.56, -1109284.8, -56740.832, 0.047074992, -0.024890704, -684155.5, 296312.4, 0.0, 10.003351, 9.997806 
2.7330643e+3, 2.099415e+2, -652737.06, -1107458.0, -36063.234, -0.020116318, -0.05293917, -649894.7, 232673.67, 0.0, 10.003287, 9.997148 
2.7326784e+3, 2.199308e+2, -586878.4, -1036550.3, -35291.293, -0.061889365, -0.10151627, -584125.44, 200547.4, 0.0, 10.003072, 9.9971 
2.7322936e+3, 2.2992095e+2, -383254.28, -795304.2, -69015.39, 0.1076647, -0.10965972, -372001.97, 314771.13, 0.0, 10.003447, 9.997875 
2.7319092e+3, 2.3991194e+2, -266640.7, -729132.6, -73435.82, 0.2920314, -0.059817556, -255260.34, 333604.8, 0.0, 10.003709, 9.99755 
2.7315226e+3, 2.4990328e+2, -189414.03, -589424.6, -38484.117, 0.22819231, 0.026746321, -185745.22, 305203.03, 0.0, 10.003399, 9.997954 
2.731136e+3, 2.5989395e+2, -203705.7, -610174.1, -20446.31, 0.12734646, 0.049829837, -202679.8, 190357.44, 0.0, 10.002853, 9.997434 
2.73075e+3, 2.6988342e+2, -229684.88, -537591.0, -75709.01, 0.14010039, -0.026544712, -212076.28, 83066.86, 0.0, 10.001864, 9.997725 
2.7303642e+3, 2.7987385e+2, -250225.88, -452928.28, -120077.945, 0.24872102, -0.037408657, -194444.08, 2797.9402, 0.0, 10.000817, 9.998167 
2.729979e+3, 2.898677e+2, -79014.805, -176489.16, -148836.78, 0.47361928, 0.1796164, 28861.244, 128173.86, 0.0, 10.000738, 9.999415 
2.7295923e+3, 2.9986164e+2, -57131.21, -186636.84, -31761.916, 0.54736555, 0.38351825, -49760.89, -48378.72, 0.0, 10.000505, 9.998798 
2.7292052e+3, 3.0985174e+2, -199544.78, -171537.14, 26016.89, 0.19792265, 0.21684079, -155994.63, -155994.63, 0.0, 9.998978, 9.999274 
2.7288258e+3, 3.1984624e+2, -185606.31, 550506.75, 10849.221, 0.57809585, 0.35604432, 550666.6, 550666.6, 0.0, 9.995958, 10.005698 
2.7461392e+3, 1.3039389e+2, -1949039.1, -1771869.5, 82321.51, -0.09546378, 0.0527229, -1739524.1, -77384.4, 0.012335995, 9.998183, 10.000414 
2.7457535e+3, 1.4038643e+2, -1653324.8, -1663471.6, -11830.992, -0.27726194, -0.00563121, -1645525.3, -81312.17, 0.0067410422, 9.999862, 9.999735 
2.7453682e+3, 1.5037744e+2, -1408394.8, -1414167.3, -91063.63, -0.27236867, -0.19196929, -1320171.6, 146123.63, 0.002584837, 10.000581, 10.000389 
2.744984e+3, 1.6036879e+2, -1383473.5, -1578103.8, -127681.66, -0.1640451, -0.32482785, -1320249.4, 48125.17, 0.0005889778, 10.00102, 9.998404 
2.744601e+3, 1.7036203e+2, -1144076.9, -1510032.0, -51582.3, 0.057215743, -0.047002133, -1136945.3, 133501.05, 0.00006228534, 10.002466, 9.997463 
2.744218e+3, 1.8035497e+2, -970867.75, -1386106.8, -38195.086, 0.2375097, 0.23617683, -967383.6, 205138.16, 0.0000011486238, 10.002981, 9.997434 
2.7438322e+3, 1.903436e+2, -991813.5, -1203002.1, -95651.19, 0.16749273, -0.0073392424, -954932.2, 119699.414, 0.0, 10.0015955, 9.998648 
2.7434456e+3, 2.0033245e+2, -1170469.0, -1332867.6, -145984.53, 0.053885292, -0.24742284, -1084621.0, -107883.04, 0.0, 10.00007, 9.997853 
2.743059e+3, 2.1032476e+2, -996350.5, -1175424.8, -108472.195, -0.013800539, -0.08915894, -945235.2, -66422.44, 0.0, 10.000536, 9.997998 
2.7426732e+3, 2.2031696e+2, -932722.94, -1204242.8, -62121.11, -0.06000364, 0.081789985, -919185.2, -138294.52, 0.0, 10.000735, 9.99707 
2.7422875e+3, 2.3030521e+2, -761857.44, -1040045.5, -82917.18, -0.02045375, -0.08166652, -739018.1, -56005.246, 0.0, 10.001154, 9.997283 
2.7419022e+3, 2.4029416e+2, -649195.7, -912079.1, -97050.67, 0.038001183, -0.19093816, -617249.0, -32121.756, 0.0, 10.001101, 9.997551 
2.7415168e+3, 2.5028947e+2, -456243.75, -626226.06, -71848.016, 0.10980569, 0.21503592, -429944.13, 57227.52, 0.0, 10.001157, 9.998788 
2.7411312e+3, 2.6028427e+2, -491162.6, -733794.75, -54228.785, 0.14196543, 0.5821863, -479593.94, -90374.266, 0.0, 10.000824, 9.997566 
2.7407435e+3, 2.7026963e+2, -399045.75, -651607.9, -42535.195, 0.08230287, 0.10637757, -392074.6, -100715.92, 0.0, 10.000853, 9.997425 
2.740356e+3, 2.802552e+2, -302389.72, -498920.03, -14277.9375, 0.06760986, -0.34879607, -301357.84, -107859.836, 0.0, 10.000579, 9.997962 
2.7399704e+3, 2.9024997e+2, -27428.674, -117396.055, -78167.36, 0.29239497, -0.056264184, 17774.49, 113332.47, 0.0, 10.000956, 9.99971 
2.7395838e+3, 3.002455e+2, -41103.96, -214448.89, -42850.67, 0.35067755, 0.2946784, -31089.838, -31089.838, 0.0, 10.000785, 9.998472 
2.739195e+3, 3.102362e+2, -186663.56, -248324.34, -22874.475, 0.023179596, 0.23996459, -179104.44, -179104.44, 0.0, 9.999423, 9.998533 
2.7388197e+3, 3.2022697e+2, -68688.6, 438111.44, -186883.78, 1.0303553, 0.09184462, 499571.88, 499571.88, 0.0, 9.997439, 10.004241 
2.756134e+3, 1.3077687e+2, -1857984.3, -1757706.5, 138162.38, 0.24822453, -0.1441138, -1660866.6, -2482.6372, 0.008664529, 9.998915, 10.000171 
2.7557477e+3, 1.4077072e+2, -1675177.6, -1767765.8, 38720.77, -0.15057836, -0.024359856, -1661119.0, -100679.94, 0.0045890985, 10.000102, 9.998905 
2.7553627e+3, 1.5076253e+2, -1503283.5, -1626628.8, -51448.754, -0.16461195, 0.0102233635, -1484641.1, -22116.031, 0.001677919, 10.000655, 9.998896 
2.7549785e+3, 1.6075404e+2, -1325014.9, -1527389.8, -57583.895, -0.08574301, 0.006356916, -1309777.3, 54835.242, 0.00035822205, 10.001307, 9.998615 
2.7545965e+3, 1.7074504e+2, -1000038.56, -1278776.1, 25740.287, 0.046497986, -0.050705507, -997681.44, 269015.9, 0.000033741435, 10.00273, 9.998932 
2.7542135e+3, 1.8073598e+2, -898791.3, -1376705.6, -44125.56, 0.15053087, -0.0640414, -894751.4, 274032.72, 0.00000040337267, 10.003558, 9.997217 
2.7538258e+3, 1.9072561e+2, -1119794.3, -1477539.1, -165336.19, 0.13329898, -0.04569041, -1055086.4, 15804.003, 0.0, 10.001627, 9.996749 
2.7534384e+3, 2.0071565e+2, -1168529.6, -1296243.4, -169488.7, 0.109837055, -0.036762092, -1051267.4, -78275.76, 0.0, 9.999898, 9.9981985 
2.7530536e+3, 2.1070749e+2, -922468.0, -942254.75, -78780.2, 0.1403734, -0.06672598, -852962.4, 22106.898, 0.0, 10.000144, 9.999819 
2.7526683e+3, 2.2069979e+2, -926634.8, -1126265.8, -39272.332, 0.15714255, -0.025595197, -919186.9, -142041.97, 0.0, 10.000459, 9.997723 
2.7522817e+3, 2.3069215e+2, -887478.7, -1156657.9, -66777.47, 0.06787657, 0.25383705, -871823.2, -192590.48, 0.0, 10.000531, 9.996782 
2.7518952e+3, 2.4068375e+2, -696125.8, -877671.0, -85361.164, 0.024199799, 0.43237534, -662294.25, -80969.56, 0.0, 10.000489, 9.998088 
2.7515104e+3, 2.5067303e+2, -529454.94, -561985.7, -68438.164, 0.17772391, 0.16115475, -475375.84, 8043.1147, 0.0, 10.000191, 9.999705 
2.751125e+3, 2.6066297e+2, -482969.3, -510722.3, -25872.49, 0.28933415, -0.07370841, -467486.94, -81981.586, 0.0, 9.999923, 9.999526 
2.7507368e+3, 2.7065384e+2, -289865.13, -308756.8, 48787.176, 0.11939358, -0.22917826, -249617.78, 37966.465, 0.0, 10.0003805, 9.99999 
2.7503487e+3, 2.8064477e+2, -262628.06, -475822.6, 125848.79, 0.02376045, -0.32041743, -204298.4, -14631.083, 0.0, 10.000854, 9.997975 
2.749964e+3, 2.906376e+2, -128822.28, -414830.44, 14354.491, 0.2597374, -0.027319983, -128103.65, -36352.742, 0.0, 10.001359, 9.997463 
2.7495778e+3, 3.0063024e+2, 5942.2817, -281960.53, -36024.04, 0.361906, 0.22760117, 10381.37, 10381.37, 0.0, 10.001483, 9.997683 
2.7491897e+3, 3.106189e+2, -13353.472, -157912.89, -33396.953, 0.20609479, -0.010547675, -6010.867, -6010.867, 0.0, 10.000545, 9.998646 
2.7488095e+3, 3.206103e+2, 234579.36, 379775.97, -77633.5, 0.82087606, -0.054309946, 413467.25, 413467.25, 0.0, 10.00037, 10.002436 
2.7661297e+3, 1.3116062e+2, -1026794.06, -1074732.8, -83179.055, 0.38310945, 0.033663224, -964199.6, 690435.0, 0.0058009475, 10.0034275, 10.002706 
2.7657393e+3, 1.4115368e+2, -1522563.4, -1642325.0, -19020.664, -0.34692237, -0.12063888, -1519615.0, 37065.914, 0.0029651523, 10.000948, 9.999354 
2.7653566e+3, 1.5114677e+2, -1390259.0, -1630537.4, -2430.9136, -0.1428014, 0.064768955, -1390234.4, 68525.695, 0.0010274169, 10.00168, 9.998374 
2.7649748e+3, 1.6113918e+2, -1216713.6, -1501652.0, 37261.184, 0.09113469, 0.20002829, -1211921.6, 148923.7, 0.00020335741, 10.002188, 9.998371 
2.764591e+3, 1.7112897e+2, -1086657.4, -1286789.3, 33679.297, 0.019645981, 0.0068243705, -1081141.6, 181798.73, 0.000016580547, 10.002026, 9.999209 
2.7642068e+3, 1.8111894e+2, -1186760.3, -1511414.8, -131912.27, -0.029531145, -0.12688757, -1139920.1, 25113.959, 0.00000009587778, 10.001598, 9.997237 
2.7638194e+3, 1.911098e+2, -1191788.0, -1527534.6, -145394.38, 0.09268289, 0.0115001025, -1137578.0, -70448.19, 0.0, 10.001205, 9.996614 
2.7634323e+3, 2.0110078e+2, -1063808.5, -1220017.5, 2936.7517, 0.19760695, 0.13770917, -1063753.3, -94529.42, 0.0, 10.000532, 9.998414 
2.7630475e+3, 2.1109197e+2, -787030.9, -788406.5, 26216.318, 0.2527177, -0.018468104, -761493.3, 109814.234, 0.0, 10.000731, 10.00057 
2.7626625e+3, 2.210841e+2, -864125.25, -1050716.3, -7999.534, 0.2676259, -0.051344585, -863782.94, -90398.64, 0.0, 10.0007105, 9.998121 
2.7622753e+3, 2.3107919e+2, -796098.8, -1067137.8, 50896.31, 0.11937592, 0.4551622, -786856.5, -111410.11, 0.0, 10.000966, 9.997187 
2.7618885e+3, 2.4107268e+2, -644048.0, -837168.8, 77526.59, 0.02247232, 0.8055661, -616776.7, -39256.22, 0.0, 10.000816, 9.998205 
2.761504e+3, 2.5105762e+2, -458561.47, -510435.22, 7535.79, 0.23141785, 0.094211385, -457488.9, 22164.922, 0.0, 10.000636, 9.999835 
2.761119e+3, 2.6104394e+2, -357195.1, -316467.03, -27722.313, 0.37823048, -0.5451357, -302433.1, 79337.83, 0.0, 10.000251, 10.000698 
2.76073e+3, 2.710393e+2, -121174.56, -3876.988, -37117.785, 0.16272695, -0.44194975, 6881.7896, 290682.4, 0.0, 10.000597, 10.00198 
2.7603424e+3, 2.8103468e+2, -315801.4, -571888.3, -22455.816, 0.016377896, -0.22305942, -313847.22, -128009.805, 0.0, 10.000801, 9.997342 
2.7599576e+3, 2.9102552e+2, -243228.89, -720960.25, -51772.613, 0.22800715, 0.03679632, -237682.6, -149738.45, 0.0, 10.001656, 9.995217 
2.7595717e+3, 3.0101535e+2, -11886.98, -378277.66, -71701.61, 0.3475792, 0.18903841, 1645.0376, 1645.0376, 0.0, 10.001758, 9.996882 
2.7591854e+3, 3.1100163e+2, -9628.014, -126547.77, -86789.125, 0.45192873, -0.30206, 36553.92, 36553.92, 0.0, 10.000456, 9.998896 
2.758795e+3, 3.209954e+2, -5647.0415, 34270.883, 85011.06, 0.05501782, -0.07455454, 101634.54, 101634.54, 0.0, 9.999788, 10.000303 
2.7761254e+3, 1.3154463e+2, -763181.2, -477833.25, -170372.2, 0.31251273, 0.39039612, -398285.38, 1252604.4, 0.0036677546, 10.003189, 10.006936 
2.7757284e+3, 1.4153545e+2, -1387261.4, -1388608.6, -16390.664, -0.8097127, -0.31403244, -1371530.5, 181405.38, 0.001797831, 10.001059, 10.001042 
2.7753505e+3, 1.5153025e+2, -1345131.9, -1567457.0, 61015.992, -0.18991713, -0.009758371, -1329487.3, 125512.43, 0.00058470643, 10.001804, 9.998747 
2.7749723e+3, 1.6152412e+2, -1194317.9, -1535941.3, 59052.02, 0.33290243, 0.26308975, -1184398.4, 172675.33, 0.00010500734, 10.002508, 9.997982 
2.7745852e+3, 1.7151408e+2, -1136540.3, -1422331.5, 43141.914, -0.055353876, 0.17990263, -1130169.8, 129004.25, 0.0000068884756, 10.002142, 9.998232 
2.7741984e+3, 1.8150455e+2, -1063214.8, -1287225.8, -135491.06, -0.32313415, 0.117687926, -999427.56, 161840.19, 0.00000000965895, 10.001736, 9.998707 
2.7738127e+3, 1.9149701e+2, -985391.75, -1127145.4, -117611.805, 0.05009083, 0.18005875, -918951.2, 144390.38, 0.0, 10.001305, 9.999326 
2.7734274e+3, 2.0148908e+2, -977063.56, -1141538.8, 64051.477, 0.35096171, 0.22446331, -955062.9, 10356.85, 0.0, 10.000961, 9.998738 
2.773041e+3, 2.1147953e+2, -839912.0, -978803.25, 76757.52, 0.26619104, 0.12077183, -805847.2, 61666.05, 0.0, 10.0010805, 9.999095 
2.7726555e+3, 2.2147077e+2, -675347.8, -783616.7, 28120.611, 0.1693026, 0.056859866, -668479.75, 101118.83, 0.0, 10.001227, 9.999712 
2.772269e+3, 2.3146471e+2, -519573.84, -581032.9, 126415.555, 0.10506267, 0.17432606, -420206.47, 251452.45, 0.0, 10.001332, 10.000361 
2.771883e+3, 2.4145807e+2, -584104.1, -831314.56, 177120.97, 0.08837703, 0.31642914, -491723.03, 82003.305, 0.0, 10.001336, 9.997982 
2.7714977e+3, 2.514475e+2, -552286.1, -836600.2, 64223.668, 0.23777393, 0.2765258, -538451.8, -62618.645, 0.0, 10.001206, 9.997323 
2.771112e+3, 2.6143676e+2, -357874.56, -492501.72, -10264.281, 0.36779466, 0.15686063, -357096.47, 20840.137, 0.0, 10.001003, 9.99912 
2.7707255e+3, 2.714278e+2, -148727.88, -171697.64, -86314.63, 0.31238014, -0.030476922, -73137.4, 206871.55, 0.0, 10.001055, 10.000617 
2.7703384e+3, 2.8141946e+2, -241816.4, -518853.56, -94493.94, 0.26157656, -0.092092, -212655.23, -30574.943, 0.0, 10.001223, 9.997495 
2.7699518e+3, 2.9141125e+2, -73507.72, -521692.16, -62934.516, 0.20111604, 0.16872291, -64838.098, 19334.367, 0.0, 10.002294, 9.996274 
2.7695644e+3, 3.0140176e+2, 155169.52, -234095.86, -96001.04, 0.14795397, 0.29340005, 177557.77, 177557.77, 0.0, 10.002624, 9.997443 
2.769178e+3, 3.1138712e+2, -38231.477, -135506.78, -157586.3, 0.4462719, -0.30052322, 78052.25, 78052.25, 0.0, 10.000239, 9.998928 
2.7687865e+3, 3.213813e+2, -65058.67, -65072.566, 195742.8, -0.025690312, -0.016448833, 130677.17, 130677.17, 0.0, 9.999673, 9.999672 
2.7861166e+3, 1.3192876e+2, -1033593.6, -789849.94, 42799.97, -0.06580918, 0.27184236, -782553.0, 864564.25, 0.0021556194, 10.002166, 10.005237 
2.7857247e+3, 1.4191957e+2, -1231057.5, -1390700.5, -30013.385, -0.63427365, -0.29307225, -1225601.4, 323569.6, 0.0010016497, 10.002465, 10.000351 
2.7853456e+3, 1.5191412e+2, -1297616.1, -1521673.5, 29355.994, -0.15948112, -0.024795672, -1293833.8, 157403.56, 0.0002997044, 10.002043, 9.998943 
2.7849662e+3, 1.6190821e+2, -1342477.0, -1564914.1, 23943.617, 0.26153427, 0.24079405, -1339928.9, 13379.594, 0.00004641634, 10.001338, 9.998341 
2.7845794e+3, 1.7189918e+2, -1320259.1, -1467303.4, 97798.06, -0.07558582, 0.21205899, -1271429.5, -16029.382, 0.0000020738605, 10.000714, 9.998603 
2.784192e+3, 1.8189043e+2, -1219763.4, -1302441.5, -16657.883, -0.3256172, 0.2029327, -1216533.3, -59045.195, 0.00000000000031198744, 10.000418, 9.999231 
2.7838066e+3, 1.9188313e+2, -843633.8, -947050.0, -123546.15, 0.043117467, 0.19918716, -761411.4, 298147.6, 0.0, 10.001827, 10.000292 
2.7834216e+3, 2.0187564e+2, -776184.44, -1081773.4, -42744.152, 0.3455259, 0.22496942, -770318.25, 191313.86, 0.0, 10.002531, 9.998383 
2.783035e+3, 2.1186644e+2, -734921.3, -1035683.1, 16247.096, 0.22050887, 0.2219479, -734046.2, 129678.65, 0.0, 10.002281, 9.998122 
2.7826488e+3, 2.2185752e+2, -591329.94, -670119.44, -33015.445, 0.112344876, 0.18066269, -579324.6, 186487.38, 0.0, 10.001514, 10.000347 
2.7822635e+3, 2.3184983e+2, -506443.38, -387536.1, -82451.914, 0.1754813, -0.029408576, -345338.1, 322540.13, 0.0, 10.000629, 10.002022 
2.7818778e+3, 2.4184267e+2, -814786.06, -1023701.06, -101603.28, 0.21242575, -0.05070413, -773522.6, -203577.38, 0.0, 10.000131, 9.997241 
2.7814913e+3, 2.5183597e+2, -596952.4, -1047316.7, -87591.45, 0.20424366, 0.42433777, -580516.5, -108489.96, 0.0, 10.001754, 9.9956 
2.7811053e+3, 2.6182798e+2, -269877.2, -628695.2, -81193.62, 0.25733337, 0.73495597, -252359.83, 121755.26, 0.0, 10.002386, 9.997522 
2.7807203e+3, 2.7181527e+2, -231263.75, -383008.97, -125395.53, 0.43420208, 0.3152276, -160573.44, 115653.25, 0.0, 10.001232, 9.999081 
2.7803344e+3, 2.8180388e+2, -381053.4, -532931.56, -78961.734, 0.48352078, 0.033740405, -347440.22, -169111.55, 0.0, 10.000057, 9.997958 
2.7799457e+3, 2.9179686e+2, -271186.13, -433961.78, -7470.7915, 0.14286637, 0.27059734, -270843.97, -190441.66, 0.0, 10.000159, 9.997902 
2.7795565e+3, 3.0178845e+2, -154021.98, -317319.38, -114727.87, -0.115198895, 0.3824104, -94855.23, -94855.23, 0.0, 10.000235, 9.998025 
2.7791697e+3, 3.117738e+2, -97765.43, -149472.63, -196132.1, 0.35837796, -0.23671778, 74209.7, 74209.7, 0.0, 9.999799, 9.99904 
2.7787814e+3, 3.217679e+2, -195593.97, -162550.98, 371654.56, 0.16586614, 0.05753515, 192949.13, 192949.13, 0.0, 9.998911, 9.999395 
2.796107e+3, 1.323129e+2, -1383190.6, -1569773.0, 48533.15, -0.54883623, -0.14221998, -1371321.4, 272009.06, 0.0011582791, 10.002369, 9.999784 
2.795726e+3, 1.4230551e+2, -1335004.9, -1613688.1, -10604.554, -0.011526894, -0.09861164, -1334602.0, 210789.75, 0.00050213956, 10.002483, 9.998813 
2.7953407e+3, 1.5229827e+2, -1291696.5, -1497707.3, 40250.31, -0.13775998, 0.004671361, -1284111.8, 163361.73, 0.0001341216, 10.001995, 9.99913 
2.794957e+3, 1.6229127e+2, -1210170.1, -1334668.9, 23471.06, -0.12189266, 0.10247709, -1205892.3, 143657.88, 0.00001642319, 10.001509, 9.999845 
2.7945736e+3, 1.72284e+2, -1178930.1, -1182985.3, 97908.57, 0.012737148, 0.071409516, -1083028.1, 168590.92, 0.0000003300107, 10.000737, 10.000551 
2.794189e+3, 1.8227616e+2, -1217702.0, -1358956.4, 40862.33, 0.059488546, 0.047393598, -1206733.1, -53037.188, 0.0, 10.000634, 9.998753 
2.793801e+3, 1.9226676e+2, -909452.1, -1165842.1, -46259.453, 0.038069766, -0.003319616, -901361.06, 154432.66, 0.0, 10.002155, 9.998646 
2.7934143e+3, 2.022584e+2, -676455.2, -1030834.75, -35094.25, 0.060079716, 0.0406271, -673013.25, 284868.2, 0.0, 10.003204, 9.9984 
2.7930292e+3, 2.1225166e+2, -632051.0, -931110.3, 9437.761, 0.097288266, 0.25236493, -631753.44, 228198.36, 0.0, 10.002752, 9.998615 
2.7926442e+3, 2.2224393e+2, -619559.3, -852182.56, -63434.902, 0.19734833, 0.35410586, -603385.5, 158643.42, 0.0, 10.002012, 9.998855 
2.7922598e+3, 2.3223373e+2, -687947.5, -764794.44, -189055.17, 0.48683906, 0.13379842, -533450.75, 130672.02, 0.0, 10.000604, 9.99944 
2.791874e+3, 2.4222426e+2, -770786.06, -936596.3, -154170.2, 0.56616765, 0.022838864, -678643.44, -112431.38, 0.0, 10.000134, 9.99783 
2.7914852e+3, 2.522163e+2, -357085.75, -731161.5, -57864.35, 0.10293786, 0.20436032, -348339.44, 119957.11, 0.0, 10.002496, 9.997431 
2.7910978e+3, 2.6220798e+2, -56039.965, -486955.88, -122673.47, -0.08378108, 0.34675682, -23564.645, 346818.5, 0.0, 10.003659, 9.997883 
2.7907142e+3, 2.7219757e+2, -222705.64, -443356.25, -200153.98, 0.43019927, 0.20307033, -104484.91, 167995.8, 0.0, 10.00155, 9.998515 
2.7903283e+3, 2.8218803e+2, -359651.56, -341337.0, -96533.4, 0.68291825, 0.09071404, -253527.53, -78957.78, 0.0, 9.999446, 9.999547 
2.789937e+3, 2.9218125e+2, -389629.56, -229355.81, 296.93585, 0.11737812, 0.13278298, -229355.27, -152721.55, 0.0, 9.99823, 10.000224 
2.7895463e+3, 3.0217385e+2, -389176.44, -276021.3, -22800.861, -0.22457156, 0.15530837, -271599.7, -271599.7, 0.0, 9.997935, 9.999415 
2.7891633e+3, 3.1216395e+2, 35505.74, 8411.689, -64456.53, 0.48556405, -0.07195329, 87823.47, 87823.47, 0.0, 10.000286, 9.9999 
2.788774e+3, 3.22157e+2, -421294.8, -255105.94, 195107.08, 0.37215206, 0.07050778, -126135.625, -126135.625, 0.0, 9.997284, 9.999535 
2.8061026e+3, 1.3269745e+2, -1398787.5, -1675796.5, -79007.58, -0.509144, -0.3018173, -1377837.6, 261714.6, 0.00056117884, 10.002682, 9.998919 
2.8057232e+3, 1.4269136e+2, -1434667.0, -1679672.4, 63701.0, 0.20883152, -0.07240584, -1419094.6, 122512.125, 0.00022472383, 10.001907, 9.998632 
2.8053343e+3, 1.5268327e+2, -1332934.8, -1491510.4, 125946.67, -0.21463749, -0.071574315, -1263396.8, 180297.34, 0.00005269784, 10.001601, 9.999365 
2.8049484e+3, 1.6267551e+2, -1280693.0, -1380760.1, 72810.86, -0.35540587, -0.0481235, -1242381.9, 103394.43, 0.0000047753, 10.001112, 9.999703 
2.8045675e+3, 1.7266858e+2, -1202608.6, -1205143.0, -8629.822, 0.058293343, -0.04319586, -1195153.4, 52690.99, 0.00000002399446, 10.000627, 10.000446 
2.804184e+3, 1.8266118e+2, -1357743.0, -1443614.9, -104019.695, 0.27884874, -0.023873745, -1288146.4, -138227.78, 0.0, 9.999802, 9.99856 
2.8037947e+3, 1.9265191e+2, -1399923.5, -1425871.5, -53924.125, 0.057035364, -0.061095096, -1357434.6, -305417.94, 0.0, 9.998935, 9.998398 
2.803407e+3, 2.0264354e+2, -1287191.8, -1287226.6, 58543.88, -0.07537396, -0.0042908643, -1228665.4, -274560.03, 0.0, 9.998868, 9.998726 
2.8030235e+3, 2.1263756e+2, -868547.1, -959658.75, 116765.97, 0.04991524, 0.20909892, -788764.9, 67402.5, 0.0, 10.000779, 9.999356 
2.8026393e+3, 2.2263022e+2, -726792.25, -1047523.9, 44413.06, 0.24753577, 0.36038026, -720755.8, 37485.434, 0.0, 10.001936, 9.997549 
2.802255e+3, 2.3261875e+2, -611108.44, -943794.7, -12856.165, 0.63435405, 0.21119855, -610612.4, 49738.676, 0.0, 10.002093, 9.997494 
2.801869e+3, 2.426077e+2, -514563.13, -762674.06, 128228.305, 0.7079889, 0.07664243, -460202.66, 102254.29, 0.0, 10.001703, 9.998269 
2.801479e+3, 2.5259796e+2, -429253.1, -590441.0, 170536.22, 0.0019720949, -0.042867534, -321225.75, 143325.23, 0.0, 10.001281, 9.998971 
2.8010908e+3, 2.6258904e+2, -456724.47, -659838.25, -46933.332, -0.32255477, -0.043648977, -446404.0, -79765.484, 0.0, 10.000852, 9.998041 
2.8007078e+3, 2.7258107e+2, -359666.5, -535569.3, -119559.86, 0.40661478, 0.0752902, -299192.8, -30473.262, 0.0, 10.000739, 9.998264 
2.8003216e+3, 2.8257337e+2, -187283.83, -136288.6, -9662.196, 0.75886995, 0.13660158, -134519.25, 36275.63, 0.0, 10.000108, 10.000649 
2.7999276e+3, 2.92566e+2, -106517.58, 103969.375, -11644.535, 0.057905536, -0.03956995, 104611.61, 177470.0, 0.0, 9.999336, 10.001992 
2.7995363e+3, 3.025595e+2, -210469.88, -92235.94, -43210.383, -0.30137634, -0.074384496, -78127.55, -78127.55, 0.0, 9.998763, 10.000275 
2.799158e+3, 3.1255463e+2, -795.475, 61128.883, -82227.625, 0.6568476, 0.12847097, 118030.45, 118030.45, 0.0, 9.999745, 10.000518 
2.7987638e+3, 3.2254502e+2, -264948.63, -172611.7, -301891.66, 0.3476725, -0.048859004, 86621.38, 86621.38, 0.0, 9.998382, 9.999548 
2.8161007e+3, 1.3308263e+2, -1248306.5, -1360344.8, -83194.58, -0.25421926, -0.3259136, -1204028.8, 431745.38, 0.0002454923, 10.002639, 10.001119 
2.8157163e+3, 1.430771e+2, -1366469.4, -1549561.8, 64241.37, 0.07960471, -0.19297314, -1346177.9, 191639.36, 0.000090556605, 10.001942, 9.999516 
2.815327e+3, 1.5306915e+2, -1298873.6, -1427283.5, 137589.42, -0.3574543, -0.22009903, -1211246.0, 228653.61, 0.000018083496, 10.001614, 9.999808 
2.8149414e+3, 1.63061e+2, -1368495.0, -1596474.1, 69206.15, -0.46154714, -0.20123297, -1349131.3, -7144.1895, 0.000001252134, 10.001245, 9.998165 
2.8145602e+3, 1.7305273e+2, -1344808.1, -1526120.5, -4352.5244, 0.0039000504, -0.09779737, -1344703.8, -100624.08, 0.0000000065346386, 10.00073, 9.998199 
2.8141764e+3, 1.830455e+2, -1252605.0, -1244715.4, -140343.1, 0.26886958, 0.02772231, -1108261.6, 37896.918, 0.0, 9.999912, 9.999848 
2.813787e+3, 1.9303961e+2, -1307206.4, -1155599.8, -77207.26, 0.1513629, 0.14036246, -1123203.6, -74985.586, 0.0, 9.998597, 10.000414 
2.8134e+3, 2.0303273e+2, -1236526.8, -1085533.9, 158367.95, 0.08872676, 0.16497177, -985587.6, -35302.11, 0.0, 9.998429, 10.000325 
2.8130177e+3, 2.1302424e+2, -807470.75, -791919.2, 247775.23, 0.14348222, 0.010623985, -551797.75, 300567.1, 0.0, 10.000579, 10.00061 
2.8126338e+3, 2.2301582e+2, -618480.7, -913558.6, 137079.73, 0.20387179, -0.042585976, -564628.0, 189817.22, 0.0, 10.002327, 9.998276 
2.8122467e+3, 2.3300676e+2, -428205.78, -805116.7, 116883.33, 0.27825236, 0.016964672, -394902.0, 261631.86, 0.0, 10.003118, 9.997955 
2.81186e+3, 2.4299707e+2, -346253.38, -702341.4, 223295.36, 0.291498, 0.011648214, -238709.4, 319919.5, 0.0, 10.00294, 9.998081 
2.8114733e+3, 2.5298637e+2, -532927.75, -697919.8, 212990.48, 0.08847242, -0.137161, -387015.06, 73719.06, 0.0, 10.000816, 9.998457 
2.8110865e+3, 2.6297727e+2, -568288.56, -613944.9, 56108.508, 0.01818437, -0.1533217, -530542.06, -167718.42, 0.0, 9.999625, 9.998959 
2.8107e+3, 2.7297097e+2, -289868.78, -387633.72, 43556.484, 0.3375929, 0.045439083, -273278.63, -8392.623, 0.0, 10.00068, 9.999333 
2.8103122e+3, 2.829636e+2, -110732.836, -259258.77, 132179.0, 0.4916151, 0.14496589, -33383.547, 133574.63, 0.0, 10.001281, 9.999259 
2.8099212e+3, 2.9295373e+2, -16367.981, -106550.414, 17224.232, 0.113547936, -0.044172224, -13190.244, 55861.703, 0.0, 10.001021, 9.999754 
2.809532e+3, 3.029451e+2, -99015.53, -225956.67, -108329.766, 0.008374702, -0.08981135, -36931.92, -36931.92, 0.0, 10.0003395, 9.998587 
2.8091517e+3, 3.129389e+2, -189548.61, -208490.58, -219528.11, 0.89145243, 0.13894725, 20712.717, 20712.717, 0.0, 9.9992075, 9.998926 
2.8087547e+3, 3.2292524e+2, 309788.97, 147123.8, -328097.47, 0.16572225, -0.38227466, 566484.44, 566484.44, 0.0, 10.002124, 9.99995 
2.826097e+3, 1.3347146e+2, -1238000.1, -1332426.6, -23571.691, -0.12035776, -0.17446578, -1232443.0, 399514.56, 0.000102913014, 10.002682, 10.0012455 
2.8257087e+3, 1.4346236e+2, -1384659.1, -1645014.8, 41210.93, -0.14581077, -0.36974627, -1378291.6, 155745.98, 0.00003434366, 10.002222, 9.998706 
2.8253213e+3, 1.534545e+2, -1373159.4, -1552355.1, 17621.223, -0.3568521, -0.31629434, -1371443.0, 64676.88, 0.0000055031255, 10.001521, 9.998978 
2.824936e+3, 1.6344672e+2, -1466451.1, -1652699.8, -50623.61, -0.3316667, -0.21902281, -1453580.8, -115376.94, 0.0000002527922, 10.000633, 9.998066 
2.8245533e+3, 1.734388e+2, -1507243.1, -1604675.9, 47297.305, 0.026963612, -0.0980301, -1488060.1, -247765.84, 0.0, 9.999659, 9.998163 
2.8241685e+3, 1.8343166e+2, -1227683.4, -1214865.6, 14146.845, 0.22538342, 0.0497477, -1205743.6, -63370.723, 0.0, 10.000004, 10.000014 
2.82378e+3, 1.9342597e+2, -708703.25, -822128.75, -51451.043, 0.1786762, 0.1442919, -688842.25, 355586.2, 0.0, 10.002518, 10.000812 
2.823394e+3, 2.0341933e+2, -576317.25, -751326.4, 65432.81, 0.17379609, 0.15771659, -554558.4, 391933.0, 0.0, 10.002945, 10.000433 
2.8230116e+3, 2.1341015e+2, -784488.06, -759380.25, 60720.902, 0.22079283, -0.102621965, -709929.1, 138646.52, 0.0, 10.00069, 10.000771 
2.8226277e+3, 2.2340156e+2, -926710.44, -1023184.44, -84061.97, 0.17827302, -0.21255772, -878028.8, -127372.984, 0.0, 10.000067, 9.998609 
2.8222394e+3, 2.3339401e+2, -569614.8, -810193.56, -81420.12, 0.016346162, -0.0946534, -544650.06, 108080.164, 0.0, 10.001899, 9.998503 
2.821853e+3, 2.433854e+2, -441772.6, -799174.94, -55919.914, -0.008317469, -0.026947428, -433227.56, 121587.78, 0.0, 10.002526, 9.99762 
2.8214684e+3, 2.5337455e+2, -528288.94, -768397.75, -64930.496, 0.23577218, -0.15795884, -511855.16, -54931.875, 0.0, 10.001184, 9.997791 
2.8210822e+3, 2.633657e+2, -418201.03, -472663.56, -129521.375, 0.33582604, -0.15414897, -313079.25, 45930.465, 0.0, 10.000391, 9.999553 
2.820692e+3, 2.7336022e+2, -149837.42, -212049.48, -131335.36, 0.22166188, 0.008379205, -45974.707, 215084.52, 0.0, 10.001207, 10.000277 
2.820303e+3, 2.8335288e+2, -232111.92, -524258.94, -70970.914, 0.16920811, 0.112680525, -215783.64, -52653.074, 0.0, 10.001368, 9.997382 
2.8199154e+3, 2.9334113e+2, -191220.8, -461992.3, -89244.16, 0.18411542, -0.05903002, -164452.86, -99203.58, 0.0, 10.000996, 9.997317 
2.819528e+3, 3.033306e+2, -183149.6, -468322.66, -154799.83, 0.31055278, -0.07703174, -115274.945, -115274.945, 0.0, 10.000647, 9.996775 
2.819145e+3, 3.133225e+2, -100085.71, -347479.06, -192565.23, 0.9865724, 0.1181934, 5089.278, 5089.278, 0.0, 10.000614, 9.9972925 
2.8187475e+3, 3.2330456e+2, 196008.11, 184806.22, 74159.914, -0.101055026, -0.75858337, 264778.28, 264778.28, 0.0, 10.000948, 10.00077 
2.8360924e+3, 1.3386188e+2, -1344131.8, -1513785.6, -47314.38, -0.13447028, 0.012974326, -1331828.6, 296296.03, 0.00004648075, 10.002464, 10.000123 
2.8357008e+3, 1.4384727e+2, -1507220.5, -1883505.3, 33561.168, -0.4326839, -0.588665, -1504250.6, 26015.098, 0.000014306027, 10.002147, 9.997107 
2.835317e+3, 1.5383933e+2, -1509098.3, -1822152.4, 19475.475, -0.2164849, -0.35328, -1507891.3, -75537.44, 0.0000019516297, 10.001469, 9.997152 
2.8349325e+3, 1.6383252e+2, -1311864.3, -1339525.4, -71853.445, -0.0040673693, -0.14968647, -1252522.5, 81905.336, 0.00000005936716, 10.000648, 10.000212 
2.8345463e+3, 1.7382684e+2, -1323144.8, -1235733.6, 34210.45, 0.10627401, -0.04638147, -1223936.8, 12549.139, 0.0, 9.999673, 10.000706 
2.8341603e+3, 1.8381935e+2, -1259621.5, -1363250.5, 132591.02, 0.14080445, -0.02891198, -1169080.4, -30518.44, 0.0, 10.000313, 9.998864 
2.833775e+3, 1.9380926e+2, -719551.06, -1041692.5, 79886.18, 0.085689, -0.17954902, -700828.6, 339834.06, 0.0, 10.003336, 9.998921 
2.83339e+3, 2.0380086e+2, -549477.5, -940777.3, -22446.912, 0.1255089, -0.15447782, -548194.0, 394554.06, 0.0, 10.003993, 9.998624 
2.8330055e+3, 2.1379435e+2, -889297.0, -1027379.25, -88343.78, 0.2669527, 0.049104642, -846216.3, -1399.2067, 0.0, 10.000891, 9.998837 
2.832621e+3, 2.2378677e+2, -944313.8, -995987.4, -93475.15, 0.2991165, 0.13067526, -873170.5, -126277.38, 0.0, 9.999766, 9.998948 
2.8322354e+3, 2.3377758e+2, -533779.9, -726129.5, -76495.016, 0.16581535, 0.02809813, -507068.22, 141911.92, 0.0, 10.001821, 9.999134 
2.8318498e+3, 2.437687e+2, -410334.53, -786217.25, -159768.84, 0.1952681, 0.025487142, -351601.94, 199464.13, 0.0, 10.002737, 9.997607 
2.831465e+3, 2.5375983e+2, -443001.2, -753848.5, -189708.44, 0.4798556, 0.11103619, -353178.44, 99976.16, 0.0, 10.001855, 9.997576 
2.8310776e+3, 2.6375064e+2, -266955.72, -410670.56, -210230.73, 0.51929575, 0.08563992, -116641.03, 238600.7, 0.0, 10.001465, 9.999457 
2.8306857e+3, 2.7374128e+2, -65653.75, -208983.73, -260782.23, 0.15661846, -0.12005353, 133131.33, 390455.84, 0.0, 10.001951, 9.999937 
2.8302962e+3, 2.8373238e+2, -63382.0, -307022.28, -225250.72, 0.049924403, -0.21600053, 70879.945, 230287.67, 0.0, 10.001928, 9.998608 
2.82991e+3, 2.9372334e+2, -55486.973, -260575.3, -179679.53, 0.27919242, -0.24970852, 48850.57, 110351.12, 0.0, 10.001331, 9.998543 
2.8295216e+3, 3.0371618e+2, 60722.402, -181913.13, -87114.11, 0.3201051, -0.06793425, 88759.48, 88759.48, 0.0, 10.001581, 9.998292 
2.829134e+3, 3.1371206e+2, 369038.56, 15458.105, -47598.004, 0.38405082, 0.39351317, 375333.97, 375333.97, 0.0, 10.0032215, 9.998538 
2.828742e+3, 3.2369575e+2, -215796.94, -51802.883, -100187.84, 0.20445749, -0.36622983, -4335.181, -4335.181, 0.0, 9.998294, 10.00042 
2.8460863e+3, 1.3424686e+2, -1680860.5, -1855633.3, -181014.95, -0.16285312, -0.16757652, -1567242.5, 57107.043, 0.000024388144, 10.000928, 9.998526 
2.8456968e+3, 1.4423555e+2, -1644336.3, -1841914.5, -21.43442, -0.23477334, -0.4104114, -1644336.3, -117869.83, 0.000007474148, 10.000757, 9.998056 
2.8453124e+3, 1.5422703e+2, -1385469.9, -1650246.4, 175187.38, -0.093131915, -0.34564403, -1298273.9, 130278.18, 0.0000012508747, 10.001846, 9.998144 
2.8449273e+3, 1.6421978e+2, -1067738.5, -1231852.1, 97126.78, 0.05596714, -0.2089605, -1022646.1, 307980.25, 0.000000073245815, 10.002397, 10.0000925 
2.8445396e+3, 1.7421405e+2, -971107.4, -1076999.4, -9121.031, 0.073496304, -0.096633494, -970327.5, 262357.8, 0.0, 10.002174, 10.000575 
2.8441533e+3, 1.8420617e+2, -1091680.3, -1355617.5, 94094.305, 0.047564693, -0.086895645, -1061570.4, 73194.21, 0.0, 10.001822, 9.998179 
2.8437692e+3, 1.941948e+2, -1036756.0, -1288307.3, 145327.22, 0.0073193717, -0.3063976, -970335.1, 66543.2, 0.0, 10.001593, 9.998062 
2.8433853e+3, 2.0418566e+2, -933201.75, -1248421.6, 25470.291, 0.09601834, -0.2529365, -931157.0, 7816.5947, 0.0, 10.001893, 9.99752 
2.8430006e+3, 2.141796e+2, -773407.06, -1119950.1, 12479.159, 0.33587208, 0.11649395, -772958.3, 68085.234, 0.0, 10.002328, 9.997513 
2.8426158e+3, 2.2417197e+2, -574700.44, -820968.75, 130941.83, 0.4047893, 0.28902203, -518090.9, 225032.56, 0.0, 10.002353, 9.99889 
2.842231e+3, 2.3416173e+2, -437441.53, -672772.7, 103014.32, 0.25563908, 0.080939025, -398719.3, 246501.33, 0.0, 10.002487, 9.999168 
2.841846e+3, 2.4415268e+2, -453083.72, -781818.06, -79770.836, 0.2968288, 0.06243194, -434749.1, 112558.21, 0.0, 10.002362, 9.997805 
2.8414607e+3, 2.54145e+2, -468561.53, -752611.44, -68691.65, 0.6128859, 0.24853344, -452822.0, -3439.4573, 0.0, 10.001637, 9.997682 
2.8410724e+3, 2.6413533e+2, -371830.22, -499185.7, -39170.96, 0.5996762, 0.20126739, -360746.88, -9273.971, 0.0, 10.000951, 9.99908 
2.8406796e+3, 2.741226e+2, -297822.75, -389863.3, -91021.24, 0.12502931, -0.2842398, -241849.25, 11737.627, 0.0, 10.000675, 9.999298 
2.8402895e+3, 2.8411266e+2, -191661.61, -218320.52, -116577.74, -0.012296718, -0.48617345, -87653.75, 68024.96, 0.0, 10.000426, 9.9999275 
2.839904e+3, 2.941064e+2, -93779.586, -105687.44, -119308.086, 0.32338852, -0.40102664, 19723.05, 77467.234, 0.0, 10.000332, 10.000086 
2.8395143e+3, 3.041025e+2, -10359.857, -25093.396, -21120.406, 0.17897749, -0.04322177, 4641.674, 4641.674, 0.0, 10.000291, 9.999982 
2.8391218e+3, 3.1410202e+2, 115611.2, 83106.2, -6003.9556, -0.33966222, 0.604935, 116684.73, 116684.73, 0.0, 10.000683, 10.000216 
2.838739e+3, 3.2408997e+2, -121317.62, -120702.93, -546807.2, 0.78492576, 0.20398064, 425797.0, 425797.0, 0.0, 9.999454, 9.999376 
2.85608e+3, 1.346295e+2, -1789715.8, -2123617.5, -211631.81, -0.13551629, -0.48839402, -1687110.3, -66508.87, 0.00001298758, 10.001069, 9.996647 
2.8556952e+3, 1.4462623e+2, -1384260.4, -1329429.0, 63329.125, 0.270159, 0.022752345, -1287836.0, 234810.16, 0.000003738906, 10.000838, 10.001548 
2.8553075e+3, 1.5461712e+2, -1127848.1, -1126315.1, 233800.38, -0.06745483, -0.33054012, -893280.0, 531438.3, 0.00000051506584, 10.001862, 10.001746 
2.8549203e+3, 1.6460837e+2, -1225560.5, -1595732.1, 102449.59, -0.1527406, -0.41253418, -1199098.0, 127704.16, 0.00000002542409, 10.002545, 9.997529 
2.854533e+3, 1.746e+2, -1141710.4, -1496148.5, 4811.2456, -0.08376688, -0.25059202, -1141645.1, 87253.01, 0.0, 10.002446, 9.997569 
2.854147e+3, 1.8459226e+2, -985836.8, -1196936.5, 94193.94, -0.05877156, -0.111746356, -949918.4, 181063.47, 0.0, 10.002095, 9.999127 
2.8537628e+3, 1.9458461e+2, -969436.9, -1128807.0, 154518.45, -0.055494506, -0.056737036, -875266.7, 157791.33, 0.0, 10.001494, 9.999208 
2.8533798e+3, 2.0457597e+2, -904259.0, -1171271.3, 104056.586, 0.11608393, -0.036983725, -868497.1, 66647.695, 0.0, 10.001777, 9.998123 
2.8529972e+3, 2.1456642e+2, -631078.9, -989033.6, 121648.14, 0.46083984, -0.057934064, -593651.1, 243590.89, 0.0, 10.002991, 9.998108 
2.8526124e+3, 2.2455725e+2, -486076.13, -892301.44, 208850.42, 0.4742596, -0.017948452, -397858.63, 341476.72, 0.0, 10.003444, 9.9978695 
2.8522253e+3, 2.3454799e+2, -430984.06, -803556.44, 161556.48, 0.109103054, 0.0059832316, -370687.53, 270740.75, 0.0, 10.003081, 9.997983 
2.8518388e+3, 2.4453878e+2, -300769.56, -516983.63, -32816.234, 0.08032178, -0.040635698, -295898.56, 247616.78, 0.0, 10.002558, 9.999539 
2.851453e+3, 2.5452968e+2, -294823.97, -456086.72, 21859.63, 0.42391026, -0.16606075, -291913.34, 153682.6, 0.0, 10.001881, 9.999614 
2.8510654e+3, 2.645207e+2, -399144.1, -550426.0, 70950.555, 0.5478843, -0.22252898, -371076.13, -23396.484, 0.0, 10.00092, 9.998745 
2.8506747e+3, 2.7451128e+2, -433877.38, -511487.25, 24484.777, 0.3776035, -0.2870985, -426798.47, -177027.52, 0.0, 9.999973, 9.998806 
2.8502843e+3, 2.8450313e+2, -334316.84, -318029.13, 27869.861, 0.23101242, -0.26577345, -297137.63, -145287.1, 0.0, 9.999536, 9.999688 
2.8498945e+3, 2.9449674e+2, -194331.77, -185411.84, -22530.824, 0.14011532, -0.14387578, -166903.8, -112989.016, 0.0, 9.9997635, 9.999818 
2.8495046e+3, 3.0448908e+2, -199732.48, -130069.22, -1984.8158, 0.023105225, -0.13741308, -130012.71, -130012.71, 0.0, 9.999056, 9.999852 
2.8491166e+3, 3.144803e+2, -359871.25, -153875.55, -45758.145, 0.057989597, -0.29748228, -144168.63, -144168.63, 0.0, 9.997481, 10.000118 
2.8487343e+3, 3.244761e+2, 470415.16, 174301.2, -316938.78, 0.9454895, 0.082318515, 672173.94, 672173.94, 0.0, 10.003444, 9.999505 
2.866078e+3, 1.3501765e+2, -1498412.9, -2012766.0, -93199.87, 0.17836607, -0.42250758, -1482046.0, 134748.16, 0.0000059629547, 10.003241, 9.996344 
2.8656888e+3, 1.4501326e+2, -1097883.0, -1228423.5, 74468.805, 0.1653027, 0.006222572, -1064129.0, 454722.34, 0.0000015122073, 10.003006, 10.001186 
2.8653017e+3, 1.5500396e+2, -1311572.9, -1254268.6, -25678.092, -0.026614996, -0.34086064, -1244446.0, 176480.9, 0.0000000966577, 10.000788, 10.001386 
2.864915e+3, 1.64995e+2, -1518241.8, -1749281.8, -139470.33, -0.1001198, -0.4499782, -1452662.8, -129651.32, 0.00000000026919006, 10.000613, 9.997406 
2.8645277e+3, 1.7498626e+2, -1183794.0, -1549906.6, -11703.505, -0.109741405, -0.33942574, -1183420.3, 41688.145, 0.0, 10.002313, 9.997268 
2.8641415e+3, 1.8497884e+2, -874356.75, -1094999.9, 114363.195, -0.09580591, -0.16716781, -825776.5, 301411.63, 0.0, 10.002657, 9.999555 
2.8637576e+3, 1.9497274e+2, -935333.25, -1070274.5, 114012.74, -0.01710059, -0.00680031, -870323.0, 158926.98, 0.0, 10.001574, 9.999561 
2.8633747e+3, 2.0496452e+2, -905185.2, -1095053.0, 112439.99, 0.16453044, 0.0041174144, -852962.06, 78368.53, 0.0, 10.001496, 9.998759 
2.8629926e+3, 2.1495377e+2, -687146.94, -943584.7, 144013.45, 0.4618239, -0.21547773, -622544.75, 210889.67, 0.0, 10.002346, 9.998713 
2.8626075e+3, 2.2494395e+2, -693484.1, -1070041.4, 207702.75, 0.4195658, -0.23537499, -601424.94, 134107.67, 0.0, 10.002368, 9.997166 
2.8622195e+3, 2.349351e+2, -742885.94, -1047297.5, 211394.53, 0.016614096, -0.101760454, -634603.25, 3021.8706, 0.0, 10.001378, 9.997123 
2.8618324e+3, 2.4492584e+2, -458134.44, -462299.3, -3481.5334, -0.034648266, -0.15869817, -456160.1, 83552.625, 0.0, 10.000953, 10.000673 
2.861446e+3, 2.549158e+2, -366503.13, -377515.88, -46418.516, 0.29613462, -0.49622732, -325265.53, 116532.86, 0.0, 10.0009365, 10.000598 
2.8610584e+3, 2.6490763e+2, -411975.22, -592972.75, -33970.28, 0.5042421, -0.5106805, -405809.56, -61934.67, 0.0, 10.001006, 9.998405 
2.8606698e+3, 2.749012e+2, -303238.47, -497340.88, -26392.436, 0.59128773, -0.258483, -299713.88, -53770.004, 0.0, 10.001093, 9.9983635 
2.8602785e+3, 2.8489465e+2, -185978.13, -308268.25, 20120.66, 0.4175335, -0.028464995, -182752.7, -34741.31, 0.0, 10.000856, 9.999108 
2.859885e+3, 2.9488778e+2, -140952.64, -240151.19, -26264.049, -0.050325852, 0.10495132, -134428.05, -84349.37, 0.0, 10.000493, 9.999089 
2.8594956e+3, 3.0487534e+2, -67812.05, -118327.914, -63501.305, -0.06427475, -0.30967987, -24729.813, -24729.813, 0.0, 10.000191, 9.999384 
2.859113e+3, 3.1485733e+2, -94070.7, -97400.086, -87607.805, 0.62693286, -1.3463274, -8111.7695, -8111.7695, 0.0, 9.999609, 9.999491 
2.8587282e+3, 3.2486185e+2, 334810.8, 164483.1, 183003.34, 0.718054, -0.08063332, 451496.2, 451496.2, 0.0, 10.00225, 10.000036 
2.876076e+3, 1.3540821e+2, -1481030.5, -1918412.6, -59622.22, 0.44145766, -0.25440612, -1473048.6, 139909.34, 0.0000021473002, 10.002952, 9.997138 
2.8756788e+3, 1.4539748e+2, -1374861.6, -1749687.5, -10945.525, -0.37034792, -0.31932935, -1374542.3, 140535.31, 0.00000043033984, 10.002754, 9.997731 
2.8752962e+3, 1.5538786e+2, -1559864.4, -1754423.9, -84839.13, 0.06709158, -0.3423286, -1528066.5, -110890.73, 0.000000019645139, 10.000702, 9.997996 
2.8749114e+3, 1.6537984e+2, -1285687.5, -1290871.9, -56952.887, 0.19770017, -0.3452095, -1231267.9, 87983.766, 0.0, 10.000689, 10.000524 
2.8745237e+3, 1.7537306e+2, -940190.4, -1088232.4, 73785.836, -0.018485907, -0.33675852, -909696.0, 311615.53, 0.0, 10.002467, 10.00037 
2.8741378e+3, 1.8536548e+2, -880051.56, -1148334.0, 87543.88, -0.020021591, -0.3160734, -854012.25, 269373.63, 0.0, 10.002791, 9.999141 
2.873754e+3, 1.9535723e+2, -935858.5, -1117959.6, 91639.016, 0.1833377, -0.31363118, -897727.4, 127743.7, 0.0, 10.0017395, 9.9991665 
2.8733698e+3, 2.0534965e+2, -805626.8, -925095.3, 159353.11, 0.23794211, -0.27203092, -695180.0, 232365.83, 0.0, 10.001668, 9.999824 
2.8729847e+3, 2.1534218e+2, -592913.7, -787396.2, 194874.3, 0.16118637, -0.25426802, -472366.4, 357249.84, 0.0, 10.002506, 9.999699 
2.8726e+3, 2.253334e+2, -634657.6, -942244.25, 192078.4, 0.16574848, -0.26221147, -542388.94, 189313.89, 0.0, 10.002313, 9.998077 
2.8722152e+3, 2.3532361e+2, -714750.25, -928058.4, 215076.13, 0.19043286, -0.29748034, -581335.94, 52466.08, 0.0, 10.00108, 9.9980955 
2.871829e+3, 2.453148e+2, -632391.9, -758139.44, 46007.94, 0.30884007, -0.2602623, -617356.44, -81464.484, 0.0, 10.0006275, 9.99882 
2.8714415e+3, 2.553065e+2, -492684.3, -633392.2, -49345.8, 0.5280451, -0.22480302, -477104.06, -39128.156, 0.0, 10.000868, 9.998892 
2.8710526e+3, 2.652983e+2, -252332.44, -372886.44, -21475.06, 0.5519661, -0.22951311, -248621.19, 91432.77, 0.0, 10.001478, 9.999689 
2.8706622e+3, 2.7529022e+2, -11174.61, -217571.9, 8818.737, 0.4075875, -0.25934488, -10798.497, 231328.86, 0.0, 10.002491, 9.999611 
2.8702727e+3, 2.8528225e+2, -8479.036, -301971.66, 19413.64, 0.38962173, -0.19579805, -7200.4526, 137005.78, 0.0, 10.002428, 9.998392 
2.8698832e+3, 2.9527408e+2, -13677.127, -252908.44, -32286.885, 0.4016801, -0.10926216, -9396.262, 36895.02, 0.0, 10.001688, 9.998425 
2.869493e+3, 3.052636e+2, 213316.63, 6717.5566, 250.84047, 0.30662537, -0.2886559, 213316.92, 213316.92, 0.0, 10.002157, 9.999295 
2.8691053e+3, 3.152508e+2, 521134.8, 186906.2, -29486.56, 0.4171119, -0.7858524, 523716.25, 523716.25, 0.0, 10.003874, 9.999394 
2.868719e+3, 3.2524744e+2, -125175.3, -117845.336, 26238.441, 0.5218116, -0.275582, -95017.15, -95017.15, 0.0, 9.999374, 9.999452 
2.8860667e+3, 1.3579221e+2, -1598904.0, -1762893.3, -304518.6, 0.030077998, -0.2748104, -1365534.3, 243665.83, 0.0000003382392, 10.001228, 9.999027 
2.885675e+3, 1.4578228e+2, -1553410.1, -1882091.0, -171013.3, -0.24381988, -0.3583368, -1480572.8, 30732.863, 0.000000039050374, 10.001723, 9.997313 
2.8852892e+3, 1.557738e+2, -1360609.0, -1712478.4, -62055.29, -0.020157985, -0.22328287, -1349985.8, 63414.08, 0.0000000006124831, 10.002305, 9.997513 
2.8849047e+3, 1.6576625e+2, -960949.75, -968366.5, 50662.625, 0.14179611, -0.22458643, -913860.0, 401609.25, 0.0, 10.002232, 10.001982 
2.8845194e+3, 1.7575942e+2, -973291.5, -953276.06, 65159.848, 0.071703665, -0.3812232, -897359.9, 320160.25, 0.0, 10.0016165, 10.001699 
2.8841335e+3, 1.8575165e+2, -1048002.4, -1225333.3, 11969.983, 0.06758573, -0.44589597, -1047198.06, 72393.8, 0.0, 10.00168, 9.999122 
2.8837484e+3, 1.9574289e+2, -918204.3, -1115067.5, 53265.664, 0.20636557, -0.5085141, -904716.25, 116965.92, 0.0, 10.001916, 9.999095 
2.8833637e+3, 2.0573567e+2, -761872.44, -865643.5, 136724.25, 0.18438734, -0.44726735, -667519.75, 256234.11, 0.0, 10.00182, 10.000163 
2.8829783e+3, 2.1572964e+2, -712924.44, -808477.75, 119772.305, 0.013347073, -0.33689392, -631751.44, 194059.63, 0.0, 10.001554, 10.000013 
2.882594e+3, 2.2572194e+2, -699868.44, -819892.2, 72580.77, 0.08044499, -0.33100334, -665702.9, 62182.152, 0.0, 10.001242, 9.999417 
2.8822103e+3, 2.3571265e+2, -729400.4, -824038.44, 134052.97, 0.35250762, -0.46175858, -634560.0, -4584.4995, 0.0, 10.000541, 9.999061 
2.8818244e+3, 2.4570444e+2, -693576.2, -963110.4, 74886.766, 0.5391669, -0.32645398, -674167.4, -142102.66, 0.0, 10.000999, 9.997214 
2.8814366e+3, 2.5569713e+2, -425921.28, -775278.25, 41390.766, 0.659693, -0.035090245, -421084.4, 13067.485, 0.0, 10.002111, 9.997306 
2.8810468e+3, 2.6568872e+2, -63400.773, -183169.95, 50933.727, 0.52328223, -0.023032028, -44669.79, 291562.78, 0.0, 10.00239, 10.000538 
2.8806552e+3, 2.7567917e+2, -32889.492, -151882.64, 18828.525, 0.20334521, -0.2996775, -29981.291, 208330.31, 0.0, 10.002049, 10.000263 
2.8802672e+3, 2.856698e+2, -173102.16, -433794.38, -35213.156, 0.36088166, -0.3787073, -168429.47, -28027.014, 0.0, 10.001551, 9.997898 
2.8798822e+3, 2.9566035e+2, -218313.33, -418971.97, -27289.188, 0.86913633, -0.37311417, -214668.27, -172163.34, 0.0, 10.0006, 9.997803 
2.879491e+3, 3.056533e+2, -23136.428, -111976.72, 85415.51, 0.62481487, -0.17564799, 28718.855, 28718.855, 0.0, 10.00057, 9.999248 
2.8790978e+3, 3.1564808e+2, 125106.81, -28349.842, 55187.24, 0.019867351, 0.10110705, 142892.34, 142892.34, 0.0, 10.001274, 9.99917 
2.878709e+3, 3.2563192e+2, -331311.44, -313766.5, -218489.0, 0.35865033, -0.6299664, -103873.93, -103873.93, 0.0, 9.998456, 9.9985075 
2.896055e+3, 1.3617273e+2, -1457465.0, -1407548.1, -278901.3, -0.5405479, -0.3804259, -1152490.8, 452994.4, 0.0000000028010363, 10.000917, 10.001632 
2.8956747e+3, 1.4616741e+2, -1444530.4, -1615285.1, -124113.72, 0.2907608, -0.21329413, -1379264.1, 128270.25, 0.0, 10.001525, 9.999248 
2.8952807e+3, 1.561617e+2, -1227208.3, -1432398.6, -21726.57, -0.3712961, 0.013197334, -1224933.0, 184666.02, 0.0, 10.00226, 9.999468 
2.8948957e+3, 1.6615388e+2, -950272.25, -958394.8, 39720.113, -0.26051491, -0.11456492, -914406.3, 397262.13, 0.0, 10.002263, 10.002035 
2.8945145e+3, 1.7614488e+2, -954435.44, -939422.25, 59098.582, 0.17456892, -0.48077306, -887355.44, 326384.06, 0.0, 10.001711, 10.001745 
2.8941286e+3, 1.8613744e+2, -985003.06, -1122739.8, 38600.977, 0.14198434, -0.54615813, -974922.75, 140883.83, 0.0, 10.001773, 9.999786 
2.8937402e+3, 1.9613065e+2, -838431.44, -1011879.6, 76367.8, -0.10347755, -0.46222258, -809599.9, 208274.78, 0.0, 10.002146, 9.999704 
2.8933564e+3, 2.0612262e+2, -772071.06, -948881.0, 122513.88, 0.0116602555, -0.47419026, -709396.25, 210559.94, 0.0, 10.002032, 9.999518 
2.8929752e+3, 2.1611392e+2, -726211.3, -847524.1, 95807.516, 0.28704786, -0.5582304, -673473.4, 148571.36, 0.0, 10.001549, 9.999769 
2.8925905e+3, 2.2610764e+2, -556368.3, -493378.97, 49627.06, 0.3706756, -0.52802306, -466096.44, 258006.55, 0.0, 10.001095, 10.001735 
2.8922036e+3, 2.3610243e+2, -563402.9, -512626.25, 123205.805, 0.36024457, -0.4707843, -412220.16, 213926.81, 0.0, 10.000643, 10.001156 
2.8918168e+3, 2.4609442e+2, -606094.3, -899903.6, 164167.77, 0.37796274, -0.41836745, -532699.1, -4468.6714, 0.0, 10.001485, 9.9974165 
2.8914294e+3, 2.5608477e+2, -244865.55, -657867.75, 151627.48, 0.39480865, -0.36975414, -195176.1, 235161.77, 0.0, 10.0032015, 9.997585 
2.891041e+3, 2.6607624e+2, -11073.755, -281250.78, 81605.12, 0.4021775, -0.32196286, 11661.375, 344085.38, 0.0, 10.003262, 9.9994545 
2.8906515e+3, 2.7606803e+2, -57726.832, -261763.97, 210.30643, 0.37628514, -0.33626416, -57726.617, 176772.38, 0.0, 10.00229, 9.999389 
2.8902617e+3, 2.860596e+2, -177225.77, -331251.75, -56020.566, 0.46100923, -0.32892537, -159005.86, -22422.607, 0.0, 10.001064, 9.998831 
2.8898722e+3, 2.9605088e+2, -249325.73, -326242.38, -5816.9756, 0.64187276, -0.3321335, -248888.31, -210212.39, 0.0, 9.999929, 9.998749 
2.889482e+3, 3.060434e+2, -216609.64, -133271.17, 159832.22, 0.52970666, -0.25012848, -9765.766, -9765.766, 0.0, 9.998963, 9.999886 
2.8890923e+3, 3.1603694e+2, -325925.44, -223133.63, 124287.86, 0.35107198, -0.12288957, -140034.14, -140034.14, 0.0, 9.998102, 9.999389 
2.8886998e+3, 3.2602808e+2, -302602.94, -341858.7, -181232.9, 0.35207897, -0.06037559, -139938.14, -139938.14, 0.0, 9.998806, 9.998219 
2.9060504e+3, 1.3656016e+2, -1576151.9, -1318616.6, -78759.89, -0.26467806, -0.09813061, -1296439.9, 305257.63, 0.00000000011876347, 9.999513, 10.002923 
2.9056683e+3, 1.4655156e+2, -1464491.6, -1507404.5, 3016.7996, 0.30274546, -0.3556406, -1464280.5, 39487.625, 0.0, 10.000921, 10.000274 
2.9052752e+3, 1.5654716e+2, -1309026.6, -1364536.9, 49490.547, -0.36309683, -0.1022557, -1280039.6, 125774.58, 0.0, 10.00129, 10.000384 
2.9048893e+3, 1.665401e+2, -1221677.5, -1157597.9, 12463.462, -0.31389466, -0.1629796, -1155259.1, 152619.0, 0.0, 10.000725, 10.001393 
2.9045072e+3, 1.765313e+2, -1333293.3, -1186640.5, -6787.7363, 0.11245562, -0.46141452, -1186327.0, 23626.258, 0.0, 9.999406, 10.001158 
2.904122e+3, 1.8652396e+2, -1195457.6, -1147261.3, 25671.777, 0.09723887, -0.52905667, -1136149.3, -24130.21, 0.0, 10.000024, 10.000457 
2.9037344e+3, 1.9651753e+2, -910903.06, -983411.56, 67204.49, -0.1568944, -0.48904467, -870797.56, 143282.13, 0.0, 10.001415, 10.000237 
2.903351e+3, 2.0650995e+2, -940760.6, -998705.3, 107533.39, 0.009029079, -0.49893945, -858365.0, 57792.285, 0.0, 10.000791, 9.999742 
2.90297e+3, 2.1650128e+2, -1083914.9, -992512.7, 165077.56, 0.43431684, -0.60369855, -866926.9, -48678.297, 0.0, 9.999021, 9.999973 
2.9025847e+3, 2.2649571e+2, -721638.94, -462776.66, 101214.08, 0.4822345, -0.55893886, -427901.03, 292398.22, 0.0, 9.999539, 10.002671 
2.9021966e+3, 2.3649207e+2, -487007.28, -388696.6, 45432.984, 0.31360662, -0.45213294, -370916.1, 251408.9, 0.0, 10.000843, 10.001897 
2.9018092e+3, 2.4648401e+2, -652736.5, -819514.75, 101256.33, 0.21417022, -0.49499556, -604951.75, -80547.27, 0.0, 10.000757, 9.998301 
2.9014218e+3, 2.5647315e+2, -703309.94, -818183.3, 147402.31, 0.15455739, -0.6653832, -602549.25, -176031.27, 0.0, 9.999836, 9.9980955 
2.901035e+3, 2.664649e+2, -489264.75, -597135.4, 98238.055, 0.2992424, -0.5719415, -431129.84, -102525.836, 0.0, 10.000366, 9.998664 
2.9006478e+3, 2.7645788e+2, -308273.47, -488272.84, 68604.74, 0.5448251, -0.38347507, -285107.13, -54431.215, 0.0, 10.001028, 9.998445 
2.9002556e+3, 2.8645027e+2, -99848.586, -226433.13, -44642.93, 0.4920583, -0.2778891, -85688.27, 47066.92, 0.0, 10.001322, 9.99942 
2.8998613e+3, 2.964423e+2, -32609.164, -163251.16, -41596.45, 0.28121942, -0.2591632, -20489.232, 14349.185, 0.0, 10.00121, 9.999234 
2.8994727e+3, 3.064331e+2, 251594.47, 200507.55, 97433.3, 0.41237476, -0.43834454, 326776.97, 326776.97, 0.0, 10.001772, 10.000782 
2.899088e+3, 3.1642368e+2, 181399.77, 698.02203, 99509.39, 0.7829267, -0.6768285, 225456.47, 225456.47, 0.0, 10.001749, 9.999134 
2.8986913e+3, 3.264197e+2, 106790.86, -206180.8, -48920.375, 0.31162146, -0.06474179, 114259.35, 114259.35, 0.0, 10.001897, 9.997633 
2.9160476e+3, 1.3695034e+2, -1481024.4, -1193586.6, 11469.284, 0.22572546, 0.28238732, -1193129.8, 404748.97, 0.0000000000007792345, 9.999807, 10.003646 
2.915659e+3, 1.4693464e+2, -1409991.5, -1414632.9, 25788.732, -0.01426362, -0.73808223, -1386419.3, 113589.055, 0.0, 10.000994, 10.000882 
2.915273e+3, 1.5693022e+2, -1286597.5, -1325739.8, 60562.613, -0.003215371, -0.534221, -1242522.3, 159523.83, 0.0, 10.001301, 10.000651 
2.914885e+3, 1.6692498e+2, -1317350.5, -1343573.5, -35399.195, -0.07418603, -0.35178295, -1292712.6, 11385.379, 0.0, 10.00064, 10.000169 
2.9144964e+3, 1.7691892e+2, -1387575.3, -1304686.4, -36137.727, -0.21703169, -0.24513009, -1291143.8, -84983.71, 0.0, 9.999378, 10.000381 
2.914113e+3, 1.8691108e+2, -1126315.8, -1003020.56, 85341.22, -0.053604554, -0.39396456, -959389.75, 148842.81, 0.0, 9.999993, 10.001467 
2.9137322e+3, 1.9690262e+2, -814996.06, -805305.8, 101778.055, 0.2257359, -0.6490334, -708257.6, 302050.72, 0.0, 10.001468, 10.001442 
2.9133466e+3, 2.0689826e+2, -823489.9, -730024.6, 42608.11, 0.27449036, -0.49844974, -713516.5, 198835.83, 0.0, 10.00062, 10.00169 
2.9129592e+3, 2.1689528e+2, -1044553.44, -821347.1, 144881.06, 0.23129229, -0.21510212, -750068.4, 64318.445, 0.0, 9.998584, 10.001373 
2.912574e+3, 2.2688822e+2, -914413.06, -809473.5, 188649.75, 0.23693831, -0.24089932, -666132.6, 50323.355, 0.0, 9.999276, 10.000438 
2.9121894e+3, 2.3687959e+2, -511377.75, -549057.2, 64244.867, 0.23752053, -0.40935382, -463267.22, 155270.39, 0.0, 10.00126, 10.000614 
2.9118022e+3, 2.4687216e+2, -507391.63, -451439.66, -5215.549, 0.22629054, -0.49458385, -450957.63, 69649.68, 0.0, 10.000436, 10.00099 
2.9114136e+3, 2.568649e+2, -747672.25, -549771.4, 91300.32, 0.2077023, -0.5677588, -514085.5, -91409.26, 0.0, 9.998235, 10.000716 
2.9110265e+3, 2.6685765e+2, -656041.44, -522313.44, 201151.73, 0.3133984, -0.5581993, -377203.8, -52457.324, 0.0, 9.998531, 10.000067 
2.91064e+3, 2.7685058e+2, -362428.47, -411987.44, 211155.33, 0.468645, -0.50466293, -174603.64, 52212.63, 0.0, 10.0002, 9.999362 
2.9102492e+3, 2.8684223e+2, -172439.8, -509975.03, 94963.766, 0.44154343, -0.36684924, -147556.63, -18648.53, 0.0, 10.001893, 9.9972 
2.909857e+3, 2.9683325e+2, 138974.14, -177466.13, 29437.37, 0.39516917, -0.23307545, 141689.31, 172698.81, 0.0, 10.00278, 9.998377 
2.9260385e+3, 1.3733743e+2, -1158047.3, -1152320.4, 226127.63, -0.07576557, 0.123335436, -929038.06, 665037.8, 0.0, 10.002568, 10.002587 
2.9256544e+3, 1.473228e+2, -1200572.3, -1336441.5, 86015.086, 0.08762817, -0.7289532, -1158899.9, 337299.2, 0.0, 10.00256, 10.000652 
2.9252687e+3, 1.5731749e+2, -1285665.6, -1362440.4, 73149.12, 0.17636058, -0.58911103, -1241443.1, 156802.36, 0.0, 10.001469, 10.000322 
2.92488e+3, 1.6731207e+2, -1163643.5, -1284548.1, 23882.63, 0.06475897, -0.39833197, -1159096.9, 141204.22, 0.0, 10.001789, 10.0000105 
2.9244894e+3, 1.7730655e+2, -979672.8, -1115866.0, 100458.12, -0.2227645, -0.21682782, -926406.4, 275955.06, 0.0, 10.002261, 10.0002775 
2.9241058e+3, 1.872989e+2, -985788.3, -897195.0, 204921.73, -0.06800861, -0.3520929, -731836.94, 372596.2, 0.0, 10.000812, 10.001792 
2.9237264e+3, 1.9729024e+2, -1224558.5, -969796.9, 161440.88, 0.35466623, -0.6598989, -891534.75, 114975.57, 0.0, 9.998536, 10.001721 
2.9233396e+3, 2.0728691e+2, -1020055.25, -747722.5, -6331.333, 0.32830998, -0.4564042, -747575.44, 160968.11, 0.0, 9.998989, 10.002333 
2.9229492e+3, 2.1728583e+2, -855423.3, -710232.8, 2758.7366, 0.07591232, -0.06135324, -710180.4, 100377.914, 0.0, 9.999831, 10.001533 
2.9225647e+3, 2.2727782e+2, -885412.56, -927163.6, 161437.06, 0.07296177, -0.13442987, -743506.9, -30866.922, 0.0, 10.000056, 9.999248 
2.9221827e+3, 2.3726675e+2, -754778.0, -737096.5, 132588.34, 0.18767144, -0.44051054, -613054.5, 1696.167, 0.0, 9.999936, 9.999951 
2.9217955e+3, 2.4726072e+2, -373151.78, -153606.72, -36668.918, 0.24277918, -0.4780486, -147644.13, 369160.4, 0.0, 10.000418, 10.003022 
2.9214057e+3, 2.572567e+2, -292477.13, -117652.0, 945.4193, 0.277173, -0.44766256, -117646.89, 301188.84, 0.0, 10.000498, 10.002583 
2.9210186e+3, 2.6725036e+2, -189199.47, -139869.6, 146486.97, 0.3066825, -0.51340604, -15985.579, 304906.7, 0.0, 10.001083, 10.00146 
2.9206315e+3, 2.7724317e+2, -112856.17, -201751.67, 139136.0, 0.3096223, -0.63087237, -11240.82, 211718.69, 0.0, 10.001542, 10.000169 
2.9202428e+3, 2.8723478e+2, -289359.44, -744798.06, 111335.23, 0.36311254, -0.44485858, -263599.72, -138543.86, 0.0, 10.00192, 9.995548 
2.919854e+3, 2.9722548e+2, -91622.016, -270324.5, 130073.086, 0.57154113, -0.2328689, -23167.514, 4000.1853, 0.0, 10.001123, 9.998551 
2.9360288e+3, 1.377243e+2, -1299581.6, -1476223.4, 251320.56, -0.6008284, -0.22588675, -1121514.5, 468753.0, 0.0, 10.002649, 10.000336 
2.935653e+3, 1.4771475e+2, -1284131.9, -1471888.4, 49800.01, 0.44555822, -0.4250867, -1271740.9, 220612.42, 0.0, 10.002354, 9.99984 
2.9352623e+3, 1.5770844e+2, -1301194.0, -1401365.3, 48129.53, 0.11904974, -0.3030951, -1281817.3, 112600.49, 0.0, 10.001454, 10.000075 
2.9348755e+3, 1.677012e+2, -1077794.5, -1133600.3, 56619.98, 0.15369722, -0.34830564, -1042575.4, 253912.31, 0.0, 10.001854, 10.00104 
2.9344887e+3, 1.7769378e+2, -870494.25, -976699.5, 111989.94, 0.17059238, -0.44981495, -799654.8, 398904.16, 0.0, 10.0025835, 10.001098 
2.934101e+3, 1.876879e+2, -1002754.75, -954803.25, 112252.195, 0.06151546, -0.4114991, -863994.9, 236619.36, 0.0, 10.000867, 10.00139 
2.9337138e+3, 1.9768211e+2, -1299466.6, -1077277.0, 106508.04, -0.00782212, -0.37643924, -1034469.2, -31801.268, 0.0, 9.998287, 10.001117 
2.9333284e+3, 2.0767492e+2, -1163724.4, -1009977.44, 49516.484, 0.05975188, -0.42480034, -995410.1, -90670.41, 0.0, 9.998836, 10.000606 
2.9329428e+3, 2.1766764e+2, -809553.1, -780698.2, 10741.205, 0.118955016, -0.48308355, -777138.8, 29675.623, 0.0, 10.000488, 10.000748 
2.9325587e+3, 2.2766091e+2, -701055.56, -645192.6, 111469.305, 0.16117273, -0.5082152, -558208.56, 150674.0, 0.0, 10.000415, 10.001047 
2.932175e+3, 2.376541e+2, -674938.75, -532104.44, 128871.52, 0.1985958, -0.5589541, -456184.28, 154766.53, 0.0, 9.999687, 10.001511 
2.931789e+3, 2.4764979e+2, -365220.22, -193582.78, 13426.972, 0.29208127, -0.4624734, -192538.75, 320452.38, 0.0, 10.000619, 10.002672 
2.9314014e+3, 2.5764632e+2, -43115.938, -2812.634, -2822.0095, 0.39586815, -0.34110153, -2615.998, 412405.22, 0.0, 10.002174, 10.002583 
2.9310134e+3, 2.6763982e+2, 82152.82, 21248.342, 76608.11, 0.29857206, -0.4552083, 134139.3, 451220.38, 0.0, 10.002752, 10.001791 
2.9306248e+3, 2.776323e+2, 178130.39, 62535.21, 6810.273, 0.12880225, -0.65174097, 178530.23, 397680.97, 0.0, 10.002924, 10.001347 
2.9302377e+3, 2.876265e+2, -80435.05, -286419.94, 13472.614, 0.42134514, -0.46260196, -79557.59, 41657.766, 0.0, 10.001716, 9.998846 
2.929848e+3, 2.9762092e+2, 7768.3286, 53282.3, 83750.86, 0.7010597, -0.19156739, 117312.914, 140593.64, 0.0, 10.000469, 10.001158 
2.9460263e+3, 1.3811155e+2, -1206502.1, -1493124.5, 229378.27, -0.44903627, -0.56064206, -1079346.1, 507106.16, 0.0, 10.003586, 9.999764 
2.9456484e+3, 1.4810437e+2, -1351545.9, -1619667.8, 74165.58, 0.49760118, -0.43771204, -1332398.3, 156126.56, 0.0, 10.002415, 9.998788 
2.9452568e+3, 1.5809654e+2, -1384655.4, -1513760.6, 73249.14, 0.17790201, -0.3663286, -1351573.5, 39036.832, 0.0, 10.001213, 9.999422 
2.9448703e+3, 1.6808932e+2, -1120409.9, -1115249.5, 89801.48, 0.2011531, -0.41264707, -1027991.1, 264689.47, 0.0, 10.001421, 10.001366 
2.9444844e+3, 1.7808212e+2, -976844.1, -1018897.06, 67569.61, 0.24995083, -0.5302978, -927105.0, 267642.25, 0.0, 10.001848, 10.001145 
2.9440945e+3, 1.880768e+2, -1020721.06, -995836.75, -8078.375, 0.07101581, -0.42454898, -993444.2, 103354.41, 0.0, 10.0009365, 10.001047 
2.943704e+3, 1.9807187e+2, -1188882.8, -1081466.3, 35644.305, -0.13215376, -0.2797298, -1070714.5, -71867.19, 0.0, 9.9993305, 10.000577 
2.943319e+3, 2.0806283e+2, -1151815.9, -1078854.4, 152769.17, -0.031513024, -0.46230054, -958270.56, -57333.223, 0.0, 9.999227, 9.999949 
2.942936e+3, 2.180525e+2, -1021265.25, -924535.44, 196445.9, 0.171417, -0.74763966, -770588.3, 32452.066, 0.0, 9.99925, 10.000353 
2.9425523e+3, 2.2804712e+2, -767331.06, -528269.06, 224068.14, 0.24913234, -0.69533414, -393843.0, 311252.16, 0.0, 9.999394, 10.002297 
2.942168e+3, 2.3804322e+2, -728494.7, -479375.34, 185413.55, 0.2699456, -0.5751143, -380566.94, 226568.02, 0.0, 9.999036, 10.002165 
2.9417822e+3, 2.4803935e+2, -539697.8, -328326.7, 114374.85, 0.32959747, -0.4264787, -278284.78, 230887.92, 0.0, 9.9996805, 10.00218 
2.9413956e+3, 2.580355e+2, -342927.5, -198279.83, 89100.54, 0.4158247, -0.29416743, -155844.6, 255364.84, 0.0, 10.000377, 10.002103 
2.9410073e+3, 2.6802868e+2, -330201.28, -180749.44, 100609.9, 0.23652644, -0.41407487, -130150.516, 183123.55, 0.0, 9.999973, 10.001724 
2.9406178e+3, 2.7802098e+2, -337471.1, -112421.2, -1536.1655, -0.024751095, -0.6416388, -112410.72, 102936.164, 0.0, 9.999106, 10.001968 
2.940232e+3, 2.8801715e+2, -31217.701, 99717.91, -107417.555, 0.46819818, -0.48146516, 160045.83, 277431.4, 0.0, 10.000509, 10.002075 
2.9398406e+3, 2.9801446e+2, 333613.4, 418763.97, -88049.7, 0.59758013, -0.22533885, 473991.6, 493402.1, 0.0, 10.00189, 10.002956 
2.9560262e+3, 1.3849871e+2, -1209114.6, -1439522.3, 119616.42, -0.12147023, -0.9373509, -1158246.1, 424390.22, 0.0, 10.003278, 10.0002985 
2.9556417e+3, 1.4849219e+2, -1442975.1, -1804279.4, 12168.51, 0.34207836, -0.68481654, -1442565.8, 42143.73, 0.0, 10.002336, 9.997586 
2.9552522e+3, 1.5848202e+2, -1424585.5, -1620165.5, 39704.285, 0.31804115, -0.7324155, -1416832.6, -30009.979, 0.0, 10.001264, 9.998689 
2.954864e+3, 1.6847645e+2, -1134049.3, -1153647.6, 102366.96, 0.16439936, -0.5706192, -1041013.5, 247866.25, 0.0, 10.001438, 10.001104 
2.9544753e+3, 1.7847195e+2, -963193.25, -1025378.25, 52311.285, -0.1044116, -0.38807166, -933431.7, 257491.66, 0.0, 10.001949, 10.001065 
2.954087e+3, 1.8846497e+2, -1023364.75, -1020420.5, -74268.64, -0.02719003, -0.43652004, -947609.44, 145383.94, 0.0, 10.000978, 10.000871 
2.9536992e+3, 1.9845755e+2, -1093894.3, -980710.8, -4073.9402, 0.14932182, -0.52602637, -980564.4, 14503.664, 0.0, 9.99969, 10.00111 
2.9533136e+3, 2.0845146e+2, -983990.44, -807897.2, 156093.05, 0.189856, -0.543567, -716731.0, 180396.92, 0.0, 9.999468, 10.001733 
2.9529282e+3, 2.184455e+2, -916668.9, -731961.25, 222218.66, 0.19201879, -0.55685866, -583669.3, 215517.45, 0.0, 9.999295, 10.001673 
2.9525453e+3, 2.284408e+2, -830444.0, -607690.7, 253104.14, 0.3618228, -0.4436979, -442541.66, 258695.11, 0.0, 9.999176, 10.001856 
2.9521623e+3, 2.3843639e+2, -710129.56, -494059.2, 188924.4, 0.53957117, -0.3296153, -384461.56, 218822.92, 0.0, 9.999203, 10.001993 
2.9517746e+3, 2.4843031e+2, -583527.0, -388846.8, 139904.7, 0.379931, -0.37429765, -315750.94, 189588.72, 0.0, 9.999471, 10.001909 
2.9513857e+3, 2.5842407e+2, -450337.56, -298689.25, 91110.9, 0.1764526, -0.44520652, -255978.61, 151416.52, 0.0, 9.999778, 10.001737 
2.9509977e+3, 2.6841772e+2, -617275.06, -416895.13, 30008.25, 0.14847723, -0.44322157, -412497.7, -103040.76, 0.0, 9.998373, 10.000903 
2.950609e+3, 2.7841112e+2, -717136.2, -406633.84, -24749.988, 0.14045328, -0.4610893, -404673.4, -193150.61, 0.0, 9.99691, 10.001036 
2.9502237e+3, 2.8840327e+2, -170779.53, -117009.98, -74133.46, 0.3925698, -0.59507984, -65036.902, 48565.195, 0.0, 10.000119, 10.000804 
2.9498348e+3, 2.98398e+2, 659149.7, 434811.16, -205867.55, 0.4199513, -0.47714418, 781423.1, 797074.8, 0.0, 10.004614, 10.00178 
2.9660222e+3, 1.3888597e+2, -1552470.4, -1619841.5, -125436.06, 0.026252314, -0.9724182, -1456275.5, 122565.5, 0.0, 10.001059, 10.000102 
2.9656345e+3, 1.4888133e+2, -1367848.3, -1646618.1, -67042.414, 0.13564661, -0.6162025, -1352563.1, 128331.375, 0.0, 10.002387, 9.998617 
2.965247e+3, 1.5887107e+2, -1008551.75, -1339876.6, 70228.76, 0.2937534, -0.77383024, -994280.56, 388723.97, 0.0, 10.003828, 9.999359 
2.9648575e+3, 1.6886522e+2, -1156955.5, -1154813.6, 139843.6, 0.1453348, -0.66643316, -1016036.9, 269026.25, 0.0, 10.001264, 10.001165 
2.9644674e+3, 1.788606e+2, -1517363.0, -1282094.1, 140343.16, -0.1567408, -0.5026036, -1216605.5, -29497.623, 0.0, 9.998134, 10.001139 
2.96408e+3, 1.8885364e+2, -1262196.1, -1096500.1, 74353.88, -0.009797523, -0.56285465, -1068027.4, 21151.521, 0.0, 9.999208, 10.001191 
2.9636937e+3, 1.9884591e+2, -953071.75, -878784.2, 185030.97, 0.3297143, -0.69976586, -727205.6, 264052.44, 0.0, 10.000547, 10.001392 
2.9633075e+3, 2.0884173e+2, -745011.3, -588497.3, 260421.73, 0.30115882, -0.58046675, -394828.5, 498471.38, 0.0, 10.000737, 10.002603 
2.9629204e+3, 2.1883819e+2, -774147.06, -652340.44, 232305.67, 0.16999218, -0.4238883, -473087.25, 322247.8, 0.0, 10.000265, 10.00175 
2.9625377e+3, 2.288331e+2, -713816.6, -650521.1, 232563.16, 0.3541448, -0.29362977, -447462.22, 249929.06, 0.0, 10.00039, 10.000989 
2.9621556e+3, 2.3882776e+2, -588711.44, -510185.3, 153398.4, 0.6153005, -0.20063059, -391104.9, 208345.06, 0.0, 10.000388, 10.001314 
2.961767e+3, 2.4881996e+2, -349550.2, -307985.3, 105365.7, 0.35831237, -0.38933745, -221372.03, 280146.88, 0.0, 10.001237, 10.001601 
2.9613772e+3, 2.5881174e+2, -221868.97, -270985.1, 28845.21, 0.0015103326, -0.6248849, -208543.73, 195045.9, 0.0, 10.001739, 10.00097 
2.960989e+3, 2.6880616e+2, -287204.88, -348242.8, -72146.27, 0.08591563, -0.47694024, -239388.08, 66258.19, 0.0, 10.001049, 10.000071 
2.9606006e+3, 2.7880046e+2, -409712.13, -407993.84, -26939.713, 0.24245107, -0.3204983, -381899.56, -174192.69, 0.0, 9.999715, 9.99966 
2.9602152e+3, 2.8878838e+2, -239560.33, -345413.25, 85525.01, 0.22628517, -0.71463776, -191909.77, -82081.57, 0.0, 10.000528, 9.999015 
2.959831e+3, 2.987809e+2, 184199.48, 24132.582, -16644.26, 0.3338266, -0.6481047, 185911.89, 197813.27, 0.0, 10.002197, 10.000096 
2.9760155e+3, 1.3927406e+2, -1547268.6, -1671848.0, -158945.84, -0.015573092, -0.7080244, -1438842.8, 136209.16, 0.0, 10.001296, 9.999639 
2.9756266e+3, 1.492716e+2, -1188875.1, -1238089.1, 18360.564, -0.1266194, -0.30736598, -1182780.0, 294297.75, 0.0, 10.002199, 10.001526 
2.9752415e+3, 1.5926373e+2, -870231.5, -1035773.06, 43495.023, 0.09037083, -0.49955097, -859499.25, 519655.8, 0.0, 10.003718, 10.00151 
2.9748517e+3, 1.6925564e+2, -1145380.3, -1100963.5, -720.67786, 0.17505631, -0.71838534, -1100951.8, 180278.33, 0.0, 10.0011, 10.001634 
2.9744613e+3, 1.7924781e+2, -1462058.1, -1175667.1, 79069.99, 0.118607305, -0.913626, -1155286.9, 28015.563, 0.0, 9.998114, 10.001899 
2.9740733e+3, 1.8924348e+2, -1156082.9, -922124.5, 145403.11, 0.16915783, -0.81038713, -852485.9, 232860.98, 0.0, 9.999335, 10.002364 
2.9736868e+3, 1.9923943e+2, -834072.25, -774589.3, 231873.45, 0.28728187, -0.67835754, -570557.7, 416832.3, 0.0, 10.001083, 10.001883 
2.9733e+3, 2.0923422e+2, -770633.2, -740827.5, 247584.45, 0.21153922, -0.5811309, -507697.78, 381746.88, 0.0, 10.001123, 10.0014 
2.9729128e+3, 2.192289e+2, -760762.94, -769274.25, 207839.9, 0.075556144, -0.48599088, -557135.1, 234365.75, 0.0, 10.000798, 10.000725 
2.9725286e+3, 2.2922198e+2, -704691.0, -803747.7, 223966.88, 0.09223156, -0.41554764, -524841.44, 168734.55, 0.0, 10.001014, 9.999692 
2.972145e+3, 2.3921475e+2, -492752.8, -572281.4, 145072.11, 0.16446066, -0.38581222, -382093.97, 213559.6, 0.0, 10.001439, 10.000411 
2.9717606e+3, 2.492064e+2, -206256.88, -301308.13, 111249.05, 0.2426583, -0.5675516, -132807.14, 364921.75, 0.0, 10.0024185, 10.001102 
2.9713756e+3, 2.5919798e+2, 10301.777, -216739.08, -11734.868, 0.28284228, -0.76901406, 10906.695, 410709.7, 0.0, 10.003478, 10.000531 
2.9709846e+3, 2.6919198e+2, 10047.996, -248249.94, -142188.75, 0.1743363, -0.61905515, 72985.195, 374849.47, 0.0, 10.00321, 9.99976 
2.970593e+3, 2.7918616e+2, -3621.539, -226904.69, -81821.54, 0.040967662, -0.43945047, 23151.5, 227077.98, 0.0, 10.002484, 9.999605 
2.9702067e+3, 2.8917673e+2, -159327.36, -295944.44, 64549.977, 0.060548905, -0.5795865, -133653.16, -27631.76, 0.0, 10.00099, 9.999169 
2.9698226e+3, 2.991705e+2, -63899.664, -35400.31, 95930.41, 0.17075686, -0.38465565, 47332.98, 55413.977, 0.0, 10.000243, 10.000648 
2.9860082e+3, 1.3966317e+2, -1424875.5, -1541527.9, -68450.53, -0.15724735, -0.64513355, -1393271.6, 177968.66, 0.0, 10.001848, 10.000279 
2.98562e+3, 1.4965965e+2, -1459700.9, -1184312.6, 156391.52, -0.15493532, -0.4763538, -1113636.9, 359636.72, 0.0, 9.99956, 10.003174 
2.9852352e+3, 1.5965495e+2, -1671705.3, -1342543.8, 103624.56, 0.12844443, -0.49771842, -1312638.3, 62678.31, 0.0, 9.997889, 10.002225 
2.9848447e+3, 1.6964687e+2, -1406254.5, -1234053.8, -8775.71, 0.21781287, -0.7187573, -1233607.8, 43783.0, 0.0, 9.99938, 10.001535 
2.984454e+3, 1.7963807e+2, -1105141.3, -1047017.06, 70361.48, 0.23241028, -0.9929405, -999952.0, 179520.44, 0.0, 10.000783, 10.001494 
2.9840663e+3, 1.8963407e+2, -1019319.25, -858614.6, 75541.49, 0.24159567, -0.8483319, -828680.9, 252831.58, 0.0, 10.000286, 10.002344 
2.9836795e+3, 1.9963108e+2, -1091366.6, -954075.3, 88866.586, 0.2516449, -0.6344108, -910428.94, 73115.33, 0.0, 9.999592, 10.001358 
2.9832938e+3, 2.0962422e+2, -819656.25, -943235.8, 82783.734, 0.17733389, -0.6002447, -778144.94, 107472.82, 0.0, 10.00156, 9.999792 
2.9829076e+3, 2.196174e+2, -549600.75, -795846.06, 30675.06, 0.11197135, -0.5374524, -545837.0, 241854.6, 0.0, 10.002859, 9.999534 
2.9825214e+3, 2.2961e+2, -688317.0, -859074.1, 66882.46, -0.026737833, -0.46223524, -665239.25, 24532.148, 0.0, 10.001481, 9.999057 
2.9821354e+3, 2.3960161e+2, -781897.5, -789489.94, 79038.336, -0.1351715, -0.48169932, -706564.25, -114704.53, 0.0, 9.999832, 9.999688 
2.9817545e+3, 2.4959317e+2, -471618.7, -443445.44, 119454.74, 0.14827071, -0.65042895, -337249.63, 156687.86, 0.0, 10.00071, 10.000933 
2.9813734e+3, 2.5958508e+2, -300243.4, -431274.25, 3154.7532, 0.49313375, -0.78203475, -300167.5, 95842.91, 0.0, 10.00169, 9.999904 
2.9809812e+3, 2.695787e+2, -156938.6, -334165.3, -131307.47, 0.27782655, -0.6466974, -87141.164, 210933.52, 0.0, 10.002119, 9.999676 
2.9805866e+3, 2.7957258e+2, -112239.87, -272544.0, -57287.81, -0.09031648, -0.500917, -93871.65, 106266.73, 0.0, 10.00176, 9.999627 
2.9801992e+3, 2.8956568e+2, -187691.64, -255512.33, 41626.453, -0.06920517, -0.41903344, -167911.45, -65703.77, 0.0, 10.000623, 9.999608 
2.979813e+3, 2.9955947e+2, -131902.89, 89326.8, 215984.4, -0.09436012, -0.28160915, 221374.08, 225639.05, 0.0, 9.999182, 10.001986 
2.9960006e+3, 1.4005016e+2, -1314095.0, -1329088.1, -128639.164, -0.3717843, -1.0137558, -1192734.1, 374706.75, 0.0, 10.0019045, 10.001726 
2.9956132e+3, 1.5004507e+2, -1430419.3, -1089312.8, 56915.17, -0.027336126, -1.0880363, -1080066.8, 389421.75, 0.0, 9.999384, 10.003937 
2.9952276e+3, 1.6004409e+2, -1677488.6, -1358913.0, 99495.125, 0.31786862, -0.7824769, -1330392.6, 41102.78, 0.0, 9.997889, 10.002123 
2.9948378e+3, 1.7003806e+2, -1475145.4, -1357331.3, 43660.277, 0.30353686, -0.73211974, -1342915.4, -69360.9, 0.0, 9.999271, 10.000761 
2.9944468e+3, 1.8003143e+2, -1100660.3, -1112150.9, 72858.4, 0.12917425, -0.7193537, -1033321.0, 142298.34, 0.0, 10.001099, 10.000894 
2.9940578e+3, 1.9002472e+2, -1061237.8, -1026793.8, 30346.043, 0.07821444, -0.7274154, -1009123.4, 68561.016, 0.0, 10.000655, 10.001008 
2.993671e+3, 2.0001799e+2, -1219686.6, -1209761.1, 76007.64, 0.19782731, -0.71702963, -1138554.4, -158803.2, 0.0, 9.999531, 9.999631 
2.9932904e+3, 2.1001029e+2, -884734.75, -1133233.9, 142084.86, 0.4028359, -0.6105497, -820235.7, 61600.55, 0.0, 10.001786, 9.99838 
2.9929072e+3, 2.2000197e+2, -420861.94, -792114.25, -28410.611, 0.45259047, -0.56695086, -418700.38, 365227.4, 0.0, 10.003951, 9.999036 
2.992518e+3, 2.2999464e+2, -637270.2, -788080.9, -97809.3, 0.20735517, -0.5012815, -589174.0, 96831.26, 0.0, 10.001581, 9.999527 
2.99213e+3, 2.3998836e+2, -743000.94, -660647.5, 19681.223, 0.05558428, -0.38240078, -656185.7, -68114.586, 0.0, 9.999586, 10.000703 
2.9917482e+3, 2.4998201e+2, -441367.8, -357391.88, 130318.664, 0.19114867, -0.42291188, -262464.03, 227668.2, 0.0, 10.0005665, 10.001628 
2.991366e+3, 2.599754e+2, -297230.72, -337419.56, 5158.0854, 0.37416178, -0.47336674, -296579.25, 95615.08, 0.0, 10.001251, 10.000806 
2.990978e+3, 2.699707e+2, -184036.44, -250311.98, -100923.77, 0.55854493, -0.25101933, -110949.36, 183286.73, 0.0, 10.001479, 10.000604 
2.9905874e+3, 2.79965e+2, -79430.555, -197732.33, -38581.06, 0.5764125, -0.12397279, -67960.445, 128327.266, 0.0, 10.001688, 10.000216 
2.9901943e+3, 2.8995118e+2, -200265.38, -268084.66, 13991.6455, 0.1653697, -0.74634147, -197492.19, -99067.766, 0.0, 10.000525, 9.999647 
2.989807e+3, 2.9994196e+2, -152247.22, 325897.78, 97759.555, 0.25164786, -0.94124633, 345113.1, 345620.75, 0.0, 9.997834, 10.004411 
3.0059975e+3, 1.4045092e+2, -1790428.8, -1912527.8, -81974.64, -0.07197502, -0.29453966, -1749268.3, -185750.11, 0.0, 10.000169, 9.998517 
3.005608e+3, 1.5043901e+2, -1442004.9, -1399411.0, -15575.799, 0.22533965, -0.7812129, -1394323.0, 71311.89, 0.0, 10.000624, 10.001169 
3.005218e+3, 1.60435e+2, -1451873.0, -1340090.8, -140175.97, 0.22247846, -0.56758076, -1245074.3, 122596.93, 0.0, 9.999777, 10.001337 
3.0048275e+3, 1.704296e+2, -1082417.9, -1067683.5, -37281.883, 0.03307599, -0.54450285, -1037047.9, 232673.95, 0.0, 10.00145, 10.001707 
3.00444e+3, 1.8042295e+2, -907686.25, -1123026.9, 81588.68, 0.012836791, -0.618369, -880265.5, 291519.5, 0.0, 10.00284, 9.999978 
3.0040503e+3, 1.9041425e+2, -1176151.8, -1363584.1, -145414.27, -0.02764186, -0.64663625, -1096870.8, -23003.137, 0.0, 10.001015, 9.998529 
3.0036613e+3, 2.0040187e+2, -1253735.3, -1466491.5, -4880.3994, -0.020071866, -0.95496744, -1253623.4, -277635.13, 0.0, 10.000304, 9.997499 
3.0032805e+3, 2.1039441e+2, -763848.1, -1055554.0, 241462.6, -0.06273671, -0.7961994, -627606.6, 250464.75, 0.0, 10.0025425, 9.998516 
3.0028993e+3, 2.203876e+2, -323944.16, -739874.1, 57808.777, -0.054270856, -0.5910758, -316059.0, 464089.72, 0.0, 10.0046015, 9.99906 
3.0025122e+3, 2.3038077e+2, -308158.25, -541194.9, -40566.29, 0.18068261, -0.53104997, -301298.5, 380921.1, 0.0, 10.003458, 10.000274 
3.0021256e+3, 2.4037585e+2, -680511.1, -634481.44, 163193.23, 0.35522848, -0.3603688, -492688.16, 91583.516, 0.0, 10.000058, 10.000623 
3.0017385e+3, 2.5037012e+2, -625032.6, -568615.0, 155988.39, -0.06838656, -0.2609642, -438305.28, 48027.453, 0.0, 9.999877, 10.000443 
3.0013517e+3, 2.603633e+2, -449543.63, -336456.22, -106781.45, -0.39761984, -0.30793753, -272171.66, 116229.664, 0.0, 9.999911, 10.001426 
3.0009678e+3, 2.7035466e+2, -66774.7, 11239.838, -93342.17, 0.16586691, -0.65882385, 73397.42, 363872.53, 0.0, 10.001436, 10.002381 
3.0005807e+3, 2.8034744e+2, 26913.156, -147132.44, 8349.547, 0.49285147, -0.8167186, 27312.795, 219848.42, 0.0, 10.002434, 10.000187 
3.0001816e+3, 2.9033905e+2, -285620.4, -398424.28, -72682.09, -0.38401434, -0.82569295, -250023.08, -155402.61, 0.0, 10.000409, 9.998746 
2.999798e+3, 3.003361e+2, -127824.39, 537634.56, -231439.55, 0.35325515, -0.42920157, 610211.4, 610211.4, 0.0, 9.997316, 10.006022 
