coord_x,coord_y,stress_xx,stress_yy,tau_xy,velocity_x,velocity_y,stress_1,eps,damage,lx,ly
5.0006217e+0, 1.2436369e+2, -1488392.8, -1590709.5, -11389.558, -0.012524936, -0.26967454, -1487140.3, 234073.48, 0.0013801174, 10.001485, 10.000133 
5.000655e+0, 1.3436292e+2, -1551713.9, -1746294.8, -6369.2227, 0.008402556, -0.20513217, -1551505.5, 71717.14, 0.0008364695, 10.001137, 9.998559 
5.0006104e+0, 1.4436278e+2, -1404267.1, -1490703.1, 5433.928, 0.01571016, -0.13417107, -1403926.9, 121297.61, 0.00038681776, 10.0009, 9.999748 
5.000468e+0, 1.5436108e+2, -1323372.5, -1408005.5, 11681.626, 0.00587442, -0.28090274, -1321789.6, 105450.15, 0.00011816065, 10.0008135, 9.999684 
5.000338e+0, 1.6436078e+2, -1223032.9, -1276222.4, 11563.213, -0.00083553296, -0.29319578, -1220627.8, 108614.29, 0.000016018055, 10.0006895, 9.999979 
5.000227e+0, 1.7436181e+2, -1148593.1, -1188322.9, 3696.7961, -0.0036150129, -0.19584139, -1148252.1, 82979.586, 0.00000013955699, 10.000523, 9.9999895 
5.000144e+0, 1.843618e+2, -1100786.1, -1148187.6, 1253.3436, -0.0019007581, -0.18108056, -1100753.0, 32479.049, 0.0, 10.000324, 9.99969 
5.0001013e+0, 1.943606e+2, -1041754.9, -1074791.1, 7036.7456, 0.0059501696, -0.27268866, -1040318.5, -5073.92, 0.0, 10.000081, 9.999639 
5.0000143e+0, 2.0436035e+2, -947870.75, -941356.3, 6550.989, 0.006731932, -0.2746329, -937297.44, -49.919266, 0.0, 9.999892, 9.999971 
4.999866e+0, 2.1436132e+2, -867114.2, -851269.5, -9714.406, -0.0020873507, -0.18237862, -846656.56, -7418.294, 0.0, 9.999772, 9.999974 
4.999798e+0, 2.2436136e+2, -827000.56, -848347.1, -5898.29, -0.0035214443, -0.14842921, -825479.25, -84240.38, 0.0, 9.999664, 9.999373 
4.9998277e+0, 2.3436017e+2, -746793.8, -765373.0, 19966.055, 0.004234324, -0.207089, -734062.06, -90810.27, 0.0, 9.99957, 9.999316 
4.999784e+0, 2.4435972e+2, -606952.75, -562697.8, 25416.797, 0.0036876134, -0.21739562, -551126.06, -5869.799, 0.0, 9.999493, 10.0000725 
4.9996477e+0, 2.5436026e+2, -514407.94, -465097.3, 1122.0293, -0.0076243705, -0.18243308, -465071.78, -17822.082, 0.0, 9.999446, 10.0000925 
4.999566e+0, 2.6436e+2, -477389.47, -476397.34, -1557.436, -0.01203137, -0.17763521, -475258.88, -126007.586, 0.0, 9.999372, 9.999377 
4.9995574e+0, 2.7435902e+2, -399939.75, -394514.56, 22244.354, -0.007204614, -0.22035962, -374818.03, -123556.016, 0.0, 9.999257, 9.999321 
4.999525e+0, 2.8435862e+2, -292112.66, -238613.53, 22572.367, -0.0023409047, -0.21152414, -230362.36, -77096.76, 0.000000004221918, 9.999095, 9.999796 
4.9994597e+0, 2.9435888e+2, -220431.03, -145333.08, -3685.588, 0.0018800785, -0.1740231, -145152.63, -89890.5, 0.0000065845143, 9.99888, 9.9998665 
4.9993843e+0, 3.043576e+2, -290013.25, -313296.63, -5873.7573, 0.0007119689, -0.22573143, -288615.4, -288615.4, 0.00007542163, 9.998753, 9.9984455 
4.9993038e+0, 3.14356e+2, -96051.37, 95331.98, 13148.13, -0.006156482, -0.2215973, 96231.04, 96231.04, 0.00027006015, 9.998725, 10.001266 
1.5001859e+1, 1.24364704e+2, -1477945.9, -1567259.5, -24074.35, -0.03801397, -0.15246658, -1471870.0, 249337.17, 0.00135349, 10.001479, 10.000298 
1.5001969e+1, 1.3436234e+2, -1539383.4, -1719729.0, -19565.166, 0.025406903, -0.26270932, -1537285.3, 85944.22, 0.0008181531, 10.001134, 9.998743 
1.5001829e+1, 1.4436218e+2, -1392825.8, -1465413.1, 776.9556, 0.047051027, -0.21234407, -1392817.4, 132413.03, 0.00037595516, 10.000895, 9.999925 
1.5001403e+1, 1.543623e+2, -1311328.0, -1381977.4, 8718.481, 0.017719183, -0.19374481, -1310268.0, 116960.22, 0.00011312574, 10.000811, 9.999866 
1.5001014e+1, 1.6436219e+2, -1234768.4, -1299486.1, 4709.057, -0.002552661, -0.18859713, -1234427.5, 94801.19, 0.000014709239, 10.000686, 9.999822 
1.5000682e+1, 1.7436141e+2, -1162772.0, -1216788.1, -2411.4548, -0.010795748, -0.25464416, -1162664.6, 68571.88, 0.00000010097208, 10.00052, 9.999797 
1.5000433e+1, 1.8436116e+2, -1091322.8, -1127178.5, -8014.2466, -0.005787253, -0.25858915, -1089613.0, 43626.16, 0.0, 10.000319, 9.999837 
1.5000305e+1, 1.9436182e+2, -1029734.3, -1049207.8, -1634.4684, 0.017945804, -0.18167707, -1029598.06, 5635.6846, 0.0, 10.000079, 9.999816 
1.5000042e+1, 2.0436181e+2, -974854.5, -996201.9, 1227.7637, 0.020075161, -0.15224198, -974784.06, -37549.37, 0.0, 9.999888, 9.999598 
1.49996e+1, 2.1436095e+2, -897212.0, -912631.7, -13630.097, -0.0060422905, -0.20125854, -889262.3, -50018.27, 0.0, 9.999768, 9.999556 
1.4999391e+1, 2.243605e+2, -782720.25, -755013.7, -9962.139, -0.010821693, -0.22377713, -751803.6, -10555.272, 0.0, 9.99966, 10.000017 
1.4999485e+1, 2.3436059e+2, -697849.2, -663079.6, 16991.572, 0.01284647, -0.22185583, -656155.06, -12909.522, 0.0, 9.999567, 10.00002 
1.499935e+1, 2.4436048e+2, -646245.1, -643346.0, 23002.648, 0.010800653, -0.21134512, -621747.3, -76500.9, 0.0, 9.99949, 9.999521 
1.4998943e+1, 2.5436005e+2, -558387.4, -555460.94, -196.34381, -0.022983972, -0.20674296, -555447.8, -108196.055, 0.0, 9.999442, 9.999475 
1.4998698e+1, 2.6435974e+2, -437016.5, -391420.2, -6104.145, -0.036072396, -0.2081613, -390617.16, -41362.375, 0.0, 9.999367, 9.999964 
1.499867e+1, 2.7435964e+2, -355865.16, -301818.75, 18327.225, -0.021865359, -0.2200739, -296190.16, -44936.566, 0.0, 9.999252, 9.99996 
1.4998576e+1, 2.843593e+2, -335267.25, -327013.63, 14079.206, -0.006756257, -0.21309642, -316468.88, -163212.16, 0.0000000059189293, 9.99909, 9.999191 
1.4998376e+1, 2.9435855e+2, -267722.88, -242175.17, -10887.085, 0.00515137, -0.21089159, -238165.11, -182898.83, 0.0000065077284, 9.998875, 9.999205 
1.4998157e+1, 3.043572e+2, -262264.47, -254334.94, -7778.9326, 0.0026934203, -0.24831037, -249568.66, -249568.66, 0.000074265045, 9.998748, 9.998853 
1.4997904e+1, 3.1435692e+2, -64518.09, 163192.05, 17173.082, -0.01927341, -0.16027036, 164479.89, 164479.89, 0.00026651216, 9.998716, 10.001737 
2.500332e+1, 1.24365404e+2, -1509800.4, -1580316.6, 14792.686, -0.028773809, -0.12279918, -1506823.0, 214378.38, 0.0013145427, 10.001254, 10.000317 
2.500319e+1, 1.3436277e+2, -1525586.6, -1712052.8, 3037.518, 0.029358476, -0.2609972, -1525537.1, 97688.695, 0.0007913486, 10.001226, 9.998753 
2.5002843e+1, 1.4436255e+2, -1365735.5, -1447340.4, 13267.905, 0.05074889, -0.21865167, -1363632.5, 161594.55, 0.00036019128, 10.001059, 9.999972 
2.5002253e+1, 1.5436296e+2, -1319513.0, -1380382.4, 10813.623, 0.02547967, -0.17708945, -1317649.0, 109573.25, 0.00010584406, 10.0007305, 9.999916 
2.5001723e+1, 1.6436295e+2, -1267232.1, -1317370.1, 9120.617, 0.010198688, -0.1654234, -1265624.5, 63597.58, 0.000012859098, 10.000472, 9.999802 
2.5001287e+1, 1.7436197e+2, -1194984.6, -1235289.0, 13729.915, 0.008304844, -0.24605131, -1190751.9, 40479.914, 0.00000006033416, 10.000312, 9.999771 
2.5000846e+1, 1.843617e+2, -1103684.5, -1128481.3, 13837.321, 0.009130539, -0.25456202, -1097503.6, 35731.336, 0.0, 10.000214, 9.999879 
2.5000405e+1, 1.9436249e+2, -1008764.7, -1033384.2, 10466.53, 0.014007717, -0.16830146, -1004916.56, 30311.055, 0.0, 10.000199, 9.999866 
2.4999954e+1, 2.0436248e+2, -947516.25, -990061.06, 18959.152, 0.011688358, -0.13854966, -940293.6, -3065.3, 0.0, 10.000106, 9.999535 
2.4999484e+1, 2.1436141e+2, -882005.44, -913197.7, 29343.902, -0.0011115199, -0.20044361, -864370.5, -25130.713, 0.0, 9.999907, 9.999486 
2.4999154e+1, 2.2436088e+2, -768798.9, -746618.5, 28429.33, -0.0047329837, -0.22749548, -727192.8, 14052.004, 0.0, 9.999746, 10.000033 
2.4999003e+1, 2.3436111e+2, -685607.75, -654500.9, 3058.4622, 0.00419831, -0.21640752, -654203.0, -10962.338, 0.0, 9.99964, 10.000044 
2.499872e+1, 2.44361e+2, -646008.75, -647398.6, 1056.9109, -0.0021042319, -0.20520534, -645438.75, -100197.41, 0.0, 9.999509, 9.999484 
2.4998285e+1, 2.543604e+2, -576096.25, -567826.9, 22136.143, -0.027708003, -0.21328302, -549442.56, -102194.38, 0.0, 9.999337, 9.99944 
2.4997959e+1, 2.6436004e+2, -456693.5, -391257.38, 22664.174, -0.037856355, -0.22039315, -384174.25, -34922.918, 0.0, 9.99919, 10.00005 
2.4997793e+1, 2.7436012e+2, -373191.6, -300612.78, 4598.404, -0.026749225, -0.22927068, -300322.6, -49073.91, 0.0, 9.999092, 10.000047 
2.4997604e+1, 2.8435978e+2, -339141.5, -340189.3, 312.9699, -0.014016282, -0.21855657, -339055.16, -185803.53, 0.0000000086392555, 9.999113, 9.99909 
2.4997337e+1, 2.9435894e+2, -221272.02, -232792.47, 17001.9, -0.004763091, -0.21222502, -209081.06, -153818.6, 0.0000063841276, 9.999249, 9.999089 
2.4996942e+1, 3.043576e+2, -223050.16, -228321.73, 18964.225, -0.005584725, -0.2474601, -206539.42, -206539.42, 0.00007245626, 9.998989, 9.998916 
2.4996367e+1, 3.1435758e+2, -127578.22, 139364.02, 16108.069, -0.021628495, -0.14016162, 140332.52, 140332.52, 0.0002610093, 9.998258, 10.001794 
3.5004997e+1, 1.24365784e+2, -1518590.5, -1598484.9, 13200.706, 0.011470563, -0.1834382, -1516465.9, 204730.53, 0.0012623775, 10.001254, 10.000192 
3.5004306e+1, 1.343642e+2, -1536069.4, -1734550.9, 2684.2434, 0.01754391, -0.2010512, -1536033.1, 87178.875, 0.000755357, 10.001229, 9.998597 
3.5003644e+1, 1.4436391e+2, -1370907.0, -1458034.0, 468.27957, 0.023693942, -0.15423284, -1370904.5, 154310.13, 0.00033918672, 10.00106, 9.999899 
3.5003018e+1, 1.5436307e+2, -1325459.1, -1391947.6, -1490.189, 0.027889421, -0.22922039, -1325425.8, 101795.91, 0.00009620481, 10.000728, 9.999839 
3.5002458e+1, 1.64363e+2, -1259024.4, -1299091.4, 2261.0144, 0.035581477, -0.22405398, -1258897.1, 70324.94, 0.000010539653, 10.000467, 9.999929 
3.5002038e+1, 1.7436351e+2, -1184981.1, -1214103.8, 8196.757, 0.051621135, -0.17066604, -1182832.5, 48385.406, 0.000000028001644, 10.00031, 9.999917 
3.5001382e+1, 1.8436338e+2, -1107700.6, -1136140.5, 12455.295, 0.040466473, -0.17006376, -1103017.0, 30202.352, 0.0, 10.000211, 9.999828 
3.5000402e+1, 1.9436261e+2, -1014525.4, -1044380.06, 10426.379, -0.0068069296, -0.23197752, -1011244.6, 23981.463, 0.0, 10.0001955, 9.999793 
3.499975e+1, 2.0436236e+2, -930654.2, -953289.7, 11658.661, -0.020146701, -0.23391704, -925723.4, 11505.043, 0.0, 10.0001, 9.99979 
3.499952e+1, 2.1436274e+2, -862939.3, -872894.44, 22373.541, 0.011273945, -0.18006869, -844996.3, -5770.6655, 0.0, 9.999904, 9.999764 
3.4999081e+1, 2.2436254e+2, -811231.5, -833567.56, 23722.115, 0.012609914, -0.16099519, -796180.0, -54951.594, 0.0, 9.9997425, 9.999439 
3.4998378e+1, 2.343617e+2, -731970.3, -750416.56, -367.8821, -0.022832358, -0.19070475, -731963.0, -88725.76, 0.0, 9.999639, 9.999387 
3.4997886e+1, 2.4436125e+2, -612215.0, -575740.3, -5620.017, -0.03661189, -0.20021173, -574894.0, -29652.828, 0.0, 9.999503, 9.999978 
3.499767e+1, 2.543613e+2, -537580.6, -486601.6, 15965.299, -0.0234097, -0.20143534, -482014.44, -34775.52, 0.0, 9.999332, 10.0 
3.4997338e+1, 2.64361e+2, -485935.53, -450812.3, 18328.941, -0.019513711, -0.21538188, -442989.66, -93748.65, 0.0, 9.9991865, 9.999642 
3.4996918e+1, 2.7436033e+2, -405729.8, -366757.63, 1687.1642, -0.024144912, -0.24688123, -366684.72, -115437.47, 0.0, 9.999087, 9.999595 
3.4996608e+1, 2.8436005e+2, -311591.72, -281631.9, 4705.343, -0.025462862, -0.22874375, -280910.28, -127660.0, 0.000000011844628, 9.999107, 9.9994955 
3.4996337e+1, 2.943601e+2, -190816.61, -167736.56, 22503.553, -0.030469552, -0.17758109, -153986.63, -98735.89, 0.0000061783935, 9.999244, 9.999538 
3.4995735e+1, 3.0435872e+2, -243361.6, -269279.9, -7652.8423, -0.025425196, -0.22384305, -241270.64, -241270.64, 0.00006980898, 9.998984, 9.998637 
3.4994683e+1, 3.1435797e+2, -152058.13, 90242.375, -6380.076, -0.017403102, -0.15879408, 90410.26, 90410.26, 0.00025310565, 9.998253, 10.001458 
4.500644e+1, 1.2436656e+2, -1514981.1, -1592385.4, 11277.331, 0.030498106, -0.2058898, -1513371.6, 207816.61, 0.0011988538, 10.001259, 10.000235 
4.500534e+1, 1.3436522e+2, -1573239.6, -1749648.9, 11330.639, 0.011369571, -0.20088759, -1572514.9, 50686.656, 0.0007112032, 10.000964, 9.998622 
4.500448e+1, 1.4436491e+2, -1416214.6, -1483476.5, 18021.559, 0.016417816, -0.15558933, -1411690.4, 113513.96, 0.00031351, 10.000765, 9.9998665 
4.5003927e+1, 1.543639e+2, -1329530.6, -1398382.9, 17743.72, 0.04666599, -0.24358174, -1325227.0, 101986.31, 0.000084590996, 10.000719, 9.9998 
4.500322e+1, 1.6436385e+2, -1238496.0, -1292948.4, 20312.396, 0.057549234, -0.23418044, -1231753.6, 97460.38, 0.000007991499, 10.000626, 9.999896 
4.5002392e+1, 1.743646e+2, -1162746.4, -1206460.3, 12595.867, 0.04770032, -0.153631, -1159376.8, 71831.16, 0.000000008983813, 10.000477, 9.999889 
4.5001516e+1, 1.8436448e+2, -1092092.8, -1122512.0, 15277.082, 0.028641934, -0.15185826, -1085745.0, 47464.0, 0.0, 10.000293, 9.999883 
4.5000538e+1, 1.9436346e+2, -1028790.06, -1044723.7, 22250.006, -0.006016046, -0.24645074, -1013123.6, 22094.037, 0.0, 10.00007, 9.999851 
4.4999832e+1, 2.0436317e+2, -954864.25, -965466.25, 21383.559, -0.013072836, -0.25595012, -938134.44, -914.3397, 0.0, 9.999935, 9.999787 
4.4999486e+1, 2.143638e+2, -862745.25, -872705.7, 10095.926, 0.017282927, -0.17578135, -856468.0, -17253.182, 0.0, 9.999906, 9.999764 
4.4998905e+1, 2.2436363e+2, -805423.06, -846607.06, 17757.47, 0.015881008, -0.14715041, -798823.9, -57606.33, 0.0, 9.99985, 9.999298 
4.499805e+1, 2.343625e+2, -724627.25, -763301.1, 31350.973, -0.025117924, -0.18986164, -707129.44, -63899.75, 0.0, 9.999761, 9.99924 
4.4997424e+1, 2.4436197e+2, -591592.25, -563518.75, 28252.025, -0.039470397, -0.20110868, -546008.6, -773.9639, 0.0, 9.999635, 10.0 
4.499709e+1, 2.543622e+2, -515971.8, -472829.56, 8596.458, -0.021134052, -0.18970512, -471179.75, -23949.264, 0.0, 9.999466, 10.0000305 
4.499662e+1, 2.6436183e+2, -472112.03, -463592.1, 2840.7139, -0.018346122, -0.20082708, -462731.8, -113498.695, 0.0, 9.999364, 9.99947 
4.4996056e+1, 2.7436087e+2, -382771.84, -376013.16, 7241.6753, -0.03096859, -0.24367693, -371401.16, -120158.12, 0.0, 9.999331, 9.9994135 
4.499563e+1, 2.8436062e+2, -293133.72, -248420.48, 13142.996, -0.034947086, -0.22408706, -244843.39, -91597.6, 0.000000014278152, 9.999131, 9.999713 
4.499527e+1, 2.9436105e+2, -246799.48, -168978.42, 13990.44, -0.036626544, -0.15712593, -166539.67, -111298.44, 0.0000058442592, 9.998748, 9.99977 
4.4994506e+1, 3.043596e+2, -294878.03, -311707.5, -21397.352, -0.032285094, -0.21840335, -280300.28, -280300.28, 0.00006621042, 9.998707, 9.99848 
4.4993228e+1, 3.1435853e+2, -52287.543, 113680.91, -8348.148, -0.026908034, -0.16725199, 114099.76, 114099.76, 0.0002425997, 9.999041, 10.001242 
5.50076e+1, 1.2436775e+2, -1499034.4, -1561267.8, 959.85815, 0.01948908, -0.18903315, -1499019.6, 222156.98, 0.0011275938, 10.001267, 10.000444 
5.5006295e+1, 1.3436587e+2, -1558816.8, -1719790.6, -247.11462, 0.009896313, -0.2575164, -1558816.4, 64377.72, 0.00066134764, 10.000964, 9.998828 
5.500536e+1, 1.4436558e+2, -1414934.0, -1480123.1, 15529.244, 0.026688192, -0.22324423, -1411423.6, 113772.92, 0.00028458898, 10.000762, 9.999891 
5.500495e+1, 1.5436548e+2, -1328471.0, -1397104.5, 16902.373, 0.076047026, -0.221323, -1324534.3, 102663.08, 0.00007188515, 10.000723, 9.999807 
5.500399e+1, 1.6436549e+2, -1251420.1, -1320057.8, 14402.639, 0.07065711, -0.1967133, -1248520.5, 80677.4, 0.0000055425044, 10.0006275, 9.99971 
5.5002356e+1, 1.7436525e+2, -1177637.0, -1236338.5, 7143.8745, -0.0041970434, -0.19375737, -1176780.1, 54421.35, 0.00000000116644, 10.000473, 9.999686 
5.500124e+1, 1.8436503e+2, -1081525.5, -1099122.4, 6889.242, -0.028599273, -0.19955869, -1079149.3, 54054.53, 0.0, 10.000287, 10.000046 
5.5000806e+1, 1.9436501e+2, -1015657.06, -1017177.25, 14337.317, 0.012981982, -0.21272399, -1002059.7, 33142.77, 0.0, 10.000069, 10.000041 
5.50002e+1, 2.0436487e+2, -972287.4, -1001096.2, 19603.86, 0.02965447, -0.20587209, -962364.9, -25161.385, 0.0, 9.999933, 9.999543 
5.499937e+1, 2.1436459e+2, -882814.25, -913670.8, 9588.026, 0.014638012, -0.1879831, -880077.7, -40870.313, 0.0, 9.999902, 9.999485 
5.499863e+1, 2.2436415e+2, -783663.8, -799844.8, 14284.203, 0.002612657, -0.18683486, -775338.0, -34125.66, 0.0, 9.999845, 9.999621 
5.499802e+1, 2.3436354e+2, -699423.5, -710682.25, 28414.865, -0.005058538, -0.21359694, -676085.75, -32867.773, 0.0, 9.999759, 9.999602 
5.4997325e+1, 2.4436316e+2, -622978.3, -628125.5, 21788.764, -0.013732745, -0.2092045, -603611.7, -58389.906, 0.0, 9.999633, 9.9995575 
5.499654e+1, 2.5436306e+2, -551576.7, -545900.9, 2774.3396, -0.023591714, -0.1782321, -544770.06, -97547.14, 0.0, 9.999462, 9.999532 
5.499581e+1, 2.6436257e+2, -467811.97, -453433.03, 1141.8082, -0.03626934, -0.17797446, -453342.94, -104115.13, 0.0, 9.99936, 9.999541 
5.4995203e+1, 2.7436176e+2, -376120.5, -361041.22, 6045.9824, -0.05023703, -0.21911734, -358916.47, -107680.445, 0.0, 9.999328, 9.999518 
5.499465e+1, 2.843615e+2, -291650.56, -244887.39, -1073.053, -0.04640375, -0.20490505, -244862.78, -91624.625, 0.000000014996283, 9.999129, 9.999738 
5.4994124e+1, 2.943619e+2, -245217.94, -164281.81, 764.0169, -0.0265488, -0.14920157, -164274.6, -109040.77, 0.0000053587105, 9.998742, 9.9998045 
5.499325e+1, 3.043602e+2, -298443.78, -318335.16, -10485.12, -0.029396689, -0.23206903, -293937.7, -293937.7, 0.000061679886, 9.998703, 9.998437 
5.499199e+1, 3.143592e+2, -59273.066, 99856.42, 9361.741, -0.056591008, -0.1681528, 100405.29, 100405.29, 0.00022953504, 9.999039, 10.001148 
6.500862e+1, 1.2436911e+2, -1550640.1, -1576653.8, 16904.709, 0.014438614, -0.18243128, -1542317.4, 178846.36, 0.001052614, 10.000873, 10.000527 
6.500738e+1, 1.3436726e+2, -1569985.5, -1716508.4, 3272.7087, 0.02886982, -0.25532138, -1569912.4, 53268.26, 0.00060904585, 10.000851, 9.998904 
6.500633e+1, 1.4436698e+2, -1413774.0, -1480456.3, 17525.127, 0.046689402, -0.22531249, -1409448.8, 115734.5, 0.000254567, 10.000773, 9.999884 
6.500558e+1, 1.5436703e+2, -1338389.8, -1403109.9, 16819.445, 0.07045949, -0.20505331, -1334279.6, 92902.95, 0.00005931439, 10.000661, 9.999795 
6.500444e+1, 1.6436696e+2, -1268616.4, -1332301.9, 16830.242, 0.058089405, -0.1854345, -1264442.3, 64741.52, 0.0000034805446, 10.000526, 9.999674 
6.500279e+1, 1.7436635e+2, -1194529.8, -1248536.6, 21687.773, -0.003519983, -0.21695578, -1186898.8, 44291.64, 0.00000000000024211628, 10.000375, 9.999649 
6.500156e+1, 1.8436609e+2, -1089509.6, -1115701.8, 20965.04, -0.024913238, -0.22117713, -1077886.5, 55306.76, 0.0, 10.000288, 9.999931 
6.500094e+1, 1.943664e+2, -992401.6, -1018783.9, 5024.2695, 0.008555342, -0.18820722, -991477.2, 43712.37, 0.0, 10.000285, 9.999926 
6.500018e+1, 2.0436625e+2, -933290.06, -982947.1, 7258.0483, 0.021393213, -0.17535162, -932250.94, 4939.844, 0.0, 10.000204, 9.9995365 
6.4999247e+1, 2.1436554e+2, -864157.0, -904400.1, 17772.422, 0.006009778, -0.2021571, -857432.06, -18233.795, 0.0, 10.0000305, 9.999487 
6.4998454e+1, 2.2436498e+2, -775262.2, -790801.75, 24643.047, -0.00096898165, -0.21431118, -757193.06, -15989.2295, 0.0, 9.99988, 9.999666 
6.4997864e+1, 2.3436467e+2, -696521.7, -703198.06, 14880.034, 0.0041274787, -0.21620308, -684610.0, -41403.62, 0.0, 9.999753, 9.999657 
6.499705e+1, 2.4436435e+2, -631052.6, -652312.44, 5879.155, -0.006007235, -0.19965935, -629535.1, -84325.266, 0.0, 9.999664, 9.999376 
6.499596e+1, 2.54364e+2, -541360.94, -562312.75, 9653.958, -0.035016824, -0.17303824, -537591.0, -90376.74, 0.0, 9.999624, 9.99934 
6.4995056e+1, 2.6436347e+2, -446435.84, -437126.6, 18898.396, -0.05350517, -0.17171447, -422318.06, -73097.96, 0.0, 9.999481, 9.999596 
6.499441e+1, 2.743628e+2, -387989.88, -359604.7, 20351.783, -0.055450145, -0.20589486, -348985.5, -97758.97, 0.0, 9.999216, 9.999582 
6.499375e+1, 2.8436255e+2, -302326.56, -262844.9, 7186.481, -0.04742327, -0.18919675, -261577.52, -108348.984, 0.000000013847158, 9.999111, 9.999623 
6.4992994e+1, 2.9436272e+2, -189534.48, -150604.88, -3016.0422, -0.035494003, -0.13745233, -150372.6, -95146.55, 0.0000047556837, 9.999182, 9.999687 
6.499204e+1, 3.043608e+2, -244813.53, -277966.16, -9330.48, -0.034645885, -0.24499893, -242367.95, -242367.95, 0.000056396846, 9.999009, 9.998566 
6.499097e+1, 3.1436002e+2, -123198.695, 77173.64, 27803.092, -0.038591273, -0.17310959, 80959.97, 80959.97, 0.00021421611, 9.998566, 10.001219 
7.5009483e+1, 1.2437059e+2, -1552051.9, -1580941.1, 16110.972, 0.010791475, -0.19035119, -1544858.4, 176291.75, 0.0009783517, 10.000877, 10.000495 
7.500856e+1, 1.3436937e+2, -1571901.0, -1722929.9, 3048.797, 0.059676543, -0.19707203, -1571839.5, 51322.01, 0.00055803865, 10.000859, 9.998856 
7.5007325e+1, 1.4436905e+2, -1416047.8, -1486033.1, 13116.078, 0.06833468, -0.16350026, -1413670.4, 111494.07, 0.00022607559, 10.000778, 9.999844 
7.5005853e+1, 1.5436858e+2, -1341522.5, -1409137.6, 12795.5, 0.030553184, -0.19406116, -1339182.1, 87986.96, 0.000048170983, 10.000659, 9.999756 
7.5004584e+1, 1.6436829e+2, -1260155.9, -1313565.5, 11054.081, 0.019428162, -0.20040135, -1257958.5, 71213.15, 0.0000019773436, 10.000523, 9.9998045 
7.500365e+1, 1.743679e+2, -1184532.5, -1228412.9, 16636.736, 0.04461448, -0.22382417, -1178938.1, 52236.574, 0.0, 10.000378, 9.999785 
7.500245e+1, 1.8436761e+2, -1116530.8, -1172074.8, 20447.668, 0.034342054, -0.21766442, -1109815.3, 23362.516, 0.0, 10.00029, 9.999543 
7.500093e+1, 1.9436763e+2, -1022486.4, -1080423.8, 5171.6514, -0.020425376, -0.17215768, -1022028.4, 13150.524, 0.0, 10.000281, 9.999504 
7.4999785e+1, 2.0436732e+2, -917505.1, -948918.2, 957.893, -0.03878472, -0.16431196, -917475.94, 19706.031, 0.0, 10.000199, 9.999772 
7.4999106e+1, 2.1436663e+2, -845045.94, -864114.44, 11644.252, -0.011509607, -0.21816345, -839530.56, -343.02707, 0.0, 10.000028, 9.999764 
7.499837e+1, 2.243661e+2, -791120.2, -823245.94, 19549.51, 0.002368273, -0.2302143, -781880.9, -40688.71, 0.0, 9.999878, 9.999445 
7.499758e+1, 2.343659e+2, -714940.6, -740931.75, 10406.92, 0.00044251615, -0.19816099, -711287.2, -68092.23, 0.0, 9.99975, 9.999398 
7.4996597e+1, 2.4436554e+2, -625290.4, -639343.7, 3899.4666, -0.017693955, -0.17415744, -624280.9, -79081.805, 0.0, 9.9996605, 9.999468 
7.499536e+1, 2.5436506e+2, -533545.56, -545672.94, 8181.8574, -0.058455292, -0.17361401, -529425.4, -82220.86, 0.0, 9.999622, 9.999455 
7.499435e+1, 2.643645e+2, -443820.63, -431257.13, 8910.288, -0.07306274, -0.18169825, -426636.88, -77426.84, 0.0, 9.999479, 9.999636 
7.499371e+1, 2.74364e+2, -386996.16, -356075.38, 11113.604, -0.048463386, -0.20424172, -352495.38, -101280.83, 0.0, 9.999209, 9.999609 
7.499294e+1, 2.8436372e+2, -320926.4, -300534.34, 8816.205, -0.040169276, -0.17769179, -297251.34, -144034.38, 0.000000011324871, 9.999107, 9.999367 
7.499187e+1, 2.9436368e+2, -208328.67, -189512.4, -282.30933, -0.0667783, -0.12248522, -189508.17, -134290.22, 0.000004098041, 9.999181, 9.999421 
7.4990875e+1, 3.0436152e+2, -223394.34, -233426.39, -25635.74, -0.053342123, -0.2566698, -202288.5, -202288.5, 0.000050636394, 9.999009, 9.998871 
7.499014e+1, 3.143611e+2, -106426.74, 113700.95, 15605.634, 0.021012142, -0.18100484, 114801.79, 114801.79, 0.00019719645, 9.998559, 10.001472 
8.501052e+1, 1.24372266e+2, -1571306.3, -1591131.0, 20623.16, 0.03348779, -0.18316212, -1558337.0, 162797.14, 0.00090933184, 10.000748, 10.000488 
8.5009384e+1, 1.3437115e+2, -1584840.5, -1731431.3, 6344.8994, 0.060453642, -0.17777605, -1584566.5, 38578.254, 0.0005120121, 10.000781, 9.998836 
8.5007995e+1, 1.4437073e+2, -1431785.6, -1496865.5, 12862.847, 0.06251593, -0.15293522, -1429335.5, 95813.37, 0.00020159004, 10.000684, 9.999814 
8.500642e+1, 1.5437022e+2, -1371445.4, -1426884.5, 12743.211, 0.032180525, -0.1821706, -1368656.5, 58497.5, 0.000039447743, 10.000469, 9.999724 
8.500508e+1, 1.6436997e+2, -1274070.4, -1314478.4, 15026.766, 0.023592222, -0.18536378, -1269094.9, 60061.2, 0.0000010481418, 10.000402, 9.999855 
8.5004133e+1, 1.7436971e+2, -1159198.4, -1209740.5, 13633.924, 0.048596725, -0.20141992, -1155755.3, 75402.16, 0.0, 10.0005245, 9.999844 
8.500285e+1, 1.8436933e+2, -1104218.1, -1179544.5, 18132.537, 0.03874086, -0.20305558, -1100080.5, 33080.6, 0.0, 10.000431, 9.999424 
8.500112e+1, 1.9436894e+2, -1061994.0, -1113607.0, 24531.727, -0.018842548, -0.18450095, -1052194.6, -17028.18, 0.0, 10.000072, 9.999377 
8.499982e+1, 2.0436855e+2, -961240.3, -972882.9, 28482.625, -0.041087475, -0.17794727, -937990.2, -819.5838, 0.0, 9.999911, 9.999746 
8.499906e+1, 2.1436813e+2, -850325.75, -869008.6, 16378.382, -0.016856857, -0.20012589, -840812.1, -1638.7026, 0.0, 10.000001, 9.999744 
8.499819e+1, 2.2436765e+2, -778944.75, -825329.06, 15342.783, -0.009457884, -0.20541328, -774329.06, -33151.27, 0.0, 9.999996, 9.999374 
8.499716e+1, 2.3436712e+2, -701932.44, -742593.9, 18872.414, -0.022585932, -0.19715552, -694523.2, -51339.81, 0.0, 9.999874, 9.999328 
8.4996104e+1, 2.4436666e+2, -613173.9, -629473.0, 19138.238, -0.036797546, -0.18255731, -600522.3, -55333.906, 0.0, 9.999725, 9.999504 
8.499498e+1, 2.543663e+2, -542100.0, -545174.0, 17786.064, -0.05515594, -0.17208102, -525784.6, -78592.38, 0.0, 9.999544, 9.999497 
8.4993905e+1, 2.6436576e+2, -448881.66, -438529.25, 12553.73, -0.06399355, -0.18167882, -430126.47, -80928.73, 0.0, 9.999465, 9.999594 
8.499303e+1, 2.74365e+2, -346268.38, -341307.3, 7736.485, -0.052745856, -0.21918587, -335663.44, -84459.33, 0.0, 9.99951, 9.999567 
8.499216e+1, 2.843648e+2, -281397.2, -285274.56, 11847.314, -0.04342513, -0.18862876, -271331.0, -118124.41, 0.000000007967864, 9.999393, 9.999335 
8.4991145e+1, 2.94365e+2, -224592.42, -200810.3, 20109.719, -0.05281302, -0.10437754, -189339.03, -134133.52, 0.0000034232567, 9.999084, 9.99939 
8.4989953e+1, 3.0436268e+2, -234553.5, -230880.11, -8910.873, -0.04049175, -0.25174782, -223618.61, -223618.61, 0.00004462947, 9.998898, 9.998942 
8.498878e+1, 3.1436235e+2, -71672.73, 124589.54, 13999.382, 0.015960265, -0.17679933, 125583.086, 125583.086, 0.00017905688, 9.998821, 10.001421 
9.5011675e+1, 1.2437413e+2, -1570369.8, -1589472.6, 22419.053, 0.07253434, -0.16032992, -1555552.3, 165563.66, 0.0008487081, 10.000749, 10.0005 
9.5009905e+1, 1.3437256e+2, -1584703.6, -1732621.5, 7601.0244, 0.03272671, -0.19813344, -1584314.1, 38816.375, 0.00047347447, 10.000786, 9.998825 
9.500836e+1, 1.4437193e+2, -1431413.0, -1496569.0, 4648.484, 0.029291984, -0.1936353, -1431083.0, 94053.84, 0.00018256163, 10.000687, 9.999815 
9.5007265e+1, 1.5437196e+2, -1371478.0, -1428077.5, 5406.2813, 0.06758866, -0.17028353, -1370966.3, 56171.355, 0.00003354367, 10.000474, 9.999715 
9.500589e+1, 1.64372e+2, -1276851.8, -1320285.6, 19005.422, 0.06278684, -0.14127006, -1269709.9, 59427.484, 0.00000057940093, 10.000403, 9.999815 
9.5004255e+1, 1.7437178e+2, -1161922.6, -1215059.9, 18597.217, 0.008185396, -0.15001817, -1156060.6, 75077.914, 0.0, 10.000523, 9.999807 
9.500278e+1, 1.843712e+2, -1093104.9, -1156227.3, 5304.078, -0.012108171, -0.17689711, -1092662.4, 40481.254, 0.0, 10.00043, 9.999584 
9.500149e+1, 1.9437033e+2, -1049934.5, -1088705.6, 11329.991, 0.010140213, -0.22536373, -1046866.3, -11714.17, 0.0, 10.0000725, 9.999547 
9.500027e+1, 2.043699e+2, -981925.9, -1015442.3, 30660.299, 0.011772292, -0.21610478, -963742.8, -26586.188, 0.0, 9.99991, 9.999455 
9.4999117e+1, 2.1437007e+2, -872897.4, -915426.25, 20148.936, -0.012242658, -0.14813328, -864867.5, -25711.635, 0.0, 9.999999, 9.999427 
9.49979e+1, 2.2436959e+2, -774045.9, -814404.3, 10934.571, -0.03847737, -0.1399402, -771273.75, -30113.041, 0.0, 9.999992, 9.999451 
9.499661e+1, 2.3436835e+2, -694833.3, -727213.8, 14447.931, -0.066807546, -0.21362026, -689324.06, -46152.34, 0.0, 9.999871, 9.999434 
9.4995546e+1, 2.4436769e+2, -614613.56, -631960.94, 11943.117, -0.06504552, -0.2239535, -608526.8, -63348.957, 0.0, 9.999723, 9.999488 
9.499481e+1, 2.5436777e+2, -544925.3, -550116.3, 11363.106, -0.026993947, -0.1697256, -535865.0, -88687.39, 0.0, 9.99954, 9.999465 
9.4993746e+1, 2.643672e+2, -458883.28, -458347.38, 13374.722, -0.027386216, -0.17255907, -445237.94, -96054.555, 0.0, 9.999461, 9.99946 
9.4992346e+1, 2.743659e+2, -355030.03, -359525.34, 9439.286, -0.07177528, -0.25049448, -347574.5, -96379.33, 0.0, 9.999509, 9.999442 
9.499138e+1, 2.8436568e+2, -267331.44, -255915.13, 89.68435, -0.06108986, -0.22041067, -255914.42, -102717.12, 0.0000000042394483, 9.999393, 9.9995365 
9.499081e+1, 2.9436663e+2, -211230.5, -171484.97, 9180.735, 0.004500159, -0.08429463, -169466.81, -114278.02, 0.000002739973, 9.999078, 9.999595 
9.498928e+1, 3.0436438e+2, -247414.23, -255626.8, -12420.824, 0.002186146, -0.23133503, -238438.53, -238438.53, 0.000038513957, 9.99889, 9.9987755 
9.4986856e+1, 3.1436378e+2, -97139.445, 72002.69, 15554.691, -0.05974347, -0.16356698, 73421.234, 73421.234, 0.00016021931, 9.99882, 10.0010605 
1.0501256e+2, 1.24375716e+2, -1569536.6, -1586209.6, 10887.449, 0.08718021, -0.15295456, -1564160.6, 156939.88, 0.00079770345, 10.000744, 10.000524 
1.0501064e+2, 1.3437405e+2, -1621867.8, -1746303.3, -3714.8923, 0.041895423, -0.2040421, -1621756.9, 1358.8533, 0.0004431459, 10.000514, 9.998861 
1.0500897e+2, 1.4437331e+2, -1464148.4, -1507703.5, -404.63403, 0.03347866, -0.21546975, -1464144.6, 60978.574, 0.00016917764, 10.000441, 9.999857 
1.0500778e+2, 1.5437351e+2, -1353189.8, -1415076.4, 2493.0872, 0.06712937, -0.17786174, -1353089.5, 74032.55, 0.000030278157, 10.00058, 9.999753 
1.050063e+2, 1.6437364e+2, -1264109.3, -1316812.3, 17083.967, 0.05973177, -0.141163, -1259055.9, 70065.26, 0.0000004316036, 10.000501, 9.999793 
1.0500453e+2, 1.7437342e+2, -1218190.8, -1244661.3, 17568.455, 0.0012917229, -0.14742999, -1209430.0, 21692.746, 0.0, 10.000148, 9.999785 
1.0500297e+2, 1.8437287e+2, -1146088.4, -1175483.6, 3302.3457, -0.017033843, -0.17171246, -1145721.9, -12594.233, 0.0, 10.00004, 9.99964 
1.0500172e+2, 1.9437207e+2, -1020110.44, -1068076.0, -102.88958, 0.016992044, -0.21875441, -1020110.2, 15025.093, 0.0, 10.000249, 9.999604 
1.05000444e+2, 2.0437166e+2, -931571.8, -999968.44, 24108.773, 0.019534511, -0.20895213, -923928.06, 13211.721, 0.0, 10.000292, 9.999378 
1.049991e+2, 2.1437174e+2, -861475.9, -918990.0, 30929.078, -0.019322108, -0.14145707, -848000.56, -8860.447, 0.0, 10.000117, 9.999345 
1.0499777e+2, 2.243712e+2, -777436.1, -813349.75, 26688.35, -0.048546884, -0.13422307, -763225.94, -22080.656, 0.0, 9.999958, 9.999475 
1.04996465e+2, 2.3436998e+2, -700724.4, -727282.5, 23912.162, -0.064783916, -0.20880575, -686651.56, -43495.73, 0.0, 9.999819, 9.999459 
1.04995325e+2, 2.4436927e+2, -618044.0, -645512.9, 17151.055, -0.06141879, -0.22126022, -609805.9, -64643.535, 0.0, 9.999751, 9.999382 
1.0499439e+2, 2.5436917e+2, -518909.3, -550251.94, 8725.778, -0.0348495, -0.17203122, -516643.8, -69479.88, 0.0, 9.999773, 9.9993515 
1.0499325e+2, 2.6436853e+2, -429959.44, -441529.28, 12401.096, -0.03211911, -0.1755854, -422060.34, -72890.18, 0.0, 9.999645, 9.999488 
1.04991935e+2, 2.7436736e+2, -381055.8, -368270.47, 20734.994, -0.05444711, -0.24774325, -352965.06, -101784.29, 0.0, 9.999313, 9.999477 
1.04990855e+2, 2.843671e+2, -301138.16, -277649.84, 10637.346, -0.041980714, -0.2180612, -273548.53, -120365.734, 0.0000000012344323, 9.999184, 9.999489 
1.04989946e+2, 2.9436794e+2, -181813.56, -163466.95, -1181.2474, -0.00034043533, -0.08917133, -163391.22, -108215.88, 0.0000020653147, 9.999303, 9.999543 
1.04988195e+2, 3.0436552e+2, -183591.4, -225504.83, -25167.21, -0.016046712, -0.2519409, -171797.97, -171797.97, 0.00003243676, 9.999328, 9.998775 
1.04985856e+2, 3.143652e+2, -55080.996, 69389.51, 18155.766, -0.06100718, -0.15367755, 71983.72, 71983.72, 0.00014106146, 9.9992075, 10.000857 
1.15013205e+2, 1.2437698e+2, -1565697.3, -1579950.3, 3193.2283, 0.07468147, -0.16400789, -1565014.5, 156073.61, 0.0007564602, 10.000751, 10.000563 
1.15011536e+2, 1.343756e+2, -1615960.3, -1733842.4, -12230.191, 0.079665095, -0.1958355, -1614704.8, 8395.978, 0.00042056636, 10.000512, 9.998948 
1.1500974e+2, 1.443748e+2, -1460131.3, -1498231.5, 4214.7495, 0.06624594, -0.2189531, -1459670.5, 65437.496, 0.00016082273, 10.000436, 9.999925 
1.15008004e+2, 1.5437484e+2, -1347555.1, -1404605.8, 8584.645, 0.030403642, -0.20587268, -1346291.4, 80816.55, 0.000029173776, 10.000586, 9.999823 
1.15006365e+2, 1.6437484e+2, -1262340.5, -1314369.5, 4142.61, 0.014487604, -0.18491103, -1262012.8, 67095.125, 0.0000005105562, 10.000505, 9.999808 
1.150049e+2, 1.7437463e+2, -1217641.4, -1243962.8, 4551.8613, 0.02359696, -0.19298254, -1216876.4, 14233.822, 0.0, 10.000149, 9.99979 
1.1500337e+2, 1.8437435e+2, -1150511.0, -1184200.8, 9835.37, 0.019362833, -0.18753806, -1147849.9, -14736.551, 0.0, 10.000038, 9.999581 
1.15001805e+2, 1.9437417e+2, -1024097.6, -1076339.1, 8288.797, 0.00029146837, -0.1652066, -1022814.06, 12301.891, 0.0, 10.000249, 9.999548 
1.1500035e+2, 2.0437379e+2, -922406.5, -980211.75, 18126.564, -0.019208224, -0.1564609, -917192.6, 19927.43, 0.0, 10.000289, 9.999516 
1.1499902e+2, 2.1437311e+2, -850949.5, -896644.7, 24627.844, -0.03973538, -0.1804678, -840203.3, -1077.1129, 0.0, 10.000115, 9.999499 
1.1499781e+2, 2.2437248e+2, -780259.1, -818351.7, 21099.654, -0.041251455, -0.18856359, -770880.8, -29749.156, 0.0, 9.999954, 9.999442 
1.1499676e+2, 2.3437202e+2, -704426.75, -734492.0, 19125.7, -0.017901603, -0.18266174, -695133.06, -51997.414, 0.0, 9.999817, 9.999412 
1.1499541e+2, 2.4437138e+2, -633164.56, -676041.2, 17293.809, -0.027553152, -0.17431147, -627058.8, -81916.84, 0.0, 9.999747, 9.999174 
1.1499369e+2, 2.5437057e+2, -533324.9, -579738.4, 9821.3955, -0.081548855, -0.17874852, -531332.2, -84180.984, 0.0, 9.999771, 9.99915 
1.1499241e+2, 2.6436982e+2, -416678.3, -413393.97, 89.88843, -0.08027998, -0.19019221, -413391.5, -64233.363, 0.0, 9.999643, 9.999682 
1.1499178e+2, 2.7436936e+2, -367562.8, -339077.25, 8535.169, -0.0021988899, -0.21253276, -336715.63, -85554.52, 0.0, 9.999309, 9.9996805 
1.1499059e+2, 2.8436908e+2, -323466.0, -321965.3, 13676.887, 0.013322806, -0.18329094, -309018.2, -155855.0, 0.00000000006210851, 9.999176, 9.999188 
1.1498854e+2, 2.9436892e+2, -203863.02, -208972.39, 4226.3926, -0.07163663, -0.11855922, -201479.2, -146314.14, 0.0000014487281, 9.999303, 9.99923 
1.1498671e+2, 3.043661e+2, -172096.36, -200650.5, -29754.25, -0.09825223, -0.31228286, -153371.16, -153371.16, 0.000026628812, 9.999324, 9.998947 
1.14985764e+2, 3.1436664e+2, -60355.285, 61100.29, 16996.053, 0.007920857, -0.14954902, 63433.82, 63433.82, 0.00012208533, 9.999197, 10.000805 
1.250138e+2, 1.2437832e+2, -1600627.6, -1595455.6, 15744.299, 0.07084718, -0.18531294, -1582086.4, 138988.25, 0.0007247361, 10.000506, 10.000575 
1.2501222e+2, 1.3437729e+2, -1595984.4, -1719695.5, -7007.8496, 0.091952845, -0.18530294, -1595588.6, 27495.416, 0.00040489552, 10.000631, 9.998988 
1.250104e+2, 1.4437649e+2, -1435674.4, -1485159.4, 8142.8687, 0.08141331, -0.21285196, -1434368.9, 90722.836, 0.00015657058, 10.000597, 9.999937 
1.2500845e+2, 1.5437643e+2, -1376008.6, -1416914.8, 7877.1294, 0.026737917, -0.2089744, -1374544.1, 52547.777, 0.000029665785, 10.000383, 9.999835 
1.2500669e+2, 1.6437638e+2, -1296324.6, -1331643.1, -3677.7668, 0.007852297, -0.1950465, -1295945.8, 33146.918, 0.0000007617598, 10.000275, 9.999801 
1.2500523e+2, 1.7437612e+2, -1196635.6, -1235357.5, -6331.7285, 0.03516841, -0.2059562, -1195626.5, 35469.195, 0.0, 10.000298, 9.999778 
1.2500364e+2, 1.8437591e+2, -1117869.3, -1167126.4, 9317.456, 0.031854928, -0.19210182, -1116165.8, 16932.602, 0.0, 10.000254, 9.999596 
1.2500188e+2, 1.94376e+2, -1041262.8, -1082508.5, 13774.021, -0.010689044, -0.1460221, -1037085.94, -1987.3955, 0.0, 10.000122, 9.999567 
1.2500037e+2, 2.0437562e+2, -955030.75, -991197.4, 19365.102, -0.03371382, -0.13863005, -946618.56, -9516.199, 0.0, 10.000045, 9.9995575 
1.24999166e+2, 2.1437466e+2, -859018.9, -896060.75, 16376.905, -0.032236885, -0.19586596, -852816.8, -13706.164, 0.0, 10.000039, 9.99954 
1.24997914e+2, 2.2437398e+2, -774108.56, -822799.75, 8183.8433, -0.029347343, -0.20890994, -772769.8, -31653.188, 0.0, 10.000028, 9.999377 
1.24996595e+2, 2.3437375e+2, -681980.94, -731537.4, 3495.3333, -0.024602925, -0.17189537, -681735.6, -38616.652, 0.0, 10.000005, 9.999341 
1.2499516e+2, 2.4437317e+2, -613228.44, -666856.0, 7947.6177, -0.034443695, -0.1548212, -612075.4, -66950.414, 0.0, 9.999886, 9.999171 
1.24993555e+2, 2.5437215e+2, -553412.06, -589699.5, 16228.02, -0.06586273, -0.17734809, -547213.56, -100078.16, 0.0, 9.999634, 9.999149 
1.2499216e+2, 2.6437134e+2, -437417.78, -432796.75, 5197.736, -0.0643668, -0.1935121, -429419.13, -80275.93, 0.0, 9.999541, 9.999598 
1.2499114e+2, 2.7437088e+2, -324042.03, -328987.66, -10867.561, -0.012930147, -0.20518649, -315369.5, -64222.86, 0.0, 9.999653, 9.999585 
1.2498982e+2, 2.8437057e+2, -256343.23, -287035.8, -2323.4873, -0.0033835524, -0.17522825, -256168.33, -103019.35, 0.0, 9.999623, 9.999214 
1.249879e+2, 2.9437035e+2, -190720.16, -198799.78, 14154.925, -0.068846166, -0.120465904, -180039.84, -124889.25, 0.00000094519226, 9.999377, 9.999265 
1.2498599e+2, 3.0436748e+2, -191793.86, -190906.3, -11070.402, -0.091004215, -0.3301778, -180270.78, -180270.78, 0.000021325412, 9.999107, 9.999119 
1.2498487e+2, 3.1436822e+2, -125963.07, 17091.42, 35114.566, 0.019415427, -0.16181071, 25245.912, 25245.912, 0.000103857135, 9.998798, 10.000696 
1.3501428e+2, 1.2437977e+2, -1604715.1, -1601838.6, 20818.79, 0.06802185, -0.21253759, -1582408.5, 138651.08, 0.0007016644, 10.000497, 10.000536 
1.3501273e+2, 1.3437909e+2, -1596250.8, -1723010.8, -1585.598, 0.07718309, -0.17339493, -1596230.9, 26835.408, 0.00039489288, 10.000644, 9.9989605 
1.3501097e+2, 1.4437827e+2, -1436141.8, -1488258.8, -575.2098, 0.077079445, -0.19847496, -1436135.4, 88939.0, 0.00015526546, 10.0006075, 9.999911 
1.3500908e+2, 1.543783e+2, -1378697.6, -1421612.0, 47.07664, 0.05037806, -0.18607709, -1378697.6, 48376.656, 0.000031126172, 10.0003805, 9.9998045 
1.3500723e+2, 1.6437823e+2, -1299633.8, -1337631.0, -3555.299, 0.033791322, -0.17094183, -1299304.0, 29771.277, 0.0000011270397, 10.000271, 9.999763 
1.3500553e+2, 1.7437786e+2, -1198550.1, -1240036.0, -4924.6343, 0.034473594, -0.18769608, -1197973.5, 33106.035, 0.0, 10.000301, 9.999744 
1.3500379e+2, 1.8437758e+2, -1110851.1, -1152954.9, 4220.2324, 0.019211018, -0.18588915, -1110432.4, 22650.42, 0.0, 10.000256, 9.999692 
1.3500194e+2, 1.9437754e+2, -1034314.2, -1068009.5, 9060.536, -0.017910363, -0.16134568, -1032032.4, 3050.8179, 0.0, 10.000121, 9.999667 
1.3500048e+2, 2.0437719e+2, -959495.75, -999732.1, 18589.902, -0.026383579, -0.15561081, -952221.8, -15135.266, 0.0, 10.000041, 9.999501 
1.3499956e+2, 2.1437639e+2, -864225.25, -906176.3, 16768.553, 0.0016495041, -0.18788107, -858346.4, -19252.93, 0.0, 10.000035, 9.999473 
1.349981e+2, 2.2437568e+2, -782183.5, -838309.2, 7146.363, -0.015232538, -0.19447328, -781287.9, -40187.734, 0.0, 10.000022, 9.999273 
1.3499598e+2, 2.3437516e+2, -688757.0, -745444.0, 3080.3015, -0.087385215, -0.17737375, -688590.1, -45484.133, 0.0, 10.000004, 9.999246 
1.3499455e+2, 2.4437459e+2, -599186.5, -637065.75, -1354.3147, -0.08447278, -0.16421518, -599138.2, -54026.58, 0.0, 9.999883, 9.999377 
1.3499396e+2, 2.5437397e+2, -538741.94, -558552.8, 7068.4673, 0.010875318, -0.1684955, -536478.5, -89361.87, 0.0, 9.999631, 9.999365 
1.349925e+2, 2.6437306e+2, -464544.13, -487768.38, 8294.755, 0.014638469, -0.18599573, -461885.84, -112760.56, 0.0, 9.9995365, 9.999223 
1.3499002e+2, 2.7437195e+2, -351495.6, -385889.22, -5767.124, -0.09092696, -0.22485329, -350554.34, -99417.04, 0.0, 9.999653, 9.999194 
1.3498853e+2, 2.843716e+2, -232113.11, -236185.16, -11213.788, -0.09588596, -0.19340236, -222752.0, -69611.83, 0.0, 9.99962, 9.999564 
1.3498802e+2, 2.9437223e+2, -164478.55, -142851.28, 5487.9507, 0.0050449483, -0.09667303, -141538.4, -86406.266, 0.0000005800232, 9.999371, 9.999653 
1.3498606e+2, 3.043696e+2, -181257.98, -166013.17, -23276.133, 0.0042501213, -0.3086524, -149143.14, -149143.14, 0.000016654767, 9.999096, 9.999294 
1.3498315e+2, 3.1437e+2, -136854.36, -3607.9375, 26388.91, -0.033236228, -0.19162974, 1427.9531, 1427.9531, 0.000086807726, 9.998793, 10.000556 
1.4501497e+2, 1.2438143e+2, -1568722.6, -1593417.3, 21647.365, 0.074625604, -0.21522273, -1556148.8, 164894.06, 0.0006852014, 10.000782, 10.000456 
1.4501324e+2, 1.3438082e+2, -1598468.6, -1727978.9, -4489.491, 0.06499351, -0.16705222, -1598313.3, 24736.44, 0.00038852147, 10.000645, 9.998925 
1.450114e+2, 1.4437997e+2, -1444350.9, -1481333.5, -5400.087, 0.064469166, -0.1982499, -1443578.5, 81479.86, 0.00015533686, 10.000503, 10.00001 
1.4500949e+2, 1.5438017e+2, -1376650.6, -1409143.1, 3385.7908, 0.055908788, -0.17691027, -1376301.6, 50754.242, 0.00003278088, 10.000343, 9.999908 
1.450076e+2, 1.6438015e+2, -1303786.3, -1348284.5, 13797.206, 0.043584045, -0.15906557, -1299855.5, 29200.867, 0.0000015078091, 10.000279, 9.999684 
1.4500579e+2, 1.7437969e+2, -1198340.8, -1249929.4, 8344.492, 0.028539537, -0.17721556, -1197024.5, 34037.33, 0.0, 10.000345, 9.999656 
1.4500403e+2, 1.843793e+2, -1098223.4, -1148598.1, 6818.5894, 0.014385756, -0.18080306, -1097316.8, 35749.395, 0.0, 10.000349, 9.999678 
1.450023e+2, 1.9437912e+2, -1012313.0, -1059011.8, 1747.5623, -0.00008692142, -0.16941491, -1012247.7, 22820.033, 0.0, 10.000278, 9.999654 
1.4500083e+2, 2.0437872e+2, -939443.94, -991186.94, 10657.463, -0.004265989, -0.16542503, -937334.8, -263.52167, 0.0, 10.000183, 9.999492 
1.4499962e+2, 2.1437809e+2, -861154.2, -905534.56, 12508.584, 0.0039241067, -0.18191689, -857871.44, -18794.578, 0.0, 10.000061, 9.999465 
1.4499806e+2, 2.2437741e+2, -790489.4, -841381.44, 10710.978, -0.017355327, -0.18548323, -788327.0, -47243.617, 0.0, 9.999961, 9.999281 
1.4499605e+2, 2.3437676e+2, -705184.8, -752188.44, 14785.133, -0.0746143, -0.18279377, -700920.94, -57830.418, 0.0, 9.999886, 9.999257 
1.4499454e+2, 2.4437614e+2, -600266.44, -626777.2, 8042.9707, -0.07091162, -0.17808518, -598017.2, -52921.086, 0.0, 9.999829, 9.999474 
1.4499362e+2, 2.5437564e+2, -507940.66, -532825.25, 6169.111, 0.006694299, -0.18185633, -506495.22, -59395.85, 0.0, 9.999796, 9.999462 
1.4499202e+2, 2.6437476e+2, -445033.1, -488791.16, 17964.53, 0.0048391265, -0.19758205, -438602.8, -89495.19, 0.0, 9.999714, 9.99913 
1.4498962e+2, 2.7437353e+2, -375158.75, -408574.94, 26591.814, -0.08998052, -0.23505959, -360461.7, -109340.45, 0.0, 9.999539, 9.999092 
1.449881e+2, 2.8437322e+2, -269925.1, -241357.45, 16605.613, -0.08438456, -0.20031814, -233737.53, -80613.48, 0.0, 9.999307, 9.99968 
1.4498743e+2, 2.9437405e+2, -207716.05, -150744.6, 11714.916, 0.026016494, -0.09572924, -148429.73, -93315.96, 0.00000034163278, 9.999017, 9.999769 
1.4498517e+2, 3.0437165e+2, -189122.03, -152718.86, -19724.81, 0.013558698, -0.30076882, -144080.81, -144080.81, 0.000012640429, 9.998966, 9.999449 
1.4498204e+2, 3.1437203e+2, -101261.4, -5226.301, 28080.025, -0.03943547, -0.19820394, 2381.4395, 2381.4395, 0.00007115946, 9.999117, 10.000389 
1.5501587e+2, 1.24383256e+2, -1574548.8, -1608114.4, 17613.535, 0.083430596, -0.19780648, -1567002.6, 154022.6, 0.0006719969, 10.000793, 10.000349 
1.5501374e+2, 1.3438244e+2, -1601089.9, -1732833.9, -9689.126, 0.049130734, -0.16508454, -1600381.1, 22653.166, 0.00038301162, 10.000641, 9.998894 
1.5501164e+2, 1.4438157e+2, -1429863.8, -1450010.6, -11775.022, 0.037551958, -0.21055564, -1424441.1, 100602.055, 0.00015494693, 10.000498, 10.000227 
1.5500969e+2, 1.5438206e+2, -1359414.0, -1374555.3, -2167.0005, 0.04112972, -0.18208462, -1359110.0, 67926.93, 0.000033834087, 10.000349, 10.000143 
1.550078e+2, 1.6438214e+2, -1310631.9, -1364011.5, 14991.159, 0.03475524, -0.16041192, -1306710.0, 22325.996, 0.0000017896223, 10.000285, 9.999574 
1.5500599e+2, 1.743816e+2, -1208051.1, -1269774.1, 11095.398, 0.014031162, -0.17356575, -1206117.3, 24925.484, 0.0, 10.000343, 9.999519 
1.5500438e+2, 1.8438108e+2, -1107364.8, -1167346.8, 4102.56, 0.013418107, -0.17610605, -1107085.4, 25963.168, 0.0, 10.000348, 9.99955 
1.5500301e+2, 1.9438072e+2, -1021051.4, -1077110.0, -611.71075, 0.040569037, -0.17077285, -1021044.7, 14007.498, 0.0, 10.0002775, 9.99953 
1.5500136e+2, 2.0438026e+2, -937303.5, -986251.1, 5840.7217, 0.030436419, -0.16787179, -936616.2, 440.27182, 0.0, 10.000181, 9.999527 
1.5499938e+2, 2.1437971e+2, -857964.0, -898847.2, 8409.427, -0.027757855, -0.17918836, -856301.8, -17240.77, 0.0, 10.00006, 9.999512 
1.5499781e+2, 2.2437914e+2, -781957.94, -823061.06, 7465.374, -0.03827344, -0.1832762, -780644.06, -39577.566, 0.0, 9.999959, 9.999409 
1.5499681e+2, 2.3437853e+2, -696695.06, -733979.0, 12311.853, 0.012811052, -0.18821333, -692996.4, -49923.85, 0.0, 9.999883, 9.999383 
1.5499513e+2, 2.4437785e+2, -602171.7, -629748.56, 6488.2583, 0.004428685, -0.19572642, -600721.4, -55642.99, 0.0, 9.9998255, 9.999455 
1.5499254e+2, 2.5437713e+2, -509296.34, -535652.9, 5586.882, -0.082568295, -0.21751511, -508160.97, -61077.31, 0.0, 9.999796, 9.999443 
1.549907e+2, 2.6437637e+2, -431694.9, -460719.5, 11583.027, -0.09752421, -0.22963877, -427639.13, -78548.625, 0.0, 9.999713, 9.999324 
1.5498994e+2, 2.7437568e+2, -361471.16, -379160.06, 20181.02, -0.012189787, -0.2368826, -348281.6, -97183.01, 0.0, 9.999536, 9.999295 
1.5498856e+2, 2.8437546e+2, -279349.75, -259912.7, 5439.1255, 0.029888043, -0.19750418, -258494.17, -105393.43, 0.0, 9.999302, 9.999556 
1.5498608e+2, 2.943759e+2, -217136.72, -170829.66, 2532.8372, -0.010054533, -0.11685322, -170691.53, -115596.125, 0.00000019535571, 9.999019, 9.999631 
1.5498331e+2, 3.0437362e+2, -181010.13, -135185.78, -14616.39, -0.06863069, -0.30571616, -130920.64, -130920.64, 0.000009261703, 9.998963, 9.99957 
1.5498148e+2, 3.1437436e+2, -115743.83, -33714.035, 36411.402, -0.009189479, -0.18194634, -19883.586, -19883.586, 0.00005700469, 9.99911, 10.0001955 
1.6501646e+2, 1.2438503e+2, -1584975.3, -1609377.6, 18942.787, 0.06812502, -0.19442995, -1574644.3, 146363.92, 0.00065754744, 10.000703, 10.000384 
1.6501419e+2, 1.3438435e+2, -1636578.1, -1737377.0, -2185.9993, 0.046646435, -0.15914488, -1636530.8, -13515.3125, 0.00037533476, 10.000342, 9.999005 
1.6501203e+2, 1.4438336e+2, -1466008.8, -1472524.9, 5197.725, 0.03850099, -0.21827067, -1463132.4, 61892.754, 0.00015252095, 10.000271, 10.000181 
1.6501e+2, 1.5438376e+2, -1331486.8, -1367039.1, -7315.749, 0.02693136, -0.19555831, -1330040.3, 96979.79, 0.000033788867, 10.000566, 10.00009 
1.6500813e+2, 1.6438384e+2, -1256123.8, -1329966.1, -274.7541, 0.022382924, -0.17389743, -1256122.8, 72896.27, 0.0000018950186, 10.000627, 9.999643 
1.6500647e+2, 1.7438345e+2, -1196463.5, -1255933.1, 10130.763, 0.023499193, -0.1783824, -1194785.1, 36238.734, 0.0, 10.000387, 9.999594 
1.6500486e+2, 1.8438296e+2, -1121189.6, -1180154.6, 17990.64, 0.030700471, -0.18009707, -1116134.0, 16895.422, 0.0, 10.00028, 9.999494 
1.6500337e+2, 1.9438247e+2, -1014847.75, -1081265.9, 17323.957, 0.04643301, -0.18269886, -1010600.7, 24433.912, 0.0, 10.000351, 9.999466 
1.6500159e+2, 2.04382e+2, -922501.1, -976557.9, 19589.129, 0.031089837, -0.17768688, -916148.8, 20890.297, 0.0, 10.000272, 9.99955 
1.6499944e+2, 2.1438164e+2, -864330.44, -898545.94, 19863.664, -0.024797784, -0.17458667, -855222.94, -16180.557, 0.0, 10.000002, 9.999542 
1.6499777e+2, 2.243811e+2, -797156.9, -825140.8, 21114.441, -0.031946927, -0.17659728, -785819.1, -44771.906, 0.0, 9.999832, 9.999455 
1.6499676e+2, 2.3438044e+2, -706543.9, -733416.6, 19264.553, 0.023667835, -0.19323647, -696492.8, -53439.27, 0.0, 9.999793, 9.999431 
1.6499501e+2, 2.4437976e+2, -614280.7, -636192.9, 11748.455, 0.014215, -0.20296197, -609172.44, -64113.082, 0.0, 9.999743, 9.99945 
1.6499227e+2, 2.5437912e+2, -527889.9, -544952.75, 12109.91, -0.08145618, -0.21449047, -521607.94, -74543.77, 0.0, 9.99967, 9.999439 
1.6499035e+2, 2.643785e+2, -455004.2, -451967.63, 11035.004, -0.09287461, -0.22593956, -442346.94, -93277.11, 0.0, 9.999468, 9.999501 
1.6498952e+2, 2.743778e+2, -411062.6, -382402.1, 16638.121, 0.012632108, -0.24675311, -374773.66, -123697.57, 0.0, 9.999105, 9.99948 
1.6498795e+2, 2.8437755e+2, -322907.34, -299397.5, 11860.115, 0.05028515, -0.21677324, -294453.9, -141375.08, 0.0, 9.999083, 9.999389 
1.6498516e+2, 2.943778e+2, -167237.44, -168135.98, 5369.345, -0.026116459, -0.13446377, -162298.6, -107222.13, 0.00000010392393, 9.9994545, 9.999438 
1.6498223e+2, 3.0437577e+2, -98467.35, -72185.29, -18681.354, -0.096901454, -0.29839292, -62486.01, -62486.01, 0.0000064948904, 9.99943, 9.999777 
1.6498062e+2, 3.1437647e+2, -154133.3, -59471.863, 37102.633, 0.0074070985, -0.2015645, -46662.727, -46662.727, 0.000044405664, 9.998877, 10.00013 
1.7501673e+2, 1.2438678e+2, -1572659.0, -1583766.1, 7389.5347, 0.021931583, -0.20270069, -1568968.8, 152022.8, 0.0006370072, 10.000702, 10.000561 
1.7501463e+2, 1.3438654e+2, -1617830.8, -1700328.8, -15158.787, 0.055014, -0.15036711, -1615133.5, 7859.879, 0.00036284848, 10.000349, 9.999256 
1.7501257e+2, 1.443854e+2, -1486617.4, -1516700.1, 13904.909, 0.064184554, -0.22317083, -1481174.9, 43829.547, 0.00014707113, 10.000277, 9.999875 
1.7501041e+2, 1.543853e+2, -1355469.9, -1416729.3, 4143.4175, 0.009182178, -0.21601836, -1355190.9, 71814.33, 0.00003249045, 10.000566, 9.999749 
1.7500858e+2, 1.6438527e+2, -1238687.6, -1293774.6, -8575.36, 0.002241837, -0.19809893, -1237383.6, 91621.83, 0.0000018022155, 10.000626, 9.999892 
1.7500716e+2, 1.7438528e+2, -1176396.4, -1214261.4, 1422.5092, 0.054874472, -0.19192389, -1176343.0, 54662.3, 0.0, 10.000387, 9.99988 
1.7500548e+2, 1.8438494e+2, -1120195.1, -1178428.0, 19658.326, 0.06310904, -0.19276917, -1114180.1, 18828.55, 0.0, 10.000281, 9.999506 
1.7500342e+2, 1.9438435e+2, -1015342.7, -1082064.3, 20399.377, 0.016010137, -0.20546132, -1009600.06, 25414.951, 0.0, 10.00035, 9.999461 
1.7500152e+2, 2.0438394e+2, -921866.6, -974749.9, 9898.7, -0.0040843054, -0.19480886, -920074.56, 16944.826, 0.0, 10.000269, 9.999563 
1.7499979e+2, 2.1438384e+2, -863972.56, -896952.8, 10075.22, 0.010565511, -0.16819897, -861138.25, -22117.348, 0.0, 9.999998, 9.999555 
1.7499793e+2, 2.2438334e+2, -800037.3, -830247.44, 18757.787, -0.0009227017, -0.16472277, -791058.8, -50033.215, 0.0, 9.999828, 9.999422 
1.7499588e+2, 2.3438245e+2, -708927.44, -738549.7, 18316.098, -0.044553023, -0.19922182, -700183.3, -57149.63, 0.0, 9.999793, 9.999395 
1.7499417e+2, 2.4438183e+2, -613756.44, -634813.75, 8695.587, -0.04403441, -0.20132494, -610629.8, -65590.63, 0.0, 9.9997425, 9.99946 
1.7499286e+2, 2.5438163e+2, -527264.0, -542881.06, 9461.825, 0.0086900545, -0.17276087, -522804.7, -75763.74, 0.0, 9.999666, 9.9994545 
1.7499094e+2, 2.6438105e+2, -444103.94, -428972.63, -2277.6313, 0.018184043, -0.18634534, -428637.22, -79591.57, 0.0, 9.999465, 9.9996605 
1.7498831e+2, 2.7437997e+2, -398929.78, -357393.13, 3788.3584, -0.018812638, -0.26495323, -357050.44, -105996.59, 0.0, 9.999106, 9.999652 
1.7498626e+2, 2.8437945e+2, -338434.94, -331324.7, 23997.697, -0.027904605, -0.25809446, -310620.22, -157561.81, 0.0, 9.999081, 9.99917 
1.7498462e+2, 2.9437974e+2, -185550.61, -205161.77, 20209.15, -0.026134145, -0.14911139, -172893.8, -117836.56, 0.00000004563321, 9.999451, 9.999186 
1.7498188e+2, 3.0437806e+2, -77505.484, -28367.326, -37609.945, -0.074704476, -0.27959135, -8012.6064, -8012.6064, 0.000004309572, 9.999429, 10.000078 
1.7497951e+2, 3.1437838e+2, -147904.47, -47218.78, 16708.229, 0.005219713, -0.25169745, -44518.56, -44518.56, 0.000033397264, 9.9988785, 10.000214 
1.8501729e+2, 1.24388784e+2, -1592509.1, -1605096.6, 24419.033, 0.012365898, -0.20701896, -1573585.9, 147386.17, 0.0006065531, 10.000617, 10.000454 
1.850151e+2, 1.3438863e+2, -1553142.5, -1671986.1, -23046.025, 0.043101422, -0.14372203, -1548830.0, 74143.14, 0.00034376056, 10.000807, 9.999229 
1.8501303e+2, 1.4438742e+2, -1426622.3, -1492505.9, 4642.366, 0.059188284, -0.21989267, -1426296.8, 98688.164, 0.00013809917, 10.00071, 9.999832 
1.8501082e+2, 1.543873e+2, -1405030.0, -1444923.0, 16391.268, 0.010723336, -0.21072502, -1399159.1, 27826.834, 0.000029920388, 10.000244, 9.99971 
1.8500896e+2, 1.6438726e+2, -1313132.6, -1328990.3, 12037.291, 0.0046895053, -0.19277772, -1306647.5, 22338.887, 0.0000015280342, 10.000113, 9.999898 
1.8500751e+2, 1.7438728e+2, -1172975.0, -1211379.9, 537.66046, 0.0489778, -0.18542157, -1172967.5, 58018.87, 0.0, 10.000405, 9.999891 
1.8500571e+2, 1.8438701e+2, -1094354.8, -1153189.6, 5718.193, 0.052022908, -0.18698911, -1093804.1, 39184.926, 0.0, 10.000403, 9.99962 
1.8500347e+2, 1.943865e+2, -1053127.8, -1086391.4, 15112.8545, 0.0030694155, -0.20397462, -1047287.0, -12292.977, 0.0, 10.0000305, 9.999585 
1.8500154e+2, 2.0438613e+2, -981639.5, -1004722.5, 12124.241, -0.008736399, -0.1951786, -976441.75, -39443.926, 0.0, 9.999865, 9.999553 
1.8499993e+2, 2.1438602e+2, -869611.0, -901792.6, 9024.908, 0.026034322, -0.16618922, -867252.9, -28253.127, 0.0, 9.999969, 9.9995365 
1.8499796e+2, 2.2438556e+2, -774396.06, -810167.56, 21051.133, 0.012346435, -0.16218726, -764658.44, -23654.242, 0.0, 9.99997, 9.999491 
1.8499553e+2, 2.3438472e+2, -696456.9, -724013.25, 28494.781, -0.061467037, -0.19775844, -678584.0, -35572.723, 0.0, 9.999843, 9.999472 
1.8499374e+2, 2.4438414e+2, -625005.0, -641254.06, 20920.26, -0.057904754, -0.20022787, -610687.06, -65670.65, 0.0, 9.999671, 9.99945 
1.8499272e+2, 2.5438395e+2, -560823.3, -561016.7, 18281.854, 0.04001549, -0.17046101, -542637.9, -95619.23, 0.0, 9.999445, 9.999436 
1.8499072e+2, 2.6438338e+2, -452748.84, -434922.25, 2059.0986, 0.05372192, -0.18063645, -434687.5, -85664.23, 0.0, 9.999414, 9.999643 
1.8498755e+2, 2.7438232e+2, -325300.88, -323385.63, -6237.2393, -0.030868473, -0.2548313, -318032.94, -67002.15, 0.0, 9.9996195, 9.999638 
1.8498534e+2, 2.8438166e+2, -283244.7, -305057.16, 13381.269, -0.046159968, -0.26114836, -276888.13, -123851.8, 0.0, 9.999462, 9.9991665 
1.8498406e+2, 2.9438165e+2, -274002.13, -248884.36, 26611.31, 0.0018265033, -0.18110387, -232017.28, -176979.55, 0.000000013949684, 9.998848, 9.999174 
1.8498126e+2, 3.0438033e+2, -158788.67, -64042.523, -22408.385, -0.05075908, -0.27455732, -59010.027, -59010.027, 0.0000026617806, 9.998855, 10.00011 
1.8497856e+2, 3.143806e+2, -54560.594, -16197.143, 6248.803, -0.011493653, -0.26097143, -15204.971, -15204.971, 0.000023992492, 9.999581, 10.000087 
1.9501817e+2, 1.24391034e+2, -1619137.3, -1661645.5, 32587.52, 0.035716303, -0.20791936, -1601485.3, 119464.2, 0.0005643703, 10.000622, 10.000064 
1.9501556e+2, 1.3439064e+2, -1574440.4, -1716285.8, -15498.2295, 0.007819536, -0.13824417, -1572766.8, 50187.797, 0.00031730495, 10.000807, 9.998926 
1.9501334e+2, 1.4438944e+2, -1410992.1, -1460402.9, -11711.75, 0.01952625, -0.20737348, -1408356.6, 116609.984, 0.00012543245, 10.0007105, 10.000052 
1.9501126e+2, 1.5438975e+2, -1386395.0, -1406994.8, -586.9722, 0.02969902, -0.18006001, -1386378.3, 40583.92, 0.000026112697, 10.000247, 9.9999695 
1.950093e+2, 1.6438979e+2, -1329605.1, -1363427.6, 21023.035, 0.027129987, -0.15856995, -1319535.8, 9426.357, 0.0000011234973, 10.0001135, 9.999661 
1.9500747e+2, 1.7438947e+2, -1191808.1, -1250263.9, 12086.006, 0.004463093, -0.15855844, -1189407.9, 41559.055, 0.0, 10.000404, 9.999625 
1.9500555e+2, 1.8438914e+2, -1078865.5, -1120815.8, -7093.367, -0.004890683, -0.16219352, -1077698.6, 55271.863, 0.0, 10.000402, 9.999843 
1.9500354e+2, 1.9438887e+2, -1035807.94, -1050022.9, 1214.301, 0.0058926353, -0.17784327, -1035704.94, -733.3675, 0.0, 10.000029, 9.999836 
1.9500163e+2, 2.0438854e+2, -984196.6, -1009662.8, 14678.298, 0.01456825, -0.17797258, -977498.2, -40523.76, 0.0, 9.999862, 9.99952 
1.9499983e+2, 2.1438816e+2, -873243.0, -909061.56, 13658.793, 0.01967812, -0.16975366, -868628.9, -29649.742, 0.0, 9.999967, 9.999487 
1.9499786e+2, 2.2438772e+2, -762958.3, -785867.56, 16320.036, 0.0062077204, -0.16952573, -754474.25, -13490.987, 0.0, 9.999969, 9.999659 
1.949957e+2, 2.3438725e+2, -683829.75, -697204.3, 23999.713, -0.028790224, -0.18874861, -665603.06, -22616.793, 0.0, 9.99984, 9.999657 
1.949937e+2, 2.4438667e+2, -627484.5, -646108.4, 12195.363, -0.029014472, -0.19933596, -621452.4, -76461.39, 0.0, 9.999669, 9.999417 
1.9499187e+2, 2.5438604e+2, -564411.2, -568340.4, 10175.392, 0.010116374, -0.20836128, -556012.44, -109015.086, 0.0, 9.999444, 9.999387 
1.9498971e+2, 2.643854e+2, -467070.75, -464368.3, 8388.904, 0.011213251, -0.20907614, -457222.5, -108219.734, 0.0, 9.9994135, 9.999442 
1.9498722e+2, 2.7438483e+2, -339867.75, -353342.78, 1606.1332, -0.025736129, -0.21645501, -339678.94, -88671.91, 0.0, 9.999618, 9.9994335 
1.949852e+2, 2.8438416e+2, -268549.22, -273881.84, -8311.726, -0.0062752394, -0.22570421, -262486.63, -109473.87, 0.0, 9.999459, 9.999382 
1.9498344e+2, 2.9438353e+2, -257968.31, -215655.0, 4716.743, 0.05592177, -0.23085725, -215135.6, -160117.5, 0.0000000023315327, 9.998848, 9.999403 
1.9498035e+2, 3.0438262e+2, -176121.38, -99614.35, 1683.0123, -0.027737338, -0.28306952, -99577.34, -99577.34, 0.0000014940416, 9.998854, 9.999866 
1.9497778e+2, 3.143831e+2, -79698.73, -68063.98, 32614.18, -0.050356537, -0.22160912, -40752.41, -40752.41, 0.00001627015, 9.99958, 9.999731 
2.0501906e+2, 1.2439339e+2, -1564044.0, -1642951.8, 33824.08, 0.04121288, -0.20510851, -1551529.9, 169396.61, 0.0005112227, 10.001038, 9.999991 
2.0501605e+2, 1.3439308e+2, -1625828.9, -1739282.8, 4061.0437, -0.0058703595, -0.12761351, -1625683.8, -2752.779, 0.00028397882, 10.000447, 9.998942 
2.0501366e+2, 1.4439185e+2, -1483274.5, -1493130.9, 16897.254, 0.0050368947, -0.20135038, -1470601.4, 54341.82, 0.000109345056, 10.000205, 10.000072 
2.0501156e+2, 1.543921e+2, -1363080.0, -1392332.9, 9760.529, 0.027873661, -0.18422417, -1360122.4, 66816.836, 0.000021261263, 10.000392, 10.0 
2.0500953e+2, 1.6439208e+2, -1293913.0, -1351569.3, 35370.563, 0.025320413, -0.16428784, -1277110.8, 51828.52, 0.00000067965186, 10.000381, 9.999614 
2.0500752e+2, 1.7439185e+2, -1235333.4, -1277040.5, 42201.67, -0.016599098, -0.15227814, -1209114.1, 21829.828, 0.0, 10.000131, 9.999574 
2.0500557e+2, 1.8439156e+2, -1132944.3, -1147595.8, 18628.77, -0.024593743, -0.14903739, -1120252.5, 12694.927, 0.0, 10.000034, 9.999837 
2.0500371e+2, 1.9439128e+2, -1020178.0, -1042383.4, 6869.92, 0.013309449, -0.1651863, -1018224.44, 16724.258, 0.0, 10.000135, 9.999837 
2.0500174e+2, 2.0439093e+2, -946381.75, -988372.1, 16718.314, 0.02592308, -0.17012465, -940538.56, -3586.8164, 0.0, 10.000109, 9.999547 
2.0499964e+2, 2.1439049e+2, -877465.8, -907695.6, 21154.81, 0.0048127905, -0.17108995, -866581.0, -27624.436, 0.0, 9.999924, 9.999517 
2.0499761e+2, 2.2439006e+2, -793858.9, -801694.5, 18501.105, -0.0045411247, -0.17019409, -778865.3, -37904.813, 0.0, 9.999761, 9.999651 
2.0499574e+2, 2.3438969e+2, -715454.94, -713446.6, 10509.576, 0.0027617123, -0.1774703, -703893.4, -60930.38, 0.0, 9.999628, 9.999647 
2.0499368e+2, 2.4438912e+2, -631627.4, -642984.94, -2405.5935, 0.004035299, -0.19027881, -631138.9, -86171.08, 0.0, 9.9996195, 9.999463 
2.049913e+2, 2.5438833e+2, -514069.4, -538653.06, 2416.0562, -0.0069489777, -0.21753512, -513834.22, -66859.32, 0.0, 9.999766, 9.999435 
2.0498899e+2, 2.6438773e+2, -430725.44, -452650.34, 8961.647, -0.016778324, -0.21726479, -427528.56, -78548.484, 0.0, 9.999687, 9.999392 
2.0498681e+2, 2.7438733e+2, -389137.75, -383697.94, 11971.756, -0.013827446, -0.19981492, -374141.0, -123157.94, 0.0, 9.999308, 9.999374 
2.0498481e+2, 2.8438658e+2, -294976.3, -285320.34, 383.66876, 0.019375326, -0.21445003, -285305.13, -132315.55, 0.0, 9.999271, 9.999394 
2.0498276e+2, 2.9438558e+2, -138254.64, -156704.27, -3599.222, 0.061180253, -0.25744155, -137577.36, -82579.56, 0.000000000097020676, 9.999665, 9.999414 
2.049795e+2, 3.04385e+2, -65106.992, -61679.867, -2510.744, -0.03906875, -0.27011046, -60353.67, -60353.67, 0.00000072960836, 9.999682, 9.999728 
2.0497718e+2, 3.1438524e+2, -151164.66, -116697.22, 33365.344, -0.04550372, -0.22296813, -96377.68, -96377.68, 0.00001031642, 9.999148, 9.999607 
2.1501994e+2, 1.2439583e+2, -1547801.8, -1609780.4, 16164.655, 0.023677189, -0.19746068, -1543839.3, 177063.6, 0.00045034575, 10.001039, 10.000218 
2.1501657e+2, 1.3439594e+2, -1602647.1, -1692161.6, -17443.99, 0.00014397626, -0.112111464, -1599367.9, 23534.457, 0.0002457903, 10.000451, 9.999264 
2.1501397e+2, 1.4439462e+2, -1495057.3, -1518397.3, 21734.123, 0.012532175, -0.20164324, -1482058.3, 42856.715, 0.00009091271, 10.000209, 9.999897 
2.1501172e+2, 1.5439428e+2, -1376997.3, -1420963.0, 17382.143, 0.003368098, -0.2227356, -1370955.4, 55961.492, 0.000015871614, 10.000391, 9.9998045 
2.1500964e+2, 1.643942e+2, -1284047.6, -1331025.9, 26642.963, -0.0033946245, -0.20926447, -1272018.0, 56900.035, 0.00000031009594, 10.0003805, 9.999755 
2.1500768e+2, 1.7439441e+2, -1223822.1, -1253866.0, 33094.367, -0.01599948, -0.1662543, -1202499.9, 28417.756, 0.0, 10.0001335, 9.999731 
2.1500576e+2, 1.8439426e+2, -1148662.4, -1180493.9, 21520.322, -0.010281472, -0.14741747, -1137811.8, -4891.5815, 0.0, 10.000035, 9.999611 
2.1500395e+2, 1.9439371e+2, -1037723.5, -1078634.5, 11238.062, 0.023767017, -0.16653243, -1034839.7, 85.76349, 0.0, 10.000135, 9.999589 
2.1500184e+2, 2.0439325e+2, -940696.4, -975977.7, 10154.158, 0.023820411, -0.17186423, -937982.7, -1052.9875, 0.0, 10.000107, 9.999634 
2.149993e+2, 2.1439295e+2, -870197.2, -892172.9, 14680.878, -0.020418204, -0.16946067, -862847.6, -23915.55, 0.0, 9.999922, 9.999625 
2.149972e+2, 2.2439255e+2, -807235.2, -828664.7, 12931.918, -0.02212047, -0.16399702, -801155.9, -60219.91, 0.0, 9.999757, 9.999467 
2.1499567e+2, 2.3439205e+2, -730273.44, -743464.3, 5907.603, 0.03144584, -0.1646691, -728014.56, -85073.07, 0.0, 9.999625, 9.999442 
2.1499366e+2, 2.4439146e+2, -623456.06, -625767.6, 1955.0134, 0.03983091, -0.17264988, -622340.75, -77393.9, 0.0, 9.999618, 9.999582 
2.1499102e+2, 2.5439084e+2, -503642.1, -516803.56, 8330.616, -0.013335893, -0.19842768, -499606.56, -52655.246, 0.0, 9.999765, 9.999586 
2.1498853e+2, 2.643903e+2, -424793.0, -439720.5, -4427.5093, -0.032081608, -0.2053038, -423578.6, -74623.28, 0.0, 9.999684, 9.999482 
2.1498628e+2, 2.743898e+2, -383756.28, -372237.06, -1878.6228, 0.002609476, -0.20588818, -371938.44, -120979.41, 0.0, 9.999307, 9.999454 
2.1498418e+2, 2.843889e+2, -308843.72, -313435.38, 12517.238, 0.028705189, -0.22754335, -298413.5, -145446.53, 0.0, 9.999269, 9.999203 
2.1498194e+2, 2.943878e+2, -152472.17, -187076.84, 11794.243, 0.013310928, -0.2615456, -148834.72, -93857.64, 0.0, 9.999668, 9.999206 
2.1497868e+2, 3.043875e+2, -67327.83, -64712.855, -20110.422, -0.08817542, -0.23610023, -45867.46, -45867.46, 0.0000002906552, 9.999678, 9.999709 
2.1497677e+2, 3.14387e+2, -144061.47, -101296.805, 10445.162, -0.002345908, -0.25848606, -98881.96, -98881.96, 0.0000060416633, 9.999146, 9.999714 
2.2502062e+2, 1.2439825e+2, -1638412.6, -1652035.6, 25734.682, 0.018918756, -0.21103618, -1618603.3, 102275.29, 0.0003861587, 10.000413, 10.000231 
2.2501709e+2, 1.3439848e+2, -1581442.3, -1670365.0, -29731.771, 0.0028966742, -0.123704135, -1572417.3, 50459.473, 0.00020573656, 10.000549, 9.999366 
2.2501433e+2, 1.4439723e+2, -1457603.5, -1504511.0, 12612.951, 0.014187246, -0.20971647, -1454427.1, 70461.75, 0.00007189719, 10.0004835, 9.99986 
2.2501178e+2, 1.5439695e+2, -1407621.9, -1439809.5, 19095.674, -0.020519868, -0.22027819, -1398742.6, 28148.078, 0.000010694928, 10.000199, 9.999768 
2.2500965e+2, 1.6439687e+2, -1324693.6, -1345772.9, 31085.701, -0.02659182, -0.20728007, -1302409.4, 26482.393, 0.000000092361944, 10.00008, 9.9998 
2.250079e+2, 1.74397e+2, -1215482.6, -1243607.1, 28697.574, -0.007763995, -0.17742983, -1197587.1, 33304.52, 0.0, 10.000164, 9.999787 
2.2500603e+2, 1.8439683e+2, -1128491.6, -1179845.1, 23777.475, 0.0047031622, -0.15957773, -1119173.1, 13721.187, 0.0, 10.000213, 9.99953 
2.2500403e+2, 1.9439633e+2, -1030422.44, -1085142.5, 25161.764, 0.013457985, -0.16509731, -1020611.44, 14288.541, 0.0, 10.000228, 9.9995 
2.2500178e+2, 2.0439586e+2, -933557.06, -972176.4, 19776.346, 0.0075812377, -0.16754207, -925226.8, 11677.783, 0.0, 10.000154, 9.999638 
2.2499926e+2, 2.1439546e+2, -862709.3, -887341.5, 15852.921, -0.018595869, -0.17573877, -854950.5, -16043.04, 0.0, 9.999969, 9.999636 
2.2499709e+2, 2.2439502e+2, -790737.1, -830262.44, 20620.332, -0.017410833, -0.17047268, -781938.25, -41026.36, 0.0, 9.999912, 9.999381 
2.2499536e+2, 2.3439455e+2, -680059.8, -729968.2, 21709.002, 0.019837907, -0.15751241, -671938.44, -29020.57, 0.0, 10.000015, 9.999348 
2.2499333e+2, 2.4439403e+2, -576599.9, -595250.75, 17942.482, 0.031492513, -0.15775649, -565704.1, -20781.191, 0.0, 9.999906, 9.999654 
2.2499086e+2, 2.543935e+2, -533847.56, -522536.25, 17960.32, 0.006391506, -0.18388928, -509362.16, -62436.01, 0.0, 9.99952, 9.999665 
2.2498831e+2, 2.6439294e+2, -457875.97, -454496.5, 3425.4253, -0.00933614, -0.19470339, -452366.72, -103436.92, 0.0, 9.999453, 9.999492 
2.2498578e+2, 2.7439237e+2, -314173.94, -338053.03, -37.867165, -0.0030069964, -0.20342547, -314173.88, -63239.613, 0.0, 9.999783, 9.999459 
2.2498357e+2, 2.8439143e+2, -239341.4, -287367.28, 17022.29, 0.014544445, -0.22634755, -233920.02, -80976.99, 0.0, 9.999778, 9.999138 
2.2498149e+2, 2.9439038e+2, -209098.23, -223918.72, 24704.656, 0.017371641, -0.2502536, -190716.39, -135762.67, 0.0, 9.99932, 9.999121 
2.2497816e+2, 3.0439037e+2, -133305.38, -97181.38, -2798.2876, -0.08585859, -0.18824379, -96965.91, -96965.91, 0.000000085825576, 9.999226, 9.999705 
2.2497611e+2, 3.143894e+2, -66154.336, -37412.31, 22756.72, -0.004703898, -0.25881872, -24868.746, -24868.746, 0.0000031779714, 9.999569, 9.9999485 
2.3502105e+2, 1.2440066e+2, -1651975.3, -1680946.6, 32973.33, 0.019849747, -0.24216639, -1630446.0, 90407.55, 0.00032267286, 10.000417, 10.0000305 
2.3501763e+2, 1.3440071e+2, -1590451.1, -1687846.5, -24504.637, 0.0002927802, -0.16145666, -1584633.4, 38220.836, 0.0001666326, 10.000544, 9.9992485 
2.3501475e+2, 1.4439967e+2, -1451318.3, -1490695.6, 2446.5544, 0.007659621, -0.22540785, -1451166.9, 73698.16, 0.00005400246, 10.000481, 9.999957 
2.3501173e+2, 1.544001e+2, -1399070.0, -1423588.0, 8841.047, -0.046205614, -0.17700371, -1396214.6, 30646.172, 0.000006396683, 10.000205, 9.999878 
2.3500952e+2, 1.6440009e+2, -1326815.3, -1351331.5, 33045.5, -0.048261, -0.15866125, -1303827.5, 25033.44, 0.000000013163342, 10.000086, 9.999759 
2.3500821e+2, 1.7439961e+2, -1218541.6, -1250118.1, 32243.297, 0.006001624, -0.18622622, -1198428.6, 32437.398, 0.0, 10.000164, 9.9997425 
2.3500638e+2, 1.8439926e+2, -1124538.4, -1171011.6, 24230.197, 0.018233644, -0.18567789, -1114203.5, 18666.463, 0.0, 10.000211, 9.999591 
2.3500392e+2, 1.9439913e+2, -1025492.9, -1075145.0, 26010.484, -0.019178027, -0.15986934, -1014362.3, 20509.889, 0.0, 10.000229, 9.999568 
2.3500162e+2, 2.0439872e+2, -939125.5, -983081.44, 12964.74, -0.025039863, -0.15685245, -935586.5, 1290.0133, 0.0, 10.000152, 9.999563 
2.349995e+2, 2.14398e+2, -869124.4, -899865.7, 9435.557, 0.007874109, -0.19066575, -866459.3, -27576.424, 0.0, 9.999966, 9.999551 
2.3499726e+2, 2.2439747e+2, -790438.0, -828968.1, 23565.854, 0.0074921874, -0.18978286, -779264.75, -38376.36, 0.0, 9.999909, 9.999392 
2.3499486e+2, 2.3439723e+2, -678223.75, -726057.94, 26166.34, -0.033569213, -0.1555758, -666690.8, -23798.57, 0.0, 10.000015, 9.999374 
2.3499271e+2, 2.4439682e+2, -576047.4, -593970.5, 4173.561, -0.022676542, -0.14601469, -575123.2, -30227.016, 0.0, 9.999905, 9.999663 
2.3499082e+2, 2.5439626e+2, -534229.5, -522629.1, 3722.527, 0.04970776, -0.17419878, -521537.3, -74637.8, 0.0, 9.999517, 9.999666 
2.3498836e+2, 2.6439568e+2, -463053.63, -464476.72, 13513.405, 0.049375594, -0.18483925, -450233.06, -101329.445, 0.0, 9.99945, 9.999425 
2.3498526e+2, 2.7439505e+2, -317930.75, -345741.9, 12843.781, -0.033944692, -0.19305469, -312906.78, -61997.848, 0.0, 9.999782, 9.999407 
2.3498294e+2, 2.8439417e+2, -236226.17, -280417.16, 1625.4003, -0.025408925, -0.21166492, -236166.47, -83248.625, 0.0, 9.999775, 9.999187 
2.3498136e+2, 2.9439324e+2, -206458.83, -218673.73, 8075.2104, 0.07091538, -0.2245125, -202441.56, -147513.64, 0.0, 9.99932, 9.999157 
2.349779e+2, 3.0439362e+2, -133432.55, -95366.07, 7657.7676, -0.03337939, -0.12822728, -93883.33, -93883.33, 0.000000016806371, 9.999218, 9.999722 
2.3497513e+2, 3.1439248e+2, -41928.945, 14318.484, 31698.783, -0.061276753, -0.21912873, 28571.133, 28571.133, 0.0000014346882, 9.999563, 10.000306 
2.4502155e+2, 1.2440351e+2, -1601558.8, -1660475.4, 33486.793, 0.00904506, -0.23359892, -1586417.1, 134408.5, 0.00026299746, 10.000777, 9.999997 
2.4501778e+2, 1.3440342e+2, -1632828.6, -1702425.6, -18361.701, -0.021205122, -0.17165124, -1628281.4, -5454.1777, 0.0001305452, 10.000227, 9.999302 
2.4501492e+2, 1.444024e+2, -1513274.6, -1525232.9, 20581.252, -0.0018500729, -0.23514153, -1497821.6, 27016.445, 0.000038366878, 10.000075, 9.999916 
2.4501222e+2, 1.5440297e+2, -1372356.0, -1414645.1, 15632.139, -0.027302546, -0.16829649, -1367205.0, 59627.77, 0.000003303544, 10.000406, 9.999843 
2.4501002e+2, 1.6440299e+2, -1277439.0, -1327612.4, 30507.598, -0.023484403, -0.14534438, -1263028.1, 65804.67, 0.00000000018007511, 10.000425, 9.999758 
2.4500832e+2, 1.744024e+2, -1231351.5, -1255903.1, 31800.781, 0.0044844234, -0.18304425, -1209539.4, 21299.182, 0.0, 10.000075, 9.999746 
2.450063e+2, 1.8440202e+2, -1171832.4, -1190008.5, 30074.232, 0.0047487193, -0.18805705, -1149503.1, -16660.24, 0.0, 9.999869, 9.999626 
2.450039e+2, 1.9440193e+2, -1079495.8, -1096622.0, 29542.736, -0.02562039, -0.16294621, -1057300.1, -22455.27, 0.0, 9.99984, 9.999608 
2.4500164e+2, 2.0440157e+2, -973162.0, -1002513.94, 18923.031, -0.02572645, -0.15555356, -963890.8, -27041.95, 0.0, 9.999931, 9.9995365 
2.449996e+2, 2.144009e+2, -841197.7, -890215.56, 18376.873, 0.010708261, -0.1782698, -835073.4, 3781.579, 0.0, 10.000174, 9.999518 
2.4499731e+2, 2.244004e+2, -744071.6, -804299.25, 33489.105, 0.00811274, -0.17449318, -729148.1, 11712.193, 0.0, 10.0002165, 9.9994135 
2.4499477e+2, 2.344001e+2, -676890.56, -722667.9, 35447.688, -0.042248376, -0.14975217, -657584.06, -14719.521, 0.0, 10.000012, 9.999399 
2.4499252e+2, 2.4439967e+2, -566321.7, -588237.8, 11839.101, -0.034303933, -0.14479975, -561147.7, -16278.99, 0.0, 9.999968, 9.999672 
2.4499057e+2, 2.5439915e+2, -445231.84, -479118.25, 11013.617, 0.042928975, -0.16981632, -441966.84, 4904.9185, 0.0, 10.000126, 9.999672 
2.4498805e+2, 2.6439863e+2, -383877.56, -432795.88, 24451.695, 0.045757573, -0.17400394, -373751.53, -24875.824, 0.0, 10.000022, 9.999367 
2.4498491e+2, 2.74398e+2, -353245.38, -370177.88, 22470.998, -0.036329277, -0.17260051, -337698.63, -86817.52, 0.0, 9.999571, 9.999341 
2.4498253e+2, 2.8439713e+2, -289133.84, -299427.6, 8430.332, -0.02491226, -0.19206634, -284403.4, -131513.1, 0.0, 9.999384, 9.999246 
2.4498086e+2, 2.9439613e+2, -169900.05, -194913.75, 15133.382, 0.07749932, -0.2186808, -162774.25, -107873.195, 0.0, 9.999546, 9.999211 
2.4497736e+2, 3.0439654e+2, -83201.98, -93951.17, 20736.506, -0.032372713, -0.11086616, -67154.88, -67154.88, 0.0000000018495133, 9.999662, 9.999516 
2.4497467e+2, 3.143953e+2, -20307.22, 38702.992, 18997.574, -0.06686539, -0.19209416, 44290.04, 44290.04, 0.00000052479436, 9.999651, 10.000433 
2.5502208e+2, 1.2440676e+2, -1593028.3, -1641257.4, 17681.383, -0.016535366, -0.18789436, -1587240.6, 133554.36, 0.000209724, 10.00077, 10.000133 
2.5501758e+2, 1.344066e+2, -1616398.3, -1670991.6, -38796.418, -0.06618626, -0.15553963, -1596257.9, 26538.396, 0.00009902971, 10.0002365, 9.999514 
2.5501484e+2, 1.444054e+2, -1523740.4, -1548928.3, 30231.117, -0.020034837, -0.23903598, -1503584.9, 21223.3, 0.000025643241, 10.000084, 9.999749 
2.5501326e+2, 1.5440558e+2, -1384870.3, -1439987.4, 28030.615, 0.033354823, -0.19382426, -1373120.0, 53686.88, 0.0000014046367, 10.000403, 9.99967 
2.5501114e+2, 1.6440557e+2, -1275901.4, -1323292.3, 18290.814, 0.045801897, -0.16657077, -1269663.1, 59144.367, 0.0, 10.000421, 9.99979 
2.5500822e+2, 1.744054e+2, -1227823.5, -1249676.8, 18917.607, -0.014540072, -0.16766503, -1216903.6, 13905.938, 0.0, 10.00008, 9.999786 
2.5500572e+2, 1.844051e+2, -1170248.3, -1187310.9, 28021.27, -0.03869478, -0.16713612, -1149488.4, -16675.264, 0.0, 9.999872, 9.999643 
2.5500393e+2, 1.9440469e+2, -1078266.1, -1094002.3, 28789.3, -0.008163727, -0.17524074, -1056289.0, -21471.064, 0.0, 9.99984, 9.999626 
2.5500187e+2, 2.0440437e+2, -972734.3, -1000665.0, 27323.563, 0.003652184, -0.16442913, -956014.06, -19192.293, 0.0, 9.9999275, 9.999551 
2.5499955e+2, 2.1440424e+2, -840172.94, -887421.6, 28036.729, -0.011499653, -0.1373582, -827134.4, 11689.147, 0.0, 10.000171, 9.999538 
2.5499728e+2, 2.2440384e+2, -742161.25, -799892.5, 26331.916, -0.017029937, -0.12453875, -731955.25, 8872.564, 0.0, 10.000215, 9.999445 
2.5499514e+2, 2.3440316e+2, -675537.75, -718954.3, 28099.908, -0.008569034, -0.13998652, -661737.5, -18902.598, 0.0, 10.000009, 9.999427 
2.5499275e+2, 2.4440257e+2, -565778.9, -586586.7, 16619.277, -0.006457968, -0.15361893, -556575.56, -11735.18, 0.0, 9.999965, 9.999684 
2.549901e+2, 2.5440213e+2, -443516.28, -475322.8, 17577.582, -0.015938073, -0.17106266, -435715.44, 11127.468, 0.0, 10.000125, 9.999699 
2.5498742e+2, 2.644017e+2, -388369.6, -442537.44, 8828.729, -0.021672964, -0.16325615, -386966.9, -38120.75, 0.0, 10.000023, 9.9993 
2.549847e+2, 2.7440125e+2, -359212.06, -382515.47, 5746.121, -0.013245428, -0.14212662, -357872.22, -107021.35, 0.0, 9.99957, 9.999257 
2.549823e+2, 2.8440022e+2, -285024.9, -289635.38, 12238.681, 0.012640001, -0.16735236, -274876.25, -122015.66, 0.0, 9.999379, 9.999314 
2.5497994e+2, 2.9439896e+2, -164276.45, -182066.36, 22025.033, 0.032622717, -0.23360005, -149418.05, -94544.805, 0.0, 9.999542, 9.999301 
2.5497648e+2, 3.0439907e+2, -114504.08, -158477.52, 21612.807, -0.085933685, -0.13742107, -105660.14, -105660.14, 0.000000000039700524, 9.999659, 9.999075 
2.5497475e+2, 3.1439775e+2, -27447.697, 22909.625, 14481.046, -0.026770536, -0.18058026, 26776.887, 26776.887, 0.00000015406697, 9.999654, 10.000324 
2.6502237e+2, 1.24409765e+2, -1702724.6, -1697004.8, 40473.152, -0.026220096, -0.19226195, -1659290.6, 61474.75, 0.0001649167, 10.000028, 10.000109 
2.65018e+2, 1.3440977e+2, -1581475.9, -1648335.8, -34723.05, -0.061243527, -0.148642, -1566705.6, 56059.367, 0.000073287774, 10.000451, 9.999566 
2.6501524e+2, 1.4440857e+2, -1462038.4, -1518700.4, 36860.88, -0.0073689995, -0.23422831, -1443878.9, 80897.734, 0.000016155976, 10.000506, 9.999754 
2.650135e+2, 1.5440851e+2, -1422255.4, -1456602.6, 46776.316, 0.03169043, -0.21465667, -1389599.8, 37177.285, 0.00000046134082, 10.000141, 9.999682 
2.6501128e+2, 1.644084e+2, -1337520.5, -1363693.3, 39353.277, 0.038713742, -0.19390596, -1309134.9, 19643.781, 0.0, 10.000045, 9.999694 
2.6500833e+2, 1.744083e+2, -1207126.6, -1251127.9, 28227.152, -0.019070456, -0.17699187, -1193339.0, 37441.777, 0.0, 10.000273, 9.999684 
2.6500583e+2, 1.8440807e+2, -1099827.4, -1156077.0, 31221.727, -0.03913174, -0.16432494, -1085930.8, 46853.484, 0.0, 10.000368, 9.999619 
2.6500404e+2, 1.9440769e+2, -1011046.44, -1063874.8, 28386.34, -0.002615301, -0.16788843, -998685.7, 36103.266, 0.0, 10.000311, 9.999606 
2.65002e+2, 2.0440736e+2, -928048.25, -983367.94, 29018.693, 0.008704803, -0.15440695, -915618.8, 21174.125, 0.0, 10.000252, 9.999514 
2.649997e+2, 2.1440718e+2, -840215.2, -891777.5, 25676.566, -0.015735812, -0.12758794, -829610.2, 9185.295, 0.0, 10.000189, 9.9995 
2.6499736e+2, 2.2440678e+2, -755582.8, -797344.9, 14499.466, -0.021662105, -0.11648671, -751042.4, -10242.673, 0.0, 10.000084, 9.999525 
2.6499516e+2, 2.3440617e+2, -681051.4, -711859.6, 19147.518, -0.0027429657, -0.13452686, -671880.8, -29075.162, 0.0, 9.999928, 9.999515 
2.649927e+2, 2.4440558e+2, -593705.44, -611354.4, 15495.038, -0.00083258736, -0.14732185, -584698.3, -39887.2, 0.0, 9.999823, 9.999583 
2.6499e+2, 2.5440505e+2, -501985.44, -515800.8, 6465.5435, -0.023900883, -0.16183884, -499431.66, -52616.563, 0.0, 9.999777, 9.999588 
2.649872e+2, 2.644046e+2, -416253.7, -448934.2, -10464.318, -0.032533344, -0.15543142, -413190.16, -64371.16, 0.0, 9.999801, 9.999363 
2.6498443e+2, 2.7440417e+2, -303235.3, -347164.8, -2963.302, -0.013838493, -0.1384294, -303036.3, -52213.332, 0.0, 9.999919, 9.999331 
2.6498196e+2, 2.8440323e+2, -204973.11, -259117.88, 13186.16, 0.013729994, -0.15869446, -201932.56, -49100.57, 0.0, 9.999966, 9.999241 
2.6497957e+2, 2.9440197e+2, -121612.09, -171417.58, 8984.532, 0.025470993, -0.2130949, -120040.92, -65196.594, 0.0, 9.999878, 9.999212 
2.649761e+2, 3.0440167e+2, -123064.03, -188555.53, 4822.971, -0.09198423, -0.14185126, -122710.76, -122710.76, 0.0, 9.999712, 9.998842 
2.6497442e+2, 3.144001e+2, -45732.41, 23136.146, 7051.639, -0.01655688, -0.18686669, 23850.768, 23850.768, 0.000000038019415, 9.999493, 10.0004015 
2.7502242e+2, 1.24412514e+2, -1713576.6, -1720780.8, 59868.125, -0.02688317, -0.24502154, -1657202.4, 63534.41, 0.00012966055, 10.000034, 9.999942 
2.7501896e+2, 1.3441294e+2, -1588737.4, -1662099.0, -19767.45, -0.00957971, -0.14974642, -1583750.0, 38983.473, 0.00005392466, 10.000445, 9.999475 
2.750162e+2, 1.4441194e+2, -1450849.6, -1494267.5, 23996.629, 0.033162646, -0.21996738, -1440199.4, 84543.85, 0.0000098627, 10.000501, 9.999924 
2.7501297e+2, 1.5441175e+2, -1408351.9, -1428805.1, 33316.38, -0.035569925, -0.23177865, -1383727.9, 43015.484, 0.00000011248763, 10.000146, 9.999871 
2.750105e+2, 1.6441146e+2, -1352522.6, -1396056.3, 45991.38, -0.04797322, -0.22834755, -1323407.3, 5339.249, 0.0, 10.00005, 9.99947 
2.750087e+2, 1.7441112e+2, -1224066.8, -1286361.9, 36775.7, -0.011481781, -0.21075617, -1207020.6, 23731.508, 0.0, 10.000273, 9.999442 
2.7500662e+2, 1.844109e+2, -1105323.9, -1166851.1, 29206.914, 0.00088200305, -0.17906342, -1093667.6, 39088.574, 0.0, 10.000365, 9.999546 
2.7500427e+2, 1.9441089e+2, -1015607.4, -1073227.9, 26482.191, -0.010652252, -0.14017065, -1005285.3, 29472.459, 0.0, 10.000311, 9.999541 
2.7500206e+2, 2.0441051e+2, -934278.56, -995553.7, 26469.9, -0.012351893, -0.1254119, -924427.6, 12334.9, 0.0, 10.000249, 9.999432 
2.75e+2, 2.1440972e+2, -846495.4, -904279.25, 23863.906, -0.004121748, -0.1495066, -837914.25, 856.63446, 0.0, 10.000186, 9.999415 
2.7499762e+2, 2.2440922e+2, -747628.4, -779714.1, 8679.548, -0.00857032, -0.1511201, -745431.0, -4654.9023, 0.0, 10.00008, 9.999648 
2.7499485e+2, 2.3440912e+2, -671187.75, -691013.56, 13751.307, -0.025687752, -0.13348871, -664148.8, -21371.97, 0.0, 9.9999275, 9.999658 
2.7499238e+2, 2.4440868e+2, -609025.1, -643187.3, 13092.141, -0.018648906, -0.12668471, -604584.9, -59803.96, 0.0, 9.999823, 9.999365 
2.7499014e+2, 2.5440794e+2, -519863.84, -552274.2, 4950.9907, 0.015690155, -0.14184584, -519124.4, -72335.93, 0.0, 9.999774, 9.999339 
2.7498743e+2, 2.6440728e+2, -402652.1, -419597.72, -7003.128, 0.009303396, -0.14963686, -400132.53, -51338.297, 0.0, 9.999797, 9.999566 
2.749841e+2, 2.7440676e+2, -286873.34, -312031.1, 2293.6091, -0.040142953, -0.1618814, -286665.94, -35868.406, 0.0, 9.999915, 9.999575 
2.7498156e+2, 2.84406e+2, -221270.42, -292938.5, 10563.103, -0.02318713, -0.16752936, -219745.97, -66941.31, 0.0, 9.999965, 9.999009 
2.7497974e+2, 2.9440513e+2, -140239.47, -210969.44, 5913.3765, 0.052786734, -0.15765253, -139748.48, -84934.016, 0.0, 9.999881, 9.99894 
2.749762e+2, 3.044043e+2, -125124.81, -192899.7, -4255.5024, -0.05528519, -0.12369629, -124858.664, -124858.664, 0.0, 9.999713, 9.998812 
2.7497363e+2, 3.1440225e+2, -28765.623, 59974.8, -6728.7803, -0.044894576, -0.21770835, 60482.113, 60482.113, 0.00000000643165, 9.999486, 10.000657 
2.8502288e+2, 1.2441552e+2, -1648067.3, -1696375.8, 57929.125, -0.005799408, -0.25660038, -1609458.4, 111248.26, 0.00010364884, 10.000516, 9.999877 
2.8501928e+2, 1.3441597e+2, -1634229.0, -1683138.3, -23464.95, -0.0018078735, -0.16047274, -1624792.1, -2088.6887, 0.000040612387, 10.00013, 9.999482 
2.8501645e+2, 1.4441502e+2, -1514704.9, -1528416.5, 17550.434, 0.031599127, -0.22388953, -1502718.6, 21994.057, 0.0000062724685, 10.000077, 9.999893 
2.8501305e+2, 1.5441486e+2, -1369868.8, -1412947.8, 9650.861, -0.05402539, -0.23068927, -1367805.5, 58907.25, 0.000000028346124, 10.000422, 9.999847 
2.8501055e+2, 1.6441453e+2, -1289336.4, -1368890.0, 21789.96, -0.06678683, -0.22801979, -1283759.0, 44957.15, 0.0, 10.000499, 9.999439 
2.8500894e+2, 1.744141e+2, -1226238.0, -1290559.1, 27704.332, -0.011411847, -0.21725431, -1215950.5, 14772.196, 0.0, 10.000273, 9.9994135 
2.8500694e+2, 1.8441385e+2, -1135579.8, -1186062.4, 30419.91, 0.007084153, -0.18553148, -1121292.6, 11434.46, 0.0, 10.000179, 9.999503 
2.8500453e+2, 1.9441389e+2, -1027667.75, -1084095.4, 28254.48, -0.015066608, -0.1367643, -1015952.44, 18776.008, 0.0, 10.00025, 9.999496 
2.850022e+2, 2.044135e+2, -941127.94, -997351.0, 27610.002, -0.020448511, -0.12147682, -929836.8, 6896.603, 0.0, 10.000195, 9.999446 
2.8500003e+2, 2.1441261e+2, -875017.5, -915519.0, 31643.738, -0.0073716925, -0.15704541, -857699.4, -18956.893, 0.0, 9.999981, 9.999437 
2.849976e+2, 2.244121e+2, -769144.06, -792310.8, 21853.564, -0.007583142, -0.1610706, -755993.8, -15245.958, 0.0, 9.999942, 9.999629 
2.849949e+2, 2.3441204e+2, -644434.25, -680587.75, 14806.714, -0.021435441, -0.13423775, -639144.2, 3603.8696, 0.0, 10.000121, 9.999637 
2.849924e+2, 2.4441165e+2, -560444.8, -616579.25, 12836.278, -0.014600808, -0.12457915, -557648.8, -12896.991, 0.0, 10.000142, 9.999393 
2.8499e+2, 2.5441086e+2, -489810.8, -534121.1, 24507.61, 0.014576745, -0.14449012, -478928.5, -32169.166, 0.0, 9.999965, 9.999372 
2.8498724e+2, 2.6441017e+2, -394068.56, -425762.53, 20969.96, 0.004655643, -0.15624388, -383631.22, -34865.387, 0.0, 9.999902, 9.999474 
2.84984e+2, 2.7440953e+2, -286399.2, -322348.75, 4545.858, -0.045481153, -0.17095289, -285833.28, -35062.5, 0.0, 9.999965, 9.99948 
2.8498146e+2, 2.844088e+2, -229649.34, -298572.28, 224.52505, -0.03000558, -0.16622184, -229648.61, -76870.99, 0.0, 9.999915, 9.998995 
2.8497946e+2, 2.9440814e+2, -159971.48, -221484.69, 13389.907, 0.044283357, -0.13356856, -157183.2, -102397.97, 0.0, 9.999752, 9.998929 
2.849759e+2, 3.0440694e+2, -134436.44, -211155.67, 12721.026, -0.05544071, -0.12906684, -132382.14, -132382.14, 0.0, 9.99971, 9.998687 
2.8497338e+2, 3.144052e+2, 10857.916, 76600.87, -7191.9546, -0.030727178, -0.18022074, 77378.43, 77378.43, 0.00000000043435586, 9.999767, 10.000637 
2.950238e+2, 1.2441882e+2, -1646097.6, -1692908.5, 49697.98, 0.030575275, -0.22796278, -1614569.4, 106105.38, 0.000085497144, 10.000519, 9.9999 
2.9501903e+2, 1.3441886e+2, -1627157.9, -1669103.0, -38017.813, -0.040573932, -0.18198739, -1604711.5, 17963.098, 0.000032281903, 10.000133, 9.9995775 
2.9501608e+2, 1.4441784e+2, -1530626.4, -1562142.6, 28530.535, -0.014314595, -0.24629626, -1513791.4, 10893.61, 0.0000046245973, 10.00008, 9.999661 
2.9501376e+2, 1.5441786e+2, -1386838.6, -1447711.0, 22597.99, -0.027655547, -0.20931676, -1379366.6, 47318.203, 0.00000001715619, 10.000421, 9.99961 
2.9501155e+2, 1.6441765e+2, -1278267.4, -1345395.3, 13671.388, -0.02208146, -0.19070567, -1275589.8, 53097.76, 0.0, 10.000497, 9.999602 
2.9500914e+2, 1.7441723e+2, -1213782.5, -1263945.9, 19515.48, -0.020914845, -0.19756995, -1207084.5, 23607.975, 0.0, 10.000269, 9.999598 
2.9500684e+2, 1.8441688e+2, -1137691.3, -1189681.4, 32383.12, -0.022291388, -0.18469861, -1122160.3, 10536.811, 0.0, 10.000175, 9.99948 
2.9500473e+2, 1.9441666e+2, -1030005.0, -1088858.4, 31321.74, -0.017312724, -0.1581567, -1016455.1, 18245.879, 0.0, 10.000249, 9.999464 
2.950024e+2, 2.0441629e+2, -933948.0, -981509.6, 19921.652, -0.017578078, -0.14286965, -926706.25, 9999.312, 0.0, 10.000192, 9.999557 
2.949998e+2, 2.1441582e+2, -866947.1, -898218.3, 24068.39, -0.02711693, -0.15039271, -853881.5, -15171.108, 0.0, 9.999978, 9.9995575 
2.9499742e+2, 2.2441536e+2, -780837.25, -815735.2, 27402.486, -0.020984126, -0.14658776, -765799.9, -25084.68, 0.0, 9.999938, 9.99947 
2.9499534e+2, 2.3441496e+2, -657274.1, -706808.2, 22034.943, 0.0076459865, -0.13679965, -648890.8, -6171.3823, 0.0, 10.000119, 9.999458 
2.9499277e+2, 2.4441448e+2, -541300.8, -576029.7, 6616.0054, 0.008617405, -0.14091387, -540083.1, 4640.6426, 0.0, 10.000138, 9.999674 
2.9498953e+2, 2.544139e+2, -468485.63, -489194.3, 18396.377, -0.028699545, -0.170568, -457729.78, -11002.027, 0.0, 9.999962, 9.999681 
2.949866e+2, 2.644132e+2, -422354.1, -484091.6, 22449.23, -0.047404047, -0.17652301, -415054.2, -66320.164, 0.0, 9.9999, 9.999073 
2.9498407e+2, 2.7441242e+2, -317422.72, -386635.66, 6967.11, -0.033892486, -0.16563798, -316728.34, -65985.516, 0.0, 9.999964, 9.999039 
2.9498154e+2, 2.844116e+2, -215555.6, -268868.0, -6381.3394, -0.011286082, -0.15375885, -214802.4, -62051.496, 0.0, 9.999913, 9.999199 
2.9497877e+2, 2.94411e+2, -143622.14, -185508.95, 7982.5225, -0.0027477772, -0.14097378, -142152.44, -87395.7, 0.0, 9.999744, 9.99918 
2.9497522e+2, 3.0440962e+2, -151237.64, -244779.08, 14606.206, -0.09392521, -0.1578459, -149009.98, -149009.98, 0.0, 9.999704, 9.99846 
2.949737e+2, 3.144088e+2, -8242.668, 35682.832, -9140.115, 0.019744502, -0.08868951, 37508.82, 37508.82, 0.0, 9.999773, 10.000353 
3.050242e+2, 1.24421775e+2, -1721760.4, -1727517.6, 40649.05, 0.04575679, -0.20516424, -1683888.3, 36758.508, 0.000073591786, 9.999995, 9.999914 
3.0501914e+2, 1.3442168e+2, -1572048.9, -1633755.9, -57631.824, -0.059665293, -0.18126586, -1537531.5, 85115.92, 0.000027638554, 10.000474, 9.999657 
3.0501616e+2, 1.4442067e+2, -1462821.4, -1536530.4, 14581.975, -0.03488651, -0.24509741, -1460041.4, 64616.2, 0.000004191702, 10.000578, 9.999597 
3.050142e+2, 1.5442081e+2, -1420063.6, -1471650.0, 19196.52, -0.015635028, -0.19123806, -1413704.1, 12953.345, 0.000000032166714, 10.000227, 9.999538 
3.0501205e+2, 1.6442063e+2, -1326024.3, -1356053.5, 14971.118, 0.00063362805, -0.16725871, -1319835.8, 8823.933, 0.0, 10.000117, 9.999711 
3.050094e+2, 1.7442025e+2, -1199236.0, -1243642.5, 14804.203, -0.022109937, -0.18251815, -1194753.1, 35910.29, 0.0, 10.000312, 9.999717 
3.0500692e+2, 1.8441987e+2, -1117011.4, -1175399.0, 25340.996, -0.034613576, -0.18156978, -1107547.1, 25120.604, 0.0, 10.000299, 9.999519 
3.0500484e+2, 1.9441952e+2, -1057647.1, -1097287.5, 28806.758, -0.022571266, -0.17090532, -1042500.7, -7828.176, 0.0, 10.000041, 9.999506 
3.0500254e+2, 2.0441918e+2, -959554.56, -995207.25, 20839.615, -0.017942555, -0.15737374, -949957.06, -13280.163, 0.0, 10.000023, 9.999543 
3.0499998e+2, 2.1441886e+2, -820704.0, -877979.0, 14222.745, -0.02713765, -0.14705463, -817366.6, 21313.736, 0.0, 10.000304, 9.999539 
3.0499753e+2, 2.244184e+2, -731363.44, -791824.7, 13463.064, -0.021775696, -0.1416803, -728501.06, 12183.985, 0.0, 10.000276, 9.999473 
3.049953e+2, 2.3441781e+2, -694631.3, -723995.56, 20429.814, 0.0045161834, -0.15133354, -684155.06, -41464.24, 0.0, 9.999859, 9.999465 
3.0499265e+2, 2.4441731e+2, -601491.3, -604930.1, 7917.9653, 0.004366351, -0.15615152, -595108.2, -50413.02, 0.0, 9.999725, 9.999675 
3.0498946e+2, 2.5441697e+2, -470764.5, -489963.13, -3469.5286, -0.031778347, -0.16350272, -470156.75, -23459.473, 0.0, 9.999945, 9.999685 
3.049865e+2, 2.644163e+2, -408798.13, -481254.94, 859.3216, -0.05183045, -0.16664523, -408787.94, -60084.508, 0.0, 10.00001, 9.99904 
3.049839e+2, 2.7441528e+2, -331737.13, -397629.4, 14613.627, -0.043162055, -0.17512853, -328641.53, -77927.18, 0.0, 9.999885, 9.999001 
3.0498132e+2, 2.8441447e+2, -217896.94, -263997.9, 12240.393, -0.023181368, -0.16591245, -214848.53, -62126.137, 0.0, 9.999872, 9.999252 
3.0497852e+2, 2.9441404e+2, -105005.055, -160079.66, 11620.25, -0.011676389, -0.13966864, -102653.67, -47927.65, 0.0, 9.99998, 9.999241 
3.0497503e+2, 3.044124e+2, -116397.266, -223582.53, 19473.686, -0.09239225, -0.19195215, -112968.9, -112968.9, 0.0, 9.999924, 9.998499 
3.0497348e+2, 3.1441194e+2, -32681.13, 11000.587, 9899.533, 0.028220674, -0.0873813, 13139.384, 13139.384, 0.0, 9.999661, 10.000237 
3.1502414e+2, 1.2442442e+2, -1721046.6, -1727103.3, 67184.89, 0.037664466, -0.18729877, -1656821.9, 63800.273, 0.00006650563, 9.999999, 9.999916 
3.1501955e+2, 1.3442448e+2, -1565786.4, -1622066.1, -38963.207, -0.066964425, -0.15603307, -1545864.0, 76757.19, 0.000025576577, 10.00048, 9.999734 
3.1501675e+2, 1.4442359e+2, -1455801.5, -1523021.6, 2516.3604, -0.0386349, -0.21796893, -1455707.4, 68922.87, 0.000004447986, 10.000582, 9.999688 
3.1501436e+2, 1.5442365e+2, -1414417.5, -1458809.0, 6412.3125, -0.019369766, -0.17797478, -1413509.8, 13120.91, 0.00000006594377, 10.000222, 9.999629 
3.150122e+2, 1.6442353e+2, -1323501.3, -1349779.8, 20832.314, 0.00017473663, -0.15867688, -1312010.8, 16621.791, 0.0, 10.000113, 9.999757 
3.1500977e+2, 1.744232e+2, -1196036.9, -1237161.4, 22496.549, -0.018233014, -0.17108719, -1186121.3, 44514.2, 0.0, 10.000313, 9.999761 
3.1500727e+2, 1.8442285e+2, -1109600.5, -1160288.6, 16018.27, -0.034354024, -0.17407764, -1104962.9, 27676.127, 0.0, 10.000299, 9.999623 
3.1500477e+2, 1.9442248e+2, -1050293.8, -1081634.9, 19507.037, -0.032733735, -0.17616998, -1040942.5, -6299.527, 0.0, 10.000038, 9.999616 
3.150025e+2, 2.0442209e+2, -970279.8, -1015880.0, 30173.72, -0.023664495, -0.16591181, -955260.6, -18613.002, 0.0, 10.000016, 9.999404 
3.1500044e+2, 2.144217e+2, -832049.44, -900973.5, 25483.691, -0.00951385, -0.14746901, -823650.6, 15001.937, 0.0, 10.000301, 9.999383 
3.1499788e+2, 2.244212e+2, -720251.06, -768132.9, -939.7933, -0.012132483, -0.1467444, -720232.6, 20425.033, 0.0, 10.000274, 9.999637 
3.1499478e+2, 2.3442058e+2, -681866.5, -697275.44, 5109.9404, -0.032541085, -0.17829016, -680326.0, -37663.453, 0.0, 9.999858, 9.999649 
3.1499204e+2, 2.4442017e+2, -621418.06, -645636.7, 14255.667, -0.029168695, -0.17096916, -614822.8, -70156.58, 0.0, 9.9997225, 9.999396 
3.1498975e+2, 2.5442007e+2, -491900.03, -533391.0, 5021.997, 0.0017148446, -0.12339411, -491300.8, -44632.887, 0.0, 9.999943, 9.999388 
3.1498694e+2, 2.644194e+2, -385753.03, -432988.97, -3588.665, -0.011548515, -0.12609835, -385481.94, -36807.875, 0.0, 10.000008, 9.999372 
3.1498346e+2, 2.744181e+2, -306850.97, -344566.06, 10553.991, -0.07534377, -0.1995649, -304098.47, -53413.15, 0.0, 9.999879, 9.999368 
3.1498075e+2, 2.844173e+2, -226619.33, -280248.5, 15270.589, -0.06660192, -0.20320544, -222575.97, -69883.78, 0.0, 9.999865, 9.999145 
3.1497875e+2, 2.944172e+2, -113485.37, -178238.27, 16047.649, 0.01328907, -0.13066608, -109726.49, -55033.24, 0.0, 9.999983, 9.999115 
3.1497535e+2, 3.0441514e+2, -94713.26, -179858.42, 9668.463, -0.055000987, -0.23228437, -93629.18, -93629.18, 0.0, 9.999929, 9.998797 
3.1497276e+2, 3.144144e+2, -29056.996, 20644.695, -4875.9316, -0.012372453, -0.18702841, 21118.527, 21118.527, 0.0, 9.999651, 10.000309 
3.2502422e+2, 1.2442683e+2, -1650083.1, -1690334.8, 72681.92, 0.025142882, -0.18816754, -1594792.1, 125807.47, 0.00006287029, 10.000478, 9.999935 
3.250199e+2, 1.3442703e+2, -1643514.3, -1648723.1, -43662.023, -0.051504657, -0.15210456, -1602379.0, 20218.053, 0.000025189593, 9.9999, 9.99983 
3.2501715e+2, 1.444263e+2, -1558114.1, -1558409.5, 4615.4683, -0.017665576, -0.20693526, -1553644.0, -29039.629, 0.0000050024137, 9.999821, 9.999811 
3.2501456e+2, 1.5442649e+2, -1389523.1, -1431876.8, 10162.883, -0.027834011, -0.17021732, -1387210.8, 39392.785, 0.000000115129794, 10.000329, 9.999762 
3.250123e+2, 1.6442639e+2, -1274441.3, -1327269.5, 20844.152, -0.016039379, -0.15384492, -1267207.4, 61397.617, 0.0, 10.000455, 9.999745 
3.2500997e+2, 1.7442603e+2, -1224743.1, -1252459.1, 16720.643, -0.01699385, -0.16710573, -1216884.3, 13724.187, 0.0, 10.000124, 9.999745 
3.250075e+2, 1.8442571e+2, -1136452.0, -1163293.9, 11046.42, -0.02784518, -0.17137551, -1132490.6, 120.98163, 0.0, 10.000073, 9.99971 
3.250049e+2, 1.9442543e+2, -993732.4, -1044298.25, 12359.254, -0.03931088, -0.17379819, -990873.25, 43740.887, 0.0, 10.000381, 9.999706 
3.2500258e+2, 2.0442507e+2, -913833.5, -992416.75, 25562.195, -0.033880904, -0.16477066, -906250.25, 30368.045, 0.0, 10.000418, 9.9993725 
3.2500064e+2, 2.1442461e+2, -862669.5, -919111.9, 28890.922, -0.011012953, -0.14866589, -850503.56, -11879.604, 0.0, 10.000107, 9.9993515 
3.2499805e+2, 2.2442406e+2, -762411.4, -794139.7, -3430.942, -0.012088988, -0.14857782, -762044.6, -21415.107, 0.0, 10.00001, 9.999584 
3.249947e+2, 2.3442341e+2, -638489.9, -682258.94, -15812.094, -0.04058698, -0.1778405, -633375.25, 9259.438, 0.0, 10.000181, 9.999597 
3.2499188e+2, 2.4442294e+2, -567359.8, -627618.1, -5343.784, -0.037340943, -0.1704618, -566889.6, -22250.578, 0.0, 10.000128, 9.999325 
3.2498962e+2, 2.5442275e+2, -519211.25, -554932.56, 1611.69, 0.0031324723, -0.12549439, -519138.7, -72496.914, 0.0, 9.999791, 9.999313 
3.2498685e+2, 2.6442206e+2, -425284.1, -437378.34, -2529.124, -0.0048095696, -0.13379052, -424776.5, -76128.63, 0.0, 9.999672, 9.999504 
3.249834e+2, 2.7442077e+2, -303739.16, -326695.63, -5562.7847, -0.06817081, -0.21628197, -302462.22, -51804.496, 0.0, 9.999828, 9.999516 
3.2498062e+2, 2.8442004e+2, -235887.77, -293581.84, -8658.892, -0.06521795, -0.21925077, -234616.25, -81952.44, 0.0, 9.999839, 9.999065 
3.2497847e+2, 2.9441997e+2, -169380.94, -215795.6, -6599.003, 0.0033873047, -0.13394974, -168460.97, -113795.88, 0.0, 9.999644, 9.999021 
3.2497513e+2, 3.0441776e+2, -108031.22, -151364.97, -8169.0327, -0.058586042, -0.25790855, -106542.39, -106542.39, 0.0, 9.999687, 9.999109 
3.2497263e+2, 3.1441718e+2, 25505.068, 47362.836, -27740.4, -0.006955238, -0.23243336, 66249.555, 66249.555, 0.0, 10.000022, 10.000314 
3.3502445e+2, 1.2442903e+2, -1647398.9, -1687609.9, 61090.13, -0.0046586487, -0.20491795, -1603190.9, 117387.625, 0.000061273975, 10.000489, 9.999949 
3.350202e+2, 1.3442934e+2, -1636939.4, -1634045.8, -64468.664, -0.012819285, -0.16941842, -1571007.6, 51567.395, 0.000025556885, 9.999895, 9.999933 
3.350174e+2, 1.4442886e+2, -1547723.5, -1536005.9, 21994.498, 0.02824727, -0.21200958, -1519103.3, 5476.46, 0.0000055599335, 9.999817, 9.999968 
3.350147e+2, 1.5442929e+2, -1377038.9, -1406325.0, 30229.469, -0.04851373, -0.16643313, -1358092.6, 68483.23, 0.00000016881297, 10.000331, 9.999936 
3.3501235e+2, 1.6442926e+2, -1278274.1, -1336397.1, 9585.739, -0.056415364, -0.15020669, -1276734.1, 51842.625, 0.0, 10.000459, 9.999681 
3.350101e+2, 1.7442875e+2, -1230482.4, -1264008.9, 4792.922, -0.018939676, -0.17209256, -1229810.6, 771.81866, 0.0, 10.000121, 9.999669 
3.350077e+2, 1.8442842e+2, -1132744.6, -1154361.1, 21126.531, -0.016480234, -0.17470603, -1119822.1, 12763.57, 0.0, 10.000068, 9.999774 
3.3500525e+2, 1.9442834e+2, -989351.3, -1035084.9, 24571.48, -0.044914752, -0.16391833, -978652.56, 55933.418, 0.0, 10.0003805, 9.99977 
3.3500284e+2, 2.0442806e+2, -908815.75, -981070.94, 14937.515, -0.051675074, -0.15309794, -905849.44, 30739.428, 0.0, 10.000414, 9.999453 
3.3500051e+2, 2.1442755e+2, -856929.5, -906928.3, 17734.934, -0.03388657, -0.1514009, -851277.7, -12682.963, 0.0, 10.000105, 9.999437 
3.3499795e+2, 2.2442695e+2, -781589.44, -833054.0, 1622.3347, -0.024103891, -0.14771299, -781538.3, -40937.355, 0.0, 10.000006, 9.999319 
3.349951e+2, 2.344263e+2, -658258.7, -723230.2, -8820.308, -0.02166141, -0.15013325, -657082.56, -14475.137, 0.0, 10.00018, 9.999316 
3.3499217e+2, 2.4442561e+2, -558650.6, -609168.9, -17220.99, -0.02239217, -0.15455613, -553338.75, -8725.209, 0.0, 10.000127, 9.999453 
3.349891e+2, 2.5442496e+2, -509361.47, -533610.25, -10652.886, -0.029779445, -0.16971214, -505346.3, -58727.492, 0.0, 9.999788, 9.999461 
3.3498624e+2, 2.644242e+2, -431102.47, -448276.1, 1598.9156, -0.03275594, -0.19016346, -430954.88, -82329.93, 0.0, 9.999667, 9.999432 
3.3498368e+2, 2.744233e+2, -308540.72, -336505.9, 564.44305, -0.025102861, -0.22649285, -308529.3, -57897.645, 0.0, 9.999828, 9.999448 
3.3498088e+2, 2.8442267e+2, -240054.39, -301919.88, -15701.484, -0.022582572, -0.21447055, -236297.48, -83660.125, 0.0, 9.999837, 9.999009 
3.3497763e+2, 2.9442233e+2, -174405.06, -224376.42, -13156.908, -0.04456105, -0.14887442, -171152.67, -116511.22, 0.0, 9.999637, 9.998965 
3.3497435e+2, 3.044203e+2, -87356.37, -106302.07, 2254.0852, -0.1051019, -0.26874408, -87091.875, -87091.875, 0.0, 9.999679, 9.999424 
3.3497313e+2, 3.144202e+2, 23092.846, 42346.297, -17526.246, 0.037566043, -0.2284048, 52715.65, 52715.65, 0.0, 10.000023, 10.000278 
3.450249e+2, 1.2443183e+2, -1702516.0, -1723096.5, 91431.71, 0.008966557, -0.19655429, -1620797.3, 99754.51, 0.000060228966, 10.000151, 9.999867 
3.4502035e+2, 1.3443217e+2, -1562468.9, -1599311.1, -55026.332, -0.009565438, -0.15806109, -1522862.1, 99686.47, 0.000025763518, 10.000408, 9.999926 
3.4501752e+2, 1.4443171e+2, -1468388.5, -1496882.1, 31061.594, 0.026984124, -0.19686078, -1448462.4, 76090.42, 0.000005876301, 10.000358, 9.999974 
3.450149e+2, 1.5443204e+2, -1440339.1, -1435448.8, 25848.014, -0.04144325, -0.16330968, -1411930.6, 14618.795, 0.0000002059256, 9.99989, 9.999948 
3.4501255e+2, 1.6443194e+2, -1372211.4, -1384024.0, 2399.8867, -0.050204054, -0.15299194, -1371742.4, -43191.77, 0.0, 9.999825, 9.9996605 
3.4501016e+2, 1.7443144e+2, -1207901.9, -1255594.6, 716.127, -0.032275777, -0.17159292, -1207891.1, 22665.605, 0.0, 10.000286, 9.999647 
3.4500778e+2, 1.8443118e+2, -1083222.0, -1128515.3, 16152.935, -0.0312147, -0.16722311, -1078051.6, 54507.965, 0.0, 10.000399, 9.999792 
3.4500554e+2, 1.9443126e+2, -1032543.25, -1052494.1, 15597.315, -0.03588821, -0.14394468, -1024004.2, 10554.24, 0.0, 10.000072, 9.999799 
3.450032e+2, 2.04431e+2, -971466.7, -1003477.4, 2243.794, -0.03776051, -0.13552672, -971310.2, -34749.344, 0.0, 9.99995, 9.999521 
3.4500054e+2, 2.1443036e+2, -853833.1, -897676.4, 3098.5566, -0.041296177, -0.15466438, -853615.25, -15047.957, 0.0, 10.000092, 9.999507 
3.4499785e+2, 2.2442973e+2, -764158.5, -826178.1, 699.50476, -0.03700844, -0.15616329, -764150.6, -23577.191, 0.0, 10.000131, 9.999307 
3.449952e+2, 2.344292e+2, -680107.56, -735608.3, 9647.5, -0.020017417, -0.14437294, -678478.44, -35899.49, 0.0, 10.000039, 9.999299 
3.4499228e+2, 2.4442847e+2, -571658.8, -617279.94, 2016.7162, -0.018907653, -0.15212636, -571569.8, -26984.53, 0.0, 10.000045, 9.999436 
3.4498897e+2, 2.5442755e+2, -453757.28, -508548.06, -4698.3345, -0.040278405, -0.19253467, -453357.3, -6764.8447, 0.0, 10.000177, 9.999446 
3.4498605e+2, 2.644267e+2, -365603.9, -429717.94, 4166.4463, -0.04337808, -0.21572399, -365334.28, -16734.857, 0.0, 10.000174, 9.999315 
3.449836e+2, 2.7442592e+2, -295005.53, -344526.78, -1184.5391, -0.01857813, -0.22740103, -294977.2, -44371.496, 0.0, 9.999983, 9.99932 
3.4498084e+2, 2.8442526e+2, -229314.9, -287282.6, -17018.414, -0.011004236, -0.21261139, -224687.89, -72076.38, 0.0, 9.99987, 9.999094 
3.449774e+2, 2.9442483e+2, -131154.42, -193038.11, -3931.569, -0.04152886, -0.16987696, -130905.64, -76289.41, 0.0, 9.999887, 9.99906 
3.4497413e+2, 3.044231e+2, -59995.543, -84616.45, 15677.322, -0.10195142, -0.26878148, -52372.965, -52372.965, 0.0, 9.999831, 9.999497 
3.4497285e+2, 3.1442314e+2, -58371.18, -25108.852, -30809.27, 0.029230673, -0.21886368, -6728.4927, -6728.4927, 0.0, 9.999587, 10.000024 
3.550256e+2, 1.2443519e+2, -1714625.8, -1748259.1, 112631.51, 0.06383995, -0.16442652, -1617562.4, 102957.42, 0.00005843651, 10.00015, 9.999697 
3.5502034e+2, 1.3443549e+2, -1569164.3, -1614602.0, -43878.34, -0.051427566, -0.117185, -1542472.1, 80045.4, 0.000025162195, 10.000413, 9.999819 
3.550173e+2, 1.4443488e+2, -1477542.5, -1517812.4, 15397.1455, -0.0318653, -0.15950334, -1472330.1, 52193.15, 0.0000057861466, 10.000365, 9.999827 
3.5501513e+2, 1.5443473e+2, -1451153.6, -1457597.0, 8792.502, -0.0058831526, -0.16123788, -1445011.1, -18486.988, 0.00000020730299, 9.999889, 9.999797 
3.5501292e+2, 1.6443443e+2, -1371321.0, -1381906.3, 17449.824, 0.0023046008, -0.1621201, -1358378.9, -29851.86, 0.0, 9.999823, 9.999676 
3.5501015e+2, 1.7443411e+2, -1205856.0, -1251853.0, 18868.867, -0.062123366, -0.16530304, -1199106.1, 31425.133, 0.0, 10.000288, 9.999672 
3.550077e+2, 1.84434e+2, -1084402.4, -1130894.6, 5292.274, -0.077951945, -0.14797577, -1083807.6, 48725.58, 0.0, 10.000398, 9.999777 
3.5500586e+2, 1.9443414e+2, -1033401.75, -1054222.4, 3800.6692, -0.013800187, -0.11507755, -1032729.6, 1802.062, 0.0, 10.000071, 9.999788 
3.5500357e+2, 2.0443384e+2, -968112.25, -995505.75, 6329.785, 0.006269317, -0.11309056, -966720.4, -30186.057, 0.0, 9.999947, 9.999578 
3.550007e+2, 2.14433e+2, -850239.8, -889540.2, 9114.224, -0.035544913, -0.158253, -848229.0, -9687.241, 0.0, 10.000089, 9.999564 
3.5499784e+2, 2.2443238e+2, -748130.44, -792114.4, -2610.8862, -0.053465288, -0.17386913, -747976.0, -7428.9946, 0.0, 10.000128, 9.999542 
3.5499507e+2, 2.344321e+2, -663205.06, -700165.8, 6510.6753, -0.037552718, -0.16066153, -662091.7, -19542.512, 0.0, 10.000037, 9.999543 
3.5499224e+2, 2.4443147e+2, -583068.5, -640385.56, 5993.9746, -0.028590316, -0.1634839, -582448.44, -37894.008, 0.0, 10.000042, 9.999279 
3.5498926e+2, 2.5443047e+2, -465831.16, -533215.4, 492.17056, -0.030925084, -0.19455974, -465827.56, -19264.684, 0.0, 10.000175, 9.999277 
3.5498628e+2, 2.644295e+2, -377543.94, -453766.88, -2424.35, -0.0395755, -0.21095467, -377466.9, -28895.557, 0.0, 10.00017, 9.999152 
3.5498327e+2, 2.744286e+2, -307495.66, -369782.47, -7763.497, -0.05150968, -0.21839748, -306542.6, -55962.87, 0.0, 9.99998, 9.999147 
3.549805e+2, 2.8442788e+2, -214571.11, -255953.8, -17866.063, -0.03281654, -0.21326739, -207925.16, -55339.04, 0.0, 9.9998665, 9.999311 
3.5497785e+2, 2.944274e+2, -113763.85, -156396.66, -2495.915, 0.009282844, -0.19765303, -113618.23, -59028.805, 0.0, 9.999885, 9.999312 
3.5497445e+2, 3.0442607e+2, -73489.414, -111653.35, 7490.133, -0.053465184, -0.25904113, -72072.03, -72072.03, 0.0, 9.999826, 9.999314 
3.549717e+2, 3.1442606e+2, -92261.734, -94077.36, -42608.18, -0.0424971, -0.20002627, -50551.7, -50551.7, 0.0, 9.99958, 9.999553 
3.6502603e+2, 1.24438226e+2, -1667562.6, -1741213.5, 110635.164, 0.07122925, -0.14835343, -1587785.1, 132705.64, 0.000055122826, 10.000541, 9.999555 
3.6502066e+2, 1.3443847e+2, -1613453.4, -1643913.4, -56543.906, -0.04813032, -0.09928243, -1570124.4, 52364.93, 0.000023501116, 10.000142, 9.999747 
3.6501747e+2, 1.4443786e+2, -1522306.1, -1544753.8, 8203.302, -0.035323303, -0.13767758, -1519627.8, 4867.6064, 0.00000526637, 10.000081, 9.99978 
3.6501518e+2, 1.544375e+2, -1381147.1, -1428502.1, 7641.1196, -0.014277304, -0.1528813, -1379944.6, 46553.3, 0.00000017249042, 10.000388, 9.999756 
3.65013e+2, 1.6443719e+2, -1292044.3, -1338816.8, 25867.018, 0.0025105316, -0.15582252, -1280559.0, 47941.742, 0.0, 10.000345, 9.999719 
3.6501047e+2, 1.7443705e+2, -1262954.1, -1273557.4, 28595.35, -0.04037452, -0.14732653, -1239173.1, -8669.944, 0.0, 9.999871, 9.9997225 
3.6500803e+2, 1.8443692e+2, -1180872.0, -1179678.5, 16865.941, -0.052493352, -0.13211177, -1163398.8, -30893.887, 0.0, 9.999744, 9.999757 
3.6500594e+2, 1.9443686e+2, -1035833.94, -1058102.0, 13723.976, -0.008741032, -0.11793407, -1029295.56, 5210.0186, 0.0, 10.000064, 9.999765 
3.6500362e+2, 2.0443651e+2, -922849.6, -963652.9, 19290.574, 0.0036307147, -0.12407255, -915173.6, 21334.875, 0.0, 10.000212, 9.99967 
3.6500084e+2, 2.144358e+2, -835528.5, -870974.8, 24610.69, -0.030056693, -0.1641986, -822923.5, 15590.356, 0.0, 10.00014, 9.999667 
3.6499798e+2, 2.2443527e+2, -752095.0, -791260.3, 4892.311, -0.048714604, -0.17823341, -751493.1, -10975.066, 0.0, 10.000089, 9.999566 
3.6499506e+2, 2.3443499e+2, -657696.9, -695347.25, -4039.436, -0.044958137, -0.16731143, -657268.4, -14747.997, 0.0, 10.000066, 9.999563 
3.6499223e+2, 2.4443439e+2, -586250.5, -644187.2, -4057.5452, -0.035217702, -0.16884138, -585967.7, -41442.16, 0.0, 10.0000305, 9.999258 
3.649894e+2, 2.5443342e+2, -496201.06, -550747.75, 1318.983, -0.021100197, -0.19448966, -496169.2, -49635.367, 0.0, 9.999978, 9.999252 
3.6498645e+2, 2.6443246e+2, -408839.0, -473241.03, 5671.0625, -0.027503716, -0.20734535, -408343.44, -59801.105, 0.0, 9.999972, 9.999114 
3.6498326e+2, 2.7443156e+2, -300597.75, -370835.38, 8740.431, -0.05575145, -0.21422417, -299526.4, -48975.32, 0.0, 10.000046, 9.999108 
3.6498034e+2, 2.8443068e+2, -192135.6, -247303.75, -3894.3271, -0.04149404, -0.21804857, -191862.05, -39303.527, 0.0, 10.000029, 9.999293 
3.6497775e+2, 2.9443e+2, -119719.914, -161551.33, -9036.572, 0.013948989, -0.22078227, -117851.27, -63287.906, 0.0, 9.999853, 9.999293 
3.6497432e+2, 3.044291e+2, -76081.15, -114347.14, -224.14442, -0.044890143, -0.23997675, -76079.836, -76079.836, 0.0, 9.999813, 9.999303 
3.6497125e+2, 3.144288e+2, -42955.656, -86983.9, -40314.28, -0.06888278, -0.20251667, -19036.533, -19036.533, 0.0, 9.999989, 9.999407 
3.7502614e+2, 1.2444094e+2, -1676795.8, -1759662.0, 108818.1, 0.02330684, -0.14764848, -1601789.8, 118674.71, 0.00005010573, 10.000538, 9.99943 
3.750213e+2, 1.3444111e+2, -1616168.0, -1649855.3, -70362.68, 0.0008548559, -0.10335997, -1560661.0, 61802.92, 0.000020857056, 10.000143, 9.999706 
3.7501806e+2, 1.4444059e+2, -1518670.8, -1537153.3, 18411.414, 0.015487761, -0.1308301, -1507311.5, 17157.834, 0.000004428325, 10.00008, 9.999832 
3.75015e+2, 1.5444039e+2, -1376253.4, -1418472.0, 19789.432, -0.07282825, -0.13838537, -1368427.8, 58043.195, 0.00000011962439, 10.000389, 9.999825 
3.7501276e+2, 1.6444023e+2, -1286682.9, -1327671.3, 9355.15, -0.056391068, -0.13348469, -1284648.6, 43823.5, 0.0, 10.000345, 9.999796 
3.7501106e+2, 1.7444022e+2, -1257369.1, -1262294.1, 11256.318, 0.032161396, -0.11823171, -1248309.1, -17836.832, 0.0, 9.999872, 9.9998 
3.7500873e+2, 1.8443996e+2, -1182900.5, -1183816.8, 26785.453, 0.04308458, -0.1198271, -1156569.3, -24094.533, 0.0, 9.999744, 9.999729 
3.750059e+2, 1.9443941e+2, -1038564.25, -1063471.0, 26289.719, -0.023442345, -0.15189669, -1021927.5, 12552.619, 0.0, 10.000062, 9.999729 
3.750033e+2, 2.04439e+2, -914096.9, -944610.94, 17209.889, -0.048446007, -0.16821812, -906354.8, 30128.633, 0.0, 10.000208, 9.999803 
3.7500104e+2, 2.144388e+2, -825682.44, -849758.75, 22463.64, -0.026910083, -0.1732692, -812234.7, 26249.156, 0.0, 10.000136, 9.999815 
3.7499833e+2, 2.2443841e+2, -765691.56, -818763.3, 3463.1587, -0.024825279, -0.1696879, -765466.5, -24979.773, 0.0, 10.000085, 9.999379 
3.7499514e+2, 2.3443788e+2, -672263.25, -724993.5, -4622.4287, -0.044168912, -0.1643436, -671861.1, -29368.602, 0.0, 10.000063, 9.999361 
3.749922e+2, 2.4443717e+2, -578712.94, -627649.44, -6203.206, -0.041319244, -0.16859825, -577938.9, -33440.04, 0.0, 10.000027, 9.999373 
3.7498948e+2, 2.5443637e+2, -487276.94, -531929.75, -284.81833, -0.0125467535, -0.19232549, -487275.13, -40769.793, 0.0, 9.999977, 9.999382 
3.749866e+2, 2.6443553e+2, -403273.78, -461585.66, 7452.326, -0.008650118, -0.20481479, -402336.44, -53824.098, 0.0, 9.999971, 9.999194 
3.7498352e+2, 2.7443463e+2, -294983.13, -358014.06, 11904.732, -0.033685993, -0.21543336, -292809.63, -42289.703, 0.0, 10.00004, 9.9992 
3.7498042e+2, 2.8443366e+2, -210500.1, -283630.16, -9907.234, -0.040589925, -0.22729161, -209181.69, -56652.92, 0.0, 10.000021, 9.999047 
3.7497714e+2, 2.944326e+2, -139119.8, -201910.34, -15081.976, -0.031886425, -0.23845762, -135685.08, -81147.14, 0.0, 9.999853, 9.999016 
3.749738e+2, 3.044321e+2, -64342.207, -90610.836, 4536.1123, -0.08022762, -0.21150085, -63580.965, -63580.965, 0.0, 9.999816, 9.999465 
3.7497136e+2, 3.1443155e+2, -31438.959, -60287.07, -35502.54, -0.055768307, -0.22017954, -7542.215, -7542.215, 0.0, 9.999977, 9.999596 
3.8502654e+2, 1.24443695e+2, -1659681.5, -1745321.1, 102491.22, 0.008285821, -0.13902032, -1591424.8, 129013.34, 0.00004363311, 10.00063, 9.999482 
3.8502154e+2, 1.3444373e+2, -1614398.9, -1634971.4, -78846.48, 0.013512968, -0.12158492, -1545170.5, 77267.484, 0.000017489165, 10.0000925, 9.999834 
3.8501826e+2, 1.4444333e+2, -1556800.5, -1555060.5, 37932.94, 0.03705712, -0.14454493, -1517987.6, 6454.51, 0.0000034194288, 9.999816, 9.999836 
3.8501522e+2, 1.5444332e+2, -1467277.8, -1462537.1, 33003.59, -0.057110015, -0.12947805, -1431818.9, -5376.551, 0.00000006772674, 9.999764, 9.999824 
3.8501298e+2, 1.6444324e+2, -1358802.1, -1356550.0, 11036.815, -0.044055153, -0.12226116, -1346582.0, -18138.818, 0.0, 9.999824, 9.99985 
3.850111e+2, 1.7444305e+2, -1226650.8, -1240808.1, 10371.427, 0.03988724, -0.12975831, -1221172.6, 9271.709, 0.0, 10.000052, 9.999862 
3.8500872e+2, 1.8444276e+2, -1121606.0, -1148738.1, 37146.723, 0.048727706, -0.13956456, -1095625.8, 36821.03, 0.0, 10.00014, 9.999779 
3.85006e+2, 1.9444235e+2, -1037857.75, -1057269.9, 42925.74, -0.017184338, -0.16186856, -1003554.44, 30896.043, 0.0, 10.000042, 9.999782 
3.8500348e+2, 2.0444205e+2, -950500.56, -967832.1, 26499.693, -0.040143084, -0.16828915, -931285.75, 5167.4146, 0.0, 9.999984, 9.99975 
3.850012e+2, 2.144419e+2, -852205.9, -868868.6, 15206.457, -0.014976482, -0.16261841, -843198.06, -4744.093, 0.0, 9.999982, 9.999758 
3.8499847e+2, 2.2444151e+2, -777274.8, -824624.8, -2405.4414, -0.013580006, -0.15711766, -777152.94, -36695.684, 0.0, 10.000007, 9.999377 
3.8499525e+2, 2.3444088e+2, -671474.0, -724528.5, 4388.1084, -0.040060878, -0.16184808, -671113.56, -28650.021, 0.0, 10.000068, 9.999362 
3.8499224e+2, 2.4444015e+2, -566795.8, -622888.75, 6187.967, -0.041912332, -0.168896, -566121.25, -21651.21, 0.0, 10.000112, 9.999366 
3.849895e+2, 2.544394e+2, -463804.47, -521575.66, 448.38998, -0.014985569, -0.18506317, -463801.0, -17324.574, 0.0, 10.000143, 9.999373 
3.8498664e+2, 2.6443863e+2, -375884.25, -443126.25, 2647.7383, -0.010548682, -0.1925575, -375780.16, -27297.393, 0.0, 10.000137, 9.999242 
3.8498357e+2, 2.7443781e+2, -286602.53, -348012.34, 4390.9976, -0.031821825, -0.20292221, -286290.16, -35800.96, 0.0, 10.000072, 9.999253 
3.8498044e+2, 2.8443667e+2, -213459.47, -295681.44, -13943.056, -0.040576447, -0.2265841, -211159.38, -58660.293, 0.0, 10.000045, 9.998953 
3.8497704e+2, 2.944353e+2, -110307.09, -200775.66, -8683.116, -0.03986572, -0.2616707, -109481.23, -54969.43, 0.0, 10.000104, 9.998903 
3.849738e+2, 3.04435e+2, -32633.436, -88729.66, 10374.526, -0.07889131, -0.1992987, -30776.24, -30776.24, 0.0, 10.000091, 9.999346 
3.8497138e+2, 3.14434e+2, -37033.668, -61572.156, -55944.56, -0.05064134, -0.24194527, 7971.234, 7971.234, 0.000000000002787424, 9.99993, 9.99961 
3.950273e+2, 1.24446474e+2, -1644742.8, -1712786.3, 95539.77, 0.021988364, -0.12319851, -1577347.9, 143064.11, 0.0000362571, 10.000625, 9.999707 
3.9502138e+2, 1.3444632e+2, -1592768.4, -1590797.1, -98001.85, -0.014103812, -0.15441303, -1493775.9, 128635.64, 0.000013744367, 10.000094, 10.000136 
3.9501795e+2, 1.4444605e+2, -1561285.3, -1563621.9, 35890.508, 0.023878504, -0.17823017, -1526544.0, -2130.3733, 0.0000023661473, 9.999812, 9.99978 
3.9501587e+2, 1.5444635e+2, -1472217.0, -1473436.4, 31589.063, 0.03013759, -0.12627518, -1441231.8, -14819.871, 0.000000028035489, 9.999767, 9.999747 
3.950136e+2, 1.644462e+2, -1356479.1, -1351852.5, 18166.041, 0.03621488, -0.12204254, -1335853.0, -7439.2134, 0.0, 9.999824, 9.999883 
3.9501056e+2, 1.7444552e+2, -1223669.8, -1234176.1, 19479.717, -0.019159913, -0.18151186, -1208747.3, 21672.191, 0.0, 10.000051, 9.999908 
3.9500803e+2, 1.8444534e+2, -1112793.0, -1129796.6, 34012.074, -0.038210813, -0.19110672, -1086236.3, 46184.563, 0.0, 10.000137, 9.99991 
3.950063e+2, 1.9444573e+2, -1028565.6, -1037313.44, 39650.1, 0.007968075, -0.1482603, -993048.9, 41367.902, 0.0, 10.000039, 9.99992 
3.9500412e+2, 2.0444568e+2, -967528.4, -1002502.4, 25874.26, 0.02605705, -0.124303, -953786.06, -17368.387, 0.0, 9.999981, 9.999514 
3.9500138e+2, 2.1444513e+2, -870837.44, -906749.1, 15722.311, 0.0032818215, -0.13151753, -864926.94, -26502.656, 0.0, 9.999979, 9.999499 
3.9499843e+2, 2.2444457e+2, -764889.3, -798071.94, -490.84155, -0.017622495, -0.14033258, -764882.0, -24452.305, 0.0, 10.000004, 9.999561 
3.9499536e+2, 2.3444396e+2, -656913.2, -693913.1, 7093.2583, -0.033819146, -0.16042015, -655599.94, -13166.387, 0.0, 10.000066, 9.999574 
3.9499238e+2, 2.4444327e+2, -576758.25, -643134.6, 6932.1543, -0.038611434, -0.169965, -576042.0, -31602.617, 0.0, 10.000111, 9.999228 
3.949895e+2, 2.544425e+2, -475438.94, -544261.94, 1945.849, -0.03126828, -0.17261355, -475383.97, -28936.826, 0.0, 10.000136, 9.99922 
3.9498654e+2, 2.6444173e+2, -375203.56, -440217.88, 138.95967, -0.036224455, -0.1704476, -375203.28, -26749.602, 0.0, 10.000131, 9.999265 
3.9498347e+2, 2.74441e+2, -284415.72, -343958.72, 2168.7117, -0.052808814, -0.17626704, -284336.84, -33877.95, 0.0, 10.000073, 9.99928 
3.9498043e+2, 2.8443977e+2, -209403.08, -287611.53, -12907.369, -0.04407082, -0.21597508, -207327.94, -54858.49, 0.0, 10.000047, 9.999007 
3.9497742e+2, 2.9443806e+2, -108387.04, -193723.92, -5758.9624, -0.012905607, -0.2904591, -108000.15, -53515.17, 0.0, 10.000092, 9.998958 
3.949742e+2, 3.0443785e+2, -62470.023, -147592.72, 4851.219, -0.043511078, -0.20326038, -62194.44, -62194.44, 0.0, 10.000078, 9.998947 
3.949712e+2, 3.144363e+2, -49519.418, -86621.47, -62218.563, -0.06230968, -0.2612088, -3145.1765, -3145.1765, 0.000000001718879, 9.999929, 9.999438 
4.0502778e+2, 1.2444934e+2, -1702609.6, -1736610.8, 116239.35, 0.024795061, -0.11849388, -1602134.3, 118250.164, 0.000028702449, 10.000211, 9.999743 
4.0502167e+2, 1.3444927e+2, -1558344.0, -1561531.0, -106269.914, -0.004511007, -0.15087372, -1453655.6, 168726.94, 0.000010028613, 10.000276, 10.000252 
4.05018e+2, 1.4444911e+2, -1504247.4, -1530409.3, 27420.684, 0.031929903, -0.17294237, -1486947.4, 37435.973, 0.0000013962007, 10.000177, 9.999832 
4.0501574e+2, 1.544493e+2, -1460214.0, -1461780.0, 29832.703, 0.039322503, -0.13852632, -1431154.0, -4771.486, 0.000000006286357, 9.999824, 9.999801 
4.0501347e+2, 1.6444914e+2, -1371485.1, -1359160.1, 35982.613, 0.04588055, -0.13675132, -1328816.1, -431.6586, 0.0, 9.999721, 9.999882 
4.0501058e+2, 1.7444862e+2, -1243224.1, -1244143.3, 33843.24, -0.014208566, -0.18180583, -1209837.4, 20551.86, 0.0, 9.999919, 9.999904 
4.050081e+2, 1.8444851e+2, -1129476.5, -1133192.4, 34287.55, -0.034713116, -0.18381026, -1096996.5, 35393.336, 0.0, 10.000004, 9.999951 
4.0500638e+2, 1.9444895e+2, -1035311.2, -1035515.7, 31428.582, 0.015444482, -0.14163473, -1003984.7, 30400.734, 0.0, 9.999971, 9.999965 
4.0500417e+2, 2.0444891e+2, -968312.9, -1009880.25, 25195.404, 0.03311165, -0.1144643, -956435.1, -20048.816, 0.0, 10.000006, 9.999452 
4.050014e+2, 2.1444838e+2, -854018.94, -906116.1, 28963.813, 0.0020519546, -0.11458113, -841113.3, -2719.7212, 0.0, 10.000127, 9.999433 
4.0499854e+2, 2.244478e+2, -731288.94, -772964.8, 16592.313, -0.018871568, -0.12489079, -725489.94, 14909.295, 0.0, 10.000196, 9.99964 
4.0499562e+2, 2.344472e+2, -630765.4, -671148.44, 14220.472, -0.02421159, -0.15661912, -626260.4, 16142.206, 0.0, 10.000202, 9.999663 
4.0499267e+2, 2.4444646e+2, -568315.1, -648951.0, 11445.284, -0.025386278, -0.16957186, -566722.06, -22313.563, 0.0, 10.000211, 9.999139 
4.0498975e+2, 2.5444564e+2, -469429.7, -552042.2, 10226.63, -0.023133665, -0.1658974, -468182.56, -21765.508, 0.0, 10.000223, 9.9991255 
4.0498668e+2, 2.644449e+2, -371501.88, -444124.88, 5840.791, -0.0349351, -0.15754983, -371035.13, -22610.992, 0.0, 10.00018, 9.999214 
4.0498346e+2, 2.7444416e+2, -285606.5, -350416.28, 472.01392, -0.06126373, -0.15647826, -285603.06, -35173.504, 0.0, 10.00009, 9.9992285 
4.0498042e+2, 2.844429e+2, -209824.17, -284605.8, -15735.17, -0.051616058, -0.1960468, -206648.14, -54207.742, 0.0, 10.00003, 9.999038 
4.0497753e+2, 2.944411e+2, -123188.555, -196515.5, -10445.32, -0.0036417937, -0.28128004, -121729.66, -67273.21, 0.0, 9.99997, 9.998998 
4.049745e+2, 3.0444103e+2, -79979.12, -177419.17, 12707.054, -0.022600017, -0.1740632, -78349.266, -78349.266, 0.0, 10.00005, 9.998756 
4.0497127e+2, 3.1443918e+2, 20905.668, -39228.496, -41749.496, -0.068794504, -0.24060252, 42288.074, 42288.074, 0.00000001196501, 10.000354, 9.999559 
4.1502786e+2, 1.24452256e+2, -1713585.8, -1758284.9, 132556.58, 0.01090761, -0.12853676, -1601507.9, 118847.94, 0.000021697306, 10.000208, 9.999596 
4.1502237e+2, 1.3445263e+2, -1562235.6, -1571375.3, -102698.56, 0.03891448, -0.112862416, -1464005.3, 158345.92, 0.000006740833, 10.000281, 10.000182 
4.1501847e+2, 1.4445253e+2, -1493633.0, -1507916.0, 15366.368, 0.056948, -0.13009611, -1483829.8, 40521.49, 0.0000006540361, 10.000176, 9.999988 
4.150149e+2, 1.5445217e+2, -1447752.1, -1435623.3, 16887.563, -0.030072149, -0.165999, -1423744.3, 2609.8083, 0.0000000002364484, 9.999823, 9.999981 
4.1501257e+2, 1.6445209e+2, -1374554.5, -1364909.4, 41918.086, -0.016714027, -0.1659664, -1327537.4, 817.7128, 0.0, 9.999719, 9.999844 
4.1501117e+2, 1.7445232e+2, -1247002.6, -1251722.9, 41779.21, 0.051320754, -0.13054727, -1207516.9, 22836.592, 0.0, 9.999918, 9.999852 
4.1500902e+2, 1.8445231e+2, -1133144.3, -1140597.3, 33046.78, 0.055131137, -0.1179777, -1103614.6, 28739.27, 0.0, 10.000003, 9.999901 
4.1500622e+2, 1.9445203e+2, -1039310.5, -1042970.1, 30643.383, 0.0038609945, -0.1413529, -1010442.3, 23913.996, 0.0, 9.999968, 9.999915 
4.1500366e+2, 2.0445178e+2, -960953.56, -993726.06, 29169.219, -0.020488594, -0.13850765, -943883.1, -7523.9688, 0.0, 10.000002, 9.999564 
4.150013e+2, 2.1445164e+2, -845809.25, -888090.4, 33984.36, -0.02052225, -0.11217193, -826926.56, 11435.511, 0.0, 10.000123, 9.999558 
4.1499874e+2, 2.2445121e+2, -733401.25, -776806.56, 16747.05, -0.019395644, -0.111168034, -727691.0, 12674.971, 0.0, 10.000194, 9.999616 
4.149959e+2, 2.344505e+2, -633552.9, -676121.3, 14858.603, -0.013759417, -0.14981434, -628879.5, 13491.151, 0.0, 10.000199, 9.999631 
4.149931e+2, 2.4444969e+2, -570959.9, -653718.06, 11566.313, -0.0047512925, -0.16721508, -569373.75, -24996.361, 0.0, 10.000207, 9.999108 
4.149903e+2, 2.5444883e+2, -471740.63, -556794.3, 10908.978, 0.007815931, -0.16565567, -470363.72, -23977.496, 0.0, 10.000222, 9.999093 
4.1498715e+2, 2.6444802e+2, -380851.9, -462877.16, 2121.3086, -0.008228221, -0.15456869, -380797.1, -32402.879, 0.0, 10.000177, 9.999086 
4.1498354e+2, 2.7444726e+2, -296458.38, -370544.34, -2026.656, -0.060007468, -0.14374214, -296403.0, -46001.71, 0.0, 10.00008, 9.999095 
4.149803e+2, 2.8444612e+2, -210428.02, -283731.06, -18306.705, -0.066088766, -0.16682333, -206110.4, -53698.43, 0.0, 10.000021, 9.999047 
4.1497737e+2, 2.9444456e+2, -121286.664, -192682.77, -12885.852, -0.01579895, -0.23269877, -119032.164, -64606.066, 0.0, 9.999971, 9.999023 
4.1497454e+2, 3.0444464e+2, -78293.44, -174187.95, 22672.52, -0.020084169, -0.11018661, -73203.13, -73203.13, 0.0, 10.0000515, 9.998776 
4.1497156e+2, 3.1444275e+2, 47803.54, 19552.668, -30561.36, -0.07777332, -0.18321449, 67345.96, 67345.96, 0.000000036873733, 10.000342, 9.999969 
4.250282e+2, 1.2445546e+2, -1708749.1, -1765399.0, 163344.05, 0.020346008, -0.13932161, -1571292.4, 149030.55, 0.000015823704, 10.000285, 9.999509 
4.2502248e+2, 1.344558e+2, -1633150.0, -1608192.9, -84817.47, 0.047334835, -0.12430052, -1534940.9, 87378.484, 0.0000041887733, 9.999806, 10.000158 
4.250184e+2, 1.4445578e+2, -1553390.3, -1535032.6, 39250.44, 0.056216177, -0.13311331, -1503902.1, 20416.947, 0.00000021832761, 9.99976, 10.000002 
4.2501482e+2, 1.5445542e+2, -1402270.4, -1411494.3, 27405.01, -0.034921497, -0.17075577, -1379092.0, 47229.816, 0.0, 10.000126, 10.0 
4.250125e+2, 1.6445538e+2, -1302437.5, -1330077.3, 48216.99, -0.017836466, -0.16665725, -1266099.0, 62223.35, 0.0, 10.000215, 9.999843 
4.2501122e+2, 1.7445572e+2, -1235121.0, -1246285.8, 50262.633, 0.060644373, -0.12082513, -1190131.6, 40188.316, 0.0, 10.000002, 9.999848 
4.2500913e+2, 1.8445568e+2, -1151709.9, -1160398.8, 43270.383, 0.06777388, -0.10722038, -1112566.4, 19754.676, 0.0, 9.999923, 9.999804 
4.250063e+2, 1.9445519e+2, -1041224.8, -1055414.4, 36529.1, 0.009600424, -0.14080082, -1011107.94, 23218.248, 0.0, 10.000005, 9.999811 
4.2500365e+2, 2.044549e+2, -943795.1, -971712.06, 35861.477, -0.023906898, -0.14363135, -919271.3, 17058.021, 0.0, 10.000062, 9.999686 
4.250013e+2, 2.1445487e+2, -841555.8, -870890.8, 40978.805, -0.035051275, -0.118170135, -812698.6, 25631.479, 0.0, 10.000087, 9.999694 
4.249988e+2, 2.2445452e+2, -742044.0, -794385.0, 22732.424, -0.033201747, -0.11148177, -733549.56, 6783.7627, 0.0, 10.000193, 9.999495 
4.2499623e+2, 2.3445383e+2, -613348.94, -681369.4, 12295.431, -0.012808895, -0.13476308, -611194.6, 31144.615, 0.0, 10.000402, 9.999496 
4.2499346e+2, 2.4445306e+2, -530253.25, -621249.75, 3939.969, 0.0019494748, -0.14733666, -530083.0, 14263.01, 0.0, 10.000432, 9.999223 
4.2499053e+2, 2.5445223e+2, -459798.5, -536917.2, 13999.6875, 0.008976975, -0.15513693, -457335.72, -10982.162, 0.0, 10.000243, 9.99922 
4.2498735e+2, 2.644514e+2, -387419.28, -478727.56, 15835.829, -0.0053606792, -0.14742254, -384750.84, -36389.195, 0.0, 10.000186, 9.998974 
4.249839e+2, 2.7445057e+2, -275858.28, -373952.63, 12017.037, -0.045915008, -0.13203676, -274407.6, -24037.22, 0.0, 10.000278, 9.998976 
4.2498052e+2, 2.844494e+2, -169809.52, -265558.38, -4385.0254, -0.058467533, -0.146257, -169609.11, -17227.658, 0.0, 10.000305, 9.999036 
4.2497733e+2, 2.9444796e+2, -78944.36, -172747.69, -3066.7546, -0.03489082, -0.20100093, -78844.2, -24449.488, 0.0, 10.000263, 9.99902 
4.2497462e+2, 3.0444795e+2, -71939.01, -190125.36, 30002.191, -0.025698893, -0.08078719, -64758.996, -64758.996, 0.0, 10.000177, 9.998608 
4.2497197e+2, 3.1444597e+2, 17392.2, 26910.879, -38848.027, -0.05547366, -0.14484453, 61290.016, 61290.016, 0.00000007454206, 10.000037, 10.000166 
4.350288e+2, 1.24458976e+2, -1712087.9, -1771992.0, 159705.34, 0.04752084, -0.1500868, -1579550.1, 140735.55, 0.0000113764345, 10.000285, 9.999463 
4.3502203e+2, 1.3445881e+2, -1631497.3, -1606529.6, -101168.26, 0.019439667, -0.18413106, -1517077.9, 105209.35, 0.0000025044064, 9.999812, 10.000169 
4.3501788e+2, 1.4445888e+2, -1561497.0, -1552066.9, 52229.95, 0.026941685, -0.18112655, -1504339.5, 19947.24, 0.000000047491298, 9.999761, 9.999885 
4.350155e+2, 1.5445904e+2, -1411510.4, -1430435.6, 41732.223, 0.020489728, -0.15437295, -1378181.4, 48104.332, 0.0, 10.000125, 9.99987 
4.350133e+2, 1.6445905e+2, -1301403.4, -1326966.8, 40955.78, 0.03782757, -0.14039242, -1271281.1, 57005.203, 0.0, 10.000211, 9.999866 
4.3501073e+2, 1.7445883e+2, -1232829.6, -1241031.3, 42867.758, 0.012465831, -0.15226264, -1193867.0, 36421.715, 0.0, 10.0, 9.999886 
4.3500835e+2, 1.8445863e+2, -1162523.5, -1181924.9, 45425.598, 0.0011788252, -0.1503531, -1125774.4, 6517.2446, 0.0, 9.999919, 9.999657 
4.350065e+2, 1.9445843e+2, -1052508.3, -1078159.6, 39975.406, 0.030345287, -0.13942724, -1023351.44, 10943.437, 0.0, 10.000002, 9.999657 
4.3500417e+2, 2.0445824e+2, -935091.44, -952734.6, 36815.098, 0.02061053, -0.13016845, -906055.75, 30241.313, 0.0, 10.000058, 9.999819 
4.3500128e+2, 2.1445808e+2, -831727.56, -849571.44, 42518.605, -0.043966696, -0.132234, -797204.9, 41092.7, 0.0, 10.000083, 9.999842 
4.349987e+2, 2.2445771e+2, -757754.1, -826361.7, 29940.115, -0.062930934, -0.12508221, -746525.94, -6224.638, 0.0, 10.00019, 9.999276 
4.3499652e+2, 2.3445714e+2, -630238.3, -716052.3, 20521.459, -0.022842268, -0.11233343, -625583.3, 16725.174, 0.0, 10.000401, 9.999259 
4.3499383e+2, 2.4445651e+2, -512521.47, -583782.94, -2677.009, -0.0068168407, -0.11077149, -512421.03, 31893.494, 0.0, 10.000429, 9.999481 
4.3499044e+2, 2.5445583e+2, -440297.47, -495481.06, 7437.4883, -0.022827413, -0.13365844, -439312.63, 7006.455, 0.0, 10.000239, 9.999506 
4.349873e+2, 2.6445502e+2, -394518.16, -492556.16, 18390.367, -0.029211361, -0.13549952, -391181.97, -42855.56, 0.0, 10.000182, 9.998881 
4.3498442e+2, 2.7445403e+2, -283871.25, -390239.53, 15490.069, -0.021594789, -0.12080512, -281661.4, -31324.516, 0.0, 10.000277, 9.998865 
4.349811e+2, 2.8445283e+2, -172551.67, -270028.56, -6215.432, -0.031467184, -0.1342073, -172156.95, -19808.03, 0.0, 10.0003, 9.999006 
4.349773e+2, 2.9445136e+2, -81773.61, -177308.9, -3832.8674, -0.064457774, -0.18751483, -81620.08, -27257.592, 0.0, 10.000258, 9.998991 
4.3497464e+2, 3.0445096e+2, -98027.016, -242820.7, 24084.299, -0.04256472, -0.08724965, -94126.04, -94126.04, 0.0, 10.000172, 9.998248 
4.3497247e+2, 3.1444883e+2, 14938.239, 23724.13, -41736.527, -0.009086645, -0.13180086, 61298.26, 61298.26, 0.0000001100893, 10.00003, 10.000148 
4.450291e+2, 1.24462076e+2, -1719155.4, -1780073.9, 136759.5, 0.054710213, -0.16528188, -1609504.3, 110749.875, 0.000008277144, 10.000258, 9.99942 
4.4502208e+2, 1.344619e+2, -1578663.0, -1579305.0, -138333.5, 0.02486336, -0.2033269, -1440650.1, 181605.98, 0.0000015575915, 10.000166, 10.000186 
4.4501778e+2, 1.4446206e+2, -1518928.9, -1531602.9, 34056.73, 0.027936157, -0.18996091, -1490624.6, 33630.32, 0.000000013935479, 10.000053, 9.999885 
4.450156e+2, 1.5446232e+2, -1453014.3, -1450660.8, 30040.0, 0.030710649, -0.15396896, -1421774.5, 4478.903, 0.0, 9.999843, 9.999868 
4.4501337e+2, 1.6446233e+2, -1360825.3, -1354288.6, 31092.482, 0.044227626, -0.1397451, -1326293.1, 1960.9388, 0.0, 9.999798, 9.999878 
4.450106e+2, 1.7446202e+2, -1236390.1, -1240903.0, 31425.3, -0.00248878, -0.16303103, -1207140.4, 23116.996, 0.0, 9.999969, 9.999901 
4.450082e+2, 1.8446183e+2, -1133553.4, -1167728.5, 43918.465, -0.02063629, -0.15956862, -1103515.4, 28744.69, 0.0, 10.000117, 9.999658 
4.450065e+2, 1.9446181e+2, -1017195.1, -1061129.5, 49566.84, 0.019508034, -0.13128723, -984945.75, 49316.11, 0.0, 10.000245, 9.999656 
4.4500437e+2, 2.0446162e+2, -902393.4, -943109.4, 42831.813, 0.021751836, -0.119351216, -875327.6, 60936.418, 0.0, 10.000309, 9.999763 
4.4500157e+2, 2.1446127e+2, -805125.8, -843293.7, 32242.484, -0.03020379, -0.13645841, -786742.8, 51523.547, 0.0, 10.000295, 9.999783 
4.4499898e+2, 2.2446083e+2, -756688.94, -827526.94, 19495.057, -0.051584814, -0.13195543, -751678.25, -11407.469, 0.0, 10.000206, 9.999261 
4.4499663e+2, 2.3446034e+2, -686372.56, -744908.0, 26180.578, -0.03312954, -0.108355455, -676371.7, -34094.195, 0.0, 10.000023, 9.999244 
4.4499388e+2, 2.4445976e+2, -563142.8, -607193.44, 5793.3184, -0.025330037, -0.101342216, -562393.7, -18110.414, 0.0, 10.000076, 9.999491 
4.449907e+2, 2.5445908e+2, -412808.7, -480115.75, -5303.643, -0.032333802, -0.12481752, -412393.34, 33894.39, 0.0, 10.00042, 9.999524 
4.449876e+2, 2.6445824e+2, -346393.8, -461640.8, -4431.009, -0.030929765, -0.13137531, -346223.7, 2071.2073, 0.0, 10.000481, 9.99895 
4.4498467e+2, 2.744573e+2, -290221.8, -385774.78, 5297.379, -0.017143177, -0.123534545, -289929.03, -39623.992, 0.0, 10.0002, 9.998933 
4.449814e+2, 2.8445613e+2, -198836.55, -293994.0, -4033.4019, -0.026876787, -0.13000146, -198665.89, -46349.285, 0.0, 10.000168, 9.998907 
4.4497764e+2, 2.9445475e+2, -66855.414, -181259.86, -8818.928, -0.06435994, -0.16510545, -66179.59, -11849.526, 0.0, 10.000408, 9.998892 
4.4497514e+2, 3.0445382e+2, -53007.996, -239428.86, 20522.17, -0.029850729, -0.10444991, -50775.543, -50775.543, 0.00000000000009396187, 10.000558, 9.998086 
4.4497287e+2, 3.144516e+2, 108093.266, 78597.8, -30621.352, -0.00080332096, -0.13960661, 127333.22, 127333.22, 0.00000013361628, 10.0006275, 10.0002365 
4.5502922e+2, 1.2446473e+2, -1720013.4, -1782603.9, 147139.6, 0.035640493, -0.18828124, -1600877.6, 119350.67, 0.0000061456926, 10.000262, 9.999401 
4.550226e+2, 1.34465e+2, -1576079.9, -1574117.0, -140136.38, 0.06130093, -0.18432228, -1434958.6, 187267.69, 0.0000010596042, 10.000165, 10.000223 
4.5501816e+2, 1.4446534e+2, -1512526.8, -1517269.8, 27792.723, 0.05586668, -0.16097125, -1487004.6, 37218.875, 0.000000007555667, 10.000049, 9.999985 
4.5501503e+2, 1.5446529e+2, -1445562.1, -1435159.6, 23010.152, -0.007400991, -0.16768593, -1416770.3, 9454.403, 0.0, 9.999843, 9.999974 
4.5501274e+2, 1.6446525e+2, -1359565.4, -1352182.4, 36297.46, -0.001755113, -0.16238074, -1319389.1, 8836.31, 0.0, 9.9998, 9.999891 
4.550107e+2, 1.7446528e+2, -1236192.4, -1240219.3, 38547.402, 0.014346927, -0.15362877, -1199605.9, 30620.139, 0.0, 9.999968, 9.999907 
4.550085e+2, 1.844653e+2, -1124295.1, -1147035.0, 48848.13, 0.00016665662, -0.13647053, -1085511.3, 46715.477, 0.0, 10.000112, 9.999803 
4.550063e+2, 1.9446534e+2, -1006919.44, -1038933.25, 54804.96, -0.025450675, -0.11674905, -965831.7, 68395.55, 0.0, 10.000241, 9.99981 
4.5500422e+2, 2.0446506e+2, -920141.1, -978892.5, 42155.816, -0.023302225, -0.110937886, -898135.44, 38094.844, 0.0, 10.000304, 9.999519 
4.5500222e+2, 2.1446441e+2, -823742.06, -881606.6, 32180.871, 0.00500029, -0.13042308, -809399.75, 28836.559, 0.0, 10.000293, 9.999519 
4.5499972e+2, 2.2446387e+2, -744527.2, -801721.4, 12676.408, -0.00035323756, -0.13250366, -741843.56, -1601.8071, 0.0, 10.000203, 9.999439 
4.5499653e+2, 2.3446344e+2, -672344.9, -715363.9, 19530.844, -0.04545604, -0.12224087, -664800.75, -22554.54, 0.0, 10.000021, 9.999448 
4.5499367e+2, 2.4446283e+2, -580349.9, -642287.3, 17164.357, -0.055679712, -0.11800348, -575911.25, -31659.078, 0.0, 10.000073, 9.999251 
4.5499122e+2, 2.54462e+2, -431702.75, -517908.47, 7671.9277, -0.021824948, -0.12948526, -431025.3, 15234.361, 0.0, 10.000413, 9.999268 
4.5498827e+2, 2.6446116e+2, -330696.8, -428157.3, -14160.812, -0.012177746, -0.13585372, -328680.97, 19586.4, 0.0, 10.000476, 9.999182 
4.5498472e+2, 2.7446032e+2, -272462.38, -348995.4, -4445.9404, -0.035849195, -0.14141099, -272204.97, -21929.934, 0.0, 10.0002, 9.999186 
4.5498133e+2, 2.8445935e+2, -211850.55, -319790.8, 3546.4512, -0.047735132, -0.13482255, -211734.16, -59449.438, 0.0, 10.000163, 9.998732 
4.549783e+2, 2.9445812e+2, -80337.305, -207459.44, -129.39455, -0.038240418, -0.13285378, -80337.17, -26039.656, 0.0, 10.000401, 9.998715 
4.5497608e+2, 3.0445653e+2, -52000.246, -235231.36, 22707.963, 0.009352176, -0.13122639, -49227.977, -49227.977, 0.00000000000087855477, 10.000549, 9.998118 
4.5497313e+2, 3.1445423e+2, 121615.695, 107169.945, -24335.02, -0.03742184, -0.18010938, 139777.13, 139777.13, 0.00000014519496, 10.000626, 10.000434 
4.6502936e+2, 1.24467574e+2, -1789975.0, -1804543.0, 153773.83, 0.051279835, -0.18377432, -1643312.8, 76888.81, 0.000004581255, 9.999737, 9.9995 
4.650226e+2, 1.3446808e+2, -1624452.8, -1580584.0, -140303.2, 0.06342551, -0.1730836, -1460510.9, 161686.17, 0.0000007444035, 9.99976, 10.000375 
4.6501797e+2, 1.4446855e+2, -1540907.9, -1531396.3, 29352.879, 0.044875994, -0.14421077, -1506416.4, 17776.379, 0.0000000034677494, 9.999857, 9.999981 
4.6501493e+2, 1.5446831e+2, -1428110.3, -1427642.3, 14405.659, -0.010931737, -0.16652858, -1413468.6, 12726.853, 0.0, 9.999967, 9.999966 
4.6501264e+2, 1.6446827e+2, -1325450.0, -1331271.5, 29771.352, 0.0007127265, -0.16368194, -1298447.5, 29749.01, 0.0, 10.000014, 9.999931 
4.6501076e+2, 1.7446849e+2, -1228653.4, -1232031.4, 34032.523, 0.020659594, -0.14102627, -1196268.0, 33927.31, 0.0, 9.999998, 9.999948 
4.650086e+2, 1.8446855e+2, -1138760.9, -1151718.3, 42397.92, 0.0031527537, -0.12229735, -1102349.5, 29845.795, 0.0, 10.000002, 9.999824 
4.6500635e+2, 1.9446847e+2, -1034462.56, -1049964.4, 38679.773, -0.035196647, -0.11515046, -1002764.75, 31431.727, 0.0, 10.000043, 9.99983 
4.6500427e+2, 2.0446818e+2, -952320.75, -996767.4, 26911.348, -0.037643407, -0.11209294, -939642.8, -3442.947, 0.0, 10.000093, 9.999498 
4.6500236e+2, 2.1446759e+2, -846580.8, -895636.75, 33551.883, -0.0057979478, -0.1223873, -829547.4, 8658.417, 0.0, 10.000149, 9.999493 
4.649999e+2, 2.2446702e+2, -735128.2, -797572.94, 17085.424, -0.0027131098, -0.12560616, -730759.1, 9452.229, 0.0, 10.000268, 9.999436 
4.6499687e+2, 2.3446648e+2, -607712.25, -683770.75, 8212.887, -0.033343226, -0.12826975, -606835.5, 35380.82, 0.0, 10.000464, 9.999451 
4.6499404e+2, 2.4446575e+2, -534310.44, -630843.1, 4160.221, -0.042154502, -0.12927936, -534131.44, 10091.677, 0.0, 10.000437, 9.999154 
4.6499148e+2, 2.5446486e+2, -479104.94, -553036.5, 5580.0234, -0.022833766, -0.13758156, -478686.16, -32454.064, 0.0, 10.00014, 9.999159 
4.649885e+2, 2.6446405e+2, -374858.84, -437130.72, -14181.032, -0.018689286, -0.14185521, -371781.5, -23541.678, 0.0, 10.000119, 9.999292 
4.64985e+2, 2.7446336e+2, -229853.19, -314343.22, -15754.454, -0.03663954, -0.14481673, -227011.13, 23234.38, 0.0, 10.000433, 9.999311 
4.6498173e+2, 2.844625e+2, -153186.8, -300541.7, -5015.845, -0.046180498, -0.1270473, -153016.25, -762.60315, 0.0, 10.000605, 9.998651 
4.6497878e+2, 2.9446137e+2, -59585.4, -206586.47, -2277.5745, -0.036029875, -0.10755619, -59550.117, -5284.1704, 0.0, 10.000583, 9.998634 
4.6497676e+2, 3.044593e+2, -47564.715, -231444.28, 23322.648, 0.020683294, -0.154136, -44652.668, -44652.668, 0.00000000000042122027, 10.000571, 9.998135 
4.6497372e+2, 3.144573e+2, 119600.414, 109996.52, -23749.314, -0.04030842, -0.16941579, 139028.39, 139028.39, 0.00000014428599, 10.000593, 10.00047 
4.750295e+2, 1.2447059e+2, -1776847.4, -1776108.4, 167300.47, 0.092695914, -0.15330008, -1609177.0, 110996.69, 0.0000033199578, 9.99973, 9.999699 
4.7502196e+2, 1.344711e+2, -1606286.9, -1544481.1, -137506.19, 0.02591745, -0.16603236, -1434448.0, 187720.39, 0.00000048107097, 9.9997635, 10.000621 
4.750173e+2, 1.4447168e+2, -1546108.9, -1544299.4, 33858.08, -0.010577142, -0.1356451, -1511334.0, 12828.939, 0.000000000765976, 9.999865, 9.999888 
4.750152e+2, 1.5447138e+2, -1436281.0, -1443914.3, 19192.584, 0.019035038, -0.15202524, -1420529.1, 5637.269, 0.0, 9.999964, 9.999855 
4.7501317e+2, 1.6447137e+2, -1321789.5, -1322533.9, 29440.563, 0.049753726, -0.14487861, -1292718.8, 35448.52, 0.0, 10.00001, 9.999993 
4.750107e+2, 1.7447163e+2, -1223313.4, -1220983.4, 34160.25, 0.0116194915, -0.12485786, -1187968.3, 42197.03, 0.0, 9.999999, 10.000023 
4.750084e+2, 1.844716e+2, -1145369.9, -1165413.4, 43464.824, -0.017065782, -0.11544033, -1110786.4, 21379.588, 0.0, 10.000002, 9.99973 
4.750066e+2, 1.9447125e+2, -1041629.5, -1065030.8, 40836.844, -0.010252858, -0.12642708, -1010850.06, 23319.691, 0.0, 10.000043, 9.999726 
4.7500452e+2, 2.0447098e+2, -940312.25, -970169.1, 28808.643, -0.022375008, -0.12334601, -922793.9, 13378.89, 0.0, 10.000087, 9.999684 
4.7500193e+2, 2.144708e+2, -832521.25, -866054.06, 35884.293, -0.06504394, -0.11251029, -809679.6, 28495.096, 0.0, 10.000148, 9.999697 
4.749996e+2, 2.244703e+2, -748336.0, -824301.0, 23576.4, -0.061736576, -0.11099338, -741613.7, -1434.0193, 0.0, 10.000265, 9.999255 
4.749977e+2, 2.3446943e+2, -621742.44, -712300.2, 15942.476, 0.0013591641, -0.12737992, -619017.8, 23170.08, 0.0, 10.000461, 9.999256 
4.7499505e+2, 2.4446854e+2, -532238.06, -626074.4, -6514.064, 0.0132883955, -0.1364431, -531788.0, 12408.218, 0.0, 10.000435, 9.999188 
4.749915e+2, 2.5446767e+2, -476175.94, -547100.7, -5390.855, -0.038010813, -0.14889361, -475768.5, -29563.457, 0.0, 10.00014, 9.9992 
4.7498828e+2, 2.6446688e+2, -376385.28, -439810.2, -3929.9492, -0.052515633, -0.1483988, -376142.7, -27930.44, 0.0, 10.000117, 9.999275 
4.749856e+2, 2.7446637e+2, -231658.03, -316231.34, -3675.7915, -0.022603912, -0.13290864, -231498.58, 18717.94, 0.0, 10.000425, 9.999302 
4.7498253e+2, 2.844656e+2, -152971.27, -298619.66, -5494.592, -0.02482821, -0.10593271, -152764.28, -540.73145, 0.0, 10.000599, 9.998668 
4.7497913e+2, 2.9446444e+2, -57549.547, -202578.16, -2497.1218, -0.061764326, -0.09160644, -57506.566, -3270.9, 0.0, 10.000584, 9.998661 
4.749771e+2, 3.04462e+2, -48889.277, -232865.36, 22888.99, 0.0009275021, -0.1760232, -46084.36, -46084.36, 0.0, 10.0005665, 9.998127 
4.7497457e+2, 3.1446072e+2, 110524.82, 94145.414, -16356.353, -0.017245498, -0.11638142, 120627.234, 120627.234, 0.00000012581201, 10.000581, 10.000366 
4.8502928e+2, 1.2447354e+2, -1792629.6, -1783747.4, 188614.67, 0.1003736, -0.136981, -1599521.6, 120623.87, 0.0000022837717, 9.999626, 9.999696 
4.8502186e+2, 1.34474e+2, -1601627.3, -1540195.3, -146366.16, 0.035576828, -0.15695082, -1421356.8, 200784.23, 0.0000002759338, 9.999785, 10.000641 
4.8501715e+2, 1.4447464e+2, -1534660.3, -1532732.4, 20815.256, -0.012241346, -0.12320697, -1512858.8, 11276.031, 0.000000000009128432, 9.999918, 9.999942 
4.850151e+2, 1.5447442e+2, -1444234.6, -1442283.4, 15088.338, 0.019342478, -0.13842903, -1428139.1, -2001.8846, 0.0, 9.999885, 9.999906 
4.8501313e+2, 1.6447437e+2, -1344362.4, -1346237.8, 27762.744, 0.04934054, -0.13172479, -1317521.5, 10617.016, 0.0, 9.99991, 9.99988 
4.8501068e+2, 1.744745e+2, -1223765.5, -1234772.5, 17229.436, 0.008590605, -0.11333034, -1211182.0, 18956.566, 0.0, 10.000054, 9.999902 
4.8500845e+2, 1.8447438e+2, -1126509.6, -1145191.3, 22321.0, -0.014721805, -0.11004691, -1111653.8, 20486.137, 0.0, 10.000082, 9.999831 
4.8500678e+2, 1.9447404e+2, -1047855.1, -1055318.1, 34848.18, 0.003763275, -0.13068812, -1016539.2, 17603.34, 0.0, 9.999945, 9.999842 
4.8500466e+2, 2.0447384e+2, -962051.5, -985948.94, 30598.004, -0.01106974, -0.1253043, -941151.94, -5007.0474, 0.0, 9.999959, 9.999639 
4.8500198e+2, 2.1447378e+2, -835106.06, -873109.7, 18566.994, -0.07346123, -0.09717589, -827540.94, 10605.663, 0.0, 10.0001545, 9.999646 
4.8499972e+2, 2.2447333e+2, -751201.25, -818736.9, 2404.6748, -0.07455788, -0.09052664, -751115.7, -10964.324, 0.0, 10.000216, 9.999316 
4.84998e+2, 2.3447241e+2, -668008.3, -727544.75, 13144.642, 0.0006853662, -0.11704048, -665235.4, -23075.814, 0.0, 10.000113, 9.999319 
4.8499537e+2, 2.4447158e+2, -569057.94, -641535.0, -1251.7322, 0.0161662, -0.12633988, -569036.3, -24869.08, 0.0, 10.000172, 9.999209 
4.849917e+2, 2.544708e+2, -432996.75, -523759.38, -2995.136, -0.04251719, -0.12781708, -432898.0, 13276.532, 0.0, 10.000427, 9.999222 
4.849886e+2, 2.6446995e+2, -323411.34, -428063.34, -514.0283, -0.056733347, -0.13252632, -323408.8, 24773.799, 0.0, 10.000542, 9.999151 
4.849861e+2, 2.7446905e+2, -234443.8, -332885.8, -9190.652, -0.016920859, -0.14137022, -233593.1, 16597.582, 0.0, 10.000473, 9.999166 
4.8498315e+2, 2.8446823e+2, -157924.84, -292832.75, -13864.612, -0.021505743, -0.11647613, -156514.7, -4316.6274, 0.0, 10.000529, 9.998741 
4.849797e+2, 2.9446742e+2, -28110.318, -177904.38, -7925.137, -0.0750646, -0.07818975, -27692.191, 26514.29, 0.0, 10.00074, 9.998755 
4.8497775e+2, 3.044647e+2, -12507.66, -218233.72, 15661.562, -0.0033600533, -0.19279559, -11322.204, -11322.204, 0.0, 10.000829, 9.998102 
4.8497534e+2, 3.144637e+2, 116636.12, 68945.99, -22197.535, -0.0061566904, -0.10005314, 125368.93, 125368.93, 0.00000009052117, 10.000745, 10.000114 
4.9502853e+2, 1.244764e+2, -1806980.1, -1813637.4, 205505.48, 0.063813366, -0.13481145, -1604776.4, 115340.65, 0.0000015131136, 9.999627, 9.99949 
4.9502218e+2, 1.3447672e+2, -1616295.9, -1570083.0, -138616.75, 0.09088558, -0.14758375, -1452660.0, 169455.33, 0.00000014199817, 9.999783, 10.000438 
4.950176e+2, 1.444774e+2, -1521551.8, -1504993.9, 21114.602, 0.036668874, -0.10735777, -1490593.1, 33515.617, 0.0, 9.999914, 10.000134 
4.9501464e+2, 1.544774e+2, -1428981.6, -1411320.1, 14253.046, -0.01618205, -0.12324284, -1403383.9, 22724.084, 0.0, 9.999887, 10.000116 
4.9501246e+2, 1.6447727e+2, -1363666.5, -1387968.1, 31776.582, -0.0071289553, -0.12003226, -1341796.9, -13686.965, 0.0, 9.999917, 9.99959 
4.9501073e+2, 1.7447704e+2, -1245952.9, -1281025.3, 23342.453, 0.011202737, -0.10673728, -1234293.4, -4178.263, 0.0, 10.000055, 9.999584 
4.950088e+2, 1.8447687e+2, -1106719.8, -1102598.5, 17681.273, 0.008861742, -0.10632428, -1086858.3, 45258.94, 0.0, 10.000075, 10.000127 
4.950067e+2, 1.9447686e+2, -1024447.94, -1006963.75, 30146.775, 0.0037559466, -0.1287651, -984317.1, 49797.902, 0.0, 9.999946, 10.000173 
4.9500462e+2, 2.0447673e+2, -981509.4, -1025582.25, 36854.4, -0.0078039346, -0.118407436, -960605.75, -24489.482, 0.0, 9.999956, 9.999368 
4.9500254e+2, 2.1447651e+2, -856422.4, -917135.9, 26670.02, -0.032339677, -0.077539496, -846370.94, -8249.531, 0.0, 10.000153, 9.999345 
4.9500024e+2, 2.2447608e+2, -731643.2, -777077.06, -1272.2325, -0.04369659, -0.06572045, -731607.56, 8518.979, 0.0, 10.000211, 9.999605 
4.949977e+2, 2.3447545e+2, -645675.44, -681364.8, 9459.118, -0.036647942, -0.09628169, -643323.44, -1192.0791, 0.0, 10.000113, 9.999637 
4.9499503e+2, 2.4447487e+2, -568951.56, -640811.9, 7238.186, -0.0350115, -0.09749578, -568229.7, -24093.703, 0.0, 10.000169, 9.999215 
4.949922e+2, 2.5447434e+2, -433582.47, -524224.5, 7050.529, -0.03882476, -0.07432034, -433037.3, 13103.288, 0.0, 10.000423, 9.99922 
4.9498934e+2, 2.644732e+2, -340434.56, -462759.66, -2887.2637, -0.03422722, -0.09518283, -340366.47, 7784.6606, 0.0, 10.000539, 9.998914 
4.949865e+2, 2.7447137e+2, -252397.5, -370081.5, -11356.336, -0.022389684, -0.17170577, -251311.64, -1143.4303, 0.0, 10.000472, 9.99891 
4.949835e+2, 2.8447038e+2, -150286.23, -276000.5, -6890.942, -0.038191907, -0.15929943, -149909.64, 2267.715, 0.0, 10.000525, 9.998858 
4.9498037e+2, 2.9447022e+2, -17586.371, -154552.23, 872.4838, -0.07881659, -0.0651191, -17580.813, 36597.465, 0.0, 10.000733, 9.998919 
4.9497867e+2, 3.0446735e+2, -17725.152, -226969.39, 12753.23, 0.0051912786, -0.20233586, -16950.723, -16950.723, 0.0, 10.000819, 9.998046 
4.94976e+2, 3.144661e+2, 88825.414, 13245.037, -18370.365, -0.014621003, -0.12845547, 93053.9, 93053.9, 0.000000050936965, 10.000737, 9.999735 
5.050283e+2, 1.2447887e+2, -1771878.0, -1808912.6, 183979.78, 0.06182306, -0.1308092, -1605486.0, 114607.12, 0.0000009949754, 9.999924, 9.999378 
5.05022e+2, 1.3447903e+2, -1645819.8, -1598102.1, -165110.28, 0.10084838, -0.14594446, -1455135.8, 166957.73, 0.000000065122016, 9.999637, 10.000318 
5.050174e+2, 1.4447972e+2, -1559324.8, -1518963.5, 1276.0808, 0.040442426, -0.102013364, -1518923.3, 5164.0366, 0.0, 9.999637, 10.000173 
5.050146e+2, 1.5447979e+2, -1415946.9, -1400134.4, -20722.088, -0.0139903305, -0.11614499, -1385861.5, 40224.12, 0.0, 9.999955, 10.000161 
5.0501245e+2, 1.644797e+2, -1342940.5, -1373421.6, -3770.945, -0.004809665, -0.11249079, -1342481.0, -14394.001, 0.0, 10.000038, 9.999632 
5.050107e+2, 1.7447951e+2, -1279726.8, -1292789.6, 13438.552, 0.017735492, -0.098209955, -1271316.5, -41224.555, 0.0, 9.999803, 9.999625 
5.0500876e+2, 1.8447942e+2, -1144058.9, -1115080.8, 19135.578, 0.013517562, -0.095249586, -1105567.6, 26525.775, 0.0, 9.999795, 10.000176 
5.050067e+2, 1.944795e+2, -1000086.25, -989554.6, 10091.937, -0.0032177055, -0.11206015, -983437.3, 50652.816, 0.0, 10.000088, 10.000224 
5.0500464e+2, 2.044794e+2, -945064.06, -1001257.4, 15629.924, -0.012346387, -0.104950406, -941009.25, -4918.4146, 0.0, 10.000175, 9.99943 
5.0500274e+2, 2.144791e+2, -873778.56, -918370.56, 31421.883, -0.019480415, -0.07862299, -857546.06, -19449.756, 0.0, 10.000003, 9.999409 
5.050005e+2, 2.2447874e+2, -760735.4, -784990.2, 11513.078, -0.030980801, -0.06769975, -756140.8, -16039.925, 0.0, 9.999984, 9.9996605 
5.0499773e+2, 2.344783e+2, -636477.56, -670600.9, 1884.8376, -0.045693554, -0.08289163, -636373.8, 5730.2427, 0.0, 10.00015, 9.999693 
5.049951e+2, 2.444778e+2, -551661.5, -622937.06, -3559.1035, -0.04629304, -0.082990944, -551484.2, -7376.4673, 0.0, 10.000247, 9.9993 
5.049926e+2, 2.544772e+2, -450182.53, -522859.2, 2939.4087, -0.028979518, -0.07642228, -450063.84, -3951.5796, 0.0, 10.000269, 9.999304 
5.049899e+2, 2.6447594e+2, -368322.5, -484353.72, 639.3362, -0.020654041, -0.10626572, -368318.97, -20195.764, 0.0, 10.000383, 9.99884 
5.04987e+2, 2.7447405e+2, -238545.88, -373058.84, 2990.3774, -0.027569748, -0.18376069, -238479.42, 11662.108, 0.0, 10.00061, 9.998822 
5.04984e+2, 2.84473e+2, -125284.63, -279657.63, 7131.554, -0.051428076, -0.1660264, -124955.875, 27195.793, 0.0, 10.000765, 9.998717 
5.049811e+2, 2.9447284e+2, -16446.684, -168696.28, -7237.0, -0.08462016, -0.05562385, -16103.454, 38049.445, 0.0, 10.000806, 9.998787 
5.0497955e+2, 3.0446994e+2, -3563.945, -185930.55, -1284.5092, 0.009574355, -0.20538843, -3554.898, -3554.898, 0.0, 10.000771, 9.998351 
5.049767e+2, 3.1446907e+2, 71282.12, -888.6979, -37.77857, -0.014205085, -0.12732838, 71282.14, 71282.14, 0.000000020855737, 10.000642, 9.999683 
5.150284e+2, 1.24480896e+2, -1773973.8, -1811874.3, 180901.89, 0.08438657, -0.12815319, -1611032.3, 109042.086, 0.00000067894854, 9.999917, 9.999361 
5.1502126e+2, 1.34481e+2, -1647038.1, -1602116.4, -174778.08, 0.060087863, -0.14779873, -1448361.8, 173713.42, 0.000000029496794, 9.999641, 10.000288 
5.1501656e+2, 1.4448163e+2, -1567424.9, -1537695.0, 11538.699, -0.008773254, -0.10138857, -1533742.3, -9672.455, 0.0, 9.999644, 10.000041 
5.1501495e+2, 1.5448152e+2, -1425087.1, -1419041.3, -8249.591, 0.023461139, -0.11755614, -1413278.3, 12792.073, 0.0, 9.999955, 10.000031 
5.150131e+2, 1.6448162e+2, -1316526.0, -1317960.9, -12055.704, 0.05384607, -0.10932482, -1305166.4, 22903.56, 0.0, 10.000035, 10.000014 
5.150106e+2, 1.744819e+2, -1250472.0, -1232879.5, 4936.58, 0.024220837, -0.08842999, -1231588.9, -1519.7216, 0.0, 9.999805, 10.000035 
5.150084e+2, 1.8448201e+2, -1157732.6, -1144071.8, 28508.402, -0.006387434, -0.07607803, -1121587.0, 10481.718, 0.0, 9.999797, 9.999977 
5.150066e+2, 1.94482e+2, -1016475.44, -1023549.2, 21610.379, -0.018254898, -0.080748364, -998114.4, 35953.457, 0.0, 10.000087, 9.999991 
5.150047e+2, 2.0448184e+2, -918821.8, -944932.8, 9575.722, -0.02666705, -0.085482106, -915686.56, 20382.158, 0.0, 10.000168, 9.999821 
5.1500255e+2, 2.1448155e+2, -844064.9, -856804.3, 25295.54, -0.03660448, -0.10037657, -824349.4, 13721.998, 0.0, 10.000002, 9.999832 
5.1500034e+2, 2.2448124e+2, -773341.7, -810470.44, 16692.83, -0.03890819, -0.0967909, -766940.3, -26865.852, 0.0, 9.999982, 9.999487 
5.149981e+2, 2.3448096e+2, -650921.4, -700447.9, 8689.068, -0.028436815, -0.07795329, -649441.2, -7363.4585, 0.0, 10.000148, 9.999489 
5.149957e+2, 2.4448034e+2, -541145.56, -600464.56, -3095.7124, -0.020842515, -0.08502386, -540984.44, 3098.2124, 0.0, 10.000245, 9.999456 
5.149931e+2, 2.5447935e+2, -438320.38, -497857.3, 3993.9238, -0.01484036, -0.13445508, -438053.66, 8035.865, 0.0, 10.000268, 9.999476 
5.149903e+2, 2.6447827e+2, -363093.44, -472889.1, 8649.911, -0.017181817, -0.1650799, -362416.16, -14317.33, 0.0, 10.0003805, 9.99892 
5.149875e+2, 2.744771e+2, -233148.42, -361586.2, 12333.123, -0.034775026, -0.17654763, -231974.86, 18135.738, 0.0, 10.000608, 9.998902 
5.149846e+2, 2.8447607e+2, -154896.19, -339635.28, 8846.318, -0.064745545, -0.13652302, -154473.55, -2352.4214, 0.0, 10.000759, 9.998308 
5.1498175e+2, 2.9447526e+2, -47491.27, -231251.36, -4971.6494, -0.097040445, -0.05203976, -47356.86, 6773.867, 0.0, 10.000798, 9.998361 
5.149802e+2, 3.0447242e+2, 41738.363, -89982.14, -6867.9517, 0.0065267636, -0.20414151, 42095.492, 42095.492, 0.0, 10.000762, 9.999015 
5.149774e+2, 3.1447253e+2, 92161.61, 43674.33, 2623.6292, -0.009049495, -0.09606889, 92303.164, 92303.164, 0.0000000053166334, 10.000637, 9.999992 
5.250283e+2, 1.2448309e+2, -1804721.4, -1818302.1, 190652.38, 0.08658542, -0.10789062, -1620738.5, 99315.875, 0.0000005002885, 9.999674, 9.999432 
5.25021e+2, 1.344832e+2, -1595678.9, -1573045.6, -170500.94, 0.055642344, -0.13178024, -1413486.3, 208568.63, 0.000000016983103, 9.999975, 10.000327 
5.250163e+2, 1.444838e+2, -1509195.5, -1505977.9, 24614.098, -0.018647283, -0.09092852, -1482920.1, 41129.297, 0.0, 10.00003, 10.0000725 
5.250148e+2, 1.5448363e+2, -1467785.6, -1436136.9, 15000.642, 0.036058877, -0.11733744, -1430156.9, -4106.1353, 0.0, 9.999647, 10.000062 
5.250131e+2, 1.6448382e+2, -1377556.6, -1335020.3, 11799.557, 0.072724424, -0.1079517, -1331966.4, -3916.7378, 0.0, 9.999562, 10.000125 
5.250106e+2, 1.7448434e+2, -1230847.9, -1211049.8, 5121.1187, 0.03426666, -0.07133611, -1209803.5, 20242.479, 0.0, 9.999886, 10.000148 
5.250083e+2, 1.8448454e+2, -1128575.5, -1137449.8, 24300.893, -0.0028206676, -0.0543417, -1108310.0, 23734.89, 0.0, 10.000029, 9.999911 
5.250066e+2, 1.9448435e+2, -1044344.94, -1044968.75, 28296.951, -0.022130538, -0.06708319, -1016358.2, 17687.904, 0.0, 9.999931, 9.999919 
5.250047e+2, 2.0448418e+2, -942756.2, -938632.8, 11067.131, -0.0335762, -0.08026031, -929436.94, 6610.1426, 0.0, 9.999927, 9.999979 
5.2500254e+2, 2.1448398e+2, -826983.0, -829164.4, 6673.684, -0.04085604, -0.102631375, -821311.5, 16736.186, 0.0, 10.000037, 10.000005 
5.2500045e+2, 2.244837e+2, -758852.0, -807293.9, -2235.4155, -0.037765723, -0.10388212, -758749.06, -18699.176, 0.0, 10.000097, 9.999454 
5.249983e+2, 2.3448332e+2, -660922.06, -709948.9, 1220.9739, -0.019885765, -0.08868898, -660891.7, -18837.582, 0.0, 10.0001, 9.999447 
5.249959e+2, 2.4448265e+2, -550868.56, -602119.56, -8122.515, -0.012279876, -0.10103739, -549612.06, -5552.4014, 0.0, 10.000165, 9.999483 
5.249933e+2, 2.544816e+2, -432032.06, -491259.34, -13115.047, -0.015954066, -0.15663493, -429257.84, 16809.107, 0.0, 10.000297, 9.999508 
5.2499074e+2, 2.6448068e+2, -353511.06, -464948.94, -11686.827, -0.022292426, -0.17516173, -352298.63, -4223.7065, 0.0, 10.000432, 9.998951 
5.249881e+2, 2.7447984e+2, -237414.05, -359664.97, -11443.498, -0.03635672, -0.15532641, -236352.08, 13731.466, 0.0, 10.000563, 9.998937 
5.2498543e+2, 2.8447884e+2, -169347.55, -350033.3, -6203.5757, -0.05951976, -0.116222315, -169134.8, -17040.627, 0.0, 10.000674, 9.998278 
5.249827e+2, 2.9447764e+2, -55880.027, -239983.52, 8176.3735, -0.081890345, -0.06582882, -55517.61, -1410.2264, 0.0, 10.00076, 9.998319 
5.249811e+2, 3.0447495e+2, 58635.64, -66286.36, -1492.5006, 0.013643008, -0.20888224, 58653.473, 58653.473, 0.0, 10.000811, 9.999154 
5.2497786e+2, 3.1447533e+2, 98864.53, 22315.193, -29829.043, -0.03741461, -0.08551711, 109115.34, 109115.34, 0.00000000056215, 10.000788, 9.999774 
5.350276e+2, 1.2448551e+2, -1794561.5, -1799386.5, 206328.67, 0.054526556, -0.06740594, -1590631.3, 129401.67, 0.00000041209, 9.999682, 9.9995575 
5.3502125e+2, 1.344856e+2, -1589200.1, -1560651.6, -158161.05, 0.08418149, -0.0989595, -1416122.0, 205910.44, 0.000000018082496, 9.999977, 10.000412 
5.350166e+2, 1.4448622e+2, -1495254.0, -1476200.6, 11464.01, 0.007210201, -0.071456075, -1470821.5, 53204.695, 0.0, 10.000025, 10.000279 
5.3501433e+2, 1.5448609e+2, -1453060.5, -1405927.0, 471.74777, 0.020031186, -0.11510808, -1405922.4, 20104.607, 0.0, 9.999649, 10.000268 
5.3501236e+2, 1.6448629e+2, -1389266.9, -1360251.8, 21582.857, 0.046368174, -0.10622726, -1348753.8, -20727.912, 0.0, 9.999566, 9.99995 
5.350106e+2, 1.7448686e+2, -1243995.3, -1238741.1, 17868.96, 0.045684226, -0.046666514, -1223307.1, 6715.309, 0.0, 9.9998865, 9.999958 
5.350086e+2, 1.8448699e+2, -1123969.5, -1127130.6, 20964.111, 0.021336932, -0.03015413, -1104526.5, 27495.559, 0.0, 10.000026, 9.999984 
5.350065e+2, 1.9448659e+2, -1038409.5, -1032863.56, 24740.416, -0.017306821, -0.072517425, -1010741.2, 23283.705, 0.0, 9.999931, 10.000003 
5.3500456e+2, 2.0448636e+2, -948246.56, -949092.06, 14464.538, -0.036165897, -0.09004034, -934198.6, 1827.5658, 0.0, 9.999923, 9.999909 
5.350027e+2, 2.1448636e+2, -833085.7, -841222.5, 11300.11, -0.03436004, -0.08592312, -825143.94, 12881.318, 0.0, 10.000033, 9.999924 
5.350006e+2, 2.2448605e+2, -751962.6, -792159.56, -2561.93, -0.030335477, -0.090469725, -751799.94, -11772.6045, 0.0, 10.000093, 9.999559 
5.3499836e+2, 2.344854e+2, -652654.06, -693324.06, 1693.2782, -0.021755828, -0.1152837, -652583.7, -10550.591, 0.0, 10.000101, 9.999561 
5.34996e+2, 2.444847e+2, -558263.2, -617062.94, -3490.7908, -0.022770911, -0.13140398, -558056.6, -14017.679, 0.0, 10.000163, 9.999382 
5.349934e+2, 2.54484e+2, -440272.66, -508453.56, -7632.6797, -0.034822784, -0.14333463, -439428.63, 6616.0474, 0.0, 10.000296, 9.999391 
5.3499097e+2, 2.644832e+2, -355586.84, -468533.0, -7080.94, -0.038808532, -0.13792229, -355144.63, -7092.82, 0.0, 10.000428, 9.998927 
5.3498864e+2, 2.7448234e+2, -238923.4, -361793.66, -6187.8066, -0.035490658, -0.12127616, -238612.58, 11448.085, 0.0, 10.000558, 9.998924 
5.349863e+2, 2.8448126e+2, -145646.4, -299400.28, -3327.02, -0.038554072, -0.10523575, -145574.44, 6496.5425, 0.0, 10.000669, 9.998629 
5.349839e+2, 2.9448003e+2, -30816.395, -187499.36, 12598.231, -0.040334214, -0.09566321, -29809.887, 24272.852, 0.0, 10.000758, 9.998681 
5.349821e+2, 3.044775e+2, 29578.29, -125053.766, -2470.1567, 0.02849213, -0.22002603, 29617.738, 29617.738, 0.0, 10.000804, 9.998754 
5.349779e+2, 3.1447744e+2, 45099.082, -86363.61, -22816.242, -0.108714916, -0.09655052, 48946.402, 48946.402, 0.0000000000003731001, 10.000775, 9.999033 
5.450273e+2, 1.24487646e+2, -1747896.1, -1752779.4, 207267.92, 0.048962533, -0.051887255, -1543055.5, 176957.72, 0.00000036785775, 9.999899, 9.999773 
5.45021e+2, 1.3448772e+2, -1676367.0, -1584418.8, -156334.83, 0.09718464, -0.10223738, -1467438.3, 154573.67, 0.000000024396927, 9.9993, 10.000576 
5.450163e+2, 1.4448847e+2, -1606157.5, -1522291.1, 21934.23, 0.014589055, -0.074397236, -1516901.0, 7103.3853, 0.0, 9.999233, 10.000344 
5.45014e+2, 1.5448864e+2, -1423882.1, -1385684.8, -3442.702, 0.01823395, -0.09368159, -1385376.9, 40625.9, 0.0, 9.999823, 10.000324 
5.450121e+2, 1.6448887e+2, -1313875.9, -1330440.6, 16821.725, 0.036364537, -0.08159555, -1303408.1, 24593.459, 0.0, 10.000113, 9.999891 
5.450104e+2, 1.7448916e+2, -1231497.4, -1239182.8, 22079.2, 0.034309518, -0.043955244, -1212928.9, 17071.576, 0.0, 10.000004, 9.999896 
5.4500854e+2, 1.8448918e+2, -1135245.5, -1131449.3, 23445.215, 0.020006102, -0.03370526, -1109825.4, 22175.447, 0.0, 9.999944, 9.999993 
5.450067e+2, 1.9448894e+2, -1033413.2, -1029100.94, 20396.367, 0.0025026724, -0.062917955, -1010747.06, 23255.55, 0.0, 9.99996, 10.000015 
5.450048e+2, 2.0448875e+2, -944122.75, -955751.9, 11784.971, -0.015155335, -0.07334774, -936796.0, -792.23785, 0.0, 9.999988, 9.999833 
5.450027e+2, 2.1448864e+2, -839642.9, -853145.56, 8087.068, -0.036149245, -0.07039573, -835859.44, 2144.6143, 0.0, 10.000027, 9.9998455 
5.450006e+2, 2.2448832e+2, -743576.25, -770443.5, -4406.602, -0.0363331, -0.081926115, -742872.0, -2865.7695, 0.0, 10.000075, 9.999717 
5.449986e+2, 2.3448768e+2, -635557.2, -665697.6, 2996.2852, -0.009572799, -0.12080422, -635262.2, 6748.3223, 0.0, 10.000136, 9.999733 
5.449963e+2, 2.4448705e+2, -550806.75, -630263.6, 4748.404, -0.010108371, -0.13265039, -550524.0, -6508.1963, 0.0, 10.000288, 9.99923 
5.4499376e+2, 2.5448644e+2, -415439.6, -515095.0, -3310.9504, -0.04345991, -0.117875665, -415329.7, 30692.201, 0.0, 10.000548, 9.999223 
5.449914e+2, 2.6448563e+2, -326302.84, -452148.8, -9930.586, -0.04973459, -0.10697456, -325524.06, 22505.639, 0.0, 10.00062, 9.998947 
5.449892e+2, 2.7448454e+2, -252004.19, -365047.84, -7483.7075, -0.025507603, -0.11302817, -251510.9, -1471.1707, 0.0, 10.000455, 9.998952 
5.44987e+2, 2.8448334e+2, -171987.63, -306657.25, -7414.51, -0.02660784, -0.11546949, -171580.63, -19529.61, 0.0, 10.0004635, 9.998677 
5.449845e+2, 2.9448208e+2, -39285.84, -185765.94, -15804.357, -0.049726166, -0.11250637, -37600.043, 16462.643, 0.0, 10.000676, 9.998731 
5.449828e+2, 3.0448e+2, 45608.906, -117153.58, -29027.805, 0.01731401, -0.19782834, 50630.906, 50630.906, 0.0, 10.000913, 9.998755 
5.44979e+2, 3.1447965e+2, 87731.125, -89471.234, -10839.447, -0.09376579, -0.10371027, 88391.71, 88391.71, 0.000000000015387011, 10.001169, 9.998821 
5.550274e+2, 1.244895e+2, -1724567.8, -1704163.4, 187203.14, 0.06435834, -0.064142294, -1526884.6, 193110.86, 0.0000003291145, 9.999898, 10.000107 
5.550203e+2, 1.3448961e+2, -1656242.5, -1544205.4, -178634.61, 0.09154404, -0.14036867, -1413011.8, 208981.13, 0.000000025104656, 9.999306, 10.00085 
5.550154e+2, 1.4449057e+2, -1612531.9, -1536987.1, 41314.57, -0.0019736402, -0.09818668, -1518780.5, 5202.7666, 0.0, 9.999238, 10.000241 
5.5501395e+2, 1.5449128e+2, -1431554.0, -1402180.6, 19329.451, 0.027546784, -0.05288866, -1392591.3, 33387.01, 0.0, 9.999824, 10.000211 
5.550123e+2, 1.6449153e+2, -1310085.8, -1321400.0, 13359.865, 0.03973564, -0.03446311, -1301234.6, 26742.264, 0.0, 10.000108, 9.999955 
5.5501e+2, 1.7449123e+2, -1226766.3, -1229044.6, 17996.396, -0.002017882, -0.06357987, -1209873.0, 20107.287, 0.0, 10.000003, 9.999967 
5.550082e+2, 1.8449114e+2, -1139642.3, -1140251.4, 23305.756, -0.009635635, -0.06514855, -1116639.0, 15342.287, 0.0, 9.999942, 9.999933 
5.55007e+2, 1.9449142e+2, -1038279.2, -1038800.25, 21371.86, 0.035676546, -0.038418096, -1017166.25, 16812.885, 0.0, 9.999957, 9.99995 
5.550052e+2, 2.0449132e+2, -950093.8, -967206.5, 12805.206, 0.027379148, -0.031115597, -943249.4, -7269.4, 0.0, 9.999984, 9.999756 
5.5500257e+2, 2.1449086e+2, -845611.75, -864968.2, 9922.278, -0.048782032, -0.05667464, -841429.25, -3445.026, 0.0, 10.000024, 9.999766 
5.550005e+2, 2.2449046e+2, -729248.06, -739850.7, -2499.8315, -0.05801763, -0.07882478, -728688.25, 11298.311, 0.0, 10.000072, 9.999928 
5.54999e+2, 2.3449019e+2, -620000.9, -633172.3, 5545.2793, 0.0151006365, -0.10533685, -617977.2, 24009.23, 0.0, 10.000134, 9.999958 
5.5499697e+2, 2.4448968e+2, -565054.44, -659367.9, 13771.96, 0.02415229, -0.10564169, -563084.56, -19094.273, 0.0, 10.000285, 9.999031 
5.5499434e+2, 2.5448897e+2, -430804.3, -546799.9, 6952.0405, -0.04405284, -0.08075566, -430389.13, 15609.592, 0.0, 10.000546, 9.999005 
5.5499196e+2, 2.6448795e+2, -322320.56, -443346.72, -15623.889, -0.05754452, -0.08263683, -320336.13, 27672.508, 0.0, 10.000618, 9.999009 
5.5498993e+2, 2.744865e+2, -247609.8, -355793.2, -13217.927, -0.008163533, -0.13145614, -246018.23, 4002.6685, 0.0, 10.000454, 9.999017 
5.5498743e+2, 2.8448507e+2, -191458.28, -345762.16, -470.07523, -0.025645038, -0.14800358, -191456.86, -39422.367, 0.0, 10.000458, 9.998411 
5.549845e+2, 2.9448384e+2, -60091.47, -226828.23, -7434.485, -0.11493789, -0.1159692, -59760.637, -5713.181, 0.0, 10.000667, 9.998453 
5.5498326e+2, 3.044824e+2, 73950.27, -55952.83, -20370.174, -0.02459565, -0.14104655, 77069.63, 77069.63, 0.0, 10.000902, 9.999181 
5.549812e+2, 3.1448197e+2, 111579.234, -38509.184, 5769.112, 0.0036295473, -0.10161025, 111800.664, 111800.664, 0.0000000020600701, 10.0011635, 9.999174 
5.650272e+2, 1.24491766e+2, -1766946.4, -1731208.4, 221085.75, 0.058545217, -0.08436521, -1527270.6, 192702.06, 0.00000027083397, 9.9996395, 10.000043 
5.6501985e+2, 1.3449198e+2, -1601539.3, -1535076.4, -182534.2, 0.09523419, -0.13590623, -1382773.3, 239196.56, 0.000000017878008, 9.999754, 10.000696 
5.6501484e+2, 1.444929e+2, -1542837.9, -1513163.8, 38909.8, -0.0027107724, -0.08635053, -1486358.1, 37603.168, 0.0, 9.999759, 10.000154 
5.6501365e+2, 1.5449344e+2, -1466632.0, -1427888.4, 20093.85, 0.02521324, -0.047105145, -1419349.0, 6608.978, 0.0, 9.999623, 10.00013 
5.6501216e+2, 1.6449368e+2, -1368818.4, -1335858.3, 12241.226, 0.036949962, -0.03307568, -1331809.3, -3852.6045, 0.0, 9.999647, 10.000077 
5.6501e+2, 1.744935e+2, -1236595.8, -1219551.3, 19003.307, 0.0016587357, -0.06346235, -1207246.8, 22711.387, 0.0, 9.999874, 10.000093 
5.650082e+2, 1.8449342e+2, -1137381.1, -1151106.3, 24032.584, -0.0033998082, -0.06691254, -1119250.5, 12708.52, 0.0, 10.00001, 9.999826 
5.65007e+2, 1.9449352e+2, -1035751.56, -1050470.9, 17385.957, 0.036707446, -0.043186214, -1024231.7, 9727.236, 0.0, 10.000031, 9.999834 
5.650052e+2, 2.0449345e+2, -934871.3, -951180.9, 13473.449, 0.02878656, -0.03199967, -927277.0, 8682.8, 0.0, 10.0000515, 9.999833 
5.650027e+2, 2.144932e+2, -831863.25, -848222.0, 22313.912, -0.039648082, -0.04513277, -816276.9, 21684.861, 0.0, 10.000075, 9.999856 
5.6500065e+2, 2.2449286e+2, -727814.1, -754278.44, 7374.3433, -0.051166277, -0.060488153, -725898.0, 14065.756, 0.0, 10.000147, 9.999793 
5.6499916e+2, 2.3449244e+2, -609494.1, -644562.06, -13043.568, 0.007575828, -0.08687951, -605174.6, 36791.16, 0.0, 10.0002775, 9.99981 
5.649972e+2, 2.4449186e+2, -555225.5, -643516.44, -8560.296, 0.018979946, -0.09058821, -554403.2, -10432.803, 0.0, 10.000304, 9.999132 
5.649948e+2, 2.544912e+2, -472488.7, -554192.25, 8583.584, -0.02656943, -0.072711386, -471596.66, -25619.041, 0.0, 10.000205, 9.99912 
5.649926e+2, 2.644902e+2, -365265.9, -475697.94, -3760.8762, -0.0372428, -0.075746536, -365137.97, -17150.584, 0.0, 10.000374, 9.998904 
5.649905e+2, 2.7448866e+2, -196263.16, -343300.25, -15953.277, -0.009114516, -0.121849105, -194552.16, 55448.914, 0.0, 10.000861, 9.998904 
5.649881e+2, 2.8448713e+2, -106518.69, -305958.5, -5073.0117, -0.034692697, -0.14012769, -106389.73, 45626.066, 0.0, 10.001047, 9.9984 
5.649853e+2, 2.9448587e+2, -32486.576, -216032.03, 7326.4946, -0.11556115, -0.10643522, -32194.592, 21834.188, 0.0, 10.000867, 9.998431 
5.6498414e+2, 3.044849e+2, 54318.71, -61900.965, -5458.468, -0.022129595, -0.08773746, 54574.51, 54574.51, 0.0, 10.000752, 9.999212 
5.6498224e+2, 3.1448397e+2, 51118.293, -60535.406, -7455.094, 0.015895758, -0.10087284, 51613.867, 51613.867, 0.000000017271022, 10.000716, 9.999238 
5.7502645e+2, 1.2449451e+2, -1800227.1, -1804010.4, 222598.31, 0.023558972, -0.11254189, -1579512.4, 140431.88, 0.00000019303324, 9.999654, 9.999538 
5.7501966e+2, 1.3449486e+2, -1642651.3, -1622058.6, -177988.98, 0.10544849, -0.088843234, -1454068.4, 167874.27, 0.000000007774616, 9.99976, 10.000098 
5.750147e+2, 1.4449543e+2, -1548291.4, -1523334.6, 33359.223, 0.008845333, -0.039028384, -1500196.4, 23742.094, 0.0, 9.999755, 10.000086 
5.750131e+2, 1.5449518e+2, -1469073.1, -1432990.3, 15280.989, 0.008251531, -0.07623326, -1427388.5, -1446.6674, 0.0, 9.999623, 10.000094 
5.750117e+2, 1.6449533e+2, -1357074.8, -1311898.6, 19768.707, 0.024699269, -0.07742918, -1304469.6, 23471.043, 0.0, 9.999648, 10.000242 
5.750103e+2, 1.7449595e+2, -1224046.1, -1194048.6, 28093.883, 0.043217964, -0.043917004, -1177200.4, 52733.56, 0.0, 9.999875, 10.00027 
5.750087e+2, 1.8449597e+2, -1148827.8, -1174078.0, 24734.18, 0.03545061, -0.039428577, -1133682.9, -1748.8608, 0.0, 10.000006, 9.99967 
5.7500666e+2, 1.9449528e+2, -1048330.94, -1075802.5, 18322.727, 0.0030602226, -0.07724621, -1039167.06, -5225.176, 0.0, 10.000028, 9.999661 
5.750048e+2, 2.0449513e+2, -919056.06, -917609.06, 13804.231, -0.012831532, -0.07588299, -904509.4, 31433.896, 0.0, 10.000048, 10.000066 
5.75003e+2, 2.1449567e+2, -814259.3, -811149.75, 23485.396, -0.010993445, -0.035378512, -789167.75, 48768.81, 0.0, 10.0000725, 10.000112 
5.750012e+2, 2.2449549e+2, -761747.5, -824217.1, 11768.527, -0.017894773, -0.026981113, -759604.0, -19666.182, 0.0, 10.000145, 9.999314 
5.74999e+2, 2.344944e+2, -646038.8, -719925.5, -7635.255, -0.03407194, -0.06629169, -645258.06, -3309.3203, 0.0, 10.000276, 9.999294 
5.7499707e+2, 2.4449357e+2, -527634.1, -585806.1, -12282.632, -0.02775037, -0.088396184, -525147.06, 18809.049, 0.0, 10.000302, 9.999529 
5.7499534e+2, 2.5449312e+2, -442063.03, -490510.4, 5065.609, 0.0069253966, -0.093969174, -441539.03, 4419.5996, 0.0, 10.000203, 9.9995575 
5.749935e+2, 2.644923e+2, -384855.28, -515870.2, 13190.937, 0.009688065, -0.08614438, -383540.4, -35574.363, 0.0, 10.000371, 9.99863 
5.749912e+2, 2.7449095e+2, -217675.63, -386952.84, 2777.2913, -0.03123319, -0.0832301, -217630.08, 32350.203, 0.0, 10.000857, 9.998608 
5.7498896e+2, 2.844895e+2, -89426.65, -269301.94, -11241.121, -0.05711991, -0.090907015, -88726.87, 63268.137, 0.0, 10.001041, 9.998654 
5.7498676e+2, 2.9448825e+2, -15275.335, -179808.45, 1212.6355, -0.054058287, -0.085826844, -15266.398, 38740.46, 0.0, 10.000865, 9.998682 
5.749853e+2, 3.0448747e+2, 26717.285, -118119.945, -7701.5493, 0.022494422, -0.039690673, 27125.654, 27125.654, 0.00000000021282408, 10.000747, 9.998829 
5.7498217e+2, 3.1448576e+2, 31276.295, -98128.46, -2664.4973, -0.064257994, -0.09718349, 31331.135, 31331.135, 0.0000000699572, 10.000701, 9.998987 
5.850259e+2, 1.2449691e+2, -1854727.0, -1816242.3, 177406.66, 0.021454124, -0.098185495, -1657037.4, 62884.367, 0.00000011738098, 9.999221, 9.999662 
5.850194e+2, 1.3449731e+2, -1647579.3, -1621336.9, -174898.95, 0.10458632, -0.07107989, -1459067.6, 162851.55, 0.0000000014227642, 9.999716, 10.000122 
5.8501446e+2, 1.4449775e+2, -1535611.1, -1530138.0, 44396.01, 0.0014078501, -0.029280508, -1488394.4, 35521.67, 0.0, 9.999899, 9.999969 
5.850128e+2, 1.544973e+2, -1461598.5, -1443157.5, 17045.098, 0.007749542, -0.07637994, -1432998.9, -7077.2207, 0.0, 9.999735, 9.99997 
5.8501136e+2, 1.6449736e+2, -1358246.9, -1316221.1, 21406.32, 0.027178913, -0.07758257, -1307237.9, 20683.588, 0.0, 9.999655, 10.000209 
5.850102e+2, 1.7449808e+2, -1253268.1, -1211186.3, 14477.269, 0.051242094, -0.032797333, -1206686.8, 23227.322, 0.0, 9.999688, 10.000241 
5.850086e+2, 1.8449813e+2, -1176127.5, -1179924.1, 10613.875, 0.04149553, -0.025577534, -1167243.5, -35330.0, 0.0, 9.999788, 9.999735 
5.850066e+2, 1.9449744e+2, -1053133.1, -1070255.0, 21544.102, -0.005447922, -0.07170872, -1038511.4, -4590.404, 0.0, 9.999962, 9.999731 
5.8500475e+2, 2.0449719e+2, -923775.25, -934499.0, 12243.483, -0.02237278, -0.0774113, -915771.06, 20152.113, 0.0, 10.000078, 9.999934 
5.8500326e+2, 2.1449754e+2, -815671.6, -827788.0, -8942.56, -0.004373478, -0.042005472, -810928.4, 26990.354, 0.0, 10.000132, 9.999969 
5.850014e+2, 2.244973e+2, -758811.2, -826686.94, -18080.795, -0.009346779, -0.02863447, -754295.25, -14374.499, 0.0, 10.00018, 9.99928 
5.8499914e+2, 2.3449637e+2, -655219.6, -727479.25, -1366.4293, -0.04140166, -0.05164728, -655193.8, -13263.143, 0.0, 10.000226, 9.999267 
5.8499724e+2, 2.4449554e+2, -524925.0, -583798.9, -2376.2957, -0.03703039, -0.07211279, -524829.25, 19108.72, 0.0, 10.000319, 9.999535 
5.849958e+2, 2.544949e+2, -403514.66, -470844.3, -18487.887, 0.011975917, -0.0937251, -398772.16, 47169.535, 0.0, 10.0004635, 9.999567 
5.84994e+2, 2.6449415e+2, -358405.06, -502184.13, -8046.3535, 0.016150355, -0.084782474, -357956.16, -10007.262, 0.0, 10.000548, 9.998638 
5.849918e+2, 2.74493e+2, -258704.97, -406091.94, 4870.825, -0.037866503, -0.059396505, -258544.17, -8582.868, 0.0, 10.000571, 9.998614 
5.849897e+2, 2.844916e+2, -145348.39, -289886.66, -14591.58, -0.05718748, -0.06550157, -143890.05, 8085.685, 0.0, 10.00063, 9.998712 
5.849879e+2, 2.9449022e+2, -34101.73, -183794.34, -20844.088, -0.024989748, -0.08403664, -31253.47, 22735.65, 0.0, 10.000713, 9.998727 
5.849863e+2, 3.0448955e+2, 34290.11, -134358.64, -22620.654, 0.036752034, -0.013646921, 37271.49, 37271.49, 0.000000006848287, 10.000885, 9.998651 
5.849828e+2, 3.1448755e+2, 107311.41, -55560.215, 3956.5854, -0.09705761, -0.085289635, 107407.46, 107407.46, 0.00000018333391, 10.001199, 9.999041 
5.950254e+2, 1.24499045e+2, -1800656.4, -1706325.4, 190612.31, 0.048955146, -0.038817607, -1557129.9, 162774.9, 0.000000058921596, 9.9992285, 10.000413 
5.95019e+2, 1.3449939e+2, -1601363.3, -1526723.5, -156246.16, 0.08981129, -0.083928294, -1403402.0, 218497.16, 0.000000000010343272, 9.99972, 10.000771 
5.950141e+2, 1.4449993e+2, -1548003.0, -1555959.6, 38766.348, -0.028372763, -0.05850415, -1513011.4, 10882.484, 0.0, 9.999899, 9.999792 
5.950127e+2, 1.5449981e+2, -1476817.4, -1475221.4, 11496.475, 0.021631217, -0.0479524, -1464495.3, -38597.938, 0.0, 9.999736, 9.999751 
5.950111e+2, 1.644998e+2, -1375092.0, -1350721.8, 21689.738, 0.041232724, -0.034288935, -1338028.8, -10129.763, 0.0, 9.999653, 9.999973 
5.9500957e+2, 1.7449988e+2, -1269202.4, -1244728.4, 16060.21, 0.023286158, -0.03010577, -1236774.4, -6875.8433, 0.0, 9.999689, 10.0000105 
5.9500813e+2, 1.8449992e+2, -1156013.3, -1138205.5, 16618.074, 0.01189807, -0.025575863, -1128256.3, 3641.4988, 0.0, 9.999787, 10.000022 
5.950067e+2, 1.9449998e+2, -1031033.44, -1024616.25, 28378.094, 0.009229789, -0.026406247, -999265.94, 34630.152, 0.0, 9.999962, 10.000045 
5.950051e+2, 2.0449963e+2, -959347.8, -1007551.7, 13963.492, -0.0018431809, -0.036482323, -955595.1, -19695.77, 0.0, 10.000075, 9.999434 
5.950032e+2, 2.1449879e+2, -854270.9, -906889.25, -6604.563, -0.021657232, -0.06568206, -853454.56, -15546.284, 0.0, 10.000127, 9.999428 
5.950014e+2, 2.2449833e+2, -730669.94, -767289.2, -16972.129, -0.027364908, -0.066158034, -724013.7, 15898.979, 0.0, 10.000175, 9.999691 
5.949996e+2, 2.3449832e+2, -623275.25, -660806.2, 617.8506, -0.016667439, -0.041973773, -623265.1, 18646.373, 0.0, 10.000224, 9.999725 
5.949979e+2, 2.4449778e+2, -552195.7, -640221.1, 2711.5073, -0.011399419, -0.040564995, -552112.25, -8196.251, 0.0, 10.000318, 9.999148 
5.94996e+2, 2.5449663e+2, -433436.5, -532458.5, -12618.12, -0.013027757, -0.07151456, -431853.88, 14072.869, 0.0, 10.000461, 9.9991455 
5.949942e+2, 2.6449567e+2, -338447.34, -460111.38, -7280.024, -0.01929271, -0.071672894, -338013.28, 9922.7705, 0.0, 10.0005455, 9.998928 
5.949925e+2, 2.7449486e+2, -236962.69, -360261.2, 6343.191, -0.03247856, -0.051980972, -236637.22, 13307.145, 0.0, 10.000568, 9.99893 
5.949906e+2, 2.8449345e+2, -156920.2, -312727.6, -11983.483, -0.03858569, -0.06539286, -156003.92, -4045.7393, 0.0, 10.000625, 9.998558 
5.9498847e+2, 2.944917e+2, -47899.344, -210363.73, -17897.076, -0.031377368, -0.09849837, -45951.164, 8024.3013, 0.0, 10.000705, 9.998549 
5.94987e+2, 3.0449122e+2, 35741.523, -128553.516, -11979.828, 0.01876599, -0.0055109607, 36610.453, 36610.453, 0.000000033052434, 10.000874, 9.998696 
5.9498405e+2, 3.144894e+2, 132034.31, -1690.3815, 21498.938, -0.087844394, -0.06567735, 135405.7, 135405.7, 0.00000037488923, 10.001188, 9.999415 
6.0502476e+2, 1.2450098e+2, -1779117.0, -1677810.9, 213332.83, 0.0623958, -0.022464855, -1509200.1, 210687.28, 0.000000021349177, 9.999299, 10.000575 
6.0501844e+2, 1.345013e+2, -1664098.3, -1549764.8, -175425.8, 0.08859648, -0.07735372, -1422426.1, 199455.55, 0.0, 9.99926, 10.0008335 
6.050136e+2, 1.4450185e+2, -1619851.8, -1586573.4, 1752.713, -0.039510377, -0.055193733, -1586481.4, -62605.41, 0.0, 9.99939, 9.999827 
6.0501254e+2, 1.5450194e+2, -1459539.8, -1462081.5, -6587.647, 0.024354883, -0.028479205, -1454101.5, -28224.088, 0.0, 9.999835, 9.999792 
6.05011e+2, 1.645019e+2, -1327955.8, -1346080.5, 11672.207, 0.043351725, -0.010942208, -1322240.9, 5638.5073, 0.0, 10.000054, 9.999811 
6.0500926e+2, 1.745017e+2, -1240726.5, -1250134.9, 9308.193, 0.011815669, -0.016803663, -1235001.4, -5119.24, 0.0, 9.999968, 9.999839 
6.050079e+2, 1.8450168e+2, -1136417.8, -1123452.0, 7689.8843, 0.004124743, -0.013236028, -1119876.9, 12005.21, 0.0, 9.999899, 10.00007 
6.0500675e+2, 1.945019e+2, -1040392.7, -1022770.4, -523.17175, 0.023383692, -0.004262085, -1022754.9, 11123.77, 0.0, 9.99987, 10.000101 
6.0500526e+2, 2.0450155e+2, -980951.25, -1025469.3, -6512.4663, 0.012732755, -0.012241888, -980018.1, -44136.527, 0.0, 9.999959, 9.999368 
6.0500324e+2, 2.1450056e+2, -851835.8, -914240.2, 7606.4067, -0.032466535, -0.04896039, -850922.06, -13029.812, 0.0, 10.000181, 9.9993515 
6.0500145e+2, 2.2450002e+2, -714438.7, -757031.25, -2439.4604, -0.040547453, -0.055937294, -714299.44, 25598.016, 0.0, 10.000278, 9.999711 
6.05e+2, 2.3449998e+2, -621514.25, -657328.06, -18981.197, -0.0052029896, -0.03709706, -613326.25, 28569.877, 0.0, 10.000226, 9.999748 
6.0499823e+2, 2.4449942e+2, -567838.8, -654760.4, -17462.328, 0.00096500607, -0.03467294, -564461.9, -20561.213, 0.0, 10.00024, 9.999085 
6.049962e+2, 2.544983e+2, -456296.16, -551347.6, -6636.2017, -0.02838873, -0.055685457, -455835.1, -9923.45, 0.0, 10.000339, 9.999075 
6.0499454e+2, 2.6449734e+2, -348799.0, -462134.53, 2248.7197, -0.036229596, -0.05337288, -348754.4, -833.3194, 0.0, 10.000461, 9.998957 
6.0499316e+2, 2.7449647e+2, -230362.28, -353331.94, -6964.887, -0.0192349, -0.040864106, -229969.05, 19960.5, 0.0, 10.000597, 9.998964 
6.049914e+2, 2.8449503e+2, -139300.61, -307569.88, -28328.602, -0.024634438, -0.060539134, -134659.42, 17284.342, 0.0, 10.000759, 9.9985285 
6.0498905e+2, 2.944932e+2, -13480.428, -199395.45, -24758.246, -0.053197585, -0.09903681, -10239.863, 43721.902, 0.00000000003092486, 10.000964, 9.9985 
6.049876e+2, 3.0449268e+2, 29926.875, -143437.73, -24924.85, -0.0081373565, -0.0012469989, 33439.19, 33439.19, 0.00000008707832, 10.000886, 9.998588 
6.0498524e+2, 3.1449082e+2, 44213.777, -21112.982, -3994.5344, -0.058184963, -0.054969706, 44457.125, 44457.125, 0.0000006525611, 10.000487, 9.9996195 
6.150241e+2, 1.2450277e+2, -1808951.5, -1740449.1, 202901.97, 0.06182765, -0.04741332, -1568927.8, 150941.56, 0.0000000039655865, 9.999302, 10.000145 
6.1501783e+2, 1.3450308e+2, -1701822.1, -1627537.5, -177398.55, 0.09827265, -0.050458904, -1483434.8, 138431.58, 0.0, 9.999259, 10.000299 
6.1501306e+2, 1.4450353e+2, -1602316.8, -1550854.0, 15997.129, -0.035464637, -0.019290622, -1546286.8, -22424.611, 0.0, 9.999391, 10.0000725 
6.150122e+2, 1.5450366e+2, -1438308.9, -1419318.8, 10935.746, 0.013522413, -0.018959127, -1414331.3, 11530.601, 0.0, 9.999839, 10.000085 
6.150109e+2, 1.6450368e+2, -1333776.6, -1358330.0, 9213.746, 0.030152144, -0.007891354, -1330703.6, -2841.0713, 0.0, 10.000054, 9.999727 
6.1500925e+2, 1.7450358e+2, -1248192.0, -1265951.4, 6304.382, 0.015014, 0.0070325383, -1246181.5, -16316.914, 0.0, 9.999969, 9.99973 
6.150079e+2, 1.845034e+2, -1151099.1, -1153407.4, 5681.43, 0.015524914, 0.011140872, -1146455.8, -14589.056, 0.0, 9.999897, 9.999865 
6.150068e+2, 1.9450316e+2, -1054823.3, -1052706.8, -1337.8606, 0.035225052, -0.0059201834, -1052059.3, -18190.576, 0.0, 9.99987, 9.999896 
6.1500525e+2, 2.0450297e+2, -955962.1, -972460.2, 819.3062, 0.01911347, -0.005252103, -955921.5, -20051.545, 0.0, 9.999954, 9.999734 
6.1500335e+2, 2.145029e+2, -824140.06, -856369.25, 16220.377, -0.039532274, 0.008977965, -817390.25, 20480.244, 0.0, 10.000179, 9.999749 
6.150016e+2, 2.2450238e+2, -741664.2, -812833.25, -4484.185, -0.051795762, 0.0031820268, -741382.75, -1507.6871, 0.0, 10.000275, 9.99933 
6.150002e+2, 2.3450133e+2, -650744.75, -717688.3, -20595.527, -0.0077712415, -0.037483882, -644915.94, -3031.3435, 0.0, 10.000224, 9.999334 
6.1499846e+2, 2.4450047e+2, -550616.3, -618403.8, -14573.732, -0.00070617115, -0.054983933, -547615.94, -3723.7957, 0.0, 10.000237, 9.999336 
6.1499643e+2, 2.5449994e+2, -437008.4, -510712.25, -2524.6846, -0.037487186, -0.047134213, -436922.03, 8974.444, 0.0, 10.000336, 9.999355 
6.14995e+2, 2.6449916e+2, -365711.88, -496712.4, 7215.387, -0.0385442, -0.03032039, -365315.66, -17411.564, 0.0, 10.000458, 9.998721 
6.1499393e+2, 2.7449796e+2, -248402.81, -390076.16, -1495.1769, 0.0005565318, -0.023411762, -248387.03, 1529.6141, 0.0, 10.000593, 9.998714 
6.1499226e+2, 2.8449637e+2, -133103.0, -293616.06, -21030.332, -0.015865799, -0.048042957, -130393.35, 21538.889, 0.0, 10.000754, 9.998628 
6.1498964e+2, 2.9449466e+2, -7569.168, -185951.69, -16313.927, -0.094901875, -0.088017106, -6089.4565, 47858.81, 0.0000000010306047, 10.000958, 9.998595 
6.149881e+2, 3.044939e+2, 8365.263, -186212.08, -39485.49, -0.04934018, -0.0047750426, 16072.731, 16072.731, 0.00000016756015, 10.000877, 9.998298 
6.149861e+2, 3.1449175e+2, 42219.43, -20947.959, -15445.62, -0.013488409, -0.055869468, 45793.906, 45793.906, 0.000001002472, 10.000469, 9.999629 
6.250232e+2, 1.2450448e+2, -1847800.9, -1766515.8, 182023.2, 0.053770937, -0.04675426, -1620652.9, 99199.836, 0.00000000008306351, 9.999064, 10.00008 
6.250174e+2, 1.3450481e+2, -1646330.9, -1620114.4, -164973.16, 0.106645726, -0.030187288, -1467729.5, 154120.88, 0.0, 9.9997225, 10.000126 
6.2501276e+2, 1.4450516e+2, -1529832.1, -1521209.0, 25535.89, -0.029216168, 0.0005591316, -1499623.3, 24224.523, 0.0, 9.999909, 10.000026 
6.250119e+2, 1.5450513e+2, -1471813.6, -1438960.3, -4383.5215, 0.009063911, -0.011362578, -1438385.5, -12536.722, 0.0, 9.999624, 10.000053 
6.2501067e+2, 1.6450512e+2, -1399165.3, -1374389.3, -11656.009, 0.024122708, -0.007402174, -1369767.6, -41918.34, 0.0, 9.99954, 9.999866 
6.2500924e+2, 1.7450516e+2, -1274439.0, -1262078.9, 3305.0796, 0.023833714, 0.0067935023, -1261250.5, -31401.24, 0.0, 9.999718, 9.999877 
6.2500787e+2, 1.84505e+2, -1162805.4, -1174254.6, 16495.049, 0.025929036, 0.010825026, -1151069.9, -19218.607, 0.0, 9.999882, 9.99973 
6.250066e+2, 1.945046e+2, -1044412.3, -1064580.0, 12912.708, 0.02766401, -0.005910156, -1038112.56, -4257.154, 0.0, 10.000014, 9.999745 
6.250051e+2, 2.0450445e+2, -938784.94, -956475.75, 7647.191, 0.009138433, 0.00088789355, -935937.56, -80.62714, 0.0, 10.000039, 9.999803 
6.2500346e+2, 2.1450454e+2, -853228.75, -861540.8, -1896.1388, -0.033663135, 0.027956542, -852816.6, -14961.349, 0.0, 9.999942, 9.999828 
6.2500185e+2, 2.2450407e+2, -785801.6, -840935.0, -22019.646, -0.047477942, 0.024585327, -778086.8, -38227.31, 0.0, 10.000001, 9.999269 
6.2500024e+2, 2.3450287e+2, -653217.1, -726770.56, -12656.921, -0.026620155, -0.02526139, -651100.1, -9229.342, 0.0, 10.000241, 9.999264 
6.2499857e+2, 2.4450195e+2, -533553.44, -610750.75, -3784.1367, -0.018448366, -0.04429625, -533368.44, 10510.52, 0.0, 10.000357, 9.999331 
6.249969e+2, 2.5450146e+2, -440209.5, -512731.97, -14602.2, -0.025653765, -0.031346906, -437379.8, 8503.081, 0.0, 10.000316, 9.9993515 
6.249955e+2, 2.6450068e+2, -382530.75, -504534.4, -3406.9768, -0.023290483, -0.014690402, -382435.7, -34545.184, 0.0, 10.000341, 9.998723 
6.249944e+2, 2.7449945e+2, -268385.28, -399424.25, 6920.145, -0.011647096, -0.0111683495, -268020.84, -18117.648, 0.0, 10.000455, 9.998716 
6.249927e+2, 2.8449792e+2, -158720.66, -302974.06, -3754.1968, -0.033591323, -0.031499095, -158623.02, -6704.8794, 0.0, 10.000566, 9.998653 
6.2499046e+2, 2.944963e+2, -49583.934, -204095.53, -7412.634, -0.092458636, -0.06415458, -49229.13, 4704.012, 0.000000004235602, 10.000661, 9.998613 
6.249889e+2, 3.0449525e+2, -24874.045, -224952.95, -39440.848, -0.048293717, -0.0026657446, -17379.908, -17379.908, 0.000000262113, 10.000746, 9.9980955 
6.249868e+2, 3.1449306e+2, 101652.63, 11802.177, -7747.9546, -0.01367455, -0.037896857, 102315.86, 102315.86, 0.0000013873902, 10.000858, 9.999666 
6.350221e+2, 1.2450614e+2, -1825239.9, -1721756.8, 193039.63, 0.03775777, -0.02034732, -1573644.6, 146192.88, 0.0, 9.99907, 10.000386 
6.3501716e+2, 1.3450651e+2, -1633489.1, -1593931.3, -140929.89, 0.110849276, -0.017755182, -1471399.1, 150434.67, 0.0, 9.999724, 10.000305 
6.3501275e+2, 1.445067e+2, -1553169.3, -1570102.0, 14144.316, -0.024156012, 0.004300585, -1545151.1, -21318.348, 0.0, 9.999912, 9.999689 
6.3501155e+2, 1.5450633e+2, -1497172.5, -1491770.8, -15212.527, 0.008489027, -0.0055037383, -1479021.3, -53183.137, 0.0, 9.999624, 9.999691 
6.350102e+2, 1.6450623e+2, -1373919.6, -1322212.1, -6764.4067, 0.021552665, -0.009623567, -1321341.8, 6497.6587, 0.0, 9.99954, 10.000223 
6.350091e+2, 1.7450644e+2, -1245967.0, -1203959.8, 10219.409, 0.035910416, -0.018176287, -1201605.5, 28230.574, 0.0, 9.999721, 10.000276 
6.350078e+2, 1.8450646e+2, -1167825.5, -1184289.6, 21072.523, 0.032085672, -0.014594187, -1153434.1, -21598.418, 0.0, 9.99988, 9.999661 
6.3500637e+2, 1.9450624e+2, -1050779.8, -1078118.0, 18064.408, -0.001324029, -0.0036356011, -1041795.6, -7956.851, 0.0, 10.000015, 9.999652 
6.350049e+2, 2.0450594e+2, -956034.06, -991725.7, 3561.901, -0.019963652, 0.006587288, -955682.06, -19839.629, 0.0, 10.000036, 9.999562 
6.350036e+2, 2.1450554e+2, -870381.7, -897232.7, -5271.333, -0.016545093, 0.0063385023, -869383.9, -31537.146, 0.0, 9.999941, 9.999584 
6.35002e+2, 2.245051e+2, -768789.7, -804284.4, -14100.357, -0.029818533, 0.006470459, -763870.1, -24019.281, 0.0, 9.999995, 9.999523 
6.3500005e+2, 2.345046e+2, -633662.8, -685889.2, -3075.9856, -0.06433728, -0.0005688423, -633482.25, 8372.319, 0.0, 10.000239, 9.999545 
6.349986e+2, 2.4450387e+2, -553024.1, -650653.75, -5152.352, -0.05563471, -0.0023479222, -552752.94, -8891.977, 0.0, 10.000354, 9.999059 
6.3499755e+2, 2.5450292e+2, -460769.06, -555368.44, -15861.8125, 0.0056657316, -0.0067226333, -458180.3, -12309.659, 0.0, 10.000315, 9.999059 
6.349962e+2, 2.6450196e+2, -366282.5, -470536.28, 365.09106, 0.008588038, -0.004707016, -366281.22, -18401.088, 0.0, 10.0003395, 9.998958 
6.349944e+2, 2.7450094e+2, -250926.88, -361957.66, 11990.238, -0.059946213, -0.00587856, -249646.81, 242.61638, 0.0, 10.000449, 9.998977 
6.349928e+2, 2.8449965e+2, -163097.66, -310665.06, -73.65387, -0.0824758, -0.014220112, -163097.63, -11195.847, 0.0, 10.00056, 9.998604 
6.349916e+2, 2.9449818e+2, -55030.66, -213922.67, -3406.5027, -0.047126796, -0.025639547, -54957.66, -1041.3728, 0.000000008608103, 10.000655, 9.998549 
6.3499004e+2, 3.0449674e+2, -33377.203, -241471.4, -35660.047, -0.0059784106, 0.009731545, -27435.947, -27435.947, 0.00000035003856, 10.000741, 9.997985 
6.349871e+2, 3.1449473e+2, 105949.57, 22976.416, -112.180016, -0.066427544, -0.0011892295, 105949.73, 105949.73, 0.0000017531552, 10.000849, 9.999748 
6.450213e+2, 1.2450721e+2, -1803162.8, -1700995.8, 169414.81, 0.047777347, -0.013831076, -1575130.4, 144697.52, 0.0, 9.999177, 10.000478 
6.450167e+2, 1.3450767e+2, -1688179.0, -1620204.4, -168567.0, 0.10729937, -0.0028053115, -1482232.5, 139591.16, 0.0, 9.999352, 10.000303 
6.450124e+2, 1.4450786e+2, -1602642.5, -1583576.9, -18653.967, -0.03294252, 0.015410609, -1572161.0, -48338.58, 0.0, 9.999529, 9.999782 
6.450113e+2, 1.545075e+2, -1458384.9, -1461984.3, -14772.323, 0.014341043, -0.0038739697, -1445303.0, -19475.83, 0.0, 9.999844, 9.99979 
6.4501e+2, 1.6450745e+2, -1313823.6, -1292084.9, 262.82144, 0.028766934, -0.008444376, -1292081.6, 35746.355, 0.0, 9.999948, 10.000235 
6.450088e+2, 1.7450777e+2, -1236943.0, -1198986.9, -13412.456, 0.032276046, -0.006760033, -1194725.8, 35098.277, 0.0, 9.999781, 10.000281 
6.450075e+2, 1.8450786e+2, -1180994.9, -1176721.3, -6655.658, 0.023943214, -0.0010718543, -1171867.8, -40044.99, 0.0, 9.99973, 9.999784 
6.450062e+2, 1.945077e+2, -1068038.1, -1071527.6, 6380.105, -0.009000668, 0.0031593875, -1063168.5, -29343.902, 0.0, 9.999835, 9.9997835 
6.450048e+2, 2.0450737e+2, -974327.5, -1012406.1, 3008.798, -0.025550785, 0.0073662596, -974091.2, -38262.625, 0.0, 9.999963, 9.999455 
6.450036e+2, 2.1450679e+2, -854278.7, -903211.75, 2456.5425, -0.017848616, 0.0012780274, -854155.7, -16320.431, 0.0, 10.000112, 9.999461 
6.4500207e+2, 2.2450633e+2, -738545.44, -784664.75, -5222.048, -0.02838302, 0.005410897, -737961.56, 1878.1375, 0.0, 10.000181, 9.999568 
6.450003e+2, 2.3450604e+2, -642252.0, -684113.9, -12571.022, -0.06281577, 0.014198599, -638767.06, 3074.1409, 0.0, 10.000155, 9.999598 
6.4499885e+2, 2.4450539e+2, -580630.94, -670256.9, -18034.783, -0.05521389, 0.01826739, -577138.06, -33290.926, 0.0, 10.000192, 9.9990015 
6.449978e+2, 2.545043e+2, -467303.3, -565569.0, -11920.601, 0.0027863223, 0.007473871, -465877.9, -20019.559, 0.0, 10.0003, 9.998996 
6.4499646e+2, 2.6450324e+2, -360270.03, -463160.13, 7542.5854, 0.0015520381, 0.0032414198, -359720.06, -11851.366, 0.0, 10.000363, 9.998996 
6.449946e+2, 2.7450222e+2, -259949.4, -361274.5, 1531.3169, -0.07149232, -0.0029831924, -259926.27, -10048.392, 0.0, 10.000367, 9.999021 
6.4499325e+2, 2.8450108e+2, -186671.25, -313799.94, -14710.881, -0.08532656, -0.0034918273, -184991.17, -33102.414, 0.0, 10.000362, 9.998677 
6.449923e+2, 2.9449984e+2, -95115.31, -224807.4, -8572.24, -0.026180184, 0.0031123937, -94551.164, -40650.52, 0.000000011710588, 10.000343, 9.998624 
6.449908e+2, 3.044981e+2, -69628.71, -252730.3, -21835.188, 0.003301785, 0.001717444, -67060.836, -67060.836, 0.00000040808163, 10.0004635, 9.998041 
6.449877e+2, 3.1449628e+2, 104369.09, 34671.73, 25553.098, -0.086166486, 0.003319045, 112733.734, 112733.734, 0.0000020409286, 10.000783, 9.999862 
6.5502095e+2, 1.24507725e+2, -1809999.6, -1718307.6, 161050.6, 0.08646054, -0.028220043, -1596704.8, 123118.75, 0.0, 9.999188, 10.000355 
6.550159e+2, 1.3450831e+2, -1702035.8, -1648444.9, -163447.89, 0.09189905, 0.014559077, -1509610.5, 112208.84, 0.0, 9.99935, 10.000111 
6.5501165e+2, 1.4450864e+2, -1566674.3, -1508246.3, -9661.136, -0.05947009, 0.03269219, -1506690.1, 17126.49, 0.0, 9.999525, 10.0003 
6.550113e+2, 1.5450864e+2, -1419082.4, -1381251.4, -2449.0884, 0.023736652, -0.0067495243, -1381093.5, 44722.46, 0.0, 9.999846, 10.000343 
6.5501004e+2, 1.6450879e+2, -1337758.6, -1342303.5, -6017.1704, 0.042646114, -0.003629514, -1333599.1, -5784.3833, 0.0, 9.999949, 9.999888 
6.550084e+2, 1.7450914e+2, -1264382.8, -1256315.4, -19886.502, 0.010936995, 0.04067441, -1240057.6, -10244.761, 0.0, 9.999782, 9.999887 
6.55007e+2, 1.8450922e+2, -1159446.3, -1131287.6, -4240.7227, -0.0015478526, 0.05087306, -1130662.9, 1149.3978, 0.0, 9.999727, 10.000098 
6.550062e+2, 1.94509e+2, -1043498.25, -1020411.4, 10464.421, 0.0028682777, 0.012910469, -1016374.2, 17438.625, 0.0, 9.999833, 10.000135 
6.55005e+2, 2.0450869e+2, -973635.44, -1009944.5, 8053.783, -0.009543512, 0.0015926018, -971929.2, -36113.67, 0.0, 9.999958, 9.999475 
6.550035e+2, 2.145083e+2, -854465.06, -903378.2, 8384.03, -0.039381925, 0.012899453, -853067.9, -15247.149, 0.0, 10.00011, 9.99946 
6.550021e+2, 2.2450781e+2, -750993.56, -809855.75, -6545.1025, -0.045764092, 0.02200802, -750274.56, -10448.781, 0.0, 10.000177, 9.999397 
6.5500087e+2, 2.3450722e+2, -654588.94, -710160.44, -13234.047, -0.02354963, 0.018596537, -651598.3, -9767.671, 0.0, 10.000156, 9.999418 
6.549994e+2, 2.4450648e+2, -570519.06, -648705.7, -14612.664, -0.019482678, 0.016867045, -567877.3, -24039.955, 0.0, 10.00019, 9.999151 
6.5499777e+2, 2.545056e+2, -455960.6, -540936.94, -7331.7935, -0.036929116, 0.010056732, -455332.66, -9486.58, 0.0, 10.000296, 9.999167 
6.5499634e+2, 2.6450458e+2, -372454.0, -487687.72, 7761.132, -0.046626315, 0.0074095135, -371933.63, -24077.348, 0.0, 10.00036, 9.998829 
6.5499526e+2, 2.7450335e+2, -273050.38, -387867.0, 2319.6536, -0.04795017, -0.0008628509, -273003.53, -23135.115, 0.0, 10.000364, 9.998838 
6.54994e+2, 2.8450227e+2, -173651.34, -286184.63, -15530.747, -0.044495754, 0.0044871573, -171547.28, -19668.541, 0.0, 10.00036, 9.998868 
6.549926e+2, 2.9450133e+2, -81220.97, -194057.28, -8765.209, -0.033602845, 0.021790963, -80544.14, -26657.824, 0.000000011654482, 10.000335, 9.998839 
6.54991e+2, 3.0449936e+2, -55445.266, -220825.73, -10698.531, -0.02408371, -0.029652072, -54756.047, -54756.047, 0.00000041978168, 10.000453, 9.998265 
6.5498865e+2, 3.144977e+2, 113533.766, 56531.27, 39399.945, -0.076640986, -0.027533533, 133660.45, 133660.45, 0.000002202322, 10.0007715, 10.000016 
6.650202e+2, 1.2450871e+2, -1772701.9, -1701512.3, 171808.39, 0.08544076, -0.020294601, -1561650.3, 158164.4, 0.0, 9.999448, 10.000345 
6.650154e+2, 1.345091e+2, -1684474.8, -1650167.9, -134482.28, 0.10030196, 0.011186144, -1531749.5, 90063.02, 0.0, 9.9995165, 10.000017 
6.650112e+2, 1.4450942e+2, -1553697.5, -1488061.6, 14575.696, -0.053508934, 0.02725878, -1484970.4, 38839.492, 0.0, 9.999555, 10.000424 
6.650109e+2, 1.5450974e+2, -1432216.6, -1372182.9, -8928.247, 0.016076058, 0.0065742205, -1370883.3, 54922.93, 0.0, 9.99969, 10.000481 
6.6500986e+2, 1.6451003e+2, -1366557.4, -1357619.6, -27682.21, 0.030883279, 0.018151054, -1334047.9, -6244.282, 0.0, 9.99976, 9.999874 
6.650081e+2, 1.7451032e+2, -1270767.1, -1261575.4, -15677.639, 0.008990626, 0.058247607, -1249833.9, -20031.338, 0.0, 9.99975, 9.999866 
6.6500676e+2, 1.8451035e+2, -1156163.5, -1125828.3, 10420.24, 0.0011171498, 0.063565955, -1122593.8, 9208.685, 0.0, 9.999735, 10.000132 
6.650059e+2, 1.945101e+2, -1058163.8, -1024096.5, -3.255331, 0.0018370232, 0.019214498, -1024096.5, 9706.595, 0.0, 9.999718, 10.000166 
6.6500485e+2, 2.0450987e+2, -990803.06, -1009487.4, -7402.0317, -0.013727432, 0.010356987, -988226.1, -52421.242, 0.0, 9.999803, 9.999553 
6.650035e+2, 2.1450971e+2, -861957.75, -897184.06, -1554.5994, -0.046650294, 0.036002178, -861889.25, -24081.342, 0.0, 10.000018, 9.999545 
6.650022e+2, 2.2450922e+2, -765631.0, -817842.06, -15654.6, -0.04841246, 0.04181496, -761297.0, -21484.262, 0.0, 10.000083, 9.999387 
6.65001e+2, 2.3450837e+2, -684031.7, -726103.0, -11058.547, -0.013332922, 0.013177612, -681302.06, -39482.215, 0.0, 9.999963, 9.999402 
6.6499954e+2, 2.4450758e+2, -597841.1, -663041.2, -2079.0952, -0.0096278135, 0.008124265, -597774.94, -53947.88, 0.0, 10.000007, 9.999141 
6.6499794e+2, 2.5450692e+2, -463469.3, -545784.44, -9295.134, -0.043510854, 0.023557505, -462432.75, -16598.621, 0.0, 10.00025, 9.999155 
6.6499656e+2, 2.6450595e+2, -383347.66, -494290.94, -5322.932, -0.053527042, 0.026787655, -383092.84, -35248.742, 0.0, 10.000291, 9.9988165 
6.649956e+2, 2.7450457e+2, -314801.22, -409238.03, 847.40186, -0.035950363, 0.0063521205, -314793.63, -64936.082, 0.0, 10.000084, 9.998827 
6.6499436e+2, 2.8450352e+2, -199490.66, -289650.22, -3082.9756, -0.034374494, 0.010770594, -199385.36, -47517.836, 0.0, 10.000145, 9.998946 
6.6499287e+2, 2.9450274e+2, -44680.5, -166407.42, -7256.2607, -0.05150389, 0.035936967, -44249.473, 9623.745, 0.000000008469742, 10.000545, 9.998927 
6.649912e+2, 3.045006e+2, -31174.021, -197138.25, -26521.422, -0.049151495, -0.039787844, -27038.875, -27038.875, 0.00000038345433, 10.00057, 9.99837 
6.6498923e+2, 3.1449938e+2, 14809.119, 2921.0706, 13067.16, -0.058130104, -0.0073361555, 23220.656, 23220.656, 0.0000022156387, 10.000118, 9.999962 
6.7501926e+2, 1.24510184e+2, -1765200.1, -1686866.0, 156370.31, 0.04440653, 0.008902897, -1564832.1, 154968.86, 0.0, 9.99945, 10.000446 
6.750152e+2, 1.3451004e+2, -1683285.9, -1648899.9, -132651.34, 0.12806787, -0.012840608, -1532332.0, 89470.51, 0.0, 9.999523, 10.000022 
6.7501116e+2, 1.445102e+2, -1571799.1, -1527663.1, 16773.81, -0.018592417, -0.00056594884, -1522011.9, 1789.8481, 0.0, 9.999563, 10.000149 
6.750104e+2, 1.5451078e+2, -1452206.8, -1413868.8, -3801.5786, -0.011839362, 0.03514676, -1413495.4, 12302.062, 0.0, 9.99969, 10.0001955 
6.750092e+2, 1.6451119e+2, -1345103.1, -1311645.5, -28604.184, -0.0102906255, 0.055662334, -1295237.5, 32556.934, 0.0, 9.999754, 10.000193 
6.75008e+2, 1.7451131e+2, -1246226.1, -1210527.0, -15618.122, 0.024306722, 0.045665506, -1204658.9, 25134.082, 0.0, 9.999749, 10.000216 
6.7500675e+2, 1.8451126e+2, -1174737.3, -1164323.5, 9111.32, 0.029231822, 0.03683042, -1159036.3, -27243.092, 0.0, 9.999734, 9.999867 
6.750055e+2, 1.9451101e+2, -1079484.4, -1067923.9, -691.84796, -0.014001551, 0.022504896, -1067882.6, -34087.45, 0.0, 9.999715, 9.9998665 
6.7500436e+2, 2.0451091e+2, -981476.9, -989128.75, -495.61096, -0.040624786, 0.034191918, -981444.94, -45648.473, 0.0, 9.999798, 9.999695 
6.750035e+2, 2.14511e+2, -850530.56, -873105.94, 6815.415, -0.041332457, 0.06954125, -848632.6, -10835.842, 0.0, 10.000016, 9.999713 
6.750024e+2, 2.2451057e+2, -755402.8, -795992.4, -20082.48, -0.038890455, 0.0634599, -747146.2, -7345.5933, 0.0, 10.00008, 9.999538 
6.750008e+2, 2.3450948e+2, -673619.25, -704219.5, -15076.681, -0.033332013, -0.0025095704, -667439.1, -25630.395, 0.0, 9.999961, 9.999554 
6.749995e+2, 2.4450868e+2, -610366.06, -688938.56, 6073.323, -0.027286304, -0.008487653, -609899.4, -66083.336, 0.0, 10.000006, 9.998963 
6.749984e+2, 2.5450823e+2, -477339.03, -574672.56, 290.60168, -0.019381486, 0.048731755, -477338.16, -31515.855, 0.0, 10.000249, 9.998958 
6.749972e+2, 2.6450732e+2, -374040.3, -474366.16, -12503.057, -0.022323513, 0.06291779, -372505.63, -24673.64, 0.0, 10.000288, 9.998954 
6.7499566e+2, 2.7450588e+2, -304581.97, -386292.66, -6417.0635, -0.03792832, 0.017731234, -304081.06, -54235.707, 0.0, 10.000076, 9.998988 
6.7499435e+2, 2.845048e+2, -203261.55, -295862.97, 10648.159, -0.056882598, 0.013353516, -202052.9, -50197.64, 0.0, 10.000138, 9.998907 
6.749931e+2, 2.9450405e+2, -49164.67, -174247.1, 8746.558, -0.082376555, 0.046080682, -48556.02, 5305.293, 0.0000000040864183, 10.000538, 9.998877 
6.749915e+2, 3.0450192e+2, -32575.07, -198893.39, -41856.832, -0.07470517, -0.027378168, -22635.14, -22635.14, 0.0000003121116, 10.000565, 9.998361 
6.7498964e+2, 3.1450132e+2, -4116.3765, -33868.78, -2588.1704, -0.03695167, 0.06974359, -3892.9092, -3892.9092, 0.0000020914758, 10.000108, 9.999714 
6.8501866e+2, 1.2451155e+2, -1763152.4, -1674669.4, 148489.25, 0.039076395, 0.03258889, -1563971.0, 155817.94, 0.0, 9.999416, 10.000546 
6.850148e+2, 1.3451125e+2, -1642055.1, -1625998.3, -125735.695, 0.12550613, -0.0083336, -1508034.9, 113756.266, 0.0, 9.999796, 10.000047 
6.8501085e+2, 1.4451131e+2, -1547813.9, -1530503.3, 18384.662, -0.0141877495, 0.00008890688, -1518838.4, 4952.811, 0.0, 9.999791, 10.000018 
6.850101e+2, 1.5451194e+2, -1496224.6, -1450442.5, 8447.241, 0.004475168, 0.053542223, -1448933.6, -23146.443, 0.0, 9.999456, 10.000055 
6.850089e+2, 1.6451228e+2, -1383768.9, -1319910.4, -6964.9185, 0.0015557642, 0.07162534, -1319159.6, 8625.129, 0.0, 9.999446, 10.000283 
6.850077e+2, 1.7451224e+2, -1227933.0, -1190366.0, -13914.842, 0.014829877, 0.034125634, -1185773.4, 44010.914, 0.0, 9.999826, 10.000317 
6.8500656e+2, 1.845122e+2, -1133463.8, -1147678.4, 2842.9338, 0.013565587, 0.021690087, -1132916.3, -1132.0656, 0.0, 10.000031, 9.999838 
6.8500525e+2, 1.9451217e+2, -1034505.6, -1048821.5, 12645.449, -0.02035348, 0.032877237, -1027132.75, 6651.6846, 0.0, 10.000038, 9.99984 
6.8500423e+2, 2.045121e+2, -965713.1, -982538.8, 18274.355, -0.037987653, 0.050136577, -954008.1, -18222.57, 0.0, 9.999912, 9.999683 
6.8500346e+2, 2.1451199e+2, -907345.94, -901993.6, 10931.271, -0.03086839, 0.06663927, -893415.7, -55628.082, 0.0, 9.999632, 9.9997 
6.850024e+2, 2.2451152e+2, -803441.25, -814990.25, -17202.492, -0.030055368, 0.056128487, -791069.94, -51278.285, 0.0, 9.999731, 9.999577 
6.8500084e+2, 2.3451062e+2, -621983.75, -673994.7, -21104.377, -0.037977062, 0.003439503, -614497.75, 27300.322, 0.0, 10.000294, 9.9996 
6.849996e+2, 2.4450989e+2, -551316.06, -663967.44, -8498.745, -0.034744784, 0.0027730488, -550678.5, -6873.8022, 0.0, 10.000427, 9.998932 
6.849986e+2, 2.5450936e+2, -509706.13, -593937.7, -3109.4348, -0.018020928, 0.054899067, -509591.5, -63779.82, 0.0, 10.000044, 9.998923 
6.849974e+2, 2.645084e+2, -417978.7, -494436.63, -8284.865, -0.01866474, 0.06550845, -417091.25, -69269.48, 0.0, 9.999983, 9.998963 
6.8499583e+2, 2.7450693e+2, -268277.97, -367602.88, -14434.658, -0.03858403, 0.018400231, -266222.75, -16387.445, 0.0, 10.00032, 9.998999 
6.849945e+2, 2.8450587e+2, -179547.67, -295599.03, -6499.974, -0.057893842, 0.021002736, -179184.75, -27339.389, 0.0, 10.00035, 9.998807 
6.849933e+2, 2.9450518e+2, -135192.16, -226544.64, -13173.679, -0.08041109, 0.0697241, -133330.38, -79478.69, 0.0000000009738006, 9.999994, 9.998778 
6.849918e+2, 3.0450308e+2, -95574.875, -204492.36, -55863.016, -0.07982826, -0.007834672, -72018.03, -72018.03, 0.00000022618863, 10.000026, 9.998582 
6.849899e+2, 3.145027e+2, 54127.473, -9213.321, -1367.4617, -0.03694749, 0.08674644, 54156.98, 54156.98, 0.0000018666766, 10.0005245, 9.999681 
6.950184e+2, 1.2451285e+2, -1755845.9, -1663639.1, 145993.27, 0.06976232, 0.047521386, -1556642.8, 163135.39, 0.0, 9.999432, 10.000616 
6.9501424e+2, 1.3451274e+2, -1640201.1, -1620934.0, -112720.04, 0.088858284, 0.023533974, -1517436.6, 104341.58, 0.0, 9.999791, 10.000083 
6.9501036e+2, 1.4451279e+2, -1547444.3, -1528094.4, 5010.9834, -0.04386556, 0.027256614, -1526873.8, -3095.8623, 0.0, 9.999784, 10.000038 
6.950101e+2, 1.5451324e+2, -1494227.0, -1447409.6, -2944.5051, 0.06206453, 0.06167995, -1447225.1, -21450.246, 0.0, 9.999461, 10.000074 
6.95009e+2, 1.6451338e+2, -1394743.1, -1343465.1, 5259.47, 0.06232396, 0.0661558, -1342931.3, -15157.055, 0.0, 9.999449, 10.00012 
6.9500715e+2, 1.7451312e+2, -1240503.1, -1215692.0, 192.2839, -0.022581344, 0.023880644, -1215690.5, 14085.969, 0.0, 9.999823, 10.000145 
6.950059e+2, 1.8451315e+2, -1118449.1, -1115027.0, 2937.771, -0.04939543, 0.018025203, -1113338.4, 18437.281, 0.0, 10.000025, 10.000066 
6.950053e+2, 1.9451357e+2, -1017475.6, -1012855.2, 13255.135, -0.018349154, 0.049169365, -1001710.5, 32060.467, 0.0, 10.000035, 10.000089 
6.9500446e+2, 2.0451348e+2, -978035.56, -1007796.56, 7497.1333, -0.007817656, 0.05711774, -976253.7, -40481.637, 0.0, 9.99991, 9.999512 
6.950032e+2, 2.1451269e+2, -921713.25, -931144.0, 546.9799, -0.017551884, 0.027952794, -921681.7, -83901.445, 0.0, 9.999629, 9.999501 
6.950022e+2, 2.2451213e+2, -808567.1, -825218.4, 1889.3698, -0.024749056, 0.020613106, -808355.44, -68569.8, 0.0, 9.999729, 9.999508 
6.9500124e+2, 2.345118e+2, -626679.8, -683854.1, 415.30066, -0.028970012, 0.03141268, -626676.8, 15110.879, 0.0, 10.000293, 9.999534 
6.95e+2, 2.4451119e+2, -542757.0, -646012.1, -21655.928, -0.0344354, 0.041771054, -538398.94, 5393.9785, 0.0, 10.000426, 9.999055 
6.949984e+2, 2.5451028e+2, -500814.72, -574475.5, -17154.977, -0.041100193, 0.041328195, -497015.4, -51213.25, 0.0, 10.000039, 9.99906 
6.9499713e+2, 2.645091e+2, -427277.1, -512785.9, 2989.2646, -0.044163886, 0.033184122, -427172.72, -79359.19, 0.0, 9.999979, 9.998839 
6.949962e+2, 2.745078e+2, -279082.5, -389221.38, -1012.6767, -0.040671647, 0.008888345, -279073.2, -29245.885, 0.0, 10.000317, 9.998852 
6.9499505e+2, 2.8450677e+2, -191125.9, -318662.75, -18706.555, -0.040659845, 0.03448782, -188438.73, -36601.063, 0.0, 10.000345, 9.998651 
6.949937e+2, 2.9450616e+2, -146458.6, -248148.1, -25745.375, -0.048379023, 0.10644745, -140312.0, -86467.64, 0.000000000021633938, 9.999987, 9.998633 
6.9499195e+2, 3.045041e+2, -65470.49, -139883.7, -39007.402, -0.06646275, 0.01807898, -48770.61, -48770.61, 0.00000014519733, 10.000017, 9.999029 
6.9499016e+2, 3.1450355e+2, 64424.504, 15368.881, 17411.646, -0.064643435, 0.052478112, 69976.234, 69976.234, 0.0000015881137, 10.000511, 9.999857 
7.0501804e+2, 1.2451429e+2, -1720613.5, -1659519.3, 155167.95, 0.078795746, 0.052525505, -1531920.3, 187844.5, 0.0, 9.999729, 10.000502 
7.0501393e+2, 1.3451426e+2, -1686405.9, -1661629.9, -105685.8, 0.09173534, 0.051329173, -1567608.5, 54156.586, 0.0, 9.9995575, 9.999915 
7.0501006e+2, 1.445142e+2, -1573102.9, -1532378.6, 4616.3564, -0.041276418, 0.05145195, -1531861.9, -8096.2397, 0.0, 9.999575, 10.00011 
7.050098e+2, 1.5451443e+2, -1416089.8, -1400646.4, 1509.4618, 0.06106956, 0.055213373, -1400500.3, 25263.52, 0.0, 9.999959, 10.0001545 
7.050087e+2, 1.6451453e+2, -1317777.1, -1316814.8, 15244.579, 0.061715174, 0.055775695, -1302043.8, 25719.389, 0.0, 10.000023, 10.000026 
7.050069e+2, 1.7451444e+2, -1266088.3, -1238557.1, 15150.696, -0.020169862, 0.04140864, -1231852.4, -2088.0144, 0.0, 9.999695, 10.000048 
7.0500576e+2, 1.8451457e+2, -1180361.4, -1140093.0, 17308.422, -0.044748593, 0.045928918, -1133676.0, -1912.7827, 0.0, 9.999581, 10.000106 
7.050052e+2, 1.9451493e+2, -1058738.3, -1028181.25, 10689.881, -0.012761242, 0.06572795, -1024812.9, 8946.166, 0.0, 9.999731, 10.000131 
7.050044e+2, 2.0451471e+2, -972170.44, -1008624.56, 831.282, -0.0035451232, 0.06413241, -972151.44, -36390.87, 0.0, 9.999966, 9.99948 
7.0500326e+2, 2.1451384e+2, -824779.1, -887473.06, 5321.741, -0.01751634, 0.026692875, -824330.6, 13438.566, 0.0, 10.000309, 9.999473 
7.050022e+2, 2.2451319e+2, -737733.44, -812630.9, 11592.229, -0.024359211, 0.022138387, -735980.25, 3795.2178, 0.0, 10.000309, 9.999314 
7.050014e+2, 2.3451282e+2, -698488.44, -740954.8, -789.97174, -0.023679035, 0.050023746, -698473.75, -56694.895, 0.0, 9.999897, 9.999332 
7.0500016e+2, 2.4451211e+2, -622308.4, -671609.0, -31076.4, -0.026588961, 0.05631281, -607292.8, -63507.77, 0.0, 9.9998255, 9.999169 
7.049986e+2, 2.5451103e+2, -471564.63, -545768.06, -28465.47, -0.03351327, 0.026289705, -461902.9, -16108.239, 0.0, 10.000177, 9.99919 
7.0499724e+2, 2.6450992e+2, -388610.97, -500462.28, -2906.6724, -0.040629737, 0.014563141, -388535.47, -40729.83, 0.0, 10.000271, 9.998783 
7.049963e+2, 2.7450874e+2, -322553.44, -416972.06, -1362.0901, -0.04626712, 0.017566245, -322533.8, -72715.664, 0.0, 10.000049, 9.998791 
7.0499516e+2, 2.8450778e+2, -233189.3, -331708.5, -11062.448, -0.0452543, 0.047675356, -231962.4, -80134.125, 0.0, 10.000026, 9.998714 
7.049939e+2, 2.9450706e+2, -101009.99, -217771.11, -2144.239, -0.03904611, 0.09865143, -100970.625, -47134.74, 0.0, 10.000262, 9.99871 
7.049921e+2, 3.0450517e+2, -11867.766, -90605.58, -8098.5317, -0.060990218, 0.014046849, -11043.427, -11043.427, 0.00000008201181, 10.000284, 9.99924 
7.0499045e+2, 3.145046e+2, -11433.007, -24938.129, 25116.31, -0.065339215, 0.027044546, 7822.625, 7822.625, 0.0000012936833, 10.000005, 9.999825 
7.150177e+2, 1.2451592e+2, -1741463.8, -1703962.4, 131170.47, 0.064668566, 0.045359686, -1590209.1, 129539.26, 0.0, 9.999732, 10.000196 
7.1501386e+2, 1.3451582e+2, -1710669.5, -1714015.5, -111954.66, 0.12960488, 0.074929796, -1600375.4, 21376.102, 0.0, 9.999566, 9.999552 
7.150099e+2, 1.445156e+2, -1565666.0, -1517641.6, 15628.744, -0.011871426, 0.072520666, -1513003.5, 10750.561, 0.0, 9.999578, 10.000209 
7.1500915e+2, 1.5451553e+2, -1407882.4, -1382815.1, 16253.018, -0.0017753511, 0.033855047, -1374824.3, 50929.28, 0.0, 9.999955, 10.000278 
7.150081e+2, 1.6451575e+2, -1318613.1, -1317525.9, 3964.0781, -0.0035284297, 0.039290916, -1314068.4, 13683.156, 0.0, 10.000018, 10.000024 
7.15007e+2, 1.7451626e+2, -1266516.0, -1240043.9, 3549.2493, 0.020294704, 0.08581384, -1239576.3, -9828.565, 0.0, 9.999697, 10.000037 
7.1500605e+2, 1.8451643e+2, -1192139.4, -1164388.9, 21489.852, 0.024373692, 0.10463707, -1152684.1, -20937.549, 0.0, 9.99958, 9.99994 
7.1500504e+2, 1.9451621e+2, -1071767.1, -1054156.1, 16466.43, -0.006672985, 0.0836603, -1044288.7, -10540.173, 0.0, 9.999726, 9.999954 
7.1500415e+2, 2.0451587e+2, -964487.2, -991843.9, 12668.084, -0.027853051, 0.07213048, -959522.06, -23771.033, 0.0, 9.999962, 9.999598 
7.150034e+2, 2.145154e+2, -815915.44, -868687.7, 18430.84, -0.032003798, 0.062348958, -810115.8, 27638.682, 0.0, 10.000306, 9.999603 
7.150024e+2, 2.2451468e+2, -759161.44, -857024.6, -3347.8818, -0.03069953, 0.060057655, -759047.06, -19285.947, 0.0, 10.000308, 9.99901 
7.150013e+2, 2.345137e+2, -722164.44, -789320.5, -15915.969, -0.024096597, 0.059172492, -718583.3, -76811.836, 0.0, 9.999893, 9.999002 
7.150002e+2, 2.4451269e+2, -615895.94, -657624.9, -19560.219, -0.013662205, 0.04667319, -608160.94, -64380.09, 0.0, 9.999823, 9.999267 
7.1499914e+2, 2.5451168e+2, -463625.3, -529351.0, -14744.881, 0.0027292988, 0.01093486, -460469.0, -14680.0205, 0.0, 10.000177, 9.999303 
7.149979e+2, 2.6451072e+2, -386923.3, -497086.0, -10464.724, -0.010100817, 0.009948795, -385938.06, -38140.047, 0.0, 10.000272, 9.998807 
7.149962e+2, 2.7450988e+2, -321682.28, -413964.8, -9315.796, -0.05779398, 0.043269586, -320751.25, -70943.39, 0.0, 10.000043, 9.998814 
7.149949e+2, 2.8450894e+2, -214200.19, -290708.75, -3310.2886, -0.074155815, 0.059859764, -214057.23, -62240.01, 0.0, 10.000019, 9.999 
7.14994e+2, 2.9450786e+2, -81168.586, -174865.6, 7955.672, -0.055507276, 0.047555078, -80497.88, -26671.78, 0.0, 10.000256, 9.999008 
7.1499234e+2, 3.0450627e+2, -14617.614, -94843.39, -17535.047, -0.06632074, -0.019987796, -10952.406, -10952.406, 0.00000004119849, 10.0002775, 9.999214 
7.149907e+2, 3.1450596e+2, -30872.508, -62520.082, 13930.137, -0.045548532, 0.020040534, -25614.527, -25614.527, 0.0000010048329, 9.999993, 9.999573 
7.250171e+2, 1.2451752e+2, -1796534.0, -1723370.9, 104529.266, 0.055670246, 0.058633637, -1649206.9, 70526.914, 0.0, 9.99932, 10.000262 
7.250136e+2, 1.3451733e+2, -1671458.4, -1691488.3, -94612.43, 0.13368551, 0.077352315, -1586332.3, 35405.023, 0.0, 9.999823, 9.99958 
7.250098e+2, 1.4451711e+2, -1516789.4, -1500902.1, 40833.773, -0.0015063597, 0.073110394, -1467246.5, 56493.688, 0.0, 9.999944, 10.000147 
7.2500896e+2, 1.5451704e+2, -1447144.0, -1409317.5, 27310.768, -0.0046478724, 0.04358647, -1395010.5, 30729.168, 0.0, 9.99972, 10.00021 
7.250079e+2, 1.6451725e+2, -1362780.6, -1343889.1, 3890.5527, -0.00738344, 0.054833334, -1343119.3, -15381.668, 0.0, 9.999737, 9.999978 
7.25007e+2, 1.7451775e+2, -1218007.0, -1222203.1, -825.70013, 0.030323625, 0.102638796, -1217850.4, 11883.791, 0.0, 10.000053, 9.999989 
7.2500604e+2, 1.8451779e+2, -1114048.3, -1145897.0, 18003.084, 0.038244035, 0.11968639, -1105937.4, 25797.0, 0.0, 10.000198, 9.999769 
7.250051e+2, 1.9451731e+2, -1023408.75, -1049835.6, 12873.404, -0.0024435506, 0.09227176, -1018174.44, 15564.282, 0.0, 10.000142, 9.999783 
7.2500414e+2, 2.045169e+2, -946277.25, -986012.06, 9426.651, -0.030999748, 0.082675755, -944154.3, -8412.03, 0.0, 10.0001, 9.999571 
7.250035e+2, 2.1451654e+2, -850645.56, -887766.7, 3005.2686, -0.040329494, 0.08585878, -850403.8, -12659.095, 0.0, 10.000077, 9.999583 
7.2500265e+2, 2.2451583e+2, -786792.9, -866786.44, -23524.611, -0.036192212, 0.08204018, -780387.56, -40636.363, 0.0, 10.000103, 9.9990425 
7.250014e+2, 2.3451467e+2, -674801.4, -762271.06, -10514.778, -0.016733043, 0.060810056, -673555.1, -31792.543, 0.0, 10.0002, 9.99904 
7.250003e+2, 2.445136e+2, -563730.44, -642589.5, 5298.237, -0.00029454418, 0.04434856, -563376.06, -19603.55, 0.0, 10.000224, 9.999177 
7.2499937e+2, 2.5451264e+2, -473361.75, -544290.9, -5513.3076, 0.0132001275, 0.025036573, -472935.75, -27155.234, 0.0, 10.000155, 9.999211 
7.249981e+2, 2.645117e+2, -398298.03, -495899.63, -14623.659, -0.0051306644, 0.030471412, -396154.06, -48364.855, 0.0, 10.000165, 9.998866 
7.249963e+2, 2.745109e+2, -282296.88, -387665.9, -11501.929, -0.06109784, 0.05753119, -281055.97, -31257.438, 0.0, 10.000282, 9.99888 
7.24995e+2, 2.845099e+2, -178654.11, -265219.6, -9072.221, -0.07835136, 0.06062804, -177713.55, -25905.479, 0.0, 10.000226, 9.999076 
7.249941e+2, 2.945087e+2, -117881.13, -183748.63, -14822.774, -0.052433677, 0.02832019, -114699.15, -60881.395, 0.0, 9.999965, 9.999087 
7.249926e+2, 3.0450746e+2, -59767.594, -129786.695, -48038.93, -0.06485298, -0.0016146811, -35334.67, -35334.67, 0.000000018939705, 10.000025, 9.999097 
7.249909e+2, 3.14507e+2, 20186.738, -64751.723, -26241.104, -0.040650282, 0.038515244, 27639.758, 27639.758, 0.0000007295325, 10.000459, 9.999333 
7.3501635e+2, 1.245191e+2, -1766947.5, -1662445.0, 106664.44, 0.045667894, 0.09076353, -1595921.4, 123799.6, 0.0, 9.99932, 10.000682 
7.350131e+2, 1.3451882e+2, -1642442.4, -1630606.3, -76405.91, 0.101140946, 0.05811867, -1559889.5, 61833.176, 0.0, 9.99982, 9.999999 
7.350097e+2, 1.4451869e+2, -1531168.6, -1531034.8, 32234.383, -0.013624648, 0.0518733, -1498867.3, 24856.639, 0.0, 9.999945, 9.999939 
7.350092e+2, 1.5451899e+2, -1463764.9, -1445518.3, 19946.723, 0.049007304, 0.083732165, -1432707.5, -6985.7925, 0.0, 9.999725, 9.999958 
7.350082e+2, 1.6451909e+2, -1370438.3, -1359971.4, 14152.231, 0.04590555, 0.10166931, -1350115.9, -22394.473, 0.0, 9.999738, 9.999867 
7.350068e+2, 1.7451891e+2, -1225141.0, -1236688.0, 11205.869, 0.0076721194, 0.09289333, -1218308.8, 11414.762, 0.0, 10.0000515, 9.99989 
7.3500586e+2, 1.8451865e+2, -1125683.9, -1169561.3, 15847.319, -0.005465421, 0.091430284, -1120558.9, 11167.311, 0.0, 10.0001955, 9.999609 
7.350052e+2, 1.9451828e+2, -1035173.94, -1074112.5, 10815.152, -0.0018669659, 0.090881616, -1032371.7, 1357.9625, 0.0, 10.00014, 9.999618 
7.3500437e+2, 2.0451784e+2, -958533.1, -1010949.94, 7742.4424, -0.015587221, 0.09526221, -957413.4, -21679.297, 0.0, 10.000097, 9.9994 
7.3500353e+2, 2.145173e+2, -863433.1, -913253.8, 2355.2227, -0.045055456, 0.09759524, -863322.06, -25582.355, 0.0, 10.0000725, 9.999411 
7.3500264e+2, 2.245166e+2, -761560.7, -813654.75, -20875.498, -0.042841796, 0.08847842, -754227.6, -14481.9375, 0.0, 10.000099, 9.999409 
7.350017e+2, 2.3451573e+2, -647171.7, -705073.4, -6634.7056, -0.0031508228, 0.055584315, -646421.2, -4669.0884, 0.0, 10.0002, 9.999433 
7.3500067e+2, 2.4451485e+2, -582181.2, -681009.5, 2583.4194, 0.01144767, 0.049398102, -582113.7, -38353.797, 0.0, 10.000224, 9.998914 
7.349994e+2, 2.5451395e+2, -494744.5, -587441.25, -7741.685, -0.0048015187, 0.06763921, -494102.4, -48333.164, 0.0, 10.00015, 9.998919 
7.3499805e+2, 2.6451296e+2, -392726.0, -483067.34, -10741.039, -0.028204214, 0.075541414, -391466.5, -43687.34, 0.0, 10.00016, 9.998958 
7.349966e+2, 2.7451184e+2, -275554.78, -373090.28, -6408.688, -0.057988063, 0.06219564, -275135.5, -25345.559, 0.0, 10.000279, 9.998981 
7.349954e+2, 2.8451067e+2, -187317.55, -282949.7, -18284.309, -0.05986188, 0.05106142, -183940.9, -32140.242, 0.0, 10.000225, 9.998955 
7.3499435e+2, 2.9450956e+2, -127872.44, -202822.7, -23510.184, -0.033015084, 0.039035775, -121108.28, -67297.39, 0.0, 9.999957, 9.9989605 
7.349926e+2, 3.0450875e+2, -76628.38, -162990.25, -32677.988, -0.06030911, 0.0677195, -65657.27, -65657.27, 0.0000000073965225, 10.000017, 9.998872 
7.349912e+2, 3.1450796e+2, -173.27373, -102910.38, -10958.517, -0.057811525, 0.09695937, 982.61835, 982.61835, 0.0000004773962, 10.000442, 9.99908 
7.450158e+2, 1.24520555e+2, -1732625.3, -1636032.3, 113628.11, 0.050070595, 0.09956434, -1560862.6, 158845.4, 0.0, 9.999515, 10.000768 
7.450127e+2, 1.345204e+2, -1664337.9, -1632616.5, -83338.805, 0.09069244, 0.07247194, -1563642.5, 58065.516, 0.0, 9.999636, 10.0000725 
7.450095e+2, 1.4452031e+2, -1566108.4, -1556868.6, 5086.571, -0.018597133, 0.069753505, -1554617.1, -30908.328, 0.0, 9.999742, 9.999861 
7.4500924e+2, 1.5452056e+2, -1436903.9, -1442422.6, 4775.7695, 0.062191524, 0.10375492, -1434147.6, -8440.069, 0.0, 9.999952, 9.99987 
7.4500823e+2, 1.645205e+2, -1319311.6, -1343380.1, 16577.5, 0.060252365, 0.115715556, -1310860.9, 16847.723, 0.0, 10.000123, 9.999795 
7.450069e+2, 1.7452009e+2, -1202186.5, -1233819.4, 15348.837, 0.0012532828, 0.090308756, -1195963.3, 33749.113, 0.0, 10.000244, 9.999816 
7.4500597e+2, 1.8451968e+2, -1117704.4, -1177289.5, 14865.988, -0.015969353, 0.08400971, -1114201.4, 17514.871, 0.0, 10.000299, 9.999506 
7.450054e+2, 1.945193e+2, -1022168.06, -1079898.9, 12866.328, 0.002202878, 0.09280648, -1019430.4, 14289.613, 0.0, 10.00028, 9.999511 
7.450047e+2, 2.0451882e+2, -948813.94, -1013604.4, 14639.055, -0.0008559924, 0.102449946, -945659.9, -9934.7705, 0.0, 10.0001955, 9.999335 
7.4500376e+2, 2.1451822e+2, -872992.06, -924495.75, 16265.631, -0.024502674, 0.10442398, -868285.25, -30553.42, 0.0, 10.000036, 9.999351 
7.4500287e+2, 2.2451755e+2, -759368.5, -801390.2, -1368.7695, -0.02627324, 0.095399134, -759324.0, -19586.441, 0.0, 10.000066, 9.99951 
7.4500203e+2, 2.345168e+2, -622260.6, -680569.25, -8740.036, -0.0027674679, 0.06379923, -620978.75, 20763.318, 0.0, 10.000319, 9.999544 
7.450009e+2, 2.4451594e+2, -560079.3, -684441.75, -13578.717, 0.0029661723, 0.061337896, -558613.94, -14864.364, 0.0, 10.000438, 9.998786 
7.449996e+2, 2.54515e+2, -467972.84, -590413.56, -13830.3955, -0.013317783, 0.08681693, -466430.06, -20669.467, 0.0, 10.0004015, 9.998776 
7.449982e+2, 2.6451394e+2, -367185.72, -467367.88, -10705.257, -0.03272995, 0.09428063, -366054.53, -18283.266, 0.0, 10.0003195, 9.998989 
7.4499696e+2, 2.7451274e+2, -285898.16, -373608.9, -11945.077, -0.053316735, 0.069566905, -284300.5, -34518.64, 0.0, 10.000188, 9.9990225 
7.4499565e+2, 2.845115e+2, -204725.1, -304273.88, -28022.41, -0.051998317, 0.05423572, -197379.03, -45585.66, 0.0, 10.000161, 9.998838 
7.4499446e+2, 2.9451033e+2, -91878.04, -199473.97, -33905.336, -0.02899854, 0.050117575, -82085.18, -28279.922, 0.0, 10.000264, 9.998836 
7.4499273e+2, 3.0450988e+2, -36152.78, -138469.17, -22861.988, -0.061439127, 0.11916844, -31276.78, -31276.78, 0.0000000015345106, 10.000274, 9.998917 
7.4499154e+2, 3.1450883e+2, -28553.299, -101903.11, 15656.001, -0.055706415, 0.11462091, -25351.406, -25351.406, 0.00000026410652, 10.000183, 9.99921 
7.5501543e+2, 1.24521926e+2, -1751732.8, -1677057.6, 102418.8, 0.059613172, 0.08547815, -1605382.8, 114311.91, 0.0, 9.999519, 10.000484 
7.5501245e+2, 1.3452211e+2, -1684499.4, -1674163.5, -79422.25, 0.098823644, 0.119583204, -1599741.3, 21951.994, 0.0, 9.999635, 9.999787 
7.550092e+2, 1.4452197e+2, -1562810.3, -1549669.8, 10970.277, -0.019665392, 0.12630501, -1543452.8, -19758.02, 0.0, 9.999741, 9.99991 
7.550089e+2, 1.5452175e+2, -1431011.9, -1430684.4, 13217.042, 0.033169184, 0.104765795, -1417630.1, 8066.979, 0.0, 9.999954, 9.999951 
7.550081e+2, 1.6452153e+2, -1320826.6, -1347313.3, 20746.299, 0.032392494, 0.09683666, -1309457.0, 18241.895, 0.0, 10.000126, 9.999767 
7.550072e+2, 1.7452128e+2, -1204858.8, -1240270.6, 20116.707, 0.008425234, 0.09387098, -1195765.8, 33934.918, 0.0, 10.000247, 9.999771 
7.550065e+2, 1.8452093e+2, -1121762.3, -1184738.4, 13661.953, 0.0031372933, 0.09633702, -1118926.3, 12777.918, 0.0, 10.000296, 9.999456 
7.550058e+2, 1.9452043e+2, -1026133.0, -1087422.6, 12292.213, 0.008447952, 0.098269396, -1023759.6, 9949.947, 0.0, 10.0002775, 9.999461 
7.55005e+2, 2.0451991e+2, -946609.1, -1008509.8, 7984.4966, 0.012159487, 0.10442972, -945595.8, -9880.677, 0.0, 10.000193, 9.999372 
7.550043e+2, 2.1451935e+2, -870241.3, -918435.3, 10143.285, 0.018731413, 0.10647695, -868193.5, -30472.47, 0.0, 10.000033, 9.999394 
7.550033e+2, 2.2451867e+2, -770895.75, -824425.3, 6741.4883, 0.010221935, 0.103021465, -770059.75, -30333.016, 0.0, 10.000062, 9.999353 
7.5500214e+2, 2.3451789e+2, -634834.3, -705561.44, 1004.54785, -0.01740867, 0.08484773, -634820.06, 6912.33, 0.0, 10.000314, 9.999374 
7.55001e+2, 2.4451692e+2, -560440.7, -684171.3, -14795.831, -0.026791917, 0.07998552, -558696.0, -14954.599, 0.0, 10.000433, 9.998791 
7.5499994e+2, 2.5451577e+2, -467783.75, -589612.4, -14772.52, -0.014223382, 0.083853625, -466018.06, -20263.693, 0.0, 10.0004, 9.998783 
7.549987e+2, 2.6451468e+2, -368863.34, -470596.22, -15634.097, -0.020986719, 0.08752149, -366514.94, -18749.58, 0.0, 10.000318, 9.998967 
7.5499713e+2, 2.7451357e+2, -287859.3, -376187.88, -15930.543, -0.050119154, 0.07727318, -285074.0, -35299.633, 0.0, 10.000181, 9.999008 
7.5499576e+2, 2.8451237e+2, -214331.36, -322853.94, -24516.121, -0.057633426, 0.068910755, -209050.0, -57263.79, 0.0, 10.0001545, 9.998714 
7.549946e+2, 2.945111e+2, -102285.664, -219678.97, -28973.13, -0.04357182, 0.06660079, -95524.39, -41724.06, 0.0, 10.0002575, 9.9987 
7.549929e+2, 3.0451095e+2, -13196.537, -89788.54, -26038.129, -0.07161857, 0.15752405, -5183.059, -5183.059, 0.00000000001992495, 10.00027, 9.999252 
7.549919e+2, 3.1450966e+2, 5079.866, -28193.3, 11821.859, -0.039999925, 0.09637206, 8852.405, 8852.405, 0.000000109993245, 10.000167, 9.999724 
7.650149e+2, 1.2452343e+2, -1751262.8, -1697308.9, 82820.29, 0.05093286, 0.101388335, -1637182.8, 82497.5, 0.0, 9.999607, 10.000305 
7.6501226e+2, 1.3452329e+2, -1662121.1, -1683358.1, -78718.2, 0.109274864, 0.122752056, -1593308.5, 28373.824, 0.0, 9.999875, 9.999609 
7.6500916e+2, 1.4452304e+2, -1522984.3, -1526666.0, 15256.198, -0.0051444466, 0.12471534, -1509458.3, 14226.814, 0.0, 9.999998, 9.999945 
7.6500875e+2, 1.5452287e+2, -1411776.0, -1416763.9, 15011.988, 0.019306824, 0.10525609, -1399052.3, 26634.166, 0.0, 10.000065, 9.999993 
7.6500803e+2, 1.6452268e+2, -1324793.6, -1352614.0, 19473.27, 0.016829995, 0.097890176, -1314772.6, 12915.183, 0.0, 10.000112, 9.99974 
7.650075e+2, 1.7452239e+2, -1222738.3, -1252123.5, 18516.785, 0.018941825, 0.09364187, -1213793.1, 15896.885, 0.0, 10.000138, 9.9997425 
7.650069e+2, 1.8452205e+2, -1139062.0, -1193297.5, 13163.52, 0.02166769, 0.09879562, -1136035.9, -4342.4233, 0.0, 10.000177, 9.9994545 
7.650061e+2, 1.945216e+2, -1032979.0, -1090867.4, 14784.944, 0.013930762, 0.10751653, -1029421.5, 4276.9824, 0.0, 10.000231, 9.999459 
7.6500523e+2, 2.0452107e+2, -928161.9, -996281.5, 11648.479, 0.011597576, 0.11159348, -926225.0, 9479.051, 0.0, 10.000305, 9.999402 
7.6500446e+2, 2.1452041e+2, -814878.2, -888416.94, 12022.941, 0.019016953, 0.100494735, -812962.5, 24747.934, 0.0, 10.0004, 9.999423 
7.6500356e+2, 2.2451974e+2, -722325.5, -806070.4, 16844.293, 0.009747485, 0.09709118, -719064.44, 20651.771, 0.0, 10.00042, 9.999307 
7.650024e+2, 2.3451906e+2, -633946.6, -711293.2, 18669.34, -0.020842828, 0.094741434, -629676.1, 12045.299, 0.0, 10.000347, 9.99932 
7.650014e+2, 2.445181e+2, -577471.9, -691479.06, 4629.63, -0.027983556, 0.092478275, -577284.2, -33553.49, 0.0, 10.000312, 9.998799 
7.6500034e+2, 2.545168e+2, -477424.8, -592943.75, 3726.9204, -0.007426017, 0.08255914, -477304.72, -31559.982, 0.0, 10.000328, 9.998795 
7.649991e+2, 2.6451573e+2, -362771.53, -468288.66, 3034.0786, -0.012504025, 0.08463915, -362684.34, -14928.538, 0.0, 10.000363, 9.9989605 
7.649975e+2, 2.7451473e+2, -253840.67, -360834.97, 2077.2712, -0.04690547, 0.087252095, -253800.36, -4036.6, 0.0, 10.00042, 9.998998 
7.6499605e+2, 2.8451353e+2, -183829.52, -309508.8, -698.85846, -0.060657695, 0.07939095, -183825.63, -32049.885, 0.0, 10.000369, 9.998703 
7.649947e+2, 2.945121e+2, -109859.23, -225245.05, 2549.2712, -0.05397016, 0.0638306, -109802.93, -56011.566, 0.0, 10.000213, 9.998684 
7.6499295e+2, 3.0451205e+2, -37090.492, -108431.71, -4592.199, -0.083269045, 0.16732748, -36796.11, -36796.11, 0.0, 10.000134, 9.99919 
7.6499206e+2, 3.1451046e+2, 10978.689, -6555.773, -2565.3604, -0.03761163, 0.083322674, 11346.305, 11346.305, 0.000000028836135, 10.000125, 9.999893 
7.7501416e+2, 1.2452511e+2, -1756664.9, -1707498.8, 78261.04, 0.017763235, 0.15151553, -1650050.6, 69613.55, 0.00000000003061157, 9.999602, 10.000237 
7.7501225e+2, 1.34524e+2, -1667042.5, -1693149.1, -69023.91, 0.11803475, 0.08259528, -1609848.5, 11826.594, 0.0, 9.999874, 9.999541 
7.7500945e+2, 1.4452353e+2, -1520871.9, -1523503.5, 16102.671, 0.01910289, 0.06482577, -1506031.4, 17648.275, 0.0, 10.000002, 9.999965 
7.750088e+2, 1.5452395e+2, -1410837.5, -1415938.1, 17874.168, 0.018170446, 0.10350861, -1395332.6, 30342.832, 0.0, 10.000069, 9.999998 
7.7500814e+2, 1.6452396e+2, -1327127.8, -1356887.8, 19702.771, 0.0109270625, 0.11750832, -1317317.4, 10357.823, 0.0, 10.00011, 9.99971 
7.750078e+2, 1.7452341e+2, -1224231.0, -1255052.5, 19625.73, 0.030908851, 0.09002428, -1214688.6, 14991.464, 0.0, 10.000137, 9.9997225 
7.750072e+2, 1.8452305e+2, -1135932.5, -1186326.4, 14462.021, 0.036719054, 0.0914085, -1132077.1, -393.24683, 0.0, 10.0001745, 9.999505 
7.7500635e+2, 1.9452287e+2, -1029875.2, -1084114.0, 16841.104, 0.016295858, 0.12073676, -1025071.5, 8615.112, 0.0, 10.000228, 9.999508 
7.750054e+2, 2.0452237e+2, -927334.94, -993057.8, 14241.146, -0.0058218297, 0.1237172, -924381.8, 11309.888, 0.0, 10.0002985, 9.999427 
7.7500445e+2, 2.1452145e+2, -814165.4, -886031.8, 15552.983, -0.025132777, 0.08623192, -810943.9, 26755.982, 0.0, 10.000396, 9.999442 
7.750036e+2, 2.2452076e+2, -718873.8, -798389.56, 13651.727, -0.028926706, 0.07709434, -716595.25, 23110.49, 0.0, 10.000417, 9.999361 
7.750029e+2, 2.3452033e+2, -630070.6, -703010.56, 16267.13, -0.015265237, 0.093925886, -626607.2, 15101.777, 0.0, 10.000345, 9.999377 
7.7500194e+2, 2.4451947e+2, -577159.6, -689846.75, 4631.0713, -0.0037653195, 0.09893997, -576969.6, -33252.4, 0.0, 10.000307, 9.998813 
7.750009e+2, 2.5451812e+2, -477061.16, -590986.6, 4898.9775, 0.004818697, 0.08148751, -476850.9, -31119.268, 0.0, 10.000323, 9.998811 
7.749995e+2, 2.6451704e+2, -363642.78, -469172.88, 5044.002, -0.008553895, 0.08546834, -363402.25, -15659.702, 0.0, 10.000359, 9.998957 
7.7499795e+2, 2.7451622e+2, -255190.55, -362738.78, 5025.157, -0.047004532, 0.10364509, -254956.27, -5206.645, 0.0, 10.000416, 9.998987 
7.7499634e+2, 2.84515e+2, -175801.16, -292193.16, -6543.5996, -0.06512652, 0.088421054, -175434.44, -23672.803, 0.0, 10.000366, 9.998823 
7.749948e+2, 2.9451331e+2, -102629.28, -208516.73, -1651.6404, -0.062759906, 0.035678983, -102603.52, -48824.844, 0.0, 10.000205, 9.998803 
7.74993e+2, 3.0451316e+2, -72340.82, -179758.56, -4251.4653, -0.09853128, 0.14531669, -72172.81, -72172.81, 0.0, 10.000126, 9.998704 
7.749919e+2, 3.1451133e+2, -6735.1343, -40677.96, -3690.8875, -0.05835573, 0.08485809, -6338.4297, -6338.4297, 0.0000000029769756, 10.0001135, 9.999665 
7.850137e+2, 1.245259e+2, -1748063.9, -1693028.4, 55704.945, 0.0065533565, 0.14523451, -1658415.0, 61241.383, 0.0000000009851104, 9.999616, 10.000332 
7.850121e+2, 1.3452482e+2, -1638018.0, -1665885.9, -67818.055, 0.11020746, 0.068578, -1582717.3, 38949.05, 0.0, 10.000017, 9.99966 
7.8500956e+2, 1.4452443e+2, -1498992.6, -1523054.0, 10539.094, 0.023637403, 0.055733554, -1495029.3, 28641.045, 0.0, 10.000194, 9.999877 
7.850091e+2, 1.5452495e+2, -1402135.9, -1422641.6, 3513.6711, 0.032815434, 0.11504515, -1401550.5, 24115.338, 0.0, 10.000175, 9.999901 
7.8500843e+2, 1.6452496e+2, -1319437.1, -1349326.9, 4142.7456, 0.02602247, 0.13412453, -1318873.6, 8792.282, 0.0, 10.000146, 9.999745 
7.8500795e+2, 1.7452435e+2, -1223922.0, -1250694.3, 7741.011, 0.03362827, 0.094505, -1221844.9, 7826.366, 0.0, 10.000121, 9.999762 
7.8500736e+2, 1.8452394e+2, -1134930.3, -1183558.9, 8369.937, 0.035393275, 0.08946252, -1133529.9, -1854.544, 0.0, 10.000171, 9.999525 
7.8500664e+2, 1.9452378e+2, -1016329.2, -1075061.6, 7789.224, 0.018774793, 0.119026855, -1015313.75, 18364.074, 0.0, 10.000311, 9.99953 
7.8500575e+2, 2.0452335e+2, -916007.8, -981811.1, 2697.9128, -0.0063988934, 0.12497686, -915897.4, 19784.861, 0.0, 10.000353, 9.999477 
7.850046e+2, 2.1452256e+2, -827858.1, -887113.75, 5418.714, -0.03661454, 0.09416448, -827366.7, 10322.531, 0.0, 10.000278, 9.999491 
7.8500384e+2, 2.245219e+2, -740369.1, -805838.4, 3704.7737, -0.037932374, 0.085651495, -740160.1, -465.3146, 0.0, 10.0002575, 9.999386 
7.850033e+2, 2.3452142e+2, -633723.4, -701890.4, 2279.7583, -0.0068947705, 0.09470779, -633647.2, 8051.6123, 0.0, 10.000309, 9.999401 
7.8500247e+2, 2.4452063e+2, -555150.7, -663141.06, -2759.8538, 0.0062035755, 0.09676014, -555080.2, -11373.728, 0.0, 10.000391, 9.998955 
7.8500116e+2, 2.5451946e+2, -441004.94, -557314.2, 6638.0728, -0.0026609218, 0.083048195, -440627.3, 5091.0903, 0.0, 10.000501, 9.998956 
7.849997e+2, 2.645185e+2, -363953.0, -474228.06, 2944.7495, -0.018328475, 0.09251939, -363874.44, -16146.136, 0.0, 10.000378, 9.998914 
7.849982e+2, 2.7451771e+2, -320950.72, -400682.63, -2065.8313, -0.04104325, 0.11785112, -320897.22, -71161.125, 0.0, 9.99999, 9.998932 
7.849967e+2, 2.8451642e+2, -235112.63, -317242.53, -9009.619, -0.046940137, 0.10016355, -234135.89, -82387.17, 0.0, 9.999944, 9.998855 
7.849954e+2, 2.9451463e+2, -88548.12, -197823.23, -11543.993, -0.035352286, 0.033077743, -87341.91, -33575.62, 0.0, 10.000286, 9.9988365 
7.849934e+2, 3.0451435e+2, -31119.715, -192099.3, -8225.288, -0.089382835, 0.14326224, -30700.533, -30700.533, 0.0, 10.000549, 9.998415 
7.84992e+2, 3.145124e+2, 84526.03, 604.4, 2468.3638, -0.0974914, 0.10031335, 84598.57, 84598.57, 0.0, 10.0007515, 9.999641 
7.950133e+2, 1.2452584e+2, -1729827.4, -1657077.0, 57783.277, 0.003953166, 0.08420965, -1625172.9, 94483.61, 0.0000000034592607, 9.999622, 10.000576 
7.950119e+2, 1.3452578e+2, -1616436.5, -1622439.5, -53024.27, 0.08455981, 0.07938102, -1566328.8, 55327.26, 0.0, 10.000022, 9.999955 
7.9500955e+2, 1.4452574e+2, -1512173.4, -1550458.1, 8695.7295, 0.0066512176, 0.09666801, -1510290.9, 13366.038, 0.0, 10.000195, 9.999688 
7.950095e+2, 1.545259e+2, -1416475.0, -1451695.8, 3093.574, 0.05849205, 0.1402872, -1416205.3, 9452.06, 0.0, 10.000173, 9.999702 
7.9500884e+2, 1.6452578e+2, -1312958.6, -1335728.4, 2383.1816, 0.057105727, 0.14818202, -1312711.9, 14947.59, 0.0, 10.000144, 9.99984 
7.95008e+2, 1.7452522e+2, -1216768.3, -1236329.3, 7100.244, 0.026014868, 0.1070062, -1214462.8, 15200.592, 0.0, 10.000122, 9.99986 
7.950074e+2, 1.8452476e+2, -1136064.5, -1185003.3, 12601.54, 0.015386602, 0.0922252, -1133010.3, -1342.8197, 0.0, 10.000168, 9.999517 
7.9500693e+2, 1.9452439e+2, -1017666.8, -1077155.1, 12954.214, 0.019042881, 0.10101423, -1014968.3, 18703.707, 0.0, 10.000308, 9.999517 
7.950062e+2, 2.0452407e+2, -911017.75, -970643.8, -589.9119, 0.0075499294, 0.114404805, -911011.94, 24663.66, 0.0, 10.000348, 9.999557 
7.9500514e+2, 2.1452378e+2, -822566.5, -875249.7, 2683.6687, -0.0175447, 0.12475137, -822430.1, 15248.055, 0.0, 10.000274, 9.999575 
7.9500425e+2, 2.2452322e+2, -741959.5, -807969.4, 4521.1646, -0.020289505, 0.12296488, -741651.3, -1968.2161, 0.0, 10.000252, 9.999374 
7.9500365e+2, 2.3452237e+2, -635176.56, -704414.1, 4441.5703, 0.0029162767, 0.096969366, -634892.8, 6798.026, 0.0, 10.000307, 9.999386 
7.9500276e+2, 2.4452156e+2, -536653.56, -624390.25, 1021.07465, 0.00035502747, 0.086216964, -536641.7, 7056.5327, 0.0, 10.000388, 9.999223 
7.950013e+2, 2.5452083e+2, -421927.8, -516983.47, 11376.257, -0.03332415, 0.088551916, -420585.28, 25119.566, 0.0, 10.000497, 9.999234 
7.949999e+2, 2.6452005e+2, -370142.16, -486185.03, -11268.821, -0.045520294, 0.105584815, -369057.97, -21345.06, 0.0, 10.000373, 9.998834 
7.949983e+2, 2.7451912e+2, -328722.84, -415451.53, -15823.725, -0.030639464, 0.12607105, -325925.97, -76202.59, 0.0, 9.999984, 9.998834 
7.9499704e+2, 2.845178e+2, -241343.23, -328762.9, 3289.0125, -0.0076992773, 0.11348346, -241219.67, -89482.6, 0.0, 9.999937, 9.998779 
7.949962e+2, 2.9451612e+2, -94351.05, -208448.9, 2676.8254, 0.021694982, 0.06353815, -94288.28, -40534.758, 0.0, 10.000278, 9.998767 
7.949942e+2, 3.045157e+2, -36210.008, -201958.08, -1024.5876, -0.06296246, 0.16760717, -36203.676, -36203.676, 0.0, 10.000546, 9.998349 
7.9499215e+2, 3.145136e+2, 96423.74, 27919.793, 9862.457, -0.15984106, 0.11850145, 97815.36, 97815.36, 0.0, 10.000741, 9.999835 
8.0501306e+2, 1.2452614e+2, -1687533.6, -1644608.4, 61388.65, 0.003597344, 0.056607034, -1601038.6, 118614.59, 0.0000000057252847, 9.999946, 10.000507 
8.050118e+2, 1.3452648e+2, -1614798.5, -1625066.5, -66213.4, 0.07369274, 0.09524659, -1553520.4, 68129.05, 0.0, 10.000051, 9.999924 
8.0500966e+2, 1.4452654e+2, -1526830.9, -1551731.6, -16769.02, -0.0003267418, 0.120069124, -1518395.5, 5254.0117, 0.0, 10.000072, 9.999738 
8.0500966e+2, 1.5452641e+2, -1423710.0, -1449778.9, -3963.7969, 0.05935992, 0.12937188, -1423120.6, 2531.974, 0.0, 10.000099, 9.999751 
8.0500907e+2, 1.6452624e+2, -1303054.0, -1327784.6, 6666.577, 0.06052915, 0.13174252, -1301371.4, 26283.477, 0.0, 10.000197, 9.999869 
8.050082e+2, 1.7452602e+2, -1178089.9, -1214680.6, 4704.534, 0.02128171, 0.1194807, -1177494.6, 52161.418, 0.0, 10.000375, 9.9998865 
8.050076e+2, 1.8452568e+2, -1105420.4, -1165535.4, 5406.245, 0.008460738, 0.11284035, -1104938.1, 26721.084, 0.0, 10.000359, 9.999558 
8.0500716e+2, 1.9452518e+2, -1041590.9, -1084161.5, 9047.522, 0.018389553, 0.10509043, -1039747.8, -6083.15, 0.0, 10.000125, 9.999557 
8.0500644e+2, 2.0452483e+2, -953303.9, -987608.94, -1157.3955, 0.015096372, 0.11320679, -953264.9, -17596.467, 0.0, 10.000045, 9.999586 
8.050055e+2, 2.1452464e+2, -839448.94, -879732.6, -3071.0203, -0.0016461823, 0.1312135, -839216.2, -1545.891, 0.0, 10.000144, 9.999605 
8.0500466e+2, 2.2452416e+2, -743893.7, -803856.5, 647.84296, -0.007930204, 0.13228977, -743886.7, -4211.973, 0.0, 10.000217, 9.999418 
8.050039e+2, 2.3452333e+2, -639287.5, -701310.6, 4474.1777, -0.0015630677, 0.10485733, -638966.44, 2715.8022, 0.0, 10.000257, 9.999431 
8.050029e+2, 2.4452262e+2, -551906.56, -616606.9, -2768.1633, -0.0089021465, 0.09336462, -551788.3, -8099.5747, 0.0, 10.000219, 9.999357 
8.050017e+2, 2.5452203e+2, -470024.28, -524650.7, -4459.8296, -0.033983186, 0.093980946, -469662.56, -23968.59, 0.0, 10.0001, 9.9993725 
8.050002e+2, 2.6452133e+2, -398316.34, -497203.4, -30196.541, -0.04427704, 0.112399764, -389824.6, -42123.387, 0.0, 10.00017, 9.998856 
8.049984e+2, 2.7452046e+2, -259266.9, -380049.78, -27282.387, -0.034671348, 0.13937084, -253390.3, -3678.8772, 0.0, 10.000453, 9.99885 
8.049972e+2, 2.845192e+2, -159754.42, -294951.75, 3606.7998, -0.014503616, 0.1339591, -159658.27, -7933.566, 0.0, 10.000522, 9.99873 
8.0499643e+2, 2.9451752e+2, -88324.05, -211520.77, 2981.283, 0.014169605, 0.08971169, -88251.945, -34511.06, 0.0, 10.000346, 9.9987135 
8.0499464e+2, 3.0451688e+2, -75768.27, -230991.4, 2291.8271, -0.061492242, 0.17764659, -75734.445, -75734.445, 0.0, 10.000318, 9.99826 
8.04993e+2, 3.145149e+2, 62305.055, 27533.578, 8012.292, -0.1354817, 0.14806198, 64062.48, 64062.48, 0.0, 10.000438, 9.999978 
8.1501293e+2, 1.2452691e+2, -1713623.1, -1699743.3, 54639.027, -0.0069163595, 0.06863653, -1651605.3, 68040.305, 0.000000004999778, 9.999951, 10.000126 
8.1501186e+2, 1.3452698e+2, -1641594.8, -1678690.8, -62804.188, 0.0718083, 0.11687295, -1594656.9, 26988.857, 0.0, 10.000044, 9.9995575 
8.150097e+2, 1.4452684e+2, -1506442.9, -1510105.4, -17187.182, -0.0031979373, 0.12752031, -1490989.6, 32658.021, 0.0, 10.000072, 10.000025 
8.1500953e+2, 1.5452647e+2, -1400917.5, -1404851.8, -1885.4343, 0.03446386, 0.082478374, -1400159.9, 25491.453, 0.0, 10.000108, 10.000056 
8.1500906e+2, 1.6452643e+2, -1305708.6, -1334148.3, 12503.318, 0.034307096, 0.08365448, -1300993.4, 26658.64, 0.0, 10.000202, 9.999823 
8.1500846e+2, 1.7452675e+2, -1182636.6, -1222840.9, 11346.35, 0.0154393185, 0.130073, -1179655.6, 49993.816, 0.0, 10.00037, 9.999833 
8.150079e+2, 1.845267e+2, -1099680.5, -1152710.6, -3438.3635, 0.010529135, 0.15098974, -1099458.5, 32191.719, 0.0, 10.000354, 9.999649 
8.1500727e+2, 1.945262e+2, -1035042.25, -1070457.8, 313.5322, 0.015268395, 0.1328562, -1035039.44, -1384.2339, 0.0, 10.000124, 9.999652 
8.1500655e+2, 2.0452568e+2, -955509.2, -991523.2, 1186.2811, 0.014265222, 0.12206802, -955470.1, -19809.834, 0.0, 10.000042, 9.99956 
8.150057e+2, 2.145252e+2, -842016.44, -884491.3, 648.30005, 0.008660019, 0.112771764, -842006.56, -4341.214, 0.0, 10.000141, 9.999575 
8.150049e+2, 2.2452474e+2, -736521.1, -788366.75, 1470.8723, -0.003453647, 0.11313777, -736479.44, 3190.1282, 0.0, 10.000216, 9.999526 
8.15004e+2, 2.3452435e+2, -631668.0, -685163.6, 6236.708, -0.022740439, 0.11809432, -630950.5, 10722.23, 0.0, 10.000255, 9.999542 
8.1500304e+2, 2.445238e+2, -552766.56, -617994.7, -7602.6274, -0.024366053, 0.11718104, -551892.2, -8214.228, 0.0, 10.0002165, 9.99935 
8.15002e+2, 2.54523e+2, -471315.53, -526594.2, -8613.291, -0.0057542883, 0.09876045, -470004.53, -24318.809, 0.0, 10.000096, 9.999362 
8.150006e+2, 2.645223e+2, -390568.56, -480127.72, -20009.87, -0.015979338, 0.11438022, -386301.16, -38608.19, 0.0, 10.000164, 9.998976 
8.149987e+2, 2.745218e+2, -251178.31, -362198.78, -15432.45, -0.05886872, 0.16184664, -249073.03, 626.71326, 0.0, 10.000448, 9.998976 
8.1499714e+2, 2.8452066e+2, -160696.23, -296620.7, -2817.9922, -0.07377261, 0.1628277, -160637.84, -8926.36, 0.0, 10.00052, 9.998719 
8.14996e+2, 2.9451883e+2, -91306.52, -216725.53, -2454.4766, -0.059581578, 0.10541011, -91258.51, -37529.617, 0.0, 10.00034, 9.998681 
8.1499475e+2, 3.0451787e+2, -85711.04, -249546.75, 7508.52, -0.08630089, 0.169584, -85367.65, -85367.65, 0.0, 10.00031, 9.998136 
8.1499445e+2, 3.1451622e+2, 65899.08, 37729.047, 12405.304, -0.03563961, 0.18664584, 70583.164, 70583.164, 0.0000000016901937, 10.000426, 10.000053 
8.250129e+2, 1.2452776e+2, -1682936.9, -1682492.5, 43268.68, -0.007946011, 0.09640535, -1639445.5, 80192.625, 0.0000000017683296, 10.000152, 10.000146 
8.250119e+2, 1.345276e+2, -1629109.3, -1666208.4, -35160.625, 0.07414813, 0.11427062, -1607905.1, 13734.732, 0.0, 10.000101, 9.999616 
8.250098e+2, 1.4452735e+2, -1506195.5, -1511634.5, 18794.67, 0.00089936604, 0.11177158, -1489924.6, 33717.83, 0.0, 10.00008, 10.0000105 
8.250096e+2, 1.54527e+2, -1394166.8, -1403575.6, 8363.354, 0.028323537, 0.07101449, -1389275.5, 36370.32, 0.0, 10.000164, 10.000038 
8.250091e+2, 1.6452701e+2, -1301746.6, -1325606.0, 15612.496, 0.024467938, 0.076184854, -1294027.8, 33618.24, 0.0, 10.000202, 9.99988 
8.2500875e+2, 1.7452744e+2, -1201353.9, -1225428.5, 22987.111, 0.008053935, 0.12828295, -1187443.1, 42199.22, 0.0, 10.000215, 9.999889 
8.250082e+2, 1.8452747e+2, -1112302.4, -1153033.1, 5882.248, 0.008528697, 0.1505316, -1111469.9, 20172.479, 0.0, 10.000243, 9.9997 
8.250075e+2, 1.9452696e+2, -1007034.44, -1051445.8, 4773.5083, 0.020849101, 0.1275029, -1006527.1, 27120.193, 0.0, 10.000293, 9.9997 
8.250067e+2, 2.0452647e+2, -918226.5, -974108.75, 9460.36, 0.017723182, 0.115975514, -916668.4, 18983.98, 0.0, 10.0003, 9.999556 
8.250059e+2, 2.1452601e+2, -825078.94, -877111.9, 10392.597, -0.0010473987, 0.11251401, -823080.0, 14577.376, 0.0, 10.000261, 9.999567 
8.25005e+2, 2.2452563e+2, -733871.94, -778146.75, 9450.222, -0.012481259, 0.11659732, -731939.25, 7721.8423, 0.0, 10.0001955, 9.999606 
8.250042e+2, 2.3452532e+2, -649002.7, -684026.44, 10683.261, -0.015741475, 0.121344194, -646001.2, -4337.882, 0.0, 10.000095, 9.999627 
8.2500327e+2, 2.4452482e+2, -573207.2, -631658.8, -3497.9556, -0.014230193, 0.123721614, -572998.6, -29330.498, 0.0, 10.0000925, 9.999314 
8.250022e+2, 2.5452408e+2, -457107.16, -523856.0, -7442.2646, -0.0072491197, 0.11375525, -456287.44, -10611.456, 0.0, 10.000213, 9.999324 
8.250008e+2, 2.645234e+2, -377076.78, -469305.88, -18702.09, -0.017807782, 0.12641189, -373428.7, -25745.018, 0.0, 10.00024, 9.999013 
8.249991e+2, 2.7452272e+2, -290280.56, -376166.75, -21492.973, -0.047581144, 0.15772785, -285202.25, -35510.97, 0.0, 10.00016, 9.999018 
8.2499754e+2, 2.8452167e+2, -192289.06, -302520.7, -9734.692, -0.06921755, 0.16153629, -191435.98, -39734.137, 0.0, 10.000263, 9.998802 
8.249963e+2, 2.9452017e+2, -50069.805, -186768.27, -2250.3125, -0.08485226, 0.127342, -50032.77, 3683.2085, 0.0, 10.000582, 9.998771 
8.2499504e+2, 3.0451882e+2, -42518.19, -246608.52, 9618.23, -0.100460276, 0.15868607, -42065.914, -42065.914, 0.0, 10.000682, 9.997977 
8.249953e+2, 3.1451705e+2, 72656.57, 35442.438, 5439.7524, 0.00955665, 0.17794244, 73435.42, 73435.42, 0.000000023716037, 10.000497, 10.000003 
8.3501303e+2, 1.24528736e+2, -1652495.5, -1620724.9, 32988.19, -0.013299444, 0.13997695, -1599996.5, 119633.98, 0.000000000051048894, 10.0001545, 10.00057 
8.350121e+2, 1.3452835e+2, -1592353.8, -1592997.9, -36276.17, 0.078257, 0.08683625, -1556398.3, 65233.023, 0.0, 10.000112, 10.0001135 
8.3501e+2, 1.4452806e+2, -1529248.6, -1561038.4, 20256.373, 0.0089349495, 0.07129953, -1519395.4, 4238.0347, 0.0, 10.000088, 9.999667 
8.350098e+2, 1.54528e+2, -1420735.6, -1456855.9, 11423.141, 0.03792377, 0.09435981, -1417426.3, 8209.62, 0.0, 10.000156, 9.999676 
8.3500934e+2, 1.6452801e+2, -1289769.3, -1300664.1, 15545.236, 0.027286524, 0.11097433, -1278744.6, 48891.73, 0.0, 10.000199, 10.000053 
8.3500886e+2, 1.7452817e+2, -1187446.3, -1197930.4, 24010.918, -0.0026811971, 0.11641202, -1168111.9, 61522.39, 0.0, 10.000218, 10.000076 
8.350084e+2, 1.8452801e+2, -1112520.9, -1153526.8, 7147.163, -0.0001337136, 0.112226, -1111310.9, 20324.62, 0.0, 10.000244, 9.999696 
8.350079e+2, 1.9452748e+2, -1008426.7, -1053149.0, 6494.8696, 0.032548543, 0.08718532, -1007502.56, 26138.283, 0.0, 10.000288, 9.999691 
8.350071e+2, 2.0452718e+2, -917315.8, -971777.75, 7175.0264, 0.023053054, 0.09412738, -916386.44, 19258.021, 0.0, 10.000298, 9.999573 
8.350058e+2, 2.1452716e+2, -823966.44, -874467.3, 8601.717, -0.032762848, 0.13099363, -822541.5, 15104.441, 0.0, 10.000259, 9.999586 
8.350049e+2, 2.2452688e+2, -730937.4, -771842.8, 4770.405, -0.03709025, 0.14269766, -730388.44, 9260.522, 0.0, 10.000194, 9.999651 
8.350046e+2, 2.345263e+2, -645733.44, -677172.0, 6853.941, 0.018395213, 0.11532801, -644304.2, -2650.5054, 0.0, 10.000094, 9.999676 
8.3500373e+2, 2.4452578e+2, -577649.56, -640440.9, 81.81511, 0.020274011, 0.114748865, -577649.44, -33990.56, 0.0, 10.000091, 9.999256 
8.35002e+2, 2.545253e+2, -462492.72, -534075.3, -2303.0222, -0.042601887, 0.1390223, -462418.72, -16754.111, 0.0, 10.000208, 9.999256 
8.350007e+2, 2.645245e+2, -380529.22, -476671.53, -21756.299, -0.054009788, 0.14676608, -375835.13, -28161.738, 0.0, 10.000239, 9.998963 
8.349997e+2, 2.7452326e+2, -294189.56, -383766.25, -24014.46, -0.0020511956, 0.124343075, -288157.72, -38471.563, 0.0, 10.000156, 9.998968 
8.349985e+2, 2.8452227e+2, -181311.89, -277957.1, 2011.5194, -0.0018083866, 0.12998465, -181270.05, -29574.273, 0.0, 10.000256, 9.998974 
8.34997e+2, 2.9452157e+2, -38201.164, -159898.17, 11229.932, -0.067718074, 0.15977441, -37173.566, 16528.268, 0.0, 10.000572, 9.99896 
8.349957e+2, 3.0451983e+2, -55680.836, -273618.1, 3557.319, -0.11018876, 0.1479255, -55622.79, -55622.79, 0.0, 10.000679, 9.997793 
8.349957e+2, 3.1451723e+2, 59932.12, 10004.141, -1567.6423, -0.006747996, 0.10573069, 59981.293, 59981.293, 0.00000010288848, 10.000491, 9.999831 
8.450132e+2, 1.2452941e+2, -1671469.0, -1635213.5, 47478.457, -0.0118914815, 0.13046244, -1602519.9, 117103.92, 0.0, 10.000047, 10.000523 
8.450123e+2, 1.3452919e+2, -1587216.5, -1589728.8, -55648.188, 0.0895244, 0.09487731, -1532810.3, 88812.984, 0.0, 10.000147, 10.000117 
8.4501034e+2, 1.4452893e+2, -1517757.1, -1562022.9, -6516.0225, 0.025051259, 0.08483957, -1516817.9, 6807.3237, 0.0, 10.000196, 9.999606 
8.4501e+2, 1.5452878e+2, -1410982.0, -1459069.6, 8621.214, 0.034169383, 0.104612, -1409483.1, 16145.183, 0.0, 10.000255, 9.999613 
8.450095e+2, 1.6452868e+2, -1288012.6, -1306296.4, 13571.245, 0.022194186, 0.115140796, -1280791.4, 46838.516, 0.0, 10.000241, 9.999994 
8.4500915e+2, 1.7452867e+2, -1202488.5, -1211981.5, 1394.4596, 0.009876927, 0.110255845, -1202287.9, 27341.781, 0.0, 10.000145, 10.000015 
8.450087e+2, 1.8452848e+2, -1123175.1, -1150220.0, -17917.525, 0.011479587, 0.1033895, -1114250.0, 17381.246, 0.0, 10.000133, 9.999773 
8.450081e+2, 1.9452812e+2, -1011354.6, -1044683.8, -11256.74, 0.02076379, 0.08600616, -1007908.94, 25725.824, 0.0, 10.000224, 9.99978 
8.450072e+2, 2.0452796e+2, -922381.9, -968139.2, -8947.66, 0.009417278, 0.09828713, -920694.44, 14942.587, 0.0, 10.0002365, 9.999627 
8.450061e+2, 2.1452798e+2, -836588.75, -874790.25, -5942.347, -0.02276663, 0.13585831, -835685.75, 1952.2922, 0.0, 10.000147, 9.999638 
8.450053e+2, 2.2452775e+2, -735602.6, -771804.0, -5919.091, -0.025232552, 0.1460278, -734659.4, 4981.4766, 0.0, 10.000154, 9.999669 
8.450047e+2, 2.3452714e+2, -616866.7, -661368.8, -7451.254, 0.006042836, 0.11625615, -615652.25, 25993.578, 0.0, 10.000285, 9.999691 
8.450037e+2, 2.4452665e+2, -541059.4, -615438.6, -11223.698, 0.0036631094, 0.11636558, -539402.6, 4247.942, 0.0, 10.000311, 9.999321 
8.4500223e+2, 2.545263e+2, -458160.44, -524468.4, -4682.0264, -0.03948304, 0.14338982, -457831.47, -12176.194, 0.0, 10.000206, 9.999323 
8.45001e+2, 2.6452547e+2, -377094.28, -472172.94, -12878.391, -0.048133682, 0.14661568, -375380.78, -27716.97, 0.0, 10.000252, 9.998987 
8.4499985e+2, 2.7452415e+2, -243353.7, -356548.94, -11000.899, -0.013490569, 0.11269771, -242294.48, 7382.6934, 0.0, 10.000496, 9.99899 
8.449988e+2, 2.845232e+2, -154946.02, -277989.7, 5172.6846, -0.0075288187, 0.12470005, -154728.95, -3042.1548, 0.0, 10.000493, 9.998858 
8.449977e+2, 2.945226e+2, -105767.62, -205566.66, -10242.16, -0.038135797, 0.17868055, -104727.33, -51034.78, 0.0, 10.000166, 9.99884 
8.4499645e+2, 3.045206e+2, -98280.46, -278044.88, -7491.176, -0.080383085, 0.13830914, -97968.83, -97968.83, 0.00000000024035085, 10.000319, 9.997935 
8.449963e+2, 3.1451827e+2, 150220.11, 66805.266, 11370.861, -0.02366983, 0.11013779, 151742.38, 151742.38, 0.00000026211356, 10.001054, 9.99995 
8.550132e+2, 1.2452985e+2, -1708633.0, -1713948.4, 44538.84, -0.018007146, 0.07032313, -1666672.6, 52944.582, 0.0, 10.000053, 9.999979 
8.5501266e+2, 1.3453017e+2, -1625118.0, -1667239.1, -52371.81, 0.107719734, 0.13967636, -1589730.8, 31884.803, 0.0, 10.000142, 9.999587 
8.5501075e+2, 1.4453001e+2, -1500057.8, -1525562.0, -5527.9663, 0.047016878, 0.15514004, -1498911.1, 24706.334, 0.0, 10.0001955, 9.999858 
8.550101e+2, 1.5452941e+2, -1390932.9, -1419618.6, 11887.126, 0.013021913, 0.10304822, -1386647.3, 38975.23, 0.0, 10.000262, 9.99988 
8.5500956e+2, 1.6452904e+2, -1309822.4, -1352473.0, 10047.211, 0.0048256987, 0.088015854, -1307574.1, 20052.072, 0.0, 10.000245, 9.999676 
8.550096e+2, 1.7452894e+2, -1226215.6, -1260399.0, -2203.516, 0.044439174, 0.10826261, -1226074.1, 3554.354, 0.0, 10.000141, 9.999685 
8.550091e+2, 1.845289e+2, -1111491.0, -1125612.8, -15472.764, 0.0412916, 0.12386348, -1101544.1, 30085.256, 0.0, 10.00013, 9.999944 
8.5500795e+2, 1.9452892e+2, -997751.94, -1016756.56, -7916.958, -0.016484361, 0.12537791, -994886.06, 38742.605, 0.0, 10.000225, 9.999971 
8.5500705e+2, 2.045288e+2, -915961.9, -954514.44, -12918.809, -0.025081493, 0.12906954, -912033.2, 23596.604, 0.0, 10.000235, 9.9997225 
8.550067e+2, 2.1452853e+2, -830797.06, -862043.44, -9523.515, 0.026960544, 0.127391, -828123.2, 9509.941, 0.0, 10.000143, 9.999727 
8.5500586e+2, 2.2452821e+2, -737026.94, -774427.2, -2455.6765, 0.02100259, 0.12774803, -736866.4, 2770.0886, 0.0, 10.000151, 9.999653 
8.550044e+2, 2.3452786e+2, -618360.5, -664333.0, -2266.491, -0.05540289, 0.12303684, -618249.06, 23390.5, 0.0, 10.000284, 9.999671 
8.5500336e+2, 2.4452747e+2, -528479.94, -589472.9, -15159.993, -0.066864185, 0.12632354, -524919.7, 18723.492, 0.0, 10.000311, 9.9995 
8.550029e+2, 2.5452703e+2, -445074.5, -496796.34, -8439.238, 0.00072051154, 0.12773117, -443732.34, 1915.421, 0.0, 10.000203, 9.999515 
8.550017e+2, 2.6452637e+2, -370845.94, -458589.2, -4815.92, -0.0007054932, 0.12871872, -370582.38, -22927.775, 0.0, 10.000249, 9.999082 
8.549997e+2, 2.745254e+2, -238265.1, -344458.16, -908.0692, -0.086113326, 0.12421055, -238257.33, 11406.777, 0.0, 10.000489, 9.999076 
8.5499847e+2, 2.8452438e+2, -183943.19, -337562.8, -5748.5215, -0.090770856, 0.145515, -183728.38, -32053.42, 0.0, 10.000489, 9.998452 
8.5499823e+2, 2.945232e+2, -136601.02, -268505.97, -21417.709, 0.000049814196, 0.18234387, -133210.53, -79522.22, 0.0, 10.00016, 9.998411 
8.5499746e+2, 3.0452105e+2, -66380.66, -210648.16, 18542.547, -0.013081926, 0.12858625, -64035.527, -64035.527, 0.0000000059514194, 10.000314, 9.998401 
8.549971e+2, 3.145201e+2, 177718.7, 127056.1, 39571.313, -0.047899283, 0.18159363, 199372.13, 199372.13, 0.0000005093443, 10.00104, 10.00037 
8.650135e+2, 1.2453057e+2, -1746511.1, -1751107.8, 27989.826, 0.014254453, 0.06678668, -1720725.4, -1115.681, 0.00000000000000000000885557, 9.999878, 9.999806 
8.6501265e+2, 1.3453074e+2, -1625324.0, -1682403.8, -35573.016, 0.09164082, 0.13392882, -1608257.3, 13353.427, 0.0, 10.000206, 9.999452 
8.650108e+2, 1.4453056e+2, -1467745.3, -1499294.3, 15311.925, 0.025586361, 0.15068573, -1461535.9, 62076.992, 0.0, 10.000373, 9.999952 
8.6501044e+2, 1.5453015e+2, -1367134.3, -1396899.9, 17495.252, 0.02266615, 0.10842936, -1359047.9, 66567.516, 0.0, 10.000377, 9.999981 
8.650101e+2, 1.6452982e+2, -1302953.8, -1362493.4, 12948.789, 0.021080043, 0.09736142, -1300259.5, 27359.23, 0.0, 10.000347, 9.999559 
8.650098e+2, 1.745296e+2, -1213732.1, -1267521.5, 17028.988, 0.034402072, 0.116406925, -1208794.3, 20828.664, 0.0, 10.000283, 9.999567 
8.650091e+2, 1.8452954e+2, -1094947.5, -1112007.0, 12428.905, 0.02569937, 0.13418937, -1088403.0, 43221.25, 0.0, 10.00022, 9.999992 
8.650082e+2, 1.9452967e+2, -1003931.1, -1013849.3, 8910.562, -0.012008812, 0.14097452, -998692.7, 34929.58, 0.0, 10.000157, 10.000025 
8.650074e+2, 2.0452955e+2, -922139.7, -956062.7, -3470.8975, -0.015576923, 0.1417302, -921788.2, 13834.832, 0.0, 10.000186, 9.999735 
8.650069e+2, 2.1452919e+2, -803599.3, -847500.7, -6740.3345, 0.021624297, 0.12914589, -802587.75, 35039.223, 0.0, 10.000324, 9.999741 
8.6500597e+2, 2.2452883e+2, -712664.7, -763921.4, -3499.6902, 0.010604619, 0.12647055, -712426.9, 27203.668, 0.0, 10.000324, 9.999641 
8.650046e+2, 2.3452851e+2, -638255.1, -674850.6, -3917.283, -0.058353595, 0.12578452, -637840.5, 3793.1768, 0.0, 10.000153, 9.999662 
8.650036e+2, 2.4452819e+2, -549517.94, -590896.5, -17480.639, -0.06631148, 0.13067695, -543121.8, 515.0803, 0.0, 10.00013, 9.999577 
8.650031e+2, 2.545278e+2, -424922.53, -478208.0, -20130.621, -0.00095769705, 0.13197932, -418172.5, 27467.85, 0.0, 10.000304, 9.999594 
8.6500204e+2, 2.645272e+2, -347782.63, -448986.03, -21136.47, -0.0037838405, 0.13531381, -343545.63, 4100.923, 0.0, 10.000416, 9.999067 
8.650001e+2, 2.7452627e+2, -247674.22, -351471.63, -26305.33, -0.08806447, 0.13639392, -241388.33, 8267.647, 0.0, 10.000436, 9.999054 
8.6499894e+2, 2.8452525e+2, -170568.19, -338127.47, -25927.525, -0.093958765, 0.15989365, -166647.98, -14980.876, 0.0, 10.000612, 9.998388 
8.649987e+2, 2.9452398e+2, -18926.174, -218667.64, -16036.01, -0.008226048, 0.19316667, -17646.936, 36034.37, 0.0, 10.000999, 9.998348 
8.6499804e+2, 3.0452162e+2, 25386.389, -161775.94, 24210.467, -0.014191542, 0.12113848, 28467.426, 28467.426, 0.000000027135602, 10.000924, 9.998442 
8.6499786e+2, 3.145211e+2, 52721.074, 55460.434, 6795.8413, -0.031543992, 0.22049116, 61023.246, 61023.246, 0.00000083365, 10.00023, 10.000268 
8.7501395e+2, 1.2453161e+2, -1730687.9, -1718297.3, 36207.28, 0.07280832, 0.120524414, -1687759.1, 31841.742, 0.0000000055054987, 9.999876, 10.000033 
8.7501234e+2, 1.3453095e+2, -1604823.8, -1640260.4, -22616.072, 0.035324004, 0.076776296, -1593811.8, 27796.09, 0.0, 10.000208, 9.99974 
8.750105e+2, 1.4453064e+2, -1474817.1, -1515050.5, 15587.807, -0.045843754, 0.06985191, -1469484.6, 54126.547, 0.0, 10.000376, 9.999843 
8.750112e+2, 1.5453105e+2, -1374365.8, -1412142.0, 17895.691, 0.06324091, 0.12114182, -1367234.4, 58372.71, 0.0, 10.000377, 9.999877 
8.750109e+2, 1.6453108e+2, -1294818.1, -1346015.4, 9562.0625, 0.0705549, 0.14551523, -1293090.5, 34516.89, 0.0, 10.000348, 9.999672 
8.750095e+2, 1.7453068e+2, -1205679.9, -1251337.1, 14683.671, -0.023098994, 0.13615187, -1201365.3, 28247.346, 0.0, 10.000285, 9.999678 
8.750087e+2, 1.8453045e+2, -1100835.4, -1123877.0, 9377.019, -0.038938988, 0.13476686, -1097501.6, 34113.65, 0.0, 10.000218, 9.999912 
8.7500876e+2, 1.945304e+2, -1010215.94, -1026606.4, 6376.705, 0.03238648, 0.13241999, -1008027.3, 25587.898, 0.0, 10.000155, 9.999938 
8.750081e+2, 2.0453022e+2, -927406.7, -966603.75, 425.80978, 0.03561988, 0.13631117, -927402.06, 8214.418, 0.0, 10.000183, 9.999664 
8.750066e+2, 2.1452996e+2, -808318.44, -857254.6, -1760.1117, -0.040809583, 0.14060038, -808255.2, 29364.014, 0.0, 10.000323, 9.999674 
8.750056e+2, 2.2452962e+2, -713366.1, -765307.2, -10432.223, -0.058265943, 0.14080516, -711349.2, 28273.742, 0.0, 10.000323, 9.999633 
8.7500525e+2, 2.3452915e+2, -638947.4, -675910.06, -10410.103, -0.003881586, 0.12616889, -636217.2, 5410.6934, 0.0, 10.00015, 9.999657 
8.750044e+2, 2.4452883e+2, -551307.44, -594636.5, -12392.285, 0.003494778, 0.13244773, -548013.56, -4382.367, 0.0, 10.000129, 9.999552 
8.75003e+2, 2.5452864e+2, -427355.3, -482719.94, -13004.113, -0.047829557, 0.15577216, -424453.03, 21179.754, 0.0, 10.000301, 9.999564 
8.750019e+2, 2.6452798e+2, -357732.72, -469364.0, -19654.934, -0.060232773, 0.16451104, -354373.2, -6733.5396, 0.0, 10.000413, 9.998928 
8.750012e+2, 2.7452677e+2, -257678.48, -371603.28, -24616.172, -0.02243805, 0.14888164, -252587.11, -2934.3586, 0.0, 10.000432, 9.998918 
8.7500036e+2, 2.8452575e+2, -151749.83, -298715.3, -12475.745, -0.019984346, 0.16894197, -150698.3, 964.8059, 0.0, 10.00061, 9.99866 
8.7499917e+2, 2.9452488e+2, 688.18604, -175960.1, -192.27133, -0.06518415, 0.21205057, 688.3953, 54359.84, 0.0, 10.000991, 9.998646 
8.749983e+2, 3.0452225e+2, -3011.7124, -218430.02, 1203.129, -0.08537869, 0.1162442, -3004.9932, -3004.9932, 0.00000006425192, 10.000915, 9.998056 
8.7499857e+2, 3.1452137e+2, 8670.472, -33177.145, -18101.104, 0.015779696, 0.21575597, 15413.533, 15413.533, 0.0000011924308, 10.000219, 9.999663 
8.850139e+2, 1.2453229e+2, -1732596.6, -1707163.9, 55655.395, 0.07681759, 0.12647864, -1662790.6, 56804.31, 0.00000006865043, 9.999812, 10.000142 
8.8501245e+2, 1.3453184e+2, -1613388.8, -1626908.1, -13128.988, 0.03401042, 0.09000649, -1605381.5, 16217.735, 0.0, 10.000074, 9.999897 
8.850107e+2, 1.4453152e+2, -1515773.0, -1548735.0, 8837.139, -0.043238908, 0.08037679, -1513553.3, 10049.427, 0.0, 10.0001545, 9.99972 
8.850115e+2, 1.545318e+2, -1428619.8, -1452701.9, 9082.506, 0.06217478, 0.12932064, -1425578.4, 22.333546, 0.0, 10.000069, 9.999746 
8.8501114e+2, 1.645318e+2, -1321824.0, -1346224.4, 4567.782, 0.067011364, 0.15220438, -1320997.0, 6604.3696, 0.0, 10.00011, 9.9997835 
8.850097e+2, 1.745315e+2, -1195480.5, -1233842.1, 8545.935, -0.02767686, 0.14198914, -1193662.8, 35941.92, 0.0, 10.0003, 9.999791 
8.85009e+2, 1.8453129e+2, -1084462.9, -1128074.0, -916.41565, -0.04223704, 0.14109999, -1084443.6, 47163.477, 0.0, 10.000381, 9.999805 
8.85009e+2, 1.9453114e+2, -991362.9, -1029742.56, -6922.4224, 0.029908765, 0.14231929, -990152.5, 43455.883, 0.0, 10.000339, 9.999828 
8.850083e+2, 2.0453091e+2, -906605.1, -953063.56, -5020.946, 0.031407338, 0.14245993, -906068.7, 29541.717, 0.0, 10.000313, 9.999694 
8.8500684e+2, 2.1453054e+2, -808704.6, -853253.94, 12.313602, -0.048910506, 0.13289554, -808704.6, 28908.74, 0.0, 10.000304, 9.99971 
8.850059e+2, 2.2453015e+2, -717015.7, -772319.8, -9686.991, -0.06435982, 0.12867385, -715368.0, 24249.295, 0.0, 10.000321, 9.999586 
8.8500553e+2, 2.345297e+2, -610026.4, -668126.4, -14990.817, -0.0024914711, 0.12311081, -606386.5, 35235.82, 0.0, 10.000375, 9.999602 
8.850047e+2, 2.445294e+2, -509074.1, -580505.44, -12791.241, 0.0028169756, 0.13794073, -506852.66, 36772.97, 0.0, 10.000446, 9.9994955 
8.850032e+2, 2.5452924e+2, -396389.9, -473768.16, -16342.903, -0.061406717, 0.16766122, -393079.78, 52547.324, 0.0, 10.00054, 9.99951 
8.8500226e+2, 2.6452848e+2, -345223.34, -471519.63, -27337.516, -0.06929512, 0.17067151, -339559.94, 8075.1733, 0.0, 10.000535, 9.998856 
8.850018e+2, 2.7452698e+2, -264392.13, -382936.3, -28735.361, -0.0073823803, 0.13567328, -257793.88, -8143.01, 0.0, 10.000422, 9.998844 
8.8500106e+2, 2.8452596e+2, -172070.44, -293876.47, -8369.814, -0.0019375895, 0.15493673, -171498.0, -19837.281, 0.0, 10.000409, 9.998789 
8.849999e+2, 2.9452544e+2, -61778.28, -190639.27, -8487.158, -0.06738318, 0.21957886, -61221.695, -7556.8574, 0.0, 10.000494, 9.998784 
8.849991e+2, 3.0452266e+2, -37072.25, -241360.31, -15001.88, -0.0884092, 0.103436686, -35976.465, -35976.465, 0.00000010587227, 10.000708, 9.997999 
8.8499933e+2, 3.145214e+2, 113298.31, -13284.649, -12123.486, 0.026281301, 0.17354038, 114448.98, 114448.98, 0.0000015115112, 10.00107, 9.999391 
8.95013e+2, 1.2453264e+2, -1735137.6, -1712529.8, 61581.457, 0.007857398, 0.08407742, -1661223.3, 58368.1, 0.00000033567557, 9.999812, 10.000105 
8.9501303e+2, 1.3453348e+2, -1613978.1, -1628507.3, -3202.6516, 0.08850778, 0.17653763, -1613303.4, 8280.71, 0.00000000007521531, 10.000075, 9.999885 
8.950117e+2, 1.4453332e+2, -1521785.4, -1563750.9, 3898.411, 0.034039114, 0.18655208, -1521426.4, 2160.242, 0.0, 10.000164, 9.999613 
8.9501107e+2, 1.5453242e+2, -1437576.5, -1471618.8, 5820.7144, 0.0145458365, 0.13314348, -1436608.9, -11012.994, 0.0, 10.000069, 9.999617 
8.9501053e+2, 1.6453199e+2, -1315780.6, -1333572.9, 11036.9795, 0.0043691033, 0.116066426, -1310500.9, 17099.352, 0.0, 10.000109, 9.999871 
8.950105e+2, 1.7453209e+2, -1187811.3, -1218152.0, 15866.738, 0.018771438, 0.13337903, -1181029.6, 48569.242, 0.0, 10.0003, 9.999899 
8.950099e+2, 1.8453208e+2, -1093667.0, -1147410.8, -3212.7031, 0.013017339, 0.15409951, -1093475.6, 38123.523, 0.0, 10.000381, 9.999673 
8.950088e+2, 1.9453195e+2, -1001123.44, -1050448.8, -8999.884, -0.02088622, 0.17090406, -999532.6, 34068.684, 0.0, 10.0003395, 9.999685 
8.9500797e+2, 2.0453158e+2, -897746.25, -934457.44, -6695.531, -0.029432647, 0.15995628, -896563.2, 39041.316, 0.0, 10.000311, 9.999823 
8.9500755e+2, 2.1453093e+2, -799248.0, -833003.7, -699.07556, -0.0051345364, 0.106806405, -799233.5, 38375.508, 0.0, 10.0003, 9.999851 
8.950068e+2, 2.2453046e+2, -723607.6, -785743.75, -8858.226, -0.011390024, 0.091755755, -722369.44, 17243.748, 0.0, 10.000319, 9.9994955 
8.9500535e+2, 2.3453023e+2, -617269.75, -683283.2, -12772.385, -0.056361895, 0.11601924, -614884.75, 26732.137, 0.0, 10.000374, 9.999498 
8.950044e+2, 2.4452995e+2, -515965.88, -594990.9, -9650.81, -0.06988663, 0.14532077, -514804.34, 28815.713, 0.0, 10.000446, 9.999396 
8.95004e+2, 2.5452963e+2, -403270.72, -487329.44, -12228.801, -0.0438765, 0.16819698, -401527.8, 44095.246, 0.0, 10.000536, 9.999419 
8.9500314e+2, 2.6452866e+2, -345742.16, -472228.53, -31932.305, -0.03412374, 0.15596665, -338137.8, 9494.843, 0.0, 10.000532, 9.998852 
8.950018e+2, 2.7452692e+2, -265499.9, -384011.84, -32215.732, -0.044766087, 0.097560324, -257308.69, -7658.6167, 0.0, 10.000416, 9.99884 
8.9500105e+2, 2.8452593e+2, -174294.9, -297474.13, -4529.076, -0.041137177, 0.117969446, -174128.61, -22468.824, 0.0, 10.000403, 9.998768 
8.950009e+2, 2.945257e+2, -63630.316, -193757.05, -3486.8076, -0.020795146, 0.21635988, -63536.953, -9875.6455, 0.0, 10.00049, 9.998765 
8.9500034e+2, 3.045229e+2, -19674.277, -204481.53, -2167.5635, -0.029961059, 0.083219334, -19648.86, -19648.86, 0.00000013409642, 10.000704, 9.998255 
8.950001e+2, 3.145212e+2, 115225.85, -5531.414, 2558.0605, -0.0050202985, 0.08417439, 115280.016, 115280.016, 0.0000016978646, 10.001055, 9.999451 
9.0501285e+2, 1.24533094e+2, -1709829.4, -1715015.0, 40573.367, 0.0025544078, 0.08686003, -1671766.0, 47821.1, 0.0000010657902, 10.000045, 9.999978 
9.0501326e+2, 1.3453394e+2, -1624786.8, -1643186.0, -28706.23, 0.101950794, 0.18814212, -1603842.0, 17738.361, 0.000000007369457, 10.000042, 9.999801 
9.05012e+2, 1.4453375e+2, -1524089.5, -1558855.1, -20763.443, 0.050729644, 0.19725138, -1514393.1, 9190.116, 0.0, 10.000126, 9.999663 
9.05011e+2, 1.5453291e+2, -1397386.6, -1446964.3, -7392.624, -0.007871005, 0.14416012, -1396307.8, 29284.098, 0.0, 10.00032, 9.999665 
9.050106e+2, 1.6453247e+2, -1287191.5, -1317583.6, 356.33762, -0.020303762, 0.12367386, -1287187.4, 40408.574, 0.0, 10.000296, 9.999891 
9.0501076e+2, 1.7453252e+2, -1226373.4, -1233346.6, -2389.0986, 0.03114326, 0.13380788, -1225633.4, 3961.2727, 0.0, 10.000024, 9.999927 
9.0501034e+2, 1.8453246e+2, -1145781.1, -1170222.8, -12078.071, 0.03051353, 0.14741598, -1140819.6, -9224.376, 0.0, 10.000017, 9.999691 
9.0500903e+2, 1.9453229e+2, -1002303.3, -1049765.8, -6169.191, -0.03492765, 0.15747926, -1001514.5, 32083.701, 0.0, 10.000326, 9.999697 
9.0500826e+2, 2.0453201e+2, -873719.56, -912150.56, -5861.453, -0.0459376, 0.15045862, -872845.5, 62755.117, 0.0, 10.00043, 9.999919 
9.05008e+2, 2.1453163e+2, -794298.3, -819496.4, -4939.056, 0.00866119, 0.11485608, -793364.8, 44237.49, 0.0, 10.000287, 9.99995 
9.050072e+2, 2.2453122e+2, -730350.6, -796964.6, -6227.3027, 0.0047826776, 0.10471634, -729773.44, 9832.295, 0.0, 10.000308, 9.999423 
9.050057e+2, 2.3453079e+2, -600351.0, -683974.9, -9118.85, -0.070912786, 0.11783403, -599368.2, 42243.008, 0.0, 10.000529, 9.999418 
9.0500474e+2, 2.4453034e+2, -510774.06, -605498.06, -12737.214, -0.08598288, 0.13733989, -509091.22, 34525.09, 0.0, 10.000539, 9.99928 
9.050045e+2, 2.545298e+2, -446998.66, -521747.0, -18707.701, -0.027136484, 0.15237826, -442578.03, 3043.394, 0.0, 10.000294, 9.999299 
9.050037e+2, 2.645288e+2, -374181.84, -475192.03, -29551.04, -0.014534017, 0.14034623, -366171.72, -18540.77, 0.0, 10.000292, 9.998947 
9.050022e+2, 2.7452728e+2, -234063.72, -357071.25, -22759.451, -0.05789109, 0.09194397, -229987.72, 19657.889, 0.0, 10.000581, 9.998946 
9.050014e+2, 2.8452632e+2, -143905.25, -297445.97, 2100.8386, -0.057360217, 0.114697, -143876.52, 7778.708, 0.0, 10.000674, 9.998638 
9.050015e+2, 2.945259e+2, -68113.484, -210775.33, -7306.588, -0.004694262, 0.20594363, -67740.25, -14080.435, 0.0, 10.000525, 9.9986315 
9.0500116e+2, 3.0452317e+2, -36825.99, -162407.19, 2711.218, -0.00060812104, 0.06800184, -36767.484, -36767.484, 0.0000001316986, 10.000371, 9.998703 
9.0500087e+2, 3.1452194e+2, 7875.729, -29416.553, 20039.428, 0.0056071174, 0.07138271, 16602.15, 16602.15, 0.0000016698094, 10.000194, 9.999703 
9.150134e+2, 1.2453371e+2, -1718554.1, -1738045.1, 37278.543, 0.049219906, 0.13747537, -1689768.3, 29813.19, 0.000002613721, 10.000064, 9.999811 
9.1501296e+2, 1.3453329e+2, -1634540.4, -1662470.4, -29260.3, 0.06862119, 0.1241478, -1616083.4, 5503.9683, 0.00000007607973, 10.000037, 9.999671 
9.150116e+2, 1.4453289e+2, -1511666.4, -1532248.3, -13766.125, -0.0007107089, 0.11076238, -1504769.9, 18822.328, 0.0, 10.000121, 9.999848 
9.1501135e+2, 1.5453331e+2, -1382583.9, -1416521.4, 648.81964, -0.00729742, 0.16324922, -1382571.5, 43016.617, 0.0, 10.000322, 9.999873 
9.150109e+2, 1.6453332e+2, -1289476.8, -1324326.3, -10391.356, -0.008895039, 0.17822789, -1286613.5, 40974.44, 0.0, 10.000302, 9.999844 
9.150106e+2, 1.7453285e+2, -1230419.8, -1242261.6, -12953.655, 0.00742346, 0.14416707, -1222098.0, 7493.7773, 0.0, 10.000026, 9.999866 
9.150101e+2, 1.845325e+2, -1134410.4, -1146100.1, -2389.7305, 0.0076915515, 0.12082879, -1133940.8, -2345.4116, 0.0, 10.000014, 9.999858 
9.150095e+2, 1.9453219e+2, -990519.3, -1024622.44, 5244.4424, -0.014917872, 0.10177783, -989731.0, 43867.645, 0.0, 10.000323, 9.999871 
9.150089e+2, 2.0453222e+2, -870917.6, -905805.06, -11550.603, -0.021767791, 0.11463212, -867440.1, 68158.02, 0.0, 10.000426, 9.999965 
9.150081e+2, 2.1453266e+2, -791256.44, -812999.4, -10699.414, -0.009038664, 0.15667251, -786874.5, 50718.383, 0.0, 10.000286, 9.999996 
9.1500735e+2, 2.2453244e+2, -734555.8, -805823.3, 338.35202, -0.016543912, 0.16666915, -734554.25, 5040.457, 0.0, 10.000308, 9.999363 
9.1500646e+2, 2.3453145e+2, -605068.7, -693209.06, -633.64343, -0.047991205, 0.12928902, -605064.1, 36540.78, 0.0, 10.000526, 9.999357 
9.150057e+2, 2.4453056e+2, -520306.63, -625074.6, -21660.297, -0.049044732, 0.11552832, -516005.06, 27608.926, 0.0, 10.000537, 9.999146 
9.15005e+2, 2.5452977e+2, -457568.72, -543178.4, -27451.27, -0.013704351, 0.12088452, -449522.53, -3900.6956, 0.0, 10.000291, 9.999154 
9.150041e+2, 2.6452896e+2, -361241.88, -448119.8, -19369.604, -0.012149248, 0.123641066, -357119.06, -9489.336, 0.0, 10.00029, 9.999134 
9.150029e+2, 2.745281e+2, -219854.08, -327075.2, -10665.3545, -0.050847635, 0.11841254, -218803.48, 30833.873, 0.0, 10.000577, 9.999154 
9.150021e+2, 2.8452712e+2, -161666.6, -332903.5, -3305.2898, -0.05580803, 0.14538883, -161602.83, -9955.899, 0.0, 10.000669, 9.998398 
9.1500187e+2, 2.9452598e+2, -87562.81, -248701.53, -11916.062, -0.020716365, 0.18894584, -86686.4, -33026.234, 0.0, 10.000515, 9.998376 
9.150016e+2, 3.045235e+2, 7579.739, -68637.516, -3382.342, -0.00081029104, 0.05799877, 7729.5444, 7729.5444, 0.00000009563079, 10.000362, 9.9993515 
9.1500145e+2, 3.145236e+2, 40369.965, 39618.516, 15763.49, 0.04789667, 0.12527439, 55762.207, 55762.207, 0.0000014046396, 10.000187, 10.00018 
9.2501366e+2, 1.2453402e+2, -1699494.1, -1737897.8, 58393.496, 0.06583232, 0.1316361, -1657226.4, 62351.51, 0.0000053718704, 10.000239, 9.999725 
9.250129e+2, 1.3453345e+2, -1612860.0, -1658949.0, -4227.889, 0.049505934, 0.11135946, -1612475.4, 9109.961, 0.00000033393198, 10.0002165, 9.999608 
9.250116e+2, 1.4453296e+2, -1503199.0, -1523973.0, 13651.262, -0.016138462, 0.090187214, -1496432.4, 27158.738, 0.0, 10.000162, 9.999885 
9.2501163e+2, 1.5453349e+2, -1413329.3, -1425545.3, 14121.943, 0.0037205587, 0.14881115, -1404051.0, 21534.865, 0.0, 10.000089, 9.999922 
9.250113e+2, 1.6453363e+2, -1321631.6, -1335046.9, -5545.9033, 0.0055591785, 0.1719498, -1319635.9, 7948.6196, 0.0, 10.000066, 9.999882 
9.250105e+2, 1.7453332e+2, -1215313.9, -1231272.9, -1660.4938, -0.002764093, 0.15011768, -1215143.0, 14444.213, 0.0, 10.000114, 9.999898 
9.2501e+2, 1.8453299e+2, -1121841.1, -1132879.0, 16432.576, -0.0035415413, 0.12719658, -1110025.5, 21564.777, 0.0, 10.000071, 9.999922 
9.250098e+2, 1.9453263e+2, -1044730.9, -1042935.75, 14617.196, -0.000916739, 0.09507001, -1029188.56, 4405.379, 0.0, 9.999919, 9.999939 
9.250092e+2, 2.0453271e+2, -930836.7, -936216.94, -5622.866, -0.010064791, 0.108925454, -927293.56, 8299.6, 0.0, 10.000023, 9.999949 
9.2500824e+2, 2.1453331e+2, -770860.9, -805673.44, -10421.254, -0.032565746, 0.16919567, -767979.7, 69607.24, 0.0, 10.000437, 9.999973 
9.250075e+2, 2.2453314e+2, -699521.7, -789355.2, -4545.297, -0.041273557, 0.18512449, -699292.3, 40296.273, 0.0, 10.000551, 9.999358 
9.2500705e+2, 2.3453204e+2, -637766.3, -709224.56, -3258.6702, -0.033161692, 0.138587, -637618.06, 3981.5251, 0.0, 10.000304, 9.999354 
9.2500633e+2, 2.4453112e+2, -564487.5, -642495.4, -17603.203, -0.020713616, 0.119641416, -560699.2, -17090.385, 0.0, 10.000217, 9.999181 
9.250054e+2, 2.545304e+2, -448276.44, -534665.1, -11166.983, -0.003773694, 0.12609145, -446856.28, -1240.3512, 0.0, 10.000338, 9.99919 
9.250045e+2, 2.6452953e+2, -346574.38, -449996.63, 3928.4165, -0.008202686, 0.12916745, -346425.38, 1198.5726, 0.0, 10.000428, 9.999055 
9.250035e+2, 2.745286e+2, -240941.48, -346353.25, -9782.139, -0.037839465, 0.122893155, -240041.39, 9591.369, 0.0, 10.000472, 9.999072 
9.250028e+2, 2.8452763e+2, -187766.3, -335080.4, -11434.845, -0.041756056, 0.1479923, -186883.98, -35241.375, 0.0, 10.000445, 9.99849 
9.250024e+2, 2.9452655e+2, -106367.88, -246407.17, 4362.185, -0.01421469, 0.19009715, -106232.13, -52577.2, 0.0, 10.000336, 9.998479 
9.25002e+2, 3.0452436e+2, 8352.445, -62061.434, 10943.289, 0.0022680333, 0.07863682, 10013.978, 10013.978, 0.00000004550982, 10.000341, 9.999408 
9.2500174e+2, 3.1452465e+2, 73149.68, 40921.105, -19033.572, 0.04405164, 0.16130212, 81974.26, 81974.26, 0.0000009683944, 10.000475, 10.0000515 
9.350136e+2, 1.2453403e+2, -1702317.8, -1742430.5, 56550.496, 0.035165932, 0.06301619, -1662372.4, 57203.758, 0.000009857008, 10.000233, 9.999697 
9.3501306e+2, 1.3453457e+2, -1613196.6, -1660825.4, -4237.838, 0.042178318, 0.1526672, -1612822.5, 8750.875, 0.0000009955157, 10.000223, 9.999592 
9.35012e+2, 1.4453408e+2, -1508294.3, -1538873.3, 9709.682, 0.0021511249, 0.14037552, -1505471.8, 18107.4, 0.00000000002439963, 10.000178, 9.999776 
9.35012e+2, 1.5453354e+2, -1421602.3, -1442897.4, 11266.984, 0.022377912, 0.10196348, -1416747.6, 8836.648, 0.0, 10.000089, 9.9998045 
9.3501145e+2, 1.6453347e+2, -1313488.6, -1317305.4, -4679.7524, 0.0192368, 0.104753755, -1310343.1, 17241.943, 0.0, 10.000062, 10.000005 
9.350106e+2, 1.7453398e+2, -1206605.0, -1212518.5, 242.84604, -0.0022103274, 0.1511117, -1206595.1, 22985.256, 0.0, 10.000112, 10.000028 
9.350101e+2, 1.8453407e+2, -1125858.1, -1141106.9, 10202.741, -0.0069106244, 0.167266, -1120745.8, 10833.931, 0.0, 10.000069, 9.999867 
9.350098e+2, 1.9453369e+2, -1048198.6, -1050539.3, 8528.169, 0.0057343743, 0.1374966, -1040760.9, -7177.159, 0.0, 9.99992, 9.999887 
9.3500924e+2, 2.0453352e+2, -936277.44, -947928.6, 7562.9175, -0.011750043, 0.13336582, -932556.56, 3028.8022, 0.0, 10.000024, 9.999869 
9.3500835e+2, 2.1453363e+2, -777368.1, -818408.8, 4876.3555, -0.06432443, 0.15323384, -776796.7, 60787.35, 0.0, 10.000433, 9.999888 
9.3500775e+2, 2.2453335e+2, -697090.44, -783655.2, -13815.759, -0.0726613, 0.16133042, -694938.94, 44647.965, 0.0, 10.000547, 9.999399 
9.350074e+2, 2.3453262e+2, -635002.25, -702798.3, -12639.292, -0.028476795, 0.14614312, -632722.5, 8872.198, 0.0, 10.0003, 9.9994 
9.3500674e+2, 2.4453205e+2, -550641.25, -613830.6, -14392.109, -0.0026341747, 0.15005004, -547517.7, -3917.3015, 0.0, 10.0002165, 9.999378 
9.350058e+2, 2.5453162e+2, -433550.28, -504014.7, -5973.1616, 0.00030765592, 0.1671818, -433047.53, 12556.005, 0.0, 10.000336, 9.999403 
9.3500495e+2, 2.645306e+2, -370863.34, -499573.7, 5615.5703, -0.005712525, 0.15611789, -370618.78, -23005.283, 0.0, 10.000424, 9.998716 
9.350042e+2, 2.745288e+2, -267924.34, -401027.34, -7309.103, -0.021712998, 0.10539323, -267524.2, -17892.625, 0.0, 10.000466, 9.9987 
9.350035e+2, 2.8452778e+2, -158612.3, -274054.06, -15359.861, -0.017842216, 0.12318948, -156603.58, -4961.592, 0.0, 10.000442, 9.998912 
9.350029e+2, 2.9452762e+2, -74502.05, -179768.2, 1592.6854, 0.00901763, 0.21013486, -74477.96, -20834.156, 0.0, 10.000332, 9.998939 
9.350023e+2, 3.0452573e+2, -31187.94, -141962.27, 15158.801, 0.0024957664, 0.13004848, -29151.004, -29151.004, 0.000000010385675, 10.000333, 9.998863 
9.3500173e+2, 3.1452504e+2, 18727.865, -67181.48, -11708.89, -0.0127914, 0.17056479, 20295.12, 20295.12, 0.00000050425, 10.000455, 9.999318 
9.450139e+2, 1.2453449e+2, -1691747.9, -1735508.6, 34281.99, 0.029079573, 0.0690452, -1672958.8, 46613.105, 0.000016753027, 10.000298, 9.999715 
9.4501317e+2, 1.3453509e+2, -1619456.6, -1660678.5, -25511.09, 0.03861923, 0.16570891, -1607270.9, 14297.076, 0.000002343361, 10.000168, 9.999619 
9.450122e+2, 1.4453459e+2, -1518726.3, -1539874.4, -3035.4834, 0.013552806, 0.1457677, -1518299.3, 5274.6855, 0.0000000053592455, 10.000093, 9.999808 
9.450121e+2, 1.5453395e+2, -1417093.3, -1437123.1, 8949.47, 0.024770424, 0.09666204, -1413677.3, 11902.43, 0.0, 10.000106, 9.999835 
9.450116e+2, 1.6453385e+2, -1308808.5, -1317245.8, -3552.2441, 0.019277217, 0.096442185, -1307512.1, 20068.62, 0.0, 10.000104, 9.999985 
9.450107e+2, 1.7453441e+2, -1212266.5, -1217246.9, -11488.753, 0.0013651086, 0.14828306, -1203001.1, 26574.994, 0.0, 10.000082, 10.000009 
9.450102e+2, 1.8453456e+2, -1120165.4, -1136106.4, -5414.706, -0.0040095043, 0.17052236, -1118500.1, 13074.82, 0.0, 10.0001, 9.999885 
9.450098e+2, 1.9453427e+2, -1009797.7, -1030129.4, -2149.0273, 0.0024122067, 0.14845935, -1009573.0, 24004.785, 0.0, 10.000176, 9.999903 
9.4500935e+2, 2.0453404e+2, -917717.0, -944604.1, 8288.865, -0.01470981, 0.1397552, -915367.06, 20212.898, 0.0, 10.000176, 9.999818 
9.450087e+2, 2.145339e+2, -831818.06, -850644.0, 6742.7725, -0.05944243, 0.14016688, -829652.2, 7929.0107, 0.0, 10.000086, 9.999834 
9.450081e+2, 2.2453357e+2, -757917.4, -804304.6, -16783.445, -0.0656259, 0.1415497, -752481.9, -12897.235, 0.0, 10.000093, 9.9994755 
9.450076e+2, 2.3453301e+2, -640401.1, -696581.3, -14338.417, -0.026548529, 0.13594125, -636953.25, 4637.43, 0.0, 10.000225, 9.999479 
9.4500697e+2, 2.4453257e+2, -528833.2, -604778.9, -14329.921, -0.0056764483, 0.15096298, -526219.3, 17375.71, 0.0, 10.000373, 9.999366 
9.4500613e+2, 2.5453228e+2, -406315.16, -492537.72, -24169.445, -0.0068036467, 0.18008347, -400002.3, 45595.207, 0.0, 10.000531, 9.999387 
9.4500536e+2, 2.6453122e+2, -359034.34, -494487.16, -17783.576, -0.005800754, 0.1697198, -356738.44, -9130.743, 0.0, 10.000509, 9.998711 
9.4500476e+2, 2.7452934e+2, -294422.78, -414179.9, -4479.3267, -0.0014281692, 0.10700752, -294255.47, -44628.55, 0.0, 10.000286, 9.998696 
9.450041e+2, 2.8452823e+2, -179679.1, -285869.47, -5881.394, 0.0028025096, 0.119808, -179354.34, -27716.521, 0.0, 10.000304, 9.998897 
9.4500333e+2, 2.945281e+2, -37617.234, -163458.4, -25294.598, 0.0063351174, 0.21213683, -32723.244, 20915.85, 0.0, 10.000592, 9.998926 
9.450027e+2, 3.0452627e+2, 5874.9043, -134462.78, -17965.549, -0.005887797, 0.14569274, 8138.2876, 8138.2876, 0.00000000032400083, 10.000632, 9.998771 
9.4500214e+2, 3.1452528e+2, -7044.7354, -104438.58, -11553.835, -0.0106134545, 0.16425109, -5692.868, -5692.868, 0.00000016973306, 10.000385, 9.999096 
9.5501417e+2, 1.2453547e+2, -1683920.3, -1724527.6, 26978.15, 0.029395778, 0.15231976, -1670459.1, 49105.137, 0.00002677623, 10.000318, 9.999781 
9.550134e+2, 1.3453516e+2, -1615396.8, -1651918.9, -30367.182, 0.036542676, 0.15088566, -1598222.9, 23345.23, 0.0000047533053, 10.000164, 9.999681 
9.550123e+2, 1.445345e+2, -1507784.0, -1515848.1, -3248.5356, 0.014689391, 0.10545177, -1506638.1, 16936.555, 0.000000046136613, 10.000088, 9.999976 
9.55012e+2, 1.5453482e+2, -1405154.4, -1412196.6, 9996.887, 0.007890747, 0.13273084, -1398076.6, 27494.428, 0.0, 10.000105, 10.000007 
9.550115e+2, 1.6453488e+2, -1320080.0, -1341551.5, -4699.55, 0.0017980583, 0.14804712, -1319096.5, 8474.233, 0.0, 10.000106, 9.999818 
9.5501095e+2, 1.7453466e+2, -1224297.6, -1242871.4, -12133.647, 0.006337511, 0.14237629, -1218304.8, 11269.151, 0.0, 10.000084, 9.999832 
9.550103e+2, 1.8453452e+2, -1114200.9, -1123971.3, -3854.0156, 0.0028016209, 0.13811094, -1112863.6, 18712.023, 0.0, 10.000101, 9.999969 
9.550098e+2, 1.9453444e+2, -1003897.25, -1017260.3, 317.81628, -0.013076262, 0.12909992, -1003889.75, 29685.98, 0.0, 10.000174, 9.999993 
9.550094e+2, 2.0453434e+2, -920380.3, -949709.06, 3910.613, -0.021679152, 0.12878734, -919867.8, 15708.61, 0.0, 10.000174, 9.999785 
9.5500916e+2, 2.1453416e+2, -834454.5, -855511.2, 2913.422, -0.020173196, 0.12987727, -834058.8, 3519.2505, 0.0, 10.000083, 9.999802 
9.550087e+2, 2.2453381e+2, -750516.8, -788715.94, -13517.134, -0.022204071, 0.12599815, -746217.56, -6636.037, 0.0, 10.000092, 9.999584 
9.550078e+2, 2.3453325e+2, -632133.9, -679301.75, -9165.339, -0.029427242, 0.10762054, -630415.5, 11171.52, 0.0, 10.000224, 9.999599 
9.550071e+2, 2.4453276e+2, -545275.9, -638657.6, -8697.257, -0.031892844, 0.12182821, -544472.75, -880.41455, 0.0, 10.000371, 9.999134 
9.550065e+2, 2.5453234e+2, -424851.1, -529874.8, -17728.037, -0.028249322, 0.16611749, -421939.3, 23658.133, 0.0, 10.000525, 9.999133 
9.550059e+2, 2.645315e+2, -336108.53, -446781.75, -25890.893, -0.011487184, 0.17233709, -330351.13, 17254.953, 0.0, 10.000507, 9.99904 
9.550052e+2, 2.745301e+2, -269083.3, -361443.16, -12040.603, 0.019839363, 0.12786447, -267539.44, -17920.84, 0.0, 10.000284, 9.999061 
9.550045e+2, 2.84529e+2, -212063.25, -351726.6, 4298.708, 0.01732694, 0.13647357, -211931.06, -60301.047, 0.0, 10.0002985, 9.998447 
9.550037e+2, 2.94528e+2, -73315.65, -235048.4, -12848.042, -0.02619083, 0.19423041, -72301.36, -18660.635, 0.0, 10.000582, 9.99844 
9.5500314e+2, 3.045261e+2, 29418.209, -84082.48, -26418.645, -0.026720926, 0.12525152, 35266.16, 35266.16, 0.0, 10.000624, 9.999122 
9.55003e+2, 3.1452546e+2, 11612.059, -62843.58, -18127.59, 0.04137138, 0.14315982, 15791.003, 15791.003, 0.000000027453995, 10.000372, 9.999388 
9.6501434e+2, 1.24535576e+2, -1724553.8, -1726230.8, 23608.162, 0.030865408, 0.15802349, -1701769.3, 17794.662, 0.000040530904, 9.999966, 9.999936 
9.650135e+2, 1.3453525e+2, -1603577.0, -1627548.6, -26326.17, 0.0327322, 0.1375857, -1586636.6, 34930.496, 0.000008656152, 10.000167, 9.9998455 
9.6501255e+2, 1.4453468e+2, -1483324.3, -1493785.9, -166.8405, 0.02268424, 0.08770765, -1483321.6, 40250.934, 0.00000019058375, 10.000213, 10.000066 
9.65012e+2, 1.5453532e+2, -1409455.3, -1404404.9, 4068.2861, 0.0014778879, 0.1388832, -1402141.8, 23424.086, 0.0, 10.000033, 10.000093 
9.650115e+2, 1.6453545e+2, -1339578.1, -1354176.3, -3023.6077, -0.008220457, 0.15731795, -1338976.6, -11411.761, 0.0, 9.999988, 9.999787 
9.65011e+2, 1.7453499e+2, -1220692.1, -1244540.3, 200.03386, 0.0033852146, 0.13081025, -1220690.4, 8879.761, 0.0, 10.000125, 9.999801 
9.650105e+2, 1.8453474e+2, -1106511.6, -1126402.9, 8375.093, 0.0027690257, 0.12101599, -1103455.0, 28117.953, 0.0, 10.000181, 9.999912 
9.650099e+2, 1.9453473e+2, -1012847.44, -1027751.8, 547.24536, -0.015761334, 0.12440571, -1012827.4, 20745.19, 0.0, 10.000139, 9.999937 
9.6500957e+2, 2.0453463e+2, -929438.4, -953825.25, -1493.3209, -0.01917134, 0.12962322, -929347.25, 6225.9697, 0.0, 10.000113, 9.999785 
9.650094e+2, 2.1453446e+2, -830784.7, -853627.56, -914.4342, -0.0038975838, 0.12784824, -830748.1, 6826.97, 0.0, 10.000108, 9.999803 
9.650089e+2, 2.2453412e+2, -742281.6, -783984.6, -13248.161, -0.0073255594, 0.12578054, -738428.94, 1149.4014, 0.0, 10.000145, 9.999591 
9.65008e+2, 2.3453364e+2, -630993.1, -677540.8, -18671.344, -0.034435693, 0.11391682, -624429.25, 17153.871, 0.0, 10.000228, 9.999609 
9.650073e+2, 2.4453308e+2, -565500.56, -651481.4, -17260.744, -0.038324848, 0.12263576, -562164.9, -18575.766, 0.0, 10.000247, 9.9991045 
9.6500695e+2, 2.5453246e+2, -474714.34, -557218.0, -10320.826, -0.014146696, 0.14870168, -473442.84, -27846.389, 0.0, 10.000199, 9.999103 
9.6500635e+2, 2.6453164e+2, -360147.6, -449446.97, -18677.367, 0.001105167, 0.15672155, -356398.53, -8793.764, 0.0, 10.000305, 9.99912 
9.650055e+2, 2.7453062e+2, -220567.4, -328541.94, -27074.348, 0.0052666757, 0.13737996, -214158.92, 35455.03, 0.0, 10.000577, 9.9991455 
9.6500486e+2, 2.845295e+2, -159114.94, -331254.72, -3869.6165, 0.0029146916, 0.14938015, -159028.0, -7403.166, 0.0, 10.000684, 9.998403 
9.6500444e+2, 2.9452828e+2, -71861.54, -239894.66, 9835.48, -0.00687349, 0.18479185, -71287.805, -17649.504, 0.0, 10.000616, 9.998389 
9.650039e+2, 3.045264e+2, 22946.637, -78525.77, -5518.468, -0.005386849, 0.11953414, 23245.871, 23245.871, 0.0, 10.000545, 9.999197 
9.650033e+2, 3.1452587e+2, 23376.164, -55379.938, -21758.95, 0.023062946, 0.1408156, 28987.92, 28987.92, 0.00000000015790982, 10.000446, 9.999404 
9.7501415e+2, 1.2453485e+2, -1707572.4, -1690270.0, 31168.023, 0.015213185, 0.080702975, -1666574.8, 52995.64, 0.000058506626, 9.999962, 10.000185 
9.7501355e+2, 1.3453546e+2, -1584318.8, -1588481.8, -17232.078, 0.022986839, 0.12642786, -1569042.9, 52521.117, 0.00001444443, 10.000171, 10.000113 
9.750129e+2, 1.4453518e+2, -1482851.6, -1493747.0, -6049.2373, 0.03228905, 0.093650416, -1480158.6, 43407.75, 0.0000005546723, 10.0002165, 10.000066 
9.7501206e+2, 1.5453552e+2, -1410329.3, -1406094.4, -2297.8772, 0.003713696, 0.11589959, -1405087.1, 20476.092, 0.0, 10.000032, 10.000083 
9.750114e+2, 1.6453561e+2, -1332143.4, -1338735.8, 637.5233, -0.013555435, 0.12554234, -1332082.3, -4519.7446, 0.0, 9.999987, 9.999894 
9.75011e+2, 1.7453542e+2, -1213194.9, -1228715.0, 5320.6333, -0.009721339, 0.11453404, -1211546.0, 18018.412, 0.0, 10.000123, 9.99991 
9.750106e+2, 1.8453528e+2, -1120208.4, -1154591.8, 6184.81, -0.007371858, 0.119029395, -1119129.8, 12436.534, 0.0, 10.000179, 9.999721 
9.750102e+2, 1.9453518e+2, -1027154.56, -1057369.1, -1283.1733, -0.0075028506, 0.13373011, -1027100.2, 6467.816, 0.0, 10.000138, 9.999734 
9.750098e+2, 2.0453504e+2, -927540.44, -949994.25, -3132.1912, -0.009602342, 0.14212638, -927111.7, 8458.164, 0.0, 10.000112, 9.999812 
9.7500944e+2, 2.1453482e+2, -828402.9, -848196.1, -1519.2328, -0.012874872, 0.1348954, -828286.94, 9284.854, 0.0, 10.000106, 9.999842 
9.750089e+2, 2.2453454e+2, -749841.06, -799341.0, -11479.824, -0.023428606, 0.14120086, -747308.3, -7733.679, 0.0, 10.000143, 9.999487 
9.750082e+2, 2.345342e+2, -639397.9, -694028.2, -15610.279, -0.04339993, 0.1558567, -635252.0, 6326.4263, 0.0, 10.000223, 9.999497 
9.750077e+2, 2.445336e+2, -553586.5, -626362.2, -19591.31, -0.027021646, 0.15542129, -548647.6, -5062.8735, 0.0, 10.000244, 9.999279 
9.7500765e+2, 2.5453264e+2, -461162.9, -528970.56, -11646.7705, 0.032782484, 0.12675725, -459218.22, -13623.854, 0.0, 10.000197, 9.999298 
9.7500694e+2, 2.6453167e+2, -373132.0, -475744.94, -8490.921, 0.029646665, 0.120309316, -372434.16, -24830.375, 0.0, 10.000301, 9.99894 
9.7500557e+2, 2.745308e+2, -235104.73, -357777.22, -15531.347, -0.04911392, 0.13449544, -233168.88, 16443.932, 0.0, 10.000572, 9.998947 
9.7500515e+2, 2.8452986e+2, -135228.14, -281277.2, -6058.9, -0.044581674, 0.1600568, -134977.22, 16644.701, 0.0, 10.000681, 9.998748 
9.7500575e+2, 2.9452896e+2, -46393.387, -185593.14, 8542.192, 0.059676602, 0.18805456, -45871.14, 7760.199, 0.0, 10.000609, 9.998766 
9.750051e+2, 3.0452725e+2, 7062.1567, -109160.8, -9008.57, 0.05449373, 0.13107717, 7756.2754, 7756.2754, 0.0, 10.000533, 9.998993 
9.7500277e+2, 3.1452644e+2, 2161.2563, -94535.78, -22484.182, -0.074477434, 0.14443658, 7133.6313, 7133.6313, 0.0, 10.000424, 9.9991455 
9.8501426e+2, 1.24535315e+2, -1658089.4, -1670902.1, 73295.766, 0.016947217, 0.06612497, -1590920.5, 128644.484, 0.00008108169, 10.00032, 10.000145 
9.850134e+2, 1.3453592e+2, -1618693.5, -1611156.6, -761.93427, 0.0070723896, 0.11670025, -1611080.4, 10478.729, 0.000022462764, 9.99996, 10.000059 
9.8501295e+2, 1.4453563e+2, -1529264.6, -1516332.8, 3322.0242, 0.03239007, 0.08566441, -1515529.3, 8032.521, 0.0000013019285, 9.999898, 10.000064 
9.8501223e+2, 1.5453605e+2, -1390426.6, -1395346.5, 7664.3403, 0.006080544, 0.115681335, -1384837.1, 40720.62, 0.0, 10.000166, 10.000092 
9.850115e+2, 1.6453612e+2, -1294310.6, -1323586.3, 6574.2886, -0.012119999, 0.123664595, -1292902.0, 34655.07, 0.0, 10.000261, 9.999866 
9.8501104e+2, 1.7453575e+2, -1211488.3, -1231390.4, -519.5395, -0.01264045, 0.09813674, -1211474.6, 18085.686, 0.0, 10.00015, 9.99988 
9.8501074e+2, 1.8453553e+2, -1131622.5, -1165653.0, 1549.7721, -0.006939525, 0.09969583, -1131552.1, 10.642014, 0.0, 10.000124, 9.999671 
9.8501045e+2, 1.9453551e+2, -1020116.6, -1059396.1, 4820.7383, 0.0027409845, 0.12554292, -1019533.6, 14030.542, 0.0, 10.00021, 9.999687 
9.8501e+2, 2.0453537e+2, -917602.6, -952808.1, 4175.0137, -0.0051092, 0.14133483, -917114.3, 18451.924, 0.0, 10.000213, 9.999745 
9.850093e+2, 2.1453512e+2, -830419.56, -856625.6, -3143.549, -0.033616558, 0.13584231, -830047.75, 7521.2856, 0.0, 10.000124, 9.999775 
9.8500884e+2, 2.2453481e+2, -755158.44, -802093.9, -8332.121, -0.04325837, 0.14245178, -753723.2, -14150.849, 0.0, 10.00011, 9.999483 
9.850085e+2, 2.3453447e+2, -645069.0, -697286.75, -5365.262, -0.031017207, 0.15735485, -644523.44, -2947.456, 0.0, 10.000188, 9.999493 
9.850081e+2, 2.4453388e+2, -548320.1, -618475.3, -11657.214, -0.008140609, 0.15771124, -546433.9, -2851.8618, 0.0, 10.000259, 9.999327 
9.850078e+2, 2.5453293e+2, -441245.8, -513925.06, -16601.752, 0.026466168, 0.1290675, -437633.13, 7958.024, 0.0, 10.000312, 9.999346 
9.850072e+2, 2.6453203e+2, -362711.5, -470283.03, -6500.404, 0.018432522, 0.124565504, -362320.1, -14719.844, 0.0, 10.000372, 9.998943 
9.8500615e+2, 2.7453122e+2, -252099.22, -365485.4, 296.80545, -0.040792305, 0.14370397, -252098.44, -2489.4277, 0.0, 10.000457, 9.998949 
9.8500574e+2, 2.8453034e+2, -174126.23, -284926.88, -3373.927, -0.034313515, 0.16451475, -174023.6, -22405.7, 0.0, 10.000351, 9.998881 
9.850059e+2, 2.9452938e+2, -127838.0, -209393.13, -7589.179, 0.052020844, 0.17692755, -127137.8, -73510.74, 0.0, 9.999984, 9.998903 
9.850053e+2, 3.0452788e+2, -41960.125, -132102.78, -2726.008, 0.045457307, 0.13465649, -41877.766, -41877.766, 0.0, 10.0001955, 9.998997 
9.850036e+2, 3.1452727e+2, 102311.27, -50395.88, -2119.4612, -0.06704427, 0.17061812, 102340.69, 102340.69, 0.0, 10.00113, 9.999109 
9.9501467e+2, 1.24537e+2, -1682797.4, -1721981.3, 57051.88, 0.020183895, 0.1104292, -1642067.1, 77480.01, 0.000108580556, 10.00032, 9.999795 
9.950132e+2, 1.3453668e+2, -1646208.3, -1668095.5, -13288.677, -0.016576167, 0.108984716, -1639937.0, -18385.35, 0.000033028722, 9.99996, 9.999668 
9.950127e+2, 1.4453608e+2, -1528706.3, -1515356.1, 11923.022, 0.019852383, 0.064965524, -1508366.8, 15191.309, 0.0000026281716, 9.999898, 10.000072 
9.9501234e+2, 1.5453696e+2, -1388192.8, -1390888.9, 18252.828, 0.005148028, 0.13793667, -1371238.3, 54310.617, 0.00000000019976186, 10.000165, 10.000123 
9.9501187e+2, 1.6453698e+2, -1306342.4, -1348164.6, 2291.4114, -0.00794649, 0.15017305, -1306217.3, 21330.918, 0.0, 10.000258, 9.999699 
9.9501127e+2, 1.7453602e+2, -1223601.9, -1256878.1, -4783.761, -0.0075342283, 0.08147204, -1222927.9, 6629.4883, 0.0, 10.000151, 9.999704 
9.950109e+2, 1.8453556e+2, -1125265.6, -1152643.4, 3235.1155, 0.0002989501, 0.06390361, -1124888.5, 6673.3286, 0.0, 10.000124, 9.999761 
9.9501073e+2, 1.9453576e+2, -1013104.75, -1044531.4, 7440.2085, 0.013236737, 0.101787105, -1011432.3, 22128.13, 0.0, 10.000208, 9.99979 
9.950102e+2, 2.0453571e+2, -929067.94, -976265.1, -439.6807, -0.007800437, 0.1281255, -929063.8, 6497.897, 0.0, 10.000211, 9.999585 
9.950092e+2, 2.1453536e+2, -842977.25, -881791.8, -7047.5103, -0.06759984, 0.1306393, -841737.25, -4170.8213, 0.0, 10.00012, 9.999603 
9.9500865e+2, 2.2453493e+2, -749151.75, -789309.7, -6953.208, -0.06887331, 0.12992498, -747981.9, -8410.838, 0.0, 10.000107, 9.999573 
9.9500895e+2, 2.3453443e+2, -637735.3, -681949.2, -2375.193, 0.00021183578, 0.11763878, -637608.06, 3967.393, 0.0, 10.000187, 9.9995985 
9.950086e+2, 2.4453396e+2, -555343.3, -632481.25, -9871.164, 0.015184638, 0.12815736, -554100.1, -10519.639, 0.0, 10.000256, 9.999232 
9.950075e+2, 2.545335e+2, -448870.9, -529304.1, -13835.833, -0.035218637, 0.15646264, -446557.47, -971.067, 0.0, 10.000309, 9.999242 
9.9500704e+2, 2.6453283e+2, -350767.7, -445768.97, -3623.9216, -0.034399994, 0.17299, -350629.66, -3036.0815, 0.0, 10.000372, 9.999112 
9.950073e+2, 2.7453193e+2, -239599.92, -338630.9, 4345.582, 0.026689528, 0.16772363, -239409.6, 10192.585, 0.0, 10.000451, 9.999136 
9.9500674e+2, 2.8453085e+2, -180324.39, -295590.38, -15640.029, 0.029801613, 0.16226457, -178239.94, -26627.22, 0.0, 10.00034, 9.998813 
9.950051e+2, 2.9452953e+2, -133835.53, -220423.33, -19150.445, -0.03497703, 0.14718036, -129789.16, -76163.6, 0.0, 9.999978, 9.99883 
9.950047e+2, 3.0452836e+2, -29895.678, -106743.36, 30816.916, -0.037024383, 0.1273981, -19064.326, -19064.326, 0.0, 10.000193, 9.999173 
9.950058e+2, 3.145285e+2, 110854.76, -27961.736, 36437.344, 0.038720846, 0.22138743, 119837.74, 119837.74, 0.0, 10.00111, 9.999272 
1.005015e+3, 1.24538064e+2, -1716173.5, -1756196.1, 21464.467, 0.030235615, 0.13234892, -1706839.0, 12698.049, 0.00014134821, 10.000167, 9.999637 
1.00501314e+3, 1.3453752e+2, -1616541.3, -1674124.9, -30112.896, -0.031749967, 0.12739597, -1603670.8, 17873.305, 0.000046426092, 10.000251, 9.999488 
1.00501284e+3, 1.4453669e+2, -1474519.6, -1501803.6, 10884.388, 0.01946564, 0.07391689, -1470709.5, 52843.305, 0.00000474816, 10.000324, 9.999958 
1.0050126e+3, 1.545373e+2, -1370636.0, -1395574.1, 4199.2275, 0.0067449603, 0.13339658, -1369947.9, 55597.773, 0.000000004412824, 10.00034, 10.000007 
1.0050122e+3, 1.6453728e+2, -1301191.1, -1352906.8, -20622.113, -0.0070597026, 0.14749205, -1293974.8, 33570.918, 0.0, 10.000323, 9.999636 
1.0050114e+3, 1.7453647e+2, -1209702.9, -1256129.0, -19861.605, -0.011802213, 0.10001241, -1202365.5, 27188.424, 0.0, 10.000272, 9.999651 
1.005011e+3, 1.8453601e+2, -1112747.1, -1140751.3, -5383.3877, -0.008329675, 0.0828592, -1111748.0, 19810.252, 0.0, 10.000186, 9.999812 
1.0050108e+3, 1.94536e+2, -1029846.7, -1046238.94, -5043.0645, 0.00037602548, 0.09531394, -1028419.44, 5138.3125, 0.0, 10.000066, 9.999846 
1.0050102e+3, 2.0453587e+2, -952190.44, -993896.6, -7673.86, -0.014561552, 0.11431715, -950823.25, -15263.754, 0.0, 10.000081, 9.999525 
1.0050095e+3, 2.1453561e+2, -826541.1, -881442.6, -7424.8535, -0.056635264, 0.132497, -825554.75, 12009.103, 0.0, 10.000266, 9.999536 
1.00500904e+3, 2.2453518e+2, -720124.75, -773372.9, -8057.08, -0.05582006, 0.13491456, -718932.3, 20636.285, 0.0, 10.0002985, 9.999589 
1.0050091e+3, 2.3453456e+2, -641511.25, -681293.2, -11615.598, -0.004669725, 0.10806328, -638368.06, 3205.8523, 0.0, 10.000151, 9.9996195 
1.00500874e+3, 2.4453406e+2, -575172.7, -643332.5, -14823.162, 0.0032176739, 0.11622528, -572088.5, -28509.432, 0.0, 10.000127, 9.999218 
1.0050078e+3, 2.5453374e+2, -457838.22, -534935.3, -12961.608, -0.0412422, 0.16018485, -455717.47, -10133.6875, 0.0, 10.000256, 9.999227 
1.0050073e+3, 2.6453316e+2, -366070.44, -442641.6, -7736.4346, -0.036556195, 0.18095048, -365296.6, -17706.361, 0.0, 10.000225, 9.999203 
1.0050075e+3, 2.7453226e+2, -301598.53, -357921.9, -7793.922, 0.02611075, 0.16456173, -300539.9, -50940.996, 0.0, 9.999981, 9.999229 
1.0050069e+3, 2.8453115e+2, -215694.78, -316414.53, -22234.23, 0.02963908, 0.15564561, -211004.88, -59395.336, 0.0, 10.000115, 9.998777 
1.0050054e+3, 2.9452989e+2, -28679.156, -174357.81, -26255.12, -0.036305457, 0.1466299, -24091.752, 29530.684, 0.0, 10.000721, 9.998788 
1.0050051e+3, 3.0452874e+2, 49200.37, -57667.78, 19669.89, -0.035270203, 0.13261065, 52705.78, 52705.78, 0.0, 10.000689, 9.999271 
1.00500636e+3, 3.1452885e+2, -66356.945, -103711.02, 19264.58, 0.048651017, 0.20892447, -58201.99, -58201.99, 0.0, 9.999851, 9.999358 
1.0150152e+3, 1.2453851e+2, -1712649.8, -1747312.3, 20480.826, 0.02520202, 0.12788272, -1703151.3, 16383.314, 0.0001798155, 10.000161, 9.999701 
1.0150132e+3, 1.3453852e+2, -1613316.4, -1666830.1, -25491.863, -0.04305643, 0.1708466, -1603117.0, 18418.52, 0.000062927356, 10.000248, 9.999538 
1.0150132e+3, 1.4453751e+2, -1492355.3, -1539171.6, 11440.611, 0.02712455, 0.11088723, -1489709.1, 33836.387, 0.000007860604, 10.000324, 9.999702 
1.0150129e+3, 1.5453719e+2, -1389370.4, -1435098.3, 5045.1943, 0.0076044276, 0.102783285, -1388820.4, 36727.223, 0.000000028517778, 10.000342, 9.999736 
1.0150124e+3, 1.6453703e+2, -1298147.4, -1347009.8, -23406.492, -0.013881375, 0.11804417, -1288744.5, 38804.55, 0.0, 10.000324, 9.999676 
1.0150115e+3, 1.7453712e+2, -1205496.3, -1247227.9, -22060.383, -0.027661735, 0.15418437, -1195997.0, 33552.297, 0.0, 10.000271, 9.999713 
1.0150109e+3, 1.8453689e+2, -1111909.1, -1138828.5, -11168.069, -0.035216123, 0.15537268, -1107879.1, 23672.215, 0.0, 10.000184, 9.999827 
1.0150104e+3, 1.9453627e+2, -1028739.2, -1044139.06, -10056.847, -0.037905976, 0.105096154, -1023773.06, 9782.622, 0.0, 10.000066, 9.999861 
1.0150102e+3, 2.0453593e+2, -950004.06, -989303.4, -2627.1567, -0.028622188, 0.09967155, -949829.25, -14270.259, 0.0, 10.00008, 9.9995575 
1.01501025e+3, 2.1453594e+2, -824538.56, -876816.6, -898.99493, -0.0034040525, 0.14196064, -824523.1, 13037.533, 0.0, 10.000263, 9.999569 
1.0150098e+3, 2.2453563e+2, -725372.9, -783322.6, -14359.323, -0.0074190972, 0.15762599, -722009.94, 17554.457, 0.0, 10.000294, 9.999523 
1.0150088e+3, 2.3453493e+2, -646398.44, -691373.9, -17167.027, -0.04638443, 0.12934373, -640594.75, 976.1124, 0.0, 10.00015, 9.999551 
1.0150084e+3, 2.4453428e+2, -570917.1, -634665.06, -11120.933, -0.04537891, 0.12447766, -569032.75, -25455.643, 0.0, 10.000127, 9.999278 
1.0150084e+3, 2.5453377e+2, -453454.6, -525293.75, -7593.8906, 0.004455217, 0.14022478, -452660.63, -7077.6787, 0.0, 10.000252, 9.999295 
1.015008e+3, 2.6453304e+2, -365970.78, -440824.13, -15814.321, 0.0074851704, 0.14584845, -362766.8, -15176.574, 0.0, 10.000217, 9.999219 
1.01500675e+3, 2.745322e+2, -300496.16, -355447.06, -15210.176, -0.04609417, 0.13194415, -296566.97, -46967.96, 0.0, 9.99998, 9.999247 
1.0150064e+3, 2.8453133e+2, -218145.47, -322578.78, -358.552, -0.038230166, 0.1453161, -218144.23, -66536.266, 0.0, 10.000118, 9.998734 
1.015007e+3, 2.9453045e+2, -33717.91, -182168.44, -1728.8783, 0.043584604, 0.18220125, -33697.777, 19919.334, 0.0, 10.000709, 9.998741 
1.0150067e+3, 3.0452916e+2, 49487.055, -53035.117, -8561.375, 0.045810007, 0.1554421, 50197.08, 50197.08, 0.0, 10.000671, 9.999311 
1.01500526e+3, 3.1452826e+2, -65211.082, -97695.97, -8894.941, -0.048384465, 0.12378189, -62934.97, -62934.97, 0.0, 9.999837, 9.999405 
1.0250151e+3, 1.2453869e+2, -1726179.8, -1733114.1, -3766.0535, 0.024657609, 0.1392431, -1724527.9, -4993.0337, 0.00022439056, 9.999981, 9.999882 
1.02501355e+3, 1.3453886e+2, -1582653.4, -1633827.5, -38208.254, -0.043977745, 0.18228307, -1562256.0, 59277.13, 0.0000828242, 10.000379, 9.9997015 
1.0250138e+3, 1.4453788e+2, -1475427.5, -1538414.6, -3325.4783, 0.04550019, 0.12031269, -1475252.4, 48289.83, 0.000012107546, 10.000471, 9.999638 
1.0250132e+3, 1.5453745e+2, -1425256.4, -1460395.5, 2978.3264, 0.0082097985, 0.108982556, -1425005.8, 539.73804, 0.00000009714164, 10.000132, 9.999663 
1.0250124e+3, 1.6453722e+2, -1350182.1, -1380961.3, -13201.178, -0.022883428, 0.12305854, -1345295.9, -17747.852, 0.0, 10.000008, 9.999595 
1.0250117e+3, 1.7453723e+2, -1228193.8, -1268048.1, -23398.182, -0.034964282, 0.15978548, -1217387.1, 12161.958, 0.0, 10.000156, 9.999625 
1.0250111e+3, 1.8453696e+2, -1102755.9, -1136912.4, -21362.549, -0.04159798, 0.16259718, -1092484.0, 39067.59, 0.0, 10.000258, 9.9998045 
1.02501065e+3, 1.9453636e+2, -993481.7, -1029000.75, -23961.4, -0.046196744, 0.11608368, -981415.9, 52139.82, 0.0, 10.000317, 9.999844 
1.02501035e+3, 2.04536e+2, -920520.25, -966941.7, -15476.182, -0.032601215, 0.10779772, -915833.8, 19724.818, 0.0, 10.000248, 9.99963 
1.0250105e+3, 2.1453598e+2, -852698.2, -881605.94, -11223.276, 0.00327772, 0.13804197, -848852.44, -11292.27, 0.0, 10.000032, 9.999646 
1.02501e+3, 2.2453567e+2, -769501.4, -809837.56, -19512.525, -0.00084920914, 0.15289536, -761607.2, -22043.496, 0.0, 10.000015, 9.999475 
1.0250089e+3, 2.3453508e+2, -637688.1, -692960.0, -22241.316, -0.05334672, 0.14076893, -629849.8, 11719.859, 0.0, 10.000237, 9.999496 
1.02500856e+3, 2.4453443e+2, -545007.3, -615658.25, -17819.104, -0.05156798, 0.13639875, -540767.5, 2808.3965, 0.0, 10.000278, 9.999335 
1.0250086e+3, 2.5453377e+2, -472502.25, -527669.2, -16335.311, 0.015275633, 0.13091446, -468028.13, -22445.525, 0.0, 10.0000925, 9.999355 
1.0250082e+3, 2.64533e+2, -397404.34, -464322.9, -29016.396, 0.021818701, 0.13143787, -386575.1, -38984.66, 0.0, 10.000037, 9.999144 
1.02500685e+3, 2.7453223e+2, -282849.7, -355291.66, -37975.44, -0.04406122, 0.13277309, -266591.2, -16991.938, 0.0, 10.000139, 9.999169 
1.0250065e+3, 2.8453144e+2, -207101.31, -299898.4, -9652.073, -0.039699707, 0.15251252, -206108.02, -54500.668, 0.0, 10.000122, 9.998887 
1.0250073e+3, 2.9453066e+2, -132035.9, -211274.44, 5450.117, 0.049526658, 0.18379743, -131662.8, -78048.15, 0.0, 9.999955, 9.998902 
1.025007e+3, 3.0452952e+2, -42673.703, -97759.81, -8146.135, 0.047877684, 0.15905327, -41494.3, -41494.3, 0.0, 10.000041, 9.999307 
1.0250053e+3, 3.1452847e+2, 16892.143, -61887.715, -18551.852, -0.06542702, 0.11917422, 21042.283, 21042.283, 0.0, 10.000415, 9.999373 
1.035015e+3, 1.24538645e+2, -1708203.4, -1695413.6, 2681.0789, 0.012821552, 0.16302606, -1694874.4, 24663.195, 0.00027553758, 9.999979, 10.000142 
1.035014e+3, 1.3453865e+2, -1564480.4, -1595898.6, -21973.84, -0.038546156, 0.16296802, -1553177.9, 68358.08, 0.000106410545, 10.000378, 9.999963 
1.03501454e+3, 1.445379e+2, -1466672.4, -1520038.8, -15089.294, 0.069806136, 0.10502662, -1462701.4, 60840.703, 0.000017580353, 10.000469, 9.999764 
1.0350133e+3, 1.545382e+2, -1416423.9, -1441665.1, -9618.366, 0.0064367843, 0.15136209, -1413176.5, 12362.421, 0.00000023822265, 10.00013, 9.999792 
1.0350123e+3, 1.6453786e+2, -1364492.5, -1411873.0, -9550.994, -0.036015075, 0.16054006, -1362639.8, -35097.59, 0.0, 10.0000105, 9.999382 
1.03501186e+3, 1.7453684e+2, -1244044.8, -1301531.4, -17897.783, -0.03669963, 0.11643152, -1238927.9, -9375.085, 0.0, 10.000157, 9.999395 
1.0350115e+3, 1.8453628e+2, -1107915.6, -1147552.0, -20202.592, -0.032018613, 0.10625932, -1099433.6, 32124.66, 0.0, 10.000257, 9.999732 
1.0350111e+3, 1.9453631e+2, -998216.8, -1038292.2, -22298.404, -0.026110135, 0.12964998, -988275.75, 45281.324, 0.0, 10.000314, 9.999782 
1.0350106e+3, 2.0453617e+2, -913292.0, -951279.5, -24613.104, -0.028092274, 0.13891129, -901196.06, 34361.95, 0.0, 10.000244, 9.99974 
1.03501014e+3, 2.1453576e+2, -844239.2, -864137.44, -19845.584, -0.037666798, 0.119707234, -831988.5, 5573.366, 0.0, 10.000032, 9.999767 
1.0350096e+3, 2.2453539e+2, -771819.06, -814645.4, -13201.316, -0.03832888, 0.12127, -768076.75, -28510.838, 0.0, 10.000014, 9.999442 
1.0350094e+3, 2.3453505e+2, -640789.25, -699389.94, -13762.855, -0.02792647, 0.14165169, -637717.9, 3852.054, 0.0, 10.000236, 9.9994545 
1.035009e+3, 2.4453455e+2, -542321.56, -608850.44, -24389.023, -0.018889112, 0.14937541, -534338.56, 9236.693, 0.0, 10.000272, 9.999384 
1.0350086e+3, 2.545338e+2, -468436.75, -519609.78, -22410.225, -0.010701739, 0.13176873, -460010.2, -14427.968, 0.0, 10.0000925, 9.999411 
1.03500806e+3, 2.6453307e+2, -410418.13, -491801.22, -25408.258, 0.0047342326, 0.14041597, -403136.94, -55546.793, 0.0, 10.000038, 9.998955 
1.0350077e+3, 2.7453238e+2, -298010.88, -385193.8, -33187.5, 0.02866719, 0.1712965, -286815.25, -37216.14, 0.0, 10.000131, 9.998969 
1.03500724e+3, 2.8453153e+2, -182566.53, -246356.11, -15046.783, 0.020918977, 0.17779928, -179195.42, -27587.89, 0.0, 10.000111, 9.99926 
1.0350066e+3, 2.9453054e+2, -103557.47, -151614.84, 1752.2708, -0.02340224, 0.14742479, -103493.664, -49878.64, 0.0, 9.999953, 9.999313 
1.0350062e+3, 3.0452976e+2, -48200.05, -110795.164, 6613.804, -0.033674154, 0.14039823, -47508.867, -47508.867, 0.0, 10.000046, 9.999216 
1.0350062e+3, 3.1452957e+2, 5710.336, -82090.75, -1207.6166, -0.007347471, 0.19997995, 5726.9424, 5726.9424, 0.0, 10.0004015, 9.999242 
1.0450152e+3, 1.2453869e+2, -1706007.6, -1688390.1, 29877.506, 0.03128538, 0.16387947, -1666049.9, 53487.83, 0.0003338259, 9.999966, 10.000196 
1.0450142e+3, 1.3453871e+2, -1612123.9, -1614793.5, -3123.504, -0.038260598, 0.16267835, -1610061.9, 11473.707, 0.00013404706, 10.000031, 10.0 
1.04501486e+3, 1.4453804e+2, -1509278.5, -1545879.5, -19831.082, 0.0777943, 0.111681096, -1500594.3, 22947.152, 0.000024406929, 10.000203, 9.999715 
1.0450135e+3, 1.5453838e+2, -1375160.4, -1428611.9, -31577.813, 0.001590656, 0.1689427, -1360516.8, 65021.504, 0.0000004785213, 10.000442, 9.999732 
1.04501255e+3, 1.6453803e+2, -1282678.5, -1364059.9, -24243.973, -0.044356003, 0.17483565, -1276003.6, 51537.938, 0.0, 10.000536, 9.999456 
1.0450122e+3, 1.7453688e+2, -1191245.1, -1266194.8, -9877.718, -0.037264917, 0.11192695, -1189965.1, 39586.96, 0.0, 10.00048, 9.999482 
1.0450119e+3, 1.8453625e+2, -1099271.1, -1158998.8, -4554.1724, -0.026622597, 0.09690725, -1098925.9, 32632.031, 0.0, 10.000386, 9.99959 
1.0450115e+3, 1.9453625e+2, -1017219.1, -1064624.6, -14142.153, -0.018872056, 0.13227259, -1013320.75, 20237.174, 0.0, 10.000258, 9.999626 
1.045011e+3, 2.0453604e+2, -921238.8, -957146.2, -25489.75, -0.02091156, 0.14472997, -908014.56, 27545.172, 0.0, 10.0002, 9.99972 
1.04501024e+3, 2.1453558e+2, -815903.5, -851574.75, -31796.232, -0.033117563, 0.120147906, -797282.2, 40281.605, 0.0, 10.000234, 9.999755 
1.0450099e+3, 2.2453515e+2, -746702.8, -804327.25, -24291.93, -0.032650653, 0.11898843, -737828.94, 1739.0453, 0.0, 10.000195, 9.999426 
1.04500964e+3, 2.345348e+2, -666211.44, -713460.1, -24390.08, -0.017359504, 0.1379404, -655880.1, -14307.855, 0.0, 10.000069, 9.999437 
1.0450093e+3, 2.445343e+2, -582693.25, -630497.0, -40663.184, -0.014257661, 0.14869244, -559427.44, -15849.665, 0.0, 10.000004, 9.999365 
1.04500845e+3, 2.5453365e+2, -481922.94, -527409.7, -45699.547, -0.02544489, 0.1416004, -453620.16, -8035.7544, 0.0, 10.000008, 9.999396 
1.0450081e+3, 2.6453298e+2, -408095.9, -484043.88, -36809.156, -0.009022246, 0.15538736, -393183.8, -45592.184, 0.0, 10.000028, 9.999013 
1.0450079e+3, 2.7453232e+2, -303103.56, -380924.66, -25058.023, 0.040000718, 0.1824751, -295733.06, -46133.344, 0.0, 10.000067, 9.999029 
1.0450073e+3, 2.8453144e+2, -197511.25, -250025.19, -17188.217, 0.03222357, 0.17983446, -192385.69, -40777.297, 0.0, 9.999992, 9.999291 
1.0450062e+3, 2.9453033e+2, -129067.3, -160034.06, -32286.836, -0.040992126, 0.13528669, -108743.2, -55125.95, 0.0, 9.999763, 9.999347 
1.045006e+3, 3.045297e+2, -92554.33, -122166.5, -19586.797, -0.051384225, 0.1363816, -82807.15, -82807.15, 0.0, 9.999699, 9.999304 
1.04500644e+3, 3.1452987e+2, -68643.195, -108474.555, -10897.716, 0.008555503, 0.22421817, -65856.57, -65856.57, 0.0, 9.99985, 9.999325 
1.0550155e+3, 1.24538854e+2, -1715317.5, -1707062.5, 23059.188, 0.06015736, 0.13899882, -1687764.3, 31770.557, 0.00039971265, 9.999962, 10.000071 
1.0550141e+3, 1.3453914e+2, -1623709.3, -1639244.3, 1103.4906, -0.043967467, 0.18111393, -1623631.4, -2099.9624, 0.00016604259, 10.000033, 9.999832 
1.055015e+3, 1.4453836e+2, -1525604.1, -1581271.3, -11194.171, 0.067705266, 0.13946067, -1523437.4, 101.75089, 0.000032768716, 10.000208, 9.99947 
1.0550139e+3, 1.545381e+2, -1393405.9, -1465751.5, -22422.928, -0.010267007, 0.16254054, -1387019.8, 38522.996, 0.0000008393984, 10.000438, 9.999479 
1.05501294e+3, 1.6453779e+2, -1258190.4, -1312810.3, -26816.605, -0.053365216, 0.16898103, -1247225.5, 80319.81, 0.0, 10.000534, 9.99981 
1.0550126e+3, 1.7453745e+2, -1164128.8, -1209769.0, -12246.541, -0.03808381, 0.14706513, -1161050.4, 68495.9, 0.0, 10.000479, 9.99987 
1.0550122e+3, 1.8453695e+2, -1114089.9, -1190128.3, -10541.313, -0.027139131, 0.13370082, -1112655.5, 18894.754, 0.0, 10.000386, 9.999376 
1.0550116e+3, 1.9453622e+2, -1034128.94, -1099939.9, -19409.287, -0.026590105, 0.12180021, -1028831.1, 4726.81, 0.0, 10.000258, 9.999385 
1.0550112e+3, 2.0453572e+2, -932082.8, -979459.9, -25763.566, -0.014396238, 0.12531254, -920772.7, 14790.504, 0.0, 10.000198, 9.999567 
1.055011e+3, 2.1453549e+2, -826673.75, -873652.3, -30789.516, 0.014480214, 0.13969058, -811436.56, 26128.732, 0.0, 10.000231, 9.999605 
1.0550105e+3, 2.2453506e+2, -747383.7, -805233.9, -29915.033, 0.013297419, 0.14499179, -734696.7, 4872.8374, 0.0, 10.000191, 9.999421 
1.05500974e+3, 2.3453437e+2, -665418.8, -712690.75, -29102.121, -0.023435518, 0.12911202, -651563.56, -9987.207, 0.0, 10.000071, 9.999442 
1.0550091e+3, 2.4453378e+2, -588976.0, -643703.25, -41137.605, -0.039756134, 0.1359906, -566932.44, -23349.62, 0.0, 10.000003, 9.999275 
1.0550084e+3, 2.5453335e+2, -488924.94, -541465.75, -44956.086, -0.031157149, 0.1612259, -463126.3, -17537.627, 0.0, 10.000004, 9.999303 
1.05500795e+3, 2.645328e+2, -386936.2, -438625.03, -35386.086, -0.021920783, 0.17375612, -368961.56, -21366.754, 0.0, 10.000021, 9.999329 
1.0550074e+3, 2.7453208e+2, -279560.94, -332003.53, -22065.633, -0.013611239, 0.16361049, -271512.0, -21911.063, 0.0, 10.000066, 9.999365 
1.055007e+3, 2.8453118e+2, -221311.86, -299730.16, -24406.908, -0.009197522, 0.15847474, -214336.0, -62726.465, 0.0, 9.999991, 9.998951 
1.0550064e+3, 2.945301e+2, -156799.98, -215767.47, -39392.75, -0.0061791274, 0.15180878, -137079.27, -83458.45, 0.0, 9.999752, 9.998969 
1.0550061e+3, 3.0452937e+2, -73896.32, -81098.266, -14408.796, -0.008899203, 0.15030262, -62645.344, -62645.344, 0.0, 9.999688, 9.999592 
1.055006e+3, 3.1452942e+2, -45797.953, -60689.0, -2138.315, -0.026251417, 0.19184758, -45496.98, -45496.98, 0.0, 9.999849, 9.999654 
1.0650157e+3, 1.2453903e+2, -1648849.3, -1691014.0, 1209.2098, 0.06070705, 0.13820113, -1648814.6, 70718.29, 0.00047318285, 10.000491, 9.999925 
1.0650143e+3, 1.3453934e+2, -1578354.4, -1637434.9, -13339.938, -0.05327738, 0.19933319, -1575482.0, 46048.16, 0.00020250746, 10.00043, 9.999654 
1.06501535e+3, 1.4453843e+2, -1497939.1, -1574956.0, -14784.027, 0.0730349, 0.1580218, -1495198.8, 28340.502, 0.000042863663, 10.000428, 9.999407 
1.0650144e+3, 1.5453786e+2, -1400026.1, -1474864.5, -13058.919, -0.0029570295, 0.15585102, -1397812.9, 27732.53, 0.0000013547858, 10.000421, 9.999424 
1.06501356e+3, 1.6453747e+2, -1284113.0, -1328116.3, -28574.559, -0.041610803, 0.15962715, -1270051.1, 57497.457, 0.0, 10.000371, 9.999782 
1.0650132e+3, 1.7453736e+2, -1192903.5, -1226846.0, -46176.035, -0.019541148, 0.16147299, -1160678.6, 68869.3, 0.0, 10.000295, 9.999841 
1.0650127e+3, 1.8453692e+2, -1123308.4, -1188110.6, -48131.03, -0.011833021, 0.15480731, -1097688.5, 33862.78, 0.0, 10.000296, 9.9994335 
1.065012e+3, 1.9453615e+2, -1008213.5, -1080402.0, -35134.293, -0.027837094, 0.13079764, -993937.0, 39622.098, 0.0, 10.000407, 9.999446 
1.0650115e+3, 2.0453554e+2, -907790.7, -986194.9, -29577.682, -0.020226846, 0.12834954, -897884.3, 37681.01, 0.0, 10.000445, 9.999402 
1.0650113e+3, 2.1453515e+2, -814426.0, -887335.56, -37702.74, 0.017725794, 0.14374806, -798436.06, 39133.45, 0.0, 10.0004, 9.99943 
1.0650109e+3, 2.2453463e+2, -726376.8, -789251.6, -39217.563, 0.021788115, 0.14871088, -707551.6, 32022.773, 0.0, 10.00031, 9.999474 
1.0650099e+3, 2.3453401e+2, -646139.0, -695634.7, -35005.92, -0.014988361, 0.13249812, -628016.44, 13563.623, 0.0, 10.000172, 9.99951 
1.06500916e+3, 2.4453346e+2, -592339.2, -653854.6, -41958.324, -0.03154777, 0.1424341, -571072.5, -27486.236, 0.0, 10.000018, 9.999198 
1.0650084e+3, 2.54533e+2, -517217.72, -564605.0, -46178.043, -0.023723248, 0.17248595, -489009.53, -43416.316, 0.0, 9.99985, 9.999218 
1.0650078e+3, 2.645324e+2, -413489.5, -429787.8, -37244.906, -0.024884155, 0.17670801, -383512.66, -35913.156, 0.0, 9.999743, 9.999522 
1.0650071e+3, 2.7453163e+2, -319753.75, -327485.22, -34808.895, -0.037083242, 0.14442028, -288596.6, -38992.082, 0.0, 9.999688, 9.9995775 
1.0650066e+3, 2.8453088e+2, -273692.6, -337859.34, -36093.75, -0.026380815, 0.1461052, -257484.14, -105872.305, 0.0, 9.999689, 9.998834 
1.0650063e+3, 2.9453006e+2, -161061.42, -232546.56, -33275.395, 0.013120345, 0.17822018, -147969.75, -94347.82, 0.0, 9.999787, 9.998836 
1.06500596e+3, 3.0452922e+2, -52872.734, -64885.645, -2327.9507, 0.008777577, 0.16900364, -52437.383, -52437.383, 0.0, 9.999807, 9.999644 
1.0650055e+3, 3.1452888e+2, -67000.38, -63725.492, -13749.238, -0.052248944, 0.16439286, -51516.535, -51516.535, 0.0, 9.999674, 9.999718 
1.0750159e+3, 1.2453934e+2, -1662879.9, -1719371.5, -12820.581, 0.020230982, 0.16207916, -1660106.5, 59424.336, 0.00055371417, 10.00049, 9.99973 
1.07501455e+3, 1.3453937e+2, -1593770.8, -1667693.0, -14017.86, -0.07008165, 0.21827236, -1591201.9, 30329.217, 0.00024334127, 10.0004225, 9.99945 
1.07501596e+3, 1.4453834e+2, -1490230.6, -1557952.6, -15001.438, 0.08787933, 0.16872355, -1487056.4, 36484.586, 0.00005483326, 10.000423, 9.999526 
1.075015e+3, 1.5453774e+2, -1390164.6, -1455002.8, -13094.779, 0.022034328, 0.14959957, -1387619.9, 37925.625, 0.000002073113, 10.0004225, 9.999559 
1.07501425e+3, 1.6453716e+2, -1312300.4, -1387765.3, -32424.04, -0.011076735, 0.14613324, -1300282.9, 27267.898, 0.0000000000166348, 10.000376, 9.999371 
1.0750138e+3, 1.7453666e+2, -1224125.4, -1291163.3, -48993.508, 0.01575982, 0.15424255, -1198282.0, 31274.703, 0.0, 10.000293, 9.999401 
1.0750133e+3, 1.8453628e+2, -1101421.8, -1142264.9, -45416.305, 0.014786978, 0.16148765, -1072047.0, 59513.285, 0.0, 10.000293, 9.99975 
1.0750123e+3, 1.945361e+2, -983846.56, -1029491.06, -31335.797, -0.02456736, 0.16048957, -967903.0, 65657.695, 0.0, 10.000405, 9.999797 
1.0750117e+3, 2.0453554e+2, -920673.9, -1012950.0, -32437.117, -0.04050229, 0.15394506, -910412.56, 25153.143, 0.0, 10.000444, 9.99922 
1.0750112e+3, 2.1453457e+2, -828992.4, -917730.25, -39994.06, -0.025442705, 0.13124982, -813627.5, 23948.615, 0.0, 10.0004, 9.999222 
1.0750109e+3, 2.2453395e+2, -718316.6, -772498.25, -45544.9, -0.009527586, 0.13057274, -692414.5, 47167.734, 0.0, 10.000309, 9.99959 
1.0750102e+3, 2.3453379e+2, -637030.7, -676892.2, -40058.867, 0.0065449537, 0.14814956, -612218.3, 29364.768, 0.0, 10.000171, 9.99964 
1.07500955e+3, 2.4453335e+2, -597227.25, -663674.4, -48601.746, 0.008314425, 0.16597399, -571578.6, -27990.668, 0.0, 10.000016, 9.999132 
1.0750084e+3, 2.545326e+2, -522537.9, -575861.9, -51770.918, -0.0066771614, 0.17444342, -490966.84, -45369.195, 0.0, 9.999851, 9.999141 
1.07500754e+3, 2.6453182e+2, -408917.2, -420302.94, -38930.043, -0.020590514, 0.16507033, -375265.97, -27660.725, 0.0, 9.9997425, 9.999589 
1.0750069e+3, 2.7453113e+2, -315056.53, -316841.78, -35829.813, -0.032550387, 0.12632848, -280108.22, -30498.16, 0.0, 9.999682, 9.999655 
1.07500635e+3, 2.8453058e+2, -266653.22, -321463.38, -33012.43, -0.021859312, 0.14190811, -251153.06, -99537.93, 0.0, 9.999681, 9.998951 
1.0750061e+3, 2.9453027e+2, -152705.0, -214889.78, -27679.012, 0.013043564, 0.21226496, -142169.7, -88549.234, 0.0, 9.999785, 9.998959 
1.07500575e+3, 3.0452925e+2, -67095.77, -94556.06, -5111.006, -0.0012769998, 0.1913428, -66175.35, -66175.35, 0.0, 9.999806, 9.999441 
1.075005e+3, 3.1452832e+2, -83097.08, -95566.74, -16238.469, -0.074726425, 0.14825846, -71937.63, -71937.63, 0.0, 9.999665, 9.999503 
1.08501635e+3, 1.245395e+2, -1647339.1, -1725712.9, -23698.225, 0.021400739, 0.17767937, -1640730.6, 78799.3, 0.00064071716, 10.000657, 9.999605 
1.0850152e+3, 1.3453922e+2, -1543014.6, -1658587.3, -7718.9185, -0.07991222, 0.21481441, -1542501.4, 79032.29, 0.00028839763, 10.00084, 9.9993105 
1.0850166e+3, 1.4453812e+2, -1424978.4, -1516899.5, -13151.958, 0.09134, 0.16266434, -1423133.6, 100410.1, 0.00006873226, 10.0008335, 9.999609 
1.08501576e+3, 1.5453766e+2, -1368774.8, -1434831.1, -18070.36, 0.03868929, 0.14875422, -1364154.6, 61391.535, 0.0000030594845, 10.000527, 9.999646 
1.0850148e+3, 1.6453707e+2, -1321408.6, -1402915.5, -22922.104, 0.007314428, 0.14531358, -1315404.5, 12146.778, 0.000000000186287, 10.00036, 9.999273 
1.0850143e+3, 1.745364e+2, -1220816.4, -1300943.5, -15241.861, 0.023159517, 0.14782207, -1218015.0, 11544.327, 0.0, 10.000367, 9.999296 
1.0850135e+3, 1.8453601e+2, -1098203.5, -1142653.4, -7820.043, 0.019246455, 0.15809083, -1096867.9, 34695.723, 0.0, 10.000325, 9.999731 
1.08501285e+3, 1.9453594e+2, -1009036.5, -1043155.75, -21862.955, -0.01610907, 0.16942436, -998364.94, 35198.164, 0.0, 10.000239, 9.999783 
1.0850121e+3, 2.0453544e+2, -950693.56, -1015284.3, -27086.283, -0.03280979, 0.16517286, -940838.56, -5271.293, 0.0, 10.000186, 9.999328 
1.0850116e+3, 2.1453449e+2, -852380.5, -916057.4, -11250.695, -0.025126057, 0.1340865, -850451.1, -12874.242, 0.0, 10.000184, 9.999337 
1.085011e+3, 2.2453384e+2, -749613.44, -798684.3, -14410.353, -0.0109877335, 0.13001102, -745694.56, -6111.417, 0.0, 10.000143, 9.99949 
1.0850105e+3, 2.345336e+2, -660856.44, -700740.06, -29008.037, 0.009462495, 0.14954297, -645596.8, -4011.425, 0.0, 10.00006, 9.999529 
1.0850095e+3, 2.4453314e+2, -588295.06, -646637.4, -39145.543, 0.010535086, 0.16650797, -568646.9, -25056.54, 0.0, 10.000022, 9.999246 
1.0850083e+3, 2.545325e+2, -487943.7, -544783.3, -27657.504, -0.011053618, 0.17180285, -476707.2, -31108.756, 0.0, 10.000027, 9.9992695 
1.08500734e+3, 2.645318e+2, -397921.25, -428717.22, -16935.26, -0.020479126, 0.16645497, -390430.38, -42824.715, 0.0, 9.999879, 9.999465 
1.0850066e+3, 2.7453104e+2, -341836.1, -345323.88, -30881.164, -0.0155595895, 0.13927273, -312649.63, -63037.88, 0.0, 9.999566, 9.999515 
1.085006e+3, 2.8453052e+2, -288682.06, -320330.97, -25104.725, -0.011517741, 0.15699461, -274830.6, -123213.46, 0.0, 9.999478, 9.999056 
1.0850056e+3, 2.9453024e+2, -167934.14, -209286.33, -21429.744, -0.008417614, 0.21992819, -158832.14, -105210.67, 0.0, 9.999626, 9.999074 
1.0850051e+3, 3.0452916e+2, -102265.1, -101989.4, -1724.786, -0.021953704, 0.18578148, -100396.97, -100396.97, 0.0, 9.999525, 9.999526 
1.08500466e+3, 3.1452844e+2, -147419.39, -114777.16, 7518.6035, -0.056620594, 0.15409377, -113128.625, -113128.625, 0.0, 9.999174, 9.999606 
1.09501734e+3, 1.24539584e+2, -1651238.5, -1731399.8, -31146.291, 0.051781606, 0.1824926, -1640559.4, 78970.4, 0.000734217, 10.000648, 9.999571 
1.09501585e+3, 1.3453892e+2, -1547380.0, -1668777.5, 1324.5386, -0.0858491, 0.19023709, -1547365.5, 74171.37, 0.00033773432, 10.000843, 9.999239 
1.09501734e+3, 1.4453784e+2, -1421825.8, -1510935.4, -23715.996, 0.08008568, 0.14046356, -1415907.0, 107639.945, 0.0000845864, 10.000835, 9.999648 
1.0950162e+3, 1.5453768e+2, -1367018.3, -1430455.8, -29125.965, 0.043917637, 0.15284748, -1355674.3, 69872.445, 0.0000043925156, 10.000524, 9.999679 
1.0950151e+3, 1.645373e+2, -1306769.8, -1372198.6, -24123.865, 0.009010856, 0.15733121, -1298837.0, 28712.283, 0.0000000006358386, 10.000358, 9.999486 
1.09501444e+3, 1.7453668e+2, -1205299.5, -1269210.9, -15116.453, 0.00041100237, 0.14312328, -1201904.4, 27650.857, 0.0, 10.000368, 9.999514 
1.0950137e+3, 1.8453613e+2, -1122876.6, -1194142.1, -12320.015, -0.0020890206, 0.14464737, -1120806.9, 10753.921, 0.0, 10.000326, 9.999377 
1.0950132e+3, 1.9453569e+2, -1035787.1, -1098447.5, -25676.008, -0.0040837447, 0.15688139, -1026610.06, 6955.7217, 0.0, 10.000237, 9.999404 
1.0950126e+3, 2.0453529e+2, -922905.9, -957393.2, -28754.393, 0.00062520837, 0.16249222, -906621.06, 28948.328, 0.0, 10.000184, 9.999726 
1.0950122e+3, 2.1453498e+2, -822196.7, -853206.3, -11632.105, 0.016273048, 0.15264343, -818318.44, 19252.809, 0.0, 10.000182, 9.99977 
1.09501146e+3, 2.245344e+2, -772315.5, -845904.7, -18685.693, 0.014543603, 0.14694731, -767842.7, -28265.945, 0.0, 10.000142, 9.9991665 
1.09501034e+3, 2.3453349e+2, -686150.2, -753319.56, -32224.639, -0.008522019, 0.13640325, -673190.7, -31603.982, 0.0, 10.00006, 9.999168 
1.0950093e+3, 2.445329e+2, -567383.75, -603341.44, -39340.64, -0.026821125, 0.14424154, -542108.44, 1484.7441, 0.0, 10.000022, 9.999544 
1.095008e+3, 2.5453272e+2, -464931.0, -496239.66, -26847.994, -0.038580805, 0.16477285, -449506.84, -3911.6465, 0.0, 10.000023, 9.999606 
1.0950072e+3, 2.6453227e+2, -420805.2, -475311.25, -28309.697, -0.026621353, 0.18027894, -408762.3, -61161.92, 0.0, 9.999874, 9.999147 
1.0950065e+3, 2.7453145e+2, -366608.84, -396501.56, -41315.313, 0.010887288, 0.18279876, -337619.47, -88010.3, 0.0, 9.999564, 9.999164 
1.09500565e+3, 2.845307e+2, -283389.03, -309046.0, -19236.006, 0.0028024034, 0.19240414, -273096.22, -121478.875, 0.0, 9.999476, 9.999135 
1.09500475e+3, 2.9452997e+2, -161763.64, -194887.63, -14110.103, -0.05515653, 0.20074254, -156568.0, -102943.234, 0.0, 9.999619, 9.999177 
1.0950043e+3, 3.0452898e+2, -78152.875, -49854.54, -14761.796, -0.05824432, 0.15070967, -43555.98, -43555.98, 0.0, 9.999516, 9.999889 
1.0950043e+3, 3.145293e+2, -118872.836, -54380.605, -3076.578, -0.0037655877, 0.18415491, -54234.17, -54234.17, 0.0, 9.999168, 10.000024 
1.10501796e+3, 1.2453987e+2, -1676235.0, -1725399.5, -20823.682, 0.060920395, 0.19024028, -1668600.6, 50927.14, 0.00083503575, 10.000399, 9.999732 
1.1050167e+3, 1.3453923e+2, -1569224.9, -1663079.5, 41225.55, -0.07890959, 0.1854106, -1553688.5, 67845.09, 0.0003918232, 10.00062, 9.999388 
1.1050183e+3, 1.4453821e+2, -1435579.0, -1532713.5, 6929.9917, 0.08813894, 0.14035328, -1435087.1, 88455.914, 0.000102570426, 10.000806, 9.999514 
1.105017e+3, 1.5453798e+2, -1332891.6, -1430458.9, -15154.926, 0.043507095, 0.16226806, -1330591.9, 94952.516, 0.0000061708192, 10.000832, 9.99953 
1.1050157e+3, 1.645376e+2, -1237546.0, -1331037.4, -16793.088, 0.0043985653, 0.16994411, -1234621.1, 92926.13, 0.0000000015512864, 10.000802, 9.999553 
1.1050149e+3, 1.74537e+2, -1146188.1, -1232086.3, -19356.299, -0.0059513785, 0.15082869, -1142027.9, 87523.984, 0.0, 10.000738, 9.99959 
1.10501416e+3, 1.8453637e+2, -1091192.9, -1192388.3, -16976.398, -0.010058882, 0.14324681, -1088420.9, 43137.133, 0.0, 10.000602, 9.999256 
1.10501334e+3, 1.9453564e+2, -1022681.7, -1106473.5, -12582.54, -0.014442754, 0.14237869, -1020833.0, 12732.877, 0.0, 10.000391, 9.999275 
1.1050128e+3, 2.045352e+2, -919281.25, -959864.4, -17393.318, -0.002237606, 0.15236588, -912846.9, 22723.416, 0.0, 10.000228, 9.999688 
1.10501245e+3, 2.1453512e+2, -832502.1, -861783.25, -36692.617, 0.031828713, 0.16687499, -807637.06, 29933.43, 0.0, 10.000128, 9.999737 
1.1050117e+3, 2.2453457e+2, -775056.9, -835420.75, -45609.35, 0.02840825, 0.16393222, -750547.25, -10971.893, 0.0, 10.000073, 9.999271 
1.1050103e+3, 2.3453355e+2, -675908.1, -735910.75, -24310.988, -0.020857248, 0.13047273, -667294.7, -25708.76, 0.0, 10.000077, 9.99928 
1.105009e+3, 2.4453296e+2, -575427.0, -609986.7, -26216.08, -0.04714471, 0.13355757, -561308.2, -17715.932, 0.0, 9.99998, 9.999518 
1.1050079e+3, 2.5453293e+2, -503720.75, -518980.4, -43099.207, -0.045845214, 0.17095369, -467581.22, -21987.746, 0.0, 9.999774, 9.999569 
1.1050069e+3, 2.645325e+2, -446126.84, -491033.06, -48930.863, -0.029206341, 0.19584037, -414743.44, -67144.82, 0.0, 9.999716, 9.999115 
1.1050061e+3, 2.7453172e+2, -332396.7, -383507.9, -39122.516, 0.004599474, 0.2002278, -311222.66, -61614.688, 0.0, 9.999815, 9.999132 
1.1050052e+3, 2.8453094e+2, -250754.3, -283705.94, -5088.401, -0.001169743, 0.20636293, -249986.44, -98370.195, 0.0, 9.9996605, 9.99922 
1.10500425e+3, 2.9453018e+2, -213476.56, -210035.67, -2118.5444, -0.05132642, 0.20262197, -209026.98, -155403.56, 0.0, 9.999222, 9.999264 
1.10500365e+3, 3.0452916e+2, -138041.52, -74766.54, -11049.64, -0.056363363, 0.14337005, -72892.46, -72892.46, 0.0, 9.999086, 9.999925 
1.1050034e+3, 3.1452984e+2, -95453.086, -34526.805, -29101.088, -0.011623111, 0.21362981, -22860.666, -22860.666, 0.0, 9.999292, 10.000101 
1.1150182e+3, 1.24540366e+2, -1651997.8, -1674938.8, -29307.252, 0.040602606, 0.19554949, -1631996.3, 87527.39, 0.000944546, 10.000398, 10.000078 
1.11501746e+3, 1.3454016e+2, -1544656.4, -1612019.6, 52040.2, -0.06287836, 0.19915515, -1516349.0, 105174.3, 0.00045159098, 10.000619, 9.999739 
1.1150193e+3, 1.4453927e+2, -1456987.9, -1576353.5, 8143.594, 0.11165318, 0.16120405, -1456434.9, 67096.64, 0.00012308804, 10.000802, 9.999216 
1.1150177e+3, 1.5453866e+2, -1355807.8, -1478213.8, -14189.914, 0.03369672, 0.17813812, -1354184.4, 71354.18, 0.000008505592, 10.000832, 9.999202 
1.11501634e+3, 1.6453804e+2, -1243183.3, -1343068.9, -20297.031, -0.011357537, 0.1840112, -1239216.4, 88327.984, 0.0000000033697685, 10.000803, 9.99947 
1.11501575e+3, 1.7453745e+2, -1150989.6, -1241968.3, -21873.01, 0.0024344954, 0.17057312, -1146004.1, 83544.36, 0.0, 10.000737, 9.999523 
1.1150148e+3, 1.8453673e+2, -1083746.8, -1176626.6, -26098.676, -0.0071482807, 0.15433168, -1076915.6, 54638.83, 0.0, 10.0006, 9.999367 
1.1150134e+3, 1.9453585e+2, -1014706.2, -1090186.9, -21008.77, -0.04973478, 0.12637931, -1009252.75, 24310.047, 0.0, 10.000391, 9.999388 
1.11501254e+3, 2.0453523e+2, -952986.9, -1029892.44, -22928.262, -0.04468726, 0.13468787, -946670.0, -11100.468, 0.0, 10.000228, 9.999208 
1.1150125e+3, 2.145349e+2, -868279.4, -935556.6, -41166.117, 0.020196069, 0.17684993, -848755.94, -11181.689, 0.0, 10.000125, 9.999232 
1.1150117e+3, 2.2453444e+2, -737740.8, -757506.4, -46869.984, 0.029036839, 0.18105944, -699723.0, 39855.617, 0.0, 10.000071, 9.999808 
1.1150102e+3, 2.3453385e+2, -635024.5, -650519.44, -24077.857, -0.029386317, 0.1323826, -617478.4, 24104.031, 0.0, 10.000074, 9.999868 
1.1150089e+3, 2.4453339e+2, -601009.75, -662555.06, -34045.38, -0.05295506, 0.13529803, -585890.75, -42303.67, 0.0, 9.999976, 9.99916 
1.11500785e+3, 2.545331e+2, -532729.6, -579014.25, -50066.125, -0.035155263, 0.1903712, -500715.94, -55123.02, 0.0, 9.999773, 9.999158 
1.1150067e+3, 2.645326e+2, -428907.25, -455353.84, -45295.98, -0.029842813, 0.21288931, -394943.88, -47343.92, 0.0, 9.999715, 9.999361 
1.1150055e+3, 2.745318e+2, -313735.44, -343108.84, -34213.266, -0.03818405, 0.19021505, -291189.8, -41581.824, 0.0, 9.999808, 9.9994135 
1.11500464e+3, 2.845312e+2, -245580.61, -270891.22, -20841.803, -0.028337136, 0.19789407, -233852.78, -82239.13, 0.0, 9.999651, 9.999313 
1.11500405e+3, 2.945309e+2, -207394.58, -197862.88, -16433.91, 0.0006552462, 0.22684765, -185517.7, -131900.78, 0.0, 9.999222, 9.999348 
1.11500315e+3, 3.0452976e+2, -159924.63, -120519.414, -3377.1304, -0.01745163, 0.16668011, -120232.086, -120232.086, 0.0, 9.999087, 9.99961 
1.11500196e+3, 3.1453025e+2, -115568.63, -73780.125, -18664.254, -0.08805999, 0.2498482, -66657.88, -66657.88, 0.0, 9.999281, 9.999838 
1.1250189e+3, 1.2454094e+2, -1527291.5, -1623269.5, -35411.348, 0.032153323, 0.19239523, -1515640.6, 203877.45, 0.0010643419, 10.001293, 10.000001 
1.1250183e+3, 1.3454077e+2, -1511930.8, -1605086.8, 30462.354, -0.05673351, 0.20754775, -1502853.9, 118663.71, 0.00051804923, 10.000883, 9.999659 
1.12502016e+3, 1.445399e+2, -1467882.0, -1585958.6, -14141.197, 0.11806383, 0.17738192, -1466212.0, 57313.58, 0.00014661087, 10.000748, 9.999176 
1.1250185e+3, 1.5453912e+2, -1359306.1, -1485165.9, -18135.404, 0.034308925, 0.18358351, -1356745.1, 68789.125, 0.00001150662, 10.00083, 9.999156 
1.1250171e+3, 1.6453837e+2, -1248624.0, -1353319.8, -17418.957, -0.015260957, 0.18288822, -1245801.9, 81739.46, 0.0000000061074554, 10.000797, 9.999403 
1.12501636e+3, 1.745377e+2, -1169587.0, -1258467.1, -20112.89, -0.0057193255, 0.16790517, -1165247.5, 64298.773, 0.0, 10.000642, 9.999455 
1.12501524e+3, 1.8453698e+2, -1088850.6, -1181685.8, -26919.857, -0.011557103, 0.1556717, -1081609.3, 49942.953, 0.0, 10.000577, 9.999342 
1.12501405e+3, 1.9453618e+2, -982246.44, -1076949.8, -33328.844, -0.04272598, 0.13763595, -971693.06, 61866.668, 0.0, 10.000625, 9.999365 
1.1250131e+3, 2.0453545e+2, -914185.3, -1022677.06, -28855.412, -0.04386493, 0.14251272, -906988.1, 28579.229, 0.0, 10.000545, 9.9991045 
1.1250125e+3, 2.1453483e+2, -847468.8, -937435.1, -17877.484, -0.0072427997, 0.16557229, -844046.56, -6471.355, 0.0, 10.0003195, 9.9991255 
1.12501144e+3, 2.2453433e+2, -738964.06, -755799.25, -25359.898, 0.000444025, 0.17025548, -720661.25, 18918.89, 0.0, 10.000053, 9.999828 
1.12501025e+3, 2.3453401e+2, -681834.44, -669724.7, -46917.86, -0.02750618, 0.14665377, -628472.6, 13108.781, 0.0, 9.99974, 9.999897 
1.1250089e+3, 2.4453366e+2, -646357.8, -679872.5, -59642.434, -0.040909152, 0.15646808, -601163.4, -57578.152, 0.0, 9.999647, 9.999199 
1.1250076e+3, 2.545333e+2, -524766.75, -570453.9, -42149.914, -0.037312414, 0.19607666, -499668.25, -54076.125, 0.0, 9.999808, 9.999199 
1.1250062e+3, 2.6453272e+2, -418192.16, -435272.72, -27199.592, -0.040576946, 0.20734939, -398223.6, -50624.27, 0.0, 9.999727, 9.999493 
1.1250049e+3, 2.74532e+2, -369614.88, -355440.4, -28621.611, -0.05104035, 0.17932743, -333041.63, -83435.25, 0.0, 9.999362, 9.999543 
1.1250039e+3, 2.8453165e+2, -298963.2, -287973.1, -20655.602, -0.037030485, 0.19815233, -272094.1, -120484.19, 0.0, 9.999247, 9.999391 
1.1250033e+3, 2.9453167e+2, -172818.56, -172952.92, -19443.355, 0.00490827, 0.2587588, -153442.28, -99832.625, 0.0, 9.999426, 9.99942 
1.1250024e+3, 3.045304e+2, -128766.31, -123379.09, 1660.0852, -0.010297251, 0.18823555, -122908.625, -122908.625, 0.0, 9.99938, 9.999449 
1.1250012e+3, 3.1453058e+2, -153106.77, -100315.18, -2315.5996, -0.08726572, 0.25620317, -100213.805, -100213.805, 0.0, 9.999061, 9.999762 
1.13502026e+3, 1.2454163e+2, -1562090.3, -1693522.5, -68902.6, 0.029894307, 0.18179964, -1532590.0, 186920.58, 0.0011953667, 10.0012865, 9.999521 
1.1350191e+3, 1.3454112e+2, -1546477.5, -1677107.5, 17172.152, -0.06569055, 0.21222481, -1544257.9, 77257.516, 0.00059164723, 10.000883, 9.999165 
1.1350208e+3, 1.4454016e+2, -1453890.3, -1556960.0, -11289.706, 0.101447865, 0.19027103, -1452668.1, 70856.32, 0.00017336896, 10.000748, 9.999375 
1.1350194e+3, 1.5453945e+2, -1342863.1, -1451593.9, -14722.052, 0.04303166, 0.1777685, -1340905.1, 84625.836, 0.000015247707, 10.000832, 9.999386 
1.13501795e+3, 1.6453868e+2, -1252643.4, -1361609.9, -24234.18, -0.010353716, 0.16599736, -1247496.8, 80040.79, 0.000000009421829, 10.000796, 9.999347 
1.13501675e+3, 1.7453785e+2, -1174294.0, -1268593.5, -26172.646, -0.033755198, 0.1434641, -1167516.9, 62027.62, 0.0, 10.000643, 9.999386 
1.1350157e+3, 1.8453717e+2, -1100053.0, -1205111.4, -26925.264, -0.027960567, 0.14743878, -1093554.4, 37996.52, 0.0, 10.000577, 9.999182 
1.1350151e+3, 1.9453669e+2, -993735.4, -1100488.4, -32128.273, 0.0051038195, 0.17621182, -984812.0, 48744.152, 0.0, 10.000623, 9.999206 
1.1350139e+3, 2.0453596e+2, -895524.8, -983256.06, -38295.28, -0.0018453734, 0.17628825, -881160.5, 54402.78, 0.0, 10.000541, 9.999377 
1.13501236e+3, 2.1453497e+2, -827164.6, -895278.75, -26693.318, -0.05340974, 0.1336351, -817950.3, 19622.406, 0.0, 10.000319, 9.999415 
1.135011e+3, 2.2453432e+2, -774545.9, -829441.75, -38361.945, -0.06093362, 0.13219555, -754823.6, -15244.245, 0.0, 10.0000515, 9.999324 
1.13501e+3, 2.345341e+2, -720135.1, -749039.75, -58868.82, -0.016520564, 0.17274456, -673970.56, -32387.977, 0.0, 9.999739, 9.999353 
1.1350088e+3, 2.445338e+2, -615698.7, -615761.3, -54776.703, -0.012487394, 0.19580433, -560953.25, -17366.947, 0.0, 9.999645, 9.99964 
1.1350072e+3, 2.5453344e+2, -490954.8, -498891.22, -35365.86, -0.055564325, 0.18787651, -459335.22, -13744.491, 0.0, 9.999803, 9.999693 
1.1350057e+3, 2.6453295e+2, -417798.44, -432940.7, -39816.195, -0.065215595, 0.18054003, -384839.94, -37243.75, 0.0, 9.99972, 9.999513 
1.1350044e+3, 2.745324e+2, -369648.88, -356228.1, -40507.184, -0.03676704, 0.16874425, -321879.25, -72276.734, 0.0, 9.999364, 9.999537 
1.1350033e+3, 2.8453225e+2, -296774.94, -283681.3, -14425.858, -0.02955049, 0.20797223, -274386.22, -122781.66, 0.0, 9.999248, 9.999419 
1.1350023e+3, 2.945326e+2, -172121.06, -169051.53, -11160.171, -0.044131536, 0.29501608, -159321.1, -105719.32, 0.0, 9.999414, 9.999453 
1.1350015e+3, 3.0453116e+2, -130097.734, -122283.086, -9324.98, -0.04137021, 0.20516339, -116079.9, -116079.9, 0.0, 9.999362, 9.999465 
1.13500096e+3, 3.1453103e+2, -142170.19, -78587.83, -10615.308, -0.016397579, 0.24119553, -76862.38, -76862.38, 0.0, 9.999063, 9.99991 
1.1450214e+3, 1.2454251e+2, -1633376.0, -1749571.5, -73840.12, 0.03771232, 0.18287408, -1597517.9, 121983.23, 0.0013373722, 10.000891, 9.999328 
1.1450203e+3, 1.3454159e+2, -1471361.9, -1663504.4, 51525.266, -0.06084238, 0.19167076, -1458416.9, 163093.89, 0.000672049, 10.001494, 9.998966 
1.1450217e+3, 1.4454053e+2, -1329409.4, -1500004.0, 15058.822, 0.0864747, 0.17260517, -1328090.3, 195430.58, 0.0002032588, 10.001615, 9.99935 
1.1450203e+3, 1.5453993e+2, -1313462.3, -1439295.5, -9807.4795, 0.029473796, 0.17452988, -1312702.4, 112823.35, 0.000019742625, 10.001042, 9.999368 
1.1450187e+3, 1.6453922e+2, -1261859.0, -1374269.1, -20396.94, -0.015040433, 0.17064823, -1258272.4, 69259.68, 0.000000013934886, 10.000769, 9.999273 
1.14501745e+3, 1.7453831e+2, -1148094.4, -1265069.0, -23659.969, -0.024786761, 0.1479348, -1143490.0, 86050.16, 0.0, 10.000861, 9.999306 
1.1450165e+3, 1.8453756e+2, -1070691.8, -1188072.5, -20614.44, -0.01678681, 0.14879781, -1067176.6, 64370.566, 0.0, 10.000767, 9.9992075 
1.14501566e+3, 1.9453704e+2, -1014396.25, -1107037.3, -12516.429, 0.0044528414, 0.1711174, -1012735.0, 20817.693, 0.0, 10.000467, 9.999235 
1.1450143e+3, 2.045364e+2, -924635.75, -991687.56, -17238.879, -0.007738471, 0.17329001, -920463.3, 15095.827, 0.0, 10.000318, 9.999426 
1.1450126e+3, 2.1453556e+2, -819633.2, -885628.1, -25143.398, -0.058194987, 0.1434678, -811145.44, 26421.236, 0.0, 10.000346, 9.999468 
1.1450111e+3, 2.245349e+2, -746658.25, -828276.75, -36254.67, -0.06657487, 0.14191072, -732880.0, 6693.7627, 0.0, 10.000298, 9.999212 
1.1450099e+3, 2.3453438e+2, -667537.75, -737068.75, -25517.04, -0.02632502, 0.16558948, -659178.3, -17597.963, 0.0, 10.000158, 9.999232 
1.1450084e+3, 2.4453406e+2, -568925.9, -576145.75, -11075.168, -0.022634609, 0.18481323, -560887.1, -17302.773, 0.0, 9.999893, 9.999792 
1.1450069e+3, 2.5453398e+2, -526533.56, -497909.63, -18145.139, -0.06163167, 0.1901239, -489111.47, -43526.254, 0.0, 9.99948, 9.999855 
1.1450052e+3, 2.6453367e+2, -471949.44, -461617.4, -34999.492, -0.065633595, 0.1907824, -431404.72, -83815.695, 0.0, 9.999358, 9.999491 
1.145004e+3, 2.745331e+2, -339999.56, -344975.03, -38558.2, -0.02993176, 0.17977181, -303848.94, -54252.813, 0.0, 9.999582, 9.99951 
1.1450027e+3, 2.845329e+2, -259671.02, -264286.78, -16198.643, -0.027766077, 0.21671136, -245616.67, -94017.984, 0.0, 9.999498, 9.999432 
1.14500135e+3, 2.945332e+2, -228376.69, -195427.7, -15064.742, -0.061195605, 0.29673767, -189578.33, -135981.98, 0.0, 9.999025, 9.999459 
1.14500046e+3, 3.045316e+2, -185346.38, -137056.88, -2787.809, -0.056365583, 0.18847367, -136896.47, -136896.47, 0.0, 9.998933, 9.999571 
1.1450004e+3, 3.1453168e+2, -87854.63, -22371.25, -2046.6765, 0.00019878091, 0.2320992, -22307.344, -22307.344, 0.0, 9.999311, 10.000175 
1.15502246e+3, 1.24543644e+2, -1629456.3, -1738606.8, -71205.12, 0.04861067, 0.19590303, -1594317.4, 125171.84, 0.001489488, 10.00088, 9.999408 
1.1550219e+3, 1.345422e+2, -1465518.9, -1651795.1, 76460.62, -0.044816334, 0.14472781, -1438154.1, 183348.95, 0.00075867696, 10.001496, 9.999046 
1.1550232e+3, 1.4454104e+2, -1345963.0, -1535010.8, -4640.205, 0.07061466, 0.1235683, -1345849.3, 177665.08, 0.0002361324, 10.0016165, 9.999109 
1.1550209e+3, 1.5454072e+2, -1331104.4, -1476342.6, -31271.584, -0.009581363, 0.17494379, -1324657.4, 100860.625, 0.000024990082, 10.001043, 9.999114 
1.15501925e+3, 1.6454007e+2, -1268793.0, -1388406.1, -19150.97, -0.034264002, 0.19766816, -1265801.6, 61722.54, 0.000000023716384, 10.000767, 9.999177 
1.1550188e+3, 1.7453913e+2, -1154648.3, -1278305.8, -20394.057, 0.019014714, 0.18112096, -1151371.6, 78160.96, 0.0, 10.000859, 9.999216 
1.1550176e+3, 1.8453823e+2, -1056658.0, -1158638.5, -32523.586, 0.018829819, 0.15958594, -1047168.56, 84372.22, 0.0, 10.000765, 9.999411 
1.1550156e+3, 1.9453733e+2, -998855.8, -1075412.9, -24161.89, -0.047118094, 0.122378975, -991868.0, 41680.895, 0.0, 10.000468, 9.999452 
1.15501404e+3, 2.0453678e+2, -937291.8, -1018053.7, -18199.754, -0.064729266, 0.13344271, -933379.94, 2174.4065, 0.0, 10.000318, 9.999246 
1.1550133e+3, 2.1453667e+2, -833917.4, -914623.56, -24798.541, -0.022674594, 0.19469516, -826906.56, 10650.103, 0.0, 10.000342, 9.999271 
1.1550119e+3, 2.2453609e+2, -727459.6, -786982.44, -42542.78, -0.018133488, 0.19865765, -705301.56, 34261.42, 0.0, 10.000292, 9.999499 
1.1550098e+3, 2.3453492e+2, -646216.1, -692245.7, -30737.025, -0.05934147, 0.12553847, -630832.44, 10741.791, 0.0, 10.000155, 9.999542 
1.1550078e+3, 2.4453448e+2, -579687.75, -597857.1, -26465.77, -0.07467358, 0.124693476, -560790.8, -17212.098, 0.0, 9.999889, 9.999645 
1.1550064e+3, 2.5453496e+2, -538447.3, -522957.66, -33051.027, -0.058198154, 0.20270881, -496756.16, -51181.008, 0.0, 9.99948, 9.999683 
1.1550049e+3, 2.6453486e+2, -477537.78, -473128.22, -27653.95, -0.04410143, 0.23627283, -447591.28, -100013.61, 0.0, 9.999357, 9.999413 
1.1550035e+3, 2.7453402e+2, -346038.7, -355718.63, -29300.738, -0.033739716, 0.21063225, -321180.88, -71593.71, 0.0, 9.999574, 9.99944 
1.15500204e+3, 2.8453362e+2, -259189.4, -260532.5, -32094.383, -0.035518236, 0.22364263, -227759.55, -76167.44, 0.0, 9.999485, 9.999464 
1.1550005e+3, 2.9453355e+2, -225660.16, -190651.5, -29939.094, -0.05243134, 0.26495448, -173475.14, -119882.53, 0.0, 9.999028, 9.999492 
1.15499936e+3, 3.0453187e+2, -177064.06, -120156.99, 10363.342, -0.059796285, 0.1385703, -118328.48, -118328.48, 0.0, 9.998934, 9.999687 
1.1549993e+3, 3.1453252e+2, -67848.63, 21236.021, 14324.415, -0.043437496, 0.23247708, 23482.666, 23482.666, 0.0, 9.999302, 10.00048 
1.16502345e+3, 1.2454443e+2, -1572346.8, -1702167.0, -82503.58, 0.04626165, 0.18496186, -1532280.0, 187201.42, 0.0016512593, 10.001236, 9.999486 
1.16502345e+3, 1.3454317e+2, -1505087.1, -1662827.3, 81129.58, -0.03817392, 0.14654858, -1470809.1, 150683.89, 0.0008513687, 10.001188, 9.99912 
1.1650246e+3, 1.4454208e+2, -1406041.4, -1578296.6, -12941.987, 0.058213927, 0.1336457, -1405074.5, 118429.1, 0.00027198074, 10.001265, 9.998981 
1.16502225e+3, 1.5454148e+2, -1289627.1, -1471729.9, -34525.6, 0.0053926175, 0.171753, -1283301.0, 142209.36, 0.00003101119, 10.001393, 9.998978 
1.16502054e+3, 1.645407e+2, -1185892.4, -1341358.6, -7094.36, -0.014865201, 0.18408471, -1185569.3, 141948.44, 0.00000004774233, 10.001307, 9.999241 
1.16501965e+3, 1.7453974e+2, -1130184.9, -1258333.9, 3111.8103, 0.0099710105, 0.16020897, -1130109.4, 99415.87, 0.0, 10.000993, 9.999289 
1.16501816e+3, 1.8453887e+2, -1051246.8, -1169604.8, -12759.42, -0.00048723316, 0.14278334, -1049886.9, 81646.3, 0.0, 10.000859, 9.9992895 
1.1650162e+3, 1.9453801e+2, -938417.06, -1060478.3, -31187.086, -0.05551514, 0.123969644, -930910.3, 102631.36, 0.0, 10.000945, 9.999325 
1.16501465e+3, 2.0453747e+2, -879167.44, -991771.56, -38218.04, -0.064253815, 0.1412594, -867421.44, 68126.42, 0.0, 10.000726, 9.999229 
1.1650135e+3, 2.1453725e+2, -862684.5, -930082.6, -31717.678, -0.0165586, 0.19322903, -850105.75, -12554.599, 0.0, 10.000152, 9.999257 
1.165012e+3, 2.2453673e+2, -783046.7, -798396.6, -39393.453, -0.014754154, 0.1976766, -750587.5, -11030.694, 0.0, 9.999844, 9.999636 
1.16500966e+3, 2.3453583e+2, -680463.6, -692500.3, -41667.582, -0.06874167, 0.1380975, -644382.0, -2816.9133, 0.0, 9.999851, 9.999686 
1.1650076e+3, 2.4453545e+2, -591954.6, -620125.44, -47995.3, -0.086862765, 0.14128403, -556020.56, -12451.36, 0.0, 9.999877, 9.999498 
1.165006e+3, 2.545357e+2, -484994.66, -514838.03, -54398.242, -0.062688805, 0.2103631, -443508.7, 2059.7415, 0.0, 9.999926, 9.999524 
1.1650044e+3, 2.645354e+2, -425878.56, -447441.84, -44441.35, -0.046007324, 0.23493554, -390929.72, -43357.094, 0.0, 9.999711, 9.999417 
1.16500296e+3, 2.7453452e+2, -405297.34, -383804.4, -40775.11, -0.03697993, 0.20225465, -352383.4, -102801.11, 0.0, 9.999165, 9.999445 
1.1650013e+3, 2.8453416e+2, -326350.84, -288625.56, -36408.246, -0.036931396, 0.21809606, -266483.8, -114897.25, 0.0, 9.999005, 9.999503 
1.1649996e+3, 2.9453424e+2, -179791.36, -164094.89, -36771.195, -0.04897855, 0.27178875, -134343.72, -80758.16, 0.0, 9.999326, 9.99953 
1.16499856e+3, 3.0453244e+2, -133422.56, -118012.29, -4386.7505, -0.053992182, 0.14052056, -116851.04, -116851.04, 0.0, 9.999315, 9.999517 
1.1649984e+3, 3.1453288e+2, -132186.3, -8867.579, -21660.633, -0.03125139, 0.22780935, -5173.5947, -5173.5947, 0.0, 9.998854, 10.000491 
1.1750245e+3, 1.2454493e+2, -1566422.6, -1690668.4, -100741.26, 0.027864939, 0.15326251, -1510189.9, 209286.83, 0.0018234614, 10.001239, 9.999564 
1.1750245e+3, 1.3454458e+2, -1500010.9, -1652519.1, 81035.98, -0.045341887, 0.19756146, -1464992.8, 156486.77, 0.0009506097, 10.001187, 9.999192 
1.1750258e+3, 1.4454372e+2, -1408307.3, -1581747.0, -8538.173, 0.04396393, 0.20334978, -1407887.9, 115600.0, 0.00031097958, 10.00126, 9.99896 
1.1750243e+3, 1.5454231e+2, -1291539.0, -1475256.4, -29805.549, 0.07142839, 0.16446228, -1286824.5, 138677.8, 0.00003785508, 10.001391, 9.998954 
1.17502235e+3, 1.6454114e+2, -1170264.8, -1309726.6, -19457.467, 0.03933052, 0.12846716, -1167601.0, 159911.44, 0.00000010132158, 10.0013075, 9.999458 
1.17502004e+3, 1.7454024e+2, -1113650.3, -1224660.9, -8890.173, -0.053722773, 0.08531472, -1112942.9, 116574.87, 0.0, 10.000994, 9.99952 
1.1750183e+3, 1.8453957e+2, -1082625.8, -1234227.4, -11587.951, -0.07791708, 0.09953605, -1081745.1, 49778.656, 0.0, 10.000857, 9.998847 
1.1750174e+3, 1.945392e+2, -972421.6, -1130172.1, -28476.275, -0.022238314, 0.17608832, -967438.6, 66091.87, 0.0, 10.000941, 9.998848 
1.1750159e+3, 2.045385e+2, -869371.75, -970795.25, -60030.082, -0.008624287, 0.19626614, -841500.44, 94038.55, 0.0, 10.000722, 9.999375 
1.17501356e+3, 2.1453737e+2, -850336.9, -904562.5, -53690.24, -0.042863086, 0.13855346, -817302.0, 20247.639, 0.0, 10.000151, 9.999433 
1.1750113e+3, 2.2453688e+2, -785338.4, -802722.56, -41252.023, -0.0602071, 0.13929948, -751872.6, -12318.02, 0.0, 9.999841, 9.999608 
1.1750096e+3, 2.3453718e+2, -682997.56, -697691.25, -41569.33, -0.056054473, 0.20274346, -648130.8, -6578.2515, 0.0, 9.999849, 9.999652 
1.1750078e+3, 2.4453698e+2, -602471.75, -641381.44, -47024.89, -0.060792014, 0.23334509, -571036.2, -27480.666, 0.0, 9.999874, 9.999354 
1.1750057e+3, 2.5453618e+2, -495958.94, -536575.6, -52015.84, -0.077297635, 0.21278226, -460427.56, -14862.899, 0.0, 9.999921, 9.999377 
1.1750038e+3, 2.6453537e+2, -419661.75, -433571.47, -63385.953, -0.073722415, 0.187633, -362850.25, -15276.94, 0.0, 9.999705, 9.999516 
1.1750019e+3, 2.745346e+2, -397826.88, -368093.2, -59504.09, -0.04604806, 0.1547901, -321626.84, -72046.01, 0.0, 9.999163, 9.999555 
1.1750004e+3, 2.8453457e+2, -327348.75, -290438.6, -25598.412, -0.037799545, 0.19897681, -277336.28, -125754.66, 0.0, 9.999003, 9.999493 
1.1749989e+3, 2.9453528e+2, -181761.08, -166294.7, -23727.857, -0.053276807, 0.31635687, -149071.66, -95496.305, 0.0, 9.999317, 9.999519 
1.17499806e+3, 3.045334e+2, -161510.31, -173752.14, -19317.79, -0.041221585, 0.19315802, -147366.9, -147366.9, 0.0, 9.999303, 9.999142 
1.1749978e+3, 3.1453288e+2, -145472.13, -35630.977, -34457.383, 0.024015699, 0.22320178, -25716.525, -25716.525, 0.0, 9.99885, 10.000309 
1.18502565e+3, 1.24545865e+2, -1510338.9, -1669481.8, -118541.69, 0.0018957024, 0.17109728, -1447138.6, 272330.13, 0.0020081834, 10.001654, 9.999508 
1.185026e+3, 1.3454531e+2, -1465664.1, -1642261.6, 63583.41, -0.022774907, 0.20259112, -1445153.3, 176319.97, 0.0010574218, 10.0014515, 9.999134 
1.185027e+3, 1.4454448e+2, -1397942.4, -1567043.0, -22033.734, 0.042420518, 0.20951939, -1395118.6, 128362.5, 0.00035351914, 10.00129, 9.999045 
1.1850255e+3, 1.545431e+2, -1322335.6, -1479229.3, -36038.613, 0.0711217, 0.16404401, -1314453.5, 111041.086, 0.00004562391, 10.001135, 9.999049 
1.1850237e+3, 1.6454196e+2, -1205853.6, -1333243.6, -33162.113, 0.04401845, 0.1294407, -1197738.0, 129766.38, 0.00000019883093, 10.001091, 9.999401 
1.18502125e+3, 1.7454112e+2, -1089338.6, -1219648.1, -45701.8, -0.044757716, 0.09801547, -1074908.1, 154601.11, 0.0, 10.001191, 9.999459 
1.1850194e+3, 1.845404e+2, -1060709.8, -1227200.6, -47638.598, -0.066150285, 0.11168424, -1048042.56, 83473.33, 0.0, 10.001024, 9.998815 
1.18501835e+3, 1.9453984e+2, -1031197.0, -1162099.4, -32386.098, -0.009336034, 0.17205063, -1023622.75, 9901.591, 0.0, 10.000552, 9.9988165 
1.1850165e+3, 2.0453905e+2, -923702.94, -990487.6, -50982.94, 0.000982537, 0.18305801, -896150.1, 39383.17, 0.0, 10.00032, 9.9994335 
1.1850138e+3, 2.14538e+2, -813429.2, -878782.3, -54150.586, -0.043796826, 0.1257968, -782859.9, 54683.004, 0.0, 10.000372, 9.999502 
1.18501134e+3, 2.2453755e+2, -727418.25, -784809.94, -42769.824, -0.06396633, 0.13105674, -704609.6, 34937.887, 0.0, 10.000283, 9.999517 
1.18500955e+3, 2.3453784e+2, -664599.8, -699613.94, -48291.543, -0.05444305, 0.20319055, -630739.9, 10806.348, 0.0, 10.000023, 9.999556 
1.18500754e+3, 2.4453762e+2, -610142.44, -636005.44, -46211.91, -0.05767268, 0.23315272, -575086.8, -31537.303, 0.0, 9.999783, 9.999434 
1.18500546e+3, 2.5453678e+2, -541856.0, -549269.5, -35123.496, -0.07610691, 0.2015105, -510244.22, -64685.742, 0.0, 9.999565, 9.999462 
1.18500344e+3, 2.6453605e+2, -447291.06, -437434.38, -43317.195, -0.07434819, 0.17357758, -398766.06, -51199.918, 0.0, 9.999475, 9.9996 
1.1850012e+3, 2.745354e+2, -335229.0, -328077.25, -43446.785, -0.04991268, 0.14615682, -288059.44, -38487.594, 0.0, 9.999552, 9.99964 
1.1849995e+3, 2.8453535e+2, -271947.16, -272681.78, -4956.188, -0.039562322, 0.18686692, -267344.7, -115771.914, 0.0, 9.999424, 9.99941 
1.18499815e+3, 2.9453585e+2, -230679.72, -200861.8, -8233.521, -0.04396862, 0.2916173, -198739.38, -145170.53, 0.0, 9.999027, 9.999422 
1.1849972e+3, 3.0453393e+2, -220813.13, -210257.64, 2989.3296, -0.034842264, 0.17796418, -209469.84, -209469.84, 0.0, 9.998931, 9.999069 
1.1849968e+3, 3.1453353e+2, -81378.01, 12163.8125, 6571.001, 0.015469543, 0.22599274, 12623.148, 12623.148, 0.0, 9.999218, 10.000459 
1.195027e+3, 1.24547295e+2, -1525836.0, -1699750.1, -135631.97, -0.03938726, 0.23823987, -1451679.6, 267777.06, 0.0022081332, 10.001645, 9.999305 
1.195028e+3, 1.3454548e+2, -1479300.0, -1671417.4, 57138.504, 0.026639026, 0.16176268, -1463590.8, 157882.66, 0.0011730703, 10.001454, 9.998934 
1.19502835e+3, 1.4454445e+2, -1383245.0, -1538114.3, -28574.703, 0.05053775, 0.15186153, -1378141.0, 145341.4, 0.00040013902, 10.001296, 9.999242 
1.195026e+3, 1.5454394e+2, -1306912.9, -1447879.0, -41974.54, 0.0026486928, 0.17083912, -1295361.0, 130125.74, 0.00005450229, 10.001136, 9.999265 
1.1950243e+3, 1.6454326e+2, -1229460.5, -1381965.5, -30850.486, -0.0043784576, 0.18830338, -1223456.1, 104036.35, 0.00000035173326, 10.001089, 9.999067 
1.1950232e+3, 1.7454247e+2, -1114665.4, -1272017.8, -42138.523, 0.034289934, 0.19770153, -1104091.4, 125407.97, 0.0, 10.001189, 9.999101 
1.19502135e+3, 1.845414e+2, -1034745.2, -1173483.8, -65566.15, 0.03070454, 0.17693703, -1008662.8, 122846.37, 0.0, 10.001023, 9.999184 
1.1950188e+3, 1.9453998e+2, -1002557.4, -1103138.8, -50639.832, -0.019496696, 0.110878065, -981478.94, 52043.71, 0.0, 10.000553, 9.999221 
1.1950165e+3, 2.045392e+2, -926225.44, -995139.7, -51248.445, -0.03865305, 0.10300957, -898927.44, 36602.664, 0.0, 10.000317, 9.999403 
1.1950144e+3, 2.1453919e+2, -817257.25, -886552.7, -52783.1, -0.020240935, 0.15505064, -788766.06, 48764.234, 0.0, 10.00037, 9.99945 
1.1950121e+3, 2.2453876e+2, -738049.6, -806424.4, -53273.945, -0.027731061, 0.17222092, -708937.0, 30598.158, 0.0, 10.00028, 9.999371 
1.1950095e+3, 2.3453785e+2, -675264.94, -721840.8, -58047.42, -0.06592762, 0.13924369, -636008.25, 5537.19, 0.0, 10.000022, 9.999403 
1.1950072e+3, 2.4453741e+2, -589910.1, -593768.5, -54919.395, -0.0800296, 0.14147016, -536886.06, 6664.4995, 0.0, 9.999781, 9.999725 
1.1950051e+3, 2.5453755e+2, -520285.9, -503742.22, -42692.246, -0.063853644, 0.176468, -468527.84, -22978.404, 0.0, 9.99956, 9.999777 
1.195003e+3, 2.6453742e+2, -444779.0, -431683.28, -41018.742, -0.052157074, 0.19164477, -396693.06, -49142.168, 0.0, 9.999472, 9.999642 
1.19500086e+3, 2.7453697e+2, -333564.4, -323668.78, -39728.76, -0.04902926, 0.17685872, -288580.9, -39025.758, 0.0, 9.999547, 9.999674 
1.1949989e+3, 2.845365e+2, -280007.47, -288992.75, -18395.799, -0.043186363, 0.1825881, -265563.66, -114003.96, 0.0, 9.999421, 9.9993 
1.1949974e+3, 2.94536e+2, -240578.94, -219731.73, -20533.865, -0.03187732, 0.19655664, -207127.28, -153561.84, 0.0, 9.99902, 9.999296 
1.1949961e+3, 3.0453417e+2, -211963.48, -190901.61, 13165.625, -0.045123003, 0.09425182, -184573.3, -184573.3, 0.0, 9.998925, 9.999206 
1.1949953e+3, 3.1453496e+2, -56440.586, 66289.45, 20023.598, -0.058476634, 0.24637112, 69473.72, 69473.72, 0.0, 9.999208, 10.000835 
1.20502844e+3, 1.2454826e+2, -1566473.6, -1715991.0, -128814.54, -0.036183987, 0.25108486, -1492295.9, 227152.47, 0.0024257244, 10.001353, 9.999332 
1.2050298e+3, 1.3454643e+2, -1441206.3, -1648822.1, 86718.25, 0.051059484, 0.17189829, -1409751.0, 211713.88, 0.0012988481, 10.001698, 9.998972 
1.2050296e+3, 1.445455e+2, -1322552.6, -1514532.3, -9179.035, 0.031673018, 0.17085725, -1322114.8, 201357.92, 0.00045139206, 10.001738, 9.99919 
1.2050271e+3, 1.5454486e+2, -1272793.6, -1436935.0, -45185.832, -0.014819904, 0.18305488, -1261176.8, 164301.19, 0.00006471426, 10.001395, 9.999213 
1.20502524e+3, 1.6454408e+2, -1229711.8, -1387099.3, -25989.863, -0.00648768, 0.19480032, -1225531.0, 101953.64, 0.00000057087306, 10.001111, 9.999021 
1.2050244e+3, 1.745432e+2, -1157119.3, -1298129.9, -14683.272, 0.05654226, 0.19941667, -1155606.5, 73886.45, 0.0, 10.000922, 9.999049 
1.20502256e+3, 1.8454216e+2, -1052864.0, -1161476.1, -38969.594, 0.054439563, 0.17690581, -1040328.7, 91173.555, 0.0, 10.00081, 9.99937 
1.2050194e+3, 1.9454096e+2, -955319.8, -1057476.3, -40579.004, -0.020846065, 0.11331849, -941162.75, 92349.75, 0.0, 10.000781, 9.999424 
1.2050168e+3, 2.0454024e+2, -884485.8, -985266.9, -45276.477, -0.04714504, 0.10311284, -867132.94, 68386.24, 0.0, 10.0006485, 9.9993105 
1.2050147e+3, 2.1454003e+2, -821220.25, -900539.25, -51603.313, -0.015858585, 0.14721088, -795796.9, 41724.734, 0.0, 10.000395, 9.999343 
1.20501235e+3, 2.2453956e+2, -754384.1, -811127.7, -52632.996, -0.017631922, 0.16389902, -722963.0, 16564.096, 0.0, 10.000154, 9.999399 
1.2050095e+3, 2.3453878e+2, -686009.44, -722618.56, -44992.73, -0.05838327, 0.13989301, -655740.3, -14204.242, 0.0, 9.99993, 9.999441 
1.205007e+3, 2.4453838e+2, -597928.5, -595188.4, -42845.883, -0.07367039, 0.14159197, -553690.7, -10149.895, 0.0, 9.999716, 9.999746 
1.20500475e+3, 2.5453842e+2, -525863.6, -503635.47, -53939.63, -0.058433555, 0.16365919, -459676.8, -14136.327, 0.0, 9.999512, 9.999801 
1.2050026e+3, 2.6453832e+2, -459226.88, -435136.84, -56483.22, -0.04839677, 0.18133593, -389428.63, -41887.207, 0.0, 9.99936, 9.999671 
1.2050003e+3, 2.745381e+2, -372643.1, -339586.7, -55556.992, -0.045312785, 0.1876043, -298151.44, -48607.824, 0.0, 9.999267, 9.9997 
1.2049983e+3, 2.8453767e+2, -316129.3, -302355.16, -38220.215, -0.038739633, 0.19167794, -270406.47, -118858.555, 0.0, 9.999157, 9.999335 
1.2049965e+3, 2.9453686e+2, -236100.2, -213904.48, -32743.768, -0.026972597, 0.17646906, -190429.0, -136873.39, 0.0, 9.999037, 9.999327 
1.204995e+3, 3.045351e+2, -212190.95, -203640.75, 14210.643, -0.04748787, 0.07958832, -193076.08, -193076.08, 0.0, 9.9989805, 9.99909 
1.20499425e+3, 3.145357e+2, -85066.49, 60681.906, 2780.8787, -0.06917332, 0.22675078, 60734.945, 60734.945, 0.0, 9.998976, 10.00091 
1.21503025e+3, 1.24548845e+2, -1549240.3, -1680463.1, -123243.445, 0.007424404, 0.21105991, -1475231.5, 244211.66, 0.0026624324, 10.001353, 9.9995775 
1.2150315e+3, 1.3454829e+2, -1422022.8, -1609834.5, 99893.13, 0.04680018, 0.23222578, -1378826.6, 242620.44, 0.0014356553, 10.0016985, 9.999239 
1.21503085e+3, 1.445477e+2, -1343343.9, -1557468.4, -21743.436, -0.018960794, 0.26529676, -1341158.3, 182293.33, 0.0005075534, 10.001736, 9.998897 
1.21502884e+3, 1.5454596e+2, -1295082.4, -1483419.0, -57892.47, 0.016219363, 0.19992788, -1278710.3, 146757.31, 0.000076397075, 10.001395, 9.998896 
1.2150268e+3, 1.645445e+2, -1214003.5, -1354673.4, -34780.1, 0.033732653, 0.1476071, -1205874.0, 121606.445, 0.0000008702971, 10.001111, 9.999243 
1.21502504e+3, 1.7454337e+2, -1139689.1, -1262393.4, -22159.611, 0.020039149, 0.104007676, -1135809.9, 93679.664, 0.0, 10.000923, 9.999294 
1.2150228e+3, 1.845428e+2, -1052691.8, -1160603.4, -41482.56, 0.0024596395, 0.11453046, -1038588.5, 92905.65, 0.0, 10.000807, 9.999377 
1.2150203e+3, 1.9454287e+2, -955506.6, -1058292.6, -42007.85, -0.014541878, 0.17910421, -940522.7, 92970.63, 0.0, 10.000782, 9.999418 
1.2150177e+3, 2.0454219e+2, -895163.2, -1007957.1, -55864.984, -0.02684015, 0.18131194, -872178.06, 63322.203, 0.0, 10.00065, 9.999155 
1.215015e+3, 2.1454059e+2, -832833.75, -924443.0, -61681.047, -0.033504374, 0.10134718, -801809.94, 35706.45, 0.0, 10.000392, 9.99918 
1.2150123e+3, 2.2454001e+2, -741504.6, -783323.7, -62403.7, -0.036506344, 0.10657668, -696600.56, 42922.31, 0.0, 10.000149, 9.999593 
1.2150096e+3, 2.3454067e+2, -671354.94, -691909.25, -53471.547, -0.033962037, 0.20486903, -627181.9, 14335.889, 0.0, 9.999928, 9.999654 
1.2150071e+3, 2.4454051e+2, -615718.2, -632078.06, -51197.215, -0.04090972, 0.23245499, -572051.56, -28531.607, 0.0, 9.999715, 9.999495 
1.21500425e+3, 2.5453934e+2, -544886.2, -543391.25, -60973.383, -0.06090182, 0.1634505, -483160.75, -37629.555, 0.0, 9.999512, 9.999528 
1.2150017e+3, 2.6453876e+2, -457988.8, -432720.06, -59882.426, -0.06400483, 0.14350183, -384153.7, -36616.4, 0.0, 9.999359, 9.999688 
1.2149995e+3, 2.7453884e+2, -371477.13, -335169.78, -57413.832, -0.04632665, 0.17788388, -293107.97, -43571.15, 0.0, 9.999257, 9.999734 
1.2149975e+3, 2.845388e+2, -307908.44, -284038.16, -42297.555, -0.03409952, 0.21353836, -252024.11, -100486.99, 0.0, 9.999149, 9.999465 
1.21499546e+3, 2.9453853e+2, -227098.02, -194458.4, -36187.926, -0.029453794, 0.23344466, -171080.58, -117541.31, 0.0, 9.999032, 9.999462 
1.21499404e+3, 3.0453664e+2, -233807.22, -248421.6, 14777.962, -0.042273488, 0.13640992, -224628.56, -224628.56, 0.0, 9.99898, 9.998784 
1.2149937e+3, 3.1453583e+2, -97946.33, 37484.785, 7521.1333, -0.029750146, 0.17184395, 37901.188, 37901.188, 0.0, 9.9989605, 10.000756 
1.22503184e+3, 1.2455006e+2, -1498279.6, -1664634.3, -98614.72, 0.012332951, 0.20479429, -1452448.0, 266982.28, 0.0029179724, 10.001744, 9.9994955 
1.2250332e+3, 1.3454938e+2, -1474794.1, -1639391.6, 100416.13, 0.062359206, 0.2186043, -1427260.4, 194175.42, 0.0015834377, 10.001356, 9.9992 
1.2250321e+3, 1.445489e+2, -1411369.1, -1581950.6, -20175.947, -0.039975602, 0.2595794, -1409015.3, 114424.06, 0.00056846405, 10.001235, 9.998968 
1.2250304e+3, 1.5454714e+2, -1277906.9, -1466565.5, -28381.236, 0.025677988, 0.1850607, -1273729.9, 151725.02, 0.00008951281, 10.001478, 9.99897 
1.2250282e+3, 1.6454561e+2, -1167032.0, -1336234.4, -6256.768, 0.04583683, 0.12495054, -1166800.9, 160667.19, 0.0000012652538, 10.0014515, 9.999206 
1.2250257e+3, 1.745444e+2, -1118679.4, -1256237.0, -16540.326, -0.001704854, 0.076513864, -1116718.5, 112759.79, 0.0, 10.001086, 9.999257 
1.2250234e+3, 1.8454385e+2, -1052767.8, -1167025.1, -40972.33, -0.021665912, 0.095135994, -1039594.1, 91888.74, 0.0, 10.000835, 9.999318 
1.2250211e+3, 1.9454409e+2, -966323.06, -1070209.5, -46413.707, -0.0055656172, 0.18197155, -948607.6, 84873.59, 0.0, 10.000737, 9.999357 
1.2250186e+3, 2.0454349e+2, -903332.7, -1010762.3, -62002.543, -0.0068268194, 0.1954158, -875013.4, 60474.383, 0.0, 10.000589, 9.999165 
1.2250154e+3, 2.145419e+2, -833635.1, -922576.0, -55521.95, -0.02861101, 0.1142095, -806969.75, 30534.193, 0.0, 10.00038, 9.999198 
1.2250125e+3, 2.2454125e+2, -740280.25, -786462.25, -55749.76, -0.037360266, 0.11362054, -703028.6, 36482.313, 0.0, 10.0001745, 9.999558 
1.2250096e+3, 2.3454174e+2, -667945.7, -694453.9, -67295.6, -0.03004937, 0.20043726, -612611.4, 28895.607, 0.0, 9.99997, 9.999616 
1.22500695e+3, 2.4454156e+2, -596351.94, -623752.25, -62008.7, -0.032175016, 0.22600727, -546548.0, -3038.5508, 0.0, 9.999852, 9.999485 
1.22500405e+3, 2.545405e+2, -496010.47, -520471.88, -52777.047, -0.047020175, 0.16703993, -454065.47, -8545.834, 0.0, 9.999851, 9.999521 
1.2250014e+3, 2.6453984e+2, -420499.22, -430013.94, -51451.168, -0.05384761, 0.14809714, -373585.94, -26059.475, 0.0, 9.999683, 9.99955 
1.22499876e+3, 2.7453968e+2, -374863.53, -352950.2, -65189.246, -0.0503964, 0.17096786, -297803.25, -48274.277, 0.0, 9.999305, 9.999588 
1.22499645e+3, 2.8453955e+2, -302296.7, -274649.44, -49588.773, -0.04434715, 0.20277335, -236993.56, -85463.35, 0.0, 9.999162, 9.999522 
1.2249945e+3, 2.945394e+2, -183070.9, -166046.34, -48644.96, -0.036583874, 0.2311264, -125174.5, -71643.96, 0.0, 9.999304, 9.999526 
1.224993e+3, 3.0453783e+2, -228726.25, -242585.42, -3643.7466, -0.037671506, 0.16010305, -227826.66, -227826.66, 0.0, 9.999, 9.998814 
1.2249926e+3, 3.1453666e+2, -205367.06, 3497.3357, 11530.78, 0.0047191214, 0.15309249, 4131.9873, 4131.9873, 0.0, 9.998146, 10.000916 
1.2350332e+3, 1.2455196e+2, -1527486.8, -1724636.8, -112406.1, -0.028556556, 0.22973949, -1476555.3, 242853.86, 0.0031899144, 10.001741, 9.999085 
1.2350348e+3, 1.3454981e+2, -1498941.6, -1690131.3, 85878.516, 0.095942244, 0.13124152, -1466031.6, 155398.56, 0.0017411282, 10.001357, 9.998852 
1.2350334e+3, 1.4454916e+2, -1382381.1, -1521351.1, -14049.77, -0.03498153, 0.15473428, -1380974.9, 142460.27, 0.0006337289, 10.001232, 9.999386 
1.2350316e+3, 1.5454845e+2, -1245638.1, -1400948.1, -19333.658, 0.010221609, 0.13899961, -1243267.6, 182171.7, 0.00010392506, 10.001482, 9.999419 
1.23502955e+3, 1.6454749e+2, -1187585.6, -1378570.0, -19855.627, 0.025862418, 0.12698615, -1185543.3, 141903.8, 0.0000017603737, 10.00145, 9.998916 
1.2350269e+3, 1.7454633e+2, -1141254.5, -1303580.3, -30467.717, -0.010255309, 0.11523466, -1135724.3, 93734.22, 0.0, 10.001087, 9.998933 
1.23502426e+3, 1.8454537e+2, -1062250.1, -1186636.5, -46795.297, -0.021349775, 0.11585201, -1046611.5, 84856.695, 0.0, 10.000834, 9.999185 
1.23502195e+3, 1.9454469e+2, -975045.9, -1088102.1, -50733.867, 0.0036219263, 0.12224185, -955617.75, 77857.9, 0.0, 10.000735, 9.999236 
1.2350193e+3, 2.0454422e+2, -891509.4, -985490.3, -70954.37, 0.010861389, 0.1473838, -853396.2, 82084.79, 0.0, 10.000586, 9.99934 
1.23501614e+3, 2.1454401e+2, -820257.7, -895043.4, -63834.047, -0.0033976443, 0.18550874, -783670.7, 53813.098, 0.0, 10.00038, 9.999388 
1.2350128e+3, 2.2454332e+2, -758626.5, -824960.06, -64530.92, -0.022839323, 0.1840658, -719237.94, 20253.064, 0.0, 10.000175, 9.999294 
1.2350095e+3, 2.345421e+2, -688260.5, -736697.25, -74800.67, -0.048058756, 0.12671356, -633855.3, 7648.0674, 0.0, 9.9999695, 9.999327 
1.2350066e+3, 2.4454156e+2, -580900.2, -591599.5, -62990.96, -0.048971158, 0.122808345, -523032.13, 20476.592, 0.0, 9.999851, 9.999707 
1.23500414e+3, 2.5454184e+2, -479192.1, -484448.13, -51989.723, -0.02106182, 0.1741152, -429764.0, 15741.532, 0.0, 9.9998455, 9.999772 
1.2350013e+3, 2.6454157e+2, -442905.63, -475714.16, -64712.59, -0.022297999, 0.19469301, -392550.47, -45041.73, 0.0, 9.999678, 9.99924 
1.234998e+3, 2.7454054e+2, -398645.72, -402599.8, -78198.3, -0.058777314, 0.16819945, -322399.47, -72879.6, 0.0, 9.999305, 9.999248 
1.23499535e+3, 2.8453985e+2, -302668.78, -275435.47, -44614.137, -0.07139058, 0.16072237, -242406.28, -90879.28, 0.0, 9.999161, 9.999517 
1.2349936e+3, 2.945395e+2, -183930.44, -165397.52, -40953.72, -0.05543123, 0.16743904, -132675.0, -79145.62, 0.0, 9.999293, 9.999536 
1.2349921e+3, 3.0453864e+2, -207623.81, -196491.7, -33135.547, -0.041764297, 0.14907682, -168457.97, -168457.97, 0.0, 9.998988, 9.999136 
1.23499095e+3, 3.145382e+2, -178026.67, 61760.105, -16274.55, 0.029282384, 0.18404984, 62859.633, 62859.633, 0.0, 9.998138, 10.00132 
1.2450348e+3, 1.245535e+2, -1524003.6, -1742305.8, -101770.164, -0.045410156, 0.20998994, -1483919.5, 235472.61, 0.003475539, 10.001852, 9.998909 
1.2450367e+3, 1.3455117e+2, -1422502.3, -1664163.9, 108019.97, 0.116666704, 0.10324314, -1381257.8, 240157.88, 0.0019075654, 10.001932, 9.998753 
1.2450348e+3, 1.4455058e+2, -1303794.3, -1486782.8, 6187.923, -0.04697239, 0.13986185, -1303585.3, 219835.13, 0.0007030745, 10.001786, 9.999355 
1.245033e+3, 1.5454991e+2, -1257479.5, -1408497.9, -35321.695, -0.0021689776, 0.1310758, -1249626.5, 175797.92, 0.00011956255, 10.001411, 9.999399 
1.24503076e+3, 1.6454908e+2, -1227836.0, -1395286.5, -48096.258, 0.021181818, 0.13234134, -1215004.6, 112426.516, 0.0000023468863, 10.0011635, 9.998938 
1.2450279e+3, 1.7454813e+2, -1141332.3, -1301269.4, -34186.613, -0.0038340515, 0.14009699, -1134331.4, 95109.5, 0.0, 10.001078, 9.998952 
1.2450252e+3, 1.8454713e+2, -1059269.1, -1188106.1, -32681.383, -0.016728077, 0.13396823, -1051453.3, 79997.93, 0.0, 10.000868, 9.999158 
1.2450225e+3, 1.9454603e+2, -1013388.7, -1109471.5, -30427.924, -0.007082884, 0.10294901, -1004563.25, 28898.87, 0.0, 10.000485, 9.999208 
1.24501966e+3, 2.045455e+2, -927889.06, -997737.5, -44492.027, 0.0022494139, 0.120375775, -906251.44, 29216.615, 0.0, 10.000314, 9.999386 
1.2450166e+3, 2.1454561e+2, -814261.4, -886566.1, -49157.02, 0.008013414, 0.1854954, -789394.0, 48073.902, 0.0, 10.000397, 9.999436 
1.2450132e+3, 2.24545e+2, -726653.1, -810468.3, -48947.305, -0.009325916, 0.18885547, -704124.06, 35350.246, 0.0, 10.000399, 9.999286 
1.2450095e+3, 2.3454353e+2, -638710.7, -713130.7, -39387.316, -0.053380605, 0.10921213, -621736.3, 19752.121, 0.0, 10.000313, 9.999322 
1.2450065e+3, 2.4454291e+2, -557839.5, -591124.56, -30477.887, -0.05554224, 0.101616636, -539756.3, 3738.3853, 0.0, 10.000056, 9.99961 
1.245004e+3, 2.5454327e+2, -523799.4, -517337.47, -47813.266, -0.0075593735, 0.17177576, -472646.13, -27154.844, 0.0, 9.999588, 9.999669 
1.2450011e+3, 2.6454303e+2, -475417.47, -489006.13, -55592.973, -0.0045558717, 0.19820803, -426205.2, -78710.805, 0.0, 9.999446, 9.999259 
1.2449975e+3, 2.7454194e+2, -337744.38, -370001.34, -41996.54, -0.056347154, 0.16090481, -308885.78, -59380.203, 0.0, 9.999709, 9.999276 
1.2449948e+3, 2.845411e+2, -250064.03, -250524.66, -2721.352, -0.0704582, 0.14042607, -247563.27, -96049.664, 0.0, 9.999524, 9.999513 
1.2449929e+3, 2.9454064e+2, -261043.06, -202933.83, -3708.5527, -0.038654428, 0.13457678, -202698.11, -149180.48, 0.0, 9.998766, 9.999531 
1.2449908e+3, 3.0454016e+2, -285130.7, -222870.66, -4241.858, -0.030616522, 0.15190694, -222582.98, -222582.98, 0.0, 9.99841, 9.999232 
1.2449891e+3, 3.145397e+2, -109352.87, 107946.27, -3808.554, 0.016453164, 0.17219622, 108013.0, 108013.0, 0.0, 9.998554, 10.001435 
1.2550367e+3, 1.245548e+2, -1520906.0, -1736896.5, -94819.18, -0.044666987, 0.14639442, -1485187.5, 234190.67, 0.0037739007, 10.001855, 9.998946 
1.2550387e+3, 1.345535e+2, -1412437.6, -1645068.0, 110226.97, 0.12080034, 0.13292003, -1368505.5, 252885.97, 0.0020822603, 10.001937, 9.998882 
1.2550363e+3, 1.445532e+2, -1337051.4, -1555168.9, -8897.505, -0.08050242, 0.21107648, -1336689.0, 186705.63, 0.0007764397, 10.001784, 9.998888 
1.2550344e+3, 1.545516e+2, -1291493.6, -1479369.4, -49277.516, -0.012855017, 0.15911588, -1279353.3, 146056.34, 0.00013646827, 10.001411, 9.998914 
1.255032e+3, 1.6455045e+2, -1205973.6, -1349463.0, -53389.375, 0.029040199, 0.13923752, -1188288.4, 139131.6, 0.0000030208696, 10.001161, 9.999254 
1.2550291e+3, 1.7454992e+2, -1115767.0, -1249227.9, -37649.758, 0.014538629, 0.15206793, -1105878.5, 123545.9, 0.0, 10.0010805, 9.999309 
1.2550262e+3, 1.8454918e+2, -1053873.0, -1176760.8, -47498.48, -0.01104538, 0.15060563, -1037654.5, 93776.625, 0.0, 10.000866, 9.999237 
1.2550227e+3, 1.9454819e+2, -1008659.4, -1100175.0, -45184.566, -0.03945013, 0.12296428, -990109.94, 43330.375, 0.0, 10.000486, 9.999272 
1.2550196e+3, 2.0454736e+2, -934438.2, -1011350.94, -43611.168, -0.035232797, 0.11259364, -914749.7, 20698.969, 0.0, 10.000314, 9.999293 
1.2550169e+3, 2.1454674e+2, -821509.8, -901248.1, -46420.9, 0.0042392975, 0.114708565, -800187.06, 37268.707, 0.0, 10.000395, 9.999337 
1.2550136e+3, 2.245463e+2, -709505.06, -774619.44, -53282.035, 0.0017385572, 0.12869173, -679620.7, 59839.7, 0.0, 10.000397, 9.999534 
1.2550099e+3, 2.345461e+2, -620079.44, -674182.8, -42655.777, -0.048599776, 0.14782357, -596620.6, 44841.348, 0.0, 10.00031, 9.999592 
1.2550066e+3, 2.4454562e+2, -587287.8, -651850.7, -47828.695, -0.054982062, 0.16226095, -561865.94, -18398.867, 0.0, 10.000053, 9.999195 
1.2550037e+3, 2.5454485e+2, -555644.7, -583520.6, -64634.445, -0.0085849175, 0.16089825, -503462.47, -57985.95, 0.0, 9.999588, 9.999216 
1.2550007e+3, 2.6454422e+2, -451221.94, -439003.44, -46643.754, -0.0029981085, 0.15937853, -398070.56, -50587.527, 0.0, 9.999446, 9.999603 
1.2549973e+3, 2.745438e+2, -311192.75, -313677.8, -30438.21, -0.047000956, 0.14797404, -281971.72, -32485.762, 0.0, 9.999703, 9.999666 
1.2549946e+3, 2.845433e+2, -252705.7, -254280.05, -28590.688, -0.045374453, 0.14072248, -224891.36, -73401.305, 0.0, 9.999516, 9.999492 
1.2549922e+3, 2.9454276e+2, -264451.75, -209448.73, -30700.955, 0.009720546, 0.1344311, -195732.75, -142237.56, 0.0, 9.998762, 9.999489 
1.2549895e+3, 3.0454242e+2, -293117.88, -238796.05, -2.8138206, -0.008781026, 0.1703984, -238796.05, -238796.05, 0.0, 9.998406, 9.9991255 
1.2549871e+3, 3.1454116e+2, -122837.586, 82760.65, 6961.9536, -0.041682564, 0.12422263, 82996.125, 82996.125, 0.0, 9.998542, 10.001269 
1.2650387e+3, 1.2455665e+2, -1497677.5, -1729873.5, -91874.07, -0.033956174, 0.14781713, -1465722.9, 253637.52, 0.004085261, 10.002031, 9.99891 
1.2650406e+3, 1.3455555e+2, -1431959.4, -1646467.1, 97893.58, 0.13352376, 0.14471956, -1394001.1, 227370.45, 0.0022650692, 10.00177, 9.998953 
1.2650377e+3, 1.4455529e+2, -1371566.3, -1575408.9, -10980.664, -0.10457645, 0.2275761, -1370976.4, 152397.53, 0.00085386867, 10.001564, 9.998854 
1.2650357e+3, 1.5455347e+2, -1282185.1, -1479999.0, -18779.379, -0.021823265, 0.15730397, -1280418.1, 144973.14, 0.00015477135, 10.001498, 9.998867 
1.2650332e+3, 1.6455224e+2, -1177086.0, -1329243.3, -12896.745, 0.026318304, 0.12935819, -1176000.6, 151401.88, 0.0000038088367, 10.001332, 9.99931 
1.2650302e+3, 1.745518e+2, -1118486.0, -1243371.5, -20469.389, 0.0070300787, 0.14570333, -1115216.6, 114189.305, 0.0, 10.001033, 9.99937 
1.265027e+3, 1.845512e+2, -1051023.5, -1167236.1, -42221.605, -0.016708272, 0.150488, -1037303.6, 94107.52, 0.0, 10.000853, 9.999308 
1.2650234e+3, 1.9455035e+2, -955526.0, -1066413.3, -40661.813, -0.038311463, 0.13077787, -942213.7, 91204.914, 0.0, 10.000818, 9.999343 
1.26502e+3, 2.0454946e+2, -881815.3, -991837.25, -31586.963, -0.038686603, 0.11451079, -873391.75, 62035.53, 0.0, 10.000701, 9.99924 
1.2650171e+3, 2.1454857e+2, -814280.1, -904014.9, -32144.248, -0.016408054, 0.094162695, -803953.94, 33483.137, 0.0, 10.000472, 9.99928 
1.265014e+3, 2.2454816e+2, -729786.9, -787109.3, -48289.34, -0.009231273, 0.114800274, -702293.6, 37148.176, 0.0, 10.00027, 9.999508 
1.2650104e+3, 2.3454835e+2, -652691.44, -692626.56, -61353.234, -0.018742155, 0.17539774, -608138.3, 33302.035, 0.0, 10.000098, 9.999567 
1.2650068e+3, 2.445479e+2, -606280.94, -665768.44, -70418.28, -0.023125878, 0.19471751, -559582.4, -16136.861, 0.0, 9.999944, 9.999153 
1.2650032e+3, 2.545467e+2, -524497.9, -572835.3, -58029.336, -0.02255041, 0.15433422, -485805.4, -40346.652, 0.0, 9.999821, 9.999176 
1.2649998e+3, 2.6454598e+2, -421848.38, -408926.22, -22655.371, -0.023612374, 0.1405163, -391828.63, -44363.055, 0.0, 9.999578, 9.999745 
1.264997e+3, 2.745459e+2, -378043.72, -328955.63, -25218.986, -0.025478762, 0.1481757, -318308.66, -68843.84, 0.0, 9.999171, 9.999818 
1.264994e+3, 2.8454554e+2, -323987.1, -283738.44, -37640.04, -0.017297477, 0.14471555, -261180.69, -109713.39, 0.0, 9.999004, 9.999535 
1.264991e+3, 2.9454494e+2, -206486.58, -177280.14, -35461.258, 0.0010545914, 0.12689057, -153532.95, -100059.9, 0.0, 9.999143, 9.999526 
1.2649879e+3, 3.0454478e+2, -221469.78, -219566.84, 1117.0236, -0.025830027, 0.18594985, -219050.98, -219050.98, 0.0, 9.998964, 9.998987 
1.2649857e+3, 3.1454298e+2, -164438.94, 32246.92, 5188.339, -0.027779976, 0.10119407, 32383.686, 32383.686, 0.0, 9.998386, 10.000996 
1.275041e+3, 1.2455915e+2, -1505702.4, -1745366.8, -93558.734, -0.019702626, 0.21345116, -1473505.0, 245833.13, 0.0044096503, 10.002027, 9.998806 
1.2750426e+3, 1.345573e+2, -1430604.0, -1643978.5, 87384.91, 0.1534638, 0.13811935, -1399384.4, 221970.78, 0.0024558255, 10.001772, 9.998969 
1.2750392e+3, 1.4455695e+2, -1344030.9, -1518949.0, -15625.454, -0.12231129, 0.18950817, -1342646.0, 180711.33, 0.00093550276, 10.001565, 9.999242 
1.2750371e+3, 1.5455559e+2, -1254318.3, -1423538.4, -21115.71, -0.03310305, 0.12615046, -1251723.3, 173645.5, 0.00017466526, 10.001502, 9.999253 
1.2750344e+3, 1.6455452e+2, -1192601.9, -1360839.9, -24838.627, 0.009358704, 0.10241357, -1189011.3, 138366.88, 0.0000047674703, 10.001329, 9.999094 
1.2750308e+3, 1.7455384e+2, -1135106.9, -1277922.4, -32151.732, -0.027743006, 0.12061077, -1128202.4, 101182.25, 0.0, 10.001033, 9.999134 
1.2750275e+3, 1.845532e+2, -1047146.4, -1158755.3, -45446.824, -0.03662877, 0.13230884, -1030981.7, 100409.12, 0.0, 10.00085, 9.999368 
1.2750244e+3, 1.945526e+2, -950075.4, -1055409.9, -42334.203, -0.005524191, 0.12708303, -935170.25, 98226.266, 0.0, 10.000818, 9.999419 
1.275021e+3, 2.0455189e+2, -882910.94, -994224.8, -41025.26, -0.0098055815, 0.12662157, -869424.75, 65978.63, 0.0, 10.0007, 9.999225 
1.2750173e+3, 2.1455115e+2, -816064.4, -907368.2, -41150.293, -0.05659509, 0.12337531, -800255.4, 37156.066, 0.0, 10.000469, 9.999259 
1.275014e+3, 2.2455062e+2, -751385.75, -831096.56, -56121.52, -0.045871764, 0.1468349, -722407.44, 17010.695, 0.0, 10.000265, 9.999208 
1.2750112e+3, 2.3455033e+2, -674941.5, -738803.94, -67726.89, 0.03473207, 0.19227965, -631995.9, 9427.284, 0.0, 10.000097, 9.99925 
1.2750074e+3, 2.4454974e+2, -583636.3, -618875.44, -75565.59, 0.03797005, 0.19911641, -523663.3, 19766.39, 0.0, 9.999943, 9.9994755 
1.2750027e+3, 2.5454882e+2, -499591.44, -520591.0, -61769.008, -0.05213917, 0.15171538, -447436.16, -1998.404, 0.0, 9.999817, 9.999537 
1.2749991e+3, 2.645483e+2, -426884.56, -418316.2, -36994.19, -0.06855558, 0.14122468, -385358.94, -37917.035, 0.0, 9.999573, 9.999684 
1.2749964e+3, 2.745483e+2, -384095.4, -341280.94, -39013.58, 0.004178632, 0.1623357, -318187.28, -68745.42, 0.0, 9.999169, 9.999734 
1.2749933e+3, 2.8454787e+2, -316599.84, -268518.66, -33027.688, 0.009103605, 0.15311195, -251708.56, -100263.47, 0.0, 9.999003, 9.99964 
1.2749895e+3, 2.9454714e+2, -199728.39, -160840.3, -28478.271, -0.06871058, 0.111346215, -145801.27, -92350.15, 0.0, 9.999131, 9.999645 
1.2749863e+3, 3.0454722e+2, -235933.73, -247237.5, -18027.523, -0.08416772, 0.19731355, -222692.89, -222692.89, 0.0, 9.998954, 9.998803 
1.274985e+3, 3.1454524e+2, -194146.81, -26677.908, -10353.627, 0.050337397, 0.115058824, -26040.232, -26040.232, 0.0, 9.998375, 10.000597 
1.2850432e+3, 1.2456167e+2, -1439461.4, -1706480.9, -56830.93, -0.017176379, 0.23407394, -1427869.0, 291445.22, 0.0047468157, 10.002457, 9.998864 
1.2850444e+3, 1.3455965e+2, -1403836.0, -1611722.6, 121667.87, 0.15166864, 0.12345635, -1347756.5, 273575.13, 0.0026545508, 10.001874, 9.999141 
1.2850404e+3, 1.4455926e+2, -1353375.4, -1522741.0, 24701.047, -0.14520231, 0.1626884, -1349846.4, 173486.98, 0.0010215283, 10.001498, 9.999248 
1.2850386e+3, 1.5455808e+2, -1260564.1, -1426737.4, -10011.781, -0.023618126, 0.11629558, -1259963.1, 165380.33, 0.00019628371, 10.001461, 9.99925 
1.2850359e+3, 1.64557e+2, -1198896.6, -1370237.3, -30673.26, 0.028615093, 0.09577441, -1193571.0, 133781.95, 0.0000059623408, 10.001315, 9.999037 
1.2850319e+3, 1.7455614e+2, -1140603.8, -1287495.1, -26105.314, -0.028285066, 0.10147245, -1136102.3, 93258.875, 0.0, 10.001026, 9.99907 
1.2850283e+3, 1.8455543e+2, -1056008.5, -1173646.6, -28722.125, -0.042094853, 0.112339936, -1049370.4, 81998.02, 0.0, 10.000835, 9.999271 
1.2850253e+3, 1.9455482e+2, -965895.06, -1073888.6, -39321.617, 0.0025426634, 0.1196632, -953094.8, 80279.88, 0.0, 10.000758, 9.999322 
1.2850219e+3, 2.0455423e+2, -885219.25, -990966.2, -46559.305, 0.0017307908, 0.13224316, -867641.5, 67739.47, 0.0, 10.000667, 9.999262 
1.2850177e+3, 2.1455367e+2, -799424.56, -893845.6, -43103.523, -0.055676974, 0.14232245, -782707.4, 54679.6, 0.0, 10.000562, 9.999307 
1.285014e+3, 2.2455305e+2, -745265.6, -836982.56, -50046.375, -0.05283583, 0.16088773, -723244.5, 16149.828, 0.0, 10.000346, 9.999129 
1.285011e+3, 2.3455241e+2, -695497.7, -757789.3, -45902.223, 0.022820774, 0.17928903, -671172.1, -29768.863, 0.0, 9.999996, 9.999168 
1.2850071e+3, 2.4455184e+2, -588605.9, -598975.3, -41405.246, 0.033101987, 0.18020827, -552062.0, -8652.227, 0.0, 9.999813, 9.999675 
1.2850027e+3, 2.5455132e+2, -483757.06, -489306.75, -39473.66, -0.03529285, 0.15310027, -446960.8, -1547.7328, 0.0, 9.999824, 9.999749 
1.2849988e+3, 2.6455098e+2, -431783.28, -436384.38, -36730.855, -0.052449536, 0.15541847, -397281.0, -49865.457, 0.0, 9.999606, 9.999544 
1.2849955e+3, 2.7455083e+2, -401075.78, -366905.34, -46303.156, -0.007826418, 0.17830192, -334635.88, -85218.29, 0.0, 9.999127, 9.999578 
1.2849922e+3, 2.845502e+2, -328721.03, -275117.44, -26528.9, -0.005734543, 0.15887167, -264208.25, -112785.3, 0.0, 9.998924, 9.999634 
1.2849887e+3, 2.9454926e+2, -214668.05, -167910.64, -31538.467, -0.054758865, 0.09488862, -152030.73, -98599.805, 0.0, 9.999026, 9.999647 
1.2849855e+3, 3.045497e+2, -237884.53, -207395.27, -30317.783, -0.063215435, 0.19653377, -188705.16, -188705.16, 0.0, 9.998766, 9.999166 
1.2849832e+3, 3.1454805e+2, -222486.72, -26515.65, 19684.793, 0.052987535, 0.11065966, -24557.922, -24557.922, 0.0, 9.998121, 10.00072 
1.2950455e+3, 1.2456432e+2, -1425309.9, -1678696.3, -67602.766, -0.03442038, 0.21026042, -1408401.9, 310885.75, 0.0050962004, 10.002461, 9.999054 
1.295046e+3, 1.3456263e+2, -1382218.1, -1566035.4, 98429.79, 0.12537849, 0.10040976, -1339458.3, 281841.94, 0.0028611089, 10.001871, 9.999455 
1.2950416e+3, 1.4456229e+2, -1380636.8, -1578388.4, 20140.146, -0.1776851, 0.14667657, -1378606.4, 144695.03, 0.00111182, 10.001493, 9.998868 
1.2950404e+3, 1.5456095e+2, -1287437.3, -1483593.8, -11328.282, 0.0044271727, 0.12746812, -1286785.1, 138529.77, 0.000219555, 10.001465, 9.998858 
1.2950377e+3, 1.6455975e+2, -1191565.4, -1355714.6, -42252.117, 0.08065492, 0.10824338, -1181328.1, 145998.17, 0.0000074533, 10.001316, 9.999136 
1.2950332e+3, 1.7455874e+2, -1132283.3, -1271094.1, -37286.52, 0.002633539, 0.08771726, -1122901.6, 106433.02, 0.0, 10.001028, 9.999183 
1.2950292e+3, 1.8455786e+2, -1074573.4, -1212297.0, -33148.17, -0.035913285, 0.09024989, -1067010.4, 64333.05, 0.0, 10.000835, 9.999007 
1.295026e+3, 1.9455712e+2, -985710.9, -1114821.6, -42618.496, -0.016056495, 0.10906107, -972911.6, 60440.95, 0.0, 10.000756, 9.9990425 
1.2950225e+3, 2.0455652e+2, -879241.75, -977891.0, -51824.375, -0.0072862357, 0.13167366, -857021.4, 78338.07, 0.0, 10.000663, 9.999354 
1.2950186e+3, 2.1455614e+2, -791700.4, -877960.4, -47470.406, -0.015338351, 0.15058053, -770692.75, 66670.58, 0.0, 10.000562, 9.999416 
1.2950146e+3, 2.2455552e+2, -735587.75, -816865.2, -63898.94, -0.03190182, 0.15647385, -700499.44, 38870.63, 0.0, 10.000345, 9.999268 
1.2950103e+3, 2.3455466e+2, -685801.1, -737515.8, -58841.26, -0.056640755, 0.13641956, -647386.44, -6006.1504, 0.0, 9.999994, 9.99931 
1.2950063e+3, 2.4455418e+2, -584138.06, -588916.44, -41875.098, -0.04044999, 0.13813435, -544584.0, -1198.5504, 0.0, 9.999809, 9.999746 
1.2950031e+3, 2.545542e+2, -479396.88, -480055.47, -38254.305, 0.025167901, 0.15895984, -441470.44, 3914.0134, 0.0, 9.999822, 9.999814 
1.2949991e+3, 2.6455402e+2, -447302.88, -469136.97, -53718.87, 0.021592928, 0.1829948, -403402.97, -56016.742, 0.0, 9.999607, 9.999319 
1.294994e+3, 2.7455354e+2, -418520.44, -401271.4, -62757.555, -0.06510555, 0.19633684, -346548.53, -97156.8, 0.0, 9.999118, 9.999348 
1.2949905e+3, 2.8455257e+2, -338985.25, -294588.56, -22388.197, -0.06453627, 0.1621124, -285259.2, -133858.47, 0.0, 9.998916, 9.999504 
1.2949887e+3, 2.9455134e+2, -223575.7, -185158.19, -25584.3, 0.03842829, 0.07950389, -172374.23, -118962.05, 0.0, 9.999022, 9.999531 
1.2949851e+3, 3.0455217e+2, -173843.25, -75512.69, -53539.74, 0.03244854, 0.18490703, -51988.707, -51988.707, 0.0, 9.998768, 10.000072 
1.2949805e+3, 3.1455144e+2, -180051.56, 66530.08, 917.035, -0.028229892, 0.09819508, 66533.49, 66533.49, 0.0, 9.998099, 10.00137 
1.3050479e+3, 1.24567196e+2, -1434874.9, -1708713.8, -43552.715, -0.04784722, 0.17851578, -1428114.9, 291142.84, 0.0054552136, 10.002508, 9.998825 
1.3050483e+3, 1.345656e+2, -1331223.8, -1559762.1, 70896.89, 0.15064485, 0.0986347, -1311016.9, 310253.38, 0.003073975, 10.002304, 9.9992895 
1.3050434e+3, 1.4456524e+2, -1314853.6, -1554990.3, -5788.949, -0.16468476, 0.15327851, -1314714.1, 208558.48, 0.0012055306, 10.001983, 9.998793 
1.3050418e+3, 1.5456384e+2, -1274293.6, -1485284.8, -13185.768, -0.0124019785, 0.13411576, -1273472.8, 151814.17, 0.000244213, 10.001591, 9.998786 
1.3050388e+3, 1.6456263e+2, -1183752.9, -1350369.5, -32555.857, 0.061037302, 0.116461955, -1177617.6, 149680.95, 0.000009295233, 10.001365, 9.999149 
1.3050346e+3, 1.7456168e+2, -1084915.9, -1246059.8, -35543.82, 0.01321244, 0.099376954, -1077424.3, 151881.97, 0.0, 10.001345, 9.999202 
1.3050304e+3, 1.8456075e+2, -1030211.56, -1198667.4, -29605.037, -0.019172605, 0.09974639, -1025160.1, 106155.13, 0.0, 10.001174, 9.998937 
1.3050266e+3, 1.9455983e+2, -981797.5, -1120618.5, -24771.201, -0.02472348, 0.10974944, -977509.75, 55816.367, 0.0, 10.000817, 9.998972 
1.305023e+3, 2.0455918e+2, -897534.6, -980597.06, -24609.256, -0.019593239, 0.12714538, -890791.06, 44542.656, 0.0, 10.000512, 9.999408 
1.3050191e+3, 2.1455885e+2, -830848.0, -890098.9, -25109.705, -0.005362006, 0.1457387, -821638.4, 15698.718, 0.0, 10.000264, 9.9994755 
1.3050151e+3, 2.2455834e+2, -760084.1, -809771.4, -43417.637, -0.021318002, 0.15025252, -734904.8, 4437.6836, 0.0, 10.000096, 9.999437 
1.30501e+3, 2.345576e+2, -669124.3, -709606.4, -37481.555, -0.07223255, 0.12744226, -646767.6, -5417.336, 0.0, 10.000024, 9.999486 
1.305006e+3, 2.4455722e+2, -593350.56, -606104.2, -24801.61, -0.05813558, 0.13411145, -574119.1, -30764.41, 0.0, 9.999801, 9.999632 
1.3050029e+3, 2.5455725e+2, -550691.06, -528640.94, -36799.18, 0.034024704, 0.16838068, -501250.75, -55895.887, 0.0, 9.999393, 9.999687 
1.3049988e+3, 2.6455703e+2, -487603.66, -486060.7, -46662.984, 0.037291083, 0.1946974, -440162.8, -92805.445, 0.0, 9.999321, 9.999341 
1.3049935e+3, 2.7455643e+2, -339470.97, -360195.66, -37556.49, -0.06528412, 0.19687349, -310873.47, -61510.316, 0.0, 9.999648, 9.999374 
1.3049896e+3, 2.845555e+2, -277378.8, -262319.16, 5229.116, -0.06345456, 0.15574275, -260681.55, -109309.22, 0.0, 9.999328, 9.999527 
1.3049875e+3, 2.945542e+2, -334096.94, -235727.61, 10319.883, 0.061453536, 0.07041891, -234656.63, -181272.64, 0.0, 9.998251, 9.999556 
1.3049836e+3, 3.045552e+2, -287753.47, -101408.07, -21674.861, 0.05352317, 0.1805779, -98920.164, -98920.164, 0.0, 9.997864, 10.00033 
1.3049786e+3, 3.1455496e+2, -153676.0, 73569.28, -17882.262, -0.042731415, 0.110480435, 74967.85, 74967.85, 0.0, 9.998302, 10.001323 
1.3150501e+3, 1.2457041e+2, -1481050.1, -1803756.6, -40376.527, -0.066176854, 0.14460355, -1476075.0, 243148.28, 0.005819013, 10.002501, 9.998178 
1.3150513e+3, 1.345687e+2, -1375335.0, -1652798.3, 62632.758, 0.22471672, 0.11679763, -1361851.9, 259389.27, 0.0032902497, 10.002309, 9.998648 
1.315046e+3, 1.445682e+2, -1298416.8, -1522104.3, -21940.77, -0.11167694, 0.18059017, -1296285.0, 226961.1, 0.0013013786, 10.001987, 9.999017 
1.3150427e+3, 1.545668e+2, -1257989.1, -1450812.6, -28056.725, -0.07659349, 0.1358993, -1253989.8, 171269.11, 0.00026992275, 10.001588, 9.999024 
1.3150392e+3, 1.6456567e+2, -1189966.5, -1362845.6, -35204.773, -0.032271273, 0.12049243, -1183072.4, 144196.58, 0.00001153221, 10.001361, 9.999065 
1.3150358e+3, 1.7456497e+2, -1090316.6, -1257908.3, -36493.84, 0.0016186305, 0.13706505, -1082714.8, 146560.17, 0.0, 10.001347, 9.99912 
1.3150318e+3, 1.845641e+2, -1021609.0, -1180435.0, -43681.047, 0.003860155, 0.14097118, -1010388.3, 120895.1, 0.0, 10.001172, 9.999064 
1.3150275e+3, 1.94563e+2, -972288.25, -1101428.4, -38679.63, -0.025332564, 0.12020842, -961589.44, 71705.52, 0.0, 10.000818, 9.999104 
1.3150232e+3, 2.0456223e+2, -896763.3, -979193.2, -35396.36, -0.036826566, 0.117627285, -883649.9, 51653.484, 0.0, 10.000512, 9.999418 
1.3150193e+3, 2.1456183e+2, -830915.5, -890092.56, -34616.8, -0.027803933, 0.12815553, -814965.0, 22342.803, 0.0, 10.000262, 9.999477 
1.315015e+3, 2.2456151e+2, -747177.75, -782038.75, -47613.758, -0.024506895, 0.14300501, -713904.3, 25406.793, 0.0, 10.000092, 9.99963 
1.3150105e+3, 2.3456131e+2, -655153.0, -680738.75, -40184.75, -0.02604152, 0.1521481, -625773.94, 15539.092, 0.0, 10.000024, 9.999685 
1.3150062e+3, 2.4456096e+2, -614087.3, -649305.5, -39946.97, -0.02210599, 0.16711225, -588040.5, -44723.184, 0.0, 9.999801, 9.999336 
1.3150017e+3, 2.545605e+2, -573628.94, -575117.1, -51121.535, -0.011734448, 0.18165919, -523246.1, -77922.16, 0.0, 9.999388, 9.999372 
1.3149975e+3, 2.6456004e+2, -470626.66, -450027.47, -34776.773, -0.007995711, 0.19104548, -424057.16, -76728.46, 0.0, 9.999316, 9.999591 
1.3149936e+3, 2.745596e+2, -320250.47, -320439.1, -23321.893, -0.0114478255, 0.1810686, -297022.7, -47691.04, 0.0, 9.999648, 9.999647 
1.3149895e+3, 2.8455886e+2, -264653.72, -237279.05, -32940.7, -0.0059918305, 0.14064144, -215295.2, -63957.53, 0.0, 9.999332, 9.999698 
1.3149852e+3, 2.9455793e+2, -324616.63, -212169.55, -28373.43, 0.008162861, 0.06921154, -205415.81, -152069.81, 0.0, 9.998234, 9.999726 
1.314981e+3, 3.0455887e+2, -318487.66, -161956.97, -6023.8496, -0.0061999895, 0.18479764, -161725.5, -161725.5, 0.0, 9.9978485, 9.999923 
1.3149773e+3, 3.145586e+2, -205970.92, -33223.47, 5280.5967, 0.003599384, 0.15603806, -33062.203, -33062.203, 0.0, 9.998296, 10.000592 
1.325053e+3, 1.2457373e+2, -1410742.5, -1786578.9, -54225.887, -0.058259256, 0.13807462, -1403075.1, 316115.03, 0.006183249, 10.0030575, 9.998029 
1.3250536e+3, 1.3457201e+2, -1393424.9, -1675053.8, 71587.41, 0.21140319, 0.122213446, -1376272.8, 244936.45, 0.0035072896, 10.002246, 9.998525 
1.3250478e+3, 1.4457145e+2, -1325305.0, -1529963.0, 12579.743, -0.1320139, 0.18315826, -1324534.6, 198680.28, 0.0013982238, 10.001782, 9.999062 
1.3250445e+3, 1.5457003e+2, -1221977.6, -1428357.5, -7378.2437, -0.068694636, 0.13172027, -1221714.3, 203512.94, 0.00029637254, 10.001813, 9.99907 
1.3250409e+3, 1.6456884e+2, -1157038.8, -1358551.4, -22308.451, -0.022957083, 0.11493248, -1154598.6, 172638.86, 0.000014169166, 10.001637, 9.998961 
1.3250369e+3, 1.7456812e+2, -1118633.9, -1283780.5, -27396.496, -0.017774988, 0.13860631, -1114207.6, 115037.0, 0.0, 10.001205, 9.99901 
1.3250326e+3, 1.8456726e+2, -1055087.0, -1184123.9, -37061.836, -0.0158557, 0.14510438, -1045199.75, 86053.28, 0.0, 10.000889, 9.999175 
1.3250284e+3, 1.9456626e+2, -978935.6, -1090995.3, -33574.348, -0.014222443, 0.12114603, -969646.44, 63616.55, 0.0, 10.000714, 9.999226 
1.3250239e+3, 2.0456555e+2, -893442.75, -974248.75, -28447.229, -0.021082735, 0.118905224, -884432.7, 50837.563, 0.0, 10.000522, 9.999448 
1.3250194e+3, 2.1456523e+2, -823814.5, -883002.5, -27543.445, -0.039223656, 0.13438539, -812980.2, 24293.969, 0.0, 10.000298, 9.999508 
1.325015e+3, 2.2456491e+2, -746871.3, -788985.6, -42952.99, -0.03493375, 0.1494578, -720091.6, 19186.08, 0.0, 10.000125, 9.999565 
1.3250108e+3, 2.3456457e+2, -662614.6, -691615.0, -56485.492, -0.002526626, 0.15345718, -618797.9, 22482.94, 0.0, 10.000005, 9.999619 
1.3250062e+3, 2.4456418e+2, -607984.7, -647103.4, -63697.883, 0.0047493353, 0.16605707, -560910.8, -17625.096, 0.0, 9.999846, 9.999329 
1.3250013e+3, 2.5456372e+2, -535743.06, -556644.56, -53694.305, -0.018669646, 0.1809725, -491491.94, -46199.523, 0.0, 9.999649, 9.999371 
1.3249968e+3, 2.645633e+2, -472204.03, -432572.8, -23342.857, -0.017661357, 0.18581627, -421769.03, -74472.19, 0.0, 9.9992285, 9.999753 
1.3249929e+3, 2.7456293e+2, -469722.88, -373546.72, -20644.648, 0.014107381, 0.16495705, -369302.53, -120003.52, 0.0, 9.998542, 9.999816 
1.3249886e+3, 2.845624e+2, -396787.53, -291167.25, -41813.168, 0.019202804, 0.13500135, -276618.28, -125315.59, 0.0, 9.998385, 9.9997835 
1.3249837e+3, 2.945619e+2, -227081.69, -154837.64, -46298.73, -0.008655501, 0.098007545, -132236.81, -78929.96, 0.0, 9.998859, 9.999818 
1.324979e+3, 3.045626e+2, -192166.23, -114001.68, -8731.46, -0.023731828, 0.18949224, -113038.195, -113038.195, 0.0, 9.998773, 9.999805 
1.3249756e+3, 3.1456202e+2, -271988.34, -107909.664, 26792.896, 0.02173482, 0.1450928, -103645.4, -103645.4, 0.0, 9.998028, 10.000208 
1.3350563e+3, 1.2457723e+2, -1387651.3, -1739033.9, -73846.64, -0.03530661, 0.15816724, -1372762.5, 346395.2, 0.0065457188, 10.003059, 9.998355 
1.3350548e+3, 1.3457564e+2, -1368474.8, -1620864.6, 39515.7, 0.11116036, 0.11627289, -1362432.6, 258741.0, 0.0037237175, 10.002237, 9.9989 
1.3350485e+3, 1.4457504e+2, -1335141.9, -1549084.6, 10312.041, -0.22742963, 0.16258779, -1334645.9, 188532.67, 0.0014951822, 10.001776, 9.998934 
1.335047e+3, 1.5457357e+2, -1230786.4, -1447646.3, -5911.57, 0.0070870146, 0.1212707, -1230625.4, 194565.86, 0.00032323142, 10.001817, 9.998937 
1.3350436e+3, 1.6457224e+2, -1166584.0, -1378922.1, -38812.613, 0.08222474, 0.09959107, -1159712.0, 167491.7, 0.000017128494, 10.001638, 9.998822 
1.3350376e+3, 1.7457116e+2, -1128811.3, -1305551.4, -44121.492, -0.047066838, 0.1037084, -1118409.0, 110805.86, 0.00000000003443261, 10.001207, 9.99886 
1.3350329e+3, 1.8457028e+2, -1048320.1, -1170350.9, -45382.004, -0.07998512, 0.11189295, -1033293.4, 97930.18, 0.0, 10.000889, 9.99927 
1.3350292e+3, 1.9456965e+2, -970939.94, -1075073.5, -40433.227, 0.006684855, 0.11286562, -957084.06, 76145.586, 0.0, 10.000716, 9.999334 
1.3350248e+3, 2.0456924e+2, -890777.94, -968155.06, -38107.46, 0.023847843, 0.13160288, -875161.94, 60072.016, 0.0, 10.000518, 9.999492 
1.3350196e+3, 2.145691e+2, -821101.75, -877517.2, -36476.88, -0.04199304, 0.16336456, -803198.3, 34037.64, 0.0, 10.000298, 9.999547 
1.335015e+3, 2.2456855e+2, -769042.3, -834882.44, -48693.26, -0.054546207, 0.16805431, -743185.1, -3942.9612, 0.0, 10.000124, 9.999251 
1.3350107e+3, 2.3456748e+2, -686253.6, -740222.44, -60605.168, -0.0030629267, 0.1313393, -646896.94, -5643.767, 0.0, 10.000002, 9.999288 
1.3350062e+3, 2.4456689e+2, -589930.8, -608801.8, -71240.59, 0.020510927, 0.13136724, -527503.56, 15755.955, 0.0, 9.999842, 9.999594 
1.3350013e+3, 2.5456694e+2, -515812.78, -515186.3, -60377.098, 0.010564091, 0.16727409, -455121.63, -9861.525, 0.0, 9.999648, 9.999657 
1.3349962e+3, 2.6456678e+2, -466487.94, -421043.22, -48206.715, 0.005691713, 0.17918143, -390472.13, -43210.348, 0.0, 9.999229, 9.999832 
1.3349915e+3, 2.7456638e+2, -466150.2, -363691.22, -44792.137, 0.0068344795, 0.14865637, -346870.75, -97605.66, 0.0, 9.99853, 9.999889 
1.334987e+3, 2.845661e+2, -399564.56, -295161.63, -24449.492, 0.007746429, 0.13932717, -289719.63, -138452.42, 0.0, 9.998376, 9.999762 
1.3349827e+3, 2.9456612e+2, -228124.58, -157577.53, -25880.428, 0.008736599, 0.159787, -149101.56, -95835.13, 0.0, 9.998861, 9.999799 
1.334978e+3, 3.0456638e+2, -178383.6, -86579.54, -34105.887, -0.0024629436, 0.19648217, -75295.836, -75295.836, 0.0, 9.998777, 9.999992 
1.3349736e+3, 3.1456524e+2, -275396.78, -109884.195, 3928.9434, 0.0019204682, 0.0790706, -109790.984, -109790.984, 0.0, 9.998007, 10.000204 
1.345059e+3, 1.2458105e+2, -1445051.6, -1754132.5, -49133.37, -0.049481567, 0.17540912, -1437429.0, 281692.5, 0.0069055543, 10.002611, 9.9984665 
1.3450572e+3, 1.3457946e+2, -1309662.0, -1580613.4, 31322.613, 0.10518321, 0.12540108, -1306088.1, 315048.25, 0.0039389143, 10.002593, 9.999005 
1.3450505e+3, 1.4457887e+2, -1262535.5, -1518354.0, 2523.4949, -0.22411662, 0.16634806, -1262510.6, 260630.48, 0.0015916337, 10.002294, 9.998895 
1.3450488e+3, 1.5457736e+2, -1250801.3, -1462883.3, -8950.76, 0.014535375, 0.126804, -1250424.1, 174729.97, 0.0003501717, 10.001704, 9.998886 
1.3450451e+3, 1.6457598e+2, -1204989.8, -1392044.1, -30296.152, 0.09155404, 0.1008802, -1200205.3, 126961.63, 0.000020254476, 10.001352, 9.998871 
1.345039e+3, 1.7457484e+2, -1112371.5, -1291545.6, -20678.969, -0.037340503, 0.09442978, -1110015.9, 119162.37, 0.0000000014653116, 10.001294, 9.998916 
1.345034e+3, 1.8457395e+2, -1011392.06, -1155316.1, -16042.568, -0.077365175, 0.0982447, -1009625.5, 121561.42, 0.0, 10.001155, 9.999245 
1.3450299e+3, 1.945733e+2, -945325.1, -1065540.3, -23049.633, -0.008491209, 0.10273536, -941057.2, 92135.59, 0.0, 10.000905, 9.999309 
1.3450253e+3, 2.0457284e+2, -885229.7, -984124.9, -34201.234, 0.010270118, 0.12629314, -874554.1, 60643.668, 0.0, 10.000637, 9.999325 
1.3450201e+3, 2.1457262e+2, -825894.7, -899073.7, -49365.94, -0.031926487, 0.1638916, -801036.75, 36164.945, 0.0, 10.000347, 9.999375 
1.3450153e+3, 2.2457197e+2, -771665.44, -830404.8, -53374.355, -0.039592657, 0.16727653, -740113.9, -904.9822, 0.0, 10.000082, 9.999302 
1.3450105e+3, 2.3457088e+2, -703472.1, -740622.7, -37879.2, -0.0058187274, 0.12129084, -679858.9, -38639.2, 0.0, 9.999853, 9.999355 
1.345006e+3, 2.4457033e+2, -615445.9, -609603.8, -39970.3, 0.013231498, 0.11647389, -572447.94, -29222.582, 0.0, 9.999621, 9.999693 
1.3450007e+3, 2.5457045e+2, -547582.5, -519074.25, -44220.273, 0.014956577, 0.15155642, -486867.5, -41642.59, 0.0, 9.999383, 9.999757 
1.3449955e+3, 2.6457044e+2, -479709.1, -425770.78, -50976.613, 0.011633923, 0.17212677, -395068.9, -47843.453, 0.0, 9.999134, 9.999845 
1.3449901e+3, 2.7457026e+2, -414665.56, -337100.88, -55022.324, 0.00191922, 0.16293995, -308566.6, -59339.34, 0.0, 9.998879, 9.999902 
1.3449854e+3, 2.8457007e+2, -373090.88, -280010.16, -16390.457, 0.0030469159, 0.16090177, -277208.3, -125979.555, 0.0, 9.99855, 9.99978 
1.3449812e+3, 2.9457e+2, -331487.34, -204268.83, -14730.593, 0.01794893, 0.1682889, -202585.45, -149356.6, 0.0, 9.998142, 9.999824 
1.3449767e+3, 3.0457e+2, -274988.16, -106617.57, -32063.723, 0.015563927, 0.16430095, -100718.21, -100718.21, 0.0, 9.998002, 10.000228 
1.3449717e+3, 3.1456968e+2, -243624.9, -77110.49, 8438.796, 0.0063309083, 0.106624044, -76683.914, -76683.914, 0.0, 9.998152, 10.00036 
1.3550611e+3, 1.2458526e+2, -1454454.8, -1772012.6, -42041.44, -0.10503914, 0.1909921, -1448983.3, 270097.8, 0.0072628423, 10.002604, 9.998348 
1.3550605e+3, 1.345836e+2, -1319931.6, -1601749.3, 30082.127, 0.18770719, 0.1476857, -1316756.4, 304340.63, 0.004152666, 10.002594, 9.998859 
1.3550538e+3, 1.4458297e+2, -1260544.5, -1515546.5, -20146.266, -0.13149482, 0.19205758, -1258962.8, 264139.38, 0.0016872559, 10.002298, 9.998913 
1.3550499e+3, 1.5458146e+2, -1249638.6, -1461302.5, -31617.645, -0.047404602, 0.14917526, -1245016.6, 180098.63, 0.0003769789, 10.001706, 9.998897 
1.3550456e+3, 1.6458014e+2, -1187976.5, -1356742.1, -35077.773, 0.0051581655, 0.119528174, -1180976.0, 146150.63, 0.000023370363, 10.001351, 9.999114 
1.355041e+3, 1.7457923e+2, -1093475.6, -1252962.9, -23228.219, 0.008528027, 0.10963445, -1090161.5, 138972.9, 0.0000000068048798, 10.001296, 9.99918 
1.3550358e+3, 1.845783e+2, -1022323.1, -1178027.9, -26450.658, -0.013962664, 0.10394546, -1017952.44, 113190.25, 0.0, 10.001154, 9.99909 
1.3550302e+3, 1.9457732e+2, -957096.25, -1090523.1, -32964.9, -0.061566163, 0.09025271, -949396.2, 83755.78, 0.0, 10.000906, 9.999137 
1.3550253e+3, 2.0457646e+2, -911424.8, -1038836.7, -46443.08, -0.06264785, 0.10196843, -896292.9, 38868.617, 0.0, 10.000638, 9.99895 
1.3550207e+3, 2.1457581e+2, -852880.5, -954936.8, -60622.223, -0.010734079, 0.136169, -824669.0, 12501.947, 0.0, 10.000345, 9.998994 
1.3550158e+3, 2.2457524e+2, -743883.0, -771807.94, -63247.18, 0.0074401996, 0.14757319, -693075.44, 46101.926, 0.0, 10.000077, 9.999707 
1.3550106e+3, 2.3457481e+2, -673189.6, -677421.7, -46543.453, -0.013663098, 0.123538494, -628714.1, 12465.899, 0.0, 9.99985, 9.999791 
1.355005e+3, 2.4457447e+2, -619685.5, -617976.8, -49335.914, -0.019764498, 0.12056496, -569487.9, -26304.684, 0.0, 9.999619, 9.999638 
1.3549998e+3, 2.545743e+2, -553665.94, -530413.75, -52126.82, -0.008209317, 0.13317385, -488632.25, -43445.543, 0.0, 9.999376, 9.999682 
1.3549945e+3, 2.6457432e+2, -486241.16, -438122.8, -59862.914, -0.0022434376, 0.1643976, -397665.22, -50477.55, 0.0, 9.999128, 9.9997635 
1.354989e+3, 2.745746e+2, -420740.9, -349409.3, -62887.13, -0.0036928589, 0.2101069, -312778.22, -63592.855, 0.0, 9.998878, 9.99982 
1.3549839e+3, 2.8457433e+2, -368461.78, -270645.4, -30919.564, 0.0010783712, 0.20152284, -261691.42, -110503.945, 0.0, 9.99855, 9.999845 
1.3549794e+3, 2.9457346e+2, -328473.9, -195390.16, -27766.643, 0.0132998, 0.121533655, -189829.28, -136634.64, 0.0, 9.99813, 9.999891 
1.3549747e+3, 3.0457333e+2, -257373.7, -67710.336, -25554.94, 0.024809461, 0.09095573, -64327.44, -64327.44, 0.0, 9.997991, 10.000502 
1.35497e+3, 3.145752e+2, -221769.63, -29572.531, 19028.09, 0.03024592, 0.22315902, -27706.805, -27706.805, 0.0, 9.998142, 10.000691 
1.3650638e+3, 1.24589466e+2, -1381443.4, -1745870.3, -37453.06, -0.11533162, 0.19979665, -1377634.0, 341406.03, 0.0076198755, 10.003146, 9.998267 
1.3650633e+3, 1.3458759e+2, -1335797.4, -1620886.1, 26957.223, 0.20547532, 0.1459078, -1333270.8, 287787.75, 0.004366158, 10.002536, 9.998755 
1.3650563e+3, 1.4458698e+2, -1286343.3, -1523295.3, -22464.303, -0.10489677, 0.19601853, -1284232.4, 238831.08, 0.0017823466, 10.002102, 9.998955 
1.3650517e+3, 1.5458556e+2, -1212917.5, -1439276.9, -31685.205, -0.0547526, 0.15897335, -1208565.9, 216509.69, 0.0004035849, 10.00194, 9.998936 
1.365047e+3, 1.6458426e+2, -1145192.8, -1337154.8, -37560.355, -0.014022075, 0.12942582, -1138105.1, 188981.53, 0.000026350568, 10.00165, 9.999104 
1.3650422e+3, 1.7458329e+2, -1109617.8, -1262225.8, -47512.195, 0.007847052, 0.113957755, -1096034.5, 133060.27, 0.000000016360648, 10.001191, 9.9991665 
1.3650368e+3, 1.8458232e+2, -1055942.6, -1197012.3, -51423.215, -0.0063365935, 0.107565336, -1039187.7, 91915.58, 0.0, 10.000935, 9.999065 
1.3650312e+3, 1.9458134e+2, -955271.06, -1092493.1, -47537.645, -0.061843198, 0.09741359, -940411.7, 92700.81, 0.0, 10.000931, 9.999111 
1.365026e+3, 2.0458041e+2, -892211.2, -1031181.0, -48599.11, -0.06651135, 0.103004254, -876902.06, 58220.727, 0.0, 10.000777, 9.998934 
1.3650212e+3, 2.145796e+2, -839435.44, -949564.2, -36597.83, -0.012068736, 0.12060493, -828382.56, 8751.207, 0.0, 10.000444, 9.998981 
1.3650158e+3, 2.2457908e+2, -725754.75, -749603.1, -32133.352, 0.0052625034, 0.13347521, -703404.44, 35735.086, 0.0, 10.000147, 9.999825 
1.3650103e+3, 2.34579e+2, -660082.5, -657903.75, -40257.47, -0.021645632, 0.13136913, -618720.94, 22418.084, 0.0, 9.999885, 9.9999075 
1.3650046e+3, 2.4457884e+2, -629190.94, -621155.75, -55830.383, -0.027893351, 0.1391853, -569198.6, -26058.092, 0.0, 9.999549, 9.999648 
1.3649991e+3, 2.5457862e+2, -588533.7, -545606.0, -54475.96, -0.009680787, 0.14839862, -508517.9, -63373.582, 0.0, 9.999133, 9.999694 
1.3649936e+3, 2.645785e+2, -517037.6, -458287.47, -48996.17, 0.001991837, 0.16479489, -430535.3, -83388.47, 0.0, 9.998943, 9.999712 
1.364988e+3, 2.7457845e+2, -405473.22, -347912.63, -51008.535, 0.0052480586, 0.1841709, -318125.22, -68977.81, 0.0, 9.999011, 9.9997635 
1.3649826e+3, 2.8457823e+2, -326686.3, -246686.47, -31984.672, 0.004706721, 0.18363735, -235471.03, -84322.195, 0.0, 9.998823, 9.999877 
1.3649774e+3, 2.945778e+2, -297045.75, -175308.13, -33499.45, 0.0021566597, 0.14562051, -166698.69, -113546.93, 0.0, 9.998326, 9.999933 
1.3649726e+3, 3.0457735e+2, -277578.38, -86288.586, -31133.979, 0.022341205, 0.08440894, -81348.836, -81348.836, 0.0, 9.997891, 10.000421 
1.364968e+3, 3.145793e+2, -307536.28, -63235.258, -16282.845, 0.0407411, 0.23123711, -62154.773, -62154.773, 0.0, 9.9975195, 10.00076 
1.3750672e+3, 1.2459364e+2, -1385495.1, -1754391.1, -55396.84, -0.0903275, 0.1958638, -1377355.9, 341642.88, 0.0079810945, 10.003144, 9.998211 
1.3750654e+3, 1.3459149e+2, -1340951.0, -1630819.1, 2973.5457, 0.15958728, 0.12302011, -1340920.5, 280099.44, 0.0045821774, 10.002533, 9.998688 
1.375058e+3, 1.4459097e+2, -1281274.1, -1513123.3, -31020.846, -0.14410254, 0.18115793, -1277195.4, 245829.03, 0.0018779465, 10.002103, 9.999025 
1.3750541e+3, 1.5458974e+2, -1206957.8, -1427469.6, -37546.203, -0.011771191, 0.15469038, -1200740.1, 224294.55, 0.00043006244, 10.001942, 9.999017 
1.375049e+3, 1.6458838e+2, -1164150.0, -1377040.1, -55121.79, 0.027114317, 0.1293565, -1150724.5, 176322.03, 0.000029160963, 10.001651, 9.998831 
1.3750428e+3, 1.7458707e+2, -1129231.8, -1304337.8, -65063.234, -0.04016838, 0.10830912, -1107703.4, 121355.46, 0.000000027808229, 10.001196, 9.998876 
1.3750373e+3, 1.8458608e+2, -1048803.5, -1182975.9, -53663.113, -0.055347353, 0.10905988, -1029981.06, 101086.99, 0.0, 10.000937, 9.999162 
1.3750327e+3, 1.9458546e+2, -947048.25, -1075751.0, -48050.188, -0.011657469, 0.123567246, -931088.25, 101985.67, 0.0, 10.000932, 9.999228 
1.3750273e+3, 2.0458475e+2, -868691.3, -981805.44, -61851.85, -0.0047367443, 0.12927009, -841436.94, 93644.28, 0.0, 10.000774, 9.999275 
1.3750212e+3, 2.1458398e+2, -815211.06, -898750.44, -49375.29, -0.038700435, 0.11733352, -792307.5, 44782.39, 0.0, 10.000442, 9.999332 
1.3750155e+3, 2.245835e+2, -738526.75, -775382.1, -43070.293, -0.0486497, 0.12408178, -710107.56, 28987.623, 0.0, 10.000143, 9.99965 
1.37501e+3, 2.3458345e+2, -674220.75, -686679.1, -49875.336, -0.031121543, 0.14463687, -630187.06, 10909.131, 0.0, 9.999881, 9.999713 
1.3750044e+3, 2.4458341e+2, -625273.6, -612260.8, -71464.56, -0.012619578, 0.17204998, -547007.06, -3909.941, 0.0, 9.999544, 9.999712 
1.3749984e+3, 2.5458348e+2, -584047.94, -535234.25, -69267.62, 0.0070007253, 0.19892772, -486199.3, -41101.74, 0.0, 9.999128, 9.999768 
1.3749927e+3, 2.6458293e+2, -518943.88, -461899.28, -46775.445, 0.02092866, 0.17419109, -435635.97, -88533.016, 0.0, 9.99894, 9.999689 
1.3749872e+3, 2.7458176e+2, -407897.75, -352228.5, -46640.098, 0.0249335, 0.082453355, -325748.63, -76634.914, 0.0, 9.999007, 9.999737 
1.3749814e+3, 2.8458178e+2, -328076.53, -248413.83, -48799.18, 0.009786056, 0.10506405, -225253.94, -74140.72, 0.0, 9.998817, 9.999867 
1.3749756e+3, 2.9458314e+2, -299116.44, -176579.06, -49586.094, -0.021491664, 0.246713, -159027.5, -105927.61, 0.0, 9.998312, 9.999931 
1.3749704e+3, 3.0458212e+2, -309632.66, -152209.19, -43910.31, 0.0013925937, 0.14980642, -140789.61, -140789.61, 0.0, 9.997887, 9.999971 
1.3749655e+3, 3.1458175e+2, -323597.2, -94615.85, -27299.965, 0.03036892, 0.11385525, -91406.05, -91406.05, 0.0, 9.99751, 10.000549 
1.3850707e+3, 1.24598175e+2, -1366216.3, -1741782.0, -30519.146, -0.06924629, 0.17848676, -1363752.4, 355201.25, 0.008351057, 10.003268, 9.998237 
1.3850677e+3, 1.3459608e+2, -1314613.4, -1617143.4, 25915.857, 0.13476676, 0.11122888, -1312409.4, 308564.97, 0.004803759, 10.002712, 9.998694 
1.38506e+3, 1.4459567e+2, -1264241.0, -1513874.4, 2964.3389, -0.16296558, 0.18339042, -1264205.9, 258771.98, 0.0019753822, 10.002259, 9.998944 
1.3850561e+3, 1.5459423e+2, -1211815.4, -1439814.5, -16991.232, 0.0022185592, 0.14494468, -1210556.1, 214434.33, 0.00045665295, 10.001951, 9.998927 
1.3850509e+3, 1.6459276e+2, -1148289.6, -1380637.0, -32419.54, 0.044453885, 0.11802787, -1143850.9, 183152.83, 0.00003186285, 10.001808, 9.998731 
1.3850442e+3, 1.7459147e+2, -1036676.94, -1270922.6, -28820.168, -0.053139094, 0.1078623, -1033183.2, 195832.94, 0.000000039188958, 10.001881, 9.998775 
1.3850383e+3, 1.8459044e+2, -963611.1, -1146122.9, -22306.943, -0.07139518, 0.114211574, -960924.3, 170101.66, 0.0, 10.001541, 9.999123 
1.3850336e+3, 1.945898e+2, -981129.6, -1096060.9, -29243.125, 0.00023813902, 0.12936369, -974116.9, 58915.715, 0.0, 10.000715, 9.999191 
1.3850279e+3, 2.0458919e+2, -926588.5, -981249.56, -42904.2, 0.009892984, 0.1345836, -903049.3, 31989.271, 0.0, 10.000256, 9.999528 
1.3850215e+3, 2.1458866e+2, -828092.7, -875688.8, -37582.906, -0.052550856, 0.11942544, -807406.8, 29636.768, 0.0, 10.000227, 9.999594 
1.3850154e+3, 2.2458826e+2, -760162.25, -799386.8, -36648.707, -0.06684779, 0.124993056, -738208.1, 839.85583, 0.0, 10.000053, 9.999528 
1.3850099e+3, 2.3458806e+2, -708026.8, -717532.0, -40679.79, -0.02530137, 0.146488, -671822.94, -30771.549, 0.0, 9.999714, 9.999579 
1.385004e+3, 2.4458799e+2, -630952.4, -614912.56, -59581.586, -0.0012429378, 0.1762777, -562813.56, -19760.377, 0.0, 9.999509, 9.999709 
1.3849977e+3, 2.5458807e+2, -536217.56, -511985.63, -63681.99, 0.0017311312, 0.2074074, -459277.28, -14224.375, 0.0, 9.999458, 9.999767 
1.3849916e+3, 2.6458752e+2, -487621.6, -437904.22, -42558.89, 0.012468977, 0.17752539, -413475.84, -66417.8, 0.0, 9.999119, 9.999766 
1.3849859e+3, 2.7458626e+2, -483339.63, -379290.47, -36134.457, 0.03021108, 0.068719245, -367972.7, -118903.414, 0.0, 9.998449, 9.999818 
1.38498e+3, 2.8458637e+2, -430338.2, -291838.13, -29092.66, 0.021530405, 0.09296319, -285975.25, -134907.34, 0.0, 9.998094, 9.999917 
1.3849738e+3, 2.9458797e+2, -325202.44, -182870.34, -28285.418, -0.011654777, 0.2565047, -177455.25, -124402.984, 0.0, 9.99811, 9.999984 
1.3849683e+3, 3.045867e+2, -300084.25, -166271.13, -10787.79, 0.0071252123, 0.13990544, -165407.0, -165407.0, 0.0, 9.998035, 9.999802 
1.384963e+3, 3.145862e+2, -265076.0, -47445.87, 26670.936, 0.011225169, 0.10105894, -44224.973, -44224.973, 0.0, 9.997833, 10.000716 
1.3950741e+3, 1.2460311e+2, -1359384.1, -1726768.9, -47635.543, -0.05536914, 0.1457449, -1353308.1, 365596.2, 0.008733579, 10.003263, 9.998343 
1.3950704e+3, 1.3460141e+2, -1309902.1, -1606125.8, 4657.695, 0.12689087, 0.10928642, -1309828.9, 311092.16, 0.005033633, 10.002708, 9.998773 
1.3950622e+3, 1.446011e+2, -1281430.5, -1549939.0, -10534.711, -0.16850583, 0.20017079, -1281017.9, 241905.69, 0.002076125, 10.002259, 9.998696 
1.395058e+3, 1.5459907e+2, -1229924.3, -1478317.6, -29030.063, -0.013234131, 0.1308801, -1226576.5, 198365.88, 0.00048381835, 10.001955, 9.998662 
1.3950527e+3, 1.6459745e+2, -1142809.0, -1370611.3, -31729.076, 0.036773805, 0.09755775, -1138472.3, 188485.33, 0.000034571214, 10.001813, 9.998798 
1.3950463e+3, 1.7459649e+2, -1030381.6, -1258242.6, -26338.793, -0.03427166, 0.11190753, -1027376.75, 201589.73, 0.00000005013657, 10.001881, 9.998863 
1.39504e+3, 1.8459548e+2, -976407.1, -1172027.5, -53100.684, -0.05909386, 0.12234627, -962922.56, 168053.97, 0.0, 10.001537, 9.998947 
1.3950339e+3, 1.9459443e+2, -994057.1, -1123572.3, -60585.523, -0.027638065, 0.115210615, -970134.6, 62853.484, 0.0, 10.000717, 9.999002 
1.3950278e+3, 2.0459376e+2, -915441.2, -958279.06, -46054.613, -0.024925219, 0.11847758, -886068.44, 48926.066, 0.0, 10.000255, 9.999686 
1.3950217e+3, 2.1459363e+2, -815961.44, -850703.3, -38692.902, -0.05528294, 0.12699853, -790919.06, 46075.4, 0.0, 10.000227, 9.999766 
1.3950156e+3, 2.2459333e+2, -765540.3, -810563.06, -49862.53, -0.0512964, 0.1361943, -733343.06, 5654.5464, 0.0, 10.0000515, 9.999453 
1.3950098e+3, 2.3459285e+2, -714343.4, -730188.9, -53290.168, -0.00715307, 0.13813113, -668390.25, -27386.129, 0.0, 9.999711, 9.999495 
1.3950035e+3, 2.4459255e+2, -636052.9, -625015.7, -62198.35, 0.0027059948, 0.1524937, -568091.56, -25083.055, 0.0, 9.999505, 9.999642 
1.3949968e+3, 2.5459245e+2, -541251.56, -521906.5, -64725.625, -0.028138516, 0.1723399, -466134.66, -21124.39, 0.0, 9.9994545, 9.9997015 
1.3949904e+3, 2.6459226e+2, -476104.4, -413802.88, -66168.36, -0.025938343, 0.17349577, -371819.38, -24807.223, 0.0, 9.999117, 9.999933 
1.3949843e+3, 2.74592e+2, -471874.84, -353567.72, -59320.74, 0.015563715, 0.14784922, -328947.22, -79933.734, 0.0, 9.998441, 10.0 
1.3949783e+3, 2.8459203e+2, -424020.7, -278819.88, -28472.371, 0.03432023, 0.1516491, -273436.34, -122423.81, 0.0, 9.998092, 10.000009 
1.3949724e+3, 2.9459232e+2, -320438.5, -172801.16, -25272.068, 0.027048843, 0.16968489, -168595.0, -115585.29, 0.0, 9.998107, 10.000055 
1.3949667e+3, 3.045911e+2, -290279.88, -146161.8, -17186.26, 0.03459728, 0.05071174, -144140.66, -144140.66, 0.0, 9.998035, 9.99994 
1.3949603e+3, 3.1459248e+2, -228821.63, 32177.064, 21335.838, -0.0276587, 0.18686575, 33909.703, 33909.703, 0.0, 9.997814, 10.001272 
1.4050773e+3, 1.2460861e+2, -1382732.3, -1738572.0, -43994.598, -0.057819728, 0.1560562, -1377373.6, 341477.2, 0.009133226, 10.003105, 9.998339 
1.4050733e+3, 1.3460675e+2, -1270899.3, -1591457.1, -5404.34, 0.12949243, 0.107685775, -1270808.1, 350060.72, 0.005275387, 10.002996, 9.998734 
1.4050648e+3, 1.4460652e+2, -1211396.0, -1521104.4, -16222.514, -0.15800808, 0.21007767, -1210548.6, 312322.06, 0.0021822979, 10.002765, 9.998651 
1.40506e+3, 1.5460439e+2, -1164812.3, -1452070.0, -19088.979, -0.029617352, 0.1347398, -1163549.3, 261341.39, 0.00051218417, 10.002426, 9.998614 
1.4050545e+3, 1.6460274e+2, -1119574.3, -1354949.3, -12092.985, 0.021127822, 0.10097842, -1118954.6, 207951.36, 0.000037386584, 10.001956, 9.998835 
1.405048e+3, 1.7460187e+2, -1105470.5, -1289593.1, -11380.439, -0.013123414, 0.121715054, -1104769.9, 124144.05, 0.00000006103049, 10.001346, 9.998904 
1.4050415e+3, 1.8460087e+2, -1051191.0, -1213307.0, -38450.56, -0.036554188, 0.13335195, -1042533.6, 88390.266, 0.0, 10.001047, 9.998899 
1.4050347e+3, 1.9459972e+2, -938969.1, -1102607.9, -37111.703, -0.049542632, 0.121553384, -930945.94, 101990.62, 0.0, 10.001121, 9.998951 
1.4050283e+3, 2.0459898e+2, -827057.06, -925993.56, -22619.398, -0.0542188, 0.12399506, -822131.0, 112812.84, 0.0, 10.000907, 9.999594 
1.405022e+3, 2.1459879e+2, -802394.75, -854151.06, -35635.477, -0.048026264, 0.13573289, -784232.4, 52711.977, 0.0, 10.000365, 9.999674 
1.4050157e+3, 2.2459844e+2, -776745.06, -808549.5, -52675.953, -0.034559872, 0.14129966, -737623.3, 1324.4897, 0.0, 9.999945, 9.9995165 
1.4050093e+3, 2.3459792e+2, -716481.56, -723847.2, -45573.402, -0.014465813, 0.13204741, -674442.44, -33488.164, 0.0, 9.999664, 9.99956 
1.4050028e+3, 2.445976e+2, -650828.75, -624399.44, -38139.496, -0.013032408, 0.13863187, -597250.1, -54291.703, 0.0, 9.999371, 9.999712 
1.4049959e+3, 2.545975e+2, -592770.94, -539091.0, -31740.107, -0.034013584, 0.15215386, -524363.94, -79404.02, 0.0, 9.999067, 9.99977 
1.4049894e+3, 2.6459745e+2, -506350.03, -427240.7, -39624.18, -0.028626202, 0.16225387, -410807.44, -63846.594, 0.0, 9.998905, 9.999942 
1.4049828e+3, 2.745975e+2, -403474.8, -319043.34, -48066.176, 0.007701446, 0.16605099, -297286.25, -48326.23, 0.0, 9.998906, 10.0000105 
1.4049765e+3, 2.8459764e+2, -352036.97, -240726.05, -25386.887, 0.02883652, 0.17738003, -235209.42, -84250.836, 0.0, 9.998572, 10.000038 
1.4049704e+3, 2.9459772e+2, -354767.53, -186633.42, -26814.143, 0.034354355, 0.17367615, -182460.64, -129502.94, 0.0, 9.997859, 10.00008 
1.4049646e+3, 3.045966e+2, -381928.9, -195446.63, -19206.064, 0.05163807, 0.06615076, -193489.13, -193489.13, 0.0, 9.997429, 9.999894 
1.4049579e+3, 3.1459805e+2, -277589.94, 45128.1, -1632.4191, -0.023401951, 0.21489564, 45136.355, 45136.355, 0.0, 9.997322, 10.001599 
1.4150801e+3, 1.2461467e+2, -1392179.6, -1757472.5, -49756.47, -0.082676746, 0.20318666, -1385523.6, 333269.2, 0.009556688, 10.0031, 9.998213 
1.4150764e+3, 1.3461219e+2, -1283089.5, -1615771.3, -9964.541, 0.14157443, 0.1086505, -1282791.3, 338025.9, 0.0055341963, 10.002995, 9.998568 
1.4150678e+3, 1.4461198e+2, -1199260.8, -1497574.1, -30282.355, -0.13378392, 0.21663454, -1196217.9, 326600.47, 0.0022969088, 10.00277, 9.998811 
1.4150622e+3, 1.5461019e+2, -1152964.9, -1427314.3, -31871.117, -0.051089603, 0.15618026, -1149311.1, 275523.6, 0.0005425403, 10.002424, 9.998786 
1.4150561e+3, 1.6460867e+2, -1120403.8, -1356482.3, -36158.027, -0.0073244674, 0.12754336, -1114990.0, 211858.52, 0.000040406845, 10.001953, 9.998826 
1.4150497e+3, 1.7460766e+2, -1105795.4, -1291758.4, -34740.457, 0.008908589, 0.13675325, -1099517.4, 129340.57, 0.00000007226826, 10.001351, 9.998888 
1.4150429e+3, 1.8460669e+2, -1045480.75, -1202577.5, -37818.344, -0.007151294, 0.14725581, -1036850.7, 94016.9, 0.0, 10.001051, 9.998972 
1.4150356e+3, 1.9460574e+2, -933294.7, -1091710.5, -34547.56, -0.06725832, 0.14852923, -926088.4, 106789.305, 0.0, 10.001123, 9.999025 
1.4150289e+3, 2.046049e+2, -851082.9, -975866.75, -43276.098, -0.07987901, 0.15089354, -837543.44, 97342.875, 0.0, 10.000906, 9.999252 
1.4150225e+3, 2.1460415e+2, -827736.3, -906466.75, -56156.336, -0.03342671, 0.14578898, -798522.0, 38371.008, 0.0, 10.000362, 9.999317 
1.4150159e+3, 2.2460361e+2, -763493.4, -780146.9, -64269.402, -0.020667577, 0.14033234, -707013.56, 31884.758, 0.0, 9.99994, 9.999715 
1.4150086e+3, 2.3460327e+2, -700870.1, -691755.7, -55689.97, -0.048227716, 0.12769766, -640436.75, 464.8372, 0.0, 9.999664, 9.999782 
1.4150019e+3, 2.4460314e+2, -636742.25, -595730.0, -49464.727, -0.049720865, 0.13366812, -562689.3, -19786.578, 0.0, 9.999371, 9.999908 
1.4149952e+3, 2.546033e+2, -579615.1, -510938.75, -42131.297, -0.019205974, 0.14966902, -490924.78, -46023.39, 0.0, 9.999062, 9.999967 
1.4149885e+3, 2.646031e+2, -517958.75, -451434.06, -39307.676, 0.00009624123, 0.14679953, -433203.9, -86300.195, 0.0, 9.998904, 9.999778 
1.4149816e+3, 2.7460268e+2, -416291.53, -345806.8, -46425.004, 0.0030451592, 0.12016799, -322762.75, -73853.6, 0.0, 9.998905, 9.999828 
1.414975e+3, 2.846031e+2, -352389.22, -241701.8, -50667.742, 0.0014248692, 0.1672424, -222011.2, -71104.76, 0.0, 9.998572, 10.000031 
1.414968e+3, 2.9460427e+2, -356637.0, -188481.03, -50987.46, 0.003569095, 0.27514505, -174228.81, -121333.4, 0.0, 9.997849, 10.0000725 
1.414962e+3, 3.046033e+2, -400586.75, -234263.4, -22212.943, 0.05135512, 0.1945145, -231347.9, -231347.9, 0.0, 9.997427, 9.999629 
1.4149557e+3, 3.1460282e+2, -276158.1, 49222.33, -5859.376, 0.018312475, 0.17423327, 49327.81, 49327.81, 0.0, 9.997316, 10.00163 
1.4250834e+3, 1.2462069e+2, -1336948.5, -1728324.0, -33253.28, -0.06894037, 0.21821184, -1334143.1, 384591.7, 0.010011913, 10.003475, 9.998232 
1.4250794e+3, 1.3461792e+2, -1264102.4, -1609983.6, 16073.94, 0.13504289, 0.09882679, -1263356.9, 357404.34, 0.0058154534, 10.00314, 9.998536 
1.4250706e+3, 1.4461783e+2, -1205487.6, -1503150.3, -11394.161, -0.13110308, 0.2197602, -1205052.1, 317709.3, 0.002423067, 10.002742, 9.998785 
1.4250647e+3, 1.546161e+2, -1170850.8, -1439200.1, -29595.74, -0.043029558, 0.17037983, -1167625.5, 257152.2, 0.00057589856, 10.0023155, 9.998755 
1.4250581e+3, 1.6461459e+2, -1108380.1, -1349059.6, -38603.84, -0.008943176, 0.14306903, -1102339.9, 224451.75, 0.00004378684, 10.00203, 9.998839 
1.4250511e+3, 1.7461349e+2, -1023480.4, -1250088.0, -36146.21, -0.018653657, 0.14095451, -1017854.3, 210947.27, 0.00000008454083, 10.00191, 9.998903 
1.425044e+3, 1.8461251e+2, -965736.4, -1164213.1, -35313.523, -0.03145022, 0.15045708, -959640.5, 171170.6, 0.0, 10.001602, 9.998968 
1.425037e+3, 1.9461168e+2, -937568.2, -1093517.8, -38410.152, -0.055227567, 0.16426046, -928621.1, 104198.805, 0.0, 10.001096, 9.999024 
1.4250298e+3, 2.0461076e+2, -896257.06, -1007599.9, -49695.566, -0.055164527, 0.16503528, -877303.0, 57526.105, 0.0, 10.00064, 9.999162 
1.425023e+3, 2.1460977e+2, -851994.5, -929020.7, -44507.473, -0.025368216, 0.14247753, -831650.4, 5188.1436, 0.0, 10.000243, 9.99922 
1.4250158e+3, 2.2460915e+2, -760556.6, -773207.75, -38578.547, -0.020634465, 0.13240258, -727788.5, 11055.912, 0.0, 9.999935, 9.999765 
1.4250085e+3, 2.3460896e+2, -686228.44, -678014.4, -43560.37, -0.04641409, 0.12883382, -638367.9, 2478.1155, 0.0, 9.999736, 9.999841 
1.4250012e+3, 2.4460895e+2, -621562.3, -579184.4, -52514.51, -0.04649126, 0.13781303, -543745.25, -899.3255, 0.0, 9.999435, 9.99999 
1.4249943e+3, 2.5460914e+2, -580356.9, -501389.63, -54697.73, -0.01567728, 0.15146165, -473413.66, -28569.936, 0.0, 9.999015, 10.000054 
1.4249873e+3, 2.64609e+2, -558514.8, -471990.44, -42317.547, 0.0048214532, 0.14767684, -454734.94, -107889.12, 0.0, 9.998631, 9.999768 
1.4249803e+3, 2.7460855e+2, -505381.94, -390608.94, -37745.992, 0.009755528, 0.119064026, -379307.94, -130455.89, 0.0, 9.998299, 9.999814 
1.4249732e+3, 2.846089e+2, -419040.75, -276019.44, -42494.44, 0.0025870875, 0.16250461, -264346.25, -113495.98, 0.0, 9.998123, 10.000012 
1.4249659e+3, 2.9461005e+2, -318018.94, -172198.98, -47246.5, -0.008447284, 0.26871192, -158229.19, -105389.27, 0.0, 9.998125, 10.000051 
1.4249595e+3, 3.046094e+2, -355468.22, -225089.69, -13991.34, 0.04304883, 0.22909369, -223605.13, -223605.13, 0.0, 9.997791, 9.999516 
1.4249529e+3, 3.1460837e+2, -305110.72, 44559.457, 10319.135, 0.021875497, 0.16729113, 44863.723, 44863.723, 0.0, 9.997076, 10.001714 
1.4350875e+3, 1.2462671e+2, -1325502.4, -1703933.1, -47505.996, -0.019429281, 0.19955577, -1319629.9, 399046.66, 0.010506618, 10.003473, 9.998402 
1.4350823e+3, 1.3462403e+2, -1257183.1, -1593918.4, 3575.4321, 0.104488105, 0.07905845, -1257145.1, 363555.38, 0.006123269, 10.003136, 9.99865 
1.4350732e+3, 1.446241e+2, -1221465.0, -1536897.5, -29018.857, -0.1565021, 0.21945956, -1218817.5, 303881.9, 0.002563054, 10.002742, 9.998553 
1.4350672e+3, 1.5462221e+2, -1186746.9, -1473578.3, -45615.33, -0.008101867, 0.17720057, -1179667.3, 245051.94, 0.0006133788, 10.00232, 9.998518 
1.4350604e+3, 1.646206e+2, -1105567.9, -1344531.3, -44854.15, 0.013202962, 0.14941102, -1097426.1, 229308.73, 0.000047750204, 10.002035, 9.998869 
1.4350522e+3, 1.746194e+2, -1020679.5, -1244487.9, -40870.617, -0.0977565, 0.13504007, -1013449.5, 215294.98, 0.00000010052836, 10.00191, 9.998941 
1.4350449e+3, 1.846184e+2, -971778.75, -1176566.1, -55107.0, -0.11175239, 0.14360072, -957891.56, 172862.45, 0.0, 10.001599, 9.998886 
1.4350383e+3, 1.9461758e+2, -943171.5, -1105862.3, -57519.918, -0.016343568, 0.1679097, -924889.5, 107873.56, 0.0, 10.001097, 9.99894 
1.4350311e+3, 2.0461667e+2, -885907.75, -985860.8, -65512.19, 0.015291274, 0.16619655, -853485.9, 81286.18, 0.0, 10.000638, 9.999312 
1.4350232e+3, 2.1461566e+2, -840548.8, -905969.06, -59244.93, -0.025182486, 0.12586598, -805583.9, 31196.736, 0.0, 10.000244, 9.999378 
1.4350156e+3, 2.2461507e+2, -767754.5, -788618.25, -46957.375, -0.035449393, 0.117090836, -730084.25, 8701.694, 0.0, 9.999936, 9.99966 
1.4350085e+3, 2.34615e+2, -694793.5, -695536.3, -50602.563, -0.011610087, 0.13655408, -644560.94, -3773.852, 0.0, 9.999734, 9.9997225 
1.435001e+3, 2.4461497e+2, -624188.1, -583916.2, -68100.75, -0.007591268, 0.15271512, -533036.9, 9750.756, 0.0, 9.999431, 9.999961 
1.4349931e+3, 2.5461507e+2, -582509.5, -505616.94, -69619.84, -0.025730329, 0.1560878, -464533.13, -19746.16, 0.0, 9.999013, 10.000027 
1.4349857e+3, 2.646151e+2, -547336.9, -448992.8, -54233.51, -0.015848, 0.16303322, -424958.53, -78171.32, 0.0, 9.99863, 9.9999275 
1.4349788e+3, 2.746151e+2, -494464.3, -367024.6, -48120.293, 0.024823362, 0.16652405, -350895.94, -102107.89, 0.0, 9.998293, 9.999979 
1.4349715e+3, 2.8461504e+2, -423631.13, -285328.47, -41333.68, 0.027966328, 0.16678275, -273916.9, -123127.33, 0.0, 9.998121, 9.999949 
1.434964e+3, 2.9461494e+2, -324702.94, -185435.08, -44875.94, -0.0069766175, 0.149491, -172227.39, -119435.555, 0.0, 9.998121, 9.999962 
1.4349571e+3, 3.046148e+2, -349552.03, -212651.28, -39572.695, 0.022605438, 0.16543865, -202035.53, -202035.53, 0.0, 9.997789, 9.999602 
1.4349496e+3, 3.1461492e+2, -295862.34, 65222.652, -16825.588, -0.018924337, 0.20505475, 66004.984, 66004.984, 0.0, 9.997069, 10.001859 
1.4450912e+3, 1.2463372e+2, -1297177.3, -1685192.6, -5657.223, -0.0017267889, 0.20762497, -1297094.9, 421513.2, 0.011047917, 10.003654, 9.998443 
1.4450854e+3, 1.3463083e+2, -1244940.3, -1591298.9, 34460.11, 0.10606649, 0.066791564, -1241545.0, 379088.63, 0.00646129, 10.003237, 9.998618 
1.4450759e+3, 1.4463083e+2, -1207697.8, -1551914.4, 1824.1417, -0.1544632, 0.21328671, -1207688.1, 314945.16, 0.0027186894, 10.0029335, 9.998357 
1.4450698e+3, 1.5462884e+2, -1136160.6, -1471362.5, -12691.36, -0.024089921, 0.18221222, -1135680.8, 288974.03, 0.0006559602, 10.002767, 9.998317 
1.4450623e+3, 1.6462716e+2, -1057481.3, -1327841.1, -15291.58, -0.0012299583, 0.16148004, -1056619.1, 270052.38, 0.000052490832, 10.002398, 9.998806 
1.4450541e+3, 1.7462593e+2, -1038317.6, -1259550.4, -20446.434, -0.086802535, 0.1485387, -1036443.8, 192237.83, 0.00000012546444, 10.00182, 9.998881 
1.4450465e+3, 1.8462485e+2, -1009542.56, -1192428.6, -37453.777, -0.09083172, 0.15180364, -1002169.56, 128522.15, 0.0, 10.001331, 9.998905 
1.4450394e+3, 1.9462395e+2, -963776.94, -1113472.4, -33609.34, -0.006855547, 0.16510026, -956577.3, 76124.03, 0.0, 10.000946, 9.99896 
1.4450319e+3, 2.0462304e+2, -873962.3, -970365.8, -32687.285, 0.015358934, 0.15964119, -863924.3, 70785.52, 0.0, 10.000679, 9.999399 
1.4450234e+3, 2.1462217e+2, -789709.6, -871235.44, -32493.766, -0.031751797, 0.12390863, -778343.25, 58373.375, 0.0, 10.000551, 9.999467 
1.4450157e+3, 2.2462162e+2, -739926.0, -785404.0, -28527.604, -0.03975699, 0.11935177, -726183.7, 12537.773, 0.0, 10.000172, 9.999567 
1.4450082e+3, 2.346215e+2, -736432.25, -726973.56, -32260.92, -0.0047413907, 0.14278308, -699097.2, -58373.477, 0.0, 9.999497, 9.99962 
1.4450003e+3, 2.4462138e+2, -676939.7, -613847.75, -42008.574, 0.0003934804, 0.15657611, -592859.3, -50133.805, 0.0, 9.999087, 9.999921 
1.4449921e+3, 2.546213e+2, -588648.06, -513095.88, -45909.54, -0.028757611, 0.14922504, -491418.47, -46692.098, 0.0, 9.998988, 9.999988 
1.4449844e+3, 2.6462147e+2, -519295.53, -418455.53, -35481.29, -0.022963941, 0.16200347, -407222.5, -60497.04, 0.0, 9.998748, 10.00008 
1.4449771e+3, 2.7462187e+2, -476245.7, -339545.84, -31099.857, 0.02226652, 0.1905902, -332803.06, -84081.29, 0.0, 9.998339, 10.000145 
1.4449696e+3, 2.8462183e+2, -438182.34, -286462.44, -9862.965, 0.02801487, 0.17947572, -285823.94, -135100.78, 0.0, 9.997996, 10.000001 
1.4449619e+3, 2.9462123e+2, -378093.4, -206975.86, -5170.417, -0.0064400854, 0.110086136, -206819.78, -154089.52, 0.0, 9.997736, 10.0 
1.4449547e+3, 3.0462164e+2, -392690.03, -203800.33, -4059.1365, 0.026601907, 0.16410899, -203713.14, -203713.14, 0.0, 9.997367, 9.999866 
1.4449467e+3, 3.1462198e+2, -310046.97, 79708.875, 24658.281, -0.008349336, 0.19731723, 81262.71, 81262.71, 0.0, 9.9968815, 10.002048 
1.4550947e+3, 1.24641776e+2, -1304149.1, -1700564.9, -27455.934, -0.021748206, 0.2406328, -1302256.6, 416272.34, 0.011640448, 10.003656, 9.998336 
1.455089e+3, 1.3463832e+2, -1258087.0, -1619364.3, 18739.816, 0.13781354, 0.061450627, -1257117.6, 363442.53, 0.0068325973, 10.00324, 9.998423 
1.4550792e+3, 1.4463809e+2, -1218726.8, -1575579.4, -6974.669, -0.12698844, 0.20346558, -1218590.5, 303971.5, 0.0028915813, 10.002935, 9.998194 
1.4550717e+3, 1.5463609e+2, -1147657.6, -1494600.0, -19163.27, -0.09388811, 0.18595771, -1146602.4, 277981.6, 0.00070428615, 10.002765, 9.998158 
1.4550643e+3, 1.6463438e+2, -1069057.4, -1353096.1, -37874.086, -0.05693352, 0.18020199, -1064094.0, 262507.38, 0.000058062662, 10.002399, 9.998633 
1.4550568e+3, 1.7463312e+2, -1049068.9, -1283781.1, -42117.3, 0.009812979, 0.1799014, -1041740.1, 186872.7, 0.00000016567238, 10.001825, 9.9987135 
1.4550489e+3, 1.846319e+2, -1001749.75, -1176820.1, -53294.867, 0.025065167, 0.174863, -986802.0, 143822.03, 0.0, 10.001332, 9.999012 
1.4550401e+3, 1.946308e+2, -955022.1, -1096463.0, -48028.082, -0.027949858, 0.1559887, -940255.3, 92379.25, 0.0, 10.00095, 9.999075 
1.4550318e+3, 2.0462991e+2, -872689.3, -968402.44, -38921.742, -0.055352658, 0.14544716, -858860.0, 75782.35, 0.0, 10.00068, 9.999413 
1.4550237e+3, 2.1462932e+2, -788640.75, -869433.2, -37187.85, -0.04826689, 0.13597718, -774129.9, 62516.688, 0.0, 10.000551, 9.99948 
1.4550157e+3, 2.2462882e+2, -746428.4, -798004.44, -53896.36, -0.03826632, 0.13880841, -712468.25, 26182.814, 0.0, 10.000167, 9.999483 
1.4550075e+3, 2.3462845e+2, -742158.25, -739129.25, -57118.063, -0.027038805, 0.14701611, -683505.6, -42849.965, 0.0, 9.999497, 9.999537 
1.4549993e+3, 2.4462813e+2, -680749.6, -622153.7, -46371.25, -0.023081752, 0.14836554, -596600.4, -53941.04, 0.0, 9.999087, 9.999866 
1.4549913e+3, 2.546279e+2, -593183.7, -521961.94, -48339.06, -0.027190788, 0.13220783, -497532.8, -52871.07, 0.0, 9.998984, 9.999929 
1.4549832e+3, 2.646281e+2, -510299.5, -398776.8, -49667.453, -0.020031625, 0.14639935, -379864.3, -33204.027, 0.0, 9.998742, 10.000218 
1.4549752e+3, 2.7462885e+2, -466543.47, -318370.13, -44839.21, -0.0019062031, 0.18993394, -305857.78, -57204.332, 0.0, 9.998333, 10.000294 
1.4549673e+3, 2.8462917e+2, -424785.72, -258606.1, -18952.275, 0.00011918567, 0.19878295, -256472.05, -105820.76, 0.0, 9.997994, 10.000195 
1.4549597e+3, 2.9462898e+2, -365884.28, -181062.9, -12638.444, -0.010065904, 0.15369256, -180202.67, -127548.0, 0.0, 9.997731, 10.000181 
1.4549524e+3, 3.0462992e+2, -363393.97, -142907.7, -20249.02, 0.050789773, 0.22899477, -141063.5, -141063.5, 0.0, 9.997366, 10.000285 
1.4549442e+3, 3.1462964e+2, -300038.63, 102462.484, 5529.9746, 0.046737198, 0.15927139, 102538.445, 102538.445, 0.0, 9.996872, 10.002209 
1.4650984e+3, 1.2464945e+2, -1287999.6, -1700917.3, -34053.098, -0.024433563, 0.23058175, -1285210.1, 433243.47, 0.012283, 10.003806, 9.998261 
1.4650923e+3, 1.3464616e+2, -1205470.6, -1612540.0, 17750.035, 0.12802325, 0.08525395, -1204698.1, 415785.72, 0.00723705, 10.003687, 9.998254 
1.4650825e+3, 1.4464584e+2, -1162512.9, -1553025.9, -6150.6035, -0.121098876, 0.23008269, -1162416.0, 360070.56, 0.0030819494, 10.003347, 9.998148 
1.4650746e+3, 1.546435e+2, -1148440.9, -1499333.1, -11502.036, -0.082592696, 0.18283468, -1148064.3, 276447.06, 0.0007585455, 10.002779, 9.998118 
1.4650668e+3, 1.6464171e+2, -1086429.6, -1367935.4, -23852.27, -0.04443575, 0.17213729, -1084422.9, 242106.78, 0.00006440502, 10.00231, 9.998573 
1.4650588e+3, 1.746406e+2, -1033328.4, -1282702.3, -21688.13, 0.019126212, 0.19388738, -1031456.2, 197084.08, 0.00000022299002, 10.001965, 9.9986515 
1.4650504e+3, 1.8463942e+2, -958245.75, -1154208.8, -27866.086, 0.029484821, 0.194334, -954360.2, 176191.05, 0.0, 10.001627, 9.999024 
1.4650412e+3, 1.9463821e+2, -902562.3, -1069595.9, -30986.441, -0.032448865, 0.16319865, -896999.3, 135562.86, 0.0, 10.001307, 9.999087 
1.4650324e+3, 2.0463726e+2, -847643.1, -966295.56, -27906.08, -0.060055226, 0.14917319, -841407.56, 93162.984, 0.0, 10.000896, 9.999322 
1.4650244e+3, 2.1463662e+2, -820739.5, -895759.6, -35502.49, -0.044539526, 0.1465088, -806602.4, 29973.146, 0.0, 10.000379, 9.999383 
1.4650159e+3, 2.2463608e+2, -766284.3, -808085.6, -56213.605, -0.034706317, 0.15178637, -727211.56, 11369.024, 0.0, 10.000033, 9.999478 
1.465007e+3, 2.3463568e+2, -686242.56, -712243.25, -55096.6, -0.03368492, 0.1563327, -642633.3, -2047.9044, 0.0, 9.999883, 9.9995365 
1.4649986e+3, 2.4463534e+2, -620882.94, -592859.0, -37869.688, -0.026730943, 0.15567583, -566492.2, -23903.07, 0.0, 9.999498, 9.999868 
1.4649902e+3, 2.5463516e+2, -614160.6, -531522.75, -36279.316, -0.012779169, 0.1400833, -517855.84, -73264.71, 0.0, 9.998839, 9.999933 
1.4649819e+3, 2.646353e+2, -562406.8, -428540.97, -37751.785, -0.0076574143, 0.15027091, -418628.5, -72038.26, 0.0, 9.998405, 10.000175 
1.4649734e+3, 2.7463585e+2, -484862.2, -332409.53, -49094.152, -0.014443848, 0.1829582, -317967.84, -69382.625, 0.0, 9.99823, 10.000247 
1.464965e+3, 2.846363e+2, -432801.22, -240687.31, -35545.355, -0.016921312, 0.1950631, -234321.56, -83739.414, 0.0, 9.997846, 10.000389 
1.4649571e+3, 2.9463655e+2, -424807.22, -186597.63, -30094.277, -0.007917669, 0.17348665, -182854.47, -130273.375, 0.0, 9.99723, 10.000383 
1.4649495e+3, 3.046379e+2, -416849.2, -149796.72, -36754.086, 0.05948436, 0.27508336, -144830.66, -144830.66, 0.0, 9.996918, 10.000452 
1.4649412e+3, 3.1463733e+2, -299651.06, 83217.67, -37213.492, 0.058176674, 0.15610915, 86801.15, 86801.15, 0.0, 9.99696, 10.002033 
1.4751025e+3, 1.2465686e+2, -1290574.1, -1706026.1, -44449.0, -0.010012783, 0.18273325, -1285871.8, 432509.3, 0.012969923, 10.003806, 9.998227 
1.4750955e+3, 1.3465445e+2, -1214659.6, -1631539.3, 13229.977, 0.072495446, 0.13747954, -1214240.1, 406163.66, 0.0076708426, 10.003688, 9.998123 
1.4750855e+3, 1.4465418e+2, -1158303.0, -1546145.1, -28118.422, -0.14366344, 0.29299542, -1156275.0, 366131.3, 0.0032881629, 10.003354, 9.998193 
1.4750783e+3, 1.5465118e+2, -1143886.0, -1490223.3, -32810.27, 0.0059844456, 0.1724618, -1140805.1, 283631.3, 0.00081847684, 10.002779, 9.998181 
1.4750698e+3, 1.6464922e+2, -1083505.5, -1362295.1, -38958.688, 0.03158982, 0.13889785, -1078163.6, 248292.42, 0.000071419374, 10.002311, 9.998612 
1.47506e+3, 1.7464843e+2, -1029993.3, -1277299.4, -35044.723, -0.05950581, 0.1912425, -1025123.2, 203340.52, 0.0000002932695, 10.00197, 9.998687 
1.475051e+3, 1.8464743e+2, -963561.94, -1166898.0, -40982.2, -0.07882116, 0.2106119, -955612.75, 174860.4, 0.0, 10.001632, 9.998936 
1.4750427e+3, 1.9464618e+2, -908143.0, -1082891.9, -43147.785, -0.023222089, 0.18570553, -898069.94, 134414.19, 0.0, 10.001311, 9.998994 
1.4750339e+3, 2.0464507e+2, -862262.9, -996381.7, -48050.258, -0.0036826434, 0.16995825, -846825.06, 87669.3, 0.0, 10.000894, 9.999117 
1.475025e+3, 2.146441e+2, -835332.6, -926362.1, -54776.26, -0.022466427, 0.1556159, -809629.2, 26874.275, 0.0, 10.000379, 9.999173 
1.475016e+3, 2.2464347e+2, -762196.2, -799558.7, -62947.7, -0.030217713, 0.15821381, -715216.1, 23293.729, 0.0, 10.000031, 9.999538 
1.4750071e+3, 2.3464322e+2, -681477.5, -702344.2, -60116.215, -0.027156945, 0.17104837, -630896.0, 9616.921, 0.0, 9.999881, 9.999605 
1.4749981e+3, 2.4464303e+2, -617416.6, -584845.56, -61933.33, -0.013846815, 0.17866908, -537092.44, 5422.314, 0.0, 9.999494, 9.999926 
1.4749892e+3, 2.5464296e+2, -610447.0, -522974.56, -59933.254, 0.011718646, 0.17259078, -492516.1, -48001.555, 0.0, 9.998836, 9.999994 
1.4749804e+3, 2.6464295e+2, -578275.56, -461736.47, -44042.074, 0.012369753, 0.17310934, -446964.63, -100449.31, 0.0, 9.9984045, 9.9999485 
1.4749716e+3, 2.746429e+2, -502421.4, -368166.66, -53785.99, -0.017935159, 0.17052984, -349276.5, -100759.516, 0.0, 9.998225, 10.000005 
1.4749628e+3, 2.846432e+2, -420657.3, -214423.81, -57398.176, -0.026447568, 0.16973093, -199525.25, -49009.555, 0.0, 9.99784, 10.000572 
1.4749543e+3, 2.9464382e+2, -412335.16, -158753.48, -51281.832, -0.0042423643, 0.1686835, -148775.38, -96265.516, 0.0, 9.997221, 10.000579 
1.4749464e+3, 3.046456e+2, -421902.97, -160246.72, -35167.547, 0.049464338, 0.3005249, -155602.5, -155602.5, 0.0, 9.996916, 10.000382 
1.4749378e+3, 3.1464523e+2, -336064.25, 7635.251, -36439.04, 0.017833795, 0.21232577, 11456.046, 11456.046, 0.0, 9.996958, 10.001515 
1.4851062e+3, 1.2466501e+2, -1256329.1, -1690177.8, -34880.594, -0.017974399, 0.18172613, -1253542.8, 464758.34, 0.013700691, 10.004053, 9.998217 
1.485099e+3, 1.3466257e+2, -1223049.0, -1645162.1, 29834.7, 0.06535413, 0.14018013, -1220950.8, 399374.1, 0.00813248, 10.003673, 9.998036 
1.4850889e+3, 1.4466217e+2, -1176013.0, -1556755.5, -21826.389, -0.13057508, 0.2877037, -1174765.9, 347562.9, 0.0035089266, 10.0032425, 9.998174 
1.4850813e+3, 1.5465923e+2, -1148595.8, -1492884.0, -32811.477, 0.024284668, 0.17528383, -1145496.6, 278861.22, 0.0008836724, 10.00275, 9.998176 
1.4850722e+3, 1.6465726e+2, -1070263.1, -1357815.8, -32193.693, 0.040362127, 0.14493088, -1066702.9, 259674.27, 0.00007901186, 10.002413, 9.998592 
1.485062e+3, 1.7465647e+2, -987937.75, -1259679.0, -33701.203, -0.07851068, 0.19449817, -983820.56, 244564.7, 0.00000037325287, 10.002271, 9.998662 
1.4850526e+3, 1.8465538e+2, -918785.9, -1153613.1, -46669.87, -0.10214234, 0.21337034, -909850.6, 220544.77, 0.0, 10.001976, 9.99886 
1.485044e+3, 1.946541e+2, -885171.5, -1079985.8, -49041.574, -0.02523778, 0.19206277, -873522.56, 158884.58, 0.0, 10.001507, 9.9989195 
1.485035e+3, 2.0465297e+2, -847476.8, -988727.56, -50517.348, 0.0044503678, 0.17854212, -831269.3, 103148.28, 0.0, 10.000995, 9.99912 
1.4850254e+3, 2.14652e+2, -827359.1, -922180.44, -42681.652, -0.01779793, 0.16378988, -810977.25, 25449.111, 0.0, 10.000434, 9.999174 
1.485016e+3, 2.2465134e+2, -779115.4, -811378.6, -36472.33, -0.02189057, 0.1642557, -755366.44, -16933.457, 0.0, 9.999933, 9.999504 
1.485007e+3, 2.34651e+2, -740032.94, -735183.44, -42885.242, -0.007755754, 0.17300463, -694654.5, -54217.676, 0.0, 9.9995, 9.999563 
1.4849976e+3, 2.4465075e+2, -664436.06, -608701.0, -56122.242, 0.0007478772, 0.1784782, -573908.3, -31469.178, 0.0, 9.999178, 9.999913 
1.4849882e+3, 2.5465068e+2, -590976.7, -515119.94, -61780.836, 0.0033151032, 0.17192593, -480553.94, -36114.88, 0.0, 9.998977, 9.999979 
1.484979e+3, 2.646507e+2, -548976.06, -441380.94, -37245.305, 0.0016176881, 0.17562096, -429746.16, -83306.81, 0.0, 9.998581, 10.000003 
1.4849697e+3, 2.746508e+2, -535627.0, -377828.16, -25421.26, -0.0077212793, 0.17938325, -373833.94, -125394.12, 0.0, 9.997972, 10.000059 
1.4849608e+3, 2.84651e+2, -462941.6, -240051.39, -24675.18, -0.01375953, 0.17168242, -237352.39, -86913.33, 0.0, 9.997575, 10.000524 
1.4849517e+3, 2.946514e+2, -388158.5, -153462.25, -40181.117, -0.009558468, 0.15024863, -146773.67, -94337.99, 0.0, 9.997416, 10.000522 
1.4849432e+3, 3.0465308e+2, -382910.03, -134672.03, -19634.97, 0.0311531, 0.2741885, -133128.55, -133128.55, 0.0, 9.997156, 10.000442 
1.4849345e+3, 3.146533e+2, -382838.75, -48887.887, -13863.904, 0.013743994, 0.24273765, -48313.316, -48313.316, 0.0, 9.996785, 10.001209 
1.49511e+3, 1.2467397e+2, -1258315.8, -1692811.6, -57312.047, -0.050597746, 0.22747628, -1250883.1, 467329.88, 0.01448521, 10.00405, 9.998199 
1.4951031e+3, 1.3467059e+2, -1228903.1, -1656162.6, 16069.933, 0.104834236, 0.0955277, -1228299.5, 391946.66, 0.008627365, 10.00367, 9.997962 
1.4950927e+3, 1.4466985e+2, -1180005.0, -1566546.5, -41746.902, -0.08422616, 0.21827978, -1175547.8, 346705.8, 0.0037456865, 10.003247, 9.998105 
1.4950836e+3, 1.546677e+2, -1151898.9, -1502245.9, -51446.156, -0.029676469, 0.19131109, -1144500.5, 279774.72, 0.0009542572, 10.00276, 9.998108 
1.495074e+3, 1.6466595e+2, -1075240.9, -1370352.4, -38866.41, -0.021410584, 0.18964513, -1070208.0, 256084.52, 0.00008722728, 10.002421, 9.998503 
1.4950646e+3, 1.7466469e+2, -994295.0, -1273187.4, -38989.26, -0.040560145, 0.20289347, -988946.8, 239357.78, 0.0000004647829, 10.002271, 9.99857 
1.4950551e+3, 1.8466334e+2, -924147.0, -1164062.3, -64925.7, -0.045157623, 0.20322818, -907703.8, 222613.8, 0.0, 10.001972, 9.998792 
1.4950454e+3, 1.94662e+2, -889249.9, -1089570.6, -66697.2, -0.04041966, 0.18264636, -869074.8, 163256.13, 0.0, 10.00151, 9.998853 
1.4950356e+3, 2.0466098e+2, -833453.56, -959883.25, -72274.31, -0.037099976, 0.17461586, -800649.2, 133690.9, 0.0, 10.000995, 9.999319 
1.4950256e+3, 2.1466036e+2, -812133.56, -891339.4, -63673.28, -0.032677144, 0.1708831, -776751.94, 59592.156, 0.0, 10.000436, 9.999386 
1.495016e+3, 2.2465968e+2, -789272.94, -832367.9, -53541.09, -0.013048638, 0.16918334, -753106.1, -14756.26, 0.0, 9.999931, 9.999361 
1.4950067e+3, 2.3465905e+2, -750707.7, -757222.06, -58660.777, 0.022492511, 0.1624965, -695213.75, -54856.777, 0.0, 9.999499, 9.999413 
1.494997e+3, 2.4465856e+2, -671854.44, -623890.56, -63719.45, 0.015165845, 0.15536293, -579789.44, -37427.277, 0.0, 9.999175, 9.999811 
1.4949867e+3, 2.5465828e+2, -598822.94, -530723.75, -68017.08, -0.040279873, 0.13849872, -488709.56, -44344.785, 0.0, 9.998973, 9.999874 
1.4949769e+3, 2.6465857e+2, -525524.9, -392102.34, -59172.984, -0.042715024, 0.15799694, -369640.53, -23278.156, 0.0, 9.998577, 10.000343 
1.494968e+3, 2.746595e+2, -510820.75, -325640.44, -46652.02, 0.012961321, 0.20945318, -314551.53, -66197.8, 0.0, 9.997968, 10.00042 
1.4949585e+3, 2.8465974e+2, -483928.38, -284293.56, -29874.459, 0.018457523, 0.20041053, -279918.88, -129566.42, 0.0, 9.997576, 10.00022 
1.4949489e+3, 2.9465917e+2, -412478.3, -202881.55, -43948.605, -0.02847467, 0.11883417, -194039.36, -141680.69, 0.0, 9.997409, 10.000186 
1.49494e+3, 3.0466032e+2, -369867.25, -106618.39, -32826.703, -0.0002625477, 0.19629149, -102586.7, -102586.7, 0.0, 9.997151, 10.000637 
1.4949316e+3, 3.1466174e+2, -389303.25, -60812.75, -26351.873, 0.04009405, 0.26012582, -58712.207, -58712.207, 0.0, 9.996779, 10.00113 
1.5051138e+3, 1.2468292e+2, -1269473.0, -1708039.1, -21901.559, -0.057779837, 0.20135581, -1268382.0, 449742.06, 0.015335583, 10.004017, 9.998111 
1.505107e+3, 1.3467965e+2, -1206979.6, -1659584.9, 54995.78, 0.1013891, 0.09486867, -1200393.0, 419763.84, 0.009162772, 10.003884, 9.997835 
1.5050961e+3, 1.4467877e+2, -1120844.0, -1543560.0, -7200.6226, -0.07951503, 0.21210739, -1120721.5, 401444.66, 0.0040015904, 10.003682, 9.998053 
1.5050863e+3, 1.5467663e+2, -1058891.5, -1462148.3, -17147.338, -0.04954011, 0.19133307, -1058163.6, 366023.75, 0.001031135, 10.00342, 9.998065 
1.5050766e+3, 1.6467479e+2, -1012537.56, -1349726.8, -7314.4175, -0.035071902, 0.18503901, -1012379.0, 313826.4, 0.000096309515, 10.002892, 9.998419 
1.5050672e+3, 1.7467323e+2, -1032479.94, -1300886.8, -7838.705, -0.01157814, 0.18002339, -1032251.2, 195968.52, 0.000000575819, 10.002049, 9.9984865 
1.5050572e+3, 1.846718e+2, -1001147.44, -1210747.5, -27932.676, -0.010236177, 0.17946434, -997488.8, 132745.1, 0.0, 10.001487, 9.998704 
1.5050468e+3, 1.9467056e+2, -932872.7, -1120930.4, -32651.023, -0.044076648, 0.1780613, -927365.06, 104882.03, 0.0, 10.001255, 9.998759 
1.5050365e+3, 2.0466956e+2, -822772.94, -951159.3, -45420.78, -0.052885894, 0.17539029, -808328.94, 125927.195, 0.0, 10.001054, 9.999351 
1.5050264e+3, 2.1466887e+2, -745543.3, -855184.4, -51119.547, -0.03067623, 0.16163394, -725407.2, 110852.836, 0.0, 10.000877, 9.999421 
1.5050162e+3, 2.2466813e+2, -712490.94, -799592.0, -49967.766, -0.008681756, 0.15388931, -689758.5, 48507.477, 0.0, 10.00048, 9.999322 
1.5050063e+3, 2.3466744e+2, -705926.1, -740694.1, -48771.96, 0.011480744, 0.1452071, -671532.6, -31258.844, 0.0, 9.99983, 9.999366 
1.504996e+3, 2.4466695e+2, -662731.0, -616040.56, -38520.08, 0.003168326, 0.13953395, -594343.6, -52064.664, 0.0, 9.999226, 9.99984 
1.5049855e+3, 2.5466675e+2, -640086.0, -547181.06, -34343.785, -0.03830652, 0.12723714, -535863.94, -91583.08, 0.0, 9.998677, 9.999904 
1.5049754e+3, 2.6466703e+2, -578358.0, -422941.56, -37294.84, -0.037961684, 0.14850263, -414455.4, -68176.75, 0.0, 9.99824, 10.000294 
1.5049659e+3, 2.7466792e+2, -520900.66, -336306.28, -57397.26, 0.008813409, 0.19930582, -319914.84, -71643.57, 0.0, 9.997926, 10.000366 
1.504956e+3, 2.8466827e+2, -489267.75, -284155.8, -39299.766, 0.014695017, 0.20609823, -276883.75, -126614.88, 0.0, 9.997529, 10.000243 
1.5049462e+3, 2.9466808e+2, -463209.9, -224159.31, -27540.584, -0.02219695, 0.1585879, -221027.45, -168756.11, 0.0, 9.997048, 10.000214 
1.504937e+3, 3.0466878e+2, -421971.22, -109886.836, 526.3952, -0.00086775527, 0.1810111, -109885.945, -109885.945, 0.0, 9.9967, 10.000833 
1.5049282e+3, 3.1467032e+2, -426364.47, -71211.086, 3527.676, 0.041834094, 0.23698114, -71176.05, -71176.05, 0.0, 9.996491, 10.001199 
1.515118e+3, 1.24691956e+2, -1278585.4, -1727075.5, -38017.82, -0.040279556, 0.11517151, -1275385.5, 442647.3, 0.016255517, 10.00402, 9.997978 
1.5151103e+3, 1.3468981e+2, -1218166.6, -1683301.8, 49894.094, 0.051970746, 0.13623223, -1212874.9, 407181.8, 0.009740908, 10.003887, 9.997672 
1.5150994e+3, 1.4468895e+2, -1124524.8, -1551481.9, -18210.451, -0.12019561, 0.26703772, -1123749.4, 398316.9, 0.0042781597, 10.003683, 9.997998 
1.5150899e+3, 1.5468608e+2, -1062353.6, -1468947.0, -26960.752, -0.037179846, 0.1760017, -1060573.8, 363520.28, 0.0011151112, 10.003417, 9.99802 
1.5150797e+3, 1.646838e+2, -1017100.9, -1359534.4, -39528.98, -0.0043743886, 0.13333423, -1012597.06, 313518.38, 0.000106548556, 10.002892, 9.998352 
1.5150693e+3, 1.7468217e+2, -1036238.94, -1310772.6, -39752.508, 0.0051384657, 0.12629525, -1030598.7, 197531.63, 0.0000007145684, 10.002057, 9.998416 
1.5150589e+3, 1.846808e+2, -1008869.94, -1228448.8, -38197.414, -0.0011578451, 0.14181593, -1002414.94, 127729.01, 0.0, 10.0014925, 9.998581 
1.5150481e+3, 1.9467981e+2, -940977.6, -1139131.5, -41300.16, -0.037656475, 0.17834206, -932714.25, 99441.09, 0.0, 10.00126, 9.998633 
1.5150376e+3, 2.0467873e+2, -832741.2, -971993.9, -52842.523, -0.045031916, 0.18087834, -814959.56, 119206.02, 0.0, 10.001053, 9.999208 
1.5150273e+3, 2.1467759e+2, -756029.2, -876400.0, -57578.87, -0.014437507, 0.13637799, -732922.3, 103251.62, 0.0, 10.000874, 9.999278 
1.5150167e+3, 2.246767e+2, -709980.0, -793080.4, -74416.18, -0.01170886, 0.11828412, -666300.0, 71881.3, 0.0, 10.000472, 9.999371 
1.5150055e+3, 2.3467617e+2, -702102.9, -732868.4, -72522.086, -0.04208919, 0.12130282, -643350.06, -3162.8572, 0.0, 9.999829, 9.99942 
1.5149948e+3, 2.4467593e+2, -652177.2, -594237.75, -59188.6, -0.037570752, 0.1307171, -557309.5, -15120.064, 0.0, 9.999225, 9.99999 
1.5149847e+3, 2.5467607e+2, -629553.9, -524565.8, -53853.383, 0.0067651384, 0.138162, -501854.72, -57667.555, 0.0, 9.9986725, 10.000062 
1.5149742e+3, 2.6467612e+2, -611138.7, -490157.28, -48376.945, 0.013730027, 0.14717428, -473191.84, -127003.63, 0.0, 9.998236, 9.999834 
1.5149635e+3, 2.7467602e+2, -555624.44, -407572.6, -67276.77, -0.022846628, 0.1493911, -381568.5, -133375.94, 0.0, 9.997922, 9.999879 
1.5149531e+3, 2.8467664e+2, -463767.5, -231236.47, -56919.953, -0.028349994, 0.19007762, -218051.03, -67862.62, 0.0, 9.997527, 10.000608 
1.5149435e+3, 2.9467815e+2, -435654.8, -166690.6, -43823.37, 0.0052557862, 0.27081704, -159730.4, -107556.79, 0.0, 9.9970455, 10.00061 
1.514934e+3, 3.0467847e+2, -408522.6, -82885.125, -6041.7734, 0.02537626, 0.22738755, -82773.07, -82773.07, 0.0, 9.996702, 10.001019 
1.5149245e+3, 3.1467906e+2, -409674.88, -34578.254, 199.88753, 0.01070403, 0.1693523, -34578.15, -34578.15, 0.0, 9.996482, 10.001456 
1.5251224e+3, 1.2470183e+2, -1203795.8, -1704978.1, -50798.55, -0.051862672, 0.10696215, -1198698.8, 519236.38, 0.017240964, 10.004611, 9.997846 
1.525114e+3, 1.3469979e+2, -1196518.9, -1688234.6, 45590.332, 0.030041596, 0.15179682, -1192327.6, 427630.88, 0.010359307, 10.004106, 9.997533 
1.525103e+3, 1.4469875e+2, -1135706.5, -1554969.3, -21276.295, -0.11751767, 0.27154028, -1134629.5, 387340.56, 0.0045741852, 10.003597, 9.998017 
1.5250933e+3, 1.5469584e+2, -1114664.3, -1490424.0, -25705.664, -0.016256198, 0.17241827, -1112913.9, 311084.1, 0.0012060112, 10.003041, 9.9980545 
1.5250827e+3, 1.646936e+2, -1042294.4, -1373512.6, -33352.03, 0.011681568, 0.13092026, -1038969.4, 287049.78, 0.000118081814, 10.002729, 9.998333 
1.5250716e+3, 1.7469205e+2, -942034.1, -1268029.6, -31620.94, -0.011162797, 0.13597988, -938995.3, 289038.0, 0.0000008766353, 10.002716, 9.998391 
1.5250605e+3, 1.8469061e+2, -888846.94, -1183604.1, -29562.879, -0.020252855, 0.15313312, -885911.1, 244136.34, 0.0, 10.002372, 9.998465 
1.5250497e+3, 1.9468942e+2, -892639.6, -1129002.5, -32687.615, -0.026817767, 0.1806822, -888202.44, 143858.28, 0.0, 10.001649, 9.998515 
1.5250388e+3, 2.0468818e+2, -851264.9, -989754.1, -38813.508, -0.026622461, 0.17643282, -841128.7, 92943.78, 0.0, 10.000966, 9.999127 
1.5250279e+3, 2.1468689e+2, -840150.6, -926614.06, -40396.34, -0.014516765, 0.12765998, -824214.4, 11867.863, 0.0, 10.000339, 9.99919 
1.5250169e+3, 2.2468595e+2, -790956.2, -827978.75, -55935.89, -0.016268788, 0.10812173, -750548.1, -12458.083, 0.0, 9.9999, 9.999406 
1.5250054e+3, 2.3468548e+2, -722317.1, -738088.06, -56984.69, -0.03675954, 0.1126651, -672674.9, -32579.707, 0.0, 9.999673, 9.999459 
1.5249941e+3, 2.446853e+2, -639709.6, -591913.0, -53728.348, -0.028851267, 0.12607427, -557007.7, -14910.693, 0.0, 9.999328, 9.999956 
1.5249833e+3, 2.546855e+2, -607079.6, -518034.13, -64287.492, 0.011801182, 0.14114909, -484357.4, -40262.92, 0.0, 9.998847, 10.000022 
1.5249725e+3, 2.6468542e+2, -599872.06, -497921.38, -49104.297, 0.012013129, 0.1489377, -478117.34, -132020.73, 0.0, 9.998371, 9.999716 
1.5249611e+3, 2.7468508e+2, -567672.3, -426992.0, -42220.887, -0.034971535, 0.13825652, -415293.5, -167189.84, 0.0, 9.997899, 9.999757 
1.5249506e+3, 2.846857e+2, -477527.4, -230296.38, -31505.088, -0.04068254, 0.18162955, -226344.78, -76245.15, 0.0, 9.997402, 10.000675 
1.5249404e+3, 2.9468748e+2, -454257.56, -167231.61, -44512.184, 0.0024551083, 0.28324705, -160487.11, -108405.0, 0.0, 9.996884, 10.000684 
1.5249304e+3, 3.046875e+2, -450233.5, -110020.2, -19536.396, 0.020870054, 0.20938763, -108902.02, -108902.02, 0.0, 9.996449, 10.000952 
1.5249208e+3, 3.146884e+2, -453635.38, -38352.445, -30692.936, 0.019980997, 0.19260065, -36096.234, -36096.234, 0.0, 9.996107, 10.00161 
1.5351264e+3, 1.2471258e+2, -1215246.8, -1727715.6, -79868.79, -0.09131055, 0.17499194, -1203087.6, 514742.88, 0.018287117, 10.004607, 9.997692 
1.5351182e+3, 1.3470964e+2, -1205476.3, -1707926.9, 27170.764, 0.03180112, 0.14236072, -1204011.3, 415850.78, 0.011015713, 10.004109, 9.997397 
1.535107e+3, 1.4470823e+2, -1128059.9, -1539988.5, -43129.69, -0.07634375, 0.22829086, -1123592.5, 398284.4, 0.004888049, 10.003602, 9.998118 
1.5350966e+3, 1.5470594e+2, -1106047.1, -1473284.5, -46808.758, 0.009276732, 0.17973468, -1100174.6, 323724.28, 0.0013030368, 10.003045, 9.998171 
1.5350854e+3, 1.6470413e+2, -1040771.5, -1371842.0, -35550.758, 0.008613282, 0.1764265, -1036997.06, 288919.22, 0.00013086536, 10.002733, 9.998343 
1.5350737e+3, 1.7470287e+2, -941126.8, -1267005.4, -32034.523, -0.060860887, 0.20809495, -938007.56, 289920.9, 0.0000010420176, 10.002718, 9.998399 
1.5350623e+3, 1.8470128e+2, -896690.0, -1199585.3, -56836.02, -0.06856669, 0.21317212, -886376.3, 243567.9, 0.0, 10.00237, 9.998357 
1.5350515e+3, 1.946994e+2, -900769.2, -1145786.8, -59874.37, -0.014674879, 0.18422757, -886920.56, 145042.38, 0.0, 10.001648, 9.998402 
1.53504e+3, 2.0469789e+2, -853682.1, -995052.75, -63279.41, -0.0019836577, 0.16120584, -829495.44, 104481.4, 0.0, 10.000965, 9.999092 
1.5350282e+3, 2.1469681e+2, -842134.06, -931544.5, -63460.59, -0.032376938, 0.13546492, -809213.25, 26771.633, 0.0, 10.00034, 9.999157 
1.5350167e+3, 2.2469595e+2, -790099.94, -826398.56, -65310.727, -0.0243531, 0.1238202, -740463.6, -2471.613, 0.0, 9.9999, 9.999418 
1.5350056e+3, 2.3469539e+2, -721663.8, -736434.6, -64765.53, 0.025770973, 0.11929119, -663863.94, -23866.26, 0.0, 9.99967, 9.999473 
1.534994e+3, 2.4469502e+2, -656284.06, -625302.06, -71495.81, 0.027000096, 0.12523726, -567638.3, -25636.65, 0.0, 9.999323, 9.99973 
1.5349819e+3, 2.5469494e+2, -624186.1, -553562.06, -80917.14, -0.025762035, 0.13673627, -500587.53, -56584.63, 0.0, 9.998846, 9.99978 
1.5349703e+3, 2.6469496e+2, -583482.6, -464601.44, -66089.15, -0.046772856, 0.15394105, -435154.7, -89150.766, 0.0, 9.998373, 9.999944 
1.5349591e+3, 2.7469507e+2, -550289.56, -391265.72, -58170.49, -0.03172267, 0.16418636, -372258.84, -124254.25, 0.0, 9.997898, 10.000004 
1.534948e+3, 2.8469542e+2, -495944.28, -267892.88, -49802.273, -0.026335742, 0.1785051, -257491.38, -107488.61, 0.0, 9.997399, 10.000419 
1.5349369e+3, 2.9469606e+2, -474388.25, -207899.78, -61822.05, -0.03347743, 0.19693309, -194256.33, -142259.42, 0.0, 9.996879, 10.000408 
1.5349264e+3, 3.0469587e+2, -472387.88, -155930.6, -31982.46, -0.01622019, 0.1283212, -152730.67, -152730.67, 0.0, 9.996447, 10.000639 
1.5349174e+3, 3.146982e+2, -448284.84, -26574.854, -36830.26, 0.05927281, 0.28410542, -23382.43, -23382.43, 0.0, 9.996103, 10.001693 
1.5451309e+3, 1.2472299e+2, -1216073.9, -1720262.4, -83063.055, -0.10290756, 0.18138543, -1202742.1, 514986.53, 0.019393193, 10.004574, 9.997761 
1.5451223e+3, 1.3471982e+2, -1189344.0, -1691140.3, 48042.117, 0.023357963, 0.11737491, -1184785.9, 434975.38, 0.011711275, 10.004189, 9.997474 
1.545111e+3, 1.4471824e+2, -1097910.6, -1533504.4, -19316.375, -0.06210126, 0.18619008, -1097055.6, 424721.94, 0.0052203797, 10.003848, 9.998043 
1.5450999e+3, 1.5471616e+2, -1037996.9, -1448526.4, -38513.31, 0.003086006, 0.16881463, -1034415.06, 389382.9, 0.0014059248, 10.003549, 9.998098 
1.5450883e+3, 1.6471446e+2, -997820.44, -1357875.8, -33726.438, -0.0005388357, 0.1816675, -994688.56, 331126.38, 0.00014487762, 10.003057, 9.998284 
1.5450764e+3, 1.7471313e+2, -998538.25, -1301261.6, -35974.258, -0.052298106, 0.21291812, -994321.94, 233506.27, 0.000001197513, 10.002353, 9.99834 
1.5450646e+3, 1.8471153e+2, -961330.8, -1217907.0, -59283.9, -0.057391796, 0.21441779, -948295.06, 181548.81, 0.0, 10.001872, 9.99847 
1.545053e+3, 1.947097e+2, -891945.6, -1128609.0, -46565.746, -0.020429408, 0.17849833, -883113.0, 148748.34, 0.0, 10.001654, 9.998516 
1.545041e+3, 2.0470817e+2, -811837.25, -987103.1, -46492.555, -0.010926083, 0.15462299, -800267.94, 133607.23, 0.0, 10.001307, 9.998981 
1.5450287e+3, 2.1470705e+2, -780553.94, -914819.94, -54331.72, -0.030218273, 0.13535853, -761322.75, 74561.67, 0.0, 10.00082, 9.99904 
1.5450169e+3, 2.2470614e+2, -738382.8, -806570.44, -56088.22, -0.018181104, 0.12827489, -706839.2, 31053.121, 0.0, 10.000278, 9.999372 
1.5450054e+3, 2.3470557e+2, -724437.9, -743273.75, -60655.438, 0.028312722, 0.1261184, -672473.56, -32575.361, 0.0, 9.999676, 9.999423 
1.5449932e+3, 2.4470517e+2, -684111.8, -644503.3, -64231.73, 0.022779016, 0.13342208, -597092.06, -55189.38, 0.0, 9.999158, 9.999677 
1.5449804e+3, 2.5470504e+2, -644671.6, -569437.4, -61911.727, -0.042341348, 0.14476952, -534610.7, -90705.805, 0.0, 9.998733, 9.999724 
1.5449685e+3, 2.64705e+2, -583358.75, -443151.75, -41443.746, -0.05889387, 0.15398802, -431817.63, -85912.055, 0.0, 9.998283, 10.000135 
1.5449572e+3, 2.7470517e+2, -549738.25, -369186.5, -38313.56, -0.019739475, 0.1474552, -361392.7, -113488.24, 0.0, 9.99781, 10.000197 
1.5449455e+3, 2.8470546e+2, -507505.8, -291972.44, -26528.37, -0.010511022, 0.15906662, -288755.28, -138852.75, 0.0, 9.997401, 10.000252 
1.5449338e+3, 2.947061e+2, -463356.5, -222593.69, -33653.816, -0.03613935, 0.1909338, -217978.05, -166079.56, 0.0, 9.997043, 10.000228 
1.5449229e+3, 3.047058e+2, -486728.75, -173098.55, 1781.9016, -0.028511107, 0.13060544, -173088.42, -173088.42, 0.0, 9.996395, 10.0005455 
1.544913e+3, 3.1470814e+2, -522247.16, -28361.158, 15646.051, 0.058181196, 0.2933655, -27865.996, -27865.996, 0.0, 9.995453, 10.001993 
1.5551357e+3, 1.2473319e+2, -1198087.0, -1679810.1, -109501.37, -0.08843014, 0.13663094, -1174364.3, 543263.94, 0.020564571, 10.004568, 9.998044 
1.5551262e+3, 1.3473035e+2, -1170076.3, -1650282.1, 34022.098, 0.0026670047, 0.0775152, -1167677.8, 451978.22, 0.012450788, 10.00419, 9.997753 
1.5551147e+3, 1.447288e+2, -1114956.6, -1570868.3, -31393.693, -0.07722449, 0.14606468, -1112805.0, 408866.8, 0.0055744625, 10.003855, 9.997785 
1.555103e+3, 1.5472658e+2, -1055772.4, -1487585.4, -49330.11, -0.036761425, 0.14074136, -1050208.6, 373485.88, 0.001515748, 10.003555, 9.997828 
1.555091e+3, 1.647246e+2, -1006250.1, -1376301.4, -60484.594, -0.018303627, 0.14817162, -996614.8, 329099.8, 0.00016035176, 10.00306, 9.9981575 
1.5550794e+3, 1.7472287e+2, -1007291.94, -1319671.6, -62135.94, 0.010051138, 0.15126899, -995386.1, 232345.97, 0.0000013687348, 10.002353, 9.998214 
1.5550672e+3, 1.8472143e+2, -938737.8, -1171477.8, -68364.016, 0.0062432927, 0.15838109, -920142.56, 209603.66, 0.0, 10.001872, 9.99879 
1.5550545e+3, 1.9472036e+2, -867890.5, -1079893.8, -54219.625, -0.044967704, 0.16495554, -854828.6, 176927.0, 0.0, 10.001657, 9.99885 
1.5550418e+3, 2.0471907e+2, -825607.6, -1016047.56, -64965.508, -0.053733714, 0.15771598, -805556.75, 128210.55, 0.0, 10.001307, 9.998784 
1.5550297e+3, 2.1471761e+2, -796105.06, -946386.3, -72336.086, -0.010919863, 0.12697165, -766945.06, 68835.83, 0.0, 10.000816, 9.998826 
1.5550172e+3, 2.2471656e+2, -746193.5, -821986.44, -79082.3, -0.0019305769, 0.12052495, -696396.44, 41394.527, 0.0, 10.000273, 9.999269 
1.5550044e+3, 2.3471603e+2, -731670.8, -758653.75, -82299.53, -0.030871045, 0.13318804, -661764.25, -21967.621, 0.0, 9.999676, 9.999319 
1.5549918e+3, 2.4471572e+2, -676785.6, -629228.56, -79839.72, -0.044364367, 0.15058051, -569701.6, -27901.518, 0.0, 9.999157, 9.9997835 
1.5549792e+3, 2.547157e+2, -636704.94, -552966.25, -76483.01, -0.04070369, 0.1638649, -507642.2, -63841.51, 0.0, 9.998732, 9.999839 
1.554967e+3, 2.6471558e+2, -572850.75, -421038.56, -58353.902, -0.02613658, 0.14786686, -401200.66, -55398.867, 0.0, 9.998281, 10.000289 
1.5549551e+3, 2.7471536e+2, -539621.94, -348589.3, -53770.113, -0.0007484714, 0.08998189, -334494.53, -86691.47, 0.0, 9.99781, 10.0003395 
1.5549432e+3, 2.8471595e+2, -512689.28, -303291.03, -38599.117, 0.004028046, 0.12472923, -296402.53, -146603.7, 0.0, 9.997402, 10.0001745 
1.5549311e+3, 2.9471755e+2, -469048.7, -234930.92, -45035.1, -0.012636858, 0.26224065, -226566.75, -174779.66, 0.0, 9.997043, 10.000144 
1.5549193e+3, 3.0471736e+2, -480410.88, -159258.55, -32057.557, -0.023491021, 0.21292046, -156089.81, -156089.81, 0.0, 9.99639, 10.000644 
1.554908e+3, 3.1471804e+2, -487452.1, 44199.17, -11166.345, 0.010410515, 0.20060016, 44433.594, 44433.594, 0.0, 9.99545, 10.002494 
1.5651402e+3, 1.2474439e+2, -1190744.8, -1676126.9, -62383.58, -0.09726718, 0.10465555, -1182855.1, 534662.44, 0.021812832, 10.004626, 9.998042 
1.5651304e+3, 1.347419e+2, -1133353.4, -1635534.0, 67373.35, -0.016857026, 0.08208845, -1124471.6, 495070.44, 0.013242005, 10.004462, 9.9977255 
1.5651187e+3, 1.447403e+2, -1082246.0, -1565001.8, -7898.367, -0.064010315, 0.15274525, -1082116.9, 439441.47, 0.0059551965, 10.004127, 9.997694 
1.5651067e+3, 1.5473782e+2, -1054689.1, -1496577.4, -14508.116, -0.024127407, 0.12909645, -1054213.3, 369370.4, 0.0016345053, 10.003607, 9.997741 
1.5650943e+3, 1.6473569e+2, -993826.56, -1363528.8, -17684.543, -0.010765599, 0.12293462, -992982.56, 332622.5, 0.00017771397, 10.003119, 9.998215 
1.5650818e+3, 1.7473395e+2, -957670.94, -1289017.1, -6997.875, 0.008971393, 0.11973769, -957523.2, 270098.78, 0.0000016137079, 10.002666, 9.998272 
1.5650691e+3, 1.847325e+2, -899555.6, -1159217.3, -11513.765, -0.00023285998, 0.12738931, -899046.06, 230589.84, 0.0, 10.002171, 9.99873 
1.5650558e+3, 1.9473144e+2, -875027.1, -1090446.9, -28148.877, -0.05475275, 0.14282921, -871409.6, 160235.89, 0.0, 10.00164, 9.998784 
1.565043e+3, 2.0473024e+2, -848537.6, -1028779.25, -50244.133, -0.059105657, 0.14600055, -835477.8, 98179.234, 0.0, 10.001157, 9.998768 
1.5650307e+3, 2.1472886e+2, -810358.1, -955290.8, -43424.336, -0.0032645103, 0.1271552, -798343.5, 37326.723, 0.0, 10.000728, 9.998807 
1.5650176e+3, 2.2472781e+2, -748302.75, -825899.56, -42128.68, 0.0026922359, 0.122775175, -729828.6, 7851.93, 0.0, 10.000273, 9.999241 
1.5650038e+3, 2.3472717e+2, -716948.5, -754873.06, -42410.617, -0.04857311, 0.12694639, -689454.06, -49766.87, 0.0, 9.999793, 9.999287 
1.5649909e+3, 2.4472682e+2, -654752.5, -612310.0, -36495.73, -0.060283553, 0.14034717, -591314.2, -49623.273, 0.0, 9.999281, 9.99984 
1.5649782e+3, 2.547269e+2, -631766.5, -544082.56, -38017.734, -0.027061658, 0.15439998, -529894.7, -86203.766, 0.0, 9.998739, 9.999896 
1.5649654e+3, 2.6472685e+2, -589697.56, -433348.38, -30331.396, -0.0064752074, 0.14688069, -427670.34, -81979.09, 0.0, 9.998185, 10.00025 
1.5649527e+3, 2.7472675e+2, -573299.0, -369727.7, -42207.992, -0.0011468364, 0.10473424, -361323.34, -113631.586, 0.0, 9.997602, 10.000295 
1.5649404e+3, 2.8472728e+2, -552949.3, -316800.44, -23575.672, 0.002220674, 0.13365223, -314469.78, -164781.66, 0.0, 9.997102, 10.000227 
1.5649283e+3, 2.9472867e+2, -516681.63, -251331.98, -20696.086, 0.0040050186, 0.24565907, -249727.48, -198049.38, 0.0, 9.996689, 10.000201 
1.5649156e+3, 3.047288e+2, -509735.16, -177798.69, -18880.873, -0.01692827, 0.2283456, -176728.19, -176728.19, 0.0, 9.996209, 10.000604 
1.5649033e+3, 3.1472918e+2, -446553.53, 81703.99, -7551.2764, -0.03349711, 0.1892162, 81811.914, 81811.914, 0.0, 9.995653, 10.002654 
1.5751445e+3, 1.24756634e+2, -1209570.1, -1716720.1, -79509.93, -0.12859277, 0.08778251, -1197396.9, 519999.53, 0.023151772, 10.004636, 9.997755 
1.5751345e+3, 1.3475446e+2, -1155371.1, -1683457.3, 60849.375, -0.038917482, 0.12914646, -1148450.4, 470968.94, 0.014094051, 10.00447, 9.997394 
1.5751232e+3, 1.4475276e+2, -1078254.4, -1556569.4, -28685.225, -0.026926013, 0.20448008, -1076540.3, 444896.78, 0.006367802, 10.004127, 9.997752 
1.5751109e+3, 1.5474989e+2, -1049705.9, -1485903.0, -33900.574, 0.036817655, 0.1328559, -1047086.9, 376378.6, 0.00176415, 10.003605, 9.997815 
1.5750976e+3, 1.6474771e+2, -976738.7, -1328922.6, -35633.043, 0.016574796, 0.10698307, -973169.6, 352316.47, 0.00019721544, 10.003121, 9.998452 
1.5750839e+3, 1.7474635e+2, -940397.6, -1254735.6, -24141.816, -0.055358537, 0.117645666, -938554.3, 288943.63, 0.0000019795527, 10.002672, 9.998506 
1.5750706e+3, 1.8474475e+2, -930689.9, -1224749.6, -32331.322, -0.07590383, 0.120643064, -927177.06, 202336.19, 0.0, 10.002173, 9.998279 
1.5750577e+3, 1.9474298e+2, -908130.94, -1159195.4, -48169.703, -0.05324083, 0.11112982, -899206.25, 132324.97, 0.0, 10.001638, 9.998314 
1.5750444e+3, 2.0474166e+2, -836909.1, -1004327.94, -66842.31, -0.032427236, 0.11909053, -813496.4, 120048.17, 0.0, 10.001154, 9.998939 
1.5750313e+3, 2.1474084e+2, -797382.25, -928646.7, -58774.785, -0.008586636, 0.13607636, -774911.94, 60640.348, 0.0, 10.000728, 9.998991 
1.5750179e+3, 2.2473992e+2, -746776.7, -822797.3, -60104.707, -0.0054711397, 0.13537985, -713671.9, 23889.084, 0.0, 10.000272, 9.999264 
1.5750039e+3, 2.3473896e+2, -715556.0, -752050.4, -59708.586, -0.026824998, 0.106749766, -671368.6, -31798.521, 0.0, 9.999791, 9.999309 
1.5749903e+3, 2.4473846e+2, -654074.2, -610826.44, -56496.34, -0.02690189, 0.10190614, -571957.1, -30381.734, 0.0, 9.999279, 9.999851 
1.574977e+3, 2.5473857e+2, -631374.1, -543286.1, -56768.633, -0.0040963227, 0.117344, -515479.22, -71903.695, 0.0, 9.998737, 9.999903 
1.5749636e+3, 2.647388e+2, -607183.06, -469601.4, -50772.145, -0.0035236166, 0.15107156, -452893.78, -107319.68, 0.0, 9.998183, 10.000003 
1.5749502e+3, 2.7473927e+2, -590565.75, -406335.38, -62044.88, -0.02636562, 0.18869871, -387388.53, -139817.47, 0.0, 9.997604, 10.000043 
1.5749373e+3, 2.8473938e+2, -540075.7, -290393.1, -38118.586, -0.020744747, 0.18316315, -284703.25, -135132.25, 0.0, 9.997101, 10.000409 
1.5749249e+3, 2.9473948e+2, -502359.9, -222730.88, -34009.195, 0.012090203, 0.1425019, -218654.03, -167082.38, 0.0, 9.996692, 10.000398 
1.5749119e+3, 3.0474016e+2, -522384.9, -204298.53, -38230.188, -0.010884987, 0.17813808, -199768.25, -199768.25, 0.0, 9.996209, 10.0004225 
1.5748984e+3, 3.1474143e+2, -460166.75, 52727.26, -21292.97, -0.088519104, 0.25043276, 53609.73, 53609.73, 0.0, 9.995655, 10.002455 
1.5851498e+3, 1.24769434e+2, -1129512.4, -1692493.0, -98718.62, -0.10228066, 0.12709978, -1112703.9, 604568.44, 0.024592418, 10.005275, 9.997614 
1.585139e+3, 1.3476683e+2, -1146181.8, -1702375.6, 54750.85, -0.048448656, 0.1464546, -1140843.4, 478456.06, 0.015014466, 10.0046425, 9.997178 
1.5851274e+3, 1.4476489e+2, -1082659.5, -1540811.4, -31722.994, -0.0069747586, 0.20212935, -1080473.4, 440845.66, 0.006816237, 10.0040245, 9.997908 
1.5851144e+3, 1.547623e+2, -1063712.8, -1473881.6, -32214.008, 0.04139544, 0.14244899, -1061198.1, 362145.75, 0.001905862, 10.00343, 9.99798 
1.5851006e+3, 1.6476025e+2, -998084.3, -1351658.4, -33476.824, 0.0068490496, 0.12604861, -994942.6, 330420.53, 0.0002187055, 10.003031, 9.998339 
1.5850864e+3, 1.7475882e+2, -921788.7, -1259223.6, -49764.98, -0.07585517, 0.14249116, -914602.4, 312773.9, 0.000002466339, 10.00286, 9.998383 
1.5850727e+3, 1.847571e+2, -891135.25, -1206455.3, -66185.55, -0.086586006, 0.13953833, -877806.3, 251586.52, 0.0, 10.002451, 9.998269 
1.5850595e+3, 1.9475514e+2, -888537.44, -1150627.4, -48804.902, -0.03349893, 0.112103835, -879744.25, 151667.86, 0.0, 10.00178, 9.998304 
1.5850459e+3, 2.0475376e+2, -824216.75, -991585.56, -47411.566, -0.01338201, 0.111921206, -811719.4, 121706.4, 0.0, 10.001215, 9.998995 
1.5850319e+3, 2.1475302e+2, -786523.5, -916996.5, -50880.918, -0.024875415, 0.13196054, -769027.5, 66405.22, 0.0, 10.000776, 9.999045 
1.5850179e+3, 2.2475222e+2, -736721.0, -802460.2, -55804.785, -0.024671488, 0.13218607, -704825.0, 32615.219, 0.0, 10.000275, 9.999402 
1.5850037e+3, 2.3475137e+2, -717921.25, -737444.8, -46681.867, -0.012800889, 0.10168068, -679991.44, -40543.7, 0.0, 9.999709, 9.999448 
1.5849897e+3, 2.4475092e+2, -678828.56, -631455.0, -42867.063, -0.00973662, 0.09841145, -606165.8, -64713.09, 0.0, 9.999149, 9.999771 
1.5849756e+3, 2.5475097e+2, -658521.56, -566432.6, -52579.18, -0.017917221, 0.120380506, -542586.75, -99132.81, 0.0, 9.998595, 9.999811 
1.5849617e+3, 2.6475126e+2, -617124.25, -479581.75, -39487.64, -0.020777259, 0.16272153, -469051.3, -123598.48, 0.0, 9.998138, 9.999955 
1.584948e+3, 2.7475175e+2, -567302.5, -399984.56, -36210.76, -0.015612116, 0.21064498, -392484.1, -145034.66, 0.0, 9.997787, 9.999997 
1.5849346e+3, 2.847518e+2, -512803.78, -269489.78, -11861.225, -0.005919828, 0.1948022, -268912.94, -119462.87, 0.0, 9.997258, 10.000476 
1.5849215e+3, 2.947516e+2, -522768.84, -224117.28, -19643.729, 0.0046676584, 0.12385986, -222830.77, -171378.4, 0.0, 9.996519, 10.00047 
1.5849079e+3, 3.0475265e+2, -552608.0, -215644.8, -14636.676, -0.0119248675, 0.18682733, -215010.22, -215010.22, 0.0, 9.99599, 10.000449 
1.584894e+3, 3.1475356e+2, -464778.34, 35370.44, 19107.541, -0.08232228, 0.223747, 36099.355, 36099.355, 0.0, 9.995691, 10.002316 
1.5951557e+3, 1.2478287e+2, -1133290.5, -1696105.4, -129021.914, -0.024396291, 0.22646235, -1105122.8, 612021.25, 0.02614355, 10.005262, 9.997597 
1.5951437e+3, 1.3477905e+2, -1153774.6, -1718910.3, 31934.385, -0.048175115, 0.13437223, -1151975.8, 467206.06, 0.016008532, 10.004646, 9.997064 
1.5951315e+3, 1.4477676e+2, -1064805.6, -1505437.1, -55143.414, -0.0070192507, 0.14897332, -1058009.5, 463194.3, 0.007302893, 10.004033, 9.998148 
1.5951173e+3, 1.5477508e+2, -1045641.94, -1438603.1, -54575.563, -0.01034653, 0.15765324, -1038203.1, 385015.6, 0.0020602308, 10.00344, 9.998219 
1.5951031e+3, 1.647733e+2, -1029781.44, -1419269.0, -41250.715, -0.04069643, 0.17844401, -1025460.5, 299775.66, 0.00024185247, 10.003037, 9.997872 
1.5950894e+3, 1.7477138e+2, -955857.0, -1329744.5, -55671.246, -0.057255834, 0.19305742, -947743.75, 279513.06, 0.0000030340082, 10.002858, 9.9979 
1.5950756e+3, 1.8476954e+2, -861992.0, -1145211.9, -91257.72, -0.039461523, 0.18428642, -835134.3, 294140.2, 0.0, 10.002446, 9.9986925 
1.5950617e+3, 1.9476792e+2, -857319.4, -1086469.4, -73366.43, 0.0029446196, 0.14549193, -835842.7, 195445.34, 0.0, 10.0017805, 9.998744 
1.5950471e+3, 2.0476653e+2, -829400.56, -1003296.25, -64324.625, -0.0025371811, 0.12452146, -808193.06, 125107.64, 0.0, 10.001217, 9.998915 
1.5950324e+3, 2.147654e+2, -793364.56, -930760.2, -66893.086, -0.055409603, 0.114571705, -766176.6, 69135.1, 0.0, 10.000772, 9.998954 
1.5950178e+3, 2.2476465e+2, -718954.1, -765036.3, -77283.695, -0.058498304, 0.11316184, -661349.94, 75968.625, 0.0, 10.00027, 9.999661 
1.5950036e+3, 2.3476437e+2, -699277.3, -698475.7, -66714.87, -0.008840025, 0.11213818, -632160.44, 7159.7236, 0.0, 9.999706, 9.999717 
1.5949889e+3, 2.4476418e+2, -692881.9, -660662.4, -63070.453, -0.0116418665, 0.13038781, -611676.75, -70353.79, 0.0, 9.999147, 9.999573 
1.5949737e+3, 2.5476414e+2, -672787.3, -596701.5, -71828.58, -0.071607016, 0.16251364, -553463.4, -110136.92, 0.0, 9.998596, 9.999604 
1.5949593e+3, 2.6476413e+2, -606050.6, -457477.63, -51911.375, -0.060066447, 0.18134364, -441137.0, -95809.12, 0.0, 9.99814, 10.000107 
1.5949462e+3, 2.747642e+2, -555895.3, -376950.22, -47279.91, 0.028681243, 0.17179714, -365226.28, -117899.266, 0.0, 9.997787, 10.000155 
1.5949322e+3, 2.8476444e+2, -517097.6, -279041.06, -37957.92, 0.042972784, 0.16898623, -273135.22, -123809.586, 0.0, 9.997259, 10.00041 
1.5949178e+3, 2.9476508e+2, -526818.9, -233753.08, -45467.473, -0.02600066, 0.1866953, -226861.14, -175540.08, 0.0, 9.996522, 10.000403 
1.5949038e+3, 3.0476624e+2, -537116.75, -183160.55, -25202.297, -0.026595315, 0.2522685, -181375.11, -181375.11, 0.0, 9.995987, 10.000674 
1.5948904e+3, 3.147657e+2, -472026.0, 19134.516, 10971.383, -0.016925788, 0.120156854, 19379.469, 19379.469, 0.0, 9.995695, 10.002204 
1.605161e+3, 1.2479601e+2, -1200787.6, -1699146.8, -104996.66, 0.007614991, 0.24679989, -1179569.8, 537447.44, 0.02781683, 10.004665, 9.997861 
1.6051482e+3, 1.347921e+2, -1156518.0, -1698191.6, 76689.52, -0.05994131, 0.12738281, -1145869.8, 473184.28, 0.017083187, 10.004538, 9.997258 
1.6051358e+3, 1.4478959e+2, -1029997.7, -1506998.9, -13098.946, 0.01123849, 0.11923729, -1029638.25, 491439.3, 0.0078314515, 10.004359, 9.997978 
1.6051209e+3, 1.5478817e+2, -951841.44, -1412507.5, -44014.55, -0.026209084, 0.16949576, -947673.75, 475417.38, 0.0022286964, 10.004172, 9.998043 
1.6051063e+3, 1.6478638e+2, -955674.56, -1386146.6, -38390.773, -0.05597757, 0.19914044, -952277.56, 372831.7, 0.00026665046, 10.003561, 9.997845 
1.6050924e+3, 1.7478418e+2, -1010643.4, -1358675.6, -20728.105, -0.030995416, 0.18933603, -1009413.2, 217719.33, 0.0000036433328, 10.002496, 9.997874 
1.605078e+3, 1.8478239e+2, -933045.4, -1159748.4, -39452.36, -0.010159977, 0.17625567, -926375.8, 202773.84, 0.0, 10.001876, 9.998866 
1.6050632e+3, 1.947811e+2, -850328.1, -1063549.9, -42712.344, -0.009525658, 0.15444727, -842090.3, 189069.05, 0.0, 10.001747, 9.998917 
1.6050482e+3, 2.0477979e+2, -808868.2, -989130.9, -45832.89, -0.019373331, 0.13286233, -797884.2, 135286.5, 0.0, 10.001342, 9.998951 
1.6050331e+3, 2.147785e+2, -810689.75, -935547.3, -39595.445, -0.035813857, 0.103794314, -799191.9, 35991.215, 0.0, 10.00064, 9.998984 
1.6050182e+3, 2.2477777e+2, -749319.5, -777201.06, -51276.063, -0.034616873, 0.10135704, -710122.94, 27067.016, 0.0, 10.000053, 9.9996805 
1.6050032e+3, 2.347777e+2, -714824.9, -704422.6, -62295.336, -0.017118232, 0.11957631, -647111.7, -7921.6187, 0.0, 9.999594, 9.999729 
1.604988e+3, 2.4477756e+2, -681857.06, -658423.94, -57818.688, -0.030033669, 0.14518543, -611146.6, -69954.07, 0.0, 9.999238, 9.999543 
1.6049725e+3, 2.5477743e+2, -617094.44, -572804.8, -53925.89, -0.0754115, 0.17160577, -536653.9, -93456.9, 0.0, 9.998994, 9.999576 
1.6049576e+3, 2.647774e+2, -571763.6, -426057.22, -40673.44, -0.05482722, 0.18314141, -415472.3, -70273.98, 0.0, 9.998316, 10.000236 
1.6049437e+3, 2.7477753e+2, -637917.8, -402187.56, -40276.125, 0.03612877, 0.1652057, -395496.06, -148299.66, 0.0, 9.997166, 10.00028 
1.6049293e+3, 2.847778e+2, -622908.25, -337611.0, -17962.81, 0.045812238, 0.16349123, -336484.5, -187289.88, 0.0, 9.996567, 10.00034 
1.604914e+3, 2.9477847e+2, -527235.9, -240943.25, -27434.066, -0.033485685, 0.19259277, -238338.08, -187147.73, 0.0, 9.9965515, 10.000339 
1.6048999e+3, 3.0477977e+2, -490552.03, -127341.91, -8679.1875, -0.020301523, 0.26047972, -127134.63, -127134.63, 0.0, 9.996164, 10.000971 
1.604886e+3, 3.1477946e+2, -521522.06, -7118.4253, 26745.994, -0.006238655, 0.12161593, -5731.5283, -5731.5283, 0.0, 9.995369, 10.002179 
1.6151655e+3, 1.24809e+2, -1163215.9, -1624086.6, -108667.81, -0.007108667, 0.19891448, -1138878.5, 578011.94, 0.029630402, 10.004687, 9.998382 
1.6151525e+3, 1.3480604e+2, -1122885.8, -1629160.0, 71120.56, -0.08493058, 0.12670255, -1113084.5, 505831.3, 0.018251661, 10.004549, 9.997728 
1.6151404e+3, 1.4480343e+2, -1069781.6, -1589304.0, -21844.73, 0.04382131, 0.11283763, -1068864.8, 452075.72, 0.008410173, 10.004356, 9.997415 
1.6151254e+3, 1.5480156e+2, -994153.9, -1498791.8, -49976.117, -0.011199226, 0.17767535, -989252.1, 433708.84, 0.002415026, 10.004164, 9.997456 
1.61511e+3, 1.647995e+2, -928520.5, -1329018.1, -78062.68, -0.044923965, 0.19013432, -913842.9, 411139.13, 0.0002938315, 10.003556, 9.99824 
1.6150953e+3, 1.7479722e+2, -980861.4, -1298882.3, -60169.125, 0.0015771381, 0.13326, -969858.2, 257145.22, 0.000004294035, 10.002502, 9.998282 
1.6150801e+3, 1.8479556e+2, -938355.3, -1172539.9, -45487.2, -0.00012910915, 0.11705729, -929830.4, 199188.25, 0.0, 10.001883, 9.998776 
1.6150643e+3, 1.9479463e+2, -857530.9, -1078806.5, -47067.19, -0.07296987, 0.13946547, -847935.4, 183090.9, 0.0, 10.001747, 9.998812 
1.6150491e+3, 2.0479353e+2, -798332.94, -967005.3, -72158.09, -0.06711311, 0.13750832, -771676.44, 161359.4, 0.0, 10.001339, 9.999105 
1.6150345e+3, 2.1479233e+2, -799406.2, -912244.6, -64958.094, 0.031830747, 0.09981646, -769786.56, 65260.266, 0.0, 10.000639, 9.9991455 
1.615019e+3, 2.2479156e+2, -766898.06, -814144.75, -68869.1, 0.043954987, 0.09757401, -717713.3, 19341.064, 0.0, 10.000053, 9.999429 
1.6150025e+3, 2.3479131e+2, -732950.9, -742562.75, -78657.57, -0.039732583, 0.12425332, -658952.56, -19894.826, 0.0, 9.999595, 9.999469 
1.6149867e+3, 2.4479103e+2, -672179.5, -638360.44, -66718.62, -0.06664674, 0.1428424, -586441.9, -45380.055, 0.0, 9.999236, 9.999683 
1.6149718e+3, 2.5479084e+2, -606758.3, -551117.2, -61237.684, -0.03232572, 0.14787285, -511676.78, -68611.07, 0.0, 9.998992, 9.999726 
1.6149564e+3, 2.64791e+2, -565795.25, -414064.8, -82278.86, -0.009109414, 0.16852203, -378013.38, -32948.816, 0.0, 9.998315, 10.0003195 
1.6149406e+3, 2.7479163e+2, -631871.44, -390628.5, -81663.984, 0.0022548286, 0.19044405, -365584.1, -118525.98, 0.0, 9.997168, 10.0003605 
1.6149253e+3, 2.8479177e+2, -629033.44, -350584.44, -18295.084, -0.0009558762, 0.17794673, -349387.53, -200329.86, 0.0, 9.996567, 10.000253 
1.6149108e+3, 2.9479173e+2, -532337.0, -252543.61, -25959.951, -0.021129629, 0.14052263, -250155.38, -199094.38, 0.0, 9.996554, 10.000258 
1.6148964e+3, 3.0479315e+2, -464512.88, -74225.69, -37263.35, 0.002225004, 0.21172823, -70699.76, -70699.76, 0.0, 9.996167, 10.001334 
1.6148809e+3, 3.1479496e+2, -517522.16, 1745.7682, -6641.23, -0.060526393, 0.2467491, 1830.693, 1830.693, 0.0, 9.995365, 10.002242 
1.6251707e+3, 1.2482295e+2, -1033245.1, -1589180.6, -37583.824, -0.0064422823, 0.14157435, -1030715.8, 686036.56, 0.031607527, 10.005745, 9.998118 
1.6251568e+3, 1.3482074e+2, -1072231.5, -1630470.8, 81449.11, -0.11463269, 0.16809864, -1060590.5, 558181.5, 0.01953172, 10.005023, 9.997491 
1.6251451e+3, 1.4481793e+2, -1087711.1, -1589972.8, -16571.555, 0.07247837, 0.1427157, -1087164.9, 433634.13, 0.009049789, 10.004202, 9.997482 
1.6251293e+3, 1.5481569e+2, -1102467.1, -1542501.8, 2095.664, 0.008760845, 0.16387567, -1102457.1, 320365.4, 0.0026242759, 10.003385, 9.997529 
1.6251133e+3, 1.6481358e+2, -1004694.9, -1357926.3, -11552.267, -0.03726155, 0.16448282, -1004317.44, 320526.16, 0.00032476612, 10.003002, 9.998307 
1.6250978e+3, 1.748116e+2, -892295.44, -1248757.9, -20051.52, -0.0039224443, 0.1294054, -891171.06, 335690.94, 0.000005034694, 10.003081, 9.998346 
1.6250823e+3, 1.8480998e+2, -830983.4, -1133787.4, -20557.36, -0.0058341534, 0.12090338, -829594.1, 299282.8, 0.0, 10.002678, 9.998658 
1.6250661e+3, 1.9480886e+2, -864864.8, -1095786.6, -24780.863, -0.06725224, 0.1364934, -862235.44, 168651.89, 0.0, 10.001757, 9.99869 
1.6250505e+3, 2.0480777e+2, -831878.9, -971686.94, -53793.344, -0.061683588, 0.13800263, -813576.9, 119320.055, 0.0, 10.0010605, 9.999206 
1.6250351e+3, 2.1480681e+2, -797823.6, -899734.25, -52654.313, 0.023864962, 0.11444124, -775506.06, 59399.08, 0.0, 10.000601, 9.9992485 
1.625019e+3, 2.2480603e+2, -764565.3, -831990.4, -50326.387, 0.035515413, 0.114697404, -737703.25, -790.4457, 0.0, 10.000153, 9.999258 
1.6250022e+3, 2.3480551e+2, -727299.9, -759536.8, -54389.074, -0.035704706, 0.13164774, -686691.1, -47771.625, 0.0, 9.99972, 9.99929 
1.624986e+3, 2.4480514e+2, -687600.5, -627879.75, -43154.2, -0.052856695, 0.14250167, -605262.25, -64337.92, 0.0, 9.999056, 9.99984 
1.6249706e+3, 2.5480506e+2, -718972.3, -587103.25, -38998.957, -0.0127092805, 0.14277828, -576433.1, -133506.95, 0.0, 9.998145, 9.999886 
1.6249546e+3, 2.6480532e+2, -659129.5, -470327.84, -64564.773, 0.00094181986, 0.16814238, -450360.28, -105436.02, 0.0, 9.997723, 10.000217 
1.6249378e+3, 2.7480596e+2, -545904.9, -360534.34, -79156.17, -0.012949641, 0.20435977, -331333.38, -84414.84, 0.0, 9.997808, 10.000257 
1.624922e+3, 2.848062e+2, -523610.22, -280399.9, -17573.072, -0.017385848, 0.1944908, -279136.72, -130219.19, 0.0, 9.997209, 10.0004225 
1.6249071e+3, 2.9480618e+2, -618834.6, -273907.75, -7543.6367, -0.013732677, 0.14701079, -273742.88, -222823.77, 0.0, 9.995875, 10.000437 
1.6248922e+3, 3.048074e+2, -580554.06, -114015.59, -1819.7394, 0.014851927, 0.17900777, -114008.5, -114008.5, 0.0, 9.995301, 10.001479 
1.6248763e+3, 3.1480983e+2, -491817.75, 18686.35, 3305.5823, -0.07063166, 0.2629723, 18707.754, 18707.754, 0.0, 9.995519, 10.002286 
1.6351767e+3, 1.24837995e+2, -1101255.3, -1729153.0, -52039.156, 0.0010005784, 0.08597216, -1096971.5, 619630.44, 0.033768788, 10.00575, 9.9971285 
1.6351615e+3, 1.348362e+2, -1135129.3, -1763129.1, 54699.9, -0.15282352, 0.24719074, -1130400.4, 488221.94, 0.020937787, 10.005026, 9.996578 
1.6351496e+3, 1.448331e+2, -1041783.2, -1493801.0, -49102.57, 0.09178508, 0.2052772, -1036510.7, 484142.53, 0.009758056, 10.004202, 9.998146 
1.6351329e+3, 1.5483057e+2, -1053417.3, -1442569.5, -28361.791, 0.03163449, 0.12976621, -1051361.0, 371314.8, 0.0028600274, 10.003392, 9.998213 
1.6351163e+3, 1.6482863e+2, -1021760.25, -1394101.6, -10147.213, -0.03527467, 0.12383323, -1021483.9, 303210.4, 0.00036087315, 10.003004, 9.998058 
1.6351004e+3, 1.7482723e+2, -911988.44, -1289089.6, -16728.521, -0.048749138, 0.17589743, -911247.8, 315460.75, 0.000005927034, 10.0030775, 9.998072 
1.6350847e+3, 1.848256e+2, -842091.94, -1155850.3, -54869.785, -0.030421747, 0.18567619, -832773.1, 295951.78, 0.0, 10.002672, 9.99851 
1.6350687e+3, 1.9482376e+2, -875010.44, -1117322.9, -58618.06, 0.0044172346, 0.14527205, -861575.06, 169167.55, 0.0, 10.001757, 9.998543 
1.635052e+3, 2.0482251e+2, -829235.75, -966579.25, -71512.19, -0.0072415816, 0.1348921, -798762.1, 133991.94, 0.0, 10.0010605, 9.999242 
1.6350348e+3, 2.1482195e+2, -795446.4, -895131.9, -69163.14, -0.06140711, 0.14737816, -760037.5, 74720.72, 0.0, 10.0006, 9.999282 
1.6350181e+3, 2.2482118e+2, -770993.94, -845134.8, -66759.11, -0.061684567, 0.15263398, -731703.4, 5062.117, 0.0, 10.00015, 9.999169 
1.6350022e+3, 2.3482029e+2, -733849.9, -773126.7, -69401.17, -0.007207902, 0.14155966, -681362.06, -42586.535, 0.0, 9.999719, 9.999198 
1.6349857e+3, 2.4481988e+2, -677079.25, -606029.75, -76519.195, 0.0077195237, 0.14483538, -557191.06, -16410.717, 0.0, 9.999053, 9.999992 
1.6349687e+3, 2.5482008e+2, -707926.4, -564932.8, -71594.06, -0.019342966, 0.15672794, -535249.06, -92470.39, 0.0, 9.998145, 10.000039 
1.634952e+3, 2.6482025e+2, -679829.94, -513618.22, -60855.11, -0.026994465, 0.18197536, -493719.56, -148941.58, 0.0, 9.997723, 9.999922 
1.6349357e+3, 2.748205e+2, -566330.0, -404561.2, -73906.37, -0.013149111, 0.20670108, -375880.8, -129102.55, 0.0, 9.997814, 9.999952 
1.6349193e+3, 2.848209e+2, -492614.03, -218070.97, -66260.83, -0.00799324, 0.2134246, -202915.56, -54140.625, 0.0, 9.997215, 10.000849 
1.634903e+3, 2.9482183e+2, -588021.56, -210632.2, -55751.89, -0.016575305, 0.21425918, -202568.25, -151803.16, 0.0, 9.995875, 10.000873 
1.6348875e+3, 3.0482242e+2, -587368.75, -126742.06, 6348.511, 0.013707509, 0.16326381, -126654.58, -126654.58, 0.0, 9.995294, 10.001395 
1.6348721e+3, 3.1482393e+2, -488415.5, 25228.26, 6119.762, -0.037095804, 0.16652887, 25301.162, 25301.162, 0.0, 9.995521, 10.00233 
1.6451827e+3, 1.24853626e+2, -1065409.4, -1723518.5, -85795.93, 0.024886914, 0.12572463, -1054408.4, 662041.7, 0.03612305, 10.006072, 9.997013 
1.6451663e+3, 1.3485156e+2, -1136407.4, -1756487.6, 64094.055, -0.18245982, 0.25498322, -1129851.6, 488620.78, 0.02247529, 10.004993, 9.996639 
1.6451538e+3, 1.4484821e+2, -1040903.44, -1493442.8, -14542.81, 0.10043629, 0.18469658, -1040436.56, 480069.1, 0.010537863, 10.004212, 9.998143 
1.6451363e+3, 1.5484609e+2, -985574.3, -1410812.5, -43586.83, 0.022678843, 0.15045659, -981152.7, 441372.2, 0.0031234575, 10.003866, 9.998202 
1.6451193e+3, 1.6484427e+2, -973343.9, -1367240.3, -31801.938, -0.048455447, 0.15718113, -970792.8, 353749.2, 0.0004029895, 10.003323, 9.998089 
1.6451032e+3, 1.7484276e+2, -983510.5, -1319815.0, -17427.988, -0.04878715, 0.19335407, -982609.8, 243947.27, 0.0000070009137, 10.002572, 9.998102 
1.6450872e+3, 1.8484107e+2, -936047.2, -1200933.1, -48730.016, -0.020064862, 0.1967183, -927366.94, 201206.89, 0.0, 10.0020275, 9.998509 
1.6450705e+3, 1.9483927e+2, -884309.6, -1122079.5, -43304.94, 0.019266915, 0.1590849, -876668.1, 153923.48, 0.0, 10.001696, 9.998539 
1.6450532e+3, 2.0483798e+2, -802930.8, -960986.56, -48745.4, 0.000048556267, 0.14969164, -789106.56, 143496.95, 0.0, 10.001274, 9.999177 
1.6450353e+3, 2.1483734e+2, -777652.7, -894093.1, -55390.684, -0.07508958, 0.1619656, -755512.94, 79095.61, 0.0, 10.000757, 9.999212 
1.6450182e+3, 2.2483657e+2, -757604.75, -820768.3, -49252.242, -0.07672031, 0.16311048, -730678.5, 5937.096, 0.0, 10.000166, 9.999328 
1.6450018e+3, 2.3483577e+2, -754782.3, -765212.8, -34902.234, -0.0027274801, 0.14369394, -724707.9, -86083.836, 0.0, 9.999497, 9.999358 
1.6449848e+3, 2.4483535e+2, -696473.56, -632801.8, -46034.117, 0.014157118, 0.14462171, -608667.5, -68038.8, 0.0, 9.998996, 9.999836 
1.6449669e+3, 2.548354e+2, -644674.94, -552608.9, -66373.25, -0.029998615, 0.15985368, -517867.84, -75239.22, 0.0, 9.998659, 9.999875 
1.6449498e+3, 2.6483548e+2, -631328.9, -484994.4, -46803.72, -0.038120445, 0.1808041, -471305.25, -126676.15, 0.0, 9.998035, 9.999966 
1.6449332e+3, 2.7483565e+2, -665732.4, -447674.47, -34875.883, -0.0072394796, 0.19434509, -442232.3, -195602.16, 0.0, 9.997112, 9.999992 
1.6449162e+3, 2.848362e+2, -588074.8, -255292.8, -41110.99, 0.00046379908, 0.20953865, -250289.28, -101663.84, 0.0, 9.996523, 10.000925 
1.644899e+3, 2.948375e+2, -527697.4, -172054.23, -60165.887, -0.018986331, 0.23805402, -162151.42, -111539.38, 0.0, 9.99625, 10.000955 
1.6448829e+3, 3.0483782e+2, -555788.8, -129332.055, 2537.9155, 0.005649171, 0.16939142, -129316.95, -129316.95, 0.0, 9.995589, 10.001233 
1.6448674e+3, 3.148392e+2, -621139.6, -25789.482, -12603.651, -0.007905335, 0.17620777, -25522.781, -25522.781, 0.0, 9.994555, 10.002443 
1.6551891e+3, 1.24869846e+2, -1018854.56, -1622645.3, -99230.516, 0.052489918, 0.25399405, -1002964.6, 713331.56, 0.038664393, 10.00607, 9.99773 
1.655171e+3, 1.3486688e+2, -1070251.3, -1616061.8, 23336.908, -0.20545782, 0.19718187, -1069255.3, 549066.3, 0.02414125, 10.004999, 9.997602 
1.655158e+3, 1.448633e+2, -1086404.5, -1587100.3, -30354.363, 0.09605048, 0.08677325, -1084571.0, 435785.13, 0.011389212, 10.004209, 9.9975 
1.6551398e+3, 1.548622e+2, -1033105.1, -1509837.0, -55588.688, -0.020408593, 0.22262342, -1026709.06, 395660.53, 0.0034148311, 10.003866, 9.997523 
1.6551223e+3, 1.6486049e+2, -951867.06, -1323432.9, -59492.465, -0.08045894, 0.25985676, -942574.0, 381812.72, 0.00045137366, 10.0033245, 9.99839 
1.6551064e+3, 1.7485817e+2, -960545.0, -1273684.4, -44542.44, -0.0077216746, 0.18293178, -954332.3, 272074.94, 0.000008273259, 10.002576, 9.998419 
1.6550894e+3, 1.848564e+2, -926023.0, -1180882.5, -61499.453, 0.020262778, 0.15669459, -911958.9, 216464.69, 0.0, 10.002029, 9.998647 
1.6550718e+3, 1.9485532e+2, -874997.5, -1103430.9, -55132.965, -0.023193344, 0.17771114, -862387.2, 168047.3, 0.0, 10.001698, 9.998667 
1.6550541e+3, 2.0485416e+2, -814481.4, -985330.4, -68112.83, -0.040440902, 0.18156067, -790650.7, 141794.97, 0.0, 10.001273, 9.999011 
1.6550367e+3, 2.1485299e+2, -790027.7, -919759.56, -73778.2, -0.020551713, 0.15821992, -756655.06, 77801.29, 0.0, 10.000755, 9.999038 
1.655019e+3, 2.248522e+2, -730112.44, -763546.3, -74387.86, -0.014299672, 0.1465708, -670586.25, 65876.92, 0.0, 10.000163, 9.999723 
1.655001e+3, 2.348519e+2, -726268.3, -706673.4, -58820.84, -0.024795555, 0.1379965, -656839.6, -18374.37, 0.0, 9.999498, 9.999762 
1.6549833e+3, 2.4485147e+2, -729548.7, -701843.06, -58097.137, -0.035892557, 0.14144346, -655970.0, -115500.13, 0.0, 9.998995, 9.999363 
1.6549654e+3, 2.5485095e+2, -678283.5, -623391.44, -77211.5, -0.04761425, 0.15139303, -568893.0, -126416.59, 0.0, 9.998662, 9.999389 
1.6549477e+3, 2.648509e+2, -604329.25, -430191.53, -80314.76, -0.035382565, 0.16468231, -398805.97, -54327.938, 0.0, 9.998038, 10.000342 
1.6549304e+3, 2.7485138e+2, -638356.4, -391925.22, -67239.266, 0.0013062686, 0.16860114, -374772.72, -128298.27, 0.0, 9.997114, 10.000376 
1.6549128e+3, 2.84852e+2, -608883.7, -298778.34, -50404.227, 0.005130997, 0.18226223, -290791.4, -142321.8, 0.0, 9.996523, 10.000628 
1.6548951e+3, 2.94853e+2, -547368.8, -214804.28, -68882.85, -0.026171973, 0.21491855, -201101.44, -150640.42, 0.0, 9.996257, 10.000659 
1.6548781e+3, 3.048536e+2, -572113.0, -163597.03, -35846.84, -0.014535492, 0.1964906, -160475.36, -160475.36, 0.0, 9.99559, 10.000998 
1.6548622e+3, 3.1485564e+2, -609871.7, 192.3343, -55127.992, 0.012438078, 0.29283422, 5133.908, 5133.908, 0.0, 9.994544, 10.002627 
1.665195e+3, 1.24885894e+2, -1057468.1, -1647824.8, -19424.086, 0.043985426, 0.25111285, -1056829.8, 659309.75, 0.041378483, 10.005843, 9.997659 
1.665176e+3, 1.3488318e+2, -1055230.5, -1586416.3, 13507.106, -0.20267245, 0.19941767, -1054887.3, 563274.94, 0.025929948, 10.005018, 9.997799 
1.6651624e+3, 1.4487965e+2, -1079807.3, -1589242.3, -26328.555, 0.1301582, 0.08868975, -1078450.1, 441745.88, 0.012312162, 10.004281, 9.997451 
1.6651435e+3, 1.5487854e+2, -1047213.25, -1522687.8, -5529.747, -0.032053996, 0.2271426, -1047148.94, 375060.88, 0.0037350794, 10.003796, 9.997467 
1.6651255e+3, 1.6487674e+2, -945586.25, -1312213.9, -429.58386, -0.10267301, 0.25521392, -945585.7, 378641.88, 0.00050616945, 10.003332, 9.998463 
1.665109e+3, 1.7487429e+2, -911471.5, -1242063.6, -4894.895, -0.0026272647, 0.15884091, -911399.06, 314849.84, 0.000009797576, 10.002879, 9.99849 
1.6650918e+3, 1.848726e+2, -872140.9, -1152034.3, -27995.469, 0.02357197, 0.13577835, -869368.2, 258896.19, 0.0, 10.002388, 9.9986725 
1.6650732e+3, 1.948718e+2, -849426.6, -1087854.4, -30192.568, -0.053911764, 0.18258084, -845662.7, 184610.19, 0.0, 10.001861, 9.998694 
1.665055e+3, 2.048707e+2, -826944.75, -984372.2, -48380.72, -0.063084036, 0.18891485, -813265.06, 119018.445, 0.0, 10.00116, 9.999071 
1.6650374e+3, 2.1486938e+2, -856660.4, -945049.94, -38102.703, 0.009124107, 0.14410041, -842502.8, -8207.242, 0.0, 10.00027, 9.999098 
1.6650191e+3, 2.2486863e+2, -799055.8, -803191.44, -35688.69, 0.021216005, 0.13486606, -765375.06, -29072.666, 0.0, 9.999719, 9.999664 
1.6650005e+3, 2.3486853e+2, -727501.2, -714005.1, -56320.95, -0.03349748, 0.15390967, -664029.4, -25726.459, 0.0, 9.99952, 9.9997 
1.664982e+3, 2.4486814e+2, -707752.4, -681484.75, -53946.383, -0.052886087, 0.16094318, -639096.4, -98789.266, 0.0, 9.999104, 9.99945 
1.6649641e+3, 2.5486752e+2, -700915.4, -624765.3, -31452.602, -0.03489853, 0.14992133, -613454.4, -171140.14, 0.0, 9.9984665, 9.999473 
1.6649458e+3, 2.6486742e+2, -645501.94, -449886.2, -40680.43, -0.017162513, 0.15509918, -441763.5, -97447.56, 0.0, 9.997756, 10.000341 
1.6649273e+3, 2.7486792e+2, -662500.6, -404136.72, -58448.453, 0.0007237039, 0.16253701, -391529.4, -145217.36, 0.0, 9.996953, 10.000369 
1.6649093e+3, 2.848685e+2, -634133.6, -315021.7, -25095.299, 0.003464687, 0.1771209, -313060.22, -164752.63, 0.0, 9.996369, 10.000589 
1.6648914e+3, 2.9486948e+2, -584943.6, -236280.4, -25870.924, -0.011357838, 0.21029702, -234371.23, -184071.31, 0.0, 9.996016, 10.000627 
1.6648737e+3, 3.0487034e+2, -597771.2, -192175.19, 679.94885, -0.025254333, 0.22672364, -192174.05, -192174.05, 0.0, 9.995485, 10.000852 
1.6648567e+3, 3.1487185e+2, -569564.5, 30605.787, -16730.617, 0.010462319, 0.28781077, 31071.814, 31071.814, 0.0, 9.994776, 10.002724 
1.6752002e+3, 1.24901764e+2, -1109898.9, -1758735.1, -13015.516, -0.008057326, 0.120052695, -1109637.9, 606342.75, 0.044251077, 10.005859, 9.996872 
1.6751812e+3, 1.349004e+2, -1090520.9, -1662205.9, -17637.412, -0.1804167, 0.25779897, -1089977.3, 528017.5, 0.027838513, 10.005031, 9.997269 
1.6751675e+3, 1.4489722e+2, -1044115.9, -1513992.8, -45949.965, 0.19471331, 0.18171498, -1039664.56, 480361.3, 0.013309481, 10.004282, 9.997968 
1.6751474e+3, 1.548951e+2, -1010068.75, -1445291.3, -22191.639, -0.016003927, 0.16733378, -1008940.2, 413105.38, 0.0040867846, 10.003796, 9.998 
1.6751285e+3, 1.6489303e+2, -956683.2, -1335341.1, -17527.168, -0.11852089, 0.14965671, -955873.6, 368190.97, 0.0005678543, 10.003331, 9.998305 
1.6751115e+3, 1.7489111e+2, -923241.25, -1267201.5, -21429.748, -0.034751266, 0.122041, -921911.3, 304171.0, 0.000011659807, 10.00288, 9.998318 
1.6750938e+3, 1.8488963e+2, -877862.5, -1163744.3, -47795.105, -0.011504942, 0.1326845, -870083.56, 258013.08, 0.0, 10.002385, 9.998594 
1.6750748e+3, 1.948887e+2, -855336.3, -1099965.3, -48885.26, -0.07533514, 0.17403266, -845929.1, 184177.83, 0.0, 10.001858, 9.998613 
1.675056e+3, 2.0488761e+2, -807355.0, -943538.25, -81772.766, -0.07171925, 0.17265794, -769035.8, 163081.39, 0.0, 10.001158, 9.999353 
1.6750376e+3, 2.1488649e+2, -836817.9, -904364.3, -70729.61, 0.012312708, 0.11942028, -792211.8, 41914.707, 0.0, 10.00027, 9.999378 
1.6750191e+3, 2.248858e+2, -834966.1, -878046.5, -43201.71, 0.028197745, 0.12782234, -808232.44, -72098.89, 0.0, 9.999719, 9.999151 
1.675e+3, 2.3488563e+2, -764178.56, -790718.8, -62426.465, -0.030461041, 0.19141394, -713627.4, -75489.984, 0.0, 9.999521, 9.999173 
1.6749813e+3, 2.4488534e+2, -662593.75, -588441.44, -77270.81, -0.039119873, 0.20353925, -539812.2, 328.519, 0.0, 9.9991045, 10.00009 
1.674963e+3, 2.5488502e+2, -654859.06, -530015.75, -53460.79, 0.0048158714, 0.1563287, -510251.53, -68109.16, 0.0, 9.998467, 10.000124 
1.6749439e+3, 2.6488498e+2, -673082.0, -507729.97, -69487.19, 0.013838711, 0.15160468, -482406.94, -138263.64, 0.0, 9.997756, 9.999946 
1.6749242e+3, 2.748852e+2, -690642.56, -463299.16, -86499.914, -0.012300407, 0.17464331, -434130.06, -187986.45, 0.0, 9.996954, 9.999964 
1.6749056e+3, 2.8488573e+2, -618586.8, -283593.06, -37410.66, -0.007915799, 0.19466795, -279466.03, -131326.17, 0.0, 9.99637, 10.000806 
1.6748877e+3, 2.9488698e+2, -567989.8, -202104.97, -36645.434, 0.021969398, 0.23051777, -198470.83, -148342.28, 0.0, 9.996017, 10.000861 
1.674869e+3, 3.0488807e+2, -602409.6, -202853.84, -24446.936, -0.029512146, 0.26061183, -201363.61, -201363.61, 0.0, 9.995488, 10.000778 
1.6748512e+3, 3.1488776e+2, -571336.9, 24793.059, -35916.707, -0.022657037, 0.15225066, 26949.234, 26949.234, 0.0, 9.994784, 10.00268 
1.6852066e+3, 1.2491936e+2, -1023519.75, -1750453.9, 36386.383, 0.0068578953, 0.096449725, -1021703.0, 694103.5, 0.047273006, 10.006655, 9.996544 
1.6851863e+3, 1.3491806e+2, -1050238.1, -1657960.8, 16052.328, -0.20315842, 0.25405926, -1049814.4, 568007.25, 0.029867882, 10.005394, 9.997124 
1.6851716e+3, 1.4491513e+2, -1015852.1, -1481189.1, 10139.328, 0.17643684, 0.20202708, -1015631.25, 504219.28, 0.014386583, 10.004399, 9.998139 
1.6851515e+3, 1.5491277e+2, -991139.06, -1416364.6, 9184.915, 0.0015494064, 0.14579557, -990940.75, 430930.56, 0.0044742962, 10.003842, 9.998176 
1.6851321e+3, 1.6491066e+2, -967681.56, -1354139.3, 4883.441, -0.098491155, 0.12168554, -967619.9, 356270.7, 0.00063752796, 10.003314, 9.998185 
1.6851142e+3, 1.7490894e+2, -942334.2, -1289913.5, 3708.8098, -0.0474644, 0.12679635, -942294.6, 283612.7, 0.00001399049, 10.002809, 9.998197 
1.6850959e+3, 1.8490747e+2, -899303.2, -1167085.8, -20406.355, -0.02434654, 0.14113821, -897757.0, 230164.81, 0.0, 10.002208, 9.998656 
1.6850767e+3, 1.9490632e+2, -903402.1, -1116342.5, -12373.067, -0.055824194, 0.15679213, -902685.56, 127247.9, 0.0, 10.001498, 9.998674 
1.6850573e+3, 2.0490526e+2, -830248.2, -967704.6, -50473.42, -0.057277884, 0.15883614, -813705.44, 118238.445, 0.0, 10.001057, 9.999236 
1.6850379e+3, 2.1490434e+2, -753553.25, -876755.8, -70282.36, -0.01739135, 0.13931468, -721696.9, 112255.2, 0.0, 10.000897, 9.999264 
1.6850187e+3, 2.2490361e+2, -733467.9, -825366.56, -36982.516, -0.006009298, 0.14689732, -720433.75, 15525.962, 0.0, 10.0004015, 9.999184 
1.6849995e+3, 2.3490311e+2, -757424.6, -783933.94, -15674.246, -0.02846699, 0.17418875, -750152.06, -112186.01, 0.0, 9.999555, 9.999203 
1.6849805e+3, 2.4490285e+2, -703994.75, -602840.94, -36153.73, -0.021003526, 0.18665956, -591247.75, -51278.72, 0.0, 9.998798, 10.000137 
1.6849613e+3, 2.5490296e+2, -700652.2, -546900.7, -59910.8, 0.018345209, 0.17686838, -526312.6, -84345.016, 0.0, 9.998133, 10.000169 
1.6849416e+3, 2.6490304e+2, -691896.75, -510712.34, -79557.68, 0.021906123, 0.18358219, -480737.7, -136770.45, 0.0, 9.997602, 9.999998 
1.6849212e+3, 2.749032e+2, -648576.8, -437342.25, -62900.746, -0.01074842, 0.19242238, -420030.63, -174062.77, 0.0, 9.99722, 10.000013 
1.6849022e+3, 2.8490362e+2, -580209.06, -259291.53, -2270.4387, 0.00033577502, 0.19801737, -259275.47, -111310.74, 0.0, 9.99661, 10.000856 
1.684884e+3, 2.9490474e+2, -604015.75, -211897.98, -17157.88, 0.052655082, 0.21599974, -211148.64, -161194.08, 0.0, 9.995739, 10.000928 
1.6848643e+3, 3.0490634e+2, -671296.0, -197426.58, -757.1394, -0.021399152, 0.27840754, -197425.38, -197425.38, 0.0, 9.99485, 10.0011215 
1.6848457e+3, 3.149057e+2, -685442.44, -24205.727, 26773.498, -0.0055260956, 0.102330685, -23123.44, -23123.44, 0.0, 9.993974, 10.002734 
1.695214e+3, 1.24938406e+2, -1021284.6, -1739517.5, 29611.95, 0.073291376, 0.15274003, -1020065.8, 695553.9, 0.05044352, 10.006649, 9.996622 
1.695191e+3, 1.3493614e+2, -1037271.1, -1627092.9, -31131.035, -0.2706016, 0.19183746, -1035632.56, 582010.56, 0.032022156, 10.005392, 9.997337 
1.695175e+3, 1.4493336e+2, -1028024.5, -1506432.1, -13354.852, 0.078296356, 0.15441911, -1027652.0, 492018.3, 0.015549772, 10.004402, 9.997965 
1.6951554e+3, 1.5493147e+2, -1001911.44, -1441327.1, -11394.596, 0.016759288, 0.16159426, -1001616.1, 420071.5, 0.0049028974, 10.003853, 9.998001 
1.6951358e+3, 1.6492955e+2, -972192.9, -1364917.8, -14482.084, -0.048900552, 0.1681997, -971659.56, 352046.44, 0.00071697374, 10.003318, 9.99811 
1.6951172e+3, 1.7492773e+2, -947189.8, -1300828.4, -14408.885, -0.043579306, 0.17019297, -946603.7, 279120.63, 0.000016975888, 10.00281, 9.998122 
1.6950981e+3, 1.8492606e+2, -886139.5, -1139933.6, -47053.066, -0.018599128, 0.16029009, -877696.8, 250043.38, 0.0, 10.002207, 9.998844 
1.6950788e+3, 1.9492465e+2, -889660.7, -1088930.8, -38596.15, 0.001574353, 0.130811, -882446.25, 147306.48, 0.0, 10.001501, 9.998863 
1.6950586e+3, 2.0492357e+2, -865982.9, -1042066.3, -56831.848, -0.02243246, 0.14765199, -849233.4, 82530.44, 0.0, 10.001057, 9.998727 
1.6950382e+3, 2.1492292e+2, -789804.6, -952065.25, -75183.19, -0.08182543, 0.20320505, -760324.6, 73447.91, 0.0, 10.0008955, 9.998749 
1.6950183e+3, 2.24922e+2, -693434.0, -741937.0, -68458.97, -0.08390308, 0.19134516, -645057.9, 90723.33, 0.0, 10.000399, 9.999759 
1.694999e+3, 2.3492092e+2, -717099.8, -700193.2, -46059.01, -0.029948898, 0.10156977, -661818.2, -24029.002, 0.0, 9.999553, 9.99978 
1.6949794e+3, 2.4492063e+2, -744247.2, -685975.6, -60432.227, -0.0009938389, 0.109726615, -648022.3, -108229.625, 0.0, 9.998795, 9.999569 
1.6949594e+3, 2.5492126e+2, -741222.8, -631337.7, -83186.516, 0.0033487773, 0.21211155, -586587.3, -144796.81, 0.0, 9.998132, 9.999591 
1.6949391e+3, 2.6492167e+2, -655879.1, -436940.0, -93036.52, 0.0044409796, 0.25240427, -402745.44, -58957.316, 0.0, 9.997604, 10.000505 
1.6949186e+3, 2.7492186e+2, -611263.9, -362442.25, -74628.95, 0.0011371422, 0.2179217, -341775.38, -95990.28, 0.0, 9.997229, 10.000524 
1.6948989e+3, 2.8492215e+2, -588689.6, -279000.6, -33853.984, 0.024840707, 0.18694203, -275343.0, -127560.28, 0.0, 9.996617, 10.000719 
1.6948798e+3, 2.9492268e+2, -613009.44, -229672.55, -48101.48, 0.07638383, 0.16405363, -223728.88, -173949.98, 0.0, 9.995733, 10.000811 
1.6948593e+3, 3.0492514e+2, -617342.2, -84500.58, -33012.64, -0.0050143856, 0.27610585, -82463.05, -82463.05, 0.0, 9.9948435, 10.001902 
1.6948403e+3, 3.14926e+2, -671175.75, 4995.0527, 12999.666, 0.054134194, 0.17440943, 5244.8843, 5244.8843, 0.0, 9.993976, 10.002934 
1.7052205e+3, 1.24957755e+2, -1027507.1, -1737324.5, 63517.87, 0.06391332, 0.18484443, -1021868.06, 693562.94, 0.05376439, 10.006603, 9.996661 
1.7051965e+3, 1.3495499e+2, -1021866.8, -1614918.9, -50709.35, -0.2526173, 0.1696711, -1017562.1, 599896.44, 0.034305163, 10.005496, 9.997371 
1.7051794e+3, 1.4495239e+2, -1007683.94, -1519261.9, -13740.387, 0.06548379, 0.15845743, -1007315.1, 512169.03, 0.01680385, 10.00465, 9.997755 
1.7051592e+3, 1.5495048e+2, -965949.25, -1447125.0, -13662.313, 0.0061906227, 0.18662405, -965561.6, 455940.88, 0.0053770766, 10.004203, 9.997792 
1.7051393e+3, 1.6494855e+2, -926082.0, -1332694.3, -16700.188, -0.052827816, 0.19663186, -925397.25, 398124.0, 0.00080812094, 10.0035925, 9.998199 
1.70512e+3, 1.7494668e+2, -941227.7, -1288157.5, -6576.196, -0.040701702, 0.1866586, -941103.06, 284436.2, 0.000020835996, 10.002809, 9.99821 
1.7051005e+3, 1.8494497e+2, -881367.25, -1146108.4, -36323.09, -0.014292016, 0.17163537, -876474.06, 251081.16, 0.0, 10.002276, 9.998769 
1.7050804e+3, 1.949435e+2, -821733.7, -1064100.8, -48319.21, 0.0018061374, 0.14277457, -812455.75, 217112.7, 0.0, 10.002004, 9.99879 
1.70506e+3, 2.0494232e+2, -811159.4, -1016449.9, -58368.816, -0.020044858, 0.15372518, -795724.3, 135856.23, 0.0, 10.001438, 9.998717 
1.705039e+3, 2.1494153e+2, -839857.4, -977591.6, -40506.582, -0.07293793, 0.19862942, -828827.94, 4762.551, 0.0, 10.00056, 9.998734 
1.7050186e+3, 2.249407e+2, -759264.7, -758163.56, -35957.086, -0.0726018, 0.1895811, -722752.8, 12845.449, 0.0, 9.999882, 9.999895 
1.7049986e+3, 2.3493992e+2, -727824.4, -689692.06, -49090.58, -0.019609911, 0.115572184, -656095.1, -18492.02, 0.0, 9.9994135, 9.999918 
1.7049782e+3, 2.4493964e+2, -733525.5, -680748.94, -57903.137, 0.002870213, 0.11901386, -643504.56, -103898.36, 0.0, 9.99887, 9.999568 
1.7049573e+3, 2.5494e+2, -725347.25, -623750.5, -38226.51, -0.0051938053, 0.1951308, -610974.2, -169367.6, 0.0, 9.998244, 9.999587 
1.7049365e+3, 2.6494047e+2, -648040.4, -416184.13, -35025.285, -0.00067700486, 0.23360488, -411008.56, -67404.9, 0.0, 9.997588, 10.000655 
1.7049158e+3, 2.7494106e+2, -650157.7, -364539.2, -46143.223, 0.015995115, 0.22372973, -357269.53, -111672.695, 0.0, 9.996892, 10.000671 
1.7048955e+3, 2.8494146e+2, -654860.5, -314376.9, -24024.31, 0.0453174, 0.19976316, -312690.13, -165096.9, 0.0, 9.996181, 10.000686 
1.7048757e+3, 2.9494178e+2, -652089.56, -251065.5, -31400.168, 0.08959131, 0.1574255, -248621.77, -199030.1, 0.0, 9.995479, 10.000786 
1.704854e+3, 3.0494422e+2, -590223.56, -32591.064, -26762.098, 0.000079713245, 0.25166523, -31309.633, -31309.633, 0.0, 9.9948635, 10.002249 
1.7048346e+3, 3.1494597e+2, -639751.06, -898.9905, 3687.7632, 0.077304035, 0.20330118, -877.7036, -877.7036, 0.0, 9.994285, 10.002745 
1.7152262e+3, 1.24977216e+2, -1033171.44, -1742991.5, 57384.21, -0.019993117, 0.1764962, -1028562.25, 686679.8, 0.057225905, 10.006594, 9.996629 
1.715203e+3, 1.349746e+2, -1030455.94, -1634015.9, -91545.34, -0.1601364, 0.18751597, -1016876.3, 600391.7, 0.036713555, 10.005508, 9.997237 
1.7151846e+3, 1.4497218e+2, -1023434.75, -1553823.4, -31980.613, 0.12522791, 0.21320134, -1021513.4, 497778.8, 0.01814988, 10.00466, 9.997514 
1.7151631e+3, 1.5496978e+2, -982354.2, -1481896.4, -28826.453, -0.031465754, 0.21787561, -980696.25, 440619.8, 0.0058997567, 10.004206, 9.997553 
1.7151423e+3, 1.6496764e+2, -909713.5, -1299157.4, -45538.844, -0.109748304, 0.2067427, -904459.4, 418877.03, 0.0009127449, 10.0035925, 9.998431 
1.7151228e+3, 1.749658e+2, -923669.0, -1254053.0, -35169.023, -0.04114178, 0.17791994, -919966.8, 305385.28, 0.000025810483, 10.002816, 9.998442 
1.7151026e+3, 1.849642e+2, -904242.8, -1194592.1, -46869.92, -0.01568068, 0.17619932, -896864.25, 230502.81, 0.0, 10.002279, 9.998436 
1.715082e+3, 1.9496281e+2, -845183.0, -1113223.1, -57378.234, -0.05588931, 0.19038925, -833416.8, 195964.17, 0.0, 10.002004, 9.998454 
1.715061e+3, 2.0496143e+2, -778084.5, -947003.75, -90795.56, -0.051473267, 0.17567459, -738539.0, 192855.31, 0.0, 10.001433, 9.999197 
1.7150404e+3, 2.1496019e+2, -806948.5, -908757.9, -72341.88, 0.006292209, 0.1260732, -769396.25, 64009.973, 0.0, 10.000556, 9.99921 
1.7150193e+3, 2.249597e+2, -782337.8, -805192.25, -53526.258, 0.02445082, 0.14262262, -739032.6, -3621.4897, 0.0, 9.999876, 9.999576 
1.7149983e+3, 2.3496006e+2, -750280.8, -736786.25, -65355.92, 0.00068660657, 0.2169458, -677830.25, -40422.15, 0.0, 9.9994135, 9.999596 
1.7149769e+3, 2.4495986e+2, -693163.8, -596971.3, -80638.72, -0.011800975, 0.21412714, -551174.8, -11764.721, 0.0, 9.998869, 10.000144 
1.7149556e+3, 2.5495917e+2, -684543.2, -539880.8, -59542.047, -0.011370879, 0.124687105, -518526.06, -77109.734, 0.0, 9.998245, 10.000163 
1.7149343e+3, 2.6495942e+2, -664098.56, -450678.22, -60072.1, 0.00360948, 0.12515011, -434931.38, -91516.85, 0.0, 9.997591, 10.000418 
1.7149128e+3, 2.749607e+2, -667179.4, -399789.84, -70814.945, 0.03132136, 0.20982614, -382193.34, -136789.64, 0.0, 9.996889, 10.000432 
1.7148918e+3, 2.8496155e+2, -650180.44, -303895.84, -49641.176, 0.058167543, 0.23807448, -296920.13, -149523.34, 0.0, 9.996176, 10.00076 
1.7148711e+3, 2.94962e+2, -646466.56, -241075.03, -54295.223, 0.086797185, 0.19972517, -233929.08, -184535.88, 0.0, 9.995484, 10.000852 
1.7148489e+3, 3.0496347e+2, -599115.94, -54797.316, -48273.57, -0.012457038, 0.20417944, -50549.266, -50549.266, 0.0, 9.994877, 10.002091 
1.7148286e+3, 3.149654e+2, -677511.9, -81914.14, 8001.708, 0.047528513, 0.19344074, -81806.664, -81806.664, 0.0, 9.994294, 10.002185 
1.7252326e+3, 1.249978e+2, -1041459.44, -1740097.1, 104173.95, -0.043786176, 0.20917585, -1026256.9, 688784.94, 0.060809284, 10.006528, 9.996684 
1.725209e+3, 1.3499479e+2, -984781.2, -1622793.5, -73820.62, -0.12210628, 0.19308797, -976351.25, 640719.56, 0.0392368, 10.005903, 9.997122 
1.7251894e+3, 1.4499232e+2, -951895.4, -1518685.4, 6320.5957, 0.106877476, 0.22075795, -951824.94, 567270.1, 0.019584555, 10.005169, 9.99751 
1.7251673e+3, 1.5498985e+2, -948574.3, -1465887.6, 26312.637, -0.03872415, 0.21601841, -947239.4, 473880.25, 0.0064720153, 10.004444, 9.997548 
1.725146e+3, 1.6498756e+2, -884135.2, -1300553.5, 4623.965, -0.1091799, 0.19873299, -884083.8, 439057.28, 0.0010324584, 10.003829, 9.998307 
1.7251259e+3, 1.7498556e+2, -861027.06, -1237715.5, -12082.341, -0.04183107, 0.16542077, -860639.94, 364518.4, 0.00003215152, 10.003307, 9.998317 
1.725105e+3, 1.8498386e+2, -852782.44, -1164731.5, -19439.527, -0.018486686, 0.16182305, -851575.75, 275598.13, 0.0, 10.002611, 9.99848 
1.7250836e+3, 1.9498257e+2, -880495.5, -1125770.5, -3763.2568, -0.06156086, 0.17948946, -880437.8, 148749.14, 0.0, 10.001742, 9.998493 
1.7250623e+3, 2.0498131e+2, -820485.6, -959917.94, -40292.695, -0.049554773, 0.16970702, -809679.44, 121519.81, 0.0, 10.001111, 9.999264 
1.7250411e+3, 2.1498017e+2, -777911.0, -886651.3, -54069.168, 0.026401822, 0.12463448, -755602.7, 77607.18, 0.0, 10.000724, 9.99928 
1.7250195e+3, 2.2497967e+2, -751114.3, -799553.8, -41103.203, 0.04618672, 0.14307941, -727625.94, 7589.126, 0.0, 10.000133, 9.99949 
1.7249976e+3, 2.3497999e+2, -769285.25, -755251.2, -36464.777, 0.0060293796, 0.21938254, -725134.44, -87920.8, 0.0, 9.999326, 9.999509 
1.7249757e+3, 2.4497984e+2, -703080.9, -569460.5, -51033.56, -0.011865966, 0.2148686, -552199.1, -12984.589, 0.0, 9.998665, 10.00043 
1.7249538e+3, 2.5497934e+2, -678702.75, -505099.3, -53881.668, -0.005346078, 0.116544485, -489735.6, -48518.32, 0.0, 9.998151, 10.000446 
1.7249319e+3, 2.649796e+2, -674260.9, -465604.2, -63778.043, 0.014407879, 0.1101795, -447654.0, -104438.914, 0.0, 9.997566, 10.000326 
1.7249098e+3, 2.7498084e+2, -670817.75, -411581.72, -64587.586, 0.045309227, 0.19526857, -396381.28, -151174.83, 0.0, 9.996911, 10.0003395 
1.7248881e+3, 2.8498188e+2, -630914.3, -279455.22, -34498.332, 0.06315066, 0.24167947, -276100.97, -128903.33, 0.0, 9.996245, 10.000895 
1.7248665e+3, 2.9498267e+2, -626672.8, -219262.89, -35762.26, 0.07332011, 0.22719344, -216147.52, -166958.25, 0.0, 9.995569, 10.00096 
1.7248438e+3, 3.0498326e+2, -613057.44, -86901.32, -30289.436, -0.003496157, 0.14980505, -85163.375, -85163.375, 0.0, 9.994892, 10.0018635 
1.724823e+3, 3.1498578e+2, -706175.25, -113527.06, 44912.293, 0.05577254, 0.21714585, -110142.83, -110142.83, 0.0, 9.994177, 10.002024 
1.7352393e+3, 1.2501943e+2, -1039276.1, -1729213.9, 99111.69, -0.021623185, 0.27746186, -1025320.7, 689510.5, 0.064507805, 10.006525, 9.99676 
1.7352147e+3, 1.3501555e+2, -994438.7, -1639004.8, -97655.34, -0.13791776, 0.18393332, -979968.2, 636899.56, 0.04186766, 10.005897, 9.997016 
1.7351936e+3, 1.4501283e+2, -939612.44, -1490238.3, -21379.291, 0.014428017, 0.18281324, -938783.6, 580109.44, 0.021103373, 10.005161, 9.997714 
1.735172e+3, 1.5501064e+2, -933141.75, -1435442.5, 137.32747, -0.020600736, 0.18515518, -933141.7, 487771.8, 0.007093268, 10.004453, 9.997754 
1.7351502e+3, 1.650083e+2, -915800.75, -1367701.0, -15301.23, -0.06089224, 0.17589766, -915283.25, 407652.34, 0.0011684007, 10.003834, 9.997845 
1.735129e+3, 1.7500588e+2, -893258.75, -1305268.6, -30548.512, -0.045508485, 0.14796157, -891006.06, 333952.4, 0.00004011834, 10.003308, 9.997853 
1.7351076e+3, 1.8500401e+2, -825501.06, -1107624.3, -51550.707, -0.024624053, 0.12831613, -816376.6, 310599.2, 0.0, 10.002607, 9.998875 
1.7350858e+3, 1.9500276e+2, -852804.0, -1068826.6, -35323.754, -0.019038068, 0.11186582, -847174.6, 181812.11, 0.0, 10.001742, 9.998886 
1.7350638e+3, 2.0500186e+2, -844979.8, -1010863.7, -55157.195, -0.018743563, 0.13697058, -828314.06, 102681.58, 0.0, 10.001109, 9.998916 
1.7350414e+3, 2.1500137e+2, -802226.3, -937935.3, -67391.23, -0.014652521, 0.19242018, -774447.06, 58554.965, 0.0, 10.000725, 9.998929 
1.7350192e+3, 2.2500058e+2, -741021.2, -778031.25, -70792.734, -0.009387042, 0.18910767, -686354.9, 48655.758, 0.0, 10.00013, 9.9996395 
1.7349969e+3, 2.3499958e+2, -759757.56, -734789.9, -65168.254, -0.0060470854, 0.12253975, -680920.5, -43900.36, 0.0, 9.999321, 9.999653 
1.7349745e+3, 2.4499956e+2, -705467.3, -573766.75, -69727.61, 0.000051181312, 0.12167227, -543709.8, -4689.7646, 0.0, 9.99866, 10.000403 
1.734952e+3, 2.5500053e+2, -680379.9, -509168.84, -71582.61, 0.010947292, 0.17230324, -483184.16, -42174.16, 0.0, 9.998152, 10.000419 
1.7349295e+3, 2.6500103e+2, -670486.44, -458328.7, -87553.96, 0.029427806, 0.19030564, -426863.3, -83857.375, 0.0, 9.997567, 10.000377 
1.7349069e+3, 2.7500138e+2, -665910.0, -403921.22, -87495.19, 0.052202977, 0.18062067, -377388.03, -132382.22, 0.0, 9.996921, 10.000388 
1.7348841e+3, 2.8500232e+2, -615889.2, -251459.48, -59193.17, 0.0546134, 0.20882319, -242086.02, -95089.25, 0.0, 9.996257, 10.001082 
1.7348617e+3, 2.950037e+2, -616003.1, -199281.9, -58417.098, 0.045773998, 0.2370402, -191247.73, -142266.81, 0.0, 9.995576, 10.001096 
1.734839e+3, 3.0500358e+2, -634613.06, -132036.31, -57040.145, 0.02421111, 0.09278469, -125643.82, -125643.82, 0.0, 9.994893, 10.001554 
1.7348175e+3, 3.1500664e+2, -686205.7, -73005.49, 42431.37, 0.09252354, 0.24194677, -70083.31, -70083.31, 0.0, 9.994181, 10.0023 
1.7452459e+3, 1.250408e+2, -995739.4, -1687095.8, 117381.086, -0.029715065, 0.26878455, -976353.56, 738268.3, 0.06833203, 10.006785, 9.99693 
1.7452209e+3, 1.3503702e+2, -1004665.0, -1639129.6, -81808.375, -0.10513356, 0.18173002, -994286.4, 622370.7, 0.04460645, 10.005821, 9.997049 
1.7451982e+3, 1.4503421e+2, -957554.25, -1506718.0, -803.67426, -0.025968004, 0.17333607, -957553.06, 561130.1, 0.022703316, 10.005081, 9.997636 
1.7451766e+3, 1.55032e+2, -916322.44, -1435601.0, -784.4656, -0.008704857, 0.18237942, -916321.25, 504382.6, 0.007762098, 10.00461, 9.997676 
1.7451546e+3, 1.6502963e+2, -890065.0, -1354926.8, -10337.233, -0.030447286, 0.1741916, -889835.25, 432890.88, 0.0013210407, 10.004011, 9.997847 
1.7451325e+3, 1.7502716e+2, -895582.06, -1306246.3, 6372.795, -0.036480874, 0.13966867, -895483.2, 329266.28, 0.000049909977, 10.003294, 9.997852 
1.7451103e+3, 1.8502527e+2, -823428.06, -1110228.4, -16941.37, -0.024262762, 0.12134549, -822430.8, 304336.13, 0.0000000000000006446772, 10.00264, 9.99884 
1.7450878e+3, 1.9502407e+2, -811550.7, -1052433.8, -33201.438, -0.014118029, 0.11370103, -807058.25, 221719.25, 0.0, 10.002044, 9.998852 
1.745065e+3, 2.0502314e+2, -800172.5, -989205.5, -47140.28, -0.018452361, 0.13721868, -789069.06, 141717.63, 0.0, 10.001419, 9.998914 
1.745042e+3, 2.1502255e+2, -796905.44, -935839.6, -35087.52, -0.02965161, 0.18291728, -788547.06, 44246.766, 0.0, 10.000764, 9.998923 
1.7450191e+3, 2.250217e+2, -736391.0, -772018.25, -36290.168, -0.029157821, 0.17361736, -713778.1, 21024.65, 0.0, 10.000147, 9.999672 
1.7449962e+3, 2.350207e+2, -721706.7, -712588.8, -41047.285, -0.019713914, 0.10279213, -675848.06, -39035.633, 0.0, 9.999569, 9.999685 
1.7449732e+3, 2.4502078e+2, -690996.44, -574733.25, -52648.32, -0.001903217, 0.11524351, -554435.75, -15623.972, 0.0, 9.9987955, 10.00033 
1.7449503e+3, 2.5502196e+2, -733231.75, -542742.44, -59200.21, 0.026391495, 0.19821131, -525843.4, -85043.125, 0.0, 9.997827, 10.000343 
1.744927e+3, 2.6502246e+2, -724608.94, -473755.63, -66523.07, 0.043505635, 0.21235685, -457206.34, -114409.81, 0.0, 9.997153, 10.000468 
1.7449036e+3, 2.7502245e+2, -682271.1, -401495.9, -64741.402, 0.044485383, 0.1619595, -387286.88, -142488.22, 0.0, 9.996766, 10.000478 
1.7448802e+3, 2.850235e+2, -613545.2, -243279.0, -45367.527, 0.038157873, 0.18743567, -237801.3, -91012.56, 0.0, 9.996244, 10.001143 
1.7448571e+3, 2.950253e+2, -616270.9, -198332.23, -55721.758, 0.03850108, 0.25128922, -191030.69, -142261.72, 0.0, 9.995573, 10.001102 
1.7448343e+3, 3.050247e+2, -664149.75, -191195.22, -61753.12, 0.07571903, 0.08765975, -183265.14, -183265.14, 0.0, 9.9948845, 10.001152 
1.7448115e+3, 3.1502733e+2, -659788.2, -18656.979, 40255.863, 0.074946605, 0.22511494, -16139.249, -16139.249, 0.0, 9.9941845, 10.002671 
1.7552523e+3, 1.2506208e+2, -986401.56, -1658493.0, 83266.98, -0.06452157, 0.19855091, -976239.1, 738173.25, 0.07229482, 10.006767, 9.997153 
1.7552274e+3, 1.3505922e+2, -994452.9, -1617636.6, -116134.41, -0.03160774, 0.18699025, -973514.0, 642924.8, 0.047454927, 10.005836, 9.997195 
1.7552033e+3, 1.4505644e+2, -980074.5, -1556116.5, -18578.57, -0.024684425, 0.1931576, -979475.94, 538989.5, 0.024381772, 10.005096, 9.997289 
1.7551813e+3, 1.550539e+2, -940380.44, -1486460.3, -17146.658, -0.005437733, 0.2042184, -939842.56, 480648.2, 0.008476791, 10.004614, 9.997326 
1.7551586e+3, 1.6505152e+2, -860528.2, -1293184.1, -37057.83, -0.019069182, 0.19049238, -857377.06, 465135.88, 0.0014903483, 10.004008, 9.998273 
1.7551358e+3, 1.7504932e+2, -865341.9, -1244799.5, -19907.633, -0.018466989, 0.14074177, -864300.3, 360231.47, 0.00006156021, 10.003298, 9.998274 
1.7551129e+3, 1.850476e+2, -854328.1, -1175203.5, -39303.168, -0.022900453, 0.14067502, -849584.1, 276963.6, 0.0000000010737394, 10.002642, 9.998395 
1.7550893e+3, 1.9504645e+2, -842542.5, -1117778.3, -54246.793, -0.048066117, 0.18194717, -832236.8, 196322.97, 0.0, 10.002046, 9.998404 
1.755066e+3, 2.0504509e+2, -777431.44, -941877.06, -71134.93, -0.04937394, 0.16923119, -750930.9, 179641.84, 0.0, 10.001416, 9.999241 
1.7550428e+3, 2.1504363e+2, -774733.2, -889304.5, -58223.94, -0.021046238, 0.09697625, -750338.5, 82246.984, 0.0, 10.00076, 9.999246 
1.7550193e+3, 2.25043e+2, -743693.8, -786372.06, -57544.22, -0.016660888, 0.09739258, -703659.56, 30932.375, 0.0, 10.000141, 9.999577 
1.7549954e+3, 2.3504324e+2, -728391.2, -727168.5, -61248.37, -0.03766637, 0.15999314, -666528.4, -29937.275, 0.0, 9.999569, 9.999586 
1.7549717e+3, 2.4504343e+2, -699737.56, -592806.75, -88631.32, -0.020527525, 0.19509867, -542763.4, -4173.0547, 0.0, 9.998794, 10.000208 
1.754948e+3, 2.5504366e+2, -741847.94, -560972.0, -93940.73, 0.03738221, 0.19352262, -521011.03, -80422.3, 0.0, 9.997826, 10.000219 
1.7549242e+3, 2.6504382e+2, -715640.44, -456197.28, -80020.32, 0.05272787, 0.17529082, -433501.88, -90914.234, 0.0, 9.997155, 10.000588 
1.7549e+3, 2.7504408e+2, -673477.44, -384640.06, -77014.68, 0.019684032, 0.13892633, -365388.3, -120802.71, 0.0, 9.996769, 10.000593 
1.7548762e+3, 2.8504527e+2, -618899.94, -254991.4, -69977.83, 0.011579779, 0.17768098, -241998.88, -95424.55, 0.0, 9.996246, 10.001062 
1.7548528e+3, 2.9504728e+2, -623860.8, -217887.73, -80155.87, 0.046424728, 0.26859677, -202634.73, -154080.19, 0.0, 9.995587, 10.000962 
1.7548299e+3, 3.0504668e+2, -696236.5, -261275.84, -87653.086, 0.14401966, 0.14037468, -244276.4, -244276.4, 0.0, 9.994898, 10.000665 
1.754805e+3, 3.150479e+2, -640142.06, 22975.139, 15301.602, -0.002229894, 0.17953272, 23328.04, 23328.04, 0.0, 9.994179, 10.00296 
1.7652588e+3, 1.2508474e+2, -1040450.94, -1704448.1, 120408.86, -0.07569238, 0.17044261, -1019290.44, 694898.56, 0.07640828, 10.006486, 9.996955 
1.7652342e+3, 1.350821e+2, -928761.7, -1603983.3, -92623.1, 0.026540548, 0.20087981, -916286.7, 699928.25, 0.050414972, 10.00642, 9.997003 
1.7652085e+3, 1.4507914e+2, -872701.25, -1506098.4, -2506.829, -0.04940023, 0.2003461, -872691.3, 645552.44, 0.026135061, 10.0058775, 9.997257 
1.7651857e+3, 1.5507647e+2, -898464.8, -1469825.1, 20765.957, -0.019979505, 0.20319822, -897711.06, 522558.66, 0.009234, 10.004928, 9.997288 
1.7651626e+3, 1.650741e+2, -844314.94, -1287343.8, -1631.9713, -0.024042625, 0.19319576, -844308.94, 477982.84, 0.0016755407, 10.004133, 9.998251 
1.7651391e+3, 1.75072e+2, -840196.06, -1234996.0, -18440.178, -0.023342498, 0.15733786, -839336.6, 384973.16, 0.00007490455, 10.003483, 9.99825 
1.7651154e+3, 1.8507023e+2, -835454.1, -1169828.8, -37840.203, -0.03117257, 0.15490058, -831225.3, 295100.97, 0.000000009428086, 10.0027895, 9.99836 
1.7650913e+3, 1.9506888e+2, -842820.75, -1122102.1, -24524.52, -0.060981255, 0.1798135, -840683.56, 187656.72, 0.0, 10.002064, 9.9983635 
1.7650673e+3, 2.0506747e+2, -785630.2, -936833.1, -36822.824, -0.057895847, 0.16161105, -777139.44, 153213.81, 0.0, 10.001323, 9.99932 
1.7650434e+3, 2.1506615e+2, -797505.1, -890936.56, -43481.406, -0.01770672, 0.09304818, -780400.9, 51963.504, 0.0, 10.0005665, 9.999327 
1.7650194e+3, 2.2506559e+2, -788471.5, -806660.44, -44785.47, -0.0035626828, 0.097339116, -751866.44, -17496.668, 0.0, 9.99983, 9.999586 
1.764995e+3, 2.3506589e+2, -795086.5, -758670.2, -42135.945, -0.01705813, 0.16550659, -730976.56, -94607.95, 0.0, 9.99911, 9.999589 
1.7649704e+3, 2.4506602e+2, -744580.25, -617526.44, -64698.133, -0.012223902, 0.1958993, -590380.75, -52012.063, 0.0, 9.9985, 10.000179 
1.7649458e+3, 2.5506607e+2, -718671.3, -552772.4, -64188.004, 0.013948833, 0.18049526, -530837.56, -90468.51, 0.0, 9.997999, 10.000192 
1.7649212e+3, 2.6506633e+2, -674393.0, -421248.56, -39646.047, 0.03399835, 0.16334286, -415184.7, -72817.695, 0.0, 9.9973755, 10.000722 
1.764897e+3, 2.750668e+2, -684217.9, -374657.16, -36714.08, 0.04129636, 0.13747558, -370362.4, -126000.836, 0.0, 9.996634, 10.000726 
1.7648724e+3, 2.8506783e+2, -665015.1, -287565.2, -31009.836, 0.026260128, 0.16338465, -285034.5, -138682.86, 0.0, 9.9959755, 10.000969 
1.764848e+3, 2.9506955e+2, -663747.75, -250987.48, -43718.914, 0.010564829, 0.23322447, -246407.66, -198071.31, 0.0, 9.995376, 10.000835 
1.7648251e+3, 3.0506963e+2, -716721.94, -270516.88, -30015.156, 0.17558938, 0.17764331, -268506.88, -268506.88, 0.0, 9.994756, 10.000669 
1.7647989e+3, 3.1506982e+2, -630628.44, 59085.508, 85222.8, -0.012671875, 0.11354295, 69459.81, 69459.81, 0.0, 9.994112, 10.003239 
1.7752653e+3, 1.2510887e+2, -1081917.0, -1791910.1, 94087.484, -0.059137497, 0.19761164, -1069660.3, 644290.5, 0.08069881, 10.006492, 9.996347 
1.7752409e+3, 1.3510561e+2, -967030.06, -1681812.1, -95226.1, 0.06542742, 0.22123022, -954561.2, 661424.4, 0.053496156, 10.006413, 9.996472 
1.775214e+3, 1.4510228e+2, -857006.7, -1469491.8, -37237.676, -0.10253629, 0.19490625, -854751.06, 663267.25, 0.027961576, 10.005868, 9.997521 
1.7751904e+3, 1.550997e+2, -880728.1, -1434170.1, -13172.28, -0.054250613, 0.18130791, -880414.8, 539626.3, 0.010029564, 10.004935, 9.99753 
1.7751665e+3, 1.6509734e+2, -874919.2, -1352679.5, -25675.863, -0.048958812, 0.18406901, -873543.3, 448519.7, 0.0018751873, 10.00414, 9.9978 
1.7751424e+3, 1.750952e+2, -871546.4, -1300188.8, -41245.88, -0.052073587, 0.1885496, -867613.56, 356470.13, 0.0000897059, 10.003482, 9.997804 
1.7751181e+3, 1.8509315e+2, -812260.06, -1121222.3, -64233.816, -0.0505375, 0.16421531, -799437.9, 326665.06, 0.000000028818846, 10.002785, 9.998697 
1.7750934e+3, 1.9509134e+2, -819438.44, -1073553.6, -50372.246, -0.055898435, 0.10915264, -809817.6, 218301.7, 0.0, 10.002061, 9.9987 
1.7750688e+3, 2.0509027e+2, -797521.5, -961403.4, -64707.24, -0.048125107, 0.11536344, -775052.94, 155075.89, 0.0, 10.001321, 9.999153 
1.7750439e+3, 2.1508999e+2, -809076.7, -915754.5, -70304.875, -0.022670837, 0.16968317, -774167.0, 57963.977, 0.0, 10.0005665, 9.999157 
1.7750193e+3, 2.250894e+2, -781003.7, -791296.8, -71243.97, 0.0077474113, 0.17271973, -714720.6, 19416.287, 0.0, 9.999829, 9.999693 
1.7749946e+3, 2.3508857e+2, -787926.56, -743809.7, -67589.32, 0.040990546, 0.118630886, -694770.4, -58624.89, 0.0, 9.999107, 9.999695 
1.7749692e+3, 2.4508846e+2, -740553.44, -609199.1, -82519.445, 0.020534469, 0.11581988, -569410.94, -31263.371, 0.0, 9.998498, 10.000238 
1.7749432e+3, 2.5508916e+2, -714346.8, -545353.1, -81104.2, -0.04822817, 0.15756932, -512727.78, -72585.85, 0.0, 9.998004, 10.000241 
1.7749181e+3, 2.6508984e+2, -663692.25, -400695.47, -66772.43, -0.01623367, 0.17662272, -384713.75, -42578.543, 0.0, 9.997381, 10.000861 
1.7748941e+3, 2.7509055e+2, -673128.1, -353833.2, -62481.23, 0.10547328, 0.15945856, -342042.0, -97914.97, 0.0, 9.99664, 10.000867 
1.774869e+3, 2.8509122e+2, -671087.4, -302042.1, -52605.83, 0.07767845, 0.14380991, -294689.8, -148568.58, 0.0, 9.995982, 10.000867 
1.7748424e+3, 2.9509208e+2, -670495.9, -266680.13, -64419.477, -0.072783254, 0.14034708, -256652.48, -208537.23, 0.0, 9.995379, 10.000728 
1.7748196e+3, 3.0509347e+2, -678439.5, -190988.25, -51021.527, 0.16719969, 0.19506864, -185705.1, -185705.1, 0.0, 9.994755, 10.001216 
1.7747937e+3, 3.1509438e+2, -617717.5, 84359.67, 24634.861, 0.062000174, 0.15023856, 85223.016, 85223.016, 0.0, 9.994118, 10.00341 
1.7852724e+3, 1.2513316e+2, -1000317.3, -1752315.4, 70583.195, -0.044190593, 0.20777597, -993749.6, 719963.2, 0.08521243, 10.0071535, 9.996297 
1.7852475e+3, 1.3512985e+2, -977977.9, -1679861.1, -49710.875, 0.08433253, 0.22441742, -974474.6, 641273.3, 0.056718003, 10.006329, 9.996521 
1.7852193e+3, 1.4512643e+2, -884981.2, -1483678.0, 11629.953, -0.14524077, 0.18730931, -884755.3, 633026.0, 0.029865336, 10.005689, 9.997506 
1.7851956e+3, 1.5512379e+2, -839995.0, -1416736.3, 14812.086, -0.047275133, 0.1691698, -839614.9, 580189.5, 0.010862202, 10.005237, 9.997503 
1.785171e+3, 1.6512136e+2, -829225.8, -1339801.0, 966.652, -0.027184933, 0.17332248, -829224.0, 492602.66, 0.002088453, 10.004497, 9.997715 
1.7851457e+3, 1.7511922e+2, -876999.44, -1312174.8, 10733.895, -0.053303767, 0.18421207, -876734.9, 347113.2, 0.00010586319, 10.003488, 9.997718 
1.7851207e+3, 1.8511713e+2, -836964.6, -1134631.6, -7277.0586, -0.056899346, 0.16163906, -836786.8, 289081.0, 0.0000000562377, 10.002625, 9.998679 
1.7850955e+3, 1.9511525e+2, -842517.44, -1086337.9, -20816.352, -0.050188698, 0.10359066, -840753.0, 187131.66, 0.0, 10.001913, 9.998681 
1.78507e+3, 2.0511414e+2, -798227.06, -963845.94, -37991.44, -0.041615926, 0.10737398, -789928.06, 139966.5, 0.0, 10.001327, 9.999133 
1.7850445e+3, 2.1511385e+2, -768126.94, -898691.2, -34302.574, -0.027140224, 0.16210869, -759663.4, 72233.54, 0.0, 10.000861, 9.999132 
1.7850192e+3, 2.2511327e+2, -742961.8, -766987.1, -42704.12, 0.0024676698, 0.16652922, -710612.94, 23289.598, 0.0, 10.000065, 9.999746 
1.7849937e+3, 2.351125e+2, -806122.2, -745810.8, -44244.94, 0.044932127, 0.1120561, -722422.3, -86511.766, 0.0, 9.998956, 9.999753 
1.7849676e+3, 2.4511236e+2, -773438.06, -618616.7, -41739.125, 0.026116397, 0.10166416, -608081.0, -70168.45, 0.0, 9.998246, 10.000295 
1.7849411e+3, 2.5511298e+2, -724755.8, -544850.44, -41835.543, -0.047998983, 0.1310834, -535597.8, -95690.484, 0.0, 9.997909, 10.00029 
1.7849155e+3, 2.651138e+2, -681420.25, -408081.0, -47488.96, -0.01807011, 0.16168042, -400065.5, -58166.043, 0.0, 9.997254, 10.000872 
1.7848906e+3, 2.7511483e+2, -721370.9, -375868.5, -53699.516, 0.10434954, 0.17500222, -367714.72, -123825.75, 0.0, 9.9963045, 10.000877 
1.7848645e+3, 2.8511548e+2, -720574.6, -309740.4, -28487.75, 0.07090051, 0.14991957, -307774.44, -161890.81, 0.0, 9.995574, 10.001011 
1.7848374e+3, 2.9511613e+2, -707837.56, -264494.94, -24252.45, -0.087914675, 0.110640064, -263172.2, -215292.8, 0.0, 9.995038, 10.000906 
1.7848144e+3, 3.0511817e+2, -692966.25, -171492.06, -7707.655, 0.18080421, 0.21008708, -171378.16, -171378.16, 0.0, 9.994541, 10.001452 
1.7847878e+3, 3.1511942e+2, -656870.94, 26423.473, -11755.955, 0.06039118, 0.17618462, 26625.672, 26625.672, 0.0, 9.9940195, 10.0030575 
1.7952797e+3, 1.2515767e+2, -978896.4, -1689440.9, 5764.289, -0.03266637, 0.20607464, -978849.6, 734624.7, 0.09000296, 10.007118, 9.996758 
1.7952536e+3, 1.3515481e+2, -941770.56, -1598719.6, -76789.516, 0.08356315, 0.21150835, -932914.2, 682588.06, 0.060107443, 10.006339, 9.99708 
1.7952245e+3, 1.4515156e+2, -904143.5, -1524595.6, -5033.5913, -0.18071939, 0.17793132, -904102.7, 613430.6, 0.03185733, 10.005702, 9.997211 
1.7952012e+3, 1.5514868e+2, -861181.25, -1459678.0, -754.7088, -0.0060007316, 0.16646157, -861180.3, 558379.6, 0.011736011, 10.005233, 9.9972105 
1.795176e+3, 1.6514614e+2, -812926.94, -1304438.6, -36536.86, 0.034140196, 0.161363, -810225.8, 511357.5, 0.0023163445, 10.004489, 9.997963 
1.7951496e+3, 1.7514399e+2, -859226.9, -1276691.9, -26045.94, -0.030816497, 0.14599296, -857608.1, 365995.3, 0.00012350889, 10.003492, 9.99796 
1.7951232e+3, 1.8514207e+2, -861698.2, -1187962.1, -33863.953, -0.054651838, 0.14814648, -858220.44, 267401.28, 0.000000085167756, 10.002631, 9.998312 
1.7950973e+3, 1.9514056e+2, -867321.75, -1139393.0, -45901.145, -0.04693008, 0.16156192, -859786.5, 167850.55, 0.0, 10.001918, 9.998317 
1.7950714e+3, 2.0513903e+2, -790555.4, -948071.9, -54602.77, -0.040526528, 0.13702151, -773478.75, 156172.25, 0.0, 10.001326, 9.999243 
1.7950454e+3, 2.1513762e+2, -761090.2, -883497.2, -50117.48, -0.0320435, 0.07010072, -743188.5, 88474.195, 0.0, 10.000855, 9.99924 
1.7950189e+3, 2.2513713e+2, -743856.06, -768545.94, -83653.04, -0.02165826, 0.07812203, -671642.0, 62025.3, 0.0, 10.000061, 9.999739 
1.7949921e+3, 2.3513758e+2, -806860.94, -747930.9, -83942.18, -0.010003511, 0.14610231, -688432.56, -52768.21, 0.0, 9.998955, 9.99974 
1.7949656e+3, 2.4513765e+2, -769525.9, -610739.1, -53564.977, 0.00087782234, 0.15474579, -594359.25, -56694.953, 0.0, 9.998245, 10.00035 
1.7949396e+3, 2.551375e+2, -720431.9, -536867.6, -52924.207, 0.014141953, 0.10225941, -522701.97, -83036.3, 0.0, 9.9979105, 10.000346 
1.7949131e+3, 2.6513812e+2, -689357.2, -426067.53, -82098.61, 0.026997346, 0.11658542, -402565.53, -60905.12, 0.0, 9.997258, 10.000748 
1.7948861e+3, 2.7513954e+2, -729640.7, -395040.13, -86918.31, 0.03135745, 0.17883419, -373808.78, -130160.22, 0.0, 9.99631, 10.000744 
1.7948593e+3, 2.8514057e+2, -692671.75, -252612.94, -47835.38, 0.0009920823, 0.18158858, -247473.16, -101833.82, 0.0, 9.995576, 10.001403 
1.794833e+3, 2.9514173e+2, -675533.06, -198221.02, -41841.16, -0.039527293, 0.15427169, -194580.98, -146952.8, 0.0, 9.995039, 10.001362 
1.7948093e+3, 3.0514362e+2, -699025.06, -185147.78, -24440.633, 0.20567946, 0.21645336, -183987.98, -183987.98, 0.0, 9.994544, 10.001358 
1.7947811e+3, 3.1514516e+2, -699951.8, -67558.19, -84268.45, 0.0002894462, 0.23207717, -56521.754, -56521.754, 0.0, 9.994037, 10.002405 
1.8052864e+3, 1.2518328e+2, -1066729.1, -1729470.6, 43550.535, -0.034225818, 0.18689223, -1063879.6, 649342.94, 0.095122956, 10.006473, 9.99678 
1.8052605e+3, 1.3518056e+2, -865340.75, -1549467.1, -27984.088, 0.114056766, 0.19461064, -864198.0, 751050.56, 0.06369806, 10.006869, 9.997185 
1.8052305e+3, 1.4517741e+2, -811430.4, -1494413.3, 11740.768, -0.17358218, 0.1743714, -811228.56, 706050.1, 0.03395486, 10.006442, 9.9970665 
1.8052062e+3, 1.551744e+2, -873470.1, -1482008.9, 24933.297, -0.009064161, 0.16709375, -872450.25, 546857.1, 0.012658703, 10.005224, 9.99706 
1.8051805e+3, 1.6517179e+2, -837572.9, -1317530.3, -11850.539, 0.034862373, 0.1589843, -837280.44, 484051.6, 0.002561299, 10.004331, 9.997947 
1.8051532e+3, 1.7516951e+2, -822728.06, -1260456.4, -22225.6, -0.020582275, 0.13540012, -821602.5, 401750.16, 0.00014302347, 10.003752, 9.997945 
1.8051262e+3, 1.8516761e+2, -806389.4, -1164180.8, -26341.727, -0.041778684, 0.14145207, -804460.4, 320910.4, 0.00000010953618, 10.003026, 9.998283 
1.8050995e+3, 1.9516622e+2, -832474.56, -1125292.5, -14863.344, -0.036707986, 0.17133723, -831722.06, 195663.36, 0.0, 10.0021715, 9.998289 
1.8050726e+3, 2.0516472e+2, -802155.0, -941131.6, -10808.352, -0.032270186, 0.14557877, -801319.44, 128079.664, 0.0, 10.001194, 9.999352 
1.8050459e+3, 2.1516325e+2, -863460.2, -920316.75, -8073.6113, -0.026405811, 0.059541166, -862335.94, -30924.969, 0.0, 10.000103, 9.999348 
1.8050186e+3, 2.2516268e+2, -829012.25, -821251.1, -37501.676, -0.023070147, 0.0635207, -787429.75, -54013.746, 0.0, 9.999529, 9.999632 
1.804991e+3, 2.3516317e+2, -744271.6, -729406.2, -46187.78, -0.022609433, 0.14432548, -690056.9, -54643.375, 0.0, 9.999436, 9.999635 
1.804964e+3, 2.4516326e+2, -707512.2, -577921.0, -29816.922, -0.003944704, 0.16167106, -571389.75, -33976.53, 0.0, 9.998657, 10.000377 
1.8049373e+3, 2.5516316e+2, -815778.4, -579132.56, -32439.225, 0.034217775, 0.1119006, -574766.4, -135352.52, 0.0, 9.997242, 10.000377 
1.8049102e+3, 2.6516375e+2, -794367.2, -479312.3, -44447.04, 0.042507816, 0.12247598, -473161.94, -131752.69, 0.0, 9.99655, 10.000723 
1.8048824e+3, 2.7516505e+2, -702590.44, -384970.56, -43242.453, 0.017961817, 0.17531753, -379188.56, -135789.16, 0.0, 9.996509, 10.000717 
1.804855e+3, 2.8516623e+2, -642252.6, -214610.33, -21999.053, -0.0065035364, 0.18981858, -213481.61, -68092.96, 0.0, 9.995862, 10.001525 
1.804828e+3, 2.951678e+2, -714058.44, -197089.86, -36550.324, -0.013991503, 0.19234937, -194518.48, -147145.81, 0.0, 9.994691, 10.001536 
1.804803e+3, 3.0516928e+2, -738831.44, -191821.03, 2955.0671, 0.15391956, 0.195956, -191805.06, -191805.06, 0.0, 9.994221, 10.001467 
1.8047754e+3, 3.1517175e+2, -656428.5, -43508.375, -85397.95, 0.005675099, 0.29606655, -31832.336, -31832.336, 0.0, 9.994324, 10.002433 
1.8152925e+3, 1.2520997e+2, -1090165.1, -1782039.1, 11454.843, -0.051821575, 0.15397404, -1089975.5, 622982.9, 0.1006166, 10.006502, 9.996405 
1.815268e+3, 1.3520704e+2, -889703.2, -1592932.1, -13073.521, 0.1657002, 0.1742551, -889460.25, 725527.2, 0.06752551, 10.006863, 9.99687 
1.8152374e+3, 1.4520395e+2, -816693.8, -1498836.4, -32429.76, -0.1348383, 0.17613788, -815155.56, 701862.25, 0.036178693, 10.006426, 9.997045 
1.815211e+3, 1.5520094e+2, -875753.25, -1486995.1, -18619.05, -0.05511201, 0.17068338, -875186.6, 543860.5, 0.013639026, 10.005228, 9.9970255 
1.8151842e+3, 1.6519819e+2, -855094.94, -1356818.8, -32972.875, -0.023934336, 0.16599315, -852937.25, 468136.2, 0.0028262164, 10.00434, 9.997674 
1.8151568e+3, 1.7519574e+2, -840347.6, -1298344.6, -42016.516, -0.024930075, 0.15130591, -836524.94, 386571.1, 0.00016497614, 10.003755, 9.997685 
1.8151294e+3, 1.8519372e+2, -787348.6, -1123978.0, -57292.055, -0.022460695, 0.14194535, -777865.06, 347250.28, 0.00000012908751, 10.003021, 9.998563 
1.8151017e+3, 1.951922e+2, -812776.44, -1084662.0, -45315.39, -0.020867167, 0.13304596, -805422.6, 221707.73, 0.0, 10.002171, 9.99857 
1.815074e+3, 2.0519115e+2, -795167.44, -927486.75, -51231.418, -0.019354377, 0.1328544, -777650.56, 151488.94, 0.0, 10.001195, 9.999447 
1.815046e+3, 2.1519059e+2, -856674.9, -907986.8, -46917.125, -0.014799321, 0.1299757, -828857.06, 2285.499, 0.0, 10.000107, 9.999433 
1.8150184e+3, 2.2518988e+2, -843090.6, -850665.56, -40249.438, -0.005751303, 0.12314423, -806450.8, -73301.37, 0.0, 9.999528, 9.999432 
1.8149908e+3, 2.3518915e+2, -757391.94, -757973.94, -48524.066, 0.0071580145, 0.1051635, -709158.0, -73999.16, 0.0, 9.999439, 9.999438 
1.8149628e+3, 2.4518913e+2, -707746.6, -579611.75, -82404.14, 0.010392653, 0.119542114, -539299.7, -2139.5208, 0.0, 9.99866, 10.000365 
1.8149342e+3, 2.5518993e+2, -816923.0, -581898.8, -83060.445, 0.005367731, 0.15959418, -555507.7, -116355.14, 0.0, 9.99724, 10.0003605 
1.8149063e+3, 2.6519063e+2, -788845.8, -467662.88, -44672.953, 0.023630915, 0.18053329, -461565.13, -120418.57, 0.0, 9.996548, 10.000805 
1.8148793e+3, 2.7519134e+2, -695998.4, -373018.0, -43507.715, 0.06271009, 0.1669265, -367259.84, -124118.08, 0.0, 9.996514, 10.000798 
1.8148515e+3, 2.8519243e+2, -650710.9, -236361.45, -65348.33, 0.046937477, 0.17436022, -226299.52, -81167.445, 0.0, 9.995876, 10.001371 
1.8148227e+3, 2.9519427e+2, -719584.4, -213998.81, -76635.24, -0.015883531, 0.21937193, -202637.94, -155523.89, 0.0, 9.99471, 10.001414 
1.8147959e+3, 3.0519503e+2, -718043.44, -150283.55, 7520.625, 0.018307842, 0.14250836, -150183.94, -150183.94, 0.0, 9.994228, 10.001747 
1.8147698e+3, 3.1519735e+2, -597766.5, 75445.92, -92842.33, 0.012891362, 0.20142666, 88015.08, 88015.08, 0.0, 9.994332, 10.003247 
1.8252999e+3, 1.2523724e+2, -931854.5, -1704059.0, -19246.62, -0.05162154, 0.15000212, -931375.1, 781315.6, 0.10650693, 10.007789, 9.996327 
1.8252747e+3, 1.3523418e+2, -903802.7, -1602378.9, 13356.669, 0.16078924, 0.16181432, -903547.44, 711173.7, 0.07161255, 10.0068035, 9.996829 
1.8252438e+3, 1.452312e+2, -869534.0, -1520660.6, -13448.362, -0.11545589, 0.17644955, -869256.3, 647494.1, 0.038544487, 10.00605, 9.99707 
1.8252164e+3, 1.552283e+2, -836454.44, -1464406.6, 2953.8884, -0.045574635, 0.17874292, -836440.56, 582338.4, 0.014683963, 10.005496, 9.997048 
1.8251887e+3, 1.6522546e+2, -794809.0, -1321586.8, 6757.6206, -0.019989377, 0.16356683, -794722.3, 526083.25, 0.003113637, 10.004734, 9.997725 
1.8251605e+3, 1.7522281e+2, -833391.0, -1289428.1, 18890.469, -0.024162097, 0.12403624, -832609.9, 390219.66, 0.00018994861, 10.003782, 9.997731 
1.8251324e+3, 1.8522075e+2, -817734.6, -1142405.9, -1378.8953, -0.017523061, 0.111806996, -817728.75, 307120.3, 0.00000015151502, 10.002831, 9.998527 
1.8251039e+3, 1.9521937e+2, -856742.44, -1109623.5, -13734.229, -0.0062537547, 0.11983444, -855998.75, 170864.48, 0.0, 10.001887, 9.998533 
1.8250753e+3, 2.0521836e+2, -794012.8, -940932.75, -31636.084, -0.0049553053, 0.13257587, -787490.25, 141382.34, 0.0, 10.001266, 9.999319 
1.8250467e+3, 2.1521777e+2, -744230.9, -866829.25, -45106.336, -0.010101626, 0.14106266, -729423.75, 101452.75, 0.0, 10.000938, 9.999313 
1.8250182e+3, 2.2521707e+2, -753849.06, -795684.8, -33425.363, -0.0025893429, 0.13551405, -735335.8, -2452.425, 0.0, 10.00009, 9.999538 
1.82499e+3, 2.3521635e+2, -849394.25, -789713.3, -20065.057, 0.016527586, 0.10765393, -783594.6, -148702.6, 0.0, 9.998757, 9.999548 
1.824961e+3, 2.4521632e+2, -793791.0, -624940.0, -44669.06, 0.013833125, 0.1169193, -613851.1, -76957.75, 0.0, 9.998089, 10.000328 
1.8249317e+3, 2.5521705e+2, -707263.3, -533025.0, -48005.97, -0.008669808, 0.15667926, -520673.97, -81787.414, 0.0, 9.998012, 10.000323 
1.824903e+3, 2.6521778e+2, -674485.3, -403123.9, -6262.6714, 0.005419339, 0.17374757, -402979.44, -62098.836, 0.0, 9.9972925, 10.000889 
1.8248755e+3, 2.752185e+2, -767675.1, -398185.66, -7030.6924, 0.055524364, 0.15499243, -398051.9, -155176.95, 0.0, 9.995985, 10.000879 
1.824847e+3, 2.8521964e+2, -732396.5, -275762.3, -21640.383, 0.060207956, 0.16534147, -274739.03, -129874.48, 0.0, 9.995317, 10.001369 
1.8248178e+3, 2.952215e+2, -646873.75, -177645.64, -22966.957, 0.01942399, 0.21148144, -176524.17, -129677.28, 0.0, 9.995205, 10.001425 
1.8247895e+3, 3.0522224e+2, -704579.94, -145069.86, 54141.84, -0.045993175, 0.13246767, -139878.9, -139878.9, 0.0, 9.994329, 10.001733 
1.8247639e+3, 3.152242e+2, -771727.44, 40825.9, -51480.613, 0.06005632, 0.16116516, 44074.547, 44074.547, 0.0, 9.992926, 10.003688 
1.8353075e+3, 1.2526506e+2, -931903.44, -1684618.8, -87176.68, -0.054285776, 0.17140435, -921938.9, 790480.9, 0.11278842, 10.007747, 9.996499 
1.835281e+3, 1.3526194e+2, -895034.94, -1577602.4, -17990.484, 0.103120685, 0.15799554, -894561.1, 719888.6, 0.075960115, 10.006804, 9.997013 
1.8352498e+3, 1.4525914e+2, -865145.75, -1511493.5, -32668.188, -0.11632002, 0.17768568, -863498.8, 652978.0, 0.041057646, 10.0060625, 9.997129 
1.8352225e+3, 1.5525639e+2, -831534.56, -1453621.0, -15765.846, 0.010720476, 0.1904937, -831135.25, 587368.1, 0.015797822, 10.005498, 9.997124 
1.835194e+3, 1.6525353e+2, -772578.1, -1274112.1, -28447.037, 0.036895618, 0.15136833, -770969.75, 549559.56, 0.003425759, 10.004727, 9.998055 
1.8351643e+3, 1.7525063e+2, -810954.94, -1243919.4, -16113.458, -0.020646721, 0.054966595, -810356.06, 412197.84, 0.00021854116, 10.003784, 9.998044 
1.835135e+3, 1.8524866e+2, -840780.5, -1192682.6, -36680.75, -0.02928737, 0.05309465, -836997.7, 287574.9, 0.00000018976193, 10.002839, 9.998179 
1.8351059e+3, 1.9524764e+2, -879478.06, -1160258.1, -47076.37, 0.004090105, 0.13173838, -871795.3, 154789.4, 0.0, 10.001899, 9.998182 
1.8350767e+3, 2.0524627e+2, -817642.56, -991537.56, -42887.754, 0.007812946, 0.14491035, -807640.5, 120958.375, 0.0, 10.00127, 9.998971 
1.8350475e+3, 2.1524473e+2, -766708.8, -914619.9, -56065.0, -0.01332562, 0.09092469, -747859.7, 82753.95, 0.0, 10.00094, 9.998986 
1.8350181e+3, 2.252442e+2, -725923.9, -737565.9, -82746.445, -0.015245103, 0.09849366, -648793.94, 83824.66, 0.0, 10.000088, 9.99994 
1.8349886e+3, 2.352447e+2, -822368.1, -733711.6, -67325.16, 0.0006434349, 0.15281825, -697431.75, -62818.016, 0.0, 9.9987545, 9.999935 
1.834959e+3, 2.4524476e+2, -798797.4, -634567.2, -46267.473, 0.0025368112, 0.15486354, -622429.6, -85816.03, 0.0, 9.998085, 10.000265 
1.8349296e+3, 2.552445e+2, -709535.3, -540307.0, -49397.3, -0.0093212, 0.101456985, -526943.4, -88326.734, 0.0, 9.998021, 10.00027 
1.8349001e+3, 2.6524502e+2, -667487.1, -392493.8, -54910.477, -0.014491729, 0.09926764, -381934.78, -41322.563, 0.0, 9.997306, 10.0009575 
1.8348707e+3, 2.752464e+2, -762738.1, -389400.53, -53399.656, -0.010846815, 0.13775411, -381912.78, -139313.0, 0.0, 9.995987, 10.00094 
1.834842e+3, 2.8524777e+2, -721291.94, -253478.75, -24326.314, 0.027286148, 0.16005304, -252217.17, -107630.14, 0.0, 9.995319, 10.001522 
1.8348138e+3, 2.9524937e+2, -634734.56, -156723.61, -27043.875, 0.08692338, 0.16544092, -155198.44, -108626.484, 0.0, 9.995222, 10.00156 
1.834784e+3, 3.0525094e+2, -727436.6, -194748.84, -2473.7075, -0.035110455, 0.18041487, -194737.36, -194737.36, 0.0, 9.994336, 10.00139 
1.8347564e+3, 3.152524e+2, -796524.5, -11930.385, -54586.43, 0.031101717, 0.18954553, -8150.86, -8150.86, 0.0, 9.992924, 10.00333 
1.8453152e+3, 1.252943e+2, -1025383.25, -1741645.9, -32134.178, -0.018849675, 0.17745087, -1023944.5, 688188.4, 0.119431615, 10.007116, 9.9963875 
1.8452875e+3, 1.3529095e+2, -865491.4, -1570044.9, 49518.715, 0.070084885, 0.15040332, -862028.06, 752136.94, 0.0805545, 10.007093, 9.996929 
1.8452562e+3, 1.4528807e+2, -801450.7, -1486154.0, 13888.764, -0.10047311, 0.17008968, -801169.06, 715023.7, 0.043717403, 10.006564, 9.997068 
1.8452281e+3, 1.552851e+2, -831431.4, -1460071.0, 19895.184, 0.01644577, 0.16730146, -830802.3, 587419.06, 0.016984213, 10.005534, 9.997062 
1.8451986e+3, 1.6528231e+2, -791616.2, -1287275.9, -12670.088, 0.04402125, 0.13940275, -791292.56, 528954.6, 0.0037651064, 10.004618, 9.998017 
1.8451682e+3, 1.7527972e+2, -809692.7, -1247229.9, -27188.06, -0.005213146, 0.07996628, -808009.7, 414259.56, 0.00025155762, 10.003813, 9.998006 
1.845138e+3, 1.8527773e+2, -791165.1, -1165490.0, -39795.63, -0.018355219, 0.07682793, -786981.06, 337306.94, 0.00000025167606, 10.003169, 9.998205 
1.845108e+3, 1.9527638e+2, -765488.94, -1102428.5, -24985.908, -0.00060722267, 0.12017249, -763646.2, 262656.25, 0.0, 10.002673, 9.998204 
1.8450782e+3, 2.0527488e+2, -747658.2, -971013.4, -181.32915, 0.0010540133, 0.12603305, -747658.0, 180659.83, 0.0, 10.00181, 9.998851 
1.8450482e+3, 2.152734e+2, -822328.7, -953954.8, 2229.8267, -0.010703367, 0.089924246, -822290.9, 8042.1265, 0.0, 10.000615, 9.998871 
1.845018e+3, 2.2527283e+2, -771257.0, -758466.94, -37291.86, -0.01084607, 0.09947038, -727025.75, 5312.7886, 0.0, 9.999774, 9.999946 
1.8449874e+3, 2.3527323e+2, -750233.2, -698036.3, -52826.906, 0.000713334, 0.14276077, -665212.7, -30878.463, 0.0, 9.999248, 9.999941 
1.8449572e+3, 2.452733e+2, -745169.2, -605496.8, -27766.426, -0.0026709496, 0.14627357, -600179.4, -63845.66, 0.0, 9.99844, 10.000293 
1.844927e+3, 2.5527316e+2, -801057.06, -579995.94, -25730.88, -0.02020261, 0.10394954, -577040.44, -138704.72, 0.0, 9.997377, 10.000306 
1.844897e+3, 2.6527375e+2, -754865.25, -431471.4, -39528.832, -0.025506133, 0.10207267, -426709.88, -86378.99, 0.0, 9.996697, 10.00098 
1.8448669e+3, 2.7527502e+2, -707686.5, -360833.7, -41437.723, -0.016771946, 0.13175939, -355951.94, -113633.34, 0.0, 9.99636, 10.000955 
1.8448374e+3, 2.8527632e+2, -675212.94, -239778.8, -12947.253, 0.022097306, 0.15041259, -239394.16, -95087.484, 0.0, 9.995675, 10.001444 
1.8448086e+3, 2.9527786e+2, -729422.6, -210165.55, -38955.03, 0.08082765, 0.15582062, -207259.38, -160966.31, 0.0, 9.994609, 10.001487 
1.8447778e+3, 3.0528003e+2, -803991.9, -204689.27, -13667.788, -0.03420371, 0.22231868, -204377.72, -204377.72, 0.0, 9.993701, 10.001625 
1.8447493e+3, 3.1528065e+2, -761695.5, -4666.3184, 25962.254, 0.01647177, 0.124584384, -3776.99, -3776.99, 0.0, 9.993203, 10.003245 
1.8553227e+3, 1.2532482e+2, -1050169.9, -1793111.1, -55550.504, 0.0270381, 0.17086586, -1046039.25, 665792.25, 0.12638931, 10.007135, 9.996029 
1.8552943e+3, 1.3532108e+2, -889553.1, -1612804.9, 49557.652, 0.052652735, 0.13646135, -886173.25, 727695.0, 0.085377686, 10.007093, 9.996613 
1.8552631e+3, 1.4531788e+2, -818741.0, -1515565.8, -23470.738, -0.07667375, 0.15079068, -817951.3, 697948.06, 0.04652395, 10.006551, 9.996865 
1.855233e+3, 1.5531436e+2, -846477.9, -1491618.4, -17038.738, -0.027180815, 0.11291646, -846028.2, 571905.4, 0.018249106, 10.005538, 9.996844 
1.8552029e+3, 1.6531172e+2, -816874.7, -1342384.0, -42174.777, 0.0023381459, 0.13166477, -813511.44, 506447.84, 0.004135376, 10.004627, 9.997635 
1.8551722e+3, 1.7531e+2, -833477.8, -1299071.0, -54911.17, 0.019474434, 0.194288, -827089.4, 394886.84, 0.00029016685, 10.003821, 9.997647 
1.8551415e+3, 1.8530786e+2, -765575.1, -1112971.8, -57221.45, 0.010669669, 0.17684923, -756392.56, 367603.44, 0.0000003514084, 10.003169, 9.998568 
1.8551105e+3, 1.953055e+2, -740957.2, -1051345.6, -42484.836, -0.02189907, 0.083058104, -735247.06, 290770.03, 0.0, 10.002669, 9.998558 
1.8550795e+3, 2.053041e+2, -741024.2, -957076.94, -44530.746, -0.02665741, 0.076406, -732205.9, 195824.4, 0.0, 10.001806, 9.99895 
1.8550488e+3, 2.1530369e+2, -816952.7, -942776.06, -40282.336, -0.0057581402, 0.13878712, -805161.3, 24874.125, 0.0, 10.000612, 9.99895 
1.855018e+3, 2.2530288e+2, -799330.0, -816664.06, -56321.0, 0.0077922367, 0.1386289, -751013.06, -18969.021, 0.0, 9.999772, 9.999549 
1.8549868e+3, 2.353018e+2, -776603.3, -754170.2, -71156.37, 0.015394636, 0.07480023, -693351.75, -59297.207, 0.0, 9.999251, 9.999556 
1.8549556e+3, 2.4530184e+2, -736895.7, -589647.06, -67372.94, -0.003848839, 0.089135915, -563473.3, -27418.506, 0.0, 9.998443, 10.0004015 
1.8549243e+3, 2.5530303e+2, -793589.6, -564735.1, -63739.758, -0.046549346, 0.16657884, -548180.1, -110135.516, 0.0, 9.9973755, 10.000413 
1.8548937e+3, 2.6530382e+2, -757659.4, -436979.2, -51436.91, -0.029575126, 0.18477185, -428930.72, -88893.37, 0.0, 9.996695, 10.000945 
1.8548636e+3, 2.7530432e+2, -709183.75, -366760.94, -51820.996, 0.038789794, 0.13867852, -359090.38, -117058.12, 0.0, 9.99637, 10.000911 
1.8548332e+3, 2.8530523e+2, -696683.5, -288623.84, -53456.49, 0.041671764, 0.13734543, -281737.2, -137712.53, 0.0, 9.995689, 10.001103 
1.8548022e+3, 2.9530683e+2, -750152.94, -254882.4, -82011.42, -0.012355892, 0.18266848, -241655.45, -195643.58, 0.0, 9.994613, 10.001181 
1.8547715e+3, 3.0530933e+2, -741483.7, -76016.56, -36042.695, -0.042055544, 0.25298125, -74070.13, -74070.13, 0.0, 9.993704, 10.002508 
1.8547426e+3, 3.153112e+2, -743675.9, 25958.84, 37231.57, 0.03311613, 0.1921752, 27755.744, 27755.744, 0.0, 9.99323, 10.003444 
1.8653302e+3, 1.2535545e+2, -944734.1, -1742500.6, -66833.74, 0.019026997, 0.16534975, -939173.8, 772357.44, 0.13360025, 10.008061, 9.995933 
1.8653011e+3, 1.3535163e+2, -870133.56, -1611699.1, 54953.6, 0.026469538, 0.13313283, -866083.4, 747485.56, 0.09040943, 10.007319, 9.996511 
1.86527e+3, 1.453486e+2, -823247.2, -1520394.4, -21612.273, -0.022020202, 0.16900627, -822577.8, 693020.9, 0.04947992, 10.006552, 9.996831 
1.8652387e+3, 1.5534495e+2, -817995.7, -1481087.4, -3665.8445, -0.023028517, 0.1240981, -817975.44, 599658.56, 0.019600634, 10.005762, 9.996807 
1.8652074e+3, 1.6534217e+2, -771643.5, -1328180.5, -6440.5356, -0.016246878, 0.13413998, -771569.0, 548092.4, 0.0045410926, 10.004977, 9.997562 
1.8651761e+3, 1.7534027e+2, -784436.1, -1283175.9, 56.292156, 0.004223761, 0.18775931, -784436.1, 437244.16, 0.00033572572, 10.004192, 9.997577 
1.8651445e+3, 1.8533818e+2, -755606.8, -1100830.5, -4104.0376, 0.0056069326, 0.17638937, -755558.06, 368141.66, 0.00000050835786, 10.003207, 9.9986315 
1.8651128e+3, 1.9533606e+2, -826360.7, -1084880.4, -11687.484, -0.013282928, 0.100724764, -825833.4, 199885.02, 0.0, 10.002052, 9.998624 
1.865081e+3, 2.0533474e+2, -819575.7, -987792.1, -25305.727, -0.018327441, 0.09438331, -815851.3, 111879.516, 0.0, 10.00124, 9.99901 
1.8650495e+3, 2.1533424e+2, -795568.06, -925901.0, -25577.344, -0.009156458, 0.14282288, -790728.4, 39008.14, 0.0, 10.000733, 9.999006 
1.8650177e+3, 2.253334e+2, -753695.44, -798185.3, -19114.31, -0.00067880296, 0.139847, -746611.3, -14866.134, 0.0, 10.000102, 9.999516 
1.864986e+3, 2.3533234e+2, -763052.44, -751167.44, -8106.919, 0.006367673, 0.08219874, -747058.3, -113302.81, 0.0, 9.999363, 9.99952 
1.864954e+3, 2.453323e+2, -722695.75, -598525.8, -11284.939, -0.007434521, 0.09892497, -597508.56, -61751.875, 0.0, 9.998612, 10.000257 
1.8649219e+3, 2.5533336e+2, -735701.9, -553152.06, -28287.273, -0.03696466, 0.1764096, -548869.25, -111120.97, 0.0, 9.997847, 10.000264 
1.8648906e+3, 2.653341e+2, -711692.7, -423292.16, -14304.42, -0.018583376, 0.2022906, -422584.4, -82842.58, 0.0, 9.997048, 10.000867 
1.86486e+3, 2.7533466e+2, -737748.4, -387328.34, -19407.252, 0.037394006, 0.16966702, -386256.78, -144520.19, 0.0, 9.996206, 10.000846 
1.8648285e+3, 2.8533548e+2, -750873.56, -313673.22, -22842.25, 0.019199423, 0.1633594, -312483.03, -168753.53, 0.0, 9.9953165, 10.001108 
1.8647963e+3, 2.953368e+2, -781112.56, -268770.63, -26960.648, -0.050755553, 0.18686791, -267355.78, -221637.72, 0.0, 9.994399, 10.001185 
1.8647654e+3, 3.0533892e+2, -755485.44, -82321.836, 8492.323, 0.00018649969, 0.21608663, -82214.72, -82214.72, 0.0, 9.9936075, 10.00251 
1.8647349e+3, 3.1534174e+2, -804208.4, -17545.68, 7527.3843, -0.045414135, 0.2511876, -17473.658, -17473.658, 0.0, 9.99288, 10.003311 
1.8753374e+3, 1.2538607e+2, -945363.06, -1728200.6, -87486.664, -0.066650994, 0.14694886, -935705.06, 775527.9, 0.14100909, 10.008056, 9.996039 
1.8753082e+3, 1.3538261e+2, -870974.6, -1603854.6, 31372.703, -0.010532697, 0.14325401, -869634.06, 743632.6, 0.0956356, 10.007315, 9.9965725 
1.8752773e+3, 1.4538012e+2, -818554.3, -1503800.9, -48553.277, 0.055120472, 0.22707108, -815131.2, 700159.7, 0.05259232, 10.006541, 9.996955 
1.8752448e+3, 1.5537673e+2, -810751.1, -1461850.3, -30042.51, 0.02138887, 0.19353025, -809367.9, 607955.9, 0.02104841, 10.005751, 9.996946 
1.8752123e+3, 1.6537349e+2, -760571.3, -1302490.8, -35062.063, -0.017823603, 0.14058146, -758312.25, 561042.3, 0.0049871732, 10.004965, 9.997746 
1.8751797e+3, 1.753705e+2, -773557.8, -1259681.8, -28263.107, -0.051149298, 0.06690485, -771920.1, 449461.84, 0.00038959665, 10.004186, 9.997743 
1.8751474e+3, 1.8536869e+2, -770517.7, -1132212.0, -46738.418, -0.034409884, 0.08474058, -764575.75, 358823.66, 0.000000733184, 10.003206, 9.998418 
1.8751152e+3, 1.9536799e+2, -840762.8, -1115845.6, -52428.883, 0.021975493, 0.17414351, -831109.0, 194298.0, 0.0, 10.002054, 9.998412 
1.8750827e+3, 2.0536667e+2, -817919.06, -986008.8, -43308.24, 0.022262935, 0.1772919, -807416.9, 120003.38, 0.0, 10.001245, 9.9990225 
1.8750499e+3, 2.1536492e+2, -793920.56, -923373.1, -42819.477, -0.02308082, 0.1002767, -781038.9, 48398.11, 0.0, 10.000734, 9.999024 
1.8750173e+3, 2.253643e+2, -730391.2, -750709.1, -46188.098, -0.03845421, 0.1034139, -693258.06, 38184.59, 0.0, 10.000104, 9.999842 
1.874985e+3, 2.353648e+2, -741901.2, -707662.5, -34079.53, -0.02971612, 0.16731364, -686644.1, -53206.62, 0.0, 9.999362, 9.999822 
1.8749525e+3, 2.4536462e+2, -751421.75, -659016.0, -39038.69, -0.015358192, 0.17623563, -644731.44, -109291.48, 0.0, 9.998613, 9.999842 
1.8749201e+3, 2.55364e+2, -763368.94, -613877.7, -55092.39, 0.006866216, 0.13045067, -595768.1, -158320.31, 0.0, 9.997858, 9.999844 
1.8748878e+3, 2.6536444e+2, -719331.75, -442501.13, -45596.992, 0.0044682687, 0.15209402, -435184.22, -95738.85, 0.0, 9.99706, 10.0007305 
1.8748555e+3, 2.7536592e+2, -743680.25, -402101.66, -50143.383, -0.028337156, 0.22536534, -394892.78, -153460.25, 0.0, 9.996214, 10.000743 
1.8748231e+3, 2.85367e+2, -725107.25, -260600.17, -57562.13, -0.050858177, 0.23116195, -253573.33, -110151.516, 0.0, 9.9953165, 10.001474 
1.874791e+3, 2.953679e+2, -759517.94, -223357.17, -58396.14, -0.033515684, 0.17228559, -217070.64, -171658.97, 0.0, 9.994394, 10.001502 
1.87476e+3, 3.053686e+2, -821129.6, -222947.2, -17727.283, 0.0933821, 0.0973628, -222422.31, -222422.31, 0.0, 9.993621, 10.00154 
1.8747275e+3, 3.153714e+2, -812757.5, -43062.945, -71593.34, -0.076323286, 0.23056899, -36460.313, -36460.313, 0.0, 9.992911, 10.003121 
1.885346e+3, 1.254186e+2, -878799.4, -1685941.6, -22924.479, -0.031803973, 0.17958513, -878148.8, 832766.06, 0.14859462, 10.0086355, 9.996065 
1.8853149e+3, 1.3541457e+2, -898722.4, -1627955.0, 71977.47, -0.0651645, 0.12833868, -891685.9, 721267.8, 0.10106138, 10.007188, 9.996466 
1.8852837e+3, 1.4541215e+2, -863011.7, -1516945.5, 2444.9563, 0.06314257, 0.21980996, -863002.5, 651974.56, 0.055874757, 10.006203, 9.997023 
1.8852507e+3, 1.554088e+2, -827668.7, -1461496.8, 15481.398, 0.035177473, 0.18502302, -827290.75, 589718.94, 0.02260208, 10.005604, 9.997019 
1.8852173e+3, 1.654057e+2, -773013.0, -1291607.1, 2166.9443, -0.008966407, 0.13743043, -773004.0, 546034.9, 0.0054780003, 10.004809, 9.997896 
1.8851836e+3, 1.7540298e+2, -812854.56, -1262960.3, 5808.4717, -0.058277022, 0.07668769, -812779.56, 408283.63, 0.00045295848, 10.003851, 9.997881 
1.8851504e+3, 1.8540116e+2, -797044.25, -1156965.1, -9318.323, -0.04246907, 0.09324901, -796803.1, 326277.75, 0.0000010252129, 10.003078, 9.998308 
1.8851174e+3, 1.9540022e+2, -787656.75, -1101921.1, -8709.1, 0.025291359, 0.16911115, -787415.56, 237675.92, 0.0, 10.002471, 9.998306 
1.8850842e+3, 2.0539884e+2, -737487.8, -944378.1, 14436.9795, 0.022895565, 0.17170037, -736485.25, 190620.08, 0.0, 10.001786, 9.999045 
1.8850507e+3, 2.1539721e+2, -747909.25, -898661.4, 14094.831, -0.03761635, 0.103996426, -746602.75, 82517.87, 0.0, 10.001042, 9.999045 
1.8850173e+3, 2.2539662e+2, -734190.7, -762659.8, -14660.733, -0.05140707, 0.114533156, -727990.94, 3135.2622, 0.0, 10.000126, 9.999747 
1.8849841e+3, 2.353971e+2, -791143.6, -740942.2, -35140.676, -0.02699012, 0.18611352, -722858.3, -89736.31, 0.0, 9.999069, 9.999732 
1.884951e+3, 2.4539685e+2, -792602.8, -669429.44, -24772.17, -0.00994491, 0.18818277, -664634.06, -129509.16, 0.0, 9.998293, 9.999924 
1.8849179e+3, 2.553961e+2, -774320.7, -610948.06, -4734.037, 0.006447793, 0.12077458, -610811.0, -173677.97, 0.0, 9.99775, 9.999913 
1.8848848e+3, 2.653964e+2, -739182.1, -460423.4, 16130.664, 0.0052958387, 0.13187647, -459493.1, -120361.65, 0.0, 9.9969635, 10.000653 
1.8848515e+3, 2.7539784e+2, -785479.3, -428919.03, 13969.019, -0.027499469, 0.2103191, -428372.6, -187253.25, 0.0, 9.995959, 10.00068 
1.8848181e+3, 2.853991e+2, -739514.5, -248602.44, 6163.7065, -0.06255788, 0.22844855, -248525.06, -105418.24, 0.0, 9.995139, 10.00164 
1.8847851e+3, 2.954002e+2, -733760.2, -197412.48, -8723.013, -0.043728285, 0.17290485, -197270.66, -152176.45, 0.0, 9.994516, 10.001619 
1.8847536e+3, 3.054007e+2, -826060.5, -259650.33, 41908.594, 0.08819676, 0.09070863, -256566.31, -256566.31, 0.0, 9.993735, 10.001233 
1.88472e+3, 3.1540328e+2, -857646.56, -31004.387, -24566.38, -0.08912256, 0.23372456, -30274.96, -30274.96, 0.0, 9.992468, 10.003413 
1.8953557e+3, 1.254528e+2, -894420.25, -1698563.8, -49057.21, 0.07810119, 0.2476782, -891438.56, 819141.25, 0.15637308, 10.008613, 9.995976 
1.8953212e+3, 1.3544737e+2, -921796.3, -1667703.9, 26500.188, -0.14062828, 0.086354345, -920856.0, 691775.06, 0.10671093, 10.007174, 9.996197 
1.8952893e+3, 1.4544451e+2, -867125.9, -1518236.4, -18288.49, 0.004094158, 0.14801042, -866612.56, 648045.8, 0.059345063, 10.006189, 9.997022 
1.895256e+3, 1.5544114e+2, -829719.7, -1463027.3, -5314.5146, 0.017586103, 0.10785836, -829675.1, 587016.8, 0.02426979, 10.005598, 9.997012 
1.8952222e+3, 1.654388e+2, -765447.25, -1275360.8, -32786.88, 0.0045594666, 0.13229188, -763347.75, 555366.7, 0.006016905, 10.0048065, 9.998012 
1.8951878e+3, 1.7543757e+2, -805572.0, -1247953.8, -28171.87, -0.02319071, 0.20976017, -803785.2, 416940.34, 0.0005267898, 10.003848, 9.997987 
1.8951535e+3, 1.8543544e+2, -798748.44, -1160650.6, -31663.486, -0.024130587, 0.19185014, -795999.06, 326746.8, 0.0000013718216, 10.003076, 9.998285 
1.8951195e+3, 1.9543268e+2, -789269.75, -1105437.5, -29949.79, -0.0045498083, 0.08653297, -786457.75, 238314.9, 0.0, 10.002469, 9.998284 
1.8950856e+3, 2.0543122e+2, -735534.2, -940802.44, -12780.095, -0.017358558, 0.08241557, -734741.56, 192044.88, 0.0, 10.001785, 9.999072 
1.8950514e+3, 2.1543103e+2, -748957.2, -899917.7, -12570.414, -0.055734977, 0.1559051, -747917.56, 80870.46, 0.0, 10.001036, 9.999042 
1.8950175e+3, 2.2543024e+2, -770350.8, -837774.2, -53873.113, -0.04203307, 0.1726066, -740511.0, -9714.236, 0.0, 10.000123, 9.999234 
1.8949835e+3, 2.3542911e+2, -824509.06, -811033.06, -72348.945, 0.012320462, 0.13654914, -745109.0, -112299.15, 0.0, 9.999069, 9.999252 
1.8949494e+3, 2.4542889e+2, -751468.1, -585452.8, -44224.156, 0.00600279, 0.13486141, -574407.06, -39594.94, 0.0, 9.998297, 10.000501 
1.8949151e+3, 2.5542954e+2, -734143.7, -529671.5, -23779.6, -0.0428058, 0.1495704, -526942.44, -90138.14, 0.0, 9.997757, 10.00047 
1.8948814e+3, 2.654299e+2, -738963.8, -462462.06, -20461.541, -0.018605227, 0.14073487, -460956.1, -122155.43, 0.0, 9.99697, 10.000637 
1.894848e+3, 2.7543032e+2, -785995.4, -433259.6, -22248.945, 0.03966845, 0.11797454, -431861.78, -191063.83, 0.0, 9.99597, 10.000648 
1.8948138e+3, 2.8543168e+2, -742164.75, -255367.75, -16165.324, -0.015848305, 0.15031257, -254831.53, -112046.22, 0.0, 9.995144, 10.001593 
1.8947792e+3, 2.954337e+2, -739908.56, -213236.6, -25308.4, -0.08626172, 0.1914101, -212023.23, -167257.13, 0.0, 9.994526, 10.001508 
1.8947461e+3, 3.0543527e+2, -796721.8, -205359.48, -188.69455, -0.034673326, 0.20830303, -205359.44, -205359.44, 0.0, 9.993758, 10.001597 
1.8947132e+3, 3.154363e+2, -824622.3, 37063.62, -126514.76, 0.0028169139, 0.15185164, 55254.777, 55254.777, 0.0, 9.992472, 10.003879 
1.905364e+3, 1.2548684e+2, -927836.3, -1691880.5, -25632.16, 0.053244416, 0.24359639, -926977.4, 783268.4, 0.16437337, 10.008303, 9.9961815 
1.9053283e+3, 1.3548145e+2, -909131.6, -1663562.0, 36062.063, -0.13608126, 0.08978422, -907411.75, 704884.94, 0.112606175, 10.00733, 9.996151 
1.9052958e+3, 1.4547856e+2, -841618.6, -1500366.5, 17175.447, 0.041431334, 0.15072891, -841171.1, 673152.94, 0.06301426, 10.006377, 9.997059 
1.9052613e+3, 1.5547517e+2, -849367.25, -1468585.3, 31982.742, -0.012352299, 0.10681084, -847719.7, 568637.94, 0.026055165, 10.005454, 9.997043 
1.9052264e+3, 1.6547279e+2, -798767.9, -1302797.1, -3680.392, -0.025746873, 0.13060006, -798741.0, 519639.97, 0.0066055814, 10.004631, 9.997906 
1.9051918e+3, 1.7547147e+2, -805432.5, -1258474.5, -16150.135, 0.000058366957, 0.20876788, -804857.5, 415536.47, 0.0006118366, 10.003897, 9.99789 
1.9051568e+3, 1.8546936e+2, -779406.56, -1138097.8, -14544.21, 0.0018185516, 0.19315377, -778817.75, 343596.16, 0.0000017786746, 10.003155, 9.998402 
1.9051218e+3, 1.9546674e+2, -791590.06, -1094790.0, -4716.5938, -0.019485142, 0.09137559, -791516.7, 232921.75, 0.0, 10.002404, 9.998387 
1.9050871e+3, 2.0546527e+2, -779920.7, -974404.06, 5228.1685, -0.031273343, 0.08580843, -779780.25, 146672.16, 0.0, 10.001536, 9.9989605 
1.9050525e+3, 2.154649e+2, -823454.06, -947137.8, -6076.6196, -0.033012155, 0.15429664, -823156.2, 5299.8447, 0.0, 10.000575, 9.998938 
1.9050176e+3, 2.2546399e+2, -810804.4, -852760.25, -26538.674, -0.016457602, 0.16257057, -797953.7, -67487.734, 0.0, 9.999827, 9.999272 
1.9049826e+3, 2.3546278e+2, -794534.6, -792638.8, -4483.4736, 0.011875896, 0.11458275, -789004.1, -156524.44, 0.0, 9.99926, 9.999286 
1.9049476e+3, 2.454627e+2, -720643.75, -564271.9, 24413.547, -0.005330685, 0.123251714, -560548.94, -26068.406, 0.0, 9.998485, 10.000554 
1.9049126e+3, 2.554637e+2, -762363.56, -536670.25, 3733.5405, -0.050002765, 0.16759962, -536608.5, -100138.98, 0.0, 9.997538, 10.000526 
1.9048782e+3, 2.65464e+2, -756637.44, -458881.7, -7503.578, -0.02563876, 0.14865315, -458692.72, -120227.11, 0.0, 9.9968, 10.000742 
1.904844e+3, 2.754641e+2, -742399.2, -400073.2, -1713.4169, 0.026881674, 0.08143356, -400064.6, -159599.4, 0.0, 9.99622, 10.000752 
1.9048089e+3, 2.8546548e+2, -720588.7, -243026.9, 9991.622, -0.009853908, 0.10990649, -242817.95, -100365.51, 0.0, 9.995286, 10.001608 
1.904774e+3, 2.954678e+2, -806476.6, -250924.97, 8966.851, -0.029184658, 0.18361153, -250780.28, -206349.38, 0.0, 9.994098, 10.001453 
1.9047388e+3, 3.0547002e+2, -826317.1, -177889.14, 35014.234, -0.10888945, 0.25237346, -176003.9, -176003.9, 0.0, 9.993375, 10.001972 
1.9047064e+3, 3.154699e+2, -802637.75, 39807.613, -111799.56, 0.06835611, 0.030574307, 54391.875, 54391.875, 0.0, 9.992662, 10.003803 
1.9153705e+3, 1.2552075e+2, -910859.5, -1639114.9, -26235.744, -0.10714932, 0.17359067, -909915.56, 799997.0, 0.17261058, 10.008294, 9.996624 
1.9153364e+3, 1.355167e+2, -905271.6, -1643016.9, 5412.831, -0.06393929, 0.1383933, -905231.94, 706719.2, 0.118748, 10.007329, 9.996292 
1.9153033e+3, 1.4551418e+2, -840318.5, -1492389.4, -15077.94, 0.15650485, 0.22488056, -839970.06, 674005.25, 0.066878974, 10.006375, 9.997121 
1.915266e+3, 1.5551075e+2, -847713.7, -1461812.3, -370.74057, -0.05872417, 0.17299342, -847713.5, 568295.0, 0.027955992, 10.005447, 9.997094 
1.9152303e+3, 1.6550754e+2, -822325.7, -1350263.1, -30502.047, -0.09935952, 0.12677641, -820569.25, 497470.8, 0.007243914, 10.004623, 9.997584 
1.9151957e+3, 1.7550467e+2, -826315.06, -1301914.9, -41204.14, 0.0101689445, 0.08215835, -822771.7, 397296.75, 0.00070864236, 10.003895, 9.997595 
1.9151603e+3, 1.8550296e+2, -762627.1, -1104053.9, -41238.484, 0.030983472, 0.1074388, -757716.8, 364367.9, 0.0000023137907, 10.003154, 9.998637 
1.9151242e+3, 1.9550234e+2, -777328.75, -1065498.6, -31532.467, -0.02352645, 0.18328437, -773918.75, 250170.95, 0.0, 10.002403, 9.998591 
1.9150884e+3, 2.0550083e+2, -797784.25, -1011850.56, -29880.543, -0.021876575, 0.17758787, -793691.6, 132412.72, 0.0, 10.001534, 9.998705 
1.9150536e+3, 2.1549873e+2, -838707.9, -978771.56, -39436.09, 0.027284821, 0.09831462, -828367.7, -242.21329, 0.0, 10.000572, 9.998723 
1.9150178e+3, 2.2549781e+2, -769757.25, -768282.7, -46813.016, 0.022181937, 0.08607124, -722201.1, 7933.234, 0.0, 9.999827, 9.999854 
1.9149815e+3, 2.3549801e+2, -756940.1, -715132.3, -24485.816, -0.03154149, 0.121740155, -703841.06, -71709.055, 0.0, 9.99926, 9.999821 
1.9149455e+3, 2.4549817e+2, -754147.06, -635399.3, -10205.044, -0.045622952, 0.1528609, -634528.7, -100397.65, 0.0, 9.998487, 10.000065 
1.9149104e+3, 2.5549844e+2, -793872.25, -604277.56, -29587.37, -0.01791137, 0.17370303, -599767.56, -163637.86, 0.0, 9.997544, 10.00006 
1.914875e+3, 2.654987e+2, -739428.75, -425129.66, -28302.508, -0.01932113, 0.15757878, -422601.34, -84474.375, 0.0, 9.996806, 10.000973 
1.9148391e+3, 2.7549914e+2, -723309.2, -364954.03, -23216.813, -0.074877225, 0.105440065, -363456.13, -123334.625, 0.0, 9.996236, 10.000988 
1.9148037e+3, 2.8550044e+2, -712001.9, -229547.69, -35049.91, -0.04879813, 0.1071102, -227014.64, -84905.74, 0.0, 9.995302, 10.001695 
1.9147697e+3, 2.9550242e+2, -805577.94, -252217.16, -28857.281, 0.134208, 0.1391689, -250716.34, -206626.11, 0.0, 9.994108, 10.001442 
1.9147319e+3, 3.0550495e+2, -796626.06, -119853.35, 16071.021, -0.14152254, 0.22301584, -119471.93, -119471.93, 0.0, 9.993386, 10.002367 
1.9146982e+3, 3.1550682e+2, -852812.6, -68465.375, -75447.4, -0.012764307, 0.15881656, -61273.926, -61273.926, 0.0, 9.99268, 10.003052 
1.925379e+3, 1.2555581e+2, -856126.25, -1614332.5, 37610.883, -0.101768985, 0.094002046, -854265.1, 855300.44, 0.18107751, 10.008849, 9.996568 
1.9253436e+3, 1.3555229e+2, -909763.1, -1666924.9, 17488.395, -0.08278647, 0.13446108, -909359.4, 702241.8, 0.12511934, 10.007439, 9.996074 
1.9253094e+3, 1.4554967e+2, -847373.5, -1489912.9, -1357.7932, 0.13928255, 0.22124022, -847370.6, 666256.56, 0.07092586, 10.006328, 9.997161 
1.9252715e+3, 1.5554635e+2, -843970.3, -1455384.8, 9995.177, -0.05830182, 0.17599347, -843807.0, 571852.44, 0.02996593, 10.0054655, 9.9971285 
1.9252348e+3, 1.6554318e+2, -812678.5, -1337374.5, 212.49156, -0.097674735, 0.12911482, -812678.4, 505012.06, 0.007930301, 10.004661, 9.997653 
1.9251993e+3, 1.7554028e+2, -821386.94, -1292739.6, 15017.119, -0.00515068, 0.07646794, -820908.94, 398809.84, 0.00081772014, 10.003903, 9.997652 
1.9251633e+3, 1.8553852e+2, -767679.94, -1116804.0, 15060.494, 0.019179445, 0.09829455, -767031.5, 354704.28, 0.0000031359323, 10.003167, 9.998542 
1.9251266e+3, 1.9553779e+2, -776185.1, -1074733.5, -439.2424, -0.014177751, 0.1757395, -776184.5, 247557.38, 0.0, 10.002456, 9.998501 
1.9250903e+3, 2.0553629e+2, -781131.25, -993877.8, -2985.6707, -0.008731266, 0.17074063, -781089.4, 144667.2, 0.0, 10.001609, 9.998791 
1.925054e+3, 2.1553425e+2, -821167.3, -961398.4, 11097.843, 0.029511735, 0.09024405, -820294.44, 7482.5635, 0.0, 10.000656, 9.9988 
1.9250175e+3, 2.2553346e+2, -761675.7, -762140.3, 5269.483, 0.017259989, 0.08524372, -756633.44, -26848.75, 0.0, 9.999877, 9.999871 
1.9249804e+3, 2.355338e+2, -759115.56, -715126.06, -16465.307, -0.03994579, 0.13401037, -709645.8, -77865.305, 0.0, 9.999242, 9.999827 
1.924944e+3, 2.4553378e+2, -770065.7, -659182.94, -18404.045, -0.0409067, 0.15647866, -656208.06, -122426.87, 0.0, 9.99845, 9.999919 
1.9249082e+3, 2.5553367e+2, -805982.8, -625061.8, -12900.854, 0.013370751, 0.15498285, -624146.56, -188362.47, 0.0, 9.997528, 9.999925 
1.9248718e+3, 2.6553404e+2, -761604.1, -421250.1, 3701.4438, -0.0030362715, 0.15190616, -421209.84, -83429.58, 0.0, 9.996595, 10.0011 
1.9248347e+3, 2.75535e+2, -799957.06, -387653.1, -970.3034, -0.10265932, 0.13384615, -387650.8, -147880.69, 0.0, 9.995653, 10.001111 
1.9247986e+3, 2.8553617e+2, -745246.94, -245782.89, -20513.578, -0.05966833, 0.120207556, -244941.78, -103183.66, 0.0, 9.995078, 10.00169 
1.9247645e+3, 2.9553777e+2, -708110.44, -205732.22, -19148.188, 0.18182048, 0.11828588, -205003.45, -161261.17, 0.0, 9.9947815, 10.001434 
1.9247249e+3, 3.0553997e+2, -731799.3, -67439.6, 7680.1157, -0.18104067, 0.15716337, -67350.836, -67350.836, 0.0, 9.993743, 10.002554 
1.9246912e+3, 3.1554326e+2, -974911.0, -150165.11, -15628.164, 0.05681992, 0.21540634, -149869.08, -149869.08, 0.0, 9.991946, 10.002841 
1.9353893e+3, 1.2559196e+2, -897711.5, -1676278.4, 18176.742, 0.034551803, 0.013077056, -897287.4, 811918.3, 0.18976752, 10.008811, 9.996071 
1.9353499e+3, 1.3558817e+2, -949785.75, -1746634.4, -27091.951, -0.18958922, 0.083133414, -948865.75, 662381.7, 0.13170552, 10.0074215, 9.995538 
1.9353144e+3, 1.4558508e+2, -850632.8, -1489456.4, -29535.537, 0.00040944308, 0.1470639, -849270.2, 664009.56, 0.07514336, 10.00632, 9.9971695 
1.9352773e+3, 1.5558198e+2, -843918.94, -1452474.6, -18215.982, -0.01775922, 0.12387687, -843374.2, 571936.0, 0.032079384, 10.005464, 9.99715 
1.9352402e+3, 1.6557968e+2, -784078.7, -1279253.5, -26896.412, -0.033121612, 0.14203562, -782622.0, 534710.4, 0.008663151, 10.004666, 9.998054 
1.9352028e+3, 1.7557815e+2, -795702.06, -1241161.1, -11996.322, -0.048307814, 0.18461931, -795379.25, 423967.5, 0.00093979295, 10.003908, 9.998005 
1.9351658e+3, 1.8557583e+2, -796537.56, -1177438.3, -11003.879, -0.033305645, 0.15781292, -796219.94, 325148.97, 0.0000044945964, 10.003167, 9.998127 
1.9351292e+3, 1.9557306e+2, -801960.8, -1128027.0, -25433.855, 0.00600827, 0.070579186, -799988.9, 223406.8, 0.0, 10.002452, 9.998138 
1.9350919e+3, 2.0557162e+2, -753766.1, -937226.06, -37565.016, 0.004636705, 0.07009755, -746372.4, 179037.08, 0.0, 10.001606, 9.999183 
1.935054e+3, 2.1557142e+2, -797988.3, -912962.4, -21832.756, -0.02861149, 0.13263217, -793982.0, 33429.41, 0.0, 10.000652, 9.999136 
1.9350168e+3, 2.255708e+2, -799995.06, -842674.7, -17627.715, -0.032445405, 0.1600519, -793655.94, -64238.145, 0.0, 9.999878, 9.999319 
1.9349799e+3, 2.3557001e+2, -794714.8, -789917.7, -38891.934, -0.015692985, 0.1508374, -753350.44, -121924.16, 0.0, 9.999243, 9.999314 
1.9349429e+3, 2.4556947e+2, -756599.5, -632747.5, -52302.656, 0.0070479666, 0.13438375, -613615.5, -80183.51, 0.0, 9.998453, 10.000101 
1.934906e+3, 2.5556928e+2, -791689.6, -597921.06, -46117.59, 0.040560227, 0.10946551, -587504.8, -152071.16, 0.0, 9.997536, 10.00011 
1.9348687e+3, 2.6557004e+2, -759453.5, -418750.1, -31430.373, 0.021883044, 0.129236, -415874.88, -78448.36, 0.0, 9.9966, 10.001116 
1.9348308e+3, 2.755715e+2, -800902.6, -390210.9, -33797.063, -0.058023654, 0.16726309, -387448.22, -148036.28, 0.0, 9.995651, 10.001097 
1.9347939e+3, 2.855726e+2, -750727.25, -260357.02, -30682.979, -0.045824185, 0.15134646, -258444.61, -117043.62, 0.0, 9.995088, 10.001587 
1.9347584e+3, 2.9557386e+2, -702483.56, -205159.52, -29411.97, 0.099671856, 0.123600274, -203426.13, -160038.13, 0.0, 9.994825, 10.00142 
1.9347182e+3, 3.0557495e+2, -726060.75, -62591.145, -58655.223, -0.23053569, 0.047884665, -57445.53, -57445.53, 0.0, 9.993771, 10.002576 
1.9346832e+3, 3.1557834e+2, -909837.94, -17490.129, 49811.805, 0.064664185, 0.12040916, -14718.191, -14718.191, 0.0, 9.991949, 10.003755 
1.9453976e+3, 1.2562923e+2, -983631.56, -1715161.9, 21978.791, 0.022507912, 0.018955115, -982971.8, 725867.9, 0.19869445, 10.008155, 9.996067 
1.945357e+3, 1.3562551e+2, -966111.4, -1747271.6, -9663.488, -0.19971745, 0.093925536, -965991.9, 644888.8, 0.13850302, 10.007308, 9.995586 
1.9453204e+3, 1.4562209e+2, -827556.75, -1466923.1, 18445.846, -0.030211449, 0.116154484, -827025.0, 685891.2, 0.07952335, 10.006472, 9.997263 
1.9452828e+3, 1.5561914e+2, -820868.6, -1430551.3, 34656.93, -0.01719243, 0.099615745, -818904.9, 596039.75, 0.034292024, 10.005599, 9.997234 
1.9452448e+3, 1.6561693e+2, -767537.7, -1276521.0, 18079.768, -0.026462778, 0.12704036, -766896.3, 550069.75, 0.009441357, 10.004814, 9.997998 
1.9452065e+3, 1.7561541e+2, -767538.75, -1232840.1, -68.173645, -0.06266608, 0.17888205, -767538.75, 451441.78, 0.0010754847, 10.004129, 9.997953 
1.9451688e+3, 1.856131e+2, -774339.9, -1162929.8, 1225.9597, -0.046645842, 0.15242845, -774336.0, 346666.9, 0.0000066792873, 10.003307, 9.9981575 
1.9451316e+3, 1.9561028e+2, -812468.75, -1130640.9, 16802.168, 0.012494629, 0.05829785, -811583.9, 211446.19, 0.0, 10.002373, 9.9981575 
1.9450936e+3, 2.0560887e+2, -764890.9, -952307.2, -699.6761, 0.01365892, 0.06306553, -764888.25, 160155.56, 0.0, 10.001575, 9.999092 
1.9450548e+3, 2.1560872e+2, -769415.0, -909035.8, -22071.004, -0.03228864, 0.14135523, -766009.1, 61036.13, 0.0, 10.000894, 9.999045 
1.9450167e+3, 2.2560796e+2, -776655.3, -838883.94, -11566.957, -0.036582883, 0.16195196, -774574.8, -45521.887, 0.0, 10.000073, 9.9992485 
1.9449791e+3, 2.3560682e+2, -813523.5, -805903.1, 2141.4846, -0.008295581, 0.12756063, -805342.56, -174278.19, 0.0, 9.999147, 9.9992485 
1.9449413e+3, 2.4560618e+2, -758948.5, -626538.25, 1417.3356, 0.011708341, 0.10187629, -626523.1, -93452.48, 0.0, 9.998411, 10.000162 
1.9449034e+3, 2.5560609e+2, -747229.06, -571272.06, -3406.275, 0.027988844, 0.08000778, -571206.1, -136135.2, 0.0, 9.997822, 10.000153 
1.9448653e+3, 2.6560682e+2, -718989.6, -424706.53, -11961.771, 0.018694857, 0.1081611, -424221.1, -87156.63, 0.0, 9.99699, 10.000886 
1.9448268e+3, 2.7560815e+2, -773098.2, -401348.53, -33340.34, -0.02134359, 0.15770032, -398382.06, -159329.66, 0.0, 9.995952, 10.000874 
1.944789e+3, 2.856092e+2, -761192.3, -260755.38, -15169.518, -0.025953675, 0.14434393, -260295.97, -119253.664, 0.0, 9.995, 10.001625 
1.9447522e+3, 2.9561058e+2, -796261.2, -234181.4, -4811.216, 0.034849994, 0.12280718, -234140.22, -191112.69, 0.0, 9.994118, 10.001559 
1.9447121e+3, 3.0561152e+2, -807497.06, -127795.26, -64164.207, -0.17737211, 0.035363678, -121791.16, -121791.16, 0.0, 9.993331, 10.0023365 
1.9446754e+3, 3.1561506e+2, -790825.75, 87292.414, 107226.945, 0.07830067, 0.15239297, 100196.266, 100196.266, 0.0, 9.992566, 10.004176 
1.955404e+3, 1.2566762e+2, -969861.9, -1669244.6, 12488.209, -0.12927175, 0.108554475, -969638.94, 738827.94, 0.20786224, 10.008161, 9.9964485 
1.955365e+3, 1.3566424e+2, -940738.25, -1669668.1, -34269.07, -0.12699167, 0.16031446, -939130.7, 671371.25, 0.14550643, 10.007291, 9.996129 
1.9553274e+3, 1.4566058e+2, -823436.25, -1449341.1, -10719.279, 0.028806373, 0.12600675, -823252.7, 689285.2, 0.08405813, 10.006457, 9.997405 
1.9552879e+3, 1.5565768e+2, -815860.94, -1415468.5, 3918.8567, -0.05772734, 0.10049937, -815835.4, 598729.1, 0.0366, 10.005591, 9.997342 
1.9552492e+3, 1.6565485e+2, -801676.75, -1346263.9, -6890.058, -0.075368844, 0.08560553, -801589.56, 515002.72, 0.010263871, 10.004808, 9.997522 
1.9552109e+3, 1.7565216e+2, -797709.3, -1294963.6, -23699.602, -0.051777653, 0.06680867, -796582.3, 422037.7, 0.0012248722, 10.004124, 9.997532 
1.9551723e+3, 1.8565035e+2, -744488.94, -1100889.0, -31827.467, -0.027671864, 0.08859399, -741668.94, 378968.78, 0.000009908067, 10.003304, 9.998587 
1.9551338e+3, 1.956494e+2, -786655.6, -1078396.5, -15603.603, 0.002410756, 0.1377607, -785823.5, 236822.69, 0.0, 10.002375, 9.998516 
1.955095e+3, 2.0564786e+2, -804610.94, -1036621.75, -25244.072, 0.016650125, 0.14592469, -801896.0, 122765.08, 0.0, 10.00158, 9.998513 
1.9550562e+3, 2.1564606e+2, -805372.1, -984253.06, -45968.785, 0.015382139, 0.11526628, -794250.5, 32429.05, 0.0, 10.000894, 9.99853 
1.9550171e+3, 2.2564483e+2, -748289.8, -780969.2, -45262.234, 0.0013664883, 0.09132265, -716508.25, 12182.763, 0.0, 10.000073, 9.999649 
1.954978e+3, 2.3564416e+2, -787380.56, -752178.2, -29917.424, -0.02152963, 0.06492365, -735068.4, -104372.73, 0.0, 9.999146, 9.99962 
1.9549392e+3, 2.4564385e+2, -763502.0, -637740.7, -19478.217, -0.031036537, 0.059299916, -634792.94, -102094.984, 0.0, 9.998415, 10.000084 
1.9549006e+3, 2.55644e+2, -753295.7, -587165.75, -24516.93, -0.029835038, 0.068026595, -583623.2, -148926.64, 0.0, 9.997832, 10.00004 
1.9548619e+3, 2.656443e+2, -752647.75, -497998.72, -50579.09, -0.016584964, 0.089358315, -488320.4, -151625.38, 0.0, 9.997001, 10.00038 
1.954823e+3, 2.7564478e+2, -802487.6, -468259.03, -71199.09, 0.0018465623, 0.099190235, -453723.94, -215030.56, 0.0, 9.995973, 10.000406 
1.9547842e+3, 2.8564575e+2, -745505.9, -232391.97, -50183.68, -0.004098341, 0.09589883, -227529.97, -86846.3, 0.0, 9.995015, 10.001814 
1.9547458e+3, 2.9564783e+2, -777683.4, -195318.17, -37250.26, -0.01715104, 0.12154362, -192945.17, -150283.56, 0.0, 9.994112, 10.001831 
1.954707e+3, 3.0564955e+2, -846052.75, -207789.34, -92782.836, -0.010270238, 0.12033459, -194575.3, -194575.3, 0.0, 9.993329, 10.001789 
1.9546682e+3, 3.15651e+2, -814380.9, 20371.008, 86113.29, 0.08317994, 0.09938158, 29161.906, 29161.906, 0.0, 9.992633, 10.00369 
1.965412e+3, 1.2570637e+2, -916383.5, -1630888.6, 53884.117, -0.16680534, 0.11241969, -912342.75, 795745.3, 0.21720545, 10.008658, 9.996547 
1.9653723e+3, 1.357033e+2, -944703.44, -1631725.6, -13126.148, -0.10772891, 0.16059981, -944452.75, 665665.75, 0.1526835, 10.007149, 9.996455 
1.9653335e+3, 1.4569964e+2, -875600.56, -1479708.4, 14419.0, 0.012892394, 0.11570457, -875256.6, 636897.44, 0.08873519, 10.006131, 9.997332 
1.9652931e+3, 1.5569675e+2, -838610.0, -1433933.6, 11663.225, -0.07319624, 0.0997497, -838381.56, 575799.6, 0.038998988, 10.005477, 9.997269 
1.9652538e+3, 1.656939e+2, -812067.25, -1344408.6, 15638.5, -0.07926316, 0.08397868, -811608.25, 504600.97, 0.011128666, 10.004713, 9.997579 
1.9652149e+3, 1.7569116e+2, -830128.44, -1304606.4, 34808.31, -0.041982643, 0.05576894, -827588.44, 390648.63, 0.0013871033, 10.003881, 9.99758 
1.9651756e+3, 1.8568936e+2, -759888.94, -1116159.0, 24275.475, -0.025252877, 0.08102297, -758242.44, 362012.25, 0.000014255441, 10.003237, 9.998511 
1.965136e+3, 1.9568847e+2, -739772.06, -1063752.3, 2885.1218, -0.017217912, 0.14633483, -739746.4, 282516.2, 0.0, 10.002736, 9.99844 
1.9650967e+3, 2.0568676e+2, -747641.8, -1015488.44, -3106.519, 0.006626479, 0.1429137, -747605.75, 176673.38, 0.0, 10.002003, 9.998452 
1.9650573e+3, 2.1568452e+2, -781339.94, -979599.0, 12450.544, 0.039060768, 0.076638006, -780561.1, 45740.082, 0.0, 10.001091, 9.998466 
1.9650175e+3, 2.2568321e+2, -724748.2, -775299.5, 9829.775, 0.022011071, 0.05236679, -722904.06, 5409.2515, 0.0, 10.000264, 9.999594 
1.9649772e+3, 2.3568279e+2, -739249.1, -734750.56, -10915.587, -0.03186797, 0.053786553, -725854.94, -95538.72, 0.0, 9.999505, 9.999565 
1.9649374e+3, 2.4568254e+2, -746054.44, -634681.2, -13212.685, -0.04096592, 0.06058964, -633135.2, -100817.13, 0.0, 9.99856, 10.000033 
1.9648983e+3, 2.5568265e+2, -809990.25, -619448.56, -17091.902, -0.016332023, 0.07004009, -617927.5, -183610.3, 0.0, 9.99747, 9.99999 
1.9648588e+3, 2.6568282e+2, -794078.7, -522362.44, -18034.602, -0.0034282296, 0.08444251, -521170.66, -184853.77, 0.0, 9.996741, 10.000334 
1.9648191e+3, 2.7568313e+2, -762589.44, -454116.7, -5418.1694, 0.0035870895, 0.08466466, -454021.53, -215704.98, 0.0, 9.996275, 10.000355 
1.9647793e+3, 2.8568405e+2, -702246.7, -226784.73, 6175.6143, -0.011383804, 0.08558737, -226704.53, -86396.89, 0.0, 9.99538, 10.001675 
1.9647396e+3, 2.9568598e+2, -776864.1, -202131.22, -6243.6025, -0.04975827, 0.11243925, -202063.4, -159776.25, 0.0, 9.994154, 10.001761 
1.9647014e+3, 3.056879e+2, -859044.44, -241489.27, -48692.977, 0.09616332, 0.14552614, -237673.48, -237673.48, 0.0, 9.993362, 10.001539 
1.9646594e+3, 3.1568822e+2, -797985.9, -7369.8115, 112701.32, -0.054127064, 0.044244934, 8381.798, 8381.798, 0.0, 9.992901, 10.003368 
1.9754213e+3, 1.2574545e+2, -938456.9, -1647666.5, 13453.151, -0.11204569, 0.041325033, -938201.75, 769502.2, 0.22658949, 10.008597, 9.996437 
1.975379e+3, 1.3574268e+2, -943590.0, -1613086.6, -56610.12, -0.14248261, 0.10566388, -938837.0, 670893.44, 0.15996605, 10.007135, 9.996596 
1.9753386e+3, 1.4573924e+2, -895785.44, -1518973.4, -5200.767, -0.075404696, 0.09114134, -895742.06, 616022.6, 0.09353078, 10.006143, 9.997037 
1.9752987e+3, 1.557363e+2, -854909.3, -1469423.5, -9206.777, -0.068613134, 0.098175064, -854771.44, 559023.5, 0.041483022, 10.005488, 9.997021 
1.9752587e+3, 1.6573398e+2, -774888.6, -1268933.9, -14288.665, -0.04695524, 0.12030644, -774475.75, 541341.75, 0.012033246, 10.004723, 9.998098 
1.9752187e+3, 1.7573223e+2, -797861.0, -1240372.9, 5746.717, -0.03619339, 0.1388704, -797786.4, 420047.16, 0.0015606313, 10.003891, 9.998017 
1.9751784e+3, 1.8572994e+2, -798185.75, -1197394.4, 6339.29, -0.040841725, 0.12509239, -798085.1, 321770.5, 0.000019593592, 10.003241, 9.997953 
1.9751385e+3, 1.9572747e+2, -773851.6, -1134854.3, -14657.209, -0.048594184, 0.08541439, -773257.5, 248622.7, 0.0, 10.002734, 9.997954 
1.9750983e+3, 2.0572549e+2, -717752.1, -953782.2, -35716.28, -0.018731484, 0.056667447, -712465.94, 211432.61, 0.0, 10.002001, 9.998879 
1.9750582e+3, 2.1572405e+2, -756530.44, -928252.9, -18840.84, 0.035895336, 0.027948925, -754487.56, 71423.34, 0.0, 10.001088, 9.998821 
1.9750176e+3, 2.2572306e+2, -761689.2, -852951.25, -17473.994, 0.02209231, 0.046509475, -758457.8, -30537.053, 0.0, 10.000265, 9.999062 
1.9749765e+3, 2.3572256e+2, -773810.5, -808062.75, -38322.242, -0.041809805, 0.094286054, -748961.7, -119034.52, 0.0, 9.999508, 9.999062 
1.9749363e+3, 2.457221e+2, -747487.4, -639743.06, -54049.32, -0.018680425, 0.10663709, -617303.06, -85371.06, 0.0, 9.998566, 9.999999 
1.9748965e+3, 2.5572187e+2, -809345.2, -620143.9, -55865.918, 0.06687628, 0.08609608, -604879.6, -170945.4, 0.0, 9.997475, 9.999986 
1.9748561e+3, 2.6572222e+2, -762355.6, -458950.28, -35198.28, 0.05576594, 0.09379174, -454920.44, -118989.29, 0.0, 9.996749, 10.000768 
1.9748151e+3, 2.757232e+2, -734413.6, -400675.38, -23116.072, -0.020969601, 0.11639591, -399081.88, -161159.38, 0.0, 9.996292, 10.000715 
1.9747742e+3, 2.8572398e+2, -735341.1, -300483.78, -40187.25, -0.053131353, 0.115639366, -296801.1, -156886.27, 0.0, 9.9953985, 10.001162 
1.9747335e+3, 2.957249e+2, -805551.06, -269406.22, -49765.965, -0.07192545, 0.09242287, -264825.97, -222920.17, 0.0, 9.994184, 10.001287 
1.974695e+3, 3.057264e+2, -855097.94, -240300.75, -69761.89, 0.13449076, 0.1086379, -232484.16, -232484.16, 0.0, 9.99339, 10.001535 
1.9746526e+3, 3.157274e+2, -809244.06, -37684.3, -14776.456, -0.025142545, 0.07396842, -37401.414, -37401.414, 0.0, 9.992923, 10.003154 
1.9854294e+3, 1.2578641e+2, -1078174.8, -1702692.0, 44404.387, -0.08258096, 0.06073653, -1075033.4, 632269.4, 0.23587656, 10.0073805, 9.996532 
1.9853862e+3, 1.357833e+2, -918359.8, -1574464.8, -18056.203, -0.1284593, 0.06564288, -917863.25, 691467.94, 0.16726586, 10.007277, 9.996834 
1.9853447e+3, 1.4578006e+2, -823746.8, -1493188.4, 45827.844, -0.10746005, 0.066888355, -820624.1, 690739.0, 0.09840354, 10.006774, 9.9969225 
1.9853044e+3, 1.5577716e+2, -806392.7, -1456291.6, 53828.93, -0.06674008, 0.09145494, -801964.4, 611429.1, 0.04403916, 10.005905, 9.996908 
1.9852637e+3, 1.6577478e+2, -729206.3, -1254570.4, 31815.916, -0.035232127, 0.11686611, -727286.56, 588130.44, 0.012974346, 10.005087, 9.998018 
1.9852227e+3, 1.7577289e+2, -740498.2, -1219913.5, 9130.076, -0.038452603, 0.13140102, -740324.4, 477109.84, 0.0017437488, 10.004323, 9.997948 
1.9851817e+3, 1.8577054e+2, -765360.3, -1176053.6, 19092.574, -0.043177277, 0.11231405, -764474.6, 354982.13, 0.0000256483, 10.003447, 9.997999 
1.985141e+3, 1.95768e+2, -807329.5, -1147155.3, 39664.88, -0.040110998, 0.06365423, -802761.2, 218720.4, 0.0, 10.002491, 9.997986 
1.9851e+3, 2.0576607e+2, -758750.1, -983904.06, 15098.538, -0.015655048, 0.043020193, -757742.1, 165757.73, 0.0, 10.001767, 9.998783 
1.9850592e+3, 2.1576475e+2, -745598.56, -933194.75, -8739.898, 0.021411799, 0.037118312, -745192.25, 80319.38, 0.0, 10.001212, 9.998726 
1.9850178e+3, 2.2576368e+2, -743903.75, -858093.56, -9422.091, 0.012872725, 0.05940122, -743131.56, -15608.957, 0.0, 10.000449, 9.998936 
1.9849761e+3, 2.3576294e+2, -779614.8, -823737.4, -303.80533, -0.02736882, 0.097046666, -779612.7, -150081.3, 0.0, 9.999528, 9.998942 
1.984935e+3, 2.4576241e+2, -725383.6, -631317.3, -3896.9507, -0.008181525, 0.10718667, -631156.2, -99618.84, 0.0, 9.998733, 9.999972 
1.984894e+3, 2.5576213e+2, -729962.8, -583914.6, -5656.7124, 0.052652087, 0.08716481, -583695.8, -150156.05, 0.0, 9.998033, 9.999964 
1.9848529e+3, 2.6576245e+2, -715880.6, -431290.72, 927.3128, 0.047204416, 0.09240198, -431287.7, -95751.02, 0.0, 9.997048, 10.000812 
1.9848113e+3, 2.7576348e+2, -798344.44, -426649.94, -18661.346, 0.00010914835, 0.11875896, -425715.38, -188188.44, 0.0, 9.995838, 10.000752 
1.9847696e+3, 2.857643e+2, -802394.75, -337185.13, -31021.594, -0.032606065, 0.12069781, -335125.63, -195606.42, 0.0, 9.994963, 10.001117 
1.9847275e+3, 2.95765e+2, -792823.3, -270638.13, -5586.802, -0.07246559, 0.080536164, -270578.38, -229065.45, 0.0, 9.994308, 10.001216 
1.984688e+3, 3.057667e+2, -829048.3, -198837.1, 5397.62, 0.10720122, 0.106111154, -198790.86, -198790.86, 0.0, 9.993446, 10.001791 
1.9846451e+3, 3.1576854e+2, -858624.9, -39006.77, 17915.883, -0.028665999, 0.1300615, -38615.336, -38615.336, 0.0, 9.99249, 10.003351 
1.9954367e+3, 1.258289e+2, -1072377.8, -1676742.8, 34854.777, -0.086524546, 0.14386855, -1070374.3, 636513.06, 0.2449935, 10.007385, 9.996767 
1.9953941e+3, 1.3582501e+2, -909062.44, -1541649.4, -20809.846, -0.07642986, 0.039452083, -908378.6, 700543.25, 0.17451477, 10.007268, 9.997114 
1.9953516e+3, 1.4582197e+2, -825832.3, -1489709.8, 16308.476, -0.09508949, 0.04635664, -825431.94, 685518.7, 0.10331022, 10.006768, 9.996954 
1.99531e+3, 1.5581919e+2, -809318.2, -1458526.5, 23196.055, -0.070759095, 0.07970067, -808490.44, 604488.06, 0.04665109, 10.005899, 9.996897 
1.9952686e+3, 1.6581617e+2, -774950.6, -1348131.6, 4318.458, -0.046145864, 0.07696275, -774918.1, 540090.6, 0.0139491, 10.00508, 9.9973755 
1.9952267e+3, 1.7581315e+2, -778574.5, -1299537.8, -17121.768, -0.05110588, 0.04030881, -778012.4, 439026.7, 0.0019356264, 10.004322, 9.997403 
1.9951852e+3, 1.8581113e+2, -723091.3, -1089513.6, -15163.915, -0.036384873, 0.047473826, -722464.9, 396593.44, 0.000032105352, 10.0034485, 9.998594 
1.9951437e+3, 1.9581002e+2, -771954.8, -1075639.0, 6914.4336, 0.0036543806, 0.08122038, -771797.44, 249270.45, 0.0, 10.002496, 9.998476 
1.995102e+3, 2.0580836e+2, -801580.75, -1074994.1, -5009.4653, 0.011974993, 0.10034582, -801489.0, 121595.51, 0.0, 10.001773, 9.998157 
1.99506e+3, 2.1580648e+2, -784210.2, -1014423.44, -28278.074, -0.007318595, 0.102134325, -780787.56, 44317.086, 0.0, 10.001213, 9.99817 
1.995018e+3, 2.2580495e+2, -723644.25, -817251.06, -43027.86, -0.0070416965, 0.089472905, -706871.25, 20248.664, 0.0, 10.00045, 9.999218 
1.994976e+3, 2.3580384e+2, -761593.06, -787173.44, -32335.37, 0.008877192, 0.06157321, -739610.25, -110480.25, 0.0, 9.999528, 9.999196 
1.9949335e+3, 2.458033e+2, -726884.8, -636790.0, -29320.846, -0.014509209, 0.06125973, -628088.2, -96953.25, 0.0, 9.998739, 9.999934 
1.9948909e+3, 2.558033e+2, -731870.75, -592776.9, -31581.207, -0.06719905, 0.071256496, -585942.25, -152807.3, 0.0, 9.99805, 9.999896 
1.994849e+3, 2.6580343e+2, -740770.25, -487209.78, -45564.766, -0.03250407, 0.080443166, -479270.38, -144135.83, 0.0, 9.997063, 10.0004225 
1.9948076e+3, 2.7580392e+2, -820895.44, -476573.47, -63428.09, 0.066256866, 0.0915474, -465260.94, -228129.4, 0.0, 9.995848, 10.000408 
1.9947651e+3, 2.8580487e+2, -769248.2, -270862.84, -56648.258, 0.049848612, 0.09843485, -264505.1, -125382.29, 0.0, 9.99497, 10.00157 
1.9947219e+3, 2.958061e+2, -764634.0, -217510.39, -31207.15, -0.056898437, 0.07003099, -215736.14, -174625.73, 0.0, 9.994328, 10.001574 
1.9946805e+3, 3.0580872e+2, -787190.7, -117953.05, -33002.605, 0.0063257464, 0.14557892, -116329.5, -116329.5, 0.0, 9.993467, 10.002339 
1.9946381e+3, 3.1581166e+2, -831171.3, 16515.727, -16302.851, 0.027545443, 0.21307139, 16829.15, 16829.15, 0.0, 9.992498, 10.003728 
2.0054446e+3, 1.2587164e+2, -1021544.44, -1657790.6, 65340.582, -0.060785428, 0.14621323, -1014903.5, 691564.7, 0.25399226, 10.007977, 9.996657 
2.0054011e+3, 1.3586761e+2, -949050.3, -1575234.8, -4522.0347, -0.066751495, 0.048633795, -949017.7, 659487.25, 0.18172146, 10.007076, 9.996926 
2.0053577e+3, 1.4586468e+2, -871451.7, -1501574.0, 17152.81, -0.110977106, 0.07270625, -870985.1, 639547.06, 0.108242095, 10.006413, 9.997029 
2.005316e+3, 1.5586156e+2, -811986.94, -1452050.1, 21684.973, -0.049505956, 0.06281259, -811253.1, 601309.4, 0.049312126, 10.005865, 9.996956 
2.0052738e+3, 1.658584e+2, -772461.94, -1354709.5, 23368.576, -0.02480009, 0.047329254, -771525.56, 543068.1, 0.0149567295, 10.005139, 9.997301 
2.005231e+3, 1.7585538e+2, -787525.2, -1312799.0, 39804.992, -0.058421746, 0.021233374, -784525.9, 432098.06, 0.0021366714, 10.004304, 9.997318 
2.0051885e+3, 1.8585333e+2, -713741.3, -1100621.5, 27977.537, -0.047717914, 0.03780763, -711728.56, 406915.38, 0.000038719987, 10.003585, 9.99845 
2.0051464e+3, 1.9585216e+2, -717207.56, -1063147.6, -3802.7256, 0.006811104, 0.08198905, -717165.75, 303488.78, 0.0, 10.002937, 9.998346 
2.005104e+3, 2.0585051e+2, -741506.2, -1043469.8, -6480.293, 0.016400913, 0.10587007, -741367.2, 181304.36, 0.0, 10.002179, 9.998176 
2.0050612e+3, 2.1584865e+2, -764622.44, -1003095.3, 15086.138, -0.011234998, 0.10688091, -763671.9, 61019.91, 0.0, 10.001343, 9.998183 
2.0050183e+3, 2.2584714e+2, -714848.75, -803723.5, 5033.6113, -0.008449669, 0.0927278, -714564.56, 12141.995, 0.0, 10.000475, 9.999297 
2.0049755e+3, 2.3584607e+2, -748608.06, -773689.8, -1302.8091, 0.01848449, 0.06218845, -748540.56, -119824.88, 0.0, 9.999589, 9.999257 
2.0049322e+3, 2.4584542e+2, -756188.7, -665167.56, -6835.4043, -0.009812167, 0.057726353, -664657.1, -133935.53, 0.0, 9.998601, 9.9998045 
2.0048884e+3, 2.5584525e+2, -816236.0, -646246.0, -16886.021, -0.07803535, 0.06523908, -644584.9, -211861.28, 0.0, 9.99753, 9.999777 
2.0048457e+3, 2.658453e+2, -785825.75, -512313.84, -17589.617, -0.04225181, 0.07450784, -511187.3, -176463.17, 0.0, 9.996774, 10.000386 
2.0048036e+3, 2.7584574e+2, -765877.6, -452702.44, -9085.277, 0.069829546, 0.08426639, -452439.1, -215717.45, 0.0, 9.996241, 10.00038 
2.0047602e+3, 2.858468e+2, -715546.2, -232276.88, -7220.696, 0.05656646, 0.096891545, -232169.02, -93456.94, 0.0, 9.995288, 10.001679 
2.0047161e+3, 2.9584834e+2, -813516.2, -237150.95, -11772.984, -0.047311787, 0.08803867, -236910.56, -196213.55, 0.0, 9.993979, 10.001604 
2.0046733e+3, 3.058507e+2, -835635.56, -119741.15, -31617.37, -0.024618858, 0.13396496, -118347.484, -118347.484, 0.0, 9.993044, 10.00253 
2.0046312e+3, 3.1585312e+2, -845225.6, 3221.4814, -20777.213, 0.09482122, 0.12158369, 3729.98, 3729.98, 0.0, 9.992441, 10.003658 
2.0154528e+3, 1.2591459e+2, -1048770.6, -1700271.5, 26238.332, -0.016468668, 0.0727416, -1047715.56, 658330.5, 0.26314995, 10.00799, 9.996262 
2.0154078e+3, 1.3591105e+2, -986200.5, -1652116.1, -27348.438, -0.100071, 0.087562345, -985079.25, 623001.7, 0.18904208, 10.007091, 9.996345 
2.0153637e+3, 1.4590815e+2, -868546.3, -1491630.3, 1841.6764, -0.15753701, 0.13768072, -868540.9, 641567.56, 0.11326457, 10.006426, 9.997103 
2.0153223e+3, 1.5590423e+2, -805376.8, -1437407.5, 3785.761, -0.009629636, 0.04273807, -805354.1, 606791.06, 0.052041393, 10.0058775, 9.997052 
2.0152792e+3, 1.6590138e+2, -742653.4, -1294334.6, -6798.619, 0.020882862, 0.03073305, -742569.56, 571602.5, 0.01600239, 10.00515, 9.997715 
2.0152351e+3, 1.758994e+2, -765184.8, -1269360.5, 10342.8955, -0.06348118, 0.06860385, -764972.75, 451217.88, 0.0023488046, 10.004314, 9.997614 
2.0151916e+3, 1.8589696e+2, -772077.7, -1223133.3, 4469.4346, -0.07853665, 0.07826178, -772033.44, 346181.94, 0.000045424615, 10.003588, 9.997609 
2.015149e+3, 1.9589439e+2, -767714.2, -1167885.9, -26144.38, -0.03167311, 0.06544142, -766013.4, 254228.98, 0.0, 10.002934, 9.997631 
2.015106e+3, 2.0589246e+2, -697536.3, -952774.0, -36007.01, -0.0034554221, 0.060415458, -692554.0, 229707.47, 0.0, 10.002178, 9.9988 
2.0150626e+3, 2.1589112e+2, -725973.5, -922998.1, -13950.991, 0.0059953397, 0.05356157, -724990.56, 99283.07, 0.0, 10.00134, 9.998737 
2.0150188e+3, 2.2589011e+2, -724964.25, -825873.25, -27160.504, 0.0047028246, 0.07127434, -718118.2, 8165.124, 0.0, 10.000476, 9.999146 
2.0149748e+3, 2.358895e+2, -758792.7, -796938.44, -33491.234, -0.0021897182, 0.09993436, -739324.2, -111034.55, 0.0, 9.999595, 9.999098 
2.0149308e+3, 2.4588867e+2, -770794.9, -698075.75, -46960.582, 0.0056302743, 0.09784073, -675044.1, -144745.77, 0.0, 9.998609, 9.9995775 
2.0148869e+3, 2.558879e+2, -828722.06, -673869.56, -54961.344, 0.021706155, 0.06899403, -656345.44, -224038.48, 0.0, 9.997533, 9.999588 
2.014843e+3, 2.6588804e+2, -761504.1, -464645.38, -37336.61, 0.01682961, 0.074170865, -460021.47, -125714.99, 0.0, 9.996782, 10.000711 
2.0147991e+3, 2.758889e+2, -740278.0, -407340.88, -29051.986, -0.0009247795, 0.09553231, -404824.8, -168526.67, 0.0, 9.99627, 10.000679 
2.0147547e+3, 2.8589e+2, -732340.7, -272869.7, -57601.992, -0.020255892, 0.11773196, -265758.44, -127470.83, 0.0, 9.99531, 10.001392 
2.01471e+3, 2.958916e+2, -837492.75, -288304.97, -61833.145, -0.045070693, 0.14106378, -281429.25, -241155.97, 0.0, 9.99398, 10.001254 
2.0146666e+3, 3.0589244e+2, -847868.9, -147150.81, -54144.043, 0.010841117, 0.0618143, -142991.83, -142991.83, 0.0, 9.993049, 10.002342 
2.0146224e+3, 3.1589568e+2, -882751.3, -81514.61, 10639.814, -0.021628084, 0.14961717, -81373.35, -81373.35, 0.0, 9.992473, 10.003059 
2.0254607e+3, 1.2595934e+2, -1033621.2, -1699689.6, 50226.492, -0.045528412, 0.076648094, -1029855.0, 675751.1, 0.27301127, 10.008279, 9.996127 
2.0254156e+3, 1.3595517e+2, -913564.2, -1645976.8, 25089.514, -0.057943873, 0.06996863, -912705.75, 694942.06, 0.19679692, 10.007939, 9.995976 
2.0253707e+3, 1.4595208e+2, -769614.6, -1449090.8, 55401.746, -0.13507152, 0.121330835, -765127.06, 744550.6, 0.11852105, 10.007262, 9.99703 
2.0253278e+3, 1.5594828e+2, -760186.44, -1422478.5, 49257.777, -0.048071392, 0.048855625, -756543.0, 655170.3, 0.054886054, 10.006261, 9.996969 
2.0252843e+3, 1.6594544e+2, -705920.06, -1285728.4, 17888.596, -0.009601587, 0.046142567, -705368.7, 608371.6, 0.017099198, 10.005458, 9.997623 
2.0252399e+3, 1.7594337e+2, -700717.56, -1247593.0, -1240.0538, -0.03822963, 0.08438317, -700714.75, 515045.0, 0.0025757751, 10.004805, 9.997525 
2.0251955e+3, 1.8594076e+2, -739539.4, -1214753.6, 5374.483, -0.054062955, 0.08465509, -739478.56, 378307.6, 0.000052382256, 10.003847, 9.99754 
2.0251516e+3, 1.9593793e+2, -808017.56, -1193479.4, 27997.594, -0.047992103, 0.053867247, -805994.6, 213821.22, 0.0, 10.002686, 9.997574 
2.0251076e+3, 2.0593598e+2, -735596.2, -951446.3, 27909.465, -0.018754745, 0.043039855, -732045.9, 189788.66, 0.0, 10.001835, 9.998974 
2.0250638e+3, 2.1593486e+2, -735922.75, -909779.7, 14478.487, 0.021868324, 0.039896276, -734725.25, 89118.69, 0.0, 10.001198, 9.998894 
2.0250192e+3, 2.259339e+2, -738407.5, -838111.8, -12209.461, 0.01850538, 0.05898209, -736934.1, -11080.997, 0.0, 10.000412, 9.999092 
2.0249741e+3, 2.3593321e+2, -773809.56, -809952.6, -12100.277, -0.013150401, 0.08764557, -770132.6, -142271.97, 0.0, 9.999519, 9.9990425 
2.0249294e+3, 2.4593244e+2, -747449.44, -686410.2, -10931.298, -0.00081644295, 0.094097495, -684511.6, -154642.28, 0.0, 9.998772, 9.999576 
2.0248848e+3, 2.5593182e+2, -742905.8, -632171.06, -3521.0022, 0.040570345, 0.08025985, -632059.2, -200182.14, 0.0, 9.998124, 9.999588 
2.0248398e+3, 2.6593193e+2, -717571.2, -435674.13, 8141.8843, 0.026581757, 0.08410168, -435439.16, -101562.77, 0.0, 9.997053, 10.000778 
2.0247948e+3, 2.759327e+2, -823536.3, -441074.53, -4846.2764, -0.021999033, 0.08945864, -441013.13, -205144.56, 0.0, 9.995675, 10.000732 
2.0247495e+3, 2.8593388e+2, -824226.56, -330023.56, -37405.367, -0.03814346, 0.11901714, -327208.47, -189350.45, 0.0, 9.99474, 10.001271 
2.0247039e+3, 2.9593566e+2, -826329.94, -291193.66, -29897.35, -0.041046083, 0.17995289, -289528.5, -249686.5, 0.0, 9.9941, 10.001174 
2.0246601e+3, 3.0593592e+2, -835809.1, -169614.67, -166.40263, 0.06234722, 0.055942148, -169614.64, -169614.64, 0.0, 9.993254, 10.002089 
2.024614e+3, 3.159396e+2, -930747.4, -111710.37, 51728.67, -0.08255218, 0.21507278, -108456.23, -108456.23, 0.0, 9.992178, 10.002993 
2.0354678e+3, 1.2600572e+2, -1040449.8, -1696977.3, 26477.455, -0.14799264, 0.14926535, -1039383.75, 665766.1, 0.2842322, 10.008302, 9.996142 
2.0354246e+3, 1.3599998e+2, -934066.1, -1680143.6, 16244.198, 0.04253429, 0.008108948, -933712.56, 673493.4, 0.20537384, 10.0079365, 9.995743 
2.0353787e+3, 1.4599648e+2, -786793.3, -1476280.9, 23287.764, -0.060057327, 0.040598188, -786007.6, 723232.5, 0.12418949, 10.007262, 9.996822 
2.0353329e+3, 1.5599358e+2, -776315.3, -1458043.1, 16051.377, -0.15989596, 0.07626461, -775937.6, 635330.8, 0.05790979, 10.006277, 9.996717 
2.0352885e+3, 1.6599041e+2, -743583.4, -1365521.3, -4746.467, -0.109893404, 0.08619547, -743547.1, 569752.6, 0.018267194, 10.005463, 9.997072 
2.035245e+3, 1.7598727e+2, -733288.0, -1312567.6, -24033.4, 0.012714347, 0.07073056, -732292.56, 483038.78, 0.0028233952, 10.004789, 9.997088 
2.0352e+3, 1.859847e+2, -697249.9, -1125637.5, -36106.664, 0.017602254, 0.061155938, -694227.94, 423128.63, 0.000060133192, 10.003838, 9.998158 
2.0351541e+3, 1.9598266e+2, -770077.56, -1116673.0, -11269.026, -0.04722481, 0.049852487, -769711.56, 249664.39, 0.0, 10.002691, 9.9981 
2.0351093e+3, 2.0598099e+2, -753686.06, -991463.06, 5140.878, -0.03205699, 0.054365333, -753575.0, 167817.06, 0.0, 10.001842, 9.998697 
2.035065e+3, 2.1597973e+2, -753102.6, -946160.44, -8034.597, 0.0338062, 0.06449397, -752768.8, 70635.125, 0.0, 10.001198, 9.998646 
2.0350198e+3, 2.2597836e+2, -735259.44, -833518.5, -44671.426, 0.030649545, 0.054403048, -717986.8, 7430.358, 0.0, 10.000417, 9.999123 
2.0349735e+3, 2.3597711e+2, -770101.2, -803476.2, -42769.34, -0.017719513, 0.023688309, -740879.1, -113449.42, 0.0, 9.999521, 9.999088 
2.0349278e+3, 2.4597666e+2, -731330.6, -656126.25, -34517.434, -0.033189647, 0.046162974, -642685.56, -113250.14, 0.0, 9.998781, 9.999782 
2.034882e+3, 2.559769e+2, -727583.94, -606053.06, -28891.756, -0.029260688, 0.100222066, -599534.25, -168099.61, 0.0, 9.998144, 9.99976 
2.0348364e+3, 2.65977e+2, -730414.3, -466623.2, -44508.48, -0.017568184, 0.104640916, -459315.88, -125881.19, 0.0, 9.997067, 10.000562 
2.0347907e+3, 2.7597708e+2, -838478.44, -473058.94, -54392.21, 0.006630301, 0.06366392, -465134.6, -229700.42, 0.0, 9.995675, 10.000515 
2.0347445e+3, 2.859782e+2, -821176.75, -324304.97, -61626.6, 0.0054453406, 0.099611774, -316775.56, -179351.1, 0.0, 9.994738, 10.001314 
2.034698e+3, 2.9598054e+2, -807920.56, -260833.55, -54514.652, -0.0363486, 0.20406778, -255454.31, -216050.14, 0.0, 9.994128, 10.001371 
2.0346539e+3, 3.0598113e+2, -854326.0, -213281.25, -38423.62, 0.12172157, 0.11720915, -210986.39, -210986.39, 0.0, 9.993273, 10.001781 
2.0346065e+3, 3.1598225e+2, -845148.1, 61769.684, -53670.695, -0.048726924, 0.060667425, 64934.83, 64934.83, 0.0, 9.992186, 10.004186 
2.0454769e+3, 1.2605156e+2, -932887.2, -1641916.6, 20561.85, -0.11732029, 0.10213715, -932291.4, 772407.06, 0.2972884, 10.009486, 9.996108 
2.0454322e+3, 1.3604587e+2, -943677.5, -1699975.0, 28043.82, 0.011709502, -0.016016347, -942639.06, 664114.6, 0.21506487, 10.008007, 9.995573 
2.0453857e+3, 1.46042e+2, -807623.4, -1509887.3, 45425.918, -0.07653569, 0.0039535016, -804697.25, 704094.75, 0.13041505, 10.007266, 9.996559 
2.0453396e+3, 1.5603915e+2, -702457.1, -1446189.9, 31733.504, -0.14139593, 0.072417356, -701105.56, 709715.56, 0.061172403, 10.006952, 9.996473 
2.0452943e+3, 1.6603597e+2, -684217.1, -1336350.4, 17325.814, -0.09512599, 0.0893769, -683757.1, 629096.25, 0.01952832, 10.005889, 9.9970665 
2.0452493e+3, 1.7603265e+2, -798937.44, -1344706.1, 35320.984, 0.0035985166, 0.059823677, -796661.06, 418225.47, 0.0030988017, 10.004341, 9.997082 
2.0452034e+3, 1.8603012e+2, -737626.2, -1137139.0, 29105.605, 0.015179265, 0.05182262, -735516.9, 381394.28, 0.00006974504, 10.003528, 9.998227 
2.0451573e+3, 1.960283e+2, -691653.06, -1071196.0, 13191.96, -0.025268868, 0.055074487, -691195.1, 327733.06, 0.0, 10.0032015, 9.998164 
2.0451114e+3, 2.0602663e+2, -693033.94, -970790.3, 14720.358, -0.02283742, 0.06292773, -692255.94, 228688.38, 0.0, 10.0023, 9.998616 
2.0450658e+3, 2.160252e+2, -784177.8, -967795.8, 15198.283, 0.006512379, 0.067657344, -782928.3, 40029.957, 0.0, 10.001016, 9.998584 
2.0450197e+3, 2.2602387e+2, -758703.4, -824822.56, -454.74478, 0.010482276, 0.051980227, -758700.25, -33728.836, 0.0, 10.000174, 9.999298 
2.0449731e+3, 2.3602273e+2, -743035.9, -772134.9, 9604.232, -0.0009121859, 0.015546264, -740151.8, -113169.445, 0.0, 9.999632, 9.999248 
2.0449264e+3, 2.4602233e+2, -740399.0, -658213.25, 8332.26, -0.02084465, 0.03792818, -657377.0, -128389.59, 0.0, 9.998713, 9.999799 
2.0448796e+3, 2.560226e+2, -813367.06, -644331.8, -1184.5593, -0.049387433, 0.09597935, -644323.5, -213337.03, 0.0, 9.997546, 9.9997835 
2.044833e+3, 2.660228e+2, -776608.06, -484077.44, -14355.323, -0.035520107, 0.10653265, -483374.66, -150388.69, 0.0, 9.996734, 10.0006 
2.0447865e+3, 2.7602303e+2, -769296.8, -435002.66, -6212.2715, 0.017923344, 0.07788064, -434887.25, -199902.94, 0.0, 9.996135, 10.000552 
2.0447396e+3, 2.8602418e+2, -773312.4, -290066.88, -1312.3159, 0.026073392, 0.107171394, -290063.3, -153088.81, 0.0, 9.995022, 10.0014105 
2.0446919e+3, 2.960262e+2, -880755.2, -279544.5, 7578.312, -0.027833182, 0.17830822, -279449.0, -240493.0, 0.0, 9.993562, 10.001514 
2.0446466e+3, 3.0602726e+2, -947377.3, -249826.17, 39925.652, 0.102370024, 0.12055285, -247548.39, -247548.39, 0.0, 9.992608, 10.001846 
2.0445985e+3, 3.1602845e+2, -821186.0, 146164.22, -395.01404, -0.05432944, 0.072103076, 146164.39, 146164.39, 0.0, 9.992043, 10.004831 
2.0554875e+3, 1.2609714e+2, -956011.75, -1652276.5, -27367.992, 0.0055937674, -0.02299779, -954937.6, 749311.06, 0.31226692, 10.009453, 9.996035 
2.0554385e+3, 1.3609265e+2, -952665.75, -1711780.4, -10051.127, -0.13715935, -0.012713228, -952532.7, 653759.94, 0.22595298, 10.008059, 9.995466 
2.0553918e+3, 1.4608848e+2, -829237.4, -1555908.5, 36588.906, -0.17264837, -0.0014324599, -827399.75, 680935.44, 0.13726574, 10.007294, 9.996232 
2.0553477e+3, 1.5608506e+2, -727181.94, -1485252.0, 19357.67, -0.011294717, 0.0432752, -726688.0, 683683.4, 0.06471728, 10.0069065, 9.99623 
2.0553012e+3, 1.6608204e+2, -658469.8, -1273733.1, -37467.883, 0.014432424, 0.06467782, -656196.5, 656204.9, 0.02090383, 10.005855, 9.99752 
2.055253e+3, 1.7607936e+2, -771235.25, -1292723.3, -15594.113, -0.06522316, 0.052596547, -770769.4, 443657.53, 0.0034098884, 10.004363, 9.99743 
2.0552063e+3, 1.8607685e+2, -765281.6, -1200196.9, 18674.809, -0.056536976, 0.054570936, -764481.25, 351970.5, 0.00008264387, 10.003549, 9.9977865 
2.0551607e+3, 1.9607468e+2, -719396.94, -1127766.1, 233.61609, 0.015599174, 0.06716993, -719396.8, 299076.84, 0.0, 10.003193, 9.997782 
2.0551138e+3, 2.0607279e+2, -687385.8, -958460.3, -31913.307, 0.0046721892, 0.06784634, -683679.4, 236813.03, 0.0, 10.002294, 9.998706 
2.0550662e+3, 2.1607128e+2, -777027.4, -953105.6, -27501.477, -0.06318525, 0.05152712, -772831.94, 49675.76, 0.0, 10.001013, 9.998688 
2.0550193e+3, 2.2607031e+2, -737430.1, -782553.6, -19255.865, -0.04341588, 0.05439232, -730330.1, -5813.4854, 0.0, 10.000177, 9.999589 
2.0549731e+3, 2.3606993e+2, -725255.25, -737176.8, -11292.629, 0.03554293, 0.06488512, -718446.75, -91927.195, 0.0, 9.999637, 9.999488 
2.0549256e+3, 2.4606937e+2, -752308.8, -685335.5, -35786.125, 0.035300672, 0.070106894, -669811.94, -141285.64, 0.0, 9.998718, 9.999612 
2.0548774e+3, 2.5606886e+2, -822779.0, -664873.5, -42289.5, -0.0205932, 0.06428242, -654261.0, -223727.0, 0.0, 9.997546, 9.999644 
2.0548296e+3, 2.6606926e+2, -755034.94, -441190.22, -36451.758, -0.028480647, 0.08932866, -437012.13, -104480.82, 0.0, 9.9967375, 10.000895 
2.0547825e+3, 2.7607054e+2, -744357.4, -390078.47, -30929.635, 0.0052270517, 0.135522, -387398.47, -152879.1, 0.0, 9.996159, 10.000852 
2.0547344e+3, 2.8607166e+2, -760203.0, -268376.78, -56948.14, 0.017065357, 0.14207757, -261868.92, -125360.47, 0.0, 9.995041, 10.001553 
2.0546854e+3, 2.9607266e+2, -873723.4, -267577.7, -43045.758, -0.020197727, 0.09284938, -264536.03, -226037.45, 0.0, 9.993568, 10.0015955 
2.054638e+3, 3.0607417e+2, -922711.25, -195648.27, 15356.638, -0.003703266, 0.06088494, -195324.06, -195324.06, 0.0, 9.992593, 10.002227 
2.0545909e+3, 3.160778e+2, -875384.75, 27670.469, -46236.063, -0.0034697433, 0.21559961, 30031.563, 30031.563, 0.0, 9.992056, 10.004017 
2.0654966e+3, 1.2614444e+2, -1000426.0, -1688592.4, -10037.939, -0.013103674, -0.05012386, -1000279.56, 703505.06, 0.32885194, 10.009328, 9.995734 
2.0654468e+3, 1.361403e+2, -807843.75, -1629494.6, 4929.065, -0.17331246, 0.014761569, -807814.2, 798011.6, 0.23789778, 10.009523, 9.995324 
2.0653994e+3, 1.4613593e+2, -723599.0, -1484555.0, 39973.895, -0.17103902, 0.006183107, -721504.9, 786365.56, 0.14471796, 10.00814, 9.996337 
2.0653543e+3, 1.5613252e+2, -878715.5, -1550902.8, 52445.582, 0.014851227, 0.043535296, -874648.2, 535258.0, 0.06856219, 10.005761, 9.996331 
2.0653066e+3, 1.661295e+2, -768723.8, -1314978.9, 23722.953, 0.030381178, 0.054211758, -767695.5, 544240.2, 0.022409651, 10.005035, 9.997625 
2.0652576e+3, 1.7612676e+2, -619271.44, -1208032.5, 20682.83, -0.079450265, 0.029087735, -618545.75, 595414.94, 0.003763274, 10.005368, 9.997526 
2.0652099e+3, 1.8612428e+2, -635047.6, -1139673.8, 47431.426, -0.069143295, 0.032110084, -630628.06, 485356.94, 0.00010012278, 10.004458, 9.997762 
2.0651636e+3, 1.9612218e+2, -787934.06, -1164812.9, 57189.414, 0.02457889, 0.054314688, -779447.0, 238559.58, 0.0, 10.002741, 9.997745 
2.065116e+3, 2.0612024e+2, -769234.1, -1005984.9, 35667.113, 0.019663593, 0.056530513, -763977.5, 156048.81, 0.0, 10.001769, 9.9986315 
2.0650671e+3, 2.1611859e+2, -742592.75, -942793.0, 25810.432, -0.052078635, 0.03635463, -739318.7, 82724.63, 0.0, 10.001281, 9.998628 
2.0650193e+3, 2.2611773e+2, -703682.1, -765843.94, 19240.03, -0.04563684, 0.052484754, -698208.94, 25843.041, 0.0, 10.000412, 9.999588 
2.0649722e+3, 2.361176e+2, -773221.4, -757803.5, 3954.8276, 0.015150835, 0.08876288, -756848.25, -130795.195, 0.0, 9.999301, 9.999506 
2.0649241e+3, 2.4611712e+2, -778173.94, -674636.3, -13830.633, 0.026481712, 0.09137752, -672820.6, -144761.81, 0.0, 9.9984455, 9.999815 
2.0648752e+3, 2.5611657e+2, -780886.56, -622698.3, 7435.605, 0.0013853105, 0.063124, -622349.56, -192283.4, 0.0, 9.997744, 9.999837 
2.0648265e+3, 2.6611707e+2, -761390.94, -430240.88, 16547.559, -0.013189522, 0.08201259, -429416.03, -97353.68, 0.0, 9.996637, 10.001018 
2.0647778e+3, 2.761185e+2, -864719.44, -434320.88, 7607.911, -0.009708865, 0.1343048, -434186.44, -200137.77, 0.0, 9.995277, 10.000972 
2.064729e+3, 2.861197e+2, -812358.8, -286911.16, -24065.924, 0.00769258, 0.13704363, -285811.22, -149774.02, 0.0, 9.994659, 10.001608 
2.0646794e+3, 2.9612058e+2, -745256.56, -205747.27, -21819.834, 0.0020003628, 0.07554799, -204866.22, -166838.2, 0.0, 9.994456, 10.001589 
2.0646304e+3, 3.0612224e+2, -830376.5, -141852.55, 10995.801, -0.04855357, 0.061090663, -141676.98, -141676.98, 0.0, 9.993192, 10.002304 
2.0645833e+3, 3.1612507e+2, -975212.25, -43827.227, -46935.3, 0.060350113, 0.11871617, -41467.992, -41467.992, 0.0, 9.991472, 10.003808 
2.0755044e+3, 1.2619327e+2, -1043824.6, -1755479.4, -7025.456, -0.15754524, 0.013088927, -1043755.25, 659552.1, 0.34644553, 10.009298, 9.995243 
2.0754568e+3, 1.3618875e+2, -841328.06, -1663708.9, 6409.3906, -0.12196831, 0.06582612, -841278.1, 764075.4, 0.25059623, 10.009425, 9.995138 
2.0754083e+3, 1.4618428e+2, -711553.7, -1433395.0, -34236.008, -0.097384155, 0.030594047, -709933.5, 797464.6, 0.15267298, 10.008077, 9.996786 
2.0753591e+3, 1.561813e+2, -852104.6, -1494882.6, -18514.088, -0.05470027, 0.067420214, -851571.8, 557855.94, 0.07269698, 10.005795, 9.9967 
2.0753111e+3, 1.6617809e+2, -778049.56, -1341791.9, 38304.496, -0.03707927, 0.052405123, -775458.8, 535999.6, 0.024052342, 10.00507, 9.997428 
2.0752631e+3, 1.7617479e+2, -631585.94, -1228805.9, 28011.217, -0.04540034, -0.010295892, -630275.0, 583213.9, 0.0041626827, 10.005345, 9.997397 
2.0752148e+3, 1.8617237e+2, -614503.8, -1092709.1, -15265.32, -0.03184388, -0.0131351575, -614017.0, 501494.75, 0.00012306399, 10.004436, 9.998096 
2.075166e+3, 1.961707e+2, -768750.4, -1127306.5, 222.55142, -0.0006192812, 0.02000888, -768750.25, 248777.64, 0.0, 10.002748, 9.998001 
2.0751174e+3, 2.0616885e+2, -784627.1, -1041879.44, 18865.104, 0.021899028, 0.03134519, -783251.06, 136296.14, 0.0, 10.001781, 9.998381 
2.0750694e+3, 2.1616703e+2, -760529.56, -980588.3, 7264.2983, 0.036173522, 0.021809774, -760290.06, 61276.58, 0.0, 10.001279, 9.998371 
2.0750202e+3, 2.2616597e+2, -724258.56, -809827.9, -21566.393, -0.00047710154, 0.04606017, -719130.44, 4448.2754, 0.0, 10.000414, 9.999287 
2.0749705e+3, 2.3616558e+2, -787562.5, -788607.0, -34292.496, -0.06688683, 0.08634881, -753788.3, -128204.1, 0.0, 9.999301, 9.999296 
2.0749216e+3, 2.4616547e+2, -736151.1, -589413.3, -39530.77, -0.0513005, 0.10213347, -579441.5, -51855.56, 0.0, 9.99845, 10.0004 
2.0748729e+3, 2.561657e+2, -743012.56, -547954.3, -21028.115, 0.012339703, 0.094615, -545713.1, -116129.555, 0.0, 9.997756, 10.000346 
2.0748232e+3, 2.6616612e+2, -766608.7, -443314.0, -35828.543, 0.00902751, 0.08501616, -439390.97, -107811.0, 0.0, 9.996643, 10.000927 
2.074773e+3, 2.7616677e+2, -871508.06, -448583.72, -38128.45, -0.028258229, 0.06934165, -445173.78, -211600.08, 0.0, 9.995274, 10.000878 
2.0747234e+3, 2.86168e+2, -815873.0, -297903.63, -31680.516, -0.005889195, 0.087941125, -295973.16, -160410.56, 0.0, 9.99467, 10.00153 
2.074674e+3, 2.9616985e+2, -746944.56, -222799.78, -39281.938, 0.026609361, 0.1286323, -219872.16, -182326.23, 0.0, 9.994509, 10.001449 
2.0746239e+3, 3.0617157e+2, -842075.3, -173281.39, -64132.426, -0.018226292, 0.13911358, -167187.1, -167187.1, 0.0, 9.99322, 10.002075 
2.0745742e+3, 3.16173e+2, -922326.44, 65976.14, -33244.195, 0.029266195, 0.0702682, 67093.13, 67093.13, 0.0, 9.991469, 10.004564 
2.0855136e+3, 1.262425e+2, -1044207.2, -1698004.9, 3874.4697, -0.15891089, 0.05338772, -1044184.2, 658642.75, 0.36433816, 10.009288, 9.995656 
2.0854656e+3, 1.3623823e+2, -1017220.06, -1709042.0, 58130.875, -0.0757061, 0.07109845, -1012369.56, 592499.2, 0.2636763, 10.007643, 9.995694 
2.085416e+3, 1.4623383e+2, -859720.0, -1507953.8, 16485.846, -0.04904928, 0.020843484, -859301.0, 647611.1, 0.1609914, 10.006959, 9.996719 
2.0853652e+3, 1.562307e+2, -706983.6, -1421607.8, 8489.402, -0.080806196, 0.050276846, -706882.75, 702060.25, 0.0770897, 10.006915, 9.996661 
2.0853162e+3, 1.662275e+2, -643660.0, -1263617.0, 82387.83, -0.070030816, 0.036258366, -632898.06, 678074.8, 0.025829613, 10.005975, 9.997535 
2.085268e+3, 1.7622441e+2, -752620.4, -1278680.0, 89727.1, -0.03797358, -0.01672412, -737737.2, 475263.78, 0.0046097063, 10.004475, 9.997474 
2.0852187e+3, 1.8622193e+2, -719188.25, -1152842.3, 26305.152, -0.017882058, -0.02429456, -717598.4, 397426.16, 0.0001519991, 10.003758, 9.99801 
2.085169e+3, 1.9622e+2, -660288.56, -1082491.8, 10885.086, -0.003728822, -0.006093199, -660008.1, 357035.13, 0.0, 10.003529, 9.99793 
2.0851196e+3, 2.0621812e+2, -664798.8, -985524.2, 29772.668, 0.0155213615, 0.0074419715, -662058.44, 257004.3, 0.0, 10.002617, 9.998363 
2.0850703e+3, 2.1621643e+2, -763159.56, -984043.9, 33972.74, 0.037432805, 0.011670618, -758052.5, 63028.355, 0.0, 10.001274, 9.998347 
2.0850205e+3, 2.2621532e+2, -749418.0, -824366.2, 23672.27, 0.0021319631, 0.033468276, -742567.4, -19473.648, 0.0, 10.000256, 9.999261 
2.0849697e+3, 2.3621474e+2, -768580.3, -780366.25, 29162.344, -0.068285525, 0.060208976, -744721.5, -119620.21, 0.0, 9.999439, 9.999284 
2.0849197e+3, 2.462147e+2, -735431.56, -578418.0, 11628.622, -0.05996668, 0.08043113, -577561.44, -50459.047, 0.0, 9.998412, 10.000492 
2.0848702e+3, 2.562152e+2, -809298.25, -569141.2, -7990.3467, -0.0016529234, 0.09137715, -568875.6, -139778.2, 0.0, 9.997258, 10.000439 
2.0848195e+3, 2.662157e+2, -788523.1, -446930.84, -31392.959, 0.0070243, 0.08509471, -444069.75, -112977.06, 0.0, 9.996467, 10.000985 
2.0847686e+3, 2.7621633e+2, -780546.3, -400051.88, -21718.67, -0.01006131, 0.059526224, -398816.2, -165729.52, 0.0, 9.995882, 10.000916 
2.084718e+3, 2.8621742e+2, -784581.0, -286673.28, 1365.2368, 0.0020819132, 0.06346637, -286669.53, -151592.23, 0.0, 9.994904, 10.0014925 
2.084668e+3, 2.9621914e+2, -869417.44, -281469.34, -8097.9517, 0.014541679, 0.09852987, -281357.84, -244295.75, 0.0, 9.993668, 10.001452 
2.0846172e+3, 3.062216e+2, -882122.56, -169957.33, -25180.227, 0.024853108, 0.17502442, -169068.13, -169068.13, 0.0, 9.99285, 10.002276 
2.0845659e+3, 3.162237e+2, -833708.06, 67722.12, 60533.35, 0.04087603, 0.16272973, 71768.92, 71768.92, 0.0, 9.992257, 10.004195 
2.0955236e+3, 1.262921e+2, -1017529.56, -1597105.6, -27526.674, -0.05877589, 0.0729593, -1016225.2, 686118.3, 0.38190618, 10.009231, 9.996804 
2.0954734e+3, 1.362886e+2, -970242.8, -1561564.6, 16556.047, -0.03841942, 0.037002895, -969779.6, 634593.9, 0.276815, 10.007648, 9.996805 
2.095423e+3, 1.4628433e+2, -893556.8, -1579494.8, 15701.475, -0.025466321, -0.019398889, -893197.56, 613217.1, 0.16955331, 10.006969, 9.996225 
2.0953721e+3, 1.5628062e+2, -735165.94, -1476351.3, 5105.807, -0.073393956, -0.002023951, -735130.8, 673321.8, 0.0817138, 10.0069065, 9.996291 
2.0953217e+3, 1.6627772e+2, -622571.2, -1216444.6, 29594.324, -0.07761976, 0.00913993, -621100.06, 689379.6, 0.027740996, 10.005967, 9.997874 
2.0952722e+3, 1.7627546e+2, -734853.44, -1245269.4, 40869.227, -0.057755888, 0.007799522, -731601.75, 480897.0, 0.005106749, 10.004489, 9.997699 
2.0952225e+3, 1.8627276e+2, -750978.44, -1222786.0, 19087.979, -0.026750848, -0.004007353, -750207.44, 364317.66, 0.00018751377, 10.003772, 9.997525 
2.0951726e+3, 1.9626997e+2, -689431.9, -1141756.0, 113.676865, 0.01152125, -0.024884041, -689431.9, 327121.88, 0.0, 10.003519, 9.99753 
2.0951219e+3, 2.0626798e+2, -651404.44, -956952.2, -19225.66, -0.002578142, -0.015171833, -650199.5, 268374.44, 0.0, 10.002609, 9.998565 
2.0950708e+3, 2.1626668e+2, -749542.56, -955650.0, -11066.968, -0.04940971, 0.0061946125, -748950.0, 71637.086, 0.0, 10.00127, 9.998547 
2.09502e+3, 2.2626562e+2, -733843.2, -793208.7, -5423.2686, -0.0375671, 0.014844704, -733351.8, -10753.847, 0.0, 10.000257, 9.999476 
2.0949699e+3, 2.3626496e+2, -758954.7, -761467.94, -1206.1132, 0.009771385, 0.009809452, -758469.5, -133864.1, 0.0, 9.99944, 9.999415 
2.0949186e+3, 2.462647e+2, -764043.8, -639999.75, -32367.184, -0.00095691654, 0.026730333, -632062.0, -105452.555, 0.0, 9.998418, 10.000069 
2.0948666e+3, 2.5626493e+2, -832690.94, -620117.2, -48941.816, -0.04701231, 0.05251799, -609390.4, -180781.16, 0.0, 9.997264, 10.000089 
2.0948157e+3, 2.6626575e+2, -771910.25, -416700.88, -54097.574, -0.023807615, 0.081486374, -408644.66, -78042.7, 0.0, 9.99648, 10.001188 
2.0947649e+3, 2.7626705e+2, -763877.4, -374639.47, -46591.203, 0.043710187, 0.10511539, -369140.25, -136551.5, 0.0, 9.995917, 10.001075 
2.0947132e+3, 2.8626776e+2, -782529.9, -286988.75, -48454.08, 0.03204827, 0.06637067, -282295.34, -147713.11, 0.0, 9.99492, 10.001485 
2.0946608e+3, 2.9626837e+2, -860297.06, -259072.2, -53168.44, -0.040908534, -0.012772517, -254406.53, -217829.42, 0.0, 9.9936495, 10.001617 
2.0946103e+3, 3.062721e+2, -833833.6, -72458.74, -44371.26, 0.0762055, 0.13883121, -69881.61, -69881.61, 0.0, 9.992857, 10.002946 
2.0945583e+3, 3.1627437e+2, -945308.44, -185756.39, 2462.5598, 0.05843291, 0.102143504, -185748.4, -185748.4, 0.0, 9.992347, 10.002414 
2.1055327e+3, 1.2634368e+2, -1064420.8, -1621268.9, 45790.94, -0.05700523, 0.057628546, -1060680.4, 641157.0, 0.398776, 10.0089655, 9.996683 
2.1054812e+3, 1.363402e+2, -934940.8, -1543544.3, 31605.945, -0.05396056, 0.028942432, -933303.8, 670563.9, 0.28981653, 10.008122, 9.996757 
2.1054302e+3, 1.4633608e+2, -844656.25, -1531440.3, 50103.47, -0.028989786, -0.016161148, -841020.25, 664886.6, 0.17828837, 10.007365, 9.996367 
2.105379e+3, 1.5633221e+2, -755110.5, -1475401.8, 75705.56, -0.06201704, -0.026454397, -747239.56, 660705.6, 0.086558945, 10.0067425, 9.99638 
2.1053278e+3, 1.6632922e+2, -644229.9, -1264600.3, 65494.668, -0.060506236, -0.008604419, -637390.75, 672583.0, 0.029791301, 10.005996, 9.9975195 
2.105277e+3, 1.763269e+2, -659567.1, -1241771.0, 32413.242, -0.0396613, 0.01915907, -657768.1, 554226.9, 0.005657466, 10.005158, 9.997397 
2.1052264e+3, 1.8632407e+2, -694037.44, -1191463.6, 31129.0, -0.01430796, 0.00912845, -692096.94, 421925.53, 0.00023057657, 10.004151, 9.997555 
2.1051759e+3, 1.9632116e+2, -757090.0, -1170780.6, 45026.723, 0.0138005065, -0.027877761, -752245.94, 263805.94, 0.0, 10.003042, 9.99756 
2.105124e+3, 2.0631912e+2, -710541.5, -975619.9, 23198.168, -0.009358698, -0.028493958, -708526.6, 209545.27, 0.0, 10.002164, 9.998649 
2.1050718e+3, 2.163178e+2, -721397.4, -932598.1, 20700.994, -0.06346479, -0.014018605, -719387.5, 100696.805, 0.0, 10.001427, 9.998627 
2.1050203e+3, 2.2631681e+2, -701536.06, -772839.3, 18153.82, -0.04126147, -0.006014552, -697180.2, 24914.148, 0.0, 10.000462, 9.999516 
2.1049692e+3, 2.3631619e+2, -770146.4, -762852.25, 8894.662, 0.028673682, -0.007730217, -756886.0, -132784.97, 0.0, 9.999351, 9.999447 
2.104917e+3, 2.4631584e+2, -767288.5, -642422.0, -7259.7563, 0.011932516, -0.0000953662, -642001.4, -115895.63, 0.0, 9.9984045, 10.000056 
2.104864e+3, 2.563159e+2, -792386.7, -602226.6, 6582.904, -0.05740121, 0.009313683, -601999.0, -173892.0, 0.0, 9.997552, 10.00007 
2.104812e+3, 2.663167e+2, -754858.5, -406228.53, 11629.694, -0.031674836, 0.0398579, -405841.0, -75740.92, 0.0, 9.99659, 10.001206 
2.1047606e+3, 2.7631813e+2, -814147.4, -395374.25, 2271.5615, 0.05417083, 0.07599921, -395361.94, -163275.66, 0.0, 9.995558, 10.001106 
2.104708e+3, 2.8631917e+2, -817052.0, -291883.53, -6664.8286, 0.041567888, 0.059182554, -291798.97, -157721.8, 0.0, 9.994635, 10.001588 
2.1046546e+3, 2.9632014e+2, -834657.7, -235367.89, -3154.6958, -0.033064272, 0.007265737, -235351.3, -199282.95, 0.0, 9.993779, 10.001716 
2.1046032e+3, 3.063231e+2, -761395.44, 8126.702, 5048.512, 0.09129447, 0.06530623, 8159.8223, 8159.8223, 0.0, 9.993161, 10.00335 
2.10455e+3, 3.1632516e+2, -948631.44, -247092.63, 17436.678, -0.0016387181, -0.029529195, -246659.5, -246659.5, 0.0, 9.992589, 10.001872 
2.1155408e+3, 1.263968e+2, -1131419.0, -1740122.8, 31075.996, -0.14622289, 0.0016715364, -1129836.6, 571477.0, 0.41483578, 10.008935, 9.995527 
2.1154885e+3, 1.3639282e+2, -996106.4, -1664063.4, 12812.7295, -0.12045257, 0.042263173, -995860.7, 607492.06, 0.30260408, 10.008113, 9.995769 
2.115437e+3, 1.463889e+2, -816006.9, -1451830.4, 32345.408, -0.06160343, 0.024370508, -814365.6, 691024.06, 0.18715985, 10.00736, 9.996998 
2.1153855e+3, 1.5638527e+2, -730785.2, -1412996.3, 54419.32, -0.050313257, -0.026161099, -726471.5, 680951.4, 0.091620035, 10.006744, 9.996808 
2.115334e+3, 1.663818e+2, -710432.94, -1404278.0, 36482.93, -0.02484174, -0.018006284, -708519.94, 600937.2, 0.03198742, 10.006001, 9.9965515 
2.1152824e+3, 1.7637864e+2, -711510.3, -1352934.1, 3705.375, 0.009242496, 0.019092552, -711488.94, 500001.25, 0.006267048, 10.005169, 9.996632 
2.1152307e+3, 1.8637583e+2, -658087.8, -1120246.5, -8065.355, 0.014424087, 0.015739819, -657947.1, 455570.1, 0.00028293225, 10.004162, 9.998041 
2.1151784e+3, 1.9637343e+2, -726874.25, -1110672.6, 7927.2295, 0.0012382623, -0.015978286, -726710.56, 288828.3, 0.00000000000010610821, 10.003049, 9.997971 
2.1151263e+3, 2.0637137e+2, -712780.9, -983186.8, -2895.0396, -0.0058586905, -0.033260737, -712749.9, 204808.17, 0.0, 10.0021715, 9.998596 
2.1150738e+3, 2.1636972e+2, -726605.1, -943377.0, -6056.096, -0.009950808, -0.047530677, -726436.06, 93137.58, 0.0, 10.001422, 9.998558 
2.115021e+3, 2.2636873e+2, -711200.8, -793763.25, -22404.352, -0.013611465, -0.026727062, -705512.94, 16071.061, 0.0, 10.000461, 9.999374 
2.114968e+3, 2.3636834e+2, -773814.4, -772495.8, -30041.213, -0.016325586, 0.008385943, -743106.7, -119517.43, 0.0, 9.999355, 9.999381 
2.1149151e+3, 2.4636802e+2, -738070.9, -584844.8, -39281.875, -0.023516504, -0.0016017583, -575361.25, -49768.9, 0.0, 9.998413, 10.000449 
2.1148616e+3, 2.5636795e+2, -769080.25, -558298.75, -25821.06, -0.03371682, -0.04155049, -555181.75, -127589.73, 0.0, 9.997567, 10.000366 
2.1148086e+3, 2.6636848e+2, -766644.06, -434089.7, -27999.863, -0.017610801, -0.0420078, -431748.7, -102160.64, 0.0, 9.9966, 10.001012 
2.1147557e+3, 2.763695e+2, -820470.8, -410961.56, -35940.707, 0.010393833, -0.029632935, -407831.16, -176250.97, 0.0, 9.995564, 10.000998 
2.1147025e+3, 2.8637147e+2, -800640.4, -261382.9, -39440.24, 0.024040814, 0.041528482, -258513.58, -124950.805, 0.0, 9.994644, 10.001796 
2.1146491e+3, 2.9637432e+2, -829488.2, -233702.19, -31527.375, 0.044911545, 0.16058671, -232038.5, -196502.33, 0.0, 9.993813, 10.001713 
2.1145959e+3, 3.063748e+2, -755624.94, 13365.832, -17452.621, 0.059315156, -0.030044835, 13761.725, 13761.725, 0.0, 9.993188, 10.003375 
2.1145427e+3, 3.1637806e+2, -873965.75, -101378.66, -7651.3394, 0.010532116, -0.029906457, -101302.89, -101302.89, 0.0, 9.992623, 10.002858 
2.1255498e+3, 1.2645076e+2, -1124759.0, -1700409.5, 26915.734, -0.119501375, 0.004100307, -1123503.3, 577281.25, 0.4300887, 10.009097, 9.995723 
2.1254961e+3, 1.364467e+2, -993632.1, -1651147.6, 59761.535, -0.14471503, 0.03257473, -988244.56, 614579.9, 0.3151408, 10.0082245, 9.995817 
2.1254441e+3, 1.464428e+2, -818120.7, -1462067.9, 93945.03, -0.08538034, 0.022691092, -804695.06, 700166.2, 0.1961323, 10.007479, 9.996854 
2.1253926e+3, 1.5643908e+2, -730284.56, -1427787.5, 76670.78, -0.02362675, -0.020289479, -721956.25, 684938.7, 0.096886784, 10.006855, 9.996654 
2.1253404e+3, 1.664353e+2, -695146.44, -1419519.5, 69621.805, 0.010148377, -0.023850266, -688515.56, 620416.56, 0.034336273, 10.006228, 9.996335 
2.1252881e+3, 1.7643167e+2, -666101.5, -1354389.9, 83862.88, 0.026780752, -0.008322588, -656030.8, 554938.94, 0.006943017, 10.005591, 9.996416 
2.1252349e+3, 1.8642879e+2, -593862.75, -1106280.8, 51011.586, 0.015195783, -0.0009943508, -588833.9, 524164.0, 0.0003475515, 10.004682, 9.997885 
2.1251817e+3, 1.964265e+2, -654369.1, -1088728.5, 21046.893, -0.014047159, -0.0052786213, -653351.7, 361667.06, 0.0000000000129771185, 10.003608, 9.99785 
2.1251282e+3, 2.0642436e+2, -659383.3, -951454.75, 4076.9473, -0.014253756, -0.026981246, -659326.4, 257711.95, 0.0, 10.002518, 9.998645 
2.125075e+3, 2.1642254e+2, -726209.44, -938925.3, 6626.9434, 0.002706023, -0.062232878, -726003.2, 93051.87, 0.0, 10.001411, 9.998591 
2.1250212e+3, 2.2642154e+2, -719207.25, -799928.8, -3497.941, -0.008895581, -0.042699438, -719056.0, 2009.487, 0.0, 10.000421, 9.99935 
2.1249673e+3, 2.364212e+2, -754273.5, -763945.6, -4158.1807, -0.0370472, 0.00054071547, -752731.6, -129661.36, 0.0, 9.999496, 9.99937 
2.124913e+3, 2.4642088e+2, -719039.75, -563632.2, -20891.922, -0.033696525, -0.014889067, -560872.6, -35799.586, 0.0, 9.998494, 10.000554 
2.1248591e+3, 2.564208e+2, -782175.0, -554467.3, -29776.04, -0.008964279, -0.06624917, -550638.06, -123565.836, 0.0, 9.997436, 10.000455 
2.1248052e+3, 2.6642135e+2, -787003.3, -446283.5, -30828.596, 0.00064148864, -0.063070826, -443516.56, -114448.69, 0.0, 9.996475, 10.000986 
2.1247508e+3, 2.764224e+2, -822321.5, -411058.28, -28385.553, -0.006652618, -0.042834114, -409108.34, -178048.19, 0.0, 9.995554, 10.0009985 
2.1246965e+3, 2.864245e+2, -808520.4, -242591.22, -28027.596, 0.0088559035, 0.028620638, -241206.55, -108165.04, 0.0, 9.994498, 10.001992 
2.1246429e+3, 2.9642767e+2, -880058.3, -246247.73, -16065.451, 0.069411576, 0.16115493, -245840.78, -210829.61, 0.0, 9.993421, 10.001814 
2.1245891e+3, 3.0642742e+2, -808816.56, -58689.953, 6467.697, 0.06806203, -0.07872407, -58634.19, -58634.19, 0.0, 9.993025, 10.002957 
2.1245359e+3, 3.1643227e+2, -869276.44, -64735.703, -36983.688, 0.08443595, 0.114809416, -63039.188, -63039.188, 0.0, 9.992507, 10.003165 
2.1355598e+3, 1.265054e+2, -1107433.0, -1607188.6, 11929.509, -0.0081726285, 0.05114995, -1107148.4, 593102.06, 0.444557, 10.00889, 9.996961 
2.1355043e+3, 1.3650171e+2, -969557.4, -1554883.5, 36167.875, -0.14006083, 0.0053457543, -967331.0, 634953.06, 0.32739535, 10.00818, 9.99664 
2.1354511e+3, 1.4649759e+2, -868128.0, -1568664.0, 75049.63, -0.10660372, -0.013710169, -860178.06, 644145.06, 0.2051745, 10.007495, 9.996059 
2.1353997e+3, 1.5649357e+2, -769403.3, -1516575.1, 57583.656, 0.012673985, -0.009656866, -764991.44, 641370.56, 0.10235482, 10.0068865, 9.996028 
2.135347e+3, 1.6648963e+2, -665811.1, -1358941.8, 47884.355, 0.040630557, -0.027139306, -662518.7, 645881.1, 0.03685008, 10.006249, 9.996742 
2.1352932e+3, 1.764859e+2, -648972.9, -1319812.0, 59583.37, 0.013218323, -0.0604397, -643721.8, 566713.44, 0.007696309, 10.005596, 9.996654 
2.1352392e+3, 1.8648282e+2, -647174.75, -1218390.1, 12212.71, -0.011549239, -0.038592488, -646913.75, 465552.34, 0.00042884256, 10.0046835, 9.997117 
2.1351849e+3, 1.9648027e+2, -698248.6, -1181164.5, -16016.745, -0.034338515, 0.0065913936, -697718.0, 316774.47, 0.0000000000136278775, 10.00361, 9.997217 
2.1351303e+3, 2.0647801e+2, -648837.25, -931450.44, -35432.605, -0.036521528, -0.008288921, -644462.6, 272051.16, 0.0, 10.002521, 9.998783 
2.135076e+3, 2.1647616e+2, -716603.4, -920676.56, -31048.293, -0.026952635, -0.059769303, -711984.1, 106545.766, 0.0, 10.001413, 9.998718 
2.1350212e+3, 2.2647509e+2, -713795.25, -790810.0, -36769.645, -0.028056568, -0.05695554, -699059.5, 21480.66, 0.0, 10.000425, 9.999412 
2.1349666e+3, 2.3647462e+2, -752997.56, -762157.7, -37792.676, -0.036068622, -0.03136146, -719508.44, -96963.11, 0.0, 9.999496, 9.999384 
2.1349116e+3, 2.4647428e+2, -732380.4, -593719.75, -61123.03, -0.02020396, -0.036953658, -570623.25, -46074.324, 0.0, 9.9985, 10.000347 
2.1348567e+3, 2.564743e+2, -790793.9, -576200.1, -69046.26, 0.012012477, -0.061059278, -555903.9, -129354.984, 0.0, 9.997448, 10.000302 
2.1348014e+3, 2.6647526e+2, -774605.56, -424488.94, -67443.2, 0.019649804, -0.01885363, -411946.63, -83405.83, 0.0, 9.996488, 10.001132 
2.1347463e+3, 2.7647686e+2, -811675.9, -394273.13, -66320.63, 0.0020795364, 0.04186121, -383988.9, -153461.7, 0.0, 9.995572, 10.001108 
2.1346907e+3, 2.864781e+2, -797154.06, -221916.94, -72387.836, -0.005057555, 0.01746584, -212947.52, -80432.41, 0.0, 9.994507, 10.002131 
2.1346357e+3, 2.964798e+2, -866536.5, -219735.58, -49071.62, 0.029169358, -0.010537391, -216033.8, -181537.14, 0.0, 9.993423, 10.001996 
2.1345825e+3, 3.06481e+2, -862182.8, -173850.42, -1689.1067, 0.114787936, -0.07621928, -173846.28, -173846.28, 0.0, 9.993037, 10.002164 
2.1345276e+3, 3.1648493e+2, -896448.94, -127311.734, -33263.96, 0.0032257878, 0.12312048, -125875.8, -125875.8, 0.0, 9.992535, 10.002722 
2.1455671e+3, 1.2656079e+2, -1345081.9, -1734359.5, 82432.32, -0.017155945, 0.022651153, -1328345.8, 371360.78, 0.4583609, 10.006037, 9.997038 
2.1455124e+3, 1.3655743e+2, -1032533.7, -1582117.3, 64034.44, -0.10075987, 0.009676032, -1025171.4, 576566.6, 0.33940506, 10.007652, 9.996616 
2.1454592e+3, 1.4655305e+2, -832200.5, -1577720.1, 81024.5, -0.08656471, -0.016556872, -823496.25, 680283.9, 0.21429247, 10.008031, 9.995737 
2.1454068e+3, 1.5654878e+2, -684966.06, -1496906.1, 87760.85, 0.015214412, -0.004555436, -675588.5, 730233.0, 0.10803232, 10.007693, 9.995775 
2.145353e+3, 1.6654485e+2, -573948.75, -1295928.5, 66645.3, 0.033110265, -0.01664864, -567848.3, 740010.25, 0.039542574, 10.006855, 9.996883 
2.1452986e+3, 1.7654124e+2, -622549.06, -1295080.5, 59798.367, -0.0048818593, -0.05170878, -617273.5, 592618.5, 0.008538177, 10.005738, 9.996752 
2.1452439e+3, 1.8653794e+2, -637114.1, -1224407.9, 33471.008, -0.01645128, -0.04963853, -635212.7, 476711.88, 0.0005318874, 10.004805, 9.997014 
2.1451887e+3, 1.9653502e+2, -657117.94, -1174563.0, 49044.47, -0.011329228, -0.029455286, -652510.44, 361444.16, 0.0000000017696388, 10.003954, 9.997094 
2.145133e+3, 2.0653278e+2, -608210.9, -932561.0, 25469.602, -0.023895916, -0.025533736, -606223.0, 309753.44, 0.0, 10.002893, 9.998593 
2.1450771e+3, 2.1653111e+2, -685218.2, -923486.2, 5219.274, -0.04604758, -0.038207788, -685103.94, 132887.84, 0.0, 10.00171, 9.998554 
2.1450216e+3, 2.2652985e+2, -683115.44, -775283.6, -6229.441, -0.044523954, -0.045594633, -682696.3, 37307.32, 0.0, 10.000636, 9.999415 
2.1449661e+3, 2.3652904e+2, -736681.5, -755261.25, -12548.532, -0.02916521, -0.05489271, -730358.3, -108347.016, 0.0, 9.999616, 9.999372 
2.1449101e+3, 2.4652871e+2, -726618.0, -604546.8, -33225.645, -0.010455524, -0.049992226, -596089.3, -72074.27, 0.0, 9.998603, 10.000221 
2.144854e+3, 2.565289e+2, -775591.0, -577280.8, -35928.758, 0.011258085, -0.040874954, -570972.1, -144958.0, 0.0, 9.997593, 10.000222 
2.1447979e+3, 2.6652986e+2, -753225.5, -397607.0, -29586.377, 0.01187152, -0.0061956868, -395162.3, -67156.42, 0.0, 9.996566, 10.001278 
2.1447417e+3, 2.7653134e+2, -811362.5, -381778.13, -29871.406, -0.0012148101, 0.030020947, -379710.94, -149718.83, 0.0, 9.9955225, 10.001217 
2.1446852e+3, 2.865325e+2, -774973.6, -213901.19, -38932.89, -0.005873969, -0.0025276777, -211212.52, -79232.3, 0.0, 9.994673, 10.002106 
2.1446289e+3, 2.96534e+2, -796010.7, -192390.7, -26339.045, 0.0043181507, -0.04960371, -191243.58, -157279.45, 0.0, 9.993938, 10.001935 
2.1445753e+3, 3.0653536e+2, -938227.9, -280920.44, 16588.432, 0.110858686, -0.064244285, -280502.06, -280502.06, 0.0, 9.99282, 10.001532 
2.1445198e+3, 3.165378e+2, -1001560.44, -46480.645, -2153.6206, 0.04145838, 0.048907313, -46475.79, -46475.79, 0.0, 9.991267, 10.003878 
2.155572e+3, 1.266169e+2, -1386397.4, -1863961.8, 124868.234, -0.12144922, -0.059998885, -1355718.9, 343434.94, 0.471885, 10.006091, 9.99616 
2.1555208e+3, 1.3661383e+2, -1066917.5, -1676318.3, 100048.2, -0.03831476, 0.04096909, -1050912.5, 550274.0, 0.3514022, 10.007743, 9.995912 
2.1554676e+3, 1.4660913e+2, -830975.9, -1567185.8, 70281.766, -0.040772658, 0.008932152, -824326.5, 678905.8, 0.22359657, 10.008085, 9.995783 
2.1554141e+3, 1.5660466e+2, -686818.9, -1492535.6, 73246.74, -0.014209341, -0.0037786819, -680214.25, 725059.94, 0.113961644, 10.0077, 9.995803 
2.1553594e+3, 1.6660091e+2, -585104.44, -1313394.1, 26911.33, -0.009106023, 0.0070994277, -584111.4, 723198.1, 0.04243236, 10.0068445, 9.996768 
2.155304e+3, 1.7659758e+2, -624703.6, -1298916.6, 22112.72, -0.028470129, 0.0125306025, -623979.2, 585361.6, 0.009479867, 10.005736, 9.996728 
2.1552485e+3, 1.8659402e+2, -603337.8, -1154771.8, 3556.5847, -0.0034110832, -0.037129328, -603314.9, 508059.56, 0.0006620953, 10.004803, 9.997496 
2.1551931e+3, 1.9659063e+2, -634381.5, -1127862.6, 17594.629, 0.04960252, -0.11244632, -633754.94, 379651.72, 0.00000008556425, 10.003951, 9.997418 
2.1551362e+3, 2.0658854e+2, -644893.2, -1009996.3, -17907.07, 0.019464001, -0.07806275, -644017.0, 271411.0, 0.0, 10.002894, 9.998063 
2.1550786e+3, 2.1658728e+2, -717526.9, -990835.9, -35559.863, -0.057882003, 0.0047938395, -712976.0, 104465.83, 0.0, 10.001706, 9.9980955 
2.155022e+3, 2.2658576e+2, -688273.6, -786586.0, -42813.113, -0.059873167, -0.0062897154, -672243.2, 47213.523, 0.0, 10.000633, 9.999342 
2.1549655e+3, 2.3658432e+2, -740034.8, -764812.06, -49340.258, -0.019434517, -0.0705121, -701551.6, -80082.08, 0.0, 9.999622, 9.999306 
2.1549086e+3, 2.4658403e+2, -728840.25, -612315.5, -71930.33, -0.007822304, -0.055890277, -578011.8, -54538.902, 0.0, 9.998612, 10.000165 
2.1548513e+3, 2.5658455e+2, -775069.8, -579898.1, -74034.35, -0.016622787, -0.0059371777, -554992.8, -129523.77, 0.0, 9.997604, 10.000201 
2.1547939e+3, 2.6658502e+2, -740904.1, -376473.44, -69877.52, -0.026013108, -0.02914514, -363534.25, -36069.805, 0.0, 9.99658, 10.001419 
2.1547368e+3, 2.765857e+2, -801643.9, -365675.94, -68012.19, -0.023198755, -0.09011339, -355312.22, -125855.56, 0.0, 9.995535, 10.001325 
2.1546799e+3, 2.8658772e+2, -787937.75, -245671.02, -66971.16, 0.0033069924, -0.028894309, -237522.38, -106084.945, 0.0, 9.99469, 10.001881 
2.1546225e+3, 2.9659042e+2, -814190.25, -241329.03, -55150.04, -0.003784533, 0.07146006, -236067.98, -202655.83, 0.0, 9.993982, 10.001579 
2.1545671e+3, 3.0659014e+2, -975203.56, -362712.6, -43195.215, 0.037913747, -0.05789915, -359681.3, -359681.3, 0.0, 9.992834, 10.000968 
2.1545115e+3, 3.165926e+2, -800643.8, 378298.84, -130436.26, 0.109247975, 0.06624269, 392557.66, 392557.66, 0.0, 9.991221, 10.006825 
2.1655786e+3, 1.2667415e+2, -1300893.6, -1799987.8, 129612.516, -0.11492221, 0.047611073, -1269241.3, 429352.84, 0.48579556, 10.007393, 9.996006 
2.1655296e+3, 1.366703e+2, -907398.5, -1561658.8, 133332.81, -0.0037863115, 0.07386468, -881269.8, 719363.8, 0.3638506, 10.009563, 9.99592 
2.1654764e+3, 1.4666523e+2, -687182.7, -1462981.1, 63210.74, -0.029768957, -0.0042277547, -682066.1, 820616.44, 0.23332958, 10.009373, 9.995945 
2.1654217e+3, 1.5666093e+2, -668078.4, -1463068.6, 71268.125, -0.021924812, -0.01605096, -661739.94, 742982.9, 0.120236956, 10.007819, 9.995945 
2.165366e+3, 1.6665736e+2, -595563.5, -1305720.9, 37414.613, -0.012423911, 0.002266751, -593597.75, 713158.75, 0.0455536, 10.00674, 9.996869 
2.1653098e+3, 1.7665422e+2, -595874.94, -1272778.1, 46048.125, -0.016787663, 0.017203962, -592756.75, 616029.6, 0.010537041, 10.005895, 9.996829 
2.1652535e+3, 1.8665086e+2, -583995.75, -1129765.9, 15918.289, 0.002107048, -0.024174849, -583531.9, 527286.2, 0.0008259469, 10.004874, 9.99763 
2.1651968e+3, 1.9664766e+2, -657265.44, -1128579.0, 4367.9565, 0.0392565, -0.09307284, -657224.94, 355623.06, 0.0000007708967, 10.003754, 9.997506 
2.1651389e+3, 2.0664541e+2, -645719.3, -1023579.4, -18290.377, 0.018367205, -0.06815989, -644836.0, 270034.78, 0.0, 10.002949, 9.997942 
2.1650806e+3, 2.1664388e+2, -639369.44, -963868.75, -10354.557, -0.03687581, -0.0009231356, -639039.4, 177848.31, 0.0, 10.002294, 9.997995 
2.1650226e+3, 2.2664237e+2, -623994.6, -757776.2, -14600.381, -0.046676595, -0.0050916034, -622419.75, 96482.72, 0.0, 10.00109, 9.999317 
2.1649648e+3, 2.3664106e+2, -748016.0, -772483.25, -16518.504, -0.027763182, -0.05213247, -739694.25, -118780.45, 0.0, 9.999588, 9.999268 
2.164907e+3, 2.4664065e+2, -760114.8, -638154.6, -30300.889, -0.016935367, -0.041258745, -631041.3, -108123.086, 0.0, 9.998446, 10.000066 
2.1648486e+3, 2.5664094e+2, -798137.4, -600175.25, -37152.707, -0.017481156, -0.0063024396, -593432.25, -168515.52, 0.0, 9.997488, 10.000116 
2.1647903e+3, 2.6664117e+2, -754594.7, -389912.75, -45454.957, -0.042463474, -0.040028013, -384332.5, -57418.945, 0.0, 9.99652, 10.001352 
2.1647316e+3, 2.766417e+2, -804456.3, -374492.6, -58912.316, -0.05750749, -0.10947472, -366566.72, -137659.92, 0.0, 9.995554, 10.001251 
2.1646743e+3, 2.866437e+2, -795924.06, -262898.78, -52617.66, 0.011668018, -0.03888503, -257754.27, -126866.38, 0.0, 9.994699, 10.001755 
2.1646169e+3, 2.9664648e+2, -848943.5, -263389.13, -41931.273, 0.05062312, 0.07893287, -260401.69, -227538.98, 0.0, 9.993773, 10.001525 
2.1645586e+3, 3.066462e+2, -1055335.6, -333543.66, 8167.8623, -0.03967285, -0.0771937, -333451.25, -333451.25, 0.0, 9.9920025, 10.001564 
2.1645014e+3, 3.166487e+2, -859801.94, 376892.72, 1651.2682, 0.035027076, -0.013620257, 376894.94, 376894.94, 0.0, 9.990701, 10.007066 
2.1755391e+3, 1.3672689e+2, -887258.7, -1506737.1, 172878.06, 0.002288076, 0.10576126, -842279.44, 757799.6, 0.37734246, 10.009675, 9.996478 
2.1754853e+3, 1.4672145e+2, -695740.4, -1443640.4, 21429.723, -0.050712388, -0.048087724, -695126.9, 807003.7, 0.24379826, 10.009283, 9.996169 
2.1754295e+3, 1.5671755e+2, -660800.0, -1431108.6, 28314.807, -0.014468737, -0.039437316, -659760.56, 744407.06, 0.1269883, 10.007811, 9.996166 
2.1753728e+3, 1.6671418e+2, -578139.9, -1267833.0, 11301.842, 0.014207519, -0.027213138, -577954.7, 728245.2, 0.04896287, 10.006751, 9.997138 
2.1753159e+3, 1.7671111e+2, -582037.2, -1245595.4, 16806.33, 0.022845687, -0.03207133, -581611.8, 626617.3, 0.011735907, 10.005905, 9.997013 
2.1752581e+3, 1.8670833e+2, -596796.44, -1159709.1, -23786.11, -0.0025081355, -0.010538447, -595793.1, 514463.16, 0.0010325983, 10.004885, 9.997422 
2.1751994e+3, 1.9670595e+2, -665705.25, -1148730.3, -31262.678, -0.039997272, 0.023903593, -663690.25, 348589.66, 0.0000032697606, 10.00376, 9.997367 
2.1751414e+3, 2.067033e+2, -627401.8, -987290.1, -39995.867, -0.02504532, 0.0010293907, -623010.5, 291295.3, 0.0, 10.002952, 9.998193 
2.1750833e+3, 2.1670079e+2, -624595.9, -933860.8, -36987.918, 0.0128195295, -0.056867696, -620233.7, 196096.88, 0.0, 10.002292, 9.998205 
2.1750239e+3, 2.2669955e+2, -622965.1, -756477.4, -70012.766, -0.009134135, -0.04274265, -592983.6, 125358.65, 0.0, 10.001088, 9.999329 
2.1749641e+3, 2.3669918e+2, -749670.75, -776313.7, -68224.06, -0.058032226, 0.0026054354, -693479.75, -73134.664, 0.0, 9.999585, 9.999245 
2.1749051e+3, 2.4669845e+2, -771123.75, -662682.7, -66571.27, -0.038969122, -0.0052461624, -631045.2, -108693.23, 0.0, 9.998449, 9.9999 
2.1748462e+3, 2.5669783e+2, -809258.6, -627024.7, -73637.39, 0.005648831, -0.044128805, -600988.94, -176630.38, 0.0, 9.997499, 9.999929 
2.1747866e+3, 2.6669824e+2, -775115.44, -435603.03, -83622.76, -0.03965938, -0.036023572, -416124.13, -89769.72, 0.0, 9.996529, 10.001037 
2.1747269e+3, 2.7669936e+2, -821856.94, -415525.66, -93527.445, -0.107950516, -0.013825431, -395031.6, -166688.56, 0.0, 9.99557, 10.000964 
2.1746689e+3, 2.8670028e+2, -795570.0, -268758.25, -90106.086, 0.015723405, -0.034520134, -253772.73, -123439.14, 0.0, 9.994721, 10.001708 
2.1746115e+3, 2.9670164e+2, -826227.44, -221365.92, -93319.85, 0.16137779, -0.06075088, -207295.56, -174975.06, 0.0, 9.993789, 10.00181 
2.1745498e+3, 3.0670372e+2, -925862.0, -57743.703, -67711.91, -0.10620877, -0.10421436, -52494.023, -52494.023, 0.0, 9.99197, 10.003475 
2.1744919e+3, 3.1670767e+2, -1082360.0, -92119.58, 75775.664, 0.02948869, -0.038446646, -86354.6, -86354.6, 0.0, 9.990718, 10.003842 
2.1855493e+3, 1.3678461e+2, -756869.4, -1433270.6, 153422.9, -0.018134378, 0.038767274, -723696.5, 875816.06, 0.39229125, 10.011314, 9.996541 
2.1854937e+3, 1.4678055e+2, -862476.7, -1504009.0, 101458.91, -0.031255662, 0.0070350054, -846813.25, 654737.06, 0.2551997, 10.0077505, 9.996397 
2.1854372e+3, 1.5677619e+2, -631384.3, -1395640.1, 116045.484, -0.003005331, -0.051486097, -614152.3, 789440.75, 0.13433047, 10.008021, 9.996323 
2.1853799e+3, 1.6677275e+2, -495926.97, -1234526.4, 80685.664, 0.0130850375, -0.043869346, -487215.5, 818410.75, 0.05273514, 10.007407, 9.997063 
2.1853217e+3, 1.7676987e+2, -533179.9, -1228899.3, 64812.52, 0.005747145, -0.0219054, -527193.56, 680460.44, 0.013116346, 10.006288, 9.9969425 
2.1852627e+3, 1.8676704e+2, -540095.9, -1134529.5, 23968.482, -0.013354701, 0.002485008, -539130.94, 570550.56, 0.0012959978, 10.005289, 9.997398 
2.1852034e+3, 1.9676456e+2, -581206.7, -1108285.6, 28502.658, -0.03343871, 0.029664217, -579669.9, 432036.4, 0.000009476626, 10.004347, 9.99736 
2.1851443e+3, 2.0676193e+2, -593584.6, -962446.56, 18086.313, -0.016823001, 0.005157139, -592699.94, 321031.88, 0.0, 10.003153, 9.998263 
2.1850853e+3, 2.1675944e+2, -689399.75, -961127.9, 5174.5273, 0.01714276, -0.053292487, -689301.25, 126454.414, 0.0, 10.001834, 9.998237 
2.1850249e+3, 2.2675817e+2, -664442.75, -792173.2, -44118.88, -0.005461234, -0.03475311, -650685.56, 67082.64, 0.0, 10.0008745, 9.999185 
2.1849637e+3, 2.3675773e+2, -685527.56, -757822.75, -54593.785, -0.054038223, 0.018594792, -656199.0, -36426.535, 0.0, 10.000083, 9.99913 
2.1849036e+3, 2.4675687e+2, -690439.9, -619185.2, -43302.758, -0.042098366, -0.0007719603, -598737.25, -76956.836, 0.0, 9.998989, 9.999935 
2.1848436e+3, 2.5675604e+2, -775767.25, -611906.6, -36450.652, -0.0038630238, -0.06054674, -604164.06, -180376.27, 0.0, 9.99774, 9.999915 
2.1847829e+3, 2.6675647e+2, -781902.0, -461165.53, -33701.17, -0.031011853, -0.03632087, -457662.66, -131879.03, 0.0, 9.996583, 10.0008335 
2.1847224e+3, 2.767577e+2, -850116.1, -448020.8, -35682.117, -0.07617351, 0.016141726, -444878.9, -217106.66, 0.0, 9.995462, 10.000792 
2.1846633e+3, 2.8675827e+2, -868169.06, -297257.28, -26902.746, 0.013796098, -0.03294884, -295992.34, -166226.33, 0.0, 9.9942, 10.0017605 
2.1846046e+3, 2.9675925e+2, -951527.1, -265495.8, -32374.328, 0.122642264, -0.099408664, -263971.44, -232215.73, 0.0, 9.992865, 10.00195 
2.184542e+3, 3.0676234e+2, -879708.7, 13048.07, -81103.71, -0.079660304, -0.07471283, 20356.223, 20356.223, 0.0, 9.99208, 10.003907 
2.1844827e+3, 3.1676668e+2, -1065312.4, -212259.13, 52059.746, 0.023015952, 0.010661459, -209093.8, -209093.8, 0.0, 9.991392, 10.00269 
2.19556e+3, 1.3684343e+2, -802564.1, -1468945.0, -47589.887, -0.061570786, -0.09845164, -799182.6, 799752.2, 0.4085571, 10.011192, 9.996231 
2.1955018e+3, 1.468421e+2, -860106.3, -1479058.0, 111513.85, 0.015684368, 0.143938, -840628.3, 660318.1, 0.2675205, 10.007781, 9.996574 
2.195445e+3, 1.5683648e+2, -632096.1, -1385718.3, 120574.18, 0.0075212233, -0.055332404, -613275.2, 789726.94, 0.142354, 10.0080385, 9.996388 
2.1953867e+3, 1.6683282e+2, -524247.94, -1288426.3, 42828.22, -0.015639186, -0.04974325, -521855.13, 783182.94, 0.05696729, 10.007413, 9.996672 
2.1953271e+3, 1.7683025e+2, -554415.9, -1273111.3, 27598.303, -0.0635251, 0.04177518, -553357.7, 653705.44, 0.014734458, 10.006291, 9.996638 
2.1952678e+3, 1.8682687e+2, -530476.6, -1116057.9, -8646.301, -0.030118203, 0.01500256, -530349.0, 578746.3, 0.0016368491, 10.005293, 9.997526 
2.1952085e+3, 1.9682339e+2, -575008.5, -1095803.3, -6239.9224, 0.049142018, -0.06949622, -574933.75, 436194.5, 0.000022352082, 10.004344, 9.99745 
2.1951477e+3, 2.0682116e+2, -600837.0, -979761.9, -30175.2, 0.03591609, -0.05140004, -598449.06, 314700.97, 0.0, 10.003158, 9.998146 
2.1950865e+3, 2.1681976e+2, -699606.75, -984272.8, -38161.066, -0.02600788, 0.010735612, -694579.8, 120584.53, 0.0, 10.001838, 9.998078 
2.1950251e+3, 2.268181e+2, -686212.75, -838900.4, -71772.46, -0.0358438, 0.018220076, -657772.7, 59408.76, 0.0, 10.000877, 9.998865 
2.1949641e+3, 2.3681657e+2, -699644.6, -790356.6, -85561.65, -0.01958299, -0.0065960996, -648160.75, -28963.244, 0.0, 10.000092, 9.998905 
2.1949023e+3, 2.4681573e+2, -672800.5, -586323.7, -91363.664, -0.030125594, -0.028973235, -528483.56, -7278.6836, 0.0, 9.999, 10.000158 
2.1948406e+3, 2.568155e+2, -762841.2, -589462.6, -82757.98, -0.05286454, -0.0527227, -556302.3, -133097.08, 0.0, 9.997754, 10.000065 
2.1947795e+3, 2.6681575e+2, -786866.5, -475363.3, -77179.96, -0.01741274, -0.043387447, -457289.4, -132087.03, 0.0, 9.996594, 10.000733 
2.1947187e+3, 2.7681646e+2, -851145.9, -454022.34, -79274.09, 0.044069044, -0.03079948, -438782.44, -211586.22, 0.0, 9.995474, 10.000748 
2.1946572e+3, 2.868176e+2, -859676.44, -279512.13, -79129.92, 0.0000005957618, -0.03260486, -268913.06, -139727.64, 0.0, 9.994194, 10.001889 
2.194595e+3, 2.9681957e+2, -960186.6, -280411.78, -76406.055, -0.09691639, -0.008478107, -271929.66, -240763.52, 0.0, 9.992846, 10.001861 
2.1945351e+3, 3.068217e+2, -964229.6, -171804.52, -101363.63, 0.05508635, 0.0019479737, -159044.0, -159044.0, 0.0, 9.992117, 10.002623 
2.1944734e+3, 3.168236e+2, -958203.25, -5847.258, 31866.525, -0.049189337, -0.050834075, -4782.172, -4782.172, 0.0, 9.991466, 10.00407 
2.2055705e+3, 1.3690625e+2, -898758.6, -1547120.3, -89302.88, -0.05638004, -0.059485488, -886683.3, 711635.6, 0.42564368, 10.01061, 9.995619 
2.2055104e+3, 1.4690359e+2, -762522.06, -1463365.0, 187883.6, 0.06388908, 0.10199515, -715331.4, 785013.06, 0.28066492, 10.009028, 9.996153 
2.2054529e+3, 1.5689826e+2, -612277.3, -1416750.9, 174312.86, -0.021523308, -0.027688688, -576131.4, 826265.25, 0.15114813, 10.008456, 9.995994 
2.2053938e+3, 1.6689424e+2, -520085.34, -1310563.6, 70469.055, -0.04317808, -0.025661144, -513852.38, 790583.5, 0.061766908, 10.007592, 9.996428 
2.2053336e+3, 1.7689106e+2, -528339.56, -1281379.4, 64921.945, -0.050498914, 0.030479021, -522783.44, 683683.5, 0.016653413, 10.006579, 9.996442 
2.2052729e+3, 1.8688756e+2, -513583.88, -1106325.8, 26962.098, -0.0153986905, 0.0014330584, -512359.97, 596140.4, 0.002080031, 10.00541, 9.997534 
2.2052124e+3, 1.9688419e+2, -600422.8, -1106719.3, 20630.273, 0.04743892, -0.07182763, -599583.56, 410948.7, 0.00004660241, 10.0041685, 9.9974575 
2.2051509e+3, 2.0688194e+2, -577411.0, -967919.3, 3363.0032, 0.02981516, -0.054252956, -577382.06, 335172.03, 0.0, 10.003321, 9.998145 
2.2050884e+3, 2.168805e+2, -582984.1, -929233.4, 313.01822, -0.030207288, 0.004424569, -582983.8, 231584.77, 0.0, 10.002649, 9.998062 
2.2050261e+3, 2.2687876e+2, -626097.6, -819821.4, -24706.078, -0.030773897, 0.011770276, -622996.44, 93590.484, 0.0, 10.001338, 9.998772 
2.2049639e+3, 2.3687711e+2, -759146.9, -825091.06, -21248.635, -0.0005610799, -0.012928136, -752893.2, -134288.38, 0.0, 9.999716, 9.998844 
2.2049011e+3, 2.4687645e+2, -732890.94, -606380.56, -24622.334, -0.01968137, -0.018441034, -601757.4, -81146.734, 0.0, 9.998553, 10.000234 
2.2048381e+3, 2.568765e+2, -784319.56, -596695.8, -28314.16, -0.06109977, -0.017988762, -592516.06, -169908.03, 0.0, 9.997597, 10.000089 
2.2047758e+3, 2.6687655e+2, -798491.94, -496672.84, -27866.6, -0.015464056, -0.02301918, -494121.5, -169513.86, 0.0, 9.996589, 10.000587 
2.2047144e+3, 2.7687678e+2, -852631.0, -465955.34, -37809.3, 0.07155239, -0.04096144, -462293.03, -235686.75, 0.0, 9.995518, 10.000642 
2.2046511e+3, 2.8687805e+2, -837588.25, -263424.2, -47857.23, -0.016219458, -0.026033672, -259462.58, -130868.33, 0.0, 9.994327, 10.001933 
2.2045869e+3, 2.9688033e+2, -912011.25, -254317.13, -44791.594, -0.18301156, 0.02543271, -251280.66, -220708.63, 0.0, 9.993169, 10.001881 
2.204528e+3, 3.0688235e+2, -977167.7, -231415.22, -11290.636, 0.13947006, 0.048496805, -231244.33, -231244.33, 0.0, 9.99226, 10.002144 
2.2044644e+3, 3.1688341e+2, -1018976.1, 28510.969, 106159.03, -0.045810573, -0.03758563, 39161.51, 39161.51, 0.0, 9.990783, 10.004632 
2.2155812e+3, 1.3697207e+2, -996953.1, -1699232.9, -170506.17, -0.02139355, 0.10096873, -957745.0, 639929.5, 0.44328892, 10.010136, 9.99472 
2.2155198e+3, 1.4696506e+2, -818817.6, -1587172.5, 171365.56, 0.102789976, -0.08296605, -782330.75, 717413.25, 0.29464856, 10.009062, 9.995254 
2.2154607e+3, 1.5696126e+2, -663570.56, -1524181.5, 152568.28, -0.08654292, 0.029603157, -637323.9, 764454.9, 0.16082904, 10.008474, 9.995236 
2.215401e+3, 1.6695677e+2, -532416.4, -1329765.5, 34830.355, -0.070150785, 0.02393299, -530897.75, 772923.94, 0.06723612, 10.007596, 9.996295 
2.2153409e+3, 1.769522e+2, -538737.5, -1299527.3, 27738.002, 0.03242302, -0.0475616, -537727.5, 668139.0, 0.018927364, 10.006573, 9.996323 
2.2152786e+3, 1.8694901e+2, -521542.28, -1123257.9, -18157.535, 0.022922358, -0.03401966, -520994.84, 586902.94, 0.00264752, 10.005409, 9.99742 
2.2152156e+3, 1.9694677e+2, -604766.9, -1118405.5, -18907.418, -0.035468858, 0.017085342, -604071.8, 405848.28, 0.00008830397, 10.004175, 9.997376 
2.2151533e+3, 2.0694412e+2, -570100.0, -954962.4, -19048.992, -0.031605907, -0.0075313086, -569159.5, 342785.94, 0.0, 10.003325, 9.998235 
2.2150913e+3, 2.1694154e+2, -576761.2, -916130.1, -28517.69, -0.00013480807, -0.0723018, -574381.5, 239588.23, 0.0, 10.002644, 9.998158 
2.2150277e+3, 2.2694004e+2, -618229.8, -803659.94, -84741.984, 0.0051172804, -0.05304761, -585337.2, 130648.555, 0.0, 10.001333, 9.998888 
2.2149634e+3, 2.3693928e+2, -753282.0, -813996.2, -76154.92, -0.0010090845, 0.0010787065, -701656.6, -83661.28, 0.0, 9.999715, 9.998924 
2.2148994e+3, 2.4693894e+2, -739365.2, -620975.7, -60835.527, -0.0120107075, 0.031704146, -595288.3, -75289.555, 0.0, 9.998554, 10.000135 
2.2148357e+3, 2.5693902e+2, -790659.3, -613968.6, -64418.85, -0.0292355, 0.045167256, -592976.44, -170979.56, 0.0, 9.99761, 9.999967 
2.2147723e+3, 2.6693875e+2, -811111.4, -527211.4, -68992.69, -0.030990092, 0.026905859, -511333.03, -187332.89, 0.0, 9.9966, 10.000375 
2.2147089e+3, 2.7693862e+2, -863230.8, -493631.63, -81252.58, -0.01620329, -0.0085774, -476557.8, -250554.97, 0.0, 9.995536, 10.000446 
2.214645e+3, 2.8693956e+2, -840264.0, -273461.22, -94092.78, -0.036250893, -0.013335589, -258249.48, -130256.04, 0.0, 9.994343, 10.001859 
2.2145806e+3, 2.9694128e+2, -896234.56, -228191.75, -81653.02, -0.098994136, -0.012669028, -218356.33, -188380.6, 0.0, 9.993194, 10.002051 
2.21452e+3, 3.069443e+2, -934011.56, -149827.42, -48311.758, 0.13423447, 0.062173694, -146862.27, -146862.27, 0.0, 9.992284, 10.002697 
2.214455e+3, 3.1694612e+2, -1077929.8, -92998.75, -68266.37, -0.03809702, 0.021848464, -88289.67, -88289.67, 0.0, 9.990771, 10.003806 
2.22559e+3, 1.3703352e+2, -1392277.4, -1866481.5, -106612.53, 0.14421785, 0.082208134, -1369411.0, 227661.42, 0.4618914, 10.004739, 9.996055 
2.2255276e+3, 1.4702755e+2, -707192.2, -1489818.0, 87204.64, -0.07990922, -0.04816934, -697593.06, 801539.25, 0.3098131, 10.0103, 9.995263 
2.2254698e+3, 1.5702328e+2, -594304.2, -1467731.5, 103604.24, -0.025657095, 0.015897622, -582183.06, 818987.6, 0.17161103, 10.009088, 9.995314 
2.2254092e+3, 1.6701896e+2, -499410.13, -1275630.4, 14783.325, 0.010319217, 0.0029919976, -499128.66, 804083.25, 0.07346758, 10.007727, 9.996615 
2.2253469e+3, 1.770148e+2, -558066.5, -1276574.9, 36681.484, 0.031566378, -0.056156114, -556198.7, 649053.8, 0.021583654, 10.006317, 9.996601 
2.2252837e+3, 1.8701187e+2, -527742.5, -1115043.4, 16770.992, 0.0043527093, -0.035240225, -527263.94, 580017.6, 0.0033488488, 10.005327, 9.997515 
2.2252198e+3, 1.9700979e+2, -547539.06, -1079005.5, 28398.035, -0.04410909, 0.023075558, -546025.94, 463276.5, 0.00015263715, 10.004523, 9.997477 
2.2251564e+3, 2.0700721e+2, -565406.25, -939444.2, 33794.406, -0.03540657, -0.0023235925, -562377.44, 348949.7, 0.00000000002443796, 10.003306, 9.998348 
2.2250932e+3, 2.1700466e+2, -677584.1, -951693.94, 23013.668, 0.0011377067, -0.07356787, -675665.4, 137686.05, 0.0, 10.001901, 9.998268 
2.2250286e+3, 2.2700325e+2, -668171.7, -818888.56, -37429.03, 0.00403816, -0.050935473, -659388.44, 55977.91, 0.0, 10.000958, 9.9989605 
2.2249632e+3, 2.3700267e+2, -677719.25, -772990.9, -32278.158, -0.007515104, 0.013496165, -667813.3, -50439.168, 0.0, 10.000221, 9.998959 
2.2248982e+3, 2.4700221e+2, -669211.8, -603159.8, -16994.436, -0.0061911717, 0.04058707, -599043.8, -79664.734, 0.0, 9.999111, 9.999986 
2.2248335e+3, 2.5700203e+2, -765014.0, -608325.06, -24667.533, -0.0030431892, 0.042523287, -604533.44, -183152.95, 0.0, 9.997823, 9.999899 
2.2247685e+3, 2.670019e+2, -796488.7, -496878.22, -8077.3477, -0.030473776, 0.02958982, -496660.63, -173278.28, 0.0, 9.996608, 10.000576 
2.2247039e+3, 2.770021e+2, -869159.44, -478147.34, 7483.881, -0.058613192, 0.0113847805, -478004.16, -252622.86, 0.0, 9.995421, 10.000605 
2.2246389e+3, 2.8700307e+2, -849057.2, -277394.72, 9930.182, -0.045490067, 0.007322125, -277222.25, -149851.14, 0.0, 9.994287, 10.001856 
2.224574e+3, 2.9700455e+2, -911532.56, -240145.67, 25299.365, -0.049470007, -0.016289305, -239193.69, -209837.97, 0.0, 9.9931135, 10.002005 
2.2245117e+3, 3.0700734e+2, -987248.0, -141629.97, 25828.61, 0.10852856, 0.02901493, -140841.78, -140841.78, 0.0, 9.99178, 10.002993 
2.2244455e+3, 3.1700888e+2, -1097108.5, -120249.26, -53794.785, -0.046770215, -0.07262897, -117295.76, -117295.76, 0.0, 9.990734, 10.003629 
2.2355962e+3, 1.3709097e+2, -1296505.9, -1542067.5, 269175.56, 0.3063075, -0.14232878, -1123431.0, 473077.84, 0.4832289, 10.004792, 9.999092 
2.2355342e+3, 1.4709094e+2, -675440.0, -1410924.1, 61736.035, -0.44245577, 0.16404249, -670293.9, 828217.2, 0.32723272, 10.010474, 9.995984 
2.2354804e+3, 1.5708452e+2, -566852.94, -1367272.3, 68662.516, 0.1393848, -0.05978536, -561005.56, 839565.2, 0.18395494, 10.009058, 9.996056 
2.2354184e+3, 1.6708091e+2, -464309.63, -1184243.4, -28971.217, 0.17324504, -0.075296596, -463145.7, 839459.56, 0.08056553, 10.007693, 9.997318 
2.2353522e+3, 1.7707874e+2, -515390.16, -1188393.9, -5871.873, -0.04875007, -0.0034218028, -515338.94, 689287.5, 0.024613943, 10.006341, 9.997201 
2.235288e+3, 1.8707594e+2, -507098.8, -1076743.0, -9704.789, -0.06507336, -0.0072916932, -506933.5, 599719.75, 0.0041736504, 10.005346, 9.997771 
2.2352245e+3, 1.9707312e+2, -532387.06, -1046389.2, -2810.5544, 0.013903316, -0.048433702, -532371.7, 476308.5, 0.00024087132, 10.004513, 9.997708 
2.2351599e+3, 2.0707113e+2, -558175.1, -923353.0, -17749.178, 0.011076341, -0.03418659, -557314.5, 353385.84, 0.0000000065898873, 10.003297, 9.9984665 
2.2350948e+3, 2.1706972e+2, -670572.8, -938132.75, -22488.063, -0.029759822, -0.0007779116, -668695.9, 144019.19, 0.0, 10.0019, 9.998365 
2.235029e+3, 2.2706832e+2, -666581.0, -817183.75, -63078.797, -0.035422247, 0.01637744, -643651.9, 71078.164, 0.0, 10.000961, 9.998974 
2.2349629e+3, 2.3706715e+2, -678211.3, -777085.3, -62401.88, -0.023593636, 0.02263405, -648036.7, -31294.09, 0.0, 10.000229, 9.99893 
2.2348972e+3, 2.470661e+2, -682977.5, -635337.25, -66510.2, -0.0049901144, 0.0046591284, -588510.4, -69757.22, 0.0, 9.999122, 9.9997635 
2.2348313e+3, 2.5706533e+2, -764767.2, -611781.56, -73105.375, 0.011591727, -0.029960526, -582465.4, -161705.16, 0.0, 9.997834, 9.999872 
2.2347651e+3, 2.6706582e+2, -751097.6, -404960.4, -53908.527, -0.014559523, -0.018291755, -396758.84, -74003.66, 0.0, 9.996613, 10.001208 
2.234699e+3, 2.7706715e+2, -829536.44, -399074.75, -34872.527, -0.050092306, 0.015972268, -396267.94, -171526.1, 0.0, 9.99543, 10.001147 
2.2346331e+3, 2.870687e+2, -841355.2, -266211.78, -32780.203, -0.047123175, 0.035726797, -264349.5, -137622.97, 0.0, 9.9943, 10.001929 
2.234567e+3, 2.970703e+2, -930862.44, -287533.0, -19555.979, -0.0605778, 0.02315824, -286939.06, -258228.97, 0.0, 9.993136, 10.001672 
2.2345027e+3, 3.0707136e+2, -1004673.7, -175725.2, -27248.082, 0.06837839, -0.061577212, -174830.5, -174830.5, 0.0, 9.991769, 10.002765 
2.2344366e+3, 3.1707436e+2, -1065889.1, -63999.793, -47299.188, 0.0038586156, -0.038243826, -61771.75, -61771.75, 0.0, 9.990755, 10.004013 
2.2455469e+3, 1.4715624e+2, -398897.6, -1273261.8, 153458.67, -0.3583752, 0.15452634, -372746.4, 1125122.4, 0.34856844, 10.013713, 9.995898 
2.2454885e+3, 1.5714929e+2, -637409.06, -1403441.1, 160055.23, 0.09069221, -0.10883578, -605311.9, 794622.2, 0.19847545, 10.008598, 9.996027 
2.245425e+3, 1.6714594e+2, -540944.94, -1202850.1, 112820.86, 0.12817112, -0.10274583, -522243.22, 779723.7, 0.08860956, 10.007103, 9.997466 
2.2453591e+3, 1.7714436e+2, -387104.25, -1112103.3, 100103.164, -0.030596977, 0.017207025, -373536.56, 830446.5, 0.02796679, 10.007212, 9.997317 
2.2452937e+3, 1.8714146e+2, -425523.1, -1036859.4, 50994.09, -0.046200998, 0.00028580878, -421298.66, 684712.3, 0.005089449, 10.005918, 9.997769 
2.2452286e+3, 1.9713823e+2, -604532.9, -1078235.4, 41498.086, 0.007890959, -0.079956114, -600925.0, 407116.6, 0.00034854983, 10.004011, 9.997728 
2.2451629e+3, 2.0713645e+2, -610583.56, -936099.8, 29589.906, 0.0065534366, -0.047055647, -607915.6, 302144.13, 0.000000048944283, 10.002889, 9.998571 
2.2450967e+3, 2.1713561e+2, -631072.0, -906963.44, 22949.635, -0.021695148, 0.031847924, -629176.0, 182893.95, 0.0, 10.002125, 9.998467 
2.2450298e+3, 2.2713418e+2, -641054.94, -794948.1, -9046.979, -0.030581295, 0.040243056, -640524.9, 73559.99, 0.0, 10.001099, 9.999057 
2.2449629e+3, 2.3713277e+2, -712567.94, -781587.2, -4803.024, -0.027368724, 0.012255378, -712235.3, -96135.88, 0.0, 9.999948, 9.99903 
2.2448957e+3, 2.4713172e+2, -717177.4, -635063.06, 4346.6616, -0.012794927, -0.016090719, -634833.6, -116724.01, 0.0, 9.998822, 9.999906 
2.2448288e+3, 2.571311e+2, -776019.7, -600598.6, 22076.15, 0.003800886, -0.04893988, -597863.06, -177747.89, 0.0, 9.997693, 10.000014 
2.2447614e+3, 2.6713178e+2, -756945.1, -391279.9, 22991.709, -0.012980807, -0.028883306, -389839.94, -67731.83, 0.0, 9.9965105, 10.001347 
2.2446944e+3, 2.7713335e+2, -838082.1, -384261.3, 4662.87, -0.034467634, 0.012668971, -384213.4, -160120.7, 0.0, 9.9953, 10.001305 
2.2446272e+3, 2.871349e+2, -847999.7, -248154.13, -1257.0675, -0.03562976, 0.020095194, -248151.5, -122074.51, 0.0, 9.994173, 10.00211 
2.2445598e+3, 2.9713655e+2, -945947.0, -289646.2, 15523.072, -0.058538843, -0.0010201317, -289279.22, -261219.36, 0.0, 9.993022, 10.001707 
2.2444944e+3, 3.0713785e+2, -991799.5, -200737.92, 37453.242, 0.07287993, -0.040345106, -198968.64, -198968.64, 0.0, 9.992002, 10.002477 
2.2444275e+3, 3.1714126e+2, -1025245.1, -13189.232, -10689.219, 0.0485894, 0.034076158, -13076.347, -13076.347, 0.0, 9.990895, 10.004296 
2.2555646e+3, 1.4722319e+2, -496919.25, -1361443.8, 24467.215, 0.06283554, -0.030331414, -496227.34, 1000980.7, 0.37493494, 10.013482, 9.99514 
2.2554946e+3, 1.5721712e+2, -686480.06, -1495378.1, 41216.027, -0.14641987, -0.13242052, -684385.4, 714880.5, 0.2154288, 10.00864, 9.99533 
2.2554299e+3, 1.6721363e+2, -562560.1, -1248605.8, 120249.67, -0.08930077, -0.08783413, -542093.44, 759207.75, 0.097517304, 10.007169, 9.997096 
2.2553672e+3, 1.772115e+2, -415868.22, -1163753.0, 91477.05, 0.0741594, 0.009481272, -404841.84, 798482.7, 0.031532384, 10.007195, 9.996964 
2.2553003e+3, 1.8720827e+2, -446278.06, -1075575.8, -18727.01, 0.04514881, -0.008256008, -445721.28, 659634.94, 0.0060443976, 10.005898, 9.997515 
2.2552317e+3, 1.9720492e+2, -615699.25, -1105210.4, -17573.111, -0.063339464, -0.075660266, -615069.2, 392319.22, 0.00046605023, 10.004022, 9.997541 
2.255165e+3, 2.072031e+2, -603443.06, -925889.25, 4202.952, -0.046648562, -0.04382863, -603388.25, 306018.75, 0.000000125085, 10.002903, 9.998637 
2.2550988e+3, 2.1720222e+2, -624590.56, -895172.56, -5828.3027, 0.021794725, 0.0239318, -624465.06, 186952.34, 0.0, 10.002126, 9.99855 
2.2550313e+3, 2.2720079e+2, -632206.75, -776490.3, -50676.29, 0.015200487, 0.02038228, -616186.6, 97245.414, 0.0, 10.001094, 9.999189 
2.2549626e+3, 2.371994e+2, -696685.0, -750290.56, -46880.008, -0.02306467, -0.017939053, -669486.6, -54040.758, 0.0, 9.999949, 9.999248 
2.2548942e+3, 2.4719898e+2, -682208.56, -563732.3, -38407.77, -0.032697596, -0.019773478, -552370.75, -34921.582, 0.0, 9.998822, 10.000398 
2.254826e+3, 2.571993e+2, -754662.7, -559777.6, -20661.072, -0.032796107, -0.009835164, -557611.3, -138165.77, 0.0, 9.997703, 10.000293 
2.2547576e+3, 2.6719967e+2, -786079.3, -454666.47, -24285.95, -0.030246897, -0.0012029618, -452896.25, -131454.42, 0.0, 9.996516, 10.000912 
2.2546896e+3, 2.772004e+2, -858939.2, -429403.53, -40961.21, -0.01746317, -0.00067933527, -425532.28, -202096.69, 0.0, 9.995302, 10.000998 
2.2546214e+3, 2.8720143e+2, -829315.1, -212330.77, -47438.523, -0.011197516, -0.04416608, -208704.64, -83279.98, 0.0, 9.994179, 10.002357 
2.2545527e+3, 2.972031e+2, -913067.2, -228513.06, -31334.412, -0.040379625, -0.09453631, -227081.77, -199674.34, 0.0, 9.993046, 10.00212 
2.2544868e+3, 3.07207e+2, -1000855.44, -226181.48, 6082.394, 0.123876564, 0.10623413, -226133.73, -226133.73, 0.0, 9.992026, 10.002291 
2.2544175e+3, 3.1720766e+2, -975368.0, 89096.664, -111031.25, -0.031297773, -0.04765242, 100554.68, 100554.68, 0.0, 9.990893, 10.005004 
2.2655769e+3, 1.4729242e+2, -763610.44, -1485657.8, 11363.557, 0.099517025, -0.10395354, -763431.6, 733095.56, 0.40556085, 10.011065, 9.994937 
2.2655039e+3, 1.572872e+2, -530886.44, -1422747.5, 57832.51, -0.13633777, -0.095003866, -527151.94, 871426.4, 0.23414668, 10.010347, 9.995007 
2.2654375e+3, 1.672831e+2, -403848.75, -1230412.6, 185554.67, -0.1008705, -0.059155025, -364104.75, 936515.25, 0.10688429, 10.008753, 9.996474 
2.2653738e+3, 1.7727971e+2, -496947.13, -1253989.9, 142901.33, 0.05353123, -0.022433372, -470870.9, 731784.3, 0.035116926, 10.006868, 9.996496 
2.2653057e+3, 1.8727647e+2, -467134.8, -1074313.1, 35835.367, 0.034176122, -0.027242681, -465027.13, 639660.0, 0.0069705057, 10.005717, 9.997607 
2.2652358e+3, 1.9727363e+2, -489229.16, -1040358.3, 59767.62, -0.060548965, -0.050069533, -482822.1, 523892.44, 0.0005811273, 10.004882, 9.997569 
2.265168e+3, 2.0727152e+2, -515069.63, -905623.5, 82566.27, -0.044372797, -0.035083637, -498331.75, 410404.38, 0.00000020431553, 10.0036125, 9.998432 
2.2651008e+3, 2.1726999e+2, -625808.94, -906012.94, 51113.117, 0.021194043, -0.009171101, -616776.4, 193976.22, 0.0, 10.002169, 9.998452 
2.265032e+3, 2.2726871e+2, -645829.56, -754577.25, 5632.6724, 0.015624512, -0.009095585, -645538.6, 67227.164, 0.0, 10.000884, 9.999437 
2.2649622e+3, 2.3726778e+2, -721515.8, -736563.75, 17804.246, -0.01990891, -0.02356961, -709711.0, -94936.086, 0.0, 9.999675, 9.999472 
2.2648926e+3, 2.4726762e+2, -700028.7, -556718.25, 14721.803, -0.03539771, -0.015169654, -555221.56, -38445.63, 0.0, 9.998639, 10.000531 
2.2648232e+3, 2.5726807e+2, -753124.7, -547025.44, 4242.4976, -0.04431452, -0.0000056603985, -546938.1, -128167.21, 0.0, 9.997668, 10.000393 
2.2647539e+3, 2.6726848e+2, -783739.8, -454403.56, 10460.569, -0.03178319, 0.0078888945, -454071.63, -133304.31, 0.0, 9.996543, 10.000896 
2.2646849e+3, 2.7726912e+2, -859817.94, -433014.6, 24403.805, 0.0035140847, 0.0018083315, -431623.78, -208861.56, 0.0, 9.9953165, 10.000962 
2.2646157e+3, 2.8726995e+2, -817205.5, -213927.55, 18038.057, 0.015922569, -0.05635431, -213388.69, -88635.08, 0.0, 9.994301, 10.002283 
2.2645459e+3, 2.9727143e+2, -854344.1, -186182.75, 4030.1548, -0.021780187, -0.114125624, -186158.45, -159420.6, 0.0, 9.993395, 10.002238 
2.2644782e+3, 3.0727595e+2, -998251.1, -195766.1, 39340.875, 0.10378942, 0.12319412, -193842.06, -193842.06, 0.0, 9.991929, 10.002541 
2.2644077e+3, 3.1727615e+2, -1014292.75, 101085.57, -51632.51, -0.05600603, -0.08177989, 103470.62, 103470.62, 0.0, 9.990506, 10.005266 
2.2755852e+3, 1.4736354e+2, -815635.7, -1480981.6, -4563.7944, -0.17259884, -0.09008604, -815604.44, 680225.06, 0.4373934, 10.010808, 9.995126 
2.2755161e+3, 1.5735924e+2, -555051.06, -1435572.5, 29192.809, 0.07770514, -0.0069750315, -554084.25, 843789.7, 0.25294212, 10.010362, 9.99491 
2.2754475e+3, 1.6735406e+2, -461358.94, -1345930.6, 121550.2, 0.04842082, -0.018056534, -444960.56, 854964.94, 0.11595442, 10.008781, 9.995626 
2.2753789e+3, 1.7734893e+2, -537039.2, -1336919.9, 85466.08, -0.08492721, -0.07742254, -528009.2, 673967.3, 0.03844517, 10.006871, 9.995925 
2.2753103e+3, 1.8734595e+2, -441059.9, -1021731.2, 8094.667, -0.06681792, -0.056328163, -440947.06, 663058.25, 0.007793439, 10.005723, 9.997972 
2.2752412e+3, 1.9734418e+2, -477363.34, -1017294.9, 25928.299, 0.008812654, -0.0048460737, -476121.1, 529900.94, 0.0006824182, 10.004883, 9.99773 
2.2751719e+3, 2.0734152e+2, -548624.5, -975174.25, 29566.12, 0.0057611484, -0.021024354, -546584.9, 361464.1, 0.00000027902902, 10.003606, 9.997961 
2.2751023e+3, 2.1733882e+2, -646376.94, -948187.6, 1630.2035, -0.027822802, -0.06854777, -646368.1, 163708.9, 0.0, 10.002161, 9.99817 
2.275032e+3, 2.2733782e+2, -622697.06, -706878.6, -38156.32, -0.031013355, -0.047669835, -607976.4, 104110.836, 0.0, 10.00088, 9.999769 
2.2749616e+3, 2.373378e+2, -706892.94, -707824.0, -24304.725, -0.021540934, -0.004114271, -683049.3, -68961.65, 0.0, 9.999676, 9.999671 
2.2748911e+3, 2.4733748e+2, -717757.9, -596030.94, -22549.832, -0.022979459, -0.0041392823, -591987.94, -75896.695, 0.0, 9.998644, 10.000261 
2.2748208e+3, 2.5733733e+2, -758073.75, -561600.5, -34759.996, -0.03311605, -0.02391333, -555632.06, -137538.83, 0.0, 9.997681, 10.00029 
2.2747505e+3, 2.6733813e+2, -752750.0, -393478.7, -37894.98, -0.017201066, -0.0013557782, -389525.16, -69439.45, 0.0, 9.9965515, 10.001314 
2.2746801e+3, 2.7733952e+2, -839951.4, -397814.7, -20362.791, 0.02390499, 0.029059527, -396878.84, -174806.64, 0.0, 9.995337, 10.001198 
2.2746098e+3, 2.8734034e+2, -846282.94, -280655.8, -17163.816, 0.03938659, -0.011533575, -280135.44, -156071.47, 0.0, 9.994322, 10.001818 
2.2745393e+3, 2.9734138e+2, -868946.1, -221273.13, -36472.934, -0.0137657365, -0.06782623, -219225.67, -193172.53, 0.0, 9.993408, 10.001994 
2.274469e+3, 3.0734468e+2, -950862.9, -99221.31, -30820.65, 0.0024457637, 0.01866477, -98107.375, -98107.375, 0.0, 9.991929, 10.003208 
2.274399e+3, 3.1734705e+2, -1075487.8, -52411.89, -47215.297, 0.036610775, -0.029187031, -50237.51, -50237.51, 0.0, 9.990598, 10.00418 
2.2855921e+3, 1.4743438e+2, -1063488.6, -1667503.6, 42359.945, -0.39538056, -0.13435893, -1060532.4, 434599.9, 0.46621606, 10.008086, 9.995091 
2.2855264e+3, 1.574305e+2, -501008.6, -1392641.1, 46973.758, 0.05244954, -0.004367151, -498540.72, 898634.3, 0.26955897, 10.011067, 9.99487 
2.2854571e+3, 1.6742525e+2, -315166.22, -1262968.3, 81273.26, 0.07253548, -0.02064399, -308247.6, 990979.4, 0.12374087, 10.009985, 9.995634 
2.285386e+3, 1.7741981e+2, -485910.66, -1313992.6, 105991.18, -0.075233586, -0.106990084, -472559.47, 728719.9, 0.041191183, 10.007273, 9.995887 
2.285316e+3, 1.8741676e+2, -431248.8, -1034325.1, 66142.28, -0.061288014, -0.080373295, -424079.88, 679229.7, 0.008439927, 10.005877, 9.997807 
2.2852461e+3, 1.9741502e+2, -460309.88, -1017661.2, 41492.805, 0.016480953, -0.009134947, -457237.8, 548089.6, 0.000759904, 10.005045, 9.997645 
2.2851753e+3, 2.0741245e+2, -531699.5, -948531.06, 47067.703, 0.0079338895, -0.023218747, -526450.8, 380902.5, 0.00000035612956, 10.00365, 9.998119 
2.285104e+3, 2.174098e+2, -656575.56, -942904.06, 63808.15, -0.034859166, -0.07641126, -642999.6, 166380.06, 0.0, 10.002052, 9.998255 
2.2850327e+3, 2.2740874e+2, -620967.1, -721293.75, 27593.594, -0.038299855, -0.056177888, -613878.7, 97512.58, 0.0, 10.000962, 9.999628 
2.2849612e+3, 2.374086e+2, -655123.5, -690832.4, 5729.346, -0.023658548, -0.0100277085, -654226.75, -40832.85, 0.0, 10.000072, 9.999593 
2.2848897e+3, 2.4740839e+2, -687645.4, -570245.5, 14597.025, -0.024336847, -0.00034891252, -568457.75, -53061.06, 0.0, 9.998809, 10.000356 
2.2848181e+3, 2.574084e+2, -792575.5, -566634.2, 28500.215, -0.033011287, -0.009976482, -563094.6, -145697.6, 0.0, 9.9974, 10.000387 
2.2847466e+3, 2.6740918e+2, -778687.3, -396846.13, 17917.498, -0.014299195, 0.0012300897, -396007.22, -76617.41, 0.0, 9.996341, 10.0013895 
2.2846752e+3, 2.7741045e+2, -824656.0, -382211.2, 8991.012, 0.028259277, 0.017601285, -382028.53, -160651.67, 0.0, 9.995411, 10.001266 
2.284604e+3, 2.8741163e+2, -851101.4, -282065.06, 30340.889, 0.04238628, 0.0079595465, -280451.88, -157086.39, 0.0, 9.994291, 10.00182 
2.2845322e+3, 2.9741293e+2, -924562.06, -250688.08, 39140.082, -0.0063150492, -0.0206018, -248422.36, -223070.11, 0.0, 9.993047, 10.001963 
2.2844605e+3, 3.0741525e+2, -925997.56, -66927.64, 16552.025, -0.019467223, -0.033241924, -66608.84, -66608.84, 0.0, 9.992022, 10.00338 
2.2843899e+3, 3.1741837e+2, -1018816.94, -73107.34, 24714.87, 0.06548219, -0.029025372, -72461.89, -72461.89, 0.0, 9.991203, 10.003738 
2.295598e+3, 1.4750503e+2, -1046736.44, -1667965.4, 110238.836, -0.6029656, -0.22202592, -1027754.25, 466680.97, 0.48820853, 10.008673, 9.994886 
2.2955349e+3, 1.5750115e+2, -505995.88, -1387736.9, 94063.06, -0.17536399, -0.07236063, -496073.0, 900407.4, 0.28184378, 10.011152, 9.9948845 
2.2954658e+3, 1.6749664e+2, -283628.47, -1176880.3, -7818.947, -0.009315817, -0.059879214, -283560.03, 1014964.75, 0.12927127, 10.009938, 9.99634 
2.2953942e+3, 1.7749222e+2, -460151.28, -1259231.4, 24031.682, 0.06068309, -0.11221409, -459429.22, 741136.7, 0.04303316, 10.007284, 9.996258 
2.2953226e+3, 1.8748876e+2, -475728.84, -1128765.8, 37637.8, 0.031295996, -0.099079214, -473566.75, 629034.94, 0.008838391, 10.00588, 9.997156 
2.2952503e+3, 1.9748609e+2, -485015.06, -1064828.1, 7292.763, -0.038716786, -0.06125452, -484923.34, 519708.13, 0.0008031574, 10.005021, 9.997337 
2.2951782e+3, 2.0748417e+2, -483022.34, -845701.25, -10953.57, -0.036016103, -0.04093186, -482691.8, 423958.38, 0.00000040817974, 10.003636, 9.998835 
2.2951062e+3, 2.1748282e+2, -629080.4, -886958.06, 12390.807, -0.0041306787, -0.034435246, -628486.4, 180175.94, 0.0, 10.002051, 9.998643 
2.2950336e+3, 2.2748128e+2, -665454.25, -814888.0, -3743.715, -0.0104352515, -0.036534898, -665360.5, 45318.977, 0.0, 10.000962, 9.998988 
2.2949609e+3, 2.3748e+2, -679332.75, -743838.3, -31400.941, -0.031286992, -0.043268293, -666571.5, -53876.195, 0.0, 10.000077, 9.999229 
2.2948879e+3, 2.4748026e+2, -654494.9, -504076.8, -40413.844, -0.042523526, -0.0026202637, -493906.22, 20787.154, 0.0, 9.998814, 10.000811 
2.2948149e+3, 2.574813e+2, -771990.5, -526394.25, -21054.934, -0.050978046, 0.046985082, -524602.3, -107919.73, 0.0, 9.997405, 10.000665 
2.2947425e+3, 2.674815e+2, -799901.5, -443805.28, -17928.95, -0.029004285, 0.013725541, -442904.88, -124224.17, 0.0, 9.996347, 10.001067 
2.2946703e+3, 2.7748176e+2, -829971.3, -399089.84, -28608.098, 0.011552485, -0.045450374, -397198.72, -176520.02, 0.0, 9.99543, 10.001143 
2.2945979e+3, 2.8748375e+2, -814842.2, -208729.97, -19536.752, 0.020326642, 0.00250952, -208100.89, -85442.16, 0.0, 9.994293, 10.002325 
2.2945249e+3, 2.9748636e+2, -915202.3, -229534.22, -6871.3276, -0.010495902, 0.05451638, -229465.38, -204832.9, 0.0, 9.993032, 10.002118 
2.2944531e+3, 3.0748728e+2, -955291.5, -136259.73, -13623.0, 0.06262345, -0.068064645, -136033.2, -136033.2, 0.0, 9.99205, 10.002895 
2.2943804e+3, 3.1749105e+2, -967022.3, 22111.754, 1834.4971, 0.008165282, 0.032165844, 22115.156, 22115.156, 0.0, 9.991261, 10.004363 
2.3055473e+3, 1.5757348e+2, -356577.22, -1291911.1, 95552.625, -0.104661405, -0.11610086, -346915.47, 1048855.8, 0.28824985, 10.012562, 9.995118 
2.305475e+3, 1.6756925e+2, -324518.13, -1170902.3, -4693.6323, -0.02300539, -0.098759346, -324492.1, 973320.44, 0.13182063, 10.00952, 9.996588 
2.3054014e+3, 1.7756547e+2, -347089.9, -1180177.9, 3547.038, 0.030422952, -0.1076166, -347074.8, 852772.56, 0.043704458, 10.00801, 9.996453 
2.305328e+3, 1.875621e+2, -428539.72, -1106979.0, 60705.84, 0.010323062, -0.091872595, -423150.66, 678732.0, 0.008921075, 10.006221, 9.997138 
2.3052546e+3, 1.9755924e+2, -574822.6, -1104857.0, 69316.625, -0.043923542, -0.069185644, -565907.5, 438006.9, 0.00080215343, 10.0043955, 9.997359 
2.3051813e+3, 2.0755734e+2, -526733.5, -852791.75, 38751.914, -0.04507326, -0.054018755, -522191.13, 383741.78, 0.00000039459331, 10.003283, 9.998953 
2.3051079e+3, 2.175561e+2, -564246.7, -842626.1, 19983.13, -0.020585826, -0.045641895, -562819.56, 245124.06, 0.0, 10.002449, 9.998752 
2.3050344e+3, 2.2755472e+2, -643139.5, -798888.2, 29063.873, -0.011843131, -0.03754916, -637892.7, 72066.68, 0.0, 10.0011, 9.999028 
2.3049606e+3, 2.3755357e+2, -751124.94, -774269.25, 49494.414, -0.010611509, -0.032690592, -711867.8, -99893.72, 0.0, 9.999573, 9.999261 
2.3048864e+3, 2.4755375e+2, -701246.6, -525458.56, 31692.254, -0.027155353, 0.0012502068, -519919.38, -5946.5625, 0.0, 9.998493, 10.000815 
2.3048122e+3, 2.5755468e+2, -747481.75, -512266.9, 17696.748, -0.050564818, 0.03936896, -510942.9, -94979.9, 0.0, 9.997568, 10.00068 
2.3047385e+3, 2.6755488e+2, -787877.06, -433636.7, 33590.563, -0.034986146, 0.001459214, -430479.63, -112518.33, 0.0, 9.996416, 10.001101 
2.3046653e+3, 2.7755508e+2, -862644.8, -409067.1, 48695.254, 0.007248837, -0.06197528, -403898.2, -183938.73, 0.0, 9.995188, 10.001189 
2.3045918e+3, 2.8755718e+2, -800613.94, -194448.14, 41963.11, 0.018869763, -0.0034138705, -191556.94, -69618.625, 0.0, 9.994365, 10.002386 
2.304518e+3, 2.9756007e+2, -831878.06, -193609.42, 15249.253, -0.014867854, 0.070639655, -193245.3, -169335.44, 0.0, 9.993626, 10.002077 
2.304445e+3, 3.0756027e+2, -969913.5, -196298.39, 7045.691, 0.07964738, -0.090676405, -196234.23, -196234.23, 0.0, 9.992173, 10.002425 
2.3043713e+3, 3.1756395e+2, -1028112.1, 44532.38, 39077.523, 0.033927627, 0.036356032, 45954.13, 45954.13, 0.0, 9.99063, 10.004815 
2.3155628e+3, 1.5764722e+2, -356461.0, -1265408.4, -49931.39, 0.19447641, -0.14024806, -353726.34, 1041322.94, 0.28795385, 10.012385, 9.9954605 
2.3154849e+3, 1.6764288e+2, -337921.06, -1192275.0, -50147.477, 0.008451151, -0.13619134, -334987.66, 962103.8, 0.13101867, 10.009473, 9.996443 
2.3154072e+3, 1.7763945e+2, -352068.72, -1180995.8, -49213.81, -0.14983797, -0.09793326, -349157.1, 849967.4, 0.043070313, 10.007955, 9.996477 
2.3153327e+3, 1.876366e+2, -396603.53, -1036608.2, -4951.419, -0.11200495, -0.06341342, -396565.25, 704588.5, 0.008657957, 10.006195, 9.997641 
2.3152593e+3, 1.9763425e+2, -555472.5, -1067475.6, 12450.308, -0.0060619675, -0.036279574, -555169.9, 448008.63, 0.0007543693, 10.004401, 9.997617 
2.3151846e+3, 2.0763177e+2, -557910.7, -918845.0, 10818.697, -0.026009643, -0.062443145, -557586.7, 347616.66, 0.00000030193428, 10.003283, 9.998502 
2.3151097e+3, 2.1762955e+2, -576805.1, -866365.5, -14326.501, -0.08805353, -0.109674394, -576098.0, 231126.81, 0.0, 10.002432, 9.9986 
2.3150349e+3, 2.2762898e+2, -596081.6, -700666.75, -27034.232, -0.044109758, -0.058203418, -589506.9, 119724.945, 0.0, 10.001092, 9.99971 
2.3149605e+3, 2.3762922e+2, -724112.06, -719105.06, -1280.7743, 0.036080077, 0.02207985, -718796.44, -107565.15, 0.0, 9.999571, 9.999644 
2.3148853e+3, 2.4762875e+2, -735127.6, -598180.06, -3297.636, 0.02044234, 0.00873637, -598100.7, -84864.375, 0.0, 9.998498, 10.000317 
2.3148096e+3, 2.5762835e+2, -763517.8, -551248.44, -20885.166, -0.034749225, -0.039751742, -549213.06, -133972.84, 0.0, 9.997586, 10.000406 
2.3147346e+3, 2.6762912e+2, -757592.4, -373915.47, -15951.174, -0.034019284, -0.034847442, -373253.44, -56021.21, 0.0, 9.996424, 10.001511 
2.3146601e+3, 2.776305e+2, -848119.0, -379697.16, 8082.5283, 0.0063669463, -0.01993117, -379557.72, -160339.77, 0.0, 9.995185, 10.001395 
2.3145862e+3, 2.8763187e+2, -831231.44, -261929.13, 16531.166, 0.039014544, -0.015769271, -261449.5, -140244.53, 0.0, 9.994376, 10.00192 
2.3145115e+3, 2.9763362e+2, -843763.3, -231769.27, -22103.338, -0.0038623698, -0.0063818474, -230972.0, -207783.27, 0.0, 9.993677, 10.001794 
2.314436e+3, 3.076347e+2, -994406.94, -252813.39, -61536.418, -0.023387529, -0.059089612, -247741.88, -247741.88, 0.0, 9.992188, 10.002035 
2.3143624e+3, 3.1763762e+2, -990096.0, 132872.8, 28689.754, 0.11464319, 0.03933506, 133605.3, 133605.3, 0.0, 9.990592, 10.00544 
2.3256567e+3, 1.4772898e+2, -953955.2, -1490581.9, -7327.1274, 0.6042031, -0.03323423, -953855.2, 538395.6, 0.48996684, 10.009549, 9.995597 
2.3255734e+3, 1.5772371e+2, -562574.56, -1371723.8, -22862.658, 0.18152007, -0.08767096, -561929.1, 832372.9, 0.28057823, 10.010341, 9.995411 
2.3254934e+3, 1.6771927e+2, -390964.56, -1217478.0, 4487.16, -0.028604351, -0.08881398, -390940.2, 905405.0, 0.12680812, 10.009016, 9.996455 
2.3254143e+3, 1.7771569e+2, -475746.56, -1236337.1, 20687.52, -0.1603771, -0.06693512, -475184.28, 723195.94, 0.041185316, 10.007035, 9.99653 
2.3253384e+3, 1.877127e+2, -444170.0, -1047774.25, 64793.89, -0.108083226, -0.051836513, -437293.06, 663116.7, 0.008091248, 10.005819, 9.997739 
2.3252636e+3, 1.9771022e+2, -477318.53, -1018873.25, 55155.23, 0.011896754, -0.0447425, -471758.28, 530675.94, 0.0006701338, 10.004901, 9.997705 
2.3251878e+3, 2.077078e+2, -544039.44, -911242.4, 72240.76, -0.020793375, -0.06427167, -530338.5, 374119.6, 0.00000017879798, 10.003382, 9.998503 
2.325111e+3, 2.1770576e+2, -681990.7, -909769.6, 75817.72, -0.10560252, -0.09598347, -659062.25, 147416.42, 0.0, 10.001685, 9.998657 
2.3250353e+3, 2.2770515e+2, -650664.25, -704891.8, 49827.36, -0.056870814, -0.05737024, -621051.3, 87433.66, 0.0, 10.000628, 9.999901 
2.32496e+3, 2.3770535e+2, -681892.75, -684911.0, 43096.008, 0.04081498, 0.0018561094, -640279.44, -29795.922, 0.0, 9.999808, 9.99976 
2.3248835e+3, 2.4770474e+2, -694917.25, -592342.7, 59610.496, 0.025506217, -0.021443196, -564992.9, -52502.938, 0.0, 9.998839, 10.000188 
2.3248072e+3, 2.5770414e+2, -739961.5, -551330.94, 64383.23, -0.033581067, -0.07546624, -531450.9, -116954.79, 0.0, 9.997806, 10.000297 
2.3247312e+3, 2.6770496e+2, -722840.4, -361590.66, 44106.79, -0.025715115, -0.05478798, -356283.4, -39795.66, 0.0, 9.996688, 10.001464 
2.3246555e+3, 2.7770647e+2, -806093.56, -366397.16, 35112.97, 0.024335062, -0.019519547, -363610.78, -145138.55, 0.0, 9.995509, 10.0013275 
2.3245803e+3, 2.8770754e+2, -847892.06, -284314.63, 60728.36, 0.042215068, -0.03178882, -277845.13, -157382.8, 0.0, 9.994331, 10.001785 
2.3245044e+3, 2.9770905e+2, -919124.5, -274155.63, 41062.68, -0.017639212, -0.034500815, -271551.84, -249102.88, 0.0, 9.9931965, 10.00173 
2.3244277e+3, 3.0771053e+2, -983315.3, -250446.36, 5737.57, -0.03241861, -0.04073805, -250401.45, -250401.45, 0.0, 9.992285, 10.002002 
2.3243526e+3, 3.1771305e+2, -908627.25, 183912.28, 96002.62, 0.08504015, 0.024944901, 192283.98, 192283.98, 0.0, 9.991112, 10.005534 
2.3356633e+3, 1.4780632e+2, -930778.7, -1563396.3, 9499.356, 0.34864348, -0.12095435, -930636.06, 560856.0, 0.46616957, 10.009816, 9.994969 
2.3355807e+3, 1.5780246e+2, -575374.3, -1429256.8, -20992.61, -0.087567374, 0.024006763, -574858.56, 818675.0, 0.26621765, 10.010249, 9.995009 
2.335501e+3, 1.6779798e+2, -390433.22, -1209797.8, -59192.297, -0.12478544, 0.025460927, -386179.16, 909398.5, 0.11944555, 10.008905, 9.996565 
2.3354223e+3, 1.7779385e+2, -471570.6, -1233882.9, -37192.16, -0.02827074, -0.018039363, -469760.34, 727857.06, 0.038269814, 10.007035, 9.996551 
2.335345e+3, 1.8779016e+2, -461860.06, -1087829.4, 34929.137, -0.0000933019, -0.054405596, -459917.06, 639735.44, 0.007317156, 10.005823, 9.997463 
2.3352683e+3, 1.97787e+2, -486419.13, -1033648.94, 16872.564, 0.0047752294, -0.092966124, -485899.38, 515783.3, 0.0005684498, 10.004875, 9.99762 
2.3351906e+3, 2.0778534e+2, -518250.1, -855681.94, 9917.147, -0.030219425, -0.060129024, -517958.88, 385739.88, 0.000000083399684, 10.003366, 9.998895 
2.3351128e+3, 2.1778446e+2, -668060.25, -881405.3, 23245.336, -0.07858194, -0.008284608, -665556.9, 140150.38, 0.0, 10.001681, 9.998858 
2.3350357e+3, 2.2778308e+2, -671618.7, -750811.7, 20721.682, -0.054077324, -0.037044175, -666524.4, 41196.082, 0.0, 10.000633, 9.999585 
2.3349589e+3, 2.3778181e+2, -691769.94, -708471.44, 11131.188, -0.003440224, -0.09525839, -686205.25, -76472.875, 0.0, 9.999815, 9.9995985 
2.3348819e+3, 2.477816e+2, -676000.1, -556851.75, 19641.6, -0.016271833, -0.0884212, -553697.4, -41962.844, 0.0, 9.99885, 10.00043 
2.3348044e+3, 2.5778198e+2, -736122.7, -547677.25, 24291.695, -0.052606747, -0.06345491, -544596.3, -130865.39, 0.0, 9.997817, 10.000319 
2.3347275e+3, 2.677823e+2, -761868.25, -446420.66, -1490.7534, -0.010640807, -0.059802253, -446413.63, -130684.84, 0.0, 9.996698, 10.000879 
2.334651e+3, 2.7778277e+2, -829131.06, -422130.06, -11111.964, 0.06162316, -0.07181302, -421826.9, -204102.13, 0.0, 9.995537, 10.000936 
2.3345742e+3, 2.877842e+2, -831288.7, -253954.47, 13689.923, 0.018648809, -0.04839732, -253630.03, -133918.89, 0.0, 9.994342, 10.001991 
2.3344968e+3, 2.9778647e+2, -908909.2, -251290.48, 2295.33, -0.08267575, 0.009241282, -251282.47, -229593.66, 0.0, 9.993182, 10.001898 
2.3344211e+3, 3.0778754e+2, -956286.8, -196295.3, -28910.477, 0.1086911, -0.0670935, -195197.11, -195197.11, 0.0, 9.992287, 10.002375 
2.3343427e+3, 3.1778967e+2, -1001787.7, -31961.756, -25996.477, 0.0129185645, -0.057333093, -31265.412, -31265.412, 0.0, 9.991181, 10.004031 
2.3456724e+3, 1.4788589e+2, -650849.06, -1428095.6, -1526.2334, 0.13572915, -0.074804194, -650846.06, 839867.06, 0.43187302, 10.012884, 9.994736 
2.3455903e+3, 1.5788145e+2, -742688.3, -1553694.5, -13498.376, -0.055561997, 0.0350375, -742463.7, 650296.94, 0.24599805, 10.00854, 9.994973 
2.3455095e+3, 1.6787711e+2, -570160.75, -1278465.3, -1982.4491, -0.062458705, 0.035730164, -570155.2, 724648.44, 0.10959063, 10.007341, 9.996777 
2.3454295e+3, 1.7787324e+2, -425815.16, -1195782.3, 24649.225, -0.006964423, 0.0029800693, -425026.88, 771813.8, 0.03462348, 10.00728, 9.996689 
2.3453505e+3, 1.8786956e+2, -448769.2, -1089999.1, 98276.95, -0.0058823093, -0.03194774, -434045.03, 664830.44, 0.006426934, 10.005954, 9.997381 
2.3452722e+3, 1.9786628e+2, -586871.75, -1086848.5, 89436.53, -0.023562685, -0.07330734, -571354.75, 429551.8, 0.00046506873, 10.004213, 9.997568 
2.3451933e+3, 2.0786448e+2, -576893.4, -884953.56, 65488.555, -0.030350238, -0.04937141, -563549.56, 339374.28, 0.000000030505163, 10.002976, 9.998877 
2.3451148e+3, 2.1786349e+2, -632319.7, -865448.0, 54791.027, -0.033016365, -0.0055276635, -620084.5, 184848.8, 0.0, 10.001941, 9.998837 
2.3450364e+3, 2.2786194e+2, -624750.56, -734621.06, 73322.12, -0.035321794, -0.044038385, -588066.94, 118880.57, 0.0, 10.000991, 9.99952 
2.3449582e+3, 2.3786047e+2, -661338.4, -698340.75, 77304.29, -0.034192134, -0.114063025, -600352.1, 8608.612, 0.0, 10.0000515, 9.99955 
2.3448801e+3, 2.4786033e+2, -685711.06, -562635.2, 67704.0, -0.03534273, -0.0961462, -532681.3, -21719.068, 0.0, 9.998796, 10.000413 
2.344802e+3, 2.5786087e+2, -793033.4, -580819.25, 56853.88, -0.03572433, -0.050702482, -566547.44, -153590.23, 0.0, 9.99746, 10.000259 
2.3447241e+3, 2.6786095e+2, -769797.6, -473564.3, 57362.832, 0.00200534, -0.04841937, -462844.44, -147887.14, 0.0, 9.996753, 10.000663 
2.3446465e+3, 2.7786115e+2, -742816.94, -394282.25, 67257.09, 0.053987563, -0.06901251, -381753.94, -164797.16, 0.0, 9.996198, 10.000803 
2.3445684e+3, 2.8786242e+2, -749839.1, -207654.42, 76991.63, 0.019108934, -0.05805852, -196933.4, -77989.164, 0.0, 9.994878, 10.002048 
2.34449e+3, 2.9786456e+2, -890596.56, -239003.73, 59742.89, -0.04585146, -0.017313296, -233571.34, -212648.88, 0.0, 9.9932995, 10.001922 
2.3444131e+3, 3.0786625e+2, -915850.2, -136378.44, 35322.203, 0.10409699, -0.04558955, -134781.06, -134781.06, 0.0, 9.992398, 10.002728 
2.3443337e+3, 3.178688e+2, -1042649.56, -117045.375, -10379.106, 0.020122968, -0.028764347, -116929.01, -116929.01, 0.0, 9.991196, 10.003433 
2.3556831e+3, 1.4796723e+2, -602282.3, -1428564.4, -102693.13, -0.047860593, 0.0689878, -589710.56, 900207.1, 0.39168105, 10.01275, 9.994748 
2.355601e+3, 1.579607e+2, -701769.5, -1519435.6, -106837.57, 0.2111481, -0.037921928, -688040.44, 703943.2, 0.2223739, 10.008612, 9.9952 
2.3555183e+3, 1.6795665e+2, -536597.0, -1239999.9, 2386.8108, 0.11749497, -0.037168887, -536588.9, 757434.6, 0.098295584, 10.007392, 9.997046 
2.3554355e+3, 1.7795375e+2, -414506.38, -1169594.8, 9393.516, -0.088305004, -0.0006825408, -414389.56, 781662.25, 0.03056607, 10.007231, 9.9969015 
2.3553552e+3, 1.8795066e+2, -449588.94, -1085350.0, 34367.395, -0.11191574, 0.011738461, -447736.53, 650344.7, 0.005479737, 10.005915, 9.997436 
2.3552756e+3, 1.9794776e+2, -591726.4, -1097998.8, 33472.37, -0.072598815, 0.0075032823, -589522.94, 410585.63, 0.00036606335, 10.004211, 9.997497 
2.3551963e+3, 2.0794502e+2, -604745.5, -945996.4, 28670.697, -0.022810703, -0.03309646, -602353.44, 299781.72, 0.000000009033158, 10.002984, 9.998457 
2.3551169e+3, 2.179427e+2, -650246.5, -902833.4, 20259.832, 0.025120987, -0.084491596, -648631.8, 155526.17, 0.0, 10.001935, 9.998587 
2.3550373e+3, 2.2794163e+2, -612615.7, -711376.56, 40599.19, -0.004059112, -0.07566065, -598068.6, 108098.47, 0.0, 10.000993, 9.999682 
2.3549578e+3, 2.3794124e+2, -658822.8, -695645.1, 38442.01, -0.05537791, -0.053116612, -634610.5, -26440.982, 0.0, 10.000056, 9.99957 
2.3548786e+3, 2.479408e+2, -707271.5, -609850.2, 14430.389, -0.032355472, -0.042954177, -607757.7, -97583.57, 0.0, 9.9988, 10.00009 
2.3547995e+3, 2.5794065e+2, -803666.06, -605925.44, 13650.262, 0.012050666, -0.03794218, -604987.6, -192811.1, 0.0, 9.997466, 10.000088 
2.3547207e+3, 2.67941e+2, -755499.25, -448156.25, 36888.04, 0.007516773, -0.017210122, -443790.88, -129616.99, 0.0, 9.996766, 10.000834 
2.3546419e+3, 2.7794167e+2, -729799.25, -375523.63, 36756.605, -0.0076354016, -0.0023821369, -371750.25, -155582.6, 0.0, 9.996227, 10.000921 
2.3545632e+3, 2.879422e+2, -755665.0, -225359.47, 15234.843, 0.048600413, -0.06369334, -224922.16, -106760.13, 0.0, 9.994896, 10.00192 
2.3544846e+3, 2.9794315e+2, -898997.6, -263665.4, 10272.916, 0.10387948, -0.13225405, -263499.34, -243347.47, 0.0, 9.993323, 10.001744 
2.3544033e+3, 3.079469e+2, -893451.75, -97884.59, 8418.684, -0.09691053, 0.045193177, -97795.516, -97795.516, 0.0, 9.992425, 10.002984 
2.3543248e+3, 3.1794894e+2, -1005058.0, -30072.71, -73235.016, 0.035911202, -0.03320192, -24602.43, -24602.43, 0.0, 9.991164, 10.004042 
2.3656967e+3, 1.4804941e+2, -612303.06, -1439829.9, -87146.83, 0.11458683, 0.08102727, -603225.25, 885886.75, 0.35146356, 10.011917, 9.994975 
2.3656096e+3, 1.5804255e+2, -508852.0, -1402080.5, -58094.414, 0.16528663, -0.075827174, -505089.47, 886090.4, 0.19833706, 10.010036, 9.9952965 
2.3655252e+3, 1.6803841e+2, -455737.56, -1236504.9, 73628.15, 0.072820045, -0.06668922, -448854.9, 844366.2, 0.08670873, 10.008087, 9.996727 
2.365442e+3, 1.7803548e+2, -578595.94, -1268011.8, 47703.008, -0.06980977, -0.0020192747, -575310.8, 619939.75, 0.026394194, 10.006126, 9.996748 
2.3653606e+3, 1.8803242e+2, -554778.3, -1115920.6, 68001.58, -0.09542872, 0.00949214, -546655.2, 550624.5, 0.004516685, 10.005104, 9.997611 
2.3652795e+3, 1.980296e+2, -561139.4, -1073953.5, 73596.49, -0.075991146, -0.0027224869, -550786.2, 448520.22, 0.00027254576, 10.004389, 9.997572 
2.365199e+3, 2.080268e+2, -579147.1, -952771.9, 84319.49, -0.022638131, -0.038053513, -560999.4, 340334.3, 0.000000001585009, 10.00325, 9.998279 
2.3651187e+3, 2.1802434e+2, -652635.6, -921319.3, 94558.27, 0.03771528, -0.08258261, -622694.2, 180663.88, 0.0, 10.002001, 9.9984255 
2.3650384e+3, 2.2802317e+2, -589550.25, -714902.44, 113732.97, 0.005174221, -0.066249676, -522366.84, 183001.45, 0.0, 10.001223, 9.999544 
2.3649578e+3, 2.3802271e+2, -594475.2, -680143.1, 83642.36, -0.053485323, -0.033984195, -543336.9, 64034.594, 0.0, 10.000573, 9.999422 
2.3648775e+3, 2.48022e+2, -630707.75, -593562.6, 47510.047, -0.038641483, -0.032574765, -561123.94, -51745.195, 0.0, 9.999423, 9.999897 
2.3647968e+3, 2.580215e+2, -719802.25, -573497.56, 60164.633, -0.0005510591, -0.042809658, -551934.3, -140549.78, 0.0, 9.998085, 10.000008 
2.364717e+3, 2.6802194e+2, -749315.56, -423036.16, 96862.266, 0.0018756583, -0.022167431, -396447.47, -83066.94, 0.0, 9.996722, 10.001023 
2.3646374e+3, 2.7802283e+2, -846920.4, -420383.0, 93114.64, 0.003768543, -0.0017306268, -400941.84, -185570.38, 0.0, 9.995384, 10.001014 
2.3645578e+3, 2.8802323e+2, -809625.94, -267931.16, 60947.547, 0.06019908, -0.06736086, -261158.47, -143791.02, 0.0, 9.994608, 10.001761 
2.3644778e+3, 2.9802394e+2, -816070.44, -225109.7, 52466.363, 0.09608579, -0.14463112, -220487.81, -201127.45, 0.0, 9.99391, 10.001721 
2.3643956e+3, 3.0802795e+2, -854541.8, -74485.53, 60997.508, -0.09522797, 0.05956606, -69744.57, -69744.57, 0.0, 9.992679, 10.003019 
2.3643164e+3, 3.1802806e+2, -903444.2, -28071.725, -51971.234, 0.06977474, -0.21039024, -24996.969, -24996.969, 0.0, 9.992071, 10.003615 
2.3757945e+3, 1.381304e+2, -1701587.8, -1511337.9, -27834.988, -0.3895625, -0.49672738, -1507349.0, 78963.53, 0.4648619, 9.998494, 10.001924 
2.3757121e+3, 1.4813252e+2, -591042.1, -1428568.4, -145574.6, 0.50841224, 0.0016832217, -566460.56, 921834.9, 0.31540382, 10.011495, 9.995267 
2.3756163e+3, 1.5812662e+2, -507965.4, -1427595.8, -118070.85, -0.13962951, -0.08448017, -493048.34, 897305.3, 0.17617954, 10.009875, 9.995217 
2.3755307e+3, 1.6812201e+2, -507071.47, -1356565.1, 5115.164, -0.1487472, -0.063589685, -507040.7, 785359.5, 0.075753696, 10.008026, 9.995899 
2.375449e+3, 1.7811826e+2, -609928.25, -1339388.8, -7530.039, 0.033699866, -0.0031513919, -609850.56, 584588.06, 0.02236737, 10.006119, 9.996264 
2.3753664e+3, 1.8811479e+2, -536971.5, -1080746.0, 45082.516, 0.023199575, -0.032749552, -533259.25, 563212.44, 0.003583673, 10.005101, 9.997857 
2.375284e+3, 1.981117e+2, -552402.75, -1051678.3, 43136.59, -0.044541083, -0.09445105, -548703.25, 449797.4, 0.00018737647, 10.004365, 9.99774 
2.3752019e+3, 2.0810966e+2, -577766.7, -950163.7, 37551.242, -0.032925278, -0.060336124, -574017.9, 326502.75, 0.00000000012725644, 10.003244, 9.998303 
2.37512e+3, 2.1810824e+2, -660852.8, -940511.25, 57056.18, 0.0015918798, -0.0024099506, -649660.1, 152875.22, 0.0, 10.002004, 9.998296 
2.375039e+3, 2.2810642e+2, -619727.56, -781276.94, 91898.414, -0.008369252, -0.017002989, -578150.9, 126401.74, 0.0, 10.001231, 9.999087 
2.3749582e+3, 2.3810479e+2, -617115.06, -730345.56, 52635.508, -0.032732345, -0.057932626, -596427.1, 10140.741, 0.0, 10.000581, 9.999078 
2.3748763e+3, 2.4810381e+2, -634107.56, -604796.2, -4001.3335, -0.058328237, -0.0664253, -604259.8, -95682.38, 0.0, 9.999435, 9.999818 
2.3747939e+3, 2.5810334e+2, -717101.7, -574461.6, 8731.968, -0.08264049, -0.0660377, -573929.06, -163346.98, 0.0, 9.998107, 9.999994 
2.3747134e+3, 2.6810363e+2, -736877.25, -399162.53, 42036.4, -0.016140476, -0.06928648, -394008.78, -81430.29, 0.0, 9.996723, 10.00119 
2.3746333e+3, 2.7810436e+2, -847302.75, -418981.28, 49938.18, 0.08529013, -0.08181557, -413236.03, -198665.72, 0.0, 9.995368, 10.001035 
2.374552e+3, 2.881054e+2, -825906.06, -303521.06, 35541.184, 0.04258845, -0.0637323, -301114.06, -184553.19, 0.0, 9.994609, 10.00152 
2.3744695e+3, 2.9810712e+2, -802394.9, -207763.69, 15144.055, -0.08723196, -0.019193523, -207378.25, -188832.5, 0.0, 9.99395, 10.001825 
2.3743904e+3, 3.0810887e+2, -864740.0, -97731.836, 9526.447, 0.14999346, -0.055750176, -97613.54, -97613.54, 0.0, 9.992682, 10.002861 
2.3743086e+3, 3.1810963e+2, -925359.5, -107757.16, -22678.768, 0.104464576, -0.20861389, -107128.58, -107128.58, 0.0, 9.992191, 10.003023 
2.3858012e+3, 1.3822392e+2, -1089380.0, -1908107.0, 29690.402, -0.10723814, 0.3217553, -1088304.6, 497093.1, 0.42455152, 10.009238, 9.993563 
2.3857205e+3, 1.4821513e+2, -1022019.8, -1619179.3, -193219.89, 0.48599416, -0.06085371, -964953.94, 522532.63, 0.28516886, 10.006528, 9.996275 
2.3856238e+3, 1.5821129e+2, -716950.1, -1484199.0, -131259.81, -0.21681783, -0.03510571, -695115.75, 694408.25, 0.15700406, 10.007689, 9.995881 
2.3855376e+3, 1.6820657e+2, -608282.4, -1413488.6, 9027.614, -0.17964688, -0.046174213, -608181.2, 683389.44, 0.06598982, 10.00723, 9.995889 
2.3854554e+3, 1.7820208e+2, -594840.44, -1343637.1, 47790.12, 0.07755938, -0.053357854, -591802.7, 601812.4, 0.018695893, 10.006263, 9.996163 
2.3853716e+3, 1.8819858e+2, -564754.4, -1126175.1, 95280.67, 0.052834682, -0.0629743, -549024.6, 546625.06, 0.002734046, 10.005052, 9.997565 
2.3852876e+3, 1.9819562e+2, -647627.6, -1114946.6, 58289.527, -0.05398675, -0.08267831, -640466.8, 357212.1, 0.00011603671, 10.003792, 9.997578 
2.3852046e+3, 2.081936e+2, -597446.94, -945599.75, 52150.08, -0.044755653, -0.047525495, -589803.2, 309895.22, 0.0, 10.003057, 9.998422 
2.3851219e+3, 2.1819219e+2, -592467.7, -902482.1, 76604.555, -0.0019644145, 0.002244434, -574571.75, 227140.34, 0.0, 10.002459, 9.998334 
2.3850401e+3, 2.281902e+2, -613352.44, -792745.1, 130273.46, -0.010468247, -0.020652834, -544882.4, 158848.78, 0.0, 10.001345, 9.998951 
2.3849583e+3, 2.3818831e+2, -696610.3, -779609.94, 112307.08, -0.03173199, -0.07097385, -618380.75, -12631.567, 0.0, 10.000089, 9.998974 
2.3848753e+3, 2.4818729e+2, -666483.9, -620345.75, 64560.445, -0.057126734, -0.07702725, -574856.56, -67097.66, 0.0, 9.999221, 9.99981 
2.3847918e+3, 2.5818682e+2, -671220.56, -556152.25, 77062.65, -0.08122738, -0.07177844, -517515.56, -107752.586, 0.0, 9.998447, 9.999951 
2.38471e+3, 2.6818687e+2, -642748.6, -366893.47, 88631.47, -0.016946962, -0.08849675, -340871.2, -29109.34, 0.0, 9.997435, 10.001064 
2.384629e+3, 2.781873e+2, -717477.75, -364096.2, 77634.99, 0.08410181, -0.115485795, -347792.63, -134036.14, 0.0, 9.996299, 10.000959 
2.3845464e+3, 2.8818873e+2, -763926.44, -264642.9, 85583.664, 0.034998685, -0.061978653, -250380.19, -134636.63, 0.0, 9.995005, 10.001593 
2.384463e+3, 2.9819083e+2, -832850.6, -217549.2, 83172.586, -0.10074768, 0.019221792, -206504.69, -188780.28, 0.0, 9.99373, 10.001859 
2.3843832e+3, 3.0819136e+2, -822619.25, -78425.17, 62898.934, 0.19164135, -0.13869075, -73146.43, -73146.43, 0.0, 9.992984, 10.002845 
2.3842993e+3, 3.181961e+2, -913800.94, 23249.283, 69977.25, 0.015815485, 0.11316014, 28446.238, 28446.238, 0.0, 9.991747, 10.00413 
2.3958112e+3, 1.3830015e+2, -940455.6, -1479229.3, -207177.38, 0.007012983, -0.12200236, -870001.7, 714653.5, 0.39327985, 10.0089, 9.997128 
2.3957232e+3, 1.4829746e+2, -913400.2, -1404391.1, -138627.17, 0.15680602, -0.11515429, -876963.9, 609718.44, 0.26080292, 10.006607, 9.997798 
2.3956321e+3, 1.5829657e+2, -637642.1, -1321581.9, -107500.39, -0.11240773, 0.059535254, -621143.44, 767546.94, 0.14103447, 10.007637, 9.997077 
2.3955457e+3, 1.68292e+2, -568058.9, -1327995.4, -23469.94, -0.0657626, -0.015954515, -567334.7, 723398.3, 0.057647303, 10.007178, 9.996504 
2.3954609e+3, 1.7828685e+2, -585617.8, -1324412.5, 10050.663, 0.0635925, -0.14300582, -585481.1, 607300.1, 0.015516365, 10.00624, 9.996309 
2.3953757e+3, 1.8828359e+2, -619235.4, -1240570.1, 47790.535, 0.004142232, -0.07997499, -615581.0, 479234.44, 0.0020133525, 10.005046, 9.996785 
2.3952906e+3, 1.9828112e+2, -679967.0, -1184118.0, 21960.291, -0.1027324, 0.021625632, -679012.25, 317830.8, 0.00006325822, 10.003794, 9.997105 
2.395207e+3, 2.0827846e+2, -583791.25, -920201.94, 33401.164, -0.0588438, -0.004300357, -580507.0, 318361.1, 0.0, 10.003062, 9.998596 
2.3951243e+3, 2.1827608e+2, -581966.1, -879951.0, 50062.41, 0.0224015, -0.066470884, -573780.3, 227108.84, 0.0, 10.002449, 9.998497 
2.395041e+3, 2.2827442e+2, -602010.6, -770224.8, 83259.61, -0.0042596133, -0.07485198, -567770.06, 135134.78, 0.0, 10.001343, 9.999109 
2.3949577e+3, 2.382732e+2, -688024.9, -764035.6, 70586.164, -0.05747597, -0.07071874, -645862.8, -40946.504, 0.0, 10.000092, 9.999083 
2.3948742e+3, 2.4827239e+2, -662129.44, -615130.06, 35330.684, -0.03478086, -0.06269792, -596197.56, -89273.7, 0.0, 9.999229, 9.9998455 
2.3947908e+3, 2.582719e+2, -676397.56, -573208.56, 44787.86, 0.0046589607, -0.05977817, -556480.7, -147552.89, 0.0, 9.998467, 9.999828 
2.3947072e+3, 2.682716e+2, -671862.1, -435003.2, 45295.793, -0.004399946, -0.07466217, -426636.6, -115705.664, 0.0, 9.997461, 10.000587 
2.3946238e+3, 2.7827176e+2, -722694.25, -387819.1, 30983.871, -0.0147568835, -0.08899561, -384976.5, -172046.73, 0.0, 9.996348, 10.000776 
2.394541e+3, 2.8827304e+2, -733296.56, -207117.05, 32735.809, 0.043868203, -0.069625385, -205088.25, -90171.59, 0.0, 9.995023, 10.001983 
2.394458e+3, 2.982746e+2, -839268.4, -230013.97, 46200.05, 0.07537604, -0.07531035, -226530.52, -209630.03, 0.0, 9.993719, 10.001782 
2.3943736e+3, 3.0827594e+2, -817360.25, -75232.01, 35086.14, -0.037723623, -0.13308632, -73576.91, -73576.91, 0.0, 9.993008, 10.002859 
2.3942906e+3, 3.182806e+2, -938953.3, -26432.41, -36598.17, -0.0024822147, 0.07976255, -24966.934, -24966.934, 0.0, 9.991733, 10.003798 
2.4059133e+3, 1.283897e+2, -1494313.0, -1708628.4, -125907.13, -0.09440217, 0.040872533, -1436136.5, 245641.61, 0.48690036, 10.003486, 9.998649 
2.4058186e+3, 1.3838573e+2, -1078961.9, -1477383.3, -86239.83, 0.011764826, -0.17149022, -1061096.1, 522721.34, 0.36943683, 10.006584, 9.998217 
2.4057283e+3, 1.4838393e+2, -853812.8, -1407481.5, 20178.066, -0.00071242807, -0.0801136, -853078.44, 632756.3, 0.2415153, 10.007168, 9.997476 
2.4056396e+3, 1.5838203e+2, -736332.9, -1389300.8, -25661.105, -0.040684666, 0.02650504, -735325.94, 652526.9, 0.12800367, 10.006849, 9.996915 
2.4055527e+3, 1.6837765e+2, -652107.56, -1358721.0, -4074.2615, -0.012105161, -0.03187446, -652084.06, 637809.75, 0.050713904, 10.006472, 9.996631 
2.4054663e+3, 1.7837295e+2, -615046.44, -1328475.8, -2463.6787, 0.026668377, -0.12499385, -615037.94, 576899.75, 0.012875459, 10.005979, 9.996404 
2.4053802e+3, 1.8836968e+2, -612264.44, -1234095.8, 58302.84, -0.01814272, -0.06886138, -606845.2, 487126.47, 0.0014435669, 10.005085, 9.996808 
2.4052945e+3, 1.9836704e+2, -643547.06, -1170907.3, 86006.95, -0.08009931, 0.019616002, -629874.7, 366125.4, 0.000029603261, 10.004071, 9.997059 
2.40521e+3, 2.0836411e+2, -592201.8, -943994.56, 99811.04, -0.042038, -0.017159786, -565856.3, 332171.63, 0.0, 10.003097, 9.998413 
2.4051262e+3, 2.1836144e+2, -637133.4, -918206.1, 85189.92, 0.021667717, -0.09113689, -613329.3, 186723.03, 0.0, 10.002127, 9.998386 
2.405042e+3, 2.2835994e+2, -641022.3, -783939.75, 95590.6, -0.009013718, -0.079430476, -593133.2, 108933.51, 0.0, 10.0010605, 9.999148 
2.4049576e+3, 2.3835906e+2, -697963.5, -758292.44, 80756.22, -0.060662363, -0.046823785, -641922.0, -37846.74, 0.0, 9.999986, 9.999169 
2.4048732e+3, 2.483582e+2, -650000.3, -588506.25, 66013.76, -0.031949498, -0.05615968, -546430.2, -40347.766, 0.0, 9.99923, 10.000024 
2.404789e+3, 2.5835758e+2, -664450.56, -562803.5, 80895.47, 0.015803766, -0.08269581, -518091.13, -110004.08, 0.0, 9.998536, 9.999864 
2.4047044e+3, 2.6835722e+2, -675291.75, -460277.53, 88462.875, -0.00849787, -0.08746146, -428560.16, -118468.89, 0.0, 9.997548, 10.000368 
2.4046196e+3, 2.7835736e+2, -714622.94, -397318.22, 88098.91, -0.036648136, -0.078003496, -374498.84, -162407.92, 0.0, 9.996472, 10.000647 
2.4045362e+3, 2.883585e+2, -660213.44, -167501.56, 69212.27, 0.047673576, -0.06824491, -157963.8, -43885.223, 0.0, 9.995514, 10.002013 
2.4044521e+3, 2.9835975e+2, -728314.06, -185901.72, 59798.715, 0.109696716, -0.1091661, -179387.4, -163322.5, 0.0, 9.994527, 10.001693 
2.4043657e+3, 3.0836135e+2, -783213.06, -76892.375, 56945.984, -0.103702754, -0.11925845, -72330.66, -72330.66, 0.0, 9.993326, 10.002691 
2.4042834e+3, 3.1836295e+2, -935435.0, -143875.52, -54632.266, 0.12042902, -0.20490941, -140122.67, -140122.67, 0.0, 9.992281, 10.002721 
2.4159172e+3, 1.2847838e+2, -1462940.4, -1667304.5, -58377.805, -0.01313227, -0.10264738, -1447440.0, 233469.34, 0.467408, 10.003702, 9.998637 
2.415824e+3, 1.3847809e+2, -1091536.9, -1538804.9, -40635.78, -0.052502163, 0.067085795, -1087875.0, 495035.16, 0.35095876, 10.006634, 9.997507 
2.4157347e+3, 1.4847356e+2, -932028.5, -1630585.6, 5032.2217, -0.038425907, 0.025683919, -931992.25, 552961.9, 0.22613384, 10.0071745, 9.995776 
2.4156465e+3, 1.5846764e+2, -800274.1, -1561241.0, -36461.918, -0.0014909267, -0.107647575, -798531.06, 588481.1, 0.1173868, 10.006855, 9.995735 
2.4155588e+3, 1.6846353e+2, -669360.75, -1401676.5, -18701.287, -0.008435694, -0.08401503, -668883.5, 620169.4, 0.04502078, 10.006453, 9.996348 
2.4154714e+3, 1.7846018e+2, -615957.25, -1323476.0, -22594.96, -0.030991297, -0.020077495, -615236.4, 575849.5, 0.010742835, 10.005932, 9.996465 
2.415385e+3, 1.8845665e+2, -567536.94, -1136071.3, 21878.506, -0.018673427, -0.03708669, -566696.25, 526423.3, 0.0010200317, 10.005055, 9.9974985 
2.4152988e+3, 1.9845335e+2, -626220.5, -1133013.5, 50416.27, 0.0019841022, -0.07735751, -621253.7, 373897.06, 0.000011510207, 10.004056, 9.99733 
2.4152131e+3, 2.0845051e+2, -629859.2, -1023108.94, 64393.945, -0.0003839303, -0.078287214, -619583.3, 277595.47, 0.0, 10.003095, 9.997874 
2.4151278e+3, 2.1844813e+2, -665628.4, -976726.8, 49874.066, -0.009712657, -0.07068062, -657828.3, 141374.44, 0.0, 10.002117, 9.9979925 
2.4150425e+3, 2.2844669e+2, -647197.44, -798808.56, 55657.42, -0.026367966, -0.03423773, -628959.25, 72258.41, 0.0, 10.001062, 9.999048 
2.4149573e+3, 2.3844576e+2, -694401.8, -753543.94, 45337.25, -0.044177357, 0.00025750446, -669844.25, -66616.92, 0.0, 9.99999, 9.999204 
2.4148718e+3, 2.4844462e+2, -626963.5, -544143.6, 39197.816, -0.05310302, -0.05951036, -528533.8, -23297.844, 0.0, 9.99924, 10.000328 
2.4147864e+3, 2.5844368e+2, -648586.7, -534582.9, 49175.6, -0.06054623, -0.14300899, -516302.25, -109060.48, 0.0, 9.998549, 10.000054 
2.4147014e+3, 2.6844358e+2, -671715.56, -456651.56, 45896.895, -0.03064447, -0.12999648, -447266.25, -138022.5, 0.0, 9.997557, 10.000393 
2.4146165e+3, 2.7844408e+2, -721105.6, -415623.63, 49431.418, 0.022725668, -0.08584887, -407824.06, -196583.38, 0.0, 9.996486, 10.000518 
2.4145313e+3, 2.8844512e+2, -683160.0, -222699.31, 32848.977, 0.035910744, -0.0535169, -220367.7, -107138.05, 0.0, 9.995541, 10.001625 
2.4144451e+3, 2.9844627e+2, -727198.0, -199626.92, 17580.443, -0.024953688, -0.065784045, -199041.73, -183824.48, 0.0, 9.994589, 10.001572 
2.41436e+3, 3.0844745e+2, -810859.25, -138023.92, 5479.959, 0.045567337, -0.10640714, -137979.3, -137979.3, 0.0, 9.993337, 10.00227 
2.414275e+3, 3.1844997e+2, -887149.06, -53477.11, 3436.2566, 0.07646729, -0.036448695, -53462.95, -53462.95, 0.0, 9.992315, 10.003329 
2.4259222e+3, 1.2856744e+2, -1287083.1, -1634769.6, -52936.113, -0.008668534, -0.08646344, -1279202.1, 400833.03, 0.4515672, 10.006218, 9.997807 
2.4258308e+3, 1.3856599e+2, -1054428.4, -1581836.4, -79108.19, -0.025335604, 0.046217393, -1042818.2, 539229.56, 0.33580902, 10.007246, 9.99679 
2.4257417e+3, 1.48561e+2, -935337.06, -1671928.3, -45444.934, -0.015003581, 0.0053732395, -932543.8, 551552.5, 0.21340491, 10.007215, 9.995473 
2.425653e+3, 1.5855502e+2, -804122.56, -1583454.0, -22523.123, 0.0160764, -0.10738356, -803472.2, 582683.06, 0.10856306, 10.006859, 9.995578 
2.4255647e+3, 1.6855094e+2, -722143.3, -1421786.3, 17429.174, -0.0050284667, -0.0795635, -721709.4, 566486.5, 0.040323284, 10.006024, 9.996413 
2.4254763e+3, 1.7854765e+2, -734361.3, -1368857.9, 33838.89, -0.043223456, -0.01449497, -732561.75, 457666.97, 0.009041899, 10.005056, 9.996572 
2.4253891e+3, 1.8854414e+2, -643451.0, -1154555.9, 54759.57, -0.020415679, -0.04362209, -637649.94, 454611.7, 0.00071953284, 10.004459, 9.997656 
2.4253027e+3, 1.985408e+2, -641791.75, -1132996.0, 45890.22, 0.019982582, -0.10113564, -637541.25, 356751.13, 0.000003590948, 10.00392, 9.997393 
2.4252158e+3, 2.0853801e+2, -653823.06, -1048920.3, 68487.85, 0.00923598, -0.089960165, -642287.8, 254032.6, 0.0, 10.002997, 9.997741 
2.4251291e+3, 2.1853572e+2, -690577.94, -991528.5, 79868.99, -0.015768804, -0.06058251, -670695.2, 127649.13, 0.0, 10.001966, 9.99796 
2.425043e+3, 2.2853419e+2, -651346.06, -785500.2, 104946.58, -0.024903098, -0.037105735, -593871.44, 106488.016, 0.0, 10.000976, 9.999178 
2.424957e+3, 2.3853312e+2, -688761.8, -742234.9, 111581.44, -0.02722925, -0.02516501, -600758.4, 1611.388, 0.0, 9.999998, 9.999274 
2.4248706e+3, 2.4853204e+2, -660369.2, -564940.94, 94632.85, -0.052620575, -0.075798355, -506673.84, -2295.3784, 0.0, 9.999038, 10.000278 
2.4247842e+3, 2.5853124e+2, -713192.1, -561722.4, 78582.59, -0.08140851, -0.14166349, -528319.75, -121935.88, 0.0, 9.998097, 10.000081 
2.4246985e+3, 2.6853132e+2, -680493.2, -442853.5, 76784.12, -0.03433752, -0.12196581, -420202.66, -111818.81, 0.0, 9.997426, 10.000546 
2.4246128e+3, 2.7853188e+2, -680634.8, -396519.8, 86258.98, 0.043780908, -0.0811382, -372381.8, -162002.39, 0.0, 9.996769, 10.00051 
2.424526e+3, 2.8853258e+2, -656335.5, -240508.27, 77467.89, 0.012756978, -0.061348356, -226545.02, -114173.31, 0.0, 9.995863, 10.001344 
2.4244387e+3, 2.9853356e+2, -691103.7, -196086.48, 64072.652, -0.09352949, -0.062248368, -187927.7, -173566.58, 0.0, 9.994907, 10.001438 
2.4243543e+3, 3.085342e+2, -756019.06, -134050.23, 46008.586, 0.14003588, -0.14341216, -130665.29, -130665.29, 0.0, 9.993817, 10.002062 
2.4242659e+3, 3.1853664e+2, -817673.44, 69560.46, 101949.76, -0.030557876, -0.050490417, 81124.516, 81124.516, 0.0, 9.992412, 10.004126 
2.4359272e+3, 1.2865691e+2, -1328869.3, -1805275.9, -39596.934, -0.068605, 0.04218008, -1325600.5, 353555.47, 0.43716875, 10.006277, 9.996368 
2.4358386e+3, 1.3865066e+2, -1074912.4, -1681408.9, -66084.19, 0.06326691, -0.17365329, -1067795.4, 513422.6, 0.3223034, 10.007274, 9.996075 
2.435749e+3, 1.4864694e+2, -887415.8, -1568146.9, -53562.01, 0.04799928, -0.1114638, -883227.1, 600027.4, 0.20225477, 10.007207, 9.996196 
2.4356596e+3, 1.5864387e+2, -767294.94, -1501536.4, -39389.234, 0.012732599, -0.0015330462, -765187.9, 620096.7, 0.100971654, 10.006816, 9.996164 
2.4355704e+3, 1.6863964e+2, -700406.2, -1376054.4, -18942.793, -0.004268563, -0.030452432, -699875.5, 587450.0, 0.036379434, 10.0060005, 9.996742 
2.4354813e+3, 1.7863542e+2, -725755.75, -1354024.5, 4814.038, -0.023100434, -0.08903262, -725718.9, 463647.38, 0.0076839486, 10.005058, 9.996675 
2.4353933e+3, 1.8863212e+2, -666575.06, -1203692.0, 36472.707, -0.027034964, -0.07929772, -664109.7, 427288.6, 0.0005123813, 10.0044565, 9.997323 
2.4353057e+3, 1.9862925e+2, -654219.2, -1154714.5, 22444.523, -0.023020556, -0.059359707, -653214.7, 340211.44, 0.0000008584225, 10.003897, 9.997258 
2.4352182e+3, 2.0862646e+2, -639708.94, -1018367.25, 30978.537, -0.010985875, -0.057679866, -637191.25, 258262.64, 0.0, 10.002985, 9.997959 
2.435131e+3, 2.1862404e+2, -673132.3, -954416.9, 44401.848, -0.0008361108, -0.06311912, -666289.75, 131188.45, 0.0, 10.001956, 9.998223 
2.4350439e+3, 2.2862235e+2, -627609.06, -737935.6, 69243.664, -0.0069967, -0.0889966, -594241.7, 105251.59, 0.0, 10.000977, 9.999507 
2.4349567e+3, 2.3862113e+2, -684708.94, -735450.7, 75528.82, -0.016751546, -0.120474584, -630403.7, -28900.33, 0.0, 9.999999, 9.999324 
2.4348696e+3, 2.4862045e+2, -690471.6, -629712.9, 56555.91, -0.0313695, -0.10118147, -595893.5, -92382.98, 0.0, 9.999041, 9.999836 
2.4347822e+3, 2.5862023e+2, -724652.06, -587834.2, 45782.332, -0.046774033, -0.07151951, -573927.9, -168414.05, 0.0, 9.9981, 9.999904 
2.4346955e+3, 2.6862037e+2, -659965.8, -402845.66, 51565.56, -0.020552345, -0.05872862, -392889.66, -85377.56, 0.0, 9.997431, 10.000823 
2.4346091e+3, 2.7862072e+2, -668666.7, -379215.47, 56903.773, 0.019240849, -0.06298426, -368430.5, -158922.88, 0.0, 9.996795, 10.000621 
2.4345212e+3, 2.886208e+2, -668999.94, -273873.78, 39438.863, -0.025015185, -0.09716629, -269975.72, -158470.02, 0.0, 9.995886, 10.001108 
2.4344331e+3, 2.986214e+2, -701297.7, -222906.84, 26680.703, -0.104312316, -0.111417174, -221423.42, -207924.97, 0.0, 9.994925, 10.001249 
2.4343482e+3, 3.086215e+2, -743904.06, -115698.84, -529.45276, 0.18123664, -0.24405015, -115698.39, -115698.39, 0.0, 9.993841, 10.002179 
2.434258e+3, 3.1862378e+2, -890948.2, -91314.54, -25356.764, -0.010264346, -0.17600597, -90511.266, -90511.266, 0.0, 9.992432, 10.003019 
2.4459335e+3, 1.2874472e+2, -1260438.8, -1803493.9, -8137.799, -0.068444476, -0.008881652, -1260316.8, 417976.34, 0.42264816, 10.007187, 9.995931 
2.4458459e+3, 1.3873857e+2, -1029255.44, -1673526.6, -5687.815, 0.078336336, -0.17405975, -1029205.2, 551150.2, 0.3092775, 10.00771, 9.995898 
2.4457559e+3, 1.4873497e+2, -871349.75, -1522162.1, -17843.115, 0.046198677, -0.11696666, -870860.94, 611530.25, 0.19193062, 10.007114, 9.996544 
2.4456656e+3, 1.5873218e+2, -813111.0, -1494369.9, -23324.201, -0.010210933, -0.0116547635, -812313.4, 572105.06, 0.09419707, 10.006293, 9.996461 
2.4455757e+3, 1.6872816e+2, -717440.75, -1360584.6, -15640.789, -0.011322428, -0.041740898, -717060.56, 569396.25, 0.0329927, 10.005761, 9.996962 
2.445486e+3, 1.787241e+2, -685420.25, -1317623.5, 645.8038, -0.0064560394, -0.105256766, -685419.6, 503076.2, 0.0065885345, 10.005262, 9.996825 
2.4453975e+3, 1.8872085e+2, -684358.3, -1211116.4, 45379.08, -0.019464077, -0.091826096, -680477.6, 410049.8, 0.00037130248, 10.004335, 9.997328 
2.4453089e+3, 1.9871812e+2, -732969.5, -1179565.9, 50516.11, -0.031957943, -0.062636666, -727326.75, 265228.03, 0.00000014402339, 10.003309, 9.997367 
2.4452205e+3, 2.0871551e+2, -694331.1, -1016634.94, 62926.438, -0.022277808, -0.060441446, -682481.06, 212099.23, 0.0, 10.002498, 9.998202 
2.4451323e+3, 2.1871325e+2, -694362.94, -943662.0, 73732.85, -0.006549202, -0.07210229, -674188.25, 122414.39, 0.0, 10.001724, 9.998405 
2.4450444e+3, 2.2871152e+2, -654745.75, -743307.0, 80263.17, -0.004371359, -0.11089543, -607358.75, 91259.38, 0.0, 10.000764, 9.999569 
2.4449566e+3, 2.3871024e+2, -715316.2, -745458.8, 72655.16, -0.004963, -0.15256578, -656185.6, -55556.746, 0.0, 9.999777, 9.999357 
2.4448684e+3, 2.4870984e+2, -687117.4, -633650.3, 80146.88, -0.018222356, -0.10258955, -575895.94, -73261.875, 0.0, 9.999094, 9.999781 
2.4447803e+3, 2.587099e+2, -677211.44, -570286.4, 93867.16, -0.031664737, -0.037078697, -515724.44, -111088.98, 0.0, 9.998454, 9.999852 
2.4446929e+3, 2.687097e+2, -640481.94, -398436.8, 85012.35, -0.010211839, -0.052707825, -371562.22, -64925.55, 0.0, 9.997591, 10.000773 
2.4446055e+3, 2.7870956e+2, -684967.6, -381252.4, 64700.94, 0.023687072, -0.099474974, -368043.53, -159407.55, 0.0, 9.996666, 10.000664 
2.4445169e+3, 2.8870982e+2, -681505.25, -262911.6, 61588.016, -0.027561726, -0.12745799, -254038.2, -143405.88, 0.0, 9.995732, 10.001254 
2.4444275e+3, 2.9871073e+2, -727509.3, -238128.64, 75132.9, -0.107543275, -0.12055968, -226853.52, -214231.3, 0.0, 9.994756, 10.001225 
2.4443422e+3, 3.0871096e+2, -708854.56, -105599.5, 44931.14, 0.22078636, -0.22682002, -102271.336, -102271.336, 0.0, 9.994115, 10.002114 
2.444251e+3, 3.187144e+2, -751060.06, -108413.11, -20554.092, 0.0050089466, -0.03715985, -107756.39, -107756.39, 0.0, 9.99377, 10.00225 
2.4559407e+3, 1.2883157e+2, -1226311.1, -1746540.3, 4574.28, -0.037867397, -0.1811855, -1226270.9, 451169.0, 0.40719625, 10.007285, 9.996271 
2.4558525e+3, 1.3882914e+2, -1015429.9, -1649871.5, -5193.562, 0.028594041, -0.006415334, -1015387.3, 564079.1, 0.2961129, 10.007647, 9.996092 
2.455762e+3, 1.488247e+2, -869759.2, -1527557.0, -45340.387, -0.010892369, -0.036862265, -866648.7, 614861.5, 0.18199944, 10.007061, 9.996541 
2.4556708e+3, 1.5882011e+2, -809820.5, -1492022.4, -46430.684, -0.05283224, -0.11212866, -806674.9, 576880.0, 0.08796901, 10.006269, 9.996493 
2.4555811e+3, 1.6881661e+2, -712280.9, -1348599.3, -31707.406, -0.027262524, -0.10051976, -710704.8, 574884.06, 0.030018246, 10.005734, 9.99706 
2.4554913e+3, 1.7881352e+2, -678885.6, -1296754.0, -22435.795, 0.005121082, -0.07458992, -678072.06, 509546.47, 0.0056905826, 10.005221, 9.996991 
2.4554014e+3, 1.888103e+2, -667589.2, -1172559.9, 6801.4443, -0.0009502908, -0.08605988, -667497.6, 422152.3, 0.00027513452, 10.004312, 9.997607 
2.455312e+3, 1.9880734e+2, -715640.75, -1141098.5, 17444.111, -0.015291993, -0.10481633, -714926.75, 276752.0, 0.00000001256012, 10.003292, 9.9976425 
2.4552226e+3, 2.088051e+2, -677905.75, -982473.44, 35624.992, -0.027877986, -0.094025664, -673794.25, 219906.19, 0.0, 10.002491, 9.998443 
2.4551333e+3, 2.1880327e+2, -691651.2, -935551.9, 44422.266, -0.037710425, -0.08302851, -683812.4, 111905.875, 0.0, 10.001708, 9.998472 
2.4550447e+3, 2.2880161e+2, -670649.3, -777853.75, 43512.902, -0.018865282, -0.10036496, -655211.2, 42523.613, 0.0, 10.000764, 9.999335 
2.454956e+3, 2.3880033e+2, -714777.56, -748106.44, 40452.82, 0.003951474, -0.12197778, -687691.2, -87943.61, 0.0, 9.999786, 9.999338 
2.4548672e+3, 2.4880007e+2, -661630.4, -585223.7, 55047.06, -0.015611336, -0.08218927, -556422.0, -54671.637, 0.0, 9.999106, 10.000111 
2.4547783e+3, 2.5880018e+2, -671695.8, -564192.7, 65074.266, -0.043656792, -0.03932857, -533541.06, -129791.66, 0.0, 9.99847, 9.99989 
2.4546902e+3, 2.687991e+2, -670424.6, -463903.0, 47395.438, -0.0057029496, -0.11074101, -453545.47, -147786.28, 0.0, 9.9976, 10.000323 
2.4546021e+3, 2.787982e+2, -686674.8, -386399.97, 27818.182, 0.053408913, -0.20260374, -383844.6, -176077.33, 0.0, 9.996667, 10.000632 
2.4545124e+3, 2.8879967e+2, -638217.7, -172102.69, 22334.586, 0.011723886, -0.14804244, -171034.94, -61283.043, 0.0, 9.995721, 10.001887 
2.4544221e+3, 2.9880196e+2, -714634.75, -211531.4, 43418.918, -0.08669855, -0.056551468, -207811.77, -196083.06, 0.0, 9.994748, 10.001416 
2.454336e+3, 3.0880272e+2, -732387.5, -163743.9, 31847.29, 0.22180831, -0.08726395, -161965.83, -161965.83, 0.0, 9.994146, 10.001703 
2.4542436e+3, 3.1880358e+2, -710941.94, -45142.75, -17251.125, -0.05815847, -0.12770237, -44696.066, -44696.066, 0.0, 9.993862, 10.002637 
2.4659483e+3, 1.2892066e+2, -1102937.0, -1653492.1, 10944.964, -0.02752434, -0.15682754, -1102719.5, 573848.3, 0.39064845, 10.008436, 9.996457 
2.4658597e+3, 1.3891792e+2, -1028870.1, -1642434.9, -10292.809, 0.024948463, -0.0331774, -1028697.5, 549898.2, 0.28258762, 10.007311, 9.996304 
2.4657683e+3, 1.4891382e+2, -904261.25, -1526097.4, -46910.934, -0.018391043, -0.051937614, -900742.25, 579893.8, 0.17222951, 10.006604, 9.996769 
2.4656768e+3, 1.589096e+2, -826960.7, -1480170.3, -35594.453, -0.057446502, -0.11041467, -825026.8, 557650.4, 0.08210183, 10.006019, 9.996693 
2.4655859e+3, 1.689062e+2, -761563.8, -1353450.9, -12262.416, -0.029760536, -0.10499538, -761309.9, 523400.53, 0.027343519, 10.005296, 9.997234 
2.4654956e+3, 1.789032e+2, -761295.3, -1311211.0, -1972.9911, 0.00381343, -0.086563215, -761288.25, 425451.06, 0.0049381373, 10.004549, 9.997211 
2.465405e+3, 1.8890026e+2, -718748.06, -1167391.4, 20749.434, -0.0009266231, -0.09401721, -717790.5, 370977.25, 0.00020856189, 10.003839, 9.997868 
2.4653147e+3, 1.9889759e+2, -722061.9, -1114396.0, 28504.328, -0.011731328, -0.11069296, -720001.75, 270791.75, 0.00000000021894557, 10.00312, 9.997908 
2.4652246e+3, 2.088954e+2, -700279.56, -962461.8, 47021.594, -0.022975918, -0.11985656, -692101.44, 200712.61, 0.0, 10.002211, 9.9987135 
2.4651346e+3, 2.1889363e+2, -743581.4, -939512.4, 56106.188, -0.03205023, -0.1270102, -728652.5, 66178.31, 0.0, 10.00127, 9.9986515 
2.4650449e+3, 2.288924e+2, -713753.3, -801791.8, 68384.95, -0.016604673, -0.10474067, -676444.9, 20399.506, 0.0, 10.000489, 9.9993 
2.4649553e+3, 2.3889154e+2, -718630.44, -747459.3, 82873.18, 0.0054421583, -0.08127203, -648927.44, -50072.918, 0.0, 9.999755, 9.999355 
2.4648659e+3, 2.4889104e+2, -648386.56, -567280.25, 92607.32, -0.009433115, -0.06920859, -506736.06, -5877.1177, 0.0, 9.999155, 10.000207 
2.4647766e+3, 2.588908e+2, -660015.56, -551902.5, 80313.15, -0.032152083, -0.06817282, -509148.3, -106287.98, 0.0, 9.998529, 9.999942 
2.4646872e+3, 2.688898e+2, -695205.75, -479046.22, 74584.4, -0.0024037955, -0.1317992, -455809.3, -150939.45, 0.0, 9.997448, 10.000289 
2.4645981e+3, 2.7888903e+2, -742740.44, -416271.75, 85254.46, 0.05548505, -0.20185934, -395349.16, -188472.13, 0.0, 9.996296, 10.000605 
2.4645083e+3, 2.8889066e+2, -619261.3, -161565.89, 52004.633, 0.05288007, -0.13201551, -155731.36, -46870.434, 0.0, 9.995851, 10.001895 
2.4644175e+3, 2.9889295e+2, -603910.25, -152702.31, 25022.207, -0.029999172, -0.041990686, -151318.92, -140480.69, 0.0, 9.995495, 10.001454 
2.4643292e+3, 3.0889398e+2, -671059.7, -138398.55, 40890.47, 0.15190616, -0.047165718, -135277.81, -135277.81, 0.0, 9.994596, 10.001656 
2.4642374e+3, 3.1889403e+2, -722014.6, -34496.35, -10277.559, -0.027236415, -0.15987879, -34342.75, -34342.75, 0.0, 9.993721, 10.002775 
2.4759562e+3, 1.290114e+2, -1084318.6, -1648600.8, -10274.37, -0.038822595, -0.0032253063, -1084131.6, 591550.0, 0.37312552, 10.00844, 9.996496 
2.4758667e+3, 1.390055e+2, -1011793.94, -1620161.1, -29857.742, 0.04684207, -0.20402312, -1010332.06, 567404.94, 0.2686409, 10.007288, 9.99647 
2.4757746e+3, 1.4900258e+2, -875347.2, -1472104.0, -59725.51, 0.0064300117, -0.13497001, -869428.3, 610337.2, 0.16247095, 10.006595, 9.997154 
2.4756823e+3, 1.5900041e+2, -804621.6, -1436190.4, -53366.625, -0.035059325, -0.026839653, -800143.94, 581643.5, 0.07645068, 10.006004, 9.997005 
2.4755909e+3, 1.689968e+2, -747389.6, -1323144.6, -36195.543, -0.024085462, -0.065924846, -745123.06, 538699.7, 0.024876958, 10.005277, 9.997455 
2.4754995e+3, 1.789932e+2, -748651.8, -1279968.6, -25391.127, -0.01296326, -0.13167444, -747441.2, 438416.6, 0.004290662, 10.004519, 9.997443 
2.4754085e+3, 1.8899074e+2, -705701.1, -1138264.6, -2575.8315, -0.018855806, -0.112665564, -705685.8, 382195.34, 0.00016109823, 10.003823, 9.998078 
2.4753174e+3, 1.989887e+2, -708027.75, -1083021.6, 2015.7792, -0.0235786, -0.084461614, -708016.94, 281883.28, 0.00000000023303823, 10.003105, 9.998134 
2.4752265e+3, 2.0898633e+2, -681821.06, -924741.3, 12474.992, -0.009811573, -0.13939014, -681182.06, 210740.0, 0.0, 10.002207, 9.998978 
2.4751358e+3, 2.1898425e+2, -728167.56, -907345.0, 25292.955, 0.0041157356, -0.2024099, -724665.56, 69275.61, 0.0, 10.001263, 9.998879 
2.4750452e+3, 2.2898377e+2, -701613.6, -779119.44, 41056.645, -0.00027755654, -0.12266932, -683909.2, 12038.646, 0.0, 10.000494, 9.999456 
2.4749546e+3, 2.3898378e+2, -715905.6, -744264.7, 58135.305, -0.005800545, -0.026530087, -670245.6, -72295.336, 0.0, 9.999759, 9.999378 
2.4748647e+3, 2.4898267e+2, -659275.9, -593696.94, 69537.56, -0.0007901114, -0.06376271, -549605.9, -49645.164, 0.0, 9.999165, 10.000024 
2.4747749e+3, 2.5898162e+2, -653537.44, -544075.7, 47463.33, -0.00027666282, -0.12738645, -526361.9, -124392.11, 0.0, 9.998547, 9.99999 
2.4746843e+3, 2.6898175e+2, -666297.3, -419855.06, 26135.572, -0.0028944383, -0.108995244, -417113.8, -113144.98, 0.0, 9.997444, 10.000702 
2.4745938e+3, 2.7898237e+2, -748797.6, -428433.25, 53708.777, 0.022802413, -0.073985554, -419668.78, -213705.52, 0.0, 9.996287, 10.000529 
2.4745041e+3, 2.8898266e+2, -674906.6, -282148.1, 39081.49, 0.09251704, -0.07739199, -278297.06, -170336.33, 0.0, 9.995866, 10.001062 
2.4744134e+3, 2.9898304e+2, -606869.0, -173400.97, -3711.4229, 0.05424746, -0.10910783, -173369.19, -163411.95, 0.0, 9.995551, 10.001289 
2.474322e+3, 3.0898452e+2, -632491.06, -61306.25, -2311.3682, 0.006610861, -0.10451624, -61296.895, -61296.895, 0.0, 9.994603, 10.002185 
2.4742319e+3, 3.1898654e+2, -713908.06, -33916.043, -49608.758, 0.08838051, -0.05383095, -30315.9, -30315.9, 0.0, 9.993756, 10.002781 
2.4859649e+3, 1.2910305e+2, -1015406.5, -1622388.4, 44676.227, -0.010371212, 0.011302834, -1012135.8, 662647.6, 0.35471398, 10.008984, 9.996501 
2.4858736e+3, 1.3909708e+2, -984120.75, -1610877.5, 40034.82, 0.017776927, -0.19027926, -981573.8, 595264.9, 0.2542191, 10.007442, 9.996463 
2.4857807e+3, 1.4909384e+2, -874997.0, -1472818.1, 19312.854, 0.0005809511, -0.15155764, -874373.75, 604496.44, 0.15260436, 10.006538, 9.997168 
2.4856882e+3, 1.590914e+2, -821836.0, -1437128.0, 9814.945, -0.0017117945, -0.06879086, -821679.5, 559215.06, 0.070903726, 10.005817, 9.997083 
2.485596e+3, 1.6908821e+2, -776512.25, -1318209.6, 20009.295, 0.004538187, -0.07812297, -775774.2, 507152.03, 0.022549741, 10.004982, 9.997628 
2.4855037e+3, 1.7908512e+2, -789362.6, -1277774.5, 30604.041, 0.0004195921, -0.10977557, -787452.44, 397504.38, 0.0037185939, 10.004145, 9.997639 
2.4854116e+3, 1.8908267e+2, -741009.3, -1129133.3, 56626.37, -0.021171046, -0.10826412, -732916.4, 354063.34, 0.00012574976, 10.003474, 9.998306 
2.4853198e+3, 1.9908059e+2, -739732.1, -1082305.8, 55701.145, -0.037135974, -0.10466001, -730902.94, 258096.0, 0.00000000017417703, 10.00283, 9.998265 
2.4852283e+3, 2.0907834e+2, -711056.44, -944281.6, 43983.09, -0.014679779, -0.1449984, -703037.56, 187982.56, 0.0, 10.002037, 9.998921 
2.4851367e+3, 2.190764e+2, -730622.5, -903938.2, 39530.08, 0.012774252, -0.18879278, -722032.2, 71006.234, 0.0, 10.00123, 9.998916 
2.4850452e+3, 2.2907591e+2, -669926.75, -743816.9, 56317.73, 0.0028244, -0.12244387, -639517.4, 55527.168, 0.0, 10.000631, 9.999629 
2.4849541e+3, 2.3907588e+2, -668835.56, -708765.3, 72045.11, -0.009539081, -0.043967985, -614040.2, -16993.826, 0.0, 10.000035, 9.999485 
2.4848635e+3, 2.4907474e+2, -670298.4, -600424.06, 92610.28, 0.006296539, -0.08642689, -536380.06, -37322.76, 0.0, 9.999101, 10.000006 
2.4847732e+3, 2.5907367e+2, -712439.3, -570736.25, 79114.03, 0.021768395, -0.15041941, -535385.25, -134318.25, 0.0, 9.998141, 9.999999 
2.4846815e+3, 2.6907417e+2, -619956.06, -390866.56, 37212.523, 0.0031234126, -0.09910672, -384973.5, -81910.15, 0.0, 9.99774, 10.000754 
2.4845898e+3, 2.7907515e+2, -596759.1, -361414.06, 43374.44, 0.0072283326, -0.029355802, -353674.6, -148619.78, 0.0, 9.997366, 10.000464 
2.4844998e+3, 2.8907496e+2, -613303.6, -280000.75, 65852.38, 0.09781851, -0.058469452, -267461.7, -160405.08, 0.0, 9.996413, 10.00081 
2.4844089e+3, 2.9907474e+2, -641535.06, -202786.39, 55494.17, 0.09551658, -0.12598944, -195876.17, -186817.42, 0.0, 9.99537, 10.001174 
2.4843155e+3, 3.09076e+2, -619169.2, -37155.723, 18444.088, -0.057359044, -0.1449462, -36571.813, -36571.813, 0.0, 9.994629, 10.002333 
2.4842256e+3, 3.190776e+2, -647972.8, 15948.214, -9926.137, 0.105565645, -0.14789769, 16096.584, 16096.584, 0.0, 9.994144, 10.00293 
2.4959739e+3, 1.291955e+2, -1008218.44, -1625888.5, 3142.0251, 0.035674978, -0.058757488, -1008202.44, 665672.44, 0.33543065, 10.008847, 9.9965105 
2.4958797e+3, 1.3919175e+2, -984558.44, -1632181.9, 2801.5789, -0.055001855, -0.03876603, -984546.3, 591363.5, 0.23928872, 10.007388, 9.996337 
2.4957865e+3, 1.4918703e+2, -889067.1, -1519908.9, -3844.5151, -0.03177295, -0.121241026, -889043.7, 588911.7, 0.14256907, 10.006514, 9.996853 
2.4956942e+3, 1.5918262e+2, -830600.06, -1458707.0, -15438.913, 0.035571527, -0.20905682, -830220.8, 549777.6, 0.0654031, 10.005788, 9.996952 
2.4956009e+3, 1.6918038e+2, -768536.6, -1303755.6, -9695.552, 0.049124334, -0.12914594, -768361.06, 513660.66, 0.02032453, 10.004975, 9.997734 
2.4955076e+3, 1.7917867e+2, -777969.9, -1257520.6, 4101.274, 0.035510145, -0.031392723, -777934.75, 406104.66, 0.0032039925, 10.004151, 9.997777 
2.4954148e+3, 1.8917587e+2, -725466.8, -1097891.8, 33518.1, -0.012267593, -0.08480692, -722474.25, 363591.22, 0.0000980351, 10.003471, 9.998525 
2.4953221e+3, 1.9917314e+2, -742422.2, -1084589.6, 29685.72, -0.056411155, -0.16344744, -739865.8, 248224.73, 0.00000000005180779, 10.002809, 9.998263 
2.4952295e+3, 2.0917134e+2, -735528.56, -996537.06, 13533.081, -0.0376029, -0.13494815, -734828.75, 155280.31, 0.0, 10.002037, 9.998566 
2.4951372e+3, 2.1916996e+2, -740296.6, -926179.7, 15645.072, -0.009637604, -0.09194523, -738989.0, 53134.74, 0.0, 10.001233, 9.998765 
2.4950454e+3, 2.291687e+2, -658925.75, -723620.7, 36918.13, -0.008637403, -0.10795201, -642188.56, 51947.03, 0.0, 10.000637, 9.999768 
2.4949536e+3, 2.3916773e+2, -657238.7, -688833.3, 44158.44, -0.010332583, -0.13579038, -626136.94, -29992.771, 0.0, 10.000046, 9.9996195 
2.4948624e+3, 2.4916716e+2, -658754.4, -579335.0, 51488.836, 0.009257262, -0.1361534, -554021.94, -55872.215, 0.0, 9.999107, 10.000151 
2.494771e+3, 2.591669e+2, -716272.25, -580552.25, 50709.504, 0.027188335, -0.13149373, -563698.44, -163546.0, 0.0, 9.998143, 9.999935 
2.494679e+3, 2.691668e+2, -643598.0, -446010.34, 24667.646, 0.014790543, -0.10610343, -442977.3, -140822.31, 0.0, 9.99776, 10.000369 
2.4945869e+3, 2.7916703e+2, -590784.1, -364122.2, 16869.842, 0.009873302, -0.08260398, -362873.47, -158718.66, 0.0, 9.997424, 10.000422 
2.4944954e+3, 2.8916746e+2, -577572.4, -213874.17, 21492.443, 0.05775154, -0.080859266, -212608.5, -106458.8, 0.0, 9.99644, 10.001255 
2.4944036e+3, 2.9916823e+2, -650314.44, -220333.9, 23426.385, 0.066832125, -0.082295924, -219061.34, -210920.44, 0.0, 9.995361, 10.0010605 
2.4943103e+3, 3.0916837e+2, -662946.7, -130188.65, -14318.714, 0.007574996, -0.1617418, -129804.09, -129804.09, 0.0, 9.994633, 10.001696 
2.4942192e+3, 3.1917083e+2, -651232.56, -8481.438, 26972.984, 0.08897401, -0.03291718, -7351.506, -7351.506, 0.0, 9.994213, 10.002731 
2.5059816e+3, 1.292884e+2, -1078531.4, -1682031.1, -13761.603, 0.013242935, -0.103305966, -1078217.8, 594744.5, 0.31535387, 10.008001, 9.996371 
2.505887e+3, 1.3928473e+2, -1006431.2, -1652223.3, -19063.342, -0.039081886, -0.06402334, -1005868.94, 569128.8, 0.22390676, 10.007085, 9.9963455 
2.5057927e+3, 1.4928038e+2, -905483.5, -1512637.6, 2145.7354, -0.021279031, -0.12294418, -905475.9, 571564.1, 0.13238898, 10.006248, 9.997027 
2.505699e+3, 1.5927628e+2, -861888.8, -1462926.1, 16046.226, 0.034466717, -0.19556008, -861460.7, 517619.44, 0.05994663, 10.005484, 9.997066 
2.5056055e+3, 1.6927385e+2, -777065.0, -1303651.8, 25471.734, 0.044043045, -0.13587983, -775835.75, 505268.94, 0.018190358, 10.004894, 9.997768 
2.5055113e+3, 1.7927195e+2, -754829.6, -1244155.9, 30769.547, 0.03061707, -0.05868434, -752902.4, 430221.75, 0.0027375007, 10.004309, 9.997787 
2.5054178e+3, 1.8926929e+2, -743886.8, -1110332.3, 41748.68, -0.0033530062, -0.09646179, -739190.6, 345959.0, 0.00007529004, 10.003367, 9.998486 
2.5053245e+3, 1.9926672e+2, -798439.9, -1109455.3, 28373.52, -0.03421656, -0.15412742, -795872.6, 191301.16, 0.0000000000010010511, 10.0024185, 9.998279 
2.5052312e+3, 2.0926504e+2, -730191.1, -984146.75, 40055.617, -0.03936433, -0.11872428, -724023.1, 165167.9, 0.0, 10.002037, 9.998648 
2.505138e+3, 2.1926373e+2, -673775.6, -896192.56, 60467.03, -0.036058772, -0.07329061, -658399.8, 132805.06, 0.0, 10.001708, 9.998738 
2.5050455e+3, 2.2926213e+2, -658247.94, -746067.75, 59843.65, -0.016881121, -0.10777888, -627932.94, 65287.188, 0.0, 10.000746, 9.999558 
2.504953e+3, 2.3926078e+2, -714721.56, -724075.4, 46127.76, 0.006105439, -0.1567665, -673034.25, -77801.62, 0.0, 9.999691, 9.999546 
2.504861e+3, 2.4926037e+2, -654065.4, -565989.56, 47708.26, 0.015214605, -0.14311, -545101.25, -47864.71, 0.0, 9.999099, 10.000242 
2.5047687e+3, 2.592604e+2, -653035.06, -543617.0, 47868.824, 0.019493029, -0.11804053, -525631.44, -126394.83, 0.0, 9.998555, 9.999987 
2.5046763e+3, 2.6926017e+2, -635967.06, -444769.0, 50508.4, 0.009530302, -0.10624323, -432246.47, -131006.29, 0.0, 9.9978285, 10.000341 
2.5045836e+3, 2.792601e+2, -639857.8, -386089.78, 58081.766, 0.010412165, -0.10386336, -373427.94, -170185.98, 0.0, 9.997086, 10.000431 
2.5044915e+3, 2.892606e+2, -564231.25, -201593.81, 33497.133, 0.049412254, -0.10067459, -198525.61, -93289.234, 0.0, 9.996512, 10.001301 
2.5043988e+3, 2.9926154e+2, -578061.2, -209408.97, 12727.787, 0.053026948, -0.08561408, -208970.06, -201743.94, 0.0, 9.995967, 10.00084 
2.5043052e+3, 3.092617e+2, -556379.44, -139186.3, -9108.77, 0.01648214, -0.11382484, -138987.52, -138987.52, 0.0, 9.995626, 10.001153 
2.5042135e+3, 3.1926364e+2, -609844.06, -38701.055, 59889.285, 0.09553455, 0.00785986, -32488.719, -32488.719, 0.0, 9.99472, 10.002275 
2.5159883e+3, 1.2938172e+2, -1088216.4, -1730426.6, -40433.21, -0.0652051, -0.13558231, -1085680.8, 586365.1, 0.29469013, 10.007855, 9.996114 
2.5158942e+3, 1.3937667e+2, -993654.3, -1643311.6, -41285.77, 0.038303018, -0.2147799, -991041.1, 583055.2, 0.20823403, 10.007056, 9.996425 
2.5157988e+3, 1.4937404e+2, -867783.06, -1443981.3, -21411.936, 0.01733028, -0.14125101, -866988.5, 609133.94, 0.12215741, 10.00624, 9.997538 
2.5157037e+3, 1.593719e+2, -843895.4, -1425961.6, -7548.6274, -0.0005671191, -0.061424468, -843797.5, 534346.06, 0.054568924, 10.00546, 9.9973345 
2.5156093e+3, 1.6936846e+2, -781553.06, -1312210.6, 5575.3154, -0.0028997867, -0.11051804, -781494.5, 498682.78, 0.016150862, 10.004875, 9.997722 
2.5155148e+3, 1.793651e+2, -766104.3, -1265122.6, 3592.2244, -0.010204488, -0.17363203, -766078.44, 416131.63, 0.0023143748, 10.004291, 9.997656 
2.515421e+3, 1.8936294e+2, -762683.8, -1151267.3, 4457.0728, 0.004994881, -0.13579394, -762632.7, 321599.3, 0.000056231012, 10.003368, 9.998208 
2.515327e+3, 1.9936123e+2, -795447.3, -1106794.9, 4951.37, 0.020259708, -0.08628271, -795368.56, 190880.9, 0.0, 10.002428, 9.998295 
2.515233e+3, 2.0935939e+2, -698415.4, -920624.0, 31627.66, -0.024362154, -0.09964647, -694001.4, 194265.36, 0.0, 10.002042, 9.9990835 
2.515139e+3, 2.1935771e+2, -674491.06, -896022.3, 38569.867, -0.070689745, -0.12569396, -667967.9, 122314.35, 0.0, 10.001694, 9.998749 
2.515046e+3, 2.2935614e+2, -696732.2, -827093.0, 18618.594, -0.023345811, -0.116828494, -694125.1, -1826.3491, 0.0, 10.000745, 9.999006 
2.514953e+3, 2.393549e+2, -734524.9, -767965.7, 14614.374, 0.03488891, -0.10599251, -729038.25, -134725.77, 0.0, 9.999696, 9.999245 
2.5148597e+3, 2.4935424e+2, -652383.9, -566282.2, 27024.563, 0.02225405, -0.107666574, -558502.9, -62184.008, 0.0, 9.999108, 10.000238 
2.5147665e+3, 2.59354e+2, -639228.3, -521705.34, 22019.205, -0.0063905334, -0.110993095, -517715.28, -119394.26, 0.0, 9.998578, 10.00013 
2.5146735e+3, 2.693541e+2, -610081.25, -393773.22, 18312.18, -0.017185656, -0.098521836, -392233.9, -91914.16, 0.0, 9.997834, 10.000692 
2.5145802e+3, 2.7935436e+2, -639339.06, -383953.63, 31974.693, -0.0017051618, -0.09097684, -380011.2, -177694.81, 0.0, 9.997074, 10.000454 
2.5144878e+3, 2.8935426e+2, -595995.8, -270257.25, 11483.084, 0.08025864, -0.114942074, -269852.94, -165535.39, 0.0, 9.996517, 10.000831 
2.5143945e+3, 2.9935452e+2, -593624.6, -253883.89, -6036.6685, 0.07833783, -0.12428122, -253776.66, -247461.06, 0.0, 9.996012, 10.000516 
2.5142992e+3, 3.0935583e+2, -561258.7, -167868.81, -22751.209, -0.09960258, -0.017712943, -166557.4, -166557.4, 0.0, 9.9957, 10.000923 
2.5142077e+3, 3.1935462e+2, -663912.25, -149151.55, -467.1185, 0.090272546, -0.17188059, -149151.13, -149151.13, 0.0, 9.994721, 10.001513 
2.5259954e+3, 1.2947622e+2, -1132666.0, -1710897.0, -6245.8457, -0.06797247, -0.13269642, -1132598.5, 538521.9, 0.27371377, 10.007011, 9.996647 
2.5259006e+3, 1.3947158e+2, -980175.06, -1609930.5, 18046.125, 0.048442237, -0.21771641, -979658.4, 593507.5, 0.19247082, 10.006933, 9.996708 
2.5258046e+3, 1.4946905e+2, -884657.75, -1455911.8, 15807.475, 0.017438253, -0.1371543, -884220.7, 590970.56, 0.11198843, 10.006067, 9.997518 
2.5257084e+3, 1.59467e+2, -890542.9, -1454125.5, 8967.791, -0.014010581, -0.046340544, -890400.2, 486811.94, 0.049315322, 10.005121, 9.9973 
2.5256136e+3, 1.6946341e+2, -830530.8, -1342340.6, 25173.195, -0.014720701, -0.102772765, -829295.7, 449951.8, 0.01421461, 10.004558, 9.997664 
2.5255185e+3, 1.7945988e+2, -800978.56, -1283868.0, 17995.006, -0.015675027, -0.17674755, -800308.94, 380973.22, 0.0019321288, 10.004064, 9.997633 
2.5254238e+3, 1.8945785e+2, -754065.4, -1146194.1, 26605.975, 0.0056771943, -0.12542601, -752268.4, 331034.72, 0.000040405128, 10.003431, 9.998208 
2.525329e+3, 1.9945629e+2, -744773.44, -1077110.1, 44279.31, 0.027097363, -0.061019614, -738974.94, 246344.39, 0.0, 10.002761, 9.998334 
2.5252345e+3, 2.094543e+2, -708059.56, -916490.4, 58224.57, -0.021817736, -0.09279497, -692897.6, 194439.44, 0.0, 10.001945, 9.999156 
2.5251397e+3, 2.1945246e+2, -757536.44, -938121.1, 40453.97, -0.07309002, -0.13921936, -748888.25, 40465.055, 0.0, 10.00114, 9.998724 
2.525046e+3, 2.2945088e+2, -721140.5, -855943.94, 36074.97, -0.028107181, -0.11786083, -712093.56, -20722.94, 0.0, 10.000658, 9.998846 
2.5249523e+3, 2.3944966e+2, -666768.8, -740451.06, 58941.914, 0.030283378, -0.08823792, -634101.56, -40716.53, 0.0, 10.000192, 9.999192 
2.5248584e+3, 2.4944907e+2, -611149.9, -541262.7, 80356.8, 0.014724068, -0.084206805, -488580.56, 6810.0493, 0.0, 9.999376, 10.0002775 
2.5247645e+3, 2.5944886e+2, -642110.7, -518657.53, 76759.64, -0.015724503, -0.08816166, -481884.28, -84492.07, 0.0, 9.998547, 10.000161 
2.524671e+3, 2.694488e+2, -563597.75, -369039.25, 53517.766, -0.022701364, -0.09120023, -355289.66, -55897.91, 0.0, 9.998151, 10.000706 
2.524577e+3, 2.7944893e+2, -548987.1, -345704.38, 38849.633, -0.0011232537, -0.09822328, -338532.78, -137143.5, 0.0, 9.997725, 10.0004 
2.5244838e+3, 2.8944862e+2, -579988.7, -279608.03, 29068.723, 0.07876517, -0.12926143, -276820.8, -173428.03, 0.0, 9.996709, 10.0006695 
2.52439e+3, 2.994486e+2, -644313.8, -282431.72, 45957.15, 0.07646598, -0.14677262, -276686.6, -271293.0, 0.0, 9.995692, 10.000469 
2.5242943e+3, 3.0945048e+2, -590928.3, -176832.94, 59952.508, -0.1053395, 0.013879983, -168327.73, -168327.73, 0.0, 9.995482, 10.000961 
2.5242022e+3, 3.1945005e+2, -627364.6, -119940.05, -355.2933, 0.110201836, -0.060527083, -119939.805, -119939.805, 0.0, 9.994929, 10.001609 
2.536002e+3, 1.295718e+2, -1068635.1, -1588514.3, -5301.646, -0.029365093, -0.09935953, -1068581.0, 601605.06, 0.25271484, 10.006944, 9.997707 
2.5359067e+3, 1.3956875e+2, -961639.9, -1564527.4, 2960.2896, 0.005524934, -0.116026364, -961625.3, 610587.94, 0.17681327, 10.006804, 9.997093 
2.53581e+3, 1.4956516e+2, -911107.1, -1522373.4, -18738.305, -0.012569313, -0.120528765, -910533.25, 563715.8, 0.101993, 10.006025, 9.997069 
2.5357133e+3, 1.5956175e+2, -903762.8, -1494526.0, -16202.041, -0.013777407, -0.12282877, -903318.8, 472965.0, 0.044233065, 10.005141, 9.997016 
2.5356176e+3, 1.6955876e+2, -835296.56, -1355669.5, 10246.319, -0.0005073804, -0.10510025, -835094.9, 443219.7, 0.012393011, 10.004558, 9.997576 
2.5355226e+3, 1.795561e+2, -801937.7, -1280311.1, -243.7647, 0.0043795374, -0.0861878, -801937.56, 378404.3, 0.0015903898, 10.004032, 9.997675 
2.5354266e+3, 1.8955384e+2, -741488.2, -1118321.3, 3944.983, -0.0030010368, -0.07463376, -741446.94, 340917.34, 0.000027801365, 10.003418, 9.998408 
2.535331e+3, 1.9955184e+2, -745475.9, -1078439.4, 18546.291, -0.01162124, -0.07143769, -744446.0, 239937.72, 0.0, 10.002754, 9.998331 
2.535236e+3, 2.0954974e+2, -725740.7, -956148.2, 27391.838, -0.03071789, -0.09431404, -722529.0, 163873.39, 0.0, 10.001951, 9.998883 
2.5351408e+3, 2.1954788e+2, -761072.3, -948653.6, 18110.287, -0.049296837, -0.11950687, -759339.8, 29079.07, 0.0, 10.001147, 9.9986515 
2.535046e+3, 2.2954626e+2, -706567.94, -829093.25, 21563.078, -0.033753812, -0.11390687, -702883.9, -12447.341, 0.0, 10.000667, 9.999028 
2.5349516e+3, 2.3954505e+2, -655442.9, -720233.0, 35594.703, -0.0120243095, -0.102457814, -639708.7, -47258.035, 0.0, 10.000199, 9.9993305 
2.534857e+3, 2.4954481e+2, -604964.75, -531445.0, 45449.195, -0.009083673, -0.07104292, -509750.5, -15298.366, 0.0, 9.999384, 10.000345 
2.534763e+3, 2.5954488e+2, -649471.75, -537779.56, 52653.637, -0.013025396, -0.047829714, -516871.56, -120421.2, 0.0, 9.998557, 10.000028 
2.5346687e+3, 2.6954415e+2, -588874.25, -427444.5, 39969.26, -0.0047896, -0.08397357, -418090.34, -119633.336, 0.0, 9.998169, 10.0002985 
2.5345746e+3, 2.7954358e+2, -554051.7, -366846.34, 9808.95, 0.015567486, -0.12614441, -366333.8, -165871.6, 0.0, 9.997764, 10.000239 
2.5344798e+3, 2.8954345e+2, -567008.94, -255211.45, -18826.525, 0.030735461, -0.1473592, -254078.81, -151615.23, 0.0, 9.996714, 10.000838 
2.534384e+3, 2.9954362e+2, -629204.94, -246663.14, 21559.225, 0.011595551, -0.16869281, -245451.94, -240989.81, 0.0, 9.9956665, 10.0007305 
2.534291e+3, 3.0954587e+2, -567952.0, -127160.87, 59369.97, 0.08694823, -0.0012384986, -119304.375, -119304.375, 0.0, 9.995468, 10.001312 
2.5341952e+3, 3.1954664e+2, -553364.3, 4735.565, -147583.48, -0.008802994, 0.0011880619, 41359.12, 41359.12, 0.0, 9.995007, 10.002453 
2.5460094e+3, 1.2966792e+2, -1083697.1, -1584341.4, 20713.738, 0.039256737, -0.09243044, -1082841.6, 586403.75, 0.23196319, 10.006561, 9.997908 
2.5459123e+3, 1.3966517e+2, -1077459.0, -1614584.5, -1891.0817, 0.003933876, -0.09598063, -1077452.4, 493817.13, 0.16143559, 10.00567, 9.997283 
2.545815e+3, 1.496616e+2, -959599.94, -1533567.6, 381.2714, -0.017761532, -0.11541111, -959599.7, 513704.94, 0.09226784, 10.005545, 9.99722 
2.5457183e+3, 1.5965815e+2, -851770.7, -1460893.1, 26804.416, -0.011107641, -0.13506049, -850593.44, 524745.9, 0.039363686, 10.0054655, 9.9970875 
2.5456217e+3, 1.6965532e+2, -843830.6, -1362387.9, 54052.99, -0.0144743705, -0.099138595, -838256.25, 439112.4, 0.010696637, 10.004509, 9.997551 
2.5455254e+3, 1.7965284e+2, -882109.2, -1318101.9, 51695.582, -0.02495085, -0.0581589, -876063.44, 303330.94, 0.0012896081, 10.003482, 9.997679 
2.5454295e+3, 1.8965043e+2, -789680.9, -1137668.6, 54312.785, -0.011488782, -0.06136284, -781400.94, 300016.9, 0.000018403796, 10.003077, 9.998436 
2.5453335e+3, 1.9964823e+2, -746166.8, -1080625.3, 54141.37, 0.0033727651, -0.07845656, -737620.9, 245818.06, 0.0, 10.002765, 9.998307 
2.5452375e+3, 2.0964597e+2, -695483.25, -952822.94, 65204.227, -0.024611037, -0.10739154, -679904.94, 205554.14, 0.0, 10.002215, 9.9987755 
2.5451416e+3, 2.1964398e+2, -696459.8, -918089.9, 65538.55, -0.054335237, -0.13356182, -678529.9, 108946.95, 0.0, 10.001601, 9.998639 
2.5450465e+3, 2.2964253e+2, -675451.44, -803887.3, 67151.25, -0.04444548, -0.11673019, -646754.2, 42738.574, 0.0, 10.000844, 9.999113 
2.544951e+3, 2.3964144e+2, -673602.4, -725766.6, 71169.98, -0.02619163, -0.09609407, -623885.8, -32380.586, 0.0, 10.000068, 9.9993515 
2.544856e+3, 2.4964103e+2, -603935.7, -538766.7, 67703.586, -0.017339442, -0.07917081, -496214.47, -2706.168, 0.0, 9.999432, 10.000268 
2.544761e+3, 2.5964087e+2, -627661.8, -539161.3, 67886.07, -0.010412586, -0.069492914, -502377.0, -106868.39, 0.0, 9.998766, 9.999914 
2.5446665e+3, 2.6964006e+2, -640443.3, -470121.44, 72429.234, 0.004446136, -0.09675787, -443486.22, -145969.55, 0.0, 9.9979, 10.000132 
2.5445718e+3, 2.7963942e+2, -658505.1, -424442.47, 55576.17, 0.026001072, -0.1292093, -411916.72, -212393.31, 0.0, 9.997086, 10.000166 
2.5444758e+3, 2.8963938e+2, -542009.06, -237304.67, 19398.113, 0.004457564, -0.14151748, -236074.72, -134550.73, 0.0, 9.996866, 10.000885 
2.5443795e+3, 2.9963973e+2, -489417.66, -157578.94, 47920.066, -0.031578664, -0.15055664, -150797.5, -147276.95, 0.0, 9.996536, 10.00092 
2.544287e+3, 3.09642e+2, -582964.3, -82157.94, 81927.375, 0.18601796, -0.016243752, -69096.04, -69096.04, 0.0, 9.995151, 10.001769 
2.5441885e+3, 3.1964058e+2, -654218.25, -35000.832, -111246.94, -0.116896264, -0.27915266, -15621.042, -15621.042, 0.0, 9.994298, 10.00251 
2.556016e+3, 1.2976457e+2, -1092208.9, -1626723.4, -7167.9756, 0.119049236, -0.100631334, -1092112.8, 576185.94, 0.21167573, 10.006536, 9.997528 
2.555918e+3, 1.397613e+2, -1061825.1, -1605322.1, -16478.887, 0.025393888, -0.13131395, -1061325.9, 509004.2, 0.1464794, 10.005697, 9.997335 
2.5558203e+3, 1.4975849e+2, -918556.1, -1455379.5, 1559.0155, -0.008933484, -0.11563543, -918551.56, 553805.06, 0.0828918, 10.00554, 9.997773 
2.5557232e+3, 1.5975589e+2, -836887.6, -1422596.3, 7262.5186, -0.010137639, -0.0979544, -836797.56, 537583.75, 0.03474112, 10.005407, 9.997381 
2.555625e+3, 1.6975288e+2, -845014.4, -1364141.5, 11357.75, -0.053256363, -0.087986246, -844766.0, 431645.6, 0.0091338465, 10.004495, 9.997547 
2.5555277e+3, 1.7975006e+2, -882238.56, -1326012.6, 24232.498, -0.097095005, -0.08047741, -880919.3, 297520.97, 0.0010294528, 10.003509, 9.997614 
2.555432e+3, 1.8974759e+2, -797501.6, -1157934.1, 43695.605, -0.01941208, -0.07828566, -792280.0, 288184.5, 0.000011845724, 10.003088, 9.998296 
2.5553364e+3, 1.9974536e+2, -752709.06, -1091851.4, 39000.75, 0.061565652, -0.08428715, -748281.9, 234204.13, 0.0, 10.0027485, 9.998241 
2.5552395e+3, 2.097429e+2, -695388.5, -952591.75, 43310.938, -0.007532681, -0.13207729, -688291.1, 196216.94, 0.0, 10.002209, 9.998783 
2.5551426e+3, 2.1974075e+2, -697408.06, -919604.4, 41247.973, -0.089706846, -0.17667617, -689998.06, 96529.445, 0.0, 10.001594, 9.998635 
2.5550467e+3, 2.2973964e+2, -676933.06, -808402.94, 38082.223, -0.060818598, -0.12366721, -666698.7, 21841.17, 0.0, 10.000845, 9.999085 
2.554951e+3, 2.3973884e+2, -680810.94, -743994.7, 44773.58, -0.016926406, -0.0702236, -657605.75, -67056.4, 0.0, 10.000076, 9.999226 
2.5548553e+3, 2.4973759e+2, -620560.8, -576784.5, 42732.51, -0.010694374, -0.112543516, -550660.6, -58100.36, 0.0, 9.99944, 10.000007 
2.5547594e+3, 2.5973663e+2, -632634.94, -554214.6, 37490.35, -0.012090177, -0.1608911, -539175.7, -144607.25, 0.0, 9.99878, 9.999807 
2.5546637e+3, 2.697364e+2, -635445.75, -458924.78, 35501.297, 0.0004423609, -0.13103274, -452052.44, -155480.92, 0.0, 9.99789, 10.0002165 
2.5545684e+3, 2.797365e+2, -660648.4, -425396.56, 35671.426, 0.019946728, -0.10015322, -420106.63, -221534.34, 0.0, 9.997065, 10.000174 
2.554472e+3, 2.8973645e+2, -547541.44, -253959.63, 16029.457, 0.008295865, -0.103577055, -253087.03, -152513.53, 0.0, 9.996881, 10.000767 
2.5543758e+3, 2.99737e+2, -475922.1, -143448.83, 15797.487, -0.03475514, -0.084232315, -142699.89, -140131.28, 0.0, 9.99659, 10.000996 
2.554281e+3, 3.0973858e+2, -567993.1, -42432.895, 11505.631, 0.11263627, -0.04232272, -42181.13, -42181.13, 0.0, 9.995107, 10.002068 
2.554183e+3, 3.1973794e+2, -662313.75, -40664.01, 29273.336, -0.074170746, -0.25110948, -39288.582, -39288.582, 0.0, 9.99426, 10.002483 
2.5660223e+3, 1.2986234e+2, -1098997.9, -1686085.1, 25406.445, 0.12879369, -0.09447523, -1097900.5, 569441.0, 0.19202296, 10.0065975, 9.997022 
2.565923e+3, 1.3985905e+2, -1007033.9, -1597664.9, 11973.316, 0.011259307, -0.07982713, -1006791.25, 562583.8, 0.13205841, 10.006143, 9.997172 
2.5658253e+3, 1.4985622e+2, -922179.2, -1439058.4, 18046.117, -0.007289307, -0.076063946, -921549.9, 549851.5, 0.07392954, 10.005384, 9.997966 
2.5657278e+3, 1.598536e+2, -929868.1, -1452611.0, 1471.706, 0.008852985, -0.078404635, -929863.94, 443561.47, 0.030393647, 10.004662, 9.997532 
2.5656295e+3, 1.6985047e+2, -859073.94, -1359507.1, 3760.0933, -0.036969844, -0.09254008, -859045.7, 416410.1, 0.007710562, 10.004348, 9.997648 
2.565531e+3, 1.7984751e+2, -805025.56, -1284488.8, 21105.617, -0.08739095, -0.10653822, -804098.25, 373386.47, 0.00080802105, 10.004026, 9.997646 
2.5654346e+3, 1.8984506e+2, -796194.3, -1163430.4, 44378.0, -0.027481789, -0.097952224, -790907.6, 288601.13, 0.000007464854, 10.00313, 9.998235 
2.565338e+3, 1.9984289e+2, -831091.44, -1128752.5, 47137.145, 0.04022235, -0.09244367, -823805.2, 157724.67, 0.0, 10.002213, 9.998244 
2.565241e+3, 2.098406e+2, -752940.7, -972678.2, 58496.883, -0.0120998295, -0.12835549, -738338.44, 145212.27, 0.0, 10.001788, 9.998844 
2.5651437e+3, 2.1983857e+2, -718812.94, -922662.8, 53748.85, -0.0765874, -0.16439286, -705509.25, 80059.74, 0.0, 10.001422, 9.998693 
2.5650468e+3, 2.2983737e+2, -674839.0, -801599.06, 51222.77, -0.062505186, -0.12509735, -656727.94, 30853.668, 0.0, 10.000841, 9.99913 
2.5649506e+3, 2.3983642e+2, -667497.9, -746015.3, 64086.094, -0.033050403, -0.08616084, -631601.56, -42009.85, 0.0, 10.000213, 9.999143 
2.564854e+3, 2.4983492e+2, -621838.56, -604381.25, 65222.76, -0.02081031, -0.13280134, -547305.7, -55700.04, 0.0, 9.999557, 9.999757 
2.5647578e+3, 2.5983372e+2, -624542.5, -558370.7, 56571.742, -0.013262552, -0.18184693, -525920.06, -132303.33, 0.0, 9.998878, 9.999728 
2.5646615e+3, 2.698338e+2, -590448.2, -424621.0, 51894.035, -0.0018808885, -0.12917177, -409720.2, -114103.2, 0.0, 9.998152, 10.000322 
2.5645652e+3, 2.7983415e+2, -611867.4, -401613.7, 61110.113, 0.018035527, -0.07692675, -385142.44, -187527.5, 0.0, 9.997405, 10.00017 
2.5644687e+3, 2.8983378e+2, -563430.8, -274757.06, 51341.813, 0.006459462, -0.10391853, -265897.6, -166277.7, 0.0, 9.996837, 10.000641 
2.5643715e+3, 2.9983407e+2, -532186.06, -175795.47, 25857.357, -0.04042985, -0.098109595, -173929.2, -172311.33, 0.0, 9.996237, 10.000938 
2.5642753e+3, 3.0983615e+2, -566271.75, -49951.62, -22913.357, 0.08099473, -0.00073640415, -48936.766, -48936.766, 0.0, 9.995157, 10.00199 
2.564177e+3, 3.198378e+2, -623510.7, 24114.465, 100741.18, -0.02863443, 0.029266605, 39423.355, 39423.355, 0.0, 9.994334, 10.002891 
2.576028e+3, 1.2996097e+2, -1126112.1, -1772253.8, 9968.317, 0.085273586, -0.078312315, -1125958.4, 540417.7, 0.17317559, 10.006537, 9.996455 
2.5759286e+3, 1.3995814e+2, -1023843.0, -1650447.3, -5117.608, -0.031433426, 0.034666877, -1023801.2, 544606.1, 0.1182856, 10.006105, 9.99683 
2.5758302e+3, 1.499547e+2, -923449.3, -1452821.4, -7661.5186, -0.013889355, -0.006494961, -923338.5, 547101.2, 0.06544492, 10.005381, 9.997867 
2.5757325e+3, 1.599514e+2, -924957.4, -1448854.9, -16055.505, 0.0393595, -0.071698084, -924465.8, 448004.13, 0.026348412, 10.004667, 9.997559 
2.5756338e+3, 1.6994815e+2, -847804.6, -1337043.1, -3315.752, 0.021896198, -0.10977616, -847782.2, 426717.8, 0.0064311693, 10.004341, 9.997808 
2.5755355e+3, 1.7994519e+2, -801909.56, -1274194.3, 53.181736, -0.015730519, -0.13676503, -801909.56, 374617.88, 0.0006226271, 10.004004, 9.997731 
2.575437e+3, 1.8994284e+2, -797074.6, -1166912.5, 8299.342, -0.039895378, -0.11987712, -796888.5, 281661.97, 0.0000046197197, 10.003131, 9.998214 
2.575339e+3, 1.9994082e+2, -826444.0, -1123668.9, 23929.121, -0.052882414, -0.09986083, -824529.9, 156040.61, 0.0, 10.002227, 9.998275 
2.5752422e+3, 2.0993897e+2, -745936.6, -960981.0, 46838.215, -0.03528573, -0.096383005, -736177.75, 146409.64, 0.0, 10.001795, 9.998925 
2.5751454e+3, 2.1993735e+2, -712863.8, -910113.56, 37314.227, -0.022834832, -0.10207368, -706040.94, 78561.42, 0.0, 10.001415, 9.998786 
2.5750473e+3, 2.2993562e+2, -667373.8, -788241.25, 28609.73, -0.052430518, -0.123893596, -660943.9, 25674.854, 0.0, 10.000844, 9.999224 
2.5749496e+3, 2.3993413e+2, -671519.4, -756528.9, 39934.71, -0.07839718, -0.14473754, -655702.3, -67069.26, 0.0, 10.000216, 9.999072 
2.5748527e+3, 2.4993299e+2, -639215.5, -642320.8, 38499.21, -0.050217394, -0.13640279, -602237.6, -111592.77, 0.0, 9.999559, 9.999497 
2.574756e+3, 2.599322e+2, -626940.4, -567502.2, 29216.934, -0.02002081, -0.12331253, -555545.7, -162892.39, 0.0, 9.998889, 9.999663 
2.5746593e+3, 2.6993215e+2, -581110.75, -409810.7, 22048.35, -0.0022333486, -0.08796245, -407018.34, -112364.81, 0.0, 9.998164, 10.0004225 
2.574562e+3, 2.7993226e+2, -610877.0, -405670.38, 35087.203, 0.018019635, -0.067094564, -399836.84, -203184.2, 0.0, 9.997425, 10.000135 
2.574465e+3, 2.8993112e+2, -576174.2, -301766.06, 27531.13, -0.009519218, -0.1543002, -299031.13, -200366.14, 0.0, 9.996833, 10.000461 
2.5743672e+3, 2.9993075e+2, -551046.1, -212291.7, -7151.1646, -0.06400448, -0.19894819, -212140.8, -211470.8, 0.0, 9.996219, 10.0007 
2.5742704e+3, 3.0993485e+2, -584932.75, -93820.01, -66944.22, 0.1296456, 0.12994494, -84858.28, -84858.28, 0.0, 9.995172, 10.001686 
2.5741708e+3, 3.1993362e+2, -663107.1, -60614.08, 63053.42, -0.026094135, -0.09415171, -54086.004, -54086.004, 0.0, 9.994331, 10.002317 
2.5860333e+3, 1.3005985e+2, -1084278.4, -1707938.3, 6829.517, 0.026247455, -0.044708617, -1084203.6, 581204.75, 0.15530346, 10.006573, 9.996883 
2.585934e+3, 1.400569e+2, -1037239.2, -1649544.8, 31017.928, -0.010024145, 0.02046499, -1035671.9, 531768.0, 0.10527715, 10.005889, 9.996941 
2.5858352e+3, 1.5005347e+2, -949664.94, -1492534.1, 29240.645, -0.002343551, -0.0048854845, -948094.5, 521378.25, 0.05750208, 10.005271, 9.997637 
2.5857365e+3, 1.6005015e+2, -919630.06, -1447944.5, 19309.238, 0.033688985, -0.04970807, -918925.25, 452578.34, 0.022629658, 10.004703, 9.997545 
2.5856376e+3, 1.7004704e+2, -861436.1, -1321602.8, 38470.055, 0.027522774, -0.08723672, -858242.2, 415289.88, 0.0052977023, 10.004154, 9.998002 
2.585539e+3, 1.800442e+2, -850799.8, -1286673.6, 37474.992, 0.0027856112, -0.11766933, -847601.3, 327956.63, 0.00047042564, 10.003625, 9.997826 
2.5854397e+3, 1.9004177e+2, -792354.56, -1165043.3, 39869.332, -0.03234172, -0.11065903, -788137.1, 289444.53, 0.0000028007903, 10.003172, 9.998204 
2.5853407e+3, 2.0003961e+2, -761132.06, -1090720.4, 54405.24, -0.057986204, -0.09923576, -752383.56, 227219.02, 0.0, 10.002675, 9.998282 
2.5852433e+3, 2.1003784e+2, -747819.2, -960933.3, 73802.73, -0.033108074, -0.09006298, -724756.6, 156862.6, 0.0, 10.001784, 9.998927 
2.585146e+3, 2.2003628e+2, -783858.25, -937697.9, 61593.605, -0.009768916, -0.08890998, -762236.56, 21397.105, 0.0, 10.000907, 9.998837 
2.5850475e+3, 2.3003449e+2, -712858.75, -800070.94, 54309.164, -0.049169805, -0.12385162, -686815.94, -1165.7523, 0.0, 10.000497, 9.999306 
2.584949e+3, 2.4003291e+2, -685897.56, -762240.1, 62840.965, -0.08650191, -0.1571629, -650543.1, -62878.39, 0.0, 10.000118, 9.999076 
2.5848517e+3, 2.500319e+2, -653966.8, -657379.5, 69783.54, -0.058734633, -0.12950599, -585868.75, -96193.086, 0.0, 9.999498, 9.99942 
2.5847545e+3, 2.600312e+2, -641633.6, -580174.8, 69035.41, -0.02491088, -0.09782069, -535338.5, -143655.0, 0.0, 9.99882, 9.999605 
2.5846568e+3, 2.7003083e+2, -586551.25, -419376.2, 50166.297, -0.008384992, -0.08870872, -405477.66, -111791.05, 0.0, 9.998165, 10.000353 
2.584559e+3, 2.800306e+2, -606137.1, -405644.97, 52624.066, 0.012808927, -0.09242186, -392671.94, -196983.64, 0.0, 9.997474, 10.000109 
2.584461e+3, 2.9002973e+2, -600741.8, -313234.78, 55765.117, -0.01887238, -0.1541462, -302797.44, -205099.23, 0.0, 9.996669, 10.000459 
2.5843626e+3, 3.000294e+2, -604604.06, -256935.63, 34402.04, -0.08004576, -0.18857257, -253564.2, -253564.2, 0.0, 9.9959345, 10.000529 
2.5842658e+3, 3.1003258e+2, -485897.44, -80591.414, -21701.03, 0.16592911, 0.07957835, -79432.805, -79432.805, 0.0, 9.996009, 10.001369 
2.584165e+3, 3.2002965e+2, -584549.1, -99604.44, 45802.31, -0.05248019, -0.28242385, -95316.39, -95316.39, 0.0, 9.995214, 10.001617 
2.596039e+3, 1.3015912e+2, -1022367.9, -1571421.4, -15328.814, -0.05109363, 0.00036453851, -1021940.25, 642497.25, 0.13852525, 10.006448, 9.997979 
2.5959402e+3, 1.4015555e+2, -1012129.06, -1599501.0, 4047.355, 0.05108754, -0.086467385, -1012101.2, 554370.06, 0.0931265, 10.005847, 9.997304 
2.59584e+3, 1.5015253e+2, -969021.94, -1543961.3, 6179.19, 0.018994868, -0.05299171, -968955.5, 499545.4, 0.050156076, 10.005264, 9.997291 
2.5957403e+3, 1.6014978e+2, -922324.06, -1457262.8, 214.70628, -0.004594448, -0.015556831, -922324.0, 448203.9, 0.019256802, 10.004698, 9.997487 
2.595641e+3, 1.70147e+2, -847373.1, -1293507.8, 18842.611, -0.0112011675, -0.032636892, -846578.7, 425974.84, 0.0043097576, 10.00415, 9.9982 
2.5955418e+3, 1.801444e+2, -846862.3, -1277585.0, 19148.148, -0.022210427, -0.056731828, -846012.75, 328564.78, 0.00034830783, 10.003615, 9.997895 
2.5954425e+3, 1.9014168e+2, -796280.56, -1171909.5, 24202.107, -0.0073979977, -0.07482666, -794727.6, 281875.88, 0.0000016193491, 10.00316, 9.998165 
2.595344e+3, 2.0013921e+2, -766987.44, -1099249.9, 29790.918, 0.008272649, -0.09393907, -764337.5, 214289.89, 0.0, 10.002654, 9.998237 
2.595245e+3, 2.1013711e+2, -753507.75, -973531.94, 38803.223, -0.011671399, -0.1088916, -746865.0, 133781.75, 0.0, 10.001782, 9.998845 
2.5951463e+3, 2.2013535e+2, -784660.7, -940797.44, 39222.55, -0.036840368, -0.12218135, -775361.56, 7301.568, 0.0, 10.000908, 9.998819 
2.5950477e+3, 2.3013392e+2, -709480.1, -794783.2, 42557.695, -0.05237757, -0.1221131, -691879.56, -7203.375, 0.0, 10.0005, 9.999343 
2.5949493e+3, 2.4013273e+2, -680132.2, -752991.56, 43989.01, -0.062302545, -0.12218819, -659446.56, -72759.28, 0.0, 10.000124, 9.99914 
2.594851e+3, 2.501316e+2, -646757.25, -644656.2, 43263.008, -0.047102265, -0.113896094, -602430.94, -113732.34, 0.0, 9.999502, 9.99951 
2.5947526e+3, 2.6013067e+2, -647427.3, -594739.06, 42980.887, -0.032370955, -0.110703975, -570671.2, -179963.03, 0.0, 9.998826, 9.999506 
2.5946543e+3, 2.701297e+2, -606908.56, -462080.75, 23505.232, -0.025166979, -0.13717616, -458361.4, -165643.98, 0.0, 9.998162, 10.000063 
2.5945556e+3, 2.8012913e+2, -607059.7, -409808.16, 23232.232, -0.008741668, -0.15468676, -407108.8, -212385.8, 0.0, 9.997478, 10.000081 
2.5944573e+3, 2.901297e+2, -587320.8, -283984.38, 22337.162, -0.015844475, -0.086711526, -282348.3, -185630.1, 0.0, 9.996655, 10.00067 
2.594358e+3, 3.001302e+2, -612825.6, -271082.1, 22957.615, -0.07050051, -0.04660296, -269546.75, -269546.75, 0.0, 9.995916, 10.000444 
2.5942612e+3, 3.1012863e+2, -508337.97, -141593.58, -10635.97, 0.13705853, -0.22285302, -141285.38, -141285.38, 0.0, 9.996064, 10.000928 
2.5941598e+3, 3.2012993e+2, -564215.0, -73556.71, -61115.73, -0.050402455, -0.12507439, -66058.8, -66058.8, 0.0, 9.995275, 10.001774 
2.6060438e+3, 1.3025837e+2, -1103598.5, -1628983.3, 22769.297, -0.074200355, -0.03342666, -1102613.6, 560851.2, 0.12288748, 10.005787, 9.997836 
2.6059455e+3, 1.4025542e+2, -1026645.25, -1597445.6, -12214.872, 0.07808575, -0.05089765, -1026383.94, 539109.5, 0.08188351, 10.005632, 9.997421 
2.605845e+3, 1.502524e+2, -953626.25, -1499375.5, 11844.202, 0.022248141, -0.044933915, -953369.4, 514153.03, 0.043440543, 10.005193, 9.997626 
2.6057443e+3, 1.6024962e+2, -911975.25, -1437983.5, 33013.473, -0.027512684, -0.03702903, -909911.4, 459637.72, 0.016241143, 10.0047035, 9.997614 
2.6056445e+3, 1.7024697e+2, -870444.2, -1311744.9, 38816.383, -0.022051072, -0.03733594, -867055.94, 404518.22, 0.0034642855, 10.0040245, 9.998133 
2.6055446e+3, 1.8024454e+2, -879686.2, -1281911.4, 28042.693, -0.018112171, -0.042010408, -877740.5, 295856.78, 0.00025282687, 10.003346, 9.9979925 
2.605445e+3, 1.9024205e+2, -836808.6, -1165008.3, 49444.59, -0.0070640305, -0.056946807, -829521.44, 246099.38, 0.00000086705097, 10.002776, 9.998394 
2.6053458e+3, 2.0023973e+2, -824419.0, -1116691.3, 65033.395, 0.0059274607, -0.07648817, -810601.6, 167041.0, 0.0, 10.002224, 9.998321 
2.605246e+3, 2.1023752e+2, -776544.1, -990650.6, 71312.66, -0.009235346, -0.0993887, -754966.56, 124696.77, 0.0, 10.0016575, 9.998784 
2.6051468e+3, 2.2023562e+2, -760662.5, -933387.94, 75391.32, -0.029785933, -0.11941227, -732385.06, 49296.19, 0.0, 10.001096, 9.998776 
2.6050475e+3, 2.3023418e+2, -708588.6, -797798.75, 80182.164, -0.045382876, -0.11630806, -661439.7, 22254.86, 0.0, 10.000525, 9.999308 
2.604949e+3, 2.40233e+2, -701136.94, -753243.56, 75207.86, -0.052216236, -0.11185081, -647597.56, -61892.203, 0.0, 9.999946, 9.99922 
2.6048502e+3, 2.5023198e+2, -651329.06, -628484.06, 75870.695, -0.033740394, -0.10642379, -563180.8, -75465.81, 0.0, 9.999399, 9.999666 
2.6047513e+3, 2.6023108e+2, -650916.1, -599612.5, 78018.48, -0.018651204, -0.109057605, -543136.94, -153413.25, 0.0, 9.998822, 9.999472 
2.6046517e+3, 2.7022976e+2, -624398.94, -493183.1, 62321.297, -0.03193669, -0.15034372, -468301.56, -176564.95, 0.0, 9.998147, 9.999853 
2.6045525e+3, 2.802289e+2, -612050.06, -419763.56, 66171.78, -0.031018026, -0.17682755, -399192.5, -205447.19, 0.0, 9.997484, 10.000006 
2.6044536e+3, 2.902299e+2, -514007.63, -242137.28, 53592.434, -0.008099914, -0.07000506, -231954.28, -136217.83, 0.0, 9.99714, 10.000719 
2.6043543e+3, 3.002307e+2, -503194.53, -214479.53, 46447.844, -0.031318612, -0.0010964476, -207191.1, -207191.1, 0.0, 9.996663, 10.000467 
2.604256e+3, 3.1022808e+2, -610785.0, -190777.42, 42912.99, 0.06955127, -0.28044096, -186437.77, -186437.77, 0.0, 9.995372, 10.000917 
2.6041546e+3, 3.202316e+2, -588169.75, -42115.54, -14963.1875, -0.004439139, 0.037950993, -41705.816, -41705.816, 0.0, 9.994935, 10.002148 
2.6160493e+3, 1.3035782e+2, -1142723.0, -1755389.3, 22337.506, -0.065262094, -0.115819536, -1141909.6, 520579.47, 0.108396664, 10.005872, 9.996892 
2.6159507e+3, 1.4035635e+2, -1032719.06, -1607723.5, -14721.236, 0.07102503, 0.08437194, -1032342.44, 532164.7, 0.07155845, 10.005557, 9.997388 
2.6158494e+3, 1.5035303e+2, -905920.06, -1395608.0, -778.62726, 0.0073159244, 0.0018418938, -905918.8, 560618.4, 0.037361763, 10.005138, 9.998388 
2.6157483e+3, 1.6034976e+2, -902116.56, -1412742.6, 11877.671, -0.040409014, -0.09970639, -901840.44, 466726.13, 0.013581052, 10.004667, 9.9978075 
2.615648e+3, 1.7034706e+2, -894740.7, -1358127.1, 14258.843, -0.012210481, -0.08755972, -894302.3, 376290.75, 0.0027544033, 10.003998, 9.997829 
2.6155478e+3, 1.8034472e+2, -876016.75, -1269066.4, 7532.0903, 0.003990794, -0.06438557, -875872.44, 296744.03, 0.00018050935, 10.003318, 9.998097 
2.6154473e+3, 1.9034283e+2, -806614.0, -1101856.9, 30841.096, -0.030914083, -0.054118037, -803426.75, 271206.9, 0.00000042407203, 10.0027685, 9.998835 
2.615347e+3, 2.0034112e+2, -813866.44, -1094830.1, 45823.926, -0.0568289, -0.049586777, -806581.6, 170067.61, 0.0, 10.002218, 9.998477 
2.615247e+3, 2.10339e+2, -782347.44, -1003878.56, 51068.41, -0.023441846, -0.06274049, -771141.75, 107527.97, 0.0, 10.0016575, 9.998695 
2.6151478e+3, 2.2033697e+2, -768224.0, -948864.44, 55749.14, 0.0031233681, -0.083105214, -752404.2, 28284.814, 0.0, 10.001089, 9.998676 
2.615048e+3, 2.3033515e+2, -716151.6, -815391.0, 59171.594, -0.031628788, -0.1085768, -688548.3, -5842.267, 0.0, 10.000528, 9.999188 
2.6149482e+3, 2.4033366e+2, -695766.0, -744813.7, 53642.67, -0.059841067, -0.12864746, -661307.2, -76587.53, 0.0, 9.999951, 9.999279 
2.6148492e+3, 2.5033298e+2, -636878.7, -599462.1, 53780.47, -0.019862251, -0.106723756, -561228.9, -74503.37, 0.0, 9.999398, 9.999868 
2.6147497e+3, 2.603324e+2, -648281.4, -597520.1, 53378.563, 0.011487537, -0.09016883, -563795.4, -175064.9, 0.0, 9.998831, 9.999484 
2.6146495e+3, 2.7033108e+2, -634743.6, -516091.78, 34492.1, -0.027274285, -0.12264046, -506793.6, -216049.64, 0.0, 9.998147, 9.9997 
2.6145494e+3, 2.8033e+2, -623425.56, -445442.53, 47898.734, -0.051363807, -0.15238926, -433370.8, -240615.77, 0.0, 9.997488, 9.999831 
2.6144505e+3, 2.9033005e+2, -524467.25, -271440.03, 40244.598, -0.0032126727, -0.12105319, -265193.25, -170437.73, 0.0, 9.997167, 10.000507 
2.614351e+3, 3.0033058e+2, -486606.88, -194409.73, 8031.0313, 0.0059412466, -0.07204981, -194189.17, -194189.17, 0.0, 9.996718, 10.000583 
2.61425e+3, 3.103319e+2, -586824.94, -128313.3, -16568.357, 0.010297905, 0.01104299, -127715.375, -127715.375, 0.0, 9.995311, 10.00138 
2.6141495e+3, 3.2033157e+2, -600254.25, -78418.49, 24993.945, 0.0032128526, -0.09023786, -77224.11, -77224.11, 0.0, 9.994953, 10.001905 
2.6260555e+3, 1.3045971e+2, -1014669.25, -1699052.8, 64951.887, -0.056918133, -0.09085297, -1008559.44, 652929.4, 0.09504184, 10.006808, 9.996835 
2.6259553e+3, 1.4045729e+2, -1079703.8, -1638475.4, 74792.72, 0.03940872, 0.022965275, -1069865.9, 493649.97, 0.062131066, 10.00519, 9.997355 
2.6258534e+3, 1.5045431e+2, -980679.9, -1434197.9, 69296.016, -0.012568683, -0.020463556, -970328.0, 495215.66, 0.03189903, 10.004602, 9.998364 
2.625752e+3, 1.6045143e+2, -971470.44, -1440314.1, 41883.297, -0.040583104, -0.0811196, -967758.3, 399811.84, 0.011259314, 10.004157, 9.99786 
2.6256514e+3, 1.7044865e+2, -945423.7, -1369541.6, 58556.152, -0.0068959086, -0.086124934, -937487.56, 332109.63, 0.0021682298, 10.003601, 9.997938 
2.6255506e+3, 1.8044618e+2, -906490.0, -1266552.4, 72243.79, 0.01260346, -0.08287956, -892535.7, 279085.5, 0.00012753345, 10.003044, 9.998242 
2.6254496e+3, 1.9044444e+2, -837254.7, -1097788.5, 81698.766, -0.01842624, -0.07307803, -813755.06, 259881.72, 0.00000019125741, 10.002485, 9.998995 
2.6253486e+3, 2.0044287e+2, -847966.2, -1106089.9, 80576.484, -0.04163783, -0.06466576, -824878.3, 150772.48, 0.0, 10.001968, 9.998516 
2.6252484e+3, 2.1044074e+2, -792514.6, -1016581.0, 87143.41, -0.016968062, -0.072091356, -762613.3, 115058.61, 0.0, 10.001627, 9.99862 
2.6251483e+3, 2.2043873e+2, -744977.9, -937014.1, 90226.87, 0.003938914, -0.08511506, -709237.25, 70454.484, 0.0, 10.001255, 9.998673 
2.625048e+3, 2.30437e+2, -700263.7, -803589.56, 99964.52, -0.028461443, -0.10200801, -639401.25, 42306.625, 0.0, 10.000627, 9.999219 
2.6249477e+3, 2.4043556e+2, -697076.0, -748156.5, 100685.07, -0.053261623, -0.11705158, -618742.3, -35021.324, 0.0, 9.99996, 9.9992485 
2.624848e+3, 2.5043464e+2, -656250.6, -617519.3, 82659.21, -0.017361864, -0.110882185, -551987.5, -66258.07, 0.0, 9.999308, 9.999785 
2.624748e+3, 2.6043388e+2, -671749.94, -612990.75, 67050.51, 0.01135614, -0.10422665, -569165.6, -181429.31, 0.0, 9.998694, 9.99944 
2.6246473e+3, 2.7043286e+2, -600873.75, -501687.75, 56071.664, -0.033188917, -0.10272928, -476424.25, -186677.28, 0.0, 9.998394, 9.999677 
2.6245466e+3, 2.80432e+2, -552733.8, -416565.88, 76159.25, -0.054443073, -0.10989539, -382494.78, -190738.55, 0.0, 9.998002, 9.999778 
2.6244473e+3, 2.9043123e+2, -539912.8, -288539.34, 76339.49, 0.02265631, -0.14487329, -267172.1, -173408.53, 0.0, 9.997108, 10.000416 
2.6243472e+3, 3.0043128e+2, -558380.44, -233555.52, 39396.242, 0.03227866, -0.13821769, -228845.64, -228845.64, 0.0, 9.99625, 10.000537 
2.6242444e+3, 3.104342e+2, -490073.2, -78195.664, -22463.469, -0.06645308, 0.10551854, -76974.15, -76974.15, 0.0, 9.995965, 10.001406 
2.6241443e+3, 3.2043165e+2, -545294.06, -91602.56, 77290.92, 0.013963283, -0.21487395, -78796.734, -78796.734, 0.0, 9.995514, 10.001537 
2.636062e+3, 1.3056333e+2, -994309.1, -1635791.9, -2409.6587, -0.057585202, -0.0019293409, -994300.06, 666170.6, 0.082795225, 10.006646, 9.9973545 
2.635959e+3, 1.4055844e+2, -1085690.3, -1654717.8, 33214.89, -0.014598238, -0.17156973, -1083758.0, 478760.97, 0.05356598, 10.005161, 9.997255 
2.6358575e+3, 1.5055627e+2, -1019225.94, -1522852.3, 52359.12, -0.03767523, -0.08627222, -1013840.0, 450702.1, 0.027019756, 10.004602, 9.997754 
2.6357558e+3, 1.6055438e+2, -975876.6, -1449169.3, 23961.121, -0.034380235, -0.0010426841, -974666.6, 391895.25, 0.009250823, 10.004142, 9.997809 
2.6356545e+3, 1.7055148e+2, -917302.5, -1312063.0, 38127.74, -0.007919129, -0.047507018, -913653.7, 354935.03, 0.0016912026, 10.003599, 9.998337 
2.635553e+3, 1.8054877e+2, -896712.56, -1249128.5, 51098.87, 0.008063073, -0.100960046, -889452.94, 281160.47, 0.00008980601, 10.003051, 9.998362 
2.635452e+3, 1.9054678e+2, -844343.3, -1115568.6, 60123.723, 0.024168465, -0.10957178, -831612.94, 241018.27, 0.00000008629741, 10.002492, 9.998873 
2.6353508e+3, 2.0054495e+2, -855225.8, -1121059.1, 64520.953, 0.03540285, -0.115092754, -840393.44, 134254.36, 0.0, 10.001963, 9.99842 
2.6352498e+3, 2.1054274e+2, -796706.56, -1026783.8, 75105.664, 0.004506947, -0.1235449, -774359.8, 102310.516, 0.0, 10.001629, 9.998551 
2.6351488e+3, 2.2054079e+2, -740555.06, -928793.25, 72188.234, -0.02839335, -0.1271069, -716059.06, 62631.113, 0.0, 10.001253, 9.998734 
2.635048e+3, 2.3053968e+2, -689906.56, -782832.44, 75473.79, -0.035923854, -0.09565952, -647740.5, 32959.953, 0.0, 10.000625, 9.999364 
2.6349473e+3, 2.4053866e+2, -707359.8, -770890.4, 75726.51, -0.038131658, -0.07607178, -657006.06, -74296.18, 0.0, 9.999961, 9.999095 
2.6348466e+3, 2.5053686e+2, -684143.06, -676492.75, 56364.88, -0.02877779, -0.120603986, -623823.4, -139095.8, 0.0, 9.999308, 9.999383 
2.6347458e+3, 2.6053536e+2, -678530.8, -630083.4, 49049.477, -0.026656477, -0.15389356, -599602.06, -212859.63, 0.0, 9.998701, 9.999323 
2.6346448e+3, 2.7053502e+2, -591287.8, -486021.1, 44523.992, -0.05369471, -0.09060403, -469714.94, -180968.67, 0.0, 9.998406, 9.999781 
2.634544e+3, 2.805348e+2, -542179.4, -403726.06, 50137.453, -0.04689941, -0.045498483, -387477.03, -196728.1, 0.0, 9.998035, 9.999853 
2.6344445e+3, 2.9053357e+2, -537342.94, -281855.25, 37813.543, 0.07708196, -0.13418896, -276376.16, -183616.34, 0.0, 9.997097, 10.000469 
2.634343e+3, 3.0053285e+2, -584300.4, -275473.06, 19922.156, 0.067305654, -0.19844952, -274193.22, -274193.22, 0.0, 9.996194, 10.000278 
2.6342383e+3, 3.1053406e+2, -521151.66, -157965.7, -28498.344, -0.22274825, -0.07994322, -155743.11, -155743.11, 0.0, 9.996021, 10.000835 
2.6341403e+3, 3.2053387e+2, -545248.5, -100815.6, 91396.664, 0.09962238, -0.11298968, -82754.086, -82754.086, 0.0, 9.995569, 10.00144 
2.646067e+3, 1.306658e+2, -1088982.6, -1655251.6, -33163.066, -0.07042581, -0.028375773, -1087047.0, 572419.2, 0.07160847, 10.005744, 9.997643 
2.6459637e+3, 1.4066122e+2, -1078530.4, -1640525.4, 6733.3457, -0.014940396, -0.1856464, -1078449.8, 483060.38, 0.045824863, 10.005134, 9.997365 
2.6458615e+3, 1.5065905e+2, -1027242.94, -1530488.9, 62940.992, -0.014195549, -0.09855514, -1019490.3, 444042.9, 0.02269247, 10.004555, 9.997719 
2.64576e+3, 1.6065718e+2, -986332.3, -1445303.3, 58160.586, 0.007912362, -0.011946533, -979076.9, 386476.2, 0.007530258, 10.004033, 9.997884 
2.6456577e+3, 1.7065433e+2, -911732.4, -1291847.0, 61885.203, 0.0034905456, -0.06544846, -901910.8, 365668.06, 0.0013085427, 10.003569, 9.9984865 
2.6455554e+3, 1.8065162e+2, -894644.7, -1256463.1, 58063.465, -0.008552878, -0.12507302, -885555.2, 284047.84, 0.000063545034, 10.003109, 9.998279 
2.6454538e+3, 1.9064945e+2, -843228.5, -1145316.8, 54551.684, 0.016426826, -0.12962884, -833679.3, 237944.48, 0.000000036839044, 10.002639, 9.998593 
2.6453522e+3, 2.0064747e+2, -829592.7, -1109833.3, 52565.336, 0.03884468, -0.12949322, -820057.3, 153585.53, 0.0, 10.0021515, 9.998401 
2.645251e+3, 2.1064548e+2, -797274.3, -1007644.06, 77060.92, -0.0028193272, -0.12873764, -772066.5, 103596.48, 0.0, 10.001549, 9.998718 
2.6451492e+3, 2.2064373e+2, -778902.6, -937680.3, 82097.234, -0.04214733, -0.12570103, -744087.5, 33593.043, 0.0, 10.000956, 9.998814 
2.6450482e+3, 2.3064248e+2, -712365.6, -793566.8, 75058.914, -0.031175017, -0.10730582, -667630.1, 12061.792, 0.0, 10.000475, 9.99936 
2.644947e+3, 2.4064134e+2, -704789.9, -779584.2, 71391.836, -0.017535249, -0.09510223, -661593.3, -79890.75, 0.0, 10.000028, 9.999 
2.6448455e+3, 2.5063962e+2, -632408.5, -671495.0, 68531.89, -0.035739936, -0.11876116, -580687.75, -96966.875, 0.0, 9.999754, 9.999199 
2.6447442e+3, 2.6063815e+2, -579351.3, -577588.75, 72804.555, -0.05377585, -0.13643831, -505660.16, -119923.984, 0.0, 9.999369, 9.999359 
2.644643e+3, 2.706378e+2, -565415.0, -451330.5, 74199.875, -0.048320748, -0.088383384, -414780.88, -127041.734, 0.0, 9.998493, 9.999974 
2.644542e+3, 2.8063756e+2, -600469.6, -428684.66, 80108.7, -0.014524218, -0.056822978, -397125.34, -207384.34, 0.0, 9.997625, 9.999877 
2.6444408e+3, 2.9063636e+2, -536717.3, -293936.22, 53379.086, 0.05979407, -0.13462946, -282718.38, -190966.55, 0.0, 9.997161, 10.000353 
2.6443386e+3, 3.0063546e+2, -513558.72, -261620.83, 39206.54, 0.016113695, -0.19855145, -255660.53, -255660.53, 0.0, 9.996774, 10.000092 
2.6442346e+3, 3.1063572e+2, -451616.2, -157752.03, 22338.717, -0.16494371, -0.15145697, -156063.6, -156063.6, 0.0, 9.996645, 10.000535 
2.6441354e+3, 3.206365e+2, -541267.94, -79922.05, 81607.82, 0.11989822, -0.063515835, -65911.84, -65911.84, 0.0, 9.995531, 10.001594 
2.656072e+3, 1.3076769e+2, -1084638.3, -1640576.8, -53856.535, -0.096779674, -0.121239394, -1079468.9, 578999.3, 0.061420135, 10.005663, 9.9977865 
2.655969e+3, 1.4076534e+2, -1058326.4, -1603212.8, -12658.623, 0.017301198, -0.076193, -1058032.5, 502458.8, 0.038865063, 10.005126, 9.997625 
2.655866e+3, 1.507626e+2, -999806.06, -1481999.4, 41819.867, 0.040976364, -0.07788365, -996205.94, 466311.8, 0.01888366, 10.004574, 9.998046 
2.6557642e+3, 1.6075999e+2, -975043.5, -1428171.9, 37760.7, 0.07112356, -0.09137956, -971918.4, 392624.34, 0.006071538, 10.00405, 9.997996 
2.6556608e+3, 1.7075732e+2, -916767.06, -1302320.8, 43291.67, 0.020874893, -0.12385537, -911965.9, 354600.75, 0.0010056447, 10.003562, 9.99842 
2.6555577e+3, 1.8075484e+2, -918385.7, -1300284.8, 40001.746, -0.03906407, -0.1503835, -914240.7, 254348.73, 0.000045459063, 10.00308, 9.997994 
2.6554555e+3, 1.9075243e+2, -874562.9, -1209733.9, 37654.957, -0.036209814, -0.1363307, -870384.6, 200229.89, 0.000000014947995, 10.002631, 9.9981575 
2.6553532e+3, 2.0075034e+2, -827331.5, -1106099.1, 33499.348, -0.025707332, -0.11763182, -823362.44, 149274.05, 0.0, 10.002151, 9.998429 
2.6552513e+3, 2.1074888e+2, -771671.56, -956386.25, 54628.195, -0.03604898, -0.09205299, -756725.06, 117925.22, 0.0, 10.001552, 9.999071 
2.6551497e+3, 2.2074747e+2, -776121.2, -930298.0, 63238.13, -0.044131663, -0.082808375, -753501.6, 23161.754, 0.0, 10.000943, 9.998873 
2.655048e+3, 2.3074538e+2, -723706.94, -818261.2, 58010.113, -0.016029315, -0.13837627, -696148.9, -17465.969, 0.0, 10.000477, 9.999192 
2.6549467e+3, 2.4074359e+2, -706128.44, -786246.44, 58038.32, 0.0030225427, -0.17643052, -675666.7, -94966.72, 0.0, 10.000039, 9.998951 
2.6548448e+3, 2.5074285e+2, -627864.94, -666585.7, 57271.68, -0.03996181, -0.102583446, -586769.8, -104060.26, 0.0, 9.999768, 9.9992285 
2.654743e+3, 2.6074222e+2, -561965.7, -548326.3, 46964.36, -0.07388667, -0.04479876, -507689.06, -122971.71, 0.0, 9.9993925, 9.999551 
2.654641e+3, 2.707411e+2, -545357.94, -409954.56, 36922.957, -0.012631996, -0.101554245, -400540.6, -113814.33, 0.0, 9.998489, 10.000263 
2.6545396e+3, 2.8074017e+2, -606818.75, -437719.56, 56055.633, 0.04087076, -0.1560525, -420825.22, -232091.7, 0.0, 9.997602, 9.999829 
2.6544362e+3, 2.907396e+2, -560597.25, -345302.06, 37491.18, -0.054228377, -0.14391989, -338960.22, -248220.39, 0.0, 9.997163, 10.000002 
2.654333e+3, 3.0073938e+2, -511528.97, -271402.28, 30499.678, -0.15347096, -0.114712685, -267588.94, -267588.94, 0.0, 9.996827, 10.000001 
2.6542348e+3, 3.1073973e+2, -432903.94, -132836.69, 19014.223, 0.209694, -0.06673104, -131636.63, -131636.63, 0.0, 9.996698, 10.000684 
2.6541287e+3, 3.2073873e+2, -535960.2, -63055.098, -92740.31, -0.044052593, -0.17188181, -45518.33, -45518.33, 0.0, 9.995482, 10.001745 
2.6660773e+3, 1.3087137e+2, -1152447.3, -1686458.3, -1817.47, -0.04282238, -0.12565322, -1152441.0, 505010.9, 0.052172333, 10.00517, 9.997704 
2.665973e+3, 1.4086932e+2, -1039996.5, -1596319.9, 17420.523, -0.026136555, -0.042746186, -1039451.56, 520020.94, 0.0326362, 10.005237, 9.997618 
2.6658702e+3, 1.5086621e+2, -969009.2, -1462994.6, 50348.688, 0.021748101, -0.083417065, -963929.7, 497572.03, 0.0155513715, 10.004765, 9.99808 
2.665768e+3, 1.6086327e+2, -948566.75, -1411281.5, 27681.29, 0.08182045, -0.13290149, -946916.6, 416612.53, 0.0048442557, 10.004217, 9.998028 
2.665664e+3, 1.7086087e+2, -929222.2, -1305940.5, 32658.865, 0.025126314, -0.14038618, -926411.8, 339139.1, 0.00076741684, 10.003472, 9.998434 
2.66556e+3, 1.8085863e+2, -962306.56, -1321271.6, 41814.535, -0.0436308, -0.14126727, -957500.1, 210071.67, 0.000032791508, 10.002784, 9.99799 
2.665457e+3, 1.9085617e+2, -913916.75, -1231404.8, 68079.82, -0.044259, -0.12987813, -899934.06, 169663.61, 0.0000000057994387, 10.00238, 9.998126 
2.6653546e+3, 2.00854e+2, -845809.75, -1112193.9, 80128.305, -0.032815963, -0.11632659, -823564.8, 148055.77, 0.0, 10.002019, 9.998447 
2.6652524e+3, 2.1085246e+2, -752030.6, -941556.1, 80782.28, -0.032605696, -0.100286655, -722271.25, 151363.4, 0.0, 10.00167, 9.999113 
2.6651505e+3, 2.2085102e+2, -726881.25, -909323.2, 70467.88, -0.03088515, -0.09643304, -702833.0, 72814.88, 0.0, 10.0013, 9.998841 
2.6650482e+3, 2.3084894e+2, -679917.7, -808507.0, 68040.43, -0.014427976, -0.14089589, -650599.9, 27068.05, 0.0, 10.000832, 9.999084 
2.6649463e+3, 2.4084717e+2, -670195.0, -759789.2, 70825.58, -0.001704959, -0.17130771, -631188.5, -51503.18, 0.0, 10.000253, 9.999026 
2.6648438e+3, 2.5084653e+2, -686245.7, -672188.56, 79132.74, -0.032723457, -0.10431698, -599772.9, -118079.305, 0.0, 9.999276, 9.999425 
2.6647416e+3, 2.6084602e+2, -696257.6, -603516.8, 78551.21, -0.053954072, -0.05091615, -558670.44, -174970.47, 0.0, 9.998434, 9.999631 
2.664639e+3, 2.708449e+2, -552935.9, -415813.1, 49248.03, -0.0033397132, -0.106040195, -399958.66, -114249.58, 0.0, 9.998453, 10.000237 
2.6645368e+3, 2.8084394e+2, -499259.5, -387111.16, 46401.758, 0.037483856, -0.16034584, -370401.84, -182685.03, 0.0, 9.998354, 9.999811 
2.664433e+3, 2.9084346e+2, -513666.5, -326261.03, 44693.145, -0.07268071, -0.1367861, -316148.16, -226425.67, 0.0, 9.997506, 9.999964 
2.6643294e+3, 3.0084333e+2, -534587.2, -279230.84, 67651.63, -0.16475551, -0.09371216, -262415.22, -262415.22, 0.0, 9.996659, 10.000026 
2.664231e+3, 3.1084374e+2, -483359.8, -145281.4, 58903.336, 0.2511858, -0.043107156, -135312.63, -135312.63, 0.0, 9.99631, 10.000781 
2.6641232e+3, 3.2084253e+2, -432044.22, 7491.093, -138873.86, -0.13896935, -0.1865174, 47692.223, 47692.223, 0.0, 9.996117, 10.00192 
2.676083e+3, 1.3097635e+2, -1165756.1, -1720000.5, 111.44841, 0.052643456, -0.07440917, -1165756.1, 490666.22, 0.043818366, 10.005152, 9.997479 
2.6759768e+3, 1.409734e+2, -1052043.1, -1627905.3, 9092.405, -0.1295501, -0.06010102, -1051899.6, 506552.25, 0.02708379, 10.005233, 9.997404 
2.6758736e+3, 1.5097004e+2, -986948.5, -1496073.6, 32603.63, -0.054546975, -0.10416732, -984869.1, 475614.47, 0.012647761, 10.0047245, 9.997876 
2.675771e+3, 1.6096704e+2, -961901.1, -1424728.8, 5106.0156, 0.05196174, -0.1440243, -961844.8, 400667.1, 0.0038154111, 10.004147, 9.9979725 
2.6756668e+3, 1.7096493e+2, -927529.06, -1301439.4, 5644.2954, 0.018611027, -0.12615249, -927443.9, 337087.97, 0.0005796616, 10.003463, 9.998472 
2.6755625e+3, 1.8096295e+2, -943693.1, -1290282.1, 22834.297, -0.031265028, -0.10815545, -942195.2, 224355.31, 0.000023679033, 10.002812, 9.998192 
2.6754594e+3, 1.9096063e+2, -890090.25, -1187520.4, 55009.906, -0.016390257, -0.112283364, -880242.2, 188331.53, 0.000000001728097, 10.002398, 9.998421 
2.6753566e+3, 2.009584e+2, -849654.3, -1119761.9, 67730.23, 0.005610168, -0.12253688, -833622.3, 136973.42, 0.0, 10.002012, 9.998402 
2.675254e+3, 2.1095622e+2, -770895.4, -982442.56, 68109.82, 0.0019312623, -0.14969073, -750863.56, 121752.88, 0.0, 10.001673, 9.998833 
2.6751512e+3, 2.2095433e+2, -736186.5, -929556.1, 55145.3, -0.010223066, -0.16476692, -721565.6, 53068.773, 0.0, 10.001298, 9.998705 
2.6750487e+3, 2.3095316e+2, -683307.6, -816916.0, 50280.438, -0.028719323, -0.11336276, -666500.06, 10147.089, 0.0, 10.000833, 9.999029 
2.674946e+3, 2.4095206e+2, -656704.0, -732244.8, 40312.293, -0.03769821, -0.07802882, -639232.3, -60573.414, 0.0, 10.000249, 9.99922 
2.6748428e+3, 2.5095055e+2, -663463.25, -622725.5, 39378.758, -0.012545104, -0.12928945, -598759.5, -118085.875, 0.0, 9.999263, 9.999773 
2.6747397e+3, 2.6094937e+2, -703577.7, -617387.06, 64909.31, 0.00047469942, -0.16306736, -582569.5, -199884.36, 0.0, 9.998425, 9.999543 
2.6746368e+3, 2.7094916e+2, -580598.06, -475817.88, 51929.35, -0.030140705, -0.09505597, -454442.25, -169754.34, 0.0, 9.998458, 9.9998255 
2.674534e+3, 2.8094894e+2, -492081.38, -382198.7, 24633.236, -0.035023488, -0.04865011, -376929.2, -190238.58, 0.0, 9.998391, 9.99983 
2.6744312e+3, 2.909478e+2, -488078.8, -277297.94, 6078.193, 0.03282243, -0.11526867, -277122.8, -188421.98, 0.0, 9.997519, 10.000298 
2.6743272e+3, 3.0094707e+2, -527632.6, -262013.23, 45110.39, 0.0042036655, -0.15731838, -254561.16, -254561.16, 0.0, 9.996642, 10.000155 
2.6742223e+3, 3.109476e+2, -496414.44, -163659.13, 44418.113, -0.16841853, -0.094819956, -157831.97, -157831.97, 0.0, 9.996265, 10.00068 
2.67412e+3, 3.2094812e+2, -410026.06, 35941.34, -94572.414, 0.011329656, -0.061770428, 55167.613, 55167.613, 0.0, 9.996185, 10.002084 
2.6860875e+3, 1.3108079e+2, -1151558.6, -1690718.9, 11972.974, 0.035241004, -0.061773792, -1151292.9, 504104.97, 0.03631003, 10.005113, 9.997703 
2.6859814e+3, 1.4107719e+2, -1030593.94, -1595840.1, 16016.78, -0.119954534, -0.13179033, -1030140.44, 527292.0, 0.02215345, 10.005268, 9.997606 
2.6858777e+3, 1.5107453e+2, -1043401.6, -1505076.9, 44842.156, -0.05839362, -0.12619232, -1039086.5, 420371.56, 0.010125578, 10.004249, 9.99804 
2.6857743e+3, 1.6107205e+2, -1078677.9, -1479548.9, 45572.2, 0.03751774, -0.120890945, -1073562.4, 287919.2, 0.0029544747, 10.003338, 9.997983 
2.6856697e+3, 1.7106959e+2, -962883.06, -1329517.3, 49168.332, 0.017560545, -0.12761466, -956403.75, 307101.72, 0.00043102045, 10.003273, 9.998367 
2.685565e+3, 1.8106735e+2, -880968.9, -1251158.9, 53928.594, -0.018088825, -0.13076963, -873272.7, 292254.66, 0.000016889995, 10.003211, 9.998264 
2.6854616e+3, 1.9106534e+2, -828131.3, -1136799.9, 73554.22, -0.0043427185, -0.120038815, -811499.8, 256047.2, 0.0000000002885943, 10.00274, 9.998601 
2.6853585e+3, 2.0106332e+2, -819686.5, -1107313.1, 80280.08, 0.014361621, -0.119075894, -798796.56, 170769.95, 0.0, 10.002233, 9.998377 
2.685255e+3, 2.1106088e+2, -775615.94, -1004496.75, 87800.36, 0.0014335335, -0.15616378, -745815.2, 125775.164, 0.0, 10.001732, 9.998649 
2.685152e+3, 2.2105879e+2, -755946.0, -941203.6, 76465.96, -0.0152985165, -0.17694592, -728461.8, 45149.195, 0.0, 10.00118, 9.998678 
2.6850486e+3, 2.3105784e+2, -741641.2, -837491.3, 75292.195, -0.032508057, -0.10809191, -700315.3, -24693.363, 0.0, 10.000405, 9.99909 
2.6849452e+3, 2.4105695e+2, -726707.6, -750325.8, 70130.25, -0.037337206, -0.058179084, -667399.2, -89767.48, 0.0, 9.999707, 9.999352 
2.6848418e+3, 2.5105545e+2, -619620.8, -584178.8, 56679.746, -0.007988951, -0.122932106, -542514.4, -62868.863, 0.0, 9.9994955, 9.999923 
2.6847383e+3, 2.6105422e+2, -589901.4, -562733.75, 81373.6, 0.0075112004, -0.17135727, -493817.97, -112161.05, 0.0, 9.999212, 9.999535 
2.6846346e+3, 2.71054e+2, -569896.8, -483506.16, 92369.66, -0.04269282, -0.09463663, -424730.94, -141070.27, 0.0, 9.998593, 9.999704 
2.6845315e+3, 2.8105378e+2, -555499.94, -413506.53, 69009.766, -0.05187102, -0.038142998, -385493.75, -199829.64, 0.0, 9.997964, 9.999818 
2.6844284e+3, 2.9105264e+2, -479648.13, -265801.3, 24995.047, 0.06433855, -0.10613482, -262918.7, -175244.92, 0.0, 9.997552, 10.000357 
2.6843238e+3, 3.0105188e+2, -446233.8, -207753.48, 56007.883, 0.041488018, -0.16044812, -195254.89, -195254.89, 0.0, 9.997145, 10.000281 
2.6842174e+3, 3.1105217e+2, -415980.63, -107405.13, 74275.46, -0.2920974, -0.13395856, -90457.51, -90457.51, 0.0, 9.996751, 10.000827 
2.684117e+3, 3.2105348e+2, -362238.94, 167.69688, -28389.291, 0.10803307, -0.014887303, 2378.1035, 2378.1035, 0.0, 9.996777, 10.001549 
2.696091e+3, 1.3118498e+2, -1123060.5, -1620176.0, 25366.338, -0.058734506, -0.07556245, -1121769.5, 532605.94, 0.02959169, 10.00504, 9.998226 
2.695987e+3, 1.4118098e+2, -1021839.1, -1541250.0, -5844.1904, -0.033882145, -0.23813488, -1021773.4, 534638.94, 0.017795157, 10.005087, 9.998072 
2.6958817e+3, 1.5117958e+2, -1020250.25, -1449368.5, -1294.5032, -0.01442728, -0.14786965, -1020246.3, 438179.66, 0.0079443315, 10.004202, 9.998448 
2.6957768e+3, 1.6117808e+2, -1069705.4, -1472130.8, 25379.445, 0.028894044, -0.07405705, -1068111.0, 292329.6, 0.0022368429, 10.003379, 9.998016 
2.6956725e+3, 1.7117485e+2, -976859.75, -1361316.1, 49233.094, 0.01852667, -0.14242226, -970655.2, 291817.47, 0.0003130717, 10.00328, 9.998148 
2.695568e+3, 1.8117194e+2, -890170.3, -1263674.4, 43290.934, -0.0064885225, -0.19649066, -885218.3, 279283.2, 0.000011633441, 10.003178, 9.998197 
2.6954636e+3, 1.911703e+2, -827804.2, -1133308.8, 54409.34, -0.00825103, -0.1480658, -818403.3, 248114.16, 0.000000000007316074, 10.002724, 9.998634 
2.69536e+3, 2.0116872e+2, -822981.9, -1112659.5, 61321.555, -0.008718031, -0.10738915, -810535.56, 157997.72, 0.0, 10.002221, 9.998348 
2.6952562e+3, 2.1116641e+2, -782927.9, -1018774.56, 69779.24, -0.03191632, -0.12301733, -763829.1, 106727.805, 0.0, 10.001723, 9.998558 
2.6951525e+3, 2.2116432e+2, -755165.9, -935156.9, 52213.7, -0.049116537, -0.13809547, -741115.94, 31462.39, 0.0, 10.001155, 9.998734 
2.6950485e+3, 2.311629e+2, -732347.5, -817789.1, 45954.97, -0.026426699, -0.12765242, -712323.4, -37730.53, 0.0, 10.000401, 9.9992285 
2.6949444e+3, 2.4116181e+2, -723530.1, -746641.8, 54424.22, -0.008889549, -0.11061839, -679448.44, -102844.53, 0.0, 9.999716, 9.999376 
2.6948404e+3, 2.5116122e+2, -622597.75, -594155.25, 48947.94, -0.024355158, -0.07900194, -557404.5, -78795.25, 0.0, 9.999506, 9.999851 
2.6947364e+3, 2.6116058e+2, -579801.6, -548933.6, 62823.21, -0.041178763, -0.064336985, -499676.3, -119061.375, 0.0, 9.999238, 9.9996195 
2.6946327e+3, 2.711593e+2, -556293.5, -456205.63, 65894.71, -0.03710522, -0.111740306, -423505.94, -140877.89, 0.0, 9.998593, 9.999894 
2.6945293e+3, 2.8115827e+2, -563854.3, -428547.34, 50214.215, -0.017703509, -0.14520851, -411948.47, -227309.98, 0.0, 9.99795, 9.999724 
2.6944247e+3, 2.9115793e+2, -500516.38, -311125.13, 9061.031, -0.0030686841, -0.10788079, -310692.6, -224051.14, 0.0, 9.997554, 10.000049 
2.6943192e+3, 3.0115777e+2, -431395.72, -187148.14, 41095.11, -0.06598865, -0.0860501, -180419.19, -180419.19, 0.0, 9.997182, 10.000408 
2.694216e+3, 3.111575e+2, -377277.4, -40090.12, 59097.14, -0.036572225, -0.15397684, -30032.459, -30032.459, 0.0, 9.996802, 10.0012665 
2.694112e+3, 3.2115817e+2, -463682.28, -232818.19, -32877.215, -0.0155191, -0.07655726, -228227.45, -228227.45, 0.0, 9.996849, 9.999926 
2.706095e+3, 1.31289e+2, -1165522.0, -1602341.5, 17190.371, -0.09993371, -0.12652649, -1164846.5, 488509.47, 0.023617405, 10.004537, 9.998595 
2.7059916e+3, 1.4128648e+2, -1241947.5, -1623488.8, -15177.038, 0.029719697, -0.17160618, -1241344.8, 314033.28, 0.013970949, 10.0034275, 9.998302 
2.7058852e+3, 1.5128458e+2, -1091098.8, -1468681.3, -20220.418, 0.0055902866, -0.1464612, -1090019.0, 367377.7, 0.006073758, 10.003647, 9.998579 
2.7057797e+3, 1.6128276e+2, -988074.6, -1404871.8, -5157.8755, 0.0055415197, -0.12399743, -988010.8, 371404.06, 0.0016441148, 10.003824, 9.9982605 
2.7056748e+3, 1.7128032e+2, -958299.3, -1318811.8, 44577.348, 0.005726942, -0.14150088, -952869.1, 308569.7, 0.00021976365, 10.003266, 9.998444 
2.7055705e+3, 1.8127799e+2, -953119.7, -1282329.4, 61107.508, -0.007095455, -0.15970175, -942143.0, 221318.8, 0.000007542903, 10.0027, 9.998296 
2.7054656e+3, 1.912759e+2, -887952.6, -1165839.4, 69774.984, -0.015779674, -0.15535392, -871416.75, 194065.63, 0.0, 10.002331, 9.998598 
2.7053612e+3, 2.0127405e+2, -855053.2, -1110651.3, 73765.56, -0.019040227, -0.14180252, -835292.2, 132208.61, 0.0, 10.001932, 9.998498 
2.705257e+3, 2.1127245e+2, -822851.9, -1010251.1, 99495.055, -0.030836599, -0.10836029, -779880.75, 89636.875, 0.0, 10.001335, 9.9988 
2.705153e+3, 2.2127087e+2, -798190.25, -947175.1, 99478.2, -0.03753286, -0.09060684, -748404.6, 23129.525, 0.0, 10.000828, 9.998806 
2.7050486e+3, 2.3126891e+2, -690026.5, -802971.75, 84582.78, -0.02041188, -0.12996724, -644796.6, 28756.879, 0.0, 10.000721, 9.999174 
2.704944e+3, 2.4126734e+2, -617816.5, -701895.25, 78856.56, -0.006794407, -0.15292713, -570493.3, 5075.456, 0.0, 10.000475, 9.999314 
2.7048394e+3, 2.5126696e+2, -612498.5, -597682.44, 69357.84, -0.031353984, -0.09196639, -535338.1, -57765.797, 0.0, 9.999618, 9.99977 
2.7047348e+3, 2.612665e+2, -644705.3, -584723.56, 80631.22, -0.04660613, -0.051589616, -528686.3, -149109.66, 0.0, 9.998817, 9.999573 
2.704631e+3, 2.7126506e+2, -567650.5, -465671.3, 67103.62, -0.01492163, -0.11238514, -432382.6, -150790.9, 0.0, 9.99854, 9.99985 
2.704527e+3, 2.8126386e+2, -519351.84, -404590.34, 42344.74, 0.011614764, -0.15864414, -390657.5, -207053.81, 0.0, 9.998253, 9.999738 
2.7044213e+3, 2.912637e+2, -456759.0, -285344.25, 25939.295, -0.051657137, -0.10705805, -281505.0, -195900.25, 0.0, 9.99784, 10.000084 
2.7043155e+3, 3.0126363e+2, -405924.8, -183149.47, 72970.57, -0.12421942, -0.07545933, -161375.89, -161375.89, 0.0, 9.997397, 10.000329 
2.7042142e+3, 3.1126302e+2, -340247.44, -38376.164, 50808.13, 0.124328315, -0.15929104, -30054.045, -30054.045, 0.0, 9.997132, 10.001116 
2.7041072e+3, 3.2126313e+2, -558886.0, -293367.3, -46257.254, -0.1002412, -0.12841068, -285539.38, -285539.38, 0.0, 9.996266, 9.999785 
2.7160987e+3, 1.3139309e+2, -1143488.3, -1558619.6, -32183.865, -0.114473104, -0.1930875, -1141007.9, 511328.66, 0.018367993, 10.004529, 9.9988985 
2.7159947e+3, 1.4139329e+2, -1230328.1, -1612918.0, -22911.281, 0.0722059, 0.011057861, -1228961.0, 325371.9, 0.010660248, 10.003476, 9.998353 
2.7158883e+3, 1.5138963e+2, -1095061.3, -1481774.8, -2242.2122, 0.005867121, -0.13349986, -1095048.3, 361320.38, 0.0044943206, 10.003655, 9.998488 
2.7157828e+3, 1.6138653e+2, -966791.56, -1351809.0, -10387.054, -0.03103659, -0.24430156, -966511.56, 391887.38, 0.0011634299, 10.003779, 9.998649 
2.7156773e+3, 1.713861e+2, -914754.1, -1224375.6, 22405.229, -0.019788204, -0.12496035, -913141.2, 347261.56, 0.00014725362, 10.003245, 9.999104 
2.715572e+3, 1.8138526e+2, -940245.56, -1255072.0, 43288.6, -0.021757074, -0.041729994, -934401.8, 228008.5, 0.0000045032148, 10.002694, 9.998487 
2.7154672e+3, 1.9138204e+2, -895779.06, -1180605.1, 57166.066, -0.02702228, -0.1483161, -884733.8, 179708.45, 0.0, 10.00232, 9.998505 
2.7153626e+3, 2.0137936e+2, -838108.3, -1070533.5, 55449.258, -0.021746669, -0.2191235, -825557.6, 140911.11, 0.0, 10.001906, 9.998788 
2.715258e+3, 2.11379e+2, -788021.7, -938148.5, 76387.32, -0.00011319851, -0.1095558, -755989.2, 112483.516, 0.0, 10.001332, 9.999297 
2.7151537e+3, 2.2137839e+2, -794985.8, -942135.56, 89079.95, 0.008548912, -0.03140231, -753025.0, 17454.121, 0.0, 10.000831, 9.998841 
2.7150488e+3, 2.313758e+2, -705823.4, -838025.25, 81663.42, -0.01712624, -0.114130914, -666861.25, 5643.14, 0.0, 10.000726, 9.998933 
2.714944e+3, 2.4137352e+2, -628449.56, -725127.0, 55805.13, -0.03669444, -0.18632743, -602958.44, -28431.865, 0.0, 10.000475, 9.999157 
2.7148387e+3, 2.5137258e+2, -621590.56, -616231.0, 33994.51, -0.028742636, -0.16940817, -584810.8, -108275.18, 0.0, 9.999613, 9.999646 
2.7147335e+3, 2.6137188e+2, -660325.06, -619174.75, 61731.598, -0.0152714355, -0.13808076, -574679.75, -196136.97, 0.0, 9.998822, 9.999336 
2.7146295e+3, 2.7137122e+2, -589813.8, -513890.66, 55887.727, 0.023668997, -0.0890327, -484291.0, -203739.1, 0.0, 9.998544, 9.999521 
2.7145252e+3, 2.8137058e+2, -505043.75, -380266.16, 26736.598, 0.03763577, -0.062049605, -374778.53, -192218.95, 0.0, 9.998271, 9.999899 
2.7144182e+3, 2.9136986e+2, -423770.06, -220801.94, 8110.2407, -0.0805011, -0.10667802, -220478.39, -135914.03, 0.0, 9.997852, 10.0005245 
2.714312e+3, 3.013693e+2, -430884.3, -239097.88, 59844.043, -0.15471849, -0.13845217, -221956.5, -221956.5, 0.0, 9.997411, 9.999942 
2.714211e+3, 3.1136864e+2, -402149.47, -170788.33, 37341.203, 0.19230054, -0.15006259, -164910.86, -164910.86, 0.0, 9.997143, 10.000204 
2.7141026e+3, 3.2136858e+2, -433612.2, -10863.796, -98139.0, -0.11411351, -0.13857868, 10807.74, 10807.74, 0.0, 9.996176, 10.001766 
2.726103e+3, 1.3149944e+2, -1114102.9, -1558354.6, 8999.652, -0.098914914, -0.1737456, -1113920.6, 537372.56, 0.013843325, 10.004771, 9.998784 
2.725998e+3, 1.4149894e+2, -1169696.9, -1577116.5, 27894.828, 0.061593566, -0.031892356, -1167795.9, 385500.88, 0.007854485, 10.003863, 9.99841 
2.7258915e+3, 1.5149571e+2, -1113320.1, -1475619.4, 75720.4, -0.009199181, -0.14145288, -1098131.4, 357197.06, 0.0031940022, 10.003468, 9.998617 
2.7257854e+3, 1.6149294e+2, -1051334.6, -1384524.3, 60644.426, -0.043014593, -0.22743791, -1040639.9, 316715.78, 0.00078578043, 10.003168, 9.998715 
2.72568e+3, 1.7149225e+2, -960919.56, -1243471.5, 52779.594, -0.016456729, -0.13380319, -951382.5, 307979.75, 0.000092971146, 10.002921, 9.999126 
2.7255744e+3, 1.8149137e+2, -941991.75, -1236271.1, 43381.836, -0.010170039, -0.062519066, -935729.75, 225640.88, 0.0000024128854, 10.002603, 9.998658 
2.725469e+3, 1.9148871e+2, -926010.6, -1168226.8, 72382.28, -0.037235834, -0.13545837, -906028.8, 157368.39, 0.0, 10.002003, 9.998738 
2.7253637e+3, 2.0148638e+2, -887113.7, -1077932.5, 84610.79, -0.042710677, -0.19184695, -855000.75, 110419.44, 0.0, 10.001505, 9.998927 
2.725259e+3, 2.114856e+2, -773700.94, -923454.0, 81170.67, 0.005361453, -0.13128413, -738145.7, 129281.64, 0.0, 10.001403, 9.999362 
2.7251542e+3, 2.2148472e+2, -745350.7, -910575.9, 68751.13, 0.03623169, -0.08322887, -720485.1, 48950.348, 0.0, 10.001144, 9.998904 
2.725049e+3, 2.3148261e+2, -771268.44, -863032.2, 75805.52, -0.0028011007, -0.12599447, -728540.94, -57084.125, 0.0, 10.000254, 9.998986 
2.7249435e+3, 2.4148062e+2, -761341.44, -789096.7, 72848.695, -0.03266854, -0.17147094, -701060.3, -127583.8, 0.0, 9.999569, 9.999151 
2.7248377e+3, 2.5147933e+2, -597561.5, -612162.1, 58907.59, -0.024907572, -0.1819437, -545503.56, -70014.89, 0.0, 9.999818, 9.999573 
2.7247322e+3, 2.614784e+2, -516331.3, -554211.94, 87023.27, -0.010234192, -0.16962586, -446211.06, -68712.71, 0.0, 9.999839, 9.9992895 
2.7246276e+3, 2.7147794e+2, -532994.25, -489145.66, 97490.875, 0.019470096, -0.09279007, -411144.25, -131638.94, 0.0, 9.998953, 9.999491 
2.7245227e+3, 2.8147742e+2, -530331.1, -399499.38, 83967.45, 0.03948151, -0.04814863, -358473.84, -176961.86, 0.0, 9.998133, 9.99983 
2.724416e+3, 2.914763e+2, -416473.56, -227295.73, 29972.533, -0.041180655, -0.118273586, -222660.58, -139140.33, 0.0, 9.997954, 10.000426 
2.7243093e+3, 3.0147555e+2, -400583.13, -233375.19, 53778.695, -0.1250593, -0.16293402, -217572.05, -217572.05, 0.0, 9.997668, 9.999851 
2.7242067e+3, 3.114751e+2, -461717.34, -208559.31, 84901.92, 0.106011, -0.14431033, -182722.5, -182722.5, 0.0, 9.996781, 10.000115 
2.7240983e+3, 3.2147524e+2, -389308.9, 102025.35, -77697.41, -0.102938116, -0.12718599, 114019.29, 114019.29, 0.0, 9.996097, 10.002575 
2.7361074e+3, 1.3160726e+2, -1149497.3, -1618427.0, -31425.145, -0.07320579, -0.10787801, -1147400.6, 502833.13, 0.0100435205, 10.004701, 9.998396 
2.7360004e+3, 1.416039e+2, -1166724.5, -1571678.5, 7238.9644, 0.010228084, -0.2285669, -1166595.1, 385669.97, 0.00554689, 10.003857, 9.998452 
2.7358937e+3, 1.516027e+2, -1095012.4, -1438804.1, 62959.594, -0.035907798, -0.15879846, -1083845.1, 370432.5, 0.0021623927, 10.003465, 9.998875 
2.7357882e+3, 1.6160138e+2, -1069313.5, -1417357.1, 49743.445, -0.039990474, -0.11145968, -1062343.6, 293947.94, 0.00050226634, 10.003144, 9.998504 
2.7356827e+3, 1.7159878e+2, -998777.0, -1316023.4, 45664.023, 0.0072771655, -0.16693628, -992335.0, 265982.88, 0.000054572123, 10.002892, 9.998644 
2.7355766e+3, 1.8159664e+2, -935671.2, -1216690.0, 27490.973, 0.018768089, -0.19361053, -933007.1, 227332.27, 0.0000011019603, 10.002571, 9.99881 
2.7354702e+3, 1.9159591e+2, -891956.8, -1099245.8, 50046.926, -0.04891584, -0.11288021, -880506.2, 181840.58, 0.0, 10.002007, 9.999211 
2.735364e+3, 2.0159487e+2, -888103.75, -1083777.0, 74831.086, -0.08474373, -0.07156622, -862766.94, 101590.03, 0.0, 10.001518, 9.998882 
2.7352598e+3, 2.1159218e+2, -796172.4, -971535.6, 78690.46, -0.013059301, -0.17488335, -766039.5, 100342.36, 0.0, 10.001406, 9.999033 
2.735155e+3, 2.2158997e+2, -741826.25, -898802.56, 45201.45, 0.04146626, -0.24241026, -729740.9, 38661.844, 0.0, 10.0011215, 9.998999 
2.7350488e+3, 2.3158933e+2, -750423.44, -819186.0, 40862.855, 0.021380186, -0.1639352, -731402.06, -60991.477, 0.0, 10.000248, 9.999291 
2.7349427e+3, 2.4158867e+2, -752202.44, -773416.25, 68313.76, -0.002879538, -0.101223916, -693677.06, -121258.8, 0.0, 9.999578, 9.999257 
2.734837e+3, 2.5158727e+2, -596489.7, -615195.0, 70008.01, -0.022062328, -0.12273864, -535212.4, -60781.133, 0.0, 9.999835, 9.999546 
2.734731e+3, 2.6158607e+2, -499418.84, -527618.0, 67190.05, -0.039586794, -0.1415546, -444864.94, -68422.055, 0.0, 9.99987, 9.999459 
2.7346253e+3, 2.7158517e+2, -512059.72, -447817.1, 60721.707, -0.037634406, -0.13262141, -411244.13, -132792.11, 0.0, 9.998959, 9.999773 
2.7345198e+3, 2.8158432e+2, -558122.94, -458467.16, 68650.94, 0.000514223, -0.12829484, -423467.16, -243006.2, 0.0, 9.998135, 9.999427 
2.734415e+3, 2.9158306e+2, -471533.34, -344138.75, 23188.195, 0.08898768, -0.14141138, -340049.34, -257576.31, 0.0, 9.997959, 9.999624 
2.7343076e+3, 3.015823e+2, -374963.25, -183010.03, 27385.268, -0.000103529834, -0.14369376, -179179.52, -179179.52, 0.0, 9.997675, 10.000196 
2.7341995e+3, 3.1158254e+2, -398721.28, -69673.8, 49965.156, -0.25703397, -0.14208294, -62254.004, -62254.004, 0.0, 9.996742, 10.00109 
2.7340955e+3, 3.2158318e+2, -468636.53, -73212.75, -124341.9, 0.065618016, -0.09614754, -37363.3, -37363.3, 0.0, 9.996115, 10.001376 
2.7461115e+3, 1.3171466e+2, -1226684.1, -1666183.8, -21931.139, -0.04895, -0.13037269, -1225592.5, 423586.97, 0.0069558653, 10.004194, 9.998313 
2.7460036e+3, 1.417109e+2, -1173153.4, -1574128.9, 31036.41, 0.00030331177, -0.28242746, -1170765.4, 380449.53, 0.0037220467, 10.003806, 9.998458 
2.745897e+3, 1.5171014e+2, -1117694.4, -1445003.8, 77598.72, -0.041129198, -0.17257276, -1100229.1, 352994.5, 0.0013825964, 10.003295, 9.99891 
2.7457905e+3, 1.6170917e+2, -1113346.0, -1430994.6, 61218.953, -0.040600702, -0.09213186, -1101955.9, 253278.56, 0.00030087403, 10.002814, 9.998567 
2.7456844e+3, 1.7170641e+2, -1071731.1, -1345856.8, 88275.91, -0.009993657, -0.16766159, -1045763.8, 211498.55, 0.00002933857, 10.002371, 9.998688 
2.7455783e+3, 1.8170407e+2, -1012235.1, -1255200.6, 90334.49, -0.0037985577, -0.21416017, -982329.7, 176956.17, 0.00000039166414, 10.002057, 9.99879 
2.7454716e+3, 1.9170336e+2, -882775.1, -1101267.5, 82068.055, -0.039338946, -0.12527227, -855383.5, 205910.06, 0.0, 10.002104, 9.999148 
2.7453658e+3, 2.0170242e+2, -819110.3, -1048317.2, 79178.42, -0.0553035, -0.06974786, -794418.44, 168884.67, 0.0, 10.001989, 9.998898 
2.7452606e+3, 2.116998e+2, -814365.3, -976560.9, 101381.914, -0.0141822575, -0.16788706, -765635.75, 99691.83, 0.0, 10.00127, 9.999062 
2.745155e+3, 2.2169758e+2, -805222.8, -920713.5, 80173.98, 0.023461249, -0.23775928, -764163.3, 3185.2046, 0.0, 10.000654, 9.99907 
2.7450487e+3, 2.3169705e+2, -711352.3, -792167.8, 59909.06, 0.028533196, -0.15613672, -679497.5, -10142.035, 0.0, 10.000487, 9.999359 
2.744942e+3, 2.4169652e+2, -652983.94, -715448.5, 84584.61, 0.023863027, -0.08794507, -594049.6, -22687.889, 0.0, 10.000222, 9.999342 
2.7448362e+3, 2.5169516e+2, -628331.0, -620666.9, 96255.03, -0.010672483, -0.11386171, -528167.7, -54793.91, 0.0, 9.99958, 9.999628 
2.74473e+3, 2.6169384e+2, -620594.2, -585106.7, 85066.484, -0.043731414, -0.14341721, -515953.1, -140567.58, 0.0, 9.999041, 9.999461 
2.7446234e+3, 2.7169275e+2, -513532.2, -453722.88, 49487.85, -0.06169749, -0.15279636, -425805.94, -148409.4, 0.0, 9.998979, 9.999719 
2.7445176e+3, 2.8169173e+2, -467893.16, -430034.88, 52870.832, -0.02062489, -0.15670444, -392806.75, -213399.9, 0.0, 9.998829, 9.999283 
2.7444127e+3, 2.9169053e+2, -425583.66, -344927.84, 54197.496, 0.14016566, -0.1467958, -317700.53, -236281.66, 0.0, 9.99838, 9.9994135 
2.7443054e+3, 3.016897e+2, -361348.66, -161870.44, 65283.016, 0.060410846, -0.13926248, -142404.84, -142404.84, 0.0, 9.997708, 10.000324 
2.744194e+3, 3.1169e+2, -393247.03, -33856.297, 25537.854, -0.41437584, -0.16307259, -32050.682, -32050.682, 0.0, 9.996639, 10.001385 
2.7440926e+3, 3.2169074e+2, -433350.88, -163222.84, -75016.234, 0.21416552, -0.09342533, -143788.56, -143788.56, 0.0, 9.996829, 10.000409 
2.7561152e+3, 1.3182196e+2, -1220096.6, -1647617.6, -34547.08, -0.027870195, -0.2046546, -1217323.0, 430803.6, 0.0045480025, 10.0041685, 9.99845 
2.756007e+3, 1.4181946e+2, -1178988.5, -1583187.6, 16779.756, 0.012128927, -0.23837794, -1178293.1, 371857.13, 0.0023466484, 10.003786, 9.998406 
2.7558994e+3, 1.5181798e+2, -1125623.9, -1467263.0, 60769.117, -0.035530888, -0.18586643, -1115136.5, 337030.0, 0.0008254961, 10.003313, 9.998751 
2.7557927e+3, 1.6181664e+2, -1090993.0, -1392502.6, 45139.64, -0.04782865, -0.14156377, -1084380.1, 269801.22, 0.0001665299, 10.002845, 9.998818 
2.7556857e+3, 1.7181504e+2, -1038243.75, -1281995.3, 70998.52, -0.060140867, -0.14116324, -1019071.7, 237125.22, 0.000014111729, 10.002392, 9.999118 
2.755579e+3, 1.8181331e+2, -1026876.6, -1286577.5, 84880.46, -0.0686705, -0.14945619, -1001595.4, 156618.77, 0.00000009505926, 10.002058, 9.998576 
2.7554736e+3, 1.9181103e+2, -921523.56, -1179616.0, 85153.3, -0.012168718, -0.17093812, -895960.56, 164277.31, 0.0, 10.002092, 9.998618 
2.755368e+3, 2.018092e+2, -819152.2, -1041741.8, 61927.395, 0.0300502, -0.16999786, -803083.2, 159173.83, 0.0, 10.001957, 9.99896 
2.7552614e+3, 2.1180846e+2, -792958.06, -929829.3, 73507.586, -0.0027611272, -0.11041923, -760960.6, 103303.8, 0.0, 10.001257, 9.99939 
2.7551547e+3, 2.2180752e+2, -805721.6, -921414.06, 67547.26, -0.023091469, -0.073796585, -774636.3, -8362.633, 0.0, 10.000649, 9.999069 
2.7550483e+3, 2.3180571e+2, -722034.4, -817120.3, 54905.414, 0.017878473, -0.10533133, -696948.56, -28656.639, 0.0, 10.000495, 9.999186 
2.7549422e+3, 2.418041e+2, -648157.7, -706571.2, 65553.13, 0.043067474, -0.13579628, -605599.2, -35291.58, 0.0, 10.000223, 9.999405 
2.7548355e+3, 2.518029e+2, -617902.6, -597413.44, 70106.87, 0.008570068, -0.16137567, -536806.6, -64489.57, 0.0, 9.99957, 9.999794 
2.7547288e+3, 2.6180178e+2, -637159.44, -618711.7, 75368.5, -0.027996626, -0.17430235, -552004.75, -177678.3, 0.0, 9.999033, 9.999236 
2.754622e+3, 2.7180067e+2, -544116.2, -520033.63, 46680.176, -0.047610793, -0.14649816, -483866.7, -207527.38, 0.0, 9.998985, 9.999264 
2.754516e+3, 2.8179964e+2, -447067.1, -396177.94, 38488.22, -0.024518127, -0.12550128, -375483.9, -197133.64, 0.0, 9.998865, 9.999501 
2.7544102e+3, 2.9179877e+2, -386821.8, -267397.56, 36128.594, 0.082757644, -0.13379925, -257318.48, -176961.28, 0.0, 9.99839, 9.999942 
2.7543023e+3, 3.0179802e+2, -379617.2, -195152.8, 31948.676, 0.023442287, -0.15159053, -189776.1, -189776.1, 0.0, 9.997685, 10.000109 
2.7541918e+3, 3.1179732e+2, -442379.2, -129515.805, -19378.324, -0.24098192, -0.21014366, -128320.11, -128320.11, 0.0, 9.996605, 10.000749 
2.7540883e+3, 3.2179752e+2, -454431.3, -218661.53, 117398.77, 0.13344592, -0.14463331, -170175.39, -170175.39, 0.0, 9.9969015, 9.999982 
2.7661186e+3, 1.3193084e+2, -1238239.8, -1638817.0, -1883.6046, -0.038778547, -0.18685147, -1238230.9, 408828.75, 0.0027648644, 10.003957, 9.998615 
2.7660102e+3, 1.4192834e+2, -1200589.0, -1595182.4, 48829.438, 0.01740769, -0.22909887, -1194636.4, 354446.78, 0.0013677308, 10.003643, 9.998393 
2.765902e+3, 1.5192659e+2, -1129867.9, -1482715.5, 94736.7, -0.043185405, -0.19338089, -1106040.9, 345061.3, 0.00045201048, 10.003345, 9.998628 
2.765795e+3, 1.6192503e+2, -1068946.1, -1389836.1, 70272.336, -0.060009725, -0.15820637, -1054231.8, 298887.34, 0.000082991, 10.003034, 9.998744 
2.7656877e+3, 1.7192361e+2, -1011527.06, -1275216.6, 66621.055, -0.057452098, -0.1320827, -995651.1, 259482.22, 0.000005757098, 10.002609, 9.999057 
2.7655807e+3, 1.8192205e+2, -1003337.2, -1265077.1, 72770.195, -0.060772195, -0.123259544, -984465.9, 172683.3, 0.00000000965895, 10.002186, 9.998659 
2.7654746e+3, 1.9191967e+2, -963787.25, -1187501.9, 113614.52, -0.027212849, -0.16687405, -916207.06, 142966.31, 0.0, 10.001753, 9.998725 
2.7653685e+3, 2.0191771e+2, -906526.3, -1078672.0, 107092.99, 0.0072912634, -0.18383709, -855203.94, 105989.2, 0.0, 10.001337, 9.999002 
2.7652618e+3, 2.1191718e+2, -838883.4, -951996.25, 93982.625, -0.0023788519, -0.10230436, -785752.25, 77446.85, 0.0, 10.000947, 9.999385 
2.765155e+3, 2.2191645e+2, -804490.4, -909475.44, 85306.055, -0.009174716, -0.047979973, -756820.06, 8386.517, 0.0, 10.000616, 9.999166 
2.7650484e+3, 2.3191448e+2, -718886.4, -801764.2, 96031.914, 0.017823467, -0.10690775, -655734.1, 11491.344, 0.0, 10.0004635, 9.999304 
2.7649418e+3, 2.4191265e+2, -643664.3, -710731.0, 109314.24, 0.03903553, -0.16164096, -562855.6, 6386.8613, 0.0, 10.000288, 9.999342 
2.7648348e+3, 2.5191146e+2, -560446.25, -587750.25, 86112.85, 0.015847629, -0.17222907, -486909.94, -15657.293, 0.0, 10.00005, 9.999626 
2.7647278e+3, 2.6191035e+2, -546800.75, -588937.94, 81950.984, -0.011107887, -0.17070863, -483253.47, -109990.67, 0.0, 9.999722, 9.9991045 
2.7646208e+3, 2.7190906e+2, -520745.13, -522852.63, 77027.234, -0.035326194, -0.14424795, -444764.44, -169487.3, 0.0, 9.999213, 9.999131 
2.7645138e+3, 2.8190792e+2, -469754.34, -397752.94, 75069.85, -0.025150439, -0.12727177, -350497.8, -173208.75, 0.0, 9.998673, 9.999579 
2.7644074e+3, 2.9190713e+2, -405908.38, -258371.83, 40268.996, 0.04238922, -0.13988665, -248096.38, -168802.13, 0.0, 9.99819, 10.000096 
2.7642992e+3, 3.019063e+2, -372402.06, -217517.77, 12021.615, -0.001720455, -0.16817093, -216590.25, -216590.25, 0.0, 9.997859, 9.999866 
2.7641898e+3, 3.1190488e+2, -283557.97, -105139.96, -25784.822, -0.11261416, -0.25906083, -101488.3, -101488.3, 0.0, 9.99793, 10.000272 
2.7640834e+3, 3.2190487e+2, -450449.6, -205258.56, 150181.98, 0.019521633, -0.18047915, -133987.39, -133987.39, 0.0, 9.996886, 10.000077 
2.7761215e+3, 1.3204086e+2, -1237138.8, -1619216.6, -13658.215, -0.075749025, -0.11086705, -1236651.1, 409331.25, 0.0015292111, 10.003883, 9.998783 
2.7760133e+3, 1.4203759e+2, -1200235.6, -1597608.8, 37823.703, 0.013048966, -0.24261034, -1196667.5, 351345.75, 0.0007190989, 10.0036545, 9.998371 
2.7759048e+3, 1.5203583e+2, -1138913.3, -1500775.0, 83283.38, -0.06174066, -0.19768617, -1120665.6, 329366.25, 0.00022026579, 10.003336, 9.998511 
2.7757972e+3, 1.6203417e+2, -1096955.6, -1441020.8, 54939.098, -0.0758269, -0.15370286, -1088396.1, 263653.72, 0.000035434383, 10.003, 9.99841 
2.7756903e+3, 1.7203225e+2, -1042531.0, -1340380.3, 52727.52, -0.016024837, -0.13571046, -1033472.25, 220598.1, 0.0000017161015, 10.00261, 9.9986105 
2.775583e+3, 1.8203054e+2, -979140.6, -1218570.5, 59218.695, -0.0032989397, -0.122219935, -965294.7, 190793.5, 0.00000000000031198744, 10.002198, 9.998975 
2.7754754e+3, 1.9202921e+2, -919566.3, -1096837.4, 98228.42, -0.08153796, -0.11909478, -875895.06, 182205.27, 0.0, 10.001754, 9.99935 
2.7753684e+3, 2.0202778e+2, -909911.0, -1083735.0, 90988.48, -0.111020446, -0.12355501, -870995.3, 89118.28, 0.0, 10.001326, 9.998976 
2.7752623e+3, 2.1202597e+2, -860476.75, -999278.1, 79345.53, -0.010724803, -0.14281866, -824463.2, 37668.72, 0.0, 10.000955, 9.999058 
2.775156e+3, 2.2202441e+2, -792158.8, -883907.1, 77603.63, 0.056201864, -0.15544783, -747884.4, 16262.724, 0.0, 10.000612, 9.999345 
2.7750483e+3, 2.3202334e+2, -691149.8, -745677.56, 91108.26, 0.025201363, -0.15958865, -623313.56, 42842.57, 0.0, 10.000466, 9.999689 
2.774941e+3, 2.4202225e+2, -658728.94, -745161.5, 101050.33, 0.0019523317, -0.15913065, -592041.56, -23875.54, 0.0, 10.000298, 9.999103 
2.7748343e+3, 2.5202087e+2, -595681.06, -664967.56, 75922.97, 0.008987572, -0.1403019, -546871.0, -76690.625, 0.0, 10.000062, 9.999093 
2.774727e+3, 2.6201946e+2, -545116.75, -590779.3, 64421.254, 0.0033920247, -0.13006212, -499600.66, -127405.97, 0.0, 9.999741, 9.999085 
2.7746198e+3, 2.720179e+2, -506330.2, -492883.22, 56298.313, -0.026586834, -0.15065505, -442908.34, -168698.1, 0.0, 9.999211, 9.999339 
2.7745122e+3, 2.8201652e+2, -482445.5, -420684.03, 55964.797, -0.026500726, -0.16785389, -387645.47, -211422.05, 0.0, 9.998656, 9.999432 
2.774405e+3, 2.920155e+2, -434391.25, -313933.75, 18607.287, 0.023605386, -0.16816138, -311124.94, -232893.52, 0.0, 9.998168, 9.999728 
2.7742964e+3, 3.0201435e+2, -386031.7, -254730.86, 8733.887, -0.018654635, -0.1936129, -254152.44, -254152.44, 0.0, 9.99789, 9.999598 
2.7741876e+3, 3.120124e+2, -285839.47, -137106.7, -20581.406, -0.066749476, -0.31575534, -134311.22, -134311.22, 0.0, 9.998046, 9.999998 
2.7740794e+3, 3.2201317e+2, -410068.16, -114875.734, -71025.4, -0.0016799847, -0.15912259, -98675.58, -98675.58, 0.0, 9.996813, 10.000756 
2.7861246e+3, 1.3215007e+2, -1325657.4, -1666819.6, 22112.574, -0.05904771, -0.15183042, -1324230.0, 320681.88, 0.00074650557, 10.003286, 9.998747 
2.7860162e+3, 1.4214772e+2, -1201324.6, -1600883.4, 44163.324, -0.003510459, -0.18580274, -1196501.4, 350433.66, 0.0003293364, 10.003658, 9.998347 
2.785907e+3, 1.5214562e+2, -1177697.4, -1523237.8, 86697.45, -0.07017872, -0.17088053, -1157164.8, 291791.84, 0.00009087811, 10.003093, 9.998471 
2.7857992e+3, 1.6214363e+2, -1150307.4, -1468898.8, 73977.82, -0.075150795, -0.1552646, -1133967.6, 217009.64, 0.000011753326, 10.002649, 9.998385 
2.7856922e+3, 1.7214161e+2, -1054165.3, -1351464.3, 97103.71, -0.02282453, -0.14352281, -1025259.6, 227739.05, 0.00000025139548, 10.002556, 9.99856 
2.7855843e+3, 1.8213986e+2, -953558.4, -1201800.9, 104082.02, -0.01279889, -0.13051638, -915694.56, 239322.31, 0.0, 10.002353, 9.999016 
2.7854764e+3, 1.921387e+2, -911556.25, -1084501.8, 106087.23, -0.08305713, -0.11386149, -861164.0, 195863.3, 0.0, 10.001779, 9.999419 
2.7853692e+3, 2.0213743e+2, -900438.94, -1063258.8, 87489.125, -0.1088518, -0.11427676, -862341.9, 96697.1, 0.0, 10.001333, 9.999107 
2.7852628e+3, 2.1213539e+2, -807248.44, -960573.44, 106699.664, -0.013157366, -0.16737865, -752526.2, 108532.14, 0.0, 10.00127, 9.999168 
2.785156e+3, 2.2213364e+2, -723826.4, -855821.44, 115124.82, 0.05605843, -0.20335941, -657123.5, 105951.336, 0.0, 10.001106, 9.999297 
2.7850485e+3, 2.3213273e+2, -682197.44, -754040.8, 92193.22, 0.021802519, -0.17956328, -619174.9, 45907.973, 0.0, 10.000587, 9.999572 
2.7849406e+3, 2.4213175e+2, -693031.6, -771639.3, 83474.5, -0.005271743, -0.1548291, -640070.7, -72978.58, 0.0, 10.000112, 9.999008 
2.7848336e+3, 2.5213024e+2, -640458.56, -698059.75, 87768.47, 0.002745906, -0.13817137, -576886.06, -107777.766, 0.0, 9.99981, 9.998984 
2.784726e+3, 2.6212874e+2, -572007.3, -592703.56, 96796.87, 0.004998575, -0.13344005, -485007.03, -113883.14, 0.0, 9.999513, 9.999181 
2.7846184e+3, 2.7212727e+2, -485902.56, -463451.03, 84333.43, -0.012874848, -0.16264828, -389599.5, -116461.766, 0.0, 9.999274, 9.999507 
2.7845106e+3, 2.8212592e+2, -439410.3, -408611.88, 82098.54, -0.0062745083, -0.18084295, -340480.84, -165331.05, 0.0, 9.999, 9.999344 
2.7844027e+3, 2.9212487e+2, -372919.72, -307515.13, 55393.996, 0.01783017, -0.16448374, -275890.66, -198731.33, 0.0, 9.998696, 9.999515 
2.7842936e+3, 3.021236e+2, -340150.4, -246541.73, 65743.49, -0.029500645, -0.18157233, -212643.83, -212643.83, 0.0, 9.99827, 9.999469 
2.7841854e+3, 3.1212142e+2, -349025.3, -173843.2, 46013.89, 0.013750689, -0.31590033, -162492.5, -162492.5, 0.0, 9.997648, 9.999932 
2.784076e+3, 3.2212222e+2, -312244.84, 7031.0117, -74970.22, -0.007940933, -0.17635311, 23758.617, 23758.617, 0.0, 9.99717, 10.001417 
2.7961278e+3, 1.3225885e+2, -1336575.8, -1686743.8, 42760.832, -0.013900867, -0.2612474, -1331429.6, 312415.1, 0.00030920087, 10.003276, 9.998614 
2.7960187e+3, 1.4225858e+2, -1207285.5, -1604749.3, 32389.865, -0.031788073, -0.07848119, -1204663.3, 341186.97, 0.00012485002, 10.003619, 9.998341 
2.7959096e+3, 1.5225594e+2, -1172128.3, -1519177.3, 64192.035, -0.07482008, -0.1208788, -1160635.6, 287240.88, 0.000029062048, 10.003121, 9.998487 
2.7958015e+3, 1.6225348e+2, -1132819.3, -1441054.5, 66963.42, -0.07172839, -0.15962568, -1118900.3, 231000.66, 0.0000024460635, 10.002684, 9.998562 
2.7956936e+3, 1.7225158e+2, -1040497.5, -1320627.5, 94724.68, -0.06927886, -0.1562413, -1011473.8, 240445.86, 0.0000000042322403, 10.002542, 9.99878 
2.7955857e+3, 1.8224984e+2, -974446.1, -1235707.3, 86252.56, -0.0727194, -0.15009844, -948539.6, 205397.69, 0.0, 10.002309, 9.998806 
2.7954784e+3, 1.9224821e+2, -940350.25, -1143263.3, 84215.45, -0.03966158, -0.14472796, -909952.06, 146001.81, 0.0, 10.001773, 9.99902 
2.7953708e+3, 2.0224676e+2, -881955.0, -1024528.1, 80676.234, -0.011658133, -0.14742056, -845582.7, 112385.29, 0.0, 10.001329, 9.999376 
2.7952632e+3, 2.1224543e+2, -772413.44, -887661.9, 105201.484, -0.014684846, -0.17561406, -710088.06, 149890.23, 0.0, 10.001265, 9.999674 
2.7951556e+3, 2.2224411e+2, -747961.8, -902509.2, 99864.86, -0.012774404, -0.19070037, -698965.1, 63024.777, 0.0, 10.001088, 9.998987 
2.795048e+3, 2.3224263e+2, -726645.0, -847092.0, 71949.984, 0.008011867, -0.16620418, -693040.6, -29034.758, 0.0, 10.000587, 9.998935 
2.7949405e+3, 2.4224116e+2, -689438.06, -764080.25, 69471.22, 0.015698077, -0.15207674, -647897.75, -81876.31, 0.0, 10.000107, 9.9990635 
2.7948326e+3, 2.5223956e+2, -618706.94, -651941.5, 75960.83, -0.005179728, -0.17273778, -557567.06, -89529.78, 0.0, 9.999804, 9.999306 
2.794725e+3, 2.6223814e+2, -558183.1, -565723.2, 87088.23, -0.017041583, -0.18524198, -474783.34, -104732.71, 0.0, 9.999517, 9.999365 
2.794617e+3, 2.7223715e+2, -478203.0, -449368.9, 74627.3, 0.005146124, -0.17748828, -387778.8, -115719.47, 0.0, 9.999277, 9.999605 
2.7945092e+3, 2.8223625e+2, -437667.16, -410922.6, 71475.805, 0.03241648, -0.16052611, -351578.94, -177511.25, 0.0, 9.999022, 9.99932 
2.7944008e+3, 2.9223537e+2, -372637.25, -312421.56, 43925.8, 0.026479017, -0.11980718, -289275.7, -213198.81, 0.0, 9.998718, 9.999472 
2.7942914e+3, 3.0223432e+2, -339213.9, -242325.77, 44063.03, -0.0258156, -0.11661822, -225284.13, -225284.13, 0.0, 9.998258, 9.999505 
2.7941838e+3, 3.122323e+2, -350681.3, -162982.52, 20631.682, 0.12922938, -0.23976256, -160741.45, -160741.45, 0.0, 9.997579, 10.000045 
2.7940714e+3, 3.222319e+2, -276529.47, 75095.77, -17018.63, -0.094421715, -0.24992913, 75917.555, 75917.555, 0.0, 9.997215, 10.001854 
2.8061306e+3, 1.3236861e+2, -1343327.9, -1686211.5, 44291.34, -0.009706702, -0.2503264, -1337699.0, 305070.2, 0.00010249549, 10.003213, 9.998649 
2.8060216e+3, 1.4236832e+2, -1276233.3, -1614017.6, 30367.676, -0.040727783, -0.07891965, -1273524.8, 271250.63, 0.000035755456, 10.003042, 9.998556 
2.8059122e+3, 1.5236582e+2, -1157751.9, -1481902.1, 70960.99, -0.08881145, -0.1334991, -1142898.3, 303901.34, 0.0000060332013, 10.003093, 9.998755 
2.8058037e+3, 1.6236353e+2, -1076263.9, -1389577.1, 75784.29, -0.081641376, -0.17902759, -1058895.9, 289925.66, 0.00000016363987, 10.002969, 9.998778 
2.8056955e+3, 1.723619e+2, -1064854.1, -1312454.6, 101831.37, -0.06317424, -0.16733985, -1028354.3, 222483.2, 0.0, 10.0022955, 9.998953 
2.8055874e+3, 1.8236028e+2, -1057733.6, -1281630.5, 99231.945, -0.056588247, -0.1558218, -1020084.5, 132769.33, 0.0, 10.001775, 9.998742 
2.8054795e+3, 1.9235845e+2, -969678.44, -1178939.3, 109479.74, -0.024790598, -0.15370515, -922871.25, 132001.94, 0.0, 10.001668, 9.998824 
2.805372e+3, 2.0235685e+2, -865774.2, -1022107.06, 106109.53, 0.0030355335, -0.15515715, -812148.25, 144741.1, 0.0, 10.00146, 9.999331 
2.8052637e+3, 2.1235572e+2, -821174.6, -909823.06, 96560.68, -0.019487156, -0.16544032, -759251.0, 99646.85, 0.0, 10.000928, 9.999682 
2.8051558e+3, 2.2235447e+2, -825498.2, -939293.9, 78738.69, -0.03259802, -0.17100042, -785251.06, -24342.771, 0.0, 10.000561, 9.998984 
2.8050482e+3, 2.3235278e+2, -720077.2, -847079.25, 92808.12, -0.0022447456, -0.16520715, -671125.0, -8198.627, 0.0, 10.000652, 9.9989 
2.80494e+3, 2.4235117e+2, -609900.94, -727361.9, 116114.71, 0.018670073, -0.16114846, -538508.8, 26434.729, 0.0, 10.000665, 9.999045 
2.8048322e+3, 2.523497e+2, -523318.56, -607737.2, 97676.44, -0.005692235, -0.1651532, -459121.53, 7836.634, 0.0, 10.000471, 9.999285 
2.804724e+3, 2.623484e+2, -471272.53, -520541.4, 80586.56, -0.018928504, -0.16908778, -411639.25, -42668.473, 0.0, 10.000107, 9.999388 
2.804616e+3, 2.723473e+2, -456631.06, -437659.94, 58329.477, 0.005340525, -0.17213988, -388049.78, -117069.75, 0.0, 9.999422, 9.999615 
2.804508e+3, 2.8234628e+2, -469105.72, -423895.4, 56374.344, 0.04095869, -0.16427243, -385762.94, -212773.92, 0.0, 9.998795, 9.999341 
2.804399e+3, 2.9234546e+2, -418082.6, -331354.34, 34739.28, 0.05662535, -0.12485826, -319155.3, -244157.03, 0.0, 9.998397, 9.999495 
2.8042892e+3, 3.0234456e+2, -348648.34, -227507.81, 39510.395, 0.013928686, -0.11067388, -215760.53, -215760.53, 0.0, 9.9981165, 9.999672 
2.8041813e+3, 3.1234312e+2, -251707.73, -94727.98, 27749.535, 0.13473247, -0.19904707, -89967.05, -89967.05, 0.0, 9.99817, 10.000227 
2.804068e+3, 3.2234237e+2, -204097.08, 58672.664, -23883.299, -0.14253433, -0.23944262, 60825.79, 60825.79, 0.0, 9.997938, 10.0013895 
2.816133e+3, 1.3247907e+2, -1324726.6, -1666135.9, 38149.7, -0.041201822, -0.16684659, -1320515.6, 321171.9, 0.000024203617, 10.0033, 9.998742 
2.8160238e+3, 1.4247736e+2, -1257475.9, -1568924.6, 31511.635, -0.042408515, -0.15594983, -1254319.6, 289387.0, 0.000006462912, 10.003016, 9.998878 
2.8159145e+3, 1.5247546e+2, -1139656.3, -1429427.3, 73859.78, -0.11083471, -0.18904382, -1121916.3, 323807.75, 0.00000052844416, 10.003024, 9.999151 
2.815806e+3, 1.624738e+2, -1069305.8, -1359140.3, 55464.92, -0.09920103, -0.20677242, -1059054.3, 288685.25, 0.0000000005064632, 10.002897, 9.999023 
2.8156975e+3, 1.7247255e+2, -1053757.8, -1288943.6, 74736.375, -0.019348057, -0.17518607, -1032017.9, 217734.02, 0.0, 10.002292, 9.999118 
2.815589e+3, 1.8247119e+2, -1053889.5, -1278079.3, 89122.35, 0.008611401, -0.14920223, -1022778.0, 128988.07, 0.0, 10.001791, 9.99876 
2.8154805e+3, 1.9246934e+2, -972983.25, -1186267.5, 106299.5, -0.037927303, -0.14461932, -929052.75, 124733.2, 0.0, 10.001667, 9.9987755 
2.815372e+3, 2.0246764e+2, -892676.9, -1074418.5, 89941.92, -0.056290794, -0.14087318, -855692.06, 100111.67, 0.0, 10.001443, 9.998982 
2.815264e+3, 2.1246617e+2, -852326.7, -977695.3, 76397.055, -0.026329754, -0.13898265, -816188.75, 41628.207, 0.0, 10.000939, 9.999212 
2.815156e+3, 2.2246474e+2, -804343.4, -895934.4, 77056.125, -0.01046255, -0.14703898, -760501.4, -671.39325, 0.0, 10.000561, 9.999284 
2.815048e+3, 2.324632e+2, -680208.44, -766493.75, 97250.97, -0.011950474, -0.17840649, -616960.1, 44884.363, 0.0, 10.000659, 9.999452 
2.81494e+3, 2.4246183e+2, -617025.3, -746405.4, 111430.51, -0.008328098, -0.17901176, -552868.3, 10989.748, 0.0, 10.000681, 9.998908 
2.814832e+3, 2.5246078e+2, -548726.9, -664676.7, 89044.555, 0.0007772178, -0.10758291, -500447.28, -34576.75, 0.0, 10.000485, 9.99889 
2.8147238e+3, 2.6245952e+2, -481166.16, -545022.1, 57225.6, -0.0017509175, -0.07580992, -447564.25, -79680.27, 0.0, 10.00012, 9.999215 
2.8146145e+3, 2.724576e+2, -464837.28, -454173.44, 29649.664, -0.017913334, -0.14575265, -429380.1, -159479.36, 0.0, 9.999418, 9.999504 
2.8145057e+3, 2.8245595e+2, -464639.4, -411787.44, 36185.152, 0.010476918, -0.19788386, -393406.06, -221490.77, 0.0, 9.998779, 9.999433 
2.8143975e+3, 2.924549e+2, -415638.22, -319728.84, 17236.559, 0.11345958, -0.1954218, -316725.2, -242799.56, 0.0, 9.998364, 9.999593 
2.8142875e+3, 3.024541e+2, -325201.66, -177973.64, 38801.1, 0.08033041, -0.18823394, -168373.78, -168373.78, 0.0, 9.99811, 10.000017 
2.8141773e+3, 3.1245387e+2, -219264.67, -41066.234, 33197.047, -0.012107221, -0.19297524, -35082.78, -35082.78, 0.0, 9.998226, 10.000571 
2.8140664e+3, 3.224536e+2, -318226.44, -189609.03, -70769.52, -0.046833076, -0.14065866, -158293.81, -158293.81, 0.0, 9.997973, 9.999674 
2.8261358e+3, 1.3258962e+2, -1285926.1, -1678728.1, 65319.926, -0.058868915, -0.158875, -1275348.8, 365254.28, 0.0000033294093, 10.0036955, 9.998467 
2.826026e+3, 1.4258724e+2, -1265987.1, -1560267.3, 50163.96, -0.059054684, -0.20058584, -1257671.0, 284958.34, 0.00000050691085, 10.002905, 9.998989 
2.8259164e+3, 1.5258595e+2, -1232248.9, -1450157.9, 88784.92, -0.10072003, -0.19388038, -1200655.0, 243985.94, 0.0000000023756648, 10.002292, 9.999358 
2.825808e+3, 1.625847e+2, -1207618.5, -1419559.9, 59595.63, -0.07632519, -0.18383521, -1192010.4, 154642.08, 0.0, 10.001926, 9.999073 
2.8256992e+3, 1.7258333e+2, -1093200.8, -1311622.4, 64355.316, -0.015859194, -0.16386399, -1075649.5, 173017.19, 0.0, 10.002037, 9.999084 
2.8255904e+3, 1.8258192e+2, -1010305.1, -1240816.6, 71499.43, 0.00078119943, -0.14671123, -989928.8, 160752.66, 0.0, 10.002017, 9.998909 
2.8254816e+3, 1.9258028e+2, -969112.94, -1162107.5, 103730.31, -0.04449904, -0.14142294, -923935.56, 128762.97, 0.0, 10.001603, 9.99897 
2.8253728e+3, 2.0257865e+2, -908510.8, -1085608.3, 109216.336, -0.062423587, -0.1392926, -856456.94, 98258.15, 0.0, 10.001361, 9.998939 
2.8252646e+3, 2.1257697e+2, -774789.06, -957985.1, 117681.18, -0.029161677, -0.14491715, -717259.44, 139471.63, 0.0, 10.0015545, 9.999048 
2.8251565e+3, 2.2257538e+2, -671957.56, -841091.7, 118049.375, -0.0065857866, -0.15279117, -611310.1, 147436.03, 0.0, 10.001511, 9.999202 
2.825048e+3, 2.3257394e+2, -657147.06, -761631.3, 92917.055, -0.016399112, -0.16762553, -602792.7, 57967.387, 0.0, 10.000848, 9.9993925 
2.82494e+3, 2.4257267e+2, -666071.44, -751425.2, 88176.445, -0.015813015, -0.1629183, -610787.06, -48014.38, 0.0, 10.000268, 9.99907 
2.824832e+3, 2.525716e+2, -608485.4, -669245.06, 109130.6, 0.0069380477, -0.11151195, -525584.94, -60801.047, 0.0, 9.999973, 9.999104 
2.824723e+3, 2.6257035e+2, -542028.3, -587530.06, 104038.28, 0.015214499, -0.08793118, -458282.4, -91485.36, 0.0, 9.99976, 9.999097 
2.8246135e+3, 2.725684e+2, -435356.78, -466280.8, 66121.67, -0.0106819635, -0.14011618, -382913.34, -114097.74, 0.0, 9.999738, 9.999266 
2.8245044e+3, 2.8256664e+2, -352392.38, -355048.56, 61155.082, 0.017858583, -0.18565995, -292550.97, -121719.28, 0.0, 9.999548, 9.999449 
2.824396e+3, 2.925654e+2, -308732.84, -262381.0, 38090.516, 0.12989263, -0.20744404, -240969.81, -168126.88, 0.0, 9.999077, 9.999642 
2.8242853e+3, 3.0256444e+2, -259981.34, -162907.16, 54077.004, 0.08113747, -0.20951605, -138779.45, -138779.45, 0.0, 9.998625, 9.999874 
2.8241745e+3, 3.1256443e+2, -230062.23, -72129.7, -271.71146, -0.07339457, -0.17510824, -72129.234, -72129.234, 0.0, 9.998267, 10.000336 
2.824065e+3, 3.2256395e+2, -279498.8, -196533.34, -81566.34, 0.0407386, -0.11749852, -146507.14, -146507.14, 0.0, 9.998362, 9.9994335 
2.8361386e+3, 1.3270038e+2, -1340017.6, -1755151.4, 28715.137, -0.064386554, -0.19373482, -1338040.9, 301474.75, 0.00000016214108, 10.003546, 9.998013 
2.836028e+3, 1.426979e+2, -1271604.5, -1564876.5, 27040.145, -0.096699156, -0.21649173, -1269132.3, 272412.44, 0.0000000020979667, 10.002874, 9.998973 
2.8359184e+3, 1.5269715e+2, -1219707.9, -1436630.1, 67549.164, -0.07772056, -0.16282365, -1200393.0, 243158.56, 0.0, 10.002341, 9.99943 
2.8358096e+3, 1.6269614e+2, -1208923.9, -1436905.6, 57923.12, -0.031200724, -0.12817611, -1195051.5, 150509.92, 0.0, 10.0019865, 9.998926 
2.8357005e+3, 1.7269425e+2, -1108025.0, -1344394.4, 70669.445, -0.044242535, -0.13886829, -1088507.9, 159073.55, 0.0, 10.002044, 9.9988575 
2.835591e+3, 1.8269256e+2, -995959.94, -1204566.6, 61430.63, -0.0636038, -0.14516532, -979214.06, 170384.75, 0.0, 10.001988, 9.999173 
2.8354824e+3, 1.9269127e+2, -940463.6, -1103296.9, 87720.734, -0.046140917, -0.14312795, -902199.06, 149411.55, 0.0, 10.001603, 9.999374 
2.835374e+3, 2.0268989e+2, -895190.8, -1057448.8, 110860.2, -0.030125089, -0.15073295, -838944.75, 114678.82, 0.0, 10.001356, 9.999136 
2.8352657e+3, 2.1268807e+2, -768222.5, -942570.5, 125467.93, -0.031840578, -0.18052544, -702617.2, 153023.16, 0.0, 10.001543, 9.999161 
2.8351572e+3, 2.2268641e+2, -708677.3, -912398.7, 100152.64, -0.030415684, -0.18485247, -667687.9, 89969.02, 0.0, 10.001488, 9.998725 
2.8350484e+3, 2.3268501e+2, -705912.06, -861483.44, 66866.1, -0.016639104, -0.13066655, -681122.5, -21449.33, 0.0, 10.000839, 9.998713 
2.8349397e+3, 2.4268362e+2, -633407.3, -681860.0, 73626.76, -0.0039070547, -0.11360696, -580123.56, -18435.947, 0.0, 10.0002575, 9.999554 
2.8348312e+3, 2.5268215e+2, -550788.4, -548553.8, 98284.15, 0.010251748, -0.18553019, -451380.56, 12318.3955, 0.0, 9.999968, 9.999935 
2.8347224e+3, 2.626808e+2, -546043.2, -598281.8, 101077.97, 0.020382117, -0.21650557, -467764.34, -102053.766, 0.0, 9.999766, 9.999022 
2.8346133e+3, 2.7267966e+2, -459773.66, -521187.47, 65854.35, 0.031390697, -0.15480296, -417818.94, -150094.86, 0.0, 9.999752, 9.998885 
2.8345037e+3, 2.8267846e+2, -351431.06, -362993.34, 47430.926, 0.060611974, -0.118381195, -309430.28, -139693.48, 0.0, 9.999588, 9.999376 
2.8343937e+3, 2.926772e+2, -305787.56, -263687.9, 20634.701, 0.08928766, -0.14285256, -255260.84, -183512.72, 0.0, 9.999107, 9.9996195 
2.8342828e+3, 3.0267587e+2, -313737.9, -277663.53, 38558.137, 0.00599865, -0.15166755, -253132.3, -253132.3, 0.0, 9.998636, 9.999083 
2.8341722e+3, 3.1267446e+2, -308407.78, -229898.27, -21411.258, -0.019968605, -0.15005647, -224438.63, -224438.63, 0.0, 9.99824, 9.999268 
2.8340626e+3, 3.2267353e+2, -147270.19, 75731.27, -33561.727, 0.043002732, -0.14741203, 80672.81, 80672.81, 0.0, 9.998376, 10.001294 
2.8461412e+3, 1.3281119e+2, -1464407.0, -1767160.9, 10395.623, -0.0595783, -0.20564024, -1464050.4, 174379.84, 0.00000000032983427, 10.00248, 9.998446 
2.8460297e+3, 1.4280944e+2, -1333248.5, -1591348.5, 42165.445, -0.117263034, -0.18456545, -1326534.6, 213916.69, 0.0, 10.002436, 9.999003 
2.84592e+3, 1.5280828e+2, -1202748.6, -1444628.1, 74491.375, -0.08725666, -0.15859543, -1181648.3, 260814.27, 0.0, 10.00253, 9.999283 
2.8458112e+3, 1.6280702e+2, -1130381.0, -1387964.0, 60908.254, -0.025557632, -0.14236934, -1116704.8, 227770.25, 0.0, 10.00248, 9.999024 
2.845702e+3, 1.7280534e+2, -1104678.3, -1324449.1, 97762.44, -0.03487087, -0.1470671, -1067484.4, 179007.92, 0.0, 10.001993, 9.999015 
2.8455925e+3, 1.8280376e+2, -1046156.44, -1221065.6, 98624.43, -0.057311125, -0.15209192, -1001796.44, 146711.77, 0.0, 10.001617, 9.999233 
2.8454834e+3, 1.9280243e+2, -953691.94, -1109025.8, 98056.8, -0.047408793, -0.15647916, -906269.75, 144250.77, 0.0, 10.001513, 9.999378 
2.8453746e+3, 2.028011e+2, -889245.44, -1039940.0, 106946.516, -0.030578839, -0.16348709, -833769.25, 118763.73, 0.0, 10.001332, 9.9992695 
2.8452662e+3, 2.1279956e+2, -846487.1, -962421.4, 123939.98, -0.031440128, -0.18232626, -767628.44, 86918.836, 0.0, 10.000931, 9.999318 
2.8451577e+3, 2.2279805e+2, -818416.75, -959094.06, 111643.89, -0.03132988, -0.1821027, -756801.3, -238.98097, 0.0, 10.000712, 9.998775 
2.8450486e+3, 2.3279656e+2, -694643.6, -856325.4, 124508.55, -0.01719906, -0.13686888, -627033.75, 31545.635, 0.0, 10.000922, 9.998705 
2.8449398e+3, 2.427951e+2, -538138.25, -635858.7, 143611.66, 0.003942786, -0.1245813, -435302.66, 125291.984, 0.0, 10.000916, 9.999552 
2.844831e+3, 2.5279358e+2, -481797.16, -517185.0, 103791.12, 0.023922801, -0.19755425, -394202.56, 68403.836, 0.0, 10.000452, 9.999916 
2.844722e+3, 2.6279223e+2, -502643.63, -572135.75, 80195.86, 0.037504457, -0.22932938, -449990.25, -85372.18, 0.0, 10.000048, 9.999063 
2.8446126e+3, 2.727912e+2, -428975.94, -499454.34, 79171.78, 0.040042967, -0.16051267, -377555.03, -110924.66, 0.0, 9.999935, 9.998945 
2.8445026e+3, 2.8279012e+2, -339391.2, -362404.25, 68308.93, 0.061122317, -0.11735325, -281626.44, -112983.93, 0.0, 9.999689, 9.999335 
2.844392e+3, 2.9278874e+2, -301039.6, -270691.34, 32303.021, 0.08124828, -0.13887693, -250175.98, -179521.44, 0.0, 9.999182, 9.999536 
2.844281e+3, 3.0278745e+2, -305235.0, -306001.47, 72542.47, -0.0006518208, -0.13172866, -233074.75, -233074.75, 0.0, 9.998846, 9.998781 
2.8441703e+3, 3.12786e+2, -231670.28, -238962.3, 68005.87, -0.018929804, -0.09294301, -167212.77, -167212.77, 0.0, 9.998977, 9.998848 
2.8440604e+3, 3.2278433e+2, -112954.79, 179357.89, 20275.299, 0.04887706, -0.1659024, 180757.52, 180757.52, 0.0, 9.998237, 10.002075 
2.8561428e+3, 1.329221e+2, -1389591.8, -1621682.0, 5900.9585, -0.06993766, -0.20333277, -1389441.9, 247903.67, 0.0, 10.002525, 9.99942 
2.8560317e+3, 1.4292155e+2, -1328229.8, -1588075.3, 41517.164, -0.12176375, -0.12243745, -1321757.5, 217594.28, 0.0, 10.002467, 9.99901 
2.855922e+3, 1.529194e+2, -1225792.6, -1490001.6, 78636.62, -0.114297256, -0.17097406, -1204159.4, 237213.86, 0.0, 10.002517, 9.99898 
2.855813e+3, 1.6291761e+2, -1116573.4, -1346563.4, 48068.164, -0.05026389, -0.20090961, -1106931.4, 236459.3, 0.0, 10.002423, 9.999336 
2.8557035e+3, 1.7291664e+2, -1074089.8, -1256859.9, 78295.35, -0.001728112, -0.18162988, -1045136.2, 200263.45, 0.0, 10.001974, 9.999489 
2.855594e+3, 1.8291545e+2, -1057865.0, -1245253.1, 90183.6, -0.0038312858, -0.1706446, -1021514.2, 125896.875, 0.0, 10.001616, 9.999069 
2.8554842e+3, 1.9291376e+2, -977299.25, -1160364.4, 95010.27, -0.05132781, -0.17919229, -936903.2, 112525.234, 0.0, 10.001519, 9.999024 
2.855375e+3, 2.0291232e+2, -884522.9, -1028371.6, 94980.836, -0.06404156, -0.17629021, -837306.7, 114136.18, 0.0, 10.001324, 9.999353 
2.8552666e+3, 2.1291141e+2, -833182.4, -935435.0, 108732.65, -0.02812692, -0.15259796, -764155.94, 89295.75, 0.0, 10.000933, 9.999503 
2.855158e+3, 2.2291027e+2, -781418.2, -880505.75, 114802.83, -0.012098159, -0.1490866, -705924.9, 49537.81, 0.0, 10.000702, 9.99932 
2.8550488e+3, 2.3290855e+2, -649030.25, -763754.94, 132926.7, -0.02147826, -0.18755826, -561617.1, 95861.875, 0.0, 10.000929, 9.999339 
2.85494e+3, 2.4290706e+2, -574400.6, -716168.1, 130956.11, -0.008703296, -0.19471766, -496375.0, 63118.906, 0.0, 10.000935, 9.998992 
2.854831e+3, 2.5290596e+2, -545195.06, -650542.3, 83867.08, 0.047003843, -0.13938107, -498832.3, -37326.316, 0.0, 10.000457, 9.999 
2.8547215e+3, 2.629047e+2, -485283.2, -539993.8, 71514.96, 0.06485185, -0.116486005, -436070.2, -72551.055, 0.0, 10.000062, 9.999278 
2.8546116e+3, 2.7290303e+2, -390649.9, -422639.6, 75221.625, 0.0068850345, -0.16013665, -329741.38, -64206.543, 0.0, 9.999945, 9.99947 
2.8545013e+3, 2.8290147e+2, -340305.3, -366037.4, 50471.03, 0.008114227, -0.19513798, -301086.22, -133536.53, 0.0, 9.999694, 9.99931 
2.854391e+3, 2.929e+2, -315984.25, -299311.56, 11943.829, 0.11449394, -0.2115196, -293082.56, -223518.94, 0.0, 9.999169, 9.999347 
2.8542796e+3, 3.028991e+2, -275682.38, -249995.73, 74575.61, 0.057834253, -0.16448794, -187165.6, -187165.6, 0.0, 9.998868, 9.999156 
2.854168e+3, 3.128994e+2, -190851.81, -167969.3, 81986.125, -0.094165474, 0.00311185, -96629.96, -96629.96, 0.0, 9.999036, 9.999309 
2.8540584e+3, 3.2289612e+2, -194140.64, 24722.385, -88954.84, 0.08908481, -0.21829467, 56316.477, 56316.477, 0.0, 9.99816, 10.001057 
2.8661448e+3, 1.3303365e+2, -1336439.8, -1582992.3, 16177.506, -0.081624985, -0.16850783, -1335382.8, 300870.78, 0.0, 10.002828, 9.999542 
2.866034e+3, 1.4303249e+2, -1315624.6, -1560489.1, 28962.885, -0.07845568, -0.16268072, -1312245.5, 226018.42, 0.0, 10.0024605, 9.999201 
2.865924e+3, 1.5303081e+2, -1283268.1, -1496214.5, 92576.38, -0.09879801, -0.18301377, -1248649.4, 191630.9, 0.0, 10.002033, 9.9991665 
2.8658146e+3, 1.6302933e+2, -1218298.8, -1390279.3, 68655.305, -0.055569056, -0.1959388, -1194253.3, 148041.69, 0.0, 10.001705, 9.999379 
2.8657046e+3, 1.7302826e+2, -1136173.9, -1287424.4, 68278.75, -0.005922433, -0.18482514, -1109911.1, 134393.84, 0.0, 10.001552, 9.999482 
2.865595e+3, 1.8302703e+2, -1069659.1, -1239367.9, 77221.86, -0.0029037516, -0.18223798, -1039781.3, 106535.516, 0.0, 10.001483, 9.999175 
2.8654853e+3, 1.9302534e+2, -966825.1, -1142269.8, 113391.984, -0.04784216, -0.2025756, -911184.44, 137149.36, 0.0, 10.001537, 9.999138 
2.865376e+3, 2.0302396e+2, -860642.1, -1012673.6, 120854.43, -0.06420847, -0.20057318, -793884.7, 156462.98, 0.0, 10.001474, 9.999385 
2.8652668e+3, 2.1302328e+2, -801635.3, -920871.8, 117460.234, -0.03902901, -0.15264146, -729529.44, 122825.57, 0.0, 10.001156, 9.999494 
2.8651583e+3, 2.2302231e+2, -737826.6, -835090.9, 118589.4, -0.018236678, -0.13821541, -658284.94, 96079.6, 0.0, 10.000899, 9.9995365 
2.8650492e+3, 2.3302063e+2, -654690.0, -737483.44, 112135.44, -0.012606254, -0.20100753, -576554.1, 79825.43, 0.0, 10.000767, 9.999597 
2.8649402e+3, 2.4301918e+2, -621941.4, -743660.75, 99007.6, 0.0036800497, -0.21814372, -566584.0, -8190.4214, 0.0, 10.000632, 9.998947 
2.8648308e+3, 2.530182e+2, -548139.9, -668651.3, 104031.76, 0.042361334, -0.1371709, -488173.47, -27767.822, 0.0, 10.000513, 9.998847 
2.864721e+3, 2.63017e+2, -449180.4, -518946.13, 123593.96, 0.054296304, -0.09796208, -355641.0, 6777.9106, 0.0, 10.000295, 9.9993105 
2.8646109e+3, 2.730153e+2, -382502.4, -411885.47, 92794.89, 0.0021083853, -0.15292408, -303243.25, -38808.336, 0.0, 9.999974, 9.999529 
2.8645006e+3, 2.8301358e+2, -333730.47, -373930.84, 44668.06, 0.011276897, -0.19797379, -304848.5, -138397.78, 0.0, 9.999795, 9.999202 
2.86439e+3, 2.930119e+2, -192306.48, -255701.02, 13530.854, 0.112561874, -0.22096886, -189539.27, -121072.32, 0.0, 10.0000925, 9.999199 
2.8642783e+3, 3.0301097e+2, -109048.69, -141695.44, 62923.113, 0.05705275, -0.18032686, -60366.137, -60366.137, 0.0, 9.999891, 9.999411 
2.8641668e+3, 3.130116e+2, -211335.05, -141432.64, 56329.48, -0.065581806, -0.015594094, -110092.086, -110092.086, 0.0, 9.998743, 9.999632 
2.8640565e+3, 3.2300818e+2, -122004.586, -11467.069, -95496.84, 0.099356785, -0.24850835, 43601.305, 43601.305, 0.0, 9.998975, 10.000411 
2.876147e+3, 1.3314562e+2, -1362785.3, -1637340.9, 4140.4937, -0.08840984, -0.11194096, -1362722.9, 272433.7, 0.0, 10.0028305, 9.999165 
2.8760365e+3, 1.4314272e+2, -1291966.9, -1509657.6, 17038.125, -0.014425033, -0.2721542, -1290641.4, 246541.33, 0.0, 10.002454, 9.999553 
2.8759256e+3, 1.531425e+2, -1245040.9, -1420729.0, 75663.41, -0.06369029, -0.19749968, -1216947.3, 222236.92, 0.0, 10.002048, 9.999679 
2.8758153e+3, 1.6314183e+2, -1231001.5, -1421429.1, 58388.984, -0.05315722, -0.14949897, -1214524.0, 126666.77, 0.0, 10.001724, 9.999157 
2.8757054e+3, 1.7314015e+2, -1161202.1, -1344692.6, 63359.742, -0.03869386, -0.16202886, -1141450.1, 101758.24, 0.0, 10.001573, 9.999081 
2.8755954e+3, 1.8313858e+2, -1045967.06, -1189959.4, 79058.83, -0.043177795, -0.1837423, -1011034.5, 134189.52, 0.0, 10.001482, 9.999516 
2.875486e+3, 1.9313714e+2, -932652.8, -1068887.5, 115088.23, -0.03893904, -0.22756802, -867034.3, 180202.28, 0.0, 10.001526, 9.999648 
2.875377e+3, 2.0313592e+2, -868810.56, -1023196.7, 109938.38, -0.041737046, -0.23813719, -811671.1, 137576.98, 0.0, 10.001446, 9.999328 
2.8752673e+3, 2.1313518e+2, -815769.7, -950237.25, 104939.27, -0.06708281, -0.17953731, -758373.5, 92883.91, 0.0, 10.001152, 9.999296 
2.875158e+3, 2.2313422e+2, -746811.4, -851331.3, 112138.32, -0.06092555, -0.1479624, -675353.5, 77914.27, 0.0, 10.000887, 9.999432 
2.8750494e+3, 2.3313278e+2, -662712.1, -753155.56, 107134.836, 0.010085919, -0.1773338, -591645.94, 63635.137, 0.0, 10.000763, 9.999492 
2.8749406e+3, 2.4313143e+2, -586443.75, -670201.94, 94515.086, 0.042678557, -0.19843733, -524945.06, 32348.771, 0.0, 10.000632, 9.999453 
2.8748304e+3, 2.5313026e+2, -503337.84, -578358.2, 99463.68, 0.002933953, -0.19793944, -434546.38, 24759.068, 0.0, 10.000522, 9.999464 
2.87472e+3, 2.6312912e+2, -462207.72, -551561.2, 112619.53, -0.012648177, -0.17897974, -385726.84, -24409.535, 0.0, 10.000317, 9.999077 
2.8746104e+3, 2.73128e+2, -416370.47, -480951.9, 78154.195, 0.029642802, -0.13324505, -364098.97, -100768.664, 0.0, 9.999968, 9.999058 
2.8745002e+3, 2.831266e+2, -340834.38, -395679.53, 49466.543, 0.067299, -0.11447788, -311697.8, -146352.83, 0.0, 9.999822, 9.999042 
2.874389e+3, 2.9312468e+2, -189125.42, -266404.63, 29242.979, 0.058991943, -0.15230756, -179307.1, -111943.5, 0.0, 10.000163, 9.999094 
2.874277e+3, 3.031231e+2, -94797.03, -124008.07, 21785.027, -0.0071368585, -0.17373785, -83174.54, -83174.54, 0.0, 9.999946, 9.999505 
2.8741664e+3, 3.1312218e+2, -217557.5, -135185.55, 7515.551, 0.09036923, -0.17243315, -134505.45, -134505.45, 0.0, 9.998668, 9.999708 
2.8740543e+3, 3.231213e+2, -106338.85, 7983.194, 28617.807, 0.036165275, -0.16822338, 14746.825, 14746.825, 0.0, 9.999036, 10.000512 
2.8861493e+3, 1.3325761e+2, -1398415.5, -1666230.8, 24817.162, -0.0718943, -0.10912629, -1396135.1, 237922.33, 0.0, 10.00263, 9.999067 
2.8860384e+3, 1.4325422e+2, -1324132.0, -1531663.9, 37233.62, 0.007029467, -0.30847862, -1317654.1, 218434.97, 0.0, 10.002259, 9.9994955 
2.8859273e+3, 1.5325418e+2, -1263889.5, -1439283.8, 61560.36, -0.038364466, -0.20763706, -1244439.8, 193649.39, 0.0, 10.00196, 9.999593 
2.885817e+3, 1.632536e+2, -1220975.6, -1406674.3, 38262.125, -0.03280601, -0.14989182, -1213400.9, 126694.0, 0.0, 10.00175, 9.999247 
2.8857064e+3, 1.7325178e+2, -1138215.0, -1321168.6, 75231.77, -0.039975762, -0.18752383, -1111252.6, 130860.555, 0.0, 10.001677, 9.99919 
2.8855962e+3, 1.8325026e+2, -1037723.25, -1178129.5, 101215.266, -0.05417324, -0.21280009, -984747.56, 159380.88, 0.0, 10.001505, 9.999583 
2.885487e+3, 1.9324929e+2, -985287.25, -1087430.9, 106013.1, -0.035969306, -0.21584928, -918685.3, 127452.09, 0.0, 10.001137, 9.999706 
2.8853777e+3, 2.0324829e+2, -939686.7, -1051386.8, 88940.9, -0.027179161, -0.21027386, -890514.3, 57632.785, 0.0, 10.000933, 9.999382 
2.8852677e+3, 2.1324724e+2, -830762.5, -952008.6, 99924.23, -0.062708676, -0.18717878, -774509.56, 75649.26, 0.0, 10.001027, 9.999344 
2.885158e+3, 2.2324616e+2, -729953.4, -838676.3, 118455.15, -0.06715948, -0.17182222, -653981.44, 98188.68, 0.0, 10.000985, 9.999471 
2.8850496e+3, 2.3324497e+2, -674291.5, -754398.0, 120316.42, -0.0019489378, -0.17961752, -587536.6, 66644.77, 0.0, 10.000667, 9.999528 
2.8849408e+3, 2.4324381e+2, -593310.9, -645673.1, 112019.13, 0.035025917, -0.19051966, -504454.03, 51738.164, 0.0, 10.000466, 9.9997 
2.8848302e+3, 2.5324276e+2, -483331.78, -537642.3, 90856.43, -0.00064709067, -0.20760037, -415659.3, 42543.0, 0.0, 10.000529, 9.999738 
2.88472e+3, 2.6324174e+2, -432042.8, -523332.75, 93062.99, -0.011241626, -0.20006025, -374033.63, -13820.753, 0.0, 10.000476, 9.999187 
2.88461e+3, 2.732407e+2, -380305.28, -460614.22, 90996.78, 0.033927407, -0.15029834, -320997.22, -58772.184, 0.0, 10.000211, 9.999074 
2.8844994e+3, 2.8323945e+2, -330095.13, -377741.3, 104058.48, 0.073946655, -0.118371785, -247167.55, -82929.14, 0.0, 9.999844, 9.99915 
2.8843886e+3, 2.932379e+2, -240320.61, -295900.6, 111949.125, 0.061251376, -0.122396804, -152763.78, -86509.89, 0.0, 9.999841, 9.9990425 
2.8842765e+3, 3.0323616e+2, -104573.11, -158190.4, 59470.426, -0.008566561, -0.14619263, -66148.06, -66148.06, 0.0, 10.000014, 9.999236 
2.8841648e+3, 3.1323394e+2, -60397.793, -120641.19, -3864.392, 0.07473615, -0.22987306, -60150.918, -60150.918, 0.0, 10.000024, 9.999164 
2.8840533e+3, 3.232337e+2, 4094.1306, 20929.197, 32639.115, 0.05922681, -0.1022438, 46218.734, 46218.734, 0.0, 9.999958, 10.000177 
2.8961512e+3, 1.3336965e+2, -1407690.0, -1661112.0, 1873.4503, -0.049587626, -0.14119467, -1407676.1, 225280.56, 0.0, 10.002534, 9.999144 
2.89604e+3, 1.4336665e+2, -1351797.4, -1588144.9, 22284.13, -0.0027637107, -0.29163757, -1349714.8, 185271.48, 0.0, 10.002257, 9.999108 
2.8959286e+3, 1.5336594e+2, -1296413.4, -1513148.1, 50065.586, -0.018540915, -0.21074289, -1285407.3, 151586.88, 0.0, 10.001986, 9.999074 
2.8958184e+3, 1.6336492e+2, -1194458.3, -1356573.5, 35854.145, 0.00071109197, -0.18100272, -1186882.6, 152121.5, 0.0, 10.00177, 9.999581 
2.8957075e+3, 1.7336324e+2, -1101838.3, -1247286.9, 72485.92, -0.021315914, -0.25463054, -1071883.3, 169135.89, 0.0, 10.001683, 9.999696 
2.8955972e+3, 1.8336204e+2, -1053162.6, -1208168.3, 88344.72, -0.050545223, -0.26796788, -1013143.2, 129887.66, 0.0, 10.001495, 9.999381 
2.8954875e+3, 1.9336173e+2, -1006821.6, -1135252.6, 92459.86, -0.04036773, -0.1711451, -958465.1, 86571.09, 0.0, 10.001147, 9.999374 
2.895378e+3, 2.03361e+2, -928368.1, -1027918.8, 90267.516, -0.025578031, -0.12619919, -875061.9, 71982.695, 0.0, 10.000933, 9.999544 
2.8952685e+3, 2.1335945e+2, -811591.4, -912389.75, 104105.41, -0.028696463, -0.17965758, -746327.25, 102732.06, 0.0, 10.001027, 9.999617 
2.8951588e+3, 2.2335811e+2, -721241.3, -817029.9, 109013.42, -0.042543966, -0.21240345, -650065.1, 101006.695, 0.0, 10.000969, 9.999627 
2.8950492e+3, 2.333572e+2, -664169.4, -732645.5, 108224.44, -0.05486646, -0.20601843, -584896.3, 68184.07, 0.0, 10.000662, 9.9996805 
2.8949398e+3, 2.433564e+2, -596096.06, -652538.75, 110765.79, -0.034415204, -0.19063504, -510012.97, 45075.527, 0.0, 10.000469, 9.999652 
2.8948307e+3, 2.533557e+2, -489927.75, -551255.94, 92391.84, 0.036699183, -0.16136795, -423244.3, 33852.07, 0.0, 10.000529, 9.999645 
2.8947207e+3, 2.6335478e+2, -392867.72, -446905.3, 85949.72, 0.059938766, -0.16072665, -329790.06, 29316.072, 0.0, 10.000495, 9.999702 
2.8946093e+3, 2.7335328e+2, -339870.4, -380201.38, 77128.56, 0.004901051, -0.21361825, -280314.75, -19195.068, 0.0, 10.000222, 9.999621 
2.8944984e+3, 2.833521e+2, -298857.9, -318572.5, 91770.34, 0.020368358, -0.22479889, -216416.98, -53285.996, 0.0, 9.999864, 9.999549 
2.8943884e+3, 2.9335162e+2, -245296.3, -293115.2, 125510.76, 0.13479207, -0.14272165, -141437.94, -76300.79, 0.0, 9.999794, 9.999077 
2.894276e+3, 3.033502e+2, -157844.63, -261640.88, 66604.95, 0.036601022, -0.10454791, -125305.586, -125305.586, 0.0, 9.9999895, 9.998533 
2.8941616e+3, 3.1334668e+2, -140087.2, -301309.3, -1645.6453, -0.167544, -0.21827379, -140070.4, -140070.4, 0.0, 10.000097, 9.997888 
2.8940544e+3, 3.2334402e+2, -79338.74, -157873.75, 24301.56, 0.25390562, -0.17524341, -72427.21, -72427.21, 0.0, 9.999977, 9.998945 
2.9061535e+3, 1.334809e+2, -1517545.6, -1703237.9, -35050.047, 0.015798373, -0.17137727, -1511150.0, 120716.36, 0.0, 10.001725, 9.9992485 
2.906041e+3, 1.4347892e+2, -1366068.1, -1579085.4, -13026.127, -0.03492605, -0.23452783, -1365274.5, 168612.48, 0.0, 10.002088, 9.999254 
2.9059303e+3, 1.5347773e+2, -1284760.9, -1493647.1, 47109.516, -0.024921583, -0.21498635, -1274628.0, 161270.83, 0.0, 10.002005, 9.999199 
2.9058197e+3, 1.6347654e+2, -1173263.4, -1328552.4, 49809.44, 0.01541499, -0.21255688, -1158660.1, 179249.61, 0.0, 10.001838, 9.999741 
2.9057088e+3, 1.7347544e+2, -1106437.1, -1229777.1, 65872.84, -0.0017440424, -0.24522968, -1077871.8, 162047.31, 0.0, 10.001566, 9.999872 
2.9055983e+3, 1.8347451e+2, -1071914.5, -1219356.4, 75557.26, -0.03533238, -0.24135019, -1040071.8, 101856.445, 0.0, 10.001374, 9.999365 
2.905488e+3, 1.9347392e+2, -986524.94, -1132563.6, 95494.22, -0.049530994, -0.1682335, -939332.06, 104604.93, 0.0, 10.001315, 9.999313 
2.9053783e+3, 2.0347308e+2, -884536.8, -995943.06, 105518.84, -0.04077509, -0.13513263, -820920.75, 125025.89, 0.0, 10.001183, 9.999643 
2.905269e+3, 2.134717e+2, -818798.75, -899519.8, 109995.93, -0.016356485, -0.1831386, -741992.4, 105966.586, 0.0, 10.000906, 9.9997635 
2.9051593e+3, 2.2347051e+2, -759168.6, -821029.25, 103798.766, -0.018312661, -0.21557988, -681789.8, 68179.875, 0.0, 10.000646, 9.999757 
2.905049e+3, 2.3346965e+2, -691569.9, -728928.5, 100452.26, -0.060793, -0.21735185, -608074.94, 43902.695, 0.0, 10.0004, 9.999833 
2.9049394e+3, 2.43469e+2, -628713.6, -658092.3, 117720.78, -0.053534508, -0.20054129, -524769.25, 29215.305, 0.0, 10.000205, 9.99974 
2.9048303e+3, 2.5346854e+2, -534804.06, -556928.9, 115015.39, 0.03355309, -0.15747644, -430320.28, 25670.344, 0.0, 10.0001545, 9.999785 
2.9047203e+3, 2.6346785e+2, -435007.13, -424943.06, 107297.84, 0.060621645, -0.154211, -322559.3, 35438.527, 0.0, 10.000026, 10.000079 
2.9046082e+3, 2.7346662e+2, -358349.9, -331657.28, 81927.23, -0.016372262, -0.2274809, -261996.4, -1988.5878, 0.0, 9.99985, 10.000131 
2.9044974e+3, 2.8346574e+2, -260178.4, -264467.72, 105870.625, 0.012540409, -0.2535899, -156430.72, 5585.205, 0.0, 9.999993, 9.999849 
2.9043874e+3, 2.9346564e+2, -221623.66, -212276.31, 120412.28, 0.14467114, -0.1697465, -96447.03, -32428.557, 0.0, 9.999667, 9.99969 
2.9161555e+3, 1.3359174e+2, -1507101.1, -1681794.4, -11552.868, 0.09987126, -0.19141847, -1506340.4, 124441.51, 0.0, 10.001733, 9.99939 
2.916042e+3, 1.4359106e+2, -1337646.9, -1507384.9, -8728.115, -0.086584866, -0.1522209, -1337199.3, 195590.72, 0.0, 10.002034, 9.999771 
2.915931e+3, 1.535895e+2, -1253099.5, -1415321.5, 42835.54, -0.053174272, -0.22551271, -1242483.3, 192320.2, 0.0, 10.001948, 9.999765 
2.9158208e+3, 1.6358843e+2, -1181090.8, -1332260.5, 39461.746, 0.011511178, -0.24436261, -1171409.6, 165403.1, 0.0, 10.001783, 9.999742 
2.91571e+3, 1.735883e+2, -1113092.6, -1241864.1, 55988.473, 0.018609967, -0.17289929, -1092154.1, 146659.9, 0.0, 10.001556, 9.999794 
2.915599e+3, 1.835876e+2, -1063898.3, -1202243.4, 72825.83, -0.014374524, -0.14871585, -1032629.6, 108191.83, 0.0, 10.001372, 9.999483 
2.9154885e+3, 1.9358586e+2, -977114.5, -1110909.3, 93290.08, -0.06587532, -0.20485917, -929215.1, 113624.56, 0.0, 10.001305, 9.999467 
2.9153788e+3, 2.0358458e+2, -886925.2, -994837.7, 96279.625, -0.074985296, -0.22599949, -830513.7, 114339.13, 0.0, 10.001156, 9.999664 
2.9152694e+3, 2.1358404e+2, -818378.75, -896690.0, 99504.766, -0.02704099, -0.1922094, -750602.8, 96254.836, 0.0, 10.000896, 9.999788 
2.9151595e+3, 2.2358331e+2, -754383.5, -807374.75, 94433.45, -0.0042078197, -0.18351266, -682799.06, 66064.98, 0.0, 10.000628, 9.999859 
2.9150492e+3, 2.3358227e+2, -680466.0, -705875.06, 90842.234, -0.018642033, -0.21598327, -601444.2, 49429.234, 0.0, 10.000399, 9.999993 
2.9149392e+3, 2.4358153e+2, -611211.06, -623596.06, 114514.65, -0.026868802, -0.22504325, -502721.63, 50159.137, 0.0, 10.000213, 9.999972 
2.9148293e+3, 2.5358123e+2, -510446.38, -504053.2, 112909.234, -0.022085708, -0.19831428, -394295.3, 60589.637, 0.0, 10.000146, 10.000151 
2.9147187e+3, 2.6358098e+2, -421482.38, -401858.1, 98841.18, -0.02801397, -0.1795041, -312343.22, 44544.746, 0.0, 10.000041, 10.000233 
2.9146075e+3, 2.7358076e+2, -330427.16, -276995.66, 73536.34, -0.030812742, -0.17977038, -225472.52, 33416.805, 0.0, 9.999857, 10.000506 
2.914497e+3, 2.8358027e+2, -253174.58, -254589.9, 126656.44, 0.029856766, -0.18844979, -127223.83, 33670.01, 0.0, 10.000022, 9.999904 
2.914386e+3, 2.9357967e+2, -138776.98, -57249.414, 62603.652, 0.07343053, -0.20736481, -23307.754, 39593.242, 0.0, 9.999749, 10.000718 
2.9261568e+3, 1.3370286e+2, -1505558.3, -1662325.1, 12119.875, 0.105731085, -0.21821605, -1504626.8, 125066.37, 0.0, 10.001661, 9.999557 
2.9260436e+3, 1.4370288e+2, -1410382.5, -1517653.5, 205.22278, -0.06466475, -0.12880568, -1410382.1, 121312.59, 0.0, 10.001425, 9.999995 
2.925932e+3, 1.5370153e+2, -1349152.3, -1433990.4, 28578.475, -0.053018827, -0.2061378, -1340423.5, 93282.695, 0.0, 10.001168, 10.000013 
2.9258215e+3, 1.6370058e+2, -1279706.9, -1372017.3, 24523.625, 0.0037403742, -0.23096536, -1273596.4, 62117.887, 0.0, 10.001068, 9.999816 
2.9257107e+3, 1.7370042e+2, -1146850.5, -1252910.9, 48757.52, 0.019948676, -0.16646522, -1127842.5, 109873.27, 0.0, 10.001298, 9.999845 
2.9255998e+3, 1.8369974e+2, -1064282.8, -1191537.9, 62805.156, -0.0041442835, -0.14596602, -1038506.94, 101215.87, 0.0, 10.001315, 9.999586 
2.9254892e+3, 1.9369808e+2, -1015201.4, -1116228.4, 79269.28, -0.0482704, -0.2060581, -971719.0, 70021.03, 0.0, 10.000984, 9.999586 
2.9253793e+3, 2.0369692e+2, -931723.4, -994233.25, 89368.06, -0.06115104, -0.23193984, -868302.44, 75449.23, 0.0, 10.000751, 9.999866 
2.9252693e+3, 2.1369657e+2, -840584.2, -884423.4, 104172.664, -0.04155381, -0.19845296, -756050.0, 89704.26, 0.0, 10.000641, 9.999997 
2.9251593e+3, 2.2369602e+2, -756205.5, -797732.3, 110675.5, -0.02288584, -0.18678714, -664362.6, 83396.06, 0.0, 10.000567, 9.999956 
2.9250494e+3, 2.3369512e+2, -649729.9, -675744.7, 103481.46, -0.004923872, -0.21871732, -558441.5, 91325.45, 0.0, 10.000541, 10.0001335 
2.924939e+3, 2.4369441e+2, -579319.9, -601912.44, 119746.06, -0.0078088264, -0.23343128, -470338.44, 81435.28, 0.0, 10.000399, 10.000036 
2.9248285e+3, 2.5369406e+2, -506113.72, -486763.22, 99591.79, -0.0464521, -0.22286318, -396377.8, 57400.598, 0.0, 10.000103, 10.000294 
2.9247177e+3, 2.6369393e+2, -437277.56, -404601.7, 79663.93, -0.060107272, -0.20093574, -339617.63, 16162.488, 0.0, 9.999902, 10.000286 
2.9246068e+3, 2.736942e+2, -303779.7, -242641.23, 43233.23, -0.018076515, -0.16476563, -220261.52, 37515.93, 0.0, 9.999938, 10.000708 
2.9244965e+3, 2.8369403e+2, -282017.28, -243915.06, 104919.58, 0.053471234, -0.16700894, -156331.0, 3448.2253, 0.0, 9.999696, 10.000151 
2.9243845e+3, 2.936932e+2, -128033.336, -30048.77, -12526.669, 0.020936485, -0.2332489, -28472.67, 33315.58, 0.0, 9.9997, 10.000951 
2.9361573e+3, 1.3381416e+2, -1492120.3, -1634884.6, 8083.774, 0.061910287, -0.25246492, -1491664.0, 136937.98, 0.0, 10.001669, 9.999738 
2.936045e+3, 1.4381446e+2, -1407570.3, -1515173.8, -1752.2655, 0.0038990157, -0.14473864, -1407541.8, 123058.91, 0.0, 10.001441, 10.000004 
2.935933e+3, 1.5381369e+2, -1344448.9, -1429779.5, 21817.412, -0.03542759, -0.16415527, -1339194.3, 93413.35, 0.0, 10.001191, 10.000031 
2.9358217e+3, 1.6381283e+2, -1270736.5, -1354499.4, 33295.195, -0.010734438, -0.18761154, -1259114.5, 75500.83, 0.0, 10.001073, 9.999934 
2.935711e+3, 1.7381187e+2, -1141441.1, -1235144.1, 59699.465, 0.003245628, -0.21671581, -1112404.0, 124219.64, 0.0, 10.001269, 9.999981 
2.9356006e+3, 1.8381113e+2, -1064332.0, -1181535.5, 54247.273, -0.0035028944, -0.21420304, -1043078.0, 95552.96, 0.0, 10.001271, 9.999677 
2.93549e+3, 1.9381057e+2, -1009509.9, -1102267.5, 68331.234, -0.0038621456, -0.17414922, -973304.5, 67333.7, 0.0, 10.000974, 9.999688 
2.9353797e+3, 2.0380995e+2, -907994.3, -942390.8, 86205.83, -0.01587794, -0.16799355, -837287.94, 105356.56, 0.0, 10.000739, 10.000226 
2.9352692e+3, 2.1380925e+2, -814112.1, -828376.5, 99767.84, -0.061245523, -0.20716034, -721221.9, 123427.414, 0.0, 10.000636, 10.000385 
2.9351586e+3, 2.2380866e+2, -751642.44, -785422.06, 109854.12, -0.07354536, -0.22592969, -657387.3, 89266.29, 0.0, 10.000554, 10.000047 
2.935049e+3, 2.3380819e+2, -644525.3, -661685.44, 101546.62, -0.023687758, -0.22147273, -551196.94, 97460.95, 0.0, 10.000526, 10.0002365 
2.934939e+3, 2.4380764e+2, -587127.8, -619967.1, 109464.13, -0.0038688437, -0.22199987, -492858.72, 57804.723, 0.0, 10.000402, 9.999912 
2.934828e+3, 2.5380698e+2, -509918.72, -499547.16, 87826.664, -0.036252964, -0.22911258, -416753.3, 35917.76, 0.0, 10.000119, 10.000202 
2.9347172e+3, 2.638067e+2, -431971.06, -401490.75, 78879.83, -0.041910592, -0.21760269, -336392.3, 18282.078, 0.0, 9.999936, 10.00029 
2.9346067e+3, 2.7380693e+2, -299057.84, -238805.89, 44062.88, 0.018651396, -0.18814525, -215554.8, 41117.805, 0.0, 9.999967, 10.000716 
2.9344958e+3, 2.838069e+2, -233139.94, -171134.67, 81505.26, 0.06310897, -0.19459084, -114934.84, 43738.28, 0.0, 9.9998045, 10.000606 
2.934383e+3, 2.9380694e+2, -137210.81, -45122.49, 4262.4517, -0.040813763, -0.18846774, -44925.613, 15747.622, 0.0, 9.99968, 10.000857 
2.946158e+3, 1.3392685e+2, -1483398.5, -1633203.4, 36715.93, 0.009966977, -0.22773091, -1474883.6, 152613.36, 0.0, 10.001728, 9.999729 
2.9460457e+3, 1.439263e+2, -1411159.3, -1524017.8, 25632.627, 0.006420439, -0.19987674, -1405610.4, 123893.06, 0.0, 10.001446, 9.999942 
2.9459336e+3, 1.53926e+2, -1343215.4, -1440042.5, 40225.12, -0.009913044, -0.1640296, -1328685.0, 102821.8, 0.0, 10.001244, 9.999938 
2.9458225e+3, 1.6392523e+2, -1283615.5, -1359646.0, 51624.258, 0.016609091, -0.17126453, -1257519.6, 75994.38, 0.0, 10.000977, 9.999948 
2.9457116e+3, 1.7392394e+2, -1216758.1, -1265139.9, 75594.47, 0.0037204814, -0.23790601, -1161578.3, 73947.164, 0.0, 10.00072, 10.000043 
2.9456007e+3, 1.8392314e+2, -1147941.4, -1198492.4, 71141.9, -0.016433258, -0.2531198, -1097718.4, 39814.465, 0.0, 10.000593, 9.999889 
2.9454902e+3, 1.9392298e+2, -1032892.0, -1091913.3, 91707.19, -0.0033462653, -0.19252759, -966064.25, 73471.46, 0.0, 10.000711, 9.999889 
2.94538e+3, 2.0392264e+2, -907706.44, -940489.06, 102403.42, -0.0021007815, -0.17070967, -820390.8, 121148.55, 0.0, 10.000722, 10.000254 
2.9452693e+3, 2.1392192e+2, -835935.3, -837596.75, 86567.93, -0.041450042, -0.21255961, -750194.1, 93350.734, 0.0, 10.000471, 10.000406 
2.9451588e+3, 2.2392136e+2, -777133.6, -798151.1, 89565.9, -0.061027326, -0.23017633, -697462.1, 48087.242, 0.0, 10.000371, 10.000054 
2.9450485e+3, 2.3392107e+2, -650781.56, -661099.06, 76195.2, -0.03985037, -0.2126775, -579570.7, 67981.45, 0.0, 10.000457, 10.000278 
2.9449385e+3, 2.439206e+2, -582274.6, -610542.44, 83861.85, -0.018900126, -0.21154702, -511363.97, 38192.773, 0.0, 10.000399, 9.999981 
2.944828e+3, 2.5391987e+2, -478188.2, -475672.06, 77441.305, -0.014096801, -0.23238692, -399478.6, 52085.457, 0.0, 10.000292, 10.000287 
2.944717e+3, 2.6391956e+2, -391506.97, -386275.8, 80713.01, -0.008706503, -0.2296782, -308136.03, 45431.49, 0.0, 10.000228, 10.000259 
2.9446062e+3, 2.7391958e+2, -261753.52, -239594.56, 40658.887, 0.024423718, -0.20553812, -208532.61, 47034.91, 0.0, 10.000289, 10.0005665 
2.9444948e+3, 2.8391927e+2, -175817.14, -145977.25, 42244.81, 0.047541164, -0.22721782, -116095.086, 41475.797, 0.0, 10.000204, 10.000581 
2.944382e+3, 2.939202e+2, -62106.004, -3604.285, -37242.645, -0.044713266, -0.13146125, 14501.242, 74063.79, 0.0, 10.000156, 10.000906 
2.9561582e+3, 1.3404031e+2, -1504812.0, -1652520.3, 17143.354, -0.054997645, -0.16881786, -1502848.4, 123536.09, 0.0, 10.001626, 9.999643 
2.9560462e+3, 1.4403833e+2, -1428622.6, -1545786.6, 19538.875, -0.038848635, -0.27699983, -1425450.1, 102953.98, 0.0, 10.001385, 9.999822 
2.9559347e+3, 1.5403837e+2, -1359156.8, -1467459.5, 32485.783, 0.02004731, -0.1878774, -1350159.9, 80244.75, 0.0, 10.001219, 9.9997635 
2.9558235e+3, 1.6403775e+2, -1289391.5, -1369161.4, 43050.207, 0.07232406, -0.16680095, -1270589.8, 61821.17, 0.0, 10.000965, 9.999888 
2.9557118e+3, 1.7403649e+2, -1211643.3, -1259570.8, 68437.72, 0.014117375, -0.2330845, -1163095.0, 71327.25, 0.0, 10.000741, 10.000072 
2.9556006e+3, 1.8403561e+2, -1124622.1, -1154486.9, 72601.555, -0.047142733, -0.27043217, -1065433.3, 70996.875, 0.0, 10.000612, 10.000182 
2.95549e+3, 1.9403532e+2, -1013962.94, -1050712.8, 95140.45, -0.040522445, -0.25332958, -935439.2, 102993.69, 0.0, 10.000704, 10.000176 
2.9553798e+3, 2.0403509e+2, -931163.1, -982610.1, 94483.04, -0.013240199, -0.22370848, -858964.5, 81470.96, 0.0, 10.000693, 9.999978 
2.9552695e+3, 2.1403463e+2, -859098.3, -884929.94, 74759.4, 0.012023349, -0.20720932, -796147.2, 46293.35, 0.0, 10.000465, 10.000085 
2.9551592e+3, 2.2403412e+2, -782155.94, -805854.6, 92674.555, -0.0026812146, -0.20038751, -700576.25, 43869.703, 0.0, 10.000359, 10.000007 
2.9550484e+3, 2.3403369e+2, -651294.06, -660790.5, 78200.51, -0.056276985, -0.19481361, -577697.75, 68752.14, 0.0, 10.00045, 10.000284 
2.954938e+3, 2.4403328e+2, -557967.75, -563040.44, 78075.97, -0.05474037, -0.20290206, -482386.94, 66066.52, 0.0, 10.000409, 10.000303 
2.9548278e+3, 2.5403282e+2, -455305.22, -429893.56, 74045.07, 0.017408835, -0.23133615, -367472.1, 82984.695, 0.0, 10.000298, 10.0006 
2.9547173e+3, 2.640326e+2, -392683.8, -394755.56, 81659.49, 0.031895738, -0.23331502, -312053.63, 40404.906, 0.0, 10.000253, 10.00019 
2.9546055e+3, 2.7403238e+2, -274547.5, -273909.16, 51639.184, -0.013748048, -0.21465075, -222588.16, 31872.615, 0.0, 10.000322, 10.000315 
2.9544938e+3, 2.8403145e+2, -202787.2, -220095.98, 31178.186, -0.02194746, -0.26303434, -179084.56, -22614.113, 0.0, 10.000273, 10.000043 
2.954382e+3, 2.9403183e+2, -54662.637, -4233.603, -26903.777, -0.018942386, -0.17093074, 7424.4316, 65891.914, 0.0, 10.000222, 10.000872 
2.966159e+3, 1.3415296e+2, -1535169.0, -1624551.1, -21524.213, -0.05552862, -0.15428029, -1530255.8, 95026.18, 0.0, 10.001238, 10.00002 
2.9660472e+3, 1.4415136e+2, -1492014.4, -1579077.8, 8693.301, 0.008019054, -0.23980482, -1491154.8, 36142.293, 0.0, 10.0009575, 9.999804 
2.9659352e+3, 1.5415086e+2, -1397356.6, -1482585.3, 28077.445, 0.013941824, -0.20858231, -1388938.4, 40363.76, 0.0, 10.000938, 9.999798 
2.9658234e+3, 1.6415027e+2, -1307944.9, -1380382.3, 51233.773, 0.054867625, -0.18776643, -1281420.5, 49887.24, 0.0, 10.000841, 9.999875 
2.9657125e+3, 1.7414947e+2, -1187079.0, -1261223.6, 74308.805, 0.03365169, -0.19565198, -1141108.3, 92206.305, 0.0, 10.00096, 9.99996 
2.965601e+3, 1.8414874e+2, -1089326.9, -1162665.8, 53590.664, -0.0042159157, -0.2037907, -1061061.0, 74260.46, 0.0, 10.000951, 9.9999695 
2.9654902e+3, 1.9414803e+2, -1034091.7, -1073957.8, 43690.082, -0.017731674, -0.2128848, -1006002.3, 31326.203, 0.0, 10.000614, 10.000064 
2.96538e+3, 2.0414741e+2, -970709.7, -1007991.94, 38757.16, -0.009457776, -0.21234156, -946343.7, -7008.751, 0.0, 10.0004425, 9.9999275 
2.9652694e+3, 2.1414699e+2, -849445.2, -874720.1, 42078.13, 0.0063574356, -0.19675504, -818147.75, 23191.922, 0.0, 10.000503, 10.000139 
2.9651588e+3, 2.241466e+2, -740497.2, -764200.6, 91359.48, -0.0012790932, -0.1897458, -660223.9, 83119.75, 0.0, 10.000546, 10.000205 
2.9650483e+3, 2.3414615e+2, -631107.56, -640016.25, 85815.516, -0.039000068, -0.20286678, -549630.9, 95716.71, 0.0, 10.00053, 10.000394 
2.964938e+3, 2.4414578e+2, -538775.75, -550497.6, 78236.76, -0.03942967, -0.2141985, -466180.7, 81169.82, 0.0, 10.000513, 10.000349 
2.9648277e+3, 2.541455e+2, -409630.0, -418443.6, 48099.83, 0.012089837, -0.22134158, -365735.53, 83616.945, 0.0, 10.000641, 10.000523 
2.964717e+3, 2.6414528e+2, -333228.94, -363585.56, 40492.3, 0.014513224, -0.21953581, -305163.7, 46190.344, 0.0, 10.000638, 10.000226 
2.964605e+3, 2.7414498e+2, -263924.7, -275400.2, 28952.9, -0.04717332, -0.21329792, -240146.48, 13210.267, 0.0, 10.0004225, 10.000259 
2.9644933e+3, 2.8414384e+2, -212206.42, -220971.4, 28434.035, -0.041487005, -0.28404662, -187819.13, -32451.283, 0.0, 10.0002, 10.00008 
2.964382e+3, 2.9414365e+2, -84538.71, -6636.463, 12201.584, 0.028831115, -0.23929209, -4770.0815, 52599.19, 0.0, 10.000001, 10.000964 
2.97616e+3, 1.3426517e+2, -1552910.6, -1572065.9, -54251.715, -0.014341139, -0.16067468, -1507397.6, 116787.586, 0.0, 10.000855, 10.000563 
2.9760486e+3, 1.4426489e+2, -1477993.8, -1568313.6, -3525.165, 0.113613375, -0.13805954, -1477856.4, 48330.273, 0.0, 10.0010395, 9.999837 
2.975935e+3, 1.5426314e+2, -1343089.8, -1435472.9, 9916.714, -0.02087916, -0.24690102, -1342037.3, 86164.875, 0.0, 10.001222, 9.999985 
2.975823e+3, 1.6426252e+2, -1263361.6, -1357844.0, 35875.54, -0.020581467, -0.2451412, -1251283.5, 78923.414, 0.0, 10.001144, 9.999883 
2.975713e+3, 1.7426266e+2, -1181577.9, -1282559.0, 71004.445, 0.05730277, -0.14344631, -1144942.5, 87262.164, 0.0, 10.001103, 9.9997425 
2.9756024e+3, 1.8426229e+2, -1126701.1, -1252669.0, 37873.71, 0.0962539, -0.072604, -1116190.9, 18017.94, 0.0, 10.001005, 9.999325 
2.975491e+3, 1.9426091e+2, -1057464.9, -1134705.0, 27055.318, 0.04920159, -0.09672626, -1048930.9, -12706.712, 0.0, 10.000668, 9.99962 
2.9753798e+3, 2.0425943e+2, -955091.0, -981461.56, 39692.203, -0.0069114366, -0.16122337, -926451.4, 11787.829, 0.0, 10.000468, 10.000097 
2.9752687e+3, 2.1425892e+2, -819705.3, -811652.44, 44110.906, -0.053039692, -0.19247746, -771384.56, 68858.27, 0.0, 10.000497, 10.000576 
2.9751584e+3, 2.2425885e+2, -716020.25, -705307.56, 91562.9, -0.04707509, -0.20049803, -618944.5, 123297.84, 0.0, 10.000511, 10.000627 
2.9750487e+3, 2.3425853e+2, -615791.56, -607502.2, 84827.67, 0.012204759, -0.23081444, -526718.0, 117526.086, 0.0, 10.000525, 10.000621 
2.9749385e+3, 2.4425825e+2, -559004.4, -592051.56, 79949.98, 0.014705037, -0.23376615, -493888.3, 52358.242, 0.0, 10.00051, 10.000065 
2.9748273e+3, 2.5425798e+2, -443798.38, -493226.47, 56010.324, -0.038874503, -0.19680274, -407292.0, 40958.64, 0.0, 10.000658, 10.0 
2.974716e+3, 2.642577e+2, -314941.97, -332276.25, 30235.742, -0.07158435, -0.182501, -292155.66, 58098.094, 0.0, 10.000666, 10.000428 
2.9746044e+3, 2.7425742e+2, -246015.17, -241186.84, 22912.393, -0.07897243, -0.1995835, -220561.78, 31693.281, 0.0, 10.000433, 10.000491 
2.9744932e+3, 2.8425664e+2, -158286.67, -113013.52, 18737.125, -0.02080527, -0.28219244, -106264.83, 47996.22, 0.0, 10.000233, 10.000803 
2.9743823e+3, 2.9425603e+2, -74868.05, 12249.358, 21390.197, 0.123704314, -0.33813325, 17217.979, 73481.664, 0.0, 10.000035, 10.001064 
2.9861593e+3, 1.3437755e+2, -1717828.9, -1697217.6, -17231.504, -0.03222082, -0.05459036, -1687445.1, -64361.156, 0.0, 9.999901, 10.000183 
2.9860488e+3, 1.4437625e+2, -1446205.6, -1557094.0, -59277.56, 0.08100361, -0.11474787, -1420484.0, 104611.98, 0.0, 10.001279, 9.999799 
2.9859364e+3, 1.5437478e+2, -1200055.8, -1379501.6, -38353.336, -0.022971177, -0.19048771, -1192202.1, 234906.22, 0.0, 10.002275, 9.999854 
2.9858243e+3, 1.6437331e+2, -1077456.8, -1264320.6, -90301.43, -0.03627794, -0.26586422, -1040950.75, 288170.44, 0.0, 10.00243, 9.999893 
2.9857126e+3, 1.7437238e+2, -1093994.0, -1220807.1, -38334.098, -0.06117998, -0.28769147, -1083306.8, 147823.19, 0.0, 10.001646, 9.999891 
2.985601e+3, 1.8437131e+2, -1048106.8, -1173827.5, -12053.574, -0.10258738, -0.31341773, -1046961.6, 86179.45, 0.0, 10.001394, 9.999665 
2.9854906e+3, 1.9437061e+2, -966436.3, -1076028.6, 12513.327, -0.03195517, -0.290193, -965025.7, 70123.91, 0.0, 10.001244, 9.999741 
2.98538e+3, 2.043707e+2, -865392.5, -908288.06, 56152.105, 0.024429545, -0.21700653, -826731.5, 110417.13, 0.0, 10.000961, 10.000362 
2.985269e+3, 2.1437086e+2, -846180.3, -822159.8, 31176.213, 0.005413544, -0.1905762, -800760.44, 38384.816, 0.0, 10.000302, 10.000601 
2.9851586e+3, 2.2437054e+2, -836822.4, -781964.25, 51630.746, -0.009576073, -0.2132591, -750928.9, -9781.8125, 0.0, 9.999752, 10.000471 
2.9850486e+3, 2.343702e+2, -651320.8, -619783.94, 34769.934, 0.01572441, -0.2435099, -597373.94, 45775.51, 0.0, 10.00026, 10.000666 
2.9849386e+3, 2.4437003e+2, -503239.2, -561414.1, 25080.656, 0.009130113, -0.24195153, -493919.38, 51231.742, 0.0, 10.000876, 10.000098 
2.9848272e+3, 2.5436983e+2, -428945.8, -484474.06, 31809.826, -0.059577417, -0.20484713, -414487.75, 32666.66, 0.0, 10.00075, 10.000017 
2.9847157e+3, 2.643696e+2, -341832.9, -329353.75, 17901.666, -0.072038725, -0.18919623, -316635.44, 32521.277, 0.0, 10.000403, 10.000583 
2.9846048e+3, 2.743694e+2, -283732.75, -246287.81, 3432.0632, -0.005495378, -0.21695152, -245975.83, 5181.777, 0.0, 10.000098, 10.000632 
2.984493e+3, 2.843691e+2, -136193.7, -91939.94, -11614.428, 0.025126982, -0.2599166, -89076.945, 64081.965, 0.0, 10.000334, 10.000928 
2.9843816e+3, 2.9436833e+2, 66298.586, 9276.319, -52925.664, 0.053772688, -0.32646748, 97904.09, 153068.5, 0.0, 10.001243, 10.00055 
2.996159e+3, 1.3448602e+2, -1616279.4, -1681752.6, -87621.7, -0.031466637, -0.22645476, -1555478.5, 66541.0, 0.0, 10.000774, 9.999851 
2.996049e+3, 1.4448501e+2, -1355194.1, -1464193.0, -43792.92, 0.019803207, -0.27944237, -1339779.3, 184250.64, 0.0, 10.001693, 10.000236 
2.995938e+3, 1.5448567e+2, -1577540.0, -1576634.3, 169311.27, 0.016401058, -0.14209741, -1407775.3, 18245.938, 0.0, 9.9997015, 9.999764 
2.9958257e+3, 1.6448471e+2, -1587411.1, -1526664.4, 75979.375, -0.022323953, -0.13791011, -1475212.3, -147182.67, 0.0, 9.99893, 9.999814 
2.9957154e+3, 1.7448348e+2, -1380388.9, -1331780.1, 90000.17, 0.16171691, -0.21169657, -1262860.5, -32818.125, 0.0, 9.999493, 10.000201 
2.9956028e+3, 1.8448378e+2, -1224711.0, -1160165.1, 61003.918, -0.006572695, -0.16722246, -1123423.4, 8616.247, 0.0, 9.999685, 10.000618 
2.9954916e+3, 1.944834e+2, -1106572.5, -1092286.9, 15430.333, 0.023632413, -0.17875955, -1082426.3, -48383.105, 0.0, 10.000002, 10.000255 
2.9953802e+3, 2.0448323e+2, -1009764.0, -969531.9, -8092.8994, -0.017185906, -0.18592909, -967964.94, -31920.729, 0.0, 9.999889, 10.000479 
2.9952675e+3, 2.1448223e+2, -857153.56, -876972.6, -24891.074, -0.11397518, -0.24656741, -840271.94, -2219.368, 0.0, 10.000417, 10.000177 
2.9951575e+3, 2.2448167e+2, -738076.9, -817618.8, 13975.393, -0.015121003, -0.22706833, -735692.9, 4364.926, 0.0, 10.000781, 9.999732 
2.9950485e+3, 2.3448174e+2, -689491.75, -654664.06, -7825.5996, 0.021383377, -0.18696804, -652986.5, -10928.374, 0.0, 10.000066, 10.000519 
2.9949382e+3, 2.4448116e+2, -471769.47, -500806.66, 6699.532, -0.02786128, -0.23551589, -470298.28, 73765.375, 0.0, 10.000897, 10.000503 
2.9948273e+3, 2.5448108e+2, -380354.56, -386130.16, 21995.135, -0.042780507, -0.24656233, -361058.47, 85004.4, 0.0, 10.000763, 10.000681 
2.9947165e+3, 2.644811e+2, -343117.44, -328449.47, 4542.066, 0.024416804, -0.24419166, -327156.88, 20904.936, 0.0, 10.00038, 10.000604 
2.9946062e+3, 2.744808e+2, -284928.72, -256284.19, -1060.4205, 0.18011844, -0.27434552, -256244.98, -6179.988, 0.0, 10.000115, 10.000562 
2.9944935e+3, 2.8448114e+2, -193831.11, -190361.84, 14604.748, 0.06701199, -0.22345091, -177389.08, -25325.68, 0.0, 10.000289, 10.000249 
2.9943788e+3, 2.9448193e+2, -1250.325, -95609.44, 9360.61, -0.27217883, -0.07000133, -330.69666, 53727.695, 0.0, 10.001161, 9.999839 
