coord_x,coord_y,stress_xx,stress_yy,tau_xy,velocity_x,velocity_y,stress_1,eps,damage,lx,ly
5.002297e+0, 1.23574555e+2, -1234466.9, -1725098.5, 8483.589, 0.01265395, -0.10454466, -1234320.3, 494637.16, 0.0000030290107, 10.004341, 9.997838 
5.0019956e+0, 1.3357179e+2, -1199928.0, -1658540.4, 9647.982, 0.0040787575, -0.16456231, -1199725.1, 431257.53, 0.0000007733968, 10.003909, 9.99783 
5.001763e+0, 1.4356983e+2, -1171162.5, -1606268.5, 10848.631, 0.0020004252, -0.1390072, -1170892.1, 362108.66, 0.00000004187606, 10.003487, 9.997718 
5.001594e+0, 1.5356746e+2, -1133400.8, -1539432.0, 10115.918, 0.0052995924, -0.14787138, -1133148.9, 301875.06, 0.0, 10.003082, 9.9977 
5.0014e+0, 1.6356504e+2, -1088368.4, -1456657.0, 8935.43, 0.0062774424, -0.16302474, -1088151.8, 248894.77, 0.0, 10.002674, 9.997792 
5.001163e+0, 1.7356259e+2, -1048685.8, -1384173.1, 7407.323, 0.003159901, -0.19005586, -1048522.25, 190544.8, 0.0, 10.002262, 9.997815 
5.0009346e+0, 1.8356006e+2, -1011325.06, -1320274.4, 6959.174, 0.00011301121, -0.22131959, -1011168.4, 129920.945, 0.0, 10.001867, 9.997771 
5.000723e+0, 1.9355746e+2, -966837.8, -1248151.0, 6493.549, -0.0026953858, -0.26176405, -966688.0, 76425.78, 0.0, 10.0015, 9.99777 
5.0005436e+0, 2.0355529e+2, -903730.56, -1140598.0, 7108.372, -0.0029954354, -0.26460958, -903517.44, 41618.063, 0.0, 10.001146, 9.998007 
5.000418e+0, 2.1355392e+2, -850576.2, -1058895.6, 8217.541, 0.0009536924, -0.206637, -850252.5, -3100.719, 0.0, 10.000816, 9.998054 
5.000246e+0, 2.2355261e+2, -757508.75, -888432.2, 8337.165, 0.0016261629, -0.17058317, -756980.0, -7813.472, 0.0, 10.00046, 9.998723 
4.9999967e+0, 2.3355144e+2, -709312.75, -800939.9, 9748.724, -0.0033282463, -0.17446269, -708287.0, -57109.266, 0.0, 10.000059, 9.998843 
4.9997705e+0, 2.4355042e+2, -655896.2, -700935.2, 9854.916, -0.0055571464, -0.16759227, -653834.25, -100645.98, 0.0, 9.999652, 9.999053 
4.9995866e+0, 2.5354975e+2, -615574.94, -625721.25, 8104.066, -0.003065301, -0.14755648, -611087.06, -155889.81, 0.0, 9.999234, 9.999098 
4.999403e+0, 2.635491e+2, -535743.25, -473842.84, 7315.2783, -0.0016959588, -0.14368509, -472990.1, -115785.56, 0.0, 9.99884, 9.999658 
4.999221e+0, 2.735487e+2, -481753.63, -385068.5, 5530.347, -0.002229436, -0.16089626, -384753.2, -125546.125, 0.0, 9.9984865, 9.999764 
4.9990225e+0, 2.8354853e+2, -410413.06, -253609.58, 2895.5503, -0.002960081, -0.17239475, -253556.13, -92349.836, 0.0000000005106852, 9.998104, 10.000178 
4.9987918e+0, 2.935485e+2, -372779.6, -180208.33, 2559.749, -0.004341846, -0.2011387, -180174.31, -116972.52, 0.000003227908, 9.99767, 10.000218 
4.9986085e+0, 3.0354744e+2, -394958.4, -179962.3, 4169.024, -0.0013210359, -0.3176415, -179881.48, -179881.48, 0.000038102575, 9.997244, 10.000091 
4.9985456e+0, 3.1354836e+2, -359013.38, -8779.456, 8204.901, 0.013148613, -0.24138519, -8587.346, -8587.346, 0.00014042419, 9.996828, 10.001467 
1.5006892e+1, 1.2357491e+2, -1231812.8, -1719467.0, -6894.503, 0.037934158, -0.1113356, -1231715.4, 497238.22, 0.0000026350635, 10.00434, 9.997877 
1.5005986e+1, 1.3357225e+2, -1196955.9, -1652312.9, -6655.8223, 0.012238843, -0.1669976, -1196858.5, 434119.44, 0.0000006315792, 10.003909, 9.997873 
1.500529e+1, 1.4357035e+2, -1172039.5, -1608054.8, -4517.107, 0.0060007093, -0.13577543, -1171992.8, 361002.8, 0.000000026713206, 10.003487, 9.997706 
1.5004782e+1, 1.5356803e+2, -1134921.5, -1542561.3, -5119.914, 0.015897462, -0.13766581, -1134857.1, 300161.2, 0.0, 10.003082, 9.997678 
1.50042e+1, 1.6356555e+2, -1090996.4, -1462102.4, -6557.8867, 0.018833525, -0.15513454, -1090880.5, 246160.92, 0.0, 10.002674, 9.997754 
1.5003489e+1, 1.735629e+2, -1051509.0, -1390030.6, -8098.272, 0.009479478, -0.19973655, -1051315.4, 187748.64, 0.0, 10.002262, 9.997775 
1.5002804e+1, 1.8356031e+2, -1012647.06, -1323020.1, -7085.8633, 0.00033914283, -0.23288308, -1012485.4, 128601.586, 0.0, 10.001867, 9.997752 
1.500217e+1, 1.9355793e+2, -967895.3, -1250344.6, -7294.1357, -0.008089436, -0.24827018, -967707.06, 75402.4, 0.0, 10.0015, 9.997756 
1.5001631e+1, 2.0355587e+2, -902190.9, -1137391.3, -5525.1133, -0.008986879, -0.2415421, -902061.2, 43069.168, 0.0, 10.001146, 9.998029 
1.5001252e+1, 2.1355437e+2, -848649.8, -1054874.3, -4220.468, 0.0028600784, -0.20072587, -848563.44, -1415.8827, 0.0, 10.000815, 9.998082 
1.5000738e+1, 2.2355293e+2, -754639.3, -882447.75, -6371.264, 0.0048764315, -0.18102026, -754322.5, -5159.343, 0.0, 10.00046, 9.998764 
1.499999e+1, 2.3355165e+2, -706302.4, -794668.0, -5347.2104, -0.00998869, -0.19904576, -705980.0, -54805.016, 0.0, 10.000059, 9.998886 
1.4999312e+1, 2.4355064e+2, -658224.75, -705749.75, -5803.4536, -0.016673477, -0.19200867, -657526.4, -104341.04, 0.0, 9.999652, 9.999021 
1.4998761e+1, 2.5355017e+2, -618813.8, -632420.25, -7630.31, -0.009197685, -0.14717805, -615394.25, -160201.56, 0.0, 9.999234, 9.999052 
1.499821e+1, 2.635496e+2, -539328.56, -481261.47, -6362.106, -0.005088394, -0.13083637, -480572.6, -123373.13, 0.0, 9.99884, 9.999607 
1.4997663e+1, 2.7354908e+2, -485438.56, -392693.1, -7749.978, -0.0066876756, -0.15718934, -392049.94, -132846.5, 0.0, 9.9984865, 9.999713 
1.4997067e+1, 2.835488e+2, -411196.78, -255210.5, -13041.513, -0.008883869, -0.17243817, -254127.66, -92924.2, 0.00000000036389677, 9.998104, 10.000168 
1.4996375e+1, 2.9354882e+2, -373049.4, -180750.1, -13748.214, -0.0130301425, -0.19502813, -179772.16, -116573.555, 0.0000031171262, 9.99767, 10.000215 
1.4995825e+1, 3.0354783e+2, -388629.28, -166798.78, -11606.902, -0.003954156, -0.31477034, -166193.11, -166193.11, 0.0000374169, 9.997244, 10.000181 
1.4995636e+1, 3.1354862e+2, -351699.22, 6465.584, -7292.6177, 0.039426092, -0.25719237, 6614.008, 6614.008, 0.00013856335, 9.996827, 10.001572 
2.5011304e+1, 1.2357564e+2, -1245718.6, -1722470.9, 6560.0, 0.050717585, -0.118839934, -1245628.4, 483317.88, 0.0000021395874, 10.00423, 9.99791 
2.5010002e+1, 1.3357306e+2, -1205846.5, -1652484.4, 5460.9365, 0.02661215, -0.16937733, -1205779.8, 425190.16, 0.00000046048822, 10.00383, 9.9979105 
2.500892e+1, 1.4357123e+2, -1177755.6, -1609337.9, 9167.018, 0.022424696, -0.13402571, -1177561.0, 355425.84, 0.000000012557311, 10.003441, 9.99772 
2.5007948e+1, 1.5356894e+2, -1135617.3, -1541862.5, 11001.951, 0.024583941, -0.13350314, -1135319.5, 299689.78, 0.0, 10.003073, 9.997687 
2.500692e+1, 1.6356644e+2, -1088936.8, -1466798.1, 10719.018, 0.021392066, -0.15301742, -1088633.0, 248399.78, 0.0, 10.002713, 9.997704 
2.50058e+1, 1.7356363e+2, -1040361.6, -1391486.8, 7710.981, 0.008846451, -0.20702502, -1040192.3, 198864.73, 0.0, 10.002369, 9.997714 
2.5004718e+1, 1.8356103e+2, -992875.1, -1310949.3, 8507.197, -0.0014023568, -0.23943564, -992647.75, 148432.55, 0.0, 10.001992, 9.997775 
2.5003707e+1, 1.9355887e+2, -956340.2, -1240648.9, 12060.009, -0.007456722, -0.23664029, -955829.5, 87271.336, 0.0, 10.001561, 9.997792 
2.5002787e+1, 2.0355688e+2, -904146.3, -1137397.3, 16162.358, -0.0071940217, -0.2236507, -903031.7, 42089.098, 0.0, 10.001129, 9.998037 
2.5002015e+1, 2.1355525e+2, -866029.2, -1062905.9, 15749.707, 0.0035758212, -0.19712076, -864777.2, -17638.219, 0.0, 10.000695, 9.998085 
2.500111e+1, 2.2355369e+2, -777893.44, -894753.75, 11691.233, 0.003791331, -0.18861069, -776735.3, -27579.92, 0.0, 10.000304, 9.9987545 
2.4999973e+1, 2.3355234e+2, -717458.6, -801412.0, 8682.302, -0.013970578, -0.21195531, -716570.1, -65402.305, 0.0, 9.999989, 9.998875 
2.4998909e+1, 2.4355134e+2, -654045.0, -701735.44, 7112.119, -0.023136307, -0.20452674, -653006.94, -99828.93, 0.0, 9.999672, 9.999039 
2.499797e+1, 2.53551e+2, -599956.7, -620780.2, 10323.55, -0.017487427, -0.14952533, -595706.2, -140522.13, 0.0, 9.999352, 9.999075 
2.4997035e+1, 2.6355046e+2, -521496.28, -477467.28, 13618.062, -0.013788289, -0.13101672, -473595.72, -116405.125, 0.0, 9.998983, 9.999564 
2.4996105e+1, 2.7354974e+2, -483259.84, -397737.22, 11964.192, -0.013136363, -0.1690146, -396095.03, -136898.9, 0.0, 9.998528, 9.999658 
2.4995108e+1, 2.835494e+2, -418460.28, -261526.06, 4572.5376, -0.013365804, -0.1863117, -261392.94, -100196.09, 0.00000000025082827, 9.998066, 10.000143 
2.499397e+1, 2.9354957e+2, -385183.72, -188804.08, 2463.1816, -0.016834887, -0.19430849, -188773.19, -125582.01, 0.000002969252, 9.997596, 10.0001955 
2.4993017e+1, 3.0354857e+2, -401027.44, -167285.47, 3146.0715, -0.0037283883, -0.30971438, -167243.14, -167243.14, 0.00003639656, 9.997135, 10.00023 
2.4992569e+1, 3.1354934e+2, -368288.63, 4951.2637, 4231.4727, 0.05703376, -0.26399234, 4999.23, 4999.23, 0.0001357669, 9.996686, 10.00163 
3.5015538e+1, 1.23576745e+2, -1243883.8, -1718603.0, -7695.312, 0.050884727, -0.12696767, -1243759.0, 485176.4, 0.000001598755, 10.004229, 9.997936 
3.5014033e+1, 1.3357425e+2, -1203725.8, -1648075.4, -9615.498, 0.047150213, -0.1716624, -1203517.8, 427440.53, 0.00000028566257, 10.00383, 9.99794 
3.501265e+1, 1.4357248e+2, -1175033.4, -1603706.8, -4863.8677, 0.051212978, -0.13369992, -1174978.3, 357996.47, 0.0000000033744145, 10.003441, 9.997758 
3.501109e+1, 1.535702e+2, -1132794.4, -1536011.0, -2861.234, 0.031321827, -0.13531755, -1132774.1, 302222.56, 0.0, 10.003073, 9.997727 
3.5009557e+1, 1.6356768e+2, -1093458.9, -1476180.6, -2381.7996, 0.013943861, -0.15661912, -1093444.1, 243576.36, 0.0, 10.002713, 9.99764 
3.500809e+1, 1.7356478e+2, -1046119.8, -1403410.8, -5239.2427, 0.0012562737, -0.211903, -1046043.0, 193003.06, 0.0, 10.002368, 9.997632 
3.5006672e+1, 1.8356219e+2, -988375.2, -1301578.1, -7263.5557, -0.005122598, -0.24097405, -988206.8, 152862.6, 0.0, 10.001992, 9.99784 
3.5005334e+1, 1.9356023e+2, -950107.8, -1227708.6, -4168.755, -0.0008123907, -0.22686826, -950045.2, 93042.73, 0.0, 10.001561, 9.997882 
3.5004008e+1, 2.0355833e+2, -904517.1, -1138171.9, -187.22261, 0.0023516254, -0.21092609, -904516.94, 40589.97, 0.0, 10.001129, 9.998032 
3.5002705e+1, 2.1355654e+2, -867536.2, -1066031.1, -622.34576, 0.0030713775, -0.19582582, -867534.25, -20408.275, 0.0, 10.000695, 9.998063 
3.5001358e+1, 2.235549e+2, -782192.9, -903648.2, -820.20483, -0.0016597629, -0.19334014, -782187.3, -33044.17, 0.0, 10.000304, 9.998693 
3.4999952e+1, 2.3355351e+2, -722221.4, -811270.06, -3181.414, -0.015297969, -0.21319725, -722107.9, -70951.67, 0.0, 9.999989, 9.998807 
3.4998563e+1, 2.4355252e+2, -649261.75, -691762.06, -4929.7207, -0.02496541, -0.2051344, -648697.44, -95530.984, 0.0, 9.999672, 9.999106 
3.499722e+1, 2.535522e+2, -593557.1, -607452.0, -1726.6465, -0.027954862, -0.15459654, -593345.75, -138174.33, 0.0, 9.999352, 9.9991665 
3.4995878e+1, 2.635516e+2, -523967.0, -482565.3, -2905.5264, -0.027824838, -0.14423631, -482362.38, -125184.5, 0.0, 9.998982, 9.999529 
3.499455e+1, 2.7355072e+2, -487250.75, -405994.0, -5281.0996, -0.021601096, -0.19639444, -405652.2, -146467.05, 0.0, 9.998528, 9.999601 
3.4993142e+1, 2.8355032e+2, -421246.3, -267285.44, -13120.143, -0.016431974, -0.21404453, -266175.38, -104988.91, 0.00000000021451357, 9.998066, 10.000103 
3.4991577e+1, 2.935507e+2, -387716.66, -194040.4, -15243.456, -0.015774505, -0.199, -192848.0, -129668.48, 0.0000027944461, 9.997596, 10.000159 
3.4990185e+1, 3.035498e+2, -400540.8, -166217.16, -13934.8545, -0.00065756915, -0.30247542, -165391.38, -165391.38, 0.000035014476, 9.997134, 10.000237 
3.4989342e+1, 3.1355053e+2, -367616.63, 6473.638, -12635.805, 0.06582839, -0.26185125, 6899.957, 6899.957, 0.00013190451, 9.996685, 10.00164 
4.501983e+1, 1.235784e+2, -1233559.8, -1714323.8, 14213.686, 0.053599123, -0.12648119, -1233139.9, 495779.8, 0.0000010891364, 10.004303, 9.997931 
4.5018005e+1, 1.3357595e+2, -1188799.3, -1641676.9, 8703.116, 0.055679556, -0.16704944, -1188632.1, 442310.0, 0.00000013965848, 10.003936, 9.997933 
4.5016277e+1, 1.4357418e+2, -1160245.1, -1596629.5, 10081.628, 0.06506806, -0.12826943, -1160012.4, 372946.03, 0.00000000024594543, 10.003543, 9.997758 
4.5014262e+1, 1.5357187e+2, -1127236.6, -1533234.9, 9011.021, 0.03979394, -0.13419604, -1127036.6, 307944.06, 0.0, 10.003111, 9.997728 
4.5012307e+1, 1.6356932e+2, -1094421.4, -1472995.4, 11936.6, 0.018570207, -0.15692657, -1094045.4, 242959.11, 0.0, 10.00269, 9.997672 
4.501046e+1, 1.7356649e+2, -1054121.9, -1403010.4, 18144.426, 0.0049129697, -0.20867994, -1053180.8, 185848.64, 0.0, 10.0022955, 9.99767 
4.5008656e+1, 1.8356396e+2, -997406.06, -1302695.6, 19452.52, -0.002137826, -0.23606393, -996171.6, 144880.69, 0.0, 10.001916, 9.997869 
4.5006925e+1, 1.9356202e+2, -947805.75, -1223532.9, 17934.002, 0.0018676241, -0.2234366, -946644.2, 96426.49, 0.0, 10.001564, 9.997909 
4.5005187e+1, 2.035601e+2, -894019.9, -1132488.3, 18953.89, 0.003750328, -0.21041301, -892522.75, 52566.797, 0.0, 10.001199, 9.998037 
4.500344e+1, 2.1355827e+2, -850751.25, -1057710.9, 20085.508, 0.0015491224, -0.20061041, -848820.0, -1711.357, 0.0, 10.00081, 9.998065 
4.50017e+1, 2.2355656e+2, -770261.9, -907952.75, 22362.0, -0.004122102, -0.19969499, -766721.1, -17594.943, 0.0, 10.00043, 9.998604 
4.4999978e+1, 2.3355512e+2, -718001.2, -821004.2, 17597.676, -0.015242333, -0.21472506, -715077.7, -63937.344, 0.0, 10.000069, 9.998702 
4.499824e+1, 2.4355413e+2, -643061.4, -682060.44, 12924.663, -0.025005493, -0.20393944, -639166.94, -86016.15, 0.0, 9.999685, 9.9991665 
4.499648e+1, 2.535539e+2, -599902.4, -600667.8, 15645.836, -0.032748573, -0.15458585, -584634.56, -129480.03, 0.0, 9.999267, 9.999254 
4.4994733e+1, 2.6355332e+2, -537530.5, -484643.56, 15519.413, -0.03500846, -0.15041338, -480425.8, -123265.4, 0.0, 9.998871, 9.999569 
4.4993016e+1, 2.7355227e+2, -486981.88, -402337.75, 19523.27, -0.026833622, -0.21709435, -398051.72, -138883.47, 0.0, 9.998514, 9.999633 
4.4991216e+1, 2.8355184e+2, -414625.2, -270348.47, 13856.54, -0.019215891, -0.2403005, -269029.72, -107859.74, 0.00000000034042036, 9.998138, 10.000048 
4.4989234e+1, 2.9355225e+2, -373496.66, -195030.7, 9071.206, -0.015936123, -0.21557608, -194570.81, -131407.67, 0.0000026033522, 9.997727, 10.00009 
4.4987375e+1, 3.0355138e+2, -385703.3, -168243.92, 4523.84, -0.0020407068, -0.31006828, -168149.84, -168149.84, 0.00003329706, 9.997276, 10.000155 
4.498604e+1, 3.135521e+2, -363852.22, -1739.235, -1877.1613, 0.06350265, -0.2587092, -1729.5042, -1729.5042, 0.00012697614, 9.996755, 10.001551 
5.502418e+1, 1.2358061e+2, -1236182.5, -1719964.3, 1073.8402, 0.05844724, -0.117368445, -1236180.1, 492718.72, 0.0000006761851, 10.004304, 9.997891 
5.5021906e+1, 1.3357814e+2, -1191902.9, -1648153.3, -5174.611, 0.052135184, -0.1555287, -1191844.1, 439077.16, 0.0000000474949, 10.003936, 9.997889 
5.501981e+1, 1.4357631e+2, -1163054.3, -1602417.1, -5839.412, 0.064003475, -0.11774208, -1162976.6, 369961.34, 0.0, 10.003543, 9.997718 
5.501748e+1, 1.535739e+2, -1129967.8, -1538861.5, -7292.4565, 0.049937554, -0.13012983, -1129837.8, 305123.7, 0.0, 10.003111, 9.99769 
5.501516e+1, 1.6357139e+2, -1085352.0, -1454151.1, -3144.3367, 0.035177924, -0.1539352, -1085325.3, 251659.72, 0.0, 10.00269, 9.997802 
5.50129e+1, 1.735688e+2, -1043062.0, -1380074.9, 3278.4512, 0.019703975, -0.19737317, -1043030.06, 195977.1, 0.0, 10.0022955, 9.997828 
5.5010664e+1, 1.8356635e+2, -997858.9, -1303672.9, 6001.4243, 0.0074260137, -0.22470194, -997741.1, 143287.84, 0.0, 10.001916, 9.997862 
5.500847e+1, 1.9356422e+2, -950179.25, -1228487.4, 4713.2563, 0.00051989366, -0.22630847, -950099.44, 92949.625, 0.0, 10.001564, 9.997875 
5.500632e+1, 2.0356221e+2, -892857.25, -1130088.8, 4478.6895, -0.003023559, -0.22207962, -892772.75, 52296.03, 0.0, 10.001199, 9.998054 
5.500423e+1, 2.1356043e+2, -848976.0, -1054020.4, 5404.208, -0.0010428312, -0.21146095, -848833.7, -1746.764, 0.0, 10.00081, 9.998091 
5.5002135e+1, 2.235587e+2, -778631.25, -925288.44, 8568.085, -0.0036561978, -0.2076903, -778132.4, -29027.889, 0.0, 10.000429, 9.998485 
5.500006e+1, 2.335572e+2, -728055.56, -841848.06, 3967.9634, -0.013839442, -0.21652913, -727917.4, -76797.22, 0.0, 10.000068, 9.998559 
5.4997945e+1, 2.4355617e+2, -639468.75, -674577.25, -2600.9468, -0.023326883, -0.20094879, -639277.1, -86146.09, 0.0, 9.999685, 9.999218 
5.499575e+1, 2.5355604e+2, -594022.56, -588433.9, -197.37032, -0.0319463, -0.14948568, -588426.94, -133293.48, 0.0, 9.999267, 9.999338 
5.49936e+1, 2.635555e+2, -529496.44, -467947.25, 1713.9159, -0.035395045, -0.1495408, -467899.56, -110761.39, 0.0, 9.998871, 9.999683 
5.499151e+1, 2.7355447e+2, -478590.9, -384910.72, 6078.9063, -0.028882483, -0.23110032, -384517.9, -125372.52, 0.0, 9.998514, 9.999753 
5.4989326e+1, 2.8355396e+2, -419725.63, -280928.7, -1358.4094, -0.021776523, -0.26508215, -280915.38, -119768.06, 0.0000000006700443, 9.998138, 9.999974 
5.498695e+1, 2.935542e+2, -380840.7, -210265.23, -6456.534, -0.017337892, -0.24409997, -210021.2, -146879.14, 0.0000023959767, 9.997727, 9.999985 
5.4984593e+1, 3.0355325e+2, -397794.63, -193354.22, -14578.562, -0.0079389, -0.3325917, -192319.86, -192319.86, 0.000031288328, 9.997276, 9.999983 
5.4982656e+1, 3.1355408e+2, -377295.38, -29621.875, -21576.783, 0.049729463, -0.2547221, -28287.928, -28287.928, 0.0001210288, 9.996755, 10.001359 
6.502866e+1, 1.2358347e+2, -1201317.3, -1708675.1, 25725.662, 0.062892094, -0.09864283, -1200016.1, 528855.5, 0.00000039909702, 10.004567, 9.997842 
6.5025926e+1, 1.3358086e+2, -1185425.8, -1651188.9, 17599.117, 0.05738367, -0.14458798, -1184761.6, 446133.53, 0.000000011493709, 10.004007, 9.997833 
6.502342e+1, 1.4357892e+2, -1171175.5, -1610188.9, 18357.404, 0.072639644, -0.11441509, -1170409.3, 362503.7, 0.0, 10.003504, 9.997684 
6.5020645e+1, 1.535764e+2, -1132705.8, -1543643.6, 17696.621, 0.055779245, -0.13457392, -1131945.1, 302992.25, 0.0, 10.003107, 9.997659 
6.5017915e+1, 1.6357392e+2, -1076135.4, -1440109.3, 21466.885, 0.040430855, -0.15766664, -1074873.8, 262086.78, 0.0, 10.002712, 9.997888 
6.50153e+1, 1.7357157e+2, -1031645.9, -1362804.5, 24111.79, 0.028183239, -0.18593012, -1029899.5, 209080.81, 0.0, 10.002323, 9.997932 
6.501268e+1, 1.8356921e+2, -996541.7, -1305696.6, 24906.197, 0.016477035, -0.2089781, -994548.06, 146453.1, 0.0, 10.001937, 9.997838 
6.501009e+1, 1.935669e+2, -954349.4, -1235531.6, 22889.582, 0.005514498, -0.22523123, -952498.25, 90524.92, 0.0, 10.001557, 9.997829 
6.500752e+1, 2.035648e+2, -892748.56, -1127406.0, 22235.672, -0.0023589951, -0.22936091, -890660.1, 54383.47, 0.0, 10.001188, 9.998077 
6.5005004e+1, 2.1356307e+2, -842553.5, -1046955.0, 23865.334, -0.005011375, -0.21589462, -839804.06, 7256.6924, 0.0, 10.000836, 9.998126 
6.500253e+1, 2.2356138e+2, -774889.06, -927001.7, 30111.793, -0.009289426, -0.2107062, -769145.06, -20067.166, 0.0, 10.00047, 9.998453 
6.5000117e+1, 2.335598e+2, -729398.56, -847265.0, 32978.234, -0.016059494, -0.22069243, -720798.94, -69704.586, 0.0, 10.000079, 9.998516 
6.499765e+1, 2.4355875e+2, -637501.7, -673027.44, 28672.457, -0.022053653, -0.20616986, -621535.8, -68430.16, 0.0, 9.999697, 9.999224 
6.4995104e+1, 2.535586e+2, -584127.3, -582166.1, 25754.143, -0.02725371, -0.1557504, -557373.94, -102266.14, 0.0, 9.999329, 9.9993515 
6.4992553e+1, 2.6355812e+2, -515149.8, -454746.22, 22943.713, -0.030650767, -0.15562086, -447019.63, -89907.69, 0.0, 9.998942, 9.99974 
6.499002e+1, 2.7355716e+2, -472537.72, -374916.6, 23048.08, -0.02970553, -0.23480973, -369748.6, -110630.56, 0.0, 9.998525, 9.999816 
6.4987445e+1, 2.8355664e+2, -424152.8, -289548.63, 13985.381, -0.024111131, -0.27068204, -288110.9, -126991.06, 0.0000000009839726, 9.998136, 9.999917 
6.498473e+1, 2.935567e+2, -376678.8, -216975.89, 10823.609, -0.014619839, -0.25911483, -216245.67, -153129.5, 0.0000021664155, 9.997793, 9.999907 
6.4981943e+1, 3.0355567e+2, -384399.53, -198427.19, 2825.7834, -0.007750124, -0.35167798, -198384.27, -198384.27, 0.000029021434, 9.997417, 9.99988 
6.4979434e+1, 3.1355646e+2, -352338.03, -30690.377, 933.9056, 0.04065991, -0.2638736, -30687.664, -30687.664, 0.00011410821, 9.996982, 10.001243 
7.5033265e+1, 1.2358697e+2, -1205578.0, -1717407.9, 5903.1143, 0.0666363, -0.07048325, -1205509.9, 523328.3, 0.00000025398137, 10.004567, 9.997782 
7.5030077e+1, 1.3358413e+2, -1190072.4, -1660764.6, -3640.6604, 0.071218975, -0.1342729, -1190044.1, 440819.6, 0.0000000051997042, 10.004007, 9.997768 
7.502711e+1, 1.4358197e+2, -1173317.5, -1614578.4, 2587.298, 0.09080471, -0.11827036, -1173302.4, 359580.66, 0.0, 10.003504, 9.997654 
7.5023764e+1, 1.5357934e+2, -1134419.6, -1547162.1, 2823.7178, 0.05722847, -0.14750537, -1134400.3, 300508.06, 0.0, 10.003106, 9.997635 
7.502057e+1, 1.6357689e+2, -1073220.0, -1434040.1, 6802.26, 0.03429995, -0.16808937, -1073091.9, 263839.28, 0.0, 10.002712, 9.997929 
7.5017637e+1, 1.7357484e+2, -1027953.94, -1355128.8, 9465.96, 0.030340938, -0.17434928, -1027680.25, 211268.47, 0.0, 10.002323, 9.997986 
7.5014704e+1, 1.8357258e+2, -999449.9, -1311710.9, 10574.41, 0.024996841, -0.18892938, -999092.2, 141876.73, 0.0, 10.001937, 9.997797 
7.5011754e+1, 1.9357005e+2, -958301.6, -1243739.9, 8628.119, 0.016810136, -0.22022964, -958041.06, 84951.8, 0.0, 10.001557, 9.997773 
7.500879e+1, 2.0356783e+2, -890620.94, -1123007.3, 8857.946, 0.005688239, -0.23226687, -890283.75, 54730.375, 0.0, 10.001188, 9.998108 
7.5005794e+1, 2.135662e+2, -839369.25, -1040356.1, 10624.168, -0.010404778, -0.21393332, -838809.2, 8220.913, 0.0, 10.000836, 9.998172 
7.5002885e+1, 2.2356455e+2, -771001.94, -918909.0, 15577.949, -0.021071244, -0.20873322, -769379.06, -20332.521, 0.0, 10.00047, 9.998508 
7.500013e+1, 2.3356296e+2, -725382.56, -838906.7, 18216.148, -0.021937586, -0.22723255, -722531.2, -71468.28, 0.0, 10.000079, 9.998573 
7.4997354e+1, 2.4356185e+2, -640398.44, -679020.56, 14631.841, -0.021210322, -0.21962038, -635481.25, -82406.7, 0.0, 9.999697, 9.999183 
7.4994516e+1, 2.5356162e+2, -588169.5, -590548.2, 11853.326, -0.018693313, -0.17340235, -577446.0, -122368.414, 0.0, 9.999328, 9.999294 
7.499159e+1, 2.6356113e+2, -515338.0, -455137.03, 7445.7686, -0.020805951, -0.16866787, -454229.78, -97148.08, 0.0, 9.998942, 9.999738 
7.498855e+1, 2.7356037e+2, -472091.2, -373974.63, 7286.919, -0.02932881, -0.22819138, -373436.38, -114350.23, 0.0, 9.998525, 9.999823 
7.498556e+1, 2.8355992e+2, -427233.22, -295929.13, 691.7747, -0.026257735, -0.257035, -295925.5, -134837.98, 0.0000000010869243, 9.998136, 9.999873 
7.4982595e+1, 2.935598e+2, -380273.75, -224465.63, -2082.6394, -0.007827254, -0.2605918, -224437.8, -161352.34, 0.0000019142904, 9.997793, 9.999855 
7.497942e+1, 3.0355853e+2, -386721.56, -203277.38, -13067.033, -0.0015273037, -0.3673377, -202351.27, -202351.27, 0.000026528098, 9.997417, 9.999847 
7.497637e+1, 3.1355926e+2, -355313.22, -36818.074, -15510.321, 0.03615484, -0.2863139, -36064.523, -36064.523, 0.000106300286, 9.996982, 10.001201 
8.5037917e+1, 1.2359066e+2, -1222381.3, -1727765.1, 12573.903, 0.08019784, -0.056400355, -1222068.6, 506733.94, 0.0000001951952, 10.004461, 9.997762 
8.5034126e+1, 1.3358769e+2, -1195513.6, -1665624.4, 5020.6553, 0.07740702, -0.12887555, -1195460.1, 435369.0, 0.0000000044307202, 10.00398, 9.997748 
8.5030675e+1, 1.4358547e+2, -1167471.1, -1605949.8, 19682.783, 0.096951835, -0.121667966, -1166589.3, 366259.53, 0.0, 10.003519, 9.997705 
8.502693e+1, 1.5358283e+2, -1130322.8, -1538048.1, 27065.846, 0.06329107, -0.15912393, -1128533.9, 306339.88, 0.0, 10.003104, 9.997699 
8.5023326e+1, 1.635804e+2, -1077627.5, -1441440.4, 32734.11, 0.038918536, -0.17893443, -1074705.8, 262190.5, 0.0, 10.002705, 9.997882 
8.5019976e+1, 1.7357843e+2, -1030994.06, -1363920.6, 26745.242, 0.03124223, -0.16943954, -1028859.2, 210054.52, 0.0, 10.002334, 9.99792 
8.501664e+1, 1.8357621e+2, -996033.6, -1307898.3, 24369.998, 0.024172366, -0.17654793, -994140.8, 146793.05, 0.0, 10.00195, 9.997816 
8.501331e+1, 1.9357365e+2, -957223.7, -1239415.6, 28982.453, 0.017704578, -0.21471134, -954277.75, 88680.08, 0.0, 10.001549, 9.9978075 
8.500998e+1, 2.0357142e+2, -892707.94, -1121882.0, 34001.984, 0.007391269, -0.23113135, -887769.56, 57209.566, 0.0, 10.001164, 9.998126 
8.5006624e+1, 2.135698e+2, -841536.06, -1039495.25, 33927.348, -0.009559944, -0.2126508, -835882.9, 11112.066, 0.0, 10.0008135, 9.998188 
8.500334e+1, 2.235682e+2, -770538.0, -913125.6, 36287.926, -0.02087913, -0.20584776, -761834.2, -12823.361, 0.0, 10.000449, 9.998558 
8.5000205e+1, 2.3356672e+2, -723655.56, -831868.44, 38545.438, -0.022029234, -0.22043769, -711329.7, -60303.496, 0.0, 10.000065, 9.998629 
8.4997064e+1, 2.435656e+2, -638871.4, -676645.7, 37971.957, -0.020130573, -0.21762626, -615348.7, -62311.098, 0.0, 9.9997, 9.999197 
8.4993905e+1, 2.5356516e+2, -581576.75, -586487.6, 40268.973, -0.0140851345, -0.19122384, -543688.44, -88646.5, 0.0, 9.99937, 9.999302 
8.499063e+1, 2.6356462e+2, -506348.78, -457252.53, 35720.656, -0.015208912, -0.19145718, -438458.13, -81411.47, 0.0, 9.999031, 9.99968 
8.4987175e+1, 2.7356398e+2, -454517.28, -373162.03, 29777.314, -0.026881222, -0.23009741, -363427.78, -104377.445, 0.0, 9.998678, 9.999754 
8.49838e+1, 2.8356358e+2, -404601.78, -288149.97, 20759.004, -0.023345143, -0.24785206, -284560.06, -123508.69, 0.0000000009777485, 9.998304, 9.999845 
8.498053e+1, 2.935634e+2, -367104.72, -220353.56, 20224.803, 0.0012666873, -0.2581342, -217617.27, -154567.31, 0.0000016479609, 9.997893, 9.999835 
8.4976935e+1, 3.0356202e+2, -379513.28, -200641.47, 9434.606, 0.005873335, -0.37421536, -200145.22, -200145.22, 0.000023861305, 9.997471, 9.999839 
8.497336e+1, 3.1356266e+2, -350047.47, -36413.85, 8314.484, 0.034275033, -0.3005607, -36193.59, -36193.59, 0.00009776159, 9.997027, 10.001181 
9.5042604e+1, 1.23594545e+2, -1221282.6, -1725274.0, -4520.767, 0.10302766, -0.05634933, -1221242.1, 507522.28, 0.00000017580517, 10.00446, 9.99778 
9.503809e+1, 1.335916e+2, -1193964.1, -1662225.5, -13235.517, 0.075831786, -0.12848383, -1193590.3, 437200.75, 0.0000000033818985, 10.003979, 9.997772 
9.5034134e+1, 1.4358944e+2, -1158275.9, -1586714.6, 3762.7256, 0.09104649, -0.12471987, -1158242.9, 374567.44, 0.0, 10.003518, 9.997838 
9.5030135e+1, 1.5358685e+2, -1119861.1, -1516209.3, 11485.383, 0.07379956, -0.1695012, -1119528.6, 315304.88, 0.0, 10.003103, 9.9978485 
9.502618e+1, 1.6358443e+2, -1087307.3, -1461434.9, 18578.18, 0.054101538, -0.19025032, -1086387.0, 250468.67, 0.0, 10.002705, 9.997745 
9.50223e+1, 1.7358238e+2, -1043955.06, -1390764.5, 12822.658, 0.030793801, -0.17122336, -1043481.6, 195393.52, 0.0, 10.002334, 9.997736 
9.501849e+1, 1.8358016e+2, -990505.3, -1296384.8, 9421.607, 0.013948137, -0.17182933, -990215.4, 150680.55, 0.0, 10.00195, 9.997895 
9.501477e+1, 1.9357774e+2, -948587.5, -1221485.5, 13853.579, 0.008196603, -0.20867248, -947886.06, 95032.11, 0.0, 10.001549, 9.997931 
9.5011103e+1, 2.0357557e+2, -892192.7, -1120832.8, 20526.492, 0.0027498354, -0.22597294, -890364.5, 54574.055, 0.0, 10.001164, 9.998134 
9.500751e+1, 2.135739e+2, -842338.8, -1041189.9, 20717.64, -0.00254989, -0.21202841, -840203.25, 6751.925, 0.0, 10.0008135, 9.998177 
9.5003915e+1, 2.2357234e+2, -767470.25, -906760.25, 21928.275, -0.008819364, -0.20203239, -764099.6, -15128.809, 0.0, 10.000449, 9.998602 
9.500032e+1, 2.3357107e+2, -719909.9, -824100.4, 24006.033, -0.016379375, -0.20028134, -714644.8, -63660.723, 0.0, 10.000065, 9.998682 
9.4996774e+1, 2.4356997e+2, -633918.6, -666377.06, 25233.225, -0.018862884, -0.20018864, -620146.1, -67151.305, 0.0, 9.9997, 9.999268 
9.499328e+1, 2.5356928e+2, -576421.5, -575809.44, 27833.598, -0.01350704, -0.20926027, -548280.2, -93279.336, 0.0, 9.99937, 9.999375 
9.4989675e+1, 2.6356858e+2, -514262.63, -473714.13, 22529.047, -0.013910708, -0.22405262, -463679.9, -106673.195, 0.0, 9.999031, 9.999567 
9.498589e+1, 2.7356803e+2, -464580.97, -394105.47, 16460.324, -0.022398433, -0.24059136, -390450.53, -131440.0, 0.0, 9.998678, 9.99961 
9.498218e+1, 2.835677e+2, -405424.88, -289906.2, 5579.9893, -0.015431871, -0.24319679, -289637.28, -128625.805, 0.00000000065795036, 9.998304, 9.999833 
9.497854e+1, 2.935675e+2, -366321.25, -218721.84, 4684.3706, 0.012640673, -0.2517445, -218573.33, -155563.72, 0.000001379458, 9.997893, 9.999846 
9.4974494e+1, 3.035661e+2, -378307.1, -198112.58, -7018.5967, 0.01444393, -0.37227613, -197839.61, -197839.61, 0.000021105876, 9.997471, 9.999857 
9.4970393e+1, 3.1356668e+2, -349878.28, -36029.625, -8439.441, 0.034821037, -0.30667397, -35802.85, -35802.85, 0.000088718174, 9.997026, 10.0011835 
1.0504713e+2, 1.23598635e+2, -1254803.1, -1736976.8, 9689.933, 0.12195686, -0.075259216, -1254608.5, 474115.13, 0.00000018107882, 10.00421, 9.997819 
1.0504197e+2, 1.3359587e+2, -1214543.3, -1666958.1, 1629.8092, 0.0747632, -0.13413668, -1214537.4, 416211.63, 0.0000000035938899, 10.003815, 9.997818 
1.0503754e+2, 1.4359386e+2, -1168026.4, -1582979.9, 18902.488, 0.084558375, -0.12063914, -1167167.1, 365599.88, 0.0, 10.003415, 9.997913 
1.05033204e+2, 1.5359142e+2, -1127186.0, -1510820.0, 21479.918, 0.07475079, -0.1584896, -1125987.0, 308801.6, 0.0, 10.003015, 9.997929 
1.0502889e+2, 1.6358902e+2, -1102734.9, -1472203.9, 29654.322, 0.05996965, -0.18118437, -1100369.9, 236440.8, 0.0, 10.002613, 9.997715 
1.05024636e+2, 1.7358674e+2, -1065267.0, -1406310.6, 34098.504, 0.036975916, -0.17892408, -1061891.1, 176941.22, 0.0, 10.00221, 9.997688 
1.0502042e+2, 1.8358448e+2, -1003816.25, -1295959.0, 36468.82, 0.017833132, -0.18442313, -999332.56, 141521.11, 0.0, 10.00183, 9.997956 
1.0501626e+2, 1.935823e+2, -951641.44, -1214111.5, 37780.926, 0.0055662976, -0.20582977, -946311.3, 96562.14, 0.0, 10.00149, 9.99801 
1.0501221e+2, 2.0358023e+2, -895995.56, -1122779.5, 42681.01, -0.0015153437, -0.21727909, -888228.94, 56663.992, 0.0, 10.00114, 9.998133 
1.0500833e+2, 2.1357843e+2, -849344.94, -1046126.4, 42729.637, -0.00009937327, -0.21423513, -840467.0, 6443.9014, 0.0, 10.000772, 9.998163 
1.0500441e+2, 2.2357686e+2, -768169.6, -902881.3, 44038.387, -0.002707067, -0.20690222, -755050.7, -6123.74, 0.0, 10.000426, 9.99864 
1.0500046e+2, 2.3357573e+2, -708947.2, -813613.8, 45653.477, -0.012048529, -0.19343396, -691832.56, -40893.965, 0.0, 10.000117, 9.998729 
1.0499656e+2, 2.4357474e+2, -619709.9, -657121.7, 44958.62, -0.014773655, -0.18853654, -589720.94, -36772.52, 0.0, 9.999787, 9.9992895 
1.0499275e+2, 2.5357398e+2, -567941.1, -569797.44, 43330.63, -0.006987596, -0.20476127, -525528.7, -70573.95, 0.0, 9.999419, 9.9993925 
1.0498879e+2, 2.635732e+2, -510656.13, -473698.16, 38929.82, -0.0071454444, -0.22595073, -449084.16, -92123.15, 0.0, 9.9990635, 9.999552 
1.0498463e+2, 2.735726e+2, -458979.3, -393748.0, 42001.855, -0.018971207, -0.24698436, -373185.3, -114219.94, 0.0, 9.998727, 9.999589 
1.0498054e+2, 2.8357226e+2, -395893.97, -286786.1, 34752.867, -0.013299317, -0.24969827, -276657.0, -115690.48, 0.00000000025503108, 9.998377, 9.99982 
1.0497653e+2, 2.9357213e+2, -351678.28, -212874.06, 31958.576, 0.01661562, -0.25151032, -205869.34, -142905.02, 0.000001118805, 9.997999, 9.999836 
1.04972064e+2, 3.0357075e+2, -360687.47, -190109.03, 16866.732, 0.018174434, -0.3713263, -188457.25, -188457.25, 0.000018367069, 9.997594, 9.999852 
1.0496752e+2, 3.1357124e+2, -335037.66, -31276.012, 13192.832, 0.040081043, -0.30831552, -30704.104, -30704.104, 0.00007944771, 9.997139, 10.001163 
1.15051486e+2, 1.23602934e+2, -1250649.5, -1728081.1, -4282.049, 0.13685386, -0.11282229, -1250611.0, 478068.97, 0.00000020422006, 10.0042095, 9.997881 
1.15045786e+2, 1.336005e+2, -1209899.1, -1657039.3, -13242.67, 0.07402547, -0.14581504, -1209507.3, 421195.78, 0.000000007559023, 10.003814, 9.997887 
1.15040876e+2, 1.4359875e+2, -1167005.4, -1580579.5, 3982.2524, 0.077328205, -0.109630786, -1166967.0, 365752.13, 0.0, 10.003413, 9.997931 
1.1503613e+2, 1.5359654e+2, -1126757.1, -1509683.1, 6478.183, 0.066116706, -0.12647186, -1126647.6, 308091.6, 0.0, 10.003014, 9.997937 
1.1503147e+2, 1.6359414e+2, -1097503.9, -1461164.0, 14556.337, 0.056536257, -0.15207386, -1096922.1, 239839.03, 0.0, 10.002612, 9.997791 
1.1502697e+2, 1.7359154e+2, -1059169.3, -1393553.5, 18973.158, 0.049678337, -0.19253816, -1058096.1, 180689.13, 0.0, 10.00221, 9.997776 
1.1502242e+2, 1.8358918e+2, -1000909.2, -1289895.6, 23380.654, 0.035657663, -0.21417715, -999029.8, 141777.23, 0.0, 10.001829, 9.997998 
1.15017794e+2, 1.9358733e+2, -949230.3, -1209117.4, 25008.688, 0.009723061, -0.20616165, -946845.6, 95978.25, 0.0, 10.00149, 9.998044 
1.1501331e+2, 2.0358539e+2, -896664.7, -1124195.3, 28992.914, -0.0054373275, -0.20506978, -893028.44, 51813.75, 0.0, 10.00114, 9.998123 
1.1500907e+2, 2.1358341e+2, -850509.6, -1048584.3, 28893.902, -0.002223907, -0.21927898, -846380.8, 481.3903, 0.0, 10.000772, 9.998146 
1.1500484e+2, 2.2358176e+2, -765951.5, -898303.5, 32085.498, -0.0025456746, -0.22046001, -758583.4, -9704.24, 0.0, 10.000426, 9.998672 
1.15000606e+2, 2.3358074e+2, -706175.6, -807880.94, 34007.1, -0.009057408, -0.19990975, -695852.5, -44962.76, 0.0, 10.000117, 9.998768 
1.1499641e+2, 2.4357988e+2, -621639.44, -661141.0, 31386.416, -0.0078982385, -0.18263413, -604306.5, -51408.08, 0.0, 9.999787, 9.999262 
1.1499228e+2, 2.535793e+2, -570668.5, -575473.4, 29449.87, 0.005462049, -0.17761578, -543523.25, -88619.61, 0.0, 9.999419, 9.999354 
1.1498798e+2, 2.6357856e+2, -504856.75, -461669.06, 26095.428, 0.0050762915, -0.19706164, -449391.6, -92482.06, 0.0, 9.9990635, 9.999634 
1.1498338e+2, 2.7357772e+2, -451802.5, -378864.63, 29356.514, -0.016645234, -0.24931596, -368517.03, -109602.195, 0.0, 9.998727, 9.999692 
1.1497889e+2, 2.8357726e+2, -396916.94, -288923.4, 20788.414, -0.017042717, -0.26746732, -285059.9, -124143.4, 0.000000000026412617, 9.998377, 9.999805 
1.14974484e+2, 2.9357725e+2, -354008.56, -217735.95, 17763.168, 0.013053622, -0.2575373, -215458.58, -152544.52, 0.0000008745259, 9.997999, 9.999803 
1.1496964e+2, 3.0357587e+2, -362592.63, -194114.56, 229.94417, 0.016941285, -0.37142172, -194114.25, -194114.25, 0.000015743772, 9.997594, 9.999825 
1.1496476e+2, 3.1357643e+2, -338334.3, -38152.164, -4051.6404, 0.0499315, -0.3056628, -38097.49, -38097.49, 0.000070235736, 9.997139, 10.001115 
1.2505548e+2, 1.2360796e+2, -1271998.9, -1733864.6, 22546.395, 0.123758174, -0.1329237, -1270900.9, 457728.8, 0.00000021673883, 10.004044, 9.997921 
1.2504946e+2, 1.3360569e+2, -1233250.6, -1663367.5, 10768.939, 0.070038386, -0.15571053, -1232981.3, 397670.44, 0.000000012500233, 10.003632, 9.997931 
1.2504423e+2, 1.4360404e+2, -1195732.4, -1595044.8, 26225.313, 0.07990535, -0.110922806, -1194017.4, 338649.72, 0.0, 10.003219, 9.997925 
1.25039e+2, 1.536019e+2, -1157999.5, -1526238.4, 27077.56, 0.06230912, -0.1187368, -1156019.0, 278667.9, 0.0, 10.002806, 9.997924 
1.2503393e+2, 1.6359954e+2, -1121440.9, -1466412.4, 34808.234, 0.051602982, -0.1437209, -1117963.8, 218745.13, 0.0, 10.00242, 9.997847 
1.2502915e+2, 1.7359684e+2, -1072706.9, -1392562.4, 37817.816, 0.052768726, -0.1977093, -1068296.3, 170436.88, 0.0, 10.002084, 9.997844 
1.2502429e+2, 1.8359448e+2, -1009056.0, -1290047.9, 42512.83, 0.043302167, -0.22455251, -1002764.8, 137989.83, 0.0, 10.001758, 9.998032 
1.2501931e+2, 1.9359274e+2, -953464.2, -1207979.6, 43888.4, 0.015864762, -0.2073577, -946108.7, 96661.78, 0.0, 10.001447, 9.998072 
1.2501448e+2, 2.0359088e+2, -899250.8, -1127818.9, 46604.21, -0.0018594658, -0.2008213, -890113.7, 54674.715, 0.0, 10.001132, 9.998101 
1.2500986e+2, 2.1358886e+2, -847040.75, -1050217.0, 45453.523, -0.0028712726, -0.21641876, -837335.7, 9473.5205, 0.0, 10.000811, 9.9981165 
1.2500528e+2, 2.235872e+2, -754303.2, -885123.4, 49574.316, -0.0041285437, -0.21931042, -737639.56, 11186.672, 0.0, 10.000474, 9.998739 
1.2500075e+2, 2.3358624e+2, -701013.9, -796094.56, 54812.883, -0.0059955786, -0.2007827, -675997.06, -25161.242, 0.0, 10.000113, 9.998851 
1.2499624e+2, 2.4358544e+2, -629623.94, -670535.3, 52595.477, -0.0022927597, -0.18095852, -593646.3, -40802.355, 0.0, 9.999756, 9.999212 
1.2499174e+2, 2.535849e+2, -577572.8, -586834.4, 48079.98, 0.009848837, -0.16550072, -533901.1, -79051.72, 0.0, 9.999407, 9.999282 
1.2498707e+2, 2.6358414e+2, -502707.78, -455587.78, 42515.19, 0.009010297, -0.1846471, -430541.03, -73685.45, 0.0, 9.999057, 9.99968 
1.2498215e+2, 2.735832e+2, -450751.88, -371190.16, 42941.145, -0.0116281975, -0.25371304, -352435.03, -93573.84, 0.0, 9.998704, 9.999756 
1.24977306e+2, 2.8358275e+2, -398544.4, -291998.97, 32893.895, -0.012766194, -0.2773402, -282661.88, -121798.95, 0.0, 9.998375, 9.999784 
1.2497253e+2, 2.9358277e+2, -343716.78, -216564.63, 29793.41, 0.013014516, -0.25371778, -209929.84, -147069.77, 0.0000006546641, 9.998086, 9.999768 
1.2496728e+2, 3.0358145e+2, -330977.84, -177564.86, 12521.855, 0.010979802, -0.36257672, -176549.52, -176549.52, 0.0000132978475, 9.997806, 9.999837 
1.24961995e+2, 3.1358197e+2, -281292.0, -11143.043, 11184.319, 0.040424857, -0.29941255, -10680.797, -10680.797, 0.000061306615, 9.997533, 10.001111 
1.3505912e+2, 1.2361371e+2, -1270913.3, -1731293.3, 8104.846, 0.083094805, -0.13600595, -1270770.6, 457801.88, 0.00000018929178, 10.004042, 9.997939 
1.3505302e+2, 1.336114e+2, -1232111.4, -1660729.4, -4674.871, 0.062751316, -0.16391751, -1232060.4, 398534.5, 0.000000012189364, 10.003631, 9.99795 
1.3504755e+2, 1.436097e+2, -1197809.1, -1599151.8, 10798.335, 0.09195245, -0.12435273, -1197518.9, 335092.13, 0.0, 10.003218, 9.997897 
1.350418e+2, 1.536075e+2, -1160530.1, -1531394.0, 11607.735, 0.06309158, -0.1349444, -1160167.1, 274464.75, 0.0, 10.002806, 9.997889 
1.3503629e+2, 1.6360517e+2, -1119014.6, -1461365.1, 21836.895, 0.045058444, -0.15584123, -1117627.4, 219026.42, 0.0, 10.00242, 9.997882 
1.3503118e+2, 1.7360267e+2, -1069509.0, -1385946.4, 25223.93, 0.046261244, -0.19453517, -1067511.0, 171165.06, 0.0, 10.002084, 9.997889 
1.3502602e+2, 1.836004e+2, -1007254.06, -1286346.0, 30722.951, 0.040827356, -0.21577515, -1003912.06, 136784.53, 0.0, 10.001758, 9.998057 
1.3502084e+2, 1.9359858e+2, -951920.6, -1204811.4, 32211.023, 0.023953216, -0.20943552, -947882.3, 94830.92, 0.0, 10.001447, 9.998094 
1.3501571e+2, 2.035967e+2, -901591.94, -1132707.6, 34530.69, 0.0091310255, -0.20445968, -896543.06, 48188.52, 0.0, 10.001132, 9.998068 
1.3501066e+2, 2.1359478e+2, -850036.8, -1056456.4, 33342.727, -0.0020803912, -0.20565556, -844784.6, 1967.2877, 0.0, 10.000811, 9.998074 
1.3500571e+2, 2.2359319e+2, -747044.1, -870070.06, 36144.66, -0.0074743954, -0.20348532, -737210.9, 11557.382, 0.0, 10.000474, 9.998842 
1.3500088e+2, 2.3359226e+2, -692132.0, -777677.0, 41176.7, -0.0028798613, -0.19606481, -675532.75, -24755.814, 0.0, 10.000113, 9.998978 
1.3499603e+2, 2.435914e+2, -634718.2, -681114.56, 39345.973, 0.002004708, -0.18354215, -612240.75, -59455.68, 0.0, 9.999756, 9.99914 
1.3499111e+2, 2.5359073e+2, -584986.94, -602216.1, 34918.5, 0.0060971417, -0.168509, -557636.06, -102843.984, 0.0, 9.999407, 9.999177 
1.3498609e+2, 2.6358995e+2, -502238.03, -454598.06, 29229.4, 0.0045855315, -0.1887991, -440711.97, -83912.8, 0.0, 9.999057, 9.999686 
1.3498093e+2, 2.73589e+2, -449012.25, -367543.9, 29648.547, -0.003918149, -0.26019552, -357896.44, -99092.01, 0.0, 9.998703, 9.999781 
1.349758e+2, 2.8358856e+2, -400483.47, -295995.22, 21703.443, -0.00044837326, -0.2792849, -291666.5, -130860.805, 0.0, 9.998375, 9.999758 
1.3497064e+2, 2.9358876e+2, -346183.44, -221708.06, 18974.703, 0.01647393, -0.23998377, -218879.88, -156077.56, 0.0000004660869, 9.998086, 9.999733 
1.3496499e+2, 3.0358747e+2, -327314.22, -170118.31, 2263.4626, 0.000101777, -0.3447237, -170085.73, -170085.73, 0.000011042731, 9.997806, 9.999887 
1.3495924e+2, 3.1358796e+2, -278334.38, -5393.3066, 776.0789, 0.010931164, -0.28978756, -5391.1, -5391.1, 0.000052781335, 9.997535, 10.00115 
1.4506291e+2, 1.2361993e+2, -1296639.9, -1742147.1, 25903.836, 0.06741855, -0.13383566, -1295138.8, 433372.34, 0.00000012857798, 10.003859, 9.997953 
1.4505647e+2, 1.3361758e+2, -1253053.4, -1669279.4, 11839.492, 0.052973226, -0.16556412, -1252716.9, 377816.72, 0.0000000063605072, 10.00348, 9.997963 
1.4505069e+2, 1.4361583e+2, -1215809.9, -1611120.5, 27344.904, 0.08848508, -0.13105486, -1213927.3, 318623.16, 0.0, 10.003109, 9.997868 
1.4504455e+2, 1.5361355e+2, -1172028.5, -1541063.6, 27972.643, 0.059347656, -0.14626053, -1169920.3, 264652.25, 0.0, 10.002744, 9.997851 
1.4503865e+2, 1.6361125e+2, -1118966.0, -1456808.0, 40521.6, 0.040707696, -0.163642, -1114173.8, 222420.58, 0.0, 10.002401, 9.997922 
1.4503321e+2, 1.7360899e+2, -1064200.9, -1377511.0, 44774.695, 0.04089289, -0.18527608, -1057927.9, 180686.48, 0.0, 10.002095, 9.997941 
1.4502776e+2, 1.8360677e+2, -1007152.8, -1290566.6, 48343.863, 0.037440103, -0.20125055, -999133.4, 141500.88, 0.0, 10.001777, 9.998019 
1.4502232e+2, 1.9360475e+2, -957391.0, -1213425.3, 44182.055, 0.027588598, -0.20978591, -949981.25, 92671.91, 0.0, 10.001435, 9.99804 
1.4501691e+2, 2.0360282e+2, -901344.7, -1127205.8, 46494.496, 0.015413319, -0.20968394, -892148.06, 52524.094, 0.0, 10.00111, 9.998116 
1.450115e+2, 2.1360107e+2, -844692.9, -1046635.94, 53334.938, -0.00061078364, -0.19848841, -831472.2, 15218.445, 0.0, 10.000815, 9.998138 
1.450062e+2, 2.235996e+2, -740997.1, -863206.2, 56853.387, -0.007739065, -0.19144556, -718638.6, 30067.248, 0.0, 10.000499, 9.998878 
1.4500105e+2, 2.335986e+2, -685525.25, -771142.94, 54484.734, 0.00047377587, -0.19215061, -659043.56, -8328.74, 0.0, 10.000144, 9.999007 
1.4499585e+2, 2.4359769e+2, -630457.3, -681644.25, 50614.12, 0.005295044, -0.18656003, -599333.8, -46610.457, 0.0, 9.999797, 9.999116 
1.449905e+2, 2.5359696e+2, -579327.1, -603054.06, 51681.184, 0.0029599455, -0.1762213, -538165.25, -83434.2, 0.0, 9.999461, 9.999145 
1.4498514e+2, 2.635961e+2, -493563.6, -458155.06, 47587.965, -0.0008535079, -0.19583923, -425084.78, -68346.19, 0.0, 9.999149, 9.999617 
1.449797e+2, 2.7359518e+2, -429175.8, -366409.0, 40634.94, -0.0044607134, -0.2574208, -346449.28, -87705.29, 0.0, 9.998877, 9.999705 
1.4497429e+2, 2.8359476e+2, -374090.0, -287841.25, 27703.107, 0.00094346993, -0.2707896, -279709.66, -118964.09, 0.0, 9.998576, 9.999717 
1.4496878e+2, 2.9359487e+2, -327916.16, -216710.5, 24928.127, 0.01432277, -0.23334815, -211378.23, -148635.39, 0.00000031171322, 9.998228, 9.9997 
1.4496274e+2, 3.0359358e+2, -312090.13, -163665.98, 7992.451, -0.00879386, -0.33827215, -163236.84, -163236.84, 0.000008961074, 9.997914, 9.99988 
1.4495666e+2, 3.1359416e+2, -263322.28, -1753.931, 1269.8208, -0.005740603, -0.2731062, -1747.7667, -1747.7667, 0.000044704477, 9.997653, 10.001118 
1.5506685e+2, 1.2362662e+2, -1296036.6, -1740846.4, 12600.232, 0.0759062, -0.12643796, -1295680.0, 432765.56, 0.00000007035696, 10.003859, 9.997962 
1.5505983e+2, 1.3362427e+2, -1252554.5, -1668079.8, -2341.234, 0.040559012, -0.1607144, -1252541.3, 377926.84, 0.0000000013792465, 10.003479, 9.9979725 
1.550536e+2, 1.4362246e+2, -1218206.3, -1615906.3, 13672.828, 0.06964127, -0.1311106, -1217736.8, 314748.72, 0.0, 10.003108, 9.997835 
1.5504721e+2, 1.5362006e+2, -1174849.6, -1546855.6, 14301.833, 0.051077057, -0.15273206, -1174300.5, 260208.34, 0.0, 10.002744, 9.997812 
1.5504102e+2, 1.6361779e+2, -1115735.1, -1450130.0, 28768.834, 0.038440585, -0.16714215, -1113278.1, 223252.4, 0.0, 10.002401, 9.997969 
1.5503524e+2, 1.7361578e+2, -1060032.1, -1368899.5, 33320.582, 0.0365578, -0.1699626, -1056478.4, 182069.56, 0.0, 10.002095, 9.998 
1.5502948e+2, 1.8361361e+2, -1014336.94, -1305497.6, 35681.227, 0.033062555, -0.1810268, -1010028.0, 130539.59, 0.0, 10.001777, 9.997916 
1.5502374e+2, 1.9361126e+2, -966428.44, -1232192.3, 31323.922, 0.026757145, -0.20843367, -962786.4, 79803.69, 0.0, 10.001435, 9.997911 
1.5501802e+2, 2.0360923e+2, -892287.5, -1108435.9, 35161.31, 0.01699759, -0.21649453, -886711.56, 57898.53, 0.0, 10.001111, 9.998245 
1.5501232e+2, 2.1360776e+2, -832694.9, -1021752.75, 42251.645, 0.0014888414, -0.19490486, -823681.94, 22943.451, 0.0, 10.000815, 9.998309 
1.550067e+2, 2.236064e+2, -743372.1, -868148.8, 43739.305, -0.004991229, -0.18318371, -729567.1, 19071.99, 0.0, 10.000499, 9.998843 
1.5500124e+2, 2.336053e+2, -690247.5, -780962.9, 41094.043, 0.0040210164, -0.18903846, -674400.3, -23750.873, 0.0, 10.000144, 9.99894 
1.5499566e+2, 2.4360429e+2, -628648.4, -677887.75, 37843.273, 0.0075389673, -0.19003117, -608121.2, -55462.395, 0.0, 9.999797, 9.999143 
1.5498994e+2, 2.5360352e+2, -576449.75, -597062.8, 39052.215, 0.0004069063, -0.1886632, -546366.94, -91700.695, 0.0, 9.999461, 9.999186 
1.5498422e+2, 2.6360264e+2, -503894.72, -479621.94, 36980.227, -0.007368637, -0.20577179, -452837.5, -96163.68, 0.0, 9.999149, 9.99947 
1.549785e+2, 2.7360177e+2, -441603.3, -392285.84, 30360.563, -0.013389287, -0.24530296, -377831.7, -119151.82, 0.0, 9.998877, 9.999528 
1.5497276e+2, 2.8360128e+2, -377900.75, -295859.25, 14949.526, -0.008749081, -0.25179705, -293220.06, -132537.52, 0.0, 9.998576, 9.999661 
1.5496694e+2, 2.9360116e+2, -330251.03, -221623.81, 11827.3, 0.006456831, -0.23393187, -220350.97, -157669.28, 0.000000191647, 9.998228, 9.999665 
1.5496059e+2, 3.0359977e+2, -316858.72, -173661.84, -2294.7898, -0.01576053, -0.34336275, -173625.08, -173625.08, 0.000007033754, 9.997914, 9.999811 
1.5495427e+2, 3.136006e+2, -270613.47, -17058.701, -8901.125, -0.00967321, -0.24937755, -16746.607, -16746.607, 0.00003709365, 9.997654, 10.001013 
1.6507071e+2, 1.2363357e+2, -1289060.1, -1740027.0, 19870.656, 0.07312449, -0.12443177, -1288186.3, 440191.16, 0.000000035019216, 10.003918, 9.99794 
1.6506319e+2, 1.3363121e+2, -1266104.9, -1677480.8, 1247.255, 0.03273125, -0.15543036, -1266101.0, 364299.25, 0.000000000059127744, 10.003399, 9.997947 
1.6505657e+2, 1.4362942e+2, -1237477.5, -1624981.0, 21281.104, 0.06202594, -0.12492621, -1236312.3, 296105.72, 0.0, 10.0029745, 9.997837 
1.6504987e+2, 1.5362702e+2, -1180526.9, -1548885.6, 25854.938, 0.04536097, -0.1468315, -1178721.0, 255720.42, 0.0, 10.002702, 9.997818 
1.650434e+2, 1.6362478e+2, -1110339.9, -1441299.9, 42678.535, 0.034190167, -0.16079354, -1104925.0, 231537.63, 0.0, 10.002412, 9.998024 
1.650373e+2, 1.7362285e+2, -1056773.0, -1360248.6, 47513.47, 0.032934584, -0.16182946, -1049508.0, 188971.03, 0.0, 10.002088, 9.998064 
1.6503122e+2, 1.8362068e+2, -1021249.9, -1315349.6, 50642.43, 0.029945517, -0.1740712, -1012773.8, 127724.85, 0.0, 10.001758, 9.997858 
1.6502514e+2, 1.936182e+2, -974224.7, -1244645.9, 49927.59, 0.023981217, -0.20771587, -965301.1, 77221.73, 0.0, 10.001419, 9.997834 
1.6501912e+2, 2.0361611e+2, -889667.4, -1097574.1, 55610.125, 0.015970256, -0.21746708, -875727.6, 68815.57, 0.0, 10.001087, 9.99833 
1.6501315e+2, 2.1361484e+2, -831848.7, -1008808.8, 58528.047, 0.0045591774, -0.18981953, -814242.7, 32313.564, 0.0, 10.000768, 9.998421 
1.6500723e+2, 2.2361353e+2, -753217.06, -879745.44, 56129.09, -0.0014014636, -0.17597838, -731906.8, 16662.428, 0.0, 10.000461, 9.998782 
1.6500138e+2, 2.3361228e+2, -692245.06, -791904.5, 51695.7, 0.0020636958, -0.18634892, -670273.4, -19692.096, 0.0, 10.000174, 9.998851 
1.6499545e+2, 2.436112e+2, -612941.44, -667765.9, 47984.727, 0.002870814, -0.19126697, -585091.0, -32499.6, 0.0, 9.999893, 9.999165 
1.6498946e+2, 2.5361043e+2, -549643.44, -579519.2, 49265.94, -0.0021439646, -0.19282396, -513100.5, -58502.51, 0.0, 9.999625, 9.999227 
1.6498342e+2, 2.6360953e+2, -484905.9, -484186.0, 48132.465, -0.010185972, -0.2087395, -436412.16, -79806.53, 0.0, 9.999339, 9.999347 
1.6497737e+2, 2.7360862e+2, -430995.0, -403793.53, 43693.93, -0.020398201, -0.23998751, -371632.47, -113019.39, 0.0, 9.999021, 9.999379 
1.649713e+2, 2.8360802e+2, -362005.63, -292961.78, 28776.598, -0.01844464, -0.24405418, -282540.9, -121924.0, 0.0, 9.998706, 9.999619 
1.6496514e+2, 2.9360783e+2, -307560.63, -213376.47, 26245.654, -0.0036641331, -0.23419061, -206556.6, -143939.88, 0.000000103903474, 9.998396, 9.999641 
1.649585e+2, 3.0360636e+2, -292471.7, -167493.44, 15286.994, -0.024084775, -0.347631, -165650.75, -165650.75, 0.0000052712203, 9.998106, 9.999761 
1.6495202e+2, 3.1360722e+2, -248877.13, -16308.975, 10126.095, -0.008827135, -0.24341884, -15868.914, -15868.914, 0.00002996744, 9.997845, 10.000925 
1.7507447e+2, 1.2364077e+2, -1293463.9, -1748302.9, 1655.9021, 0.059151284, -0.12746063, -1293457.9, 434848.8, 0.00000001688973, 10.003914, 9.997885 
1.7506655e+2, 1.3363844e+2, -1270522.8, -1686315.4, -18232.395, 0.029322095, -0.14959265, -1269724.8, 360605.44, 0.00000000000051975254, 10.003397, 9.997887 
1.7505957e+2, 1.4363669e+2, -1235016.9, -1619843.3, 9952.855, 0.06530443, -0.11252028, -1234759.6, 297588.2, 0.0, 10.0029745, 9.997873 
1.7505254e+2, 1.5363441e+2, -1177017.4, -1541538.3, 15782.216, 0.042049546, -0.12872685, -1176335.4, 258034.6, 0.0, 10.002702, 9.9978695 
1.7504574e+2, 1.636322e+2, -1105840.8, -1431868.0, 30824.84, 0.027933542, -0.1447514, -1102952.0, 233438.58, 0.0, 10.002411, 9.998089 
1.7503937e+2, 1.736302e+2, -1052143.4, -1350583.1, 35318.793, 0.029962918, -0.1607899, -1048020.56, 190386.92, 0.0, 10.002087, 9.998131 
1.7503296e+2, 1.8362798e+2, -1022321.94, -1317572.6, 37958.06, 0.027989019, -0.1802123, -1017520.06, 122907.35, 0.0, 10.001758, 9.997843 
1.7502652e+2, 1.9362554e+2, -976147.6, -1248706.1, 37197.445, 0.019218786, -0.2075885, -971162.25, 71289.2, 0.0, 10.001419, 9.997807 
1.7502016e+2, 2.036235e+2, -886662.44, -1091428.1, 43469.973, 0.012317718, -0.21264078, -877816.3, 66655.02, 0.0, 10.001087, 9.998373 
1.7501396e+2, 2.1362229e+2, -828101.94, -1001105.6, 46471.723, 0.008566494, -0.18325485, -816409.1, 30074.23, 0.0, 10.000768, 9.998474 
1.7500773e+2, 2.2362097e+2, -759485.3, -892811.9, 45134.04, 0.002973663, -0.16983494, -745643.44, 2852.9377, 0.0, 10.000461, 9.9986925 
1.7500147e+2, 2.3361959e+2, -700087.7, -808228.7, 40872.04, -0.0054373415, -0.18410197, -686378.1, -35867.754, 0.0, 10.000174, 9.998738 
1.7499524e+2, 2.4361844e+2, -611625.3, -665061.8, 37744.695, -0.008764185, -0.19026282, -592099.4, -39578.227, 0.0, 9.999893, 9.999184 
1.7498906e+2, 2.5361773e+2, -546814.2, -573690.5, 39185.285, -0.004751167, -0.1886494, -518826.88, -64300.543, 0.0, 9.999625, 9.999267 
1.7498277e+2, 2.6361683e+2, -491782.16, -498539.22, 36347.19, -0.00933011, -0.20470089, -458656.8, -102122.914, 0.0, 9.99934, 9.999248 
1.7497633e+2, 2.7361572e+2, -439417.72, -421327.34, 31692.236, -0.025508476, -0.2415587, -397414.78, -138871.14, 0.0, 9.999021, 9.999258 
1.7496991e+2, 2.8361502e+2, -364166.6, -297498.13, 17028.586, -0.028213143, -0.24764258, -293400.5, -132851.86, 0.0, 9.998706, 9.999588 
1.7496341e+2, 2.9361483e+2, -308562.22, -215574.92, 14657.576, -0.01613424, -0.2340748, -213319.17, -150771.27, 0.00000004563321, 9.998397, 9.999626 
1.7495652e+2, 3.036133e+2, -294567.3, -172053.03, 5194.241, -0.03385276, -0.35107058, -171833.2, -171833.2, 0.0000037135492, 9.998107, 9.999729 
1.7494991e+2, 3.1361404e+2, -253568.2, -26280.113, -79.196556, -0.0033917644, -0.25582835, -26280.086, -26280.086, 0.000023373406, 9.997846, 10.000856 
1.8507813e+2, 1.2364821e+2, -1354534.3, -1776767.0, 3223.9583, 0.053775825, -0.12736635, -1354509.6, 373724.25, 0.000000007292685, 10.00349, 9.997893 
1.850698e+2, 1.3364595e+2, -1293338.9, -1696076.0, -12338.774, 0.02229199, -0.14385284, -1292961.3, 337296.2, 0.0, 10.003235, 9.997898 
1.8506248e+2, 1.4364427e+2, -1230248.5, -1605460.5, 23879.813, 0.061354928, -0.10369935, -1228734.8, 303539.72, 0.0, 10.0029545, 9.997981 
1.850552e+2, 1.5364213e+2, -1179732.1, -1529056.8, 35425.12, 0.041841853, -0.11828474, -1176175.8, 258119.0, 0.0, 10.002624, 9.9979925 
1.8504809e+2, 1.6363996e+2, -1124081.1, -1442377.6, 50142.063, 0.028075876, -0.13569944, -1116369.0, 219945.72, 0.0, 10.002294, 9.998074 
1.8504134e+2, 1.7363785e+2, -1072349.9, -1364430.5, 46846.035, 0.024817314, -0.15817213, -1065020.4, 173312.64, 0.0, 10.0019655, 9.998094 
1.8503459e+2, 1.8363562e+2, -1029947.7, -1315402.4, 48847.105, 0.020110397, -0.1798839, -1021820.4, 118532.85, 0.0, 10.001679, 9.997895 
1.850279e+2, 1.9363329e+2, -965370.44, -1236004.9, 55259.906, 0.013000275, -0.2023946, -954521.94, 87853.95, 0.0, 10.001461, 9.997873 
1.8502127e+2, 2.0363133e+2, -871042.8, -1086454.0, 62167.96, 0.008794726, -0.204863, -854388.6, 90006.43, 0.0, 10.001206, 9.99835 
1.850148e+2, 2.1363005e+2, -812893.94, -997973.0, 58275.53, 0.009303352, -0.17683214, -796073.5, 50333.97, 0.0, 10.000891, 9.998436 
1.8500827e+2, 2.2362866e+2, -748441.9, -895634.6, 54039.94, 0.0044470755, -0.16517967, -730732.44, 17688.744, 0.0, 10.000572, 9.998619 
1.8500163e+2, 2.3362719e+2, -694438.5, -814236.94, 52307.03, -0.009069004, -0.18179691, -674814.5, -24378.166, 0.0, 10.00025, 9.99866 
1.8499509e+2, 2.4362597e+2, -604599.0, -661193.3, 50932.535, -0.01491485, -0.18959513, -574630.8, -22183.18, 0.0, 9.99994, 9.999187 
1.8498865e+2, 2.5362527e+2, -542338.06, -569535.9, 50852.316, -0.009015732, -0.18848807, -503297.75, -48845.574, 0.0, 9.999648, 9.999285 
1.849821e+2, 2.636243e+2, -493037.78, -507565.1, 47386.09, -0.011850088, -0.20623276, -452361.88, -95901.97, 0.0, 9.999368, 9.999172 
1.8497539e+2, 2.7362308e+2, -433745.7, -428638.9, 44941.22, -0.026504965, -0.2467212, -386178.6, -127707.44, 0.0, 9.999104, 9.999168 
1.8496867e+2, 2.8362235e+2, -351012.56, -295759.9, 30293.176, -0.029643053, -0.2522033, -282387.56, -121910.58, 0.0, 9.9988165, 9.999546 
1.849618e+2, 2.936222e+2, -297364.13, -213735.94, 26594.08, -0.02149538, -0.23124366, -205995.38, -143519.48, 0.000000013949684, 9.998488, 9.999595 
1.8495457e+2, 3.0362064e+2, -284134.25, -161147.72, 19443.678, -0.040247776, -0.3507285, -158146.97, -158146.97, 0.0000024106344, 9.998154, 9.999782 
1.8494776e+2, 3.136213e+2, -258083.19, -25176.676, 21248.963, -0.0031837416, -0.26828706, -23253.924, -23253.924, 0.000017412012, 9.997801, 10.000886 
1.9508164e+2, 1.2365588e+2, -1350156.8, -1766912.5, -5793.2056, 0.056460805, -0.12414796, -1350076.3, 378082.56, 0.000000002335495, 10.003487, 9.997963 
1.9507292e+2, 1.3365372e+2, -1288079.6, -1684671.9, -21772.086, 0.011631388, -0.13815494, -1286887.9, 343294.16, 0.0, 10.003233, 9.997977 
1.9506533e+2, 1.4365216e+2, -1217961.0, -1579634.3, 11927.351, 0.05029888, -0.09833546, -1217568.1, 314629.9, 0.0, 10.002954, 9.998158 
1.9505784e+2, 1.536502e+2, -1166254.3, -1500899.0, 22965.242, 0.04463507, -0.11528076, -1164685.6, 269530.28, 0.0, 10.002623, 9.998186 
1.9505045e+2, 1.6364808e+2, -1130824.4, -1456312.8, 37805.355, 0.034439746, -0.13343668, -1126491.0, 209744.06, 0.0, 10.002293, 9.997978 
1.9504322e+2, 1.7364585e+2, -1082112.0, -1384715.9, 34539.734, 0.01747572, -0.1539484, -1078219.8, 160035.75, 0.0, 10.0019655, 9.997954 
1.9503613e+2, 1.8364362e+2, -1021585.25, -1298103.1, 40119.387, 0.0063655768, -0.1731397, -1015882.0, 124394.02, 0.0, 10.001679, 9.998014 
1.9502927e+2, 1.9364148e+2, -954089.2, -1212624.5, 47044.508, 0.005329396, -0.1922024, -945794.8, 96501.35, 0.0, 10.001461, 9.998034 
1.9502245e+2, 2.0363957e+2, -877283.25, -1099433.9, 50736.383, 0.005359818, -0.19417472, -866244.25, 78070.125, 0.0, 10.001206, 9.9982605 
1.9501565e+2, 2.1363814e+2, -821889.8, -1016667.94, 46345.31, 0.006734059, -0.17055129, -811424.7, 34903.926, 0.0, 10.000891, 9.998308 
1.9500881e+2, 2.2363663e+2, -752414.5, -903899.94, 41900.555, 0.0029968563, -0.16200806, -741597.3, 6746.3623, 0.0, 10.000572, 9.998563 
1.9500189e+2, 2.3363507e+2, -697595.94, -820825.94, 40164.305, -0.008840055, -0.17943847, -685661.06, -35301.88, 0.0, 10.00025, 9.998615 
1.9499502e+2, 2.4363382e+2, -605335.3, -662761.8, 39764.62, -0.01560396, -0.18928422, -585000.9, -32630.12, 0.0, 9.99994, 9.999177 
1.9498824e+2, 2.5363308e+2, -542707.0, -570331.7, 39857.746, -0.014996433, -0.19237523, -514336.16, -59960.664, 0.0, 9.999647, 9.999279 
1.9498141e+2, 2.6363206e+2, -496727.25, -515245.34, 37280.957, -0.017800879, -0.21339178, -467572.75, -111189.16, 0.0, 9.999368, 9.99912 
1.9497451e+2, 2.7363077e+2, -437920.06, -437368.13, 35020.527, -0.023363806, -0.25549856, -402622.5, -144226.84, 0.0, 9.999104, 9.999108 
1.9496754e+2, 2.8363e+2, -354639.84, -303338.63, 18238.95, -0.022667693, -0.25771898, -297515.22, -137113.31, 0.0, 9.9988165, 9.999495 
1.949603e+2, 2.9362988e+2, -300804.3, -220928.23, 14287.401, -0.01968431, -0.22560069, -218449.58, -156048.9, 0.0000000023315327, 9.998488, 9.999545 
1.949527e+2, 3.0362836e+2, -274487.53, -141144.56, 6259.288, -0.043275073, -0.34650442, -140851.39, -140851.39, 0.0000014034579, 9.998154, 9.999919 
1.949455e+2, 3.1362903e+2, -249122.42, -6511.7935, 7528.499, -0.008537892, -0.28102282, -6278.3994, -6278.3994, 0.000012235335, 9.997801, 10.001014 
2.0508493e+2, 1.23663716e+2, -1393192.8, -1775662.1, 8630.045, 0.053960767, -0.13360672, -1392998.1, 335084.03, 0.00000000031556127, 10.0031395, 9.99807 
2.0507595e+2, 1.3366179e+2, -1320062.8, -1686827.3, -4843.806, 0.0048778127, -0.13713102, -1319998.8, 310104.72, 0.0, 10.002956, 9.9980955 
2.0506811e+2, 1.436604e+2, -1239864.0, -1576775.5, 26077.844, 0.043443844, -0.0911701, -1237857.5, 294260.3, 0.0, 10.002746, 9.998279 
2.0506033e+2, 1.5365857e+2, -1178043.3, -1493079.3, 31288.785, 0.03805792, -0.106577836, -1174965.8, 259168.3, 0.0, 10.002483, 9.998307 
2.0505263e+2, 1.636565e+2, -1144260.4, -1467763.9, 44800.582, 0.02762362, -0.12504509, -1138170.8, 197982.03, 0.0, 10.002222, 9.997933 
2.050451e+2, 1.7365417e+2, -1087525.0, -1395025.0, 46649.406, 0.009517234, -0.14866892, -1080603.8, 157570.88, 0.0, 10.001962, 9.997886 
2.0503774e+2, 1.8365195e+2, -1015487.94, -1289293.1, 54609.68, -0.0005247478, -0.16668706, -1004998.1, 135197.44, 0.0, 10.001697, 9.998067 
2.0503068e+2, 1.9364995e+2, -954574.6, -1204741.5, 55220.527, 0.0031636793, -0.1775685, -942927.8, 99286.11, 0.0, 10.001423, 9.998106 
2.050236e+2, 2.0364808e+2, -888511.5, -1107596.5, 55345.71, 0.005076182, -0.17966703, -875323.8, 68907.72, 0.0, 10.001141, 9.998236 
2.050165e+2, 2.1364646e+2, -831063.7, -1025420.4, 57180.574, 0.0035491558, -0.1701195, -815489.0, 30758.258, 0.0, 10.000846, 9.998269 
2.0500936e+2, 2.2364482e+2, -755232.44, -911001.44, 57753.727, -0.0013323337, -0.16937055, -736155.7, 12107.637, 0.0, 10.000577, 9.998511 
2.0500217e+2, 2.3364325e+2, -686579.94, -821451.2, 55655.75, -0.011291198, -0.18380164, -666579.2, -16300.155, 0.0, 10.000351, 9.998562 
2.0499502e+2, 2.4364197e+2, -584264.4, -657487.94, 53419.81, -0.017109016, -0.19122514, -556114.3, -3823.4578, 0.0, 10.000106, 9.999133 
2.0498794e+2, 2.536412e+2, -519895.34, -564161.7, 50630.87, -0.017184794, -0.19310234, -486771.28, -32475.361, 0.0, 9.9998255, 9.999236 
2.0498084e+2, 2.6364014e+2, -472665.44, -504516.53, 47965.45, -0.01937583, -0.21462572, -438050.8, -81746.555, 0.0, 9.9995365, 9.999112 
2.049737e+2, 2.7363878e+2, -419385.5, -428699.63, 49973.766, -0.022020737, -0.25992328, -373852.28, -115535.94, 0.0, 9.999232, 9.999106 
2.0496643e+2, 2.83638e+2, -345512.78, -309511.88, 32987.836, -0.019964686, -0.2615846, -289932.9, -129609.88, 0.0, 9.998925, 9.9994 
2.0495886e+2, 2.9363784e+2, -290489.88, -227988.69, 24560.934, -0.018387642, -0.22280529, -219492.1, -157169.19, 0.000000000097020676, 9.998611, 9.999437 
2.049509e+2, 3.036363e+2, -256808.52, -128863.73, 8379.389, -0.04316564, -0.3400701, -128317.27, -128317.27, 0.0000007042908, 9.998259, 9.999953 
2.0494331e+2, 3.1363705e+2, -242654.25, -1714.9688, 317.3293, -0.007980727, -0.27109674, -1714.5508, -1714.5508, 0.000007994477, 9.997838, 10.001029 
2.1508798e+2, 1.2367173e+2, -1383351.8, -1754919.1, 2102.0344, 0.046242304, -0.15527275, -1383339.9, 344663.66, 0.000000000000000082382094, 10.003138, 9.998213 
2.1507886e+2, 1.3367014e+2, -1309345.0, -1664247.0, -11640.508, 0.0019029153, -0.14058337, -1308963.6, 321058.16, 0.0, 10.0029545, 9.998252 
2.1507081e+2, 1.43669e+2, -1235706.4, -1567826.9, 16671.66, 0.040605646, -0.08220296, -1234871.6, 297162.34, 0.0, 10.002744, 9.998341 
2.1506265e+2, 1.5366727e+2, -1174760.1, -1486079.6, 21415.04, 0.022235366, -0.092287004, -1173293.9, 260755.55, 0.0, 10.002482, 9.998356 
2.1505466e+2, 1.6366524e+2, -1143967.3, -1467072.6, 35002.336, 0.007870022, -0.11064456, -1140219.0, 195849.08, 0.0, 10.002222, 9.997939 
2.1504699e+2, 1.7366283e+2, -1087583.5, -1395107.8, 36849.203, 0.00092928496, -0.1423621, -1083229.8, 154860.97, 0.0, 10.001962, 9.997886 
2.1503945e+2, 1.8366058e+2, -1016520.6, -1291408.9, 44375.96, -0.000735467, -0.16051711, -1009534.44, 130577.23, 0.0, 10.001697, 9.998053 
2.1503213e+2, 1.9365871e+2, -955709.3, -1207058.9, 44908.11, 0.006390645, -0.15849817, -947926.6, 94202.5, 0.0, 10.001423, 9.998091 
2.1502478e+2, 2.0365682e+2, -885762.25, -1101889.5, 44345.21, 0.007883361, -0.16136958, -877017.3, 67129.3, 0.0, 10.001141, 9.998276 
2.150173e+2, 2.1365501e+2, -827632.0, -1018339.0, 46047.324, -0.00030942244, -0.17552322, -817095.7, 29067.686, 0.0, 10.000846, 9.998318 
2.1500985e+2, 2.2365326e+2, -758474.2, -917783.1, 48898.664, -0.008596563, -0.18722223, -744662.5, 3517.584, 0.0, 10.000577, 9.998465 
2.1500246e+2, 2.3365168e+2, -690845.1, -830368.7, 47157.203, -0.016456572, -0.19487995, -676401.75, -26206.008, 0.0, 10.000351, 9.998501 
2.149951e+2, 2.436504e+2, -589687.7, -668820.0, 43102.727, -0.01945231, -0.19540416, -570744.6, -18536.863, 0.0, 10.000106, 9.999056 
2.1498778e+2, 2.5364962e+2, -525535.1, -575971.3, 40048.04, -0.015591792, -0.19064637, -503426.7, -49213.266, 0.0, 9.9998255, 9.999155 
2.1498041e+2, 2.6364857e+2, -470029.25, -499131.16, 36590.938, -0.016585644, -0.20988816, -445202.2, -88980.32, 0.0, 9.9995365, 9.999149 
2.1497291e+2, 2.7364725e+2, -415469.44, -420652.6, 38528.793, -0.02256469, -0.2599507, -379445.16, -121211.984, 0.0, 9.999232, 9.999162 
2.1496534e+2, 2.836464e+2, -355200.25, -329696.5, 21209.754, -0.02167839, -0.26378193, -317700.38, -157460.08, 0.0, 9.998925, 9.999261 
2.1495748e+2, 2.936461e+2, -302166.0, -252341.67, 12785.126, -0.017653234, -0.2228839, -249252.5, -187009.9, 0.0, 9.998611, 9.99927 
2.1494919e+2, 3.0364454e+2, -261891.22, -139509.0, -7023.273, -0.039903797, -0.3313131, -139107.27, -139107.27, 0.00000028677624, 9.998259, 9.99988 
2.149412e+2, 3.1364545e+2, -249821.14, -16571.08, -16189.935, -0.0016515537, -0.23831667, -15452.695, -15452.695, 0.0000047712674, 9.997837, 10.000927 
2.2509077e+2, 1.23680346e+2, -1398721.1, -1756902.5, 23201.457, 0.018225117, -0.15566579, -1397224.5, 330695.2, 0.0, 10.003009, 9.998261 
2.2508161e+2, 1.3367887e+2, -1332650.9, -1669890.0, 1433.5537, -0.010433199, -0.13372542, -1332644.9, 297291.94, 0.0, 10.00277, 9.9983015 
2.2507344e+2, 1.436778e+2, -1262964.5, -1578974.8, 23367.572, 0.03741122, -0.07234953, -1261245.9, 270702.47, 0.0, 10.002548, 9.998359 
2.2506498e+2, 1.5367606e+2, -1192938.3, -1493283.6, 25250.873, 0.0125293685, -0.08453699, -1190830.1, 243133.78, 0.0, 10.002351, 9.998369 
2.2505672e+2, 1.6367403e+2, -1152891.5, -1465908.5, 38073.04, -0.0043253615, -0.10559784, -1148327.3, 187655.27, 0.0, 10.002137, 9.997988 
2.2504883e+2, 1.7367163e+2, -1093452.8, -1391724.9, 43851.35, -0.00684461, -0.14092213, -1087139.4, 150865.27, 0.0, 10.001895, 9.997941 
2.2504105e+2, 1.8366942e+2, -1026312.3, -1295881.8, 53005.13, -0.005448336, -0.15872175, -1016264.5, 123760.8, 0.0, 10.001628, 9.9980545 
2.2503348e+2, 1.936676e+2, -970627.75, -1214958.5, 54081.934, 0.0023159902, -0.14985245, -959192.1, 82850.25, 0.0, 10.001324, 9.998084 
2.2502583e+2, 2.0366575e+2, -899194.6, -1106226.9, 53874.625, 0.0054008267, -0.15209302, -886014.3, 58045.35, 0.0, 10.0010395, 9.998294 
2.2501813e+2, 2.1366385e+2, -834006.3, -1018939.2, 53689.387, 0.00042433105, -0.17606819, -819549.44, 26527.34, 0.0, 10.0007925, 9.99834 
2.2501044e+2, 2.2366205e+2, -763127.06, -921895.06, 57892.56, -0.0068006464, -0.19335927, -744259.5, 3834.183, 0.0, 10.000554, 9.998448 
2.250028e+2, 2.3366047e+2, -695819.94, -835383.0, 59192.88, -0.017108174, -0.19934754, -674095.94, -23986.63, 0.0, 10.000329, 9.998478 
2.249952e+2, 2.4365918e+2, -592871.2, -676787.7, 56836.43, -0.021193372, -0.19812402, -564183.3, -12061.695, 0.0, 10.000112, 9.998998 
2.2498764e+2, 2.5365835e+2, -518150.44, -579525.94, 54956.11, -0.016121255, -0.19164309, -485894.47, -31766.396, 0.0, 9.999907, 9.999091 
2.2498001e+2, 2.6365727e+2, -447366.1, -484389.34, 50566.438, -0.016011082, -0.21105118, -412029.34, -55892.63, 0.0, 9.999676, 9.999184 
2.2497225e+2, 2.7365595e+2, -387654.06, -401683.25, 51861.26, -0.021137921, -0.26437125, -342335.16, -84187.89, 0.0, 9.999399, 9.999211 
2.2496438e+2, 2.8365505e+2, -334426.4, -333723.63, 34760.9, -0.019491183, -0.26831767, -299312.34, -139157.78, 0.0, 9.999128, 9.999136 
2.2495624e+2, 2.9365465e+2, -275816.5, -256512.73, 27556.203, -0.01480241, -0.22237524, -236966.97, -174808.39, 0.0, 9.998865, 9.99912 
2.2494762e+2, 3.03653e+2, -221933.36, -133559.66, 4560.7725, -0.03920147, -0.32560295, -133324.9, -133324.9, 0.00000008572978, 9.99859, 9.999761 
2.2493921e+2, 3.136539e+2, -194416.48, -7707.097, -9775.473, -0.007910827, -0.22420573, -7196.682, -7196.682, 0.000002540607, 9.998295, 10.000768 
2.3509331e+2, 1.2368954e+2, -1402107.3, -1763480.9, 14508.628, -0.029515637, -0.1356692, -1401525.8, 326304.88, 0.0, 10.003007, 9.998218 
2.3508415e+2, 1.3368797e+2, -1336424.4, -1677574.0, -7577.7456, -0.03187165, -0.11688792, -1336256.1, 293592.3, 0.0, 10.002769, 9.998249 
2.3507594e+2, 1.436868e+2, -1264904.1, -1582940.8, 15828.507, 0.033832036, -0.06164009, -1264118.4, 267742.63, 0.0, 10.002547, 9.998332 
2.3506728e+2, 1.5368496e+2, -1194518.4, -1496416.3, 17866.77, 0.0087587945, -0.08316667, -1193464.8, 240412.86, 0.0, 10.00235, 9.998348 
2.350588e+2, 1.636829e+2, -1146618.8, -1452686.6, 29198.627, -0.00918344, -0.1096783, -1143858.1, 192037.9, 0.0, 10.002136, 9.998079 
2.3505065e+2, 1.7368062e+2, -1085864.9, -1375808.5, 34717.887, -0.013890635, -0.14420916, -1081765.8, 156150.98, 0.0, 10.001894, 9.998051 
2.3504259e+2, 1.8367848e+2, -1025199.44, -1293441.9, 41823.367, -0.014651795, -0.1612006, -1018829.75, 121106.625, 0.0, 10.001628, 9.998072 
2.3503469e+2, 1.9367668e+2, -970419.1, -1214502.5, 42574.71, -0.009014387, -0.15149249, -963206.1, 78747.41, 0.0, 10.001323, 9.998087 
2.3502679e+2, 2.0367484e+2, -899420.94, -1106745.1, 44284.695, -0.0023316883, -0.15172462, -890357.8, 53612.926, 0.0, 10.0010395, 9.998291 
2.3501897e+2, 2.1367298e+2, -834308.2, -1019631.94, 44376.82, 0.0057193628, -0.17174679, -824230.0, 21757.516, 0.0, 10.0007925, 9.998335 
2.3501109e+2, 2.2367118e+2, -762259.6, -920150.8, 49316.258, 0.003993077, -0.187825, -748121.94, -117.8163, 0.0, 10.000554, 9.99846 
2.3500314e+2, 2.3366961e+2, -694788.56, -833298.2, 50718.625, -0.013281845, -0.19721854, -678202.75, -28183.076, 0.0, 10.000329, 9.998492 
2.3499529e+2, 2.4366826e+2, -595557.7, -682426.2, 49013.29, -0.0223813, -0.19941138, -573502.75, -21470.396, 0.0, 10.000112, 9.99896 
2.3498751e+2, 2.5366735e+2, -521456.7, -586468.94, 47243.754, -0.018842341, -0.19615746, -496616.3, -42576.49, 0.0, 9.999907, 9.999043 
2.3497967e+2, 2.6366624e+2, -445099.34, -479762.94, 40500.28, -0.017710892, -0.21818838, -418378.16, -62329.336, 0.0, 9.999676, 9.999215 
2.3497167e+2, 2.7366495e+2, -384511.9, -395264.34, 41451.11, -0.017743396, -0.27323744, -348089.8, -90031.21, 0.0, 9.999399, 9.999255 
2.3496358e+2, 2.8366405e+2, -342280.3, -350180.8, 24803.84, -0.013383343, -0.27522725, -321114.16, -161048.34, 0.0, 9.999128, 9.9990225 
2.3495516e+2, 2.936636e+2, -285135.8, -276095.28, 17689.402, -0.0098379655, -0.22127727, -262357.75, -200286.92, 0.0, 9.998866, 9.998984 
2.3494618e+2, 3.0366182e+2, -233423.58, -157802.9, -6380.7607, -0.041195445, -0.32307914, -157268.28, -157268.28, 0.000000016806371, 9.998592, 9.999594 
2.349373e+2, 3.1366244e+2, -209427.28, -39461.887, -21462.543, -0.027397772, -0.22950825, -36793.574, -36793.574, 0.0000011714155, 9.998297, 10.000548 
2.4509606e+2, 1.2369906e+2, -1428020.8, -1779124.5, 18381.748, -0.04703251, -0.097263806, -1427061.0, 300678.03, 0.0, 10.002843, 9.998189 
2.4508671e+2, 1.3369724e+2, -1349476.4, -1687703.9, -2622.4292, -0.047774624, -0.10178873, -1349456.1, 280302.8, 0.0, 10.002697, 9.998215 
2.4507836e+2, 1.4369589e+2, -1270657.5, -1585807.3, 21230.014, 0.022256019, -0.061187524, -1269233.8, 262538.8, 0.0, 10.002509, 9.998331 
2.4506949e+2, 1.5369403e+2, -1208266.3, -1502513.4, 24982.89, -0.00023206708, -0.08425753, -1206160.1, 227628.92, 0.0, 10.002254, 9.998353 
2.450608e+2, 1.6369201e+2, -1161015.1, -1450156.9, 36391.297, -0.015054755, -0.109816104, -1156505.3, 179301.66, 0.0, 10.001997, 9.998163 
2.4505244e+2, 1.7368989e+2, -1101595.6, -1372495.6, 40829.39, -0.0157855, -0.1395641, -1095575.8, 142250.36, 0.0, 10.0017395, 9.998148 
2.4504413e+2, 1.836878e+2, -1042485.44, -1298393.1, 47377.21, -0.015429302, -0.15742472, -1033995.94, 105849.086, 0.0, 10.001494, 9.998101 
2.4503593e+2, 1.9368593e+2, -976621.3, -1215191.1, 49275.34, -0.013381075, -0.15787369, -966844.44, 75018.39, 0.0, 10.00127, 9.998108 
2.4502777e+2, 2.0368408e+2, -898694.0, -1104874.0, 52848.527, -0.008114171, -0.1605686, -885937.06, 57943.027, 0.0, 10.001039, 9.998304 
2.4501972e+2, 2.1368234e+2, -833490.56, -1017809.56, 54288.754, 0.0021877207, -0.17023452, -818689.1, 27206.65, 0.0, 10.000792, 9.998348 
2.4501164e+2, 2.2368059e+2, -763967.8, -922713.06, 59633.24, 0.004369382, -0.18167235, -744062.4, 3849.5793, 0.0, 10.000549, 9.998445 
2.4500354e+2, 2.3367894e+2, -698307.3, -837151.9, 58536.645, -0.0063959234, -0.19603948, -676922.2, -26993.982, 0.0, 10.000314, 9.998472 
2.4499547e+2, 2.4367754e+2, -599958.7, -685860.3, 56968.64, -0.013135825, -0.20165871, -571563.9, -19622.553, 0.0, 10.000088, 9.998947 
2.4498746e+2, 2.536766e+2, -527054.4, -590392.5, 58016.082, -0.014015416, -0.19903916, -492626.6, -38677.57, 0.0, 9.999874, 9.999033 
2.4497935e+2, 2.6367548e+2, -443525.94, -475954.5, 52013.707, -0.016502177, -0.22137733, -405257.84, -49299.906, 0.0, 9.999674, 9.999243 
2.4497111e+2, 2.7367422e+2, -368631.88, -383959.53, 51947.473, -0.018789355, -0.27631798, -323785.94, -65818.72, 0.0, 9.999493, 9.999289 
2.4496277e+2, 2.8367335e+2, -322239.3, -346946.38, 36071.99, -0.014649261, -0.27769235, -296464.13, -136489.8, 0.0, 9.999294, 9.998965 
2.4495414e+2, 2.9367286e+2, -260966.19, -272118.94, 33807.83, -0.007844795, -0.22213125, -232277.92, -170297.86, 0.0, 9.999065, 9.998916 
2.449449e+2, 3.0367097e+2, -204535.31, -156967.63, 14121.372, -0.04133911, -0.32457644, -153091.31, -153091.31, 0.0000000018495133, 9.998847, 9.999476 
2.4493563e+2, 3.136714e+2, -170897.94, -40146.074, 1977.463, -0.04026587, -0.23451512, -40116.17, -40116.17, 0.00000045275593, 9.998645, 10.000377 
2.55099e+2, 1.2370891e+2, -1428932.6, -1781118.6, 12748.368, -0.035697687, -0.04117843, -1428471.8, 299173.0, 0.0, 10.002843, 9.998176 
2.550893e+2, 1.3370663e+2, -1350878.0, -1690341.6, -8232.66, -0.058458503, -0.08835987, -1350678.5, 278989.5, 0.0, 10.002695, 9.998198 
2.5508067e+2, 1.4370507e+2, -1269302.0, -1582539.4, 12144.285, 0.0028456382, -0.070583336, -1268831.9, 262851.22, 0.0, 10.002506, 9.998355 
2.5507158e+2, 1.5370329e+2, -1206352.3, -1498242.1, 15356.682, -0.014393831, -0.08764969, -1205546.5, 228151.95, 0.0, 10.002253, 9.998383 
2.5506273e+2, 1.637014e+2, -1155796.0, -1439130.9, 26723.443, -0.021992411, -0.106038705, -1153297.5, 182417.55, 0.0, 10.001996, 9.9982395 
2.550542e+2, 1.7369944e+2, -1095780.1, -1360305.6, 31122.176, -0.012679998, -0.12710302, -1092167.9, 145564.9, 0.0, 10.001739, 9.998232 
2.550457e+2, 1.836974e+2, -1039565.1, -1292260.9, 38777.625, -0.007983322, -0.14750172, -1033748.4, 106002.82, 0.0, 10.001493, 9.998144 
2.5503722e+2, 1.9369535e+2, -974075.06, -1209859.9, 40841.37, -0.0109284585, -0.16890912, -967201.2, 74569.08, 0.0, 10.00127, 9.998144 
2.5502875e+2, 2.0369346e+2, -896637.1, -1100572.4, 43674.508, -0.01202907, -0.17846315, -887677.44, 56110.145, 0.0, 10.001038, 9.998334 
2.5502038e+2, 2.1369192e+2, -831435.8, -1013572.4, 45006.996, -0.010181031, -0.17148414, -820921.3, 24880.271, 0.0, 10.000792, 9.998377 
2.550121e+2, 2.2369026e+2, -767036.1, -929125.5, 50688.93, -0.0056494363, -0.17490202, -752489.94, -4672.7417, 0.0, 10.000549, 9.998401 
2.5500396e+2, 2.3368847e+2, -702089.1, -845064.3, 49659.777, 0.003558134, -0.19582978, -686533.25, -36698.414, 0.0, 10.000314, 9.998419 
2.5499576e+2, 2.4368703e+2, -598860.44, -683638.6, 48822.125, 0.006525071, -0.20487307, -576593.25, -24744.71, 0.0, 10.000088, 9.998962 
2.5498745e+2, 2.5368613e+2, -525210.94, -586598.3, 49991.633, -0.0016597016, -0.20027116, -497242.34, -43386.684, 0.0, 9.999874, 9.999059 
2.5497907e+2, 2.6368505e+2, -442101.75, -473015.2, 45053.555, -0.012436151, -0.22058944, -409927.25, -54063.152, 0.0, 9.999674, 9.999263 
2.5497055e+2, 2.7368385e+2, -367199.16, -381052.25, 45159.047, -0.02437943, -0.27354693, -328438.56, -70565.48, 0.0, 9.999493, 9.999309 
2.5496197e+2, 2.8368294e+2, -322271.25, -347132.53, 27685.645, -0.02342813, -0.27566475, -304353.66, -144473.47, 0.0, 9.999294, 9.998963 
2.5495318e+2, 2.936824e+2, -261019.89, -272405.78, 25181.62, -0.008916044, -0.2250003, -240895.72, -179009.45, 0.0, 9.999066, 9.998914 
2.5494376e+2, 3.0368048e+2, -209056.48, -166645.23, 6495.537, -0.039653275, -0.33020538, -165672.72, -165672.72, 0.000000000039700524, 9.998848, 9.99941 
2.5493422e+2, 3.1368086e+2, -179397.03, -58265.367, -6056.816, -0.04657878, -0.23989171, -57963.27, -57963.27, 0.00000014491832, 9.998647, 10.000251 
2.651019e+2, 1.237185e+2, -1413299.4, -1767750.9, 5777.065, -0.033602793, -0.012903998, -1413205.1, 314347.25, 0.0, 10.002926, 9.998227 
2.6509193e+2, 1.3371606e+2, -1362993.1, -1690087.0, -10412.4795, -0.059967402, -0.08216915, -1362661.9, 266914.4, 0.0, 10.002586, 9.998252 
2.6508304e+2, 1.4371441e+2, -1295216.3, -1586608.5, 15019.019, 0.00090375426, -0.078162566, -1294444.3, 237147.3, 0.0, 10.002293, 9.998429 
2.650737e+2, 1.5371269e+2, -1226060.3, -1498980.0, 21751.309, -0.020241043, -0.09638864, -1224337.5, 209268.45, 0.0, 10.002079, 9.998461 
2.6506457e+2, 1.6371092e+2, -1172575.3, -1443502.4, 33602.563, -0.0290167, -0.10979658, -1168469.8, 167151.8, 0.0, 10.001864, 9.998273 
2.6505584e+2, 1.7370914e+2, -1107393.6, -1362904.4, 33781.695, -0.016531786, -0.116217904, -1103002.6, 134635.44, 0.0, 10.001646, 9.998259 
2.6504716e+2, 1.8370716e+2, -1047257.06, -1288968.9, 39546.305, -0.008497212, -0.13383783, -1040951.4, 98704.68, 0.0, 10.001411, 9.998206 
2.6503846e+2, 1.9370502e+2, -986559.8, -1208306.3, 43824.17, -0.007912153, -0.17183979, -978212.94, 63462.633, 0.0, 10.001152, 9.998212 
2.650298e+2, 2.037031e+2, -911457.6, -1103828.1, 48887.41, -0.0082979845, -0.18830498, -899746.7, 43946.07, 0.0, 10.000919, 9.998369 
2.6502115e+2, 2.137017e+2, -838408.7, -1013590.8, 50413.824, -0.010345762, -0.17202327, -824936.7, 20768.965, 0.0, 10.00073, 9.998406 
2.650126e+2, 2.2370008e+2, -773256.56, -936398.2, 55826.53, -0.0070238314, -0.1706822, -755982.06, -8261.059, 0.0, 10.000525, 9.998363 
2.6500428e+2, 2.3369822e+2, -708097.3, -853333.9, 55158.57, 0.0054587116, -0.19457883, -689524.1, -39784.54, 0.0, 10.000296, 9.99837 
2.6499587e+2, 2.4369673e+2, -595940.0, -678159.1, 56636.89, 0.010732154, -0.2055641, -567065.75, -15312.052, 0.0, 10.000091, 9.999 
2.649874e+2, 2.536959e+2, -514721.28, -575996.75, 59716.758, 0.0031807867, -0.20109966, -478241.5, -24481.482, 0.0, 9.999922, 9.999108 
2.649788e+2, 2.6369485e+2, -433195.66, -467474.56, 54884.742, -0.008593207, -0.22029252, -392836.44, -37068.48, 0.0, 9.99973, 9.999273 
2.6497003e+2, 2.7369368e+2, -366449.03, -379986.72, 53813.52, -0.024208907, -0.27011496, -318980.3, -61203.332, 0.0, 9.9994955, 9.999314 
2.6496124e+2, 2.8369284e+2, -320613.72, -343162.5, 37256.688, -0.025127357, -0.2703021, -292962.9, -133178.97, 0.0, 9.999292, 9.998992 
2.6495227e+2, 2.9369232e+2, -247780.53, -262145.38, 37493.902, -0.009270865, -0.21940002, -216787.31, -154997.83, 0.0, 9.999141, 9.998948 
2.6494268e+2, 3.0369037e+2, -184386.05, -154989.56, 24268.71, -0.040546328, -0.32650942, -141315.13, -141315.13, 0.0, 9.999019, 9.999408 
2.6493296e+2, 3.1369066e+2, -139863.34, -45483.984, 16551.754, -0.05392537, -0.24343264, -42665.4, -42665.4, 0.000000037775372, 9.998945, 10.0001955 
2.7510476e+2, 1.2372784e+2, -1406037.8, -1751474.5, -6447.3257, -0.040569536, -0.011185874, -1405917.5, 321544.2, 0.0, 10.00292, 9.998342 
2.7509457e+2, 1.3372551e+2, -1354661.1, -1672318.8, -23298.168, -0.052725065, -0.08278302, -1352961.4, 276522.56, 0.0, 10.002584, 9.998375 
2.7508548e+2, 1.4372393e+2, -1286633.1, -1568672.4, 6416.6724, 0.015696215, -0.08388385, -1286487.3, 245010.69, 0.0, 10.002292, 9.998553 
2.750758e+2, 1.5372226e+2, -1217455.6, -1480947.5, 13723.513, -0.018110124, -0.11024928, -1216742.8, 216768.72, 0.0, 10.002078, 9.998586 
2.7506638e+2, 1.6372058e+2, -1173411.0, -1445027.1, 25389.924, -0.0361887, -0.12078589, -1171058.0, 164468.36, 0.0, 10.0018635, 9.998263 
2.750574e+2, 1.7371896e+2, -1109576.5, -1367221.0, 25538.316, -0.027288388, -0.10676934, -1107069.5, 130472.7, 0.0, 10.001645, 9.99823 
2.7504846e+2, 1.837171e+2, -1041690.5, -1277259.1, 29966.607, -0.016873198, -0.11644871, -1037938.25, 101621.41, 0.0, 10.0014105, 9.998287 
2.7503964e+2, 1.9371492e+2, -979741.25, -1194138.5, 34077.727, -0.004351552, -0.16677088, -974455.0, 67123.77, 0.0, 10.001152, 9.99831 
2.7503082e+2, 2.0371303e+2, -908706.3, -1098170.3, 41418.566, 0.0029702748, -0.19020945, -900047.56, 43548.08, 0.0, 10.000919, 9.998407 
2.7502197e+2, 2.1371165e+2, -836260.8, -1009193.4, 43288.168, 0.0015925773, -0.1718599, -826030.2, 19577.793, 0.0, 10.00073, 9.998437 
2.750132e+2, 2.2371005e+2, -775624.1, -941343.8, 47352.477, 0.00015140846, -0.16898228, -763048.06, -15424.768, 0.0, 10.000525, 9.998328 
2.7500448e+2, 2.3370816e+2, -711079.3, -859569.5, 46505.434, -0.0007425322, -0.19226696, -697716.8, -48074.188, 0.0, 10.000296, 9.998327 
2.7499586e+2, 2.4370666e+2, -591944.56, -669912.06, 50010.242, -0.00054773345, -0.20371564, -567518.9, -15862.151, 0.0, 10.000091, 9.999056 
2.7498728e+2, 2.5370586e+2, -509691.9, -565593.44, 53411.61, 0.00047122003, -0.20152481, -477359.63, -23697.518, 0.0, 9.999922, 9.99918 
2.7497855e+2, 2.637049e+2, -433122.4, -467349.47, 46348.926, -0.0049824337, -0.22049193, -400828.5, -45158.914, 0.0, 9.999729, 9.999274 
2.7496958e+2, 2.7370372e+2, -367119.0, -381351.44, 44959.55, -0.018245095, -0.26604167, -328715.97, -71036.99, 0.0, 9.9994955, 9.999305 
2.7496058e+2, 2.8370297e+2, -316607.38, -334809.22, 31132.113, -0.019722376, -0.26155996, -293273.22, -133587.61, 0.0, 9.999292, 9.999049 
2.7495143e+2, 2.9370257e+2, -242833.58, -251913.86, 31755.525, -0.008929947, -0.2051581, -215295.28, -153605.56, 0.0, 9.999141, 9.999019 
2.7494165e+2, 3.037007e+2, -179800.25, -145673.08, 21252.818, -0.044089705, -0.3133328, -135481.42, -135481.42, 0.0, 9.99902, 9.999471 
2.749318e+2, 3.1370088e+2, -138621.42, -43342.605, 13434.438, -0.0627726, -0.24511471, -41484.566, -41484.566, 0.00000000643165, 9.998947, 10.000209 
2.8510755e+2, 1.2373726e+2, -1459493.0, -1763342.9, 874.2369, -0.032312654, -0.023335047, -1459490.5, 267879.13, 0.0, 10.002494, 9.998466 
2.8509703e+2, 1.3373515e+2, -1373189.9, -1666421.9, -15660.034, -0.054561462, -0.084412925, -1372355.9, 257033.38, 0.0, 10.002393, 9.9985075 
2.850877e+2, 1.4373372e+2, -1288561.5, -1560186.3, 12911.0625, 0.012135595, -0.08259408, -1287949.3, 243452.42, 0.0, 10.002238, 9.998637 
2.850778e+2, 1.5373208e+2, -1223599.3, -1475176.9, 16706.393, -0.018617686, -0.11544923, -1222494.6, 210920.38, 0.0, 10.001999, 9.998664 
2.8506818e+2, 1.6373043e+2, -1189126.8, -1451121.4, 26722.05, -0.036353666, -0.12761047, -1186429.0, 149000.64, 0.0, 10.001749, 9.998276 
2.850589e+2, 1.7372887e+2, -1132096.1, -1377536.8, 29197.098, -0.03154503, -0.10728802, -1128670.6, 108774.77, 0.0, 10.001489, 9.998235 
2.8504974e+2, 1.837271e+2, -1056647.5, -1273862.9, 36370.535, -0.021678768, -0.11239632, -1050719.5, 88742.73, 0.0, 10.001262, 9.998383 
2.8504077e+2, 1.9372503e+2, -980650.25, -1182423.8, 41433.33, -0.0039509786, -0.16095383, -972473.44, 69006.35, 0.0, 10.001094, 9.998418 
2.8503177e+2, 2.0372319e+2, -910718.6, -1099361.5, 48200.043, 0.00819107, -0.18510959, -899116.6, 44379.355, 0.0, 10.000907, 9.998405 
2.8502277e+2, 2.1372175e+2, -843319.0, -1014594.7, 46569.168, 0.0109281335, -0.17140923, -831475.94, 14033.193, 0.0, 10.00069, 9.998419 
2.850138e+2, 2.2372013e+2, -781162.25, -942709.1, 49776.418, 0.008869021, -0.16936715, -767056.6, -19531.912, 0.0, 10.000482, 9.998341 
2.850048e+2, 2.3371832e+2, -711105.06, -857788.0, 53248.793, -0.00028999973, -0.18721668, -693813.2, -44269.77, 0.0, 10.000288, 9.998343 
2.849959e+2, 2.4371685e+2, -588461.56, -664214.3, 59615.64, -0.0037966212, -0.19842277, -555707.6, -4150.446, 0.0, 10.000097, 9.999091 
2.849872e+2, 2.5371602e+2, -509080.34, -560988.8, 60673.918, 0.001087684, -0.2043726, -469042.56, -15480.007, 0.0, 9.999908, 9.999218 
2.849783e+2, 2.6371503e+2, -436442.78, -474846.06, 49834.04, -0.0028933806, -0.2236543, -402239.03, -46668.848, 0.0, 9.999732, 9.999222 
2.8496912e+2, 2.7371392e+2, -359788.16, -385098.38, 44066.215, -0.01876121, -0.2569011, -326595.88, -69015.97, 0.0, 9.9995775, 9.99924 
2.849599e+2, 2.8371322e+2, -294547.0, -316180.44, 29122.637, -0.022422854, -0.24614072, -274297.2, -114710.82, 0.0, 9.99941, 9.999121 
2.8495055e+2, 2.9371288e+2, -224573.52, -232704.38, 31544.512, -0.012767849, -0.19297303, -196833.55, -135244.11, 0.0, 9.999221, 9.999112 
2.8494066e+2, 3.0371106e+2, -169486.13, -129963.35, 24908.834, -0.046690688, -0.30628487, -117929.1, -117929.1, 0.0, 9.999044, 9.999567 
2.849307e+2, 3.1371123e+2, -144568.89, -40946.965, 19218.639, -0.06434825, -0.25048378, -37497.344, -37497.344, 0.00000000043435586, 9.998883, 10.000257 
2.9511026e+2, 1.2374675e+2, -1450441.5, -1744228.4, -2975.7207, -0.009818262, -0.048602086, -1450411.4, 276864.8, 0.0, 10.002492, 9.998598 
2.9509935e+2, 1.3374501e+2, -1363621.6, -1646138.0, -19468.314, -0.065323174, -0.08680679, -1362286.4, 267005.8, 0.0, 10.002391, 9.998648 
2.9508972e+2, 1.4374377e+2, -1285726.0, -1553768.6, 4494.798, -0.009227993, -0.07435746, -1285650.6, 245651.98, 0.0, 10.002235, 9.998683 
2.9507977e+2, 1.537421e+2, -1221658.3, -1470684.0, 7606.004, -0.021794874, -0.11210392, -1221426.3, 211890.28, 0.0, 10.001997, 9.998695 
2.9506996e+2, 1.6374043e+2, -1186875.5, -1446094.1, 16935.521, -0.029832011, -0.1303125, -1185773.8, 149557.77, 0.0, 10.001748, 9.998312 
2.9506043e+2, 1.7373885e+2, -1129606.3, -1372197.9, 19375.367, -0.029513162, -0.11751951, -1128068.5, 109279.28, 0.0, 10.001488, 9.998272 
2.95051e+2, 1.8373716e+2, -1049115.8, -1258194.3, 29625.85, -0.023047099, -0.12133596, -1044998.94, 94364.75, 0.0, 10.001262, 9.99849 
2.950418e+2, 1.9373536e+2, -972349.5, -1165193.5, 35116.047, -0.006722592, -0.15431394, -966154.06, 75224.5, 0.0, 10.001093, 9.998537 
2.9503265e+2, 2.0373362e+2, -913750.6, -1105645.8, 40245.598, 0.0074188723, -0.17307015, -905651.9, 37741.992, 0.0, 10.000907, 9.998363 
2.9502353e+2, 2.13732e+2, -847920.44, -1024166.56, 38402.91, 0.01766154, -0.17068397, -839916.2, 5492.8267, 0.0, 10.0006895, 9.998354 
2.9501438e+2, 2.2373034e+2, -777252.1, -934651.0, 42344.37, 0.01909527, -0.17180665, -766583.5, -19158.336, 0.0, 10.000482, 9.998396 
2.9500514e+2, 2.3372869e+2, -705852.56, -846961.94, 45969.258, 0.0067884787, -0.17941816, -692198.4, -42756.395, 0.0, 10.000288, 9.998418 
2.9499605e+2, 2.437273e+2, -587557.8, -662372.44, 52461.477, 0.0009517816, -0.18970834, -560532.9, -9077.983, 0.0, 10.000097, 9.9991045 
2.9498714e+2, 2.537263e+2, -508839.03, -560489.44, 53553.293, 0.004981357, -0.20968165, -475209.25, -21747.846, 0.0, 9.9999075, 9.999222 
2.9497802e+2, 2.6372528e+2, -444009.72, -490558.38, 43790.906, -0.0023934834, -0.22979584, -417692.34, -62222.53, 0.0, 9.999732, 9.999114 
2.9496863e+2, 2.737243e+2, -368413.03, -403044.3, 38181.89, -0.02587548, -0.24260414, -343803.88, -86324.06, 0.0, 9.999577, 9.999117 
2.949592e+2, 2.837236e+2, -288565.03, -303835.47, 22131.9, -0.033379927, -0.22397093, -272788.34, -113302.11, 0.0, 9.99941, 9.999206 
2.9494968e+2, 2.9372323e+2, -216352.38, -215713.64, 24378.074, -0.02092226, -0.18291867, -191652.84, -130164.16, 0.0, 9.999222, 9.9992285 
2.949397e+2, 3.0372146e+2, -160678.92, -111657.22, 18688.525, -0.04839251, -0.30555767, -105345.305, -105345.305, 0.0, 9.999044, 9.999693 
2.9492962e+2, 3.1372166e+2, -139195.7, -29510.1, 12686.003, -0.05877525, -0.2601129, -28061.982, -28061.982, 0.0, 9.998882, 10.000336 
3.051127e+2, 1.23756625e+2, -1458872.5, -1736216.4, 9740.9, -0.00645113, -0.058543354, -1458530.9, 268648.28, 0.0, 10.002382, 9.998706 
3.0510157e+2, 1.3375503e+2, -1382223.1, -1642550.0, -9004.764, -0.07121342, -0.092212856, -1381912.0, 247281.44, 0.0, 10.00221, 9.998759 
3.0509177e+2, 1.4375393e+2, -1317375.8, -1566803.4, 9475.688, -0.016514389, -0.07396051, -1317016.3, 214186.44, 0.0, 10.002009, 9.998702 
3.0508164e+2, 1.5375237e+2, -1254557.3, -1485680.6, 10275.834, -0.02417732, -0.10248371, -1254101.4, 179114.88, 0.0, 10.001767, 9.998703 
3.0507165e+2, 1.6375074e+2, -1209699.5, -1447689.9, 20926.89, -0.027490567, -0.12173787, -1207873.4, 127357.72, 0.0, 10.001551, 9.998396 
3.050619e+2, 1.7374906e+2, -1139049.6, -1365993.9, 27763.73, -0.023043804, -0.12625876, -1135702.4, 101545.13, 0.0, 10.001376, 9.998367 
3.0505228e+2, 1.8374741e+2, -1053915.5, -1254315.4, 40295.766, -0.017019993, -0.13342185, -1046116.44, 93146.45, 0.0, 10.001203, 9.998546 
3.0504286e+2, 1.9374587e+2, -978153.2, -1162333.3, 40948.87, -0.008369579, -0.14717296, -969459.4, 71816.38, 0.0, 10.001029, 9.998588 
3.0503348e+2, 2.037442e+2, -925722.44, -1114919.5, 42067.14, 0.002545753, -0.15928684, -916790.6, 26499.871, 0.0, 10.000839, 9.998331 
3.0502418e+2, 2.137424e+2, -860503.8, -1034886.8, 41739.156, 0.016769717, -0.17082536, -851028.25, -5720.6855, 0.0, 10.000624, 9.998312 
3.0501485e+2, 2.237407e+2, -780382.75, -931506.56, 48045.793, 0.021819593, -0.17707759, -766401.4, -19077.174, 0.0, 10.000441, 9.998437 
3.050055e+2, 2.3373918e+2, -699060.94, -837621.8, 50408.598, 0.012380292, -0.17540511, -682662.9, -33323.566, 0.0, 10.000309, 9.998472 
3.0499622e+2, 2.4373783e+2, -581471.94, -664081.44, 53486.297, 0.00622316, -0.18146974, -555198.1, -3846.4438, 0.0, 10.000159, 9.999063 
3.049871e+2, 2.5373676e+2, -502660.63, -563806.06, 49921.363, 0.0049116695, -0.20531558, -474694.2, -21334.877, 0.0, 9.999978, 9.999166 
3.0497774e+2, 2.6373565e+2, -438661.38, -494603.53, 39866.324, -0.006088418, -0.22622094, -417932.3, -62563.645, 0.0, 9.999798, 9.999055 
3.0496818e+2, 2.7373466e+2, -366232.28, -408646.6, 39058.863, -0.030511128, -0.23488604, -342994.66, -85615.45, 0.0, 9.99962, 9.999057 
3.0495858e+2, 2.8373393e+2, -277794.1, -294185.66, 24452.787, -0.038878024, -0.21515232, -260200.16, -100814.39, 0.0, 9.999464, 9.999246 
3.0494893e+2, 2.9373363e+2, -195182.34, -199307.94, 22146.13, -0.026834823, -0.1773692, -175003.14, -113615.46, 0.0, 9.99934, 9.999284 
3.049388e+2, 3.0373186e+2, -135513.55, -100844.16, 9925.744, -0.050097816, -0.29764462, -98203.57, -98203.57, 0.0, 9.999223, 9.999681 
3.0492866e+2, 3.137321e+2, -110578.34, -23503.883, -7667.614, -0.05387638, -0.2477963, -22833.844, -22833.844, 0.0, 9.999112, 10.000266 
3.1511492e+2, 1.2376688e+2, -1453313.5, -1724407.1, 3471.7412, -0.021660803, -0.053884245, -1453269.1, 273809.6, 0.0, 10.002381, 9.998787 
3.1510377e+2, 1.3376527e+2, -1376728.9, -1630603.5, -15539.201, -0.07256164, -0.10045362, -1375781.3, 253311.69, 0.0, 10.002207, 9.998843 
3.1509382e+2, 1.4376421e+2, -1318143.3, -1567799.9, 614.7512, -0.010392989, -0.08097731, -1318141.8, 212960.06, 0.0, 10.002007, 9.998697 
3.1508338e+2, 1.5376285e+2, -1255942.5, -1488222.6, 1147.0867, -0.025918072, -0.08666513, -1255936.9, 177177.31, 0.0, 10.001765, 9.998687 
3.150732e+2, 1.6376129e+2, -1200654.4, -1428736.9, 14065.329, -0.029252792, -0.10217013, -1199790.3, 135338.2, 0.0, 10.00155, 9.998527 
3.150634e+2, 1.737595e+2, -1128444.6, -1343815.0, 21210.127, -0.012284093, -0.1335354, -1126375.8, 110769.17, 0.0, 10.001375, 9.998521 
3.150536e+2, 1.8375787e+2, -1053807.1, -1253962.1, 33752.855, -0.0038210177, -0.14856045, -1048268.56, 90891.18, 0.0, 10.001202, 9.9985485 
3.150439e+2, 1.9375654e+2, -979533.7, -1165063.0, 34409.02, -0.008962534, -0.13950938, -973357.6, 67813.69, 0.0, 10.001028, 9.998569 
3.1503424e+2, 2.0375493e+2, -927097.3, -1117710.9, 34120.703, -0.0064199213, -0.14378288, -921173.6, 22012.31, 0.0, 10.000839, 9.998313 
3.1502473e+2, 2.1375294e+2, -861757.6, -1037586.8, 33571.91, 0.0082811145, -0.17182958, -855565.6, -10360.874, 0.0, 10.000624, 9.998294 
3.1501523e+2, 2.2375116e+2, -778434.7, -927592.4, 42728.87, 0.017059758, -0.18515898, -767061.44, -19839.572, 0.0, 10.000441, 9.998464 
3.1500584e+2, 2.3374978e+2, -696635.0, -832683.75, 45457.18, 0.016478326, -0.17518066, -682844.5, -33609.016, 0.0, 10.000309, 9.998506 
3.1499642e+2, 2.4374847e+2, -588309.25, -678343.25, 46871.86, 0.011972295, -0.17368315, -568337.75, -17090.379, 0.0, 10.000159, 9.998965 
3.14987e+2, 2.5374737e+2, -510833.28, -580828.0, 43018.55, 0.0008174286, -0.19117275, -490374.25, -37117.914, 0.0, 9.999978, 9.999049 
3.1497747e+2, 2.6374614e+2, -439479.1, -496346.97, 33135.523, -0.014033065, -0.21285748, -424250.1, -68983.31, 0.0, 9.999798, 9.9990425 
3.1496778e+2, 2.7374503e+2, -365942.84, -408063.03, 32362.723, -0.0326693, -0.23390894, -348391.1, -91113.01, 0.0, 9.99962, 9.999062 
3.1495804e+2, 2.837443e+2, -278372.66, -295394.4, 19503.242, -0.038899574, -0.21991645, -265604.16, -106319.195, 0.0, 9.999464, 9.999237 
3.149482e+2, 2.9374403e+2, -195722.33, -200511.92, 17441.785, -0.030499248, -0.176376, -180511.7, -119225.21, 0.0, 9.99934, 9.999275 
3.1493798e+2, 3.0374235e+2, -146226.03, -123277.484, 5638.6475, -0.051863074, -0.28234082, -121966.87, -121966.87, 0.0, 9.999224, 9.999527 
3.149278e+2, 3.1374255e+2, -126054.87, -55951.523, -12298.561, -0.050296143, -0.21363689, -53856.535, -53856.535, 0.0, 9.999113, 10.000043 
3.2511714e+2, 1.2377741e+2, -1462400.6, -1720940.8, 9388.226, -0.035768777, -0.040864065, -1462060.1, 264915.88, 0.0, 10.002285, 9.9988575 
3.2510585e+2, 1.3377571e+2, -1403359.3, -1635610.1, -10996.369, -0.07203949, -0.10083547, -1402839.8, 226150.61, 0.0, 10.00199, 9.998913 
3.250958e+2, 1.4377467e+2, -1353086.9, -1582465.4, 6903.2144, -0.0011809219, -0.08652216, -1352879.4, 178119.69, 0.0, 10.001758, 9.998716 
3.2508507e+2, 1.537734e+2, -1276192.8, -1496585.6, 9769.849, -0.02309594, -0.084505744, -1275760.5, 157250.45, 0.0, 10.001621, 9.998699 
3.2507467e+2, 1.637719e+2, -1207897.6, -1422799.8, 22323.785, -0.028907975, -0.09811083, -1205603.1, 129421.586, 0.0, 10.001459, 9.9986105 
3.2506472e+2, 1.7377014e+2, -1138838.9, -1338175.8, 25221.492, -0.008067075, -0.1370813, -1135697.3, 101343.21, 0.0, 10.001258, 9.998615 
3.2505476e+2, 1.8376854e+2, -1075329.4, -1263970.4, 35204.965, 0.0014854551, -0.1533885, -1068973.4, 70081.35, 0.0, 10.001052, 9.998551 
3.2504484e+2, 1.937673e+2, -1007637.06, -1179630.9, 36406.67, -0.0071288957, -0.13539876, -1000248.1, 40817.95, 0.0, 10.00084, 9.99856 
3.2503498e+2, 2.0376572e+2, -949479.4, -1131529.0, 38592.49, -0.007694922, -0.13513346, -941636.1, 1444.6509, 0.0, 10.000698, 9.998285 
3.2502532e+2, 2.1376367e+2, -857189.0, -1038628.1, 37551.36, 0.0045795646, -0.16575362, -849724.3, -4624.048, 0.0, 10.0006695, 9.998264 
3.250157e+2, 2.2376184e+2, -759735.06, -917304.9, 43815.99, 0.013004433, -0.18280451, -748370.6, -1252.8656, 0.0, 10.000564, 9.998475 
3.2500613e+2, 2.3376042e+2, -691592.3, -828297.75, 44956.395, 0.015395848, -0.17824249, -678133.2, -29002.018, 0.0, 10.000336, 9.998524 
3.249966e+2, 2.4375911e+2, -597955.5, -692072.9, 46516.09, 0.010947455, -0.17560242, -578845.75, -27702.537, 0.0, 10.000133, 9.998883 
3.2498693e+2, 2.53758e+2, -518578.63, -595161.4, 44281.176, -0.004803964, -0.18137331, -498328.97, -45176.285, 0.0, 9.99997, 9.998954 
3.2497722e+2, 2.637568e+2, -433852.84, -494510.84, 36871.6, -0.020278117, -0.19940348, -416439.2, -61275.555, 0.0, 9.999841, 9.999035 
3.2496744e+2, 2.7375555e+2, -345251.53, -397473.0, 36344.023, -0.03328728, -0.23010541, -326611.2, -69435.75, 0.0, 9.999761, 9.999066 
3.249576e+2, 2.8375477e+2, -254943.0, -292106.34, 21392.896, -0.037411783, -0.22027601, -245188.58, -86005.73, 0.0, 9.99966, 9.999166 
3.249476e+2, 2.9375446e+2, -174469.55, -199307.81, 13833.53, -0.032312244, -0.17107494, -168298.31, -107113.43, 0.0, 9.999525, 9.999195 
3.2493728e+2, 3.0375278e+2, -124266.336, -125377.586, 2070.6985, -0.05345337, -0.26657555, -122678.016, -122678.016, 0.0, 9.999429, 9.9994135 
3.2492703e+2, 3.1375295e+2, -97378.734, -60643.07, -11687.715, -0.051619813, -0.19028744, -57239.82, -57239.82, 0.0, 9.999391, 9.999877 
3.3511928e+2, 1.2378821e+2, -1458982.6, -1712816.0, -1101.4727, -0.049252044, -0.019860772, -1458977.9, 267893.34, 0.0, 10.00228, 9.998916 
3.3510786e+2, 1.3378644e+2, -1399608.9, -1627437.4, -22070.504, -0.06989231, -0.09368158, -1397490.5, 231395.16, 0.0, 10.001988, 9.99897 
3.3509767e+2, 1.4378533e+2, -1350249.6, -1576449.4, 1115.7057, 0.0108942315, -0.09070166, -1350244.1, 180650.47, 0.0, 10.001757, 9.998758 
3.350868e+2, 1.5378402e+2, -1273569.5, -1490915.1, 4708.474, -0.015996827, -0.09560793, -1273467.5, 159439.17, 0.0, 10.001619, 9.998738 
3.3507615e+2, 1.6378257e+2, -1205408.8, -1417387.4, 15030.269, -0.026644897, -0.10907308, -1204348.4, 130571.586, 0.0, 10.001458, 9.998649 
3.35066e+2, 1.7378095e+2, -1136293.0, -1332763.5, 17654.973, -0.0103081055, -0.13692978, -1134719.1, 102215.15, 0.0, 10.001258, 9.998653 
3.3505583e+2, 1.8377943e+2, -1075097.0, -1263488.1, 27268.078, -0.00095281465, -0.14816251, -1071229.6, 67718.35, 0.0, 10.001052, 9.998555 
3.3504573e+2, 1.9377813e+2, -1007679.06, -1179828.4, 28414.723, -0.0029093553, -0.13483778, -1003110.25, 37849.715, 0.0, 10.00084, 9.998558 
3.3503574e+2, 2.0377655e+2, -951910.56, -1136731.8, 36697.906, -0.0014153623, -0.13321221, -944890.5, -1915.543, 0.0, 10.000699, 9.99825 
3.35026e+2, 2.1377458e+2, -859935.9, -1044425.75, 36520.86, 0.005557947, -0.15262832, -852969.44, -7975.333, 0.0, 10.0006695, 9.998224 
3.3501622e+2, 2.2377272e+2, -760071.06, -918064.56, 36072.7, 0.009573292, -0.17011996, -752224.7, -5212.904, 0.0, 10.000564, 9.99847 
3.3500642e+2, 2.337711e+2, -691536.75, -828265.1, 36283.547, 0.009093715, -0.18461955, -682504.8, -33478.426, 0.0, 10.000336, 9.998524 
3.349966e+2, 2.4376972e+2, -602520.3, -701607.4, 40102.992, 0.0031113802, -0.18722492, -588323.6, -37284.574, 0.0, 10.000133, 9.998818 
3.349868e+2, 2.537687e+2, -523736.03, -605890.75, 38177.145, -0.0119845765, -0.17593236, -508734.5, -55686.164, 0.0, 9.99997, 9.99888 
3.3497703e+2, 2.6376754e+2, -434187.66, -495250.13, 33464.625, -0.024841432, -0.18587078, -419419.47, -64360.27, 0.0, 9.99984, 9.99903 
3.349672e+2, 2.7376625e+2, -344793.9, -396623.34, 33336.547, -0.032380898, -0.22343874, -328484.25, -71413.02, 0.0, 9.999761, 9.999073 
3.3495727e+2, 2.8376535e+2, -264496.7, -312085.28, 16541.762, -0.034451224, -0.21616274, -259311.7, -100232.32, 0.0, 9.9996605, 9.999028 
3.3494714e+2, 2.9376495e+2, -185270.97, -221909.8, 8733.434, -0.032295708, -0.16140167, -183295.7, -122212.78, 0.0, 9.999526, 9.99904 
3.349367e+2, 3.037632e+2, -129251.266, -135983.25, 142.89203, -0.05496956, -0.2504267, -129248.234, -129248.234, 0.0, 9.99943, 9.99934 
3.3492637e+2, 3.1376326e+2, -104683.48, -76204.266, -13380.824, -0.058532856, -0.17894268, -70903.836, -70903.836, 0.0, 9.999392, 9.999769 
3.4512147e+2, 1.2379911e+2, -1501447.1, -1724643.6, 6383.8545, -0.041000944, -0.008319017, -1501264.8, 225500.55, 0.0, 10.001952, 9.998992 
3.451098e+2, 1.3379735e+2, -1415173.1, -1626229.5, -13594.295, -0.06620072, -0.08837961, -1414301.1, 214478.0, 0.0, 10.001844, 9.999047 
3.4509942e+2, 1.4379624e+2, -1355276.0, -1575117.8, 11374.805, 0.015321449, -0.09186838, -1354689.0, 176098.61, 0.0, 10.001706, 9.998792 
3.4508842e+2, 1.5379488e+2, -1286476.8, -1493995.1, 14222.998, -0.009016917, -0.103506155, -1285506.4, 147293.64, 0.0, 10.001517, 9.998766 
3.450776e+2, 1.6379346e+2, -1221228.0, -1421227.8, 23099.137, -0.019653115, -0.11712323, -1218594.8, 116218.234, 0.0, 10.001333, 9.998682 
3.450672e+2, 1.7379197e+2, -1148249.1, -1334588.8, 25347.287, -0.007402535, -0.13469657, -1144862.8, 91963.32, 0.0, 10.001159, 9.998688 
3.4505686e+2, 1.8379049e+2, -1082316.6, -1268563.9, 35143.14, 0.000530404, -0.14391753, -1075906.1, 62933.32, 0.0, 10.001009, 9.998541 
3.450466e+2, 1.9378906e+2, -1000347.0, -1178579.1, 35007.965, 0.0014349574, -0.1418374, -993717.44, 47135.273, 0.0, 10.0009, 9.998538 
3.450365e+2, 2.0378745e+2, -942606.9, -1136008.4, 44972.38, 0.001998603, -0.14061354, -932660.75, 10207.362, 0.0, 10.000779, 9.998216 
3.450266e+2, 2.1378562e+2, -867132.8, -1051767.6, 45531.723, 0.0020453383, -0.14309232, -856515.06, -11628.693, 0.0, 10.000637, 9.99819 
3.450167e+2, 2.2378378e+2, -770982.75, -926265.4, 41528.35, 0.0028699504, -0.15523715, -760574.2, -13670.212, 0.0, 10.000502, 9.998444 
3.450067e+2, 2.33782e+2, -687074.4, -828978.25, 39405.867, 0.0051249242, -0.18295918, -676866.0, -27946.172, 0.0, 10.000379, 9.998498 
3.4499675e+2, 2.4378051e+2, -593484.0, -706014.25, 41757.145, 0.0011866678, -0.1919915, -579681.9, -28748.379, 0.0, 10.000232, 9.99874 
3.4498683e+2, 2.5377944e+2, -518478.78, -612937.9, 38928.707, -0.0129609145, -0.17591439, -504503.16, -51559.7, 0.0, 10.000048, 9.998795 
3.4497687e+2, 2.6377827e+2, -426763.2, -496828.78, 35868.73, -0.026485516, -0.18019386, -411657.53, -56702.902, 0.0, 9.999913, 9.998983 
3.4496695e+2, 2.73777e+2, -333105.47, -395499.25, 32730.256, -0.037382104, -0.21135321, -319086.03, -62119.56, 0.0, 9.999861, 9.999032 
3.4495693e+2, 2.8377607e+2, -251682.14, -314845.3, 14041.465, -0.04052546, -0.20271394, -248701.33, -89726.164, 0.0, 9.999787, 9.998948 
3.4494668e+2, 2.937755e+2, -168830.44, -223453.7, 11333.973, -0.03541588, -0.15348883, -166572.1, -105591.81, 0.0, 9.99968, 9.998955 
3.4493622e+2, 3.0377376e+2, -107480.2, -122129.35, 10386.743, -0.05384019, -0.2419457, -102095.18, -102095.18, 0.0, 9.999565, 9.99937 
3.449258e+2, 3.1377384e+2, -98202.75, -73089.59, 4914.3384, -0.057169467, -0.17335598, -72162.164, -72162.164, 0.0, 9.999436, 9.999769 
3.551237e+2, 1.2381011e+2, -1495133.5, -1711125.8, 2486.9822, -0.012512685, -0.005999288, -1495104.9, 231553.3, 0.0, 10.001949, 9.999086 
3.551117e+2, 1.3380846e+2, -1408758.5, -1612394.5, -17606.361, -0.061237622, -0.084898084, -1407247.5, 221423.11, 0.0, 10.001842, 9.999144 
3.551011e+2, 1.4380738e+2, -1353918.3, -1571763.6, 4667.108, 0.012322944, -0.090215415, -1353818.4, 176860.06, 0.0, 10.001703, 9.998816 
3.5509e+2, 1.53806e+2, -1285550.6, -1491804.5, 7157.9497, -0.0022011683, -0.108367555, -1285302.5, 147388.6, 0.0, 10.001516, 9.998782 
3.5507905e+2, 1.6380458e+2, -1219253.0, -1417099.0, 16462.889, -0.008133855, -0.122383095, -1217892.5, 116811.37, 0.0, 10.001333, 9.998711 
3.5506842e+2, 1.7380323e+2, -1145965.3, -1330017.8, 18785.53, 0.000459124, -0.13047537, -1144067.4, 92648.43, 0.0, 10.001159, 9.998719 
3.550579e+2, 1.8380173e+2, -1084456.8, -1273243.5, 30759.875, 0.0057742833, -0.14068237, -1079571.4, 59157.94, 0.0, 10.00101, 9.998508 
3.5504755e+2, 1.9380008e+2, -1003060.75, -1184382.5, 30950.242, 0.005836947, -0.1563043, -997923.4, 42820.977, 0.0, 10.000901, 9.998498 
3.550373e+2, 2.0379841e+2, -944804.8, -1140711.3, 39766.383, 0.0025436275, -0.15719958, -937040.5, 5719.8022, 0.0, 10.000779, 9.998183 
3.5502717e+2, 2.1379678e+2, -869139.25, -1056079.3, 40179.094, -0.005967428, -0.13710365, -860869.4, -16092.206, 0.0, 10.000637, 9.99816 
3.550171e+2, 2.2379501e+2, -774361.25, -933424.4, 36790.016, -0.007123767, -0.13816155, -766264.2, -19469.81, 0.0, 10.000503, 9.998394 
3.5500708e+2, 2.3379311e+2, -690636.0, -836488.0, 34772.64, 0.0034692322, -0.17326616, -682770.06, -33958.65, 0.0, 10.00038, 9.998446 
3.5499704e+2, 2.4379146e+2, -599969.6, -719543.75, 35073.797, 0.0051336503, -0.18991594, -590441.0, -39614.555, 0.0, 10.000232, 9.998647 
3.549869e+2, 2.5379023e+2, -525365.8, -627278.44, 31934.531, -0.0077668387, -0.18138793, -516185.97, -63347.92, 0.0, 10.000048, 9.998696 
3.549768e+2, 2.63789e+2, -433002.66, -509838.3, 33276.008, -0.025265798, -0.18242547, -420595.06, -65745.11, 0.0, 9.999913, 9.998895 
3.549667e+2, 2.7378786e+2, -339245.06, -408308.75, 30722.857, -0.048445106, -0.1937487, -327556.3, -70695.11, 0.0, 9.999861, 9.998944 
3.5495657e+2, 2.837869e+2, -253221.31, -318096.2, 10201.214, -0.05583277, -0.17980964, -251655.05, -92784.87, 0.0, 9.999787, 9.998926 
3.5494632e+2, 2.9378617e+2, -169637.08, -225234.02, 7323.264, -0.04178332, -0.1473986, -168688.63, -107811.66, 0.0, 9.9996805, 9.998942 
3.5493582e+2, 3.0378443e+2, -98071.41, -102723.586, 5620.086, -0.05008024, -0.2413451, -94315.055, -94315.055, 0.0, 9.999565, 9.999503 
3.549253e+2, 3.137846e+2, -90497.33, -57124.19, 120.67931, -0.048000656, -0.17537993, -57123.754, -57123.754, 0.0, 9.999436, 9.999879 
3.6512572e+2, 1.2382129e+2, -1507610.5, -1708528.8, 12134.431, 0.00021117735, -0.0053459755, -1506880.3, 219668.92, 0.0, 10.001827, 9.999163 
3.6511353e+2, 1.338198e+2, -1431939.1, -1614845.6, -9542.542, -0.05037456, -0.07524767, -1431442.6, 197117.31, 0.0, 10.001645, 9.999222 
3.6510283e+2, 1.438188e+2, -1380962.1, -1579288.4, 12756.725, 0.024407843, -0.0803725, -1380145.0, 150421.94, 0.0, 10.001494, 9.998865 
3.6509156e+2, 1.5381733e+2, -1300368.4, -1493645.5, 17436.45, 0.009648487, -0.11151597, -1298808.0, 133772.05, 0.0, 10.001391, 9.998829 
3.6508048e+2, 1.638159e+2, -1225045.9, -1421241.4, 27314.293, 0.0025714356, -0.12900965, -1221314.3, 113278.516, 0.0, 10.001299, 9.998698 
3.650697e+2, 1.7381464e+2, -1138049.4, -1328217.0, 26093.27, 0.008421935, -0.12560348, -1134534.0, 102070.04, 0.0, 10.001223, 9.998701 
3.6505902e+2, 1.8381314e+2, -1070520.5, -1269152.6, 36156.72, 0.010928195, -0.13348259, -1064143.6, 74473.875, 0.0, 10.001118, 9.998485 
3.650485e+2, 1.9381136e+2, -994793.0, -1182976.0, 37494.48, 0.008175163, -0.16133891, -987597.56, 53036.15, 0.0, 10.000969, 9.998474 
3.650381e+2, 2.0380962e+2, -937941.1, -1139965.8, 47526.55, 0.002657098, -0.16667135, -927318.94, 15331.312, 0.0, 10.000838, 9.99816 
3.6502784e+2, 2.1380804e+2, -856658.1, -1052509.1, 48483.98, -0.0072077787, -0.1386346, -845312.9, -646.16644, 0.0, 10.000733, 9.998138 
3.6501762e+2, 2.2380628e+2, -765133.4, -940163.8, 43382.664, -0.00984059, -0.13324498, -754970.75, -8286.623, 0.0, 10.000614, 9.998295 
3.6500746e+2, 2.338043e+2, -685304.5, -846280.94, 36809.707, -0.00088831625, -0.16451079, -677286.75, -28584.4, 0.0, 10.000469, 9.998336 
3.649973e+2, 2.4380256e+2, -588681.2, -720841.4, 35342.71, 0.00025697018, -0.18057734, -579823.4, -29104.984, 0.0, 10.000339, 9.998587 
3.64987e+2, 2.5380126e+2, -502235.84, -622098.5, 35394.11, -0.011383731, -0.17644374, -492564.7, -39834.082, 0.0, 10.000233, 9.998643 
3.6497676e+2, 2.6379994e+2, -413452.75, -511453.13, 39288.42, -0.027857687, -0.17850363, -399646.9, -44903.64, 0.0, 10.000095, 9.9987955 
3.6496654e+2, 2.737987e+2, -338911.06, -419828.94, 35556.266, -0.050556045, -0.18583037, -325507.44, -68751.96, 0.0, 9.999913, 9.998839 
3.6495632e+2, 2.837977e+2, -257908.28, -320388.13, 15153.113, -0.058038086, -0.17104205, -254427.17, -95662.08, 0.0, 9.999755, 9.998926 
3.6494592e+2, 2.9379696e+2, -175007.4, -226100.03, 14367.521, -0.04463983, -0.14185116, -171244.33, -110472.41, 0.0, 9.999636, 9.998958 
3.6493537e+2, 3.0379525e+2, -97892.33, -90096.22, 12473.765, -0.04847329, -0.23672082, -80925.62, -80925.62, 0.0, 9.999513, 9.999616 
3.649248e+2, 3.1379545e+2, -92493.69, -48719.742, 4766.4106, -0.040088564, -0.18347502, -48206.754, -48206.754, 0.0, 9.999383, 9.999963 
3.751275e+2, 1.2383265e+2, -1504109.3, -1700229.3, 5670.253, -0.002316336, -0.0065102065, -1503945.5, 222492.98, 0.0, 10.001822, 9.999223 
3.7511533e+2, 1.338314e+2, -1428167.5, -1606558.9, -16422.746, -0.033907488, -0.05973889, -1426668.3, 201779.06, 0.0, 10.001643, 9.99928 
3.7510455e+2, 1.4383048e+2, -1375919.8, -1568741.3, 8574.712, 0.05086542, -0.062753886, -1375539.3, 154914.08, 0.0, 10.001493, 9.998938 
3.750931e+2, 1.5382887e+2, -1295038.8, -1482705.9, 13577.224, 0.026263595, -0.11309653, -1294061.5, 138405.27, 0.0, 10.001392, 9.998904 
3.7508184e+2, 1.638274e+2, -1228566.0, -1428724.8, 24247.838, 0.01244309, -0.13701084, -1225670.5, 108809.21, 0.0, 10.0013, 9.998647 
3.75071e+2, 1.7382622e+2, -1142758.4, -1338071.4, 23184.482, 0.01642514, -0.120137006, -1140044.0, 96446.875, 0.0, 10.001223, 9.998633 
3.7506017e+2, 1.8382473e+2, -1071562.5, -1271395.0, 30867.86, 0.015927028, -0.12243603, -1066903.0, 71601.24, 0.0, 10.001118, 9.998469 
3.7504947e+2, 1.9382286e+2, -995256.2, -1184087.3, 31904.354, 0.008440894, -0.15710852, -990011.4, 50509.527, 0.0, 10.00097, 9.9984665 
3.7503892e+2, 2.0382105e+2, -938861.56, -1142075.8, 43428.676, 0.0023180472, -0.16916981, -929969.56, 12568.331, 0.0, 10.000838, 9.998146 
3.7502858e+2, 2.138194e+2, -857589.8, -1054605.6, 44557.152, -0.0017820946, -0.14764258, -847981.4, -3426.4365, 0.0, 10.000734, 9.998124 
3.7501824e+2, 2.2381759e+2, -775752.6, -962344.4, 38105.664, -0.005415714, -0.14036494, -768270.75, -21697.547, 0.0, 10.000614, 9.998142 
3.7500784e+2, 2.3381558e+2, -697159.0, -871006.2, 31325.863, -0.008013222, -0.15665218, -691686.56, -43093.844, 0.0, 10.000469, 9.998166 
3.7499747e+2, 2.4381383e+2, -590640.75, -724997.1, 31184.543, -0.013502024, -0.16396222, -583755.56, -33146.207, 0.0, 10.000339, 9.998558 
3.7498713e+2, 2.538125e+2, -502806.6, -623394.2, 31392.252, -0.023904009, -0.16100438, -495123.8, -42502.652, 0.0, 10.000233, 9.998634 
3.749768e+2, 2.6381105e+2, -421076.28, -527379.1, 32719.832, -0.034304846, -0.16842546, -411812.47, -57177.95, 0.0, 10.000095, 9.998687 
3.7496656e+2, 2.7380958e+2, -347528.5, -437671.16, 28629.818, -0.043613054, -0.18780969, -339204.22, -82554.87, 0.0, 9.999912, 9.998717 
3.749562e+2, 2.838085e+2, -256547.52, -317412.56, 10373.504, -0.047023583, -0.17662868, -254828.1, -96168.15, 0.0, 9.999754, 9.998947 
3.7494555e+2, 2.938079e+2, -172152.05, -219990.56, 9916.248, -0.04399958, -0.13681786, -170178.0, -109512.87, 0.0, 9.999635, 9.999001 
3.7493485e+2, 3.038063e+2, -91832.125, -77317.28, 7586.3887, -0.04913928, -0.22803645, -74075.97, -74075.97, 0.0, 9.999512, 9.999703 
3.749242e+2, 3.1380633e+2, -88743.08, -40705.87, -36.46338, -0.034134768, -0.19969901, -40705.844, -40705.844, 0.0, 9.999381, 10.000018 
3.851293e+2, 1.2384422e+2, -1545208.9, -1713877.9, 14471.705, 0.011478036, -0.0033476762, -1543976.1, 182349.42, 0.0, 10.001514, 9.999277 
3.8511696e+2, 1.338431e+2, -1447601.6, -1609877.3, -8230.255, -0.023931736, -0.04854605, -1447185.3, 181147.97, 0.0, 10.001484, 9.999333 
3.8510615e+2, 1.4384224e+2, -1379181.9, -1566341.3, 16773.295, 0.060418405, -0.05003413, -1377690.5, 152648.14, 0.0, 10.001454, 9.998973 
3.8509458e+2, 1.5384059e+2, -1287400.3, -1475156.3, 18899.87, 0.034048267, -0.10874679, -1285516.6, 146835.69, 0.0, 10.001428, 9.998939 
3.8508326e+2, 1.6383909e+2, -1223326.3, -1430445.3, 26684.148, 0.01930218, -0.1376603, -1219943.6, 114421.86, 0.0, 10.001354, 9.998609 
3.8507226e+2, 1.7383784e+2, -1148031.6, -1345876.3, 26889.105, 0.023629649, -0.12052831, -1144442.3, 91934.85, 0.0, 10.001209, 9.998587 
3.8506135e+2, 1.8383634e+2, -1075699.6, -1273615.8, 35745.465, 0.022541543, -0.12246765, -1069441.5, 68949.21, 0.0, 10.00109, 9.9984665 
3.850505e+2, 1.9383447e+2, -988675.2, -1180476.1, 37636.023, 0.013023584, -0.15665795, -981554.5, 58852.52, 0.0, 10.001013, 9.99847 
3.8503984e+2, 2.0383263e+2, -928776.4, -1140600.8, 49194.6, 0.005024146, -0.17041463, -917908.9, 24515.238, 0.0, 10.000922, 9.998116 
3.8502938e+2, 2.1383089e+2, -848980.9, -1054300.3, 48882.715, -0.0006414449, -0.15410046, -837936.9, 6505.149, 0.0, 10.00081, 9.998089 
3.850189e+2, 2.2382903e+2, -769730.6, -969859.0, 42938.383, -0.00607654, -0.14547539, -760907.06, -14445.985, 0.0, 10.000701, 9.998049 
3.8500836e+2, 2.3382704e+2, -685599.94, -876712.1, 41227.316, -0.010942073, -0.15016866, -677085.56, -28604.43, 0.0, 10.000598, 9.998065 
3.8499784e+2, 2.4382527e+2, -571282.1, -718457.2, 44250.836, -0.01716724, -0.15190303, -559002.0, -8503.862, 0.0, 10.000484, 9.998533 
3.8498735e+2, 2.5382388e+2, -486036.78, -617002.25, 43992.508, -0.02582285, -0.15280627, -472631.44, -20121.592, 0.0, 10.000355, 9.998619 
3.8497695e+2, 2.6382235e+2, -412055.0, -537763.3, 42821.957, -0.03429342, -0.16374171, -398854.13, -44330.11, 0.0, 10.000221, 9.998554 
3.8496655e+2, 2.7382067e+2, -333362.75, -447267.75, 36615.4, -0.0415348, -0.1863299, -322607.97, -66067.016, 0.0, 10.000081, 9.99857 
3.8495603e+2, 2.838195e+2, -233559.06, -309913.13, 16067.709, -0.044930313, -0.17641371, -230315.61, -71762.79, 0.0, 9.9999275, 9.998915 
3.8494524e+2, 2.9381892e+2, -155940.88, -213964.08, 11291.604, -0.044794947, -0.13380533, -153820.92, -93263.13, 0.0, 9.999754, 9.998984 
3.849344e+2, 3.038174e+2, -84370.055, -66296.055, 3456.5376, -0.04630315, -0.22071794, -65657.57, -65657.57, 0.0, 9.999532, 9.99977 
3.849236e+2, 3.1381738e+2, -107352.93, -45138.832, -5615.177, -0.023654504, -0.20317844, -44636.094, -44636.094, 0.0, 9.999234, 10.000058 
3.951311e+2, 1.2385599e+2, -1542204.3, -1706927.4, 13063.158, 0.040566012, 0.003537275, -1541174.8, 185035.86, 0.0, 10.001511, 9.999327 
3.951185e+2, 1.3385493e+2, -1444534.3, -1603049.8, -9536.659, -0.02026568, -0.041540764, -1443962.5, 184255.31, 0.0, 10.001481, 9.999382 
3.951075e+2, 1.438541e+2, -1379517.5, -1566660.4, 15689.355, 0.053738248, -0.042012665, -1378211.4, 152011.63, 0.0, 10.001452, 9.998972 
3.95096e+2, 1.5385246e+2, -1288022.0, -1476105.1, 17832.94, 0.03328028, -0.09867721, -1286346.1, 145890.22, 0.0, 10.001427, 9.998933 
3.9508462e+2, 1.638509e+2, -1225327.5, -1434392.0, 21632.965, 0.023200532, -0.13125928, -1223112.5, 111137.48, 0.0, 10.001353, 9.998582 
3.9507353e+2, 1.7384951e+2, -1149892.9, -1349851.8, 21393.844, 0.030041378, -0.12665126, -1147629.6, 88633.35, 0.0, 10.001209, 9.998559 
3.950625e+2, 1.8384795e+2, -1074943.8, -1272338.4, 32577.188, 0.03071054, -0.13328277, -1069706.3, 68570.625, 0.0, 10.001091, 9.998475 
3.950516e+2, 1.9384617e+2, -987487.5, -1178300.1, 34775.074, 0.021819618, -0.15988208, -981347.44, 58944.52, 0.0, 10.001014, 9.998486 
3.950408e+2, 2.0384434e+2, -931978.44, -1147485.3, 45119.586, 0.010682659, -0.17042042, -922913.3, 19395.531, 0.0, 10.000923, 9.998068 
3.9503014e+2, 2.1384251e+2, -852749.8, -1062233.5, 44623.35, -0.0037896098, -0.1580343, -843640.5, 687.48804, 0.0, 10.000811, 9.9980345 
3.9501953e+2, 2.2384061e+2, -772211.56, -975095.06, 38999.785, -0.011795131, -0.14859833, -764973.0, -18625.348, 0.0, 10.000701, 9.998013 
3.9500895e+2, 2.3383866e+2, -687871.0, -881538.5, 37337.145, -0.009692539, -0.1450752, -680922.1, -32554.482, 0.0, 10.000598, 9.998032 
3.9499837e+2, 2.4383691e+2, -572865.8, -721817.9, 39531.85, -0.010756316, -0.14442265, -563024.3, -12639.668, 0.0, 10.000484, 9.99851 
3.9498782e+2, 2.538354e+2, -487603.6, -620320.25, 39129.39, -0.017112074, -0.15190993, -476926.0, -24529.26, 0.0, 10.000355, 9.998596 
3.9497724e+2, 2.638338e+2, -422916.53, -560365.5, 37614.777, -0.027839828, -0.16447489, -413296.1, -58884.344, 0.0, 10.000221, 9.9984 
3.9496657e+2, 2.7383202e+2, -345449.75, -472424.97, 31332.635, -0.044463973, -0.18132335, -338139.0, -81708.63, 0.0, 10.000081, 9.998398 
3.9495587e+2, 2.838307e+2, -239675.83, -322651.22, 9668.908, -0.051955745, -0.17033714, -238564.03, -80120.3, 0.0, 9.9999275, 9.998827 
3.9494497e+2, 2.9382998e+2, -161255.4, -224977.47, 4717.379, -0.04709858, -0.1328381, -160908.08, -100458.11, 0.0, 9.999754, 9.998909 
3.94934e+2, 3.0382848e+2, -81583.84, -60361.938, -7358.663, -0.03996289, -0.21475114, -58060.02, -58060.02, 0.0, 9.999531, 9.999811 
3.94923e+2, 3.1382856e+2, -106066.68, -41981.35, -16600.547, -0.009412694, -0.1962328, -37936.48, -37936.48, 0.0, 9.999232, 10.000081 
4.051326e+2, 1.23867765e+2, -1570000.0, -1713370.5, 14459.945, 0.051090017, 0.0084590325, -1568556.1, 157539.67, 0.0, 10.00129, 9.999389 
4.0511993e+2, 1.3386668e+2, -1465624.6, -1606396.5, -7216.444, -0.015025811, -0.04296308, -1465255.6, 162847.16, 0.0, 10.0013075, 9.999442 
4.0510893e+2, 1.4386591e+2, -1401222.8, -1575850.0, 17976.566, 0.05854171, -0.043011773, -1399391.4, 130716.03, 0.0, 10.001298, 9.998982 
4.050974e+2, 1.5386437e+2, -1312719.6, -1487393.1, 20737.78, 0.03814817, -0.09049471, -1310291.4, 121828.83, 0.0, 10.001254, 9.998939 
4.0508598e+2, 1.6386282e+2, -1242079.6, -1439380.5, 25393.895, 0.028293544, -0.122327216, -1238863.8, 95269.76, 0.0, 10.001225, 9.99861 
4.050748e+2, 1.7386134e+2, -1146105.5, -1344567.4, 29264.809, 0.03549217, -0.1300505, -1141880.1, 94266.83, 0.0, 10.001221, 9.9985895 
4.050637e+2, 1.8385972e+2, -1059952.8, -1265601.9, 42643.7, 0.036142554, -0.14299738, -1051460.8, 86700.22, 0.0, 10.001197, 9.99847 
4.050527e+2, 1.9385797e+2, -969398.9, -1170502.4, 43169.234, 0.026679242, -0.16636889, -960523.8, 79651.87, 0.0, 10.0011425, 9.998477 
4.0504178e+2, 2.0385614e+2, -923851.4, -1153491.6, 47737.38, 0.013589739, -0.17391309, -914323.1, 27869.674, 0.0, 10.001022, 9.997979 
4.0503094e+2, 2.1385424e+2, -861091.06, -1077168.9, 43465.32, -0.0049002212, -0.15928519, -852675.5, -8462.167, 0.0, 10.0008, 9.997937 
4.050202e+2, 2.2385234e+2, -775777.5, -972403.6, 42089.844, -0.013850401, -0.14566082, -767146.56, -20913.27, 0.0, 10.000658, 9.998053 
4.0500957e+2, 2.3385052e+2, -678022.1, -870315.8, 47547.504, -0.008017478, -0.13495594, -666907.7, -18655.955, 0.0, 10.000638, 9.99809 
4.0499896e+2, 2.4384876e+2, -563203.9, -725564.5, 50003.08, -0.006419307, -0.13531144, -549039.8, 1228.8788, 0.0, 10.0005865, 9.998435 
4.049883e+2, 2.5384703e+2, -474925.88, -624517.4, 44035.95, -0.011776196, -0.15624551, -462925.47, -10642.49, 0.0, 10.000486, 9.998504 
4.0497753e+2, 2.638453e+2, -407479.13, -560509.94, 41259.348, -0.02361361, -0.17191413, -397063.84, -42764.676, 0.0, 10.0003605, 9.998332 
4.0496674e+2, 2.738436e+2, -333385.4, -473742.25, 42857.793, -0.044700436, -0.17622177, -321333.66, -65016.305, 0.0, 10.000195, 9.998334 
4.0495583e+2, 2.8384224e+2, -227401.3, -325156.34, 26456.355, -0.05406048, -0.1609814, -220700.48, -62369.406, 0.0, 10.000048, 9.998752 
4.0494484e+2, 2.9384136e+2, -140650.31, -223532.06, 21452.36, -0.04662518, -0.1311689, -135426.97, -75088.16, 0.0, 9.999932, 9.998833 
4.049337e+2, 3.0383983e+2, -53111.973, -59287.758, 564.4059, -0.035917148, -0.20717749, -53060.816, -53060.816, 0.0, 9.999781, 9.999698 
4.0492243e+2, 3.1383988e+2, -66095.484, -39220.285, -21936.281, -0.0061978786, -0.17987967, -26933.004, -26933.004, 0.0, 9.9995775, 9.999933 
4.1513377e+2, 1.2387954e+2, -1565246.9, -1702960.9, 14936.134, 0.043893274, 0.011296807, -1563645.6, 162335.33, 0.0, 10.001287, 9.999461 
4.1512132e+2, 1.3387841e+2, -1460817.3, -1595905.3, -6749.7563, -0.008276344, -0.0524359, -1460480.8, 167507.22, 0.0, 10.001305, 9.999516 
4.1511038e+2, 1.4387767e+2, -1400074.3, -1573025.6, 16459.754, 0.07427718, -0.052631162, -1398521.6, 131470.4, 0.0, 10.001296, 9.999003 
4.1509873e+2, 1.5387632e+2, -1311765.8, -1485239.4, 18986.6, 0.048382074, -0.08408179, -1309712.0, 122291.58, 0.0, 10.001253, 9.998954 
4.1508725e+2, 1.6387486e+2, -1236608.1, -1428078.8, 24939.836, 0.03450302, -0.110929675, -1233413.0, 100603.04, 0.0, 10.0012245, 9.998688 
4.1507605e+2, 1.7387335e+2, -1139974.0, -1331977.4, 29013.533, 0.039962262, -0.13080022, -1135685.5, 100343.6, 0.0, 10.001221, 9.998676 
4.150649e+2, 1.838717e+2, -1061237.3, -1268367.9, 40683.59, 0.03885166, -0.15164089, -1053533.0, 84510.195, 0.0, 10.001197, 9.998452 
4.1505387e+2, 1.938699e+2, -971655.3, -1175188.6, 41090.715, 0.027645184, -0.176047, -963672.75, 76385.34, 0.0, 10.0011425, 9.998445 
4.1504282e+2, 2.0386802e+2, -932999.9, -1172535.0, 39999.2, 0.013776164, -0.180801, -926497.1, 15578.926, 0.0, 10.001022, 9.9978485 
4.1503173e+2, 2.1386604e+2, -870948.5, -1097846.0, 35081.38, -0.0040238607, -0.15786538, -865648.25, -21550.049, 0.0, 10.000801, 9.997795 
4.1502088e+2, 2.238642e+2, -767653.25, -955762.4, 40526.957, -0.012328316, -0.1367128, -759293.44, -13175.496, 0.0, 10.000658, 9.998166 
4.150102e+2, 2.338626e+2, -667676.7, -848968.2, 46871.28, -0.005955973, -0.119830675, -656275.56, -8142.068, 0.0, 10.000638, 9.998237 
4.1499957e+2, 2.438608e+2, -572178.3, -744252.4, 46569.586, -0.0042076265, -0.12458304, -560383.4, -10233.081, 0.0, 10.0005865, 9.998307 
4.1498876e+2, 2.5385872e+2, -486416.22, -648427.3, 40244.188, -0.009892796, -0.16586046, -476970.16, -24801.49, 0.0, 10.000486, 9.99834 
4.1497794e+2, 2.6385683e+2, -406008.38, -557498.06, 35299.637, -0.02167134, -0.18609972, -398186.8, -44000.47, 0.0, 10.00036, 9.998353 
4.1496694e+2, 2.738554e+2, -330269.44, -467265.94, 36618.445, -0.042243496, -0.17096637, -321095.8, -64893.89, 0.0, 10.000195, 9.998379 
4.149559e+2, 2.838541e+2, -231894.33, -334465.5, 21952.7, -0.051219493, -0.14824544, -227393.42, -69178.63, 0.0, 10.000048, 9.998689 
4.1494477e+2, 2.9385304e+2, -146121.58, -234939.67, 17129.992, -0.043381143, -0.1287758, -142932.3, -82707.98, 0.0, 9.999931, 9.9987545 
4.1493347e+2, 3.0385143e+2, -72199.84, -99095.84, -6676.921, -0.03434571, -0.19791892, -70633.516, -70633.516, 0.0, 9.999782, 9.999424 
4.149219e+2, 3.138513e+2, -88807.414, -86631.32, -29095.598, -0.01537333, -0.15691043, -58603.434, -58603.434, 0.0, 9.999578, 9.999608 
4.2513502e+2, 1.2389149e+2, -1589220.0, -1709551.4, 22253.953, 0.04450123, 0.02290503, -1585236.3, 140628.31, 0.0, 10.001102, 9.999505 
4.2512256e+2, 1.338903e+2, -1486711.6, -1603691.0, -1840.1836, -0.00094748655, -0.05071317, -1486682.8, 141189.14, 0.0, 10.001107, 9.9995575 
4.2511168e+2, 1.4388956e+2, -1424551.1, -1583234.0, 19379.164, 0.08607337, -0.05500772, -1422218.8, 107657.06, 0.0, 10.0011215, 9.999018 
4.2509997e+2, 1.5388823e+2, -1325176.6, -1490383.5, 21509.188, 0.053858854, -0.08375636, -1322422.3, 109464.89, 0.0, 10.001156, 9.998965 
4.2508847e+2, 1.6388683e+2, -1240479.0, -1427913.8, 25947.723, 0.03637541, -0.108203545, -1236953.3, 96945.94, 0.0, 10.00119, 9.998705 
4.250773e+2, 1.7388535e+2, -1138008.5, -1328825.1, 25165.695, 0.04236287, -0.12640013, -1134745.4, 101166.45, 0.0, 10.001225, 9.998695 
4.2506614e+2, 1.838837e+2, -1062988.8, -1269134.3, 30580.412, 0.041237686, -0.14738113, -1058548.0, 79377.55, 0.0, 10.001184, 9.998452 
4.2505497e+2, 1.9388187e+2, -988326.7, -1183385.8, 32608.693, 0.029172622, -0.17452818, -983019.75, 56920.918, 0.0, 10.001029, 9.998444 
4.250438e+2, 2.0387995e+2, -948486.9, -1184055.5, 35680.734, 0.016118571, -0.18110068, -943201.06, -1242.0175, 0.0, 10.000934, 9.997812 
4.2503265e+2, 2.1387793e+2, -854732.25, -1094452.3, 38251.816, 0.0016996728, -0.15867229, -848776.44, -4794.4663, 0.0, 10.000932, 9.997755 
4.2502168e+2, 2.238761e+2, -732867.2, -932532.8, 46851.285, -0.0062496937, -0.13633022, -722420.2, 23581.445, 0.0, 10.00087, 9.998223 
4.2501092e+2, 2.3387462e+2, -651776.75, -833476.6, 47486.96, -0.0042216624, -0.11576139, -640114.6, 7901.12, 0.0, 10.000713, 9.998306 
4.2500013e+2, 2.4387282e+2, -581089.75, -757920.5, 44491.21, -0.004487915, -0.11974042, -570526.6, -20494.227, 0.0, 10.0005665, 9.998223 
4.2498925e+2, 2.538706e+2, -501460.16, -667205.06, 42467.52, -0.00852513, -0.16458301, -491212.63, -39159.984, 0.0, 10.000433, 9.998237 
4.2497832e+2, 2.638687e+2, -408849.63, -556639.25, 40303.453, -0.01876883, -0.1860008, -398573.1, -44502.086, 0.0, 10.000331, 9.998372 
4.2496723e+2, 2.7386725e+2, -315829.34, -456267.56, 40880.637, -0.03814442, -0.16877802, -304796.06, -48710.395, 0.0, 10.000277, 9.998415 
4.2495605e+2, 2.83866e+2, -214447.14, -332477.0, 25815.404, -0.047189903, -0.14413041, -209047.81, -50949.57, 0.0, 10.0001955, 9.998631 
4.249448e+2, 2.938649e+2, -130259.83, -235003.75, 21546.805, -0.04109704, -0.122081794, -126000.64, -65892.29, 0.0, 10.000074, 9.998686 
4.2493334e+2, 3.038632e+2, -54598.523, -108608.94, 1682.714, -0.033870623, -0.18763004, -54546.15, -54546.15, 0.0, 9.99998, 9.999264 
4.2492157e+2, 3.1386277e+2, -51347.68, -90548.15, -10700.122, -0.02183924, -0.15931322, -48617.176, -48617.176, 0.0, 9.99993, 9.999412 
4.3513617e+2, 1.2390361e+2, -1588451.8, -1707578.6, 22267.627, 0.052051842, 0.042570733, -1584425.5, 141321.23, 0.0, 10.001101, 9.99952 
4.3512374e+2, 1.3390236e+2, -1485991.9, -1602125.4, -1997.1779, 0.006863028, -0.038355753, -1485957.5, 141796.78, 0.0, 10.001106, 9.999569 
4.351129e+2, 1.4390156e+2, -1424123.5, -1582376.0, 20301.145, 0.094041534, -0.050532736, -1421560.6, 108198.0, 0.0, 10.0011215, 9.999023 
4.3510112e+2, 1.5390013e+2, -1324679.8, -1489393.8, 22599.178, 0.05470152, -0.08933716, -1321635.4, 110135.26, 0.0, 10.001156, 9.998972 
4.3508962e+2, 1.638987e+2, -1243373.9, -1433927.8, 27083.504, 0.034017123, -0.11380729, -1239599.3, 94183.586, 0.0, 10.001189, 9.998664 
4.3507853e+2, 1.7389733e+2, -1141318.4, -1335602.0, 26395.26, 0.04271438, -0.116968915, -1137796.3, 97998.57, 0.0, 10.0012245, 9.99865 
4.3506733e+2, 1.8389574e+2, -1061767.1, -1266520.3, 25339.309, 0.043253116, -0.13055752, -1058677.9, 79130.305, 0.0, 10.0011835, 9.99847 
4.35056e+2, 1.938939e+2, -986378.7, -1179466.1, 26607.393, 0.031212756, -0.16204925, -982779.3, 57044.06, 0.0, 10.001029, 9.99847 
4.3504477e+2, 2.0389195e+2, -944470.56, -1175928.0, 34917.27, 0.02055767, -0.1749518, -939317.7, 2524.1382, 0.0, 10.000934, 9.997868 
4.3503368e+2, 2.1388991e+2, -850459.3, -1085675.9, 38223.613, 0.0121796895, -0.16169462, -844403.75, -539.015, 0.0, 10.000932, 9.997815 
4.3502265e+2, 2.2388805e+2, -732862.8, -932531.44, 41579.977, 0.0042894986, -0.144426, -724550.06, 21334.31, 0.0, 10.00087, 9.998224 
4.3501166e+2, 2.3388657e+2, -652313.56, -834657.4, 41574.344, -0.0028583328, -0.12271155, -643281.94, 4616.6035, 0.0, 10.000713, 9.998298 
4.3500066e+2, 2.4388482e+2, -583836.1, -763686.25, 39382.844, -0.0072991587, -0.12074368, -575590.25, -25675.213, 0.0, 10.0005665, 9.998183 
4.349897e+2, 2.5388268e+2, -504500.53, -673538.75, 37452.15, -0.007733574, -0.15227343, -496574.28, -44639.42, 0.0, 10.000433, 9.998194 
4.3497866e+2, 2.6388076e+2, -407583.9, -554021.4, 37955.37, -0.014959529, -0.17151603, -398330.88, -44377.613, 0.0, 10.000331, 9.99839 
4.3496752e+2, 2.738792e+2, -314053.03, -452616.78, 38838.86, -0.032432344, -0.1697414, -303909.25, -47940.58, 0.0, 10.000276, 9.998441 
4.349563e+2, 2.838779e+2, -217983.73, -339862.34, 21535.09, -0.042019412, -0.14873451, -214290.55, -56309.094, 0.0, 10.0001955, 9.99858 
4.349449e+2, 2.9387692e+2, -134511.55, -243827.73, 16931.115, -0.039839502, -0.11090996, -131949.27, -71958.37, 0.0, 10.000073, 9.998626 
4.349333e+2, 3.0387515e+2, -57819.94, -115399.74, -367.0964, -0.03455095, -0.1763083, -57817.6, -57817.6, 0.0, 9.99998, 9.999217 
4.3492147e+2, 3.1387424e+2, -55723.688, -99977.05, -11671.216, -0.026331127, -0.19068, -52834.227, -52834.227, 0.0, 9.999932, 9.999346 
4.4513735e+2, 1.2391563e+2, -1612766.1, -1720911.3, 17513.807, 0.06911084, 0.062145926, -1610000.5, 115629.11, 0.0, 10.00094, 9.999505 
4.4512486e+2, 1.3391423e+2, -1496025.6, -1609109.3, -9149.823, 0.01239625, -0.03159228, -1495290.1, 132348.44, 0.0, 10.001047, 9.99955 
4.4511402e+2, 1.4391336e+2, -1424008.1, -1581079.4, 11001.118, 0.09516597, -0.0493181, -1423241.4, 106402.06, 0.0, 10.001117, 9.999035 
4.4510227e+2, 1.53912e+2, -1326329.3, -1488455.8, 13765.739, 0.053533956, -0.085115835, -1325168.8, 106486.05, 0.0, 10.001137, 9.998988 
4.4509077e+2, 1.6391058e+2, -1251544.1, -1437491.9, 18912.453, 0.03243616, -0.10817456, -1249640.0, 84026.71, 0.0, 10.001132, 9.998668 
4.4507968e+2, 1.739092e+2, -1160564.6, -1344672.8, 21647.285, 0.0434182, -0.11234838, -1158053.6, 77625.05, 0.0, 10.001092, 9.9986515 
4.4506845e+2, 1.839076e+2, -1082974.8, -1280426.0, 17703.451, 0.045419484, -0.12666938, -1081400.0, 56292.4, 0.0, 10.001055, 9.998438 
4.4505703e+2, 1.939057e+2, -990029.4, -1185357.5, 13857.889, 0.033620708, -0.15856698, -989051.06, 50657.344, 0.0, 10.001021, 9.998433 
4.4504574e+2, 2.039038e+2, -933798.3, -1156337.3, 22582.105, 0.023590071, -0.17219757, -931529.94, 10196.623, 0.0, 10.000945, 9.997996 
4.450346e+2, 2.1390188e+2, -858893.2, -1072931.5, 32558.508, 0.016459664, -0.1601272, -854050.1, -10302.672, 0.0, 10.000802, 9.997966 
4.4502348e+2, 2.2390011e+2, -755341.75, -941070.8, 39672.97, 0.0086512305, -0.14377971, -747222.3, -1456.3047, 0.0, 10.000706, 9.998244 
4.4501236e+2, 2.3389862e+2, -656904.56, -836436.0, 40432.867, -0.00030083783, -0.12257452, -648218.75, -438.24234, 0.0, 10.000681, 9.9983015 
4.4500124e+2, 2.438969e+2, -575165.7, -759374.9, 39159.668, -0.005694299, -0.11854654, -567186.6, -17389.58, 0.0, 10.000626, 9.998184 
4.449902e+2, 2.5389484e+2, -491303.47, -667071.5, 40344.957, -0.0056846486, -0.14394397, -482485.28, -30668.963, 0.0, 10.000524, 9.998195 
4.4497907e+2, 2.638929e+2, -396574.1, -551258.5, 42535.47, -0.01185561, -0.16332157, -385649.2, -31814.428, 0.0, 10.000418, 9.998368 
4.4496787e+2, 2.7389124e+2, -311415.88, -454299.0, 39614.816, -0.027473086, -0.17167303, -301167.6, -45316.42, 0.0, 10.000307, 9.998414 
4.4495657e+2, 2.8388986e+2, -215599.67, -342452.0, 20920.904, -0.03661192, -0.153952, -212238.39, -54373.816, 0.0, 10.000228, 9.998547 
4.4494504e+2, 2.938889e+2, -119231.83, -240380.14, 18097.47, -0.03590513, -0.108038306, -116586.16, -56712.293, 0.0, 10.0001955, 9.99859 
4.4493338e+2, 3.0388722e+2, -29236.654, -95110.46, 6030.566, -0.031857364, -0.16931322, -28689.123, -28689.123, 0.0, 10.000149, 9.999275 
4.4492143e+2, 3.1388617e+2, -30673.758, -81948.0, 4138.091, -0.028041119, -0.20081173, -30341.94, -30341.94, 0.0, 10.000078, 9.999399 
4.5513856e+2, 1.2392754e+2, -1615748.8, -1727168.8, 21263.406, 0.09463655, 0.08105172, -1611828.8, 113684.58, 0.0, 10.00094, 9.999462 
4.5512596e+2, 1.3392591e+2, -1499519.6, -1616342.1, -5435.607, 0.015651602, -0.030189123, -1499267.3, 128257.35, 0.0, 10.001047, 9.9995 
4.5511505e+2, 1.43925e+2, -1423145.3, -1579095.5, 11793.231, 0.0896815, -0.051196694, -1422258.5, 107271.555, 0.0, 10.001116, 9.999049 
4.5510337e+2, 1.539238e+2, -1324921.4, -1485277.0, 14318.617, 0.050387427, -0.07149436, -1323652.9, 107886.766, 0.0, 10.001136, 9.99901 
4.550919e+2, 1.6392247e+2, -1248556.8, -1431084.5, 17403.406, 0.031556945, -0.091798574, -1246912.3, 86638.46, 0.0, 10.001131, 9.998712 
4.5508078e+2, 1.7392096e+2, -1157316.1, -1337846.9, 19994.186, 0.044413246, -0.11244223, -1155128.3, 80435.25, 0.0, 10.001091, 9.998698 
4.550695e+2, 1.8391925e+2, -1088954.4, -1292827.8, 16318.373, 0.047700405, -0.13536257, -1087656.5, 49921.82, 0.0, 10.001054, 9.998353 
4.5505807e+2, 1.939173e+2, -997066.5, -1200027.4, 12593.859, 0.03636757, -0.16387776, -996288.06, 43307.69, 0.0, 10.001021, 9.998332 
4.5504668e+2, 2.0391546e+2, -919673.1, -1127123.4, 17571.727, 0.02520457, -0.17274785, -918195.25, 23417.916, 0.0, 10.000945, 9.998198 
4.5503536e+2, 2.1391386e+2, -842146.4, -1038324.1, 27091.086, 0.014581671, -0.15400632, -838473.94, 5156.199, 0.0, 10.000802, 9.998203 
4.5502415e+2, 2.2391228e+2, -752530.06, -935358.1, 38228.133, 0.0068904804, -0.13446882, -744858.7, 787.9117, 0.0, 10.000706, 9.998283 
4.5501307e+2, 2.3391078e+2, -655854.25, -834354.6, 39507.742, 0.003447196, -0.115368195, -647500.9, 160.83963, 0.0, 10.000681, 9.998316 
4.5500195e+2, 2.4390906e+2, -572250.8, -753399.94, 35634.117, 0.0002915806, -0.11315452, -565493.25, -15814.931, 0.0, 10.000626, 9.998225 
4.549907e+2, 2.5390702e+2, -488143.44, -660590.75, 36484.69, -0.0024073937, -0.1396436, -480742.03, -29045.064, 0.0, 10.000524, 9.998239 
4.5497948e+2, 2.6390505e+2, -401157.97, -560838.7, 38440.54, -0.009493693, -0.16145575, -392385.9, -38670.363, 0.0, 10.000418, 9.998302 
4.549682e+2, 2.7390325e+2, -317008.2, -465908.06, 35437.137, -0.023313582, -0.17454016, -309004.6, -53271.293, 0.0, 10.000307, 9.998334 
4.5495686e+2, 2.839018e+2, -216870.0, -345030.13, 19445.443, -0.031020492, -0.15981127, -213984.55, -56236.918, 0.0, 10.000227, 9.998529 
4.549453e+2, 2.9390085e+2, -119976.04, -241908.48, 16895.787, -0.02930473, -0.113707356, -117678.16, -57920.86, 0.0, 10.0001955, 9.99858 
4.5493358e+2, 3.038993e+2, -17724.324, -71169.555, 3662.9456, -0.025744956, -0.16664839, -17474.447, -17474.447, 0.0, 10.000148, 9.99944 
4.549215e+2, 3.1389856e+2, -18662.807, -56810.695, 2364.4268, -0.027490871, -0.19093421, -18516.816, -18516.816, 0.0, 10.000077, 9.999573 
4.6513957e+2, 1.2393905e+2, -1616887.8, -1731780.9, 11622.522, 0.10284641, 0.07666434, -1615723.8, 109676.59, 0.0, 10.000951, 9.999426 
4.6512702e+2, 1.3393743e+2, -1509727.6, -1625858.4, -14997.959, 0.022039326, -0.028576074, -1507822.0, 119590.06, 0.0, 10.000997, 9.999459 
4.651162e+2, 1.4393656e+2, -1435536.6, -1581757.3, 480.08313, 0.097898275, -0.045807205, -1435535.0, 93882.42, 0.0, 10.001017, 9.999078 
4.651045e+2, 1.5393539e+2, -1341619.5, -1489067.9, 3889.8867, 0.056934312, -0.06648074, -1341516.9, 89909.66, 0.0, 10.001003, 9.999048 
4.65093e+2, 1.639341e+2, -1264681.3, -1431348.1, 7195.4985, 0.03577997, -0.087233625, -1264371.1, 69065.92, 0.0, 10.000988, 9.998779 
4.650818e+2, 1.7393264e+2, -1169703.8, -1335993.8, 11310.819, 0.0452305, -0.108515926, -1168937.9, 66511.234, 0.0, 10.000973, 9.998768 
4.6507052e+2, 1.8393098e+2, -1104120.4, -1301968.1, 10908.764, 0.047533706, -0.13113305, -1103520.6, 33943.09, 0.0, 10.000958, 9.998336 
4.6505907e+2, 1.9392903e+2, -1010176.3, -1209327.5, 12652.105, 0.038894895, -0.1577947, -1009375.75, 30106.158, 0.0, 10.000945, 9.998305 
4.6504763e+2, 2.0392725e+2, -918146.3, -1113758.9, 14485.867, 0.02845337, -0.16542758, -917079.44, 24419.566, 0.0, 10.000902, 9.99831 
4.6503618e+2, 2.1392576e+2, -831477.0, -1018716.7, 15572.534, 0.015552065, -0.14646591, -830190.7, 13323.381, 0.0, 10.0008135, 9.998332 
4.6502483e+2, 2.2392426e+2, -747144.94, -926152.06, 24425.762, 0.006245086, -0.12744248, -743871.8, 1657.4366, 0.0, 10.000714, 9.9983425 
4.650137e+2, 2.3392281e+2, -664276.4, -832823.25, 28396.352, 0.0022068613, -0.10996097, -659620.8, -12076.635, 0.0, 10.000599, 9.998365 
4.650025e+2, 2.4392113e+2, -582479.56, -751441.06, 27109.729, -0.00079987105, -0.1096742, -578236.4, -28675.883, 0.0, 10.000525, 9.998287 
4.6499124e+2, 2.5391915e+2, -484869.94, -652029.5, 29336.775, -0.0023064702, -0.13833047, -479870.8, -28292.209, 0.0, 10.000516, 9.9983015 
4.6497995e+2, 2.639172e+2, -393800.25, -556643.4, 32585.865, -0.0074065914, -0.15963694, -387521.7, -33924.996, 0.0, 10.000465, 9.998308 
4.649686e+2, 2.7391547e+2, -310454.84, -462945.97, 35092.22, -0.018046701, -0.16841872, -302766.8, -47152.703, 0.0, 10.000353, 9.998332 
4.6495715e+2, 2.8391397e+2, -210737.31, -341199.63, 25623.91, -0.025274793, -0.15599369, -205885.03, -48256.406, 0.0, 10.000266, 9.998537 
4.6494552e+2, 2.9391292e+2, -116155.8, -239172.78, 24659.623, -0.027084233, -0.121799245, -111396.71, -51757.473, 0.0, 10.000218, 9.998588 
4.6493378e+2, 3.0391142e+2, -8839.462, -66230.664, 7622.9185, -0.025118826, -0.17016892, -7844.2153, -7844.2153, 0.0, 10.000207, 9.999445 
4.6492168e+2, 3.1391087e+2, 5690.6553, -45634.336, -6836.6284, -0.027141556, -0.17399019, 6585.704, 6585.704, 0.0, 10.000247, 9.999567 
4.7514042e+2, 1.2395017e+2, -1618878.5, -1736310.8, 13782.592, 0.09415505, 0.049793642, -1617282.6, 108008.05, 0.0, 10.000952, 9.999394 
4.751281e+2, 1.339488e+2, -1512116.9, -1630888.9, -13420.929, 0.03139727, -0.026776263, -1510619.3, 116681.47, 0.0, 10.000997, 9.999425 
4.7511744e+2, 1.4394802e+2, -1432633.1, -1575570.3, -8.736666, 0.11909083, -0.033568505, -1432633.1, 96672.47, 0.0, 10.001016, 9.999122 
4.7510564e+2, 1.5394676e+2, -1338082.5, -1481567.5, 3276.3508, 0.072660826, -0.06975933, -1338007.8, 93307.87, 0.0, 10.001002, 9.999101 
4.7509405e+2, 1.639455e+2, -1258648.1, -1418740.0, 6435.0684, 0.044814713, -0.09400526, -1258389.9, 74935.875, 0.0, 10.000987, 9.998866 
4.7508278e+2, 1.739443e+2, -1163340.8, -1322796.5, 10593.505, 0.04578634, -0.10067305, -1162640.1, 72695.516, 0.0, 10.000973, 9.998859 
4.7507143e+2, 1.8394278e+2, -1100678.0, -1294831.4, 10214.671, 0.04492144, -0.114338055, -1100142.1, 37206.77, 0.0, 10.0009575, 9.998385 
4.7506005e+2, 1.9394088e+2, -1007079.2, -1202884.9, 12059.142, 0.041162666, -0.1405791, -1006339.3, 33027.65, 0.0, 10.000944, 9.99835 
4.7504857e+2, 2.039391e+2, -916429.1, -1110220.4, 11349.51, 0.03327726, -0.15040018, -915766.7, 25617.324, 0.0, 10.000901, 9.998334 
4.75037e+2, 2.1393758e+2, -829879.1, -1015556.5, 12182.778, 0.019314732, -0.13755298, -829083.2, 14315.953, 0.0, 10.0008135, 9.998354 
4.7502556e+2, 2.239361e+2, -741619.7, -914811.06, 20173.162, 0.006657307, -0.12267921, -739300.94, 6113.046, 0.0, 10.000714, 9.998421 
4.750142e+2, 2.339347e+2, -658317.1, -820561.94, 24036.613, -0.0040437747, -0.10633139, -654831.0, -7403.005, 0.0, 10.000599, 9.99845 
4.7500294e+2, 2.439331e+2, -576776.75, -739722.4, 26345.107, -0.008993892, -0.10809904, -572623.2, -23179.604, 0.0, 10.000525, 9.998367 
4.7499174e+2, 2.5393116e+2, -479224.03, -640420.1, 29014.99, -0.005436625, -0.14000092, -474160.44, -22699.234, 0.0, 10.000516, 9.998381 
4.7498044e+2, 2.639293e+2, -388447.63, -545590.9, 28766.916, -0.0056395205, -0.15781963, -383347.06, -29868.832, 0.0, 10.000465, 9.9983835 
4.74969e+2, 2.739278e+2, -305194.53, -452038.63, 30851.254, -0.011690823, -0.15315199, -298976.16, -43482.54, 0.0, 10.000353, 9.998407 
4.7495747e+2, 2.8392637e+2, -208562.39, -336631.75, 23645.06, -0.019439599, -0.14238758, -204336.33, -46828.766, 0.0, 10.000265, 9.998569 
4.7494572e+2, 2.9392505e+2, -114503.32, -235586.52, 22940.828, -0.029404545, -0.13247378, -110302.6, -50782.863, 0.0, 10.000217, 9.998613 
4.7493392e+2, 3.0392352e+2, -20220.86, -89707.9, 8973.688, -0.030146299, -0.17998727, -19080.69, -19080.69, 0.0, 10.000205, 9.999285 
4.749219e+2, 3.139231e+2, -7819.165, -73574.984, -4781.394, -0.027653905, -0.15155333, -7473.308, -7473.308, 0.0, 10.000247, 9.999376 
4.8514152e+2, 1.2396128e+2, -1602889.3, -1730201.5, 11701.224, 0.103256054, 0.027596448, -1601822.8, 123358.305, 0.0, 10.001069, 9.999379 
4.8512918e+2, 1.339602e+2, -1512778.4, -1632981.8, -15207.521, 0.038643226, -0.019055372, -1510884.3, 116304.98, 0.0, 10.001, 9.999409 
4.8511848e+2, 1.4395952e+2, -1442036.9, -1576781.8, -2291.2827, 0.12760498, -0.016288435, -1441997.9, 87195.766, 0.0, 10.0009365, 9.99915 
4.8510665e+2, 1.539581e+2, -1352725.5, -1484752.3, -332.6704, 0.07964809, -0.071671136, -1352724.6, 78480.2, 0.0, 10.000885, 9.999135 
4.8509502e+2, 1.6395682e+2, -1274481.4, -1422794.1, 1450.041, 0.049690492, -0.101608664, -1274467.3, 58747.97, 0.0, 10.000864, 9.998898 
4.850837e+2, 1.7395578e+2, -1173644.1, -1324216.5, 1432.89, 0.047650266, -0.0937485, -1173630.5, 61593.27, 0.0, 10.000887, 9.998891 
4.8507234e+2, 1.8395443e+2, -1107782.5, -1290367.3, -2230.0547, 0.045347374, -0.0958201, -1107755.3, 29480.566, 0.0, 10.000875, 9.998456 
4.8506093e+2, 1.9395268e+2, -1021232.94, -1201333.3, 1606.434, 0.042538747, -0.11506327, -1021218.56, 18034.104, 0.0, 10.000812, 9.998425 
4.8504943e+2, 2.0395094e+2, -930931.4, -1110262.5, 3083.6877, 0.034937885, -0.12772596, -930878.4, 10390.895, 0.0, 10.000772, 9.998396 
4.850378e+2, 2.1394931e+2, -832085.94, -1009881.2, 6671.2676, 0.020222424, -0.1322812, -831835.94, 11448.975, 0.0, 10.00077, 9.998414 
4.8502627e+2, 2.239478e+2, -734314.06, -902773.75, 14040.109, 0.0062020686, -0.12634388, -733151.9, 12147.734, 0.0, 10.000729, 9.998496 
4.850148e+2, 2.3394653e+2, -648617.25, -807205.2, 17080.484, -0.0067511513, -0.10616963, -646798.5, 513.9534, 0.0, 10.000628, 9.998528 
4.850034e+2, 2.43945e+2, -574252.0, -731879.06, 19559.463, -0.011780954, -0.10595377, -571861.2, -22534.127, 0.0, 10.000515, 9.998426 
4.8499215e+2, 2.5394312e+2, -494863.94, -641605.3, 20553.398, -0.0051243105, -0.13852184, -492039.5, -40695.23, 0.0, 10.000381, 9.998437 
4.849808e+2, 2.6394138e+2, -409505.06, -552907.94, 18352.701, -0.004348044, -0.15453775, -407193.53, -53832.83, 0.0, 10.000309, 9.998408 
4.8496932e+2, 2.7393988e+2, -307760.06, -450906.63, 16364.207, -0.0126274, -0.14447393, -305913.16, -50537.74, 0.0, 10.000325, 9.998428 
4.8495772e+2, 2.8393847e+2, -198724.67, -332296.44, 6475.947, -0.021976534, -0.13422598, -198411.44, -41022.195, 0.0, 10.000336, 9.998565 
4.8494595e+2, 2.939371e+2, -98089.58, -228506.39, 3234.9766, -0.032524776, -0.13352194, -98009.38, -38607.285, 0.0, 10.000334, 9.998606 
4.849342e+2, 3.039355e+2, -4745.906, -97092.734, -7896.021, -0.029557746, -0.17795847, -4075.6296, -4075.6296, 0.0, 10.000376, 9.999152 
4.8492235e+2, 3.1393513e+2, 15401.047, -79350.71, -18318.76, -0.017430542, -0.13200217, 18819.37, 18819.37, 0.0, 10.00048, 9.999224 
4.9514282e+2, 1.239724e+2, -1603295.3, -1730572.3, 10056.961, 0.1286031, 0.00936153, -1602505.4, 122565.94, 0.0, 10.001067, 9.999378 
4.951302e+2, 1.3397165e+2, -1512847.1, -1633057.6, -18086.05, 0.04369566, -0.005673635, -1510184.9, 116892.58, 0.0, 10.000999, 9.999409 
4.951194e+2, 1.4397106e+2, -1440941.1, -1574595.8, -4587.1616, 0.12383377, 0.0058149337, -1440783.9, 88297.516, 0.0, 10.000937, 9.999166 
4.951075e+2, 1.5396942e+2, -1351491.6, -1482368.4, -2415.4983, 0.07815149, -0.072290756, -1351447.0, 79647.16, 0.0, 10.000886, 9.999151 
4.9509588e+2, 1.6396806e+2, -1275913.1, -1425967.1, 1884.7158, 0.050501507, -0.11002222, -1275889.5, 57215.96, 0.0, 10.000864, 9.998876 
4.950846e+2, 1.7396715e+2, -1175465.3, -1328062.4, 2236.7268, 0.050733287, -0.08770747, -1175432.5, 59681.07, 0.0, 10.000887, 9.998864 
4.9507326e+2, 1.8396597e+2, -1101540.5, -1277379.0, -4419.983, 0.048654124, -0.07560822, -1101429.5, 35695.0, 0.0, 10.0008745, 9.998545 
4.9506173e+2, 1.9396445e+2, -1013935.94, -1186314.9, -907.0584, 0.042999804, -0.081427775, -1013931.2, 25207.908, 0.0, 10.000812, 9.998528 
4.9505016e+2, 2.0396279e+2, -923992.2, -1096015.6, 2654.8162, 0.03346949, -0.09758659, -923951.2, 17203.535, 0.0, 10.000772, 9.998494 
4.9503857e+2, 2.1396095e+2, -825278.25, -995819.56, 6533.4253, 0.01827179, -0.13064009, -825028.3, 18143.102, 0.0, 10.00077, 9.99851 
4.9502698e+2, 2.2395942e+2, -729190.8, -892159.25, 10624.151, 0.004851858, -0.13832301, -728501.1, 16685.01, 0.0, 10.000728, 9.9985695 
4.9501544e+2, 2.3395829e+2, -643693.5, -797080.06, 13299.656, -0.005944301, -0.10944491, -642548.9, 4648.592, 0.0, 10.000628, 9.998597 
4.9500397e+2, 2.4395686e+2, -571682.44, -726632.0, 14657.292, -0.009198576, -0.10324058, -570308.1, -21097.06, 0.0, 10.000515, 9.998463 
4.9499258e+2, 2.5395504e+2, -492645.1, -637026.0, 15544.855, -0.001403896, -0.13388734, -490990.4, -39762.652, 0.0, 10.000381, 9.998469 
4.9498114e+2, 2.6395327e+2, -411483.88, -557000.94, 18432.137, -0.0036048999, -0.14981455, -409185.44, -55941.24, 0.0, 10.000309, 9.998381 
4.9496955e+2, 2.7395174e+2, -310249.9, -456068.88, 17027.176, -0.021006528, -0.14250198, -308288.03, -53028.43, 0.0, 10.000325, 9.998393 
4.9495795e+2, 2.839503e+2, -201716.98, -338483.13, 6501.3945, -0.03303785, -0.13157712, -201408.63, -44134.86, 0.0, 10.000335, 9.998523 
4.9494624e+2, 2.9394892e+2, -101217.15, -234934.66, 3166.476, -0.03648299, -0.12470966, -101142.21, -41855.777, 0.0, 10.000333, 9.998562 
4.9493462e+2, 3.0394733e+2, -12143.66, -112459.97, -4352.874, -0.02325817, -0.16378929, -11955.137, -11955.137, 0.0, 10.000376, 9.999046 
4.9492306e+2, 3.1394684e+2, 7376.668, -96078.8, -14146.56, 0.003405992, -0.116885826, 9276.2, 9276.2, 0.0, 10.00048, 9.999109 
5.0514394e+2, 1.23983614e+2, -1614095.5, -1737327.0, 3640.8877, 0.139276, 0.008374785, -1613988.0, 110973.75, 0.0, 10.001, 9.999364 
5.0513124e+2, 1.3398294e+2, -1518377.8, -1637303.3, -26918.56, 0.04662407, 0.002978845, -1512568.5, 114399.24, 0.0, 10.000969, 9.999394 
5.051203e+2, 1.4398243e+2, -1436322.0, -1565727.6, -12237.52, 0.12405785, 0.01984617, -1435175.0, 93796.19, 0.0, 10.00094, 9.999225 
5.051084e+2, 1.5398085e+2, -1342251.1, -1470496.0, -6388.291, 0.07710953, -0.05858226, -1341933.8, 89049.37, 0.0, 10.000917, 9.999217 
5.0509673e+2, 1.6397949e+2, -1274614.1, -1426141.9, 793.4472, 0.050180797, -0.09815557, -1274609.9, 58384.125, 0.0, 10.000876, 9.998868 
5.050855e+2, 1.7397854e+2, -1187947.3, -1335840.0, 1911.5826, 0.05396374, -0.07995184, -1187922.5, 47080.453, 0.0, 10.000809, 9.998848 
5.0507414e+2, 1.8397737e+2, -1113061.5, -1278501.8, -6016.623, 0.052267615, -0.067702144, -1112843.0, 24170.918, 0.0, 10.000777, 9.998585 
5.050625e+2, 1.9397596e+2, -1012848.2, -1180619.3, -6765.5176, 0.042287428, -0.06712624, -1012575.8, 26451.832, 0.0, 10.000797, 9.998574 
5.050509e+2, 2.0397437e+2, -918218.25, -1081639.1, -6728.324, 0.03107178, -0.08322759, -917941.7, 23100.742, 0.0, 10.000763, 9.998597 
5.050393e+2, 2.1397255e+2, -835567.6, -988506.0, -2184.5479, 0.018152291, -0.1256553, -835536.44, 7522.0166, 0.0, 10.000647, 9.99862 
5.050276e+2, 2.2397105e+2, -748389.6, -894382.7, 1979.7131, 0.0058651846, -0.13714767, -748362.75, -3290.3708, 0.0, 10.0005665, 9.9986315 
5.05016e+2, 2.3397003e+2, -652665.5, -795085.7, 3553.5059, -0.005489384, -0.103811644, -652576.9, -5494.019, 0.0, 10.00054, 9.998653 
5.0500447e+2, 2.439687e+2, -567999.06, -720066.44, 4206.5005, -0.010049164, -0.09475214, -567882.8, -18787.088, 0.0, 10.00052, 9.998505 
5.0499296e+2, 2.539669e+2, -471425.22, -622293.5, 5615.6323, -0.004713652, -0.124782905, -471216.47, -20104.672, 0.0, 10.000508, 9.998509 
5.0498146e+2, 2.6396513e+2, -391426.22, -553155.06, 9502.901, -0.0075847656, -0.14393945, -390869.75, -37741.324, 0.0, 10.000472, 9.998328 
5.049699e+2, 2.7396345e+2, -304015.84, -460232.28, 6018.7397, -0.023026183, -0.14562657, -303784.3, -48639.074, 0.0, 10.000399, 9.998328 
5.049583e+2, 2.839619e+2, -202947.86, -346545.2, -5570.6704, -0.03306643, -0.13667092, -202732.08, -45571.855, 0.0, 10.00036, 9.998455 
5.049466e+2, 2.9396054e+2, -101314.31, -242696.34, -10788.64, -0.034489322, -0.12117846, -100495.79, -41322.848, 0.0, 10.000366, 9.998492 
5.049351e+2, 3.0395892e+2, -6653.7065, -115482.72, -13176.983, -0.018577434, -0.1550966, -5080.9697, -5080.9697, 0.0, 10.000439, 9.998996 
5.049237e+2, 3.1395838e+2, 21375.906, -94931.695, -17648.787, 0.011865002, -0.110357895, 23994.996, 23994.996, 0.0, 10.0006, 9.999059 
5.151449e+2, 1.239949e+2, -1616135.8, -1741625.4, 3574.6147, 0.13533607, 0.023054853, -1616034.0, 108818.086, 0.0, 10.001, 9.999334 
5.151322e+2, 1.3399409e+2, -1520334.1, -1641490.1, -28305.053, 0.047460344, 0.007170071, -1514047.6, 112812.27, 0.0, 10.000969, 9.999366 
5.151213e+2, 1.4399362e+2, -1429276.4, -1551247.4, -13282.313, 0.12796475, 0.026331317, -1427846.8, 101016.1, 0.0, 10.00094, 9.999325 
5.151093e+2, 1.5399238e+2, -1334166.0, -1453911.0, -7422.138, 0.076379605, -0.031017262, -1333707.6, 97163.68, 0.0, 10.000917, 9.9993305 
5.150976e+2, 1.6399114e+2, -1274189.6, -1425482.8, -1811.493, 0.048678175, -0.06676254, -1274167.9, 58713.15, 0.0, 10.000877, 9.998873 
5.1508635e+2, 1.7398995e+2, -1188324.4, -1336887.9, -817.89417, 0.057252817, -0.07056488, -1188319.9, 46572.113, 0.0, 10.00081, 9.998841 
5.1507497e+2, 1.8398863e+2, -1113680.9, -1279983.6, -5686.2837, 0.056097444, -0.071776524, -1113486.6, 23417.672, 0.0, 10.000777, 9.998574 
5.150633e+2, 1.9398719e+2, -1013564.6, -1182187.9, -6032.6235, 0.04037791, -0.07172336, -1013349.06, 25569.164, 0.0, 10.000797, 9.998563 
5.1505166e+2, 2.0398569e+2, -910618.06, -1065912.9, -10656.507, 0.027739948, -0.08429729, -909890.25, 31042.02, 0.0, 10.000763, 9.998706 
5.150399e+2, 2.139841e+2, -826985.4, -970881.3, -6630.1694, 0.019799806, -0.11732357, -826680.5, 16265.471, 0.0, 10.000647, 9.998741 
5.150282e+2, 2.2398274e+2, -744707.94, -886958.25, 634.0841, 0.009154724, -0.12297737, -744705.06, 253.36423, 0.0, 10.0005665, 9.998683 
5.1501656e+2, 2.3398176e+2, -649613.6, -788939.4, 2587.1714, -0.0054313443, -0.089357026, -649565.56, -2596.8823, 0.0, 10.000541, 9.998695 
5.1500493e+2, 2.4398047e+2, -564559.0, -713090.0, 3733.0305, -0.014397328, -0.08051952, -564465.25, -15484.173, 0.0, 10.000521, 9.998552 
5.1499337e+2, 2.5397873e+2, -468008.1, -615366.6, 5236.3984, -0.01515457, -0.1112091, -467822.25, -16825.832, 0.0, 10.000509, 9.998556 
5.1498187e+2, 2.6397687e+2, -396973.38, -564811.75, 7011.9775, -0.016338725, -0.13692807, -396680.94, -43667.492, 0.0, 10.000472, 9.998248 
5.1497036e+2, 2.7397496e+2, -310692.22, -474107.94, 3277.1284, -0.018620703, -0.15390827, -310626.53, -55594.195, 0.0, 10.000399, 9.998234 
5.1495874e+2, 2.8397325e+2, -209724.0, -360514.75, -5554.014, -0.021976259, -0.14959644, -209519.72, -52470.992, 0.0, 10.000359, 9.99836 
5.14947e+2, 2.9397193e+2, -108205.54, -256837.81, -10461.068, -0.026506914, -0.1230313, -107472.875, -48411.125, 0.0, 10.000365, 9.998396 
5.1493555e+2, 3.039703e+2, -6618.4985, -115285.57, -7532.9014, -0.015682118, -0.15200998, -6098.7964, -6098.7964, 0.0, 10.000438, 9.998998 
5.1492417e+2, 3.139697e+2, 22179.277, -93174.21, -11288.437, 0.0072192806, -0.112890154, 23273.576, 23273.576, 0.0, 10.0006, 9.999071 
5.2514595e+2, 1.24006286e+2, -1607899.5, -1738773.4, 7796.607, 0.13690667, 0.041802917, -1607436.6, 117305.07, 0.0, 10.001061, 9.999325 
5.251332e+2, 1.340054e+2, -1516851.8, -1641102.5, -24292.822, 0.047431014, 0.018516315, -1512271.0, 114479.36, 0.0, 10.0009985, 9.999353 
5.251222e+2, 1.4400491e+2, -1425562.1, -1545864.8, -9973.348, 0.12886925, 0.036197003, -1424740.9, 104012.58, 0.0, 10.000951, 9.999356 
5.2511024e+2, 1.5400378e+2, -1330544.5, -1448208.9, -9770.013, 0.07562093, -0.013301449, -1329738.8, 101022.18, 0.0, 10.000926, 9.999366 
5.2509844e+2, 1.640026e+2, -1270786.1, -1421929.5, -8130.937, 0.047722433, -0.047052644, -1270350.0, 62420.12, 0.0, 10.000893, 9.99889 
5.250872e+2, 1.7400134e+2, -1182041.0, -1332215.5, -5788.561, 0.05819175, -0.057886634, -1181818.3, 52963.246, 0.0, 10.000846, 9.998856 
5.2507573e+2, 1.8399999e+2, -1108436.5, -1272588.9, -6884.014, 0.057751656, -0.066341504, -1108148.3, 28645.637, 0.0, 10.0007925, 9.998617 
5.250641e+2, 1.9399852e+2, -1020318.44, -1180266.9, -2993.2126, 0.04101374, -0.073540986, -1020262.44, 18545.377, 0.0, 10.000729, 9.99861 
5.2505237e+2, 2.0399708e+2, -919121.3, -1065328.8, -9112.784, 0.027327549, -0.084976286, -918555.5, 22265.598, 0.0, 10.000685, 9.998747 
5.250405e+2, 2.1399565e+2, -821144.2, -963502.6, -11283.759, 0.018350257, -0.10460823, -820255.4, 22577.91, 0.0, 10.000668, 9.998781 
5.250288e+2, 2.2399434e+2, -736879.25, -885928.2, -9145.808, 0.007239805, -0.10731308, -736320.1, 8525.352, 0.0, 10.000632, 9.998658 
5.250171e+2, 2.339932e+2, -647368.3, -791439.75, -12805.762, -0.0070048664, -0.08626111, -646238.9, 618.4482, 0.0, 10.000572, 9.998663 
5.2500546e+2, 2.4399188e+2, -559348.44, -704716.8, -13558.615, -0.016652191, -0.080628216, -558094.6, -9224.702, 0.0, 10.000531, 9.998605 
5.2499384e+2, 2.5399032e+2, -461947.88, -605576.4, -11039.332, -0.01958699, -0.10055847, -461104.34, -10220.987, 0.0, 10.000522, 9.998617 
5.249823e+2, 2.639885e+2, -396413.9, -566947.44, -8802.795, -0.020072306, -0.12526348, -395960.72, -43060.945, 0.0, 10.000487, 9.998226 
5.2497077e+2, 2.739864e+2, -310386.88, -477427.3, -8050.2344, -0.017401647, -0.15575652, -309999.8, -55079.867, 0.0, 10.000417, 9.998202 
5.2495915e+2, 2.839846e+2, -214563.72, -371812.72, -11672.688, -0.017906237, -0.15683648, -213701.97, -56764.625, 0.0, 10.000364, 9.99828 
5.249474e+2, 2.9398325e+2, -118385.516, -271447.88, -15637.465, -0.022783836, -0.12359531, -116804.266, -57853.277, 0.0, 10.000338, 9.998308 
5.2493596e+2, 3.039816e+2, -13258.5625, -115831.875, -6182.866, -0.012643017, -0.15172158, -12887.219, -12887.219, 0.0, 10.0003805, 9.999021 
5.249248e+2, 3.1398097e+2, 13351.662, -93397.62, -7686.954, 0.0095194075, -0.12118619, 13902.3545, 13902.3545, 0.0, 10.000522, 9.999107 
5.351471e+2, 1.2401777e+2, -1607321.3, -1737911.3, 6627.9336, 0.14294103, 0.06382355, -1606985.8, 117644.99, 0.0, 10.001062, 9.99933 
5.3513414e+2, 1.3401684e+2, -1516318.9, -1640356.6, -26987.748, 0.046409722, 0.03681126, -1510701.4, 115937.96, 0.0, 10.000999, 9.999358 
5.3512317e+2, 1.440163e+2, -1427891.5, -1550960.6, -11232.534, 0.12676112, 0.04942486, -1426874.6, 101768.375, 0.0, 10.000952, 9.999321 
5.351111e+2, 1.540151e+2, -1333286.6, -1454110.3, -10851.377, 0.074725285, -0.004912626, -1332319.9, 98331.75, 0.0, 10.000927, 9.999325 
5.350994e+2, 1.6401388e+2, -1268768.0, -1417988.5, -9958.926, 0.047202908, -0.038454175, -1268106.4, 64554.68, 0.0, 10.000894, 9.998917 
5.35088e+2, 1.7401272e+2, -1179464.6, -1327172.5, -7674.959, 0.05679128, -0.041951694, -1179066.9, 55604.316, 0.0, 10.000847, 9.99889 
5.350765e+2, 1.8401143e+2, -1101696.3, -1258875.3, -9327.762, 0.057269547, -0.051683776, -1101144.6, 35538.16, 0.0, 10.000793, 9.998712 
5.350648e+2, 1.9400993e+2, -1013162.25, -1165673.0, -5515.826, 0.044120505, -0.07266989, -1012963.0, 25733.266, 0.0, 10.00073, 9.998709 
5.35053e+2, 2.040085e+2, -920780.75, -1068988.6, -10000.305, 0.029721834, -0.085269086, -920109.0, 20599.99, 0.0, 10.000685, 9.998722 
5.350412e+2, 2.1400721e+2, -823847.6, -969295.4, -11975.268, 0.013802672, -0.087572664, -822868.25, 19852.125, 0.0, 10.000668, 9.998741 
5.3502935e+2, 2.2400585e+2, -743812.2, -900520.75, -11280.301, 0.00015497078, -0.090228654, -743004.3, 1729.1384, 0.0, 10.000633, 9.998557 
5.350176e+2, 2.3400435e+2, -654819.56, -807116.1, -15097.572, -0.010220958, -0.094510674, -653337.3, -6588.492, 0.0, 10.000572, 9.998555 
5.350059e+2, 2.4400294e+2, -555344.2, -696579.06, -14073.554, -0.016827831, -0.0950171, -553955.5, -5193.216, 0.0, 10.000532, 9.99866 
5.3499436e+2, 2.5400165e+2, -456783.84, -594998.8, -11358.952, -0.018001437, -0.092768185, -455856.53, -5083.8657, 0.0, 10.000522, 9.99869 
5.349828e+2, 2.6399997e+2, -393853.1, -561703.8, -11195.987, -0.018813873, -0.10888959, -393109.6, -40322.117, 0.0, 10.000487, 9.998262 
5.349711e+2, 2.7399778e+2, -308221.22, -472935.16, -10668.88, -0.019499082, -0.15109897, -307533.03, -52724.934, 0.0, 10.000416, 9.998233 
5.349595e+2, 2.839959e+2, -219380.03, -381711.2, -12779.792, -0.021045975, -0.15829554, -218380.1, -61553.914, 0.0, 10.000363, 9.998212 
5.3494775e+2, 2.9399452e+2, -124177.15, -283189.22, -16564.771, -0.023483511, -0.122788265, -122469.875, -63629.117, 0.0, 10.000336, 9.998228 
5.349364e+2, 3.039928e+2, -10412.155, -109560.86, -1340.6294, -0.009542268, -0.15421736, -10394.031, -10394.031, 0.0, 10.000379, 9.999065 
5.349254e+2, 3.1399208e+2, 17017.178, -85329.336, -2143.7327, 0.018760292, -0.13587116, 17062.06, 17062.06, 0.0, 10.00052, 9.999164 
5.451482e+2, 1.24029174e+2, -1589036.4, -1727768.1, 8254.5625, 0.14468242, 0.074813105, -1588547.0, 135972.97, 0.0, 10.0011835, 9.999341 
5.451351e+2, 1.3402827e+2, -1503844.3, -1633124.3, -26733.264, 0.03840927, 0.048621483, -1498534.3, 127994.0, 0.0, 10.0010805, 9.999369 
5.45124e+2, 1.4402771e+2, -1422314.6, -1550718.4, -8641.223, 0.118240744, 0.060075816, -1421735.6, 106796.555, 0.0, 10.001001, 9.999299 
5.451121e+2, 1.5402645e+2, -1330805.0, -1455759.1, -7175.0625, 0.07191314, 0.003992261, -1330394.4, 100147.086, 0.0, 10.000957, 9.999299 
5.451002e+2, 1.6402525e+2, -1263313.8, -1413770.3, -6058.163, 0.0466049, -0.027445566, -1263070.3, 69480.74, 0.0, 10.000925, 9.99893 
5.450888e+2, 1.740242e+2, -1169178.4, -1320093.0, -5038.698, 0.053273354, -0.023455776, -1169010.4, 65549.86, 0.0, 10.000909, 9.998908 
5.4507726e+2, 1.8402292e+2, -1086945.6, -1246036.9, -10095.183, 0.053075098, -0.034652192, -1086307.5, 50263.86, 0.0, 10.000871, 9.998762 
5.450655e+2, 1.9402133e+2, -999316.4, -1152908.1, -9898.486, 0.04254972, -0.07001771, -998681.1, 39903.863, 0.0, 10.000799, 9.998763 
5.450538e+2, 2.0401987e+2, -916177.7, -1069945.9, -15492.675, 0.028783197, -0.08780479, -914632.25, 25965.45, 0.0, 10.0007305, 9.998693 
5.450418e+2, 2.1401863e+2, -826698.75, -974955.2, -17360.174, 0.01061156, -0.08184568, -824693.06, 17915.799, 0.0, 10.000668, 9.998703 
5.4503e+2, 2.2401723e+2, -748701.25, -908270.2, -14899.631, -0.0025400806, -0.08263623, -747321.94, -2699.554, 0.0, 10.000624, 9.998508 
5.4501826e+2, 2.3401561e+2, -653234.44, -811975.56, -14500.59, -0.0083756605, -0.09449148, -651920.75, -5281.845, 0.0, 10.0006075, 9.998505 
5.450065e+2, 2.4401413e+2, -551579.44, -695998.8, -13849.766, -0.012417139, -0.098649345, -550263.25, -1610.3572, 0.0, 10.000564, 9.99865 
5.449949e+2, 2.5401285e+2, -464005.66, -599296.8, -17289.033, -0.013999706, -0.09413142, -461831.22, -11168.138, 0.0, 10.000476, 9.998682 
5.449832e+2, 2.640112e+2, -406198.44, -566949.1, -22115.709, -0.016849224, -0.1088774, -403211.3, -50533.668, 0.0, 10.0004, 9.998268 
5.449715e+2, 2.74009e+2, -319036.2, -477254.63, -23513.441, -0.021849837, -0.15127958, -315615.72, -60917.613, 0.0, 10.000339, 9.99824 
5.449598e+2, 2.8400713e+2, -231598.48, -397561.7, -24742.553, -0.023759315, -0.15550803, -227988.28, -71271.88, 0.0, 10.000322, 9.998122 
5.449481e+2, 2.940057e+2, -126110.34, -295336.84, -29936.129, -0.020879542, -0.11244955, -120970.75, -62238.9, 0.0, 10.000371, 9.998128 
5.4493684e+2, 3.0400395e+2, -6807.094, -105101.836, -14602.408, -0.004845267, -0.1414595, -4683.6704, -4683.6704, 0.0, 10.000392, 9.999089 
5.4492587e+2, 3.1400323e+2, -2052.4138, -90270.34, -16804.387, 0.021500649, -0.1288607, 1040.1909, 1040.1909, 0.000000000015387011, 10.000371, 9.999201 
5.551494e+2, 1.2404051e+2, -1587731.9, -1725395.6, 5879.9717, 0.1416678, 0.0748044, -1587481.3, 136928.28, 0.0, 10.001184, 9.999357 
5.55136e+2, 1.3403967e+2, -1502582.8, -1631043.5, -30936.38, 0.023647487, 0.054440662, -1495520.8, 130896.39, 0.0, 10.001082, 9.999383 
5.551249e+2, 1.4403914e+2, -1422751.4, -1552193.8, -10683.221, 0.10353223, 0.06840651, -1421875.6, 106545.4, 0.0, 10.001003, 9.999288 
5.551129e+2, 1.540379e+2, -1331499.0, -1457701.3, -9041.02, 0.0671905, 0.013477587, -1330854.6, 99575.92, 0.0, 10.000958, 9.999286 
5.5510116e+2, 1.640367e+2, -1263029.5, -1413604.3, -6908.93, 0.045868065, -0.014063806, -1262713.1, 69726.79, 0.0, 10.000926, 9.998931 
5.5508965e+2, 1.7403574e+2, -1168908.1, -1319831.4, -5784.564, 0.047645077, -0.0024366356, -1168686.8, 65761.76, 0.0, 10.00091, 9.99891 
5.550781e+2, 1.8403444e+2, -1086225.3, -1244820.6, -12748.112, 0.04519559, -0.015289717, -1085207.0, 51252.543, 0.0, 10.000872, 9.998771 
5.550663e+2, 1.9403271e+2, -998568.5, -1151672.9, -12700.13, 0.03635673, -0.06563385, -997522.1, 40951.684, 0.0, 10.0008, 9.998772 
5.550544e+2, 2.0403115e+2, -918343.44, -1074758.0, -17998.867, 0.024559628, -0.092571415, -916299.0, 24188.14, 0.0, 10.000731, 9.99866 
5.5504245e+2, 2.1402988e+2, -829240.25, -980513.06, -19764.477, 0.008715832, -0.087299466, -826700.56, 15798.314, 0.0, 10.000669, 9.998665 
5.550306e+2, 2.2402848e+2, -748437.7, -908015.7, -15659.83, -0.0009463801, -0.08439084, -746915.44, -2403.2732, 0.0, 10.000624, 9.99851 
5.5501884e+2, 2.3402698e+2, -652757.44, -811227.06, -15022.322, -0.001531126, -0.08621959, -651345.94, -4818.4277, 0.0, 10.000608, 9.998509 
5.550072e+2, 2.4402544e+2, -557069.2, -707595.7, -16864.217, -0.0034978907, -0.09162701, -555202.94, -6661.036, 0.0, 10.000564, 9.9985695 
5.549954e+2, 2.540239e+2, -470245.16, -612413.5, -20533.271, -0.0076699387, -0.1047547, -467338.97, -16784.322, 0.0, 10.000476, 9.998592 
5.549836e+2, 2.640221e+2, -407883.44, -570520.4, -24466.672, -0.014243831, -0.12530991, -404282.47, -51712.082, 0.0, 10.0004, 9.998244 
5.549718e+2, 2.7402005e+2, -320291.06, -479831.2, -25768.588, -0.024507528, -0.15630302, -316232.25, -61642.258, 0.0, 10.000338, 9.998223 
5.549601e+2, 2.8401822e+2, -239632.23, -414124.66, -23237.717, -0.026121898, -0.14836888, -236590.61, -79982.484, 0.0, 10.000321, 9.99801 
5.5494857e+2, 2.9401678e+2, -134895.45, -313431.1, -28042.734, -0.014994622, -0.092321366, -130594.375, -71969.984, 0.0, 10.00037, 9.998004 
5.5493724e+2, 3.040151e+2, -6895.437, -105020.94, -15171.784, 0.0013602519, -0.1129993, -4603.1826, -4603.1826, 0.0, 10.000391, 9.99909 
5.549262e+2, 3.1401438e+2, -1479.5775, -88411.49, -17662.994, 0.01723617, -0.0992654, 1972.1674, 1972.1674, 0.0000000020600701, 10.000367, 9.999216 
5.651504e+2, 1.2405193e+2, -1585840.6, -1730246.9, 17659.643, 0.12392903, 0.066827595, -1583712.4, 140585.17, 0.0, 10.001223, 9.999305 
5.65137e+2, 1.3405113e+2, -1492113.3, -1632610.9, -26167.363, 0.009566968, 0.056073945, -1487397.9, 138907.56, 0.0, 10.001183, 9.999323 
5.651259e+2, 1.4405063e+2, -1405098.0, -1546363.1, -8390.247, 0.09482423, 0.07698681, -1404601.5, 123707.9, 0.0, 10.001137, 9.999264 
5.651139e+2, 1.5404943e+2, -1314900.6, -1452027.3, -7372.5024, 0.059756596, 0.029471543, -1314505.5, 115813.2, 0.0, 10.001082, 9.999264 
5.6510204e+2, 1.6404827e+2, -1250071.4, -1410079.3, -6033.3374, 0.038906273, 0.004658247, -1249844.1, 82483.96, 0.0, 10.001027, 9.998906 
5.6509054e+2, 1.7404722e+2, -1162241.1, -1319479.5, -7020.8604, 0.03986665, 0.012083269, -1161928.3, 72409.08, 0.0, 10.000968, 9.998884 
5.6507885e+2, 1.8404587e+2, -1078108.9, -1239176.6, -15444.705, 0.037416864, -0.0050004865, -1076641.3, 59707.313, 0.0, 10.00092, 9.998786 
5.6506705e+2, 1.9404411e+2, -984724.1, -1142917.6, -14784.413, 0.029843856, -0.059477106, -983354.25, 55008.277, 0.0, 10.000886, 9.99879 
5.650552e+2, 2.0404251e+2, -904404.2, -1070875.0, -19890.451, 0.021782832, -0.09144304, -902060.6, 38315.43, 0.0, 10.000839, 9.998634 
5.650432e+2, 2.1404113e+2, -816004.1, -977650.06, -21260.486, 0.013178684, -0.09249722, -813254.6, 29134.043, 0.0, 10.000774, 9.998632 
5.650313e+2, 2.2403973e+2, -738114.56, -903071.56, -16787.38, 0.006384769, -0.08826584, -736423.5, 7978.4873, 0.0, 10.000695, 9.998509 
5.6501955e+2, 2.3403834e+2, -654270.7, -811723.94, -16411.646, 0.0024067871, -0.07781182, -652578.25, -6162.193, 0.0, 10.000597, 9.998511 
5.6500775e+2, 2.440368e+2, -565738.8, -720240.5, -17806.059, -0.0016767893, -0.082442045, -563713.25, -15282.61, 0.0, 10.000541, 9.998493 
5.6499594e+2, 2.5403503e+2, -466337.47, -619986.3, -21126.96, -0.0061114253, -0.11144139, -463485.4, -13039.7, 0.0, 10.000544, 9.9985075 
5.6498414e+2, 2.6403314e+2, -393459.97, -567824.0, -26171.756, -0.013324445, -0.13580266, -389616.34, -37153.824, 0.0, 10.000517, 9.998206 
5.6497216e+2, 2.7403116e+2, -306931.9, -477037.03, -28799.104, -0.024735793, -0.15309009, -302188.47, -47707.152, 0.0, 10.000445, 9.998191 
5.6496036e+2, 2.8402936e+2, -236663.58, -423039.97, -23782.072, -0.025537916, -0.136632, -233676.8, -77177.3, 0.0, 10.000387, 9.997916 
5.649489e+2, 2.9402784e+2, -145146.22, -329449.34, -26518.076, -0.010775248, -0.07979299, -141406.6, -82889.484, 0.0, 10.000348, 9.997905 
5.6493765e+2, 3.0402607e+2, -21005.473, -113043.6, -14780.455, 0.003550513, -0.101500385, -18690.117, -18690.117, 0.0, 10.000299, 9.999079 
5.649264e+2, 3.1402534e+2, -20326.83, -97708.54, -18825.305, 0.009830089, -0.09141168, -15990.084, -15990.084, 0.000000017271022, 10.000239, 9.999213 
5.7515126e+2, 1.2406344e+2, -1593529.6, -1747091.1, 17294.732, 0.09186461, 0.05106638, -1591605.9, 132578.3, 0.0, 10.001225, 9.999188 
5.7513803e+2, 1.3406265e+2, -1500689.5, -1651264.1, -28085.553, -0.0039599934, 0.053793766, -1495621.5, 130571.336, 0.0, 10.001186, 9.999194 
5.7512695e+2, 1.4406218e+2, -1407391.3, -1551773.0, -10564.54, 0.09173121, 0.0858666, -1406622.4, 121574.875, 0.0, 10.001139, 9.999226 
5.7511485e+2, 1.5406106e+2, -1316637.6, -1456161.5, -9640.997, 0.049644455, 0.051743984, -1315974.6, 114231.23, 0.0, 10.001084, 9.999235 
5.75103e+2, 1.6405989e+2, -1253372.0, -1417427.4, -8410.592, 0.025927795, 0.028497288, -1252942.0, 79273.6, 0.0, 10.001029, 9.998856 
5.7509136e+2, 1.7405865e+2, -1165736.0, -1327235.8, -9361.472, 0.030003235, 0.020284519, -1165195.3, 69031.33, 0.0, 10.00097, 9.99883 
5.7507974e+2, 1.840572e+2, -1076429.0, -1236111.3, -16861.924, 0.029717172, -0.0034974504, -1074667.9, 61570.44, 0.0, 10.000921, 9.998806 
5.750679e+2, 1.9405554e+2, -982659.75, -1138885.3, -16137.013, 0.022987507, -0.051566165, -981010.3, 57240.758, 0.0, 10.000887, 9.998817 
5.7505596e+2, 2.0405392e+2, -905752.06, -1073842.8, -22314.066, 0.020392455, -0.084562406, -902840.3, 37424.098, 0.0, 10.00084, 9.998613 
5.750441e+2, 2.140524e+2, -817723.1, -981395.75, -23753.686, 0.023879789, -0.097466744, -814345.44, 27932.773, 0.0, 10.000774, 9.998607 
5.750321e+2, 2.2405098e+2, -738297.1, -903679.8, -20350.744, 0.019330293, -0.09423776, -735829.75, 8461.991, 0.0, 10.000696, 9.998506 
5.7502013e+2, 2.3404974e+2, -654297.4, -812039.94, -20080.412, 0.0034085622, -0.06926869, -651781.3, -5476.824, 0.0, 10.000598, 9.998509 
5.750082e+2, 2.4404818e+2, -570724.1, -730831.8, -17978.523, -0.006942795, -0.071097165, -568730.2, -20411.047, 0.0, 10.000542, 9.998421 
5.749965e+2, 2.5404617e+2, -471912.06, -631775.25, -20928.137, -0.009334479, -0.114176266, -469217.72, -18881.379, 0.0, 10.000545, 9.998426 
5.749846e+2, 2.640442e+2, -397056.78, -575462.56, -28523.521, -0.014120442, -0.14030942, -392607.4, -40253.324, 0.0, 10.000517, 9.998154 
5.7497257e+2, 2.7404234e+2, -310380.75, -484292.9, -31408.912, -0.022553913, -0.14153223, -304882.1, -50510.0, 0.0, 10.000445, 9.998141 
5.749608e+2, 2.8404054e+2, -241796.02, -433644.44, -25294.6, -0.022039024, -0.120230384, -238517.05, -82126.445, 0.0, 10.000386, 9.997845 
5.7494926e+2, 2.9403883e+2, -150626.52, -340547.84, -27882.658, -0.008363494, -0.07501511, -146617.63, -88207.53, 0.0, 10.000346, 9.997829 
5.749379e+2, 3.040369e+2, -23225.107, -117166.52, -16900.693, 0.0015254145, -0.10735848, -20277.074, -20277.074, 0.00000000021282408, 10.000297, 9.999052 
5.749265e+2, 3.1403604e+2, -22382.008, -101251.27, -20972.135, -0.0009458448, -0.10629025, -17152.105, -17152.105, 0.0000000699572, 10.000236, 9.999191 
5.851523e+2, 1.2407516e+2, -1580663.8, -1750398.0, 16250.579, 0.06929206, 0.057989072, -1579122.0, 144947.6, 0.0, 10.001355, 9.999103 
5.8513916e+2, 1.3407426e+2, -1486672.9, -1655389.4, -28497.31, -0.017911293, 0.05888631, -1481989.5, 144090.22, 0.0, 10.001329, 9.999097 
5.851281e+2, 1.440737e+2, -1390440.3, -1550358.1, -11298.105, 0.083938405, 0.09208479, -1389646.0, 138439.08, 0.0, 10.001285, 9.999165 
5.851159e+2, 1.5407263e+2, -1301115.4, -1455031.1, -12633.701, 0.037892986, 0.06806888, -1300085.3, 130008.35, 0.0, 10.001219, 9.999178 
5.851039e+2, 1.6407143e+2, -1233145.3, -1406362.0, -10181.386, 0.014192118, 0.045281205, -1232548.9, 99554.62, 0.0, 10.001163, 9.998866 
5.8509237e+2, 1.7407008e+2, -1142740.5, -1314067.4, -6013.0635, 0.024023628, 0.023592534, -1142529.8, 91585.33, 0.0, 10.00112, 9.998848 
5.850807e+2, 1.8406858e+2, -1060614.6, -1231573.1, -13235.101, 0.026981292, -0.005323361, -1059596.0, 76531.1, 0.0, 10.001043, 9.998778 
5.850687e+2, 1.9406696e+2, -979823.94, -1141122.5, -17128.637, 0.019899622, -0.046474088, -978025.1, 60114.52, 0.0, 10.000922, 9.998785 
5.8505684e+2, 2.0406534e+2, -908286.06, -1074500.8, -24640.729, 0.018112112, -0.07810108, -904710.06, 35442.79, 0.0, 10.00082, 9.998618 
5.8504486e+2, 2.1406375e+2, -821197.8, -982127.9, -23655.354, 0.024135973, -0.09775411, -817792.75, 24374.213, 0.0, 10.000748, 9.998615 
5.850328e+2, 2.2406231e+2, -740696.0, -907952.25, -19474.53, 0.021357404, -0.097204715, -738458.44, 5722.1772, 0.0, 10.000693, 9.998477 
5.850208e+2, 2.3406106e+2, -646568.4, -811878.3, -21510.895, 0.0059839413, -0.069080934, -643815.2, 2378.23, 0.0, 10.000667, 9.998477 
5.8500886e+2, 2.4405946e+2, -561211.06, -730472.44, -18391.533, -0.0046184654, -0.0707745, -559235.75, -11027.352, 0.0, 10.000626, 9.998383 
5.84997e+2, 2.5405738e+2, -472299.78, -636340.0, -18175.729, -0.008323491, -0.11796888, -470310.03, -20083.637, 0.0, 10.000561, 9.998387 
5.8498514e+2, 2.640554e+2, -401872.0, -579353.06, -24283.357, -0.013747418, -0.14280292, -398609.47, -46365.023, 0.0, 10.000491, 9.998139 
5.8497304e+2, 2.740536e+2, -315886.75, -488245.6, -24552.121, -0.021792118, -0.13502301, -312457.6, -58195.56, 0.0, 10.000413, 9.998129 
5.849612e+2, 2.840518e+2, -247279.08, -437852.8, -13530.498, -0.021073768, -0.11069497, -246323.22, -90042.73, 0.0, 10.000356, 9.99783 
5.849497e+2, 2.9405004e+2, -154512.03, -344027.63, -11453.395, -0.007533447, -0.07114723, -153822.36, -95521.82, 0.0, 10.000327, 9.997815 
5.8493817e+2, 3.0404803e+2, -28538.438, -121998.39, 743.60016, 0.0000025914428, -0.10813029, -28532.521, -28532.521, 0.000000006848287, 10.000271, 9.999032 
5.8492666e+2, 3.1404713e+2, -32054.225, -108318.164, -3436.3196, -0.007524279, -0.11017093, -31899.703, -31899.703, 0.00000018333391, 10.00018, 9.999169 
5.9515357e+2, 1.2408706e+2, -1584240.5, -1758542.1, 16183.016, 0.055102527, 0.08552317, -1582750.6, 141203.0, 0.0, 10.001358, 9.999045 
5.9514034e+2, 1.3408594e+2, -1491181.1, -1665292.9, -30033.877, -0.032384533, 0.0708875, -1486146.0, 139819.83, 0.0, 10.001331, 9.999028 
5.951292e+2, 1.4408521e+2, -1396145.0, -1562555.3, -13949.881, 0.071651466, 0.09572914, -1394983.6, 132989.17, 0.0, 10.001286, 9.999081 
5.95117e+2, 1.5408415e+2, -1306896.6, -1467391.5, -15332.651, 0.024508411, 0.07867716, -1305445.0, 124536.914, 0.0, 10.00122, 9.999093 
5.95105e+2, 1.6408291e+2, -1228063.3, -1396112.8, -12026.276, 0.0035929105, 0.05527562, -1227207.0, 104784.89, 0.0, 10.0011635, 9.998937 
5.950934e+2, 1.7408153e+2, -1136653.5, -1301572.5, -7772.2905, 0.021740489, 0.022176493, -1136288.0, 97714.914, 0.0, 10.00112, 9.998934 
5.9508175e+2, 1.8408002e+2, -1065909.3, -1242719.3, -17663.934, 0.028974717, -0.010364338, -1064161.9, 71853.125, 0.0, 10.001044, 9.998702 
5.9506965e+2, 1.9407837e+2, -986221.44, -1154671.8, -21791.232, 0.02043928, -0.044098515, -983448.1, 54580.01, 0.0, 10.000923, 9.998692 
5.9505755e+2, 2.0407675e+2, -906091.1, -1070282.6, -27600.477, 0.01491308, -0.072024606, -901575.7, 38465.777, 0.0, 10.000822, 9.998647 
5.9504545e+2, 2.140752e+2, -818213.0, -976267.6, -26424.486, 0.014048955, -0.09342878, -813912.25, 28142.563, 0.0, 10.000749, 9.998655 
5.9503347e+2, 2.2407368e+2, -744253.0, -915646.7, -20594.959, 0.012579412, -0.09723172, -741813.0, 2255.6216, 0.0, 10.000694, 9.998425 
5.950215e+2, 2.3407231e+2, -650906.2, -821122.0, -22447.72, 0.010130256, -0.07721491, -647995.6, -1912.7756, 0.0, 10.000668, 9.998413 
5.950095e+2, 2.4407065e+2, -561325.44, -730917.4, -20613.559, 0.0052258237, -0.08141813, -558855.9, -10757.3955, 0.0, 10.000626, 9.99838 
5.9499764e+2, 2.5406864e+2, -472089.53, -636101.5, -20537.332, -0.0031496978, -0.12279353, -469556.97, -19440.996, 0.0, 10.000562, 9.998388 
5.949856e+2, 2.6406667e+2, -400163.75, -575933.25, -27075.48, -0.012280685, -0.14328985, -396087.56, -43953.89, 0.0, 10.000491, 9.998163 
5.9497344e+2, 2.7406493e+2, -314139.25, -484631.38, -27347.59, -0.022548305, -0.13361913, -309860.0, -55708.855, 0.0, 10.000413, 9.998155 
5.949615e+2, 2.840632e+2, -244262.72, -431482.56, -14613.894, -0.022795178, -0.108109385, -243128.86, -86959.63, 0.0, 10.000355, 9.997874 
5.9494996e+2, 2.9406148e+2, -151440.44, -337411.06, -12338.974, -0.008438165, -0.06823963, -150625.33, -92436.88, 0.0, 10.000325, 9.997862 
5.949384e+2, 3.040595e+2, -29883.977, -124389.414, -2238.2217, -0.0011285321, -0.103709355, -29830.996, -29830.996, 0.000000033052434, 10.000268, 9.999017 
5.9492683e+2, 3.1405863e+2, -34049.71, -111769.4, -6538.4546, -0.009952779, -0.10291367, -33503.48, -33503.48, 0.00000037488923, 10.000176, 9.999147 
6.0515463e+2, 1.2409869e+2, -1575662.1, -1755091.9, 3004.8242, 0.029783608, 0.10470093, -1575611.8, 148228.64, 0.0, 10.001421, 9.999039 
6.051415e+2, 1.3409741e+2, -1487827.9, -1665387.0, -41126.65, -0.047036834, 0.07650729, -1478764.6, 147089.17, 0.0, 10.001362, 9.999012 
6.051305e+2, 1.440966e+2, -1393514.3, -1562241.8, -20765.11, 0.06666749, 0.09270289, -1390996.4, 136865.28, 0.0, 10.001308, 9.999072 
6.0511816e+2, 1.5409555e+2, -1300336.9, -1465044.3, -16576.525, 0.020189775, 0.079470806, -1298685.1, 131185.39, 0.0, 10.001268, 9.999085 
6.0510606e+2, 1.6409439e+2, -1218169.8, -1384297.8, -11316.698, -0.00063297834, 0.059908845, -1217402.5, 114477.41, 0.0, 10.001202, 9.999 
6.050945e+2, 1.7409311e+2, -1135644.5, -1293271.1, -8431.645, 0.016745, 0.030514244, -1135194.8, 98694.8, 0.0, 10.001093, 9.999003 
6.050827e+2, 1.840916e+2, -1074516.4, -1252685.1, -18469.701, 0.02370882, -0.0031360267, -1072621.9, 63279.625, 0.0, 10.00101, 9.99865 
6.0507053e+2, 1.9408982e+2, -984753.25, -1161208.8, -20642.79, 0.015648812, -0.044675063, -982370.5, 55545.832, 0.0, 10.000965, 9.998627 
6.0505843e+2, 2.0408814e+2, -890981.25, -1060240.8, -24935.012, 0.010817124, -0.07600234, -887384.3, 52545.895, 0.0, 10.000914, 9.998672 
6.050462e+2, 2.1408664e+2, -800396.25, -964047.4, -24327.38, 0.010912603, -0.094676666, -796856.44, 45086.004, 0.0, 10.000855, 9.998687 
6.050341e+2, 2.2408512e+2, -733860.5, -912826.9, -17848.125, 0.01135674, -0.09912182, -732097.9, 11858.027, 0.0, 10.000775, 9.9984045 
6.0502213e+2, 2.3408367e+2, -653136.56, -825109.1, -17001.398, 0.012255745, -0.08460768, -651471.9, -5501.045, 0.0, 10.000665, 9.998387 
6.050102e+2, 2.4408199e+2, -570111.3, -734927.7, -13764.825, 0.008711459, -0.09083392, -568969.6, -20982.752, 0.0, 10.000565, 9.998382 
6.049982e+2, 2.5408e+2, -483965.63, -641414.8, -13638.802, -0.0011559546, -0.12900735, -482792.9, -32788.63, 0.0, 10.000478, 9.998392 
6.049861e+2, 2.640781e+2, -408046.63, -575650.8, -18817.785, -0.010258918, -0.14511456, -405959.8, -53938.145, 0.0, 10.00042, 9.998199 
6.0497385e+2, 2.740765e+2, -313252.63, -479852.28, -18065.201, -0.018353282, -0.12958755, -311316.22, -57277.676, 0.0, 10.000401, 9.998193 
6.0496193e+2, 2.840748e+2, -237647.06, -423119.63, -4023.2078, -0.018984443, -0.1021009, -237559.84, -81503.74, 0.0, 10.000378, 9.997921 
6.0495025e+2, 2.9407308e+2, -144441.77, -328841.3, -1788.306, -0.008679203, -0.06576695, -144424.42, -86349.56, 0.00000000003092486, 10.000351, 9.997908 
6.049386e+2, 3.0407113e+2, -31406.447, -129711.69, 4435.9854, -0.00524062, -0.09975705, -31206.68, -31206.68, 0.00000008707832, 10.0002775, 9.998975 
6.049269e+2, 3.1407025e+2, -42319.19, -121422.17, -2425.5308, -0.01706438, -0.090645425, -42244.887, -42244.887, 0.0000006525611, 10.000144, 9.999096 
6.151557e+2, 1.2411007e+2, -1572582.9, -1749313.0, 2163.9185, -0.0062593617, 0.11545468, -1572556.4, 151173.2, 0.0, 10.001423, 9.999078 
6.1514276e+2, 1.3410872e+2, -1485286.5, -1660648.3, -43603.07, -0.06189851, 0.076031215, -1475043.1, 150700.27, 0.0, 10.001364, 9.999044 
6.151318e+2, 1.4410786e+2, -1389002.8, -1553161.6, -22493.848, 0.068595484, 0.08326459, -1385976.4, 141774.98, 0.0, 10.001309, 9.999134 
6.1511946e+2, 1.5410689e+2, -1295755.5, -1455605.0, -18205.172, 0.024509858, 0.070853174, -1293708.3, 136050.98, 0.0, 10.001268, 9.99915 
6.151073e+2, 1.6410586e+2, -1214402.6, -1376460.1, -15319.442, 0.0011970181, 0.059437912, -1212967.1, 118800.13, 0.0, 10.001201, 9.999053 
6.150955e+2, 1.7410481e+2, -1131967.8, -1285668.1, -12687.81, 0.009076419, 0.048317377, -1130927.5, 102847.45, 0.0, 10.001093, 9.999056 
6.150836e+2, 1.8410334e+2, -1076619.1, -1257163.8, -20580.857, 0.011397483, 0.015937682, -1074302.8, 61484.023, 0.0, 10.001011, 9.998619 
6.150714e+2, 1.9410127e+2, -987429.4, -1166891.9, -22427.12, 0.0056405514, -0.04817897, -984669.1, 53135.047, 0.0, 10.000965, 9.998588 
6.1505926e+2, 2.0409949e+2, -889600.56, -1057538.0, -27163.225, 0.0058262195, -0.089780435, -885316.3, 54502.68, 0.0, 10.000915, 9.99869 
6.150471e+2, 2.1409808e+2, -798655.1, -960603.0, -26512.268, 0.014598306, -0.10136421, -794425.3, 47404.586, 0.0, 10.000855, 9.998711 
6.15035e+2, 2.2409664e+2, -733022.1, -911236.44, -21823.844, 0.017539265, -0.1028249, -730388.5, 13454.055, 0.0, 10.000775, 9.998415 
6.1502284e+2, 2.3409514e+2, -652378.8, -823728.9, -21096.764, 0.012319204, -0.0912561, -649819.56, -3962.1047, 0.0, 10.000666, 9.998396 
6.150107e+2, 2.4409345e+2, -569634.8, -734128.94, -17038.055, 0.005837873, -0.09903698, -567888.56, -20014.93, 0.0, 10.000566, 9.998386 
6.149986e+2, 2.5409147e+2, -483569.88, -640753.06, -16810.895, -0.0023568333, -0.13664353, -481792.03, -31900.666, 0.0, 10.000479, 9.998397 
6.1498654e+2, 2.6408967e+2, -404685.1, -568788.5, -19638.35, -0.0077000414, -0.14829281, -402367.7, -50459.2, 0.0, 10.00042, 9.998246 
6.149744e+2, 2.7408817e+2, -309642.7, -472403.13, -18612.654, -0.009193685, -0.12293771, -307541.34, -53617.08, 0.0, 10.000401, 9.998244 
6.149624e+2, 2.8408659e+2, -234438.98, -416398.72, -4796.987, -0.009644287, -0.092694335, -234312.61, -78371.48, 0.0, 10.000378, 9.997967 
6.149506e+2, 2.9408482e+2, -141379.72, -322306.53, -2602.4404, -0.008328325, -0.0637537, -141342.3, -83382.47, 0.0000000010306047, 10.00035, 9.997953 
6.1493886e+2, 3.040829e+2, -36590.18, -140123.83, -37.28835, -0.012496284, -0.09624998, -36590.168, -36590.168, 0.00000016756015, 10.000276, 9.998904 
6.149269e+2, 3.1408206e+2, -48560.84, -133716.89, -7230.572, -0.029262045, -0.07311326, -47951.258, -47951.258, 0.000001002472, 10.000141, 9.999014 
6.25157e+2, 1.24121346e+2, -1569109.4, -1747475.3, 13007.268, -0.020646553, 0.10021529, -1568165.9, 155452.73, 0.0, 10.001447, 9.999079 
6.25144e+2, 1.3412012e+2, -1483989.9, -1661073.5, -37358.07, -0.07223177, 0.07443785, -1476431.4, 149200.02, 0.0, 10.001378, 9.999034 
6.2513304e+2, 1.4411928e+2, -1387478.4, -1546604.0, -18281.639, 0.064396575, 0.08193586, -1385405.0, 142234.19, 0.0, 10.001295, 9.999186 
6.2512064e+2, 1.5411827e+2, -1301780.9, -1452125.8, -14600.377, 0.02110218, 0.059485186, -1300376.1, 129271.04, 0.0, 10.0012, 9.999207 
6.251084e+2, 1.6411726e+2, -1227851.3, -1382995.0, -14952.665, -0.0021855547, 0.047135103, -1226423.4, 105231.55, 0.0, 10.001109, 9.999053 
6.250965e+2, 1.7411631e+2, -1142752.4, -1291689.0, -16883.564, 0.0045150975, 0.047792953, -1140862.4, 92799.53, 0.0, 10.001022, 9.999048 
6.2508446e+2, 1.841149e+2, -1084365.1, -1259478.6, -24083.611, 0.006245656, 0.021673195, -1081113.3, 54560.17, 0.0, 10.000952, 9.9986315 
6.2507224e+2, 1.9411285e+2, -995602.6, -1169273.9, -21959.652, 0.00073669764, -0.043964274, -992869.0, 44822.055, 0.0, 10.000902, 9.998601 
6.2506014e+2, 2.0411107e+2, -895865.7, -1056090.4, -24244.871, 0.0027229986, -0.08755749, -892277.4, 47428.316, 0.0, 10.000853, 9.99873 
6.25048e+2, 2.1410967e+2, -803682.25, -958348.94, -22367.771, 0.015432519, -0.1017461, -800512.4, 41203.582, 0.0, 10.000801, 9.998753 
6.250357e+2, 2.241082e+2, -737216.2, -909634.75, -18002.418, 0.019109672, -0.10887537, -735356.6, 8371.792, 0.0, 10.000731, 9.998447 
6.250234e+2, 2.3410666e+2, -654785.4, -821349.2, -15869.969, 0.010103796, -0.1073025, -653286.8, -7543.1563, 0.0, 10.000634, 9.998427 
6.250112e+2, 2.4410497e+2, -570649.0, -733539.3, -9737.264, 0.0026025204, -0.116500564, -570068.94, -22309.182, 0.0, 10.000554, 9.998396 
6.249991e+2, 2.541031e+2, -480244.9, -638295.8, -9289.424, -0.0026956284, -0.14345393, -479700.78, -29923.832, 0.0, 10.000498, 9.9984045 
6.2498695e+2, 2.6410142e+2, -397845.63, -563802.3, -11303.27, -0.007032229, -0.14588203, -397079.3, -45285.727, 0.0, 10.00046, 9.998261 
6.249748e+2, 2.7409998e+2, -301820.94, -466852.06, -12924.088, -0.010170342, -0.11356871, -300814.94, -47005.977, 0.0, 10.000446, 9.9982605 
6.2496275e+2, 2.8409845e+2, -225871.11, -403754.34, -1142.8789, -0.012619433, -0.08288966, -225863.77, -70038.36, 0.0, 10.0004, 9.998043 
6.249509e+2, 2.9409668e+2, -141803.03, -313332.8, 3468.3982, -0.013798877, -0.06255894, -141732.94, -83889.26, 0.000000004235602, 10.000308, 9.998035 
6.24939e+2, 3.0409476e+2, -41524.465, -141367.55, 9299.569, -0.017389705, -0.10019346, -40665.676, -40665.676, 0.000000262113, 10.000237, 9.998914 
6.2492704e+2, 3.1409395e+2, -39553.402, -129117.07, 8294.265, -0.028783316, -0.077753074, -38791.77, -38791.77, 0.0000013873902, 10.000202, 9.999016 
6.351585e+2, 1.2413253e+2, -1570819.0, -1752414.0, 11683.596, -0.015055906, 0.060378667, -1570070.4, 153436.89, 0.0, 10.001452, 9.9990425 
6.351453e+2, 1.3413163e+2, -1486871.6, -1668121.0, -40270.645, -0.078423515, 0.07183056, -1478327.0, 147190.9, 0.0, 10.001382, 9.998984 
6.351342e+2, 1.4413087e+2, -1384221.8, -1540530.9, -21982.139, 0.054306738, 0.08823647, -1381189.1, 146335.97, 0.0, 10.001297, 9.999227 
6.351217e+2, 1.541297e+2, -1298088.3, -1444963.4, -18343.262, 0.010240943, 0.045432966, -1295832.0, 133701.97, 0.0, 10.001202, 9.999255 
6.351094e+2, 1.641286e+2, -1231585.9, -1391074.8, -18385.748, -0.010598629, 0.023470199, -1229493.8, 102048.734, 0.0, 10.00111, 9.998997 
6.3509756e+2, 1.7412765e+2, -1147308.0, -1301356.6, -20217.754, 0.0029153638, 0.029591838, -1144698.8, 88851.6, 0.0, 10.001023, 9.998982 
6.3508546e+2, 1.8412633e+2, -1080596.3, -1251803.4, -26135.877, 0.007929841, 0.014549116, -1076695.3, 58866.21, 0.0, 10.000952, 9.998684 
6.350732e+2, 1.9412452e+2, -991153.94, -1160084.4, -23837.684, 0.0007436683, -0.032157917, -987854.6, 49722.258, 0.0, 10.000902, 9.998665 
6.350609e+2, 2.0412287e+2, -891779.9, -1047634.94, -26207.504, 0.0014115481, -0.06971094, -887491.06, 52099.27, 0.0, 10.000852, 9.998788 
6.350487e+2, 2.1412142e+2, -799688.9, -950123.2, -24257.787, 0.013380939, -0.095968716, -795874.0, 45726.707, 0.0, 10.000801, 9.998809 
6.350364e+2, 2.2411986e+2, -733544.56, -902073.5, -21505.14, 0.01606503, -0.11726959, -730843.7, 12769.82, 0.0, 10.000731, 9.9985 
6.35024e+2, 2.3411818e+2, -651089.75, -813845.94, -19486.121, 0.005612362, -0.13268737, -648789.25, -3159.814, 0.0, 10.000634, 9.998479 
6.3501173e+2, 2.4411651e+2, -569732.75, -731843.5, -11913.873, -0.0010434411, -0.1431405, -568861.8, -21216.48, 0.0, 10.000555, 9.998407 
6.349996e+2, 2.5411487e+2, -479580.56, -637108.7, -11292.865, -0.0022454213, -0.14936312, -478775.1, -29114.02, 0.0, 10.000499, 9.998412 
6.3498735e+2, 2.641133e+2, -399121.2, -566609.4, -11810.363, -0.008350607, -0.13784863, -398292.5, -46615.508, 0.0, 10.000461, 9.998242 
6.349751e+2, 2.741119e+2, -303339.34, -470091.78, -13239.1875, -0.0214678, -0.10147119, -302294.78, -48602.1, 0.0, 10.000446, 9.998239 
6.3496304e+2, 2.8411037e+2, -218608.22, -388640.3, -4169.8477, -0.028158786, -0.07267816, -218506.02, -62797.023, 0.0, 10.0004, 9.998147 
6.3495106e+2, 2.9410863e+2, -133790.95, -296458.4, 205.62128, -0.025272228, -0.062224336, -133790.7, -76064.23, 0.000000008608103, 10.000306, 9.998152 
6.349392e+2, 3.0410668e+2, -35483.0, -128473.85, 8055.1265, -0.0199261, -0.11187905, -34790.4, -34790.4, 0.00000035003856, 10.000236, 9.999004 
6.3492745e+2, 3.1410578e+2, -33774.06, -116746.96, 7357.402, -0.015445362, -0.10539352, -33126.71, -33126.71, 0.0000017531521, 10.0002, 9.999102 
6.4516e+2, 1.2414405e+2, -1546194.8, -1749212.6, 20413.348, -0.017628064, 0.039640326, -1544162.5, 179230.56, 0.0, 10.001658, 9.998964 
6.4514667e+2, 1.3414322e+2, -1472821.4, -1672066.8, -36488.375, -0.08616692, 0.06806371, -1466349.4, 159054.4, 0.0, 10.001525, 9.998888 
6.451355e+2, 1.4414248e+2, -1367416.9, -1528695.3, -20235.338, 0.047020722, 0.08875179, -1364916.8, 162494.47, 0.0, 10.001397, 9.999259 
6.4512295e+2, 1.5414129e+2, -1282698.6, -1432532.3, -16899.572, 0.003955652, 0.04080312, -1280816.3, 148603.5, 0.0, 10.0012865, 9.9993 
6.4511055e+2, 1.6414016e+2, -1224619.3, -1388865.4, -16019.333, -0.01470058, 0.014087676, -1223071.5, 108356.945, 0.0, 10.001163, 9.998986 
6.450985e+2, 1.7413916e+2, -1148665.5, -1303860.5, -14340.021, 0.0024907938, 0.016034339, -1147351.5, 86085.51, 0.0, 10.001021, 9.998965 
6.4508635e+2, 1.841379e+2, -1086357.3, -1250237.4, -17624.459, 0.008471728, 0.0048559657, -1084483.3, 50964.71, 0.0, 10.000894, 9.998722 
6.4507395e+2, 1.9413628e+2, -1005226.25, -1162040.3, -16784.13, -0.001456282, -0.026728181, -1003449.94, 34011.867, 0.0, 10.000785, 9.998707 
6.450617e+2, 2.0413469e+2, -911401.25, -1050575.8, -19544.201, -0.0019173347, -0.061271947, -908708.75, 30765.645, 0.0, 10.0006895, 9.998846 
6.450494e+2, 2.1413316e+2, -823095.75, -954856.8, -17499.652, 0.011125243, -0.10143602, -820811.2, 20673.953, 0.0, 10.000612, 9.998867 
6.4503706e+2, 2.2413157e+2, -754636.8, -906888.3, -14549.634, 0.014729031, -0.13153093, -753258.9, -9760.922, 0.0, 10.000564, 9.998547 
6.450246e+2, 2.3412994e+2, -659613.2, -812767.44, -12976.698, 0.0049762013, -0.14861856, -658521.44, -13008.046, 0.0, 10.000554, 9.998525 
6.4501226e+2, 2.4412835e+2, -572488.2, -730597.25, -5422.529, -0.0017845798, -0.15445958, -572302.44, -24773.799, 0.0, 10.0005245, 9.99843 
6.4500004e+2, 2.5412685e+2, -482610.66, -636296.9, -4016.705, -0.0041667246, -0.14733808, -482505.75, -32962.39, 0.0, 10.000468, 9.998432 
6.449878e+2, 2.6412535e+2, -404827.56, -570074.7, -2467.1814, -0.011820085, -0.13175479, -404790.72, -53231.6, 0.0, 10.000424, 9.998235 
6.449755e+2, 2.7412385e+2, -311044.13, -474820.88, -2962.868, -0.027017968, -0.10445236, -310990.56, -57414.65, 0.0, 10.000399, 9.998229 
6.4496326e+2, 2.8412232e+2, -220053.64, -378013.34, 3702.4446, -0.03496855, -0.07925946, -219966.9, -64374.773, 0.0, 10.000341, 9.998248 
6.449512e+2, 2.9412073e+2, -135620.66, -284888.22, 7311.086, -0.032111015, -0.06450776, -135263.42, -77655.53, 0.000000011710588, 10.00024, 9.998262 
6.4493936e+2, 3.0411887e+2, -41567.727, -120403.76, 16369.653, -0.023814065, -0.11389398, -38303.832, -38303.832, 0.00000040808163, 10.000147, 9.999102 
6.4492756e+2, 3.14118e+2, -46914.73, -112345.836, 16444.854, -0.01184715, -0.11378286, -43014.16, -43014.16, 0.0000020407565, 10.000064, 9.999197 
6.5516156e+2, 1.24155894e+2, -1553605.3, -1766087.5, 16517.096, -0.02798559, 0.036106504, -1552329.0, 170947.22, 0.0, 10.001665, 9.998846 
6.551481e+2, 1.341549e+2, -1482252.4, -1692454.6, -41839.76, -0.0954193, 0.06314051, -1474230.5, 151058.36, 0.0, 10.001528, 9.998747 
6.551368e+2, 1.441541e+2, -1365538.4, -1525054.1, -24615.195, 0.042366173, 0.083795294, -1361826.3, 165470.95, 0.0, 10.001397, 9.999284 
6.551241e+2, 1.5415305e+2, -1279862.9, -1426783.6, -21189.08, 0.0019915155, 0.045203462, -1276868.0, 152436.31, 0.0, 10.0012865, 9.999339 
6.551117e+2, 1.6415197e+2, -1222392.4, -1384310.9, -21364.078, -0.014731941, 0.018369243, -1219621.0, 111691.42, 0.0, 10.001163, 9.999018 
6.550996e+2, 1.7415085e+2, -1146569.1, -1299523.0, -19759.45, 0.0031446712, 0.006905111, -1144057.8, 89264.195, 0.0, 10.001021, 9.998996 
6.550873e+2, 1.8414956e+2, -1084758.8, -1246974.5, -21905.049, 0.007887011, -0.0073354146, -1081852.9, 53480.043, 0.0, 10.000894, 9.998745 
6.550747e+2, 1.9414811e+2, -1003683.06, -1158961.4, -20887.043, -0.005830987, -0.027480626, -1000922.56, 36423.1, 0.0, 10.000785, 9.998729 
6.5506226e+2, 2.0414656e+2, -907317.5, -1042336.94, -22542.955, -0.007247845, -0.06200349, -903653.2, 35704.77, 0.0, 10.00069, 9.998902 
6.5505e+2, 2.1414493e+2, -818856.75, -946346.44, -20385.861, 0.00865849, -0.11794305, -815676.4, 25692.898, 0.0, 10.000613, 9.998925 
6.550376e+2, 2.2414334e+2, -751648.1, -900910.44, -15110.164, 0.015064753, -0.1515212, -750133.9, -6752.0874, 0.0, 10.000565, 9.998588 
6.550251e+2, 2.3414187e+2, -656770.4, -807082.56, -13301.544, 0.008139685, -0.15512833, -655602.4, -10206.741, 0.0, 10.000554, 9.998564 
6.5501285e+2, 2.4414043e+2, -570180.8, -726009.7, -7345.9805, 0.0003384828, -0.15056743, -569835.25, -22425.582, 0.0, 10.000525, 9.998462 
6.5500045e+2, 2.5413904e+2, -480395.3, -631892.94, -6067.04, -0.008496573, -0.1374163, -480152.72, -30728.906, 0.0, 10.000468, 9.998463 
6.5498817e+2, 2.6413748e+2, -404514.4, -569576.3, -3424.9746, -0.017468484, -0.12764925, -404443.38, -53003.34, 0.0, 10.000424, 9.998239 
6.5497583e+2, 2.7413574e+2, -310986.38, -474736.0, -3746.937, -0.026794467, -0.12269634, -310900.7, -57441.953, 0.0, 10.000399, 9.99823 
6.549636e+2, 2.841342e+2, -213444.1, -364199.84, 346.4892, -0.03299039, -0.10281695, -213443.3, -57968.35, 0.0, 10.00034, 9.998343 
6.5495145e+2, 2.9413292e+2, -128551.19, -269991.25, 3793.1536, -0.03427318, -0.06939944, -128449.53, -70961.53, 0.000000011654482, 10.000239, 9.998366 
6.549395e+2, 3.0413133e+2, -34444.55, -105257.76, 13460.37, -0.029178392, -0.10593483, -31972.28, -31972.28, 0.00000041978168, 10.000145, 9.9992075 
6.5492755e+2, 3.1413057e+2, -40043.594, -97429.62, 13634.721, -0.018526003, -0.10246302, -36968.785, -36968.785, 0.0000022012798, 10.000061, 9.999302 
6.651633e+2, 1.24167934e+2, -1524157.1, -1753247.4, 11336.84, -0.033463433, 0.051434483, -1523597.4, 199561.06, 0.0, 10.001874, 9.998833 
6.6514957e+2, 1.3416673e+2, -1475473.0, -1692623.1, -40863.4, -0.09958519, 0.06034014, -1468037.9, 157134.94, 0.0, 10.00159, 9.998716 
6.651382e+2, 1.4416583e+2, -1370190.1, -1527961.5, -17076.436, 0.04046451, 0.07359003, -1368363.0, 158819.0, 0.0, 10.0013685, 9.999278 
6.6512537e+2, 1.5416491e+2, -1286408.3, -1430426.9, -16560.57, -0.0034258394, 0.048221808, -1284528.5, 144659.53, 0.0, 10.001244, 9.999334 
6.6511273e+2, 1.6416387e+2, -1227078.5, -1380576.1, -18927.47, -0.019947898, 0.02464859, -1224779.0, 106416.7, 0.0, 10.001105, 9.999071 
6.651005e+2, 1.7416272e+2, -1153364.1, -1296205.0, -15445.613, 0.0029707293, 0.002431013, -1151713.0, 81492.28, 0.0, 10.000947, 9.999054 
6.650881e+2, 1.8416145e+2, -1090794.6, -1242489.3, -13116.327, 0.009003405, -0.016157273, -1089668.9, 45547.074, 0.0, 10.00082, 9.998811 
6.650754e+2, 1.9416009e+2, -1005702.94, -1152542.4, -8714.036, -0.008506814, -0.031635925, -1005187.6, 32039.986, 0.0, 10.00074, 9.998795 
6.650629e+2, 2.041586e+2, -910542.2, -1043501.75, -9561.325, -0.01114505, -0.06444556, -909858.2, 29381.232, 0.0, 10.000667, 9.998905 
6.6505057e+2, 2.1415694e+2, -820358.8, -947454.94, -12003.67, 0.006971613, -0.122738265, -819235.06, 22016.092, 0.0, 10.000606, 9.998921 
6.6503817e+2, 2.2415537e+2, -751477.9, -898892.1, -8384.764, 0.014746661, -0.1574339, -751002.5, -7738.7827, 0.0, 10.000558, 9.998605 
6.650257e+2, 2.3415391e+2, -659307.3, -806150.7, -8047.5815, 0.008138828, -0.16050115, -658867.6, -13590.431, 0.0, 10.000528, 9.998583 
6.6501325e+2, 2.4415253e+2, -576304.6, -727684.9, -5339.144, -0.0007542078, -0.15225953, -576116.56, -28825.74, 0.0, 10.000479, 9.998473 
6.6500086e+2, 2.541512e+2, -489725.13, -635249.3, -5853.3994, -0.012693171, -0.13120061, -489490.06, -40185.57, 0.0, 10.000401, 9.998472 
6.6498846e+2, 2.6414967e+2, -412207.47, -567622.5, -939.3033, -0.02153171, -0.122115515, -412201.78, -60881.19, 0.0, 10.000348, 9.998289 
6.649762e+2, 2.741479e+2, -316984.3, -471657.13, 2692.308, -0.026194926, -0.12977448, -316937.47, -63597.836, 0.0, 10.000332, 9.998282 
6.649639e+2, 2.8414634e+2, -216820.98, -359809.7, 5028.3115, -0.031452835, -0.11522928, -216644.38, -61288.668, 0.0, 10.000292, 9.998397 
6.649517e+2, 2.9414514e+2, -127902.04, -263789.9, 4315.339, -0.037117176, -0.07687827, -127765.13, -70397.22, 0.000000008469742, 10.000219, 9.998418 
6.649395e+2, 3.0414367e+2, -33111.727, -99337.64, 9428.65, -0.036463365, -0.10561724, -31795.52, -31795.52, 0.00000038345433, 10.000132, 9.999254 
6.649275e+2, 3.141431e+2, -42220.28, -93389.42, 4940.2, -0.029747909, -0.091739826, -41747.688, -41747.688, 0.000002213461, 10.000025, 9.999347 
6.751652e+2, 1.2418016e+2, -1517880.4, -1740869.0, 2152.877, -0.03474427, 0.083925776, -1517859.6, 205180.22, 0.0, 10.001876, 9.998917 
6.7515117e+2, 1.3417871e+2, -1470216.8, -1682272.9, -51733.184, -0.099053405, 0.05949469, -1458269.1, 166786.22, 0.0, 10.001591, 9.998787 
6.751396e+2, 1.4417768e+2, -1372684.3, -1533408.1, -22254.64, 0.041086815, 0.058445636, -1369659.8, 157405.55, 0.0, 10.001369, 9.999241 
6.7512655e+2, 1.5417688e+2, -1289841.0, -1437543.9, -21201.13, -0.012221374, 0.04992301, -1286858.0, 142213.03, 0.0, 10.001244, 9.999287 
6.751138e+2, 1.6417591e+2, -1222030.5, -1370019.6, -24762.787, -0.030181315, 0.032803, -1217997.0, 113081.336, 0.0, 10.001104, 9.999145 
6.7510146e+2, 1.7417476e+2, -1147419.3, -1283933.4, -21403.424, 0.0019440415, 0.0024396116, -1144142.1, 88945.14, 0.0, 10.000947, 9.999139 
6.7508894e+2, 1.8417354e+2, -1083251.9, -1227003.1, -16401.004, 0.0116799595, -0.021732604, -1081404.4, 53692.645, 0.0, 10.000821, 9.998918 
6.750762e+2, 1.9417228e+2, -998035.6, -1136771.0, -11804.211, -0.009584987, -0.039133143, -997038.44, 40069.188, 0.0, 10.00074, 9.998902 
6.7506355e+2, 2.0417085e+2, -914041.56, -1050961.9, -11998.0, -0.013679431, -0.06853499, -912998.1, 26120.664, 0.0, 10.000667, 9.998855 
6.7505115e+2, 2.1416922e+2, -824868.4, -957050.2, -14331.327, 0.0059972797, -0.11601087, -823332.44, 17798.338, 0.0, 10.000606, 9.998856 
6.750387e+2, 2.2416762e+2, -751970.1, -900103.9, -9534.673, 0.013724753, -0.14951886, -751358.94, -8215.146, 0.0, 10.000558, 9.998597 
6.750262e+2, 2.3416604e+2, -659399.56, -806550.1, -9104.931, 0.0049635335, -0.16480991, -658838.3, -13680.263, 0.0, 10.000528, 9.99858 
6.7501366e+2, 2.4416462e+2, -576982.06, -729288.5, -8067.2363, -0.005099298, -0.15950783, -576555.94, -29383.938, 0.0, 10.000479, 9.998462 
6.7500114e+2, 2.5416338e+2, -490506.06, -637069.5, -8717.027, -0.016804196, -0.1286828, -489989.44, -40804.023, 0.0, 10.000401, 9.99846 
6.749888e+2, 2.641619e+2, -405490.66, -553833.4, -1615.9357, -0.024041994, -0.11511093, -405473.03, -54272.223, 0.0, 10.000348, 9.9983835 
6.749766e+2, 2.741602e+2, -309696.66, -456613.2, 2289.6948, -0.025255525, -0.1255527, -309660.97, -56442.324, 0.0, 10.000332, 9.998386 
6.7496425e+2, 2.8415868e+2, -216290.4, -358673.72, 2642.9985, -0.030439077, -0.116415896, -216241.36, -61006.89, 0.0, 10.000291, 9.998405 
6.7495185e+2, 2.9415742e+2, -128143.664, -264180.3, 1830.4131, -0.040719867, -0.08704451, -128119.04, -70871.305, 0.0000000040864183, 10.000218, 9.998416 
6.749396e+2, 3.0415595e+2, -34362.434, -101697.31, 5705.937, -0.04577926, -0.11311097, -33882.34, -33882.34, 0.0000003121116, 10.000131, 9.999239 
6.749273e+2, 3.1415552e+2, -43791.855, -96225.09, 1056.2808, -0.04584822, -0.0815867, -43770.586, -43770.586, 0.0000020895884, 10.000022, 9.999329 
6.851671e+2, 1.2419229e+2, -1512197.1, -1722226.9, 4315.8057, -0.028179612, 0.091528766, -1512108.5, 210813.42, 0.0, 10.001847, 9.999059 
6.8515277e+2, 1.3419087e+2, -1464805.5, -1665160.6, -47070.742, -0.09955659, 0.057752904, -1454297.9, 170637.97, 0.0, 10.001566, 9.998916 
6.8514085e+2, 1.4418985e+2, -1381005.4, -1539839.6, -10263.112, 0.03910395, 0.05208569, -1380345.0, 146600.34, 0.0, 10.001323, 9.999218 
6.851277e+2, 1.5418908e+2, -1307485.9, -1450096.5, -7946.5615, -0.0152887795, 0.050472755, -1307044.5, 121907.06, 0.0, 10.00114, 9.999249 
6.8511474e+2, 1.6418818e+2, -1232374.5, -1365216.3, -9734.89, -0.032930512, 0.035426628, -1231664.9, 99293.71, 0.0, 10.000992, 9.999231 
6.8510234e+2, 1.7418706e+2, -1148905.6, -1273623.3, -5372.738, 0.0011871166, 0.00046995623, -1148674.6, 84291.98, 0.0, 10.000889, 9.999237 
6.8508977e+2, 1.8418586e+2, -1086803.3, -1226643.0, -1463.9686, 0.013120687, -0.027728781, -1086787.9, 48187.9, 0.0, 10.000788, 9.998936 
6.850769e+2, 1.9418457e+2, -1004772.25, -1138644.1, -3921.0664, -0.0055887625, -0.048338633, -1004657.5, 32328.959, 0.0, 10.000689, 9.998915 
6.850642e+2, 2.0418318e+2, -925215.75, -1060424.4, -6368.514, -0.011973041, -0.073997624, -924916.44, 14081.185, 0.0, 10.000608, 9.998817 
6.850516e+2, 2.1418165e+2, -834961.5, -966451.0, -6863.182, -0.0012400077, -0.10825011, -834604.2, 6404.949, 0.0, 10.000556, 9.998815 
6.850391e+2, 2.2418004e+2, -760102.5, -902940.0, -214.81113, 0.0040463675, -0.14041944, -760102.1, -17079.832, 0.0, 10.000498, 9.998606 
6.850266e+2, 2.3417833e+2, -672817.75, -811425.06, 1371.3475, 0.00171477, -0.17067647, -672804.2, -27766.742, 0.0, 10.00043, 9.998594 
6.850141e+2, 2.4417682e+2, -594505.9, -741645.0, 1875.8745, -0.0044118515, -0.17126317, -594481.94, -47429.953, 0.0, 10.000376, 9.998426 
6.850016e+2, 2.541756e+2, -502195.38, -647122.44, -977.57025, -0.015566115, -0.13395254, -502188.78, -53123.23, 0.0, 10.0003395, 9.99842 
6.8498915e+2, 2.6417422e+2, -409933.38, -552314.75, 3746.4539, -0.023831531, -0.1130218, -409834.84, -58754.258, 0.0, 10.000302, 9.998416 
6.849768e+2, 2.7417263e+2, -316968.47, -455770.28, 2683.1975, -0.028205207, -0.11500297, -316916.63, -63819.36, 0.0, 10.000263, 9.998425 
6.849645e+2, 2.8417113e+2, -223641.1, -360260.75, -127.51752, -0.0350655, -0.105193384, -223640.97, -68528.26, 0.0, 10.000233, 9.998422 
6.84952e+2, 2.9416978e+2, -127805.0, -262414.34, 121.19149, -0.04498246, -0.08566259, -127804.89, -70678.195, 0.0000000009738006, 10.000214, 9.99843 
6.849396e+2, 3.0416828e+2, -23533.297, -94388.95, 5114.1655, -0.05496042, -0.11677226, -23166.074, -23166.074, 0.00000022618863, 10.000196, 9.999257 
6.8492717e+2, 3.141679e+2, -19833.928, -82787.68, 2903.8645, -0.0668128, -0.084842056, -19700.264, -19700.264, 0.0000018662819, 10.000179, 9.999345 
6.951691e+2, 1.24204345e+2, -1498536.0, -1694163.0, -4487.822, -0.014575472, 0.07568798, -1498433.1, 224371.4, 0.0, 10.001848, 9.99925 
6.951543e+2, 1.3420323e+2, -1451866.6, -1638630.3, -57603.207, -0.101175904, 0.055217408, -1435529.3, 189285.11, 0.0, 10.001567, 9.999098 
6.9514215e+2, 1.4420237e+2, -1381543.0, -1541217.3, -17315.717, 0.034614988, 0.05393035, -1379686.8, 147135.48, 0.0, 10.001324, 9.999208 
6.9512886e+2, 1.5420154e+2, -1309190.0, -1453998.6, -14672.802, -0.0129649015, 0.0498709, -1307718.1, 121111.39, 0.0, 10.001142, 9.999223 
6.951158e+2, 1.6420063e+2, -1225186.1, -1350745.4, -13707.868, -0.028615413, 0.03277691, -1223707.0, 107129.56, 0.0, 10.000993, 9.9993305 
6.951032e+2, 1.7419961e+2, -1140976.3, -1257590.5, -9264.23, 0.0006331109, -0.0034211604, -1140244.9, 92598.18, 0.0, 10.000891, 9.999347 
6.9509053e+2, 1.8419842e+2, -1091443.6, -1236615.1, -5311.3057, 0.013363394, -0.034176283, -1091249.5, 43602.48, 0.0, 10.000789, 9.998867 
6.950777e+2, 1.94197e+2, -1010510.7, -1150805.6, -7717.4604, 0.0033172516, -0.05923421, -1010087.44, 26776.748, 0.0, 10.000689, 9.998831 
6.950649e+2, 2.0419559e+2, -926715.75, -1063814.5, -8454.358, -0.0061993254, -0.080811314, -926196.4, 12679.396, 0.0, 10.000609, 9.998794 
6.950521e+2, 2.141942e+2, -836072.3, -969084.6, -8783.967, -0.014679739, -0.09947802, -835494.75, 5391.658, 0.0, 10.000557, 9.998796 
6.9503945e+2, 2.241926e+2, -758168.0, -899203.06, -2663.2266, -0.014165948, -0.13016637, -758117.7, -15218.36, 0.0, 10.000499, 9.9986315 
6.9502705e+2, 2.3419075e+2, -670680.3, -807245.8, -1143.177, -0.0016058896, -0.17809792, -670670.75, -25755.375, 0.0, 10.000431, 9.998623 
6.9501454e+2, 2.4418914e+2, -598690.8, -750597.2, 483.7116, 0.0012565716, -0.18750328, -598689.25, -51758.547, 0.0, 10.000377, 9.998364 
6.9500196e+2, 2.541879e+2, -506939.34, -657217.25, -2235.2932, -0.009015162, -0.14699304, -506906.1, -57961.1, 0.0, 10.00034, 9.99835 
6.9498944e+2, 2.641866e+2, -412088.9, -556989.0, 2401.0247, -0.020956112, -0.11581985, -412049.13, -61089.14, 0.0, 10.000303, 9.9983835 
6.94977e+2, 2.7418515e+2, -318987.06, -460062.1, 1394.3541, -0.03513822, -0.0980331, -318973.28, -65997.76, 0.0, 10.000263, 9.998395 
6.949646e+2, 2.841837e+2, -221963.55, -356779.9, -731.0546, -0.045411225, -0.08136458, -221959.58, -66969.086, 0.0, 10.000233, 9.998446 
6.9495213e+2, 2.9418224e+2, -125846.84, -258334.52, -314.46338, -0.04993059, -0.07249536, -125846.1, -68841.22, 0.000000000021633938, 10.000214, 9.998458 
6.949397e+2, 3.0418068e+2, -20019.271, -87074.31, 4744.0957, -0.064089805, -0.11657012, -19685.293, -19685.293, 0.00000014519733, 10.0001955, 9.999308 
6.949271e+2, 3.1418014e+2, -16366.173, -75556.6, 2553.55, -0.09296362, -0.102201425, -16256.213, -16256.213, 0.0000015881137, 10.000178, 9.999395 
7.051708e+2, 1.2421695e+2, -1512796.3, -1693200.8, 20512.77, -0.012315808, 0.07004907, -1510493.3, 212188.02, 0.0, 10.001717, 9.99932 
7.0515585e+2, 1.3421598e+2, -1461035.0, -1637087.1, -43276.605, -0.10039158, 0.05767581, -1450972.0, 173717.77, 0.0, 10.001479, 9.99915 
7.051435e+2, 1.4421515e+2, -1384980.6, -1539048.8, -2740.0635, 0.038159393, 0.05651575, -1384931.9, 141765.14, 0.0, 10.001285, 9.999243 
7.0513e+2, 1.542143e+2, -1304530.0, -1448160.4, 4380.651, -0.0068529886, 0.04584932, -1304396.5, 124307.984, 0.0, 10.001158, 9.999254 
7.051168e+2, 1.6421339e+2, -1219053.9, -1350794.1, 5441.295, -0.02416689, 0.029011296, -1218829.5, 111881.91, 0.0, 10.001048, 9.999303 
7.051041e+2, 1.7421243e+2, -1133085.8, -1257338.3, -327.2465, -0.0026070268, 0.0024174985, -1133084.9, 99632.74, 0.0, 10.00096, 9.999314 
7.050913e+2, 1.8421122e+2, -1084483.8, -1235258.8, -1359.4357, 0.008675104, -0.02762223, -1084471.5, 50255.223, 0.0, 10.000846, 9.998848 
7.0507836e+2, 1.9420968e+2, -1010855.2, -1152839.3, 925.92285, 0.005745591, -0.06397569, -1010849.1, 25890.691, 0.0, 10.000695, 9.998814 
7.050655e+2, 2.0420821e+2, -929639.3, -1066136.5, 6174.2227, -0.0005698076, -0.08984499, -929360.6, 9391.15, 0.0, 10.000593, 9.998785 
7.050527e+2, 2.1420686e+2, -836496.8, -970187.4, 6765.5786, -0.011257425, -0.10335259, -836155.3, 4606.7554, 0.0, 10.000559, 9.998788 
7.050399e+2, 2.2420527e+2, -762707.3, -909064.5, 8713.703, -0.013105147, -0.1288457, -762190.3, -19415.182, 0.0, 10.000501, 9.998563 
7.050274e+2, 2.342034e+2, -678654.9, -819406.8, 2341.1475, -0.002982381, -0.17163764, -678615.94, -33824.23, 0.0, 10.000412, 9.998548 
7.050149e+2, 2.4420173e+2, -605743.94, -759389.1, 1899.7476, -0.0012458562, -0.18066238, -605720.5, -58912.707, 0.0, 10.000352, 9.998316 
7.0500225e+2, 2.542004e+2, -511807.72, -664748.25, 929.4656, -0.010927963, -0.14624357, -511802.06, -62979.07, 0.0, 10.00033, 9.998303 
7.0498973e+2, 2.6419902e+2, -412849.34, -559806.06, 6681.654, -0.023609143, -0.115179636, -412546.16, -61707.81, 0.0, 10.000309, 9.998362 
7.049772e+2, 2.7419767e+2, -316783.44, -461299.94, 6193.0806, -0.040348098, -0.089327976, -316518.53, -63664.965, 0.0, 10.000289, 9.998374 
7.049647e+2, 2.8419626e+2, -218029.7, -352175.28, 3722.633, -0.051844914, -0.07042941, -217926.48, -63058.133, 0.0, 10.000248, 9.99847 
7.049523e+2, 2.9419476e+2, -129007.9, -256766.22, 3939.9382, -0.055808783, -0.06726185, -128886.51, -72003.664, 0.0, 10.000179, 9.998486 
7.049398e+2, 3.0419317e+2, -29223.035, -81817.67, 9330.08, -0.07216949, -0.11853507, -27616.96, -27616.96, 0.00000008201181, 10.000092, 9.999393 
7.049271e+2, 3.1419262e+2, -39212.14, -76623.62, 9865.433, -0.10664435, -0.11516846, -36770.035, -36770.035, 0.0000012936833, 9.999979, 9.999483 
7.1517247e+2, 1.242301e+2, -1516556.5, -1700323.0, 12621.321, -0.02081784, 0.073519535, -1515693.8, 206858.73, 0.0, 10.001714, 9.999273 
7.151573e+2, 1.342291e+2, -1465928.3, -1647419.9, -52327.953, -0.09742161, 0.064789355, -1451921.9, 172640.11, 0.0, 10.001479, 9.99908 
7.151449e+2, 1.4422822e+2, -1379524.4, -1528310.8, -7673.2964, 0.049196918, 0.059745815, -1379129.6, 147440.02, 0.0, 10.0012865, 9.999315 
7.151313e+2, 1.5422735e+2, -1298180.5, -1435678.5, -317.2013, 0.0027755136, 0.03849097, -1298179.8, 130396.516, 0.0, 10.001161, 9.999339 
7.1511793e+2, 1.6422644e+2, -1229241.5, -1372557.3, 2032.1136, -0.019669684, 0.024143353, -1229212.6, 101370.54, 0.0, 10.001051, 9.999153 
7.1510506e+2, 1.7422552e+2, -1144846.8, -1282114.5, -3668.4724, -0.008501891, 0.017597279, -1144748.8, 87841.41, 0.0, 10.000961, 9.999144 
7.1509206e+2, 1.8422428e+2, -1082267.0, -1230952.4, -6888.974, -0.0008316516, -0.008586922, -1081948.5, 52651.46, 0.0, 10.000847, 9.998878 
7.1507907e+2, 1.942226e+2, -1007383.6, -1146062.0, -4801.4336, 0.0018543063, -0.0627897, -1007217.56, 29395.701, 0.0, 10.000696, 9.99886 
7.1506613e+2, 2.0422103e+2, -929120.75, -1065517.0, 4511.7285, 0.0049426085, -0.10107834, -928971.6, 9653.943, 0.0, 10.000595, 9.998789 
7.150534e+2, 2.1421961e+2, -836336.25, -970157.4, 5436.4043, 0.008704321, -0.11967444, -836115.75, 4520.5547, 0.0, 10.00056, 9.998788 
7.150406e+2, 2.2421807e+2, -774107.94, -932977.5, 5502.087, 0.006827205, -0.13625842, -773917.6, -31267.922, 0.0, 10.000502, 9.998399 
7.150278e+2, 2.3421627e+2, -691007.6, -845378.2, -972.7247, -0.002533213, -0.15138164, -691001.5, -46334.93, 0.0, 10.000413, 9.998369 
7.150151e+2, 2.442146e+2, -608153.9, -764717.1, 940.6702, -0.011913758, -0.15094703, -608148.25, -61465.01, 0.0, 10.000353, 9.99828 
7.150025e+2, 2.5421306e+2, -513461.13, -668453.7, 216.73946, -0.021338465, -0.13176183, -513460.84, -64761.227, 0.0, 10.00033, 9.998278 
7.149899e+2, 2.6421157e+2, -413743.13, -561914.9, 6055.142, -0.031827774, -0.111118324, -413496.1, -62780.297, 0.0, 10.000309, 9.998347 
7.149775e+2, 2.7421016e+2, -317717.72, -463425.9, 5652.4287, -0.043834936, -0.08900773, -317498.78, -64767.344, 0.0, 10.00029, 9.99836 
7.14965e+2, 2.8420871e+2, -216484.88, -349055.3, 1444.5146, -0.054414887, -0.07257594, -216469.14, -61722.742, 0.0, 10.000248, 9.998492 
7.149524e+2, 2.9420725e+2, -127381.555, -253333.56, 1599.4392, -0.06271432, -0.07010678, -127361.24, -70600.56, 0.0, 10.000178, 9.998509 
7.149398e+2, 3.0420572e+2, -20919.584, -64313.105, 5512.1543, -0.079204954, -0.12269749, -20230.338, -20230.338, 0.00000004119849, 10.00009, 9.999516 
7.14927e+2, 3.1420526e+2, -30762.674, -58476.254, 5994.2935, -0.10773213, -0.12364005, -29521.709, -29521.709, 0.0000010048329, 9.999976, 9.99961 
7.25174e+2, 1.2424352e+2, -1567198.3, -1726016.3, 20035.305, -0.019578272, 0.08949862, -1564709.8, 157711.98, 0.0, 10.001372, 9.999261 
7.2515875e+2, 1.3424246e+2, -1485127.0, -1660389.6, -43104.777, -0.095215544, 0.079353325, -1475099.4, 149332.72, 0.0, 10.001364, 9.999046 
7.2514623e+2, 1.4424156e+2, -1370150.9, -1517737.5, 3364.802, 0.053095944, 0.069772586, -1370074.3, 156365.75, 0.0, 10.001326, 9.999369 
7.251325e+2, 1.5424068e+2, -1279836.4, -1420096.9, 8949.474, 0.004466508, 0.041947, -1279267.6, 149178.16, 0.0, 10.001258, 9.999398 
7.25119e+2, 1.6423972e+2, -1224118.0, -1385186.6, 9821.433, -0.018195001, 0.02580923, -1223521.4, 106931.58, 0.0, 10.001152, 9.999017 
7.25106e+2, 1.742387e+2, -1151100.0, -1302084.5, 5265.6963, -0.0047586206, 0.023844268, -1150916.5, 81545.12, 0.0, 10.000993, 9.998992 
7.2509295e+2, 1.8423736e+2, -1078004.9, -1227067.8, 2670.103, 0.003304228, -0.002730853, -1077957.0, 56515.29, 0.0, 10.000868, 9.998894 
7.250798e+2, 1.9423564e+2, -991282.2, -1134890.9, 3526.8047, 0.003945801, -0.063981876, -991195.6, 45289.637, 0.0, 10.0007925, 9.99889 
7.2506684e+2, 2.0423402e+2, -920953.44, -1070462.1, 10156.98, 0.008361386, -0.1054222, -920266.56, 18231.209, 0.0, 10.0006895, 9.99871 
7.25054e+2, 2.1423256e+2, -843973.06, -983702.2, 4468.8716, 0.017931467, -0.12192852, -843830.3, -3320.8206, 0.0, 10.00055, 9.998699 
7.250412e+2, 2.2423095e+2, -788978.3, -955859.3, 3084.6829, 0.01647072, -0.13237534, -788921.3, -46397.414, 0.0, 10.000467, 9.998258 
7.250283e+2, 2.3422913e+2, -694127.5, -863040.25, -883.46387, 0.00026687488, -0.13597219, -694122.9, -49581.086, 0.0, 10.000462, 9.998225 
7.250155e+2, 2.4422738e+2, -597821.75, -763260.94, 2918.8904, -0.013589041, -0.13209434, -597770.25, -51211.023, 0.0, 10.000439, 9.998248 
7.250028e+2, 2.5422576e+2, -505868.75, -667330.7, 2339.666, -0.02422881, -0.12043281, -505834.88, -57258.77, 0.0, 10.000394, 9.998255 
7.2499025e+2, 2.6422417e+2, -413380.56, -562626.44, 7107.9614, -0.035431396, -0.10542238, -413042.78, -62450.1, 0.0, 10.000316, 9.998339 
7.249777e+2, 2.7422276e+2, -331865.1, -471059.63, 6982.8843, -0.047495775, -0.08633085, -331515.7, -78907.03, 0.0, 10.000196, 9.998352 
7.249651e+2, 2.8422132e+2, -233189.84, -352794.63, 4222.61, -0.05970739, -0.07146562, -233040.94, -78417.34, 0.0, 10.000115, 9.99853 
7.249524e+2, 2.9421988e+2, -137699.06, -253646.56, 5653.99, -0.07181435, -0.068396196, -137424.02, -80786.58, 0.0, 10.000088, 9.998551 
7.2493976e+2, 3.042184e+2, -24550.432, -58149.96, 6413.3975, -0.08634716, -0.11953349, -23367.877, -23367.877, 0.000000018939705, 10.000031, 9.999585 
7.24927e+2, 3.14218e+2, -31376.172, -50948.332, 2264.7322, -0.10488549, -0.12017718, -31117.533, -31117.533, 0.0000007295325, 9.999939, 9.99968 
7.351755e+2, 1.2425721e+2, -1566140.0, -1723517.4, 19871.674, -0.009558594, 0.11686881, -1563669.6, 158619.38, 0.0, 10.00137, 9.99928 
7.351601e+2, 1.3425611e+2, -1484976.1, -1660504.1, -43662.71, -0.093849026, 0.100845784, -1474714.9, 149585.3, 0.0, 10.001365, 9.999045 
7.3514754e+2, 1.4425516e+2, -1367526.3, -1512890.4, 953.2073, 0.050153606, 0.08615207, -1367520.0, 158787.97, 0.0, 10.0013275, 9.999401 
7.3513365e+2, 1.5425427e+2, -1277165.8, -1415057.9, 6251.823, -0.0014737163, 0.05564819, -1276882.9, 151430.0, 0.0, 10.00126, 9.999433 
7.351202e+2, 1.6425323e+2, -1232605.1, -1403243.4, 3919.036, -0.019624926, 0.033629384, -1232515.3, 97805.42, 0.0, 10.001153, 9.998893 
7.351071e+2, 1.7425196e+2, -1160486.9, -1322023.8, -845.7358, 0.008234404, 0.021443864, -1160482.5, 71849.625, 0.0, 10.000994, 9.998855 
7.35094e+2, 1.8425052e+2, -1077671.3, -1226824.9, -472.9413, 0.020521196, -0.00956735, -1077669.8, 56674.055, 0.0, 10.00087, 9.998895 
7.3508066e+2, 1.9424884e+2, -990162.7, -1133013.9, 601.13605, 0.011764535, -0.06747532, -990160.2, 46195.625, 0.0, 10.000793, 9.998902 
7.350675e+2, 2.042472e+2, -932130.25, -1094137.8, 4990.756, 0.0096726455, -0.10305466, -931976.7, 6391.702, 0.0, 10.000691, 9.998547 
7.3505455e+2, 2.1424565e+2, -856111.8, -1009433.25, -835.1551, 0.016567536, -0.110404156, -856107.25, -15725.642, 0.0, 10.000551, 9.998522 
7.350416e+2, 2.2424391e+2, -797017.6, -973091.4, 2532.1274, 0.015980281, -0.117443025, -796981.2, -54583.51, 0.0, 10.000469, 9.998138 
7.350288e+2, 2.3424196e+2, -701835.9, -879437.25, -1010.1453, 0.0054099765, -0.1254275, -701830.1, -57412.723, 0.0, 10.000463, 9.998112 
7.35016e+2, 2.442401e+2, -599689.94, -767424.7, 1398.1393, -0.0063654534, -0.12402268, -599678.25, -53242.438, 0.0, 10.00044, 9.9982195 
7.3500323e+2, 2.5423846e+2, -507287.3, -670523.56, 751.4917, -0.019657072, -0.112220906, -507283.88, -58831.375, 0.0, 10.000395, 9.998233 
7.3499054e+2, 2.6423687e+2, -413570.97, -563227.75, 2894.9739, -0.03447113, -0.09808392, -413515.0, -63045.918, 0.0, 10.000317, 9.998335 
7.349778e+2, 2.7423537e+2, -332007.6, -471469.22, 2646.4578, -0.051403917, -0.08128549, -331957.4, -79472.125, 0.0, 10.000196, 9.998349 
7.349651e+2, 2.84234e+2, -229507.56, -345138.66, 3131.9521, -0.0678135, -0.06705676, -229422.8, -74922.74, 0.0, 10.000114, 9.998583 
7.349524e+2, 2.9423264e+2, -133752.31, -245394.94, 4933.4834, -0.083185, -0.062039275, -133534.73, -77021.53, 0.0, 10.000087, 9.998609 
7.349397e+2, 3.0423126e+2, -23628.184, -56119.652, 3382.2258, -0.09367988, -0.10884411, -23279.842, -23279.842, 0.0000000073965225, 10.0000305, 9.9996 
7.34927e+2, 3.1423092e+2, -31078.348, -49983.168, -874.9683, -0.09827411, -0.10459998, -31037.938, -31037.938, 0.0000004773962, 9.999937, 9.999687 
7.4517673e+2, 1.2427074e+2, -1591579.4, -1728871.9, 21819.54, -0.0037341807, 0.13003765, -1588195.1, 133962.55, 0.0, 10.001166, 9.999341 
7.451614e+2, 1.3426964e+2, -1489366.3, -1657724.5, -38830.28, -0.09167931, 0.10999939, -1480842.0, 143326.45, 0.0, 10.001314, 9.999088 
7.4514884e+2, 1.4426869e+2, -1365207.3, -1514749.1, 433.43796, 0.05365645, 0.09470831, -1365206.0, 160970.11, 0.0, 10.001357, 9.999374 
7.45135e+2, 1.5426782e+2, -1277836.3, -1419137.5, 341.20688, 0.005889361, 0.06861367, -1277835.5, 150345.44, 0.0, 10.001272, 9.999398 
7.451214e+2, 1.6426672e+2, -1231038.9, -1403552.0, -3140.726, -0.010709823, 0.043603398, -1230981.6, 99207.3, 0.0, 10.001169, 9.998882 
7.451082e+2, 1.7426533e+2, -1154088.3, -1319878.3, 1157.8691, 0.015517007, 0.018502519, -1154080.1, 78121.195, 0.0, 10.001042, 9.998845 
7.450949e+2, 1.842638e+2, -1070339.6, -1227914.0, 7518.0234, 0.027557308, -0.016695457, -1069981.8, 64231.66, 0.0, 10.00094, 9.998853 
7.4508154e+2, 1.9426215e+2, -982193.25, -1134169.0, 4503.0, 0.020384107, -0.06704242, -982059.94, 54165.2, 0.0, 10.000871, 9.9988575 
7.450683e+2, 2.0426047e+2, -926037.9, -1108166.1, 6002.149, 0.01660221, -0.0980677, -925840.25, 12398.162, 0.0, 10.000807, 9.998394 
7.4505526e+2, 2.1425878e+2, -838631.4, -1018902.9, 1226.8027, 0.017459357, -0.1050266, -838623.06, 1630.698, 0.0, 10.00075, 9.998362 
7.450422e+2, 2.2425693e+2, -773845.94, -969249.06, 8017.5093, 0.014911216, -0.11107474, -773517.5, -31246.361, 0.0, 10.00066, 9.998073 
7.450293e+2, 2.3425491e+2, -696023.7, -883015.0, 8606.502, 0.0078200735, -0.117283724, -695628.4, -51337.18, 0.0, 10.00053, 9.9980545 
7.4501646e+2, 2.4425304e+2, -606682.5, -778026.1, 12104.568, -0.002756628, -0.11468256, -605831.56, -59521.492, 0.0, 10.000423, 9.998154 
7.450036e+2, 2.5425133e+2, -518968.38, -683444.06, 8112.099, -0.0178978, -0.1025012, -518569.25, -70241.9, 0.0, 10.000346, 9.998168 
7.4499077e+2, 2.6424965e+2, -426937.56, -576247.75, 4512.1147, -0.03430919, -0.08905095, -426801.3, -76456.65, 0.0, 10.000254, 9.998276 
7.4497795e+2, 2.742481e+2, -344131.75, -483843.53, -236.2772, -0.052482195, -0.074373424, -344131.34, -91769.51, 0.0, 10.000141, 9.998291 
7.4496514e+2, 2.842467e+2, -234166.84, -339772.72, 832.9978, -0.07043691, -0.059287935, -234160.27, -79783.7, 0.0, 10.000051, 9.998651 
7.449524e+2, 2.9424548e+2, -142682.11, -240974.27, 4229.4453, -0.08776704, -0.04920144, -142500.45, -86112.15, 0.0, 9.999989, 9.998686 
7.4493957e+2, 3.0424416e+2, -38296.63, -62278.445, 1943.2817, -0.10038396, -0.09127316, -38140.184, -38140.184, 0.0000000015345106, 9.999926, 9.999608 
7.449268e+2, 3.1424385e+2, -41439.53, -55031.49, -3146.501, -0.10718812, -0.08528603, -40746.465, -40746.465, 0.00000026410652, 9.9998665, 9.999686 
7.55178e+2, 1.2428413e+2, -1584549.0, -1714501.3, 27110.805, -0.002059449, 0.12976605, -1579120.0, 142907.56, 0.0, 10.001167, 9.999439 
7.551628e+2, 1.3428308e+2, -1483618.3, -1645884.5, -33447.293, -0.088832974, 0.10759409, -1476994.4, 147042.6, 0.0, 10.001314, 9.999169 
7.551503e+2, 1.4428218e+2, -1371343.4, -1527470.5, -2221.5881, 0.06318101, 0.09588972, -1371311.8, 154732.38, 0.0, 10.001356, 9.999288 
7.551365e+2, 1.5428133e+2, -1284804.3, -1433840.5, -2972.6675, 0.025837183, 0.08093147, -1284745.0, 143304.7, 0.0, 10.001272, 9.999297 
7.551227e+2, 1.642802e+2, -1223987.5, -1389402.1, -7937.0, 0.007958528, 0.055648617, -1223607.5, 106450.266, 0.0, 10.00117, 9.99898 
7.5510925e+2, 1.7427877e+2, -1145800.6, -1303407.6, -3829.389, 0.017194092, 0.015004465, -1145707.6, 86361.695, 0.0, 10.001045, 9.998958 
7.5509584e+2, 1.8427724e+2, -1076001.3, -1240377.4, 4535.82, 0.024755161, -0.024108827, -1075876.1, 58204.992, 0.0, 10.000943, 9.998767 
7.5508255e+2, 1.942756e+2, -989164.06, -1149115.1, 1701.6036, 0.029786807, -0.06279608, -989145.94, 46947.332, 0.0, 10.000873, 9.9987545 
7.550692e+2, 2.0427383e+2, -935869.75, -1128969.5, 3699.5786, 0.028968655, -0.09057656, -935798.9, 2309.0808, 0.0, 10.000808, 9.998251 
7.5505596e+2, 2.142719e+2, -848660.7, -1040151.0, -965.972, 0.02051301, -0.10571132, -848655.8, -8529.973, 0.0, 10.000751, 9.998216 
7.5504285e+2, 2.2426996e+2, -774635.44, -971340.1, 3333.3027, 0.013233967, -0.11313221, -774578.94, -32434.701, 0.0, 10.000662, 9.998058 
7.5502986e+2, 2.3426802e+2, -696132.4, -883651.6, 3752.5574, 0.00749624, -0.11150963, -696057.3, -51894.06, 0.0, 10.000532, 9.99805 
7.5501686e+2, 2.4426612e+2, -613733.7, -793017.3, 9118.65, -0.0027788912, -0.10408688, -613271.06, -67089.0, 0.0, 10.000424, 9.998051 
7.55004e+2, 2.5426432e+2, -526637.56, -699632.2, 5302.0083, -0.018989202, -0.0912742, -526475.25, -78274.53, 0.0, 10.000346, 9.998056 
7.5499105e+2, 2.6426256e+2, -435009.75, -593201.06, 482.3462, -0.034976013, -0.078315295, -435008.28, -84788.734, 0.0, 10.000254, 9.998159 
7.5497806e+2, 2.7426082e+2, -352311.78, -500933.78, -4265.098, -0.050742872, -0.06555971, -352189.5, -99951.06, 0.0, 10.000141, 9.998174 
7.549652e+2, 2.8425944e+2, -228560.0, -328158.84, -1444.5144, -0.067580126, -0.048050713, -228539.05, -74285.82, 0.0, 10.00005, 9.998731 
7.549524e+2, 2.942584e+2, -136089.97, -227196.06, 2188.5688, -0.0855226, -0.029681252, -136037.42, -79774.555, 0.0, 9.999988, 9.998781 
7.5493944e+2, 3.042572e+2, -38503.13, -62580.438, -70.22312, -0.10662685, -0.06659651, -38502.926, -38502.926, 0.00000000001992495, 9.999925, 9.999606 
7.549264e+2, 3.1425688e+2, -42550.984, -57060.16, -5001.8105, -0.13248022, -0.06220301, -40993.81, -40993.81, 0.000000109993245, 9.999865, 9.999673 
7.6517916e+2, 1.2429766e+2, -1586232.1, -1703627.0, 34709.266, 0.0007547876, 0.1388068, -1576737.8, 145158.11, 0.0, 10.001105, 9.999543 
7.6516414e+2, 1.3429661e+2, -1496769.0, -1642250.6, -25351.12, -0.082347535, 0.10874369, -1492477.9, 131426.48, 0.0, 10.001182, 9.999258 
7.651517e+2, 1.442957e+2, -1398395.0, -1549647.9, 710.9366, 0.07227754, 0.095088236, -1398391.6, 127519.9, 0.0, 10.00121, 9.999205 
7.6513773e+2, 1.542948e+2, -1303256.0, -1453371.5, -107.301506, 0.033344053, 0.08480345, -1303255.9, 124662.33, 0.0, 10.001192, 9.999202 
7.6512396e+2, 1.6429365e+2, -1220249.9, -1384347.1, -7594.763, 0.01352816, 0.05829854, -1219899.1, 110027.81, 0.0, 10.001183, 9.999008 
7.6511043e+2, 1.7429215e+2, -1122854.9, -1287985.1, -9001.706, 0.020192651, 0.008628364, -1122365.6, 109572.49, 0.0, 10.001184, 9.998996 
7.6509684e+2, 1.842906e+2, -1056075.9, -1238672.6, -5011.7134, 0.027069775, -0.029585011, -1055938.5, 78011.3, 0.0, 10.001115, 9.998695 
7.650835e+2, 1.9428903e+2, -983299.1, -1155177.1, -6469.9834, 0.033962183, -0.054257225, -983055.9, 52905.996, 0.0, 10.000951, 9.998674 
7.6507014e+2, 2.0428723e+2, -933803.56, -1135678.8, 1864.0197, 0.035349637, -0.07806099, -933786.4, 4190.8823, 0.0, 10.000855, 9.998182 
7.650569e+2, 2.1428512e+2, -839474.1, -1043315.06, 3041.3945, 0.02954626, -0.10255995, -839428.8, 567.9574, 0.0, 10.000847, 9.998147 
7.650436e+2, 2.2428311e+2, -757951.6, -968621.56, 6306.793, 0.02089502, -0.1119338, -757762.94, -15746.999, 0.0, 10.0008, 9.99801 
7.6503044e+2, 2.342812e+2, -674667.8, -878508.94, 3245.7004, 0.008510885, -0.10246281, -674616.1, -30581.504, 0.0, 10.000702, 9.998003 
7.6501733e+2, 2.442793e+2, -598274.94, -796722.5, 6831.0117, -0.0061237416, -0.09062047, -598040.06, -51986.137, 0.0, 10.000579, 9.997951 
7.650043e+2, 2.5427738e+2, -522829.38, -709442.06, 3372.674, -0.02368116, -0.07797352, -522768.44, -74694.56, 0.0, 10.000423, 9.9979515 
7.649913e+2, 2.6427552e+2, -432539.6, -598335.7, 1433.0787, -0.039186683, -0.06571494, -432527.2, -82433.41, 0.0, 10.0002985, 9.998102 
7.649783e+2, 2.7427375e+2, -345402.47, -503598.88, 1368.9221, -0.052104726, -0.054365363, -345390.63, -93277.23, 0.0, 10.000216, 9.998119 
7.649653e+2, 2.842723e+2, -219309.28, -318953.6, 4569.4253, -0.06744512, -0.037613463, -219100.19, -64971.945, 0.0, 10.000093, 9.998773 
7.649523e+2, 2.9427132e+2, -142315.86, -224739.28, 4522.001, -0.08564156, -0.019009396, -142068.5, -85931.445, 0.0, 9.999922, 9.998829 
7.6493925e+2, 3.0427018e+2, -62155.816, -75391.42, 615.1625, -0.109677404, -0.05295963, -62127.285, -62127.285, 0.0, 9.999769, 9.999593 
7.64926e+2, 3.1426987e+2, -75852.56, -75472.83, -4981.5874, -0.14219019, -0.04472467, -70677.49, -70677.49, 0.000000028836135, 9.999646, 9.999652 
7.751802e+2, 1.2431133e+2, -1578715.9, -1688192.4, 36980.59, 0.0044332165, 0.15630177, -1567394.8, 154367.9, 0.0, 10.001105, 9.999649 
7.751653e+2, 1.3431026e+2, -1490007.8, -1628787.0, -22991.754, -0.072518095, 0.113240905, -1486297.9, 137472.89, 0.0, 10.0011835, 9.999351 
7.75153e+2, 1.4430928e+2, -1403649.9, -1561209.4, -217.99425, 0.08084618, 0.09243777, -1403649.6, 122128.63, 0.0, 10.001212, 9.999125 
7.751389e+2, 1.5430827e+2, -1309426.0, -1466857.8, -1101.5432, 0.028939603, 0.08063267, -1309418.4, 118368.18, 0.0, 10.001195, 9.999108 
7.751251e+2, 1.6430703e+2, -1222603.0, -1389857.8, -7839.8354, 0.006617991, 0.051995214, -1222236.3, 107559.91, 0.0, 10.001184, 9.998969 
7.751116e+2, 1.7430545e+2, -1124990.3, -1292916.5, -9150.488, 0.024473615, -0.00047376656, -1124493.1, 107314.48, 0.0, 10.001185, 9.998961 
7.750981e+2, 1.8430392e+2, -1059905.5, -1247063.6, -10922.991, 0.03423187, -0.0332007, -1059270.3, 74548.945, 0.0, 10.001116, 9.998637 
7.7508444e+2, 1.9430245e+2, -987142.4, -1163783.5, -12789.353, 0.032997526, -0.04157254, -986221.2, 49609.66, 0.0, 10.000954, 9.998614 
7.7507097e+2, 2.0430067e+2, -933399.56, -1135461.8, 1082.5098, 0.0358986, -0.06067385, -933393.75, 4452.4873, 0.0, 10.000857, 9.998183 
7.7505785e+2, 2.1429847e+2, -838851.0, -1042390.56, 2672.8713, 0.044439964, -0.09567298, -838815.94, 1050.5414, 0.0, 10.000848, 9.998154 
7.750446e+2, 2.2429639e+2, -763686.75, -980805.94, 2838.9917, 0.037670925, -0.10753526, -763649.6, -21763.34, 0.0, 10.0008, 9.997927 
7.750312e+2, 2.3429447e+2, -680845.06, -891632.7, -431.5318, 0.010785027, -0.09017692, -680844.2, -36938.715, 0.0, 10.000703, 9.997912 
7.750178e+2, 2.4429251e+2, -605116.44, -811196.8, 1163.4895, -0.012808531, -0.074296825, -605109.9, -59184.242, 0.0, 10.00058, 9.997851 
7.750046e+2, 2.542905e+2, -529717.94, -723968.9, -2404.716, -0.032004464, -0.06259644, -529688.1, -81741.25, 0.0, 10.000423, 9.997852 
7.7499145e+2, 2.6428854e+2, -432422.56, -598307.7, -1782.1873, -0.04701633, -0.051221043, -432403.4, -82435.984, 0.0, 10.0002985, 9.998102 
7.7497846e+2, 2.7428678e+2, -344795.28, -502542.9, -1553.9877, -0.05668061, -0.04071813, -344779.97, -92793.2, 0.0, 10.000216, 9.998127 
7.7496535e+2, 2.842853e+2, -219212.94, -318900.44, -1451.3213, -0.070173256, -0.027943274, -219191.81, -65190.133, 0.0, 10.000093, 9.998774 
7.7495223e+2, 2.9428425e+2, -142449.56, -224969.95, -1686.837, -0.08826035, -0.017276142, -142415.1, -86404.09, 0.0, 9.999921, 9.998828 
7.74939e+2, 3.042831e+2, -64285.04, -79640.5, -3908.9663, -0.10952238, -0.050507486, -63347.227, -63347.227, 0.0, 9.999767, 9.999565 
7.749257e+2, 3.1428283e+2, -78517.414, -80533.41, -9158.988, -0.13610478, -0.03321221, -70311.12, -70311.12, 0.0000000029769756, 9.999644, 9.999619 
7.8518134e+2, 1.2432473e+2, -1587178.0, -1690558.6, 33971.41, 0.0072949715, 0.15755604, -1577014.1, 144617.69, 0.0, 10.00104, 9.999664 
7.851666e+2, 1.3432373e+2, -1491319.5, -1629600.4, -32569.787, -0.06630686, 0.12262866, -1484032.3, 139606.94, 0.0, 10.001176, 9.999348 
7.851542e+2, 1.4432278e+2, -1400326.3, -1561462.1, -15485.931, 0.086819, 0.10455036, -1398851.5, 126795.016, 0.0, 10.001244, 9.999107 
7.8514016e+2, 1.5432169e+2, -1304169.9, -1466231.9, -11189.778, 0.028715996, 0.086670876, -1303400.9, 124254.52, 0.0, 10.00124, 9.999091 
7.8512627e+2, 1.643204e+2, -1215960.4, -1385781.8, -13501.337, 0.005123384, 0.05426227, -1214893.6, 114771.67, 0.0, 10.001227, 9.998977 
7.8511286e+2, 1.7431884e+2, -1121630.8, -1290255.5, -11750.481, 0.028050136, 0.0011330503, -1120815.8, 110860.61, 0.0, 10.0012045, 9.99897 
7.8509927e+2, 1.8431728e+2, -1055227.3, -1249767.3, -14851.855, 0.0387231, -0.03342707, -1054100.0, 79588.3, 0.0, 10.00117, 9.998592 
7.8508544e+2, 1.9431572e+2, -966753.94, -1159320.8, -16258.74, 0.0329873, -0.045129687, -965390.8, 70310.21, 0.0, 10.001117, 9.998567 
7.850719e+2, 2.0431393e+2, -908854.3, -1122431.6, -765.5175, 0.034415632, -0.062390998, -908851.56, 28865.06, 0.0, 10.001021, 9.998193 
7.8505874e+2, 2.1431182e+2, -834688.06, -1038606.9, 1377.8187, 0.045468222, -0.08889291, -834678.75, 5057.0977, 0.0, 10.000869, 9.998169 
7.850454e+2, 2.2430976e+2, -776171.9, -996205.8, 1793.148, 0.039775874, -0.09682694, -776157.25, -34401.5, 0.0, 10.000755, 9.997842 
7.8503186e+2, 2.3430772e+2, -688760.75, -905569.75, -1654.0979, 0.012054482, -0.081601776, -688748.1, -44971.6, 0.0, 10.000692, 9.997822 
7.8501844e+2, 2.4430571e+2, -604691.5, -815303.06, -250.15817, -0.012272425, -0.06495947, -604691.2, -58893.65, 0.0, 10.000602, 9.997812 
7.850051e+2, 2.543037e+2, -524907.75, -725587.56, 709.51154, -0.032013707, -0.04865529, -524905.25, -77086.41, 0.0, 10.000474, 9.997816 
7.8499174e+2, 2.6430175e+2, -425968.6, -593457.0, 5156.6753, -0.047680493, -0.03567885, -425809.97, -75970.66, 0.0, 10.000336, 9.998117 
7.8497857e+2, 2.7429998e+2, -348062.8, -502077.9, 6123.724, -0.058166318, -0.02754596, -347819.72, -95961.28, 0.0, 10.000185, 9.998144 
7.849654e+2, 2.8429848e+2, -227455.02, -323686.28, 4940.053, -0.07202623, -0.017901191, -227202.08, -73328.69, 0.0, 10.000041, 9.998766 
7.849521e+2, 2.942974e+2, -145233.56, -227491.05, 3708.0928, -0.08984043, -0.011152456, -145066.75, -89183.6, 0.0, 9.9999075, 9.998817 
7.8493875e+2, 3.042962e+2, -66906.98, -81450.5, 1682.7911, -0.1088148, -0.045425404, -66714.805, -66714.805, 0.0, 9.999753, 9.999559 
7.849254e+2, 3.1429595e+2, -89494.35, -86588.49, -1661.103, -0.13069613, -0.02830124, -85834.555, -85834.555, 0.0, 9.999573, 9.999611 
7.9518235e+2, 1.24337904e+2, -1591517.0, -1700819.6, 38195.367, 0.009098043, 0.1437442, -1579492.6, 142010.05, 0.0, 10.001045, 9.999592 
7.951678e+2, 1.343371e+2, -1497209.9, -1642940.3, -27870.162, -0.06355683, 0.13670169, -1492061.8, 131447.53, 0.0, 10.00118, 9.999255 
7.951555e+2, 1.4433622e+2, -1396967.8, -1555335.8, -15657.172, 0.09031896, 0.13054432, -1395434.6, 130081.414, 0.0, 10.001246, 9.999148 
7.9514134e+2, 1.5433508e+2, -1300173.0, -1458519.8, -11556.897, 0.032431155, 0.10238659, -1299333.9, 128190.89, 0.0, 10.001242, 9.999143 
7.951275e+2, 1.6433379e+2, -1212383.0, -1378705.0, -14520.858, 0.008714913, 0.06470918, -1211124.8, 118409.58, 0.0, 10.001228, 9.999025 
7.951141e+2, 1.7433229e+2, -1118158.9, -1283255.0, -12828.362, 0.03087707, 0.012987439, -1117168.0, 114376.555, 0.0, 10.001205, 9.999019 
7.951004e+2, 1.8433064e+2, -1057602.6, -1254848.0, -16981.502, 0.040609647, -0.030443726, -1056151.4, 77405.805, 0.0, 10.00117, 9.998558 
7.9508656e+2, 1.9432884e+2, -969386.5, -1165036.3, -18399.43, 0.033899378, -0.06446354, -967671.25, 67901.195, 0.0, 10.001118, 9.998527 
7.9507285e+2, 2.0432703e+2, -907483.2, -1119932.1, -6316.1807, 0.03090245, -0.08261979, -907295.56, 30292.705, 0.0, 10.001022, 9.99821 
7.9505944e+2, 2.143252e+2, -832913.5, -1035400.5, -4421.9307, 0.032863855, -0.08215275, -832816.94, 6787.843, 0.0, 10.000871, 9.998191 
7.9504603e+2, 2.2432321e+2, -781991.7, -1008763.44, -832.46497, 0.02746786, -0.07996216, -781988.6, -40364.27, 0.0, 10.000757, 9.997755 
7.9503256e+2, 2.3432097e+2, -695152.5, -919150.8, -3999.9302, 0.012348205, -0.076744765, -695081.06, -51433.36, 0.0, 10.000693, 9.997728 
7.950191e+2, 2.4431887e+2, -603307.6, -812664.4, -4834.848, -0.004609157, -0.062533185, -603196.06, -57526.348, 0.0, 10.000602, 9.99783 
7.950056e+2, 2.54317e+2, -522944.22, -721745.75, -4005.6748, -0.023788363, -0.03608146, -522863.53, -75173.72, 0.0, 10.000475, 9.997843 
7.949922e+2, 2.6431513e+2, -423978.25, -589542.9, -379.4131, -0.041250344, -0.019035336, -423977.38, -74267.875, 0.0, 10.000337, 9.998144 
7.949788e+2, 2.7431336e+2, -346113.16, -498216.5, 615.78986, -0.05663174, -0.014831036, -346110.7, -94382.25, 0.0, 10.000185, 9.998171 
7.949654e+2, 2.8431183e+2, -228783.25, -326559.7, 104.98212, -0.073101014, -0.0074317455, -228783.14, -75039.69, 0.0, 10.000041, 9.998746 
7.94952e+2, 2.943107e+2, -146906.78, -231037.86, -1011.569, -0.09049614, -0.00044240188, -146894.61, -91141.02, 0.0, 9.9999075, 9.998794 
7.9493856e+2, 3.0430952e+2, -65866.766, -79302.81, -4681.815, -0.10767915, -0.03756752, -64396.31, -64396.31, 0.0, 9.999752, 9.999575 
7.94925e+2, 3.1430915e+2, -88563.125, -84372.89, -7934.6284, -0.12623823, -0.030673593, -78261.43, -78261.43, 0.0, 9.999571, 9.999627 
8.0518353e+2, 1.24351114e+2, -1572748.1, -1701537.5, 36891.145, 0.011515977, 0.14134404, -1562929.5, 158443.86, 0.0, 10.001217, 9.999504 
8.0516905e+2, 1.343503e+2, -1485848.0, -1649258.5, -29748.816, -0.059841238, 0.14433515, -1480600.8, 142779.97, 0.0, 10.001309, 9.999148 
8.051569e+2, 1.4434943e+2, -1380438.4, -1538471.8, -22260.648, 0.09541639, 0.14024809, -1377362.6, 148024.86, 0.0, 10.001323, 9.999228 
8.051427e+2, 1.5434827e+2, -1293095.9, -1444664.9, -15550.104, 0.039383844, 0.10132386, -1291516.9, 135878.77, 0.0, 10.0012455, 9.999236 
8.051288e+2, 1.64347e+2, -1219117.8, -1380196.9, -18190.482, 0.01450393, 0.061104987, -1217089.1, 112315.46, 0.0, 10.001175, 9.999041 
8.051152e+2, 1.743456e+2, -1131083.6, -1288273.9, -19316.664, 0.03152074, 0.017336313, -1128744.6, 102669.54, 0.0, 10.001112, 9.999029 
8.051015e+2, 1.8434398e+2, -1069975.5, -1257499.1, -22459.697, 0.039473936, -0.026480023, -1067323.1, 66103.62, 0.0, 10.001071, 9.998588 
8.050876e+2, 1.9434208e+2, -976040.3, -1164736.5, -18791.422, 0.035351533, -0.07172504, -974187.2, 61255.492, 0.0, 10.001058, 9.998558 
8.050739e+2, 2.0434031e+2, -904599.7, -1116235.5, -6129.845, 0.031418234, -0.08928381, -904422.3, 33035.973, 0.0, 10.001033, 9.99823 
8.050603e+2, 2.1433868e+2, -813653.4, -1023890.5, -4693.9404, 0.027831877, -0.07292765, -813548.6, 25924.709, 0.0, 10.000994, 9.99821 
8.0504674e+2, 2.2433671e+2, -766579.75, -1006333.4, -1167.0907, 0.02105857, -0.064833075, -766574.06, -25081.297, 0.0, 10.000885, 9.99771 
8.050332e+2, 2.3433435e+2, -699817.9, -926845.4, -1270.6407, 0.010085778, -0.06869875, -699810.75, -56293.11, 0.0, 10.000686, 9.997679 
8.050197e+2, 2.4433224e+2, -611427.56, -811921.06, 891.4569, -0.0036964265, -0.05574342, -611423.6, -65883.58, 0.0, 10.000526, 9.997871 
8.05006e+2, 2.5433046e+2, -527313.9, -718464.7, 3226.1917, -0.021016095, -0.023093482, -527259.44, -79700.375, 0.0, 10.0004225, 9.99789 
8.049925e+2, 2.643287e+2, -425874.72, -583853.5, 7378.4595, -0.038296815, -0.004620179, -425530.84, -75952.945, 0.0, 10.000296, 9.998203 
8.0497897e+2, 2.7432686e+2, -348450.38, -492696.4, 10561.169, -0.055711124, -0.0051619685, -347681.22, -96084.875, 0.0, 10.000141, 9.99823 
8.049654e+2, 2.843254e+2, -240180.97, -336566.6, 10597.638, -0.07200485, 0.000113891336, -239029.52, -85418.06, 0.0, 9.999983, 9.998705 
8.049519e+2, 2.9432422e+2, -163054.14, -244238.44, 7458.429, -0.08632876, 0.00855744, -162374.63, -106752.19, 0.0, 9.99982, 9.998744 
8.049383e+2, 3.0432302e+2, -74542.67, -77358.84, 3463.2454, -0.1012359, -0.025882984, -72212.2, -72212.2, 0.0, 9.999666, 9.999629 
8.049246e+2, 3.1432274e+2, -91312.43, -78993.414, 3326.1929, -0.11887396, -0.017997917, -78152.7, -78152.7, 0.0, 9.999523, 9.999686 
8.1518483e+2, 1.2436436e+2, -1579210.5, -1716477.4, 39554.996, 0.014303137, 0.14929196, -1568628.1, 152615.36, 0.0, 10.001223, 9.999399 
8.151704e+2, 1.3436335e+2, -1494130.9, -1667006.1, -26369.352, -0.0552679, 0.14588979, -1490198.1, 133055.03, 0.0, 10.001311, 9.999026 
8.151582e+2, 1.443624e+2, -1372441.0, -1521941.1, -24839.674, 0.101972245, 0.13466302, -1368421.9, 156838.84, 0.0, 10.001322, 9.999342 
8.1514406e+2, 1.5436128e+2, -1283886.9, -1425873.5, -18515.797, 0.04935635, 0.08443569, -1281512.0, 145755.75, 0.0, 10.001246, 9.999365 
8.1513e+2, 1.6436006e+2, -1220129.8, -1382769.0, -20727.066, 0.022340642, 0.044195622, -1217529.8, 111745.984, 0.0, 10.001176, 9.9990225 
8.1511635e+2, 1.7435879e+2, -1132717.1, -1292172.8, -21803.71, 0.03003001, 0.014521817, -1129789.5, 101495.62, 0.0, 10.001113, 9.9990015 
8.151025e+2, 1.8435726e+2, -1063552.6, -1244577.1, -23196.088, 0.03539964, -0.021580381, -1060627.6, 72669.27, 0.0, 10.001072, 9.998675 
8.150887e+2, 1.9435546e+2, -969091.56, -1150543.0, -19425.32, 0.0372893, -0.06729115, -967035.25, 68276.46, 0.0, 10.001058, 9.998655 
8.15075e+2, 2.0435375e+2, -903178.56, -1113418.6, -7643.369, 0.03581832, -0.08280819, -902901.0, 34425.574, 0.0, 10.001033, 9.99825 
8.1506133e+2, 2.1435219e+2, -812557.25, -1021707.1, -6232.0557, 0.030177915, -0.06132943, -812371.75, 26969.664, 0.0, 10.000994, 9.998225 
8.150476e+2, 2.2435024e+2, -767048.3, -1007416.56, -8360.101, 0.020380054, -0.051398113, -766757.9, -25396.986, 0.0, 10.000885, 9.997704 
8.150338e+2, 2.3434786e+2, -700245.75, -927985.44, -8782.264, 0.005241555, -0.057460483, -699907.56, -56521.266, 0.0, 10.000686, 9.997671 
8.150201e+2, 2.4434578e+2, -606994.6, -803012.06, -3245.778, -0.009519052, -0.04462128, -606940.94, -61532.37, 0.0, 10.000527, 9.997932 
8.150065e+2, 2.5434408e+2, -522569.3, -708873.94, -628.4338, -0.023739591, -0.009709424, -522567.2, -75140.52, 0.0, 10.0004225, 9.997956 
8.149928e+2, 2.6434234e+2, -419590.66, -571034.6, 1777.3683, -0.038897946, 0.007560896, -419569.8, -70125.17, 0.0, 10.000296, 9.998291 
8.149791e+2, 2.743406e+2, -342117.06, -479766.78, 4933.95, -0.055479854, 0.0014608785, -341940.44, -90478.18, 0.0, 10.000141, 9.998319 
8.149654e+2, 2.843391e+2, -244695.92, -346110.88, 4742.0913, -0.068795465, 0.004738947, -244474.67, -90997.195, 0.0, 9.999983, 9.99864 
8.149518e+2, 2.943379e+2, -168445.2, -255491.25, 1663.8389, -0.0773477, 0.015873391, -168413.4, -112923.6, 0.0, 9.99982, 9.998668 
8.149381e+2, 3.043368e+2, -68202.85, -64149.56, -1559.2456, -0.0894835, -0.010205322, -63619.145, -63619.145, 0.0, 9.999666, 9.999721 
8.1492424e+2, 3.1433672e+2, -84387.12, -64441.12, -1459.8683, -0.10878021, 0.009881426, -64334.84, -64334.84, 0.0, 9.999522, 9.999787 
8.2518613e+2, 1.24377646e+2, -1544522.1, -1697924.0, 37151.79, 0.020938445, 0.16229299, -1535998.1, 185115.88, 0.0, 10.001453, 9.999414 
8.2517177e+2, 1.3437657e+2, -1495808.3, -1667146.3, -19289.508, -0.049075257, 0.14989781, -1493663.4, 129460.836, 0.0, 10.001297, 9.999032 
8.251595e+2, 1.4437559e+2, -1386021.3, -1521627.8, -15045.873, 0.10552479, 0.13315701, -1384371.9, 140759.73, 0.0, 10.0012, 9.999403 
8.251452e+2, 1.5437447e+2, -1288164.9, -1420792.1, -13340.572, 0.049308024, 0.07786451, -1286836.3, 140301.8, 0.0, 10.001186, 9.999429 
8.251312e+2, 1.6437328e+2, -1222374.6, -1384148.9, -17827.287, 0.021127535, 0.035585966, -1220433.4, 108712.61, 0.0, 10.001163, 9.99902 
8.251174e+2, 1.7437197e+2, -1131942.0, -1292566.4, -17531.959, 0.030611947, 0.007598024, -1130050.6, 101104.85, 0.0, 10.001122, 9.998995 
8.251036e+2, 1.8437055e+2, -1060870.9, -1236438.4, -19172.156, 0.035973497, -0.023355452, -1058801.6, 74365.09, 0.0, 10.001061, 9.998736 
8.250897e+2, 1.943689e+2, -976675.25, -1146746.5, -17776.984, 0.03556662, -0.059571188, -974837.0, 60343.11, 0.0, 10.000974, 9.998722 
8.2507586e+2, 2.0436727e+2, -924132.6, -1122329.6, -8182.402, 0.033752814, -0.07283323, -923795.4, 13399.149, 0.0, 10.000884, 9.9982605 
8.250622e+2, 2.1436563e+2, -841683.1, -1034865.0, -7549.5767, 0.030321237, -0.05841849, -841388.5, -2178.2268, 0.0, 10.000791, 9.998233 
8.250484e+2, 2.2436374e+2, -787749.44, -1007618.25, -9515.527, 0.02087288, -0.04853631, -787338.4, -46108.83, 0.0, 10.000701, 9.99779 
8.250345e+2, 2.3436154e+2, -703799.3, -919275.1, -2768.0425, 0.0036790627, -0.045633312, -703763.75, -60510.555, 0.0, 10.000617, 9.997765 
8.250206e+2, 2.4435954e+2, -605863.8, -797335.1, 6975.4136, -0.0108739985, -0.029997794, -605610.06, -60335.527, 0.0, 10.000514, 9.997978 
8.2500684e+2, 2.5435784e+2, -524839.94, -705161.6, 7745.407, -0.021986758, -0.0002709576, -524507.9, -77215.13, 0.0, 10.000387, 9.997999 
8.24993e+2, 2.6435614e+2, -425014.97, -565996.3, 6098.452, -0.035858627, 0.014006328, -424751.66, -75441.3, 0.0, 10.000226, 9.998359 
8.249792e+2, 2.7435446e+2, -354538.5, -477878.44, 7467.911, -0.053510886, 0.0077260816, -354088.0, -102760.95, 0.0, 10.000023, 9.998389 
8.2496536e+2, 2.84353e+2, -263464.34, -354993.88, 9937.448, -0.06680951, 0.011904487, -262397.84, -109056.05, 0.0, 9.999853, 9.998641 
8.249516e+2, 2.9435182e+2, -182078.88, -262461.84, 12266.872, -0.073880546, 0.02544829, -180248.55, -124894.22, 0.0, 9.999728, 9.998663 
8.249378e+2, 3.0435076e+2, -76517.555, -66097.266, 9334.187, -0.080994345, 0.004357811, -60617.57, -60617.57, 0.0, 9.9996, 9.999738 
8.249239e+2, 3.1435078e+2, -91392.67, -65817.87, 2980.6646, -0.09120047, 0.029493334, -65475.08, -65475.08, 0.0, 9.999466, 9.9998045 
8.3518773e+2, 1.2439099e+2, -1534984.5, -1679235.0, 31092.223, 0.030796101, 0.18003885, -1528568.1, 192416.34, 0.0, 10.001458, 9.999541 
8.3517313e+2, 1.343899e+2, -1486732.1, -1649221.3, -25147.758, -0.04143259, 0.15622602, -1482929.1, 140064.61, 0.0, 10.001301, 9.999153 
8.3516073e+2, 1.4438896e+2, -1385054.9, -1520304.3, -15984.225, 0.1061815, 0.13551679, -1383191.5, 141808.8, 0.0, 10.001202, 9.999411 
8.351463e+2, 1.5438785e+2, -1287912.5, -1420716.8, -13890.051, 0.039695814, 0.0810642, -1286475.3, 140531.36, 0.0, 10.001187, 9.999429 
8.351322e+2, 1.6438662e+2, -1221639.3, -1382847.9, -19385.445, 0.011287818, 0.034807246, -1219340.9, 109674.02, 0.0, 10.001163, 9.999028 
8.3511853e+2, 1.7438523e+2, -1131218.1, -1291162.6, -19104.158, 0.03316051, -0.0033048433, -1128968.0, 102057.39, 0.0, 10.0011215, 9.999004 
8.351047e+2, 1.8438384e+2, -1058631.3, -1231870.3, -22440.818, 0.040925164, -0.031512555, -1055771.5, 77264.73, 0.0, 10.001061, 9.998769 
8.3509064e+2, 1.9438243e+2, -974204.94, -1141861.6, -21131.846, 0.030248921, -0.048648927, -971582.44, 63465.24, 0.0, 10.000975, 9.998755 
8.350767e+2, 2.0438083e+2, -924077.7, -1122501.5, -11708.312, 0.025389008, -0.05952029, -923389.2, 13672.817, 0.0, 10.000885, 9.998259 
8.35063e+2, 2.1437901e+2, -841770.1, -1035295.94, -11082.158, 0.028279679, -0.06404069, -841137.56, -2057.6096, 0.0, 10.000791, 9.99823 
8.3504915e+2, 2.2437719e+2, -775266.8, -981901.5, -12689.488, 0.022474892, -0.056005746, -774490.44, -33391.695, 0.0, 10.000701, 9.997967 
8.350351e+2, 2.3437537e+2, -690436.5, -891770.2, -5918.4033, 0.0053309584, -0.0331974, -690262.7, -47144.293, 0.0, 10.000617, 9.997953 
8.3502114e+2, 2.4437355e+2, -603879.75, -793454.8, 2312.3247, -0.007843074, -0.011936011, -603851.56, -58713.62, 0.0, 10.000514, 9.998005 
8.350073e+2, 2.5437173e+2, -523638.8, -702940.7, 3041.588, -0.015829796, 0.00522008, -523587.22, -76429.86, 0.0, 10.000387, 9.998014 
8.3499336e+2, 2.6437e+2, -421674.28, -559318.9, -1296.9783, -0.029255383, 0.014737967, -421662.06, -72486.93, 0.0, 10.000227, 9.9984045 
8.3497924e+2, 2.7436844e+2, -351156.44, -471055.03, -12.198472, -0.049862675, 0.013658322, -351156.44, -99965.67, 0.0, 10.000023, 9.998436 
8.349652e+2, 2.8436705e+2, -258791.9, -345404.34, 5315.323, -0.066151075, 0.021632334, -258466.94, -105262.41, 0.0, 9.999853, 9.998707 
8.349513e+2, 2.9436594e+2, -177436.16, -252848.84, 7943.4683, -0.076123334, 0.03730582, -176608.53, -121392.42, 0.0, 9.999728, 9.99873 
8.3493745e+2, 3.0436492e+2, -80824.29, -75008.78, 4761.6396, -0.07587055, 0.017726816, -72337.266, -72337.266, 0.0, 9.999599, 9.999678 
8.3492357e+2, 3.1436485e+2, -96571.266, -76416.07, -1461.4779, -0.066099904, 0.039912406, -76310.65, -76310.65, 0.0, 9.999465, 9.999733 
8.4518945e+2, 1.24404475e+2, -1516301.3, -1669658.5, 48267.695, 0.048607606, 0.17989054, -1502374.3, 218478.27, 0.0, 10.001584, 9.999546 
8.4517455e+2, 1.3440338e+2, -1474024.8, -1643502.5, -16641.795, -0.034156617, 0.15574348, -1472406.1, 150455.34, 0.0, 10.00139, 9.999149 
8.451619e+2, 1.4440244e+2, -1383167.1, -1525095.5, -9988.475, 0.10584609, 0.13794662, -1382467.6, 142400.31, 0.0, 10.00124, 9.999359 
8.451475e+2, 1.5440129e+2, -1297174.6, -1431250.8, -11519.312, 0.039102748, 0.08579104, -1296192.1, 130682.99, 0.0, 10.001151, 9.999373 
8.451333e+2, 1.6440006e+2, -1231832.6, -1380366.1, -17767.932, 0.011665975, 0.038034946, -1229736.8, 99146.87, 0.0, 10.001061, 9.999094 
8.4511966e+2, 1.7439868e+2, -1148184.0, -1291037.1, -12962.534, 0.035931185, -0.006478325, -1147017.3, 83876.35, 0.0, 10.00097, 9.999079 
8.451057e+2, 1.8439735e+2, -1077113.1, -1234220.0, -12749.256, 0.043206878, -0.034842286, -1076085.3, 56818.59, 0.0, 10.000907, 9.998827 
8.4509146e+2, 1.9439608e+2, -984578.6, -1140304.6, -9731.127, 0.028434293, -0.044133678, -983972.9, 50941.125, 0.0, 10.000875, 9.998814 
8.4507746e+2, 2.0439452e+2, -934368.56, -1124621.8, -332.42938, 0.02152725, -0.054017972, -934368.0, 2560.0554, 0.0, 10.000802, 9.998283 
8.450637e+2, 2.1439265e+2, -856831.94, -1039841.5, 1956.8258, 0.024978401, -0.06639875, -856811.0, -17864.146, 0.0, 10.000676, 9.998254 
8.4504974e+2, 2.243909e+2, -787164.75, -975088.75, -163.5559, 0.021047626, -0.05722562, -787164.6, -46199.617, 0.0, 10.0005665, 9.998078 
8.450357e+2, 2.3438932e+2, -702655.44, -884337.0, 1227.5626, 0.0074369083, -0.021976542, -702647.1, -59664.84, 0.0, 10.000477, 9.998072 
8.450216e+2, 2.4438764e+2, -621954.75, -794934.7, 5998.585, -0.0037048722, 0.002874796, -621747.0, -76746.45, 0.0, 10.00036, 9.998069 
8.4500766e+2, 2.543858e+2, -545724.06, -706777.3, 9819.2705, -0.011577927, 0.012484626, -545127.6, -98107.63, 0.0, 10.000207, 9.998075 
8.4499353e+2, 2.6438406e+2, -439578.0, -564226.44, 6641.6563, -0.024728147, 0.015889574, -439225.13, -90187.33, 0.0, 10.000089, 9.998437 
8.449793e+2, 2.7438247e+2, -350649.3, -467383.47, 6430.597, -0.044848375, 0.010569627, -350296.13, -99242.695, 0.0, 10.000012, 9.998466 
8.4496516e+2, 2.8438115e+2, -247029.84, -330849.6, 11161.695, -0.06107119, 0.018622225, -245568.97, -92502.445, 0.0, 9.999897, 9.998786 
8.4495103e+2, 2.943802e+2, -171410.4, -240790.3, 14646.1455, -0.071547225, 0.03987524, -168445.31, -113368.75, 0.0, 9.999731, 9.998811 
8.449371e+2, 3.0437922e+2, -89113.37, -79809.61, 12807.188, -0.06929831, 0.02125808, -70835.625, -70835.625, 0.0, 9.999547, 9.999669 
8.449231e+2, 3.1437904e+2, -116687.414, -87861.06, 10594.237, -0.05453566, 0.03517411, -84386.32, -84386.32, 0.0, 9.999335, 9.999717 
8.5519123e+2, 1.2441812e+2, -1523028.3, -1685390.6, 40674.977, 0.07353289, 0.16303986, -1513408.3, 207309.8, 0.0, 10.001591, 9.999435 
8.55176e+2, 1.3441701e+2, -1482080.5, -1661375.1, -23713.572, -0.027329179, 0.14895721, -1478997.1, 143730.38, 0.0, 10.001394, 9.999025 
8.5516316e+2, 1.4441605e+2, -1390500.1, -1540995.5, -13350.982, 0.10454005, 0.14047344, -1389324.9, 135409.88, 0.0, 10.001243, 9.999249 
8.551487e+2, 1.5441483e+2, -1304612.8, -1447041.4, -14559.363, 0.047022477, 0.09198935, -1303139.6, 123603.72, 0.0, 10.001151, 9.999266 
8.551345e+2, 1.6441357e+2, -1223521.0, -1363359.9, -21026.316, 0.02168344, 0.045097627, -1220427.9, 108323.96, 0.0, 10.001061, 9.999211 
8.551206e+2, 1.7441233e+2, -1138778.1, -1271849.3, -16329.018, 0.038820975, -0.0022494262, -1136803.8, 93956.5, 0.0, 10.000971, 9.99921 
8.551066e+2, 1.8441106e+2, -1071224.5, -1222315.3, -14075.387, 0.042875923, -0.033578906, -1069924.4, 62844.902, 0.0, 10.000907, 9.998908 
8.550924e+2, 1.9440982e+2, -978921.3, -1128788.9, -10989.445, 0.029980406, -0.045854438, -978119.75, 56659.277, 0.0, 10.000875, 9.998893 
8.550782e+2, 2.0440835e+2, -930939.9, -1117705.9, -4954.835, 0.021979583, -0.056067694, -930808.5, 5984.1035, 0.0, 10.000803, 9.998331 
8.550643e+2, 2.1440654e+2, -853402.4, -1033019.06, -2858.869, 0.02039301, -0.06553178, -853356.9, -14546.002, 0.0, 10.000677, 9.998301 
8.550502e+2, 2.2440487e+2, -783887.9, -968551.8, -3660.4607, 0.016621538, -0.05233782, -783815.3, -42986.887, 0.0, 10.0005665, 9.998123 
8.5503614e+2, 2.344034e+2, -699326.94, -877711.5, -2125.5537, 0.00996283, -0.011988147, -699301.6, -56456.63, 0.0, 10.000478, 9.998117 
8.55022e+2, 2.444018e+2, -614829.56, -780423.25, 436.47708, 0.0014600464, 0.014463095, -614828.44, -69966.09, 0.0, 10.00036, 9.998168 
8.550079e+2, 2.5440004e+2, -538409.5, -691889.7, 4161.766, -0.009285668, 0.021520974, -538296.75, -91416.06, 0.0, 10.000208, 9.998177 
8.5499364e+2, 2.6439828e+2, -438321.7, -561906.44, 3725.237, -0.022305552, 0.017416436, -438209.5, -89311.14, 0.0, 10.000089, 9.998453 
8.549794e+2, 2.7439657e+2, -349843.2, -465991.78, 3775.295, -0.038494665, -0.0016638262, -349720.63, -98805.47, 0.0, 10.000012, 9.998475 
8.549651e+2, 2.8439528e+2, -240713.52, -317976.78, 5427.8335, -0.051598, 0.0026855716, -240334.06, -87406.125, 0.0, 9.999897, 9.998875 
8.5495085e+2, 2.9439446e+2, -164842.23, -227314.28, 8759.533, -0.06011931, 0.032943, -163637.25, -108701.4, 0.0, 9.999731, 9.998904 
8.5493666e+2, 3.043936e+2, -86156.91, -73663.945, 5468.9937, -0.06140477, 0.014643114, -71608.12, -71608.12, 0.0, 9.999546, 9.999712 
8.549224e+2, 3.143933e+2, -114271.98, -82568.945, 3299.8464, -0.057209086, 0.014538216, -82229.125, -82229.125, 0.0, 9.999333, 9.999754 
8.651931e+2, 1.2443216e+2, -1486980.9, -1677421.3, 52599.473, 0.08721944, 0.15636562, -1473418.8, 247160.98, 0.00000000000000000000885557, 10.00188, 9.999351 
8.651776e+2, 1.3443093e+2, -1465997.8, -1664131.1, -9279.937, -0.020129431, 0.13910776, -1465564.0, 157026.52, 0.0, 10.001551, 9.99893 
8.6516434e+2, 1.444299e+2, -1389874.4, -1549036.1, 7762.3, 0.1061512, 0.13416164, -1389496.8, 135101.81, 0.0, 10.001283, 9.999174 
8.6514986e+2, 1.5442868e+2, -1317893.0, -1461622.4, 9341.519, 0.050232045, 0.09202919, -1317288.4, 109319.45, 0.0, 10.001097, 9.999191 
8.651355e+2, 1.6442744e+2, -1235576.6, -1365663.1, 3362.768, 0.025308812, 0.04804641, -1235489.8, 93126.75, 0.0, 10.000964, 9.999242 
8.651216e+2, 1.744262e+2, -1146769.0, -1271344.8, 1353.5577, 0.041234925, -0.0007989889, -1146754.3, 83870.02, 0.0, 10.000898, 9.9992485 
8.651075e+2, 1.8442495e+2, -1080830.3, -1224169.0, -1106.3304, 0.04461773, -0.033657305, -1080821.8, 51811.37, 0.0, 10.00083, 9.998933 
8.650932e+2, 1.9442374e+2, -994319.1, -1133437.5, -2089.0684, 0.031782225, -0.047483146, -994287.75, 40355.215, 0.0, 10.000758, 9.998917 
8.6507905e+2, 2.0442232e+2, -946303.6, -1119494.6, -462.8451, 0.023286216, -0.053871594, -946302.44, -9646.399, 0.0, 10.000673, 9.998381 
8.6506486e+2, 2.1442069e+2, -865168.9, -1032778.9, 1737.6913, 0.020414785, -0.052872375, -865150.9, -26477.846, 0.0, 10.000571, 9.998353 
8.650508e+2, 2.2441909e+2, -794545.9, -967600.1, 1890.507, 0.01724112, -0.038286574, -794525.25, -53835.234, 0.0, 10.000468, 9.998177 
8.6503655e+2, 2.3441756e+2, -712331.3, -877794.25, 3972.9382, 0.013695137, -0.007946413, -712235.94, -69529.1, 0.0, 10.000362, 9.998172 
8.6502236e+2, 2.4441598e+2, -623939.44, -771880.56, 5623.9116, 0.005275609, 0.013396044, -623726.0, -79002.32, 0.0, 10.000242, 9.998283 
8.65008e+2, 2.5441435e+2, -544891.4, -681669.06, 10336.183, -0.009238003, 0.021478023, -544114.7, -97374.266, 0.0, 10.000107, 9.998295 
8.649937e+2, 2.644127e+2, -448721.66, -561245.25, 13922.281, -0.021852907, 0.016878238, -447024.7, -98267.62, 0.0, 9.999994, 9.998503 
8.649794e+2, 2.74411e+2, -361547.16, -466479.47, 16570.252, -0.032433216, -0.004604511, -358992.66, -108219.11, 0.0, 9.999911, 9.998521 
8.64965e+2, 2.8440967e+2, -256786.97, -323763.75, 13321.193, -0.042857252, -0.0039755558, -254234.73, -101448.414, 0.0, 9.999779, 9.998891 
8.649506e+2, 2.9440886e+2, -185159.95, -235369.52, 10296.688, -0.052426975, 0.020987563, -183130.4, -128335.9, 0.0, 9.999584, 9.998919 
8.6493623e+2, 3.0440798e+2, -97522.875, -76511.836, 4802.493, -0.05502757, 0.0042680157, -75466.17, -75466.17, 0.0, 9.999457, 9.999735 
8.649218e+2, 3.144078e+2, -101580.52, -73946.28, 1312.236, -0.052510362, 0.011772656, -73884.11, -73884.11, 0.0, 9.99941, 9.999776 
8.75195e+2, 1.244466e+2, -1491422.4, -1686902.5, 39691.145, 0.09022964, 0.1589849, -1483670.8, 236766.88, 0.0000000055054987, 10.00188, 9.999286 
8.751791e+2, 1.3444515e+2, -1470861.1, -1674437.9, -21671.777, -0.012579746, 0.12636882, -1468579.6, 153870.89, 0.0, 10.001551, 9.998859 
8.751657e+2, 1.4444405e+2, -1392891.6, -1555690.4, 488.7096, 0.11044353, 0.119620286, -1392890.1, 131569.3, 0.0, 10.001284, 9.999128 
8.7515086e+2, 1.5444286e+2, -1320573.6, -1467967.6, 2429.9763, 0.048898757, 0.08633525, -1320533.6, 105934.97, 0.0, 10.001099, 9.999147 
8.7513644e+2, 1.6444162e+2, -1238830.3, -1373299.9, 671.74414, 0.02280866, 0.047138065, -1238826.9, 89650.56, 0.0, 10.000967, 9.999188 
8.751225e+2, 1.7444032e+2, -1150184.4, -1279127.6, -1126.0339, 0.04317861, -0.002004892, -1150174.6, 80311.33, 0.0, 10.0009, 9.999194 
8.7510836e+2, 1.8443903e+2, -1082849.8, -1228900.5, -3819.104, 0.04830812, -0.035023816, -1082749.9, 49745.36, 0.0, 10.000832, 9.998899 
8.75094e+2, 1.9443777e+2, -996296.3, -1138006.6, -4820.9688, 0.033781864, -0.048997667, -996132.5, 38373.188, 0.0, 10.00076, 9.998885 
8.750797e+2, 2.0443645e+2, -942627.2, -1112290.8, -4279.583, 0.025384901, -0.04753136, -942519.3, -6001.133, 0.0, 10.000675, 9.99843 
8.750655e+2, 2.1443504e+2, -861102.06, -1024778.56, -2133.7449, 0.024885371, -0.028736515, -861074.25, -22541.033, 0.0, 10.000572, 9.998407 
8.7505126e+2, 2.2443348e+2, -790157.4, -958838.2, -2046.8835, 0.022731638, -0.015364499, -790132.56, -49582.81, 0.0, 10.000469, 9.998237 
8.75037e+2, 2.3443177e+2, -707917.2, -868979.75, 26.49937, 0.01856781, -0.009845843, -707917.1, -65349.188, 0.0, 10.000363, 9.998232 
8.750226e+2, 2.4443017e+2, -614797.94, -753233.06, 619.4681, 0.007716414, -0.00021497202, -614795.2, -70210.59, 0.0, 10.000243, 9.998411 
8.7500805e+2, 2.544287e+2, -535465.0, -662423.94, 5306.0996, -0.011478917, 0.012381138, -535243.6, -88644.39, 0.0, 10.000107, 9.998427 
8.749937e+2, 2.6442724e+2, -442907.6, -549451.8, 10828.285, -0.023426544, 0.014298549, -441818.22, -93204.26, 0.0, 9.999994, 9.998584 
8.749793e+2, 2.744257e+2, -356014.03, -455211.2, 13699.044, -0.026707102, 0.0018461326, -354156.97, -103528.22, 0.0, 9.999911, 9.998598 
8.7496483e+2, 2.8442436e+2, -260929.02, -332449.1, 6529.534, -0.03491728, -0.0013284433, -260337.78, -107696.0, 0.0, 9.999779, 9.998832 
8.749502e+2, 2.9442328e+2, -190032.53, -245419.86, 3325.245, -0.048575986, 0.0038566538, -189833.63, -135180.92, 0.0, 9.999583, 9.99885 
8.7493575e+2, 3.044224e+2, -97631.3, -76736.77, 3237.5894, -0.05020587, -0.009839829, -76246.61, -76246.61, 0.0, 9.999456, 9.999734 
8.749213e+2, 3.1442252e+2, -101335.234, -73666.97, 159.16206, -0.04045793, 0.02661605, -73666.05, -73666.05, 0.0, 9.999411, 9.999778 
8.8519686e+2, 1.24461204e+2, -1496769.3, -1691083.1, 35599.35, 0.0887459, 0.1664862, -1490452.6, 229842.03, 0.00000006865042, 10.001851, 9.99927 
8.851807e+2, 1.3445964e+2, -1479864.6, -1680588.3, -21508.217, -0.007730211, 0.124884576, -1477585.9, 144722.77, 0.0, 10.001498, 9.998842 
8.85167e+2, 1.4445853e+2, -1397098.5, -1559303.9, 11039.1045, 0.11362038, 0.11793668, -1396350.6, 127967.016, 0.0, 10.001263, 9.999113 
8.8515204e+2, 1.5445736e+2, -1310353.5, -1464691.6, 15439.742, 0.048925374, 0.089342386, -1308824.1, 117502.34, 0.0, 10.001177, 9.999131 
8.8513744e+2, 1.6445611e+2, -1227709.5, -1374690.3, 15771.97, 0.022627322, 0.053143784, -1226036.1, 102299.375, 0.0, 10.001074, 9.999126 
8.8512343e+2, 1.7445476e+2, -1148059.8, -1285142.8, 13232.197, 0.046395395, 0.0047981916, -1146794.1, 83550.55, 0.0, 10.000946, 9.99913 
8.851092e+2, 1.8445341e+2, -1083902.9, -1231743.6, 11038.475, 0.053490575, -0.030559555, -1083083.3, 49271.598, 0.0, 10.000835, 9.998878 
8.8509476e+2, 1.9445208e+2, -1000010.7, -1141755.6, 10869.12, 0.039169714, -0.0508557, -999182.06, 35183.95, 0.0, 10.000744, 9.998867 
8.850804e+2, 2.0445076e+2, -944202.6, -1109145.5, 10584.208, 0.02852803, -0.04818241, -943526.2, -7147.7827, 0.0, 10.000648, 9.998465 
8.8506603e+2, 2.144495e+2, -862294.6, -1020920.9, 11312.973, 0.022827331, -0.018988743, -861491.9, -23099.637, 0.0, 10.000546, 9.998446 
8.8505167e+2, 2.24448e+2, -791618.1, -951896.0, 10171.393, 0.02005734, -0.0049734726, -790975.2, -50567.113, 0.0, 10.000426, 9.998304 
8.850373e+2, 2.3444624e+2, -714310.8, -864206.1, 12725.641, 0.020833014, -0.010856101, -713238.1, -70811.75, 0.0, 10.000286, 9.9983015 
8.850228e+2, 2.4444464e+2, -622141.6, -750861.6, 11244.984, 0.013109197, -0.0070919152, -621166.6, -76723.94, 0.0, 10.000168, 9.998464 
8.850082e+2, 2.5444326e+2, -536066.8, -656913.4, 9755.1045, -0.00516849, 0.006513435, -535284.4, -88827.766, 0.0, 10.000079, 9.998478 
8.8499373e+2, 2.6444185e+2, -443654.13, -546265.4, 10475.415, -0.017621994, 0.011669006, -442595.63, -94125.02, 0.0, 9.999974, 9.998615 
8.8497925e+2, 2.744404e+2, -362608.7, -455009.4, 9547.219, -0.02311993, 0.005208466, -361632.56, -111148.03, 0.0, 9.999852, 9.998628 
8.8496464e+2, 2.8443906e+2, -268164.22, -340817.06, -360.97382, -0.032624602, 0.0025296274, -268162.4, -115664.83, 0.0, 9.999751, 9.998787 
8.849498e+2, 2.9443783e+2, -180362.86, -246175.3, -2412.7637, -0.04645126, 0.0014001162, -180274.52, -125764.87, 0.0, 9.999674, 9.998801 
8.849353e+2, 3.0443692e+2, -81221.47, -76466.58, -1430.5416, -0.046825618, -0.011600112, -76069.375, -76069.375, 0.0, 9.999603, 9.999665 
8.8492084e+2, 3.1443703e+2, -88087.44, -75141.33, -10083.127, -0.03389028, 0.03200355, -69632.31, -69632.31, 0.0, 9.999536, 9.999706 
8.9519864e+2, 1.24475986e+2, -1495556.4, -1687528.5, 21794.787, 0.082725644, 0.17854758, -1493113.0, 227037.64, 0.00000033535434, 10.001845, 9.999297 
8.951822e+2, 1.3447441e+2, -1477700.8, -1676350.0, -34729.7, -0.005467669, 0.13394324, -1471804.0, 150360.66, 0.00000000007521531, 10.001498, 9.998872 
8.9516824e+2, 1.4447334e+2, -1395947.4, -1557752.3, 7415.444, 0.11567125, 0.12832618, -1395608.3, 128564.984, 0.0, 10.001266, 9.999124 
8.951532e+2, 1.544722e+2, -1309394.5, -1463340.3, 12305.403, 0.05018116, 0.10053117, -1308417.1, 117764.42, 0.0, 10.001179, 9.99914 
8.9513856e+2, 1.6447093e+2, -1232514.8, -1385189.4, 11065.118, 0.02461319, 0.06570436, -1231717.0, 96473.555, 0.0, 10.001076, 9.999054 
8.951244e+2, 1.7446953e+2, -1153163.1, -1296252.4, 8365.683, 0.05077859, 0.019264217, -1152675.6, 77525.125, 0.0, 10.000948, 9.999054 
8.9511013e+2, 1.8446808e+2, -1084565.6, -1233658.8, 7465.8257, 0.06004254, -0.02054497, -1084192.8, 48019.18, 0.0, 10.000837, 9.998864 
8.950956e+2, 1.944666e+2, -1000337.25, -1143041.3, 7366.257, 0.047781676, -0.053096376, -999958.06, 34265.957, 0.0, 10.000746, 9.9988575 
8.9508104e+2, 2.0446524e+2, -942607.8, -1106470.5, 6728.572, 0.03261078, -0.05565572, -942332.0, -6095.312, 0.0, 10.000649, 9.998482 
8.9506644e+2, 2.1446404e+2, -860541.75, -1017916.7, 7472.0356, 0.014331042, -0.023288684, -860187.75, -21937.748, 0.0, 10.000548, 9.9984665 
8.95052e+2, 2.2446261e+2, -786167.8, -941143.75, 4936.7173, 0.009350844, -0.0068004853, -786010.75, -45745.676, 0.0, 10.000428, 9.998378 
8.950376e+2, 2.3446093e+2, -708701.9, -853098.1, 7467.705, 0.020513922, -0.010949674, -708316.75, -66034.64, 0.0, 10.000287, 9.998378 
8.9502305e+2, 2.4445936e+2, -623705.5, -754578.25, 7812.5435, 0.021398993, -0.0073197503, -623240.75, -78942.72, 0.0, 10.00017, 9.998438 
8.9500844e+2, 2.5445792e+2, -538094.8, -661501.6, 6504.093, 0.009635191, 0.0038353615, -537752.94, -91440.29, 0.0, 10.00008, 9.998446 
8.949938e+2, 2.6445648e+2, -445099.3, -549555.56, 6044.262, -0.004500875, 0.00895446, -444750.72, -96423.695, 0.0, 9.999975, 9.998592 
8.9497906e+2, 2.7445504e+2, -364059.03, -458208.1, 5108.1704, -0.021766527, 0.0054639615, -363782.7, -113441.7, 0.0, 9.999852, 9.998606 
8.9496434e+2, 2.8445375e+2, -270401.6, -345612.6, -3059.0264, -0.036095228, 0.0077082114, -270277.38, -117923.52, 0.0, 9.999751, 9.9987545 
8.949495e+2, 2.9445255e+2, -182596.58, -251038.23, -4987.8745, -0.046137292, 0.013965504, -182234.98, -127869.484, 0.0, 9.999675, 9.998768 
8.949349e+2, 3.0445153e+2, -91025.72, -97185.836, -3546.8716, -0.045008197, -0.0007868997, -89408.22, -89408.22, 0.0, 9.999604, 9.999523 
8.949204e+2, 3.1445137e+2, -98477.66, -97029.31, -12178.478, -0.03322403, 0.027504548, -85553.5, -85553.5, 0.0, 9.9995365, 9.999557 
9.0520036e+2, 1.24491006e+2, -1543332.9, -1709681.8, 33505.375, 0.08804692, 0.18782645, -1536838.0, 183166.28, 0.0000010631732, 10.001514, 9.999305 
9.0518373e+2, 1.3448943e+2, -1482495.3, -1677425.3, -23550.117, -0.0015386806, 0.14156036, -1479690.4, 142328.06, 0.000000007369457, 10.001461, 9.998882 
9.051696e+2, 1.4448836e+2, -1381801.4, -1550206.6, 20535.586, 0.1168001, 0.13567756, -1379333.5, 144693.36, 0.0, 10.001361, 9.999128 
9.0515447e+2, 1.5448718e+2, -1305415.3, -1460812.5, 25148.633, 0.0572364, 0.1036869, -1301446.6, 124588.27, 0.0, 10.0012045, 9.999145 
9.051396e+2, 1.6448587e+2, -1239981.8, -1398102.5, 23184.13, 0.031156333, 0.06793419, -1236652.6, 91391.87, 0.0, 10.001065, 9.99897 
9.051253e+2, 1.7448439e+2, -1159805.3, -1309307.3, 19469.752, 0.04887825, 0.024458734, -1157311.3, 72744.38, 0.0, 10.000945, 9.998964 
9.051109e+2, 1.8448293e+2, -1081010.8, -1230747.3, 20660.738, 0.055523254, -0.012760985, -1078212.3, 53854.9, 0.0, 10.000857, 9.998874 
9.0509635e+2, 1.9448149e+2, -990699.8, -1136570.4, 22325.736, 0.047789324, -0.043250278, -987359.3, 46719.5, 0.0, 10.000805, 9.998873 
9.050818e+2, 2.0448011e+2, -929852.06, -1098342.5, 21367.102, 0.035073068, -0.048505355, -927184.6, 8906.759, 0.0, 10.00073, 9.998499 
9.050671e+2, 2.1447884e+2, -847892.7, -1009714.75, 21749.865, 0.0167075, -0.02473194, -845020.3, -6915.293, 0.0, 10.000627, 9.998485 
9.050524e+2, 2.2447741e+2, -773671.7, -935398.3, 15219.063, 0.009674347, -0.009658545, -772252.0, -32131.94, 0.0, 10.000516, 9.998375 
9.050379e+2, 2.3447582e+2, -693181.94, -845955.94, 11641.71, 0.016419025, -0.0064823255, -692299.94, -50163.332, 0.0, 10.000396, 9.998374 
9.050233e+2, 2.4447425e+2, -610221.4, -749033.1, 9822.145, 0.01854142, -0.001765371, -609529.8, -65377.313, 0.0, 10.000267, 9.998428 
9.050086e+2, 2.544727e+2, -532173.94, -659636.5, 10098.067, 0.014923923, 0.0028910234, -531378.94, -85211.35, 0.0, 10.000125, 9.998437 
9.0499383e+2, 2.6447123e+2, -439173.72, -549327.75, 11477.315, 0.0023380686, 0.0040654778, -437990.56, -89808.26, 0.0, 10.000028, 9.998569 
9.04979e+2, 2.7446976e+2, -346684.4, -452535.1, 10189.137, -0.021471798, -0.00018597791, -345712.53, -95515.96, 0.0, 9.999984, 9.998581 
9.0496415e+2, 2.844684e+2, -255331.73, -347115.97, -958.631, -0.035252478, 0.004513627, -255321.72, -103111.93, 0.0, 9.999892, 9.998675 
9.0494937e+2, 2.944672e+2, -178396.08, -258103.7, -6807.395, -0.036075402, 0.017135201, -177818.88, -123597.02, 0.0, 9.999743, 9.998686 
9.0493464e+2, 3.0446613e+2, -88310.1, -102245.78, -1951.1539, -0.034585033, 0.0016619416, -88042.08, -88042.08, 0.0, 9.999651, 9.999465 
9.0492e+2, 3.1446576e+2, -89279.96, -99004.125, -3578.156, -0.03316253, 0.018737473, -88105.24, -88105.24, 0.0, 9.999628, 9.999498 
9.15202e+2, 1.2450628e+2, -1544496.0, -1712088.0, 30392.934, 0.10342146, 0.19459864, -1539154.5, 180700.78, 0.0000026057617, 10.0015135, 9.9992895 
9.151852e+2, 1.3450469e+2, -1483090.0, -1678991.1, -25467.541, 0.0037993628, 0.14781459, -1479833.3, 142036.55, 0.00000007607973, 10.001462, 9.998871 
9.1517097e+2, 1.4450358e+2, -1381627.0, -1550447.5, 15018.303, 0.11703536, 0.14016251, -1380301.4, 143576.84, 0.0, 10.001363, 9.999126 
9.1515577e+2, 1.5450232e+2, -1305110.5, -1461064.8, 19269.898, 0.06973926, 0.09927472, -1302764.8, 123121.945, 0.0, 10.001208, 9.999142 
9.151408e+2, 1.6450094e+2, -1246361.9, -1412422.4, 18545.35, 0.04192063, 0.060396176, -1244315.9, 83581.02, 0.0, 10.001069, 9.99887 
9.1512614e+2, 1.7449939e+2, -1166467.4, -1324270.9, 14944.298, 0.040890068, 0.020821419, -1165064.6, 64844.773, 0.0, 10.00095, 9.99886 
9.151116e+2, 1.8449797e+2, -1078395.6, -1226369.1, 18551.139, 0.04037195, -0.0070668957, -1076105.4, 55815.23, 0.0, 10.000861, 9.998902 
9.1509706e+2, 1.9449674e+2, -987747.06, -1131264.5, 20218.908, 0.039500397, -0.021707831, -984953.0, 48977.414, 0.0, 10.000808, 9.998908 
9.150825e+2, 2.0449539e+2, -928576.0, -1096307.8, 17417.338, 0.035986014, -0.027245745, -926786.44, 9156.076, 0.0, 10.000731, 9.998512 
9.150678e+2, 2.1449392e+2, -846762.25, -1007841.2, 17756.26, 0.02968418, -0.023469128, -844828.2, -6870.786, 0.0, 10.0006275, 9.998497 
9.150531e+2, 2.244924e+2, -779072.3, -947075.06, 10710.397, 0.020685697, -0.013538584, -778392.25, -38419.125, 0.0, 10.000517, 9.998295 
9.150382e+2, 2.3449084e+2, -698845.3, -858274.1, 7151.173, 0.008495824, 0.002479409, -698525.25, -56535.34, 0.0, 10.000398, 9.998289 
9.150234e+2, 2.4448925e+2, -609554.6, -748156.9, 4604.7495, 0.0046033696, 0.009479726, -609401.8, -65395.754, 0.0, 10.000268, 9.998434 
9.1500866e+2, 2.5448763e+2, -531246.8, -658117.94, 4862.6567, 0.010708163, 0.003643399, -531060.75, -85039.34, 0.0, 10.000126, 9.998447 
9.149938e+2, 2.6448604e+2, -440993.56, -553448.9, 9790.657, 0.0028641203, -0.0030278931, -440147.53, -92110.98, 0.0, 10.000029, 9.99854 
9.149789e+2, 2.7448452e+2, -348679.6, -457013.13, 8739.779, -0.022295479, -0.011847095, -347979.03, -97927.67, 0.0, 9.999985, 9.99855 
9.1496414e+2, 2.844831e+2, -264261.3, -365915.5, -6172.7285, -0.030120522, -0.0072155716, -263887.88, -111822.35, 0.0, 9.999893, 9.998547 
9.149493e+2, 2.9448184e+2, -187797.45, -277727.47, -12181.243, -0.01611043, 0.0107646985, -186176.69, -132097.8, 0.0, 9.9997425, 9.998551 
9.1493446e+2, 3.0448067e+2, -86355.0, -98329.51, -2648.5007, -0.015429964, -0.00438213, -85795.36, -85795.36, 0.0, 9.999651, 9.999493 
9.1491956e+2, 3.1448027e+2, -86737.99, -93917.414, -3848.6245, -0.03396994, 0.0050207106, -85064.82, -85064.82, 0.0, 9.999628, 9.999534 
9.252036e+2, 1.245217e+2, -1562495.0, -1719908.5, 44447.996, 0.11686892, 0.19698179, -1550811.6, 168892.95, 0.000005355975, 10.001388, 9.999296 
9.251867e+2, 1.3452019e+2, -1488981.6, -1680129.1, -8446.181, 0.008400913, 0.15640655, -1488609.1, 133109.39, 0.00000033393198, 10.001415, 9.998885 
9.2517227e+2, 1.4451909e+2, -1380345.3, -1555490.8, 27647.49, 0.11196118, 0.15104948, -1376084.6, 147642.3, 0.0, 10.001397, 9.999075 
9.25157e+2, 1.5451768e+2, -1291839.4, -1460650.1, 27820.809, 0.06622344, 0.102071255, -1287372.6, 138364.0, 0.0, 10.001326, 9.999087 
9.25142e+2, 1.6451623e+2, -1222372.5, -1404180.0, 27833.871, 0.039135136, 0.059431005, -1218206.8, 109540.83, 0.0, 10.001249, 9.998839 
9.251272e+2, 1.7451467e+2, -1137393.6, -1313401.3, 29591.656, 0.037828393, 0.021352842, -1132551.6, 97208.414, 0.0, 10.0011635, 9.998831 
9.251125e+2, 1.8451326e+2, -1053987.6, -1222456.1, 33081.234, 0.03714893, -0.00041371162, -1047724.5, 84046.96, 0.0, 10.001063, 9.998832 
9.250979e+2, 1.9451207e+2, -973075.4, -1132245.8, 26646.896, 0.036243826, -0.0034499504, -968732.9, 65048.477, 0.0, 10.000944, 9.998836 
9.250833e+2, 2.0451067e+2, -917171.0, -1088399.8, 17928.086, 0.034829002, -0.009525274, -915314.0, 20479.734, 0.0, 10.0008, 9.998533 
9.250685e+2, 2.1450908e+2, -845200.8, -1004061.56, 18941.32, 0.033266045, -0.02103408, -842973.6, -5164.4995, 0.0, 10.000627, 9.998523 
9.2505366e+2, 2.2450753e+2, -781765.1, -953373.06, 15954.353, 0.0248305, -0.015839005, -780294.5, -40469.313, 0.0, 10.000521, 9.998249 
9.2503864e+2, 2.34506e+2, -687706.4, -858252.25, 15062.668, 0.008085587, 0.008192298, -686386.25, -44544.32, 0.0, 10.000498, 9.99824 
9.250237e+2, 2.445044e+2, -584093.9, -732979.4, 12368.732, 0.0018919004, 0.016474716, -583073.4, -39215.254, 0.0, 10.000431, 9.99846 
9.2500883e+2, 2.5450274e+2, -502533.47, -640977.8, 13781.651, 0.008463521, 0.0037954848, -501174.88, -55301.492, 0.0, 10.00031, 9.998477 
9.2499393e+2, 2.645011e+2, -423185.94, -551502.1, 19629.428, 0.0034692043, -0.0066201105, -420250.25, -72361.42, 0.0, 10.00018, 9.99848 
9.2497903e+2, 2.744995e+2, -345110.72, -462463.16, 15941.988, -0.01597129, -0.015442322, -342983.6, -93079.195, 0.0, 10.00004, 9.998486 
9.2496413e+2, 2.84498e+2, -263794.38, -374993.88, 683.05286, -0.020866089, -0.009835126, -263790.2, -111870.81, 0.0, 9.999937, 9.998464 
9.2494917e+2, 2.944967e+2, -174438.14, -280697.16, -1780.4968, -0.0072901295, 0.010357278, -174408.31, -120474.63, 0.0, 9.999875, 9.998467 
9.249342e+2, 3.0449554e+2, -68981.164, -92432.984, 8807.971, -0.0100112995, 0.00024564817, -66041.56, -66041.56, 0.0, 9.999782, 9.99947 
9.249192e+2, 3.1449518e+2, -84830.6, -95115.164, 3299.0151, -0.035439897, 0.016218651, -83863.336, -83863.336, 0.0, 9.999651, 9.999515 
9.352051e+2, 1.2453732e+2, -1560495.1, -1716255.1, 43864.195, 0.12808745, 0.19522437, -1548991.9, 170560.11, 0.000009813605, 10.001389, 9.999321 
9.351881e+2, 1.3453595e+2, -1486461.1, -1675274.5, -7671.07, 0.012279266, 0.16717875, -1486150.0, 135414.45, 0.0000009955157, 10.001416, 9.998919 
9.351735e+2, 1.445349e+2, -1387286.3, -1570258.5, 24956.803, 0.10180304, 0.16791214, -1383943.3, 139629.4, 0.00000000002439963, 10.001398, 9.998974 
9.3515813e+2, 1.5453331e+2, -1299045.6, -1476182.3, 24963.02, 0.047478948, 0.11163911, -1295594.9, 129989.58, 0.0, 10.0013275, 9.9989805 
9.35143e+2, 1.6453175e+2, -1219755.6, -1399384.0, 24487.555, 0.023533784, 0.0646529, -1216477.1, 111119.01, 0.0, 10.001251, 9.998872 
9.3512833e+2, 1.7453022e+2, -1134346.8, -1307574.3, 26165.133, 0.039524306, 0.025822574, -1130480.9, 99126.93, 0.0, 10.001165, 9.998871 
9.3511367e+2, 1.845288e+2, -1065781.1, -1247426.4, 28465.127, 0.045282025, 0.0071345908, -1061425.0, 70194.69, 0.0, 10.001064, 9.99866 
9.350989e+2, 1.9452749e+2, -985409.25, -1158497.4, 22017.156, 0.037757497, 0.011605995, -982652.5, 50979.04, 0.0, 10.000946, 9.998654 
9.35084e+2, 2.0452602e+2, -914931.9, -1084553.3, 11389.882, 0.031605814, 0.004767061, -914170.5, 21474.508, 0.0, 10.000803, 9.998559 
9.35069e+2, 2.1452436e+2, -842084.44, -998576.6, 12289.071, 0.027632488, -0.01743782, -841125.25, -3465.0571, 0.0, 10.000629, 9.99856 
9.3505406e+2, 2.2452275e+2, -782202.8, -955207.4, 14804.366, 0.022271251, -0.01660167, -780945.1, -41268.973, 0.0, 10.0005245, 9.998236 
9.3503916e+2, 2.3452124e+2, -688407.3, -860349.94, 14254.041, 0.015110044, 0.010669295, -687233.6, -45540.813, 0.0, 10.0005, 9.998225 
9.3502414e+2, 2.4451967e+2, -580855.1, -726738.6, 8032.6577, 0.010206718, 0.019231036, -580414.2, -36705.45, 0.0, 10.000432, 9.998502 
9.350092e+2, 2.5451803e+2, -499142.84, -634363.94, 9312.148, 0.008067621, 0.0033429256, -498504.56, -52780.957, 0.0, 10.000311, 9.998522 
9.3499416e+2, 2.6451638e+2, -429615.88, -565179.1, 14529.819, 0.004098254, -0.0067053526, -428076.06, -80336.81, 0.0, 10.00018, 9.998386 
9.349792e+2, 2.745147e+2, -352024.56, -477102.38, 10887.858, -0.0024506142, -0.010892677, -351083.84, -101328.14, 0.0, 10.000041, 9.998385 
9.349642e+2, 2.8451318e+2, -266517.72, -380883.38, -1495.2246, -0.0075501497, -0.0032397131, -266498.2, -114726.734, 0.0, 9.999937, 9.998423 
9.34949e+2, 2.9451182e+2, -176865.05, -285993.53, -3738.8523, -0.010060927, 0.015960578, -176737.1, -122950.75, 0.0, 9.999876, 9.998431 
9.349339e+2, 3.0451068e+2, -74387.055, -103870.77, 4380.086, -0.01880127, 0.015820278, -73750.11, -73750.11, 0.0, 9.999782, 9.999392 
9.349188e+2, 3.1451046e+2, -90600.01, -106951.195, -1104.8678, -0.03767169, 0.053019583, -90525.69, -90525.69, 0.0, 9.999649, 9.999434 
9.4520646e+2, 1.2455295e+2, -1565857.3, -1715564.8, 39282.418, 0.13213405, 0.20385073, -1556175.9, 163223.89, 0.000016619406, 10.001338, 9.99935 
9.4518954e+2, 1.3455164e+2, -1489923.3, -1672392.0, -10546.084, 0.014404757, 0.17851387, -1489315.8, 132095.5, 0.0000023427797, 10.001373, 9.998959 
9.451749e+2, 1.4455059e+2, -1394067.1, -1579904.5, 20933.855, 0.09586033, 0.18118037, -1391738.3, 131681.27, 0.0000000053592455, 10.001379, 9.998916 
9.451594e+2, 1.5454891e+2, -1300411.5, -1483632.1, 23841.959, 0.040494684, 0.12086432, -1297359.9, 128072.83, 0.0, 10.0013485, 9.998919 
9.4514424e+2, 1.6454735e+2, -1214062.6, -1392786.0, 23071.365, 0.018106608, 0.074273795, -1211132.4, 116312.2, 0.0, 10.001274, 9.998905 
9.451295e+2, 1.7454591e+2, -1133911.0, -1302966.1, 24442.135, 0.0387116, 0.041002523, -1130448.1, 99006.86, 0.0, 10.00115, 9.998909 
9.451147e+2, 1.8454446e+2, -1071882.3, -1259284.6, 30642.416, 0.046322137, 0.021863794, -1066999.1, 64467.723, 0.0, 10.001061, 9.998579 
9.450998e+2, 1.94543e+2, -981451.5, -1166097.5, 31040.617, 0.037396852, 0.018671593, -976373.0, 57107.62, 0.0, 10.001015, 9.998569 
9.450848e+2, 2.0454144e+2, -891539.9, -1076939.5, 21321.262, 0.028202886, 0.009691227, -889119.44, 46375.49, 0.0, 10.00098, 9.998526 
9.450698e+2, 2.1453978e+2, -796258.6, -979854.7, 17126.893, 0.019255066, -0.008204886, -794674.6, 42835.383, 0.0, 10.000959, 9.9985285 
9.450547e+2, 2.2453818e+2, -733053.56, -926504.25, 17653.0, 0.016029455, -0.009397593, -731455.9, 8069.906, 0.0, 10.000841, 9.99828 
9.450398e+2, 2.3453662e+2, -669882.1, -846020.06, 21619.916, 0.019425087, 0.008348776, -667267.2, -25724.873, 0.0, 10.000605, 9.998273 
9.450247e+2, 2.4453504e+2, -579907.3, -730458.1, 16552.543, 0.018014478, 0.016464407, -578108.9, -34550.832, 0.0, 10.000458, 9.998465 
9.450095e+2, 2.5453347e+2, -486938.78, -633167.75, 11210.449, 0.010910137, 0.010975903, -486084.34, -40511.56, 0.0, 10.000416, 9.99848 
9.449944e+2, 2.645318e+2, -413210.13, -565344.5, 11492.791, 0.0060808794, 0.005635486, -412346.8, -64757.95, 0.0, 10.000328, 9.998314 
9.4497937e+2, 2.7453002e+2, -335862.78, -477506.8, 9618.602, 0.003722415, -0.0006000552, -335212.6, -85606.17, 0.0, 10.000188, 9.998312 
9.4496423e+2, 2.8452846e+2, -245690.2, -377764.13, 1291.163, 0.00007841654, 0.008636113, -245677.58, -94054.72, 0.0, 10.000111, 9.998361 
9.4494903e+2, 2.9452708e+2, -147046.16, -278435.44, -2785.9102, -0.0044354848, 0.03374721, -146987.11, -93349.2, 0.0, 10.000111, 9.998369 
9.449338e+2, 3.0452594e+2, -47678.016, -104840.57, -2070.2056, -0.018458772, 0.04052339, -47603.137, -47603.137, 0.0, 10.000025, 9.999268 
9.4491845e+2, 3.1452566e+2, -71812.77, -112077.3, -11570.187, -0.046084978, 0.08408294, -68724.85, -68724.85, 0.0, 9.999841, 9.999307 
9.5520777e+2, 1.24568634e+2, -1563459.3, -1711271.1, 39018.332, 0.12931006, 0.22181685, -1553791.8, 165455.44, 0.000026449812, 10.001341, 9.999378 
9.551909e+2, 1.3456732e+2, -1486803.4, -1666288.6, -9379.876, 0.0147874495, 0.19024494, -1486314.5, 134944.17, 0.0000047469885, 10.001374, 9.999001 
9.5517623e+2, 1.4456627e+2, -1395340.5, -1582793.5, 19856.77, 0.093787715, 0.1910251, -1393260.3, 130006.8, 0.000000046136613, 10.00138, 9.998897 
9.5516074e+2, 1.5456454e+2, -1301845.0, -1486892.6, 22523.346, 0.0445781, 0.12972805, -1299143.0, 126137.95, 0.0, 10.0013485, 9.998897 
9.551455e+2, 1.6456302e+2, -1211588.8, -1388158.4, 18362.264, 0.022224411, 0.088043876, -1209699.5, 117593.09, 0.0, 10.001276, 9.998937 
9.5513064e+2, 1.7456175e+2, -1130965.8, -1297808.1, 19511.838, 0.035391014, 0.06635037, -1128714.3, 100586.984, 0.0, 10.001153, 9.998943 
9.551157e+2, 1.8456027e+2, -1071067.4, -1258607.6, 28528.385, 0.04054559, 0.043360688, -1066823.8, 64489.37, 0.0, 10.001065, 9.998583 
9.551008e+2, 1.9455859e+2, -980904.1, -1165676.1, 29069.176, 0.035230312, 0.017987616, -976438.75, 56889.703, 0.0, 10.001018, 9.998571 
9.5508575e+2, 2.0455696e+2, -897949.9, -1090716.5, 20314.383, 0.024582911, 0.005621116, -895832.4, 39511.223, 0.0, 10.000981, 9.99843 
9.5507056e+2, 2.1455538e+2, -803025.7, -994218.2, 16275.18, 0.00816529, 0.006566266, -801650.1, 35708.297, 0.0, 10.00096, 9.99843 
9.550554e+2, 2.2455378e+2, -726027.25, -912302.94, 9021.431, 0.006154203, 0.00553862, -725591.3, 13782.721, 0.0, 10.000841, 9.998377 
9.5504034e+2, 2.345521e+2, -662021.2, -830329.06, 12732.213, 0.02105856, 0.0012335635, -661063.5, -19673.063, 0.0, 10.000607, 9.99838 
9.550252e+2, 2.4455053e+2, -588083.94, -748093.8, 14670.677, 0.02532434, 0.008276403, -586749.94, -43343.813, 0.0, 10.00046, 9.9983425 
9.5500994e+2, 2.5454906e+2, -495934.3, -652357.75, 9744.133, 0.016969614, 0.026702462, -495329.66, -49908.652, 0.0, 10.000417, 9.998347 
9.5499474e+2, 2.6454738e+2, -416772.44, -573131.4, 6481.1475, 0.009316728, 0.030362977, -416504.25, -69066.46, 0.0, 10.000329, 9.9982605 
9.549795e+2, 2.7454546e+2, -339130.7, -484625.63, 4514.21, 0.0023182663, 0.015382444, -338990.78, -89534.11, 0.0, 10.000188, 9.998263 
9.5496434e+2, 2.8454384e+2, -251685.52, -390541.22, 1311.1887, 0.0018549205, 0.02582246, -251673.14, -100199.445, 0.0, 10.000111, 9.998273 
9.5494926e+2, 2.9454252e+2, -153099.81, -291391.28, -2433.8767, 0.009755194, 0.06396778, -153056.98, -99568.5, 0.0, 10.000112, 9.998281 
9.549339e+2, 3.0454126e+2, -59849.715, -130436.55, -8404.93, -0.008878342, 0.07453702, -58862.723, -58862.723, 0.0, 10.000026, 9.999092 
9.5491815e+2, 3.145407e+2, -84515.49, -138484.86, -18110.04, -0.06125907, 0.108907156, -79001.766, -79001.766, 0.0, 9.99984, 9.9991255 
9.652091e+2, 1.2458417e+2, -1560111.6, -1706402.4, 39000.21, 0.12687953, 0.22576366, -1550364.0, 168731.75, 0.00003990401, 10.00135, 9.999407 
9.6519226e+2, 1.3458292e+2, -1488323.3, -1662118.6, -7959.4614, 0.01495347, 0.1956305, -1487959.5, 133147.03, 0.000008636752, 10.001344, 9.999043 
9.651775e+2, 1.4458191e+2, -1403556.9, -1586762.4, 20242.857, 0.08971487, 0.19990294, -1401346.9, 121767.55, 0.00000019058375, 10.001324, 9.998896 
9.6516204e+2, 1.5458022e+2, -1311286.0, -1491628.9, 24016.945, 0.043827813, 0.14115115, -1308142.4, 116986.21, 0.0, 10.001286, 9.998895 
9.651468e+2, 1.6457872e+2, -1212994.0, -1390088.8, 18408.926, 0.020728877, 0.10230144, -1211100.6, 116039.44, 0.0, 10.001272, 9.998925 
9.651317e+2, 1.7457747e+2, -1112215.3, -1290022.8, 16045.234, 0.028363395, 0.08364088, -1110779.0, 118369.82, 0.0, 10.001288, 9.998932 
9.6511674e+2, 1.8457599e+2, -1043920.56, -1240110.3, 23150.81, 0.03220695, 0.059280682, -1041225.75, 89934.74, 0.0, 10.001229, 9.998631 
9.651018e+2, 1.945743e+2, -967824.4, -1153588.9, 27000.91, 0.030469578, 0.027238116, -963979.4, 69196.086, 0.0, 10.001082, 9.998622 
9.6508676e+2, 2.0457265e+2, -906336.7, -1101668.5, 22284.332, 0.023983644, 0.014561127, -903826.6, 31363.988, 0.0, 10.000955, 9.998368 
9.6507156e+2, 2.1457109e+2, -824344.6, -1011894.8, 20503.705, 0.012455274, 0.0227507, -822129.25, 15076.765, 0.0, 10.000847, 9.9983635 
9.650563e+2, 2.2456944e+2, -729434.4, -906619.25, 11148.987, 0.010407992, 0.020187302, -728735.6, 10486.053, 0.0, 10.000788, 9.998442 
9.6504104e+2, 2.3456773e+2, -631182.3, -807468.6, 11914.66, 0.019503377, 0.003872157, -630380.7, 10856.914, 0.0, 10.000785, 9.998451 
9.650258e+2, 2.445661e+2, -556717.56, -744355.8, 14145.217, 0.022039695, 0.007767758, -555657.2, -12403.645, 0.0, 10.000725, 9.99824 
9.650105e+2, 2.5456458e+2, -477600.25, -655700.25, 10803.186, 0.016714437, 0.033603337, -476947.34, -31677.857, 0.0, 10.000596, 9.998238 
9.6499515e+2, 2.6456293e+2, -395314.0, -565367.56, 8385.068, 0.009094473, 0.043011013, -394901.56, -47614.805, 0.0, 10.000488, 9.998237 
9.6497977e+2, 2.7456105e+2, -308757.4, -472071.13, 8451.173, -0.0014036035, 0.031692345, -308321.25, -59015.746, 0.0, 10.000406, 9.998244 
9.649645e+2, 2.8455937e+2, -225885.66, -387237.1, 9160.893, -0.00087431783, 0.04308825, -225367.2, -74044.266, 0.0, 10.000328, 9.998191 
9.649495e+2, 2.9455793e+2, -138089.17, -293539.88, 5718.6563, 0.013363055, 0.07899299, -137879.08, -84540.266, 0.0, 10.000256, 9.998197 
9.64934e+2, 3.0455655e+2, -40761.742, -134471.02, -360.13464, -0.0053437892, 0.08735285, -40760.355, -40760.355, 0.0, 10.000215, 9.998973 
9.649181e+2, 3.1455585e+2, -38285.21, -129736.21, -5752.934, -0.06534104, 0.117719464, -37924.73, -37924.73, 0.0, 10.0002165, 9.999004 
9.7521037e+2, 1.24599606e+2, -1558447.5, -1702964.9, 37177.24, 0.12447542, 0.21672773, -1549444.4, 169500.3, 0.000057479218, 10.001349, 9.999432 
9.751936e+2, 1.3459848e+2, -1485253.0, -1656191.4, -8377.087, 0.014886831, 0.1950672, -1484843.5, 136111.11, 0.000014404859, 10.001345, 9.9990835 
9.751788e+2, 1.4459759e+2, -1402193.4, -1584668.9, 18687.502, 0.08371182, 0.20784514, -1400299.3, 122662.4, 0.0000005546723, 10.001327, 9.998909 
9.751633e+2, 1.5459596e+2, -1309832.8, -1489533.3, 22336.752, 0.038417652, 0.15494302, -1307097.9, 117877.305, 0.0, 10.001288, 9.998908 
9.7514796e+2, 1.6459446e+2, -1216474.6, -1398165.0, 18733.213, 0.013861476, 0.11692497, -1214563.3, 112423.875, 0.0, 10.001275, 9.998869 
9.7513294e+2, 1.7459309e+2, -1116098.3, -1298535.1, 16442.66, 0.01779768, 0.09322123, -1114628.1, 114369.21, 0.0, 10.001289, 9.998873 
9.7511786e+2, 1.8459165e+2, -1037685.06, -1227453.0, 17627.963, 0.021385446, 0.069942825, -1036061.44, 94947.33, 0.0, 10.001229, 9.998717 
9.751028e+2, 1.9459012e+2, -960976.5, -1139837.4, 21156.691, 0.023204455, 0.046092667, -958508.0, 74513.52, 0.0, 10.001084, 9.998716 
9.750877e+2, 2.0458853e+2, -908462.44, -1106652.9, 17863.082, 0.026348872, 0.036016386, -906865.3, 28170.768, 0.0, 10.000956, 9.998333 
9.7507256e+2, 2.1458688e+2, -826793.94, -1017577.1, 16256.989, 0.03171496, 0.04025365, -825418.56, 11633.998, 0.0, 10.000849, 9.998323 
9.7505724e+2, 2.2458522e+2, -727065.5, -902331.25, 10786.891, 0.028363729, 0.034603484, -726404.06, 12664.498, 0.0, 10.00079, 9.99847 
9.7504175e+2, 2.3458351e+2, -628668.3, -802825.44, 11763.8955, 0.014704251, 0.016146282, -627877.3, 13206.5625, 0.0, 10.000786, 9.998483 
9.7502637e+2, 2.445818e+2, -562465.5, -756799.3, 9519.307, 0.008233142, 0.014764711, -562000.3, -18899.932, 0.0, 10.000726, 9.998155 
9.75011e+2, 2.545801e+2, -483685.7, -668797.2, 6051.096, 0.010131669, 0.031598717, -483488.1, -38369.824, 0.0, 10.000597, 9.998148 
9.749956e+2, 2.645784e+2, -394881.25, -564846.8, 5394.015, 0.005353755, 0.043550584, -394710.25, -47574.387, 0.0, 10.000489, 9.99824 
9.749801e+2, 2.7457672e+2, -307988.03, -470899.63, 5636.8047, -0.00750988, 0.04834574, -307793.25, -58640.246, 0.0, 10.000407, 9.998252 
9.749648e+2, 2.84575e+2, -231287.6, -398846.38, 6705.8755, -0.008315958, 0.060294777, -231019.64, -79848.94, 0.0, 10.000329, 9.998112 
9.7494966e+2, 2.9457328e+2, -143843.47, -305717.75, 3378.814, 0.0059432457, 0.0783301, -143772.98, -90583.93, 0.0, 10.000256, 9.998113 
9.749342e+2, 3.0457178e+2, -45129.8, -143809.45, 52.028084, -0.008160625, 0.07830221, -45129.773, -45129.773, 0.0, 10.000215, 9.998909 
9.749184e+2, 3.1457102e+2, -42498.69, -139026.42, -4935.2207, -0.058178764, 0.109526984, -42247.02, -42247.02, 0.0, 10.000217, 9.99894 
9.852117e+2, 1.2461517e+2, -1577968.8, -1716211.6, 39186.625, 0.123148054, 0.2200544, -1567633.5, 151159.14, 0.00007951568, 10.001232, 9.999396 
9.8519486e+2, 1.3461404e+2, -1488492.3, -1659887.4, -9215.921, 0.012831483, 0.19882296, -1487998.1, 132804.97, 0.000022398126, 10.001332, 9.9990635 
9.8518e+2, 1.4461319e+2, -1390104.1, -1574990.9, 13903.94, 0.07452923, 0.215711, -1389064.4, 133745.45, 0.0000013019285, 10.001393, 9.998943 
9.851645e+2, 1.5461165e+2, -1291038.0, -1476192.4, 18964.889, 0.031869266, 0.16868755, -1289115.4, 135707.03, 0.0, 10.0014, 9.998945 
9.851492e+2, 1.6461018e+2, -1207028.1, -1395571.6, 16214.457, 0.009258674, 0.13251217, -1205643.9, 121190.414, 0.0, 10.0013485, 9.998851 
9.8513407e+2, 1.7460877e+2, -1125857.4, -1305373.6, 16575.408, 0.014142893, 0.105865024, -1124339.8, 104505.47, 0.0, 10.001232, 9.998854 
9.8511904e+2, 1.8460731e+2, -1052565.6, -1236209.0, 13488.143, 0.018737923, 0.08401872, -1051580.3, 79276.664, 0.0, 10.001135, 9.998703 
9.8510385e+2, 1.9460584e+2, -965461.5, -1143452.1, 8889.848, 0.021718511, 0.06668064, -965018.56, 67850.67, 0.0, 10.0010605, 9.998703 
9.8508865e+2, 2.0460427e+2, -900703.06, -1097542.9, 5024.0854, 0.026872965, 0.05686188, -900574.9, 34308.61, 0.0, 10.000987, 9.998381 
9.8507345e+2, 2.1460262e+2, -813567.3, -1005538.3, 9815.994, 0.035281137, 0.05408695, -813066.7, 23833.096, 0.0, 10.000916, 9.998374 
9.850581e+2, 2.2460094e+2, -717966.1, -899483.75, 8559.053, 0.031476423, 0.0472454, -717563.44, 21352.123, 0.0, 10.000859, 9.998456 
9.850425e+2, 2.3459928e+2, -624894.75, -802814.1, 5784.075, 0.01313384, 0.034259293, -624706.9, 16223.796, 0.0, 10.000821, 9.998466 
9.85027e+2, 2.4459755e+2, -552937.7, -745986.2, 3605.9556, 0.0044208276, 0.02991747, -552870.3, -9923.143, 0.0, 10.000766, 9.998209 
9.850116e+2, 2.545958e+2, -466144.63, -653763.3, 10931.519, 0.007019856, 0.034001578, -465509.84, -20544.576, 0.0, 10.0006895, 9.998206 
9.849961e+2, 2.6459408e+2, -378953.6, -557838.2, 15882.4, 0.0042785625, 0.04290999, -377554.4, -30571.643, 0.0, 10.000603, 9.998234 
9.849806e+2, 2.7459246e+2, -295149.72, -465681.47, 14574.639, -0.0050178855, 0.05601496, -293913.06, -44913.63, 0.0, 10.000501, 9.998242 
9.8496515e+2, 2.8459075e+2, -217719.77, -397014.56, 17985.932, -0.006891679, 0.071634725, -215933.31, -64916.09, 0.0, 10.000443, 9.998069 
9.849499e+2, 2.9458898e+2, -120383.336, -299247.0, 17480.934, 0.0008792269, 0.087801784, -118690.88, -65654.586, 0.0, 10.000439, 9.998069 
9.8493445e+2, 3.045874e+2, -19733.994, -135248.45, 16888.627, -0.01194181, 0.0850326, -17315.453, -17315.453, 0.0, 10.000406, 9.998876 
9.849187e+2, 3.1458655e+2, -26498.146, -134962.86, 14095.882, -0.051251967, 0.110776186, -24696.207, -24696.207, 0.0, 10.000344, 9.998907 
9.952129e+2, 1.2463089e+2, -1583989.3, -1729610.0, 40836.316, 0.122614205, 0.23448372, -1573319.4, 145319.89, 0.00010622788, 10.001235, 9.999304 
9.9519616e+2, 1.3462959e+2, -1493818.9, -1671477.8, -5741.6997, 0.008831201, 0.20649958, -1493633.5, 127018.12, 0.00003292342, 10.001334, 9.998984 
9.9518126e+2, 1.4462873e+2, -1386513.9, -1567719.5, 14080.51, 0.062287033, 0.22346975, -1385426.3, 137232.38, 0.0000026281716, 10.001393, 9.998994 
9.951659e+2, 1.5462732e+2, -1287076.8, -1467873.1, 18902.479, 0.024237264, 0.1823575, -1285121.6, 139548.42, 0.00000000019976186, 10.001398, 9.999003 
9.951505e+2, 1.6462591e+2, -1206083.5, -1393543.6, 11659.547, 0.0067886394, 0.14897789, -1205361.0, 121320.18, 0.0, 10.001348, 9.998866 
9.9513537e+2, 1.746245e+2, -1124735.4, -1303323.9, 11830.031, 0.01702946, 0.12139316, -1123955.1, 104737.04, 0.0, 10.001232, 9.998868 
9.9512017e+2, 1.8462302e+2, -1060469.0, -1253068.1, 10287.697, 0.023839958, 0.10130863, -1059921.0, 70783.61, 0.0, 10.001136, 9.998587 
9.951049e+2, 1.9462147e+2, -973617.4, -1160887.1, 5821.3027, 0.025726156, 0.08889948, -973436.56, 59281.89, 0.0, 10.001061, 9.998583 
9.950896e+2, 2.0461987e+2, -891712.06, -1079460.0, 2171.1377, 0.02552426, 0.07709099, -891687.0, 43045.777, 0.0, 10.000988, 9.998505 
9.950742e+2, 2.1461825e+2, -803814.94, -985951.8, 6961.828, 0.023515543, 0.06434289, -803549.2, 33198.31, 0.0, 10.000917, 9.9985075 
9.9505883e+2, 2.2461663e+2, -721951.9, -908398.06, 6959.146, 0.020128548, 0.058193613, -721692.44, 17070.148, 0.0, 10.000861, 9.998394 
9.950434e+2, 2.3461503e+2, -629420.3, -812744.7, 4314.748, 0.014787687, 0.058144957, -629318.8, 11459.242, 0.0, 10.000822, 9.998397 
9.9502784e+2, 2.4461336e+2, -539237.1, -718038.0, 877.0176, 0.010440363, 0.053114247, -539232.8, 3561.2002, 0.0, 10.000767, 9.998401 
9.950123e+2, 2.5461164e+2, -451695.53, -624238.2, 8209.591, 0.007300776, 0.040760145, -451305.78, -6495.237, 0.0, 10.000691, 9.998408 
9.949967e+2, 2.6460993e+2, -380339.56, -561103.75, 12281.08, 0.0058327103, 0.04103937, -379509.0, -32681.477, 0.0, 10.000604, 9.998211 
9.9498117e+2, 2.7460828e+2, -297180.3, -470204.53, 11018.866, 0.00606952, 0.05456424, -296481.4, -47636.54, 0.0, 10.000502, 9.998212 
9.949657e+2, 2.8460664e+2, -218216.02, -398314.25, 18068.207, 0.0033724473, 0.07705169, -216421.22, -65558.63, 0.0, 10.000443, 9.998059 
9.949503e+2, 2.94605e+2, -120698.086, -300274.16, 17807.06, -0.001916986, 0.1076572, -118949.336, -66068.68, 0.0, 10.00044, 9.998062 
9.949348e+2, 3.0460343e+2, -20009.883, -136206.97, 15219.437, -0.016873302, 0.10789863, -18049.521, -18049.521, 0.0, 10.000407, 9.998869 
9.949191e+2, 3.1460243e+2, -26920.22, -135902.5, 12528.159, -0.04497714, 0.12141901, -25498.578, -25498.578, 0.0, 10.000343, 9.998901 
1.0052141e+3, 1.2464645e+2, -1574250.1, -1725430.4, 25364.85, 0.11511782, 0.25871953, -1570107.9, 148380.25, 0.00013782152, 10.001306, 9.999298 
1.00519754e+3, 1.3464503e+2, -1492013.8, -1669391.8, -13288.234, 0.008989754, 0.21760084, -1491023.9, 129477.734, 0.000046236724, 10.001343, 9.998994 
1.00518264e+3, 1.4464419e+2, -1391871.9, -1563163.8, 6221.903, 0.059069872, 0.23130643, -1391646.3, 130862.34, 0.00000474816, 10.001327, 9.999057 
1.00516714e+3, 1.546429e+2, -1305717.8, -1469367.9, 11249.889, 0.023226572, 0.19694965, -1304948.1, 119570.55, 0.000000004412824, 10.001239, 9.99907 
1.0051518e+3, 1.6464156e+2, -1231489.0, -1405570.6, 2423.5237, 0.0063296123, 0.16789699, -1231455.4, 95073.87, 0.0, 10.001173, 9.998867 
1.0051365e+3, 1.7464016e+2, -1139258.0, -1310219.8, 1416.6995, 0.015152622, 0.14181748, -1139246.3, 89294.07, 0.0, 10.001133, 9.998868 
1.00512125e+3, 1.8463868e+2, -1068698.8, -1259246.0, 3256.8691, 0.022407556, 0.121802814, -1068643.1, 61909.95, 0.0, 10.00109, 9.998567 
1.005106e+3, 1.9463709e+2, -977711.06, -1165031.1, 5943.993, 0.026842218, 0.10786789, -977522.6, 55044.66, 0.0, 10.001043, 9.998563 
1.0050906e+3, 2.0463549e+2, -883768.8, -1066925.1, 4745.6914, 0.026281955, 0.09122848, -883645.94, 50935.555, 0.0, 10.001006, 9.998581 
1.0050751e+3, 2.1463385e+2, -788900.7, -969599.94, 5516.9063, 0.020532683, 0.06975313, -788732.44, 47863.113, 0.0, 10.000981, 9.998589 
1.0050597e+3, 2.2463225e+2, -712784.9, -903756.25, 4886.806, 0.01615528, 0.060850747, -712659.94, 25950.354, 0.0, 10.000924, 9.998396 
1.0050442e+3, 2.3463067e+2, -628555.56, -812366.3, 7003.9644, 0.01311549, 0.06501578, -628289.06, 12336.639, 0.0, 10.00083, 9.998396 
1.0050286e+3, 2.4462909e+2, -533429.1, -704823.1, 2796.4873, 0.009423048, 0.063319795, -533383.5, 9257.527, 0.0, 10.000763, 9.998493 
1.0050129e+3, 2.546275e+2, -439520.72, -607465.2, 1960.8163, 0.0049338755, 0.053119734, -439497.8, 5158.33, 0.0, 10.000729, 9.998505 
1.00499734e+3, 2.6462585e+2, -370102.94, -556185.44, 1166.5243, 0.0039439984, 0.054207545, -370095.63, -23423.123, 0.0, 10.000675, 9.99821 
1.0049817e+3, 2.7462417e+2, -283583.53, -463986.88, 1605.1255, 0.0068372176, 0.0670287, -283569.25, -34879.063, 0.0, 10.000597, 9.998207 
1.0049662e+3, 2.8462252e+2, -206080.97, -395369.6, 11463.073, 0.0037432539, 0.0914656, -205389.31, -54681.176, 0.0, 10.000541, 9.998033 
1.0049508e+3, 2.946209e+2, -112131.94, -298986.94, 9545.843, -0.0056333872, 0.12713727, -111645.54, -58919.215, 0.0, 10.000511, 9.998035 
1.0049352e+3, 3.0461937e+2, -3138.5723, -125971.2, 7069.2603, -0.020159176, 0.13133648, -2733.061, -2733.061, 0.0, 10.000515, 9.998886 
1.00491956e+3, 3.1461844e+2, 5137.7197, -118097.08, 6201.022, -0.042289905, 0.14585121, 5448.9614, 5448.9614, 0.0, 10.000555, 9.998921 
1.0152152e+3, 1.2466189e+2, -1568642.6, -1714966.0, 25115.004, 0.101035796, 0.29185894, -1564451.9, 153886.9, 0.00017450533, 10.001309, 9.999369 
1.0151988e+3, 1.3466038e+2, -1485569.4, -1656456.4, -11903.747, 0.013029098, 0.23182704, -1484744.1, 135608.4, 0.000062540406, 10.001344, 9.999083 
1.0151839e+3, 1.4465955e+2, -1386839.5, -1552869.8, 3024.1226, 0.06419417, 0.23918036, -1386784.5, 135574.69, 0.000007860604, 10.001326, 9.999127 
1.0151684e+3, 1.5465842e+2, -1300528.9, -1459018.1, 7634.823, 0.028320754, 0.21236505, -1300161.9, 124206.01, 0.000000028517778, 10.00124, 9.999141 
1.0151529e+3, 1.6465716e+2, -1232204.8, -1407644.6, 500.03137, 0.007676304, 0.18910098, -1232203.4, 94174.55, 0.0, 10.001175, 9.998853 
1.0151376e+3, 1.746558e+2, -1140094.0, -1312557.3, -377.1599, 0.008689606, 0.16685064, -1140093.1, 88296.14, 0.0, 10.001135, 9.998852 
1.0151222e+3, 1.8465431e+2, -1063601.0, -1249176.5, 1239.346, 0.014698491, 0.14529113, -1063592.8, 66809.18, 0.0, 10.001091, 9.998635 
1.01510696e+3, 1.9465272e+2, -972445.44, -1154490.1, 3969.2124, 0.025151169, 0.12367447, -972358.94, 60056.777, 0.0, 10.001044, 9.998635 
1.0150916e+3, 2.0465109e+2, -881672.3, -1062852.4, 3529.81, 0.029056806, 0.099479966, -881603.56, 52826.09, 0.0, 10.001007, 9.99861 
1.0150762e+3, 2.146494e+2, -786930.5, -965717.5, 4428.379, 0.026063357, 0.07042859, -786820.9, 49622.883, 0.0, 10.000981, 9.998616 
1.0150606e+3, 2.2464778e+2, -708530.3, -895201.2, 1290.0035, 0.01929278, 0.055340514, -708521.4, 29937.09, 0.0, 10.000924, 9.998454 
1.0150449e+3, 2.3464623e+2, -624069.06, -803509.6, 3411.5164, 0.008100868, 0.05513752, -624004.25, 16469.488, 0.0, 10.000831, 9.998456 
1.0150293e+3, 2.4464475e+2, -533890.3, -706332.8, 1459.4207, 0.0014328149, 0.060799845, -533878.0, 8610.348, 0.0, 10.000764, 9.998483 
1.0150136e+3, 2.5464332e+2, -440204.5, -609372.94, 811.86273, -0.00009681145, 0.07116997, -440200.6, 4301.492, 0.0, 10.0007305, 9.998491 
1.01499796e+3, 2.646418e+2, -368777.94, -553813.06, -1504.3699, -0.0014872826, 0.08245844, -368765.7, -22247.947, 0.0, 10.000675, 9.998226 
1.0149822e+3, 2.746401e+2, -282146.56, -461342.25, -1058.0984, -0.0029237147, 0.09350849, -282140.3, -33604.87, 0.0, 10.000598, 9.998225 
1.0149666e+3, 2.8463843e+2, -209456.27, -402687.6, 10598.975, -0.0060120025, 0.11495763, -208876.64, -58322.6, 0.0, 10.000541, 9.997983 
1.0149512e+3, 2.9463673e+2, -115669.1, -306553.28, 8808.557, -0.010351122, 0.14622112, -115263.484, -62689.95, 0.0, 10.000511, 9.997984 
1.01493575e+3, 3.0463526e+2, -202.50887, -120165.94, 8984.094, -0.021942057, 0.15544091, 466.5805, 466.5805, 0.0, 10.000515, 9.998926 
1.0149201e+3, 3.1463447e+2, 8485.791, -111707.17, 8320.745, -0.043776985, 0.18436697, 9059.087, 9059.087, 0.0, 10.000556, 9.998965 
1.0252166e+3, 1.24677114e+2, -1546211.3, -1699632.0, 29435.969, 0.097987056, 0.293376, -1540757.4, 177433.31, 0.0002164286, 10.001445, 9.999408 
1.0252002e+3, 1.3467576e+2, -1482286.5, -1648633.4, -8389.824, 0.0167054, 0.24268381, -1481864.4, 138338.47, 0.00008198819, 10.00134, 9.999137 
1.0251852e+3, 1.4467497e+2, -1395460.1, -1557082.6, 1623.5266, 0.06303156, 0.25419113, -1395443.8, 126765.164, 0.000012107449, 10.001267, 9.999126 
1.02516964e+3, 1.5467383e+2, -1303419.5, -1460601.5, 617.9464, 0.028367186, 0.22628881, -1303417.1, 120801.13, 0.00000009714164, 10.001222, 9.999139 
1.02515414e+3, 1.6467261e+2, -1230381.3, -1403780.5, -7093.822, 0.008540344, 0.20436023, -1230091.5, 96136.805, 0.0, 10.001175, 9.9988785 
1.02513865e+3, 1.7467129e+2, -1139128.0, -1308930.3, -4900.834, 0.009736345, 0.18619129, -1138986.8, 89252.51, 0.0, 10.001128, 9.998879 
1.0251233e+3, 1.846699e+2, -1062842.8, -1239336.1, -2343.0806, 0.014175629, 0.16601998, -1062811.6, 67439.41, 0.0, 10.001056, 9.998719 
1.0251079e+3, 1.9466837e+2, -979114.7, -1147920.9, 1273.2227, 0.021094317, 0.14269076, -979105.06, 53158.723, 0.0, 10.000957, 9.998722 
1.0250925e+3, 2.0466676e+2, -902273.6, -1070888.1, 1180.8198, 0.024674386, 0.115288846, -902265.4, 32011.941, 0.0, 10.000857, 9.998626 
1.025077e+3, 2.1466504e+2, -818214.3, -979073.7, 1046.0988, 0.024987776, 0.0812584, -818207.5, 18084.084, 0.0, 10.00076, 9.998631 
1.0250614e+3, 2.246634e+2, -732481.5, -898650.4, -1019.3967, 0.019355653, 0.06174251, -732475.25, 5830.894, 0.0, 10.000726, 9.998526 
1.0250457e+3, 2.3466189e+2, -628495.4, -797283.9, 1886.5736, 0.0068229595, 0.05781462, -628474.3, 11846.41, 0.0, 10.000765, 9.99853 
1.02503e+3, 2.4466045e+2, -529880.44, -705708.9, 1001.29877, -0.0022430154, 0.0648449, -529874.75, 12460.177, 0.0, 10.000798, 9.998469 
1.0250143e+3, 2.5465912e+2, -427394.97, -604729.25, 19.702118, -0.007329811, 0.082317695, -427394.97, 16953.594, 0.0, 10.000826, 9.998477 
1.0249985e+3, 2.646576e+2, -351147.78, -545880.2, -6296.395, -0.01021203, 0.09708395, -350944.44, -4580.1763, 0.0, 10.0008, 9.9982195 
1.0249828e+3, 2.746559e+2, -265580.06, -453746.44, -7954.3926, -0.010855544, 0.107309364, -265244.4, -16862.24, 0.0, 10.000714, 9.99822 
1.0249671e+3, 2.846542e+2, -192438.78, -393118.8, 6652.7974, -0.013322751, 0.12769617, -192218.47, -41817.605, 0.0, 10.000653, 9.997993 
1.0249516e+3, 2.946525e+2, -98917.71, -296974.88, 9578.723, -0.017141452, 0.15761742, -98455.53, -46035.168, 0.0, 10.000621, 9.997996 
1.02493614e+3, 3.0465105e+2, 9200.243, -120175.086, 10772.434, -0.027418608, 0.17130853, 10091.076, 10091.076, 0.0, 10.0006, 9.998885 
1.02492064e+3, 3.1465033e+2, 10583.21, -115492.57, 3379.8142, -0.047034, 0.21005912, 10673.75, 10673.75, 0.0, 10.000592, 9.998921 
1.035218e+3, 1.2469216e+2, -1545279.1, -1698572.9, 23900.22, 0.10489864, 0.26603243, -1541639.3, 176404.13, 0.0002637313, 10.001448, 9.999414 
1.03520155e+3, 1.3469116e+2, -1480274.5, -1645573.9, -12339.322, 0.01991781, 0.25052708, -1479358.5, 140693.88, 0.00010469639, 10.001344, 9.999157 
1.0351864e+3, 1.446905e+2, -1399988.8, -1567477.0, -216.38963, 0.055960633, 0.27577323, -1399988.5, 122069.26, 0.000017566988, 10.001271, 9.999054 
1.0351708e+3, 1.546892e+2, -1308343.5, -1471362.5, -1288.6649, 0.023679066, 0.23875713, -1308333.3, 115736.03, 0.00000023822265, 10.001223, 9.999064 
1.0351553e+3, 1.6468793e+2, -1225972.3, -1394954.9, -9000.397, 0.008943029, 0.21399401, -1225494.3, 100585.81, 0.0, 10.001175, 9.9989395 
1.03513986e+3, 1.7468673e+2, -1134399.5, -1299426.1, -6860.53, 0.017870776, 0.20012152, -1134114.8, 93975.055, 0.0, 10.001128, 9.998944 
1.03512436e+3, 1.8468544e+2, -1056012.9, -1225473.1, -6306.414, 0.020415066, 0.1841135, -1055778.5, 74321.89, 0.0, 10.001057, 9.998815 
1.0351088e+3, 1.9468406e+2, -972117.56, -1133783.1, -2756.7937, 0.014699259, 0.16476792, -972070.56, 60040.91, 0.0, 10.0009575, 9.998818 
1.0350933e+3, 2.0468251e+2, -901896.75, -1070635.6, -2807.2402, 0.013342408, 0.1383517, -901850.06, 32274.283, 0.0, 10.000859, 9.998628 
1.03507765e+3, 2.1468078e+2, -817865.06, -979091.7, -2845.8286, 0.017449273, 0.10194126, -817814.8, 18324.148, 0.0, 10.000762, 9.99863 
1.03506215e+3, 2.2467916e+2, -726474.25, -886910.3, 163.85724, 0.016389843, 0.079786405, -726474.1, 11679.068, 0.0, 10.000729, 9.998606 
1.0350465e+3, 2.3467769e+2, -622469.94, -785312.6, 3309.0796, 0.009214188, 0.07280856, -622402.7, 17764.006, 0.0, 10.000767, 9.998612 
1.0350308e+3, 2.4467622e+2, -530919.3, -708326.0, 2074.5566, -0.0017142171, 0.07529646, -530895.06, 11285.806, 0.0, 10.000799, 9.998451 
1.035015e+3, 2.546748e+2, -428652.63, -607761.5, 1177.3087, -0.016843531, 0.0865355, -428644.9, 15550.675, 0.0, 10.000827, 9.998456 
1.0349993e+3, 2.646732e+2, -353297.94, -550726.25, -9192.774, -0.022291448, 0.09810092, -352870.84, -6658.754, 0.0, 10.000801, 9.998187 
1.0349834e+3, 2.746715e+2, -267751.88, -458582.63, -10918.379, -0.016986184, 0.10842648, -267129.22, -18898.768, 0.0, 10.000715, 9.998188 
1.03496775e+3, 2.8466982e+2, -187437.38, -383020.53, 5703.0693, -0.018257601, 0.12962674, -187271.22, -37022.414, 0.0, 10.000653, 9.998063 
1.0349522e+3, 2.9466823e+2, -93616.63, -286295.38, 8787.47, -0.026184628, 0.16121987, -93216.695, -40949.684, 0.0, 10.000622, 9.99807 
1.0349367e+3, 3.046668e+2, 319.2835, -139038.53, 10897.004, -0.03683484, 0.1787697, 1166.2212, 1166.2212, 0.0, 10.000601, 9.998755 
1.0349211e+3, 3.1466597e+2, 1090.8384, -135559.17, 3601.4658, -0.05241425, 0.22225529, 1185.6907, 1185.6907, 0.0, 10.000592, 9.998783 
1.04521945e+3, 1.2470753e+2, -1539127.6, -1702803.4, 31569.72, 0.10242755, 0.25759268, -1533249.6, 184643.13, 0.00031664252, 10.001522, 9.99935 
1.045203e+3, 1.3470663e+2, -1463217.1, -1643282.9, -8205.053, 0.016354727, 0.25785774, -1462844.0, 157057.27, 0.00013079311, 10.001488, 9.999103 
1.0451876e+3, 1.44706e+2, -1385159.8, -1566013.1, 385.78436, 0.04581244, 0.2903854, -1385159.0, 136748.03, 0.000024312307, 10.001398, 9.999002 
1.045172e+3, 1.5470462e+2, -1310572.8, -1477970.0, 584.99866, 0.021280108, 0.25275657, -1310570.8, 113348.805, 0.0000004785213, 10.001232, 9.999014 
1.04515634e+3, 1.6470337e+2, -1233568.3, -1394489.3, -5596.716, 0.009994793, 0.22878632, -1233373.8, 92556.64, 0.0, 10.001106, 9.998975 
1.045141e+3, 1.7470223e+2, -1146102.0, -1300473.5, -5393.739, 0.017272325, 0.21722563, -1145913.8, 82025.79, 0.0, 10.001029, 9.998984 
1.04512535e+3, 1.84701e+2, -1069837.1, -1229408.3, -9452.498, 0.018607164, 0.2026072, -1069279.1, 60670.44, 0.0, 10.000951, 9.998838 
1.0451097e+3, 1.9469963e+2, -983267.6, -1136359.5, -11413.294, 0.012143082, 0.18360566, -982421.44, 49539.023, 0.0, 10.00087, 9.998843 
1.045094e+3, 2.0469809e+2, -905363.3, -1070034.3, -12174.009, 0.010603604, 0.15583958, -904468.2, 29504.941, 0.0, 10.000827, 9.998647 
1.0450785e+3, 2.1469633e+2, -807210.0, -971637.06, -10871.836, 0.01524409, 0.116386935, -806494.3, 29493.465, 0.0, 10.000826, 9.99865 
1.04506284e+3, 2.2469473e+2, -713091.9, -874207.7, -6926.9844, 0.014737033, 0.092177935, -712794.6, 25206.963, 0.0, 10.000794, 9.998661 
1.0450473e+3, 2.3469332e+2, -624322.94, -779788.0, -5905.706, 0.008159295, 0.08391196, -624098.94, 15915.484, 0.0, 10.000727, 9.998669 
1.0450315e+3, 2.4469191e+2, -544698.4, -708688.9, -5093.3604, -0.0025891992, 0.08561004, -544540.4, -2512.3792, 0.0, 10.000679, 9.998507 
1.04501575e+3, 2.5469053e+2, -450060.88, -611729.75, -496.77667, -0.018109852, 0.09668897, -450059.34, -6017.0967, 0.0, 10.000653, 9.998511 
1.0449999e+3, 2.6468897e+2, -369963.66, -554456.94, -6031.338, -0.025360508, 0.10578742, -369766.72, -23708.117, 0.0, 10.0006695, 9.998224 
1.044984e+3, 2.7468726e+2, -262771.75, -451855.22, -2690.3264, -0.023366138, 0.11107605, -262733.47, -14656.36, 0.0, 10.000731, 9.998225 
1.0449684e+3, 2.846856e+2, -173087.77, -373707.97, 13695.733, -0.0255592, 0.13418132, -172157.13, -22062.09, 0.0, 10.000743, 9.998084 
1.0449528e+3, 2.946841e+2, -81123.734, -277817.03, 12474.269, -0.031837948, 0.17543647, -80335.77, -28223.621, 0.0, 10.000698, 9.998091 
1.0449372e+3, 3.0468267e+2, 288.7958, -142434.27, 14920.272, -0.043384157, 0.19240496, 1831.8782, 1831.8782, 0.0, 10.000616, 9.998724 
1.04492165e+3, 3.146817e+2, -15972.271, -147384.86, 15305.381, -0.062455498, 0.2221962, -14213.229, -14213.229, 0.0, 10.000492, 9.99875 
1.05522096e+3, 1.2472324e+2, -1547725.5, -1722231.8, 28019.016, 0.09122581, 0.26614928, -1543337.1, 174401.75, 0.0003754382, 10.001528, 9.999214 
1.05520435e+3, 1.347222e+2, -1471639.4, -1661613.9, -9701.27, 0.0065464033, 0.2646239, -1471145.3, 148604.17, 0.00016041061, 10.001491, 9.998977 
1.05518885e+3, 1.447215e+2, -1387461.6, -1571276.1, -5801.928, 0.032788485, 0.29853013, -1387278.6, 134477.69, 0.000032450233, 10.0014, 9.998966 
1.0551732e+3, 1.5472017e+2, -1312587.3, -1482722.6, -5891.9976, 0.020962795, 0.26820078, -1312383.5, 111385.19, 0.0000008393984, 10.001233, 9.998981 
1.05515756e+3, 1.6471893e+2, -1232564.8, -1393078.8, -8798.281, 0.011565995, 0.24839452, -1232083.9, 93695.5, 0.0, 10.001108, 9.998984 
1.0551418e+3, 1.7471781e+2, -1144923.1, -1298712.6, -8474.244, 0.008347045, 0.23730905, -1144457.6, 83330.664, 0.0, 10.001031, 9.998997 
1.0551262e+3, 1.8471654e+2, -1072850.9, -1236282.4, -12676.91, 0.009126699, 0.2214406, -1071873.4, 57925.254, 0.0, 10.000953, 9.998791 
1.0551106e+3, 1.947151e+2, -986403.7, -1143448.9, -14606.499, 0.013246881, 0.19929424, -985056.75, 46753.74, 0.0, 10.000872, 9.998794 
1.055095e+3, 2.0471352e+2, -902763.44, -1065124.6, -12353.977, 0.016080216, 0.16793914, -901828.8, 31994.686, 0.0, 10.000828, 9.99868 
1.0550793e+3, 2.1471176e+2, -804493.0, -966341.8, -10929.405, 0.018143956, 0.12474921, -803758.3, 32079.48, 0.0, 10.000827, 9.998686 
1.0550636e+3, 2.247102e+2, -711063.44, -870337.56, -9387.683, 0.014274335, 0.09901762, -710512.06, 27339.227, 0.0, 10.000794, 9.998688 
1.0550479e+3, 2.347088e+2, -622172.56, -775761.4, -8391.677, 0.0036579059, 0.091200694, -621715.44, 18148.377, 0.0, 10.000728, 9.998696 
1.0550321e+3, 2.447075e+2, -535743.2, -690584.94, -6005.593, -0.004858903, 0.09582863, -535510.6, 6365.688, 0.0, 10.00068, 9.998631 
1.05501644e+3, 2.547063e+2, -440926.22, -593198.4, -1302.1205, -0.011184881, 0.11281302, -440915.1, 2973.5076, 0.0, 10.000654, 9.998639 
1.0550006e+3, 2.6470482e+2, -362462.25, -539332.06, -3570.0686, -0.019506915, 0.12018425, -362390.22, -16486.35, 0.0, 10.00067, 9.998328 
1.0549848e+3, 2.7470312e+2, -255275.0, -436690.38, -44.03637, -0.030143788, 0.115234524, -255275.0, -7352.759, 0.0, 10.000732, 9.99833 
1.054969e+3, 2.8470156e+2, -175311.19, -378682.2, 12462.786, -0.0353858, 0.1414248, -174550.3, -24610.604, 0.0, 10.000744, 9.99805 
1.0549535e+3, 2.947002e+2, -83615.07, -283293.94, 11158.641, -0.034100458, 0.20060429, -82993.43, -31037.45, 0.0, 10.000698, 9.998054 
1.0549378e+3, 3.046987e+2, 5032.6914, -132855.45, 10788.599, -0.04711952, 0.21237917, 5871.704, 5871.704, 0.0, 10.000616, 9.998791 
1.0549219e+3, 3.1469747e+2, -11047.491, -137345.06, 11234.185, -0.07766379, 0.20924239, -10055.993, -10055.993, 0.0, 10.000492, 9.998819 
1.0652224e+3, 1.2473891e+2, -1520689.0, -1716466.3, 12995.189, 0.07941317, 0.28499207, -1519830.1, 197756.17, 0.00044022893, 10.001745, 9.999147 
1.0652058e+3, 1.3473776e+2, -1463244.0, -1663644.4, -17881.518, 0.005970286, 0.27873424, -1461661.0, 157937.38, 0.0001936281, 10.001575, 9.99892 
1.0651903e+3, 1.4473704e+2, -1383233.9, -1566065.3, -11459.777, 0.028327059, 0.3113514, -1382518.4, 139087.3, 0.00004209593, 10.001416, 9.998993 
1.0651744e+3, 1.5473577e+2, -1307115.3, -1476643.4, -7477.9717, 0.016984433, 0.2862674, -1306786.1, 116830.984, 0.0000013547506, 10.001258, 9.999011 
1.06515855e+3, 1.6473457e+2, -1229428.4, -1391599.1, -5720.9307, 0.008551674, 0.2674896, -1229226.8, 96400.73, 0.0, 10.001131, 9.998982 
1.065143e+3, 1.7473342e+2, -1143766.0, -1298200.9, -6426.345, 0.0066731903, 0.25278533, -1143499.0, 84137.78, 0.0, 10.00104, 9.998995 
1.0651272e+3, 1.847321e+2, -1075096.1, -1238231.5, -10255.4, 0.008908474, 0.23402093, -1074454.0, 55193.566, 0.0, 10.000941, 9.998782 
1.06511146e+3, 1.9473064e+2, -992164.6, -1147001.3, -9347.026, 0.014659304, 0.20976926, -991602.44, 40057.137, 0.0, 10.000836, 9.998786 
1.06509574e+3, 2.0472905e+2, -913381.94, -1065200.8, -3718.1714, 0.01639718, 0.17557436, -913290.94, 20381.531, 0.0, 10.000734, 9.998724 
1.06507994e+3, 2.147273e+2, -829066.2, -972939.6, -1714.8851, 0.014250514, 0.12885007, -829045.75, 6640.4985, 0.0, 10.000636, 9.998732 
1.0650642e+3, 2.2472574e+2, -740133.44, -883195.9, 235.5898, 0.009384141, 0.10204872, -740133.06, -2433.6553, 0.0, 10.000591, 9.998697 
1.0650484e+3, 2.3472437e+2, -639757.5, -783061.9, -313.5413, 0.0014174932, 0.095734976, -639756.8, -44.98926, 0.0, 10.000603, 9.998706 
1.0650327e+3, 2.4472308e+2, -546238.25, -691423.44, -2174.621, -0.005730939, 0.1004915, -546205.7, -4481.531, 0.0, 10.00059, 9.998668 
1.06501706e+3, 2.547219e+2, -453173.9, -594705.9, -4376.2573, -0.012030689, 0.11604218, -453038.72, -9302.41, 0.0, 10.000552, 9.998677 
1.0650012e+3, 2.647206e+2, -375500.44, -537594.4, -8578.788, -0.02112618, 0.12848961, -375047.7, -29297.004, 0.0, 10.000546, 9.998399 
1.0649853e+3, 2.7471903e+2, -272419.38, -436652.84, -7505.5273, -0.033567432, 0.13581966, -272077.1, -24309.729, 0.0, 10.00058, 9.998403 
1.0649696e+3, 2.8471756e+2, -197065.31, -389680.63, 2159.6816, -0.03947792, 0.16574383, -197041.1, -47256.727, 0.0, 10.000597, 9.998044 
1.0649541e+3, 2.9471612e+2, -98534.05, -291108.88, 2928.745, -0.037619032, 0.21917848, -98489.516, -46687.92, 0.0, 10.000599, 9.998047 
1.0649384e+3, 3.0471465e+2, 12637.438, -118301.47, 4109.3774, -0.05286759, 0.22734345, 12766.28, 12766.28, 0.0, 10.000623, 9.998887 
1.06492236e+3, 3.147135e+2, 22283.527, -110052.68, 6646.3174, -0.08871467, 0.2214159, 22616.486, 22616.486, 0.0, 10.000673, 9.9989195 
1.075224e+3, 1.2475456e+2, -1521704.4, -1717893.9, 4647.3447, 0.066992335, 0.31315514, -1521594.4, 195840.42, 0.0005108164, 10.001741, 9.999141 
1.0752075e+3, 1.3475336e+2, -1463159.8, -1663117.0, -24172.617, 0.0138733005, 0.29958752, -1460279.1, 159168.42, 0.00023041679, 10.001573, 9.998926 
1.07519165e+3, 1.4475262e+2, -1377524.9, -1554335.8, -17354.77, 0.031670917, 0.32848567, -1375837.5, 145617.1, 0.000053336094, 10.001415, 9.999075 
1.07517555e+3, 1.547515e+2, -1300895.3, -1464395.9, -13588.291, 0.009532673, 0.30677396, -1299773.6, 123690.87, 0.0000020676762, 10.001259, 9.999094 
1.0751597e+3, 1.6475031e+2, -1230115.4, -1393839.1, -9333.718, 0.0012673867, 0.28607437, -1229585.0, 95889.66, 0.0000000000166348, 10.001134, 9.998967 
1.07514404e+3, 1.7474905e+2, -1144766.8, -1300889.5, -9975.611, 0.011838726, 0.26385662, -1144131.9, 83353.055, 0.0, 10.001042, 9.998976 
1.0751282e+3, 1.847477e+2, -1073039.0, -1234527.8, -14429.345, 0.017395895, 0.24063216, -1071759.8, 57736.19, 0.0, 10.000943, 9.998807 
1.0751123e+3, 1.9474624e+2, -989912.06, -1143012.1, -13458.607, 0.016293239, 0.21524262, -988737.94, 42769.68, 0.0, 10.000838, 9.998813 
1.0750963e+3, 2.0474467e+2, -909360.4, -1057623.8, -7556.3594, 0.011696621, 0.17888486, -908976.25, 24543.756, 0.0, 10.000736, 9.9987755 
1.0750804e+3, 2.1474293e+2, -824992.1, -965339.0, -5481.596, 0.0037202502, 0.12882851, -824778.4, 10754.768, 0.0, 10.000639, 9.998783 
1.0750647e+3, 2.247414e+2, -740462.2, -884669.25, 540.4636, 0.00015332997, 0.10138439, -740460.1, -2914.1284, 0.0, 10.000593, 9.998686 
1.07504904e+3, 2.3474003e+2, -640297.3, -784716.0, 175.7772, 0.0013794946, 0.09755604, -640297.1, -738.6459, 0.0, 10.000605, 9.998694 
1.0750333e+3, 2.447387e+2, -549737.75, -699181.5, -3497.107, -0.005312952, 0.099636406, -549656.0, -8084.3574, 0.0, 10.000592, 9.998614 
1.07501745e+3, 2.5473738e+2, -456697.38, -602531.5, -5659.208, -0.020698449, 0.10641892, -456478.1, -12892.668, 0.0, 10.000553, 9.998623 
1.0750017e+3, 2.6473615e+2, -372838.06, -532533.44, -7201.422, -0.03023138, 0.13081048, -372513.97, -26914.824, 0.0, 10.000547, 9.998433 
1.07498586e+3, 2.7473497e+2, -269582.6, -431106.44, -6006.4277, -0.03359577, 0.1730841, -269359.53, -21746.943, 0.0, 10.00058, 9.998442 
1.0749702e+3, 2.847336e+2, -195564.64, -386802.44, 2546.0557, -0.037841268, 0.20730115, -195530.75, -45901.508, 0.0, 10.000597, 9.998064 
1.0749546e+3, 2.947319e+2, -96972.47, -288070.72, 3323.2297, -0.042528246, 0.23093966, -96914.695, -45265.453, 0.0, 10.000599, 9.998069 
1.07493885e+3, 3.0473047e+2, 21438.152, -100398.02, 6350.6084, -0.060746916, 0.23730299, 21768.277, 21768.277, 0.0, 10.000624, 9.99901 
1.074923e+3, 3.1472972e+2, 31423.982, -91656.55, 9115.841, -0.09564937, 0.25962496, 32095.475, 32095.475, 0.0, 10.000675, 9.999045 
1.0852257e+3, 1.2477015e+2, -1546597.0, -1724889.5, 6608.386, 0.06697327, 0.32475644, -1546352.4, 170930.8, 0.0005868399, 10.001551, 9.999184 
1.08520895e+3, 1.34769e+2, -1478806.0, -1664550.9, -16776.348, 0.018409872, 0.31173143, -1477302.9, 141992.4, 0.00027068684, 10.001441, 9.99898 
1.085193e+3, 1.447683e+2, -1382962.6, -1552382.5, -8676.365, 0.029166566, 0.33849373, -1382519.4, 138782.75, 0.00006622561, 10.00136, 9.999114 
1.0851769e+3, 1.547672e+2, -1292846.8, -1456006.8, -8461.557, 0.008776718, 0.3156054, -1292409.1, 130902.54, 0.000003027, 10.001296, 9.999133 
1.08516075e+3, 1.6476604e+2, -1223477.6, -1391752.8, -6484.047, 0.001601937, 0.29696834, -1223228.1, 102093.44, 0.000000000186287, 10.001185, 9.998956 
1.085145e+3, 1.7476483e+2, -1148300.3, -1303815.1, -6835.994, 0.012322288, 0.28027964, -1148000.4, 79331.38, 0.0, 10.001024, 9.998964 
1.08512916e+3, 1.8476348e+2, -1076707.4, -1233761.3, -9878.546, 0.017918022, 0.25748864, -1076088.5, 53254.24, 0.0, 10.000908, 9.998828 
1.0851131e+3, 1.94762e+2, -988040.8, -1139420.6, -9327.147, 0.016784688, 0.22708794, -987468.25, 43886.12, 0.0, 10.00084, 9.998836 
1.08509704e+3, 2.047604e+2, -901084.25, -1051176.5, -4295.5737, 0.009526326, 0.18762271, -900961.4, 32405.18, 0.0, 10.000783, 9.998796 
1.085081e+3, 2.147587e+2, -808879.94, -954988.5, -4560.053, -0.0040116375, 0.13634555, -808737.75, 26641.447, 0.0, 10.000739, 9.998805 
1.0850653e+3, 2.2475712e+2, -733946.4, -885508.9, -260.97525, -0.0077018416, 0.1082142, -733945.94, 3446.2053, 0.0, 10.000656, 9.99865 
1.08504966e+3, 2.3475575e+2, -653653.1, -795195.44, -2734.0193, -0.0006862731, 0.10446491, -653600.3, -14195.196, 0.0, 10.000531, 9.998657 
1.08503394e+3, 2.4475437e+2, -564084.0, -707511.94, -3391.8743, -0.0055936254, 0.105752595, -564003.8, -22585.121, 0.0, 10.0005, 9.998601 
1.0850181e+3, 2.5475302e+2, -454797.7, -602865.06, -2548.9207, -0.023549847, 0.11046795, -454753.8, -11320.966, 0.0, 10.000572, 9.998611 
1.0850022e+3, 2.647518e+2, -367350.25, -530769.7, -5082.1563, -0.033373732, 0.13807586, -367192.34, -21745.777, 0.0, 10.00059, 9.998425 
1.0849865e+3, 2.7475074e+2, -274705.06, -434320.94, -7533.2827, -0.034491617, 0.18945017, -274350.3, -26890.732, 0.0, 10.000548, 9.998434 
1.0849707e+3, 2.8474936e+2, -203198.81, -382649.84, 523.65924, -0.04069779, 0.22446334, -203197.28, -53721.31, 0.0, 10.000512, 9.998134 
1.0849551e+3, 2.9474765e+2, -109252.81, -285842.25, 5000.381, -0.052041516, 0.23958255, -109111.336, -57615.426, 0.0, 10.000481, 9.99814 
1.0849393e+3, 3.0474627e+2, -2062.7805, -106123.61, 7587.288, -0.06873741, 0.24561664, -1512.4858, -1512.4858, 0.0, 10.000439, 9.99906 
1.0849236e+3, 3.1474566e+2, -6685.7026, -104535.984, 4334.509, -0.09298659, 0.2759178, -6494.071, -6494.071, 0.0, 10.00039, 9.999093 
1.0952273e+3, 1.2478573e+2, -1541014.6, -1712790.0, 428.00436, 0.07810534, 0.32120618, -1541013.5, 176117.69, 0.00066826155, 10.001547, 9.9992695 
1.0952105e+3, 1.3478474e+2, -1472054.3, -1650957.9, -20765.264, 0.01978361, 0.31591436, -1469675.8, 149465.83, 0.00031450897, 10.001441, 9.999073 
1.0951944e+3, 1.4478408e+2, -1382907.3, -1553022.6, -10980.058, 0.021271925, 0.34185293, -1382201.5, 138946.4, 0.000080840386, 10.001362, 9.999109 
1.0951782e+3, 1.547829e+2, -1293137.5, -1457098.5, -10979.828, 0.014230824, 0.31351304, -1292405.5, 130752.69, 0.0000043066148, 10.001297, 9.999126 
1.0951621e+3, 1.6478181e+2, -1224026.6, -1393394.4, -12641.8, 0.008962898, 0.30070332, -1223088.3, 102079.65, 0.0000000006358386, 10.001186, 9.998944 
1.095146e+3, 1.7478076e+2, -1148622.6, -1305299.1, -13073.243, 0.008303749, 0.30180794, -1147539.3, 79637.7, 0.0, 10.001027, 9.998953 
1.09512985e+3, 1.8477947e+2, -1075244.3, -1231612.1, -12705.053, 0.010846736, 0.2840522, -1074218.6, 54968.965, 0.0, 10.000911, 9.998842 
1.0951139e+3, 1.9477792e+2, -986579.25, -1137177.9, -12039.183, 0.016157197, 0.24501148, -985622.9, 45576.85, 0.0, 10.000843, 9.998851 
1.0950979e+3, 2.0477629e+2, -901542.3, -1052808.4, -6149.1436, 0.009738919, 0.20157996, -901292.75, 31919.287, 0.0, 10.000786, 9.998785 
1.0950818e+3, 2.1477458e+2, -809333.44, -956514.3, -6316.5293, -0.009082015, 0.15112221, -809062.8, 26161.625, 0.0, 10.000741, 9.998795 
1.0950658e+3, 2.2477296e+2, -738130.44, -894799.56, -4985.858, -0.014281775, 0.12230561, -737971.94, -734.1996, 0.0, 10.000658, 9.998586 
1.0950502e+3, 2.347715e+2, -657902.6, -804724.1, -7405.876, -0.004796686, 0.116376355, -657530.0, -18278.223, 0.0, 10.000533, 9.998591 
1.0950344e+3, 2.4477011e+2, -562100.8, -704072.44, -687.8576, -0.006592697, 0.11879387, -562097.5, -20832.018, 0.0, 10.000502, 9.998624 
1.0950185e+3, 2.5476882e+2, -452708.13, -599023.7, 369.1066, -0.020658385, 0.12812585, -452707.2, -9428.508, 0.0, 10.000573, 9.998638 
1.0950028e+3, 2.6476756e+2, -371049.88, -538893.06, -6308.743, -0.030651994, 0.15017733, -370813.06, -25519.996, 0.0, 10.000591, 9.998369 
1.09498695e+3, 2.7476627e+2, -278502.63, -442610.38, -8772.888, -0.03636224, 0.18466207, -278034.97, -30726.48, 0.0, 10.000549, 9.998377 
1.0949711e+3, 2.847649e+2, -194981.14, -365863.25, -342.86868, -0.048204344, 0.21701464, -194980.45, -45655.684, 0.0, 10.000512, 9.998249 
1.09495535e+3, 2.9476342e+2, -100775.85, -268390.13, 4224.819, -0.06631979, 0.24518763, -100669.43, -49327.64, 0.0, 10.00048, 9.998261 
1.0949397e+3, 3.0476213e+2, -4303.95, -110840.61, 6116.531, -0.076886944, 0.25223026, -3953.935, -3953.935, 0.0, 10.000438, 9.999028 
1.09492406e+3, 3.147613e+2, -9443.714, -110017.766, 3019.2996, -0.08065658, 0.26920235, -9353.153, -9353.153, 0.0, 10.000388, 9.999058 
1.1052287e+3, 1.2480151e+2, -1553704.4, -1714388.5, 14733.623, 0.07856885, 0.31455782, -1552364.6, 164612.2, 0.00075576623, 10.001442, 9.999309 
1.1052119e+3, 1.3480067e+2, -1464966.0, -1642229.9, -7585.2983, 0.017958086, 0.3200647, -1464642.0, 154343.77, 0.00036234639, 10.001469, 9.999119 
1.1051956e+3, 1.4480005e+2, -1374840.0, -1550223.9, -2200.9497, 0.012527303, 0.34803778, -1374812.5, 146179.52, 0.00009737699, 10.001424, 9.999098 
1.1051794e+3, 1.5479885e+2, -1295710.5, -1459549.9, -3005.4807, 0.014873115, 0.31733894, -1295655.4, 127347.25, 0.0000060098255, 10.0012865, 9.999114 
1.1051632e+3, 1.6479772e+2, -1229800.8, -1400894.9, -7079.186, 0.012730582, 0.30678952, -1229508.4, 95504.32, 0.0000000015512864, 10.001168, 9.9989 
1.105147e+3, 1.7479672e+2, -1144870.8, -1308200.1, -10045.185, 0.008125795, 0.31507686, -1144255.3, 82766.67, 0.0, 10.001075, 9.99891 
1.1051308e+3, 1.8479542e+2, -1066191.4, -1227061.8, -10123.87, 0.00822123, 0.300493, -1065556.8, 63475.855, 0.0, 10.000974, 9.998842 
1.10511474e+3, 1.9479387e+2, -983066.44, -1135158.3, -10570.55, 0.012726875, 0.2602637, -982335.3, 48709.348, 0.0, 10.000867, 9.998852 
1.10509865e+3, 2.047922e+2, -905286.25, -1057497.3, -4956.36, 0.008758726, 0.21445955, -905125.0, 27932.088, 0.0, 10.000773, 9.998758 
1.10508256e+3, 2.1479043e+2, -818252.44, -963654.1, -6470.3403, -0.0040484867, 0.16054136, -817965.06, 17104.863, 0.0, 10.000693, 9.998768 
1.10506654e+3, 2.2478876e+2, -745331.1, -905450.4, -6388.5713, -0.0086215865, 0.13013919, -745076.6, -7992.8413, 0.0, 10.00064, 9.998521 
1.1050507e+3, 2.3478721e+2, -650391.56, -808394.0, -9089.706, -0.00430424, 0.12433422, -649870.4, -10771.787, 0.0, 10.000617, 9.998526 
1.10503495e+3, 2.4478583e+2, -554693.6, -700838.7, -1402.8975, -0.007948012, 0.12923941, -554680.2, -13567.706, 0.0, 10.000555, 9.99862 
1.1050191e+3, 2.5478458e+2, -470481.4, -607662.75, -2661.47, -0.020317093, 0.14369039, -470429.8, -27304.607, 0.0, 10.000453, 9.998636 
1.1050033e+3, 2.647833e+2, -390279.3, -543654.4, -5695.113, -0.030588157, 0.16189425, -390068.13, -44928.48, 0.0, 10.000441, 9.998408 
1.1049874e+3, 2.747819e+2, -279066.2, -438204.38, -916.99274, -0.03870718, 0.18264717, -279060.9, -31905.096, 0.0, 10.000526, 9.998418 
1.10497154e+3, 2.8478056e+2, -184390.89, -353398.56, 7171.37, -0.053749446, 0.21301071, -184087.14, -34915.527, 0.0, 10.000554, 9.998315 
1.1049557e+3, 2.9477927e+2, -90498.95, -255940.28, 7377.843, -0.07594396, 0.252103, -90170.586, -38983.727, 0.0, 10.000519, 9.998327 
1.10494e+3, 3.0477804e+2, -3592.2202, -106894.14, 6833.058, -0.084286235, 0.261331, -3142.198, -3142.198, 0.0, 10.000428, 9.999059 
1.1049243e+3, 3.147772e+2, -22782.428, -112996.305, 8626.988, -0.07894, 0.2697814, -21964.854, -21964.854, 0.0, 10.000283, 9.999087 
1.1152301e+3, 1.248175e+2, -1554385.6, -1715837.6, 13131.913, 0.06919766, 0.30485553, -1553324.5, 163495.23, 0.00085056474, 10.001441, 9.9993 
1.11521326e+3, 1.348168e+2, -1465351.6, -1642871.5, -6710.855, 0.01313869, 0.3242324, -1465098.3, 153729.55, 0.00041499882, 10.001467, 9.999116 
1.1151969e+3, 1.448162e+2, -1376432.8, -1553476.0, -7419.248, 0.0029263552, 0.35689828, -1376122.4, 144711.55, 0.00011616446, 10.001422, 9.999077 
1.1151807e+3, 1.5481499e+2, -1296996.5, -1462685.5, -8488.657, 0.010995549, 0.32673523, -1296562.8, 126282.266, 0.000008247579, 10.001287, 9.999092 
1.11516446e+3, 1.6481382e+2, -1234949.6, -1412313.9, -10904.292, 0.013120085, 0.31505328, -1234281.8, 90574.125, 0.0000000033697685, 10.00117, 9.998822 
1.1151481e+3, 1.748127e+2, -1149995.0, -1319563.0, -13706.162, 0.0115415, 0.32048023, -1148894.3, 77972.1, 0.0, 10.001077, 9.998831 
1.1151318e+3, 1.8481137e+2, -1066967.5, -1229445.5, -14255.812, 0.009731285, 0.3073231, -1065726.1, 63151.344, 0.0, 10.000976, 9.998826 
1.1151155e+3, 1.9480985e+2, -983559.44, -1137184.3, -14683.354, 0.0065628104, 0.2729863, -982168.6, 48720.406, 0.0, 10.00087, 9.998837 
1.11509934e+3, 2.0480816e+2, -907903.5, -1063946.6, -8038.239, 0.0066452576, 0.2262819, -907490.5, 25411.23, 0.0, 10.000776, 9.998713 
1.1150834e+3, 2.1480626e+2, -820934.2, -970113.1, -9526.711, 0.010760481, 0.16476616, -820328.25, 14587.344, 0.0, 10.000696, 9.998723 
1.1150674e+3, 2.248045e+2, -749843.2, -915608.4, -7279.7505, 0.008870995, 0.13188303, -749524.1, -12593.895, 0.0, 10.000643, 9.99845 
1.11505136e+3, 2.3480292e+2, -654926.3, -818465.56, -9880.994, 0.00063825195, 0.12840511, -654331.5, -15385.896, 0.0, 10.000619, 9.998456 
1.1150354e+3, 2.448015e+2, -556838.4, -705870.3, -5032.515, -0.009691062, 0.13710755, -556668.6, -15708.862, 0.0, 10.000557, 9.998586 
1.11501954e+3, 2.5480032e+2, -472558.28, -612513.7, -6296.0996, -0.022555113, 0.15716818, -472275.63, -29303.176, 0.0, 10.000454, 9.998603 
1.1150037e+3, 2.64799e+2, -380749.16, -524377.6, -2308.9658, -0.03322356, 0.17323513, -380712.06, -35725.63, 0.0, 10.000442, 9.998541 
1.1149879e+3, 2.7479768e+2, -269291.9, -418351.0, 2698.5586, -0.041577112, 0.18342969, -269243.06, -22241.432, 0.0, 10.000527, 9.998555 
1.114972e+3, 2.847964e+2, -183600.55, -352125.88, 6365.976, -0.057391208, 0.21247861, -183360.42, -34343.74, 0.0, 10.000554, 9.998323 
1.11495614e+3, 2.947952e+2, -89811.625, -254882.81, 6554.0156, -0.08091346, 0.26034957, -89551.81, -38520.453, 0.0, 10.00052, 9.998335 
1.1149403e+3, 3.0479404e+2, 2960.7373, -93592.13, 1823.1738, -0.09106201, 0.27300644, 2995.1514, 2995.1514, 0.0, 10.000428, 9.999151 
1.11492455e+3, 3.1479323e+2, -16361.048, -99565.45, 3834.978, -0.08839496, 0.27758926, -16184.663, -16184.663, 0.0, 10.000281, 9.999181 
1.1252315e+3, 1.24833666e+2, -1559978.8, -1724239.3, 18336.426, 0.06566471, 0.30423254, -1557956.8, 158704.39, 0.0009537465, 10.001429, 9.999248 
1.1252147e+3, 1.3483295e+2, -1479695.9, -1655030.8, -2204.2798, 0.019355372, 0.32611778, -1479668.1, 139001.86, 0.00047316175, 10.001392, 9.999067 
1.1251982e+3, 1.4483237e+2, -1387138.5, -1558396.5, -7468.929, 0.0027341128, 0.36248618, -1386813.4, 133863.0, 0.00013752929, 10.001349, 9.999078 
1.125182e+3, 1.5483128e+2, -1297307.4, -1462452.1, -7352.906, 0.0077847387, 0.34341004, -1296980.8, 125705.85, 0.00001111389, 10.001285, 9.999094 
1.1251655e+3, 1.6483007e+2, -1232200.9, -1411736.9, -6899.223, 0.0112663265, 0.33126467, -1231936.1, 92761.4, 0.0000000061074554, 10.001194, 9.998814 
1.1251492e+3, 1.7482883e+2, -1150819.8, -1320634.1, -4746.852, 0.015495589, 0.32377148, -1150687.1, 76021.93, 0.0, 10.001075, 9.998824 
1.1251328e+3, 1.8482745e+2, -1065272.6, -1232165.5, -1782.6759, 0.014627784, 0.3072391, -1065253.6, 63467.074, 0.0, 10.001004, 9.998793 
1.1251164e+3, 1.9482598e+2, -969236.1, -1133765.5, -3631.1943, 0.007297606, 0.27977255, -969156.06, 61575.895, 0.0, 10.000984, 9.998805 
1.12510026e+3, 2.0482424e+2, -891832.6, -1063421.4, 182.32956, 0.004520822, 0.2354725, -891832.44, 40912.52, 0.0, 10.000919, 9.998648 
1.1250841e+3, 2.1482225e+2, -809824.25, -971977.1, -3084.8835, 0.007139925, 0.17180541, -809765.56, 24994.17, 0.0, 10.000804, 9.998657 
1.125068e+3, 2.2482042e+2, -744138.6, -918756.94, 560.09094, 0.0061704256, 0.1371195, -744136.8, -7361.717, 0.0, 10.000708, 9.998397 
1.125052e+3, 2.3481876e+2, -656734.94, -825025.25, -900.1253, 0.0012911687, 0.13180931, -656730.1, -17939.12, 0.0, 10.000631, 9.998404 
1.125036e+3, 2.448173e+2, -554843.94, -709096.1, 4156.679, -0.009733328, 0.14071074, -554732.06, -13926.464, 0.0, 10.000589, 9.998548 
1.12502e+3, 2.548161e+2, -456465.13, -608961.25, 2238.8857, -0.027470125, 0.1632424, -456432.28, -13613.691, 0.0, 10.000584, 9.998565 
1.12500414e+3, 2.6481482e+2, -364223.16, -514418.7, 3865.2485, -0.039824132, 0.18228891, -364123.75, -19291.273, 0.0, 10.000547, 9.998558 
1.1249884e+3, 2.7481353e+2, -274947.38, -418829.53, -172.45209, -0.04650104, 0.1959266, -274947.16, -28100.078, 0.0, 10.00048, 9.998574 
1.12497255e+3, 2.8481227e+2, -200838.23, -353940.16, -1750.0531, -0.060528453, 0.2240707, -200818.23, -51956.477, 0.0, 10.000409, 9.998381 
1.1249565e+3, 2.948111e+2, -112614.84, -259211.3, 2071.2815, -0.08211581, 0.26644155, -112585.586, -61709.313, 0.0, 10.000336, 9.998393 
1.1249407e+3, 3.0480996e+2, -13932.125, -96189.64, -3568.3694, -0.09492194, 0.27882615, -13777.617, -13777.617, 0.0, 10.00029, 9.9992 
1.1249247e+3, 3.1480926e+2, -13203.228, -92507.766, -5050.8916, -0.09986507, 0.28742057, -12882.832, -12882.832, 0.0, 10.00028, 9.999229 
1.1352329e+3, 1.24850035e+2, -1566945.4, -1738692.9, 13947.762, 0.06747114, 0.3118576, -1565820.1, 150680.89, 0.0010656647, 10.001428, 9.999149 
1.1352163e+3, 1.3484915e+2, -1486283.6, -1668962.4, -3649.352, 0.035660286, 0.3258522, -1486210.8, 132301.05, 0.00053702114, 10.001392, 9.998973 
1.13519974e+3, 1.4484854e+2, -1385844.5, -1556089.0, -9966.043, 0.01109108, 0.36503932, -1385263.1, 135255.6, 0.00016162105, 10.001349, 9.999094 
1.1351832e+3, 1.5484767e+2, -1295851.3, -1459789.1, -10118.337, 0.005070563, 0.36691946, -1295229.1, 127297.95, 0.000014669085, 10.001286, 9.999113 
1.1351667e+3, 1.6484652e+2, -1228172.4, -1403866.8, -11685.723, 0.0072896937, 0.35490716, -1227398.5, 97138.98, 0.000000009421829, 10.001195, 9.998868 
1.1351503e+3, 1.748451e+2, -1146558.3, -1312573.4, -9510.224, 0.01994996, 0.32504472, -1146015.3, 80534.695, 0.0, 10.001078, 9.9988785 
1.1351339e+3, 1.8484364e+2, -1068529.5, -1239708.1, -2828.4768, 0.022697728, 0.30060825, -1068482.9, 60079.113, 0.0, 10.001006, 9.998741 
1.1351174e+3, 1.9484219e+2, -972703.06, -1141510.0, -4542.326, 0.014574351, 0.28086513, -972580.94, 57992.375, 0.0, 10.000986, 9.998752 
1.1351011e+3, 2.0484045e+2, -897801.44, -1076360.3, -4227.579, 0.002239011, 0.24210104, -897701.44, 34885.406, 0.0, 10.00092, 9.998558 
1.1350846e+3, 2.1483842e+2, -815686.8, -984978.5, -7456.665, -0.0144341765, 0.18157808, -815359.0, 19243.41, 0.0, 10.000807, 9.998568 
1.13506846e+3, 2.2483648e+2, -746537.2, -924598.56, -2330.418, -0.0161413, 0.14573444, -746506.7, -9888.238, 0.0, 10.0007105, 9.998356 
1.1350525e+3, 2.3483473e+2, -658983.2, -830424.1, -3692.3623, -0.0022166336, 0.13452144, -658903.75, -20268.922, 0.0, 10.000633, 9.998366 
1.1350365e+3, 2.448332e+2, -557850.6, -715983.1, 4051.3843, -0.008178479, 0.14007205, -557746.94, -17096.94, 0.0, 10.000591, 9.9985 
1.1350205e+3, 2.5483194e+2, -459569.8, -615929.1, 2232.7175, -0.03511265, 0.16195475, -459537.94, -16874.213, 0.0, 10.000585, 9.998516 
1.1350045e+3, 2.6483068e+2, -371236.03, -529422.06, 1633.3422, -0.05043702, 0.18914631, -371219.2, -26541.275, 0.0, 10.000548, 9.998455 
1.13498874e+3, 2.7482948e+2, -282000.4, -433836.13, -2357.2766, -0.053566203, 0.22024165, -281963.84, -35271.516, 0.0, 10.00048, 9.998471 
1.1349729e+3, 2.848282e+2, -193620.61, -339173.47, -4128.708, -0.063228704, 0.24784675, -193503.58, -44796.54, 0.0, 10.000409, 9.998483 
1.1349569e+3, 2.948269e+2, -105199.69, -243885.2, -242.95079, -0.07953333, 0.27035272, -105199.266, -54477.38, 0.0, 10.000335, 9.998499 
1.1349409e+3, 3.048258e+2, -13934.504, -96330.65, -3529.511, -0.0959195, 0.27876785, -13783.59, -13783.59, 0.0, 10.000289, 9.999199 
1.1349248e+3, 3.1482524e+2, -13233.894, -92847.8, -4743.9336, -0.11373201, 0.2994331, -12952.214, -12952.214, 0.0, 10.00028, 9.999228 
1.14523426e+3, 1.2486645e+2, -1563029.8, -1733810.8, 10503.83, 0.058269467, 0.32546836, -1562386.1, 153954.69, 0.0011858052, 10.001443, 9.999175 
1.1452178e+3, 1.3486548e+2, -1483364.4, -1664247.5, 4436.4053, 0.04059447, 0.32866165, -1483255.6, 135096.42, 0.00060623867, 10.0014, 9.999001 
1.145201e+3, 1.4486483e+2, -1390648.0, -1564091.6, -1461.3771, 0.013730017, 0.36425894, -1390635.8, 129723.84, 0.00018835878, 10.001343, 9.999042 
1.1451844e+3, 1.5486401e+2, -1304739.8, -1470006.0, -7245.325, 0.0073800427, 0.37762764, -1304422.8, 117945.26, 0.000018936791, 10.001251, 9.999059 
1.14516795e+3, 1.648629e+2, -1227906.8, -1397297.8, -12124.502, 0.0096146455, 0.3685497, -1227043.3, 97334.875, 0.000000013934886, 10.00117, 9.998924 
1.1451513e+3, 1.7486146e+2, -1138587.3, -1302041.0, -9898.462, 0.02238544, 0.33247143, -1137990.0, 88400.125, 0.0, 10.001104, 9.998938 
1.1451349e+3, 1.8486e+2, -1070065.4, -1244989.9, -1976.5319, 0.026702639, 0.30538172, -1070043.0, 58359.086, 0.0, 10.001017, 9.998699 
1.14511855e+3, 1.9485852e+2, -987821.06, -1153408.8, -3133.9604, 0.02181343, 0.28690726, -987761.75, 42652.324, 0.0, 10.000903, 9.99871 
1.1451021e+3, 2.0485677e+2, -910664.9, -1088539.3, -463.20566, 0.008787525, 0.25225672, -910663.7, 21764.248, 0.0, 10.000859, 9.998504 
1.1450855e+3, 2.1485473e+2, -807713.06, -987018.0, -1239.2394, -0.01279542, 0.1986292, -807704.5, 26739.125, 0.0, 10.000888, 9.998514 
1.1450692e+3, 2.2485276e+2, -729516.1, -921144.1, 3018.3223, -0.017606214, 0.1615531, -729468.6, 6991.5283, 0.0, 10.000849, 9.998312 
1.1450532e+3, 2.3485085e+2, -646624.0, -829013.94, 1093.7124, -0.0048750453, 0.14065641, -646617.44, -8140.0923, 0.0, 10.000739, 9.998324 
1.1450371e+3, 2.4484925e+2, -556455.1, -725691.56, 8689.63, -0.011096801, 0.14373405, -556010.1, -15516.786, 0.0, 10.000647, 9.998405 
1.145021e+3, 2.5484794e+2, -468252.66, -630516.4, 3133.4724, -0.037231203, 0.17047241, -468192.2, -25684.326, 0.0, 10.000571, 9.998423 
1.145005e+3, 2.6484662e+2, -377962.22, -534946.75, 3056.8413, -0.05270628, 0.19957256, -377902.72, -33380.156, 0.0, 10.000513, 9.998433 
1.1449891e+3, 2.7484536e+2, -284385.66, -437104.53, 5040.1133, -0.05703326, 0.2295554, -284219.5, -37682.25, 0.0, 10.000474, 9.998451 
1.1449733e+3, 2.848441e+2, -192056.14, -332688.38, 2664.5933, -0.06662977, 0.25427374, -192005.67, -43453.707, 0.0, 10.000396, 9.998532 
1.14495724e+3, 2.948428e+2, -109924.195, -240250.22, 2158.5632, -0.08151827, 0.2718307, -109888.45, -59321.965, 0.0, 10.0002775, 9.998551 
1.14494115e+3, 3.0484173e+2, -25168.164, -97153.19, 491.78107, -0.10145219, 0.27818385, -25164.805, -25164.805, 0.0, 10.000194, 9.999239 
1.1449249e+3, 3.148412e+2, -30053.236, -96378.445, 2337.722, -0.12802678, 0.29918635, -29970.941, -29970.941, 0.0, 10.000146, 9.999268 
1.1552355e+3, 1.2488294e+2, -1554523.5, -1714962.6, 5461.5205, 0.03883195, 0.344319, -1554337.9, 161842.53, 0.0013130474, 10.001436, 9.999308 
1.15521915e+3, 1.3488196e+2, -1474299.4, -1644671.4, 2484.0933, 0.03506265, 0.33434722, -1474263.1, 143927.31, 0.0006802244, 10.001395, 9.999138 
1.1552024e+3, 1.4488123e+2, -1399448.0, -1581996.9, -5179.4766, 0.01119046, 0.3604549, -1399301.1, 120897.53, 0.00021757523, 10.00134, 9.99892 
1.1551858e+3, 1.5488033e+2, -1313574.9, -1488529.1, -10991.845, 0.014357446, 0.37639207, -1312887.0, 109321.96, 0.000023929451, 10.00125, 9.998933 
1.15516916e+3, 1.6487923e+2, -1223823.4, -1389403.0, -14885.623, 0.017704664, 0.37288085, -1222495.9, 101723.39, 0.000000023716384, 10.001171, 9.998979 
1.1551525e+3, 1.7487794e+2, -1134155.1, -1293565.4, -12589.516, 0.022805806, 0.3457402, -1133167.0, 93062.47, 0.0, 10.001106, 9.998995 
1.155136e+3, 1.8487652e+2, -1072163.1, -1250135.4, -6416.6763, 0.02680297, 0.32090867, -1071932.1, 56308.99, 0.0, 10.001019, 9.998663 
1.15511954e+3, 1.9487494e+2, -989839.9, -1158581.5, -7571.891, 0.029027475, 0.2976612, -989500.75, 40753.332, 0.0, 10.000906, 9.998673 
1.155103e+3, 2.0487319e+2, -911945.7, -1092100.0, 430.1612, 0.023874508, 0.2658456, -911944.7, 20323.549, 0.0, 10.000861, 9.998479 
1.1550865e+3, 2.1487123e+2, -809029.44, -990317.8, -211.31961, 0.011294351, 0.22270717, -809029.2, 25254.19, 0.0, 10.000889, 9.998491 
1.1550702e+3, 2.248692e+2, -732823.2, -928523.9, -1099.6547, 0.0010464914, 0.18432896, -732817.0, 3483.251, 0.0, 10.000851, 9.998261 
1.1550538e+3, 2.3486713e+2, -649810.7, -836311.0, -2995.0684, -0.006832625, 0.15013777, -649762.6, -11443.875, 0.0, 10.000741, 9.998274 
1.1550377e+3, 2.448654e+2, -566250.2, -746680.7, 5990.6846, -0.018405164, 0.15166064, -566051.5, -25715.762, 0.0, 10.0006485, 9.998261 
1.15502164e+3, 2.5486404e+2, -478176.94, -651638.3, 517.53424, -0.033867292, 0.18870288, -478175.4, -35824.332, 0.0, 10.000572, 9.998278 
1.1550056e+3, 2.6486263e+2, -373889.25, -526923.75, 1866.0564, -0.046738293, 0.21345644, -373866.5, -29499.934, 0.0, 10.000514, 9.998488 
1.1549896e+3, 2.7486128e+2, -280186.2, -428737.3, 3966.6604, -0.056977734, 0.22377177, -280080.34, -33698.285, 0.0, 10.000474, 9.998508 
1.15497366e+3, 2.8485996e+2, -192493.48, -333881.53, -1330.243, -0.07087059, 0.2432987, -192480.97, -44084.242, 0.0, 10.000396, 9.998525 
1.1549574e+3, 2.9485875e+2, -110476.055, -241606.64, -1794.7076, -0.08836574, 0.27091837, -110451.49, -60041.13, 0.0, 10.0002775, 9.998542 
1.1549412e+3, 3.0485773e+2, -19794.889, -86153.03, -851.11145, -0.11177973, 0.27704963, -19783.975, -19783.975, 0.0, 10.000193, 9.999315 
1.1549249e+3, 3.1485716e+2, -24717.334, -85319.195, 1188.0997, -0.14283583, 0.2861591, -24694.05, -24694.05, 0.0, 10.000145, 9.999344 
1.1652368e+3, 1.2489926e+2, -1579042.0, -1718576.0, 5535.0684, 0.033388145, 0.34459022, -1578822.9, 137197.98, 0.0014461256, 10.001234, 9.99938 
1.16522044e+3, 1.3489845e+2, -1495442.6, -1646306.1, 1259.924, 0.038323276, 0.3426415, -1495432.1, 122597.086, 0.0007584584, 10.001214, 9.999213 
1.1652036e+3, 1.4489771e+2, -1419494.5, -1591661.8, -5535.591, 0.013146997, 0.3644253, -1419316.8, 100720.625, 0.00024917058, 10.001204, 9.9989195 
1.165187e+3, 1.548967e+2, -1323325.1, -1493355.6, -2932.3745, 0.021701224, 0.37163284, -1323274.6, 98773.97, 0.000029664654, 10.001185, 9.99893 
1.16517045e+3, 1.6489562e+2, -1226934.4, -1390626.6, -4633.523, 0.026509048, 0.36955738, -1226803.4, 97255.53, 0.00000004774233, 10.00115, 9.99898 
1.1651537e+3, 1.7489447e+2, -1135680.0, -1294022.0, -6553.9673, 0.028745785, 0.35451403, -1135409.3, 90658.85, 0.0, 10.001096, 9.998997 
1.165137e+3, 1.8489306e+2, -1070968.3, -1253530.8, -3368.2278, 0.029609453, 0.3335146, -1070906.1, 57173.582, 0.0, 10.001045, 9.998627 
1.1651204e+3, 1.9489141e+2, -978754.4, -1157154.4, -4714.0547, 0.028455276, 0.3055278, -978629.9, 51463.69, 0.0, 10.001, 9.998637 
1.1651039e+3, 2.048896e+2, -907745.0, -1096555.6, 3058.9124, 0.02562291, 0.2747221, -907695.5, 24412.775, 0.0, 10.000919, 9.99842 
1.1650875e+3, 2.1488766e+2, -826270.3, -1004974.94, -389.85873, 0.021346971, 0.23849636, -826269.44, 7854.1333, 0.0, 10.000799, 9.998433 
1.16507106e+3, 2.248856e+2, -749340.9, -940182.4, -1886.8291, 0.0097694155, 0.20123282, -749322.25, -13181.449, 0.0, 10.000754, 9.998227 
1.1650546e+3, 2.3488346e+2, -645772.9, -838054.8, -2811.0437, -0.009491048, 0.16216561, -645731.8, -7572.065, 0.0, 10.000786, 9.99824 
1.16503835e+3, 2.4488162e+2, -555918.9, -747579.8, 7774.0073, -0.025728598, 0.15948409, -555604.06, -15426.631, 0.0, 10.000746, 9.998207 
1.1650221e+3, 2.5488016e+2, -473381.75, -655224.75, 8818.648, -0.038847364, 0.19280455, -472955.06, -30761.387, 0.0, 10.000632, 9.998223 
1.1650061e+3, 2.6487878e+2, -374266.25, -522397.03, 12530.284, -0.049967602, 0.21772543, -373213.78, -29004.592, 0.0, 10.000492, 9.998529 
1.16499e+3, 2.7487746e+2, -299048.97, -433079.06, 13085.98, -0.05914155, 0.23219374, -297783.28, -51559.555, 0.0, 10.000326, 9.998549 
1.1649739e+3, 2.8487617e+2, -215121.19, -344366.72, 8838.842, -0.073533006, 0.24930097, -214519.52, -66281.25, 0.0, 10.00024, 9.998527 
1.16495766e+3, 2.9487488e+2, -116069.69, -243999.94, 8943.144, -0.09312247, 0.2678163, -115447.53, -65194.95, 0.0, 10.000239, 9.998544 
1.1649413e+3, 3.0487388e+2, -16883.371, -81032.34, 8095.852, -0.11661257, 0.2740518, -15877.417, -15877.417, 0.0, 10.000198, 9.999348 
1.16492495e+3, 3.1487343e+2, -27082.688, -82746.49, 6524.8936, -0.14557007, 0.29189217, -26328.072, -26328.072, 0.0, 10.000114, 9.999376 
1.17523804e+3, 1.24915496e+2, -1578685.6, -1717291.1, 1152.1956, 0.040711187, 0.32801065, -1578676.1, 137185.6, 0.0015842223, 10.00123, 9.999392 
1.17522165e+3, 1.3491496e+2, -1494662.8, -1644618.0, 266.918, 0.049476527, 0.35338157, -1494662.3, 123205.61, 0.0008407167, 10.001213, 9.999226 
1.1752048e+3, 1.4491428e+2, -1411978.1, -1576252.0, -6604.6123, 0.019048853, 0.37542656, -1411713.0, 108162.31, 0.0002831922, 10.001203, 9.999026 
1.17518835e+3, 1.549132e+2, -1315568.6, -1477498.1, -4112.045, 0.029302392, 0.36360306, -1315464.3, 106422.37, 0.000036181405, 10.001185, 9.99904 
1.17517166e+3, 1.6491212e+2, -1230526.0, -1398440.6, -7134.674, 0.035996508, 0.3591661, -1230223.5, 93673.43, 0.00000010132158, 10.00115, 9.998927 
1.1751549e+3, 1.7491105e+2, -1139235.9, -1302018.3, -8983.156, 0.03987612, 0.35909116, -1138741.6, 87164.2, 0.0, 10.001097, 9.998941 
1.17513806e+3, 1.8490966e+2, -1073496.9, -1259496.6, -5388.4272, 0.03487484, 0.34336755, -1073340.9, 54576.9, 0.0, 10.001047, 9.998586 
1.1751214e+3, 1.9490792e+2, -981134.56, -1162815.3, -6566.201, 0.020349327, 0.3106081, -980897.56, 49034.89, 0.0, 10.001002, 9.998598 
1.17510475e+3, 2.0490603e+2, -914081.56, -1110509.0, -1474.4845, 0.014500895, 0.2789837, -914070.5, 17877.465, 0.0, 10.000922, 9.998323 
1.1750883e+3, 2.1490404e+2, -832410.7, -1018742.4, -4906.4395, 0.017798321, 0.2462694, -832281.56, 1682.5774, 0.0, 10.000803, 9.998338 
1.17507175e+3, 2.2490196e+2, -750456.06, -943455.7, -625.45654, 0.008850059, 0.21249998, -750454.06, -14472.352, 0.0, 10.000757, 9.998204 
1.1750553e+3, 2.348998e+2, -647014.06, -841269.9, -1464.4675, -0.012826227, 0.17667782, -647003.06, -9002.653, 0.0, 10.000788, 9.998218 
1.175039e+3, 2.4489792e+2, -553587.1, -743217.0, 3706.919, -0.033185, 0.16709682, -553514.7, -13496.211, 0.0, 10.000747, 9.998238 
1.1750226e+3, 2.5489634e+2, -470910.8, -650575.94, 4767.8403, -0.05221492, 0.18287052, -470784.38, -28748.563, 0.0, 10.000633, 9.998256 
1.1750065e+3, 2.6489502e+2, -372701.5, -519558.7, 6588.899, -0.062429804, 0.21253638, -372406.5, -28355.916, 0.0, 10.000493, 9.998549 
1.1749902e+3, 2.7489397e+2, -297611.75, -430374.66, 7213.9707, -0.06361238, 0.25491714, -297220.9, -51158.438, 0.0, 10.000326, 9.998569 
1.17497414e+3, 2.848927e+2, -214563.72, -343427.53, 9178.961, -0.07472723, 0.27230662, -213913.19, -65836.4, 0.0, 10.00024, 9.998534 
1.17495775e+3, 2.9489115e+2, -115549.78, -243104.73, 9422.267, -0.09585272, 0.26244158, -114857.53, -64764.11, 0.0, 10.000239, 9.99855 
1.1749415e+3, 3.0489013e+2, -18205.186, -83969.95, 5488.898, -0.11590352, 0.2692883, -17750.215, -17750.215, 0.0, 10.000197, 9.999328 
1.1749252e+3, 3.1488997e+2, -28406.05, -85720.664, 3936.828, -0.1361084, 0.31675634, -28136.9, -28136.9, 0.0, 10.000114, 9.999356 
1.18523926e+3, 1.2493192e+2, -1596054.6, -1728853.9, 6753.199, 0.042769793, 0.32152244, -1595712.1, 119988.42, 0.0017273793, 10.001126, 9.999361 
1.1852229e+3, 1.3493146e+2, -1504385.3, -1652375.6, 6426.775, 0.053910464, 0.35734344, -1504106.8, 113599.88, 0.0009271282, 10.001161, 9.999197 
1.185206e+3, 1.4493081e+2, -1412598.9, -1568222.1, -4984.7617, 0.018570896, 0.37987688, -1412439.4, 107274.555, 0.00031980837, 10.0011635, 9.9991 
1.1851895e+3, 1.5492982e+2, -1321243.8, -1471678.5, -5413.103, 0.031743854, 0.36795107, -1321049.3, 100674.89, 0.0000435681, 10.00111, 9.999115 
1.1851727e+3, 1.6492873e+2, -1244499.6, -1410008.1, -9405.24, 0.039945826, 0.36402044, -1243966.9, 79767.305, 0.00000019883093, 10.001076, 9.998883 
1.185156e+3, 1.7492764e+2, -1146983.4, -1310534.5, -10661.799, 0.043558605, 0.36490422, -1146291.4, 79452.65, 0.0, 10.001065, 9.998898 
1.1851392e+3, 1.8492624e+2, -1074466.8, -1258094.8, -5536.0283, 0.03835653, 0.35060504, -1074300.0, 53456.07, 0.0, 10.001033, 9.998601 
1.1851223e+3, 1.9492453e+2, -983875.7, -1162051.9, -2849.3677, 0.023868665, 0.31978035, -983830.1, 45940.082, 0.0, 10.000976, 9.998616 
1.1851056e+3, 2.0492262e+2, -913463.6, -1114498.4, 5936.7144, 0.016380511, 0.28600347, -913288.5, 18497.459, 0.0, 10.000945, 9.998284 
1.1850891e+3, 2.1492054e+2, -814336.25, -1014221.44, 6411.155, 0.016272914, 0.2472273, -814130.8, 19672.305, 0.0, 10.000946, 9.9983 
1.18507266e+3, 2.249184e+2, -735476.75, -940250.5, 12248.671, 0.0064824116, 0.2118601, -734746.7, 1074.5298, 0.0, 10.000878, 9.998167 
1.1850561e+3, 2.3491623e+2, -656285.6, -849624.3, 10123.6045, -0.013428762, 0.17869256, -655757.0, -17916.98, 0.0, 10.000742, 9.998182 
1.18503965e+3, 2.4491435e+2, -570952.6, -752985.6, 11364.979, -0.0338109, 0.17256656, -570245.8, -30387.734, 0.0, 10.000635, 9.998223 
1.1850232e+3, 2.549128e+2, -482773.47, -657575.44, 8805.155, -0.054665785, 0.19255728, -482331.06, -40455.9, 0.0, 10.000558, 9.998242 
1.1850069e+3, 2.6491147e+2, -381539.4, -528374.3, 4272.097, -0.066502936, 0.22440358, -381415.22, -37525.1, 0.0, 10.000453, 9.9985075 
1.1849906e+3, 2.749104e+2, -301725.8, -436948.38, -47.415565, -0.069125265, 0.26688883, -301725.78, -55823.09, 0.0, 10.000319, 9.998527 
1.18497424e+3, 2.8490916e+2, -209460.31, -326106.88, 8189.74, -0.0791555, 0.28236905, -208888.13, -60971.5, 0.0, 10.000213, 9.998666 
1.184958e+3, 2.949077e+2, -121458.81, -230893.36, 17816.395, -0.09654595, 0.26850414, -118631.29, -68699.555, 0.0, 10.000135, 9.998684 
1.1849417e+3, 3.0490673e+2, -43798.82, -96219.95, 16271.952, -0.11293243, 0.27499393, -39158.613, -39158.613, 0.0, 10.000023, 9.999328 
1.18492514e+3, 3.1490657e+2, -64016.973, -102904.03, 15853.728, -0.12945098, 0.32479772, -58372.83, -58372.83, 0.0, 9.999871, 9.999354 
1.1952404e+3, 1.24948554e+2, -1600794.4, -1739361.5, 3832.8135, 0.039976217, 0.32395434, -1600688.4, 114848.78, 0.0018763061, 10.001127, 9.9992895 
1.19522415e+3, 1.3494799e+2, -1509244.4, -1662819.5, 7454.972, 0.052154854, 0.35505643, -1508883.4, 108661.66, 0.0010180003, 10.001161, 9.999126 
1.1952072e+3, 1.4494732e+2, -1409845.5, -1562686.6, -7178.937, 0.012269799, 0.37840945, -1409509.1, 110043.586, 0.00035919753, 10.0011635, 9.999139 
1.19519055e+3, 1.5494654e+2, -1318364.0, -1465987.9, -7950.9507, 0.029346649, 0.3838481, -1317937.0, 103623.76, 0.00005194898, 10.00111, 9.999155 
1.19517386e+3, 1.649455e+2, -1247003.6, -1415697.1, -10339.34, 0.03862866, 0.38301802, -1246372.3, 77198.19, 0.00000035173326, 10.001077, 9.998844 
1.19515695e+3, 1.7494425e+2, -1149308.3, -1315969.3, -11371.578, 0.040159274, 0.37177506, -1148536.0, 77046.11, 0.0, 10.001067, 9.99886 
1.1951401e+3, 1.8494283e+2, -1069508.0, -1248446.6, -7900.241, 0.04015503, 0.35536128, -1069159.9, 58434.43, 0.0, 10.001035, 9.998668 
1.1951234e+3, 1.9494127e+2, -978749.25, -1152157.6, -5254.566, 0.038521588, 0.33289036, -978590.2, 51016.625, 0.0, 10.0009775, 9.998683 
1.19510666e+3, 2.0493938e+2, -912320.3, -1112832.3, 5762.567, 0.030676996, 0.29563996, -912154.8, 19467.414, 0.0, 10.000947, 9.998295 
1.1950901e+3, 2.1493714e+2, -813245.4, -1012516.4, 6336.493, 0.016608395, 0.24150886, -813044.06, 20596.36, 0.0, 10.000947, 9.998311 
1.1950735e+3, 2.249349e+2, -739117.94, -948354.4, 7108.724, 0.0026586156, 0.19958982, -738876.7, -3217.3806, 0.0, 10.000879, 9.998112 
1.1950569e+3, 2.349327e+2, -659776.56, -857545.5, 5080.978, -0.011389459, 0.1685022, -659646.1, -21967.504, 0.0, 10.000744, 9.998127 
1.1950403e+3, 2.4493091e+2, -574945.44, -761945.06, 8645.561, -0.027747888, 0.17604646, -574546.56, -34850.348, 0.0, 10.000637, 9.998162 
1.1950238e+3, 2.5492954e+2, -486868.1, -666629.44, 6181.808, -0.046331212, 0.22171606, -486655.75, -44943.92, 0.0, 10.00056, 9.99818 
1.19500734e+3, 2.6492813e+2, -389028.44, -544338.1, -450.98407, -0.062326334, 0.25307596, -389027.13, -45299.06, 0.0, 10.000454, 9.998398 
1.1949909e+3, 2.749267e+2, -309268.97, -452937.56, -4725.0063, -0.075814225, 0.2679583, -309113.75, -63369.063, 0.0, 10.000319, 9.998417 
1.1949743e+3, 2.8492543e+2, -191634.77, -289335.7, 5698.8667, -0.08694986, 0.2794635, -191303.47, -43545.44, 0.0, 10.000213, 9.998919 
1.1949582e+3, 2.9492444e+2, -103533.3, -193759.89, 15383.33, -0.095372975, 0.28618622, -100982.6, -51214.81, 0.0, 10.000134, 9.9989395 
1.1949416e+3, 3.0492362e+2, -43032.344, -94504.2, 11119.137, -0.10789079, 0.29113278, -40733.06, -40733.06, 0.0, 10.000021, 9.999341 
1.1949251e+3, 3.1492323e+2, -63547.99, -101493.99, 10695.265, -0.12581387, 0.31528896, -60741.1, -60741.1, 0.0, 9.999867, 9.999367 
1.20524146e+3, 1.2496523e+2, -1588133.0, -1736099.5, 4039.8013, 0.03060347, 0.32692897, -1588022.8, 127350.84, 0.002031728, 10.001228, 9.999263 
1.2052252e+3, 1.3496462e+2, -1511147.6, -1666286.4, 14709.248, 0.05490829, 0.35562167, -1509765.3, 107616.945, 0.001113559, 10.001161, 9.999103 
1.2052082e+3, 1.4496392e+2, -1419288.6, -1568969.4, -1806.652, 0.013786078, 0.37751406, -1419266.8, 100123.64, 0.0004014388, 10.001107, 9.999122 
1.20519154e+3, 1.5496321e+2, -1328204.8, -1472435.4, -7033.417, 0.028311795, 0.39370742, -1327862.5, 93535.27, 0.000061428385, 10.001051, 9.999139 
1.2051748e+3, 1.6496217e+2, -1254435.4, -1417540.9, -7984.726, 0.037719335, 0.39151558, -1254045.4, 69362.29, 0.00000057087306, 10.0010195, 9.998858 
1.2051581e+3, 1.7496079e+2, -1156441.1, -1317575.3, -5436.7065, 0.04204304, 0.36646932, -1156257.9, 69162.33, 0.0, 10.001011, 9.998877 
1.20514125e+3, 1.8495938e+2, -1075176.3, -1249929.5, -3570.5063, 0.043386053, 0.35002252, -1075103.4, 52328.926, 0.0, 10.000992, 9.998677 
1.2051244e+3, 1.9495797e+2, -980243.1, -1151506.1, -5313.986, 0.04167773, 0.34150544, -980078.44, 49365.22, 0.0, 10.000962, 9.998694 
1.20510764e+3, 2.0495613e+2, -918003.7, -1115359.9, 3120.9382, 0.03471295, 0.30923483, -917954.3, 13504.334, 0.0, 10.000909, 9.998296 
1.20509095e+3, 2.1495385e+2, -830425.06, -1020526.0, 2661.3845, 0.022437243, 0.25104517, -830387.8, 3089.4126, 0.0, 10.000829, 9.998312 
1.20507434e+3, 2.249516e+2, -756244.8, -958068.1, 2519.3752, 0.0072152265, 0.20724958, -756213.4, -20717.072, 0.0, 10.00077, 9.998097 
1.20505765e+3, 2.349494e+2, -662833.3, -860321.25, 3251.3674, -0.0111053875, 0.17647398, -662779.8, -25264.145, 0.0, 10.00073, 9.998115 
1.2050409e+3, 2.4494758e+2, -576330.0, -769369.8, 8004.2925, -0.028402304, 0.18566856, -575998.7, -36465.098, 0.0, 10.000657, 9.9981 
1.2050244e+3, 2.5494617e+2, -492046.66, -675854.6, 5320.996, -0.044556327, 0.23416835, -491892.75, -50343.027, 0.0, 10.000554, 9.998119 
1.2050078e+3, 2.6494467e+2, -391907.0, -542577.1, 1367.3225, -0.060054403, 0.25984588, -391894.6, -48327.996, 0.0, 10.000422, 9.998425 
1.2049911e+3, 2.749431e+2, -316099.8, -452997.56, 7169.625, -0.075105295, 0.26023608, -315725.34, -70141.23, 0.0, 10.000259, 9.998445 
1.2049746e+3, 2.8494197e+2, -198480.33, -281312.22, 18603.55, -0.08556354, 0.27413115, -194493.92, -46897.37, 0.0, 10.000118, 9.999019 
1.20495826e+3, 2.9494128e+2, -116587.33, -188665.47, 16285.809, -0.09105167, 0.30063972, -113078.43, -63474.85, 0.0, 9.999997, 9.99904 
1.20494165e+3, 3.0494052e+2, -54311.973, -92231.31, 7874.969, -0.103313744, 0.30659002, -52741.56, -52741.56, 0.0, 9.999912, 9.999409 
1.20492496e+3, 3.1494e+2, -60079.12, -92054.305, 11464.891, -0.123609655, 0.31170362, -56393.207, -56393.207, 0.0, 9.99986, 9.999434 
1.21524245e+3, 1.2498198e+2, -1587932.0, -1735338.0, -3118.9775, 0.015455349, 0.3305473, -1587866.0, 127343.57, 0.0021936102, 10.001225, 9.9992695 
1.2152264e+3, 1.3498136e+2, -1510453.3, -1664627.6, 11682.033, 0.061740294, 0.35877588, -1509573.1, 107644.76, 0.0012136708, 10.001158, 9.999115 
1.21520944e+3, 1.4498061e+2, -1424307.8, -1579505.1, -4360.88, 0.022365216, 0.37709934, -1424185.4, 95041.56, 0.00044641417, 10.001106, 9.999051 
1.2151926e+3, 1.5497987e+2, -1332937.6, -1482908.5, -9613.542, 0.028448883, 0.39794502, -1332323.9, 88911.22, 0.00007201624, 10.001053, 9.999066 
1.2151758e+3, 1.6497877e+2, -1249751.8, -1408680.5, -8631.893, 0.037181213, 0.3901908, -1249284.3, 73961.125, 0.0000008702971, 10.001021, 9.998919 
1.2151591e+3, 1.7497729e+2, -1151702.0, -1308611.3, -6017.512, 0.048902534, 0.349697, -1151471.5, 73786.47, 0.0, 10.001013, 9.998937 
1.2151422e+3, 1.8497592e+2, -1078055.1, -1256809.4, -4928.91, 0.04787578, 0.3351442, -1077919.4, 49350.51, 0.0, 10.000994, 9.99863 
1.21512525e+3, 1.9497468e+2, -983008.0, -1158214.9, -6611.097, 0.033759598, 0.3458343, -982758.9, 46521.734, 0.0, 10.000965, 9.998648 
1.2151085e+3, 2.0497292e+2, -918502.1, -1117316.8, 4.631834, 0.028917233, 0.3266456, -918502.1, 12793.038, 0.0, 10.000912, 9.9982815 
1.21509194e+3, 2.1497071e+2, -830841.75, -1022283.9, -393.72968, 0.03359888, 0.27535406, -830840.94, 2472.4385, 0.0, 10.000832, 9.9983 
1.2150752e+3, 2.2496848e+2, -754348.75, -954995.94, 1051.7878, 0.019820616, 0.23425797, -754343.25, -19011.098, 0.0, 10.0007715, 9.998117 
1.2150582e+3, 2.3496628e+2, -660855.94, -856986.8, 1877.152, -0.012606037, 0.20215282, -660838.0, -23486.713, 0.0, 10.000731, 9.9981365 
1.2150415e+3, 2.4496435e+2, -580654.7, -778984.3, 4316.8115, -0.035701796, 0.2011818, -580560.75, -41190.492, 0.0, 10.000659, 9.9980345 
1.2150249e+3, 2.5496265e+2, -496428.25, -685464.7, 1757.2781, -0.04935948, 0.22996822, -496411.9, -55023.035, 0.0, 10.000555, 9.998054 
1.2150082e+3, 2.6496112e+2, -380611.03, -519532.78, -4334.277, -0.059745908, 0.24481137, -380475.9, -37069.977, 0.0, 10.0004225, 9.998583 
1.2149914e+3, 2.7495968e+2, -304791.22, -429848.25, 1526.6471, -0.06704391, 0.2436236, -304772.6, -59351.367, 0.0, 10.000259, 9.998604 
1.21497475e+3, 2.849587e+2, -202730.69, -290299.7, 14533.513, -0.07507117, 0.26621443, -200381.63, -52949.14, 0.0, 10.000117, 9.998958 
1.2149583e+3, 2.9495808e+2, -121037.164, -197883.67, 12199.234, -0.08361654, 0.31173667, -119147.05, -69707.62, 0.0, 9.999995, 9.998978 
1.2149417e+3, 3.0495742e+2, -46100.24, -75079.375, 6474.279, -0.099285394, 0.3212954, -44719.586, -44719.586, 0.0, 9.99991, 9.999528 
1.2149248e+3, 3.149569e+2, -51746.23, -74690.68, 10085.935, -0.12322921, 0.3138591, -47943.05, -47943.05, 0.0, 9.999858, 9.999556 
1.2252435e+3, 1.2499874e+2, -1599193.3, -1741599.0, -4846.119, 0.008608725, 0.331359, -1599028.5, 116016.61, 0.0023606704, 10.001153, 9.999261 
1.2252276e+3, 1.3499814e+2, -1525102.9, -1671716.6, 12983.555, 0.06359496, 0.36099505, -1523962.0, 93091.36, 0.0013175874, 10.001059, 9.999114 
1.2252104e+3, 1.4499734e+2, -1437634.1, -1589288.5, -32.862125, 0.022634415, 0.37591013, -1437634.1, 81428.92, 0.0004937232, 10.00103, 9.99902 
1.2251936e+3, 1.5499662e+2, -1336127.9, -1487862.4, -2985.776, 0.026284136, 0.40012345, -1336069.3, 85002.38, 0.000083587045, 10.001046, 9.999035 
1.22517675e+3, 1.6499554e+2, -1241332.0, -1396454.8, -169.85902, 0.03406439, 0.3924873, -1241331.9, 81749.82, 0.0000012652538, 10.001045, 9.998991 
1.22516006e+3, 1.749941e+2, -1144268.0, -1296720.1, 3023.2969, 0.046106957, 0.34885612, -1144208.1, 80885.125, 0.0, 10.00103, 9.99901 
1.2251432e+3, 1.8499269e+2, -1081668.1, -1269908.5, 2115.8345, 0.044857036, 0.33489093, -1081644.4, 45460.832, 0.0, 10.0010195, 9.998527 
1.2251262e+3, 1.949914e+2, -983315.9, -1169557.5, -3795.9802, 0.030126112, 0.3499851, -983238.56, 45878.68, 0.0, 10.001013, 9.998547 
1.2251094e+3, 2.049896e+2, -911643.2, -1115388.8, -1866.4496, 0.02572755, 0.331946, -911626.06, 19506.451, 0.0, 10.000966, 9.998268 
1.2250928e+3, 2.1498734e+2, -824839.44, -1020582.7, -2506.3623, 0.031916402, 0.2784579, -824807.3, 8343.625, 0.0, 10.000879, 9.998288 
1.22507595e+3, 2.2498515e+2, -747256.6, -948493.25, 251.0238, 0.018114772, 0.24032977, -747256.3, -12086.914, 0.0, 10.000809, 9.998144 
1.22505896e+3, 2.3498306e+2, -655876.9, -851444.1, 1137.28, -0.015855242, 0.21651453, -655870.25, -18682.707, 0.0, 10.000753, 9.998164 
1.2250421e+3, 2.4498112e+2, -582347.9, -777688.9, 3172.453, -0.0373045, 0.21390793, -582296.4, -43089.85, 0.0, 10.00064, 9.998052 
1.22502536e+3, 2.5497934e+2, -508030.2, -688896.25, 6619.0186, -0.046175785, 0.2306265, -507788.28, -66562.24, 0.0, 10.000467, 9.998072 
1.2250085e+3, 2.649778e+2, -389308.97, -515240.3, 393.54404, -0.05308053, 0.24272758, -389307.75, -46065.023, 0.0, 10.000327, 9.998658 
1.2249917e+3, 2.7497655e+2, -305515.8, -421718.9, -373.59686, -0.058162488, 0.24839565, -305514.6, -60258.293, 0.0, 10.000219, 9.998679 
1.224975e+3, 2.8497562e+2, -206844.72, -293611.8, 11235.305, -0.06589823, 0.27439466, -205413.5, -58146.46, 0.0, 10.000096, 9.998944 
1.2249582e+3, 2.94975e+2, -127784.61, -202515.97, 12363.961, -0.076151066, 0.31978917, -125792.17, -76517.57, 0.0, 9.999956, 9.998964 
1.2249415e+3, 3.0497435e+2, -47427.195, -71507.33, 8971.945, -0.09440262, 0.32843432, -44451.97, -44451.97, 0.0, 9.999885, 9.999564 
1.2249247e+3, 3.149738e+2, -46790.97, -68020.414, 5965.5645, -0.12161968, 0.31871572, -45229.473, -45229.473, 0.0, 9.999875, 9.999593 
1.2352447e+3, 1.2501556e+2, -1601266.4, -1745958.8, -13462.735, 0.009277606, 0.32961, -1600024.5, 114855.59, 0.0025307094, 10.001152, 9.999232 
1.2352286e+3, 1.3501497e+2, -1525949.3, -1674413.1, 8860.567, 0.06074449, 0.3623105, -1525422.3, 91466.02, 0.0014240493, 10.001061, 9.999095 
1.2352114e+3, 1.4501414e+2, -1437006.3, -1589097.8, 137.40369, 0.015273567, 0.3739247, -1437006.1, 81892.54, 0.00054276333, 10.001034, 9.99902 
1.2351946e+3, 1.5501343e+2, -1335707.3, -1487788.8, -2969.6802, 0.021989632, 0.40040177, -1335649.4, 85257.78, 0.00009593835, 10.001048, 9.999035 
1.23517774e+3, 1.6501243e+2, -1235434.6, -1384986.6, -1353.6191, 0.028449727, 0.3982296, -1235422.4, 87493.87, 0.0000017602412, 10.001047, 9.999069 
1.235161e+3, 1.7501116e+2, -1138277.1, -1285191.0, 1918.1367, 0.034130935, 0.36304447, -1138252.0, 86673.79, 0.0, 10.001032, 9.999088 
1.2351441e+3, 1.8500972e+2, -1092382.4, -1292985.4, 1484.4746, 0.034741066, 0.34841067, -1092371.4, 34567.01, 0.0, 10.001022, 9.998368 
1.2351272e+3, 1.9500814e+2, -994020.06, -1192504.0, -4250.7188, 0.03060643, 0.35386196, -993929.1, 35024.277, 0.0, 10.001015, 9.998388 
1.2351104e+3, 2.0500617e+2, -912503.4, -1117899.8, -5152.1, 0.024930278, 0.32555518, -912374.25, 18596.35, 0.0, 10.000968, 9.998251 
1.2350935e+3, 2.1500379e+2, -825516.6, -1022845.1, -5702.7725, 0.017728841, 0.2610562, -825351.94, 7637.9116, 0.0, 10.000882, 9.998272 
1.23507656e+3, 2.2500163e+2, -744942.06, -944490.25, -1682.6151, 0.0025193421, 0.226131, -744927.9, -9919.93, 0.0, 10.000811, 9.998171 
1.2350597e+3, 2.3499976e+2, -653687.75, -847511.25, -722.84204, -0.020824535, 0.21986046, -653685.06, -16660.46, 0.0, 10.000755, 9.998191 
1.2350428e+3, 2.4499793e+2, -575425.25, -763856.2, -3062.3027, -0.033382475, 0.22389929, -575375.5, -36333.035, 0.0, 10.000641, 9.998147 
1.235026e+3, 2.5499624e+2, -501031.16, -674883.25, 478.23795, -0.035137333, 0.23608027, -501029.84, -59968.52, 0.0, 10.000468, 9.998168 
1.23500906e+3, 2.6499477e+2, -390100.94, -517344.47, -3263.0593, -0.040161442, 0.25355297, -390017.3, -46940.164, 0.0, 10.000328, 9.998644 
1.2349921e+3, 2.7499366e+2, -306437.88, -423965.97, -3934.753, -0.04855545, 0.27462065, -306306.3, -61216.684, 0.0, 10.000219, 9.998664 
1.2349751e+3, 2.849927e+2, -204660.05, -289242.5, 6507.689, -0.05818144, 0.29863754, -204162.28, -57061.8, 0.0, 10.000095, 9.998976 
1.2349584e+3, 2.9499194e+2, -125688.69, -198199.7, 7621.6265, -0.068809375, 0.32451484, -124896.24, -75786.81, 0.0, 9.999955, 9.998995 
1.23494156e+3, 3.0499122e+2, -51330.586, -79602.805, 9261.969, -0.0888096, 0.32776377, -48566.586, -48566.586, 0.0, 9.999883, 9.99951 
1.2349246e+3, 3.149907e+2, -50689.406, -76077.42, 6160.3765, -0.118974425, 0.32612425, -49273.56, -49273.56, 0.0, 9.999873, 9.999538 
1.24524586e+3, 1.2503229e+2, -1605626.6, -1747301.4, -18014.28, 0.012916523, 0.32079613, -1603372.0, 111343.945, 0.002701762, 10.001121, 9.999237 
1.2452296e+3, 1.3503183e+2, -1512153.1, -1665594.5, 11080.424, 0.059292465, 0.36510363, -1511357.1, 105365.82, 0.0015319061, 10.001148, 9.999112 
1.2452124e+3, 1.4503095e+2, -1422519.3, -1582744.8, 3132.735, 0.008628517, 0.37315664, -1422458.0, 96275.64, 0.00059303787, 10.001138, 9.999013 
1.2451956e+3, 1.5503016e+2, -1333401.9, -1487225.9, -1030.7736, 0.016062101, 0.39317653, -1333395.0, 87348.0, 0.00010892868, 10.001068, 9.999029 
1.2451787e+3, 1.6502926e+2, -1236027.5, -1383672.9, -1380.1719, 0.022459062, 0.39735284, -1236014.6, 86736.93, 0.0000023447426, 10.001038, 9.999082 
1.2451619e+3, 1.7502819e+2, -1135371.5, -1282251.9, -3088.557, 0.027246697, 0.38121665, -1135306.5, 89453.016, 0.0, 10.001047, 9.999101 
1.24514505e+3, 1.8502674e+2, -1095073.4, -1299105.5, -3048.552, 0.029962115, 0.36679623, -1095027.9, 31744.426, 0.0, 10.001025, 9.998323 
1.24512814e+3, 1.9502494e+2, -1003324.75, -1201816.4, -946.3167, 0.030911691, 0.35376674, -1003320.25, 25469.012, 0.0, 10.000973, 9.998344 
1.2451113e+3, 2.0502284e+2, -916409.6, -1117370.4, 2334.6404, 0.025958886, 0.31654933, -916382.5, 14424.714, 0.0, 10.000932, 9.998271 
1.2450944e+3, 2.150205e+2, -821179.7, -1018184.2, 4229.5366, 0.0151236765, 0.25279218, -821088.94, 11737.049, 0.0, 10.000902, 9.998293 
1.2450774e+3, 2.250184e+2, -745860.5, -945805.2, 6245.1763, 0.0005744048, 0.22253032, -745665.6, -10821.949, 0.0, 10.00081, 9.998162 
1.2450604e+3, 2.3501658e+2, -668810.5, -855534.25, 4291.88, -0.017702654, 0.22463962, -668711.9, -31851.771, 0.0, 10.000655, 9.998183 
1.2450434e+3, 2.4501483e+2, -591261.0, -769962.25, -3926.5486, -0.028275758, 0.23387536, -591174.75, -52296.98, 0.0, 10.000526, 9.998159 
1.2450265e+3, 2.5501314e+2, -506683.7, -675799.56, -6799.64, -0.0312116, 0.24794741, -506410.75, -65514.273, 0.0, 10.0004225, 9.998183 
1.2450094e+3, 2.6501176e+2, -392263.25, -517238.75, -12123.081, -0.035562064, 0.2671944, -391098.13, -48186.11, 0.0, 10.000309, 9.998652 
1.2449923e+3, 2.7501062e+2, -310784.7, -424831.53, -11193.683, -0.041466005, 0.29004976, -309696.4, -64772.17, 0.0, 10.000186, 9.998673 
1.24497525e+3, 2.8500965e+2, -211521.97, -291921.4, -2150.8662, -0.049788196, 0.3123636, -211464.47, -64529.367, 0.0, 10.000047, 9.99898 
1.24495834e+3, 2.9500884e+2, -134792.45, -201930.3, -3252.6184, -0.06024292, 0.33291563, -134635.23, -85690.875, 0.0, 9.999891, 9.999 
1.2449414e+3, 3.0500808e+2, -58367.336, -81821.734, 5770.574, -0.08190802, 0.33312532, -57024.465, -57024.465, 0.0, 9.99983, 9.999518 
1.24492444e+3, 3.150076e+2, -51394.254, -75205.34, 7275.219, -0.115549795, 0.3299465, -49347.35, -49347.35, 0.0, 9.999865, 9.999548 
1.255247e+3, 1.2504897e+2, -1603464.1, -1743134.9, -21893.88, 0.01938496, 0.3056047, -1600112.6, 114439.56, 0.002872962, 10.001121, 9.999267 
1.2552309e+3, 1.3504875e+2, -1508852.1, -1659141.5, 11683.502, 0.059064843, 0.3692946, -1507949.3, 108607.71, 0.001640651, 10.001149, 9.999157 
1.2552135e+3, 1.4504786e+2, -1423556.9, -1585465.0, 96.772736, 0.002599661, 0.3734728, -1423556.8, 95011.16, 0.0006444068, 10.001139, 9.998994 
1.2551965e+3, 1.5504691e+2, -1334196.6, -1489905.6, -4089.809, 0.008546275, 0.3789037, -1334089.3, 86489.414, 0.00012257921, 10.001071, 9.999009 
1.2551796e+3, 1.6504602e+2, -1239100.4, -1391228.9, -1427.986, 0.016099902, 0.39031586, -1239087.0, 83500.47, 0.0000030126384, 10.001041, 9.999029 
1.255163e+3, 1.7504518e+2, -1138476.1, -1289792.5, -3098.2942, 0.025144858, 0.4031365, -1138412.8, 86181.34, 0.0, 10.001051, 9.999048 
1.2551461e+3, 1.8504375e+2, -1090560.9, -1290773.8, -5307.1226, 0.03014056, 0.38968712, -1090420.3, 36186.406, 0.0, 10.001029, 9.99838 
1.2551291e+3, 1.9504173e+2, -998711.2, -1193297.6, -3098.7144, 0.03097689, 0.34985584, -998661.9, 29962.91, 0.0, 10.000976, 9.998402 
1.2551121e+3, 2.0503962e+2, -912341.8, -1109862.3, 1109.5549, 0.028742516, 0.30511996, -912335.6, 18306.844, 0.0, 10.000935, 9.998322 
1.2550953e+3, 2.1503745e+2, -817177.5, -1010644.44, 3009.5667, 0.02364989, 0.2533609, -817130.7, 15528.71, 0.0, 10.000904, 9.998344 
1.2550783e+3, 2.2503541e+2, -748863.7, -952740.5, 442.07108, 0.0117415115, 0.22912228, -748862.75, -14185.942, 0.0, 10.000812, 9.998114 
1.2550612e+3, 2.3503356e+2, -671748.2, -862367.06, -1394.7203, -0.006743893, 0.23076639, -671738.0, -35043.664, 0.0, 10.000657, 9.998136 
1.2550439e+3, 2.4503177e+2, -596023.9, -780553.0, -7559.2456, -0.02207125, 0.24386156, -595714.7, -57002.004, 0.0, 10.000528, 9.998087 
1.2550269e+3, 2.550301e+2, -511381.5, -686119.1, -10311.323, -0.034417577, 0.2661708, -510775.13, -70043.55, 0.0, 10.000424, 9.998112 
1.2550096e+3, 2.6502866e+2, -390036.9, -513067.16, -16318.736, -0.039293155, 0.28353357, -387909.2, -45161.62, 0.0, 10.00031, 9.998682 
1.2549925e+3, 2.7502742e+2, -308557.7, -420521.25, -15323.655, -0.03696699, 0.29452333, -306498.34, -61737.926, 0.0, 10.000186, 9.998704 
1.2549753e+3, 2.8502646e+2, -213454.05, -296058.03, -7487.0454, -0.040804468, 0.31549323, -212780.92, -66009.68, 0.0, 10.000046, 9.998953 
1.2549582e+3, 2.9502574e+2, -136730.8, -205937.34, -8603.588, -0.050451607, 0.34510735, -135677.25, -86897.48, 0.0, 9.999889, 9.998974 
1.2549412e+3, 3.0502498e+2, -53586.05, -71842.03, 7617.4497, -0.07374068, 0.34456137, -50825.15, -50825.15, 0.0, 9.999829, 9.999589 
1.2549244e+3, 3.1502444e+2, -46584.152, -65122.56, 9176.228, -0.111693144, 0.33023322, -42810.3, -42810.3, 0.0, 9.999863, 9.999619 
1.2652482e+3, 1.2506591e+2, -1606662.4, -1747111.1, -13105.46, 0.017519573, 0.30201364, -1605450.0, 108936.08, 0.0030443578, 10.001111, 9.999244 
1.265232e+3, 1.3506569e+2, -1513551.3, -1661619.0, 21299.598, 0.055463076, 0.36630124, -1510548.3, 105842.625, 0.0017503432, 10.001119, 9.999154 
1.2652145e+3, 1.4506474e+2, -1423012.6, -1582175.6, 7260.6147, -0.0024503884, 0.36564115, -1422682.1, 95719.98, 0.00069703115, 10.001131, 9.99902 
1.2651977e+3, 1.5506384e+2, -1323684.9, -1481888.0, 5796.453, 0.0041555483, 0.3729527, -1323472.8, 96939.45, 0.00013704965, 10.001132, 9.999034 
1.2651809e+3, 1.6506296e+2, -1234668.5, -1401228.4, 8795.947, 0.012764203, 0.38925275, -1234205.4, 88215.86, 0.0000037895563, 10.001126, 9.998919 
1.2651639e+3, 1.750621e+2, -1137434.4, -1301478.9, 2650.2908, 0.023440357, 0.40977395, -1137391.6, 87037.48, 0.0, 10.001112, 9.998938 
1.265147e+3, 1.8506062e+2, -1078220.1, -1277558.4, -3361.013, 0.027688948, 0.39645153, -1078163.4, 48278.535, 0.0, 10.001083, 9.998444 
1.2651302e+3, 1.9505861e+2, -984842.9, -1179457.9, -1019.26953, 0.025440216, 0.34936753, -984837.56, 43621.805, 0.0, 10.001042, 9.998464 
1.2651132e+3, 2.0505652e+2, -908895.1, -1110611.6, -376.28857, 0.023610879, 0.3041169, -908894.44, 21582.254, 0.0, 10.00097, 9.998299 
1.2650962e+3, 2.1505438e+2, -824263.75, -1016527.5, -4281.343, 0.022377793, 0.25870156, -824168.44, 8325.134, 0.0, 10.000867, 9.998322 
1.2650791e+3, 2.2505237e+2, -756604.1, -958051.8, -10964.146, 0.013431994, 0.23825444, -756009.1, -21498.02, 0.0, 10.000766, 9.998098 
1.2650618e+3, 2.3505048e+2, -671624.25, -863857.9, -10712.88, -0.002934797, 0.24078053, -671029.06, -34499.984, 0.0, 10.000666, 9.99812 
1.2650445e+3, 2.4504872e+2, -589604.0, -772818.7, -11274.809, -0.017024316, 0.2527969, -588912.75, -50365.273, 0.0, 10.000553, 9.998127 
1.2650272e+3, 2.5504705e+2, -507893.72, -679717.06, -5943.113, -0.029060272, 0.27227148, -507688.4, -67122.38, 0.0, 10.000429, 9.998153 
1.26501e+3, 2.650456e+2, -392085.94, -515026.38, -9947.754, -0.03470273, 0.2890955, -391286.22, -48704.387, 0.0, 10.000301, 9.9986725 
1.2649927e+3, 2.7504444e+2, -311361.78, -422625.4, -12065.813, -0.034186285, 0.30162728, -310068.38, -65473.688, 0.0, 10.000171, 9.998696 
1.2649755e+3, 2.850434e+2, -214220.27, -299214.34, -5866.1396, -0.037084505, 0.3198497, -213817.31, -67211.46, 0.0, 10.000053, 9.998926 
1.2649582e+3, 2.9504257e+2, -129788.836, -205143.73, -7058.0244, -0.043190617, 0.34264553, -129133.45, -80518.43, 0.0, 9.999949, 9.99895 
1.2649411e+3, 3.0504182e+2, -53521.72, -66793.336, 10245.866, -0.0626622, 0.33924147, -47950.492, -47950.492, 0.0, 9.999809, 9.999632 
1.2649243e+3, 3.1504133e+2, -76797.54, -74332.28, 9665.697, -0.096272685, 0.3260824, -65820.94, -65820.94, 0.0, 9.999634, 9.999665 
1.2752491e+3, 1.2508312e+2, -1611872.0, -1758360.3, -18336.479, 0.008281865, 0.3091694, -1609611.6, 104605.484, 0.003216271, 10.001111, 9.9991665 
1.2752329e+3, 1.3508268e+2, -1516722.9, -1669222.8, 20890.395, 0.04873662, 0.35655367, -1513912.9, 102311.23, 0.0018611854, 10.0011215, 9.999101 
1.2752157e+3, 1.4508168e+2, -1418056.9, -1573098.5, 6638.4424, -0.0066157137, 0.3503094, -1417773.3, 100462.516, 0.0007511169, 10.001135, 9.999081 
1.2751988e+3, 1.55081e+2, -1318880.1, -1473149.3, 5138.2803, 0.0026459906, 0.37479627, -1318709.1, 101534.08, 0.0001525157, 10.001137, 9.999093 
1.2751819e+3, 1.650801e+2, -1245861.3, -1425658.6, 7683.933, 0.012188897, 0.39365375, -1245533.5, 76719.3, 0.000004722807, 10.00113, 9.99875 
1.2751651e+3, 1.7507894e+2, -1148606.0, -1325847.9, 1775.5498, 0.022066986, 0.40197623, -1148588.3, 75676.17, 0.0, 10.001116, 9.998769 
1.2751481e+3, 1.8507743e+2, -1073195.9, -1268274.0, -5154.9116, 0.022727484, 0.38809046, -1073059.8, 53218.1, 0.0, 10.001087, 9.998506 
1.275131e+3, 1.9507557e+2, -979812.5, -1170172.5, -2791.332, 0.014511245, 0.3521938, -979771.56, 48521.38, 0.0, 10.001045, 9.998527 
1.2751138e+3, 2.0507354e+2, -915337.9, -1125069.8, -4353.3535, 0.010815728, 0.31301168, -915247.5, 15062.376, 0.0, 10.000974, 9.9981985 
1.275097e+3, 2.150713e+2, -830653.94, -1030819.8, -8145.5737, 0.011631741, 0.26863897, -830323.0, 2005.4496, 0.0, 10.000871, 9.998222 
1.2750797e+3, 2.2506925e+2, -755468.1, -956553.3, -14596.047, 0.0059345746, 0.24990974, -754414.1, -20067.414, 0.0, 10.000769, 9.998108 
1.2750626e+3, 2.3506743e+2, -670378.06, -861904.25, -14238.575, -0.006156574, 0.25456637, -669325.3, -32960.9, 0.0, 10.000668, 9.998134 
1.2750451e+3, 2.4506566e+2, -579169.9, -751692.2, -15643.932, -0.013158583, 0.26059583, -577762.75, -39380.5, 0.0, 10.000554, 9.998272 
1.2750278e+3, 2.55064e+2, -497408.97, -658420.7, -10231.896, -0.015238071, 0.26631892, -496761.34, -56361.383, 0.0, 10.000429, 9.9983 
1.2750104e+3, 2.6506263e+2, -395638.6, -522830.94, -14391.932, -0.021916758, 0.28399065, -394030.47, -51615.406, 0.0, 10.000301, 9.998619 
1.2749928e+3, 2.7506152e+2, -314849.56, -430147.63, -16418.916, -0.033220705, 0.3114142, -312557.03, -68129.71, 0.0, 10.000171, 9.998645 
1.2749755e+3, 2.8506044e+2, -216264.63, -303605.34, -9206.491, -0.03873717, 0.32533157, -215304.72, -68865.484, 0.0, 10.000053, 9.998898 
1.2749583e+3, 2.9505932e+2, -131773.98, -209334.17, -10400.061, -0.03855925, 0.32516325, -130403.66, -81953.15, 0.0, 9.9999485, 9.998922 
1.2749411e+3, 3.050585e+2, -52896.13, -65365.984, 4147.608, -0.048648242, 0.31680787, -51642.6, -51642.6, 0.0, 9.999807, 9.999643 
1.2749241e+3, 3.1505817e+2, -76408.07, -72920.96, 3570.0994, -0.0691727, 0.3171255, -70691.41, -70691.41, 0.0, 9.999629, 9.999678 
1.2852502e+3, 1.2510023e+2, -1613926.6, -1753489.4, -30395.44, 0.013446741, 0.32520914, -1607594.1, 106455.95, 0.0033890037, 10.001074, 9.999217 
1.285234e+3, 1.3509966e+2, -1502323.9, -1653230.1, 22270.42, 0.046868637, 0.35361713, -1499105.9, 116951.664, 0.0019731622, 10.0011835, 9.999181 
1.2852168e+3, 1.4509866e+2, -1401864.0, -1564060.3, 7973.2446, -0.0087386705, 0.34162492, -1401473.0, 116595.92, 0.0008066489, 10.001243, 9.99909 
1.2852e+3, 1.5509818e+2, -1304081.6, -1465036.9, 2255.3406, 0.004462542, 0.3839802, -1304050.1, 116024.8, 0.00016903538, 10.001235, 9.9991 
1.285183e+3, 1.6509728e+2, -1237456.0, -1428054.0, 5891.716, 0.013779254, 0.404505, -1237274.1, 84810.6, 0.00000585612, 10.001217, 9.998691 
1.2851661e+3, 1.7509592e+2, -1141954.5, -1328973.3, 7601.702, 0.019622196, 0.39874378, -1141646.0, 82452.28, 0.0, 10.00119, 9.998711 
1.2851492e+3, 1.8509431e+2, -1062976.5, -1264629.0, 1040.9196, 0.016460277, 0.38023517, -1062971.1, 63141.402, 0.0, 10.001164, 9.998493 
1.285132e+3, 1.950925e+2, -967471.4, -1165447.6, -2464.527, 0.004623946, 0.34910575, -967440.7, 60686.26, 0.0, 10.001137, 9.998514 
1.2851149e+3, 2.0509046e+2, -904406.06, -1123829.1, -7443.965, 0.001020108, 0.31501883, -904153.8, 25990.047, 0.0, 10.001067, 9.998161 
1.2850977e+3, 2.1508826e+2, -820892.2, -1030040.9, -6935.6396, 0.005517207, 0.27596617, -820662.44, 11500.298, 0.0, 10.000956, 9.998186 
1.2850805e+3, 2.2508621e+2, -749339.3, -950211.56, -12417.828, 0.003915107, 0.2578503, -748574.56, -14393.31, 0.0, 10.000797, 9.998137 
1.2850632e+3, 2.3508438e+2, -678987.06, -862423.4, -11011.223, -0.0037459766, 0.2585016, -678328.44, -42129.48, 0.0, 10.000594, 9.998165 
1.2850456e+3, 2.4508268e+2, -590472.1, -745519.0, -12704.817, -0.007144684, 0.26389202, -589437.94, -51221.895, 0.0, 10.000428, 9.998375 
1.2850283e+3, 2.5508115e+2, -509564.13, -652693.5, -10758.721, -0.0063540735, 0.27214536, -508759.9, -68527.695, 0.0, 10.000298, 9.998403 
1.2850107e+3, 2.650798e+2, -411521.03, -531956.7, -14175.772, -0.013247861, 0.28898522, -409875.0, -67628.14, 0.0, 10.0002, 9.998605 
1.284993e+3, 2.7507865e+2, -320982.1, -434469.06, -13646.011, -0.027828991, 0.3123974, -319364.3, -75104.66, 0.0, 10.000135, 9.9986315 
1.2849756e+3, 2.850775e+2, -221743.1, -310855.75, -6474.3433, -0.034171585, 0.32558575, -221275.16, -75003.19, 0.0, 10.000036, 9.998855 
1.2849583e+3, 2.9507643e+2, -141293.16, -218407.02, -8857.764, -0.03238656, 0.32772, -140288.78, -92005.31, 0.0, 9.999904, 9.99888 
1.284941e+3, 3.0507556e+2, -67425.68, -74142.1, 538.1997, -0.038682032, 0.32011202, -67382.83, -67382.83, 0.0, 9.999717, 9.999626 
1.2849239e+3, 3.150752e+2, -99966.445, -85940.3, -2525.1333, -0.05305601, 0.32111666, -85499.54, -85499.54, 0.0, 9.999476, 9.999661 
1.2952514e+3, 1.2511732e+2, -1601932.0, -1729799.9, -31190.893, 0.03186639, 0.34948197, -1594729.3, 119154.984, 0.0035624073, 10.001078, 9.999379 
1.2952352e+3, 1.3511674e+2, -1488234.0, -1625069.9, 25774.143, 0.04931919, 0.35681623, -1483540.3, 132350.25, 0.0020858154, 10.001187, 9.9993725 
1.295218e+3, 1.4511575e+2, -1404389.3, -1570265.9, 7036.361, -0.009023185, 0.33900952, -1404091.3, 113810.18, 0.00086324645, 10.0012455, 9.999046 
1.2952012e+3, 1.551154e+2, -1306809.0, -1471628.1, 1333.0641, 0.009316441, 0.39988902, -1306798.3, 113108.49, 0.0001865044, 10.001238, 9.999054 
1.2951843e+3, 1.6511449e+2, -1234398.9, -1422563.6, 4284.834, 0.017342264, 0.42130935, -1234301.4, 87615.15, 0.0000072252774, 10.00122, 9.998728 
1.2951674e+3, 1.7511302e+2, -1138927.9, -1323442.1, 6152.2705, 0.016112631, 0.3997459, -1138723.0, 85207.61, 0.0, 10.001192, 9.998749 
1.2951502e+3, 1.851113e+2, -1068928.3, -1277652.3, -260.26093, 0.0088812355, 0.37280175, -1068927.9, 57017.81, 0.0, 10.001166, 9.998404 
1.2951331e+3, 1.951094e+2, -973359.4, -1178377.4, -3653.4338, -0.004292819, 0.34038234, -973294.3, 54667.047, 0.0, 10.001139, 9.9984255 
1.2951158e+3, 2.0510738e+2, -902869.56, -1121280.8, -11691.11, -0.005901483, 0.31049037, -902245.5, 27732.867, 0.0, 10.001069, 9.9981785 
1.2950987e+3, 2.1510527e+2, -819322.2, -1027340.8, -11172.62, 0.0037930943, 0.28075612, -818723.8, 13272.598, 0.0, 10.000957, 9.998204 
1.2950812e+3, 2.2510326e+2, -746105.7, -944097.0, -19952.156, 0.0070914277, 0.26208934, -744115.06, -10100.374, 0.0, 10.000798, 9.998179 
1.2950638e+3, 2.3510134e+2, -675575.4, -856072.0, -18389.045, 0.004125496, 0.2528251, -673720.94, -37688.13, 0.0, 10.000596, 9.998208 
1.2950462e+3, 2.4509975e+2, -586145.4, -737282.2, -17247.197, 0.0009245853, 0.2628943, -584202.1, -46153.156, 0.0, 10.00043, 9.998431 
1.2950286e+3, 2.5509846e+2, -505253.28, -644357.2, -15225.915, -0.0024408004, 0.28969127, -503606.2, -63543.195, 0.0, 10.0002985, 9.99846 
1.295011e+3, 2.6509714e+2, -410107.28, -529538.0, -16087.202, -0.00870985, 0.30393007, -407978.3, -65900.85, 0.0, 10.000201, 9.998621 
1.2949933e+3, 2.7509576e+2, -319610.97, -431949.66, -15520.802, -0.018032692, 0.30444047, -317506.03, -73414.02, 0.0, 10.000135, 9.99865 
1.2949757e+3, 2.8509465e+2, -225891.89, -319626.94, -10889.229, -0.023430008, 0.3206651, -224643.52, -78539.16, 0.0, 10.000036, 9.9987955 
1.2949581e+3, 2.9509374e+2, -145499.3, -227131.33, -13298.655, -0.02474279, 0.35079893, -143387.44, -95273.234, 0.0, 9.999902, 9.998822 
1.2949409e+3, 3.050929e+2, -71412.7, -82203.84, -7910.083, -0.032988276, 0.349716, -67233.22, -67233.22, 0.0, 9.999714, 9.999573 
1.2949233e+3, 3.1509238e+2, -104031.9, -93954.53, -10919.351, -0.048489247, 0.33818626, -86967.39, -86967.39, 0.0, 9.999473, 9.999608 
1.3052526e+3, 1.2513417e+2, -1583075.0, -1714062.4, -23020.322, 0.034391735, 0.34248358, -1579147.1, 134572.64, 0.0037353144, 10.001181, 9.999436 
1.3052365e+3, 1.3513379e+2, -1471565.0, -1606512.1, 30663.984, 0.047762007, 0.36090404, -1464924.0, 150799.44, 0.002198173, 10.001258, 9.999465 
1.3052194e+3, 1.4513285e+2, -1399084.1, -1569303.0, 4926.831, -0.0075653465, 0.34412202, -1398941.6, 118792.24, 0.00092024496, 10.00129, 9.999031 
1.3052025e+3, 1.5513249e+2, -1303580.0, -1471722.9, 948.30145, 0.013224021, 0.4045497, -1303574.8, 116165.016, 0.00020472471, 10.001268, 9.999038 
1.3051856e+3, 1.6513158e+2, -1231027.4, -1417128.6, 3352.0662, 0.018812958, 0.4250915, -1230967.1, 90782.4, 0.000008878654, 10.001227, 9.99876 
1.3051684e+3, 1.7513013e+2, -1140453.3, -1320296.5, 4523.193, 0.011063702, 0.4024922, -1140339.6, 83423.34, 0.0, 10.001166, 9.998782 
1.3051514e+3, 1.851284e+2, -1078296.5, -1284266.8, 452.48975, 0.0035386053, 0.37416843, -1078295.5, 47482.566, 0.0, 10.001112, 9.9983835 
1.3051341e+3, 1.9512644e+2, -985448.3, -1186143.4, 1785.5927, -0.004244811, 0.3401363, -985432.44, 42361.758, 0.0, 10.001065, 9.998406 
1.3051169e+3, 2.0512442e+2, -918025.1, -1130130.8, -8505.567, -0.0041867075, 0.31134665, -917684.56, 12126.9375, 0.0, 10.000973, 9.998163 
1.3050994e+3, 2.1512234e+2, -838213.2, -1037755.06, -10685.431, 0.0036761856, 0.28516635, -837642.6, -5812.9673, 0.0, 10.000834, 9.998192 
1.305082e+3, 2.2512035e+2, -753073.5, -937260.2, -20369.613, 0.0065119504, 0.26515713, -750847.7, -17000.066, 0.0, 10.000709, 9.998269 
1.3050643e+3, 2.3511848e+2, -669812.94, -843173.5, -15653.384, 0.0044798874, 0.24997047, -668410.9, -32545.816, 0.0, 10.000593, 9.998298 
1.3050467e+3, 2.4511696e+2, -574934.3, -726718.1, -11949.378, 0.0029747563, 0.26065448, -573999.3, -36118.9, 0.0, 10.000485, 9.998476 
1.305029e+3, 2.5511578e+2, -489547.28, -631645.2, -11049.141, 0.0018992438, 0.29413158, -488693.25, -48799.742, 0.0, 10.000385, 9.998504 
1.3050112e+3, 2.651145e+2, -398314.25, -521179.6, -11652.563, -0.0032415797, 0.3093252, -397218.88, -55311.348, 0.0, 10.000272, 9.998644 
1.3049935e+3, 2.751131e+2, -316877.53, -428151.06, -11043.113, -0.012416138, 0.30527332, -315792.16, -71870.06, 0.0, 10.000145, 9.998671 
1.3049757e+3, 2.8511193e+2, -233326.78, -333732.8, -8648.431, -0.017648872, 0.32239687, -232587.3, -86652.414, 0.0, 10.000031, 9.9987 
1.3049582e+3, 2.9511103e+2, -148276.78, -238830.72, -14105.242, -0.018885389, 0.35879526, -146130.53, -98184.984, 0.0, 9.999928, 9.998729 
1.3049406e+3, 3.0511016e+2, -65449.363, -82876.03, -13349.925, -0.026391622, 0.36189902, -58220.844, -58220.844, 0.0, 9.999772, 9.99954 
1.304923e+3, 3.1510964e+2, -93144.32, -92108.68, -14932.838, -0.04036407, 0.35423255, -77684.69, -77684.69, 0.0, 9.999563, 9.999577 
1.3152537e+3, 1.2515086e+2, -1585228.6, -1720333.0, -24730.857, 0.022679875, 0.3074397, -1580843.9, 132711.89, 0.003906043, 10.001187, 9.999391 
1.3152377e+3, 1.3515088e+2, -1471064.5, -1606911.1, 33057.992, 0.042572267, 0.36591128, -1463447.0, 152108.92, 0.0023090318, 10.001263, 9.999461 
1.3152206e+3, 1.4515e+2, -1398120.8, -1568413.4, 3553.5234, -0.00451956, 0.35620448, -1398046.6, 119519.24, 0.000976971, 10.001293, 9.999036 
1.3152038e+3, 1.5514947e+2, -1302639.1, -1470846.4, -369.5255, 0.016184285, 0.3986839, -1302638.3, 116935.25, 0.00022350362, 10.001272, 9.999043 
1.3151868e+3, 1.6514854e+2, -1228821.6, -1413602.8, 649.1648, 0.01826562, 0.4167985, -1228819.4, 92763.984, 0.000010883257, 10.001231, 9.998784 
1.3151695e+3, 1.7514725e+2, -1138320.3, -1316931.5, 1919.5806, 0.0045269853, 0.40692005, -1138299.6, 85295.47, 0.0, 10.001169, 9.998804 
1.3151523e+3, 1.851456e+2, -1074932.9, -1278136.4, -1599.1107, 0.00029804299, 0.38379425, -1074920.3, 50689.09, 0.0, 10.001115, 9.998425 
1.3151352e+3, 1.9514368e+2, -982356.6, -1180247.5, -248.93378, 0.004301178, 0.3478982, -982356.3, 45269.074, 0.0, 10.001066, 9.998447 
1.3151179e+3, 2.0514163e+2, -921325.94, -1137523.3, -13842.005, 0.0056803105, 0.31728348, -920443.3, 9199.908, 0.0, 10.000974, 9.998113 
1.3151003e+3, 2.1513948e+2, -841016.06, -1044471.7, -15829.204, 0.0050241193, 0.28920755, -839791.9, -8129.48, 0.0, 10.000836, 9.998145 
1.3150826e+3, 2.2513752e+2, -743485.9, -918352.1, -24512.283, 0.0022500928, 0.26715118, -740114.75, -6434.748, 0.0, 10.000711, 9.998399 
1.3150649e+3, 2.3513576e+2, -660289.06, -824267.06, -19692.152, -0.0025584942, 0.24985358, -657957.4, -22261.598, 0.0, 10.000595, 9.998427 
1.3150471e+3, 2.4513426e+2, -572582.56, -722593.8, -15352.81, -0.0009326244, 0.2570897, -571027.44, -33316.906, 0.0, 10.000487, 9.998505 
1.3150294e+3, 2.5513306e+2, -487096.94, -627194.1, -14371.153, 0.0066142697, 0.28556305, -485637.94, -45913.934, 0.0, 10.000387, 9.998534 
1.3150115e+3, 2.6513183e+2, -396655.3, -518222.7, -15903.216, 0.0030576314, 0.30530798, -394609.3, -52871.965, 0.0, 10.000273, 9.998665 
1.3149935e+3, 2.7513063e+2, -315401.75, -425373.66, -15201.068, -0.011060315, 0.3149917, -313339.22, -69589.01, 0.0, 10.000145, 9.998691 
1.3149758e+3, 2.851294e+2, -242949.11, -353870.8, -11822.814, -0.016932175, 0.33074015, -241702.95, -95939.07, 0.0, 10.0000305, 9.998563 
1.3149582e+3, 2.9512817e+2, -157756.7, -258646.73, -17377.533, -0.014916836, 0.35131788, -154847.44, -107069.555, 0.0, 9.999928, 9.998593 
1.3149405e+3, 3.0512726e+2, -66720.84, -85534.13, -20564.508, -0.01896385, 0.35628766, -53513.688, -53513.688, 0.0, 9.99977, 9.999523 
1.3149226e+3, 3.1512693e+2, -94430.37, -94643.49, -21995.78, -0.028836014, 0.36977914, -72540.89, -72540.89, 0.0, 9.999561, 9.999561 
1.3252549e+3, 1.25168e+2, -1561019.5, -1714069.1, -19428.162, 0.017966183, 0.3096595, -1558591.8, 154796.56, 0.004073657, 10.00138, 9.99934 
1.325239e+3, 1.3516806e+2, -1454541.8, -1599713.4, 41516.773, 0.03750135, 0.37368634, -1443507.3, 171880.73, 0.0024175402, 10.001381, 9.999453 
1.325222e+3, 1.4516716e+2, -1386723.3, -1562377.9, 8969.164, -0.004196875, 0.36087805, -1386266.5, 131131.72, 0.0010328876, 10.00137, 9.99904 
1.3252051e+3, 1.5516657e+2, -1293180.4, -1465738.9, 4546.109, 0.015636336, 0.39674786, -1293060.8, 126345.516, 0.00024265106, 10.001336, 9.999047 
1.325188e+3, 1.6516562e+2, -1219295.4, -1405112.3, 4147.5645, 0.016116943, 0.4118835, -1219202.8, 102213.13, 0.000013283229, 10.001281, 9.998817 
1.3251707e+3, 1.7516437e+2, -1130539.3, -1309270.6, 5939.859, 0.0006356467, 0.40265992, -1130342.0, 93085.16, 0.0, 10.001207, 9.998838 
1.3251534e+3, 1.8516277e+2, -1078408.8, -1281063.1, -531.52576, -0.002980369, 0.38394406, -1078407.4, 47033.72, 0.0, 10.001098, 9.998412 
1.3251363e+3, 1.9516093e+2, -1000069.06, -1189885.8, -3391.4575, 0.0037624706, 0.3560516, -1000008.5, 27448.408, 0.0, 10.000951, 9.998436 
1.3251188e+3, 2.051589e+2, -933559.6, -1138018.5, -14830.317, 0.003210216, 0.32668695, -932489.5, -3014.8945, 0.0, 10.000868, 9.998159 
1.3251011e+3, 2.1515675e+2, -836827.44, -1036875.2, -10068.359, -0.003724787, 0.29355446, -836321.94, -4828.1396, 0.0, 10.000843, 9.998194 
1.3250834e+3, 2.2515483e+2, -729016.2, -900965.5, -18509.178, -0.0054908004, 0.26950666, -727046.4, 6464.421, 0.0, 10.000767, 9.99849 
1.3250655e+3, 2.3515317e+2, -646859.56, -807350.6, -16764.465, -0.0026062909, 0.2529261, -645127.06, -9601.779, 0.0, 10.000644, 9.998519 
1.3250476e+3, 2.4515174e+2, -563911.94, -711056.5, -12602.628, 0.00233271, 0.2588308, -562840.3, -25301.105, 0.0, 10.000517, 9.998569 
1.3250297e+3, 2.551506e+2, -482905.6, -617854.44, -9247.502, 0.00914992, 0.28399587, -482274.84, -42722.55, 0.0, 10.000385, 9.998599 
1.3250118e+3, 2.6514938e+2, -393992.3, -516031.6, -9629.875, 0.006160708, 0.3027865, -393237.13, -51671.793, 0.0, 10.000288, 9.998672 
1.3249938e+3, 2.7514818e+2, -303891.34, -418932.25, -10347.56, -0.0061337026, 0.31385064, -302968.03, -59390.082, 0.0, 10.000221, 9.998697 
1.3249758e+3, 2.8514692e+2, -236408.27, -353248.4, -5161.43, -0.010649076, 0.32844874, -236180.7, -90588.914, 0.0, 10.000088, 9.998539 
1.324958e+3, 2.9514563e+2, -164658.81, -264444.53, -2448.7712, -0.007772861, 0.3453522, -164598.75, -116992.38, 0.0, 9.999893, 9.9985695 
1.3249402e+3, 3.051447e+2, -75708.26, -98638.664, -4382.7563, -0.010288204, 0.3514555, -74899.125, -74899.125, 0.0, 9.999748, 9.999443 
1.3249223e+3, 3.151444e+2, -87504.07, -99675.76, -10682.324, -0.017535279, 0.37343988, -81295.625, -81295.625, 0.0, 9.999647, 9.999485 
1.3352564e+3, 1.2518558e+2, -1564902.3, -1723283.0, -23779.72, 0.01975851, 0.34578422, -1561408.9, 151808.27, 0.0042385682, 10.001383, 9.999276 
1.3352403e+3, 1.3518536e+2, -1455056.6, -1601995.1, 40935.75, 0.032407872, 0.3837418, -1444422.0, 170797.39, 0.0025235927, 10.001385, 9.999436 
1.3352233e+3, 1.4518432e+2, -1386422.6, -1562787.5, 7069.173, -0.006493266, 0.35876185, -1386139.8, 131090.69, 0.0010875799, 10.001374, 9.999036 
1.3352063e+3, 1.5518378e+2, -1293047.3, -1466286.9, 2732.1519, 0.011788565, 0.3985109, -1293004.1, 126233.445, 0.00026189684, 10.001338, 9.9990425 
1.3351892e+3, 1.6518281e+2, -1216255.1, -1399339.0, 1007.1101, 0.012465575, 0.4100566, -1216249.6, 104997.51, 0.000016032998, 10.001282, 9.9988575 
1.3351719e+3, 1.751815e+2, -1127834.4, -1303874.6, 2821.2925, -0.00078050233, 0.39019772, -1127789.3, 95469.61, 0.00000000003443261, 10.001206, 9.998876 
1.3351545e+3, 1.8517992e+2, -1083038.8, -1290974.5, -6244.4727, -0.0063629393, 0.3752344, -1082851.4, 42421.52, 0.0, 10.001098, 9.998345 
1.335137e+3, 1.9517818e+2, -1004226.25, -1199324.4, -8897.809, -0.0054732184, 0.36461303, -1003821.25, 23467.205, 0.0, 10.000953, 9.998371 
1.3351195e+3, 2.0517622e+2, -923584.94, -1118243.6, -15728.03, -0.011071597, 0.3393393, -922322.3, 6983.353, 0.0, 10.000871, 9.998295 
1.3351019e+3, 2.1517414e+2, -827044.56, -1017304.7, -11042.493, -0.022207502, 0.29814354, -826405.8, 4918.117, 0.0, 10.000845, 9.998327 
1.335084e+3, 2.2517228e+2, -725181.5, -893666.7, -23018.11, -0.016608886, 0.27221093, -722093.44, 11246.633, 0.0, 10.000769, 9.99854 
1.3350661e+3, 2.351707e+2, -642930.2, -799933.3, -21097.611, 0.004140422, 0.25912857, -640144.56, -4790.815, 0.0, 10.000646, 9.9985695 
1.3350482e+3, 2.4516937e+2, -556863.2, -697171.75, -17142.227, 0.012546803, 0.2658041, -554799.25, -17432.537, 0.0, 10.000519, 9.998664 
1.3350302e+3, 2.551683e+2, -476019.44, -604240.25, -13667.933, 0.0094679855, 0.28933254, -474578.7, -35200.125, 0.0, 10.000387, 9.9986925 
1.335012e+3, 2.6516706e+2, -394705.44, -518029.25, -11546.105, 0.006049058, 0.30165, -393633.75, -52242.063, 0.0, 10.000289, 9.998658 
1.334994e+3, 2.7516574e+2, -304465.47, -420505.94, -12287.246, 0.0022731568, 0.30174062, -303178.66, -59773.09, 0.0, 10.000221, 9.998687 
1.3349761e+3, 2.8516448e+2, -230449.3, -341079.53, -11858.124, 0.0010997765, 0.31546462, -229192.53, -83773.6, 0.0, 10.000088, 9.998624 
1.3349581e+3, 2.951634e+2, -158980.25, -252614.42, -8976.3125, 0.0025339073, 0.34098876, -158127.5, -110696.18, 0.0, 9.999891, 9.998652 
1.33494e+3, 3.051624e+2, -86291.2, -120554.86, -7251.097, -0.00042663637, 0.34735575, -84819.86, -84819.86, 0.0, 9.999746, 9.999294 
1.334922e+3, 3.1516188e+2, -97580.37, -120752.61, -13517.916, -0.006856783, 0.36486405, -91362.77, -91362.77, 0.0, 9.999646, 9.999341 
1.3452578e+3, 1.2520294e+2, -1551901.3, -1719995.3, -29530.744, 0.0208985, 0.3669788, -1546864.3, 166184.23, 0.0044024647, 10.001488, 9.999248 
1.3452415e+3, 1.352027e+2, -1439567.6, -1592155.6, 40791.02, 0.0301248, 0.40080497, -1429347.6, 185703.03, 0.0026278205, 10.001483, 9.999456 
1.3452247e+3, 1.4520162e+2, -1372980.3, -1549168.3, 7792.0527, -0.003054461, 0.3670047, -1372636.3, 144425.34, 0.0011408281, 10.001436, 9.999099 
1.3452077e+3, 1.5520099e+2, -1288210.9, -1457042.6, 7695.95, 0.013269252, 0.39404833, -1287860.8, 131207.78, 0.00028088767, 10.001343, 9.999104 
1.3451904e+3, 1.6520004e+2, -1225392.3, -1401827.6, 5067.2847, 0.012789712, 0.4021659, -1225246.9, 95830.95, 0.000018979208, 10.001211, 9.998874 
1.345173e+3, 1.751988e+2, -1150271.6, -1312713.5, 4981.337, 0.000047048467, 0.38778564, -1150119.1, 72969.85, 0.0000000014653116, 10.001045, 9.998893 
1.3451555e+3, 1.8519723e+2, -1103574.9, -1299658.1, -838.19666, -0.008235638, 0.3739003, -1103571.4, 21531.584, 0.0, 10.000952, 9.998355 
1.345138e+3, 1.9519548e+2, -1007395.1, -1199423.8, 1791.0684, -0.013384731, 0.36012664, -1007378.4, 19740.566, 0.0, 10.000926, 9.998383 
1.3451202e+3, 2.051936e+2, -921550.8, -1111655.5, -4975.4146, -0.01947858, 0.3379762, -921420.7, 7715.1343, 0.0, 10.000861, 9.998343 
1.3451025e+3, 2.1519163e+2, -835872.44, -1015644.44, -6898.1733, -0.02590432, 0.30578312, -835608.1, -4455.14, 0.0, 10.00076, 9.998379 
1.3450848e+3, 2.2518986e+2, -734159.7, -889064.94, -22428.69, -0.015691066, 0.28211904, -730977.6, 2190.6357, 0.0, 10.0006695, 9.998619 
1.3450667e+3, 2.3518834e+2, -645482.56, -791995.1, -18748.723, 0.009567622, 0.26499355, -643121.4, -7940.029, 0.0, 10.00059, 9.998651 
1.3450487e+3, 2.4518703e+2, -553094.7, -686774.2, -14985.766, 0.017195383, 0.26699427, -551435.4, -14241.665, 0.0, 10.000509, 9.998739 
1.3450305e+3, 2.5518596e+2, -465138.34, -590332.1, -13223.909, 0.008452567, 0.28516665, -463756.78, -24551.906, 0.0, 10.000426, 9.998768 
1.3450125e+3, 2.6518476e+2, -388465.97, -509725.84, -9685.034, 0.0066706752, 0.29426464, -387697.28, -46479.76, 0.0, 10.000311, 9.998704 
1.3449945e+3, 2.7518347e+2, -309534.28, -417693.1, -6281.035, 0.011268499, 0.29313678, -309170.75, -65939.61, 0.0, 10.000166, 9.998733 
1.3449761e+3, 2.8518227e+2, -232275.95, -340828.16, -7588.177, 0.010296102, 0.30843762, -231748.1, -86504.04, 0.0, 10.000072, 9.998632 
1.344958e+3, 2.9518124e+2, -139349.52, -242043.52, -10768.586, 0.0043936283, 0.3381228, -138232.45, -90976.6, 0.0, 10.000023, 9.998661 
1.3449399e+3, 3.051802e+2, -67712.82, -119208.18, -9417.172, 0.004232418, 0.34354606, -66044.695, -66044.695, 0.0, 9.999908, 9.999225 
1.3449219e+3, 3.151796e+2, -89690.77, -124140.164, -9815.32, 0.0102343215, 0.35875103, -87090.47, -87090.47, 0.0, 9.999733, 9.999275 
1.3552593e+3, 1.2522013e+2, -1551332.0, -1720250.4, -33240.375, 0.021496082, 0.3748231, -1545026.3, 167855.14, 0.0045679878, 10.0014925, 9.999245 
1.355243e+3, 1.3522013e+2, -1435497.5, -1584668.9, 40054.3, 0.030405382, 0.424414, -1425422.9, 189458.55, 0.0027314809, 10.001486, 9.999507 
1.3552262e+3, 1.4521906e+2, -1364574.9, -1532330.3, 3674.5354, 0.005635227, 0.38474104, -1364494.4, 152397.17, 0.0011927416, 10.001438, 9.999214 
1.355209e+3, 1.5521826e+2, -1279980.9, -1440574.5, 3530.5437, 0.019577693, 0.38374552, -1279903.4, 138995.67, 0.00029931884, 10.001344, 9.999217 
1.3551916e+3, 1.6521733e+2, -1225615.9, -1403069.5, -1672.9816, 0.016716562, 0.38870624, -1225600.1, 95307.62, 0.00002192539, 10.001213, 9.998865 
1.355174e+3, 1.7521627e+2, -1150189.5, -1313630.0, -1552.9496, 0.0028855426, 0.3947983, -1150174.6, 72742.64, 0.0000000068048798, 10.001049, 9.998885 
1.3551563e+3, 1.8521476e+2, -1097624.6, -1288348.3, -2071.9553, -0.008787548, 0.37933755, -1097602.1, 27329.004, 0.0, 10.000956, 9.998432 
1.3551389e+3, 1.9521283e+2, -1001645.56, -1188219.3, 594.6076, -0.020067945, 0.34317765, -1001643.7, 25304.584, 0.0, 10.000928, 9.998459 
1.3551211e+3, 2.05211e+2, -923888.7, -1117085.9, -8848.945, -0.022239432, 0.3233532, -923484.2, 5480.76, 0.0, 10.000862, 9.998307 
1.3551034e+3, 2.1520925e+2, -837858.7, -1020463.6, -10626.632, -0.0154137295, 0.31642073, -837242.4, -6261.4517, 0.0, 10.000761, 9.998346 
1.3550855e+3, 2.2520758e+2, -726621.75, -874257.8, -25106.059, -0.0032699422, 0.29893008, -722469.1, 10526.32, 0.0, 10.000672, 9.99872 
1.3550673e+3, 2.3520604e+2, -637924.94, -777213.5, -21367.748, 0.013624812, 0.27046782, -634720.7, 287.57236, 0.0, 10.000593, 9.998752 
1.3550492e+3, 2.4520472e+2, -548952.75, -679011.3, -17630.809, 0.016349807, 0.26245153, -546605.06, -9584.684, 0.0, 10.000511, 9.998792 
1.3550308e+3, 2.552036e+2, -461016.4, -582477.3, -15854.957, 0.006014691, 0.27159426, -458980.9, -19949.459, 0.0, 10.000427, 9.998822 
1.3550127e+3, 2.652025e+2, -381303.22, -495360.88, -14563.278, 0.007904183, 0.28074005, -379473.1, -38430.01, 0.0, 10.000311, 9.998803 
1.3549946e+3, 2.7520138e+2, -302747.0, -403894.9, -11008.529, 0.020858224, 0.28808182, -301562.72, -58507.855, 0.0, 10.000166, 9.998828 
1.3549763e+3, 2.8520024e+2, -237430.47, -351720.88, -8623.981, 0.016819725, 0.30735368, -236783.4, -91715.91, 0.0, 10.000071, 9.998559 
1.3549578e+3, 2.951991e+2, -144295.45, -252632.19, -11936.182, -0.0026341358, 0.33674964, -142995.94, -95915.555, 0.0, 10.000023, 9.9985895 
1.3549398e+3, 3.05198e+2, -67127.35, -118357.234, -15314.915, 0.0033311134, 0.34009615, -62898.164, -62898.164, 0.0, 9.999908, 9.999231 
1.3549219e+3, 3.1519744e+2, -89017.44, -122907.16, -15513.184, 0.033811007, 0.3558855, -82988.68, -82988.68, 0.0, 9.999732, 9.999285 
1.365261e+3, 1.2523752e+2, -1525885.1, -1713549.3, -27082.182, 0.022597052, 0.38691658, -1522055.0, 190657.08, 0.0047382293, 10.001694, 9.999192 
1.3652445e+3, 1.3523744e+2, -1426947.9, -1580343.3, 44888.656, 0.027884966, 0.43168947, -1414777.5, 199935.1, 0.0028363883, 10.001545, 9.999508 
1.3652277e+3, 1.4523643e+2, -1360580.8, -1519681.6, 4807.3535, 0.0102375215, 0.3915696, -1360435.6, 156286.39, 0.0012438492, 10.00142, 9.99931 
1.3652104e+3, 1.5523572e+2, -1277990.8, -1429124.8, 2895.026, 0.021061746, 0.38891277, -1277935.3, 140792.8, 0.0003170788, 10.001313, 9.99931 
1.3651928e+3, 1.6523477e+2, -1225565.0, -1401379.3, -3696.187, 0.016410869, 0.3889111, -1225487.3, 95249.15, 0.00002472805, 10.001207, 9.9988785 
1.3651751e+3, 1.7523366e+2, -1141495.1, -1307683.4, -2221.5386, 0.0028589985, 0.3874363, -1141465.5, 81281.15, 0.000000016360648, 10.0011015, 9.9989 
1.3651574e+3, 1.8523219e+2, -1086439.4, -1272800.0, 509.5257, -0.008669284, 0.37211764, -1086438.0, 38321.953, 0.0, 10.000989, 9.998522 
1.3651396e+3, 1.9523044e+2, -1003746.7, -1179224.5, 3672.2842, -0.020202303, 0.3429781, -1003669.9, 23105.668, 0.0, 10.000872, 9.998548 
1.3651218e+3, 2.052287e+2, -935485.9, -1117191.6, -3553.7937, -0.021416062, 0.32656163, -935416.4, -6624.8984, 0.0, 10.00076, 9.998355 
1.3651042e+3, 2.1522701e+2, -849864.06, -1020612.7, 505.89197, -0.012425044, 0.3198552, -849862.56, -19055.297, 0.0, 10.000656, 9.998395 
1.365086e+3, 2.2522539e+2, -730566.8, -866706.25, -9654.906, -0.0010548168, 0.3011434, -729885.5, 2935.7927, 0.0, 10.000606, 9.998803 
1.365068e+3, 2.352239e+2, -630503.2, -764164.0, -7691.3643, 0.012253401, 0.27011013, -630062.06, 4771.1533, 0.0, 10.000605, 9.998835 
1.3650496e+3, 2.4522258e+2, -539513.7, -667854.06, -6701.967, 0.015090103, 0.25649023, -539164.7, -2319.8525, 0.0, 10.000549, 9.998849 
1.3650313e+3, 2.5522146e+2, -454636.3, -572917.44, -4883.965, 0.008314665, 0.25712672, -454435.0, -15579.324, 0.0, 10.000445, 9.9988785 
1.3650131e+3, 2.6522037e+2, -376329.3, -493577.9, -8682.832, 0.010766871, 0.26708907, -375689.78, -34822.797, 0.0, 10.00035, 9.9987955 
1.3649948e+3, 2.7521932e+2, -289253.5, -397876.9, -13486.148, 0.02160387, 0.28373393, -287604.2, -44725.88, 0.0, 10.000262, 9.998822 
1.3649765e+3, 2.8521824e+2, -224655.95, -342326.47, -10296.381, 0.01962545, 0.3058147, -223761.8, -78871.055, 0.0, 10.000146, 9.998586 
1.364958e+3, 2.952171e+2, -144840.7, -249757.9, -6226.2114, 0.005848983, 0.3319881, -144472.5, -97568.81, 0.0, 10.000007, 9.998615 
1.3649398e+3, 3.0521604e+2, -69296.22, -118636.08, -7766.583, 0.015246396, 0.33515036, -68102.56, -68102.56, 0.0, 9.999891, 9.999237 
1.3649218e+3, 3.1521553e+2, -79613.22, -117387.125, -8404.498, 0.04774117, 0.35802117, -77827.664, -77827.664, 0.0, 9.999794, 9.999292 
1.3752624e+3, 1.252551e+2, -1532755.5, -1728377.4, -35329.926, 0.024162658, 0.40298948, -1526570.4, 185969.77, 0.0049160505, 10.001695, 9.999091 
1.3752459e+3, 1.3525473e+2, -1430024.4, -1587630.8, 39043.8, 0.022693068, 0.42401752, -1420882.4, 193661.44, 0.0029444871, 10.001548, 9.999457 
1.375229e+3, 1.4525376e+2, -1355114.0, -1509293.3, 333.95682, 0.010993312, 0.3885428, -1355113.3, 161439.38, 0.0012949365, 10.001423, 9.99938 
1.3752116e+3, 1.5525335e+2, -1272624.8, -1418944.8, -1558.0851, 0.018056575, 0.40850234, -1272608.1, 145947.55, 0.0003342444, 10.001316, 9.999379 
1.375194e+3, 1.652524e+2, -1223037.5, -1397025.4, -8043.7866, 0.0121375695, 0.40167373, -1222666.4, 97897.47, 0.000027345353, 10.00121, 9.998908 
1.3751762e+3, 1.7525098e+2, -1138780.1, -1302850.3, -6373.3438, 0.00013358108, 0.36650807, -1138532.9, 84043.625, 0.000000027808229, 10.001103, 9.998933 
1.3751583e+3, 1.8524958e+2, -1079485.1, -1259096.6, -4058.379, -0.007906864, 0.35315305, -1079393.5, 45195.598, 0.0, 10.000991, 9.998615 
1.3751407e+3, 1.9524828e+2, -996662.75, -1165260.9, -868.5091, -0.014192157, 0.3587028, -996658.3, 29942.594, 0.0, 10.000874, 9.998643 
1.3751227e+3, 2.0524669e+2, -926516.9, -1099365.1, -7557.7866, -0.01734225, 0.34652168, -926187.06, 2428.4119, 0.0, 10.000763, 9.998477 
1.3751046e+3, 2.1524487e+2, -840862.2, -1002833.5, -3295.0945, -0.016702749, 0.3162353, -840795.2, -10163.076, 0.0, 10.000658, 9.998517 
1.3750866e+3, 2.2524327e+2, -725828.25, -857813.75, -9500.082, -0.008674108, 0.2893089, -725147.94, 7497.818, 0.0, 10.000608, 9.998863 
1.3750684e+3, 2.3524192e+2, -625918.3, -755450.1, -7479.9487, 0.0055613774, 0.26411852, -625487.8, 9168.536, 0.0, 10.000607, 9.998895 
1.3750502e+3, 2.4524063e+2, -535168.0, -659553.06, -10203.06, 0.013377691, 0.24914478, -534336.6, 2330.5818, 0.0, 10.000551, 9.998906 
1.3750319e+3, 2.552395e+2, -450576.1, -565169.0, -8287.574, 0.015306795, 0.241739, -449979.84, -11302.016, 0.0, 10.000446, 9.998932 
1.3750134e+3, 2.6523837e+2, -384489.78, -511050.47, -11359.197, 0.015143432, 0.253282, -383478.34, -42788.824, 0.0, 10.000351, 9.998676 
1.374995e+3, 2.7523732e+2, -297052.22, -414451.5, -16147.314, 0.013192868, 0.28012982, -294871.78, -52170.027, 0.0, 10.000262, 9.998709 
1.3749766e+3, 2.8523627e+2, -215904.31, -324434.94, -14864.738, 0.018499888, 0.3038566, -213905.22, -69191.07, 0.0, 10.000146, 9.99871 
1.3749583e+3, 2.9523516e+2, -136361.06, -232237.98, -10741.9, 0.030233733, 0.32377365, -135172.3, -88446.12, 0.0, 10.000006, 9.998737 
1.37494e+3, 3.052342e+2, -69577.96, -119359.76, -10508.228, 0.04016754, 0.32870737, -67450.72, -67450.72, 0.0, 9.99989, 9.999233 
1.3749215e+3, 3.1523383e+2, -79595.586, -117856.7, -11155.47, 0.050962638, 0.36607632, -76580.66, -76580.66, 0.0, 9.999795, 9.9992895 
1.3852642e+3, 1.2527268e+2, -1529047.1, -1731864.6, -25714.107, 0.028257161, 0.40087846, -1525837.8, 186530.05, 0.0051032617, 10.001745, 9.999042 
1.3852476e+3, 1.352723e+2, -1420055.0, -1583168.5, 53623.242, 0.019911256, 0.41971892, -1404005.6, 210366.1, 0.003057239, 10.001619, 9.999453 
1.3852306e+3, 1.4527138e+2, -1347937.3, -1509045.6, 12864.706, 0.013822133, 0.3907444, -1346916.5, 169463.8, 0.0013467348, 10.001488, 9.99935 
1.3852128e+3, 1.5527096e+2, -1269953.0, -1420611.5, 3607.308, 0.014698777, 0.41373292, -1269866.6, 148516.81, 0.0003509688, 10.0013485, 9.9993515 
1.3851953e+3, 1.6527e+2, -1214765.0, -1380014.9, -3256.4607, 0.008350897, 0.40162352, -1214700.9, 105690.61, 0.000029813278, 10.001212, 9.999023 
1.3851772e+3, 1.7526858e+2, -1134686.0, -1288214.3, 4174.008, 0.0020119234, 0.35438028, -1134572.6, 87830.87, 0.000000039188958, 10.001079, 9.999045 
1.3851593e+3, 1.8526725e+2, -1084159.5, -1258851.9, 6190.872, -0.003190645, 0.3419393, -1083940.4, 40474.92, 0.0, 10.00095, 9.998636 
1.3851415e+3, 1.952661e+2, -1002219.1, -1165136.1, 3795.4155, -0.009470734, 0.3599595, -1002130.75, 24295.658, 0.0, 10.000824, 9.998667 
1.3851234e+3, 2.0526461e+2, -923941.44, -1084948.3, -4772.345, -0.0133233415, 0.35308313, -923800.1, 4639.8774, 0.0, 10.000725, 9.998593 
1.3851054e+3, 2.1526292e+2, -834332.75, -986483.56, -1155.0096, -0.013908418, 0.32166862, -834323.94, -3868.5322, 0.0, 10.000648, 9.998633 
1.3850872e+3, 2.2526139e+2, -726273.06, -851874.2, -5963.613, -0.008848919, 0.2927619, -725990.5, 6477.865, 0.0, 10.00058, 9.998918 
1.385069e+3, 2.3526004e+2, -634347.94, -753242.6, -4751.2515, 0.0007430524, 0.2648997, -634158.4, 320.24252, 0.0, 10.000523, 9.998949 
1.3850507e+3, 2.452588e+2, -546767.9, -661970.94, -11224.791, 0.010114328, 0.24854296, -545684.44, -9195.389, 0.0, 10.00046, 9.998933 
1.3850324e+3, 2.5525767e+2, -457172.84, -565227.3, -11869.119, 0.019210305, 0.24076627, -455884.47, -17385.344, 0.0, 10.00039, 9.998958 
1.3850138e+3, 2.6525652e+2, -392425.7, -517346.2, -12615.426, 0.020755855, 0.24874203, -391164.4, -50653.32, 0.0, 10.000308, 9.998652 
1.3849953e+3, 2.752554e+2, -305344.66, -420748.13, -10584.964, 0.015484569, 0.26916823, -304381.84, -61857.58, 0.0, 10.0002165, 9.998687 
1.3849767e+3, 2.8525436e+2, -217082.5, -322059.66, -10931.356, 0.022071585, 0.29626474, -215956.28, -71419.734, 0.0, 10.000127, 9.998734 
1.3849583e+3, 2.9525343e+2, -129861.26, -226023.97, -14581.034, 0.039522238, 0.3282243, -127698.97, -81151.44, 0.0, 10.000039, 9.998763 
1.38494e+3, 3.0525243e+2, -53853.805, -109609.39, -14921.976, 0.047529683, 0.33341718, -50111.402, -50111.402, 0.0, 9.99999, 9.99925 
1.3849214e+3, 3.1525204e+2, -51512.984, -101819.55, -14093.39, 0.049408514, 0.3655931, -47833.797, -47833.797, 0.0, 9.999978, 9.9993105 
1.395266e+3, 1.2529033e+2, -1528155.9, -1732315.3, -32119.848, 0.034530766, 0.3823106, -1523221.8, 188972.78, 0.005300489, 10.001754, 9.999036 
1.3952492e+3, 1.3529015e+2, -1416919.9, -1578484.6, 48368.504, 0.019255346, 0.41866893, -1403546.5, 210649.95, 0.0031755816, 10.001626, 9.999482 
1.3952321e+3, 1.4528927e+2, -1356148.3, -1527468.4, 7052.902, 0.018445594, 0.39769745, -1355858.5, 160346.47, 0.0013999565, 10.0014925, 9.999222 
1.3952142e+3, 1.5528858e+2, -1277675.6, -1437840.3, -1903.6304, 0.01092132, 0.40566975, -1277653.0, 140558.27, 0.0003674642, 10.001352, 9.999231 
1.3951963e+3, 1.6528761e+2, -1201020.9, -1352657.3, -8548.892, 0.00499862, 0.38983133, -1200540.5, 119678.57, 0.00003219316, 10.001216, 9.99921 
1.3951783e+3, 1.7528646e+2, -1121387.5, -1261800.0, -1170.4668, 0.008154053, 0.35054004, -1121377.8, 100849.734, 0.00000005013657, 10.001082, 9.999226 
1.3951604e+3, 1.8528518e+2, -1087347.8, -1266517.3, 1192.6489, 0.0051255077, 0.33783865, -1087339.9, 36898.855, 0.0, 10.000953, 9.998583 
1.3951424e+3, 1.9528389e+2, -1005207.7, -1172269.1, -911.48425, -0.006008058, 0.34743986, -1005202.75, 21049.287, 0.0, 10.000827, 9.998618 
1.3951242e+3, 2.0528251e+2, -916065.9, -1069427.4, -7619.4937, -0.009313434, 0.34703976, -915688.25, 12576.775, 0.0, 10.000727, 9.998699 
1.395106e+3, 2.1528113e+2, -826582.6, -971167.9, -3897.8792, -0.0043671927, 0.33584124, -826477.56, 3799.7412, 0.0, 10.000649, 9.998738 
1.3950878e+3, 2.2527969e+2, -722825.5, -845565.56, -7869.3945, -0.0019714017, 0.31088635, -722323.0, 9966.187, 0.0, 10.000583, 9.9989605 
1.3950695e+3, 2.352783e+2, -630892.3, -746965.8, -6512.832, -0.0023187136, 0.27222365, -630528.06, 3772.0574, 0.0, 10.000525, 9.998992 
1.395051e+3, 2.4527703e+2, -546889.9, -663075.4, -13384.776, 0.005290831, 0.2546023, -545367.9, -9057.407, 0.0, 10.000462, 9.998925 
1.3950327e+3, 2.55276e+2, -457185.38, -565966.2, -13942.515, 0.019957487, 0.2540926, -455426.78, -17106.943, 0.0, 10.000391, 9.998953 
1.3950142e+3, 2.652748e+2, -387643.78, -507964.78, -15425.517, 0.027535252, 0.25336763, -385697.66, -45365.66, 0.0, 10.000309, 9.998717 
1.3949955e+3, 2.752735e+2, -300810.7, -411728.84, -13350.152, 0.0285596, 0.2507349, -299226.47, -56880.305, 0.0, 10.000217, 9.99875 
1.394977e+3, 2.8527248e+2, -222773.28, -334190.8, -13484.477, 0.030229563, 0.28306475, -221164.53, -76806.16, 0.0, 10.000127, 9.9986515 
1.3949582e+3, 2.9527178e+2, -135289.5, -237587.89, -17201.11, 0.03295539, 0.34577173, -132474.66, -86106.44, 0.0, 10.000039, 9.998685 
1.3949399e+3, 3.052708e+2, -51186.477, -104553.67, -14657.531, 0.036547348, 0.34954444, -47425.74, -47425.74, 0.0, 9.999991, 9.999286 
1.3949212e+3, 3.152702e+2, -48326.324, -95953.555, -13883.543, 0.043002468, 0.35682473, -44574.723, -44574.723, 0.0, 9.99998, 9.999351 
1.405268e+3, 1.2530853e+2, -1486506.3, -1729332.1, -14763.179, 0.030326106, 0.38462213, -1485612.0, 226404.0, 0.0055082403, 10.002118, 9.998879 
1.4052509e+3, 1.353082e+2, -1393857.4, -1580415.4, 55253.72, 0.01629459, 0.4200605, -1378720.8, 235298.9, 0.0033006065, 10.0018425, 9.999364 
1.4052336e+3, 1.453073e+2, -1340590.9, -1523433.9, 13414.802, 0.024444394, 0.40347835, -1339611.9, 176416.77, 0.0014556336, 10.001616, 9.999189 
1.4052156e+3, 1.5530649e+2, -1267105.4, -1435725.1, 11228.457, 0.007314696, 0.4040454, -1266360.9, 151675.08, 0.00038406154, 10.001439, 9.999204 
1.4051975e+3, 1.6530553e+2, -1188179.5, -1341635.1, 2951.128, -0.00025636706, 0.38792652, -1188122.8, 131920.88, 0.00003454216, 10.001285, 9.999252 
1.4051795e+3, 1.7530449e+2, -1109303.1, -1251283.4, -511.9521, 0.009373844, 0.35564172, -1109301.4, 112749.48, 0.00000006103049, 10.001146, 9.999266 
1.4051613e+3, 1.8530327e+2, -1077775.6, -1255975.5, 224.86687, 0.009829782, 0.3430045, -1077775.4, 46286.184, 0.0, 10.000994, 9.998634 
1.4051431e+3, 1.9530195e+2, -1001021.06, -1164240.1, 5480.9106, -0.0008294578, 0.34612176, -1000837.2, 25237.775, 0.0, 10.000832, 9.99867 
1.405125e+3, 2.0530061e+2, -915544.56, -1060697.3, 2675.0024, -0.003549911, 0.34286064, -915495.25, 12592.326, 0.0, 10.000695, 9.998774 
1.4051066e+3, 2.1529931e+2, -831060.44, -965034.1, 3850.7676, 0.0021079842, 0.33223325, -830949.8, -850.8998, 0.0, 10.000585, 9.998811 
1.4050883e+3, 2.2529796e+2, -730422.4, -846197.75, -337.74634, 0.001275276, 0.30989447, -730421.4, 1688.7539, 0.0, 10.000519, 9.998985 
1.40507e+3, 2.3529662e+2, -634342.25, -745784.8, -713.8389, -0.005739139, 0.27560025, -634337.7, -217.0689, 0.0, 10.000491, 9.999016 
1.4050515e+3, 2.4529538e+2, -549391.6, -664285.8, -9178.893, -0.00032566866, 0.25849846, -548662.94, -12532.021, 0.0, 10.000446, 9.998923 
1.405033e+3, 2.552943e+2, -458128.75, -566291.75, -9721.622, 0.01609419, 0.2550321, -457261.9, -19121.324, 0.0, 10.000385, 9.998952 
1.4050144e+3, 2.652931e+2, -388616.66, -501368.8, -13599.399, 0.027583187, 0.250605, -386999.6, -46846.98, 0.0, 10.000274, 9.998779 
1.4049958e+3, 2.752918e+2, -311218.28, -409826.97, -12044.322, 0.0344725, 0.24344157, -309768.47, -67602.25, 0.0, 10.000117, 9.99881 
1.404977e+3, 2.8529084e+2, -233200.64, -342020.06, -6435.7114, 0.037698466, 0.2776517, -232821.34, -88643.15, 0.0, 10.000069, 9.998625 
1.4049584e+3, 2.952902e+2, -125564.305, -235272.1, -6155.008, 0.037898116, 0.34807345, -125220.06, -79031.94, 0.0, 10.000117, 9.998662 
1.4049399e+3, 3.0528918e+2, -28861.1, -87661.445, -1149.6859, 0.03613716, 0.3495216, -28838.629, -28838.629, 0.0, 10.00012, 9.999339 
1.4049211e+3, 3.1528854e+2, -29269.75, -80023.33, 734.19275, 0.03525687, 0.35159382, -29259.13, -29259.13, 0.0, 10.000083, 9.99941 
1.41527e+3, 1.2532724e+2, -1507255.9, -1772942.6, -26548.867, 0.016455177, 0.40531668, -1504628.9, 207203.44, 0.0057284734, 10.002118, 9.998581 
1.4152527e+3, 1.3532647e+2, -1411789.6, -1618351.6, 44428.65, 0.011212795, 0.42364174, -1402639.0, 211202.17, 0.00343434, 10.001844, 9.999104 
1.4152354e+3, 1.4532548e+2, -1336655.4, -1516142.9, 6125.1978, 0.031693168, 0.40834376, -1336446.6, 179404.45, 0.001515353, 10.001618, 9.999239 
1.4152169e+3, 1.5532473e+2, -1263077.5, -1428423.5, 4209.5273, 0.003803574, 0.40838408, -1262970.4, 154887.1, 0.00040130108, 10.001443, 9.999253 
1.4151987e+3, 1.6532376e+2, -1194664.8, -1356152.8, -2608.3394, -0.0073911864, 0.39511588, -1194622.6, 125242.46, 0.000036934056, 10.001287, 9.999151 
1.4151806e+3, 1.7532268e+2, -1115443.1, -1265010.5, -5931.6167, 0.005943857, 0.36906067, -1115208.3, 106665.09, 0.00000007226826, 10.001149, 9.999171 
1.4151624e+3, 1.8532151e+2, -1067128.3, -1234834.5, -6033.153, 0.01115812, 0.3569028, -1066911.5, 56972.242, 0.0, 10.000997, 9.998779 
1.415144e+3, 1.9532028e+2, -990588.06, -1143549.5, -657.0198, 0.0059147542, 0.35532624, -990585.25, 35310.117, 0.0, 10.0008335, 9.998812 
1.4151257e+3, 2.0531891e+2, -912241.9, -1054891.3, -1490.6381, 0.0037418762, 0.34023473, -912226.3, 15681.478, 0.0, 10.000698, 9.998813 
1.4151073e+3, 2.1531746e+2, -827712.6, -959280.0, -82.52817, 0.005552524, 0.3114852, -827712.56, 2207.7117, 0.0, 10.000588, 9.99885 
1.4150889e+3, 2.2531615e+2, -729748.0, -845864.8, -1032.117, 0.0009774026, 0.29056948, -729738.8, 2192.398, 0.0, 10.000522, 9.998987 
1.4150703e+3, 2.35315e+2, -633886.06, -745596.0, -1379.5107, -0.009520167, 0.27519917, -633869.06, 71.23897, 0.0, 10.000493, 9.999017 
1.4150518e+3, 2.4531378e+2, -549210.7, -664591.56, -10909.739, -0.006792691, 0.260195, -548188.2, -12237.51, 0.0, 10.000447, 9.998921 
1.4150333e+3, 2.5531256e+2, -457830.25, -566384.56, -11500.761, 0.0075943866, 0.24368957, -456625.2, -18663.506, 0.0, 10.000387, 9.998952 
1.4150147e+3, 2.653114e+2, -384728.22, -493914.47, -18832.01, 0.020862386, 0.2406064, -381571.44, -41598.227, 0.0, 10.000275, 9.99883 
1.4149958e+3, 2.753103e+2, -307580.66, -402629.63, -16973.355, 0.033026326, 0.24746518, -304640.6, -62655.902, 0.0, 10.000117, 9.998859 
1.4149772e+3, 2.8530934e+2, -231266.95, -338350.7, -3867.025, 0.04429744, 0.28003946, -231127.48, -87131.06, 0.0, 10.000069, 9.9986515 
1.4149587e+3, 2.953086e+2, -123439.29, -231333.38, -3684.3484, 0.054602105, 0.33474448, -123313.625, -77305.87, 0.0, 10.000118, 9.99869 
1.41494e+3, 3.053076e+2, -23921.387, -77946.586, -1812.9196, 0.046498522, 0.33308265, -23860.62, -23860.62, 0.0, 10.000121, 9.999407 
1.4149211e+3, 3.153072e+2, -24079.262, -69673.555, 96.91476, 0.02562711, 0.35087693, -24079.055, -24079.055, 0.0, 10.000084, 9.999481 
1.425272e+3, 1.2534587e+2, -1505323.1, -1776940.6, -37679.508, 0.011856906, 0.42395514, -1500193.0, 211457.33, 0.005965021, 10.002155, 9.998535 
1.4252543e+3, 1.3534485e+2, -1407586.5, -1619401.6, 49676.145, 0.0034332182, 0.41814443, -1396514.9, 217146.47, 0.0035795863, 10.001888, 9.999074 
1.425237e+3, 1.4534383e+2, -1333055.3, -1519565.1, 18650.004, 0.034935344, 0.40583995, -1331208.6, 184462.67, 0.0015810293, 10.001667, 9.999191 
1.4252184e+3, 1.5534312e+2, -1258842.5, -1431391.9, 9582.914, 0.0041509424, 0.41261727, -1258311.9, 159365.7, 0.00041995206, 10.001495, 9.999207 
1.4252e+3, 1.6534214e+2, -1191673.8, -1358932.4, 2143.64, -0.0073898723, 0.40290895, -1191646.3, 128039.36, 0.000039492217, 10.001328, 9.999112 
1.4251818e+3, 1.7534102e+2, -1115526.0, -1268783.3, 2857.1575, 0.008728837, 0.37825724, -1115472.9, 106221.66, 0.00000008454083, 10.001166, 9.999136 
1.4251633e+3, 1.8533982e+2, -1059477.6, -1220689.1, 2091.9128, 0.014712767, 0.3624417, -1059450.5, 64254.176, 0.0, 10.001006, 9.998871 
1.425145e+3, 1.9533862e+2, -982382.75, -1129125.6, 3464.306, 0.008211814, 0.35244873, -982301.06, 43414.49, 0.0, 10.000847, 9.998903 
1.4251263e+3, 2.0533729e+2, -901762.56, -1042608.4, 4337.5537, 0.004447196, 0.33290842, -901629.1, 26098.055, 0.0, 10.000741, 9.998877 
1.4251079e+3, 2.1533589e+2, -809789.06, -943554.75, 7255.3916, 0.0044867327, 0.30331308, -809396.7, 20342.303, 0.0, 10.000682, 9.998912 
1.4250894e+3, 2.2533461e+2, -724505.7, -844625.4, 5707.9346, 0.0003620977, 0.28478187, -724235.06, 7514.5337, 0.0, 10.000565, 9.998975 
1.4250708e+3, 2.3533352e+2, -648989.0, -754079.94, 3927.7563, -0.0078396965, 0.27477163, -648842.4, -15083.706, 0.0, 10.000396, 9.999004 
1.4250523e+3, 2.453323e+2, -569883.2, -673968.6, -4012.0195, -0.0052579986, 0.2612695, -569728.8, -33959.61, 0.0, 10.000304, 9.998925 
1.4250335e+3, 2.5533107e+2, -473050.47, -572994.75, -4532.8223, 0.0068479166, 0.24270348, -472845.3, -35064.906, 0.0, 10.000281, 9.998957 
1.4250149e+3, 2.6532993e+2, -387465.1, -493209.0, -15346.854, 0.019269677, 0.24162826, -385282.8, -45491.12, 0.0, 10.000249, 9.998847 
1.424996e+3, 2.753289e+2, -293182.53, -393598.38, -16280.797, 0.031856004, 0.2540743, -290608.8, -48806.367, 0.0, 10.000209, 9.998878 
1.4249773e+3, 2.8532797e+2, -217506.72, -327961.97, -1122.6558, 0.045106042, 0.28447986, -217495.31, -73681.234, 0.0, 10.000149, 9.998684 
1.4249589e+3, 2.9532716e+2, -127480.805, -229535.2, -568.86365, 0.058779616, 0.32995483, -127477.63, -81651.8, 0.0, 10.000075, 9.998721 
1.4249401e+3, 3.0532616e+2, -27559.121, -75164.625, 1160.6862, 0.04920597, 0.3280852, -27530.84, -27530.84, 0.0, 10.000077, 9.999446 
1.4249213e+3, 3.1532595e+2, -12030.369, -58902.29, 463.5335, 0.022983765, 0.3612714, -12025.786, -12025.786, 0.0, 10.000147, 9.999524 
1.4352742e+3, 1.2536448e+2, -1493016.3, -1751555.9, -47386.516, 0.015486966, 0.44032094, -1484604.6, 226864.56, 0.006222031, 10.002155, 9.99871 
1.4352562e+3, 1.3536334e+2, -1394947.3, -1594122.1, 39125.9, -0.0069498075, 0.40432477, -1387537.1, 225942.97, 0.0037388622, 10.001891, 9.999248 
1.4352387e+3, 1.4536238e+2, -1342707.5, -1540621.9, 11359.907, 0.034423176, 0.3965195, -1342057.6, 173431.55, 0.0016542807, 10.00167, 9.999046 
1.43522e+3, 1.5536164e+2, -1268365.0, -1451831.9, 2814.9736, 0.008029123, 0.41679108, -1268321.9, 149174.34, 0.00044086375, 10.001496, 9.999066 
1.4352013e+3, 1.6536064e+2, -1190652.4, -1357568.8, -4204.217, -0.0007922962, 0.41130555, -1190546.5, 128958.28, 0.000042391872, 10.001329, 9.999122 
1.435183e+3, 1.7535952e+2, -1114102.8, -1266928.0, -3429.1868, 0.017258426, 0.38348478, -1114025.9, 107488.12, 0.00000010052836, 10.00117, 9.999148 
1.4351644e+3, 1.8535827e+2, -1056188.5, -1215093.3, -4065.7598, 0.0202358, 0.36005506, -1056084.6, 67439.81, 0.0, 10.00101, 9.998908 
1.4351457e+3, 1.9535698e+2, -978981.25, -1123382.3, -2402.261, 0.0062202094, 0.33815196, -978941.3, 46594.03, 0.0, 10.000851, 9.998941 
1.4351271e+3, 2.0535573e+2, -895351.94, -1030479.4, 2194.4294, -0.0011292392, 0.32124382, -895316.3, 32229.436, 0.0, 10.000744, 9.998959 
1.4351085e+3, 2.1535456e+2, -803826.0, -932035.7, 5010.4663, -0.0009230021, 0.30723214, -803630.5, 25924.688, 0.0, 10.000685, 9.99899 
1.43509e+3, 2.2535335e+2, -726390.25, -849356.5, -430.79526, -0.00059528544, 0.2919423, -726388.75, 5176.6895, 0.0, 10.0005665, 9.998941 
1.4350712e+3, 2.3535214e+2, -650762.9, -758709.9, -1881.5573, -0.0009121926, 0.27426973, -650730.06, -17154.154, 0.0, 10.000398, 9.998972 
1.4350526e+3, 2.4535094e+2, -568996.56, -673086.9, -4346.0293, 0.0040186467, 0.26183978, -568815.44, -33228.754, 0.0, 10.000307, 9.998931 
1.435034e+3, 2.5534979e+2, -472372.0, -572374.8, -4855.878, 0.013669573, 0.25203365, -472136.75, -34539.65, 0.0, 10.000282, 9.9989605 
1.4350152e+3, 2.6534867e+2, -388712.06, -496471.75, -16102.489, 0.022663958, 0.25359166, -386357.34, -46748.94, 0.0, 10.00025, 9.998825 
1.4349961e+3, 2.753476e+2, -294424.9, -396764.28, -17016.38, 0.03088224, 0.26320377, -291669.72, -50049.84, 0.0, 10.00021, 9.998856 
1.4349774e+3, 2.8534666e+2, -214894.7, -323055.78, -3224.544, 0.039941348, 0.29099977, -214798.66, -71167.08, 0.0, 10.00015, 9.998717 
1.4349587e+3, 2.953458e+2, -125098.86, -224849.84, -2461.3062, 0.049903903, 0.33393478, -125038.164, -79395.36, 0.0, 10.000075, 9.9987545 
1.4349401e+3, 3.0534488e+2, -27428.293, -75151.85, 4493.2456, 0.043871786, 0.33484897, -27008.932, -27008.932, 0.0, 10.000077, 9.999447 
1.4349213e+3, 3.1534484e+2, -11359.582, -57988.15, 3562.8787, 0.027570615, 0.3838036, -11088.914, -11088.914, 0.0, 10.000147, 9.999531 
1.4452763e+3, 1.2538317e+2, -1486166.9, -1741889.3, -30434.127, 0.016500106, 0.43433064, -1482594.8, 228691.6, 0.006501599, 10.002178, 9.998764 
1.4452581e+3, 1.3538215e+2, -1380388.3, -1581849.1, 44962.78, -0.014463622, 0.4045224, -1370808.8, 242486.98, 0.003913358, 10.001971, 9.999292 
1.4452404e+3, 1.4538126e+2, -1338145.0, -1544907.9, 16117.341, 0.037058286, 0.40490097, -1336896.3, 178407.81, 0.0017359345, 10.001732, 9.998986 
1.4452215e+3, 1.5538032e+2, -1274971.0, -1461435.8, 13727.961, 0.009978062, 0.41306147, -1273965.8, 143347.19, 0.000464682, 10.001481, 9.999007 
1.4452027e+3, 1.6537929e+2, -1198238.6, -1368188.0, 9401.722, -0.00045270415, 0.40836474, -1197720.1, 121602.21, 0.000045794342, 10.001309, 9.999057 
1.445184e+3, 1.7537822e+2, -1113015.0, -1272926.1, 4375.5845, 0.016189314, 0.3934421, -1112895.4, 108436.06, 0.00000012546444, 10.001207, 9.999087 
1.4451654e+3, 1.8537697e+2, -1040677.1, -1200429.1, 1203.1862, 0.018584933, 0.36895674, -1040668.06, 82673.67, 0.0, 10.001087, 9.998971 
1.4451467e+3, 1.953756e+2, -959902.94, -1107253.6, 4480.2446, 0.0042750933, 0.33360755, -959766.8, 65585.74, 0.0, 10.000954, 9.9990015 
1.4451279e+3, 2.0537435e+2, -886535.25, -1025464.5, 7760.4272, -0.0024310863, 0.31262457, -886103.1, 41259.61, 0.0, 10.000803, 9.998963 
1.4451092e+3, 2.1537323e+2, -810632.2, -934774.25, 4586.1685, -0.0005715765, 0.30287457, -810463.0, 18908.72, 0.0, 10.000637, 9.998994 
1.4450905e+3, 2.2537203e+2, -736096.8, -855728.8, -3901.7537, 0.0016346241, 0.28986466, -735969.75, -4587.677, 0.0, 10.000508, 9.998925 
1.4450717e+3, 2.353708e+2, -649855.6, -759992.6, -4454.4927, 0.0033437386, 0.2725144, -649675.8, -16282.859, 0.0, 10.000413, 9.998956 
1.4450529e+3, 2.453696e+2, -564785.94, -670806.94, -3605.5374, 0.007958744, 0.26109418, -564663.44, -29259.682, 0.0, 10.000336, 9.998932 
1.4450341e+3, 2.5536847e+2, -473787.44, -572936.06, -4848.8228, 0.015204474, 0.25313303, -473550.88, -36136.844, 0.0, 10.000274, 9.9989605 
1.4450154e+3, 2.6536733e+2, -393521.5, -501562.66, -16311.902, 0.02261314, 0.25664854, -391112.47, -51687.055, 0.0, 10.00023, 9.998799 
1.4449963e+3, 2.753663e+2, -296840.78, -400319.78, -17728.424, 0.029902173, 0.26806328, -293887.75, -52450.54, 0.0, 10.000204, 9.998834 
1.4449775e+3, 2.853653e+2, -207472.8, -313918.44, -4242.8076, 0.03645499, 0.2937434, -207303.95, -63855.14, 0.0, 10.000177, 9.998766 
1.4449587e+3, 2.9536447e+2, -111051.76, -212653.72, -2494.0078, 0.04262373, 0.33114207, -110990.58, -65531.055, 0.0, 10.000149, 9.998802 
1.4449401e+3, 3.0536354e+2, -27283.174, -74787.6, 6116.034, 0.041584525, 0.32798004, -26508.39, -26508.39, 0.0, 10.000078, 9.999448 
1.4449215e+3, 3.1536356e+2, -35360.926, -68598.6, 4848.759, 0.038194355, 0.38244748, -34668.027, -34668.027, 0.0, 9.999979, 9.999538 
1.4552784e+3, 1.2540199e+2, -1490622.9, -1751435.5, -37182.332, 0.014656982, 0.40757617, -1485425.5, 225675.78, 0.0068028797, 10.002177, 9.9987 
1.4552599e+3, 1.3540128e+2, -1385680.3, -1593170.8, 36248.684, -0.01938093, 0.41768518, -1379529.9, 233578.39, 0.004102922, 10.001971, 9.999215 
1.4552422e+3, 1.4540046e+2, -1337052.0, -1543346.3, 5669.989, 0.042537574, 0.42939392, -1336896.3, 178219.61, 0.0018261482, 10.001733, 9.998997 
1.455223e+3, 1.553992e+2, -1273648.5, -1460083.6, 3942.9954, 0.01005471, 0.40191653, -1273565.1, 143562.42, 0.00049169204, 10.001485, 9.999015 
1.4552039e+3, 1.6539806e+2, -1207248.4, -1388456.3, 5043.46, -0.005998287, 0.39497557, -1207108.1, 112030.03, 0.0000497536, 10.001315, 9.998917 
1.4551851e+3, 1.7539713e+2, -1121728.6, -1292321.4, 218.91922, 0.006121402, 0.40789726, -1121728.3, 99418.46, 0.00000016567238, 10.001211, 9.998954 
1.4551663e+3, 1.8539591e+2, -1034410.25, -1188595.6, -4042.323, 0.010209145, 0.38846794, -1034304.3, 88852.35, 0.0, 10.00109, 9.999051 
1.4551474e+3, 1.9539449e+2, -953993.4, -1096113.1, -684.6908, 0.0023681947, 0.33822158, -953990.06, 71177.18, 0.0, 10.0009575, 9.999078 
1.4551286e+3, 2.053931e+2, -891268.9, -1036362.0, 1468.5625, 0.00026653663, 0.3068057, -891254.0, 35924.156, 0.0, 10.000806, 9.998888 
1.4551099e+3, 2.1539186e+2, -815153.9, -945245.56, -1444.1218, 0.0052184504, 0.29055056, -815137.8, 14050.882, 0.0, 10.00064, 9.99892 
1.4550911e+3, 2.2539063e+2, -736072.5, -856756.56, -7200.7246, 0.006829998, 0.27894226, -735644.4, -4444.934, 0.0, 10.000512, 9.998918 
1.4550722e+3, 2.3538949e+2, -649782.1, -760871.75, -7561.867, 0.0049590725, 0.2695431, -649269.75, -16059.953, 0.0, 10.000416, 9.998949 
1.4550532e+3, 2.4538827e+2, -564978.06, -672185.75, -5387.2275, 0.006647196, 0.25896156, -564708.06, -29487.37, 0.0, 10.000339, 9.998922 
1.4550345e+3, 2.553871e+2, -474106.38, -574479.5, -6473.116, 0.011446566, 0.24604608, -473690.66, -36459.26, 0.0, 10.000276, 9.99895 
1.4550155e+3, 2.6538596e+2, -395514.75, -506453.22, -16553.086, 0.01907057, 0.2508539, -393097.53, -53854.52, 0.0, 10.000232, 9.998765 
1.4549965e+3, 2.7538493e+2, -298684.75, -404717.03, -17889.473, 0.028829902, 0.2686628, -295747.84, -54493.004, 0.0, 10.000205, 9.998804 
1.4549777e+3, 2.8538394e+2, -203109.66, -305390.16, -4435.058, 0.03453195, 0.29264146, -202917.72, -59651.508, 0.0, 10.000178, 9.998825 
1.4549589e+3, 2.953831e+2, -106802.97, -204428.17, -2873.2507, 0.03691136, 0.32139164, -106718.48, -61442.016, 0.0, 10.00015, 9.998859 
1.4549401e+3, 3.0538204e+2, -27411.055, -75469.055, 2943.8306, 0.042379912, 0.3070043, -27231.4, -27231.4, 0.0, 10.000078, 9.999444 
1.4549218e+3, 3.1538203e+2, -35311.36, -68355.15, 1717.3586, 0.054893926, 0.3567839, -35222.344, -35222.344, 0.0, 9.999977, 9.999542 
1.4652807e+3, 1.2542112e+2, -1492372.9, -1754082.8, -34013.813, 0.016381813, 0.40578407, -1488024.4, 222889.14, 0.0071233953, 10.002176, 9.998681 
1.4652619e+3, 1.3542038e+2, -1392947.4, -1601741.8, 38594.164, -0.02263973, 0.41600752, -1386041.9, 226879.3, 0.004306822, 10.001945, 9.999168 
1.4652438e+3, 1.4541961e+2, -1337115.5, -1546784.1, 7758.148, 0.04705341, 0.4364744, -1336828.9, 178099.48, 0.0019247683, 10.001749, 9.998964 
1.4652243e+3, 1.5541828e+2, -1258798.8, -1456405.9, 3014.1057, 0.0071955025, 0.40482453, -1258752.9, 158187.8, 0.0005218786, 10.001604, 9.998981 
1.4652053e+3, 1.6541705e+2, -1193359.0, -1390864.3, 6637.3906, -0.011642463, 0.39431596, -1193136.1, 125816.016, 0.0000541964, 10.0014515, 9.998833 
1.4651863e+3, 1.7541601e+2, -1115780.8, -1298090.4, 5563.367, 0.0024922693, 0.40482917, -1115611.1, 105350.94, 0.00000022299002, 10.001291, 9.998875 
1.4651676e+3, 1.8541476e+2, -1026244.9, -1181844.5, 365.1483, 0.008743741, 0.3867272, -1026244.0, 96727.95, 0.0, 10.001136, 9.999075 
1.4651485e+3, 1.9541341e+2, -948424.5, -1091009.1, -729.1273, 0.002930269, 0.3409519, -948420.75, 76560.8, 0.0, 10.000987, 9.999098 
1.4651294e+3, 2.05412e+2, -889462.4, -1039557.1, -29.27669, 0.0016901941, 0.3076115, -889462.4, 37530.23, 0.0, 10.000837, 9.99885 
1.4651106e+3, 2.1541065e+2, -810632.44, -947104.3, -507.1381, 0.0065192576, 0.28389314, -810630.56, 18373.717, 0.0, 10.0006895, 9.998883 
1.4650916e+3, 2.2540936e+2, -730137.25, -856695.75, -4119.7344, 0.008315912, 0.2701452, -730003.25, 1012.2969, 0.0, 10.000566, 9.998891 
1.4650725e+3, 2.354082e+2, -644945.0, -760974.06, -6091.6147, 0.006889964, 0.26315057, -644626.06, -11600.07, 0.0, 10.000462, 9.998926 
1.4650536e+3, 2.4540703e+2, -556831.25, -665174.06, -1984.3784, 0.008870177, 0.25570953, -556794.9, -21758.297, 0.0, 10.000382, 9.998948 
1.4650348e+3, 2.554059e+2, -465404.9, -567554.9, -752.38983, 0.013829446, 0.24655487, -465399.38, -28352.656, 0.0, 10.000325, 9.998973 
1.4650157e+3, 2.6540476e+2, -394036.0, -510891.06, -9877.506, 0.022003606, 0.25119913, -393206.97, -54148.387, 0.0, 10.000265, 9.998718 
1.4649966e+3, 2.7540365e+2, -302149.78, -411117.2, -12538.695, 0.032641947, 0.26548848, -300725.6, -59654.273, 0.0, 10.000203, 9.99876 
1.4649777e+3, 2.8540266e+2, -210236.33, -306140.3, -1869.2621, 0.036461283, 0.28836083, -210199.9, -67117.16, 0.0, 10.000119, 9.998848 
1.464959e+3, 2.954018e+2, -124180.22, -210130.2, -3241.9302, 0.034522027, 0.31799674, -124058.11, -78965.8, 0.0, 10.00002, 9.998882 
1.4649402e+3, 3.0540076e+2, -44589.91, -82724.79, 1438.2239, 0.040768005, 0.29829025, -44535.746, -44535.746, 0.0, 9.999958, 9.999452 
1.4649217e+3, 3.1540072e+2, -41424.996, -69286.945, 748.0737, 0.059271023, 0.3462496, -41404.926, -41404.926, 0.0, 9.9999275, 9.999558 
1.4752829e+3, 1.2544061e+2, -1491233.5, -1752166.4, -40360.55, 0.021017663, 0.42550033, -1485133.3, 225589.38, 0.007461449, 10.002177, 9.998695 
1.4752638e+3, 1.3543949e+2, -1394059.4, -1605496.4, 29224.527, -0.024518074, 0.40055293, -1390094.3, 222639.56, 0.0045245043, 10.00195, 9.999141 
1.4752457e+3, 1.4543873e+2, -1341759.6, -1558129.1, 1360.2018, 0.050531086, 0.4276724, -1341751.1, 172989.94, 0.0020316239, 10.001755, 9.998884 
1.475226e+3, 1.5543756e+2, -1263422.0, -1467458.8, -2907.9663, 0.0016055558, 0.42080274, -1263380.6, 153371.31, 0.0005551441, 10.001609, 9.998904 
1.4752066e+3, 1.6543622e+2, -1195264.1, -1396142.4, 242.75616, -0.01734435, 0.40532285, -1195263.9, 123500.52, 0.000059017875, 10.001455, 9.9987955 
1.4751877e+3, 1.7543484e+2, -1117661.5, -1303228.6, -643.25995, 0.00481031, 0.3852797, -1117659.3, 103117.77, 0.0000002932695, 10.001295, 9.998838 
1.4751688e+3, 1.8543355e+2, -1028070.0, -1186915.3, -5451.605, 0.013639744, 0.36515096, -1027883.1, 94904.29, 0.0, 10.001141, 9.999039 
1.4751494e+3, 1.954324e+2, -950220.75, -1096162.5, -6406.382, 0.0057376097, 0.3420202, -949940.06, 74855.37, 0.0, 10.000991, 9.999061 
1.4751303e+3, 2.0543101e+2, -889395.5, -1040795.5, -5632.526, 0.0018241854, 0.31470937, -889186.25, 37619.92, 0.0, 10.000842, 9.99884 
1.4751112e+3, 2.1542956e+2, -810851.06, -948801.06, -5926.5796, 0.003463458, 0.28263575, -810596.9, 18221.55, 0.0, 10.000693, 9.998871 
1.475092e+3, 2.254282e+2, -732890.4, -863578.9, -7830.635, 0.0061965734, 0.2633815, -732422.9, -1592.3547, 0.0, 10.000569, 9.998843 
1.475073e+3, 2.3542696e+2, -647432.2, -767278.5, -9505.489, 0.009077046, 0.2534281, -646682.94, -13841.2705, 0.0, 10.000464, 9.998881 
1.475054e+3, 2.4542585e+2, -552408.4, -656998.44, -3575.2126, 0.014501617, 0.25140136, -552286.25, -17434.496, 0.0, 10.000385, 9.999004 
1.4750351e+3, 2.5542492e+2, -461571.1, -560400.9, -2292.5903, 0.02223916, 0.25458568, -461517.94, -24657.654, 0.0, 10.000327, 9.9990225 
1.4750162e+3, 2.6542374e+2, -398245.63, -520349.78, -11398.976, 0.031295493, 0.25759092, -397190.6, -58318.145, 0.0, 10.000267, 9.998653 
1.474997e+3, 2.7542242e+2, -306229.78, -420251.38, -14048.551, 0.04128492, 0.25842196, -304524.38, -63637.28, 0.0, 10.000204, 9.998698 
1.4749779e+3, 2.854214e+2, -211394.86, -309072.97, -4812.2964, 0.042213168, 0.28083745, -211158.34, -68259.46, 0.0, 10.000119, 9.998829 
1.474959e+3, 2.9542065e+2, -125335.6, -212833.48, -6047.9272, 0.035343803, 0.32104272, -124919.55, -80012.0, 0.0, 10.00002, 9.998864 
1.47494e+3, 3.054196e+2, -43640.45, -81040.27, 1108.4554, 0.036460966, 0.3021008, -43607.625, -43607.625, 0.0, 9.999957, 9.999464 
1.4749216e+3, 3.1541955e+2, -39646.598, -65999.14, 220.47255, 0.050793786, 0.35213387, -39644.754, -39644.754, 0.0, 9.9999275, 9.999581 
1.4852849e+3, 1.2546001e+2, -1486801.4, -1747499.3, -28154.031, 0.019411897, 0.419384, -1483795.5, 226736.75, 0.007817738, 10.002199, 9.998715 
1.4852656e+3, 1.3545884e+2, -1375711.6, -1600036.6, 37029.49, -0.03586914, 0.39369383, -1369757.1, 242786.6, 0.004756172, 10.002093, 9.999108 
1.4852475e+3, 1.4545812e+2, -1323133.1, -1558849.9, 7899.906, 0.048064336, 0.42957616, -1322868.6, 191682.2, 0.0021468382, 10.001927, 9.9987955 
1.4852275e+3, 1.554569e+2, -1252015.8, -1471108.0, 2996.5217, -0.00035999395, 0.42473418, -1251974.9, 164587.86, 0.00059159106, 10.001728, 9.998821 
1.485208e+3, 1.6545545e+2, -1184114.9, -1391835.9, 6560.208, -0.018896595, 0.4044465, -1183907.9, 134667.98, 0.0000641918, 10.001538, 9.998784 
1.4851889e+3, 1.7545395e+2, -1109822.5, -1300814.5, 7190.9346, 0.004403562, 0.37422958, -1109552.1, 111037.055, 0.00000037325287, 10.001356, 9.998824 
1.4851698e+3, 1.8545263e+2, -1022881.5, -1192455.4, 2831.0151, 0.013045755, 0.35502955, -1022834.25, 99765.62, 0.0, 10.001212, 9.998965 
1.4851505e+3, 1.954515e+2, -939746.8, -1099205.6, -1198.1993, 0.0035548145, 0.34206754, -939737.8, 84870.164, 0.0, 10.0011, 9.998986 
1.4851311e+3, 2.0545007e+2, -877859.4, -1042679.7, -5344.4395, -0.00024162095, 0.31726426, -877686.25, 48933.027, 0.0, 10.000955, 9.998773 
1.485112e+3, 2.1544851e+2, -802480.8, -951764.44, -10082.014, 0.0029702643, 0.28121167, -801803.0, 26829.668, 0.0, 10.000783, 9.998806 
1.4850926e+3, 2.2544707e+2, -719984.3, -855650.06, -9610.209, 0.0069330446, 0.25677115, -719306.94, 11338.333, 0.0, 10.000652, 9.998857 
1.4850734e+3, 2.3544578e+2, -633469.0, -759202.3, -7135.0283, 0.010754242, 0.24077672, -633065.4, -408.85608, 0.0, 10.000556, 9.998892 
1.4850545e+3, 2.4544473e+2, -549594.0, -660098.2, -3738.368, 0.01741303, 0.24566159, -549467.7, -14801.375, 0.0, 10.000425, 9.998962 
1.4850354e+3, 2.5544393e+2, -473807.06, -570813.25, -10007.108, 0.02661753, 0.26641765, -472785.5, -36111.258, 0.0, 10.000264, 9.9989805 
1.4850163e+3, 2.6544273e+2, -412285.13, -528898.5, -18348.264, 0.03472322, 0.26983237, -409466.3, -70779.53, 0.0, 10.000179, 9.998636 
1.4849971e+3, 2.7544126e+2, -314020.16, -425951.9, -17918.05, 0.041717716, 0.2567141, -311221.78, -70519.266, 0.0, 10.00016, 9.998679 
1.484978e+3, 2.8544012e+2, -218373.36, -314635.06, -9977.166, 0.04188949, 0.27428368, -217350.14, -74635.4, 0.0, 10.000083, 9.998808 
1.4849588e+3, 2.954394e+2, -136458.39, -220471.7, -11551.4375, 0.036159918, 0.3173306, -134899.06, -90175.88, 0.0, 9.999955, 9.998842 
1.4849399e+3, 3.054383e+2, -58040.816, -89448.945, -3267.8792, 0.03470871, 0.2974024, -57704.41, -57704.41, 0.0, 9.9998665, 9.99945 
1.4849213e+3, 3.1543836e+2, -56102.07, -73839.49, -6637.743, 0.044140454, 0.35319602, -53893.16, -53893.16, 0.0, 9.999817, 9.99958 
1.4952871e+3, 1.2547937e+2, -1484791.1, -1744887.8, -29252.871, 0.011389543, 0.38941988, -1481541.8, 228800.03, 0.0081952335, 10.002205, 9.998732 
1.4952675e+3, 1.3547848e+2, -1378081.4, -1606201.3, 31621.49, -0.055774447, 0.39488178, -1373779.3, 238571.44, 0.005003208, 10.002097, 9.999064 
1.4952493e+3, 1.4547779e+2, -1329851.8, -1573930.0, -708.34454, 0.04027137, 0.44123596, -1329849.8, 184507.97, 0.0022711838, 10.00193, 9.998692 
1.4952293e+3, 1.5547626e+2, -1258119.8, -1485059.5, -5025.588, 0.00093577406, 0.41744244, -1258008.5, 158364.11, 0.00063171395, 10.001732, 9.998724 
1.4952096e+3, 1.6547473e+2, -1182863.9, -1390776.5, -854.85645, -0.016743653, 0.392625, -1182860.4, 135526.23, 0.000069858055, 10.001543, 9.99879 
1.4951903e+3, 1.7547335e+2, -1108817.5, -1300543.9, -59.643288, 0.0013918553, 0.3711952, -1108817.5, 111580.98, 0.00000046463128, 10.001363, 9.998824 
1.495171e+3, 1.8547198e+2, -1030030.56, -1208980.5, -1805.0537, 0.0072618485, 0.35560608, -1030012.3, 92397.02, 0.0, 10.001218, 9.99885 
1.4951515e+3, 1.9547072e+2, -947174.4, -1115936.6, -5785.948, -0.0033721088, 0.34107897, -946976.25, 77442.87, 0.0, 10.001103, 9.998871 
1.4951321e+3, 2.0546918e+2, -886314.5, -1061427.9, -11914.549, -0.004413853, 0.31553146, -885507.56, 40924.496, 0.0, 10.000958, 9.998643 
1.4951126e+3, 2.1546748e+2, -810149.9, -968980.6, -16331.167, 0.0049019875, 0.27967238, -808488.06, 19958.932, 0.0, 10.000787, 9.998687 
1.4950934e+3, 2.2546595e+2, -714520.56, -845574.9, -12877.114, 0.010343116, 0.2502846, -713267.25, 17192.71, 0.0, 10.000656, 9.998925 
1.495074e+3, 2.3546466e+2, -628828.0, -750719.6, -10408.294, 0.011862125, 0.22524765, -627945.6, 4525.013, 0.0, 10.00056, 9.99895 
1.4950548e+3, 2.4546364e+2, -559121.5, -680930.6, -9212.9375, 0.017595189, 0.2385636, -558428.6, -23948.188, 0.0, 10.000428, 9.998819 
1.4950356e+3, 2.554629e+2, -482890.72, -590630.5, -15138.813, 0.02696721, 0.28199863, -480803.94, -44315.098, 0.0, 10.000266, 9.998844 
1.4950165e+3, 2.654617e+2, -410315.2, -525650.25, -18208.768, 0.032267965, 0.2878383, -407508.72, -69006.86, 0.0, 10.000181, 9.998658 
1.4949971e+3, 2.754601e+2, -312393.84, -423276.75, -17926.258, 0.03382641, 0.26030958, -309567.78, -69049.73, 0.0, 10.000162, 9.998697 
1.494978e+3, 2.854589e+2, -220206.19, -319024.16, -13897.405, 0.035320766, 0.26857084, -218288.9, -75758.13, 0.0, 10.000084, 9.998777 
1.4949588e+3, 2.9545808e+2, -138547.31, -225359.22, -15418.246, 0.03694949, 0.30668426, -135890.28, -91350.52, 0.0, 9.999956, 9.998809 
1.4949398e+3, 3.054569e+2, -61335.445, -96839.73, -4478.253, 0.035539273, 0.283976, -60779.3, -60779.3, 0.0, 9.9998665, 9.999399 
1.494921e+3, 3.15457e+2, -58457.652, -79068.61, -8070.1665, 0.039129656, 0.3499393, -55673.805, -55673.805, 0.0, 9.999816, 9.999546 
1.5052892e+3, 1.2549897e+2, -1458505.4, -1729153.9, -28791.518, -0.0010262694, 0.3842931, -1455476.5, 254673.17, 0.008597475, 10.0023775, 9.998755 
1.5052696e+3, 1.3549808e+2, -1366689.5, -1604846.4, 26880.047, -0.06357658, 0.39402357, -1363693.3, 248465.08, 0.0052676955, 10.002196, 9.999025 
1.5052514e+3, 1.4549737e+2, -1322261.0, -1574716.3, -4932.458, 0.045150984, 0.4431632, -1322164.6, 192000.88, 0.0024058474, 10.002004, 9.99865 
1.5052311e+3, 1.5549575e+2, -1247617.1, -1484518.8, -4968.737, 0.003968329, 0.4139765, -1247513.0, 168668.47, 0.0006761825, 10.001825, 9.998682 
1.5052111e+3, 1.6549416e+2, -1168916.9, -1391980.5, -1097.9758, -0.016771913, 0.38796815, -1168911.5, 149284.47, 0.0000762831, 10.001675, 9.998717 
1.5051918e+3, 1.754927e+2, -1087504.8, -1298251.4, -6270.2573, -0.0020709506, 0.36875322, -1087318.4, 132889.77, 0.00000057502143, 10.001545, 9.998751 
1.5051723e+3, 1.8549128e+2, -1014216.1, -1210949.5, -10129.044, 0.0038967591, 0.35458267, -1013696.0, 108523.8, 0.0, 10.001369, 9.998762 
1.5051526e+3, 1.9548993e+2, -945617.9, -1124650.4, -12434.017, -0.0040058107, 0.34084076, -944758.44, 79472.19, 0.0, 10.001157, 9.998785 
1.5051329e+3, 2.0548831e+2, -883656.75, -1064829.8, -13778.236, -0.004679829, 0.31425196, -882614.9, 43629.56, 0.0, 10.0009985, 9.998599 
1.5051135e+3, 2.1548656e+2, -798807.25, -967771.4, -12346.164, 0.003192332, 0.27601182, -797909.9, 30350.127, 0.0, 10.000885, 9.998648 
1.505094e+3, 2.2548503e+2, -696971.9, -832632.4, -6766.399, 0.010338769, 0.24555805, -696635.2, 33637.617, 0.0, 10.000759, 9.998963 
1.5050747e+3, 2.3548377e+2, -617712.56, -741902.75, -6907.8857, 0.016063815, 0.22038144, -617329.5, 14953.236, 0.0, 10.000623, 9.998979 
1.5050553e+3, 2.4548271e+2, -557144.7, -693365.25, -6840.399, 0.020875935, 0.23557442, -556802.06, -22508.953, 0.0, 10.000502, 9.998697 
1.505036e+3, 2.554819e+2, -472970.56, -598654.9, -11549.34, 0.025125062, 0.2824819, -471918.1, -35614.992, 0.0, 10.000392, 9.998728 
1.5050165e+3, 2.654806e+2, -394959.7, -515055.94, -11760.427, 0.0270251, 0.28936443, -393818.88, -55502.36, 0.0, 10.000276, 9.998685 
1.5049973e+3, 2.7547908e+2, -312242.44, -420461.7, -11660.833, 0.026609004, 0.26090536, -311000.22, -70668.07, 0.0, 10.000154, 9.99872 
1.5049781e+3, 2.8547782e+2, -229901.34, -325704.56, -9378.704, 0.028534755, 0.26700523, -228991.84, -86647.09, 0.0, 10.000028, 9.998758 
1.5049587e+3, 2.9547697e+2, -148359.03, -232387.3, -10299.59, 0.0326072, 0.30185544, -147115.0, -102760.96, 0.0, 9.999901, 9.998787 
1.5049396e+3, 3.054757e+2, -79521.34, -110086.93, 2164.8372, 0.0314633, 0.27420413, -79368.78, -79368.78, 0.0, 9.9997635, 9.999357 
1.5049207e+3, 3.154758e+2, -89002.336, -96437.6, -1349.2749, 0.034331948, 0.34542173, -88765.055, -88765.055, 0.0, 9.9996195, 9.99952 
1.5152913e+3, 1.255188e+2, -1456609.0, -1725620.9, -31702.895, -0.01768448, 0.40082663, -1452923.4, 257032.27, 0.009026395, 10.002378, 9.99878 
1.5152717e+3, 1.3551769e+2, -1369387.5, -1610931.8, 18850.309, -0.0605222, 0.39099485, -1367925.3, 244041.03, 0.0055510993, 10.002197, 9.998984 
1.5152535e+3, 1.455169e+2, -1321323.6, -1573603.4, -12763.289, 0.06128881, 0.43611285, -1320679.5, 193294.25, 0.002551727, 10.002007, 9.998657 
1.5152329e+3, 1.5551537e+2, -1246964.3, -1484559.9, -12248.272, 0.00848191, 0.41416085, -1246334.5, 169654.23, 0.0007254567, 10.00183, 9.998681 
1.5152128e+3, 1.6551371e+2, -1178526.4, -1413575.3, -6543.596, -0.018814558, 0.38999388, -1178344.4, 139659.45, 0.00008370529, 10.00168, 9.998568 
1.5151933e+3, 1.7551208e+2, -1096942.4, -1319465.4, -11584.983, -0.0059844623, 0.36681935, -1096340.9, 123677.01, 0.00000071310234, 10.001551, 9.998604 
1.5151736e+3, 1.8551055e+2, -1018026.4, -1220472.0, -18337.12, 0.0027663354, 0.3521005, -1016378.8, 105652.03, 0.0, 10.001374, 9.998695 
1.5151538e+3, 1.9550915e+2, -949116.0, -1133587.8, -20367.357, 0.0012609432, 0.34131935, -946894.06, 77148.32, 0.0, 10.001163, 9.998722 
1.515134e+3, 2.055075e+2, -880552.8, -1059973.8, -18083.357, -0.001337777, 0.3133541, -878748.4, 47308.03, 0.0, 10.001003, 9.9986315 
1.5151143e+3, 2.1550573e+2, -795972.44, -963279.8, -16593.076, -0.002091214, 0.2703122, -794342.7, 33729.05, 0.0, 10.000889, 9.998677 
1.5150948e+3, 2.2550425e+2, -696083.75, -831973.0, -11627.642, 0.0070396536, 0.24259005, -695096.0, 34987.99, 0.0, 10.000762, 9.998967 
1.5150753e+3, 2.3550306e+2, -617413.0, -742316.56, -11606.776, 0.023279818, 0.22591645, -616343.56, 15749.432, 0.0, 10.000626, 9.998976 
1.5150559e+3, 2.455019e+2, -564200.06, -709008.94, -10379.312, 0.027123144, 0.23647824, -563459.9, -29355.389, 0.0, 10.000504, 9.9985895 
1.5150364e+3, 2.5550085e+2, -479654.84, -613469.2, -14953.527, 0.021012317, 0.2679479, -478004.16, -41886.902, 0.0, 10.000394, 9.998626 
1.5150169e+3, 2.6549953e+2, -393020.06, -511847.06, -15484.868, 0.018934004, 0.27453652, -391035.3, -52904.19, 0.0, 10.0002775, 9.998707 
1.5149973e+3, 2.7549812e+2, -310533.06, -417666.16, -15360.917, 0.020036923, 0.25853154, -308374.1, -68228.9, 0.0, 10.0001545, 9.998739 
1.514978e+3, 2.8549692e+2, -230805.08, -328291.78, -13330.377, 0.02143522, 0.2696157, -229015.14, -86857.96, 0.0, 10.000029, 9.99874 
1.5149584e+3, 2.9549605e+2, -149465.77, -235234.23, -14276.774, 0.022891121, 0.30283147, -147151.73, -102985.164, 0.0, 9.999901, 9.998768 
1.5149392e+3, 3.0549467e+2, -82140.055, -115971.52, -2454.1592, 0.022239897, 0.26799247, -81962.95, -81962.95, 0.0, 9.9997635, 9.999318 
1.5149203e+3, 3.1549475e+2, -90469.32, -99800.34, -6222.183, 0.029732931, 0.34052613, -87357.78, -87357.78, 0.0, 9.9996195, 9.999498 
1.5252937e+3, 1.2553847e+2, -1452288.3, -1716372.1, -30971.178, -0.026661802, 0.40336657, -1448704.6, 261058.28, 0.009480747, 10.00238, 9.998841 
1.5252738e+3, 1.3553737e+2, -1371388.4, -1612691.5, 15960.912, -0.06992171, 0.39466372, -1370337.3, 241436.14, 0.0058531812, 10.002189, 9.998975 
1.5252554e+3, 1.4553653e+2, -1318253.4, -1574321.6, -14235.055, 0.061065644, 0.43508673, -1317464.4, 196316.77, 0.002708946, 10.002039, 9.998636 
1.5252347e+3, 1.555349e+2, -1233070.0, -1480341.1, -15801.95, 0.008046317, 0.40584114, -1232064.3, 183732.5, 0.00077962264, 10.001938, 9.998656 
1.5252145e+3, 1.6553316e+2, -1160885.5, -1409106.8, -6871.7666, -0.018753601, 0.3768733, -1160695.5, 157116.88, 0.000092205315, 10.001821, 9.99853 
1.5251948e+3, 1.7553145e+2, -1080011.5, -1316015.8, -4441.9585, -0.0044364533, 0.35067263, -1079927.9, 139898.88, 0.0000008739153, 10.001688, 9.99856 
1.525175e+3, 1.8552986e+2, -1005229.75, -1227526.8, -12637.089, 0.0033666785, 0.33957973, -1004513.7, 117326.836, 0.0, 10.001521, 9.998576 
1.5251549e+3, 1.9552845e+2, -933513.44, -1138532.6, -18659.18, -0.0011758555, 0.33781514, -931829.06, 92023.914, 0.0, 10.001325, 9.998609 
1.525135e+3, 2.0552678e+2, -857930.2, -1046326.1, -16393.188, -0.0032325308, 0.311407, -856514.4, 69353.08, 0.0, 10.001148, 9.998654 
1.5251152e+3, 2.1552497e+2, -780221.8, -953306.2, -15924.029, -0.00054308324, 0.26408723, -778769.0, 49113.69, 0.0, 10.000988, 9.998697 
1.5250956e+3, 2.2552353e+2, -693026.94, -834739.6, -14652.455, 0.009350083, 0.24094048, -691527.75, 38366.85, 0.0, 10.000803, 9.998927 
1.5250759e+3, 2.3552243e+2, -624035.8, -749689.2, -17983.055, 0.024094159, 0.23574725, -621512.8, 10390.45, 0.0, 10.0006, 9.998937 
1.5250562e+3, 2.4552119e+2, -573123.8, -716234.56, -12844.808, 0.02678529, 0.24173549, -571980.06, -38064.594, 0.0, 10.000457, 9.998562 
1.5250367e+3, 2.5551993e+2, -486153.47, -619477.0, -11978.316, 0.01984685, 0.25563374, -485085.84, -49155.953, 0.0, 10.000364, 9.998598 
1.525017e+3, 2.6551858e+2, -396347.28, -514327.6, -12123.765, 0.014912474, 0.26238596, -395114.3, -57170.39, 0.0, 10.00026, 9.998696 
1.5249975e+3, 2.755173e+2, -312325.1, -419173.53, -14736.604, 0.011560637, 0.2610649, -310329.88, -70372.86, 0.0, 10.000148, 9.998732 
1.5249778e+3, 2.8551617e+2, -229120.02, -324804.53, -12530.204, 0.0119023565, 0.27594802, -227506.36, -85537.82, 0.0, 10.000031, 9.998762 
1.5249583e+3, 2.9551524e+2, -146633.84, -231333.4, -10952.529, 0.014992497, 0.30393574, -145240.48, -101262.586, 0.0, 9.999911, 9.998789 
1.5249388e+3, 3.055138e+2, -89322.31, -118209.16, 1079.8802, 0.015005481, 0.25764284, -89282.0, -89282.0, 0.0, 9.999711, 9.999327 
1.5249197e+3, 3.1551382e+2, -114340.23, -107889.54, 474.98016, 0.023684202, 0.3264055, -107854.75, -107854.75, 0.0, 9.999442, 9.999527 
1.535296e+3, 1.2555806e+2, -1446531.1, -1704541.5, -33507.656, -0.029925767, 0.39282575, -1442250.5, 267320.47, 0.009956889, 10.00238, 9.998923 
1.5352759e+3, 1.3555719e+2, -1369656.1, -1610659.8, 7553.2036, -0.09062025, 0.40459302, -1369419.6, 242159.5, 0.0061724978, 10.002194, 9.998987 
1.5352573e+3, 1.4555627e+2, -1321013.9, -1581907.0, -19202.686, 0.046115834, 0.43961656, -1319608.1, 193979.28, 0.0028771062, 10.002045, 9.998582 
1.5352367e+3, 1.5555437e+2, -1235767.3, -1487308.6, -20295.027, 0.0030926384, 0.38961485, -1234140.3, 181464.72, 0.000838507, 10.001943, 9.998608 
1.5352163e+3, 1.6555254e+2, -1156265.0, -1400634.0, -12440.635, -0.016817758, 0.34978077, -1155633.3, 161987.8, 0.000101727834, 10.001823, 9.998588 
1.5351966e+3, 1.7555086e+2, -1076312.5, -1309396.8, -10085.726, 0.0021350407, 0.32135826, -1075876.9, 143757.84, 0.0000010362653, 10.001691, 9.998605 
1.5351765e+3, 1.8554929e+2, -1016914.8, -1252925.3, -20496.852, 0.0054660384, 0.3176907, -1015147.94, 106500.734, 0.0, 10.001524, 9.998401 
1.535156e+3, 1.9554783e+2, -944471.9, -1162659.0, -26139.818, -0.010963011, 0.330613, -941383.94, 82278.555, 0.0, 10.001328, 9.998442 
1.5351361e+3, 2.0554613e+2, -856552.1, -1044839.75, -22498.434, -0.010064283, 0.30852053, -853901.1, 71776.45, 0.0, 10.001153, 9.998663 
1.5351163e+3, 2.1554431e+2, -779366.3, -952783.56, -21969.807, 0.007568639, 0.2573381, -776626.3, 51066.555, 0.0, 10.000992, 9.9987 
1.5350965e+3, 2.2554287e+2, -698412.5, -847168.56, -22105.463, 0.016946957, 0.24052425, -695197.06, 34507.855, 0.0, 10.000807, 9.998841 
1.5350765e+3, 2.3554184e+2, -628986.0, -761281.6, -24930.54, 0.018553238, 0.24973953, -624443.9, 7269.705, 0.0, 10.000604, 9.998856 
1.5350567e+3, 2.4554053e+2, -569477.25, -709866.3, -15733.566, 0.02000417, 0.25121394, -567735.56, -34009.344, 0.0, 10.000461, 9.998605 
1.535037e+3, 2.5553912e+2, -483018.56, -614002.44, -14750.894, 0.02161974, 0.2454353, -481377.94, -45636.71, 0.0, 10.000366, 9.998635 
1.5350172e+3, 2.6553777e+2, -399354.66, -521486.3, -15450.984, 0.014827809, 0.25286546, -397430.28, -59674.953, 0.0, 10.000262, 9.998648 
1.5349974e+3, 2.7553663e+2, -315043.97, -425634.66, -18126.943, 0.001040928, 0.2684727, -312148.6, -72380.59, 0.0, 10.00015, 9.998687 
1.5349779e+3, 2.8553548e+2, -224898.89, -316804.38, -16128.6045, -0.00016435147, 0.28589725, -222150.64, -80371.32, 0.0, 10.000032, 9.998817 
1.5349582e+3, 2.9553455e+2, -142412.64, -223392.33, -14938.561, 0.008851701, 0.30510473, -139744.78, -95956.164, 0.0, 9.999913, 9.998843 
1.5349385e+3, 3.05533e+2, -85541.836, -111048.71, -8208.087, 0.009634559, 0.2430277, -83128.77, -83128.77, 0.0, 9.999712, 9.999376 
1.534919e+3, 3.1553298e+2, -109299.27, -97657.01, -9083.276, 0.016058628, 0.30353165, -92689.65, -92689.65, 0.0, 9.999442, 9.9995985 
1.5452984e+3, 1.2557773e+2, -1448326.9, -1706290.6, -26499.219, -0.029109484, 0.3874284, -1445633.0, 263744.97, 0.010452642, 10.002375, 9.998913 
1.545278e+3, 1.3557687e+2, -1351944.0, -1609149.0, 1856.609, -0.09997329, 0.40801647, -1351930.5, 259455.6, 0.006508303, 10.00235, 9.998921 
1.5452594e+3, 1.4557587e+2, -1293429.9, -1565600.5, -26417.473, 0.04039604, 0.43621567, -1290889.4, 222505.72, 0.0030559867, 10.002224, 9.998607 
1.5452386e+3, 1.5557393e+2, -1220345.4, -1477200.9, -22046.348, -0.00065611093, 0.37850234, -1218466.9, 196945.84, 0.0009019718, 10.002038, 9.99863 
1.5452181e+3, 1.6557208e+2, -1151379.8, -1399730.9, -15073.428, -0.017777665, 0.33861077, -1150468.3, 166960.3, 0.000112228045, 10.001865, 9.998573 
1.5451983e+3, 1.7557044e+2, -1076589.0, -1311547.0, -18355.748, 0.004869665, 0.31552827, -1075163.6, 144277.95, 0.0000011877057, 10.001699, 9.998586 
1.5451781e+3, 1.855688e+2, -1020127.4, -1264085.8, -28749.34, 0.008529138, 0.31019163, -1016785.2, 104671.29, 0.0, 10.001545, 9.998314 
1.5451574e+3, 1.955672e+2, -940292.2, -1169773.0, -28389.053, -0.01037785, 0.31615293, -936832.4, 86639.67, 0.0, 10.001398, 9.998359 
1.5451373e+3, 2.0556551e+2, -846727.0, -1040860.5, -23225.258, -0.007846783, 0.29942936, -843987.1, 81500.18, 0.0, 10.001225, 9.998655 
1.5451173e+3, 2.1556383e+2, -774593.0, -951601.9, -24292.297, 0.014656839, 0.26328287, -771319.75, 56181.773, 0.0, 10.001031, 9.998688 
1.5450972e+3, 2.2556238e+2, -694532.7, -850821.94, -24112.555, 0.021541009, 0.24843925, -690897.2, 38616.71, 0.0, 10.000859, 9.99879 
1.545077e+3, 2.355612e+2, -617774.06, -760830.2, -24642.613, 0.014820749, 0.2493012, -613648.2, 17875.807, 0.0, 10.000704, 9.99881 
1.5450571e+3, 2.4555984e+2, -554224.75, -695676.06, -12472.943, 0.012637543, 0.24487242, -553133.3, -19596.535, 0.0, 10.000538, 9.998664 
1.5450373e+3, 2.5555843e+2, -479892.47, -606363.8, -10701.421, 0.0144119, 0.23490372, -478993.34, -43442.44, 0.0, 10.000363, 9.998688 
1.5450175e+3, 2.6555714e+2, -410847.25, -530368.06, -10500.525, 0.008182232, 0.24447191, -409931.72, -72366.95, 0.0, 10.0002, 9.998615 
1.5449974e+3, 2.75556e+2, -332317.25, -436871.34, -12340.472, -0.0047693606, 0.26741326, -330880.47, -91302.76, 0.0, 10.000046, 9.998658 
1.5449776e+3, 2.8555495e+2, -243965.75, -318773.66, -10372.09, -0.0064069494, 0.28727365, -242554.3, -100965.46, 0.0, 9.999873, 9.998879 
1.5449579e+3, 2.95554e+2, -171422.61, -230125.27, -9094.454, 0.0011683997, 0.30505642, -170045.94, -126448.39, 0.0, 9.999685, 9.998905 
1.5449381e+3, 3.0555248e+2, -107648.414, -111569.7, -2754.8547, 0.0023954525, 0.23640974, -106227.734, -106227.734, 0.0, 9.999518, 9.999465 
1.5449183e+3, 3.1555262e+2, -112777.58, -86785.07, -1404.3445, 0.012434001, 0.30007672, -86709.414, -86709.414, 0.0, 9.999366, 9.999709 
1.5553008e+3, 1.2559754e+2, -1454945.4, -1721065.0, -22498.172, -0.02542093, 0.3871149, -1453056.8, 256126.39, 0.010971542, 10.002378, 9.998811 
1.5552802e+3, 1.355965e+2, -1361926.1, -1629913.3, -718.55634, -0.099191524, 0.40522593, -1361924.3, 249269.63, 0.006862425, 10.002349, 9.99878 
1.5552616e+3, 1.4559539e+2, -1287212.5, -1552845.3, -34503.95, 0.042823274, 0.42544797, -1282803.9, 230400.0, 0.0032463204, 10.002224, 9.998695 
1.5552406e+3, 1.5559359e+2, -1213992.3, -1465342.1, -29779.781, -0.0034279707, 0.37222418, -1210512.3, 204707.3, 0.0009703306, 10.002043, 9.998711 
1.55522e+3, 1.6559182e+2, -1156616.0, -1412339.4, -22026.846, -0.021427222, 0.34218097, -1154732.6, 162501.7, 0.00012386087, 10.001871, 9.998485 
1.5551999e+3, 1.7559023e+2, -1081805.3, -1324030.0, -25054.475, 0.004027601, 0.3314444, -1079240.9, 140006.56, 0.0000013544981, 10.001705, 9.998498 
1.5551795e+3, 1.8558842e+2, -1020148.9, -1265411.8, -34616.14, 0.012492706, 0.3160368, -1015356.8, 105906.83, 0.0, 10.001549, 9.998303 
1.555159e+3, 1.9558655e+2, -940633.56, -1171317.9, -34155.11, -0.000032362637, 0.2947266, -935682.8, 87598.805, 0.0, 10.0014, 9.998348 
1.5551385e+3, 2.055849e+2, -848574.8, -1045544.56, -30565.996, 0.0028431194, 0.28446633, -843940.56, 81356.1, 0.0, 10.001227, 9.998623 
1.5551184e+3, 2.1558352e+2, -776266.75, -956185.3, -31459.828, 0.02063645, 0.28142747, -770924.44, 56384.184, 0.0, 10.001035, 9.998656 
1.5550981e+3, 2.2558202e+2, -695557.6, -854148.25, -29623.238, 0.023212805, 0.26426336, -690204.94, 39116.664, 0.0, 10.000863, 9.998767 
1.5550777e+3, 2.355805e+2, -618586.06, -763630.25, -30025.053, 0.01284311, 0.23475145, -612616.4, 18718.178, 0.0, 10.000707, 9.99879 
1.5550575e+3, 2.4557912e+2, -548899.25, -685647.6, -18356.35, 0.0045656376, 0.22313073, -546478.06, -13130.734, 0.0, 10.000541, 9.998733 
1.5550375e+3, 2.555779e+2, -475077.3, -597377.94, -16407.203, -0.001791824, 0.2241108, -472914.44, -37555.195, 0.0, 10.000366, 9.998749 
1.5550174e+3, 2.6557663e+2, -412016.6, -533762.0, -15416.161, -0.00496992, 0.23711333, -410094.84, -72722.14, 0.0, 10.000202, 9.998591 
1.5549974e+3, 2.7557546e+2, -333254.97, -439777.9, -17348.283, -0.0058914106, 0.2577434, -330500.84, -91114.27, 0.0, 10.000048, 9.998638 
1.5549774e+3, 2.8557444e+2, -239239.38, -309766.44, -16550.959, -0.0069745113, 0.2799659, -235548.44, -94150.875, 0.0, 9.999874, 9.998941 
1.5549573e+3, 2.9557365e+2, -166857.48, -221199.2, -15317.322, -0.008223174, 0.30372366, -162837.39, -119432.1, 0.0, 9.999686, 9.998967 
1.5549375e+3, 3.055722e+2, -98831.47, -93825.21, -7608.108, -0.0068188035, 0.23792382, -88319.03, -88319.03, 0.0, 9.999519, 9.999587 
1.5549177e+3, 3.1557262e+2, -102291.125, -65746.75, -6722.424, 0.012744608, 0.3180047, -64549.375, -64549.375, 0.0, 9.999367, 9.999854 
1.565303e+3, 1.256173e+2, -1449850.5, -1725164.4, -19128.576, -0.025364835, 0.38630173, -1448527.8, 260461.02, 0.0115225995, 10.002445, 9.99875 
1.5652826e+3, 1.3561611e+2, -1381528.5, -1649728.5, -917.2961, -0.095922664, 0.39829946, -1381525.4, 229476.03, 0.0072392947, 10.00226, 9.998687 
1.5652639e+3, 1.4561489e+2, -1295561.8, -1554217.0, -35319.53, 0.04636257, 0.41316357, -1290825.6, 222186.78, 0.003449955, 10.002156, 9.998717 
1.5652426e+3, 1.5561324e+2, -1199242.4, -1456188.4, -35713.805, -0.009471884, 0.37445194, -1194370.8, 220655.6, 0.00104445, 10.002137, 9.998727 
1.5652218e+3, 1.6561152e+2, -1136446.4, -1406517.9, -31302.88, -0.030276483, 0.34686577, -1132865.6, 184175.33, 0.00013699086, 10.0020275, 9.998448 
1.5652017e+3, 1.756098e+2, -1063808.9, -1318981.9, -31123.867, -0.0023223201, 0.3280814, -1060067.5, 158987.8, 0.0000015912761, 10.001845, 9.998465 
1.5651812e+3, 1.8560795e+2, -1009384.94, -1256038.1, -39058.836, 0.0126709165, 0.3072767, -1003347.56, 117724.3, 0.0, 10.001606, 9.99834 
1.5651605e+3, 1.9560607e+2, -950274.0, -1172648.6, -35612.313, 0.009814289, 0.28286484, -944710.06, 78379.24, 0.0, 10.001322, 9.998376 
1.5651399e+3, 2.0560443e+2, -866061.3, -1060236.9, -29639.209, 0.013549852, 0.2761305, -861637.94, 63466.42, 0.0, 10.001136, 9.998565 
1.5651195e+3, 2.1560308e+2, -781065.2, -964258.94, -32961.07, 0.02523148, 0.28184685, -775315.1, 51801.477, 0.0, 10.001028, 9.998603 
1.565099e+3, 2.2560157e+2, -692341.56, -847257.25, -30746.162, 0.023135938, 0.26319656, -686462.44, 42667.363, 0.0, 10.000863, 9.998813 
1.5650783e+3, 2.3560001e+2, -623377.4, -761072.94, -26530.87, 0.0092287725, 0.22413164, -618442.4, 12700.544, 0.0, 10.000655, 9.998832 
1.565058e+3, 2.4559866e+2, -556842.0, -686536.6, -14271.156, -0.0013459304, 0.21406133, -555290.2, -22135.078, 0.0, 10.000475, 9.998756 
1.5650377e+3, 2.5559756e+2, -480608.63, -597570.06, -16167.971, -0.009028242, 0.22522613, -478414.8, -43248.95, 0.0, 10.0003195, 9.99877 
1.5650176e+3, 2.6559627e+2, -429042.75, -543148.0, -18439.264, -0.009642645, 0.23641534, -426137.0, -88957.516, 0.0, 10.0000925, 9.998579 
1.5649974e+3, 2.75595e+2, -368654.28, -457445.94, -19657.947, -0.00486674, 0.24571201, -364496.78, -125302.18, 0.0, 9.999809, 9.9986315 
1.5649772e+3, 2.8559402e+2, -266140.5, -311939.13, -14121.789, -0.007468815, 0.26876426, -262136.23, -120931.086, 0.0, 9.999645, 9.999036 
1.5649569e+3, 2.955934e+2, -176828.22, -215793.53, -10755.1, -0.01599094, 0.30312613, -174056.75, -130845.695, 0.0, 9.999576, 9.999057 
1.5649368e+3, 3.0559206e+2, -106909.63, -93066.07, -6833.839, -0.016618544, 0.23696737, -90260.96, -90260.96, 0.0, 9.999445, 9.999627 
1.564917e+3, 3.155926e+2, -112271.805, -62451.395, -12922.9375, 0.0069233063, 0.32355714, -59298.8, -59298.8, 0.0, 9.999266, 9.999924 
1.5753056e+3, 1.2563708e+2, -1451751.0, -1730065.4, -20708.92, -0.029625392, 0.38560754, -1450218.5, 258575.72, 0.01211553, 10.002448, 9.998715 
1.5752849e+3, 1.3563573e+2, -1384708.0, -1658275.9, -8800.678, -0.09048759, 0.3879367, -1384425.1, 226383.27, 0.0076441537, 10.002268, 9.998626 
1.575266e+3, 1.4563446e+2, -1297533.5, -1560257.4, -37026.582, 0.050864164, 0.39985576, -1292415.0, 220405.39, 0.0036693097, 10.002164, 9.998673 
1.5752447e+3, 1.55633e+2, -1201993.4, -1463094.8, -37411.832, -0.018525433, 0.38429344, -1196738.6, 218094.23, 0.0011253739, 10.00214, 9.998679 
1.5752238e+3, 1.6563119e+2, -1135749.4, -1405798.9, -38666.023, -0.043948047, 0.3523618, -1130322.1, 186526.02, 0.00015191178, 10.002029, 9.998453 
1.5752034e+3, 1.7562921e+2, -1062985.0, -1317863.4, -38526.34, -0.013835592, 0.30682102, -1057288.8, 161576.02, 0.0000019351096, 10.001846, 9.998472 
1.5751827e+3, 1.856274e+2, -1003942.25, -1245602.4, -50013.33, 0.009259691, 0.28499925, -994000.6, 126880.1, 0.0, 10.001609, 9.998411 
1.5751618e+3, 1.9562578e+2, -945401.1, -1163949.6, -46068.81, 0.019143187, 0.28009543, -936087.0, 86808.18, 0.0, 10.001326, 9.998435 
1.5751411e+3, 2.0562413e+2, -871654.25, -1073211.0, -33700.574, 0.024213213, 0.27398792, -866168.75, 58741.734, 0.0, 10.00114, 9.998475 
1.5751205e+3, 2.1562254e+2, -786064.75, -975609.1, -36999.37, 0.028461166, 0.26524016, -779098.44, 47827.047, 0.0, 10.00103, 9.998525 
1.5750998e+3, 2.2562103e+2, -684546.06, -831970.75, -38208.848, 0.021308986, 0.24595913, -675231.75, 53706.85, 0.0, 10.000866, 9.998918 
1.575079e+3, 2.356197e+2, -616208.4, -747191.75, -33721.17, 0.00396323, 0.21735102, -608036.75, 22912.547, 0.0, 10.000657, 9.998927 
1.5750584e+3, 2.4561846e+2, -558270.06, -690454.94, -19490.867, -0.0051766858, 0.21731208, -555456.0, -22495.58, 0.0, 10.000478, 9.99873 
1.5750381e+3, 2.5561744e+2, -482021.44, -601376.1, -21515.986, -0.00745237, 0.23805258, -478261.25, -43290.2, 0.0, 10.000321, 9.998743 
1.5750177e+3, 2.656161e+2, -429276.16, -544545.6, -28175.504, -0.0060212454, 0.24223508, -422757.78, -85772.28, 0.0, 10.000094, 9.9985695 
1.5749972e+3, 2.7561456e+2, -368331.7, -457721.84, -28942.822, -0.0018409317, 0.23124036, -359778.88, -120776.63, 0.0, 9.999811, 9.99863 
1.5749767e+3, 2.8561366e+2, -257285.89, -294457.56, -15877.036, -0.007991071, 0.25364178, -251427.63, -110415.555, 0.0, 9.999647, 9.999156 
1.5749565e+3, 2.9561335e+2, -168759.86, -199945.13, -12861.018, -0.022261769, 0.30322954, -164140.22, -121124.83, 0.0, 9.9995775, 9.999166 
1.5749362e+3, 3.0561194e+2, -110206.71, -100754.07, -12793.45, -0.027272355, 0.23336054, -91841.83, -91841.83, 0.0, 9.999447, 9.999575 
1.5749161e+3, 3.156124e+2, -112995.914, -64581.035, -19675.086, -0.0053912797, 0.31741983, -57593.777, -57593.777, 0.0, 9.999267, 9.99991 
1.585308e+3, 1.2565692e+2, -1440217.9, -1729867.9, -12364.927, -0.03535241, 0.38432017, -1439690.9, 268908.28, 0.012755513, 10.002555, 9.998665 
1.5852873e+3, 1.3565543e+2, -1359378.6, -1652673.3, -7670.37, -0.09619931, 0.37952748, -1359178.1, 251436.45, 0.008080295, 10.002475, 9.998563 
1.5852682e+3, 1.4565402e+2, -1274248.9, -1552957.1, -34441.332, 0.047117542, 0.38273093, -1270055.9, 242572.11, 0.0039060588, 10.002343, 9.998636 
1.5852468e+3, 1.5565263e+2, -1196923.9, -1464332.0, -34727.996, -0.021328416, 0.37947488, -1192487.4, 222152.55, 0.0012136656, 10.002193, 9.998644 
1.5852258e+3, 1.656509e+2, -1136763.3, -1400175.0, -38269.617, -0.045038156, 0.35391632, -1131316.0, 185338.73, 0.0001685595, 10.001998, 9.998507 
1.585205e+3, 1.7564899e+2, -1071473.3, -1316485.0, -35260.797, -0.012946951, 0.30904853, -1066499.8, 152171.13, 0.0000023797534, 10.001766, 9.99852 
1.5851843e+3, 1.8564717e+2, -1008341.75, -1246458.5, -48759.574, 0.010917404, 0.28423563, -998744.0, 121942.57, 0.0, 10.0015745, 9.998421 
1.5851632e+3, 1.9564551e+2, -932241.6, -1156283.4, -49429.996, 0.020784331, 0.27390197, -921820.7, 100880.58, 0.0, 10.001412, 9.998445 
1.5851422e+3, 2.0564385e+2, -860696.0, -1063455.5, -32882.12, 0.02573914, 0.26376918, -855496.75, 69219.72, 0.0, 10.001198, 9.998513 
1.5851215e+3, 2.1564226e+2, -796792.6, -976746.0, -27267.85, 0.02971368, 0.25196695, -792751.56, 33979.734, 0.0, 10.000941, 9.998559 
1.5851006e+3, 2.2564079e+2, -704369.2, -841936.56, -29679.89, 0.021158732, 0.23496504, -698239.0, 30505.16, 0.0, 10.000733, 9.998912 
1.5850794e+3, 2.3563951e+2, -630653.0, -754875.8, -33703.94, 0.0015960063, 0.21276534, -622097.7, 8656.84, 0.0, 10.000563, 9.998919 
1.5850587e+3, 2.4563834e+2, -582370.8, -704256.2, -24536.49, -0.0061678695, 0.21896793, -577616.8, -44851.22, 0.0, 10.000323, 9.998709 
1.5850382e+3, 2.5563732e+2, -525661.06, -623733.3, -26593.508, -0.0042625335, 0.24580497, -518914.06, -84137.78, 0.0, 10.00003, 9.99873 
1.5850176e+3, 2.6563597e+2, -459372.4, -544977.1, -27117.945, -0.0035310527, 0.24257968, -451505.0, -114714.42, 0.0, 9.999829, 9.998693 
1.5849969e+3, 2.756344e+2, -376186.66, -448329.38, -17945.75, -0.0038847018, 0.2136264, -371969.16, -133162.27, 0.0, 9.999702, 9.998745 
1.5849763e+3, 2.8563353e+2, -274507.84, -300513.2, -2872.0828, -0.010624132, 0.23542002, -274194.44, -133378.39, 0.0, 9.999521, 9.999174 
1.5849558e+3, 2.9563338e+2, -208176.67, -216346.55, -7891.739, -0.02241669, 0.2979138, -203375.31, -160556.88, 0.0, 9.999297, 9.999187 
1.5849355e+3, 3.05632e+2, -148938.98, -110980.67, -5612.9106, -0.029845832, 0.2240749, -110168.086, -110168.086, 0.0, 9.999146, 9.999648 
1.5849152e+3, 3.1563252e+2, -136357.28, -62867.473, -3850.5244, -0.012110578, 0.30731624, -62666.273, -62666.273, 0.0, 9.999052, 10.000024 
1.5953104e+3, 1.2567686e+2, -1443849.6, -1739833.6, -10023.489, -0.04377408, 0.38378245, -1443510.5, 264892.7, 0.013441269, 10.002564, 9.998592 
1.5952896e+3, 1.3567524e+2, -1363674.3, -1662739.9, -11954.921, -0.111941166, 0.37246892, -1363197.1, 247222.38, 0.008547444, 10.002478, 9.998493 
1.5952703e+3, 1.4567363e+2, -1276695.5, -1558596.9, -40887.523, 0.035942115, 0.3617696, -1270884.9, 241550.02, 0.004160194, 10.002344, 9.998598 
1.5952489e+3, 1.5567224e+2, -1198788.9, -1468798.5, -41022.098, -0.018483812, 0.36149588, -1192694.1, 221753.14, 0.0013091589, 10.002193, 9.998614 
1.5952277e+3, 1.6567072e+2, -1130174.1, -1387205.6, -47476.938, -0.034674026, 0.35217565, -1121685.0, 194775.38, 0.00018659334, 10.001999, 9.998595 
1.595207e+3, 1.7566915e+2, -1065669.5, -1305329.0, -44317.78, -0.0006462075, 0.33302706, -1057736.9, 160736.42, 0.0000028938316, 10.001768, 9.998596 
1.5951858e+3, 1.8566726e+2, -1011820.4, -1254616.5, -55165.938, 0.017194718, 0.30333003, -999873.9, 120615.664, 0.0, 10.001576, 9.998364 
1.5951645e+3, 1.9566527e+2, -934719.7, -1162364.0, -55715.664, 0.015097724, 0.26436552, -921814.94, 100692.414, 0.0, 10.001414, 9.998404 
1.5951434e+3, 2.0566359e+2, -849509.75, -1041216.56, -42441.24, 0.018591829, 0.245915, -840534.06, 83988.234, 0.0, 10.0012, 9.998666 
1.5951224e+3, 2.1566223e+2, -786895.5, -957289.5, -36600.836, 0.0290752, 0.24186023, -779366.3, 47167.902, 0.0, 10.000944, 9.9986925 
1.5951014e+3, 2.2566082e+2, -712151.75, -859132.4, -35797.746, 0.022582835, 0.22992341, -703896.7, 24650.025, 0.0, 10.000735, 9.998794 
1.59508e+3, 2.3565942e+2, -638205.44, -771443.1, -39839.75, 0.0019916608, 0.21033733, -627201.6, 3357.1729, 0.0, 10.000565, 9.998805 
1.595059e+3, 2.4565822e+2, -583574.94, -707647.4, -34920.75, -0.0044628703, 0.2190881, -574421.6, -41850.754, 0.0, 10.000325, 9.998685 
1.5950383e+3, 2.5565723e+2, -525730.0, -624878.2, -36417.34, 0.00041131512, 0.24852876, -513791.4, -79209.49, 0.0, 10.000031, 9.998722 
1.5950175e+3, 2.656559e+2, -441225.66, -508371.2, -30921.04, -0.00229038, 0.23747797, -429155.9, -92560.87, 0.0, 9.999832, 9.998945 
1.5949966e+3, 2.756544e+2, -359648.2, -415046.84, -22015.318, -0.011092088, 0.19280644, -351964.94, -113355.97, 0.0, 9.999705, 9.998974 
1.5949759e+3, 2.8565362e+2, -280566.53, -314019.25, -10464.754, -0.0154262055, 0.2139578, -277562.66, -136945.16, 0.0, 9.999523, 9.999082 
1.5949552e+3, 2.9565346e+2, -213270.9, -227607.02, -15308.524, -0.016424036, 0.28707996, -203535.36, -160914.61, 0.0, 9.999298, 9.99911 
1.5949346e+3, 3.056521e+2, -134820.66, -82227.17, -8382.637, -0.024305714, 0.20897792, -80923.414, -80923.414, 0.0, 9.999147, 9.999846 
1.5949142e+3, 3.1565282e+2, -119413.445, -28273.156, -7333.6284, -0.013188427, 0.29414156, -27686.826, -27686.826, 0.0, 9.999053, 10.000262 
1.605313e+3, 1.2569685e+2, -1406173.9, -1723594.3, -569.5663, -0.053553514, 0.3789735, -1406172.8, 302034.03, 0.01416758, 10.002841, 9.9985695 
1.605292e+3, 1.3569522e+2, -1352921.6, -1658420.3, -5243.3916, -0.11256405, 0.36704972, -1352831.6, 257391.06, 0.009042928, 10.00256, 9.998483 
1.6052727e+3, 1.4569348e+2, -1282578.9, -1566886.9, -31936.303, 0.037439283, 0.3459222, -1279035.6, 233203.66, 0.004430615, 10.00233, 9.998548 
1.6052511e+3, 1.5569207e+2, -1207267.5, -1478370.0, -33472.066, -0.017631127, 0.34986138, -1203196.0, 211056.19, 0.0014114145, 10.002161, 9.998563 
1.6052297e+3, 1.6569059e+2, -1135471.8, -1389885.0, -46805.47, -0.033255763, 0.34691215, -1127134.0, 189131.19, 0.00020576516, 10.001965, 9.998592 
1.6052088e+3, 1.7568907e+2, -1068920.0, -1306457.0, -50323.91, 0.0017093016, 0.33496213, -1058698.4, 159579.4, 0.0000034510517, 10.001746, 9.998598 
1.6051875e+3, 1.8568724e+2, -1010055.4, -1243697.4, -56732.016, 0.01830843, 0.3040461, -997008.5, 123285.11, 0.0, 10.001548, 9.998452 
1.6051659e+3, 1.9568525e+2, -936670.4, -1153967.9, -47674.51, 0.0134018855, 0.25773433, -926670.9, 95640.01, 0.0, 10.001363, 9.998485 
1.6051444e+3, 2.0568359e+2, -854273.25, -1040483.9, -37900.3, 0.0144845005, 0.23619318, -846854.8, 77470.62, 0.0, 10.001156, 9.998691 
1.6051233e+3, 2.1568227e+2, -787284.2, -955017.1, -41737.324, 0.022894138, 0.23220032, -777472.5, 48864.38, 0.0, 10.000933, 9.998713 
1.605102e+3, 2.2568087e+2, -722554.06, -866815.5, -41067.88, 0.01977799, 0.22403805, -711682.3, 16666.97, 0.0, 10.000677, 9.998768 
1.6050805e+3, 2.3567954e+2, -664734.9, -786913.94, -38911.766, 0.0068368013, 0.21107309, -653394.75, -23033.293, 0.0, 10.000396, 9.998779 
1.6050594e+3, 2.456783e+2, -609300.4, -719405.8, -31424.908, 0.0000004091177, 0.21813825, -600962.8, -68588.83, 0.0, 10.000147, 9.99869 
1.6050382e+3, 2.5567722e+2, -540797.94, -630907.75, -31163.22, -0.0017459348, 0.23951276, -531070.6, -96684.71, 0.0, 9.999925, 9.998732 
1.6050172e+3, 2.65676e+2, -453863.3, -500495.06, -27970.727, -0.004951229, 0.23097633, -440765.03, -104367.08, 0.0, 9.999686, 9.999068 
1.604996e+3, 2.7567473e+2, -390660.6, -416984.84, -28949.227, -0.009615881, 0.19686623, -372021.78, -133612.52, 0.0, 9.999437, 9.999088 
1.6049752e+3, 2.8567398e+2, -324104.8, -332133.88, -17810.818, -0.01068091, 0.21630794, -309861.7, -169444.48, 0.0, 9.999213, 9.999105 
1.6049543e+3, 2.9567373e+2, -254088.88, -244471.34, -13774.771, -0.009036612, 0.27826327, -234690.1, -192268.69, 0.0, 9.999007, 9.999134 
1.6049336e+3, 3.0567238e+2, -173076.08, -93383.2, -4971.6133, -0.018662404, 0.19332469, -93074.25, -93074.25, 0.0, 9.998855, 9.999909 
1.604913e+3, 3.1567332e+2, -156385.98, -33076.79, -15273.704, -0.010107656, 0.29210222, -31213.08, -31213.08, 0.0, 9.998745, 10.000377 
1.6153157e+3, 1.2571698e+2, -1404415.5, -1721491.4, -5942.587, -0.06597089, 0.37193683, -1404304.3, 303705.03, 0.014930091, 10.002848, 9.998582 
1.6152947e+3, 1.3571541e+2, -1349893.9, -1653321.5, -16839.479, -0.099740215, 0.36343977, -1348962.3, 261061.5, 0.009564833, 10.002564, 9.998516 
1.6152751e+3, 1.4571358e+2, -1286872.6, -1577096.1, -39220.582, 0.050138686, 0.33504254, -1281665.8, 230375.28, 0.0047169235, 10.002334, 9.998476 
1.6152532e+3, 1.5571216e+2, -1212107.3, -1489751.0, -40436.68, -0.018725032, 0.34383926, -1206337.9, 207716.61, 0.0015205952, 10.002165, 9.998484 
1.6152316e+3, 1.6571054e+2, -1141280.9, -1403241.5, -55365.39, -0.040064648, 0.33819366, -1130060.0, 186009.08, 0.00022625244, 10.001968, 9.998501 
1.6152105e+3, 1.7570885e+2, -1073394.5, -1316973.9, -58451.49, -0.0051775095, 0.31654406, -1060094.1, 157989.78, 0.0000040571203, 10.00175, 9.998526 
1.615189e+3, 1.8570712e+2, -994462.94, -1212470.9, -63642.29, 0.0145863965, 0.28786522, -977244.06, 142854.53, 0.0, 10.001551, 9.998666 
1.6151673e+3, 1.9570546e+2, -922881.25, -1126402.8, -54799.336, 0.01547498, 0.2539111, -909064.25, 113047.695, 0.0, 10.001366, 9.998673 
1.6151457e+3, 2.0570384e+2, -861023.0, -1055466.8, -46291.527, 0.013202538, 0.23408443, -850564.8, 73561.086, 0.0, 10.001159, 9.998588 
1.615124e+3, 2.1570234e+2, -793472.4, -968781.94, -49966.965, 0.011281989, 0.22297275, -780230.94, 45908.535, 0.0, 10.000935, 9.998618 
1.6151026e+3, 2.2570097e+2, -718139.2, -858532.25, -51202.14, 0.012822113, 0.21742542, -701449.5, 26702.398, 0.0, 10.000679, 9.998825 
1.615081e+3, 2.356998e+2, -660613.7, -779282.94, -48800.1, 0.016002916, 0.21482092, -643123.56, -12960.875, 0.0, 10.000399, 9.998832 
1.6150595e+3, 2.4569853e+2, -607209.25, -716007.9, -39115.42, 0.0070639458, 0.21599606, -594606.3, -62430.895, 0.0, 10.00015, 9.998713 
1.615038e+3, 2.5569728e+2, -538934.06, -627992.94, -38767.332, -0.010731982, 0.2188823, -524423.06, -90234.34, 0.0, 9.999927, 9.998752 
1.6150168e+3, 2.656962e+2, -454099.94, -502033.84, -36435.58, -0.011465531, 0.22323725, -434455.38, -98255.62, 0.0, 9.999689, 9.999058 
1.6149956e+3, 2.7569532e+2, -390359.44, -417396.75, -37361.066, 0.00047388076, 0.22601274, -364146.47, -125938.17, 0.0, 9.99944, 9.999085 
1.6149744e+3, 2.856946e+2, -314320.97, -312632.88, -24819.879, 0.003455112, 0.24260168, -288642.72, -148427.05, 0.0, 9.999215, 9.99924 
1.6149534e+3, 2.9569414e+2, -245479.64, -227253.11, -20614.266, -0.00036236795, 0.27130598, -213827.53, -171606.56, 0.0, 9.999008, 9.999252 
1.6149326e+3, 3.056927e+2, -178741.11, -105739.43, -8460.048, -0.013015685, 0.17706591, -104771.836, -104771.836, 0.0, 9.998856, 9.9998255 
1.6149119e+3, 3.1569383e+2, -157750.1, -36269.902, -19848.865, -0.00287524, 0.30400223, -33109.008, -33109.008, 0.0, 9.998744, 10.000356 
1.6253187e+3, 1.2573722e+2, -1375072.1, -1707102.5, -4831.595, -0.07097164, 0.37124467, -1375001.9, 332809.03, 0.015727159, 10.003057, 9.99858 
1.6252974e+3, 1.357357e+2, -1329092.4, -1638845.4, -22264.967, -0.09839894, 0.36411092, -1327500.1, 282324.16, 0.0101132095, 10.002693, 9.998552 
1.6252774e+3, 1.4573379e+2, -1274848.8, -1571929.5, -37261.605, 0.048505574, 0.32681695, -1270246.5, 241595.69, 0.005019992, 10.002422, 9.998468 
1.6252553e+3, 1.5573236e+2, -1202040.9, -1485736.6, -34303.715, -0.022937741, 0.33638772, -1197951.9, 215903.78, 0.0016376381, 10.00224, 9.998474 
1.6252336e+3, 1.6573076e+2, -1130880.3, -1395485.9, -44780.227, -0.044469975, 0.3297706, -1123507.4, 192362.95, 0.00024865236, 10.00203, 9.998523 
1.6252121e+3, 1.7572905e+2, -1065216.1, -1310633.3, -40182.3, -0.008720491, 0.30536535, -1058804.5, 159080.84, 0.00000475879, 10.001798, 9.998545 
1.6251904e+3, 1.8572736e+2, -990218.8, -1207742.6, -49332.594, 0.011272658, 0.2787751, -979553.5, 140346.13, 0.0, 10.00157, 9.998689 
1.6251686e+3, 1.9572578e+2, -924230.1, -1124240.5, -54578.313, 0.012288711, 0.25082847, -910306.25, 111606.0, 0.0, 10.001347, 9.998696 
1.6251467e+3, 2.057242e+2, -864283.25, -1049961.8, -46893.824, 0.010816917, 0.2296728, -853112.1, 70813.61, 0.0, 10.001107, 9.99865 
1.6251248e+3, 2.1572268e+2, -801508.94, -966648.3, -39197.973, 0.010025116, 0.21145411, -792677.1, 33261.996, 0.0, 10.000855, 9.99867 
1.6251032e+3, 2.2572131e+2, -736544.1, -871781.2, -41707.707, 0.012403691, 0.20677967, -724715.9, 3235.827, 0.0, 10.000574, 9.998784 
1.6250813e+3, 2.3572017e+2, -682073.0, -793459.56, -46739.633, 0.016321566, 0.2112549, -665059.06, -35096.414, 0.0, 10.000269, 9.9987955 
1.6250595e+3, 2.4571891e+2, -627090.2, -719363.1, -37608.63, 0.008489462, 0.21357714, -613703.7, -81728.4, 0.0, 9.999988, 9.998767 
1.6250378e+3, 2.557177e+2, -565093.56, -634854.2, -35341.582, -0.008016692, 0.2127761, -550318.4, -116330.21, 0.0, 9.999723, 9.998801 
1.6250163e+3, 2.6571667e+2, -483852.4, -515160.8, -31249.863, -0.007103965, 0.21918087, -464555.1, -128556.18, 0.0, 9.999481, 9.999066 
1.624995e+3, 2.7571586e+2, -416746.44, -428583.1, -30862.824, 0.0068541835, 0.22866747, -391239.63, -153232.44, 0.0, 9.999254, 9.999098 
1.6249736e+3, 2.857152e+2, -340632.2, -317281.03, -20586.275, 0.011868008, 0.24650994, -305289.9, -165275.95, 0.0, 9.9990015, 9.9993105 
1.6249524e+3, 2.957148e+2, -281716.4, -237327.36, -21204.049, 0.009983297, 0.27217537, -228826.47, -186808.06, 0.0, 9.99873, 9.999317 
1.6249312e+3, 3.0571327e+2, -226446.8, -128345.055, -3738.2544, -0.005922369, 0.16850299, -128202.81, -128202.81, 0.0, 9.9985285, 9.999826 
1.6249105e+3, 3.1571442e+2, -205739.34, -51300.75, -9872.522, 0.00008957919, 0.29811466, -50672.207, -50672.207, 0.0, 9.998382, 10.000426 
1.6353215e+3, 1.2575765e+2, -1376460.5, -1710337.3, -13076.914, -0.07155443, 0.3783848, -1375949.1, 331661.88, 0.016557895, 10.003058, 9.998558 
1.6352999e+3, 1.3575613e+2, -1326511.9, -1634434.0, -36032.27, -0.10745292, 0.36836907, -1322351.8, 287272.44, 0.010688402, 10.002697, 9.998582 
1.6352798e+3, 1.4575414e+2, -1271163.4, -1565520.6, -44561.703, 0.034014624, 0.32072896, -1264565.3, 247077.03, 0.0053406963, 10.002426, 9.998511 
1.6352576e+3, 1.5575275e+2, -1198240.5, -1478973.1, -41447.96, -0.02996287, 0.32775238, -1192249.0, 221406.31, 0.0017634478, 10.002244, 9.99852 
1.6352355e+3, 1.6575122e+2, -1121972.0, -1378074.0, -53821.563, -0.04671587, 0.32181644, -1111120.9, 204547.97, 0.00027359868, 10.002033, 9.998642 
1.635214e+3, 1.7574966e+2, -1057905.3, -1296593.4, -49327.645, -0.009234764, 0.3008641, -1048112.8, 169569.33, 0.000005604758, 10.001801, 9.998641 
1.635192e+3, 1.8574795e+2, -1001112.75, -1231544.9, -57990.94, 0.008260446, 0.2761776, -987341.6, 132355.31, 0.0, 10.001574, 9.998525 
1.6351698e+3, 1.9574621e+2, -933331.1, -1144337.8, -62928.79, 0.0040458925, 0.24846673, -915989.06, 105722.65, 0.0, 10.001349, 9.998558 
1.6351476e+3, 2.0574464e+2, -849105.8, -1019462.56, -56170.313, 0.007336648, 0.22316836, -832252.5, 91472.39, 0.0, 10.00111, 9.998858 
1.6351259e+3, 2.1574326e+2, -788343.8, -940132.25, -48740.31, 0.018700613, 0.19765511, -774040.75, 51695.313, 0.0, 10.000857, 9.998852 
1.6351038e+3, 2.257419e+2, -746136.6, -892545.44, -52920.387, 0.018207302, 0.19214554, -729011.4, -1262.5785, 0.0, 10.000575, 9.998642 
1.6350815e+3, 2.3574065e+2, -690546.6, -812138.25, -57527.695, 0.007905631, 0.20068724, -667643.2, -37881.496, 0.0, 10.000272, 9.998667 
1.6350596e+3, 2.4573946e+2, -621111.44, -708060.44, -46804.31, 0.0043810024, 0.21106704, -600705.8, -68931.86, 0.0, 9.99999, 9.998844 
1.6350377e+3, 2.557384e+2, -559537.75, -624368.3, -44330.004, 0.006191951, 0.22106168, -537035.8, -103251.02, 0.0, 9.999726, 9.998873 
1.635016e+3, 2.6573732e+2, -481705.4, -511816.1, -38943.055, 0.007860856, 0.21862407, -455008.8, -119212.87, 0.0, 9.999484, 9.999089 
1.6349943e+3, 2.757363e+2, -414879.9, -425802.63, -38775.395, 0.009405828, 0.2045493, -381183.16, -143376.7, 0.0, 9.999257, 9.999116 
1.6349727e+3, 2.8573573e+2, -340245.2, -317346.72, -30093.896, 0.014486893, 0.2278794, -296597.7, -156785.1, 0.0, 9.999003, 9.99931 
1.6349512e+3, 2.9573557e+2, -281315.5, -237081.53, -30511.955, 0.02194249, 0.281269, -221513.77, -179699.53, 0.0, 9.99873, 9.999319 
1.6349298e+3, 3.05734e+2, -220536.0, -116541.49, -8641.913, 0.0024519952, 0.16779374, -115828.24, -115828.24, 0.0, 9.9985285, 9.999908 
1.6349088e+3, 3.15735e+2, -194667.34, -28700.01, -15743.673, -0.0012981717, 0.2752043, -27219.766, -27219.766, 0.0, 9.998381, 10.000583 
1.6453247e+3, 1.2577829e+2, -1371037.5, -1710632.1, 6686.39, -0.06485085, 0.37239364, -1370906.0, 336502.34, 0.017420573, 10.003113, 9.9985285 
1.6453026e+3, 1.3577685e+2, -1310851.0, -1623161.0, -21843.998, -0.10758456, 0.36563912, -1309330.5, 300090.25, 0.011289107, 10.002794, 9.998611 
1.645282e+3, 1.4577481e+2, -1255240.3, -1553316.8, -25880.217, 0.025354447, 0.3098663, -1253009.9, 258429.3, 0.0056783757, 10.00252, 9.9985485 
1.6452597e+3, 1.5577336e+2, -1188546.0, -1471004.1, -23622.24, -0.036814235, 0.31055403, -1186584.0, 226868.0, 0.0018979618, 10.002298, 9.998548 
1.6452375e+3, 1.657719e+2, -1119218.4, -1379600.3, -43710.31, -0.0514785, 0.31031084, -1112076.6, 203388.58, 0.00030132462, 10.002067, 9.998614 
1.6452157e+3, 1.7577046e+2, -1056137.9, -1298553.4, -49811.97, -0.012689019, 0.30350086, -1046301.5, 171176.4, 0.0000066039856, 10.001826, 9.998613 
1.6451935e+3, 1.8576872e+2, -996653.9, -1227751.8, -55661.113, 0.004498331, 0.2768925, -983946.4, 135546.69, 0.0, 10.001599, 9.998537 
1.645171e+3, 1.9576687e+2, -928829.06, -1140990.6, -48785.137, -0.00093446695, 0.23571855, -918148.9, 103359.87, 0.0, 10.001377, 9.998567 
1.6451488e+3, 2.0576529e+2, -853008.8, -1020833.3, -48305.41, 0.0037374683, 0.21083921, -840098.2, 83423.72, 0.0, 10.001083, 9.998861 
1.6451266e+3, 2.15764e+2, -806254.0, -948294.2, -56145.21, 0.018371906, 0.19574693, -786741.56, 38790.598, 0.0, 10.000734, 9.998855 
1.6451043e+3, 2.2576268e+2, -762202.75, -897227.94, -58998.594, 0.018481016, 0.19140846, -740056.06, -12511.368, 0.0, 10.000454, 9.998668 
1.6450816e+3, 2.3576139e+2, -696256.06, -812064.44, -52019.992, 0.0068179676, 0.1943074, -676320.9, -46762.87, 0.0, 10.000222, 9.998691 
1.6450594e+3, 2.4576023e+2, -628383.6, -706063.3, -39287.26, 0.006169857, 0.20486003, -611978.4, -80408.445, 0.0, 9.999919, 9.998891 
1.6450374e+3, 2.557593e+2, -580756.56, -629601.75, -39224.676, 0.014075053, 0.21940961, -558972.7, -125392.84, 0.0, 9.999561, 9.998916 
1.6450153e+3, 2.6575828e+2, -510091.3, -523735.3, -32297.102, 0.01590507, 0.21994133, -483903.6, -148312.94, 0.0, 9.999283, 9.999104 
1.6449934e+3, 2.7575725e+2, -441877.66, -437116.78, -33161.668, 0.013055074, 0.20739615, -406250.22, -168649.0, 0.0, 9.999065, 9.999129 
1.6449717e+3, 2.8575668e+2, -362290.97, -323228.88, -24508.234, 0.018360652, 0.22914898, -311421.2, -171814.06, 0.0, 9.998833, 9.999351 
1.6449499e+3, 2.9575652e+2, -299515.2, -241516.25, -21823.814, 0.029616356, 0.27902514, -234221.81, -192613.55, 0.0, 9.998589, 9.999356 
1.6449283e+3, 3.0575487e+2, -247996.9, -127669.27, 193.59491, 0.009184121, 0.15440775, -127668.96, -127668.96, 0.0, 9.998333, 9.999926 
1.6449071e+3, 3.157559e+2, -232767.45, -34995.707, -13077.399, 0.004558889, 0.2598351, -34134.73, -34134.73, 0.0, 9.99807, 10.000689 
1.6553278e+3, 1.257992e+2, -1373003.6, -1716020.4, -656.031, -0.054217726, 0.3565027, -1373002.4, 334200.0, 0.01831341, 10.0031185, 9.998489 
1.6553055e+3, 1.3579784e+2, -1308316.0, -1619258.6, -34205.375, -0.099878244, 0.35685924, -1304597.6, 304616.3, 0.011912873, 10.0028, 9.998637 
1.6552846e+3, 1.4579578e+2, -1252812.4, -1549901.5, -34628.1, 0.021820828, 0.29486492, -1248829.6, 262402.94, 0.0060311556, 10.002525, 9.99857 
1.6552618e+3, 1.5579425e+2, -1187401.4, -1470410.5, -32258.271, -0.043677643, 0.2855902, -1183771.0, 229474.77, 0.002040319, 10.002304, 9.99855 
1.6552395e+3, 1.6579281e+2, -1130139.8, -1403887.1, -52869.027, -0.058653876, 0.2955565, -1120283.9, 194975.34, 0.00033169176, 10.002071, 9.998446 
1.6552174e+3, 1.7579143e+2, -1065659.8, -1319576.8, -58646.266, -0.018884577, 0.31276682, -1052768.9, 164503.66, 0.000007747774, 10.00183, 9.998468 
1.655195e+3, 1.8578966e+2, -984465.75, -1203370.0, -63851.426, 0.000017803379, 0.28069142, -967202.56, 152085.27, 0.0, 10.001601, 9.998705 
1.6551724e+3, 1.957877e+2, -918919.75, -1121138.8, -57498.094, -0.0028456606, 0.21312179, -903714.3, 117589.09, 0.0, 10.001378, 9.998703 
1.6551498e+3, 2.0578614e+2, -866616.4, -1049984.6, -61378.133, -0.000018189503, 0.19301283, -847968.06, 75348.68, 0.0, 10.001085, 9.998661 
1.6551273e+3, 2.1578492e+2, -817760.3, -973475.0, -68546.62, 0.00932849, 0.20535532, -791885.3, 33442.11, 0.0, 10.000738, 9.998681 
1.6551046e+3, 2.2578363e+2, -749073.0, -871220.2, -67193.84, 0.01339582, 0.2040959, -719344.6, 7994.9224, 0.0, 10.000457, 9.998845 
1.655082e+3, 2.3578238e+2, -684301.06, -788334.25, -60503.47, 0.012835113, 0.19185728, -656527.94, -27176.084, 0.0, 10.000225, 9.998853 
1.6550595e+3, 2.4578123e+2, -627105.3, -704519.0, -52121.31, 0.013620282, 0.19490908, -600890.3, -69526.75, 0.0, 9.999922, 9.998901 
1.655037e+3, 2.5578028e+2, -579580.44, -628350.2, -51479.93, 0.015645422, 0.2079411, -547002.1, -113628.4, 0.0, 9.999564, 9.998923 
1.6550146e+3, 2.6577938e+2, -509693.3, -524106.9, -39688.867, 0.017072458, 0.22326499, -476562.25, -141178.78, 0.0, 9.999287, 9.9991 
1.6549926e+3, 2.7577865e+2, -441303.1, -436976.38, -40667.97, 0.017736172, 0.23745964, -398414.25, -161022.27, 0.0, 9.999068, 9.99913 
1.6549705e+3, 2.8577805e+2, -356635.2, -312388.13, -33028.69, 0.023326492, 0.25044504, -294758.1, -155360.0, 0.0, 9.998835, 9.999425 
1.6549486e+3, 2.9577762e+2, -294803.53, -232554.97, -30451.092, 0.03279319, 0.26509556, -220136.28, -178735.2, 0.0, 9.9985895, 9.999418 
1.6549267e+3, 3.0577585e+2, -251667.19, -136025.17, -9153.8955, 0.014153636, 0.1281001, -135305.06, -135305.06, 0.0, 9.998334, 9.999868 
1.6549052e+3, 3.15777e+2, -229393.95, -28333.8, -23499.652, 0.018135322, 0.2545231, -25623.72, -25623.72, 0.0, 9.998069, 10.000735 
1.6653311e+3, 1.2582044e+2, -1353649.0, -1712744.4, 18625.23, -0.04895807, 0.3409177, -1352685.5, 354307.47, 0.019234147, 10.003286, 9.99843 
1.6653083e+3, 1.3581914e+2, -1285292.1, -1606970.1, -21266.813, -0.102268144, 0.34538534, -1283892.3, 325112.06, 0.01255734, 10.002959, 9.998643 
1.665287e+3, 1.4581709e+2, -1228275.1, -1534884.1, -18718.68, 0.009877554, 0.28504544, -1227136.6, 283885.9, 0.0063973893, 10.002685, 9.998596 
1.6652642e+3, 1.5581562e+2, -1163533.4, -1457454.9, -16399.727, -0.05195023, 0.27658913, -1162621.1, 250414.1, 0.0021897932, 10.002464, 9.998561 
1.6652416e+3, 1.658141e+2, -1118935.9, -1408074.5, -36068.168, -0.0637652, 0.2854026, -1114504.5, 200544.92, 0.00036457216, 10.002192, 9.998359 
1.6652192e+3, 1.7581262e+2, -1064720.4, -1328250.3, -36605.49, -0.022231732, 0.30032802, -1059730.3, 157333.94, 0.000009059679, 10.001878, 9.998385 
1.6651966e+3, 1.8581083e+2, -989490.6, -1206497.6, -46344.473, -0.0016562935, 0.2723243, -980007.6, 139072.03, 0.0, 10.001571, 9.998696 
1.6651738e+3, 1.9580896e+2, -935668.2, -1130278.5, -52828.953, -0.0025227251, 0.21325935, -922252.1, 98842.48, 0.0, 10.00127, 9.998692 
1.6651508e+3, 2.0580734e+2, -878155.4, -1058580.5, -55885.895, -0.00015430525, 0.19124293, -862247.56, 60860.734, 0.0, 10.00102, 9.998632 
1.6651279e+3, 2.1580604e+2, -809652.6, -972321.25, -51326.766, 0.006815976, 0.19444036, -794811.56, 30308.598, 0.0, 10.000808, 9.998654 
1.6651051e+3, 2.2580473e+2, -740079.9, -862624.4, -51860.438, 0.011457307, 0.1925828, -721078.9, 6053.4424, 0.0, 10.000503, 9.998881 
1.6650821e+3, 2.3580356e+2, -695770.06, -789727.75, -55953.52, 0.013761525, 0.18558848, -669688.56, -40544.855, 0.0, 10.000131, 9.998888 
1.6650593e+3, 2.4580249e+2, -639976.3, -705495.56, -51444.727, 0.015502897, 0.19254203, -611746.1, -80591.414, 0.0, 9.999812, 9.998946 
1.6650365e+3, 2.5580162e+2, -581425.3, -624859.4, -48693.086, 0.016953629, 0.20871943, -549825.9, -116661.516, 0.0, 9.999535, 9.998961 
1.6650139e+3, 2.6580074e+2, -520697.25, -529939.56, -35163.6, 0.019286107, 0.22438776, -489852.47, -154678.38, 0.0, 9.999215, 9.999094 
1.6649915e+3, 2.758e+2, -471031.56, -451145.22, -36555.656, 0.022031805, 0.23686525, -423204.6, -186021.6, 0.0, 9.998865, 9.999129 
1.6649692e+3, 2.857994e+2, -389185.7, -316656.8, -27152.076, 0.028991709, 0.24900295, -307618.44, -168429.94, 0.0, 9.998565, 9.999525 
1.664947e+3, 2.9579908e+2, -331290.2, -239945.2, -22998.977, 0.039229207, 0.26338425, -234481.31, -193291.17, 0.0, 9.998298, 9.999507 
1.6649249e+3, 3.0579725e+2, -293717.7, -156084.78, 1536.0612, 0.02161208, 0.116680875, -156067.64, -156067.64, 0.0, 9.998046, 9.999868 
1.6649033e+3, 3.1579837e+2, -259712.45, -30219.922, -9939.719, 0.032012094, 0.23827809, -29790.22, -29790.22, 0.0, 9.997808, 10.000847 
1.6753344e+3, 1.2584208e+2, -1358657.0, -1724731.4, 9970.604, -0.05120044, 0.32758927, -1358385.6, 348394.16, 0.020177929, 10.003293, 9.998345 
1.6753112e+3, 1.3584074e+2, -1286035.8, -1609682.9, -33800.027, -0.11376232, 0.33153978, -1282543.5, 326248.06, 0.013220325, 10.002964, 9.998623 
1.6752896e+3, 1.4583881e+2, -1226181.9, -1531564.1, -27364.074, -0.009664218, 0.2798685, -1223749.4, 287059.63, 0.0067765256, 10.002688, 9.998618 
1.6752665e+3, 1.5583743e+2, -1162166.9, -1455565.8, -25362.861, -0.061472945, 0.2819844, -1159990.6, 252829.9, 0.0023464474, 10.002467, 9.998573 
1.6752437e+3, 1.658358e+2, -1120031.3, -1411461.9, -48276.9, -0.066992305, 0.27933988, -1112242.1, 202593.47, 0.00040014452, 10.002194, 9.998335 
1.675221e+3, 1.7583403e+2, -1066537.9, -1333489.8, -48695.746, -0.023032686, 0.2678924, -1057932.5, 158920.28, 0.00001061599, 10.001882, 9.998348 
1.6751981e+3, 1.8583228e+2, -1001012.25, -1232027.0, -57862.95, -0.00080777437, 0.2528784, -987329.5, 131539.1, 0.0, 10.001576, 9.99852 
1.675175e+3, 1.9583063e+2, -945720.25, -1152760.6, -63803.727, -0.00017680731, 0.2348683, -927637.2, 93245.16, 0.0, 10.001275, 9.998536 
1.6751519e+3, 2.0582892e+2, -868742.56, -1040337.5, -63694.746, 0.0030740257, 0.20450012, -847683.94, 75212.76, 0.0, 10.001024, 9.998756 
1.6751288e+3, 2.1582729e+2, -801987.3, -957301.8, -59604.996, 0.0104757035, 0.16372451, -781749.7, 43160.836, 0.0, 10.00081, 9.998757 
1.6751055e+3, 2.2582594e+2, -747101.1, -878123.5, -65544.23, 0.012460058, 0.15786901, -719942.1, 6980.975, 0.0, 10.0005045, 9.9987755 
1.6750821e+3, 2.3582491e+2, -701711.5, -803274.4, -69073.0, 0.009690906, 0.17579587, -666761.75, -37827.918, 0.0, 10.0001335, 9.998795 
1.675059e+3, 2.45824e+2, -634468.9, -695334.4, -61181.35, 0.011918149, 0.19768883, -596569.25, -65625.47, 0.0, 9.999816, 9.999016 
1.675036e+3, 2.5582325e+2, -576670.0, -616202.9, -58569.633, 0.017915115, 0.2216281, -534621.25, -101669.15, 0.0, 9.999537, 9.99902 
1.6750132e+3, 2.6582226e+2, -521393.3, -532584.3, -47583.484, 0.022442115, 0.22319019, -479077.47, -144114.5, 0.0, 9.999218, 9.999075 
1.6749904e+3, 2.758212e+2, -471128.7, -452425.44, -48742.965, 0.025877079, 0.20535628, -412145.13, -175170.36, 0.0, 9.998868, 9.999121 
1.6749677e+3, 2.8582075e+2, -380580.66, -299690.2, -36568.414, 0.035285924, 0.22471815, -285609.6, -146630.7, 0.0, 9.998567, 9.999641 
1.6749455e+3, 2.9582086e+2, -323328.1, -224035.36, -32428.678, 0.04894663, 0.2744104, -214382.64, -173406.66, 0.0, 9.998299, 9.999617 
1.6749232e+3, 3.0581903e+2, -290201.66, -149409.16, -6772.358, 0.031559456, 0.12054807, -149084.14, -149084.14, 0.0, 9.998047, 9.999915 
1.6749012e+3, 3.1581995e+2, -247483.58, -5555.8726, -19403.97, 0.04628801, 0.21397884, -4009.4492, -4009.4492, 0.0, 9.997809, 10.001018 
1.6853377e+3, 1.2586407e+2, -1331526.6, -1714437.9, 23179.318, -0.054672875, 0.31949633, -1330128.5, 376434.9, 0.021138081, 10.003502, 9.998315 
1.685314e+3, 1.3586265e+2, -1266105.3, -1597710.6, -20973.795, -0.11574893, 0.3139732, -1264784.0, 343791.75, 0.013899301, 10.003097, 9.998641 
1.6852921e+3, 1.4586075e+2, -1219931.0, -1535195.9, -12437.349, -0.017495956, 0.26909417, -1219441.1, 291151.7, 0.0071684015, 10.002763, 9.998556 
1.6852689e+3, 1.5585944e+2, -1163454.0, -1463138.8, -16636.191, -0.06388558, 0.2826023, -1162533.3, 250070.97, 0.0025108194, 10.00249, 9.998509 
1.6852458e+3, 1.6585775e+2, -1117482.0, -1413795.1, -43883.15, -0.06757083, 0.27850336, -1111119.6, 203500.47, 0.0004388093, 10.002229, 9.9983015 
1.6852228e+3, 1.7585583e+2, -1055839.5, -1332732.9, -45461.73, -0.02553866, 0.25680315, -1048566.44, 168071.86, 0.000012516376, 10.001976, 9.998307 
1.6851997e+3, 1.85854e+2, -989340.7, -1236238.0, -52359.883, -0.0055168653, 0.2423141, -978695.6, 139959.23, 0.0, 10.0017, 9.99843 
1.6851763e+3, 1.9585235e+2, -932363.3, -1154961.8, -52565.953, -0.006774124, 0.2327957, -920574.4, 100094.78, 0.0, 10.001406, 9.998457 
1.6851528e+3, 2.0585066e+2, -858799.75, -1028944.5, -52815.78, -0.00010569983, 0.20467752, -843738.1, 78945.17, 0.0, 10.001066, 9.998814 
1.6851296e+3, 2.1584906e+2, -815642.56, -958349.1, -53987.777, 0.014291277, 0.16123669, -797519.75, 27176.666, 0.0, 10.000693, 9.998805 
1.685106e+3, 2.2584766e+2, -766318.8, -889757.75, -59648.383, 0.01740468, 0.14947139, -742205.75, -15496.459, 0.0, 10.000384, 9.998752 
1.6850823e+3, 2.3584653e+2, -705348.2, -807649.6, -57722.188, 0.011611591, 0.1595573, -679374.06, -50653.023, 0.0, 10.000122, 9.99877 
1.6850588e+3, 2.4584566e+2, -638447.2, -699104.94, -51749.33, 0.012995799, 0.18795508, -608794.1, -78063.25, 0.0, 9.999799, 9.998997 
1.6850355e+3, 2.5584507e+2, -593251.44, -625553.5, -55896.285, 0.019781537, 0.22843467, -551219.56, -118481.24, 0.0, 9.999432, 9.999005 
1.6850123e+3, 2.6584405e+2, -531076.44, -529456.4, -43803.61, 0.024867026, 0.22547147, -486455.3, -151706.13, 0.0, 9.99912, 9.999143 
1.6849892e+3, 2.7584285e+2, -469765.34, -444424.06, -38807.023, 0.028628819, 0.18795675, -416271.53, -179509.88, 0.0, 9.998848, 9.999185 
1.6849664e+3, 2.8584248e+2, -379419.28, -293433.53, -26354.996, 0.03700782, 0.20893568, -285998.5, -147233.48, 0.0, 9.998551, 9.99969 
1.6849436e+3, 2.9584283e+2, -329021.4, -221961.89, -27606.418, 0.048703752, 0.27603105, -215262.52, -174502.27, 0.0, 9.99824, 9.999658 
1.6849211e+3, 3.05841e+2, -309258.7, -160997.2, -7049.6904, 0.0334475, 0.12202949, -160662.75, -160662.75, 0.0, 9.997929, 9.999891 
1.684899e+3, 3.158418e+2, -267899.13, -1624.8677, -26511.482, 0.059855953, 0.20704906, 989.0764, 989.0764, 0.0, 9.997612, 10.001139 
1.6953412e+3, 1.2588644e+2, -1331223.8, -1712834.0, 10117.137, -0.06246972, 0.31779587, -1330955.8, 375387.9, 0.022110628, 10.003498, 9.998328 
1.6953173e+3, 1.3588488e+2, -1262448.9, -1591285.5, -36657.84, -0.10931887, 0.29302102, -1258411.9, 349944.7, 0.014592254, 10.003102, 9.998685 
1.695295e+3, 1.4588298e+2, -1228956.8, -1556023.8, -23295.014, -0.014934787, 0.25331327, -1227306.0, 283067.9, 0.007572671, 10.00277, 9.998411 
1.6952714e+3, 1.5588166e+2, -1172287.0, -1483264.6, -27238.766, -0.06002403, 0.27900368, -1169919.1, 242467.19, 0.002683379, 10.002496, 9.998369 
1.695248e+3, 1.6587994e+2, -1120204.5, -1420968.0, -53609.93, -0.06588509, 0.28247795, -1110934.4, 203468.06, 0.0004809482, 10.0022335, 9.998252 
1.6952248e+3, 1.7587802e+2, -1058731.4, -1340054.3, -55207.188, -0.029687166, 0.26525068, -1048285.25, 168135.25, 0.000014849569, 10.00198, 9.998257 
1.6952012e+3, 1.8587606e+2, -989900.1, -1238686.5, -63399.152, -0.015433847, 0.23976962, -974675.56, 143762.83, 0.0, 10.001704, 9.998413 
1.6951776e+3, 1.9587415e+2, -932782.2, -1157284.9, -63785.508, -0.021793485, 0.208432, -915925.25, 104529.7, 0.0, 10.00141, 9.998441 
1.6951539e+3, 2.058726e+2, -858900.9, -1030671.75, -66674.82, -0.009331635, 0.19270688, -836058.06, 86410.12, 0.0, 10.001071, 9.998801 
1.6951303e+3, 2.1587132e+2, -815553.7, -959773.94, -67413.7, 0.018290143, 0.18586732, -788949.7, 35528.324, 0.0, 10.000698, 9.998794 
1.6951065e+3, 2.2586988e+2, -762167.6, -882646.1, -69126.43, 0.026119895, 0.16623752, -730715.94, -4224.7383, 0.0, 10.000389, 9.998799 
1.6950825e+3, 2.358684e+2, -702466.44, -802944.2, -67381.38, 0.019205658, 0.13686608, -668656.5, -40150.984, 0.0, 10.000126, 9.998801 
1.6950586e+3, 2.4586745e+2, -645686.6, -715353.2, -64908.91, 0.018498423, 0.16367257, -606855.0, -76338.71, 0.0, 9.999802, 9.998885 
1.695035e+3, 2.55867e+2, -599094.1, -638928.3, -68584.586, 0.022532437, 0.22925994, -547593.2, -115069.875, 0.0, 9.999435, 9.998914 
1.6950114e+3, 2.658661e+2, -520303.47, -508348.44, -53285.22, 0.026535593, 0.23128952, -460706.5, -126173.31, 0.0, 9.999124, 9.999287 
1.694988e+3, 2.7586493e+2, -460167.97, -425701.16, -48467.008, 0.030142207, 0.18481913, -391494.88, -154950.69, 0.0, 9.998851, 9.999312 
1.6949649e+3, 2.8586453e+2, -380863.34, -297580.16, -37453.902, 0.033950776, 0.2016974, -283214.47, -144667.0, 0.0, 9.998554, 9.999661 
1.6949418e+3, 2.9586488e+2, -331270.38, -227650.39, -38709.926, 0.03817808, 0.2680675, -214786.33, -174242.75, 0.0, 9.998242, 9.999619 
1.6949189e+3, 3.0586302e+2, -316117.22, -176214.33, -18469.27, 0.02695665, 0.12123685, -173817.19, -173817.19, 0.0, 9.997931, 9.999787 
1.6948967e+3, 3.1586388e+2, -263034.56, 7602.3257, -39250.227, 0.07328668, 0.22277543, 13179.806, 13179.806, 0.0, 9.997614, 10.001203 
1.7053446e+3, 1.2590894e+2, -1336924.6, -1712145.1, 13489.8955, -0.060630906, 0.31573072, -1336440.4, 369682.88, 0.023094978, 10.0034485, 9.998357 
1.7053205e+3, 1.3590746e+2, -1237690.6, -1572880.8, -35766.465, -0.10912317, 0.2921301, -1233916.6, 374218.34, 0.0152980285, 10.00325, 9.99874 
1.7052977e+3, 1.4590558e+2, -1204292.0, -1550836.6, -19244.234, -0.01935124, 0.25668025, -1203226.6, 306925.25, 0.007988725, 10.002973, 9.998348 
1.705274e+3, 1.5590411e+2, -1154789.3, -1481796.4, -17960.29, -0.054863304, 0.27631733, -1153805.9, 258359.86, 0.0028641522, 10.002648, 9.998305 
1.7052503e+3, 1.659023e+2, -1107972.3, -1419238.4, -41104.82, -0.059951648, 0.27479702, -1102635.6, 211547.13, 0.0005267183, 10.002337, 9.998213 
1.7052267e+3, 1.7590031e+2, -1053598.6, -1341492.1, -42236.02, -0.030162716, 0.25415692, -1047530.2, 168671.02, 0.000017669796, 10.002033, 9.9982195 
1.7052029e+3, 1.8589833e+2, -983050.06, -1234951.6, -49533.5, -0.018465517, 0.22859661, -973659.94, 144559.31, 0.0, 10.001751, 9.998415 
1.7051788e+3, 1.9589645e+2, -922650.1, -1152757.0, -49207.492, -0.024324765, 0.19924173, -912568.94, 107666.695, 0.0, 10.001483, 9.998436 
1.7051548e+3, 2.0589489e+2, -846575.9, -1029521.6, -55818.72, -0.013345531, 0.18641856, -830889.9, 91359.15, 0.0, 10.001178, 9.998756 
1.7051308e+3, 2.1589361e+2, -797064.9, -955138.9, -59277.547, 0.011405515, 0.18342663, -777305.75, 46953.5, 0.0, 10.000846, 9.998754 
1.7051068e+3, 2.2589216e+2, -747241.94, -871479.7, -62237.125, 0.024734277, 0.16361633, -721427.8, 4844.5, 0.0, 10.000477, 9.998834 
1.7050827e+3, 2.3589067e+2, -707485.4, -802542.56, -62008.336, 0.029208105, 0.13097455, -676885.9, -48599.6, 0.0, 10.000081, 9.998824 
1.7050585e+3, 2.4588968e+2, -663568.56, -729735.8, -59107.227, 0.030346038, 0.15499134, -628916.0, -98618.58, 0.0, 9.999706, 9.998832 
1.7050344e+3, 2.5588915e+2, -615258.44, -651408.1, -58571.293, 0.029452287, 0.21814018, -572036.5, -139730.95, 0.0, 9.999347, 9.998869 
1.7050105e+3, 2.6588824e+2, -527798.75, -503125.63, -41599.984, 0.028751595, 0.21878734, -472071.5, -137756.34, 0.0, 9.999036, 9.999364 
1.7049868e+3, 2.7588713e+2, -468311.4, -421748.3, -42216.37, 0.027832866, 0.17175151, -396819.34, -160494.34, 0.0, 9.998763, 9.999381 
1.7049634e+3, 2.8588682e+2, -395808.44, -304944.06, -34321.223, 0.032618526, 0.18932876, -293437.44, -155109.47, 0.0, 9.998455, 9.999658 
1.7049399e+3, 2.9588714e+2, -350433.2, -237806.27, -33881.89, 0.041842505, 0.25753257, -228399.2, -188074.8, 0.0, 9.998117, 9.999608 
1.7049168e+3, 3.058853e+2, -340343.22, -195847.81, -10847.518, 0.032388594, 0.114486136, -195038.02, -195038.02, 0.0, 9.997801, 9.999713 
1.7048945e+3, 3.1588608e+2, -271514.97, 15867.023, -30871.082, 0.08631255, 0.21429968, 19145.84, 19145.84, 0.0, 9.997504, 10.00131 
1.7153482e+3, 1.259316e+2, -1333848.5, -1707251.0, 7514.093, -0.053694066, 0.31521773, -1333697.4, 372203.94, 0.024090363, 10.003457, 9.998387 
1.7153236e+3, 1.3593037e+2, -1232930.8, -1564327.6, -44215.508, -0.114540346, 0.3091429, -1227132.9, 380777.84, 0.016015902, 10.003257, 9.998798 
1.7153005e+3, 1.4592856e+2, -1203379.0, -1550324.0, -31737.48, -0.02997423, 0.27701756, -1200499.8, 309427.0, 0.008416149, 10.002978, 9.99835 
1.7152767e+3, 1.5592688e+2, -1154252.8, -1482313.8, -30552.016, -0.048551522, 0.2742569, -1151431.8, 260510.42, 0.0030529583, 10.002654, 9.998301 
1.7152528e+3, 1.6592486e+2, -1109450.0, -1424116.3, -52799.01, -0.050223332, 0.25649884, -1100826.9, 213133.69, 0.00057611073, 10.002343, 9.998178 
1.7152289e+3, 1.7592275e+2, -1054719.4, -1345738.9, -53717.254, -0.027325572, 0.22523947, -1045120.75, 170859.48, 0.00002102365, 10.00204, 9.998189 
1.7152047e+3, 1.8592085e+2, -981288.44, -1232893.9, -59628.38, -0.01516405, 0.20961002, -967872.4, 150124.92, 0.0, 10.001756, 9.998427 
1.7151804e+3, 1.9591923e+2, -922062.25, -1152653.5, -59475.605, -0.01520851, 0.2042599, -907625.75, 112385.73, 0.0, 10.001486, 9.998436 
1.715156e+3, 2.0591754e+2, -851953.1, -1041779.8, -68138.14, -0.012561036, 0.1852962, -830027.5, 91998.68, 0.0, 10.001181, 9.998672 
1.7151316e+3, 2.1591592e+2, -801732.44, -966165.7, -71663.89, -0.006017386, 0.15506521, -774883.56, 49156.586, 0.0, 10.00085, 9.998677 
1.7151071e+3, 2.2591451e+2, -745554.56, -869468.44, -76732.586, 0.013646192, 0.14256161, -708888.2, 17164.576, 0.0, 10.000481, 9.998846 
1.7150828e+3, 2.3591337e+2, -706076.4, -801189.56, -76172.15, 0.0416667, 0.14155562, -663834.1, -35770.72, 0.0, 10.000086, 9.998833 
1.7150584e+3, 2.4591233e+2, -663168.5, -730421.56, -71955.664, 0.048383884, 0.16146615, -617369.9, -87295.09, 0.0, 9.99971, 9.998826 
1.7150338e+3, 2.559115e+2, -614873.75, -652060.06, -71027.12, 0.04026086, 0.19515921, -560046.5, -127961.09, 0.0, 9.999351, 9.998864 
1.7150095e+3, 2.659105e+2, -527021.56, -502871.13, -51163.703, 0.031325635, 0.18807861, -462377.0, -128281.4, 0.0, 9.99904, 9.999365 
1.7149855e+3, 2.7590948e+2, -467747.72, -421782.34, -51911.63, 0.021701343, 0.14870961, -387993.38, -151888.75, 0.0, 9.998767, 9.99938 
1.7149618e+3, 2.859092e+2, -394342.97, -302949.9, -46453.96, 0.033120997, 0.17180279, -283484.0, -145376.88, 0.0, 9.998458, 9.999672 
1.7149383e+3, 2.959096e+2, -349249.44, -236376.9, -46009.098, 0.05990168, 0.24450266, -219999.1, -179895.8, 0.0, 9.998119, 9.999619 
1.7149147e+3, 3.0590776e+2, -343371.06, -203359.56, -21524.05, 0.049863737, 0.10150126, -200125.36, -200125.36, 0.0, 9.997804, 9.999661 
1.7148921e+3, 3.1590828e+2, -260719.9, 36990.953, -42933.14, 0.09963614, 0.1848774, 43058.707, 43058.707, 0.0, 9.997508, 10.001455 
1.7253517e+3, 1.2595457e+2, -1302085.6, -1700488.4, 33498.598, -0.056094356, 0.2973118, -1299288.6, 406386.8, 0.025095642, 10.003724, 9.998304 
1.725327e+3, 1.3595343e+2, -1211646.8, -1559739.8, -28193.586, -0.10651796, 0.30678385, -1209378.0, 398306.38, 0.016745616, 10.003435, 9.998743 
1.7253035e+3, 1.4595166e+2, -1184676.4, -1543144.3, -22664.695, -0.026998429, 0.28237292, -1183249.0, 326451.06, 0.008854771, 10.0031185, 9.99833 
1.7252794e+3, 1.5594982e+2, -1136374.6, -1475747.1, -23363.79, -0.046166312, 0.2663739, -1134773.8, 276942.97, 0.003249545, 10.002789, 9.99828 
1.7252551e+3, 1.6594774e+2, -1088404.3, -1413129.4, -43553.484, -0.04963739, 0.24270247, -1082664.1, 231071.47, 0.00062906195, 10.002486, 9.998183 
1.7252308e+3, 1.7594562e+2, -1030965.0, -1333892.9, -42353.64, -0.03042157, 0.21165428, -1025154.8, 190600.23, 0.00002497822, 10.002203, 9.998191 
1.7252065e+3, 1.8594375e+2, -966527.56, -1226464.5, -49574.88, -0.014465145, 0.19971773, -957393.7, 160378.16, 0.0, 10.001862, 9.99842 
1.725182e+3, 1.9594218e+2, -923910.4, -1154612.0, -51208.563, -0.0051493268, 0.20016474, -913054.5, 106731.2, 0.0, 10.001479, 9.998425 
1.7251572e+3, 2.0594047e+2, -857005.5, -1047426.6, -57530.754, -0.004354634, 0.18083991, -840973.8, 80827.01, 0.0, 10.001162, 9.998641 
1.7251323e+3, 2.1593878e+2, -798486.4, -967837.0, -57891.367, -0.007640664, 0.14608014, -780588.2, 43227.426, 0.0, 10.000888, 9.998647 
1.7251077e+3, 2.2593737e+2, -734522.9, -864830.94, -65381.793, 0.010059942, 0.13567422, -707374.0, 18454.324, 0.0, 10.000562, 9.998838 
1.725083e+3, 2.3593627e+2, -690094.3, -794152.4, -66799.17, 0.041738216, 0.14139381, -657452.5, -29614.088, 0.0, 10.0002, 9.998824 
1.7250581e+3, 2.459352e+2, -643483.6, -718060.7, -61874.35, 0.04918486, 0.15642878, -608530.4, -78680.5, 0.0, 9.999835, 9.998849 
1.7250332e+3, 2.5593424e+2, -596357.9, -640774.2, -58875.758, 0.039654024, 0.17693372, -555641.0, -123779.87, 0.0, 9.99947, 9.998883 
1.7250085e+3, 2.6593325e+2, -516713.4, -498675.97, -37190.586, 0.03343471, 0.16904211, -469426.22, -135554.9, 0.0, 9.999116, 9.999355 
1.7249843e+3, 2.759323e+2, -468089.44, -422690.97, -39117.465, 0.029520333, 0.13766326, -400163.75, -164283.98, 0.0, 9.99877, 9.999372 
1.7249602e+3, 2.8593203e+2, -402311.7, -304987.34, -36030.773, 0.043299228, 0.16207919, -293100.16, -155217.86, 0.0, 9.998397, 9.999685 
1.7249364e+3, 2.9593244e+2, -364894.84, -242998.69, -35449.555, 0.06996723, 0.23182134, -233439.05, -193560.17, 0.0, 9.998011, 9.999624 
1.7249125e+3, 3.059306e+2, -361802.47, -219195.47, -8864.505, 0.054823145, 0.09622266, -218646.56, -218646.56, 0.0, 9.997709, 9.999598 
1.7248896e+3, 3.1593096e+2, -257188.4, 54652.453, -33028.047, 0.10651025, 0.16563441, 58112.176, 58112.176, 0.0, 9.997466, 10.0015955 
1.7353553e+3, 1.2597786e+2, -1314470.5, -1728109.6, 22556.016, -0.06919487, 0.26570952, -1313244.1, 392201.06, 0.026112847, 10.003732, 9.998112 
1.7353305e+3, 1.3597667e+2, -1221784.0, -1582547.8, -39851.574, -0.086666666, 0.28742275, -1217434.3, 390021.6, 0.017487897, 10.003443, 9.998582 
1.7353068e+3, 1.4597492e+2, -1186812.4, -1549635.0, -35277.133, -0.012199546, 0.2745259, -1183414.3, 326057.5, 0.0093043, 10.003127, 9.998283 
1.7352822e+3, 1.5597296e+2, -1137999.4, -1481271.4, -35975.793, -0.047414094, 0.25336808, -1134269.5, 277219.72, 0.0034534705, 10.002796, 9.9982395 
1.7352575e+3, 1.6597094e+2, -1084895.6, -1407949.5, -54310.008, -0.057317752, 0.23302238, -1076009.8, 237497.98, 0.00068548496, 10.002493, 9.998217 
1.735233e+3, 1.7596893e+2, -1028282.9, -1330225.9, -53514.734, -0.038987108, 0.21205264, -1019078.8, 196446.92, 0.00002961696, 10.002209, 9.998214 
1.7352082e+3, 1.8596704e+2, -967959.75, -1231243.1, -63989.418, -0.01620756, 0.1980875, -953231.44, 164311.44, 0.0, 10.001867, 9.998385 
1.7351834e+3, 1.9596533e+2, -925010.6, -1158776.4, -65150.883, 0.005721672, 0.18753023, -908079.25, 111479.0, 0.0, 10.001485, 9.998394 
1.7351584e+3, 2.0596367e+2, -855189.9, -1045363.06, -67590.04, 0.0107855415, 0.1733842, -833615.1, 87957.85, 0.0, 10.001166, 9.998654 
1.7351332e+3, 2.1596214e+2, -797374.5, -966976.5, -68204.82, 0.005750691, 0.15555756, -773349.44, 50236.598, 0.0, 10.000892, 9.9986515 
1.7351082e+3, 2.2596067e+2, -736442.0, -870186.4, -78526.266, 0.013509235, 0.1422179, -700172.2, 25427.08, 0.0, 10.000566, 9.9988 
1.735083e+3, 2.3595938e+2, -691642.7, -798718.1, -79789.02, 0.029546248, 0.13072954, -649094.1, -21482.607, 0.0, 10.000204, 9.998793 
1.7350577e+3, 2.4595825e+2, -639645.25, -711501.44, -74974.72, 0.033045534, 0.1401977, -592434.7, -62811.516, 0.0, 9.99984, 9.998894 
1.7350325e+3, 2.559574e+2, -593128.1, -635474.44, -71708.016, 0.027907073, 0.16344659, -539532.7, -107899.516, 0.0, 9.999474, 9.998919 
1.7350078e+3, 2.6595646e+2, -518115.28, -502825.3, -49557.09, 0.035227235, 0.16168791, -460327.0, -126684.33, 0.0, 9.99912, 9.999327 
1.7349833e+3, 2.7595556e+2, -469319.84, -426462.78, -51663.0, 0.051161844, 0.13881367, -391960.56, -156309.66, 0.0, 9.998773, 9.999345 
1.7349589e+3, 2.8595522e+2, -401265.88, -304047.63, -50119.48, 0.062886864, 0.16025081, -282836.9, -145182.86, 0.0, 9.998401, 9.999692 
1.7349343e+3, 2.9595554e+2, -364789.88, -243881.64, -48894.84, 0.07182773, 0.21943152, -226583.55, -186931.84, 0.0, 9.9980135, 9.999619 
1.73491e+3, 3.059538e+2, -367305.3, -231928.66, -17586.465, 0.04699006, 0.09902139, -229681.34, -229681.34, 0.0, 9.997713, 9.99951 
1.734887e+3, 3.1595403e+2, -247330.63, 73429.8, -43297.895, 0.10736182, 0.16213116, 79171.586, 79171.586, 0.0, 9.997471, 10.001723 
1.7453592e+3, 1.2600155e+2, -1286326.5, -1726265.6, 30382.666, -0.06530295, 0.2545485, -1284238.3, 420973.5, 0.027146295, 10.003988, 9.998 
1.7453341e+3, 1.3600032e+2, -1194037.8, -1579329.8, -28097.793, -0.08160256, 0.2812578, -1191999.5, 415223.9, 0.01824299, 10.003687, 9.998486 
1.7453101e+3, 1.4599854e+2, -1156448.8, -1538269.9, -22489.545, -0.013387891, 0.27203676, -1155128.6, 354111.03, 0.009763315, 10.003356, 9.99825 
1.7452851e+3, 1.5599643e+2, -1109378.1, -1470646.0, -22756.71, -0.048128642, 0.23876818, -1107950.3, 303308.13, 0.0036636468, 10.00301, 9.998208 
1.74526e+3, 1.659944e+2, -1057169.8, -1393021.6, -40696.02, -0.056621626, 0.21998905, -1052308.9, 260967.95, 0.0007450982, 10.002679, 9.998228 
1.7452352e+3, 1.7599253e+2, -1006235.5, -1318530.8, -42120.023, -0.036973715, 0.21065444, -1000654.44, 214639.33, 0.00003499582, 10.0023575, 9.998221 
1.7452101e+3, 1.8599066e+2, -947305.44, -1221896.1, -54630.535, -0.014393433, 0.1984239, -936835.7, 180475.11, 0.0, 10.002014, 9.998378 
1.7451851e+3, 1.9598888e+2, -901165.7, -1148036.5, -54179.348, 0.006637003, 0.18251899, -889798.7, 129528.17, 0.0, 10.001654, 9.998385 
1.7451596e+3, 2.0598717e+2, -836489.6, -1035493.9, -54816.195, 0.013703521, 0.16420335, -822389.44, 98952.45, 0.0, 10.001293, 9.99866 
1.7451343e+3, 2.1598563e+2, -791347.2, -963461.0, -56644.56, 0.0125278, 0.14345816, -774377.9, 48977.16, 0.0, 10.000933, 9.998655 
1.7451088e+3, 2.2598419e+2, -735030.56, -867885.3, -66923.68, 0.017012397, 0.13296485, -707163.8, 18204.188, 0.0, 10.00057, 9.998813 
1.7450832e+3, 2.3598295e+2, -690780.7, -797194.9, -64921.508, 0.024808945, 0.12776044, -660048.56, -32668.781, 0.0, 10.000207, 9.9988 
1.7450576e+3, 2.4598181e+2, -637373.4, -711247.9, -61024.543, 0.02944907, 0.13483286, -602977.94, -73586.336, 0.0, 9.999861, 9.998884 
1.7450319e+3, 2.5598085e+2, -586374.7, -632970.4, -62256.113, 0.032157816, 0.1500821, -543199.9, -111797.69, 0.0, 9.999525, 9.99891 
1.7450069e+3, 2.6597995e+2, -518541.06, -501594.72, -42243.1, 0.043962006, 0.15076305, -466983.38, -133571.95, 0.0, 9.999112, 9.999337 
1.744982e+3, 2.7597916e+2, -487204.38, -434617.16, -41283.082, 0.06185381, 0.1373586, -411965.4, -176546.56, 0.0, 9.998651, 9.999347 
1.7449573e+3, 2.859788e+2, -418163.6, -318168.4, -38894.047, 0.07376855, 0.1559744, -304821.66, -167398.84, 0.0, 9.998312, 9.999636 
1.7449325e+3, 2.959789e+2, -362303.13, -248366.17, -42490.805, 0.08175387, 0.20421399, -234265.13, -194842.81, 0.0, 9.998057, 9.999565 
1.7449076e+3, 3.0597734e+2, -373823.0, -239183.83, -11561.365, 0.048865575, 0.10673856, -238198.28, -238198.28, 0.0, 9.997688, 9.999471 
1.7448844e+3, 3.1597742e+2, -268686.1, 81500.64, -35322.67, 0.1077081, 0.15563866, 85028.04, 85028.04, 0.0, 9.997248, 10.001885 
1.7553632e+3, 1.260257e+2, -1289041.4, -1733303.3, 18486.793, -0.04959128, 0.26191545, -1288273.4, 416701.16, 0.02819877, 10.003996, 9.997949 
1.7553377e+3, 1.360244e+2, -1196232.6, -1585577.0, -40351.31, -0.08961085, 0.2866325, -1192094.6, 414892.5, 0.019009957, 10.003695, 9.99844 
1.7553133e+3, 1.4602256e+2, -1157480.1, -1542460.9, -35878.25, -0.028583795, 0.27421254, -1154165.0, 354838.78, 0.010229625, 10.003364, 9.998219 
1.7552881e+3, 1.5602024e+2, -1110362.1, -1474849.3, -36048.047, -0.048380252, 0.22275728, -1106831.1, 304192.94, 0.003878522, 10.003017, 9.998177 
1.7552628e+3, 1.6601817e+2, -1057197.5, -1395040.1, -52977.582, -0.048457045, 0.20403782, -1049084.9, 263957.97, 0.0008073514, 10.002686, 9.998213 
1.7552377e+3, 1.7601644e+2, -1006328.44, -1320401.3, -54531.3, -0.025361124, 0.20766895, -997129.75, 217929.3, 0.00004108452, 10.002363, 9.998207 
1.7552122e+3, 1.8601461e+2, -945877.56, -1220468.9, -68172.19, -0.009450097, 0.20058079, -929884.1, 187191.6, 0.000000000016639355, 10.002018, 9.998387 
1.7551865e+3, 1.9601284e+2, -900006.2, -1147174.9, -67588.51, -0.0018262067, 0.18451649, -882731.44, 136360.14, 0.0, 10.001658, 9.998391 
1.7551608e+3, 2.0601098e+2, -836445.94, -1036962.44, -68097.57, 0.005163682, 0.15323566, -815506.0, 105601.67, 0.0, 10.001298, 9.998649 
1.7551352e+3, 2.1600921e+2, -790996.2, -964294.8, -69814.96, 0.012986872, 0.11083811, -766370.0, 56752.723, 0.0, 10.000937, 9.998649 
1.7551094e+3, 2.260079e+2, -730482.4, -860071.25, -80084.516, 0.020513589, 0.10873451, -692263.0, 32871.73, 0.0, 10.000575, 9.998865 
1.7550834e+3, 2.36007e+2, -687194.94, -791415.75, -77848.51, 0.027340934, 0.13232282, -645625.6, -18482.19, 0.0, 10.000213, 9.998838 
1.7550574e+3, 2.4600583e+2, -641653.3, -721621.8, -72938.01, 0.03815844, 0.14005932, -598458.9, -69303.31, 0.0, 9.999866, 9.998812 
1.7550318e+3, 2.560046e+2, -590010.3, -641835.56, -74553.56, 0.05197047, 0.13688935, -536994.5, -105825.88, 0.0, 9.999529, 9.998848 
1.7550062e+3, 2.660037e+2, -514964.8, -495433.9, -59066.438, 0.059227593, 0.13626228, -445331.13, -112153.08, 0.0, 9.999116, 9.999379 
1.7549807e+3, 2.7600306e+2, -485038.56, -431365.28, -57227.11, 0.061544035, 0.1331131, -394994.75, -159810.67, 0.0, 9.998653, 9.999369 
1.7549555e+3, 2.860026e+2, -426492.72, -336746.4, -47971.79, 0.076041676, 0.14910486, -315931.72, -178742.6, 0.0, 9.998316, 9.999508 
1.7549306e+3, 2.9600248e+2, -369281.25, -264316.03, -52418.805, 0.09960793, 0.18624495, -242622.11, -203430.77, 0.0, 9.998061, 9.9994545 
1.7549056e+3, 3.060012e+2, -372973.03, -238936.03, -28067.537, 0.060266677, 0.11985961, -233295.97, -233295.97, 0.0, 9.997692, 9.999472 
1.7548816e+3, 3.160011e+2, -255013.02, 108848.555, -52902.004, 0.1082963, 0.1544933, 116383.945, 116383.945, 0.0, 9.99725, 10.002073 
1.7653672e+3, 1.2605007e+2, -1257824.8, -1728374.8, 30786.883, -0.050263047, 0.2611493, -1255819.0, 448916.0, 0.029272405, 10.004269, 9.99785 
1.7653416e+3, 1.3604857e+2, -1167648.8, -1580957.5, -32119.375, -0.08319357, 0.27553782, -1165167.5, 441582.28, 0.019788796, 10.003941, 9.998352 
1.7653167e+3, 1.4604673e+2, -1123456.6, -1522772.8, -28216.129, -0.02620493, 0.2671937, -1121472.8, 387293.56, 0.0107018845, 10.003591, 9.998243 
1.7652911e+3, 1.5604445e+2, -1078441.1, -1457092.3, -25074.879, -0.047953445, 0.21690838, -1076787.8, 333998.22, 0.004096641, 10.003231, 9.998195 
1.7652656e+3, 1.6604237e+2, -1034930.3, -1387612.1, -41509.023, -0.046990786, 0.19723909, -1030110.75, 282694.2, 0.00087147695, 10.002855, 9.99818 
1.7652401e+3, 1.7604057e+2, -992886.75, -1316482.0, -44762.074, -0.021633731, 0.19939813, -986809.06, 228012.77, 0.000047732003, 10.002469, 9.998182 
1.7652142e+3, 1.8603876e+2, -931965.6, -1208989.0, -58111.48, -0.008588598, 0.19340211, -920269.3, 196569.03, 0.0000000004293444, 10.002095, 9.998427 
1.7651883e+3, 1.9603707e+2, -886594.06, -1135912.0, -55681.77, -0.0070458814, 0.17975138, -874723.5, 144130.0, 0.0, 10.001732, 9.998431 
1.765162e+3, 2.0603521e+2, -821546.1, -1023906.94, -52754.832, -0.00003531653, 0.14489116, -808618.9, 112250.36, 0.0, 10.001377, 9.998699 
1.7651361e+3, 2.1603341e+2, -775232.06, -951916.0, -50499.727, 0.011960397, 0.09501005, -761816.8, 61067.434, 0.0, 10.001027, 9.998689 
1.76511e+3, 2.2603212e+2, -717127.5, -856281.2, -62628.71, 0.020460052, 0.09544618, -693091.9, 31804.236, 0.0, 10.00068, 9.998839 
1.7650835e+3, 2.360313e+2, -670555.75, -785246.0, -66652.53, 0.026115675, 0.12835893, -639974.6, -13069.921, 0.0, 10.000337, 9.99882 
1.7650574e+3, 2.4603014e+2, -627138.1, -707920.25, -59871.395, 0.039025493, 0.13439049, -595307.2, -66390.45, 0.0, 9.999938, 9.99887 
1.7650312e+3, 2.5602886e+2, -590805.9, -637037.0, -52250.703, 0.05701565, 0.12201973, -556785.94, -125856.18, 0.0, 9.999503, 9.998893 
1.7650053e+3, 2.66028e+2, -517945.97, -503383.8, -38338.293, 0.061635982, 0.1265266, -471641.3, -138702.31, 0.0, 9.9991255, 9.999319 
1.7649794e+3, 2.7602744e+2, -469684.84, -429661.7, -44129.53, 0.056919582, 0.13796462, -401218.34, -166273.58, 0.0, 9.998785, 9.999316 
1.7649539e+3, 2.8602687e+2, -417418.8, -330245.13, -30099.604, 0.07587074, 0.14625381, -320862.16, -183911.44, 0.0, 9.998371, 9.999525 
1.7649287e+3, 2.9602656e+2, -390972.28, -273809.75, -23868.86, 0.11133023, 0.16145024, -269133.72, -230179.11, 0.0, 9.9979105, 9.999461 
1.7649032e+3, 3.0602556e+2, -400845.84, -264433.1, -826.45184, 0.06575311, 0.1303858, -264428.1, -264428.1, 0.0, 9.997555, 9.999361 
1.7648788e+3, 3.1602517e+2, -249348.16, 115717.99, -35819.824, 0.10671237, 0.14489494, 119199.38, 119199.38, 0.0, 9.997273, 10.002108 
1.7753713e+3, 1.2607472e+2, -1266772.9, -1749731.9, 17937.855, -0.067141876, 0.25424185, -1266107.5, 438385.2, 0.030372305, 10.004281, 9.997699 
1.7753457e+3, 1.3607286e+2, -1176034.9, -1599617.3, -44674.383, -0.06415475, 0.25008777, -1171374.5, 435136.56, 0.020582682, 10.003946, 9.9982195 
1.7753205e+3, 1.460711e+2, -1118337.6, -1513192.0, -41631.977, -0.008539865, 0.2522982, -1113995.8, 394530.94, 0.0111807985, 10.003594, 9.998308 
1.7752942e+3, 1.5606907e+2, -1073899.8, -1449249.9, -38858.246, -0.047018852, 0.22017734, -1069919.1, 340624.75, 0.0043172166, 10.003236, 9.998247 
1.7752685e+3, 1.6606697e+2, -1037852.56, -1395530.9, -56105.508, -0.05157147, 0.19853194, -1029258.4, 283304.75, 0.0009367269, 10.002861, 9.998124 
1.7752425e+3, 1.7606497e+2, -995016.9, -1322723.9, -59184.043, -0.02515382, 0.18624562, -984655.75, 229926.31, 0.00005469773, 10.002474, 9.998138 
1.7752163e+3, 1.8606316e+2, -926742.9, -1199845.8, -71592.055, -0.011490047, 0.17768992, -909113.5, 207485.2, 0.0000000022461928, 10.002101, 9.998489 
1.7751898e+3, 1.9606155e+2, -881211.9, -1126298.5, -69123.13, -0.009279476, 0.1687997, -863060.94, 155551.72, 0.0, 10.001737, 9.998496 
1.7751634e+3, 2.0605986e+2, -813754.56, -1009181.75, -65693.16, -0.0022147982, 0.13913673, -793724.7, 126902.19, 0.0, 10.001381, 9.998799 
1.775137e+3, 2.1605821e+2, -769082.6, -940550.75, -63383.855, 0.009417253, 0.095096156, -748196.6, 74443.336, 0.0, 10.001031, 9.998767 
1.7751107e+3, 2.2605687e+2, -724181.5, -872245.0, -75090.31, 0.016956955, 0.09247694, -692765.4, 31887.22, 0.0, 10.000684, 9.99873 
1.7750838e+3, 2.3605584e+2, -675680.25, -797098.9, -79260.82, 0.021177245, 0.11610842, -636550.2, -9886.448, 0.0, 10.0003395, 9.998738 
1.7750572e+3, 2.460547e+2, -614052.5, -682087.75, -75553.445, 0.032064795, 0.11811771, -565211.7, -36536.31, 0.0, 9.999942, 9.999046 
1.7750306e+3, 2.5605363e+2, -580219.6, -616598.25, -67459.08, 0.04742804, 0.105391786, -528540.6, -97854.64, 0.0, 9.999508, 9.999032 
1.7750043e+3, 2.6605278e+2, -529273.0, -528300.8, -50487.637, 0.051290076, 0.12153612, -478296.94, -145602.14, 0.0, 9.999129, 9.999147 
1.774978e+3, 2.7605224e+2, -478552.7, -449493.22, -56776.492, 0.047657892, 0.15224548, -405416.78, -170715.36, 0.0, 9.998789, 9.999179 
1.7749521e+3, 2.860516e+2, -405624.8, -307229.22, -47103.39, 0.07277234, 0.14749765, -288315.7, -151607.53, 0.0, 9.998375, 9.999682 
1.7749266e+3, 2.9605108e+2, -382082.97, -256660.3, -39978.523, 0.11686561, 0.12914251, -245000.98, -206288.31, 0.0, 9.997913, 9.999578 
1.7749007e+3, 3.0605042e+2, -416756.0, -298895.3, -11107.512, 0.06533954, 0.1382019, -297857.63, -297857.63, 0.0, 9.997559, 9.999124 
1.774876e+3, 3.1604967e+2, -258805.14, 94520.6, -47400.754, 0.10291592, 0.13669403, 100769.19, 100769.19, 0.0, 9.997277, 10.001962 
1.7853759e+3, 1.2609978e+2, -1216540.5, -1727531.0, 32584.01, -0.067108914, 0.25085732, -1214471.1, 489775.16, 0.03150289, 10.004656, 9.997669 
1.7853497e+3, 1.3609776e+2, -1150277.1, -1590841.5, -22160.344, -0.06024723, 0.23331013, -1149165.3, 457100.84, 0.021394683, 10.004149, 9.998182 
1.785324e+3, 1.4609602e+2, -1099827.0, -1505496.5, -17088.28, -0.0071682334, 0.24009413, -1099108.5, 409173.13, 0.011667448, 10.003734, 9.998293 
1.7852975e+3, 1.5609404e+2, -1054169.9, -1441041.0, -20370.883, -0.044466417, 0.21389896, -1053100.1, 357198.28, 0.0045398334, 10.003382, 9.998232 
1.7852712e+3, 1.660919e+2, -1018459.75, -1386811.1, -39509.97, -0.049185183, 0.19180094, -1014269.5, 298048.34, 0.0010024497, 10.003, 9.9981165 
1.785245e+3, 1.7608985e+2, -977390.94, -1314885.8, -39797.867, -0.024522921, 0.1753244, -972761.44, 241575.89, 0.00006171727, 10.002601, 9.99813 
1.7852184e+3, 1.8608803e+2, -911375.8, -1191684.1, -53229.07, -0.011409705, 0.16599236, -901608.25, 214745.83, 0.0000000068240182, 10.002205, 9.998493 
1.7851916e+3, 1.9608644e+2, -869787.25, -1119548.6, -55220.52, -0.008670189, 0.15849403, -858123.06, 160244.92, 0.0, 10.001812, 9.998506 
1.7851648e+3, 2.0608479e+2, -803398.2, -997605.0, -55368.85, -0.0012175967, 0.13013029, -788721.5, 131660.13, 0.0, 10.001426, 9.998856 
1.7851382e+3, 2.1608323e+2, -763523.9, -931750.7, -56656.805, 0.0105873495, 0.08748902, -746222.0, 76171.836, 0.0, 10.001044, 9.998819 
1.7851113e+3, 2.2608188e+2, -726920.6, -869819.9, -64121.707, 0.017582893, 0.08224169, -702366.94, 22039.426, 0.0, 10.000651, 9.998761 
1.7850842e+3, 2.3608081e+2, -687038.94, -799144.94, -58486.008, 0.02086798, 0.100281805, -662082.4, -35664.504, 0.0, 10.000249, 9.998767 
1.785057e+3, 2.4607973e+2, -618631.6, -681605.56, -57910.188, 0.029749388, 0.1058587, -584201.8, -55772.78, 0.0, 9.999901, 9.999068 
1.78503e+3, 2.5607878e+2, -567453.6, -608218.8, -61758.223, 0.042424455, 0.10273874, -522801.38, -92362.76, 0.0, 9.999588, 9.99905 
1.7850032e+3, 2.6607797e+2, -529319.44, -529702.2, -44941.88, 0.048555937, 0.12042005, -484568.5, -152121.05, 0.0, 9.999137, 9.999133 
1.7849767e+3, 2.760774e+2, -507106.88, -463698.78, -39331.5, 0.0503501, 0.14754476, -440480.3, -206025.52, 0.0, 9.998597, 9.999173 
1.7849505e+3, 2.860767e+2, -421211.16, -306579.66, -26218.182, 0.074569106, 0.13659069, -300867.75, -164406.03, 0.0, 9.998235, 9.999753 
1.7849246e+3, 2.9607618e+2, -366558.03, -241982.45, -25892.861, 0.113667235, 0.11030935, -236815.0, -198349.0, 0.0, 9.997992, 9.999641 
1.7848982e+3, 3.0607593e+2, -419180.2, -304249.97, 7112.3823, 0.060593996, 0.16005191, -303811.5, -303811.5, 0.0, 9.997562, 9.999084 
1.7848732e+3, 3.160746e+2, -300993.06, 69261.83, -15939.759, 0.11000429, 0.11272746, 69946.78, 69946.78, 0.0, 9.997011, 10.001914 
1.7953806e+3, 1.261253e+2, -1211497.1, -1717599.5, 13509.698, -0.05467389, 0.2511871, -1211136.8, 492858.8, 0.032660767, 10.004663, 9.997735 
1.7953537e+3, 1.3612324e+2, -1146577.0, -1585333.1, -40741.72, -0.069734626, 0.22402993, -1142825.9, 463189.1, 0.022223309, 10.00416, 9.998218 
1.7953277e+3, 1.4612146e+2, -1105158.1, -1519090.1, -30545.338, -0.02006244, 0.23014626, -1102916.1, 405114.72, 0.012161505, 10.003743, 9.998197 
1.795301e+3, 1.5611932e+2, -1058957.5, -1452907.9, -34025.563, -0.04046409, 0.19915839, -1056040.3, 354009.28, 0.0047642314, 10.003387, 9.998149 
1.7952743e+3, 1.6611719e+2, -1015952.6, -1383192.3, -54677.086, -0.040608797, 0.17799872, -1007984.8, 304084.38, 0.0010682015, 10.003005, 9.998139 
1.7952476e+3, 1.7611521e+2, -975562.75, -1312593.6, -54936.9, -0.02017808, 0.16645962, -966834.0, 247253.72, 0.00006858208, 10.002605, 9.998144 
1.7952205e+3, 1.8611336e+2, -914584.4, -1199975.3, -68018.17, -0.008672888, 0.15793592, -899202.44, 216902.3, 0.000000015228453, 10.00221, 9.998435 
1.7951934e+3, 1.9611171e+2, -872360.44, -1126775.0, -69797.5, -0.0055248607, 0.14869769, -854469.9, 163649.8, 0.0, 10.001818, 9.998454 
1.7951663e+3, 2.0611e+2, -802070.2, -996578.94, -69365.97, 0.0026953064, 0.11798671, -779867.25, 140266.55, 0.0, 10.001431, 9.998861 
1.7951392e+3, 2.1610841e+2, -761354.94, -928623.56, -70674.18, 0.015271042, 0.072669245, -735492.5, 86653.53, 0.0, 10.001048, 9.99884 
1.7951117e+3, 2.2610715e+2, -715137.94, -846703.4, -78742.28, 0.022118583, 0.06515976, -678316.0, 45841.582, 0.0, 10.000654, 9.9989195 
1.7950843e+3, 2.3610623e+2, -677539.6, -780921.8, -72762.08, 0.024906734, 0.08100507, -639976.7, -13809.23, 0.0, 10.000253, 9.998891 
1.7950569e+3, 2.4610522e+2, -627536.5, -701549.2, -68999.3, 0.03189631, 0.09759238, -586246.1, -58068.016, 0.0, 9.999905, 9.998931 
1.7950295e+3, 2.5610435e+2, -574423.7, -623987.3, -73705.484, 0.04186609, 0.11403752, -521445.34, -91257.31, 0.0, 9.999591, 9.998941 
1.7950024e+3, 2.6610345e+2, -519196.72, -510044.63, -64678.805, 0.05333199, 0.123017386, -449780.2, -117582.77, 0.0, 9.999141, 9.999268 
1.7949754e+3, 2.7610275e+2, -498265.5, -446797.53, -57864.953, 0.06518588, 0.12322816, -409202.28, -174996.89, 0.0, 9.998601, 9.999289 
1.7949487e+3, 2.861021e+2, -422153.53, -310040.66, -34865.29, 0.08126406, 0.113132566, -300082.6, -163870.67, 0.0, 9.998239, 9.999728 
1.7949224e+3, 2.9610175e+2, -365857.94, -242207.72, -35802.1, 0.10087956, 0.10559217, -232589.6, -194374.42, 0.0, 9.997996, 9.999639 
1.7948957e+3, 3.0610198e+2, -407405.8, -281281.66, -13501.183, 0.05102787, 0.19708966, -279852.6, -279852.6, 0.0, 9.997566, 9.999241 
1.7948703e+3, 3.1610024e+2, -298540.3, 73616.11, -37386.273, 0.12897825, 0.08966575, 77334.72, 77334.72, 0.0, 9.997012, 10.0019455 
1.8053854e+3, 1.261512e+2, -1179922.9, -1706597.1, 35501.38, -0.051344372, 0.23432122, -1177540.6, 526199.9, 0.03383556, 10.004916, 9.997688 
1.8053581e+3, 1.361491e+2, -1105720.6, -1572187.5, -25989.076, -0.068626344, 0.20986399, -1104277.1, 501483.16, 0.023063272, 10.004482, 9.998153 
1.8053314e+3, 1.4614731e+2, -1069358.8, -1509077.8, -15953.464, -0.021164088, 0.22254242, -1068780.6, 438995.8, 0.012661494, 10.004029, 9.998125 
1.8053046e+3, 1.5614511e+2, -1037439.2, -1449507.8, -18261.139, -0.036105435, 0.19157341, -1036631.5, 373164.72, 0.0049903607, 10.003571, 9.998083 
1.8052775e+3, 1.6614291e+2, -1000408.2, -1377266.1, -40803.113, -0.035231106, 0.17005439, -996040.94, 315775.34, 0.0011338704, 10.003121, 9.998123 
1.8052502e+3, 1.7614093e+2, -966323.94, -1309981.5, -44199.867, -0.017342718, 0.15855248, -960730.2, 253104.64, 0.0000752009, 10.002679, 9.998125 
1.805223e+3, 1.8613905e+2, -904262.44, -1197707.9, -55733.64, -0.009138946, 0.1503959, -894033.56, 221818.56, 0.000000026593373, 10.0022955, 9.998408 
1.8051952e+3, 1.9613737e+2, -854609.8, -1119893.1, -56078.14, -0.009492527, 0.1413579, -843242.56, 174624.94, 0.0, 10.001949, 9.998437 
1.8051678e+3, 2.0613568e+2, -783667.3, -980741.3, -54834.316, -0.0017083985, 0.10957599, -769437.56, 150443.9, 0.0, 10.00153, 9.998921 
1.8051401e+3, 2.1613413e+2, -755780.7, -919783.75, -52585.29, 0.012350376, 0.062804, -740368.3, 81524.77, 0.0, 10.001062, 9.998893 
1.8051124e+3, 2.261329e+2, -714598.06, -844709.8, -64611.17, 0.021175379, 0.056033146, -687964.94, 35939.293, 0.0, 10.000653, 9.998933 
1.8050846e+3, 2.3613201e+2, -672680.7, -776599.8, -69573.2, 0.026310554, 0.073628575, -637805.75, -11891.9375, 0.0, 10.00028, 9.998907 
1.8050568e+3, 2.4613105e+2, -633543.56, -700000.1, -62835.844, 0.03369707, 0.090411685, -595691.2, -67766.84, 0.0, 9.999846, 9.998969 
1.805029e+3, 2.5613016e+2, -603769.9, -633795.0, -55120.184, 0.042723797, 0.10629535, -561654.4, -131720.34, 0.0, 9.9993725, 9.998979 
1.8050015e+3, 2.6612934e+2, -539203.44, -515128.8, -47015.41, 0.05321795, 0.11544125, -478634.22, -146691.2, 0.0, 9.998985, 9.999307 
1.804974e+3, 2.7612865e+2, -487908.5, -437435.16, -47147.25, 0.064251676, 0.11601919, -409195.2, -175244.7, 0.0, 9.998655, 9.999326 
1.804947e+3, 2.8612798e+2, -421060.94, -307764.2, -22641.855, 0.08178556, 0.10301812, -303406.9, -167449.63, 0.0, 9.998241, 9.9997425 
1.8049203e+3, 2.9612762e+2, -395949.5, -252742.19, -21331.895, 0.10392077, 0.09083394, -249632.17, -211670.89, 0.0, 9.997774, 9.999672 
1.804893e+3, 3.0612838e+2, -426845.5, -269416.6, -1185.0435, 0.050282247, 0.22107257, -269407.7, -269407.7, 0.0, 9.997344, 9.999429 
1.8048672e+3, 3.1612638e+2, -312154.72, 63211.887, -24512.56, 0.13117304, 0.06946839, 64805.86, 64805.86, 0.0, 9.996938, 10.001908 
1.8153901e+3, 1.2617749e+2, -1189313.5, -1728186.1, 18710.453, -0.05736834, 0.20304866, -1188664.6, 514816.47, 0.03501907, 10.004926, 9.997536 
1.8153626e+3, 1.3617533e+2, -1116045.1, -1594582.3, -42431.71, -0.0583181, 0.19151221, -1112311.9, 493189.94, 0.02391083, 10.004488, 9.997994 
1.8153356e+3, 1.4617357e+2, -1072590.9, -1517355.6, -33216.563, -0.01206397, 0.2169402, -1070123.9, 437394.38, 0.013166844, 10.004035, 9.998067 
1.815308e+3, 1.5617135e+2, -1040237.9, -1457796.5, -35678.527, -0.03158406, 0.19026081, -1037211.25, 372327.16, 0.005218844, 10.003579, 9.998023 
1.8152805e+3, 1.6616909e+2, -1003307.44, -1386101.5, -57622.81, -0.032803707, 0.16733682, -994821.44, 316737.84, 0.0011998421, 10.003131, 9.998059 
1.8152529e+3, 1.76167e+2, -968763.6, -1317865.4, -60390.85, -0.015936326, 0.15151809, -958611.9, 254966.8, 0.00008165094, 10.002688, 9.998068 
1.815225e+3, 1.8616508e+2, -903597.56, -1198691.1, -68523.67, -0.012613937, 0.14334196, -888462.0, 227134.28, 0.000000038391406, 10.002303, 9.9984 
1.815197e+3, 1.9616342e+2, -853422.75, -1119114.9, -69366.82, -0.020083727, 0.13639744, -836402.75, 181208.89, 0.0, 10.001955, 9.998441 
1.815169e+3, 2.0616178e+2, -775705.56, -965775.75, -72184.664, -0.013928232, 0.10477682, -751399.56, 168225.33, 0.0, 10.001534, 9.999023 
1.8151411e+3, 2.1616034e+2, -749745.5, -909004.06, -69574.46, 0.0020765702, 0.057574943, -723632.5, 98002.82, 0.0, 10.001067, 9.998965 
1.815113e+3, 2.2615911e+2, -723193.3, -864157.56, -78203.984, 0.014897937, 0.054462437, -688396.8, 35249.87, 0.0, 10.000657, 9.998798 
1.8150848e+3, 2.3615815e+2, -678801.9, -790678.44, -83410.14, 0.02522967, 0.07783724, -634309.4, -8652.022, 0.0, 10.000283, 9.99881 
1.8150567e+3, 2.4615714e+2, -618718.94, -670701.56, -79954.21, 0.03516488, 0.08419638, -560637.5, -32969.555, 0.0, 9.99985, 9.999169 
1.8150285e+3, 2.5615624e+2, -591099.06, -609117.56, -71694.59, 0.04482834, 0.079488985, -527849.9, -98172.76, 0.0, 9.999377, 9.999146 
1.8150003e+3, 2.6615554e+2, -542868.9, -524284.03, -58769.043, 0.048007924, 0.097842306, -474077.3, -142392.52, 0.0, 9.998989, 9.999243 
1.8149725e+3, 2.7615508e+2, -490770.56, -444896.53, -59537.492, 0.047130812, 0.12660116, -404030.56, -170340.13, 0.0, 9.998659, 9.999274 
1.814945e+3, 2.8615436e+2, -416949.22, -300868.34, -39854.445, 0.075975254, 0.10643667, -288502.3, -152804.08, 0.0, 9.998245, 9.999789 
1.8149182e+3, 2.9615375e+2, -390787.13, -243522.44, -38279.94, 0.12346512, 0.06465679, -234166.38, -196461.38, 0.0, 9.997778, 9.999735 
1.8148904e+3, 3.06155e+2, -411536.22, -238743.88, -16189.519, 0.058530122, 0.2313363, -237240.11, -237240.11, 0.0, 9.997346, 9.9996395 
1.814864e+3, 3.1615317e+2, -321493.8, 42921.047, -40893.17, 0.1152563, 0.077861965, 47453.543, 47453.543, 0.0, 9.99694, 10.001769 
1.8253952e+3, 1.262043e+2, -1152821.4, -1715873.9, 30243.586, -0.05083889, 0.18551661, -1151201.5, 552015.5, 0.036210332, 10.005219, 9.997478 
1.8253672e+3, 1.3620211e+2, -1096927.9, -1594528.9, -24638.896, -0.051767606, 0.17912067, -1095710.9, 509527.28, 0.024766384, 10.004669, 9.997906 
1.8253396e+3, 1.462003e+2, -1054979.6, -1522689.3, -13548.286, -0.009513779, 0.21157764, -1054587.5, 452667.75, 0.013678881, 10.004223, 9.997939 
1.8253118e+3, 1.5619797e+2, -1010335.6, -1455853.0, -21258.273, -0.0281992, 0.18565753, -1009323.56, 399953.63, 0.005451181, 10.003843, 9.997908 
1.8252838e+3, 1.6619563e+2, -961366.7, -1365915.5, -43858.99, -0.0327577, 0.16133584, -956666.4, 354632.34, 0.0012669698, 10.003423, 9.998055 
1.8252556e+3, 1.761935e+2, -927572.0, -1298556.6, -42888.15, -0.022429153, 0.14320341, -922678.44, 290639.53, 0.0000881637, 10.002976, 9.99806 
1.8252274e+3, 1.8619156e+2, -874807.5, -1187068.6, -49433.797, -0.01995693, 0.13232893, -867168.56, 248167.38, 0.00000004824908, 10.002513, 9.998377 
1.825199e+3, 1.9618984e+2, -843009.7, -1116218.6, -51789.23, -0.024450185, 0.12246351, -833522.0, 183829.88, 0.0, 10.002038, 9.998419 
1.8251705e+3, 2.0618826e+2, -765725.25, -961671.9, -61040.57, -0.018083986, 0.0979971, -748265.8, 171099.05, 0.0, 10.001608, 9.999015 
1.825142e+3, 2.1618694e+2, -729874.0, -899579.5, -66804.336, -0.003664351, 0.0641419, -706732.25, 114642.25, 0.0, 10.001207, 9.998961 
1.8251136e+3, 2.2618565e+2, -707698.8, -851119.3, -71089.47, 0.011575382, 0.055328105, -678433.44, 44952.484, 0.0, 10.000742, 9.998846 
1.8250851e+3, 2.3618455e+2, -682731.0, -787520.6, -63474.945, 0.02683348, 0.061052665, -652819.75, -27422.5, 0.0, 10.000237, 9.998853 
1.8250564e+3, 2.4618356e+2, -622902.0, -670213.6, -62844.94, 0.03670092, 0.065299235, -579408.1, -52000.387, 0.0, 9.999813, 9.999189 
1.8250278e+3, 2.5618276e+2, -580472.8, -600977.4, -68197.49, 0.043147128, 0.06807126, -521761.28, -92345.1, 0.0, 9.999439, 9.999172 
1.8249993e+3, 2.6618215e+2, -537949.9, -514560.06, -54590.652, 0.045634996, 0.08885318, -470425.7, -139002.61, 0.0, 9.998994, 9.999307 
1.824971e+3, 2.7618173e+2, -510201.06, -447994.03, -46325.027, 0.045695662, 0.1174612, -423299.38, -189871.52, 0.0, 9.998501, 9.999328 
1.8249433e+3, 2.86181e+2, -450258.84, -318567.9, -27741.184, 0.07869007, 0.0940192, -312962.7, -177526.58, 0.0, 9.998026, 9.999772 
1.8249159e+3, 2.961803e+2, -419867.7, -255064.47, -30561.332, 0.13206911, 0.045881733, -249579.67, -212135.47, 0.0, 9.99757, 9.999755 
1.8248877e+3, 3.061819e+2, -413006.06, -206031.17, -3405.927, 0.05917676, 0.23269789, -205975.14, -205975.14, 0.0, 9.997194, 9.999936 
1.8248609e+3, 3.1618017e+2, -340951.84, 21248.707, -23802.81, 0.11044256, 0.06016085, 22806.262, 22806.262, 0.0, 9.996861, 10.0016575 
1.8354006e+3, 1.2623164e+2, -1151148.9, -1713672.9, 9355.335, -0.035231415, 0.17908442, -1150993.3, 551954.94, 0.037413422, 10.00523, 9.997489 
1.8353719e+3, 1.3622944e+2, -1097549.9, -1599068.5, -44659.47, -0.048685644, 0.17185213, -1093604.1, 511365.16, 0.02563362, 10.004685, 9.997868 
1.8353437e+3, 1.4622752e+2, -1066847.0, -1551139.9, -28119.107, -0.012759573, 0.20648728, -1065219.9, 441767.88, 0.014200873, 10.004237, 9.997738 
1.8353157e+3, 1.5622497e+2, -1020837.0, -1480331.4, -35899.51, -0.025851056, 0.17813024, -1018049.1, 390963.25, 0.0056898487, 10.003853, 9.997737 
1.835287e+3, 1.6622256e+2, -957500.44, -1359965.8, -60704.766, -0.034923345, 0.15235426, -948543.56, 362490.9, 0.0013364824, 10.003429, 9.998095 
1.8352585e+3, 1.7622046e+2, -924603.56, -1294292.3, -59892.145, -0.036147438, 0.13368863, -915142.75, 297910.1, 0.000095082636, 10.002982, 9.998088 
1.8352297e+3, 1.8621844e+2, -876995.8, -1193356.6, -67342.94, -0.030834042, 0.11767496, -863257.3, 251813.92, 0.000000055274803, 10.002518, 9.998332 
1.835201e+3, 1.962166e+2, -845936.9, -1123985.5, -69172.7, -0.023124365, 0.10016146, -829678.8, 187409.63, 0.0, 10.002043, 9.998364 
1.8351722e+3, 2.0621507e+2, -773614.44, -979451.4, -75735.24, -0.014815292, 0.08939079, -748751.7, 170349.84, 0.0, 10.001612, 9.998892 
1.8351433e+3, 2.1621388e+2, -735354.44, -911968.7, -81915.52, -0.0051032994, 0.08203962, -703211.2, 117899.586, 0.0, 10.001209, 9.998877 
1.8351144e+3, 2.2621256e+2, -692127.5, -819984.9, -89609.695, 0.011069767, 0.05849233, -645980.0, 77142.266, 0.0, 10.000745, 9.99906 
1.8350852e+3, 2.3621126e+2, -670201.5, -763166.06, -81415.94, 0.030835386, 0.023846513, -622933.3, 2200.598, 0.0, 10.000241, 9.999019 
1.8350561e+3, 2.4621029e+2, -633621.75, -694128.4, -76202.84, 0.038144488, 0.03415089, -581886.44, -54742.426, 0.0, 9.999817, 9.999024 
1.835027e+3, 2.5620973e+2, -588567.94, -619286.9, -82017.086, 0.03770412, 0.072048016, -520484.5, -91332.83, 0.0, 9.999443, 9.999045 
1.8349983e+3, 2.6620907e+2, -524265.03, -487749.3, -72512.21, 0.046165265, 0.08825808, -431231.72, -100073.32, 0.0, 9.998998, 9.99949 
1.8349695e+3, 2.7620855e+2, -498941.63, -426215.97, -64283.07, 0.060106773, 0.08792273, -388723.75, -155560.45, 0.0, 9.998506, 9.999477 
1.8349414e+3, 2.8620785e+2, -455803.22, -331419.22, -44595.68, 0.08985052, 0.065349594, -317082.66, -181911.22, 0.0, 9.99803, 9.999683 
1.8349135e+3, 2.9620722e+2, -421674.47, -259935.9, -46641.613, 0.12895201, 0.035157308, -247449.52, -210270.1, 0.0, 9.997573, 9.999722 
1.8348847e+3, 3.0620912e+2, -385561.28, -150520.63, -15497.987, 0.051788155, 0.2249351, -149503.13, -149503.13, 0.0, 9.997198, 10.000317 
1.8348578e+3, 3.162076e+2, -347725.13, 5352.9473, -38059.285, 0.11843601, 0.043962006, 9408.874, 9408.874, 0.0, 9.996866, 10.001547 
1.845406e+3, 1.2625946e+2, -1115765.3, -1705689.8, 25861.834, -0.02807875, 0.1760577, -1114633.6, 588041.25, 0.03863337, 10.005533, 9.997396 
1.8453766e+3, 1.3625711e+2, -1042270.56, -1584791.4, -34550.215, -0.04647688, 0.16430686, -1040079.1, 564618.3, 0.026516993, 10.005137, 9.997749 
1.8453482e+3, 1.4625508e+2, -1014663.06, -1536870.3, -16625.45, -0.016375016, 0.19990982, -1014134.3, 492582.7, 0.014736526, 10.004654, 9.997634 
1.8453196e+3, 1.562524e+2, -989350.0, -1475543.6, -18655.727, -0.028239006, 0.17042829, -988635.2, 420107.72, 0.005937478, 10.004119, 9.997641 
1.8452907e+3, 1.6624995e+2, -933560.75, -1351292.4, -44464.684, -0.037562206, 0.1452387, -928880.25, 381885.34, 0.0014096283, 10.00361, 9.998066 
1.8452615e+3, 1.7624784e+2, -907164.1, -1288484.8, -48788.72, -0.040549856, 0.1286323, -901020.75, 311763.25, 0.00010278079, 10.003116, 9.998062 
1.8452322e+3, 1.8624581e+2, -861461.0, -1185117.0, -56830.703, -0.032422006, 0.11322681, -851772.1, 263030.22, 0.00000006030829, 10.002624, 9.998337 
1.845203e+3, 1.9624397e+2, -833239.75, -1117994.4, -55658.46, -0.01891147, 0.095113136, -822747.3, 194072.06, 0.0, 10.002132, 9.998362 
1.8451737e+3, 2.0624238e+2, -775953.75, -986365.06, -57645.664, -0.009617302, 0.08250036, -761195.9, 157637.3, 0.0, 10.001623, 9.998838 
1.8451445e+3, 2.1624112e+2, -753587.8, -924814.75, -59190.195, -0.0021109548, 0.07290051, -735118.9, 85724.555, 0.0, 10.001103, 9.998838 
1.845115e+3, 2.2623982e+2, -695239.9, -811944.7, -70063.43, 0.009510692, 0.04964729, -662411.75, 60442.695, 0.0, 10.000685, 9.999142 
1.8450855e+3, 2.3623861e+2, -653034.5, -746728.4, -71901.03, 0.023556706, 0.016487151, -614065.4, 10799.276, 0.0, 10.000327, 9.999089 
1.845056e+3, 2.4623765e+2, -627731.7, -691703.2, -64381.535, 0.032981385, 0.023612522, -587828.2, -60953.47, 0.0, 9.999862, 9.999019 
1.8450265e+3, 2.56237e+2, -605238.75, -626931.2, -58906.29, 0.039355393, 0.055658393, -556188.5, -127305.37, 0.0, 9.99933, 9.999046 
1.8449973e+3, 2.662364e+2, -538996.6, -487037.38, -50485.43, 0.049901806, 0.07040991, -456239.2, -125349.72, 0.0, 9.998866, 9.9995575 
1.844968e+3, 2.7623594e+2, -503837.06, -422264.66, -51394.92, 0.063037425, 0.071333766, -397438.72, -164545.38, 0.0, 9.998446, 9.999531 
1.8449393e+3, 2.8623527e+2, -467410.06, -339421.03, -33582.813, 0.09079391, 0.0524479, -331144.5, -196243.34, 0.0, 9.997963, 9.99966 
1.8449108e+3, 2.9623467e+2, -440792.1, -267572.78, -30508.617, 0.12690672, 0.026857337, -262356.47, -225447.23, 0.0, 9.997437, 9.999733 
1.8448818e+3, 3.0623654e+2, -394831.13, -121912.43, 2413.6775, 0.04514603, 0.20188166, -121891.086, -121891.086, 0.0, 9.996995, 10.00061 
1.8448545e+3, 3.1623536e+2, -397173.0, -36339.76, -28937.393, 0.12087406, 0.02373037, -34033.836, -34033.836, 0.0, 9.996607, 10.001384 
1.8554115e+3, 1.2628779e+2, -1127395.6, -1732520.8, 10023.158, -0.02941792, 0.17550956, -1127229.8, 575166.94, 0.039873905, 10.005545, 9.997208 
1.8553819e+3, 1.3628514e+2, -1054241.0, -1612094.4, -50017.418, -0.045108803, 0.15637401, -1049791.9, 554630.3, 0.027419578, 10.005149, 9.997555 
1.8553528e+3, 1.46283e+2, -1015327.25, -1540913.9, -36641.035, -0.020476663, 0.19186541, -1012785.2, 493657.6, 0.015288286, 10.004665, 9.997602 
1.8553236e+3, 1.5628031e+2, -990540.75, -1481083.4, -38773.96, -0.034975976, 0.16252846, -987494.9, 420973.94, 0.0061959373, 10.00413, 9.997598 
1.8552943e+3, 1.662778e+2, -938668.56, -1364886.4, -63169.62, -0.040654257, 0.13987115, -929503.3, 380988.8, 0.0014874837, 10.00362, 9.99797 
1.8552645e+3, 1.7627564e+2, -911464.56, -1300026.6, -67296.734, -0.03654403, 0.12766343, -900139.25, 312372.28, 0.000111600515, 10.003124, 9.99798 
1.8552348e+3, 1.8627366e+2, -857597.25, -1179251.6, -75208.89, -0.025644891, 0.11812724, -840880.75, 273648.56, 0.00000006571913, 10.002631, 9.998375 
1.8552051e+3, 1.9627191e+2, -830035.2, -1113124.0, -74201.32, -0.01207615, 0.10608661, -811765.1, 204779.86, 0.0, 10.002138, 9.998393 
1.8551753e+3, 2.0627019e+2, -774835.44, -985828.06, -77074.94, -0.0026218053, 0.077102795, -749679.44, 168880.42, 0.0, 10.001628, 9.99884 
1.8551455e+3, 2.1626863e+2, -752956.25, -925404.9, -77659.07, 0.0048927087, 0.038026806, -723139.4, 97433.34, 0.0, 10.001109, 9.998833 
1.8551156e+3, 2.2626743e+2, -698014.8, -819426.2, -83073.555, 0.0067409165, 0.02955279, -655830.3, 66752.54, 0.0, 10.0006895, 9.999089 
1.8550856e+3, 2.362666e+2, -654481.06, -751169.5, -85556.81, 0.005344146, 0.038274184, -604554.56, 20035.4, 0.0, 10.000331, 9.999059 
1.8550557e+3, 2.4626558e+2, -617117.94, -671201.9, -83821.07, 0.021445518, 0.03301825, -556084.75, -29484.504, 0.0, 9.9998665, 9.999158 
1.8550259e+3, 2.562646e+2, -596336.5, -610054.0, -77807.11, 0.047986582, 0.018894758, -525086.44, -96475.54, 0.0, 9.999334, 9.999162 
1.8549961e+3, 2.6626402e+2, -542345.3, -495533.7, -65677.2, 0.056659196, 0.03552725, -449216.28, -118599.48, 0.0, 9.99887, 9.999498 
1.8549663e+3, 2.7626383e+2, -506586.16, -429476.38, -67084.45, 0.054147653, 0.06819154, -390656.84, -158038.28, 0.0, 9.998451, 9.999481 
1.8549371e+3, 2.8626323e+2, -464424.78, -334812.9, -53022.348, 0.081237584, 0.055603657, -315886.06, -181260.23, 0.0, 9.997967, 9.999691 
1.8549082e+3, 2.9626256e+2, -436579.25, -260447.28, -49313.05, 0.12593435, 0.020431617, -247580.64, -210946.38, 0.0, 9.997441, 9.999782 
1.8548787e+3, 3.0626425e+2, -380555.44, -93661.48, -11840.382, 0.039118014, 0.16210268, -93173.65, -93173.65, 0.0, 9.996998, 10.000804 
1.8548511e+3, 3.162637e+2, -413278.78, -70649.63, -45583.258, 0.118351124, 0.032517888, -64688.95, -64688.95, 0.0, 9.996608, 10.001149 
1.8654172e+3, 1.2631641e+2, -1085639.4, -1715707.1, 19809.355, -0.026648482, 0.17265093, -1085017.3, 617098.6, 0.04113359, 10.005872, 9.997165 
1.8653873e+3, 1.3631366e+2, -1015511.3, -1601040.3, -31155.213, -0.04235294, 0.15092404, -1013858.25, 590284.0, 0.028340602, 10.0054655, 9.997477 
1.8653576e+3, 1.4631145e+2, -975252.94, -1530655.3, -20888.049, -0.021896644, 0.18658377, -974468.5, 531695.1, 0.015856067, 10.004991, 9.997515 
1.865328e+3, 1.5630862e+2, -947387.75, -1469092.3, -27056.563, -0.03571632, 0.1552629, -945988.3, 462202.38, 0.0064657712, 10.004471, 9.997515 
1.8652979e+3, 1.663061e+2, -898066.4, -1350459.4, -51263.49, -0.041059636, 0.1368614, -892330.1, 417884.28, 0.0015707508, 10.003924, 9.99792 
1.8652678e+3, 1.7630397e+2, -880473.4, -1289997.4, -52579.734, -0.037295964, 0.13285166, -873830.3, 338403.5, 0.0001217937, 10.003361, 9.997934 
1.8652375e+3, 1.8630195e+2, -834896.75, -1170294.5, -62119.645, -0.026032232, 0.1221612, -823761.2, 290490.88, 0.00000007494837, 10.002797, 9.998355 
1.8652074e+3, 1.9630009e+2, -817137.8, -1108246.8, -65326.89, -0.011595018, 0.10328016, -803150.1, 213118.25, 0.0, 10.002234, 9.998379 
1.865177e+3, 2.0629832e+2, -756746.3, -973430.7, -67551.805, -0.0036094338, 0.06936789, -737412.06, 180871.31, 0.0, 10.0017395, 9.998871 
1.8651468e+3, 2.1629676e+2, -725928.56, -909478.56, -66545.625, 0.0010376718, 0.026458712, -704341.44, 115954.586, 0.0, 10.001285, 9.998856 
1.8651162e+3, 2.2629558e+2, -685483.75, -813649.3, -68149.31, 0.0036102177, 0.018932346, -656020.1, 66285.92, 0.0, 10.000779, 9.999084 
1.8650858e+3, 2.3629479e+2, -667198.8, -756838.94, -67897.586, 0.0049519097, 0.031857815, -630662.1, -6349.0264, 0.0, 10.000244, 9.99906 
1.8650554e+3, 2.4629383e+2, -623797.1, -665773.94, -69088.305, 0.01982647, 0.027868181, -572579.56, -46256.8, 0.0, 9.999786, 9.999232 
1.8650252e+3, 2.5629288e+2, -586039.4, -597478.06, -68540.95, 0.042923156, 0.0125022065, -522979.56, -94647.016, 0.0, 9.999375, 9.999227 
1.8649949e+3, 2.662923e+2, -539400.56, -491172.2, -55224.156, 0.04969226, 0.023906086, -455026.94, -124688.56, 0.0, 9.99888, 9.999522 
1.8649647e+3, 2.762921e+2, -522708.4, -434761.34, -51205.254, 0.046232615, 0.0497277, -411239.34, -178898.89, 0.0, 9.998333, 9.9995 
1.864935e+3, 2.8629154e+2, -491645.6, -345899.2, -37849.324, 0.07640832, 0.042506933, -336656.16, -202309.23, 0.0, 9.997774, 9.999705 
1.8649055e+3, 2.96291e+2, -467603.2, -271554.44, -35041.36, 0.12614723, 0.018858436, -265479.47, -229125.42, 0.0, 9.997214, 9.999812 
1.8648754e+3, 3.0629236e+2, -408116.94, -85908.55, 4962.192, 0.032119304, 0.11687023, -85832.15, -85832.15, 0.0, 9.996721, 10.000989 
1.8648474e+3, 3.1629232e+2, -471230.9, -109928.93, -30728.275, 0.11672436, 0.025116662, -107334.164, -107334.164, 0.0, 9.996263, 10.001044 
1.875423e+3, 1.2634535e+2, -1079324.3, -1704879.9, 4489.1216, -0.022028107, 0.16722673, -1079292.0, 622539.94, 0.04240459, 10.005889, 9.997232 
1.8753926e+3, 1.3634266e+2, -1013191.9, -1599104.5, -46758.98, -0.038513392, 0.14780656, -1009483.75, 594373.75, 0.029275542, 10.005481, 9.997484 
1.8753624e+3, 1.4634036e+2, -983535.75, -1550950.3, -40355.848, -0.021022335, 0.18387538, -980679.9, 525199.6, 0.016438056, 10.005003, 9.997371 
1.8753323e+3, 1.5633737e+2, -954882.0, -1487302.6, -46768.508, -0.031247292, 0.14853741, -950805.0, 457103.5, 0.006746753, 10.004479, 9.997387 
1.8753017e+3, 1.6633484e+2, -897810.25, -1352320.3, -72362.93, -0.03921247, 0.13595478, -886567.44, 423365.03, 0.0016597791, 10.003932, 9.997905 
1.875271e+3, 1.7633282e+2, -881110.7, -1293602.8, -73747.5, -0.042452306, 0.14358126, -868322.25, 343628.84, 0.00013349493, 10.003368, 9.997907 
1.8752402e+3, 1.8633065e+2, -839321.5, -1181626.8, -83228.42, -0.033006746, 0.12532625, -820158.06, 293812.53, 0.00000009512311, 10.002804, 9.998275 
1.8752095e+3, 1.9632854e+2, -820618.4, -1117493.4, -85592.48, -0.017075786, 0.08769417, -797708.94, 218280.53, 0.0, 10.002241, 9.998314 
1.8751785e+3, 2.0632683e+2, -752696.6, -966643.2, -84169.38, -0.012144981, 0.05960297, -723553.1, 194450.58, 0.0, 10.001743, 9.998917 
1.8751478e+3, 2.163255e+2, -722516.1, -903512.7, -83508.305, -0.013088112, 0.037109908, -689873.94, 130139.75, 0.0, 10.001287, 9.998898 
1.875117e+3, 2.2632423e+2, -682756.9, -809197.0, -87896.38, 0.00023885214, 0.017189309, -637706.25, 84318.195, 0.0, 10.000782, 9.999115 
1.8750861e+3, 2.3632315e+2, -664747.1, -753268.6, -86863.1, 0.021771872, -0.0020078497, -611518.3, 12515.937, 0.0, 10.000248, 9.9990835 
1.8750551e+3, 2.4632233e+2, -623192.75, -666115.75, -83824.45, 0.027643772, 0.008759198, -558126.0, -32083.477, 0.0, 9.99979, 9.999229 
1.8750243e+3, 2.5632185e+2, -584744.6, -596363.6, -83901.97, 0.024071192, 0.036374334, -506451.25, -78402.77, 0.0, 9.999379, 9.999233 
1.8749934e+3, 2.6632115e+2, -532058.1, -477522.72, -75326.25, 0.028988037, 0.035241023, -424680.7, -94626.02, 0.0, 9.998885, 9.999615 
1.8749627e+3, 2.7632058e+2, -516459.8, -423289.56, -71547.664, 0.039336804, 0.015322189, -384497.63, -152438.05, 0.0, 9.998336, 9.999578 
1.8749326e+3, 2.863201e+2, -491960.75, -347838.47, -58615.13, 0.07639185, 0.012879286, -327009.66, -192944.53, 0.0, 9.997777, 9.999692 
1.8749027e+3, 2.963199e+2, -466797.16, -270970.22, -55197.07, 0.12746783, 0.022852106, -256483.69, -220414.55, 0.0, 9.997217, 9.999817 
1.874872e+3, 3.063208e+2, -395875.78, -61740.17, -11980.5205, 0.023862148, 0.06532642, -61311.156, -61311.156, 0.0, 9.996723, 10.001156 
1.8748437e+3, 3.163215e+2, -468575.2, -105753.1, -49020.4, 0.11718892, 0.028321272, -99246.695, -99246.695, 0.0, 9.996265, 10.001073 
1.8854292e+3, 1.2637493e+2, -1027906.6, -1697410.5, 38863.7, -0.026055455, 0.15283927, -1025658.2, 675882.9, 0.04367926, 10.006348, 9.997062 
1.8853983e+3, 1.3637216e+2, -968597.8, -1597231.1, -27209.428, -0.038495935, 0.14530623, -967422.3, 636145.7, 0.030219743, 10.005892, 9.997298 
1.8853675e+3, 1.4636974e+2, -939402.25, -1535944.6, -27659.287, -0.022135915, 0.18102756, -938122.56, 567468.7, 0.017032163, 10.005345, 9.997308 
1.885337e+3, 1.5636657e+2, -922282.8, -1478539.5, -29300.658, -0.029557146, 0.13607731, -920743.6, 486877.88, 0.0070382245, 10.00474, 9.997321 
1.8853058e+3, 1.6636398e+2, -871999.0, -1347378.0, -55945.746, -0.03631157, 0.12580206, -865503.6, 444142.47, 0.0017545173, 10.004145, 9.997835 
1.8852744e+3, 1.7636198e+2, -858236.94, -1289120.6, -61425.734, -0.03989714, 0.14278735, -849651.3, 362013.66, 0.00014669658, 10.003556, 9.997847 
1.885243e+3, 1.8635981e+2, -814424.2, -1167707.8, -68535.836, -0.031723317, 0.1243201, -801594.4, 312090.34, 0.0000001366546, 10.00297, 9.99829 
1.8852118e+3, 1.9635765e+2, -798992.7, -1105138.4, -64576.047, -0.017441282, 0.08065286, -785928.94, 229774.77, 0.0, 10.002383, 9.998329 
1.8851805e+3, 2.0635593e+2, -743948.94, -958663.9, -60150.707, -0.012249401, 0.05085495, -728246.5, 189471.25, 0.0, 10.00179, 9.998948 
1.8851489e+3, 2.1635465e+2, -734284.2, -905661.2, -60749.945, -0.0118898535, 0.02961853, -714934.25, 104792.98, 0.0, 10.001194, 9.998926 
1.8851177e+3, 2.263534e+2, -694024.56, -810094.7, -64440.242, 0.000858211, 0.00918493, -665338.2, 56399.566, 0.0, 10.000688, 9.999153 
1.8850863e+3, 2.3635234e+2, -663975.75, -748433.06, -63392.805, 0.02085359, -0.012054581, -630034.2, -6286.689, 0.0, 10.0002365, 9.999121 
1.885055e+3, 2.4635157e+2, -632310.0, -664414.7, -58241.62, 0.0254898, -0.0008541862, -587949.06, -62193.867, 0.0, 9.999704, 9.999281 
1.8850234e+3, 2.5635114e+2, -618637.44, -606528.1, -54693.31, 0.020613763, 0.02900468, -557555.4, -129795.15, 0.0, 9.999124, 9.999286 
1.8849921e+3, 2.6635048e+2, -566306.56, -486078.2, -46244.39, 0.024537513, 0.021303296, -464973.97, -135207.63, 0.0, 9.998619, 9.999682 
1.884961e+3, 2.763498e+2, -537692.1, -425750.47, -45287.586, 0.034361087, -0.010617091, -409723.4, -177951.66, 0.0, 9.99816, 9.999644 
1.8849301e+3, 2.863495e+2, -512488.34, -348884.06, -32156.498, 0.072626546, -0.0032366728, -342790.66, -209015.17, 0.0, 9.9976015, 9.999768 
1.8848997e+3, 2.9634959e+2, -496543.53, -277273.34, -22056.35, 0.12539284, 0.028819256, -275076.7, -239300.31, 0.0, 9.996982, 9.999886 
1.8848684e+3, 3.0634996e+2, -442159.66, -77180.68, 20278.334, 0.011351772, 0.013321314, -76057.46, -76057.46, 0.0, 9.99638, 10.001214 
1.8848395e+3, 3.1635115e+2, -529884.5, -122504.24, -24798.441, 0.115086816, 0.017140085, -121000.24, -121000.24, 0.0, 9.995792, 10.001184 
1.8954353e+3, 1.2640512e+2, -1051278.3, -1751963.5, 20260.629, -0.0389131, 0.1304833, -1050692.9, 650550.4, 0.04495811, 10.00637, 9.996677 
1.895404e+3, 1.3640215e+2, -991245.75, -1648849.8, -44800.027, -0.04188114, 0.14329341, -988207.75, 615065.9, 0.031172708, 10.005908, 9.996937 
1.8953729e+3, 1.4639956e+2, -938238.9, -1535947.8, -49746.637, -0.025147451, 0.17791454, -934126.8, 571171.8, 0.017637357, 10.005356, 9.997304 
1.8953416e+3, 1.5639624e+2, -922976.3, -1481765.8, -51704.816, -0.030399432, 0.11860823, -918232.3, 489097.38, 0.007339159, 10.0047455, 9.997297 
1.89531e+3, 1.6639356e+2, -880025.56, -1365785.1, -77783.83, -0.03247202, 0.10754758, -867874.1, 441481.25, 0.001854422, 10.00415, 9.997708 
1.8952781e+3, 1.7639151e+2, -864241.75, -1303419.3, -83168.96, -0.030448355, 0.13168909, -849019.3, 362356.13, 0.00016122115, 10.003561, 9.997747 
1.895246e+3, 1.863894e+2, -807243.0, -1154492.4, -90139.24, -0.023037856, 0.11961904, -785238.9, 328155.5, 0.00000020674742, 10.0029745, 9.99838 
1.8952142e+3, 1.963874e+2, -792791.75, -1093794.0, -86248.78, -0.013160291, 0.08156685, -769829.8, 245581.66, 0.0, 10.002387, 9.998406 
1.8951821e+3, 2.0638563e+2, -742559.56, -957298.7, -82200.94, -0.0044874735, 0.042947743, -714706.25, 202719.53, 0.0, 10.001794, 9.998957 
1.8951502e+3, 2.1638419e+2, -732844.5, -904218.5, -81955.35, 0.0036890658, 0.0048833857, -699961.06, 119475.76, 0.0, 10.001198, 9.998936 
1.8951184e+3, 2.2638308e+2, -690984.3, -805244.0, -80818.96, 0.0050275046, -0.004624478, -649141.8, 72304.38, 0.0, 10.000691, 9.9991865 
1.8950863e+3, 2.3638229e+2, -660676.06, -742851.9, -80362.26, 0.002589679, 0.0011070784, -611507.06, 11946.096, 0.0, 10.000239, 9.999159 
1.8950544e+3, 2.4638146e+2, -624971.06, -650544.8, -79509.45, 0.013726736, -0.0014335607, -557226.8, -31765.666, 0.0, 9.999707, 9.999376 
1.8950225e+3, 2.5638074e+2, -611966.44, -594193.44, -75343.9, 0.03254573, -0.009481147, -527213.8, -99745.586, 0.0, 9.999127, 9.99937 
1.8949908e+3, 2.6638013e+2, -563407.25, -481676.8, -62954.637, 0.03622554, -0.017733546, -447487.03, -118013.09, 0.0, 9.998623, 9.999712 
1.8949589e+3, 2.7637973e+2, -534089.94, -419766.3, -62863.047, 0.031088261, -0.02781374, -391962.03, -160484.6, 0.0, 9.998164, 9.999685 
1.8949278e+3, 2.8637967e+2, -500890.0, -326051.06, -55212.016, 0.06487246, -0.0054700854, -310075.5, -176596.98, 0.0, 9.997604, 9.999925 
1.8948966e+3, 2.9638e+2, -487505.97, -259615.4, -44816.61, 0.11974188, 0.03693809, -251118.64, -215642.28, 0.0, 9.996984, 10.000008 
1.8948644e+3, 3.063798e+2, -446345.72, -86978.336, -1588.1982, -0.005776732, -0.040009715, -86971.31, -86971.31, 0.0, 9.996381, 10.001147 
1.8948354e+3, 3.1638134e+2, -515169.5, -92703.38, -46462.332, 0.11157338, 0.008952644, -87653.86, -87653.86, 0.0, 9.995792, 10.00139 
1.9054419e+3, 1.2643585e+2, -982786.7, -1730152.6, 23421.55, -0.048719924, 0.13292688, -982053.4, 718888.06, 0.04624518, 10.006929, 9.996556 
1.9054101e+3, 1.3643262e+2, -940611.06, -1638159.9, -24366.006, -0.04428645, 0.13477683, -939760.94, 663213.7, 0.032135684, 10.006339, 9.9968 
1.9053783e+3, 1.4642994e+2, -896466.9, -1516336.9, -28167.709, -0.028557044, 0.16893147, -895189.56, 609810.7, 0.018252485, 10.005658, 9.997292 
1.9053464e+3, 1.5642667e+2, -899997.1, -1473213.6, -30650.48, -0.033320382, 0.114557356, -898362.9, 508667.84, 0.007647513, 10.00492, 9.997271 
1.905314e+3, 1.6642392e+2, -869537.94, -1370935.0, -53098.598, -0.03187258, 0.10270596, -863976.44, 445080.75, 0.0019581274, 10.00427, 9.997614 
1.9052815e+3, 1.7642172e+2, -854106.7, -1306711.8, -56878.137, -0.025073975, 0.12275641, -847068.4, 364010.53, 0.0001766498, 10.003669, 9.997671 
1.9052492e+3, 1.864196e+2, -792291.44, -1140872.6, -65393.246, -0.016842796, 0.110758945, -780427.56, 332670.34, 0.00000030333933, 10.003052, 9.998434 
1.9052166e+3, 1.9641766e+2, -784297.3, -1084209.0, -64338.94, -0.008411325, 0.07543409, -771077.6, 244036.36, 0.0, 10.002424, 9.998453 
1.905184e+3, 2.0641592e+2, -737559.4, -952554.5, -60842.32, -0.002234554, 0.036244366, -721535.6, 195592.42, 0.0, 10.001821, 9.998975 
1.9051515e+3, 2.1641448e+2, -726767.1, -898840.44, -60095.133, 0.0029094843, -0.004502541, -707857.44, 111281.83, 0.0, 10.001231, 9.998955 
1.9051188e+3, 2.2641343e+2, -696397.44, -802015.9, -56247.293, 0.003834675, -0.011065499, -672053.75, 49094.375, 0.0, 10.000632, 9.999235 
1.9050865e+3, 2.3641275e+2, -687971.5, -749812.0, -55225.934, 0.002348916, 0.0008985774, -655599.06, -32444.984, 0.0, 10.000029, 9.999212 
1.905054e+3, 2.4641192e+2, -654539.25, -654037.2, -55614.07, 0.0140055735, -0.008366108, -598673.56, -73511.9, 0.0, 9.999461, 9.999469 
1.9050217e+3, 2.5641114e+2, -636539.5, -595873.94, -51491.84, 0.03328515, -0.030778116, -560845.8, -133677.03, 0.0, 9.998918, 9.999457 
1.9049893e+3, 2.6641062e+2, -591379.06, -487059.78, -35004.32, 0.034554344, -0.038636506, -476402.78, -147229.02, 0.0, 9.9984, 9.999781 
1.9049568e+3, 2.7641037e+2, -568051.3, -427425.94, -32793.33, 0.02529628, -0.03960124, -420154.63, -188978.58, 0.0, 9.997897, 9.99976 
1.9049251e+3, 2.8641045e+2, -525692.5, -323672.84, -29020.16, 0.05975308, -0.011456989, -319586.75, -186411.19, 0.0, 9.9973755, 10.00005 
1.9048934e+3, 2.9641095e+2, -502648.25, -256347.97, -21957.465, 0.11758771, 0.034630105, -254405.8, -219234.25, 0.0, 9.996838, 10.000098 
1.9048606e+3, 3.0641037e+2, -489793.1, -118335.83, 14715.148, -0.020248052, -0.07592003, -117753.805, -117753.805, 0.0, 9.996131, 10.001051 
1.9048308e+3, 3.1641224e+2, -560715.75, -80754.51, -29958.848, 0.11080784, 0.009456814, -78891.73, -78891.73, 0.0, 9.9953375, 10.00169 
1.9154486e+3, 1.2646712e+2, -976346.6, -1716650.0, 1156.8754, -0.057624236, 0.15534419, -976344.8, 724290.56, 0.04753811, 10.006938, 9.996646 
1.9154164e+3, 1.364636e+2, -937567.8, -1631865.6, -46418.25, -0.045912173, 0.12064455, -934478.2, 668192.56, 0.033105955, 10.006343, 9.996844 
1.915384e+3, 1.4646092e+2, -897976.7, -1520596.4, -55334.72, -0.032349627, 0.15517153, -893097.1, 611598.94, 0.01887414, 10.005664, 9.997262 
1.9153512e+3, 1.5645783e+2, -901290.2, -1478402.9, -57502.758, -0.038191464, 0.12238551, -895616.5, 511108.22, 0.007959925, 10.00493, 9.997232 
1.9153182e+3, 1.66455e+2, -873511.4, -1381785.3, -75416.07, -0.03425021, 0.10964185, -862557.44, 446194.4, 0.0020635447, 10.004278, 9.997537 
1.9152853e+3, 1.7645258e+2, -857666.2, -1316039.6, -79234.08, -0.023412691, 0.115640566, -844356.3, 366419.28, 0.00019237213, 10.0036745, 9.997606 
1.9152522e+3, 1.8645039e+2, -790614.7, -1139004.5, -88569.22, -0.012931815, 0.09813401, -769391.2, 343404.2, 0.0000004124449, 10.003056, 9.998446 
1.915219e+3, 1.9644848e+2, -782807.7, -1082640.3, -87291.61, -0.0032869563, 0.06288352, -759245.7, 255565.73, 0.0, 10.002428, 9.998464 
1.9151856e+3, 2.0644681e+2, -735782.56, -950310.25, -82512.33, -0.005253128, 0.030787954, -707717.9, 209106.92, 0.0, 10.001824, 9.99899 
1.9151525e+3, 2.1644548e+2, -724844.8, -896182.56, -81751.41, -0.013403224, 0.00072967046, -692097.25, 126737.66, 0.0, 10.001234, 9.998973 
1.9151194e+3, 2.2644442e+2, -691905.2, -793983.3, -78474.55, -0.0023175469, -0.010592865, -649332.06, 71511.695, 0.0, 10.000635, 9.99929 
1.9150865e+3, 2.3644368e+2, -683493.5, -741769.5, -77059.234, 0.019632302, -0.01238644, -630247.3, -7396.8853, 0.0, 10.0000305, 9.999268 
1.9150534e+3, 2.4644291e+2, -648186.3, -642376.3, -75421.88, 0.025788391, -0.021370254, -569803.5, -44946.332, 0.0, 9.999465, 9.999549 
1.9150203e+3, 2.5644228e+2, -630264.75, -584522.6, -71121.79, 0.022650296, -0.03491137, -532685.0, -105822.664, 0.0, 9.998922, 9.999535 
1.9149874e+3, 2.6644185e+2, -583613.1, -472588.22, -53456.063, 0.019513441, -0.041444868, -451034.56, -122168.27, 0.0, 9.998404, 9.99988 
1.9149548e+3, 2.764417e+2, -560766.2, -413799.53, -51471.977, 0.016979858, -0.04610159, -397565.75, -166697.56, 0.0, 9.997901, 9.999853 
1.9149223e+3, 2.8644183e+2, -519431.4, -311982.4, -48871.184, 0.05725955, -0.021437839, -301045.8, -168178.63, 0.0, 9.997378, 10.00013 
1.9148903e+3, 2.964424e+2, -499026.25, -250132.08, -43346.52, 0.11897188, 0.021779487, -242799.05, -207936.4, 0.0, 9.9968405, 10.000141 
1.9148566e+3, 3.064417e+2, -498976.88, -138558.08, -15579.985, -0.032132946, -0.093391456, -137885.84, -137885.84, 0.0, 9.996133, 10.000913 
1.9148262e+3, 3.164438e+2, -531671.06, -21129.648, -55974.684, 0.113539994, 0.02575914, -15064.75, -15064.75, 0.0, 9.9953375, 10.002101 
1.9254556e+3, 1.2649891e+2, -946215.2, -1707274.6, 33202.086, -0.062113952, 0.1456197, -944769.44, 755553.75, 0.048826788, 10.007193, 9.996587 
1.9254227e+3, 1.3649529e+2, -925642.8, -1634379.0, -22020.607, -0.04499964, 0.11208236, -924959.3, 677400.2, 0.03407442, 10.006474, 9.996762 
1.9253895e+3, 1.4649259e+2, -880175.5, -1516820.8, -35694.863, -0.033746876, 0.15102278, -878180.44, 626204.75, 0.019495035, 10.005816, 9.997212 
1.9253561e+3, 1.5648952e+2, -867538.1, -1466841.6, -39493.78, -0.041263934, 0.12521808, -864946.75, 541467.06, 0.008271547, 10.005189, 9.997185 
1.9253226e+3, 1.6648659e+2, -841360.7, -1367785.6, -54923.176, -0.035214685, 0.105969876, -835691.44, 472750.2, 0.0021683127, 10.00451, 9.9975195 
1.925289e+3, 1.76484e+2, -841001.5, -1309955.6, -55221.508, -0.020609124, 0.097759806, -834586.7, 375879.88, 0.00020778623, 10.0038, 9.997585 
1.9252552e+3, 1.8648183e+2, -783204.2, -1137741.1, -64732.445, -0.010941481, 0.08330095, -771754.9, 340731.5, 0.0000005155152, 10.003119, 9.998424 
1.9252214e+3, 1.9647999e+2, -780268.75, -1082869.4, -66252.695, -0.0045036054, 0.060920052, -766398.9, 248103.06, 0.0, 10.002455, 9.998447 
1.9251874e+3, 2.0647839e+2, -734163.8, -944192.5, -60250.516, -0.007532596, 0.032099247, -718107.4, 198407.6, 0.0, 10.001815, 9.999035 
1.9251536e+3, 2.1647708e+2, -728747.44, -893249.9, -58041.773, -0.015619998, -0.000064992884, -710330.4, 108194.45, 0.0, 10.001189, 9.999014 
1.92512e+3, 2.2647601e+2, -704061.2, -795243.6, -56203.984, -0.0027904527, -0.01550525, -677282.25, 43251.44, 0.0, 10.000534, 9.99933 
1.9250864e+3, 2.3647523e+2, -704531.75, -746077.56, -55841.082, 0.0219414, -0.022812294, -665725.0, -43184.586, 0.0, 9.999865, 9.999316 
1.9250529e+3, 2.4647455e+2, -665234.44, -635871.25, -49369.574, 0.026466208, -0.03298649, -599046.5, -74500.43, 0.0, 9.999288, 9.999678 
1.925019e+3, 2.5647408e+2, -645108.44, -578461.44, -41655.035, 0.018978132, -0.044964153, -558440.8, -131891.34, 0.0, 9.998766, 9.99965 
1.9249856e+3, 2.664737e+2, -606018.94, -476972.0, -24982.422, 0.013506556, -0.052158162, -472304.44, -143751.56, 0.0, 9.998225, 9.999934 
1.9249524e+3, 2.7647358e+2, -589516.06, -419563.66, -26668.69, 0.010201451, -0.05906647, -415477.1, -184922.34, 0.0, 9.997672, 9.999922 
1.9249195e+3, 2.864738e+2, -548306.8, -306893.3, -22437.883, 0.05445415, -0.03493588, -304825.56, -172272.9, 0.0, 9.997102, 10.000297 
1.924887e+3, 2.9647455e+2, -537819.4, -256009.88, -11895.136, 0.12191692, 0.009663975, -255508.69, -220962.39, 0.0, 9.996522, 10.000253 
1.9248524e+3, 3.064739e+2, -555809.0, -186076.22, 8455.534, -0.042823344, -0.09167119, -185882.95, -185882.95, 0.0, 9.995832, 10.00073 
1.9248213e+3, 3.1647578e+2, -546190.06, 6384.4077, -30501.35, 0.11423247, 0.017104622, 8062.9414, 8062.9414, 0.0, 9.995093, 10.002406 
1.9354628e+3, 1.2653118e+2, -958814.9, -1735331.9, 5850.8066, -0.06441052, 0.10806416, -958770.75, 741234.3, 0.050099745, 10.007202, 9.99639 
1.9354291e+3, 1.3652767e+2, -937922.7, -1662946.3, -47276.953, -0.04205976, 0.108540185, -934852.9, 667188.2, 0.035029154, 10.006486, 9.996562 
1.9353953e+3, 1.4652494e+2, -884281.56, -1527684.8, -58026.4, -0.033232525, 0.15510303, -879090.25, 624977.56, 0.020105729, 10.005826, 9.997135 
1.9353612e+3, 1.5652172e+2, -871198.3, -1476095.6, -62730.16, -0.042845443, 0.12359445, -864761.44, 541336.5, 0.008577107, 10.005195, 9.99712 
1.935327e+3, 1.6651867e+2, -838832.5, -1364226.1, -80867.13, -0.034957457, 0.09297154, -826667.3, 481459.28, 0.0022705086, 10.004515, 9.997543 
1.9352928e+3, 1.7651598e+2, -839303.1, -1308494.6, -81054.9, -0.016856695, 0.07034429, -825695.25, 384456.66, 0.00022253592, 10.003807, 9.997594 
1.9352584e+3, 1.8651386e+2, -786953.1, -1147435.3, -89124.58, -0.01077995, 0.0666084, -766121.94, 346049.25, 0.000000599565, 10.003125, 9.998356 
1.9352236e+3, 1.965122e+2, -782999.56, -1090105.1, -90414.93, -0.011616206, 0.068743765, -758357.75, 255828.05, 0.0, 10.002459, 9.998398 
1.9351892e+3, 2.0651062e+2, -729153.06, -935200.06, -83167.76, -0.009068156, 0.039592765, -699772.94, 216425.9, 0.0, 10.001819, 9.999097 
1.9351548e+3, 2.1650922e+2, -724552.0, -885831.94, -81254.1, -0.004533433, -0.0066500744, -690714.75, 127494.6, 0.0, 10.001192, 9.999064 
1.9351205e+3, 2.2650816e+2, -702666.75, -793711.75, -80936.56, 0.0019106093, -0.02550687, -655329.0, 64889.09, 0.0, 10.000537, 9.99934 
1.9350863e+3, 2.3650742e+2, -701607.1, -741509.1, -79615.7, 0.009559667, -0.03035409, -639480.7, -17256.44, 0.0, 9.999867, 9.999348 
1.935052e+3, 2.4650681e+2, -652664.44, -611420.9, -68369.93, 0.01640364, -0.04324988, -560630.44, -36401.68, 0.0, 9.999291, 9.999845 
1.9350179e+3, 2.5650644e+2, -634481.06, -558110.8, -60784.293, 0.022297261, -0.06097577, -524512.7, -98281.984, 0.0, 9.998771, 9.999789 
1.9349839e+3, 2.665061e+2, -605290.1, -477108.2, -45441.11, 0.016392982, -0.07086537, -462633.63, -134399.67, 0.0, 9.99823, 9.999932 
1.9349499e+3, 2.7650595e+2, -586584.06, -414946.6, -47347.926, 0.004817815, -0.07862116, -402751.66, -172515.27, 0.0, 9.997675, 9.999953 
1.9349165e+3, 2.8650638e+2, -530447.06, -271104.5, -44032.51, 0.051313743, -0.051965944, -263832.34, -131599.78, 0.0, 9.997105, 10.000543 
1.9348834e+3, 2.9650742e+2, -525375.2, -231334.16, -34301.766, 0.1264644, -0.0015404955, -227385.67, -193162.63, 0.0, 9.996524, 10.0004225 
1.934848e+3, 3.0650705e+2, -572875.06, -222523.13, -19936.637, -0.052572265, -0.06943105, -221392.28, -221392.28, 0.0, 9.995833, 10.000481 
1.9348162e+3, 3.165081e+2, -532433.3, 33837.113, -51416.145, 0.1126916, -0.018002158, 38467.723, 38467.723, 0.0, 9.995094, 10.002596 
1.94547e+3, 1.2656443e+2, -930814.7, -1729054.8, 29058.398, -0.06346705, 0.09685692, -929758.3, 769919.8, 0.051347382, 10.007451, 9.996313 
1.9454359e+3, 1.3656078e+2, -901824.2, -1655249.8, -15066.61, -0.045006804, 0.09328823, -901523.06, 700192.5, 0.035960086, 10.006797, 9.996463 
1.9454011e+3, 1.4655797e+2, -853562.44, -1520514.3, -23207.51, -0.039031025, 0.14198527, -852755.9, 650987.3, 0.020698346, 10.006083, 9.997058 
1.9453664e+3, 1.5655474e+2, -856296.2, -1475767.0, -28035.205, -0.047223125, 0.11743066, -855030.0, 550743.8, 0.008872544, 10.005332, 9.997054 
1.9453315e+3, 1.6655163e+2, -822607.6, -1356425.9, -47417.977, -0.037286513, 0.08492573, -818428.3, 489374.4, 0.0023689687, 10.00463, 9.9975395 
1.9452967e+3, 1.7654884e+2, -819211.2, -1300259.1, -50002.89, -0.017233597, 0.05547295, -814068.6, 395759.66, 0.00023652377, 10.003955, 9.997578 
1.9452614e+3, 1.8654668e+2, -776454.5, -1151337.9, -60250.938, -0.012015504, 0.051072177, -767009.0, 344839.3, 0.0000006629477, 10.003239, 9.998272 
1.945226e+3, 1.9654498e+2, -782063.56, -1097412.1, -62846.34, -0.015102668, 0.056241322, -770000.25, 243863.69, 0.0, 10.0025015, 9.998325 
1.9451909e+3, 2.0654339e+2, -732773.9, -937390.9, -58069.113, -0.009384012, 0.032661587, -717442.9, 198434.33, 0.0, 10.001799, 9.99909 
1.945156e+3, 2.1654205e+2, -735821.4, -890440.7, -61466.84, 0.0012597737, -0.006923918, -714363.9, 103523.45, 0.0, 10.001115, 9.999069 
1.945121e+3, 2.2654098e+2, -708791.56, -787249.3, -59972.06, 0.0030313486, -0.028882064, -676357.7, 43538.023, 0.0, 10.000458, 9.999421 
1.9450858e+3, 2.3654026e+2, -704089.8, -733980.0, -53778.61, 0.000040560597, -0.042182546, -663218.25, -41316.77, 0.0, 9.999816, 9.999423 
1.945051e+3, 2.4653967e+2, -669461.75, -612798.9, -44549.324, 0.009845538, -0.05824153, -588335.3, -64429.715, 0.0, 9.99915, 9.999902 
1.9450165e+3, 2.5653937e+2, -673191.5, -568570.44, -45018.965, 0.026319755, -0.07604596, -551865.75, -125958.695, 0.0, 9.998472, 9.99986 
1.9449818e+3, 2.665392e+2, -650354.44, -481332.75, -24600.777, 0.020600876, -0.0822611, -477824.94, -149916.17, 0.0, 9.997848, 10.000086 
1.9449474e+3, 2.765392e+2, -637694.75, -423407.25, -14996.672, 0.0034406777, -0.08480923, -422362.8, -192453.63, 0.0, 9.997257, 10.000095 
1.9449134e+3, 2.8653967e+2, -572991.06, -280720.44, -13094.931, 0.04897986, -0.06629911, -280134.9, -148229.72, 0.0, 9.996768, 10.000637 
1.9448797e+3, 2.9654065e+2, -548504.06, -233070.38, -16562.326, 0.12517288, -0.029285394, -232203.13, -198306.83, 0.0, 9.996327, 10.000504 
1.9448437e+3, 3.0654085e+2, -603109.6, -234885.36, -3073.338, -0.06531176, -0.048436556, -234859.7, -234859.7, 0.0, 9.99562, 10.000497 
1.9448112e+3, 3.165414e+2, -563816.06, 40872.582, -7189.297, 0.10909441, -0.045858685, 40958.043, 40958.043, 0.0, 9.994787, 10.00279 
1.9554774e+3, 1.2659855e+2, -929236.0, -1727241.0, 4570.6787, -0.061314173, 0.10675499, -929209.9, 770132.94, 0.052563626, 10.007464, 9.99632 
1.9554424e+3, 1.3659455e+2, -902956.44, -1659077.3, -38972.176, -0.053079903, 0.067763574, -900953.06, 700429.94, 0.036863115, 10.006805, 9.996434 
1.9554071e+3, 1.4659165e+2, -858496.25, -1532808.6, -50529.047, -0.05024669, 0.11414634, -854730.94, 648680.56, 0.021270448, 10.006091, 9.996972 
1.9553716e+3, 1.5658851e+2, -860353.9, -1486999.5, -55482.668, -0.05406827, 0.1075031, -855479.44, 549962.3, 0.009156753, 10.0053425, 9.996974 
1.955336e+3, 1.6658542e+2, -823845.5, -1361674.5, -72440.02, -0.041972004, 0.08136902, -814259.44, 493211.13, 0.0024634453, 10.004639, 9.9975 
1.9553004e+3, 1.7658257e+2, -821702.1, -1307530.3, -75377.38, -0.02138161, 0.051805854, -810275.9, 399220.28, 0.00024978796, 10.003961, 9.997526 
1.9552645e+3, 1.8658021e+2, -783014.7, -1166933.8, -87476.17, -0.014535955, 0.036411375, -764022.7, 347495.44, 0.00000071117205, 10.003244, 9.998164 
1.9552284e+3, 1.9657823e+2, -788300.94, -1112470.4, -89619.96, -0.01528172, 0.024995545, -765174.44, 248362.22, 0.0, 10.002508, 9.99822 
1.9551927e+3, 2.0657668e+2, -737552.6, -949151.1, -83116.93, -0.0086520575, 0.012516343, -708808.56, 206741.58, 0.0, 10.001803, 9.999008 
1.9551569e+3, 2.1657552e+2, -738599.9, -897651.6, -86189.664, 0.0019791212, -0.0010063355, -700852.5, 116706.59, 0.0, 10.001118, 9.99902 
1.9551213e+3, 2.2657448e+2, -698496.1, -767232.6, -83475.81, 0.00073745707, -0.025964277, -642590.4, 76976.5, 0.0, 10.000461, 9.999558 
1.9550855e+3, 2.3657368e+2, -696144.1, -718836.4, -77478.516, -0.006752923, -0.058337998, -629185.4, -7612.87, 0.0, 9.999819, 9.999527 
1.9550501e+3, 2.4657309e+2, -672989.7, -621646.8, -69536.14, 0.0065972093, -0.07790033, -573194.75, -49617.754, 0.0, 9.999154, 9.999842 
1.9550149e+3, 2.5657278e+2, -672900.9, -569600.1, -69509.06, 0.030966837, -0.0900613, -534652.2, -109073.15, 0.0, 9.998477, 9.999852 
1.9549797e+3, 2.6657283e+2, -628571.0, -437736.75, -46601.473, 0.026137298, -0.086114325, -426964.78, -99386.914, 0.0, 9.997851, 10.000385 
1.9549446e+3, 2.765733e+2, -620260.7, -388604.5, -35954.14, 0.006002457, -0.07728797, -383152.56, -153578.95, 0.0, 9.99726, 10.000334 
1.9549102e+3, 2.8657365e+2, -577581.0, -291580.44, -29278.348, 0.047232635, -0.078167334, -288613.94, -157042.83, 0.0, 9.996771, 10.000563 
1.954876e+3, 2.9657418e+2, -549218.94, -236026.22, -35500.113, 0.11775667, -0.0747345, -232052.72, -198485.86, 0.0, 9.996331, 10.0004835 
1.954839e+3, 3.065752e+2, -582578.7, -193391.7, -35409.816, -0.08124992, -0.02773001, -190196.22, -190196.22, 0.0, 9.995621, 10.000783 
1.9548059e+3, 3.1657568e+2, -551047.1, 66629.73, -28325.646, 0.10189468, -0.06165444, 67925.97, 67925.97, 0.0, 9.994787, 10.002969 
1.9654849e+3, 1.266333e+2, -887654.0, -1705178.1, 31944.94, -0.06718164, 0.100548916, -886407.6, 812593.56, 0.053747647, 10.007774, 9.996321 
1.9654492e+3, 1.3662915e+2, -878538.3, -1650971.0, -10377.628, -0.05436872, 0.049811184, -878398.94, 722643.25, 0.037740495, 10.007007, 9.996391 
1.9654132e+3, 1.4662613e+2, -840316.25, -1539686.3, -24685.922, -0.05375716, 0.09541114, -839445.94, 663626.06, 0.021824693, 10.006293, 9.996825 
1.9653769e+3, 1.5662295e+2, -830942.56, -1485940.3, -33864.273, -0.060343847, 0.09663281, -829196.44, 575907.1, 0.00943112, 10.005608, 9.996852 
1.9653407e+3, 1.666198e+2, -790751.75, -1345522.1, -51158.516, -0.047730323, 0.07243077, -786073.6, 521059.16, 0.002554256, 10.00487, 9.9974985 
1.9653043e+3, 1.7661694e+2, -802087.44, -1299323.4, -52102.813, -0.025215197, 0.041508958, -796686.56, 412471.75, 0.00026235983, 10.004105, 9.997512 
1.9652677e+3, 1.8661451e+2, -770638.56, -1168888.8, -62407.367, -0.01637285, 0.02614113, -761088.1, 350092.72, 0.0000007473898, 10.003367, 9.99809 
1.965231e+3, 1.9661248e+2, -773615.7, -1112937.5, -62634.164, -0.014868686, 0.01532956, -762423.5, 250776.73, 0.0, 10.002645, 9.99815 
1.9651945e+3, 2.0661086e+2, -729837.1, -950875.8, -54671.363, -0.007807942, 0.0034568768, -717054.06, 198160.36, 0.0, 10.001883, 9.998957 
1.9651581e+3, 2.1660966e+2, -744138.2, -904370.25, -55821.313, 0.0021572295, -0.009115828, -726608.94, 90615.08, 0.0, 10.001101, 9.9989805 
1.9651218e+3, 2.2660862e+2, -709311.56, -768105.2, -55389.69, 0.0001209615, -0.034460764, -676001.2, 43230.652, 0.0, 10.00037, 9.999595 
1.9650853e+3, 2.3660783e+2, -715091.5, -723141.44, -57024.402, -0.008227504, -0.06827275, -661950.2, -40713.18, 0.0, 9.999671, 9.999567 
1.965049e+3, 2.4660727e+2, -690698.0, -621812.0, -45615.438, 0.0038570333, -0.089314, -599096.56, -75855.51, 0.0, 9.998999, 9.999913 
1.9650131e+3, 2.56607e+2, -687775.56, -568835.44, -36070.84, 0.026815219, -0.10263871, -558751.25, -133508.67, 0.0, 9.998343, 9.99992 
1.9649774e+3, 2.666072e+2, -649407.5, -439824.0, -20182.695, 0.024131889, -0.09452862, -437898.13, -110657.75, 0.0, 9.997677, 10.000454 
1.9649416e+3, 2.7660775e+2, -652508.4, -396009.44, -26150.695, 0.008167048, -0.079226196, -393370.47, -164135.69, 0.0, 9.997006, 10.000404 
1.9649066e+3, 2.8660807e+2, -626333.2, -305094.97, -13955.849, 0.047938623, -0.09057613, -304489.8, -173257.25, 0.0, 9.996396, 10.000649 
1.9648719e+3, 2.9660854e+2, -616040.0, -255660.83, -9913.589, 0.113183774, -0.10517318, -255388.33, -222159.02, 0.0, 9.995821, 10.000592 
1.9648343e+3, 3.0661014e+2, -623362.7, -185878.3, -15241.818, -0.089674376, -0.015006404, -185347.92, -185347.92, 0.0, 9.995228, 10.001022 
1.9648004e+3, 3.1661052e+2, -578066.4, 45301.824, -2443.3386, 0.09803569, -0.08340632, 45311.402, 45311.402, 0.0, 9.99464, 10.002892 
1.9754925e+3, 1.2666868e+2, -888569.44, -1707158.9, 2767.7693, -0.08063424, 0.08015373, -888560.06, 810093.44, 0.054905094, 10.00778, 9.996305 
1.9754563e+3, 1.3666457e+2, -882442.5, -1660707.6, -37819.188, -0.049910508, 0.03860072, -880609.0, 720084.25, 0.03859847, 10.007015, 9.996323 
1.9754194e+3, 1.4666139e+2, -853628.06, -1569833.0, -49539.96, -0.05086205, 0.08460514, -850217.6, 652507.25, 0.022365937, 10.006302, 9.996616 
1.9753824e+3, 1.56658e+2, -841812.56, -1510802.3, -59162.75, -0.06631279, 0.084889725, -836620.7, 568138.5, 0.009698024, 10.005615, 9.996679 
1.9753455e+3, 1.6665477e+2, -788376.1, -1342567.0, -79179.77, -0.05448194, 0.05875544, -777285.3, 529504.06, 0.0026420006, 10.004876, 9.997518 
1.9753084e+3, 1.7665191e+2, -800797.6, -1298457.8, -80092.4, -0.028792743, 0.025338458, -788225.3, 420589.44, 0.00027429752, 10.004109, 9.997518 
1.975271e+3, 1.8664955e+2, -773701.94, -1176827.0, -89002.06, -0.017610561, 0.02000432, -754926.5, 355910.13, 0.0000007711629, 10.003371, 9.998035 
1.9752336e+3, 1.9664761e+2, -776650.8, -1120608.3, -89528.05, -0.013970857, 0.025574712, -754743.1, 258111.95, 0.0, 10.002647, 9.998097 
1.9751963e+3, 2.0664586e+2, -731610.7, -956062.94, -83565.14, -0.006938519, 0.0045021637, -703916.0, 210954.55, 0.0, 10.001886, 9.998921 
1.975159e+3, 2.1664439e+2, -746286.25, -910568.3, -84188.19, 0.0017523009, -0.030672925, -710805.9, 106076.71, 0.0, 10.001104, 9.998938 
1.975122e+3, 2.2664331e+2, -713576.25, -778619.25, -81182.125, 0.0010830284, -0.053732578, -658643.9, 60247.0, 0.0, 10.000375, 9.999522 
1.9750848e+3, 2.3664263e+2, -716559.4, -727733.5, -82459.71, -0.0045710807, -0.07191072, -639497.7, -18602.195, 0.0, 9.999675, 9.999536 
1.975048e+3, 2.4664217e+2, -676397.75, -593810.4, -69757.586, 0.00148783, -0.092585236, -554040.56, -31142.326, 0.0, 9.999003, 10.000105 
1.9750114e+3, 2.5664198e+2, -677821.9, -549917.0, -60346.82, 0.013715387, -0.11394217, -525939.6, -101041.38, 0.0, 9.998347, 10.00005 
1.9749749e+3, 2.6664212e+2, -660971.44, -465462.0, -45215.863, 0.0144819645, -0.10765753, -455511.28, -128614.445, 0.0, 9.997681, 10.0002775 
1.9749387e+3, 2.7664256e+2, -659603.9, -412169.44, -50779.97, 0.009984832, -0.09074373, -402153.5, -173260.22, 0.0, 9.99701, 10.000294 
1.9749029e+3, 2.8664294e+2, -608808.0, -269930.4, -35679.676, 0.051132467, -0.103366874, -266214.53, -135324.42, 0.0, 9.996398, 10.000892 
1.9748677e+3, 2.966436e+2, -599379.0, -221795.11, -31762.426, 0.11127203, -0.11999147, -219141.89, -186257.77, 0.0, 9.995821, 10.000827 
1.9748294e+3, 3.0664563e+2, -610884.8, -160493.05, -38082.38, -0.090275474, -0.010527643, -157295.72, -157295.72, 0.0, 9.995227, 10.001199 
1.9747949e+3, 3.1664598e+2, -604424.56, -10656.207, -14078.095, 0.09608274, -0.095137075, -10322.606, -10322.606, 0.0, 9.994643, 10.002507 
1.9855003e+3, 1.2670471e+2, -866197.06, -1691086.3, 15436.676, -0.089956746, 0.070827454, -865908.25, 832391.4, 0.056046095, 10.007935, 9.996343 
1.9854632e+3, 1.3670065e+2, -855395.06, -1646114.4, -20218.385, -0.049679704, 0.030824581, -854878.44, 745460.06, 0.039444435, 10.007214, 9.996325 
1.9854258e+3, 1.4669736e+2, -830225.4, -1564442.0, -23041.432, -0.049850214, 0.07065536, -829503.0, 672867.94, 0.022898989, 10.006499, 9.996555 
1.9853881e+3, 1.5669382e+2, -822049.44, -1507636.5, -23727.07, -0.066677906, 0.06409924, -821229.25, 583177.56, 0.00995995, 10.005785, 9.996617 
1.9853504e+3, 1.666906e+2, -773439.0, -1342292.9, -46923.176, -0.05523655, 0.045180146, -769594.44, 536842.8, 0.0027275602, 10.0050125, 9.997452 
1.9853126e+3, 1.766878e+2, -790980.9, -1300667.3, -53690.664, -0.029767444, 0.02595876, -785386.5, 423075.78, 0.00028583306, 10.0042095, 9.997452 
1.9852744e+3, 1.8668538e+2, -770008.2, -1181150.3, -64084.61, -0.017912626, 0.01964623, -760250.94, 350234.03, 0.0000007866793, 10.003426, 9.997977 
1.9852363e+3, 1.9668329e+2, -780352.25, -1128628.4, -65453.797, -0.012958922, 0.016483875, -768457.3, 244047.44, 0.0, 10.002652, 9.998038 
1.9851981e+3, 2.0668148e+2, -733658.2, -963535.9, -61580.387, -0.005704164, -0.0040379837, -718201.1, 196319.78, 0.0, 10.001904, 9.998859 
1.9851601e+3, 2.1667999e+2, -740875.9, -913172.1, -64264.742, 0.0025197358, -0.034012157, -719546.3, 96986.92, 0.0, 10.001167, 9.998887 
1.9851223e+3, 2.2667888e+2, -707802.8, -773940.5, -57498.96, 0.00021007285, -0.05828134, -674541.56, 44000.156, 0.0, 10.000409, 9.999536 
1.9850844e+3, 2.3667817e+2, -721553.8, -729147.94, -52645.723, -0.0074777105, -0.0806451, -672568.4, -52021.906, 0.0, 9.999639, 9.999541 
1.9850469e+3, 2.4667773e+2, -686179.7, -600323.0, -45792.336, -0.0020258385, -0.09783564, -580483.6, -57934.457, 0.0, 9.998946, 10.000087 
1.9850095e+3, 2.566776e+2, -686263.56, -554583.56, -52427.7, 0.010068681, -0.11207708, -536259.6, -111710.64, 0.0, 9.998295, 10.000041 
1.9849724e+3, 2.666777e+2, -676577.7, -466845.06, -34362.25, 0.011394559, -0.110242195, -461358.72, -134811.1, 0.0, 9.99755, 10.000329 
1.9849354e+3, 2.7667806e+2, -693110.44, -422668.0, -22707.695, 0.008195674, -0.103791796, -420774.63, -192230.36, 0.0, 9.996758, 10.000341 
1.9848992e+3, 2.866785e+2, -656419.75, -287188.1, -8197.13, 0.048347007, -0.1158008, -287006.2, -156465.78, 0.0, 9.99605, 10.000939 
1.9848631e+3, 2.966793e+2, -656340.44, -239209.1, -18491.195, 0.10565977, -0.12588125, -238391.0, -205857.77, 0.0, 9.99539, 10.000914 
1.9848244e+3, 3.0668133e+2, -645234.3, -148398.77, -23400.383, -0.08834651, -0.03192494, -147299.08, -147299.08, 0.0, 9.994871, 10.0014515 
1.9847894e+3, 3.1668195e+2, -651196.2, -60116.246, 16824.574, 0.09671439, -0.10777816, -59637.734, -59637.734, 0.0, 9.994441, 10.002264 
1.9955081e+3, 1.2674138e+2, -861602.0, -1681868.9, -10712.484, -0.0971745, 0.06984734, -861462.1, 836477.6, 0.057182066, 10.007941, 9.9964075 
1.9954705e+3, 1.3673733e+2, -851591.94, -1639046.1, -45479.484, -0.053218413, 0.025781361, -848973.94, 751003.94, 0.040286742, 10.007221, 9.996372 
1.9954321e+3, 1.46734e+2, -825671.44, -1556091.9, -48776.754, -0.050470967, 0.053924248, -822428.6, 679581.94, 0.02342957, 10.006505, 9.996613 
1.9953938e+3, 1.5673038e+2, -820082.06, -1504845.6, -50666.92, -0.062204793, 0.035538733, -816353.44, 587693.2, 0.010220317, 10.005789, 9.996636 
1.9953552e+3, 1.6672723e+2, -783115.94, -1364180.9, -76687.88, -0.050849307, 0.031939704, -773165.25, 532911.56, 0.0028124875, 10.005017, 9.997301 
1.9953166e+3, 1.767246e+2, -799533.8, -1320676.5, -83114.21, -0.028567135, 0.041648503, -786599.44, 421501.9, 0.00029746708, 10.004216, 9.9973135 
1.9952777e+3, 1.8672194e+2, -773953.9, -1191691.4, -92497.85, -0.017476235, 0.024273511, -754388.8, 355737.34, 0.000000805103, 10.003433, 9.997904 
1.9952388e+3, 1.9671947e+2, -784649.56, -1139811.6, -93544.94, -0.011897997, -0.010472959, -761517.7, 250631.81, 0.0, 10.002659, 9.99796 
1.9951999e+3, 2.0671766e+2, -739396.6, -977426.44, -88459.51, -0.004133841, -0.021190254, -710122.5, 204043.25, 0.0, 10.001909, 9.998764 
1.9951613e+3, 2.1671638e+2, -744788.9, -922934.9, -91294.44, 0.0043314607, -0.019913971, -706313.2, 109863.234, 0.0, 10.001171, 9.99882 
1.9951226e+3, 2.2671525e+2, -701085.3, -761633.94, -85908.625, -0.0025363318, -0.048915762, -640272.7, 77912.164, 0.0, 10.000413, 9.99962 
1.9950838e+3, 2.3671438e+2, -718803.25, -725216.44, -80355.83, -0.016859196, -0.09458844, -641590.06, -21399.578, 0.0, 9.999643, 9.999568 
1.9950457e+3, 2.4671388e+2, -701940.3, -634798.94, -69813.484, -0.0066377097, -0.10495253, -590904.06, -68709.74, 0.0, 9.998951, 9.999849 
1.9950078e+3, 2.5671378e+2, -696133.1, -576784.56, -77420.46, 0.015876055, -0.09687234, -538709.44, -114514.125, 0.0, 9.998299, 9.999888 
1.99497e+3, 2.667139e+2, -656758.5, -427288.03, -64057.188, 0.014774974, -0.10218787, -410617.4, -84424.2, 0.0, 9.997554, 10.000601 
1.994932e+3, 2.767143e+2, -678951.5, -394635.34, -51526.8, 0.002388155, -0.11840533, -385585.2, -157397.05, 0.0, 9.996761, 10.000534 
1.994895e+3, 2.8671473e+2, -667488.2, -311317.6, -33244.445, 0.039175764, -0.12773988, -308241.16, -178057.16, 0.0, 9.996052, 10.000774 
1.9948584e+3, 2.9671553e+2, -661620.9, -250864.13, -42343.246, 0.09624207, -0.122532606, -246544.56, -214367.27, 0.0, 9.99539, 10.000835 
1.9948193e+3, 3.067172e+2, -621985.75, -100834.88, -40323.33, -0.08353518, -0.08161177, -97733.375, -97733.375, 0.0, 9.99487, 10.0017805 
1.9947839e+3, 3.167187e+2, -657949.3, -75609.266, 8761.582, 0.09866265, -0.096876815, -75477.48, -75477.48, 0.0, 9.994444, 10.002157 
2.005516e+3, 1.267788e+2, -837170.25, -1669142.0, 24253.943, -0.101507284, 0.04895011, -836463.8, 861107.94, 0.058322646, 10.008128, 9.996409 
2.0054775e+3, 1.3677478e+2, -831618.4, -1630454.8, -12580.719, -0.058538534, 0.011061506, -831420.3, 768189.0, 0.041134015, 10.00738, 9.996352 
2.0054387e+3, 1.4677142e+2, -810653.9, -1551070.1, -20794.684, -0.054057617, 0.04039723, -810070.3, 691571.94, 0.023964418, 10.006628, 9.996586 
2.0053995e+3, 1.5676779e+2, -810982.44, -1503876.3, -28536.736, -0.060754497, 0.023845157, -809809.2, 593869.44, 0.010483388, 10.005871, 9.996602 
2.0053603e+3, 1.667646e+2, -773237.8, -1366610.6, -54120.043, -0.051057905, 0.021309739, -768342.06, 537367.44, 0.0028987727, 10.00512, 9.997233 
2.0053208e+3, 1.7676188e+2, -782070.5, -1319421.0, -55519.188, -0.034127876, 0.031785376, -776394.2, 431340.84, 0.00030980664, 10.004371, 9.997246 
2.0052812e+3, 1.8675919e+2, -753118.06, -1186706.9, -62341.465, -0.02191794, 0.015386299, -744332.6, 365427.8, 0.00000083885595, 10.003601, 9.997855 
2.0052415e+3, 1.9675666e+2, -765083.0, -1135822.5, -62064.266, -0.011782898, -0.018491898, -754968.94, 256815.17, 0.0, 10.00282, 9.997908 
2.0052019e+3, 2.0675479e+2, -728693.06, -978768.7, -55377.18, -0.0031698337, -0.029806573, -716979.0, 196822.06, 0.0, 10.002013, 9.998702 
2.0051624e+3, 2.1675345e+2, -746027.7, -930255.3, -56175.117, 0.0041566347, -0.029533645, -730249.9, 85562.55, 0.0, 10.001195, 9.998756 
2.0051229e+3, 2.2675225e+2, -701483.8, -768738.0, -56285.6, -0.0037849292, -0.057211373, -669545.3, 48276.266, 0.0, 10.000443, 9.999556 
2.0050836e+3, 2.3675133e+2, -711883.6, -728682.2, -61821.633, -0.018974707, -0.10048631, -657893.3, -38065.563, 0.0, 9.999723, 9.999504 
2.0050445e+3, 2.4675079e+2, -712823.1, -645332.7, -46858.086, -0.0056511643, -0.10846933, -621333.5, -99501.38, 0.0, 9.998902, 9.999799 
2.005006e+3, 2.5675064e+2, -737936.44, -600707.2, -41008.92, 0.021842813, -0.0981562, -589386.25, -165552.66, 0.0, 9.998032, 9.999851 
2.0049673e+3, 2.6675072e+2, -691572.5, -439493.88, -33934.25, 0.019667907, -0.107260674, -435005.66, -109173.85, 0.0, 9.997298, 10.000639 
2.0049287e+3, 2.767511e+2, -695122.9, -398166.13, -38700.99, 0.003176483, -0.13010013, -393205.28, -165378.44, 0.0, 9.9966345, 10.000569 
2.0048909e+3, 2.8675166e+2, -687043.94, -317389.7, -16522.06, 0.03717821, -0.13137281, -316652.7, -186831.27, 0.0, 9.995906, 10.000801 
2.0048535e+3, 2.967526e+2, -693711.4, -260991.47, -10220.202, 0.09179221, -0.112472035, -260750.22, -228937.38, 0.0, 9.99515, 10.00088 
2.004814e+3, 3.067537e+2, -659803.1, -105859.016, -7306.332, -0.07775303, -0.13680355, -105762.664, -105762.664, 0.0, 9.994558, 10.001895 
2.004778e+3, 3.1675586e+2, -710993.8, -95059.18, 35142.508, 0.09526743, -0.096761785, -93060.586, -93060.586, 0.0, 9.994057, 10.002209 
2.0155239e+3, 1.268169e+2, -841327.5, -1677520.5, -3688.9417, -0.10452067, 0.010973064, -841311.25, 855884.9, 0.059476092, 10.008134, 9.996347 
2.0154849e+3, 1.3681296e+2, -836981.75, -1642874.3, -39356.586, -0.06541279, -0.011625644, -835064.3, 764168.9, 0.04199413, 10.007386, 9.996266 
2.0154451e+3, 1.4680962e+2, -817785.0, -1567150.0, -48010.6, -0.06022351, 0.02965315, -814721.56, 686544.9, 0.024509965, 10.006632, 9.996476 
2.0154054e+3, 1.5680602e+2, -817092.7, -1517397.9, -56027.17, -0.062032823, 0.026727507, -812638.6, 590664.5, 0.01075335, 10.005873, 9.9965105 
2.0153652e+3, 1.6680267e+2, -773339.8, -1368011.0, -81410.45, -0.055369522, 0.012735899, -762396.1, 542939.56, 0.0029883592, 10.005122, 9.997225 
2.015325e+3, 1.7679971e+2, -782248.1, -1321633.8, -83131.484, -0.045700554, -0.0008530257, -769726.4, 437637.1, 0.00032335456, 10.0043745, 9.997231 
2.0152846e+3, 1.867971e+2, -754798.56, -1192182.3, -90929.22, -0.030723255, -0.005278542, -736648.2, 372739.84, 0.0000009060862, 10.003606, 9.997817 
2.015244e+3, 1.9679484e+2, -766853.1, -1141492.5, -90903.055, -0.012560989, -0.008949184, -745961.3, 265447.9, 0.0, 10.002826, 9.997869 
2.0152037e+3, 2.0679282e+2, -730516.94, -984759.44, -85518.086, -0.0028465914, -0.030806009, -704428.7, 208998.6, 0.0, 10.00202, 9.99866 
2.0151635e+3, 2.1679111e+2, -750000.3, -940906.25, -85634.46, 0.0020613074, -0.061707992, -717217.06, 98224.7, 0.0, 10.001203, 9.998682 
2.0151232e+3, 2.2678985e+2, -715885.9, -800570.0, -82753.82, -0.003576471, -0.08203987, -665270.7, 52181.45, 0.0, 10.000448, 9.999336 
2.0150831e+3, 2.3678896e+2, -722496.56, -752177.2, -89235.61, -0.014075906, -0.09826912, -646875.7, -27417.023, 0.0, 9.999726, 9.999343 
2.0150435e+3, 2.4678841e+2, -703511.7, -627625.6, -79328.836, 0.00071588304, -0.10861139, -577632.7, -56169.684, 0.0, 9.998906, 9.99992 
2.015004e+3, 2.567882e+2, -732898.94, -591908.1, -72128.49, 0.027803915, -0.11601161, -561546.6, -138082.3, 0.0, 9.998035, 9.999912 
2.0149647e+3, 2.6678818e+2, -705479.06, -470009.7, -58694.43, 0.026046269, -0.1254281, -456190.22, -130726.31, 0.0, 9.997302, 10.000429 
2.0149253e+3, 2.767884e+2, -703830.25, -417912.34, -64229.156, 0.010806332, -0.13878663, -404146.53, -176685.58, 0.0, 9.996638, 10.000433 
2.0148869e+3, 2.8678918e+2, -671318.9, -286152.25, -45365.043, 0.042583544, -0.12633948, -280881.25, -151428.13, 0.0, 9.995909, 10.001017 
2.0148486e+3, 2.967905e+2, -682522.94, -238621.14, -37044.008, 0.09219773, -0.09486414, -235551.02, -204110.75, 0.0, 9.99515, 10.001035 
2.0148087e+3, 3.0679077e+2, -668346.3, -124326.734, -26664.605, -0.07100434, -0.19862626, -123022.92, -123022.92, 0.0, 9.994558, 10.001769 
2.0147718e+3, 3.167935e+2, -694686.7, -62186.402, 21585.02, 0.08589246, -0.09258438, -61450.637, -61450.637, 0.0, 9.994058, 10.002437 
2.025532e+3, 1.2685592e+2, -825846.06, -1670863.9, 17016.838, -0.10972949, -0.00450491, -825503.5, 871308.7, 0.060649827, 10.008264, 9.996331 
2.0254922e+3, 1.3685194e+2, -821203.75, -1638015.5, -14798.069, -0.06908743, -0.026870945, -820935.75, 777913.9, 0.042872276, 10.007523, 9.996232 
2.0254517e+3, 1.4684854e+2, -808399.5, -1566436.6, -21003.084, -0.0638076, 0.0133834295, -807818.0, 693065.5, 0.02506987, 10.0067215, 9.996435 
2.0254111e+3, 1.5684493e+2, -817812.75, -1521384.4, -24202.816, -0.064660534, 0.012717119, -816981.2, 585939.44, 0.011032726, 10.005888, 9.996474 
2.0253703e+3, 1.6684157e+2, -770116.1, -1366950.3, -45643.516, -0.05830136, 0.0014614422, -766645.6, 538307.6, 0.0030825285, 10.00515, 9.997217 
2.0253292e+3, 1.7683862e+2, -771156.1, -1317820.3, -48215.66, -0.049818307, -0.009804875, -766936.06, 440045.03, 0.00033837368, 10.004461, 9.997213 
2.025288e+3, 1.8683597e+2, -742737.6, -1190973.9, -58699.984, -0.034420475, -0.013907211, -735177.94, 373828.13, 0.0000010291009, 10.003712, 9.997772 
2.0252469e+3, 1.9683366e+2, -755133.0, -1141129.9, -59628.15, -0.014990523, -0.017755965, -746131.6, 264896.22, 0.0, 10.002932, 9.997818 
2.0252058e+3, 2.0683154e+2, -712456.75, -983946.25, -56245.875, -0.0069020186, -0.041448966, -701265.3, 211781.36, 0.0, 10.002181, 9.998586 
2.0251647e+3, 2.1682973e+2, -721292.44, -936112.1, -59352.434, -0.004806, -0.07529394, -705984.8, 109077.26, 0.0, 10.001442, 9.998598 
2.0251237e+3, 2.2682837e+2, -709280.25, -811093.5, -55134.816, -0.0038237218, -0.09302907, -685144.7, 31928.877, 0.0, 10.000556, 9.99921 
2.0250829e+3, 2.3682742e+2, -748776.94, -776542.8, -55086.67, -0.0032054733, -0.10356575, -705850.75, -86769.484, 0.0, 9.999599, 9.999235 
2.0250423e+3, 2.468268e+2, -718381.0, -635990.94, -48341.785, 0.00903342, -0.11393833, -613672.5, -92586.35, 0.0, 9.998813, 9.999907 
2.025002e+3, 2.5682655e+2, -724185.44, -590197.8, -50982.098, 0.026695607, -0.124619, -573005.25, -149917.5, 0.0, 9.998109, 9.9998865 
2.0249619e+3, 2.6682648e+2, -709527.25, -480159.38, -33513.61, 0.02428422, -0.13452469, -475362.9, -150274.77, 0.0, 9.9973135, 10.000352 
2.0249219e+3, 2.7682665e+2, -731602.06, -436127.25, -29640.639, 0.013159126, -0.14632973, -433183.2, -206097.02, 0.0, 9.996472, 10.000387 
2.0248826e+3, 2.868275e+2, -694009.9, -285344.2, -13542.379, 0.046410836, -0.1265144, -284895.9, -155818.72, 0.0, 9.995706, 10.001118 
2.0248437e+3, 2.96829e+2, -703601.56, -241717.77, -13256.231, 0.09533578, -0.08702823, -241337.63, -210275.31, 0.0, 9.994978, 10.001095 
2.024803e+3, 3.0682883e+2, -728396.4, -168787.05, -4342.5034, -0.060385797, -0.22806968, -168753.34, -168753.34, 0.0, 9.994217, 10.001627 
2.0247655e+3, 3.168317e+2, -754922.06, -41776.133, 49349.934, 0.08146487, -0.09669027, -38377.3, -38377.3, 0.0, 9.993435, 10.002874 
2.0355402e+3, 1.2689579e+2, -827438.94, -1671062.3, -10097.915, -0.11762197, -0.0034672301, -827318.06, 869102.5, 0.06184896, 10.008256, 9.996336 
2.0354997e+3, 1.368917e+2, -822077.7, -1639124.1, -41630.254, -0.07026903, -0.03589126, -819962.0, 778496.94, 0.043770343, 10.007522, 9.996226 
2.0354582e+3, 1.4688818e+2, -807684.25, -1565670.0, -51244.367, -0.06537515, -0.007395078, -804235.5, 696258.25, 0.02564463, 10.006725, 9.996441 
2.0354168e+3, 1.5688449e+2, -816857.25, -1521328.9, -54014.56, -0.06857725, -0.01582604, -812739.8, 589791.5, 0.011322057, 10.005894, 9.996473 
2.0353754e+3, 1.668813e+2, -770538.0, -1369859.3, -71087.305, -0.060083225, -0.011950643, -762221.5, 542341.2, 0.0031818168, 10.005156, 9.997196 
2.0353337e+3, 1.7687856e+2, -772558.2, -1322179.8, -74437.945, -0.047433995, 0.0023109764, -762655.1, 443933.47, 0.0003549596, 10.004464, 9.997184 
2.0352918e+3, 1.8687576e+2, -746500.25, -1200307.6, -87740.05, -0.0336947, -0.012043996, -730127.1, 378488.03, 0.0000012247956, 10.0037155, 9.997708 
2.0352498e+3, 1.968731e+2, -759339.3, -1151809.8, -88271.59, -0.01899659, -0.043442156, -740399.9, 270240.34, 0.0, 10.002937, 9.997744 
2.0352077e+3, 2.0687096e+2, -719556.8, -1000580.3, -83439.9, -0.015017118, -0.060649768, -696649.56, 216009.89, 0.0, 10.002186, 9.998471 
2.0351659e+3, 2.1686926e+2, -727779.3, -951240.56, -87948.2, -0.016269824, -0.071202256, -697317.75, 117356.05, 0.0, 10.001446, 9.998494 
2.0351242e+3, 2.2686781e+2, -711992.56, -818461.44, -90816.21, -0.004533787, -0.091083586, -659958.4, 56727.92, 0.0, 10.00056, 9.999159 
2.0350826e+3, 2.3686665e+2, -752876.44, -787036.56, -88925.22, 0.013434644, -0.11634331, -679405.8, -60709.883, 0.0, 9.999605, 9.999163 
2.0350412e+3, 2.4686594e+2, -728497.0, -659035.5, -74394.56, 0.019100007, -0.12411725, -611664.0, -90962.02, 0.0, 9.998817, 9.999747 
2.0349999e+3, 2.5686562e+2, -731838.4, -607916.4, -78018.89, 0.01834033, -0.12378317, -570247.5, -147543.23, 0.0, 9.998114, 9.999764 
2.034959e+3, 2.6686555e+2, -705530.2, -473610.22, -65174.105, 0.014228442, -0.13460988, -456549.97, -131845.08, 0.0, 9.997317, 10.000397 
2.0349182e+3, 2.768657e+2, -729008.8, -432168.47, -60470.14, 0.010017869, -0.15281652, -420322.66, -193619.77, 0.0, 9.996475, 10.000414 
2.0348781e+3, 2.8686655e+2, -695568.7, -289763.66, -40944.88, 0.048523683, -0.13198467, -285673.63, -156979.56, 0.0, 9.9957075, 10.001088 
2.0348386e+3, 2.9686803e+2, -707194.0, -250319.94, -40983.957, 0.10126121, -0.08909293, -246672.6, -215993.03, 0.0, 9.99498, 10.001037 
2.0347972e+3, 3.068678e+2, -740692.25, -194870.63, -34582.43, -0.0456263, -0.22276887, -192688.27, -192688.27, 0.0, 9.994216, 10.00145 
2.0347589e+3, 3.1687042e+2, -708446.1, 55202.566, 23657.914, 0.083697766, -0.11004272, 55934.79, 55934.79, 0.0, 9.993429, 10.003546 
2.0455484e+3, 1.2693629e+2, -838803.5, -1675768.1, 18231.123, -0.11417526, -0.017097712, -838406.56, 857615.9, 0.06307302, 10.0081835, 9.996334 
2.045507e+3, 1.3693227e+2, -822857.5, -1640361.1, -12853.173, -0.07586744, -0.041716862, -822655.44, 775405.0, 0.04468707, 10.00753, 9.996212 
2.0454648e+3, 1.4692868e+2, -797791.5, -1561154.3, -26445.496, -0.07322136, -0.017495295, -796876.44, 703219.3, 0.026232697, 10.0068035, 9.996432 
2.0454228e+3, 1.5692492e+2, -798245.8, -1513806.1, -30095.17, -0.074296474, -0.032432236, -796982.3, 605151.56, 0.01162038, 10.006035, 9.996455 
2.0453803e+3, 1.6692166e+2, -758257.5, -1368824.8, -46879.09, -0.063372985, -0.027251245, -754679.1, 549486.5, 0.0032860232, 10.005265, 9.9971485 
2.045338e+3, 1.7691894e+2, -771986.75, -1327420.4, -52702.52, -0.0484248, -0.007879385, -767030.3, 439161.47, 0.00037308593, 10.004495, 9.997131 
2.0452952e+3, 1.8691611e+2, -745325.6, -1206517.9, -67683.94, -0.036625765, -0.01930207, -735597.6, 372621.25, 0.0000015009235, 10.003756, 9.997644 
2.0452526e+3, 1.9691339e+2, -750065.75, -1153713.1, -68777.8, -0.025799355, -0.04905279, -738668.44, 271576.2, 0.0, 10.003031, 9.997684 
2.0452099e+3, 2.069112e+2, -711520.25, -1000608.3, -61345.86, -0.020438315, -0.065802656, -699041.06, 213223.25, 0.0, 10.002261, 9.998433 
2.0451672e+3, 2.1690947e+2, -728317.2, -956765.2, -62195.387, -0.017800387, -0.076157495, -712482.0, 101796.96, 0.0, 10.001468, 9.998444 
2.0451246e+3, 2.2690792e+2, -707611.5, -826365.94, -69900.27, -0.003365878, -0.09606883, -675273.4, 41018.98, 0.0, 10.000637, 9.999066 
2.0450822e+3, 2.3690668e+2, -732813.25, -786871.75, -70359.59, 0.016876651, -0.12167141, -684469.7, -66166.49, 0.0, 9.999787, 9.999074 
2.04504e+3, 2.4690588e+2, -713567.6, -658523.1, -48227.484, 0.022478573, -0.12928693, -630517.3, -110207.25, 0.0, 9.998953, 9.999683 
2.044998e+3, 2.5690553e+2, -733803.7, -614150.3, -45902.625, 0.02024043, -0.12845665, -598569.56, -176256.61, 0.0, 9.998127, 9.999714 
2.0449562e+3, 2.669054e+2, -711384.7, -474269.0, -35634.99, 0.015769927, -0.13892786, -469029.34, -144715.78, 0.0, 9.997272, 10.000413 
2.0449145e+3, 2.7690554e+2, -739151.94, -436098.0, -32469.418, 0.012096288, -0.15688014, -432658.22, -206346.89, 0.0, 9.996406, 10.000419 
2.0448738e+3, 2.8690633e+2, -707715.44, -299401.16, -10279.959, 0.05012909, -0.1426934, -299142.5, -170838.84, 0.0, 9.995645, 10.001051 
2.0448335e+3, 2.9690766e+2, -718265.3, -260113.94, -12932.569, 0.10144578, -0.10925077, -259749.17, -229458.23, 0.0, 9.994927, 10.000993 
2.0447914e+3, 3.0690792e+2, -789505.1, -224009.92, -9246.85, -0.032110877, -0.19012247, -223858.77, -223858.77, 0.0, 9.993909, 10.001395 
2.044752e+3, 3.1690994e+2, -774364.06, 78351.7, 60109.89, 0.08934679, -0.13446996, 82568.14, 82568.14, 0.0, 9.992744, 10.004033 
2.0555563e+3, 1.2697741e+2, -839019.0, -1677799.8, -5538.614, -0.10258682, -0.043217935, -838982.44, 856635.5, 0.06431712, 10.008198, 9.996314 
2.0555145e+3, 1.3697359e+2, -824995.94, -1645357.1, -36709.16, -0.08533356, -0.04511208, -823356.56, 774297.9, 0.045620088, 10.007535, 9.996178 
2.0554714e+3, 1.4697e+2, -800007.56, -1566511.6, -54127.85, -0.08636449, -0.01901913, -796204.1, 703485.75, 0.02683268, 10.006806, 9.996397 
2.0554288e+3, 1.5696612e+2, -800569.94, -1520254.9, -58157.418, -0.08161452, -0.038826995, -795900.5, 605828.06, 0.011926576, 10.00604, 9.99641 
2.0553856e+3, 1.6696273e+2, -763107.6, -1380920.0, -75151.26, -0.06805815, -0.044256005, -754097.56, 549664.5, 0.0033946047, 10.005271, 9.997065 
2.0553423e+3, 1.7695978e+2, -776823.56, -1339645.3, -80748.266, -0.052468296, -0.037817873, -765467.7, 440322.88, 0.0003926404, 10.0045, 9.997046 
2.0552988e+3, 1.8695702e+2, -749521.7, -1217593.1, -94195.6, -0.04288588, -0.0344134, -731276.75, 376540.53, 0.0000018579414, 10.003762, 9.997567 
2.0552553e+3, 1.969545e+2, -752949.2, -1162156.0, -95695.45, -0.035230942, -0.036279693, -731676.1, 278165.22, 0.0, 10.003038, 9.997624 
2.055212e+3, 2.0695224e+2, -709257.1, -997834.44, -90488.5, -0.023364592, -0.058258705, -683230.2, 228631.38, 0.0, 10.002266, 9.998451 
2.0551687e+3, 2.1695031e+2, -728758.4, -959105.8, -91848.93, -0.009974689, -0.089653336, -696618.8, 117259.1, 0.0, 10.001471, 9.998428 
2.0551252e+3, 2.269487e+2, -717042.4, -847649.94, -101416.85, -0.00059348904, -0.107390665, -661722.94, 54169.22, 0.0, 10.000641, 9.99892 
2.0550817e+3, 2.3694745e+2, -739821.56, -803531.7, -101527.19, 0.007277821, -0.11971396, -665269.3, -47365.848, 0.0, 9.999793, 9.998959 
2.0550388e+3, 2.4694659e+2, -711412.44, -656025.06, -78980.66, 0.019369714, -0.12972146, -600023.56, -80112.766, 0.0, 9.998958, 9.999701 
2.054996e+3, 2.5694615e+2, -732551.1, -613291.75, -77016.336, 0.032532677, -0.1387129, -575519.06, -153604.92, 0.0, 9.998131, 9.99972 
2.0549536e+3, 2.6694602e+2, -712521.1, -478329.66, -68260.695, 0.028994082, -0.14739494, -459885.97, -135971.34, 0.0, 9.997275, 10.000384 
2.054911e+3, 2.7694622e+2, -740694.94, -441044.94, -63837.652, 0.019312188, -0.15839605, -428011.78, -202099.8, 0.0, 9.996409, 10.000385 
2.0548694e+3, 2.869468e+2, -711115.4, -308165.03, -37075.93, 0.050971944, -0.15921253, -304782.03, -176875.47, 0.0, 9.995648, 10.00099 
2.0548284e+3, 2.9694784e+2, -720589.6, -266491.38, -43105.164, 0.095432095, -0.14870255, -262435.84, -232538.78, 0.0, 9.99493, 10.00095 
2.0547853e+3, 3.0694917e+2, -785386.4, -215710.16, -53906.832, -0.019762108, -0.12676646, -210653.98, -210653.98, 0.0, 9.993906, 10.001456 
2.0547447e+3, 3.1695026e+2, -757837.94, 114448.14, 19764.346, 0.099215075, -0.17052245, 114895.734, 114895.734, 0.0, 9.992732, 10.004289 
2.0655647e+3, 1.2701942e+2, -805825.94, -1666476.8, 21974.97, -0.10771999, -0.061722368, -805265.2, 889939.56, 0.065574646, 10.008478, 9.996261 
2.0655218e+3, 1.3701566e+2, -815561.7, -1645498.5, -9436.394, -0.08815536, -0.05181585, -815454.4, 781786.9, 0.046565812, 10.007635, 9.996126 
2.0654783e+3, 1.4701201e+2, -791049.7, -1560932.6, -25254.486, -0.08962413, -0.02800368, -790222.1, 709055.0, 0.027442653, 10.006872, 9.996401 
2.0654346e+3, 1.5700808e+2, -787386.4, -1515004.5, -27301.453, -0.08576803, -0.052832626, -786363.44, 614952.6, 0.01223934, 10.006142, 9.996395 
2.0653908e+3, 1.6700463e+2, -752437.94, -1384228.6, -44219.496, -0.07224096, -0.057914626, -749358.0, 553992.1, 0.0035068893, 10.005385, 9.996985 
2.065347e+3, 1.7700161e+2, -765217.7, -1342078.9, -49535.19, -0.056529272, -0.04926307, -760995.0, 444384.47, 0.00041347387, 10.004619, 9.996971 
2.0653027e+3, 1.869988e+2, -732260.9, -1214083.9, -59896.805, -0.049364373, -0.045821313, -724926.56, 382480.28, 0.0000022952552, 10.003905, 9.997521 
2.0652583e+3, 1.9699623e+2, -731376.44, -1156626.3, -61120.176, -0.04505297, -0.04807645, -722766.06, 286665.44, 0.0, 10.003211, 9.997577 
2.065214e+3, 2.0699391e+2, -699973.2, -998283.5, -63789.95, -0.028793646, -0.069846556, -686904.94, 224547.38, 0.0, 10.002355, 9.998404 
2.0651701e+3, 2.1699193e+2, -739001.25, -968994.25, -69382.484, -0.0075015286, -0.100905016, -719691.6, 93777.664, 0.0, 10.001425, 9.998381 
2.0651257e+3, 2.2699031e+2, -717701.44, -851655.5, -72542.72, 0.0000012873664, -0.11498696, -685944.6, 29539.096, 0.0, 10.000656, 9.998883 
2.0650816e+3, 2.3698907e+2, -719014.7, -797995.5, -66528.33, 0.0014918504, -0.12214142, -681139.0, -63643.957, 0.0, 9.999959, 9.998915 
2.0650376e+3, 2.469881e+2, -702383.44, -658127.8, -50360.746, 0.018324405, -0.1364781, -625247.94, -105744.555, 0.0, 9.999051, 9.999639 
2.0649941e+3, 2.5698748e+2, -748475.6, -625898.1, -53767.918, 0.041419134, -0.15394863, -605655.94, -184147.66, 0.0, 9.998047, 9.999671 
2.0649506e+3, 2.6698744e+2, -725383.44, -483005.5, -42788.79, 0.03909347, -0.15240225, -475673.47, -152165.48, 0.0, 9.997185, 10.000395 
2.0649073e+3, 2.7698785e+2, -743376.44, -441087.06, -35574.684, 0.02654986, -0.14530966, -436956.94, -211453.36, 0.0, 9.996389, 10.000392 
2.064865e+3, 2.8698823e+2, -727986.06, -315087.3, -4098.857, 0.05155812, -0.16762759, -315046.63, -187546.47, 0.0, 9.995531, 10.000998 
2.064823e+3, 2.9698887e+2, -760550.8, -281057.34, -7847.4253, 0.08738786, -0.19427043, -280928.97, -251434.75, 0.0, 9.99464, 10.000987 
2.0647791e+3, 3.0699116e+2, -812354.0, -207071.0, -20741.475, -0.008275584, -0.08767627, -206361.08, -206361.08, 0.0, 9.993632, 10.001645 
2.0647372e+3, 3.169917e+2, -792042.4, 84377.42, 60934.336, 0.10295494, -0.20207348, 88593.68, 88593.68, 0.0, 9.99256, 10.004163 
2.075573e+3, 1.2706226e+2, -811452.06, -1678606.5, -8178.3696, -0.12664627, -0.07559972, -811374.94, 883408.5, 0.06683707, 10.008488, 9.996169 
2.0755292e+3, 1.3705845e+2, -820091.8, -1656309.1, -38153.613, -0.085488655, -0.061066866, -818354.56, 778466.4, 0.04751725, 10.007643, 9.996051 
2.0754851e+3, 1.4705473e+2, -788890.3, -1557789.0, -51207.273, -0.08488153, -0.04297591, -785494.94, 713362.5, 0.028057981, 10.006879, 9.996422 
2.0754407e+3, 1.5705076e+2, -786622.4, -1515375.0, -54293.777, -0.08750148, -0.0733584, -782599.56, 618296.9, 0.012556342, 10.006148, 9.996392 
2.075396e+3, 1.6704735e+2, -757548.56, -1397179.1, -72514.68, -0.07610862, -0.068628706, -749430.6, 553499.56, 0.003622082, 10.005392, 9.996895 
2.0753513e+3, 1.770444e+2, -769539.06, -1353425.0, -77264.45, -0.06066564, -0.04446668, -759487.9, 445471.28, 0.00043545975, 10.004625, 9.996892 
2.0753063e+3, 1.870414e+2, -733692.8, -1218798.6, -85214.02, -0.05610099, -0.054212824, -719159.44, 387828.72, 0.000002822908, 10.003909, 9.997489 
2.0752612e+3, 1.9703853e+2, -734575.2, -1164318.5, -88281.56, -0.055263873, -0.082202375, -717146.5, 291868.84, 0.0, 10.003212, 9.997526 
2.0752163e+3, 2.0703618e+2, -707868.6, -1016045.94, -98216.3, -0.036586713, -0.09874328, -679228.6, 231808.19, 0.0, 10.0023575, 9.998283 
2.0751713e+3, 2.1703428e+2, -744113.5, -981701.9, -101853.79, -0.010216003, -0.110050745, -706426.9, 106626.664, 0.0, 10.0014305, 9.998293 
2.0751265e+3, 2.270327e+2, -713057.5, -844034.94, -97919.8, -0.0015106439, -0.11919481, -660745.3, 54322.242, 0.0, 10.000661, 9.998936 
2.0750813e+3, 2.3703146e+2, -717514.0, -796594.9, -94373.87, -0.0005294238, -0.12875593, -654732.06, -37653.68, 0.0, 9.999963, 9.998924 
2.0750366e+3, 2.4703036e+2, -712234.4, -680292.7, -88093.266, 0.019234022, -0.14936917, -606734.25, -87645.89, 0.0, 9.999055, 9.999487 
2.0749922e+3, 2.5702953e+2, -755725.5, -642647.5, -89869.57, 0.046631884, -0.17414984, -593011.2, -171915.47, 0.0, 9.99805, 9.999557 
2.074948e+3, 2.6702967e+2, -722218.0, -478201.78, -72603.91, 0.045913696, -0.15374698, -458233.47, -135139.45, 0.0, 9.997189, 10.000427 
2.0749038e+3, 2.770304e+2, -739897.06, -435670.16, -65971.86, 0.03387467, -0.1169982, -421980.16, -196893.7, 0.0, 9.996393, 10.000429 
2.0748603e+3, 2.8703052e+2, -722868.06, -305990.78, -37709.664, 0.051836085, -0.16786042, -302607.13, -175522.2, 0.0, 9.995534, 10.0010605 
2.0748174e+3, 2.9703072e+2, -752526.1, -265239.22, -42804.63, 0.07689032, -0.24686252, -261507.72, -232424.95, 0.0, 9.994639, 10.001098 
2.0747727e+3, 3.0703387e+2, -790573.1, -162279.8, -60881.44, 0.0021235186, -0.07442359, -156434.78, -156434.78, 0.0, 9.99363, 10.001956 
2.0747298e+3, 3.1703448e+2, -833954.06, -3138.975, 21670.914, 0.10054182, -0.2053892, -2574.0967, -2574.0967, 0.0, 9.992559, 10.003564 
2.0855816e+3, 1.2710595e+2, -790950.4, -1677849.1, 20551.076, -0.121485434, -0.09430089, -790474.44, 903879.4, 0.0680911, 10.008696, 9.996072 
2.0855369e+3, 1.3710216e+2, -806088.56, -1658201.6, -7286.9146, -0.0869371, -0.06753642, -806026.25, 790365.56, 0.048462894, 10.007793, 9.995962 
2.085492e+3, 1.4709836e+2, -772808.75, -1552205.5, -18032.46, -0.086837806, -0.050748117, -772391.75, 726037.3, 0.028670758, 10.00701, 9.996394 
2.0854467e+3, 1.5709433e+2, -770829.8, -1511563.6, -24569.256, -0.087087944, -0.08507097, -770015.75, 630452.7, 0.012873629, 10.006281, 9.996352 
2.0854014e+3, 1.6709082e+2, -743555.2, -1398874.3, -44482.406, -0.07687777, -0.08071088, -740549.56, 561953.4, 0.003738791, 10.005529, 9.996816 
2.085356e+3, 1.7708781e+2, -754074.0, -1352984.9, -49023.344, -0.06421033, -0.055487048, -750087.8, 454445.0, 0.00045833093, 10.0047655, 9.996825 
2.08531e+3, 1.8708478e+2, -727252.3, -1216535.9, -56151.254, -0.05918367, -0.06426618, -720891.0, 385671.16, 0.0000034511088, 10.003961, 9.997478 
2.0852645e+3, 1.970819e+2, -746859.44, -1171883.6, -58965.055, -0.056501944, -0.09139823, -738830.7, 269758.66, 0.0, 10.003139, 9.997508 
2.0852186e+3, 2.0707951e+2, -712486.4, -1022411.56, -67794.5, -0.0417589, -0.107780285, -698305.56, 212305.7, 0.0, 10.002347, 9.998242 
2.0851725e+3, 2.1707755e+2, -727135.6, -977499.75, -65943.695, -0.02161282, -0.118978776, -710828.75, 101799.82, 0.0, 10.001568, 9.998253 
2.085127e+3, 2.2707595e+2, -705720.2, -843132.9, -62368.52, -0.0061435504, -0.12779298, -681634.3, 33008.65, 0.0, 10.000727, 9.998908 
2.0850813e+3, 2.3707467e+2, -735064.8, -807637.9, -65580.77, 0.007196894, -0.13701975, -696401.06, -79746.86, 0.0, 9.999857, 9.998898 
2.0850356e+3, 2.4707356e+2, -716247.4, -683860.3, -58312.895, 0.02351669, -0.15640804, -639534.25, -120869.945, 0.0, 9.999039, 9.999469 
2.0849903e+3, 2.5707272e+2, -730204.5, -632793.75, -50972.32, 0.040584352, -0.17959547, -610998.1, -190326.4, 0.0, 9.9982395, 9.999531 
2.0849451e+3, 2.6707277e+2, -712830.25, -478097.2, -35583.652, 0.044009816, -0.16203324, -472821.56, -150150.8, 0.0, 9.997275, 10.000384 
2.0848998e+3, 2.7707338e+2, -764169.2, -449492.2, -34835.047, 0.042573694, -0.12989356, -445682.03, -221017.84, 0.0, 9.99624, 10.000406 
2.0848557e+3, 2.8707358e+2, -755105.9, -314260.72, -8888.752, 0.054675456, -0.17696641, -314081.56, -187419.6, 0.0, 9.995286, 10.0011215 
2.0848115e+3, 2.970739e+2, -784119.2, -266635.16, -15302.438, 0.06650009, -0.24873626, -266183.06, -237524.72, 0.0, 9.994368, 10.001218 
2.0847663e+3, 3.070772e+2, -788310.25, -120970.7, -33442.453, 0.012152067, -0.089195326, -119298.984, -119298.984, 0.0, 9.993477, 10.002312 
2.0847222e+3, 3.1707805e+2, -865162.06, -73831.51, 51772.45, 0.101803385, -0.22304569, -70458.695, -70458.695, 0.0, 9.992588, 10.003063 
2.0955904e+3, 1.2715045e+2, -799492.4, -1694203.9, -12056.933, -0.0979527, -0.11716584, -799329.94, 894586.44, 0.069322236, 10.008697, 9.995954 
2.0955446e+3, 1.3714671e+2, -812159.6, -1674290.3, -38086.188, -0.092077784, -0.07180344, -810480.4, 785473.94, 0.049391717, 10.007809, 9.995848 
2.0954987e+3, 1.4714286e+2, -776022.56, -1562925.0, -44168.234, -0.09431485, -0.052719034, -773551.2, 724441.1, 0.029273756, 10.007028, 9.996315 
2.0954528e+3, 1.5713872e+2, -774663.4, -1523039.3, -51384.97, -0.08484212, -0.08937062, -771151.6, 628880.9, 0.013187274, 10.006293, 9.996269 
2.0954068e+3, 1.6713504e+2, -748053.3, -1410843.3, -72216.34, -0.07509903, -0.09404841, -740276.06, 561792.7, 0.003855236, 10.005537, 9.996732 
2.0953603e+3, 1.7713183e+2, -758099.56, -1363107.9, -77233.38, -0.067400604, -0.080306746, -748395.8, 455704.7, 0.00048158373, 10.004769, 9.996757 
2.095314e+3, 1.8712889e+2, -726924.1, -1217565.5, -86165.984, -0.05904879, -0.07547498, -712231.7, 393897.28, 0.0000041535955, 10.003964, 9.997471 
2.0952676e+3, 1.9712625e+2, -746020.94, -1172083.5, -88752.46, -0.049710114, -0.078070834, -728272.44, 279881.66, 0.0, 10.003142, 9.997506 
2.0952207e+3, 2.0712385e+2, -710276.9, -1019615.4, -96287.34, -0.044730995, -0.09887352, -682754.4, 227421.78, 0.0, 10.002351, 9.998261 
2.0951739e+3, 2.1712174e+2, -727131.3, -979093.5, -95204.69, -0.041184362, -0.12764369, -695203.7, 116991.125, 0.0, 10.001571, 9.998242 
2.0951274e+3, 2.2712e+2, -713060.6, -860092.9, -94654.555, -0.013570427, -0.1404271, -666726.4, 47484.137, 0.0, 10.0007305, 9.998792 
2.095081e+3, 2.3711865e+2, -739178.2, -818163.1, -97218.61, 0.024270345, -0.1470417, -673736.8, -57513.926, 0.0, 9.999862, 9.998825 
2.0950347e+3, 2.4711764e+2, -708446.8, -669610.1, -87895.18, 0.030814853, -0.1576743, -599013.8, -80782.16, 0.0, 9.9990425, 9.999566 
2.0949882e+3, 2.57117e+2, -725919.75, -625786.2, -82539.99, 0.02310463, -0.17025052, -579315.25, -159078.55, 0.0, 9.998244, 9.999579 
2.0949422e+3, 2.6711673e+2, -721522.3, -497908.75, -74727.625, 0.033311244, -0.17785306, -475235.16, -152996.44, 0.0, 9.997279, 10.000248 
2.0948963e+3, 2.7711684e+2, -770529.0, -464051.2, -72863.67, 0.052600443, -0.18556227, -447610.16, -223372.78, 0.0, 9.996242, 10.000308 
2.0948508e+3, 2.871174e+2, -751721.3, -308321.25, -43639.555, 0.06004488, -0.19462025, -304067.06, -177835.3, 0.0, 9.995286, 10.0011635 
2.0948058e+3, 2.9711846e+2, -775579.1, -249771.52, -49973.17, 0.0562328, -0.19621192, -245064.17, -216843.17, 0.0, 9.994368, 10.001336 
2.0947598e+3, 3.0712107e+2, -760276.4, -64033.79, -66422.54, 0.02169052, -0.13628353, -57753.63, -57753.63, 0.0, 9.993478, 10.002704 
2.0947148e+3, 3.171227e+2, -892745.2, -133000.77, 16267.853, 0.10968311, -0.22035472, -132652.6, -132652.6, 0.0, 9.992593, 10.002656 
2.1055992e+3, 1.2719597e+2, -797172.6, -1701865.4, 11984.248, -0.0809318, -0.11389003, -797013.94, 896455.94, 0.07052036, 10.008766, 9.995866 
2.1055526e+3, 1.37192e+2, -778441.7, -1665752.4, -10876.133, -0.0959164, -0.08213815, -778308.4, 817201.7, 0.05029624, 10.0081005, 9.995763 
2.1055056e+3, 1.4718805e+2, -735036.25, -1547269.0, -14864.275, -0.09921258, -0.06431473, -734764.3, 762784.5, 0.029861603, 10.007346, 9.996266 
2.1054593e+3, 1.5718393e+2, -741502.8, -1510907.6, -20696.182, -0.08196669, -0.09356991, -740946.5, 658642.25, 0.013493651, 10.006548, 9.996228 
2.1054123e+3, 1.6718023e+2, -725945.44, -1400816.5, -39268.004, -0.07255073, -0.09892598, -723668.25, 577956.9, 0.003969397, 10.005697, 9.996721 
2.1053652e+3, 1.7717694e+2, -751375.25, -1361407.9, -39834.406, -0.068925664, -0.08995907, -748785.1, 454872.34, 0.0005045492, 10.004827, 9.996738 
2.1053179e+3, 1.8717395e+2, -722955.4, -1219618.3, -48661.67, -0.06210512, -0.08623698, -718232.56, 387453.84, 0.0000048567035, 10.004012, 9.997432 
2.1052705e+3, 1.9717129e+2, -737287.75, -1171524.9, -54132.02, -0.052897625, -0.087671235, -730641.4, 277070.5, 0.0, 10.003222, 9.99747 
2.105223e+3, 2.0716885e+2, -707516.44, -1021019.7, -65556.95, -0.045847982, -0.10551987, -694359.94, 215374.3, 0.0, 10.002385, 9.998233 
2.1051753e+3, 2.1716675e+2, -735539.06, -986007.1, -68249.86, -0.03971976, -0.13089772, -718149.1, 93603.96, 0.0, 10.00153, 9.998213 
2.1051279e+3, 2.2716498e+2, -715352.4, -863637.0, -64713.23, -0.016135817, -0.1441265, -691082.9, 22686.363, 0.0, 10.000729, 9.998766 
2.1050808e+3, 2.3716357e+2, -727718.75, -813454.9, -61923.117, 0.01541033, -0.15272966, -695273.2, -79491.01, 0.0, 9.999948, 9.998815 
2.1050334e+3, 2.4716258e+2, -707904.1, -663348.4, -55440.42, 0.026271932, -0.16255625, -625877.25, -108086.75, 0.0, 9.999024, 9.999616 
2.1049863e+3, 2.57162e+2, -752901.0, -634034.06, -53931.684, 0.026850317, -0.17335278, -613211.9, -193417.16, 0.0, 9.998042, 9.999618 
2.1049392e+3, 2.6716164e+2, -733708.75, -503013.8, -41175.254, 0.032274093, -0.19041495, -495885.0, -174087.55, 0.0, 9.997196, 10.000252 
2.1048923e+3, 2.7716163e+2, -747613.9, -451992.88, -30984.982, 0.04200016, -0.21199441, -448780.16, -224982.66, 0.0, 9.996398, 10.000313 
2.104846e+3, 2.871624e+2, -754904.25, -307138.47, -6100.892, 0.05508805, -0.19937798, -307055.38, -181265.69, 0.0, 9.995256, 10.001184 
2.1047997e+3, 2.9716384e+2, -829819.1, -270524.25, -12468.973, 0.062848404, -0.16674675, -270246.4, -242470.98, 0.0, 9.993976, 10.00138 
2.1047531e+3, 3.0716547e+2, -802992.9, -70695.74, -34425.23, 0.038167194, -0.20871556, -69080.98, -69080.98, 0.0, 9.993129, 10.002824 
2.1047072e+3, 3.17168e+2, -912145.9, -143150.88, 29879.678, 0.10703955, -0.21549119, -141991.64, -141991.64, 0.0, 9.992467, 10.0026455 
2.1156079e+3, 1.2724242e+2, -800302.1, -1712088.0, -11800.862, -0.06964527, -0.090804294, -800149.4, 892865.6, 0.0716802, 10.008787, 9.995788 
2.1155603e+3, 1.3723798e+2, -781602.8, -1675727.5, -34816.793, -0.098712794, -0.09762052, -780249.1, 814810.0, 0.051170245, 10.008117, 9.995689 
2.115513e+3, 1.4723395e+2, -736731.0, -1552480.4, -42956.277, -0.10208182, -0.083598755, -734475.25, 762623.4, 0.030428292, 10.007353, 9.99623 
2.1154658e+3, 1.5722995e+2, -743191.06, -1514532.8, -50123.56, -0.07875169, -0.097454555, -739947.56, 659189.9, 0.013788323, 10.006546, 9.996206 
2.115418e+3, 1.672263e+2, -722899.9, -1395500.0, -71023.44, -0.069464184, -0.09650037, -715481.94, 585690.9, 0.0040790145, 10.005698, 9.996759 
2.1153699e+3, 1.7722309e+2, -749336.44, -1359728.4, -71074.95, -0.06906689, -0.08656665, -741169.6, 462034.66, 0.0005265777, 10.004833, 9.996749 
2.1153218e+3, 1.8721989e+2, -727333.06, -1231051.5, -77411.44, -0.06810517, -0.09690474, -715704.94, 389529.9, 0.000005491955, 10.004019, 9.997352 
2.1152735e+3, 1.9721694e+2, -742272.9, -1183564.5, -83433.06, -0.06512468, -0.11791358, -727025.4, 280237.53, 0.0, 10.003226, 9.997387 
2.1152253e+3, 2.0721453e+2, -712792.3, -1033702.1, -96862.984, -0.045055795, -0.12610942, -685822.0, 223463.56, 0.0, 10.002389, 9.998146 
2.115177e+3, 2.1721257e+2, -738750.6, -994654.25, -98800.3, -0.018652247, -0.12921254, -705044.9, 106258.87, 0.0, 10.001534, 9.998154 
2.1151286e+3, 2.2721083e+2, -711253.44, -857006.25, -93204.086, -0.014602013, -0.1395346, -665816.8, 47502.766, 0.0, 10.000733, 9.998812 
2.1150804e+3, 2.3720941e+2, -724582.1, -808738.94, -92327.73, -0.018812891, -0.15412214, -665196.25, -49863.902, 0.0, 9.999951, 9.998847 
2.1150322e+3, 2.4720836e+2, -707963.5, -665184.0, -92392.52, 0.010507619, -0.1710591, -591737.56, -74396.32, 0.0, 9.999028, 9.999603 
2.1149844e+3, 2.572077e+2, -750900.9, -631584.94, -89199.54, 0.052015577, -0.18900609, -583932.0, -164585.72, 0.0, 9.998046, 9.999635 
2.1149363e+3, 2.672075e+2, -723638.06, -484019.78, -70615.51, 0.04055512, -0.19930029, -464757.78, -143410.38, 0.0, 9.9972, 10.000381 
2.1148881e+3, 2.772077e+2, -739529.7, -437556.8, -64572.246, 0.009573858, -0.20792322, -424328.53, -200983.73, 0.0, 9.996405, 10.000411 
2.114841e+3, 2.8720856e+2, -755563.06, -309860.9, -55165.74, 0.039508846, -0.19099113, -303134.44, -177798.4, 0.0, 9.995258, 10.001167 
2.114794e+3, 2.9720995e+2, -833897.8, -278707.8, -56116.0, 0.08775444, -0.16212472, -273092.66, -245770.63, 0.0, 9.993971, 10.001328 
2.1147463e+3, 3.072104e+2, -816662.2, -99450.39, -58951.473, 0.061699875, -0.3093062, -94637.16, -94637.16, 0.0, 9.993127, 10.00263 
2.1146995e+3, 3.17214e+2, -878636.56, -75392.12, 2532.354, 0.095040984, -0.194177, -75384.13, -75384.13, 0.0, 9.992471, 10.003111 
2.1256167e+3, 1.2728955e+2, -752727.0, -1684412.4, 18276.035, -0.06863231, -0.0808097, -752368.7, 940185.0, 0.07279635, 10.009138, 9.9958105 
2.1255685e+3, 1.3728502e+2, -742409.9, -1654228.1, 723.9234, -0.092947766, -0.098351225, -742409.3, 852188.6, 0.052005608, 10.008405, 9.995695 
2.1255203e+3, 1.472809e+2, -720364.9, -1547387.3, -10935.284, -0.095837705, -0.08958696, -720220.3, 776417.6, 0.030965837, 10.00749, 9.996196 
2.1254721e+3, 1.5727685e+2, -751160.4, -1520135.6, -17070.094, -0.074303776, -0.103077896, -750781.6, 647895.5, 0.014065864, 10.006503, 9.996186 
2.1254236e+3, 1.6727322e+2, -720278.44, -1389996.4, -34853.965, -0.06917496, -0.10292333, -718469.44, 582242.94, 0.0041816477, 10.005702, 9.996793 
2.1253745e+3, 1.7727e+2, -727138.6, -1346606.6, -36089.64, -0.07354318, -0.09490298, -725043.1, 477700.34, 0.000547068, 10.00498, 9.996766 
2.1253256e+3, 1.8726674e+2, -713180.9, -1227688.3, -42460.797, -0.06894107, -0.11083379, -709700.25, 395074.34, 0.000006032307, 10.004135, 9.997317 
2.1252766e+3, 1.9726369e+2, -743215.6, -1187629.4, -45883.863, -0.05913427, -0.13847734, -738527.75, 268275.94, 0.0, 10.003239, 9.997351 
2.1252276e+3, 2.0726128e+2, -713263.56, -1037473.8, -55807.727, -0.040726252, -0.14099836, -703926.06, 204900.36, 0.0, 10.002405, 9.998111 
2.1251784e+3, 2.1725936e+2, -731913.3, -994088.06, -54715.926, -0.019287145, -0.13330978, -720952.3, 89891.945, 0.0, 10.001596, 9.998125 
2.1251291e+3, 2.272576e+2, -708965.44, -855009.75, -50161.434, -0.01804859, -0.1451218, -693396.4, 19464.139, 0.0, 10.000749, 9.998816 
2.1250801e+3, 2.3725611e+2, -734249.44, -811730.75, -53725.33, -0.024452792, -0.16637985, -706753.8, -91879.93, 0.0, 9.999882, 9.9988575 
2.1250312e+3, 2.4725509e+2, -712975.9, -662931.2, -56333.914, 0.0056197825, -0.1829768, -626312.44, -109429.9, 0.0, 9.998978, 9.999641 
2.1249825e+3, 2.5725448e+2, -747068.56, -624650.2, -49518.55, 0.04980923, -0.19766991, -607127.9, -188240.88, 0.0, 9.998054, 9.999677 
2.1249333e+3, 2.6725432e+2, -739036.2, -484189.3, -32372.334, 0.042710952, -0.20597664, -480141.47, -159253.97, 0.0, 9.997067, 10.000443 
2.1248846e+3, 2.7725464e+2, -785648.4, -452123.0, -33494.74, 0.0161036, -0.21294375, -448792.5, -225908.25, 0.0, 9.996058, 10.000476 
2.1248361e+3, 2.8725553e+2, -769851.2, -307533.22, -27341.271, 0.04356346, -0.19687897, -305921.88, -181047.2, 0.0, 9.995124, 10.0012455 
2.124788e+3, 2.9725692e+2, -799778.06, -263684.34, -19822.506, 0.08713649, -0.17154308, -262952.38, -236092.27, 0.0, 9.994214, 10.001312 
2.1247394e+3, 3.072569e+2, -830056.06, -144587.7, -21923.217, 0.071505964, -0.34405598, -143887.25, -143887.25, 0.0, 9.993205, 10.00228 
2.1246916e+3, 3.172607e+2, -889819.2, -24129.89, 26945.58, 0.09774185, -0.18271282, -23291.988, -23291.988, 0.0, 9.992154, 10.003613 
2.1356258e+3, 1.2733735e+2, -745033.44, -1671809.8, -6563.744, -0.07600105, -0.081365764, -744986.94, 947098.8, 0.07386127, 10.00916, 9.995894 
2.1355769e+3, 1.3733302e+2, -738333.44, -1646410.0, -26736.21, -0.0802991, -0.08696501, -737546.94, 856580.25, 0.05279487, 10.008412, 9.995748 
2.1355279e+3, 1.4732884e+2, -722936.6, -1554072.9, -46343.293, -0.08236359, -0.08487766, -720360.56, 775807.1, 0.0314684, 10.007495, 9.996151 
2.1354786e+3, 1.5732463e+2, -752333.7, -1524895.3, -50601.684, -0.06894648, -0.11037369, -749033.44, 649175.1, 0.0143226795, 10.006511, 9.996152 
2.1354292e+3, 1.6732092e+2, -717931.2, -1387492.3, -60533.355, -0.0712894, -0.11687283, -712502.56, 587741.7, 0.0042756493, 10.005709, 9.996809 
2.1353795e+3, 1.7731766e+2, -725657.4, -1345387.4, -63534.45, -0.081815004, -0.11325413, -719210.94, 483064.44, 0.0005655444, 10.004984, 9.996775 
2.1353295e+3, 1.8731442e+2, -713083.6, -1229270.9, -75138.78, -0.06515328, -0.12745652, -702368.44, 401937.7, 0.000006469166, 10.004139, 9.997307 
2.13528e+3, 1.973114e+2, -742892.8, -1189000.5, -77797.74, -0.036850605, -0.15043432, -729714.75, 276619.97, 0.0, 10.003243, 9.997341 
2.13523e+3, 2.0730901e+2, -712407.56, -1037892.06, -85146.19, -0.033552144, -0.15082835, -691479.1, 216878.14, 0.0, 10.002411, 9.998108 
2.1351796e+3, 2.173071e+2, -731899.25, -996255.3, -84600.53, -0.04033432, -0.14267361, -707143.25, 103231.945, 0.0, 10.001602, 9.99811 
2.1351299e+3, 2.2730523e+2, -711689.75, -862506.0, -82086.21, -0.025776006, -0.16029449, -675632.5, 36759.94, 0.0, 10.000752, 9.998764 
2.1350801e+3, 2.3730361e+2, -735142.56, -815220.4, -86265.79, -0.0023279206, -0.18928291, -680076.75, -65669.66, 0.0, 9.999885, 9.998835 
2.13503e+3, 2.4730271e+2, -707065.5, -652437.4, -90779.62, 0.0107853, -0.19816922, -584951.7, -68536.945, 0.0, 9.998981, 9.999714 
2.13498e+3, 2.573023e+2, -742676.2, -617309.7, -84785.43, 0.019694382, -0.1991483, -574552.1, -156134.92, 0.0, 9.998057, 9.999727 
2.1349305e+3, 2.6730216e+2, -740116.9, -487992.78, -70552.96, 0.039258122, -0.21059957, -469592.53, -149174.34, 0.0, 9.99707, 10.000418 
2.1348809e+3, 2.773023e+2, -784141.7, -449945.4, -70667.164, 0.06361084, -0.22774053, -435616.88, -213200.56, 0.0, 9.996058, 10.000493 
2.1348312e+3, 2.8730324e+2, -757576.4, -283542.5, -61224.094, 0.0677002, -0.21793456, -275762.75, -151356.67, 0.0, 9.995127, 10.001411 
2.1347818e+3, 2.9730478e+2, -797964.6, -263081.16, -54966.992, 0.058273945, -0.19549729, -257490.94, -231100.9, 0.0, 9.994224, 10.001314 
2.1347326e+3, 3.0730507e+2, -866766.94, -223236.39, -62064.63, 0.06643997, -0.30482844, -217305.3, -217305.3, 0.0, 9.993212, 10.001739 
2.134684e+3, 3.173079e+2, -851780.75, 54918.74, -14107.903, 0.11792411, -0.19801518, 55138.195, 55138.195, 0.0, 9.992149, 10.004161 
2.145635e+3, 1.2738624e+2, -700053.7, -1657501.3, 32067.344, -0.07630001, -0.08118518, -698980.9, 992625.9, 0.074866034, 10.009543, 9.995814 
2.1455854e+3, 1.3738182e+2, -722559.4, -1643310.1, 2904.5159, -0.069160804, -0.0864269, -722550.25, 871098.6, 0.05353342, 10.008558, 9.995696 
2.1455353e+3, 1.4737761e+2, -705672.4, -1539438.1, -17954.205, -0.07199938, -0.08696191, -705285.94, 790403.56, 0.031934053, 10.007599, 9.996198 
2.1454851e+3, 1.5737343e+2, -729094.7, -1508580.3, -14612.028, -0.06471818, -0.11428034, -728820.9, 668909.06, 0.014557793, 10.006657, 9.996191 
2.1454348e+3, 1.6736971e+2, -701131.25, -1376976.5, -16840.602, -0.068892926, -0.123648055, -700711.9, 599053.6, 0.0043603694, 10.005819, 9.996825 
2.1453843e+3, 1.773664e+2, -718786.0, -1339775.6, -21397.14, -0.07949254, -0.12342367, -718049.6, 483747.1, 0.00058168697, 10.005026, 9.996791 
2.1453337e+3, 1.8736318e+2, -705535.7, -1222454.0, -35235.656, -0.06426908, -0.13833618, -703144.94, 400682.34, 0.0000067867286, 10.004181, 9.997331 
2.1452832e+3, 1.9736019e+2, -732003.25, -1182437.8, -35507.863, -0.037652418, -0.1607172, -729221.4, 276634.16, 0.0, 10.003317, 9.997349 
2.1452321e+3, 2.0735773e+2, -703371.7, -1038181.94, -42511.035, -0.032642104, -0.163525, -698058.3, 209820.36, 0.0, 10.002497, 9.998062 
2.1451814e+3, 2.1735573e+2, -721004.75, -993000.44, -46410.63, -0.036811512, -0.1589972, -713303.75, 96593.875, 0.0, 10.00169, 9.998088 
2.1451303e+3, 2.2735389e+2, -708418.7, -854094.9, -43238.563, -0.022993209, -0.17639467, -696551.6, 15362.938, 0.0, 10.00075, 9.998821 
2.1450798e+3, 2.3735233e+2, -750680.6, -816571.4, -39732.31, -0.0010408716, -0.20349228, -732011.5, -118082.97, 0.0, 9.999756, 9.998885 
2.1450289e+3, 2.4735147e+2, -722139.3, -655658.25, -42912.79, 0.012114513, -0.20966639, -634617.7, -118681.98, 0.0, 9.998864, 9.999746 
2.1449777e+3, 2.5735113e+2, -748255.0, -617276.2, -41625.152, 0.021165876, -0.20753567, -605167.2, -187229.33, 0.0, 9.998011, 9.999748 
2.1449272e+3, 2.6735097e+2, -748351.44, -493387.8, -32701.611, 0.044853084, -0.21720558, -489260.34, -169321.52, 0.0, 9.997024, 10.0004015 
2.144877e+3, 2.773511e+2, -794752.2, -453863.8, -31355.852, 0.07551431, -0.23394783, -451003.63, -229066.47, 0.0, 9.995984, 10.0005 
2.1448264e+3, 2.8735197e+2, -757422.7, -273908.2, -22158.871, 0.073776424, -0.23833713, -272894.8, -148966.95, 0.0, 9.9950905, 10.001493 
2.1447758e+3, 2.973534e+2, -793825.2, -258834.52, -24140.715, 0.05369711, -0.23195979, -257747.4, -231834.73, 0.0, 9.9942465, 10.00133 
2.1447258e+3, 3.0735442e+2, -883100.8, -250911.25, -20842.781, 0.08323018, -0.2538858, -250224.83, -250224.83, 0.0, 9.993189, 10.001557 
2.144676e+3, 3.1735626e+2, -857571.5, 76642.22, 41498.543, 0.1237521, -0.2327686, 78481.99, 78481.99, 0.0, 9.992008, 10.004376 
2.1556443e+3, 1.274361e+2, -713717.4, -1687233.1, -1603.18, -0.07169917, -0.081185244, -713714.75, 977402.8, 0.07580277, 10.009554, 9.99559 
2.155594e+3, 1.3743138e+2, -731727.9, -1664586.8, -30060.885, -0.059295654, -0.094606884, -730760.2, 862403.1, 0.054218408, 10.008565, 9.995549 
2.155543e+3, 1.4742719e+2, -697190.9, -1523458.9, -50366.81, -0.06414859, -0.09442039, -694132.0, 801071.56, 0.032362208, 10.007607, 9.996306 
2.1554917e+3, 1.5742317e+2, -721528.75, -1496125.8, -46762.145, -0.06151025, -0.11526063, -718716.0, 678525.9, 0.014770929, 10.006669, 9.996273 
2.1554404e+3, 1.6741948e+2, -699468.8, -1376506.0, -45220.844, -0.062742256, -0.12434928, -696461.75, 602815.2, 0.004435547, 10.005829, 9.996826 
2.1553893e+3, 1.7741618e+2, -717305.7, -1338602.5, -50927.484, -0.06813626, -0.12661016, -713158.9, 488149.44, 0.0005953348, 10.00503, 9.996799 
2.155338e+3, 1.8741293e+2, -701812.5, -1216671.0, -66931.89, -0.06624145, -0.14422317, -693253.6, 410085.1, 0.000006967984, 10.004185, 9.997371 
2.155286e+3, 1.9740994e+2, -730417.1, -1181428.9, -66767.27, -0.05929818, -0.16949104, -720740.56, 284626.1, 0.0, 10.003323, 9.997355 
2.1552347e+3, 2.0740737e+2, -709664.44, -1052967.8, -71753.7, -0.037105005, -0.17886268, -695270.7, 212120.45, 0.0, 10.002501, 9.997961 
2.1551831e+3, 2.174052e+2, -723580.3, -999422.3, -77270.85, -0.010342658, -0.18189815, -703409.56, 106002.305, 0.0, 10.001691, 9.998046 
2.1551311e+3, 2.2740349e+2, -697555.5, -833043.2, -80041.37, -0.01077643, -0.19329399, -660438.25, 50989.16, 0.0, 10.000752, 9.998967 
2.1550791e+3, 2.3740219e+2, -742294.0, -801196.44, -75550.9, -0.020200396, -0.20914844, -690656.94, -77218.27, 0.0, 9.999761, 9.998991 
2.1550275e+3, 2.4740134e+2, -722855.6, -659171.56, -74638.68, 0.010179034, -0.21762095, -609866.56, -94420.64, 0.0, 9.998869, 9.9997225 
2.1549761e+3, 2.5740087e+2, -749150.44, -621069.4, -75169.64, 0.05453598, -0.22292356, -586359.4, -168910.13, 0.0, 9.998015, 9.9997225 
2.1549243e+3, 2.674008e+2, -749092.3, -496662.8, -72071.39, 0.058881618, -0.22564742, -477535.03, -158085.27, 0.0, 9.997026, 10.00038 
2.1548726e+3, 2.77401e+2, -795513.6, -457047.16, -68629.23, 0.04955603, -0.23106506, -443660.97, -222213.89, 0.0, 9.995987, 10.000479 
2.1548213e+3, 2.8740162e+2, -758136.75, -277316.3, -53573.63, 0.0611611, -0.2584238, -271419.4, -147979.05, 0.0, 9.995094, 10.00147 
2.1547702e+3, 2.974027e+2, -791115.5, -255529.45, -58605.426, 0.07591438, -0.28239772, -249191.67, -223763.11, 0.0, 9.994252, 10.001352 
2.1547192e+3, 3.0740502e+2, -868346.3, -222152.84, -63854.8, 0.12401485, -0.18895508, -215903.34, -215903.34, 0.0, 9.993193, 10.001756 
2.1546677e+3, 3.1740585e+2, -873606.6, 42957.21, -13100.035, 0.11137748, -0.28598708, 43144.406, 43144.406, 0.0, 9.992005, 10.0041485 
2.1656539e+3, 1.2748703e+2, -687284.4, -1678721.8, 32949.266, -0.07380448, -0.08225021, -686190.56, 1004427.25, 0.07666487, 10.009784, 9.995541 
2.1656027e+3, 1.3748215e+2, -715112.4, -1659185.1, 16876.258, -0.04108255, -0.107746325, -714810.8, 877854.56, 0.054845408, 10.008709, 9.995515 
2.1655506e+3, 1.4747794e+2, -672644.2, -1508338.9, 69.34608, -0.05175483, -0.10638838, -672644.2, 822061.3, 0.032749973, 10.007777, 9.9963255 
2.1654983e+3, 1.5747401e+2, -688790.0, -1479920.6, -1233.5388, -0.06479566, -0.11888182, -688788.06, 707954.75, 0.014960546, 10.006903, 9.996269 
2.1654463e+3, 1.6747026e+2, -680172.75, -1373991.8, -3300.4097, -0.06369688, -0.12982967, -680157.0, 618621.6, 0.0045007276, 10.005997, 9.99676 
2.1653943e+3, 1.7746681e+2, -713513.0, -1342004.3, -13720.987, -0.06007662, -0.13805293, -713213.56, 487597.8, 0.0006064455, 10.005083, 9.996748 
2.1653418e+3, 1.874636e+2, -694591.7, -1212669.8, -32841.453, -0.06272899, -0.15136245, -692518.1, 410323.63, 0.0000070206847, 10.004237, 9.997371 
2.1652894e+3, 1.9746067e+2, -716282.0, -1172277.0, -36116.285, -0.06542603, -0.16849582, -713439.2, 291430.0, 0.0, 10.003414, 9.997372 
2.165237e+3, 2.074581e+2, -706802.8, -1043091.06, -35198.027, -0.03884738, -0.18172605, -703158.25, 203735.19, 0.0, 10.002487, 9.998033 
2.1651846e+3, 2.1745591e+2, -743897.3, -1001912.44, -29629.234, -0.0021268683, -0.19327956, -740538.56, 68375.54, 0.0, 10.001524, 9.998107 
2.1651319e+3, 2.2745425e+2, -705342.7, -832696.56, -35154.016, -0.0042028995, -0.20295428, -696283.4, 14645.76, 0.0, 10.000685, 9.999 
2.1650788e+3, 2.3745301e+2, -721287.6, -786677.75, -39620.418, -0.020021422, -0.21287678, -702614.0, -89674.234, 0.0, 9.99989, 9.999025 
2.1650264e+3, 2.474522e+2, -715259.3, -650141.44, -39831.848, 0.011631172, -0.2221576, -631254.6, -116307.85, 0.0, 9.998901, 9.999766 
2.1649739e+3, 2.5745174e+2, -771634.5, -626633.9, -35320.875, 0.06059314, -0.23116389, -618487.7, -201537.53, 0.0, 9.997843, 9.999765 
2.1649212e+3, 2.6745167e+2, -753026.7, -493053.1, -26531.428, 0.06351919, -0.23476146, -490373.06, -171422.9, 0.0, 9.99698, 10.000424 
2.1648684e+3, 2.774519e+2, -765569.9, -439549.72, -19703.174, 0.050005216, -0.24020745, -438363.28, -217416.4, 0.0, 9.996183, 10.000503 
2.1648161e+3, 2.874524e+2, -761072.94, -283720.16, -8134.2607, 0.063798524, -0.2773109, -283581.6, -160640.1, 0.0, 9.9951, 10.001421 
2.1647641e+3, 2.9745334e+2, -837258.9, -272553.56, -14291.862, 0.08444962, -0.31209043, -272192.1, -247260.61, 0.0, 9.993917, 10.001394 
2.1647124e+3, 3.0745625e+2, -854213.8, -177573.64, -9606.872, 0.143853, -0.1768737, -177437.28, -177437.28, 0.0, 9.993132, 10.0020895 
2.1646596e+3, 3.1745684e+2, -840691.44, 18086.973, 28179.291, 0.10523536, -0.32364932, 19010.633, 19010.633, 0.0, 9.992411, 10.003779 
2.1756636e+3, 1.2753896e+2, -682157.0, -1669162.4, -3693.135, -0.08098066, -0.084907405, -682143.2, 1007965.2, 0.07744689, 10.009792, 9.995609 
2.1756116e+3, 1.3753399e+2, -711442.25, -1653632.1, -18539.441, -0.016369682, -0.12494397, -711077.56, 881078.6, 0.055409156, 10.008719, 9.995549 
2.1755584e+3, 1.4752977e+2, -675252.3, -1517774.6, -30538.02, -0.036058024, -0.12196827, -674146.9, 820049.6, 0.033093803, 10.0077915, 9.996256 
2.1755049e+3, 1.5752588e+2, -692315.8, -1492068.6, -33093.06, -0.07353048, -0.12456324, -690948.75, 705284.9, 0.015125465, 10.00692, 9.996181 
2.1754521e+3, 1.6752195e+2, -687480.9, -1393472.5, -36570.44, -0.07054066, -0.13933635, -685591.56, 612679.6, 0.0045560217, 10.006011, 9.996622 
2.1753994e+3, 1.7751828e+2, -719924.8, -1358684.9, -46107.117, -0.054891698, -0.15658703, -716613.9, 483692.5, 0.00061523885, 10.005094, 9.996631 
2.175346e+3, 1.875151e+2, -697148.9, -1220181.6, -62275.49, -0.05440805, -0.1593886, -689836.2, 412500.72, 0.0000069941307, 10.004242, 9.997318 
2.1752927e+3, 1.975123e+2, -714895.4, -1170560.8, -67060.914, -0.057758514, -0.1586341, -705230.9, 299132.53, 0.0, 10.003415, 9.997385 
2.1752393e+3, 2.0750986e+2, -691272.06, -1012271.7, -70568.15, -0.03842719, -0.17327483, -676443.44, 229942.6, 0.0, 10.002489, 9.998245 
2.175186e+3, 2.1750776e+2, -733370.56, -982043.2, -63628.91, -0.0110718245, -0.19396554, -718035.3, 90369.55, 0.0, 10.001528, 9.998243 
2.1751323e+3, 2.2750609e+2, -711071.1, -846322.9, -64187.74, -0.0026670727, -0.2057061, -685459.0, 24961.357, 0.0, 10.000689, 9.998906 
2.1750788e+3, 2.375048e+2, -723979.3, -793665.1, -71547.266, -0.0011074092, -0.21463558, -679241.8, -66809.516, 0.0, 9.999892, 9.99898 
2.1750252e+3, 2.4750401e+2, -707786.06, -636368.75, -79917.055, 0.015830193, -0.22324075, -584545.44, -70106.66, 0.0, 9.998905, 9.999862 
2.1749714e+3, 2.5750366e+2, -764143.75, -612839.1, -72702.03, 0.03875553, -0.23228033, -583568.3, -167127.45, 0.0, 9.997846, 9.999861 
2.1749179e+3, 2.6750356e+2, -745208.3, -478864.1, -55848.57, 0.05907482, -0.24478225, -467627.5, -149187.16, 0.0, 9.9969845, 10.000522 
2.1748647e+3, 2.7750382e+2, -760671.25, -432072.06, -52861.938, 0.0784852, -0.26201802, -423777.5, -203340.64, 0.0, 9.996191, 10.000553 
2.1748115e+3, 2.8750432e+2, -766630.56, -297104.63, -53588.77, 0.082123175, -0.29466847, -291066.0, -168634.52, 0.0, 9.995103, 10.00133 
2.174758e+3, 2.975053e+2, -833986.4, -265907.75, -54008.043, 0.0772631, -0.31951925, -260818.73, -236397.28, 0.0, 9.993914, 10.001445 
2.1747056e+3, 3.075081e+2, -820269.6, -109313.25, -32026.28, 0.14043377, -0.22549018, -107873.484, -107873.484, 0.0, 9.993136, 10.002558 
2.174652e+3, 3.1750965e+2, -877792.25, -64082.88, -22838.574, 0.11093498, -0.30643243, -63442.367, -63442.367, 0.0, 9.992429, 10.003209 
2.1856733e+3, 1.275919e+2, -657559.4, -1656046.3, 32047.047, -0.06530361, -0.10004225, -656531.9, 1033057.1, 0.078146026, 10.009982, 9.995613 
2.18562e+3, 1.3758706e+2, -683934.4, -1641830.5, 16695.674, -0.014550308, -0.12686585, -683643.44, 907992.06, 0.05590749, 10.008939, 9.995523 
2.1855661e+3, 1.4758274e+2, -645786.7, -1515442.1, 8028.3267, -0.034149587, -0.12421448, -645712.56, 847964.25, 0.033393424, 10.008061, 9.99614 
2.185512e+3, 1.5757868e+2, -652797.6, -1483466.1, 1567.8629, -0.06680959, -0.1302737, -652794.6, 742921.06, 0.015266985, 10.007247, 9.9960785 
2.185458e+3, 1.6757469e+2, -649258.94, -1379675.8, -1975.3456, -0.06661147, -0.14286648, -649253.6, 648500.25, 0.004602701, 10.0063, 9.996575 
2.1854043e+3, 1.7757101e+2, -692744.5, -1349171.8, -5509.7876, -0.056178063, -0.15629612, -692698.3, 507091.03, 0.0006222504, 10.0053005, 9.996593 
2.18535e+3, 1.8756777e+2, -687165.2, -1215162.1, -16366.219, -0.052369345, -0.16202402, -686658.4, 415162.06, 0.0000069639545, 10.004314, 9.997316 
2.185296e+3, 1.9756491e+2, -724938.06, -1173049.9, -18797.896, -0.0496065, -0.16619748, -724150.94, 279696.7, 0.0, 10.003341, 9.997401 
2.1852417e+3, 2.0756254e+2, -692134.6, -1004321.6, -29238.08, -0.03501639, -0.1774503, -689419.94, 216449.48, 0.0, 10.002452, 9.998316 
2.1851872e+3, 2.1756057e+2, -720239.7, -968393.0, -32462.785, -0.016102185, -0.19205283, -716063.25, 91823.66, 0.0, 10.001592, 9.998304 
2.1851328e+3, 2.2755888e+2, -723197.44, -848592.0, -30193.176, -0.00060380436, -0.20686814, -716306.06, -6403.548, 0.0, 10.000594, 9.998934 
2.1850786e+3, 2.3755755e+2, -770230.75, -810184.6, -29120.334, 0.013548975, -0.2220767, -754893.8, -142978.8, 0.0, 9.999554, 9.999026 
2.1850239e+3, 2.4755685e+2, -725044.4, -632465.5, -34237.508, 0.022225086, -0.22985356, -621179.6, -107259.086, 0.0, 9.998738, 9.999967 
2.184969e+3, 2.5755662e+2, -735927.0, -588694.1, -27595.805, 0.029395124, -0.23573509, -583691.8, -167770.66, 0.0, 9.997998, 9.99995 
2.1849148e+3, 2.6755655e+2, -741893.1, -470829.5, -15188.721, 0.057383105, -0.25371554, -469981.06, -152060.52, 0.0, 9.996984, 10.000575 
2.1848609e+3, 2.7755672e+2, -803500.3, -445572.03, -16781.236, 0.09317267, -0.27881497, -444786.97, -224869.56, 0.0, 9.995871, 10.000612 
2.1848065e+3, 2.8755742e+2, -791963.5, -299941.44, -13170.576, 0.09510862, -0.2957404, -299589.16, -177679.44, 0.0, 9.994894, 10.00141 
2.1847518e+3, 2.975587e+2, -819596.75, -248298.0, 994.6111, 0.081148446, -0.29992968, -248296.27, -224399.55, 0.0, 9.993971, 10.001535 
2.1846983e+3, 3.0756083e+2, -814138.3, -92827.78, 16056.878, 0.12502494, -0.28608388, -92470.52, -92470.52, 0.0, 9.993125, 10.002674 
2.1846445e+3, 3.1756303e+2, -920262.25, -108509.445, -18850.71, 0.12412456, -0.3072254, -108071.93, -108071.93, 0.0, 9.992246, 10.00299 
2.1956836e+3, 1.2764576e+2, -661319.3, -1664235.3, -4070.144, -0.033165902, -0.12484695, -661302.8, 1027757.56, 0.07876689, 10.009986, 9.995553 
2.1956289e+3, 1.376412e+2, -686542.4, -1653529.8, -17564.574, -0.03109437, -0.11643392, -686223.44, 904880.8, 0.0563464, 10.008964, 9.995433 
2.195574e+3, 1.4763671e+2, -655046.7, -1539757.0, -20162.896, -0.042952795, -0.11590246, -654587.44, 838559.94, 0.03365493, 10.008079, 9.995967 
2.1955194e+3, 1.5763235e+2, -661334.2, -1502172.9, -28741.771, -0.047449533, -0.13614452, -660352.9, 734836.6, 0.015389719, 10.007247, 9.995954 
2.1954644e+3, 1.6762842e+2, -648270.8, -1378064.6, -37964.805, -0.05407855, -0.1411594, -646301.2, 650926.1, 0.0046431646, 10.006297, 9.99659 
2.1954094e+3, 1.776249e+2, -691081.5, -1347082.5, -41759.938, -0.06318389, -0.13977733, -688433.8, 510827.28, 0.0006282917, 10.005301, 9.99661 
2.1953543e+3, 1.8762152e+2, -684717.0, -1211831.8, -52001.77, -0.0557331, -0.16028869, -679635.8, 421657.38, 0.000007010402, 10.004318, 9.997339 
2.1952993e+3, 1.9761844e+2, -724172.0, -1173334.8, -53349.78, -0.04102022, -0.1894781, -717922.25, 285399.97, 0.0, 10.003345, 9.9974 
2.1952438e+3, 2.0761609e+2, -696674.2, -1015408.7, -60307.547, -0.028950742, -0.19275218, -685645.06, 219698.94, 0.0, 10.002455, 9.99824 
2.1951887e+3, 2.1761426e+2, -721370.44, -972039.2, -65442.56, -0.017689677, -0.18745703, -705313.75, 102047.016, 0.0, 10.001593, 9.998281 
2.1951333e+3, 2.276126e+2, -713590.0, -830327.3, -69066.8, 0.0017941772, -0.20666851, -681531.25, 27844.78, 0.0, 10.000597, 9.999061 
2.1950781e+3, 2.3761125e+2, -760837.6, -792822.4, -65144.516, 0.023996284, -0.23516057, -709751.2, -98362.99, 0.0, 9.999558, 9.9991455 
2.1950224e+3, 2.4761067e+2, -717197.0, -618449.06, -61460.98, 0.030930735, -0.24182808, -588986.25, -75593.875, 0.0, 9.998744, 10.000062 
2.194967e+3, 2.576106e+2, -730104.44, -578910.06, -58709.563, 0.032562684, -0.24132285, -558790.25, -143398.97, 0.0, 9.998004, 10.000017 
2.1949117e+3, 2.676105e+2, -741804.2, -472548.97, -57579.734, 0.058096208, -0.26144242, -460752.47, -143361.38, 0.0, 9.996987, 10.000564 
2.1948564e+3, 2.7761066e+2, -799371.94, -437870.6, -57172.45, 0.093053855, -0.29036263, -429044.13, -209655.27, 0.0, 9.99587, 10.000668 
2.1948013e+3, 2.876118e+2, -774556.0, -264817.2, -47729.824, 0.10264634, -0.27893323, -260386.47, -139010.23, 0.0, 9.994893, 10.001653 
2.1947458e+3, 2.9761362e+2, -810725.0, -232372.5, -31930.258, 0.09710583, -0.25041705, -230615.0, -207257.94, 0.0, 9.993978, 10.001644 
2.1946909e+3, 3.0761436e+2, -833614.4, -135880.2, -14940.956, 0.0952794, -0.36197874, -135560.4, -135560.4, 0.0, 9.993132, 10.002378 
2.1946368e+3, 3.1761703e+2, -904706.8, -77132.4, -67252.73, 0.15295897, -0.31434986, -71702.734, -71702.734, 0.0, 9.992245, 10.003208 
2.2056936e+3, 1.2770084e+2, -654016.2, -1669000.3, 29339.053, -0.02217579, -0.12520672, -653168.8, 1035351.6, 0.079320334, 10.010089, 9.995465 
2.205638e+3, 1.3769616e+2, -634147.1, -1634873.9, 14048.236, -0.036211874, -0.11710619, -633949.94, 956615.2, 0.056737144, 10.009388, 9.995355 
2.205582e+3, 1.476916e+2, -617183.0, -1525832.4, 13072.073, -0.042686164, -0.12063486, -616995.0, 875614.25, 0.033887517, 10.008375, 9.995917 
2.2055267e+3, 1.5768711e+2, -664866.56, -1508375.5, 12245.274, -0.033953387, -0.1448818, -664688.8, 729963.44, 0.015499275, 10.007246, 9.995909 
2.2054707e+3, 1.6768314e+2, -657127.94, -1384556.4, 3852.531, -0.03837119, -0.15000734, -657107.56, 639583.06, 0.0046799644, 10.00625, 9.996566 
2.2054148e+3, 1.7767958e+2, -690905.25, -1347167.3, -2950.5493, -0.05013178, -0.1472418, -690892.0, 507832.66, 0.00063423754, 10.005308, 9.996603 
2.2053586e+3, 1.8767624e+2, -677458.25, -1203209.6, -13372.3955, -0.048979484, -0.16573875, -677118.3, 423638.0, 0.0000072029993, 10.00435, 9.997381 
2.2053024e+3, 1.9767322e+2, -716008.9, -1165226.3, -13252.901, -0.041191302, -0.19305384, -715618.2, 287166.63, 0.0, 10.0033865, 9.997433 
2.2052464e+3, 2.0767085e+2, -699968.8, -1015785.2, -14322.085, -0.028260939, -0.19876625, -699320.7, 205486.19, 0.0, 10.002432, 9.998246 
2.2051902e+3, 2.1766898e+2, -736334.4, -976363.9, -15392.7, -0.013824077, -0.19697182, -735351.25, 71472.875, 0.0, 10.001482, 9.9983015 
2.2051337e+3, 2.2766739e+2, -713213.4, -822227.25, -22739.18, 0.0006560342, -0.2125513, -708660.4, 178.26312, 0.0, 10.00057, 9.999126 
2.2050774e+3, 2.3766616e+2, -740984.5, -776481.94, -22520.49, 0.015690247, -0.23534514, -730059.4, -119209.66, 0.0, 9.99967, 9.999201 
2.205021e+3, 2.4766557e+2, -720595.1, -616910.75, -21089.951, 0.028834498, -0.24448495, -612785.1, -99931.25, 0.0, 9.998712, 10.000086 
2.2049649e+3, 2.5766546e+2, -766476.6, -590505.0, -25553.268, 0.04062361, -0.24916284, -586869.44, -172016.27, 0.0, 9.997733, 10.000066 
2.2049084e+3, 2.6766548e+2, -761779.3, -468193.66, -24122.002, 0.058429893, -0.268533, -466224.9, -149372.81, 0.0, 9.996796, 10.000684 
2.2048521e+3, 2.7766576e+2, -792403.75, -421410.25, -14266.438, 0.08060367, -0.29417908, -420862.44, -202013.94, 0.0, 9.995866, 10.00078 
2.204796e+3, 2.8766707e+2, -761674.1, -247753.78, -8402.159, 0.10578003, -0.27829888, -247616.45, -126782.03, 0.0, 9.99494, 10.001745 
2.2047397e+3, 2.9766896e+2, -803711.94, -225540.2, -4103.9272, 0.122238435, -0.2468867, -225511.08, -202697.02, 0.0, 9.994015, 10.001671 
2.2046836e+3, 3.0766934e+2, -869366.1, -170677.89, 14656.409, 0.06615966, -0.38394195, -170370.58, -170370.58, 0.0, 9.992967, 10.002216 
2.2046289e+3, 3.176722e+2, -920334.5, -32732.945, -26793.734, 0.1657611, -0.30852053, -31924.867, -31924.867, 0.0, 9.9919195, 10.003668 
2.2157034e+3, 1.2775697e+2, -659088.25, -1684757.4, 6144.4424, -0.027391952, -0.10772875, -659051.44, 1028918.75, 0.07981607, 10.010114, 9.9953375 
2.215647e+3, 1.3775192e+2, -638910.4, -1647141.4, -13058.476, -0.032581326, -0.12658282, -638741.25, 951277.2, 0.057088323, 10.009395, 9.99527 
2.2155903e+3, 1.4774726e+2, -614029.9, -1520879.8, -26782.234, -0.035659276, -0.13548082, -613239.6, 878823.25, 0.034097824, 10.00838, 9.995952 
2.2155337e+3, 1.5774287e+2, -662878.75, -1507538.6, -27036.854, -0.025286658, -0.15578003, -662014.2, 732090.7, 0.015599811, 10.0072565, 9.995912 
2.2154771e+3, 1.6773877e+2, -660525.0, -1394881.8, -30259.799, -0.019772496, -0.16779855, -659280.25, 636864.1, 0.0047151987, 10.00626, 9.996492 
2.2154202e+3, 1.7773505e+2, -692627.5, -1353200.5, -37310.043, -0.020037161, -0.17514643, -690526.9, 507653.44, 0.00064086827, 10.005315, 9.996561 
2.2153631e+3, 1.8773189e+2, -673413.7, -1197035.8, -48417.652, -0.033834256, -0.17694448, -668974.3, 431236.06, 0.000007591649, 10.004355, 9.997423 
2.2153057e+3, 1.9772916e+2, -711596.2, -1158212.0, -48335.117, -0.04945333, -0.17891733, -706425.0, 295811.06, 0.0, 10.003391, 9.997481 
2.2152485e+3, 2.0772673e+2, -694638.4, -1006712.7, -49303.707, -0.032346696, -0.19678296, -687034.3, 217224.28, 0.0, 10.002436, 9.998309 
2.2151917e+3, 2.1772467e+2, -732449.2, -970173.8, -49936.94, -0.004881424, -0.21975099, -722385.3, 83892.2, 0.0, 10.001486, 9.998345 
2.2151342e+3, 2.2772321e+2, -712900.44, -823671.1, -56025.832, -0.004112217, -0.2237864, -689504.9, 18786.01, 0.0, 10.000575, 9.999117 
2.2150767e+3, 2.377222e+2, -741563.44, -779864.8, -56865.875, -0.011069195, -0.22272408, -700710.2, -90410.21, 0.0, 9.999676, 9.999178 
2.2150195e+3, 2.477215e+2, -724281.56, -626601.94, -58063.324, 0.01618568, -0.23809111, -599569.0, -87263.53, 0.0, 9.998716, 10.000019 
2.2149624e+3, 2.5772116e+2, -764627.7, -588430.0, -61865.773, 0.053709235, -0.25941563, -568877.6, -154570.48, 0.0, 9.997737, 10.000081 
2.214905e+3, 2.6772138e+2, -744467.94, -433935.7, -58984.06, 0.058135185, -0.27482334, -423109.4, -106805.54, 0.0, 9.996798, 10.00092 
2.2148477e+3, 2.77722e+2, -780875.44, -399703.6, -49054.992, 0.054714955, -0.28994808, -393491.7, -175195.16, 0.0, 9.995872, 10.000929 
2.2147907e+3, 2.877231e+2, -766861.4, -260880.45, -43149.793, 0.104201816, -0.29583684, -257227.03, -136942.27, 0.0, 9.994946, 10.001655 
2.2147341e+3, 2.977246e+2, -808203.6, -237051.33, -40476.492, 0.15777, -0.2938526, -234197.1, -211928.5, 0.0, 9.9940195, 10.001592 
2.214676e+3, 3.077258e+2, -871473.06, -176000.48, -27673.639, 0.037165597, -0.34247988, -174901.06, -174901.06, 0.0, 9.992966, 10.002183 
2.2146206e+3, 3.1772834e+2, -868935.06, 73446.39, -48537.336, 0.15709662, -0.305909, 75939.7, 75939.7, 0.0, 9.991917, 10.004401 
2.2257136e+3, 1.278139e+2, -610086.56, -1661189.5, 40044.695, -0.024469405, -0.10708223, -608563.2, 1078848.5, 0.0802581, 10.010489, 9.99533 
2.2256565e+3, 1.3780867e+2, -622758.25, -1640606.4, 26179.086, -0.029672839, -0.1424294, -622085.4, 967375.94, 0.05740202, 10.009527, 9.995249 
2.2255987e+3, 1.4780402e+2, -601175.5, -1520273.8, 4284.426, -0.03007422, -0.14691187, -601155.5, 890350.5, 0.034287453, 10.008502, 9.995894 
2.225541e+3, 1.5779966e+2, -636649.9, -1497439.3, -139.33272, -0.01688897, -0.15455014, -636649.9, 756897.94, 0.015692938, 10.007457, 9.995882 
2.2254832e+3, 1.6779557e+2, -632681.9, -1376125.9, 3447.2964, -0.011777666, -0.16822794, -632665.9, 662921.44, 0.004750053, 10.006434, 9.996535 
2.2254255e+3, 1.777918e+2, -674950.9, -1340572.0, 3342.4893, -0.013235581, -0.18234602, -674934.06, 522689.25, 0.00064865453, 10.005423, 9.996593 
2.2253671e+3, 1.8778864e+2, -661998.25, -1190279.6, -7681.238, -0.028185032, -0.1853125, -661886.56, 437766.8, 0.000008202476, 10.004433, 9.99743 
2.2253089e+3, 1.9778591e+2, -702202.6, -1151815.4, -10625.145, -0.045338865, -0.18597656, -701951.7, 299727.38, 0.0, 10.003452, 9.997493 
2.2252508e+3, 2.0778352e+2, -687610.94, -1000230.6, -14534.08, -0.030785173, -0.20134567, -686936.7, 216764.67, 0.0, 10.002476, 9.998332 
2.225193e+3, 2.177815e+2, -728606.8, -965466.6, -17610.842, -0.0061047226, -0.22200847, -727304.56, 78415.57, 0.0, 10.001505, 9.998365 
2.2251345e+3, 2.2778003e+2, -708743.8, -819996.75, -21635.533, -0.007714719, -0.22684944, -704684.44, 3049.1418, 0.0, 10.000601, 9.999126 
2.2250761e+3, 2.37779e+2, -734497.8, -773748.25, -22549.178, -0.016828373, -0.22725, -724229.6, -114486.92, 0.0, 9.999718, 9.999197 
2.225018e+3, 2.4777833e+2, -721893.0, -620864.94, -21711.729, 0.01278796, -0.24361286, -616396.56, -104648.39, 0.0, 9.998717, 10.000055 
2.22496e+3, 2.5777802e+2, -770201.6, -585154.75, -18465.328, 0.05426435, -0.26577324, -583330.1, -169580.3, 0.0, 9.997678, 10.000129 
2.2249016e+3, 2.677783e+2, -752231.94, -428234.5, -20981.957, 0.055644065, -0.27637625, -426881.38, -111135.91, 0.0, 9.996709, 10.000999 
2.2248432e+3, 2.7777907e+2, -790627.25, -395410.9, -22444.484, 0.0470227, -0.28572923, -394140.38, -176403.58, 0.0, 9.99577, 10.001004 
2.2247854e+3, 2.8778e+2, -773302.3, -256856.02, -11088.321, 0.10334738, -0.31077263, -256618.06, -136891.77, 0.0, 9.994876, 10.001713 
2.224728e+3, 2.9778135e+2, -811030.56, -231855.97, -460.82663, 0.16614987, -0.33226842, -231855.6, -210143.66, 0.0, 9.993978, 10.001645 
2.2246687e+3, 3.0778337e+2, -888316.4, -176989.7, 11841.536, 0.025213279, -0.3034048, -176792.63, -176792.63, 0.0, 9.992825, 10.002241 
2.2246122e+3, 3.177854e+2, -891840.75, 78101.51, 16097.555, 0.16257547, -0.3221652, 78368.59, 78368.59, 0.0, 9.991697, 10.004536 
2.2357242e+3, 1.2787162e+2, -603017.1, -1650820.3, 8138.4854, -0.016225545, -0.11905869, -602953.94, 1083891.3, 0.08065034, 10.0105095, 9.9954 
2.2356658e+3, 1.3786636e+2, -621616.75, -1639379.0, -7822.9717, -0.027236417, -0.16328983, -621556.6, 967337.94, 0.057680164, 10.00953, 9.995257 
2.2356072e+3, 1.4786172e+2, -610488.0, -1541717.0, -32379.604, -0.025540859, -0.15557297, -609363.5, 881576.1, 0.03445749, 10.008505, 9.9957485 
2.2355483e+3, 1.5785745e+2, -640296.0, -1507525.0, -36879.598, -0.009067429, -0.14325354, -638730.44, 754251.3, 0.015779477, 10.0074625, 9.995812 
2.2354895e+3, 1.6785344e+2, -622467.6, -1357753.9, -33057.566, -0.012996029, -0.15406322, -620984.4, 674035.75, 0.004785007, 10.006443, 9.996659 
2.2354306e+3, 1.7784975e+2, -667802.4, -1328948.9, -33582.555, -0.026342236, -0.17202036, -666100.94, 530953.75, 0.0006577344, 10.005432, 9.996672 
2.2353713e+3, 1.8784642e+2, -663621.6, -1196280.6, -43626.65, -0.030495573, -0.19158491, -660072.1, 439014.06, 0.000009061917, 10.004439, 9.997388 
2.2353123e+3, 1.9784346e+2, -703956.0, -1157388.5, -46457.582, -0.030104313, -0.2118391, -699245.06, 301869.06, 0.0, 10.003456, 9.997456 
2.2352532e+3, 2.078412e+2, -688653.0, -1004572.2, -50260.836, -0.024400387, -0.21126866, -680849.56, 222286.02, 0.0, 10.0024805, 9.998302 
2.2351941e+3, 2.1783942e+2, -728624.25, -967931.7, -52493.15, -0.017005125, -0.20506269, -717616.0, 87536.49, 0.0, 10.001511, 9.998348 
2.235135e+3, 2.2783782e+2, -707019.1, -818454.8, -54079.555, -0.00995333, -0.22265175, -685089.9, 22077.27, 0.0, 10.000606, 9.999138 
2.235076e+3, 2.3783657e+2, -730768.9, -767753.8, -57086.09, -0.0021480976, -0.24859397, -689254.75, -80076.37, 0.0, 9.999721, 9.999239 
2.2350167e+3, 2.47836e+2, -712714.2, -603689.44, -60909.273, 0.018154193, -0.26061884, -576461.1, -65278.785, 0.0, 9.998721, 10.000174 
2.2349575e+3, 2.5783592e+2, -765329.44, -577011.9, -56669.766, 0.04174626, -0.2680072, -561273.75, -148092.28, 0.0, 9.997682, 10.000185 
2.2348982e+3, 2.6783627e+2, -758641.56, -443377.72, -56555.1, 0.05109204, -0.2730729, -433539.34, -118362.11, 0.0, 9.996713, 10.000896 
2.2348389e+3, 2.7783695e+2, -791223.25, -398221.84, -57302.47, 0.058802526, -0.28140286, -390037.2, -172867.53, 0.0, 9.995772, 10.000986 
2.2347803e+3, 2.8783783e+2, -758494.8, -227880.88, -44496.316, 0.102835976, -0.32279578, -224175.38, -105016.13, 0.0, 9.994879, 10.001913 
2.2347216e+3, 2.978392e+2, -797475.56, -205817.16, -37497.93, 0.14403719, -0.3614944, -203450.1, -182305.97, 0.0, 9.993981, 10.001824 
2.2346614e+3, 3.0784205e+2, -878257.56, -156953.6, -35151.19, 0.033385757, -0.2665405, -155244.63, -155244.63, 0.0, 9.992823, 10.002382 
2.2346038e+3, 3.1784344e+2, -935671.06, -13712.074, 3540.8464, 0.17333433, -0.35010615, -13698.476, -13698.476, 0.0, 9.991695, 10.003908 
2.2457343e+3, 1.2793042e+2, -567157.4, -1642037.6, 41510.72, -0.032100983, -0.13569379, -565556.7, 1120711.0, 0.08099912, 10.010826, 9.995311 
2.2456753e+3, 1.3792513e+2, -614747.56, -1642611.4, 18740.129, -0.011026705, -0.17139806, -614406.0, 973911.6, 0.05792794, 10.009616, 9.995192 
2.2456154e+3, 1.4792049e+2, -601921.3, -1537843.4, 709.47644, -0.012283746, -0.16167772, -601920.75, 888442.3, 0.034610886, 10.008574, 9.99574 
2.2455557e+3, 1.579162e+2, -623668.0, -1499852.8, 4315.093, -0.01030751, -0.14871563, -623646.75, 768758.7, 0.015860233, 10.0075865, 9.995804 
2.2454959e+3, 1.6791214e+2, -601475.3, -1347832.6, 4249.434, -0.013948587, -0.16127269, -601451.1, 692993.06, 0.0048198774, 10.006594, 9.996653 
2.245436e+3, 1.7790842e+2, -643092.7, -1314761.9, -5167.4907, -0.022160832, -0.18187533, -643052.94, 553426.1, 0.00066795904, 10.005597, 9.996687 
2.2453757e+3, 1.8790512e+2, -643883.0, -1178726.1, -13032.669, -0.02376284, -0.20238303, -643565.6, 454944.44, 0.000010209331, 10.004545, 9.997455 
2.2453156e+3, 1.979022e+2, -698418.44, -1150946.6, -8329.437, -0.021808391, -0.22293757, -698265.2, 302272.22, 0.0, 10.003483, 9.997485 
2.2452556e+3, 2.0789991e+2, -684830.75, -1009414.3, -10169.377, -0.021578422, -0.21987012, -684512.5, 218046.84, 0.0, 10.00254, 9.998238 
2.2451955e+3, 2.178981e+2, -712995.5, -962974.75, -15699.05, -0.021848226, -0.20996283, -712013.44, 92563.57, 0.0, 10.001634, 9.998321 
2.2451353e+3, 2.2789654e+2, -703794.3, -809686.6, -17010.992, -0.01262545, -0.2250252, -701128.7, 5462.5674, 0.0, 10.000602, 9.999197 
2.2450753e+3, 2.3789535e+2, -754674.1, -772291.75, -17251.59, 0.0008211605, -0.24940693, -744112.56, -135510.7, 0.0, 9.999531, 9.999296 
2.2450152e+3, 2.4789484e+2, -733181.2, -607628.44, -25016.686, 0.020184295, -0.2621203, -602827.4, -92221.82, 0.0, 9.998561, 10.000221 
2.2449549e+3, 2.578948e+2, -770477.2, -573338.7, -25504.646, 0.040214654, -0.27065235, -570092.5, -157488.1, 0.0, 9.997625, 10.000235 
2.2448945e+3, 2.6789513e+2, -759763.44, -437875.63, -17602.166, 0.05110976, -0.27698678, -436915.94, -122316.11, 0.0, 9.996684, 10.000945 
2.2448345e+3, 2.7789584e+2, -794800.75, -395651.78, -8784.171, 0.062372845, -0.286482, -395458.56, -178866.66, 0.0, 9.995735, 10.0010195 
2.2447747e+3, 2.8789675e+2, -783260.9, -239769.72, -6386.961, 0.096102186, -0.32335386, -239694.67, -121113.414, 0.0, 9.994714, 10.001908 
2.2447151e+3, 2.978982e+2, -837705.7, -216914.22, -15848.346, 0.12327823, -0.35636434, -216509.89, -195944.03, 0.0, 9.993675, 10.001893 
2.2446543e+3, 3.0790105e+2, -866689.06, -123396.914, -14376.586, 0.05175629, -0.27637365, -123118.95, -123118.95, 0.0, 9.992787, 10.002627 
2.2445954e+3, 3.179026e+2, -919931.25, -42051.72, 54750.246, 0.16538462, -0.3624793, -38650.316, -38650.316, 0.0, 9.991963, 10.003582 
2.2557446e+3, 1.2799017e+2, -578119.75, -1671208.4, 651.0513, -0.06568693, -0.15635957, -578119.4, 1107561.0, 0.08130507, 10.010855, 9.995081 
2.255685e+3, 1.379849e+2, -620877.56, -1661469.4, -20158.0, 0.015661914, -0.1692773, -620487.25, 967243.94, 0.058147594, 10.009636, 9.995055 
2.2556242e+3, 1.4798021e+2, -593591.8, -1524983.9, -33208.977, 0.0071991375, -0.16579951, -592409.25, 897367.8, 0.034749236, 10.008591, 9.995822 
2.255563e+3, 1.5797582e+2, -619645.8, -1496173.5, -30628.09, -0.01910248, -0.16789162, -618576.94, 773242.75, 0.015935266, 10.007603, 9.995824 
2.2555022e+3, 1.6797166e+2, -609212.0, -1366969.9, -31048.766, -0.014452831, -0.18614326, -607941.94, 685917.94, 0.0048540207, 10.006601, 9.99652 
2.2554417e+3, 1.7796779e+2, -646186.56, -1322362.5, -41406.176, -0.003308776, -0.20860589, -643660.44, 552236.0, 0.0006789818, 10.005597, 9.996637 
2.2553803e+3, 1.8796468e+2, -632745.4, -1157674.1, -51631.227, -0.009520753, -0.21669438, -627715.2, 470210.22, 0.000011672386, 10.004549, 9.9976 
2.255319e+3, 1.9796206e+2, -691789.1, -1140555.5, -45680.434, -0.019934636, -0.22095193, -687186.44, 312763.16, 0.0, 10.003492, 9.997554 
2.2552578e+3, 2.0795962e+2, -691484.56, -1026008.94, -42986.336, -0.021900982, -0.2277406, -686049.1, 215924.03, 0.0, 10.002547, 9.998123 
2.255197e+3, 2.1795754e+2, -715992.25, -970994.06, -50486.445, -0.02108717, -0.23508689, -706360.5, 97633.336, 0.0, 10.0016365, 9.998266 
2.2551358e+3, 2.2795619e+2, -696941.5, -797321.06, -56781.49, -0.01596339, -0.23303956, -671347.7, 34658.574, 0.0, 10.000605, 9.999283 
2.2550745e+3, 2.3795535e+2, -750099.0, -764991.3, -56026.098, -0.007781976, -0.23013899, -701026.44, -93012.81, 0.0, 9.999536, 9.999347 
2.2550134e+3, 2.4795476e+2, -735128.56, -613806.1, -60217.426, 0.019095182, -0.24860552, -588992.7, -78974.54, 0.0, 9.998565, 10.000179 
2.2549523e+3, 2.5795454e+2, -767742.5, -569646.44, -60765.543, 0.049914286, -0.27386698, -552492.2, -140473.11, 0.0, 9.997629, 10.00026 
2.2548911e+3, 2.6795492e+2, -745804.2, -410821.13, -53195.05, 0.055647884, -0.28836888, -402576.7, -88563.16, 0.0, 9.996688, 10.001131 
2.2548302e+3, 2.7795574e+2, -789931.06, -387377.8, -45316.367, 0.056776334, -0.301438, -382339.5, -166335.8, 0.0, 9.995738, 10.001077 
2.254769e+3, 2.879568e+2, -800441.4, -276561.25, -46219.46, 0.08238815, -0.3109521, -272514.78, -154522.31, 0.0, 9.994714, 10.001658 
2.2547083e+3, 2.979583e+2, -842993.2, -227993.89, -53474.965, 0.104126275, -0.31328997, -223378.81, -203401.48, 0.0, 9.99367, 10.0018215 
2.2546472e+3, 3.079603e+2, -841402.8, -72915.68, -45891.54, 0.08224042, -0.34178004, -70184.89, -70184.89, 0.0, 9.992791, 10.0029745 
2.254587e+3, 3.1796315e+2, -916023.25, -39138.242, 27737.402, 0.13059905, -0.32409754, -38261.734, -38261.734, 0.0, 9.991981, 10.003596 
2.2657557e+3, 1.2805113e+2, -531111.9, -1665283.1, 28331.873, -0.072049595, -0.17041245, -530404.56, 1154676.9, 0.08155265, 10.011292, 9.994912 
2.2656946e+3, 1.3804573e+2, -583086.9, -1652675.1, 14745.758, 0.014029364, -0.18079078, -582883.6, 1004250.9, 0.058328908, 10.009964, 9.994955 
2.2656327e+3, 1.4804098e+2, -549541.4, -1495670.5, 9473.4, 0.0074894936, -0.17902192, -549446.56, 939733.9, 0.034866653, 10.00888, 9.995882 
2.2655706e+3, 1.5803663e+2, -578837.94, -1470608.0, 10132.855, -0.018235892, -0.18354253, -578722.8, 812499.6, 0.0160016, 10.007869, 9.995868 
2.2655088e+3, 1.6803245e+2, -590507.3, -1356309.9, 13612.246, -0.011467922, -0.20150141, -590265.44, 702997.0, 0.004885959, 10.006729, 9.996529 
2.2654471e+3, 1.7802861e+2, -652420.56, -1325761.4, 12512.591, 0.0021595398, -0.22255723, -652188.1, 543111.0, 0.0006901993, 10.005561, 9.996629 
2.2653848e+3, 1.8802546e+2, -629314.8, -1161229.3, -2534.397, -0.0068203686, -0.2285503, -629302.7, 468025.9, 0.000013421917, 10.004601, 9.997548 
2.2653225e+3, 1.9802281e+2, -663286.75, -1129109.4, -9746.793, -0.021534264, -0.23043561, -663082.94, 336270.5, 0.0, 10.003703, 9.997528 
2.2652602e+3, 2.080204e+2, -671043.06, -1012172.9, -3681.2612, -0.0232952, -0.23631655, -671003.3, 230373.56, 0.0, 10.002676, 9.998154 
2.2651982e+3, 2.1801831e+2, -718940.94, -969560.06, -2726.5068, -0.020931752, -0.24377722, -718911.25, 84486.086, 0.0, 10.001609, 9.998287 
2.2651362e+3, 2.2801694e+2, -697067.3, -797904.9, -12872.093, -0.017230518, -0.243659, -695450.06, 9960.122, 0.0, 10.000611, 9.999272 
2.265074e+3, 2.3801605e+2, -734950.56, -755602.25, -18251.209, -0.011460441, -0.24216446, -724306.7, -116888.62, 0.0, 9.999636, 9.99936 
2.2650117e+3, 2.4801558e+2, -721608.2, -600005.94, -17637.7, 0.014459198, -0.25329593, -597499.4, -88077.74, 0.0, 9.9986315, 10.000239 
2.2649497e+3, 2.5801548e+2, -765740.4, -561859.0, -11903.617, 0.0451606, -0.26983762, -561166.3, -149744.98, 0.0, 9.997619, 10.000317 
2.2648877e+3, 2.6801583e+2, -750076.6, -406942.78, -10941.108, 0.05372791, -0.29339203, -406594.25, -93178.09, 0.0, 9.996638, 10.001179 
2.2648254e+3, 2.7801654e+2, -798291.5, -386677.78, -13766.537, 0.05774297, -0.31952035, -386217.84, -170810.77, 0.0, 9.995666, 10.001114 
2.2647634e+3, 2.8801778e+2, -807155.5, -278021.63, -4904.261, 0.07261583, -0.31364012, -277976.16, -160581.8, 0.0, 9.994665, 10.001669 
2.2647017e+3, 2.9801947e+2, -846967.7, -231186.73, 6194.655, 0.08223798, -0.29576632, -231124.42, -211746.84, 0.0, 9.993654, 10.001804 
2.2646399e+3, 3.080208e+2, -863298.1, -91657.02, -3988.5183, 0.10348619, -0.38101804, -91636.41, -91636.41, 0.0, 9.9926815, 10.002896 
2.2645783e+3, 3.180242e+2, -953041.4, -31421.695, 34195.953, 0.11493925, -0.3089095, -30154.623, -30154.623, 0.0, 9.991621, 10.00382 
2.2757669e+3, 1.2811317e+2, -541519.25, -1685390.1, -16512.145, -0.059468195, -0.17976838, -541280.94, 1143191.4, 0.081714794, 10.011281, 9.994771 
2.2757041e+3, 1.3810748e+2, -587309.0, -1665217.0, -26775.736, -0.009798634, -0.20300369, -586644.3, 999884.06, 0.058451105, 10.009974, 9.994867 
2.2756414e+3, 1.4810278e+2, -546145.2, -1491935.1, -24607.73, -0.0068753627, -0.19925755, -545505.4, 943068.75, 0.03494997, 10.00889, 9.995905 
2.2755784e+3, 1.580985e+2, -574344.75, -1463478.9, -27242.934, -0.009518507, -0.19623923, -573510.8, 817103.9, 0.016052764, 10.0078745, 9.995917 
2.2755153e+3, 1.6809447e+2, -581483.06, -1340482.0, -29234.17, -0.006013729, -0.20892452, -580358.75, 712294.4, 0.004913168, 10.006738, 9.996636 
2.2754525e+3, 1.7809077e+2, -649997.25, -1324867.1, -27643.148, -0.00396007, -0.22578134, -648866.8, 545821.5, 0.0007008219, 10.005574, 9.996632 
2.2753891e+3, 1.880874e+2, -644346.75, -1195853.9, -34765.418, -0.014048318, -0.23854107, -642163.9, 454556.7, 0.000015362972, 10.00461, 9.997309 
2.275326e+3, 1.9808443e+2, -670942.4, -1147130.6, -43708.68, -0.02616517, -0.24993494, -666963.6, 331785.56, 0.000000000000000002497382, 10.003708, 9.997405 
2.2752626e+3, 2.0808215e+2, -659986.44, -991177.2, -42718.887, -0.025684517, -0.24513236, -654565.0, 246205.94, 0.0, 10.002679, 9.998299 
2.2751997e+3, 2.1808036e+2, -713305.3, -959983.75, -41003.34, -0.021439038, -0.23732449, -706668.25, 96119.984, 0.0, 10.001614, 9.998353 
2.2751364e+3, 2.2807874e+2, -704606.4, -815433.7, -48883.78, -0.016529527, -0.2573702, -686126.2, 18677.42, 0.0, 10.000614, 9.999153 
2.2750732e+3, 2.3807745e+2, -736828.7, -761237.06, -54975.746, -0.010463138, -0.2847029, -692718.8, -85903.266, 0.0, 9.999639, 9.999323 
2.2750102e+3, 2.4807727e+2, -710850.8, -579642.3, -55835.453, 0.0059911353, -0.2754933, -559098.3, -50282.008, 0.0, 9.998635, 10.00038 
2.274947e+3, 2.5807765e+2, -760497.7, -552990.44, -49469.68, 0.025402945, -0.25812218, -541800.4, -130988.94, 0.0, 9.9976225, 10.000378 
2.274884e+3, 2.6807782e+2, -757593.75, -424484.28, -47628.17, 0.045233585, -0.29205298, -417808.16, -105000.18, 0.0, 9.996641, 10.00106 
2.2748211e+3, 2.7807823e+2, -797416.0, -386617.8, -50933.74, 0.06588549, -0.3412714, -380396.88, -165594.47, 0.0, 9.995668, 10.001116 
2.274758e+3, 2.8807965e+2, -787202.94, -238239.67, -42947.0, 0.06699133, -0.33291325, -234900.13, -118112.95, 0.0, 9.994667, 10.001944 
2.2746949e+3, 2.9808167e+2, -845568.9, -229980.17, -30718.094, 0.056642, -0.30599654, -228451.13, -209684.61, 0.0, 9.993657, 10.001815 
2.2746326e+3, 3.0808264e+2, -904409.06, -178181.36, -40482.168, 0.11381754, -0.38915798, -175931.73, -175931.73, 0.0, 9.9926815, 10.002304 
2.2745699e+3, 3.1808546e+2, -919976.2, 39159.234, -29116.543, 0.12916945, -0.33166265, 40042.316, 40042.316, 0.0, 9.991608, 10.004314 
2.2857781e+3, 1.2817632e+2, -549429.4, -1690500.4, 17852.926, -0.043980863, -0.193351, -549150.1, 1134702.1, 0.08176554, 10.011231, 9.994757 
2.2857141e+3, 1.3817072e+2, -564283.06, -1654873.6, 16917.494, -0.014134023, -0.20829141, -564020.7, 1021887.1, 0.058492076, 10.010154, 9.994848 
2.2856499e+3, 1.481659e+2, -525740.2, -1485882.0, 21609.453, -0.009897539, -0.2081364, -525254.1, 962700.1, 0.034983262, 10.009059, 9.995862 
2.2855861e+3, 1.5816155e+2, -564387.75, -1461317.8, 14345.676, -0.004842859, -0.21104592, -564158.4, 825837.4, 0.016079713, 10.007961, 9.995887 
2.2855219e+3, 1.6815749e+2, -561376.56, -1330756.6, 4084.5962, -0.0053060534, -0.22155046, -561354.9, 730679.44, 0.004931961, 10.006883, 9.99663 
2.2854577e+3, 1.781538e+2, -616298.56, -1308926.5, 494.27557, -0.010578058, -0.23394984, -616298.2, 577771.25, 0.0007099241, 10.005813, 9.996623 
2.2853936e+3, 1.8815042e+2, -623665.9, -1187626.8, 6195.814, -0.019916505, -0.24637152, -623597.8, 472504.25, 0.000017375138, 10.0047655, 9.997287 
2.2853294e+3, 1.981474e+2, -669370.4, -1147266.6, 9357.838, -0.02875878, -0.25869742, -669187.2, 328944.1, 0.00000000005846094, 10.003728, 9.997392 
2.2852652e+3, 2.0814513e+2, -657452.7, -989332.6, 3824.7344, -0.02798096, -0.25233042, -657408.6, 242744.53, 0.0, 10.002699, 9.998299 
2.2852011e+3, 2.1814334e+2, -703802.2, -952262.9, -4222.0454, -0.024237186, -0.2421732, -703730.44, 98439.875, 0.0, 10.001671, 9.998376 
2.285137e+3, 2.2814175e+2, -706971.1, -809188.9, -4950.278, -0.017415164, -0.26284182, -706731.94, -2546.633, 0.0, 10.000572, 9.999214 
2.2850728e+3, 2.381405e+2, -759326.3, -765739.7, 1969.6477, -0.008963909, -0.29249564, -758769.7, -152572.88, 0.0, 9.999462, 9.999374 
2.2850086e+3, 2.4814026e+2, -725152.9, -583326.0, -229.25546, 0.0049433406, -0.28986257, -583325.6, -75127.695, 0.0, 9.9985285, 10.000403 
2.2849444e+3, 2.5814056e+2, -756856.25, -548537.75, -3520.989, 0.02027898, -0.27865487, -548478.25, -138284.78, 0.0, 9.997642, 10.000397 
2.2848804e+3, 2.6814085e+2, -764083.6, -426758.22, 322.94055, 0.040747855, -0.30265588, -426757.9, -114568.65, 0.0, 9.996598, 10.001061 
2.2848164e+3, 2.7814135e+2, -818518.3, -393358.22, 5065.5728, 0.063829325, -0.33922395, -393297.88, -179115.13, 0.0, 9.995514, 10.001141 
2.2847524e+3, 2.8814268e+2, -798785.44, -234704.27, 4018.376, 0.06448408, -0.34771764, -234675.64, -118507.12, 0.0, 9.994554, 10.00202 
2.2846882e+3, 2.9814452e+2, -851264.6, -232049.38, 1629.6913, 0.05261759, -0.3417881, -232045.1, -213895.95, 0.0, 9.99362, 10.001815 
2.284625e+3, 3.0814594e+2, -934918.9, -209515.42, 11471.267, 0.11313964, -0.36877638, -209334.06, -209334.06, 0.0, 9.992549, 10.00215 
2.2845612e+3, 3.181482e+2, -943724.1, 52736.125, 22564.545, 0.12513591, -0.3558428, 53246.832, 53246.832, 0.0, 9.991343, 10.004533 
2.2957891e+3, 1.2824053e+2, -543419.8, -1681185.6, -17208.924, -0.026384592, -0.20978172, -543159.56, 1140062.5, 0.08168668, 10.011243, 9.994819 
2.2957242e+3, 1.3823521e+2, -560752.4, -1652567.0, -19716.62, -0.0038323696, -0.20051631, -560396.44, 1024878.25, 0.058435235, 10.010171, 9.994859 
2.2956589e+3, 1.4823025e+2, -531235.25, -1501580.9, -16629.398, -0.004508144, -0.20829198, -530950.3, 956372.1, 0.034953125, 10.00907, 9.995751 
2.2955938e+3, 1.5822561e+2, -571173.1, -1477799.8, -24523.195, -0.0037211762, -0.22755261, -570510.3, 818856.4, 0.01607371, 10.007965, 9.995774 
2.2955285e+3, 1.6822144e+2, -568820.2, -1348144.4, -34213.004, -0.008517696, -0.23839244, -567321.06, 724085.6, 0.0049384055, 10.006886, 9.996512 
2.2954631e+3, 1.782177e+2, -617799.9, -1313987.3, -37544.81, -0.0175923, -0.24618945, -615780.94, 577661.8, 0.0007165216, 10.005816, 9.996589 
2.295398e+3, 1.8821447e+2, -612262.5, -1166080.5, -31412.52, -0.02462213, -0.25217104, -610486.5, 484987.22, 0.00001934085, 10.00477, 9.997436 
2.2953327e+3, 1.9821164e+2, -664350.9, -1139057.1, -28611.879, -0.02967174, -0.25810117, -662632.6, 334868.03, 0.00000000071022377, 10.003733, 9.997448 
2.2952679e+3, 2.0820923e+2, -667211.2, -1011301.25, -33652.375, -0.030303257, -0.25838724, -663950.9, 235573.4, 0.0, 10.002702, 9.998149 
2.2952026e+3, 2.1820723e+2, -705611.8, -957294.9, -42801.93, -0.029273355, -0.257324, -698531.94, 103012.16, 0.0, 10.001671, 9.998343 
2.2951372e+3, 2.2820595e+2, -691317.0, -778498.6, -46435.652, -0.019846633, -0.25988594, -671217.7, 32338.043, 0.0, 10.000574, 9.999426 
2.2950721e+3, 2.382051e+2, -750397.8, -749553.4, -37180.28, -0.0070093954, -0.26650074, -712792.94, -107230.37, 0.0, 9.999467, 9.999486 
2.2950068e+3, 2.482045e+2, -731950.5, -599723.4, -33269.97, 0.011407503, -0.29734024, -591824.1, -84257.12, 0.0, 9.998533, 10.000291 
2.2949418e+3, 2.5820425e+2, -758776.8, -554645.25, -39125.926, 0.030005112, -0.33241886, -547402.94, -137835.1, 0.0, 9.997645, 10.000356 
2.2948767e+3, 2.682049e+2, -755674.06, -410975.38, -40856.492, 0.04011499, -0.32488865, -406198.9, -94638.85, 0.0, 9.996601, 10.001172 
2.2948115e+3, 2.7820602e+2, -816432.44, -390273.3, -33664.234, 0.05058459, -0.3111797, -387630.44, -174082.58, 0.0, 9.995515, 10.001164 
2.2947466e+3, 2.8820685e+2, -809780.8, -258977.55, -30624.02, 0.06569826, -0.3583685, -257280.13, -141741.56, 0.0, 9.9945545, 10.001856 
2.2946818e+3, 2.98208e+2, -851634.4, -234575.45, -35648.55, 0.0728525, -0.40661034, -232522.8, -214996.8, 0.0, 9.993623, 10.0018 
2.2946171e+3, 3.0821085e+2, -912149.4, -163025.86, -30079.932, 0.09859064, -0.31346953, -161819.98, -161819.98, 0.0, 9.992547, 10.002473 
2.294552e+3, 3.1821248e+2, -957892.56, 25241.09, -40148.39, 0.10461988, -0.38562256, 26877.912, 26877.912, 0.0, 9.991329, 10.004353 
2.3058003e+3, 1.2830606e+2, -524915.0, -1677812.9, 27592.434, -0.012350394, -0.22020215, -524255.0, 1158323.8, 0.08146451, 10.01141, 9.99476 
2.3057342e+3, 1.3830066e+2, -532375.75, -1644724.5, 18096.256, -0.006685755, -0.21337709, -532081.4, 1052550.8, 0.058268204, 10.01041, 9.994794 
2.3056677e+3, 1.4829561e+2, -513522.7, -1501842.5, 17536.197, -0.010540282, -0.22089434, -513211.63, 973469.3, 0.034849484, 10.009241, 9.995665 
2.3056015e+3, 1.5829088e+2, -567206.5, -1482918.9, 12411.739, -0.008844869, -0.23884006, -567038.3, 821687.9, 0.016027909, 10.00803, 9.995706 
2.3055352e+3, 1.6828667e+2, -567304.4, -1350902.5, 9243.895, -0.011173558, -0.24851914, -567195.4, 723571.44, 0.0049290415, 10.006917, 9.996475 
2.3054688e+3, 1.7828287e+2, -616416.3, -1315199.0, 10547.636, -0.017608205, -0.25492784, -616257.1, 576546.25, 0.0007195544, 10.00584, 9.996566 
2.3054026e+3, 1.8827966e+2, -607150.1, -1162633.1, 11068.767, -0.025357636, -0.25654903, -606929.6, 487904.56, 0.000021126281, 10.0048065, 9.997438 
2.3053364e+3, 1.9827689e+2, -656488.1, -1133022.4, 3729.4385, -0.031837888, -0.25766662, -656458.94, 340401.84, 0.0000000028480087, 10.003783, 9.997462 
2.3052703e+3, 2.0827445e+2, -670447.1, -1008696.0, 3868.4878, -0.031530965, -0.2607513, -670402.94, 228481.66, 0.0, 10.002667, 9.99818 
2.3052038e+3, 2.1827242e+2, -723495.06, -961732.5, 6218.4663, -0.029186858, -0.26474103, -723332.9, 77571.84, 0.0, 10.001536, 9.998375 
2.3051377e+3, 2.2827116e+2, -691351.75, -775125.3, -3543.0574, -0.022369545, -0.26643476, -691202.2, 11713.922, 0.0, 10.000566, 9.999451 
2.3050714e+3, 2.3827037e+2, -723846.2, -732172.7, -6318.8286, -0.012654794, -0.27002493, -720442.4, -115519.98, 0.0, 9.999636, 9.999521 
2.3050053e+3, 2.482698e+2, -722554.06, -589620.06, 3603.8616, 0.0101301465, -0.30181426, -589522.44, -82595.984, 0.0, 9.998579, 10.000336 
2.3049392e+3, 2.5826952e+2, -779846.25, -562033.2, 7476.9, 0.034486555, -0.3399128, -561776.8, -152849.7, 0.0, 9.997494, 10.000375 
2.304873e+3, 2.6827013e+2, -766430.56, -419134.53, -1304.1123, 0.039341737, -0.33440354, -419129.63, -108209.766, 0.0, 9.996545, 10.00114 
2.3048069e+3, 2.7827117e+2, -802539.06, -384866.3, -4656.909, 0.04235659, -0.3215795, -384814.4, -171906.17, 0.0, 9.995621, 10.001148 
2.304741e+3, 2.8827196e+2, -814728.6, -260210.14, 4426.0327, 0.06616168, -0.37128142, -260174.83, -145275.55, 0.0, 9.994521, 10.001861 
2.3046753e+3, 2.9827315e+2, -880006.75, -236721.48, 11422.184, 0.08391473, -0.42153013, -236518.73, -219631.98, 0.0, 9.993383, 10.001897 
2.3046091e+3, 3.0827633e+2, -905421.0, -126521.086, 18295.926, 0.0781075, -0.31357434, -126091.56, -126091.56, 0.0, 9.9924555, 10.002766 
2.3045433e+3, 3.182779e+2, -941989.25, -2342.4568, -7993.385, 0.10009987, -0.41391915, -2274.4636, -2274.4636, 0.0, 9.991595, 10.004032 
2.3158118e+3, 1.2837276e+2, -534855.3, -1701881.8, -6061.8784, -0.0014843701, -0.22656924, -534823.8, 1147099.9, 0.08108844, 10.011408, 9.9945965 
2.3157442e+3, 1.3836697e+2, -541015.7, -1665108.3, -17851.34, -0.019794224, -0.24202769, -540732.25, 1043248.56, 0.057981912, 10.010407, 9.994658 
2.3156768e+3, 1.4836188e+2, -519005.66, -1515239.0, -24574.484, -0.025472766, -0.24294716, -518399.84, 967630.44, 0.034665495, 10.009241, 9.995575 
2.3156093e+3, 1.5835722e+2, -569990.1, -1491052.0, -28973.621, -0.01891439, -0.24589717, -569079.6, 818995.6, 0.015937788, 10.008033, 9.99565 
2.315542e+3, 1.6835302e+2, -565141.06, -1349538.5, -29341.016, -0.0133323725, -0.25315744, -564045.06, 726070.7, 0.0049012937, 10.006925, 9.996483 
2.3154746e+3, 1.7834923e+2, -617117.5, -1320347.6, -27806.777, -0.011867898, -0.26072025, -616019.7, 576132.7, 0.0007180584, 10.005851, 9.996528 
2.3154072e+3, 1.8834594e+2, -616088.0, -1183530.9, -25633.854, -0.022880154, -0.25974783, -614932.4, 479251.94, 0.000022581115, 10.004812, 9.997295 
2.3153399e+3, 1.9834307e+2, -658866.5, -1138926.6, -34532.688, -0.0352272, -0.2572533, -656395.1, 339817.13, 0.00000000654271, 10.003782, 9.997425 
2.3152727e+3, 2.0834075e+2, -657737.7, -983810.7, -37796.313, -0.03173235, -0.25965607, -653413.94, 244820.7, 0.0, 10.002668, 9.998353 
2.3152053e+3, 2.1833885e+2, -717970.8, -952549.06, -33133.957, -0.024445787, -0.2651505, -713380.5, 86872.4, 0.0, 10.001541, 9.998439 
2.315138e+3, 2.2833735e+2, -702344.44, -800175.2, -37455.836, -0.025181204, -0.2824561, -689650.94, 12615.987, 0.0, 10.000569, 9.99928 
2.3150706e+3, 2.3833624e+2, -726645.1, -739853.8, -42816.63, -0.02589095, -0.30219296, -689926.5, -85649.79, 0.0, 9.999639, 9.99947 
2.3150034e+3, 2.4833608e+2, -709110.75, -563611.44, -37637.168, 0.0011089414, -0.30229166, -554452.2, -48175.656, 0.0, 9.998582, 10.000515 
2.3149365e+3, 2.583364e+2, -775267.5, -554376.3, -31394.121, 0.03353942, -0.2997308, -550001.06, -141729.66, 0.0, 9.997497, 10.000429 
2.3148693e+3, 2.6833647e+2, -779640.75, -448577.34, -35654.902, 0.03844085, -0.3317118, -444780.94, -134511.97, 0.0, 9.996549, 10.000939 
2.3148023e+3, 2.7833682e+2, -806771.6, -396065.9, -42167.445, 0.03941997, -0.37377775, -391781.25, -179516.72, 0.0, 9.9956255, 10.001071 
2.3147354e+3, 2.8833807e+2, -802160.9, -235511.08, -39393.31, 0.06558145, -0.38540107, -232785.58, -118534.875, 0.0, 9.994522, 10.002032 
2.3146684e+3, 2.9833996e+2, -866401.2, -208425.39, -27988.01, 0.08438811, -0.38009983, -207237.02, -191006.38, 0.0, 9.993378, 10.002097 
2.3146011e+3, 3.083423e+2, -888166.94, -92241.56, -13340.854, 0.050473347, -0.3813656, -92018.01, -92018.01, 0.0, 9.992456, 10.003003 
2.314535e+3, 3.183447e+2, -975381.06, -77076.45, -36692.098, 0.11638003, -0.4041291, -75580.23, -75580.23, 0.0, 9.991613, 10.003513 
2.3258227e+3, 1.2844042e+2, -531243.44, -1688082.3, 20348.07, -0.0034162432, -0.22849658, -530885.6, 1150374.5, 0.08055276, 10.011382, 9.994701 
2.3257542e+3, 1.384346e+2, -541409.3, -1659084.8, 20973.459, -0.028174007, -0.25611812, -541015.9, 1042301.06, 0.0575714, 10.010379, 9.994711 
2.3256856e+3, 1.4842948e+2, -522169.7, -1522122.4, 15217.766, -0.031605158, -0.25483552, -521938.13, 963428.5, 0.03439708, 10.009245, 9.995523 
2.3256172e+3, 1.5842484e+2, -566086.1, -1494215.9, 14790.471, -0.020975785, -0.25109828, -565850.5, 821561.5, 0.015800193, 10.008087, 9.9956 
2.3255485e+3, 1.6842057e+2, -551622.0, -1348172.9, 15525.736, -0.018664507, -0.25823697, -551319.5, 738133.75, 0.0048531643, 10.007047, 9.99643 
2.3254803e+3, 1.7841668e+2, -594016.2, -1312766.3, 12139.428, -0.021428708, -0.2675763, -593811.2, 597679.44, 0.00071129133, 10.006032, 9.99649 
2.3254119e+3, 1.8841335e+2, -609927.9, -1181774.8, 17305.764, -0.024290621, -0.26772106, -609404.6, 484118.53, 0.000023563078, 10.004866, 9.997278 
2.3253435e+3, 1.9841045e+2, -675131.56, -1144970.9, 15917.547, -0.026168786, -0.26599067, -674592.94, 320958.63, 0.000000009978363, 10.003669, 9.997435 
2.3252751e+3, 2.0840818e+2, -661221.1, -978586.0, 9093.838, -0.026259808, -0.2669574, -660960.75, 236612.66, 0.0, 10.002621, 9.998409 
2.3252065e+3, 2.1840632e+2, -704567.56, -941043.94, 7128.3726, -0.025819749, -0.27060106, -704352.9, 95238.06, 0.0, 10.0016165, 9.998478 
2.3251382e+3, 2.284048e+2, -701263.8, -799453.3, 12107.562, -0.024528645, -0.28920406, -699792.9, 1812.2197, 0.0, 10.000582, 9.999276 
2.32507e+3, 2.3840366e+2, -741635.6, -747750.3, 16533.3, -0.021446252, -0.31109765, -727879.4, -124263.99, 0.0, 9.999544, 9.999458 
2.325002e+3, 2.4840347e+2, -713071.5, -568389.0, 10444.753, 0.0009315196, -0.30892843, -567638.9, -62023.402, 0.0, 9.998572, 10.000484 
2.3249339e+3, 2.5840378e+2, -758094.1, -544713.4, 2799.6433, 0.02695447, -0.30283532, -544676.6, -137066.14, 0.0, 9.997614, 10.000436 
2.3248658e+3, 2.6840386e+2, -769616.1, -434904.7, 11846.123, 0.032083236, -0.34182957, -434485.97, -124877.83, 0.0, 9.996585, 10.001013 
2.3247977e+3, 2.7840415e+2, -816843.5, -395143.38, 22062.549, 0.03563603, -0.3929158, -393992.25, -182388.4, 0.0, 9.995537, 10.001118 
2.3247297e+3, 2.8840557e+2, -802489.1, -235540.08, 14851.273, 0.066735104, -0.38785648, -235151.31, -121562.914, 0.0, 9.994525, 10.002028 
2.3246616e+3, 2.984076e+2, -846885.06, -196306.02, 12450.406, 0.08849769, -0.36441228, -196067.84, -180501.06, 0.0, 9.9935055, 10.002116 
2.3245932e+3, 3.0840927e+2, -902026.1, -93161.79, 12648.674, 0.03404239, -0.4358924, -92964.05, -92964.05, 0.0, 9.992342, 10.003049 
2.3245262e+3, 3.1841242e+2, -1020368.94, -83222.734, -2189.4631, 0.124818295, -0.39287674, -83217.625, -83217.625, 0.0, 9.991244, 10.003646 
2.335834e+3, 1.2850899e+2, -510853.16, -1649572.0, -11399.052, -0.015036409, -0.22759537, -510739.03, 1169849.3, 0.07985762, 10.011389, 9.994982 
2.3357645e+3, 1.3850337e+2, -531669.56, -1635967.9, -15166.992, -0.033004064, -0.25897136, -531461.3, 1051180.5, 0.057036564, 10.010361, 9.994881 
2.3356946e+3, 1.484983e+2, -525273.9, -1529467.3, -25755.313, -0.031069512, -0.25859514, -524613.75, 960077.7, 0.03404322, 10.009238, 9.995479 
2.335625e+3, 1.584936e+2, -568642.3, -1503867.6, -24780.012, -0.016990352, -0.25478137, -567986.25, 818751.4, 0.015613515, 10.008099, 9.99553 
2.3355554e+3, 1.684892e+2, -559028.0, -1366211.5, -20235.707, -0.026905995, -0.26375848, -558521.0, 730259.2, 0.004783533, 10.007052, 9.996306 
2.3354857e+3, 1.7848518e+2, -598247.4, -1321728.3, -26344.766, -0.043787714, -0.27543747, -597289.4, 593529.6, 0.000698896, 10.006027, 9.996433 
2.3354165e+3, 1.8848182e+2, -604918.75, -1172217.4, -26519.617, -0.028719988, -0.27982387, -603681.75, 489169.72, 0.00002396883, 10.004864, 9.997347 
2.3353472e+3, 1.9847892e+2, -672313.56, -1141305.0, -25565.002, -0.0061567947, -0.28273833, -670924.1, 323955.38, 0.000000010732319, 10.003673, 9.99746 
2.3352776e+3, 2.0847663e+2, -664848.7, -988665.0, -27400.904, -0.01599085, -0.28175932, -662546.44, 234355.17, 0.0, 10.002626, 9.99834 
2.335208e+3, 2.1847479e+2, -703262.1, -940698.7, -29875.543, -0.03302896, -0.28055018, -699560.75, 99358.64, 0.0, 10.001621, 9.998481 
2.3351386e+3, 2.2847348e+2, -691070.25, -780478.7, -26537.959, -0.020363882, -0.2867883, -683786.7, 17144.498, 0.0, 10.000586, 9.999407 
2.3350696e+3, 2.3847257e+2, -740666.06, -747923.0, -21412.496, 0.00015945395, -0.29731432, -722576.8, -119637.87, 0.0, 9.999548, 9.999457 
2.3350002e+3, 2.4847193e+2, -730419.44, -606577.8, -25577.305, 0.009199301, -0.3225137, -601503.25, -96559.5, 0.0, 9.998577, 10.000223 
2.3349312e+3, 2.5847167e+2, -760716.94, -552356.56, -34380.953, 0.014321866, -0.35058627, -546830.0, -139885.28, 0.0, 9.997619, 10.000383 
2.3348618e+3, 2.6847222e+2, -744832.25, -385508.78, -27691.955, 0.02002626, -0.36437777, -383387.16, -74449.74, 0.0, 9.996588, 10.001353 
2.3347928e+3, 2.784732e+2, -805841.9, -373873.38, -16325.714, 0.03083455, -0.37589025, -373257.25, -162331.6, 0.0, 9.995539, 10.001266 
2.3347239e+3, 2.8847447e+2, -817306.0, -268193.66, -22496.781, 0.06972612, -0.37817514, -267273.5, -154361.3, 0.0, 9.994528, 10.001805 
2.3346551e+3, 2.9847604e+2, -860316.06, -226924.56, -27876.713, 0.09677929, -0.37794065, -225700.02, -210804.52, 0.0, 9.993512, 10.001905 
2.3345852e+3, 3.0847725e+2, -916289.3, -123298.46, -33762.977, 0.030690622, -0.47410747, -121863.54, -121863.54, 0.0, 9.992338, 10.002847 
2.3345171e+3, 3.1848085e+2, -954384.1, 55043.98, -24084.664, 0.11859943, -0.3866221, 55618.31, 55618.31, 0.0, 9.991232, 10.004604 
2.345845e+3, 1.2857868e+2, -499705.75, -1639628.9, 27411.936, -0.03294845, -0.24083517, -499046.94, 1180857.5, 0.079005554, 10.011446, 9.995026 
2.3457745e+3, 1.3857318e+2, -560603.06, -1646174.0, 14367.044, -0.030169737, -0.26386347, -560412.94, 1021544.1, 0.056379374, 10.010128, 9.99492 
2.3457035e+3, 1.4856814e+2, -535767.94, -1532050.0, 8922.61, -0.03228439, -0.26028222, -535688.06, 948318.3, 0.033604763, 10.009154, 9.995498 
2.3456328e+3, 1.5856346e+2, -545386.56, -1490925.3, 12370.731, -0.027824404, -0.25476524, -545224.75, 840827.75, 0.01537778, 10.008259, 9.99554 
2.345562e+3, 1.6855903e+2, -552997.5, -1364794.0, 19865.514, -0.03243886, -0.26426566, -552511.6, 735583.8, 0.0046923915, 10.007106, 9.996287 
2.3454915e+3, 1.7855498e+2, -618508.8, -1331297.8, 19405.8, -0.041034143, -0.27705052, -617980.9, 572153.8, 0.00068090047, 10.005893, 9.996429 
2.3454209e+3, 1.8855162e+2, -614720.25, -1174559.9, 17278.02, -0.028405035, -0.2816948, -614187.56, 477979.66, 0.000023748256, 10.004792, 9.997362 
2.3453505e+3, 1.9854872e+2, -663398.3, -1134714.9, 16074.135, -0.010163365, -0.28492105, -662850.75, 331344.44, 0.000000008225726, 10.00373, 9.997476 
2.34528e+3, 2.0854639e+2, -654078.56, -982644.2, 19733.625, -0.016472843, -0.28715074, -652897.56, 243319.95, 0.0, 10.002703, 9.998342 
2.3452094e+3, 2.185445e+2, -694020.7, -934552.2, 19993.871, -0.028541926, -0.28952712, -692370.06, 105865.516, 0.0, 10.001684, 9.998489 
2.3451391e+3, 2.2854319e+2, -685495.94, -775611.9, 16070.028, -0.01619278, -0.29453206, -682716.0, 17531.19, 0.0, 10.000621, 9.99942 
2.3450689e+3, 2.385423e+2, -740603.94, -747077.75, 15473.439, 0.0029039122, -0.30268022, -728032.5, -125777.8, 0.0, 9.999551, 9.999459 
2.3449986e+3, 2.4854158e+2, -734929.25, -611937.0, 24717.656, 0.009879872, -0.33195117, -607155.44, -102895.125, 0.0, 9.998566, 10.000189 
2.3449285e+3, 2.5854123e+2, -765278.94, -555884.75, 28322.455, 0.01236208, -0.3652348, -552121.5, -145859.02, 0.0, 9.997599, 10.000366 
2.3448582e+3, 2.6854187e+2, -745858.6, -383984.94, 15527.742, 0.016822103, -0.36811283, -383319.88, -75065.54, 0.0, 9.996578, 10.001366 
2.344788e+3, 2.78543e+2, -803116.1, -368383.9, 4905.516, 0.027301583, -0.36593047, -368328.56, -158087.33, 0.0, 9.995545, 10.001297 
2.3447183e+3, 2.885441e+2, -807093.7, -256504.0, 11305.821, 0.06603518, -0.38572627, -256271.95, -144043.06, 0.0, 9.994575, 10.001861 
2.3446482e+3, 2.985455e+2, -850940.56, -225965.48, 21455.438, 0.09321166, -0.40729138, -225229.8, -211015.98, 0.0, 9.993597, 10.001868 
2.3445775e+3, 3.0854696e+2, -923354.2, -148239.98, 12145.051, 0.039994165, -0.46114254, -148049.73, -148049.73, 0.0, 9.992389, 10.002648 
2.3445079e+3, 3.1855014e+2, -946589.4, 96712.71, 26765.984, 0.10883602, -0.40279725, 97398.945, 97398.945, 0.0, 9.991129, 10.004937 
2.355856e+3, 1.286494e+2, -512585.0, -1662043.9, -17200.613, -0.055251013, -0.2635686, -512327.66, 1166882.4, 0.07799844, 10.011407, 9.994879 
2.3557845e+3, 1.3864394e+2, -562781.25, -1656648.5, -24868.957, -0.0217612, -0.27026972, -562216.2, 1019047.25, 0.05560171, 10.0101385, 9.994845 
2.3557124e+3, 1.4863898e+2, -530823.75, -1524879.6, -20306.547, -0.03522175, -0.2606785, -530409.06, 952903.1, 0.033083558, 10.009158, 9.995548 
2.3556407e+3, 1.5863436e+2, -543263.94, -1485138.6, -22588.023, -0.05034819, -0.25184515, -542722.56, 842634.94, 0.01509458, 10.008245, 9.995588 
2.3555689e+3, 1.6863e+2, -550140.6, -1358903.5, -24040.184, -0.03537272, -0.26055935, -549426.6, 737973.25, 0.004580694, 10.0071, 9.996333 
2.3554973e+3, 1.7862597e+2, -616062.7, -1328968.3, -22866.068, -0.017546766, -0.27332765, -615330.0, 574108.8, 0.0006575479, 10.005898, 9.996445 
2.3554255e+3, 1.8862262e+2, -616501.8, -1181748.9, -21329.37, -0.024748744, -0.27475324, -615698.06, 475773.28, 0.000022893186, 10.004802, 9.997312 
2.3553538e+3, 1.9861972e+2, -662672.7, -1136589.5, -22048.814, -0.035493903, -0.2743975, -661649.06, 331850.44, 0.00000000436348, 10.003739, 9.99746 
2.3552822e+3, 2.0861734e+2, -650021.8, -976531.75, -17318.29, -0.026189733, -0.284235, -649105.75, 246416.13, 0.0, 10.0027075, 9.9983835 
2.355211e+3, 2.1861535e+2, -694254.9, -936497.25, -18115.664, -0.01320535, -0.29757592, -692907.6, 104632.56, 0.0, 10.001685, 9.998479 
2.3551394e+3, 2.286139e+2, -692783.25, -792661.8, -23765.582, -0.012484698, -0.31203634, -687416.7, 12136.88, 0.0, 10.000624, 9.999305 
2.3550679e+3, 2.3861283e+2, -740330.94, -748792.56, -23296.463, -0.012956211, -0.32677886, -720884.25, -119321.32, 0.0, 9.999556, 9.999448 
2.3549968e+3, 2.4861243e+2, -722075.94, -587417.4, -11499.89, 0.0032989793, -0.33659157, -586442.4, -82876.95, 0.0, 9.9985695, 10.000358 
2.3549257e+3, 2.5861242e+2, -765476.06, -558367.1, -8838.568, 0.021436296, -0.345437, -557990.56, -152426.89, 0.0, 9.9976015, 10.000351 
2.3548545e+3, 2.686128e+2, -770027.6, -436084.0, -23703.521, 0.022741638, -0.35245737, -434409.9, -126850.86, 0.0, 9.996581, 10.001009 
2.3547833e+3, 2.786135e+2, -809547.6, -383674.34, -33361.97, 0.024932997, -0.36407638, -381076.7, -171525.56, 0.0, 9.995548, 10.001194 
2.3547123e+3, 2.886145e+2, -782129.5, -206939.7, -24713.105, 0.054630466, -0.41264412, -205879.86, -94341.11, 0.0, 9.994578, 10.002201 
2.3546414e+3, 2.98616e+2, -840552.94, -206889.52, -18227.121, 0.07603911, -0.4542747, -206365.66, -192844.19, 0.0, 9.993603, 10.001999 
2.3545699e+3, 3.086186e+2, -938232.75, -181065.56, -35410.2, 0.06498205, -0.3856267, -179413.16, -179413.16, 0.0, 9.992392, 10.002425 
2.3544985e+3, 3.1862015e+2, -981316.0, 24325.918, -18764.838, 0.0885562, -0.4609856, 24675.94, 24675.94, 0.0, 9.991124, 10.004445 
2.3658669e+3, 1.2872133e+2, -567152.56, -1690019.4, 22558.117, -0.0416359, -0.28129062, -566699.56, 1111804.5, 0.076836094, 10.010995, 9.994874 
2.3657942e+3, 1.38716e+2, -546287.1, -1647948.5, 21873.693, -0.03212645, -0.27263147, -545853.0, 1034703.5, 0.054703683, 10.010254, 9.994847 
2.3657212e+3, 1.48711e+2, -528402.8, -1522251.5, 25495.098, -0.040995374, -0.26552773, -527749.2, 954856.56, 0.032480758, 10.00917, 9.995559 
2.3656484e+3, 1.5870632e+2, -575899.0, -1498328.8, 20520.945, -0.045592885, -0.2625827, -575442.7, 809209.06, 0.014765586, 10.008008, 9.995609 
2.3655757e+3, 1.6870202e+2, -564847.06, -1361347.6, 16959.598, -0.036403667, -0.26674917, -564486.1, 722207.6, 0.0044494458, 10.006983, 9.99637 
2.3655029e+3, 1.786981e+2, -601766.8, -1319785.3, 17640.535, -0.027502764, -0.27280384, -601333.7, 587398.4, 0.00062902353, 10.005993, 9.99646 
2.3654301e+3, 1.8869472e+2, -596221.1, -1175070.5, 20448.734, -0.03549462, -0.27338353, -595499.7, 495265.16, 0.000021417723, 10.004961, 9.997277 
2.3653571e+3, 1.9869176e+2, -637994.44, -1123346.1, 19540.953, -0.044922624, -0.27396867, -637208.94, 355584.47, 0.000000001505984, 10.003909, 9.997467 
2.3652847e+3, 2.0868938e+2, -640273.8, -964174.44, 23744.719, -0.029537752, -0.28699166, -638542.4, 256273.13, 0.0, 10.002748, 9.998446 
2.3652124e+3, 2.186874e+2, -709276.75, -940710.25, 25483.602, -0.009694858, -0.30406505, -706503.94, 90329.52, 0.0, 10.0015745, 9.9985 
2.3651399e+3, 2.2868586e+2, -702318.94, -803206.75, 25250.266, -0.012327368, -0.32133725, -696352.2, 2495.4692, 0.0, 10.000589, 9.999246 
2.3650672e+3, 2.386847e+2, -728859.94, -744307.06, 28243.209, -0.018169703, -0.3380893, -707303.25, -106445.336, 0.0, 9.999644, 9.999433 
2.3649952e+3, 2.4868436e+2, -720894.7, -580553.4, 31963.367, 0.0039529535, -0.34255356, -573616.44, -70756.72, 0.0, 9.998556, 10.000408 
2.3649234e+3, 2.586845e+2, -786705.0, -564928.44, 28487.475, 0.030131169, -0.3449449, -561327.7, -156470.69, 0.0, 9.997447, 10.000377 
2.3648511e+3, 2.6868472e+2, -780730.3, -443640.9, 33048.29, 0.02805284, -0.35974866, -440431.4, -133578.16, 0.0, 9.996524, 10.000981 
2.3647785e+3, 2.7868527e+2, -799380.7, -380112.5, 42680.582, 0.023668062, -0.38186827, -375811.8, -166965.05, 0.0, 9.995629, 10.001176 
2.3647065e+3, 2.886863e+2, -789213.8, -210154.5, 31316.203, 0.045182146, -0.42607197, -208465.81, -97631.54, 0.0, 9.994535, 10.002197 
2.3646346e+3, 2.9868788e+2, -867826.44, -216022.0, 13392.057, 0.061050344, -0.4594374, -215746.97, -202930.66, 0.0, 9.993404, 10.002029 
2.3645623e+3, 3.0869058e+2, -915282.5, -159557.6, 9309.818, 0.07940501, -0.38321862, -159442.92, -159442.92, 0.0, 9.99251, 10.002512 
2.3644894e+3, 3.1869176e+2, -950298.7, -8086.3535, 34804.684, 0.079932764, -0.4929891, -6802.4414, -6802.4414, 0.0, 9.991547, 10.004016 
2.375878e+3, 1.2879431e+2, -557743.9, -1678071.0, -148.68028, -0.0036889205, -0.29600143, -557743.9, 1120043.9, 0.07552062, 10.011014, 9.994949 
2.3758039e+3, 1.3878922e+2, -543972.7, -1643931.3, -7832.843, -0.056977965, -0.27191955, -543916.9, 1035921.2, 0.053686664, 10.0102415, 9.994884 
2.37573e+3, 1.487841e+2, -531082.3, -1528977.9, -15336.099, -0.04851389, -0.27364445, -530846.7, 951041.8, 0.03179819, 10.009161, 9.995519 
2.3756565e+3, 1.5877928e+2, -576097.5, -1501370.4, -18521.006, -0.019675445, -0.28395614, -575726.94, 808209.2, 0.014392891, 10.008011, 9.99559 
2.3755825e+3, 1.6877504e+2, -563332.0, -1360370.3, -18263.65, -0.036706205, -0.2808045, -562913.75, 723064.0, 0.004300019, 10.006986, 9.996379 
2.3755082e+3, 1.7877123e+2, -601756.56, -1321084.3, -18899.313, -0.065283515, -0.27488965, -601260.4, 586754.7, 0.00059576484, 10.005993, 9.996454 
2.3754346e+3, 1.887678e+2, -599076.7, -1181446.1, -17340.945, -0.057832778, -0.27677643, -598560.75, 491487.44, 0.000019410405, 10.004957, 9.997238 
2.3753609e+3, 1.9876477e+2, -638203.56, -1123727.6, -20286.62, -0.04030408, -0.28215578, -637357.44, 354720.03, 0.00000000030335617, 10.003903, 9.99747 
2.3752874e+3, 2.0876245e+2, -635802.6, -955930.9, -19992.816, -0.027631333, -0.29463923, -634558.9, 259540.06, 0.0, 10.002747, 9.998507 
2.3752137e+3, 2.1876055e+2, -706299.2, -936667.2, -14934.263, -0.017363498, -0.3092517, -705335.06, 90780.87, 0.0, 10.001578, 9.9985285 
2.3751402e+3, 2.2875902e+2, -703417.8, -807646.8, -9406.151, -0.015310857, -0.32278594, -702575.75, -4445.936, 0.0, 10.000593, 9.999216 
2.3750666e+3, 2.3875786e+2, -731287.6, -751275.5, -9465.485, -0.013016128, -0.3366344, -727516.56, -127376.42, 0.0, 9.999647, 9.999386 
2.3749937e+3, 2.4875738e+2, -726276.0, -593671.2, -10682.712, 0.01160359, -0.3501088, -592816.06, -90672.48, 0.0, 9.998559, 10.0003195 
2.3749204e+3, 2.587573e+2, -782012.94, -556968.44, -10421.613, 0.038201794, -0.36475572, -556486.9, -152344.22, 0.0, 9.997449, 10.000434 
2.3748472e+3, 2.6875767e+2, -759030.9, -400613.94, 385.35452, 0.032667104, -0.3913716, -400613.53, -94476.54, 0.0, 9.996527, 10.001278 
2.3747739e+3, 2.7875835e+2, -795877.56, -375240.66, 6754.784, 0.023512742, -0.42076162, -375132.22, -167004.39, 0.0, 9.995634, 10.001209 
2.3747009e+3, 2.8875956e+2, -817936.4, -271074.78, -11928.49, 0.037807602, -0.42359722, -270814.72, -160699.72, 0.0, 9.9945345, 10.001781 
2.3746274e+3, 2.9876116e+2, -874934.9, -230829.56, -25620.738, 0.048192363, -0.41734242, -229812.05, -217714.02, 0.0, 9.993399, 10.001933 
2.3745544e+3, 3.0876285e+2, -883256.6, -96527.44, -20680.766, 0.08088179, -0.47093043, -95984.18, -95984.18, 0.0, 9.992518, 10.002944 
2.374481e+3, 3.1876555e+2, -974699.4, -64883.56, -20853.0, 0.0917082, -0.453735, -64405.86, -64405.86, 0.0, 9.991568, 10.003619 
2.3858887e+3, 1.2886852e+2, -533645.4, -1662715.5, 38318.836, -0.009484771, -0.30127707, -532346.4, 1144713.4, 0.074061625, 10.011164, 9.994987 
2.3858137e+3, 1.3886338e+2, -567368.56, -1651602.5, 28061.03, -0.06352444, -0.28300834, -566642.8, 1012467.7, 0.052558076, 10.010047, 9.994922 
2.3857388e+3, 1.4885832e+2, -547944.94, -1533460.4, 21004.227, -0.057524692, -0.28307533, -547497.5, 933663.0, 0.031041557, 10.009024, 9.995552 
2.3856641e+3, 1.5885353e+2, -574828.56, -1499538.1, 22493.615, -0.030354489, -0.2897355, -574281.75, 808926.0, 0.013980751, 10.008017, 9.995597 
2.3855892e+3, 1.688493e+2, -567747.5, -1366731.5, 22507.762, -0.042674277, -0.28177792, -567113.94, 718135.56, 0.0041351193, 10.006978, 9.996336 
2.385514e+3, 1.788455e+2, -611091.5, -1324532.3, 17803.574, -0.066080034, -0.27161363, -610647.5, 576639.75, 0.00055892626, 10.005929, 9.996458 
2.3854393e+3, 1.8884204e+2, -615622.7, -1181135.1, 22240.541, -0.0576095, -0.2798569, -614749.4, 474571.1, 0.000017088636, 10.004813, 9.997307 
2.3853645e+3, 1.9883898e+2, -668308.8, -1135085.9, 24508.525, -0.040181, -0.29295912, -667025.5, 324324.2, 0.000000000022559803, 10.003689, 9.997492 
2.3852895e+3, 2.0883664e+2, -655792.5, -972100.7, 18494.34, -0.03363142, -0.30076274, -654714.8, 238656.56, 0.0, 10.002644, 9.998442 
2.3852149e+3, 2.1883473e+2, -702049.0, -935662.4, 16740.172, -0.029625399, -0.30863205, -700855.56, 94533.14, 0.0, 10.001618, 9.998513 
2.3851404e+3, 2.2883318e+2, -704045.8, -801477.6, 27242.332, -0.01866162, -0.32516903, -696946.06, 456.43222, 0.0, 10.000567, 9.999268 
2.3850662e+3, 2.3883203e+2, -748733.94, -755300.94, 31801.111, -0.0049494226, -0.3438115, -720047.3, -120634.56, 0.0, 9.999515, 9.999419 
2.384992e+3, 2.4883151e+2, -736096.7, -598848.75, 33971.246, 0.016293952, -0.35757682, -590900.56, -89484.39, 0.0, 9.9985, 10.000309 
2.3849177e+3, 2.588314e+2, -774370.2, -549831.9, 39463.145, 0.03641975, -0.3723636, -543098.1, -139682.72, 0.0, 9.997493, 10.000458 
2.3848435e+3, 2.6883176e+2, -760369.7, -391949.53, 39644.383, 0.031479686, -0.40607902, -387731.84, -82322.13, 0.0, 9.996484, 10.001355 
2.3847693e+3, 2.7883247e+2, -817512.56, -381386.9, 29498.012, 0.024794126, -0.4415151, -379400.8, -172000.52, 0.0, 9.995474, 10.001242 
2.3846951e+3, 2.888338e+2, -832451.9, -282913.78, 26130.154, 0.041317873, -0.4233458, -281674.1, -172288.14, 0.0, 9.994463, 10.001732 
2.3846206e+3, 2.9883555e+2, -870617.7, -231825.97, 37775.137, 0.05211334, -0.39874682, -229599.89, -218231.66, 0.0, 9.993448, 10.001899 
2.3845467e+3, 3.0883637e+2, -895231.8, -102105.055, 22906.771, 0.07123292, -0.53417295, -101444.02, -101444.02, 0.0, 9.992441, 10.002939 
2.3844723e+3, 3.1884006e+2, -986720.75, -59159.895, -10964.153, 0.10245976, -0.4235349, -59030.313, -59030.313, 0.0, 9.991442, 10.0037155 
2.3958994e+3, 1.2894379e+2, -536298.2, -1666220.0, 590.6386, -0.0462222, -0.2998444, -536297.9, 1140023.8, 0.07247602, 10.01113, 9.994979 
2.3958234e+3, 1.3893843e+2, -561924.2, -1647584.3, -8637.856, -0.0561586, -0.30306733, -561855.44, 1016518.9, 0.051332902, 10.010063, 9.994945 
2.3957476e+3, 1.4893351e+2, -540199.06, -1522982.9, -14272.896, -0.06831388, -0.29345492, -539991.8, 940431.0, 0.03022259, 10.009036, 9.99562 
2.3956715e+3, 1.5892896e+2, -573585.7, -1499183.0, -14779.238, -0.069733135, -0.28331608, -573349.75, 809118.1, 0.013537194, 10.008018, 9.995602 
2.3955958e+3, 1.689247e+2, -575438.75, -1382561.8, -15207.572, -0.052420504, -0.27238426, -575152.3, 709358.0, 0.003959247, 10.00697, 9.996234 
2.3955198e+3, 1.7892078e+2, -612898.6, -1326610.9, -20792.852, -0.036340058, -0.264089, -612293.4, 574255.9, 0.0005202866, 10.005917, 9.996452 
2.3954439e+3, 1.8891732e+2, -606647.5, -1162100.1, -18912.55, -0.03901655, -0.2827925, -606004.3, 482577.9, 0.000014740753, 10.004806, 9.997444 
2.3953679e+3, 1.9891426e+2, -667097.3, -1133755.4, -15719.4, -0.04441705, -0.30612317, -666568.4, 324042.56, 0.0, 10.003688, 9.997504 
2.3952918e+3, 2.0891188e+2, -668971.8, -1001133.4, -19087.04, -0.046682775, -0.30536425, -667878.6, 224754.94, 0.0, 10.0026455, 9.998244 
2.3952161e+3, 2.1890992e+2, -706614.8, -946877.56, -21120.82, -0.04615174, -0.3022706, -704772.25, 89879.83, 0.0, 10.00162, 9.998438 
2.3951407e+3, 2.2890835e+2, -695749.9, -786150.44, -11883.797, -0.022339584, -0.32849756, -694213.75, 2452.2808, 0.0, 10.00057, 9.999374 
2.3950654e+3, 2.3890713e+2, -741745.06, -742878.7, -7173.2935, 0.005836257, -0.3597522, -735116.2, -136440.27, 0.0, 9.999518, 9.999506 
2.39499e+3, 2.4890679e+2, -732018.44, -592476.4, -4007.5298, 0.017775951, -0.3647611, -592361.4, -91683.664, 0.0, 9.998504, 10.000354 
2.3949148e+3, 2.5890684e+2, -776116.7, -555584.75, 1625.4596, 0.024293834, -0.3670518, -555572.75, -152897.47, 0.0, 9.997497, 10.00042 
2.3948395e+3, 2.68907e+2, -772425.9, -418803.94, 1301.7207, 0.024227329, -0.40271562, -418799.16, -114127.63, 0.0, 9.996487, 10.001172 
2.3947644e+3, 2.7890754e+2, -815875.4, -379048.9, -9069.7, 0.027721891, -0.4426515, -378860.7, -172196.3, 0.0, 9.995473, 10.001261 
2.3946895e+3, 2.8890908e+2, -808523.56, -234524.08, -11811.178, 0.057245445, -0.42618522, -234281.14, -125633.945, 0.0, 9.994462, 10.002068 
2.394614e+3, 2.9891104e+2, -870179.7, -232976.47, 1033.0859, 0.07520303, -0.407067, -232974.8, -222348.23, 0.0, 9.993451, 10.001893 
2.3945384e+3, 3.0891126e+2, -933806.5, -182914.94, -15427.143, 0.047172178, -0.56680477, -182598.11, -182598.11, 0.0, 9.992439, 10.002389 
2.3944636e+3, 3.18915e+2, -934688.4, 48271.387, -45055.92, 0.11600566, -0.41670242, 50332.293, 50332.293, 0.0, 9.991438, 10.004459 
2.4059099e+3, 1.2902002e+2, -578571.5, -1682955.9, 41325.016, -0.056470037, -0.30766344, -577027.3, 1098546.9, 0.07077744, 10.010782, 9.995025 
2.4058333e+3, 1.3901477e+2, -542826.4, -1636773.4, 30289.152, -0.06540773, -0.3028626, -541988.4, 1035637.5, 0.050026227, 10.010189, 9.994955 
2.4057561e+3, 1.4900981e+2, -529072.56, -1522369.3, 13361.863, -0.07713767, -0.29284775, -528892.9, 950782.0, 0.029355016, 10.009134, 9.995574 
2.405679e+3, 1.5900521e+2, -578355.8, -1497792.6, 6929.8013, -0.07861041, -0.2837988, -578303.6, 803417.0, 0.013072047, 10.007971, 9.99563 
2.4056023e+3, 1.6900098e+2, -591755.9, -1374923.6, 16568.64, -0.0552167, -0.2782508, -591405.5, 692356.8, 0.0037775962, 10.006795, 9.996367 
2.4055254e+3, 1.789971e+2, -648962.4, -1334826.5, 24413.82, -0.031718276, -0.27559534, -648094.44, 537706.0, 0.00048163644, 10.005634, 9.996529 
2.4054483e+3, 1.8899368e+2, -637433.7, -1178580.1, 21510.445, -0.035624545, -0.29052192, -636580.0, 451253.2, 0.000012605419, 10.004607, 9.997423 
2.405371e+3, 1.9899063e+2, -679415.44, -1140698.5, 15812.195, -0.044597052, -0.30865666, -678874.0, 310987.97, 0.0, 10.003613, 9.997489 
2.4052942e+3, 2.089882e+2, -677485.6, -1006713.0, 20595.049, -0.04928306, -0.30992836, -676202.3, 215682.92, 0.0, 10.0026, 9.998225 
2.4052173e+3, 2.1898617e+2, -713484.9, -949623.7, 28232.541, -0.05012071, -0.30966577, -710156.3, 83748.15, 0.0, 10.001576, 9.998437 
2.4051408e+3, 2.2898462e+2, -702709.1, -786745.75, 32965.15, -0.02046998, -0.33251724, -691321.1, 4596.9336, 0.0, 10.000517, 9.9993925 
2.4050647e+3, 2.3898348e+2, -748819.56, -742755.8, 32926.53, 0.013915333, -0.36029282, -712721.9, -114794.41, 0.0, 9.999461, 9.999531 
2.4049883e+3, 2.4898304e+2, -729925.44, -588468.6, 34653.1, 0.01767005, -0.37223822, -580435.7, -80506.23, 0.0, 9.998511, 10.000375 
2.4049118e+3, 2.5898305e+2, -766140.8, -550479.25, 37094.777, 0.014088788, -0.38226807, -544277.1, -142349.67, 0.0, 9.99757, 10.000416 
2.4048357e+3, 2.6898322e+2, -777714.94, -426401.56, 41092.605, 0.019584782, -0.41250432, -421659.03, -117735.234, 0.0, 9.996478, 10.001121 
2.4047598e+3, 2.7898374e+2, -831434.9, -385748.4, 39129.004, 0.0321428, -0.4455598, -382339.16, -176422.34, 0.0, 9.99537, 10.001262 
2.4046835e+3, 2.8898522e+2, -807367.6, -224892.34, 23095.813, 0.064198844, -0.43982354, -223978.0, -116077.875, 0.0, 9.994437, 10.002142 
2.4046074e+3, 2.9898712e+2, -860207.1, -227015.5, 17343.352, 0.081129596, -0.43162832, -226540.81, -216660.97, 0.0, 9.993521, 10.001897 
2.4045305e+3, 3.089876e+2, -945454.44, -200154.1, 21538.861, 0.040333524, -0.5571848, -199532.14, -199532.14, 0.0, 9.992415, 10.002278 
2.4044548e+3, 3.1899104e+2, -929033.4, 78365.766, 21918.75, 0.12356091, -0.4340486, 78842.445, 78842.445, 0.0, 9.991365, 10.004697 
2.4159203e+3, 1.2909713e+2, -573142.44, -1674775.6, 22639.143, -0.048826206, -0.3219948, -572677.4, 1102140.6, 0.06896974, 10.010774, 9.995088 
2.415843e+3, 1.3909222e+2, -545115.44, -1641550.9, 1835.2211, -0.087464236, -0.28768292, -545112.4, 1031754.25, 0.048647664, 10.010168, 9.994935 
2.415765e+3, 1.490871e+2, -542506.94, -1547025.9, -27671.748, -0.08421449, -0.284263, -541745.25, 937172.3, 0.028450256, 10.009103, 9.995423 
2.4156867e+3, 1.5908222e+2, -580190.0, -1495670.8, -33873.69, -0.06389222, -0.28998438, -578938.4, 802027.56, 0.012594237, 10.007936, 9.995666 
2.4156086e+3, 1.690781e+2, -572517.7, -1332975.3, -25467.463, -0.053207893, -0.29642668, -571665.75, 711340.2, 0.0035949487, 10.006781, 9.996665 
2.4155305e+3, 1.790744e+2, -639941.06, -1318447.9, -16008.986, -0.04807401, -0.3024592, -639563.5, 545478.06, 0.00044452687, 10.005639, 9.996642 
2.4154525e+3, 1.8907104e+2, -649140.6, -1204336.5, -14562.076, -0.044692494, -0.30184898, -648759.0, 438315.2, 0.0000108412205, 10.004608, 9.997249 
2.4153745e+3, 1.9906802e+2, -683525.44, -1149261.6, -20356.93, -0.041079085, -0.301817, -682637.3, 306466.03, 0.0, 10.003609, 9.997437 
2.4152966e+3, 2.0906554e+2, -669503.8, -990709.2, -16479.445, -0.042613905, -0.3147983, -668660.56, 222466.33, 0.0, 10.002596, 9.99834 
2.4152185e+3, 2.1906346e+2, -710387.5, -944519.25, -9919.829, -0.042721752, -0.330024, -709968.0, 83178.32, 0.0, 10.001576, 9.998475 
2.4151412e+3, 2.2906202e+2, -708075.06, -799811.5, -6669.647, -0.013583123, -0.33684647, -707592.7, -12433.723, 0.0, 10.00052, 9.999305 
2.415064e+3, 2.3906097e+2, -751841.3, -751256.1, -4930.5024, 0.019083284, -0.3455224, -746609.56, -149442.02, 0.0, 9.999465, 9.999474 
2.4149866e+3, 2.4906029e+2, -730874.2, -592729.25, -275.53555, 0.015939888, -0.38047734, -592728.7, -93556.93, 0.0, 9.998515, 10.000346 
2.4149092e+3, 2.5905997e+2, -764370.94, -549031.2, -894.86597, 0.005795664, -0.41900864, -549027.44, -147855.25, 0.0, 9.997574, 10.000427 
2.414832e+3, 2.6906034e+2, -772645.1, -417573.9, -1582.6168, 0.017634189, -0.43594956, -417566.88, -114400.24, 0.0, 9.99648, 10.0011835 
2.414755e+3, 2.790611e+2, -835068.5, -394479.0, 541.6049, 0.037938572, -0.4504159, -394478.3, -189320.9, 0.0, 9.995369, 10.0012045 
2.4146777e+3, 2.890622e+2, -823910.7, -261000.89, -10648.793, 0.060595356, -0.4662438, -260799.52, -153654.4, 0.0, 9.994439, 10.001896 
2.4146004e+3, 2.9906368e+2, -858627.5, -226101.28, -20983.967, 0.06711409, -0.47480214, -225405.9, -216277.13, 0.0, 9.9935255, 10.001904 
2.4145228e+3, 3.090655e+2, -917872.94, -143833.08, -21818.166, 0.055189855, -0.49434757, -143218.56, -143218.56, 0.0, 9.9924135, 10.002669 
2.4144457e+3, 3.1906793e+2, -962736.4, 7193.1997, 160.40521, 0.1133482, -0.4933096, 7193.226, 7193.226, 0.0, 9.9913645, 10.004212 
2.4259306e+3, 1.2917523e+2, -592866.9, -1683810.0, 56720.44, -0.062865995, -0.3205385, -589925.75, 1084126.5, 0.06705463, 10.010606, 9.995105 
2.4258526e+3, 1.3917036e+2, -579129.9, -1649333.1, 25781.17, -0.090597264, -0.28397766, -578509.1, 997591.6, 0.04720419, 10.009872, 9.995021 
2.4257734e+3, 1.4916529e+2, -590470.3, -1550937.0, -1292.9813, -0.08161861, -0.28932917, -590468.6, 887682.3, 0.027516508, 10.008676, 9.995598 
2.4256943e+3, 1.5916047e+2, -644829.5, -1510899.1, 13318.717, -0.057502367, -0.3046508, -644624.7, 735573.75, 0.012109934, 10.007419, 9.995807 
2.425615e+3, 1.6915646e+2, -605355.7, -1339026.4, 19837.012, -0.052009266, -0.30636644, -604819.75, 677417.44, 0.0034147936, 10.006516, 9.996747 
2.4255359e+3, 1.7915289e+2, -631411.2, -1306738.0, 15307.172, -0.053278185, -0.3055619, -631064.4, 553207.2, 0.00041020242, 10.005671, 9.996704 
2.4254568e+3, 1.8914956e+2, -655382.75, -1204068.9, 21851.832, -0.045493346, -0.3064868, -654513.9, 431790.28, 0.000009554849, 10.004558, 9.997272 
2.4253777e+3, 1.9914651e+2, -711645.7, -1158503.3, 28423.84, -0.03538208, -0.30900428, -709844.94, 278488.66, 0.0, 10.003403, 9.997468 
2.4252988e+3, 2.0914406e+2, -695981.8, -999003.8, 31752.16, -0.03591887, -0.320866, -692690.4, 197666.45, 0.0, 10.002401, 9.998373 
2.42522e+3, 2.19142e+2, -729839.1, -951244.2, 32760.152, -0.03635012, -0.33500054, -725093.5, 67282.51, 0.0, 10.001438, 9.998492 
2.4251413e+3, 2.2914052e+2, -715064.25, -804680.44, 37994.52, -0.009661631, -0.34349287, -701124.2, -6735.195, 0.0, 10.000484, 9.999285 
2.425063e+3, 2.3913942e+2, -743957.56, -747837.8, 44513.637, 0.019911917, -0.35392132, -701341.8, -104943.76, 0.0, 9.999527, 9.999464 
2.4249846e+3, 2.4913868e+2, -733055.06, -593756.9, 51077.95, 0.015194019, -0.39183843, -577035.0, -78632.41, 0.0, 9.9985075, 10.0003395 
2.4249062e+3, 2.5913832e+2, -780204.1, -558328.1, 49300.09, 0.0043861503, -0.43357944, -547867.06, -147463.64, 0.0, 9.997479, 10.000405 
2.4248281e+3, 2.6913863e+2, -772313.1, -422230.8, 39078.97, 0.018611606, -0.44872698, -417921.56, -115523.234, 0.0, 9.99651, 10.001134 
2.42475e+3, 2.7913934e+2, -815263.4, -391477.84, 34396.586, 0.04110236, -0.46014145, -388704.22, -184314.55, 0.0, 9.99554, 10.00114 
2.424672e+3, 2.8914034e+2, -824089.4, -271212.47, 31601.994, 0.05613226, -0.47487283, -269411.97, -163033.72, 0.0, 9.994489, 10.0018 
2.4245936e+3, 2.991418e+2, -868866.94, -225630.66, 29626.111, 0.056116983, -0.4843468, -224269.03, -215906.19, 0.0, 9.993439, 10.0019455 
2.4245152e+3, 3.091436e+2, -876963.3, -96777.78, 19148.867, 0.074345216, -0.5145453, -96308.07, -96308.07, 0.0, 9.992582, 10.002908 
2.4244368e+3, 3.1914607e+2, -953535.75, -36426.637, 31987.064, 0.107591584, -0.52233195, -35312.344, -35312.344, 0.0, 9.99164, 10.003777 
2.4359407e+3, 1.292542e+2, -587442.06, -1686220.4, 35830.426, -0.09162773, -0.30827093, -586274.9, 1087003.0, 0.0650439, 10.01064, 9.995073 
2.4358623e+3, 1.3924918e+2, -575554.9, -1632330.3, -5630.564, -0.079852104, -0.28920585, -575524.9, 999803.3, 0.045706157, 10.009812, 9.99517 
2.435782e+3, 1.4924432e+2, -567046.06, -1496240.3, -46414.332, -0.072360374, -0.3046389, -564733.4, 912642.2, 0.026560554, 10.008641, 9.995994 
2.4357015e+3, 1.5923981e+2, -630015.5, -1483194.8, -26009.34, -0.05790301, -0.32535547, -629223.3, 750196.1, 0.011622608, 10.007423, 9.995996 
2.4356213e+3, 1.6923596e+2, -613028.1, -1355605.1, -9111.102, -0.05135171, -0.3093627, -612916.3, 668540.9, 0.003238969, 10.006513, 9.996638 
2.4355413e+3, 1.792325e+2, -633373.1, -1307593.9, -19221.086, -0.04934011, -0.2895602, -632825.6, 550665.7, 0.0003793876, 10.005651, 9.996711 
2.4354611e+3, 1.8922912e+2, -644561.44, -1181223.4, -20609.61, -0.0395909, -0.30609518, -643771.1, 441752.84, 0.000008794255, 10.00455, 9.997435 
2.4353808e+3, 1.9922602e+2, -704881.9, -1147347.1, -11104.759, -0.028087003, -0.3283267, -704603.4, 282950.03, 0.0, 10.00341, 9.997544 
2.4353011e+3, 2.0922367e+2, -699004.44, -1007758.75, -3454.8215, -0.029283877, -0.32750493, -698965.8, 190609.97, 0.0, 10.002406, 9.998313 
2.435221e+3, 2.1922174e+2, -730653.4, -954635.9, -2266.4688, -0.031036988, -0.32569575, -730630.44, 60963.69, 0.0, 10.00144, 9.998471 
2.4351417e+3, 2.2922008e+2, -712888.8, -802207.56, 2838.2524, -0.008679764, -0.35284176, -712798.7, -19190.158, 0.0, 10.000488, 9.999303 
2.4350622e+3, 2.3921879e+2, -742103.5, -746230.2, 7530.836, 0.016461285, -0.38509822, -736358.5, -140739.31, 0.0, 9.999531, 9.9994755 
2.434983e+3, 2.4921821e+2, -732651.9, -595032.7, 11963.375, 0.015571027, -0.40569976, -594000.44, -96378.414, 0.0, 9.99851, 10.000332 
2.4349035e+3, 2.5921804e+2, -785308.4, -570744.3, 11627.832, 0.009988279, -0.4250309, -570116.0, -170494.88, 0.0, 9.997481, 10.000322 
2.4348244e+3, 2.692181e+2, -785238.1, -451190.94, 2972.348, 0.022494568, -0.45065457, -451164.5, -149545.47, 0.0, 9.996513, 10.0009365 
2.4347451e+3, 2.792185e+2, -820436.94, -405059.53, -3524.254, 0.04122384, -0.47515923, -405029.63, -201415.97, 0.0, 9.995545, 10.001046 
2.434666e+3, 2.892198e+2, -820216.06, -265079.84, -8911.435, 0.050631594, -0.46231335, -264936.8, -159337.67, 0.0, 9.994491, 10.001843 
2.4345867e+3, 2.992214e+2, -865513.6, -219353.98, -5871.5996, 0.048463758, -0.45564097, -219300.63, -211719.44, 0.0, 9.993435, 10.001993 
2.4345076e+3, 3.0922177e+2, -872967.06, -92318.484, -10514.4375, 0.098867826, -0.6395909, -92176.89, -92176.89, 0.0, 9.992593, 10.002937 
2.4344282e+3, 3.1922588e+2, -978058.3, -91822.766, -23375.531, 0.10830669, -0.47391367, -91206.63, -91206.63, 0.0, 9.9916525, 10.003393 
2.4459507e+3, 1.2933433e+2, -552612.44, -1667144.0, 68791.305, -0.12691051, -0.31265348, -548382.5, 1124109.3, 0.06295664, 10.010873, 9.995091 
2.4458718e+3, 1.3932914e+2, -665804.6, -1665160.1, 35446.996, -0.04527175, -0.31172535, -664548.94, 909994.7, 0.044164587, 10.009099, 9.995285 
2.4457903e+3, 1.4932455e+2, -613467.4, -1492430.1, -2852.7273, -0.056777652, -0.3188435, -613458.1, 863130.25, 0.025586575, 10.008197, 9.99623 
2.4457082e+3, 1.5932034e+2, -616066.0, -1459194.3, 8766.555, -0.074970074, -0.32742885, -615974.9, 762654.25, 0.011132807, 10.00745, 9.996145 
2.4456272e+3, 1.6931652e+2, -632732.2, -1362137.0, 29587.1, -0.05921161, -0.31570375, -631534.0, 649133.0, 0.0030672578, 10.00637, 9.996659 
2.4455464e+3, 1.79313e+2, -687030.4, -1324613.3, 26501.006, -0.04136841, -0.3023366, -685930.75, 496770.94, 0.00035190754, 10.005251, 9.996783 
2.4454653e+3, 1.8930973e+2, -661838.6, -1174184.8, 24788.387, -0.03443303, -0.31579474, -660642.1, 424090.88, 0.000008490832, 10.004372, 9.997566 
2.445384e+3, 1.9930682e+2, -683947.7, -1128500.9, 30991.81, -0.028646065, -0.3338262, -681797.5, 304963.5, 0.0, 10.003522, 9.997617 
2.445303e+3, 2.0930444e+2, -693335.75, -1006129.44, 38669.27, -0.027555536, -0.33364645, -688626.2, 200157.34, 0.0, 10.002457, 9.998297 
2.4452221e+3, 2.1930245e+2, -741775.44, -958747.7, 43822.633, -0.025907144, -0.33329186, -733258.7, 57543.582, 0.0, 10.001365, 9.998476 
2.4451418e+3, 2.2930077e+2, -720940.44, -803180.5, 51350.31, -0.005947471, -0.36290216, -696275.1, -3458.278, 0.0, 10.000426, 9.999323 
2.4450615e+3, 2.3929943e+2, -746432.44, -749705.6, 54002.023, 0.015969716, -0.39731547, -694042.2, -99214.57, 0.0, 9.999514, 9.999456 
2.4449812e+3, 2.4929884e+2, -736258.7, -605207.75, 50660.984, 0.017470699, -0.41230673, -587907.4, -91076.375, 0.0, 9.9985285, 10.00025 
2.4449009e+3, 2.5929865e+2, -783195.06, -576038.4, 46337.08, 0.014829555, -0.42522535, -566146.0, -167315.4, 0.0, 9.997529, 10.000259 
2.4448206e+3, 2.6929858e+2, -783517.5, -454973.34, 46446.008, 0.022152605, -0.4550458, -448533.53, -147703.94, 0.0, 9.9965515, 10.000889 
2.4447405e+3, 2.792989e+2, -818544.7, -405082.63, 47789.04, 0.035495367, -0.48435333, -399630.9, -196805.66, 0.0, 9.995569, 10.001032 
2.4446602e+3, 2.8930026e+2, -811131.1, -257662.9, 39495.21, 0.052603632, -0.4627271, -254858.75, -150048.9, 0.0, 9.994546, 10.0018635 
2.4445799e+3, 2.9930195e+2, -855481.8, -217941.94, 42188.965, 0.05796194, -0.4511532, -215162.22, -208370.81, 0.0, 9.9935255, 10.001956 
2.4445e+3, 3.0930173e+2, -878338.75, -108166.43, 29945.605, 0.0947097, -0.6796762, -107003.84, -107003.84, 0.0, 9.9926195, 10.002811 
2.4444194e+3, 3.193064e+2, -963746.8, -57922.508, -3333.349, 0.0977637, -0.45103818, -57910.242, -57910.242, 0.0, 9.991642, 10.003628 
2.455961e+3, 1.2941545e+2, -553432.06, -1665803.4, 5983.889, -0.16560888, -0.3287411, -553399.9, 1118295.4, 0.060807753, 10.010829, 9.995125 
2.4558811e+3, 1.3941011e+2, -659967.7, -1656019.9, -10698.287, 0.006211332, -0.34617585, -659852.8, 913895.56, 0.042584922, 10.009094, 9.995353 
2.4557984e+3, 1.4940582e+2, -606910.2, -1479701.0, -25417.496, -0.03741075, -0.3316829, -606170.56, 869620.0, 0.024594449, 10.008188, 9.9963255 
2.4557151e+3, 1.5940197e+2, -611630.3, -1446766.9, -22056.213, -0.10495185, -0.3155166, -611048.25, 766780.3, 0.010638531, 10.007427, 9.996245 
2.4556333e+3, 1.6939802e+2, -626848.1, -1348704.4, -11029.771, -0.07351677, -0.3252828, -626679.6, 653187.6, 0.0028977264, 10.006357, 9.99676 
2.4555515e+3, 1.7939435e+2, -679424.0, -1310579.0, -9343.125, -0.030346122, -0.33815566, -679285.75, 502617.4, 0.00032665595, 10.005253, 9.9968815 
2.4554692e+3, 1.8939136e+2, -656000.6, -1162907.4, -4612.5825, -0.030182147, -0.33319262, -655958.6, 427973.4, 0.0000084277735, 10.00437, 9.997647 
2.4553873e+3, 1.9938873e+2, -681283.75, -1122492.9, -3622.0313, -0.036045555, -0.32740906, -681254.0, 304703.3, 0.0, 10.003514, 9.997664 
2.4553052e+3, 2.0938626e+2, -693405.2, -1007234.2, -2218.3652, -0.030128133, -0.3398991, -693389.5, 194591.23, 0.0, 10.002455, 9.998293 
2.4552234e+3, 2.1938409e+2, -740351.06, -958305.94, 6310.159, -0.021011597, -0.3564502, -740168.5, 49832.47, 0.0, 10.001369, 9.998479 
2.4551418e+3, 2.2938254e+2, -719857.0, -803600.9, 17793.555, -0.0015911862, -0.3731383, -716233.1, -24218.836, 0.0, 10.000432, 9.99932 
2.4550608e+3, 2.3938136e+2, -750729.75, -760900.0, 18370.7, 0.01825065, -0.39095443, -736753.4, -142729.56, 0.0, 9.999518, 9.999381 
2.4549793e+3, 2.4938057e+2, -748207.5, -632052.5, 12792.465, 0.020772867, -0.41202512, -630660.4, -134630.69, 0.0, 9.998531, 10.000068 
2.4548979e+3, 2.593801e+2, -786511.94, -585080.44, 9020.791, 0.018675026, -0.43451896, -584677.25, -186645.13, 0.0, 9.997533, 10.000198 
2.4548167e+3, 2.6938012e+2, -776338.5, -442270.9, 9681.965, 0.01710193, -0.46180984, -441990.53, -141960.5, 0.0, 9.996554, 10.0009775 
2.4547356e+3, 2.7938053e+2, -814798.2, -399292.6, 10549.464, 0.023345063, -0.48744854, -399024.9, -197000.8, 0.0, 9.995572, 10.001073 
2.4546546e+3, 2.8938177e+2, -812553.6, -262527.3, 1074.8502, 0.06351542, -0.47853687, -262525.2, -158514.94, 0.0, 9.994549, 10.001833 
2.4545732e+3, 2.9938334e+2, -866243.8, -242557.17, 6617.9663, 0.086975046, -0.47356227, -242486.95, -236493.44, 0.0, 9.993529, 10.001788 
2.4544917e+3, 3.093837e+2, -901687.2, -158604.19, -3596.3247, 0.05374621, -0.6131055, -158586.78, -158586.78, 0.0, 9.992621, 10.002467 
2.4544106e+3, 3.1938726e+2, -890974.56, 92538.02, -52033.25, 0.082356684, -0.49228656, 95283.21, 95283.21, 0.0, 9.991637, 10.004666 
2.4659713e+3, 1.2949789e+2, -597028.25, -1667721.6, 31240.086, -0.16018744, -0.34303337, -596117.56, 1074768.6, 0.058602195, 10.010404, 9.995312 
2.4658896e+3, 1.3949259e+2, -661533.06, -1644197.3, 33662.277, 0.003449834, -0.37160742, -660381.25, 912556.94, 0.040964447, 10.00902, 9.995466 
2.4658059e+3, 1.4948839e+2, -634351.7, -1492120.1, 32720.816, -0.03528871, -0.35065037, -633105.3, 841874.56, 0.02357891, 10.007988, 9.996333 
2.4657221e+3, 1.5948462e+2, -662133.8, -1463634.1, 29143.586, -0.09672738, -0.3259576, -661075.5, 715941.9, 0.0101353815, 10.007046, 9.996309 
2.4656391e+3, 1.6948071e+2, -650417.44, -1345125.9, 37149.055, -0.07037839, -0.3401294, -648436.56, 630618.94, 0.0027274094, 10.006136, 9.996888 
2.4655564e+3, 1.7947708e+2, -679605.44, -1303034.4, 40443.375, -0.033240587, -0.35839927, -676992.75, 504098.2, 0.000302071, 10.005224, 9.996943 
2.4654734e+3, 1.8947417e+2, -678282.75, -1176195.9, 40763.91, -0.03019146, -0.34460637, -674967.5, 408152.0, 0.000008313328, 10.004234, 9.997618 
2.4653901e+3, 1.9947161e+2, -720700.9, -1139872.5, 33578.055, -0.03202165, -0.329078, -718028.1, 267116.44, 0.0, 10.003243, 9.997672 
2.4653074e+3, 2.0946907e+2, -708650.94, -1009256.75, 34249.59, -0.02592516, -0.3479762, -704798.06, 182370.17, 0.0, 10.002335, 9.998334 
2.4652244e+3, 2.1946684e+2, -730807.1, -953142.2, 45784.047, -0.017688205, -0.37265673, -721748.2, 67440.695, 0.0, 10.001439, 9.998478 
2.4651422e+3, 2.2946529e+2, -712813.25, -806834.6, 54693.08, -0.0030217285, -0.38445947, -687703.6, 3498.788, 0.0, 10.000516, 9.999254 
2.4650598e+3, 2.3946409e+2, -746152.8, -764236.6, 50257.387, 0.01226648, -0.39554077, -704130.44, -110918.266, 0.0, 9.999579, 9.999325 
2.4649775e+3, 2.4946322e+2, -743032.4, -635306.4, 49389.824, 0.01838265, -0.4180314, -616090.1, -120871.04, 0.0, 9.998598, 10.00001 
2.4648952e+3, 2.5946265e+2, -778300.5, -584159.4, 52981.67, 0.020810004, -0.4429254, -570641.75, -173419.11, 0.0, 9.997608, 10.000165 
2.464813e+3, 2.6946267e+2, -765367.2, -437489.03, 47935.59, 0.017799849, -0.46601534, -430624.56, -131404.14, 0.0, 9.996638, 10.000966 
2.4647307e+3, 2.794631e+2, -802200.6, -394650.16, 40416.55, 0.022572942, -0.4880042, -390680.72, -189466.31, 0.0, 9.99567, 10.001054 
2.464649e+3, 2.8946418e+2, -793503.94, -257436.5, 27201.99, 0.0695209, -0.49169013, -256059.7, -152857.3, 0.0, 9.994703, 10.00179 
2.4645667e+3, 2.994656e+2, -844213.44, -236838.23, 33254.09, 0.09589601, -0.49299595, -235022.98, -229835.92, 0.0, 9.993708, 10.001739 
2.4644838e+3, 3.0946663e+2, -913667.6, -170368.05, 40319.37, 0.02681547, -0.55868924, -168187.38, -168187.38, 0.0, 9.992572, 10.002407 
2.4644019e+3, 3.1946936e+2, -884360.5, 121541.195, -2765.721, 0.07935847, -0.52174914, 121548.8, 121548.8, 0.0, 9.991578, 10.004891 
2.4759817e+3, 1.2958145e+2, -579851.7, -1632154.6, -15990.589, -0.12620255, -0.35596013, -579608.75, 1090457.4, 0.05633874, 10.010374, 9.995587 
2.475898e+3, 1.3957635e+2, -653202.44, -1627969.5, -8453.104, -0.039318096, -0.3903476, -653129.1, 918986.3, 0.039296668, 10.009007, 9.995586 
2.4758135e+3, 1.4957209e+2, -638244.7, -1503793.0, 339.3671, -0.045002203, -0.37415606, -638244.56, 835913.3, 0.022532608, 10.007988, 9.996256 
2.4757293e+3, 1.595682e+2, -659311.75, -1461090.4, -2705.6282, -0.059248675, -0.35312983, -659302.6, 716893.9, 0.009618133, 10.007051, 9.996327 
2.475645e+3, 1.695645e+2, -641993.3, -1327811.9, 5284.9683, -0.054356765, -0.35852584, -641952.56, 636280.3, 0.0025533906, 10.00613, 9.997012 
2.475561e+3, 1.7956106e+2, -680693.8, -1303496.4, 5832.5474, -0.04760994, -0.36608592, -680639.2, 499627.25, 0.0002768585, 10.005211, 9.99695 
2.475477e+3, 1.8955806e+2, -688015.1, -1197557.8, 4428.5317, -0.03343239, -0.35148275, -687976.6, 394319.72, 0.000007923693, 10.004233, 9.997475 
2.4753933e+3, 1.9955534e+2, -722086.4, -1146479.6, -755.43475, -0.018275598, -0.3376247, -722085.0, 262238.16, 0.0, 10.003254, 9.997625 
2.4753094e+3, 2.0955285e+2, -703049.1, -1000860.56, 1766.6042, -0.015983237, -0.35732028, -703038.6, 183307.84, 0.0, 10.002342, 9.998391 
2.4752256e+3, 2.1955065e+2, -731888.6, -957895.4, 12472.035, -0.01599269, -0.38249293, -731202.44, 57164.11, 0.0, 10.001445, 9.9984455 
2.475142e+3, 2.2954895e+2, -722126.7, -828811.8, 20214.613, -0.010066542, -0.39708766, -718424.94, -28043.334, 0.0, 10.000522, 9.999104 
2.4750589e+3, 2.3954761e+2, -748972.8, -772583.8, 14249.376, -0.0018980602, -0.41083863, -742273.9, -149880.84, 0.0, 9.999585, 9.999269 
2.4749759e+3, 2.4954677e+2, -738946.0, -628977.9, 11972.782, 0.010283607, -0.43023404, -627689.44, -133290.1, 0.0, 9.998602, 10.000054 
2.4748926e+3, 2.595463e+2, -779798.56, -589460.5, 16138.828, 0.021180285, -0.4504399, -588101.75, -191699.55, 0.0, 9.997612, 10.00013 
2.4748093e+3, 2.6954627e+2, -774524.94, -458683.13, 11375.226, 0.0248321, -0.4673793, -458273.97, -159873.06, 0.0, 9.996642, 10.000822 
2.4747263e+3, 2.795466e+2, -808819.44, -410711.28, 3928.116, 0.034105312, -0.48553917, -410672.53, -210276.28, 0.0, 9.995675, 10.000945 
2.4746433e+3, 2.895474e+2, -797824.9, -269374.84, -9610.621, 0.06926455, -0.50204945, -269200.13, -166813.72, 0.0, 9.99471, 10.001708 
2.4745598e+3, 2.9954875e+2, -837431.25, -225964.39, -6922.127, 0.08138685, -0.50966364, -225886.05, -221513.94, 0.0, 9.993715, 10.001813 
2.4744758e+3, 3.0955055e+2, -895878.9, -133497.14, -3233.3335, 0.018074416, -0.51877517, -133483.44, -133483.44, 0.0, 9.992566, 10.002666 
2.4743931e+3, 3.195529e+2, -948376.75, -12234.699, -15211.391, 0.0846291, -0.5227715, -11987.594, -11987.594, 0.0, 9.991576, 10.003977 
2.485992e+3, 1.296663e+2, -615306.8, -1639479.5, 14838.421, -0.09081094, -0.36467147, -615091.9, 1054141.9, 0.054013014, 10.010052, 9.995686 
2.4859062e+3, 1.3966131e+2, -673169.1, -1628482.4, 21789.83, -0.062452823, -0.39519322, -672672.4, 898609.2, 0.037576023, 10.008814, 9.995673 
2.4858211e+3, 1.49657e+2, -645973.1, -1500525.0, 45439.914, -0.053393763, -0.388805, -643563.7, 829760.44, 0.021450168, 10.007901, 9.996317 
2.485736e+3, 1.5965308e+2, -660846.94, -1459109.4, 46438.848, -0.041765228, -0.3771494, -658154.44, 717208.75, 0.009082889, 10.007031, 9.996347 
2.485651e+3, 1.6964945e+2, -669226.44, -1344178.6, 44587.12, -0.04260743, -0.3706743, -666293.75, 611105.44, 0.0023736286, 10.005962, 9.996978 
2.4855657e+3, 1.7964609e+2, -726166.7, -1324993.3, 39825.215, -0.047552057, -0.36546314, -723529.7, 455902.6, 0.0002503379, 10.004903, 9.996947 
2.4854809e+3, 1.89643e+2, -700300.9, -1200195.8, 49208.332, -0.038616035, -0.35984105, -695503.0, 385960.0, 0.0000071792515, 10.004142, 9.997498 
2.4853963e+3, 1.9964018e+2, -701326.75, -1138099.9, 50307.633, -0.026007187, -0.35666767, -695607.2, 287883.63, 0.0, 10.00341, 9.997604 
2.4853113e+3, 2.0963767e+2, -691080.6, -1003211.25, 43847.242, -0.02075069, -0.37051314, -685038.06, 200476.36, 0.0, 10.002466, 9.998312 
2.4852265e+3, 2.1963546e+2, -726562.4, -957746.2, 47847.72, -0.017964296, -0.38849577, -717050.75, 70483.984, 0.0, 10.001498, 9.998418 
2.4851424e+3, 2.2963369e+2, -705651.75, -818450.94, 64554.18, -0.015994221, -0.40862945, -676330.0, 13220.285, 0.0, 10.00063, 9.999119 
2.4850582e+3, 2.3963226e+2, -725612.4, -762698.6, 65512.21, -0.011715706, -0.42862764, -676069.56, -84507.23, 0.0, 9.999758, 9.999249 
2.4849741e+3, 2.4963139e+2, -728803.6, -630850.6, 53789.492, 0.0063844332, -0.44299933, -607080.94, -113511.914, 0.0, 9.998707, 9.999988 
2.4848899e+3, 2.5963092e+2, -779932.56, -593305.2, 51914.957, 0.02479031, -0.45694464, -579835.9, -184263.6, 0.0, 9.997634, 10.00009 
2.4848057e+3, 2.6963082e+2, -775192.06, -461101.5, 54039.1, 0.033433165, -0.47396168, -452064.13, -154492.58, 0.0, 9.996653, 10.000797 
2.4847217e+3, 2.7963114e+2, -810651.2, -415435.66, 53760.684, 0.045663465, -0.4918932, -408253.2, -208685.69, 0.0, 9.995685, 10.000904 
2.4846376e+3, 2.89632e+2, -801872.06, -278191.28, 41015.277, 0.07073408, -0.49925247, -274998.4, -173440.78, 0.0, 9.994718, 10.00164 
2.4845532e+3, 2.9963326e+2, -837646.94, -229218.31, 38559.984, 0.073147476, -0.50174975, -226784.25, -223240.56, 0.0, 9.993733, 10.001778 
2.4844682e+3, 3.0963477e+2, -882057.6, -126749.9, 19737.092, 0.029035851, -0.5410525, -126234.49, -126234.49, 0.0, 9.992666, 10.002662 
2.4843843e+3, 3.196373e+2, -965833.8, -52283.15, 20622.24, 0.078104824, -0.51385313, -51817.863, -51817.863, 0.0, 9.991599, 10.003687 
2.496002e+3, 1.2975226e+2, -619162.56, -1647614.5, -28542.496, -0.055373922, -0.36978143, -618371.0, 1050019.6, 0.051618814, 10.010022, 9.995643 
2.4959145e+3, 1.3974735e+2, -668656.4, -1622565.8, -14526.479, -0.07146612, -0.39020732, -668435.25, 902002.7, 0.035799712, 10.008809, 9.995719 
2.4958286e+3, 1.49743e+2, -635457.8, -1480753.6, 16407.914, -0.061007384, -0.39716235, -635139.44, 837340.7, 0.020330476, 10.007897, 9.996457 
2.4957427e+3, 1.5973906e+2, -661453.75, -1460977.0, 11241.64, -0.03973374, -0.39872986, -661295.7, 713223.25, 0.008528991, 10.007025, 9.996341 
2.4956565e+3, 1.6973543e+2, -680711.2, -1370452.9, 4593.358, -0.034006346, -0.3778384, -680680.56, 595874.8, 0.0021877594, 10.005965, 9.9967985 
2.4955703e+3, 1.7973208e+2, -725645.3, -1328390.5, 7130.653, -0.03608108, -0.35813046, -725560.94, 453028.2, 0.00022246181, 10.004916, 9.996921 
2.4954847e+3, 1.8972892e+2, -689330.4, -1180336.8, 23923.719, -0.045982894, -0.3695257, -688167.44, 392452.7, 0.0000061180367, 10.0041485, 9.997634 
2.495399e+3, 1.9972602e+2, -702964.1, -1142655.8, 19346.105, -0.052328162, -0.38471946, -702114.56, 280533.7, 0.0, 10.003409, 9.997576 
2.4953133e+3, 2.0972343e+2, -705744.0, -1035853.44, 7760.648, -0.038317263, -0.38700408, -705561.7, 179111.06, 0.0, 10.00247, 9.998089 
2.4952278e+3, 2.197212e+2, -727977.2, -963819.3, 14598.69, -0.023262478, -0.3909978, -727076.94, 59616.89, 0.0, 10.001506, 9.998375 
2.4951425e+3, 2.2971943e+2, -694288.56, -797283.1, 33230.023, -0.020845128, -0.41918546, -684497.94, 4210.8975, 0.0, 10.000635, 9.999265 
2.4950576e+3, 2.3971803e+2, -725783.44, -764901.4, 29231.115, -0.017355965, -0.448835, -710171.2, -119450.84, 0.0, 9.99976, 9.999236 
2.4949723e+3, 2.4971709e+2, -742353.6, -660837.44, 12738.988, 0.0066406806, -0.4562429, -658893.06, -166164.72, 0.0, 9.998709, 9.9997835 
2.4948873e+3, 2.5971648e+2, -783673.9, -603020.06, 13224.468, 0.031602208, -0.4624521, -602057.1, -207324.19, 0.0, 9.997637, 10.000025 
2.4948022e+3, 2.697164e+2, -768962.56, -450095.44, 17694.771, 0.043588944, -0.48640844, -449116.53, -152384.14, 0.0, 9.9966545, 10.0008745 
2.4947171e+3, 2.797167e+2, -809385.06, -414589.97, 17765.125, 0.057163823, -0.50790465, -413792.2, -215064.3, 0.0, 9.995687, 10.000913 
2.494632e+3, 2.8971785e+2, -806884.1, -290135.75, 5029.241, 0.07419948, -0.48042873, -290086.8, -189371.5, 0.0, 9.994719, 10.001561 
2.4945466e+3, 2.9971924e+2, -851169.3, -258560.69, 900.2376, 0.07236263, -0.4655304, -258559.31, -255858.31, 0.0, 9.993732, 10.00158 
2.494461e+3, 3.0971903e+2, -906111.94, -178652.44, -21125.35, 0.06449619, -0.6435202, -178039.47, -178039.47, 0.0, 9.992668, 10.002307 
2.4943753e+3, 3.197229e+2, -928212.8, 24557.99, -19218.738, 0.050858486, -0.46741062, 24945.502, 24945.502, 0.0, 9.991597, 10.004219 
2.5060114e+3, 1.2983918e+2, -655579.1, -1654742.5, 1435.7195, -0.04372832, -0.38511166, -655577.06, 1011960.7, 0.049151246, 10.009691, 9.995747 
2.505923e+3, 1.3983439e+2, -684552.44, -1625779.8, 26417.545, -0.07184738, -0.39977443, -683811.5, 885772.2, 0.033967923, 10.008665, 9.995763 
2.505836e+3, 1.4983009e+2, -658754.44, -1495347.5, 55302.26, -0.061696433, -0.40274894, -655114.56, 816511.3, 0.019176412, 10.007745, 9.996428 
2.5057492e+3, 1.5982611e+2, -688168.06, -1475869.1, 39610.965, -0.038957078, -0.40226978, -686181.2, 687483.8, 0.0079594385, 10.00685, 9.996319 
2.505662e+3, 1.6982241e+2, -685449.3, -1374169.0, 37627.094, -0.03645677, -0.38724598, -683399.75, 592302.7, 0.0019975577, 10.005944, 9.99678 
2.5055748e+3, 1.7981897e+2, -708929.4, -1321798.0, 50661.996, -0.041604, -0.37226427, -704769.75, 472967.28, 0.00019379839, 10.005044, 9.996901 
2.5054884e+3, 1.8981585e+2, -690912.06, -1183579.0, 62670.785, -0.049940232, -0.37484843, -683064.9, 396702.8, 0.0000048598017, 10.004155, 9.997605 
2.505402e+3, 1.99813e+2, -720621.94, -1148351.9, 48395.117, -0.055071417, -0.38208714, -715214.6, 266580.78, 0.0, 10.003283, 9.997595 
2.5053155e+3, 2.0981036e+2, -701221.1, -1026820.44, 49549.125, -0.04436243, -0.3932004, -693847.8, 189972.47, 0.0, 10.002479, 9.998143 
2.5052288e+3, 2.1980804e+2, -706767.25, -953154.9, 69680.516, -0.03144229, -0.40571362, -688426.3, 97415.47, 0.0, 10.001657, 9.998372 
2.5051427e+3, 2.298063e+2, -700290.2, -807736.3, 74977.78, -0.021648588, -0.42508158, -661775.3, 26081.621, 0.0, 10.000633, 9.99919 
2.505057e+3, 2.3980492e+2, -751607.94, -779769.2, 57974.727, -0.010923767, -0.4454438, -706028.44, -116159.73, 0.0, 9.999599, 9.9992075 
2.5049707e+3, 2.4980392e+2, -739437.6, -658072.06, 51904.81, 0.00969938, -0.45789787, -632806.4, -140929.17, 0.0, 9.99873, 9.999789 
2.5048846e+3, 2.5980327e+2, -753888.94, -591741.75, 63173.844, 0.030730095, -0.46962625, -570034.7, -176152.17, 0.0, 9.997861, 9.999991 
2.5047985e+3, 2.6980314e+2, -749196.8, -449391.7, 56719.38, 0.045680337, -0.48796123, -439019.88, -143137.45, 0.0, 9.996835, 10.00079 
2.5047126e+3, 2.798034e+2, -796104.6, -408822.13, 46472.88, 0.062248796, -0.50425786, -403323.56, -205445.16, 0.0, 9.995787, 10.0009 
2.5046265e+3, 2.898045e+2, -794937.7, -277903.56, 40208.215, 0.07479184, -0.4860825, -274795.38, -174928.97, 0.0, 9.994779, 10.001613 
2.5045398e+3, 2.998058e+2, -849604.4, -265148.4, 44809.145, 0.07033205, -0.4773647, -261732.92, -259880.3, 0.0, 9.993781, 10.001509 
2.5044537e+3, 3.0980566e+2, -894596.5, -195395.9, 32102.873, 0.081335865, -0.6270914, -193925.03, -193925.03, 0.0, 9.99285, 10.002101 
2.5043663e+3, 3.1980938e+2, -900990.4, 58145.914, 19369.121, 0.039999593, -0.45252022, 58536.9, 58536.9, 0.0, 9.991703, 10.0043955 
2.5160208e+3, 1.2992702e+2, -644464.6, -1631741.1, -33582.06, -0.04756844, -0.40781716, -643323.6, 1023352.3, 0.046613406, 10.009661, 9.99593 
2.5159314e+3, 1.399224e+2, -678883.94, -1622852.4, -7480.301, -0.066394135, -0.4193766, -678824.7, 889895.44, 0.03208747, 10.008683, 9.995777 
2.5158432e+3, 1.4991812e+2, -667739.25, -1520376.8, 23782.375, -0.057738446, -0.40583834, -667076.44, 803686.0, 0.017996062, 10.007756, 9.996253 
2.515756e+3, 1.5991414e+2, -690673.44, -1483329.4, 7415.5815, -0.039362952, -0.3922849, -690604.06, 682198.1, 0.007380884, 10.00685, 9.996271 
2.5156674e+3, 1.6991025e+2, -678457.9, -1362334.1, 5102.949, -0.047691904, -0.39880824, -678419.8, 596421.0, 0.0018067502, 10.005949, 9.996861 
2.5155795e+3, 1.7990668e+2, -710176.94, -1327924.9, 18171.34, -0.06070365, -0.4034011, -709642.9, 467233.53, 0.00016547229, 10.0050535, 9.996858 
2.515492e+3, 1.899037e+2, -702611.9, -1210686.4, 30781.521, -0.05065851, -0.3759208, -700753.8, 378152.5, 0.000003583584, 10.004161, 9.997418 
2.515405e+3, 1.9990101e+2, -716601.06, -1142153.5, 18219.979, -0.03779554, -0.3532439, -715822.4, 265110.63, 0.0, 10.003286, 9.997639 
2.5153175e+3, 2.0989835e+2, -681191.06, -987134.2, 20699.162, -0.04068788, -0.3908061, -679797.0, 203160.55, 0.0, 10.0024805, 9.998418 
2.51523e+3, 2.1989594e+2, -706395.4, -953899.25, 35544.258, -0.04241871, -0.4314511, -701392.0, 83587.055, 0.0, 10.0016575, 9.99837 
2.5151432e+3, 2.2989424e+2, -721052.56, -852701.06, 35471.99, -0.018410653, -0.42603645, -712103.2, -25108.21, 0.0, 10.000636, 9.998884 
2.5150564e+3, 2.3989287e+2, -754609.25, -788329.75, 22057.564, 0.007164372, -0.41908196, -743706.1, -154698.61, 0.0, 9.999604, 9.99915 
2.514969e+3, 2.4989183e+2, -724989.0, -630407.06, 20185.12, 0.01519311, -0.44820705, -626279.44, -135263.61, 0.0, 9.9987335, 9.999981 
2.5148818e+3, 2.5989112e+2, -755251.94, -597120.9, 27769.902, 0.02153316, -0.4784203, -592385.9, -199364.97, 0.0, 9.997866, 9.999955 
2.514795e+3, 2.6989096e+2, -768230.9, -491327.1, 16894.617, 0.039043345, -0.4772545, -490300.13, -195278.52, 0.0, 9.99684, 10.000503 
2.514708e+3, 2.7989113e+2, -798734.9, -416436.22, 7647.8843, 0.06016057, -0.47917405, -416283.28, -219264.3, 0.0, 9.9957905, 10.00085 
2.5146207e+3, 2.8989175e+2, -781879.44, -252564.58, 2514.4114, 0.072074234, -0.52164274, -252552.63, -153541.34, 0.0, 9.99478, 10.001789 
2.514533e+3, 2.9989287e+2, -845263.7, -257746.22, 9556.732, 0.06637622, -0.544558, -257590.81, -256592.08, 0.0, 9.993782, 10.001562 
2.5144458e+3, 3.098951e+2, -896814.9, -203545.11, -815.6306, 0.07455341, -0.45751506, -203544.16, -203544.16, 0.0, 9.992859, 10.002045 
2.514358e+3, 3.1989637e+2, -925264.7, 7188.0234, -50877.76, 0.05782993, -0.5171171, 9955.869, 9955.869, 0.0, 9.991698, 10.00405 
2.52603e+3, 1.30016e+2, -691644.1, -1655196.9, 10637.358, -0.014599694, -0.41944638, -691526.7, 974276.2, 0.04401881, 10.009305, 9.995928 
2.5259393e+3, 1.4001141e+2, -669899.56, -1622159.4, 23526.035, -0.095614634, -0.42594177, -669318.7, 898528.4, 0.030173294, 10.008753, 9.995746 
2.5258505e+3, 1.5000705e+2, -670431.7, -1529227.8, 53374.664, -0.06871386, -0.41404942, -667127.1, 802763.25, 0.016802292, 10.007767, 9.996184 
2.5257623e+3, 1.6000298e+2, -706459.06, -1492443.5, 44146.49, -0.025982577, -0.4019266, -703987.3, 667943.75, 0.0068018814, 10.00675, 9.996253 
2.5256732e+3, 1.6999915e+2, -680981.4, -1359941.1, 42394.594, -0.047713578, -0.40326136, -678344.5, 595624.56, 0.00161961, 10.005921, 9.996888 
2.525584e+3, 1.7999563e+2, -701031.9, -1320845.9, 51849.215, -0.07608154, -0.40422937, -696724.5, 479279.7, 0.00013879822, 10.005111, 9.996875 
2.525496e+3, 1.8999253e+2, -700629.75, -1209483.5, 72158.375, -0.057671625, -0.38571957, -690595.1, 387439.84, 0.0000024706633, 10.00418, 9.997415 
2.525408e+3, 1.9998978e+2, -721013.0, -1141015.3, 69357.34, -0.034269933, -0.3698801, -709856.0, 270206.5, 0.0, 10.003248, 9.997661 
2.5253195e+3, 2.0998724e+2, -690417.9, -986318.0, 60876.09, -0.038240846, -0.39415306, -678383.2, 203702.66, 0.0, 10.002401, 9.998458 
2.5252312e+3, 2.1998502e+2, -720789.9, -958646.75, 59798.773, -0.04283582, -0.42187306, -706602.3, 77503.84, 0.0, 10.001556, 9.998383 
2.5251433e+3, 2.2998323e+2, -725734.6, -857973.1, 70269.06, -0.018845322, -0.42023516, -695368.1, -9245.219, 0.0, 10.000624, 9.99885 
2.5250557e+3, 2.3998176e+2, -745831.0, -785734.0, 74079.586, 0.008117622, -0.4182921, -689063.25, -100926.734, 0.0, 9.999679, 9.999128 
2.5249675e+3, 2.4998067e+2, -725214.1, -631822.44, 62167.895, 0.02002444, -0.44861662, -600766.44, -110621.18, 0.0, 9.998745, 9.999962 
2.5248793e+3, 2.5997993e+2, -763321.4, -600716.1, 55981.13, 0.028589005, -0.4790669, -583307.06, -191156.42, 0.0, 9.997816, 9.99995 
2.5247914e+3, 2.699798e+2, -760376.75, -487645.3, 58878.816, 0.039452784, -0.4730512, -475477.13, -181326.14, 0.0, 9.996901, 10.000495 
2.5247034e+3, 2.7997997e+2, -775649.94, -408349.6, 64432.566, 0.05531651, -0.47260234, -397374.66, -201226.19, 0.0, 9.995968, 10.000816 
2.5246152e+3, 2.899803e+2, -759824.2, -249343.11, 42980.414, 0.0763998, -0.53514713, -245749.63, -147605.97, 0.0, 9.994969, 10.001717 
2.5245267e+3, 2.999813e+2, -812983.5, -233348.13, 37043.535, 0.076526225, -0.5668779, -230990.31, -230857.78, 0.0, 9.993972, 10.001635 
2.5244382e+3, 3.0998453e+2, -852002.75, -157069.2, 44156.22, 0.059294026, -0.39438286, -154274.75, -154274.75, 0.0, 9.993066, 10.00226 
2.5243497e+3, 3.1998473e+2, -881083.06, -20187.469, -10209.916, 0.082500786, -0.56420547, -20066.4, -20066.4, 0.0, 9.992217, 10.003609 
2.5360397e+3, 1.3010602e+2, -698690.06, -1676772.0, -7188.904, 0.04061086, -0.42312005, -698637.2, 966282.75, 0.041387852, 10.009303, 9.995781 
2.5359473e+3, 1.4010136e+2, -673096.6, -1634332.9, -4101.7764, -0.14948225, -0.42316428, -673079.1, 893886.3, 0.028244631, 10.008754, 9.995665 
2.5358576e+3, 1.5009682e+2, -670455.94, -1531985.3, 15319.399, -0.08959786, -0.42617455, -670183.6, 798826.6, 0.015609415, 10.007764, 9.996169 
2.5357687e+3, 1.600926e+2, -707498.9, -1495889.9, 10432.487, -0.0022377623, -0.42602012, -707360.9, 663691.1, 0.006230507, 10.006746, 9.996235 
2.5356787e+3, 1.70089e+2, -683619.7, -1366179.0, 13818.473, -0.039423328, -0.40160033, -683340.06, 589748.0, 0.0014396389, 10.0059185, 9.99685 
2.5355887e+3, 1.8008567e+2, -697823.6, -1314597.8, 20341.484, -0.08876879, -0.38114327, -697153.44, 477967.94, 0.00011483283, 10.005107, 9.9969225 
2.5354996e+3, 1.900823e+2, -691857.1, -1192314.3, 37414.973, -0.070075065, -0.40367922, -689075.44, 388079.06, 0.0000016260543, 10.004179, 9.997536 
2.5354105e+3, 2.0007923e+2, -722307.3, -1145503.4, 36411.31, -0.04242555, -0.42501074, -719197.4, 259986.88, 0.0, 10.00325, 9.997632 
2.5353214e+3, 2.1007705e+2, -702789.75, -1014111.6, 30332.572, -0.036604743, -0.40135938, -699861.94, 181343.56, 0.0, 10.002404, 9.998268 
2.5352323e+3, 2.2007515e+2, -719008.4, -957040.7, 27206.084, -0.033874094, -0.38019064, -715938.44, 67285.125, 0.0, 10.001559, 9.998395 
2.5351435e+3, 2.3007321e+2, -710880.4, -829251.5, 35084.445, -0.023255054, -0.40891296, -701262.94, -16021.914, 0.0, 10.000627, 9.999048 
2.5350547e+3, 2.4007154e+2, -746566.0, -789321.56, 38543.76, -0.007689123, -0.4423656, -723868.5, -136612.61, 0.0, 9.999681, 9.999105 
2.534966e+3, 2.500704e+2, -742246.5, -669254.2, 26859.938, 0.024698276, -0.458628, -660435.56, -171169.89, 0.0, 9.998748, 9.999706 
2.534877e+3, 2.6006964e+2, -761331.5, -598478.8, 21210.207, 0.0526466, -0.47133967, -595761.7, -204489.94, 0.0, 9.997818, 9.999968 
2.534788e+3, 2.700696e+2, -740550.25, -448583.5, 24638.896, 0.047071878, -0.4764711, -446518.84, -153248.38, 0.0, 9.996903, 10.000765 
2.5346988e+3, 2.800699e+2, -778274.3, -416554.88, 28975.445, 0.04719611, -0.4863615, -414248.5, -218981.98, 0.0, 9.995974, 10.00076 
2.53461e+3, 2.9007015e+2, -785836.5, -306204.84, 5174.8374, 0.089161694, -0.5215072, -306149.03, -208886.27, 0.0, 9.994976, 10.001327 
2.5345206e+3, 3.0007103e+2, -805541.3, -220947.17, 1527.429, 0.10329195, -0.5375019, -220943.17, -220943.17, 0.0, 9.9939785, 10.001719 
2.5344306e+3, 3.1007367e+2, -812899.44, -79668.67, 11640.132, 0.0324108, -0.4698469, -79483.93, -79483.93, 0.0, 9.993075, 10.00279 
2.5343418e+3, 3.2007506e+2, -918444.56, -107650.69, -30686.432, 0.1184121, -0.54287225, -106490.945, -106490.945, 0.0, 9.992253, 10.002995 
2.5460485e+3, 1.3019674e+2, -718284.9, -1685044.5, 22059.506, 0.032582004, -0.41665938, -717781.8, 946249.25, 0.03873988, 10.009136, 9.995801 
2.5459555e+3, 1.4019212e+2, -684975.56, -1636494.8, 21448.375, -0.13727888, -0.41254696, -684492.4, 881583.75, 0.026317617, 10.008643, 9.9957 
2.5458652e+3, 1.5018755e+2, -684924.7, -1533926.5, 33715.37, -0.08186951, -0.4226122, -683587.9, 784533.1, 0.014428446, 10.007639, 9.996213 
2.5457752e+3, 1.601833e+2, -725928.9, -1499366.4, 36710.84, -0.0013048906, -0.4302752, -724190.3, 645972.7, 0.005672489, 10.006598, 9.996279 
2.545684e+3, 1.701797e+2, -705197.9, -1372226.5, 48949.793, -0.036757957, -0.40773654, -701624.8, 570574.1, 0.0012689675, 10.005756, 9.996883 
2.5455934e+3, 1.8017638e+2, -718165.75, -1317350.6, 56166.37, -0.083358765, -0.38740924, -712946.3, 461285.75, 0.000094020164, 10.004943, 9.996979 
2.5455034e+3, 1.9017307e+2, -702988.3, -1189195.3, 68094.36, -0.06524725, -0.4075068, -693631.56, 382632.66, 0.0000010440806, 10.004073, 9.997605 
2.5454137e+3, 2.0017007e+2, -727971.6, -1144829.6, 66140.75, -0.038995348, -0.42733222, -717729.06, 260564.31, 0.0, 10.003203, 9.997656 
2.5453234e+3, 2.1016784e+2, -711274.7, -1021578.3, 69762.766, -0.034800418, -0.40407586, -696312.0, 184003.25, 0.0, 10.002368, 9.998231 
2.5452337e+3, 2.2016592e+2, -721706.2, -954477.1, 72220.586, -0.03337515, -0.38263085, -701119.44, 81214.54, 0.0, 10.001531, 9.998423 
2.5451437e+3, 2.3016402e+2, -703659.44, -816149.3, 71284.84, -0.025285184, -0.41359907, -669102.25, 15248.6875, 0.0, 10.000642, 9.999127 
2.545054e+3, 2.4016236e+2, -734672.94, -778870.5, 69453.9, -0.012361873, -0.4498287, -683886.9, -97521.59, 0.0, 9.99975, 9.999141 
2.5449643e+3, 2.501612e+2, -725409.25, -663097.4, 71528.19, 0.02008978, -0.46387047, -616234.25, -127859.08, 0.0, 9.998879, 9.999682 
2.5448745e+3, 2.6016042e+2, -736321.6, -586976.5, 76615.07, 0.049346108, -0.47398496, -554663.75, -164282.33, 0.0, 9.997999, 9.999956 
2.5447845e+3, 2.7016038e+2, -717545.3, -437899.9, 61126.004, 0.045875255, -0.4832046, -425122.56, -132741.67, 0.0, 9.99707, 10.000754 
2.5446945e+3, 2.8016058e+2, -756879.0, -406846.13, 48591.77, 0.04843181, -0.49538237, -400225.8, -205848.42, 0.0, 9.99613, 10.000748 
2.5446048e+3, 2.9016098e+2, -757873.2, -295661.22, 44887.25, 0.096048765, -0.51391584, -291342.38, -194969.9, 0.0, 9.995187, 10.001293 
2.5445145e+3, 3.001619e+2, -770798.2, -203489.72, 59420.758, 0.11294312, -0.5221483, -197332.72, -197332.72, 0.0, 9.994221, 10.001719 
2.5444233e+3, 3.101639e+2, -794557.6, -67536.375, 35375.33, 0.03011715, -0.5191736, -65819.14, -65819.14, 0.0, 9.993194, 10.002814 
2.544334e+3, 3.2016587e+2, -896312.9, -86023.76, -2474.4063, 0.14645657, -0.5344341, -86016.2, -86016.2, 0.0, 9.992365, 10.003086 
2.5560564e+3, 1.3028815e+2, -701945.8, -1666222.9, 9080.253, -0.015317242, -0.4030828, -701860.3, 961275.56, 0.036088098, 10.009177, 9.9959135 
2.5559643e+3, 1.4028367e+2, -679436.75, -1624813.6, -5363.7495, -0.07836663, -0.3965716, -679406.3, 885773.2, 0.024401514, 10.008621, 9.995793 
2.5558725e+3, 1.5027916e+2, -680955.8, -1525759.1, -4432.3574, -0.05485322, -0.4077855, -680932.56, 786290.94, 0.013265422, 10.007625, 9.996279 
2.5557813e+3, 1.6027492e+2, -720087.2, -1489473.6, 3716.117, -0.017768627, -0.4199502, -720069.2, 649195.7, 0.0051311054, 10.006599, 9.996349 
2.5556895e+3, 1.7027116e+2, -700254.56, -1363190.6, 20572.47, -0.03785798, -0.4203672, -699616.75, 571685.5, 0.0011085656, 10.005755, 9.996949 
2.555598e+3, 1.8026775e+2, -715696.1, -1312402.6, 25948.447, -0.06350234, -0.41653606, -714569.9, 458766.3, 0.00007619992, 10.004938, 9.997019 
2.555507e+3, 1.9026485e+2, -702740.3, -1189350.1, 36490.395, -0.046530582, -0.39848053, -700019.1, 375345.7, 0.0000006568402, 10.00407, 9.997608 
2.5554165e+3, 2.0026219e+2, -724217.0, -1138268.4, 35184.9, -0.026152475, -0.3850087, -721248.4, 256142.5, 0.0, 10.003203, 9.997704 
2.5553253e+3, 2.102596e+2, -705588.94, -1011256.7, 39526.285, -0.033128515, -0.404205, -700560.5, 178855.17, 0.0, 10.002369, 9.998305 
2.5552347e+3, 2.2025731e+2, -720411.06, -953284.25, 40407.055, -0.040530697, -0.42523292, -713599.1, 67838.34, 0.0, 10.001532, 9.998433 
2.555144e+3, 2.302556e+2, -707068.2, -825069.2, 38037.746, -0.024842193, -0.43244326, -695869.44, -12416.66, 0.0, 10.000645, 9.999068 
2.5550532e+3, 2.402542e+2, -728405.94, -768064.56, 36330.07, -0.006648496, -0.44115412, -706845.94, -121380.945, 0.0, 9.999753, 9.999216 
2.5549626e+3, 2.502531e+2, -711484.06, -636477.4, 38803.695, 0.005326757, -0.46473154, -620015.7, -132541.98, 0.0, 9.998883, 9.9998665 
2.5548717e+3, 2.6025236e+2, -741004.3, -599111.7, 42746.39, 0.01722138, -0.48748598, -587229.06, -197749.36, 0.0, 9.998004, 9.999873 
2.554781e+3, 2.7025202e+2, -740451.1, -487850.38, 25663.178, 0.035681598, -0.49318925, -485269.47, -193787.25, 0.0, 9.997074, 10.000413 
2.5546905e+3, 2.8025204e+2, -753526.94, -402384.38, 12993.518, 0.06016173, -0.49910477, -401904.22, -208423.05, 0.0, 9.996135, 10.000779 
2.5545996e+3, 2.9025277e+2, -731284.1, -243630.44, 9873.18, 0.09543621, -0.51384854, -243430.63, -147958.16, 0.0, 9.995194, 10.001651 
2.5545084e+3, 3.0025387e+2, -780084.75, -226388.55, 23537.47, 0.102206916, -0.5232561, -225389.77, -225389.77, 0.0, 9.99423, 10.001561 
2.5544164e+3, 3.1025523e+2, -838889.75, -161285.73, -4476.9375, 0.059918508, -0.5341171, -161256.16, -161256.16, 0.0, 9.993195, 10.002172 
2.554326e+3, 3.2025695e+2, -820290.3, 67925.63, -11098.627, 0.1524997, -0.5544388, 68064.29, 68064.29, 0.0, 9.992374, 10.004143 
2.566065e+3, 1.3038035e+2, -671896.44, -1649313.4, 41163.22, -0.046876915, -0.40482393, -670165.94, 992066.44, 0.033442758, 10.009362, 9.995941 
2.5659728e+3, 1.4037588e+2, -716172.0, -1628292.8, 20682.65, -0.02378495, -0.39997002, -715703.25, 848572.44, 0.022501577, 10.00829, 9.995926 
2.5658798e+3, 1.5037157e+2, -700732.25, -1511122.4, 26529.135, -0.02867836, -0.410047, -699864.75, 766452.94, 0.012123159, 10.0073805, 9.996493 
2.565787e+3, 1.603675e+2, -725467.4, -1477987.5, 43843.97, -0.02810886, -0.4210285, -722921.5, 645435.7, 0.004607985, 10.006504, 9.99647 
2.5656947e+3, 1.7036377e+2, -717109.5, -1367261.9, 61660.816, -0.034987822, -0.42284667, -711313.25, 559081.0, 0.0009587858, 10.005628, 9.996979 
2.5656027e+3, 1.8036035e+2, -738380.6, -1317010.6, 64807.094, -0.04380852, -0.4208521, -731211.06, 441217.2, 0.000061002676, 10.004762, 9.997068 
2.565511e+3, 1.9035749e+2, -722025.25, -1192057.5, 77261.37, -0.032558266, -0.40210456, -709651.2, 364805.22, 0.00000040074565, 10.003916, 9.997661 
2.565419e+3, 2.0035489e+2, -738573.4, -1138062.3, 78410.38, -0.020529607, -0.38784915, -723734.44, 252747.53, 0.0, 10.00308, 9.997762 
2.5653273e+3, 2.1035229e+2, -719146.9, -1011462.6, 81486.125, -0.03107702, -0.41290683, -697966.44, 180540.4, 0.0, 10.002255, 9.998355 
2.5652355e+3, 2.2034997e+2, -731259.44, -950098.1, 80445.84, -0.0408353, -0.43999112, -704869.6, 75659.08, 0.0, 10.001428, 9.998502 
2.565144e+3, 2.3034835e+2, -713665.56, -820138.56, 84448.92, -0.025197577, -0.44342712, -667073.5, 15469.631, 0.0, 10.000571, 9.999134 
2.5650528e+3, 2.4034703e+2, -729392.8, -762347.25, 90067.72, -0.0070462544, -0.44737756, -654307.5, -69753.1, 0.0, 9.999727, 9.999265 
2.5649613e+3, 2.5034595e+2, -697537.44, -626438.44, 82805.805, 0.0017014449, -0.47287938, -571873.75, -85310.52, 0.0, 9.998972, 9.999888 
2.5648695e+3, 2.6034513e+2, -714060.56, -586118.1, 75670.72, 0.010780853, -0.49834105, -551001.6, -162432.19, 0.0, 9.998196, 9.9998665 
2.5647777e+3, 2.7034476e+2, -716939.5, -481250.1, 73668.13, 0.034740616, -0.5042238, -460118.66, -169546.11, 0.0, 9.997263, 10.000363 
2.5646862e+3, 2.8034472e+2, -731778.25, -395044.28, 74794.35, 0.06476275, -0.5089532, -379178.7, -186606.61, 0.0, 9.9963045, 10.000745 
2.5645941e+3, 2.9034546e+2, -710463.3, -236558.7, 45147.242, 0.093779884, -0.51807845, -232296.02, -137732.66, 0.0, 9.995357, 10.001617 
2.564502e+3, 3.0034652e+2, -756379.94, -223741.05, 38554.867, 0.09741718, -0.5258815, -220964.75, -220964.75, 0.0, 9.994437, 10.001475 
2.56441e+3, 3.103475e+2, -776443.7, -147191.52, 42106.117, 0.08545064, -0.5585648, -144386.5, -144386.5, 0.0, 9.993699, 10.002023 
2.5643182e+3, 3.2034925e+2, -786513.3, 82644.86, 32588.584, 0.14929584, -0.5643813, 83865.04, 83865.04, 0.0, 9.9926195, 10.004122 
2.5760737e+3, 1.3047326e+2, -669046.6, -1654715.3, 5269.9766, -0.06716936, -0.41710165, -669018.44, 992302.7, 0.030819247, 10.009382, 9.995895 
2.5759813e+3, 1.4046876e+2, -707011.9, -1608964.0, -11516.373, 0.02737116, -0.4164622, -706864.9, 856500.06, 0.020625958, 10.008269, 9.996072 
2.575887e+3, 1.5046474e+2, -679949.25, -1468630.8, -2797.4126, -0.0034132942, -0.42413947, -679939.4, 785464.7, 0.011005458, 10.007372, 9.996793 
2.5757933e+3, 1.6046098e+2, -715054.1, -1458970.1, 13042.807, -0.03406322, -0.4301019, -714825.5, 652615.0, 0.004104836, 10.006507, 9.996603 
2.5757e+3, 1.7045741e+2, -717300.8, -1370016.3, 30816.479, -0.029154025, -0.4170384, -715849.1, 553627.06, 0.0008200887, 10.005631, 9.996962 
2.5756073e+3, 1.8045409e+2, -734708.56, -1311559.0, 34452.48, -0.024444822, -0.40589154, -732658.2, 438851.28, 0.000048196514, 10.004765, 9.9971075 
2.5755143e+3, 1.90451e+2, -716074.8, -1181927.4, 47288.188, -0.022621488, -0.41710547, -711323.1, 362216.47, 0.00000023584953, 10.00392, 9.997731 
2.575422e+3, 2.0044819e+2, -734793.75, -1132344.9, 48418.55, -0.021026943, -0.4288072, -728981.75, 246584.97, 0.0, 10.003084, 9.997802 
2.5753292e+3, 2.1044585e+2, -717968.56, -1011130.94, 51616.188, -0.028643258, -0.42798704, -709146.2, 168442.98, 0.0, 10.002258, 9.998358 
2.575237e+3, 2.2044381e+2, -723403.2, -935922.56, 49489.707, -0.03531912, -0.4293984, -712443.6, 67164.76, 0.0, 10.001431, 9.9986 
2.5751442e+3, 2.304422e+2, -701390.7, -796901.5, 52485.207, -0.026557468, -0.44761243, -678186.44, 3435.9292, 0.0, 10.000575, 9.999294 
2.575052e+3, 2.4044085e+2, -729015.94, -763916.1, 60025.21, -0.013119595, -0.46810675, -683955.75, -100321.96, 0.0, 9.999731, 9.999254 
2.5749597e+3, 2.5043967e+2, -708292.25, -651156.8, 54661.74, 0.009844825, -0.48807427, -618047.8, -132404.03, 0.0, 9.998977, 9.99972 
2.5748673e+3, 2.6043883e+2, -708624.06, -577377.75, 43339.258, 0.03098385, -0.5064574, -564358.1, -176707.38, 0.0, 9.998201, 9.9999275 
2.574775e+3, 2.704386e+2, -698812.4, -446075.97, 38014.797, 0.043233916, -0.5165557, -440481.88, -150830.4, 0.0, 9.997268, 10.000606 
2.5746822e+3, 2.8043866e+2, -741763.94, -418257.63, 39973.695, 0.060956836, -0.52586055, -413391.53, -221742.05, 0.0, 9.996309, 10.000586 
2.5745893e+3, 2.9043907e+2, -745618.6, -312013.88, 9499.1455, 0.09094217, -0.52740353, -311805.88, -218160.84, 0.0, 9.995361, 10.001101 
2.574496e+3, 3.0043977e+2, -754263.56, -222689.23, 7681.928, 0.09966812, -0.53035575, -222578.25, -222578.25, 0.0, 9.994446, 10.001482 
2.5744033e+3, 3.104408e+2, -740741.6, -81244.07, 17350.75, 0.10532255, -0.5941172, -80787.9, -80787.9, 0.0, 9.993728, 10.002465 
2.57431e+3, 3.2044291e+2, -896379.94, -146562.53, -49781.84, 0.13603437, -0.5561933, -143271.86, -143271.86, 0.0, 9.992619, 10.002551 
2.5860828e+3, 1.3056745e+2, -653036.75, -1638564.4, 37331.324, -0.06497368, -0.4328665, -651624.6, 1008772.44, 0.028239276, 10.009439, 9.995978 
2.5859892e+3, 1.40563e+2, -744036.94, -1616185.5, 37312.895, 0.04676833, -0.43462646, -742443.5, 819996.8, 0.018788232, 10.007954, 9.996171 
2.5858942e+3, 1.5055914e+2, -704075.25, -1468835.0, 47838.105, 0.0108312, -0.43298227, -701094.44, 763383.56, 0.009919391, 10.007153, 9.996894 
2.5857994e+3, 1.6055554e+2, -721055.8, -1452449.8, 52123.066, -0.026453208, -0.43025252, -717359.94, 649153.3, 0.00362463, 10.006429, 9.996682 
2.5857052e+3, 1.7055202e+2, -723375.94, -1366356.6, 70663.8, -0.020210996, -0.41842926, -715701.56, 552847.06, 0.00069326797, 10.005567, 9.997015 
2.5856116e+3, 1.8054871e+2, -739612.6, -1305518.5, 78379.836, -0.014043995, -0.409645, -728957.4, 441624.38, 0.000037611862, 10.004702, 9.997176 
2.585518e+3, 1.9054562e+2, -718048.6, -1174501.4, 91779.94, -0.016601795, -0.42388737, -700285.5, 372326.03, 0.00000013287847, 10.003877, 9.9978 
2.5854245e+3, 2.0054285e+2, -733979.1, -1123896.8, 92694.1, -0.019597696, -0.43804604, -713065.0, 261573.34, 0.0, 10.003061, 9.997867 
2.5853312e+3, 2.105406e+2, -717627.9, -1005074.7, 98268.45, -0.028352477, -0.43282372, -687244.7, 189415.28, 0.0, 10.002242, 9.9984045 
2.585238e+3, 2.2053863e+2, -721982.2, -929554.9, 96100.67, -0.035486367, -0.42983866, -684322.6, 94355.89, 0.0, 10.001424, 9.998645 
2.5851446e+3, 2.30537e+2, -697174.1, -790958.5, 89560.914, -0.027635342, -0.45180884, -642972.1, 37720.605, 0.0, 10.000594, 9.999322 
2.5850514e+3, 2.4053562e+2, -722244.3, -755566.75, 91830.77, -0.014602074, -0.47619182, -645575.56, -62871.06, 0.0, 9.9997635, 9.999293 
2.5849584e+3, 2.505345e+2, -713512.7, -649241.5, 99005.16, 0.011754215, -0.49362093, -577287.1, -92573.16, 0.0, 9.998929, 9.999752 
2.584865e+3, 2.605337e+2, -720425.1, -577942.3, 95629.875, 0.035975136, -0.50961405, -529934.4, -143213.84, 0.0, 9.998105, 9.999966 
2.5847718e+3, 2.7053344e+2, -686267.0, -435707.1, 74701.805, 0.044472866, -0.52331024, -415126.06, -126404.81, 0.0, 9.997342, 10.000637 
2.584678e+3, 2.805335e+2, -712591.44, -407144.88, 63549.184, 0.05928425, -0.5363666, -394450.8, -203731.38, 0.0, 9.99653, 10.000552 
2.5845844e+3, 2.9053375e+2, -736825.9, -318844.06, 56816.664, 0.097483166, -0.5378991, -311258.56, -218542.77, 0.0, 9.995477, 10.000995 
2.5844902e+3, 3.0053437e+2, -755438.44, -226360.81, 83612.46, 0.10984355, -0.5424357, -213461.66, -213461.66, 0.0, 9.994458, 10.001448 
2.5843966e+3, 3.105352e+2, -732060.06, -74157.96, 69577.13, 0.08977348, -0.62061507, -66880.266, -66880.266, 0.0, 9.993781, 10.002485 
2.5843024e+3, 3.2053742e+2, -874693.25, -173934.39, -39218.79, 0.13901557, -0.56094444, -171746.3, -171746.3, 0.0, 9.992937, 10.002206 
2.596092e+3, 1.3066272e+2, -645576.5, -1620905.1, -18186.477, -0.049695704, -0.4503712, -645237.56, 1014224.7, 0.025724525, 10.0094, 9.996124 
2.5959966e+3, 1.4065836e+2, -736184.0, -1609440.5, -873.9941, 0.04407096, -0.45388022, -736183.1, 825320.94, 0.017004099, 10.007977, 9.996209 
2.595901e+3, 1.5065461e+2, -705234.44, -1477292.1, 24698.65, 0.017825142, -0.4381433, -704445.1, 759096.2, 0.008874177, 10.007166, 9.996832 
2.5958055e+3, 1.6065109e+2, -719090.1, -1449430.5, 24915.396, -0.009002246, -0.42405212, -718241.1, 647335.25, 0.0031713773, 10.006425, 9.996708 
2.5957105e+3, 1.706475e+2, -716994.75, -1354368.8, 40245.383, -0.009353157, -0.425683, -714463.56, 553148.8, 0.0005791925, 10.005566, 9.9971 
2.5956157e+3, 1.8064417e+2, -733835.6, -1295678.5, 48706.68, -0.010916289, -0.42783782, -729644.44, 440001.3, 0.000029002551, 10.004704, 9.997245 
2.5955215e+3, 1.9064133e+2, -713855.6, -1168299.0, 62715.383, -0.013763447, -0.42311108, -705359.44, 366313.78, 0.000000068467926, 10.003881, 9.997843 
2.5954273e+3, 2.0063876e+2, -728399.4, -1114823.0, 63036.36, -0.016848965, -0.42048058, -718376.4, 255321.53, 0.0, 10.003067, 9.99793 
2.595333e+3, 2.1063642e+2, -712459.44, -996269.06, 68413.63, -0.030078158, -0.429381, -696828.9, 178891.19, 0.0, 10.002245, 9.9984665 
2.5952387e+3, 2.2063437e+2, -723713.5, -934742.56, 65695.055, -0.040604718, -0.44052485, -704933.4, 72806.11, 0.0, 10.001425, 9.998611 
2.5951445e+3, 2.306327e+2, -705123.6, -809490.1, 58843.508, -0.028359128, -0.45568374, -678658.0, 1096.6128, 0.0, 10.000598, 9.999196 
2.5950506e+3, 2.4063131e+2, -716366.25, -745531.2, 60597.324, -0.012220351, -0.47182956, -668621.5, -86854.87, 0.0, 9.999766, 9.999363 
2.5949568e+3, 2.5063038e+2, -697747.3, -618552.75, 67483.74, 0.006889752, -0.48944584, -579906.8, -96133.04, 0.0, 9.998932, 9.999965 
2.594863e+3, 2.606297e+2, -721386.2, -581630.44, 66006.36, 0.024911994, -0.5075329, -555384.7, -169606.06, 0.0, 9.998107, 9.999943 
2.5947687e+3, 2.706293e+2, -701101.7, -468662.84, 46282.93, 0.03797736, -0.5239421, -459786.03, -172004.17, 0.0, 9.997346, 10.000412 
2.594674e+3, 2.8062913e+2, -704044.6, -392113.66, 27966.031, 0.060183622, -0.5397889, -389626.2, -199844.27, 0.0, 9.996535, 10.000656 
2.5945795e+3, 2.906296e+2, -711778.3, -268330.63, 16782.89, 0.1153044, -0.54969394, -267696.38, -175921.5, 0.0, 9.995477, 10.001344 
2.5944844e+3, 3.0063036e+2, -765290.8, -247454.36, 55348.04, 0.12845452, -0.5632905, -241604.67, -241604.67, 0.0, 9.994454, 10.0013075 
2.594389e+3, 3.106308e+2, -769450.06, -153364.69, 46762.074, 0.027212663, -0.636324, -149835.58, -149835.58, 0.0, 9.993781, 10.001945 
2.5942954e+3, 3.206329e+2, -777481.56, 22913.447, -87098.84, 0.1747107, -0.585993, 32281.873, 32281.873, 0.0, 9.992951, 10.003555 
2.6061004e+3, 1.3075933e+2, -691884.56, -1633890.6, 13607.515, -0.047800735, -0.45248088, -691688.06, 966826.5, 0.023288999, 10.009016, 9.996214 
2.6060045e+3, 1.4075488e+2, -720006.44, -1597735.5, 36644.72, 0.053034235, -0.4700693, -718479.2, 842077.75, 0.015285321, 10.008067, 9.9962435 
2.6059076e+3, 1.507511e+2, -710247.2, -1481574.0, 70651.46, 0.025085453, -0.45517224, -703829.1, 758765.4, 0.007877489, 10.007138, 9.996813 
2.6058114e+3, 1.6074757e+2, -742309.44, -1455294.0, 72390.78, -0.002262023, -0.43969464, -735033.7, 629596.1, 0.0027485644, 10.006246, 9.996751 
2.6057157e+3, 1.7074406e+2, -730403.8, -1351062.1, 87373.22, 0.00012240252, -0.4382838, -718338.4, 548326.6, 0.00047836723, 10.005438, 9.997181 
2.60562e+3, 1.8074082e+2, -739136.25, -1291824.8, 95350.25, -0.00073511974, -0.4375986, -723148.8, 445548.84, 0.000022080947, 10.004647, 9.997295 
2.605525e+3, 1.9073802e+2, -717524.25, -1168055.0, 107588.56, -0.011393661, -0.42933893, -693150.3, 377574.56, 0.000000029202866, 10.003855, 9.997853 
2.6054296e+3, 2.0073548e+2, -728057.6, -1109509.6, 104392.8, -0.020337531, -0.42466593, -701357.2, 271392.22, 0.0, 10.003054, 9.997969 
2.6053348e+3, 2.1073309e+2, -717373.0, -992532.75, 107317.53, -0.026862523, -0.4416348, -680467.1, 194304.72, 0.0, 10.0021925, 9.998514 
2.6052397e+3, 2.2073099e+2, -732783.25, -934139.06, 105894.62, -0.031661447, -0.45918837, -687345.75, 89445.73, 0.0, 10.0013485, 9.998649 
2.6051447e+3, 2.307294e+2, -704085.5, -807088.7, 108326.016, -0.02483605, -0.46582362, -635641.5, 43164.48, 0.0, 10.000604, 9.999207 
2.60505e+3, 2.4072811e+2, -701409.3, -735001.75, 115283.805, -0.014107523, -0.4739536, -601704.6, -20887.078, 0.0, 9.999863, 9.999386 
2.6049554e+3, 2.5072715e+2, -675273.25, -604641.75, 108248.34, 0.004075519, -0.4946401, -526093.94, -43268.973, 0.0, 9.99908, 9.999985 
2.6048607e+3, 2.6072645e+2, -698110.5, -564897.6, 95268.39, 0.022418454, -0.5158066, -515260.88, -130430.9, 0.0, 9.99825, 9.999985 
2.6047653e+3, 2.7072605e+2, -713089.5, -469088.53, 90593.29, 0.040786505, -0.5298487, -439130.94, -152298.31, 0.0, 9.997248, 10.000453 
2.6046702e+3, 2.8072596e+2, -731495.44, -393804.56, 86575.56, 0.067715384, -0.5463248, -372902.53, -184070.28, 0.0, 9.9963045, 10.000752 
2.6045746e+3, 2.9072636e+2, -669038.06, -232825.67, 60441.332, 0.11997088, -0.57401156, -224605.84, -133780.5, 0.0, 9.995712, 10.001471 
2.604479e+3, 3.0072704e+2, -695574.25, -226997.2, 82690.58, 0.12816401, -0.59527844, -212832.83, -212832.83, 0.0, 9.994996, 10.0011835 
2.6043823e+3, 3.1072772e+2, -813674.1, -210229.23, 83913.7, 0.0202323, -0.6167352, -198777.7, -198777.7, 0.0, 9.993638, 10.001619 
2.604288e+3, 3.207294e+2, -784741.7, 109275.83, -49474.547, 0.19574092, -0.607639, 112005.4, 112005.4, 0.0, 9.992521, 10.004352 
2.6161093e+3, 1.3085702e+2, -689336.44, -1630398.3, -19956.857, -0.053876977, -0.44522464, -688913.44, 968643.1, 0.020937713, 10.008997, 9.99625 
2.616012e+3, 1.408524e+2, -718037.94, -1596527.9, 3586.286, 0.06925717, -0.4839036, -718023.3, 841577.06, 0.013637345, 10.00806, 9.996257 
2.6159143e+3, 1.508485e+2, -709381.2, -1483506.9, 38337.266, 0.031812053, -0.48045987, -707487.25, 754151.5, 0.0069335233, 10.007142, 9.9968 
2.6158172e+3, 1.608449e+2, -737921.4, -1450360.4, 42367.246, -0.0034596142, -0.4710693, -735410.75, 628263.6, 0.002358146, 10.006256, 9.996782 
2.6157206e+3, 1.708416e+2, -724787.3, -1342856.5, 58985.7, 0.008736686, -0.45453686, -719208.3, 546499.44, 0.0003907231, 10.005446, 9.997236 
2.6156244e+3, 1.8083851e+2, -736950.7, -1289986.6, 66624.38, 0.014771323, -0.44090122, -729037.7, 438701.25, 0.000016591179, 10.004654, 9.997309 
2.6155284e+3, 1.9083561e+2, -719382.1, -1173592.5, 79015.875, -0.009705638, -0.4418384, -706028.9, 363738.47, 0.000000008828173, 10.003857, 9.997818 
2.6154324e+3, 2.0083295e+2, -727918.2, -1110309.8, 73997.69, -0.028911857, -0.44751874, -714098.2, 257694.98, 0.0, 10.003053, 9.997967 
2.6153365e+3, 2.1083054e+2, -715972.2, -991552.06, 75703.19, -0.019067498, -0.4674372, -696545.56, 177270.05, 0.0, 10.002195, 9.998522 
2.6152408e+3, 2.2082847e+2, -725960.7, -922439.06, 76924.27, -0.01052807, -0.4847143, -699426.94, 76407.836, 0.0, 10.001353, 9.99873 
2.615145e+3, 2.308271e+2, -694962.25, -790311.44, 81156.28, -0.01771888, -0.481796, -648513.44, 29333.727, 0.0, 10.0006075, 9.999323 
2.6150492e+3, 2.4082592e+2, -704530.4, -743578.9, 86547.14, -0.019977033, -0.48274004, -635332.56, -55475.082, 0.0, 9.999866, 9.999328 
2.6149538e+3, 2.5082475e+2, -688417.0, -634114.9, 78444.42, 0.0035359527, -0.5095653, -578255.6, -96387.91, 0.0, 9.9990835, 9.9997835 
2.6148584e+3, 2.6082388e+2, -690250.5, -550500.75, 60170.89, 0.028706862, -0.53503984, -528163.75, -144289.1, 0.0, 9.998253, 10.000086 
2.6147622e+3, 2.7082384e+2, -691855.6, -425390.22, 52153.4, 0.053680625, -0.54132426, -415546.25, -129673.11, 0.0, 9.997244, 10.000758 
2.6146662e+3, 2.8082398e+2, -729105.75, -388307.3, 59836.55, 0.08210576, -0.55642664, -378106.66, -190236.97, 0.0, 9.996296, 10.000796 
2.61457e+3, 2.9082397e+2, -678438.1, -256285.9, 40982.51, 0.10832702, -0.61370456, -252344.14, -162476.98, 0.0, 9.995724, 10.0013075 
2.614473e+3, 3.0082446e+2, -699658.0, -242282.66, 42292.67, 0.1063131, -0.64029014, -238404.81, -238404.81, 0.0, 9.99502, 10.00107 
2.6143762e+3, 3.1082618e+2, -822111.4, -223669.83, 29044.018, 0.08661882, -0.5494945, -222263.55, -222263.55, 0.0, 9.993614, 10.001541 
2.6142797e+3, 3.2082692e+2, -791774.94, 101396.61, -60698.7, 0.17744087, -0.63022673, 105502.734, 105502.734, 0.0, 9.992486, 10.004318 
2.6261178e+3, 1.3095544e+2, -725523.44, -1642083.4, 6202.0054, -0.040380288, -0.45117983, -725481.5, 931110.1, 0.018672915, 10.008704, 9.996305 
2.6260194e+3, 1.4095093e+2, -739632.6, -1599898.4, 31309.209, 0.056194343, -0.48339605, -738494.6, 820139.75, 0.012062789, 10.007874, 9.996321 
2.6259208e+3, 1.50947e+2, -719395.25, -1481971.9, 69871.02, 0.025035886, -0.48642924, -713046.2, 747626.56, 0.0060443403, 10.007047, 9.996854 
2.625823e+3, 1.6094339e+2, -738652.2, -1445848.0, 77368.02, -0.001358618, -0.4829113, -730287.0, 632421.44, 0.0020007896, 10.006235, 9.99682 
2.625726e+3, 1.7094013e+2, -727684.7, -1341522.9, 92784.9, 0.010859533, -0.4629114, -713966.3, 550775.1, 0.0003156374, 10.005422, 9.997253 
2.6256287e+3, 1.8093707e+2, -741384.7, -1287178.0, 98078.87, 0.016466282, -0.44625473, -724295.0, 442477.2, 0.000012307324, 10.004609, 9.997346 
2.625532e+3, 1.9093414e+2, -730929.44, -1174490.0, 113453.53, -0.0048468923, -0.4514234, -703594.9, 365205.9, 0.0000000014468743, 10.003764, 9.997852 
2.6254347e+3, 2.0093146e+2, -741017.6, -1109331.9, 112351.74, -0.021871783, -0.46119028, -709450.94, 261375.88, 0.0, 10.002939, 9.998025 
2.6253384e+3, 2.1092913e+2, -714786.56, -983911.4, 117314.7, -0.01589194, -0.4794217, -670827.9, 202020.58, 0.0, 10.00218, 9.998578 
2.6252416e+3, 2.2092709e+2, -716014.4, -914643.94, 119458.65, -0.009548506, -0.49482575, -659978.56, 114888.47, 0.0, 10.001416, 9.998749 
2.6251453e+3, 2.3092568e+2, -699520.44, -794107.9, 114540.805, -0.010880024, -0.49345034, -622893.6, 53986.38, 0.0, 10.00059, 9.999302 
2.6250488e+3, 2.4092448e+2, -718141.44, -746151.6, 114136.6, -0.0089756185, -0.49516967, -617153.9, -38263.145, 0.0, 9.999763, 9.999356 
2.6249525e+3, 2.5092337e+2, -704175.7, -636044.06, 120858.06, 0.009586348, -0.5180063, -544542.56, -63642.203, 0.0, 9.998958, 9.999827 
2.6248562e+3, 2.6092255e+2, -699338.25, -547486.0, 111240.7, 0.030429622, -0.54180646, -488730.03, -105823.16, 0.0, 9.998165, 10.000145 
2.6247594e+3, 2.7092245e+2, -663692.25, -404666.03, 84419.74, 0.056068853, -0.55723506, -379581.78, -94676.016, 0.0, 9.997413, 10.000815 
2.6246622e+3, 2.809226e+2, -680476.7, -363048.4, 81334.86, 0.083425745, -0.5749096, -343421.47, -156519.3, 0.0, 9.996629, 10.000807 
2.624565e+3, 2.9092285e+2, -677879.94, -259853.08, 71557.59, 0.09757916, -0.6040431, -247943.22, -159045.69, 0.0, 9.99575, 10.0012665 
2.6244673e+3, 3.009234e+2, -715764.4, -244336.92, 73121.98, 0.09563726, -0.6217945, -233255.63, -233255.63, 0.0, 9.994891, 10.001115 
2.6243702e+3, 3.1092435e+2, -738322.1, -171663.31, 65085.926, 0.1393504, -0.61181146, -164283.7, -164283.7, 0.0, 9.994145, 10.001639 
2.6242718e+3, 3.2092568e+2, -719352.2, 89851.83, -14903.471, 0.15408242, -0.62466383, 90126.22, 90126.22, 0.0, 9.993189, 10.003897 
2.636126e+3, 1.3105457e+2, -724047.1, -1637711.6, -22415.043, -0.015991407, -0.46436042, -723497.5, 932122.44, 0.016502736, 10.008675, 9.996353 
2.6360264e+3, 1.4105034e+2, -734371.25, -1590298.4, 2820.3645, 0.02267052, -0.4733273, -734361.94, 823298.06, 0.010567322, 10.007863, 9.996395 
2.6359272e+3, 1.5104647e+2, -712999.25, -1470989.4, 40758.535, 0.009304906, -0.479052, -710813.9, 748883.9, 0.005212963, 10.007045, 9.996933 
2.635829e+3, 1.6104287e+2, -736097.1, -1443105.6, 47577.047, 0.003141721, -0.4804951, -732909.9, 628823.3, 0.0016770688, 10.006238, 9.99684 
2.6357308e+3, 1.7103954e+2, -729380.3, -1346644.4, 63574.477, 0.007624128, -0.4655169, -722900.56, 540866.2, 0.00025226254, 10.005423, 9.997221 
2.6356328e+3, 1.8103643e+2, -738600.8, -1282485.1, 68109.945, 0.0073030163, -0.4532275, -730201.25, 435596.75, 0.000009017372, 10.004608, 9.997381 
2.6355353e+3, 1.9103357e+2, -725521.56, -1164958.5, 82758.3, 0.002950769, -0.45836487, -710452.56, 357373.3, 0.00000000007785529, 10.003766, 9.99792 
2.6354375e+3, 2.0103095e+2, -734106.56, -1097180.3, 83273.37, -0.0021915361, -0.46669778, -715918.44, 253932.48, 0.0, 10.002943, 9.998109 
2.63534e+3, 2.1102877e+2, -708420.7, -972819.8, 89367.875, -0.017408816, -0.47919726, -681047.9, 190823.16, 0.0, 10.002183, 9.998655 
2.6352423e+3, 2.2102681e+2, -719697.0, -924230.8, 89466.51, -0.026481314, -0.49161804, -686086.1, 87802.81, 0.0, 10.001419, 9.998685 
2.6351452e+3, 2.3102513e+2, -711076.3, -820048.06, 83510.1, -0.0036991732, -0.50152206, -665849.4, 10055.395, 0.0, 10.000593, 9.999125 
2.6350483e+3, 2.4102376e+2, -710332.44, -731845.9, 83604.6, 0.01804069, -0.51076525, -636795.44, -58878.094, 0.0, 9.999765, 9.999456 
2.6349512e+3, 2.5102302e+2, -684615.75, -597157.75, 90640.56, 0.021867234, -0.51939404, -540249.06, -60326.28, 0.0, 9.99896, 10.000096 
2.6348537e+3, 2.6102245e+2, -700512.9, -551459.7, 82477.0, 0.027067564, -0.53554386, -514825.7, -132899.19, 0.0, 9.998166, 10.00012 
2.634756e+3, 2.7102187e+2, -679401.94, -439773.1, 56340.996, 0.046698343, -0.5785962, -427187.38, -143256.8, 0.0, 9.997417, 10.000575 
2.6346582e+3, 2.810218e+2, -681609.8, -369074.97, 49528.0, 0.07000824, -0.60203844, -361413.97, -175484.08, 0.0, 9.996639, 10.000763 
2.6345602e+3, 2.9102308e+2, -672555.1, -249370.86, 37448.297, 0.08828073, -0.53368795, -246082.55, -158167.22, 0.0, 9.995748, 10.001343 
2.6344618e+3, 3.0102396e+2, -702269.94, -214565.55, 44867.55, 0.0977141, -0.52893215, -210472.2, -210472.2, 0.0, 9.994878, 10.001328 
2.634364e+3, 3.1102192e+2, -713070.9, -127513.305, 40795.58, 0.17334992, -0.8473324, -124684.75, -124684.75, 0.0, 9.994175, 10.001931 
2.6342642e+3, 3.2102633e+2, -783539.9, -54176.266, -72736.39, 0.13093509, -0.5406398, -46993.31, -46993.31, 0.0, 9.993229, 10.002892 
2.6461342e+3, 1.3115472e+2, -771601.56, -1644177.0, 12131.75, 0.0051622014, -0.4645517, -771432.94, 883205.25, 0.014443367, 10.008259, 9.996506 
2.6460335e+3, 1.4115046e+2, -766667.9, -1601319.5, 39343.99, 0.0042632055, -0.48600283, -764817.4, 791860.94, 0.00916138, 10.007614, 9.996436 
2.645934e+3, 1.5114665e+2, -739324.75, -1487471.6, 70484.54, 0.0073990743, -0.48140728, -732742.2, 725973.5, 0.004444446, 10.006882, 9.996895 
2.6458347e+3, 1.6114311e+2, -748234.3, -1443148.6, 70762.26, 0.017389627, -0.47504902, -741101.9, 619648.9, 0.0013879684, 10.006135, 9.996886 
2.6457357e+3, 1.7113976e+2, -741058.1, -1342030.1, 91518.125, 0.011624253, -0.4692843, -727430.44, 535353.9, 0.00019972038, 10.005305, 9.997306 
2.6456368e+3, 1.8113662e+2, -752999.06, -1281661.0, 101062.47, 0.0020586464, -0.46457094, -734338.06, 430477.34, 0.0000065323457, 10.004483, 9.997443 
2.6455384e+3, 1.9113386e+2, -735369.44, -1165216.9, 113901.31, 0.0030890363, -0.46387365, -707053.1, 359789.34, 0.0, 10.003687, 9.997952 
2.6454398e+3, 2.0113131e+2, -739682.0, -1098926.6, 112018.23, 0.0033271776, -0.46666968, -707615.25, 261251.72, 0.0, 10.002908, 9.99811 
2.6453418e+3, 2.1112907e+2, -714132.3, -978989.6, 111113.74, -0.013309292, -0.48016137, -673692.2, 197195.6, 0.0, 10.002166, 9.998618 
2.6452434e+3, 2.2112706e+2, -716544.94, -917157.0, 105787.516, -0.024300108, -0.49438602, -671069.3, 101836.875, 0.0, 10.001424, 9.998728 
2.6451457e+3, 2.3112541e+2, -698265.8, -804753.56, 114115.57, -0.0015902913, -0.5074664, -625584.0, 49337.39, 0.0, 10.0006485, 9.999199 
2.6450476e+3, 2.4112408e+2, -691239.75, -713303.4, 125787.734, 0.021153584, -0.51972395, -576001.0, 932.40393, 0.0, 9.999863, 9.999533 
2.64495e+3, 2.5112337e+2, -667844.4, -581357.56, 118693.41, 0.026530879, -0.5286321, -498275.53, -19337.129, 0.0, 9.999048, 10.000159 
2.6448515e+3, 2.6112288e+2, -685992.0, -540911.1, 102577.66, 0.03133237, -0.5431816, -487816.03, -106874.46, 0.0, 9.998258, 10.000145 
2.644753e+3, 2.7112234e+2, -657103.5, -430554.44, 91658.43, 0.044280753, -0.580967, -398115.6, -115170.18, 0.0, 9.997584, 10.000555 
2.6446542e+3, 2.8112224e+2, -650171.56, -358391.25, 91466.14, 0.063664176, -0.6029645, -332089.66, -147144.4, 0.0, 9.996881, 10.000717 
2.6445556e+3, 2.9112333e+2, -636646.6, -239792.19, 65501.37, 0.09156133, -0.5451257, -229260.58, -142327.75, 0.0, 9.996034, 10.001268 
2.6444566e+3, 3.0112416e+2, -645489.94, -169775.63, 66876.98, 0.10513568, -0.5427694, -160552.72, -160552.72, 0.0, 9.995198, 10.001478 
2.644358e+3, 3.1112257e+2, -644574.9, -61858.617, 62716.914, 0.15822524, -0.84141916, -55184.918, -55184.918, 0.0, 9.994511, 10.002217 
2.6442572e+3, 3.2112706e+2, -712961.5, -98523.555, -48713.145, 0.12830031, -0.5243605, -94685.516, -94685.516, 0.0, 9.994057, 10.002185 
2.656142e+3, 1.3125573e+2, -760629.4, -1617560.1, -10197.543, 0.024202606, -0.45771968, -760508.06, 893139.8, 0.012513076, 10.008221, 9.996711 
2.6560405e+3, 1.4125128e+2, -763170.5, -1601150.6, 13255.777, -0.004269329, -0.51331425, -762960.9, 792728.8, 0.007856407, 10.007629, 9.996432 
2.65594e+3, 1.5124756e+2, -748780.06, -1508985.9, 43732.883, 0.014763179, -0.48980924, -746272.5, 711454.3, 0.0037439915, 10.006879, 9.996751 
2.6558402e+3, 1.6124408e+2, -746812.3, -1437925.4, 41942.086, 0.038279064, -0.4673506, -744276.25, 615485.25, 0.0011340977, 10.006119, 9.996933 
2.6557404e+3, 1.7124072e+2, -730734.1, -1320718.8, 61161.094, 0.02088055, -0.47401333, -724460.56, 537333.9, 0.00015693145, 10.0053005, 9.997457 
2.6556405e+3, 1.8123764e+2, -747951.56, -1273361.0, 71290.35, -0.0004437019, -0.4792027, -738450.4, 425374.56, 0.0000046870045, 10.004487, 9.997501 
2.6555416e+3, 1.9123498e+2, -735604.75, -1167756.9, 84786.25, -0.0033644123, -0.46814245, -719565.4, 346285.78, 0.0, 10.00369, 9.997936 
2.6554424e+3, 2.0123246e+2, -745569.7, -1112969.1, 84085.73, -0.0027477117, -0.46247625, -727239.7, 240635.73, 0.0, 10.002911, 9.998015 
2.6553434e+3, 2.1123001e+2, -724953.8, -1002911.94, 84385.08, -0.0038402698, -0.48239738, -701341.3, 168557.5, 0.0, 10.002167, 9.998456 
2.6552448e+3, 2.2122788e+2, -707281.3, -899104.0, 78068.336, -0.0056346282, -0.5019301, -679525.2, 92393.45, 0.0, 10.001423, 9.998854 
2.6551458e+3, 2.3122653e+2, -677451.5, -763146.6, 85264.81, -0.0051006493, -0.51099044, -624873.7, 49056.316, 0.0, 10.00065, 9.999487 
2.655047e+3, 2.412254e+2, -689283.2, -711092.75, 95589.82, 0.0010781797, -0.5226603, -603978.2, -28038.896, 0.0, 9.999866, 9.99955 
2.6549482e+3, 2.5122443e+2, -679119.9, -606543.1, 87706.2, 0.023928128, -0.5464674, -547914.56, -69967.24, 0.0, 9.999051, 9.999988 
2.6548493e+3, 2.612238e+2, -680450.6, -531409.44, 75171.41, 0.043510053, -0.565074, -500080.8, -120128.664, 0.0, 9.9982605, 10.000212 
2.6547503e+3, 2.7122384e+2, -642089.75, -401877.84, 66869.625, 0.0493708, -0.56126565, -384517.5, -102567.66, 0.0, 9.997589, 10.000752 
2.6546508e+3, 2.812239e+2, -654904.9, -370978.3, 62622.32, 0.065337375, -0.57595646, -357779.97, -173832.34, 0.0, 9.996887, 10.00063 
2.6545513e+3, 2.9122335e+2, -654645.7, -280418.8, 33197.598, 0.10992164, -0.6580402, -277496.66, -191544.98, 0.0, 9.996041, 10.000988 
2.654451e+3, 3.0122378e+2, -639915.7, -162650.97, 39107.504, 0.11772058, -0.6810685, -159467.69, -159467.69, 0.0, 9.995212, 10.001524 
2.654351e+3, 3.1122705e+2, -624563.94, -25537.709, 37056.61, 0.07755956, -0.51146084, -23254.041, -23254.041, 0.0, 9.994527, 10.002462 
2.6542512e+3, 3.2122684e+2, -723471.0, -136534.61, -41221.746, 0.16671374, -0.67512923, -133653.67, -133653.67, 0.0, 9.99412, 10.001896 
2.6661497e+3, 1.3135724e+2, -830985.56, -1649835.1, 29257.988, 0.034690984, -0.46784303, -829941.5, 822711.3, 0.010724449, 10.007716, 9.996727 
2.6660475e+3, 1.4135309e+2, -766503.0, -1598502.5, 29526.43, -0.004199608, -0.49360022, -765456.5, 789235.75, 0.0066596745, 10.007586, 9.996469 
2.6659465e+3, 1.5134923e+2, -774766.8, -1517253.6, 59526.645, 0.018230148, -0.48538798, -770024.7, 686705.7, 0.003114146, 10.006683, 9.996785 
2.665846e+3, 1.6134568e+2, -788932.8, -1446852.6, 68236.305, 0.044718288, -0.4760174, -781930.2, 576835.56, 0.00091460533, 10.005785, 9.997028 
2.665745e+3, 1.7134249e+2, -752495.56, -1317449.8, 87713.02, 0.022203976, -0.47520328, -739190.9, 521606.03, 0.00012244105, 10.005098, 9.997573 
2.6656446e+3, 1.8133955e+2, -754712.4, -1268976.8, 94397.89, -0.004130573, -0.47409758, -737932.3, 424893.53, 0.0000033345589, 10.004415, 9.997562 
2.6655447e+3, 1.9133686e+2, -742781.8, -1169031.9, 108170.516, -0.00836502, -0.46667647, -716902.4, 347949.97, 0.0, 10.003638, 9.997949 
2.665445e+3, 2.0133434e+2, -750158.8, -1109445.5, 111543.08, -0.0069898907, -0.4647545, -718346.25, 248530.75, 0.0, 10.002861, 9.99806 
2.665345e+3, 2.1133189e+2, -734710.44, -1001820.9, 124764.76, -0.0016360099, -0.48592877, -685500.1, 183399.95, 0.0, 10.002082, 9.998501 
2.6652455e+3, 2.213298e+2, -719198.06, -897831.25, 126196.92, 0.0011861235, -0.50638294, -653908.4, 117011.3, 0.0, 10.001319, 9.99891 
2.6651457e+3, 2.3132846e+2, -681879.1, -759847.0, 117793.375, -0.0035920565, -0.5160797, -596786.4, 76144.305, 0.0, 10.000603, 9.999529 
2.6650462e+3, 2.4132736e+2, -684239.5, -703473.44, 115256.72, -0.0019885974, -0.5286924, -578199.25, -3259.7004, 0.0, 9.999885, 9.999589 
2.664947e+3, 2.5132638e+2, -665963.0, -597673.25, 117581.734, 0.024071816, -0.55510306, -509379.0, -32431.37, 0.0, 9.999137, 10.000004 
2.6648474e+3, 2.6132572e+2, -661987.5, -520685.0, 114348.09, 0.046476837, -0.5748789, -456922.4, -77969.836, 0.0, 9.998386, 10.000221 
2.6647472e+3, 2.713258e+2, -634376.1, -398092.47, 92370.305, 0.04937906, -0.56477535, -366268.4, -85318.46, 0.0, 9.997648, 10.000747 
2.664647e+3, 2.8132588e+2, -648650.75, -369917.4, 77973.81, 0.06492511, -0.5764625, -349587.53, -166639.73, 0.0, 9.996944, 10.000607 
2.6645473e+3, 2.913251e+2, -608982.9, -263564.5, 62819.707, 0.11855801, -0.67565054, -252494.53, -167540.45, 0.0, 9.996384, 10.000936 
2.6644462e+3, 3.0132538e+2, -576981.7, -151360.25, 72267.445, 0.12520155, -0.70071805, -139424.48, -139424.48, 0.0, 9.995732, 10.001348 
2.664345e+3, 3.1132922e+2, -607627.56, -45550.26, 30990.629, 0.04947669, -0.45079497, -43846.73, -43846.73, 0.0, 9.99477, 10.002204 
2.664245e+3, 3.2132763e+2, -690255.44, -73794.984, -20780.135, 0.18137254, -0.7469424, -73095.31, -73095.31, 0.0, 9.994153, 10.002308 
2.676157e+3, 1.3145927e+2, -834379.25, -1667153.4, 31135.844, 0.03903394, -0.48643297, -833216.75, 818435.9, 0.009082153, 10.007743, 9.996598 
2.6760548e+3, 1.4145575e+2, -766787.75, -1594112.9, 7313.5947, 0.0013900368, -0.4422888, -766723.1, 786963.9, 0.0055729174, 10.00755, 9.996519 
2.6759526e+3, 1.5145163e+2, -765906.94, -1497782.0, 24163.752, 0.01872673, -0.47304416, -765110.0, 690617.06, 0.002554061, 10.00667, 9.996928 
2.675851e+3, 1.6144788e+2, -779974.3, -1430987.3, 40003.855, 0.040588684, -0.4966157, -777525.3, 580238.5, 0.00072714826, 10.005791, 9.997137 
2.6757497e+3, 1.7144501e+2, -748139.06, -1308362.8, 63715.91, 0.01755716, -0.47329304, -740983.9, 518808.2, 0.000094654744, 10.005093, 9.997641 
2.6756483e+3, 1.814423e+2, -753306.75, -1264150.3, 67340.26, -0.008832771, -0.45377716, -744578.94, 417239.8, 0.00000235063, 10.004401, 9.997604 
2.6755476e+3, 1.9143948e+2, -742535.25, -1168004.8, 79711.73, -0.012262726, -0.4608412, -728091.56, 335755.0, 0.0, 10.003631, 9.997962 
2.6754472e+3, 2.0143689e+2, -740092.44, -1089090.3, 83030.195, -0.010237389, -0.47208828, -721345.7, 244526.19, 0.0, 10.002858, 9.998203 
2.6753467e+3, 2.1143468e+2, -720144.7, -972757.6, 95916.27, -0.006027043, -0.4903429, -687853.4, 180038.83, 0.0, 10.002082, 9.998702 
2.6752463e+3, 2.2143272e+2, -721683.4, -904692.9, 98604.12, -0.00228392, -0.5084941, -678667.1, 91242.81, 0.0, 10.001321, 9.998864 
2.675146e+3, 2.3143117e+2, -695868.0, -790700.9, 91255.43, 0.003051142, -0.52295834, -640445.4, 31478.28, 0.0, 10.000606, 9.999318 
2.6750457e+3, 2.4142991e+2, -679885.56, -696135.4, 87707.3, 0.010970554, -0.53735137, -599927.6, -25993.357, 0.0, 9.9998865, 9.999641 
2.6749456e+3, 2.514292e+2, -652449.5, -571427.6, 89282.664, 0.026456976, -0.5538027, -513895.06, -37955.836, 0.0, 9.99914, 10.000185 
2.6748452e+3, 2.6142865e+2, -667116.2, -533376.94, 86474.82, 0.039524645, -0.5723932, -490933.06, -112990.305, 0.0, 9.998389, 10.000135 
2.6747444e+3, 2.714282e+2, -651653.94, -435441.94, 64202.887, 0.04381077, -0.5952481, -417814.4, -137868.19, 0.0, 9.997649, 10.000492 
2.6746437e+3, 2.814281e+2, -645424.25, -364874.06, 54672.24, 0.061691485, -0.60604644, -354596.3, -172650.22, 0.0, 9.996946, 10.000643 
2.674543e+3, 2.914288e+2, -593017.1, -234993.17, 42754.95, 0.11515094, -0.5744799, -229958.22, -146020.75, 0.0, 9.996398, 10.001128 
2.6744416e+3, 3.0142927e+2, -608410.94, -222851.84, 41242.254, 0.12786375, -0.58222187, -218489.63, -218489.63, 0.0, 9.995753, 10.000849 
2.6743397e+3, 3.11428e+2, -671532.06, -180139.97, -9060.264, 0.09149184, -0.7555169, -179972.97, -179972.97, 0.0, 9.994773, 10.001281 
2.6742384e+3, 3.2143053e+2, -594728.8, 123060.58, -16516.723, 0.14499067, -0.61894715, 123440.44, 123440.44, 0.0, 9.994153, 10.003664 
2.686164e+3, 1.3156193e+2, -840858.3, -1662414.4, 52360.863, 0.023688119, -0.48436305, -837534.6, 813111.6, 0.007585799, 10.007658, 9.996669 
2.6860616e+3, 1.4155844e+2, -830018.4, -1605967.6, 26550.303, 0.016212316, -0.44616336, -829110.94, 723569.5, 0.0045943097, 10.007031, 9.996684 
2.6859587e+3, 1.515545e+2, -795598.25, -1488623.5, 41997.59, 0.021209, -0.47941032, -793062.44, 661656.1, 0.0020607326, 10.006369, 9.997133 
2.6858562e+3, 1.615509e+2, -786067.75, -1416605.1, 60868.246, 0.032710046, -0.50502473, -780245.7, 576507.8, 0.00056861766, 10.005679, 9.997287 
2.6857543e+3, 1.7154813e+2, -774948.1, -1309567.4, 86553.77, 0.017798353, -0.48111188, -761284.5, 497496.25, 0.0000721553, 10.004865, 9.997739 
2.6856524e+3, 1.8154551e+2, -794588.56, -1273543.1, 92317.945, -0.002130248, -0.46107817, -777410.5, 383396.13, 0.000001644622, 10.004079, 9.997692 
2.6855507e+3, 1.9154274e+2, -773933.2, -1174798.9, 107874.88, -0.010194023, -0.46952417, -746747.25, 316086.88, 0.0, 10.0033865, 9.99803 
2.685449e+3, 2.015402e+2, -756484.94, -1084425.6, 111551.86, -0.012135262, -0.48022014, -722137.1, 242721.75, 0.0, 10.002699, 9.998309 
2.685348e+3, 2.1153818e+2, -727239.9, -963733.4, 117868.05, -0.0069174524, -0.4900162, -678528.0, 188349.38, 0.0, 10.0019865, 9.998807 
2.685247e+3, 2.2153634e+2, -724969.25, -902150.8, 118616.62, -0.0019838319, -0.5038208, -665511.94, 103382.03, 0.0, 10.001287, 9.998894 
2.685146e+3, 2.3153463e+2, -696590.56, -793813.3, 122628.33, 0.0040440275, -0.52937657, -613290.0, 57619.0, 0.0, 10.00062, 9.999287 
2.6850453e+3, 2.4153328e+2, -671762.3, -689647.25, 125029.71, 0.01292109, -0.5516365, -555355.7, 17564.941, 0.0, 9.999938, 9.999658 
2.684944e+3, 2.5153264e+2, -641315.44, -562742.9, 114485.71, 0.028087204, -0.5615779, -480990.38, -6065.6587, 0.0, 9.999208, 10.000208 
2.684843e+3, 2.6153213e+2, -653301.94, -531436.1, 106429.99, 0.039564595, -0.5760664, -469730.7, -92802.76, 0.0, 9.998511, 10.000087 
2.6847416e+3, 2.715315e+2, -614973.5, -428810.22, 94450.24, 0.039981607, -0.6074589, -389283.25, -110349.78, 0.0, 9.997955, 10.000387 
2.68464e+3, 2.8153127e+2, -590079.75, -344836.13, 89458.4, 0.056696232, -0.61817306, -315672.2, -134737.56, 0.0, 9.997361, 10.000577 
2.684539e+3, 2.9153228e+2, -562578.6, -225789.94, 58897.73, 0.11688922, -0.5509193, -215786.97, -132863.72, 0.0, 9.996636, 10.001073 
2.684437e+3, 3.0153266e+2, -596184.94, -242316.34, 47661.34, 0.13476518, -0.552273, -236009.42, -236009.42, 0.0, 9.995953, 10.000616 
2.6843342e+3, 3.1152993e+2, -596816.7, -182264.2, 36274.844, 0.10107695, -0.8411258, -179113.97, -179113.97, 0.0, 9.995456, 10.000935 
2.6842317e+3, 3.2153374e+2, -546265.56, 170616.03, 22580.826, 0.117927425, -0.55653155, 171326.6, 171326.6, 0.0, 9.994388, 10.003874 
2.6961708e+3, 1.3166519e+2, -819672.7, -1632476.4, 32953.758, -0.003578068, -0.47111672, -818338.9, 831295.25, 0.0062334146, 10.007705, 9.996855 
2.6960683e+3, 1.4166136e+2, -817817.9, -1575735.6, 3997.4893, 0.037274428, -0.48741266, -817796.8, 733874.4, 0.0037209394, 10.007, 9.99691 
2.6959646e+3, 1.5165786e+2, -783072.0, -1457979.1, 19731.094, 0.024412505, -0.4980184, -782495.6, 671209.06, 0.0016305855, 10.006341, 9.997359 
2.6958615e+3, 1.6165465e+2, -777552.06, -1395745.6, 33927.348, 0.021771917, -0.5044278, -775695.6, 580039.94, 0.0004359222, 10.00566, 9.997441 
2.6957586e+3, 1.7165184e+2, -769280.75, -1296090.3, 57205.555, 0.02186359, -0.4965941, -763140.44, 494622.78, 0.00005385958, 10.004852, 9.99784 
2.695656e+3, 1.816492e+2, -787976.8, -1259444.3, 65892.07, 0.013267994, -0.4897323, -778940.94, 380848.44, 0.0000011350368, 10.004072, 9.997795 
2.6955536e+3, 1.916466e+2, -767710.94, -1162153.3, 83097.85, -0.003516252, -0.48960763, -750919.44, 310895.84, 0.0, 10.003383, 9.998121 
2.6954514e+3, 2.0164427e+2, -753041.6, -1078093.1, 85690.42, -0.012823148, -0.48907918, -731835.3, 232003.05, 0.0, 10.002697, 9.998355 
2.6953498e+3, 2.1164238e+2, -726751.7, -964104.8, 91730.63, -0.004802795, -0.4854803, -695432.8, 170423.1, 0.0, 10.001987, 9.998806 
2.695248e+3, 2.2164065e+2, -718393.25, -889993.1, 93594.25, 0.0010381184, -0.49280646, -677222.7, 90649.12, 0.0, 10.001288, 9.99898 
2.6951462e+3, 2.3163888e+2, -688064.6, -777791.06, 97780.71, -0.0005969715, -0.5353381, -625346.4, 44540.348, 0.0, 10.000622, 9.999398 
2.6950446e+3, 2.4163745e+2, -674660.2, -697459.75, 98139.85, 0.004186862, -0.57141024, -587260.25, -15361.567, 0.0, 9.999941, 9.999605 
2.694943e+3, 2.5163668e+2, -651782.3, -586128.2, 86571.63, 0.029134309, -0.5787939, -526368.75, -52464.492, 0.0, 9.99921, 10.00005 
2.694841e+3, 2.6163614e+2, -653931.6, -534804.8, 83546.01, 0.04672061, -0.58591354, -491763.47, -115855.31, 0.0, 9.998515, 10.000064 
2.694739e+3, 2.716357e+2, -610829.75, -423514.97, 74069.53, 0.037839793, -0.59846807, -397765.5, -119854.26, 0.0, 9.997965, 10.000422 
2.694637e+3, 2.8163543e+2, -603377.1, -376544.97, 64350.492, 0.04976516, -0.6124578, -359560.9, -179647.86, 0.0, 9.997374, 10.000356 
2.6945353e+3, 2.9163527e+2, -587695.8, -280375.1, 30172.445, 0.12482084, -0.6247856, -277440.8, -195527.16, 0.0, 9.996641, 10.000698 
2.6944327e+3, 3.0163547e+2, -587702.56, -227332.66, 26515.16, 0.14541765, -0.62509453, -225392.19, -225392.19, 0.0, 9.995958, 10.000719 
2.6943287e+3, 3.116359e+2, -564842.7, -126928.35, 21329.479, 0.06680327, -0.62698454, -125891.91, -125891.91, 0.0, 9.995498, 10.001297 
2.6942256e+3, 3.2163635e+2, -650394.6, -43873.473, -68064.94, 0.11346148, -0.6577917, -36328.945, -36328.945, 0.0, 9.994375, 10.002409 
2.7061778e+3, 1.3176928e+2, -810035.7, -1631675.1, 57386.047, -0.033894423, -0.4791335, -806047.06, 842565.8, 0.005023105, 10.007784, 9.9968195 
2.7060747e+3, 1.417654e+2, -879144.5, -1585859.1, 32403.041, 0.056361914, -0.50297344, -877661.94, 672988.75, 0.0029501005, 10.006494, 9.997082 
2.70597e+3, 1.5176214e+2, -833741.4, -1454075.0, 56276.645, 0.027376361, -0.5117496, -828677.25, 624004.4, 0.0012602694, 10.005874, 9.997608 
2.705866e+3, 1.6175915e+2, -824688.0, -1403448.5, 65945.0, 0.011591177, -0.5149227, -817269.2, 537441.1, 0.0003262414, 10.005277, 9.99757 
2.7057627e+3, 1.7175645e+2, -810559.7, -1309102.5, 84347.09, 0.022340054, -0.5047155, -796675.9, 460061.38, 0.000038983348, 10.004545, 9.997895 
2.7056596e+3, 1.8175383e+2, -816439.25, -1261729.9, 93271.52, 0.022072181, -0.49804923, -797691.75, 361071.3, 0.0000007520139, 10.003834, 9.99789 
2.7055565e+3, 1.9175129e+2, -789678.3, -1161062.9, 111825.42, 0.00076174125, -0.5037136, -758606.75, 302181.72, 0.0, 10.003188, 9.998219 
2.7054536e+3, 2.01749e+2, -768809.4, -1076630.6, 114492.914, -0.012799536, -0.50555384, -730894.25, 231916.77, 0.0, 10.002556, 9.99843 
2.705351e+3, 2.1174724e+2, -733069.8, -961570.9, 122484.695, -0.005930182, -0.4938183, -679822.06, 185005.61, 0.0, 10.001926, 9.99885 
2.705249e+3, 2.2174557e+2, -716306.1, -883828.5, 124384.74, -0.00085379585, -0.49519116, -650108.94, 116733.96, 0.0, 10.001287, 9.999019 
2.7051464e+3, 2.317438e+2, -689185.0, -775719.4, 121761.35, -0.0032822068, -0.5407011, -603231.94, 65626.01, 0.0, 10.000609, 9.999415 
2.705044e+3, 2.4174233e+2, -674235.7, -699327.2, 118770.61, 0.0004979772, -0.57932705, -567350.06, 3520.1719, 0.0, 9.99996, 9.999579 
2.7049416e+3, 2.5174153e+2, -628768.94, -581825.4, 112619.555, 0.024218868, -0.5856753, -490257.66, -17381.096, 0.0, 9.999404, 9.999982 
2.704839e+3, 2.617409e+2, -614992.8, -518437.0, 112957.26, 0.042794164, -0.5896948, -443873.13, -68992.18, 0.0, 9.998799, 10.000036 
2.7047366e+3, 2.7174053e+2, -601846.1, -421064.47, 98324.69, 0.040819157, -0.5935564, -377895.38, -101012.03, 0.0, 9.998041, 10.000399 
2.7046338e+3, 2.8174016e+2, -614220.4, -391118.4, 89941.164, 0.057474125, -0.60999566, -359375.88, -180489.95, 0.0, 9.997346, 10.000266 
2.7045316e+3, 2.917395e+2, -560718.8, -282445.94, 72211.83, 0.12893589, -0.66266036, -264823.0, -183930.92, 0.0, 9.996898, 10.000557 
2.704428e+3, 3.0173957e+2, -528667.75, -195674.81, 76730.31, 0.14244048, -0.6619865, -178844.77, -178844.77, 0.0, 9.996357, 10.000741 
2.7043238e+3, 3.117416e+2, -553477.94, -109556.875, 50710.18, 0.049559444, -0.5172911, -103837.805, -103837.805, 0.0, 9.995531, 10.001397 
2.7042198e+3, 3.217401e+2, -605914.9, -84857.69, -57080.887, 0.12357714, -0.72999156, -78677.875, -78677.875, 0.0, 9.994955, 10.001845 
2.7161846e+3, 1.3187411e+2, -825877.3, -1661791.5, 4563.6406, -0.06584961, -0.49990314, -825852.44, 821731.4, 0.0039532254, 10.007759, 9.996626 
2.7160808e+3, 1.4187038e+2, -870591.25, -1568792.0, 4188.372, 0.07371002, -0.50095826, -870566.1, 679054.9, 0.0022794865, 10.006487, 9.997204 
2.7159756e+3, 1.5186724e+2, -816404.94, -1418850.5, 38249.297, 0.02995147, -0.5223893, -813986.2, 637664.5, 0.0009467945, 10.00587, 9.997854 
2.7158707e+3, 1.6186436e+2, -818498.8, -1391073.3, 41699.406, 0.0019288105, -0.5335009, -815477.9, 538200.4, 0.0002370484, 10.005273, 9.99766 
2.7157667e+3, 1.7186181e+2, -809245.94, -1308793.9, 58091.777, 0.019975148, -0.5070415, -802579.44, 453124.28, 0.000026982894, 10.004551, 9.997897 
2.7156627e+3, 1.8185933e+2, -809550.1, -1250974.8, 69222.91, 0.025580162, -0.49080816, -798949.4, 358779.13, 0.00000046438151, 10.003844, 9.997962 
2.715559e+3, 1.9185668e+2, -782769.8, -1148947.6, 88873.52, 0.0030730627, -0.5134337, -762339.56, 297414.78, 0.0, 10.003193, 9.998302 
2.7154556e+3, 2.0185435e+2, -762842.94, -1065394.0, 91517.31, -0.0125683155, -0.5284811, -737314.3, 224462.75, 0.0, 10.002556, 9.998509 
2.7153525e+3, 2.1185268e+2, -728579.1, -953430.25, 99386.92, -0.010063268, -0.5133087, -690947.1, 172845.75, 0.0, 10.001927, 9.998907 
2.7152494e+3, 2.2185113e+2, -717800.7, -888312.2, 99645.03, -0.0072112265, -0.5093317, -671916.56, 93891.055, 0.0, 10.001288, 9.99899 
2.7151462e+3, 2.3184937e+2, -694698.6, -788946.06, 96267.7, -0.0040450064, -0.5451534, -634639.7, 33183.152, 0.0, 10.000612, 9.999325 
2.715043e+3, 2.4184792e+2, -674375.75, -701432.5, 96656.73, 0.0013835928, -0.5757507, -590305.25, -20469.94, 0.0, 9.999963, 9.999566 
2.7149403e+3, 2.5184712e+2, -627715.75, -581721.75, 91869.734, 0.012805725, -0.5819775, -510014.44, -38172.875, 0.0, 9.999409, 9.999983 
2.7148375e+3, 2.6184648e+2, -618270.94, -527586.0, 86620.12, 0.027102694, -0.58703434, -475158.4, -101312.164, 0.0, 9.998805, 9.999973 
2.714734e+3, 2.7184597e+2, -609287.4, -437576.38, 68896.81, 0.049888868, -0.5936541, -413350.38, -137500.42, 0.0, 9.99804, 10.000288 
2.714631e+3, 2.8184557e+2, -611005.9, -384868.72, 70137.46, 0.08142117, -0.6103143, -364881.78, -187028.72, 0.0, 9.997343, 10.000313 
2.7145278e+3, 2.9184505e+2, -551101.44, -265833.25, 57125.492, 0.12765472, -0.6549762, -254819.03, -174962.05, 0.0, 9.996907, 10.0006695 
2.7144238e+3, 3.0184513e+2, -534967.3, -213284.31, 50810.75, 0.123304434, -0.6579561, -205449.44, -205449.44, 0.0, 9.996371, 10.000616 
2.7143186e+3, 3.118465e+2, -573303.9, -148796.11, 18212.58, 0.055000026, -0.5531883, -148016.17, -148016.17, 0.0, 9.995518, 10.001137 
2.7142143e+3, 3.2184553e+2, -550000.5, 20127.363, -50192.24, 0.1481933, -0.7204646, 24512.4, 24512.4, 0.0, 9.994996, 10.002549 
2.7261916e+3, 1.3198002e+2, -872203.25, -1667679.9, 16052.264, -0.073225416, -0.51519537, -871879.44, 774665.2, 0.003022271, 10.007366, 9.996773 
2.7260864e+3, 1.4197628e+2, -909268.44, -1579637.0, 48874.434, 0.065123826, -0.52363026, -905723.9, 642857.56, 0.0017067606, 10.006189, 9.997271 
2.7259806e+3, 1.5197326e+2, -856521.7, -1436431.8, 81409.766, 0.024948211, -0.53356516, -845309.9, 605300.5, 0.00068716705, 10.005591, 9.997865 
2.7258754e+3, 1.6197047e+2, -850794.44, -1402691.1, 71595.22, -0.0010831407, -0.5371348, -841657.94, 510979.5, 0.0001658962, 10.00504, 9.997689 
2.7257705e+3, 1.7196788e+2, -822491.94, -1312193.3, 87260.51, 0.0120200245, -0.5164933, -807407.5, 447256.03, 0.000017496268, 10.004453, 9.997918 
2.725666e+3, 1.8196538e+2, -804653.4, -1239366.0, 98007.42, 0.015613719, -0.5044124, -783578.94, 373109.56, 0.00000026035462, 10.003844, 9.998038 
2.725562e+3, 1.9196284e+2, -784261.25, -1139576.3, 117006.45, 0.00084842916, -0.524844, -749191.94, 309521.25, 0.0, 10.003145, 9.998386 
2.7254578e+3, 2.019606e+2, -771520.2, -1060498.6, 120147.016, -0.009353798, -0.53775066, -728093.4, 232641.55, 0.0, 10.002464, 9.998584 
2.7253538e+3, 2.1195899e+2, -739677.3, -952986.4, 127424.81, -0.0104884, -0.52111423, -680162.44, 182587.88, 0.0, 10.001833, 9.998953 
2.72525e+3, 2.2195742e+2, -728621.44, -894794.7, 127421.69, -0.010496658, -0.51650274, -659590.75, 105174.25, 0.0, 10.001226, 9.998972 
2.7251464e+3, 2.3195562e+2, -690547.9, -793101.8, 125229.09, -0.0059195664, -0.553019, -606504.3, 60276.88, 0.0, 10.000674, 9.999264 
2.7250427e+3, 2.4195412e+2, -653692.94, -690337.6, 127575.555, 0.0011356173, -0.5822054, -543130.7, 25663.475, 0.0, 10.000107, 9.99957 
2.7249393e+3, 2.5195336e+2, -616535.1, -574685.5, 122714.72, 0.012549301, -0.5826219, -471124.38, -324.42255, 0.0, 9.999485, 9.999991 
2.7248356e+3, 2.6195273e+2, -610107.4, -529150.1, 116129.18, 0.027750384, -0.58520997, -446647.03, -73842.29, 0.0, 9.998891, 9.999917 
2.724732e+3, 2.7195206e+2, -563807.44, -425897.38, 97447.68, 0.055868093, -0.59901637, -375475.5, -100665.39, 0.0, 9.998404, 10.00019 
2.7246282e+3, 2.8195155e+2, -536841.1, -349903.94, 99242.54, 0.08685976, -0.6175621, -307044.03, -130229.82, 0.0, 9.997863, 10.000299 
2.724524e+3, 2.919512e+2, -510789.94, -244816.38, 78219.33, 0.111145064, -0.6470214, -223518.53, -144701.83, 0.0, 9.997184, 10.000677 
2.7244195e+3, 3.0195126e+2, -514074.47, -203248.81, 64629.07, 0.103422396, -0.64916116, -190346.27, -190346.27, 0.0, 9.996521, 10.000609 
2.7243143e+3, 3.119521e+2, -510666.44, -121106.93, 46005.645, 0.0959122, -0.5913463, -115747.555, -115747.555, 0.0, 9.995964, 10.001109 
2.724209e+3, 3.219516e+2, -510788.3, 22270.246, -19161.482, 0.15240121, -0.70485276, 22958.143, 22958.143, 0.0, 9.995344, 10.002393 
2.7361986e+3, 1.3208677e+2, -861465.75, -1624287.9, -32825.605, -0.06633541, -0.52765507, -860055.8, 785441.4, 0.0022292673, 10.007265, 9.997122 
2.736092e+3, 1.4208299e+2, -903445.0, -1577578.8, 20264.424, 0.038891546, -0.56307465, -902836.4, 644697.3, 0.0012292089, 10.006225, 9.99727 
2.7359855e+3, 1.520801e+2, -866226.5, -1460710.5, 62534.973, 0.015063545, -0.54480386, -859719.56, 589842.44, 0.00047784482, 10.005603, 9.997695 
2.73588e+3, 1.6207738e+2, -853626.75, -1407497.4, 51571.57, 0.00028705448, -0.5300436, -848865.75, 502723.3, 0.00011033935, 10.005031, 9.997663 
2.7357745e+3, 1.7207459e+2, -822005.5, -1310746.1, 67045.445, -0.0005796543, -0.53165865, -812975.06, 440642.1, 0.000010301128, 10.004446, 9.997933 
2.7356693e+3, 1.8207197e+2, -800422.7, -1230781.4, 74326.2, -0.004818573, -0.5338965, -787947.6, 367695.53, 0.00000012239367, 10.00384, 9.998101 
2.735564e+3, 1.9206966e+2, -779346.1, -1130428.1, 91712.29, -0.004833687, -0.5369856, -756832.06, 300833.25, 0.0, 10.003145, 9.99845 
2.7354598e+3, 2.0206764e+2, -767415.9, -1053603.8, 96357.97, -0.0037810786, -0.535371, -737996.8, 221688.22, 0.0, 10.002467, 9.998632 
2.7353552e+3, 2.1206605e+2, -737927.1, -950723.0, 104312.86, -0.007740839, -0.51888967, -695322.75, 166377.53, 0.0, 10.001834, 9.99897 
2.7352506e+3, 2.2206445e+2, -729840.94, -898572.2, 106295.28, -0.011181195, -0.51795113, -678500.06, 85215.33, 0.0, 10.001227, 9.998948 
2.7351466e+3, 2.320625e+2, -694047.7, -801894.2, 104832.695, -0.009034288, -0.56434906, -630082.8, 35650.184, 0.0, 10.000676, 9.999205 
2.7350423e+3, 2.4206091e+2, -653216.5, -690983.1, 104971.47, -0.00042012965, -0.5979243, -565443.4, 2303.4587, 0.0, 10.000109, 9.999566 
2.7349383e+3, 2.520603e+2, -616200.3, -575536.06, 98954.75, 0.023974571, -0.5874829, -494846.25, -25094.527, 0.0, 9.999487, 9.999987 
2.7348343e+3, 2.620597e+2, -614267.0, -539466.44, 96697.734, 0.04533213, -0.584618, -473188.22, -101431.88, 0.0, 9.998894, 9.999847 
2.7347296e+3, 2.720588e+2, -569723.6, -441507.0, 79528.74, 0.05761535, -0.6103325, -403464.97, -129701.25, 0.0, 9.998413, 10.00008 
2.7346253e+3, 2.8205815e+2, -542215.1, -365833.16, 75868.46, 0.07070825, -0.6327255, -337689.8, -161920.52, 0.0, 9.997878, 10.000185 
2.73452e+3, 2.9205787e+2, -519418.9, -265260.78, 51502.813, 0.076502755, -0.6388798, -255220.81, -177449.5, 0.0, 9.9971895, 10.000537 
2.7344152e+3, 3.0205795e+2, -504549.16, -184284.06, 42388.01, 0.08314183, -0.6344588, -178768.86, -178768.86, 0.0, 9.996519, 10.000743 
2.7343106e+3, 3.1205854e+2, -490202.97, -84271.86, 26863.623, 0.1842143, -0.6299364, -82501.805, -82501.805, 0.0, 9.995983, 10.001355 
2.7342036e+3, 3.2205826e+2, -609993.9, -187454.4, -51305.336, 0.12066488, -0.68153256, -181314.08, -181314.08, 0.0, 9.995355, 10.00095 
2.7462047e+3, 1.3219425e+2, -990275.8, -1663931.9, 4145.6016, -0.038644765, -0.54153633, -990250.3, 654192.1, 0.0015730275, 10.006281, 9.99732 
2.746097e+3, 1.4219055e+2, -897300.7, -1572084.9, 42376.004, -0.0034269304, -0.5826479, -894649.94, 651828.2, 0.0008433425, 10.00626, 9.997289 
2.7459905e+3, 1.521877e+2, -893221.2, -1481853.6, 85882.85, -0.0010620252, -0.5550198, -880946.6, 567560.0, 0.00031470534, 10.005457, 9.997617 
2.7458844e+3, 1.6218497e+2, -899118.1, -1427174.3, 83056.43, 0.006211293, -0.5327698, -886362.5, 464171.4, 0.00006821223, 10.004713, 9.997678 
2.745778e+3, 1.7218217e+2, -858414.8, -1323964.3, 101690.52, -0.0008027841, -0.5363594, -837171.8, 415390.25, 0.0000052487594, 10.004184, 9.997966 
2.7456722e+3, 1.8217959e+2, -825665.3, -1236863.0, 105860.84, -0.01165197, -0.5414965, -800012.4, 354575.7, 0.00000004180331, 10.003648, 9.99815 
2.7455667e+3, 1.921773e+2, -794087.25, -1133396.6, 119806.63, -0.013782099, -0.54587895, -756049.06, 300560.94, 0.0, 10.003033, 9.998482 
2.7454615e+3, 2.0217527e+2, -773174.8, -1052642.4, 122764.83, -0.012190707, -0.54319745, -726906.6, 231722.78, 0.0, 10.002417, 9.99866 
2.7453566e+3, 2.1217373e+2, -744663.0, -952595.4, 129610.14, -0.010812504, -0.52280605, -682473.4, 178170.95, 0.0, 10.001788, 9.998976 
2.7452514e+3, 2.2217214e+2, -734980.75, -897477.3, 134018.53, -0.010618256, -0.5217203, -659505.56, 103153.945, 0.0, 10.001183, 9.998974 
2.7451465e+3, 2.321701e+2, -699806.7, -802631.25, 137658.64, -0.009976875, -0.5752745, -604273.0, 60404.566, 0.0, 10.000634, 9.999216 
2.7450418e+3, 2.4216849e+2, -658312.44, -697151.7, 139317.16, -0.0013933944, -0.610914, -537067.94, 29623.83, 0.0, 10.000096, 9.999527 
2.7449372e+3, 2.5216788e+2, -608537.3, -580198.94, 126542.73, 0.027535912, -0.5901821, -467034.6, 1662.2054, 0.0, 9.999582, 9.999906 
2.7448326e+3, 2.6216725e+2, -587809.1, -529627.5, 124525.375, 0.05114565, -0.5829622, -430840.06, -60138.133, 0.0, 9.999095, 9.999815 
2.7447277e+3, 2.721662e+2, -531907.6, -426031.97, 113237.59, 0.057670824, -0.62080663, -353969.13, -81258.54, 0.0, 9.998692, 10.000049 
2.7446225e+3, 2.821654e+2, -501238.03, -352564.97, 106608.18, 0.06613515, -0.6483043, -296935.25, -122218.17, 0.0, 9.998194, 10.000121 
2.744517e+3, 2.9216522e+2, -487094.44, -259540.02, 81256.414, 0.07279581, -0.63879836, -233503.56, -156784.66, 0.0, 9.99746, 10.0004425 
2.7444112e+3, 3.0216527e+2, -453430.6, -156789.28, 80604.27, 0.08220732, -0.6298469, -136302.17, -136302.17, 0.0, 9.996864, 10.000762 
2.7443063e+3, 3.1216556e+2, -382466.9, -26253.293, 52626.117, 0.19232203, -0.6566099, -18641.111, -18641.111, 0.0, 9.996702, 10.001405 
2.7441984e+3, 3.221655e+2, -534364.94, -211768.48, -35397.977, 0.11317495, -0.67101717, -207929.98, -207929.98, 0.0, 9.996141, 10.0004015 
2.756211e+3, 1.323024e+2, -984450.2, -1651443.0, 13016.965, 0.00012631855, -0.5559297, -984196.25, 659185.2, 0.0010504123, 10.006272, 9.997413 
2.7561024e+3, 1.4229885e+2, -904127.56, -1573970.3, 21842.637, -0.05701827, -0.58832324, -903416.06, 641999.56, 0.00054443, 10.0062, 9.997306 
2.755995e+3, 1.5229595e+2, -898778.0, -1488545.9, 55316.777, -0.021265034, -0.5645211, -893634.5, 553810.5, 0.00019315787, 10.005431, 9.997586 
2.7558884e+3, 1.622932e+2, -896983.9, -1423625.6, 61078.063, 0.015642358, -0.54243433, -889993.06, 459479.56, 0.000037891114, 10.004712, 9.9977045 
2.7557817e+3, 1.7229058e+2, -856731.6, -1320244.9, 82905.94, 0.008243902, -0.53297246, -842349.0, 409150.22, 0.0000021674161, 10.004178, 9.997996 
2.7556753e+3, 1.8228805e+2, -825546.56, -1235481.5, 83864.08, -0.008519868, -0.5324426, -809053.4, 344471.1, 0.000000007574917, 10.003638, 9.998165 
2.7555692e+3, 1.922856e+2, -795735.06, -1136299.6, 97222.984, -0.025878578, -0.55266887, -769934.8, 285613.0, 0.0, 10.003026, 9.9984665 
2.755463e+3, 2.0228347e+2, -773808.1, -1054055.6, 99835.88, -0.032294158, -0.5598027, -741879.94, 215688.23, 0.0, 10.002414, 9.998654 
2.7553573e+3, 2.12282e+2, -746105.0, -956431.6, 106327.22, -0.01880927, -0.5319047, -701719.7, 157863.0, 0.0, 10.001788, 9.998952 
2.7552518e+3, 2.2228044e+2, -730781.06, -890139.3, 112926.89, -0.009291726, -0.5269549, -672252.94, 89344.46, 0.0, 10.001184, 9.999025 
2.7551466e+3, 2.3227842e+2, -694717.06, -793833.0, 117104.945, -0.008961887, -0.58566016, -617115.44, 46499.523, 0.0, 10.000638, 9.999277 
2.7550414e+3, 2.422768e+2, -664472.6, -711636.06, 119618.484, -0.0019395114, -0.62173516, -566133.56, -504.43185, 0.0, 10.0001, 9.999428 
2.7549362e+3, 2.5227615e+2, -620605.1, -606852.56, 107020.64, 0.022671007, -0.59081006, -506487.53, -38852.29, 0.0, 9.999585, 9.999723 
2.754831e+3, 2.6227543e+2, -587580.94, -531281.9, 108635.555, 0.044225637, -0.5799153, -447208.06, -77566.63, 0.0, 9.9991, 9.999804 
2.7547258e+3, 2.722743e+2, -528088.8, -420906.7, 98346.17, 0.056161743, -0.6302509, -362497.88, -90847.39, 0.0, 9.998699, 10.000083 
2.7546203e+3, 2.8227344e+2, -501958.97, -356625.78, 82485.555, 0.07539986, -0.6646586, -319363.78, -145706.55, 0.0, 9.9982, 10.000092 
2.7545145e+3, 2.9227325e+2, -490894.25, -269198.6, 53374.195, 0.106933855, -0.6487425, -257017.77, -181358.67, 0.0, 9.997463, 10.000377 
2.7544078e+3, 3.022732e+2, -462601.6, -180037.19, 71006.305, 0.102394685, -0.63725317, -163197.42, -163197.42, 0.0, 9.996878, 10.000599 
2.7543014e+3, 3.122733e+2, -391681.72, -56945.22, 48071.414, 0.091062635, -0.6661619, -50178.484, -50178.484, 0.0, 9.996747, 10.001175 
2.7541944e+3, 3.222733e+2, -477923.03, -104817.586, -83908.39, 0.16049191, -0.6829272, -86815.83, -86815.83, 0.0, 9.99618, 10.00112 
2.7662167e+3, 1.3241081e+2, -1034693.25, -1648539.3, 32147.625, 0.0041918308, -0.5694123, -1033014.25, 609304.1, 0.0006548719, 10.005812, 9.997652 
2.7661073e+3, 1.4240766e+2, -1005718.7, -1606417.4, 33450.89, -0.0768588, -0.582809, -1003861.7, 540486.94, 0.0003256217, 10.005434, 9.99745 
2.7659997e+3, 1.5240473e+2, -961640.4, -1508533.4, 69211.35, -0.027410377, -0.5697532, -953017.4, 493360.7, 0.00010791702, 10.004959, 9.997673 
2.7658924e+3, 1.6240197e+2, -930736.94, -1436934.8, 80563.81, 0.018137269, -0.5551917, -918224.1, 430181.88, 0.000017999177, 10.004473, 9.997726 
2.7657852e+3, 1.7239939e+2, -897489.2, -1341631.3, 100236.81, 0.0008213601, -0.54044217, -875915.06, 374517.44, 0.00000067353216, 10.003911, 9.997975 
2.7656782e+3, 1.823969e+2, -861724.06, -1244173.3, 98727.15, -0.020911764, -0.5354321, -837742.0, 314715.3, 0.00000000009023617, 10.003357, 9.998239 
2.7655712e+3, 1.9239452e+2, -823064.5, -1139877.0, 117198.26, -0.0290731, -0.55569416, -784422.6, 270057.13, 0.0, 10.002803, 9.998548 
2.7654648e+3, 2.0239243e+2, -796867.5, -1064145.1, 123285.57, -0.030238435, -0.56472516, -748685.9, 207813.84, 0.0, 10.002256, 9.998657 
2.7653587e+3, 2.1239085e+2, -761204.8, -968217.25, 127932.28, -0.022469178, -0.5416815, -700150.4, 158364.73, 0.0, 10.00171, 9.998906 
2.7652526e+3, 2.2238924e+2, -731452.4, -889874.7, 133914.72, -0.015343997, -0.5384579, -655075.75, 105454.63, 0.0, 10.0011835, 9.999024 
2.7651468e+3, 2.3238729e+2, -685720.9, -789057.94, 133565.88, -0.008648674, -0.59050107, -594178.1, 68369.34, 0.0, 10.000704, 9.999275 
2.765041e+3, 2.4238569e+2, -645525.75, -704367.4, 136208.3, 0.00079437735, -0.623273, -535597.06, 28964.414, 0.0, 10.000244, 9.999405 
2.7649352e+3, 2.523849e+2, -589738.25, -597432.94, 132108.58, 0.016545864, -0.5994683, -461421.0, 5147.775, 0.0, 9.999826, 9.999668 
2.7648297e+3, 2.6238406e+2, -550575.7, -515203.06, 138718.16, 0.033941295, -0.593199, -393048.28, -24472.344, 0.0, 9.999368, 9.999782 
2.7647242e+3, 2.7238294e+2, -512317.0, -415574.4, 122850.98, 0.05469224, -0.64000154, -331914.84, -61329.953, 0.0, 9.998823, 10.000056 
2.764618e+3, 2.8238207e+2, -483737.3, -347521.88, 102016.445, 0.0812614, -0.67234176, -292967.38, -120375.75, 0.0, 9.998331, 10.000088 
2.7645114e+3, 2.9238182e+2, -415132.25, -234034.67, 74672.945, 0.11475867, -0.6599056, -207215.95, -132622.14, 0.0, 9.997995, 10.000359 
2.7644044e+3, 3.0238172e+2, -373459.9, -148745.25, 100895.39, 0.10300653, -0.65245956, -110092.484, -110092.484, 0.0, 9.997545, 10.000489 
2.7642977e+3, 3.123816e+2, -388262.88, -72474.64, 83158.94, 0.060285058, -0.6842948, -51914.395, -51914.395, 0.0, 9.99685, 10.001016 
2.7641907e+3, 3.2238176e+2, -402861.13, -17447.682, -66283.305, 0.1896903, -0.6869368, -6366.875, -6366.875, 0.0, 9.996481, 10.001573 
2.7762213e+3, 1.3251957e+2, -1015553.9, -1604278.4, 20100.518, -0.012706278, -0.58119875, -1014868.4, 626384.06, 0.00037463335, 10.005787, 9.997971 
2.776112e+3, 1.4251696e+2, -991584.75, -1576605.0, 15621.54, -0.07398362, -0.5701955, -991167.9, 552109.3, 0.00017672508, 10.005426, 9.997661 
2.776004e+3, 1.5251404e+2, -953288.6, -1487497.5, 51143.71, -0.024261322, -0.5724447, -948436.3, 496869.9, 0.000052897, 10.004939, 9.997829 
2.7758965e+3, 1.6251124e+2, -934458.5, -1439281.0, 59905.043, 0.015003963, -0.5701542, -927447.2, 419887.13, 0.0000068005206, 10.004446, 9.9977255 
2.7757883e+3, 1.725086e+2, -904719.06, -1353931.3, 79876.0, -0.019245008, -0.55587786, -890938.75, 358422.97, 0.00000013728719, 10.003896, 9.9979 
2.7756807e+3, 1.8250614e+2, -855235.94, -1229703.8, 78622.2, -0.044894163, -0.54734766, -839398.44, 311988.0, 0.0, 10.003349, 9.998343 
2.7755737e+3, 1.9250405e+2, -814404.44, -1120494.9, 96776.836, -0.02452397, -0.5552958, -786373.44, 267032.53, 0.0, 10.002793, 9.998687 
2.7754667e+3, 2.0250207e+2, -798431.5, -1066633.6, 102664.27, -0.010243079, -0.559735, -763644.94, 191779.58, 0.0, 10.00225, 9.998646 
2.7753597e+3, 2.1250027e+2, -766410.8, -980499.25, 107488.55, -0.022921223, -0.55234575, -721757.1, 135684.78, 0.0, 10.001712, 9.998822 
2.775253e+3, 2.224985e+2, -734894.3, -899275.06, 115650.33, -0.027929816, -0.55604887, -675203.56, 84255.12, 0.0, 10.001189, 9.99896 
2.775147e+3, 2.3249668e+2, -690652.4, -800881.94, 115737.07, -0.008873251, -0.5899411, -617577.06, 43897.99, 0.0, 10.000707, 9.999194 
2.775041e+3, 2.424951e+2, -642266.94, -699068.75, 120196.16, 0.006243822, -0.61558264, -547161.9, 16326.986, 0.0, 10.000247, 9.999442 
2.7749345e+3, 2.524941e+2, -585014.6, -589495.5, 116342.49, 0.008861732, -0.6168063, -470891.03, -5393.616, 0.0, 9.99983, 9.9997225 
2.7748284e+3, 2.6249316e+2, -553726.06, -523778.28, 119452.51, 0.019885013, -0.6238732, -418364.8, -50859.395, 0.0, 9.9993725, 9.9997225 
2.7747223e+3, 2.7249217e+2, -520023.2, -432582.4, 101755.22, 0.053171817, -0.6496083, -365552.66, -96038.9, 0.0, 9.998823, 9.999942 
2.774616e+3, 2.8249133e+2, -482836.53, -347053.5, 87988.99, 0.08224509, -0.6700302, -303808.5, -132288.36, 0.0, 9.998333, 10.0000925 
2.774509e+3, 2.9249096e+2, -410353.06, -230135.95, 62933.215, 0.08977986, -0.672751, -210334.81, -136811.9, 0.0, 9.998017, 10.000378 
2.7744013e+3, 3.024907e+2, -373300.72, -155695.6, 77712.99, 0.081619285, -0.67770755, -130792.12, -130792.12, 0.0, 9.997573, 10.00043 
2.7742943e+3, 3.1249043e+2, -396949.44, -87913.414, 55331.508, 0.12567848, -0.71454906, -78305.28, -78305.28, 0.0, 9.996834, 10.000919 
2.774186e+3, 3.22491e+2, -399796.38, -15694.521, -54861.207, 0.17177576, -0.675909, -8012.35, -8012.35, 0.0, 9.996495, 10.00158 
2.786226e+3, 1.3262884e+2, -1085421.6, -1624903.8, 45335.01, -0.040534023, -0.5882329, -1081638.5, 558543.0, 0.00019200878, 10.005253, 9.998084 
2.786117e+3, 1.4262648e+2, -1038207.44, -1580387.3, 21463.836, -0.04943735, -0.56235075, -1037359.06, 504844.84, 0.0000841053, 10.00503, 9.997824 
2.7860084e+3, 1.5262371e+2, -1012995.5, -1497640.3, 54322.594, -0.023740081, -0.5666257, -1006981.25, 437250.2, 0.00002138492, 10.004453, 9.997992 
2.7859e+3, 1.6262104e+2, -999780.75, -1454549.5, 67617.58, 0.0005306838, -0.5683177, -989939.94, 356318.44, 0.0000018188787, 10.003932, 9.997866 
2.7857915e+3, 1.7261842e+2, -951718.0, -1363717.3, 98970.1, -0.020070622, -0.56057256, -929176.75, 319108.38, 0.000000010211085, 10.003523, 9.998011 
2.7856833e+3, 1.8261603e+2, -891316.75, -1240313.9, 100053.0, -0.037323542, -0.55497605, -864667.7, 285641.44, 0.0, 10.0030775, 9.9984 
2.7855757e+3, 1.92614e+2, -855854.06, -1138289.4, 109619.125, -0.02295144, -0.5563777, -818301.5, 234026.42, 0.0, 10.002504, 9.998701 
2.7854684e+3, 2.0261206e+2, -831563.75, -1078897.8, 115400.92, -0.011722532, -0.55963796, -786083.2, 168262.94, 0.0, 10.002011, 9.998673 
2.7853608e+3, 2.1261013e+2, -767683.25, -979387.44, 126892.305, -0.020827573, -0.5664526, -708289.1, 148075.33, 0.0, 10.001701, 9.998832 
2.7852538e+3, 2.2260828e+2, -715827.3, -890119.6, 137221.33, -0.025815958, -0.578283, -640418.44, 117963.375, 0.0, 10.001327, 9.998953 
2.7851468e+3, 2.326065e+2, -684207.44, -800647.25, 138986.33, -0.014551549, -0.6020822, -591739.75, 68658.125, 0.0, 10.00077, 9.999163 
2.78504e+3, 2.42605e+2, -641477.5, -698118.8, 147928.4, -0.003257602, -0.61889255, -519183.2, 43228.176, 0.0, 10.000256, 9.999442 
2.7849337e+3, 2.5260398e+2, -580684.44, -588104.7, 139417.88, 0.0037207364, -0.6192046, -444927.3, 19492.63, 0.0, 9.999869, 9.999711 
2.784827e+3, 2.6260298e+2, -543445.06, -519711.1, 136790.75, 0.016952682, -0.62917954, -394273.53, -27845.146, 0.0, 9.999454, 9.999708 
2.7847207e+3, 2.7260187e+2, -502729.66, -427768.1, 122624.89, 0.047804117, -0.661867, -337023.78, -68586.06, 0.0, 9.998963, 9.999905 
2.7846137e+3, 2.82601e+2, -459875.3, -338035.75, 116869.25, 0.075818464, -0.6835518, -267161.6, -96717.02, 0.0, 9.998505, 10.00007 
2.784506e+3, 2.926007e+2, -392720.06, -225470.7, 87936.4, 0.08433566, -0.67831177, -187745.08, -115298.445, 0.0, 9.99816, 10.000338 
2.7843985e+3, 3.0260035e+2, -350016.28, -151929.14, 90635.47, 0.08066131, -0.68518305, -116717.664, -116717.664, 0.0, 9.99777, 10.000358 
2.784291e+3, 3.1259975e+2, -339347.2, -71089.93, 63480.41, 0.14196897, -0.74422354, -56826.336, -56826.336, 0.0, 9.997282, 10.000816 
2.7841824e+3, 3.226006e+2, -363053.06, 3959.227, -27277.004, 0.16223587, -0.6675091, 5975.4263, 5975.4263, 0.0, 9.996744, 10.001593 
2.7962306e+3, 1.3273856e+2, -1087078.9, -1628791.3, 41917.395, -0.07317208, -0.5925307, -1083854.6, 555251.44, 0.00008479547, 10.005251, 9.99806 
2.7961218e+3, 1.4273632e+2, -1036001.1, -1565671.5, 3603.1423, -0.011257629, -0.5573462, -1035976.6, 505151.3, 0.00003294215, 10.004982, 9.99795 
2.796012e+3, 1.5273377e+2, -1005888.75, -1477662.1, 33789.715, -0.02605839, -0.5545103, -1003480.94, 439672.44, 0.0000063697858, 10.004427, 9.998143 
2.795903e+3, 1.6273129e+2, -984903.0, -1422033.4, 51788.61, -0.021689406, -0.5544772, -978851.2, 366327.03, 0.00000027419946, 10.0039215, 9.9980955 
2.7957946e+3, 1.7272882e+2, -937335.44, -1331161.1, 84146.02, -0.0058818236, -0.55757284, -920109.94, 327093.1, 0.0, 10.003508, 9.998243 
2.7956864e+3, 1.8272649e+2, -893473.44, -1242365.6, 79631.6, -0.006244702, -0.55945224, -876157.6, 273068.4, 0.0, 10.003063, 9.998394 
2.7955776e+3, 1.927244e+2, -862346.06, -1153226.1, 88674.74, -0.02489032, -0.55868363, -837445.25, 213800.45, 0.0, 10.002507, 9.998599 
2.7954695e+3, 2.027224e+2, -826239.7, -1070989.3, 102747.29, -0.03079352, -0.56392604, -788825.25, 164439.22, 0.0, 10.002022, 9.998725 
2.7953622e+3, 2.1272041e+2, -762057.5, -968666.4, 116117.36, -0.015911283, -0.5837392, -709943.0, 145339.6, 0.0, 10.001702, 9.998907 
2.7952546e+3, 2.2271854e+2, -714128.0, -886496.9, 118769.51, -0.011145317, -0.6044577, -653567.94, 103731.984, 0.0, 10.001323, 9.998981 
2.7951473e+3, 2.3271678e+2, -683980.25, -801363.8, 117828.234, -0.02615383, -0.62619543, -611035.3, 48280.62, 0.0, 10.000771, 9.999159 
2.7950397e+3, 2.4271534e+2, -644816.44, -706644.2, 132111.67, -0.027307324, -0.63271016, -540049.94, 21279.1, 0.0, 10.000258, 9.999384 
2.794933e+3, 2.5271454e+2, -586886.94, -602337.3, 124822.26, 0.0016463787, -0.6056343, -469551.03, -6214.6763, 0.0, 9.999871, 9.999614 
2.794826e+3, 2.6271355e+2, -541792.5, -517243.53, 119313.0, 0.02546123, -0.6079729, -409575.3, -44230.54, 0.0, 9.999454, 9.999727 
2.794719e+3, 2.727121e+2, -500236.97, -423653.94, 103998.5, 0.037468143, -0.6780113, -351121.6, -83764.76, 0.0, 9.998964, 9.999934 
2.7946115e+3, 2.827111e+2, -464993.06, -350043.38, 102848.17, 0.06113271, -0.71512604, -289700.13, -120335.195, 0.0, 9.998507, 9.999988 
2.794504e+3, 2.9271096e+2, -402031.13, -245451.17, 74596.66, 0.10345708, -0.6742344, -215602.44, -144237.73, 0.0, 9.998158, 10.000203 
2.7943957e+3, 3.0271062e+2, -357662.63, -168514.92, 73978.7, 0.102831975, -0.67005295, -143017.7, -143017.7, 0.0, 9.997769, 10.000247 
2.7942872e+3, 3.1270948e+2, -345510.94, -88537.53, 44918.457, 0.089360915, -0.77334064, -80912.15, -80912.15, 0.0, 9.997298, 10.000691 
2.7941784e+3, 3.2271063e+2, -364721.03, 1192.2875, -53640.28, 0.17714442, -0.662479, 8893.486, 8893.486, 0.0, 9.996737, 10.001579 
2.806235e+3, 1.3284862e+2, -1142556.8, -1641952.0, 49511.793, -0.07083339, -0.5911431, -1137695.3, 500332.0, 0.00002975727, 10.004815, 9.998178 
2.806126e+3, 1.428465e+2, -1125666.6, -1583532.5, 16213.085, -0.0008408202, -0.55994946, -1125093.3, 414955.22, 0.000009328045, 10.00426, 9.998173 
2.8060156e+3, 1.5284424e+2, -1065972.0, -1480632.8, 52075.895, -0.022288917, -0.55235356, -1059532.0, 382539.03, 0.0000010925654, 10.003907, 9.998371 
2.805906e+3, 1.6284196e+2, -1029433.44, -1426623.9, 70425.86, -0.022940705, -0.5497726, -1017315.94, 326777.88, 0.000000008864735, 10.003548, 9.998242 
2.8057975e+3, 1.7283957e+2, -989695.2, -1344050.5, 95201.98, -0.006895884, -0.5560044, -965737.75, 280380.03, 0.0, 10.003099, 9.998349 
2.8056884e+3, 1.8283731e+2, -935440.75, -1246647.9, 89604.055, -0.006427805, -0.5616738, -911485.5, 236654.31, 0.0, 10.002711, 9.998531 
2.8055796e+3, 1.928353e+2, -864620.44, -1140702.5, 112160.414, -0.024670403, -0.56549865, -824798.4, 225359.97, 0.0, 10.002439, 9.998715 
2.8054708e+3, 2.0283331e+2, -811662.25, -1058199.9, 134269.83, -0.030751724, -0.5753836, -752657.7, 199518.84, 0.0, 10.002102, 9.998771 
2.8053632e+3, 2.128313e+2, -776834.9, -974218.7, 142793.69, -0.01633194, -0.5994665, -701946.5, 152248.33, 0.0, 10.001599, 9.998916 
2.8052554e+3, 2.2282942e+2, -736998.6, -893363.8, 142038.77, -0.010841965, -0.61983496, -653046.94, 103165.01, 0.0, 10.001153, 9.999014 
2.8051475e+3, 2.328278e+2, -673042.7, -793511.06, 141697.13, -0.024011109, -0.6315323, -579308.56, 78918.53, 0.0, 10.00084, 9.999177 
2.8050396e+3, 2.428264e+2, -617994.44, -696370.8, 156998.36, -0.024904309, -0.63312995, -495367.3, 64872.74, 0.0, 10.00046, 9.999354 
2.8049323e+3, 2.5282547e+2, -584431.56, -607670.1, 150802.22, 0.002433692, -0.6124554, -444801.66, 17447.084, 0.0, 9.999922, 9.999551 
2.804825e+3, 2.6282442e+2, -545037.9, -520514.66, 146700.42, 0.024271144, -0.6165097, -385564.3, -21306.326, 0.0, 9.999444, 9.999707 
2.8047174e+3, 2.72823e+2, -479415.63, -416150.16, 126349.93, 0.031386554, -0.67896265, -317533.38, -51263.766, 0.0, 9.999123, 9.999907 
2.8046095e+3, 2.8282192e+2, -426185.53, -342595.63, 124860.695, 0.054691553, -0.71389556, -252720.48, -84442.375, 0.0, 9.998827, 9.999882 
2.8045017e+3, 2.928216e+2, -350236.72, -237395.5, 94954.67, 0.10718091, -0.6808143, -183363.97, -113083.96, 0.0, 9.998592, 10.000048 
2.8043932e+3, 3.0282107e+2, -311562.78, -158434.72, 82261.43, 0.105875336, -0.6800823, -122619.945, -122619.945, 0.0, 9.998143, 10.0001335 
2.8042838e+3, 3.1281984e+2, -357710.03, -107625.59, 48944.176, 0.06893903, -0.779335, -98387.92, -98387.92, 0.0, 9.997275, 10.000569 
2.804175e+3, 3.228208e+2, -276065.16, 30210.283, -14063.408, 0.18163048, -0.67135626, 30854.684, 30854.684, 0.0, 9.997409, 10.001453 
2.8162393e+3, 1.3295907e+2, -1132672.5, -1615754.1, 28413.664, -0.04878229, -0.586512, -1131007.0, 505938.2, 0.0000068552004, 10.004787, 9.998372 
2.8161293e+3, 1.4295703e+2, -1110293.0, -1546128.8, 2314.0166, -0.00900269, -0.56728786, -1110280.8, 428684.47, 0.0000014085132, 10.004233, 9.998445 
2.816019e+3, 1.5295509e+2, -1049373.4, -1443166.6, 40984.832, -0.0137903495, -0.5569204, -1045153.0, 395831.75, 0.0000000527943, 10.003891, 9.998638 
2.815909e+3, 1.6295302e+2, -1025440.25, -1417244.5, 55171.195, -0.009876353, -0.55149126, -1017819.6, 325185.7, 0.0, 10.00354, 9.998312 
2.8157994e+3, 1.7295067e+2, -988864.0, -1344045.8, 79743.1, -0.020249337, -0.5552885, -971782.06, 273247.13, 0.0, 10.003104, 9.998348 
2.8156903e+3, 1.8294849e+2, -917156.44, -1211157.0, 79196.56, -0.030349292, -0.56225, -897180.1, 249870.2, 0.0, 10.002719, 9.998774 
2.8155813e+3, 1.9294666e+2, -845859.2, -1100947.5, 102445.31, -0.021859154, -0.5761644, -809810.7, 239255.44, 0.0, 10.002432, 9.998993 
2.8154728e+3, 2.029448e+2, -811711.06, -1056394.5, 117124.47, -0.015461455, -0.59246, -764684.4, 186398.22, 0.0, 10.002091, 9.998791 
2.8153643e+3, 2.1294276e+2, -781101.6, -983947.4, 123637.055, -0.022194767, -0.6134414, -722609.75, 130491.55, 0.0, 10.0016, 9.99885 
2.8152558e+3, 2.2294094e+2, -734524.7, -890053.44, 129095.414, -0.022990888, -0.6254637, -661581.0, 93537.18, 0.0, 10.001158, 9.999036 
2.8151476e+3, 2.3293951e+2, -671042.4, -790135.56, 130079.19, -0.008131572, -0.6191932, -587528.2, 69603.38, 0.0, 10.00084, 9.999202 
2.8150398e+3, 2.4293813e+2, -619019.06, -699071.6, 138682.14, 0.0028296593, -0.62127984, -514702.56, 44441.95, 0.0, 10.000459, 9.999338 
2.814932e+3, 2.5293675e+2, -587598.2, -614970.06, 130191.836, 0.005188517, -0.6411725, -470374.94, -9217.704, 0.0, 9.999922, 9.999502 
2.8148237e+3, 2.6293552e+2, -550577.25, -532858.1, 133106.31, 0.012451914, -0.6557312, -408316.84, -45148.79, 0.0, 9.999444, 9.999623 
2.8147158e+3, 2.7293456e+2, -486442.78, -432262.88, 114422.19, 0.030464996, -0.66128814, -341767.53, -76591.836, 0.0, 9.999126, 9.999796 
2.8146076e+3, 2.829336e+2, -435427.8, -364688.66, 115772.46, 0.056960512, -0.67534906, -279003.4, -111819.67, 0.0, 9.9988365, 9.999727 
2.8144997e+3, 2.9293248e+2, -361691.94, -265232.28, 85841.19, 0.09107177, -0.70205945, -214999.8, -145806.78, 0.0, 9.998606, 9.999851 
2.8143907e+3, 3.0293158e+2, -320015.38, -177684.48, 52887.246, 0.086428836, -0.72129387, -160184.38, -160184.38, 0.0, 9.998147, 10.000002 
2.8142804e+3, 3.129309e+2, -371383.25, -130211.46, 13870.262, 0.09271476, -0.7517161, -129416.375, -129416.375, 0.0, 9.997246, 10.00043 
2.8141716e+3, 3.2293105e+2, -288927.1, -11522.118, 57830.973, 0.15951617, -0.7078421, 51.145428, 51.145428, 0.0, 9.997469, 10.00114 
2.8262433e+3, 1.3307013e+2, -1205531.5, -1632617.8, 47216.46, -0.037409313, -0.5905362, -1200373.9, 435482.56, 0.0000006606155, 10.004211, 9.998532 
2.8261328e+3, 1.4306827e+2, -1185907.9, -1565731.4, 29198.395, -0.01688047, -0.56978035, -1183676.4, 354198.63, 0.000000052731323, 10.003645, 9.998591 
2.826022e+3, 1.5306644e+2, -1111619.1, -1459487.6, 63991.902, -0.0127546, -0.55750215, -1100221.0, 339672.22, 0.00000000002039187, 10.003408, 9.998756 
2.825912e+3, 1.6306451e+2, -1065746.8, -1418271.3, 72640.9, -0.005294505, -0.5525143, -1051365.1, 290547.47, 0.0, 10.003188, 9.998472 
2.825802e+3, 1.7306225e+2, -1003740.7, -1333855.1, 105346.31, -0.02627436, -0.56101686, -972987.5, 270947.78, 0.0, 10.002932, 9.998499 
2.8256923e+3, 1.830602e+2, -925024.9, -1202741.5, 105159.51, -0.040449385, -0.56839305, -889698.94, 256256.14, 0.0, 10.002617, 9.998878 
2.825583e+3, 1.9305852e+2, -880977.9, -1109344.4, 115148.984, -0.021430377, -0.57442534, -832997.3, 214972.16, 0.0, 10.002158, 9.999064 
2.825474e+3, 2.0305672e+2, -852629.94, -1068462.0, 123852.945, -0.010037069, -0.5900827, -796273.56, 153711.61, 0.0, 10.001782, 9.998854 
2.8253654e+3, 2.130546e+2, -783349.56, -979805.94, 136664.64, -0.024351196, -0.6241891, -713274.44, 138729.97, 0.0, 10.001567, 9.998892 
2.8252563e+3, 2.2305275e+2, -719984.2, -878951.6, 143872.5, -0.026780257, -0.64134085, -635099.56, 118921.79, 0.0, 10.001245, 9.999067 
2.8251478e+3, 2.3305145e+2, -692599.2, -798850.9, 142408.9, -0.00017827889, -0.62469625, -593729.44, 62304.25, 0.0, 10.0006895, 9.999212 
2.82504e+3, 2.430501e+2, -650475.9, -714140.75, 153035.22, 0.016238257, -0.62336576, -525997.44, 32048.93, 0.0, 10.000247, 9.999334 
2.824931e+3, 2.5304854e+2, -570311.8, -609124.9, 145516.02, 0.008774635, -0.65554523, -442913.94, 17146.389, 0.0, 10.000055, 9.9994755 
2.8248227e+3, 2.6304725e+2, -506346.34, -521557.0, 149408.8, 0.00945974, -0.6731594, -364349.44, -2277.3772, 0.0, 9.999796, 9.99953 
2.8247145e+3, 2.7304634e+2, -453587.16, -430249.16, 128893.32, 0.029545972, -0.65920335, -312497.72, -48418.168, 0.0, 9.999415, 9.999669 
2.8246063e+3, 2.8304532e+2, -415254.1, -362902.1, 132387.16, 0.056137294, -0.6668469, -254127.94, -88039.52, 0.0, 9.999014, 9.999652 
2.8244975e+3, 2.9304388e+2, -369228.47, -278525.66, 109871.23, 0.084158614, -0.7196613, -205013.95, -136912.98, 0.0, 9.998601, 9.999761 
2.824388e+3, 3.0304286e+2, -308827.5, -189986.08, 74234.17, 0.079881534, -0.7391367, -154319.81, -154319.81, 0.0, 9.998305, 9.999838 
2.824278e+3, 3.1304255e+2, -243374.0, -92447.38, 26590.059, 0.10378509, -0.71112764, -87899.805, -87899.805, 0.0, 9.998233, 10.000212 
2.8241685e+3, 3.2304174e+2, -307703.78, -37529.707, 99522.664, 0.14895265, -0.74118495, -4827.3877, -4827.3877, 0.0, 9.997417, 10.000983 
2.836247e+3, 1.3318172e+2, -1199704.6, -1615604.8, 20110.344, -0.03333664, -0.5993661, -1198734.5, 436027.78, 0.000000012232451, 10.004188, 9.998662 
2.8361356e+3, 1.4318006e+2, -1180865.5, -1557554.0, 16980.36, -0.024751388, -0.5689363, -1180101.5, 356677.47, 0.0000000000000128326135, 10.003652, 9.998646 
2.8360248e+3, 1.5317826e+2, -1111755.4, -1459093.9, 56983.02, -0.017059011, -0.5554881, -1102645.9, 336151.25, 0.0, 10.003403, 9.998763 
2.8359145e+3, 1.6317639e+2, -1052442.4, -1387644.0, 64338.03, -0.0069439984, -0.55317354, -1040517.6, 300298.22, 0.0, 10.003172, 9.998692 
2.8358042e+3, 1.731743e+2, -988931.06, -1299134.4, 96257.52, -0.026642479, -0.5716246, -961489.5, 281347.0, 0.0, 10.002912, 9.998749 
2.8356943e+3, 1.8317239e+2, -928819.1, -1207305.9, 89253.09, -0.04026983, -0.5784469, -902669.56, 242185.2, 0.0, 10.0026, 9.998856 
2.8355846e+3, 1.9317083e+2, -888055.06, -1124932.5, 98265.625, -0.023522673, -0.56234074, -852598.1, 194270.44, 0.0, 10.00216, 9.998959 
2.8354752e+3, 2.0316906e+2, -844682.75, -1054289.5, 115009.5, -0.0127169145, -0.5720402, -793887.5, 154996.75, 0.0, 10.001789, 9.998949 
2.835366e+3, 2.131668e+2, -775087.4, -962382.25, 128930.37, -0.023052279, -0.63280994, -709383.4, 141520.8, 0.0, 10.001563, 9.999015 
2.835257e+3, 2.2316489e+2, -719092.4, -876151.75, 125427.23, -0.023653323, -0.6667301, -649639.3, 103282.17, 0.0, 10.001238, 9.999091 
2.8351483e+3, 2.3316361e+2, -693392.25, -801765.25, 121067.02, -0.00025786736, -0.647025, -614938.6, 39994.95, 0.0, 10.000692, 9.999192 
2.8350392e+3, 2.431623e+2, -649982.5, -714863.6, 143727.03, 0.015581798, -0.6382429, -535080.44, 21865.156, 0.0, 10.000252, 9.999329 
2.8349307e+3, 2.5316092e+2, -570726.25, -611679.06, 138289.86, 0.013479828, -0.6543932, -451405.06, 7552.864, 0.0, 10.000059, 9.999457 
2.834822e+3, 2.6315957e+2, -513915.13, -539364.8, 136224.67, 0.0156089235, -0.66855776, -389822.28, -28852.291, 0.0, 9.999802, 9.999406 
2.8347135e+3, 2.731583e+2, -464070.6, -453860.13, 114207.414, 0.028200097, -0.675965, -344643.9, -81662.44, 0.0, 9.999421, 9.999505 
2.8346044e+3, 2.831571e+2, -414819.06, -362745.25, 116383.06, 0.051693913, -0.69274575, -269522.22, -104529.75, 0.0, 9.999014, 9.999655 
2.8344956e+3, 2.9315582e+2, -369780.94, -277550.0, 94145.5, 0.08868459, -0.73117834, -218832.22, -151828.8, 0.0, 9.998589, 9.999775 
2.8343856e+3, 3.0315495e+2, -325339.78, -224192.11, 71362.24, 0.087959066, -0.726692, -187300.05, -187300.05, 0.0, 9.9983015, 9.999607 
2.8342754e+3, 3.131548e+2, -258922.88, -138627.94, 25766.617, 0.09713146, -0.652848, -133341.19, -133341.19, 0.0, 9.998289, 9.999869 
2.8341654e+3, 3.23153e+2, -313610.03, -35721.7, 15367.929, 0.16092168, -0.7641163, -34874.395, -34874.395, 0.0, 9.997354, 10.001029 
2.8462502e+3, 1.3329369e+2, -1274916.8, -1637830.3, 23583.621, -0.03807496, -0.5998985, -1273390.6, 360274.13, 0.0, 10.0036125, 9.998786 
2.8461385e+3, 1.4329219e+2, -1221186.5, -1561722.5, 27440.7, -0.03411586, -0.5647508, -1218989.5, 316690.06, 0.0, 10.003312, 9.998779 
2.8460273e+3, 1.5329033e+2, -1162958.0, -1471568.8, 74945.53, -0.023575187, -0.5693686, -1145720.4, 291977.6, 0.0, 10.003002, 9.998869 
2.8459167e+3, 1.6328852e+2, -1108578.8, -1398052.1, 83306.125, -0.010185336, -0.57378215, -1086316.6, 253399.56, 0.0, 10.002718, 9.998837 
2.8458065e+3, 1.7328669e+2, -1049186.1, -1312120.0, 108413.555, -0.025511023, -0.57754153, -1010250.44, 231483.61, 0.0, 10.002433, 9.998888 
2.845696e+3, 1.8328494e+2, -982941.2, -1225524.6, 99000.76, -0.038617708, -0.57890284, -947667.2, 196083.64, 0.0, 10.002199, 9.998922 
2.8455862e+3, 1.932833e+2, -902733.75, -1128400.1, 116045.99, -0.029123075, -0.5742603, -853709.0, 192056.56, 0.0, 10.002048, 9.998986 
2.8454763e+3, 2.0328152e+2, -840352.8, -1045755.5, 134822.69, -0.019905532, -0.58754337, -773570.5, 174210.9, 0.0, 10.001796, 9.999002 
2.845367e+3, 2.1327944e+2, -805794.25, -971770.8, 142475.11, -0.021089504, -0.6374162, -723900.1, 125899.77, 0.0, 10.001333, 9.99906 
2.8452575e+3, 2.2327755e+2, -751134.56, -888722.8, 137408.02, -0.017468205, -0.66828185, -666261.5, 85554.97, 0.0, 10.00101, 9.999113 
2.8451484e+3, 2.3327616e+2, -656393.06, -784168.56, 133245.1, -0.00020177117, -0.66048, -572511.06, 81318.45, 0.0, 10.000952, 9.999186 
2.8450394e+3, 2.4327476e+2, -580554.3, -684441.94, 154785.84, 0.013477862, -0.6586464, -469228.97, 86613.234, 0.0, 10.000746, 9.999297 
2.8449303e+3, 2.5327337e+2, -546417.06, -605683.0, 145256.14, 0.017750688, -0.6716604, -427802.06, 30052.5, 0.0, 10.000256, 9.999403 
2.8448212e+3, 2.6327202e+2, -514874.75, -545466.4, 143767.67, 0.022585561, -0.68287426, -385591.47, -25724.537, 0.0, 9.999824, 9.9993515 
2.844712e+3, 2.732707e+2, -452692.63, -455377.0, 128418.7, 0.029425666, -0.69002944, -325609.1, -63729.69, 0.0, 9.999534, 9.999438 
2.844603e+3, 2.832694e+2, -384380.4, -351591.63, 132312.77, 0.04849005, -0.7045161, -234661.44, -70770.3, 0.0, 9.999243, 9.999619 
2.8444937e+3, 2.9326814e+2, -316242.13, -256854.31, 105120.58, 0.083987616, -0.7334516, -177314.23, -111412.27, 0.0, 9.998983, 9.999724 
2.8443837e+3, 3.0326727e+2, -276367.25, -209906.77, 88466.24, 0.081477895, -0.72206837, -148635.55, -148635.55, 0.0, 9.998683, 9.999518 
2.844273e+3, 3.13267e+2, -262942.5, -156168.08, 59460.555, 0.09148104, -0.64967877, -129644.38, -129644.38, 0.0, 9.998335, 9.999723 
2.8441626e+3, 3.2326496e+2, -161416.97, 12239.666, 18423.238, 0.1592896, -0.7675481, 14172.671, 14172.671, 0.0, 9.998512, 10.000797 
2.856253e+3, 1.3340598e+2, -1271396.4, -1623540.3, 12448.575, -0.04833874, -0.5947772, -1270956.9, 361607.2, 0.0, 10.00358, 9.9989 
2.856141e+3, 1.4340463e+2, -1212712.1, -1537994.8, 16205.701, -0.04477759, -0.5592487, -1211906.8, 322670.25, 0.0, 10.0032835, 9.998958 
2.8560296e+3, 1.5340266e+2, -1154480.0, -1449650.6, 64072.61, -0.03181525, -0.5944701, -1141171.8, 295424.28, 0.0, 10.002981, 9.99903 
2.855919e+3, 1.6340086e+2, -1105184.6, -1387806.3, 72817.87, -0.014448006, -0.6077977, -1087526.3, 251087.22, 0.0, 10.002703, 9.998917 
2.855808e+3, 1.7339943e+2, -1047646.3, -1306177.1, 98278.38, -0.023406772, -0.5793716, -1014528.9, 226099.38, 0.0, 10.0024185, 9.998937 
2.855698e+3, 1.8339784e+2, -975551.94, -1207870.1, 93041.66, -0.0362602, -0.5727046, -942883.3, 199760.27, 0.0, 10.002187, 9.99905 
2.8555873e+3, 1.9339597e+2, -895802.25, -1111318.0, 110684.32, -0.03776235, -0.6061869, -849084.3, 195576.03, 0.0, 10.002034, 9.999112 
2.8554776e+3, 2.0339414e+2, -841677.1, -1046311.8, 119494.61, -0.030977024, -0.63007027, -786680.1, 159996.28, 0.0, 10.001784, 9.999005 
2.8553677e+3, 2.1339244e+2, -807853.2, -977062.25, 124875.91, -0.01840194, -0.637329, -741620.4, 107071.266, 0.0, 10.001335, 9.999023 
2.855258e+3, 2.2339076e+2, -749217.1, -887001.56, 133183.5, -0.008685573, -0.64853585, -668162.75, 82543.984, 0.0, 10.001018, 9.999122 
2.8551486e+3, 2.333891e+2, -656168.3, -784953.9, 130995.73, -0.00040341847, -0.6662466, -574594.25, 78127.43, 0.0, 10.000955, 9.999181 
2.8550392e+3, 2.4338746e+2, -585431.8, -695004.3, 139298.5, 0.009725237, -0.6853308, -490533.06, 64203.254, 0.0, 10.000746, 9.999226 
2.85493e+3, 2.5338587e+2, -553614.2, -621319.06, 125908.164, 0.021676524, -0.7080982, -457086.97, -336.61215, 0.0, 10.000256, 9.999296 
2.8548205e+3, 2.6338446e+2, -514015.7, -544396.8, 131409.23, 0.030186305, -0.7165572, -396921.94, -38158.94, 0.0, 9.999824, 9.99936 
2.854711e+3, 2.733834e+2, -450482.6, -451828.44, 117609.39, 0.03338193, -0.7003083, -333544.2, -72771.0, 0.0, 9.999535, 9.999464 
2.8546014e+3, 2.8338227e+2, -390735.16, -366578.6, 121792.1, 0.04613811, -0.69970244, -256267.34, -93483.18, 0.0, 9.999248, 9.999515 
2.854492e+3, 2.9338092e+2, -324682.9, -277421.03, 95999.484, 0.067407936, -0.7251052, -202186.8, -137390.22, 0.0, 9.998994, 9.999578 
2.8543815e+3, 3.0337983e+2, -269517.0, -197419.23, 73724.88, 0.057093084, -0.7307188, -151401.8, -151401.8, 0.0, 9.998689, 9.999602 
2.8542706e+3, 3.13379e+2, -260123.45, -144860.28, 46529.48, 0.08621046, -0.7222368, -128421.69, -128421.69, 0.0, 9.998309, 9.999814 
2.85416e+3, 3.2337785e+2, -196137.42, -80378.85, 54927.555, 0.13313061, -0.73373455, -58464.348, -58464.348, 0.0, 9.998596, 10.000123 
2.8662556e+3, 1.3351858e+2, -1356415.6, -1640263.6, 17029.803, -0.059775267, -0.58386457, -1355397.6, 276062.56, 0.0, 10.002893, 9.999116 
2.8661433e+3, 1.4351697e+2, -1292369.3, -1558464.0, 24301.389, -0.03777947, -0.5922856, -1290168.1, 243307.05, 0.0, 10.002662, 9.999115 
2.8660318e+3, 1.5351528e+2, -1222440.6, -1468567.6, 70353.91, -0.034274384, -0.6095269, -1203749.8, 231741.39, 0.0, 10.002458, 9.999152 
2.8659207e+3, 1.6351373e+2, -1160580.8, -1397158.3, 78929.96, -0.021291632, -0.6129648, -1136664.9, 200841.53, 0.0, 10.00225, 9.999069 
2.8658098e+3, 1.7351238e+2, -1097236.3, -1313556.0, 109608.53, -0.02537902, -0.58939964, -1051407.3, 188112.81, 0.0, 10.002009, 9.999082 
2.8656992e+3, 1.835109e+2, -1027229.7, -1224139.9, 109135.125, -0.03375592, -0.5848996, -978702.2, 162832.38, 0.0, 10.001797, 9.999125 
2.8655887e+3, 1.9350907e+2, -953352.2, -1133018.4, 122327.36, -0.032537673, -0.6164736, -891415.9, 152134.95, 0.0, 10.001616, 9.999163 
2.8654784e+3, 2.0350732e+2, -886656.44, -1062663.4, 126011.14, -0.025054775, -0.6390792, -820960.8, 124605.7, 0.0, 10.001455, 9.99905 
2.8653684e+3, 2.1350567e+2, -807341.75, -972853.56, 134337.45, -0.014207668, -0.6438037, -732315.9, 115265.48, 0.0, 10.001326, 9.999055 
2.8652588e+3, 2.2350402e+2, -730527.1, -876695.9, 149095.03, -0.0051460494, -0.652928, -637567.4, 112028.836, 0.0, 10.001144, 9.99913 
2.865149e+3, 2.3350233e+2, -670365.44, -793317.4, 146088.25, 0.0030213445, -0.6722817, -573345.1, 78266.31, 0.0, 10.000868, 9.999163 
2.8650394e+3, 2.4350066e+2, -604203.9, -703325.1, 150810.28, 0.013672785, -0.6936521, -495019.47, 58606.824, 0.0, 10.000618, 9.9992285 
2.86493e+3, 2.5349903e+2, -533453.94, -614275.0, 140816.17, 0.02793911, -0.7182629, -427364.63, 28275.771, 0.0, 10.00041, 9.999269 
2.86482e+3, 2.6349756e+2, -476971.47, -535387.56, 147618.45, 0.035952274, -0.72915334, -355699.25, 1954.5498, 0.0, 10.00012, 9.999277 
2.86471e+3, 2.7349633e+2, -431717.38, -455002.56, 122653.12, 0.0332591, -0.7162762, -320155.53, -60489.793, 0.0, 9.999721, 9.9993515 
2.8646004e+3, 2.834952e+2, -389880.16, -364077.75, 122176.84, 0.04383652, -0.7105269, -254122.86, -92445.85, 0.0, 9.9992485, 9.99953 
2.8644902e+3, 2.9349405e+2, -358804.9, -290943.66, 111917.89, 0.0688077, -0.7185408, -207926.0, -144238.53, 0.0, 9.998752, 9.9996 
2.8643796e+3, 3.034929e+2, -269192.78, -196068.72, 106222.945, 0.05307351, -0.73089343, -120291.55, -120291.55, 0.0, 9.998691, 9.999608 
2.8642684e+3, 3.1349158e+2, -111266.195, -80134.53, 73173.71, 0.062703066, -0.766662, -20889.35, -20889.35, 0.0, 9.999368, 9.999747 
2.8641585e+3, 3.23491e+2, -156600.28, -100004.12, 74648.79, 0.12159452, -0.7012664, -48469.73, -48469.73, 0.0, 9.999039, 9.999773 
2.876258e+3, 1.3363136e+2, -1344595.5, -1604270.0, 7786.078, -0.07113113, -0.57235867, -1344362.3, 285991.66, 0.0, 10.002843, 9.999388 
2.8761455e+3, 1.4362928e+2, -1287551.9, -1541270.0, 16743.592, -0.01965502, -0.648919, -1286451.8, 245921.23, 0.0, 10.002628, 9.999249 
2.8760335e+3, 1.536282e+2, -1220220.4, -1457910.9, 63412.984, -0.033250496, -0.61656535, -1204360.8, 230022.89, 0.0, 10.002429, 9.999239 
2.875922e+3, 1.63627e+2, -1149417.6, -1369597.5, 70761.54, -0.030243041, -0.59860235, -1128637.5, 207757.95, 0.0, 10.002229, 9.999269 
2.8758112e+3, 1.7362556e+2, -1083739.6, -1283926.6, 100498.77, -0.03045421, -0.6063282, -1041992.6, 196416.97, 0.0, 10.002001, 9.99929 
2.8757003e+3, 1.836241e+2, -1025811.9, -1221292.6, 101823.19, -0.030963285, -0.61034584, -982409.94, 158013.64, 0.0, 10.001796, 9.9991455 
2.8755897e+3, 1.936226e+2, -954087.0, -1135254.6, 115556.15, -0.016036887, -0.6086006, -897842.2, 144595.17, 0.0, 10.0016165, 9.999147 
2.8754795e+3, 2.0362099e+2, -881041.5, -1051872.9, 121296.32, -0.0054704375, -0.62119037, -818104.06, 126348.12, 0.0, 10.001457, 9.999125 
2.8753695e+3, 2.1361911e+2, -801216.06, -960913.75, 129675.86, -0.009399098, -0.65708065, -728776.8, 117692.34, 0.0, 10.001327, 9.999138 
2.8752592e+3, 2.2361737e+2, -730553.4, -877441.56, 139783.64, -0.006571067, -0.6786952, -646094.0, 102390.82, 0.0, 10.001145, 9.9991255 
2.8751495e+3, 2.3361586e+2, -672406.6, -798688.44, 135589.45, 0.010184951, -0.67765653, -585977.25, 64521.477, 0.0, 10.000871, 9.9991255 
2.8750396e+3, 2.4361436e+2, -599247.7, -693880.44, 143179.53, 0.024979306, -0.68338406, -495768.75, 56743.3, 0.0, 10.00062, 9.999293 
2.8749296e+3, 2.5361285e+2, -530326.4, -608869.1, 132221.1, 0.036085725, -0.7013166, -431667.84, 22856.713, 0.0, 10.000412, 9.999306 
2.8748196e+3, 2.636112e+2, -490400.03, -564807.75, 133934.19, 0.03931316, -0.72033674, -388598.5, -32059.229, 0.0, 10.000125, 9.999074 
2.8747094e+3, 2.7360943e+2, -450657.88, -495466.13, 106297.82, 0.02846649, -0.73958826, -364428.8, -105871.51, 0.0, 9.9997225, 9.999073 
2.8745988e+3, 2.8360814e+2, -380077.7, -343222.06, 100856.56, 0.0417668, -0.7395551, -259123.63, -98553.61, 0.0, 9.999244, 9.999677 
2.8744885e+3, 2.9360753e+2, -347580.88, -262384.7, 95514.9, 0.091893464, -0.7127794, -200399.34, -137825.16, 0.0, 9.998728, 9.999808 
2.8743777e+3, 3.036065e+2, -278781.5, -214101.3, 125880.125, 0.072223805, -0.7166916, -116473.37, -116473.37, 0.0, 9.998682, 9.999489 
2.874267e+3, 3.136048e+2, -122031.76, -116410.51, 104190.34, 0.014037394, -0.77139187, -14992.881, -14992.881, 0.0, 9.999428, 9.999468 
2.874157e+3, 3.2360446e+2, -154815.23, -85807.01, 6031.002, 0.13821468, -0.67434937, -85283.89, -85283.89, 0.0, 9.998995, 9.999891 
2.8862596e+3, 1.33744e+2, -1449779.5, -1635746.6, 14048.946, -0.06849513, -0.59332865, -1448724.3, 180524.67, 0.0, 10.002038, 9.999559 
2.8861475e+3, 1.4374228e+2, -1370709.4, -1561293.3, 20199.162, -0.011268876, -0.65083104, -1368592.1, 162672.39, 0.0, 10.001972, 9.999428 
2.886035e+3, 1.5374126e+2, -1295557.5, -1477116.8, 69801.03, -0.028388908, -0.6286997, -1271824.5, 161449.94, 0.0, 10.00184, 9.999392 
2.8859237e+3, 1.6374016e+2, -1213486.6, -1387142.0, 77879.516, -0.026558887, -0.61428154, -1183677.0, 151608.31, 0.0, 10.001733, 9.999387 
2.8858125e+3, 1.7373888e+2, -1126836.6, -1292228.5, 101197.04, -0.023903629, -0.6164869, -1078844.1, 158453.64, 0.0, 10.001652, 9.999401 
2.8857014e+3, 1.8373752e+2, -1053647.6, -1223208.4, 101638.36, -0.02518329, -0.6220508, -1006072.1, 133238.75, 0.0, 10.001556, 9.999248 
2.8855908e+3, 1.9373602e+2, -973929.1, -1133492.8, 122031.445, -0.016480867, -0.63080865, -907913.75, 133410.97, 0.0, 10.001433, 9.999248 
2.8854802e+3, 2.0373452e+2, -893743.06, -1044230.44, 134251.92, -0.006952159, -0.6409839, -815086.8, 128251.7, 0.0, 10.001312, 9.999246 
2.88537e+3, 2.1373297e+2, -812030.4, -951675.2, 145327.25, -0.0051516523, -0.6561409, -720622.56, 124729.99, 0.0, 10.001192, 9.999265 
2.8852597e+3, 2.2373138e+2, -740363.0, -878254.1, 155959.31, -0.0012150136, -0.67057127, -638789.4, 108577.66, 0.0, 10.001063, 9.999158 
2.8851497e+3, 2.3372976e+2, -664303.06, -792206.25, 154160.42, 0.01039073, -0.6817814, -561355.75, 88026.445, 0.0, 10.000918, 9.9991455 
2.8850394e+3, 2.4372827e+2, -575222.4, -671653.4, 164917.63, 0.024304898, -0.69143444, -451616.6, 99778.99, 0.0, 10.000743, 9.999385 
2.8849298e+3, 2.537269e+2, -510177.75, -589628.56, 155317.78, 0.040203333, -0.70103, -389585.6, 63820.79, 0.0, 10.000514, 9.999387 
2.8848192e+3, 2.6372534e+2, -469229.72, -556691.44, 161836.48, 0.04597554, -0.715945, -345319.78, 10100.727, 0.0, 10.000286, 9.999048 
2.8847086e+3, 2.7372345e+2, -417400.75, -490721.78, 143475.97, 0.03478596, -0.7390235, -305975.7, -48535.766, 0.0, 10.000006, 9.998966 
2.8845978e+3, 2.8372195e+2, -332189.28, -319848.9, 132907.5, 0.04514374, -0.7477886, -192968.45, -33514.293, 0.0, 9.9995775, 9.999673 
2.884487e+3, 2.9372117e+2, -285678.8, -249882.0, 116788.445, 0.08780331, -0.7338213, -149628.4, -88168.555, 0.0, 9.999237, 9.999644 
2.8843763e+3, 3.0372003e+2, -220310.89, -221522.03, 150238.97, 0.071213655, -0.7274649, -70676.27, -70676.27, 0.0, 9.999245, 9.999164 
2.884266e+3, 3.1371814e+2, -147452.05, -194738.69, 113419.29, 0.033314638, -0.74921864, -55237.945, -55237.945, 0.0, 9.999539, 9.998877 
2.884156e+3, 3.2371676e+2, 66969.6, -5731.5054, -50041.297, 0.14968486, -0.70409125, 92469.625, 92469.625, 0.0, 10.00063, 9.999656 
2.896261e+3, 1.3385662e+2, -1443792.6, -1621264.9, 13183.597, -0.058427323, -0.6301757, -1442818.6, 185325.11, 0.0, 10.002028, 9.999663 
2.8961486e+3, 1.4385577e+2, -1360431.1, -1533578.0, 16746.768, -0.00924253, -0.61842096, -1358826.3, 171325.38, 0.0, 10.001944, 9.999633 
2.8960365e+3, 1.5385444e+2, -1283266.1, -1450003.0, 64546.723, -0.02079549, -0.6456881, -1261199.4, 170964.66, 0.0, 10.001831, 9.999582 
2.8959247e+3, 1.6385327e+2, -1210054.8, -1379803.0, 74884.2, -0.014010739, -0.65034455, -1181742.0, 152433.31, 0.0, 10.001731, 9.999439 
2.8958136e+3, 1.7385235e+2, -1125928.8, -1287950.9, 98368.64, -0.00896828, -0.620959, -1079506.8, 156677.84, 0.0, 10.00164, 9.999437 
2.8957024e+3, 1.8385111e+2, -1043792.8, -1200137.8, 97875.13, -0.017780393, -0.6243028, -996703.6, 141492.89, 0.0, 10.001543, 9.9994135 
2.8955916e+3, 1.9384934e+2, -961146.56, -1106513.1, 117324.45, -0.031133106, -0.6779744, -895815.75, 144396.81, 0.0, 10.00143, 9.999435 
2.8954807e+3, 2.0384797e+2, -882730.6, -1021876.2, 129608.63, -0.025869746, -0.69058084, -805202.2, 137022.75, 0.0, 10.001313, 9.9994 
2.8953707e+3, 2.1384723e+2, -800338.2, -927950.6, 140347.05, -0.00087597984, -0.6414232, -709973.94, 134257.95, 0.0, 10.001193, 9.999429 
2.8952602e+3, 2.23846e+2, -736136.9, -869671.06, 150386.27, 0.010020734, -0.6328907, -638362.56, 107880.83, 0.0, 10.001062, 9.999218 
2.89515e+3, 2.3384403e+2, -659673.6, -782931.5, 148433.16, 0.0033765642, -0.6858217, -560583.8, 87678.31, 0.0, 10.000918, 9.99921 
2.8950396e+3, 2.438424e+2, -567612.44, -656327.94, 156415.0, 0.011532845, -0.717497, -449387.1, 100889.74, 0.0, 10.000743, 9.999491 
2.8949293e+3, 2.5384125e+2, -501982.25, -573157.6, 146653.55, 0.040428136, -0.7175989, -386660.2, 65625.72, 0.0, 10.000515, 9.999499 
2.894819e+3, 2.6383996e+2, -458354.0, -534836.5, 154062.69, 0.056359436, -0.71533394, -337857.38, 16439.871, 0.0, 10.000288, 9.999198 
2.894708e+3, 2.7383846e+2, -411689.97, -481882.03, 129942.88, 0.053413853, -0.7103431, -312187.0, -55874.26, 0.0, 10.000015, 9.999024 
2.8945968e+3, 2.8383675e+2, -344932.78, -350863.72, 112627.48, 0.053515088, -0.7330725, -235231.73, -76902.875, 0.0, 9.999594, 9.9994545 
2.894485e+3, 2.9383484e+2, -326425.97, -336307.53, 115885.836, 0.050475024, -0.79114014, -215375.64, -155030.16, 0.0, 9.9992485, 9.999043 
2.8943744e+3, 3.0383325e+2, -260111.52, -301706.6, 157343.6, 0.048325412, -0.77452415, -122196.91, -122196.91, 0.0, 9.999238, 9.998614 
2.8942662e+3, 3.1383163e+2, -220754.94, -334344.53, 119211.484, 0.14230987, -0.69432086, -145500.4, -145500.4, 0.0, 9.999487, 9.997942 
2.8941563e+3, 3.2382745e+2, 32459.656, -100520.28, 29970.445, 0.14160024, -0.81964064, 38902.145, 38902.145, 0.0, 10.000731, 9.998956 
2.906262e+3, 1.3396971e+2, -1510965.8, -1641588.0, 10456.01, -0.07648777, -0.63444865, -1510134.1, 116900.234, 0.0, 10.001515, 9.999771 
2.90615e+3, 1.4396885e+2, -1438733.4, -1557738.9, 21788.14, 0.0038971377, -0.63316154, -1434869.8, 94172.555, 0.0, 10.001348, 9.999754 
2.9060373e+3, 1.5396768e+2, -1333374.8, -1462575.0, 63928.035, -0.014659216, -0.65666544, -1307090.5, 123962.68, 0.0, 10.001436, 9.999686 
2.9059258e+3, 1.6396663e+2, -1245324.5, -1380232.8, 70487.76, -0.010448205, -0.6621687, -1215215.4, 117847.86, 0.0, 10.001416, 9.999588 
2.9058143e+3, 1.7396581e+2, -1172898.6, -1293072.3, 99873.64, -0.0011523832, -0.6388552, -1116430.0, 118641.26, 0.0, 10.001242, 9.999595 
2.9057035e+3, 1.8396467e+2, -1095245.6, -1214152.4, 105321.59, -0.008314949, -0.6427096, -1033755.5, 103326.39, 0.0, 10.0011425, 9.999511 
2.9055923e+3, 1.9396308e+2, -993208.2, -1110733.0, 119127.766, -0.024525678, -0.6892248, -919138.2, 119958.45, 0.0, 10.00116, 9.999537 
2.9054815e+3, 2.0396185e+2, -903670.75, -1021502.94, 124674.16, -0.024440788, -0.6984784, -824692.9, 116415.164, 0.0, 10.001122, 9.999495 
2.9053712e+3, 2.139612e+2, -819838.8, -924590.9, 131010.28, -0.0068894685, -0.65047616, -731122.9, 111991.45, 0.0, 10.001003, 9.999543 
2.9052606e+3, 2.2396013e+2, -752475.7, -857180.2, 141925.45, 0.0013070753, -0.64025146, -653554.75, 91569.73, 0.0, 10.000862, 9.999401 
2.90515e+3, 2.3395841e+2, -677111.7, -766280.4, 150260.64, -0.002721443, -0.6887895, -564960.5, 82180.28, 0.0, 10.00069, 9.999434 
2.9050395e+3, 2.43957e+2, -591918.25, -650793.3, 164418.36, 0.006450978, -0.7164594, -454322.97, 94830.49, 0.0, 10.000503, 9.999644 
2.9049292e+3, 2.5395605e+2, -520354.94, -559246.6, 158122.63, 0.034718167, -0.7125856, -380486.94, 70674.0, 0.0, 10.000293, 9.9997015 
2.9048187e+3, 2.6395503e+2, -469159.4, -507639.5, 173695.72, 0.05508664, -0.710162, -313641.4, 39528.836, 0.0, 10.000077, 9.999485 
2.9047075e+3, 2.739538e+2, -408537.16, -436164.06, 163774.13, 0.064876445, -0.70951736, -257994.97, -2812.2175, 0.0, 9.999853, 9.999413 
2.9045957e+3, 2.8395244e+2, -328436.9, -308826.53, 172478.33, 0.063913815, -0.73008764, -145874.92, 11320.374, 0.0, 9.999573, 9.999746 
2.9044828e+3, 2.9395097e+2, -438716.6, -319377.63, 206194.73, 0.026391687, -0.7803644, -164392.23, -105185.11, 0.0, 9.99819, 9.9996605 
2.9162624e+3, 1.3408305e+2, -1507643.5, -1627562.1, -4092.7454, -0.10978978, -0.6222973, -1507504.0, 118418.51, 0.0, 10.001485, 9.999882 
2.9161507e+3, 1.4408171e+2, -1430686.3, -1546762.0, 25235.668, 0.023981243, -0.6775744, -1425437.3, 102497.96, 0.0, 10.001371, 9.999818 
2.9160383e+3, 1.5408097e+2, -1330402.3, -1456280.8, 66969.89, -0.009985055, -0.66236955, -1301437.6, 128504.34, 0.0, 10.001435, 9.99973 
2.9159266e+3, 1.6408016e+2, -1231330.5, -1348811.5, 65633.625, -0.0133264065, -0.6576473, -1201990.3, 129959.32, 0.0, 10.001405, 9.999809 
2.915815e+3, 1.7407924e+2, -1155054.3, -1257189.8, 92410.56, 0.0013588369, -0.6674136, -1100539.6, 133418.02, 0.0, 10.001245, 9.99984 
2.915704e+3, 1.8407826e+2, -1091120.5, -1207940.1, 105056.555, 0.0028502794, -0.67213804, -1029328.06, 106638.766, 0.0, 10.001151, 9.99955 
2.915593e+3, 1.9407716e+2, -990616.0, -1106074.9, 119147.41, -0.00063125254, -0.6707067, -915949.1, 122028.46, 0.0, 10.001162, 9.999569 
2.9154822e+3, 2.0407605e+2, -900817.0, -1015063.56, 120929.195, -0.0067771124, -0.67364705, -824198.2, 115790.234, 0.0, 10.00112, 9.999541 
2.9153714e+3, 2.140749e+2, -815042.5, -914371.6, 126410.05, -0.02289373, -0.68176615, -728890.75, 113108.805, 0.0, 10.001, 9.999616 
2.9152605e+3, 2.2407384e+2, -731795.0, -814227.5, 135972.56, -0.025591636, -0.68658155, -630929.1, 113080.29, 0.0, 10.00086, 9.999698 
2.9151502e+3, 2.3407292e+2, -650805.5, -711976.0, 143423.9, -0.00749248, -0.68909335, -534741.94, 111276.12, 0.0, 10.00069, 9.999808 
2.9150397e+3, 2.4407208e+2, -578315.0, -623055.7, 156671.03, 0.0088293245, -0.6891972, -442425.28, 105600.19, 0.0, 10.000504, 9.999835 
2.9149288e+3, 2.5407135e+2, -500599.5, -518810.53, 149253.56, 0.022251753, -0.6857255, -360173.97, 89857.42, 0.0, 10.000294, 9.99998 
2.914818e+3, 2.6407048e+2, -439501.25, -447085.06, 164875.6, 0.040517755, -0.7009193, -278373.97, 73665.44, 0.0, 10.00008, 9.999901 
2.9147068e+3, 2.7406943e+2, -358934.8, -333499.34, 155394.45, 0.068079256, -0.7412324, -190303.08, 63747.113, 0.0, 9.999853, 10.000118 
2.9145947e+3, 2.840691e+2, -271667.84, -190691.67, 160866.08, 0.07654968, -0.7387333, -65296.727, 90756.19, 0.0, 9.99957, 10.00056 
2.9144806e+3, 2.9407e+2, -305939.16, -57677.016, 111185.88, 0.019679885, -0.6808615, -15162.285, 42879.484, 0.0, 9.998223, 10.001455 
2.9262632e+3, 1.34196e+2, -1579091.3, -1645751.1, -3967.0154, -0.105071224, -0.63986814, -1578856.0, 45958.46, 0.0, 10.000923, 10.000029 
2.9261518e+3, 1.4419486e+2, -1444983.8, -1540850.8, 22263.883, 0.04334957, -0.6881888, -1440065.5, 86759.56, 0.0, 10.001217, 9.999934 
2.926039e+3, 1.5419425e+2, -1369448.6, -1464273.6, 63469.07, -0.008112588, -0.67254823, -1337638.3, 91192.664, 0.0, 10.001118, 9.999829 
2.925927e+3, 1.641935e+2, -1275760.8, -1358881.6, 61053.117, -0.016560668, -0.6696004, -1243464.9, 87372.664, 0.0, 10.001048, 9.999913 
2.9258156e+3, 1.7419262e+2, -1173665.1, -1253573.4, 78791.05, 0.006319675, -0.68589085, -1125277.0, 107567.95, 0.0, 10.00106, 9.999955 
2.9257047e+3, 1.8419175e+2, -1102192.6, -1204016.1, 90954.85, 0.009458768, -0.69147193, -1048870.1, 85983.06, 0.0, 10.001032, 9.999636 
2.9255936e+3, 1.9419083e+2, -1013191.56, -1106638.1, 108338.03, 0.000755538, -0.68164563, -941931.0, 94931.54, 0.0, 10.000958, 9.999664 
2.9254824e+3, 2.0418987e+2, -926307.7, -1009817.3, 113587.195, -0.009858791, -0.6819269, -847043.8, 91828.19, 0.0, 10.000865, 9.999701 
2.9253712e+3, 2.1418881e+2, -838968.75, -905654.1, 125881.24, -0.03090177, -0.69743294, -742089.2, 98792.82, 0.0, 10.000746, 9.9998 
2.9252604e+3, 2.2418793e+2, -756965.9, -808017.75, 134719.1, -0.036043055, -0.70333725, -645375.8, 97514.61, 0.0, 10.000606, 9.999865 
2.9251498e+3, 2.3418729e+2, -673641.8, -699781.94, 129885.49, -0.015636027, -0.6957842, -556170.44, 88726.16, 0.0, 10.000429, 10.00002 
2.9250392e+3, 2.4418674e+2, -598764.5, -606457.44, 138177.06, 0.0017108723, -0.6902768, -464380.38, 82521.16, 0.0, 10.000244, 10.000076 
2.9249284e+3, 2.541863e+2, -513468.78, -489783.3, 134179.25, 0.012966496, -0.6879109, -366925.2, 81979.81, 0.0, 10.000048, 10.0003 
2.9248172e+3, 2.641858e+2, -458475.8, -419185.16, 147185.58, 0.029501123, -0.6998828, -290339.63, 60570.098, 0.0, 9.9997835, 10.000238 
2.9247057e+3, 2.7418518e+2, -385929.5, -293914.25, 124441.7, 0.056891363, -0.7336747, -207247.69, 45668.344, 0.0, 9.999432, 10.000598 
2.9245934e+3, 2.8418532e+2, -301909.03, -157689.81, 107307.11, 0.06632182, -0.73114413, -100514.43, 54399.79, 0.0, 9.999145, 10.0009985 
2.9244787e+3, 2.941868e+2, -89666.09, 89503.02, -30556.484, 0.02076949, -0.66937363, 94570.945, 151469.05, 0.0, 9.99949, 10.001875 
2.9362637e+3, 1.3430871e+2, -1566471.8, -1620789.4, 15432.537, -0.077851884, -0.6728086, -1562393.4, 61315.266, 0.0, 10.00093, 10.000196 
2.9361522e+3, 1.4430816e+2, -1436878.8, -1520503.9, 21877.023, 0.06165953, -0.67731196, -1431501.4, 94212.055, 0.0, 10.001202, 10.000081 
2.9360396e+3, 1.5430745e+2, -1360897.3, -1445123.9, 57335.363, -0.008554089, -0.6866214, -1331870.8, 95849.45, 0.0, 10.001111, 9.999965 
2.9359275e+3, 1.643067e+2, -1274520.8, -1355940.0, 60850.605, -0.020174893, -0.6926658, -1242017.9, 87709.04, 0.0, 10.001046, 9.999935 
2.935816e+3, 1.7430598e+2, -1172358.3, -1250364.8, 78406.414, 0.013007659, -0.696596, -1123789.6, 107943.28, 0.0, 10.001057, 9.999979 
2.935705e+3, 1.8430513e+2, -1094095.4, -1185803.4, 89066.195, 0.0121261785, -0.70407933, -1039772.6, 93968.055, 0.0, 10.001025, 9.999764 
2.9355934e+3, 1.9430414e+2, -1004083.94, -1085768.6, 105270.125, -0.01643535, -0.7167961, -932010.9, 103739.92, 0.0, 10.000949, 9.999813 
2.9354826e+3, 2.0430338e+2, -909530.9, -973002.94, 109494.2, -0.030000968, -0.7161289, -827266.25, 110491.9, 0.0, 10.000855, 9.999959 
2.9353717e+3, 2.1430293e+2, -820019.1, -864768.44, 120526.95, -0.031327017, -0.6983782, -719807.56, 119954.47, 0.0, 10.000737, 10.000086 
2.9352605e+3, 2.2430232e+2, -754620.1, -801926.0, 128421.445, -0.031831685, -0.6949895, -647691.56, 94076.44, 0.0, 10.000598, 9.99991 
2.9351497e+3, 2.3430151e+2, -669531.3, -691037.7, 122502.18, -0.027641715, -0.70953405, -557311.25, 86465.26, 0.0, 10.000427, 10.000082 
2.9350385e+3, 2.4430098e+2, -577354.5, -562877.4, 131064.89, -0.015095956, -0.71840817, -438851.34, 106930.17, 0.0, 10.000246, 10.000376 
2.9349276e+3, 2.5430083e+2, -486793.06, -435385.78, 126162.92, 0.006885874, -0.7196334, -332334.78, 115447.01, 0.0, 10.00005, 10.000674 
2.9348162e+3, 2.643009e+2, -440042.25, -381486.66, 134884.3, 0.021735901, -0.70655984, -272739.22, 77041.83, 0.0, 9.9997835, 10.000499 
2.9347044e+3, 2.7430117e+2, -367457.0, -255920.17, 109291.84, 0.028929844, -0.6800053, -188990.5, 62789.02, 0.0, 9.999431, 10.000861 
2.9345915e+3, 2.8430116e+2, -297956.4, -151693.11, 98639.05, 0.028647635, -0.70864147, -102032.664, 51746.867, 0.0, 9.99915, 10.001039 
2.9344776e+3, 2.943014e+2, -135407.89, -3600.155, -1717.3339, 0.02785309, -0.7312849, -3577.7834, 52197.438, 0.0, 9.999493, 10.001228 
2.9462636e+3, 1.3442129e+2, -1600443.5, -1624144.5, 17607.998, -0.080232285, -0.70233613, -1591069.5, 31534.703, 0.0, 10.000638, 10.000315 
2.9461527e+3, 1.4442115e+2, -1484160.3, -1534154.5, 7973.5454, 0.07616608, -0.678503, -1482919.4, 41685.855, 0.0, 10.000835, 10.000165 
2.9460397e+3, 1.544205e+2, -1396594.5, -1454009.1, 35010.508, 0.0014070799, -0.68833995, -1380026.6, 46584.844, 0.0, 10.000827, 10.000043 
2.9459277e+3, 1.644198e+2, -1303402.8, -1359034.9, 42994.484, -0.01496601, -0.6989637, -1280010.8, 48606.883, 0.0, 10.000797, 10.000035 
2.9458165e+3, 1.7441912e+2, -1200357.6, -1252293.0, 64982.117, 0.015368272, -0.709607, -1156346.8, 74276.3, 0.0, 10.00081, 10.000087 
2.945705e+3, 1.844184e+2, -1123554.5, -1184551.6, 75751.97, 0.012722779, -0.71857697, -1072392.0, 60237.504, 0.0, 10.0007515, 9.9999075 
2.945594e+3, 1.9441758e+2, -1041664.2, -1087306.3, 91299.88, -0.01695135, -0.7265151, -970376.44, 64261.313, 0.0, 10.000614, 9.999967 
2.9454827e+3, 2.0441699e+2, -952547.06, -979682.0, 92658.92, -0.0283156, -0.72494555, -872467.56, 64176.043, 0.0, 10.000494, 10.000091 
2.9453716e+3, 2.1441664e+2, -860445.3, -868886.1, 93686.43, -0.023545291, -0.7107005, -770884.3, 67762.36, 0.0, 10.000387, 10.000229 
2.9452604e+3, 2.2441621e+2, -788259.75, -799027.56, 100618.61, -0.025447728, -0.7057558, -692881.1, 47769.742, 0.0, 10.000278, 10.000088 
2.9451492e+3, 2.3441565e+2, -694946.06, -682903.1, 103748.07, -0.03323049, -0.71452224, -585001.94, 57655.0, 0.0, 10.000157, 10.000272 
2.945038e+3, 2.444153e+2, -598862.56, -558756.0, 112284.28, -0.026726635, -0.72413313, -464748.38, 79912.055, 0.0, 10.000028, 10.000514 
2.944927e+3, 2.544152e+2, -496887.75, -425275.5, 91656.19, -0.0024357336, -0.7328822, -362679.72, 83980.61, 0.0, 9.999907, 10.000818 
2.9448152e+3, 2.6441553e+2, -431124.94, -355927.38, 85845.03, 0.013197802, -0.7140924, -299808.3, 48849.07, 0.0, 9.999742, 10.000701 
2.944703e+3, 2.744162e+2, -328342.63, -222281.02, 58299.07, 0.017684197, -0.666474, -196501.63, 54150.227, 0.0, 9.999621, 10.001008 
2.9445904e+3, 2.8441593e+2, -227833.19, -135939.25, 46515.848, 0.016478386, -0.7215489, -116503.9, 36150.273, 0.0, 9.999692, 10.0008955 
2.944477e+3, 2.9441604e+2, -38691.04, 27566.621, -18099.703, 0.053614624, -0.7251242, 32188.535, 86839.46, 0.0, 10.000217, 10.001097 
2.9562637e+3, 1.3453373e+2, -1594906.0, -1611417.5, 28267.475, -0.10001658, -0.7297717, -1573713.4, 47788.05, 0.0, 10.000633, 10.000404 
2.9561535e+3, 1.4453384e+2, -1483043.1, -1528589.3, 9283.634, 0.088560246, -0.68697536, -1481223.5, 42276.336, 0.0, 10.000823, 10.000209 
2.9560402e+3, 1.545334e+2, -1392007.0, -1446802.0, 32671.16, 0.018821523, -0.6809919, -1376766.1, 48738.305, 0.0, 10.000836, 10.000088 
2.955928e+3, 1.6453278e+2, -1290070.9, -1334510.3, 43482.387, -0.0036584958, -0.6934869, -1263459.9, 64049.906, 0.0, 10.000811, 10.000197 
2.9558167e+3, 1.7453206e+2, -1187452.6, -1226761.4, 64249.4, 0.014248937, -0.7243445, -1139918.6, 89596.4, 0.0, 10.000814, 10.00026 
2.9557052e+3, 1.8453151e+2, -1112655.9, -1161899.3, 70335.484, 0.01197107, -0.73354137, -1062757.0, 68762.66, 0.0, 10.000751, 10.000064 
2.955594e+3, 1.9453113e+2, -1030798.94, -1064185.1, 84992.47, -0.003836328, -0.71556157, -960875.75, 72648.15, 0.0, 10.00061, 10.000128 
2.9554826e+3, 2.0453063e+2, -950943.75, -975568.3, 88573.555, -0.008648011, -0.7139076, -873830.8, 61698.184, 0.0, 10.000489, 10.000121 
2.9553714e+3, 2.1452996e+2, -858939.44, -865432.0, 89138.51, -0.009251331, -0.7335177, -772988.1, 64547.41, 0.0, 10.000384, 10.000255 
2.9552603e+3, 2.2452967e+2, -766519.9, -754077.3, 96542.37, -0.017806878, -0.73225796, -663556.0, 75982.516, 0.0, 10.0002775, 10.000398 
2.9551488e+3, 2.3452972e+2, -672226.8, -636446.7, 98305.74, -0.03294877, -0.7103294, -554416.4, 87121.34, 0.0, 10.000158, 10.000591 
2.9550374e+3, 2.4452963e+2, -599747.3, -561249.44, 107619.38, -0.033415087, -0.7087487, -471171.1, 72367.41, 0.0, 10.000029, 10.000497 
2.954926e+3, 2.5452942e+2, -501549.4, -435573.8, 86565.63, -0.015528394, -0.72767717, -375923.6, 69617.03, 0.0, 9.9999075, 10.000748 
2.954814e+3, 2.6452962e+2, -418398.5, -330580.53, 77921.36, 0.0037548032, -0.7232265, -285048.28, 62490.42, 0.0, 9.999744, 10.0008745 
2.954702e+3, 2.7453017e+2, -323613.1, -212775.56, 57738.426, 0.024944777, -0.69923484, -188163.3, 61370.145, 0.0, 9.999623, 10.001073 
2.9545897e+3, 2.8452963e+2, -248251.69, -179292.1, 53892.65, 0.03293222, -0.77451456, -149793.19, 1745.1099, 0.0, 9.999697, 10.000595 
2.9544768e+3, 2.9452989e+2, -23972.707, 59029.37, 6923.8984, 0.07735432, -0.7413835, 59602.99, 113136.84, 0.0, 10.000221, 10.0013075 
2.9662636e+3, 1.3464645e+2, -1616707.1, -1605604.4, 7851.875, -0.070438504, -0.696783, -1601539.6, 18857.078, 0.0, 10.00041, 10.000553 
2.9661533e+3, 1.446463e+2, -1515011.8, -1531696.1, -3496.3848, 0.082340814, -0.69166905, -1514308.8, 8088.724, 0.0, 10.000546, 10.000322 
2.9660404e+3, 1.5464583e+2, -1395003.9, -1436910.6, 19022.809, 0.00767624, -0.6996988, -1387656.9, 36745.016, 0.0, 10.000762, 10.000194 
2.9659283e+3, 1.6464527e+2, -1289037.9, -1328177.0, 24986.008, -0.0068318387, -0.71499234, -1276869.9, 49536.74, 0.0, 10.000788, 10.000255 
2.965817e+3, 1.7464465e+2, -1199640.4, -1226948.3, 38365.09, 0.016841333, -0.7416912, -1172571.9, 55839.37, 0.0, 10.000701, 10.000318 
2.9657054e+3, 1.8464425e+2, -1124145.3, -1152024.9, 37767.035, 0.017335812, -0.7445928, -1097827.5, 32586.967, 0.0, 10.000599, 10.000208 
2.965594e+3, 1.9464412e+2, -1039883.7, -1051019.4, 51588.94, 0.007135781, -0.7201285, -993563.0, 38853.063, 0.0, 10.000465, 10.000292 
2.9654828e+3, 2.0464376e+2, -964105.1, -972140.7, 58978.23, 0.00031668658, -0.71819746, -909007.94, 25411.672, 0.0, 10.00035, 10.000216 
2.965371e+3, 2.1464315e+2, -869636.94, -860209.8, 64323.87, -0.00955745, -0.74195826, -800427.06, 35998.277, 0.0, 10.000259, 10.000355 
2.9652599e+3, 2.2464292e+2, -766653.8, -743536.56, 70079.75, -0.0238758, -0.74556226, -684068.6, 54358.945, 0.0, 10.000223, 10.0005 
2.965148e+3, 2.3464306e+2, -652578.06, -617618.75, 55384.277, -0.040506124, -0.7265281, -577021.25, 63404.547, 0.0, 10.000244, 10.000683 
2.965037e+3, 2.4464308e+2, -569256.3, -536889.3, 58479.164, -0.041608036, -0.7242096, -492395.66, 50029.66, 0.0, 10.000188, 10.000592 
2.9649252e+3, 2.5464296e+2, -475101.22, -421402.8, 46863.332, -0.02577193, -0.7390883, -394242.28, 50184.133, 0.0, 10.0000725, 10.000771 
2.9648134e+3, 2.6464322e+2, -372830.6, -305668.16, 38341.324, -0.005732612, -0.7347361, -288281.2, 58142.906, 0.0, 10.000033, 10.000912 
2.964701e+3, 2.7464372e+2, -255898.1, -191475.67, 13571.305, 0.019756882, -0.7166494, -188733.45, 59685.793, 0.0, 10.000127, 10.000981 
2.964589e+3, 2.846431e+2, -178653.14, -157504.36, 14296.509, 0.036788642, -0.7854516, -150296.52, 127.57086, 0.0, 10.000215, 10.000501 
2.9644766e+3, 2.9464337e+2, -7020.2114, 64407.67, -11250.291, 0.09163155, -0.74524146, 66137.75, 118557.74, 0.0, 10.0003395, 10.001292 
2.976264e+3, 1.3475919e+2, -1618318.4, -1586147.9, 7454.234, -0.01338042, -0.62882, -1584504.6, 34787.223, 0.0, 10.000314, 10.000732 
2.976153e+3, 1.4475852e+2, -1500725.0, -1505929.1, 8018.9653, 0.062540025, -0.694596, -1494896.5, 26401.076, 0.0, 10.000565, 10.00049 
2.97604e+3, 1.5475786e+2, -1378901.8, -1412196.0, 25450.408, -0.024019271, -0.7372253, -1365137.5, 58165.426, 0.0, 10.0008, 10.000345 
2.9759282e+3, 1.6475734e+2, -1285468.1, -1328155.0, 22195.871, -0.020828445, -0.7557497, -1276018.6, 49288.79, 0.0, 10.00082, 10.000239 
2.975817e+3, 1.7475693e+2, -1199570.0, -1229381.0, 35006.844, 0.021757446, -0.7611087, -1176427.4, 50883.918, 0.0, 10.000711, 10.000296 
2.9757056e+3, 1.8475668e+2, -1114116.6, -1131155.9, 33922.703, 0.026931977, -0.7533227, -1087660.1, 41653.27, 0.0, 10.000599, 10.000351 
2.9755938e+3, 1.9475663e+2, -1028652.4, -1026922.3, 46142.95, 0.015904378, -0.7371759, -981636.3, 49677.184, 0.0, 10.000462, 10.000459 
2.975482e+3, 2.0475642e+2, -952615.5, -949015.44, 55266.258, -0.00024087269, -0.73417956, -895519.9, 37794.934, 0.0, 10.000353, 10.000373 
2.9753706e+3, 2.147562e+2, -855994.4, -834141.75, 60318.195, -0.02270815, -0.73755854, -783768.25, 51547.938, 0.0, 10.000268, 10.00053 
2.9752594e+3, 2.2475594e+2, -771654.7, -755172.6, 70643.63, -0.041946284, -0.7484978, -692290.94, 45027.434, 0.0, 10.000228, 10.000419 
2.9751477e+3, 2.3475565e+2, -660040.2, -633314.6, 55745.848, -0.055592425, -0.7626999, -589352.4, 49968.58, 0.0, 10.000244, 10.000576 
2.9750365e+3, 2.4475566e+2, -553441.06, -504095.2, 53580.48, -0.05206887, -0.76822907, -469779.8, 71540.69, 0.0, 10.000187, 10.000818 
2.9749244e+3, 2.547559e+2, -465588.72, -401679.13, 43307.99, -0.033300243, -0.76592326, -379813.0, 63504.527, 0.0, 10.0000725, 10.000906 
2.9748127e+3, 2.647563e+2, -378949.0, -318973.44, 38988.59, -0.015743453, -0.7479548, -299774.06, 45539.473, 0.0, 10.000035, 10.00082 
2.9747003e+3, 2.747568e+2, -270342.44, -222766.86, 19660.24, -0.00015158509, -0.7168846, -215693.92, 31615.332, 0.0, 10.000134, 10.000762 
2.9745883e+3, 2.847566e+2, -163919.17, -127950.11, 15818.968, 0.025641102, -0.7432718, -121982.96, 27327.357, 0.0, 10.000221, 10.0007 
2.9744768e+3, 2.9475674e+2, -38108.13, 2516.0496, 733.98773, 0.13874038, -0.7205718, 2529.3066, 53836.266, 0.0, 10.000332, 10.000869 
2.9862627e+3, 1.3487011e+2, -1744312.3, -1652507.9, 79182.83, -0.073758855, -0.7810837, -1606884.5, 11319.307, 0.0, 9.999475, 10.000682 
2.9861534e+3, 1.4487067e+2, -1490718.3, -1494896.1, 30513.377, 0.09662116, -0.7225539, -1462222.4, 57975.93, 0.0, 10.000608, 10.000545 
2.9860413e+3, 1.548708e+2, -1341224.9, -1387149.1, 40068.34, 0.049721338, -0.69440234, -1318005.5, 104190.38, 0.0, 10.001029, 10.000407 
2.985929e+3, 1.6487055e+2, -1253605.3, -1320030.0, 15314.31, 0.013749103, -0.68467164, -1250244.6, 73953.266, 0.0, 10.00107, 10.0001745 
2.985817e+3, 1.7487021e+2, -1191766.8, -1232423.4, 22772.025, 0.005147383, -0.6747642, -1181569.6, 44632.137, 0.0, 10.000794, 10.000236 
2.985705e+3, 1.8486963e+2, -1120320.4, -1134139.3, 18567.256, -0.007979269, -0.69971156, -1107418.6, 20788.826, 0.0, 10.000555, 10.000353 
2.9855934e+3, 1.9486886e+2, -1043606.6, -1034464.4, 19020.607, -0.024981769, -0.752637, -1019473.3, 10740.813, 0.0, 10.000359, 10.000459 
2.985482e+3, 2.0486857e+2, -939927.3, -929069.4, 31980.66, -0.02026593, -0.76716816, -902060.1, 30155.982, 0.0, 10.000377, 10.000501 
2.9853705e+3, 2.1486865e+2, -803672.94, -795586.75, 33245.574, -0.009028681, -0.7543728, -766139.3, 68074.836, 0.0, 10.000565, 10.000655 
2.9852593e+3, 2.2486858e+2, -732002.2, -733238.75, 38796.707, -0.013094694, -0.7529263, -693818.9, 42395.008, 0.0, 10.000483, 10.000449 
2.9851478e+3, 2.348683e+2, -666255.9, -635789.8, 33315.883, -0.02956768, -0.769318, -614389.6, 23826.217, 0.0, 10.000194, 10.000586 
2.9850358e+3, 2.4486823e+2, -567131.56, -511691.6, 30161.049, -0.036452577, -0.7825099, -498447.13, 41768.613, 0.0, 10.000091, 10.000815 
2.9849243e+3, 2.548684e+2, -452561.9, -399189.3, 7494.3135, -0.02786333, -0.7902531, -398156.97, 44056.457, 0.0, 10.000173, 10.000877 
2.9848123e+3, 2.6486865e+2, -340513.28, -295454.0, 5322.179, -0.014982446, -0.78802055, -294833.9, 49376.285, 0.0, 10.000273, 10.00087 
2.9847002e+3, 2.7486897e+2, -232990.83, -206520.56, 4046.0322, -0.001254281, -0.77526087, -205915.94, 40290.688, 0.0, 10.000395, 10.000751 
2.9845878e+3, 2.8486905e+2, -114100.516, -89571.03, 2439.3933, 0.021669386, -0.78069955, -89330.79, 58873.77, 0.0, 10.0005, 10.000832 
2.984477e+3, 2.9486868e+2, -29277.73, -30322.758, -6764.6313, 0.17616902, -0.8197522, -23015.463, 27190.865, 0.0, 10.000553, 10.000537 
2.9962617e+3, 1.3498306e+2, -1630805.0, -1621445.6, -35073.336, -0.07205555, -0.733038, -1590741.1, 26354.543, 0.0, 10.000348, 10.000478 
2.9961526e+3, 1.4498363e+2, -1509444.6, -1500662.3, -98400.3, 0.035383552, -0.6665346, -1406555.3, 112536.1, 0.0, 10.000458, 10.000581 
2.996041e+3, 1.5498295e+2, -1448752.5, -1437688.5, -34969.91, -0.034061775, -0.72483337, -1407815.8, 13280.855, 0.0, 10.000274, 10.00043 
2.995929e+3, 1.6498247e+2, -1370980.9, -1386718.6, -24989.72, 0.0040424243, -0.73958504, -1352650.4, -29549.012, 0.0, 10.000295, 10.000097 
2.995817e+3, 1.7498203e+2, -1234372.9, -1263513.8, 25988.508, 0.013196425, -0.7325909, -1219149.0, 5957.7188, 0.0, 10.000533, 10.0001545 
2.9957056e+3, 1.849823e+2, -1130900.1, -1155051.4, 29148.102, 0.043434303, -0.6616819, -1111425.3, 15678.913, 0.0, 10.000537, 10.000224 
2.9955935e+3, 1.9498155e+2, -1052665.6, -1054954.9, 18084.74, 0.027555022, -0.69780505, -1035689.3, -6578.3306, 0.0, 10.000354, 10.000326 
2.9954818e+3, 2.0498134e+2, -977857.56, -939412.6, 21163.133, -0.01639619, -0.7039177, -930045.2, 1066.9277, 0.0, 10.000072, 10.000582 
2.9953706e+3, 2.1498121e+2, -865129.75, -816842.75, 1884.8209, -0.00867107, -0.71924067, -816769.3, 16342.646, 0.0, 10.000098, 10.000737 
2.995259e+3, 2.2498089e+2, -723941.1, -714821.4, -15793.418, -0.036841035, -0.7559668, -702942.75, 32170.8, 0.0, 10.000469, 10.000586 
2.995147e+3, 2.3498078e+2, -616523.94, -598291.1, -9453.402, -0.017839843, -0.7704928, -594274.56, 42838.332, 0.0, 10.000473, 10.0007105 
2.9950356e+3, 2.4498068e+2, -552620.9, -529475.3, 18059.584, -0.0051398473, -0.7805083, -519598.66, 19513.773, 0.0, 10.000295, 10.000595 
2.994924e+3, 2.549804e+2, -460370.16, -423495.84, 9630.365, -0.010280048, -0.8148479, -421132.22, 19982.184, 0.0, 10.000208, 10.000693 
2.994812e+3, 2.649802e+2, -325106.78, -264041.22, 8931.396, -0.0033614573, -0.8595534, -262761.72, 80352.86, 0.0, 10.000276, 10.001084 
2.9947e+3, 2.7498016e+2, -218083.17, -175958.81, 10039.523, 0.018197251, -0.9017566, -173688.45, 71423.76, 0.0, 10.000397, 10.000958 
2.994588e+3, 2.8498033e+2, -112390.13, -85737.56, 5326.531, 0.023606068, -0.9157047, -84712.484, 62396.094, 0.0, 10.000501, 10.000855 
2.9944772e+3, 2.9498005e+2, -30944.113, -34719.254, -2873.3215, 0.21365373, -0.951388, -29393.82, 19715.545, 0.0, 10.000559, 10.000504 
