coord_x,coord_y,stress_xx,stress_yy,tau_xy,velocity_x,velocity_y,stress_1,eps,damage,lx,ly
4.999621e+0, 1.252475e+2, -1724173.0, -1637704.3, 64573.098, -0.016121155, 0.11767961, -1603228.3, 109362.75, 0.0027102246, 9.999398, 10.000814 
4.999555e+0, 1.3524942e+2, -1633097.6, -1497358.1, 12783.866, -0.00990174, 0.08928536, -1496164.6, 118406.305, 0.0016001622, 9.999223, 10.001176 
4.9997768e+0, 1.4525275e+2, -1548331.6, -1492518.4, 16221.269, -0.0035436284, 0.35517794, -1488146.4, 28388.2, 0.00071385584, 9.999528, 10.000374 
5.000027e+0, 1.5525004e+2, -1338059.6, -1340435.8, -15462.511, -0.01665228, -0.028582932, -1323739.6, 94815.695, 0.00020880907, 10.000302, 10.000375 
5.000151e+0, 1.6524959e+2, -1284165.9, -1397087.5, -19506.027, -0.017794028, -0.045558207, -1280891.4, 39666.92, 0.00003056022, 10.00058, 9.999181 
5.00015e+0, 1.7525056e+2, -1222325.6, -1327853.4, -14198.851, -0.007838852, 0.0769926, -1220448.6, 2102.6685, 0.0000010193884, 10.00038, 9.999082 
5.0001013e+0, 1.8525037e+2, -1081186.3, -1118478.6, 1528.3813, -0.009033064, 0.11368635, -1081123.8, 43428.242, 0.0, 10.000299, 9.99988 
4.999973e+0, 1.9524877e+2, -987827.25, -1036941.06, -29290.322, -0.02277266, -0.0925988, -974161.56, 52401.47, 0.0, 10.000326, 9.999759 
4.999979e+0, 2.0524873e+2, -948342.25, -1057608.6, -12473.251, -0.022025963, -0.023617007, -946936.44, -18372.31, 0.0, 10.000321, 9.998939 
5.0000507e+0, 2.1524969e+2, -860813.94, -974434.94, 2588.2505, -0.013308644, 0.119875625, -860755.0, -30194.564, 0.0, 10.000289, 9.998854 
5.000142e+0, 2.2524938e+2, -738586.2, -851957.3, 39671.992, -0.009531408, 0.20327169, -726082.75, 6483.132, 0.0, 10.000403, 9.998968 
5.000283e+0, 2.3524755e+2, -610051.7, -744974.8, 34177.71, -0.007410308, 0.06260693, -601888.0, 32694.69, 0.0, 10.000635, 9.9989195 
5.000316e+0, 2.4524638e+2, -530916.8, -672738.06, 46618.227, -0.00055335084, 0.064589754, -516965.34, 19628.916, 0.0, 10.000574, 9.998773 
5.000243e+0, 2.5524527e+2, -489234.13, -615008.2, 51773.832, 0.008482385, 0.019863727, -470663.75, -32057.854, 0.000000000017365094, 10.000238, 9.998662 
4.9999642e+0, 2.6524505e+2, -301093.16, -268416.22, 35137.965, -0.0060125156, 0.04969595, -246003.92, 94602.945, 0.000000288742, 9.999977, 10.000487 
4.999496e+0, 2.7524576e+2, -238324.9, -195714.6, -56190.61, -0.043076105, 0.0083688665, -156925.7, 85672.09, 0.0000033591298, 9.999767, 10.000414 
4.999823e+0, 2.8524655e+2, -246824.73, -416824.34, -39586.934, -0.03130653, 0.17292757, -238058.39, -93469.38, 0.000018802597, 10.000194, 9.99801 
5.000788e+0, 2.9524583e+2, 15784.316, -223391.28, -4870.5547, 0.011772705, 0.23043466, 15883.458, 62480.387, 0.000081046455, 10.001232, 9.998171 
5.0006354e+0, 3.0523962e+2, -7347.054, -290872.06, -3067.8618, 0.0051293885, -0.18252714, -7313.863, -7313.863, 0.0003038914, 10.001082, 9.997445 
4.9995226e+0, 3.152403e+2, -8816.211, 38077.773, 18315.938, -0.03595272, 0.09266361, 44383.68, 44383.68, 0.00078894256, 9.999562, 10.000458 
1.4998835e+1, 1.2525004e+2, -1822376.9, -1750576.1, 15795.705, -0.047469415, 0.19948332, -1747254.9, -34694.41, 0.0026043395, 9.999067, 10.000218 
1.4998752e+1, 1.3524859e+2, -1708206.9, -1604340.8, 20541.36, -0.017311014, -0.03867877, -1600425.9, 14149.027, 0.0015429672, 9.99906, 10.000544 
1.4999314e+1, 1.4525111e+2, -1603281.3, -1548075.3, 32330.877, -0.010699006, 0.19242506, -1533167.0, -16618.219, 0.0006869522, 9.999303, 10.000114 
1.5000068e+1, 1.5525046e+2, -1388657.3, -1397755.0, 28172.344, -0.049783867, 0.08014062, -1364668.9, 53883.977, 0.0001968844, 10.000123, 10.000079 
1.5000464e+1, 1.6525024e+2, -1274062.9, -1322897.6, -39151.004, -0.049978375, 0.07019343, -1252339.0, 68215.03, 0.000026649353, 10.0003805, 9.999797 
1.5000495e+1, 1.7525014e+2, -1203045.4, -1245160.6, -8166.787, -0.018971074, 0.054783463, -1201517.1, 21038.59, 0.00000066228677, 10.000215, 9.999743 
1.5000267e+1, 1.8524988e+2, -1142056.1, -1183163.0, -10162.381, -0.027422264, 0.06625067, -1139681.0, -15123.096, 0.0, 10.00007, 9.999554 
1.4999922e+1, 1.9524927e+2, -1042319.1, -1096529.5, -13866.39, -0.065645576, 0.026643332, -1038978.1, -12415.711, 0.0, 10.000122, 9.999459 
1.499991e+1, 2.0524897e+2, -922299.8, -945367.44, -24102.17, -0.06692117, 0.037558187, -907113.9, 21450.91, 0.0, 10.000102, 9.999823 
1.5000133e+1, 2.1524878e+2, -831097.06, -857503.06, 17450.344, -0.040923756, 0.009146604, -822417.8, 8148.884, 0.0, 10.000079, 9.999766 
1.5000415e+1, 2.2524862e+2, -745857.3, -811523.56, 34414.977, -0.026179574, 0.04171927, -731125.7, 1443.0458, 0.0, 10.000196, 9.999355 
1.5000826e+1, 2.352484e+2, -619250.56, -706270.25, 56452.273, -0.022033373, 0.059174336, -591486.5, 43085.348, 0.0, 10.000418, 9.999298 
1.5000948e+1, 2.4524806e+2, -522380.5, -607616.94, 20971.45, -0.00008566847, 0.099922396, -517500.16, 19074.418, 0.0, 10.000397, 9.999315 
1.5000725e+1, 2.552474e+2, -482453.72, -542501.75, 51004.406, 0.027394094, 0.07402078, -453292.5, -14713.288, 0.0, 10.000014, 9.999278 
1.4999889e+1, 2.6524624e+2, -465453.47, -562773.8, 15717.969, -0.017220708, 0.07197413, -462977.88, -122385.84, 0.00000013049092, 9.999806, 9.998558 
1.4998506e+1, 2.7524468e+2, -409090.63, -494454.56, -52322.957, -0.12673904, 0.03515997, -384248.97, -141636.73, 0.0000024373799, 9.999551, 9.998479 
1.4999422e+1, 2.8524438e+2, -179406.0, -229735.17, -11779.826, -0.096308865, 0.11622494, -176785.33, -32169.916, 0.000015368285, 10.000024, 9.99939 
1.5002348e+1, 2.9524434e+2, 76529.06, -34354.813, 52609.58, 0.033249527, 0.13761556, 97517.33, 144129.58, 0.000069496324, 10.00098, 9.999606 
1.5001974e+1, 3.0524108e+2, 39538.89, -125372.055, -69189.69, 0.029223857, -0.108030915, 64722.254, 64722.254, 0.00026841622, 10.000868, 9.998706 
1.4998516e+1, 3.1524393e+2, -94148.164, -15664.036, 5202.3203, -0.10443251, 0.31434608, -15320.702, -15320.702, 0.0007052667, 9.999112, 10.000325 
2.4997576e+1, 1.2524955e+2, -1885565.0, -1797792.3, -86348.9, -0.04745939, 0.22152993, -1744817.3, -32252.705, 0.0024837567, 9.99874, 10.000022 
2.4998946e+1, 1.3524762e+2, -1586314.9, -1581450.5, -86472.2, 0.057980403, -0.046852823, -1497376.3, 117207.375, 0.0014731403, 10.0000925, 10.000184 
2.4999939e+1, 1.4524978e+2, -1460648.8, -1464756.3, -17646.486, 0.085249916, 0.15850027, -1444937.0, 71624.805, 0.00065158884, 10.000246, 10.000213 
2.5000107e+1, 1.5524992e+2, -1485129.8, -1434956.5, -8943.415, -0.014658406, 0.10502359, -1433410.0, -14851.15, 0.0001815959, 9.999439, 10.000138 
2.500034e+1, 1.6525005e+2, -1419747.8, -1368899.4, -22988.34, -0.03678312, 0.116573654, -1360047.4, -39490.008, 0.000022322774, 9.999286, 9.999996 
2.5000733e+1, 1.7524986e+2, -1262245.9, -1246042.3, -37717.848, 0.017485429, 0.060850516, -1215565.9, 6993.969, 0.00000035252413, 9.999713, 9.999961 
2.5000632e+1, 1.8524978e+2, -1152614.4, -1203528.5, -6293.974, 0.011476277, 0.08688994, -1151847.8, -27286.842, 0.0, 10.00005, 9.999417 
2.5000212e+1, 1.9524968e+2, -1042538.06, -1106410.8, -6307.139, -0.0423348, 0.09907239, -1041921.2, -15359.44, 0.0, 10.000165, 9.999355 
2.500005e+1, 2.0524934e+2, -929165.1, -935101.1, -7121.5854, -0.050491568, 0.104022525, -924417.8, 4146.149, 0.0, 9.999995, 9.999939 
2.5000077e+1, 2.1524854e+2, -906609.4, -883905.8, -35426.42, -0.018926078, -0.0068482044, -858056.9, -27486.953, 0.0, 9.999518, 9.99985 
2.5000542e+1, 2.2524832e+2, -832647.44, -836991.2, 6030.5103, 0.0067513143, 0.010400996, -828409.6, -95838.21, 0.0, 9.999528, 9.999487 
2.5001463e+1, 2.352485e+2, -682337.1, -727393.7, 148.97624, 0.030564068, 0.04398785, -682336.7, -47766.137, 0.0, 9.999934, 9.999375 
2.5001648e+1, 2.4524838e+2, -534692.9, -608679.56, -34592.504, 0.041599564, 0.10064965, -521038.94, 15532.085, 0.0, 10.000303, 9.999338 
2.5001118e+1, 2.5524774e+2, -390761.84, -497360.94, -60439.027, 0.042055532, 0.06524774, -363477.78, 75097.24, 0.0, 10.000647, 9.999267 
2.5000277e+1, 2.652463e+2, -361510.88, -603423.06, -34190.543, -0.0075131273, 0.07860037, -356771.44, -16179.855, 0.00000003137998, 10.00093, 9.9977255 
2.4999157e+1, 2.7524415e+2, -231634.34, -498819.1, -31199.732, -0.089518376, 0.057752613, -228039.45, 14580.552, 0.0000016497497, 10.001172, 9.997658 
2.4999891e+1, 2.852434e+2, -88711.17, -171853.2, 40872.832, -0.07152019, 0.12553573, -71983.49, 72645.28, 0.000012071121, 10.000592, 9.999504 
2.5002402e+1, 2.952433e+2, -177189.78, -144964.92, -3823.9827, 0.040099297, 0.121241406, -144517.38, -97891.72, 0.00005739791, 9.999217, 9.99968 
2.5002083e+1, 3.0524173e+2, -122450.2, -111955.51, -137514.23, 0.043015223, 0.001927721, 20411.459, 20411.459, 0.00023072664, 9.999379, 9.999511 
2.499873e+1, 3.152441e+2, 114601.57, 31695.547, -129498.01, -0.05492693, 0.27401108, 209119.47, 209119.47, 0.000617959, 10.000805, 9.999813 
3.4995496e+1, 1.252459e+2, -1885770.1, -1753676.3, -80637.83, -0.19670032, 0.117329516, -1715489.5, -2885.1445, 0.0023583595, 9.998566, 10.000407 
3.499971e+1, 1.3524655e+2, -1571455.3, -1528990.8, -29277.59, 0.090571344, 0.09058683, -1514056.9, 100540.35, 0.0013953737, 10.000021, 10.000571 
3.5001275e+1, 1.452486e+2, -1427881.3, -1366329.3, -64066.098, 0.15322635, 0.23039556, -1326030.5, 190544.47, 0.0006105934, 10.00012, 10.000948 
3.499977e+1, 1.5524839e+2, -1441329.4, -1322120.6, -23596.072, -0.028606853, 0.068314955, -1317620.0, 100954.016, 0.00016453842, 9.99936, 10.000946 
3.4999532e+1, 1.6524886e+2, -1424988.8, -1359564.5, -23517.318, -0.081024684, 0.067676574, -1351988.3, -31419.004, 0.000017966355, 9.999188, 10.000116 
3.500054e+1, 1.752495e+2, -1264386.6, -1239757.9, -7143.154, -0.007427006, 0.09294034, -1237836.1, -15270.27, 0.00000014192928, 9.99966, 10.000037 
3.500087e+1, 1.852499e+2, -1146606.8, -1154157.5, -14474.879, -0.00064713514, 0.14405134, -1135423.0, -10860.053, 0.0, 9.999903, 9.999822 
3.5000518e+1, 1.9524994e+2, -1032266.44, -1055025.4, 11278.177, -0.06007568, 0.13667086, -1027624.4, -1062.7808, 0.0, 10.000042, 9.999765 
3.5000095e+1, 2.0524973e+2, -978036.06, -998646.6, -40919.39, -0.07285361, 0.15258947, -946144.25, -17581.277, 0.0, 9.99984, 9.9995775 
3.49996e+1, 2.1524896e+2, -953123.9, -942943.8, -39302.707, -0.047392443, 0.09069918, -908402.9, -77833.016, 0.0, 9.999362, 9.99952 
3.5000214e+1, 2.2524841e+2, -846812.9, -820711.7, 11975.931, -0.0070663556, 0.07940988, -816049.56, -83474.96, 0.0, 9.999344, 9.999682 
3.500185e+1, 2.3524795e+2, -693303.25, -705519.2, 29324.453, 0.045411, 0.035399124, -669457.4, -34879.31, 0.0, 9.999756, 9.999606 
3.500214e+1, 2.4524735e+2, -575625.94, -663878.2, -33603.723, 0.033208895, 0.048667293, -564287.44, -27704.137, 0.0, 10.000173, 9.999026 
3.5001147e+1, 2.5524634e+2, -435442.03, -553647.3, -32877.55, -0.049576677, 0.017083181, -426912.9, 11679.49, 0.0, 10.000492, 9.998957 
3.5000837e+1, 2.6524532e+2, -337732.53, -535002.2, -36321.695, -0.07235008, 0.059076004, -331257.47, 9347.22, 0.0000000045955626, 10.000848, 9.998232 
3.5001045e+1, 2.752442e+2, -214755.61, -432440.78, -7616.232, -0.04981984, 0.09586394, -214489.45, 28130.654, 0.0000011896407, 10.0010395, 9.998177 
3.500094e+1, 2.8524354e+2, -159292.5, -299822.13, -23568.07, -0.057048403, 0.18974829, -155445.25, -10816.447, 0.000009641755, 10.00052, 9.998659 
3.5000587e+1, 2.9524264e+2, -265289.97, -297405.5, -40145.887, -0.09981672, 0.19907649, -238109.5, -191471.98, 0.0000464018, 9.999093, 9.998695 
3.5000503e+1, 3.052413e+2, -78591.37, -12822.762, -93877.37, -0.08111711, 0.1155076, 53763.223, 53763.223, 0.00019513248, 9.9993305, 10.000212 
3.499945e+1, 3.1524128e+2, 52188.906, -80504.914, -37123.1, -0.1317666, 0.07288534, 61868.55, 61868.55, 0.00053834624, 10.000715, 9.999083 
4.4996262e+1, 1.2524404e+2, -1668031.0, -1610048.9, 52303.324, -0.015607073, 0.10658477, -1579239.4, 133385.2, 0.0022337737, 9.999923, 10.000719 
4.499894e+1, 1.3524535e+2, -1692425.8, -1563758.3, 25952.568, 0.07892163, 0.12154782, -1558720.8, 55888.637, 0.0013153872, 9.999096, 10.000772 
4.500039e+1, 1.452468e+2, -1612443.1, -1445379.1, -16354.963, 0.13574575, 0.18730454, -1443793.1, 72799.81, 0.00056916923, 9.998797, 10.001058 
4.4999564e+1, 1.5524696e+2, -1479573.8, -1333874.8, -60998.336, 0.044827048, 0.060536448, -1311709.3, 106880.195, 0.00014812649, 9.999055, 10.001031 
4.4999436e+1, 1.6524799e+2, -1411592.0, -1303156.0, -27692.068, 0.0087241605, 0.087805465, -1296493.4, 24086.383, 0.000013959289, 9.999078, 10.000554 
4.5000064e+1, 1.7524923e+2, -1340714.4, -1227134.8, -13684.106, 0.027270334, 0.13031517, -1225509.4, -2939.2815, 0.000000037538413, 9.998928, 10.000477 
4.5000538e+1, 1.8524987e+2, -1201159.4, -1132914.6, 32681.57, 0.016731998, 0.16421412, -1119788.5, 4775.396, 0.0, 9.999324, 10.000257 
4.500077e+1, 1.9524994e+2, -996808.94, -991933.3, 37380.477, -0.029902179, 0.117032126, -956911.25, 69649.58, 0.0, 10.000088, 10.000183 
4.5000687e+1, 2.0524985e+2, -898162.9, -973167.4, -2958.8293, -0.016360452, 0.13112321, -898046.3, 30514.855, 0.0, 10.000432, 9.999474 
4.5000345e+1, 2.1524936e+2, -823601.1, -891981.75, -7753.6035, 0.056443095, 0.10479215, -822732.94, 7834.1123, 0.0, 10.000294, 9.999424 
4.500069e+1, 2.2524893e+2, -713682.3, -763858.4, 93327.76, 0.070758365, 0.11466491, -642129.4, 90441.63, 0.0, 10.00028, 9.999634 
4.5001686e+1, 2.3524846e+2, -614842.9, -676773.44, 67667.75, 0.035979737, 0.07678919, -571391.94, 63182.414, 0.0, 10.000332, 9.999539 
4.5002013e+1, 2.4524762e+2, -577152.8, -713842.9, 14925.599, 0.0037661104, 0.09334174, -575542.0, -38959.066, 0.0, 10.000384, 9.998573 
4.5001674e+1, 2.5524607e+2, -471237.7, -623419.0, -20501.82, -0.035614077, 0.051627804, -468524.1, -29924.166, 0.0, 10.000468, 9.998488 
4.5001638e+1, 2.652451e+2, -387049.38, -493920.47, -11295.956, -0.036653284, 0.09474781, -385868.5, -45257.445, 0.000000013083459, 10.000236, 9.998807 
4.500197e+1, 2.752447e+2, -351250.03, -436791.9, -2060.2344, 0.009554771, 0.14773425, -351200.44, -108584.0, 0.0000010541644, 9.999839, 9.99873 
4.5001602e+1, 2.8524408e+2, -269833.9, -370160.56, 22050.982, 0.0018511765, 0.2266857, -265201.2, -120577.67, 0.000008106713, 9.999834, 9.998515 
4.5000523e+1, 2.9524264e+2, -120722.03, -252531.84, 32792.67, -0.058910854, 0.19775379, -113014.33, -66376.53, 0.000037622078, 10.000186, 9.998486 
4.500074e+1, 3.052413e+2, 39884.58, 17622.94, 51381.72, -0.024156291, 0.13961837, 81327.29, 81327.29, 0.00016443121, 10.000248, 9.999974 
4.5000517e+1, 3.1524053e+2, -84503.31, -199265.31, -6657.926, -0.045540072, 0.037540063, -84118.34, -84118.34, 0.00047154687, 9.999991, 9.998615 
5.499847e+1, 1.2524424e+2, -1663567.1, -1617918.6, -21756.852, 0.12120109, 0.18743804, -1609210.3, 103412.15, 0.0021078985, 9.99997, 10.00065 
5.4996186e+1, 1.3524404e+2, -1679743.3, -1560849.1, 11424.397, -0.15603293, 0.050107982, -1559761.3, 54858.715, 0.0012334009, 9.99918, 10.000757 
5.49969e+1, 1.4524443e+2, -1649177.5, -1523880.6, -26667.152, -0.14519773, 0.03343172, -1518441.1, -1825.8342, 0.00052778376, 9.998803, 10.000516 
5.499899e+1, 1.5524581e+2, -1518118.8, -1418055.5, -37852.914, 0.0391019, 0.086827874, -1405349.5, 13254.514, 0.00013278752, 9.999066, 10.000449 
5.499941e+1, 1.6524753e+2, -1375349.5, -1211060.0, -47970.645, 0.060530376, 0.17965958, -1198078.8, 122509.34, 0.0000106646075, 9.999009, 10.001214 
5.4998773e+1, 1.7524897e+2, -1293565.3, -1124342.1, -5364.2603, -0.033122543, 0.16953838, -1124172.3, 98401.49, 0.000000007551507, 9.998907, 10.001189 
5.49992e+1, 1.8524966e+2, -1177567.8, -1063924.5, 46475.54, -0.082943276, 0.14513871, -1047338.56, 77225.76, 0.0, 9.999238, 10.0007715 
5.50005e+1, 1.9524963e+2, -971856.5, -923220.06, 77223.14, -0.10098383, 0.03940784, -866576.6, 159983.34, 0.0, 10.000017, 10.000689 
5.500135e+1, 2.0524971e+2, -906414.25, -955465.06, -19067.768, -0.023454728, 0.035294574, -899874.0, 28684.418, 0.0, 10.00029, 9.999659 
5.5001813e+1, 2.1524963e+2, -828285.1, -874945.0, -89.63471, 0.14114125, 0.034591544, -828284.94, 2276.9343, 0.0, 10.000181, 9.999593 
5.5001515e+1, 2.2524984e+2, -750094.56, -811033.06, 82992.11, 0.09427685, 0.1113428, -692155.3, 40405.754, 0.0, 10.000161, 9.999366 
5.500057e+1, 2.3525015e+2, -652950.2, -728360.6, 83297.516, -0.13892439, 0.17856868, -599221.5, 35336.543, 0.0, 10.000215, 9.999241 
5.5000764e+1, 2.4524918e+2, -633585.9, -811935.3, 8148.197, -0.19261375, 0.2306133, -633214.44, -96644.39, 0.0, 10.000307, 9.997934 
5.5002123e+1, 2.5524682e+2, -534755.75, -715626.06, -5566.612, -0.07346961, 0.16945699, -534584.6, -95986.69, 0.0, 10.000312, 9.997921 
5.5002314e+1, 2.652457e+2, -346709.13, -405652.56, -39760.99, -0.027042992, 0.19148043, -326688.25, 13922.154, 0.000000016276152, 10.000205, 9.999434 
5.500157e+1, 2.752456e+2, -319927.13, -355873.22, -2967.792, -0.04837539, 0.20993601, -319683.75, -77073.84, 0.00000094951764, 9.999758, 9.999332 
5.5001366e+1, 2.8524494e+2, -233635.44, -283844.97, 22824.186, -0.038192477, 0.2255653, -224810.97, -80197.055, 0.0000068871877, 9.999796, 9.99912 
5.50017e+1, 2.952433e+2, -96146.52, -177593.1, 59790.617, -0.0006112353, 0.11879368, -64528.23, -17901.85, 0.00003070153, 10.000083, 9.999048 
5.5002356e+1, 3.052418e+2, -38997.496, -131149.48, 35931.582, 0.07975986, 0.07041913, -26643.395, -26643.395, 0.00013855331, 10.000194, 9.9989805 
5.5001086e+1, 3.1524178e+2, -110798.23, -226738.03, 20711.615, -0.05603869, 0.14484794, -107209.375, -107209.375, 0.0004144919, 9.999888, 9.998472 
6.499925e+1, 1.2524448e+2, -1791502.3, -1722661.6, 51748.04, 0.26173922, 0.19707525, -1694932.0, 17687.982, 0.0019834668, 9.999236, 10.000313 
6.4995766e+1, 1.3524458e+2, -1558440.0, -1515404.4, 30053.322, -0.14415203, 0.11019419, -1499959.8, 114655.055, 0.001149572, 10.000046, 10.000668 
6.499628e+1, 1.4524418e+2, -1486548.5, -1469262.1, 35750.664, -0.13672908, 0.027824473, -1441124.6, 75493.65, 0.00048384682, 10.000033, 10.000296 
6.499851e+1, 1.5524557e+2, -1464908.5, -1413675.9, 15794.599, 0.07292214, 0.10613115, -1409198.0, 9409.656, 0.00011744106, 9.999544, 10.0002365 
6.499887e+1, 1.6524723e+2, -1337446.8, -1196358.9, 21934.088, 0.10318114, 0.20628126, -1193027.6, 127564.484, 0.000008467286, 9.999286, 10.001183 
6.499788e+1, 1.7524847e+2, -1272576.0, -1117596.5, -18110.633, -0.012439705, 0.1816631, -1115508.3, 107070.69, 0.000000004638606, 9.99908, 10.001146 
6.499841e+1, 1.852491e+2, -1220430.4, -1052901.5, 34380.445, -0.05408214, 0.13863926, -1046120.44, 78449.08, 0.0, 9.998811, 10.001048 
6.5000254e+1, 1.952491e+2, -1186494.1, -997167.8, 19680.596, -0.03715486, 0.005764699, -995143.7, 31420.52, 0.0, 9.998415, 10.000954 
6.5001297e+1, 2.0524944e+2, -1093181.0, -1039180.9, -50784.082, 0.018130157, 0.014822318, -1008665.5, -80105.39, 0.0, 9.998969, 9.999728 
6.5001607e+1, 2.1524996e+2, -816997.3, -861169.0, -62806.88, 0.109182574, 0.06414076, -772506.2, 58052.887, 0.0, 10.000222, 9.999669 
6.500147e+1, 2.2525011e+2, -697515.75, -803267.25, 15522.448, 0.06229891, 0.14007346, -695284.44, 37275.21, 0.0, 10.00059, 9.999215 
6.500097e+1, 2.3524982e+2, -670183.7, -749138.6, 237.6794, -0.10756961, 0.16100316, -670182.94, -35620.168, 0.0, 10.000141, 9.999132 
6.5001374e+1, 2.4524894e+2, -644585.6, -778499.75, 7216.535, -0.14026986, 0.20901683, -644197.9, -107624.41, 0.0, 10.000052, 9.998307 
6.500269e+1, 2.5524738e+2, -509654.28, -662725.6, 42572.277, -0.035853457, 0.1921464, -498610.8, -60018.31, 0.0, 10.000299, 9.99831 
6.5002847e+1, 2.6524618e+2, -357421.4, -448248.2, 14855.663, 0.009723306, 0.20679714, -355053.34, -14447.819, 0.00000000394634, 10.000295, 9.999104 
6.5001976e+1, 2.7524528e+2, -280216.72, -365406.47, -43532.887, 0.00615371, 0.17571183, -261906.45, -19292.611, 0.0000007712445, 10.000174, 9.999055 
6.500154e+1, 2.852445e+2, -163805.55, -238644.77, -24508.863, -0.0110535575, 0.18994267, -156493.61, -11874.752, 0.000006042053, 10.00023, 9.999218 
6.500164e+1, 2.952435e+2, -51073.31, -135370.67, -54749.93, -0.014007533, 0.13660997, -24127.371, 22497.121, 0.000026519589, 10.000329, 9.9992075 
6.500287e+1, 3.052417e+2, -5827.918, -182488.94, -51614.965, 0.09918591, 0.075567484, 8146.9175, 8146.9175, 0.00012024143, 10.000703, 9.99839 
6.500317e+1, 3.1524163e+2, 100564.43, -95436.05, -80022.3, 0.115084864, 0.21332397, 129085.39, 129085.39, 0.00036921015, 10.00119, 9.998771 
7.4997765e+1, 1.2524453e+2, -1807460.4, -1765123.9, 28113.295, 0.10805965, 0.14108345, -1751100.5, -38480.813, 0.0018629195, 9.999286, 9.999991 
7.4997056e+1, 1.3524684e+2, -1561882.6, -1535335.1, 64357.293, -0.06263839, 0.28887323, -1482897.0, 131698.23, 0.0010666472, 10.000097, 10.000508 
7.499776e+1, 1.4524601e+2, -1484424.1, -1454314.3, 1805.5139, -0.035651833, 0.16642755, -1454206.4, 62396.098, 0.0004391749, 9.999991, 10.000418 
7.4997693e+1, 1.5524615e+2, -1454758.3, -1403993.8, 14341.888, -0.0035379615, 0.10789013, -1400222.1, 18379.045, 0.00010226521, 9.999581, 10.000292 
7.499736e+1, 1.6524707e+2, -1399846.4, -1311569.4, -741.75793, -0.012814071, 0.16828051, -1311563.1, 9029.359, 0.000007138289, 9.999229, 10.000415 
7.4996966e+1, 1.752478e+2, -1331513.5, -1233518.6, -15439.076, -0.049335398, 0.16863906, -1231143.8, -8558.022, 0.00000003688298, 9.999049, 10.000366 
7.4997735e+1, 1.8524814e+2, -1232779.9, -1061444.1, 5875.9453, -0.036078867, 0.13697991, -1061242.9, 63337.355, 0.0, 9.998733, 10.001033 
7.4999595e+1, 1.9524816e+2, -1191438.8, -997933.25, 18209.596, 0.020528598, 0.0062559796, -996234.56, 30340.59, 0.0, 9.998372, 10.000971 
7.500013e+1, 2.0524901e+2, -1108825.9, -1048907.4, -14614.058, -0.026141115, 0.06301408, -1045533.06, -116966.164, 0.0, 9.998873, 9.999706 
7.4999315e+1, 2.1525027e+2, -833852.2, -872827.5, -4966.4434, -0.17459464, 0.18935312, -833229.25, -2670.4668, 0.0, 10.000114, 9.999643 
7.500014e+1, 2.2524974e+2, -717262.94, -816501.1, -12183.564, -0.15929252, 0.19838698, -715789.06, 16777.246, 0.0, 10.000471, 9.99918 
7.50025e+1, 2.352474e+2, -690367.06, -761777.44, -1432.492, 0.0005033313, 0.01739101, -690338.3, -55749.047, 0.0, 10.00001, 9.999112 
7.5003374e+1, 2.4524692e+2, -558956.6, -582849.9, 4509.7354, 0.026270116, 0.032968376, -558133.75, -21540.557, 0.0, 9.999976, 9.999683 
7.500298e+1, 2.5524783e+2, -436937.9, -487024.4, 64278.16, -0.0678096, 0.12421218, -392996.78, 45585.863, 0.0, 10.000185, 9.999574 
7.5002706e+1, 2.652467e+2, -459821.06, -639891.06, -1330.1031, -0.062403657, 0.15336174, -459811.22, -119216.55, 0.00000000015133415, 10.000216, 9.997822 
7.5002676e+1, 2.7524373e+2, -386615.44, -558914.94, -30500.844, 0.02308217, 0.045629725, -381375.47, -138747.78, 0.00000065427645, 10.00006, 9.99778 
7.5001746e+1, 2.8524283e+2, -190717.2, -290388.2, -31842.248, -0.04745532, 0.12378398, -181412.98, -36775.04, 0.0000058927376, 10.000205, 9.998878 
7.499991e+1, 2.9524326e+2, -83741.62, -187474.72, -36013.395, -0.26033518, 0.24405356, -72464.65, -25832.04, 0.000025865007, 10.000241, 9.998902 
7.500177e+1, 3.0524078e+2, -33917.75, -219423.19, -35917.047, -0.11212586, 0.14637865, -27206.398, -27206.398, 0.00011203884, 10.00063, 9.998158 
7.500586e+1, 3.1523988e+2, 133257.08, 13425.826, -11266.793, 0.20051847, 0.21943352, 134307.2, 134307.2, 0.00034091447, 10.001026, 9.999586 
8.4997076e+1, 1.2524483e+2, -1679804.6, -1721806.8, 47357.66, 0.0772793, 0.12769835, -1649000.4, 63616.324, 0.0017451695, 10.000262, 9.999804 
8.4997785e+1, 1.3524728e+2, -1654910.3, -1570295.9, 40432.758, 0.050264563, 0.28771743, -1554082.1, 60508.887, 0.0009891815, 9.999442, 10.000568 
8.4998465e+1, 1.4524625e+2, -1614603.9, -1499387.3, 15586.189, 0.09852282, 0.13164361, -1497316.0, 19283.883, 0.000399723, 9.998998, 10.000598 
8.49969e+1, 1.552468e+2, -1530254.6, -1423595.5, 4223.6733, -0.0019193884, 0.098210245, -1423428.5, -4834.4067, 0.00008899464, 9.998989, 10.0004425 
8.4996307e+1, 1.6524759e+2, -1413175.8, -1355179.0, 50497.742, -0.034728937, 0.15654577, -1325945.8, -5359.7007, 0.000006071428, 9.999293, 10.000091 
8.4996825e+1, 1.7524765e+2, -1251019.4, -1229428.3, 43572.582, 0.007252082, 0.124083154, -1195333.9, 27251.375, 0.000000076650345, 9.999749, 10.00006 
8.499781e+1, 1.8524761e+2, -1098678.0, -1073203.5, 68671.88, 0.04643156, 0.10543942, -1016097.6, 108487.305, 0.0, 9.999974, 10.00036 
8.4999275e+1, 1.9524762e+2, -1018061.0, -988776.8, 5687.209, 0.085493445, 0.041664913, -987711.1, 38872.76, 0.0, 9.999878, 10.000311 
8.499971e+1, 2.0524836e+2, -963303.06, -940196.7, 7842.8164, 0.010933767, 0.10241829, -937786.1, -9209.088, 0.0, 9.999717, 10.000041 
8.499903e+1, 2.1524946e+2, -906957.8, -872155.1, 13933.423, -0.17326799, 0.18347971, -867264.1, -36696.375, 0.0, 9.999469, 9.999959 
8.500004e+1, 2.2524923e+2, -845085.1, -842579.25, 29580.855, -0.1574506, 0.19394635, -814224.8, -81653.33, 0.0, 9.999455, 9.999481 
8.5002685e+1, 2.3524773e+2, -727807.3, -744581.56, 39161.395, 0.04631872, 0.06524197, -696145.0, -61557.33, 0.0, 9.999618, 9.999409 
8.5003734e+1, 2.4524741e+2, -577994.0, -582011.4, 44964.117, 0.081441864, 0.07964211, -534993.75, 1596.4222, 0.0, 9.999792, 9.999771 
8.500339e+1, 2.55248e+2, -454356.78, -482964.34, -16162.954, -0.027431367, 0.13081856, -447077.25, -8495.234, 0.0, 10.000017, 9.999671 
8.500321e+1, 2.6524696e+2, -421535.94, -623376.1, -49714.76, -0.036735546, 0.15583079, -409955.28, -69362.34, 0.0000000019213902, 10.000448, 9.997837 
8.500339e+1, 2.752442e+2, -263880.72, -501141.28, -8310.71, 0.05644789, 0.069050096, -263589.97, -20967.488, 0.0000006294421, 10.000875, 9.997798 
8.500252e+1, 2.8524303e+2, -145714.52, -324870.25, 45908.4, -0.00922244, 0.1465546, -134635.66, 10000.2, 0.0000062489003, 10.00075, 9.998381 
8.5000634e+1, 2.9524297e+2, -93713.35, -238469.2, 5388.5854, -0.2064704, 0.26435533, -93513.04, -46875.176, 0.000027811611, 10.000377, 9.998483 
8.5002255e+1, 3.0524033e+2, -76886.66, -221698.8, 54068.625, -0.09344882, 0.16070272, -58926.5, -58926.5, 0.00011222166, 10.000228, 9.998355 
8.50065e+1, 3.1523913e+2, -7832.057, 28019.953, 71615.03, 0.24648426, 0.18490526, 83918.44, 83918.44, 0.00032900518, 9.999691, 10.000326 
9.499632e+1, 1.252455e+2, -1691353.0, -1738061.0, -21422.52, -0.098096125, 0.16537492, -1683015.8, 29593.922, 0.0016362383, 10.000229, 9.999706 
9.49974e+1, 1.3524579e+2, -1627685.4, -1540160.0, 22361.734, 0.02548764, 0.09374152, -1534777.8, 79824.99, 0.0009229167, 9.999544, 10.000728 
9.4997996e+1, 1.452448e+2, -1596606.9, -1460851.8, 800.5025, 0.109783575, -0.08233725, -1460847.0, 55764.098, 0.00036888671, 9.998995, 10.000863 
9.499566e+1, 1.5524752e+2, -1514940.8, -1394964.9, 18129.234, -0.06391583, 0.07961981, -1392285.3, 26300.592, 0.00007923838, 9.999, 10.000635 
9.499536e+1, 1.6524887e+2, -1410960.5, -1338817.3, 56336.22, -0.09068937, 0.17805904, -1307993.9, 12577.905, 0.0000051224774, 9.999239, 10.000229 
9.4996995e+1, 1.752481e+2, -1242497.0, -1212181.0, 75168.66, 0.012822834, 0.04624859, -1150657.3, 71919.28, 0.00000007826353, 9.999748, 10.000178 
9.49982e+1, 1.8524764e+2, -1205762.1, -1281612.1, 54232.758, 0.058286842, 0.04986752, -1177509.4, -52926.47, 0.0, 9.999912, 9.998958 
9.4998914e+1, 1.9524752e+2, -1121919.5, -1191504.1, 16151.428, 0.02809199, 0.10898324, -1118353.4, -91763.4, 0.0, 9.999817, 9.998948 
9.499965e+1, 2.0524754e+2, -939192.7, -865689.56, -13499.193, 0.0036241463, 0.13700742, -863288.75, 65301.363, 0.0, 9.999604, 10.000609 
9.5000315e+1, 2.152474e+2, -881502.94, -796226.56, 20260.777, -0.022580603, 0.032014176, -791657.6, 38929.656, 0.0, 9.999362, 10.000534 
9.500074e+1, 2.2524849e+2, -820573.2, -766071.94, 26029.387, -0.06449584, 0.11559978, -755638.0, -23061.455, 0.0, 9.999345, 10.000058 
9.500105e+1, 2.3525053e+2, -704948.8, -676832.3, 57117.75, -0.11121093, 0.28434673, -632068.2, 2492.1196, 0.0, 9.999519, 9.999924 
9.5002013e+1, 2.452503e+2, -673756.44, -757104.94, 40999.82, -0.09909917, 0.34071317, -656969.4, -120403.875, 0.0, 9.999691, 9.998617 
9.500354e+1, 2.5524783e+2, -541500.5, -649488.3, 9495.748, -0.04748339, 0.19738944, -540671.9, -102079.945, 0.0, 9.999944, 9.998568 
9.5004e+1, 2.6524663e+2, -337713.53, -430412.88, -45749.953, -0.032284215, 0.19511066, -318937.53, 21664.932, 0.0000000017799018, 10.000379, 9.999189 
9.500361e+1, 2.7524644e+2, -191184.11, -320873.78, 18537.385, -0.04130572, 0.22586642, -188586.47, 54013.773, 0.0000005677249, 10.0007515, 9.999091 
9.50034e+1, 2.8524512e+2, -201686.03, -427402.6, 17937.658, -0.027020209, 0.26018447, -200269.42, -55656.62, 0.0000064583187, 10.000692, 9.997702 
9.500338e+1, 2.9524255e+2, -156067.52, -344436.4, 14584.874, -0.0073441914, 0.19598345, -154944.94, -108304.125, 0.000029725905, 10.000269, 9.997808 
9.500391e+1, 3.0524027e+2, -32885.676, -116231.2, 30423.646, 0.019307585, 0.118709296, -22961.76, -22961.76, 0.0001135958, 10.000172, 9.999096 
9.500417e+1, 3.1523952e+2, 12652.468, 102069.13, 97027.64, -0.02309183, 0.116612546, 164193.38, 164193.38, 0.00032168903, 9.999556, 10.000898 
1.0499644e+2, 1.2524623e+2, -1835692.6, -1774065.8, -11401.196, -0.03221587, 0.2135526, -1772024.1, -59419.785, 0.0015480418, 9.999065, 10.000031 
1.0499647e+2, 1.3524638e+2, -1695541.5, -1523535.5, -1433.7905, 0.025379118, 0.08650689, -1523523.5, 91073.766, 0.00087241904, 9.998856, 10.001182 
1.0499702e+2, 1.4524575e+2, -1626737.0, -1497078.9, 26836.035, 0.12706566, -0.069988966, -1491744.0, 24858.441, 0.0003471946, 9.998906, 10.000645 
1.049952e+2, 1.5524854e+2, -1485290.1, -1417030.6, -21460.16, -0.015778784, 0.13193524, -1410844.4, 7733.428, 0.000073446034, 9.99936, 10.000313 
1.0499524e+2, 1.6524968e+2, -1365092.5, -1305234.6, 25673.738, -0.030867528, 0.22009954, -1295731.6, 24834.2, 0.000004420773, 9.99952, 10.000313 
1.0499725e+2, 1.7524855e+2, -1290902.5, -1230362.9, 10534.917, 0.08908101, 0.04436302, -1228582.0, -6009.3896, 0.000000050630582, 9.999407, 10.000212 
1.0499839e+2, 1.852482e+2, -1241858.4, -1306573.4, 63662.992, 0.10260691, 0.060846537, -1202801.8, -78223.83, 0.0, 9.999707, 9.998878 
1.0499864e+2, 1.9524862e+2, -1072594.5, -1174515.5, 94268.266, 0.008510842, 0.18177925, -1016394.0, 10187.134, 0.0, 10.000202, 9.998869 
1.049993e+2, 2.052484e+2, -857367.5, -836160.75, 90834.21, -0.0133849885, 0.19408083, -755313.1, 173270.1, 0.0, 10.0002165, 10.000513 
1.0500037e+2, 2.1524736e+2, -842319.3, -785316.9, 46861.95, 0.039001673, 0.009820223, -758969.56, 71617.16, 0.0, 9.999675, 10.000452 
1.05000824e+2, 2.2524811e+2, -805842.3, -776274.2, 44423.703, 0.008881483, 0.07119272, -744239.06, -11660.542, 0.0, 9.999509, 9.999927 
1.05000846e+2, 2.3525037e+2, -693012.2, -684401.3, -2688.6438, -0.081784174, 0.27708405, -683630.8, -49069.8, 0.0, 9.999662, 9.999812 
1.05001874e+2, 2.4525024e+2, -646015.8, -745056.06, 30100.828, -0.08498924, 0.35184208, -637585.06, -101019.27, 0.0, 9.999891, 9.998603 
1.05003916e+2, 2.552478e+2, -513666.5, -634250.25, 60250.684, -0.007799819, 0.2123993, -488721.9, -50129.03, 0.0, 10.000146, 9.998569 
1.0500454e+2, 2.6524675e+2, -327021.63, -375176.7, 30551.092, -0.0012496166, 0.20254882, -312200.63, 28400.717, 0.00000000014537505, 10.000257, 9.99962 
1.05004065e+2, 2.7524683e+2, -230634.98, -293373.06, -2915.2292, -0.0386245, 0.21737605, -230499.81, 12094.897, 0.00000042821608, 10.000297, 9.9994955 
1.0500426e+2, 2.8524536e+2, -208294.42, -418225.75, 13320.751, 0.0032794322, 0.2116104, -207452.55, -62845.117, 0.0000059800022, 10.000569, 9.997835 
1.0500507e+2, 2.952424e+2, -47387.875, -280826.44, 40389.895, 0.1119563, 0.09333126, -40597.098, 6041.577, 0.000029321069, 10.000953, 9.997923 
1.0500501e+2, 3.052409e+2, 48642.99, -46346.543, 66885.11, 0.1018996, 0.07771253, 83180.96, 83180.96, 0.000109980174, 10.000609, 9.999361 
1.0500363e+2, 3.1524077e+2, 716.3387, 94573.83, 55093.07, -0.015681747, 0.105992705, 120016.02, 120016.02, 0.0003078243, 9.999486, 10.000875 
1.14996545e+2, 1.2524678e+2, -1780116.8, -1672263.5, -55316.2, -0.0060374243, 0.26158372, -1648937.5, 63665.44, 0.0014882531, 9.999114, 10.0007105 
1.14994586e+2, 1.3524894e+2, -1636519.3, -1409525.4, -1563.8896, -0.08501205, 0.26055133, -1409514.6, 205060.94, 0.000840427, 9.99889, 10.001946 
1.1499523e+2, 1.4524895e+2, -1687963.4, -1610393.1, 28215.463, 0.019484462, 0.16763663, -1601215.9, -84641.18, 0.00033535642, 9.998843, 9.999899 
1.149949e+2, 1.5524983e+2, -1534600.3, -1520145.8, 13025.528, -0.020430317, 0.25195128, -1512476.8, -93906.836, 0.0000716502, 9.999375, 9.999591 
1.1499555e+2, 1.6525002e+2, -1371025.9, -1317069.3, 9713.369, 0.0100334035, 0.2847902, -1315373.9, 5193.656, 0.0000041980056, 9.999508, 10.000244 
1.1499728e+2, 1.7524892e+2, -1290396.4, -1228596.6, 19040.672, 0.11635003, 0.113043286, -1223201.1, -627.2838, 0.000000024917117, 9.999403, 10.000225 
1.1499811e+2, 1.8524924e+2, -1172992.4, -1138681.4, 70236.72, 0.07552422, 0.13662566, -1083535.4, 41034.824, 0.0, 9.999599, 10.000088 
1.1499798e+2, 1.952508e+2, -997324.6, -1006449.06, 125349.41, -0.11322399, 0.25333485, -876454.44, 150103.78, 0.0, 10.00015, 10.0000515 
1.1499824e+2, 2.0525084e+2, -929631.9, -961328.1, 57261.03, -0.16993092, 0.2750479, -886066.3, 42490.33, 0.0, 10.000107, 9.999707 
1.1499877e+2, 2.1524923e+2, -916540.5, -911379.5, 37527.277, -0.116033666, 0.11057609, -876344.1, -45776.78, 0.0, 9.99955, 9.999649 
1.1499992e+2, 2.2524807e+2, -884211.7, -908287.6, 38137.863, -0.056331556, 0.06469918, -856257.06, -123679.06, 0.0, 9.999381, 9.999079 
1.1500167e+2, 2.3524714e+2, -764245.0, -805917.94, 17418.44, 0.004468431, 0.034635015, -757923.4, -123333.016, 0.0, 9.999541, 9.999038 
1.1500298e+2, 2.4524716e+2, -584209.9, -588896.56, 27110.986, 0.0072829956, 0.10405402, -559341.1, -22749.395, 0.0, 9.999783, 9.999725 
1.1500401e+2, 2.5524786e+2, -456019.4, -485555.66, 79291.12, -0.041716315, 0.17040648, -390132.84, 48452.36, 0.0, 10.000025, 9.999647 
1.15004465e+2, 2.6524726e+2, -369987.78, -453345.44, 21059.844, -0.06259078, 0.17675333, -364969.25, -24379.352, 0.0, 10.000205, 9.999115 
1.15004405e+2, 2.7524525e+2, -276906.72, -369997.16, 15134.987, -0.06706831, 0.038198516, -274507.8, -31901.139, 0.0000002594802, 10.000202, 9.999023 
1.1500465e+2, 2.852437e+2, -153274.39, -283883.28, 17683.203, -0.044373352, -0.005813015, -150922.6, -6302.0596, 0.000005001763, 10.000494, 9.998792 
1.1500526e+2, 2.952424e+2, -12876.028, -173524.53, 68345.266, -0.0018221865, -0.046133365, 12265.641, 58897.938, 0.000026475647, 10.000806, 9.998732 
1.1500517e+2, 3.0524218e+2, 25631.3, -73018.38, 22203.63, 0.027268512, 0.041324165, 30398.43, 30398.43, 0.000100772006, 10.000539, 9.999204 
1.15004025e+2, 3.1524286e+2, -57264.703, 3718.372, 50599.355, 0.005694027, 0.15170375, 32303.3, 32303.3, 0.00028477798, 9.999371, 10.000304 
1.24996215e+2, 1.2524626e+2, -1878539.6, -1734520.8, 21381.158, 0.091658875, 0.16439717, -1731413.5, -18807.969, 0.0014562852, 9.998522, 10.000557 
1.24993995e+2, 1.3524957e+2, -1583212.4, -1426204.9, -63744.35, -0.04550157, 0.31442338, -1403584.0, 210987.08, 0.0008261713, 9.999437, 10.001569 
1.24994546e+2, 1.4524995e+2, -1590837.1, -1554996.5, -19482.488, 0.04856851, 0.27366254, -1546446.0, -29878.512, 0.00033346904, 9.999473, 9.999972 
1.24994084e+2, 1.5524963e+2, -1580167.3, -1534659.4, -7016.683, -0.0129945865, 0.22854006, -1533602.0, -115029.32, 0.00007407354, 9.999028, 9.999654 
1.2499507e+2, 1.6524948e+2, -1400581.8, -1338642.3, 57367.305, 0.028717741, 0.22641952, -1304419.0, 16154.216, 0.000004716059, 9.999324, 10.000197 
1.24997504e+2, 1.7524895e+2, -1187753.8, -1188288.8, 42552.91, 0.17131722, 0.122450456, -1145467.5, 77107.13, 0.000000012759114, 10.000124, 10.000172 
1.2499827e+2, 1.8524952e+2, -1107375.8, -1061965.1, 61774.086, 0.1285898, 0.15241592, -1018855.8, 105712.46, 0.0, 9.999856, 10.000481 
1.24997474e+2, 1.9525112e+2, -1200753.5, -1065665.0, 27922.295, -0.092224844, 0.23487926, -1060121.1, -33566.758, 0.0, 9.998582, 10.000398 
1.2499772e+2, 2.0525122e+2, -1120219.4, -1075999.5, 9802.163, -0.16468303, 0.25538278, -1073924.1, -145372.23, 0.0, 9.9988985, 9.999502 
1.249989e+2, 2.1524975e+2, -784203.6, -870536.9, 9425.764, -0.10068178, 0.12643223, -783186.5, 47375.49, 0.0, 10.000561, 9.99944 
1.2500018e+2, 2.2524813e+2, -670390.94, -838716.4, 47785.47, -0.0406244, 0.060184944, -657771.3, 74805.58, 0.0, 10.000988, 9.998775 
1.2500164e+2, 2.352463e+2, -675491.94, -792141.9, 41849.08, 0.018587928, -0.030429149, -662031.5, -27434.283, 0.0, 10.000292, 9.998757 
1.2500268e+2, 2.4524626e+2, -572758.94, -540162.9, 70938.32, 0.012429008, 0.023615554, -483674.4, 52923.668, 0.0, 9.999666, 10.000119 
1.2500353e+2, 2.5524762e+2, -560285.1, -497030.22, 45562.805, -0.03917787, 0.117497005, -473193.56, -34610.063, 0.0, 9.999124, 10.000012 
1.2500422e+2, 2.6524734e+2, -535208.7, -540943.7, 17713.693, -0.045735747, 0.14225255, -520131.9, -179546.33, 0.0, 9.999111, 9.999031 
1.2500483e+2, 2.7524537e+2, -369144.75, -419124.84, 18240.215, -0.005438897, 0.012385834, -363196.03, -120591.39, 0.00000012209664, 9.999611, 9.998957 
1.2500525e+2, 2.8524417e+2, -232353.72, -294498.5, 31457.393, 0.007146758, 0.0004179142, -219210.03, -74595.05, 0.000003888246, 9.999843, 9.999028 
1.2500566e+2, 2.9524374e+2, -139746.58, -207035.28, 2503.1506, 0.018781643, 0.017990455, -139653.58, -93036.28, 0.00002250982, 9.9998255, 9.998968 
1.2500554e+2, 3.052424e+2, -36169.14, -138754.94, -48211.3, 0.040391494, -0.003474667, -17068.21, -17068.21, 0.000088219014, 10.000223, 9.998937 
1.2500472e+2, 3.152429e+2, 99437.0, 11290.207, -89609.82, 0.08710077, 0.11391772, 155225.44, 155225.44, 0.00025421134, 10.000727, 9.999718 
1.3499464e+2, 1.2524457e+2, -1958668.8, -1892487.4, 8126.676, 0.01189496, -0.09068902, -1891504.0, -178890.69, 0.0014504807, 9.998487, 9.99949 
1.3499416e+2, 1.352483e+2, -1674391.5, -1624307.1, -21517.43, -0.0088922195, 0.24499053, -1616332.5, -1748.8495, 0.0008289551, 9.999486, 10.000178 
1.349945e+2, 1.4524888e+2, -1530701.3, -1442456.1, -54786.14, 0.054057494, 0.2526289, -1416234.4, 100345.28, 0.0003411424, 9.99951, 10.000734 
1.349924e+2, 1.552479e+2, -1527658.5, -1422923.3, -9942.241, -0.11918481, 0.06345102, -1421987.8, -3401.5488, 0.00008049032, 9.999007, 10.000437 
1.3499337e+2, 1.6524802e+2, -1418001.1, -1344107.9, 73498.87, -0.09986883, 0.050147377, -1298791.9, 21790.932, 0.0000062176173, 9.999206, 10.00021 
1.3499732e+2, 1.7524868e+2, -1196315.4, -1192426.6, 87143.41, 0.10917101, 0.06609884, -1107206.0, 115368.766, 0.000000017143847, 10.000083, 10.0001545 
1.3499832e+2, 1.8524922e+2, -1148889.1, -1140408.6, 1903.8796, 0.112041056, 0.118642785, -1140000.8, -15430.547, 0.0, 9.999806, 9.999971 
1.3499655e+2, 1.9524957e+2, -1242870.5, -1138916.8, -3547.193, -0.07891491, 0.12285556, -1138795.9, -112226.31, 0.0, 9.998514, 9.999928 
1.349973e+2, 2.0524953e+2, -1109336.0, -1029480.7, 58492.125, -0.123573355, 0.13343881, -998587.8, -70018.7, 0.0, 9.998791, 9.999878 
1.3500027e+2, 2.1524885e+2, -775217.9, -823084.8, 85202.95, -0.049417205, 0.047729746, -710650.75, 119920.53, 0.0, 10.000434, 9.999829 
1.3500121e+2, 2.2524834e+2, -671233.4, -816682.5, 8523.574, -0.06783265, 0.061406173, -670735.56, 61839.574, 0.0, 10.000878, 9.998981 
1.3500024e+2, 2.352478e+2, -678221.3, -770475.8, 28189.992, -0.18055159, 0.07599964, -670289.4, -35707.13, 0.0, 10.000167, 9.998966 
1.3500053e+2, 2.4524742e+2, -607892.44, -590406.6, 39381.156, -0.19807687, 0.10199587, -558809.56, -22223.748, 0.0, 9.999572, 9.999818 
1.3500205e+2, 2.5524703e+2, -598914.2, -547009.1, 40444.844, -0.12966381, 0.049849603, -524906.25, -86318.27, 0.0, 9.998996, 9.999728 
1.3500343e+2, 2.65247e+2, -525293.1, -502853.22, 24333.324, -0.06343186, 0.09799889, -487277.7, -146689.14, 0.0, 9.999041, 9.999324 
1.350048e+2, 2.7524698e+2, -366381.53, -384220.75, 49269.32, -0.00012381449, 0.13573642, -325230.94, -82640.984, 0.000000046518082, 9.99949, 9.999251 
1.3500561e+2, 2.8524673e+2, -265318.78, -356754.03, 19136.35, 0.026719626, 0.22247693, -261475.31, -116883.03, 0.0000029362805, 9.999811, 9.998616 
1.3500586e+2, 2.9524618e+2, -179079.8, -272134.47, 18647.484, 0.018441323, 0.2673488, -175482.06, -128886.03, 0.000019015239, 9.9997425, 9.998565 
1.350057e+2, 3.0524147e+2, -66787.484, -184133.06, -36338.348, 0.0069683916, -0.06039456, -56445.99, -56445.99, 0.000075927965, 10.000159, 9.998647 
1.3500491e+2, 3.1524077e+2, 34401.098, -94409.99, -42872.363, -0.0341909, -0.02200487, 47365.535, 47365.535, 0.0002226974, 10.000605, 9.99905 
1.4499408e+2, 1.252456e+2, -1793588.8, -1775300.0, 20087.941, 0.075815104, -0.04345772, -1762373.0, -49769.65, 0.0014659849, 9.999477, 9.999815 
1.4499308e+2, 1.3524818e+2, -1863027.4, -1719726.0, 36552.1, 0.007246175, 0.18031809, -1710941.1, -96357.46, 0.0008466132, 9.998217, 10.000131 
1.449937e+2, 1.4524867e+2, -1703068.4, -1498011.5, 87594.51, 0.09532856, 0.17127983, -1465688.6, 50890.848, 0.00035647568, 9.998205, 10.000985 
1.4499228e+2, 1.5524851e+2, -1446193.6, -1353232.8, 65072.965, -0.044117983, 0.035928503, -1319744.9, 98832.375, 0.00008921642, 9.999433, 10.000713 
1.4499304e+2, 1.6524893e+2, -1365907.6, -1313195.1, 147467.1, -0.06125515, 0.03694445, -1189747.5, 130823.18, 0.000008328298, 9.99954, 10.000254 
1.4499603e+2, 1.7524959e+2, -1409198.6, -1293358.9, 134303.39, 0.053473752, 0.045072928, -1205018.3, 17545.264, 0.0000000715251, 9.998609, 10.000171 
1.4499736e+2, 1.8524994e+2, -1292042.1, -1248715.4, 85217.086, 0.083897576, 0.09754766, -1182451.3, -57889.406, 0.0, 9.9990015, 9.999625 
1.44997e+2, 1.952499e+2, -970504.9, -1050558.0, 63398.87, 0.02176551, 0.10093213, -935554.5, 91011.86, 0.0, 10.000559, 9.999568 
1.4499804e+2, 2.052497e+2, -834298.6, -904243.3, 143378.34, -0.017834121, 0.11895624, -721689.06, 206879.36, 0.0, 10.000715, 9.999802 
1.4500032e+2, 2.1524923e+2, -910635.94, -897292.56, 105614.55, -0.034688897, 0.059109416, -798139.2, 32430.76, 0.0, 9.99955, 9.999739 
1.4500105e+2, 2.252491e+2, -867086.25, -872331.7, 33575.734, -0.088108495, 0.098147266, -836030.94, -103461.15, 0.0, 9.99938, 9.999321 
1.4500038e+2, 2.352491e+2, -662275.9, -730257.5, 32948.254, -0.17245246, 0.13651116, -648927.9, -14358.086, 0.0, 10.000139, 9.999262 
1.4500067e+2, 2.4524847e+2, -531346.4, -623308.8, 45290.453, -0.17478675, 0.15619607, -512786.94, 23788.717, 0.0, 10.000391, 9.999205 
1.4500187e+2, 2.5524715e+2, -468100.13, -548173.9, -2651.4475, -0.0956369, 0.071265556, -468012.44, -29424.059, 0.0, 10.000175, 9.999151 
1.4500326e+2, 2.652465e+2, -376537.3, -436440.13, 7853.291, -0.029505389, 0.093971446, -375524.88, -34930.434, 0.0, 10.000075, 9.999288 
1.4500484e+2, 2.752464e+2, -278411.38, -349750.44, -19218.29, 0.031990156, 0.12394654, -273563.53, -30967.398, 0.00000002138944, 10.000111, 9.999204 
1.4500576e+2, 2.852464e+2, -202597.98, -328999.53, -25388.637, 0.048485126, 0.23682296, -197689.14, -53093.2, 0.0000023054517, 10.000244, 9.998602 
1.4500612e+2, 2.9524645e+2, -66543.164, -211455.08, -28469.54, 0.04128168, 0.34206483, -61150.68, -14556.61, 0.000016570593, 10.000493, 9.998611 
1.4500639e+2, 3.0524063e+2, 24753.53, -144746.0, -13578.425, 0.04115189, -0.094655395, 25834.389, 25834.389, 0.0000664134, 10.00083, 9.99858 
1.4500652e+2, 3.1524098e+2, 68201.71, -124320.164, -68235.51, 0.059343234, 0.055472065, 89933.37, 89933.37, 0.0001967113, 10.001051, 9.998621 
1.5499382e+2, 1.2524977e+2, -1662351.4, -1533136.6, -59968.734, 0.025848499, 0.34452197, -1509594.4, 202976.94, 0.0014879738, 9.999588, 10.001437 
1.549903e+2, 1.3524935e+2, -1773304.0, -1537494.9, -3414.8164, -0.12765512, 0.13794003, -1537445.5, 77124.484, 0.0008684092, 9.998226, 10.001386 
1.5499161e+2, 1.4524943e+2, -1722674.8, -1525746.9, 116859.62, 0.028898409, 0.036087535, -1471399.4, 45166.785, 0.00037251608, 9.998157, 10.000815 
1.5499315e+2, 1.5525155e+2, -1462466.6, -1374755.3, 123948.25, 0.063738056, 0.14591362, -1287132.9, 131411.95, 0.00009664872, 9.999393, 10.000576 
1.5499365e+2, 1.6525242e+2, -1370817.3, -1312778.9, 98947.71, 0.012659138, 0.19457327, -1238682.8, 81852.51, 0.000009881803, 9.999488, 10.000291 
1.549933e+2, 1.7525183e+2, -1415300.1, -1290587.8, 115506.25, -0.11210043, 0.07742455, -1221680.9, 858.65704, 0.00000020107916, 9.998542, 10.000226 
1.5499498e+2, 1.852518e+2, -1319662.0, -1289535.0, 131368.83, -0.08286833, 0.101123735, -1172368.9, -47826.855, 0.0, 9.998927, 9.999383 
1.5499839e+2, 1.9525208e+2, -1001307.75, -1093473.9, 135824.42, 0.075601034, 0.16257487, -903961.6, 122582.83, 0.0, 10.000479, 9.999309 
1.5499955e+2, 2.0525181e+2, -887852.4, -993663.1, 88456.84, 0.03167626, 0.21485399, -837686.94, 90862.336, 0.0, 10.000613, 9.999244 
1.5499856e+2, 2.152509e+2, -966746.25, -981652.25, 76263.63, -0.19698602, 0.16709296, -897572.3, -67014.49, 0.0, 9.999412, 9.999228 
1.5499935e+2, 2.2525041e+2, -857315.7, -829171.75, 50189.207, -0.22669534, 0.17699008, -791119.06, -58558.258, 0.0, 9.999273, 9.999672 
1.5500174e+2, 2.3525012e+2, -656534.2, -695231.0, 75230.81, -0.08089956, 0.15074515, -598203.5, 36357.18, 0.0, 10.000029, 9.999559 
1.5500273e+2, 2.4524936e+2, -606013.8, -758471.75, 23843.205, -0.036479656, 0.18490958, -602371.9, -65803.65, 0.0, 10.000305, 9.998316 
1.5500256e+2, 2.5524786e+2, -548661.9, -688678.0, 4591.564, -0.07591634, 0.17297375, -548511.44, -109925.94, 0.0, 10.000052, 9.99825 
1.5500318e+2, 2.65246e+2, -413373.78, -496242.53, -2769.12, -0.074676216, 0.13271384, -413281.34, -72678.09, 0.0, 10.00001, 9.998904 
1.5500449e+2, 2.7524355e+2, -326116.97, -421652.53, -1346.0472, -0.04262935, -0.02972051, -326098.0, -83474.28, 0.000000019825112, 9.999992, 9.998766 
1.5500535e+2, 2.8524306e+2, -181137.4, -277126.6, -27147.033, -0.048446685, 0.04039677, -173991.8, -29365.367, 0.0000019865888, 10.000209, 9.998977 
1.5500598e+2, 2.9524437e+2, -47506.23, -152701.97, -3299.2688, -0.063392915, 0.23124151, -47402.855, -789.96106, 0.000014949104, 10.000401, 9.999066 
1.5500726e+2, 3.0523992e+2, 25750.217, -122305.71, -12315.665, 0.01597957, -0.10201189, 26767.672, 26767.672, 0.000059797247, 10.000763, 9.998749 
1.5500861e+2, 3.1524336e+2, 29213.596, -168781.1, -36473.746, 0.100909546, 0.34390524, 35718.9, 35718.9, 0.00017773658, 10.000912, 9.998368 
1.6499232e+2, 1.2525056e+2, -1863833.9, -1589039.6, 20440.217, 0.0092102, 0.33380824, -1587527.5, 125035.39, 0.0014964563, 9.998027, 10.001796 
1.6498923e+2, 1.3525054e+2, -1649245.9, -1465159.6, -61774.33, -0.08520873, 0.14741236, -1446351.5, 168203.69, 0.0008776996, 9.999006, 10.001511 
1.6499105e+2, 1.4525019e+2, -1565437.9, -1480239.1, 75716.38, 0.107468665, 0.012702056, -1435961.1, 80594.5, 0.00037921302, 9.999392, 10.000521 
1.6499293e+2, 1.5525207e+2, -1466843.8, -1411652.6, 38598.93, 0.106725, 0.13087557, -1391799.3, 26739.18, 0.00009882513, 9.999515, 10.000265 
1.6499332e+2, 1.6525297e+2, -1342560.8, -1282675.8, 1176.4784, 0.03318727, 0.19135554, -1282652.6, 37877.113, 0.000009884257, 9.999606, 10.000435 
1.6499238e+2, 1.7525274e+2, -1243501.9, -1189904.1, -1254.5321, -0.10645353, 0.08980321, -1189874.8, 32655.938, 0.0000002904704, 9.999636, 10.000387 
1.6499408e+2, 1.8525288e+2, -1217006.1, -1228730.8, 103663.15, -0.09128567, 0.11717622, -1119039.6, 5491.817, 0.0, 9.999598, 9.999456 
1.6499817e+2, 1.952532e+2, -1134405.1, -1146954.8, 105565.01, 0.06224017, 0.17066129, -1034928.6, -8395.1045, 0.0, 9.999524, 9.999383 
1.6499963e+2, 2.0525302e+2, -1025018.06, -1050922.1, 79532.88, 0.03490741, 0.22584915, -957389.5, -28852.258, 0.0, 9.999654, 9.9993105 
1.649986e+2, 2.1525231e+2, -878386.44, -931865.0, 87990.81, -0.15242025, 0.19303484, -813161.75, 17381.957, 0.0, 9.9999895, 9.999293 
1.6499959e+2, 2.2525154e+2, -727394.4, -778762.4, 122137.375, -0.16873126, 0.17962271, -628269.7, 104279.22, 0.0, 10.000222, 9.999558 
1.650023e+2, 2.3525071e+2, -619809.56, -686496.3, 85190.0, -0.03354432, 0.109766565, -561670.06, 72883.52, 0.0, 10.000333, 9.999468 
1.6500343e+2, 2.4524972e+2, -606233.7, -801363.9, 48711.684, 0.002328268, 0.14890178, -594749.4, -58185.797, 0.0, 10.000495, 9.997928 
1.6500324e+2, 2.5524846e+2, -473148.06, -689216.5, 38067.953, -0.039077677, 0.19760756, -466637.25, -28057.494, 0.0, 10.000742, 9.997905 
1.6500375e+2, 2.6524624e+2, -311401.88, -488374.88, 79298.78, -0.05301758, 0.15733358, -281068.53, 59532.57, 0.0, 10.000865, 9.998552 
1.6500492e+2, 2.752429e+2, -211395.53, -396433.38, 57286.684, -0.032967664, -0.06824949, -195095.72, 47534.3, 0.000000024295247, 10.00091, 9.998486 
1.6500573e+2, 2.8524196e+2, -143461.61, -269621.34, 40118.066, -0.0388984, -0.022469968, -131785.0, 12852.155, 0.0000019697127, 10.000529, 9.998871 
1.6500647e+2, 2.9524338e+2, -117889.71, -186783.23, -913.6193, -0.020179024, 0.19271152, -117877.59, -71254.375, 0.000013995548, 9.999922, 9.999066 
1.6500802e+2, 3.0523968e+2, -54844.26, -172454.48, 24992.998, 0.056753714, -0.06617667, -49753.434, -49753.434, 0.000055183133, 10.000212, 9.998693 
1.6500963e+2, 3.1524274e+2, 65205.29, -145064.73, -83982.9, 0.117641084, 0.3508557, 94630.664, 94630.664, 0.00016346599, 10.001088, 9.998463 
1.7498861e+2, 1.2524806e+2, -1928552.0, -1720642.6, 27561.828, -0.23400111, -0.075263314, -1717051.0, -4473.869, 0.0014785845, 9.998015, 10.000892 
1.7498933e+2, 1.3525191e+2, -1723769.3, -1606640.5, -17621.645, -0.0068624234, 0.21681523, -1604046.9, 10491.137, 0.00086354057, 9.998969, 10.000543 
1.7499171e+2, 1.4525107e+2, -1604369.0, -1561327.3, 65179.664, 0.19570327, 0.11051621, -1514207.5, 2339.2659, 0.00037008742, 9.999374, 9.999982 
1.7499122e+2, 1.5525015e+2, -1500548.8, -1478327.3, 58265.348, -0.051759772, -0.0046870606, -1430122.8, -11564.681, 0.000094032526, 9.999499, 9.999816 
1.749916e+2, 1.6525075e+2, -1324204.3, -1241675.1, -11370.397, -0.13310528, 0.03269762, -1240137.3, 80415.73, 0.000008393363, 9.999581, 10.000735 
1.7499278e+2, 1.7525238e+2, -1228600.9, -1150767.1, 13011.878, -0.061339255, 0.09026054, -1148649.5, 73886.8, 0.00000020811186, 9.9996, 10.000672 
1.7499425e+2, 1.8525326e+2, -1194174.3, -1172695.9, 89262.86, -0.06616177, 0.15760583, -1093528.5, 31000.727, 0.0, 9.999548, 9.999872 
1.7499588e+2, 1.9525331e+2, -1116069.8, -1087706.3, 115861.734, -0.15173908, 0.14127271, -985161.56, 41370.97, 0.0, 9.999432, 9.999836 
1.7499784e+2, 2.052534e+2, -994867.8, -965256.3, 76737.52, -0.13631831, 0.16642255, -901909.3, 26622.225, 0.0, 9.999547, 9.99995 
1.750001e+2, 2.1525334e+2, -856312.94, -857483.25, 113819.305, -0.028408075, 0.13413383, -743077.25, 87451.31, 0.0, 9.9998665, 9.999863 
1.7500138e+2, 2.2525251e+2, -780852.9, -864735.5, 113791.82, -0.03676129, 0.11108731, -701519.06, 31015.14, 0.0, 10.000112, 9.999021 
1.7500167e+2, 2.3525074e+2, -674379.2, -772687.1, 102888.695, -0.15954344, 0.0025589846, -609506.0, 25043.48, 0.0, 10.000211, 9.998935 
1.7500237e+2, 2.452496e+2, -614440.5, -799745.0, 46064.992, -0.18094541, 0.048077878, -603620.9, -67059.37, 0.0, 10.000416, 9.997973 
1.7500354e+2, 2.5524887e+2, -491409.1, -698054.3, 59998.87, -0.11266509, 0.14645766, -475251.9, -36680.094, 0.0, 10.000617, 9.997905 
1.7500475e+2, 2.6524726e+2, -327172.25, -517949.03, 66843.336, -0.07056651, 0.17292774, -306083.25, 34505.32, 0.0, 10.000844, 9.998361 
1.7500581e+2, 2.752444e+2, -237028.27, -431918.4, 70161.05, -0.068791896, 0.017838707, -214397.88, 28216.924, 0.000000035492793, 10.000825, 9.998287 
1.7500639e+2, 2.8524312e+2, -185539.7, -353591.97, 2883.3794, -0.05645016, 0.066201344, -185490.23, -40862.984, 0.0000021240596, 10.000518, 9.998293 
1.7500693e+2, 2.9524347e+2, -171118.61, -271136.38, -5127.7744, -0.001248668, 0.23013039, -170856.4, -124231.24, 0.000013429294, 9.999823, 9.998525 
1.7500837e+2, 3.052398e+2, -66749.61, -197835.53, 51785.5, 0.042285755, 0.007239937, -48760.434, -48760.434, 0.000050919698, 10.000212, 9.998524 
1.7500873e+2, 3.1523946e+2, 83187.49, -76078.01, -27074.63, -0.14877146, 0.111678936, 87664.26, 87664.26, 0.00014908816, 10.0009775, 9.9989805 
1.8498747e+2, 1.2524787e+2, -1801919.3, -1737590.9, 40269.793, -0.19871418, -0.17092584, -1718216.8, -5643.2314, 0.0014297328, 9.999213, 10.000198 
1.8498899e+2, 1.3525163e+2, -1568819.3, -1588214.5, -36938.695, 0.007173072, 0.1665481, -1540326.4, 74212.04, 0.00082590414, 10.000274, 10.000037 
1.8499164e+2, 1.4525056e+2, -1499591.1, -1507725.9, 70159.27, 0.22384928, 0.05830839, -1433381.5, 83169.695, 0.00034715154, 10.000076, 10.000004 
1.8499064e+2, 1.5525007e+2, -1570023.8, -1505854.9, 76119.414, -0.025210492, -0.01939416, -1455334.4, -36776.13, 0.0000844504, 9.998987, 9.999873 
1.8499082e+2, 1.6525093e+2, -1449294.8, -1300465.5, 67944.12, -0.118449174, 0.040424854, -1274113.4, 46437.48, 0.000006352812, 9.99875, 10.000716 
1.8499224e+2, 1.7525257e+2, -1265697.0, -1172102.4, 43352.754, -0.057569433, 0.100779064, -1155107.5, 67427.35, 0.000000056960435, 9.999374, 10.000628 
1.8499394e+2, 1.8525338e+2, -1197495.5, -1171266.8, 97464.93, -0.042435423, 0.16184627, -1086037.9, 38490.477, 0.0, 9.999526, 9.999889 
1.8499576e+2, 1.9525339e+2, -1151130.3, -1101137.4, 66969.88, -0.08763666, 0.14048351, -1054651.0, -28119.875, 0.0, 9.999183, 9.9998665 
1.849978e+2, 2.0525336e+2, -1022179.25, -972126.56, 39918.72, -0.07540965, 0.1470764, -950037.94, -21507.113, 0.0, 9.999315, 10.000017 
1.8500008e+2, 2.1525311e+2, -852568.3, -848669.56, 9592.396, -0.011326991, 0.08999414, -840830.5, -10301.281, 0.0, 9.999846, 9.999934 
1.850016e+2, 2.2525235e+2, -779252.56, -898370.8, 14681.959, -0.028814323, 0.08689455, -777469.6, -44934.598, 0.0, 10.000274, 9.9987135 
1.8500242e+2, 2.3525093e+2, -639647.94, -788744.75, -4726.302, -0.11747411, 0.04209695, -639498.25, -4948.785, 0.0, 10.00059, 9.998643 
1.850033e+2, 2.4524967e+2, -534750.94, -715934.1, -16111.256, -0.14132863, 0.07175436, -533329.44, 3232.7566, 0.0, 10.000758, 9.998387 
1.8500434e+2, 2.552485e+2, -439030.75, -624561.44, 2321.6443, -0.094446905, 0.08014166, -439001.7, -427.24908, 0.0, 10.00076, 9.998341 
1.850056e+2, 2.652473e+2, -367378.63, -520428.16, 48992.85, -0.045907684, 0.12148305, -353039.0, -12452.442, 0.0, 10.000513, 9.998501 
1.8500696e+2, 2.752457e+2, -323584.5, -456339.78, 50500.887, 0.00445443, 0.082393765, -306557.5, -63955.844, 0.000000044067633, 10.000167, 9.998441 
1.8500742e+2, 2.852444e+2, -173252.6, -383851.9, 49003.008, -0.0096594645, 0.13654375, -162408.75, -17793.16, 0.000002141611, 10.000727, 9.997998 
1.8500745e+2, 2.9524362e+2, 132263.1, -162285.53, 29319.127, -0.032571968, 0.2183336, 135153.14, 181779.13, 0.000012353572, 10.002034, 9.998223 
1.8500948e+2, 3.0524048e+2, 159885.4, -115641.98, 103037.05, 0.057988152, 0.07136665, 194155.05, 194155.05, 0.00004451732, 10.00189, 9.998275 
1.850097e+2, 3.15239e+2, 46923.867, -51241.24, -28456.18, -0.1107159, 0.095170245, 54576.234, 54576.234, 0.00012893318, 10.000496, 9.999409 
1.9498815e+2, 1.252501e+2, -1847735.5, -1813180.3, 48549.813, -0.12542985, 0.06448976, -1778925.4, -66373.98, 0.0013506947, 9.999146, 9.999708 
1.949878e+2, 1.352498e+2, -1583199.0, -1600610.4, 6628.2607, -0.16911057, 0.00392566, -1580963.0, 33593.188, 0.00077082973, 10.000225, 9.999968 
1.9499035e+2, 1.452487e+2, -1457181.5, -1414161.8, 12141.178, 0.048084103, -0.13498043, -1410971.8, 105596.56, 0.0003170448, 10.000041, 10.000669 
1.9499078e+2, 1.5525202e+2, -1529137.4, -1415458.6, 48263.52, 0.05657306, 0.10218177, -1397732.0, 20805.027, 0.000073711046, 9.998963, 10.000505 
1.9499065e+2, 1.6525373e+2, -1479498.4, -1357458.3, 80576.42, -0.042317607, 0.23333803, -1317404.0, 3117.5806, 0.0000047225935, 9.998711, 10.000353 
1.9499035e+2, 1.752534e+2, -1296317.1, -1226253.4, 81352.82, -0.21576655, 0.1311487, -1172710.4, 49815.24, 0.0000000036456946, 9.99933, 10.000283 
1.9499278e+2, 1.8525325e+2, -1235636.9, -1235753.1, 71452.39, -0.14151193, 0.13606142, -1164242.5, -39714.01, 0.0, 9.9994545, 9.999488 
1.9499744e+2, 1.952533e+2, -1192948.4, -1169753.6, 67778.01, 0.13545893, 0.15952326, -1112588.0, -86057.414, 0.0, 9.9991, 9.99944 
1.9499911e+2, 2.0525284e+2, -1074584.4, -1048531.06, 49860.36, 0.098433696, 0.16886976, -1010023.75, -81488.41, 0.0, 9.999182, 9.999553 
1.9499807e+2, 2.1525164e+2, -902330.6, -921702.56, 42089.887, -0.22458233, 0.060884252, -868826.6, -38281.16, 0.0, 9.999716, 9.999495 
1.9499981e+2, 2.2525115e+2, -809021.3, -927422.56, 12700.227, -0.25751615, 0.114727534, -807674.4, -75123.26, 0.0, 10.000139, 9.998577 
1.9500412e+2, 2.3525122e+2, -667627.3, -811949.8, 19638.281, -0.032095302, 0.23267479, -665002.9, -30448.945, 0.0, 10.000445, 9.998551 
1.9500585e+2, 2.4524996e+2, -492650.75, -601796.5, -28496.484, 0.011777501, 0.2222217, -485658.63, 50907.055, 0.0, 10.0006485, 9.999223 
1.9500518e+2, 2.5524735e+2, -402069.16, -513088.03, 14247.111, -0.1161435, 0.0043498985, -400270.0, 38317.086, 0.0, 10.000617, 9.999172 
1.9500595e+2, 2.6524648e+2, -341014.25, -459323.3, 22680.557, -0.09212177, 0.016399622, -336815.28, 3778.3687, 0.0, 10.000478, 9.998946 
1.9500798e+2, 2.7524677e+2, -305420.5, -406693.34, 55697.336, 0.05919038, 0.12201576, -280782.47, -38191.566, 0.000000036761158, 10.000104, 9.998822 
1.9500843e+2, 2.852457e+2, -182258.55, -392669.94, 87845.875, -0.011575683, 0.18306285, -150405.36, -5801.743, 0.0000018181237, 10.000688, 9.997956 
1.9500773e+2, 2.9524392e+2, 111432.06, -176069.1, 92045.47, -0.24561696, 0.171419, 138375.94, 185000.72, 0.000010151812, 10.001918, 9.998181 
1.9501092e+2, 3.0524176e+2, 135511.34, -160537.44, 40844.484, -0.019990709, 0.14030719, 141043.11, 141043.11, 0.00003534469, 10.001872, 9.997968 
1.9501175e+2, 3.1524172e+2, 73951.914, 35691.508, -29307.41, -0.019572595, 0.32921377, 89820.125, 89820.125, 0.000103030594, 10.000389, 10.00004 
2.0498851e+2, 1.2525037e+2, -1911727.5, -1850701.1, 114769.36, 0.032623097, 0.104591966, -1762458.0, -49909.14, 0.0012481128, 9.998746, 9.999648 
2.0498717e+2, 1.3524993e+2, -1773061.1, -1661996.9, 35892.566, -0.16895983, 0.0014410756, -1651407.3, -36852.72, 0.0007037624, 9.998768, 10.000271 
2.0498964e+2, 1.4524902e+2, -1614667.5, -1500144.5, 37140.5, 0.032261077, -0.12651339, -1489154.3, 27410.307, 0.00028324383, 9.999015, 10.000573 
2.0499049e+2, 1.5525226e+2, -1415331.5, -1375253.6, -20744.564, 0.09701962, 0.11417102, -1366450.0, 52084.402, 0.000063005726, 9.999808, 10.000378 
2.0499054e+2, 1.6525353e+2, -1299679.3, -1312351.5, 23641.95, 0.012069709, 0.22949143, -1281539.1, 38983.676, 0.0000035155435, 10.000125, 9.999984 
2.0499016e+2, 1.7525251e+2, -1235127.9, -1239004.5, -5297.306, -0.1897756, 0.09929559, -1231425.5, -8892.297, 0.0000000004928599, 9.999928, 9.999911 
2.0499264e+2, 1.8525213e+2, -1129278.1, -1167182.9, 27826.55, -0.12811646, 0.089127444, -1114562.9, 9974.741, 0.0, 10.00011, 9.9996395 
2.0499747e+2, 1.9525233e+2, -957838.25, -1042752.75, 39145.566, 0.15798749, 0.11297534, -942546.1, 83990.734, 0.0, 10.000647, 9.999563 
2.0499937e+2, 2.0525195e+2, -868731.56, -988800.75, 73822.12, 0.13253379, 0.1427733, -833614.4, 94927.05, 0.0, 10.000767, 9.999201 
2.0499867e+2, 2.1525083e+2, -822490.9, -921404.44, 50781.414, -0.16477366, 0.07978433, -801062.4, 29490.87, 0.0, 10.000435, 9.999153 
2.050007e+2, 2.2525036e+2, -757648.1, -873828.75, 70670.83, -0.18823029, 0.13821219, -724257.0, 8302.468, 0.0, 10.000355, 9.998842 
2.050052e+2, 2.3525035e+2, -645985.0, -775769.06, 81151.27, 0.038936306, 0.22060809, -606970.8, 27591.322, 0.0, 10.000466, 9.998795 
2.0500687e+2, 2.4524947e+2, -516121.28, -590153.6, 33549.508, 0.070232056, 0.22490391, -503179.8, 33390.813, 0.0, 10.000387, 9.999425 
2.0500593e+2, 2.5524765e+2, -449010.47, -513621.75, 3405.1707, -0.07144411, 0.066819124, -448831.5, -10245.683, 0.0, 10.0002, 9.999368 
2.0500684e+2, 2.6524687e+2, -314933.53, -413866.72, 19475.38, -0.045665897, 0.061028577, -311237.78, 29353.709, 0.0, 10.000522, 9.999228 
2.0500927e+2, 2.7524656e+2, -112848.33, -281068.66, 10936.005, 0.12520151, 0.07746522, -112140.36, 130452.29, 0.00000002096579, 10.001297, 9.999097 
2.0500991e+2, 2.8524548e+2, -64914.36, -351041.66, 79028.734, 0.031384084, 0.13547023, -44537.656, 100066.94, 0.0000012828043, 10.001578, 9.9978075 
2.0500919e+2, 2.9524437e+2, 42066.54, -219864.81, 50558.414, -0.2595594, 0.2001602, 51486.625, 98106.586, 0.000007381431, 10.0015, 9.998075 
2.0501299e+2, 3.0524188e+2, 86822.11, -197019.16, -14538.85, 0.025884364, 0.14962527, 87564.875, 87564.875, 0.00002618385, 10.001591, 9.997868 
2.0501323e+2, 3.1524116e+2, 272257.66, 132606.97, -97987.44, 0.03367003, 0.27580622, 322753.2, 322753.2, 0.000078949044, 10.001776, 10.000034 
2.1498759e+2, 1.2524861e+2, -1893646.3, -1800117.0, 91430.39, -0.0010738746, -0.050726034, -1744185.8, -31618.94, 0.0011286415, 9.998684, 10.000027 
2.1498676e+2, 1.3525213e+2, -1714439.8, -1549437.9, 48963.445, -0.1206305, 0.16351146, -1536002.3, 78530.28, 0.00062779407, 9.9988, 10.001029 
2.1498905e+2, 1.4525172e+2, -1687876.3, -1646440.1, 50830.543, 0.032341957, 0.09727567, -1612267.6, -95729.57, 0.00024660726, 9.998988, 9.99958 
2.1498936e+2, 1.5525089e+2, -1480438.0, -1514675.4, 22922.447, -0.032745592, 0.025009511, -1468947.4, -50398.395, 0.000052325075, 9.999821, 9.9994135 
2.1499003e+2, 1.6525042e+2, -1338098.6, -1379964.3, 3452.0732, -0.08023855, 0.03742112, -1337815.9, -17261.736, 0.000002586899, 10.000071, 9.999545 
2.1499127e+2, 1.7524993e+2, -1271548.9, -1298932.8, 1521.4913, -0.100740455, 0.00075674354, -1271464.6, -48906.96, 0.000000000052014764, 9.9998665, 9.999525 
2.1499309e+2, 1.8525001e+2, -1096467.9, -1079545.4, 37203.7, -0.12022912, 0.021388689, -1049852.9, 74702.984, 0.0, 10.000019, 10.000287 
2.1499543e+2, 1.9525044e+2, -918150.56, -948080.9, 73375.64, -0.1442467, -0.00004890528, -858229.5, 168321.05, 0.0, 10.000588, 10.000242 
2.149982e+2, 2.0525071e+2, -900575.2, -1030574.1, 48335.76, -0.088068716, 0.07317756, -884572.94, 43976.19, 0.0, 10.000662, 9.998963 
2.1500146e+2, 2.1525066e+2, -855652.0, -960714.9, 49851.543, 0.0431654, 0.13949308, -835762.94, -5209.6733, 0.0, 10.000306, 9.998943 
2.1500382e+2, 2.2524989e+2, -734122.0, -787554.75, 62779.152, 0.06330815, 0.144894, -692610.94, 39950.133, 0.0, 10.000201, 9.999503 
2.1500526e+2, 2.3524836e+2, -625386.75, -692857.7, 99652.125, -0.0288491, 0.0070423875, -553914.7, 80659.09, 0.0, 10.0003, 9.999438 
2.1500604e+2, 2.4524827e+2, -559135.6, -663251.5, 13601.046, -0.079399556, 0.08541258, -557388.2, -20812.033, 0.0, 10.000315, 9.998961 
2.150063e+2, 2.5524944e+2, -497581.53, -585831.6, 10589.84, -0.08698807, 0.272298, -496328.56, -57758.38, 0.0, 10.000078, 9.998932 
2.1500786e+2, 2.6524842e+2, -318216.78, -404746.72, 35450.313, -0.025098799, 0.26059967, -305548.0, 35031.652, 0.0, 10.000455, 9.999317 
2.1501036e+2, 2.7524498e+2, -126241.55, -281190.56, 53151.066, 0.07382448, -0.046503592, -109762.16, 132845.34, 0.00000000626477, 10.001178, 9.999151 
2.1501143e+2, 2.8524375e+2, -76329.53, -369335.2, 62094.14, -0.0055643213, -0.0044597164, -63713.656, 80905.58, 0.00000075455597, 10.001555, 9.997691 
2.1501158e+2, 2.9524493e+2, 17905.383, -255921.53, 60197.78, -0.20462713, 0.3073522, 30554.848, 77166.4, 0.0000049684672, 10.001439, 9.997857 
2.1501546e+2, 3.0524084e+2, 88724.28, -198935.38, -19731.813, 0.086760685, 0.111172035, 90071.46, 90071.46, 0.000019575336, 10.001611, 9.997849 
2.1501361e+2, 3.152372e+2, 197564.58, -4865.1724, -12051.659, -0.1708045, -0.05556562, 198279.55, 198279.55, 0.00006230811, 10.001698, 9.999134 
2.249868e+2, 1.25248e+2, -1907395.4, -1804857.4, 141324.73, 0.071356274, -0.059728056, -1705789.4, 6784.1743, 0.0009987325, 9.998561, 10.000054 
2.2498667e+2, 1.3525172e+2, -1584510.9, -1467469.5, -28792.701, -0.0376432, 0.15473917, -1460769.9, 153767.25, 0.0005469882, 9.999625, 10.001178 
2.249887e+2, 1.4525194e+2, -1605735.5, -1644556.5, -4445.5127, 0.07080869, 0.16097312, -1605233.0, -88696.57, 0.00020906689, 9.999714, 9.999255 
2.249884e+2, 1.5525028e+2, -1608086.9, -1610605.8, -7477.3833, -0.06571111, 0.043214884, -1601763.6, -183208.13, 0.000042237294, 9.999103, 9.999106 
2.2498962e+2, 1.6524935e+2, -1427773.8, -1410390.1, 57090.207, -0.08849701, 0.017026355, -1361333.9, -40769.598, 0.0000020119714, 9.999404, 9.999646 
2.249923e+2, 1.7524868e+2, -1177415.8, -1246901.6, 63371.582, -0.007888344, -0.048620597, -1139888.1, 82679.59, 0.0, 10.000484, 9.999577 
2.2499406e+2, 1.8524869e+2, -1039169.75, -1089210.0, 80550.51, -0.045184255, -0.0192444, -979843.06, 144723.36, 0.0, 10.000571, 9.999954 
2.2499499e+2, 1.9524926e+2, -1080791.0, -1063158.5, 14198.18, -0.19386847, 0.0066486932, -1055262.1, -28700.55, 0.0, 9.999642, 9.999909 
2.2499797e+2, 2.0524952e+2, -1024116.7, -1076277.8, 8486.185, -0.1250286, 0.088673525, -1022770.8, -94210.08, 0.0, 9.999746, 9.999103 
2.2500291e+2, 2.1524926e+2, -788975.06, -913708.7, 15997.886, 0.14470121, 0.12297526, -786955.94, 43610.043, 0.0, 10.000692, 9.999088 
2.2500534e+2, 2.252484e+2, -640385.2, -713960.2, 25839.56, 0.17642349, 0.09814362, -632217.1, 100356.38, 0.0, 10.000715, 9.999765 
2.2500548e+2, 2.3524682e+2, -672010.8, -685431.44, 5992.1807, -0.0064901, -0.06909179, -669724.75, -35139.824, 0.0, 9.999854, 9.999704 
2.2500612e+2, 2.4524696e+2, -629749.4, -707302.6, -28636.28, -0.074279614, 0.021258628, -620321.6, -83735.99, 0.0, 9.999871, 9.998875 
2.2500722e+2, 2.5524846e+2, -406918.44, -557852.94, -30921.947, -0.02790619, 0.25137898, -400829.13, 37749.375, 0.0, 10.000751, 9.998812 
2.2500914e+2, 2.652475e+2, -208881.25, -400750.7, 25621.438, 0.015920758, 0.2732822, -205518.8, 135070.72, 0.0, 10.001418, 9.998881 
2.2501169e+2, 2.75244e+2, -30998.92, -279693.53, -22597.785, 0.055151287, 0.0020907577, -28962.238, 213657.52, 0.00000000006385136, 10.002021, 9.998757 
2.2501332e+2, 2.8524265e+2, 50076.56, -270832.78, -15872.997, 0.0011271496, 0.035458144, 50859.766, 195491.38, 0.00000032397858, 10.002252, 9.998035 
2.2501433e+2, 2.9524362e+2, 132121.92, -171353.5, -12400.444, -0.098074436, 0.29106334, 132627.78, 179250.73, 0.000003287384, 10.002096, 9.998119 
2.2501826e+2, 3.0523923e+2, 162835.78, -147131.52, -25548.566, 0.19693339, 0.045847382, 164927.45, 164927.45, 0.00001601569, 10.002059, 9.997981 
2.2501539e+2, 3.1523633e+2, 223244.83, -64940.43, -4297.1167, -0.17218748, -0.067288786, 223308.89, 223308.89, 0.000054019332, 10.002183, 9.998484 
2.3498549e+2, 1.252484e+2, -1937197.3, -1863153.1, 153928.66, 0.01210458, 0.05965843, -1741856.9, -29286.531, 0.0008678289, 9.998554, 9.99966 
2.3498651e+2, 1.3524851e+2, -1618124.9, -1549106.4, 9734.963, -0.048734415, -0.020625293, -1547759.5, 66810.516, 0.00046623294, 9.999661, 10.00061 
2.3498806e+2, 1.4524946e+2, -1586497.9, -1579146.8, -44095.105, 0.0056646653, 0.057598267, -1538574.3, -22012.293, 0.00017258529, 9.999614, 9.99975 
2.3498724e+2, 1.5525039e+2, -1580189.9, -1546668.0, -12670.262, -0.12589307, 0.15807615, -1542417.9, -123863.38, 0.000033446406, 9.999079, 9.999558 
2.3498888e+2, 1.6525017e+2, -1402863.1, -1339873.6, 83780.945, -0.1352026, 0.15448177, -1281863.3, 38691.426, 0.0000017722703, 9.999328, 10.00017 
2.3499294e+2, 1.7524852e+2, -1146015.1, -1170861.0, 115124.875, -0.026018657, -0.06254319, -1042644.9, 179920.52, 0.0000000001389195, 10.000436, 10.000126 
2.3499517e+2, 1.8524812e+2, -1151749.6, -1296505.8, 32518.494, -0.019097343, -0.033315126, -1144780.1, -20210.104, 0.0, 10.000463, 9.998586 
2.349957e+2, 1.9524868e+2, -1185481.4, -1264231.0, -8041.01, -0.114384204, 0.13381246, -1184668.8, -158098.17, 0.0, 9.999571, 9.998566 
2.349982e+2, 2.0524824e+2, -1006734.94, -1004259.44, 31981.71, -0.09869923, 0.18190756, -973491.5, -44914.406, 0.0, 9.999597, 9.999667 
2.3500258e+2, 2.1524662e+2, -773081.56, -843551.8, 64778.5, 0.014946784, 0.021738976, -734575.44, 96016.195, 0.0, 10.000532, 9.999647 
2.3500495e+2, 2.252459e+2, -675875.4, -749729.0, -16516.719, 0.040716246, -0.0075126067, -672349.9, 60246.832, 0.0, 10.000559, 9.999596 
2.3500551e+2, 2.3524582e+2, -702853.94, -718466.8, -10251.675, -0.018915107, -0.003137343, -697774.8, -63179.746, 0.0, 9.999722, 9.999544 
2.350066e+2, 2.4524546e+2, -621060.0, -672697.9, -8566.189, -0.043403607, 0.029839309, -619676.06, -83076.37, 0.0, 9.999797, 9.999148 
2.3500822e+2, 2.5524464e+2, -408714.3, -529994.5, 14538.934, -0.033322275, 0.00082729146, -406995.75, 31615.855, 0.0, 10.000615, 9.999066 
2.350103e+2, 2.652441e+2, -286082.75, -543877.5, 34992.85, -0.03697704, 0.1040019, -281417.28, 59203.156, 0.0, 10.001348, 9.997934 
2.3501289e+2, 2.7524352e+2, -109740.55, -419215.16, 15493.604, -0.056882035, 0.22066692, -108966.805, 133662.89, 0.0, 10.001913, 9.997855 
2.350151e+2, 2.8524226e+2, 103044.01, -151974.89, -32495.447, -0.0792455, 0.26230416, 107119.56, 251760.81, 0.00000009734078, 10.002214, 9.99887 
2.3501694e+2, 2.952405e+2, 169211.25, -75244.336, -5266.783, -0.086053446, 0.16255271, 169324.66, 215978.44, 0.0000024854203, 10.002006, 9.99883 
2.3502095e+2, 3.05237e+2, 193627.72, -82663.34, -31128.521, 0.22887664, -0.04287377, 197091.4, 197091.4, 0.000014818684, 10.002055, 9.998428 
2.3501773e+2, 3.1523868e+2, 191960.1, -120740.11, 83138.44, -0.22041254, 0.25146767, 212690.08, 212690.08, 0.00005156838, 10.002133, 9.998132 
2.4498478e+2, 1.2524736e+2, -1845610.0, -1809153.6, 146077.17, 0.070254594, 0.13209681, -1680171.8, 32411.738, 0.00074233726, 9.9991665, 9.999736 
2.449864e+2, 1.3524653e+2, -1725305.3, -1633927.1, -35180.594, 0.014210486, -0.007215831, -1621951.9, -7359.4785, 0.00038816038, 9.999081, 10.000314 
2.4498765e+2, 1.4524761e+2, -1604878.1, -1517341.0, -61061.797, 0.034417152, 0.06534262, -1485981.4, 30600.309, 0.00013769997, 9.999175, 10.0003805 
2.4498731e+2, 1.5524872e+2, -1462710.0, -1424880.0, -48501.14, -0.04485898, 0.11785476, -1391736.0, 26833.35, 0.000025817635, 9.999613, 10.000129 
2.449891e+2, 1.6524883e+2, -1365244.5, -1347061.4, 69891.07, -0.057827927, 0.13178696, -1285673.0, 34893.26, 0.0000016011192, 9.999687, 9.999958 
2.4499315e+2, 1.7524774e+2, -1324044.3, -1278072.6, 18652.826, 0.01741048, -0.0068096304, -1271456.5, -48882.68, 0.0000000006420841, 9.999309, 9.999937 
2.4499571e+2, 1.8524717e+2, -1246518.5, -1349485.4, -20357.006, 0.025871463, 0.01813619, -1242639.9, -118059.25, 0.0, 9.99986, 9.998502 
2.4499682e+2, 1.9524685e+2, -958084.75, -1163110.8, 11450.0625, -0.03398148, 0.10464864, -957447.3, 69141.11, 0.0, 10.001186, 9.998469 
2.4499895e+2, 2.0524618e+2, -778814.06, -898212.44, 82221.29, -0.054810148, 0.13850814, -736904.5, 191692.4, 0.0, 10.00118, 9.999628 
2.4500227e+2, 2.1524504e+2, -878242.44, -897342.7, 42328.28, -0.024827898, 0.02871792, -844400.3, -13792.395, 0.0, 9.999831, 9.99961 
2.4500455e+2, 2.2524472e+2, -790002.44, -790158.3, -15187.569, -0.0041679735, 0.034042794, -774892.56, -42283.04, 0.0, 9.99971, 9.999726 
2.4500592e+2, 2.35245e+2, -551863.25, -630077.2, -6602.919, 0.009181898, 0.05855, -551309.75, 83294.6, 0.0, 10.000696, 9.99968 
2.450076e+2, 2.4524432e+2, -437817.34, -617662.94, 25472.098, 0.012984726, 0.069996975, -434279.25, 102332.04, 0.0, 10.001198, 9.998859 
2.450096e+2, 2.5524265e+2, -330822.25, -519306.66, -19414.518, 0.01757176, -0.017967159, -328843.25, 109787.32, 0.0, 10.001278, 9.99882 
2.4501191e+2, 2.6524177e+2, -270004.13, -517173.97, 44893.848, -0.004888669, 0.05381779, -262102.58, 78538.92, 0.0, 10.001361, 9.998117 
2.4501462e+2, 2.752415e+2, -164564.31, -421418.13, 85702.695, -0.04299764, 0.17951483, -138594.27, 104052.26, 0.0, 10.001437, 9.998068 
2.4501717e+2, 2.8524038e+2, -4415.5347, -214658.72, 60568.695, -0.048824314, 0.23514356, 11785.236, 156441.31, 0.00000009803459, 10.001525, 9.998776 
2.4501948e+2, 2.9523847e+2, 112258.305, -110586.8, -10246.215, -0.005760377, 0.1253685, 112728.42, 159399.6, 0.0000023443192, 10.001655, 9.9987545 
2.4502343e+2, 3.0523497e+2, 216506.58, -39401.426, -23355.834, 0.2803471, -0.09047397, 218620.72, 218620.72, 0.000014153015, 10.00208, 9.998711 
2.4502069e+2, 3.1523764e+2, 276528.13, -62944.99, 67572.44, -0.15047142, 0.27297735, 289484.0, 289484.0, 0.00004937861, 10.002672, 9.998254 
2.5498378e+2, 1.2524508e+2, -1813002.1, -1734204.1, 107395.89, -0.010726064, 0.17522475, -1659208.4, 53402.46, 0.00062344765, 9.999137, 10.000266 
2.54986e+2, 1.3524574e+2, -1719117.3, -1616014.5, -28489.549, 0.036506, 0.17881915, -1608665.9, 5939.2227, 0.0003143659, 9.99907, 10.000438 
2.5498724e+2, 1.4524636e+2, -1566336.9, -1426250.9, -62171.605, 0.03694995, 0.16812022, -1402638.5, 113957.734, 0.00010539114, 9.999127, 10.001026 
2.54988e+2, 1.5524518e+2, -1422613.9, -1331813.5, -20330.057, 0.032730218, -0.07897446, -1327469.5, 91131.875, 0.000019009012, 9.999573, 10.000782 
2.549898e+2, 1.652453e+2, -1439398.1, -1481234.4, 42192.426, 0.015706036, -0.050052453, -1413223.1, -92623.86, 0.0000013062046, 9.999604, 9.999077 
2.5499254e+2, 1.7524646e+2, -1390550.0, -1404842.0, 21402.883, -0.0051169577, 0.12567714, -1375131.6, -152539.63, 0.000000000635992, 9.999265, 9.999085 
2.5499526e+2, 1.8524595e+2, -1175086.3, -1183343.1, 18337.563, -0.035967354, 0.13867207, -1160418.1, -35820.84, 0.0, 9.999777, 9.999683 
2.5499782e+2, 1.9524366e+2, -887294.06, -998314.56, 72608.53, -0.08181727, -0.09425595, -851407.44, 175208.7, 0.0, 10.001103, 9.99964 
2.549999e+2, 2.0524327e+2, -853655.6, -1014645.5, 19904.26, -0.102697626, -0.053080052, -851231.25, 77389.99, 0.0, 10.001018, 9.998905 
2.550016e+2, 2.1524443e+2, -946302.25, -1005971.0, 5624.8965, -0.10100833, 0.13897607, -945776.6, -115160.8, 0.0, 9.999696, 9.998927 
2.5500375e+2, 2.252448e+2, -772458.25, -727185.44, 8403.745, -0.08085328, 0.22345693, -725675.8, 6936.855, 0.0, 9.999593, 10.000217 
2.5500628e+2, 2.3524427e+2, -538471.4, -572483.75, 42815.918, -0.050575595, 0.114781275, -509407.9, 125205.734, 0.0, 10.000564, 10.000139 
2.5500873e+2, 2.4524352e+2, -510866.38, -748254.06, 15040.1455, -0.020840934, 0.13783272, -509917.28, 26703.902, 0.0, 10.00111, 9.998003 
2.55011e+2, 2.552423e+2, -407096.56, -648204.7, -5272.517, 0.0022470492, 0.1847578, -406981.34, 31655.654, 0.0, 10.001148, 9.997999 
2.5501356e+2, 2.6524043e+2, -187082.3, -323349.34, 34718.016, -0.0056931465, 0.12391699, -178746.75, 161906.5, 0.0, 10.001277, 9.999486 
2.5501642e+2, 2.7523774e+2, -88145.61, -238147.72, 102302.63, -0.037055295, -0.12425295, -36296.41, 206375.1, 0.0, 10.001329, 9.999382 
2.5501916e+2, 2.852369e+2, -82466.73, -363495.9, 50895.855, -0.031239457, -0.05492286, -73533.2, 71144.34, 0.00000013920514, 10.001473, 9.997775 
2.5502148e+2, 2.952374e+2, 22366.379, -263311.5, 5296.696, -0.0042496743, 0.17638054, 22464.55, 69140.91, 0.0000022917138, 10.001517, 9.997767 
2.5502527e+2, 3.0523288e+2, 223377.23, -20040.06, -9658.596, 0.22860967, -0.100769535, 223759.88, 223759.88, 0.0000129202135, 10.002058, 9.998852 
2.5502342e+2, 3.1523275e+2, 292742.03, -15539.943, 166711.84, -0.21286626, -0.026584117, 365652.34, 365652.34, 0.000045825393, 10.00261, 9.998612 
2.649829e+2, 1.252432e+2, -1719556.3, -1658718.5, 191372.38, -0.018384622, 0.16122302, -1495362.5, 217267.39, 0.00051409315, 9.999605, 10.000564 
2.6498598e+2, 1.3524395e+2, -1775375.0, -1654092.5, 3022.8955, 0.1620218, 0.1716324, -1654017.3, -39394.69, 0.0002486299, 9.998688, 10.000372 
2.649869e+2, 1.4524437e+2, -1649972.0, -1491150.6, 14683.115, 0.12393462, 0.15571356, -1489804.5, 26811.537, 0.00007773356, 9.998668, 10.0008 
2.6498798e+2, 1.5524322e+2, -1385558.4, -1337926.0, -42148.645, 0.06409534, -0.06658464, -1313330.1, 105292.26, 0.000013419433, 9.999919, 10.00058 
2.6499015e+2, 1.6524337e+2, -1286674.6, -1394004.9, 22464.895, 0.050059836, -0.031480685, -1282162.3, 38458.246, 0.0000010267595, 10.000595, 9.999195 
2.649932e+2, 1.7524464e+2, -1176470.3, -1289156.6, 50027.605, 0.070584856, 0.14048949, -1157465.5, 65146.51, 0.0000000012219834, 10.000672, 9.9992 
2.6499596e+2, 1.8524434e+2, -1062266.5, -1102439.8, 89681.625, 0.030922648, 0.15758598, -990449.56, 134165.0, 0.0, 10.000438, 9.999926 
2.6499847e+2, 1.9524242e+2, -1057337.8, -1055395.3, 42029.492, -0.055228267, -0.05926055, -1014325.75, 12303.376, 0.0, 9.9998255, 9.99987 
2.6500046e+2, 2.052419e+2, -1019841.94, -1108081.0, -20169.951, -0.08547765, -0.037969645, -1015450.06, -86815.44, 0.0, 9.999929, 9.998791 
2.65002e+2, 2.1524248e+2, -829174.5, -966909.6, -14667.752, -0.06600831, 0.11044322, -827629.8, 3003.5942, 0.0, 10.000571, 9.998778 
2.6500422e+2, 2.2524261e+2, -618520.44, -702854.56, 26989.158, -0.0526898, 0.20030947, -610622.8, 122010.84, 0.0, 10.000861, 9.999775 
2.6500696e+2, 2.3524219e+2, -531957.06, -620896.4, -40934.62, -0.043128733, 0.14896367, -515985.1, 118651.43, 0.0, 10.000825, 9.999686 
2.6500985e+2, 2.4524136e+2, -525216.56, -738475.75, -48848.69, -0.0043286886, 0.18222198, -514559.9, 22084.488, 0.0, 10.000955, 9.998138 
2.650127e+2, 2.5523996e+2, -377248.25, -616979.44, -16623.838, 0.060936168, 0.1958547, -376100.97, 62557.746, 0.0, 10.001291, 9.998137 
2.650155e+2, 2.6523766e+2, -179167.95, -324879.06, 20892.08, 0.06539546, 0.09167118, -176231.63, 164445.42, 0.0, 10.001348, 9.999446 
2.650183e+2, 2.7523458e+2, -107656.734, -245645.42, -44064.793, 0.03537131, -0.19330046, -94785.79, 147912.94, 0.0, 10.001199, 9.999388 
2.6502106e+2, 2.8523386e+2, -84055.46, -388116.9, -69518.08, 0.014840852, -0.10641064, -68915.3, 75788.984, 0.00000017298198, 10.001557, 9.997565 
2.6502323e+2, 2.9523465e+2, 139486.47, -224198.63, -80792.03, -0.014106295, 0.17457032, 156626.5, 203327.78, 0.000002277503, 10.0023775, 9.997628 
2.650269e+2, 3.0522963e+2, 274621.44, -3838.2214, -59028.664, 0.1804182, -0.14270724, 286617.7, 286617.7, 0.000011809922, 10.002428, 9.998803 
2.6502684e+2, 3.1522945e+2, 121939.33, -75975.17, 85580.19, -0.054032017, -0.0671303, 153812.14, 153812.14, 0.000042458643, 10.0013075, 9.998838 
2.7498165e+2, 1.2524164e+2, -1711579.1, -1643382.5, 101970.77, -0.18087116, 0.07829937, -1569960.0, 142681.14, 0.00042131313, 9.999601, 10.000674 
2.749857e+2, 1.3524131e+2, -1785159.5, -1673895.9, -25837.496, 0.2298646, -0.0072300723, -1668188.6, -53545.59, 0.0001952308, 9.99869, 10.000233 
2.7498612e+2, 1.4524178e+2, -1732615.6, -1654530.4, 41604.363, 0.13698043, 0.04545063, -1636518.3, -119878.38, 0.000056360343, 9.998633, 9.999699 
2.7498692e+2, 1.5524298e+2, -1462577.9, -1489328.3, 19227.52, -0.068570554, 0.16794163, -1452531.0, -33899.566, 0.000009372096, 9.99989, 9.999555 
2.7498984e+2, 1.6524313e+2, -1211509.1, -1228610.8, 12722.806, -0.070845835, 0.19370131, -1204730.8, 115898.61, 0.0000008660051, 10.000553, 10.000348 
2.749946e+2, 1.7524223e+2, -1107849.9, -1134708.4, 64983.723, 0.10682806, 0.03459556, -1054922.4, 167711.72, 0.000000004874734, 10.000627, 10.00028 
2.749974e+2, 1.852423e+2, -1130717.9, -1220064.9, 53468.54, 0.1018296, 0.07635721, -1105716.4, 18916.531, 0.0, 10.000334, 9.9991665 
2.7499837e+2, 1.952431e+2, -1119529.5, -1164961.4, 35596.64, -0.08086142, 0.20644106, -1100018.3, -73390.68, 0.0, 9.999747, 9.999154 
2.7500027e+2, 2.0524213e+2, -1004233.4, -1047785.1, -8441.715, -0.12452464, 0.19373402, -1002654.3, -74018.11, 0.0, 9.999812, 9.99926 
2.7500308e+2, 2.1523921e+2, -821599.5, -912610.4, 22473.215, -0.045385424, -0.0565392, -816352.7, 14307.704, 0.0, 10.000409, 9.999227 
2.7500552e+2, 2.2523814e+2, -745696.0, -928819.3, 13341.149, -0.032963526, -0.033986602, -744729.2, -12056.929, 0.0, 10.000697, 9.998305 
2.7500758e+2, 2.352386e+2, -652638.7, -837145.4, -30078.217, -0.09053777, 0.15004529, -647859.1, -13184.704, 0.0, 10.000674, 9.998277 
2.7501053e+2, 2.4523777e+2, -459908.5, -578987.7, -48110.926, -0.05545009, 0.19363227, -442899.9, 93782.04, 0.0, 10.0008545, 9.99928 
2.7501428e+2, 2.552355e+2, -319211.4, -470751.03, 8943.564, 0.05698065, 0.005242121, -318685.4, 120011.586, 0.0, 10.001174, 9.999201 
2.7501735e+2, 2.6523352e+2, -291312.47, -537848.4, -660.0449, 0.08759342, -0.046607066, -291310.72, 49402.594, 0.0, 10.00127, 9.998015 
2.750199e+2, 2.7523184e+2, -225112.9, -462169.2, -36210.023, 0.048406918, -0.04552751, -219705.23, 23025.184, 0.00000000009324417, 10.001083, 9.997955 
2.7502248e+2, 2.8523096e+2, -46895.3, -298327.03, -52666.285, -0.02827864, 0.06498057, -36309.234, 108429.97, 0.00000023612336, 10.001508, 9.998201 
2.7502432e+2, 2.9523012e+2, 176048.28, -129051.75, -34381.176, -0.18583749, 0.11834835, 179874.64, 226621.58, 0.0000024951785, 10.00229, 9.998324 
2.750278e+2, 3.0522546e+2, 264356.16, -9959.227, -106516.76, 0.0006498629, -0.20302714, 300859.2, 300859.2, 0.0000116764495, 10.002385, 9.998769 
2.7502996e+2, 3.1522793e+2, 98675.1, -81432.49, 91706.08, 0.06415059, 0.15740325, 137150.25, 137150.25, 0.000040637482, 10.001143, 9.998873 
2.8498143e+2, 1.2523979e+2, -1989763.5, -1771500.3, 45135.12, -0.055354405, 0.088431165, -1762534.9, -49875.508, 0.00034670465, 9.9977, 10.000695 
2.8498527e+2, 1.3523956e+2, -1576378.1, -1559590.4, -97086.08, 0.26132557, 0.0007256536, -1470536.0, 144124.3, 0.00015383656, 10.00009, 10.000329 
2.8498545e+2, 1.4523971e+2, -1448161.4, -1550230.1, 29609.115, 0.112437084, 0.033726756, -1440194.0, 76466.53, 0.00004093297, 10.000731, 9.9994 
2.8498718e+2, 1.5524134e+2, -1469595.8, -1522314.5, 38188.418, -0.022223871, 0.22720565, -1449552.9, -30903.92, 0.0000066741927, 9.999963, 9.999296 
2.849904e+2, 1.6524132e+2, -1354549.3, -1294410.6, 36059.895, -0.014691758, 0.2468397, -1277528.0, 43120.54, 0.00000074756446, 9.999569, 10.000375 
2.8499478e+2, 1.7523965e+2, -1259870.0, -1210444.4, -23145.977, 0.124549285, 0.013058352, -1201297.8, 21362.143, 0.000000006090155, 9.999588, 10.00027 
2.849976e+2, 1.8523958e+2, -1186520.6, -1279422.9, -25071.0, 0.11176019, 0.05743155, -1180186.6, -55526.188, 0.0, 10.000099, 9.998866 
2.8499895e+2, 1.9524083e+2, -959427.94, -1122351.8, -35508.484, -0.047796007, 0.26224023, -952025.4, 74627.33, 0.0, 10.000993, 9.998844 
2.8500113e+2, 2.0523983e+2, -807057.94, -943464.56, -63784.27, -0.07959426, 0.25828528, -781879.6, 146781.63, 0.0, 10.001136, 9.999331 
2.8500396e+2, 2.1523656e+2, -806608.6, -899070.7, -90441.31, 0.008757133, -0.033837598, -751267.3, 79419.71, 0.0, 10.000491, 9.999277 
2.8500652e+2, 2.2523499e+2, -825008.8, -1009352.8, -38158.87, 0.024178382, -0.044342928, -817422.2, -84719.1, 0.0, 10.000346, 9.997915 
2.8500876e+2, 2.3523483e+2, -679924.2, -889249.94, -25786.012, -0.03044005, 0.11866981, -676794.5, -42083.2, 0.0, 10.000668, 9.997916 
2.8501195e+2, 2.4523376e+2, -417073.2, -535060.2, -4431.2827, -0.0037365258, 0.1440883, -416907.0, 119813.73, 0.0, 10.00103, 9.999498 
2.8501597e+2, 2.552317e+2, -264651.78, -418223.4, -43215.16, 0.10331943, -0.04666702, -253326.23, 185406.36, 0.0, 10.001444, 9.999425 
2.85019e+2, 2.652302e+2, -260100.39, -572912.25, -34185.387, 0.11250407, -0.03955469, -256408.05, 84336.97, 0.0, 10.0016985, 9.99757 
2.8502142e+2, 2.7522907e+2, -154658.22, -476994.38, -20946.324, 0.063406356, 0.05777887, -153302.77, 89456.64, 0.0000000018932573, 10.001759, 9.997535 
2.850241e+2, 2.852276e+2, -81519.96, -320529.9, 10510.592, 0.0024289563, 0.13054973, -81058.64, 63715.887, 0.00000028816427, 10.00129, 9.9981575 
2.850264e+2, 2.952255e+2, -74146.64, -244685.48, -47132.51, -0.10785437, 0.062205736, -61987.38, -15193.917, 0.0000027347362, 10.000566, 9.998353 
2.850297e+2, 3.0522135e+2, 90493.88, -114003.03, -123519.53, 0.0242814, -0.20382577, 148594.48, 148594.48, 0.000012525966, 10.001256, 9.998599 
2.8503275e+2, 3.1522447e+2, 283684.63, 20461.75, 14079.629, 0.18586907, 0.23672794, 284435.6, 284435.6, 0.00004059471, 10.002354, 9.998985 
2.949811e+2, 1.2523791e+2, -1990636.1, -1788115.3, 55413.6, 0.06396763, 0.21579936, -1773944.5, -61262.082, 0.00028489743, 9.997749, 10.000562 
2.9498434e+2, 1.3523866e+2, -1557792.8, -1525691.3, -2267.1843, 0.12550046, 0.19524784, -1525531.9, 89142.555, 0.000121053716, 10.000113, 10.000548 
2.949846e+2, 1.4523809e+2, -1408928.8, -1473262.6, -19040.068, -0.086390786, 0.11998064, -1403716.1, 112962.65, 0.000029834508, 10.000737, 9.99993 
2.949883e+2, 1.5523826e+2, -1438760.1, -1451774.0, 20151.523, 0.059314948, 0.110360034, -1424091.0, -5415.695, 0.000004731658, 9.999935, 9.999793 
2.9499128e+2, 1.6523793e+2, -1443134.4, -1461784.9, 25537.076, 0.087896064, 0.13513952, -1425273.1, -104595.0, 0.00000054097734, 9.999506, 9.999249 
2.949934e+2, 1.7523706e+2, -1340897.5, -1365540.5, -4206.174, -0.00686012, 0.08766003, -1340199.4, -117511.38, 0.0000000012704189, 9.999546, 9.999217 
2.949963e+2, 1.8523635e+2, -1189940.8, -1270099.6, -5050.1914, -0.06287004, 0.11140831, -1189623.9, -64927.8, 0.0, 10.000022, 9.998971 
2.9499987e+2, 1.952355e+2, -965589.8, -1114915.4, 9147.235, -0.08869987, 0.098939426, -965031.56, 61673.633, 0.0, 10.000906, 9.998937 
2.9500255e+2, 2.0523493e+2, -852928.8, -1002330.5, -100248.87, -0.07347274, 0.14921607, -802609.44, 126101.2, 0.0, 10.000983, 9.998999 
2.9500428e+2, 2.152344e+2, -852691.6, -955291.5, -99075.87, -0.037818063, 0.16749674, -792422.25, 38292.06, 0.0, 10.000325, 9.998968 
2.9500684e+2, 2.252331e+2, -801638.6, -922275.9, -39081.38, -0.0067886543, 0.16319849, -790084.56, -57358.234, 0.0, 10.000183, 9.9985895 
2.9501018e+2, 2.3523088e+2, -657258.9, -806239.3, 1639.2145, 0.018858083, 0.05185844, -657240.8, -22493.508, 0.0, 10.000517, 9.998556 
2.9501373e+2, 2.4522942e+2, -475147.4, -636334.44, -2911.039, 0.044856004, 0.041247863, -475094.84, 61665.223, 0.0, 10.000943, 9.998849 
2.9501736e+2, 2.552285e+2, -324938.9, -519463.3, -15934.611, 0.06781229, 0.03255036, -323642.25, 115124.43, 0.0, 10.001335, 9.998789 
2.9502007e+2, 2.652275e+2, -227093.4, -487822.1, -42872.414, 0.019801242, 0.09302019, -220224.7, 120549.76, 0.0, 10.001632, 9.998184 
2.9502222e+2, 2.7522624e+2, -130774.04, -397461.16, -7894.489, -0.06484197, 0.11222207, -130540.555, 112245.41, 0.0000000016821552, 10.001635, 9.998139 
2.9502547e+2, 2.852239e+2, -133476.25, -421076.94, -31097.67, -0.02335217, 0.1060255, -130152.15, 14656.426, 0.00000022409213, 10.001256, 9.997488 
2.9502913e+2, 2.952207e+2, -133728.16, -361401.72, -47155.906, 0.06919518, -0.002102856, -124347.68, -77506.24, 0.0000026534976, 10.00052, 9.997585 
2.9503226e+2, 3.0521715e+2, 71044.195, -145046.61, -80805.39, 0.12032186, -0.15778022, 97918.47, 97918.47, 0.00001292508, 10.001222, 9.998398 
2.9503423e+2, 3.152187e+2, 285740.47, 41539.086, 83783.06, 0.025843982, 0.14176287, 311721.44, 311721.44, 0.000040888393, 10.002277, 9.9991665 
3.0498e+2, 1.2523368e+2, -1907585.3, -1765493.8, 35521.83, 0.16205989, 0.19111586, -1757108.4, -44383.625, 0.00023189843, 9.998411, 10.0004 
3.0498403e+2, 1.3523535e+2, -1767744.0, -1612327.3, -46937.523, 0.17042503, 0.25124228, -1599251.6, 15457.868, 0.000094942065, 9.998597, 10.000692 
3.049847e+2, 1.452349e+2, -1639071.9, -1549521.6, -88814.36, -0.059679065, 0.16558695, -1494834.3, 21878.08, 0.000021738364, 9.999038, 10.000214 
3.0498874e+2, 1.5523437e+2, -1410438.3, -1410197.6, -106796.36, 0.11570447, 0.060490895, -1303521.5, 115191.914, 0.0000030875526, 10.000018, 10.000032 
3.0499187e+2, 1.65234e+2, -1289561.3, -1447271.1, -50193.723, 0.14208354, 0.093235195, -1274941.5, 45775.797, 0.0000002653173, 10.000794, 9.9987335 
3.049939e+2, 1.7523362e+2, -1123823.8, -1317746.0, -64660.445, 0.011161341, 0.15013492, -1104241.1, 118484.12, 0.0, 10.001264, 9.998726 
3.0499688e+2, 1.8523279e+2, -1004339.75, -1130371.4, -12735.625, -0.047809847, 0.1636046, -1003065.7, 121668.04, 0.0, 10.001072, 9.999433 
3.050008e+2, 1.9523127e+2, -1037998.25, -1109959.8, -211.11948, -0.041608393, 0.04023935, -1037997.6, -11252.152, 0.0, 10.00021, 9.999326 
3.0500364e+2, 2.0523073e+2, -975333.4, -1098014.5, -63831.543, -0.021653479, 0.09210253, -948146.4, -19396.035, 0.0, 10.000293, 9.998681 
3.050054e+2, 2.1523096e+2, -742922.1, -941730.75, -90943.336, 0.007643084, 0.21648124, -707597.44, 123152.53, 0.0, 10.001233, 9.998632 
3.0500808e+2, 2.2522967e+2, -583286.8, -790173.6, -24913.598, 0.040550962, 0.2189467, -580328.94, 152432.39, 0.0, 10.001565, 9.998833 
3.0501166e+2, 2.3522682e+2, -522066.6, -716098.5, -43397.27, 0.08374033, 0.019684851, -512802.66, 121982.4, 0.0, 10.001337, 9.998781 
3.0501524e+2, 2.4522528e+2, -478354.25, -699423.8, -24395.2, 0.094477706, 0.020046175, -475694.22, 61105.0, 0.0, 10.001215, 9.998276 
3.0501863e+2, 2.5522476e+2, -358014.94, -590671.3, -56936.418, 0.071325615, 0.1099966, -344828.63, 93977.7, 0.0, 10.001369, 9.998275 
3.050214e+2, 2.6522362e+2, -241701.05, -429014.06, -69925.54, 0.013740589, 0.14736259, -218476.75, 122338.65, 0.0, 10.00124, 9.99878 
3.050236e+2, 2.7522168e+2, -193374.48, -362207.2, -61647.816, -0.041533098, 0.03939608, -173260.58, 69568.18, 0.00000000014964384, 10.000922, 9.998722 
3.0502713e+2, 2.852195e+2, -147141.17, -457669.6, -30060.24, 0.02303976, 0.029064644, -144258.0, 591.92834, 0.00000013461268, 10.001309, 9.997202 
3.0503124e+2, 2.9521722e+2, 94992.53, -282330.72, -40316.555, 0.14886455, 0.046135645, 99252.22, 146128.86, 0.0000024184974, 10.0022545, 9.997274 
3.0503434e+2, 3.052139e+2, 193023.58, -154118.86, -44991.875, 0.162786, -0.03707224, 198760.02, 198760.02, 0.00001259153, 10.002342, 9.997808 
3.0503622e+2, 3.152127e+2, 132329.22, -20476.816, 29209.264, 0.06867954, 0.04300067, 137722.3, 137722.3, 0.000039642433, 10.001157, 9.999297 
3.149775e+2, 1.2522721e+2, -1916530.5, -1788114.8, -46229.68, 0.0025516397, 0.031310253, -1773203.5, -60418.34, 0.0001887222, 9.998433, 10.000231 
3.149838e+2, 1.3522984e+2, -1772652.3, -1604587.0, -31571.264, 0.25493643, 0.18307157, -1598852.0, 15911.404, 0.00007509751, 9.998544, 10.000764 
3.1498504e+2, 1.4523031e+2, -1648615.9, -1567838.8, -68016.06, 0.035802007, 0.18968745, -1529123.4, -12363.982, 0.00001598166, 9.999016, 10.0001 
3.149881e+2, 1.5522963e+2, -1418546.1, -1426510.3, -56238.742, 0.011720604, 0.078736246, -1366148.6, 52614.957, 0.00000170519, 10.000015, 9.999919 
3.1499192e+2, 1.6522938e+2, -1291635.1, -1442381.1, -52226.008, 0.033696175, 0.12779813, -1275309.4, 45457.51, 0.000000057148895, 10.000748, 9.998796 
3.1499594e+2, 1.752293e+2, -1123107.3, -1304995.1, -39089.117, 0.05801072, 0.20467179, -1115062.5, 107709.586, 0.0, 10.001214, 9.998838 
3.1499898e+2, 1.8522899e+2, -962157.6, -1021095.7, -58585.965, 0.02842668, 0.2237106, -926046.6, 198726.44, 0.0, 10.000975, 10.000232 
3.1500134e+2, 1.952282e+2, -994942.56, -998085.3, -16610.84, -0.042449396, 0.091618285, -979828.94, 46943.93, 0.0, 10.000115, 10.000138 
3.15004e+2, 2.0522739e+2, -1024434.8, -1162013.0, -41841.96, -0.041772895, 0.09468773, -1012708.75, -83929.82, 0.0, 10.000134, 9.998319 
3.15007e+2, 2.1522632e+2, -791231.9, -1004386.1, -41547.13, 0.016906533, 0.12700428, -783419.94, 47372.68, 0.0, 10.001076, 9.998278 
3.1500992e+2, 2.2522481e+2, -611804.56, -818720.9, -45502.86, 0.039635003, 0.13254984, -602240.1, 130566.945, 0.0, 10.001431, 9.998705 
3.1501272e+2, 2.352227e+2, -552310.3, -746947.56, -37895.973, 0.031050328, 0.024018124, -545192.25, 89631.89, 0.0, 10.001198, 9.998643 
3.1501597e+2, 2.452213e+2, -524118.63, -781187.75, -31945.697, 0.014134615, 0.071370535, -520208.25, 16630.646, 0.0, 10.001153, 9.997744 
3.150194e+2, 2.5522044e+2, -411794.2, -672634.44, -40311.543, -0.01657333, 0.17983338, -405706.3, 33146.105, 0.0, 10.001236, 9.997779 
3.1502256e+2, 2.652186e+2, -204138.72, -336916.7, -94441.45, -0.023341537, 0.13459423, -155086.44, 185781.11, 0.0, 10.00118, 9.999442 
3.1502533e+2, 2.752154e+2, -160507.67, -275467.2, -59052.867, 0.004404459, -0.16032296, -135578.9, 107309.15, 0.00000000001473293, 10.000835, 9.999364 
3.1502864e+2, 2.8521422e+2, -149077.11, -448916.84, -8472.37, 0.013491948, -0.10721903, -148837.9, -3938.5671, 0.000000108201135, 10.00126, 9.997282 
3.150321e+2, 2.952149e+2, 79101.04, -291517.63, 11093.075, -0.03038357, 0.19669507, 79432.77, 126333.805, 0.0000023186144, 10.002145, 9.997268 
3.1503555e+2, 3.0521154e+2, 127692.12, -283129.7, -94534.31, 0.019092917, 0.1577663, 148401.48, 148401.48, 0.000012381474, 10.002312, 9.996937 
3.1503814e+2, 3.1520635e+2, 142294.6, 4036.1682, 16944.383, 0.074354835, -0.08355273, 144340.94, 144340.94, 0.000038038284, 10.001131, 9.999479 
3.2497674e+2, 1.2522261e+2, -1815289.1, -1749750.6, -8596.792, 0.06002654, 0.009376463, -1748641.8, -35812.09, 0.0001575099, 9.99914, 10.000164 
3.2498282e+2, 1.3522492e+2, -1630931.4, -1552417.4, -19637.984, 0.2688635, 0.13821507, -1547779.4, 67032.21, 0.00006189271, 9.999543, 10.000655 
3.249847e+2, 1.452259e+2, -1547201.1, -1539238.6, -8330.679, 0.06911664, 0.2103169, -1533986.8, -17183.145, 0.000012633238, 9.9997835, 9.999938 
3.249881e+2, 1.5522549e+2, -1388811.6, -1429466.3, -26217.16, 0.007377251, 0.14237794, -1375964.5, 42841.742, 0.0000008198343, 10.000272, 9.999786 
3.2499245e+2, 1.6522515e+2, -1327330.0, -1418207.1, -4075.9868, 0.042724352, 0.17105237, -1327147.5, -6337.55, 0.000000004124255, 10.00036, 9.999134 
3.2499716e+2, 1.7522474e+2, -1261979.0, -1338362.6, -3217.974, 0.122134775, 0.18451421, -1261843.8, -39027.465, 0.0, 10.000132, 9.999125 
3.2500026e+2, 1.8522446e+2, -1066311.6, -1086904.1, -40809.758, 0.09507472, 0.20125549, -1034519.3, 90297.09, 0.0, 10.000334, 10.000077 
3.2500196e+2, 1.9522415e+2, -900619.94, -964520.5, -101931.18, -0.018007245, 0.12880395, -825748.94, 201063.77, 0.0, 10.000837, 10.000005 
3.250048e+2, 2.0522305e+2, -850738.75, -1068566.1, -88753.78, -0.023290496, 0.1046905, -819155.4, 109665.445, 0.0, 10.00127, 9.998414 
3.250087e+2, 2.1522105e+2, -719755.4, -957857.56, -78193.14, 0.06576024, 0.032706685, -696372.9, 134468.63, 0.0, 10.00151, 9.998386 
3.2501176e+2, 2.2521967e+2, -620033.8, -849664.3, -72411.26, 0.08532528, 0.055694796, -599106.94, 133748.5, 0.0, 10.001485, 9.998467 
3.2501405e+2, 2.3521863e+2, -558000.8, -774342.8, -95056.586, 0.048354708, 0.07459507, -522169.3, 112695.73, 0.0, 10.00126, 9.998422 
3.2501718e+2, 2.452173e+2, -517696.3, -765913.4, -28568.12, 0.02990938, 0.13341147, -514450.75, 22428.564, 0.0, 10.001128, 9.997871 
3.25021e+2, 2.552156e+2, -407144.78, -656299.8, -7012.9243, 0.029850954, 0.13952473, -406947.53, 31951.416, 0.0, 10.001184, 9.997921 
3.250242e+2, 2.6521352e+2, -212183.7, -382687.94, -56517.27, 0.024752447, 0.08734874, -195151.3, 145765.27, 0.0, 10.001308, 9.999071 
3.2502678e+2, 2.752108e+2, -81912.83, -274735.44, -124585.31, 0.037727885, -0.12370364, -20791.152, 222144.8, 0.00000000010851988, 10.001546, 9.999024 
3.2503015e+2, 2.8520983e+2, -85356.5, -387019.7, -60309.59, 0.03248818, -0.040482514, -73746.05, 71199.46, 0.00000014604628, 10.001547, 9.997579 
3.2503405e+2, 2.952107e+2, -24339.584, -304648.97, -50689.92, 0.0056613125, 0.24395481, -15454.665, 31489.83, 0.0000023415487, 10.001278, 9.997596 
3.2503772e+2, 3.0520737e+2, 15164.076, -313685.56, -99614.12, 0.06120174, 0.1848579, 42985.176, 42985.176, 0.000012312151, 10.001473, 9.997113 
3.2504013e+2, 3.152024e+2, 281132.16, 123429.61, 32563.65, 0.13314117, -0.05902022, 287591.6, 287591.6, 0.000036624067, 10.001904, 9.999907 
3.3497667e+2, 1.252199e+2, -1822969.0, -1750303.1, -68765.516, 0.070298046, 0.14119649, -1708862.1, 3995.8857, 0.00013854062, 9.999089, 10.000176 
3.3498082e+2, 1.3522074e+2, -1655400.6, -1585663.8, -3256.4834, 0.08063154, 0.14387335, -1585512.0, 29340.928, 0.000055370125, 9.999498, 10.000431 
3.3498326e+2, 1.4522177e+2, -1564152.8, -1562737.4, -10896.393, -0.09184567, 0.24248256, -1552525.8, -35681.848, 0.000011804474, 9.999732, 9.999804 
3.349884e+2, 1.5522216e+2, -1394804.8, -1434906.1, 4438.8296, -0.02568057, 0.26495555, -1394319.3, 24520.018, 0.00000057438905, 10.000246, 9.999761 
3.3499306e+2, 1.6522151e+2, -1298582.1, -1348403.3, -25491.225, 0.03887622, 0.23397598, -1287850.9, 32993.31, 0.00000000201948, 10.000311, 9.9996395 
3.349972e+2, 1.7521985e+2, -1234298.6, -1276119.4, 4200.807, 0.0769101, 0.07504464, -1233880.8, -11022.405, 0.0, 10.000108, 9.999566 
3.3500022e+2, 1.852191e+2, -1165547.9, -1265218.0, -36680.773, 0.02545674, 0.08304599, -1153503.9, -28639.088, 0.0, 10.0002165, 9.99891 
3.3500233e+2, 1.9521894e+2, -991343.25, -1132530.5, -71326.555, -0.09620205, 0.1406993, -961582.8, 65283.625, 0.0, 10.000752, 9.99889 
3.3500564e+2, 2.0521763e+2, -827088.44, -989242.94, -93802.46, -0.08632366, 0.119449206, -784180.1, 144696.89, 0.0, 10.001143, 9.999021 
3.350101e+2, 2.1521507e+2, -701809.7, -880031.7, -56941.42, 0.031476382, -0.07205904, -685170.5, 145727.11, 0.0, 10.001339, 9.999002 
3.3501324e+2, 2.2521414e+2, -667331.2, -911382.25, -95279.92, 0.061588768, -0.014827861, -634539.1, 98368.17, 0.0, 10.001332, 9.998114 
3.3501524e+2, 2.3521459e+2, -605634.4, -828978.5, -93656.98, 0.014149791, 0.18516427, -571559.1, 63348.83, 0.0, 10.0010805, 9.998127 
3.3501858e+2, 2.452133e+2, -460999.38, -638209.6, -39677.34, 0.028445834, 0.21543518, -452521.25, 84399.03, 0.0, 10.001077, 9.998775 
3.3502308e+2, 2.552102e+2, -365300.34, -541590.8, 6961.0815, 0.08893427, -0.0078357905, -365025.9, 73919.59, 0.0, 10.001067, 9.998763 
3.3502603e+2, 2.6520848e+2, -320948.16, -598381.6, -61719.94, 0.050614484, 0.010277932, -307837.1, 33124.695, 0.0, 10.001266, 9.997607 
3.350275e+2, 2.7520776e+2, -198958.44, -489621.63, -101727.97, -0.07830407, 0.14547166, -166892.58, 76080.42, 0.000000000044508567, 10.001424, 9.997606 
3.350312e+2, 2.852065e+2, -42467.836, -294882.56, -82862.35, -0.04479222, 0.2262404, -17696.83, 127291.266, 0.00000018851506, 10.001522, 9.998227 
3.3503675e+2, 2.9520467e+2, 12990.31, -219792.98, -44395.008, 0.10323876, 0.18627644, 21169.656, 68175.68, 0.0000023038672, 10.001227, 9.998213 
3.350404e+2, 3.0520123e+2, 84660.81, -163829.1, -91938.164, 0.15121268, 0.031817086, 114977.94, 114977.94, 0.000011796056, 10.001454, 9.998149 
3.350412e+2, 3.152004e+2, 304573.5, 194957.56, 103283.72, -0.015810266, 0.098704584, 366690.47, 366690.47, 0.000034748333, 10.001793, 10.000463 
3.4497666e+2, 1.2521586e+2, -1835790.8, -1750027.6, -70029.08, 0.18178858, 0.19352569, -1710794.0, 2105.488, 0.00012841672, 9.998988, 10.00022 
3.449794e+2, 1.3521612e+2, -1635661.6, -1612492.9, -47592.633, -0.01050036, 0.16653644, -1575095.1, 39803.652, 0.00005393956, 9.999767, 10.000136 
3.4498274e+2, 1.4521672e+2, -1529587.8, -1520037.8, -17727.154, -0.109981336, 0.22720137, -1506453.8, 10438.4, 0.00001321429, 9.999874, 10.000015 
3.4498888e+2, 1.5521672e+2, -1467791.5, -1451963.5, -21108.037, 0.039125625, 0.19120836, -1437334.6, -18445.035, 0.00000089811203, 9.999677, 9.999911 
3.4499386e+2, 1.6521621e+2, -1347057.6, -1371123.5, -33779.516, 0.11273551, 0.16550182, -1323231.8, -2339.0803, 0.0000000015154811, 9.999955, 9.999661 
3.4499756e+2, 1.7521517e+2, -1160793.8, -1237177.3, -63301.156, 0.08738965, 0.06500719, -1125055.5, 97846.086, 0.0, 10.000592, 9.999601 
3.4500068e+2, 1.8521442e+2, -1113519.3, -1281159.1, -66765.586, 0.03421875, 0.08926626, -1090178.5, 34730.96, 0.0, 10.000746, 9.998552 
3.4500346e+2, 1.952136e+2, -1069541.3, -1210950.6, -62873.438, -0.031200616, 0.12168044, -1045629.8, -18710.42, 0.0, 10.000383, 9.998538 
3.450069e+2, 2.0521235e+2, -914881.06, -997601.2, -40396.11, -0.028661357, 0.10820685, -898426.75, 30502.74, 0.0, 10.000398, 9.999321 
3.4501103e+2, 2.1521045e+2, -777704.3, -888539.25, -56744.91, 0.027107388, -0.046004243, -753805.44, 77136.67, 0.0, 10.000693, 9.999258 
3.4501427e+2, 2.2520952e+2, -711549.25, -955802.25, -81437.31, 0.04866007, 0.010368741, -686887.06, 46064.453, 0.0, 10.001124, 9.997914 
3.450168e+2, 2.3520933e+2, -532223.5, -818651.06, -94460.86, 0.04530567, 0.16801485, -503876.7, 131083.17, 0.0, 10.001672, 9.997925 
3.4502044e+2, 2.4520785e+2, -361876.94, -572673.06, -55595.957, 0.08322131, 0.17961618, -348112.66, 188861.22, 0.0, 10.001696, 9.99892 
3.4502488e+2, 2.5520486e+2, -321037.78, -511624.9, -94373.66, 0.15624656, -0.0422304, -282214.78, 156781.25, 0.0, 10.001326, 9.998852 
3.450277e+2, 2.652033e+2, -340837.47, -644833.3, -105880.11, 0.09566723, 0.007241843, -307595.13, 33416.445, 0.0, 10.0013, 9.997267 
3.4502897e+2, 2.7520287e+2, -190971.66, -517944.7, -88569.67, -0.07468868, 0.20531467, -168521.55, 74501.86, 0.0, 10.001633, 9.997305 
3.450328e+2, 2.8520125e+2, -38794.83, -261496.88, -44628.36, -0.026813287, 0.2562027, -30184.44, 114857.03, 0.00000016974016, 10.001437, 9.9984865 
3.450387e+2, 2.9519862e+2, -22524.637, -205493.27, -61875.47, 0.20698045, 0.103366956, -3564.6052, 43500.258, 0.0000020169734, 10.000861, 9.998484 
3.4504196e+2, 3.051958e+2, 35953.26, -164295.67, -83834.4, 0.19974732, -0.010899966, 66416.37, 66416.37, 0.0000103175025, 10.000992, 9.998383 
3.4504253e+2, 3.151962e+2, 224001.52, 127274.875, 25673.543, -0.021576716, 0.15522653, 230393.48, 230393.48, 0.000031962787, 10.001359, 10.000198 
3.5497588e+2, 1.2521048e+2, -1841233.5, -1755041.1, -86251.43, 0.12435013, 0.1684232, -1701718.5, 11235.513, 0.00012227354, 9.99896, 10.000199 
3.5497805e+2, 1.3521107e+2, -1648527.4, -1638216.0, -8686.138, -0.15387224, 0.20129019, -1633270.8, -18321.846, 0.00005490219, 9.999781, 9.999945 
3.5498273e+2, 1.452109e+2, -1503304.1, -1468886.3, -41788.95, -0.1433322, 0.17438698, -1440901.6, 76045.22, 0.000015641235, 9.999881, 10.000372 
3.5498926e+2, 1.552091e+2, -1445526.3, -1413486.8, -14391.807, 0.07041159, -0.070948616, -1407971.5, 10986.127, 0.0000017221555, 9.999703, 10.000169 
3.5499436e+2, 1.6520916e+2, -1383265.0, -1429308.1, -26070.021, 0.13210574, -0.032630175, -1371506.6, -50550.566, 0.000000007086625, 9.999884, 9.999294 
3.549978e+2, 1.7521071e+2, -1189585.0, -1287128.0, -26625.543, 0.020035954, 0.16059434, -1182790.5, 40154.67, 0.0, 10.000549, 9.999278 
3.5500124e+2, 1.8521044e+2, -1098613.9, -1225641.5, -91289.39, -0.010712873, 0.22571038, -1050917.3, 74032.45, 0.0, 10.00064, 9.998984 
3.5500497e+2, 1.9520834e+2, -1052526.6, -1154549.6, -61574.867, 0.054010406, 0.08565352, -1023577.94, 3391.6306, 0.0, 10.000292, 9.998969 
3.5500827e+2, 2.0520738e+2, -942095.6, -1021690.7, -42142.43, 0.03979702, 0.08409815, -923929.1, 5047.7354, 0.0, 10.000254, 9.9992285 
3.5501108e+2, 2.1520723e+2, -805028.25, -911217.75, -31450.676, -0.059702378, 0.11452961, -796412.4, 34562.074, 0.0, 10.000545, 9.999176 
3.5501453e+2, 2.2520584e+2, -735753.5, -974354.9, -70258.19, -0.06335221, 0.13195843, -716602.5, 16385.576, 0.0, 10.00099, 9.99785 
3.5501853e+2, 2.3520307e+2, -562442.25, -842646.25, -61349.125, 0.020650716, 0.038629428, -549598.9, 85419.93, 0.0, 10.001511, 9.997836 
3.550223e+2, 2.4520108e+2, -429518.75, -685539.8, -80674.37, 0.07420052, 0.043126673, -406218.2, 130820.27, 0.0, 10.001584, 9.998197 
3.5502595e+2, 2.5519955e+2, -389631.66, -623570.6, -94844.5, 0.10274075, 0.039368436, -356011.16, 83039.21, 0.0, 10.001202, 9.998141 
3.5502875e+2, 2.6519805e+2, -290015.03, -528631.06, -104049.086, 0.045344602, 0.08288456, -251017.61, 90047.695, 0.0, 10.001251, 9.998088 
3.550308e+2, 2.7519628e+2, -152230.28, -414737.2, -61084.594, -0.085937075, 0.064449504, -138712.2, 104373.62, 0.0, 10.0015335, 9.998062 
3.5503444e+2, 2.8519428e+2, -57621.42, -291611.06, -78591.32, -0.035701923, 0.053963505, -33675.176, 111430.2, 0.00000011654808, 10.001402, 9.998297 
3.5503957e+2, 2.9519227e+2, -49276.668, -241325.05, -63527.16, 0.16571553, -0.017318923, -30164.652, 16957.748, 0.0000016052002, 10.000778, 9.998279 
3.5504204e+2, 3.0519095e+2, 13798.776, -214426.31, -77137.51, 0.078616604, 0.044447552, 37424.637, 37424.637, 0.000008325357, 10.000999, 9.998039 
3.5504308e+2, 3.151907e+2, 134840.7, -44774.99, 90915.055, -0.17594232, 0.17985801, 172825.64, 172825.64, 0.000028551576, 10.001292, 9.999054 
3.6497614e+2, 1.2520613e+2, -1534438.4, -1679168.5, 55010.477, 0.15106538, 0.13274364, -1515903.1, 197089.8, 0.000118926524, 10.001358, 9.9995775 
3.6497888e+2, 1.352057e+2, -1502164.4, -1648590.1, 25698.602, -0.10262932, 0.14277917, -1497785.1, 117213.35, 0.000056465244, 10.001129, 9.999224 
3.6498457e+2, 1.4520499e+2, -1363699.6, -1423759.3, -26495.346, 0.0062407493, 0.10228679, -1353682.0, 163320.95, 0.00001794202, 10.000933, 10.000176 
3.649898e+2, 1.5520364e+2, -1282986.0, -1353380.9, -65625.555, 0.10275112, -0.07685334, -1243714.9, 175295.19, 0.000002788093, 10.000901, 10.000006 
3.6499432e+2, 1.6520372e+2, -1287523.1, -1392669.6, -45809.863, 0.117538504, -0.021468507, -1270364.8, 50644.01, 0.00000008230677, 10.000581, 9.999213 
3.649978e+2, 1.7520498e+2, -1290623.8, -1343223.4, -57564.07, 0.0074223024, 0.14949621, -1253636.1, -30634.746, 0.0, 9.999887, 9.999215 
3.6500177e+2, 1.852047e+2, -1151014.1, -1221877.9, -80660.24, 0.0071392474, 0.20385125, -1098346.6, 26658.625, 0.0, 10.000158, 9.999243 
3.6500642e+2, 1.9520278e+2, -896514.1, -1053150.1, -90961.51, 0.12665588, 0.05835216, -854800.06, 172221.95, 0.0, 10.001251, 9.999206 
3.6500978e+2, 2.0520201e+2, -789307.2, -984825.7, -80245.445, 0.11406841, 0.08066339, -760590.4, 168437.9, 0.0, 10.001455, 9.998905 
3.65012e+2, 2.1520203e+2, -791454.4, -938641.06, -115457.57, -0.027826425, 0.15830444, -728130.1, 102897.08, 0.0, 10.00078, 9.998875 
3.6501554e+2, 2.2520049e+2, -780731.56, -966991.5, -103912.92, -0.03293534, 0.16229427, -734322.7, -1280.5575, 0.0, 10.000556, 9.998114 
3.6502033e+2, 2.3519732e+2, -656408.44, -857918.0, -95960.65, 0.099783435, 0.004264671, -618023.1, 17050.771, 0.0, 10.00074, 9.9981 
3.6502418e+2, 2.4519534e+2, -508652.0, -749501.9, -66918.266, 0.13486663, 0.007537949, -491308.22, 45785.137, 0.0, 10.001128, 9.997992 
3.650271e+2, 2.551943e+2, -332668.03, -610179.8, -65367.94, 0.08324871, 0.072446726, -318041.53, 121061.28, 0.0, 10.001656, 9.9980135 
3.6502993e+2, 2.651929e+2, -256071.03, -498076.4, -71531.59, 0.036816552, 0.12467606, -236509.08, 104608.13, 0.0, 10.00143, 9.998208 
3.6503273e+2, 2.7519077e+2, -288047.97, -466169.78, -106076.3, 0.014471625, 0.05875636, -238602.45, 4537.6543, 0.0, 10.000542, 9.998187 
3.6503634e+2, 2.8518865e+2, -191730.83, -353716.75, -95815.23, 0.06880536, 0.026827632, -147262.97, -2103.1213, 0.000000055764154, 10.000448, 9.998339 
3.6504054e+2, 2.9518682e+2, -9170.664, -218132.77, -88976.13, 0.18099108, -0.032935627, 23581.818, 70755.99, 0.0000011855267, 10.00104, 9.998308 
3.650426e+2, 3.05186e+2, 62919.105, -234370.53, -59946.44, 0.018735863, 0.09680449, 74551.73, 74551.73, 0.0000067298934, 10.001549, 9.99763 
3.6504537e+2, 3.1518453e+2, 153802.58, -79516.65, 51379.707, -0.079042405, 0.15261224, 164615.86, 164615.86, 0.00002565761, 10.001627, 9.998655 
3.7497643e+2, 1.2520304e+2, -1614462.9, -1843944.1, 50856.402, -0.023074862, 0.13621795, -1603697.4, 109316.336, 0.0001191897, 10.001352, 9.998442 
3.7498143e+2, 1.3520014e+2, -1582319.4, -1815838.0, 24790.15, 0.0041526407, 0.0055866074, -1579716.8, 35330.1, 0.00005856906, 10.001135, 9.998066 
3.7498772e+2, 1.4519897e+2, -1421624.4, -1528565.5, -46427.105, 0.1919426, 0.011348416, -1404281.3, 112779.22, 0.000020069963, 10.00087, 9.999486 
3.7499005e+2, 1.5520027e+2, -1323824.8, -1445504.0, -52175.773, 0.0022494146, 0.16488469, -1304515.9, 114531.83, 0.0000038584762, 10.000927, 9.999364 
3.7499344e+2, 1.6519992e+2, -1284397.5, -1373139.4, -83787.67, -0.062863, 0.19906723, -1233957.4, 87093.59, 0.00000020238203, 10.000526, 9.999371 
3.7499717e+2, 1.7519806e+2, -1287790.8, -1329242.9, -67424.4, -0.07477585, 0.04437596, -1237978.8, -14909.942, 0.0, 9.999848, 9.9993305 
3.7500173e+2, 1.8519716e+2, -1159589.1, -1215226.8, -51895.06, -0.038828097, 0.025115395, -1128526.9, -3450.3433, 0.0, 10.000054, 9.999336 
3.750073e+2, 1.9519685e+2, -906988.75, -1048063.6, -36696.945, 0.061970048, 0.02922103, -898013.94, 129063.36, 0.0, 10.00114, 9.99929 
3.7501112e+2, 2.0519616e+2, -851906.0, -1082949.3, -118540.3, 0.0761183, 0.08710351, -801907.06, 127177.45, 0.0, 10.001316, 9.998301 
3.750132e+2, 2.1519488e+2, -855895.7, -1031682.56, -128808.984, -0.008048419, 0.09724609, -787850.0, 43249.684, 0.0, 10.00061, 9.998315 
3.7501687e+2, 2.2519353e+2, -758126.6, -891769.7, -113316.43, 0.023505105, 0.117365114, -693396.94, 39716.152, 0.0, 10.0004225, 9.998698 
3.7502193e+2, 2.351919e+2, -632984.7, -783025.75, -77538.945, 0.15836415, 0.050955437, -600114.7, 35012.313, 0.0, 10.000615, 9.998679 
3.7502566e+2, 2.4519052e+2, -493985.28, -697669.8, -59013.844, 0.14416376, 0.066800684, -478122.47, 59016.992, 0.0, 10.001038, 9.99839 
3.7502792e+2, 2.5518915e+2, -324605.22, -568138.2, -32717.87, -0.029743452, 0.060205813, -320286.28, 118866.82, 0.0, 10.001541, 9.99836 
3.750308e+2, 2.6518783e+2, -303234.47, -583729.3, -116524.375, -0.047685478, 0.13289301, -261143.56, 80024.555, 0.0, 10.001376, 9.997644 
3.7503436e+2, 2.751862e+2, -336102.5, -548664.75, -123583.97, 0.08886991, 0.17499879, -279384.63, -36197.004, 0.0, 10.000463, 9.997662 
3.750379e+2, 2.8518435e+2, -168847.02, -299707.84, -84006.55, 0.14913169, 0.17251219, -127796.266, 17408.73, 0.00000003400916, 10.000419, 9.998725 
3.750411e+2, 2.9518235e+2, -4975.834, -190032.66, -50016.7, 0.09733501, 0.060814288, 7677.3926, 54896.973, 0.000000899484, 10.000947, 9.998551 
3.7504312e+2, 3.0518088e+2, 19159.484, -313787.25, -60144.098, -0.11262992, 0.15003328, 29690.902, 29690.902, 0.000005766145, 10.001506, 9.997105 
3.750485e+2, 3.1517726e+2, 153673.94, -65441.152, 75899.62, 0.0020299393, 0.0370365, 177396.58, 177396.58, 0.000023929499, 10.001561, 9.998789 
3.8497785e+2, 1.2519696e+2, -1520417.4, -1779871.0, -72675.96, -0.03591073, 0.08940226, -1501447.0, 211624.92, 0.00012316402, 10.001922, 9.9986105 
3.8498235e+2, 1.3519493e+2, -1609197.6, -1802328.6, -97307.47, 0.0084948875, 0.018878127, -1568673.3, 46422.758, 0.000061385945, 10.000819, 9.998326 
3.8498873e+2, 1.4519385e+2, -1513597.9, -1596750.1, -35605.086, 0.24276537, 0.03347954, -1500435.5, 16674.303, 0.000022093489, 10.000341, 9.99927 
3.8499078e+2, 1.5519528e+2, -1391772.9, -1500252.9, -46970.957, 0.011082831, 0.21997888, -1374261.5, 44836.758, 0.000004863891, 10.000568, 9.999153 
3.8499424e+2, 1.6519468e+2, -1229315.1, -1367089.6, -57342.656, -0.048702154, 0.24730505, -1208571.9, 112532.68, 0.00000029520132, 10.000975, 9.999206 
3.8499832e+2, 1.7519224e+2, -1061463.4, -1236217.8, -85404.84, -0.019426005, 0.048619263, -1026657.2, 196469.7, 0.0, 10.001463, 9.999192 
3.8500273e+2, 1.8519114e+2, -993593.8, -1137277.5, -51048.848, 0.0043427595, 0.018811855, -977303.75, 147831.78, 0.0, 10.001193, 9.999325 
3.8500777e+2, 1.9519094e+2, -1045343.8, -1120823.0, -72847.35, 0.05422505, 0.031671513, -1001040.7, 26094.584, 0.0, 10.000195, 9.999254 
3.850119e+2, 2.051902e+2, -986718.56, -1123500.0, -91933.54, 0.08186545, 0.076838665, -940527.2, -11384.677, 0.0, 10.000293, 9.998512 
3.8501495e+2, 2.151888e+2, -728622.94, -952494.06, -65274.715, 0.07417402, 0.054390762, -710980.94, 120177.586, 0.0, 10.001395, 9.998489 
3.8501874e+2, 2.2518754e+2, -548773.8, -780613.7, -18759.506, 0.10576613, 0.07253353, -547265.7, 185904.89, 0.0, 10.001827, 9.998775 
3.8502318e+2, 2.3518632e+2, -471318.13, -694270.5, -50208.582, 0.17191464, 0.036425218, -460532.94, 174647.47, 0.0, 10.001693, 9.99876 
3.8502663e+2, 2.4518529e+2, -448930.1, -671770.44, -41919.17, 0.13112465, 0.07828227, -441305.44, 95885.03, 0.0, 10.001346, 9.998404 
3.8502914e+2, 2.5518414e+2, -425801.7, -620923.94, -71558.945, -0.019498875, 0.094071515, -402371.66, 36831.61, 0.0, 10.000858, 9.998323 
3.8503206e+2, 2.6518264e+2, -376184.28, -629080.44, -131247.45, -0.029943818, 0.15403217, -320382.5, 20837.926, 0.0, 10.000909, 9.997568 
3.850355e+2, 2.7518058e+2, -193847.67, -484067.94, -128415.55, 0.11717273, 0.15752056, -145186.03, 98057.16, 0.0, 10.001462, 9.9976225 
3.8503897e+2, 2.8517875e+2, -46799.51, -266175.34, -63304.133, 0.17577788, 0.1708768, -29842.836, 115417.74, 0.000000026095549, 10.001377, 9.998489 
3.8504204e+2, 2.95177e+2, -63805.54, -244229.83, -98226.3, 0.11945941, 0.10978011, -20651.135, 26622.828, 0.00000066980994, 10.000666, 9.99831 
3.8504413e+2, 3.0517504e+2, -92736.01, -383877.6, -58769.477, -0.11401366, 0.17000571, -81320.48, -81320.48, 0.000005131084, 10.000805, 9.996955 
3.8505098e+2, 3.1517157e+2, 132138.16, -51122.76, 18838.29, 0.12365506, 0.07545091, 134054.6, 134054.6, 0.000023471404, 10.001329, 9.998983 
3.9497977e+2, 1.2518796e+2, -1438927.0, -1581067.1, -95711.62, -0.10437606, -0.0064120535, -1390784.4, 322382.2, 0.0001272644, 10.001831, 10.000012 
3.949812e+2, 1.3519011e+2, -1500108.4, -1561293.9, -125986.27, -0.22140831, 0.17340627, -1401053.8, 214092.02, 0.00006380605, 10.000783, 9.999991 
3.9498714e+2, 1.4518973e+2, -1515116.4, -1588656.6, -43991.78, 0.0071170446, 0.17279749, -1494551.4, 22598.76, 0.000023677207, 10.000278, 9.999361 
3.9499146e+2, 1.5518863e+2, -1383137.1, -1485208.6, -24915.604, -0.013197395, 0.09417006, -1377380.0, 41782.137, 0.000005569423, 10.000573, 9.999255 
3.949964e+2, 1.6518785e+2, -1264816.9, -1422104.0, -55829.105, 0.036772255, 0.1155935, -1247015.1, 74155.95, 0.00000035120044, 10.000906, 9.998859 
3.9500087e+2, 1.7518741e+2, -1096181.9, -1288175.6, -54893.6, 0.06116815, 0.15319148, -1081595.3, 141581.22, 0.0, 10.001386, 9.998873 
3.9500445e+2, 1.851866e+2, -1020071.5, -1166368.3, -100952.56, 0.02826595, 0.17519352, -968551.94, 156631.42, 0.0, 10.001078, 9.999186 
3.9500752e+2, 1.951852e+2, -1069829.6, -1140621.0, -95911.375, -0.023327231, 0.08413712, -1002991.06, 24203.31, 0.0, 10.000066, 9.999178 
3.9501172e+2, 2.051843e+2, -934989.25, -979301.1, -64266.16, 0.011759701, 0.06293713, -889167.06, 40033.5, 0.0, 10.000136, 9.9995775 
3.9501685e+2, 2.1518376e+2, -685524.2, -813645.44, -9025.438, 0.098182395, 0.020335266, -684891.5, 146312.08, 0.0, 10.001193, 9.999535 
3.950208e+2, 2.251826e+2, -601149.3, -855921.0, -35149.895, 0.10246969, 0.017118746, -596388.8, 136825.33, 0.0, 10.001679, 9.998333 
3.950236e+2, 2.3518059e+2, -524761.7, -769647.06, -40531.81, 0.02237617, -0.047394514, -518227.5, 117006.766, 0.0, 10.00154, 9.998317 
3.950268e+2, 2.4517958e+2, -487827.5, -733025.0, -72246.72, -0.016490236, 0.039836552, -468123.6, 69122.95, 0.0, 10.001258, 9.998032 
3.950303e+2, 2.5517923e+2, -465317.8, -678849.0, -74752.016, -0.020664431, 0.1707792, -441750.16, -2496.1238, 0.0, 10.000749, 9.997985 
3.9503327e+2, 2.6517734e+2, -356755.38, -573519.75, -121243.875, -0.025112897, 0.18836702, -302512.9, 38761.035, 0.0, 10.000841, 9.997985 
3.9503583e+2, 2.7517378e+2, -181794.94, -438511.4, -93630.34, -0.027725153, 0.007219471, -151274.36, 92032.75, 0.0, 10.001364, 9.997989 
3.9503917e+2, 2.8517172e+2, -112444.33, -382717.38, -101712.45, 0.03019874, 0.018665742, -78443.92, 66883.33, 0.000000010243951, 10.001307, 9.997718 
3.9504287e+2, 2.9517075e+2, -133501.13, -357680.47, -103725.95, 0.10099494, 0.1168598, -92871.555, -45534.117, 0.0000005130985, 10.000541, 9.997591 
3.9504525e+2, 3.0516848e+2, -73450.09, -342429.63, -41673.402, -0.11129514, 0.16138627, -67141.52, -67141.52, 0.0000059963604, 10.000793, 9.997245 
3.9505208e+2, 3.151668e+2, 134003.61, -26020.686, 34826.805, 0.033924695, 0.22701429, 141254.58, 141254.58, 0.000027747768, 10.00124, 9.999198 
4.0498182e+2, 1.2518181e+2, -1511627.3, -1623455.0, 131778.11, -0.03640305, -0.040412538, -1424391.5, 288836.78, 0.0001282802, 10.001333, 9.99997 
4.049823e+2, 1.3518439e+2, -1494165.1, -1542352.6, -126027.7, -0.17223819, 0.16638365, -1389948.8, 225254.16, 0.00006493345, 10.000747, 10.000139 
4.0498725e+2, 1.4518432e+2, -1442795.4, -1548930.8, -15294.34, -0.020621004, 0.18815197, -1440635.4, 76568.164, 0.00002457309, 10.0007515, 9.999406 
4.0499237e+2, 1.5518288e+2, -1285712.1, -1436229.6, -32794.832, -0.003172411, 0.06794857, -1278877.1, 140341.16, 0.000005781208, 10.001219, 9.999287 
4.0499794e+2, 1.6518193e+2, -1230167.3, -1428902.5, -39689.766, 0.095313914, 0.08466093, -1222533.9, 98695.05, 0.0000003430959, 10.001243, 9.998648 
4.0500277e+2, 1.7518158e+2, -1182490.5, -1353920.3, -61379.848, 0.14625892, 0.15076591, -1162779.9, 60455.086, 0.0, 10.000887, 9.998661 
4.0500608e+2, 1.8518102e+2, -1034433.7, -1147610.8, -80762.664, 0.10222226, 0.19480035, -992407.44, 132832.44, 0.0, 10.000879, 9.999407 
4.0500835e+2, 1.9517991e+2, -906122.4, -1039026.0, -69940.76, 0.01189979, 0.116435714, -876098.5, 151148.6, 0.0, 10.001101, 9.999379 
4.0501228e+2, 2.0517904e+2, -830353.6, -938907.5, -25121.258, 0.023232173, 0.090120524, -824822.0, 104431.32, 0.0, 10.000893, 9.999489 
4.050176e+2, 2.1517815e+2, -825539.94, -893233.75, -85996.9, 0.11114036, 0.020984344, -766968.9, 64291.55, 0.0, 10.000274, 9.999432 
4.050217e+2, 2.2517715e+2, -792075.1, -916982.1, -101170.055, 0.10268931, 0.026253914, -735634.44, -2364.649, 0.0, 10.00024, 9.998605 
4.050245e+2, 2.3517582e+2, -620044.9, -790859.25, -77657.26, 0.0030409293, 0.002187388, -590017.94, 45265.77, 0.0, 10.00077, 9.998548 
4.0502787e+2, 2.451749e+2, -517352.06, -733083.3, -54591.55, -0.015335205, 0.08200012, -504324.22, 32970.26, 0.0, 10.000995, 9.998157 
4.0503168e+2, 2.5517428e+2, -423257.63, -633697.06, -42988.535, 0.040431533, 0.16852134, -414814.66, 24488.826, 0.0, 10.00096, 9.998179 
4.0503463e+2, 2.6517233e+2, -347011.13, -552940.25, -38667.887, 0.03460458, 0.16262984, -339989.75, 1333.1587, 0.0, 10.000829, 9.998127 
4.050368e+2, 2.751689e+2, -287917.16, -477608.8, -53791.625, -0.017473962, -0.026346603, -273725.06, -30370.383, 0.0, 10.0005665, 9.998102 
4.050401e+2, 2.8516692e+2, -189354.73, -441289.16, -19010.215, 0.02478196, 0.0010066638, -187928.36, -42554.395, 0.0000000008315615, 10.000852, 9.9975395 
4.0504435e+2, 2.951661e+2, 32408.715, -285118.47, -1580.1654, 0.14701264, 0.12373357, 32416.578, 79800.65, 0.0000007104038, 10.001703, 9.997523 
4.0504688e+2, 3.0516356e+2, 68283.84, -233384.34, 101420.94, -0.054982845, 0.12586331, 99210.945, 99210.945, 0.000009515816, 10.001586, 9.99762 
4.0505293e+2, 3.151622e+2, -32458.645, -124981.88, 96602.43, 0.06724467, 0.1867859, 28387.941, 28387.941, 0.000039448827, 10.000132, 9.999071 
4.1498318e+2, 1.2517823e+2, -1600438.0, -1824809.4, 120405.71, -0.109003805, -0.026021907, -1548054.0, 165204.98, 0.00012596608, 10.001386, 9.998563 
4.1498518e+2, 1.3517782e+2, -1571316.1, -1728623.4, -137523.66, 0.004444174, 0.007525728, -1491542.6, 123724.2, 0.00006410072, 10.000827, 9.998828 
4.1498873e+2, 1.4517763e+2, -1445686.5, -1542752.6, -10202.767, 0.013718293, 0.07342618, -1444625.6, 72644.914, 0.00002430965, 10.000716, 9.999462 
4.149932e+2, 1.5517803e+2, -1289081.5, -1428349.9, 336.19348, -0.07570117, 0.13651103, -1289080.8, 130185.66, 0.0000053776803, 10.00117, 9.99936 
4.149986e+2, 1.6517702e+2, -1256006.1, -1460439.8, -66384.02, 0.0021376265, 0.15273248, -1236341.4, 84936.195, 0.0000002359893, 10.001149, 9.998473 
4.1500354e+2, 1.7517489e+2, -1201805.8, -1379703.8, -59006.164, 0.09998802, 0.056882583, -1184013.6, 39287.582, 0.0, 10.000827, 9.99851 
4.150071e+2, 1.8517439e+2, -1005574.1, -1066531.6, -86126.54, 0.08927416, 0.08455373, -944692.44, 180612.7, 0.0, 10.0007925, 10.000001 
4.1500986e+2, 1.951751e+2, -881402.5, -962331.5, -51182.418, 0.024778748, 0.124107875, -856621.2, 170672.44, 0.0, 10.000999, 9.999948 
4.150132e+2, 2.0517434e+2, -939245.75, -1138397.8, -61495.26, -0.0019680492, 0.14969878, -921787.4, 7513.7607, 0.0, 10.000766, 9.998188 
4.1501692e+2, 2.1517201e+2, -937406.94, -1082865.1, -96963.195, -0.015354501, 0.0661387, -888928.0, -57599.617, 0.0, 10.00009, 9.9982195 
4.1502097e+2, 2.2517134e+2, -749907.7, -790943.25, -93814.53, -0.017643929, 0.1133836, -674393.44, 58943.066, 0.0, 10.000075, 9.99955 
4.1502535e+2, 2.3517193e+2, -574488.7, -662984.5, -44668.15, -0.01577207, 0.18688053, -555862.75, 79466.46, 0.0, 10.000628, 9.999493 
4.150293e+2, 2.4517123e+2, -481934.44, -639412.75, -67507.42, -0.0013159959, 0.20479955, -456957.13, 80377.3, 0.0, 10.000906, 9.998841 
4.150328e+2, 2.551691e+2, -391950.03, -544248.7, -31139.088, 0.025232676, 0.07314593, -385829.3, 53523.977, 0.0, 10.000851, 9.998846 
4.1503572e+2, 2.651674e+2, -359910.0, -562449.25, -60048.48, 0.03297149, 0.060196243, -343445.38, -2075.8665, 0.0, 10.000763, 9.99809 
4.15038e+2, 2.7516583e+2, -306275.8, -490586.78, -50487.53, 0.010157874, 0.064390406, -293352.16, -49966.46, 0.0, 10.000469, 9.998055 
4.1504136e+2, 2.8516442e+2, -155325.39, -377142.44, -1430.0319, 0.030396378, 0.1257652, -155316.17, -9916.091, 0.00000000001177225, 10.000864, 9.997981 
4.1504586e+2, 2.9516298e+2, 54018.895, -222654.13, 44328.82, 0.08757416, 0.14176834, 60947.777, 108361.94, 0.0000013022876, 10.001615, 9.998002 
4.1504845e+2, 3.0516025e+2, 106352.42, -142558.9, 43931.547, -0.08498938, 0.066813424, 113878.55, 113878.55, 0.000014575742, 10.001552, 9.998251 
4.1505286e+2, 3.151582e+2, -72275.44, -176972.17, 37011.7, -0.019739544, 0.0011149588, -60512.824, -60512.824, 0.000055427667, 10.000019, 9.998759 
4.2498398e+2, 1.2517487e+2, -1760350.6, -1897154.9, 116990.29, -0.099011146, 0.10948491, -1693233.1, 20063.512, 0.00012015749, 10.000256, 9.998611 
4.24988e+2, 1.3517313e+2, -1361405.6, -1629025.8, -99384.81, 0.14259876, 0.0071860873, -1328534.9, 286779.34, 0.00006079175, 10.002271, 9.99881 
4.2499042e+2, 1.4517261e+2, -1162505.6, -1445750.4, 52205.68, 0.011771367, 0.060440335, -1153189.9, 364130.63, 0.00002257458, 10.002833, 9.9991045 
4.249945e+2, 1.5517315e+2, -1236764.9, -1439752.3, -9395.307, -0.0782596, 0.1713824, -1236330.9, 182985.48, 0.0000044461326, 10.001696, 9.999023 
4.2499962e+2, 1.6517232e+2, -1206211.8, -1385862.0, -26278.4, -0.004304954, 0.19987576, -1202446.8, 118878.63, 0.00000009724189, 10.001283, 9.998918 
4.2500454e+2, 1.751702e+2, -1070232.9, -1266557.8, 1932.5424, 0.08900271, 0.061563164, -1070213.9, 153132.53, 0.0, 10.001524, 9.998951 
4.2500824e+2, 1.8516959e+2, -929736.5, -1074945.6, -15069.943, 0.0944707, 0.07585116, -928189.0, 197162.7, 0.0, 10.001493, 9.999614 
4.2501125e+2, 1.9517004e+2, -881063.2, -1007984.44, -78491.94, 0.06475173, 0.13086651, -843587.06, 183758.75, 0.0, 10.001181, 9.999555 
4.2501456e+2, 2.0516948e+2, -871337.2, -1088901.9, -50346.887, 0.046659943, 0.18582354, -860251.25, 69101.63, 0.0, 10.001173, 9.9983225 
4.250179e+2, 2.1516772e+2, -738707.94, -975908.56, -7030.9736, 0.017882464, 0.14675549, -738499.75, 92874.72, 0.0, 10.00141, 9.998317 
4.2502165e+2, 2.2516711e+2, -617265.44, -713884.94, 34982.61, 0.007392707, 0.19221167, -605929.44, 127451.85, 0.0, 10.000931, 9.999664 
4.2502573e+2, 2.3516749e+2, -692295.6, -702713.9, -6299.296, 0.009693587, 0.23193213, -689330.6, -53955.066, 0.0, 9.999754, 9.999639 
4.2502972e+2, 2.4516669e+2, -650388.75, -689930.44, -24024.14, 0.021340722, 0.21930307, -639046.1, -101664.98, 0.0, 9.999615, 9.999121 
4.2503363e+2, 2.551645e+2, -425847.53, -535516.44, -44734.09, 0.049153257, 0.05690284, -409915.06, 29485.041, 0.0, 10.000496, 9.999086 
4.2503685e+2, 2.6516318e+2, -329317.72, -561961.4, -84087.33, 0.063313566, 0.07798044, -302107.5, 39305.957, 0.0, 10.001036, 9.99797 
4.2503932e+2, 2.7516243e+2, -203673.97, -450616.0, -106603.75, 0.064814106, 0.17634349, -164020.95, 79402.95, 0.0, 10.0012245, 9.997968 
4.2504263e+2, 2.8516108e+2, -133992.25, -332076.34, -38252.926, 0.07765982, 0.23490866, -126861.73, 18576.418, 0.0000000012455732, 10.000894, 9.9982605 
4.250471e+2, 2.9515898e+2, -147352.11, -286602.2, -35175.383, 0.13520636, 0.16253331, -138971.03, -91513.32, 0.0000019825331, 10.0001, 9.998288 
4.2505047e+2, 3.0515698e+2, -10377.142, -129100.945, -12078.765, 0.030090293, 0.109685734, -9160.73, -9160.73, 0.000019679212, 10.000446, 9.998878 
4.2505386e+2, 3.1515524e+2, 206647.39, 2684.9858, -94564.516, 0.007864791, 0.012529014, 243743.92, 243743.92, 0.00007104561, 10.001733, 9.9991665 
4.3498355e+2, 1.251717e+2, -1666090.6, -1674393.5, 137296.92, -0.23851429, 0.36048326, -1532882.4, 180458.34, 0.00011272219, 10.000179, 10.000167 
4.349905e+2, 1.3517036e+2, -1268194.8, -1432805.3, -6915.393, 0.12608188, 0.16306955, -1267904.8, 347439.8, 0.00005585788, 10.002279, 10.00015 
4.3499175e+2, 1.4516921e+2, -1227742.5, -1575533.5, 596.4538, -0.17505965, 0.13647835, -1227741.5, 289612.28, 0.000019900395, 10.002798, 9.998236 
4.3499574e+2, 1.5516825e+2, -1287425.5, -1554609.4, -36029.508, -0.16091616, 0.17793135, -1282652.3, 136716.14, 0.0000034951138, 10.001721, 9.998229 
4.3500066e+2, 1.6516769e+2, -1141725.6, -1231111.0, -30847.059, -0.062050216, 0.2180962, -1132113.8, 189259.7, 0.000000032016867, 10.001204, 10.000013 
4.350053e+2, 1.7516749e+2, -1006483.25, -1116434.9, 23355.77, -0.01660061, 0.16003163, -1001727.75, 221642.86, 0.0, 10.001454, 10.000011 
4.3500897e+2, 1.851666e+2, -1042717.06, -1281890.3, -39115.125, -0.008347782, 0.16529834, -1036482.56, 88897.18, 0.0, 10.001377, 9.99825 
4.3501216e+2, 1.9516492e+2, -989126.75, -1203969.1, -74698.836, 0.0075579397, 0.14061217, -965707.5, 61694.79, 0.0, 10.001064, 9.998265 
4.3501598e+2, 2.0516454e+2, -790363.25, -885540.1, -53869.785, 0.045918297, 0.20313804, -766072.5, 163335.13, 0.0, 10.001023, 9.999789 
4.350202e+2, 2.1516515e+2, -662520.8, -780926.2, 13786.674, 0.07961903, 0.25349623, -660936.75, 170462.53, 0.0, 10.001253, 9.999729 
4.3502325e+2, 2.2516453e+2, -690966.3, -830550.75, -21900.008, 0.050791733, 0.26517248, -687610.94, 45792.73, 0.0, 10.000775, 9.998939 
4.3502522e+2, 2.3516251e+2, -762459.56, -814594.7, -36395.56, -0.042778663, 0.13677277, -743759.4, -108336.76, 0.0, 9.999607, 9.99894 
4.3502876e+2, 2.4516127e+2, -681432.25, -728717.25, -3788.946, -0.061269525, 0.12727793, -681130.56, -143695.81, 0.0, 9.999512, 9.9988985 
4.3503374e+2, 2.5516057e+2, -457928.94, -573960.94, 1903.4727, -0.018817386, 0.13257523, -457897.72, -18455.004, 0.0, 10.000381, 9.998872 
4.3503755e+2, 2.6515982e+2, -348091.56, -592792.44, -87621.98, 0.0046967342, 0.22993053, -319952.0, 21500.998, 0.0, 10.000997, 9.997779 
4.350402e+2, 2.7515867e+2, -226843.61, -482082.44, -84148.1, -0.0014371489, 0.30626786, -201598.33, 41870.223, 0.0, 10.001144, 9.997793 
4.350434e+2, 2.8515685e+2, -135976.77, -323847.53, -79049.42, 0.032342874, 0.322978, -107141.36, 38346.93, 0.000000012355592, 10.000852, 9.998331 
4.3504772e+2, 2.9515427e+2, -157670.97, -291823.97, -48029.21, 0.14877582, 0.19299369, -142248.61, -94734.984, 0.0000027662056, 10.000038, 9.99828 
4.3505248e+2, 3.051538e+2, 32940.13, -44365.348, 26704.57, 0.15701762, 0.26274538, 41267.9, 41267.9, 0.000024180765, 10.000459, 9.999455 
4.3505505e+2, 3.1515327e+2, 252151.1, 120527.875, -10191.51, -0.1164828, 0.22502135, 252935.55, 252935.55, 0.00008333817, 10.00163, 10.000029 
4.449841e+2, 1.2516631e+2, -1622895.9, -1569022.8, 151842.11, -0.1785184, 0.41165504, -1441746.5, 271652.25, 0.00010688196, 10.00015, 10.0008955 
4.4499266e+2, 1.3516584e+2, -1481313.8, -1461634.8, -48646.797, 0.21811047, 0.23775035, -1421842.4, 193548.78, 0.000051033883, 10.000524, 10.000802 
4.449931e+2, 1.4516482e+2, -1468129.3, -1684905.6, -51647.402, -0.22843042, 0.18711936, -1456453.0, 60944.89, 0.000017295639, 10.001115, 9.998294 
4.4499785e+2, 1.5516308e+2, -1313405.1, -1557996.5, -58334.74, -0.10308564, 0.14435501, -1300204.8, 119214.89, 0.0000027656245, 10.001507, 9.998303 
4.4500265e+2, 1.651626e+2, -1102495.8, -1199344.4, -17709.63, 0.016934196, 0.17760463, -1099359.0, 222065.03, 0.000000035556127, 10.001388, 10.000161 
4.4500628e+2, 1.7516312e+2, -1092399.0, -1143207.4, -57434.49, -0.02230828, 0.17944448, -1055001.1, 168412.28, 0.0, 10.000784, 10.000163 
4.4500968e+2, 1.8516262e+2, -1118232.9, -1304749.9, -58923.2, -0.04048069, 0.20896243, -1101177.8, 24241.604, 0.0, 10.000819, 9.998349 
4.4501337e+2, 1.9516082e+2, -937709.75, -1168469.3, -16311.199, 0.013129372, 0.16504972, -936562.5, 90881.41, 0.0, 10.001383, 9.998345 
4.450172e+2, 2.0516038e+2, -757486.6, -863014.6, 10167.982, 0.060723316, 0.21636918, -756515.8, 172934.14, 0.0, 10.00124, 9.999831 
4.45021e+2, 2.1516098e+2, -783840.5, -832610.0, -54745.008, 0.08575049, 0.2630104, -748295.06, 83145.92, 0.0, 10.0004015, 9.999778 
4.4502383e+2, 2.2516018e+2, -772019.56, -880086.3, -93116.23, 0.065791786, 0.2578794, -718395.0, 15051.844, 0.0, 10.000261, 9.998846 
4.4502586e+2, 2.351578e+2, -607839.75, -755107.7, -87639.83, 0.009723749, 0.10487723, -567006.7, 68462.67, 0.0, 10.000729, 9.998811 
4.4502908e+2, 2.4515669e+2, -527586.5, -676263.7, 10976.891, -0.02781816, 0.12223043, -526780.44, 10700.949, 0.0, 10.000654, 9.998709 
4.450336e+2, 2.551566e+2, -519754.9, -622096.56, -7084.598, -0.04634115, 0.2058092, -519266.78, -79781.414, 0.0, 10.000037, 9.998704 
4.4503793e+2, 2.6515594e+2, -452509.6, -606161.06, -38205.563, -0.007394061, 0.30366558, -443534.06, -102039.27, 0.0, 10.000125, 9.998099 
4.450419e+2, 2.7515444e+2, -234305.89, -453020.1, -25367.262, 0.07288426, 0.31502062, -231402.25, 12109.908, 0.0, 10.000954, 9.998082 
4.450449e+2, 2.8515258e+2, -75060.64, -317080.8, -23520.611, 0.08167908, 0.32303724, -72795.99, 72736.88, 0.00000003062236, 10.00135, 9.998146 
4.4504777e+2, 2.951502e+2, -8817.351, -231664.81, -44409.457, 0.104438975, 0.22831464, -293.3933, 47265.33, 0.0000032986038, 10.001121, 9.998168 
4.450534e+2, 3.051504e+2, 12781.098, -54371.05, 61268.145, 0.22200242, 0.37386206, 49070.164, 49070.164, 0.000027227657, 10.000328, 9.999436 
4.450568e+2, 3.1515053e+2, -68870.984, -1887.1147, -41813.668, 0.023555988, 0.40261868, 18194.197, 18194.197, 0.000091368296, 9.999301, 10.000293 
4.5498464e+2, 1.2515861e+2, -1638464.1, -1600549.1, 42318.902, -0.2115156, 0.24231035, -1573135.5, 140335.9, 0.000102696926, 10.000145, 10.00068 
4.5499396e+2, 1.3515952e+2, -1480100.8, -1476756.8, -16420.8, 0.2586071, 0.22121914, -1461923.0, 153531.66, 0.000047349753, 10.000579, 10.000678 
4.549939e+2, 1.4515916e+2, -1408103.8, -1543643.4, -42517.36, -0.2998708, 0.19190069, -1395870.5, 121584.484, 0.000015080613, 10.001055, 9.999288 
4.5500043e+2, 1.551576e+2, -1251672.4, -1421765.1, -28698.932, -0.030647965, 0.06919571, -1246960.6, 172510.73, 0.0000021144335, 10.001481, 9.999248 
4.5500523e+2, 1.6515695e+2, -1158634.4, -1305158.5, -57410.93, 0.10229092, 0.077666506, -1138819.4, 182658.27, 0.00000004449902, 10.001333, 9.999461 
4.5500708e+2, 1.7515711e+2, -1140923.9, -1243266.8, -65250.918, -0.05486835, 0.114188015, -1109172.5, 114302.57, 0.0, 10.000772, 9.999482 
4.550099e+2, 1.8515755e+2, -1029378.0, -1098308.3, -50601.434, -0.12470745, 0.19588706, -1002619.4, 122851.98, 0.0, 10.000728, 9.999807 
4.550144e+2, 1.9515783e+2, -860079.56, -973848.4, 14890.292, -0.05118348, 0.21078885, -858163.0, 169307.45, 0.0, 10.001245, 9.9997425 
4.5501775e+2, 2.051571e+2, -875130.1, -1073209.0, -35518.58, -0.035230026, 0.23647517, -868953.7, 60525.46, 0.0, 10.001088, 9.998464 
4.5501986e+2, 2.151553e+2, -901684.5, -1032550.8, -71816.4, -0.09514348, 0.17812668, -869962.6, -38464.086, 0.0, 10.000214, 9.998492 
4.5502305e+2, 2.2515419e+2, -760315.44, -821969.0, -86696.23, -0.06616869, 0.1788244, -699128.5, 34381.164, 0.0, 10.000108, 9.999325 
4.550271e+2, 2.3515342e+2, -591483.56, -691611.56, -55760.15, 0.03466134, 0.13775168, -566610.25, 68905.26, 0.0, 10.000597, 9.999311 
4.550303e+2, 2.4515298e+2, -555421.75, -702545.3, -24417.541, 0.00033467388, 0.20443715, -551475.1, -13954.317, 0.0, 10.000528, 9.998591 
4.5503283e+2, 2.5515252e+2, -543811.1, -642175.7, -15197.46, -0.15618186, 0.26745248, -541516.6, -101988.09, 0.0, 9.99991, 9.9986315 
4.5503756e+2, 2.6515147e+2, -412360.88, -505147.13, -17428.594, -0.086978905, 0.2899922, -409195.2, -67655.25, 0.0, 10.000052, 9.998823 
4.5504403e+2, 2.751497e+2, -201802.11, -361570.88, 23317.293, 0.158954, 0.19614525, -198468.64, 45087.203, 0.0, 10.000854, 9.998753 
4.5504677e+2, 2.8514832e+2, -107566.59, -378147.13, -44079.664, 0.10440083, 0.24144945, -100566.76, 45004.766, 0.000000022691747, 10.001313, 9.997748 
4.5504677e+2, 2.951467e+2, -34447.582, -279554.75, -40855.02, -0.14603469, 0.26828197, -27817.137, 19775.764, 0.0000033720132, 10.001077, 9.9978695 
4.550528e+2, 3.0514675e+2, -30040.26, -135567.36, 12375.934, 0.09464372, 0.43647844, -28608.275, -28608.275, 0.000028360193, 10.00031, 9.99888 
4.5505837e+2, 3.1514663e+2, -106086.67, -62982.492, 2871.6714, 0.18428086, 0.4964915, -62792.02, -62792.02, 0.00009465621, 9.999235, 9.999904 
4.6498674e+2, 1.2515317e+2, -1493062.8, -1585550.3, 64575.063, -0.06267354, 0.16242279, -1459880.9, 253640.33, 0.00009773488, 10.001341, 10.000204 
4.649952e+2, 1.3515413e+2, -1424176.9, -1503574.6, 54314.445, 0.31224832, 0.1843643, -1396599.8, 218908.78, 0.000043477085, 10.001152, 10.000229 
4.6499485e+2, 1.451542e+2, -1355043.0, -1453844.6, 43335.543, -0.30660683, 0.1914287, -1338729.3, 178776.63, 0.000012657647, 10.001137, 9.999869 
4.650022e+2, 1.5515356e+2, -1262851.1, -1362200.6, -8577.486, 0.02455215, 0.104329094, -1262116.0, 157395.3, 0.0000014631825, 10.0011215, 9.999836 
4.6500683e+2, 1.6515312e+2, -1202969.0, -1318058.1, -11440.395, 0.1557698, 0.09924508, -1201842.9, 119671.875, 0.000000030371112, 10.001015, 9.999516 
4.650079e+2, 1.7515267e+2, -1126390.1, -1229471.0, 7544.784, -0.04608245, 0.06838796, -1125840.8, 97677.195, 0.0, 10.000857, 9.999531 
4.6501064e+2, 1.8515319e+2, -1015351.8, -1068142.8, 47262.277, -0.1163094, 0.14246306, -987613.75, 137899.39, 0.0, 10.000701, 10.000038 
4.6501553e+2, 1.9515423e+2, -952744.5, -994408.6, -1142.3652, -0.014381209, 0.21303761, -952713.25, 74790.37, 0.0, 10.000479, 9.999985 
4.650189e+2, 2.0515355e+2, -958830.5, -1132084.1, -34059.26, 0.0057565323, 0.23617299, -952375.44, -22863.76, 0.0, 10.000576, 9.998311 
4.6502066e+2, 2.15151e+2, -802532.4, -1008353.56, -10537.893, -0.06826004, 0.11992164, -801994.25, 29544.479, 0.0, 10.000979, 9.998299 
4.6502373e+2, 2.2514994e+2, -646746.7, -780058.1, 28505.496, -0.042182397, 0.1437605, -640907.25, 92643.25, 0.0, 10.000963, 9.999185 
4.6502802e+2, 2.3515005e+2, -602338.2, -712311.2, -16202.15, 0.0736031, 0.20453814, -600000.8, 35549.344, 0.0, 10.000605, 9.999155 
4.650312e+2, 2.4514963e+2, -535746.25, -681099.94, 19112.629, 0.046454787, 0.27427313, -533275.1, 4280.2485, 0.0, 10.000596, 9.998706 
4.6503365e+2, 2.5514844e+2, -392355.75, -558904.25, 20381.908, -0.105360195, 0.25059944, -389897.72, 49670.57, 0.0, 10.000893, 9.99873 
4.6503833e+2, 2.6514715e+2, -277726.3, -426915.97, 41041.766, -0.048567712, 0.23950428, -267181.16, 74399.36, 0.0, 10.000903, 9.998963 
4.6504486e+2, 2.7514562e+2, -234916.9, -363218.25, 15237.385, 0.17761602, 0.15730724, -233132.11, 10461.1875, 0.0, 10.000555, 9.998896 
4.6504763e+2, 2.8514442e+2, -194082.23, -439087.72, -28519.979, 0.09140784, 0.22287297, -190806.16, -45198.82, 0.00000001636591, 10.000809, 9.997569 
4.6504778e+2, 2.9514298e+2, 54474.72, -241160.38, -52596.344, -0.17768456, 0.2804096, 63553.324, 111181.36, 0.0000038591365, 10.001719, 9.997814 
4.650538e+2, 3.0514264e+2, 141973.98, -88722.63, -6505.266, 0.10987623, 0.42413643, 142157.28, 142157.28, 0.000029778155, 10.001608, 9.998611 
4.6505907e+2, 3.151413e+2, 55616.527, -9834.835, 10239.413, 0.28790432, 0.39965805, 57181.016, 57181.016, 0.00009717631, 10.000436, 9.999711 
4.749893e+2, 1.2514988e+2, -1555671.0, -1677629.1, -109338.48, -0.019247046, 0.17207311, -1491456.9, 222092.52, 0.00009217974, 10.001217, 9.999615 
4.749961e+2, 1.3514964e+2, -1467375.5, -1585506.8, 66226.0, 0.24672624, 0.13429883, -1437702.0, 177850.94, 0.00003847725, 10.001145, 9.999655 
4.749954e+2, 1.4514996e+2, -1342651.9, -1425881.8, 29077.467, -0.40750808, 0.18724093, -1333499.8, 184050.47, 0.000009911169, 10.001112, 10.000081 
4.750026e+2, 1.5515104e+2, -1240032.5, -1322839.8, 4147.2954, -0.08376966, 0.24504468, -1239825.4, 179714.1, 0.0000009593812, 10.001143, 10.000102 
4.7500718e+2, 1.6515104e+2, -1157707.6, -1210422.4, -30682.393, 0.053286105, 0.23302886, -1143616.0, 177920.08, 0.000000014696447, 10.0009575, 10.000286 
4.7500843e+2, 1.7514972e+2, -1082785.3, -1126301.0, 16792.494, -0.1110257, 0.041667715, -1077058.8, 146484.4, 0.0, 10.000805, 10.000268 
4.7501135e+2, 1.851495e+2, -1090500.9, -1203760.5, 27406.055, -0.1456637, 0.054468155, -1084217.9, 41326.71, 0.0, 10.000609, 9.999154 
4.750164e+2, 1.951501e+2, -1025818.7, -1127297.4, 5957.026, -0.0065698293, 0.16927697, -1025470.2, 2072.8467, 0.0, 10.000392, 9.99912 
4.7502026e+2, 2.0514973e+2, -908567.8, -994286.44, -30804.705, 0.059280727, 0.21376064, -898646.0, 30901.703, 0.0, 10.00044, 9.999318 
4.7502294e+2, 2.1514817e+2, -758677.7, -874553.94, 17665.965, 0.037086, 0.09448373, -756044.25, 75516.44, 0.0, 10.000805, 9.999295 
4.7502553e+2, 2.251475e+2, -720879.0, -908536.56, 2673.96, 0.015724357, 0.1510226, -720840.94, 12728.165, 0.0, 10.000837, 9.998372 
4.7502816e+2, 2.3514754e+2, -678353.9, -838152.2, -15292.794, 0.00028243015, 0.285687, -676903.5, -41328.574, 0.0, 10.00046, 9.998366 
4.750315e+2, 2.4514653e+2, -528943.06, -642085.2, 19574.691, -0.015842233, 0.31927946, -525652.2, 11934.193, 0.0, 10.000486, 9.999027 
4.7503564e+2, 2.551443e+2, -389952.94, -529996.9, 46123.473, -0.027900623, 0.15667973, -376127.13, 63478.46, 0.0, 10.000779, 9.998986 
4.750399e+2, 2.65143e+2, -317073.94, -487133.47, 15597.521, -0.011719426, 0.15490712, -315655.22, 25961.791, 0.0, 10.000818, 9.998586 
4.750439e+2, 2.7514228e+2, -273051.06, -419012.3, 18507.697, -0.0046741725, 0.19245937, -270740.88, -27116.414, 0.0, 10.0004635, 9.998552 
4.7504705e+2, 2.8514087e+2, -199441.97, -449524.78, -8463.361, -0.08022394, 0.25590315, -199155.88, -53514.938, 0.0000000367379, 10.000794, 9.997508 
4.7505024e+2, 2.9513872e+2, 39228.32, -259066.94, -5130.676, -0.14536548, 0.24431688, 39316.543, 86983.48, 0.000004901276, 10.001638, 9.99774 
4.7505596e+2, 3.0513784e+2, 135612.4, -82115.984, -65973.4, 0.14138013, 0.333475, 154042.77, 154042.77, 0.000032907166, 10.001535, 9.998684 
4.7505802e+2, 3.151345e+2, 49950.188, -9611.587, 53573.777, 0.06518641, 0.11144342, 81464.086, 81464.086, 0.00010232853, 10.000393, 9.999725 
4.8499137e+2, 1.25147e+2, -1644298.1, -1713837.1, -160277.66, 0.115660064, 0.19812857, -1515062.0, 198516.97, 0.00008688649, 10.000575, 9.999694 
4.8499706e+2, 1.3514686e+2, -1487290.5, -1598778.4, 110649.086, 0.25249374, 0.17711636, -1419136.9, 196444.69, 0.000032757685, 10.001015, 9.999646 
4.849974e+2, 1.4514714e+2, -1366059.8, -1440215.3, 111586.05, -0.30199903, 0.22997841, -1285552.6, 232026.42, 0.000007215262, 10.000973, 10.000044 
4.8500383e+2, 1.5514788e+2, -1313352.5, -1366409.3, 28616.281, -0.044133175, 0.25740737, -1300859.8, 118711.734, 0.00000059770906, 10.000675, 10.000027 
4.8500806e+2, 1.651479e+2, -1206603.4, -1230284.0, -9038.404, 0.0740751, 0.2479903, -1203547.8, 118020.02, 0.0000000048834687, 10.00061, 10.000312 
4.850098e+2, 1.7514694e+2, -1085193.1, -1121052.8, -38792.074, -0.0425106, 0.08869, -1060387.6, 163183.03, 0.0, 10.000777, 10.000304 
4.8501274e+2, 1.8514632e+2, -1070274.4, -1231029.0, -10823.284, -0.07598547, 0.07594378, -1069548.9, 56026.605, 0.0, 10.000921, 9.998806 
4.8501715e+2, 1.9514582e+2, -961000.9, -1127146.3, -15444.944, 0.01010236, 0.10979403, -959577.3, 68006.92, 0.0, 10.000992, 9.998814 
4.8502102e+2, 2.0514533e+2, -795866.5, -911581.06, -24567.91, 0.067472294, 0.14637533, -790866.44, 138722.64, 0.0, 10.001081, 9.999593 
4.8502442e+2, 2.1514459e+2, -705277.3, -815059.75, -49991.418, 0.10202846, 0.08353516, -685924.44, 145668.44, 0.0, 10.001023, 9.999607 
4.85027e+2, 2.2514415e+2, -708882.7, -905056.9, -53614.363, 0.077368334, 0.14572357, -695186.2, 38412.586, 0.0, 10.00093, 9.998353 
4.8502868e+2, 2.3514372e+2, -629510.1, -822163.5, -39344.22, -0.0030274403, 0.23840499, -621784.94, 13824.312, 0.0, 10.000811, 9.998315 
4.8503208e+2, 2.4514255e+2, -494498.13, -626384.75, 52250.813, -0.012373273, 0.25920814, -476306.63, 61315.785, 0.0, 10.00073, 9.999017 
4.850371e+2, 2.5514057e+2, -411166.16, -537865.2, 23893.467, 0.05346422, 0.12404722, -406810.0, 32829.3, 0.0, 10.000643, 9.998992 
4.850412e+2, 2.6513943e+2, -353308.44, -535164.2, 6699.953, 0.05177493, 0.1503628, -353061.94, -11411.659, 0.0, 10.000695, 9.998316 
4.8504424e+2, 2.7513862e+2, -231088.16, -429564.84, -10251.847, -0.029570587, 0.20692468, -230560.03, 13100.355, 0.0, 10.000872, 9.998289 
4.8504758e+2, 2.851369e+2, -158719.27, -401879.3, 27549.328, -0.105905294, 0.2397423, -155637.08, -9957.767, 0.00000008825205, 10.000946, 9.997765 
4.850519e+2, 2.9513457e+2, -54904.11, -280760.28, 17378.602, -0.09143164, 0.18631883, -53574.727, -5870.5127, 0.0000056092463, 10.000888, 9.997951 
4.8505697e+2, 3.0513367e+2, -34838.055, -199141.81, -60978.168, 0.15230826, 0.2793067, -14680.265, -14680.265, 0.000035389916, 10.000516, 9.998359 
4.8505807e+2, 3.1513e+2, -11084.416, -19759.842, 25128.414, 0.07190693, 0.054006424, 10077.929, 10077.929, 0.00010599746, 9.999887, 9.999893 
4.9499154e+2, 1.2514448e+2, -1584340.5, -1604526.6, -284475.16, -0.00345577, 0.24688074, -1309779.4, 403831.4, 0.00007926606, 10.000636, 10.000414 
4.9499765e+2, 1.3514572e+2, -1442158.6, -1511748.4, 136116.03, 0.17874508, 0.30195254, -1336460.6, 279134.13, 0.000026309035, 10.001038, 10.000231 
4.9500042e+2, 1.4514571e+2, -1404068.3, -1503427.3, 85309.234, -0.1375039, 0.31644118, -1355027.4, 162564.92, 0.0000047383246, 10.000907, 9.999641 
4.9500537e+2, 1.5514417e+2, -1345273.8, -1427313.1, 31852.688, 0.009099207, 0.15414761, -1334358.8, 85248.01, 0.0000002991547, 10.000654, 9.999619 
4.950091e+2, 1.6514377e+2, -1257119.6, -1326134.8, -17486.277, 0.08504154, 0.15688604, -1252942.1, 68666.82, 0.0000000005507737, 10.000566, 9.999678 
4.9501175e+2, 1.751443e+2, -1134370.5, -1214738.9, -21690.666, 0.04051248, 0.20912094, -1128890.1, 94711.12, 0.0, 10.000737, 9.999682 
4.9501446e+2, 1.8514355e+2, -1069605.3, -1207005.4, -20477.379, -0.024579408, 0.20362096, -1066618.4, 58988.54, 0.0, 10.000827, 9.999014 
4.9501744e+2, 1.9514132e+2, -960222.7, -1105168.5, -2656.3672, -0.094779044, 0.043421652, -960174.06, 67453.87, 0.0, 10.000901, 9.99901 
4.950208e+2, 2.0514037e+2, -837824.3, -968716.44, -41946.71, -0.084062256, 0.039980087, -825535.5, 104100.62, 0.0, 10.000945, 9.99927 
4.950247e+2, 2.151404e+2, -747460.75, -875635.5, -38691.035, 0.0011437795, 0.087106615, -736687.0, 94947.51, 0.0, 10.000893, 9.999262 
4.9502745e+2, 2.2513983e+2, -685956.9, -817616.56, -68372.82, 0.009247551, 0.121372566, -656874.06, 76765.91, 0.0, 10.00077, 9.999024 
4.9502918e+2, 2.3513852e+2, -605851.4, -733214.9, -27365.586, -0.06337956, 0.055546436, -600220.5, 35433.406, 0.0, 10.000646, 9.9990015 
4.9503252e+2, 2.4513772e+2, -535701.2, -684384.25, 36668.67, -0.06759454, 0.09704826, -527149.7, 10513.423, 0.0, 10.000617, 9.998672 
4.9503753e+2, 2.5513712e+2, -448987.5, -595231.7, 35489.68, 0.000108671986, 0.13694747, -440830.1, -1159.2047, 0.0, 10.000548, 9.998645 
4.9504188e+2, 2.6513618e+2, -377387.94, -563728.2, -1262.7703, 0.01833396, 0.20864378, -377379.38, -35696.78, 0.0, 10.000612, 9.998155 
4.9504536e+2, 2.7513462e+2, -263420.2, -462586.2, 11499.302, -0.035384417, 0.20180309, -262758.44, -19057.275, 0.0, 10.000735, 9.998122 
4.9504873e+2, 2.8513277e+2, -125968.625, -319463.22, 14866.033, -0.119770765, 0.19739446, -124833.14, 20886.975, 0.00000018947561, 10.000887, 9.998357 
4.950525e+2, 2.951306e+2, -25892.9, -209956.22, 31299.172, -0.16372055, 0.11040255, -20716.203, 27023.12, 0.000005650319, 10.000846, 9.998453 
4.9505657e+2, 3.0513012e+2, -79387.016, -297015.13, -92797.16, 0.028923528, 0.2556287, -45191.24, -45191.24, 0.00003451672, 10.000529, 9.997684 
4.950582e+2, 3.1512776e+2, 1597.6521, 20218.482, 67117.44, 0.021207, 0.21237816, 78668.19, 78668.19, 0.00010176044, 9.999824, 10.000197 
5.049931e+2, 1.2514345e+2, -1461792.3, -1581551.6, -141405.45, 0.04974827, 0.26541752, -1368110.6, 345509.44, 0.000066640154, 10.001665, 10.000056 
5.049983e+2, 1.3514364e+2, -1339852.4, -1521724.8, 176712.69, 0.11084662, 0.26651734, -1232050.6, 383563.0, 0.0000195532, 10.001995, 9.999698 
5.0500345e+2, 1.4514299e+2, -1324749.4, -1511492.3, 93319.06, 0.04728705, 0.26563635, -1286110.8, 231506.94, 0.0000028130235, 10.001669, 9.999211 
5.050065e+2, 1.551413e+2, -1301280.8, -1448067.1, 4782.3447, 0.043487206, 0.13321729, -1301125.1, 118508.805, 0.00000011765629, 10.001161, 9.999221 
5.050097e+2, 1.6514078e+2, -1240340.9, -1365954.4, 6517.287, 0.080154724, 0.16266862, -1240003.6, 81634.98, 0.000000000026416515, 10.000877, 9.999258 
5.050133e+2, 1.7514111e+2, -1166939.6, -1279080.6, -7966.625, 0.13271524, 0.23957297, -1166376.5, 57258.406, 0.0, 10.000708, 9.999262 
5.050162e+2, 1.8514015e+2, -1073800.0, -1198830.8, 29783.734, 0.080547154, 0.23025557, -1067067.6, 58574.863, 0.0, 10.000754, 9.999109 
5.050186e+2, 1.9513772e+2, -943044.3, -1086553.3, 17129.654, -0.060764197, 0.0463037, -941028.0, 86635.164, 0.0, 10.00098, 9.999102 
5.0502175e+2, 2.051367e+2, -830196.7, -977804.2, -6630.9556, -0.084177494, 0.03804029, -829899.44, 99772.31, 0.0, 10.001075, 9.999125 
5.050256e+2, 2.1513678e+2, -753234.56, -891670.56, -23251.91, 0.012106824, 0.10195771, -749433.5, 82237.62, 0.0, 10.000937, 9.99911 
5.050285e+2, 2.2513607e+2, -627470.9, -768453.56, -30197.1, 0.02422994, 0.12024649, -621275.25, 112402.04, 0.0, 10.00107, 9.999227 
5.050303e+2, 2.351345e+2, -493397.28, -650951.5, -53211.207, -0.038818587, 0.006488226, -477109.84, 158581.34, 0.0, 10.001315, 9.999237 
5.050336e+2, 2.4513374e+2, -456914.4, -683675.75, 14682.0205, -0.049201585, 0.05679042, -455967.75, 81732.305, 0.0, 10.001308, 9.998349 
5.050384e+2, 2.5513345e+2, -388470.84, -600929.3, -8486.795, 0.0077530094, 0.15940513, -388132.34, 51575.05, 0.0, 10.001107, 9.998341 
5.050426e+2, 2.6513255e+2, -330344.34, -518103.88, 445.08566, 0.028822066, 0.23979191, -330343.28, 11375.979, 0.0, 10.00083, 9.998372 
5.050462e+2, 2.7513087e+2, -299374.22, -456222.0, 6939.2383, 0.0012720214, 0.19906026, -299067.8, -55329.957, 0.00000000061010413, 10.0003805, 9.998341 
5.050498e+2, 2.851293e+2, -167808.84, -290179.4, 61233.438, -0.06154646, 0.1926855, -142431.02, 3321.615, 0.00000027597625, 10.000394, 9.998796 
5.050539e+2, 2.9512784e+2, -4293.702, -159753.11, 31182.885, -0.10028596, 0.13164157, 1727.8875, 49492.195, 0.0000049916057, 10.000826, 9.998815 
5.050571e+2, 3.051267e+2, -58033.22, -317340.38, -79414.35, 0.026588202, 0.21228088, -35645.06, -35645.06, 0.000030276777, 10.000807, 9.997414 
5.050587e+2, 3.151253e+2, 54113.832, 56115.26, 73414.72, 0.089535095, 0.2814892, 128536.09, 128536.09, 0.000090633286, 10.000139, 10.000295 
5.1499486e+2, 1.2514402e+2, -1563194.9, -1802450.6, -159778.89, -0.011187164, 0.26348746, -1483222.9, 230382.64, 0.000052165007, 10.001697, 9.998528 
5.149988e+2, 1.351407e+2, -1448589.5, -1759177.5, 199536.86, -0.07987234, 0.07389677, -1351037.3, 264599.9, 0.000013925394, 10.002041, 9.998048 
5.150062e+2, 1.4513902e+2, -1359918.4, -1583983.9, 55519.723, 0.10603958, 0.07938885, -1346916.0, 170737.92, 0.000001645238, 10.00166, 9.998724 
5.150069e+2, 1.5513922e+2, -1337880.9, -1520153.8, 1839.635, -0.06839263, 0.18476057, -1337862.4, 81790.945, 0.00000003629146, 10.001141, 9.998742 
5.150094e+2, 1.6513883e+2, -1268700.8, -1404228.4, -9885.557, -0.06692735, 0.2605, -1267983.5, 53674.29, 0.0, 10.000793, 9.99903 
5.1501405e+2, 1.7513748e+2, -1191497.8, -1317336.5, -263.00778, 0.09992164, 0.18831699, -1191497.3, 32173.633, 0.0, 10.00066, 9.999016 
5.1501757e+2, 1.8513633e+2, -1083884.9, -1202237.1, 25800.281, 0.10909044, 0.17064075, -1078505.1, 47175.504, 0.0, 10.000676, 9.99912 
5.150203e+2, 1.9513513e+2, -950145.8, -1089725.3, 40492.824, -0.022638585, 0.10550398, -939249.25, 88440.234, 0.0, 10.00092, 9.999109 
5.1502335e+2, 2.0513427e+2, -863600.3, -1010375.2, -24452.75, -0.054172765, 0.121318616, -859633.7, 70063.1, 0.0, 10.0009165, 9.998978 
5.1502687e+2, 2.1513358e+2, -781063.44, -917665.7, -15741.864, 0.009462471, 0.116293676, -779272.8, 52431.51, 0.0, 10.000794, 9.9990015 
5.150296e+2, 2.2513269e+2, -661272.56, -811140.0, -36507.996, 0.00868896, 0.13436288, -652852.25, 80860.03, 0.0, 10.000944, 9.999 
5.1503164e+2, 2.3513149e+2, -528782.06, -695920.1, -31082.941, -0.06832165, 0.08217218, -523188.7, 112533.75, 0.0, 10.001185, 9.998995 
5.1503474e+2, 2.4513051e+2, -484563.22, -721919.06, -5810.3335, -0.0933925, 0.13413416, -484421.06, 53312.86, 0.0, 10.001225, 9.998124 
5.150391e+2, 2.5512952e+2, -420167.47, -639987.3, -540.9806, -0.06791599, 0.18618047, -420166.16, 19582.83, 0.0, 10.000985, 9.998133 
5.1504296e+2, 2.6512858e+2, -303878.63, -443865.44, -29000.656, -0.047605302, 0.24351916, -298108.5, 43651.56, 0.0, 10.000751, 9.998922 
5.150465e+2, 2.7512726e+2, -270397.3, -381364.78, 10540.984, -0.045319963, 0.1922997, -269404.88, -25633.574, 0.0000000018853024, 10.000309, 9.998896 
5.1505053e+2, 2.851265e+2, -155593.28, -256527.75, 64356.977, -0.0621293, 0.22456664, -124275.664, 21502.033, 0.00000034894228, 10.000364, 9.999037 
5.150555e+2, 2.9512614e+2, -4034.255, -140205.53, 65640.08, -0.06817907, 0.24169497, 22454.275, 70234.95, 0.000004315403, 10.000741, 9.998988 
5.15058e+2, 3.0512336e+2, -54578.64, -295930.03, -110813.76, -0.0005848437, 0.14486414, -11418.098, -11418.098, 0.000026122347, 10.000764, 9.99758 
5.150589e+2, 3.15122e+2, 30509.389, 30682.34, 109165.58, 0.021911543, 0.21617052, 139761.48, 139761.48, 0.000081293096, 10.000056, 10.000157 
5.2499765e+2, 1.251426e+2, -1603023.6, -1875139.8, -173407.92, 0.11507866, 0.21959585, -1518668.3, 194945.77, 0.000041919076, 10.001643, 9.9980545 
5.2499974e+2, 1.351388e+2, -1511951.5, -1846017.8, 147606.38, -0.16793771, 0.031646587, -1456077.3, 159574.86, 0.000010470756, 10.00185, 9.9975395 
5.2500904e+2, 1.4513658e+2, -1388369.0, -1636171.5, 70087.31, 0.24193831, 0.025356783, -1369919.5, 147755.7, 0.0000009776196, 10.001632, 9.998378 
5.250087e+2, 1.5513684e+2, -1300183.5, -1538822.3, -1719.0127, -0.016962284, 0.16790111, -1300171.1, 119503.44, 0.000000005050013, 10.001554, 9.998411 
5.250103e+2, 1.651362e+2, -1201897.0, -1411081.1, 21363.72, -0.07705298, 0.25426888, -1199737.5, 121944.65, 0.0, 10.001415, 9.998693 
5.250145e+2, 1.7513433e+2, -1133292.3, -1327012.4, -5870.014, 0.06831539, 0.16760816, -1133114.5, 90586.66, 0.0, 10.001209, 9.998694 
5.2501833e+2, 1.8513317e+2, -1043816.7, -1183118.3, 42473.793, 0.107847184, 0.16630495, -1031887.75, 93824.24, 0.0, 10.000954, 9.999127 
5.250217e+2, 1.9513248e+2, -1012128.94, -1115379.6, 25863.45, 0.048136305, 0.15471998, -1006012.7, 21704.225, 0.0, 10.000502, 9.999134 
5.2502483e+2, 2.0513172e+2, -927189.5, -1034512.9, 3182.61, 0.030734211, 0.17631273, -927095.2, 2627.7615, 0.0, 10.000436, 9.999048 
5.2502793e+2, 2.1513066e+2, -796681.44, -923096.1, 4102.282, 0.054849103, 0.1307031, -796548.44, 35184.27, 0.0, 10.000663, 9.999035 
5.250307e+2, 2.2512962e+2, -693590.94, -885921.6, 12056.053, 0.028560197, 0.15703726, -692838.1, 40904.87, 0.0, 10.000998, 9.998444 
5.2503306e+2, 2.3512831e+2, -527535.3, -760133.44, -36435.24, -0.04838196, 0.15127364, -521961.53, 113795.24, 0.0, 10.001475, 9.998412 
5.2503616e+2, 2.4512702e+2, -472811.9, -707424.2, -23261.373, -0.07285315, 0.19731306, -470527.84, 67243.555, 0.0, 10.001272, 9.998205 
5.250399e+2, 2.551256e+2, -502190.47, -668539.25, -22887.64, -0.040265903, 0.20078497, -499098.88, -59310.523, 0.0, 10.000387, 9.998222 
5.250438e+2, 2.6512447e+2, -347689.22, -431056.34, 4447.2954, -0.011755844, 0.22097953, -347452.63, -5653.506, 0.0, 10.000306, 9.999215 
5.2504766e+2, 2.7512336e+2, -151974.95, -282667.34, -4394.263, 0.022965502, 0.15355752, -151827.38, 91979.47, 0.00000000009174081, 10.000972, 9.999234 
5.250519e+2, 2.8512284e+2, -138572.11, -256670.42, 34245.32, 0.032183357, 0.19704354, -129360.4, 16450.549, 0.00000033351301, 10.000512, 9.998964 
5.2505624e+2, 2.951227e+2, -271587.88, -272399.56, -19651.893, 0.033674266, 0.24389191, -252337.64, -204523.75, 0.0000041082662, 9.998918, 9.998955 
5.250581e+2, 3.0511987e+2, -163717.02, -257907.8, -86659.06, 0.0070726313, 0.10131779, -112182.945, -112182.945, 0.000024723933, 9.999617, 9.998402 
5.250598e+2, 3.151193e+2, 319293.9, 178375.08, 122765.43, 0.032080658, 0.17356093, 390382.66, 390382.66, 0.00007789345, 10.002003, 10.000241 
5.350008e+2, 1.2513912e+2, -1546046.4, -1767572.3, -100069.0, 0.1757942, 0.122467615, -1507536.9, 206109.78, 0.000035694404, 10.001702, 9.998759 
5.3500074e+2, 1.3513799e+2, -1476317.8, -1763988.8, 156785.58, -0.27923295, 0.14491001, -1407384.9, 208272.92, 0.000008273398, 10.00182, 9.998121 
5.3501165e+2, 1.451357e+2, -1410132.1, -1670023.3, 50619.94, 0.29984745, 0.113904394, -1400620.9, 117059.99, 0.00000061502607, 10.00158, 9.998165 
5.3501135e+2, 1.5513417e+2, -1320142.9, -1576326.1, 8594.648, 0.06478289, 0.09381746, -1319854.8, 99842.18, 0.00000000036285042, 10.0015335, 9.998161 
5.350121e+2, 1.6513288e+2, -1241688.5, -1482646.3, -2718.968, -0.071303725, 0.15083031, -1241657.9, 80053.836, 0.0, 10.001368, 9.998226 
5.350146e+2, 1.751316e+2, -1170298.6, -1398070.8, -366.8125, -0.07829188, 0.17096797, -1170298.0, 53428.848, 0.0, 10.001182, 9.998224 
5.35018e+2, 1.8513064e+2, -1058729.8, -1196420.8, 13258.83, -0.04583264, 0.21586199, -1057464.6, 68272.64, 0.0, 10.000878, 9.999069 
5.350222e+2, 1.951297e+2, -1030551.6, -1136374.9, 23059.648, 0.024602946, 0.18390793, -1025745.06, 2001.0652, 0.0, 10.00042, 9.999033 
5.3502566e+2, 2.05129e+2, -926639.25, -994698.6, -1119.8096, 0.043078434, 0.19792722, -926620.9, 3130.0164, 0.0, 10.000279, 9.999392 
5.350286e+2, 2.151283e+2, -797045.6, -886494.75, 24081.273, 0.023243463, 0.15430202, -790974.56, 40779.484, 0.0, 10.0005045, 9.999359 
5.3503144e+2, 2.2512701e+2, -784748.9, -1043245.25, 16919.98, -0.027015839, 0.19229588, -783646.06, -49878.164, 0.0, 10.0008545, 9.9974375 
5.3503424e+2, 2.35125e+2, -617892.25, -908936.56, -5316.1094, -0.10996317, 0.21158667, -617795.2, 17998.602, 0.0, 10.001308, 9.997468 
5.3503734e+2, 2.4512324e+2, -465200.97, -665745.5, -68655.336, -0.10552125, 0.23959567, -443949.25, 93863.695, 0.0, 10.001167, 9.99854 
5.350407e+2, 2.551215e+2, -493940.97, -628865.6, -39999.938, -0.03629627, 0.17845327, -482973.97, -43146.15, 0.0, 10.000292, 9.99854 
5.3504467e+2, 2.651202e+2, -348199.34, -420353.44, 15759.854, 0.018250791, 0.16187558, -344907.28, -3069.6348, 0.0, 10.000253, 9.999317 
5.350493e+2, 2.75119e+2, -157858.84, -278235.34, 35531.063, 0.05718661, 0.077096425, -148153.73, 95692.03, 0.0, 10.000887, 9.999314 
5.350532e+2, 2.8511816e+2, -166164.45, -304829.7, -36843.793, 0.083242, 0.099419005, -156982.88, -11128.565, 0.00000019037492, 10.000479, 9.998648 
5.3505594e+2, 2.951175e+2, -301993.1, -319889.6, -55596.457, 0.06958853, 0.12755905, -254629.38, -206764.27, 0.0000040138116, 9.998847, 9.998665 
5.350571e+2, 3.0511615e+2, -70249.52, -63805.387, -459.6787, -0.08055158, 0.079451464, -63772.76, -63772.76, 0.000024880646, 9.999612, 9.999734 
5.350605e+2, 3.1511706e+2, 341687.1, 215701.4, 258621.36, -0.17623739, 0.16663697, 544876.7, 544876.7, 0.00007745561, 10.002023, 10.000493 
5.4500353e+2, 1.2513474e+2, -1343070.0, -1641322.4, -71373.5, 0.23066539, 0.069063686, -1326869.9, 386822.47, 0.00003031358, 10.002956, 9.9990635 
5.4500186e+2, 1.3513504e+2, -1511683.9, -1721189.9, -14381.888, -0.31009895, 0.1943773, -1510701.1, 104986.96, 0.000006366235, 10.00133, 9.998656 
5.4501295e+2, 1.4513323e+2, -1542988.4, -1676451.8, -16835.375, 0.33739612, 0.1590882, -1540897.5, -23192.277, 0.00000037085837, 10.000415, 9.998694 
5.450126e+2, 1.5513155e+2, -1367354.1, -1537381.1, -31218.7, 0.0705418, 0.07146385, -1361803.3, 57917.992, 0.00000000007720086, 10.000939, 9.998721 
5.450132e+2, 1.6513021e+2, -1290667.8, -1484519.9, 20924.98, -0.07306324, 0.089533105, -1288434.9, 33299.79, 0.0, 10.000969, 9.99839 
5.450156e+2, 1.751291e+2, -1274221.4, -1428145.3, 38894.76, -0.054092716, 0.1105798, -1264951.4, -41204.54, 0.0, 10.000415, 9.998376 
5.4501873e+2, 1.8512808e+2, -1136544.5, -1285535.3, 106244.06, -0.03499949, 0.16403358, -1081281.0, 44477.375, 0.0, 10.000541, 9.9986315 
5.450226e+2, 1.9512695e+2, -925033.75, -1132174.3, 64287.008, -0.015378492, 0.15287872, -906703.94, 121067.445, 0.0, 10.001323, 9.998631 
5.450261e+2, 2.05126e+2, -793919.94, -971386.1, 13306.277, 0.017815644, 0.18105556, -792927.8, 136852.1, 0.0, 10.001367, 9.999036 
5.450296e+2, 2.1512496e+2, -813157.25, -928293.75, -38380.168, 0.08048072, 0.14293675, -801536.3, 30250.379, 0.0, 10.000557, 9.999045 
5.450327e+2, 2.251236e+2, -835532.7, -1062985.3, 22525.775, 0.03871769, 0.18394427, -833323.3, -99521.47, 0.0, 10.000473, 9.99749 
5.450354e+2, 2.3512161e+2, -650823.94, -925465.3, 47985.223, -0.103790134, 0.20535979, -642681.4, -6853.7314, 0.0, 10.001074, 9.997479 
5.450384e+2, 2.4511983e+2, -448032.66, -637099.1, 963.26855, -0.1093511, 0.21987323, -448027.75, 89818.25, 0.0, 10.001198, 9.998721 
5.450416e+2, 2.5511795e+2, -394235.97, -562752.8, -12550.414, 0.007083783, 0.12950549, -393306.4, 46553.13, 0.0, 10.000899, 9.998704 
5.4504544e+2, 2.6511666e+2, -354569.03, -456610.34, 71150.266, 0.0676439, 0.121481486, -318037.03, 23832.47, 0.0, 10.000364, 9.999007 
5.4504985e+2, 2.7511558e+2, -356373.94, -405670.97, 30890.85, 0.09276568, 0.0735631, -341502.9, -97623.3, 0.0, 9.999666, 9.999024 
5.450536e+2, 2.8511468e+2, -273929.53, -346485.88, -28114.402, 0.11905017, 0.102680966, -264310.8, -118421.28, 0.00000011177434, 9.999704, 9.998736 
5.450561e+2, 2.9511404e+2, -62331.81, -186315.64, -41440.063, 0.13535926, 0.12538156, -49756.46, -1857.207, 0.0000045059896, 10.000446, 9.998801 
5.450571e+2, 3.0511346e+2, 36854.926, 2645.88, 50135.938, -0.06443206, 0.1377474, 72723.766, 72723.766, 0.000026381855, 10.000277, 9.999864 
5.450614e+2, 3.151134e+2, -166098.97, -26713.22, 168646.27, -0.104824066, 0.11265638, 86073.1, 86073.1, 0.00007890932, 9.998539, 10.000487 
5.550053e+2, 1.2512966e+2, -1334507.3, -1619951.8, -34786.777, 0.049008336, 0.09540957, -1330329.0, 383420.22, 0.000026661766, 10.002949, 9.999206 
5.550027e+2, 1.3513003e+2, -1486393.3, -1668432.0, -74448.01, -0.38807482, 0.19113488, -1459824.3, 155918.38, 0.0000052899522, 10.001324, 9.999027 
5.550126e+2, 1.4512907e+2, -1454161.4, -1478549.9, -17880.129, 0.22719733, 0.15399842, -1444713.1, 73035.94, 0.00000021782215, 10.000369, 10.000069 
5.550119e+2, 1.5512896e+2, -1277428.5, -1345555.5, 5585.589, -0.12171365, 0.0905415, -1276973.6, 142773.63, 0.00000000000011946363, 10.000917, 10.000052 
5.5501306e+2, 1.6512828e+2, -1242587.8, -1380626.4, -12546.64, -0.21344322, 0.0719988, -1241456.6, 80293.71, 0.0, 10.000947, 9.999115 
5.55017e+2, 1.7512679e+2, -1232217.9, -1331990.3, 30742.473, 0.015065443, -0.018304002, -1223506.0, 255.71513, 0.0, 10.000371, 9.99906 
5.5502015e+2, 1.851255e+2, -1200581.4, -1395432.4, 123010.88, 0.026615335, 0.010574848, -1141088.5, -15313.292, 0.0, 10.000443, 9.997926 
5.550225e+2, 1.9512421e+2, -989583.0, -1247608.4, 107433.16, -0.18924706, 0.059113774, -950708.4, 77084.41, 0.0, 10.001235, 9.997889 
5.5502594e+2, 2.0512271e+2, -885577.9, -1126766.8, -29252.967, -0.16717441, 0.119500495, -882080.6, 47729.61, 0.0, 10.0012245, 9.998033 
5.550306e+2, 2.1512073e+2, -906099.9, -1084907.0, -53898.816, 0.09500338, 0.085647956, -891109.6, -59279.227, 0.0, 10.000398, 9.998047 
5.55034e+2, 2.2511928e+2, -788561.25, -926888.9, 32691.205, 0.099910535, 0.11789489, -781224.44, -47378.637, 0.0, 10.00031, 9.998503 
5.550362e+2, 2.3511817e+2, -606594.0, -789784.94, 84452.47, -0.15264754, 0.12519582, -573602.4, 62256.027, 0.0, 10.000891, 9.998496 
5.55039e+2, 2.4511683e+2, -464800.0, -648386.9, -21549.734, -0.19678521, 0.13839225, -462304.38, 75565.734, 0.0, 10.001084, 9.998707 
5.550422e+2, 2.5511506e+2, -409824.88, -570209.5, -8105.8413, -0.049764384, 0.055469837, -409416.25, 30467.17, 0.0, 10.000785, 9.998713 
5.5504555e+2, 2.651139e+2, -413161.1, -565460.2, 32267.838, 0.015489255, 0.09327722, -406606.53, -64711.344, 0.0, 10.000311, 9.998284 
5.5504894e+2, 2.751129e+2, -420514.8, -522648.2, 19754.113, 0.0032568076, 0.13289467, -416827.22, -172917.39, 0.0, 9.999594, 9.99826 
5.5505276e+2, 2.8511223e+2, -243655.69, -276239.34, -14257.684, 0.033920765, 0.20195617, -238297.9, -92379.875, 0.00000024371042, 9.999669, 9.99924 
5.550563e+2, 2.951121e+2, -33736.336, -121785.81, 5979.044, 0.067442305, 0.22133315, -33332.184, 14586.939, 0.0000058589785, 10.000411, 9.9992695 
5.550574e+2, 3.0511153e+2, -40165.49, -142754.72, -21003.842, -0.08859986, 0.26658002, -36031.78, -36031.78, 0.000029984647, 10.000227, 9.998881 
5.550616e+2, 3.151082e+2, -201585.92, -82585.33, 141380.55, -0.0061787283, 0.007426358, 11305.195, 11305.195, 0.00008416486, 9.998456, 10.000146 
5.650079e+2, 1.2512724e+2, -1477148.5, -1647447.3, 219638.88, 0.09230626, 0.18035357, -1326731.3, 387044.4, 0.000022362967, 10.00178, 9.999569 
5.6500417e+2, 1.3512726e+2, -1612291.0, -1663524.0, 15103.628, -0.3048759, 0.17693682, -1608169.9, 7600.354, 0.000004259607, 10.0001745, 9.999597 
5.6501204e+2, 1.4512648e+2, -1597180.9, -1552412.4, 138730.61, 0.18891975, 0.1296872, -1434271.8, 83502.625, 0.00000013010742, 9.999379, 10.000054 
5.650126e+2, 1.551268e+2, -1451152.1, -1425362.5, 37250.54, -0.07710603, 0.11070123, -1398838.1, 20931.74, 0.0, 9.999699, 10.000096 
5.6501424e+2, 1.6512634e+2, -1340884.1, -1416032.5, -31871.56, -0.14324526, 0.104414605, -1329187.5, -7416.3604, 0.0, 10.000204, 9.999236 
5.65018e+2, 1.7512472e+2, -1130837.9, -1265696.6, -57555.914, 0.061453607, -0.013246662, -1109614.0, 114168.125, 0.0, 10.000978, 9.99922 
5.650213e+2, 1.8512332e+2, -1092621.5, -1346837.0, 69290.836, 0.0644444, -0.0035648225, -1074961.9, 50833.82, 0.0, 10.001213, 9.997877 
5.6502384e+2, 1.9512193e+2, -1056636.9, -1278414.5, 80691.35, -0.14336398, 0.03718492, -1030385.5, -2572.0427, 0.0, 10.000789, 9.997874 
5.6502736e+2, 2.0512035e+2, -935841.7, -1176071.4, 20005.932, -0.12690675, 0.10197327, -934187.06, -4354.8823, 0.0, 10.000986, 9.9978075 
5.6503195e+2, 2.1511842e+2, -725565.94, -1018612.3, 29504.352, 0.12848043, 0.094191134, -722624.94, 109228.86, 0.0, 10.001735, 9.997851 
5.6503516e+2, 2.2511703e+2, -599496.06, -812157.2, 132247.13, 0.13293368, 0.13062306, -536134.25, 197734.27, 0.0, 10.0015135, 9.998706 
5.6503725e+2, 2.351159e+2, -674359.75, -797679.94, 98771.09, -0.100676045, 0.115351975, -619582.3, 16297.073, 0.0, 10.000322, 9.998709 
5.650402e+2, 2.4511464e+2, -607854.44, -722804.7, 8595.863, -0.134558, 0.12705457, -607215.25, -69325.17, 0.0, 10.0001545, 9.998624 
5.6504375e+2, 2.5511292e+2, -380364.66, -568129.75, -15952.061, 0.020606281, 0.06265719, -379019.06, 60884.41, 0.0, 10.001054, 9.998588 
5.650466e+2, 2.6511165e+2, -295565.78, -540211.6, 31729.59, 0.05835757, 0.111323304, -291517.56, 50399.613, 0.0, 10.0012455, 9.998008 
5.6504893e+2, 2.7511054e+2, -270635.66, -474921.84, 29011.873, -0.0038005298, 0.16297482, -266595.4, -22661.656, 0.0, 10.000737, 9.998027 
5.6505257e+2, 2.8510967e+2, -125669.7, -232555.25, 61780.293, 0.018464554, 0.22484712, -97424.445, 48519.367, 0.00000046127252, 10.000513, 9.999138 
5.65057e+2, 2.951092e+2, -20942.488, -134886.55, 12898.816, 0.09756117, 0.22324535, -19500.55, 28445.953, 0.000007820285, 10.000564, 9.999111 
5.6505793e+2, 3.0510825e+2, -9023.773, -191701.81, -35578.684, -0.07464096, 0.26314288, -2339.0247, -2339.0247, 0.00003595913, 10.000711, 9.998317 
5.6506234e+2, 3.1510505e+2, 94212.95, 57006.78, 94450.41, 0.13082668, 0.06564337, 171874.89, 171874.89, 0.000094486146, 10.0005045, 10.000117 
5.7501113e+2, 1.2512726e+2, -1437797.0, -1551068.9, 210093.53, 0.16361699, 0.29779345, -1276839.4, 436934.78, 0.000015098279, 10.001728, 10.000245 
5.7500565e+2, 1.3512653e+2, -1566306.8, -1564959.5, -42180.047, -0.20495853, 0.14623238, -1523447.8, 92324.836, 0.0000026568694, 10.00016, 10.0002775 
5.750107e+2, 1.4512534e+2, -1688934.4, -1734786.4, 128300.445, 0.089668, 0.08688584, -1581527.8, -63745.582, 0.000000050157187, 9.999351, 9.998815 
5.750142e+2, 1.5512508e+2, -1546193.9, -1612677.6, 62869.926, 0.0828552, 0.13695733, -1508318.5, -88529.17, 0.0, 9.999659, 9.998835 
5.750164e+2, 1.6512436e+2, -1375147.0, -1472388.4, -18718.01, 0.01638229, 0.18370074, -1371668.5, -49871.332, 0.0, 10.000138, 9.9988785 
5.750182e+2, 1.7512292e+2, -1163644.3, -1325741.3, -15397.937, -0.044038884, 0.12001637, -1162194.6, 61613.484, 0.0, 10.000938, 9.998829 
5.750217e+2, 1.851216e+2, -1055365.9, -1251716.9, 42148.574, -0.046673693, 0.12442109, -1046700.7, 79118.61, 0.0, 10.0011425, 9.998561 
5.7502633e+2, 1.951201e+2, -1025619.75, -1185646.6, 78753.3, -0.011518775, 0.08810524, -993364.6, 34468.98, 0.0, 10.000672, 9.998565 
5.7503015e+2, 2.0511901e+2, -916742.8, -1100698.8, 32655.873, 0.02607587, 0.13551967, -911117.75, 18727.572, 0.0, 10.000829, 9.998403 
5.750332e+2, 2.1511811e+2, -712683.0, -950585.5, 69024.1, 0.05677964, 0.17408453, -694107.06, 137749.4, 0.0, 10.001555, 9.998407 
5.7503575e+2, 2.2511683e+2, -657300.8, -898445.56, 74443.67, 0.018027596, 0.22128458, -636170.9, 97699.5, 0.0, 10.001361, 9.99819 
5.75038e+2, 2.3511493e+2, -730708.1, -882047.94, 69151.8, -0.08647393, 0.17896433, -703869.94, -67980.2, 0.0, 10.000178, 9.9982 
5.750414e+2, 2.4511324e+2, -636352.75, -768531.25, 28067.834, -0.054758042, 0.18777758, -630639.5, -92733.88, 0.0, 10.000082, 9.998353 
5.750458e+2, 2.551115e+2, -413961.03, -614149.44, 32674.377, 0.0926308, 0.14651358, -408762.94, 31157.93, 0.0, 10.000941, 9.998331 
5.7504845e+2, 2.6511e+2, -285743.8, -512090.2, -809.57764, 0.084458455, 0.17225485, -285740.9, 56194.832, 0.0, 10.001202, 9.998229 
5.750494e+2, 2.751084e+2, -260222.03, -444356.78, 21537.459, -0.07144975, 0.15700053, -257736.44, -13783.546, 0.0, 10.00068, 9.998273 
5.750526e+2, 2.8510696e+2, -172623.45, -317526.2, 48741.457, -0.06005662, 0.17343396, -157753.97, -11786.411, 0.0000006054728, 10.0004635, 9.998579 
5.7505774e+2, 2.9510543e+2, -76221.02, -230635.34, 34833.215, 0.074683204, 0.124529764, -68726.95, -20745.105, 0.000009307056, 10.000484, 9.998492 
5.750583e+2, 3.0510366e+2, -27875.313, -220055.36, -47077.54, -0.14126176, 0.12911071, -16962.592, -16962.592, 0.000040671366, 10.000672, 9.998145 
5.750629e+2, 3.1510308e+2, 96818.85, 76363.234, 115385.414, 0.061642624, 0.2113137, 202428.88, 202428.88, 0.000103750725, 10.000443, 10.000287 
5.85012e+2, 1.2512563e+2, -1707605.3, -1697908.9, 238411.94, 0.18646917, 0.26662546, -1464295.8, 249490.44, 0.000008007214, 9.999916, 10.00013 
5.8500767e+2, 1.3512507e+2, -1540408.3, -1561667.8, -156853.44, -0.018707179, 0.14437711, -1393824.8, 221961.14, 0.0000012151539, 10.00037, 10.000209 
5.850104e+2, 1.4512403e+2, -1532774.1, -1684595.1, 95010.66, 0.06890473, 0.116308875, -1487072.8, 30722.984, 0.000000012980553, 10.000568, 9.998546 
5.850151e+2, 1.5512344e+2, -1373989.5, -1553381.5, 69085.55, 0.15774596, 0.15749854, -1350468.1, 69338.234, 0.0, 10.00097, 9.998582 
5.8501774e+2, 1.6512257e+2, -1243754.4, -1423486.1, 63106.6, 0.1048825, 0.20742907, -1223809.9, 98006.62, 0.0, 10.001097, 9.998756 
5.850193e+2, 1.7512125e+2, -1166022.0, -1335249.3, 60448.098, -0.028346114, 0.16684774, -1146647.9, 77180.06, 0.0, 10.0009575, 9.998756 
5.8502275e+2, 1.8511999e+2, -1051441.9, -1222179.0, 122210.164, -0.039243653, 0.16762507, -987736.25, 138101.83, 0.0, 10.001042, 9.998823 
5.850279e+2, 1.9511846e+2, -917479.8, -1110050.9, 100903.77, 0.060541768, 0.103823476, -874293.2, 153557.13, 0.0, 10.001294, 9.998801 
5.850316e+2, 2.0511732e+2, -875673.8, -1083661.3, 49492.438, 0.08546253, 0.13495296, -864497.25, 65364.41, 0.0, 10.001121, 9.998374 
5.8503395e+2, 2.1511634e+2, -858184.06, -1027180.25, 14891.396, 0.03646117, 0.16852744, -856881.9, -25007.723, 0.0, 10.00057, 9.99836 
5.850366e+2, 2.2511508e+2, -739582.94, -942921.8, 36781.156, -0.00843861, 0.22214086, -733134.25, 753.8621, 0.0, 10.00083, 9.998144 
5.850393e+2, 2.3511325e+2, -489178.2, -776791.6, 35216.91, -0.050996598, 0.19679204, -484928.84, 150977.4, 0.0, 10.001882, 9.998113 
5.8504295e+2, 2.4511142e+2, -379128.7, -665437.9, 45452.6, 0.008761798, 0.20711754, -372086.16, 165837.63, 0.0, 10.001937, 9.998161 
5.850475e+2, 2.5510943e+2, -395732.84, -623333.0, 28015.06, 0.1590393, 0.15551548, -392335.22, 47607.5, 0.0, 10.001151, 9.998156 
5.8504987e+2, 2.6510772e+2, -333794.84, -541417.25, 12921.945, 0.1257754, 0.17654915, -332993.72, 8965.498, 0.0, 10.00092, 9.998157 
5.8505034e+2, 2.751061e+2, -179657.31, -413283.97, -15413.361, -0.06343004, 0.16455325, -178644.81, 65330.984, 0.0, 10.001292, 9.998185 
5.8505327e+2, 2.8510436e+2, -108221.99, -327974.16, 21055.479, -0.060318276, 0.17712368, -106222.76, 39769.9, 0.00000055145284, 10.001083, 9.998204 
5.850583e+2, 2.951023e+2, -148283.8, -306102.3, -8765.032, 0.11095749, 0.10960144, -147798.48, -99786.07, 0.000008783807, 10.000165, 9.998122 
5.8505833e+2, 3.051e+2, -101725.79, -255879.9, -14064.508, -0.16380307, 0.079191916, -100453.1, -100453.1, 0.000039667964, 10.000158, 9.99814 
5.850637e+2, 3.151003e+2, 113315.85, 67500.68, 72585.32, 0.11121071, 0.24595983, 166522.56, 166522.56, 0.00010388018, 10.000629, 10.000124 
5.9501016e+2, 1.2512232e+2, -1750026.3, -1783633.5, 189529.1, -0.06928518, 0.09559369, -1576557.4, 137254.78, 0.0000033727015, 9.99993, 9.999522 
5.950098e+2, 1.351229e+2, -1600292.6, -1679767.0, -134520.4, 0.12967071, 0.16680305, -1499763.0, 116047.234, 0.00000044999516, 10.000355, 9.999403 
5.950106e+2, 1.4512256e+2, -1487559.9, -1584562.6, 90460.13, -0.0153487725, 0.21117108, -1433419.1, 84395.99, 0.000000014541682, 10.00054, 9.999244 
5.950149e+2, 1.551219e+2, -1332801.1, -1462673.0, 96749.68, 0.01010791, 0.1738412, -1281216.0, 138605.06, 0.0, 10.000942, 9.999221 
5.9501815e+2, 1.6512108e+2, -1240599.8, -1401395.3, 43188.13, -0.0016052055, 0.1909327, -1229734.1, 92094.45, 0.0, 10.00104, 9.998931 
5.950208e+2, 1.7511979e+2, -1160971.3, -1310219.8, 68788.67, -0.0089959735, 0.1365398, -1134103.4, 89737.75, 0.0, 10.000902, 9.998952 
5.9502417e+2, 1.8511845e+2, -1074226.0, -1252663.5, 116162.734, -0.032019738, 0.12969926, -1016973.75, 108878.51, 0.0, 10.000967, 9.998651 
5.950282e+2, 1.9511688e+2, -948486.3, -1145052.1, 122538.39, -0.07021437, 0.07677715, -889685.8, 138178.38, 0.0, 10.001172, 9.998618 
5.950314e+2, 2.0511523e+2, -937956.94, -1181216.8, 16430.756, -0.07793203, 0.0979523, -936852.2, -6971.0757, 0.0, 10.00098, 9.997773 
5.9503394e+2, 2.1511325e+2, -921750.2, -1123472.0, 8973.428, -0.051790133, 0.08897216, -921351.75, -89446.28, 0.0, 10.000419, 9.997771 
5.9503704e+2, 2.2511189e+2, -732145.44, -901953.75, 61202.48, -0.0633084, 0.14454588, -712386.0, 21534.396, 0.0, 10.00071, 9.998489 
5.950408e+2, 2.3511083e+2, -490147.8, -741388.8, 87978.0, -0.120388314, 0.16383137, -462403.94, 173525.3, 0.0, 10.001714, 9.998443 
5.950445e+2, 2.4510916e+2, -402058.25, -689029.06, 3009.0618, -0.06998544, 0.17751384, -402026.72, 135918.17, 0.0, 10.001827, 9.998056 
5.950481e+2, 2.5510675e+2, -416946.22, -642148.1, 10718.322, 0.08009573, 0.09246641, -416437.22, 23531.459, 0.0, 10.00104, 9.99808 
5.9505045e+2, 2.6510498e+2, -367407.2, -599437.5, 12059.758, 0.061381593, 0.12936927, -366782.06, -24795.246, 0.0, 10.000869, 9.9977865 
5.9505147e+2, 2.751036e+2, -218970.77, -478351.9, 14579.005, -0.11943184, 0.18175794, -218153.9, 25848.584, 0.0, 10.001218, 9.997779 
5.9505427e+2, 2.8510192e+2, -130007.83, -360197.44, -24187.809, -0.10937488, 0.2292379, -127493.69, 18525.523, 0.0000003359344, 10.001031, 9.998005 
5.9505826e+2, 2.9509974e+2, -170315.47, -330676.0, -25137.77, 0.049431205, 0.16698505, -166467.27, -118428.02, 0.000006914508, 10.000081, 9.99799 
5.950578e+2, 3.0509716e+2, -91869.5, -232551.86, -1706.6726, -0.2662007, 0.10410267, -91848.8, -91848.8, 0.000035638073, 10.000137, 9.998315 
5.9506404e+2, 3.1509694e+2, 85211.41, 20877.021, 86029.23, -0.0040419525, 0.20707034, 144890.6, 144890.6, 0.00009897654, 10.000578, 9.999827 
6.0500914e+2, 1.2511912e+2, -1947280.1, -1893730.6, 165796.13, -0.07771242, -0.008582944, -1752561.3, -38722.613, 0.0000011596172, 9.99864, 9.999395 
6.050115e+2, 1.3512045e+2, -1530072.6, -1654313.0, -100510.6, 0.24847256, 0.15459096, -1474034.9, 141799.0, 0.00000014603442, 10.000897, 9.9993 
6.0501075e+2, 1.4512041e+2, -1336405.5, -1463579.3, 114010.86, -0.08293068, 0.21178304, -1269448.3, 248388.2, 0.0000000031309833, 10.001345, 9.999709 
6.050154e+2, 1.5511972e+2, -1382769.6, -1435503.8, 69156.6, -0.0017946713, 0.13049373, -1335124.1, 84715.57, 0.0, 10.000365, 9.9997015 
6.050191e+2, 1.6511917e+2, -1362118.4, -1462450.8, 52727.625, 0.043151256, 0.1506416, -1339505.1, -17660.65, 0.0, 10.000198, 9.998927 
6.050224e+2, 1.7511843e+2, -1179014.9, -1320151.6, 39301.813, 0.0789539, 0.1521133, -1168808.6, 55045.15, 0.0, 10.000771, 9.998953 
6.0502577e+2, 1.8511714e+2, -1084410.5, -1282987.8, 97844.53, 0.039504737, 0.15930508, -1044301.2, 81565.04, 0.0, 10.00103, 9.998402 
6.0502917e+2, 1.9511504e+2, -988259.7, -1188317.5, 69475.26, -0.070889264, 0.07988278, -966499.5, 61384.438, 0.0, 10.001021, 9.998387 
6.050323e+2, 2.0511322e+2, -887685.5, -1173895.3, 3705.4814, -0.09465717, 0.101392366, -887637.56, 42265.44, 0.0, 10.001396, 9.997634 
6.050353e+2, 2.151113e+2, -694682.56, -1032324.06, 2804.83, -0.0319686, 0.116345406, -694659.3, 137267.64, 0.0, 10.002049, 9.997622 
6.050386e+2, 2.2510985e+2, -572143.4, -802591.2, 87055.09, -0.028906332, 0.16262124, -542954.25, 190988.0, 0.0, 10.001724, 9.998669 
6.050421e+2, 2.3510864e+2, -654621.75, -792624.8, 74984.52, -0.08724123, 0.1443161, -621721.9, 14229.773, 0.0, 10.000488, 9.99866 
6.050458e+2, 2.4510719e+2, -609390.7, -758938.4, 32531.389, -0.03841601, 0.15685965, -602620.56, -64656.32, 0.0, 10.000293, 9.99831 
6.050495e+2, 2.551053e+2, -387546.78, -603442.1, 39026.31, 0.11403137, 0.10389986, -380708.75, 59273.47, 0.0, 10.001141, 9.998302 
6.050519e+2, 2.6510367e+2, -282421.72, -557125.56, 92450.54, 0.096334025, 0.14159977, -254205.97, 87792.984, 0.0, 10.001439, 9.997807 
6.05053e+2, 2.75102e+2, -221824.06, -478312.47, 94789.79, -0.07355088, 0.16177154, -190595.14, 53422.477, 0.0, 10.001176, 9.997804 
6.050558e+2, 2.8510016e+2, -106113.734, -352922.44, 94951.44, -0.05723037, 0.19455498, -73811.93, 72223.695, 0.00000016006682, 10.001225, 9.997961 
6.0505974e+2, 2.9509804e+2, 53518.305, -226059.19, 77227.74, 0.11822519, 0.14657466, 73432.46, 121486.805, 0.0000052467194, 10.001636, 9.997964 
6.0505897e+2, 3.0509555e+2, 74115.016, -167684.34, 118008.13, -0.21035375, 0.10033575, 122161.04, 122161.04, 0.000031333126, 10.001354, 9.998174 
6.050647e+2, 3.1509477e+2, -25972.158, -62374.26, 76825.01, 0.0507103, 0.16835918, 34778.42, 34778.42, 0.00009226463, 9.999929, 9.999585 
6.1500835e+2, 1.2511608e+2, -1909394.4, -1808149.4, 106832.63, -0.09334246, -0.0387354, -1740552.4, -26687.244, 0.000000319301, 9.998625, 9.999981 
6.1501235e+2, 1.3511777e+2, -1499042.9, -1588281.0, -5084.653, 0.20560361, 0.11388028, -1498754.1, 117102.414, 0.000000018009526, 10.000897, 9.999752 
6.150105e+2, 1.4511764e+2, -1320193.9, -1433540.4, 53920.07, -0.28086734, 0.1308847, -1298641.6, 219218.05, 0.0, 10.001354, 9.99991 
6.150161e+2, 1.551169e+2, -1365002.6, -1406735.4, 43949.09, -0.001774712, 0.022776239, -1337217.9, 82645.15, 0.0, 10.000381, 9.999898 
6.1502033e+2, 1.6511686e+2, -1378221.9, -1481998.8, 60349.875, 0.11528396, 0.08895153, -1350520.6, -28656.348, 0.0, 10.000144, 9.998818 
6.1502385e+2, 1.7511724e+2, -1195920.5, -1347920.1, 75019.44, 0.114079244, 0.21186085, -1165131.4, 58734.824, 0.0, 10.000734, 9.998784 
6.1502725e+2, 1.8511602e+2, -1123017.1, -1340399.0, 85117.75, 0.0524772, 0.2559532, -1093654.6, 32225.45, 0.0, 10.000934, 9.998051 
6.150306e+2, 1.9511308e+2, -1026029.94, -1248593.3, 85339.66, -0.05981055, 0.12565894, -997074.44, 30833.508, 0.0, 10.000939, 9.998015 
6.1503404e+2, 2.0511134e+2, -884741.2, -1136605.3, 15294.672, -0.08793956, 0.15964544, -883815.75, 46110.46, 0.0, 10.001264, 9.9979515 
6.150376e+2, 2.1511044e+2, -698933.1, -1001748.0, 39590.547, -0.02883197, 0.24391003, -693842.56, 138096.11, 0.0, 10.001877, 9.997916 
6.1504054e+2, 2.2510897e+2, -596032.56, -811693.25, 30359.816, -0.029102664, 0.27055806, -591840.1, 142113.39, 0.0, 10.001554, 9.998686 
6.1504287e+2, 2.351067e+2, -677017.56, -799449.56, 43659.473, -0.084062405, 0.14478816, -663043.44, -27070.697, 0.0, 10.00032, 9.9986925 
6.1504644e+2, 2.4510553e+2, -581415.5, -680670.25, 48809.19, -0.02709135, 0.15096578, -561435.3, -23453.559, 0.0, 10.0002, 9.998895 
6.150511e+2, 2.5510514e+2, -363979.25, -532413.44, 83247.92, 0.12581189, 0.18759553, -329778.72, 110204.6, 0.0, 10.001038, 9.998844 
6.1505365e+2, 2.651038e+2, -265859.66, -507091.66, 69485.11, 0.10461835, 0.20873842, -247276.53, 94719.09, 0.0, 10.001372, 9.998181 
6.150545e+2, 2.7510124e+2, -211884.53, -430598.56, 100651.3, -0.0724327, 0.10420194, -172615.7, 71405.375, 0.0, 10.001063, 9.998182 
6.150575e+2, 2.850991e+2, -105287.27, -344047.13, 95750.68, -0.03650987, 0.08191554, -71632.04, 74409.41, 0.00000012615395, 10.001187, 9.99804 
6.150621e+2, 2.9509732e+2, 50896.586, -214317.84, 111004.67, 0.15048786, 0.05608617, 91224.94, 139281.55, 0.000004351736, 10.001566, 9.998072 
6.1506146e+2, 3.050952e+2, 35168.574, -252294.19, 58049.484, -0.13219453, 0.06491162, 46448.332, 46448.332, 0.000027327982, 10.001361, 9.997602 
6.1506486e+2, 3.1509408e+2, -51330.72, -100692.74, 20841.172, 0.0029797207, 0.16553766, -43708.375, -43708.375, 0.00008384043, 9.999869, 9.999357 
6.2500757e+2, 1.2511367e+2, -1947434.5, -1802162.1, 74729.02, 0.0025250802, 0.006222278, -1770584.9, -56695.297, 0.00000004128188, 9.998236, 10.000232 
6.250129e+2, 1.3511479e+2, -1686493.5, -1643737.4, 8767.717, 0.25910136, 0.07357981, -1642009.4, -26125.22, 0.000000000001578113, 9.999434, 10.000097 
6.2501115e+2, 1.4511445e+2, -1505646.0, -1539712.3, 22782.975, -0.2836236, 0.06150577, -1494232.8, 23656.12, 0.0, 10.000152, 9.999764 
6.250171e+2, 1.5511438e+2, -1300757.8, -1380286.0, -35196.613, 0.041696306, 0.030823909, -1287418.4, 132469.0, 0.0, 10.000872, 9.999826 
6.250213e+2, 1.6511452e+2, -1237729.4, -1410127.9, 13161.987, 0.15636975, 0.11652871, -1236730.3, 85157.48, 0.0, 10.001114, 9.998834 
6.2502456e+2, 1.7511459e+2, -1185028.8, -1332737.9, 1074.0748, 0.11217072, 0.20732063, -1185021.0, 38872.0, 0.0, 10.000805, 9.998838 
6.250283e+2, 1.8511355e+2, -1077518.9, -1303258.1, 78054.6, 0.06703316, 0.25735423, -1053158.5, 72747.25, 0.0, 10.001141, 9.998223 
6.250327e+2, 1.9511116e+2, -859261.3, -1145646.6, 96649.81, 0.019066473, 0.1626605, -829696.0, 198232.73, 0.0, 10.001965, 9.998233 
6.250362e+2, 2.0510976e+2, -806419.8, -1069236.4, 42847.61, -0.012089665, 0.20498437, -799610.7, 130332.72, 0.0, 10.00167, 9.998222 
6.2503874e+2, 2.1510896e+2, -904961.06, -1062628.1, 37994.34, -0.013909928, 0.27261803, -896282.9, -64329.56, 0.0, 10.000309, 9.998248 
6.2504154e+2, 2.2510746e+2, -783063.94, -917345.25, 62548.207, -0.009714258, 0.2863077, -758443.25, -24475.367, 0.0, 10.000326, 9.998562 
6.2504476e+2, 2.3510501e+2, -494915.06, -730973.9, 40349.11, 0.0127474675, 0.15785684, -488208.78, 147780.73, 0.0, 10.001635, 9.998547 
6.2504834e+2, 2.451037e+2, -341820.25, -544280.75, 48134.492, 0.073283516, 0.15000287, -330959.06, 207040.61, 0.0, 10.00174, 9.999098 
6.250523e+2, 2.5510326e+2, -387077.5, -515849.88, 25813.309, 0.16311918, 0.16371794, -382095.75, 57905.215, 0.0, 10.000762, 9.999089 
6.2505484e+2, 2.6510218e+2, -348958.63, -521657.84, 28646.19, 0.12511699, 0.18374254, -344331.0, -2320.1277, 0.0, 10.000684, 9.99841 
6.250562e+2, 2.7510002e+2, -149052.58, -376975.25, 18104.266, -0.015299831, 0.09800527, -147623.48, 96409.23, 0.0, 10.001384, 9.998397 
6.250591e+2, 2.8509834e+2, -59757.754, -295449.9, 33777.426, 0.0048803687, 0.10084214, -55012.59, 91035.96, 0.000000116905284, 10.001379, 9.998291 
6.250631e+2, 2.9509702e+2, -59452.133, -249284.55, 29819.365, 0.14604229, 0.09842729, -54878.234, -6819.1426, 0.000004287332, 10.0007, 9.99827 
6.2506306e+2, 3.050945e+2, -3094.3503, -276403.84, 33446.16, -0.0829624, 0.06511166, 939.0878, 939.0878, 0.000025852014, 10.001154, 9.9975195 
6.250667e+2, 3.150935e+2, 308853.88, 60856.53, -54538.668, 0.092283905, 0.17747276, 320317.9, 320317.9, 0.00007870898, 10.00242, 9.999227 
6.350058e+2, 1.2511177e+2, -1937811.0, -1795288.3, -53961.99, -0.069656305, 0.13232502, -1777162.4, -63249.125, 0.000000010756334, 9.998292, 10.000253 
6.3501287e+2, 1.3511135e+2, -1673909.4, -1623065.0, 54775.16, 0.28110486, 0.02845094, -1588100.1, 27818.457, 0.0, 9.999446, 10.000243 
6.350122e+2, 1.4511086e+2, -1532938.8, -1580591.1, 30375.16, -0.22585301, 0.0067088637, -1518160.1, -235.74484, 0.0, 10.000092, 9.999508 
6.3501793e+2, 1.5511218e+2, -1323394.5, -1427756.9, 9504.686, 0.0078122267, 0.14675471, -1322535.9, 97376.28, 0.0, 10.00087, 9.999504 
6.350216e+2, 1.6511206e+2, -1238451.4, -1404406.5, -13599.633, 0.0464823, 0.22012793, -1237344.3, 84571.27, 0.0, 10.001078, 9.998893 
6.3502413e+2, 1.7511036e+2, -1182921.5, -1328156.6, 3701.3513, -0.04444808, 0.12791829, -1182827.3, 41108.586, 0.0, 10.000788, 9.998888 
6.3502866e+2, 1.851095e+2, -1034202.56, -1189333.6, 94800.11, -0.04193333, 0.15217344, -989279.4, 136665.98, 0.0, 10.001046, 9.999044 
6.3503516e+2, 1.9510914e+2, -820791.44, -1039550.56, 137876.1, 0.03600795, 0.18001552, -754177.56, 273770.28, 0.0, 10.00185, 9.999016 
6.350383e+2, 2.0510836e+2, -814474.7, -1046869.0, -22439.875, 0.010846263, 0.23430929, -812327.75, 117627.68, 0.0, 10.001503, 9.998453 
6.350383e+2, 2.1510684e+2, -912659.1, -1039444.8, 2488.5823, -0.11519774, 0.20390119, -912610.3, -80639.4, 0.0, 10.000137, 9.998488 
6.350413e+2, 2.2510533e+2, -825506.0, -967154.3, 98913.72, -0.09196177, 0.21793935, -774674.94, -40689.535, 0.0, 10.000166, 9.998294 
6.3504726e+2, 2.3510352e+2, -539944.0, -784031.0, 104632.81, 0.073612995, 0.177277, -501231.03, 134771.06, 0.0, 10.001462, 9.998264 
6.35051e+2, 2.4510175e+2, -375114.4, -585912.5, -292.06848, 0.13624497, 0.14873989, -375114.0, 162903.78, 0.0, 10.001628, 9.998864 
6.350527e+2, 2.5509977e+2, -420451.5, -557741.9, 2650.3748, 0.09619456, 0.03181175, -420400.34, 19634.533, 0.0, 10.000645, 9.998858 
6.35055e+2, 2.650988e+2, -355240.9, -514723.16, 40039.76, 0.0407044, 0.07360205, -345752.94, -3708.1982, 0.0, 10.000604, 9.998492 
6.350578e+2, 2.7509847e+2, -159915.36, -373140.84, 58963.438, -0.033798754, 0.1532675, -144696.39, 99355.14, 0.0, 10.001275, 9.998473 
6.3506025e+2, 2.8509796e+2, -35476.598, -232175.11, -8206.5625, -0.057657707, 0.24649267, -35134.8, 110921.87, 0.0000001448745, 10.001329, 9.998751 
6.350623e+2, 2.9509723e+2, -49594.773, -199378.44, 25342.984, -0.05253845, 0.26655886, -45423.004, 2637.3567, 0.000005079309, 10.000591, 9.99866 
6.3506323e+2, 3.0509382e+2, 12161.555, -254131.9, 76681.375, -0.21492504, 0.11908602, 32664.053, 32664.053, 0.000027855136, 10.001164, 9.99768 
6.350692e+2, 3.1509262e+2, 274339.75, 7006.1426, 26238.77, 0.026665667, 0.18574663, 276890.75, 276890.75, 0.00008149468, 10.002327, 9.998907 
6.450052e+2, 1.2510924e+2, -1726610.3, -1710156.5, -73548.67, -0.013194491, 0.20725334, -1644376.0, 69566.75, 0.0000000047013002, 9.999822, 10.000092 
6.45013e+2, 1.3510847e+2, -1486628.9, -1526799.3, 55787.082, 0.29725632, 0.06941379, -1447421.4, 168527.47, 0.0, 10.000745, 10.000252 
6.450137e+2, 1.4510798e+2, -1414044.1, -1525657.9, 40043.777, -0.12504356, 0.04739892, -1401164.0, 116789.78, 0.0, 10.000918, 9.999487 
6.4501846e+2, 1.5510917e+2, -1364489.6, -1449700.8, 5437.0767, -0.0077733328, 0.17372185, -1364144.1, 55799.344, 0.0, 10.000587, 9.999494 
6.45022e+2, 1.6510881e+2, -1290917.1, -1433550.9, 18844.354, 0.000503416, 0.22661553, -1288469.4, 33479.164, 0.0, 10.000724, 9.99887 
6.4502513e+2, 1.7510685e+2, -1105223.5, -1290138.9, 7521.278, -0.0345442, 0.11163073, -1104918.1, 119051.82, 0.0, 10.001314, 9.998895 
6.450299e+2, 1.8510619e+2, -1006260.1, -1139218.0, 94346.65, -0.01550869, 0.13700496, -957323.56, 168653.77, 0.0, 10.001086, 9.999367 
6.4503616e+2, 1.9510646e+2, -1067663.4, -1117928.1, 70357.04, 0.04767877, 0.19465852, -1018084.7, 9889.543, 0.0, 10.000003, 9.999359 
6.450394e+2, 2.0510586e+2, -937959.06, -1077290.9, -60219.035, 0.022653803, 0.23523107, -915539.8, 14439.797, 0.0, 10.000529, 9.99871 
6.450399e+2, 2.1510403e+2, -552860.44, -841086.5, -63922.79, -0.0778578, 0.14974368, -539319.75, 292676.78, 0.0, 10.002497, 9.998713 
6.4504313e+2, 2.2510256e+2, -470064.53, -784921.8, 53651.207, -0.040021513, 0.14947423, -461173.5, 272836.5, 0.0, 10.002535, 9.998408 
6.450489e+2, 2.3510109e+2, -633545.5, -812109.25, 58353.434, 0.13867117, 0.12662418, -616167.25, 19855.725, 0.0, 10.000733, 9.998417 
6.450523e+2, 2.4509957e+2, -581929.06, -726269.56, 4696.89, 0.17387824, 0.13647118, -581776.4, -43738.8, 0.0, 10.000397, 9.998493 
6.4505345e+2, 2.550978e+2, -325540.34, -550910.44, -25543.494, 0.08114519, 0.07850678, -322681.53, 117374.625, 0.0, 10.001473, 9.998506 
6.450556e+2, 2.6509672e+2, -244404.67, -471630.84, 20484.754, 0.0149870515, 0.13025612, -242572.72, 99495.8, 0.0, 10.001409, 9.9984045 
6.4505875e+2, 2.7509597e+2, -308530.03, -456228.53, -6996.8477, -0.0032272453, 0.18269221, -308199.3, -64120.934, 0.000000000000000000046744374, 10.0003, 9.99838 
6.450616e+2, 2.850953e+2, -169801.4, -294295.53, -51589.164, -0.00031927333, 0.2646898, -151202.08, -5117.402, 0.00000034821963, 10.000395, 9.998769 
6.4506376e+2, 2.9509455e+2, 84902.52, -136325.9, -83393.67, 0.005549732, 0.27734604, 112816.31, 160905.66, 0.0000068469953, 10.001519, 9.998641 
6.4506507e+2, 3.0509153e+2, 72595.945, -161718.9, -8386.756, -0.14527507, 0.14529586, 72895.74, 72895.74, 0.00003364889, 10.001327, 9.998215 
6.450701e+2, 3.1509086e+2, -98324.33, -172778.44, -102283.98, 0.023421329, 0.20395443, -26703.482, -26703.482, 0.000093661416, 9.999773, 9.998883 
6.550047e+2, 1.2510596e+2, -1742718.4, -1740822.8, -141236.16, -0.11591343, 0.20908739, -1600531.3, 113448.34, 0.000000001405694, 9.999816, 9.999879 
6.550127e+2, 1.3510631e+2, -1490042.6, -1539079.6, 96523.0, 0.16974705, 0.1957698, -1414972.8, 201001.63, 0.0, 10.000769, 10.000153 
6.5501505e+2, 1.4510593e+2, -1409109.4, -1507151.6, 8737.27, -0.111388974, 0.18115495, -1408336.9, 109639.766, 0.0, 10.000881, 9.999637 
6.5501815e+2, 1.5510534e+2, -1359237.4, -1432678.1, 7572.56, -0.13541985, 0.11642188, -1358464.6, 61516.453, 0.0, 10.000553, 9.999634 
6.5502185e+2, 1.6510473e+2, -1299321.4, -1436554.1, 25085.156, -0.11736874, 0.13805056, -1294879.8, 27107.482, 0.0, 10.000662, 9.998874 
6.5502715e+2, 1.7510404e+2, -1110489.6, -1294052.4, 42744.35, 0.0035359175, 0.14865597, -1101024.4, 122971.5, 0.0, 10.001285, 9.998879 
6.550317e+2, 1.8510363e+2, -1030798.6, -1168341.4, 39435.945, 0.024545087, 0.20941934, -1020293.94, 105707.37, 0.0, 10.000996, 9.999209 
6.550352e+2, 1.9510315e+2, -1090678.9, -1142441.4, 47084.8, -0.07107022, 0.20576894, -1062831.0, -34823.81, 0.0, 9.999905, 9.999237 
6.55039e+2, 2.0510219e+2, -942528.8, -1053308.6, -206.01266, -0.09130376, 0.20547378, -942528.44, -12512.136, 0.0, 10.000386, 9.998947 
6.550431e+2, 2.1510042e+2, -563242.25, -817174.44, 21459.162, -0.033882346, 0.103074774, -561441.56, 270589.8, 0.0, 10.002308, 9.998967 
6.5504664e+2, 2.2509906e+2, -460801.78, -722451.25, -27746.234, 0.02875322, 0.07605934, -457891.84, 276150.16, 0.0, 10.002352, 9.998922 
6.550493e+2, 2.3509774e+2, -621986.2, -749557.9, 4624.208, 0.07980422, 0.01596256, -621818.75, 14233.068, 0.0, 10.000571, 9.998922 
6.550519e+2, 2.4509723e+2, -631214.75, -801449.6, 29406.459, 0.06472157, 0.12483674, -626278.2, -88219.45, 0.0, 10.000283, 9.99803 
6.550543e+2, 2.550973e+2, -377356.25, -625911.1, 29230.525, -0.02139805, 0.29360318, -373964.94, 66100.39, 0.0, 10.001339, 9.998051 
6.550565e+2, 2.6509586e+2, -272771.56, -519561.66, -34925.91, -0.07293967, 0.3474083, -267924.03, 74158.08, 0.0, 10.001353, 9.998104 
6.5505874e+2, 2.7509272e+2, -337165.2, -506060.6, -28754.193, -0.07460681, 0.19204009, -332404.03, -88292.5, 0.0000000002377775, 10.000247, 9.998068 
6.5506244e+2, 2.8509063e+2, -208402.78, -356362.88, -22280.443, 0.016776264, 0.16810562, -205120.52, -58989.83, 0.0000008000927, 10.000329, 9.998366 
6.5506727e+2, 2.950892e+2, 39123.965, -199759.2, -24889.316, 0.16101325, 0.14343216, 41689.637, 89833.664, 0.000010270006, 10.001395, 9.998258 
6.5506804e+2, 3.050878e+2, 129441.41, -46029.59, -75177.9, -0.01735775, 0.15640278, 157244.8, 157244.8, 0.00004390313, 10.001324, 9.999019 
6.550686e+2, 3.1508788e+2, -85386.695, -136219.77, -110437.04, -0.17843081, 0.21185744, 2520.8184, 2520.8184, 0.00011355634, 9.999728, 9.999161 
6.650058e+2, 1.2510233e+2, -1698819.0, -1718643.5, -119355.54, 0.010520926, 0.19239503, -1588964.9, 125052.16, 0.00000000035571668, 10.000108, 9.999888 
6.650124e+2, 1.3510334e+2, -1606753.1, -1612963.5, 87402.72, 0.10336245, 0.25228024, -1522400.5, 93604.83, 0.0, 10.000021, 10.00002 
6.650163e+2, 1.4510292e+2, -1545163.9, -1602537.9, 8650.986, -0.02764962, 0.2539153, -1543887.9, -25880.033, 0.0, 10.000082, 9.999361 
6.65019e+2, 1.5510108e+2, -1338015.1, -1449193.5, -54992.215, -0.10326135, 0.08660777, -1315410.3, 104614.09, 0.0, 10.000831, 9.999375 
6.6502273e+2, 1.6510037e+2, -1202381.6, -1350526.0, -3946.0498, -0.114523694, 0.09285167, -1202276.6, 119754.14, 0.0, 10.001166, 9.999222 
6.650283e+2, 1.751006e+2, -1132357.6, -1264336.4, 8555.176, 0.00949463, 0.16206509, -1131805.4, 92223.68, 0.0, 10.000965, 9.999234 
6.6503274e+2, 1.851004e+2, -1066143.8, -1194976.4, 18773.09, 0.04322375, 0.22952853, -1063463.9, 62567.92, 0.0, 10.000801, 9.999122 
6.650358e+2, 1.9509941e+2, -991780.8, -1110093.3, 1815.2037, -0.03395401, 0.18490392, -991753.0, 36289.594, 0.0, 10.000636, 9.999114 
6.6503996e+2, 2.0509839e+2, -914854.56, -1023307.7, 36459.01, -0.032591473, 0.17873858, -903737.6, 26314.979, 0.0, 10.000499, 9.999106 
6.6504526e+2, 2.150971e+2, -839636.9, -934297.9, 23021.373, 0.059384897, 0.10881361, -834335.06, -2270.8127, 0.0, 10.000336, 9.999122 
6.6504866e+2, 2.2509608e+2, -699464.8, -815368.1, -68376.65, 0.09040129, 0.09699318, -667785.25, 66287.11, 0.0, 10.000634, 9.999114 
6.650499e+2, 2.3509498e+2, -497375.56, -671320.1, -87669.89, 0.052576046, 0.04837894, -460856.2, 175223.47, 0.0, 10.001363, 9.999083 
6.650522e+2, 2.4509451e+2, -478159.2, -731435.9, -7524.7227, 0.026509337, 0.15337671, -477935.84, 60150.57, 0.0, 10.001321, 9.998021 
6.650554e+2, 2.5509435e+2, -506945.0, -693798.4, -7911.8804, 0.015969383, 0.3023071, -506610.56, -66515.36, 0.0, 10.000442, 9.99803 
6.6505796e+2, 2.650928e+2, -380184.4, -560741.4, -16789.092, -0.010380425, 0.3384978, -378636.56, -36523.98, 0.0, 10.000565, 9.998205 
6.6506e+2, 2.7508968e+2, -120365.71, -384132.22, -9636.062, -0.035965644, 0.17462738, -120014.15, 124125.7, 0.0000000023427176, 10.001679, 9.998204 
6.6506344e+2, 2.850874e+2, -55014.176, -329212.94, 42337.855, 0.028775701, 0.14497325, -48625.81, 97535.47, 0.0000014418595, 10.001566, 9.997968 
6.65068e+2, 2.9508543e+2, -167438.92, -337955.53, 8226.255, 0.168364, 0.10701195, -167042.97, -118860.914, 0.000014823799, 10.0001335, 9.99792 
6.6506916e+2, 3.0508488e+2, -69980.31, -103763.54, -40097.64, 0.049760338, 0.19771597, -43361.61, -43361.61, 0.000057815294, 9.999799, 9.999353 
6.650697e+2, 3.1508422e+2, 20424.229, -26435.709, -165157.06, -0.052353434, 0.15280645, 163804.98, 163804.98, 0.00014076945, 10.0001955, 9.999693 
6.750077e+2, 1.2509853e+2, -1694608.5, -1704129.1, -152600.9, 0.122412674, 0.15322341, -1546693.8, 167359.78, 0.0000000023126079, 10.000094, 9.999991 
6.7501134e+2, 1.3509956e+2, -1619474.6, -1636684.6, 89875.016, -0.029634465, 0.22837833, -1537793.6, 78248.45, 0.0, 10.000018, 9.999858 
6.7501676e+2, 1.4509901e+2, -1600296.6, -1703273.3, 17330.953, -0.020460216, 0.2620911, -1597458.1, -79411.016, 0.0, 10.000028, 9.998695 
6.7502064e+2, 1.5509653e+2, -1380816.4, -1537444.0, -10887.903, -0.06157179, 0.0999765, -1380063.1, 40008.82, 0.0, 10.000832, 9.998769 
6.7502415e+2, 1.6509584e+2, -1157385.8, -1250207.6, -26468.31, -0.11874926, 0.101009205, -1150368.8, 171709.2, 0.0, 10.001132, 9.999929 
6.7502815e+2, 1.7509665e+2, -1090200.5, -1164267.8, 14417.401, -0.1339036, 0.1558262, -1087493.0, 136575.53, 0.0, 10.000912, 9.999947 
6.7503256e+2, 1.8509653e+2, -1080889.1, -1205898.6, -5153.693, -0.08021273, 0.19881307, -1080677.0, 45391.383, 0.0, 10.000713, 9.999092 
6.750372e+2, 1.950953e+2, -1012471.7, -1121343.5, 8437.66, 0.021184525, 0.13850427, -1011821.6, 16257.81, 0.0, 10.000505, 9.999101 
6.7504174e+2, 2.0509464e+2, -933824.8, -1031151.2, 17458.166, 0.07284166, 0.16580863, -930788.0, -700.9272, 0.0, 10.000353, 9.999127 
6.750461e+2, 2.1509418e+2, -861319.2, -939577.1, 30475.959, 0.07682117, 0.17443228, -850851.2, -18756.963, 0.0, 10.000162, 9.999168 
6.750489e+2, 2.2509369e+2, -737945.8, -853045.6, -54717.797, 0.032539148, 0.22464807, -716085.2, 18014.395, 0.0, 10.000453, 9.998943 
6.750504e+2, 2.3509288e+2, -537364.5, -707437.0, -44073.02, -0.06926891, 0.2188708, -526621.9, 109484.25, 0.0, 10.001164, 9.998929 
6.75053e+2, 2.450915e+2, -473321.2, -685871.0, -51352.098, -0.05635287, 0.21924354, -461564.75, 76555.195, 0.0, 10.001174, 9.998403 
6.750566e+2, 2.550892e+2, -501417.38, -652080.0, -25819.934, 0.059632674, 0.11814657, -497115.3, -56971.11, 0.0, 10.00031, 9.998379 
6.750597e+2, 2.6508772e+2, -359793.88, -493624.94, 10280.936, 0.074757695, 0.12168746, -359008.7, -16850.594, 0.0, 10.0004635, 9.9987135 
6.750622e+2, 2.7508682e+2, -100343.516, -318156.5, 47644.89, -0.014949072, 0.12645537, -90377.555, 153786.58, 0.0000000015372758, 10.001575, 9.998711 
6.750643e+2, 2.8508553e+2, -82806.47, -375784.16, -24349.531, -0.07240484, 0.18678424, -80796.555, 65380.844, 0.0000017821444, 10.001522, 9.997665 
6.7506564e+2, 2.9508355e+2, -201571.03, -385074.03, -24048.807, -0.12800117, 0.18067169, -198471.69, -150270.31, 0.000019076204, 10.000035, 9.997642 
6.750678e+2, 3.050827e+2, -94433.94, -142866.5, -31822.266, -0.0965314, 0.26685312, -78661.66, -78661.66, 0.000073988194, 9.999757, 9.999102 
6.750723e+2, 3.1507996e+2, 62652.664, 87309.17, -104878.69, 0.115567304, 0.039179504, 180581.69, 180581.69, 0.00017626988, 10.000098, 10.000514 
6.8500876e+2, 1.2509514e+2, -1612619.3, -1699905.6, -62609.676, 0.19968028, 0.13470794, -1579942.8, 134142.22, 0.0000000036242784, 10.000787, 9.9997 
6.850113e+2, 1.3509552e+2, -1525443.5, -1641737.6, 53941.574, -0.06494723, 0.19590554, -1504276.1, 111805.445, 0.0, 10.000912, 9.999375 
6.8501794e+2, 1.450949e+2, -1496901.9, -1637811.3, 50746.22, 0.069859065, 0.2387428, -1480529.0, 37558.52, 0.0, 10.000657, 9.998845 
6.850219e+2, 1.5509287e+2, -1443839.3, -1552906.3, 56145.727, 0.010516715, 0.106437914, -1420102.5, 4.0897746, 0.0, 10.000319, 9.998921 
6.850253e+2, 1.6509226e+2, -1310043.8, -1355202.5, 49880.723, -0.06481701, 0.1187535, -1277869.9, 44242.3, 0.0, 10.000208, 9.9996605 
6.8502885e+2, 1.7509274e+2, -1202505.6, -1254369.9, -10795.85, -0.10834765, 0.17046608, -1200348.1, 23759.39, 0.0, 10.000281, 9.999643 
6.850334e+2, 1.8509233e+2, -1062532.6, -1174553.5, -13801.88, -0.057772722, 0.18955499, -1060857.3, 65252.637, 0.0, 10.000738, 9.99929 
6.8503857e+2, 1.9509071e+2, -856690.3, -1021644.4, -9360.284, 0.0627225, 0.065220445, -856160.9, 171961.25, 0.0, 10.001464, 9.999317 
6.850428e+2, 2.0509033e+2, -798536.06, -959879.8, 918.1216, 0.10399553, 0.109226845, -798530.8, 131595.89, 0.0, 10.00129, 9.999142 
6.8504614e+2, 2.1509084e+2, -841349.6, -930396.8, -15599.795, 0.069921024, 0.21375215, -838695.8, -6568.5923, 0.0, 10.000314, 9.999146 
6.8504894e+2, 2.2509068e+2, -781127.0, -841545.56, -16696.615, 0.02034029, 0.2844263, -776819.94, -42689.49, 0.0, 10.0, 9.999241 
6.850512e+2, 2.3508969e+2, -644503.06, -726765.56, -310.9311, -0.044593565, 0.22973642, -644501.94, -8363.522, 0.0, 10.000268, 9.99923 
6.850542e+2, 2.4508819e+2, -527688.5, -676032.94, 12900.909, -0.014150523, 0.18838747, -526574.94, 11576.895, 0.0, 10.000658, 9.998706 
6.8505776e+2, 2.5508597e+2, -339350.63, -535970.5, 7767.007, 0.10336302, 0.06099387, -339044.28, 101128.85, 0.0, 10.001283, 9.998693 
6.850608e+2, 2.6508486e+2, -257624.98, -424941.6, 64092.53, 0.118228786, 0.077294014, -235895.6, 106287.28, 0.0, 10.00107, 9.998893 
6.8506354e+2, 2.7508456e+2, -330399.9, -410988.97, 45780.77, 0.05349453, 0.123629496, -309706.5, -65522.01, 0.00000000039754933, 9.999897, 9.998885 
6.8506557e+2, 2.8508365e+2, -290121.06, -434608.66, 14817.818, -0.015500787, 0.19181493, -288617.06, -142422.94, 0.000001935021, 9.999929, 9.998022 
6.8506646e+2, 2.950818e+2, 11056.657, -241347.92, 31736.76, -0.098976575, 0.16687247, 14985.993, 63201.0, 0.000022833043, 10.001315, 9.998012 
6.8506896e+2, 3.050803e+2, 153412.0, -109026.43, 56758.9, -0.047555633, 0.20904404, 165161.5, 165161.5, 0.00009092674, 10.001831, 9.998335 
6.850738e+2, 3.1507733e+2, 164301.95, 111986.71, -104228.45, 0.22884217, 0.042488508, 245604.98, 245604.98, 0.00021663251, 10.000875, 10.000327 
6.9500846e+2, 1.2509239e+2, -1653313.6, -1784100.0, -30629.225, 0.015076155, 0.14943457, -1646495.9, 67613.57, 0.00000000017840025, 10.0008, 9.999105 
6.9501185e+2, 1.3509132e+2, -1582420.1, -1763360.6, 66874.13, -0.1367516, 0.15684272, -1560387.0, 55735.76, 0.0, 10.000931, 9.9985285 
6.9501936e+2, 1.4509054e+2, -1428216.8, -1490511.8, 21542.936, 0.10713677, 0.16926187, -1421492.6, 96636.8, 0.0, 10.000632, 9.999871 
6.950223e+2, 1.5509003e+2, -1377087.8, -1417745.6, 58902.117, -0.008752032, 0.089235336, -1335105.3, 85023.805, 0.0, 10.00032, 9.999855 
6.9502556e+2, 1.6508956e+2, -1406507.0, -1541363.3, 38854.93, -0.08289217, 0.13651639, -1396113.1, -73979.336, 0.0, 10.000156, 9.998402 
6.9503015e+2, 1.7508906e+2, -1297215.0, -1438304.8, 8876.652, -0.04191278, 0.21647784, -1296658.8, -72514.36, 0.0, 10.000228, 9.998406 
6.9503486e+2, 1.8508792e+2, -1045724.3, -1113389.6, 2631.806, -0.017655073, 0.19862524, -1045622.06, 80532.76, 0.0, 10.00063, 9.999759 
6.950394e+2, 1.9508573e+2, -843598.25, -965700.94, 31699.387, -0.03412421, -0.0290622, -835859.2, 192309.9, 0.0, 10.00135, 9.99975 
6.950427e+2, 2.0508553e+2, -820280.7, -976748.5, -51281.47, -0.058717642, 0.013616057, -804971.4, 125199.9, 0.0, 10.00116, 9.999092 
6.950452e+2, 2.15087e+2, -870922.4, -949634.9, -38782.42, -0.08452026, 0.2202283, -855024.75, -22860.588, 0.0, 10.000131, 9.999103 
6.9504833e+2, 2.2508706e+2, -753124.6, -742501.5, -18635.93, -0.06177841, 0.27540216, -728434.94, 5729.9336, 0.0, 9.999823, 10.000005 
6.950522e+2, 2.3508547e+2, -614711.5, -627542.7, 22871.367, -0.0012997021, 0.08374142, -597372.94, 38803.313, 0.0, 10.000111, 9.999984 
6.9505554e+2, 2.4508476e+2, -522128.22, -642137.44, 23011.342, 0.026235478, 0.07017289, -517867.2, 20313.967, 0.0, 10.000556, 9.99899 
6.9505847e+2, 2.5508463e+2, -333077.1, -500075.03, 45749.723, 0.018316155, 0.12053216, -321365.16, 118817.38, 0.0, 10.001176, 9.998994 
6.950611e+2, 2.6508415e+2, -282816.7, -454600.1, 8881.264, 0.013894816, 0.19041246, -282358.75, 59829.133, 0.0, 10.0009775, 9.998732 
6.950634e+2, 2.7508298e+2, -356083.1, -442815.5, 17051.473, 0.020580763, 0.16867037, -352851.22, -108650.69, 0.0000000054780975, 9.999808, 9.998708 
6.9506645e+2, 2.850817e+2, -229910.13, -298976.2, 50958.734, 0.056754746, 0.16556849, -202885.67, -56674.355, 0.000002364329, 9.999885, 9.998972 
6.9507e+2, 2.9508016e+2, 63811.445, -110130.65, 104404.64, 0.08152441, 0.069240175, 112723.77, 160946.67, 0.000027093956, 10.001227, 9.99895 
6.9507223e+2, 3.0507764e+2, 61534.035, -298902.9, 15907.718, 0.06197086, 0.027190907, 62234.754, 62234.754, 0.00010798756, 10.001816, 9.997039 
6.950736e+2, 3.150763e+2, 72227.94, -72291.71, -96327.04, 0.05047472, 0.15062372, 120385.64, 120385.64, 0.00025661878, 10.000837, 9.999079 
7.0500976e+2, 1.2508889e+2, -1485002.1, -1732113.4, -29912.018, 0.016306655, 0.19225456, -1481432.9, 232711.77, 0.0, 10.002052, 9.998874 
7.0501333e+2, 1.3508712e+2, -1543411.3, -1780578.9, 340.3045, -0.09234868, 0.15915449, -1543410.8, 72753.75, 0.0, 10.001322, 9.998231 
7.050208e+2, 1.4508599e+2, -1398827.0, -1452667.3, -10724.085, 0.19130978, 0.14236136, -1396769.6, 121404.85, 0.0, 10.000738, 10.000073 
7.0502317e+2, 1.5508649e+2, -1275026.0, -1340135.8, -62021.188, 0.026497053, 0.14232688, -1237534.8, 182630.22, 0.0, 10.00092, 10.000083 
7.050264e+2, 1.650861e+2, -1288779.6, -1485125.5, -28520.084, -0.05592056, 0.18781507, -1284720.9, 37447.633, 0.0, 10.000982, 9.998379 
7.050313e+2, 1.7508467e+2, -1220693.3, -1398412.3, 2296.342, 0.027274702, 0.17585325, -1220663.6, 3522.9834, 0.0, 10.000758, 9.99841 
7.0503575e+2, 1.8508352e+2, -1077258.3, -1120869.5, 58504.355, 0.03251197, 0.1533627, -1036627.9, 89569.04, 0.0, 10.000379, 9.999829 
7.050397e+2, 1.9508225e+2, -1057618.4, -1062952.5, 30669.826, -0.056358557, 0.011108156, -1029499.94, -1295.9529, 0.0, 9.999846, 9.999814 
7.050427e+2, 2.0508216e+2, -1005737.3, -1012800.9, -37676.09, -0.09527714, 0.038378272, -971427.8, -41223.926, 0.0, 9.999635, 9.999591 
7.0504504e+2, 2.15083e+2, -907400.7, -911031.5, -8584.654, -0.0807039, 0.13231295, -900441.56, -68242.42, 0.0, 9.9996195, 9.999622 
7.0504844e+2, 2.2508317e+2, -728786.5, -726069.0, 69496.89, -0.033010487, 0.16891702, -657917.56, 76280.664, 0.0, 9.999985, 10.000033 
7.050529e+2, 2.3508239e+2, -515870.06, -575183.2, 28101.912, 0.03558272, 0.05399551, -504670.44, 131533.45, 0.0, 10.000783, 10.000017 
7.0505655e+2, 2.4508208e+2, -464424.66, -606487.0, -415.6004, 0.055363894, 0.07570753, -464423.44, 73782.15, 0.0, 10.000914, 9.999071 
7.050594e+2, 2.5508195e+2, -448235.3, -546399.4, -19097.605, 0.035742942, 0.1203063, -444650.8, -4444.358, 0.0, 10.000341, 9.999086 
7.0506203e+2, 2.6508132e+2, -360893.72, -501466.7, -41207.453, 0.038519707, 0.17693001, -349704.78, -7491.4355, 0.0, 10.000484, 9.998649 
7.050645e+2, 2.7507997e+2, -138713.16, -342276.5, -58264.47, 0.07276979, 0.14227669, -123216.28, 121012.74, 0.000000016182126, 10.001332, 9.998657 
7.0506763e+2, 2.850788e+2, 15575.192, -153908.64, -116.682526, 0.11317149, 0.13647085, 15575.272, 161814.11, 0.0000030357212, 10.001429, 9.999242 
7.050714e+2, 2.950776e+2, -11861.425, -119800.88, -25619.186, 0.14088362, 0.052267585, -6089.424, 42155.973, 0.000031540207, 10.000564, 9.999221 
7.050741e+2, 3.0507508e+2, -58249.598, -335130.63, -46835.59, 0.1321319, -0.014302285, -50541.734, -50541.734, 0.00012311795, 10.000907, 9.997217 
7.050758e+2, 3.1507456e+2, 266335.38, 2940.73, -111991.37, 0.12804411, 0.17052734, 307514.44, 307514.44, 0.0002906225, 10.002268, 9.998888 
7.1501195e+2, 1.2508468e+2, -1458266.0, -1678585.0, -44388.88, -0.035302483, 0.2806518, -1449659.0, 264531.03, 0.0, 10.002063, 9.999232 
7.150153e+2, 1.3508277e+2, -1512534.8, -1728507.1, -21298.75, -0.06198856, 0.18891823, -1510454.3, 105753.56, 0.0, 10.001363, 9.998573 
7.1502185e+2, 1.4508128e+2, -1442870.3, -1540570.1, -23283.889, 0.18097231, 0.15126178, -1437605.0, 80617.53, 0.0, 10.0007305, 9.999467 
7.1502405e+2, 1.5508236e+2, -1318223.4, -1426656.3, -38819.7, -0.015732097, 0.26916358, -1305758.6, 114454.65, 0.0, 10.000903, 9.999496 
7.150271e+2, 1.6508187e+2, -1214977.0, -1313666.0, -50012.805, -0.107059464, 0.27161872, -1194063.6, 128152.484, 0.0, 10.00091, 9.999588 
7.150318e+2, 1.7507951e+2, -1145128.5, -1232848.1, 7685.465, -0.023522388, 0.044990987, -1144460.3, 79774.266, 0.0, 10.000725, 9.999562 
7.1503586e+2, 1.8507908e+2, -1108001.4, -1170064.9, 24548.076, -0.030137131, 0.05335457, -1099465.8, 26771.215, 0.0, 10.000313, 9.999528 
7.150391e+2, 1.9508028e+2, -1095987.1, -1114390.0, 26133.621, -0.13116598, 0.18923427, -1077482.4, -49256.15, 0.0, 9.999723, 9.999524 
7.150422e+2, 2.0508036e+2, -955689.25, -867124.25, -49739.86, -0.13448651, 0.1915345, -844811.0, 85412.41, 0.0, 9.999465, 10.000668 
7.150453e+2, 2.1507901e+2, -865015.3, -771954.56, 2772.4224, -0.04254951, -0.041706778, -771872.06, 60359.168, 0.0, 9.9994135, 10.0006695 
7.150489e+2, 2.2507916e+2, -801500.1, -840791.2, 83666.266, -0.014791025, -0.021298913, -735203.9, -974.63745, 0.0, 9.999824, 9.999327 
7.1505296e+2, 2.3508048e+2, -591074.0, -691341.1, 71318.664, -0.057919007, 0.14633797, -554031.2, 82189.375, 0.0, 10.0006075, 9.999306 
7.150567e+2, 2.4508016e+2, -495312.63, -635839.25, -36326.125, -0.0436259, 0.2081124, -486477.78, 51747.074, 0.0, 10.000766, 9.998941 
7.150598e+2, 2.5507793e+2, -476603.63, -575216.75, -26581.506, 0.0207045, 0.060639676, -469894.88, -29650.172, 0.0, 10.000219, 9.998945 
7.15063e+2, 2.6507655e+2, -365290.47, -505035.25, -24666.277, 0.059204496, 0.0451339, -361064.44, -18805.854, 0.0, 10.000453, 9.998644 
7.1506613e+2, 2.7507553e+2, -153267.38, -351307.88, -10341.417, 0.07440271, 0.04715171, -152728.83, 91541.016, 0.000000020828322, 10.001234, 9.998647 
7.1506864e+2, 2.8507483e+2, -21242.906, -207242.28, -45124.215, 0.03988447, 0.10306642, -10873.658, 135403.27, 0.0000037854625, 10.001345, 9.998909 
7.150702e+2, 2.950742e+2, -51472.39, -174241.77, -36056.848, -0.07419364, 0.11232973, -41665.953, 6615.5864, 0.000035842306, 10.000466, 9.998883 
7.150743e+2, 3.0507278e+2, 52379.523, -116050.695, -4522.848, 0.01963142, 0.09602786, 52500.89, 52500.89, 0.000135526, 10.0009365, 9.998718 
7.1507955e+2, 3.1507182e+2, 300211.84, 92325.41, -21129.752, 0.19261847, 0.084631264, 302337.75, 302337.75, 0.00031586387, 10.002173, 9.999559 
7.250142e+2, 1.2507987e+2, -1418382.3, -1635113.4, 11940.614, -0.006082326, 0.27901503, -1417726.4, 296512.75, 0.0, 10.002194, 9.999501 
7.250172e+2, 1.350784e+2, -1500581.6, -1654770.3, -52642.984, 0.017130092, 0.18642974, -1484322.8, 131926.58, 0.0, 10.00118, 9.999164 
7.250228e+2, 1.4507695e+2, -1478776.8, -1587484.1, 36577.707, 0.2160895, 0.1359102, -1467615.1, 50648.57, 0.0, 10.000598, 9.999224 
7.2502506e+2, 1.5507817e+2, -1376659.8, -1476815.3, 20867.229, 0.022462722, 0.29259646, -1372486.0, 47770.234, 0.0, 10.000593, 9.999307 
7.250283e+2, 1.6507785e+2, -1212479.0, -1253262.0, 23902.01, -0.06189819, 0.29143792, -1201452.0, 120805.484, 0.0, 10.000632, 10.000158 
7.2503287e+2, 1.7507567e+2, -1111706.8, -1150730.1, 8605.689, 0.0157268, 0.02472092, -1109893.3, 114377.516, 0.0, 10.000649, 10.000172 
7.250366e+2, 1.850756e+2, -1072866.8, -1142931.9, 32423.086, 0.015391036, 0.033366267, -1060165.3, 66103.87, 0.0, 10.000512, 9.999615 
7.250394e+2, 1.9507727e+2, -1021920.7, -1064722.1, 34195.336, -0.07719823, 0.20805389, -1002981.44, 25274.39, 0.0, 10.000179, 9.9996395 
7.2504234e+2, 2.0507734e+2, -880007.25, -844175.1, -28758.281, -0.085458405, 0.20972055, -828208.7, 102044.445, 0.0, 10.000052, 10.000549 
7.250453e+2, 2.1507545e+2, -780314.1, -747737.5, -90112.1, -0.0003290394, -0.061738145, -672453.44, 159810.92, 0.0, 10.000065, 10.000531 
7.250492e+2, 2.2507529e+2, -770218.5, -865444.44, 9736.23, 0.020642197, -0.04800803, -769233.25, -34967.727, 0.0, 10.000203, 9.998982 
7.250539e+2, 2.350765e+2, -634263.7, -751284.25, -5153.7046, -0.014788671, 0.14616962, -634037.1, 2222.3315, 0.0, 10.00047, 9.998967 
7.2505784e+2, 2.4507612e+2, -500922.97, -632966.6, -85319.01, 0.0059963465, 0.21553229, -459064.22, 79200.95, 0.0, 10.000711, 9.998978 
7.250609e+2, 2.5507388e+2, -354362.1, -513760.22, -90329.52, 0.06969387, 0.061731186, -313598.03, 126687.15, 0.0, 10.001043, 9.998968 
7.25064e+2, 2.6507244e+2, -286875.38, -455127.7, -41700.203, 0.0931403, 0.03668243, -277107.34, 65191.387, 0.0, 10.000956, 9.998737 
7.2506714e+2, 2.7507138e+2, -253642.3, -391083.4, -51867.445, 0.099582486, 0.023887444, -236265.55, 8044.0796, 0.000000011844985, 10.000503, 9.998729 
7.250696e+2, 2.8507075e+2, -168086.36, -289472.56, -57016.395, 0.05477921, 0.088738166, -145505.69, 810.58997, 0.000004675658, 10.000407, 9.998785 
7.2507083e+2, 2.950703e+2, -29250.637, -175770.38, -69495.26, -0.054681, 0.12759145, -1532.2928, 46788.336, 0.000040333267, 10.000686, 9.99876 
7.2507584e+2, 3.0506918e+2, 93964.88, -88223.43, -5079.867, 0.08668006, 0.1490555, 94106.414, 94106.414, 0.00014552829, 10.001196, 9.998798 
7.25082e+2, 3.150671e+2, 231403.6, 73084.82, -177624.02, 0.26118153, 0.01949791, 346708.84, 346708.84, 0.00033116215, 10.001641, 9.999695 
7.350161e+2, 1.2507446e+2, -1403919.4, -1597489.6, -42962.414, -0.10347497, 0.20168531, -1394812.4, 319479.2, 0.0, 10.002171, 9.999762 
7.350187e+2, 1.3507405e+2, -1459161.8, -1573747.6, -85970.305, 0.012596202, 0.15590262, -1413142.6, 203146.06, 0.0, 10.001184, 9.9997225 
7.35023e+2, 1.4507283e+2, -1479977.9, -1566919.8, 18393.697, 0.14109924, 0.088521086, -1476246.6, 42053.227, 0.0, 10.000512, 9.999396 
7.350259e+2, 1.5507372e+2, -1371967.8, -1466870.3, 37900.684, 0.0072267298, 0.19452658, -1358689.4, 61606.54, 0.0, 10.000591, 9.999375 
7.3502934e+2, 1.6507393e+2, -1210035.3, -1244014.3, 8908.758, -0.04640782, 0.24247742, -1207841.1, 114452.09, 0.0, 10.000616, 10.000227 
7.350339e+2, 1.7507324e+2, -1116031.0, -1145586.4, 24512.74, 0.029192124, 0.11781471, -1102186.0, 122108.08, 0.0, 10.000584, 10.000242 
7.350377e+2, 1.8507314e+2, -1062198.9, -1089484.9, 7611.893, 0.04177844, 0.09869455, -1060219.1, 66073.54, 0.0, 10.000386, 10.000036 
7.350405e+2, 1.9507329e+2, -1013555.2, -1016159.6, 34203.504, -0.023933042, 0.07774997, -980629.1, 47662.82, 0.0, 10.000055, 10.000027 
7.3504287e+2, 2.0507315e+2, -988274.2, -1038810.7, -44001.227, -0.064260215, 0.105906926, -962802.0, -32509.422, 0.0, 9.999918, 9.999279 
7.350448e+2, 2.1507245e+2, -892606.3, -938805.1, -74988.75, -0.08435209, 0.07441146, -837239.8, -4942.39, 0.0, 9.999884, 9.999304 
7.3504895e+2, 2.2507167e+2, -798793.44, -881565.56, 6630.4766, -0.04712274, 0.08974672, -798265.6, -63960.008, 0.0, 10.000019, 9.998959 
7.350551e+2, 2.3507053e+2, -663884.56, -766143.6, 20409.615, 0.03855315, 0.048678007, -659961.56, -23641.422, 0.0, 10.0002775, 9.998955 
7.3505956e+2, 2.4507007e+2, -498715.06, -605934.4, -85466.766, 0.07571921, 0.09938594, -451435.88, 86889.984, 0.0, 10.000608, 9.999214 
7.350621e+2, 2.550699e+2, -360449.44, -492422.25, -63960.953, 0.06414937, 0.12994327, -334538.0, 105788.375, 0.0, 10.0008955, 9.999187 
7.350646e+2, 2.6506925e+2, -291815.75, -440836.6, -69076.7, 0.037230484, 0.16547826, -264722.1, 77609.836, 0.0, 10.000854, 9.99888 
7.3506707e+2, 2.7506763e+2, -257252.05, -378341.47, -47791.266, 0.0033172523, 0.08298302, -240662.67, 3684.028, 0.000000051096855, 10.000421, 9.998854 
7.350699e+2, 2.8506663e+2, -156233.22, -274800.5, -59939.594, 0.010563216, 0.099981695, -131212.02, 15143.85, 0.0000058850314, 10.000436, 9.998875 
7.35073e+2, 2.95066e+2, -35246.023, -178222.33, -38224.434, 0.04077409, 0.10934226, -25668.38, 22693.195, 0.000044056193, 10.000633, 9.998772 
7.350785e+2, 3.0506444e+2, -6241.978, -292613.13, 5943.034, 0.19746743, 0.15686822, -6118.696, -6118.696, 0.00015023243, 10.00118, 9.9974 
7.3508203e+2, 3.150601e+2, 181637.63, -4026.0586, -100728.56, 0.03175511, -0.05836911, 225787.52, 225787.52, 0.0003329124, 10.00153, 9.999216 
7.450177e+2, 1.2507008e+2, -1528274.6, -1657230.6, 34862.1, -0.105914, 0.17539978, -1519453.4, 194880.34, 0.0, 10.001356, 9.999712 
7.450205e+2, 1.3507034e+2, -1354422.9, -1493454.6, -98733.32, 0.05678569, 0.16994826, -1303188.1, 313137.0, 0.0, 10.001811, 9.99995 
7.4502367e+2, 1.4506923e+2, -1303879.4, -1488833.8, 22384.904, 0.11082167, 0.10505026, -1301208.8, 217126.14, 0.0, 10.001751, 9.99933 
7.450267e+2, 1.5506911e+2, -1261054.9, -1414826.6, -9553.135, 0.006246865, 0.11437638, -1260463.6, 159876.08, 0.0, 10.001374, 9.999342 
7.450303e+2, 1.6506957e+2, -1183715.0, -1213582.9, -20288.86, -0.012098194, 0.18059367, -1173456.5, 148878.36, 0.0, 10.0007305, 10.0003805 
7.450349e+2, 1.750703e+2, -1209935.1, -1168424.4, -27369.203, 0.10581314, 0.18186322, -1154830.8, 69493.0, 0.0, 9.999851, 10.000435 
7.4503833e+2, 1.8507038e+2, -1173486.3, -1151918.4, -11650.077, 0.12001115, 0.17450178, -1146827.3, -20506.41, 0.0, 9.999641, 9.999978 
7.4504083e+2, 1.9506946e+2, -1024406.25, -1032862.06, -43444.008, 0.020436833, 0.05344874, -984984.9, 43344.824, 0.0, 10.00001, 9.999945 
7.4504334e+2, 2.0506905e+2, -898292.75, -1032132.44, -57784.098, -0.036656085, 0.07478245, -876797.25, 53536.01, 0.0, 10.000691, 9.998938 
7.4504584e+2, 2.1506886e+2, -655283.6, -864419.2, -53813.277, -0.054343514, 0.13128534, -642249.2, 190085.19, 0.0, 10.001684, 9.99894 
7.4505e+2, 2.2506802e+2, -578691.8, -777148.0, 50862.305, -0.013100498, 0.15704629, -566415.7, 167927.64, 0.0, 10.00154, 9.99894 
7.450557e+2, 2.3506619e+2, -668080.2, -773555.4, 34352.293, 0.07746306, 0.04789219, -657878.7, -21515.479, 0.0, 10.000253, 9.998922 
7.450601e+2, 2.4506553e+2, -595038.0, -640442.44, -8878.416, 0.10845278, 0.07405856, -593363.6, -54993.582, 0.0, 9.999894, 9.999329 
7.4506307e+2, 2.5506568e+2, -396797.13, -492879.28, -26601.879, 0.090325326, 0.124946214, -389923.7, 50443.324, 0.0, 10.000575, 9.999339 
7.450657e+2, 2.650652e+2, -268747.63, -421991.94, -33158.023, 0.06091051, 0.16633968, -261880.81, 80489.84, 0.0, 10.000976, 9.998955 
7.45068e+2, 2.750637e+2, -153747.86, -313154.7, -46719.445, 0.032544408, 0.0878276, -141064.36, 103319.78, 0.00000017449423, 10.001085, 9.998974 
7.4507093e+2, 2.8506258e+2, -81155.445, -254310.31, -34377.543, 0.049937777, 0.09772769, -74579.95, 71814.69, 0.0000070145306, 10.001021, 9.998737 
7.450744e+2, 2.950616e+2, -17901.135, -182202.72, -63219.563, 0.121920235, 0.08149732, 3608.4102, 52013.457, 0.00004543542, 10.000801, 9.998668 
7.450801e+2, 3.0505985e+2, -90680.55, -315090.25, 71102.84, 0.2877909, 0.10799819, -70048.87, -70048.87, 0.00014809403, 10.000523, 9.997552 
7.450824e+2, 3.1505668e+2, -11295.894, -22691.361, 47460.26, 0.009315875, -0.008343426, 30807.426, 30807.426, 0.00032280377, 9.999901, 9.999851 
7.550182e+2, 1.2506655e+2, -1561991.0, -1714961.9, -193.82614, -0.25886315, 0.16560109, -1561990.8, 152376.7, 0.0, 10.001303, 9.999345 
7.5502235e+2, 1.3506714e+2, -1364126.3, -1519319.4, -69467.09, 0.028608061, 0.20929788, -1337574.3, 278785.22, 0.0, 10.001823, 9.999774 
7.550248e+2, 1.4506605e+2, -1331147.4, -1533608.4, -10201.085, 0.0025927348, 0.17262445, -1330634.8, 187734.84, 0.0, 10.001708, 9.999041 
7.5502723e+2, 1.5506446e+2, -1288267.9, -1457947.1, -10875.87, -0.11954574, 0.06796181, -1287573.6, 132812.38, 0.0, 10.001321, 9.999074 
7.550305e+2, 1.6506477e+2, -1170812.5, -1175563.6, -70145.15, -0.09216766, 0.115779884, -1103002.8, 219379.27, 0.0, 10.000677, 10.000669 
7.550351e+2, 1.7506675e+2, -1199701.0, -1137540.4, -45768.414, 0.11459252, 0.21682376, -1113296.8, 111063.25, 0.0, 9.999809, 10.000669 
7.550383e+2, 1.8506724e+2, -1214271.1, -1218166.5, -14068.703, 0.12600657, 0.2587205, -1202015.9, -75661.68, 0.0, 9.999563, 9.999562 
7.550403e+2, 1.9506583e+2, -1069254.1, -1095993.9, -14744.336, -0.067276366, 0.13226917, -1062720.5, -34352.164, 0.0, 9.999886, 9.99957 
7.5504345e+2, 2.0506512e+2, -889113.0, -976489.75, -34165.375, -0.11861598, 0.117117375, -877340.2, 53034.066, 0.0, 10.00053, 9.999403 
7.55048e+2, 2.1506481e+2, -651779.44, -806784.44, -3897.8545, -0.033487506, 0.11443907, -651681.5, 180693.1, 0.0, 10.001476, 9.999435 
7.55052e+2, 2.2506443e+2, -605836.25, -790883.2, -10204.029, 0.0032346868, 0.1630714, -605275.3, 129102.53, 0.0, 10.001358, 9.998934 
7.5505525e+2, 2.3506363e+2, -697970.9, -788909.5, 2385.6394, -0.017646382, 0.1606234, -697908.3, -61521.008, 0.0, 10.000059, 9.998909 
7.5505894e+2, 2.4506266e+2, -614848.4, -654277.1, 2727.7637, -0.015679292, 0.16015287, -614660.56, -76264.586, 0.0, 9.999775, 9.99929 
7.550631e+2, 2.5506112e+2, -415563.53, -507220.97, 12905.17, 0.00903641, 0.042669136, -413781.2, 26626.643, 0.0, 10.000468, 9.999291 
7.550667e+2, 2.650602e+2, -273145.47, -416991.44, -42596.434, 0.033530492, 0.04041618, -261477.95, 80937.57, 0.0, 10.0009165, 9.999018 
7.550696e+2, 2.750596e+2, -169343.7, -317155.9, -25144.914, 0.054729003, 0.046972312, -165183.3, 79238.38, 0.0000002213921, 10.000963, 9.999006 
7.5507236e+2, 2.8505868e+2, -116441.836, -315165.34, -54848.957, 0.056670565, 0.09302607, -102308.37, 44123.832, 0.000006961638, 10.000961, 9.998352 
7.550747e+2, 2.9505697e+2, -49403.887, -234859.97, -50856.97, 0.029758755, 0.04815933, -36373.145, 12078.195, 0.00004401986, 10.000735, 9.998344 
7.550802e+2, 3.0505517e+2, 17092.035, -73963.21, 40287.68, 0.20992494, -0.00429839, 32358.012, 32358.012, 0.0001416952, 10.000464, 9.999226 
7.5508183e+2, 3.1505713e+2, 95611.79, 221659.05, 101316.33, -0.110565946, 0.224055, 277954.22, 277954.22, 0.0003069929, 9.999816, 10.001563 
7.6501936e+2, 1.2506379e+2, -1770370.3, -1826460.8, 79491.92, -0.1849403, 0.17433996, -1714121.4, 272.2575, 0.00000000032551553, 9.999856, 9.999295 
7.65024e+2, 1.3506436e+2, -1492533.1, -1585967.9, -12697.517, 0.06467974, 0.21732129, -1490838.3, 125549.73, 0.0, 10.000935, 9.999749 
7.6502585e+2, 1.4506382e+2, -1405166.6, -1544352.5, 75357.56, -0.016269028, 0.22166272, -1372183.0, 146209.2, 0.0, 10.001063, 9.999293 
7.650284e+2, 1.5506212e+2, -1353477.8, -1462162.0, 87614.91, -0.09198892, 0.07823836, -1304720.8, 115686.016, 0.0, 10.00073, 9.999346 
7.650315e+2, 1.6506198e+2, -1225583.0, -1272379.9, 48555.06, -0.053724226, 0.09850393, -1195082.6, 127324.375, 0.0, 10.000616, 10.000027 
7.6503533e+2, 1.7506307e+2, -1116526.6, -1170443.4, -24304.158, 0.123088844, 0.17615841, -1107188.4, 117207.85, 0.0, 10.000696, 10.000013 
7.6503843e+2, 1.8506321e+2, -1069941.9, -1155001.0, 32065.129, 0.1391522, 0.21950991, -1059208.5, 67185.66, 0.0, 10.000593, 9.999492 
7.650408e+2, 1.9506203e+2, -1010733.7, -1077908.3, 26217.777, -0.01508647, 0.1219409, -1001712.56, 26692.047, 0.0, 10.000329, 9.999481 
7.650445e+2, 2.050613e+2, -915718.56, -976746.94, 54547.414, -0.053098146, 0.10459162, -883730.44, 46679.27, 0.0, 10.000304, 9.999509 
7.650494e+2, 2.1506065e+2, -784044.9, -864828.06, 31398.771, 0.016842006, 0.057999857, -773276.25, 59136.97, 0.0, 10.000529, 9.999502 
7.6505333e+2, 2.2506021e+2, -691896.44, -846555.94, -7878.584, 0.044762276, 0.10372458, -691496.1, 42921.12, 0.0, 10.000839, 9.998799 
7.650562e+2, 2.3505972e+2, -532956.2, -720715.56, -34481.457, 0.025462637, 0.14478426, -526824.06, 109600.195, 0.0, 10.001256, 9.99879 
7.6505965e+2, 2.4505875e+2, -423341.9, -555517.5, 6171.6187, 0.016606199, 0.14549462, -423054.34, 115378.43, 0.0, 10.0010605, 9.99935 
7.6506346e+2, 2.55057e+2, -452329.06, -519692.88, -1344.9877, 0.018586958, 0.002070556, -452302.22, -11856.409, 0.0, 10.000191, 9.999342 
7.6506716e+2, 2.6505604e+2, -439523.8, -510776.3, -26900.621, 0.046183713, -0.0007508677, -430508.47, -88053.99, 0.0, 9.999837, 9.998894 
7.6507056e+2, 2.7505553e+2, -323299.47, -405518.16, -55851.99, 0.106198795, 0.028622817, -295058.8, -50597.426, 0.00000016204108, 9.999968, 9.998882 
7.650733e+2, 2.850548e+2, -226405.1, -346537.28, -41825.266, 0.10649471, 0.09432139, -213277.69, -66807.47, 0.000006290961, 10.000117, 9.998534 
7.650753e+2, 2.950536e+2, -112990.445, -232831.52, -28821.203, 0.050483212, 0.073395096, -106419.38, -57935.246, 0.000041719115, 10.00019, 9.998597 
7.650804e+2, 3.0505165e+2, 7412.0957, -49198.08, 49954.156, 0.20508857, -0.017571554, 36522.996, 36522.996, 0.00013461517, 10.000249, 9.999517 
7.6508194e+2, 3.1505448e+2, 69390.21, 182811.9, -8509.991, -0.06440508, 0.27167043, 183446.86, 183446.86, 0.00029005748, 9.999727, 10.001362 
7.7502024e+2, 1.250618e+2, -1757075.9, -1781991.6, 27412.508, -0.15766129, 0.19954914, -1739423.3, -25010.738, 0.0000000023621072, 9.999793, 9.999631 
7.750248e+2, 1.3506198e+2, -1488951.1, -1574158.3, 31054.357, 0.016817631, 0.20204213, -1478834.3, 137576.56, 0.0, 10.000921, 9.999839 
7.750265e+2, 1.4506246e+2, -1337003.9, -1399230.3, 41033.984, -0.10409648, 0.25035203, -1316621.3, 201782.36, 0.0, 10.001041, 10.000302 
7.7502996e+2, 1.5506212e+2, -1288209.4, -1325193.5, 91226.28, -0.043748327, 0.14855702, -1213619.9, 206781.44, 0.0, 10.00072, 10.000291 
7.7503276e+2, 1.6506122e+2, -1342974.5, -1500225.4, 35300.93, -0.01634141, 0.12519258, -1335413.5, -13004.214, 0.0, 10.000554, 9.998492 
7.750352e+2, 1.7505938e+2, -1229242.6, -1390997.0, -4470.204, 0.009725124, 0.06000971, -1229119.1, -4687.9194, 0.0, 10.000644, 9.998523 
7.750383e+2, 1.8505847e+2, -1065944.3, -1129293.1, 9655.638, 0.035241317, 0.062064797, -1064505.1, 61934.426, 0.0, 10.000507, 9.999718 
7.7504206e+2, 1.9505821e+2, -1011863.5, -1054320.6, 31468.283, 0.04816141, 0.035806186, -995132.8, 33304.574, 0.0, 10.000212, 9.999704 
7.750458e+2, 2.050577e+2, -958656.0, -1025307.75, 47943.902, 0.025890421, 0.041120663, -933593.25, -3153.8647, 0.0, 10.0001335, 9.999255 
7.7504975e+2, 2.1505657e+2, -830639.7, -915269.44, 52387.86, -0.02405986, -0.027408903, -805611.9, 26837.201, 0.0, 10.000339, 9.999243 
7.750539e+2, 2.2505558e+2, -739733.3, -903853.6, -7081.3857, -0.0062826145, -0.0078868065, -739428.4, -4968.4688, 0.0, 10.000654, 9.998501 
7.750582e+2, 2.3505439e+2, -577761.94, -774614.4, -4481.6514, 0.07332083, -0.007934988, -577659.94, 58815.063, 0.0, 10.001081, 9.998509 
7.7506155e+2, 2.4505374e+2, -433426.13, -537688.2, -40332.734, 0.07480404, 0.030215057, -419645.28, 118835.67, 0.0, 10.0009, 9.999548 
7.750637e+2, 2.550534e+2, -460515.38, -501089.6, -17889.52, -0.0034058273, 0.010278283, -453754.34, -13274.18, 0.0, 10.000043, 9.999538 
7.750667e+2, 2.6505274e+2, -476066.38, -569341.44, -34528.37, -0.011465895, 0.046409417, -464675.75, -122188.94, 0.0, 9.9997635, 9.99853 
7.7507025e+2, 2.7505127e+2, -358897.0, -462677.7, -34892.67, 0.045585003, 0.017598024, -348256.5, -103751.34, 0.00000014054619, 9.999891, 9.998531 
7.7507323e+2, 2.8505084e+2, -182831.63, -238586.94, -51440.535, 0.059668917, 0.08790377, -152200.38, -5689.852, 0.0000059856334, 10.000048, 9.999304 
7.7507573e+2, 2.9505122e+2, -66978.3, -127539.15, -6185.459, 0.032335877, 0.14736992, -66352.99, -17847.518, 0.0000396548, 10.000144, 9.999342 
7.750804e+2, 3.0504924e+2, -68330.33, -192364.92, 23071.371, 0.15204138, 0.06520833, -64177.9, -64177.9, 0.00012692052, 10.000199, 9.998557 
7.7508175e+2, 3.150492e+2, -98547.61, -140628.39, 51547.445, -0.13810712, 0.17147256, -63911.816, -63911.816, 0.00027215088, 9.999617, 9.999198 
7.8502154e+2, 1.2505974e+2, -1578965.3, -1660401.6, 45014.586, -0.04390739, 0.21704185, -1558985.1, 155445.45, 0.0000000040597263, 10.000905, 9.999907 
7.8502566e+2, 1.3505895e+2, -1616358.8, -1630163.4, 20014.646, 0.06959547, 0.118449375, -1602089.6, 14348.029, 0.0, 10.00006, 9.999849 
7.850271e+2, 1.4505956e+2, -1519097.3, -1461669.4, 27848.32, -0.065031916, 0.16835877, -1450383.1, 68045.71, 0.0, 9.999692, 10.000518 
7.8503084e+2, 1.5506028e+2, -1384762.6, -1350083.3, -14064.888, 0.01481407, 0.15292045, -1345096.1, 75320.63, 0.0, 9.999974, 10.000475 
7.8503376e+2, 1.6505955e+2, -1369045.8, -1526473.3, 1225.6566, 0.039739862, 0.14505911, -1369036.3, -46613.07, 0.0, 10.00043, 9.998365 
7.850362e+2, 1.7505713e+2, -1194157.3, -1386425.6, 31593.83, 0.034707792, 0.03430568, -1189098.9, 35351.688, 0.0, 10.000947, 9.9984 
7.850393e+2, 1.8505594e+2, -977563.75, -1107297.8, 91799.52, 0.055581164, 0.02275975, -930025.75, 196435.55, 0.0, 10.001207, 9.999527 
7.85043e+2, 1.9505563e+2, -899786.6, -1018470.06, 55152.996, 0.089128844, 0.009019864, -878114.2, 150344.84, 0.0, 10.001075, 9.999523 
7.8504694e+2, 2.050549e+2, -837844.25, -1025365.75, 95831.4, 0.082003884, 0.028243918, -797535.1, 132929.03, 0.0, 10.001202, 9.998747 
7.850513e+2, 2.1505345e+2, -704113.75, -909564.4, 53675.164, 0.043428954, -0.021466428, -690936.06, 141543.53, 0.0, 10.001444, 9.998752 
7.850552e+2, 2.250524e+2, -662490.4, -833234.94, 15353.516, 0.048840832, 0.000470705, -661120.75, 73370.84, 0.0, 10.001035, 9.998799 
7.8505886e+2, 2.350514e+2, -723126.94, -814267.06, 33469.652, 0.09028431, -0.008632884, -712156.3, -75652.83, 0.0, 9.9999485, 9.998786 
7.8506196e+2, 2.4505089e+2, -602536.94, -637494.2, 47092.473, 0.08865705, 0.03766864, -569784.06, -31275.78, 0.0, 9.999826, 9.999372 
7.8506446e+2, 2.5505054e+2, -380487.75, -483260.66, 10818.539, 0.044455882, 0.03333424, -379361.28, 61147.66, 0.0, 10.000678, 9.9993515 
7.8506744e+2, 2.650497e+2, -293798.53, -500053.06, 17811.422, 0.03389685, 0.0676226, -292271.7, 50246.008, 0.0, 10.001103, 9.998354 
7.850708e+2, 2.750479e+2, -197575.23, -403770.4, 1894.6322, 0.06159163, 0.025250802, -197557.83, 46980.465, 0.0000001311964, 10.001087, 9.998352 
7.8507376e+2, 2.850471e+2, -64742.555, -225846.36, -22463.809, 0.06450287, 0.088326775, -61668.91, 84878.59, 0.0000058891046, 10.001044, 9.99892 
7.850765e+2, 2.9504725e+2, 7821.738, -139675.42, -96982.266, 0.06201194, 0.16838017, 55910.81, 104456.92, 0.000037489564, 10.000855, 9.998928 
7.8508085e+2, 3.0504555e+2, -20342.047, -164061.66, -59423.727, 0.18299522, 0.12738736, 1045.1891, 1045.1891, 0.00011865352, 10.000491, 9.998611 
7.850826e+2, 3.1504458e+2, -121695.86, -177338.23, 11164.159, 0.0081085805, 0.13476449, -119539.445, -119539.445, 0.00025448482, 9.99956, 9.998966 
7.9502213e+2, 1.2505825e+2, -1552596.6, -1635833.8, -63117.883, -0.15411428, 0.26310393, -1518611.1, 195831.08, 0.0000000034592607, 10.001014, 10.000032 
7.950262e+2, 1.3505533e+2, -1610190.8, -1636632.9, -3040.8286, 0.07744823, -0.041468844, -1609845.5, 6622.402, 0.0, 10.000127, 9.999777 
7.9502755e+2, 1.4505517e+2, -1570364.8, -1557950.5, 17526.887, -0.03796475, -0.029890409, -1545564.0, -27096.375, 0.0, 9.999656, 9.99987 
7.9503053e+2, 1.5505657e+2, -1427932.0, -1436538.8, 13623.806, -0.052210286, 0.07929128, -1417948.0, 2505.2715, 0.0, 9.999966, 9.99988 
7.950339e+2, 1.6505702e+2, -1285183.4, -1348328.1, 6126.2314, -0.023999153, 0.15641132, -1284594.5, 37853.59, 0.0, 10.000403, 9.999607 
7.950378e+2, 1.7505635e+2, -1107753.4, -1208954.6, 65361.777, 0.064168565, 0.09688737, -1075694.6, 148759.36, 0.0, 10.000941, 9.999625 
7.9504097e+2, 1.8505555e+2, -1038976.5, -1205961.0, 72157.7, 0.0681649, 0.09488944, -1012116.2, 114343.92, 0.0, 10.001091, 9.998901 
7.950433e+2, 1.9505423e+2, -955633.06, -1110107.5, 63747.363, -0.025409814, 0.03852158, -932723.8, 95746.46, 0.0, 10.000977, 9.998937 
7.9504746e+2, 2.0505293e+2, -908858.2, -1138495.5, 89358.11, -0.013292154, 0.06360743, -878183.9, 52300.113, 0.0, 10.001054, 9.998042 
7.950535e+2, 2.1505123e+2, -780506.8, -1026127.25, 76450.41, 0.09363657, 0.061114404, -758655.3, 73849.7, 0.0, 10.001261, 9.998041 
7.950568e+2, 2.2505066e+2, -633006.4, -723699.2, -36761.86, 0.08483381, 0.121710464, -619977.0, 114535.31, 0.0, 10.000828, 9.999652 
7.9505765e+2, 2.3505084e+2, -685432.56, -701817.94, 9332.643, -0.045783263, 0.14653127, -681206.8, -44697.742, 0.0, 9.999798, 9.999632 
7.950605e+2, 2.4505019e+2, -660868.44, -727665.8, 65238.53, -0.06696306, 0.16428828, -620976.3, -82461.664, 0.0, 9.999696, 9.998816 
7.9506516e+2, 2.550483e+2, -441619.6, -577404.9, 58228.758, 0.019694507, 0.065360494, -420069.5, 20463.305, 0.0, 10.000537, 9.9987755 
7.95069e+2, 2.650468e+2, -300490.78, -497843.28, 4999.2827, 0.04578585, 0.06274772, -300364.22, 42183.047, 0.0, 10.001028, 9.998406 
7.950717e+2, 2.7504545e+2, -207750.36, -408219.75, 21340.443, 0.015214319, 0.05402432, -205503.78, 39057.008, 0.000000103459534, 10.001011, 9.998359 
7.9507446e+2, 2.8504378e+2, -178646.58, -451855.94, -41174.387, -0.0033844223, 0.107287385, -172576.2, -25996.217, 0.0000054454867, 10.000999, 9.997391 
7.9507685e+2, 2.950417e+2, -113001.82, -370971.34, -79531.33, -0.029483866, 0.12229231, -90453.414, -41847.44, 0.00003447301, 10.000769, 9.997384 
7.950814e+2, 3.050406e+2, 44470.496, -17841.04, -95826.64, 0.14587742, 0.16389972, 114078.945, 114078.945, 0.0001104858, 10.000437, 9.99964 
7.9508394e+2, 3.1503928e+2, -38136.25, 15642.955, 42100.402, 0.107047886, 0.027801132, 38708.277, 38708.277, 0.000240168, 9.999468, 10.000338 
8.050239e+2, 1.2505582e+2, -1665088.3, -1719253.1, -59508.88, -0.032997254, 0.20627278, -1626789.0, 87674.02, 0.0000000057252847, 10.000393, 9.999774 
8.0502677e+2, 1.3505322e+2, -1599739.6, -1687669.1, -60944.813, 0.1201224, -0.012460674, -1568556.8, 47931.242, 0.0, 10.000434, 9.999302 
8.0502814e+2, 1.4505251e+2, -1470052.5, -1532624.1, 25836.818, 0.031074967, -0.0203477, -1460763.3, 57730.633, 0.0, 10.000456, 9.999656 
8.0503136e+2, 1.5505303e+2, -1324699.5, -1417141.9, 10291.799, 0.006810373, 0.028852092, -1323567.6, 96919.45, 0.0, 10.000803, 9.999617 
8.050349e+2, 1.6505343e+2, -1214372.6, -1280623.9, 1533.2062, 0.02704508, 0.095723756, -1214337.1, 108144.49, 0.0, 10.000759, 9.999903 
8.050388e+2, 1.7505345e+2, -1172364.6, -1211971.8, -41970.8, 0.10963913, 0.082488365, -1145759.9, 78719.56, 0.0, 10.000385, 9.99988 
8.050423e+2, 1.8505275e+2, -1105571.5, -1269477.0, -18145.98, 0.116831616, 0.093392044, -1103586.6, 22898.676, 0.0, 10.000777, 9.998618 
8.0504525e+2, 1.95051e+2, -855867.2, -1100798.8, -35901.547, 0.03721267, 0.026616208, -850713.25, 177788.98, 0.0, 10.001827, 9.998603 
8.0504924e+2, 2.0504972e+2, -770958.94, -1037306.5, 29844.781, 0.027908532, 0.059194542, -767655.75, 162860.63, 0.0, 10.001851, 9.998356 
8.050543e+2, 2.150486e+2, -828873.25, -1013813.5, 61542.242, 0.08804906, 0.0820381, -810266.06, 22265.08, 0.0, 10.000782, 9.998355 
8.0505735e+2, 2.2504821e+2, -690196.06, -743370.4, -16930.523, 0.084930345, 0.14454699, -685263.06, 49272.867, 0.0, 10.00041, 9.999706 
8.050584e+2, 2.3504831e+2, -560484.2, -633304.9, -58198.797, 0.010784208, 0.15278599, -528244.6, 108288.9, 0.0, 10.000639, 9.999684 
8.0506116e+2, 2.450475e+2, -529739.1, -682475.56, 38701.566, -0.008033007, 0.16009144, -520492.44, 18048.205, 0.0, 10.000648, 9.998681 
8.050658e+2, 2.5504544e+2, -474352.13, -607199.5, 35796.906, 0.03900964, 0.053894997, -465320.34, -24759.432, 0.0, 10.000358, 9.998668 
8.0506974e+2, 2.6504397e+2, -382783.25, -534701.44, 26701.707, 0.059222706, 0.05672596, -378226.72, -35651.742, 0.0, 10.000434, 9.998452 
8.0507314e+2, 2.7504274e+2, -218140.34, -405424.8, 16668.541, 0.06356271, 0.05697095, -216668.39, 27917.904, 0.00000004701224, 10.000884, 9.998451 
8.050759e+2, 2.8504094e+2, -179642.75, -483368.03, 24613.332, 0.040250547, 0.10549119, -177661.06, -31054.426, 0.000004093495, 10.001122, 9.997115 
8.050778e+2, 2.950384e+2, -65241.91, -377551.53, 45150.96, -0.017873136, 0.09396658, -58845.39, -10207.214, 0.000029631305, 10.0012245, 9.997118 
8.0508167e+2, 3.0503714e+2, 86095.734, -8675.378, 27225.516, 0.13257088, 0.14418706, 93360.15, 93360.15, 0.00010221737, 10.0007715, 9.999552 
8.050848e+2, 3.1503576e+2, -23788.043, 66960.31, 44252.63, 0.26968595, 0.010262645, 84966.82, 84966.82, 0.00023173698, 9.999392, 10.00073 
8.1502575e+2, 1.2505293e+2, -1710467.5, -1833044.1, -114432.65, 0.03415117, 0.083653644, -1641944.1, 72544.47, 0.000000004999778, 10.000467, 9.99896 
8.150269e+2, 1.3505283e+2, -1658161.4, -1817846.6, -49736.473, 0.049888443, 0.2033889, -1643937.3, -27441.377, 0.0, 10.000479, 9.9983835 
8.1502855e+2, 1.4505175e+2, -1461197.6, -1523344.3, 19802.256, -0.015207026, 0.20248361, -1455424.3, 63081.375, 0.0, 10.000487, 9.99971 
8.15033e+2, 1.550498e+2, -1318177.8, -1403081.1, 37593.52, 0.05348498, -0.000760693, -1303924.8, 116592.3, 0.0, 10.000798, 9.999717 
8.150363e+2, 1.6504882e+2, -1276092.9, -1394238.1, -28840.598, 0.06163901, -0.035546906, -1269428.4, 53094.426, 0.0, 10.000702, 9.999146 
8.150388e+2, 1.7504849e+2, -1227790.0, -1316923.5, -40600.94, 0.037556745, -0.015513674, -1212068.8, 12457.401, 0.0, 10.00035, 9.999169 
8.150429e+2, 1.8504766e+2, -1119344.3, -1284597.4, 9013.036, 0.070881285, 0.019958291, -1118854.1, 7681.29, 0.0, 10.000709, 9.998552 
8.1504834e+2, 1.9504601e+2, -874451.75, -1119052.4, 19541.111, 0.13645157, -0.028329674, -872900.44, 155653.2, 0.0, 10.001729, 9.998527 
8.1505185e+2, 2.0504543e+2, -713966.56, -876585.94, -25098.854, 0.08262551, 0.016918411, -710180.9, 220378.98, 0.0, 10.001668, 9.999549 
8.150536e+2, 2.1504557e+2, -768620.1, -848247.4, 36595.41, -0.09146952, 0.044141483, -754356.5, 78200.93, 0.0, 10.000606, 9.999576 
8.1505644e+2, 2.2504513e+2, -769637.4, -860507.1, -23784.348, -0.07542702, 0.076059334, -763788.5, -29226.434, 0.0, 10.00021, 9.998999 
8.1506044e+2, 2.3504376e+2, -638274.6, -749105.75, -35320.395, 0.11851564, 0.0076213707, -627975.56, 8601.622, 0.0, 10.000443, 9.998981 
8.1506354e+2, 2.450428e+2, -535022.94, -651725.8, 12913.272, 0.13638265, 0.019841753, -533611.1, 4975.373, 0.0, 10.000473, 9.998977 
8.1506586e+2, 2.55042e+2, -474465.75, -575673.44, 39170.664, -0.020195106, 0.009995655, -461076.72, -20483.973, 0.0, 10.000224, 9.99895 
8.1506944e+2, 2.6504114e+2, -384518.22, -517517.03, 29880.281, -0.041127995, 0.05216802, -378113.56, -35512.715, 0.0, 10.00035, 9.99861 
8.1507427e+2, 2.7503982e+2, -235473.84, -398299.16, 52254.387, 0.06506703, 0.03351858, -220146.94, 24467.621, 0.000000004527389, 10.000709, 9.998584 
8.150774e+2, 2.8503856e+2, -124025.766, -352827.3, 14865.344, 0.057579808, 0.0827515, -123064.0, 23564.021, 0.0000024308686, 10.001051, 9.998048 
8.1507903e+2, 2.9503724e+2, -23030.873, -264337.75, 70525.04, -0.06368219, 0.103962794, -3930.837, 44712.047, 0.00002455122, 10.001118, 9.997948 
8.1508154e+2, 3.0503508e+2, 5373.2935, -178686.27, -33323.637, 0.00906729, 0.08335268, 11220.708, 11220.708, 0.00009685274, 10.000783, 9.998376 
8.1508404e+2, 3.15033e+2, -79840.3, -13992.701, 48171.418, 0.17511413, -0.008913641, 11431.269, 11431.269, 0.00023260372, 9.999252, 10.000238 
8.250263e+2, 1.2504934e+2, -1918949.6, -1896202.9, -138647.66, 0.13731425, 0.02604368, -1768462.9, -53939.973, 0.0000000017683296, 9.998866, 9.999291 
8.250278e+2, 1.3505019e+2, -1502360.3, -1715350.6, -31140.375, 0.06546224, 0.20858018, -1497900.8, 118618.234, 0.0, 10.001414, 9.998637 
8.250303e+2, 1.4504904e+2, -1244122.6, -1431221.9, 58342.13, 0.043737564, 0.19502507, -1227421.0, 291107.84, 0.0, 10.002043, 9.999585 
8.2503444e+2, 1.5504695e+2, -1287913.1, -1403089.4, 25882.436, 0.10726323, -0.009412198, -1282364.1, 138178.4, 0.0, 10.001084, 9.999566 
8.2503766e+2, 1.6504557e+2, -1238476.9, -1420034.6, 18418.873, 0.11253145, -0.059290946, -1236627.1, 85925.805, 0.0, 10.001127, 9.998768 
8.2504046e+2, 1.7504463e+2, -1007719.1, -1260111.1, 1979.8661, 0.0901545, -0.06306356, -1007703.56, 216859.34, 0.0, 10.002043, 9.998755 
8.250445e+2, 1.8504378e+2, -934621.06, -1178306.3, 87922.38, 0.10679453, -0.016068736, -906210.6, 220362.36, 0.0, 10.001902, 9.998704 
8.250495e+2, 1.9504268e+2, -1015717.3, -1170766.9, 83298.664, 0.1390022, -0.024885962, -979449.5, 49137.242, 0.0, 10.00069, 9.998666 
8.250528e+2, 2.050423e+2, -876457.1, -918637.94, 37868.332, 0.08149395, 0.016980002, -854202.2, 76388.58, 0.0, 10.000403, 9.999856 
8.2505465e+2, 2.1504238e+2, -696107.5, -781712.3, 495.95862, -0.05833062, 0.008493053, -696104.6, 136483.22, 0.0, 10.00097, 9.999855 
8.250576e+2, 2.2504193e+2, -622820.8, -820192.1, -30897.33, -0.02480515, 0.038215138, -618097.06, 116495.5, 0.0, 10.001327, 9.998757 
8.2506186e+2, 2.3504059e+2, -511505.03, -718280.06, -37468.39, 0.18062678, -0.000101956124, -504925.03, 131683.64, 0.0, 10.001426, 9.998737 
8.25065e+2, 2.4503966e+2, -391322.5, -581495.94, 35507.758, 0.19650835, 0.027716009, -384909.06, 153709.0, 0.0, 10.001463, 9.998976 
8.2506704e+2, 2.550389e+2, -292920.97, -485048.6, 9097.432, 0.020871118, 0.019976778, -292491.16, 148132.39, 0.0, 10.001473, 9.998963 
8.250703e+2, 2.65038e+2, -290819.53, -463986.72, 5141.4385, -0.011095211, 0.05696272, -290667.03, 51964.71, 0.0, 10.000964, 9.998673 
8.250749e+2, 2.7503663e+2, -349638.8, -442941.34, -9718.362, 0.10705968, 0.01912442, -348637.3, -103990.375, 0.0, 9.999887, 9.998661 
8.2507837e+2, 2.8503576e+2, -240792.22, -312501.03, 15420.913, 0.10994336, 0.059841048, -237616.6, -90961.74, 0.000001518397, 9.999843, 9.998905 
8.2508063e+2, 2.9503512e+2, -9975.203, -159158.98, 33160.008, 0.01420219, 0.06544126, -2936.6077, 45721.926, 0.000022026383, 10.000774, 9.998834 
8.250824e+2, 3.0503285e+2, 7825.9272, -256846.36, -63391.277, 0.013106225, 0.02206229, 22225.291, 22225.291, 0.00009707927, 10.001157, 9.997648 
8.250841e+2, 3.1503066e+2, 96546.4, -14035.548, -12650.244, 0.19663185, -0.0104827015, 97975.086, 97975.086, 0.00024343748, 10.000818, 9.999476 
8.3502436e+2, 1.2504554e+2, -1822246.3, -1685732.9, -81873.87, -0.0076310406, 0.07516764, -1647395.4, 67165.86, 0.000000000051048894, 9.998825, 10.000757 
8.350293e+2, 1.350455e+2, -1383453.5, -1470122.8, 76717.01, 0.03782805, 0.010050076, -1338678.0, 277877.47, 0.0, 10.001425, 10.000312 
8.3503294e+2, 1.4504457e+2, -1282725.1, -1504131.5, 2953.7834, 0.06259658, -0.04222195, -1282685.8, 235876.22, 0.0, 10.002012, 9.999098 
8.3503497e+2, 1.5504453e+2, -1321355.6, -1467033.4, 3909.8528, 0.020757485, -0.0012232752, -1321250.8, 99312.516, 0.0, 10.001062, 9.999134 
8.3503836e+2, 1.6504365e+2, -1250499.4, -1423418.8, 37255.383, 0.04494583, 0.020729473, -1242814.3, 79757.87, 0.0, 10.001037, 9.99879 
8.350434e+2, 1.7504196e+2, -1013316.0, -1257171.0, 53078.754, 0.14502428, -0.0552464, -1002263.56, 222324.94, 0.0, 10.00199, 9.998797 
8.350467e+2, 1.8504122e+2, -924494.9, -1141853.1, 25992.682, 0.10711361, -0.014468843, -921429.75, 205167.3, 0.0, 10.001831, 9.998992 
8.3504826e+2, 1.9504091e+2, -1009022.56, -1128422.9, 51609.95, -0.08137266, 0.023465825, -989806.94, 38795.414, 0.0, 10.000572, 9.999012 
8.350517e+2, 2.0504028e+2, -944809.5, -1020937.5, 44528.61, -0.09894983, 0.05384479, -924293.06, 6316.6055, 0.0, 10.00023, 9.999238 
8.350569e+2, 2.1503903e+2, -765374.8, -882701.1, 37162.043, 0.04747902, -0.02843766, -754594.56, 78027.555, 0.0, 10.000787, 9.999246 
8.3506054e+2, 2.2503865e+2, -635282.6, -804423.25, -42389.215, 0.1080697, 0.02835181, -625253.9, 109373.13, 0.0, 10.001141, 9.998958 
8.3506244e+2, 2.350388e+2, -520539.22, -702988.06, -17061.191, 0.07147508, 0.11999009, -518957.5, 117670.13, 0.0, 10.001268, 9.998922 
8.3506525e+2, 2.4503812e+2, -432503.3, -634524.06, 21862.91, 0.045630164, 0.17651968, -430164.34, 108470.49, 0.0, 10.001318, 9.998683 
8.350688e+2, 2.550362e+2, -333615.38, -541604.7, 26285.807, 0.027062455, 0.08358145, -330344.78, 110307.61, 0.0, 10.001345, 9.998638 
8.350719e+2, 2.6503468e+2, -306880.3, -474540.25, -47936.42, 0.02681818, 0.07343898, -294142.38, 48524.84, 0.0, 10.000866, 9.998651 
8.3507454e+2, 2.750332e+2, -367102.9, -454614.5, -31365.234, 0.04208009, 0.02977731, -357022.4, -112339.91, 0.0, 9.999781, 9.998634 
8.35078e+2, 2.8503257e+2, -186472.6, -187117.63, 35716.008, 0.059861682, 0.04913427, -151077.64, -4391.449, 0.0000012583888, 9.99979, 9.999792 
8.3508235e+2, 2.9503223e+2, 29713.477, -44167.17, 86186.0, 0.06596489, -0.00072936626, 86542.09, 135225.2, 0.000022671806, 10.000635, 9.999696 
8.350838e+2, 3.0503038e+2, -17819.889, -295977.47, -80929.8, 0.0037850481, -0.03275311, 4012.919, 4012.919, 0.0001036696, 10.0011, 9.997406 
8.350841e+2, 3.1503087e+2, 4764.0767, -174144.11, 9111.926, 0.03638983, 0.23345885, 5226.9565, 5226.9565, 0.00026239955, 10.000699, 9.998432 
8.450246e+2, 1.2504111e+2, -1481437.4, -1480979.1, -41895.492, 0.041001502, 0.105665945, -1439312.1, 275293.3, 0.0, 10.000988, 10.001116 
8.4503007e+2, 1.3504058e+2, -1634145.3, -1537117.6, -38847.31, 0.08185089, -0.059418414, -1523480.8, 93120.84, 0.0, 9.999476, 10.000791 
8.450343e+2, 1.450399e+2, -1680051.6, -1689845.0, -108734.836, 0.13957673, -0.113891, -1576103.3, -57497.168, 0.0, 9.999255, 9.999155 
8.450361e+2, 1.5504083e+2, -1372463.3, -1491931.8, -103934.336, 0.04653618, 0.022129925, -1312320.4, 108281.08, 0.0, 10.000702, 9.999146 
8.4503955e+2, 1.6504057e+2, -1187613.6, -1349422.6, -3935.6558, 0.0558764, 0.08393813, -1187518.0, 135087.48, 0.0, 10.001291, 9.999173 
8.4504503e+2, 1.7503902e+2, -1150829.9, -1282259.9, 6351.644, 0.17548227, -0.014468425, -1150523.6, 74095.62, 0.0, 10.000879, 9.999158 
8.4504837e+2, 1.8503845e+2, -1045501.25, -1181915.8, -12963.349, 0.14486828, 0.019741807, -1044280.3, 82344.945, 0.0, 10.000931, 9.999144 
8.4504956e+2, 1.9503842e+2, -878601.6, -1055656.5, -29683.05, -0.04501767, 0.071943425, -873757.8, 154870.17, 0.0, 10.001419, 9.999107 
8.450528e+2, 2.0503774e+2, -773989.94, -971448.06, 13610.629, -0.06712571, 0.10728512, -773056.2, 157580.19, 0.0, 10.001539, 9.998954 
8.450581e+2, 2.1503612e+2, -731287.9, -904301.9, -2249.7827, 0.079194054, 0.020235678, -731258.6, 101395.086, 0.0, 10.001176, 9.998919 
8.4506184e+2, 2.2503553e+2, -611376.44, -768817.06, -34018.22, 0.12686247, 0.063973434, -604340.56, 130319.664, 0.0, 10.001214, 9.999155 
8.4506387e+2, 2.350358e+2, -459199.78, -647372.0, -44403.8, 0.07265772, 0.14619398, -449247.94, 187409.77, 0.0, 10.001603, 9.999128 
8.4506667e+2, 2.4503507e+2, -419807.13, -658669.5, 5436.947, 0.054139014, 0.19973943, -419683.44, 118982.06, 0.0, 10.001537, 9.998411 
8.4507036e+2, 2.5503287e+2, -403129.72, -600867.6, -19384.13, 0.07537916, 0.107586354, -401247.4, 39440.164, 0.0, 10.000992, 9.998394 
8.450731e+2, 2.650313e+2, -297834.4, -443590.22, -57822.746, 0.07331714, 0.0927502, -277681.88, 65020.867, 0.0, 10.000804, 9.998893 
8.4507495e+2, 2.7503008e+2, -174163.47, -335861.6, -51312.883, 0.05766529, 0.049824845, -159254.6, 85459.29, 0.0000000050987805, 10.00098, 9.998879 
8.4507835e+2, 2.8502935e+2, -50945.18, -140915.9, 41543.06, 0.07490671, 0.057104096, -34697.313, 112020.66, 0.0000017149706, 10.0007925, 9.999625 
8.450832e+2, 2.9502863e+2, -49568.98, -90130.19, -19363.85, 0.12494659, -0.021982811, -41809.227, 6910.7056, 0.0000255943, 10.000128, 9.999615 
8.4508485e+2, 3.050273e+2, -59392.15, -282302.3, -147730.36, 0.037939608, -0.014042089, 14210.857, 14210.857, 0.000114914044, 10.000652, 9.997726 
8.450859e+2, 3.1502807e+2, 188885.39, -81947.94, -89447.87, 0.09994046, 0.24928778, 215760.4, 215760.4, 0.00028702893, 10.001908, 9.998499 
8.5502607e+2, 1.2503596e+2, -1560075.3, -1627618.4, -124390.46, 0.016046342, 0.08415189, -1464953.5, 249702.78, 0.0, 10.000935, 10.00013 
8.550295e+2, 1.3503556e+2, -1690600.9, -1637654.1, -87120.38, 0.04861301, 0.0023632383, -1573073.6, 43582.637, 0.0, 9.999437, 10.000103 
8.550338e+2, 1.450352e+2, -1638797.0, -1606965.6, -72526.32, 0.12865849, -0.014104529, -1548629.3, -29969.518, 0.0, 9.99925, 9.999737 
8.550371e+2, 1.5503606e+2, -1328414.6, -1402185.9, -29654.51, 0.046325896, 0.056998543, -1317972.3, 102683.086, 0.0, 10.000709, 9.999759 
8.5504085e+2, 1.650364e+2, -1152272.8, -1266735.8, -36205.113, 0.02123132, 0.1209895, -1141782.4, 180869.95, 0.0, 10.001247, 9.999763 
8.5504496e+2, 1.7503582e+2, -1111665.0, -1190772.4, 3578.6492, 0.05490529, 0.05377383, -1111503.5, 113151.33, 0.0, 10.000839, 9.999803 
8.55049e+2, 1.8503559e+2, -1060117.6, -1196044.4, -8861.539, 0.085223995, 0.091713235, -1059542.4, 67114.56, 0.0, 10.000846, 9.999095 
8.550527e+2, 1.950354e+2, -889793.4, -1064645.4, 2741.9895, 0.102207735, 0.13295794, -889750.4, 138911.53, 0.0, 10.001346, 9.999084 
8.5505575e+2, 2.0503488e+2, -800412.7, -991897.94, -15932.314, 0.04932038, 0.18857569, -799096.1, 131573.22, 0.0, 10.0013895, 9.998891 
8.550579e+2, 2.1503362e+2, -760348.0, -918012.56, -901.7397, -0.08221675, 0.14150223, -760342.8, 72340.336, 0.0, 10.000977, 9.9989195 
8.550612e+2, 2.2503261e+2, -632081.5, -763642.0, -33998.426, -0.080550306, 0.13395384, -623814.9, 110877.39, 0.0, 10.001005, 9.999294 
8.550654e+2, 2.3503159e+2, -472798.94, -637370.1, -12845.772, 0.0488699, 0.07282274, -471802.28, 164896.77, 0.0, 10.001435, 9.99928 
8.550688e+2, 2.4503052e+2, -462260.4, -710372.06, -29394.459, 0.090053216, 0.10156604, -458825.53, 79884.14, 0.0, 10.001385, 9.998129 
8.5507137e+2, 2.550289e+2, -445384.28, -653016.5, -25071.844, 0.045647264, 0.093744874, -442399.72, -1670.9261, 0.0, 10.000837, 9.998111 
8.5507375e+2, 2.6502785e+2, -275174.34, -372702.97, -66275.67, 0.027455507, 0.11604494, -241656.06, 101082.87, 0.0, 10.000699, 9.999434 
8.550759e+2, 2.750271e+2, -152193.83, -266929.53, -26274.59, 0.020076292, 0.06723169, -146463.16, 98279.21, 0.0000001292932, 10.000881, 9.999403 
8.5507894e+2, 2.8502616e+2, -140939.34, -310304.75, 5909.4526, 0.021056278, 0.083094366, -140733.4, 6016.5474, 0.0000031613251, 10.000718, 9.998496 
8.5508275e+2, 2.9502434e+2, -139438.61, -262488.7, -23942.39, 0.022865277, 0.008222986, -134944.19, -86175.7, 0.000030116835, 10.000056, 9.99847 
8.5508513e+2, 3.050235e+2, -7180.3184, -145830.88, -107239.33, -0.025415089, 0.07380544, 51190.402, 51190.402, 0.00012742863, 10.000557, 9.998701 
8.550891e+2, 3.1502298e+2, 220072.23, 20470.215, -28780.242, 0.14979313, 0.118944876, 224139.14, 224139.14, 0.00031382052, 10.001765, 9.999269 
8.650274e+2, 1.2503222e+2, -1718115.5, -1778377.9, 6355.9673, 0.11387524, 0.064977825, -1717452.5, -2759.7751, 0.00000000000000000000885557, 10.000158, 9.9994755 
8.6502975e+2, 1.3503195e+2, -1525788.9, -1632766.9, -7708.3447, 0.066940874, 0.058212426, -1525236.3, 91458.49, 0.0, 10.000853, 9.999473 
8.650339e+2, 1.4503168e+2, -1397770.6, -1462929.1, 71405.04, 0.14606796, 0.06618443, -1351863.6, 166835.19, 0.0, 10.000789, 9.999981 
8.650378e+2, 1.5503223e+2, -1373151.8, -1408921.0, 49484.26, 0.069017194, 0.08903104, -1338419.4, 82277.086, 0.0, 10.000317, 9.999917 
8.650418e+2, 1.6503255e+2, -1262870.4, -1285631.5, 34819.637, 0.046243344, 0.1288719, -1237618.6, 85074.25, 0.0, 10.00035, 10.000055 
8.65046e+2, 1.7503232e+2, -1079545.8, -1150371.8, 15128.581, 0.07713818, 0.06942693, -1076449.6, 148241.81, 0.0, 10.000943, 10.00003 
8.650503e+2, 1.8503207e+2, -1028269.7, -1199101.4, 14186.302, 0.11981095, 0.10281263, -1027099.6, 99593.93, 0.0, 10.001165, 9.998909 
8.650544e+2, 1.950316e+2, -957252.3, -1118479.0, -13436.638, 0.16012721, 0.13625287, -956140.2, 72561.305, 0.0, 10.000997, 9.998871 
8.650573e+2, 2.0503102e+2, -879425.7, -1015812.7, -24388.191, 0.10466241, 0.18999875, -875195.9, 55513.742, 0.0, 10.000796, 9.999003 
8.6505884e+2, 2.1502994e+2, -832722.7, -946218.0, -32203.799, -0.055599418, 0.149533, -824221.7, 8499.793, 0.0, 10.000455, 9.998976 
8.65062e+2, 2.2502904e+2, -680064.06, -775824.3, 634.2031, -0.07390717, 0.14841253, -680059.9, 54669.234, 0.0, 10.000643, 9.999381 
8.6506677e+2, 2.3502812e+2, -478879.78, -630515.94, -14571.283, 0.048701942, 0.08824498, -477492.28, 159242.38, 0.0, 10.001361, 9.999358 
8.650703e+2, 2.4502696e+2, -435874.88, -685635.4, -30477.842, 0.10185494, 0.09842554, -432209.5, 106536.16, 0.0, 10.001518, 9.998232 
8.6507267e+2, 2.5502515e+2, -390360.63, -616032.75, -27496.46, 0.08646434, 0.0637417, -387058.7, 53707.402, 0.0, 10.001173, 9.998205 
8.6507493e+2, 2.6502427e+2, -230407.22, -373705.06, -25435.906, 0.063090675, 0.108698875, -226026.19, 116749.04, 0.0000000005766255, 10.001114, 9.999221 
8.650771e+2, 2.7502397e+2, -96522.64, -264751.44, -79530.05, 0.035334088, 0.12807032, -64877.547, 179898.48, 0.000000514823, 10.00138, 9.999172 
8.6507994e+2, 2.8502288e+2, -81680.89, -317007.06, -44674.11, 0.035367023, 0.15867506, -73485.414, 73300.83, 0.0000054394536, 10.001282, 9.998187 
8.650837e+2, 2.9502058e+2, -57554.46, -252786.38, -44047.363, 0.07962076, 0.066960335, -48076.79, 733.6404, 0.000035908153, 10.000762, 9.998199 
8.650865e+2, 3.050196e+2, 84800.22, -75790.46, -26373.28, 0.043866865, 0.11801658, 89020.51, 89020.51, 0.00014009468, 10.001055, 9.998943 
8.6509097e+2, 3.15019e+2, 229087.61, 90068.836, -72768.34, 0.18220381, 0.1296678, 260210.17, 260210.17, 0.00033844914, 10.001564, 9.999828 
8.7502766e+2, 1.2503022e+2, -1742423.1, -1826218.3, 3074.7007, 0.051104568, 0.08970375, -1742310.5, -27598.86, 0.0000000055054987, 10.000143, 9.999151 
8.750303e+2, 1.3502993e+2, -1551925.5, -1673590.0, 29462.355, 0.005146916, 0.10369754, -1545166.4, 71549.86, 0.0, 10.000811, 9.999201 
8.7503415e+2, 1.4502947e+2, -1423937.6, -1513449.1, 34583.207, 0.053077027, 0.12689939, -1412133.0, 106589.29, 0.0, 10.000768, 9.999646 
8.7503755e+2, 1.5502952e+2, -1396485.6, -1445926.1, 46911.965, -0.020652033, 0.125864, -1368179.3, 52543.926, 0.0, 10.000281, 9.999672 
8.750419e+2, 1.6502933e+2, -1272585.4, -1300309.8, 41351.125, -0.006180777, 0.12766549, -1242834.9, 79889.55, 0.0, 10.000312, 9.999979 
8.750477e+2, 1.7502874e+2, -1088886.9, -1164103.1, 51372.23, 0.11319249, 0.042833798, -1062828.1, 161898.89, 0.0, 10.000916, 9.9999485 
8.7505174e+2, 1.8502815e+2, -1066229.8, -1260210.6, -7048.7437, 0.123168394, 0.0660271, -1065974.0, 60758.793, 0.0, 10.001091, 9.998526 
8.7505424e+2, 1.9502705e+2, -998492.0, -1174454.9, -3701.4863, 0.011573267, 0.07094739, -998414.2, 30332.404, 0.0, 10.0008745, 9.998543 
8.750571e+2, 2.0502616e+2, -888371.1, -998845.8, -51435.957, -0.017895745, 0.100336805, -868131.2, 62625.94, 0.0, 10.000637, 9.9992 
8.750604e+2, 2.1502528e+2, -842964.9, -928155.5, -32698.588, 0.027185725, 0.060010158, -831861.44, 905.37396, 0.0, 10.000282, 9.999183 
8.750638e+2, 2.2502512e+2, -710097.9, -795852.56, 11840.432, 0.022847505, 0.12602454, -708493.06, 26275.121, 0.0, 10.000457, 9.999335 
8.750675e+2, 2.3502539e+2, -512816.38, -649642.3, 28507.746, -0.042629935, 0.1886302, -507114.4, 129650.195, 0.0, 10.001141, 9.999332 
8.7507087e+2, 2.4502432e+2, -423569.47, -627765.3, -58280.418, -0.025511367, 0.18446647, -408106.38, 130667.72, 0.0, 10.001368, 9.998707 
8.7507385e+2, 2.5502163e+2, -378113.84, -557243.75, -23449.424, 0.063068226, 0.014744285, -375095.03, 65704.29, 0.0, 10.001029, 9.998678 
8.7507623e+2, 2.650206e+2, -312215.0, -533918.06, -29414.564, 0.056199692, 0.074293666, -308378.78, 34432.59, 0.0000000691861, 10.001061, 9.99815 
8.750781e+2, 2.750207e+2, -184997.97, -424762.9, -51799.254, -0.04015934, 0.23573741, -174285.75, 70529.05, 0.000001269736, 10.001273, 9.998124 
8.750812e+2, 2.850197e+2, -51767.168, -245460.77, -78742.58, -0.0036622353, 0.30010328, -23795.313, 123030.07, 0.000008255043, 10.001231, 9.99871 
8.750856e+2, 2.950171e+2, -25026.96, -180302.98, -42174.566, 0.15187274, 0.13216956, -14311.394, 34536.598, 0.000042714033, 10.000728, 9.998723 
8.750886e+2, 3.0501544e+2, 43193.195, -143911.78, -11161.065, 0.11734572, 0.11157626, 43856.613, 43856.613, 0.00015288098, 10.000983, 9.998504 
8.7509096e+2, 3.1501383e+2, 221565.92, 89038.62, -17500.523, -0.054880545, 0.06379462, 223837.95, 223837.95, 0.00035815634, 10.001489, 9.999864 
8.8502914e+2, 1.2502739e+2, -1614306.4, -1749513.4, -23104.84, 0.1571358, 0.14508739, -1610467.1, 104275.914, 0.00000006865043, 10.000953, 9.999297 
8.850309e+2, 1.3502689e+2, -1499633.9, -1642766.9, -37946.113, -0.010053091, 0.13406435, -1490196.3, 126553.21, 0.0, 10.001131, 9.999268 
8.850346e+2, 1.4502637e+2, -1425193.0, -1517341.8, -4172.9487, 0.02698015, 0.15041684, -1425004.4, 93750.82, 0.0, 10.000801, 9.99959 
8.850383e+2, 1.5502627e+2, -1389191.6, -1451138.5, -12387.621, 0.03725416, 0.14281148, -1386806.3, 33949.76, 0.0, 10.0003805, 9.999578 
8.8504297e+2, 1.6502608e+2, -1307081.5, -1337878.3, 45835.902, 0.07925198, 0.15913744, -1274126.6, 48630.87, 0.0, 10.000171, 9.999789 
8.850485e+2, 1.7502576e+2, -1211209.8, -1245916.9, 17234.977, 0.153141, 0.120896555, -1204105.4, 20654.352, 0.0, 10.000175, 9.999747 
8.850526e+2, 1.85025e+2, -1142140.3, -1288428.1, -2988.7546, 0.1362102, 0.135261, -1142079.3, -15312.071, 0.0, 10.00053, 9.998602 
8.8505524e+2, 1.9502333e+2, -943865.6, -1143222.6, 1718.3362, 0.016013557, 0.07616921, -943850.8, 84934.086, 0.0, 10.001223, 9.998594 
8.8505846e+2, 2.0502232e+2, -782101.1, -968649.5, -36192.477, 0.016557857, 0.10054576, -775325.5, 155470.86, 0.0, 10.00146, 9.999011 
8.850622e+2, 2.1502179e+2, -713773.25, -889943.2, -72099.22, 0.13839145, 0.11826461, -688028.25, 144775.55, 0.0, 10.00127, 9.998977 
8.8506544e+2, 2.2502169e+2, -636672.8, -737729.6, 5522.621, 0.1288282, 0.18802339, -636371.94, 98433.31, 0.0, 10.000858, 9.999533 
8.8506824e+2, 2.3502165e+2, -634254.25, -691001.7, 4852.1436, -0.019841451, 0.2001247, -633842.4, 2961.7834, 0.0, 10.000218, 9.999492 
8.850716e+2, 2.4502093e+2, -545614.2, -632140.25, -32015.959, -0.020980798, 0.19928509, -535056.1, 3752.8416, 0.0, 10.000301, 9.999182 
8.850754e+2, 2.5501913e+2, -314491.25, -475812.97, -29941.996, 0.11104079, 0.06759112, -309113.2, 131710.36, 0.00000000006372724, 10.001226, 9.999142 
8.8507813e+2, 2.6501787e+2, -260346.52, -576563.4, 8086.8877, 0.11098089, 0.11231332, -260139.83, 82697.94, 0.00000025387644, 10.001716, 9.997536 
8.8507986e+2, 2.7501675e+2, -139889.64, -469824.66, -14973.784, -0.00965458, 0.21471882, -139211.45, 105643.63, 0.0000021793016, 10.001872, 9.997522 
8.8508284e+2, 2.850155e+2, 23267.904, -200366.38, -31598.994, 0.02416568, 0.28183338, 27647.018, 174515.73, 0.000011106664, 10.001724, 9.998763 
8.850871e+2, 2.9501376e+2, 66051.24, -130766.25, -63742.14, 0.21079169, 0.19401582, 84891.555, 133774.23, 0.000049522223, 10.001332, 9.998763 
8.8509035e+2, 3.0501178e+2, 62473.45, -145181.02, 16973.732, 0.19569196, 0.14138575, 63851.74, 63851.74, 0.00016467013, 10.001165, 9.998413 
8.850923e+2, 3.1501016e+2, 116388.38, 34818.285, -16314.297, -0.013518386, 0.11144131, 119530.28, 119530.28, 0.00037312726, 10.000798, 9.999829 
8.950308e+2, 1.2502366e+2, -1589770.6, -1675159.6, -51934.563, 0.16283783, 0.225182, -1565234.1, 149553.4, 0.00000033567557, 10.000877, 9.99983 
8.9503145e+2, 1.350232e+2, -1473150.6, -1578953.9, -24049.186, -0.107631505, 0.1776307, -1467940.8, 148850.22, 0.00000000007521531, 10.001109, 9.999706 
8.950347e+2, 1.4502278e+2, -1418709.4, -1498753.5, -39610.914, -0.08812801, 0.17209126, -1402421.8, 116371.945, 0.0, 10.000774, 9.999734 
8.950398e+2, 1.5502267e+2, -1385377.5, -1437145.1, -9772.835, 0.11007889, 0.15031488, -1383594.0, 37199.066, 0.0, 10.000356, 9.999686 
8.950443e+2, 1.6502291e+2, -1336625.5, -1393553.9, 29960.955, 0.16252123, 0.22653201, -1323763.4, -972.2386, 0.0, 10.000145, 9.999418 
8.9504826e+2, 1.7502332e+2, -1243900.5, -1296615.6, 33287.227, 0.08232632, 0.294126, -1227799.1, -3009.5063, 0.0, 10.000109, 9.999428 
8.950525e+2, 1.850227e+2, -1122519.0, -1225466.6, 8956.801, 0.03965889, 0.3094423, -1121745.5, 5050.6104, 0.0, 10.000425, 9.999087 
8.9505696e+2, 1.9502062e+2, -933655.0, -1085586.8, 41137.453, 0.03194442, 0.16441536, -923231.6, 105582.79, 0.0, 10.001066, 9.999063 
8.950607e+2, 2.0501967e+2, -843388.1, -1062597.5, -57819.836, 0.07179862, 0.19944105, -829072.2, 101753.3, 0.0, 10.00131, 9.998442 
8.950638e+2, 2.150195e+2, -781604.4, -982724.44, -60854.28, 0.15449329, 0.30917013, -764624.8, 68207.57, 0.0, 10.001066, 9.998435 
8.950666e+2, 2.2501875e+2, -640806.2, -703784.2, -30699.43, 0.12819314, 0.32555398, -628317.75, 106522.14, 0.0, 10.000665, 9.999865 
8.9506876e+2, 2.3501712e+2, -635243.1, -650174.44, -4402.5513, -0.016320711, 0.1410451, -634041.7, 2809.4517, 0.0, 10.000031, 9.999863 
8.950722e+2, 2.4501692e+2, -531482.75, -572316.8, -12729.8, -0.019322954, 0.14985025, -527839.4, 11009.512, 0.0, 10.000168, 9.99966 
8.9507693e+2, 2.5501773e+2, -309057.0, -421354.6, 20449.072, 0.1103282, 0.23220377, -305449.2, 135388.39, 0.0000000002378373, 10.001042, 9.999608 
8.9508015e+2, 2.650163e+2, -285305.44, -604351.56, 1105.6388, 0.112320706, 0.24400592, -285301.63, 57550.324, 0.00000030747992, 10.001612, 9.997394 
8.9508206e+2, 2.7501222e+2, -172069.5, -508373.06, 11283.857, -0.011805137, 0.07045218, -171691.33, 73204.52, 0.0000026197797, 10.001754, 9.997315 
8.950845e+2, 2.850103e+2, -17706.133, -275708.94, -60360.555, -0.021091864, 0.10567318, -4282.965, 142633.64, 0.000013171274, 10.001675, 9.998271 
8.950877e+2, 2.950104e+2, 23009.148, -203712.53, -61694.65, 0.09405998, 0.2428982, 38709.96, 87626.28, 0.000055655084, 10.001252, 9.9983015 
8.950913e+2, 3.0500844e+2, 63504.22, -112983.95, -7382.2993, 0.15486816, 0.20548639, 63812.473, 63812.473, 0.00017580122, 10.001058, 9.998679 
8.950941e+2, 3.1500623e+2, 94193.91, 34535.17, 24660.234, 0.015147998, 0.0881901, 103067.49, 103067.49, 0.00038747952, 10.000625, 9.999897 
9.0503067e+2, 1.2501942e+2, -1751865.5, -1701958.8, 44750.39, 0.14643735, 0.20759627, -1675674.8, 39157.348, 0.0000010657902, 9.999501, 10.0003195 
9.0503293e+2, 1.3501994e+2, -1528488.6, -1567705.4, 15457.264, -0.02582482, 0.21805099, -1523128.8, 93695.25, 0.000000007369457, 10.0005455, 10.000059 
9.050367e+2, 1.450197e+2, -1367000.1, -1483922.3, 4320.0254, 0.024948157, 0.21470653, -1366840.8, 151982.97, 0.0, 10.001153, 9.999656 
9.050413e+2, 1.5501876e+2, -1210338.6, -1361820.9, -16771.893, 0.1692023, 0.11586967, -1208503.9, 212326.4, 0.0, 10.001578, 9.9996195 
9.050451e+2, 1.6501865e+2, -1164981.8, -1341636.4, 41912.004, 0.17242268, 0.1732993, -1155542.4, 167289.52, 0.0, 10.001457, 9.999152 
9.050483e+2, 1.7501897e+2, -1165192.3, -1288191.3, 16035.273, 0.050506987, 0.26044202, -1163136.1, 61695.875, 0.0, 10.000772, 9.99917 
9.050527e+2, 1.8501854e+2, -1098391.8, -1178534.8, 42214.668, 0.0302093, 0.2923378, -1080258.4, 46578.29, 0.0, 10.000424, 9.999412 
9.0505826e+2, 1.9501702e+2, -997395.1, -1085043.0, 37968.953, 0.100730866, 0.1718626, -983234.75, 45614.54, 0.0, 10.000461, 9.999369 
9.050623e+2, 2.0501636e+2, -954859.6, -1086429.0, -26750.178, 0.15183635, 0.2073727, -949628.8, -18771.768, 0.0, 10.0004225, 9.998695 
9.050647e+2, 2.1501614e+2, -872326.3, -998705.9, -6598.446, 0.17688547, 0.2860701, -871982.7, -39119.086, 0.0, 10.000324, 9.998677 
9.0506727e+2, 2.2501536e+2, -675943.56, -730504.3, 70571.97, 0.14612518, 0.2909856, -627562.7, 107308.375, 0.0, 10.000484, 9.999766 
9.050699e+2, 2.350137e+2, -503131.06, -599018.25, 34523.887, 0.053509135, 0.11755043, -491994.3, 144888.13, 0.0, 10.001003, 9.999747 
9.0507346e+2, 2.450132e+2, -414099.22, -567091.75, 19674.848, 0.041528374, 0.12816514, -411609.56, 127274.43, 0.0, 10.001201, 9.999193 
9.050779e+2, 2.550136e+2, -333048.88, -481216.88, -49295.652, 0.11026282, 0.21620384, -318146.9, 122731.8, 0.0, 10.001099, 9.999161 
9.0508133e+2, 2.650122e+2, -336971.47, -571927.44, -60208.21, 0.110920586, 0.22745064, -322441.47, 20451.146, 0.0000002007212, 10.0010195, 9.997904 
9.050839e+2, 2.7500856e+2, -244247.44, -480767.2, -31451.387, 0.050585847, 0.041841816, -240136.63, 4793.175, 0.0000025589381, 10.000999, 9.997864 
9.050863e+2, 2.8500664e+2, -105305.82, -374891.53, -38048.688, 0.021695036, 0.078195706, -100038.63, 46911.563, 0.000014749117, 10.001305, 9.997785 
9.050886e+2, 2.950065e+2, 73944.58, -226981.3, -71848.695, 0.045473903, 0.2456156, 90218.95, 139173.44, 0.00006245814, 10.0018215, 9.99787 
9.050926e+2, 3.050045e+2, 183173.28, -68807.25, -17943.684, 0.14336109, 0.22723627, 184444.66, 184444.66, 0.00018874744, 10.00192, 9.998579 
9.0509653e+2, 3.1500196e+2, 143380.56, -985.13544, -58594.355, 0.18599279, 0.09125253, 164169.0, 164169.0, 0.0004049675, 10.001179, 9.999411 
9.1502756e+2, 1.2501502e+2, -1717731.0, -1624627.8, 35943.816, -0.18171556, 0.11922316, -1612366.0, 102507.38, 0.000002613721, 9.999495, 10.000849 
9.1503507e+2, 1.3501707e+2, -1504095.1, -1507686.9, 64407.883, 0.10060667, 0.24310485, -1441458.1, 175390.5, 0.00000007607973, 10.000516, 10.000482 
9.150401e+2, 1.4501692e+2, -1396937.1, -1531787.8, 1211.5513, 0.21396062, 0.24598369, -1396926.3, 121920.51, 0.0, 10.001093, 9.999355 
9.150423e+2, 1.5501472e+2, -1232883.1, -1401113.4, 15528.117, 0.08030503, 0.04905385, -1231461.8, 189404.4, 0.0, 10.001552, 9.99936 
9.150449e+2, 1.6501354e+2, -1183746.3, -1375784.0, -2381.2131, -0.02515868, 0.02211118, -1183716.8, 139160.69, 0.0, 10.001432, 9.99893 
9.150482e+2, 1.7501293e+2, -1187290.3, -1326253.9, 5178.421, -0.07683462, 0.039021265, -1187097.5, 37786.848, 0.0, 10.000733, 9.998929 
9.1505283e+2, 1.8501273e+2, -1095689.3, -1153527.6, 30276.799, -0.031157006, 0.095113754, -1082739.5, 44147.68, 0.0, 10.000341, 9.999624 
9.1505903e+2, 1.9501266e+2, -1006694.3, -1067085.0, 56121.043, 0.10204505, 0.09838985, -973161.1, 55727.453, 0.0, 10.000306, 9.999567 
9.150628e+2, 2.0501256e+2, -912897.9, -959102.8, -43740.59, 0.13456938, 0.13152294, -886533.5, 44356.395, 0.0, 10.000249, 9.999651 
9.150643e+2, 2.1501197e+2, -835108.9, -875718.94, 2561.3962, 0.076298244, 0.07654545, -834947.94, -2052.5083, 0.0, 10.000132, 9.999612 
9.15067e+2, 2.2501163e+2, -734210.75, -821098.9, 72647.57, 0.05112918, 0.10668116, -693008.2, 41889.496, 0.0, 10.000342, 9.999218 
9.1507125e+2, 2.350113e+2, -570110.75, -694195.8, 70459.66, 0.060461853, 0.1218757, -538271.2, 98627.64, 0.0, 10.000813, 9.999186 
9.150749e+2, 2.4500988e+2, -534364.06, -781403.75, 2223.1267, 0.034267284, 0.13714528, -534344.06, 4569.1733, 0.0, 10.001042, 9.997801 
9.150779e+2, 2.55007e+2, -450354.7, -696981.56, -36248.727, -0.02455688, 0.03511696, -445137.28, -4192.183, 0.0, 10.000969, 9.997748 
9.150814e+2, 2.6500568e+2, -266423.47, -403931.22, -74160.89, -0.023921423, 0.06771788, -234049.05, 108909.85, 0.00000011562638, 10.000934, 9.999096 
9.1508514e+2, 2.7500558e+2, -176646.39, -313315.2, -14606.231, 0.043212444, 0.12095542, -175102.81, 69855.2, 0.0000025826089, 10.000884, 9.999071 
9.1508794e+2, 2.8500453e+2, -149902.23, -442633.94, -34331.63, 0.02485471, 0.19853237, -145929.73, 1040.0037, 0.000017159802, 10.001207, 9.997362 
9.1508955e+2, 2.9500228e+2, 27117.186, -305695.84, -31393.287, -0.08514625, 0.20046885, 30052.533, 79048.65, 0.00007135739, 10.001743, 9.997369 
9.1509354e+2, 3.0499995e+2, 131148.78, -153368.48, -50665.56, 0.02111397, 0.20384134, 139901.8, 139901.8, 0.00020564985, 10.00183, 9.998031 
9.150985e+2, 3.1499785e+2, 67170.016, -118218.266, -19949.06, 0.19602174, 0.15935598, 69292.375, 69292.375, 0.00042848263, 10.001026, 9.998662 
9.2502815e+2, 1.2501179e+2, -1569859.3, -1592805.4, 52152.72, -0.12225164, 0.18556891, -1527932.5, 186970.31, 0.0000053718704, 10.000681, 10.000501 
9.250359e+2, 1.350123e+2, -1597789.4, -1590279.5, -28252.695, 0.16952002, 0.1855547, -1565533.4, 51359.61, 0.00000033393198, 10.000033, 10.000163 
9.250411e+2, 1.4501168e+2, -1563829.3, -1613249.9, -50541.12, 0.2652855, 0.1605697, -1532281.3, -13384.3545, 0.0, 9.999956, 9.999345 
9.250434e+2, 1.5501057e+2, -1344730.5, -1460508.9, -53496.266, 0.079033405, 0.07272149, -1323797.1, 97111.5, 0.0, 10.000808, 9.99931 
9.2504615e+2, 1.650097e+2, -1210195.8, -1347782.3, -48608.055, -0.016144972, 0.062816985, -1194755.8, 128160.78, 0.0, 10.001071, 9.9992895 
9.250494e+2, 1.7500886e+2, -1152610.6, -1269818.5, -30503.771, -0.014586424, 0.021390013, -1145147.1, 79775.92, 0.0, 10.000803, 9.99928 
9.2505366e+2, 1.8500866e+2, -1111485.1, -1151805.8, 37715.484, 0.025582202, 0.057058502, -1088879.8, 38045.27, 0.0, 10.0002, 9.999705 
9.2505866e+2, 1.9500874e+2, -1165694.3, -1130704.8, 20045.39, 0.09694613, 0.06480194, -1121593.4, -92667.484, 0.0, 9.9991665, 9.999675 
9.2506236e+2, 2.0500877e+2, -999147.25, -953519.44, -24135.635, 0.11615795, 0.08622251, -943121.9, -12197.109, 0.0, 9.999455, 10.000079 
9.25065e+2, 2.1500841e+2, -654435.1, -738585.44, -38549.137, 0.097059, 0.0126193315, -639445.75, 193479.19, 0.0, 10.001153, 10.000068 
9.250685e+2, 2.2500812e+2, -570781.94, -799047.2, 10812.073, 0.10332609, 0.04999481, -570270.94, 164655.6, 0.0, 10.001699, 9.9987135 
9.250727e+2, 2.3500767e+2, -570632.06, -754231.9, -22702.602, 0.13134094, 0.1037712, -567866.5, 69065.39, 0.0, 10.001049, 9.998663 
9.250763e+2, 2.4500605e+2, -567961.56, -797426.0, -40.741646, 0.093143664, 0.12553439, -567961.56, -29011.986, 0.0, 10.000815, 9.997805 
9.2507905e+2, 2.5500295e+2, -430976.0, -682045.25, 33175.875, -0.011902153, 0.0037396695, -426666.16, 14316.717, 0.0, 10.001095, 9.997788 
9.250823e+2, 2.650018e+2, -249368.9, -410238.94, 18365.8, -0.01716447, 0.055211492, -247298.8, 95696.79, 0.00000007319143, 10.001085, 9.998992 
9.2508644e+2, 2.7500218e+2, -206089.55, -339564.56, -42522.9, 0.09915921, 0.16160937, -193693.67, 51297.94, 0.0000027897247, 10.0007105, 9.998982 
9.250895e+2, 2.8500113e+2, -180613.98, -408614.38, -14615.145, 0.08859672, 0.22328785, -179680.95, -32678.303, 0.000020180585, 10.000789, 9.997789 
9.250914e+2, 2.9499844e+2, 1441.0674, -271095.78, 14151.345, -0.045528516, 0.14160293, 2173.8987, 51204.45, 0.00008285034, 10.00136, 9.997784 
9.250954e+2, 3.0499655e+2, 130067.02, -190166.3, 39928.77, 0.032056283, 0.18064211, 134970.52, 134970.52, 0.0002292469, 10.001937, 9.99774 
9.251009e+2, 3.149944e+2, 213899.27, -72927.055, 47955.895, 0.29258808, 0.15498704, 221704.83, 221704.83, 0.0004645645, 10.002107, 9.9984665 
9.350311e+2, 1.2500952e+2, -1663727.4, -1759545.1, -16877.852, 0.042009808, 0.37639242, -1660841.4, 54081.035, 0.000009857008, 10.000587, 9.999391 
9.35035e+2, 1.350058e+2, -1661854.4, -1726575.8, -41178.055, 0.04004067, 0.047472164, -1641842.9, -24887.926, 0.0000009955157, 10.000066, 9.999201 
9.350391e+2, 1.4500423e+2, -1552122.6, -1592327.4, -35411.65, 0.032377165, -0.030592855, -1531505.4, -12534.208, 0.00000000002439963, 9.999971, 9.999485 
9.350441e+2, 1.5500624e+2, -1340010.0, -1435700.8, -5122.9556, 0.034005355, 0.18096612, -1339736.5, 81220.664, 0.0, 10.000748, 9.999508 
9.350484e+2, 1.6500713e+2, -1151739.4, -1212699.6, -76664.57, 0.066319615, 0.28613532, -1099718.0, 223230.92, 0.0, 10.001003, 10.000255 
9.3505186e+2, 1.7500678e+2, -1088971.8, -1133413.4, -24577.973, 0.11329549, 0.19666034, -1078058.9, 146888.95, 0.0, 10.000777, 10.000234 
9.3505454e+2, 1.8500635e+2, -1131946.0, -1175528.4, -13034.483, 0.07154563, 0.16936958, -1128345.1, -1395.0505, 0.0, 10.000124, 9.999581 
9.3505657e+2, 1.9500533e+2, -1191587.6, -1159058.0, -4597.9287, -0.053959336, 0.07949079, -1158420.6, -129459.57, 0.0, 9.999058, 9.9995365 
9.350606e+2, 2.0500511e+2, -1014802.3, -957010.4, 24642.027, -0.03727415, 0.080885, -947929.94, -16969.004, 0.0, 9.999326, 10.000118 
9.350666e+2, 2.1500544e+2, -680367.8, -753463.56, 41638.465, 0.11853968, 0.0767992, -661512.56, 171439.9, 0.0, 10.000974, 10.000057 
9.350712e+2, 2.2500482e+2, -638723.7, -889741.6, -27473.54, 0.17933108, 0.10870074, -635751.94, 99205.945, 0.0, 10.001485, 9.998194 
9.350742e+2, 2.350029e+2, -633608.4, -842932.4, -33286.395, 0.14280261, 0.06479292, -628442.7, 8538.232, 0.0, 10.000866, 9.998145 
9.350773e+2, 2.4500182e+2, -493341.94, -609800.4, -5422.9976, 0.085876174, 0.09738658, -493089.94, 45902.246, 0.0, 10.000675, 9.999161 
9.350807e+2, 2.550013e+2, -357770.0, -501304.94, 58896.72, 0.016574303, 0.1010621, -336696.78, 104297.86, 0.0, 10.000959, 9.999102 
9.35084e+2, 2.6500034e+2, -356605.38, -598124.5, -6881.108, 0.0155804055, 0.16812097, -356409.5, -13404.232, 0.00000003612581, 10.000947, 9.997761 
9.3508726e+2, 2.7499846e+2, -313935.0, -533131.9, -37448.242, 0.08307192, 0.17205752, -307713.8, -62684.86, 0.0000027030533, 10.00059, 9.997705 
9.350906e+2, 2.849967e+2, -103496.1, -236576.53, -4856.369, 0.082111254, 0.1669636, -103319.12, 43727.29, 0.000022488803, 10.00073, 9.9990015 
9.350937e+2, 2.9499504e+2, 76752.33, -103731.586, 57112.266, 0.006599289, 0.06170253, 93306.54, 142364.47, 0.00009525127, 10.001304, 9.998963 
9.3509775e+2, 3.0499423e+2, 116439.83, -199974.56, 38851.207, 0.041738264, 0.15664214, 121140.38, 121140.38, 0.00025879213, 10.00187, 9.997702 
9.3510276e+2, 3.1499213e+2, 219188.02, -28837.598, 110165.06, 0.19876185, 0.13869075, 261053.23, 261053.23, 0.0005142612, 10.001978, 9.998828 
9.45033e+2, 1.2500404e+2, -1663355.5, -1744722.3, -11481.956, 0.1930941, 0.27042234, -1661766.4, 53206.805, 0.000016753027, 10.000494, 9.999546 
9.450346e+2, 1.3500114e+2, -1560982.4, -1667370.4, -4663.1787, -0.019431828, 0.0122173205, -1560778.4, 56220.402, 0.000002343361, 10.000695, 9.999308 
9.450383e+2, 1.4500017e+2, -1513729.6, -1530720.3, 88845.47, -0.039857175, -0.032438163, -1432974.3, 86035.35, 0.0000000053592455, 10.000037, 9.99988 
9.450445e+2, 1.5500267e+2, -1590889.4, -1522614.6, 100151.42, 0.10203578, 0.19067039, -1450942.5, -29952.395, 0.0, 9.998856, 9.99984 
9.450492e+2, 1.6500382e+2, -1457993.4, -1349677.3, 62685.395, 0.16767754, 0.3005566, -1320994.8, 1984.9222, 0.0, 9.99886, 10.000342 
9.4505244e+2, 1.7500342e+2, -1189670.1, -1172888.1, 16703.887, 0.13643824, 0.19944979, -1162586.1, 62393.934, 0.0, 10.000051, 10.000307 
9.450549e+2, 1.8500303e+2, -1054024.0, -1151759.4, -9088.77, 0.068163596, 0.17672637, -1053186.0, 73796.664, 0.0, 10.000741, 9.999431 
9.450568e+2, 1.9500214e+2, -917461.56, -1041019.56, -31661.943, -0.027471965, 0.11598757, -909820.7, 119171.28, 0.0, 10.001026, 9.999382 
9.450611e+2, 2.0500164e+2, -791719.94, -885792.0, 50213.457, 0.003979483, 0.11120744, -769953.5, 161040.84, 0.0, 10.000994, 9.99981 
9.4506776e+2, 2.1500131e+2, -772791.7, -829142.56, 13577.358, 0.16790886, 0.06947125, -769690.94, 63300.84, 0.0, 10.000468, 9.999778 
9.450726e+2, 2.250004e+2, -759401.06, -939255.6, -26332.086, 0.2177531, 0.08230137, -755625.1, -20624.91, 0.0, 10.000644, 9.99825 
9.450755e+2, 2.3499854e+2, -521761.06, -779710.56, -18761.557, 0.15807037, 0.041185085, -520403.6, 116619.35, 0.0, 10.001616, 9.998209 
9.4507855e+2, 2.4499768e+2, -330359.25, -511626.94, -2359.8674, 0.098104656, 0.08547367, -330328.53, 208703.47, 0.0, 10.001709, 9.999333 
9.4508183e+2, 2.5499758e+2, -354932.34, -474839.9, -52137.45, 0.053399988, 0.11050807, -335433.2, 105596.69, 0.0, 10.000874, 9.999314 
9.450852e+2, 2.649966e+2, -362945.1, -602481.0, -68189.67, 0.054561336, 0.16248174, -344893.63, -1853.4183, 0.000000027783642, 10.000902, 9.997756 
9.450887e+2, 2.7499425e+2, -146764.64, -453105.28, -40296.613, 0.11377625, 0.12639467, -141552.63, 103514.79, 0.000002329391, 10.001737, 9.997708 
9.450921e+2, 2.8499234e+2, 50556.41, -164348.14, 11656.413, 0.11633064, 0.10633469, 51186.805, 198272.94, 0.000023981273, 10.001803, 9.998985 
9.450954e+2, 2.949907e+2, 25285.973, -131678.95, -50017.26, 0.07062576, 0.007923335, 39869.207, 88966.62, 0.00010679835, 10.000971, 9.998938 
9.450992e+2, 3.0498996e+2, -1060.7056, -245567.55, -49141.613, 0.053609077, 0.10548576, 8446.251, 8446.251, 0.00028981623, 10.001039, 9.997786 
9.451045e+2, 3.1498852e+2, 214944.34, 22406.568, -29207.896, 0.20328079, 0.14957151, 219277.64, 219277.64, 0.00057081727, 10.001737, 9.999292 
9.5503277e+2, 1.2499549e+2, -1589584.8, -1569513.1, -50087.83, 0.04450003, -0.124654785, -1528465.6, 186587.53, 0.00002677623, 10.000432, 10.000759 
9.550345e+2, 1.3499838e+2, -1486992.3, -1494206.1, 14740.389, -0.13335943, 0.07315007, -1475423.9, 141600.1, 0.0000047533053, 10.000634, 10.000508 
9.550382e+2, 1.4499938e+2, -1481596.0, -1451986.1, 22915.127, -0.09526007, 0.13717659, -1439509.4, 79503.75, 0.000000046136613, 9.999976, 10.000455 
9.5504403e+2, 1.5499997e+2, -1545044.4, -1435803.6, 69131.71, 0.13519256, 0.1091368, -1402318.5, 18687.844, 0.0, 9.998891, 10.000417 
9.550482e+2, 1.6499995e+2, -1517090.6, -1470892.8, 92077.76, 0.14693132, 0.11688986, -1399060.9, -76053.91, 0.0, 9.998855, 9.999513 
9.5505077e+2, 1.7499898e+2, -1254057.4, -1294548.5, 75457.79, -0.06209476, 0.03785661, -1196176.4, 28842.03, 0.0, 10.000001, 9.9994955 
9.550543e+2, 1.849988e+2, -1075470.8, -1184617.3, -13507.372, -0.099597566, 0.08842349, -1073824.0, 53197.54, 0.0, 10.000677, 9.999242 
9.5505875e+2, 1.9499907e+2, -942863.4, -1075145.1, -6260.255, 0.03390508, 0.16140597, -942567.75, 86452.266, 0.0, 10.000935, 9.999196 
9.550634e+2, 2.0499827e+2, -854981.56, -981049.3, 13576.431, 0.11339309, 0.1667247, -853536.06, 77489.75, 0.0, 10.000841, 9.99923 
9.550681e+2, 2.149961e+2, -845178.7, -930140.2, 6713.8574, 0.12882544, -0.0035959135, -844651.44, -11609.048, 0.0, 10.0002575, 9.999187 
9.5507234e+2, 2.2499494e+2, -743968.75, -859492.4, -4775.0625, 0.10823905, -0.016647791, -743771.75, -8719.363, 0.0, 10.000437, 9.998897 
9.550763e+2, 2.3499449e+2, -509018.5, -706727.56, 34976.684, 0.050865106, 0.021986105, -503013.2, 134045.95, 0.0, 10.0014105, 9.998813 
9.550796e+2, 2.449936e+2, -423619.13, -658241.94, -46054.6, 0.0024791427, 0.075386025, -414902.78, 124167.05, 0.0, 10.001515, 9.998413 
9.550822e+2, 2.5499186e+2, -442357.47, -624457.5, -66792.234, -0.036607143, 0.029719634, -420485.78, 20602.203, 0.0, 10.000738, 9.998348 
9.550857e+2, 2.6499063e+2, -301833.84, -443306.63, -49775.715, -0.015936332, 0.051295847, -286075.97, 57023.465, 0.000000030362223, 10.000772, 9.998909 
9.5509017e+2, 2.7498955e+2, -84468.836, -293298.8, 11392.528, 0.051815696, 0.021656627, -83849.164, 161258.64, 0.000002140531, 10.001612, 9.998862 
9.550936e+2, 2.849879e+2, -48889.813, -344792.7, -33370.715, 0.059316177, 0.03157337, -45173.086, 101950.45, 0.000025889522, 10.001694, 9.997797 
9.5509607e+2, 2.949855e+2, -70139.41, -311335.25, -58597.914, 0.003435116, -0.0249232, -56656.855, -7508.3926, 0.00011778403, 10.000893, 9.997738 
9.550994e+2, 3.049839e+2, -159.1724, -228734.61, -24555.879, -0.05346607, 0.039840028, 2449.1047, 2449.1047, 0.00031950467, 10.000968, 9.997939 
9.5510525e+2, 3.1498307e+2, 234370.64, 85062.4, 36361.438, 0.027936853, 0.12379691, 242755.02, 242755.02, 0.00062882464, 10.001632, 9.999779 
9.650331e+2, 1.2499197e+2, -1756657.1, -1677858.0, 87829.8, 0.106495395, -0.15541156, -1620995.4, 94090.09, 0.000040530904, 9.999365, 10.000554 
9.65035e+2, 1.3499564e+2, -1592476.1, -1559607.6, 9201.657, -0.088261776, 0.13545176, -1557207.0, 59844.004, 0.000008656152, 9.999954, 10.000404 
9.650388e+2, 1.4499637e+2, -1445465.4, -1438322.6, -37211.38, -0.04124149, 0.18104276, -1404511.6, 114530.65, 0.00000019058375, 10.000274, 10.000384 
9.6504366e+2, 1.5499562e+2, -1288200.1, -1321254.4, -79752.055, 0.12337864, 0.031207291, -1223280.8, 197764.27, 0.0, 10.000727, 10.000304 
9.6504754e+2, 1.6499512e+2, -1291951.4, -1382866.3, -10568.013, 0.11733399, 0.006581925, -1290739.1, 32310.45, 0.0, 10.000513, 9.999307 
9.650506e+2, 1.749945e+2, -1315483.0, -1351278.8, -14851.69, -0.057801306, -0.015234254, -1310123.5, -85064.016, 0.0, 9.999705, 9.999244 
9.6505487e+2, 1.8499447e+2, -1176125.4, -1237299.6, -24001.51, -0.06469931, 0.063630015, -1167832.6, -40770.72, 0.0, 9.99998, 9.999231 
9.650604e+2, 1.9499472e+2, -892232.8, -1056442.8, -30489.54, 0.09186547, 0.1377264, -886754.44, 142305.66, 0.0, 10.001285, 9.999171 
9.6506506e+2, 2.0499381e+2, -777189.44, -964215.2, -16910.908, 0.16748196, 0.14470692, -775672.7, 155394.98, 0.0, 10.001505, 9.999007 
9.650689e+2, 2.1499145e+2, -797084.0, -930770.8, -33062.09, 0.16622081, -0.021560624, -789354.3, 43733.516, 0.0, 10.000716, 9.998948 
9.6507263e+2, 2.2499047e+2, -751172.4, -826434.56, 28249.45, 0.11528705, -0.022348467, -741748.9, -6652.4736, 0.0, 10.000214, 9.99924 
9.650767e+2, 2.3499057e+2, -691190.9, -749604.7, 17974.223, 0.02496917, 0.034601104, -686103.25, -49006.793, 0.0, 9.99996, 9.999215 
9.6508026e+2, 2.449897e+2, -631307.25, -784809.44, -33139.203, -0.0029382904, 0.08105057, -624458.5, -85351.586, 0.0, 10.000187, 9.998197 
9.6508366e+2, 2.5498763e+2, -438629.0, -648413.06, -30518.201, 0.042801734, 0.025576923, -434279.56, 6850.6694, 0.0, 10.000874, 9.998128 
9.6508723e+2, 2.649863e+2, -237490.98, -381087.2, 23396.963, 0.055169266, 0.034714792, -233774.94, 109367.39, 0.000000012060779, 10.001068, 9.999193 
9.6509093e+2, 2.749853e+2, -202357.6, -322337.34, -13435.417, 0.03015787, -0.01048668, -200871.5, 44275.848, 0.0000023356135, 10.000672, 9.999116 
9.650946e+2, 2.84984e+2, -178094.75, -409756.06, -24729.521, 0.041741293, 0.016186954, -175484.31, -28324.37, 0.000028869204, 10.000822, 9.997759 
9.650981e+2, 2.9498208e+2, 11411.155, -278379.44, -6101.113, 0.09669446, 0.012984573, 11539.548, 60721.234, 0.00012892728, 10.001491, 9.997667 
9.6510124e+2, 3.0497998e+2, 88345.555, -180621.95, 98082.72, 0.016770968, 0.027959954, 120313.3, 120313.3, 0.00034703137, 10.001531, 9.998001 
9.651061e+2, 3.1497914e+2, 57741.85, 9273.398, 82175.95, 0.03588526, 0.10067355, 119182.51, 119182.51, 0.0006841425, 10.000372, 9.999857 
9.7503316e+2, 1.2499312e+2, -1857256.5, -1871807.8, 52964.734, 0.09584758, 0.16091609, -1811070.0, -95996.48, 0.000058506626, 9.999312, 9.999245 
9.7503597e+2, 1.3499306e+2, -1674191.6, -1729953.8, 39095.684, -0.026849778, 0.19918513, -1654053.8, -36975.43, 0.00001444443, 9.999966, 9.999226 
9.750395e+2, 1.4499143e+2, -1506699.5, -1565439.5, -35723.43, -0.03823462, 0.10860244, -1489822.8, 29271.01, 0.0000005546723, 10.000272, 9.999516 
9.7504294e+2, 1.5498981e+2, -1355125.5, -1450154.4, -43412.977, -0.050018847, -0.04223972, -1338279.3, 82825.305, 0.0, 10.000688, 9.999436 
9.750468e+2, 1.649894e+2, -1272445.0, -1335899.5, -58777.09, -0.03980407, -0.031291727, -1237378.8, 85728.21, 0.0, 10.000475, 9.999652 
9.750514e+2, 1.7498995e+2, -1293609.3, -1303105.5, -33216.383, 0.01885733, 0.032097988, -1264803.4, -39699.902, 0.0, 9.999686, 9.999586 
9.7505623e+2, 1.8499003e+2, -1176205.9, -1217899.1, 12686.575, 0.042315364, 0.09609498, -1172649.0, -45545.523, 0.0, 9.999897, 9.999403 
9.750613e+2, 1.9498926e+2, -897805.25, -1036924.7, 34456.848, 0.021301089, 0.04718239, -889738.75, 139371.72, 0.0, 10.001154, 9.999363 
9.750657e+2, 2.0498848e+2, -800078.2, -974201.9, -62931.867, 0.056300215, 0.055811018, -779714.75, 151402.98, 0.0, 10.001333, 9.999028 
9.7506964e+2, 2.1498735e+2, -822277.7, -942438.5, -47724.73, 0.14468713, 0.013460113, -805629.3, 27499.426, 0.0, 10.000535, 9.9989605 
9.75073e+2, 2.249869e+2, -770156.6, -821911.6, 2151.7915, 0.104734346, 0.058198687, -770067.3, -34933.96, 0.0, 10.000024, 9.999359 
9.750761e+2, 2.3498675e+2, -715590.8, -749370.25, 21131.074, -0.05782612, 0.0772494, -705429.0, -68294.016, 0.0, 9.999744, 9.999316 
9.750804e+2, 2.4498615e+2, -620466.25, -727703.6, -22516.654, -0.040268045, 0.122360475, -615930.3, -76788.11, 0.0, 10.000034, 9.998667 
9.750859e+2, 2.5498474e+2, -424587.28, -587536.56, 12629.017, 0.15322143, 0.08632413, -423614.3, 17543.732, 0.0, 10.000733, 9.998616 
9.7508943e+2, 2.6498333e+2, -293367.75, -469474.03, -6084.551, 0.13776053, 0.08949076, -293157.78, 50013.77, 0.0000000034767167, 10.000948, 9.998643 
9.7509074e+2, 2.749816e+2, -254065.17, -407723.25, -9105.694, -0.08864804, 0.021113481, -253527.45, -8341.241, 0.0000028342504, 10.000573, 9.998577 
9.750947e+2, 2.8498068e+2, -120591.78, -267728.94, -11293.9375, -0.071150914, 0.067092374, -119729.93, 27464.236, 0.000032313746, 10.000733, 9.9987755 
9.751008e+2, 2.9498032e+2, 65305.133, -139659.19, 43514.023, 0.17539884, 0.11669552, 74160.586, 123358.695, 0.0001399921, 10.001384, 9.998669 
9.75104e+2, 3.049778e+2, 64571.055, -206373.48, 45357.137, 0.11138782, 0.050019983, 71962.375, 71962.375, 0.00037284024, 10.001427, 9.997878 
9.751062e+2, 3.1497583e+2, 14427.797, -53995.324, 75590.08, -0.07313047, 0.021720072, 63187.863, 63187.863, 0.00073526404, 10.0002575, 9.9994755 
9.850332e+2, 1.24990106e+2, -1791914.6, -1842505.4, -28906.486, 0.16629058, 0.23199157, -1778798.5, -63694.53, 0.00008108169, 9.999759, 9.999234 
9.850367e+2, 1.3498907e+2, -1656574.9, -1729898.4, -3690.6406, 0.057380006, 0.17740573, -1656389.6, -39271.973, 0.000022462764, 10.000094, 9.999175 
9.850404e+2, 1.4498712e+2, -1564971.5, -1615748.1, 10422.377, 0.050691996, 0.06717486, -1562915.4, -43779.34, 0.0000013019285, 9.999951, 9.999327 
9.850431e+2, 1.5498577e+2, -1512687.5, -1546996.5, 14425.963, -0.0425479, -0.042587608, -1507428.1, -86283.516, 0.0, 9.999685, 9.999251 
9.8504704e+2, 1.6498525e+2, -1372948.0, -1406577.6, 40979.2, -0.02426675, -0.0210479, -1345468.0, -22320.365, 0.0, 9.999875, 9.999461 
9.850524e+2, 1.7498544e+2, -1173829.9, -1265131.1, -1909.7369, 0.117474094, 0.024928045, -1173790.0, 51356.91, 0.0, 10.000598, 9.999409 
9.850575e+2, 1.8498524e+2, -1051853.1, -1148894.1, 61294.168, 0.14355613, 0.06529238, -1022199.3, 104949.81, 0.0, 10.000728, 9.999469 
9.85062e+2, 1.9498427e+2, -1038750.44, -1100759.1, 38702.297, 0.036064696, -0.006945619, -1020165.06, 8992.88, 0.0, 10.000182, 9.999391 
9.850661e+2, 2.0498379e+2, -973927.8, -1038017.25, -51532.426, 0.034615964, 0.020507775, -945289.3, -14126.428, 0.0, 10.000027, 9.9992285 
9.8506975e+2, 2.1498348e+2, -863965.44, -939690.3, -50787.285, 0.13457918, 0.037081603, -838480.3, -5313.24, 0.0, 10.000142, 9.999172 
9.850734e+2, 2.2498311e+2, -725531.4, -822416.5, 40663.637, 0.12260583, 0.08944218, -710726.7, 24444.676, 0.0, 10.000412, 9.999175 
9.850769e+2, 2.3498239e+2, -574908.8, -702518.3, 11069.454, 0.008168485, 0.06980032, -573955.7, 63223.12, 0.0, 10.000794, 9.999139 
9.850813e+2, 2.4498177e+2, -507821.9, -659656.2, -23553.63, 0.023805728, 0.11819182, -504252.03, 34934.133, 0.0, 10.000764, 9.998774 
9.8508644e+2, 2.5498083e+2, -475454.38, -603048.8, -49585.184, 0.15968236, 0.11875613, -458450.75, -17253.018, 0.0, 10.000342, 9.998698 
9.8508984e+2, 2.6497954e+2, -388179.72, -506747.5, -38726.01, 0.12900788, 0.12651794, -376652.0, -33441.707, 0.00000001775074, 10.000268, 9.998722 
9.850916e+2, 2.7497768e+2, -249277.2, -397699.66, -32933.707, -0.0518706, 0.041501116, -242297.69, 2928.5637, 0.000003544514, 10.000574, 9.998655 
9.850955e+2, 2.8497687e+2, -121527.375, -264024.94, -8461.071, -0.04326436, 0.09010272, -121026.74, 26206.572, 0.00003520851, 10.000679, 9.998853 
9.8510146e+2, 2.949767e+2, -61278.945, -196222.61, -51703.223, 0.15706688, 0.15634778, -43746.83, 5488.1494, 0.00014922032, 10.000461, 9.998746 
9.851049e+2, 3.049742e+2, -7213.4155, -187451.92, -38344.258, 0.107804425, 0.06255046, 604.8725, 604.8725, 0.00039592202, 10.000736, 9.998322 
9.851081e+2, 3.149726e+2, 154936.73, 19609.021, -40082.152, 0.05600069, 0.03021732, 165917.5, 165917.5, 0.0007798097, 10.001215, 9.9995165 
9.950323e+2, 1.24982975e+2, -1716546.4, -1675428.3, -66818.5, 0.027726542, 0.060131487, -1626077.5, 89098.79, 0.000108580556, 9.99973, 10.000382 
9.9503696e+2, 1.3498376e+2, -1584180.1, -1568548.8, 20071.896, 0.04852712, 0.07091202, -1554824.6, 62343.707, 0.000033028722, 10.000061, 10.000288 
9.9504125e+2, 1.4498349e+2, -1533860.3, -1552431.1, -22212.61, 0.091992445, 0.052302677, -1519070.4, 98.62288, 0.0000026281716, 9.999948, 9.99977 
9.9504364e+2, 1.549835e+2, -1474040.5, -1472108.6, 17480.07, 0.0073132883, 0.03594786, -1455567.9, -34402.58, 0.00000000019976186, 9.999701, 9.9997635 
9.9504775e+2, 1.6498281e+2, -1426540.8, -1507149.6, 51977.348, 0.017289242, 0.04319609, -1401072.3, -77901.46, 0.0, 9.999839, 9.998784 
9.9505347e+2, 1.7498104e+2, -1226637.6, -1366006.9, 40905.406, 0.12438188, -0.03830359, -1215518.8, 9670.035, 0.0, 10.000562, 9.998733 
9.950583e+2, 1.8498003e+2, -1075987.1, -1178774.4, 24974.672, 0.11902744, -0.033296715, -1070240.3, 56959.02, 0.0, 10.000644, 9.999305 
9.950622e+2, 1.9497955e+2, -1065249.0, -1127219.4, 33619.434, 0.004854216, -0.041754253, -1050513.9, -21309.37, 0.0, 10.000063, 9.999266 
9.9506575e+2, 2.049796e+2, -974794.94, -992877.06, -64191.195, -0.027695665, 0.0232023, -919011.25, 12193.439, 0.0, 9.999833, 9.999628 
9.9506897e+2, 2.1497981e+2, -863860.3, -890335.4, -33529.105, 0.017309705, 0.052262265, -841050.2, -7847.0103, 0.0, 9.999939, 9.999603 
9.950734e+2, 2.2497925e+2, -787244.7, -898663.75, 40044.477, 0.05863954, 0.083107635, -774345.8, -39136.29, 0.0, 10.000192, 9.998757 
9.950788e+2, 2.3497756e+2, -635558.44, -779100.56, 42067.063, 0.091923535, 0.009205586, -624138.56, 13088.484, 0.0, 10.000585, 9.9987135 
9.950826e+2, 2.449766e+2, -553169.1, -716409.1, -53584.227, 0.05456658, 0.059273075, -537151.56, 2087.3362, 0.0, 10.000599, 9.998464 
9.950849e+2, 2.54976e+2, -520248.97, -657342.8, -48706.54, -0.057472378, 0.123880394, -504706.6, -63457.97, 0.0, 10.000172, 9.998408 
9.9508834e+2, 2.6497513e+2, -370156.47, -436518.78, -40284.668, -0.0811722, 0.15888096, -351147.16, -7890.229, 0.000000028595345, 10.000132, 9.999268 
9.9509287e+2, 2.7497357e+2, -230588.75, -330293.88, -1851.0968, -0.0144193815, 0.052899994, -230554.39, 14713.271, 0.000003781716, 10.000458, 9.999173 
9.9509674e+2, 2.8497237e+2, -186660.38, -377746.84, -29615.338, -0.01926883, 0.07865761, -182175.73, -34897.145, 0.000036350866, 10.0005865, 9.998113 
9.950998e+2, 2.9497144e+2, -119759.695, -298423.47, -37238.727, -0.09851563, 0.13283049, -112308.79, -63017.816, 0.00015456251, 10.000381, 9.998078 
9.951038e+2, 3.049694e+2, 38578.19, -77328.96, -25404.916, -0.11749678, 0.07583602, 43901.996, 43901.996, 0.00041193186, 10.000673, 9.99911 
9.951105e+2, 3.1496918e+2, 159225.73, 71304.586, 14336.486, 0.10790172, 0.108376555, 161504.39, 161504.39, 0.0008105773, 10.001038, 9.999956 
1.0050327e+3, 1.2497871e+2, -1686996.5, -1666304.4, 115907.69, 0.097497754, -0.029530779, -1560281.9, 154933.78, 0.00014134821, 9.999957, 10.000336 
1.0050374e+3, 1.3497996e+2, -1585871.8, -1574347.4, 71810.54, 0.09906841, 0.033264093, -1508068.1, 109135.92, 0.000046426092, 10.000081, 10.000231 
1.00504205e+3, 1.4498019e+2, -1484259.5, -1521026.6, 15825.953, 0.17298746, 0.0651599, -1478385.8, 40815.504, 0.00000474816, 10.000284, 9.999809 
1.00504465e+3, 1.5498069e+2, -1281687.5, -1378846.9, -19998.525, 0.07843175, 0.09711054, -1277732.3, 143462.14, 0.000000004412824, 10.001028, 9.999764 
1.0050487e+3, 1.6497993e+2, -1240557.5, -1442658.5, 41415.902, 0.06354088, 0.11010968, -1232399.5, 90801.48, 0.0, 10.001207, 9.998577 
1.00505404e+3, 1.7497759e+2, -1209098.6, -1378982.9, 35594.47, 0.12514609, -0.010449993, -1201942.3, 23282.098, 0.0, 10.000765, 9.998551 
1.0050587e+3, 1.8497644e+2, -1124182.8, -1202307.3, 52087.797, 0.12675212, -0.011326719, -1098137.5, 29098.906, 0.0, 10.000319, 9.999297 
1.0050628e+3, 1.949762e+2, -1083332.9, -1137268.0, 41577.6, 0.074485265, 0.005187577, -1060743.0, -31503.19, 0.0, 9.999948, 9.999248 
1.00506626e+3, 2.0497629e+2, -946012.06, -972015.44, -4554.5273, 0.044037923, 0.07277194, -945237.4, -13997.951, 0.0, 9.999991, 9.999699 
1.00506924e+3, 2.1497637e+2, -794368.56, -857066.4, -31788.342, 0.02909969, 0.08421066, -781071.6, 52167.063, 0.0, 10.000392, 9.999629 
1.0050736e+3, 2.2497565e+2, -742743.06, -889401.25, 66015.87, 0.06365543, 0.1040064, -717404.8, 17841.76, 0.0, 10.000566, 9.998637 
1.00507975e+3, 2.3497376e+2, -649265.2, -800683.56, 53150.145, 0.14246306, 0.023528066, -632471.25, 4795.196, 0.0, 10.000563, 9.998574 
1.0050835e+3, 2.449727e+2, -554142.8, -706981.0, -2307.449, 0.091957435, 0.06881214, -554108.0, -14829.107, 0.0, 10.000546, 9.998555 
1.00508496e+3, 2.5497222e+2, -463974.56, -612421.4, 312.26855, -0.07849334, 0.13549507, -463973.9, -22687.578, 0.0, 10.000502, 9.998545 
1.00508854e+3, 2.6497135e+2, -312395.75, -454871.0, 43206.492, -0.09238185, 0.18318549, -300317.1, 42978.027, 0.000000017098808, 10.000727, 9.99885 
1.0050943e+3, 2.7496958e+2, -161668.02, -338849.78, -18294.543, 0.050198633, 0.090553164, -159798.77, 85511.27, 0.000003428396, 10.001111, 9.998791 
1.0050981e+3, 2.8496814e+2, -125505.65, -337027.88, -43371.797, 0.047552936, 0.10462059, -116957.86, 30365.576, 0.00003625069, 10.000976, 9.998191 
1.00510016e+3, 2.9496685e+2, -132965.67, -295574.1, -30430.91, -0.08260526, 0.12187917, -127457.35, -78120.43, 0.00015744341, 10.000254, 9.998153 
1.005104e+3, 3.0496505e+2, -18782.502, -105184.39, 44755.164, -0.11410465, 0.08241127, 220.62308, 220.62308, 0.00042211023, 10.000247, 9.999146 
1.0051118e+3, 3.149651e+2, 86817.2, 8814.056, -28997.186, 0.16227698, 0.14004011, 96415.625, 96415.625, 0.0008305699, 10.000613, 9.999762 
1.0150335e+3, 1.2497736e+2, -1776019.5, -1832741.3, 56888.695, 0.10816856, -0.039243586, -1740814.1, -25592.303, 0.0001798155, 9.999899, 9.999211 
1.01503745e+3, 1.3497774e+2, -1668397.4, -1744594.4, 87472.695, 0.061661538, 0.053587086, -1611086.4, 6138.0767, 0.000062927356, 10.000083, 9.999057 
1.0150423e+3, 1.4497723e+2, -1523342.4, -1597320.9, 21214.586, 0.11978737, 0.09613784, -1517690.5, 1541.9958, 0.000007860604, 10.000263, 9.999293 
1.0150457e+3, 1.5497735e+2, -1322274.0, -1458596.4, 23181.32, 0.044560928, 0.14094862, -1318439.9, 102791.44, 0.000000028517778, 10.001012, 9.999221 
1.0150495e+3, 1.6497672e+2, -1226035.5, -1405414.1, 8471.284, -0.0049391994, 0.18143344, -1225636.4, 97601.11, 0.0, 10.001175, 9.998848 
1.01505384e+3, 1.7497508e+2, -1191732.3, -1340573.3, 32577.686, -0.0055951835, 0.10230721, -1184914.1, 40339.223, 0.0, 10.000751, 9.998822 
1.0150584e+3, 1.849744e+2, -1126869.1, -1188205.6, 21647.46, 0.035128545, 0.12734255, -1119998.6, 7261.888, 0.0, 10.000236, 9.999433 
1.01506345e+3, 1.9497429e+2, -1091972.9, -1125753.5, 41387.45, 0.116103895, 0.14377092, -1064161.9, -34899.25, 0.0, 9.999823, 9.999386 
1.0150673e+3, 2.04974e+2, -987218.44, -1024437.6, -4833.138, 0.116909966, 0.18074007, -986601.06, -55335.258, 0.0, 9.999848, 9.999407 
1.01506986e+3, 2.1497323e+2, -839011.44, -908548.3, -3500.5896, 0.038307697, 0.13157895, -838835.7, -5562.799, 0.0, 10.000218, 9.999354 
1.0150739e+3, 2.2497237e+2, -771941.7, -897742.1, 49654.086, 0.009875194, 0.15123318, -754704.75, -19423.035, 0.0, 10.000344, 9.998683 
1.0150795e+3, 2.349711e+2, -674138.94, -804220.3, 67319.55, 0.029993016, 0.12516673, -645572.94, -8277.193, 0.0, 10.000359, 9.998643 
1.0150836e+3, 2.4497023e+2, -547086.94, -649493.2, -22167.838, 0.015732098, 0.16199555, -542494.25, -3189.6028, 0.0, 10.000363, 9.99904 
1.0150861e+3, 2.5496948e+2, -451021.88, -553318.94, 13290.803, -0.041070126, 0.150597, -449323.28, -8011.7656, 0.0, 10.00036, 9.999023 
1.01509005e+3, 2.6496807e+2, -416691.4, -642283.5, 45663.707, -0.039891608, 0.18509729, -407798.8, -64472.332, 0.000000011022683, 10.000604, 9.997621 
1.0150953e+3, 2.749657e+2, -266329.13, -523270.72, 17862.023, 0.0111773275, 0.15525158, -265093.34, -19740.387, 0.0000031084232, 10.000971, 9.997589 
1.0150993e+3, 2.8496408e+2, -88018.49, -232515.56, -84295.59, 0.037290532, 0.17211571, -49246.316, 98121.46, 0.000035475467, 10.000868, 9.998956 
1.015102e+3, 2.9496297e+2, -101980.33, -197135.39, -36590.73, 0.03225362, 0.12599221, -89537.01, -40163.4, 0.00015874387, 10.000119, 9.998886 
1.0151054e+3, 3.0496112e+2, -77153.73, -208150.83, 50110.52, -0.03596892, 0.08450489, -60183.344, -60183.344, 0.00042931808, 10.00017, 9.998475 
1.01511076e+3, 3.149604e+2, -6175.849, -122917.914, 31043.424, -0.061940186, 0.12548083, 1565.6863, 1565.6863, 0.00084597495, 10.000368, 9.998964 
1.0250337e+3, 1.2497462e+2, -1866107.9, -1882156.6, -53351.29, 0.18460156, 0.020372925, -1820180.9, -104931.05, 0.00022439056, 9.999293, 9.999177 
1.02503784e+3, 1.3497466e+2, -1593917.9, -1718363.3, 16845.38, 0.07232878, 0.091026396, -1591678.0, 25577.541, 0.0000828242, 10.000635, 9.998981 
1.0250428e+3, 1.4497386e+2, -1456475.9, -1587514.5, 16269.38, 0.13110636, 0.11802984, -1454486.1, 64780.01, 0.000012107546, 10.000801, 9.999116 
1.0250466e+3, 1.549735e+2, -1472091.8, -1549757.0, 10920.851, 0.10000018, 0.13177471, -1470585.3, -49315.53, 0.00000009714164, 10.000057, 9.99906 
1.0250504e+3, 1.6497287e+2, -1401559.1, -1449762.1, 46403.31, 0.051050287, 0.16277435, -1373371.5, -50095.83, 0.0, 9.999824, 9.999176 
1.0250543e+3, 1.7497176e+2, -1243974.6, -1323755.5, 40058.65, -0.00016755177, 0.10393146, -1227332.4, -2046.5479, 0.0, 10.000243, 9.999165 
1.0250587e+3, 1.8497129e+2, -1102334.6, -1185453.6, 42245.91, 0.03663379, 0.1358717, -1084632.8, 42657.94, 0.0, 10.000421, 9.999371 
1.0250637e+3, 1.949711e+2, -1030001.5, -1103572.3, 21530.158, 0.14172785, 0.15093139, -1024164.0, 5129.8696, 0.0, 10.000267, 9.999334 
1.02506764e+3, 2.0497063e+2, -919458.4, -1008325.06, 25041.38, 0.14058211, 0.18114525, -912887.9, 18410.807, 0.0, 10.000403, 9.999251 
1.0250703e+3, 2.1496955e+2, -761818.4, -889116.25, 1983.1589, 0.03823458, 0.12127422, -761787.5, 71521.08, 0.0, 10.000847, 9.999183 
1.0250745e+3, 2.2496867e+2, -676832.25, -841652.0, 70868.18, 0.009102866, 0.14320137, -650551.3, 84766.03, 0.0, 10.000947, 9.99878 
1.0250801e+3, 2.3496771e+2, -634895.4, -776695.8, 64397.605, 0.04717823, 0.14073516, -610015.1, 27312.984, 0.0, 10.000592, 9.998724 
1.02508426e+3, 2.449669e+2, -533609.4, -660738.06, -10207.788, 0.05148915, 0.18645942, -532795.0, 6542.105, 0.0, 10.000553, 9.998854 
1.0250872e+3, 2.5496587e+2, -402103.0, -553884.75, -61496.473, 0.015770862, 0.16825016, -380314.6, 61033.28, 0.0, 10.000805, 9.9988 
1.0250912e+3, 2.6496434e+2, -399302.8, -622457.25, 16406.775, 0.013291676, 0.1994725, -398103.0, -54738.832, 0.00000001218603, 10.000672, 9.997727 
1.0250962e+3, 2.749621e+2, -383675.2, -563399.4, 53150.305, 0.056614276, 0.16845194, -369133.5, -123744.62, 0.0000027111198, 10.000106, 9.997728 
1.02510035e+3, 2.8496042e+2, -179503.94, -282451.84, 9193.977, 0.09455372, 0.17404188, -178689.3, -31285.693, 0.00003356842, 10.000254, 9.998919 
1.0251034e+3, 2.9495898e+2, 24531.813, -143078.69, -37798.695, 0.12796353, 0.103676096, 32661.654, 82073.35, 0.00015737157, 10.001003, 9.998845 
1.0251067e+3, 3.049574e+2, 1616.2859, -189293.64, 54212.723, 0.05721471, 0.09908614, 15936.862, 15936.862, 0.00043278775, 10.000825, 9.998269 
1.0251112e+3, 3.149566e+2, -158858.69, -224126.66, 7300.449, 0.007589966, 0.15165319, -158052.08, -158052.08, 0.00085734465, 9.999442, 9.998702 
1.0350322e+3, 1.2497041e+2, -1787476.9, -1728911.3, -66362.52, 0.030003909, 0.13841821, -1685658.1, 29642.537, 0.00027553758, 9.999332, 10.000207 
1.0350379e+3, 1.349708e+2, -1530252.4, -1585797.0, 74679.26, -0.0035033836, 0.14869043, -1478348.5, 138947.92, 0.000106410545, 10.0006275, 9.999896 
1.0350433e+3, 1.4497012e+2, -1442833.8, -1556703.1, -33319.066, 0.05770707, 0.13281375, -1433800.9, 85501.1, 0.000017580353, 10.000795, 9.999329 
1.03504725e+3, 1.5496911e+2, -1453178.8, -1513584.9, -3054.1487, 0.10750663, 0.058984254, -1453024.8, -31714.59, 0.00000023822265, 10.000065, 9.999308 
1.03505105e+3, 1.6496834e+2, -1386452.9, -1405225.4, 41456.027, 0.08391556, 0.046929184, -1353333.8, -30017.783, 0.0, 9.999774, 9.999501 
1.0350551e+3, 1.7496759e+2, -1230177.0, -1282679.1, 69189.87, 0.020612955, -0.0084606735, -1182425.6, 42896.19, 0.0, 10.000191, 9.999472 
1.0350591e+3, 1.8496716e+2, -1130244.5, -1223094.6, 17839.303, 0.0038873048, 0.023416575, -1126935.0, 391.271, 0.0, 10.000335, 9.999153 
1.0350631e+3, 1.9496666e+2, -1060424.9, -1144255.6, 26391.383, 0.02824339, 0.026375646, -1052808.4, -23475.443, 0.0, 10.000167, 9.9991045 
1.0350668e+3, 2.0496617e+2, -954236.4, -1039806.8, 24477.799, -0.0048800907, 0.072541356, -947729.25, -16390.746, 0.0, 10.000226, 9.99912 
1.0350702e+3, 2.1496527e+2, -789154.06, -914813.3, 34690.96, -0.08373735, 0.043150883, -780213.06, 53133.586, 0.0, 10.000703, 9.99908 
1.035075e+3, 2.2496448e+2, -694210.7, -830090.4, 42447.227, -0.062606044, 0.06810725, -682040.7, 53313.78, 0.0, 10.000748, 9.998953 
1.0350809e+3, 2.3496355e+2, -650252.8, -763189.6, 65326.973, 0.057690352, 0.05008322, -620371.4, 16992.871, 0.0, 10.000399, 9.998908 
1.0350852e+3, 2.4496263e+2, -632149.56, -818397.4, -12086.876, 0.064225696, 0.12678377, -631368.44, -91991.73, 0.0, 10.000355, 9.997868 
1.0350878e+3, 2.5496146e+2, -493357.72, -704944.7, -33192.707, -0.040250376, 0.18890409, -488272.8, -46878.01, 0.0, 10.000644, 9.997838 
1.0350914e+3, 2.6496032e+2, -318978.9, -427534.5, -19427.53, -0.047429815, 0.23364039, -315606.84, 27800.264, 0.00000000560088, 10.000554, 9.999121 
1.0350964e+3, 2.7495876e+2, -306362.1, -370026.25, 49612.14, 0.04219487, 0.1358967, -279248.03, -33830.152, 0.0000022721786, 9.999975, 9.999115 
1.03510074e+3, 2.8495708e+2, -247484.83, -401032.9, 23423.33, 0.081567265, 0.11174951, -243991.16, -96559.79, 0.000031172072, 10.000158, 9.998149 
1.0351041e+3, 2.949552e+2, -51331.12, -265865.84, 15127.692, 0.05734568, 0.07002445, -50269.66, -820.9949, 0.00015322318, 10.00086, 9.998069 
1.0351077e+3, 3.0495402e+2, -6372.0635, -183307.44, -5151.4707, 0.038841482, 0.13974513, -6222.2056, -6222.2056, 0.00043103905, 10.000733, 9.998352 
1.0351119e+3, 3.1495398e+2, -180185.72, -210416.31, 6096.089, 0.0663272, 0.2635877, -179002.72, -179002.72, 0.0008619147, 9.999226, 9.998887 
1.0450328e+3, 1.249667e+2, -1536615.0, -1627606.4, 52011.664, 0.086074196, 0.18195726, -1513008.9, 202328.88, 0.0003338259, 10.001107, 10.000056 
1.0450387e+3, 1.3496628e+2, -1609452.0, -1644075.8, 75442.45, 0.03794607, 0.12513636, -1549360.6, 67980.42, 0.00013404706, 10.000141, 9.999734 
1.04504354e+3, 1.4496553e+2, -1574375.5, -1588239.5, -34013.24, 0.067464605, 0.095608704, -1546595.0, -27248.613, 0.000024406929, 9.999768, 9.999599 
1.0450477e+3, 1.5496486e+2, -1393250.0, -1447928.3, -40621.793, 0.15662767, 0.028410716, -1371624.3, 49726.05, 0.0000004785213, 10.000341, 9.999614 
1.0450517e+3, 1.6496426e+2, -1286640.0, -1365089.0, 29084.582, 0.14245205, 0.02225027, -1277033.4, 46320.895, 0.0, 10.000479, 9.999454 
1.0450554e+3, 1.7496352e+2, -1227493.1, -1287251.1, 1672.83, 0.046237886, -0.028665055, -1227446.3, -2085.3623, 0.0, 10.000224, 9.999434 
1.04505934e+3, 1.8496305e+2, -1125974.9, -1230404.9, -21694.902, -0.00014085951, 0.0067954613, -1121647.1, 5718.824, 0.0, 10.000422, 9.999053 
1.04506336e+3, 1.9496253e+2, -929456.94, -1090073.5, -40076.176, -0.0014672057, 0.019163687, -920012.7, 109360.21, 0.0, 10.001119, 9.999009 
1.0450674e+3, 2.0496193e+2, -822352.1, -977761.94, -17615.92, -0.0037545215, 0.060235027, -820380.3, 110999.07, 0.0, 10.001136, 9.999104 
1.04507156e+3, 2.1496087e+2, -839006.8, -935589.6, -29988.838, -0.0022925832, 0.015710356, -830452.9, 2936.2246, 0.0, 10.000361, 9.99909 
1.0450762e+3, 2.2496015e+2, -770128.75, -852152.56, 11006.15, 0.018250953, 0.038815204, -768677.6, -33281.543, 0.0, 10.000152, 9.999097 
1.0450813e+3, 2.3495938e+2, -625880.8, -738779.3, -334.44437, 0.05453765, 0.025491966, -625879.9, 11523.7, 0.0, 10.00049, 9.9990425 
1.0450856e+3, 2.4495845e+2, -577051.06, -794479.25, -3299.8574, 0.0526782, 0.09390199, -577000.94, -37584.832, 0.0, 10.000728, 9.997864 
1.045089e+3, 2.5495708e+2, -461843.72, -688883.25, 16933.65, 0.020158734, 0.1375007, -460587.66, -19151.14, 0.0, 10.000852, 9.997852 
1.0450929e+3, 2.6495618e+2, -229671.67, -355996.72, 37528.23, 0.021400439, 0.19216125, -219363.97, 124082.61, 0.0000000009945924, 10.001035, 9.999392 
1.04509704e+3, 2.7495524e+2, -111080.445, -251992.1, -7574.474, 0.056844424, 0.12970589, -110674.46, 134776.86, 0.0000020282196, 10.001177, 9.999366 
1.0451014e+3, 2.8495368e+2, -104615.56, -335323.66, 2289.9858, 0.10012637, 0.108043395, -104592.83, 42871.27, 0.00002862313, 10.001151, 9.998123 
1.0451058e+3, 2.949515e+2, -46411.97, -258528.3, 10852.19, 0.15945023, 0.037892625, -45858.2, 3627.4502, 0.00014660136, 10.000883, 9.998101 
1.04510926e+3, 3.0495062e+2, 29889.62, -166273.05, 22266.977, 0.12548155, 0.13485837, 32385.451, 32385.451, 0.00042212423, 10.000963, 9.9983635 
1.0451117e+3, 3.1495085e+2, 91201.81, -79639.73, -25870.19, 0.049806397, 0.2879334, 95033.35, 95033.35, 0.0008537748, 10.001025, 9.998946 
1.0550347e+3, 1.2496332e+2, -1620907.0, -1793694.5, -35173.55, 0.08342003, 0.11832716, -1614021.3, 101341.67, 0.00039971265, 10.001086, 9.998917 
1.0550393e+3, 1.3496119e+2, -1696574.0, -1817411.8, 52599.586, 0.058675405, 0.012805131, -1676885.6, -59497.535, 0.00016604259, 10.000117, 9.998554 
1.0550432e+3, 1.449603e+2, -1557379.9, -1551306.6, -34262.184, 0.0041620894, 0.013891649, -1519946.8, -549.203, 0.000032768716, 9.999757, 9.99986 
1.0550481e+3, 1.5496081e+2, -1379580.5, -1417770.3, -5906.239, 0.11958873, 0.037998397, -1378688.0, 42701.51, 0.0000008393984, 10.000323, 9.999835 
1.0550519e+3, 1.6496071e+2, -1318061.8, -1420097.9, 3015.3052, 0.09089933, 0.08782145, -1317972.8, 5417.0713, 0.0, 10.000437, 9.999092 
1.05505496e+3, 1.7495961e+2, -1255270.0, -1342101.4, 6089.0356, -0.05209711, 0.036717832, -1254845.1, -29443.164, 0.0, 10.000208, 9.999065 
1.055059e+3, 1.8495902e+2, -1144277.3, -1243841.3, -13311.265, -0.10777896, 0.08296235, -1142528.4, -15119.523, 0.0, 10.000318, 9.999011 
1.055064e+3, 1.9495872e+2, -947742.3, -1104581.5, 1631.718, -0.07570195, 0.1171118, -947725.3, 81687.88, 0.0, 10.00101, 9.998966 
1.055069e+3, 2.0495798e+2, -841453.9, -978190.44, -63929.52, 0.017123418, 0.1427672, -816220.9, 115199.94, 0.0, 10.000968, 9.999184 
1.0550739e+3, 2.1495642e+2, -860484.7, -941586.3, -45733.86, 0.16916609, 0.038954165, -839913.06, -6477.619, 0.0, 10.000186, 9.99914 
1.0550776e+3, 2.2495563e+2, -797285.8, -858961.44, 10469.404, 0.13528845, 0.052828528, -795557.06, -60114.535, 0.0, 9.999943, 9.999145 
1.0550807e+3, 2.3495525e+2, -646009.3, -738921.7, 28023.256, -0.082550615, 0.0689491, -638211.7, -766.1271, 0.0, 10.000314, 9.999123 
1.055085e+3, 2.4495444e+2, -538077.06, -672383.56, -14229.204, -0.10803859, 0.0973994, -536586.1, 2868.2417, 0.0, 10.000554, 9.998784 
1.0550906e+3, 2.5495282e+2, -421160.13, -566868.94, 34202.19, 0.0648493, 0.02341029, -413531.28, 27941.129, 0.0, 10.00069, 9.998767 
1.0550948e+3, 2.6495197e+2, -311043.9, -488382.22, 28819.164, 0.09396971, 0.07938922, -306478.06, 37004.523, 0.000000000012280949, 10.000884, 9.9985485 
1.0550978e+3, 2.7495158e+2, -190719.58, -383727.1, 18253.48, -0.02887538, 0.15195139, -189008.44, 56479.387, 0.0000016155456, 10.001035, 9.998524 
1.0551022e+3, 2.8495038e+2, -74499.055, -243958.97, -20942.67, 0.028253369, 0.17364004, -71949.23, 75550.39, 0.000025306648, 10.001031, 9.99881 
1.0551083e+3, 2.9494804e+2, -19571.28, -172146.69, 25127.146, 0.27358294, 0.01869393, -15539.701, 33981.875, 0.00013793015, 10.000754, 9.99876 
1.05511084e+3, 3.049472e+2, 17940.22, -170912.17, 18538.37, 0.16146962, 0.08959308, 19742.8, 19742.8, 0.00040720604, 10.000872, 9.998376 
1.0551099e+3, 3.1494752e+2, 58661.137, -98323.0, 30954.729, -0.31620553, 0.24384677, 64544.42, 64544.42, 0.00083313056, 10.000816, 9.9989195 
1.06503576e+3, 1.2495889e+2, -1769457.6, -1865288.3, -49677.914, 0.1534641, 0.0216923, -1748352.9, -32950.805, 0.00047318285, 10.000089, 9.998909 
1.06504e+3, 1.3495734e+2, -1621844.1, -1772417.5, 60077.574, 0.102804475, -0.0254659, -1600811.6, 16610.469, 0.00020250746, 10.000621, 9.998618 
1.065043e+3, 1.4495675e+2, -1452067.4, -1528447.5, 53593.492, -0.03249992, 0.016967056, -1424449.0, 94980.414, 0.000042863663, 10.000586, 9.99963 
1.06504835e+3, 1.54957e+2, -1393800.0, -1445837.6, 7897.861, 0.12468173, 0.034914467, -1392627.6, 28797.975, 0.0000013547858, 10.000319, 9.999644 
1.0650525e+3, 1.6495675e+2, -1344471.5, -1467608.8, 39227.824, 0.113319606, 0.09415834, -1333036.5, -9608.108, 0.0, 10.000399, 9.998789 
1.0650556e+3, 1.7495565e+2, -1188706.5, -1342850.8, 12031.729, -0.033490308, 0.078065984, -1187773.0, 37668.23, 0.0, 10.000807, 9.998776 
1.0650597e+3, 1.8495488e+2, -1097809.6, -1221819.3, 26685.2, -0.074388415, 0.116541095, -1092311.1, 35139.156, 0.0, 10.000622, 9.999021 
1.065065e+3, 1.949541e+2, -1110291.0, -1181040.6, 15953.589, -0.01562371, 0.10487814, -1106860.0, -77401.49, 0.0, 9.999875, 9.998991 
1.0650698e+3, 2.0495343e+2, -993516.44, -1042800.56, -18189.86, 0.07281233, 0.1304725, -987530.06, -56064.477, 0.0, 9.999893, 9.99925 
1.0650744e+3, 2.1495251e+2, -777236.2, -890927.0, -34732.555, 0.19678211, 0.08467779, -767465.1, 66009.45, 0.0, 10.000724, 9.999221 
1.0650782e+3, 2.2495183e+2, -633988.4, -784398.1, 53212.223, 0.15449727, 0.10675097, -617066.6, 118414.18, 0.0, 10.001073, 9.999115 
1.0650815e+3, 2.3495106e+2, -563508.94, -697215.3, 37148.23, -0.046549693, 0.086125284, -553881.1, 83606.23, 0.0, 10.000879, 9.999128 
1.0650859e+3, 2.4495025e+2, -494975.25, -607410.44, -7811.165, -0.06320239, 0.09491783, -494435.2, 45059.734, 0.0, 10.000657, 9.999181 
1.0650914e+3, 2.5494903e+2, -439300.28, -536190.8, -29170.223, 0.10304296, 0.02245594, -431196.06, 10311.342, 0.0, 10.000386, 9.999133 
1.0650958e+3, 2.6494825e+2, -381678.2, -532996.56, 13350.351, 0.13929714, 0.07418887, -380509.38, -36992.523, 0.0, 10.000434, 9.998458 
1.0650994e+3, 2.749478e+2, -252240.8, -416978.5, 18060.465, 0.05367827, 0.14552401, -250284.05, -4758.8286, 0.00000091217555, 10.000642, 9.998478 
1.0651035e+3, 2.8494698e+2, -131188.88, -264548.06, 1032.6505, 0.08613918, 0.20687686, -131180.88, 16353.904, 0.000020761427, 10.000598, 9.998882 
1.0651084e+3, 2.9494545e+2, -78487.92, -195001.5, -31160.059, 0.24677125, 0.12636335, -70678.055, -21127.59, 0.00012637535, 10.000296, 9.998834 
1.0651113e+3, 3.0494455e+2, -10189.089, -156882.64, 9729.3, 0.14682975, 0.17381516, -9546.617, -9546.617, 0.00038601994, 10.000568, 9.998605 
1.0651119e+3, 3.149436e+2, 130207.63, -18033.352, -16801.602, -0.18205152, 0.17470957, 132088.08, 132088.08, 0.0008001297, 10.001135, 9.999289 
1.0750356e+3, 1.24953166e+2, -1701006.1, -1707747.1, -36385.066, 0.05697269, -0.1338523, -1667835.8, 47621.375, 0.00055371417, 10.000049, 9.999996 
1.0750402e+3, 1.3495472e+2, -1547592.0, -1605658.0, 86153.695, 0.02683908, 0.011917979, -1485710.9, 131732.0, 0.00024334127, 10.000578, 9.999776 
1.0750423e+3, 1.449549e+2, -1497972.3, -1624800.9, 18998.732, -0.195588, 0.10419884, -1495187.4, 24255.096, 0.00005483326, 10.000577, 9.998979 
1.0750481e+3, 1.549534e+2, -1436094.3, -1539489.5, 12263.383, 0.03425548, 0.010763308, -1434659.6, -13200.715, 0.000002073113, 10.000333, 9.999001 
1.07505284e+3, 1.6495243e+2, -1370627.8, -1507560.4, 35416.207, 0.08315433, 0.044551026, -1362010.0, -38540.15, 0.0000000000166348, 10.000347, 9.998534 
1.0750569e+3, 1.7495169e+2, -1213248.1, -1381220.4, 42193.95, -0.013740633, 0.084811114, -1203244.9, 22233.582, 0.0, 10.000753, 9.998535 
1.0750612e+3, 1.849506e+2, -1109759.0, -1219486.3, -17275.008, -0.024231825, 0.10242791, -1107103.6, 20386.33, 0.0, 10.000514, 9.999086 
1.0750658e+3, 1.9494876e+2, -1123725.3, -1176743.9, 1594.8907, 0.048389215, -0.023690667, -1123677.3, -94169.055, 0.0, 9.999744, 9.99908 
1.0750697e+3, 2.0494832e+2, -1017131.0, -1056991.6, -6065.4316, 0.04489918, 0.023823489, -1016228.5, -84715.11, 0.0, 9.99974, 9.999232 
1.0750731e+3, 2.1494906e+2, -802130.06, -901161.6, 10827.614, -0.037373547, 0.14013194, -800960.0, 32547.77, 0.0, 10.00054, 9.999243 
1.07507765e+3, 2.249487e+2, -668881.94, -804597.2, 32483.756, -0.037615508, 0.19502434, -661507.56, 74004.086, 0.0, 10.000852, 9.999083 
1.0750836e+3, 2.3494688e+2, -597070.9, -718303.9, 48319.742, 0.042979617, 0.07274475, -580168.6, 57359.832, 0.0, 10.0006695, 9.999087 
1.075088e+3, 2.4494596e+2, -541440.56, -651903.9, -29819.525, 0.061875902, 0.0824021, -533904.9, 5632.805, 0.0, 10.000444, 9.99897 
1.0750912e+3, 2.5494555e+2, -471575.88, -569860.6, -20653.496, 0.016034761, 0.11200306, -467412.16, -25869.74, 0.0, 10.000244, 9.998964 
1.0750957e+3, 2.6494497e+2, -366885.63, -461116.66, 6881.9307, 0.04919921, 0.16004767, -366385.66, -22835.781, 0.000000000031670343, 10.000266, 9.999033 
1.07510135e+3, 2.7494383e+2, -234850.47, -348418.22, 46648.945, 0.16035783, 0.10739283, -218146.03, 27417.62, 0.00000057346807, 10.000504, 9.999019 
1.07510485e+3, 2.8494355e+2, -174815.66, -334737.66, -26201.342, 0.12844256, 0.21667749, -170632.31, -23062.541, 0.000016841232, 10.000512, 9.998438 
1.0751062e+3, 2.949439e+2, -125835.31, -264517.2, -18543.01, -0.0514851, 0.3676961, -123398.76, -73827.94, 0.000114238224, 10.000173, 9.998414 
1.0751102e+3, 3.0494276e+2, 1573.2595, -115730.086, 27981.018, -0.045159075, 0.39178163, 7905.862, 7905.862, 0.0003625103, 10.000496, 9.998923 
1.0751171e+3, 3.1493905e+2, 129927.14, 15653.553, 64716.82, 0.1411043, 0.0843643, 159120.4, 159120.4, 0.00076317973, 10.000979, 9.999604 
1.0850355e+3, 1.249486e+2, -1629910.1, -1631601.1, -34235.832, 0.045533694, -0.06741889, -1596509.4, 118996.02, 0.00064071716, 10.000305, 10.000417 
1.08504064e+3, 1.3495012e+2, -1697147.6, -1622996.4, -67264.63, 0.09407953, 0.022099242, -1583266.3, 34222.582, 0.00028839763, 9.999288, 10.000289 
1.0850425e+3, 1.4495032e+2, -1669510.6, -1690930.4, -51006.203, -0.16355622, 0.08585058, -1628102.0, -108615.08, 0.00006873226, 9.999372, 9.999081 
1.0850485e+3, 1.5494917e+2, -1335506.1, -1480459.4, -46028.125, 0.0123443175, 0.020582074, -1322125.6, 99374.89, 0.0000030594845, 10.001, 9.999072 
1.08505346e+3, 1.6494823e+2, -1219299.9, -1406334.6, 15281.037, 0.07313776, 0.038585126, -1218059.6, 105450.81, 0.000000000186287, 10.00125, 9.998799 
1.0850577e+3, 1.7494722e+2, -1285953.8, -1387841.6, 26594.408, 0.03882347, 0.025690394, -1279429.9, -53910.43, 0.0, 10.000126, 9.998794 
1.085062e+3, 1.8494615e+2, -1190568.5, -1264186.9, 28916.945, 0.04840005, 0.035418637, -1180568.4, -53038.24, 0.0, 9.999981, 9.999044 
1.0850664e+3, 1.9494468e+2, -980436.94, -1112199.0, 7338.16, 0.09842349, -0.046100564, -980029.5, 49516.46, 0.0, 10.000761, 9.999034 
1.0850702e+3, 2.0494434e+2, -838910.25, -970745.3, 34481.582, 0.064787365, 0.012641319, -830436.25, 101114.43, 0.0, 10.000973, 9.999221 
1.08507335e+3, 2.1494474e+2, -792392.56, -900664.3, 14505.734, -0.057574, 0.0973059, -790482.8, 43065.12, 0.0, 10.000634, 9.999197 
1.08507834e+3, 2.2494428e+2, -713428.6, -824973.7, 55236.555, -0.03351812, 0.14570265, -690705.0, 44848.14, 0.0, 10.000549, 9.999091 
1.0850852e+3, 2.3494267e+2, -589110.75, -714745.44, 35996.81, 0.14044513, 0.045380387, -579527.9, 58041.324, 0.0, 10.00073, 9.999088 
1.08508945e+3, 2.4494189e+2, -473724.6, -607345.5, -2175.6418, 0.15092693, 0.06481931, -473689.2, 65887.53, 0.0, 10.000826, 9.999118 
1.08509146e+3, 2.5494167e+2, -398020.8, -518052.63, 4315.3535, 0.0002976615, 0.098184906, -397865.88, 43712.613, 0.0, 10.0006695, 9.999132 
1.08509555e+3, 2.6494107e+2, -339299.4, -451249.84, 61277.637, 0.017420419, 0.13953522, -312279.6, 31305.611, 0.000000020287489, 10.000469, 9.998994 
1.085102e+3, 2.7493966e+2, -271332.38, -372141.06, 19511.494, 0.20554954, 0.06494303, -267687.7, -22086.428, 0.0000009682407, 10.00027, 9.998966 
1.0851056e+3, 2.8493923e+2, -169111.22, -332805.9, -19533.176, 0.16368444, 0.16034168, -166812.66, -19203.805, 0.000016002106, 10.000568, 9.998417 
1.08510636e+3, 2.9493955e+2, 28303.3, -183535.83, -24910.018, -0.09174886, 0.30957574, 31193.033, 80802.875, 0.00010691048, 10.0012245, 9.998451 
1.0851112e+3, 3.0493844e+2, 123905.19, -47298.418, 59568.55, -0.032326553, 0.33453834, 142591.83, 142591.83, 0.00034615427, 10.001307, 9.999017 
1.08512e+3, 3.1493515e+2, 74858.85, -881.9617, 24966.88, 0.37209538, 0.06372401, 82348.26, 82348.26, 0.0007399488, 10.000586, 9.999684 
1.0950354e+3, 1.2494511e+2, -1639803.9, -1635373.9, -44594.063, -0.0633687, 0.2026435, -1592939.9, 122607.53, 0.000734217, 10.000239, 10.000421 
1.0950409e+3, 1.3494377e+2, -1695004.1, -1626036.5, -95843.26, 0.16369133, 0.0062285927, -1558662.3, 58894.445, 0.00033773432, 9.999309, 10.000262 
1.0950431e+3, 1.4494315e+2, -1625841.8, -1592063.0, -11907.329, -0.08962076, -0.046078354, -1588287.5, -68726.26, 0.0000845864, 9.999342, 9.999771 
1.0950489e+3, 1.5494426e+2, -1296846.9, -1383395.9, 31234.432, -0.072582066, 0.048415054, -1286752.1, 134798.78, 0.0000043925156, 10.000937, 9.999765 
1.09505385e+3, 1.6494413e+2, -1168885.0, -1295339.9, -45384.047, -0.04901017, 0.074178606, -1154283.0, 169267.34, 0.0000000006358386, 10.001214, 9.999582 
1.0950579e+3, 1.7494223e+2, -1230748.9, -1274624.1, -219.7639, -0.00032683965, -0.1065484, -1230747.9, -5183.471, 0.0, 10.000117, 9.999579 
1.09506205e+3, 1.8494162e+2, -1214054.8, -1293190.6, 39388.23, 0.015563806, -0.082108155, -1197792.1, -70221.89, 0.0, 9.999904, 9.998878 
1.0950667e+3, 1.9494203e+2, -1011156.5, -1142877.4, 52664.004, 0.009983995, 0.03779847, -992689.6, 36880.973, 0.0, 10.000624, 9.998886 
1.0950709e+3, 2.0494144e+2, -867801.2, -998761.75, 5208.0757, 0.007810601, 0.08519216, -867594.4, 63983.594, 0.0, 10.000824, 9.999106 
1.09507486e+3, 2.1493953e+2, -823944.7, -927392.9, 16423.096, 0.005616943, -0.049038734, -821400.0, 12195.442, 0.0, 10.000459, 9.999102 
1.09507985e+3, 2.2493857e+2, -752866.8, -855226.94, 45050.59, 0.03878536, -0.04125722, -735863.6, -258.1518, 0.0, 10.000332, 9.998986 
1.0950858e+3, 2.3493819e+2, -627833.44, -745094.06, 58270.12, 0.1117094, -0.0100987, -603802.25, 33809.457, 0.0, 10.000514, 9.998982 
1.09508984e+3, 2.449379e+2, -464363.03, -538104.06, -23304.357, 0.073598705, 0.034834586, -457615.56, 81998.44, 0.0, 10.000618, 9.99969 
1.0950917e+3, 2.549374e+2, -384587.47, -447238.6, 15403.776, -0.072971426, -0.017715523, -381005.03, 60609.895, 0.0, 10.000487, 9.999704 
1.0950954e+3, 2.6493675e+2, -411901.25, -561088.9, 42375.563, -0.076121576, 0.019337287, -400705.03, -57083.797, 0.00000010014453, 10.0002985, 9.998321 
1.0951013e+3, 2.749354e+2, -335801.94, -479674.44, 35443.043, 0.061320946, 0.02085097, -327544.47, -81906.984, 0.0000018117424, 10.000155, 9.998284 
1.09510556e+3, 2.8493392e+2, -162428.25, -295827.75, -9788.101, 0.06342736, 0.03424641, -161713.89, -14060.762, 0.000017402066, 10.000472, 9.9987135 
1.0951084e+3, 2.9493216e+2, 31550.932, -150591.89, 19422.592, -0.050082643, -0.06205548, 33599.008, 83269.09, 0.00010435712, 10.001109, 9.9987335 
1.0951133e+3, 3.049316e+2, 94900.08, -79637.695, 18725.371, 0.026379803, 0.012761847, 96886.44, 96886.44, 0.00033796718, 10.001193, 9.998845 
1.0951201e+3, 3.1493175e+2, 30219.19, -57744.41, 48821.24, 0.24932119, 0.10796313, 51948.21, 51948.21, 0.00073106954, 10.00042, 9.99938 
1.1050356e+3, 1.2493992e+2, -1871998.0, -1754009.8, 133130.48, 0.033234127, 0.19829893, -1667387.8, 48211.082, 0.00083503575, 9.998702, 10.000314 
1.1050404e+3, 1.3493882e+2, -1661796.6, -1624241.5, -48342.043, 0.1684238, 0.03765863, -1591158.3, 26449.482, 0.0003918232, 9.999612, 10.000113 
1.1050434e+3, 1.4493832e+2, -1544669.8, -1519987.4, 81014.8, 0.00078941573, -0.014002401, -1450379.1, 69232.055, 0.000102570426, 9.999718, 10.000105 
1.1050494e+3, 1.5493965e+2, -1518978.3, -1455433.0, 68136.66, -0.023178417, 0.06856614, -1412025.3, 9571.822, 0.0000061708192, 9.9992285, 10.000108 
1.1050542e+3, 1.6493973e+2, -1434317.4, -1385384.6, -27778.002, -0.02993014, 0.08240295, -1372834.5, -49241.063, 0.0000000015512864, 9.99925, 9.999895 
1.1050579e+3, 1.7493816e+2, -1229035.0, -1233096.8, -55503.0, 0.0037675486, -0.100961186, -1175525.8, 50078.95, 0.0, 9.999982, 9.999913 
1.10506214e+3, 1.8493786e+2, -1148635.1, -1235023.8, 27101.604, 0.027281968, -0.07270954, -1140836.9, -13229.752, 0.0, 10.000243, 9.99911 
1.1050671e+3, 1.9493856e+2, -1083462.8, -1149765.9, 36536.445, 0.039267927, 0.05178685, -1067279.4, -37675.113, 0.0, 10.0000105, 9.99913 
1.10507175e+3, 2.0493807e+2, -976884.0, -1044899.0, 36392.31, 0.058218632, 0.09342843, -961082.8, -29472.549, 0.0, 10.000042, 9.99917 
1.1050759e+3, 2.1493603e+2, -825286.25, -921377.25, 26349.559, 0.07985474, -0.056053728, -818535.1, 15093.11, 0.0, 10.000411, 9.999169 
1.10508084e+3, 2.2493507e+2, -730818.4, -856939.94, 93659.42, 0.10792487, -0.048757173, -680968.8, 54669.676, 0.0, 10.00053, 9.998876 
1.1050866e+3, 2.3493484e+2, -654360.0, -769258.56, 77801.43, 0.14537667, 0.0062487572, -615095.9, 22548.172, 0.0, 10.000381, 9.998878 
1.10509045e+3, 2.4493447e+2, -515873.53, -581392.2, -1330.5375, 0.09505397, 0.05842078, -515846.53, 23800.701, 0.0, 10.000365, 9.999497 
1.1050924e+3, 2.5493369e+2, -392874.3, -468930.06, -59967.996, -0.03734498, -0.0040049306, -359893.2, 81757.65, 0.0, 10.000525, 9.999517 
1.10509634e+3, 2.6493257e+2, -323343.66, -539130.9, -4938.8555, -0.0487754, 0.009094528, -323230.66, 20429.744, 0.00000018749917, 10.000983, 9.998153 
1.10510215e+3, 2.7493078e+2, -134040.61, -398031.6, -7673.094, 0.069325425, -0.018246774, -133817.78, 111862.02, 0.0000025365616, 10.001613, 9.998146 
1.10510685e+3, 2.84929e+2, -11260.933, -230248.9, -20297.62, 0.09428423, -0.027571024, -9395.473, 138301.83, 0.000019295574, 10.0015335, 9.998669 
1.1051102e+3, 2.9492703e+2, -40328.83, -191274.95, -54461.688, 0.055161547, -0.13412203, -22730.637, 26984.213, 0.00010487227, 10.000642, 9.99869 
1.10511474e+3, 3.0492643e+2, -21377.773, -139222.97, -32556.729, 0.106655836, -0.06312527, -12981.629, -12981.629, 0.00033641586, 10.000369, 9.998839 
1.1051203e+3, 3.149269e+2, 2708.7844, -61198.61, -42086.48, 0.26083487, 0.052964766, 23597.406, 23597.406, 0.00073074934, 10.000189, 9.999451 
1.1150355e+3, 1.2493343e+2, -1891832.3, -1791164.8, 149161.7, 0.062325273, -0.07507385, -1684073.3, 31582.51, 0.000944546, 9.998697, 10.000062 
1.1150385e+3, 1.3493533e+2, -1696198.9, -1695018.5, -193.38976, -0.015182832, 0.1153474, -1694987.6, -77346.38, 0.00045159098, 9.999603, 9.999639 
1.1150431e+3, 1.4493582e+2, -1535238.6, -1494504.3, 40734.98, -0.040231157, 0.17858675, -1469328.5, 50308.53, 0.00012308804, 9.9997015, 10.000283 
1.1150496e+3, 1.5493561e+2, -1511722.3, -1436968.3, 64239.758, 0.025442172, 0.08911997, -1400023.1, 21613.088, 0.000008505592, 9.999219, 10.000238 
1.11505404e+3, 1.6493532e+2, -1451884.8, -1418979.4, -21112.404, -0.007059201, 0.07265044, -1408666.0, -85028.695, 0.0000000033697685, 9.999227, 9.999685 
1.1150574e+3, 1.7493497e+2, -1245033.8, -1263795.5, -13728.171, -0.07520813, 0.03554453, -1237787.5, -12147.209, 0.0, 9.999953, 9.999729 
1.1150619e+3, 1.8493478e+2, -1114780.3, -1148350.8, 1477.3589, -0.0500904, 0.05166119, -1114715.4, 12926.548, 0.0, 10.000173, 9.999739 
1.1150675e+3, 1.9493438e+2, -1060036.8, -1071178.3, 41124.266, 0.05274967, 0.0054076845, -1024107.7, 5538.2734, 0.0, 9.999885, 9.999729 
1.1150724e+3, 2.0493433e+2, -981491.44, -1022598.3, 28042.7, 0.08266904, 0.05027973, -967276.56, -35630.15, 0.0, 9.999905, 9.999386 
1.1150762e+3, 2.1493419e+2, -841286.0, -907361.5, 54213.99, 0.040395077, 0.062512584, -810836.3, 22810.973, 0.0, 10.000208, 9.999362 
1.1150811e+3, 2.2493373e+2, -764181.2, -878599.6, 72723.99, 0.048391294, 0.115997605, -728861.1, 6791.4624, 0.0, 10.000333, 9.99882 
1.1150869e+3, 2.349327e+2, -688361.0, -791427.0, 87464.72, 0.1195998, 0.099055566, -638376.9, -711.96356, 0.0, 10.000177, 9.998824 
1.1150909e+3, 2.4493167e+2, -614817.94, -745292.25, -9214.785, 0.0916045, 0.13813083, -614170.4, -74494.86, 0.0, 10.000185, 9.998458 
1.1150932e+3, 2.5493032e+2, -490681.13, -636749.94, -35193.81, -0.035236966, 0.120722294, -482643.78, -40956.16, 0.0, 10.00037, 9.998441 
1.11509755e+3, 2.6492846e+2, -322594.2, -502929.6, 3803.5786, -0.04205889, 0.09941407, -322513.97, 21190.264, 0.00000020790911, 10.000837, 9.998467 
1.1151041e+3, 2.7492574e+2, -130207.55, -356844.72, 36667.383, 0.07740653, -0.057262454, -124422.82, 121306.41, 0.0000030041283, 10.001467, 9.998497 
1.1151087e+3, 2.8492448e+2, -62226.465, -295388.4, -66932.76, 0.11983001, -0.018723635, -44378.582, 103362.37, 0.000021785861, 10.00137, 9.998294 
1.1151115e+3, 2.949242e+2, -86425.99, -258415.5, -58717.355, 0.07145782, 0.08444211, -68291.86, -18548.584, 0.00010887074, 10.000522, 9.998285 
1.1151152e+3, 3.0492282e+2, -27483.203, -130397.29, -45059.473, 0.07780904, 0.0957184, -10543.002, -10543.002, 0.00034133886, 10.000281, 9.9989395 
1.1151199e+3, 3.1492016e+2, -15924.935, -62038.59, 13519.348, 0.11357431, -0.10958698, -12253.687, -12253.687, 0.0007374856, 10.000021, 9.99953 
1.1250354e+3, 1.249293e+2, -1749910.3, -1729113.6, 183068.28, 0.15390982, -0.09792209, -1556148.5, 159545.58, 0.0010643419, 9.999689, 10.0000305 
1.12503774e+3, 1.3493128e+2, -1614650.9, -1664500.8, 24779.742, -0.061178394, 0.11055934, -1604429.1, 13250.618, 0.00051804923, 10.000202, 9.999565 
1.1250439e+3, 1.4493178e+2, -1487134.0, -1485771.8, 74849.68, 0.057685375, 0.18471453, -1411600.1, 108075.94, 0.00014661087, 10.000102, 10.000144 
1.1250489e+3, 1.54931e+2, -1458316.5, -1422300.3, 35107.03, 0.03292416, 0.050447866, -1400852.1, 20828.736, 0.00001150662, 9.999652, 10.000118 
1.12505324e+3, 1.6493078e+2, -1432495.4, -1398010.8, 19761.668, -0.0061646383, 0.040315155, -1389026.8, -65344.813, 0.0000000061074554, 9.99931, 9.99979 
1.12505734e+3, 1.74931e+2, -1348644.6, -1297470.9, 18221.012, -0.01610771, 0.049079385, -1291646.0, -65966.02, 0.0, 9.999183, 9.999865 
1.12506226e+3, 1.849311e+2, -1205676.0, -1174523.4, 57636.715, 0.01336657, 0.07653834, -1130395.4, -2716.7883, 0.0, 9.999465, 9.999905 
1.1250676e+3, 1.9493058e+2, -999077.75, -1030657.06, 33409.664, 0.06411513, 0.0031950606, -977914.5, 51767.88, 0.0, 10.000218, 9.999865 
1.1250724e+3, 2.049305e+2, -888664.2, -978362.25, 26648.143, 0.07721446, 0.03992546, -881344.6, 50338.06, 0.0, 10.000565, 9.999366 
1.1250768e+3, 2.1493042e+2, -777603.9, -872777.4, -1892.2064, 0.05879054, 0.062439516, -777566.25, 56117.2, 0.0, 10.000648, 9.999379 
1.1250818e+3, 2.2493003e+2, -697703.5, -837660.8, 36197.723, 0.08172016, 0.11540098, -688895.8, 46791.793, 0.0, 10.0007305, 9.998922 
1.12508774e+3, 2.3492911e+2, -571140.56, -722588.4, 30976.902, 0.155192, 0.09968775, -565049.56, 72647.85, 0.0, 10.00091, 9.998948 
1.12509206e+3, 2.4492775e+2, -490280.94, -709081.25, 9845.496, 0.14313553, 0.10991726, -489838.8, 49871.94, 0.0, 10.001153, 9.998241 
1.1250948e+3, 2.5492567e+2, -343378.25, -591648.9, 14636.662, 0.046835, 0.044922605, -342518.34, 99212.27, 0.0, 10.001503, 9.998211 
1.12509936e+3, 2.649239e+2, -260039.83, -450184.75, 94852.31, 0.03944917, 0.032783423, -220815.11, 122931.72, 0.00000016860811, 10.001179, 9.998665 
1.1251053e+3, 2.74922e+2, -304052.06, -418493.0, 77110.07, 0.12876114, -0.05486203, -265250.94, -19487.758, 0.0000038179373, 10.000188, 9.998685 
1.1251099e+3, 2.8492087e+2, -221975.78, -385441.9, 24167.777, 0.15368189, -0.005875247, -218477.53, -70704.52, 0.000026510976, 10.000316, 9.99818 
1.1251128e+3, 2.9492012e+2, 38811.246, -205143.1, 12592.82, 0.11450715, 0.053088784, 39459.56, 89238.99, 0.00011807009, 10.001416, 9.99821 
1.12511635e+3, 3.0491814e+2, 120584.7, -98138.95, 27876.813, 0.11540246, 0.029859478, 124081.75, 124081.75, 0.0003550206, 10.001496, 9.998576 
1.1251205e+3, 3.1491536e+2, -18675.428, -113958.04, -5133.3535, 0.17418048, -0.14464281, -18399.666, -18399.666, 0.0007557831, 10.000216, 9.999096 
1.1350331e+3, 1.24927334e+2, -1741983.9, -1702566.0, 89302.87, -0.12757081, 0.107419394, -1630823.1, 84892.95, 0.0011953667, 9.999668, 10.000212 
1.1350376e+3, 1.349267e+2, -1592614.0, -1607353.0, 55951.938, -0.12875889, 0.016358756, -1543548.4, 74174.41, 0.00059164723, 10.000166, 9.9999695 
1.1350453e+3, 1.4492644e+2, -1514229.1, -1541579.8, 39681.598, 0.13414536, 0.010402398, -1485932.5, 33793.082, 0.00017336896, 10.000098, 9.999767 
1.1350474e+3, 1.5492609e+2, -1486667.4, -1480585.4, 37015.78, -0.1250111, -0.038638633, -1446485.9, -24757.236, 0.000015247707, 9.999644, 9.999727 
1.13505125e+3, 1.649262e+2, -1406392.5, -1339991.6, -3348.0396, -0.17253304, -0.016037464, -1339823.3, -16096.996, 0.000000009421829, 9.999292, 10.000195 
1.1350575e+3, 1.7492637e+2, -1323999.9, -1244928.8, 26444.775, 0.043884553, -0.0529452, -1236899.9, -11177.221, 0.0, 9.999177, 10.000226 
1.1350627e+3, 1.8492684e+2, -1227745.9, -1210412.4, 66337.08, 0.087703824, 0.0041699507, -1152178.4, -24461.342, 0.0, 9.999417, 9.999685 
1.1350669e+3, 1.9492725e+2, -1037170.5, -1072661.4, 76270.54, -0.05541733, 0.04454045, -976608.25, 53104.406, 0.0, 10.000055, 9.999659 
1.1350717e+3, 2.0492671e+2, -937307.3, -1040860.25, 11231.615, -0.08488233, 0.06402466, -936103.1, -4385.4165, 0.0, 10.000399, 9.999017 
1.13507725e+3, 2.1492489e+2, -836620.56, -941689.4, 13070.536, 0.019621495, -0.051608663, -835019.0, -1283.5215, 0.0, 10.0004225, 9.999015 
1.1350829e+3, 2.249241e+2, -706301.6, -810609.6, 24526.818, 0.08756472, -0.03258038, -700822.3, 34920.066, 0.0, 10.00053, 9.999205 
1.1350885e+3, 2.3492408e+2, -585472.06, -702842.6, 53208.27, 0.117795296, 0.00864173, -564941.94, 72799.54, 0.0, 10.000692, 9.999191 
1.1350931e+3, 2.4492271e+2, -479627.53, -642836.0, 8150.7744, 0.10912229, -0.017582417, -479221.47, 60531.383, 0.0, 10.00096, 9.998788 
1.1350971e+3, 2.549198e+2, -328380.75, -519992.72, 43960.117, 0.08128935, -0.22239338, -318776.7, 123002.49, 0.0, 10.001326, 9.998788 
1.1351011e+3, 2.649189e+2, -276550.6, -456142.53, 45010.523, 0.07540056, -0.1810597, -265901.22, 77886.31, 0.00000020663475, 10.001051, 9.99869 
1.1351055e+3, 2.7491954e+2, -321705.03, -433433.97, 61458.02, 0.087865494, -0.017862692, -294515.75, -48733.34, 0.0000055002247, 10.000086, 9.998637 
1.1351096e+3, 2.8491813e+2, -230565.6, -373248.94, 47900.668, 0.06172105, 0.0031925756, -215976.42, -68181.7, 0.000033703815, 10.000199, 9.998314 
1.1351136e+3, 2.9491448e+2, 27001.914, -194513.58, 73457.05, 0.02003738, -0.23603234, 49147.203, 98973.28, 0.00013271971, 10.001265, 9.998356 
1.1351177e+3, 3.0491224e+2, 40109.105, -226082.56, -30168.72, 0.073355675, -0.25962344, 43485.438, 43485.438, 0.00037893685, 10.001334, 9.997774 
1.13512106e+3, 3.149123e+2, -104992.81, -244183.53, -3184.0574, 0.1462071, -0.06868379, -104920.01, -104920.01, 0.0007912106, 10.000012, 9.998296 
1.14503324e+3, 1.2492416e+2, -1849812.0, -1742267.6, 93603.45, -0.021713644, 0.15972431, -1688090.5, 27657.67, 0.0013373722, 9.998832, 10.000363 
1.1450377e+3, 1.3492316e+2, -1634057.5, -1586094.9, 92500.555, -0.09348929, -0.011741034, -1514517.5, 103238.72, 0.000672049, 9.999663, 10.000377 
1.1450459e+3, 1.4492305e+2, -1534354.0, -1558602.0, 94193.805, 0.20412713, -0.018446207, -1451507.1, 68249.86, 0.0002032588, 9.999999, 9.999693 
1.1450474e+3, 1.5492307e+2, -1437407.0, -1466086.6, 68293.516, -0.09584409, -0.020144159, -1381964.0, 39794.363, 0.000019742625, 10.000029, 9.9996395 
1.14505105e+3, 1.6492327e+2, -1296727.0, -1288831.9, 68581.99, -0.15028003, 0.0168102, -1224083.9, 99671.46, 0.000000013934886, 10.000061, 10.000174 
1.1450576e+3, 1.7492329e+2, -1173693.0, -1172308.8, 40915.063, 0.0852103, -0.03461805, -1132080.0, 93671.64, 0.0, 10.000216, 10.000219 
1.1450631e+3, 1.8492325e+2, -1135834.6, -1198373.5, 104884.89, 0.14865649, -0.011306052, -1057657.1, 70092.8, 0.0, 10.000199, 9.999382 
1.1450675e+3, 1.9492286e+2, -1063807.1, -1108367.0, 70554.0, 0.013472694, -0.02241239, -1012098.8, 17654.611, 0.0, 10.0000105, 9.99941 
1.14507236e+3, 2.0492205e+2, -976263.1, -1059588.9, 48895.27, -0.025043946, -0.020511828, -953687.8, -21927.28, 0.0, 10.000099, 9.999048 
1.1450779e+3, 2.1492045e+2, -827634.7, -934811.2, 54252.9, 0.054071374, -0.119214185, -804966.3, 28808.512, 0.0, 10.000439, 9.99907 
1.1450835e+3, 2.2491962e+2, -701190.2, -812006.2, 99496.16, 0.10837001, -0.104453914, -642714.3, 93067.64, 0.0, 10.000613, 9.999142 
1.1450893e+3, 2.3491924e+2, -588041.7, -702790.7, 64791.08, 0.12935753, -0.09143121, -558873.06, 78912.2, 0.0, 10.000697, 9.999175 
1.14509396e+3, 2.4491817e+2, -517366.75, -644519.8, 21423.92, 0.12461505, -0.09790317, -513854.1, 25940.738, 0.0, 10.000611, 9.998952 
1.145098e+3, 2.549162e+2, -452725.34, -555414.2, -330.90805, 0.1080593, -0.2283603, -452724.28, -10911.217, 0.0, 10.000366, 9.999002 
1.14510216e+3, 2.649156e+2, -320232.8, -476129.38, 17849.441, 0.10412031, -0.16554631, -318215.25, 25603.268, 0.00000038376965, 10.000734, 9.998708 
1.14510655e+3, 2.7491605e+2, -79480.914, -311149.38, 3644.1558, 0.11355638, -0.027490677, -79423.61, 166391.44, 0.0000075917305, 10.00172, 9.99869 
1.1451109e+3, 2.849145e+2, 15539.176, -263371.38, 33314.24, 0.08896609, -0.020767305, 19463.162, 167292.47, 0.000041535674, 10.00192, 9.998248 
1.1451153e+3, 2.949108e+2, 9829.567, -209054.78, 6720.9897, 0.07062247, -0.25442275, 10035.746, 59898.133, 0.00014998692, 10.001175, 9.998301 
1.1451193e+3, 3.049088e+2, 32686.924, -198749.38, -50765.797, 0.12853847, -0.26477808, 43332.758, 43332.758, 0.00040887797, 10.001117, 9.998068 
1.1451222e+3, 3.149099e+2, 109501.35, -100421.516, -6770.5967, 0.20318197, -0.006045074, 109719.5, 109719.5, 0.0008407425, 10.001319, 9.998638 
1.15503296e+3, 1.2491911e+2, -1837805.0, -1704692.5, -16959.23, 0.006929585, -0.016403494, -1702565.8, 13231.373, 0.001489488, 9.998785, 10.000636 
1.1550377e+3, 1.349208e+2, -1601016.1, -1510838.0, 138366.33, -0.09477559, 0.031551287, -1410399.5, 207378.69, 0.00075867696, 9.999646, 10.00089 
1.1550454e+3, 1.4492157e+2, -1528590.0, -1552545.9, 75892.84, 0.10977965, 0.08289247, -1463735.8, 56035.203, 0.0002361324, 10.000006, 9.9997425 
1.15504846e+3, 1.5492181e+2, -1426563.9, -1450904.4, 82995.805, -0.026373148, 0.09453905, -1354850.8, 66920.56, 0.000024990082, 10.000046, 9.9997425 
1.1550521e+3, 1.6492194e+2, -1320247.9, -1333275.5, 55962.01, -0.08768141, 0.13406649, -1270421.9, 53347.3, 0.000000023716384, 10.00005, 9.999868 
1.1550571e+3, 1.7492177e+2, -1205578.5, -1223615.8, 62272.21, -0.01543438, 0.09420999, -1151675.3, 74091.02, 0.0, 10.00016, 9.999888 
1.1550628e+3, 1.8492045e+2, -1181404.6, -1277813.0, 80180.52, 0.06197945, 0.030669356, -1136053.8, -8277.34, 0.0, 10.000133, 9.998868 
1.15506895e+3, 1.9491749e+2, -1114463.0, -1190663.0, 75347.01, 0.12678303, -0.18887575, -1068130.9, -38326.78, 0.0, 9.999906, 9.998897 
1.15507424e+3, 2.049165e+2, -956178.75, -984011.2, 39497.1, 0.11521352, -0.20777549, -928218.0, 3593.2905, 0.0, 9.99995, 9.9996395 
1.1550783e+3, 2.1491717e+2, -815933.7, -865351.44, 81496.49, 0.03596316, -0.13871656, -755482.7, 78318.08, 0.0, 10.000234, 9.999649 
1.1550835e+3, 2.2491662e+2, -764066.4, -896092.9, 86557.695, 0.02123299, -0.10142428, -721222.0, 14583.723, 0.0, 10.000414, 9.998659 
1.1550896e+3, 2.3491456e+2, -652429.5, -792000.75, 83562.414, 0.07297119, -0.20868306, -613345.0, 24484.396, 0.0, 10.000506, 9.998656 
1.15509436e+3, 2.4491397e+2, -553486.2, -674021.3, -7762.238, 0.07029756, -0.13350841, -552988.4, -13150.53, 0.0, 10.000416, 9.998841 
1.1550976e+3, 2.5491467e+2, -486905.66, -589408.3, 4432.7495, 0.005023205, 0.016167758, -486714.3, -44881.086, 0.0, 10.000201, 9.998849 
1.1551022e+3, 2.6491395e+2, -339296.88, -479003.0, 41096.87, 0.0014517229, 0.06810173, -328104.25, 15736.177, 0.0000005356376, 10.000582, 9.998757 
1.15510814e+3, 2.7491134e+2, -93850.914, -304753.97, 60516.094, 0.05995171, -0.10310053, -77720.28, 168142.64, 0.000008957139, 10.001564, 9.998807 
1.15511306e+3, 2.8490993e+2, -18904.201, -297390.34, -7284.738, 0.0958647, -0.08394018, -18713.775, 129162.87, 0.000047577858, 10.001762, 9.998088 
1.15511715e+3, 2.9490915e+2, -19306.896, -254923.39, 6881.1367, 0.102992386, -0.009838866, -19106.105, 30780.625, 0.00016516355, 10.001098, 9.99803 
1.1551206e+3, 3.049078e+2, 89237.47, -40756.34, -52463.51, 0.12713002, 0.0034979763, 107769.11, 107769.11, 0.00043857994, 10.000961, 9.999216 
1.1551226e+3, 3.1490776e+2, 166299.5, 61587.047, 53452.348, 0.039547462, 0.026751814, 188765.25, 188765.25, 0.0008950193, 10.001131, 9.999837 
1.16503306e+3, 1.2491571e+2, -1670836.5, -1619694.6, -18134.795, 0.09845229, -0.029082868, -1613916.8, 101914.64, 0.0016512593, 9.999916, 10.000665 
1.165038e+3, 1.3491763e+2, -1623045.3, -1528607.9, 85211.58, -0.018128553, 0.053252395, -1478406.8, 139403.4, 0.0008513687, 9.999548, 10.000809 
1.1650445e+3, 1.4491828e+2, -1605213.0, -1548949.1, 46426.35, 0.070695095, 0.07966496, -1522796.5, -2993.513, 0.00027198074, 9.999325, 10.000083 
1.1650489e+3, 1.5491886e+2, -1491750.6, -1446342.0, 34299.85, 0.059345018, 0.09106169, -1427912.8, -6114.905, 0.00003101119, 9.999451, 10.000055 
1.1650529e+3, 1.6491888e+2, -1408747.8, -1409891.3, 49164.664, 0.014158257, 0.117703766, -1360151.5, -36355.137, 0.00000004774233, 9.999579, 9.999576 
1.165057e+3, 1.7491807e+2, -1282855.3, -1299857.3, 20446.37, -0.019288886, 0.049115956, -1269213.1, -43412.234, 0.0, 9.999775, 9.999566 
1.1650627e+3, 1.8491665e+2, -1206568.0, -1283932.6, 88363.04, 0.057229817, -0.010576673, -1148791.3, -20978.922, 0.0, 9.99993, 9.998923 
1.16506994e+3, 1.9491428e+2, -1072257.8, -1163852.1, 96822.625, 0.21766086, -0.17703786, -1010947.5, 18886.584, 0.0, 10.000166, 9.99896 
1.1650753e+3, 2.0491345e+2, -887053.0, -946876.0, 104478.234, 0.21621571, -0.18211816, -808288.8, 123550.8, 0.0, 10.000433, 9.999646 
1.16507895e+3, 2.1491392e+2, -741767.56, -820144.56, 61790.07, 0.054353155, -0.1380274, -707786.7, 126044.86, 0.0, 10.000739, 9.999696 
1.1650841e+3, 2.249134e+2, -717346.75, -893322.56, 77063.74, 0.019788785, -0.09301905, -688370.1, 47467.03, 0.0, 10.000805, 9.998499 
1.1650906e+3, 2.3491149e+2, -649762.56, -809307.9, 73538.49, 0.12573661, -0.1670678, -621038.3, 16822.416, 0.0, 10.000593, 9.998507 
1.1650955e+3, 2.4491104e+2, -483581.94, -642676.0, 46392.734, 0.11769995, -0.07048548, -471041.97, 68826.57, 0.0, 10.000903, 9.99882 
1.16509825e+3, 2.5491184e+2, -259627.23, -482456.3, 31481.963, -0.013499367, 0.09188225, -255264.78, 186598.08, 0.0, 10.001763, 9.998834 
1.1651032e+3, 2.649107e+2, -165166.73, -410631.13, 85599.31, -0.0177984, 0.11257399, -138264.6, 205609.16, 0.00000056359414, 10.001852, 9.998612 
1.1651099e+3, 2.749073e+2, -175038.78, -359995.72, 52962.84, 0.11829917, -0.123952836, -160946.48, 84957.76, 0.00000928475, 10.001096, 9.998652 
1.165115e+3, 2.8490597e+2, -113408.33, -328981.03, 11006.611, 0.1619458, -0.093350686, -112847.81, 35069.543, 0.000050789153, 10.001035, 9.998224 
1.1651185e+3, 2.9490644e+2, 60644.152, -195651.34, 7807.738, 0.113679595, 0.08538354, 60881.785, 110798.41, 0.00017624088, 10.00157, 9.998201 
1.16512194e+3, 3.049049e+2, 235299.7, -1824.1089, -34687.383, 0.114954166, 0.08644179, 240269.73, 240269.73, 0.0004642717, 10.00208, 9.998966 
1.16512425e+3, 3.149036e+2, 288071.2, 110295.68, -81866.08, 0.06559338, 0.019811014, 320026.7, 320026.7, 0.0009430791, 10.001996, 9.999781 
1.17503285e+3, 1.249137e+2, -1695848.0, -1644118.9, -45505.82, 0.00344649, 0.076008804, -1617640.8, 98212.766, 0.0018234614, 9.999829, 10.000533 
1.1750382e+3, 1.3491376e+2, -1673512.1, -1633828.9, 84808.48, 0.027182046, 0.047148954, -1566571.9, 51279.094, 0.0009506097, 9.99956, 10.000081 
1.175043e+3, 1.4491332e+2, -1568527.3, -1463811.3, 34116.035, -0.06733224, -0.027860837, -1453677.1, 66174.8, 0.00031097958, 9.999291, 10.000678 
1.1750484e+3, 1.5491435e+2, -1453927.8, -1366092.4, 56432.742, 0.029985927, -0.028653204, -1338501.9, 83335.07, 0.00003785508, 9.999441, 10.000608 
1.1750528e+3, 1.6491406e+2, -1440259.6, -1469879.0, 37474.38, 0.015827253, -0.039840963, -1414774.8, -90937.34, 0.00000010132158, 9.999556, 9.999171 
1.1750568e+3, 1.749122e+2, -1315834.5, -1356317.4, 43515.11, -0.050037045, -0.18135807, -1288083.5, -62227.99, 0.0, 9.999722, 9.999204 
1.17506236e+3, 1.8491201e+2, -1170542.9, -1193814.9, 79332.95, 0.0026551972, -0.13096257, -1101997.1, 25859.328, 0.0, 9.9998665, 9.999573 
1.1750698e+3, 1.9491322e+2, -1042283.56, -1078323.3, 123669.78, 0.16336897, -0.0038262329, -935327.7, 94515.555, 0.0, 10.000062, 9.9996 
1.1750755e+3, 2.0491292e+2, -953894.7, -1050932.8, 97182.1, 0.15027028, 0.04133485, -893793.0, 38052.47, 0.0, 10.000287, 9.999001 
1.1750792e+3, 2.149107e+2, -816096.44, -933087.6, 86465.8, -0.020195102, -0.116068296, -770198.25, 63668.652, 0.0, 10.000552, 9.999015 
1.1750847e+3, 2.2490981e+2, -731426.2, -870709.3, 50143.88, -0.022172429, -0.08758394, -715251.94, 20625.693, 0.0, 10.000586, 9.998758 
1.17509164e+3, 2.3491e+2, -661671.5, -779778.2, 81214.1, 0.144798, 0.020568503, -620310.56, 17569.016, 0.0, 10.000367, 9.998812 
1.1750967e+3, 2.449094e+2, -513496.88, -657351.06, 62301.082, 0.12798938, 0.08613968, -490266.56, 49620.227, 0.0, 10.000693, 9.998825 
1.17509976e+3, 2.549077e+2, -277228.06, -482375.4, 79173.19, -0.07583412, -0.008928944, -250226.47, 191675.9, 0.0, 10.001603, 9.998911 
1.17510475e+3, 2.6490596e+2, -218186.27, -484859.78, 39962.67, -0.062377296, -0.031671483, -212326.38, 131592.42, 0.0000005132723, 10.001695, 9.998183 
1.1751116e+3, 2.7490377e+2, -222902.03, -434142.38, 43539.23, 0.15036525, -0.10252753, -214279.98, 31660.064, 0.000009286575, 10.000983, 9.998201 
1.1751163e+3, 2.8490263e+2, -110163.04, -290453.22, 18287.617, 0.1532214, -0.046237465, -108326.75, 39624.88, 0.000051726838, 10.000901, 9.998552 
1.1751189e+3, 2.949023e+2, 82344.41, -133867.67, 49189.715, -0.04958847, 0.016152615, 93009.34, 142964.72, 0.00018255804, 10.001486, 9.998669 
1.1751228e+3, 3.0489978e+2, 109026.39, -222058.58, -45222.3, -0.034738813, -0.036850553, 115092.09, 115092.09, 0.00047999644, 10.001921, 9.997521 
1.17512636e+3, 3.1489772e+2, 177410.63, -60106.035, -41156.598, 0.01817128, -0.033679105, 184340.03, 184340.03, 0.0009686636, 10.0017605, 9.998712 
1.1850325e+3, 1.2491095e+2, -1679880.4, -1668491.8, 22847.676, -0.0017758519, 0.118759766, -1650639.5, 65239.88, 0.0020081834, 10.000044, 10.000274 
1.1850383e+3, 1.3491026e+2, -1785536.4, -1757159.5, 49957.33, 0.12481368, 0.06818606, -1719414.9, -101529.37, 0.0010574218, 9.999066, 9.999482 
1.185042e+3, 1.4490935e+2, -1644894.1, -1501383.6, 64218.22, -0.056463636, -0.025586655, -1476843.5, 43047.613, 0.00035351914, 9.998749, 10.000693 
1.1850481e+3, 1.5490997e+2, -1460587.8, -1360430.5, 7158.122, 0.056544807, -0.070586525, -1359921.5, 61956.938, 0.00004562391, 9.999359, 10.000691 
1.1850531e+3, 1.6490966e+2, -1418368.6, -1469139.0, 13297.112, 0.08410583, -0.08257418, -1415096.9, -91217.77, 0.00000019883093, 9.999751, 9.999087 
1.1850576e+3, 1.7490809e+2, -1274860.0, -1339243.1, 6256.8477, 0.059158634, -0.1912517, -1274257.6, -48361.355, 0.0, 10.000024, 9.999168 
1.1850631e+3, 1.8490809e+2, -1116669.8, -1158071.6, 60450.508, 0.08126479, -0.123815954, -1073474.0, 54421.91, 0.0, 10.000187, 9.999668 
1.1850696e+3, 1.9490942e+2, -1005262.8, -1046317.4, 27837.926, 0.13718343, 0.0048324196, -991202.25, 38678.594, 0.0, 10.000252, 9.999728 
1.18507534e+3, 2.0490912e+2, -965589.1, -1096086.9, 30901.713, 0.11585273, 0.06242623, -958641.5, -26757.36, 0.0, 10.000368, 9.998667 
1.1850803e+3, 2.1490678e+2, -837777.3, -974798.2, 18588.92, 0.03503807, -0.07244675, -835300.25, -1390.4088, 0.0, 10.0005455, 9.9987335 
1.18508585e+3, 2.2490603e+2, -684922.44, -811081.06, 20684.582, 0.03499275, -0.031769928, -681617.6, 54301.88, 0.0, 10.00075, 9.999082 
1.1850918e+3, 2.3490655e+2, -552570.0, -691006.25, 17509.125, 0.10908398, 0.0765096, -550389.8, 87526.05, 0.0, 10.0009575, 9.999133 
1.1850972e+3, 2.4490574e+2, -470330.7, -645163.6, 44919.03, 0.097414225, 0.107602805, -459465.13, 80458.63, 0.0, 10.001031, 9.998746 
1.1851017e+3, 2.5490323e+2, -375158.2, -547128.75, 22217.027, 0.000074194206, -0.054525863, -372334.3, 69612.62, 0.0, 10.001003, 9.998763 
1.1851071e+3, 2.6490158e+2, -285950.06, -486588.56, 5990.8984, 0.032704856, -0.0712768, -285771.3, 58191.063, 0.0000005059796, 10.001116, 9.99844 
1.1851129e+3, 2.749005e+2, -154322.02, -376472.25, 18404.197, 0.17559528, -0.05838815, -152807.63, 93165.945, 0.000009353779, 10.001354, 9.998415 
1.1851172e+3, 2.848995e+2, -21927.406, -236481.69, 65007.098, 0.1349265, -0.00013168057, -3768.0781, 144214.73, 0.000051580555, 10.001475, 9.998635 
1.1851201e+3, 2.948985e+2, 85434.9, -126562.4, 40734.79, -0.061781794, -0.009045073, 92992.56, 142984.08, 0.00018437536, 10.001494, 9.99871 
1.1851249e+3, 3.0489555e+2, 97872.47, -265017.3, 486.36627, -0.0055049555, -0.09428635, 97873.12, 97873.12, 0.0004810056, 10.0019865, 9.9972 
1.1851295e+3, 3.1489342e+2, 283746.53, -31262.664, 20878.805, 0.12982391, -0.060233865, 285124.34, 285124.34, 0.0009623852, 10.00256, 9.998532 
1.1950331e+3, 1.2490778e+2, -1699465.4, -1705678.8, 30202.12, -0.02327842, 0.12322573, -1672210.6, 43695.38, 0.0022081332, 10.000032, 10.000014 
1.19503774e+3, 1.34907e+2, -1804350.0, -1801146.8, 22360.584, 0.1204371, 0.093387745, -1780330.5, -162415.11, 0.0011730703, 9.999079, 9.999172 
1.1950412e+3, 1.4490625e+2, -1684608.1, -1580375.6, 65578.71, -0.061042164, 0.058799874, -1548726.3, -28804.563, 0.00040013902, 9.998739, 10.0001545 
1.19504735e+3, 1.5490584e+2, -1495584.8, -1438694.5, 45918.727, 0.017965669, -0.03770863, -1413124.4, 8796.887, 0.00005450229, 9.999376, 10.000148 
1.1950532e+3, 1.6490576e+2, -1401380.8, -1433425.6, 3095.3882, 0.08691285, -0.012508153, -1401084.4, -77163.74, 0.00000035173326, 9.999745, 9.999338 
1.1950592e+3, 1.7490573e+2, -1265752.4, -1312134.0, 30895.607, 0.18317404, 0.012982058, -1250312.3, -24389.396, 0.0, 9.999981, 9.999381 
1.1950645e+3, 1.8490487e+2, -1160357.5, -1231198.9, 45732.566, 0.1573799, 0.007280262, -1137932.9, -10002.459, 0.0, 10.000115, 9.999197 
1.1950689e+3, 1.9490293e+2, -1056039.8, -1125126.4, 45027.582, 0.008371403, -0.14728376, -1033831.6, -3885.4421, 0.0, 10.000135, 9.999245 
1.1950746e+3, 2.0490213e+2, -983194.44, -1096508.3, 19221.162, -0.01771202, -0.117542304, -980022.75, -48067.88, 0.0, 10.000217, 9.998732 
1.19508155e+3, 2.1490225e+2, -864041.6, -981465.8, 41078.555, 0.08988753, -0.014037048, -851097.9, -17138.77, 0.0, 10.0003395, 9.998786 
1.19508706e+3, 2.2490206e+2, -695713.6, -781807.1, 11491.623, 0.062233113, 0.06809138, -694206.1, 41756.48, 0.0, 10.000527, 9.99939 
1.1950909e+3, 2.349013e+2, -558835.6, -655066.44, 38309.316, -0.10040398, 0.010481631, -545447.4, 92520.68, 0.0, 10.000752, 9.9994755 
1.19509645e+3, 2.4490026e+2, -513172.97, -689666.5, 26786.346, -0.0978658, 0.010989874, -509197.2, 30780.543, 0.0, 10.000836, 9.998541 
1.1951036e+3, 2.548986e+2, -416025.88, -585119.8, 38057.92, 0.07144248, -0.04138057, -407855.03, 34139.813, 0.0, 10.000806, 9.998597 
1.1951094e+3, 2.6489773e+2, -261039.66, -393563.3, 1417.5839, 0.12972054, -0.009006811, -261024.5, 82978.695, 0.0000006389743, 10.000932, 9.999171 
1.1951135e+3, 2.748974e+2, -118586.34, -267591.38, 46242.297, 0.06868896, 0.0009726728, -105402.06, 140603.22, 0.000009301616, 10.00121, 9.999231 
1.1951175e+3, 2.8489667e+2, -52000.824, -275813.63, 51831.242, -0.005929696, 0.052007996, -40580.34, 107430.62, 0.00005191434, 10.0013685, 9.998421 
1.19512185e+3, 2.9489505e+2, 52322.41, -173224.06, 64666.563, -0.08303287, 0.0014674858, 69547.51, 119572.625, 0.00018470343, 10.001386, 9.9984455 
1.1951277e+3, 3.0489215e+2, 107399.92, -196933.22, 15123.68, 0.055842966, -0.087398596, 108149.64, 108149.64, 0.0004730737, 10.001793, 9.997752 
1.19513266e+3, 3.1489062e+2, 291765.5, 46339.57, 90584.805, 0.12877597, -0.059830435, 321578.22, 321578.22, 0.0009339275, 10.00231, 9.999178 
1.205033e+3, 1.2490219e+2, -1790988.4, -1776123.9, -26209.27, 0.0036686212, 0.055624668, -1756313.4, -40358.28, 0.0024257244, 9.999532, 9.999782 
1.205037e+3, 1.3490145e+2, -1687902.0, -1733609.3, -108424.41, 0.11371947, 0.02770766, -1599948.9, 18017.47, 0.0012988481, 9.9998455, 9.999262 
1.2050414e+3, 1.4490122e+2, -1551754.3, -1534264.8, 26349.557, 0.04952617, 0.04825752, -1515246.8, 4722.78, 0.00045139206, 9.99972, 10.0 
1.2050472e+3, 1.5490088e+2, -1480846.8, -1445267.1, -7637.5596, 0.071626626, -0.027996799, -1443696.9, -21726.418, 0.00006471426, 9.999535, 10.000025 
1.2050531e+3, 1.6490123e+2, -1417533.9, -1401454.1, 6530.518, 0.11796118, 0.029185195, -1399136.0, -75169.17, 0.00000057087306, 9.99947, 9.999681 
1.2050592e+3, 1.7490198e+2, -1287500.4, -1277835.1, 8893.231, 0.21279298, 0.0972487, -1272546.4, -46584.957, 0.0, 9.999655, 9.999763 
1.2050647e+3, 1.8490113e+2, -1198892.4, -1270331.0, 74788.22, 0.19971994, 0.081752434, -1151731.4, -23762.174, 0.0, 9.999947, 9.999006 
1.2050697e+3, 1.9489826e+2, -1028177.06, -1128158.3, 65328.137, 0.072634794, -0.14500466, -995906.94, 34087.492, 0.0, 10.000406, 9.999084 
1.2050755e+3, 2.0489736e+2, -925185.4, -1046307.1, 77776.984, 0.054189734, -0.1316959, -887172.0, 44832.355, 0.0, 10.000502, 9.99894 
1.2050824e+3, 2.148981e+2, -864692.6, -960884.8, 75054.26, 0.1494634, 0.011987362, -823646.3, 10355.63, 0.0, 10.000218, 9.998993 
1.20508775e+3, 2.2489801e+2, -721670.3, -801701.06, 91727.37, 0.09940892, 0.095166706, -661610.0, 74394.15, 0.0, 10.000379, 9.9993305 
1.2050918e+3, 2.3489673e+2, -522759.22, -647174.25, 60882.61, -0.09413839, -0.0007242672, -497923.8, 140090.39, 0.0, 10.001037, 9.9994 
1.2050974e+3, 2.4489576e+2, -479299.03, -647284.44, 43565.004, -0.08490722, -0.00073894113, -468673.1, 71350.01, 0.0, 10.000975, 9.998746 
1.2051045e+3, 2.548947e+2, -497777.13, -602792.94, 47687.164, 0.114105225, -0.016979344, -479354.47, -37319.895, 0.00000000020898414, 10.000157, 9.998776 
1.20511025e+3, 2.6489404e+2, -366371.4, -436306.84, 69323.805, 0.16915458, 0.024015905, -323695.5, 20344.998, 0.00000074892756, 10.000165, 9.999246 
1.20511465e+3, 2.7489358e+2, -138522.42, -270235.6, 31170.572, 0.07839887, 0.015583526, -131518.22, 114524.92, 0.000009032264, 10.001023, 9.999301 
1.2051193e+3, 2.8489262e+2, -26563.686, -286495.7, 24739.357, 0.015598882, 0.04638284, -24230.037, 123821.39, 0.000052136886, 10.001649, 9.998218 
1.205124e+3, 2.9489064e+2, 107740.65, -167554.19, -5398.8296, -0.012439566, -0.010952636, 107846.484, 157916.08, 0.0001849306, 10.001884, 9.99824 
1.2051304e+3, 3.0488798e+2, 206697.5, -128040.09, -13996.841, 0.12161047, -0.07873798, 207281.75, 207281.75, 0.0004665325, 10.002379, 9.997938 
1.2051351e+3, 3.1488672e+2, 359627.56, 122813.33, -30580.646, 0.13229167, -0.045342, 363512.8, 363512.8, 0.00090606173, 10.002618, 9.999537 
1.2150321e+3, 1.2489345e+2, -1811351.8, -1802398.0, -79577.24, -0.1067106, -0.16460624, -1727171.8, -11137.653, 0.0026624324, 9.99949, 9.999612 
1.2150359e+3, 1.3489375e+2, -1663773.4, -1679729.5, -89888.63, -0.013061591, -0.12461694, -1581509.5, 36527.242, 0.0014356553, 9.999835, 9.9996395 
1.2150425e+3, 1.4489435e+2, -1529724.5, -1485442.8, -2405.305, 0.14145933, -0.056069665, -1485312.5, 34720.93, 0.0005075534, 9.999711, 10.000338 
1.2150474e+3, 1.5489508e+2, -1463866.6, -1409342.1, 4106.7417, 0.08834067, -0.05442162, -1409034.6, 12991.629, 0.000076397075, 9.999527, 10.000279 
1.215052e+3, 1.6489601e+2, -1388899.1, -1335236.1, -3596.6196, 0.03210604, 0.025718939, -1334996.1, -10978.032, 0.0000008702971, 9.99945, 10.000138 
1.2150574e+3, 1.7489687e+2, -1265718.6, -1218136.4, 30314.547, 0.02779316, 0.059676226, -1203392.0, 22619.545, 0.0, 9.999595, 10.0002 
1.21506386e+3, 1.8489683e+2, -1194571.4, -1248435.1, 74384.414, 0.080285914, 0.091470994, -1142393.5, -14380.69, 0.0, 9.999889, 9.9991865 
1.2150717e+3, 1.9489548e+2, -1034565.3, -1115614.4, 98760.75, 0.19105849, 0.0004474484, -968338.2, 61687.355, 0.0, 10.000292, 9.999229 
1.2150778e+3, 2.0489477e+2, -928002.9, -1011682.0, 48277.957, 0.19444416, 0.012269207, -905957.3, 26075.648, 0.0, 10.000331, 9.999257 
1.21508226e+3, 2.1489443e+2, -872764.75, -923678.56, 77298.43, 0.086464435, 0.012476055, -816839.2, 17198.166, 0.0, 9.999988, 9.999355 
1.2150876e+3, 2.2489393e+2, -782154.4, -879859.94, 98027.43, 0.021960795, 0.056049276, -721481.06, 14562.2, 0.0, 10.000169, 9.9989 
1.2150941e+3, 2.3489296e+2, -581661.2, -722072.75, 101656.59, 0.002990267, 0.034002982, -528323.8, 109729.64, 0.0, 10.00083, 9.998987 
1.2150995e+3, 2.4489225e+2, -480174.0, -592852.7, -264.4024, -0.002345419, 0.059228536, -480173.38, 59886.457, 0.0, 10.000735, 9.999232 
1.2151039e+3, 2.548915e+2, -486384.8, -542613.0, 31658.246, 0.010830465, 0.02084486, -472159.25, -30093.443, 0.00000000018849695, 10.000001, 9.999262 
1.2151094e+3, 2.6489055e+2, -426687.2, -529067.4, 84786.83, 0.034760807, 0.037300162, -378835.72, -34762.12, 0.00000061447383, 10.000019, 9.998685 
1.21511586e+3, 2.7488908e+2, -195382.5, -361282.53, 81982.03, 0.06879185, -0.017022049, -161705.94, 84381.11, 0.000008322687, 10.0008955, 9.998745 
1.21512145e+3, 2.848874e+2, -83358.55, -349675.72, 20109.64, 0.054540478, -0.011039745, -81848.63, 66254.85, 0.000050710027, 10.001431, 9.997881 
1.21512644e+3, 2.948853e+2, 65655.22, -220213.28, 28675.22, 0.0031398744, -0.04927302, 68503.23, 118628.13, 0.00018357177, 10.001743, 9.997941 
1.2151325e+3, 3.0488285e+2, 164754.61, -176759.9, -13941.478, 0.06645216, -0.06651457, 165322.78, 165322.78, 0.00046227945, 10.002221, 9.997683 
1.2151358e+3, 3.1488138e+2, 324132.56, 112010.195, 16290.867, -0.117270544, -0.030798767, 325376.4, 325376.4, 0.000888819, 10.002356, 9.999591 
1.2250324e+3, 1.24886766e+2, -1953927.8, -1828289.5, -106771.77, 0.062208302, -0.13116735, -1767227.8, -51125.887, 0.0029179724, 9.998306, 10.000009 
1.22503504e+3, 1.3488722e+2, -1778156.8, -1671336.3, -113918.9, -0.0097741615, -0.12946734, -1598928.5, 19172.223, 0.0015834377, 9.998779, 10.000204 
1.2250421e+3, 1.4488803e+2, -1653073.8, -1514610.8, -6843.625, 0.19305752, -0.08267332, -1514273.4, 5821.5737, 0.00056846405, 9.998743, 10.000601 
1.2250467e+3, 1.5488951e+2, -1598590.8, -1431555.1, -43643.28, 0.12695786, -0.040137507, -1420839.4, 1242.2015, 0.00008951281, 9.99845, 10.000628 
1.2250513e+3, 1.6489059e+2, -1501262.8, -1375691.8, 5693.3135, 0.064128965, 0.031195603, -1375434.1, -51362.305, 0.0000012652538, 9.998579, 10.000308 
1.2250568e+3, 1.74891e+2, -1305452.5, -1214856.0, -7855.5156, 0.044202536, 0.00029309597, -1214180.0, 11889.097, 0.0, 9.999201, 10.000429 
1.2250636e+3, 1.8489145e+2, -1205509.9, -1204441.6, 65638.09, 0.09781435, 0.047870986, -1139335.5, -11269.816, 0.0, 9.999587, 9.999642 
1.2250718e+3, 1.9489157e+2, -1075513.6, -1085766.0, 76186.53, 0.21656814, 0.06144364, -1004281.0, 25784.338, 0.0, 9.999789, 9.999686 
1.2250781e+3, 2.0489132e+2, -947182.9, -1012335.5, 55890.285, 0.2179262, 0.094425075, -915068.06, 17000.096, 0.0, 10.0001745, 9.999323 
1.22508265e+3, 2.148904e+2, -762115.94, -860810.56, 32467.492, 0.094919205, 0.029998196, -752393.0, 81683.86, 0.0, 10.000729, 9.999419 
1.22508824e+3, 2.2488973e+2, -703349.44, -841593.25, 84827.625, 0.047526736, 0.051443998, -663047.56, 73036.33, 0.0, 10.000694, 9.99891 
1.2250951e+3, 2.3488896e+2, -703905.0, -784188.7, 83179.59, 0.07130208, 0.047870595, -651687.7, -13595.062, 0.0, 9.999986, 9.998974 
1.2251006e+3, 2.4488829e+2, -544548.9, -628988.9, 24013.785, 0.06660654, 0.07859624, -538197.4, 1901.6338, 0.0, 10.000293, 9.999214 
1.22510485e+3, 2.5488746e+2, -243365.63, -425533.56, -10763.627, 0.03437584, 0.03553436, -242731.86, 199373.81, 0.0, 10.001662, 9.999274 
1.22511044e+3, 2.6488638e+2, -128549.0, -408366.84, 64089.15, 0.045961987, 0.047398813, -114568.59, 229546.64, 0.0000003685213, 10.002187, 9.998456 
1.2251173e+3, 2.7488467e+2, -90114.09, -332061.9, 46739.926, 0.09149678, -0.004943367, -81398.73, 164732.78, 0.0000073761885, 10.001757, 9.998508 
1.2251232e+3, 2.84883e+2, -49847.195, -329588.16, 41183.49, 0.085957654, 0.012007618, -43910.164, 104238.04, 0.000049087277, 10.00161, 9.997936 
1.22512855e+3, 2.9488122e+2, 49374.47, -228055.83, 46916.54, 0.052897364, -0.0035319175, 57093.793, 107260.9, 0.00018153466, 10.001599, 9.997968 
1.2251347e+3, 3.048792e+2, 94021.305, -207825.28, 65912.57, 0.11115776, 0.015686942, 107786.53, 107786.53, 0.00045750884, 10.001735, 9.997694 
1.22513816e+3, 3.1487694e+2, 221262.13, 53696.41, 39454.32, -0.07506405, -0.020454695, 230087.1, 230087.1, 0.0008771986, 10.001646, 9.999542 
1.2350324e+3, 1.2488177e+2, -1864029.3, -1661962.4, -231934.7, 0.14666964, 0.10674664, -1510010.8, 206151.19, 0.0031899144, 9.998369, 10.001128 
1.23503394e+3, 1.3488185e+2, -1720453.1, -1567485.8, -88025.0, -0.03619897, -0.0031650723, -1527358.3, 90800.43, 0.0017411282, 9.99882, 10.000904 
1.2350397e+3, 1.4488211e+2, -1634894.9, -1486209.5, -38632.49, 0.030092623, -0.05872318, -1476770.9, 43384.62, 0.0006337289, 9.998776, 10.000786 
1.2350448e+3, 1.5488397e+2, -1581858.6, -1405166.1, -43208.453, 0.06399813, 0.009972725, -1395165.9, 26972.086, 0.00010392506, 9.9984665, 10.0008135 
1.2350504e+3, 1.6488484e+2, -1491711.4, -1355203.9, 5971.925, 0.085026264, 0.040453635, -1354943.1, -30813.39, 0.0000017603737, 9.99858, 10.000443 
1.2350571e+3, 1.7488435e+2, -1301154.8, -1204682.4, 28435.39, 0.12475204, -0.09102967, -1196924.8, 29209.139, 0.0, 9.999186, 10.000508 
1.23506375e+3, 1.8488501e+2, -1167270.1, -1111910.6, 56676.316, 0.10994127, -0.059057843, -1076516.0, 51611.92, 0.0, 9.999532, 10.000302 
1.2350699e+3, 1.948866e+2, -1042934.9, -992984.9, 98894.13, 0.02613608, 0.032101195, -915960.9, 114153.016, 0.0, 9.99968, 10.000375 
1.2350764e+3, 2.0488709e+2, -982312.44, -1047403.3, 56883.53, 0.006853552, 0.11009064, -949322.1, -17212.086, 0.0, 10.000011, 9.999162 
1.2350831e+3, 2.148861e+2, -804030.5, -903939.3, 68392.77, 0.055419113, 0.056704625, -769291.25, 64828.76, 0.0, 10.000534, 9.99922 
1.2350892e+3, 2.2488543e+2, -706004.5, -801036.0, 43956.816, 0.05026761, 0.07346624, -688790.44, 47335.656, 0.0, 10.00049, 9.99929 
1.2350945e+3, 2.3488484e+2, -705966.1, -744092.5, 74684.71, -0.012466061, 0.047339726, -647950.06, -9818.998, 0.0, 9.99979, 9.999347 
1.2351003e+3, 2.4488398e+2, -607963.25, -711560.06, 59116.332, -0.017174723, 0.06446167, -581162.6, -41023.258, 0.0, 10.000081, 9.998749 
1.23510696e+3, 2.5488257e+2, -300898.25, -503627.06, 58207.44, 0.05166149, 0.011234888, -285374.47, 156779.33, 0.0, 10.001476, 9.998833 
1.23511314e+3, 2.6488143e+2, -165032.56, -427393.0, 35602.35, 0.06769959, 0.039513584, -160287.14, 183878.36, 0.00000016286783, 10.001949, 9.998439 
1.23511866e+3, 2.7488023e+2, -118438.445, -348990.2, 51137.45, 0.018430227, 0.038625743, -107604.98, 138572.81, 0.000006622681, 10.00158, 9.998476 
1.2351242e+3, 2.8487927e+2, -40713.332, -267495.0, 30193.998, -0.020443475, 0.1017226, -36762.105, 111425.45, 0.000048750662, 10.001429, 9.99845 
1.23512976e+3, 2.9487824e+2, 67324.64, -161521.16, 71151.74, -0.025592642, 0.11007454, 87642.87, 137840.55, 0.00018217463, 10.001467, 9.998494 
1.2351366e+3, 3.0487671e+2, 82343.305, -196445.36, 57807.406, 0.091960244, 0.14808783, 93854.49, 93854.49, 0.00045752534, 10.001589, 9.997841 
1.235141e+3, 3.1487328e+2, 168745.5, 10328.744, 69979.42, -0.024562573, -0.024169574, 195230.48, 195230.48, 0.0008745043, 10.001379, 9.999367 
1.24503136e+3, 1.2487628e+2, -1820283.6, -1580293.9, -66403.016, 0.20850918, 0.11434634, -1563146.0, 153072.72, 0.003475539, 9.99843, 10.001645 
1.2450336e+3, 1.3487703e+2, -1796227.3, -1578513.6, 5136.5864, 0.08857323, 0.044075273, -1578392.5, 39814.734, 0.0019075654, 9.998189, 10.001135 
1.2450382e+3, 1.4487752e+2, -1701179.8, -1522847.0, 73252.02, 0.029198814, 0.0023948227, -1496616.3, 23584.445, 0.0007030745, 9.998344, 10.000736 
1.2450436e+3, 1.5487866e+2, -1469956.8, -1363364.1, 13021.711, 0.061722443, 0.003935979, -1361796.4, 60393.53, 0.00011956255, 9.9992695, 10.000717 
1.2450495e+3, 1.648793e+2, -1346168.3, -1285987.0, 77484.28, 0.0987599, 0.01935174, -1232955.6, 91228.03, 0.0000023468863, 9.999597, 10.00042 
1.2450569e+3, 1.7487924e+2, -1265301.8, -1186319.1, 55281.39, 0.16936503, -0.06663605, -1157872.3, 68311.89, 0.0, 9.999448, 10.000498 
1.2450633e+3, 1.8487996e+2, -1189667.0, -1132545.9, 77651.734, 0.14236364, -0.023662366, -1078369.0, 49809.188, 0.0, 9.999428, 10.000204 
1.2450692e+3, 1.9488111e+2, -1066803.9, -1018087.06, 33398.402, 0.0014026954, 0.03278646, -1001108.06, 29061.06, 0.0, 9.999568, 10.000255 
1.24507606e+3, 2.0488156e+2, -977890.1, -1008244.5, 26355.379, -0.013554687, 0.09569415, -962654.25, -30489.025, 0.0, 9.999875, 9.999496 
1.2450841e+3, 2.1488096e+2, -811291.94, -867583.9, 41849.086, 0.11118982, 0.04557337, -789004.4, 45165.332, 0.0, 10.000305, 9.999581 
1.24509044e+3, 2.2488038e+2, -707482.6, -794639.25, 23770.383, 0.13011055, 0.049512338, -701421.25, 34752.508, 0.0, 10.000479, 9.999326 
1.245095e+3, 2.3487952e+2, -611990.6, -690191.5, -5874.801, 0.03473663, -0.007157539, -611551.75, 26629.068, 0.0, 10.000425, 9.999395 
1.2451008e+3, 2.4487865e+2, -548164.3, -704633.1, 55099.766, 0.008684368, 0.015355746, -530708.56, 9481.028, 0.0, 10.000598, 9.998541 
1.2451082e+3, 2.548775e+2, -388876.8, -566182.56, 39930.805, 0.057086885, 0.01051327, -380299.0, 61903.63, 0.0, 10.000978, 9.998629 
1.2451149e+3, 2.6487646e+2, -258873.78, -458845.06, 22711.113, 0.087088674, 0.051737055, -256326.88, 87887.19, 0.000000050542315, 10.001219, 9.998583 
1.2451208e+3, 2.748752e+2, -155809.92, -356332.4, 17030.604, 0.08932572, 0.030478094, -154373.77, 91853.31, 0.0000061370592, 10.001243, 9.998608 
1.2451262e+3, 2.8487432e+2, -134.72107, -203723.06, 50882.887, 0.05124012, 0.08049304, 11874.102, 160109.08, 0.000049451548, 10.001532, 9.9988365 
1.2451316e+3, 2.9487363e+2, 183568.17, -53392.965, 41748.047, -0.011977252, 0.08082858, 190708.23, 240948.78, 0.00018750013, 10.002071, 9.998931 
1.24513865e+3, 3.048726e+2, 217971.14, -129794.22, 50606.74, 0.11539429, 0.14269651, 225185.75, 225185.75, 0.000470274, 10.002477, 9.9978895 
1.2451444e+3, 3.14869e+2, 318693.94, 39709.254, -11886.556, 0.1259526, -0.049060833, 319199.47, 319199.47, 0.0008943994, 10.00258, 9.999 
1.2550282e+3, 1.2487102e+2, -1814300.3, -1586722.4, -43442.77, -0.022300018, -0.05395869, -1578711.5, 137553.94, 0.0037739007, 9.998495, 10.001575 
1.2550338e+3, 1.3487293e+2, -1808319.1, -1610475.6, 7337.8423, 0.25948852, 0.011916903, -1610203.8, 8040.8076, 0.0020822603, 9.998214, 10.000906 
1.2550372e+3, 1.4487444e+2, -1719056.5, -1564915.6, 89473.81, 0.056606565, 0.10121621, -1523895.4, -3666.8694, 0.0007764397, 9.998363, 10.000438 
1.2550424e+3, 1.5487365e+2, -1488791.0, -1404475.3, 63208.55, -0.021361785, -0.062749416, -1370655.5, 51580.57, 0.00013646827, 9.999278, 10.000429 
1.2550484e+3, 1.6487409e+2, -1363931.3, -1327186.6, 51493.86, -0.021089587, -0.039457276, -1290885.8, 33347.105, 0.0000030208696, 9.999609, 10.000135 
1.2550555e+3, 1.7487577e+2, -1284996.9, -1224413.0, 62062.816, 0.069844924, 0.07321165, -1185644.1, 40574.72, 0.0, 9.99943, 10.000247 
1.2550625e+3, 1.8487628e+2, -1249793.8, -1248024.9, 64409.156, 0.081494585, 0.14648953, -1184494.0, -56277.465, 0.0, 9.999383, 9.999437 
1.2550692e+3, 1.9487518e+2, -1133299.1, -1137530.9, 54201.223, 0.012361801, 0.05542993, -1081172.5, -50941.875, 0.0, 9.999482, 9.999478 
1.2550767e+3, 2.0487484e+2, -947055.8, -904385.2, 26134.906, 0.028443582, 0.04105821, -891982.8, 40250.145, 0.0, 9.999706, 10.000295 
1.2550849e+3, 2.1487507e+2, -786963.0, -765782.9, 73701.67, 0.13135737, -0.004274494, -701914.3, 132310.83, 0.0, 10.000085, 10.000392 
1.2550913e+3, 2.2487456e+2, -762926.5, -855032.06, 5539.5015, 0.14784439, -0.02073235, -762594.5, -26367.377, 0.0, 10.000245, 9.999021 
1.2550962e+3, 2.3487294e+2, -661683.44, -751222.06, 8666.787, 0.08497642, -0.121040754, -660852.25, -22609.94, 0.0, 10.00024, 9.999067 
1.2551017e+3, 2.4487224e+2, -572906.56, -711336.25, 53286.69, 0.012073893, -0.06914164, -554770.56, -14520.497, 0.0, 10.000404, 9.998588 
1.2551081e+3, 2.5487217e+2, -415860.3, -581692.4, 70715.195, -0.0733352, 0.027366554, -389800.63, 52452.44, 0.0, 10.000795, 9.998613 
1.2551151e+3, 2.6487133e+2, -267080.66, -429422.5, 7593.164, -0.028458534, 0.07811069, -266726.28, 77535.97, 0.00000007625481, 10.00102, 9.998879 
1.2551229e+3, 2.7486947e+2, -156912.73, -320575.16, 37981.047, 0.15766078, -0.031852778, -148528.06, 97752.21, 0.0000061507535, 10.001077, 9.998935 
1.255129e+3, 2.848683e+2, -9604.688, -189083.2, 57475.51, 0.14909057, -0.041930217, 7223.2583, 155513.52, 0.000051588533, 10.001386, 9.9990015 
1.2551336e+3, 2.9486737e+2, 175351.92, -39592.598, 81324.31, -0.049962614, -0.08320927, 202653.3, 252948.89, 0.00020006, 10.00194, 9.999085 
1.2551409e+3, 3.048667e+2, 199681.38, -143808.23, 41706.21, 0.045505118, 0.009021058, 204672.77, 204672.77, 0.00050364254, 10.002371, 9.99784 
1.2551472e+3, 3.1486407e+2, 236129.88, -78794.08, 26399.553, 0.07058484, -0.08724979, 238327.56, 238327.56, 0.00095308194, 10.002348, 9.998298 
1.2650251e+3, 1.2486561e+2, -2142081.0, -1780772.6, -3609.269, -0.05987289, -0.09483149, -1780736.6, -64421.633, 0.004085261, 9.996425, 10.001252 
1.2650321e+3, 1.3486713e+2, -1757637.3, -1578092.6, -75549.4, 0.2750741, -0.056315254, -1550533.0, 67765.87, 0.0022650692, 9.998566, 10.000949 
1.2650365e+3, 1.448688e+2, -1570327.5, -1510815.3, 44087.953, 0.10437107, 0.053553794, -1487381.4, 32900.566, 0.00085386867, 9.999458, 10.000287 
1.265042e+3, 1.5486827e+2, -1470793.3, -1408877.4, -7835.914, 0.019999122, -0.0669837, -1407901.0, 14386.231, 0.00015477135, 9.999476, 10.000301 
1.265048e+3, 1.6486868e+2, -1430042.4, -1394281.9, -1815.7341, 0.008044583, -0.02304914, -1394189.9, -69905.09, 0.0000038088367, 9.999318, 9.999805 
1.2650545e+3, 1.7486995e+2, -1344346.9, -1294264.3, -30300.994, 0.038973454, 0.08265294, -1279996.4, -53720.59, 0.0, 9.999199, 9.999881 
1.2650618e+3, 1.8487023e+2, -1237417.8, -1236589.5, 49153.66, 0.06598043, 0.1481146, -1187848.1, -59572.22, 0.0, 9.99944, 9.999489 
1.2650697e+3, 1.9486915e+2, -1042676.6, -1084463.5, 64647.418, 0.08763079, 0.05451536, -995630.2, 34659.07, 0.0, 10.000079, 9.999549 
1.2650774e+3, 2.048689e+2, -875287.2, -857949.8, 59141.973, 0.12768234, 0.040033452, -806844.56, 125446.016, 0.0, 10.000147, 10.000397 
1.265085e+3, 2.1486922e+2, -851440.2, -784922.5, 20024.205, 0.17707591, -0.008653658, -779359.7, 54922.7, 0.0, 9.999588, 10.000493 
1.2650916e+3, 2.2486877e+2, -799331.6, -863912.06, -356.56415, 0.17354478, -0.027231878, -799329.7, -63046.242, 0.0, 9.999937, 9.999121 
1.2650971e+3, 2.3486732e+2, -514804.22, -667258.2, 4892.0933, 0.1251847, -0.12030628, -514647.4, 123648.86, 0.0, 10.001181, 9.999199 
1.265103e+3, 2.4486654e+2, -382993.53, -603625.56, 75271.02, 0.05107018, -0.09184949, -359760.5, 180543.14, 0.0, 10.001622, 9.998753 
1.2651093e+3, 2.5486612e+2, -339687.22, -527535.56, 73296.766, -0.04746894, -0.043755524, -314472.13, 127836.2, 0.0, 10.001227, 9.99879 
1.2651165e+3, 2.6486528e+2, -260429.9, -439237.97, 38773.203, 0.0012194853, 0.0010500607, -252384.25, 91933.05, 0.00000015326442, 10.001132, 9.998756 
1.2651244e+3, 2.7486363e+2, -125562.695, -313282.25, -2056.7397, 0.20372152, -0.074653536, -125540.164, 120793.5, 0.0000068361555, 10.001339, 9.998847 
1.2651308e+3, 2.848624e+2, -1127.0177, -208048.63, 30807.715, 0.19725224, -0.075726986, 3362.4136, 151706.95, 0.000055437977, 10.00153, 9.99881 
1.2651359e+3, 2.948612e+2, 153897.33, -73523.69, -5164.0405, -0.008745351, -0.12187885, 154014.52, 204367.66, 0.00021969865, 10.001877, 9.998894 
1.2651436e+3, 3.0486006e+2, 260180.36, -115655.93, -17000.098, 0.07433419, -0.06474372, 260947.75, 260947.75, 0.00055763713, 10.002814, 9.997811 
1.2651509e+3, 3.1485778e+2, 445104.6, -25136.031, -107347.414, 0.15009542, -0.11311954, 468450.97, 468450.97, 0.0010544788, 10.004016, 9.997857 
1.2750228e+3, 1.2485991e+2, -2172768.5, -1858362.0, 110867.94, -0.018607926, -0.019851495, -1823199.5, -106830.88, 0.0044096503, 9.996486, 10.000683 
1.2750281e+3, 1.3485979e+2, -1748492.1, -1560347.0, 10832.386, -0.012378673, -0.16040969, -1559725.4, 58643.695, 0.0024558255, 9.99856, 10.001076 
1.2750354e+3, 1.4486068e+2, -1560669.4, -1502961.6, 25717.92, 0.00043404294, -0.13842994, -1493163.8, 27196.574, 0.00093550276, 9.999505, 10.0003195 
1.2750423e+3, 1.5486266e+2, -1467187.6, -1408828.4, 8200.131, 0.06369182, -0.01141916, -1407698.1, 14644.204, 0.00017466526, 9.999501, 10.000292 
1.2750483e+3, 1.6486311e+2, -1450950.4, -1450262.4, -24532.229, 0.0535033, 0.05688209, -1426071.8, -101732.1, 0.0000047674703, 9.999365, 9.999402 
1.2750532e+3, 1.7486183e+2, -1372856.6, -1355396.0, -19497.404, -0.04624737, -0.05151237, -1342763.5, -116408.96, 0.0, 9.9992, 9.999462 
1.2750605e+3, 1.8486188e+2, -1193003.9, -1129529.9, 57842.26, -0.039040178, -0.025279364, -1095289.9, 33065.816, 0.0, 9.99938, 10.000249 
1.2750702e+3, 1.9486302e+2, -1002135.1, -976776.2, 104317.44, 0.09517394, 0.023606412, -884370.44, 145974.42, 0.0, 9.999977, 10.000336 
1.275078e+3, 2.0486365e+2, -938316.5, -953165.4, 19754.885, 0.15064159, 0.08328956, -924637.0, 7702.075, 0.0, 9.999993, 9.999818 
1.2750843e+3, 2.1486337e+2, -923861.4, -887863.44, 12433.741, 0.12640406, 0.035824314, -883986.4, -49644.965, 0.0, 9.999381, 9.999887 
1.2750909e+3, 2.2486313e+2, -793919.44, -798753.0, 29104.994, 0.08732831, 0.039457995, -767131.06, -30789.156, 0.0, 9.999713, 9.999672 
1.2750977e+3, 2.3486258e+2, -509964.88, -604280.06, 66772.24, 0.03146585, -0.020716073, -475376.7, 162966.84, 0.0, 10.000957, 9.999736 
1.2751044e+3, 2.4486144e+2, -399970.53, -582078.75, 46028.273, -0.003977029, -0.06444487, -388997.94, 151353.53, 0.0, 10.001385, 9.99901 
1.2751111e+3, 2.5485948e+2, -347888.53, -495745.56, 75240.734, -0.0073049227, -0.20132644, -316334.38, 126033.29, 0.0, 10.001021, 9.999105 
1.2751181e+3, 2.6485837e+2, -330087.7, -539364.8, 30671.861, 0.031387333, -0.17070323, -325685.0, 18693.053, 0.00000020123079, 10.000945, 9.998157 
1.275125e+3, 2.7485767e+2, -198657.94, -419908.25, 23684.943, 0.102456525, -0.0965123, -196150.86, 50236.15, 0.0000077157165, 10.001153, 9.998201 
1.2751314e+3, 2.848566e+2, -60102.184, -300608.88, 25713.555, 0.07172606, -0.015283513, -57383.766, 91014.336, 0.000060411407, 10.001398, 9.998236 
1.2751377e+3, 2.9485506e+2, 87272.54, -166749.77, 30425.998, -0.04827156, -0.042028803, 90866.04, 141278.78, 0.00024271311, 10.001688, 9.998342 
1.2751466e+3, 3.0485263e+2, 221130.98, -165190.77, 19060.547, 0.05788625, -0.07275467, 222069.13, 222069.13, 0.00062258844, 10.002676, 9.997539 
1.2751551e+3, 3.148508e+2, 365753.2, -108470.14, -26081.459, 0.11286836, -0.061027244, 367183.3, 367183.3, 0.0011836756, 10.003691, 9.997429 
1.2850212e+3, 1.2485294e+2, -1966250.3, -1749532.6, 86774.695, 0.12010212, 0.03696393, -1719069.6, -2629.0618, 0.0047468157, 9.997823, 10.000788 
1.2850253e+3, 1.3485324e+2, -1856310.6, -1584860.4, -41239.95, -0.08180187, -0.086368516, -1578733.3, 39703.01, 0.0026545508, 9.997675, 10.001331 
1.2850347e+3, 1.4485365e+2, -1807508.6, -1611196.6, -1858.3584, 0.07705577, -0.13388078, -1611179.0, -90746.95, 0.0010215283, 9.997793, 10.000397 
1.2850416e+3, 1.548559e+2, -1550946.0, -1434737.6, -49557.09, 0.09369388, 0.014132623, -1416474.3, 5936.829, 0.00019628371, 9.9988785, 10.000409 
1.2850478e+3, 1.648562e+2, -1394028.3, -1424955.6, -40653.45, 0.07360841, 0.061596747, -1365996.8, -41587.797, 0.0000059623408, 9.999747, 9.999406 
1.285053e+3, 1.7485438e+2, -1195928.4, -1265932.3, -39046.227, -0.022509351, -0.09995827, -1178492.3, 47935.21, 0.0, 10.000393, 9.999504 
1.2850605e+3, 1.8485442e+2, -1092888.6, -1067987.8, 41168.684, 0.0027663507, -0.08080784, -1037428.0, 90999.625, 0.0, 10.000029, 10.000355 
1.28507e+3, 1.9485606e+2, -1168928.1, -1044941.56, 3996.1594, 0.15772213, 0.0090676155, -1044812.9, -14401.17, 0.0, 9.998795, 10.000437 
1.285078e+3, 2.0485687e+2, -1104092.0, -1048066.5, -29693.785, 0.20302117, 0.0913105, -1035257.25, -102852.61, 0.0, 9.998923, 9.999683 
1.2850842e+3, 2.148565e+2, -772809.75, -825438.44, -32993.906, 0.13203233, 0.046868213, -756921.7, 77487.734, 0.0, 10.000478, 9.999785 
1.285091e+3, 2.248563e+2, -607605.3, -712092.8, 3137.373, 0.07539063, 0.061744113, -607511.25, 128899.4, 0.0, 10.001005, 9.999644 
1.2850982e+3, 2.34856e+2, -590304.7, -643260.25, -36619.836, 0.03348753, 0.028945802, -571593.0, 66817.87, 0.0, 10.000416, 9.999724 
1.2851056e+3, 2.44855e+2, -515200.97, -644913.75, -56500.234, 0.027837954, 0.0030356923, -494042.1, 46375.86, 0.0, 10.000627, 9.9989395 
1.2851131e+3, 2.5485307e+2, -264524.22, -461965.4, -90136.16, 0.06738108, -0.12458774, -229565.03, 212869.16, 0.0, 10.001631, 9.999035 
1.2851202e+3, 2.648516e+2, -158346.8, -446368.13, -104597.68, 0.09798456, -0.12904704, -124369.4, 220077.25, 0.00000014147287, 10.002061, 9.998266 
1.2851267e+3, 2.7485028e+2, -73947.11, -347535.88, -91949.984, 0.11450282, -0.12683715, -45915.816, 200543.22, 0.000007879153, 10.00194, 9.998328 
1.2851332e+3, 2.84849e+2, -1644.8441, -324037.13, -13408.747, 0.079867385, -0.050276536, -1088.1168, 147383.45, 0.00006527563, 10.002024, 9.997777 
1.28514e+3, 2.9484743e+2, 139697.84, -193903.86, -43734.83, 0.006109921, -0.031519666, 145336.14, 195823.88, 0.000269289, 10.002262, 9.997882 
1.2851496e+3, 3.0484423e+2, 241990.8, -153255.27, 22741.516, 0.09454677, -0.11417915, 243294.98, 243294.98, 0.0006978516, 10.002795, 9.997576 
1.2851591e+3, 3.148432e+2, 359130.16, -98851.24, -72220.13, 0.17228906, -0.02466539, 370248.78, 370248.78, 0.0013320218, 10.003523, 9.9976 
1.2950177e+3, 1.2484489e+2, -1899713.3, -1603136.0, -110753.48, -0.050490662, 0.07537111, -1566341.4, 150187.69, 0.0050962004, 9.997801, 10.001805 
1.2950239e+3, 1.348477e+2, -1841770.1, -1537629.1, -37553.14, -0.042656295, 0.16408585, -1533060.9, 85437.92, 0.0028611089, 9.997616, 10.001684 
1.2950341e+3, 1.4484778e+2, -1801528.6, -1599405.0, 15960.023, 0.19804904, 0.06749683, -1598152.5, -77656.08, 0.00111182, 9.997798, 10.000475 
1.2950398e+3, 1.5484811e+2, -1548296.1, -1425520.0, 9923.957, -0.0146577, 0.015869616, -1424723.1, -2230.536, 0.000219555, 9.998863, 10.000483 
1.2950465e+3, 1.6484809e+2, -1359381.9, -1355287.9, -35527.53, -0.07749924, 0.002383005, -1321748.4, 2743.157, 0.0000074533, 9.99975, 9.99988 
1.295054e+3, 1.7484768e+2, -1168362.9, -1205238.5, -620.06604, -0.017117318, -0.06613691, -1168352.5, 58141.195, 0.0, 10.000372, 9.999931 
1.2950614e+3, 1.8484792e+2, -1137282.5, -1157726.3, -21802.879, 0.052877855, -0.018843614, -1123424.3, 5067.0093, 0.0, 10.000012, 9.999748 
1.2950692e+3, 1.9484839e+2, -1221952.9, -1142122.5, -27700.414, 0.15667932, 0.014199145, -1133452.4, -102963.695, 0.0, 9.998727, 9.999806 
1.2950768e+3, 2.0484866e+2, -1106956.1, -1016441.3, 10429.337, 0.16016097, 0.061863206, -1015255.2, -82768.586, 0.0, 9.998768, 9.99997 
1.2950844e+3, 2.1484853e+2, -783523.06, -796363.4, 39049.07, 0.060993463, 0.008559707, -750369.9, 84117.34, 0.0, 10.000258, 10.000087 
1.2950915e+3, 2.2484826e+2, -687945.5, -817607.06, -32728.045, 0.0027858098, 0.031046316, -680152.94, 56337.156, 0.0, 10.000745, 9.999044 
1.2950985e+3, 2.3484762e+2, -663318.44, -746464.5, -38956.215, -0.004567586, 0.027360871, -647918.6, -9421.097, 0.0, 10.000203, 9.99912 
1.2951063e+3, 2.4484724e+2, -586906.1, -728859.25, -34962.504, 0.009381528, 0.11547678, -578762.25, -38259.785, 0.0, 10.000364, 9.998482 
1.2951149e+3, 2.5484675e+2, -334363.34, -545966.4, -34065.617, 0.051484395, 0.1764838, -329014.4, 113493.89, 0.0, 10.001386, 9.998569 
1.2951225e+3, 2.6484492e+2, -129855.36, -348782.5, -124697.516, 0.08213811, 0.12268063, -73392.01, 271131.06, 0.000000052302592, 10.001884, 9.999026 
1.2951286e+3, 2.748416e+2, -46995.766, -243745.16, -78802.71, 0.09820929, -0.15127267, -19325.041, 227222.86, 0.000007172051, 10.001732, 9.999143 
1.2951353e+3, 2.848397e+2, -59344.367, -397053.84, -20331.385, 0.07120932, -0.16561759, -58124.746, 90438.73, 0.00006969282, 10.001821, 9.997372 
1.2951426e+3, 2.9483852e+2, 76527.37, -277165.28, -10442.261, 0.003631416, -0.06568375, 76835.4, 127410.91, 0.0003009035, 10.002062, 9.997403 
1.2951522e+3, 3.0483508e+2, 246140.38, -124764.83, 36813.66, 0.04645165, -0.15884183, 249758.97, 249758.97, 0.0007869178, 10.002699, 9.997823 
1.2951624e+3, 3.1483543e+2, 372045.38, 951.8357, -3295.6667, 0.07645283, 0.031827968, 372074.66, 372074.66, 0.0015023105, 10.003215, 9.998434 
1.3050166e+3, 1.24838166e+2, -1923283.4, -1625124.6, 25488.531, 0.06239181, 0.052919295, -1622961.4, 93634.51, 0.0054552136, 9.997694, 10.001703 
1.3050231e+3, 1.3484122e+2, -1654749.5, -1509962.9, 34737.17, 0.057123695, 0.22438015, -1502060.0, 116505.24, 0.003073975, 9.999179, 10.001117 
1.3050327e+3, 1.4484139e+2, -1590845.9, -1512649.8, 75924.36, 0.21348006, 0.16874115, -1466347.8, 54215.19, 0.0012055306, 9.999284, 10.000359 
1.3050386e+3, 1.5484092e+2, -1584702.0, -1452169.5, 25766.186, -0.0051962133, 0.043616977, -1447336.4, -24769.87, 0.000244213, 9.998638, 10.000409 
1.3050458e+3, 1.6484086e+2, -1521462.9, -1400847.3, 18993.71, -0.049069602, 0.0194332, -1397926.9, -73361.91, 0.000009295233, 9.99854, 10.000136 
1.3050541e+3, 1.7484118e+2, -1303307.9, -1234863.0, 3016.0999, 0.02430546, 0.001017054, -1234730.4, -8171.708, 0.0, 9.999332, 10.000214 
1.3050617e+3, 1.8484132e+2, -1157202.4, -1208026.5, -22846.775, 0.0992022, 0.041051496, -1148442.1, -19885.432, 0.0, 10.00003, 9.999405 
1.305069e+3, 1.9484092e+2, -981540.7, -1059934.9, -40119.945, 0.19184339, 0.019789306, -964648.4, 65914.24, 0.0, 10.0005245, 9.999505 
1.3050765e+3, 2.0484082e+2, -880826.56, -905699.4, 55963.816, 0.18365423, 0.04330803, -835934.0, 96630.07, 0.0, 10.0003, 10.000001 
1.3050841e+3, 2.148408e+2, -920966.9, -857555.6, 32609.068, 0.06638841, -0.000057202604, -843779.44, -9216.614, 0.0, 9.999293, 10.000137 
1.3050918e+3, 2.2484042e+2, -853320.8, -934454.56, 8463.14, 0.0103355255, 0.024375401, -852447.44, -115880.3, 0.0, 9.99976, 9.998714 
1.3050997e+3, 2.3483935e+2, -467514.03, -687706.75, -11522.874, 0.02504681, 0.008688702, -466912.66, 171667.42, 0.0, 10.0016985, 9.998796 
1.3051079e+3, 2.4483888e+2, -314498.63, -596094.4, 26259.9, 0.052193195, 0.10018296, -312070.72, 228515.73, 0.0, 10.0022, 9.99852 
1.3051166e+3, 2.5483868e+2, -358410.84, -556493.56, 35180.88, 0.094823234, 0.18575636, -352348.03, 90241.195, 0.0, 10.001185, 9.99861 
1.3051243e+3, 2.6483712e+2, -258964.98, -446578.75, -26933.982, 0.126716, 0.17365727, -255174.88, 89427.445, 0.000000026393016, 10.001155, 9.998708 
1.305131e+3, 2.7483392e+2, -1506.5321, -264311.97, -100866.27, 0.13994753, -0.054535598, 32743.033, 279371.7, 0.0000066700077, 10.002208, 9.998784 
1.3051382e+3, 2.8483173e+2, 97856.945, -312154.28, -38304.43, 0.13088201, -0.07870238, 101404.75, 250051.3, 0.00007506801, 10.00287, 9.997438 
1.305146e+3, 2.9483008e+2, 252377.78, -185645.25, -31696.846, 0.10214872, -0.035931528, 254659.6, 305320.22, 0.00033561388, 10.00324, 9.997457 
1.3051553e+3, 3.0482608e+2, 293837.34, -139774.05, 41238.453, 0.08212759, -0.16982105, 297724.47, 297724.47, 0.00088381814, 10.003201, 9.997476 
1.3051653e+3, 3.1482637e+2, 310180.34, 1011.7322, -109437.414, 0.07692602, 0.05210632, 344997.34, 344997.34, 0.0016890818, 10.002656, 9.998711 
1.315014e+3, 1.24832764e+2, -2005315.8, -1807228.0, 45982.242, -0.033097375, -0.050059177, -1797074.5, -80433.11, 0.005819013, 9.997737, 10.000433 
1.3150229e+3, 1.3483386e+2, -1766301.1, -1744130.8, 100716.87, 0.0898226, 0.08851802, -1653890.9, -35255.816, 0.0032902497, 9.999184, 9.999509 
1.3150299e+3, 1.4483452e+2, -1600781.8, -1536214.3, 24946.701, -0.043245487, 0.17134619, -1527698.8, -7067.729, 0.0013013786, 9.999305, 10.000184 
1.3150376e+3, 1.5483445e+2, -1602550.3, -1483095.0, 12264.997, 0.00095842074, 0.104278326, -1481848.8, -59216.9, 0.00026992275, 9.998611, 10.000214 
1.3150455e+3, 1.6483456e+2, -1520217.6, -1408634.1, 28876.242, 0.033663616, 0.110937074, -1401604.3, -76975.05, 0.00001153221, 9.99857, 10.000073 
1.3150534e+3, 1.7483479e+2, -1304467.1, -1239535.6, 46725.797, -0.011017307, 0.0849434, -1215103.9, 11520.017, 0.0, 9.99933, 10.000187 
1.3150613e+3, 1.8483458e+2, -1168193.0, -1213056.1, -22140.947, 0.015143954, 0.09006956, -1159106.4, -30481.682, 0.0, 9.999961, 9.999399 
1.3150693e+3, 1.9483358e+2, -998255.2, -1070765.5, -9791.05, 0.13427591, 0.010593394, -996956.4, 33678.426, 0.0, 10.000422, 9.99948 
1.3150766e+3, 2.0483328e+2, -919269.4, -948594.06, 4638.684, 0.1420923, 0.026653606, -918553.06, 14084.433, 0.0, 10.000145, 9.99978 
1.3150832e+3, 2.148334e+2, -963586.56, -910255.06, 11826.792, 0.030185224, 0.018978437, -907750.06, -73114.22, 0.0, 9.999128, 9.999859 
1.3150913e+3, 2.2483273e+2, -891800.2, -958253.25, 64412.77, -0.0304938, 0.03571282, -852549.06, -115906.81, 0.0, 9.999531, 9.998657 
1.3151014e+3, 2.3483105e+2, -508722.7, -716681.7, 79843.92, -0.011615677, -0.038507923, -481603.8, 157056.16, 0.0, 10.001458, 9.998714 
1.3151102e+3, 2.4482985e+2, -314066.78, -532427.94, -26609.168, 0.01929929, -0.03921044, -310871.0, 229799.66, 0.0, 10.001934, 9.999085 
1.3151176e+3, 2.5482908e+2, -350438.5, -487435.8, 12829.839, 0.061493646, -0.069087476, -349247.34, 93427.79, 0.0, 10.00096, 9.999192 
1.3151254e+3, 2.648283e+2, -386414.56, -664482.9, -4513.3115, 0.09177397, 0.034537498, -386341.34, -41657.324, 0.000000066602475, 10.000958, 9.997303 
1.3151331e+3, 2.748272e+2, -137345.3, -490242.06, -38506.74, 0.10439503, 0.15791264, -133192.47, 113508.63, 0.0000067822207, 10.001985, 9.997332 
1.3151415e+3, 2.8482533e+2, 111147.61, -256924.25, -36739.957, 0.12580024, 0.21878083, 114779.07, 263498.2, 0.000081610815, 10.002731, 9.997894 
1.3151503e+3, 2.948222e+2, 253282.72, -131484.64, 5417.7363, 0.15641311, 0.058995392, 253359.0, 304101.3, 0.0003694415, 10.003005, 9.99795 
1.3151586e+3, 3.048173e+2, 194991.25, -304638.4, 12700.842, 0.056172196, -0.13623177, 195313.9, 195313.9, 0.0009768684, 10.00303, 9.996421 
1.3151668e+3, 3.1481585e+2, 240096.52, -61858.47, -70686.734, -0.096490495, 0.021781342, 255824.8, 255824.8, 0.001869303, 10.002318, 9.998435 
1.3250121e+3, 1.2482591e+2, -1898450.9, -1777931.3, -64234.16, -0.01832111, 0.016716482, -1750115.6, -33405.863, 0.006183249, 9.998518, 10.0002775 
1.3250217e+3, 1.3482592e+2, -1866626.1, -1787813.3, -15394.446, 0.09826872, 0.04700908, -1784913.0, -166200.05, 0.0035072896, 9.998483, 9.999539 
1.3250282e+3, 1.4482678e+2, -1747270.4, -1610415.5, -9418.623, -0.09392525, 0.15171361, -1609770.4, -89064.27, 0.0013982238, 9.99832, 10.000146 
1.3250366e+3, 1.5482698e+2, -1559105.4, -1461755.4, -39355.5, 0.03983487, 0.112367414, -1447835.5, -25131.09, 0.00029637254, 9.998916, 10.000205 
1.3250452e+3, 1.6482726e+2, -1420775.5, -1352854.3, 40231.78, 0.12461968, 0.13012272, -1334165.8, -9465.274, 0.000014169166, 9.999222, 10.000136 
1.3250533e+3, 1.7482747e+2, -1308161.4, -1239964.6, 33077.28, 0.057330083, 0.09882706, -1226557.1, 138.45157, 0.0, 9.999287, 10.000209 
1.3250613e+3, 1.84827e+2, -1267476.9, -1277824.3, -11855.541, 0.057776593, 0.087039016, -1259715.3, -131016.414, 0.0, 9.999359, 9.999245 
1.3250694e+3, 1.9482553e+2, -1133277.9, -1154435.8, -43056.758, 0.1522463, -0.02226232, -1099519.5, -68805.87, 0.0, 9.999574, 9.999313 
1.325077e+3, 2.0482518e+2, -952713.2, -1009381.75, -28605.275, 0.15852675, 0.015865786, -940784.7, -8066.666, 0.0, 10.000126, 9.999362 
1.3250835e+3, 2.1482575e+2, -712985.5, -831027.5, -63264.137, 0.05819185, 0.09478549, -685485.8, 149228.08, 0.0, 10.001055, 9.999462 
1.3250919e+3, 2.2482523e+2, -646253.1, -806360.5, 46384.234, 0.009897259, 0.13126552, -633786.06, 102932.9, 0.0, 10.001075, 9.99896 
1.3251026e+3, 2.3482339e+2, -680442.56, -755706.06, 58542.023, 0.042150177, 0.010382766, -648480.4, -9744.579, 0.0, 10.000106, 9.999094 
1.3251117e+3, 2.4482185e+2, -555760.1, -674773.8, -31569.393, 0.068668805, -0.03308192, -547904.56, -7156.1123, 0.0, 10.000385, 9.998853 
1.3251193e+3, 2.5482038e+2, -217441.75, -448029.94, -85170.53, 0.080654055, -0.107877254, -189394.48, 253364.86, 0.0, 10.001984, 9.998964 
1.3251272e+3, 2.6481932e+2, -154266.72, -562073.7, -56065.395, 0.101393566, -0.015366743, -146699.27, 198071.7, 0.0000000978673, 10.002599, 9.9972105 
1.3251352e+3, 2.748184e+2, -109157.46, -485426.72, -28637.393, 0.12807319, 0.13452247, -106990.38, 139796.64, 0.000006920427, 10.002211, 9.997253 
1.3251443e+3, 2.8481665e+2, 53645.785, -276516.63, 54814.32, 0.16446559, 0.20827042, 62508.29, 211313.0, 0.000086783395, 10.002335, 9.997944 
1.3251539e+3, 2.948137e+2, 281471.47, -111491.695, 17879.588, 0.2108671, 0.06505068, 282283.3, 333110.72, 0.00039501933, 10.003189, 9.997993 
1.325162e+3, 3.048093e+2, 218799.19, -305723.88, 39305.39, 0.101133935, -0.07491122, 221728.2, 221728.2, 0.0010501491, 10.003271, 9.996288 
1.3251702e+3, 3.148072e+2, 270044.53, -12206.532, -32048.422, 0.034086466, 0.03337297, 273637.75, 273637.75, 0.0020132647, 10.002374, 9.998744 
1.3350104e+3, 1.2481685e+2, -1819543.4, -1606954.5, 29541.434, -0.12158978, 0.17978416, -1602925.8, 113882.586, 0.0065457188, 9.998492, 10.001463 
1.3350189e+3, 1.3481738e+2, -1755427.4, -1551227.8, -20723.746, -0.053938843, 0.09732467, -1549145.8, 69652.91, 0.0037237175, 9.998456, 10.001176 
1.3350269e+3, 1.4481804e+2, -1725065.6, -1574638.4, -10285.704, -0.08897256, 0.08579341, -1573938.3, -53148.668, 0.0014951822, 9.998347, 10.000387 
1.3350354e+3, 1.548186e+2, -1543544.9, -1434538.5, -844.9522, -0.013902741, 0.06414476, -1434531.9, -11748.152, 0.00032323142, 9.998921, 10.000397 
1.3350445e+3, 1.6481903e+2, -1417604.6, -1340777.4, 23551.223, 0.08585465, 0.08507016, -1334132.6, -9354.665, 0.000017128494, 9.999203, 10.000226 
1.3350533e+3, 1.7481929e+2, -1308771.8, -1229875.5, 48421.566, 0.10459429, 0.045646355, -1206867.3, 19905.506, 0.00000000003443261, 9.999241, 10.000297 
1.3350613e+3, 1.8481874e+2, -1294389.1, -1330018.6, -21693.436, 0.098430105, 0.036234017, -1284133.0, -155355.16, 0.0, 9.999332, 9.998906 
1.335069e+3, 1.9481692e+2, -1167493.0, -1212057.1, -21058.84, 0.12478298, -0.07428139, -1159116.3, -128318.17, 0.0, 9.9995, 9.998961 
1.3350768e+3, 2.0481658e+2, -1014730.3, -1104518.6, -10966.406, 0.10800224, 0.013861121, -1013410.3, -80605.57, 0.0, 9.999982, 9.99878 
1.3350844e+3, 2.1481769e+2, -785911.06, -936786.0, -12265.675, 0.027743524, 0.20846541, -784920.4, 49878.207, 0.0, 10.00085, 9.998844 
1.3350931e+3, 2.2481771e+2, -629717.3, -719088.0, 125.29596, -0.00096300984, 0.2937994, -629717.1, 107081.77, 0.0, 10.000848, 9.999663 
1.335103e+3, 2.3481634e+2, -659660.94, -668658.8, 39504.66, 0.052375842, 0.14784557, -624399.9, 14407.923, 0.0, 9.999911, 9.999784 
1.3351122e+3, 2.4481475e+2, -652872.25, -829237.75, 11334.353, 0.056125216, 0.11029194, -652146.8, -111326.06, 0.0, 10.00019, 9.997879 
1.3351208e+3, 2.5481254e+2, -321153.28, -613729.9, -7748.897, 0.008505179, 0.06130221, -320948.2, 121893.66, 0.0, 10.001774, 9.997923 
1.3351291e+3, 2.6481023e+2, -104301.375, -415396.94, -84266.836, 0.01661501, 0.029525379, -82942.37, 261920.39, 0.00000008871969, 10.002411, 9.998308 
1.3351373e+3, 2.7480763e+2, -61005.477, -329652.56, -24676.473, 0.07743451, -0.11049682, -58757.637, 188128.34, 0.000006673535, 10.001979, 9.998431 
1.3351463e+3, 2.8480577e+2, -3192.8547, -353126.66, 65974.78, 0.103336655, -0.08182926, 8832.458, 157735.56, 0.00008871381, 10.002154, 9.997505 
1.3351564e+3, 2.9480457e+2, 217134.06, -196742.7, 71640.51, 0.11012961, -0.0040677385, 229183.94, 280100.1, 0.00040769653, 10.00298, 9.997512 
1.3351652e+3, 3.0480218e+2, 253476.8, -200220.95, -1811.7783, 0.053937614, 0.0399329, 253484.03, 253484.03, 0.0010939079, 10.003125, 9.997081 
1.3351747e+3, 3.1479988e+2, 274070.0, 70162.75, 12673.004, 0.18088105, 0.040955264, 274854.6, 274854.6, 0.0021064403, 10.002045, 9.9994755 
1.3450088e+3, 1.24807775e+2, -1965032.3, -1631982.0, 212836.0, -0.055135213, 0.1606421, -1528266.9, 188629.4, 0.0069055543, 9.997319, 10.00185 
1.3450167e+3, 1.3480917e+2, -1749161.4, -1464238.8, 45850.22, -0.10418945, 0.09087271, -1457042.1, 161834.22, 0.0039389143, 9.998156, 10.001915 
1.3450268e+3, 1.4480972e+2, -1696942.1, -1555366.0, 52035.42, 0.057558388, 0.029123332, -1538298.4, -17431.43, 0.0015916337, 9.998524, 10.000435 
1.3450344e+3, 1.5481006e+2, -1523150.6, -1421664.3, 16289.748, 0.0058271484, -0.014918667, -1419113.6, 3748.5774, 0.0003501717, 9.999056, 10.00042 
1.3450433e+3, 1.6481028e+2, -1435423.3, -1391738.0, 31755.492, 0.06653533, 0.0013310328, -1375038.3, -50179.133, 0.000020254476, 9.999253, 9.999858 
1.3450529e+3, 1.7481026e+2, -1360691.1, -1292936.5, -13785.943, 0.14794664, -0.02833228, -1290238.9, -63379.746, 0.0000000014653116, 9.999055, 9.999952 
1.3450612e+3, 1.8481006e+2, -1233497.3, -1284365.3, -18568.82, 0.14660557, 0.008661157, -1227440.1, -98578.07, 0.0, 9.999679, 9.999048 
1.345069e+3, 1.9480936e+2, -894854.06, -1060159.1, -10002.062, 0.09214642, -0.0062058675, -894251.06, 136620.53, 0.0, 10.001295, 9.999131 
1.345077e+3, 2.048088e+2, -797733.2, -1031745.9, 24302.512, 0.06033502, 0.066048816, -795236.0, 137644.08, 0.0, 10.001594, 9.998506 
1.3450852e+3, 2.1480827e+2, -858887.75, -995086.3, 11101.993, 0.037741277, 0.119255975, -857988.75, -23099.473, 0.0, 10.000446, 9.998629 
1.3450943e+3, 2.2480795e+2, -718949.94, -786555.9, 41170.38, 0.053372607, 0.19253206, -699483.4, 37409.58, 0.0, 10.000345, 9.999445 
1.3451044e+3, 2.3480764e+2, -453208.3, -589838.8, -14466.639, 0.13065563, 0.17351724, -451693.38, 187199.67, 0.0, 10.0014305, 9.999593 
1.345114e+3, 2.4480629e+2, -428909.5, -733734.2, 1969.3868, 0.13083586, 0.17596643, -428896.78, 112007.72, 0.0, 10.001788, 9.997774 
1.3451228e+3, 2.5480354e+2, -391027.56, -653905.25, 18173.836, 0.047644842, 0.08328216, -389777.1, 53153.92, 0.0, 10.001337, 9.997861 
1.3451312e+3, 2.6480097e+2, -242528.22, -468466.72, -42465.45, 0.03880992, 0.022770755, -234810.42, 110143.52, 0.000000062099474, 10.001411, 9.9984255 
1.3451396e+3, 2.747982e+2, -31657.48, -304427.88, -98034.64, 0.110766724, -0.13843283, -79.25235, 246897.83, 0.0000065347235, 10.002121, 9.998541 
1.345149e+3, 2.8479642e+2, 61685.9, -342080.63, 19172.402, 0.15150322, -0.10588332, 62594.234, 211589.11, 0.00008986311, 10.002658, 9.997349 
1.3451599e+3, 2.9479572e+2, 217981.66, -202285.39, 5306.7944, 0.16313365, 0.0365443, 218048.66, 269054.6, 0.00041362355, 10.003007, 9.99746 
1.3451685e+3, 3.0479392e+2, 287426.9, -158291.33, -77395.92, 0.082460724, 0.12913293, 300483.7, 300483.7, 0.0011143722, 10.003214, 9.997339 
1.3451779e+3, 3.147909e+2, 433403.0, 152327.14, -148330.5, 0.25459614, 0.028476402, 497200.2, 497200.2, 0.0021528488, 10.003124, 9.999507 
1.355007e+3, 1.24798775e+2, -1992887.6, -1681159.1, 47266.387, -0.042167254, -0.06045876, -1674149.9, 42823.18, 0.0072628423, 9.9973, 10.0015135 
1.3550144e+3, 1.3480137e+2, -1770224.9, -1499914.5, 85717.34, -0.16987604, 0.016840143, -1475024.8, 143920.33, 0.004152666, 9.998133, 10.001679 
1.3550271e+3, 1.4480188e+2, -1721080.9, -1595597.5, 48627.254, 0.1991032, -0.021898968, -1578959.5, -58021.914, 0.0016872559, 9.998483, 10.000175 
1.3550335e+3, 1.5480138e+2, -1539805.3, -1456452.0, 52365.55, -0.032478817, -0.12991926, -1431202.6, -8262.408, 0.0003769789, 9.999053, 10.000184 
1.3550417e+3, 1.6480093e+2, -1489983.9, -1504595.8, 5187.2075, -0.06005573, -0.13217004, -1488329.8, -163384.55, 0.000023370363, 9.999249, 9.999086 
1.3550515e+3, 1.7480026e+2, -1425362.5, -1416785.6, -7839.81, 0.079184614, -0.14400774, -1412138.0, -185182.23, 0.0000000068048798, 9.999006, 9.999129 
1.3550605e+3, 1.8480095e+2, -1203666.4, -1201316.5, 23284.008, 0.07197866, -0.006017821, -1179177.9, -50226.07, 0.0, 9.999597, 9.999653 
1.355069e+3, 1.9480284e+2, -870051.25, -978420.1, 66090.67, -0.0700371, 0.17425622, -838772.7, 192161.89, 0.0, 10.001166, 9.999753 
1.3550772e+3, 2.0480183e+2, -820285.2, -1038927.2, -35765.492, -0.10865165, 0.16638054, -814583.4, 118361.26, 0.0, 10.001425, 9.998536 
1.3550852e+3, 2.1479745e+2, -889958.8, -1010399.56, -20986.88, -0.029805578, -0.16548035, -886406.6, -51420.258, 0.0, 10.000233, 9.998628 
1.3550949e+3, 2.2479594e+2, -826381.06, -954797.4, 59978.938, 0.05454275, -0.15952396, -802724.75, -65722.77, 0.0, 10.000113, 9.998401 
1.3551062e+3, 2.347973e+2, -560739.2, -761388.3, 40907.53, 0.15087864, 0.0939572, -552719.6, 86271.81, 0.0, 10.001209, 9.99852 
1.3551162e+3, 2.4479659e+2, -408388.4, -640379.5, -29859.03, 0.16289487, 0.1795183, -404606.94, 136391.5, 0.0, 10.001568, 9.998524 
1.3551244e+3, 2.5479338e+2, -365707.1, -552986.44, 17952.594, 0.071095526, -0.03833713, -364001.7, 79025.09, 0.0, 10.00113, 9.998656 
1.3551329e+3, 2.6479128e+2, -330976.47, -609955.25, -33286.137, 0.039983023, -0.04793304, -327059.94, 17986.803, 0.000000036385206, 10.00123, 9.997543 
1.3551417e+3, 2.7479005e+2, -131101.27, -459478.66, -49611.836, 0.09084626, 0.035872288, -123769.516, 123292.13, 0.0000068750182, 10.001907, 9.99758 
1.355152e+3, 2.8478852e+2, 45584.125, -335007.38, 18717.113, 0.14754818, 0.14019917, 46502.4, 195581.7, 0.00009120505, 10.002484, 9.997479 
1.3551636e+3, 2.9478672e+2, 191643.64, -200971.6, 42252.36, 0.20145348, 0.15673377, 196139.27, 247239.3, 0.0004156126, 10.002758, 9.997593 
1.3551717e+3, 3.0478424e+2, 230392.78, -210389.69, -93097.65, 0.04976169, 0.18600318, 249249.25, 249249.25, 0.0011151334, 10.002954, 9.997097 
1.355179e+3, 3.1477973e+2, 311975.84, -6708.1333, -83550.305, -0.028305635, -0.034299362, 332551.97, 332551.97, 0.0021524278, 10.002747, 9.998588 
1.3650052e+3, 1.2479159e+2, -1934002.3, -1732457.0, 37852.51, 0.043175977, -0.13635834, -1725582.4, -8546.348, 0.0076198755, 9.998018, 10.000822 
1.3650133e+3, 1.3479352e+2, -1723277.4, -1598948.8, 65644.34, -0.11677246, -0.026566705, -1570705.1, 48313.52, 0.004366158, 9.9989395, 10.000623 
1.3650255e+3, 1.4479345e+2, -1647925.3, -1592183.8, 15571.756, 0.17411625, -0.05328768, -1588128.8, -67109.69, 0.0017823466, 9.9991255, 9.999881 
1.3650334e+3, 1.5479292e+2, -1531636.5, -1481631.3, -12476.204, 0.06445293, -0.13552491, -1478691.3, -55669.42, 0.0004035849, 9.999247, 9.999908 
1.3650422e+3, 1.6479233e+2, -1436840.3, -1505108.9, -7922.1753, 0.044958103, -0.1277784, -1435933.0, -110904.766, 0.000026350568, 9.999706, 9.998876 
1.365051e+3, 1.7479144e+2, -1205576.1, -1332255.5, -11692.455, 0.05283745, -0.14335297, -1204506.0, 22534.732, 0.000000016360648, 10.000593, 9.998954 
1.3650599e+3, 1.8479179e+2, -1094790.8, -1178232.5, 43701.777, 0.014315808, -0.015275058, -1076092.5, 52947.668, 0.0, 10.000482, 9.999381 
1.3650692e+3, 1.9479327e+2, -1153460.0, -1139251.4, -13258.788, -0.058294084, 0.14991938, -1131313.6, -100285.7, 0.0, 9.999344, 9.999517 
1.365078e+3, 2.0479226e+2, -1082753.4, -1164613.9, -115544.56, -0.06561219, 0.1521035, -1001103.75, -68065.586, 0.0, 9.999606, 9.998558 
1.3650861e+3, 2.1478836e+2, -715159.7, -924395.75, -128961.945, -0.004988881, -0.13507558, -653717.1, 181357.86, 0.0, 10.0014105, 9.99866 
1.365096e+3, 2.2478653e+2, -568512.5, -852604.8, 12735.605, 0.072608545, -0.15350801, -567942.7, 169150.42, 0.0, 10.001977, 9.998203 
1.3651074e+3, 2.3478672e+2, -577867.9, -796766.06, 20258.443, 0.16280018, 0.0038338555, -576008.8, 63084.492, 0.0, 10.001194, 9.998294 
1.3651176e+3, 2.447859e+2, -462810.13, -639111.44, -6322.41, 0.18331924, 0.081080355, -462583.7, 78517.5, 0.0, 10.001083, 9.998758 
1.3651262e+3, 2.5478378e+2, -249119.14, -469444.06, -34557.664, 0.114204034, -0.05155165, -243825.98, 199293.92, 0.0, 10.001811, 9.9988985 
1.3651352e+3, 2.647822e+2, -177222.66, -556809.1, -29835.42, 0.088302284, -0.017087784, -174891.9, 170244.14, 0.000000033203506, 10.002381, 9.997351 
1.3651443e+3, 2.7478087e+2, -41.456993, -408371.5, -27248.66, 0.113551535, 0.07541922, 1768.8733, 248921.06, 0.0000069323874, 10.002872, 9.997454 
1.3651547e+3, 2.847792e+2, 95930.35, -304525.88, 79305.14, 0.15282626, 0.16689473, 111063.805, 260235.19, 0.000089487476, 10.002845, 9.9975 
1.3651662e+3, 2.947771e+2, 151021.36, -208444.7, 57580.395, 0.2141933, 0.1531255, 160019.53, 211213.9, 0.0004060462, 10.002453, 9.997677 
1.3651745e+3, 3.0477467e+2, 198111.36, -173849.5, -6035.7124, 0.086554006, 0.15560082, 198209.28, 198209.28, 0.0010871664, 10.002509, 9.997575 
1.3651823e+3, 3.1477076e+2, 312528.72, -8309.037, 6348.182, 0.052940156, -0.032851953, 312654.28, 312654.28, 0.0020984344, 10.00272, 9.998627 
1.375003e+3, 1.2478608e+2, -2014510.9, -1895877.1, -21292.676, -0.05837437, -0.09438979, -1892171.1, -175084.27, 0.0079810945, 9.998019, 9.999691 
1.3750128e+3, 1.3478561e+2, -1853922.8, -1869811.6, 106914.266, -0.09539361, -0.041369386, -1754658.1, -135561.19, 0.0045821774, 9.998937, 9.998761 
1.3750218e+3, 1.4478451e+2, -1672043.0, -1645467.0, -8254.278, -0.17052525, -0.057388294, -1643112.0, -122001.984, 0.0018779465, 9.999135, 9.999515 
1.3750342e+3, 1.547847e+2, -1558166.5, -1534412.4, 6691.365, 0.17077132, -0.036938094, -1532657.3, -109549.766, 0.00043006244, 9.999232, 9.999556 
1.3750441e+3, 1.6478452e+2, -1411202.8, -1449096.0, 4847.5327, 0.2422974, 0.012458005, -1410592.5, -85484.24, 0.000029160963, 9.999689, 9.999272 
1.3750508e+3, 1.7478384e+2, -1178597.6, -1270885.0, 37572.824, -0.057597917, -0.023721913, -1165235.4, 61878.03, 0.000000027808229, 10.000559, 9.999399 
1.3750589e+3, 1.847827e+2, -1179909.6, -1342900.5, -15289.859, -0.15986563, -0.014804813, -1178487.6, -49361.313, 0.0, 10.000437, 9.998268 
1.3750695e+3, 1.9478063e+2, -1254798.6, -1322562.4, -44634.324, 0.0013049335, -0.08534043, -1232643.0, -201491.11, 0.0, 9.999227, 9.998319 
1.375079e+3, 2.0478009e+2, -1097629.3, -1159148.0, -65976.55, 0.04786789, 0.019513449, -1055594.0, -122432.94, 0.0, 9.999452, 9.99867 
1.3750876e+3, 2.1478102e+2, -741454.25, -924341.44, -43925.645, -0.024843305, 0.20303614, -731451.4, 103703.05, 0.0, 10.001177, 9.998775 
1.3750972e+3, 2.247798e+2, -566946.25, -788865.75, -29652.037, -0.030594045, 0.21296412, -563052.56, 174112.67, 0.0, 10.00172, 9.998761 
1.3751076e+3, 2.3477593e+2, -576323.94, -731687.4, 7705.1826, 0.037595924, -0.09196662, -575942.7, 63255.1, 0.0, 10.000937, 9.9988575 
1.3751177e+3, 2.4477424e+2, -514939.34, -701722.25, -119.30549, 0.06617358, -0.1163945, -514939.25, 26273.672, 0.0, 10.000876, 9.998432 
1.3751277e+3, 2.5477478e+2, -301376.0, -532498.56, 6806.7964, 0.056228388, 0.046700533, -301175.72, 142034.63, 0.0, 10.001615, 9.998562 
1.3751374e+3, 2.647738e+2, -163570.47, -490241.8, -26243.598, 0.05192756, 0.13225877, -161475.6, 183745.1, 0.000000022673568, 10.002212, 9.997889 
1.3751467e+3, 2.7477065e+2, 4510.189, -344632.53, 8610.33, 0.049927376, -0.010034713, 4722.4023, 251971.7, 0.0000066245593, 10.002644, 9.998 
1.3751566e+3, 2.847684e+2, 72073.07, -319430.38, 45768.234, 0.043517124, -0.004093754, 77352.36, 226624.1, 0.000084736, 10.0026865, 9.997475 
1.3751674e+3, 2.9476696e+2, 114388.07, -230054.77, 65460.496, 0.050482742, 0.052341297, 126409.14, 177697.19, 0.0003824706, 10.002217, 9.997644 
1.3751768e+3, 3.0476505e+2, 249091.13, -31426.74, -5356.604, 0.02985897, 0.05418178, 249193.38, 249193.38, 0.0010250094, 10.00235, 9.998624 
1.3751867e+3, 3.1476334e+2, 307978.53, 86910.34, 82361.05, 0.17192388, -0.02204858, 335289.0, 335289.0, 0.0019870058, 10.002296, 9.999467 
1.385001e+3, 1.2477798e+2, -1923043.0, -1851741.9, -94290.28, -0.083395384, -0.0047935527, -1786587.5, -69418.05, 0.008351057, 9.998667, 9.999679 
1.3850129e+3, 1.3477613e+2, -1810869.4, -1893499.9, -16937.959, 0.0013055207, -0.047029354, -1807532.3, -188340.48, 0.004803759, 9.999438, 9.998361 
1.3850197e+3, 1.447749e+2, -1629500.3, -1643629.1, -39413.78, -0.2819999, -0.0458011, -1596522.8, -75317.25, 0.0019753822, 9.999496, 9.999364 
1.3850337e+3, 1.5477535e+2, -1442522.1, -1490009.9, -43891.33, 0.16686043, 0.012050245, -1416363.9, 6837.0474, 0.00045665295, 10.00007, 9.999462 
1.3850446e+3, 1.6477516e+2, -1341037.5, -1419455.1, -14965.756, 0.29991287, 0.0710491, -1338278.4, -13076.842, 0.00003186285, 10.000227, 9.999198 
1.3850515e+3, 1.7477426e+2, -1270497.8, -1318792.6, -59559.953, 0.0015628451, 0.0167412, -1230376.3, -3167.9978, 0.000000039188958, 9.999974, 9.999336 
1.3850597e+3, 1.8477263e+2, -1249475.0, -1397564.3, -88088.75, -0.104878575, -0.011618329, -1208444.6, -79219.46, 0.0, 10.000022, 9.998111 
1.3850695e+3, 1.9476995e+2, -1058311.3, -1237435.8, -64364.934, 0.022144232, -0.13287458, -1037581.9, -6326.2266, 0.0, 10.000599, 9.998247 
1.3850792e+3, 2.0476943e+2, -885999.3, -1043778.94, 33952.426, 0.057203706, -0.026396917, -879003.3, 54260.734, 0.0, 10.0008545, 9.998779 
1.3850887e+3, 2.147711e+2, -775073.9, -923922.1, 21779.072, -0.0064659873, 0.21585499, -771952.7, 63298.08, 0.0, 10.000876, 9.998919 
1.3850987e+3, 2.247702e+2, -656991.8, -817253.75, 15731.816, -0.010605787, 0.24175714, -655462.1, 81796.164, 0.0, 10.001022, 9.998911 
1.3851088e+3, 2.3476623e+2, -482434.34, -668669.6, -8132.3315, 0.048431825, -0.0868663, -482079.9, 157211.19, 0.0, 10.001492, 9.999029 
1.3851191e+3, 2.4476448e+2, -414933.16, -697419.2, 24137.469, 0.082750455, -0.106433496, -412885.53, 128421.9, 0.0, 10.001762, 9.998028 
1.3851297e+3, 2.5476497e+2, -290875.5, -574958.4, -14028.5205, 0.08034377, 0.095883965, -290184.44, 153123.1, 0.0, 10.001884, 9.998139 
1.3851397e+3, 2.647637e+2, -204750.16, -478721.0, -43005.65, 0.08387927, 0.16255738, -198158.1, 147162.3, 0.0000000049794013, 10.001792, 9.998172 
1.3851492e+3, 2.747602e+2, -124395.53, -375143.25, -59456.105, 0.08919539, -0.05037199, -111011.93, 136338.53, 0.0000064670485, 10.001598, 9.998305 
1.385159e+3, 2.847579e+2, -62740.13, -364099.03, 5590.879, 0.079131894, -0.07128092, -62636.44, 86734.55, 0.00007993784, 10.001657, 9.997682 
1.3851695e+3, 2.9475668e+2, 127064.89, -189446.0, 5857.6646, 0.0614969, -0.013682387, 127173.266, 178556.53, 0.00035414053, 10.002145, 9.997963 
1.3851796e+3, 3.0475435e+2, 298329.53, -59265.043, -58711.516, 0.06735713, -0.051169693, 307722.34, 307722.34, 0.0009478654, 10.002901, 9.998166 
1.3851905e+3, 3.1475282e+2, 497076.06, 137180.33, -126971.555, 0.2603051, -0.06274056, 537362.2, 537362.2, 0.0018472242, 10.003741, 9.999118 
1.3950005e+3, 1.2476661e+2, -1855332.1, -1690972.4, 129926.58, -0.068390965, 0.08396165, -1619417.3, 97873.26, 0.008733579, 9.9986105, 10.000795 
1.3950129e+3, 1.347649e+2, -1735327.8, -1731019.1, 1394.5677, 0.029706674, -0.061718345, -1730607.1, -111302.56, 0.005033633, 9.999418, 9.999478 
1.3950196e+3, 1.4476468e+2, -1618304.4, -1623628.1, -47543.05, -0.30228442, -0.023815008, -1573348.8, -52043.98, 0.002076125, 9.999509, 9.9994955 
1.3950315e+3, 1.5476492e+2, -1438382.5, -1475188.0, -5102.6113, -0.092084594, 0.004435304, -1437688.1, -14386.508, 0.00048381835, 10.000041, 9.999578 
1.395043e+3, 1.6476427e+2, -1386541.5, -1515038.5, -44411.207, 0.06763349, 0.040354885, -1372686.1, -47377.6, 0.000034571214, 10.00023, 9.998542 
1.395053e+3, 1.7476246e+2, -1332388.9, -1429727.4, -58519.99, 0.1172349, -0.033924624, -1304944.5, -77616.75, 0.00000005013657, 9.999899, 9.998613 
1.3950615e+3, 1.8476151e+2, -1181691.5, -1246326.9, -88308.52, 0.044224646, -0.0065265023, -1119972.9, 9364.389, 0.0, 9.999979, 9.9991665 
1.3950689e+3, 1.9476129e+2, -1003384.4, -1093363.6, -29907.666, -0.12321499, 0.011481142, -994350.5, 36987.83, 0.0, 10.000468, 9.999303 
1.3950782e+3, 2.0476042e+2, -897885.9, -1035512.0, 17481.912, -0.16712102, 0.022888463, -895700.0, 37646.293, 0.0, 10.00071, 9.998904 
1.3950892e+3, 2.1475866e+2, -803469.5, -927993.7, 34730.754, -0.07890436, -0.08495544, -794437.9, 40925.79, 0.0, 10.000646, 9.998999 
1.3950999e+3, 2.2475782e+2, -693706.9, -854505.9, 16001.847, -0.0048065614, -0.04954525, -692129.94, 45241.836, 0.0, 10.000837, 9.998748 
1.3951108e+3, 2.3475777e+2, -523982.44, -710040.75, 26107.373, 0.068752915, 0.025677923, -520388.53, 118983.16, 0.0, 10.0012865, 9.998847 
1.3951214e+3, 2.447568e+2, -486166.47, -792573.4, 12521.848, 0.09419452, 0.11895901, -485655.6, 55727.637, 0.0, 10.001538, 9.997482 
1.3951316e+3, 2.5475445e+2, -371892.1, -679828.9, 7190.4077, 0.068383284, 0.09456316, -371724.28, 71687.19, 0.0, 10.001623, 9.997541 
1.3951415e+3, 2.647521e+2, -232429.7, -493141.2, -65230.87, 0.06753231, 0.08311622, -217019.58, 128415.43, 0.0000000011462398, 10.001602, 9.998168 
1.3951513e+3, 2.747496e+2, -153858.16, -389596.0, -47538.727, 0.10567407, -0.030591665, -144632.58, 102821.836, 0.0000063015364, 10.00139, 9.998311 
1.3951614e+3, 2.8474784e+2, -63494.76, -319291.53, 7467.046, 0.11189242, -0.015100185, -63276.977, 86190.59, 0.00007549819, 10.001464, 9.998078 
1.3951722e+3, 2.9474628e+2, 114919.54, -156863.48, 46420.293, 0.08869534, -0.031116473, 122629.375, 174108.98, 0.0003302732, 10.0019045, 9.998301 
1.3951826e+3, 3.0474254e+2, 146213.9, -333204.84, -43781.37, 0.057234928, -0.13335118, 150179.31, 150179.31, 0.0008854581, 10.002715, 9.996376 
1.395193e+3, 3.147399e+2, 330891.44, -98615.14, -41646.477, 0.07626102, -0.08094813, 334892.34, 334892.34, 0.0017326016, 10.003287, 9.997712 
1.4049995e+3, 1.24754354e+2, -1898946.5, -1689746.0, 244171.78, 0.012630134, 0.15124834, -1528712.9, 188701.78, 0.009133226, 9.998164, 10.001037 
1.4050116e+3, 1.34753e+2, -1742503.5, -1644789.3, -71031.26, 0.0015661364, -0.040646378, -1607434.6, 11988.152, 0.005275387, 9.998947, 10.000309 
1.4050211e+3, 1.4475347e+2, -1632812.1, -1624844.5, -92918.125, -0.07286208, 0.01453371, -1535824.9, -14409.1875, 0.0021822979, 9.999392, 9.999539 
1.405031e+3, 1.5475315e+2, -1476377.8, -1496025.9, -102483.35, -0.11740876, -0.010687259, -1383248.6, 40170.11, 0.00051218417, 9.999798, 9.99955 
1.4050418e+3, 1.6475238e+2, -1401464.1, -1508568.9, -94654.27, -0.042317223, 0.010949271, -1346263.1, -20836.01, 0.000037386584, 10.000058, 9.998672 
1.4050534e+3, 1.7475101e+2, -1227705.4, -1355945.1, -75961.94, 0.1532507, -0.04054188, -1192419.1, 35022.863, 0.00000006103049, 10.00051, 9.998822 
1.4050627e+3, 1.8475051e+2, -1067632.4, -1162595.9, -58569.742, 0.1421943, 0.007863393, -1039715.7, 89730.69, 0.0, 10.000652, 9.9994135 
1.4050697e+3, 1.9475076e+2, -968916.9, -1045584.9, -96719.23, -0.08956295, 0.045126185, -903211.94, 128229.305, 0.0, 10.000576, 9.999578 
1.4050788e+3, 2.047497e+2, -938625.6, -1065401.6, -63750.52, -0.16075175, 0.027001247, -912112.75, 21336.873, 0.0, 10.000474, 9.998821 
1.4050898e+3, 2.1474701e+2, -820180.1, -939557.6, -90317.26, -0.06732183, -0.16707616, -771610.1, 63864.992, 0.0, 10.00055, 9.998967 
1.4051007e+3, 2.247461e+2, -717269.06, -877015.2, -64833.85, 0.0034927789, -0.12907924, -694267.75, 43216.55, 0.0, 10.000738, 9.998636 
1.4051117e+3, 2.3474695e+2, -557766.2, -731649.56, -84101.27, 0.0547742, 0.046161003, -523745.56, 115732.09, 0.0, 10.001082, 9.998793 
1.4051227e+3, 2.4474601e+2, -493431.16, -781196.56, -43976.574, 0.08989242, 0.1406062, -486860.66, 54627.99, 0.0, 10.00142, 9.997619 
1.4051335e+3, 2.5474286e+2, -328912.8, -635579.44, -25913.672, 0.09175684, 0.022835616, -326738.5, 116783.26, 0.0, 10.001824, 9.997744 
1.4051437e+3, 2.6474038e+2, -146360.25, -463854.84, -42842.016, 0.11154666, -0.0036528388, -140680.84, 204865.13, 0.0000000047036606, 10.002253, 9.9980545 
1.4051537e+3, 2.747387e+2, 42521.203, -300903.78, -78772.84, 0.16097528, -0.025890708, 59727.586, 307287.6, 0.000006310061, 10.002791, 9.998236 
1.405164e+3, 2.8473702e+2, 146841.31, -249293.86, -15606.597, 0.17139708, 0.014578402, 147455.22, 297028.34, 0.00007173929, 10.003039, 9.997795 
1.405175e+3, 2.9473466e+2, 232731.3, -135868.02, -56443.184, 0.14642039, -0.054319333, 241180.69, 292773.1, 0.00031660267, 10.002866, 9.997982 
1.4051858e+3, 3.047307e+2, 165636.11, -346231.25, -60669.313, 0.104712084, -0.1495795, 172728.69, 172728.69, 0.0008541431, 10.002953, 9.996169 
1.4051959e+3, 3.1472823e+2, 367175.1, -50649.05, -7552.677, 0.050921, -0.058819823, 367311.56, 367311.56, 0.0016740352, 10.003395, 9.997996 
1.414997e+3, 1.2474068e+2, -1934494.9, -1760382.8, 115841.88, -0.13208005, 0.13199641, -1702531.6, 15015.607, 0.009556688, 9.998151, 10.000557 
1.4150086e+3, 1.347406e+2, -1706345.0, -1557101.0, -28035.58, -0.22821374, 0.014539019, -1552008.3, 67536.9, 0.0055341963, 9.9988985, 10.000937 
1.4150241e+3, 1.447412e+2, -1634995.0, -1635435.0, -99969.07, 0.24323887, 0.050863992, -1535245.6, -13707.165, 0.0022969088, 9.999417, 9.999454 
1.415032e+3, 1.5473998e+2, -1499473.4, -1538328.5, -74538.84, -0.03259197, -0.03808655, -1441872.0, -18319.402, 0.0005425403, 9.999774, 9.999271 
1.4150411e+3, 1.6473964e+2, -1320182.4, -1344611.3, -100713.66, -0.16327481, -0.013510788, -1230945.1, 94610.914, 0.000040406845, 10.000074, 9.999795 
1.4150526e+3, 1.7474018e+2, -1158980.6, -1195375.4, -43995.03, -0.013918425, 0.01301791, -1129568.0, 97980.984, 0.00000007226826, 10.000431, 9.9999695 
1.4150627e+3, 1.8473989e+2, -1114264.1, -1244099.6, -78077.4, 0.050008863, 0.048816014, -1077641.8, 51908.66, 0.0, 10.000591, 9.9988785 
1.4150713e+3, 1.947384e+2, -1031892.2, -1147103.9, -86715.88, -0.0045795892, -0.024609739, -985391.94, 46171.918, 0.0, 10.000454, 9.998939 
1.4150804e+3, 2.0473722e+2, -971243.5, -1104889.8, -82797.414, -0.05614798, -0.013737178, -931667.7, 1907.0275, 0.0, 10.000343, 9.998615 
1.4150903e+3, 2.1473609e+2, -869603.8, -990671.3, -72812.12, -0.08667091, -0.029778656, -835448.94, 136.10608, 0.0, 10.000321, 9.998732 
1.4151005e+3, 2.2473499e+2, -753393.9, -896757.44, -69240.08, -0.10727354, 0.00044415254, -725413.9, 12182.0205, 0.0, 10.000502, 9.998611 
1.4151113e+3, 2.3473372e+2, -601840.56, -762672.44, -55517.234, -0.11286977, -0.029920274, -584538.1, 55071.137, 0.0, 10.000829, 9.998699 
1.4151227e+3, 2.447323e+2, -459575.66, -667446.94, -42308.875, -0.07461412, -0.020916149, -451294.28, 90327.74, 0.0, 10.001223, 9.998494 
1.4151348e+3, 2.5473043e+2, -290425.2, -516700.78, 7002.878, 0.01632546, -0.10598309, -290208.66, 153428.48, 0.0, 10.001649, 9.998645 
1.415146e+3, 2.647288e+2, -195047.06, -521616.25, -39248.336, 0.08503718, -0.07982265, -190396.28, 155256.16, 0.000000079284355, 10.002068, 9.9977455 
1.4151564e+3, 2.747273e+2, -19782.186, -375761.5, -36822.04, 0.120928474, -0.046197608, -16013.266, 231656.1, 0.000007370644, 10.002556, 9.997836 
1.4151669e+3, 2.8472522e+2, 65401.81, -374230.1, -36248.67, 0.109359175, 0.011521333, 68370.55, 218060.48, 0.00007202747, 10.002847, 9.997028 
1.4151777e+3, 2.947218e+2, 137735.58, -278739.78, -37645.438, 0.08755091, -0.0872991, 141111.02, 192832.25, 0.00031764805, 10.002621, 9.997123 
1.4151886e+3, 3.0471858e+2, 201833.42, -207494.28, -52968.836, 0.05696443, -0.11194381, 208576.73, 208576.73, 0.00085660315, 10.002706, 9.997223 
1.4151986e+3, 3.1471774e+2, 403426.4, 139021.72, 56412.066, -0.06982498, 0.017015168, 414959.2, 414959.2, 0.0016729925, 10.002944, 9.999497 
1.4249966e+3, 1.2472766e+2, -1772117.1, -1702044.9, 98876.8, -0.028011726, 0.06113333, -1632180.4, 85493.08, 0.010011913, 9.999376, 10.00037 
1.4250068e+3, 1.3472876e+2, -1641238.9, -1497298.5, 32265.588, -0.2972462, 0.04904727, -1490396.8, 129264.84, 0.0058154534, 9.99926, 10.001168 
1.4250247e+3, 1.4472963e+2, -1617182.4, -1578553.9, -9425.092, 0.35671178, 0.07569567, -1576377.0, -54723.805, 0.002423067, 9.99934, 9.999876 
1.4250325e+3, 1.5472868e+2, -1585973.8, -1534935.1, 20743.55, 0.08906863, -0.026191413, -1527567.8, -103904.25, 0.00057589856, 9.998993, 9.999662 
1.4250413e+3, 1.6472869e+2, -1453672.6, -1381549.6, 47151.566, -0.1026187, -0.00049091683, -1358250.4, -32587.277, 0.00004378684, 9.999042, 10.00003 
1.4250523e+3, 1.7472962e+2, -1220970.4, -1195785.4, 1614.4598, -0.05048258, 0.038811285, -1195682.3, 31969.307, 0.00000008454083, 9.999877, 10.000226 
1.425063e+3, 1.8472919e+2, -1172381.1, -1310487.8, -46339.746, 0.0325737, 0.06284876, -1158273.6, -28619.113, 0.0, 10.000347, 9.998543 
1.4250727e+3, 1.947271e+2, -1038164.44, -1184491.0, -64545.773, 0.09592597, -0.038963135, -1013762.25, 17912.639, 0.0, 10.000558, 9.998629 
1.4250821e+3, 2.0472574e+2, -919683.5, -1087229.3, -7521.9854, 0.06499524, -0.025462417, -919346.44, 14340.815, 0.0, 10.000724, 9.998549 
1.4250912e+3, 2.1472485e+2, -781969.4, -956906.75, -21528.637, -0.054892614, -0.011988407, -779358.94, 56335.176, 0.0, 10.000936, 9.9986725 
1.4251015e+3, 2.2472352e+2, -691324.06, -888719.75, 16774.043, -0.08977616, 0.006996722, -689908.8, 47797.805, 0.0, 10.00102, 9.9984255 
1.425113e+3, 2.3472156e+2, -574529.94, -768387.44, -11584.496, -0.043269683, -0.07159401, -573840.2, 65886.47, 0.0, 10.001091, 9.998545 
1.4251244e+3, 2.4472001e+2, -436125.03, -613890.1, 18218.95, -0.017193198, -0.08728172, -434277.0, 107462.734, 0.0, 10.0012045, 9.998874 
1.425136e+3, 2.5471863e+2, -278326.56, -466170.03, -5779.402, -0.012131767, -0.16327941, -278148.9, 165599.0, 0.00000000006254562, 10.001533, 9.999052 
1.4251477e+3, 2.6471725e+2, -246634.78, -589162.75, -39121.95, 0.049682476, -0.11576522, -242223.27, 103538.06, 0.00000036239143, 10.001889, 9.997364 
1.4251591e+3, 2.747158e+2, -86722.97, -447921.56, -70478.266, 0.16829993, -0.038540423, -73458.164, 174322.98, 0.000010087366, 10.002259, 9.997479 
1.4251702e+3, 2.847136e+2, 39981.223, -369870.1, -9146.704, 0.17553668, 0.01724154, 40185.25, 189989.69, 0.000078694284, 10.0026, 9.997186 
1.4251806e+3, 2.9470995e+2, 225299.16, -213340.02, 4858.5938, 0.09676785, -0.119259365, 225352.95, 277190.03, 0.0003338223, 10.003123, 9.99733 
1.4251918e+3, 3.047073e+2, 293459.53, -191312.02, 22647.498, 0.084663466, -0.09451886, 294515.28, 294515.28, 0.00088968594, 10.003413, 9.997016 
1.4252023e+3, 3.1470597e+2, 427428.97, 134373.19, -17251.064, -0.0001071344, 0.0063260263, 428440.97, 428440.97, 0.0017268027, 10.003141, 9.999388 
1.434996e+3, 1.2471616e+2, -1745394.1, -1665194.6, -142254.92, -0.10957897, -0.0018107025, -1557495.6, 160288.88, 0.010506618, 9.999426, 10.000608 
1.4350063e+3, 1.347178e+2, -1674547.5, -1556239.4, 63648.74, -0.3139984, 0.0756981, -1528500.6, 91268.68, 0.006123269, 9.999221, 10.000772 
1.4350219e+3, 1.4471887e+2, -1534073.0, -1418452.5, -36787.21, 0.10475965, 0.0869926, -1407740.3, 114017.84, 0.002563054, 9.999382, 10.000964 
1.435032e+3, 1.5471946e+2, -1515248.5, -1381609.0, 23338.037, 0.11312454, 0.029795172, -1377650.6, 46099.16, 0.0006133788, 9.998957, 10.00074 
1.4350416e+3, 1.6471961e+2, -1502661.0, -1480328.6, 54706.758, -0.007699069, 0.049403336, -1435660.1, -109913.05, 0.000047750204, 9.999031, 9.999358 
1.4350522e+3, 1.7471908e+2, -1277675.8, -1308318.1, 44714.293, -0.0829804, 0.019854957, -1245730.6, -17978.393, 0.00000010052836, 9.999848, 9.999473 
1.435063e+3, 1.8471828e+2, -1180835.3, -1314951.6, -58781.453, -0.041702304, 0.044591364, -1158719.1, -28958.826, 0.0, 10.000294, 9.998537 
1.4350735e+3, 1.9471686e+2, -1057823.1, -1195691.0, -42821.473, 0.08125477, 0.009510885, -1045605.5, -13831.48, 0.0, 10.00043, 9.998614 
1.4350832e+3, 2.0471533e+2, -934195.94, -1083960.3, -19438.438, 0.054000948, 0.00022393446, -931714.06, 2072.775, 0.0, 10.000577, 9.998641 
1.435092e+3, 2.1471336e+2, -810834.3, -968869.7, 645.91846, -0.1022565, -0.10349016, -810831.7, 24970.004, 0.0, 10.000723, 9.998692 
1.4351028e+3, 2.2471179e+2, -749417.2, -952623.2, 2725.4421, -0.08197167, -0.09131711, -749380.6, -11565.065, 0.0, 10.000785, 9.9980955 
1.435116e+3, 2.3471051e+2, -635642.0, -833313.44, 7830.3267, 0.13310827, -0.07112565, -635332.3, 4497.5254, 0.0, 10.000838, 9.998215 
1.4351273e+3, 2.4470903e+2, -476372.88, -647360.0, 9954.402, 0.12574783, -0.055947892, -475795.3, 66047.64, 0.0, 10.000984, 9.998754 
1.4351366e+3, 2.547072e+2, -327380.1, -506469.84, 21576.91, -0.119352356, -0.16514784, -324817.16, 119039.27, 0.000000006122379, 10.001272, 9.998899 
1.4351481e+3, 2.6470566e+2, -295747.53, -648119.75, -41008.027, -0.11780626, -0.10868645, -291038.1, 54834.707, 0.0000008787704, 10.001697, 9.997059 
1.4351617e+3, 2.7470422e+2, -137997.75, -511093.5, -36269.27, 0.16623615, 0.003692421, -134504.66, 113390.28, 0.000014147242, 10.002067, 9.997148 
1.4351735e+3, 2.8470212e+2, 76519.12, -249041.23, -6899.214, 0.22043823, 0.040886678, 76665.26, 226582.2, 0.000090676775, 10.002403, 9.998108 
1.4351833e+3, 2.9469883e+2, 243855.58, -116299.8, 46984.37, 0.023113405, -0.1584856, 249884.06, 301827.16, 0.00036389777, 10.002859, 9.998131 
1.4351949e+3, 3.046965e+2, 176947.56, -366186.9, -1792.7821, 0.03058113, -0.07836698, 176953.48, 176953.48, 0.0009561929, 10.003155, 9.995926 
1.435206e+3, 3.1469324e+2, 257817.89, -105547.96, 19520.764, -0.002719635, -0.059820026, 258863.58, 258863.58, 0.0018452968, 10.002672, 9.997963 
1.4449947e+3, 1.24704815e+2, -1849910.0, -1683182.4, -145166.86, -0.12829481, -0.035122816, -1599145.6, 118748.42, 0.011047917, 9.998553, 10.000905 
1.4450067e+3, 1.3470627e+2, -1757442.6, -1618195.1, 78298.52, -0.14891204, 0.031208368, -1583042.3, 36837.84, 0.00646129, 9.9987335, 10.000576 
1.4450204e+3, 1.4470725e+2, -1573021.9, -1433291.5, -24893.79, 0.043023787, 0.047553007, -1428989.0, 92880.664, 0.0027186894, 9.999118, 10.000973 
1.4450313e+3, 1.5470834e+2, -1385454.0, -1305951.6, -90781.62, 0.10750875, 0.03254769, -1246599.6, 177257.03, 0.0006559602, 9.999802, 10.000846 
1.4450414e+3, 1.6470848e+2, -1357762.5, -1441621.8, -28834.633, 0.037180256, 0.059753135, -1348804.6, -22950.184, 0.000052490832, 10.000164, 9.999079 
1.4450528e+3, 1.7470738e+2, -1191744.6, -1292586.4, -33587.93, -0.034768376, -0.0025915967, -1181581.6, 46284.605, 0.00000012546444, 10.000565, 9.999229 
1.445064e+3, 1.847064e+2, -1108919.0, -1272182.6, -100210.375, 0.012746845, 0.014679916, -1061299.6, 68576.3, 0.0, 10.000738, 9.998622 
1.4450745e+3, 1.9470535e+2, -1009398.6, -1157219.0, -110271.61, 0.13823038, 0.0024664972, -950558.9, 81326.85, 0.0, 10.000692, 9.998751 
1.4450844e+3, 2.0470382e+2, -874999.8, -1073366.5, -43747.086, 0.108280905, -0.004613552, -865780.44, 68117.96, 0.0, 10.001081, 9.998468 
1.4450936e+3, 2.1470153e+2, -626893.25, -889873.4, -76380.664, -0.063298754, -0.12094958, -606318.7, 229597.83, 0.0, 10.002064, 9.998578 
1.4451046e+3, 2.2469972e+2, -534406.56, -881100.7, -73644.0, -0.04621218, -0.114286125, -519411.78, 218520.83, 0.0, 10.002379, 9.997826 
1.4451177e+3, 2.3469813e+2, -495604.25, -794345.2, -94041.81, 0.17015257, -0.10033635, -468465.8, 171483.23, 0.0, 10.001903, 9.997971 
1.445129e+3, 2.4469657e+2, -400462.56, -648098.1, -46252.016, 0.16875875, -0.06610138, -392105.88, 149857.9, 0.0, 10.001673, 9.998411 
1.4451386e+3, 2.546948e+2, -261488.8, -515514.84, -80811.445, -0.077146046, -0.13204667, -237960.14, 206018.95, 0.000000012932129, 10.001881, 9.998552 
1.4451501e+3, 2.6469323e+2, -230105.72, -567122.9, -92348.86, -0.084737696, -0.082370505, -206459.53, 139536.19, 0.0000016431604, 10.001945, 9.997494 
1.4451636e+3, 2.7469167e+2, -115559.68, -444236.6, -74318.48, 0.17280205, -0.028916985, -99536.375, 148479.58, 0.000019343763, 10.001991, 9.997636 
1.4451757e+3, 2.8468978e+2, 51496.5, -258894.53, -1540.3087, 0.22668247, 0.0039473493, 51504.145, 201539.52, 0.00010742406, 10.002215, 9.998129 
1.4451863e+3, 2.9468742e+2, 202028.05, -126492.03, -40878.637, 0.06948061, -0.10595813, 207038.28, 259093.28, 0.0004097107, 10.002535, 9.998204 
1.4451985e+3, 3.0468556e+2, 150972.66, -306785.88, -32280.555, 0.10448671, -0.014627952, 153237.84, 153237.84, 0.0010616613, 10.002655, 9.996589 
1.4452091e+3, 3.1468147e+2, 252930.58, -70859.47, 28786.496, 0.07824303, -0.15070163, 255469.92, 255469.92, 0.0020378157, 10.002494, 9.99828 
1.4549942e+3, 1.2469405e+2, -1824544.5, -1651165.6, -43826.37, -0.10944198, -0.038684916, -1640716.9, 77280.766, 0.011640448, 9.998633, 10.001089 
1.4550081e+3, 1.3469431e+2, -1770484.8, -1633400.1, 103828.93, 0.077677645, -0.09468671, -1577529.9, 42462.62, 0.0068325973, 9.998676, 10.000505 
1.4550197e+3, 1.44695e+2, -1655425.8, -1603264.8, -14704.957, -0.002383143, -0.037489407, -1599404.9, -77419.36, 0.0028915813, 9.999117, 9.999803 
1.4550297e+3, 1.5469535e+2, -1462760.0, -1456115.1, -51916.2, -0.068365954, -0.025429005, -1407415.3, 16568.932, 0.00070428615, 9.9997635, 9.99983 
1.4550407e+3, 1.6469537e+2, -1336996.6, -1405586.9, -36861.12, -0.10491399, 0.030948738, -1320944.0, 5040.915, 0.000058062662, 10.000188, 9.999317 
1.4550537e+3, 1.7469463e+2, -1183453.8, -1262731.9, -2319.3782, -0.030440371, -0.022231909, -1183386.0, 44606.184, 0.00000016567238, 10.000507, 9.999464 
1.4550655e+3, 1.846937e+2, -1099841.8, -1242504.0, -117802.86, 0.05741995, -0.022615304, -1033457.06, 96543.305, 0.0, 10.00069, 9.998852 
1.4550756e+3, 1.9469255e+2, -1012647.3, -1138268.6, -96979.61, 0.14041582, -0.061867744, -959914.8, 72095.32, 0.0, 10.000575, 9.998945 
1.4550856e+3, 2.0469116e+2, -932310.2, -1149920.5, -26181.688, 0.09613532, -0.041244075, -929204.5, 4817.8076, 0.0, 10.000908, 9.998022 
1.4550959e+3, 2.1468925e+2, -695183.25, -973741.75, -24220.404, -0.06547528, -0.076201044, -693093.0, 142946.81, 0.0, 10.001822, 9.998117 
1.4551066e+3, 2.246871e+2, -574594.3, -907597.8, -105916.07, -0.11905309, -0.0759837, -543761.2, 194298.3, 0.0, 10.002134, 9.997762 
1.4551176e+3, 2.3468454e+2, -544775.75, -828186.9, -94400.77, -0.05500437, -0.15040347, -516211.03, 123872.05, 0.0, 10.001617, 9.997874 
1.4551291e+3, 2.4468279e+2, -469139.38, -740622.7, -52156.72, -0.022831503, -0.105008066, -459463.97, 82636.625, 0.0, 10.001448, 9.997889 
1.4551413e+3, 2.5468168e+2, -328613.75, -608191.7, -52429.875, -0.018820947, -0.050225746, -319104.88, 125008.78, 0.000000017460069, 10.001676, 9.998019 
1.4551532e+3, 2.6468018e+2, -184562.52, -429904.7, -103744.57, 0.0015659486, -0.018147102, -146575.17, 199552.92, 0.000002726617, 10.001756, 9.998527 
1.4551647e+3, 2.74678e+2, -74762.01, -304997.03, -53174.41, 0.045353718, -0.1407139, -63074.32, 185071.84, 0.000025176965, 10.0017605, 9.998699 
1.4551766e+3, 2.8467652e+2, -26289.385, -361283.38, -4668.5405, 0.06774647, -0.090103395, -26224.336, 123936.44, 0.00012772984, 10.001968, 9.997542 
1.4551893e+3, 2.9467577e+2, 122199.05, -232185.86, -3761.3748, 0.080855146, 0.026576722, 122238.96, 174411.67, 0.0004676586, 10.002275, 9.997606 
1.455202e+3, 3.0467454e+2, 266553.8, -9603.427, -49038.75, 0.15836875, 0.101180166, 275003.38, 275003.38, 0.0011983007, 10.002409, 9.99875 
1.4552113e+3, 3.1467018e+2, 296455.1, 108721.37, 57830.46, -0.015104416, -0.2791795, 312839.53, 312839.53, 0.002292943, 10.002104, 9.999709 
1.4649945e+3, 1.24683425e+2, -1593728.8, -1591060.4, 57201.633, -0.021842519, -0.03837117, -1535177.4, 182919.78, 0.012283002, 10.000469, 10.000617 
1.4650081e+3, 1.3468304e+2, -1612665.3, -1605769.6, 32455.75, 0.17579192, -0.11598172, -1576579.1, 43520.684, 0.00723705, 9.999991, 10.0000515 
1.4650191e+3, 1.4468329e+2, -1663551.0, -1657140.4, 11107.077, 0.046897158, -0.051608484, -1648785.4, -126687.59, 0.0030819494, 9.9992485, 9.999389 
1.4650294e+3, 1.5468292e+2, -1491362.8, -1497199.5, -3591.9048, -0.057195034, -0.084838025, -1489653.1, -65549.61, 0.0007585455, 9.99966, 9.999611 
1.465041e+3, 1.6468285e+2, -1403924.5, -1421317.5, 58913.32, -0.056445904, -0.03773326, -1353069.3, -26964.1, 0.00006440502, 9.999658, 9.99946 
1.4650543e+3, 1.7468257e+2, -1329558.9, -1317085.9, 49965.375, 0.050363023, -0.058139615, -1272969.3, -44861.74, 0.00000022299002, 9.999424, 9.999612 
1.4650662e+3, 1.8468179e+2, -1227467.8, -1311485.8, -25432.13, 0.11229546, -0.045483984, -1220369.1, -90254.62, 0.0, 9.999879, 9.9987545 
1.4650762e+3, 1.9468051e+2, -898690.44, -1087245.9, -61006.387, 0.11630354, -0.092674606, -880673.6, 151452.81, 0.0, 10.001399, 9.998884 
1.4650868e+3, 2.0467913e+2, -804491.6, -1111277.8, 22337.92, 0.08364683, -0.058223363, -802873.7, 131265.86, 0.0, 10.001862, 9.997843 
1.4650981e+3, 2.1467747e+2, -791572.44, -1037924.6, 20390.254, 0.01697993, -0.051402073, -789896.1, 46259.91, 0.0, 10.001219, 9.997978 
1.4651088e+3, 2.2467543e+2, -700666.25, -944661.5, -9031.171, -0.037943617, -0.044349745, -700332.4, 37842.344, 0.0, 10.001191, 9.9979515 
1.4651188e+3, 2.3467267e+2, -468760.5, -769834.7, -15787.345, -0.08385851, -0.15808311, -467934.94, 172263.55, 0.0, 10.002048, 9.998068 
1.4651303e+3, 2.4467064e+2, -386697.3, -735703.4, 62423.313, -0.05994332, -0.13269345, -375868.28, 166349.98, 0.0, 10.00217, 9.997574 
1.4651433e+3, 2.5466937e+2, -369527.9, -658347.1, 42387.4, 0.032185026, -0.06408781, -363435.6, 80799.086, 0.000000044837254, 10.001542, 9.997729 
1.4651555e+3, 2.6466763e+2, -196118.92, -428935.94, 21990.195, 0.07672514, -0.039970815, -194060.1, 152190.61, 0.0000038968087, 10.001647, 9.998588 
1.465167e+3, 2.7466524e+2, 56893.33, -234874.63, -26443.002, 0.06758401, -0.18957214, 59270.496, 307539.0, 0.000030518888, 10.002619, 9.998775 
1.4651789e+3, 2.8466368e+2, 43906.438, -317784.8, 2980.4194, 0.08094137, -0.15584327, 43930.996, 194214.42, 0.00014669313, 10.002412, 9.997629 
1.4651912e+3, 2.9466316e+2, -73542.03, -311857.53, -961.9318, 0.130825, -0.022176553, -73538.15, -21243.508, 0.00052498176, 10.000885, 9.99772 
1.465204e+3, 3.046619e+2, 124264.86, -7401.1724, 20560.23, 0.2160949, 0.013822573, 127400.74, 127400.74, 0.0013417992, 10.001138, 9.999359 
1.4652146e+3, 3.1465876e+2, 463263.13, 225552.8, -47709.66, 0.07082778, -0.29873243, 472481.22, 472481.22, 0.0025704885, 10.003089, 10.0000305 
1.4749946e+3, 1.24671824e+2, -1663308.6, -1739940.9, -26719.115, -0.14261958, -0.12220849, -1654912.5, 63291.188, 0.012969953, 10.000505, 9.999549 
1.4750063e+3, 1.3467242e+2, -1679911.0, -1733678.9, 1277.1232, -0.03939332, -0.018719424, -1679880.6, -59678.414, 0.0076708426, 9.999951, 9.999182 
1.4750189e+3, 1.4467204e+2, -1611066.4, -1570011.8, -6942.747, 0.031454876, 0.0012933187, -1568869.5, -46662.195, 0.0032881629, 9.999325, 9.999957 
1.47503e+3, 1.5467128e+2, -1454624.3, -1412171.6, 26523.69, 0.006510214, -0.13338752, -1399426.4, 24786.283, 0.00081847684, 9.9996195, 10.000217 
1.475042e+3, 1.646711e+2, -1392051.4, -1408940.6, 31517.613, 0.028437205, -0.13163689, -1367866.8, -41653.26, 0.000071419374, 9.9997, 9.999526 
1.4750543e+3, 1.7467137e+2, -1337277.6, -1318421.1, 53885.555, 0.07357733, -0.10211879, -1273145.3, -44934.063, 0.0000002932695, 9.999366, 9.999626 
1.4750658e+3, 1.8467082e+2, -1258382.8, -1377863.8, 9785.047, 0.042474765, -0.044908296, -1257586.8, -127369.22, 0.0, 9.999873, 9.998308 
1.4750762e+3, 1.9466913e+2, -946146.2, -1162345.5, 9869.827, -0.06309965, -0.08723152, -945696.56, 86539.14, 0.0, 10.001289, 9.998426 
1.4750874e+3, 2.0466767e+2, -810064.6, -1088556.8, -19608.26, -0.07066007, -0.049427833, -808690.8, 125560.16, 0.0, 10.00171, 9.998069 
1.4750999e+3, 2.1466637e+2, -811666.56, -1023610.0, 8668.49, 0.045027375, -0.033865545, -811312.56, 24951.516, 0.0, 10.00098, 9.998188 
1.4751114e+3, 2.2466473e+2, -707402.1, -912756.44, 3093.2776, 0.058143, -0.009745898, -707355.56, 30922.504, 0.0, 10.000976, 9.998284 
1.4751215e+3, 2.3466243e+2, -473644.63, -733700.1, 32298.943, -0.049895175, -0.113643564, -469693.13, 170602.86, 0.0, 10.001839, 9.998424 
1.4751324e+3, 2.446601e+2, -424170.34, -767308.56, 22024.33, -0.09475034, -0.13289633, -422762.5, 119555.15, 0.0, 10.0019655, 9.997456 
1.4751443e+3, 2.546576e+2, -413161.16, -698055.6, 32712.908, -0.054548398, -0.1741194, -409453.2, 34891.78, 0.000000082863835, 10.00132, 9.997565 
1.4751567e+3, 2.6465547e+2, -283197.16, -559763.75, 44142.305, 0.007656842, -0.14485534, -276322.56, 70043.4, 0.0000048986644, 10.001428, 9.997793 
1.4751701e+3, 2.746534e+2, -32935.23, -366093.88, 35695.164, 0.09088945, -0.18302913, -29153.713, 219229.48, 0.00003489947, 10.002382, 9.997982 
1.4751817e+3, 2.8465137e+2, 41651.832, -273793.56, -67471.43, 0.103340894, -0.17710096, 55477.504, 205879.64, 0.00016199093, 10.002194, 9.998039 
1.4751917e+3, 2.946494e+2, -69133.73, -256545.63, -37280.473, 0.050476346, -0.2420874, -61990.09, -9567.189, 0.0005771533, 10.000682, 9.9981985 
1.4752045e+3, 3.0464754e+2, 44022.53, -124320.734, 77416.164, 0.12683524, -0.25794768, 74210.53, 74210.53, 0.0014773308, 10.00092, 9.998659 
1.4752181e+3, 3.14647e+2, 353837.94, 107697.76, 71415.79, 0.040663876, -0.24260618, 373057.9, 373057.9, 0.002829432, 10.002622, 9.999441 
1.484996e+3, 1.2465958e+2, -1907897.6, -1876103.6, -69181.5, 0.042701457, -0.17750704, -1821016.1, -102695.23, 0.013700781, 9.998876, 9.9994135 
1.485006e+3, 1.3466011e+2, -1661847.9, -1730353.9, -36104.555, -0.054873247, -0.07229807, -1646333.4, -26012.7, 0.00813248, 10.000054, 9.999177 
1.4850183e+3, 1.446597e+2, -1513176.9, -1503672.9, 18537.104, 0.032357037, -0.06293587, -1489288.4, 33037.813, 0.0035089266, 9.999957, 10.000088 
1.4850302e+3, 1.5465957e+2, -1413279.9, -1374934.9, -21006.059, 0.054552276, -0.14616002, -1365667.4, 58657.715, 0.0008836724, 9.999851, 10.000346 
1.4850424e+3, 1.6465952e+2, -1373305.9, -1424001.8, -7620.303, 0.098145954, -0.12588005, -1372185.3, -45860.305, 0.00007901186, 9.999973, 9.99928 
1.4850546e+3, 1.7465928e+2, -1166676.3, -1262536.3, -44010.945, 0.11800304, -0.118173584, -1149535.1, 78793.0, 0.00000037325287, 10.000671, 9.999381 
1.4850661e+3, 1.8465856e+2, -1123721.0, -1317552.3, -31151.764, 0.06799331, -0.0637929, -1118837.4, 11499.465, 0.0, 10.0008135, 9.99827 
1.4850768e+3, 1.9465715e+2, -1049080.0, -1211934.1, -32225.113, -0.0726389, -0.07613327, -1042935.2, -10582.156, 0.0, 10.00058, 9.998427 
1.4850885e+3, 2.0465587e+2, -953890.0, -1121740.0, -39797.266, -0.07108363, -0.035698928, -944932.1, -10565.56, 0.0, 10.000593, 9.998366 
1.4851011e+3, 2.1465458e+2, -793083.94, -975194.44, -42652.055, 0.09907062, -0.04635333, -783589.44, 52788.953, 0.0, 10.00095, 9.998526 
1.4851132e+3, 2.2465302e+2, -686860.0, -892462.4, 3925.477, 0.14892341, -0.03890096, -686785.06, 51606.6, 0.0, 10.00107, 9.998373 
1.4851238e+3, 2.34651e+2, -578224.9, -772069.06, -17100.23, 0.040015385, -0.121805266, -576727.94, 63679.86, 0.0, 10.001069, 9.998528 
1.4851348e+3, 2.4464898e+2, -490285.4, -767204.75, -7675.964, -0.025501763, -0.13104273, -490072.8, 52353.496, 0.0, 10.001373, 9.997747 
1.4851461e+3, 2.5464678e+2, -285342.56, -600915.94, 1202.4258, -0.031517345, -0.16539557, -285337.97, 159110.58, 0.00000011463164, 10.0020485, 9.997883 
1.4851587e+3, 2.6464477e+2, -190769.22, -519470.06, 86646.664, 0.036033265, -0.13844013, -169327.53, 177140.63, 0.000005857849, 10.002095, 9.99774 
1.4851727e+3, 2.7464268e+2, -173976.88, -444150.38, 85661.14, 0.17260998, -0.17146252, -149106.56, 99380.88, 0.000039275426, 10.001467, 9.997884 
1.4851844e+3, 2.8464046e+2, -26295.898, -312758.8, 22190.584, 0.18380347, -0.17358561, -24587.12, 125920.64, 0.00017769585, 10.001755, 9.997981 
1.4851937e+3, 2.9463813e+2, 273329.03, -102745.81, -19959.729, 0.069006726, -0.26269308, 274385.38, 326915.28, 0.000630339, 10.003066, 9.998122 
1.4852065e+3, 3.046356e+2, 336611.53, -70372.26, 122780.74, 0.1226113, -0.29907018, 370783.4, 370783.4, 0.001603161, 10.003285, 9.997904 
1.4852212e+3, 3.1463555e+2, 236686.33, 5487.1655, 23408.084, 0.14282316, -0.16208296, 239032.5, 239032.5, 0.0030493059, 10.002004, 9.999031 
1.4949954e+3, 1.24647416e+2, -1807569.5, -1687244.0, -94586.3, 0.015809488, -0.12867664, -1635308.0, 83134.086, 0.014485426, 9.9989605, 10.0006695 
1.4950068e+3, 1.3464658e+2, -1611430.3, -1609412.4, 8092.3003, -0.014016112, -0.24564573, -1602266.4, 18183.754, 0.008627366, 9.999995, 10.0000305 
1.4950173e+3, 1.4464653e+2, -1519045.5, -1548656.8, -16246.698, -0.11308158, -0.23008727, -1511870.3, 10581.109, 0.0037456865, 10.000073, 9.999733 
1.4950293e+3, 1.5464802e+2, -1451252.5, -1451728.0, -11425.814, -0.052764826, -0.103848174, -1440062.0, -15623.539, 0.0009542572, 9.999833, 9.999835 
1.4950417e+3, 1.6464822e+2, -1401379.5, -1497247.8, -2045.647, -0.0042327945, -0.0050786785, -1401335.9, -74897.77, 0.00008722728, 10.00003, 9.99875 
1.4950551e+3, 1.7464635e+2, -1212215.9, -1346190.0, -4794.366, 0.060647484, -0.108202875, -1212044.6, 16413.527, 0.0000004647829, 10.000628, 9.998824 
1.4950672e+3, 1.8464518e+2, -1095232.3, -1262741.1, -58084.84, 0.04388958, -0.090175055, -1077062.0, 53409.164, 0.0, 10.000823, 9.998647 
1.4950779e+3, 1.9464473e+2, -1041601.5, -1168069.9, -28028.021, -0.058584694, -0.045495365, -1035668.3, -3191.4502, 0.0, 10.000455, 9.998792 
1.4950895e+3, 2.0464383e+2, -948443.44, -1078142.3, -45207.11, -0.059292562, -0.0032943187, -934241.44, 243.71947, 0.0, 10.000448, 9.998738 
1.4951022e+3, 2.1464217e+2, -797109.6, -935637.94, -15465.671, 0.070488535, -0.08991891, -795404.0, 41094.613, 0.0, 10.000748, 9.998893 
1.4951141e+3, 2.246404e+2, -727098.94, -930548.4, -13270.3125, 0.11342772, -0.11501747, -726237.0, 12277.381, 0.0, 10.000865, 9.998217 
1.4951253e+3, 2.3463836e+2, -623684.6, -814516.5, -1241.0487, 0.054588832, -0.18447521, -623676.56, 16857.316, 0.0, 10.000841, 9.998348 
1.4951368e+3, 2.4463727e+2, -479659.28, -689333.44, 2974.9597, 0.0035710165, -0.12178149, -479617.06, 62926.8, 0.0, 10.001131, 9.998398 
1.4951484e+3, 2.546369e+2, -269351.38, -520021.8, 45608.996, -0.02885319, -0.04612357, -261310.83, 183235.14, 0.00000015644366, 10.001838, 9.998543 
1.495161e+3, 2.646355e+2, -193002.92, -469101.28, 48916.875, 0.024913762, -0.014855193, -184592.44, 161965.88, 0.000006865855, 10.001863, 9.998195 
1.4951746e+3, 2.7463275e+2, -176757.34, -396189.25, 79543.39, 0.17359021, -0.15594974, -150956.72, 97627.055, 0.00004412461, 10.001244, 9.998317 
1.4951864e+3, 2.846307e+2, -90505.46, -396852.0, 52274.344, 0.1729317, -0.14570329, -81831.09, 68772.01, 0.00019465707, 10.001538, 9.99751 
1.4951967e+3, 2.9462916e+2, 203980.36, -189661.56, 57981.66, 0.021108007, -0.10747312, 212343.14, 264960.8, 0.0006807663, 10.002815, 9.997647 
1.4952092e+3, 3.046261e+2, 218268.25, -245656.36, 66882.23, 0.035438593, -0.12394582, 227717.94, 227717.94, 0.0017048066, 10.002992, 9.996837 
1.4952232e+3, 3.146241e+2, 134111.42, -115270.97, 21204.14, 0.077189006, -0.072654374, 135901.5, 135901.5, 0.0032039285, 10.001607, 9.998392 
1.5049936e+3, 1.2463454e+2, -1702161.3, -1614222.3, 4731.0776, -0.06880947, -0.17506726, -1613968.4, 104598.49, 0.015336173, 9.999589, 10.000876 
1.5050067e+3, 1.3463463e+2, -1687889.8, -1611289.6, -13276.12, 0.023325538, -0.2381928, -1609053.9, 11512.358, 0.0091627855, 9.999295, 10.000369 
1.5050176e+3, 1.4463514e+2, -1651864.8, -1631008.8, -22080.984, -0.0430232, -0.17429031, -1617017.3, -94454.94, 0.0040015904, 9.999266, 9.99955 
1.5050295e+3, 1.5463589e+2, -1454091.0, -1469313.5, -35383.047, -0.0047169747, -0.105273806, -1425509.8, -952.5841, 0.001031135, 9.9999, 9.999677 
1.5050419e+3, 1.6463579e+2, -1366518.9, -1488947.5, 53386.8, 0.0040508574, -0.026032345, -1346509.3, -19949.021, 0.000096309515, 10.000282, 9.998697 
1.5050554e+3, 1.7463416e+2, -1189316.4, -1336225.9, 56340.87, 0.028240845, -0.10134122, -1170197.4, 58380.383, 0.000000575819, 10.000769, 9.998832 
1.505068e+3, 1.8463309e+2, -1104750.0, -1248162.6, 15042.942, 0.04708481, -0.08057107, -1103189.0, 27400.443, 0.0, 10.000691, 9.998795 
1.505079e+3, 1.9463257e+2, -1058496.8, -1154023.1, -4358.811, 0.027148679, -0.061051156, -1058298.3, -25702.857, 0.0, 10.000254, 9.998971 
1.5050907e+3, 2.0463167e+2, -947620.5, -1063762.9, 33174.5, 0.037588656, -0.035813782, -938812.6, -4209.1787, 0.0, 10.000401, 9.998859 
1.5051033e+3, 2.1463013e+2, -701004.75, -878292.06, 10360.443, 0.083294004, -0.120363176, -700401.4, 136214.4, 0.0, 10.001356, 9.998999 
1.5051152e+3, 2.2462861e+2, -604062.7, -872099.56, 10330.642, 0.10777258, -0.122086234, -603665.1, 134964.53, 0.0, 10.001738, 9.998185 
1.5051267e+3, 2.3462702e+2, -529423.2, -771405.75, -5687.3438, 0.0966309, -0.1439483, -529289.6, 111356.71, 0.0, 10.0015135, 9.998311 
1.5051386e+3, 2.4462587e+2, -383769.72, -610062.06, 49465.793, 0.06629808, -0.09805772, -373429.38, 169227.13, 0.0, 10.001655, 9.998684 
1.5051506e+3, 2.5462502e+2, -185267.78, -443673.13, 27873.701, 0.004920596, -0.102959335, -182295.3, 262365.8, 0.00000020302433, 10.002266, 9.998853 
1.5051633e+3, 2.646237e+2, -93406.71, -409616.88, 1425.6792, 0.046800766, -0.08527913, -93400.28, 253271.66, 0.0000077496, 10.00249, 9.998305 
1.5051766e+3, 2.7462167e+2, -11491.882, -306762.1, -21962.953, 0.20995139, -0.16243729, -9867.162, 238824.23, 0.000048509926, 10.002313, 9.99843 
1.5051888e+3, 2.8461993e+2, 18401.877, -338655.84, 33525.652, 0.22627828, -0.1251163, 21522.469, 172230.31, 0.00020995413, 10.002274, 9.99755 
1.5051998e+3, 2.9461837e+2, 164624.52, -195302.33, 24392.129, 0.08460843, -0.0928936, 166270.05, 218992.2, 0.00072207046, 10.002527, 9.997721 
1.5052123e+3, 3.0461538e+2, 136412.48, -314809.1, 61540.773, 0.07379862, -0.097439215, 144655.27, 144655.27, 0.0017705777, 10.002542, 9.996594 
1.5052253e+3, 3.1461236e+2, 168383.89, -99708.84, 17412.04, 0.14245427, -0.11019533, 169510.03, 169510.03, 0.0032754042, 10.001828, 9.998422 
1.5149921e+3, 1.2462186e+2, -1736737.1, -1719620.8, 14627.907, -0.26041883, -0.26274815, -1711231.4, 7455.1675, 0.016257107, 9.999735, 10.000077 
1.5150052e+3, 1.3462454e+2, -1727460.5, -1664824.5, 2609.3176, -0.082085215, -0.044779982, -1664716.0, -44049.844, 0.009740974, 9.999197, 10.00004 
1.5150185e+3, 1.446259e+2, -1638193.8, -1635363.8, -22669.88, 0.061500836, 0.12679961, -1614064.8, -91409.21, 0.0042781597, 9.999383, 9.999471 
1.5150304e+3, 1.5462321e+2, -1453575.3, -1474079.6, 1419.2903, 0.058561787, -0.14416417, -1453477.5, -28796.49, 0.0011151112, 9.999914, 9.9996395 
1.5150422e+3, 1.646222e+2, -1319047.5, -1407856.4, 48427.758, -0.032962836, -0.17847328, -1297748.0, 28942.945, 0.000106548556, 10.000349, 9.999221 
1.5150551e+3, 1.7462277e+2, -1160237.6, -1264559.0, 87399.74, -0.099110305, -0.09279721, -1110616.9, 118069.67, 0.0000007145684, 10.000714, 9.999351 
1.5150678e+3, 1.846224e+2, -1106919.6, -1249944.5, -16887.066, -0.06156872, -0.03039685, -1104952.8, 25738.55, 0.0, 10.000678, 9.998791 
1.5150799e+3, 1.946207e+2, -1078582.5, -1169922.8, -7572.564, 0.058656927, -0.12343827, -1077959.0, -45250.26, 0.0, 10.000146, 9.998915 
1.515092e+3, 2.0461945e+2, -979396.94, -1097926.3, 48605.863, 0.080344826, -0.12180146, -962014.1, -27293.14, 0.0, 10.000258, 9.998697 
1.5151042e+3, 2.1461855e+2, -745783.75, -916649.5, 61553.367, 0.009895241, -0.12607093, -725919.0, 110809.75, 0.0, 10.001118, 9.998852 
1.5151161e+3, 2.2461775e+2, -638556.75, -884108.06, -11919.596, -0.00925331, -0.051031232, -637979.5, 100757.01, 0.0, 10.001478, 9.99823 
1.5151279e+3, 2.3461689e+2, -559320.9, -783587.4, 3207.8752, 0.04036122, -0.0022129267, -559275.0, 81471.04, 0.0, 10.0013, 9.998332 
1.5151401e+3, 2.446148e+2, -421670.38, -642617.56, 55127.152, 0.019850465, -0.047507867, -408679.72, 134084.58, 0.0, 10.001446, 9.998567 
1.5151525e+3, 2.546111e+2, -226013.69, -476280.4, 68004.06, -0.068337634, -0.32453838, -208728.97, 236065.17, 0.00000026346208, 10.002034, 9.998746 
1.5151653e+3, 2.6460925e+2, -141311.56, -446899.75, -17572.928, -0.03641149, -0.344652, -140304.34, 206505.33, 0.000008336701, 10.00223, 9.998176 
1.5151785e+3, 2.7460948e+2, -57856.2, -342935.63, -5152.416, 0.14177704, -0.18629491, -57763.11, 191046.5, 0.00005112129, 10.002069, 9.998297 
1.5151909e+3, 2.8460842e+2, 8063.4624, -308443.78, 25753.287, 0.18466537, -0.087881394, 10145.241, 160965.17, 0.00022272031, 10.002043, 9.997869 
1.5152028e+3, 2.9460576e+2, 149646.63, -169767.75, 57174.938, 0.089376844, -0.20538834, 159572.45, 212416.1, 0.0007570027, 10.002279, 9.9980135 
1.515215e+3, 3.0460322e+2, 133230.27, -249066.4, 23719.813, 0.07562721, -0.20722172, 134696.36, 134696.36, 0.0018115009, 10.0022545, 9.997174 
1.515227e+3, 3.1460032e+2, 166366.58, 790.3103, 55006.348, 0.059193984, -0.27761438, 182974.48, 182974.48, 0.0032857955, 10.001417, 9.999292 
1.524992e+3, 1.2460921e+2, -1897975.9, -1840398.8, -44248.496, -0.1927767, -0.2413383, -1816398.0, -97587.625, 0.017244658, 9.998845, 9.999662 
1.5250045e+3, 1.3461146e+2, -1687687.1, -1658695.0, -85931.33, -0.07959571, -0.055972848, -1586045.6, 34749.51, 0.010359608, 9.999548, 9.999899 
1.5250187e+3, 1.4461257e+2, -1591402.5, -1601882.4, -43514.844, 0.13987683, 0.09907075, -1552813.3, -30026.285, 0.0045741852, 9.999672, 9.999553 
1.5250306e+3, 1.5461023e+2, -1433205.5, -1441548.8, -46007.137, 0.09812168, -0.15719764, -1391181.3, 33626.984, 0.0012060112, 9.999948, 9.999847 
1.5250425e+3, 1.6460954e+2, -1417329.1, -1400863.4, 21012.66, 0.0089595495, -0.19170783, -1386528.3, -59713.855, 0.000118081814, 9.999477, 9.9996805 
1.5250552e+3, 1.7461069e+2, -1420820.5, -1329963.3, 19245.041, -0.0643329, -0.09312168, -1326055.0, -97250.805, 0.0000008766353, 9.998698, 9.999864 
1.525068e+3, 1.8461064e+2, -1334031.9, -1331597.6, -18959.395, -0.017734243, -0.035450663, -1313816.4, -183011.17, 0.0, 9.998989, 9.999059 
1.525081e+3, 1.9460903e+2, -967599.9, -1090871.9, -18880.791, 0.12636237, -0.14468738, -964772.9, 68048.586, 0.0, 10.000779, 9.999169 
1.5250933e+3, 2.046079e+2, -796806.94, -1010993.9, 70263.41, 0.144112, -0.14051951, -775814.7, 159017.47, 0.0, 10.001497, 9.9987 
1.5251051e+3, 2.146073e+2, -758640.8, -922791.06, 62882.242, 0.015923474, -0.11999898, -737321.06, 99516.234, 0.0, 10.001011, 9.998863 
1.5251173e+3, 2.2460647e+2, -685719.75, -897230.9, 35116.24, -0.0067033274, -0.053400993, -680041.94, 58802.887, 0.0, 10.001099, 9.99833 
1.5251298e+3, 2.3460525e+2, -464514.25, -723281.2, 26154.482, 0.08829961, -0.051109064, -461897.2, 178959.33, 0.0, 10.001879, 9.998468 
1.5251425e+3, 2.4460308e+2, -346538.03, -615007.3, 103116.914, 0.08915037, -0.105927974, -311503.56, 231371.81, 0.0, 10.00203, 9.998457 
1.5251547e+3, 2.545997e+2, -305823.56, -523574.3, 82082.32, -0.0175226, -0.33949214, -278348.8, 166554.83, 0.0000003530132, 10.001547, 9.99864 
1.5251674e+3, 2.6459798e+2, -219919.69, -489764.38, 41335.09, -0.005855981, -0.34198448, -213729.92, 133188.48, 0.000008619123, 10.001689, 9.998147 
1.5251805e+3, 2.7459812e+2, 7116.105, -306059.9, 24389.012, 0.13345653, -0.19314487, 9004.052, 257922.63, 0.000051931653, 10.002497, 9.998334 
1.525193e+3, 2.8459668e+2, 110948.95, -270264.06, 68270.85, 0.16203324, -0.13320084, 122806.64, 273739.06, 0.00023518385, 10.002796, 9.997779 
1.5252048e+3, 2.9459327e+2, 172784.42, -178266.52, 30922.977, 0.07284015, -0.30808017, 175487.52, 228451.27, 0.000791527, 10.002493, 9.997882 
1.5252176e+3, 3.0459136e+2, 210460.45, -174557.88, 12564.572, 0.106944606, -0.25295296, 210870.05, 210870.05, 0.001847163, 10.002607, 9.997526 
1.5252304e+3, 3.1458914e+2, 401175.34, 120487.71, -43665.637, 0.20545419, -0.29001728, 407811.38, 407811.38, 0.0032816848, 10.002983, 9.9993725 
1.5349928e+3, 1.2459653e+2, -1892961.0, -1859798.8, -180591.11, -0.08485972, -0.13066505, -1695029.1, 23909.684, 0.018294634, 9.998954, 9.999484 
1.5350041e+3, 1.3459572e+2, -1689659.1, -1662805.4, -49737.867, -0.10710641, -0.24590972, -1624713.9, -3764.3618, 0.011016667, 9.999549, 9.999869 
1.5350176e+3, 1.4459549e+2, -1547905.1, -1548161.4, -59758.035, 0.015363417, -0.23388325, -1488275.0, 34678.18, 0.0048880493, 9.999819, 9.999861 
1.5350299e+3, 1.5459712e+2, -1414801.8, -1384987.1, -24174.877, -0.01769375, -0.13044137, -1371492.8, 53444.355, 0.0013030368, 9.999877, 10.000273 
1.5350422e+3, 1.6459802e+2, -1382748.9, -1346915.6, -28472.213, -0.008112069, -0.046208333, -1331191.9, -4263.3037, 0.00013086536, 9.999541, 10.000024 
1.5350547e+3, 1.74598e+2, -1403180.3, -1285871.5, 1967.8817, 0.0062490758, -0.09847036, -1285838.5, -56908.832, 0.0000010420176, 9.998667, 10.000181 
1.5350679e+3, 1.845979e+2, -1297790.5, -1261683.1, 24286.627, 0.032557707, -0.08284565, -1249475.0, -118544.46, 0.0, 9.999006, 9.999533 
1.5350817e+3, 1.9459751e+2, -942202.7, -1018333.5, 60009.113, 0.102780305, -0.120642, -909204.25, 123729.336, 0.0, 10.0006895, 9.999711 
1.5350947e+3, 2.0459704e+2, -809234.3, -993358.6, 37913.875, 0.089092724, -0.092216656, -801732.94, 133203.95, 0.0, 10.001314, 9.998906 
1.535106e+3, 2.145963e+2, -785685.56, -919120.44, 57840.242, -0.02668141, -0.101603635, -764104.0, 72837.984, 0.0, 10.000761, 9.999005 
1.5351184e+3, 2.2459477e+2, -709029.6, -886643.25, 46618.453, -0.030242555, -0.120094344, -697537.25, 41417.32, 0.0, 10.000841, 9.998527 
1.5351324e+3, 2.3459218e+2, -481591.3, -705819.06, 72638.43, 0.114740774, -0.28116634, -460116.78, 180860.69, 0.0, 10.001646, 9.998704 
1.5351452e+3, 2.4459073e+2, -399069.34, -656958.4, 70832.27, 0.13103306, -0.270213, -380895.2, 162095.17, 0.0, 10.001752, 9.998297 
1.5351568e+3, 2.5459054e+2, -354153.75, -572478.8, 80619.65, 0.02134955, -0.16608015, -327610.78, 117381.43, 0.0000004707298, 10.001339, 9.9984 
1.5351693e+3, 2.6458958e+2, -240799.25, -487043.8, 50449.71, -0.015185277, -0.086369194, -230864.14, 116136.56, 0.0000086272985, 10.001488, 9.998262 
1.5351824e+3, 2.7458745e+2, -14077.97, -303326.8, 67356.14, 0.03269024, -0.17462459, 837.80133, 249857.14, 0.000052741245, 10.002296, 9.99845 
1.5351945e+3, 2.845845e+2, 40712.473, -364354.4, 41286.75, 0.0044926573, -0.24772522, 44877.824, 195924.83, 0.00024875673, 10.002563, 9.9972515 
1.5352058e+3, 2.9458067e+2, 99855.55, -276663.7, 46392.246, -0.10993252, -0.41230825, 105487.46, 158571.4, 0.00082812813, 10.002261, 9.997318 
1.5352196e+3, 3.0457968e+2, 173266.23, -193223.13, 11130.63, 0.010862429, -0.23377499, 173603.97, 173603.97, 0.0018929114, 10.002365, 9.99751 
1.5352347e+3, 3.1457868e+2, 284463.03, -4385.332, 25894.332, 0.27922434, -0.15943119, 286766.03, 286766.03, 0.0033080075, 10.002498, 9.998736 
1.5449935e+3, 1.2458519e+2, -1744778.5, -1753653.5, -28799.865, 0.06589438, -0.07957377, -1720076.3, -1024.6277, 0.019406972, 9.999827, 9.999779 
1.5450047e+3, 1.3458335e+2, -1616590.6, -1635632.0, 73790.98, -0.007814293, -0.29865408, -1551708.8, 69360.19, 0.0117135905, 10.000054, 9.999818 
1.5450169e+3, 1.4458309e+2, -1637710.4, -1589233.4, 98125.73, -0.005530711, -0.2880978, -1512396.9, 10674.438, 0.0052204016, 9.999213, 9.9998665 
1.5450296e+3, 1.5458502e+2, -1446951.5, -1394561.6, 82105.8, -0.005408942, -0.15785444, -1334573.4, 90479.06, 0.0014059248, 9.999619, 10.000339 
1.5450425e+3, 1.6458589e+2, -1355451.9, -1355067.3, 60200.207, 0.051994324, -0.07200116, -1295059.0, 31985.54, 0.00014487762, 9.999825, 9.999826 
1.5450548e+3, 1.7458554e+2, -1231629.5, -1229731.6, 15261.08, 0.080190554, -0.13899565, -1215390.0, 13659.136, 0.000001197513, 9.999938, 9.999958 
1.545068e+3, 1.8458538e+2, -1155276.0, -1194644.9, 85463.84, 0.104602486, -0.1159087, -1087259.0, 43792.4, 0.0, 10.000017, 9.999494 
1.5450826e+3, 1.9458543e+2, -986637.5, -1038158.9, 53244.934, 0.14576207, -0.10852151, -953248.94, 79802.086, 0.0, 10.000404, 9.999705 
1.5450959e+3, 2.0458496e+2, -880993.1, -1016269.6, -5491.0107, 0.1302054, -0.08481698, -880770.56, 54283.855, 0.0, 10.000779, 9.999008 
1.5451074e+3, 2.1458372e+2, -709715.44, -870919.9, -25240.512, 0.03007606, -0.15076545, -705855.8, 131207.72, 0.0, 10.001235, 9.999112 
1.5451202e+3, 2.2458218e+2, -600862.56, -811927.4, 11552.615, 0.027795468, -0.18615723, -600232.06, 138843.84, 0.0, 10.001513, 9.998703 
1.5451342e+3, 2.3458013e+2, -460637.53, -669516.06, -5652.678, 0.13599063, -0.3096635, -460484.7, 180608.66, 0.0, 10.001712, 9.998905 
1.5451472e+3, 2.4457888e+2, -360128.97, -657898.3, 4222.2744, 0.15263796, -0.27939004, -360069.13, 183035.31, 0.000000000009610117, 10.002071, 9.9981575 
1.5451594e+3, 2.5457853e+2, -180406.56, -508142.88, -8264.338, 0.072950095, -0.17415497, -180198.3, 264910.5, 0.0000005675007, 10.002583, 9.998267 
1.5451719e+3, 2.645774e+2, -82653.24, -414726.66, -4247.9106, 0.043961722, -0.10158236, -82598.91, 264520.22, 0.000008574752, 10.002611, 9.998219 
1.5451847e+3, 2.74575e+2, -39589.805, -331062.97, -35923.207, 0.051716633, -0.20688637, -35227.656, 213912.31, 0.00005426492, 10.002172, 9.998335 
1.5451969e+3, 2.8457195e+2, 2275.561, -362816.53, -14750.1455, 0.010163155, -0.2880522, 2870.5146, 154038.45, 0.00026286932, 10.002245, 9.997384 
1.5452084e+3, 2.945684e+2, 208583.22, -207107.69, -5925.825, -0.10622381, -0.43781695, 208667.67, 261870.0, 0.0008685198, 10.002962, 9.997433 
1.5452223e+3, 3.045676e+2, 332590.25, -117474.93, 22041.467, 0.0038259863, -0.2506867, 333667.13, 333667.13, 0.0019599411, 10.003451, 9.997519 
1.5452375e+3, 3.145672e+2, 374439.25, -38076.93, -40153.137, 0.2670292, -0.10163617, 378311.3, 378311.3, 0.003393183, 10.003436, 9.998057 
1.5549913e+3, 1.2457542e+2, -1651829.3, -1589220.1, -17126.324, -0.21678111, -0.05386314, -1584841.6, 134305.13, 0.020587768, 9.9999695, 10.000853 
1.5550059e+3, 1.345743e+2, -1625532.3, -1633557.3, 46908.016, 0.05779914, -0.20075221, -1582465.4, 38688.137, 0.012455585, 9.999981, 9.99987 
1.5550157e+3, 1.4457527e+2, -1639216.9, -1609556.4, 76994.69, -0.0848001, -0.062359363, -1545976.6, -22835.033, 0.0055746003, 9.999274, 9.9997015 
1.5550295e+3, 1.5457411e+2, -1469555.1, -1434221.6, 113526.7, -0.0071164654, -0.22205253, -1336995.3, 88157.39, 0.001515748, 9.9995985, 10.0000725 
1.5550426e+3, 1.6457346e+2, -1387064.5, -1442623.6, 47768.074, 0.041209035, -0.241677, -1359585.6, -32425.781, 0.00016035176, 9.999909, 9.99919 
1.5550546e+3, 1.745734e+2, -1283896.1, -1327847.4, 29712.895, 0.040705748, -0.20632194, -1268915.3, -39752.91, 0.0000013687348, 9.999894, 9.999309 
1.555068e+3, 1.8457325e+2, -1198383.3, -1275472.6, 81222.46, 0.06268533, -0.12651195, -1147023.6, -15857.424, 0.0, 9.999983, 9.998953 
1.5550831e+3, 1.9457279e+2, -1049779.3, -1134056.0, 83406.81, 0.12336707, -0.1143565, -998470.7, 34702.77, 0.0, 10.000262, 9.999111 
1.555097e+3, 2.0457163e+2, -900128.7, -1031016.8, -5156.9814, 0.12258936, -0.121967815, -899925.8, 35258.875, 0.0, 10.000655, 9.998976 
1.5551093e+3, 2.1456967e+2, -736119.75, -882936.44, 7587.988, 0.06313064, -0.2620812, -735728.6, 101472.336, 0.0, 10.001036, 9.999135 
1.5551218e+3, 2.2456875e+2, -631251.56, -821426.5, 3697.6519, 0.02123353, -0.23854737, -631179.7, 108028.164, 0.0, 10.001277, 9.998753 
1.555135e+3, 2.3456886e+2, -488349.7, -688273.75, 17073.09, 0.019582588, -0.14915502, -486902.2, 154303.78, 0.0, 10.001532, 9.998869 
1.5551479e+3, 2.4456736e+2, -397576.28, -678516.1, 9991.442, 0.005624476, -0.14061764, -397221.4, 145997.8, 0.0, 10.001826, 9.998133 
1.5551613e+3, 2.545639e+2, -213685.55, -522858.0, 27103.568, 0.0057412214, -0.34909692, -211327.5, 233923.72, 0.0000005355393, 10.002351, 9.998276 
1.5551744e+3, 2.6456165e+2, -139075.16, -477200.2, -30879.346, 0.024330575, -0.37259173, -136278.22, 210993.36, 0.000008556659, 10.0023775, 9.997899 
1.5551871e+3, 2.7456075e+2, -94204.61, -396288.72, -28804.277, 0.06509468, -0.29795057, -91482.59, 157796.86, 0.000056489618, 10.001968, 9.997979 
1.5551998e+3, 2.84559e+2, 9297.7295, -296082.75, -3640.466, 0.03209228, -0.2568083, 9341.122, 160636.31, 0.00027893353, 10.002027, 9.997945 
1.5552118e+3, 2.9455626e+2, 215933.03, -125615.35, 40412.15, -0.08206738, -0.3945043, 220649.48, 273970.03, 0.0009153457, 10.002688, 9.998118 
1.5552251e+3, 3.0455497e+2, 279686.6, -155639.9, 4421.835, -0.07886596, -0.28914842, 279731.5, 279731.5, 0.0020537302, 10.003159, 9.99739 
1.5552378e+3, 3.1455445e+2, 244701.6, -180835.48, -3406.316, -0.087073445, -0.14164495, 244728.84, 244728.84, 0.003546435, 10.002924, 9.997309 
1.564991e+3, 1.2456349e+2, -1820458.4, -1632692.9, -66694.9, -0.17312044, -0.06470825, -1611414.1, 107848.69, 0.021849003, 9.998639, 10.001211 
1.565006e+3, 1.345621e+2, -1745398.4, -1691250.9, -125039.47, 0.13279557, -0.22523233, -1590387.8, 30883.766, 0.013250772, 9.999144, 9.999898 
1.5650158e+3, 1.4456354e+2, -1620022.5, -1591524.1, -34867.72, -0.008328047, -0.053658087, -1568106.4, -44851.79, 0.0059556314, 9.999366, 9.999782 
1.5650293e+3, 1.54562e+2, -1512723.1, -1460259.3, -16305.651, 0.04606716, -0.25023812, -1455604.4, -30335.568, 0.0016345053, 9.999316, 10.000028 
1.5650423e+3, 1.6456097e+2, -1445909.1, -1487689.8, -5132.8335, 0.047920574, -0.29770023, -1445287.8, -118008.94, 0.00017771397, 9.999578, 9.999044 
1.565055e+3, 1.7456068e+2, -1165316.8, -1285288.3, -9087.274, 0.048708457, -0.27143005, -1164632.4, 64650.168, 0.0000016137079, 10.000763, 9.999186 
1.5650687e+3, 1.8456034e+2, -1044631.06, -1242603.0, 79047.805, 0.092229955, -0.18593146, -1016941.1, 114347.29, 0.0, 10.001203, 9.998594 
1.5650839e+3, 1.9455977e+2, -976025.06, -1143276.9, 65605.336, 0.15004727, -0.15177514, -953361.94, 79936.81, 0.0, 10.000933, 9.998733 
1.5650977e+3, 2.0455872e+2, -892368.1, -1000768.75, 30917.377, 0.14782806, -0.13976553, -884170.06, 51140.16, 0.0, 10.000641, 9.999165 
1.5651101e+3, 2.1455716e+2, -769170.8, -864057.6, 24331.658, 0.07756359, -0.2632744, -763295.3, 74027.26, 0.0, 10.000708, 9.999394 
1.5651232e+3, 2.2455639e+2, -648271.06, -857332.9, 66531.67, 0.03790554, -0.22847667, -628894.06, 110434.79, 0.0, 10.001255, 9.998528 
1.5651369e+3, 2.345564e+2, -382592.38, -657147.9, 39224.246, 0.039177533, -0.12452934, -377098.56, 264230.44, 0.0, 10.002336, 9.998694 
1.5651503e+3, 2.445548e+2, -299771.8, -646504.5, 20000.83, 0.03637363, -0.112471625, -298621.9, 244722.16, 0.0, 10.00255, 9.998009 
1.5651634e+3, 2.545511e+2, -311183.25, -580050.8, -3938.7888, 0.024337608, -0.32893857, -311125.56, 134252.6, 0.00000039469393, 10.001725, 9.998179 
1.5651767e+3, 2.6454872e+2, -198962.98, -521908.47, -7943.7344, 0.03886633, -0.35982135, -198767.7, 148632.73, 0.000008163994, 10.002029, 9.99776 
1.5651901e+3, 2.7454764e+2, 135167.08, -300032.97, -28919.947, 0.07811766, -0.28804216, 137080.45, 386490.78, 0.000058543963, 10.003607, 9.9978485 
1.5652029e+3, 2.8454602e+2, 242247.38, -232781.7, -27266.572, 0.073456444, -0.20643283, 243807.34, 395233.47, 0.00029613846, 10.00382, 9.997543 
1.5652154e+3, 2.945437e+2, 162818.23, -198318.64, -100848.91, 0.023991024, -0.24795577, 189072.1, 242521.6, 0.00096601865, 10.0025015, 9.997734 
1.5652286e+3, 3.045414e+2, 216710.25, -128121.61, -77541.45, -0.0076352456, -0.2482687, 233344.39, 233344.39, 0.0021659639, 10.002461, 9.9979105 
1.5652406e+3, 3.1454068e+2, 393028.6, -76172.6, -104420.055, -0.13352159, -0.1706597, 415217.78, 415217.78, 0.0037513892, 10.003743, 9.997653 
1.574992e+3, 1.24548785e+2, -1825152.1, -1665837.0, -67339.305, -0.01741993, -0.14649837, -1641187.8, 78218.04, 0.023204513, 9.99872, 10.00095 
1.5750045e+3, 1.3454728e+2, -1734960.4, -1670869.1, -90758.73, 0.03787103, -0.3220548, -1606664.6, 14753.544, 0.014108494, 9.999148, 10.0000305 
1.5750165e+3, 1.4454824e+2, -1570598.8, -1522260.5, -54040.69, 0.08598894, -0.23584378, -1487230.5, 36176.29, 0.0063687824, 9.999505, 10.000194 
1.5750287e+3, 1.545487e+2, -1510654.6, -1445378.8, -9448.593, 0.040050182, -0.2404903, -1444038.6, -18637.893, 0.00176415, 9.99928, 10.000146 
1.575041e+3, 1.6454846e+2, -1410246.8, -1425695.3, 16066.208, -0.075764894, -0.23599645, -1400144.4, -72743.02, 0.00019721544, 9.999621, 9.999451 
1.5750551e+3, 1.7454742e+2, -1140320.6, -1227255.4, 50495.324, -0.02874384, -0.33212793, -1117160.8, 112248.734, 0.0000019795527, 10.000734, 9.9995985 
1.5750699e+3, 1.8454684e+2, -1048149.3, -1254058.1, 54623.438, 0.04866152, -0.28868046, -1034556.1, 96860.49, 0.0, 10.001214, 9.998512 
1.5750845e+3, 1.9454665e+2, -1007496.9, -1175134.0, 67497.875, 0.09958474, -0.19760859, -983698.0, 49726.4, 0.0, 10.000792, 9.998582 
1.5750977e+3, 2.045464e+2, -889181.06, -964079.5, 14707.673, 0.05785956, -0.115714006, -886396.5, 49032.438, 0.0, 10.0005, 9.999487 
1.5751098e+3, 2.1454595e+2, -776737.4, -837337.5, 38164.773, -0.055373587, -0.16026627, -758307.1, 79123.53, 0.0, 10.000519, 9.999674 
1.5751237e+3, 2.2454482e+2, -701368.44, -916355.75, 92242.15, -0.06166036, -0.16026567, -667216.44, 72224.38, 0.0, 10.001037, 9.998226 
1.5751398e+3, 2.3454282e+2, -444568.47, -726228.9, 92938.37, 0.06539783, -0.22869617, -416666.1, 224796.03, 0.0, 10.002081, 9.9983425 
1.5751538e+3, 2.4454123e+2, -358870.56, -704149.6, -23819.574, 0.09507704, -0.18437137, -357235.1, 186243.7, 0.0, 10.002268, 9.997746 
1.5751652e+3, 2.5454003e+2, -359154.72, -637895.0, -20219.55, 0.011774448, -0.12796855, -357695.66, 87795.516, 0.00000029448665, 10.00154, 9.9978695 
1.5751784e+3, 2.6453826e+2, -233887.77, -548978.44, 32253.018, -0.034400877, -0.07202807, -230620.2, 116887.74, 0.000007127328, 10.001832, 9.997671 
1.5751927e+3, 2.7453545e+2, 99283.36, -319046.78, 48873.227, -0.045259405, -0.17192791, 104917.31, 354450.75, 0.000059012113, 10.003369, 9.997833 
1.575206e+3, 2.8453287e+2, 111371.33, -451667.2, -88253.766, -0.02293398, -0.124383844, 124880.58, 276441.44, 0.00030982727, 10.003585, 9.996152 
1.5752186e+3, 2.945308e+2, 20014.54, -434391.63, -119706.99, 0.056761056, 0.0010840232, 49620.734, 103208.45, 0.0010139557, 10.002242, 9.996236 
1.5752319e+3, 3.04527e+2, 250369.45, 8656.222, -40696.824, 0.04922908, -0.12044818, 257037.56, 257037.56, 0.002281504, 10.002197, 9.9989605 
1.5752444e+3, 3.145257e+2, 401406.25, 90573.7, -5468.7007, -0.18001825, -0.22698253, 401502.44, 401502.44, 0.003972573, 10.003143, 9.999062 
1.5849909e+3, 1.2453545e+2, -1881247.3, -1683241.0, 86493.336, 0.059872355, -0.22290282, -1650780.4, 68752.39, 0.024665277, 9.99831, 10.001003 
1.5850034e+3, 1.3453443e+2, -1752977.6, -1686898.1, 35847.668, 0.03190863, -0.34183374, -1671186.6, -49644.402, 0.0150364665, 9.999058, 9.99995 
1.5850168e+3, 1.4453557e+2, -1519497.1, -1540874.4, 24517.03, 0.149373, -0.2217056, -1503440.1, 20090.828, 0.0068181083, 10.000046, 9.999804 
1.5850294e+3, 1.5453546e+2, -1385010.1, -1440886.9, -21451.791, 0.12954995, -0.2316292, -1377724.5, 47807.14, 0.0019058621, 10.000376, 9.999652 
1.5850416e+3, 1.64535e+2, -1295677.4, -1367016.1, 17973.691, -0.008303003, -0.2227077, -1291404.9, 36129.625, 0.0002187055, 10.000393, 9.999481 
1.5850557e+3, 1.7453405e+2, -1163604.6, -1227178.8, -6416.205, -0.022999413, -0.31686792, -1162963.5, 66577.19, 0.000002466339, 10.000532, 9.999694 
1.5850706e+3, 1.8453355e+2, -1130339.5, -1252610.6, -1133.681, 0.049079675, -0.28950354, -1130328.9, 1216.9465, 0.0, 10.000482, 9.998873 
1.5850854e+3, 1.9453338e+2, -1014255.44, -1133394.4, 17993.967, 0.11726859, -0.23474249, -1011597.06, 21954.438, 0.0, 10.000553, 9.998978 
1.5850987e+3, 2.0453319e+2, -871581.3, -988307.4, 13425.222, 0.09010824, -0.15369341, -870057.1, 65497.98, 0.0, 10.000734, 9.999224 
1.585111e+3, 2.1453287e+2, -696120.8, -831556.75, -31263.293, -0.012119787, -0.15594168, -689252.44, 148305.06, 0.0, 10.001178, 9.999412 
1.5851252e+3, 2.2453173e+2, -666526.6, -886060.2, 50175.703, -0.018790182, -0.15128952, -655602.25, 83967.02, 0.0, 10.001245, 9.998336 
1.5851414e+3, 2.3452948e+2, -577529.6, -783863.0, 52333.582, 0.07007782, -0.24516375, -565015.0, 76577.97, 0.0, 10.001133, 9.998424 
1.5851559e+3, 2.4452795e+2, -434243.06, -752245.06, -14649.274, 0.10447435, -0.18958901, -433569.66, 110039.95, 0.0, 10.001827, 9.997617 
1.5851684e+3, 2.5452733e+2, -76813.33, -520855.63, -40147.906, 0.06542667, -0.059164774, -73212.57, 372405.1, 0.00000023115544, 10.003574, 9.997693 
1.5851815e+3, 2.6452532e+2, -5101.771, -468381.1, 14339.692, 0.029540954, -0.0014322076, -4658.3447, 342979.16, 0.0000061293663, 10.003549, 9.997388 
1.5851954e+3, 2.745214e+2, -179502.97, -479495.3, -25740.148, -0.014696493, -0.18075345, -177310.42, 72363.734, 0.000060026516, 10.001594, 9.997569 
1.5852088e+3, 2.8451893e+2, -171159.42, -533581.44, -61136.723, 0.01004521, -0.13359985, -161124.17, -9424.015, 0.0003212461, 10.001419, 9.996619 
1.585222e+3, 2.9451817e+2, 213122.3, -282053.1, 5005.2515, 0.1265716, 0.069029555, 213172.88, 266885.66, 0.001056996, 10.003307, 9.996758 
1.5852353e+3, 3.0451384e+2, 431993.2, 37633.15, 124508.54, 0.11678916, -0.10536301, 468013.38, 468013.38, 0.0023867078, 10.003666, 9.998484 
1.585248e+3, 3.1451127e+2, 227211.97, 5121.271, -39744.453, -0.06269195, -0.2777173, 234110.2, 234110.2, 0.004167416, 10.001912, 9.999096 
1.5949883e+3, 1.2452437e+2, -1828284.8, -1639566.5, -14787.258, -0.13008933, -0.26020235, -1638414.9, 81219.85, 0.026239868, 9.998535, 10.001224 
1.5950029e+3, 1.3452367e+2, -1796392.4, -1774395.1, 109195.984, 0.0439672, -0.30320835, -1675645.3, -54002.31, 0.016040104, 9.999051, 9.999351 
1.5950158e+3, 1.4452536e+2, -1587006.8, -1722533.0, 24163.176, -0.0021045126, -0.02505385, -1582827.5, -59199.074, 0.0073062, 10.000203, 9.99849 
1.5950306e+3, 1.5452243e+2, -1457211.0, -1603608.0, 1345.6813, 0.17500637, -0.20850596, -1457198.6, -31539.027, 0.002060233, 10.000419, 9.99852 
1.5950435e+3, 1.6452092e+2, -1308181.1, -1413035.4, 1232.7954, 0.10934141, -0.2296231, -1308166.6, 19508.342, 0.00024185247, 10.000476, 9.9991255 
1.5950564e+3, 1.7452076e+2, -1194693.5, -1281895.6, 10931.423, -0.04334767, -0.21034268, -1193344.1, 36330.664, 0.0000030340082, 10.000492, 9.999336 
1.5950705e+3, 1.8452047e+2, -1072175.0, -1133553.5, -15309.551, -0.048665676, -0.18436679, -1068568.4, 63107.832, 0.0, 10.000484, 9.999688 
1.5950857e+3, 1.9451986e+2, -974156.1, -1017465.9, 34800.918, 0.074010454, -0.25888798, -954822.75, 78857.484, 0.0, 10.000422, 9.999834 
1.5950999e+3, 2.0451918e+2, -943381.7, -1105923.0, 14478.562, 0.10742418, -0.23772316, -942102.06, -6414.424, 0.0, 10.000598, 9.99848 
1.5951131e+3, 2.1451817e+2, -790174.06, -966219.44, -1823.7592, 0.07853198, -0.22971718, -790155.1, 47545.527, 0.0, 10.000926, 9.998603 
1.5951271e+3, 2.245173e+2, -671421.6, -844363.1, 32194.393, 0.023724094, -0.1752676, -665622.8, 74088.83, 0.0, 10.001009, 9.998738 
1.5951413e+3, 2.3451647e+2, -580392.3, -738243.8, 68105.65, -0.06908326, -0.17744516, -555070.0, 86651.09, 0.0, 10.000906, 9.998847 
1.5951562e+3, 2.4451517e+2, -483722.2, -792882.9, 38306.61, -0.07411275, -0.1162013, -479046.5, 64688.688, 0.0, 10.001565, 9.997459 
1.595172e+3, 2.5451308e+2, -131338.42, -560774.1, 42776.406, 0.053874135, -0.11391418, -127118.88, 318637.84, 0.00000009760233, 10.003276, 9.997551 
1.595186e+3, 2.6451e+2, -82257.54, -574343.75, -65721.43, 0.09669658, -0.13068423, -73631.22, 274156.78, 0.0000054247644, 10.003305, 9.996779 
1.5951976e+3, 2.7450567e+2, -254774.95, -590900.75, -76067.734, 0.03237773, -0.29651666, -238361.73, 11469.478, 0.0000627863, 10.001391, 9.996903 
1.5952106e+3, 2.8450406e+2, -59116.95, -239431.73, -10480.205, 0.022814972, -0.22488573, -58509.867, 93335.77, 0.0003316825, 10.0011635, 9.998759 
1.595225e+3, 2.945053e+2, 328227.2, 34099.207, 100191.06, 0.07544801, -0.050368365, 359112.8, 412942.44, 0.0010854187, 10.002985, 9.999086 
1.5952384e+3, 3.0450162e+2, 237048.63, -278458.34, 47389.36, 0.031282652, -0.18787678, 241368.81, 241368.81, 0.0024519642, 10.003306, 9.996475 
1.5952504e+3, 3.1449735e+2, 57076.07, -224942.0, -55976.297, -0.05937249, -0.3125455, 67780.23, 67780.23, 0.004279934, 10.001419, 9.99774 
1.6049872e+3, 1.24510735e+2, -1838482.0, -1668796.3, -117972.086, -0.08256721, -0.27715963, -1608326.6, 111438.836, 0.027939666, 9.998624, 10.000981 
1.605003e+3, 1.345104e+2, -1608154.9, -1709707.0, -54939.957, 0.10084087, -0.2539461, -1584120.5, 37651.605, 0.01712635, 10.000498, 9.999089 
1.6050157e+3, 1.4451106e+2, -1514871.3, -1684438.1, -79247.03, -0.060802817, -0.057305057, -1483601.6, 40166.566, 0.007836914, 10.000716, 9.998486 
1.6050309e+3, 1.5450843e+2, -1380944.8, -1547395.4, -53008.785, 0.14782801, -0.22644806, -1365497.0, 60298.79, 0.0022287087, 10.000874, 9.998673 
1.6050448e+3, 1.6450709e+2, -1290758.9, -1404044.1, 30422.97, 0.18614663, -0.23661593, -1283105.8, 44703.46, 0.00026665046, 10.000618, 9.999108 
1.605058e+3, 1.7450707e+2, -1218374.8, -1293455.8, 31066.314, 0.0788288, -0.20099178, -1207187.4, 22621.273, 0.0000036433328, 10.000348, 9.99932 
1.6050717e+3, 1.8450661e+2, -1133085.0, -1181639.9, 16073.755, 0.05301808, -0.17884196, -1128246.1, 3565.5044, 0.0, 10.000137, 9.999525 
1.605086e+3, 1.9450548e+2, -996114.3, -1045543.9, -40238.2, 0.084845886, -0.2965078, -973606.94, 60213.58, 0.0, 10.0003195, 9.999694 
1.6051003e+3, 2.0450452e+2, -957386.44, -1098562.4, -31306.031, 0.1135687, -0.2991079, -950755.7, -14925.489, 0.0, 10.000463, 9.998593 
1.6051146e+3, 2.1450374e+2, -799580.44, -952641.06, -11948.627, 0.14230096, -0.27908215, -798653.3, 39187.9, 0.0, 10.000803, 9.99875 
1.6051286e+3, 2.2450316e+2, -654460.8, -836882.75, 65814.06, 0.08970342, -0.2001548, -633195.44, 106654.016, 0.0, 10.001125, 9.998724 
1.6051424e+3, 2.3450285e+2, -484443.0, -680495.9, 35761.61, -0.07598064, -0.15360633, -478123.5, 163730.75, 0.0, 10.001533, 9.998914 
1.6051574e+3, 2.4450165e+2, -453100.13, -751251.5, 53650.086, -0.088727824, -0.0994483, -443740.06, 100127.25, 0.0, 10.001651, 9.997714 
1.6051748e+3, 2.544991e+2, -372194.84, -648315.44, 63175.906, 0.102667585, -0.16376741, -358426.8, 87465.74, 0.000000007673713, 10.001479, 9.997826 
1.6051893e+3, 2.6449624e+2, -241099.33, -590390.7, 1978.5846, 0.17959741, -0.20046562, -241088.13, 106832.74, 0.0000049768487, 10.001945, 9.997334 
1.6052006e+3, 2.7449307e+2, 36742.92, -393276.0, 28686.188, 0.111958474, -0.29754075, 38648.113, 288599.7, 0.00006482946, 10.003129, 9.997446 
1.6052134e+3, 2.844915e+2, 246152.2, -116785.234, 127337.53, 0.094896145, -0.2379853, 286371.88, 438337.28, 0.00033743004, 10.003324, 9.998584 
1.6052282e+3, 2.944916e+2, 229684.52, -35403.105, 18906.021, 0.12734938, -0.16055954, 231026.11, 284988.44, 0.0010902431, 10.002382, 9.998909 
1.6052414e+3, 3.0448854e+2, 103513.805, -331688.88, -40086.55, 0.079447985, -0.23270868, 107175.37, 107175.37, 0.0024554476, 10.002326, 9.996577 
1.6052541e+3, 3.144852e+2, 360306.63, -17682.254, -58856.86, 0.0986009, -0.27315968, 369259.22, 369259.22, 0.004280209, 10.003206, 9.998313 
1.6149877e+3, 1.2449316e+2, -1862648.5, -1781719.1, 85143.06, 0.022661943, -0.41609028, -1727914.4, -7976.071, 0.02978273, 9.998878, 10.000077 
1.6150036e+3, 1.3449511e+2, -1599594.6, -1704946.4, -11778.638, 0.070053704, -0.1569718, -1598293.8, 23630.576, 0.018308382, 10.000542, 9.999109 
1.6150156e+3, 1.4449312e+2, -1409687.5, -1488703.1, -94171.45, -0.20474254, -0.28379697, -1347072.3, 176873.22, 0.008418617, 10.00081, 9.999791 
1.6150299e+3, 1.5449347e+2, -1288376.5, -1354071.8, -31662.805, -0.07809189, -0.2861361, -1275600.6, 150339.17, 0.0024150687, 10.000873, 10.000003 
1.6150448e+3, 1.644935e+2, -1246004.6, -1350875.6, -566.8021, 0.07342928, -0.2467532, -1246001.6, 81936.46, 0.0002938315, 10.000771, 9.999404 
1.6150601e+3, 1.7449296e+2, -1200361.6, -1262387.8, 31531.15, 0.2244597, -0.28697598, -1187147.8, 42794.72, 0.000004294035, 10.000357, 9.9995365 
1.6150738e+3, 1.8449196e+2, -1208865.1, -1342162.1, 6548.2466, 0.20838839, -0.27610424, -1208544.3, -76591.64, 0.0, 10.000154, 9.998411 
1.615086e+3, 1.9449025e+2, -1091671.5, -1224601.1, -19281.936, 0.026639054, -0.33642665, -1088931.1, -54959.664, 0.0, 10.000237, 9.998505 
1.6150996e+3, 2.0448935e+2, -918904.3, -981096.25, -37666.742, -0.033998452, -0.31285098, -901156.2, 34825.05, 0.0, 10.0003, 9.9994755 
1.6151148e+3, 2.1448946e+2, -763874.8, -829513.8, 13747.608, 0.06502162, -0.303315, -761111.75, 76868.25, 0.0, 10.000595, 9.999694 
1.6151297e+3, 2.2448926e+2, -725514.94, -915487.1, 64928.28, 0.05277703, -0.21729344, -705444.4, 34538.918, 0.0, 10.000839, 9.998318 
1.6151439e+3, 2.3448853e+2, -553819.06, -765607.0, 67654.234, -0.08714798, -0.16619033, -534052.3, 107941.08, 0.0, 10.001289, 9.998444 
1.6151594e+3, 2.4448726e+2, -439337.9, -675431.2, 31769.0, -0.093113326, -0.12305495, -435137.75, 108869.56, 0.0, 10.001436, 9.998341 
1.6151762e+3, 2.5448528e+2, -360437.9, -568050.1, 75607.46, 0.07762254, -0.2100235, -335822.06, 110204.2, 0.00000000987263, 10.001236, 9.998494 
1.6151911e+3, 2.6448393e+2, -183179.67, -398086.66, 26487.549, 0.1360008, -0.20034954, -179963.19, 168074.17, 0.000004852571, 10.001644, 9.99879 
1.6152036e+3, 2.7448314e+2, 104284.14, -188858.27, 91953.47, 0.0710826, -0.21215379, 130740.56, 380781.2, 0.00006465758, 10.002872, 9.9989605 
1.6152167e+3, 2.8448102e+2, 39767.223, -485180.34, 74649.195, 0.06396475, -0.17354317, 50176.18, 202238.7, 0.0003366383, 10.003061, 9.996181 
1.6152309e+3, 2.9447722e+2, 8973.119, -431026.1, 9169.877, 0.11627953, -0.23291576, 9164.143, 63271.84, 0.0010768, 10.002108, 9.9963255 
1.6152442e+3, 3.0447438e+2, 190584.72, -68001.2, -27899.31, 0.08683654, -0.23902743, 193560.58, 193560.58, 0.0024101299, 10.002001, 9.998523 
1.615258e+3, 3.1447485e+2, 432816.53, 289058.47, 39314.844, 0.0969873, -0.12839869, 442865.84, 442865.84, 0.004186122, 10.002598, 10.000686 
1.6249886e+3, 1.2447651e+2, -1749827.9, -1841802.1, 139229.08, 0.18611509, -0.40456578, -1649187.8, 70916.36, 0.03179242, 10.000162, 9.999015 
1.625003e+3, 1.3447972e+2, -1580667.3, -1577594.4, 24169.016, -0.008982718, -0.13148291, -1554913.0, 67163.25, 0.019603958, 10.000133, 10.000176 
1.6250165e+3, 1.4447744e+2, -1548527.0, -1476012.8, -14857.131, -0.11005091, -0.37950745, -1473086.9, 51011.67, 0.009062119, 9.999534, 10.000481 
1.6250308e+3, 1.5447913e+2, -1436208.5, -1343671.0, -24266.928, -0.000351041, -0.31916434, -1337693.4, 88384.73, 0.002624408, 9.999522, 10.000713 
1.6250457e+3, 1.6447979e+2, -1349487.9, -1395845.6, 21399.264, 0.11987668, -0.25235856, -1341120.1, -13050.452, 0.00032476612, 10.000044, 9.999444 
1.6250607e+3, 1.7447926e+2, -1047775.75, -1179843.1, 4162.378, 0.20311949, -0.2982072, -1047644.7, 182431.05, 0.000005034694, 10.001373, 9.999602 
1.6250744e+3, 1.844783e+2, -987723.75, -1261875.8, 14033.258, 0.17965433, -0.2764461, -987007.25, 145079.63, 0.0, 10.001793, 9.998183 
1.625087e+3, 1.9447672e+2, -935786.56, -1164676.1, 27095.273, 0.039491955, -0.2978972, -932622.8, 101482.04, 0.0, 10.001406, 9.998349 
1.6251005e+3, 2.0447591e+2, -821859.94, -942583.8, 45382.344, -0.009747571, -0.2573541, -806702.9, 129411.06, 0.0, 10.000982, 9.999418 
1.6251151e+3, 2.1447586e+2, -769151.06, -840252.06, -4269.47, 0.047232844, -0.25769538, -768895.6, 69217.84, 0.0, 10.000571, 9.999641 
1.6251303e+3, 2.2447535e+2, -727751.44, -905357.1, 80665.18, 0.06175699, -0.2033451, -696584.25, 43534.457, 0.0, 10.000759, 9.998431 
1.6251464e+3, 2.3447417e+2, -489083.06, -725348.2, 94406.47, 0.012897562, -0.20985284, -455994.3, 186138.02, 0.0, 10.001676, 9.998546 
1.625162e+3, 2.4447279e+2, -351206.5, -600934.56, 57203.773, 0.015363681, -0.19408819, -338726.8, 205419.66, 0.0, 10.001911, 9.998618 
1.6251773e+3, 2.5447115e+2, -316959.56, -516363.88, 31769.916, 0.060960818, -0.27152327, -312020.2, 134141.56, 0.000000011745934, 10.001399, 9.998769 
1.6251922e+3, 2.6447034e+2, -203194.0, -380852.9, 5685.6733, 0.09621557, -0.23258518, -203012.23, 145156.02, 0.0000048598445, 10.001393, 9.99903 
1.6252065e+3, 2.7447027e+2, -521.3618, -216397.73, -54692.44, 0.13561194, -0.19150914, 12544.234, 262710.44, 0.00006306325, 10.002041, 9.999171 
1.6252205e+3, 2.8446844e+2, -38586.125, -505039.44, -44796.23, 0.16423668, -0.14383653, -34323.043, 117863.08, 0.00033149842, 10.002473, 9.996311 
1.6252334e+3, 2.9446438e+2, 103818.31, -375624.44, 21232.328, 0.14742507, -0.23564535, 104756.76, 158990.14, 0.0010554205, 10.002728, 9.9964 
1.6252466e+3, 3.0446193e+2, 325589.56, 3051.862, 90869.914, 0.105217576, -0.21317331, 349428.75, 349428.75, 0.0023408108, 10.002894, 9.998592 
1.6252619e+3, 3.144623e+2, 460068.25, 266114.97, -58582.65, 0.24470924, -0.101150535, 476389.44, 476389.44, 0.0040329522, 10.002886, 10.00042 
1.6349883e+3, 1.24462254e+2, -1816128.8, -2013865.1, -60553.313, 0.062199406, -0.10609473, -1799059.0, -78810.36, 0.03398967, 10.000291, 9.997768 
1.6350006e+3, 1.3446414e+2, -1432043.5, -1271300.6, 25795.125, -0.31020373, -0.18177605, -1267262.5, 354966.66, 0.02102759, 10.000142, 10.00232 
1.6350186e+3, 1.4446396e+2, -1508892.6, -1439140.9, -49644.63, 0.090164095, -0.34209666, -1413346.3, 110882.2, 0.009775217, 9.999706, 10.000665 
1.635033e+3, 1.5446548e+2, -1427999.6, -1332241.9, -14411.602, 0.23742096, -0.3044527, -1330119.9, 96089.75, 0.002860367, 9.99954, 10.00079 
1.6350465e+3, 1.6446616e+2, -1350768.3, -1410938.5, 49829.0, 0.16687784, -0.23698635, -1322646.5, 5556.3096, 0.00036087315, 10.0000925, 9.999319 
1.6350593e+3, 1.7446592e+2, -1068897.0, -1213898.0, 62589.08, -0.100303754, -0.23096354, -1045618.0, 184591.23, 0.000005927034, 10.001333, 9.999388 
1.6350731e+3, 1.844655e+2, -932546.9, -1155998.4, -17705.33, -0.1660022, -0.18003829, -931152.7, 201062.86, 0.0, 10.001821, 9.9989 
1.6350883e+3, 1.9446471e+2, -895901.4, -1062868.4, 23839.447, 0.0018279173, -0.1993021, -892564.25, 141658.83, 0.0, 10.001317, 9.999096 
1.6351023e+3, 2.0446385e+2, -909058.1, -1086393.4, 14950.286, 0.05008926, -0.15617721, -907806.56, 28425.072, 0.0, 10.00082, 9.998513 
1.6351151e+3, 2.1446279e+2, -864357.1, -998535.75, -2244.5637, -0.031567357, -0.16002986, -864319.56, -26076.432, 0.0, 10.000394, 9.998645 
1.6351305e+3, 2.2446145e+2, -733714.4, -852316.1, 100698.96, -0.033308975, -0.15863444, -676152.6, 64103.37, 0.0, 10.000484, 9.998923 
1.6351491e+3, 2.3445976e+2, -487253.97, -657745.75, 144670.58, 0.09636734, -0.27752912, -404581.9, 237689.11, 0.0, 10.001407, 9.999134 
1.635165e+3, 2.4445824e+2, -409785.34, -645609.25, 25430.803, 0.09513056, -0.3032734, -407074.1, 137210.95, 0.0, 10.001591, 9.99846 
1.6351774e+3, 2.544568e+2, -360069.25, -552140.1, 31642.42, -0.076023586, -0.33999163, -354990.66, 91308.22, 0.000000006263202, 10.001186, 9.998616 
1.6351922e+3, 2.6445574e+2, -295765.9, -535678.8, 13514.119, -0.074059755, -0.27136347, -295007.06, 53304.004, 0.000005059976, 10.001215, 9.998059 
1.6352092e+3, 2.7445492e+2, -100391.945, -376642.03, -2572.3455, 0.16584188, -0.2155187, -100367.99, 149955.4, 0.000060994436, 10.001826, 9.9981785 
1.6352239e+3, 2.8445393e+2, 74892.24, -198441.06, -49761.74, 0.22246215, -0.13884899, 83669.75, 236003.83, 0.0003219481, 10.002188, 9.998545 
1.6352355e+3, 2.9445273e+2, 226501.27, -46716.06, 55533.863, 0.052123573, -0.1805459, 237357.64, 291700.06, 0.0010251604, 10.002436, 9.998789 
1.6352484e+3, 3.0445078e+2, 153515.61, -277583.06, 67995.02, -0.03234504, -0.1471439, 163985.83, 163985.83, 0.002256268, 10.002566, 9.996822 
1.6352658e+3, 3.1444776e+2, 210216.97, -130530.13, 13252.144, 0.28187525, -0.19014741, 210731.58, 210731.58, 0.0038509595, 10.002373, 9.997928 
1.644988e+3, 1.2444747e+2, -2024839.8, -2045509.1, 73781.18, 0.089352645, -0.109969735, -1960673.0, -240280.02, 0.036383986, 9.998606, 9.9983635 
1.6450004e+3, 1.3444905e+2, -1568051.5, -1275097.4, 80853.55, -0.2620234, -0.2704495, -1254263.9, 368110.44, 0.022584815, 9.998937, 10.00288 
1.6450189e+3, 1.4445046e+2, -1587121.1, -1489363.1, -33291.91, 0.18911372, -0.29600835, -1479102.4, 45255.023, 0.010560797, 9.999208, 10.0005665 
1.6450334e+3, 1.5445127e+2, -1418761.6, -1343998.9, -45713.965, 0.3193949, -0.32026687, -1322328.4, 104018.77, 0.0031241647, 9.99965, 10.000664 
1.645047e+3, 1.6445158e+2, -1401241.4, -1456200.6, 62731.76, 0.22485885, -0.27554494, -1360234.5, -31889.607, 0.0004029895, 9.999834, 9.999139 
1.6450599e+3, 1.7445141e+2, -1262942.6, -1333933.3, 47853.688, -0.110944934, -0.2392829, -1238856.9, -8505.246, 0.0000070009137, 10.000107, 9.999167 
1.645074e+3, 1.8445125e+2, -1130672.1, -1206391.4, -46514.785, -0.1808319, -0.16708815, -1108557.0, 23798.756, 0.0, 10.00029, 9.999269 
1.6450895e+3, 1.9445094e+2, -968140.25, -1052347.4, -66882.08, 0.03725954, -0.18001692, -931212.6, 103145.11, 0.0, 10.000644, 9.999474 
1.6451037e+3, 2.0445007e+2, -886971.75, -1083966.4, -27552.842, 0.11296036, -0.15347831, -883190.6, 53174.973, 0.0, 10.0010195, 9.998422 
1.6451165e+3, 2.1444847e+2, -708273.8, -927339.6, -13676.987, 0.006602932, -0.2027449, -707423.25, 130958.055, 0.0, 10.001511, 9.998574 
1.6451317e+3, 2.2444701e+2, -605987.75, -796628.75, 133142.66, 0.0011735758, -0.21129633, -537561.6, 202833.86, 0.0, 10.001379, 9.998889 
1.6451503e+3, 2.3444554e+2, -626688.56, -728707.0, 103336.69, 0.12818058, -0.29969424, -562457.1, 79952.125, 0.0, 10.0004635, 9.999112 
1.6451664e+3, 2.4444444e+2, -540249.8, -670979.06, 26508.422, 0.13111499, -0.29809538, -535079.1, 9340.358, 0.0, 10.000518, 9.99881 
1.6451792e+3, 2.5444356e+2, -247241.25, -464899.13, 38169.527, -0.04711262, -0.31243938, -240741.75, 205685.52, 0.000000005166704, 10.001799, 9.998937 
1.6451941e+3, 2.6444238e+2, -158865.98, -528568.9, 75432.875, -0.041899692, -0.2469615, -144067.3, 204374.08, 0.000005473011, 10.002431, 9.99751 
1.6452114e+3, 2.7444062e+2, -50201.676, -412571.78, 38213.313, 0.1804842, -0.22476593, -46215.78, 204249.27, 0.000058881178, 10.002466, 9.997604 
1.6452263e+3, 2.8443927e+2, 168428.47, -136510.3, -23150.676, 0.2292096, -0.15641837, 170176.03, 322655.1, 0.0003079229, 10.002746, 9.998723 
1.6452384e+3, 2.9443857e+2, 332063.75, 25923.006, -115897.62, 0.067946516, -0.1657853, 370990.25, 425471.03, 0.0009851817, 10.003061, 9.999001 
1.6452515e+3, 3.044366e+2, 260280.66, -278127.13, -95982.03, -0.007620246, -0.12694764, 276879.66, 276879.66, 0.0021653068, 10.003484, 9.996392 
1.6452691e+3, 3.144334e+2, 355809.6, -155897.83, -130676.5, 0.33405527, -0.13534968, 387249.25, 387249.25, 0.0036772275, 10.003792, 9.997064 
1.6549863e+3, 1.2443299e+2, -1805287.9, -1645804.1, 1647.0092, -0.020481614, -0.34940618, -1645787.1, 74741.73, 0.03897044, 9.998807, 10.001044 
1.6550027e+3, 1.3443483e+2, -1646665.4, -1435592.5, 109839.74, 0.04709327, -0.37193885, -1388804.6, 233703.34, 0.024272982, 9.99893, 10.001768 
1.6550167e+3, 1.4443713e+2, -1600450.9, -1532137.4, -37784.26, 0.0038227167, -0.2342032, -1515359.5, 9124.123, 0.0114189135, 9.999277, 10.000236 
1.6550313e+3, 1.5443651e+2, -1441441.6, -1394827.8, -17846.238, 0.11250981, -0.36445972, -1388779.9, 37709.945, 0.0034161112, 9.999673, 10.000302 
1.6550465e+3, 1.6443615e+2, -1398292.1, -1478387.1, 52035.426, 0.14627858, -0.3578435, -1372677.8, -44182.45, 0.00045137366, 9.999945, 9.998938 
1.6550618e+3, 1.744359e+2, -1274763.0, -1350707.4, 69869.54, 0.049401786, -0.319745, -1233213.9, -2712.1526, 0.000008273259, 10.000075, 9.999065 
1.6550764e+3, 1.8443568e+2, -1132955.1, -1216345.6, -46613.316, -0.0047286362, -0.24422811, -1112110.0, 20396.156, 0.0, 10.000299, 9.999202 
1.6550902e+3, 1.9443548e+2, -986440.7, -1071567.6, -41675.418, 0.021985868, -0.23729728, -969434.94, 65073.65, 0.0, 10.000551, 9.9993925 
1.6551043e+3, 2.0443465e+2, -866045.5, -1000297.3, -23449.389, 0.03101141, -0.23452257, -862067.5, 74447.734, 0.0, 10.00085, 9.999077 
1.6551185e+3, 2.1443288e+2, -689933.56, -838081.6, 17531.436, 0.039675586, -0.37208617, -687887.2, 150641.31, 0.0, 10.001291, 9.999293 
1.6551335e+3, 2.2443174e+2, -677190.5, -886630.75, 83747.1, 0.024161994, -0.36237252, -647821.56, 92718.13, 0.0, 10.001131, 9.99839 
1.6551495e+3, 2.344313e+2, -698426.4, -827230.3, 86323.2, -0.014779946, -0.29131088, -655128.25, -12579.366, 0.0, 10.000247, 9.998543 
1.6551656e+3, 2.4443123e+2, -526422.9, -581679.44, 59732.402, -0.029921906, -0.19028871, -488238.72, 56312.582, 0.0, 10.000261, 9.999544 
1.655182e+3, 2.5443134e+2, -227371.73, -362872.03, 101081.96, 0.013421542, -0.19185041, -173435.22, 273112.4, 0.00000000856411, 10.001552, 9.999746 
1.6551977e+3, 2.6443005e+2, -220557.9, -603428.6, 59724.395, 0.04765758, -0.16130696, -211457.73, 137103.19, 0.0000057188686, 10.002191, 9.997115 
1.655213e+3, 2.7442694e+2, -105724.07, -485055.78, 60576.637, 0.05414777, -0.2293115, -96285.266, 154309.97, 0.00005720022, 10.002269, 9.997206 
1.6552274e+3, 2.844243e+2, 7739.2173, -402950.25, -29952.941, 0.03966317, -0.19582598, 9912.286, 162535.97, 0.0002952708, 10.002455, 9.997034 
1.6552414e+3, 2.944219e+2, 174032.88, -250147.52, -72431.39, 0.023527205, -0.2020789, 186059.97, 240708.1, 0.00095047243, 10.002825, 9.997222 
1.6552551e+3, 3.0441922e+2, 243094.95, -222078.0, -98605.586, -0.023023292, -0.16373281, 263133.75, 263133.75, 0.0020977126, 10.003115, 9.996945 
1.6552715e+3, 3.1441844e+2, 303793.94, -140134.23, -50663.355, 0.13217874, -0.0022183747, 309502.5, 309502.5, 0.0035619375, 10.003255, 9.997432 
1.664985e+3, 1.24418594e+2, -1758535.0, -1597981.0, -46484.984, -0.02926402, -0.40293175, -1585493.5, 135172.27, 0.041736465, 9.998982, 10.001315 
1.6650029e+3, 1.344198e+2, -1628918.1, -1521320.5, -15846.225, 0.15384793, -0.4104757, -1519035.4, 103618.61, 0.026087236, 9.999431, 10.000931 
1.6650158e+3, 1.4442208e+2, -1652233.6, -1577443.9, -90459.84, 0.013993387, -0.21559396, -1516954.3, 7677.9956, 0.012349877, 9.999041, 10.000019 
1.6650304e+3, 1.5442179e+2, -1352859.0, -1357159.8, -77264.56, 0.034717, -0.30403486, -1277714.9, 148922.02, 0.003737191, 10.000331, 10.000227 
1.6650462e+3, 1.6442159e+2, -1269776.3, -1377245.5, 14663.202, 0.10612121, -0.29304793, -1267811.5, 60828.855, 0.00050616945, 10.000686, 9.999258 
1.6650625e+3, 1.7442091e+2, -1269276.5, -1312043.1, 32157.629, 0.12434762, -0.33281788, -1252041.8, -21393.836, 0.000009797576, 9.999955, 9.999385 
1.6650774e+3, 1.8442044e+2, -1225852.5, -1247689.3, -3265.2476, 0.10947328, -0.3039588, -1225374.8, -92721.53, 0.0, 9.99961, 9.999316 
1.6650909e+3, 1.9442038e+2, -1019502.25, -1070393.0, -12626.56, 0.061100498, -0.29791525, -1016541.7, 18112.64, 0.0, 10.000259, 9.999532 
1.6651051e+3, 2.0441976e+2, -877904.56, -1002324.75, 19192.89, 0.049250107, -0.28350645, -875011.2, 61647.85, 0.0, 10.00075, 9.999117 
1.66512e+3, 2.1441837e+2, -710443.06, -845468.9, -16023.474, 0.07676648, -0.38634, -708567.6, 130101.62, 0.0, 10.001129, 9.999328 
1.6651352e+3, 2.2441736e+2, -648865.0, -873228.56, 39723.457, 0.06804605, -0.36270624, -642039.6, 98639.98, 0.0, 10.001337, 9.998367 
1.6651504e+3, 2.3441683e+2, -526488.8, -743110.56, 44640.484, 0.004162653, -0.30049062, -517650.16, 125040.055, 0.0, 10.001425, 9.998535 
1.6651666e+3, 2.444167e+2, -352925.47, -539533.0, 70638.47, -0.0036579946, -0.18854488, -329201.94, 215492.34, 0.0, 10.001612, 9.999203 
1.6651839e+3, 2.5441688e+2, -195835.44, -387199.38, 2007.011, 0.059224404, -0.1447284, -195814.39, 250877.88, 0.0000000057748837, 10.001929, 9.99941 
1.6652003e+3, 2.6441553e+2, -169712.42, -529593.9, -37121.21, 0.090630665, -0.12180579, -165923.31, 182782.0, 0.0000055479773, 10.002322, 9.997558 
1.6652153e+3, 2.7441227e+2, 5018.573, -392833.78, -13837.429, 0.05719515, -0.24716231, 5499.2627, 256236.27, 0.000055377644, 10.0028305, 9.997583 
1.6652301e+3, 2.8440934e+2, 77629.234, -449197.16, -4344.0923, 0.045561634, -0.2277649, 77665.05, 230432.73, 0.00028510438, 10.003275, 9.996303 
1.6652447e+3, 2.9440662e+2, 227884.58, -309292.6, -34669.0, 0.05078907, -0.18377578, 230112.84, 284911.66, 0.000926934, 10.003599, 9.996414 
1.6652589e+3, 3.0440325e+2, 370854.13, -128374.234, 1157.3364, 0.0022521396, -0.18737476, 370856.8, 370856.8, 0.0020635044, 10.003844, 9.997236 
1.665275e+3, 3.1440315e+2, 363878.3, -52994.953, -48555.766, 0.16043757, 0.00532959, 369459.2, 369459.2, 0.0035203707, 10.003422, 9.997939 
1.6749837e+3, 1.2440339e+2, -1894215.6, -1892541.5, 55429.563, -0.14330603, -0.3744226, -1837942.8, -117130.34, 0.044670317, 9.999064, 9.999209 
1.6750002e+3, 1.3440415e+2, -1662195.9, -1606211.8, -38618.418, -0.0946389, -0.37302318, -1586507.5, 36303.137, 0.028026333, 9.999496, 10.000308 
1.6750158e+3, 1.4440529e+2, -1642434.0, -1574250.9, -78309.42, 0.060838796, -0.2565709, -1522934.0, 1869.7866, 0.013357116, 9.999109, 10.00001 
1.6750303e+3, 1.5440723e+2, -1342093.4, -1335517.0, -11288.47, -0.043444198, -0.13680616, -1327047.6, 99739.766, 0.004090086, 10.000327, 10.000382 
1.675046e+3, 1.6440788e+2, -1200317.6, -1253465.3, -24110.89, -0.048678216, -0.08830354, -1191009.6, 137770.98, 0.0005678562, 10.000767, 10.000073 
1.6750614e+3, 1.7440653e+2, -1220023.3, -1199397.8, 13285.021, -0.0038010606, -0.2738751, -1192892.5, 37897.34, 0.000011659807, 9.999911, 10.000181 
1.6750765e+3, 1.8440568e+2, -1204272.4, -1206678.9, -226.2344, 0.013142291, -0.3360906, -1204251.3, -71455.95, 0.0, 9.999616, 9.999603 
1.6750912e+3, 1.9440559e+2, -1016193.6, -1039341.8, 22669.496, 0.034357555, -0.35891736, -1002314.5, 32481.041, 0.0, 10.000151, 9.999804 
1.675106e+3, 2.0440535e+2, -929870.94, -1082796.1, 18139.916, 0.031959027, -0.2985387, -927748.6, 9049.27, 0.0, 10.000624, 9.998628 
1.6751204e+3, 2.1440479e+2, -783686.56, -947996.3, 14417.809, -0.007670783, -0.25969774, -782431.06, 56373.465, 0.0, 10.000907, 9.998735 
1.6751358e+3, 2.2440381e+2, -666462.8, -840024.5, 31699.063, -0.014718234, -0.22053339, -660854.56, 79960.86, 0.0, 10.001037, 9.998737 
1.6751526e+3, 2.344022e+2, -531376.6, -702394.56, 62381.902, 0.053488713, -0.30971807, -511040.03, 131792.83, 0.0, 10.0012045, 9.998921 
1.675169e+3, 2.44401e+2, -484335.94, -750718.25, 66635.68, 0.05531255, -0.2620145, -468596.9, 76250.7, 0.0, 10.0013485, 9.997876 
1.6751851e+3, 2.544003e+2, -329460.9, -607444.2, 37048.74, -0.033629995, -0.16341335, -324607.9, 122251.35, 0.0000000017385277, 10.001685, 9.99801 
1.6752015e+3, 2.6439893e+2, -134709.84, -391378.97, -30325.654, -0.053402837, -0.122790486, -131175.52, 217697.38, 0.0000048816705, 10.002036, 9.998649 
1.6752182e+3, 2.7439642e+2, 58019.582, -234670.1, 29354.354, 0.041832466, -0.29496363, 60934.55, 311826.13, 0.000051551386, 10.002612, 9.998783 
1.6752338e+3, 2.8439417e+2, 19729.254, -485924.38, -5591.99, 0.0614227, -0.26570043, 19791.088, 172704.34, 0.0002714196, 10.002923, 9.99622 
1.675248e+3, 2.943923e+2, 186124.2, -335183.1, 7489.044, -0.012478454, -0.13194701, 186231.78, 241169.63, 0.0008994481, 10.00332, 9.996378 
1.6752619e+3, 3.0438823e+2, 307315.56, -149819.11, -26886.732, -0.10518543, -0.21158908, 308891.5, 308891.5, 0.0020333803, 10.003395, 9.997296 
1.6752782e+3, 3.1438687e+2, 338753.56, 2913.4119, -1995.608, 0.08566162, -0.146382, 338765.4, 338765.4, 0.0035085906, 10.002975, 9.99853 
1.6849844e+3, 1.2438884e+2, -1950964.9, -1968700.6, 67569.46, 0.044766903, -0.2869047, -1891683.9, -170726.86, 0.04776628, 9.998929, 9.998725 
1.6849983e+3, 1.3438934e+2, -1748668.1, -1637086.1, -9206.621, -0.18663566, -0.32294288, -1636331.6, -13373.428, 0.030093629, 9.99889, 10.000366 
1.6850156e+3, 1.4439006e+2, -1631858.9, -1574679.6, 39963.8, 0.13321625, -0.2522042, -1554132.0, -29177.17, 0.0144471, 9.9991865, 9.999978 
1.6850303e+3, 1.5439166e+2, -1497933.1, -1420619.1, 62561.164, -0.011960583, -0.15958509, -1385735.3, 41205.49, 0.004479329, 9.999288, 10.000308 
1.6850457e+3, 1.6439232e+2, -1409997.4, -1328943.3, 18822.412, -0.057014942, -0.11540877, -1324785.6, 4147.5054, 0.0006375465, 9.999214, 10.000308 
1.6850612e+3, 1.7439166e+2, -1262841.6, -1183979.3, -10504.162, 0.0053543313, -0.26041475, -1182604.1, 48330.656, 0.00001399049, 9.999471, 10.000491 
1.6850765e+3, 1.8439119e+2, -1164814.9, -1189207.4, 6074.0337, 0.05482458, -0.30368197, -1163386.0, -30449.443, 0.0, 9.999905, 9.999575 
1.6850919e+3, 1.9439092e+2, -935318.2, -1011825.75, -18920.227, 0.06893342, -0.3348311, -930894.94, 104043.96, 0.0, 10.000751, 9.999703 
1.685107e+3, 2.0439051e+2, -858172.75, -1033476.8, -16734.58, 0.06765771, -0.29233068, -856589.56, 80353.77, 0.0, 10.001056, 9.998755 
1.6851217e+3, 2.1438996e+2, -799081.6, -932073.06, -6194.4487, 0.039958883, -0.26970297, -798793.7, 40156.14, 0.0, 10.000715, 9.998927 
1.6851375e+3, 2.2438914e+2, -677233.5, -841481.56, 80565.984, 0.055555884, -0.23054725, -644313.0, 96645.88, 0.0, 10.000918, 9.998809 
1.6851547e+3, 2.3438774e+2, -450768.22, -656932.44, 65176.695, 0.121352695, -0.29963288, -431891.63, 211081.19, 0.0, 10.001713, 9.999011 
1.6851713e+3, 2.4438633e+2, -370409.2, -724791.8, 115737.805, 0.11216119, -0.26419437, -335959.28, 209029.72, 0.0, 10.002255, 9.997605 
1.6851874e+3, 2.5438482e+2, -229501.64, -601518.2, 124826.37, -0.012415606, -0.22188681, -191499.42, 255509.7, 0.0000000018399801, 10.002529, 9.99765 
1.6852039e+3, 2.6438323e+2, -64495.168, -359622.94, 90072.516, -0.03896359, -0.18105264, -39177.133, 309848.25, 0.0000039092515, 10.002517, 9.998644 
1.6852209e+3, 2.743815e+2, 11039.015, -241272.47, 25811.357, 0.06702924, -0.27962816, 13652.436, 264690.16, 0.000046409757, 10.00226, 9.998888 
1.685237e+3, 2.843797e+2, 3658.356, -442167.03, 25189.43, 0.11174842, -0.23125625, 5077.061, 158131.47, 0.00025645504, 10.002565, 9.996717 
1.685252e+3, 2.9437792e+2, 237124.17, -253343.33, 40697.19, 0.06897859, -0.13514593, 240478.14, 295553.8, 0.0008664291, 10.003407, 9.996921 
1.6852657e+3, 3.0437368e+2, 325485.38, -169077.98, 21014.973, -0.04272243, -0.25041068, 326376.75, 326376.75, 0.0019906836, 10.003592, 9.997103 
1.6852811e+3, 3.143715e+2, 309120.9, -77.461044, -51242.785, 0.10988365, -0.22715823, 317392.0, 317392.0, 0.0034818049, 10.00266, 9.998715 
1.6949844e+3, 1.2437447e+2, -1861740.0, -1826170.0, -224896.3, 0.0833995, -0.18703862, -1618356.5, 102747.89, 0.051028147, 9.999093, 9.9996605 
1.6949964e+3, 1.3437504e+2, -1696864.9, -1524836.5, 22289.69, -0.29810628, -0.28324804, -1521995.4, 101104.14, 0.032295942, 9.998854, 10.00118 
1.6950148e+3, 1.4437638e+2, -1615187.3, -1567911.3, 30397.469, 0.08678251, -0.20376013, -1553042.6, -27957.012, 0.015627254, 9.999298, 9.999974 
1.69503e+3, 1.5437526e+2, -1518833.1, -1474081.1, 76439.58, -0.0016421081, -0.34935153, -1416809.8, 10285.634, 0.004910431, 9.99933, 9.999921 
1.6950451e+3, 1.6437502e+2, -1412849.9, -1351724.9, 7259.6157, -0.0794421, -0.3631182, -1350874.5, -21777.75, 0.0007170378, 9.999284, 10.000117 
1.6950612e+3, 1.7437641e+2, -1276486.8, -1208122.0, 13839.398, 0.028986657, -0.28924552, -1205426.6, 25655.58, 0.000016975888, 9.999453, 10.000333 
1.6950771e+3, 1.84377e+2, -1185451.5, -1242355.3, 19608.494, 0.08404809, -0.2013939, -1179349.0, -46272.18, 0.0, 9.999943, 9.999191 
1.6950926e+3, 1.9437636e+2, -981112.8, -1079835.6, 22092.848, 0.026514057, -0.23020133, -976394.25, 58690.863, 0.0, 10.000636, 9.999289 
1.695108e+3, 2.0437536e+2, -840927.5, -950740.5, -44596.703, 0.012564634, -0.25580797, -825097.94, 111996.625, 0.0, 10.000848, 9.999429 
1.6951232e+3, 2.143739e+2, -772149.3, -839382.7, -5916.761, 0.08491963, -0.3963159, -771632.56, 67472.92, 0.0, 10.000542, 9.999656 
1.6951391e+3, 2.2437324e+2, -721131.06, -865155.4, 92173.52, 0.11327504, -0.37725544, -676174.4, 64936.523, 0.0, 10.000641, 9.998775 
1.6951561e+3, 2.3437339e+2, -502110.84, -692638.44, 114434.99, 0.082095586, -0.28246748, -448476.84, 194634.19, 0.0, 10.001415, 9.998905 
1.6951731e+3, 2.4437247e+2, -383021.84, -664371.8, 113938.625, 0.031074796, -0.22238964, -342667.9, 202453.42, 0.0, 10.001888, 9.998199 
1.6951902e+3, 2.543701e+2, -222768.64, -527721.94, 153525.19, -0.008852719, -0.3232291, -158868.05, 288276.97, 0.0000000033657745, 10.0022745, 9.998282 
1.6952066e+3, 2.6436827e+2, -183268.52, -531863.06, 67633.27, -0.03297397, -0.29343945, -170606.44, 178558.3, 0.0000030031388, 10.002207, 9.997603 
1.6952227e+3, 2.7436715e+2, -100548.39, -419102.97, 38559.77, -0.0044593085, -0.22129041, -95947.336, 155231.2, 0.000041455987, 10.002035, 9.99777 
1.6952392e+3, 2.8436556e+2, 29165.186, -317666.8, 36724.54, 0.043467164, -0.14341246, 33011.14, 186205.98, 0.00024337543, 10.002261, 9.99772 
1.6952564e+3, 2.943631e+2, 277120.03, -112002.71, 94851.125, 0.11977083, -0.22441486, 299009.28, 354226.2, 0.0008331997, 10.003139, 9.998029 
1.69527e+3, 3.043592e+2, 215348.55, -281478.63, -26108.186, -0.009544034, -0.33515236, 216716.75, 216716.75, 0.0019313671, 10.003126, 9.996536 
1.6952826e+3, 3.143574e+2, 237653.19, -20847.152, -28481.666, -0.064347215, -0.22391395, 240754.11, 240754.11, 0.0034096164, 10.002137, 9.998805 
1.7049833e+3, 1.24360256e+2, -2025672.4, -1868954.4, -137983.64, 0.12373486, -0.16464342, -1788632.5, -67388.85, 0.054460447, 9.997805, 9.999977 
1.7049958e+3, 1.3435987e+2, -1642142.4, -1492846.4, 61211.215, -0.24056281, -0.3522817, -1470958.8, 152287.39, 0.034638863, 9.999208, 10.001243 
1.7050141e+3, 1.4436215e+2, -1570855.4, -1538471.1, 24839.37, 0.07321946, -0.18858407, -1525012.4, 209.07007, 0.016903277, 9.9996, 10.000024 
1.7050295e+3, 1.5436026e+2, -1566533.3, -1493133.3, 56497.48, 0.02445116, -0.411935, -1462462.3, -35225.203, 0.00538814, 9.99901, 9.999931 
1.7050447e+3, 1.6435952e+2, -1459514.0, -1412173.4, 65828.62, -0.023216303, -0.4603448, -1365888.8, -36645.668, 0.0008082668, 9.999125, 9.999772 
1.7050615e+3, 1.7436096e+2, -1156694.4, -1188166.1, 32174.17, 0.083228804, -0.34868437, -1136614.1, 94616.164, 0.000020835996, 10.00043, 10.000002 
1.7050779e+3, 1.8436159e+2, -1083059.8, -1215591.3, 41035.625, 0.12758371, -0.23036645, -1071382.8, 61843.457, 0.0, 10.000734, 9.999012 
1.705093e+3, 1.9436088e+2, -1077727.1, -1149336.1, 32449.902, 0.025106624, -0.24326423, -1065210.3, -29973.994, 0.0, 10.000054, 9.999114 
1.7051083e+3, 2.0435996e+2, -937648.25, -981556.56, 2623.3174, 0.013959911, -0.25635105, -937492.06, -246.35754, 0.0, 10.000132, 9.999546 
1.7051242e+3, 2.1435887e+2, -652249.1, -768177.8, -33633.594, 0.11409764, -0.3759373, -643197.9, 196055.83, 0.0, 10.00133, 9.999752 
1.7051406e+3, 2.2435829e+2, -550754.94, -784549.0, 55335.797, 0.15542763, -0.35119933, -538319.2, 202939.05, 0.0, 10.001816, 9.9987545 
1.7051578e+3, 2.3435831e+2, -519972.16, -699036.6, 46480.85, 0.11613886, -0.27208674, -508625.78, 134633.55, 0.0, 10.00129, 9.998907 
1.7051749e+3, 2.4435732e+2, -468514.94, -662491.8, 82971.99, 0.077349, -0.23723215, -437866.75, 107402.11, 0.0, 10.001118, 9.998585 
1.7051923e+3, 2.543549e+2, -315954.06, -515979.2, 76251.86, 0.030538533, -0.38407707, -290201.53, 157088.66, 0.0000000026261497, 10.001417, 9.99876 
1.7052092e+3, 2.6435316e+2, -227267.23, -567599.8, 46025.523, 0.012937864, -0.3665099, -221152.75, 128155.65, 0.0000021613648, 10.001955, 9.997487 
1.7052254e+3, 2.743522e+2, -10478.401, -397719.03, 50403.297, 0.035086375, -0.25705373, -4025.4324, 247296.75, 0.000036656253, 10.002732, 9.997595 
1.7052421e+3, 2.8435075e+2, 146386.75, -232112.05, 94540.49, 0.08369238, -0.16949919, 168686.97, 322024.9, 0.00022921336, 10.002949, 9.997967 
1.7052591e+3, 2.943482e+2, 194652.13, -122901.516, 48073.24, 0.13584301, -0.2795323, 201770.2, 257129.78, 0.00079328316, 10.00247, 9.998263 
1.705273e+3, 3.0434486e+2, 200915.88, -304645.8, -38987.33, -0.0047135544, -0.34096062, 203904.78, 203904.78, 0.001843639, 10.003079, 9.996386 
1.7052867e+3, 3.1434262e+2, 614546.2, 159774.67, -99922.56, 0.0036088077, -0.25919673, 635532.75, 635532.75, 0.0032697637, 10.004764, 9.998745 
1.7149812e+3, 1.2434652e+2, -2025856.9, -1891830.4, 59040.566, 0.05753363, -0.2204693, -1869532.0, -148160.5, 0.058051143, 9.99789, 9.999783 
1.7149967e+3, 1.3434438e+2, -1712815.9, -1630255.5, 131881.1, -0.09554544, -0.49552083, -1533345.0, 90047.63, 0.037118543, 9.999191, 10.000291 
1.7150123e+3, 1.4434747e+2, -1542118.4, -1510324.9, -7470.64, -0.105998345, -0.19778885, -1508657.0, 16703.855, 0.018276531, 9.99972, 10.000168 
1.7150278e+3, 1.5434645e+2, -1539023.0, -1440456.8, 50088.773, -0.07473504, -0.3712855, -1419471.0, 7896.43, 0.005915651, 9.999021, 10.000292 
1.7150444e+3, 1.6434577e+2, -1484517.4, -1475106.4, 91022.62, -0.027086275, -0.41357976, -1388667.8, -59294.78, 0.0009130136, 9.999178, 9.9993105 
1.715062e+3, 1.7434545e+2, -1204913.5, -1271167.1, 92093.66, 0.045555305, -0.4252574, -1140169.9, 91207.69, 0.000025810483, 10.000366, 9.999458 
1.715078e+3, 1.843451e+2, -1085023.3, -1213737.9, 4952.5117, 0.033765737, -0.37458062, -1084833.0, 48550.39, 0.0, 10.000707, 9.999039 
1.7150922e+3, 1.9434462e+2, -1084031.5, -1141473.5, 20877.512, -0.060948376, -0.37407854, -1077245.3, -41853.85, 0.0, 9.999965, 9.99921 
1.7151079e+3, 2.0434442e+2, -994714.3, -1064028.1, 29241.848, -0.08182873, -0.29777098, -984026.0, -46629.69, 0.0, 9.999977, 9.999056 
1.7151247e+3, 2.1434459e+2, -727029.56, -861650.44, 25969.99, 0.0013107355, -0.23757198, -722193.4, 117203.766, 0.0, 10.001064, 9.999239 
1.7151417e+3, 2.2434403e+2, -598215.6, -809269.75, 27487.941, 0.055379752, -0.18600672, -594694.3, 146709.27, 0.0, 10.001492, 9.998746 
1.715159e+3, 2.3434246e+2, -549762.3, -715328.5, 43745.58, 0.09166125, -0.264341, -538914.7, 104503.234, 0.0, 10.001082, 9.998903 
1.7151761e+3, 2.4434084e+2, -496497.4, -646138.1, 77087.51, 0.07040227, -0.30252403, -463890.72, 81540.91, 0.0, 10.000811, 9.998838 
1.7151934e+3, 2.5433904e+2, -338607.75, -501241.9, 105133.29, -0.02182987, -0.41673353, -287013.3, 160432.84, 0.0000000000058928205, 10.001153, 9.998988 
1.7152108e+3, 2.6433757e+2, -220286.95, -483628.1, 57405.8, -0.0473044, -0.4164007, -208317.13, 141142.3, 0.0000014626683, 10.001661, 9.998205 
1.7152284e+3, 2.7433655e+2, 1692.8032, -307569.75, 95774.01, 0.03627717, -0.38783628, 28950.205, 280420.53, 0.000032258973, 10.002452, 9.99835 
1.7152451e+3, 2.843351e+2, 56343.965, -338655.44, 59888.04, 0.053802043, -0.30867407, 65224.277, 218709.22, 0.00021422842, 10.0026, 9.997406 
1.7152601e+3, 2.9433304e+2, 119315.5, -225140.69, 58812.973, -0.040546134, -0.32023218, 129080.484, 184586.03, 0.0007461243, 10.002228, 9.99768 
1.7152746e+3, 3.043303e+2, 135549.44, -337784.03, 2718.6316, -0.18854174, -0.29189593, 135565.05, 135565.05, 0.0017331633, 10.002675, 9.996342 
1.7152922e+3, 3.143265e+2, 498965.84, 90729.24, 13413.167, 0.013208999, -0.3630129, 499406.06, 499406.06, 0.0030820344, 10.004075, 9.998583 
1.7249793e+3, 1.24329634e+2, -1879179.9, -1819399.3, -16653.758, 0.041395016, -0.2823619, -1815072.9, -93539.4, 0.06177432, 9.998877, 9.999794 
1.7249952e+3, 1.3432796e+2, -1849199.8, -1661660.9, -17171.305, -0.0911077, -0.56363446, -1660101.6, -36551.035, 0.039721623, 9.998098, 10.000567 
1.725012e+3, 1.4433183e+2, -1836656.5, -1652578.0, -57032.598, 0.009699559, -0.19810401, -1636340.1, -110828.65, 0.019743169, 9.997682, 10.000185 
1.725027e+3, 1.5433075e+2, -1480271.4, -1389002.6, -49689.04, -0.06322879, -0.39241886, -1367172.3, 60346.87, 0.006494274, 9.999295, 10.000538 
1.7250437e+3, 1.6433026e+2, -1399134.8, -1441009.8, 29077.984, -0.021478875, -0.42255047, -1384240.6, -54717.71, 0.001032908, 9.99978, 9.999269 
1.7250618e+3, 1.7432985e+2, -1367544.0, -1355931.6, 35544.844, 0.07629387, -0.43829817, -1325721.9, -94192.99, 0.00003215152, 9.999264, 9.999414 
1.7250782e+3, 1.8432939e+2, -1300370.8, -1298940.8, -7889.476, 0.079587, -0.40416926, -1291734.0, -158198.23, 0.0, 9.99915, 9.9992 
1.7250924e+3, 1.9432907e+2, -1074127.0, -1113682.1, -15828.466, -0.043336563, -0.40561393, -1068572.9, -33031.336, 0.0, 9.999941, 9.999408 
1.7251079e+3, 2.04329e+2, -979186.3, -1093569.4, 44254.094, -0.06657301, -0.3127042, -964064.0, -26518.172, 0.0, 10.000238, 9.998736 
1.7251255e+3, 2.143291e+2, -886064.8, -980220.3, 28018.074, 0.02922702, -0.22182465, -878358.2, -38808.727, 0.0, 10.000141, 9.998879 
1.7251432e+3, 2.2432838e+2, -737447.44, -849825.4, 63361.42, 0.11088209, -0.17196424, -708949.5, 32608.395, 0.0, 10.000455, 9.998951 
1.7251608e+3, 2.3432675e+2, -490371.06, -658997.75, 57216.83, 0.15922481, -0.27966222, -472789.8, 170782.08, 0.0, 10.001406, 9.999119 
1.7251782e+3, 2.4432538e+2, -347510.44, -590799.1, 108544.92, 0.14591219, -0.29900718, -306123.06, 239460.42, 0.0, 10.001881, 9.998706 
1.7251953e+3, 2.5432432e+2, -278045.88, -486107.13, 82736.125, 0.03830858, -0.32664004, -249156.84, 198435.52, 0.0000000000049057277, 10.001616, 9.998868 
1.7252128e+3, 2.6432294e+2, -231169.06, -474714.6, 50251.152, 0.0038543013, -0.317279, -221208.06, 128396.77, 0.0000011502509, 10.001534, 9.99832 
1.7252307e+3, 2.74321e+2, -101517.3, -349203.38, 7186.9497, 0.07463064, -0.3887197, -101308.94, 150314.03, 0.000029351942, 10.001702, 9.998427 
1.7252477e+3, 2.843191e+2, 6643.0894, -359144.06, -1170.7015, 0.090188056, -0.35811394, 6646.8364, 160287.86, 0.00020332959, 10.002266, 9.997409 
1.7252631e+3, 2.9431716e+2, 288166.5, -143262.84, -18446.125, -0.009819685, -0.35067686, 288953.75, 344614.03, 0.0007057303, 10.003421, 9.997645 
1.725278e+3, 3.0431494e+2, 396721.25, -198576.08, 15075.291, -0.15939918, -0.27449006, 397102.75, 397102.75, 0.0016357158, 10.00436, 9.996521 
1.725297e+3, 3.1431112e+2, 578909.4, 79823.516, -28824.887, 0.085029915, -0.35491186, 580568.7, 580568.7, 0.0029145537, 10.004732, 9.998255 
1.734977e+3, 1.2430914e+2, -1864968.0, -1806733.3, -62572.566, -0.14800906, -0.40289262, -1766835.0, -45100.613, 0.06561491, 9.998962, 9.999829 
1.7349908e+3, 1.3431044e+2, -1744578.8, -1455558.9, -71456.29, -0.4020835, -0.5580508, -1438857.4, 184864.0, 0.042436883, 9.998107, 10.002035 
1.735013e+3, 1.4431472e+2, -1832811.6, -1657381.3, -33704.457, 0.26639852, -0.21494797, -1651128.8, -125450.61, 0.021297567, 9.997742, 10.000115 
1.7350264e+3, 1.5431315e+2, -1474542.5, -1377278.4, 20622.31, -0.082863726, -0.46843886, -1373086.6, 54605.156, 0.0071235094, 9.9993, 10.000611 
1.7350423e+3, 1.6431314e+2, -1349011.3, -1367293.8, -3329.7556, -0.1764247, -0.4762454, -1348423.6, -18731.889, 0.0011691477, 9.999895, 9.999724 
1.7350613e+3, 1.7431411e+2, -1336293.3, -1298042.1, 26462.27, 0.055365548, -0.39551267, -1284517.5, -52832.51, 0.00004011834, 9.999281, 9.999809 
1.7350781e+3, 1.843144e+2, -1282944.6, -1262090.5, -1472.5095, 0.10804836, -0.3191035, -1261987.0, -128302.89, 0.0, 9.999151, 9.999449 
1.7350924e+3, 1.9431409e+2, -1081042.8, -1091324.4, 23583.5, -0.055815037, -0.34666595, -1062046.3, -26357.9, 0.0, 9.999784, 9.999634 
1.7351083e+3, 2.0431356e+2, -1014396.2, -1127324.9, 25933.799, -0.09116554, -0.30377948, -1008725.4, -71029.86, 0.0, 10.000064, 9.998589 
1.7351261e+3, 2.1431251e+2, -924336.6, -1022622.6, 37675.215, 0.058091428, -0.31199494, -911556.6, -71847.38, 0.0, 9.999976, 9.998667 
1.7351443e+3, 2.2431158e+2, -756562.3, -828210.6, 80354.664, 0.14768817, -0.2876718, -704407.8, 37311.79, 0.0, 10.000193, 9.999223 
1.7351627e+3, 2.3431087e+2, -500221.0, -626543.4, 108120.82, 0.17896248, -0.33746922, -438164.6, 205560.2, 0.0, 10.001168, 9.999457 
1.7351805e+3, 2.4431053e+2, -423195.34, -668415.25, 88088.23, 0.15453675, -0.2545344, -394832.66, 150895.58, 0.0, 10.001552, 9.998328 
1.7351975e+3, 2.5431067e+2, -343800.66, -562539.7, 92013.336, 0.06587118, -0.1222285, -310243.13, 137486.5, 0.000000000000012544113, 10.001368, 9.998461 
1.7352146e+3, 2.643091e+2, -313862.22, -572920.44, 41327.88, 0.0048352685, -0.08141178, -307428.88, 42316.742, 0.0000010511417, 10.001225, 9.99779 
1.7352319e+3, 2.743055e+2, -174421.17, -440857.84, 36693.094, 0.0042791027, -0.27272472, -169460.25, 82319.69, 0.000029114979, 10.001459, 9.997904 
1.7352496e+3, 2.8430256e+2, -23313.268, -355657.8, 19234.137, 0.026321324, -0.33027494, -22203.813, 131603.33, 0.00019954766, 10.001979, 9.997574 
1.7352676e+3, 2.9430017e+2, 252432.92, -137598.89, 49186.9, 0.047330122, -0.39349583, 258540.25, 314368.06, 0.0006841952, 10.0030775, 9.99785 
1.7352831e+3, 3.0429855e+2, 347750.66, -179671.05, 8415.549, -0.13383651, -0.285696, 347884.9, 347884.9, 0.0015848163, 10.003872, 9.996865 
1.7353004e+3, 3.1429544e+2, 456248.63, 13883.937, 44641.73, -0.10721689, -0.34867716, 460708.72, 460708.72, 0.0028348158, 10.003977, 9.99813 
1.7449768e+3, 1.2429271e+2, -1999660.4, -1824674.0, 136697.81, -0.009598066, -0.37035334, -1749867.0, -27970.855, 0.06957688, 9.997882, 10.000223 
1.7449881e+3, 1.3429329e+2, -1824688.0, -1480712.4, -55908.266, -0.41776595, -0.595293, -1471853.5, 152035.78, 0.045260757, 9.997522, 10.002142 
1.7450121e+3, 1.4429812e+2, -1777698.0, -1639731.0, 52678.984, 0.39986232, -0.20489344, -1621917.0, -96076.04, 0.022935338, 9.998165, 10.000017 
1.7450261e+3, 1.542963e+2, -1523401.8, -1419130.6, 48415.58, -0.011548689, -0.46935022, -1400117.1, 27741.635, 0.0078018596, 9.999053, 10.000422 
1.745042e+3, 1.6429624e+2, -1442896.4, -1395685.4, -23069.299, -0.15863137, -0.48083678, -1386284.6, -56424.023, 0.0013223152, 9.999192, 9.999871 
1.7450602e+3, 1.7429776e+2, -1359397.3, -1286014.5, -46538.87, 0.044118878, -0.36070514, -1263442.6, -31594.139, 0.000049909977, 9.999036, 10.000014 
1.7450774e+3, 1.8429844e+2, -1243153.1, -1231449.3, -11190.8545, 0.118843935, -0.25999066, -1224672.6, -90829.33, 0.0000000000000006446772, 9.999377, 9.999543 
1.7450932e+3, 1.9429816e+2, -961480.25, -1023008.6, -25038.9, 0.003835071, -0.2956468, -952578.56, 83267.305, 0.0, 10.00056, 9.999716 
1.7451096e+3, 2.042973e+2, -859797.3, -1064191.9, -30284.834, -0.0105145555, -0.28750852, -855404.5, 82450.43, 0.0, 10.001158, 9.998505 
1.7451271e+3, 2.1429557e+2, -759197.75, -949763.1, -46572.2, 0.10607496, -0.35279363, -748425.0, 91448.67, 0.0, 10.001135, 9.998615 
1.745145e+3, 2.242944e+2, -626251.94, -788389.6, 35645.91, 0.17078622, -0.3403592, -618761.25, 123124.805, 0.0, 10.001158, 9.999047 
1.7451635e+3, 2.3429404e+2, -502763.66, -646431.94, 3354.3027, 0.1613176, -0.33464712, -502685.38, 141203.95, 0.0, 10.0012245, 9.999299 
1.7451818e+3, 2.442938e+2, -438714.44, -666120.7, -11921.345, 0.15448244, -0.23818538, -438091.2, 107801.37, 0.0, 10.001441, 9.9983835 
1.7451997e+3, 2.5429347e+2, -268969.63, -518708.44, -14848.87, 0.13505015, -0.15064228, -268089.84, 179807.77, 0.0, 10.001886, 9.9985 
1.7452171e+3, 2.6429194e+2, -161699.05, -513207.47, 100.762215, 0.10136091, -0.10625003, -161699.02, 188214.77, 0.0000010008785, 10.002305, 9.997686 
1.7452343e+3, 2.742889e+2, 914.3106, -370988.0, -11396.341, 0.040605605, -0.22811902, 1263.2056, 253207.17, 0.000030147008, 10.002703, 9.997788 
1.7452523e+3, 2.8428608e+2, 147089.5, -271762.53, 36128.434, 0.04483532, -0.26727676, 150182.95, 304153.16, 0.00019898178, 10.003115, 9.997616 
1.745271e+3, 2.9428315e+2, 298146.9, -127127.15, 5145.7754, 0.091022626, -0.38511652, 298209.16, 354204.9, 0.00068108423, 10.003388, 9.997799 
1.745287e+3, 3.0428135e+2, 317507.28, -118374.086, -9066.931, -0.08045399, -0.32048008, 317695.8, 317695.8, 0.0015910955, 10.003316, 9.997573 
1.7453046e+3, 3.1428003e+2, 371312.78, 17603.482, -33213.176, -0.01799596, -0.27729592, 374404.47, 374404.47, 0.002872257, 10.003171, 9.998551 
1.7549746e+3, 1.2428026e+2, -1918839.3, -1688566.5, -7310.8164, -0.09034106, -0.18128492, -1688334.6, 33684.9, 0.07366958, 9.99798, 10.001138 
1.7549872e+3, 1.3427635e+2, -1913574.8, -1655242.9, -34069.35, -0.3033033, -0.69864696, -1650825.3, -26769.557, 0.048192136, 9.997509, 10.000898 
1.755009e+3, 1.4428252e+2, -1761378.9, -1637151.9, 75080.46, 0.23218249, -0.1286529, -1601822.3, -75827.12, 0.024652572, 9.998291, 9.999983 
1.7550258e+3, 1.5428025e+2, -1552440.9, -1489784.0, 90861.586, 0.02547273, -0.39108282, -1425001.6, 3018.385, 0.008527423, 9.999084, 9.99993 
1.755042e+3, 1.6427928e+2, -1449364.9, -1419252.3, -55065.07, -0.12720506, -0.4531826, -1377222.3, -47190.336, 0.0014925194, 9.999243, 9.999683 
1.7550582e+3, 1.7428066e+2, -1368999.0, -1292976.3, -39343.813, -0.08459853, -0.34230208, -1276281.1, -44260.266, 0.00006156021, 9.99899, 9.999983 
1.7550758e+3, 1.8428154e+2, -1242111.8, -1232435.8, 14062.839, -0.032894235, -0.22125418, -1222402.0, -88389.08, 0.0000000010737394, 9.999389, 9.999531 
1.755094e+3, 1.9428132e+2, -978054.8, -1041111.94, 30217.604, 0.003891797, -0.24433154, -965912.44, 70101.18, 0.0, 10.000485, 9.999629 
1.7551114e+3, 2.0428018e+2, -886159.9, -1082897.3, -44954.1, 0.02120413, -0.25656295, -876374.6, 61649.254, 0.0, 10.001001, 9.998449 
1.7551279e+3, 2.1427797e+2, -790617.9, -966831.0, -34828.254, 0.05153572, -0.37044242, -783983.9, 56061.45, 0.0, 10.000921, 9.998602 
1.7551452e+3, 2.2427665e+2, -707097.25, -891911.06, 23780.99, 0.04068919, -0.34554502, -704086.3, 37972.836, 0.0, 10.000884, 9.998468 
1.7551632e+3, 2.3427641e+2, -580518.8, -756999.8, 22962.615, -0.022066709, -0.26661184, -577580.0, 66483.9, 0.0, 10.000999, 9.9986515 
1.7551817e+3, 2.4427527e+2, -463486.16, -647955.7, -6914.077, -0.020937847, -0.23763254, -463227.38, 82847.875, 0.0, 10.001142, 9.998652 
1.7552014e+3, 2.5427282e+2, -279186.88, -484485.44, 19421.63, 0.099554814, -0.40083212, -277365.72, 170730.6, 0.0, 10.001647, 9.998849 
1.7552201e+3, 2.6427123e+2, -188662.06, -508937.03, -3058.9568, 0.13113955, -0.38516748, -188632.84, 161478.5, 0.00000094846536, 10.00204, 9.997848 
1.7552373e+3, 2.7427107e+2, -24728.967, -356742.5, 22270.846, 0.03947809, -0.24266826, -23241.742, 228874.27, 0.000030605133, 10.00242, 9.998019 
1.755255e+3, 2.8426963e+2, 91017.55, -311891.03, 31290.857, -0.027955133, -0.15504947, 93433.19, 247564.03, 0.0002004244, 10.002787, 9.997497 
1.7552733e+3, 2.9426605e+2, 228805.66, -185164.61, 37480.6, -0.056369558, -0.32500166, 232171.75, 288336.13, 0.000696978, 10.003026, 9.99757 
1.7552894e+3, 3.0426356e+2, 297823.28, -55894.754, -42151.707, -0.20639497, -0.3444086, 302777.0, 302777.0, 0.0016497148, 10.002885, 9.9982 
1.7553091e+3, 3.1426504e+2, 304001.84, 39435.016, 28576.334, 0.04383002, -0.1164802, 307053.22, 307053.22, 0.0030015628, 10.0025215, 9.998991 
1.7649718e+3, 1.24264374e+2, -2058489.8, -1700724.9, -45312.754, -0.096442334, -0.14526755, -1695075.0, 27101.123, 0.07790593, 9.996753, 10.001646 
1.7649862e+3, 1.3425927e+2, -1786975.1, -1659287.0, -75781.35, -0.19986528, -0.7285767, -1624040.9, 183.59023, 0.05123237, 9.998629, 10.000335 
1.7650072e+3, 1.4426601e+2, -1632683.0, -1575529.4, 55464.59, 0.18763624, -0.07279938, -1541712.6, -15553.948, 0.026445003, 9.999179, 9.999985 
1.765025e+3, 1.5426405e+2, -1608582.3, -1515982.3, 59194.99, 0.047029942, -0.29866523, -1487130.9, -58949.594, 0.009296644, 9.998727, 9.999921 
1.7650412e+3, 1.6426311e+2, -1493354.8, -1450031.6, -12399.463, -0.09042759, -0.3542183, -1446733.9, -116540.9, 0.0016790463, 9.998988, 9.999582 
1.7650576e+3, 1.7426379e+2, -1175890.6, -1216946.6, -33388.67, -0.10415554, -0.30304474, -1157224.1, 74963.08, 0.000074904594, 10.000377, 9.999832 
1.7650755e+3, 1.8426399e+2, -1060994.4, -1185423.3, 24920.861, -0.05584858, -0.22741117, -1056188.8, 77996.67, 0.000000009428086, 10.000811, 9.999172 
1.7650945e+3, 1.9426326e+2, -1006130.8, -1091325.9, -13307.898, 0.01725911, -0.26215783, -1004100.44, 32090.877, 0.0, 10.000468, 9.999298 
1.7651124e+3, 2.04262e+2, -955315.44, -1101901.6, -73331.35, 0.06716157, -0.27077597, -924929.4, 13272.869, 0.0, 10.0004835, 9.998558 
1.7651293e+3, 2.1426019e+2, -770809.7, -940188.4, -79558.41, 0.100459605, -0.3557463, -739301.7, 100916.94, 0.0, 10.001008, 9.99873 
1.7651464e+3, 2.242589e+2, -679063.56, -906656.9, 11752.258, 0.07345091, -0.32278216, -678458.3, 63773.59, 0.0, 10.001209, 9.998202 
1.7651638e+3, 2.3425823e+2, -589111.1, -790872.0, -3639.3416, -0.05483197, -0.25687993, -589045.5, 55196.473, 0.0, 10.001082, 9.998371 
1.7651825e+3, 2.442567e+2, -445350.63, -640569.5, 15832.179, -0.049012147, -0.25252435, -444074.97, 102181.97, 0.0, 10.001222, 9.998692 
1.7652032e+3, 2.5425395e+2, -274289.3, -479403.3, 515.09, 0.13693142, -0.44779453, -274288.03, 173990.92, 0.0, 10.001625, 9.998918 
1.7652225e+3, 2.6425228e+2, -201894.19, -506114.94, -5740.5786, 0.1937026, -0.4504379, -201785.9, 148508.3, 0.0000007067664, 10.001935, 9.997907 
1.7652397e+3, 2.7425206e+2, -59669.55, -368554.84, -33945.598, 0.056198567, -0.3145983, -55983.027, 196316.95, 0.000029110019, 10.002174, 9.998051 
1.7652574e+3, 2.8425092e+2, 51695.246, -302056.13, 8438.826, -0.02899552, -0.2093046, 51896.44, 206208.7, 0.00020337792, 10.002409, 9.997745 
1.7652762e+3, 2.942482e+2, 201938.84, -172946.28, -10946.443, -0.035407826, -0.30842745, 202258.2, 258595.3, 0.00072560523, 10.002756, 9.997779 
1.7652929e+3, 3.0424497e+2, 389704.0, -57758.72, -46375.52, -0.1687191, -0.38923022, 394459.84, 394459.84, 0.0017290524, 10.003688, 9.997804 
1.7653136e+3, 3.1424537e+2, 650045.75, 156468.98, -123295.125, 0.13188171, -0.21753773, 679130.9, 679130.9, 0.0031406845, 10.005063, 9.998598 
1.7749695e+3, 1.2424547e+2, -2055901.0, -1735748.8, 132326.52, -0.075145885, -0.24234009, -1688136.0, 34225.813, 0.08231803, 9.996898, 10.001356 
1.774985e+3, 1.3424236e+2, -1775802.0, -1644783.9, -2924.4297, -0.20442595, -0.66089475, -1644718.6, -20326.732, 0.054393712, 9.998652, 10.000426 
1.7750059e+3, 1.4424819e+2, -1627224.1, -1578689.3, 18441.406, 0.07841445, -0.0829308, -1572477.3, -46141.676, 0.02831169, 9.999236, 9.999937 
1.7750226e+3, 1.5424766e+2, -1574302.8, -1450409.5, 53960.867, -0.09392948, -0.20465387, -1430202.9, -1859.2861, 0.010105246, 9.998741, 10.000366 
1.7750397e+3, 1.6424774e+2, -1487955.6, -1451072.0, 17384.643, -0.19723216, -0.18611574, -1444169.6, -113825.89, 0.0018804772, 9.999041, 9.999551 
1.7750579e+3, 1.7424718e+2, -1196996.6, -1251170.3, 30082.156, -0.14402996, -0.23936625, -1183603.4, 48744.555, 0.00008970714, 10.0003395, 9.999614 
1.7750761e+3, 1.8424581e+2, -1110569.8, -1291470.1, -1145.2677, -0.10936022, -0.27298796, -1110562.5, 23798.35, 0.000000028818846, 10.00082, 9.998442 
1.7750943e+3, 1.9424385e+2, -1068001.5, -1202672.6, -11551.311, -0.08565368, -0.35837203, -1067017.9, -30637.72, 0.0, 10.000387, 9.998576 
1.7751125e+3, 2.0424265e+2, -963627.5, -1080689.4, -70531.85, -0.018330488, -0.33588344, -930503.56, 7887.7637, 0.0, 10.000326, 9.998773 
1.7751308e+3, 2.1424213e+2, -787401.94, -922050.75, -47751.637, 0.12701564, -0.3174827, -772186.7, 68207.82, 0.0, 10.000789, 9.998954 
1.7751484e+3, 2.2424105e+2, -722946.7, -943002.6, -5599.6646, 0.12063299, -0.2693765, -722804.3, 19601.092, 0.0, 10.000963, 9.9980755 
1.775165e+3, 2.3423922e+2, -622328.6, -822680.4, 7495.9146, -0.067663774, -0.31137517, -622048.56, 22377.74, 0.0, 10.000903, 9.998245 
1.7751837e+3, 2.4423774e+2, -496665.44, -673368.94, 12969.582, -0.0826543, -0.29349518, -495718.56, 50722.527, 0.0, 10.0009165, 9.998607 
1.7752051e+3, 2.542367e+2, -317283.03, -509623.5, 32011.563, 0.12857078, -0.30995727, -312095.22, 136351.89, 0.0, 10.001381, 9.998823 
1.7752244e+3, 2.642349e+2, -258905.64, -553925.6, -9404.3545, 0.15252459, -0.31517476, -258606.17, 91857.59, 0.00000032366296, 10.001639, 9.997719 
1.7752409e+3, 2.7423194e+2, -120271.74, -418087.47, -3893.112, -0.05803372, -0.4280219, -120220.86, 132274.1, 0.00002512301, 10.001868, 9.997847 
1.7752592e+3, 2.8423008e+2, 27078.727, -282554.6, -1654.8013, -0.13566725, -0.39537314, 27087.57, 181600.48, 0.00020098852, 10.0021, 9.99803 
1.7752795e+3, 2.9422954e+2, 190830.44, -132285.11, 22439.422, -0.024131121, -0.3265666, 192381.34, 248895.95, 0.0007425487, 10.002483, 9.998187 
1.775297e+3, 3.0422568e+2, 231104.83, -287953.6, -14679.546, -0.16258293, -0.4311419, 231519.66, 231519.66, 0.0017707977, 10.003271, 9.996419 
1.7753176e+3, 3.1422323e+2, 453899.1, -37926.633, 10433.667, -0.025937092, -0.3880891, 454120.34, 454120.34, 0.0031853206, 10.004207, 9.997643 
1.7849682e+3, 1.2422627e+2, -1976129.5, -1767098.5, 136501.27, 0.07739957, -0.2049497, -1699695.1, 22855.24, 0.08696164, 9.997809, 10.000661 
1.7849839e+3, 1.3422376e+2, -1737656.4, -1628461.3, -124664.34, -0.20246075, -0.55810696, -1546962.9, 77613.96, 0.057701517, 9.998996, 10.000366 
1.7850046e+3, 1.4422834e+2, -1603343.3, -1551968.0, -103247.25, 0.047076013, -0.10203774, -1471260.9, 55272.383, 0.030258754, 9.999342, 10.000075 
1.7850222e+3, 1.5422802e+2, -1395429.0, -1341016.4, -115063.05, -0.05226438, -0.22828437, -1249987.0, 178550.22, 0.0109521225, 9.999856, 10.000591 
1.7850399e+3, 1.6422842e+2, -1358391.1, -1375542.1, -110184.09, -0.113000706, -0.19631404, -1256449.3, 74083.36, 0.0020959692, 9.999873, 9.999667 
1.7850585e+3, 1.7422792e+2, -1303273.5, -1287604.5, -112520.07, -0.06621981, -0.25426248, -1182646.5, 49888.78, 0.000105867584, 9.999563, 9.99973 
1.785077e+3, 1.8422651e+2, -1272755.3, -1353070.4, -78050.414, -0.031653088, -0.30228922, -1225137.5, -90589.82, 0.0000000562377, 9.999634, 9.998596 
1.785095e+3, 1.9422458e+2, -1036485.06, -1166575.5, -48517.664, -0.039393593, -0.40341926, -1020383.25, 16183.134, 0.0, 10.000501, 9.998771 
1.7851132e+3, 2.0422344e+2, -862478.44, -1056238.5, -52226.227, 0.004597476, -0.37656963, -849297.94, 89279.484, 0.0, 10.001109, 9.998577 
1.7851317e+3, 2.14223e+2, -686793.7, -899889.2, -94084.23, 0.11504577, -0.32889768, -651199.75, 189382.06, 0.0, 10.0015745, 9.998743 
1.7851496e+3, 2.2422181e+2, -635658.7, -904394.75, -62215.867, 0.12313219, -0.27422673, -621953.9, 120640.16, 0.0, 10.001587, 9.998042 
1.7851666e+3, 2.342198e+2, -604269.06, -816268.5, -78188.67, -0.004299775, -0.3290826, -578551.6, 66063.766, 0.0, 10.001055, 9.998218 
1.7851853e+3, 2.4421833e+2, -509026.56, -674492.94, -18284.604, 0.0016723806, -0.30464885, -507030.16, 39599.402, 0.0, 10.000833, 9.998624 
1.7852065e+3, 2.5421762e+2, -361387.25, -529583.94, -24133.4, 0.16073039, -0.29465762, -357993.0, 90641.02, 0.0, 10.001092, 9.998812 
1.785226e+3, 2.6421595e+2, -264519.8, -556756.6, -24359.1, 0.1798312, -0.2850973, -262503.3, 88146.21, 0.00000018370703, 10.001568, 9.997751 
1.7852435e+3, 2.7421275e+2, -45588.055, -392104.25, -32259.924, -0.005678714, -0.42104468, -42610.313, 210071.63, 0.000020759246, 10.002362, 9.99782 
1.7852622e+3, 2.8421053e+2, 136166.75, -258709.92, 1025.0272, -0.06371122, -0.40547046, 136169.4, 290872.28, 0.0001926232, 10.002991, 9.997751 
1.7852831e+3, 2.9420984e+2, 318174.97, -107288.805, -71506.336, 0.05139624, -0.31960213, 329871.28, 386578.56, 0.00073852565, 10.003519, 9.997853 
1.785301e+3, 3.0420583e+2, 273253.94, -272994.13, -63658.836, -0.09200222, -0.41804647, 280574.53, 280574.53, 0.001755, 10.003591, 9.996365 
1.7853212e+3, 3.1420267e+2, 242493.84, -138104.4, -23897.293, 0.025042709, -0.42798197, 243988.45, 243988.45, 0.0031042786, 10.00271, 9.997692 
1.7949666e+3, 1.24204576e+2, -2039968.9, -1936627.0, 18556.06, 0.034464225, -0.26627877, -1933396.1, -210632.98, 0.09190124, 9.997956, 9.999427 
1.7949815e+3, 1.3420334e+2, -1732981.9, -1647184.1, -90090.77, -0.3804683, -0.4411177, -1590300.0, 34480.547, 0.06119029, 9.999088, 10.0001955 
1.7950034e+3, 1.4420661e+2, -1582045.0, -1520251.3, -109483.805, -0.06383745, -0.12648933, -1437388.3, 89361.87, 0.03230053, 9.999404, 10.000266 
1.7950234e+3, 1.5420525e+2, -1403012.3, -1349128.8, -83342.65, 0.048957635, -0.35626942, -1288481.4, 140279.67, 0.011841973, 9.999832, 10.000542 
1.7950416e+3, 1.6420518e+2, -1330549.6, -1336754.4, -140116.3, 0.012579182, -0.3734315, -1193501.4, 137257.97, 0.0023264778, 9.999941, 9.999908 
1.7950591e+3, 1.7420593e+2, -1272355.8, -1229250.0, -114535.67, 0.010122323, -0.34427965, -1134257.0, 98493.13, 0.00012352158, 9.999576, 10.000133 
1.7950776e+3, 1.84206e+2, -1196199.0, -1199967.6, -67397.34, 0.024089959, -0.31761146, -1130659.6, 4087.6372, 0.000000085167756, 9.999663, 9.999629 
1.7950964e+3, 1.9420537e+2, -983132.6, -1028753.1, -7984.1777, 0.02173059, -0.39262062, -981775.6, 54975.234, 0.0, 10.000386, 9.99977 
1.7951144e+3, 2.042044e+2, -924614.3, -1145132.4, -51575.89, -0.018802732, -0.3777115, -913147.7, 25612.875, 0.0, 10.000929, 9.998057 
1.7951319e+3, 2.1420284e+2, -759479.44, -1006701.7, -62877.973, -0.056662466, -0.3778036, -744406.2, 96373.46, 0.0, 10.001376, 9.998112 
1.7951496e+3, 2.2420123e+2, -681425.7, -935386.75, -93430.664, -0.053704977, -0.3291332, -650756.8, 92040.58, 0.0, 10.001311, 9.997963 
1.7951678e+3, 2.3419975e+2, -641019.56, -837189.7, -81010.05, 0.009984569, -0.32841143, -611891.0, 32920.297, 0.0, 10.000817, 9.998185 
1.7951868e+3, 2.441983e+2, -551236.2, -695058.0, -21509.994, 0.054042242, -0.30250704, -548088.06, -1263.3278, 0.0, 10.0005455, 9.99862 
1.7952073e+3, 2.5419673e+2, -395223.3, -542995.56, 1475.446, 0.10090507, -0.37742162, -395208.6, 53630.24, 0.0, 10.000857, 9.998827 
1.7952274e+3, 2.6419535e+2, -294001.34, -550136.6, -11556.299, 0.11977837, -0.34736216, -293481.0, 57370.973, 0.00000013255313, 10.001274, 9.99794 
1.7952468e+3, 2.7419424e+2, -68676.875, -369626.78, 12857.519, 0.063966714, -0.30126846, -68128.555, 184733.95, 0.0000188634, 10.002078, 9.998102 
1.7952663e+3, 2.8419238e+2, 23655.557, -417794.38, 1616.4304, 0.008847389, -0.2308636, 23661.475, 178542.94, 0.00018772867, 10.00266, 9.996823 
1.7952865e+3, 2.9418933e+2, 190262.05, -273826.9, -19564.887, 0.009196348, -0.27543467, 191085.39, 247997.92, 0.00073078944, 10.003103, 9.996903 
1.7953043e+3, 3.0418542e+2, 248651.25, -213146.8, -108503.64, -0.16183117, -0.34320343, 272874.56, 272874.56, 0.0017134675, 10.003099, 9.997022 
1.7953236e+3, 3.141836e+2, 246424.45, 11647.746, 17849.059, -0.07468417, -0.31967264, 247773.69, 247773.69, 0.0029593005, 10.002143, 9.998974 
1.8049666e+3, 1.2418396e+2, -1770084.6, -1812115.0, 155806.42, 0.16431159, -0.35025516, -1633882.5, 89080.734, 0.097200245, 9.99989, 9.999375 
1.8049808e+3, 1.3418369e+2, -1642218.6, -1657271.9, -13285.245, -0.3962985, -0.3705459, -1634476.1, -9503.911, 0.06490086, 9.999946, 9.999705 
1.8050025e+3, 1.4418532e+2, -1580291.0, -1513911.5, -24286.33, -0.06984061, -0.20304884, -1505974.9, 20983.354, 0.034457777, 9.999372, 10.000318 
1.8050237e+3, 1.5418479e+2, -1483512.4, -1378528.3, -20819.092, 0.1336631, -0.35799432, -1374550.4, 54409.37, 0.0127833225, 9.999229, 10.000626 
1.805042e+3, 1.6418464e+2, -1413990.9, -1390038.4, -38718.52, 0.107876286, -0.38304806, -1361486.3, -30527.744, 0.0025744103, 9.9994335, 9.999784 
1.8050596e+3, 1.741847e+2, -1159839.4, -1183576.8, -81394.57, 0.054789342, -0.4118522, -1089452.8, 143503.8, 0.00014305822, 10.000399, 10.000039 
1.8050781e+3, 1.841849e+2, -1046794.2, -1099465.5, -64281.27, 0.07552261, -0.38035154, -1003662.94, 131290.08, 0.00000010953618, 10.000557, 9.99989 
1.8050972e+3, 1.9418535e+2, -1037457.4, -1019272.4, -88437.64, 0.09121708, -0.37656146, -939461.06, 97485.82, 0.0, 9.999865, 10.000085 
1.8051153e+3, 2.0418493e+2, -1078624.8, -1194776.8, -81810.555, 0.047807164, -0.33028242, -1036372.3, -97420.97, 0.0, 9.999769, 9.998284 
1.8051328e+3, 2.1418335e+2, -856541.1, -1026297.6, -59711.574, -0.03851007, -0.35455042, -837641.8, 3328.8022, 0.0, 10.000603, 9.998349 
1.8051508e+3, 2.2418167e+2, -674214.5, -905898.0, -44129.2, -0.044309624, -0.3383477, -666093.75, 76894.31, 0.0, 10.001262, 9.998178 
1.8051693e+3, 2.3417993e+2, -476295.84, -736417.4, -47248.277, 0.03276766, -0.38045457, -467979.6, 177022.84, 0.0, 10.001863, 9.998364 
1.8051885e+3, 2.4417827e+2, -361891.1, -679752.3, 24965.334, 0.08215617, -0.3566123, -359942.22, 187076.1, 0.0, 10.002142, 9.997984 
1.8052085e+3, 2.541765e+2, -294635.03, -581506.94, -33463.28, 0.10628766, -0.3757759, -290783.3, 158254.92, 0.0, 10.001886, 9.998099 
1.8052289e+3, 2.641749e+2, -192384.33, -489999.2, -25971.014, 0.12493085, -0.32782313, -190135.0, 160919.52, 0.00000007008213, 10.001941, 9.998021 
1.805249e+3, 2.741736e+2, 1821.5554, -329982.4, -49650.418, 0.075259745, -0.31015977, 9091.834, 262157.34, 0.000018211349, 10.002533, 9.998162 
1.805269e+3, 2.841716e+2, 23669.08, -398299.28, -23930.367, 0.040967762, -0.25865325, 25021.865, 180106.45, 0.00018396281, 10.002565, 9.9970045 
1.8052894e+3, 2.9416868e+2, 53467.45, -323967.34, -11767.489, 0.06604837, -0.303059, 53833.977, 110949.15, 0.0007176876, 10.002078, 9.997061 
1.8053079e+3, 3.0416548e+2, 185013.89, -219606.48, -14022.045, -0.047502544, -0.3163408, 185499.25, 185499.25, 0.0016608936, 10.00258, 9.997212 
1.8053277e+3, 3.1416407e+2, 519156.0, 135891.13, -29420.51, 0.033602193, -0.25061217, 521401.25, 521401.25, 0.0028185374, 10.003956, 9.999003 
1.8149674e+3, 1.2416477e+2, -1676525.0, -1648080.5, 177126.1, 0.17899589, -0.41921762, -1484606.5, 238540.92, 0.10291468, 10.000019, 10.000521 
1.8149811e+3, 1.341647e+2, -1703117.5, -1782976.6, -18638.828, -0.38283035, -0.3447275, -1698981.5, -73828.63, 0.06887483, 9.999942, 9.998846 
1.8150018e+3, 1.441642e+2, -1563334.3, -1491410.1, -56511.71, -0.13395587, -0.3485922, -1460388.3, 66771.42, 0.036753505, 9.99942, 10.000461 
1.8150225e+3, 1.5416645e+2, -1457351.5, -1333776.5, -11956.296, 0.06572665, -0.25154418, -1332630.4, 96504.77, 0.01378539, 9.999259, 10.000929 
1.8150407e+3, 1.6416675e+2, -1437127.5, -1455185.1, -24085.135, 0.0070231305, -0.23136647, -1420434.5, -89304.11, 0.002842686, 9.999508, 9.9993 
1.8150593e+3, 1.741642e+2, -1212413.1, -1289383.9, -32674.295, -0.044273425, -0.4546461, -1200413.5, 32741.023, 0.00016504708, 10.000375, 9.999328 
1.8150781e+3, 1.8416326e+2, -1077345.0, -1161340.8, -102858.13, -0.013294692, -0.47752905, -1008241.0, 126923.37, 0.00000012908751, 10.000549, 9.99947 
1.8150967e+3, 1.9416457e+2, -1068615.9, -1072636.9, -102540.66, 0.047140237, -0.34978834, -968066.06, 69087.56, 0.0, 9.999812, 9.999745 
1.8151155e+3, 2.041651e+2, -1039050.75, -1077258.5, -69236.17, 0.05605789, -0.2358211, -986331.2, -47181.42, 0.0, 9.999622, 9.999158 
1.8151346e+3, 2.1416438e+2, -821673.44, -901229.4, -13705.686, 0.04499355, -0.27017128, -819378.5, 21777.719, 0.0, 10.000377, 9.999314 
1.8151529e+3, 2.241629e+2, -691143.0, -869146.8, -35472.098, 0.006968426, -0.30458075, -684334.6, 58833.805, 0.0, 10.000951, 9.998581 
1.8151705e+3, 2.3416036e+2, -489075.44, -705591.6, -11010.685, -0.062002372, -0.46357715, -488516.94, 156672.0, 0.0, 10.001616, 9.998696 
1.8151893e+3, 2.4415816e+2, -496919.03, -892791.56, 5098.282, -0.067886055, -0.44729534, -496853.38, 50357.855, 0.0, 10.001854, 9.996655 
1.81521e+3, 2.541566e+2, -422609.84, -795689.94, -24850.178, 0.04597126, -0.3110076, -420961.88, 28272.564, 0.0, 10.001669, 9.996726 
1.8152304e+3, 2.6415437e+2, -253554.97, -547466.7, -17695.734, 0.05021149, -0.24256687, -252493.39, 98765.66, 0.0000000874347, 10.001639, 9.997773 
1.8152499e+3, 2.7415097e+2, -55936.047, -369725.72, -2748.0752, -0.105841525, -0.42577186, -55911.98, 197376.34, 0.00001648955, 10.002206, 9.998035 
1.8152702e+3, 2.8414866e+2, 37014.14, -292558.53, -55359.383, -0.14049658, -0.44206944, 46064.504, 201373.08, 0.00017264257, 10.002219, 9.997901 
1.8152916e+3, 2.941479e+2, 92694.875, -181224.25, -3944.2537, 0.038656417, -0.38178515, 92751.66, 150066.55, 0.00068283465, 10.001808, 9.99817 
1.8153116e+3, 3.0414605e+2, 87479.77, -330174.9, 14776.126, 0.028515331, -0.3009721, 88001.88, 88001.88, 0.0015899244, 10.002194, 9.996635 
1.8153308e+3, 3.1414196e+2, 350353.8, 8038.067, 64690.75, -0.10745868, -0.44188562, 362171.1, 362171.1, 0.0027097075, 10.003077, 9.998504 
1.8249676e+3, 1.2414501e+2, -1594089.5, -1465213.3, 50974.51, 0.20720467, -0.3899118, -1447488.9, 275856.2, 0.10907774, 9.999919, 10.0019245 
1.824981e+3, 1.341457e+2, -1811744.9, -1840119.0, -117410.82, -0.33998856, -0.243719, -1707667.1, -82328.086, 0.07313931, 9.999175, 9.998833 
1.8250023e+3, 1.4414339e+2, -1643772.1, -1534386.9, -47867.63, 0.010734647, -0.43116733, -1516398.1, 10963.519, 0.039204508, 9.9989195, 10.000386 
1.8250224e+3, 1.5414576e+2, -1321940.4, -1291039.8, -67602.36, 0.079396516, -0.29953697, -1237144.6, 192190.95, 0.014855209, 10.000322, 10.000707 
1.8250404e+3, 1.6414613e+2, -1251127.3, -1352319.9, -72979.05, -0.03247931, -0.2653243, -1212920.9, 118409.516, 0.0031336718, 10.000721, 9.999419 
1.8250595e+3, 1.7414424e+2, -1264298.1, -1292775.8, -51904.79, -0.027429786, -0.44010085, -1224714.5, 8633.551, 0.00019006866, 9.999928, 9.999518 
1.8250789e+3, 1.8414351e+2, -1205780.9, -1257212.1, -47582.66, 0.044783663, -0.4367167, -1177409.5, -42052.703, 0.00000015151502, 9.999814, 9.999167 
1.8250974e+3, 1.9414423e+2, -936857.4, -1046052.94, -78389.59, 0.07101473, -0.33313423, -895925.9, 141428.3, 0.0, 10.000901, 9.999399 
1.8251161e+3, 2.041445e+2, -783276.56, -911362.8, -43067.99, 0.091253266, -0.24410626, -770142.1, 169210.66, 0.0, 10.0012, 9.9995165 
1.8251356e+3, 2.1414392e+2, -773698.44, -825955.8, -54448.797, 0.12629634, -0.3092992, -739433.6, 101920.47, 0.0, 10.000494, 9.999753 
1.8251546e+3, 2.2414264e+2, -772001.9, -931783.7, -58234.387, 0.10518827, -0.34173596, -753030.25, -9666.436, 0.0, 10.000477, 9.99839 
1.8251723e+3, 2.3414029e+2, -534478.56, -749519.2, -102275.89, -0.019910986, -0.45762295, -493604.22, 151781.39, 0.0, 10.001399, 9.998504 
1.8251914e+3, 2.4413823e+2, -446944.16, -853716.0, -53488.953, -0.049930807, -0.42382878, -440028.16, 107379.63, 0.0, 10.002137, 9.996777 
1.8252121e+3, 2.5413668e+2, -277094.28, -708421.5, -6100.068, 0.05694589, -0.29920608, -277008.0, 172421.3, 0.0, 10.002598, 9.996864 
1.8252325e+3, 2.6413447e+2, -125067.24, -492584.28, 83567.234, 0.06981349, -0.23613565, -106957.8, 244495.55, 0.00000011582431, 10.002556, 9.99771 
1.825252e+3, 2.74131e+2, -113323.445, -414654.8, 56145.902, -0.07942298, -0.41023827, -103201.97, 150282.33, 0.000015405387, 10.001868, 9.997902 
1.8252726e+3, 2.8412855e+2, -14282.506, -288372.3, 33573.414, -0.08212829, -0.44109997, -10229.998, 145275.4, 0.00016033727, 10.001756, 9.99815 
1.8252945e+3, 2.9412776e+2, 204069.94, -107660.555, -15568.177, 0.11823206, -0.40047562, 204845.5, 262355.66, 0.0006397898, 10.00248, 9.998359 
1.8253152e+3, 3.0412588e+2, 206557.61, -224952.84, 51012.55, 0.15181355, -0.35525045, 212506.23, 212506.23, 0.0015189088, 10.002794, 9.997074 
1.8253338e+3, 3.1412154e+2, 279540.72, -10225.74, 42996.117, -0.0472908, -0.54985005, 285785.97, 285785.97, 0.0026480635, 10.002444, 9.998733 
1.8349662e+3, 1.2412536e+2, -1477739.0, -1257380.9, -162855.47, -0.0034186929, -0.204845, -1170935.1, 552614.56, 0.11569034, 10.000064, 10.00349 
1.8349798e+3, 1.3412675e+2, -1733444.4, -1693940.4, -139944.5, -0.40797466, -0.06608393, -1572360.8, 53169.418, 0.07769921, 9.99924, 9.999825 
1.8350033e+3, 1.4412305e+2, -1657765.1, -1587175.3, -29606.814, 0.17326245, -0.4404746, -1576401.8, -48839.57, 0.04181763, 9.999018, 9.999973 
1.8350226e+3, 1.5412273e+2, -1377826.4, -1415166.8, -2360.3145, 0.03533406, -0.4989761, -1377677.8, 51883.74, 0.015997248, 10.000347, 9.99983 
1.8350405e+3, 1.641227e+2, -1184075.3, -1232357.8, -115097.14, -0.15745476, -0.48723212, -1090614.8, 240944.2, 0.0034491862, 10.000801, 10.000208 
1.8350598e+3, 1.7412455e+2, -1185139.5, -1139302.0, -72368.37, -0.02180571, -0.3879799, -1086310.0, 147229.5, 0.00021871291, 9.999962, 10.00056 
1.8350793e+3, 1.8412535e+2, -1224891.4, -1294547.9, -30877.768, 0.081293836, -0.28129247, -1213174.5, -77641.21, 0.00000018976193, 9.999811, 9.998909 
1.8350981e+3, 1.9412409e+2, -982714.94, -1119090.6, -26485.824, 0.034457207, -0.33519885, -977751.7, 59799.19, 0.0, 10.000806, 9.998942 
1.8351169e+3, 2.0412292e+2, -809772.25, -929865.25, -79824.7, 0.008946097, -0.36029342, -769931.0, 169631.45, 0.0, 10.00104, 9.999469 
1.8351358e+3, 2.1412201e+2, -799412.5, -838135.75, -71779.91, 0.07821306, -0.45803824, -744428.75, 97135.43, 0.0, 10.000315, 9.999757 
1.8351552e+3, 2.2412093e+2, -860988.8, -1055943.9, -41096.676, 0.096152425, -0.43505442, -852679.75, -109106.22, 0.0, 10.000216, 9.997668 
1.8351744e+3, 2.341195e+2, -621572.56, -877035.56, -50372.348, 0.03369281, -0.3820855, -611998.9, 33595.28, 0.0, 10.001169, 9.997745 
1.8351942e+3, 2.4411818e+2, -393914.1, -665983.56, -48803.645, -0.009021588, -0.30149427, -385424.63, 162185.94, 0.0, 10.001801, 9.998233 
1.8352145e+3, 2.5411683e+2, -211585.05, -497383.06, 28448.793, 0.008685974, -0.31545314, -208780.73, 240841.13, 0.0, 10.002281, 9.998467 
1.8352349e+3, 2.641153e+2, -179487.4, -537789.6, 48855.363, 0.01186498, -0.26258233, -172945.3, 178691.02, 0.000000090536304, 10.002255, 9.997547 
1.8352549e+3, 2.741133e+2, -156327.33, -458748.63, 52624.69, -0.008541337, -0.2679467, -147431.72, 106225.04, 0.00001528185, 10.001674, 9.997691 
1.8352756e+3, 2.8411087e+2, -87322.23, -380006.78, 33805.97, 0.019628584, -0.26893434, -83468.28, 72211.33, 0.00015301339, 10.001492, 9.997648 
1.8352973e+3, 2.94108e+2, 119936.01, -202177.4, 38962.316, 0.13113016, -0.38846347, 124581.82, 182285.34, 0.00060731446, 10.002144, 9.997863 
1.835318e+3, 3.041051e+2, 194985.28, -135971.8, 21735.451, 0.122448474, -0.45084545, 196406.64, 196406.64, 0.0014671788, 10.002317, 9.997912 
1.8353347e+3, 3.14103e+2, 221913.47, 25977.334, 57169.74, -0.25578535, -0.5422893, 237374.33, 237374.33, 0.0026243313, 10.001806, 9.9992695 
1.8449649e+3, 1.24105595e+2, -1880382.4, -1424977.8, -29081.742, 0.038703635, -0.28467244, -1423128.1, 300614.97, 0.12272786, 9.997016, 10.003681 
1.844981e+3, 1.341078e+2, -1668450.9, -1677119.5, 2481.8948, -0.22345905, -0.037779342, -1667790.6, -42074.69, 0.08254445, 9.999799, 9.999639 
1.845004e+3, 1.4410368e+2, -1365000.8, -1485132.6, 50171.793, 0.23488887, -0.42659456, -1346803.5, 180948.4, 0.04459436, 10.00123, 9.999633 
1.8450226e+3, 1.5410273e+2, -1431263.5, -1480169.1, 79484.875, 0.0184907, -0.5154559, -1372555.0, 57202.16, 0.017215712, 10.000144, 9.999485 
1.8450405e+3, 1.6410245e+2, -1382230.0, -1344439.9, -17920.19, -0.14626104, -0.50291246, -1337293.5, -5536.484, 0.0037916328, 9.999535, 10.000048 
1.8450603e+3, 1.7410426e+2, -1174754.4, -1148652.5, -96181.31, 0.035577934, -0.3912734, -1064640.8, 169097.75, 0.00025177147, 10.000121, 10.000417 
1.8450801e+3, 1.8410489e+2, -1130704.8, -1255003.5, -44273.832, 0.14675872, -0.29016763, -1116547.4, 19186.36, 0.00000025167606, 10.000474, 9.998861 
1.8450989e+3, 1.9410343e+2, -992903.56, -1128433.6, -34752.656, 0.04840533, -0.36136752, -984511.9, 53240.297, 0.0, 10.000739, 9.998909 
1.845118e+3, 2.0410208e+2, -822685.75, -974081.94, -75148.016, 0.02495165, -0.38788876, -791718.9, 148046.88, 0.0, 10.001125, 9.999127 
1.8451375e+3, 2.1410103e+2, -583523.4, -777153.06, -126642.46, 0.13191085, -0.45845675, -520928.63, 320842.2, 0.0, 10.001999, 9.999371 
1.845157e+3, 2.2410001e+2, -593021.1, -942926.0, -64483.86, 0.17461617, -0.40260422, -581515.75, 162265.4, 0.0, 10.002132, 9.99751 
1.845176e+3, 2.3409879e+2, -613782.94, -891717.0, -56986.098, 0.07954233, -0.31633428, -602552.56, 43248.355, 0.0, 10.001291, 9.997574 
1.8451957e+3, 2.4409752e+2, -475578.06, -607902.9, -13461.498, 0.024770329, -0.26276335, -474222.5, 73592.64, 0.0, 10.000835, 9.999083 
1.8452162e+3, 2.5409612e+2, -331913.06, -453089.63, -20672.6, 0.023405947, -0.37319654, -328483.4, 121338.664, 0.0, 10.001005, 9.999384 
1.8452369e+3, 2.640948e+2, -270944.3, -563491.0, 16126.428, 0.0525523, -0.35837507, -270058.03, 81774.22, 0.00000009817215, 10.001564, 9.997698 
1.845258e+3, 2.7409348e+2, -3320.29, -378569.16, 8733.2705, 0.097221486, -0.29769987, -3117.1482, 250730.17, 0.000013983738, 10.002714, 9.997731 
1.8452792e+3, 2.840912e+2, 140957.22, -303632.66, 29920.748, 0.14343995, -0.2664743, 142961.83, 298831.72, 0.00014297603, 10.003197, 9.997359 
1.8453002e+3, 2.9408792e+2, 190819.66, -200400.52, -7155.271, 0.17927171, -0.39174366, 190950.48, 248850.28, 0.00057426473, 10.002758, 9.997592 
1.8453206e+3, 3.0408457e+2, 241690.86, -67972.07, 8291.19, 0.16451, -0.5088069, 241912.7, 241912.7, 0.0014121899, 10.00243, 9.998335 
1.845337e+3, 3.1408304e+2, 314090.03, 114292.06, -124802.68, -0.20585835, -0.56906754, 374052.0, 374052.0, 0.002578712, 10.002222, 9.999685 
1.8549627e+3, 1.2408764e+2, -1955284.4, -1614011.6, -49747.8, 0.021241594, -0.45629576, -1606907.8, 116998.586, 0.13014582, 9.997223, 10.002136 
1.8549843e+3, 1.340888e+2, -1778929.5, -1911659.3, 137424.36, 0.08782621, -0.17488995, -1692684.5, -66788.05, 0.08765755, 9.999806, 9.998034 
1.8550037e+3, 1.4408517e+2, -1363879.3, -1503799.4, 8672.583, 0.033051334, -0.4094437, -1363343.8, 164588.52, 0.04753598, 10.001326, 9.999458 
1.8550217e+3, 1.5408567e+2, -1410240.9, -1450914.1, 47228.78, -0.1091594, -0.3616183, -1379156.3, 50767.414, 0.01851746, 10.000202, 9.9996605 
1.8550403e+3, 1.640853e+2, -1450902.5, -1505667.4, -23659.498, -0.17122878, -0.32013333, -1442097.0, -110171.67, 0.0041650403, 9.999615, 9.998901 
1.8550606e+3, 1.7408326e+2, -1272296.9, -1352551.0, -61369.152, 0.023669232, -0.45866522, -1239100.4, -5154.589, 0.00029041685, 10.000119, 9.999022 
1.8550804e+3, 1.8408205e+2, -1114279.8, -1222249.8, -51108.184, 0.09611894, -0.4736274, -1093924.9, 42033.867, 0.0000003514084, 10.000482, 9.999084 
1.8550994e+3, 1.9408226e+2, -978264.3, -1074850.1, -15139.313, -0.013240075, -0.4147295, -975946.94, 62011.31, 0.0, 10.000637, 9.999328 
1.855119e+3, 2.0408195e+2, -900420.94, -1092299.1, -59971.473, -0.014421951, -0.3253989, -883219.0, 56743.773, 0.0, 10.000939, 9.998405 
1.85514e+3, 2.1408087e+2, -675674.0, -915649.06, -79133.75, 0.17169154, -0.32005572, -651928.6, 190046.19, 0.0, 10.001774, 9.998526 
1.8551596e+3, 2.2407964e+2, -602612.9, -900340.2, -102021.3, 0.19694088, -0.25760862, -571008.44, 172980.11, 0.0, 10.001853, 9.997942 
1.8551767e+3, 2.3407811e+2, -609963.94, -833412.8, -71853.055, -0.007831741, -0.2529424, -588853.1, 57152.68, 0.0, 10.001069, 9.998086 
1.8551956e+3, 2.4407645e+2, -504518.22, -603446.3, -21449.8, -0.1023246, -0.273005, -500067.66, 47952.29, 0.0, 10.000558, 9.999245 
1.8552169e+3, 2.5407454e+2, -349739.3, -437027.84, 2039.4147, -0.019691773, -0.45617896, -349691.7, 100338.086, 0.0, 10.000787, 9.999592 
1.8552388e+3, 2.6407292e+2, -284299.56, -529443.5, 37826.414, 0.0499403, -0.498292, -278595.56, 73445.44, 0.00000008466028, 10.001298, 9.99806 
1.8552612e+3, 2.7407154e+2, -22937.953, -349080.75, 72671.43, 0.107099675, -0.48657116, -7478.071, 246577.81, 0.000011476472, 10.002417, 9.9980755 
1.8552825e+3, 2.8406972e+2, 58045.008, -385999.9, -960.88904, 0.12587449, -0.41047236, 58047.086, 214122.44, 0.00012753508, 10.002808, 9.996985 
1.8553023e+3, 2.9406753e+2, 122823.664, -255764.81, -141.05241, 0.101384625, -0.39184457, 122823.72, 180922.53, 0.00053210376, 10.002397, 9.997384 
1.8553224e+3, 3.0406415e+2, 160689.75, -130631.73, -22336.543, 0.062044535, -0.49618003, 162392.4, 162392.4, 0.0013364267, 10.001976, 9.998121 
1.8553407e+3, 3.1406334e+2, 232826.48, 116013.914, -117118.91, -0.11894653, -0.46228522, 305294.7, 305294.7, 0.002472215, 10.001524, 10.000015 
1.8649606e+3, 1.24068625e+2, -1804570.1, -1532265.0, -196116.73, 0.06531655, -0.44047204, -1429672.4, 294418.16, 0.1378835, 9.998269, 10.002295 
1.8649843e+3, 1.3406907e+2, -1884878.3, -1989558.8, 76283.31, 0.15628889, -0.22320999, -1844705.5, -218617.28, 0.09301642, 9.999216, 9.9977665 
1.8650042e+3, 1.4406568e+2, -1629491.1, -1646445.5, -30030.752, 0.05791062, -0.41340515, -1606764.0, -78641.414, 0.050644647, 9.999515, 9.999334 
1.8650226e+3, 1.540666e+2, -1427774.1, -1470860.1, -55367.688, -0.03706796, -0.31337446, -1389906.0, 40205.37, 0.01991141, 10.0001335, 9.999557 
1.8650414e+3, 1.6406617e+2, -1321214.0, -1478140.3, -48520.035, -0.057825718, -0.25896433, -1307423.9, 24690.678, 0.0045744055, 10.000645, 9.998589 
1.8650614e+3, 1.7406327e+2, -1120457.5, -1308879.1, -32330.082, 0.03468042, -0.45614612, -1115064.5, 119078.22, 0.0003360051, 10.001297, 9.998739 
1.8650809e+3, 1.8406175e+2, -990970.3, -1160775.6, 21071.932, 0.07324453, -0.48957914, -988394.5, 147763.56, 0.00000050835786, 10.00132, 9.999103 
1.8651003e+3, 1.9406241e+2, -954744.56, -1059010.1, -1837.4028, 0.010482887, -0.3920753, -954712.2, 83440.195, 0.0, 10.000776, 9.999376 
1.8651201e+3, 2.0406222e+2, -988717.8, -1174822.8, 6741.437, 0.042590678, -0.2801138, -988473.94, -48317.813, 0.0, 10.000493, 9.998059 
1.8651414e+3, 2.1406057e+2, -848188.9, -1045592.8, -4191.102, 0.18458769, -0.2905502, -848099.94, -5924.3735, 0.0, 10.000766, 9.998127 
1.865161e+3, 2.2405899e+2, -690174.9, -888097.6, -8475.804, 0.20249902, -0.2660321, -689812.6, 54379.496, 0.0, 10.001031, 9.998424 
1.865178e+3, 2.3405752e+2, -522498.16, -727805.8, -12947.889, 0.018995527, -0.30864644, -521684.8, 124519.305, 0.0, 10.00141, 9.998652 
1.8651971e+3, 2.4405572e+2, -372024.56, -615947.4, 53911.254, -0.049761537, -0.33823562, -360640.5, 187577.47, 0.0, 10.001788, 9.998571 
1.8652187e+3, 2.5405347e+2, -208236.98, -461103.56, -16183.281, 0.024860034, -0.47596762, -207205.47, 243029.6, 0.0, 10.002154, 9.998772 
1.8652408e+3, 2.640515e+2, -137233.83, -435805.66, 8257.911, 0.08668292, -0.5188797, -137005.6, 215246.34, 0.000000065173005, 10.00221, 9.998266 
1.8652631e+3, 2.740499e+2, -79743.13, -343774.94, -3273.0435, 0.11641675, -0.54977614, -79702.56, 174565.48, 0.000009433609, 10.0018835, 9.998372 
1.8652847e+3, 2.840487e+2, -72030.56, -388408.44, -35523.492, 0.13274856, -0.45179957, -68090.98, 88189.95, 0.00011541226, 10.001667, 9.997504 
1.8653043e+3, 2.9404795e+2, 46215.684, -235235.11, -23105.883, 0.09352744, -0.3432542, 48099.96, 106390.73, 0.00049646525, 10.001628, 9.997886 
1.865324e+3, 3.040444e+2, 107823.1, -227228.0, 30437.791, 0.047282882, -0.460494, 110565.78, 110565.78, 0.0012601638, 10.0019, 9.997488 
1.8653443e+3, 3.1404385e+2, 366713.6, 109397.914, -210286.66, 0.05204235, -0.32702824, 484578.22, 484578.22, 0.002330116, 10.002703, 9.999407 
1.874959e+3, 1.2404747e+2, -1665231.5, -1294758.3, -226333.06, -0.027912809, -0.40412983, -1187523.9, 536782.7, 0.14588223, 9.9983835, 10.004137 
1.874981e+3, 1.3404863e+2, -1815522.5, -1855053.4, 103709.7, -0.1433357, -0.1997206, -1729711.5, -103420.69, 0.0986057, 9.999249, 9.998679 
1.8750048e+3, 1.4404525e+2, -1622905.8, -1657380.3, -26006.318, 0.11661931, -0.44047493, -1608942.8, -80619.99, 0.053927336, 9.999612, 9.999215 
1.8750244e+3, 1.5404546e+2, -1448232.5, -1520317.5, -16871.805, 0.100361325, -0.3773774, -1444479.0, -14157.908, 0.021407956, 10.000151, 9.999211 
1.8750435e+3, 1.6404505e+2, -1266274.4, -1377726.3, -39147.426, 0.04209912, -0.32856777, -1253898.3, 78426.29, 0.0050250688, 10.000709, 9.9992485 
1.875062e+3, 1.7404424e+2, -1068581.3, -1199370.0, 4468.162, -0.06396569, -0.39026168, -1068428.9, 165901.33, 0.00038988978, 10.001278, 9.999509 
1.875081e+3, 1.8404375e+2, -1002550.06, -1183256.5, -14845.943, -0.10080118, -0.35625, -1001338.5, 134995.7, 0.000000733184, 10.001315, 9.998952 
1.875101e+3, 1.9404374e+2, -992372.9, -1110690.8, -12243.892, -0.0071929595, -0.29402164, -991119.1, 47216.473, 0.0, 10.000669, 9.999073 
1.875121e+3, 2.0404272e+2, -999179.1, -1173935.9, -4152.7007, 0.044937707, -0.2514149, -999080.5, -58733.516, 0.0, 10.000384, 9.998123 
1.875141e+3, 2.140402e+2, -869421.0, -1048311.5, 17844.535, 0.045728814, -0.3579411, -867658.3, -25285.377, 0.0, 10.000584, 9.998198 
1.8751605e+3, 2.2403814e+2, -703142.75, -854591.0, -9883.074, 0.033920884, -0.4008292, -702500.56, 41890.75, 0.0, 10.000763, 9.998786 
1.8751799e+3, 2.3403677e+2, -525977.6, -679133.5, 14877.757, 0.02901797, -0.47828987, -524545.75, 121852.234, 0.0, 10.001171, 9.999096 
1.8752e+3, 2.4403507e+2, -517091.1, -850369.3, 52195.41, 0.02385857, -0.45964566, -509107.88, 39304.53, 0.0, 10.001494, 9.99711 
1.8752211e+3, 2.540327e+2, -360889.16, -717771.6, 16609.318, 0.01867257, -0.44559976, -360117.8, 90321.81, 0.0, 10.001902, 9.99713 
1.8752426e+3, 2.640304e+2, -183944.44, -471947.97, -13962.089, 0.008253226, -0.4244332, -183269.16, 169195.64, 0.00000004605578, 10.001932, 9.99816 
1.875264e+3, 2.7402857e+2, -112593.266, -348789.22, 8177.162, -0.008988069, -0.48642802, -112310.51, 142172.72, 0.000008319171, 10.001604, 9.998478 
1.875285e+3, 2.840281e+2, -37433.4, -240572.69, -52037.06, -0.023329131, -0.37666118, -24879.215, 131607.89, 0.00010877432, 10.001336, 9.998683 
1.8753052e+3, 2.940287e+2, 79707.88, -85066.48, 4041.0676, -0.00401993, -0.26024306, 79806.93, 138286.27, 0.00047256332, 10.001289, 9.999079 
1.8753247e+3, 3.040248e+2, -30259.275, -410122.16, 34851.71, -0.10057862, -0.42754772, -27088.168, -27088.168, 0.0011935771, 10.00147, 9.996435 
1.875349e+3, 3.1402364e+2, 147362.77, -145772.69, -120038.66, 0.1807467, -0.23355247, 190245.23, 190245.23, 0.0021828366, 10.001885, 9.998031 
1.8849593e+3, 1.24027655e+2, -1518586.8, -1255453.9, -34952.434, 0.12887987, -0.34830555, -1250890.3, 473613.9, 0.15411249, 9.999601, 10.003916 
1.8849802e+3, 1.3402821e+2, -1884671.4, -1937849.6, 96685.54, -0.10788984, -0.180516, -1810985.5, -184491.75, 0.10442951, 9.998959, 9.99826 
1.8850045e+3, 1.4402454e+2, -1677595.3, -1674004.9, -35064.805, 0.16039667, -0.42552134, -1640689.4, -112161.625, 0.057399224, 9.999231, 9.999262 
1.885025e+3, 1.5402481e+2, -1469643.0, -1494892.1, -20461.217, 0.17410374, -0.38165912, -1458225.1, -27700.434, 0.023018045, 9.999906, 9.999473 
1.8850446e+3, 1.6402462e+2, -1347246.0, -1412842.8, -16277.559, 0.115996204, -0.32807985, -1343428.9, -10903.484, 0.005521801, 10.000117, 9.999297 
1.8850629e+3, 1.7402415e+2, -1213146.9, -1265447.1, -51227.516, -0.04281943, -0.36195847, -1181781.0, 52747.06, 0.0004532519, 10.000252, 9.999558 
1.885082e+3, 1.8402378e+2, -1154617.5, -1258949.1, -82194.02, -0.07532783, -0.31807527, -1109432.8, 27098.191, 0.0000010252129, 10.000288, 9.998918 
1.8851022e+3, 1.9402337e+2, -1004037.75, -1117944.5, -82784.016, 0.057155143, -0.2978447, -960507.94, 78027.87, 0.0, 10.000595, 9.999047 
1.8851224e+3, 2.0402223e+2, -883692.2, -1084535.6, -7793.2007, 0.11214443, -0.28036073, -883390.25, 57157.105, 0.0, 10.001042, 9.998417 
1.885142e+3, 2.1401995e+2, -649019.1, -904177.9, 2774.0562, 0.0354821, -0.39051113, -648988.94, 193580.28, 0.0, 10.001935, 9.998537 
1.8851618e+3, 2.2401798e+2, -496786.06, -772026.6, -23808.357, 0.022439413, -0.4358749, -494741.8, 249844.36, 0.0, 10.002266, 9.998618 
1.8851818e+3, 2.3401639e+2, -435531.03, -665135.56, -74931.29, 0.07354061, -0.50916785, -413241.16, 233355.03, 0.0, 10.001923, 9.998831 
1.8852021e+3, 2.440147e+2, -473614.97, -840405.8, 18705.895, 0.089406244, -0.46883708, -472663.47, 75948.625, 0.0, 10.001852, 9.997001 
1.8852231e+3, 2.5401267e+2, -323341.72, -719056.1, 51296.797, 0.027462706, -0.40551367, -316800.22, 133838.1, 0.0, 10.002237, 9.9969635 
1.8852444e+3, 2.6401055e+2, -170731.11, -471944.3, 74401.83, 0.00956725, -0.35161874, -153355.63, 199307.2, 0.000000017635879, 10.00208, 9.99807 
1.8852656e+3, 2.7400884e+2, -166345.67, -375857.97, 47611.734, 0.015292766, -0.39893222, -156033.45, 98646.945, 0.000007223604, 10.001275, 9.998426 
1.8852866e+3, 2.8400823e+2, -58624.184, -234260.4, 25465.436, 0.018145688, -0.30799812, -55006.477, 101678.9, 0.00010058898, 10.001147, 9.998805 
1.8853073e+3, 2.9400814e+2, 214584.61, -12471.924, -39863.332, 0.040469132, -0.26628947, 221379.88, 280062.56, 0.0004433926, 10.002184, 9.9991455 
1.885326e+3, 3.0400476e+2, 156514.0, -236703.47, 12724.784, -0.13543504, -0.42256713, 156925.36, 156925.36, 0.0011175724, 10.002343, 9.997242 
1.8853515e+3, 3.1400424e+2, -10679.627, -194496.19, -83314.66, 0.3348274, -0.24599919, 21462.338, 21462.338, 0.0020292015, 10.00065, 9.998312 
1.8949595e+3, 1.24010436e+2, -1658546.5, -1593779.3, 116013.41, 0.09294414, -0.1693008, -1505714.5, 218956.02, 0.16258536, 9.999827, 10.001108 
1.8949814e+3, 1.3400818e+2, -2003795.4, -2185863.0, 104559.36, 0.088362195, -0.12972613, -1956193.6, -329500.25, 0.110513955, 9.998952, 9.996576 
1.8950029e+3, 1.4400354e+2, -1650535.3, -1623075.8, -21749.494, 0.019648425, -0.38213447, -1611085.0, -82346.97, 0.06108175, 9.999263, 9.999592 
1.8950242e+3, 1.5400456e+2, -1419461.9, -1391539.1, 15621.187, 0.057344142, -0.3321161, -1384549.6, 46173.688, 0.024752133, 9.999907, 10.000191 
1.895044e+3, 1.6400473e+2, -1358528.1, -1465043.8, -28107.178, -0.0076380884, -0.26301685, -1351566.3, -18847.19, 0.0060684755, 10.000235, 9.998884 
1.8950637e+3, 1.74003e+2, -1254141.0, -1348804.3, -37102.07, -0.027437229, -0.36820373, -1241332.4, -6595.5977, 0.0005270964, 10.000243, 9.99899 
1.8950835e+3, 1.8400179e+2, -1136656.9, -1226417.1, -86923.68, 0.0032521777, -0.38650176, -1083710.9, 53037.977, 0.0000013718216, 10.000317, 9.999122 
1.8951032e+3, 1.9400151e+2, -999722.2, -1083415.8, -62693.64, 0.06686246, -0.38216877, -966192.3, 72558.33, 0.0, 10.000495, 9.999328 
1.8951233e+3, 2.0400093e+2, -872501.2, -1032554.0, 10417.259, 0.075564, -0.3435506, -871826.0, 68929.19, 0.0, 10.000905, 9.998847 
1.8951441e+3, 2.1399984e+2, -644993.75, -850136.25, 51106.957, 0.034250528, -0.3850255, -632966.6, 209797.83, 0.0, 10.00173, 9.999011 
1.8951643e+3, 2.2399835e+2, -591738.0, -898315.75, -47614.355, 0.017153373, -0.37506118, -584513.3, 160264.94, 0.0, 10.001962, 9.997895 
1.8951832e+3, 2.339964e+2, -529934.94, -805113.3, -69277.73, 0.016598834, -0.40370545, -513478.06, 133319.6, 0.0, 10.001683, 9.997979 
1.8952033e+3, 2.439947e+2, -450682.34, -731665.06, 15913.608, -0.012836859, -0.35708404, -449783.94, 99031.55, 0.0, 10.001574, 9.997889 
1.8952246e+3, 2.5399327e+2, -284664.47, -575517.3, 81713.67, -0.06676395, -0.3456036, -263279.72, 187552.34, 0.0, 10.0019655, 9.998079 
1.895246e+3, 2.639917e+2, -223383.72, -511768.03, 33242.875, -0.05482933, -0.29310238, -219601.33, 133247.95, 0.0000000071100716, 10.001779, 9.997943 
1.8952674e+3, 2.7399027e+2, -220008.78, -424885.47, 35952.59, 0.037365917, -0.29160127, -213882.84, 40981.2, 0.0000064443307, 10.001018, 9.99821 
1.8952885e+3, 2.8398874e+2, -161945.64, -383592.7, 37578.21, 0.061424416, -0.24086851, -155747.9, 1130.702, 0.0000894982, 10.000856, 9.997923 
1.8953097e+3, 2.939862e+2, 78773.26, -204407.8, 31638.488, 0.04495779, -0.35213134, 82265.02, 141166.9, 0.00040206578, 10.001788, 9.998023 
1.8953271e+3, 3.039842e+2, 243896.0, 65714.09, -52031.684, -0.303997, -0.41149622, 257977.2, 257977.2, 0.0010247865, 10.001858, 9.9995365 
1.8953519e+3, 3.1398553e+2, -32844.535, -55862.242, -39208.09, 0.2266664, -0.32382482, -3491.083, -3491.083, 0.001871482, 9.99994, 9.999573 
1.9049588e+3, 1.2398712e+2, -1705420.3, -1702204.9, 165133.08, 0.035236187, -0.24047954, -1538671.6, 186223.34, 0.1713416, 10.000013, 10.000179 
1.9049817e+3, 1.3398556e+2, -1822220.5, -2020738.9, -27082.135, 0.1825676, -0.22403704, -1818592.3, -191679.06, 0.11689223, 9.999915, 9.997212 
1.9050023e+3, 1.4398324e+2, -1651368.9, -1632168.9, 2398.7947, 0.056355577, -0.26000053, -1631873.8, -102937.83, 0.06499328, 9.999251, 9.999559 
1.905024e+3, 1.5398303e+2, -1453991.0, -1377463.0, -23969.547, 0.08702244, -0.36237562, -1370575.4, 60357.754, 0.026617203, 9.999483, 10.000522 
1.9050442e+3, 1.6398323e+2, -1457012.1, -1492791.6, -39980.855, 0.04292306, -0.31619322, -1431101.0, -98171.78, 0.0066676727, 9.999491, 9.99905 
1.9050643e+3, 1.7398246e+2, -1296271.3, -1347511.3, -24862.342, 0.049585935, -0.3415474, -1286190.9, -51251.62, 0.0006122247, 9.999882, 9.999162 
1.9050844e+3, 1.8398128e+2, -1173773.0, -1251538.1, -28397.736, 0.08684178, -0.36086127, -1164507.0, -27555.72, 0.0000017786746, 10.000103, 9.999056 
1.9051038e+3, 1.9398008e+2, -1008770.9, -1098849.1, -61692.492, 0.08925581, -0.43398204, -977426.2, 61534.83, 0.0, 10.000486, 9.999238 
1.9051242e+3, 2.0397937e+2, -896234.94, -1011319.25, 21568.46, 0.08961433, -0.4119618, -892325.5, 48640.98, 0.0, 10.000634, 9.999104 
1.9051458e+3, 2.1397921e+2, -769894.8, -877914.5, 15642.984, 0.084957555, -0.38906837, -767675.06, 75292.14, 0.0, 10.000753, 9.999277 
1.9051664e+3, 2.2397831e+2, -711429.2, -957868.06, -46487.055, 0.08029552, -0.33459193, -702951.7, 42024.48, 0.0, 10.001124, 9.9979 
1.9051853e+3, 2.3397645e+2, -493081.75, -796887.7, -38147.984, 0.044394415, -0.35122246, -488364.84, 158631.39, 0.0, 10.001945, 9.997924 
1.9052051e+3, 2.4397492e+2, -365016.84, -640976.44, 74485.82, 0.008691087, -0.30394152, -346195.6, 202816.95, 0.0, 10.00198, 9.998298 
1.9052263e+3, 2.5397363e+2, -379064.13, -565525.9, 59006.06, -0.040845644, -0.3245491, -361960.47, 89065.66, 0.0, 10.001094, 9.998555 
1.9052477e+3, 2.639722e+2, -310481.0, -537045.7, 47928.918, -0.023660472, -0.29359972, -300759.0, 52281.293, 0.000000016068412, 10.0010805, 9.998116 
1.9052692e+3, 2.7397084e+2, -228.71004, -314321.47, 40356.063, 0.05474198, -0.2907236, 4873.537, 259925.83, 0.000006020835, 10.002447, 9.998305 
1.9052908e+3, 2.8396887e+2, 90872.07, -307000.44, 92223.19, 0.11882705, -0.27818894, 111209.05, 268280.53, 0.00007835106, 10.002764, 9.997541 
1.9053127e+3, 2.9396537e+2, 36798.992, -266826.34, 75133.58, 0.17782414, -0.44217125, 54373.87, 113480.17, 0.00035541714, 10.00168, 9.997642 
1.9053295e+3, 3.0396435e+2, 245172.1, 94227.24, 2539.291, -0.21805915, -0.39272574, 245214.8, 245214.8, 0.0009238466, 10.001756, 9.9997835 
1.9053537e+3, 3.1396472e+2, 458990.8, 141266.05, -200420.42, 0.2636452, -0.4165703, 555873.6, 555873.6, 0.0017193623, 10.003408, 9.999305 
1.9149585e+3, 1.23958044e+2, -1696750.5, -1657781.0, 398489.75, -0.07166052, -0.5335666, -1278299.9, 446874.47, 0.18042894, 10.000022, 10.000695 
1.9149806e+3, 1.3395984e+2, -1619958.5, -1600617.3, -48700.76, 0.046396136, -0.4984509, -1560636.3, 66522.04, 0.12358676, 9.99993, 10.00012 
1.9150026e+3, 1.439634e+2, -1643665.1, -1655828.4, -16050.705, 0.08770932, -0.06935466, -1632582.5, -103458.41, 0.069141634, 9.999418, 9.999319 
1.9150242e+3, 1.5396029e+2, -1449029.3, -1367328.5, -7222.157, 0.117126256, -0.4629063, -1366695.0, 64458.82, 0.028615344, 9.999485, 10.000591 
1.9150446e+3, 1.6396031e+2, -1391827.1, -1380758.8, -45277.3, 0.1000643, -0.4732473, -1340678.6, -7524.7095, 0.0073205116, 9.999587, 9.999771 
1.9150646e+3, 1.7396256e+2, -1247391.0, -1239060.0, -1188.3546, 0.05609843, -0.2720533, -1238893.9, -3759.3494, 0.00070924795, 9.999856, 9.999914 
1.9150843e+3, 1.8396232e+2, -1195477.4, -1307744.4, -33999.39, 0.021005707, -0.22242455, -1185983.8, -48845.992, 0.0000023137907, 10.00014, 9.998659 
1.9151036e+3, 1.9395912e+2, -1057170.8, -1175221.5, -36731.39, 0.0070257545, -0.44513997, -1046674.94, -7508.1636, 0.0, 10.000381, 9.998765 
1.9151242e+3, 2.0395748e+2, -920951.3, -1032791.44, 12278.85, 0.0047863545, -0.4863074, -919619.1, 21562.936, 0.0, 10.000495, 9.999024 
1.9151464e+3, 2.1395801e+2, -798225.25, -890298.7, 30951.74, 0.055973105, -0.39816347, -788787.75, 54390.484, 0.0, 10.000547, 9.999289 
1.9151677e+3, 2.2395782e+2, -706231.6, -877460.2, -30444.879, 0.06981251, -0.3057959, -700979.56, 44200.902, 0.0, 10.00082, 9.998602 
1.9151874e+3, 2.3395665e+2, -481425.47, -702209.5, 7348.885, 0.03732266, -0.32827184, -481181.13, 166010.03, 0.0, 10.001655, 9.998712 
1.9152072e+3, 2.4395527e+2, -418080.4, -680097.4, 32744.875, -0.0059635667, -0.30129498, -414050.2, 135154.25, 0.0, 10.001666, 9.998184 
1.9152275e+3, 2.5395367e+2, -426068.6, -607667.25, 41168.5, -0.04482646, -0.3357859, -417171.56, 34049.707, 0.0, 10.000857, 9.998379 
1.9152486e+3, 2.6395217e+2, -325593.66, -504918.16, 71011.0, -0.069024414, -0.31680924, -300879.88, 52354.793, 0.000000038925435, 10.000799, 9.998478 
1.9152705e+3, 2.739508e+2, -16819.008, -275527.06, 106696.586, -0.07630342, -0.36604536, 21507.096, 276751.44, 0.0000054500297, 10.00214, 9.998717 
1.9152929e+3, 2.8394857e+2, 38353.047, -336269.28, 38508.38, 0.009479907, -0.39421692, 42270.457, 199535.0, 0.00006657065, 10.00242, 9.997507 
1.9153154e+3, 2.9394528e+2, -21522.91, -305102.4, 55939.816, 0.255329, -0.5299235, -10886.952, 48412.316, 0.0003045757, 10.001334, 9.997545 
1.9153328e+3, 3.0394515e+2, 72248.25, -180980.42, 30071.293, -0.10449088, -0.3087965, 75770.28, 75770.28, 0.0008128925, 10.001392, 9.998059 
1.9153538e+3, 3.1394374e+2, 233039.81, -113190.9, -32749.088, -0.09781465, -0.3462701, 236110.23, 236110.23, 0.0015555569, 10.002545, 9.997934 
1.9249591e+3, 1.2393452e+2, -2017313.6, -1854139.9, 389991.97, 0.13313484, -0.2923166, -1537292.1, 188111.69, 0.18987963, 9.997827, 10.000253 
1.9249803e+3, 1.3393542e+2, -1561534.9, -1307657.8, -79334.72, 0.096336775, -0.61971843, -1284905.4, 342487.72, 0.13060497, 9.999031, 10.002872 
1.9250026e+3, 1.4394051e+2, -1698188.9, -1653171.6, 7492.997, 0.19564585, -0.19340095, -1651957.3, -122614.35, 0.07352615, 9.99894, 9.999553 
1.9250235e+3, 1.5393873e+2, -1505718.8, -1377032.6, -4316.887, 0.1426185, -0.4704828, -1376888.0, 54475.14, 0.030745408, 9.999038, 10.000727 
1.9250442e+3, 1.6393918e+2, -1432746.6, -1382664.4, -20395.342, 0.11330569, -0.45201886, -1375409.6, -42048.24, 0.008026891, 9.999239, 9.999918 
1.9250645e+3, 1.7394157e+2, -1235023.5, -1218328.4, -49445.594, 0.07367521, -0.2527039, -1176530.6, 58810.348, 0.0008187495, 9.999875, 10.0000515 
1.9250849e+3, 1.8394172e+2, -1161147.0, -1270668.6, -54753.574, 0.069958806, -0.1797806, -1138469.5, -1128.9513, 0.0000031359323, 10.000253, 9.998869 
1.9251047e+3, 1.93939e+2, -978627.0, -1111023.6, -30056.275, 0.069268465, -0.38520864, -972123.25, 67241.71, 0.0, 10.000763, 9.999027 
1.9251254e+3, 2.039375e+2, -887719.7, -1045866.9, 52033.45, 0.07412099, -0.42053074, -872135.4, 69244.15, 0.0, 10.000846, 9.99877 
1.9251472e+3, 2.1393768e+2, -806767.56, -931595.8, 19532.084, 0.07687042, -0.3295903, -803782.75, 39598.063, 0.0, 10.0006485, 9.998962 
1.9251683e+3, 2.2393733e+2, -721198.44, -836956.5, -17026.945, 0.085701555, -0.25305107, -718745.94, 26638.984, 0.0, 10.000546, 9.998998 
1.9251888e+3, 2.3393607e+2, -578568.4, -693077.0, -33262.37, 0.07013955, -0.33054876, -569607.6, 77786.59, 0.0, 10.000765, 9.999196 
1.925209e+3, 2.439346e+2, -507853.9, -735472.4, -14184.2295, 0.04573511, -0.33753234, -506973.44, 42433.484, 0.0, 10.001076, 9.998097 
1.925229e+3, 2.5393304e+2, -324400.34, -584827.6, -34540.723, -0.015281153, -0.34660017, -319897.03, 131525.9, 0.0, 10.001637, 9.9981785 
1.92525e+3, 2.639314e+2, -188070.92, -440043.44, 36041.72, -0.049522944, -0.3314514, -183016.95, 170420.95, 0.000000047147957, 10.001768, 9.998448 
1.925272e+3, 2.7392936e+2, -134795.97, -333567.8, 4623.822, -0.08807736, -0.44208497, -134688.47, 120765.78, 0.0000044268, 10.001343, 9.998702 
1.9252947e+3, 2.8392753e+2, -75290.734, -342289.72, -46354.824, 0.01821328, -0.4500815, -67471.84, 89999.29, 0.000054025306, 10.001453, 9.997916 
1.925318e+3, 2.9392633e+2, 200502.67, -158419.25, -38374.92, 0.33260867, -0.41347253, 204559.75, 264045.6, 0.0002523606, 10.00267, 9.9979105 
1.9253364e+3, 3.0392537e+2, 277971.34, -151981.58, 48409.04, 0.052922662, -0.26676047, 283354.4, 283354.4, 0.0006949562, 10.0030985, 9.99744 
1.9253562e+3, 3.1392348e+2, 179964.38, -156055.63, -3403.072, -0.076872736, -0.2724582, 179998.83, 179998.83, 0.0013694268, 10.0021715, 9.997854 
1.9349559e+3, 1.23910405e+2, -2069497.6, -1995904.0, -211373.42, -0.04916871, -0.123148054, -1818148.5, -92504.81, 0.1997211, 9.997939, 9.999037 
1.9349802e+3, 1.3391213e+2, -1404015.6, -975778.4, -55437.62, 0.13882716, -0.6029012, -968718.06, 658901.3, 0.13795441, 9.999001, 10.005553 
1.9350019e+3, 1.4391498e+2, -1628194.6, -1539350.9, -14436.975, 0.17834112, -0.59545463, -1537063.8, -7475.2407, 0.07814733, 9.999063, 10.00028 
1.9350219e+3, 1.5391837e+2, -1488923.8, -1356861.3, 10363.568, 0.03812104, -0.37446037, -1356052.9, 75508.02, 0.033007, 9.999083, 10.000857 
1.9350418e+3, 1.6391966e+2, -1441494.8, -1426360.6, -14474.57, -0.086187504, -0.26157427, -1417594.5, -84041.29, 0.008786739, 9.99934, 9.999577 
1.9350637e+3, 1.7391942e+2, -1260475.3, -1276062.6, -16171.659, -0.021113496, -0.28565222, -1250317.3, -14757.605, 0.00094156526, 9.999888, 9.999655 
1.9350855e+3, 1.8391955e+2, -1092363.3, -1135664.1, -51896.98, 0.060741153, -0.23447128, -1057781.6, 79777.95, 0.0000044945964, 10.000287, 9.999778 
1.9351065e+3, 1.9391984e+2, -925203.56, -975728.6, 278.56192, 0.14422163, -0.2407433, -925202.0, 114352.266, 0.0, 10.000652, 10.000013 
1.9351274e+3, 2.0391947e+2, -942451.06, -1122853.1, 29385.621, 0.13491182, -0.19676892, -937785.1, 3773.201, 0.0, 10.000685, 9.998321 
1.9351475e+3, 2.1391827e+2, -888270.06, -1044068.8, 23678.576, 0.02333035, -0.17968157, -884750.8, -41176.063, 0.0, 10.00041, 9.998303 
1.9351679e+3, 2.2391672e+2, -767270.7, -855001.5, -24759.824, -0.031929214, -0.18761124, -760765.25, -15174.459, 0.0, 10.000216, 9.999032 
1.935189e+3, 2.3391464e+2, -605096.8, -691657.06, -10392.571, 0.0049219904, -0.3576891, -603866.56, 43739.39, 0.0, 10.000524, 9.999321 
1.9352098e+3, 2.4391294e+2, -556439.06, -771274.75, -11234.887, -0.007867738, -0.39196885, -555853.1, -6233.461, 0.0, 10.000791, 9.997995 
1.9352302e+3, 2.5391173e+2, -367966.56, -618881.56, 548.51965, -0.07556371, -0.35259163, -367965.38, 83666.1, 0.0, 10.001401, 9.998059 
1.9352514e+3, 2.6390973e+2, -268981.7, -531726.3, 7145.5156, -0.115518205, -0.34483677, -268787.53, 84863.44, 0.00000001782158, 10.001449, 9.99797 
1.9352733e+3, 2.7390656e+2, -214034.38, -423272.78, 5302.459, -0.12682433, -0.51806384, -213900.1, 41781.586, 0.0000033385966, 10.001045, 9.998217 
1.9352959e+3, 2.8390586e+2, -71841.12, -270601.6, -32251.025, -0.03957598, -0.41494557, -66739.01, 90950.06, 0.00004416703, 10.001163, 9.998556 
1.93532e+3, 2.939084e+2, 208330.47, -51145.52, 27473.055, 0.2313946, -0.091691166, 211207.39, 270873.8, 0.00021030588, 10.002291, 9.998826 
1.93534e+3, 3.039052e+2, 215316.45, -175729.0, -1095.1154, 0.05528913, -0.22322205, 215319.53, 215319.53, 0.0005915191, 10.002643, 9.997498 
1.9353582e+3, 3.139018e+2, 130056.914, -70937.3, 33327.766, -0.16133457, -0.38293216, 135439.02, 135439.02, 0.0011872258, 10.001431, 9.998762 
1.9449535e+3, 1.2388643e+2, -1854781.3, -1930917.9, -144741.72, -0.15309082, -0.3738738, -1743185.4, -17305.516, 0.20999403, 9.999566, 9.998702 
1.9449791e+3, 1.3389203e+2, -1560692.4, -1078658.5, 34527.23, 0.20291229, -0.42407542, -1076198.0, 551620.0, 0.14565058, 9.997843, 10.005351 
1.9450004e+3, 1.4389275e+2, -1718264.6, -1558624.4, 7572.009, 0.17768338, -0.6457501, -1558266.0, -28458.227, 0.083007626, 9.998314, 10.00053 
1.9450212e+3, 1.5389705e+2, -1490975.8, -1368124.4, -26946.373, 0.06704836, -0.32802317, -1362473.9, 69295.95, 0.03539992, 9.999101, 10.00078 
1.9450416e+3, 1.6389805e+2, -1458967.1, -1436993.5, -17622.219, -0.04443776, -0.24004298, -1427213.8, -93450.21, 0.009600047, 9.999226, 9.999564 
1.9450638e+3, 1.738967e+2, -1311978.8, -1301168.4, -15908.23, 0.029016454, -0.37498802, -1289772.1, -53992.625, 0.0010784023, 9.999532, 9.999656 
1.945086e+3, 1.8389669e+2, -1166005.1, -1164000.1, -42529.85, 0.124276206, -0.34083283, -1122461.0, 15319.923, 0.0000066792873, 9.999779, 9.99982 
1.945107e+3, 1.9389796e+2, -985562.56, -997498.2, -91205.43, 0.1511355, -0.2498568, -900129.94, 139638.23, 0.0, 10.000253, 10.000043 
1.9451277e+3, 2.038981e+2, -961442.44, -1102242.4, -69875.125, 0.13598824, -0.1645777, -932652.25, 9115.612, 0.0, 10.000434, 9.998584 
1.9451483e+3, 2.1389666e+2, -860083.4, -997801.3, -38305.066, 0.06365007, -0.19836912, -850146.2, -6360.7773, 0.0, 10.0004635, 9.998597 
1.945169e+3, 2.2389509e+2, -728222.7, -867223.75, -14068.097, 0.027394883, -0.21474604, -726813.1, 18989.033, 0.0, 10.000598, 9.998766 
1.9451898e+3, 2.3389323e+2, -559444.75, -710238.3, -55743.73, 0.018257838, -0.32776874, -541075.6, 106742.41, 0.0, 10.000992, 9.998977 
1.945211e+3, 2.4389169e+2, -471133.22, -705971.56, -30001.545, 0.01954904, -0.33288056, -467360.97, 82470.42, 0.0, 10.001308, 9.998182 
1.9452326e+3, 2.5389045e+2, -305844.8, -568584.44, -28262.537, 0.013301312, -0.3169456, -302839.03, 149003.66, 0.0, 10.001744, 9.998236 
1.945254e+3, 2.6388836e+2, -204446.38, -517141.88, 3833.2715, -0.005470811, -0.32264692, -204399.39, 149463.8, 0.000000002142629, 10.001941, 9.997839 
1.945275e+3, 2.7388534e+2, -112394.05, -402765.06, -9999.789, -0.08452205, -0.45721412, -112050.086, 143843.3, 0.0000030022966, 10.001824, 9.998004 
1.945297e+3, 2.8388467e+2, -10243.152, -218707.64, 5637.97, -0.050340563, -0.34729838, -10090.783, 147809.81, 0.00003904193, 10.001482, 9.998768 
1.9453207e+3, 2.9388705e+2, 31712.408, -101105.32, -17377.652, 0.15031716, -0.06477666, 33948.43, 93826.08, 0.00018459432, 10.000904, 9.999164 
1.9453421e+3, 3.038828e+2, 68395.17, -200036.77, -1738.3151, 0.09187477, -0.33884194, 68406.43, 68406.43, 0.00051477127, 10.001457, 9.997886 
1.9453622e+3, 3.1388104e+2, 530494.06, 182062.4, -27362.748, 0.000355943, -0.35433465, 532629.8, 532629.8, 0.0010271312, 10.003868, 9.999357 
1.9549552e+3, 1.23867005e+2, -1754985.9, -1792268.5, -154369.11, -0.03842011, -0.62481034, -1618136.6, 107932.62, 0.22070916, 9.99988, 9.99963 
1.9549768e+3, 1.3387528e+2, -1746354.1, -1453722.8, 39774.35, 0.15385243, -0.08266037, -1448413.0, 179574.53, 0.15369554, 9.997947, 10.002312 
1.9549978e+3, 1.4387383e+2, -1712472.6, -1583491.1, 34934.445, 0.021912849, -0.35480022, -1574636.9, -44636.44, 0.08810495, 9.998478, 10.0002775 
1.9550207e+3, 1.5387474e+2, -1510767.1, -1416311.0, 9555.812, 0.087998234, -0.3434814, -1415354.0, 16635.975, 0.037922986, 9.999134, 10.000423 
1.9550422e+3, 1.638744e+2, -1419695.0, -1385536.5, -29625.904, 0.05463477, -0.3856576, -1368419.4, -34427.258, 0.010466628, 9.99935, 9.99986 
1.9550644e+3, 1.7387344e+2, -1283352.4, -1251676.9, 6898.608, 0.10073577, -0.5148936, -1250239.6, -14239.095, 0.0012294218, 9.999565, 9.999982 
1.955086e+3, 1.8387312e+2, -1215749.0, -1279155.6, -37602.99, 0.10042984, -0.49410316, -1198268.1, -60263.258, 0.000009908067, 9.999835, 9.999 
1.9551057e+3, 1.9387339e+2, -1067303.5, -1146831.0, -62500.457, -0.032343693, -0.40369007, -1032989.8, 7016.636, 0.0, 10.000169, 9.999057 
1.9551264e+3, 2.0387332e+2, -922293.4, -983054.94, -81833.555, -0.076303914, -0.32656434, -865383.1, 76626.4, 0.0, 10.000266, 9.999483 
1.9551489e+3, 2.1387286e+2, -808523.06, -841293.75, -24255.459, 0.06089631, -0.37790367, -795637.1, 48376.094, 0.0, 10.000255, 9.999768 
1.9551705e+3, 2.2387238e+2, -806142.44, -964626.5, -12483.203, 0.094059795, -0.32761776, -805165.2, -59145.543, 0.0, 10.000313, 9.998239 
1.9551906e+3, 2.338718e+2, -647216.06, -833574.9, -26097.885, -0.022654045, -0.2431144, -643630.3, 4400.397, 0.0, 10.000747, 9.998243 
1.955212e+3, 2.4387084e+2, -500588.66, -689498.0, -25670.627, -0.046861004, -0.16262461, -497162.44, 52880.168, 0.0, 10.000974, 9.998454 
1.9552355e+3, 2.5386912e+2, -314163.88, -523097.06, 6328.779, 0.106586926, -0.23811556, -313972.34, 138085.05, 0.0, 10.001484, 9.998665 
1.9552575e+3, 2.638674e+2, -239739.73, -521321.8, -14143.036, 0.10911748, -0.23731706, -239031.16, 115041.91, 0.00000003752054, 10.001637, 9.99796 
1.9552769e+3, 2.7386567e+2, -142390.72, -405511.84, 3735.8245, -0.10494624, -0.25649783, -142337.69, 113752.39, 0.0000033251551, 10.001576, 9.9981 
1.9552973e+3, 2.838641e+2, -88877.61, -295527.0, -32539.133, -0.1925541, -0.2249978, -83875.08, 74229.484, 0.000036409245, 10.001115, 9.998414 
1.9553196e+3, 2.9386285e+2, -35131.547, -157182.58, -13488.678, -0.06420514, -0.27090105, -33658.598, 26455.625, 0.00016708692, 10.0005665, 9.998932 
1.9553426e+3, 3.0385867e+2, 44102.992, -161934.14, 48580.34, -0.052462902, -0.5533615, 54982.953, 54982.953, 0.00045041088, 10.001053, 9.998357 
1.955369e+3, 3.1386065e+2, 466746.1, 220798.06, 87314.21, 0.21981058, -0.2544419, 494591.1, 494591.1, 0.0008724613, 10.003176, 9.999935 
1.9649556e+3, 1.23850286e+2, -1893557.4, -1681723.8, -93405.945, 0.12922145, -0.5501685, -1646420.8, 79810.02, 0.23177752, 9.998091, 10.001249 
1.9649751e+3, 1.3385594e+2, -1709349.5, -1701476.3, 53353.11, 0.13956456, -0.003145547, -1651914.8, -23737.361, 0.1620495, 9.999579, 9.99955 
1.9649975e+3, 1.4385211e+2, -1564961.3, -1566651.3, 68480.945, 0.08731786, -0.3415296, -1497320.1, 32895.137, 0.093428105, 9.99976, 9.999761 
1.9650207e+3, 1.5385224e+2, -1415059.6, -1398420.0, 7275.5293, 0.1438244, -0.38417792, -1395687.5, 36523.832, 0.04057487, 9.999934, 10.000139 
1.9650427e+3, 1.6385159e+2, -1333051.9, -1341357.1, -16879.594, 0.14587569, -0.445169, -1319821.6, 14393.605, 0.011385711, 9.99994, 9.999878 
1.9650644e+3, 1.7385131e+2, -1223758.6, -1216243.4, -30710.514, 0.13694312, -0.5099062, -1189061.5, 47154.863, 0.0013940044, 9.999956, 10.000034 
1.9650857e+3, 1.8385123e+2, -1178357.8, -1263789.3, -20884.475, 0.093668476, -0.46907297, -1173525.8, -35307.91, 0.000014255441, 10.000091, 9.998986 
1.9651058e+3, 1.9385085e+2, -973517.2, -1106432.6, -661.57275, -0.062346976, -0.4425106, -973513.9, 66711.375, 0.0, 10.000819, 9.999024 
1.9651268e+3, 2.038504e+2, -796013.25, -928869.3, -7519.8755, -0.08309824, -0.39947903, -795588.94, 146642.88, 0.0, 10.001152, 9.999424 
1.9651496e+3, 2.1385002e+2, -710538.75, -804780.6, -67428.49, 0.09813563, -0.43765453, -675398.0, 168837.28, 0.0, 10.000951, 9.999686 
1.9651717e+3, 2.2384988e+2, -719331.44, -900104.56, -43428.832, 0.16356236, -0.35513857, -709439.44, 36799.457, 0.0, 10.000817, 9.998443 
1.9651917e+3, 2.3385002e+2, -590559.3, -785315.44, -21937.64, 0.0011474377, -0.21674068, -588118.8, 60125.254, 0.0, 10.00103, 9.998447 
1.9652131e+3, 2.4384923e+2, -456427.28, -662131.56, 36119.17, -0.024214592, -0.13388136, -450269.53, 99985.53, 0.0, 10.001203, 9.99856 
1.9652371e+3, 2.5384724e+2, -349381.0, -533733.5, 14142.926, 0.14174722, -0.2442336, -348302.3, 103970.64, 0.0, 10.00119, 9.998755 
1.9652595e+3, 2.638458e+2, -260043.95, -483171.6, 17530.078, 0.17250934, -0.23711161, -258675.1, 95610.49, 0.00000006167767, 10.00131, 9.998378 
1.965279e+3, 2.7384493e+2, -97190.84, -338000.66, 14539.824, -0.029506816, -0.20613313, -96316.125, 159976.53, 0.000003603985, 10.001703, 9.998498 
1.9652994e+3, 2.83843e+2, -8945.779, -304007.16, 10425.964, -0.12031412, -0.21132265, -8577.837, 149732.14, 0.00003430298, 10.00187, 9.997992 
1.9653209e+3, 2.9384005e+2, 103650.81, -163095.92, -31042.705, -0.059165753, -0.36471277, 107215.766, 167553.03, 0.00015136057, 10.001826, 9.998299 
1.9653438e+3, 3.0383676e+2, 132980.64, -138825.0, 68714.47, -0.04992962, -0.5140699, 149364.56, 149364.56, 0.00039140965, 10.001731, 9.998199 
1.9653712e+3, 3.1383806e+2, 172247.1, 80454.74, -79804.28, 0.27180707, -0.25848213, 218411.67, 218411.67, 0.0007269925, 10.0011015, 9.999995 
1.9749537e+3, 1.23835444e+2, -1696741.1, -1414091.6, -12431.546, 0.020603577, -0.28161988, -1413546.0, 312826.88, 0.24301729, 9.998394, 10.0034895 
1.9749743e+3, 1.3383426e+2, -1878669.6, -2091142.0, 92327.336, 0.04595158, -0.18090785, -1844156.1, -215770.9, 0.17062773, 9.999718, 9.996822 
1.9749986e+3, 1.4382738e+2, -1596323.1, -1663248.8, 51783.61, 0.16634442, -0.637071, -1568131.3, -37676.91, 0.09895461, 9.999877, 9.999036 
1.9750206e+3, 1.5382949e+2, -1426280.3, -1429404.3, 23438.258, 0.10087276, -0.44886032, -1404352.0, 28082.055, 0.04335473, 9.9999695, 9.999908 
1.9750424e+3, 1.6382958e+2, -1327054.4, -1356566.5, -31338.318, 0.07955174, -0.41476378, -1307171.9, 27261.668, 0.012356995, 10.000067, 9.999712 
1.9750635e+3, 1.7383021e+2, -1236661.9, -1243672.4, -20337.762, 0.018677795, -0.36512423, -1219529.5, 16898.357, 0.0015709848, 9.999966, 9.999842 
1.9750847e+3, 1.8383078e+2, -1119250.0, -1152353.1, -13437.941, -0.05046526, -0.277935, -1114481.9, 23940.074, 0.000019593592, 10.000132, 9.999738 
1.9751067e+3, 1.938301e+2, -922920.7, -977947.06, 38218.39, -0.0819102, -0.3712206, -903342.25, 137084.53, 0.0, 10.00072, 9.999953 
1.9751287e+3, 2.0382915e+2, -894952.5, -1087272.5, -22607.63, -0.056584533, -0.387104, -892330.6, 50106.113, 0.0, 10.000953, 9.998432 
1.9751506e+3, 2.1382818e+2, -830215.3, -1000354.56, -62174.43, 0.054980863, -0.36488658, -809916.5, 34534.305, 0.0, 10.000723, 9.998451 
1.9751717e+3, 2.2382776e+2, -714343.44, -818425.0, -51482.977, 0.07297178, -0.27564234, -693180.8, 53277.527, 0.0, 10.000502, 9.999159 
1.9751926e+3, 2.3382789e+2, -549918.1, -654971.7, 5163.345, -0.029261295, -0.23640794, -549664.94, 98793.625, 0.0, 10.000823, 9.999444 
1.9752142e+3, 2.4382704e+2, -507185.47, -703496.0, 21275.482, -0.06921086, -0.21264315, -504906.16, 45561.883, 0.0, 10.000918, 9.998418 
1.9752371e+3, 2.5382483e+2, -390960.16, -581197.6, 28461.371, -0.0010110441, -0.31695178, -386793.3, 65696.086, 0.0, 10.001015, 9.998516 
1.9752595e+3, 2.6382345e+2, -273792.47, -439851.94, 13991.185, 0.02041447, -0.31170925, -272621.9, 81879.94, 0.000000055759365, 10.001001, 9.99882 
1.9752814e+3, 2.738232e+2, -97856.64, -266656.03, 46551.484, -0.0025235738, -0.2841278, -85869.875, 170631.1, 0.0000036492006, 10.0014, 9.999124 
1.9753025e+3, 2.838216e+2, -106863.66, -434832.25, -11735.703, -0.022413988, -0.26483548, -106444.26, 52071.24, 0.00003270768, 10.001544, 9.99726 
1.9753234e+3, 2.938183e+2, 10884.016, -312023.84, -4342.6714, -0.0236841, -0.37195626, 10942.408, 71492.72, 0.00013942833, 10.001629, 9.997374 
1.975345e+3, 3.038167e+2, -23160.05, -352699.06, 30960.635, -0.14255013, -0.23694013, -20276.488, -20276.488, 0.00034788318, 10.001289, 9.99693 
1.9753717e+3, 3.1381375e+2, 54157.848, 15137.031, -66570.16, 0.15077896, -0.31056958, 104017.766, 104017.766, 0.0006200003, 10.000384, 9.999862 
1.9849537e+3, 1.23813115e+2, -1557612.9, -1245583.4, -65887.34, 0.16155936, -0.5065775, -1232241.3, 494346.22, 0.25424254, 9.999039, 10.004807 
1.9849753e+3, 1.3381177e+2, -1873994.1, -2190362.5, 18376.955, 0.17524728, -0.34220588, -1872930.3, -244328.1, 0.17932345, 10.000157, 9.9959545 
1.9849986e+3, 1.4380601e+2, -1672584.4, -1720937.0, 78179.9, 0.21358658, -0.624707, -1614927.9, -84266.52, 0.104643695, 9.999448, 9.998856 
1.9850206e+3, 1.538083e+2, -1491250.1, -1459198.6, 58689.445, 0.13797729, -0.42049482, -1414386.3, 18254.73, 0.046255346, 9.999511, 9.999938 
1.9850425e+3, 1.6380845e+2, -1385447.0, -1393411.6, 50312.637, 0.11250543, -0.3786624, -1338959.4, -4318.8433, 0.013380272, 9.999714, 9.999618 
1.9850636e+3, 1.7380896e+2, -1203327.5, -1239157.3, 41412.78, 0.02006049, -0.33394593, -1176120.8, 60515.05, 0.0017591557, 10.000252, 9.999728 
1.985085e+3, 1.8380927e+2, -1105248.3, -1173695.0, 47807.35, -0.036061883, -0.25665772, -1080677.3, 57954.867, 0.0000256483, 10.000339, 9.99949 
1.9851075e+3, 1.9380806e+2, -1026632.3, -1058447.1, -11813.363, -0.031058908, -0.38034722, -1022725.56, 17916.535, 0.0, 10.00011, 9.999702 
1.9851296e+3, 2.038069e+2, -1012780.6, -1128425.0, -57112.17, 0.010063978, -0.40952662, -989330.4, -46676.797, 0.0, 10.000075, 9.998579 
1.9851512e+3, 2.1380633e+2, -823443.2, -977189.75, -26205.26, 0.0658381, -0.36050907, -819099.4, 25562.855, 0.0, 10.000687, 9.998632 
1.9851725e+3, 2.238058e+2, -630513.56, -774425.4, 43922.117, 0.07489545, -0.29443717, -618167.6, 128501.95, 0.0, 10.001052, 9.999192 
1.9851936e+3, 2.338051e+2, -526397.44, -644754.1, 1701.6462, 0.0007894409, -0.34035915, -526372.94, 122304.09, 0.0, 10.00099, 9.999429 
1.9852155e+3, 2.4380425e+2, -471299.28, -659074.9, 22476.38, -0.029056927, -0.32320178, -468646.4, 82039.79, 0.0, 10.001105, 9.9986 
1.9852379e+3, 2.5380307e+2, -278327.53, -507685.97, 27306.268, -0.03749608, -0.3392421, -275121.4, 177576.8, 0.0, 10.001737, 9.998658 
1.9852605e+3, 2.6380187e+2, -172350.39, -418944.25, 16807.174, -0.011244648, -0.31130323, -171210.14, 183499.95, 0.00000004684117, 10.001822, 9.998562 
1.985283e+3, 2.7380064e+2, -169417.19, -340972.28, -56336.543, 0.057634246, -0.3471359, -152571.19, 104149.734, 0.000003631824, 10.001082, 9.99876 
1.9853052e+3, 2.8379896e+2, -134416.83, -432336.0, -58202.93, 0.1028373, -0.32187188, -123449.75, 35287.69, 0.000030883682, 10.001308, 9.9973755 
1.9853266e+3, 2.9379642e+2, 213598.64, -201977.03, -27433.316, 0.076011755, -0.35841712, 215401.77, 276165.66, 0.00012822116, 10.003004, 9.997448 
1.9853474e+3, 3.0379492e+2, 284093.3, -210219.67, 55915.043, -0.11878381, -0.21288292, 290339.3, 290339.3, 0.0003141248, 10.003387, 9.996904 
1.9853728e+3, 3.1379232e+2, 226230.47, 64251.965, -62250.324, 0.16798769, -0.24191558, 247389.95, 247389.95, 0.00054965925, 10.001639, 9.999614 
1.9949524e+3, 1.2378921e+2, -1558279.8, -1281877.4, -64645.41, 0.033240803, -0.6019509, -1267505.4, 459311.4, 0.26535824, 9.999235, 10.0044365 
1.9949776e+3, 1.3378823e+2, -1783013.8, -2026866.4, 17984.521, 0.36355206, -0.49789658, -1781694.5, -152864.02, 0.18805622, 10.000252, 9.997033 
1.9949973e+3, 1.437879e+2, -1619927.1, -1647244.0, 42125.86, 0.07267505, -0.31876388, -1589300.8, -58462.566, 0.11045076, 9.9995985, 9.999291 
1.9950204e+3, 1.5378849e+2, -1465058.6, -1407384.8, 71272.375, 0.13093351, -0.3118787, -1359336.6, 73497.18, 0.04926506, 9.999533, 10.000294 
1.9950424e+3, 1.6378805e+2, -1369668.1, -1384036.3, 55349.445, 0.08828357, -0.34943065, -1321038.5, 13799.411, 0.014456319, 9.99981, 9.999638 
1.995064e+3, 1.7378749e+2, -1202315.3, -1236264.4, 67375.78, 0.019454693, -0.41181487, -1149808.8, 87032.164, 0.0019582892, 10.000252, 9.999745 
1.9950859e+3, 1.8378657e+2, -1183498.8, -1344561.1, 26495.47, -0.015274337, -0.4042346, -1179252.1, -40402.58, 0.000032105352, 10.000378, 9.998298 
1.995108e+3, 1.937847e+2, -1135139.9, -1258289.0, -11223.339, -0.026868135, -0.462293, -1134125.4, -93254.01, 0.0, 10.000011, 9.998372 
1.9951296e+3, 2.0378374e+2, -956286.25, -976754.25, -55528.066, -0.03304861, -0.44544116, -910057.0, 32824.125, 0.0, 9.999919, 9.999697 
1.9951515e+3, 2.1378435e+2, -745357.94, -776267.56, 8514.542, 0.005445826, -0.42629772, -743167.7, 101703.484, 0.0, 10.000515, 10.000095 
1.9951731e+3, 2.237839e+2, -716195.25, -888012.5, 31555.496, 0.0059977896, -0.40820235, -710583.2, 36291.19, 0.0, 10.000772, 9.9985485 
1.9951944e+3, 2.3378171e+2, -622413.4, -794954.5, 15420.822, -0.03653824, -0.51323116, -621046.0, 27852.81, 0.0, 10.000771, 9.998504 
1.9952165e+3, 2.4378073e+2, -502172.66, -643179.3, 26839.957, -0.07694241, -0.46989658, -497236.6, 53674.043, 0.0, 10.000758, 9.9988785 
1.9952394e+3, 2.5378174e+2, -281533.44, -455406.13, 65903.77, -0.08813694, -0.31894028, -259377.0, 193524.67, 0.0, 10.00148, 9.99914 
1.9952619e+3, 2.6378083e+2, -300028.06, -602854.06, -21388.07, -0.07477077, -0.24156058, -298524.94, 56387.746, 0.000000042002604, 10.00148, 9.997462 
1.995284e+3, 2.7377713e+2, -298877.78, -546903.6, -66130.19, 0.0118897725, -0.39693785, -282347.44, -25394.563, 0.0000035134383, 10.000827, 9.997463 
1.9953065e+3, 2.837748e+2, -144763.5, -381318.25, -22016.404, 0.06341335, -0.38392603, -142731.86, 16245.294, 0.00002820436, 10.000992, 9.997881 
1.9953299e+3, 2.9377404e+2, 215011.58, -112277.16, 57398.902, 0.06629034, -0.32877806, 224786.11, 285767.75, 0.00011358975, 10.002624, 9.998247 
1.9953504e+3, 3.037714e+2, 255092.8, -117733.98, -17613.22, -0.1929298, -0.3952475, 255923.03, 255923.03, 0.0002776181, 10.002766, 9.997824 
1.9953725e+3, 3.1377345e+2, 64332.2, -107202.49, -29179.678, -0.091808476, -0.05604573, 69160.06, 69160.06, 0.00049017585, 10.000986, 9.998722 
2.0049503e+3, 1.237659e+2, -1789413.4, -1435690.5, -124245.72, -0.0072782794, -0.50435215, -1396410.9, 330635.22, 0.27641812, 9.997604, 10.00382 
2.0049773e+3, 1.3376494e+2, -1805758.8, -1926250.1, -63710.277, 0.33773708, -0.508415, -1778320.1, -149260.69, 0.1968332, 9.999611, 9.998017 
2.004998e+3, 1.4376621e+2, -1547914.3, -1570392.6, -56700.24, 0.19565362, -0.24293105, -1501350.0, 29700.846, 0.11636926, 9.999927, 9.999665 
2.0050204e+3, 1.5376624e+2, -1442831.4, -1371460.9, -44501.44, 0.19607292, -0.32144022, -1350103.9, 82946.99, 0.05238356, 9.999549, 10.0005455 
2.0050423e+3, 1.6376568e+2, -1423235.0, -1438797.3, -11641.208, 0.11366513, -0.3752615, -1417013.8, -81957.75, 0.015589432, 9.999534, 9.999408 
2.0050648e+3, 1.7376478e+2, -1173355.9, -1258117.3, -42034.457, 0.06607902, -0.44695523, -1156045.5, 81017.36, 0.0021699998, 10.00056, 9.999465 
2.0050871e+3, 1.8376367e+2, -1139421.5, -1321561.8, -71137.35, 0.06396367, -0.4444645, -1114930.9, 24142.928, 0.00003871999, 10.000696, 9.998293 
2.0051083e+3, 1.9376227e+2, -1126489.6, -1256063.6, -45609.223, 0.015910624, -0.45316476, -1112045.6, -70954.5, 0.0, 10.000097, 9.998345 
2.0051298e+3, 2.0376135e+2, -934482.1, -964895.9, -1748.6309, -0.007188677, -0.42957667, -934381.94, 8718.099, 0.0, 10.000087, 9.999693 
2.0051524e+3, 2.137612e+2, -631379.3, -721092.0, -60904.414, 0.015747603, -0.48172382, -600595.44, 244500.88, 0.0, 10.00131, 10.0000925 
2.0051745e+3, 2.2376056e+2, -583166.1, -819687.44, -102364.195, 0.025670318, -0.47891098, -545017.0, 202083.81, 0.0, 10.001696, 9.998564 
2.0051953e+3, 2.3375921e+2, -600523.3, -778631.56, -95843.46, -0.02945069, -0.49909213, -558747.0, 90370.76, 0.0, 10.0009365, 9.998524 
2.0052172e+3, 2.437585e+2, -531426.75, -667326.56, -3967.1047, -0.05170148, -0.42791304, -531311.06, 19816.307, 0.0, 10.000553, 9.998831 
2.0052408e+3, 2.537587e+2, -402680.44, -520153.16, -25682.422, -0.04378707, -0.3504161, -397311.06, 55814.945, 0.0, 10.000655, 9.999096 
2.0052636e+3, 2.6375762e+2, -378061.4, -635853.56, -83374.38, -0.016158633, -0.29044393, -353446.94, 1691.7692, 0.000000029896977, 10.000901, 9.997521 
2.0052853e+3, 2.737544e+2, -198204.5, -498458.47, -64313.004, 0.041936874, -0.4018955, -185008.88, 72166.25, 0.0000031274246, 10.001478, 9.997499 
2.0053081e+3, 2.8375256e+2, -2834.397, -279092.88, 87624.82, 0.10889002, -0.35787502, 22614.467, 181808.75, 0.000025154262, 10.001812, 9.998195 
2.0053323e+3, 2.9375213e+2, 101512.125, -136542.8, 80685.734, 0.116171725, -0.2926588, 126282.17, 187475.83, 0.00009776422, 10.00171, 9.998523 
2.0053536e+3, 3.0374855e+2, 179110.83, -106801.07, -28710.809, -0.101410635, -0.48925728, 181965.42, 181965.42, 0.00024035014, 10.002011, 9.998285 
2.0053753e+3, 3.1374985e+2, 251822.94, -134365.75, -117798.76, 0.035122894, -0.24856502, 284918.72, 284918.72, 0.0004337669, 10.002732, 9.997734 
2.0149492e+3, 1.2374075e+2, -1868832.4, -1564062.4, -264691.56, 0.038337544, -0.48465204, -1411025.0, 316274.1, 0.28771394, 9.997726, 10.0027485 
2.0149736e+3, 1.3374184e+2, -1738921.5, -1801485.5, -4870.1606, -0.02209487, -0.3801224, -1738544.6, -109255.17, 0.20582092, 9.999657, 9.998861 
2.0150007e+3, 1.4374077e+2, -1510620.8, -1520390.0, -85374.57, 0.41308957, -0.40613997, -1429991.1, 101310.07, 0.12247417, 10.000064, 9.99998 
2.0150203e+3, 1.5374154e+2, -1423333.9, -1331617.8, -52827.402, 0.19931796, -0.4409826, -1307520.9, 125772.19, 0.055639356, 9.999551, 10.000832 
2.0150414e+3, 1.6374148e+2, -1434399.4, -1483080.0, 4803.11, 0.02327562, -0.44312322, -1433930.0, -98636.445, 0.016791714, 9.999625, 9.999065 
2.0150656e+3, 1.7374094e+2, -1211440.5, -1326857.8, 7041.5967, 0.053102687, -0.42999446, -1211012.5, 26288.438, 0.0023981123, 10.000524, 9.99901 
2.0150882e+3, 1.8374066e+2, -1057601.8, -1167450.4, -107827.516, 0.047793347, -0.36622742, -991515.94, 147788.14, 0.000045425786, 10.0007515, 9.9993305 
2.0151082e+3, 1.9374068e+2, -1051936.6, -1084389.5, -62046.684, -0.03264221, -0.3509452, -1004029.7, 37272.668, 0.0, 10.000025, 9.999559 
2.0151295e+3, 2.0373972e+2, -1029680.8, -1129049.3, 21006.773, -0.07468887, -0.35544458, -1025422.44, -82112.03, 0.0, 9.999939, 9.99864 
2.0151535e+3, 2.1373704e+2, -767264.2, -947676.2, 410.60065, -0.024276637, -0.52059734, -767263.25, 78072.89, 0.0, 10.001072, 9.998653 
2.015176e+3, 2.2373584e+2, -600068.6, -782645.75, -132829.34, -0.029218256, -0.5097179, -530182.6, 217165.8, 0.0, 10.00137, 9.9989805 
2.0151958e+3, 2.3373723e+2, -573225.75, -686174.8, -109071.7, -0.09555751, -0.3261445, -506875.2, 142462.03, 0.0, 10.000763, 9.9992485 
2.0152174e+3, 2.4373701e+2, -600299.25, -741193.9, -13229.959, -0.11568342, -0.23087528, -599067.7, -47726.9, 0.0, 10.000267, 9.998457 
2.0152415e+3, 2.5373402e+2, -474032.56, -613441.56, -6140.2217, -0.0423454, -0.4219459, -473762.63, -20392.387, 0.0, 10.000427, 9.998564 
2.015265e+3, 2.637321e+2, -347869.25, -502994.28, -76970.86, -0.012383606, -0.45762655, -316159.38, 39229.91, 0.0000000091701935, 10.000601, 9.998581 
2.0152867e+3, 2.7373233e+2, -139565.03, -319349.25, -23277.896, 0.0077500027, -0.35794112, -136599.98, 120788.94, 0.0000023642951, 10.001237, 9.998844 
2.0153096e+3, 2.8373212e+2, -64513.71, -323291.97, 64286.266, 0.03426094, -0.22229502, -49423.53, 109966.65, 0.000021595964, 10.001462, 9.998053 
2.0153336e+3, 2.9373032e+2, 35667.688, -215239.97, 96321.99, 0.05073326, -0.26750296, 68380.195, 129783.53, 0.000083873885, 10.001438, 9.99812 
2.0153558e+3, 3.0372584e+2, 79505.836, -186492.72, -27914.346, -0.10249914, -0.51386607, 82403.65, 82403.65, 0.00020823472, 10.001503, 9.997959 
2.0153789e+3, 3.1372407e+2, 57987.105, -303631.53, 16802.795, 0.06555583, -0.572249, 58766.176, 58766.176, 0.0003833975, 10.001817, 9.996969 
2.024951e+3, 1.2371712e+2, -1541843.4, -1505348.8, -126588.19, 0.290885, -0.3876877, -1395699.5, 331834.13, 0.29983783, 10.000849, 10.001621 
2.0249724e+3, 1.3371897e+2, -1942239.9, -1795956.6, 35870.35, -0.006583205, -0.30620688, -1787634.4, -158120.27, 0.21537028, 9.997853, 9.999744 
2.024999e+3, 1.437161e+2, -1792226.9, -1663584.6, 5076.044, 0.35479861, -0.5611722, -1663384.6, -131842.53, 0.12892798, 9.99812, 9.99989 
2.02502e+3, 1.5371811e+2, -1414760.3, -1362676.6, -38704.734, 0.21613629, -0.4409633, -1342068.4, 91454.945, 0.05909158, 9.999773, 10.000498 
2.025042e+3, 1.6371861e+2, -1363179.3, -1433273.5, 17707.893, 0.1091568, -0.37422097, -1358959.8, -23439.996, 0.018083457, 10.000087, 9.999161 
2.0250659e+3, 1.737177e+2, -1341648.8, -1370838.3, 38291.8, 0.09575278, -0.40940404, -1315264.6, -77733.98, 0.0026487417, 9.999596, 9.999133 
2.0250887e+3, 1.8371747e+2, -1184361.0, -1193985.1, -42116.777, 0.082006246, -0.36539033, -1146782.3, -7248.9697, 0.000052423693, 9.999728, 9.999636 
2.0251091e+3, 1.937178e+2, -848909.75, -957830.3, -85094.82, 0.0141218295, -0.35002246, -802340.06, 239187.22, 0.0, 10.001276, 9.9998255 
2.0251308e+3, 2.0371707e+2, -800907.0, -1031788.06, -4190.559, -0.004571854, -0.3434196, -800831.0, 142701.84, 0.0, 10.001569, 9.99851 
2.0251542e+3, 2.1371451e+2, -925322.9, -1048963.3, 27320.33, 0.018450506, -0.4762148, -919555.06, -73996.48, 0.0, 10.000087, 9.998424 
2.0251766e+3, 2.2371325e+2, -844245.0, -893472.2, -16553.033, 0.011327495, -0.46530384, -839196.6, -91624.94, 0.0, 9.999667, 9.999032 
2.0251969e+3, 2.3371425e+2, -509452.7, -644155.7, -56308.89, -0.064471394, -0.32835945, -489015.16, 160547.19, 0.0, 10.001161, 9.999334 
2.0252188e+3, 2.4371381e+2, -389406.6, -640348.94, 21284.352, -0.066373296, -0.2617832, -387614.13, 163952.92, 0.0, 10.001743, 9.998422 
2.0252427e+3, 2.537107e+2, -405841.7, -592168.3, 28576.363, 0.011785259, -0.45397866, -401557.53, 52039.81, 0.0, 10.000956, 9.998448 
2.0252663e+3, 2.6370874e+2, -294381.3, -470290.6, 16032.529, 0.06486333, -0.4910719, -292932.03, 62684.543, 0.000000001074916, 10.00095, 9.998632 
2.0252888e+3, 2.737091e+2, 4826.069, -236430.83, -50074.83, 0.065135226, -0.3819058, 14806.621, 272421.25, 0.0000018159459, 10.002208, 9.998929 
2.0253116e+3, 2.837089e+2, 98364.34, -250272.98, -32748.818, 0.06326477, -0.24773823, 101413.89, 261030.31, 0.000018189116, 10.00257, 9.998034 
2.0253345e+3, 2.9370707e+2, 18763.55, -210830.28, -24205.332, 0.0087375995, -0.29187813, 21287.691, 82919.53, 0.000072171526, 10.001272, 9.998222 
2.0253582e+3, 3.0370322e+2, 76199.94, -215318.73, -11626.036, 0.008825037, -0.47629485, 76662.86, 76662.86, 0.00017992329, 10.001516, 9.997797 
2.0253815e+3, 3.1370154e+2, 369137.53, -79450.15, -67448.42, 0.07595987, -0.48648125, 379059.44, 379059.44, 0.00033564074, 10.003545, 9.997711 
2.0349519e+3, 1.2369261e+2, -1587371.3, -1644064.8, 12941.111, 0.20424378, -0.49976847, -1584557.0, 143216.22, 0.3135409, 10.001095, 10.000187 
2.0349732e+3, 1.3369617e+2, -1857634.0, -1654645.1, -16395.11, 0.24578254, -0.30055037, -1653329.5, -23595.031, 0.22593072, 9.997988, 10.000655 
2.0349924e+3, 1.4369206e+2, -1796766.4, -1721760.6, 59980.41, -0.1818527, -0.714555, -1688523.8, -156748.92, 0.13594478, 9.9983225, 9.999393 
2.0350192e+3, 1.5369599e+2, -1465715.6, -1480747.8, 22978.057, 0.121220596, -0.32376215, -1449055.6, -15313.674, 0.06282382, 9.999831, 9.999623 
2.0350434e+3, 1.6369694e+2, -1317745.6, -1362402.0, -19024.016, 0.19928187, -0.18153624, -1310740.1, 24995.42, 0.019494196, 10.000189, 9.9995985 
2.0350656e+3, 1.7369503e+2, -1286234.6, -1263940.0, 30144.393, 0.06577994, -0.3865328, -1242947.9, -5194.697, 0.0029308582, 9.999624, 9.999852 
2.035088e+3, 1.8369402e+2, -1209414.8, -1250418.6, -5424.403, 0.0020014707, -0.44585052, -1208709.3, -68947.19, 0.00006041413, 9.999748, 9.999241 
2.0351109e+3, 1.936937e+2, -907338.06, -1050242.8, -15000.199, 0.033267673, -0.43561226, -905780.56, 135984.33, 0.0, 10.001157, 9.999248 
2.0351332e+3, 2.0369342e+2, -776833.94, -940300.4, -61080.434, 0.028537018, -0.38172147, -756532.2, 187234.7, 0.0, 10.001394, 9.999222 
2.0351547e+3, 2.136934e+2, -884973.8, -923710.2, -17485.676, 0.020685868, -0.35386732, -878248.4, -32482.35, 0.0, 9.99991, 9.999371 
2.0351763e+3, 2.2369257e+2, -903501.2, -947035.7, 13637.31, -0.016499052, -0.34315032, -899582.06, -151809.27, 0.0, 9.999383, 9.998795 
2.0351984e+3, 2.3369035e+2, -582690.5, -731960.2, 17533.941, -0.06426018, -0.48445344, -580658.56, 69134.22, 0.0, 10.000896, 9.998854 
2.0352207e+3, 2.4368884e+2, -423789.44, -637939.06, -12245.892, -0.07845771, -0.50272876, -423091.44, 128715.04, 0.0, 10.001426, 9.998592 
2.0352438e+3, 2.536885e+2, -410755.06, -562939.25, 8549.022, -0.007364779, -0.44750044, -410276.34, 43533.543, 0.0, 10.000781, 9.998736 
2.0352672e+3, 2.636872e+2, -411178.34, -640272.75, 38088.09, 0.036551315, -0.39301428, -405011.97, -49188.098, 0.000000023664393, 10.000651, 9.997602 
2.0352913e+3, 2.7368435e+2, -117679.36, -434739.3, 15779.643, 0.06551631, -0.4885131, -116895.96, 140959.17, 0.0000019634658, 10.001957, 9.997691 
2.035314e+3, 2.836826e+2, 40245.043, -264935.1, -87090.75, 0.007830092, -0.4429, 63349.39, 223224.22, 0.000016146072, 10.002136, 9.998133 
2.0353344e+3, 2.9368243e+2, 5312.1675, -169876.64, -48720.15, -0.15668447, -0.35552713, 17949.656, 79827.72, 0.00006227005, 10.000968, 9.998656 
2.0353596e+3, 3.036803e+2, -33377.39, -295113.78, 34586.746, -0.039890453, -0.37658748, -28884.115, -28884.115, 0.00015436458, 10.00092, 9.997512 
2.0353836e+3, 3.136798e+2, 408948.28, 201008.5, 33457.27, -0.12965678, -0.25912562, 414198.94, 414198.94, 0.0002908974, 10.002754, 9.99999 
2.044951e+3, 1.2366941e+2, -1910624.0, -1748570.6, 194131.17, 0.16844851, -0.54413944, -1619235.3, 108765.29, 0.3294151, 9.998251, 10.000857 
2.0449725e+3, 1.336731e+2, -1729687.0, -1645208.5, -72110.88, 0.32440308, -0.26665348, -1603876.6, 26084.902, 0.23787552, 9.999119, 10.000223 
2.0449914e+3, 1.4366883e+2, -1573100.8, -1612994.1, 36313.117, -0.17125508, -0.67158175, -1551616.6, -19612.445, 0.14372098, 9.999864, 9.999394 
2.0450185e+3, 1.5367253e+2, -1452402.8, -1466700.6, 11200.97, 0.079384185, -0.30571568, -1446263.8, -12291.228, 0.06692591, 9.999901, 9.999682 
2.0450428e+3, 1.6367352e+2, -1410468.6, -1383581.3, -16042.94, 0.17563052, -0.17564297, -1376093.9, -40128.465, 0.021061258, 9.999428, 9.99983 
2.0450652e+3, 1.7367217e+2, -1367280.1, -1279533.8, -31380.402, 0.11123334, -0.3498438, -1269466.4, -31488.678, 0.003256253, 9.998956, 10.000076 
2.0450881e+3, 1.8367137e+2, -1346651.5, -1305607.1, 2222.8516, 0.10265942, -0.40079015, -1305487.0, -165502.58, 0.00007088071, 9.998771, 9.999332 
2.0451117e+3, 1.9367063e+2, -1152716.4, -1154928.1, 20532.143, 0.095544145, -0.44374055, -1133260.4, -91269.33, 0.0, 9.999434, 9.99935 
2.0451345e+3, 2.0367025e+2, -926706.25, -1012210.0, -27199.361, 0.078389116, -0.4051036, -918787.4, 25206.83, 0.0, 10.000342, 9.999251 
2.0451558e+3, 2.1367076e+2, -595552.56, -773363.06, -79215.18, 0.054425247, -0.32742003, -565381.44, 280607.53, 0.0, 10.001855, 9.999467 
2.0451777e+3, 2.2367011e+2, -474296.8, -765459.8, -51864.81, 0.04010786, -0.29677716, -465334.03, 282660.44, 0.0, 10.002415, 9.998599 
2.0452002e+3, 2.3366714e+2, -511163.2, -726369.0, -58078.82, 0.021671148, -0.4891518, -496489.63, 153531.58, 0.0, 10.001484, 9.998624 
2.0452228e+3, 2.4366522e+2, -473343.97, -681306.7, -64030.117, 0.011183041, -0.52727413, -455210.72, 96827.95, 0.0, 10.00115, 9.998442 
2.045245e+3, 2.5366518e+2, -260212.75, -501160.1, -102338.19, -0.004814512, -0.42418498, -222613.63, 231426.05, 0.0, 10.001863, 9.99864 
2.0452684e+3, 2.636641e+2, -193478.52, -526434.7, -14797.516, 0.028209655, -0.3476254, -192822.17, 163229.77, 0.00000011200642, 10.002081, 9.9977 
2.0452936e+3, 2.7366123e+2, -169484.63, -452239.94, 21453.771, 0.12825927, -0.45406488, -167866.11, 90217.04, 0.000002326167, 10.001545, 9.997774 
2.0453162e+3, 2.8365928e+2, -69478.38, -318725.4, -24518.477, 0.07823845, -0.4354081, -67089.4, 93015.805, 0.000014696717, 10.001368, 9.9981365 
2.0453352e+3, 2.9365876e+2, 108010.06, -116405.05, -61305.65, -0.19537848, -0.37105903, 123665.4, 185778.17, 0.00005375532, 10.001672, 9.998678 
2.0453614e+3, 3.036579e+2, 183215.53, -171500.45, 131527.3, 0.0022781948, -0.27747607, 226663.53, 226663.53, 0.00013253847, 10.0023155, 9.9976845 
2.0453872e+3, 3.1365702e+2, 510938.47, 264049.38, -37323.977, -0.048653934, -0.20027575, 516457.63, 516457.63, 0.0002539401, 10.003338, 10.000153 
2.05495e+3, 1.23649105e+2, -1664223.4, -1406500.3, 57451.043, 0.12568563, -0.348294, -1394273.4, 333926.5, 0.3476065, 9.99854, 10.003992 
2.0549689e+3, 1.3364999e+2, -1829013.8, -1870082.9, -11677.909, 0.035028633, -0.18370153, -1825925.4, -195732.2, 0.2513395, 9.999198, 9.998603 
2.0549956e+3, 1.4364628e+2, -1524329.0, -1542050.3, 29290.549, 0.18204865, -0.4556075, -1502588.3, 29643.02, 0.15236652, 10.000019, 9.999817 
2.0550177e+3, 1.536479e+2, -1378665.6, -1329229.0, 21640.213, -0.053972278, -0.38634473, -1321094.8, 113119.09, 0.071473114, 9.999967, 10.000651 
2.0550399e+3, 1.6364844e+2, -1396756.8, -1392824.3, -51912.754, -0.13585527, -0.3509601, -1342840.5, -6631.949, 0.022826005, 9.9995775, 9.9997015 
2.0550644e+3, 1.7364909e+2, -1384175.5, -1321980.8, -41706.016, 0.105987065, -0.29357037, -1301054.8, -62850.176, 0.0036400491, 9.99898, 9.999779 
2.0550884e+3, 1.8364932e+2, -1298742.4, -1229820.6, 6683.1978, 0.20787297, -0.24370052, -1229178.6, -88976.12, 0.00008593674, 9.998857, 9.99982 
2.0551111e+3, 1.9364825e+2, -1103715.8, -1051828.4, 53976.598, 0.069131315, -0.38895795, -1017884.3, 24324.781, 0.0, 9.99941, 10.000078 
2.055134e+3, 2.0364724e+2, -994548.7, -1114001.8, 10539.438, -0.023994526, -0.42969862, -993625.94, -49408.258, 0.0, 10.000175, 9.998632 
2.0551573e+3, 2.1364655e+2, -690259.06, -912600.44, -9626.8125, -0.0106718475, -0.39516777, -689843.0, 156385.16, 0.0, 10.001602, 9.9986315 
2.0551799e+3, 2.2364564e+2, -541085.1, -816764.56, -88699.27, 0.0101365, -0.33360493, -515012.22, 233226.4, 0.0, 10.0020485, 9.998419 
2.0552024e+3, 2.3364432e+2, -548181.75, -747554.5, -78592.14, 0.061080888, -0.35530385, -520926.84, 129323.02, 0.0, 10.001249, 9.99859 
2.0552243e+3, 2.4364269e+2, -552044.94, -767623.06, -57570.984, 0.032677915, -0.34676144, -537633.75, 14631.764, 0.0, 10.000832, 9.997995 
2.0552461e+3, 2.536406e+2, -339241.22, -596819.25, -56375.77, -0.10237143, -0.40099558, -327442.75, 126845.086, 0.0, 10.00158, 9.998115 
2.0552693e+3, 2.6363933e+2, -175898.22, -399608.94, -40820.7, -0.11567684, -0.35849178, -168682.38, 187619.02, 0.00000017468948, 10.001701, 9.998749 
2.0552951e+3, 2.7363932e+2, -120459.29, -292396.06, 18398.424, 0.10860438, -0.3030922, -118512.58, 139789.42, 0.0000023499456, 10.00129, 9.998998 
2.0553179e+3, 2.8363827e+2, -158060.03, -397006.38, -31077.31, 0.07287142, -0.24518652, -154084.27, 6228.69, 0.000012296112, 10.000935, 9.997798 
2.0553362e+3, 2.936356e+2, 25537.736, -218168.11, -26514.518, -0.29718798, -0.35925728, 28389.082, 90729.38, 0.000044415407, 10.001375, 9.998117 
2.055363e+3, 3.036349e+2, 120276.375, -161074.13, 141652.63, -0.117499374, -0.23869759, 179238.28, 179238.28, 0.00011238554, 10.001748, 9.99801 
2.0553917e+3, 3.1363273e+2, 215375.52, -127002.18, -64457.445, -0.016984278, -0.339878, 227108.47, 227108.47, 0.00022337346, 10.002424, 9.997887 
2.064949e+3, 1.2362592e+2, -1917595.4, -1414087.0, 5837.087, 0.33626118, -0.41328618, -1414019.3, 314406.6, 0.36771804, 9.99595, 10.0052395 
2.0649678e+3, 1.336258e+2, -1772528.4, -1943141.3, 74228.22, -0.027173124, -0.27729416, -1744755.1, -114323.93, 0.26616043, 9.999991, 9.997705 
2.0649965e+3, 1.4362401e+2, -1571097.6, -1590723.9, 88762.375, 0.30830064, -0.30246857, -1491607.6, 40843.87, 0.1618756, 9.999781, 9.999619 
2.0650174e+3, 1.5362374e+2, -1432308.3, -1351633.6, 164.951, -0.035386346, -0.42605853, -1351633.3, 82817.625, 0.07651462, 9.999531, 10.000706 
2.0650393e+3, 1.6362374e+2, -1382299.0, -1394461.5, -70590.516, -0.12767081, -0.4476698, -1317528.3, 18921.98, 0.024829434, 9.999737, 9.9996 
2.0650645e+3, 1.7362486e+2, -1201415.8, -1250029.1, -79097.93, 0.14933501, -0.3277339, -1142974.0, 95468.23, 0.0041003036, 10.000321, 9.999612 
2.0650886e+3, 1.8362531e+2, -1072119.8, -1115785.1, -2881.8, 0.27723473, -0.24672392, -1071930.4, 68508.2, 0.000108260756, 10.000403, 9.999842 
2.0651115e+3, 1.9362451e+2, -944996.56, -962489.5, -25294.62, 0.119408086, -0.37247962, -926978.94, 115463.78, 0.0, 10.000447, 10.000186 
2.0651348e+3, 2.0362367e+2, -971112.9, -1094166.3, -40324.016, 0.033399127, -0.40635145, -959076.25, -14626.11, 0.0, 10.000304, 9.998698 
2.0651585e+3, 2.1362275e+2, -907967.4, -1014045.9, -25886.451, 0.035675377, -0.39502916, -901987.4, -55524.598, 0.0, 10.000107, 9.998652 
2.0651816e+3, 2.236219e+2, -759908.7, -902108.6, -41287.344, 0.058982965, -0.3343455, -748790.3, -317.7233, 0.0, 10.000452, 9.998603 
2.0652041e+3, 2.3362114e+2, -466409.84, -681136.4, -42492.54, 0.105016224, -0.32298452, -458306.72, 192171.53, 0.0, 10.001707, 9.9988165 
2.0652263e+3, 2.4361981e+2, -354519.25, -683085.5, 14839.804, 0.08733485, -0.29269835, -353850.34, 198640.56, 0.0, 10.0022335, 9.997899 
2.0652477e+3, 2.5361735e+2, -350895.22, -615943.0, 9961.1, -0.066288285, -0.3697118, -350521.38, 103995.945, 0.0, 10.001555, 9.997991 
2.0652707e+3, 2.6361588e+2, -271369.9, -440405.2, 28482.336, -0.09751882, -0.34766963, -266699.7, 89833.6, 0.00000012472299, 10.001005, 9.998816 
2.0652957e+3, 2.7361608e+2, -182031.7, -301159.9, -22546.117, 0.06819773, -0.27511287, -177907.42, 80623.65, 0.0000018192295, 10.000785, 9.999177 
2.0653191e+3, 2.836155e+2, -132411.19, -372879.3, -34413.64, 0.101930596, -0.19090103, -127583.15, 32953.863, 0.000008845643, 10.001048, 9.997921 
2.0653395e+3, 2.9361305e+2, 110510.3, -173059.7, -36266.855, -0.10003039, -0.2873042, 115075.12, 177636.56, 0.000033872344, 10.001951, 9.998151 
2.0653658e+3, 3.036111e+2, 266620.1, -62219.1, 178677.14, -0.028296286, -0.3073167, 345015.9, 345015.9, 0.00009226449, 10.002555, 9.998344 
2.0653945e+3, 3.1360936e+2, 161443.13, -190817.83, -186577.94, 0.07951144, -0.38576734, 241892.6, 241892.6, 0.00019361054, 10.002161, 9.99761 
2.0749448e+3, 1.2360202e+2, -2000384.1, -1549696.3, -128218.04, 0.22576441, -0.5409767, -1515772.5, 212884.55, 0.38886976, 9.99613, 10.00383 
2.0749682e+3, 1.3360034e+2, -1768944.9, -1972020.1, 135467.11, -0.022310313, -0.5621171, -1701186.3, -70508.695, 0.28190908, 10.00013, 9.997452 
2.0749938e+3, 1.4360186e+2, -1597874.8, -1680043.4, 33486.76, 0.013464556, -0.20583351, -1585956.4, -53290.195, 0.17213808, 9.999901, 9.998926 
2.0750175e+3, 1.5359992e+2, -1477072.9, -1444616.8, 4927.363, -0.009329487, -0.42478168, -1443885.3, -9199.932, 0.08207624, 9.999566, 10.000001 
2.0750412e+3, 1.6359921e+2, -1364990.6, -1388789.4, -61550.42, 0.02474132, -0.47549972, -1314199.9, 22492.443, 0.027111659, 9.999866, 9.9995775 
2.0750646e+3, 1.7359947e+2, -1198636.6, -1245739.1, -51035.008, 0.12279489, -0.44437855, -1165980.8, 72709.766, 0.0046569863, 10.000335, 9.999631 
2.0750883e+3, 1.8359944e+2, -1094661.8, -1180665.6, -15953.322, 0.16046788, -0.39145812, -1091797.9, 48893.594, 0.00014131474, 10.000482, 9.999359 
2.0751123e+3, 1.9359942e+2, -997198.9, -1052291.8, -15004.074, 0.12686382, -0.38608664, -993377.7, 49314.44, 0.0000000002137382, 10.000366, 9.99961 
2.075136e+3, 2.0359935e+2, -948555.06, -1012199.75, -62925.844, 0.08620283, -0.33665344, -909862.7, 34830.21, 0.0, 10.000145, 9.999339 
2.075159e+3, 2.1359913e+2, -874217.8, -903173.06, -19471.865, 0.059792675, -0.33723554, -864431.2, -17735.979, 0.0, 9.999927, 9.9995 
2.0751822e+3, 2.2359861e+2, -773219.8, -853226.06, -10195.151, 0.032463767, -0.31710467, -771941.06, -23241.656, 0.0, 10.000137, 9.999083 
2.0752053e+3, 2.3359752e+2, -481877.34, -641404.8, 18283.986, 0.033030707, -0.38196295, -479808.6, 170898.75, 0.0, 10.001415, 9.999223 
2.0752281e+3, 2.4359643e+2, -400026.3, -684139.44, -15903.556, 0.0058204774, -0.35964334, -399138.84, 153578.25, 0.0, 10.001837, 9.998079 
2.07525e+3, 2.5359517e+2, -375498.88, -612091.25, -5088.879, -0.041041683, -0.3316608, -375389.47, 79342.36, 0.0, 10.001325, 9.998126 
2.0752719e+3, 2.635935e+2, -379507.16, -582428.06, -2301.632, -0.101033024, -0.30035406, -379481.06, -22730.756, 0.000000021824269, 10.000662, 9.998002 
2.0752947e+3, 2.7359146e+2, -279160.56, -445244.56, -15423.069, -0.12898368, -0.36518615, -277740.47, -18968.441, 0.00000084431264, 10.00055, 9.9983 
2.0753191e+3, 2.8359064e+2, -165364.98, -344642.66, -28547.504, -0.042561796, -0.27429426, -160928.95, -148.15506, 0.000005133315, 10.00065, 9.998296 
2.0753449e+3, 2.935906e+2, 87841.734, -151001.95, 17616.88, 0.20882843, -0.18025778, 89134.14, 151914.47, 0.000023723636, 10.0016365, 9.998457 
2.0753694e+3, 3.0358633e+2, 164123.6, -92575.98, 145425.28, 0.02775508, -0.4470667, 229738.19, 229738.19, 0.00007269807, 10.001835, 9.99845 
2.0753948e+3, 3.1358784e+2, 93027.55, -89690.51, -136022.56, -0.17799917, -0.24964324, 165523.97, 165523.97, 0.00016065389, 10.001219, 9.99871 
2.0849426e+3, 1.2357812e+2, -1588403.1, -1458495.5, -184459.8, 0.21069592, -0.38582993, -1327887.5, 401009.63, 0.40993002, 9.999973, 10.003007 
2.0849678e+3, 1.3357659e+2, -1889608.4, -1958784.5, -17311.809, -0.012908824, -0.46499065, -1885517.9, -254603.64, 0.29801235, 9.998995, 9.998085 
2.0849931e+3, 1.4357732e+2, -1705433.0, -1702142.0, -49485.645, 0.007919818, -0.24079056, -1654274.5, -121365.14, 0.18298064, 9.999064, 9.999166 
2.0850173e+3, 1.5357609e+2, -1537065.1, -1475559.0, -43102.42, 0.062122863, -0.38762408, -1453363.4, -18442.47, 0.088167645, 9.999166, 9.999985 
2.0850417e+3, 1.6357607e+2, -1450665.8, -1417817.9, -21528.484, 0.13803107, -0.3743806, -1407163.8, -70242.96, 0.029713616, 9.999211, 9.999708 
2.0850645e+3, 1.7357583e+2, -1214249.6, -1233800.6, -28828.463, 0.089191236, -0.4105294, -1193584.4, 45338.37, 0.005333032, 10.000124, 9.999833 
2.0850879e+3, 1.8357542e+2, -1127844.8, -1215907.5, 16725.383, 0.093107305, -0.40078354, -1124775.3, 16151.775, 0.00018960002, 10.000338, 9.999198 
2.0851128e+3, 1.935754e+2, -1084608.6, -1123031.1, 13856.584, 0.17825001, -0.3680025, -1080132.9, -37204.383, 0.000000020895914, 9.999903, 9.999347 
2.0851369e+3, 2.0357539e+2, -965406.25, -990147.2, 13379.216, 0.20443732, -0.3064742, -959555.0, -14626.491, 0.0, 9.999936, 9.999577 
2.0851599e+3, 2.1357526e+2, -669848.75, -766515.2, -7365.3955, 0.10131091, -0.33121303, -669290.75, 177637.38, 0.0, 10.0011835, 9.999821 
2.0851828e+3, 2.235746e+2, -571079.5, -782439.56, -29950.176, 0.043234058, -0.33219916, -566917.44, 182015.7, 0.0, 10.00162, 9.998869 
2.0852064e+3, 2.335731e+2, -601430.56, -732832.44, -81512.2, 0.039119855, -0.40896606, -562437.44, 88509.73, 0.0, 10.000716, 9.998944 
2.0852295e+3, 2.4357195e+2, -584488.7, -741396.9, -110584.516, 0.036311455, -0.38875878, -527355.25, 25602.852, 0.0, 10.000424, 9.998368 
2.0852515e+3, 2.5357124e+2, -352776.94, -563972.3, -111335.77, 0.0028820368, -0.33413142, -304925.84, 150040.1, 0.0, 10.001312, 9.9984665 
2.0852737e+3, 2.6356974e+2, -218357.02, -534198.94, -62139.977, -0.03773323, -0.29379237, -206571.16, 150411.05, 0.0, 10.001901, 9.997735 
2.0852962e+3, 2.7356696e+2, -103933.47, -404948.8, -73959.29, -0.09674458, -0.39314333, -86743.38, 172268.2, 0.000000115745564, 10.001951, 9.997897 
2.0853208e+3, 2.8356537e+2, 15026.627, -263575.8, -42553.957, 0.01917111, -0.353357, 21381.402, 182409.42, 0.0000020138657, 10.0018835, 9.998267 
2.0853476e+3, 2.9356524e+2, 63704.273, -146228.03, -70553.07, 0.3161892, -0.26708823, 85211.95, 148240.11, 0.000014504671, 10.001408, 9.998598 
2.0853706e+3, 3.0356303e+2, 134873.14, -72069.94, 107725.766, 0.016469665, -0.36070868, 180770.94, 180770.94, 0.00005340342, 10.001416, 9.99882 
2.085398e+3, 3.1356424e+2, 225932.05, -71632.02, -209608.72, -0.01582948, -0.20173837, 334194.56, 334194.56, 0.0001257325, 10.002192, 9.998418 
2.0949423e+3, 1.2355071e+2, -1588256.6, -1482576.0, -81718.484, 0.07754215, -0.28860575, -1438102.4, 291078.44, 0.42994058, 10.000145, 10.002762 
2.0949659e+3, 1.3355446e+2, -1764511.4, -1707258.5, -16624.555, -0.14725554, 0.018968496, -1702781.3, -71638.88, 0.31401625, 9.999038, 9.999793 
2.0949936e+3, 1.4355022e+2, -1601813.6, -1529433.1, -52509.176, 0.09068181, -0.40748477, -1501850.8, 31331.473, 0.19429262, 9.999223, 10.000321 
2.0950165e+3, 1.535523e+2, -1481296.1, -1380864.5, -34051.277, 0.028890353, -0.3021772, -1370408.1, 64749.824, 0.094824284, 9.999231, 10.000646 
2.0950402e+3, 1.635542e+2, -1407457.5, -1366234.1, -16817.748, 0.028027756, -0.1387294, -1360243.6, -23106.975, 0.032688897, 9.999369, 9.999988 
2.0950632e+3, 1.735539e+2, -1184637.9, -1178461.8, 12170.098, -0.07675449, -0.21732916, -1168994.0, 70145.15, 0.0061590113, 10.000147, 10.000204 
2.0950869e+3, 1.835532e+2, -1105260.6, -1189183.1, -9442.402, -0.0943449, -0.2655093, -1104211.4, 36934.0, 0.00026052183, 10.00042, 9.999343 
2.0951125e+3, 1.9355248e+2, -1089979.5, -1123446.1, 3501.1675, 0.13957706, -0.30654112, -1089617.1, -46465.418, 0.00000016154512, 9.999855, 9.999367 
2.0951374e+3, 2.0355178e+2, -1008745.1, -1040414.56, 35469.55, 0.2229205, -0.30552626, -985736.25, -40579.094, 0.0, 9.999766, 9.9993105 
2.0951606e+3, 2.1355103e+2, -730424.75, -830575.3, 49590.824, 0.04079796, -0.36296192, -710024.6, 137137.88, 0.0, 10.000927, 9.999497 
2.0951839e+3, 2.2354981e+2, -680532.44, -930268.7, -66261.92, -0.07199855, -0.36669457, -664040.4, 85133.97, 0.0, 10.001278, 9.998016 
2.0952068e+3, 2.3354782e+2, -702638.2, -886548.5, -100948.84, -0.020220572, -0.39850488, -658041.44, -6844.005, 0.0, 10.000474, 9.998005 
2.0952298e+3, 2.4354635e+2, -611113.8, -718108.6, -97345.67, -0.009606006, -0.3717397, -553534.0, -320.52005, 0.0, 10.000089, 9.998688 
2.0952524e+3, 2.535457e+2, -346013.38, -500842.3, -61460.695, -0.05950612, -0.36707467, -324582.44, 130635.94, 0.0, 10.001098, 9.999003 
2.0952754e+3, 2.6354462e+2, -259803.61, -540144.06, -70297.266, -0.09330665, -0.32666332, -243163.77, 114065.07, 0.0, 10.001567, 9.997849 
2.0952994e+3, 2.7354234e+2, -147067.66, -431795.1, -55252.387, -0.005461173, -0.3770358, -136721.67, 122530.68, 0.0, 10.001683, 9.997838 
2.0953238e+3, 2.8353962e+2, -90864.66, -367272.63, -74896.12, 0.09208067, -0.4224517, -71875.23, 89404.56, 0.00000039293647, 10.001398, 9.9977865 
2.0953469e+3, 2.9353723e+2, 7893.3115, -190273.89, -61020.313, 0.08581194, -0.5223809, 25175.68, 88478.0, 0.000007667558, 10.001102, 9.998444 
2.095369e+3, 3.0353972e+2, 51494.086, -66770.01, 107784.2, -0.33805144, -0.16590552, 115301.19, 115301.19, 0.000037309022, 10.000711, 9.99917 
2.0954035e+3, 3.1353825e+2, 14829.266, -262352.3, 39329.035, 0.26831126, -0.29749706, 20301.588, 20301.588, 0.00009614077, 10.001223, 9.997533 
2.1049428e+3, 1.2352455e+2, -1729347.0, -1663910.3, 34884.47, 0.16868559, -0.14316045, -1648801.6, 80642.16, 0.44859928, 9.999373, 10.000981 
2.1049656e+3, 1.3352923e+2, -1707253.4, -1578462.1, 17804.78, -0.04512589, 0.121805586, -1576046.0, 55348.625, 0.3298663, 9.998865, 10.000955 
2.1049936e+3, 1.4352499e+2, -1593101.5, -1487970.1, -25346.342, 0.17950237, -0.37876108, -1482178.4, 51253.72, 0.20615475, 9.999098, 10.000703 
2.1050164e+3, 1.5352717e+2, -1429981.4, -1304846.0, -70470.65, 0.071449324, -0.31401107, -1273175.6, 162227.73, 0.10215144, 9.999379, 10.001142 
2.1050395e+3, 1.6352865e+2, -1439372.0, -1401023.3, -35077.535, 0.028840756, -0.2146699, -1380221.5, -42836.832, 0.036114734, 9.999244, 9.999791 
2.1050632e+3, 1.7352854e+2, -1301525.8, -1265235.1, -70883.45, -0.059753064, -0.24867813, -1210211.4, 29175.85, 0.007176738, 9.999471, 9.999922 
2.1050872e+3, 1.8352823e+2, -1214556.6, -1228495.1, -119437.78, -0.05174795, -0.2498674, -1101885.0, 39505.723, 0.0003661867, 9.999619, 9.999456 
2.1051124e+3, 1.9352737e+2, -1041308.8, -1078351.8, -127149.92, 0.11934209, -0.31700224, -931338.5, 112058.87, 0.00000091193453, 10.000111, 9.999547 
2.105137e+3, 2.0352648e+2, -951373.0, -1051233.3, -48898.633, 0.19564597, -0.33355343, -931416.9, 13988.092, 0.0, 10.000281, 9.99901 
2.1051611e+3, 2.1352533e+2, -878702.3, -954432.56, -60229.715, 0.061157726, -0.38904917, -845424.0, 1991.9006, 0.0, 10.000084, 9.999084 
2.1051848e+3, 2.2352427e+2, -828144.2, -952741.4, -132585.08, -0.012156108, -0.36962435, -743950.75, 5476.359, 0.0, 10.000076, 9.998426 
2.1052073e+3, 2.3352319e+2, -612698.1, -780193.6, -98624.37, -0.006901233, -0.36120948, -567061.0, 84379.29, 0.0, 10.000837, 9.998545 
2.1052305e+3, 2.4352212e+2, -415854.28, -620360.3, -5225.624, 0.020641258, -0.32721728, -415720.84, 137731.1, 0.0, 10.0013895, 9.998749 
2.1052544e+3, 2.5352105e+2, -301850.6, -481740.7, -30526.785, 0.027016154, -0.360934, -296811.44, 158649.64, 0.0, 10.001403, 9.998996 
2.1052781e+3, 2.6351988e+2, -283442.88, -554324.8, -53288.625, 0.025138838, -0.32354072, -273336.84, 84135.484, 0.0, 10.0014, 9.997844 
2.1053013e+3, 2.7351806e+2, -189841.5, -459433.34, -74815.95, 0.02947256, -0.32081717, -170470.73, 89021.75, 0.0, 10.001409, 9.997789 
2.105325e+3, 2.835155e+2, -50910.152, -333757.53, -39712.125, 0.08637417, -0.35049742, -45440.3, 116078.08, 0.00000006547354, 10.001649, 9.997872 
2.1053484e+3, 2.935126e+2, 171676.4, -112065.664, -52489.207, 0.0861447, -0.5017553, 181075.02, 244620.05, 0.000004738257, 10.002269, 9.998403 
2.1053718e+3, 3.035148e+2, 276588.63, -43589.906, 117962.78, -0.17660655, -0.13460293, 315355.56, 315355.56, 0.00002905632, 10.002596, 9.998429 
2.1054058e+3, 3.13511e+2, 230821.92, -54192.477, -53910.45, 0.32921642, -0.41067606, 240678.23, 240678.23, 0.00007991688, 10.00223, 9.998486 
2.1149412e+3, 1.2349664e+2, -1994257.0, -2209562.8, -105606.016, -0.044730697, -0.28655437, -1951106.1, -221391.13, 0.46656317, 9.999504, 9.996789 
2.1149665e+3, 1.3350078e+2, -1645979.6, -1513956.9, 16635.76, 0.107122645, -0.17622773, -1511893.0, 119779.28, 0.34608045, 9.998986, 10.001577 
2.1149921e+3, 1.4350145e+2, -1599492.4, -1541779.9, -15154.437, 0.06669832, -0.17740855, -1538042.6, -4381.9253, 0.21890919, 9.9993105, 10.000148 
2.1150158e+3, 1.5350072e+2, -1388693.1, -1252289.8, -56708.633, 0.048225958, -0.42237076, -1231793.4, 203863.86, 0.110347085, 9.99951, 10.001488 
2.1150386e+3, 1.6349931e+2, -1456870.5, -1475511.9, -47352.457, -0.034671944, -0.61253905, -1417930.1, -80263.93, 0.040102176, 9.999403, 9.999206 
2.1150637e+3, 1.7349984e+2, -1360923.3, -1399943.3, -53035.555, 0.008076102, -0.4944249, -1323923.0, -84256.85, 0.008443992, 9.999509, 9.998982 
2.1150881e+3, 1.8350041e+2, -1204902.0, -1220013.1, -119186.75, 0.039458912, -0.35367665, -1093031.5, 48631.863, 0.00052604213, 9.999667, 9.999489 
2.1151115e+3, 1.9350006e+2, -1037233.06, -1047820.0, -100019.21, -0.0076089934, -0.3947976, -942367.3, 101298.35, 0.0000034897541, 10.00002, 9.999795 
2.1151355e+3, 2.0349939e+2, -1006225.7, -1116497.3, -66786.39, -0.039881658, -0.39010653, -974756.75, -29084.049, 0.0, 10.000076, 9.99866 
2.1151611e+3, 2.1349828e+2, -945563.44, -1035369.5, -56182.75, 0.029175363, -0.3967956, -918544.44, -70857.39, 0.0, 9.999857, 9.998631 
2.1151859e+3, 2.2349802e+2, -773678.06, -764646.06, -118364.43, 0.03610656, -0.33392832, -650711.5, 98979.12, 0.0, 9.999751, 9.999875 
2.115208e+3, 2.3349898e+2, -523694.9, -542279.7, -55020.36, -0.045953933, -0.29516163, -477187.75, 174490.31, 0.0, 10.000605, 10.000292 
2.1152315e+3, 2.434989e+2, -484286.28, -674609.4, -14609.288, -0.05581506, -0.25541455, -483171.4, 70505.77, 0.0, 10.0010195, 9.998547 
2.1152571e+3, 2.5349697e+2, -373912.16, -578672.4, -18480.525, 0.119723395, -0.32713088, -372257.6, 83439.4, 0.0, 10.001185, 9.9984255 
2.1152808e+3, 2.634954e+2, -355867.88, -614892.6, -64455.566, 0.13438419, -0.29065216, -340715.2, 16999.795, 0.0, 10.001027, 9.997599 
2.1153013e+3, 2.7349406e+2, -223067.3, -479719.0, -53589.902, -0.1261516, -0.2278546, -212326.97, 47405.113, 0.0, 10.001203, 9.997743 
2.115324e+3, 2.8349245e+2, -93324.55, -332836.88, -35525.51, -0.21997367, -0.18023998, -88166.336, 73583.195, 0.00000005479561, 10.001265, 9.998066 
2.1153513e+3, 2.9349038e+2, 122705.95, -156035.88, -195.96504, 0.10129135, -0.27106407, 122706.086, 186471.17, 0.0000044706885, 10.001997, 9.998239 
2.1153782e+3, 3.0348787e+2, -1110.8326, -387874.06, 81240.336, 0.1578006, -0.255146, 15260.838, 15260.838, 0.000027145721, 10.001674, 9.996473 
2.1154048e+3, 3.1348297e+2, 189114.47, 121555.28, 51527.99, -0.07002766, -0.49932352, 216948.14, 216948.14, 0.00007500438, 10.001183, 10.000166 
2.12494e+3, 1.23475865e+2, -1564329.0, -1225214.4, -160564.27, -0.06586099, 0.060937524, -1161253.9, 568659.5, 0.48543465, 9.998326, 10.007406 
2.1249658e+3, 1.3347322e+2, -1782177.9, -1582529.1, 25345.809, 0.19670017, -0.46499285, -1579361.8, 52576.242, 0.3637423, 9.998252, 10.001212 
2.1249913e+3, 1.434774e+2, -1872113.3, -1697794.4, 65876.8, 0.14736578, -0.080486625, -1675699.5, -141805.69, 0.23315269, 9.99753, 9.99994 
2.1250156e+3, 1.5347564e+2, -1396074.9, -1273525.9, -23551.596, 0.093045905, -0.41129202, -1269155.5, 166747.14, 0.1197026, 9.999494, 10.00137 
2.1250388e+3, 1.6347359e+2, -1302902.8, -1398346.1, -31181.447, 0.012228792, -0.6629583, -1293618.8, 44300.62, 0.044803485, 10.000449, 9.9992485 
2.125064e+3, 1.7347442e+2, -1281794.4, -1361255.6, -1150.004, 0.05862988, -0.5110571, -1281777.8, -41861.598, 0.01004214, 10.000052, 9.998988 
2.1250884e+3, 1.8347524e+2, -1202082.6, -1222862.0, 10502.983, 0.09850399, -0.34525216, -1197698.8, -55787.555, 0.0007722133, 9.999693, 9.9994545 
2.1251115e+3, 1.9347483e+2, -1030056.3, -1055143.0, -10526.799, 0.0053170584, -0.38943282, -1026224.4, 17690.459, 0.000010944595, 10.000087, 9.999726 
2.1251358e+3, 2.0347427e+2, -951022.8, -1073362.6, 36723.664, -0.019631023, -0.3735368, -940845.8, 5075.181, 0.0, 10.000402, 9.998787 
2.1251616e+3, 2.1347357e+2, -779447.7, -931268.4, 57862.21, 0.05785546, -0.35608602, -759909.56, 88021.25, 0.0, 10.000924, 9.998808 
2.1251868e+3, 2.2347337e+2, -582658.4, -679196.9, 3676.6555, 0.10749306, -0.29773796, -582518.56, 167414.83, 0.0, 10.001078, 9.99983 
2.1252094e+3, 2.3347391e+2, -533593.75, -554796.4, -83997.78, 0.033347804, -0.2930464, -459530.94, 192393.5, 0.0, 10.000569, 10.000228 
2.125233e+3, 2.4347368e+2, -564139.94, -704168.5, -79822.164, 0.024218136, -0.2679958, -527977.1, 25947.768, 0.0, 10.000459, 9.998603 
2.125258e+3, 2.5347188e+2, -375300.4, -574534.2, -75501.8, 0.123357005, -0.32361782, -349921.1, 106023.03, 0.0, 10.001175, 9.998458 
2.1252823e+3, 2.6347044e+2, -231346.45, -530715.6, -68043.79, 0.15042938, -0.28154716, -216606.48, 141354.1, 0.0, 10.001784, 9.997809 
2.1253037e+3, 2.734693e+2, -90382.76, -388901.47, -74998.35, -0.04307931, -0.2196983, -72599.875, 187374.86, 0.0, 10.002021, 9.997967 
2.1253267e+3, 2.83468e+2, 47104.17, -288522.8, -19756.72, -0.1175443, -0.14058116, 48263.15, 210251.02, 0.000000117451826, 10.002296, 9.997897 
2.1253535e+3, 2.9346597e+2, 181636.14, -158441.23, -59368.664, 0.111555666, -0.19464357, 191702.4, 255706.56, 0.0000050467984, 10.002526, 9.997976 
2.1253815e+3, 3.0346128e+2, 122982.56, -368276.72, 86590.1, 0.3090637, -0.3675266, 137798.23, 137798.23, 0.00002697455, 10.0025835, 9.996237 
2.1254066e+3, 3.1345886e+2, 218820.3, 172679.1, 11002.437, 0.024565144, -0.3219537, 221309.55, 221309.55, 0.00007158717, 10.001102, 10.00063 
2.1349634e+3, 1.3344693e+2, -1863447.9, -1739276.0, -54855.637, 0.08242267, -0.6431707, -1718513.9, -86326.05, 0.38411817, 9.998339, 9.999863 
2.1349902e+3, 1.4345269e+2, -1847019.6, -1688449.0, 76530.164, 0.2191039, -0.07599506, -1657538.9, -123405.83, 0.24951555, 9.997705, 9.999916 
2.1350154e+3, 1.5345183e+2, -1413277.1, -1333435.4, 46565.92, 0.07107131, -0.2746973, -1312020.6, 124120.125, 0.13052814, 9.9996, 10.000857 
2.1350396e+3, 1.6345127e+2, -1234208.8, -1293027.5, -48963.637, -0.019169549, -0.37810543, -1206501.3, 131645.02, 0.050404422, 10.000629, 9.999898 
2.1350633e+3, 1.7345212e+2, -1217679.5, -1230733.1, -11489.058, -0.03526051, -0.31015474, -1210992.8, 29146.035, 0.012084308, 10.000068, 9.999874 
2.1350871e+3, 1.8345252e+2, -1202186.6, -1241531.8, 5673.8403, -0.042507984, -0.23337454, -1201384.8, -59249.023, 0.001155736, 9.99977, 9.9992895 
2.135112e+3, 1.9345157e+2, -1064346.6, -1116373.9, 13930.882, 0.023803316, -0.2937425, -1060851.4, -16705.768, 0.000030850606, 10.000038, 9.999331 
2.1351372e+3, 2.0345093e+2, -942110.2, -1009541.44, 40540.68, 0.05426946, -0.2871764, -923097.3, 23054.525, 0.0, 10.000211, 9.999318 
2.1351627e+3, 2.1345085e+2, -766117.2, -844994.9, 88097.74, 0.035338122, -0.27670002, -709033.3, 139118.23, 0.0, 10.000674, 9.99952 
2.1351872e+3, 2.2345017e+2, -735356.25, -903495.94, -19224.781, 0.03490689, -0.25247553, -733186.1, 16971.545, 0.0, 10.000694, 9.9984665 
2.1352106e+3, 2.3344806e+2, -688040.94, -830784.75, -90140.65, 0.09658008, -0.33949608, -644437.75, 7740.898, 0.0, 10.00038, 9.998423 
2.1352342e+3, 2.4344645e+2, -598225.06, -711107.94, -70382.27, 0.066784, -0.35149604, -564448.4, -10253.487, 0.0, 10.00019, 9.998681 
2.1352576e+3, 2.5344566e+2, -368549.0, -520987.7, -33410.133, -0.07277671, -0.3538383, -361548.0, 94655.53, 0.0, 10.001002, 9.998904 
2.135282e+3, 2.634447e+2, -256082.1, -496612.63, -70235.04, -0.089734435, -0.30694142, -237075.34, 121137.445, 0.0, 10.001431, 9.998206 
2.1353076e+3, 2.7344337e+2, -99769.05, -360273.22, -50815.13, 0.11803047, -0.30533296, -90207.74, 170016.61, 0.00000000014169585, 10.001807, 9.998268 
2.1353318e+3, 2.8344172e+2, -74917.9, -420733.03, -28755.27, 0.12660365, -0.24602884, -72543.14, 89696.16, 0.000000256191, 10.001811, 9.997202 
2.135355e+3, 2.9343915e+2, 92002.484, -271011.2, -15142.807, -0.031256948, -0.2864123, 92633.06, 156897.34, 0.0000052967753, 10.002202, 9.9973545 
2.1353814e+3, 3.0343387e+2, 70391.414, -249277.9, 38397.133, -0.027606634, -0.5469457, 74938.805, 74938.805, 0.000025200057, 10.001692, 9.997442 
2.1354082e+3, 3.1343424e+2, -14712.498, 5006.7407, -20629.467, 0.012371916, -0.3587245, 18011.658, 18011.658, 0.00006359548, 9.999857, 10.000024 
2.1449614e+3, 1.3342135e+2, -1815194.0, -1710780.0, -106329.85, 0.07418849, -0.6238069, -1644532.0, -12096.929, 0.40760165, 9.998613, 9.999901 
2.1449888e+3, 1.4342637e+2, -1811011.8, -1668114.1, 31207.5, 0.3091517, -0.13726927, -1661596.0, -127206.99, 0.26811564, 9.99795, 9.999928 
2.1450149e+3, 1.5342645e+2, -1565034.6, -1413328.1, 40948.13, 0.120518506, -0.23133817, -1402981.3, 33410.645, 0.14296411, 9.998626, 10.000698 
2.14504e+3, 1.6342698e+2, -1441098.9, -1352888.8, -80524.47, 0.053945743, -0.2287078, -1305181.8, 33207.438, 0.057087187, 9.999022, 10.000252 
2.1450627e+3, 1.7342803e+2, -1282699.0, -1207792.5, -107962.086, -0.049322657, -0.19163933, -1130971.8, 109407.59, 0.014719365, 9.999416, 10.000346 
2.1450864e+3, 1.834283e+2, -1212631.0, -1237383.0, -62967.168, -0.07055743, -0.15435547, -1160835.1, -18458.607, 0.0017550356, 9.999662, 9.99937 
2.1451128e+3, 1.9342713e+2, -1016109.3, -1087724.0, -46595.617, 0.09146189, -0.2419059, -993151.75, 51235.973, 0.00008036648, 10.000361, 9.999361 
2.1451387e+3, 2.034264e+2, -887438.6, -952100.5, -3117.2856, 0.17640482, -0.25603026, -887288.7, 59104.758, 0.000000018813253, 10.000457, 9.999594 
2.1451631e+3, 2.1342646e+2, -865629.1, -860407.2, -9073.494, 0.06130165, -0.26437032, -853576.5, -5186.6143, 0.0, 9.999831, 9.99983 
2.1451876e+3, 2.2342552e+2, -851409.9, -999276.4, -51712.86, 0.037833318, -0.26628616, -835119.25, -84721.914, 0.0, 10.000063, 9.998121 
2.1452124e+3, 2.3342265e+2, -479392.9, -779719.8, -53923.895, 0.1437306, -0.37973315, -470004.34, 182422.3, 0.0, 10.002034, 9.997979 
2.1452363e+3, 2.4342074e+2, -225074.63, -582339.4, -3810.9326, 0.13782395, -0.3783826, -225033.97, 329413.28, 0.0, 10.002962, 9.9982395 
2.1452585e+3, 2.5342038e+2, -256880.75, -517547.1, -57409.92, -0.09929643, -0.28644437, -244796.81, 211656.55, 0.0, 10.00198, 9.998462 
2.1452829e+3, 2.634193e+2, -208207.75, -443464.9, -87388.05, -0.13139208, -0.23839578, -179299.13, 179164.48, 0.0, 10.00161, 9.998493 
2.1453097e+3, 2.7341694e+2, 9088.289, -256760.13, -96404.18, 0.15945394, -0.3801249, 40367.035, 300848.2, 0.00000000016893417, 10.002342, 9.99872 
2.145335e+3, 2.8341514e+2, 17561.496, -398883.28, -48978.58, 0.25856933, -0.3564306, 23244.377, 185740.3, 0.0000002738674, 10.002495, 9.997036 
2.1453574e+3, 2.9341352e+2, -5046.119, -326265.7, -49280.15, 0.04947313, -0.27210113, 2344.2039, 66859.555, 0.0000047479944, 10.001578, 9.997267 
2.145383e+3, 3.0340943e+2, 136033.94, -63390.906, 63722.58, 0.022348788, -0.49089015, 154656.36, 154656.36, 0.000021563434, 10.001367, 9.9989195 
2.1454103e+3, 3.1340975e+2, 207004.84, 91405.89, -123505.95, 0.2040742, -0.43735754, 285567.03, 285567.03, 0.000054127682, 10.00137, 9.999904 
2.1549594e+3, 1.3339673e+2, -1733351.3, -1593931.3, -109729.2, -0.08069687, -0.37042367, -1533641.3, 99035.56, 0.43279883, 9.998774, 10.00101 
2.1549857e+3, 1.4339802e+2, -1755801.4, -1642900.1, -3988.9902, 0.099537104, -0.32681024, -1642759.4, -108093.04, 0.28823382, 9.998312, 9.999933 
2.1550134e+3, 1.5339953e+2, -1546382.6, -1406252.1, 70382.33, 0.09019446, -0.28631237, -1377005.8, 59650.543, 0.15688464, 9.998745, 10.000718 
2.1550396e+3, 1.6340086e+2, -1417375.8, -1347465.8, -78698.32, 0.036214445, -0.20800646, -1296308.8, 42338.547, 0.06501248, 9.999217, 10.000195 
2.1550618e+3, 1.7340206e+2, -1284391.3, -1212124.4, -91024.75, -0.1240125, -0.1477868, -1150323.5, 90314.56, 0.018139776, 9.999428, 10.000303 
2.1550857e+3, 1.8340248e+2, -1177050.8, -1185072.9, -55660.77, -0.16456652, -0.10679369, -1125256.8, 17377.805, 0.0026903055, 9.999744, 9.999696 
2.1551132e+3, 1.9340149e+2, -992016.9, -1022612.8, -11821.948, 0.07113511, -0.22060248, -987981.25, 56659.84, 0.00019736934, 10.0002985, 9.999837 
2.1551394e+3, 2.0340075e+2, -909837.6, -962722.6, -35434.832, 0.16461469, -0.26633945, -892066.6, 54578.582, 0.0000007869328, 10.000296, 9.9996 
2.1551624e+3, 2.1340033e+2, -896271.9, -886495.0, -24862.68, 0.0012038053, -0.31337833, -866044.75, -17398.598, 0.0, 9.999661, 9.999736 
2.1551868e+3, 2.2339942e+2, -860228.25, -947257.25, -6319.6025, -0.074167974, -0.33110514, -859771.75, -109118.98, 0.0, 9.999758, 9.998623 
2.1552137e+3, 2.333975e+2, -470288.34, -702722.2, 33978.99, 0.04472068, -0.4159946, -465422.88, 187247.64, 0.0, 10.00178, 9.998629 
2.1552388e+3, 2.4339621e+2, -354932.16, -751475.75, -37134.934, 0.0622529, -0.349873, -351484.56, 203200.44, 0.0, 10.002543, 9.9972725 
2.155261e+3, 2.5339583e+2, -380050.38, -722389.5, -80679.19, -0.08868985, -0.13839023, -361989.53, 94706.75, 0.0, 10.001757, 9.997163 
2.1552844e+3, 2.6339397e+2, -254285.78, -452360.88, -74732.47, -0.17462257, -0.0975339, -229253.28, 129462.36, 0.0, 10.0012455, 9.998604 
2.1553105e+3, 2.7338964e+2, -1598.1301, -217425.61, -50017.44, -0.043016147, -0.47188312, 9429.795, 270177.78, 0.0, 10.002069, 9.999125 
2.1553361e+3, 2.8338754e+2, -50984.04, -405484.28, -87988.43, 0.08717333, -0.515132, -30346.389, 132418.42, 0.000000100631844, 10.001952, 9.997233 
2.1553606e+3, 2.9338858e+2, -56764.2, -341738.34, -50468.266, 0.16637631, -0.1804324, -48090.39, 16671.24, 0.0000031808167, 10.00119, 9.997345 
2.155385e+3, 3.0338636e+2, 100765.79, 82169.08, 43279.863, 0.03281203, -0.2806407, 135734.88, 135734.88, 0.000016664693, 10.000491, 10.000308 
2.1554118e+3, 3.1338665e+2, 46269.324, -37291.426, 39138.848, 0.11302217, -0.41138446, 61737.96, 61737.96, 0.000045618737, 10.000524, 9.9994135 
2.164958e+3, 1.3337032e+2, -2014780.0, -1659695.9, -16713.62, 0.034188952, -0.30238393, -1658910.9, -25976.615, 0.45757636, 9.996709, 10.001199 
2.1649839e+3, 1.4336902e+2, -1513802.9, -1490296.5, -26403.55, 0.036823858, -0.5122717, -1473148.4, 61800.24, 0.3088363, 9.999828, 10.000395 
2.1650112e+3, 1.5337223e+2, -1561763.9, -1391734.4, 15060.722, 0.02117527, -0.34308675, -1390410.6, 46512.402, 0.17204043, 9.99854, 10.000906 
2.1650375e+3, 1.6337442e+2, -1626961.0, -1437684.4, -69579.43, 0.021333396, -0.18774709, -1414859.0, -75953.18, 0.07433442, 9.997697, 10.000305 
2.1650618e+3, 1.7337514e+2, -1233906.4, -1166992.5, -63512.496, -0.07405031, -0.19972603, -1128663.6, 112237.02, 0.022589553, 9.99964, 10.000538 
2.1650867e+3, 1.8337548e+2, -1054882.4, -1106077.1, -34098.664, -0.07432467, -0.18660821, -1037842.4, 105055.15, 0.00413868, 10.000534, 9.999851 
2.1651135e+3, 1.9337511e+2, -1037156.2, -1039550.3, -57527.85, 0.07773675, -0.24229632, -980812.94, 64085.87, 0.00045452762, 9.999983, 9.999882 
2.1651392e+3, 2.0337453e+2, -999907.9, -1030740.6, -79889.734, 0.16677375, -0.2628502, -933960.6, 12941.441, 0.000007502901, 9.999753, 9.999403 
2.1651632e+3, 2.1337362e+2, -775835.4, -853904.44, -103837.02, 0.06855966, -0.33529612, -703938.3, 144970.77, 0.0, 10.000594, 9.999514 
2.165188e+3, 2.2337283e+2, -649705.2, -788919.1, -44929.76, 0.0093243, -0.34542274, -636464.0, 114450.484, 0.0, 10.000974, 9.999114 
2.1652144e+3, 2.3337206e+2, -581761.25, -691176.56, -28387.775, -0.004259543, -0.37615812, -574834.56, 78084.78, 0.0, 10.0007305, 9.999211 
2.1652398e+3, 2.4337111e+2, -610592.4, -858340.94, -80494.914, 0.017313087, -0.314976, -586736.3, -31807.205, 0.0, 10.000701, 9.99743 
2.1652634e+3, 2.5336975e+2, -464701.13, -738811.9, -60658.754, 0.036477085, -0.21244943, -451877.66, 5070.9473, 0.0, 10.001104, 9.997345 
2.1652873e+3, 2.6336777e+2, -274660.06, -495564.7, 25042.055, 0.019324953, -0.18645413, -271856.84, 87112.516, 0.0, 10.001236, 9.998317 
2.165312e+3, 2.7336422e+2, -204407.83, -357816.34, -26835.533, -0.030718315, -0.44009382, -199849.0, 61147.82, 0.0, 10.00086, 9.998742 
2.1653372e+3, 2.8336203e+2, -175222.28, -421178.13, -67160.14, 0.056644104, -0.490464, -158078.64, 4936.8994, 0.0000000029805467, 10.000882, 9.997653 
2.1653622e+3, 2.9336232e+2, 27243.035, -236311.11, -47185.164, 0.22018398, -0.27304614, 35436.09, 100454.13, 0.000001345268, 10.001497, 9.997916 
2.1653874e+3, 3.0336267e+2, 310079.03, 160814.98, 64139.12, 0.17099504, -0.14933917, 333853.16, 333853.16, 0.000010778314, 10.002017, 10.0001135 
2.1654136e+3, 3.1336075e+2, 267992.22, -60697.984, -140714.58, 0.15525495, -0.43908402, 320003.1, 320003.1, 0.00003608632, 10.002635, 9.998226 
2.1749584e+3, 1.3334358e+2, -2050903.8, -1757447.1, 3164.7456, 0.3130368, -0.24451317, -1757413.0, -124219.71, 0.48078975, 9.997079, 10.000206 
2.1749835e+3, 1.4334026e+2, -1469593.8, -1445233.1, -13287.231, -0.08660554, -0.6750126, -1439388.3, 95839.34, 0.32934, 10.000148, 10.000709 
2.1750078e+3, 1.533447e+2, -1553975.8, -1393039.4, -36982.813, -0.21168497, -0.38364446, -1384947.6, 52242.89, 0.18832743, 9.998604, 10.000876 
2.1750337e+3, 1.6334747e+2, -1580795.5, -1389279.0, -35268.176, -0.202949, -0.17131497, -1382990.8, -43823.688, 0.0852701, 9.9978895, 10.000544 
2.175062e+3, 1.7334735e+2, -1177243.0, -1066053.9, 21418.459, -0.043362927, -0.33308578, -1062070.8, 179095.11, 0.028395085, 9.999704, 10.001216 
2.1750887e+3, 1.8334736e+2, -1064900.5, -1141687.5, -55890.29, 0.020593211, -0.38378742, -1035487.0, 107677.664, 0.006367479, 10.000602, 9.999569 
2.1751125e+3, 1.9334777e+2, -1081352.6, -1117366.1, -72519.19, -0.0188728, -0.31537515, -1024638.06, 20524.63, 0.0009868387, 9.999928, 9.999366 
2.1751377e+3, 2.0334753e+2, -1051163.9, -1105055.5, -69547.555, -0.006463524, -0.2540727, -1003524.56, -56358.145, 0.000047582707, 9.999606, 9.998969 
2.1751645e+3, 2.133462e+2, -830011.2, -916551.8, -61646.375, 0.13197689, -0.33425757, -797964.9, 51214.797, 0.00000000032497088, 10.000379, 9.999187 
2.1751902e+3, 2.2334558e+2, -679162.4, -762028.6, -57978.316, 0.11949378, -0.32328036, -649334.06, 101850.28, 0.0, 10.000603, 9.9994755 
2.1752138e+3, 2.3334597e+2, -588065.75, -638581.8, -24945.834, -0.13107075, -0.2867385, -577823.6, 75353.08, 0.0, 10.000458, 9.999698 
2.1752387e+3, 2.4334507e+2, -598385.25, -723353.1, -83274.69, -0.19010599, -0.29890084, -556759.06, -1576.2936, 0.0, 10.000244, 9.998569 
2.1752658e+3, 2.5334197e+2, -408421.56, -565243.75, -35647.69, 0.14038767, -0.5011441, -400698.7, 56513.55, 0.0, 10.000864, 9.998648 
2.1752913e+3, 2.6334038e+2, -380600.06, -621413.4, -2276.542, 0.25525475, -0.48384085, -380578.53, -21350.742, 0.0, 10.0008545, 9.997627 
2.1753137e+3, 2.733403e+2, -319754.7, -536538.0, -25257.59, 0.037853006, -0.28954598, -316850.8, -55620.4, 0.0, 10.000617, 9.997623 
2.1753372e+3, 2.8333807e+2, -211363.05, -383128.9, -65409.5, -0.071795456, -0.29527292, -189290.98, -26037.92, 0.0, 10.00042, 9.998125 
2.1753621e+3, 2.9333442e+2, 33169.008, -156300.77, -10260.103, 0.02051085, -0.5669373, 33722.992, 99010.72, 0.00000028754212, 10.00121, 9.998597 
2.1753897e+3, 3.0333713e+2, 55227.6, -193842.1, 50223.055, 0.13561767, -0.13948753, 64973.367, 64973.367, 0.0000061263827, 10.001329, 9.9979725 
2.1754168e+3, 3.1333473e+2, -8261.004, -392650.63, 13952.991, 0.11989297, -0.26338926, -7755.1885, -7755.1885, 0.000027574106, 10.001636, 9.996404 
2.1849826e+3, 1.4331567e+2, -1922327.4, -1656470.5, -52071.016, 0.016224274, -0.58940625, -1646635.6, -111163.91, 0.34983045, 9.99684, 10.000541 
2.1850088e+3, 1.5332061e+2, -1380116.8, -1366194.5, -11517.405, -0.045883834, -0.16918723, -1359698.0, 77729.305, 0.2059314, 10.000107, 10.000411 
2.1850319e+3, 1.633194e+2, -1288595.0, -1271977.0, 7325.295, -0.25667346, -0.32564244, -1269209.0, 70231.695, 0.09816949, 10.000036, 10.00036 
2.185062e+3, 1.7331997e+2, -1265754.6, -1128638.3, -8700.027, 0.019150944, -0.39442423, -1128088.5, 113343.41, 0.036017943, 9.999229, 10.00099 
2.1850891e+3, 1.833203e+2, -1283484.5, -1261721.3, -105526.35, 0.107390985, -0.3954836, -1166517.0, -23089.596, 0.009796201, 9.99911, 9.999481 
2.1851128e+3, 1.9332048e+2, -1019319.0, -1093026.6, -111809.49, -0.012129313, -0.3484161, -938446.2, 106982.47, 0.0020521113, 10.000336, 9.999343 
2.1851379e+3, 2.0332032e+2, -864161.6, -1027364.2, -42661.824, -0.0038694863, -0.2735293, -853682.5, 93750.17, 0.00020967671, 10.000971, 9.998839 
2.1851653e+3, 2.1331939e+2, -737211.06, -891592.5, -52102.566, 0.14379308, -0.29481766, -721272.4, 128170.76, 0.00000086887735, 10.001106, 9.99901 
2.1851914e+3, 2.2331885e+2, -670255.6, -760689.75, -65680.766, 0.17202067, -0.26521295, -635732.25, 115715.98, 0.0, 10.000656, 9.999471 
2.1852146e+3, 2.3331891e+2, -744906.9, -701926.75, -95627.75, -0.0369342, -0.2634689, -625404.1, 28039.924, 0.0, 9.999344, 9.999797 
2.1852395e+3, 2.4331796e+2, -726484.7, -738769.06, -102690.6, -0.06850809, -0.30453485, -629752.75, -74302.53, 0.0, 9.999147, 9.999 
2.185267e+3, 2.5331527e+2, -340932.28, -484619.8, -127302.42, 0.18321408, -0.5116374, -266600.0, 190874.44, 0.0, 10.001089, 9.999107 
2.185293e+3, 2.6331425e+2, -205467.89, -531103.25, -146388.44, 0.3033109, -0.47134656, -149335.42, 210148.75, 0.0, 10.002002, 9.997711 
2.1853155e+3, 2.733147e+2, -242216.13, -500593.22, -137883.33, 0.13435467, -0.20723563, -182456.28, 79025.91, 0.0, 10.0011425, 9.99763 
2.1853389e+3, 2.8331256e+2, -111931.945, -311882.3, -68200.734, 0.044593535, -0.22414759, -90884.914, 72619.44, 0.0, 10.000967, 9.998372 
2.1853642e+3, 2.933074e+2, 161602.1, -89966.79, -87952.99, 0.07309117, -0.65064204, 189302.03, 254853.08, 0.000000027227998, 10.002039, 9.998675 
2.1853925e+3, 3.0330998e+2, 212049.19, -230459.42, -2935.4622, 0.266534, -0.20243555, 212068.66, 212068.66, 0.0000044959556, 10.002799, 9.997065 
2.1854192e+3, 3.133075e+2, 188405.34, -153047.36, -81703.74, 0.21496491, -0.21226113, 206948.61, 206948.61, 0.000025056477, 10.002217, 9.997851 
2.1949798e+3, 1.4329249e+2, -1857129.8, -1555243.4, -261807.14, -0.062400088, -0.3393668, -1403983.3, 131725.4, 0.371045, 9.996957, 10.001559 
2.1950132e+3, 1.5329927e+2, -1390595.3, -1409512.6, 33172.453, 0.351127, 0.30256012, -1365559.4, 72080.5, 0.22535217, 10.000238, 9.999982 
2.195032e+3, 1.6329014e+2, -1304740.1, -1329082.5, -48039.59, -0.32865304, -0.6355567, -1267353.9, 72373.3, 0.113554515, 10.000165, 9.999878 
2.1950613e+3, 1.7329264e+2, -1359065.3, -1314348.6, -28457.045, -0.005699962, -0.39008263, -1300517.3, -58815.344, 0.046104282, 9.99922, 9.99969 
2.1950877e+3, 1.8329376e+2, -1255193.1, -1218403.6, -76994.836, 0.008588258, -0.24582331, -1157636.8, -13946.292, 0.015073848, 9.999173, 9.999752 
2.1951133e+3, 1.9329326e+2, -981763.4, -1003220.06, -60046.33, -0.034915965, -0.32412162, -931494.5, 114201.695, 0.004138987, 10.000291, 9.999983 
2.1951392e+3, 2.03293e+2, -886609.7, -1034875.3, -50743.188, -0.023076782, -0.29964128, -870906.3, 76793.63, 0.00072646124, 10.000805, 9.998866 
2.195165e+3, 2.1329299e+2, -784953.75, -926420.6, -39403.703, -0.030426871, -0.22045508, -774718.8, 74983.07, 0.000022642807, 10.000836, 9.998893 
2.1951905e+3, 2.2329248e+2, -752024.9, -838022.56, -119061.05, -0.011986537, -0.16806121, -668436.06, 83271.42, 0.000000000011542125, 10.000257, 9.99913 
2.1952158e+3, 2.3329084e+2, -793359.2, -764017.94, -133497.44, 0.12873219, -0.3055867, -644387.44, 9334.244, 0.0, 9.999176, 9.999449 
2.1952412e+3, 2.4328975e+2, -805411.9, -810896.7, -62292.902, 0.1613277, -0.3265017, -745801.06, -190069.58, 0.0, 9.998774, 9.998675 
2.1952671e+3, 2.5328937e+2, -401725.28, -551215.5, -39834.215, 0.039478913, -0.2703416, -391773.3, 65962.88, 0.0, 10.00084, 9.998765 
2.1952923e+3, 2.6328883e+2, -240627.33, -483250.28, -176247.31, -0.012558767, -0.18549898, -147977.14, 211764.42, 0.0, 10.001507, 9.9982605 
2.1953164e+3, 2.732873e+2, -225213.52, -397902.66, -155364.56, 0.10809664, -0.21141005, -133812.39, 127941.63, 0.0, 10.000879, 9.998442 
2.1953416e+3, 2.8328496e+2, -181682.69, -360093.28, -57079.484, 0.16668312, -0.28715935, -164984.0, -1209.7905, 0.0, 10.000576, 9.998219 
2.1953677e+3, 2.9328132e+2, 72337.15, -192408.75, -22472.273, 0.20022736, -0.5254213, 74231.09, 140038.56, 0.000000020729713, 10.001689, 9.9981365 
2.1953955e+3, 3.032806e+2, 86331.87, -293524.38, -14026.953, 0.21508405, -0.35434693, 86849.13, 86849.13, 0.0000055230016, 10.002002, 9.996982 
2.1954209e+3, 3.1327742e+2, 192160.89, 129943.84, -87120.234, 0.1050099, -0.48965898, 253560.08, 253560.08, 0.000029811183, 10.00114, 10.000261 
2.2049764e+3, 1.4326553e+2, -1501530.8, -1474681.1, -123641.29, -0.23647298, -0.43705282, -1363738.0, 172236.98, 0.39437363, 10.000068, 10.000626 
2.2050127e+3, 1.5327242e+2, -1463603.6, -1438101.1, 31171.018, 0.3068354, 0.2796806, -1417174.1, 20728.818, 0.24751917, 9.999641, 10.000044 
2.2050335e+3, 1.6326313e+2, -1290480.6, -1342141.6, -97006.125, -0.17082597, -0.6856506, -1215924.9, 124065.83, 0.13222682, 10.000362, 9.999739 
2.2050606e+3, 1.7326578e+2, -1311461.1, -1367847.3, -57593.656, -0.0065002753, -0.3689662, -1275530.3, -33565.313, 0.059555795, 9.999804, 9.999083 
2.205087e+3, 1.8326695e+2, -1250724.6, -1228825.0, -841.48944, 0.026092108, -0.17917183, -1228792.6, -84838.914, 0.023171267, 9.999257, 9.999648 
2.2051142e+3, 1.9326603e+2, -994215.3, -1011639.44, -43229.848, 0.057000507, -0.2958117, -958828.44, 87134.4, 0.008108057, 10.000214, 9.999984 
2.2051406e+3, 2.032655e+2, -928647.3, -1036876.3, -83487.81, 0.09341471, -0.30393648, -883270.1, 64698.32, 0.0021629941, 10.000432, 9.999041 
2.2051653e+3, 2.132653e+2, -958524.6, -991313.2, -82940.62, -0.0016024183, -0.26061347, -890373.56, -40402.56, 0.00023583506, 9.999544, 9.99908 
2.2051902e+3, 2.2326459e+2, -879181.5, -908559.44, -98674.7, 0.0056088944, -0.23616436, -794108.44, -42129.93, 0.0000019906881, 9.999416, 9.999058 
2.2052163e+3, 2.3326325e+2, -543893.06, -663517.1, -126608.69, 0.18705204, -0.32746235, -463679.25, 190312.28, 0.0, 10.000954, 9.9993 
2.2052424e+3, 2.4326245e+2, -401520.63, -626322.6, -8576.318, 0.27196285, -0.30469924, -401193.9, 154805.81, 0.0, 10.001571, 9.998604 
2.2052683e+3, 2.5326246e+2, -452550.7, -568784.25, 4548.9795, 0.1027404, -0.20786044, -452372.9, 5627.288, 0.0, 10.000507, 9.998787 
2.2052935e+3, 2.6326165e+2, -392142.25, -532572.3, -102290.766, 0.024258971, -0.15810868, -338286.53, 21720.557, 0.0, 10.000347, 9.998488 
2.2053176e+3, 2.7325895e+2, -26807.305, -286410.8, -139060.83, 0.08678017, -0.32176754, 33618.2, 295647.72, 0.0, 10.00213, 9.998628 
2.205343e+3, 2.8325695e+2, 126436.95, -222075.31, -60044.375, 0.18455026, -0.3739596, 136491.77, 300538.0, 0.0, 10.00274, 9.998121 
2.20537e+3, 2.9325488e+2, 24032.182, -230667.11, -74351.664, 0.28511786, -0.42472285, 44148.13, 110214.92, 0.00000007580395, 10.001434, 9.9979925 
2.205397e+3, 3.0325305e+2, -41016.316, -341681.88, 36822.625, 0.24824508, -0.3713414, -36572.32, -36572.32, 0.0000083740215, 10.001032, 9.99714 
2.2054239e+3, 3.132509e+2, 443291.97, 332345.94, -164513.8, 0.22534017, -0.3985901, 561433.56, 561433.56, 0.000042885644, 10.002464, 10.001013 
2.2149768e+3, 1.4324127e+2, -1662291.3, -1831507.0, 110010.5, -0.31485695, -0.23335275, -1608115.9, -71908.375, 0.4221777, 9.999996, 9.997794 
2.2150068e+3, 1.5323958e+2, -1472062.3, -1427864.5, 89458.84, -0.26896676, -0.26435733, -1357815.5, 80405.75, 0.27423543, 9.999569, 10.000249 
2.2150363e+3, 1.6323808e+2, -1248551.3, -1291020.3, -107143.34, -0.006931453, -0.46224293, -1160558.5, 179675.03, 0.15564767, 10.000558, 10.000033 
2.2150595e+3, 1.732394e+2, -1286474.3, -1322098.3, -82295.75, -0.1356091, -0.32062054, -1220085.0, 22136.164, 0.07778218, 9.999841, 9.999376 
2.2150862e+3, 1.8323988e+2, -1281883.3, -1310656.4, 2838.3838, -0.02058236, -0.18960643, -1281605.9, -137388.83, 0.035576556, 9.999325, 9.999058 
2.2151154e+3, 1.9323875e+2, -1058771.3, -1116731.3, 3434.6465, 0.13876331, -0.25867093, -1058568.5, -12339.25, 0.0154146915, 10.000093, 9.999313 
2.2151421e+3, 2.0323767e+2, -933982.25, -1007147.8, -113338.19, 0.15665297, -0.29659873, -851469.1, 96770.68, 0.005714695, 10.000251, 9.999333 
2.2151658e+3, 2.1323629e+2, -950649.7, -932669.25, -106081.586, 0.07700928, -0.41946092, -835197.56, 15053.671, 0.0013616167, 9.999362, 9.999568 
2.2151902e+3, 2.2323543e+2, -935056.0, -937002.2, -70415.086, 0.0175711, -0.43454227, -865607.25, -113348.38, 0.00013056793, 9.999044, 9.999041 
2.2152159e+3, 2.3323587e+2, -586595.0, -691176.4, -54975.17, 0.022660958, -0.34495217, -563013.5, 91243.28, 0.0000045921656, 10.000686, 9.99924 
2.2152424e+3, 2.432358e+2, -469733.34, -645690.9, -53608.027, 0.074759685, -0.24725598, -454687.44, 101570.42, 0.000000030624218, 10.001072, 9.998699 
2.2152703e+3, 2.5323442e+2, -481100.8, -559669.94, -26830.9, 0.22628677, -0.31141403, -472812.56, -14544.266, 0.0, 10.000233, 9.998971 
2.2152959e+3, 2.6323247e+2, -466428.28, -584364.9, -71880.52, 0.20301048, -0.3763789, -432423.1, -72138.77, 0.0, 9.99993, 9.998325 
2.2153185e+3, 2.7322978e+2, -93203.24, -339904.38, -59412.55, -0.061700396, -0.5244219, -79640.65, 182668.14, 0.0, 10.001785, 9.998414 
2.2153433e+3, 2.832285e+2, 6450.4937, -326287.44, -108775.445, -0.12346812, -0.4736805, 38854.59, 203175.9, 0.0, 10.002144, 9.997677 
2.2153705e+3, 2.932277e+2, -40023.406, -286986.25, -102663.305, 0.1733021, -0.36818048, -2920.2222, 63412.668, 0.00000027397763, 10.001128, 9.997739 
2.2153968e+3, 3.0322668e+2, -90891.266, -307987.78, 54813.2, 0.06707073, -0.25198448, -77836.84, -77836.84, 0.000015050563, 10.000488, 9.997605 
2.2154246e+3, 3.1322572e+2, 161932.13, 26459.283, 58937.6, -0.00903859, -0.20831326, 183983.58, 183983.58, 0.00007034586, 10.001331, 9.999428 
2.2249827e+3, 1.432101e+2, -1547739.1, -1463215.4, -161341.86, 0.28385445, -0.25996953, -1338692.1, 197817.25, 0.45833316, 9.999498, 10.001219 
2.225006e+3, 1.5321065e+2, -1376891.8, -1385351.5, 55842.496, -0.31347215, -0.44302112, -1325119.1, 113383.414, 0.30885017, 10.000365, 10.000161 
2.2250378e+3, 1.632117e+2, -1417181.8, -1419139.6, -111375.984, 0.16172116, -0.33869657, -1306780.4, 33710.402, 0.18666483, 9.999479, 9.999609 
2.2250599e+3, 1.732115e+2, -1137783.9, -1219564.5, -126569.695, -0.11720915, -0.3623208, -1045663.25, 196829.3, 0.103338934, 10.000839, 9.999638 
2.2250864e+3, 1.8321136e+2, -1052807.6, -1230290.4, -28055.373, -0.012416844, -0.30319443, -1048478.44, 96016.14, 0.054786276, 10.001057, 9.998787 
2.2251154e+3, 1.9321048e+2, -1035895.7, -1148786.4, -24138.002, 0.12632428, -0.30789572, -1030951.1, 15553.875, 0.028543482, 10.000417, 9.998935 
2.2251421e+3, 2.0320955e+2, -965704.25, -1015570.06, -119257.98, 0.15617946, -0.31560022, -868800.75, 79714.18, 0.013685946, 10.000012, 9.999388 
2.225166e+3, 2.132084e+2, -805496.0, -849678.75, -170684.1, 0.11941571, -0.42258635, -655479.6, 195044.67, 0.005262215, 10.000317, 9.999683 
2.2251907e+3, 2.2320774e+2, -728769.0, -860290.2, -93375.96, 0.099624746, -0.4163499, -680321.4, 72209.19, 0.001420654, 10.00053, 9.998862 
2.2252163e+3, 2.332082e+2, -631361.0, -735707.25, -102166.07, 0.026543206, -0.30364698, -568817.3, 85712.04, 0.0002619265, 10.000456, 9.999054 
2.2252429e+3, 2.4320775e+2, -549991.94, -669217.2, -113676.234, 0.072757326, -0.23499776, -481245.9, 75287.914, 0.000035642544, 10.000446, 9.998848 
2.2252715e+3, 2.5320554e+2, -359223.94, -475511.56, -107747.0, 0.30499902, -0.40477747, -294933.6, 163615.95, 0.0000011567587, 10.000915, 9.999248 
2.2252975e+3, 2.6320353e+2, -305017.7, -492271.7, -92411.87, 0.3424796, -0.4980607, -267092.56, 93472.62, 0.0, 10.000966, 9.998467 
2.22532e+3, 2.732022e+2, -246247.13, -389995.72, -91429.664, -0.017666155, -0.5127663, -201823.11, 60754.48, 0.0, 10.000668, 9.998603 
2.2253445e+3, 2.8320166e+2, -195863.86, -417440.88, -106151.98, -0.1197074, -0.4061952, -153217.25, 11366.821, 0.0, 10.000706, 9.997763 
2.225372e+3, 2.9319993e+2, 105571.75, -208404.33, -104880.44, 0.15746295, -0.3820903, 137382.95, 203987.11, 0.00000073017384, 10.0021, 9.997809 
2.2253992e+3, 3.0319944e+2, 235147.84, -139377.1, 53314.953, 0.17859463, -0.24568382, 242589.55, 242589.55, 0.00002755439, 10.002646, 9.997752 
2.2254263e+3, 3.1319648e+2, 79345.2, -46108.203, -86970.63, 0.055102043, -0.34595528, 123849.695, 123849.695, 0.000118261974, 10.000837, 9.999218 
2.23501e+3, 1.5318634e+2, -1432530.3, -1443986.6, -40196.47, -0.005128523, -0.15871613, -1397655.9, 41083.934, 0.35698506, 10.000132, 9.999729 
2.2350381e+3, 1.6318326e+2, -1506047.5, -1610957.0, -97395.39, 0.14600807, -0.37843984, -1447879.6, -107110.055, 0.23053116, 9.999482, 9.998266 
2.2350615e+3, 1.7318186e+2, -1143812.0, -1206080.8, -73781.84, -0.07716658, -0.51070267, -1094864.5, 147917.0, 0.14104874, 10.000746, 9.999769 
2.2350867e+3, 1.8318127e+2, -1056722.6, -1225648.6, -55690.375, -0.15500446, -0.52012366, -1040015.4, 104771.49, 0.08532412, 10.001033, 9.998832 
2.2351138e+3, 1.9318119e+2, -1057691.5, -1169078.1, -41797.355, -0.10705589, -0.43860886, -1043751.75, 3038.8833, 0.05187056, 10.000308, 9.99885 
2.2351402e+3, 2.0318119e+2, -1017912.5, -1069975.3, -128205.25, -0.0893498, -0.3333242, -913122.56, 35670.45, 0.030293982, 9.999785, 9.999123 
2.2351652e+3, 2.1318136e+2, -853833.1, -895672.1, -148492.19, 0.0021004793, -0.28705257, -724794.1, 125998.72, 0.015773455, 10.000086, 9.99948 
2.2351912e+3, 2.2318123e+2, -813787.94, -933770.06, -102664.97, 0.060642328, -0.20438205, -754871.4, -2075.118, 0.0069356123, 10.0001, 9.998554 
2.2352172e+3, 2.331802e+2, -684431.7, -791832.3, -88329.75, 0.03979837, -0.21686342, -634759.5, 20049.77, 0.002541045, 10.000221, 9.998774 
2.2352435e+3, 2.4317844e+2, -612935.7, -693172.06, -113954.086, 0.048401795, -0.26070622, -532244.1, 24581.756, 0.00075579167, 10.000003, 9.998887 
2.2352715e+3, 2.531759e+2, -380565.06, -448510.44, -75145.78, 0.20685586, -0.49673355, -332069.38, 126773.47, 0.00014769337, 10.00061, 9.999573 
2.2352979e+3, 2.631747e+2, -377865.28, -513460.94, -122066.24, 0.23276328, -0.5293522, -306032.47, 54817.215, 0.000007045108, 10.000434, 9.998562 
2.2353218e+3, 2.731759e+2, -269178.13, -377384.2, -90050.93, 0.050755404, -0.32104367, -218227.31, 44611.652, 0.00000000065814787, 10.000414, 9.998798 
2.2353461e+3, 2.8317574e+2, -249740.77, -400884.63, -97870.586, -0.05631229, -0.21014582, -201660.89, -36819.984, 0.0, 10.0002, 9.9980955 
2.2353733e+3, 2.9317153e+2, 29850.748, -230567.16, -31581.383, 0.042293556, -0.4741017, 33625.957, 100507.15, 0.0000012574419, 10.001561, 9.99789 
2.235403e+3, 3.031706e+2, 21517.549, -354402.53, -14035.173, 0.23647366, -0.332425, 22040.83, 22040.83, 0.000044073433, 10.001722, 9.996693 
2.2354291e+3, 3.1316656e+2, -70878.055, -65068.79, -63468.75, 0.20802963, -0.4550019, -4438.2427, -4438.2427, 0.00018419352, 9.999684, 9.999605 
2.2450066e+3, 1.5315461e+2, -1804175.6, -1657122.5, -105611.336, -0.29434413, -0.51026434, -1601963.8, -162917.58, 0.42759266, 9.997611, 9.999291 
2.2450382e+3, 1.6315499e+2, -1232629.4, -1388347.6, -2604.374, 0.13215157, -0.45348862, -1232585.9, 108457.6, 0.29616648, 10.001375, 9.998889 
2.2450635e+3, 1.7315531e+2, -1038611.75, -1159259.0, -20261.828, 0.02826915, -0.41525933, -1035299.8, 207740.8, 0.19952731, 10.001739, 9.999708 
2.2450888e+3, 1.8315515e+2, -1025841.94, -1194115.4, -37878.813, -0.01115243, -0.38072607, -1017708.44, 127334.664, 0.13536815, 10.001264, 9.998929 
2.2451144e+3, 1.931543e+2, -1031812.2, -1142589.5, -48039.742, -0.061374646, -0.3890935, -1013881.56, 33172.164, 0.09319166, 10.000433, 9.998989 
2.24514e+3, 2.03154e+2, -999159.56, -1070369.6, -57906.176, -0.061832942, -0.32467476, -966787.8, -17728.799, 0.06306426, 9.999885, 9.999108 
2.2451657e+3, 2.1315427e+2, -863278.06, -907548.7, -84248.69, 0.04793935, -0.255522, -798305.3, 52752.582, 0.0400799, 10.000019, 9.999456 
2.245192e+3, 2.2315402e+2, -789169.4, -908201.25, -1832.1573, 0.13686633, -0.18237622, -789141.2, -36079.016, 0.023131557, 10.000177, 9.998711 
2.2452185e+3, 2.3315294e+2, -688689.4, -765775.7, 6220.6006, 0.17021307, -0.22582011, -688190.6, -33115.395, 0.011994159, 10.000066, 9.999035 
2.2452451e+3, 2.4315141e+2, -574919.75, -684648.6, 40703.43, 0.21909374, -0.25561586, -561469.7, -4379.9053, 0.0054928027, 10.000242, 9.998858 
2.2452722e+3, 2.531497e+2, -353649.88, -436258.44, 37451.375, 0.2290624, -0.40705672, -339198.9, 119901.836, 0.002050329, 10.00078, 9.999589 
2.245298e+3, 2.6314855e+2, -309473.38, -520399.9, -21567.828, 0.2139233, -0.41247788, -307290.6, 53817.195, 0.0004876709, 10.001056, 9.998228 
2.2453235e+3, 2.7314848e+2, -55185.33, -300899.88, -36930.566, 0.12664036, -0.30072775, -49754.74, 213354.03, 0.000047167257, 10.001993, 9.998575 
2.2453484e+3, 2.8314766e+2, 32286.799, -231861.28, -60005.652, 0.069284536, -0.2611817, 45279.055, 210395.05, 0.00000034188096, 10.001967, 9.998419 
2.2453743e+3, 2.9314384e+2, 64898.97, -196614.89, -33382.563, 0.011377833, -0.4963812, 69093.03, 136244.61, 0.0000013302117, 10.001669, 9.998105 
2.2454043e+3, 3.0314273e+2, -56561.582, -404494.88, 30413.97, 0.2582225, -0.3958086, -53923.008, -53923.008, 0.0000584347, 10.001173, 9.996629 
2.2454324e+3, 3.131395e+2, 147990.69, 171866.19, -89916.93, 0.5340096, -0.39129463, 250634.36, 250634.36, 0.00025945, 10.000505, 10.000852 
2.2550371e+3, 1.6312774e+2, -1221822.9, -1235532.5, 9357.592, -0.19883548, -0.45779216, -1217078.0, 124226.055, 0.39765337, 10.00081, 10.000662 
2.2550662e+3, 1.7313148e+2, -1082482.3, -1202343.1, -21268.969, 0.05105982, -0.096995726, -1078820.0, 164453.36, 0.29298013, 10.001677, 9.999399 
2.2550935e+3, 1.8313251e+2, -1090911.6, -1251589.9, -103965.484, 0.20518646, 0.0853973, -1039861.25, 105406.33, 0.21888196, 10.000959, 9.998697 
2.2551171e+3, 1.9312927e+2, -1058639.8, -1125314.5, -78194.54, 0.10604091, -0.19364162, -1006972.6, 40327.254, 0.16615056, 10.000145, 9.999239 
2.2551411e+3, 2.0312755e+2, -1038047.1, -1071802.3, -67460.125, 0.012593223, -0.3097389, -985385.4, -36068.617, 0.12546477, 9.999554, 9.999236 
2.2551665e+3, 2.1312697e+2, -892515.3, -913433.3, -65792.53, 0.088885546, -0.34327132, -836355.6, 14965.414, 0.0914258, 9.999793, 9.999502 
2.2551924e+3, 2.2312622e+2, -838611.2, -905806.8, -12732.67, 0.1267444, -0.33280295, -836279.44, -82951.31, 0.062582165, 9.999726, 9.998944 
2.2552203e+3, 2.3312618e+2, -684671.06, -702038.2, 12633.705, 0.29725102, -0.3274808, -678024.44, -22694.3, 0.039919913, 9.999813, 9.999597 
2.2552471e+3, 2.4312627e+2, -695131.44, -764323.8, 33069.617, 0.36323068, -0.21680859, -681868.5, -124538.63, 0.023601582, 9.999545, 9.998631 
2.2552732e+3, 2.531265e+2, -428651.2, -496316.2, 62742.797, 0.21308908, -0.15920742, -391200.47, 68126.33, 0.012405956, 10.0004015, 9.999341 
2.255298e+3, 2.6312464e+2, -465491.47, -701225.6, -27144.277, 0.07844288, -0.16995554, -462406.25, -101062.47, 0.005154125, 10.000472, 9.997254 
2.255325e+3, 2.7311993e+2, -174364.36, -425628.8, 10878.366, 0.046828806, -0.46322337, -173894.27, 89492.99, 0.0013586987, 10.0014925, 9.997945 
2.25535e+3, 2.831174e+2, -100579.64, -318326.88, -103664.66, 0.001221834, -0.5516103, -59120.875, 106289.23, 0.00015517221, 10.001203, 9.998171 
2.2553752e+3, 2.9311696e+2, 1550.1259, -200120.77, -21668.17, -0.10466834, -0.44224262, 3851.9512, 71265.64, 0.0000026982873, 10.001199, 9.998266 
2.2554028e+3, 3.031158e+2, -127516.086, -381007.94, -23830.477, -0.084745474, -0.39951378, -125295.266, -125295.266, 0.000065484004, 10.000499, 9.997088 
2.2554326e+3, 3.131116e+2, 94613.7, 305117.56, 94584.83, 0.4429791, -0.5158983, 341372.75, 341372.75, 0.00034262822, 9.999531, 10.002221 
2.265065e+3, 1.7309575e+2, -1337753.0, -1661808.5, -127736.01, -0.15980881, -0.9342775, -1293457.1, -49841.195, 0.44342524, 10.000123, 9.997063 
2.2650926e+3, 1.8310237e+2, -1294000.3, -1391704.1, -73035.67, 0.096191004, -0.29572964, -1254984.6, -109421.77, 0.3585124, 9.999363, 9.998504 
2.265116e+3, 1.9310074e+2, -1169321.5, -1099038.6, -70025.95, 0.04324222, -0.42641985, -1055831.1, -8255.065, 0.29413474, 9.998999, 9.999896 
2.2651397e+3, 2.0309936e+2, -1014649.8, -1042312.3, 24214.91, -0.07299429, -0.5699875, -1000594.4, -51006.965, 0.24160613, 9.999498, 9.999518 
2.2651635e+3, 2.1309897e+2, -826297.6, -899641.94, -14389.679, -0.2050574, -0.56849355, -823575.5, 28015.414, 0.1940874, 10.000297, 9.999395 
2.2651897e+3, 2.230986e+2, -643942.0, -844479.75, 34908.31, -0.16472703, -0.5020526, -638039.1, 115555.4, 0.14888066, 10.001319, 9.998628 
2.2652188e+3, 2.330985e+2, -460137.22, -645405.94, -43190.45, 0.085815564, -0.4304894, -450563.25, 205033.23, 0.108788945, 10.001785, 9.999055 
2.2652464e+3, 2.4309805e+2, -398750.0, -634406.44, -61056.8, 0.24811836, -0.32600814, -383870.2, 173732.11, 0.07581198, 10.001657, 9.99854 
2.265274e+3, 2.5309837e+2, -383260.38, -482692.13, -45173.324, 0.2624739, -0.26404324, -365802.63, 93798.74, 0.048806984, 10.0006485, 9.9993925 
2.2652996e+3, 2.6309708e+2, -444635.13, -641641.9, -16977.236, 0.21376961, -0.23001136, -443182.8, -81568.734, 0.026684597, 10.000301, 9.997788 
2.265327e+3, 2.730935e+2, -29327.705, -286538.63, 88647.664, 0.08180344, -0.47372243, -1735.3005, 261910.44, 0.010897145, 10.002107, 9.998656 
2.2653519e+3, 2.830913e+2, -82186.56, -385234.47, -33922.348, 0.07402467, -0.53845227, -78435.81, 87228.98, 0.002788968, 10.001612, 9.997545 
2.2653788e+3, 2.930904e+2, 135322.08, -224874.66, 9794.252, 0.09893949, -0.37697938, 135588.2, 203261.56, 0.0003034348, 10.002529, 9.997463 
2.2654055e+3, 3.0308765e+2, 226208.42, -156209.53, -46145.813, 0.038877677, -0.50894016, 231697.97, 231697.97, 0.000074942734, 10.002744, 9.997566 
2.265433e+3, 3.1308323e+2, 329761.16, 323649.0, -4463.8247, 0.4443755, -0.5470215, 332114.8, 332114.8, 0.00045627946, 10.001417, 10.001544 
2.2751401e+3, 2.030743e+2, -1007921.75, -1185136.0, 134664.44, -0.05035631, -0.555833, -935327.94, 14495.113, 0.4526298, 10.000279, 9.998118 
2.275166e+3, 2.1307565e+2, -833363.75, -939551.06, -11543.389, -0.020791922, -0.36659822, -832123.4, 19690.842, 0.38963944, 10.0005, 9.998931 
2.2751959e+3, 2.2307514e+2, -956689.25, -1180027.3, -100863.15, 0.23668574, -0.27313772, -917881.25, -164058.48, 0.32267725, 9.99983, 9.996982 
2.2752188e+3, 2.3307012e+2, -806578.56, -1004697.4, -49235.375, -0.115766935, -0.5546767, -795017.5, -139144.86, 0.25840095, 10.000073, 9.997331 
2.2752431e+3, 2.4306573e+2, -662712.44, -889578.3, -80291.06, -0.34063902, -0.6787322, -637171.7, -79254.766, 0.20062341, 10.000311, 9.997396 
2.2752748e+3, 2.530654e+2, -490251.88, -498534.44, -59377.625, 0.2437675, -0.7482702, -434871.28, 25051.422, 0.14660953, 9.999784, 9.999657 
2.2753023e+3, 2.630666e+2, -642652.56, -649253.2, -10405.472, 0.38107547, -0.5235968, -635036.56, -273124.38, 0.09444842, 9.998613, 9.998504 
2.2753294e+3, 2.7306968e+2, -24972.414, -89300.81, 137235.39, 0.08006439, -0.29737458, 83817.59, 347696.9, 0.04983968, 10.00139, 10.000368 
2.2753538e+3, 2.8306943e+2, -379588.97, -695975.75, -138471.63, 0.041653123, -0.20320113, -327545.5, -161665.75, 0.019500945, 10.000349, 9.995986 
2.275384e+3, 2.9306406e+2, -117343.945, -546964.7, 58584.367, 0.33857155, -0.35358402, -109498.48, -41566.76, 0.004786881, 10.001718, 9.9956045 
2.2754101e+3, 3.0305824e+2, 12685.85, -276406.38, -143905.53, 0.1897575, -0.7115277, 72106.35, 72106.35, 0.0007184054, 10.001471, 9.997298 
2.2754316e+3, 3.1305566e+2, -163391.16, -262416.7, 63726.29, 0.08148668, -0.5458511, -132203.52, -132203.52, 0.0007782504, 9.999764, 9.998205 
2.2852534e+3, 2.4305311e+2, -323345.75, -416207.63, -14819.942, 0.44317943, 0.13037302, -321037.97, 237002.44, 0.45869297, 10.001582, 10.00144 
2.2852759e+3, 2.5303805e+2, -1023714.25, -1171357.6, -10343.872, 0.44868523, -0.8689073, -1022993.06, -562801.8, 0.36361384, 9.997804, 9.996127 
2.2852927e+3, 2.630443e+2, -502996.6, -711595.06, -59792.637, -0.57011545, 0.12286364, -487073.16, -124941.55, 0.26167566, 9.999862, 9.997568 
2.2853291e+3, 2.730426e+2, -94566.055, -265477.22, -79241.25, -0.060952894, 0.008424279, -63480.52, 200665.6, 0.1640845, 10.001574, 9.999168 
2.2853558e+3, 2.8303865e+2, -347447.06, -382711.6, -432128.44, 0.29818946, -0.26177937, 67408.664, 233591.55, 0.0825175, 9.999197, 9.99883 
2.2853854e+3, 2.9303733e+2, 328899.2, 136677.42, 271853.8, 0.2843075, -0.40782225, 521131.5, 589325.7, 0.030766618, 10.002639, 10.000004 
2.2854152e+3, 3.0303687e+2, 542727.2, 123895.51, 180860.19, 0.4163743, -0.5424694, 610015.9, 610015.9, 0.009050352, 10.004304, 9.99878 
2.2854309e+3, 3.1303382e+2, -107137.875, -76455.016, 24606.512, 0.041910056, -0.45180437, -62799.203, -62799.203, 0.003966855, 9.9994, 9.999653 
2.2953303e+3, 2.7300227e+2, 145484.17, -383935.94, -244459.9, -0.14473478, -0.6317587, 241096.27, 505640.8, 0.434636, 10.006863, 9.995944 
2.295359e+3, 2.8299892e+2, -945385.4, -375043.4, -526648.06, 0.5851469, -0.847526, -61314.85, 105259.055, 0.25417715, 9.99385, 10.00147 
2.2953838e+3, 2.9301384e+2, 772607.44, 1267077.0, 476347.78, -0.25586504, -0.44671485, 1556528.5, 1624953.0, 0.12177539, 10.002065, 10.009138 
2.2954202e+3, 3.0302617e+2, -536959.1, -611030.5, -7422.905, 0.31657714, 0.24678785, -536222.6, -536222.6, 0.054068867, 9.997976, 9.996628 
2.2954331e+3, 3.13015e+2, -319215.72, 225344.45, -409879.44, 0.13281937, -0.811057, 445139.16, 445139.16, 0.03166487, 9.996547, 10.002956 
2.3053984e+3, 2.930096e+2, 79054.68, -1884053.1, -229331.3, 0.08139805, 0.2944395, 105489.32, 173958.56, 0.3617136, 10.00939, 9.98335 
2.3054291e+3, 3.029925e+2, 493785.16, 565317.2, -488730.88, 0.5161774, -1.0270479, 1019589.0, 1019589.0, 0.21617655, 10.0021715, 10.003933 
2.3054321e+3, 3.1300348e+2, 78216.01, -245344.63, 578287.56, -0.0870377, -0.04300214, 516926.63, 516926.63, 0.16926698, 10.001333, 9.998623 
2.3450904e+3, 2.7847704e+2, -286612.34, -1478499.8, -811027.7, 0.21718247, -0.18679067, 123880.625, 334793.44, 0.47211543, 10.006136, 9.987977 
2.3447374e+3, 2.8847954e+2, 456075.0, 1115944.1, -198812.16, -0.5067893, -0.0698104, 1171214.8, 1284086.8, 0.44383088, 9.999075, 10.015056 
2.3583908e+3, 1.7887315e+2, -2097252.0, -1274575.0, 8540.493, -0.32288224, -0.9682465, -1274486.4, -87463.99, 0.43652755, 9.991526, 10.002864 
2.3580645e+3, 1.888818e+2, -1178950.3, -1105294.6, 13394.977, 0.01345623, 0.3919349, -1102934.3, -14000.661, 0.37769404, 9.99895, 9.999692 
2.3577337e+3, 1.9887252e+2, -364644.47, -813130.6, -172506.38, -0.049466047, -0.16639261, -305968.13, 685050.8, 0.33361572, 10.006681, 9.998033 
2.3573948e+3, 2.0885906e+2, -809305.3, -1015165.06, -618450.3, -0.7835655, -0.81494004, -285277.97, 607875.7, 0.30109033, 10.001856, 9.99831 
2.3570742e+3, 2.1886331e+2, -2387951.0, -1791041.0, -502108.2, 0.5229365, 0.13860267, -1505383.0, -710266.94, 0.27833322, 9.989246, 9.997953 
2.3567429e+3, 2.2886309e+2, -708309.1, -939249.94, -565721.0, 0.2193352, 0.75790435, -246394.33, 450723.34, 0.2613076, 10.000818, 9.997907 
2.3564075e+3, 2.3884657e+2, -563316.25, -958263.9, -789830.1, -0.7035336, -0.3801091, 53352.133, 652629.9, 0.24582125, 10.001812, 9.996859 
2.3560871e+3, 2.4883814e+2, -354562.88, -970312.06, -499599.34, 0.5117472, -0.31165254, -75593.125, 425771.0, 0.23020306, 10.003506, 9.9947605 
2.3557574e+3, 2.5882828e+2, -973384.56, -1029776.25, -157369.84, 0.6772749, -0.35010862, -841704.6, -438239.38, 0.20999476, 9.996727, 9.996911 
2.3554112e+3, 2.6882607e+2, 129263.85, 343421.66, -12475.067, -0.09203608, -0.29895854, 344145.9, 649627.9, 0.17528796, 10.00051, 10.004832 
2.355076e+3, 2.7882287e+2, -847612.3, -1162263.8, 611595.7, -0.7136006, -0.20707889, -373431.38, -165922.47, 0.13171436, 9.997798, 9.994145 
2.3547451e+3, 2.8881302e+2, 492100.6, 128669.1, -200043.03, 0.09403189, -0.26127627, 580639.94, 690242.2, 0.12172194, 10.00445, 9.999318 
2.3544243e+3, 2.9881e+2, -288025.56, -232378.88, -134787.17, 1.165701, -0.54274136, -122573.3, -110945.11, 0.18203464, 9.998253, 9.999354 
2.3540811e+3, 3.0880708e+2, 354370.25, -905436.0, -271540.28, 0.24850719, 0.4930283, 410405.94, 410405.94, 0.30771846, 10.009061, 9.989632 
2.3690651e+3, 1.5923402e+2, -1684931.5, -934611.8, 66717.24, -0.3329064, 0.15807949, -928725.6, 450761.78, 0.40917805, 9.993153, 10.008046 
2.3687312e+3, 1.692301e+2, -1182040.3, -1626457.5, -223531.81, 0.16415013, 0.3474311, -1089061.5, 192459.47, 0.31914258, 10.002591, 9.995913 
2.3683885e+3, 1.792175e+2, -508516.5, -1235827.8, -3538.8958, -0.31037128, -0.040024452, -508499.28, 675144.75, 0.25440106, 10.007716, 9.995511 
2.3680618e+3, 1.8920808e+2, -642221.0, -921583.1, 199419.08, 0.10623133, -0.15435846, -538429.75, 547307.9, 0.20803168, 10.00376, 9.999081 
2.367738e+3, 1.9920287e+2, -1160713.9, -1241701.6, 120155.4, 0.72301716, -0.07403699, -1074412.4, -86621.945, 0.17323133, 9.998928, 9.998382 
2.3673972e+3, 2.091927e+2, -733650.56, -958059.4, 32236.768, -0.058877535, -0.3653835, -729111.5, 160783.31, 0.14628568, 10.001423, 9.998387 
2.3670565e+3, 2.1918176e+2, -167672.06, -637308.0, 122875.945, -0.65561306, -0.78589845, -137465.55, 654541.56, 0.12553912, 10.004975, 9.998433 
2.3667341e+3, 2.2917645e+2, -339702.13, -614950.3, 448363.38, -0.13112547, -0.641173, -8316.491, 685743.2, 0.108313076, 10.002599, 9.999042 
2.3664111e+3, 2.3917033e+2, -792044.2, -819854.4, 417249.25, 0.24024741, -0.58645326, -388468.44, 207651.39, 0.092006706, 9.998593, 9.998816 
2.3660737e+3, 2.4917102e+2, -463053.63, -274513.78, 184851.39, -0.19864649, -0.014602441, -161282.23, 336833.97, 0.07587346, 9.998813, 10.001824 
2.365739e+3, 2.5917193e+2, -375632.1, -439538.13, 181692.03, -0.4586902, 0.58640873, -223104.78, 177004.38, 0.059166547, 9.999893, 9.999379 
2.3654075e+3, 2.691659e+2, 318995.75, 547319.7, -115212.45, -0.026096325, 0.2559261, 595351.6, 897506.7, 0.040461045, 10.001521, 10.004843 
2.3650822e+3, 2.7915695e+2, -322649.06, -563425.44, 7282.808, 0.4658471, -0.44413054, -322428.97, -118201.695, 0.02269143, 10.000222, 9.996864 
2.3647436e+3, 2.891461e+2, -460794.1, -1041160.5, -178565.14, 0.24257784, -0.38873172, -410254.8, -303918.06, 0.017877169, 10.000763, 9.992537 
2.3644045e+3, 2.9913726e+2, -322705.0, -174597.25, 329733.34, -0.18934144, -0.4977995, 89295.68, 97724.82, 0.038468216, 9.997936, 9.999625 
2.3640722e+3, 3.0913147e+2, 499013.0, 1210083.3, -199479.75, -0.4545765, -1.0453432, 1262221.3, 1262221.3, 0.085402384, 9.999473, 10.009073 
2.3793958e+3, 1.4956224e+2, -1909093.6, -1728194.5, 420377.97, 0.48629, -0.7351994, -1388645.5, 85607.984, 0.38968268, 9.996948, 9.999366 
2.3790568e+3, 1.5955749e+2, -1991079.6, -1896868.0, -19422.621, -0.19909294, -0.7418284, -1893020.9, -516718.97, 0.27836236, 9.996318, 9.997796 
2.3787247e+3, 1.6955198e+2, -1240786.9, -1265754.4, 65801.09, -0.21308984, -0.624918, -1186295.8, 92061.1, 0.19862524, 10.000088, 9.999544 
2.378392e+3, 1.7954789e+2, -777796.1, -1207782.0, 35467.72, -0.23306635, -0.5277949, -774890.1, 405508.13, 0.1461588, 10.003928, 9.99748 
2.3780555e+3, 1.8954183e+2, -878389.3, -1205248.0, 30987.61, -0.4475881, -0.32348174, -875477.5, 206983.28, 0.11113541, 10.002321, 9.997509 
2.3777212e+3, 1.9953407e+2, -1285914.0, -1406498.3, 38170.26, -0.43388999, -0.3862565, -1274847.0, -290307.44, 0.08556882, 9.998642, 9.997368 
2.377395e+3, 2.0952913e+2, -806803.1, -926323.9, 156431.55, 0.0556471, -0.19823526, -699105.6, 187482.95, 0.065839775, 10.000595, 9.998968 
2.3770659e+3, 2.1952388e+2, -494408.72, -755285.75, 152722.25, 0.23925704, -0.13966931, -424003.3, 364636.34, 0.050802168, 10.002133, 9.99882 
2.3767327e+3, 2.2952002e+2, -512187.06, -368028.4, 252862.88, -0.08233924, -0.08284498, -177172.27, 513499.5, 0.03888462, 9.999857, 10.00187 
2.3764022e+3, 2.3951548e+2, -1216671.6, -1032821.3, 256268.13, -0.15188654, -0.11477498, -852490.0, -259779.31, 0.028499532, 9.995873, 9.998564 
2.3760691e+3, 2.4950716e+2, -768193.5, -667930.4, 162510.81, -0.11134856, -0.2972756, -547994.5, -53199.977, 0.019239584, 9.997977, 9.999294 
2.3757388e+3, 2.594972e+2, -832873.06, -1042577.8, 156239.78, -0.043055255, -0.57860416, -749563.56, -352668.22, 0.01143259, 9.99857, 9.99579 
2.3754083e+3, 2.6949033e+2, -252605.13, -412536.03, -190565.75, 0.37739104, -0.47865796, -125907.14, 173055.55, 0.005417436, 10.000712, 9.998301 
2.3750794e+3, 2.7948323e+2, -479508.0, -621738.1, -195535.86, 0.6199932, -0.55669016, -342556.7, -141526.17, 0.0017239751, 9.999161, 9.996978 
2.3747373e+3, 2.8947732e+2, 55914.223, -27881.549, -251110.69, -0.016016386, -0.4685255, 268598.38, 371685.53, 0.0009962119, 10.001017, 9.999416 
2.374401e+3, 2.9947653e+2, -299096.75, -344967.56, 229598.39, -0.27486384, -0.22465003, -91291.06, -86196.7, 0.0037776493, 9.9988365, 9.998084 
2.3740803e+3, 3.094636e+2, 274295.97, 90603.02, -51646.0, 0.2611327, -0.6079735, 287820.66, 287820.66, 0.011108046, 10.002381, 9.999273 
2.3897171e+3, 1.399063e+2, -1883430.8, -2307833.8, 98098.33, -0.21641414, -0.20637888, -1861853.0, -292979.47, 0.42782643, 10.000032, 9.994241 
2.3893933e+3, 1.498997e+2, -1250189.0, -1327545.1, -118755.2, 0.6496277, -0.2404415, -1163971.9, 306975.8, 0.2998544, 10.001571, 10.000205 
2.3890503e+3, 1.5989232e+2, -1234959.8, -1421071.4, -18812.512, -0.36875495, -0.4676968, -1233077.3, 139949.42, 0.19614406, 10.001157, 9.998832 
2.3887187e+3, 1.6988738e+2, -1143190.8, -1151781.9, 40090.2, -0.35253885, -0.41441986, -1107166.6, 167907.08, 0.12585048, 10.000273, 10.000426 
2.3883884e+3, 1.7988266e+2, -1326645.5, -1451706.4, 3111.7583, -0.20578733, -0.3949033, -1326568.1, -149449.77, 0.083471425, 9.999326, 9.998091 
2.388053e+3, 1.89875e+2, -956080.4, -1294884.0, -46310.957, -0.34094435, -0.3529287, -949864.2, 129332.49, 0.057587944, 10.001775, 9.997206 
2.387718e+3, 1.9986668e+2, -537258.25, -1052291.4, -12238.131, -0.47226998, -0.40552858, -536967.6, 444313.56, 0.03970386, 10.003872, 9.997304 
2.3873904e+3, 2.0986113e+2, -526972.56, -819171.2, 30065.275, -0.090462565, -0.27503777, -523911.13, 359420.2, 0.026570952, 10.002553, 9.998784 
2.387063e+3, 2.1985605e+2, -674026.4, -828446.4, -30901.46, 0.28003997, -0.15373906, -668072.2, 117303.47, 0.017417854, 10.000644, 9.999033 
2.3867281e+3, 2.2985189e+2, -713289.2, -516549.63, -143493.81, 0.05549566, -0.11577254, -440945.03, 246466.45, 0.011141793, 9.998654, 10.001391 
2.386394e+3, 2.3984656e+2, -996126.7, -887615.6, -141216.7, -0.16251929, -0.18955903, -790590.56, -201131.42, 0.0065593217, 9.997205, 9.998899 
2.3860638e+3, 2.4983749e+2, -513651.03, -580571.5, -75077.05, -0.07207579, -0.47559327, -464915.44, 26633.604, 0.0032030866, 9.999811, 9.999028 
2.3857358e+3, 2.5982732e+2, -370145.34, -802673.94, 10579.448, 0.08555827, -0.77606475, -369886.72, 23764.629, 0.0011282732, 10.001637, 9.995933 
2.3854046e+3, 2.6982018e+2, -273842.16, -637037.94, -82138.39, 0.39983737, -0.5798981, -256129.95, 39594.945, 0.00023273825, 10.001452, 9.996415 
2.3850738e+3, 2.7981314e+2, -304240.47, -420539.5, 101151.15, 0.5809546, -0.47876284, -245715.56, -47918.145, 0.000018977813, 9.999777, 9.998057 
2.3847337e+3, 2.8980887e+2, 356701.72, 360845.03, -129246.875, 0.00088316476, -0.41800308, 488036.84, 587875.8, 0.000039610317, 10.00202, 10.001574 
2.3844002e+3, 2.9981032e+2, 181176.23, -303195.44, -53737.24, 0.075651355, 0.031028362, 187066.33, 188889.61, 0.00031053094, 10.002873, 9.996396 
2.3840798e+3, 3.0979386e+2, -529282.2, -652498.44, -225294.56, 0.7362909, -0.35627586, -357324.06, -357324.06, 0.0010092399, 9.998529, 9.9958315 
2.400043e+3, 1.3022985e+2, -1536574.5, -1398404.8, 96340.016, -0.12046416, -0.47150806, -1348939.6, 314779.9, 0.49043718, 10.000054, 10.002668 
2.3997217e+3, 1.4022459e+2, -1609668.9, -1471189.3, -12243.303, 0.59722215, -0.9383096, -1470115.1, 95651.766, 0.36336103, 9.998701, 10.001153 
2.3993845e+3, 1.5022726e+2, -1340017.3, -1124166.3, -25526.258, 0.20135146, -0.40981308, -1121188.6, 346559.47, 0.24041095, 9.999443, 10.002789 
2.3990452e+3, 1.602292e+2, -1420627.3, -1331393.1, -49097.26, -0.4269166, 0.016482294, -1309668.5, 60067.582, 0.14389461, 9.999014, 10.0004 
2.3987131e+3, 1.702245e+2, -1191655.4, -1127050.1, 5689.781, -0.38027638, 0.017113954, -1126552.9, 145223.86, 0.08188297, 9.999831, 10.000716 
2.3983826e+3, 1.8021768e+2, -1331213.5, -1524550.6, -21403.133, -0.19277233, -0.16703531, -1328872.4, -155034.13, 0.047678713, 9.999673, 9.997437 
2.3980515e+3, 1.902095e+2, -1061622.9, -1383345.4, 26993.605, -0.12555782, -0.14861481, -1059373.8, 16548.29, 0.028905774, 10.001246, 9.996811 
2.3977198e+3, 2.0020126e+2, -913253.44, -1348098.6, -27538.26, -0.11414809, -0.15824498, -911516.44, 66488.95, 0.017015342, 10.0017805, 9.996259 
2.3973872e+3, 2.1019207e+2, -756341.6, -978391.94, -28692.117, -0.09192289, -0.32822725, -752694.1, 127392.3, 0.00915297, 10.001291, 9.998242 
2.3970556e+3, 2.201827e+2, -1021768.3, -1193313.5, -104175.2, 0.05143699, -0.5563763, -972598.6, -190429.81, 0.0045936005, 9.999261, 9.997186 
2.3967205e+3, 2.3017609e+2, -920619.25, -859880.2, -200390.42, 0.0005655283, -0.5691735, -687571.06, -3337.4143, 0.0022051786, 9.998383, 9.999121 
2.396386e+3, 2.4016932e+2, -1150903.8, -1038213.0, -117174.0, -0.1268928, -0.6239659, -964540.9, -378240.0, 0.0009056362, 9.996576, 9.99817 
2.3960578e+3, 2.5016633e+2, -475834.66, -342483.88, 23699.145, -0.08220361, -0.4307599, -338397.28, 149933.83, 0.00023937336, 9.999353, 10.000771 
2.3957317e+3, 2.601626e+2, -455355.16, -659529.0, -8244.496, 0.018754262, -0.30299956, -455022.78, -64653.74, 0.000025130046, 10.000355, 9.997535 
2.395398e+3, 2.701565e+2, -122896.8, -283148.0, -116251.44, 0.12521203, -0.21906658, -61832.777, 230597.19, 0.00000030344088, 10.001384, 9.998838 
2.395065e+3, 2.8015026e+2, -438606.28, -513344.94, 81448.04, 0.17418897, -0.27089965, -386363.94, -191870.81, 0.0000000068303647, 9.999044, 9.997789 
2.3947322e+3, 2.9014334e+2, 62518.734, -155764.22, 6061.868, 0.1429214, -0.23885934, 62686.95, 159254.97, 0.0000039429096, 10.001741, 9.998109 
2.3944011e+3, 3.0013913e+2, -150060.0, -625581.7, -73170.66, 0.1512371, 0.02753978, -139055.56, -139055.56, 0.00006190627, 10.001377, 9.994883 
2.3940684e+3, 3.1012583e+2, -201321.03, 72304.34, -96438.6, -0.021703841, -0.4065971, 102877.78, 102877.78, 0.0002690841, 9.998188, 10.00098 
2.410045e+3, 1.3057229e+2, -1716390.8, -1489081.9, 212006.17, 0.5149283, 0.01855501, -1362187.0, 298191.8, 0.44510007, 9.998293, 10.002686 
2.4097143e+3, 1.4056624e+2, -1879273.8, -1706027.1, 192985.13, 0.50884193, -0.34367874, -1581115.9, -18680.691, 0.31930807, 9.997316, 9.999995 
2.4093772e+3, 1.5056425e+2, -1668728.1, -1454644.1, 27778.598, 0.091800176, -0.05639254, -1451098.5, 13361.432, 0.20041417, 9.9979315, 10.000566 
2.4090396e+3, 1.6056128e+2, -1592843.9, -1541949.4, -26754.322, -0.40752324, 0.10160102, -1530473.0, -163980.08, 0.110025235, 9.998332, 9.999239 
2.4087085e+3, 1.7055413e+2, -1076002.0, -1148751.4, -28146.96, -0.3978523, -0.069074795, -1066383.5, 202170.14, 0.054970514, 10.000955, 10.000014 
2.4083781e+3, 1.8054639e+2, -897453.44, -1289626.6, -98099.08, -0.32461402, -0.27825886, -874283.6, 296337.13, 0.027314784, 10.002505, 9.997714 
2.4080473e+3, 1.9053978e+2, -935321.6, -1267682.1, -68222.305, -0.17567162, -0.1676846, -921862.9, 150823.28, 0.013986388, 10.001794, 9.997386 
2.4077164e+3, 2.0053267e+2, -972351.7, -1244910.6, -49531.26, -0.095068, -0.11051354, -963629.6, 11126.2705, 0.006556314, 10.000692, 9.997516 
2.4073835e+3, 2.1052378e+2, -685122.75, -832870.56, -15667.253, -0.06652026, -0.3566319, -683479.7, 193353.89, 0.002469395, 10.001281, 9.99927 
2.4070506e+3, 2.2051458e+2, -600743.2, -962935.06, 4378.417, -0.059127368, -0.6098812, -600690.25, 178224.8, 0.00078321603, 10.001912, 9.997519 
2.4067153e+3, 2.3050708e+2, -443770.2, -782212.8, -56578.32, -0.0552431, -0.61920094, -434562.38, 246427.75, 0.00023610769, 10.002154, 9.99789 
2.4063815e+3, 2.4049978e+2, -387415.2, -697480.7, 101113.48, -0.07565638, -0.5998378, -357355.84, 225708.33, 0.000047296035, 10.001761, 9.998046 
2.4060537e+3, 2.504962e+2, -414839.66, -350378.2, 142445.67, 0.0057924297, -0.42244184, -236562.39, 248538.05, 0.0000020598873, 9.999865, 10.0005 
2.4057268e+3, 2.6049286e+2, -683298.3, -593394.6, 16032.765, 0.077571854, -0.2571388, -590621.0, -203487.05, 0.0, 9.997936, 9.999153 
2.4053924e+3, 2.704882e+2, -223284.8, -190550.0, -151940.89, 0.012901755, -0.17229563, -54097.484, 235083.05, 0.0, 10.000033, 10.000154 
2.4050583e+3, 2.804832e+2, -54448.85, -265856.56, -84162.76, -0.018577965, -0.18585484, -25035.441, 166196.2, 0.0, 10.001265, 9.998451 
2.4047282e+3, 2.9047498e+2, -254860.42, -419860.7, -26965.998, 0.19874565, -0.24946113, -250565.19, -157244.6, 0.00000028208012, 9.99988, 9.997273 
2.4043989e+3, 3.0046922e+2, -593665.44, -694387.5, 101055.08, 0.42281887, -0.050205108, -531117.8, -531117.8, 0.000017512673, 9.99754, 9.996307 
2.4040623e+3, 3.1045854e+2, 400488.56, 624912.2, -158885.92, -0.11426804, -0.42191455, 707215.7, 707215.7, 0.0001005609, 10.001022, 10.003528 
2.4200337e+3, 1.3090995e+2, -1874546.4, -1601435.6, 56639.035, 0.11364349, 0.13658261, -1590155.4, 66925.13, 0.41411293, 9.997292, 10.001467 
2.4197054e+3, 1.4090946e+2, -1993977.3, -2041647.4, -57153.484, 0.41591564, 0.4387495, -1955887.9, -396801.44, 0.28877336, 9.9977255, 9.997492 
2.4193704e+3, 1.5090142e+2, -1677653.1, -1727850.9, -13965.937, 0.1324393, 0.33727258, -1674029.3, -212861.05, 0.17287979, 9.998982, 9.998206 
2.4190351e+3, 1.6089197e+2, -1572071.0, -1782032.9, 31059.445, -0.19918145, 0.08079851, -1567572.8, -204311.44, 0.08747846, 9.99947, 9.997116 
2.4187048e+3, 1.7088236e+2, -1141515.8, -1280597.9, 73261.01, -0.33434024, -0.22102736, -1110046.3, 155297.5, 0.038149297, 10.000971, 9.999008 
2.4183747e+3, 1.8087375e+2, -1104919.8, -1398895.1, -83353.46, -0.36004472, -0.4567233, -1082930.5, 84486.15, 0.01570925, 10.001167, 9.997553 
2.4180432e+3, 1.9086854e+2, -985079.94, -1171015.6, -78442.18, -0.22516906, -0.2966126, -956408.1, 113055.87, 0.0064830934, 10.0009775, 9.998396 
2.4177116e+3, 2.0086293e+2, -1105992.8, -1231976.0, -38186.77, -0.0560548, -0.19287215, -1095321.8, -123806.1, 0.0021827125, 9.999517, 9.998156 
2.4173792e+3, 2.1085593e+2, -703013.06, -703027.8, -3200.9424, -0.058739595, -0.3757707, -699819.5, 173757.61, 0.00044835047, 10.000584, 10.000469 
2.4170466e+3, 2.2084875e+2, -863615.0, -1104871.3, -44443.426, -0.06759913, -0.5442087, -855688.2, -80047.0, 0.000068581576, 10.000303, 9.997292 
2.4167119e+3, 2.3084252e+2, -612019.4, -887886.44, -81019.6, -0.06289685, -0.39772555, -589984.7, 87718.91, 0.0000096515805, 10.00134, 9.997455 
2.4163789e+3, 2.4083543e+2, -711512.44, -1008085.9, 36920.29, 0.015454809, -0.31858042, -706985.3, -127210.34, 0.00000040342232, 10.0003805, 9.996543 
2.4160492e+3, 2.508274e+2, -575787.94, -602069.1, 63617.0, 0.11909499, -0.44467735, -523968.56, -42113.71, 0.0, 9.999609, 9.99885 
2.4157202e+3, 2.6082012e+2, -896884.56, -807644.44, -14633.833, 0.14091103, -0.5552127, -805306.0, -421378.9, 0.0, 9.997057, 9.998117 
2.4153864e+3, 2.7081674e+2, -306603.2, -213704.92, -70107.34, -0.051086616, -0.35287267, -176055.53, 109906.82, 0.0, 9.999526, 10.000166 
2.415053e+3, 2.8081274e+2, -313427.06, -424198.56, -107861.734, -0.1982929, -0.25803348, -247562.1, -59558.08, 0.0, 9.999731, 9.998102 
2.4147214e+3, 2.9080445e+2, -215848.0, -161533.95, -100425.46, 0.032966346, -0.4637134, -84658.39, 5430.6035, 0.0000000009564638, 9.999282, 9.999261 
2.4143924e+3, 3.0079892e+2, -839422.3, -730613.25, 161147.6, 0.30997685, -0.44085193, -614934.25, -614934.25, 0.0000015325257, 9.99567, 9.996936 
2.4140581e+3, 3.107973e+2, 91683.08, 229359.56, -56017.59, -0.30953208, 0.03799731, 249271.95, 249271.95, 0.000021924814, 10.000037, 10.001266 
2.4300264e+3, 1.3123499e+2, -1738429.0, -1494493.6, -120071.93, 0.023728158, -0.038195252, -1445308.3, 208585.47, 0.39271495, 9.997862, 10.00245 
2.4296956e+3, 1.4123507e+2, -1572631.3, -1570362.5, -131968.72, -0.053159125, 0.23307696, -1439523.3, 116371.555, 0.26710206, 9.999542, 10.000013 
2.4293649e+3, 1.5122983e+2, -1190006.3, -1243476.5, -46262.12, 0.02104109, 0.155833, -1163309.6, 294634.34, 0.15331793, 10.001458, 10.000674 
2.429034e+3, 1.6122301e+2, -1179546.3, -1527835.0, 91692.77, 0.009007692, 0.009640053, -1156881.5, 203127.42, 0.07196278, 10.001978, 9.997671 
2.4287033e+3, 1.7121413e+2, -1133044.4, -1430792.8, 93741.76, -0.1360622, -0.11589629, -1105989.5, 156104.25, 0.027363949, 10.001693, 9.997627 
2.428372e+3, 1.812055e+2, -1070669.4, -1266055.6, -60654.168, -0.2766609, -0.26845804, -1053371.8, 110801.78, 0.009079448, 10.000844, 9.998606 
2.4280396e+3, 1.912e+2, -881808.1, -887901.06, -42909.465, -0.15246564, -0.32254136, -841837.1, 224378.63, 0.002868925, 10.000599, 10.000558 
2.427707e+3, 2.0119438e+2, -1017319.94, -1188676.1, 53926.742, -0.044073235, -0.33791023, -1001761.5, -33499.42, 0.00059867656, 10.000012, 9.998239 
2.4273746e+3, 2.1118742e+2, -905043.44, -1046066.4, -25554.66, -0.056497592, -0.3455121, -900555.5, -30223.023, 0.000045539302, 10.000092, 9.998423 
2.427042e+3, 2.2118074e+2, -827307.4, -981491.06, -152680.95, -0.066173755, -0.33793077, -733359.4, 39039.598, 0.0000022398012, 9.999969, 9.998308 
2.4267088e+3, 2.3117565e+2, -589720.6, -649777.4, -98802.125, 0.061711412, -0.26814616, -516484.47, 157959.83, 0.000000052409952, 10.000461, 9.999534 
2.4263762e+3, 2.4116968e+2, -558787.44, -791648.5, 110417.8, 0.16609447, -0.23205747, -514755.63, 61743.61, 0.0, 10.000758, 9.997838 
2.4260446e+3, 2.511604e+2, -403707.47, -596962.0, 159341.69, 0.112739526, -0.4409896, -313984.0, 164606.97, 0.0, 10.001058, 9.998233 
2.4257137e+3, 2.6115173e+2, -308524.5, -525746.9, 143714.77, 0.048617262, -0.60288006, -236995.95, 143681.9, 0.0, 10.000954, 9.998201 
2.4253821e+3, 2.7114758e+2, -121969.45, -222805.22, 55353.313, -0.014905282, -0.40518987, -97514.43, 185209.4, 0.0, 10.001058, 9.999432 
2.4250503e+3, 2.811436e+2, -82179.34, -188276.94, -48002.348, -0.028719204, -0.24377553, -63685.14, 121081.664, 0.0, 10.000638, 9.999302 
2.4247158e+3, 2.9113674e+2, 174905.31, 176162.3, -98652.35, -0.022364914, -0.43229464, 274188.16, 361021.3, 0.0, 10.001126, 10.000774 
2.4243848e+3, 3.011315e+2, 10357.285, -202672.5, 180246.81, 0.124146745, -0.49765533, 113208.91, 113208.91, 0.000000086511356, 10.000776, 9.998161 
2.4240576e+3, 3.1113273e+2, 283099.2, 114716.5, -267282.3, 0.022000702, 0.36406508, 479136.34, 479136.34, 0.0000026170453, 10.001901, 9.999737 
2.4403554e+3, 1.2155957e+2, -1533595.0, -1354906.4, -149643.58, 0.5936014, -0.33154213, -1269964.8, 478747.47, 0.49454382, 10.000038, 10.004889 
2.4400198e+3, 1.3155936e+2, -1575967.6, -1371532.8, 64208.6, 0.04218811, -0.23349659, -1353039.1, 297672.0, 0.3775347, 9.999033, 10.003096 
2.4396876e+3, 1.4155823e+2, -1496636.0, -1348359.8, 7526.3545, -0.2922219, -0.15619175, -1347978.6, 204744.61, 0.25111946, 9.999129, 10.002027 
2.4393608e+3, 1.5155688e+2, -1087759.3, -942354.0, -9021.593, 0.01232521, -0.104747824, -941796.44, 512933.4, 0.13882844, 10.001039, 10.003193 
2.4390337e+3, 1.6155374e+2, -1287294.5, -1576079.9, -5719.786, 0.3174349, -0.060196996, -1287181.3, 69575.83, 0.060861234, 10.001233, 9.997651 
2.4387021e+3, 1.7154627e+2, -1352273.5, -1659251.1, 45819.06, 0.13686939, 0.018332487, -1345580.5, -86741.35, 0.02025213, 10.0007515, 9.99648 
2.4383698e+3, 1.8153852e+2, -1206849.8, -1245972.5, -69546.18, -0.026918102, 0.0058778627, -1154166.3, 6751.5464, 0.0052852775, 9.9995985, 9.999358 
2.4380359e+3, 1.9153255e+2, -731439.75, -567179.5, -103535.05, -0.0130924005, -0.3065027, -517154.9, 545801.7, 0.0012089658, 10.00064, 10.002728 
2.4377026e+3, 2.0152645e+2, -1112280.6, -1395049.8, -35830.797, 0.057137832, -0.48033932, -1107811.0, -142807.95, 0.00012403581, 10.00021, 9.996693 
2.4373697e+3, 2.1151923e+2, -1104257.0, -1468958.0, -41472.555, -0.007430519, -0.26418644, -1099600.4, -232512.31, 0.000001917801, 10.000303, 9.9953165 
2.4370371e+3, 2.215123e+2, -932014.3, -993967.44, -120061.64, 0.011998355, -0.09475901, -838997.56, -69832.25, 0.000000018702426, 9.999213, 9.998537 
2.4367054e+3, 2.3150806e+2, -399146.7, -215515.98, -90306.11, 0.23105328, -0.20996, -178547.6, 492646.25, 0.0, 10.00033, 10.002533 
2.4363732e+3, 2.4150299e+2, -688587.7, -801909.25, 71325.81, 0.3440949, -0.33605638, -654156.1, -80923.734, 0.0, 9.999725, 9.998259 
2.4360393e+3, 2.5149515e+2, -478222.72, -627400.8, 137083.0, 0.010113947, -0.4216391, -396750.0, 78559.33, 0.0, 10.000671, 9.998153 
2.435707e+3, 2.6148725e+2, -598082.3, -869369.25, 120305.445, -0.20587055, -0.460913, -552417.9, -175027.7, 0.0, 9.999986, 9.996291 
2.4353789e+3, 2.7148104e+2, -297809.22, -484038.5, 46696.66, 0.08593031, -0.31288666, -286756.13, -7294.916, 0.0, 10.000712, 9.997762 
2.4350491e+3, 2.814758e+2, -298695.16, -333456.9, -77079.164, 0.28891763, -0.17982899, -237061.53, -55541.777, 0.0, 9.9994335, 9.998892 
2.434711e+3, 2.9147223e+2, 90166.76, 198679.86, -82345.85, -0.12153576, -0.12863514, 243036.77, 326587.22, 0.0, 10.0003605, 10.001271 
2.4343757e+3, 3.0146742e+2, -413662.28, -530460.44, 221177.4, -0.50644875, -0.13255852, -243304.06, -243304.06, 0.0, 9.998542, 9.996979 
2.4340564e+3, 3.1145725e+2, 50008.953, -44275.695, 148376.08, -0.000090462934, -0.43535617, 158551.77, 158551.77, 0.00000012758136, 10.000787, 9.999053 
2.4503511e+3, 1.2190236e+2, -1478232.0, -1387372.6, -256717.7, 0.44935462, 0.21466595, -1172095.9, 573255.06, 0.48540232, 10.001139, 10.003935 
2.450015e+3, 1.318934e+2, -1593536.1, -1546344.5, 218293.38, 0.058397304, -0.32016978, -1350375.4, 297056.4, 0.36593348, 10.000147, 10.000913 
2.449687e+3, 1.4188981e+2, -1550234.8, -1601496.0, 173301.53, 0.12180035, -0.22422206, -1400678.8, 148786.33, 0.23856215, 9.999982, 9.9995575 
2.4493574e+3, 1.5188488e+2, -1195078.6, -1255325.9, 36897.87, 0.044652853, -0.25232843, -1177569.5, 273943.88, 0.1275105, 10.001394, 10.000526 
2.449028e+3, 1.6188006e+2, -1162266.1, -1378830.4, -110432.01, 0.043954782, -0.23343875, -1115886.5, 237674.83, 0.052560914, 10.001498, 9.998893 
2.4486965e+3, 1.7187615e+2, -1253275.0, -1320715.1, -1069.679, 0.04331361, -0.046834186, -1253258.0, 2346.1338, 0.01541553, 10.000059, 9.999192 
2.4483645e+3, 1.8187106e+2, -1299332.9, -1315014.1, 46974.1, -0.02520241, 0.057414077, -1259549.5, -101894.21, 0.0031067657, 9.998991, 9.999199 
2.4480318e+3, 1.9186392e+2, -671399.2, -780147.9, -82982.9, -0.060251873, -0.18124628, -626563.0, 433151.78, 0.00048131414, 10.002051, 10.000616 
2.4476992e+3, 2.0185685e+2, -478531.6, -978731.3, -178742.2, -0.084029175, -0.3355676, -421225.0, 540551.1, 0.000015932997, 10.004006, 9.997716 
2.4473655e+3, 2.1185072e+2, -573044.94, -982401.44, -63756.43, -0.10208532, -0.19974095, -563344.9, 300498.3, 0.0000000054715246, 10.002934, 9.997391 
2.4470322e+3, 2.218446e+2, -511377.8, -737331.8, 16892.203, -0.09222089, -0.07614215, -510121.97, 255786.2, 0.0, 10.001774, 9.999079 
2.4466999e+3, 2.3183894e+2, -302851.4, -327274.56, -132038.73, 0.09237552, -0.21424869, -182460.75, 485495.6, 0.0, 10.001572, 10.001234 
2.4463677e+3, 2.4183333e+2, -398187.22, -579606.8, -135989.61, 0.18242358, -0.31417114, -325430.06, 244574.25, 0.0, 10.001183, 9.999126 
2.4460347e+3, 2.5182766e+2, -316635.9, -449002.78, -27374.705, -0.028611343, -0.29296598, -311197.94, 160861.28, 0.0, 10.001158, 9.999246 
2.4457031e+3, 2.6182163e+2, -350881.6, -627674.2, 34358.133, -0.18677522, -0.23847733, -346680.5, 27439.547, 0.0, 10.000995, 9.997508 
2.4453746e+3, 2.7181438e+2, -164625.23, -439611.97, 60064.746, 0.05197701, -0.21845362, -152077.94, 124121.36, 0.0, 10.001577, 9.997718 
2.4450447e+3, 2.81808e+2, 93663.51, -143124.14, -19676.402, 0.2347342, -0.16522497, 95287.42, 273555.13, 0.0, 10.001939, 9.999029 
2.4447066e+3, 2.918047e+2, 282433.16, 212524.9, -156460.83, -0.14572929, -0.022858862, 407796.78, 488094.0, 0.0, 10.001856, 10.000711 
2.444372e+3, 3.0179986e+2, -32656.219, -280700.6, 138866.69, -0.44236222, 0.013343852, 29508.219, 29508.219, 0.0, 10.000665, 9.997706 
2.4440539e+3, 3.1178746e+2, 156098.53, 165160.3, 236534.63, 0.07970943, -0.5040378, 397207.44, 397207.44, 0.000000000000427524, 10.000596, 10.000634 
2.4603423e+3, 1.2224023e+2, -1762931.8, -1627783.5, -604918.8, 0.056022286, 0.27389598, -1086676.3, 655363.0, 0.47723022, 9.999849, 10.002876 
2.4600117e+3, 1.3222861e+2, -1569643.4, -1701558.8, 127953.17, 0.20635846, -0.3351583, -1491648.1, 152494.3, 0.3557266, 10.001209, 9.998844 
2.4596874e+3, 1.422229e+2, -1555642.0, -1922366.4, 144229.8, 0.655574, -0.20086163, -1505714.9, 40479.207, 0.22774403, 10.001284, 9.996604 
2.4593543e+3, 1.5221366e+2, -1470017.8, -1725396.5, 115338.67, 0.12298801, -0.35795167, -1425638.5, 22653.404, 0.11809006, 10.000875, 9.997326 
2.4590217e+3, 1.622067e+2, -1289950.6, -1324674.1, -53360.906, -0.18139255, -0.3716, -1251198.1, 99166.875, 0.04605504, 10.0001, 9.999931 
2.4586903e+3, 1.7220631e+2, -974159.8, -827133.5, -63595.35, -0.059899367, -0.13074706, -803443.0, 448922.22, 0.012013259, 10.000495, 10.002379 
2.4583589e+3, 1.8220387e+2, -1300324.0, -1511137.1, 34650.76, 0.020266663, 0.07801603, -1294774.6, -140387.13, 0.0018483637, 9.999895, 9.997409 
2.4580279e+3, 1.9219483e+2, -1035020.75, -1354473.6, 15459.391, -0.12051732, -0.046975456, -1034274.4, 22205.662, 0.00018026956, 10.001283, 9.9970255 
2.4576963e+3, 2.021868e+2, -768707.3, -977557.1, -160571.77, -0.20473178, -0.117528245, -681591.5, 276967.56, 0.0000007906511, 10.001518, 9.998919 
2.4573615e+3, 2.1218237e+2, -495810.16, -508365.78, -127837.45, -0.23055752, -0.17477502, -374096.44, 486498.06, 0.0, 10.001671, 10.001254 
2.4570271e+3, 2.2217692e+2, -863933.6, -1095670.3, -54325.89, -0.21434763, -0.18244645, -851830.2, -89186.57, 0.0, 10.000354, 9.997286 
2.456693e+3, 2.3216912e+2, -676513.8, -887095.4, -149205.45, -0.18004145, -0.22359121, -599189.1, 65536.23, 0.0, 10.000887, 9.997616 
2.4563606e+3, 2.4216256e+2, -637802.25, -735892.3, -126484.555, -0.10575102, -0.18191493, -551186.8, 15606.249, 0.0, 9.99988, 9.998644 
2.4560305e+3, 2.5215924e+2, -299252.9, -257435.42, -37786.477, -0.015195265, -0.07642335, -235158.6, 233665.38, 0.0, 10.000554, 10.0008135 
2.4557005e+3, 2.62155e+2, -505051.7, -600624.6, 18131.135, -0.017032266, 0.007828788, -501727.66, -130863.66, 0.0, 9.9996195, 9.998333 
2.4553686e+3, 2.721476e+2, -165456.72, -278487.88, 76858.9, -0.16987623, -0.14471711, -126571.555, 146365.25, 0.0, 10.000994, 9.999044 
2.4550371e+3, 2.8214043e+2, -259061.63, -514282.06, -13064.491, -0.21895984, -0.19161195, -258394.61, -83386.48, 0.0, 10.000547, 9.997126 
2.4547036e+3, 2.9213387e+2, -4784.703, -194769.92, -155785.6, -0.11666332, -0.17228492, 82685.69, 159761.8, 0.0, 10.001164, 9.998199 
2.4543746e+3, 3.0212688e+2, -441308.63, -557940.7, 100021.06, 0.1291529, -0.1452687, -383844.8, -383844.8, 0.0, 9.998419, 9.996842 
2.4540488e+3, 3.1212354e+2, -108109.46, 324745.72, 319033.66, -0.1051841, 0.044015307, 493835.16, 493835.16, 0.0, 9.997894, 10.002894 
2.4703342e+3, 1.2256583e+2, -1835840.4, -1847280.0, -592595.4, -0.27304325, -0.1822994, -1248937.1, 489915.03, 0.4678496, 10.000305, 10.000268 
2.4700086e+3, 1.3256086e+2, -1384058.1, -1590094.8, 69710.42, 0.13482419, -0.08846194, -1362688.8, 278206.44, 0.34520847, 10.003013, 9.998751 
2.4696814e+3, 1.4255375e+2, -1266187.4, -1579191.9, 29526.986, 0.19997953, -0.15327343, -1263426.3, 279535.06, 0.21743059, 10.002947, 9.998153 
2.4693482e+3, 1.5254802e+2, -1384613.9, -1460878.1, 106489.01, -0.07510611, -0.15309584, -1309635.6, 135383.89, 0.109704144, 10.000593, 9.999287 
2.4690166e+3, 1.6254246e+2, -1438246.8, -1466567.0, 158049.47, -0.20749761, -0.102778055, -1293724.4, 53350.68, 0.040704507, 9.999342, 9.999324 
2.4686874e+3, 1.7253767e+2, -796017.06, -960428.1, 28564.445, -0.014787286, -0.10240108, -791195.7, 457923.3, 0.00953522, 10.002627, 10.000469 
2.468357e+3, 1.825322e+2, -757383.7, -1227177.9, -83389.43, 0.042656902, -0.062836386, -743021.0, 408150.53, 0.0011160366, 10.003465, 9.997651 
2.4680234e+3, 1.9252385e+2, -1187823.4, -1388142.4, -21800.295, -0.10451248, -0.15482669, -1185478.3, -132219.53, 0.00006263998, 9.999995, 9.997452 
2.4676904e+3, 2.025169e+2, -1244714.3, -1058648.5, -31383.32, -0.22164561, -0.16851176, -1053497.8, -98169.84, 0.0000000031066179, 9.997541, 10.000302 
2.4673572e+3, 2.1251361e+2, -723230.8, -530433.2, -79525.3, -0.17464685, -0.17939329, -501864.0, 355485.0, 0.0, 9.999645, 10.002151 
2.4670234e+3, 2.2250874e+2, -730031.8, -990994.2, -98246.625, -0.1637007, -0.17300603, -697179.8, 62210.684, 0.0, 10.000962, 9.997754 
2.4666889e+3, 2.3250033e+2, -695949.2, -955853.75, -72816.88, -0.15728752, -0.23849091, -676938.75, -15458.197, 0.0, 10.000872, 9.997223 
2.466356e+3, 2.4249333e+2, -506351.63, -642594.8, 40161.94, -0.11040768, -0.1904606, -495393.94, 68161.086, 0.0, 10.0005245, 9.999004 
2.4660264e+3, 2.5248995e+2, -407515.75, -347917.22, 16392.408, 0.044947494, -0.04678265, -343706.1, 121881.66, 0.0, 9.999852, 10.000596 
2.4656963e+3, 2.6248562e+2, -468290.0, -503715.44, 19926.3, 0.089165635, 0.04311227, -459341.9, -91712.68, 0.0, 9.999353, 9.999157 
2.465365e+3, 2.7247852e+2, -221525.98, -269048.56, -6328.0454, -0.09899357, -0.12204627, -220697.78, 49000.145, 0.0, 10.000308, 9.999493 
2.465033e+3, 2.8247193e+2, -161047.33, -396166.22, -147697.22, -0.2295726, -0.16034062, -89835.234, 81927.734, 0.0, 10.000793, 9.997835 
2.4646991e+3, 2.9246476e+2, -51983.152, -264096.97, -149021.25, -0.13316497, -0.17049749, 24868.113, 98705.41, 0.0, 10.0009, 9.997938 
2.4643725e+3, 3.0245697e+2, -53893.723, -317753.25, 233564.94, 0.39327028, -0.18222646, 82426.48, 82426.48, 0.0, 10.0006275, 9.997494 
2.4640436e+3, 3.1245402e+2, 328135.4, 540968.3, 201846.31, -0.13541715, 0.10347001, 662732.5, 662732.5, 0.0, 10.000496, 10.003276 
2.4803334e+3, 1.228966e+2, -1645036.4, -1926162.9, -338257.34, 0.06362468, -0.1256389, -1419299.1, 316315.38, 0.45571682, 10.002504, 9.997801 
2.4800053e+3, 1.3289186e+2, -1504928.3, -1712917.0, 145570.95, 0.047936726, 0.04072825, -1430021.1, 207639.83, 0.33319858, 10.001971, 9.998386 
2.4796748e+3, 1.428846e+2, -1436445.1, -1475089.6, -1827.5785, -0.18225819, -0.08674974, -1436359.0, 103370.87, 0.20679392, 10.000536, 10.000132 
2.4793422e+3, 1.5288343e+2, -1183431.1, -1107606.4, -33323.813, -0.21154495, 0.10368346, -1095042.8, 346693.88, 0.10179194, 10.000877, 10.00183 
2.4790122e+3, 1.6287926e+2, -1453276.4, -1675573.3, 119909.914, -0.05581107, 0.20362985, -1400924.5, -57150.246, 0.036105353, 10.000196, 9.997454 
2.478686e+3, 1.7286888e+2, -1182447.8, -1475938.0, 102456.805, 0.13208313, -0.08760641, -1150219.3, 95656.44, 0.0076701324, 10.00149, 9.997414 
2.4783559e+3, 1.8285967e+2, -1047251.4, -1346626.3, -143431.16, 0.19427253, -0.23318301, -989625.5, 158340.97, 0.000687035, 10.001505, 9.997738 
2.4780189e+3, 1.9285311e+2, -1063396.8, -1136198.0, -159842.28, -0.019141058, -0.30902892, -935862.75, 114170.67, 0.000019881356, 10.000168, 9.999023 
2.4776839e+3, 2.0284761e+2, -1165743.6, -1046764.1, -30293.125, -0.09017097, -0.27120796, -1039495.4, -87409.12, 0.0, 9.998301, 9.999964 
2.4773528e+3, 2.1284503e+2, -778179.5, -613751.25, -26822.242, -0.011326148, -0.185165, -609486.5, 244615.45, 0.0, 9.999611, 10.001498 
2.4770208e+3, 2.2284083e+2, -905776.5, -1061694.5, -112952.086, 0.04726033, -0.08877219, -846492.0, -90354.26, 0.0, 9.999786, 9.997796 
2.4766862e+3, 2.3283248e+2, -674599.25, -827493.2, -111210.25, 0.025172355, -0.26661217, -616094.94, 42129.215, 0.0, 10.00054, 9.9982395 
2.4763528e+3, 2.4282499e+2, -762046.44, -907482.75, -13507.4375, 0.05497212, -0.29333612, -760802.56, -200501.23, 0.0, 9.999536, 9.997629 
2.4760215e+3, 2.5281996e+2, -564311.6, -580171.56, -27881.111, 0.124524914, -0.19504687, -543254.7, -80902.51, 0.0, 9.999596, 9.999039 
2.4756914e+3, 2.628144e+2, -747676.0, -817388.06, 34939.594, 0.18075277, -0.079559736, -733179.06, -368770.13, 0.0, 9.998371, 9.997457 
2.475363e+3, 2.7280766e+2, -390146.16, -432868.2, 27894.42, 0.18151781, -0.13277814, -376373.25, -109894.6, 0.0, 9.999649, 9.998645 
2.475031e+3, 2.8280202e+2, -334327.06, -399613.3, -170735.13, 0.023340171, -0.05219567, -193142.52, -24606.988, 0.0, 9.999376, 9.998485 
2.4746926e+3, 2.9279715e+2, -54069.023, -15576.777, -147781.56, -0.3431829, -0.054044653, 114206.64, 184787.94, 0.0, 9.999983, 10.000009 
2.474366e+3, 3.0279103e+2, -500504.13, -720319.75, 237847.02, 0.11149916, 0.0265655, -348398.72, -348398.72, 0.0, 9.998539, 9.995705 
2.4740413e+3, 3.1278223e+2, -140088.86, 48756.863, 180789.06, -0.06977446, -0.13288467, 158295.67, 158295.67, 0.0, 9.998576, 10.000785 
2.4903354e+3, 1.2323482e+2, -1427333.8, -1746659.6, -115849.82, 0.24614069, 0.4666141, -1389731.9, 342564.1, 0.43991777, 10.004543, 9.997651 
2.4900018e+3, 1.3322176e+2, -1619251.1, -1819062.1, 96375.055, 0.020516708, -0.17414989, -1580342.9, 54083.723, 0.31901658, 10.000981, 9.998017 
2.4896716e+3, 1.4321771e+2, -1809956.1, -1753134.9, 65378.473, 0.05569103, 0.09092295, -1710260.8, -173795.31, 0.19536594, 9.998181, 9.999264 
2.4893394e+3, 1.5321326e+2, -1157133.8, -1203552.9, -5159.9224, -0.11607493, 0.0777845, -1156567.0, 281937.38, 0.094030365, 10.001532, 10.000795 
2.4890094e+3, 1.6320747e+2, -1093411.6, -1432806.1, -13356.337, -0.09807157, 0.05622076, -1092886.9, 247672.0, 0.032013185, 10.002401, 9.998053 
2.4886818e+3, 1.7319894e+2, -1325302.4, -1469247.9, 64476.06, 0.14532655, -0.1219786, -1300645.8, -58000.582, 0.0062260167, 10.000144, 9.998106 
2.4883516e+3, 1.831918e+2, -1301269.3, -1355016.0, -34689.355, 0.19858982, -0.13136728, -1284261.8, -139543.69, 0.00043419475, 9.999193, 9.9988 
2.4880154e+3, 1.9318755e+2, -736656.56, -909260.0, -66641.45, 0.019750379, -0.030120337, -713921.25, 332841.9, 0.0000058323185, 10.0020275, 9.999722 
2.4876805e+3, 2.0318246e+2, -505569.53, -787641.1, -26137.545, -0.10150587, 0.046879284, -503168.0, 445643.97, 0.000000000090419006, 10.00301, 9.99947 
2.4873483e+3, 2.131763e+2, -566327.1, -663658.0, -63375.297, -0.0587612, -0.09834422, -535087.9, 315775.34, 0.0, 10.001591, 10.000238 
2.4870156e+3, 2.2317018e+2, -706635.06, -905365.6, -156770.34, -0.05198616, -0.13046418, -620392.1, 132525.92, 0.0, 10.000791, 9.998385 
2.486682e+3, 2.3316363e+2, -426373.88, -676364.2, -172770.83, -0.022594575, -0.1563868, -338123.75, 316862.13, 0.0, 10.002022, 9.998619 
2.4863489e+3, 2.431569e+2, -246093.44, -634845.3, -116290.445, 0.015469275, -0.12558833, -213962.25, 343092.5, 0.0, 10.002875, 9.997891 
2.4860173e+3, 2.5315034e+2, -93906.586, -440544.2, -113344.47, 0.066962816, -0.12957016, -60135.13, 398985.53, 0.0, 10.003067, 9.998373 
2.4856868e+3, 2.6314402e+2, -79949.15, -378564.44, -12585.842, 0.13310212, -0.07732074, -79419.625, 281763.84, 0.0, 10.002288, 9.998608 
2.4853584e+3, 2.7313843e+2, -240712.89, -290784.94, 90217.74, 0.24720164, -0.08321009, -172121.75, 91116.79, 0.0, 10.000196, 9.999445 
2.4850272e+3, 2.8313297e+2, -258940.17, -358033.28, -27376.053, 0.1474683, -0.0034572906, -251880.11, -86587.3, 0.0, 9.999681, 9.99867 
2.4846888e+3, 2.9312748e+2, 335599.4, 109249.97, -211872.16, -0.35139662, 0.0021968198, 462629.44, 529976.1, 0.0, 10.002759, 9.999606 
2.4843611e+3, 3.031214e+2, 262228.38, -316738.16, 41950.563, -0.027914006, 0.09178694, 265252.22, 265252.22, 0.0, 10.003511, 9.996098 
2.4840371e+3, 3.1311107e+2, 28926.93, 113.27003, -11576.334, 0.06023301, -0.12361963, 33001.664, 33001.664, 0.0, 9.999954, 9.999934 
2.5003305e+3, 1.23562075e+2, -2010488.1, -2026414.3, -126070.96, -0.0137438355, 0.004269496, -1892129.0, -163044.1, 0.42027465, 9.998431, 9.998562 
2.4999985e+3, 1.335522e+2, -1653310.6, -1865313.8, -165812.69, 0.16898945, -0.29840967, -1562512.4, 68672.695, 0.30251706, 10.000949, 9.997766 
2.4996692e+3, 1.4355032e+2, -1532141.6, -1777156.0, 14279.389, 0.43515763, 0.26677543, -1531312.3, 1891.9562, 0.18302314, 10.000741, 9.997877 
2.4993372e+3, 1.535414e+2, -1314332.1, -1465070.5, 12188.953, 0.04160262, -0.055578545, -1313352.9, 121935.766, 0.08629053, 10.0011635, 9.99902 
2.4990065e+3, 1.6353415e+2, -1269990.5, -1428169.6, -121707.28, -0.054924782, -0.15822865, -1203932.5, 133427.08, 0.028287582, 10.000766, 9.998867 
2.4986768e+3, 1.735292e+2, -1192905.9, -1254211.1, -96730.41, 0.15938614, -0.1549007, -1122087.5, 117325.945, 0.0050760456, 10.000341, 9.999502 
2.498346e+3, 1.8352523e+2, -1232157.3, -1280093.3, -35778.574, 0.2527696, 0.053389184, -1213060.5, -71603.03, 0.00028139996, 9.999613, 9.999087 
2.4980125e+3, 1.9352369e+2, -830942.9, -899708.7, -27707.262, 0.07879387, 0.3687207, -821168.4, 222309.34, 0.0000014559199, 10.001286, 10.000105 
2.4976783e+3, 2.0351854e+2, -838924.06, -1116780.1, -83867.83, -0.047772508, 0.47711068, -815572.06, 129956.336, 0.0, 10.001558, 9.997905 
2.4973433e+3, 2.1350746e+2, -762622.06, -901103.7, -121376.74, -0.1647958, -0.033995595, -692125.25, 155502.72, 0.0, 10.001039, 9.998825 
2.4970093e+3, 2.2349909e+2, -893787.9, -1087006.0, -126545.76, -0.20377174, -0.16802742, -831189.06, -81483.31, 0.0, 10.000031, 9.997501 
2.496677e+3, 2.3349485e+2, -544626.9, -737145.0, -117872.5, -0.16093394, 0.037141144, -488702.72, 163048.92, 0.0, 10.001326, 9.9985 
2.496345e+3, 2.4348925e+2, -534762.4, -843853.3, -99284.41, -0.12075919, 0.20938317, -505618.72, 48190.688, 0.0, 10.001281, 9.997214 
2.4960129e+3, 2.5348118e+2, -269077.4, -538862.3, -103154.32, -0.121281534, 0.05359441, -234155.89, 221733.52, 0.0, 10.002035, 9.998153 
2.4956816e+3, 2.6347482e+2, -192348.53, -271976.75, -80920.41, -0.07008171, 0.053833973, -141977.97, 215970.2, 0.0, 10.000958, 9.999952 
2.495352e+3, 2.734709e+2, -190627.2, -32577.59, 17629.846, 0.116451964, -0.0081584025, -30634.924, 229341.61, 0.0, 9.9995985, 10.001486 
2.4950215e+3, 2.8346485e+2, -674613.44, -914364.3, 40317.535, 0.110627554, 0.036750726, -668015.06, -505980.84, 0.0, 9.998509, 9.995379 
2.4946868e+3, 2.9345548e+2, -27069.043, -470278.22, -80351.164, -0.30230376, -0.025057003, -12951.543, 51185.563, 0.0, 10.002108, 9.99589 
2.4943574e+3, 3.0344772e+2, 106157.97, -290134.94, -85280.48, -0.2985042, 0.080670886, 123730.73, 123730.73, 0.0, 10.002196, 9.996865 
2.494031e+3, 3.1344113e+2, -256769.56, -38949.727, -47666.375, -0.16361652, 0.015436079, -28975.443, -28975.443, 0.0, 9.99793, 10.000521 
2.51032e+3, 1.2388641e+2, -2424464.0, -1710294.6, 113681.57, -0.2037365, -0.24972591, -1692635.4, 33271.793, 0.39734322, 9.9932995, 10.003318 
2.5099945e+3, 1.3388005e+2, -1558618.5, -1841240.4, -42099.94, 0.13864756, -0.22669473, -1552480.5, 75488.85, 0.28406283, 10.001754, 9.99748 
2.5096643e+3, 1.4387448e+2, -1112337.1, -1522283.0, -99165.22, 0.06058598, -0.019256238, -1089609.3, 440416.03, 0.16993596, 10.0041485, 9.997994 
2.509332e+3, 1.5386784e+2, -1339998.5, -1470468.4, -101259.445, -0.08899954, -0.13032314, -1284779.9, 147313.03, 0.078587286, 10.000905, 9.999132 
2.5090006e+3, 1.6386239e+2, -1443422.8, -1427040.4, -121953.14, -0.14581092, -0.086151004, -1313003.6, 21145.834, 0.024857625, 9.999164, 9.999642 
2.508671e+3, 1.7385851e+2, -996869.3, -1079745.8, -94220.805, -0.0422571, -0.03038073, -935377.0, 300815.6, 0.0041356636, 10.001329, 10.000251 
2.50834e+3, 1.838551e+2, -824998.4, -936599.75, -128936.54, 0.009469019, 0.13842317, -740305.9, 397923.34, 0.00018434241, 10.001732, 10.000424 
2.5080082e+3, 1.9385296e+2, -852435.94, -812098.6, -86103.445, 0.06854219, 0.30750486, -743833.25, 296417.28, 0.00000026313862, 10.000669, 10.001031 
2.507675e+3, 2.0384797e+2, -944373.2, -1102968.8, -105929.09, 0.017086916, 0.36723164, -891348.94, 50949.297, 0.0, 10.000482, 9.998538 
2.50734e+3, 2.1383804e+2, -617241.75, -841810.4, -81254.83, -0.11536175, -0.016319497, -590925.5, 253465.64, 0.0, 10.001991, 9.998844 
2.5070062e+3, 2.2383021e+2, -489028.47, -840937.4, -74409.74, -0.18454497, -0.097305804, -473941.63, 272524.47, 0.0, 10.002421, 9.998095 
2.5066733e+3, 2.3382583e+2, -557365.75, -747004.0, -69801.89, -0.1321522, 0.10005739, -534443.75, 114068.43, 0.0, 10.00109, 9.998619 
2.5063407e+3, 2.4382003e+2, -631079.06, -839541.8, -9103.524, -0.11987487, 0.24089092, -630682.25, -80111.51, 0.0, 10.000271, 9.997755 
2.506009e+3, 2.5381124e+2, -465647.63, -640185.4, -5134.0635, -0.14053254, 0.03688001, -465496.72, -12840.999, 0.0, 10.000575, 9.998227 
2.5056773e+3, 2.638044e+2, -222227.8, -289176.6, -80097.586, -0.090803705, -0.0012622558, -168891.16, 185828.0, 0.0, 10.000665, 10.000006 
2.5053468e+3, 2.7380043e+2, -89458.27, -53919.83, -194934.72, 0.10270723, 0.007771574, 124053.87, 380803.75, 0.0, 10.000524, 10.000951 
2.5050157e+3, 2.8379434e+2, -307391.8, -682721.56, -61867.355, 0.08449001, 0.057903238, -297456.9, -138649.03, 0.0, 10.00063, 9.995985 
2.5046837e+3, 2.9378465e+2, -94644.96, -524172.44, 101094.945, -0.30361038, -0.049554534, -72040.516, -11127.634, 0.0, 10.001483, 9.995924 
2.5043544e+3, 3.037773e+2, -24551.799, -252511.27, 85947.016, -0.27246204, 0.08747621, 4220.942, 4220.942, 0.0, 10.000676, 9.997903 
2.504027e+3, 3.1377238e+2, -253123.9, -11298.932, -31604.268, 0.14941405, 0.14769654, -7236.7837, -7236.7837, 0.0, 9.997557, 10.000961 
2.520315e+3, 1.2421774e+2, -1604696.5, -1420616.9, 242224.05, 0.25532845, 0.123925254, -1253535.5, 469125.75, 0.3720952, 9.999406, 10.003493 
2.51999e+3, 1.3420737e+2, -1649544.4, -1925069.6, 192251.7, 0.0031595968, -0.23166087, -1550792.1, 73967.8, 0.26429757, 10.001196, 9.9972 
2.5196603e+3, 1.441995e+2, -1451972.8, -1645299.4, -114112.41, -0.18510327, -0.25476372, -1399085.3, 127753.52, 0.15642525, 10.001169, 9.998512 
2.5193268e+3, 1.5419564e+2, -1369559.1, -1434621.1, -141550.08, -0.16386865, -0.1485504, -1256850.0, 172034.63, 0.071005836, 10.000614, 9.999456 
2.518995e+3, 1.6419195e+2, -1334879.5, -1356218.1, 24036.832, -0.12597248, 0.06410851, -1319250.5, 11676.619, 0.021693112, 9.999948, 9.999728 
2.5186652e+3, 1.741882e+2, -988772.2, -1013050.1, 13496.613, -0.20770568, 0.104727365, -982758.6, 250209.22, 0.00335279, 10.001304, 10.000669 
2.5183347e+3, 1.8418446e+2, -886538.75, -909791.44, -140881.8, -0.13500749, 0.19619283, -756804.4, 378199.9, 0.00011963712, 10.001096, 10.000899 
2.5180033e+3, 1.9418025e+2, -883878.0, -748708.75, -158164.86, 0.09449498, 0.05823815, -644293.94, 392745.6, 0.00000002568285, 10.000102, 10.001715 
2.5176713e+3, 2.0417537e+2, -1093597.5, -1170548.9, -81745.42, 0.18663926, 0.08096538, -1041725.56, -102641.19, 0.0, 9.999476, 9.998548 
2.5173378e+3, 2.1416868e+2, -759810.3, -865692.7, -56681.277, 0.029903686, -0.042533297, -735191.6, 105959.33, 0.0, 10.000833, 9.999213 
2.5170043e+3, 2.2416246e+2, -770215.06, -997749.3, -116211.61, -0.029368266, 0.026184946, -721353.5, 21859.18, 0.0, 10.000731, 9.997781 
2.5166702e+3, 2.3415686e+2, -639416.94, -767614.8, -131008.92, -0.007978556, 0.062875636, -557666.56, 87601.62, 0.0, 10.000562, 9.998688 
2.516337e+3, 2.4415007e+2, -779235.6, -947476.1, -19064.95, -0.00088946405, 0.12316499, -777102.25, -229768.8, 0.0, 9.999564, 9.99733 
2.5160053e+3, 2.54141e+2, -554809.06, -675059.9, -5723.7197, -0.021224558, -0.13690501, -554537.2, -105118.71, 0.0, 10.000065, 9.998194 
2.5156736e+3, 2.6413324e+2, -610053.25, -831997.06, -101414.95, -0.00789982, -0.11594239, -570693.0, -219199.13, 0.0, 9.999685, 9.996709 
2.515342e+3, 2.741271e+2, -419961.47, -554165.4, -198677.95, 0.07428972, -0.045033693, -277359.8, -23802.521, 0.0, 9.9998665, 9.997755 
2.5150105e+3, 2.8412122e+2, -241085.78, -258535.0, -38817.402, -0.03196478, 0.046498425, -210024.6, -54410.055, 0.0, 9.999587, 9.999349 
2.5146794e+3, 2.9411545e+2, 105272.36, 79455.81, 165121.86, -0.38064027, -0.12706614, 257989.73, 315656.9, 0.0, 10.000841, 10.000318 
2.5143507e+3, 3.0411083e+2, -216133.88, -386477.44, -14452.201, -0.22785173, 0.06634661, -214916.42, -214916.42, 0.0, 9.999702, 9.997399 
2.5140178e+3, 3.1410167e+2, -551051.5, -244349.06, -7649.892, -0.111649394, -0.25830406, -244158.38, -244158.38, 0.0, 9.996121, 9.999977 
2.5303164e+3, 1.2454467e+2, -1269323.5, -1495244.9, 188288.64, 0.39071125, 0.02666911, -1162710.3, 556751.6, 0.34545994, 10.004351, 10.000124 
2.5299862e+3, 1.3453759e+2, -1637491.3, -1665566.8, 148809.48, 0.030464737, -0.20790821, -1502058.9, 119468.62, 0.24384509, 10.00006, 9.999652 
2.5296545e+3, 1.4453451e+2, -1863319.8, -1713469.9, 45006.58, -0.20610207, 0.07993209, -1700991.5, -177432.64, 0.14280653, 9.997652, 9.999687 
2.529323e+3, 1.545295e+2, -1274656.0, -1282691.9, 69256.164, -0.1307145, 0.0012227468, -1209301.3, 216313.33, 0.06363834, 10.000808, 10.000435 
2.5289926e+3, 1.6452481e+2, -1046339.9, -1293454.9, 174090.78, -0.06308254, 0.113132894, -956416.56, 371248.94, 0.0187796, 10.002199, 9.999105 
2.5286633e+3, 1.7452009e+2, -897014.56, -1086301.6, 144633.66, -0.093104266, 0.16370822, -818810.5, 410903.94, 0.0026956536, 10.002269, 9.999761 
2.5283313e+3, 1.8451458e+2, -928275.06, -1051706.0, -145187.52, -0.12723847, 0.19121845, -832230.5, 299538.25, 0.00007576087, 10.001324, 9.999794 
2.527997e+3, 1.9450764e+2, -985787.2, -959828.56, -236601.34, -0.074393295, -0.055797048, -735850.8, 297982.97, 0.00000000011876218, 10.000042, 10.000313 
2.527664e+3, 2.0450266e+2, -987764.0, -933280.06, -130770.33, -0.036671817, -0.04515933, -826944.3, 108935.875, 0.0, 9.999321, 10.000253 
2.5273326e+3, 2.144994e+2, -808524.5, -736794.25, -51894.836, -0.030919872, 0.0412706, -709577.06, 128333.43, 0.0, 9.999723, 10.000675 
2.527e+3, 2.2449465e+2, -731938.9, -902935.44, -92567.52, -0.032455128, 0.15040174, -691426.44, 48530.598, 0.0, 10.000559, 9.9985285 
2.5266668e+3, 2.3448788e+2, -361839.56, -630687.56, -99916.805, 0.02740137, 0.07766492, -328772.72, 313251.53, 0.0, 10.002303, 9.998856 
2.5263336e+3, 2.444805e+2, -244608.52, -643434.9, -26838.521, 0.017289609, 0.060640853, -242810.55, 301284.66, 0.0, 10.002921, 9.997816 
2.5260013e+3, 2.544722e+2, -197858.92, -512295.56, -25860.857, -0.05161745, -0.09545371, -195746.19, 250426.27, 0.0, 10.002469, 9.998184 
2.525669e+3, 2.6446438e+2, -229142.97, -642174.4, -42957.12, -0.07313951, -0.07977437, -224722.53, 123526.43, 0.0, 10.002127, 9.996868 
2.525337e+3, 2.744568e+2, -143448.06, -489041.5, 14840.364, 0.0145494705, -0.080215625, -142811.95, 107516.51, 0.0, 10.001896, 9.997287 
2.5250056e+3, 2.8445092e+2, 20358.605, 14216.394, 169545.67, -0.04558226, 0.007917326, 186860.98, 339247.66, 0.0, 10.000688, 10.000683 
2.5246748e+3, 2.94447e+2, -120933.22, 87820.09, 54357.594, -0.33710614, -0.057542514, 101126.21, 155546.63, 0.0, 9.998705, 10.001435 
2.5243458e+3, 3.0444247e+2, -229051.38, -352989.5, -188675.81, -0.16880961, 0.07162539, -92428.58, -92428.58, 0.0, 9.999339, 9.9978485 
2.5240132e+3, 3.1443506e+2, 394117.88, 229057.86, -156440.9, 0.033329908, -0.05718866, 488463.4, 488463.4, 0.0, 10.002369, 10.000313 
2.540316e+3, 1.24872394e+2, -1519638.6, -1417958.6, 72333.914, 0.445297, 0.07271492, -1380385.4, 335868.97, 0.31815657, 10.000505, 10.002597 
2.5399828e+3, 1.34869e+2, -1623390.1, -1404281.6, -88786.6, 0.29694477, -0.09740929, -1372821.0, 245463.25, 0.22319712, 9.99879, 10.002338 
2.5396478e+3, 1.4486979e+2, -1731094.4, -1557264.8, 25988.57, -0.10896146, 0.3932643, -1553462.5, -33185.965, 0.12934339, 9.998152, 10.000537 
2.5393197e+3, 1.5486383e+2, -1305240.4, -1232324.9, 25668.975, -0.0044468218, 0.12944706, -1224195.0, 198144.16, 0.05657354, 10.000244, 10.001113 
2.5389916e+3, 1.6485827e+2, -1315881.9, -1527132.6, 79665.73, 0.12906136, 0.16554078, -1289207.0, 35189.348, 0.016116831, 10.000832, 9.998119 
2.5386623e+3, 1.7485274e+2, -1144594.8, -1325490.3, 71274.7, 0.12829146, 0.19813405, -1119886.6, 106564.83, 0.0021455006, 10.001101, 9.99866 
2.5383285e+3, 1.8484543e+2, -1203903.4, -1445331.4, -195062.81, 0.0030152814, 0.21446468, -1095223.9, 33301.363, 0.000046550977, 10.000586, 9.997456 
2.5379896e+3, 1.948357e+2, -1102929.1, -1270030.1, -254142.05, -0.24797985, -0.10948213, -918956.0, 111667.73, 0.0, 10.000354, 9.998042 
2.5376555e+3, 2.0483069e+2, -894499.5, -722446.3, -82255.95, -0.26959664, -0.04298105, -689449.3, 243221.73, 0.0, 9.999379, 10.00162 
2.5373256e+3, 2.1483035e+2, -800464.5, -533249.25, -78922.68, -0.13627458, 0.13664256, -511680.22, 322987.5, 0.0, 9.999044, 10.002346 
2.536995e+3, 2.2482662e+2, -938748.3, -1014465.2, -79417.59, -0.024536824, 0.2779821, -888627.1, -151924.97, 0.0, 9.999328, 9.998328 
2.5366637e+3, 2.348187e+2, -517449.47, -677116.9, -70564.7, 0.024923362, 0.050219774, -490733.66, 148048.28, 0.0, 10.0012665, 9.998979 
2.5363308e+3, 2.4481167e+2, -496685.28, -823332.7, -66847.55, -0.02116089, 0.09500176, -483534.56, 57316.6, 0.0, 10.001598, 9.997165 
2.5359964e+3, 2.5480473e+2, -376660.44, -625147.75, -47790.563, -0.23086724, 0.066370435, -367786.0, 75131.305, 0.0, 10.001453, 9.9978485 
2.5356638e+3, 2.647974e+2, -323748.84, -533172.0, -65389.332, -0.26254153, 0.09130449, -305008.9, 39978.4, 0.0, 10.000962, 9.998131 
2.5353324e+3, 2.7478948e+2, -161581.34, -302729.53, 10290.76, -0.07539675, -0.14157133, -160835.02, 86227.93, 0.0, 10.00105, 9.998935 
2.535001e+3, 2.8478372e+2, -371247.75, -539117.1, 80646.44, -0.082517445, 0.032564785, -338782.78, -189659.67, 0.0, 9.999674, 9.997354 
2.534668e+3, 2.94779e+2, -477285.0, -428070.22, -8743.115, -0.34907597, 0.17139174, -426563.13, -375385.84, 0.0, 9.997839, 9.99828 
2.5343385e+3, 3.0477226e+2, -285964.16, -202876.53, -64310.242, -0.2945003, 0.1683575, -167858.63, -167858.63, 0.0, 9.998359, 9.999298 
2.53401e+3, 3.1476778e+2, 507447.84, 642258.5, 50975.46, -0.11280123, 0.1339738, 659363.4, 659363.4, 0.0, 10.001763, 10.003411 
2.550302e+3, 1.2519932e+2, -2043355.6, -1810626.1, 222852.75, -0.36116394, -0.053964663, -1675586.6, 37464.523, 0.29081753, 9.997284, 10.000601 
2.5499773e+3, 1.3519727e+2, -1650458.5, -1433144.6, -94197.15, 0.36083138, -0.047383487, -1397998.1, 217070.95, 0.2027681, 9.998711, 10.002098 
2.5496426e+3, 1.4519575e+2, -1553876.1, -1478498.8, -54022.906, -0.11301599, 0.22192931, -1450317.0, 66767.17, 0.11625642, 9.999346, 10.000559 
2.5493145e+3, 1.5519145e+2, -1387852.3, -1299088.5, -67865.69, -0.022539522, 0.1297892, -1262380.9, 156748.45, 0.04988728, 9.999692, 10.000915 
2.5489858e+3, 1.6518642e+2, -1383352.5, -1373929.6, -52711.5, 0.02329303, 0.14441295, -1325719.4, -4540.686, 0.013707004, 9.999567, 9.999788 
2.5486565e+3, 1.7518042e+2, -1216916.3, -1205966.4, 30668.146, -0.006802525, -0.0025540257, -1180288.3, 42946.945, 0.0016894786, 9.999926, 10.000069 
2.5483236e+3, 1.8517488e+2, -1059991.9, -1242658.4, -134574.33, -0.0760289, 0.065271646, -988684.44, 136605.7, 0.000027889511, 10.000943, 9.998683 
2.5479874e+3, 1.9516903e+2, -684890.3, -980705.9, -58714.75, -0.14922667, 0.06414705, -673662.5, 353688.2, 0.0, 10.002789, 9.998884 
2.5476533e+3, 2.051635e+2, -602565.0, -792563.4, -31018.447, -0.14625125, 0.1445725, -597629.3, 331776.63, 0.0, 10.002226, 9.99978 
2.5473207e+3, 2.1515836e+2, -847880.25, -815264.2, -176318.31, -0.06658019, 0.09034545, -654501.4, 176953.14, 0.0, 9.999715, 10.000132 
2.5469896e+3, 2.2515303e+2, -894371.2, -912911.94, -153207.86, -0.03034963, 0.14254636, -750153.5, -16647.684, 0.0, 9.999234, 9.99908 
2.5466588e+3, 2.351467e+2, -548682.5, -660859.44, -139762.61, -0.029500578, 0.049385473, -454173.8, 181394.52, 0.0, 10.000857, 9.999316 
2.5463265e+3, 2.4514078e+2, -445121.8, -641064.06, -200871.11, -0.06473585, 0.10347752, -319603.47, 218022.2, 0.0, 10.00111, 9.998726 
2.5459927e+3, 2.5513476e+2, -528508.56, -605162.94, -129691.31, -0.16467562, 0.08424872, -431599.6, 8083.0747, 0.0, 9.999804, 9.998891 
2.5456595e+3, 2.6512852e+2, -436438.25, -481406.63, -87336.63, -0.20860894, 0.11836405, -368738.03, -26994.965, 0.0, 9.99963, 9.999169 
2.5453275e+3, 2.7512193e+2, -147593.16, -255334.3, -122182.91, -0.13271937, -0.00666952, -67932.08, 175875.11, 0.0, 10.000861, 9.999418 
2.5449958e+3, 2.851159e+2, -109876.42, -410846.56, -32858.797, -0.1436634, 0.10539661, -106330.8, 39538.36, 0.0, 10.001309, 9.997506 
2.544663e+3, 2.9510987e+2, -42173.37, -275126.22, 34925.797, -0.30998665, 0.17689356, -37049.758, 10885.71, 0.0, 10.000951, 9.997902 
2.544334e+3, 3.0510277e+2, 132752.89, 87851.58, 131795.25, -0.18655713, 0.12861675, 243995.98, 243995.98, 0.0, 10.000659, 10.000278 
2.5440028e+3, 3.1509677e+2, 164635.75, 333965.66, -25867.95, -0.45484436, -0.057576653, 337829.25, 337829.25, 0.0, 9.999736, 10.002386 
2.5602984e+3, 1.2553191e+2, -1875094.3, -1713872.1, -136171.19, -0.030118152, 0.17904752, -1636240.5, 73550.664, 0.26403108, 9.998395, 10.000796 
2.5599712e+3, 1.3552564e+2, -1468511.3, -1492791.3, -5255.117, 0.34488493, -0.07668221, -1467422.6, 144429.38, 0.18292536, 10.0009775, 10.000454 
2.5596386e+3, 1.4552152e+2, -1394421.6, -1454871.6, 845.5063, 0.03290927, 0.05840259, -1394409.8, 119483.54, 0.1037245, 10.000801, 10.000001 
2.5593087e+3, 1.5551813e+2, -1426674.6, -1383999.8, -69024.2, -0.008595052, 0.094303764, -1333090.3, 82838.266, 0.043632858, 9.999715, 10.000283 
2.5589794e+3, 1.6551352e+2, -1347583.0, -1145291.4, -20764.82, -0.038188394, 0.08748832, -1143181.9, 174789.64, 0.011545959, 9.998993, 10.001599 
2.5586498e+3, 1.7550726e+2, -1223157.4, -1019599.3, -7746.924, -0.14147484, -0.2802213, -1019304.94, 200722.33, 0.0013158798, 9.999157, 10.0016775 
2.5583187e+3, 1.8550451e+2, -1102930.1, -1073684.4, -125968.484, -0.08784435, -0.09319659, -961492.9, 160559.42, 0.000016496271, 9.999954, 10.000296 
2.557987e+3, 1.9550405e+2, -792680.1, -893511.06, -107608.29, 0.09295816, 0.25917634, -724262.7, 299795.22, 0.0, 10.001522, 10.000094 
2.557653e+3, 2.0549728e+2, -1020410.3, -1403879.8, -194303.05, 0.16747166, 0.3566176, -939169.06, -13040.391, 0.0, 10.001252, 9.996028 
2.5573167e+3, 2.1548508e+2, -1138430.8, -1359186.9, -284266.4, 0.09827144, -0.057589397, -943865.0, -115610.266, 0.0, 9.999596, 9.996429 
2.5569835e+3, 2.2547774e+2, -925190.75, -916027.2, -84568.5, 0.017413553, -0.019317046, -835916.44, -105588.63, 0.0, 9.99908, 9.999085 
2.5566536e+3, 2.3547353e+2, -699088.94, -711699.9, -86337.21, -0.1099281, 0.04576561, -618827.25, 13539.093, 0.0, 9.999813, 9.999427 
2.5563222e+3, 2.4546883e+2, -537510.4, -497389.84, -243838.2, -0.051271867, 0.13742156, -272788.16, 261621.16, 0.0, 9.999794, 10.000295 
2.5559896e+3, 2.554631e+2, -543981.6, -441571.84, -181615.88, 0.08769872, -0.0576704, -304080.53, 132381.27, 0.0, 9.999086, 10.000317 
2.555656e+3, 2.6545852e+2, -628113.75, -659641.5, -61401.52, 0.0011165915, 0.13055992, -580484.8, -241975.53, 0.0, 9.99886, 9.998231 
2.5553223e+3, 2.75454e+2, -309436.3, -422649.03, -68590.68, -0.24306817, 0.25440052, -277110.34, -36549.273, 0.0, 10.000253, 9.998509 
2.5549904e+3, 2.8544715e+2, -72408.62, -145000.14, -62275.57, -0.31065953, 0.22295207, -36623.668, 106002.72, 0.0, 10.000629, 9.999603 
2.554659e+3, 2.9543874e+2, -9859.967, -60334.945, 33431.74, -0.2817548, -0.1857394, 6790.6343, 51490.582, 0.0, 10.000402, 9.99959 
2.554331e+3, 3.0543283e+2, -170442.25, -408796.16, 57592.473, -0.055679273, -0.022140259, -157255.92, -157255.92, 0.0, 10.000291, 9.996935 
2.5539988e+3, 3.1542516e+2, -101184.05, 40080.594, -72788.95, -0.42927796, -0.12256306, 70873.89, 70873.89, 0.0, 9.998892, 10.000653 
2.570294e+3, 1.2586139e+2, -1802202.3, -1775302.6, 147199.33, 0.019621724, -0.11757957, -1640940.0, 65618.52, 0.23823552, 9.99937, 9.999827 
2.5699663e+3, 1.3585703e+2, -1298028.5, -1514822.9, 127910.17, 0.07001325, -0.06547683, -1238762.5, 369838.78, 0.16394834, 10.002887, 9.999306 
2.5696355e+3, 1.4585093e+2, -1262504.9, -1479533.0, -90.454796, -0.04315038, -0.010669297, -1262504.9, 248158.11, 0.09188186, 10.00218, 9.999159 
2.5693044e+3, 1.5584536e+2, -1444230.5, -1489362.3, -43304.918, 0.014255462, -0.07668959, -1417964.8, -5243.784, 0.03784501, 9.999953, 9.999469 
2.5689742e+3, 1.6584109e+2, -1377821.0, -1163976.6, -3760.0527, 0.02795404, -0.0055549275, -1163910.5, 150851.55, 0.009625426, 9.998789, 10.001566 
2.5686446e+3, 1.7583683e+2, -1319927.1, -1108475.5, -24414.412, -0.039442897, -0.13325611, -1105693.3, 111107.2, 0.0010124295, 9.998626, 10.001345 
2.5683135e+3, 1.8583313e+2, -1235817.1, -1146520.0, -205458.25, -0.057154328, -0.020735525, -980914.9, 137919.58, 0.000009793076, 9.999035, 10.000253 
2.567982e+3, 1.9582976e+2, -1039424.0, -1055451.0, -237354.45, 0.029781008, 0.07733891, -809947.8, 210918.6, 0.0, 9.999917, 9.999796 
2.567648e+3, 2.0582281e+2, -973569.5, -1356018.6, -316760.47, 0.03589601, 0.143584, -794788.6, 128150.45, 0.0, 10.001371, 9.9963255 
2.5673124e+3, 2.1581262e+2, -554639.06, -1086283.8, -245173.97, -0.0099518625, -0.04564748, -458837.56, 366210.47, 0.0, 10.003515, 9.9964695 
2.5669795e+3, 2.2580585e+2, -297129.72, -492001.66, -55199.41, -0.047440216, -0.01742773, -282580.22, 444533.75, 0.0, 10.002717, 10.00029 
2.5666487e+3, 2.3580135e+2, -663409.1, -627497.75, -18498.72, -0.07250133, -0.02770681, -619673.44, 9477.413, 0.0, 9.999585, 10.000184 
2.5663173e+3, 2.4579647e+2, -541051.0, -482531.6, -138793.17, -0.0100660855, 0.0123353675, -369947.47, 161248.47, 0.0, 9.9996195, 10.00048 
2.5659853e+3, 2.5579092e+2, -107483.34, -242995.84, -201098.7, 0.1196294, -0.12601143, 36966.9, 470217.2, 0.0, 10.002035, 10.000282 
2.5656518e+3, 2.6578695e+2, -159659.95, -348477.7, -141205.52, 0.039316777, 0.06761174, -84209.96, 251082.98, 0.0, 10.001559, 9.999092 
2.5653177e+3, 2.757834e+2, -423397.22, -432474.2, -81088.33, -0.1719156, 0.25435174, -346720.47, -109384.98, 0.0, 9.9991045, 9.999024 
2.564986e+3, 2.857768e+2, -264205.84, -172506.4, -54115.74, -0.21411102, 0.18816508, -147428.63, -8032.6323, 0.0, 9.998943, 10.000231 
2.564656e+3, 2.9576808e+2, 17253.967, -39722.457, -115880.47, -0.10630912, -0.2626629, 108096.65, 149564.5, 0.0, 10.000428, 9.999748 
2.5643262e+3, 3.057626e+2, -217112.42, -557618.2, -33704.848, -0.07630535, -0.01677556, -213808.22, -213808.22, 0.0, 10.000368, 9.995918 
2.5639945e+3, 3.1575492e+2, -114692.25, -171549.61, -230628.75, -0.25682202, 0.05169738, 89253.37, 89253.37, 0.0, 9.999446, 9.998993 
2.5802925e+3, 1.2619297e+2, -1637789.8, -1822811.8, 154642.47, 0.3096623, -0.026479378, -1550099.3, 153206.7, 0.21373183, 10.001163, 9.998624 
2.579962e+3, 1.3618842e+2, -1509980.4, -1680630.3, 72657.87, -0.07497296, -0.015537098, -1483236.1, 122115.24, 0.14603193, 10.0013275, 9.998828 
2.579632e+3, 1.46181e+2, -1511529.8, -1662500.3, -105150.72, -0.017110446, -0.050613314, -1457575.0, 49851.902, 0.080827504, 10.000643, 9.998598 
2.5793e+3, 1.5617372e+2, -1486918.4, -1605364.4, -122632.8, 0.12874065, -0.22300506, -1409957.0, -454.29242, 0.032553293, 10.000143, 9.998555 
2.5789696e+3, 1.6616988e+2, -1345610.8, -1239593.8, 28702.752, 0.19256999, -0.021425165, -1232321.6, 79220.56, 0.007938516, 9.999439, 10.000683 
2.57864e+3, 1.7616756e+2, -1411535.1, -1270866.4, -17618.688, 0.17098494, 0.10841769, -1268693.3, -55128.406, 0.00076767127, 9.998543, 10.000234 
2.5783083e+3, 1.8616152e+2, -1295636.6, -1272787.6, -111152.76, 0.072883114, 0.10022183, -1172473.8, -56851.934, 0.000005913737, 9.999151, 9.99928 
2.5779754e+3, 1.9615288e+2, -1085039.4, -1169081.0, -159896.75, -0.06443871, -0.26042575, -961734.06, 55969.367, 0.0, 10.000144, 9.998842 
2.5776422e+3, 2.0614667e+2, -938709.4, -1217807.6, -176910.36, -0.13747907, -0.12432133, -852933.75, 66834.89, 0.0, 10.001156, 9.997342 
2.5773087e+3, 2.1614113e+2, -696286.7, -1033780.0, -149587.94, -0.18266408, 0.011571936, -639529.5, 182302.52, 0.0, 10.00208, 9.997494 
2.576976e+3, 2.2613575e+2, -469135.34, -442893.9, -140257.23, -0.08955296, 0.0749963, -315145.03, 408736.2, 0.0, 10.001179, 10.001304 
2.5766444e+3, 2.3612998e+2, -770397.6, -605346.94, -114560.84, 0.072120935, -0.18602136, -546682.3, 79243.37, 0.0, 9.998714, 10.000706 
2.576312e+3, 2.4612452e+2, -775959.2, -765671.06, -45090.363, 0.057401504, -0.1292587, -725432.25, -197453.38, 0.0, 9.998899, 9.998826 
2.57598e+3, 2.561185e+2, -390107.9, -544145.6, -111436.09, -0.054214016, -0.18857923, -331664.94, 98379.72, 0.0, 10.000931, 9.998709 
2.575647e+3, 2.6611435e+2, -224035.13, -219371.55, -234666.19, -0.04331936, -0.009084273, 12974.434, 345062.1, 0.0, 10.000536, 10.000455 
2.5753134e+3, 2.7611116e+2, -508565.4, -362059.06, -144944.89, 0.030263016, 0.04443991, -272908.25, -38788.863, 0.0, 9.998171, 9.999928 
2.5749826e+3, 2.8610572e+2, -462323.16, -406215.56, 15273.815, 0.053393144, 0.13101406, -402327.16, -266157.22, 0.0, 9.99829, 9.998903 
2.574653e+3, 2.960979e+2, -163080.13, -264321.84, -27159.861, 0.013258455, -0.124222584, -156254.23, -118012.84, 0.0, 9.999877, 9.998457 
2.574319e+3, 3.0609393e+2, -163762.17, -291770.03, -51483.055, -0.32503533, 0.22880405, -145625.94, -145625.94, 0.0, 9.999835, 9.997957 
2.5739914e+3, 3.1608903e+2, -168278.77, -127121.65, 430751.06, -0.13604227, 0.3591716, 283542.13, 283542.13, 0.0, 9.998943, 9.99952 
2.5902858e+3, 1.26523e+2, -1398738.1, -1576557.8, -7315.888, -0.22470424, 0.12070622, -1398437.6, 301638.66, 0.19077115, 10.0025625, 9.999768 
2.5899595e+3, 1.3651764e+2, -1711631.6, -1767057.6, -28410.744, 0.106919475, 0.07438909, -1699656.1, -97523.7, 0.12932457, 9.999723, 9.999021 
2.5896287e+3, 1.465118e+2, -1590147.8, -1508901.8, -92689.44, 0.13977784, 0.083608314, -1448324.1, 55869.184, 0.07062259, 9.999245, 10.000346 
2.589295e+3, 1.5650813e+2, -1272246.0, -1355560.5, -9435.716, -0.0005677041, 0.1376555, -1271190.8, 135042.4, 0.027766839, 10.00098, 9.999889 
2.5889632e+3, 1.6650392e+2, -1148894.6, -1159055.4, 62882.906, -0.026619192, 0.25706473, -1090887.3, 217387.77, 0.0064744665, 10.000812, 10.000595 
2.5886333e+3, 1.764991e+2, -1302904.6, -1254461.6, 79595.586, 0.04831365, 0.19044784, -1195483.8, 14837.428, 0.0005723583, 9.9993305, 10.000009 
2.5883034e+3, 1.8649279e+2, -1084424.5, -1132251.6, 91722.375, 0.062021974, 0.15114155, -1013549.56, 98830.48, 0.0000035552432, 10.000368, 9.9996805 
2.5879732e+3, 1.9648491e+2, -673611.25, -953055.4, 97869.46, 0.010463557, -0.11234807, -642744.06, 371709.13, 0.0, 10.002751, 9.999123 
2.5876397e+3, 2.0647903e+2, -640724.6, -928411.0, -19571.877, -0.07590019, -0.014727669, -639399.2, 277114.44, 0.0, 10.002528, 9.998694 
2.5873053e+3, 2.1647419e+2, -793163.4, -979141.56, 24886.465, -0.14968246, 0.13789633, -789890.8, 28677.084, 0.0, 10.000858, 9.998519 
2.5869724e+3, 2.2646903e+2, -598108.5, -565445.7, -30073.395, -0.030605616, 0.21518674, -547555.44, 173062.31, 0.0, 10.00047, 10.000815 
2.5866404e+3, 2.3646332e+2, -483311.9, -547260.75, -66629.19, 0.19292141, 0.06640494, -441382.25, 181285.45, 0.0, 10.000914, 10.000088 
2.5863075e+3, 2.4645709e+2, -512562.0, -634378.06, 28128.605, 0.105693266, 0.0669886, -506380.5, 18348.611, 0.0, 10.000547, 9.9989805 
2.5859743e+3, 2.5645018e+2, -571452.75, -636944.2, 30792.467, -0.1444395, -0.037215732, -559249.0, -132447.47, 0.0, 9.999582, 9.998758 
2.5856417e+3, 2.6644543e+2, -257213.92, -217782.27, -127532.55, -0.10610348, 0.07687454, -108450.57, 220398.14, 0.0, 10.000169, 10.000663 
2.585309e+3, 2.7644175e+2, 4437.3564, -120315.055, -151279.84, 0.13222212, 0.13005058, 105696.055, 336579.13, 0.0, 10.001606, 9.9999895 
2.5849783e+3, 2.8643593e+2, -75069.67, -206989.16, 14972.025, 0.1634975, 0.15988936, -73391.79, 59544.406, 0.0, 10.000802, 9.999091 
2.5846475e+3, 2.9642814e+2, -315438.66, -335889.88, 5193.6084, 0.016032415, -0.06597729, -314195.3, -279186.8, 0.0, 9.998688, 9.998585 
2.584313e+3, 3.064249e+2, -207516.63, -121092.13, -33825.57, -0.35663489, 0.26410237, -109427.54, -109427.54, 0.0, 9.998625, 9.999762 
2.5839812e+3, 3.1641817e+2, -379244.3, -196071.64, 223195.98, -0.521875, 0.11059973, -46401.883, -46401.883, 0.0, 9.997222, 9.999922 
2.6002815e+3, 1.2685402e+2, -1566054.6, -1812453.0, -83434.47, -0.43678433, 0.26777115, -1540460.9, 156376.34, 0.16949552, 10.001844, 9.998333 
2.5999567e+3, 1.3684653e+2, -1716990.0, -1810900.0, -104522.99, 0.38637823, 0.06960018, -1649359.5, -50443.246, 0.11391175, 9.999885, 9.998648 
2.5996247e+3, 1.4684328e+2, -1456039.5, -1260901.9, -12882.159, 0.34184763, 0.255462, -1260055.1, 240897.36, 0.061296463, 9.999428, 10.001984 
2.5992894e+3, 1.5684311e+2, -1319932.4, -1271547.9, -34868.457, -0.097008996, 0.4918712, -1253301.1, 149656.33, 0.023481611, 10.000222, 10.000818 
2.598957e+3, 1.6683838e+2, -1180764.5, -1189230.4, -43302.586, -0.16906282, 0.52739537, -1141488.5, 163514.98, 0.005220199, 10.000685, 10.000467 
2.5986266e+3, 1.768309e+2, -1213981.4, -1253620.1, -35864.516, -0.026000528, 0.20321618, -1192824.3, 14249.945, 0.00041937284, 10.000161, 9.999635 
2.5982988e+3, 1.8682529e+2, -1032455.2, -1060304.5, 127261.11, 0.098936535, 0.22261709, -918359.2, 190766.33, 0.0000020172258, 10.00058, 10.000035 
2.5979722e+3, 1.9681993e+2, -901235.25, -1051960.9, 80441.53, 0.19477527, 0.15353368, -866369.25, 144804.44, 0.0, 10.00121, 9.999154 
2.5976387e+3, 2.0681457e+2, -805061.0, -891285.9, -126654.47, 0.14776695, 0.24761206, -714382.44, 198844.47, 0.0, 10.0010195, 9.999629 
2.5973022e+3, 2.1680905e+2, -1008458.06, -1048842.9, -75020.8, 0.04528146, 0.21066815, -950959.75, -135675.03, 0.0, 9.999378, 9.998702 
2.5969687e+3, 2.268043e+2, -831876.06, -869888.9, -35174.797, 0.1131912, 0.42871377, -810901.1, -93564.555, 0.0, 9.999783, 9.9990225 
2.5966367e+3, 2.3679924e+2, -726877.44, -853870.44, -70969.336, 0.29259214, 0.48940822, -695145.5, -75753.56, 0.0, 10.000149, 9.998318 
2.596303e+3, 2.4679276e+2, -586969.94, -589488.8, -12358.11, 0.14600022, 0.5085206, -575807.25, -54352.15, 0.0, 9.999809, 9.99961 
2.5959682e+3, 2.567851e+2, -736052.06, -714155.9, 923.14996, -0.17937781, 0.23904131, -714117.0, -290589.38, 0.0, 9.998528, 9.998728 
2.5956357e+3, 2.667793e+2, -485564.53, -488349.3, -84136.23, -0.1682855, 0.3412275, -402809.2, -77224.59, 0.0, 9.999426, 9.999117 
2.5953045e+3, 2.7677402e+2, -244061.75, -417635.1, -115525.85, 0.046235442, 0.3579136, -186355.69, 41282.082, 0.0, 10.000756, 9.9983425 
2.5949726e+3, 2.867668e+2, -165805.72, -199536.19, -91789.19, 0.04236937, 0.30129254, -89345.234, 40355.637, 0.0, 10.000061, 9.999477 
2.594639e+3, 2.967584e+2, -486084.5, -408311.97, -77400.11, -0.17262954, -0.03582919, -360578.84, -328807.8, 0.0, 9.997608, 9.998581 
2.5943068e+3, 3.0675158e+2, -268858.22, -68662.18, -51227.887, -0.27611446, -0.10315088, -56315.055, -56315.055, 0.0, 9.998016, 10.000336 
2.5939742e+3, 3.1674826e+2, -649424.06, -446650.06, -97253.445, -0.5019257, 0.0048781377, -407546.63, -407546.63, 0.0, 9.996042, 9.998732 
2.6102814e+3, 1.2718143e+2, -1566795.4, -1576015.4, -175598.2, -0.14498113, 0.062506765, -1395746.6, 297881.56, 0.14988421, 10.000692, 10.000672 
2.6099506e+3, 1.371769e+2, -1625712.1, -1677273.9, -60993.113, 0.24815093, 0.016270917, -1585275.0, 10396.376, 0.09979623, 10.000093, 9.999486 
2.609618e+3, 1.4717259e+2, -1520974.1, -1409453.4, 17958.623, 0.18528867, 0.14070493, -1406632.8, 91082.75, 0.05285716, 9.999501, 10.000868 
2.6092848e+3, 1.5716831e+2, -1502132.6, -1491823.9, -44703.42, -0.065603495, 0.11086101, -1451978.6, -52217.996, 0.019694533, 9.999469, 9.999688 
2.608954e+3, 1.6716383e+2, -1124835.9, -1166597.3, -82019.914, -0.075303145, 0.21238051, -1061080.5, 240726.61, 0.004163879, 10.001074, 10.000426 
2.6086244e+3, 1.7715876e+2, -798061.5, -1057176.8, -78544.37, 0.021926891, 0.14628105, -776112.06, 427746.78, 0.00030229846, 10.0030155, 9.999608 
2.608295e+3, 1.8715455e+2, -748636.6, -870202.44, -20440.44, 0.059024833, 0.26472333, -745291.75, 360607.88, 0.0000010444409, 10.002206, 10.000596 
2.6079664e+3, 1.971503e+2, -1048195.56, -1073361.4, -51904.844, 0.056237202, 0.2784027, -1007370.2, 569.43396, 0.0, 9.999849, 9.999714 
2.607633e+3, 2.071444e+2, -960617.0, -879640.44, -252404.38, 0.076145425, 0.22854687, -664497.56, 245497.39, 0.0, 9.999449, 10.000511 
2.6072973e+3, 2.171376e+2, -880025.06, -922340.2, -190242.31, 0.088727556, 0.0027136279, -709767.44, 102292.15, 0.0, 9.999808, 9.999409 
2.6069647e+3, 2.2713323e+2, -589889.4, -747969.9, -68503.836, 0.14161484, 0.2018693, -564334.5, 149774.2, 0.0, 10.001279, 9.999202 
2.6066327e+3, 2.3712955e+2, -296139.1, -637976.3, -44516.08, 0.22094971, 0.42658725, -290437.06, 325717.47, 0.0, 10.002901, 9.998539 
2.6062986e+3, 2.471241e+2, -222964.7, -341438.47, -60319.04, 0.091480345, 0.49458292, -197659.31, 320549.84, 0.0, 10.001964, 10.000271 
2.6059628e+3, 2.5711742e+2, -470889.75, -566025.06, -51110.01, -0.14509642, 0.31712532, -448636.8, -28365.27, 0.0, 10.000136, 9.999007 
2.6056302e+3, 2.6711068e+2, -445000.47, -544357.8, -27823.85, -0.18201351, 0.3418925, -437739.38, -115400.266, 0.0, 9.999909, 9.998547 
2.6052988e+3, 2.771037e+2, -324059.75, -499120.06, -36633.414, -0.07497543, 0.29443356, -316702.97, -92292.24, 0.0, 10.00027, 9.998048 
2.6049665e+3, 2.8709713e+2, -51106.53, -91263.45, -31758.469, -0.07077107, 0.28205743, -33611.797, 92855.88, 0.0, 10.000542, 10.000005 
2.6046327e+3, 2.9709065e+2, -44307.77, -153880.05, -13642.8955, -0.19195548, 0.13585609, -42634.633, -14115.625, 0.0, 10.000332, 9.999051 
2.6043022e+3, 3.070812e+2, -92574.53, 67212.586, 31087.822, -0.05341338, -0.24280323, 73047.86, 73047.86, 0.0, 9.998796, 10.000959 
2.6039705e+3, 3.1707543e+2, -633776.9, -611723.5, -144736.44, -0.0125228325, -0.38312697, -477594.3, -477594.3, 0.0, 9.996694, 9.997308 
2.6202807e+3, 1.2750888e+2, -1547473.4, -1383794.6, -66342.38, 0.22236215, -0.21881934, -1360282.3, 330134.38, 0.13183987, 10.000028, 10.002379 
2.6199445e+3, 1.3750824e+2, -1453886.4, -1510606.1, -79017.95, 0.15400934, -0.035818823, -1398293.1, 194122.11, 0.08692974, 10.00106, 10.000182 
2.619612e+3, 1.4750181e+2, -1426082.9, -1566682.8, 37691.105, 0.11490024, -0.039708022, -1416616.3, 77861.33, 0.045284748, 10.00102, 9.999053 
2.619281e+3, 1.5749279e+2, -1485170.4, -1655757.6, 2537.5986, 0.11034403, -0.37062815, -1485132.6, -88564.06, 0.01638905, 10.000323, 9.998171 
2.6189518e+3, 1.674887e+2, -1203790.4, -1235056.5, 68579.76, 0.13369276, -0.15448777, -1149084.4, 149529.83, 0.0032885466, 10.0007105, 10.000115 
2.6186237e+3, 1.7748626e+2, -1120909.3, -1253302.0, 19741.89, 0.18015003, 0.076020464, -1118028.1, 82616.45, 0.00021471751, 10.0009985, 9.999243 
2.618292e+3, 1.8748316e+2, -934613.75, -915598.0, -43602.21, 0.07451949, 0.2958643, -880479.06, 222199.52, 0.00000047553752, 10.000772, 10.000964 
2.6179594e+3, 1.974795e+2, -1158201.6, -1112873.1, -101645.484, -0.07868665, 0.32303298, -1031395.8, -26679.56, 0.0, 9.999119, 9.999786 
2.6176256e+3, 2.0747243e+2, -954271.0, -818328.75, -211915.73, -0.03104913, 0.12730892, -663750.2, 243029.63, 0.0, 9.999319, 10.000963 
2.6172918e+3, 2.1746378e+2, -984477.9, -944068.4, -157191.98, 0.10374929, -0.3495351, -805787.94, 3068.287, 0.0, 9.999076, 9.999597 
2.61696e+3, 2.2745976e+2, -662748.2, -657973.4, 11359.285, 0.119216494, -0.17655672, -648753.3, 62146.418, 0.0, 10.0004, 10.000183 
2.6166287e+3, 2.3745733e+2, -571561.9, -714621.1, -4393.916, 0.084365524, 0.060162995, -571427.06, 41505.543, 0.0, 10.000935, 9.998917 
2.616294e+3, 2.474533e+2, -392594.34, -412903.63, -109735.266, -0.010010958, 0.25529107, -292544.88, 222430.55, 0.0, 10.000879, 10.000249 
2.6159582e+3, 2.5744814e+2, -669210.8, -719416.44, -91536.69, -0.116560385, 0.21281818, -599397.25, -182370.48, 0.0, 9.99915, 9.998394 
2.6156244e+3, 2.6744056e+2, -540603.0, -608430.06, -9850.762, -0.2269756, 0.19398029, -539201.3, -220097.38, 0.0, 9.999415, 9.998292 
2.6152915e+3, 2.7743182e+2, -487257.97, -619205.75, -14254.723, -0.3184454, -0.03690664, -485735.56, -264542.66, 0.0, 9.999424, 9.997596 
2.61496e+3, 2.8742778e+2, -88386.03, -10507.891, -28973.572, -0.2648101, 0.17124476, -911.2102, 122318.625, 0.0, 10.000014, 10.00075 
2.6146284e+3, 2.9742518e+2, -143935.66, -176013.42, -7405.8257, -0.16400282, 0.3158261, -142308.42, -117058.65, 0.0, 9.999651, 9.999205 
2.6142985e+3, 3.074172e+2, -224530.44, -744.6857, -72459.08, 0.22075967, 0.08143194, 20667.852, 20667.852, 0.0, 9.998011, 10.000848 
2.6139563e+3, 3.174162e+2, -556319.5, -172850.22, 15128.724, -0.64047414, 0.37392467, -172254.28, -172254.28, 0.0, 9.995686, 10.000785 
2.6302764e+3, 1.2784697e+2, -1803157.6, -1722072.6, 92569.516, 0.24332188, 0.09823426, -1661556.6, 25540.494, 0.11528824, 9.99921, 10.000154 
2.6299423e+3, 1.3783987e+2, -1393026.4, -1658641.4, 35726.813, 0.18170203, -0.15411627, -1388304.9, 200858.8, 0.07524984, 10.002217, 9.998591 
2.6296094e+3, 1.4783365e+2, -1199747.9, -1440961.5, 63985.555, 0.12621818, -0.08683591, -1183825.8, 307398.97, 0.038529176, 10.002577, 9.999175 
2.629278e+3, 1.5782692e+2, -1222338.4, -1502907.5, 101846.11, 0.1201493, -0.18531626, -1189266.6, 204025.47, 0.013527696, 10.001996, 9.998428 
2.6289478e+3, 1.6782162e+2, -1206145.4, -1230829.9, 140932.44, 0.14292552, -0.10008847, -1077015.8, 218329.61, 0.0025719018, 10.000599, 10.000234 
2.628618e+3, 1.7781706e+2, -1458776.6, -1410826.9, 150720.44, 0.14523944, -0.06470404, -1282186.4, -84794.836, 0.00015054179, 9.9985485, 9.999377 
2.6282868e+3, 1.878129e+2, -1213357.3, -1105394.4, 89778.945, 0.08876386, 0.07847532, -1054617.8, 44819.543, 0.0000001940375, 9.999037, 10.000518 
2.6279545e+3, 1.978085e+2, -1035237.8, -1065138.0, 28954.928, -0.032873895, 0.097304754, -1017601.2, -16115.522, 0.0, 9.999885, 9.999784 
2.6276204e+3, 2.0780295e+2, -728830.5, -673334.9, -91302.43, -0.06655036, 0.036601942, -605656.94, 297881.16, 0.0, 10.000674, 10.001319 
2.6272857e+3, 2.177967e+2, -582863.7, -674489.56, -27663.816, -0.06923682, -0.20529445, -575159.2, 230435.6, 0.0, 10.001395, 10.000359 
2.6269537e+3, 2.2779262e+2, -579250.25, -513720.56, 83535.766, -0.013407244, -0.12701514, -456753.8, 250882.9, 0.0, 10.000438, 10.001182 
2.626623e+3, 2.377894e+2, -790369.94, -724040.4, 78009.32, 0.030285232, -0.030641692, -672438.7, -62765.527, 0.0, 9.998866, 9.999887 
2.6262885e+3, 2.4778533e+2, -558983.25, -541246.2, -17287.014, -0.035288226, 0.14262027, -530685.56, -18967.4, 0.0, 9.999806, 9.999941 
2.6259533e+3, 2.577806e+2, -320712.0, -533804.3, -9247.584, -0.13839073, 0.20357077, -320311.44, 93457.18, 0.0, 10.001319, 9.99866 
2.6256198e+3, 2.6777333e+2, -276073.25, -451112.5, 69051.59, -0.20289105, 0.17992836, -252112.78, 63730.406, 0.0, 10.000976, 9.998674 
2.625287e+3, 2.77765e+2, -367910.78, -492516.94, 91575.42, -0.2571287, -0.0006837329, -319454.06, -101527.305, 0.0, 9.999771, 9.998355 
2.6249543e+3, 2.8776133e+2, -207862.17, -38822.69, 65255.83, -0.26339096, 0.19314867, -16562.707, 103400.05, 0.0, 9.998946, 10.00112 
2.624622e+3, 2.977593e+2, -306870.2, -184250.55, 15424.271, -0.20385236, 0.39448667, -182340.1, -160358.83, 0.0, 9.998132, 9.99992 
2.624292e+3, 3.077515e+2, -237518.97, -100949.234, -113720.45, 0.30552045, 0.18285108, -36587.332, -36587.332, 0.0, 9.998243, 10.000097 
2.623951e+3, 3.1774738e+2, -12854.191, 632086.0, 111919.48, -0.26603985, 0.24414212, 650955.8, 650955.8, 0.0, 9.9968815, 10.00582 
2.6402724e+3, 1.2818465e+2, -1665640.3, -1921409.6, 119290.96, 0.36425483, 0.32554218, -1618639.8, 65141.67, 0.10017185, 10.001299, 9.997811 
2.6399404e+3, 1.3817215e+2, -1554421.0, -1918868.3, 48866.34, 0.32206008, -0.24660903, -1547982.6, 37924.242, 0.06469282, 10.00183, 9.996982 
2.6396078e+3, 1.4816673e+2, -1279660.0, -1458591.9, 48642.53, 0.24799204, -0.06559452, -1267291.5, 220669.88, 0.032530583, 10.00193, 9.999335 
2.6392755e+3, 1.5816265e+2, -1325955.6, -1558186.0, 19948.334, 0.20085172, 0.07861709, -1324254.5, 65747.39, 0.011066901, 10.001332, 9.99835 
2.6389435e+3, 1.6815609e+2, -1123110.3, -1168993.5, 44630.883, 0.18002294, 0.015175765, -1095869.9, 196192.34, 0.0019930317, 10.001115, 10.000376 
2.6386115e+3, 1.7814882e+2, -1319977.9, -1398446.1, 58819.613, 0.15378143, -0.23285826, -1288507.9, -94379.44, 0.00010503105, 9.99976, 9.998883 
2.638281e+3, 1.8814328e+2, -1221805.3, -1147471.6, 112361.016, 0.15175839, -0.18893018, -1066289.9, 29897.924, 0.00000008640195, 9.99932, 9.99999 
2.637951e+3, 1.9813819e+2, -1278045.6, -1254206.4, 40594.1, 0.15658568, -0.19966431, -1223818.1, -225572.58, 0.0, 9.998673, 9.999019 
2.6376158e+3, 2.0813541e+2, -832501.56, -702062.44, -45978.156, -0.032475732, 0.026873715, -687484.9, 212792.58, 0.0, 9.999909, 10.001479 
2.6372796e+3, 2.1813294e+2, -797301.06, -787051.06, -32675.877, -0.23648238, 0.13627079, -759100.75, 43203.49, 0.0, 10.000017, 10.000259 
2.6369476e+3, 2.2812873e+2, -639376.5, -454153.84, 11722.731, -0.13155268, 0.14868449, -453414.88, 250930.63, 0.0, 9.99971, 10.001901 
2.6366168e+3, 2.3812392e+2, -981338.75, -832757.5, 26793.357, 0.059243623, -0.0045573674, -828073.56, -221681.16, 0.0, 9.997706, 9.999693 
2.636283e+3, 2.4811932e+2, -677537.06, -648196.44, 24228.371, -0.038182847, 0.15691213, -634543.0, -126099.05, 0.0, 9.9993105, 9.999406 
2.6359484e+3, 2.581144e+2, -538657.75, -703427.2, 10641.774, -0.21065085, 0.22504018, -537973.25, -127472.99, 0.0, 10.000199, 9.99803 
2.635616e+3, 2.681086e+2, -330122.6, -375570.03, 14035.186, -0.106490426, 0.31949794, -326137.63, -13578.45, 0.0, 10.000305, 9.999459 
2.6352844e+3, 2.7810243e+2, -558999.56, -588158.5, 48341.633, 0.053968396, 0.25588244, -523086.72, -308466.44, 0.0, 9.998593, 9.998256 
2.6349488e+3, 2.8809738e+2, -357650.4, -161431.56, 24306.012, -0.16554664, 0.3516758, -158465.56, -41795.59, 0.0, 9.998226, 10.000586 
2.6346117e+3, 2.9809257e+2, -550898.75, -416174.4, -10450.062, -0.50239855, 0.30686995, -415368.63, -396651.28, 0.0, 9.997046, 9.998836 
2.634282e+3, 3.0808258e+2, -378229.38, -284401.63, -112156.125, 0.010871625, -0.031846482, -209742.84, -209742.84, 0.0, 9.997921, 9.998914 
2.6339442e+3, 3.180815e+2, -212713.5, 324794.94, 98380.29, -0.25669125, 0.41244912, 342235.6, 342235.6, 0.0, 9.996579, 10.003794 
2.6502702e+3, 1.2851244e+2, -1491081.4, -1734798.9, -11713.361, 0.28319725, -0.1764025, -1490519.6, 190041.1, 0.086430125, 10.00223, 9.998619 
2.649938e+3, 1.3850623e+2, -1596389.4, -1907643.5, 80527.734, 0.35669842, -0.17541453, -1576789.5, 5840.4624, 0.055199515, 10.001344, 9.997319 
2.6496044e+3, 1.4850006e+2, -1437750.3, -1634327.9, 64995.79, 0.2746486, -0.033902805, -1418203.8, 66489.77, 0.027235242, 10.001188, 9.9985 
2.6492718e+3, 1.5849346e+2, -1402947.9, -1650609.8, 42622.824, 0.1683979, -0.052611176, -1395817.8, -9058.007, 0.0089680515, 10.000962, 9.997912 
2.64894e+3, 1.6848734e+2, -975265.8, -1109078.3, 36840.62, 0.13043453, -0.051666077, -965793.56, 323024.13, 0.0015322798, 10.002246, 10.000211 
2.6486078e+3, 1.7848112e+2, -801985.0, -1103141.0, 8632.373, 0.06292459, -0.17634813, -801737.75, 389138.03, 0.00007382683, 10.003073, 9.999315 
2.6482755e+3, 1.8847615e+2, -918539.0, -911124.9, 12373.961, 0.026419342, -0.14987442, -901914.6, 191012.36, 0.000000036839044, 10.000957, 10.000862 
2.6479426e+3, 1.9847167e+2, -1300375.4, -1171080.4, 50988.082, -0.03207638, -0.16053365, -1153392.6, -158417.23, 0.0, 9.998015, 9.999931 
2.6476097e+3, 2.0846906e+2, -973737.7, -792703.25, 34315.625, -0.0474089, 0.061595645, -786416.94, 110590.14, 0.0, 9.99897, 10.001325 
2.6472765e+3, 2.1846688e+2, -704769.6, -740191.4, 19871.006, -0.096126065, 0.2322185, -695862.2, 103172.61, 0.0, 10.000533, 10.000353 
2.646944e+3, 2.2846216e+2, -553973.2, -476340.28, -52880.254, -0.006851854, 0.21850885, -449559.2, 251521.97, 0.0, 10.0004635, 10.001433 
2.6466113e+3, 2.3845674e+2, -620603.94, -651029.9, -53360.16, 0.10719008, 0.06381308, -580330.5, 22802.549, 0.0, 9.999984, 9.999889 
2.6462778e+3, 2.4845217e+2, -438284.44, -509956.34, 12320.845, -0.030012706, 0.19213913, -436225.56, 68958.54, 0.0, 10.000725, 9.999741 
2.645944e+3, 2.5844762e+2, -275101.38, -508008.34, -538.3958, -0.22627763, 0.29642537, -275100.13, 132136.66, 0.0, 10.001538, 9.998784 
2.6456115e+3, 2.6844195e+2, -230711.73, -283949.0, -76765.234, -0.12502675, 0.3361933, -176081.05, 133212.3, 0.0, 10.000706, 9.999937 
2.645279e+3, 2.7843618e+2, -385822.4, -432894.3, -60337.406, 0.09777424, 0.28916547, -344593.06, -133244.11, 0.0, 9.999338, 9.998995 
2.644943e+3, 2.8843135e+2, -138352.02, -126765.1, -49634.297, -0.100257196, 0.3980534, -82587.29, 30810.404, 0.0, 9.999898, 10.00007 
2.6446053e+3, 2.984263e+2, -29587.498, -168579.22, -94037.27, -0.49384108, 0.40361524, 17846.889, 33295.953, 0.0, 10.000466, 9.998924 
2.644275e+3, 3.0841455e+2, -52629.043, -87025.89, -125383.234, 0.0027409808, -0.14818697, 56729.797, 56729.797, 0.0, 9.999826, 9.999409 
2.6439396e+3, 3.1841642e+2, 78790.98, 407049.63, 103653.87, 0.040013205, 0.5884232, 437040.25, 437040.25, 0.0, 9.998594, 10.003447 
2.6602677e+3, 1.2884079e+2, -1680760.5, -1726867.4, -40374.203, 0.36690587, -0.59575486, -1657321.6, 20015.883, 0.073999815, 10.0002985, 9.999572 
2.659935e+3, 1.3884108e+2, -1409918.6, -1819567.6, -32217.361, 0.44550672, -0.05344039, -1407400.3, 171946.8, 0.046711504, 10.002662, 9.997299 
2.6596013e+3, 1.4883375e+2, -1324167.0, -1639590.4, 27371.27, 0.33705392, 0.01710327, -1321809.5, 159612.92, 0.022592498, 10.002351, 9.997889 
2.659268e+3, 1.5882449e+2, -1476888.6, -1766793.8, 43858.492, 0.24112768, -0.19991551, -1470398.8, -86883.88, 0.0071954923, 10.000874, 9.997168 
2.6589364e+3, 1.6881871e+2, -1191697.3, -1275253.5, 107594.45, 0.15168522, -0.10588031, -1118054.5, 167519.05, 0.001170623, 10.001041, 9.999651 
2.6586056e+3, 1.7881395e+2, -1186128.3, -1291497.9, -6395.0527, 0.07864944, -0.04841702, -1185741.5, 1880.4275, 0.00005271245, 10.000545, 9.999227 
2.6582694e+3, 1.8880993e+2, -919366.7, -789178.56, -105162.13, -0.07841087, -0.0074369325, -730594.4, 359066.34, 0.000000014947995, 10.0004635, 10.001927 
2.6579335e+3, 1.9880632e+2, -1206651.9, -1106235.1, -43559.887, -0.19999729, -0.03187845, -1089972.9, -98276.76, 0.0, 9.998661, 10.000068 
2.6576036e+3, 2.0880312e+2, -928984.5, -789305.2, 46203.207, -0.011789222, 0.12677374, -775405.25, 118328.97, 0.0, 9.999521, 10.000989 
2.6572746e+3, 2.187997e+2, -963672.5, -987475.25, -19871.38, 0.24017553, 0.19715771, -952411.06, -156635.55, 0.0, 9.99946, 9.999112 
2.656941e+3, 2.2879447e+2, -704902.6, -650483.3, -97578.945, 0.24082422, 0.2302817, -576391.4, 121436.875, 0.0, 10.000011, 10.000367 
2.6566064e+3, 2.3878884e+2, -871135.8, -868308.5, -61733.21, 0.18609148, 0.12958327, -807972.75, -208089.39, 0.0, 9.99883, 9.998914 
2.6562735e+3, 2.4878484e+2, -511427.16, -458986.03, 40469.098, -0.0034740283, 0.28942165, -436985.6, 64942.293, 0.0, 9.99996, 10.000413 
2.65594e+3, 2.5878078e+2, -551211.4, -643531.25, -3603.3665, -0.2439623, 0.3664431, -551070.94, -147097.64, 0.0, 9.999809, 9.9986515 
2.6556048e+3, 2.687741e+2, -355727.38, -312609.1, -126604.3, -0.2732095, 0.29069877, -205741.44, 100296.984, 0.0, 9.999918, 10.00002 
2.65527e+3, 2.7876693e+2, -589624.94, -589704.2, -55235.113, -0.18919998, 0.08949945, -534429.44, -326323.3, 0.0, 9.99837, 9.998336 
2.6549378e+3, 2.887637e+2, -232579.5, -207897.53, -9577.604, -0.11895918, 0.39851928, -204617.05, -94476.14, 0.0, 9.999576, 9.99958 
2.654604e+3, 2.9876077e+2, -182733.98, -267072.9, -78461.38, -0.21737811, 0.6425208, -135827.9, -123655.07, 0.0, 9.999688, 9.998581 
2.6542714e+3, 3.0874786e+2, -3404.5693, 130737.4, -175116.95, 0.18019065, -0.13435285, 251188.31, 251188.31, 0.0, 9.999458, 10.001003 
2.6539302e+3, 3.1874698e+2, -344648.9, -204331.95, 98140.42, -0.32854143, 0.21651912, -153851.5, -153851.5, 0.0, 9.997605, 9.999672 
2.6702622e+3, 1.2917478e+2, -1996025.1, -1861060.5, 58264.12, 0.3318886, -0.25819921, -1839388.0, -165313.3, 0.062782034, 9.998087, 9.999724 
2.6699308e+3, 1.3917355e+2, -1194847.5, -1626170.8, 2400.192, 0.09197794, 0.12293225, -1194834.1, 381263.53, 0.039146993, 10.00379, 9.998114 
2.669598e+3, 1.4916718e+2, -1048132.6, -1306118.4, -53043.82, 0.17015687, 0.12722297, -1037652.1, 440505.44, 0.018543638, 10.003441, 9.99967 
2.6692653e+3, 1.591594e+2, -1341644.3, -1590575.0, 64537.094, 0.28796053, -0.08067842, -1325907.4, 54321.926, 0.005710664, 10.001282, 9.998194 
2.6689318e+3, 1.6915305e+2, -1422062.0, -1454515.8, 126027.13, 0.15153451, -0.041817714, -1311221.4, -28924.934, 0.0008890518, 9.999662, 9.9991045 
2.6685983e+3, 1.7914724e+2, -1588091.6, -1548643.0, 73400.7, -0.043150038, -0.014338044, -1492362.6, -308003.66, 0.000037964888, 9.997965, 9.998713 
2.668265e+3, 1.8914239e+2, -989740.2, -944397.75, -36716.6, -0.04243509, 0.030604241, -923917.0, 162490.67, 0.0000000057994387, 10.00045, 10.000882 
2.6679322e+3, 1.9913775e+2, -612540.94, -897335.56, -81232.984, -0.02758446, 0.011777019, -590999.9, 397453.75, 0.0, 10.002964, 9.999446 
2.6676005e+3, 2.0913345e+2, -526071.44, -696905.44, -87314.17, 0.045686394, 0.13726406, -489341.7, 401160.94, 0.0, 10.002694, 10.00013 
2.6672694e+3, 2.1912904e+2, -595641.5, -764927.2, -175453.22, 0.12033427, 0.18925779, -485481.25, 307071.94, 0.0, 10.001651, 9.999628 
2.6669353e+3, 2.2912472e+2, -457978.4, -411309.5, -182849.45, 0.120063774, 0.2054556, -250311.6, 444282.53, 0.0, 10.001096, 10.001549 
2.6666006e+3, 2.3912035e+2, -520486.63, -577256.25, -54084.23, 0.082813166, 0.1518468, -487791.16, 108843.38, 0.0, 10.000564, 10.00012 
2.6662672e+3, 2.4911611e+2, -579149.8, -449994.16, 29618.645, -0.059476912, 0.22252916, -443525.78, 55151.395, 0.0, 9.999221, 10.000856 
2.665934e+3, 2.5911176e+2, -757350.0, -657415.6, -9544.783, -0.2532608, 0.24185078, -656512.1, -255790.36, 0.0, 9.997894, 9.999494 
2.6655993e+3, 2.6910532e+2, -259608.6, -279498.2, -89291.78, -0.31192684, 0.16471608, -179709.52, 123076.484, 0.0, 10.000476, 10.000045 
2.6652652e+3, 2.7909848e+2, 175720.92, -139721.22, -75601.1, -0.26523736, 0.0042563993, 192904.02, 397757.22, 0.0, 10.003126, 9.999172 
2.6649326e+3, 2.89096e+2, -70771.2, -78965.336, -26135.926, -0.09925529, 0.32512978, -48413.164, 58466.543, 0.0, 10.000373, 10.000162 
2.6645994e+3, 2.9909366e+2, -516654.03, -333950.5, -17111.299, -0.011112001, 0.6076058, -332361.75, -323456.94, 0.0, 9.996834, 9.99956 
2.6642653e+3, 3.0908132e+2, 25694.54, 198404.64, -111299.73, 0.18791667, -0.16625357, 252921.25, 252921.25, 0.0, 9.999369, 10.001553 
2.6639247e+3, 3.1907925e+2, 195479.67, -158775.77, 100627.445, -0.35533008, 0.10382129, 222067.72, 222067.72, 0.0, 10.002049, 9.997904 
2.680257e+3, 1.2950887e+2, -1600687.3, -1699023.0, 299230.3, 0.3991195, 0.09263694, -1346612.3, 324197.8, 0.05267765, 10.000942, 9.999544 
2.679927e+3, 1.395052e+2, -1352645.5, -1614056.8, 60366.41, -0.09606129, 0.22079596, -1339378.8, 233476.44, 0.03242507, 10.002311, 9.998871 
2.6795945e+3, 1.4950022e+2, -1054450.1, -1101224.0, -123932.766, 0.0806662, 0.19133747, -951716.94, 523178.44, 0.015032841, 10.002444, 10.001543 
2.6792625e+3, 1.5949452e+2, -1297187.6, -1489600.9, -64795.004, 0.4147249, 0.010805406, -1277402.4, 99538.93, 0.0044764117, 10.001284, 9.998868 
2.6789266e+3, 1.6948782e+2, -1342646.1, -1460685.3, 5853.9116, 0.19996129, 0.025471883, -1342356.5, -63342.324, 0.00066900725, 10.000497, 9.998635 
2.678591e+3, 1.794811e+2, -1553627.1, -1659768.6, 24604.295, -0.06399643, 0.014419277, -1548201.0, -367111.4, 0.000027210404, 9.998834, 9.997531 
2.6782617e+3, 1.894748e+2, -1070277.8, -1167373.8, 56123.902, 0.09780798, 0.061437707, -1044617.94, 38537.055, 0.000000001728097, 10.000766, 9.999181 
2.677933e+3, 1.9946879e+2, -932979.1, -1249120.5, -41814.7, 0.32466096, 0.07208627, -927542.0, 57674.62, 0.0, 10.001719, 9.997611 
2.6775983e+3, 2.09463e+2, -752483.6, -931080.56, -81770.66, 0.1228267, 0.16788463, -720700.94, 166579.31, 0.0, 10.001726, 9.998956 
2.6772633e+3, 2.1945757e+2, -890356.06, -927279.06, -149256.98, -0.11486212, 0.20629334, -758423.2, 30916.344, 0.0, 9.9998, 9.999404 
2.6769283e+3, 2.2945453e+2, -411118.5, -168572.7, -180575.7, -0.1211006, 0.19676998, -72326.17, 619037.6, 0.0, 10.000501, 10.003477 
2.676594e+3, 2.3945172e+2, -666703.4, -594788.5, -109039.1, -0.07798222, 0.117704436, -515931.06, 77452.66, 0.0, 9.999448, 10.00052 
2.67626e+3, 2.4944666e+2, -640600.4, -453522.4, -48218.492, -0.16523989, 0.06984158, -441825.66, 53602.645, 0.0, 9.998853, 10.0009 
2.675926e+3, 2.594413e+2, -969479.56, -826722.06, 16.381071, -0.28337964, -0.03692868, -826722.06, -429244.34, 0.0, 9.996871, 9.998785 
2.6755944e+3, 2.6943612e+2, -352059.13, -340863.56, 23595.236, -0.29882854, 0.037386, -322211.2, -22678.14, 0.0, 9.999995, 9.999811 
2.6752633e+3, 2.79431e+2, -23579.396, -239797.3, -89424.84, -0.24517143, 0.039826192, 8612.573, 210201.13, 0.0, 10.001863, 9.999089 
2.674927e+3, 2.894277e+2, -75381.586, 79070.58, -202465.67, -0.116933614, 0.16951343, 218538.31, 322157.63, 0.0, 9.999723, 10.001522 
2.6745903e+3, 2.9942438e+2, -697702.2, -413899.9, -50772.97, -0.06329676, 0.22486895, -405089.97, -399441.0, 0.0, 9.995673, 9.999557 
2.6742575e+3, 3.0941534e+2, -93332.61, 26390.188, 23045.27, 0.0143339485, -0.16209246, 30672.936, 30672.936, 0.0, 9.999152, 10.000424 
2.673927e+3, 3.1941044e+2, 154216.86, -67293.28, 262742.3, 0.072218426, -0.11609727, 328593.7, 328593.7, 0.0, 10.0015, 9.998749 
2.6902524e+3, 1.2983811e+2, -1404521.9, -1668229.3, 202699.53, 0.0747137, -0.14861266, -1294564.8, 373009.38, 0.043619107, 10.002686, 9.998809 
2.6899263e+3, 1.3983269e+2, -1666346.0, -1776894.4, 57149.977, 0.19126262, -0.1605472, -1642113.3, -72478.23, 0.026486209, 10.000143, 9.998782 
2.6895922e+3, 1.4982821e+2, -1237278.1, -1186756.3, -119585.195, 0.21155746, -0.14782934, -1089793.0, 381881.22, 0.012009438, 10.001124, 10.0016 
2.6892582e+3, 1.5982366e+2, -1174533.4, -1421612.9, -118914.16, 0.28244066, -0.21161947, -1126601.1, 247112.86, 0.003455713, 10.002012, 9.999002 
2.6889238e+3, 1.6981916e+2, -1049761.6, -1318725.6, -74727.08, 0.2673418, -0.001384317, -1030394.56, 245373.1, 0.00049606664, 10.002404, 9.998729 
2.6885894e+3, 1.798143e+2, -1062558.1, -1430527.8, -2754.3555, 0.14318047, 0.17208596, -1062537.5, 115288.93, 0.00001910138, 10.002123, 9.997548 
2.688258e+3, 1.8980686e+2, -857262.8, -1110475.1, 63059.707, 0.07016018, 0.12570286, -842427.6, 237475.16, 0.0000000002885943, 10.002326, 9.998854 
2.687927e+3, 1.9979984e+2, -819952.9, -1081534.5, -9594.499, 0.023835555, 0.051728178, -819601.44, 162372.19, 0.0, 10.001893, 9.998693 
2.687593e+3, 2.0979543e+2, -771455.1, -735651.8, 20859.422, 0.001407686, 0.1254441, -726065.56, 157952.23, 0.0, 10.000617, 10.00087 
2.6872584e+3, 2.197913e+2, -932022.6, -932656.75, 101080.23, -0.062571466, 0.18191299, -831258.94, -45199.203, 0.0, 9.999328, 9.999613 
2.6869237e+3, 2.2978635e+2, -547684.56, -529222.56, -48333.363, -0.1073852, 0.1889703, -489246.6, 198862.2, 0.0, 10.000708, 10.000969 
2.6865894e+3, 2.397817e+2, -291504.88, -447443.4, -199127.17, -0.1411627, 0.14549752, -155626.45, 434526.38, 0.0, 10.002032, 10.00033 
2.686255e+3, 2.4977635e+2, -158812.1, -165894.94, -184779.5, -0.1697393, 0.020111224, 22459.918, 514656.6, 0.0, 10.001778, 10.001567 
2.685921e+3, 2.597708e+2, -293022.03, -421812.06, -94759.44, -0.21028823, -0.13704063, -242847.98, 151395.4, 0.0, 10.000994, 9.999635 
2.6855898e+3, 2.697664e+2, -459850.13, -399241.44, -38958.008, -0.22054867, -0.01847689, -380189.13, -83895.72, 0.0, 9.999167, 9.999875 
2.6852584e+3, 2.7976224e+2, -608535.75, -430006.34, -173234.52, -0.18023427, 0.086112276, -324390.63, -126049.71, 0.0, 9.997323, 9.999987 
2.6849216e+3, 2.8975853e+2, -100378.76, 155906.66, -335820.22, -0.08152324, 0.073983565, 387202.1, 487573.63, 0.0, 9.9990425, 10.002401 
2.6845837e+3, 2.997547e+2, 64956.227, -21201.24, -165065.13, -0.01416053, 0.012921913, 192471.38, 194873.47, 0.0, 10.000674, 9.999844 
2.6842526e+3, 3.0974716e+2, 201620.97, 47307.61, -31013.814, 0.018138686, -0.16951159, 207620.83, 207620.83, 0.0, 10.00158, 9.999436 
2.6839265e+3, 3.1974107e+2, 192660.4, -14691.648, 114506.016, 0.34034383, -0.16179678, 243452.33, 243452.33, 0.0, 10.001446, 9.999154 
2.700249e+3, 1.3016824e+2, -1468141.4, -1740555.6, 56135.594, -0.039033957, -0.35200307, -1457027.1, 207305.13, 0.03555001, 10.002345, 9.998471 
2.6999247e+3, 1.4016125e+2, -1769204.6, -1874502.1, 9172.596, 0.57671857, -0.47456512, -1768411.5, -202006.25, 0.021269772, 9.9995985, 9.998416 
2.6995897e+3, 1.5015666e+2, -1273617.1, -1230366.9, -50328.105, 0.39133713, -0.4550709, -1197214.6, 271235.28, 0.009415533, 10.001, 10.001356 
2.6992545e+3, 1.6015254e+2, -1220892.8, -1484002.6, -85902.516, 0.22838177, -0.43558118, -1195330.0, 175160.75, 0.0026134893, 10.001905, 9.998619 
2.698922e+3, 1.7015015e+2, -1024093.5, -1277944.5, -81919.32, 0.3719102, -0.027641887, -999953.25, 272572.38, 0.0003600524, 10.002515, 9.998905 
2.6985893e+3, 1.8014717e+2, -1152556.3, -1488091.8, -10468.911, 0.45871902, 0.32095474, -1152230.0, 22336.322, 0.000012952271, 10.001662, 9.997343 
2.6982543e+3, 1.9013898e+2, -939182.7, -1135232.8, 72398.375, 0.022500103, 0.18546021, -915345.4, 161303.38, 0.000000000007316074, 10.001811, 9.99888 
2.6979196e+3, 2.0013118e+2, -949880.44, -1025002.2, -33968.906, -0.3617738, 0.0010403475, -936798.44, 41926.367, 0.0, 10.000555, 9.999737 
2.697587e+3, 2.1012919e+2, -620962.44, -351180.34, -91242.71, -0.118722744, 0.06439562, -323219.22, 557518.5, 0.0, 10.0003605, 10.003614 
2.6972544e+3, 2.2012708e+2, -1139273.4, -1194150.9, 17106.678, 0.16274986, 0.13889512, -1134377.5, -351623.7, 0.0, 9.998736, 9.998072 
2.6969203e+3, 2.3011917e+2, -947309.3, -1222748.0, -14788.249, 0.041932154, 0.20698094, -946517.6, -261675.22, 0.0, 10.000307, 9.996291 
2.696586e+3, 2.4011122e+2, -706282.06, -918833.0, -156742.63, -0.10772289, 0.22643258, -623183.0, -36253.184, 0.0, 10.000483, 9.997808 
2.696252e+3, 2.5010574e+2, -215987.08, -90167.29, -203812.84, -0.09611686, 0.068982154, 60223.848, 549197.25, 0.0, 10.001032, 10.002396 
2.695918e+3, 2.6010078e+2, -553710.25, -552938.94, -148691.53, -0.062487934, -0.10993807, -404632.56, -13620.963, 0.0, 9.999392, 9.999465 
2.6955846e+3, 2.700966e+2, -559376.4, -418801.88, -117353.67, -0.109445326, 0.011191256, -352296.66, -59236.72, 0.0, 9.998499, 9.999985 
2.6952508e+3, 2.8009275e+2, -781841.75, -512597.75, -162643.86, -0.14745231, 0.10875048, -436089.22, -240984.22, 0.0, 9.996294, 9.999884 
2.6949158e+3, 2.9008934e+2, -146789.03, 194436.56, -244533.27, -0.025227202, 0.09167804, 321993.6, 419122.34, 0.0, 9.998641, 10.002792 
2.69458e+3, 3.0008522e+2, -135537.33, -230322.81, -91283.57, 0.03771166, 0.0011371704, -80076.96, -80076.96, 0.0, 9.9999275, 9.998749 
2.6942492e+3, 3.1007603e+2, 72008.35, -146905.66, -11819.689, 0.033915352, -0.24039061, 72644.68, 72644.68, 0.0, 10.001367, 9.99817 
2.693918e+3, 3.200733e+2, -135711.22, -429680.0, 77043.22, -0.2210224, 0.23971511, -116743.61, -116743.61, 0.0, 10.000496, 9.996741 
2.7102494e+3, 1.3050362e+2, -1415454.3, -1395158.5, -170585.14, 0.21775827, 0.17755598, -1234419.6, 426651.16, 0.028414996, 10.001322, 10.001393 
2.7099144e+3, 1.4049791e+2, -1772877.4, -1744651.1, 34639.33, 0.08181518, -0.056824483, -1721360.1, -158241.64, 0.016713178, 9.999004, 9.999595 
2.7095821e+3, 1.5049301e+2, -1284163.5, -1243428.3, 77254.35, 0.025500152, -0.09348123, -1183901.8, 281262.28, 0.0071980846, 10.00095, 10.001284 
2.70925e+3, 1.6048796e+2, -1139628.9, -1459691.8, 7932.892, 0.0023110134, -0.1427805, -1139432.4, 227780.61, 0.0019202423, 10.002485, 9.998517 
2.708918e+3, 1.7048265e+2, -961864.94, -1280553.6, -30960.93, 0.19271185, 0.008212412, -958884.94, 310386.6, 0.00025324232, 10.003074, 9.998641 
2.7085856e+3, 1.8047741e+2, -971526.2, -1324502.6, 5031.626, 0.30334052, 0.15668938, -971454.5, 199874.64, 0.000008369746, 10.002516, 9.998063 
2.7082515e+3, 1.9047037e+2, -972661.3, -1061708.6, 82883.13, 0.10345609, 0.05737905, -923100.06, 150297.25, 0.0, 10.001179, 9.999703 
2.707917e+3, 2.0046377e+2, -1061501.3, -1110969.9, 17534.506, -0.15278573, -0.038542088, -1055916.5, -80456.55, 0.0, 9.999839, 9.999517 
2.707582e+3, 2.104602e+2, -602747.6, -581612.7, -176395.67, -0.15992126, 0.036372174, -415468.25, 462023.72, 0.0, 10.001377, 10.001624 
2.7072477e+3, 2.2045664e+2, -563996.0, -883543.44, -234189.25, -0.10186474, 0.10660712, -440269.72, 339254.88, 0.0, 10.002422, 9.998462 
2.7069166e+3, 2.3044892e+2, -690993.44, -983643.4, -78610.19, 0.079894654, 0.09237297, -671214.3, 10391.854, 0.0, 10.00149, 9.997421 
2.7065843e+3, 2.4044119e+2, -673523.1, -839103.56, -14481.573, 0.17633106, 0.07685073, -672266.1, -88578.17, 0.0, 10.000311, 9.998448 
2.7062482e+3, 2.5043663e+2, -492286.47, -316368.13, -117382.35, 0.021134878, 0.0793218, -257645.89, 228083.03, 0.0, 9.999474, 10.0016165 
2.7059117e+3, 2.6043263e+2, -608908.2, -505720.44, -135442.39, -0.11538302, 0.06751616, -412377.88, -24613.557, 0.0, 9.99861, 10.000156 
2.705578e+3, 2.7042836e+2, -431953.4, -274130.63, -88691.164, -0.12325122, 0.1025661, -234327.52, 55483.293, 0.0, 9.998916, 10.000808 
2.705244e+3, 2.8042394e+2, -276800.84, -206419.47, -79669.484, -0.08969101, 0.101387896, -154514.73, 37342.684, 0.0, 9.999362, 10.00052 
2.7049103e+3, 2.904195e+2, 156481.56, 269298.78, -167269.31, 0.023058195, 0.01857698, 389414.84, 483306.44, 0.0, 10.000955, 10.002244 
2.7045763e+3, 3.0041468e+2, 167262.9, -119721.27, -96039.086, 0.04793252, -0.06966745, 196436.64, 196436.64, 0.0, 10.002025, 9.998537 
2.7042452e+3, 3.1040683e+2, 176166.28, -167551.61, -12538.049, -0.0405677, -0.11455892, 176623.03, 176623.03, 0.0, 10.002283, 9.997652 
2.703912e+3, 3.2040495e+2, -35322.832, -383004.56, 64166.26, -0.42655364, 0.5258722, -23858.664, -23858.664, 0.0, 10.00106, 9.996825 
2.720248e+3, 1.3083903e+2, -1235856.5, -1039523.4, -102775.83, 0.45466226, 0.58299446, -995564.8, 662240.6, 0.022191226, 10.001383, 10.00387 
2.7199054e+3, 1.4083521e+2, -1562061.4, -1570079.0, 30402.832, -0.24705462, 0.3654119, -1535404.1, 24422.027, 0.01278431, 10.000114, 10.000282 
2.719575e+3, 1.5083025e+2, -1279440.3, -1267032.4, 128027.97, -0.2442826, 0.3168907, -1145058.1, 316812.47, 0.00532732, 10.001117, 10.00105 
2.7192461e+3, 1.6082434e+2, -1314395.5, -1587246.1, 5833.478, -0.079914056, 0.21488613, -1314270.9, 49655.668, 0.0013580795, 10.001557, 9.998083 
2.7189142e+3, 1.7081575e+2, -1077533.6, -1360420.0, -37372.48, 0.05156195, 0.047724187, -1072679.6, 193332.11, 0.00016970174, 10.002466, 9.998358 
2.7185813e+3, 1.8080771e+2, -1070112.0, -1365607.9, -15244.994, 0.17933744, -0.06463934, -1069327.6, 98763.36, 0.0000049540654, 10.001872, 9.9980955 
2.718249e+3, 1.9080217e+2, -840031.8, -901347.4, 9283.615, 0.28203952, -0.0999062, -838657.0, 231483.86, 0.0, 10.001696, 10.000523 
2.717916e+3, 2.0079675e+2, -1194920.3, -1410396.4, -1619.1937, 0.31329712, -0.0863067, -1194908.0, -222717.14, 0.0, 10.000063, 9.99731 
2.7175778e+3, 2.1079049e+2, -911474.7, -1116207.0, -91960.16, -0.1522793, 0.03248682, -876234.5, -1977.6268, 0.0, 10.001113, 9.997983 
2.717241e+3, 2.2078434e+2, -833892.56, -1020996.1, -166186.94, -0.4510667, 0.1065211, -736735.06, 39585.09, 0.0, 10.000727, 9.998322 
2.7169132e+3, 2.3077771e+2, -513054.88, -478770.53, -88467.54, 0.15385067, -0.09359652, -405799.66, 272578.78, 0.0, 10.000989, 10.001095 
2.7165836e+3, 2.4077184e+2, -850765.7, -906142.7, -50102.957, 0.6295348, -0.1981221, -821209.5, -240777.94, 0.0, 9.999179, 9.998493 
2.716243e+3, 2.5076887e+2, -698480.6, -618336.1, -143835.05, 0.13228023, 0.07957063, -509095.6, -26626.84, 0.0, 9.999043, 9.99969 
2.715903e+3, 2.60766e+2, -828862.0, -703328.94, -130163.3, -0.32662055, 0.33280683, -621589.0, -237084.97, 0.0, 9.997592, 9.999307 
2.7155703e+3, 2.7076137e+2, -414854.34, -124255.76, -71493.51, -0.2244614, 0.24667826, -107619.234, 178928.39, 0.0, 9.998543, 10.001989 
2.7152386e+3, 2.807561e+2, -514404.72, -432975.2, -48158.066, -0.07589805, 0.09350684, -410627.38, -222030.4, 0.0, 9.998318, 9.999466 
2.714905e+3, 2.9074878e+2, -38486.387, -30318.313, -122279.164, -0.053423762, -0.13163736, 87945.0, 178608.0, 0.0, 10.000559, 10.0003395 
2.7145708e+3, 3.007427e+2, -56927.813, -357338.47, -81860.12, -0.19555561, -0.18952331, -36069.64, -36069.64, 0.0, 10.001159, 9.997295 
2.7142403e+3, 3.107401e+2, 129692.234, -138213.44, -29869.598, -0.2353804, 0.26519388, 132982.08, 132982.08, 0.0, 10.001846, 9.997987 
2.7139074e+3, 3.2073024e+2, 5902.1563, -78089.89, 35963.39, -0.51585597, -0.007521767, 19196.56, 19196.56, 0.0, 10.000297, 9.999214 
2.7302378e+3, 1.311708e+2, -1513478.6, -1502575.3, -67577.31, -0.26594684, 0.15202709, -1440230.1, 214305.97, 0.016854262, 10.000959, 10.000768 
2.7299082e+3, 1.411665e+2, -1546934.8, -1765493.4, 37648.434, 0.3967664, 0.14870167, -1540631.3, 15945.763, 0.009467284, 10.001103, 9.998458 
2.7295753e+3, 1.5116078e+2, -1358412.8, -1423911.0, 117515.27, 0.16392672, 0.15017201, -1269168.6, 189463.66, 0.0037924994, 10.001105, 9.999962 
2.729243e+3, 1.611547e+2, -1394567.4, -1565391.0, -7121.7075, -0.028011963, 0.10181827, -1394270.9, -33579.688, 0.0009170214, 10.000733, 9.998612 
2.728911e+3, 1.7114836e+2, -1060512.0, -1200876.0, 9715.689, 0.08054041, 0.04744147, -1059842.8, 202910.88, 0.0001065257, 10.001908, 9.999727 
2.7285787e+3, 1.8114235e+2, -898451.94, -1210904.6, 47345.813, 0.14392522, 0.03565107, -891435.2, 273377.1, 0.0000025959862, 10.002674, 9.99878 
2.7282453e+3, 1.9113697e+2, -587807.75, -840399.44, 25914.607, 0.12354605, 0.05370975, -585176.44, 481686.97, 0.0, 10.0035715, 10.000116 
2.7279115e+3, 2.0113124e+2, -644921.4, -1077416.0, -30213.537, 0.07783286, 0.06502982, -642820.94, 326097.03, 0.0, 10.003456, 9.99797 
2.7275753e+3, 2.1112336e+2, -717480.6, -984195.56, 22143.896, -0.07751825, -0.011483729, -715654.7, 155340.48, 0.0, 10.002224, 9.998381 
2.7272397e+3, 2.2111611e+2, -698020.56, -875131.3, 83131.76, -0.19396873, -0.055023223, -665114.25, 107951.445, 0.0, 10.001199, 9.999101 
2.7269095e+3, 2.311107e+2, -407655.47, -400068.03, 40409.492, 0.17282608, -0.14703582, -363274.56, 311837.13, 0.0, 10.001493, 10.001415 
2.7265775e+3, 2.4110563e+2, -479374.4, -711784.25, -73451.1, 0.45640758, -0.18270029, -458107.0, 119049.84, 0.0, 10.001543, 9.998702 
2.726237e+3, 2.5110024e+2, -437420.9, -610843.75, -129137.03, 0.024404658, -0.054945704, -368584.13, 110634.766, 0.0, 10.001221, 9.998766 
2.7258968e+3, 2.6109564e+2, -334807.1, -431388.5, -62445.367, -0.3663695, 0.10977277, -304158.47, 77113.79, 0.0, 10.000707, 9.999692 
2.7255645e+3, 2.710924e+2, -111677.93, 22173.334, -50280.184, -0.25420186, 0.16397448, 38956.348, 322257.25, 0.0, 10.000531, 10.002087 
2.7252328e+3, 2.81088e+2, -232215.0, -341044.06, -57404.21, -0.074769214, 0.12647988, -207533.48, -22192.604, 0.0, 10.000298, 9.999172 
2.7249002e+3, 2.9107913e+2, -77742.836, -206840.16, -101323.46, -0.0695206, -0.13402995, -22154.184, 65273.293, 0.0, 10.000835, 9.999038 
2.7245668e+3, 3.0107233e+2, -47118.184, -296629.34, -50621.21, -0.20012785, -0.16973501, -37239.215, -37239.215, 0.0, 10.00087, 9.997861 
2.724236e+3, 3.110725e+2, -44730.96, -133786.25, 17934.83, -0.2412768, 0.48104027, -41254.76, -41254.76, 0.0, 10.000095, 9.998956 
2.7239034e+3, 3.2105893e+2, 1104.2043, 66364.516, 4152.5938, -0.41880953, -0.22390373, 66627.69, 66627.69, 0.0, 9.999368, 10.000747 
2.7402306e+3, 1.3150276e+2, -1789818.9, -1999656.1, -75261.2, -0.5799113, -0.26264548, -1765616.9, -114352.59, 0.012358515, 10.000614, 9.997475 
2.739912e+3, 1.4149733e+2, -1496623.0, -1955372.8, 11143.671, 1.155722, -0.084220275, -1496352.5, 56979.156, 0.0067449147, 10.002408, 9.996478 
2.7395758e+3, 1.514907e+2, -1242395.5, -1484549.9, 106712.06, 0.6158287, -0.0769855, -1202081.4, 253317.14, 0.0025850076, 10.002391, 9.9988985 
2.7392405e+3, 1.614847e+2, -1251901.1, -1446120.5, 28907.447, 0.14382601, -0.061012417, -1247689.9, 109768.234, 0.0005889778, 10.00151, 9.9990425 
2.7389088e+3, 1.7148131e+2, -921435.7, -985830.6, 22373.541, 0.20673703, 0.04196344, -914425.4, 345066.22, 0.00006228534, 10.002203, 10.001072 
2.7385768e+3, 1.8147787e+2, -1045951.6, -1313285.0, 21976.162, 0.22815286, 0.21074408, -1044157.1, 117368.945, 0.0000011486238, 10.001872, 9.998445 
2.738241e+3, 1.9147272e+2, -843868.2, -1031719.4, 8780.343, -0.08079674, 0.28457692, -843458.7, 220121.14, 0.0, 10.002218, 9.999381 
2.7379057e+3, 2.0146672e+2, -927896.8, -1151219.1, -70349.6, -0.24020132, 0.29593822, -907583.44, 58055.49, 0.0, 10.001354, 9.998452 
2.7375737e+3, 2.1145765e+2, -747696.44, -809749.25, -56246.273, 0.10984209, -0.072160654, -714486.7, 153232.23, 0.0, 10.001207, 10.000059 
2.737241e+3, 2.2144973e+2, -973983.6, -1083240.8, 45109.76, 0.36050698, -0.2794869, -957766.1, -187976.84, 0.0, 9.999718, 9.99837 
2.736905e+3, 2.3144588e+2, -635163.4, -657271.25, 20751.053, 0.14478764, -0.12202357, -622705.7, 49120.277, 0.0, 10.000681, 9.999984 
2.7365687e+3, 2.4144103e+2, -792573.8, -1032687.2, -96630.625, -0.048327684, 0.00941978, -758516.6, -184643.16, 0.0, 10.000215, 9.99713 
2.7362302e+3, 2.514309e+2, -538668.75, -698136.44, -153707.48, -0.18758963, -0.30747285, -445245.2, 30731.55, 0.0, 10.000774, 9.998329 
2.7358922e+3, 2.6142302e+2, -585167.06, -677862.7, -71849.375, -0.31874758, -0.4195384, -546013.7, -167956.14, 0.0, 9.999672, 9.998459 
2.735559e+3, 2.7142215e+2, -243570.03, -139086.4, -59866.145, -0.28404254, -0.06908711, -111872.805, 168192.14, 0.0, 10.000107, 10.001137 
2.7352268e+3, 2.8141978e+2, -505827.9, -645007.44, -45944.848, -0.1925684, 0.20991196, -492029.03, -309940.63, 0.0, 9.999317, 9.997516 
2.7348968e+3, 2.9141074e+2, -195090.16, -347509.72, -75520.88, -0.016736973, 0.002153029, -164009.05, -79825.805, 0.0, 10.000528, 9.998162 
2.7345645e+3, 3.014036e+2, -171450.23, -324299.4, -71920.84, -0.026247326, -0.012107233, -142930.44, -142930.44, 0.0, 10.000021, 9.998056 
2.7342308e+3, 3.1140354e+2, -35770.13, 70499.96, -18308.148, -0.22825444, 0.4331318, 73565.64, 73565.64, 0.0, 9.999451, 10.000583 
2.7339008e+3, 3.2139468e+2, -276290.28, -254016.47, 81094.51, -0.13353048, 0.12877198, -183297.7, -183297.7, 0.0, 9.9984665, 9.998912 
2.7502322e+3, 1.3183616e+2, -1861640.5, -2043482.0, -43784.87, -0.025885573, -0.19485107, -1851646.9, -203643.84, 0.008685325, 10.000131, 9.997445 
2.749904e+3, 1.4183211e+2, -1268737.1, -1776075.9, 71555.39, 0.46146518, 0.09845638, -1258838.0, 291221.34, 0.004592608, 10.00365, 9.997115 
2.7495712e+3, 1.5182565e+2, -976042.0, -1289493.0, 162915.19, 0.28572187, 0.057081375, -906705.0, 545415.4, 0.0016782222, 10.003896, 9.999545 
2.7492386e+3, 1.6181928e+2, -1041392.2, -1394077.4, 92215.375, 0.119359374, 0.026137589, -1018736.3, 335444.53, 0.0003582281, 10.003158, 9.998597 
2.748906e+3, 1.7181407e+2, -935343.6, -1128865.5, 19813.293, 0.16227973, 0.065753154, -933335.9, 322896.94, 0.000033741435, 10.00269, 9.999853 
2.748573e+3, 1.8180937e+2, -1086858.0, -1331051.9, -73872.6, 0.12964578, 0.1961491, -1066249.6, 92031.76, 0.00000040337267, 10.001543, 9.998469 
2.7482373e+3, 1.9180462e+2, -1112323.0, -1156134.9, -72821.67, -0.041251343, 0.3015358, -1058183.8, 2151.086, 0.0, 10.000299, 9.999465 
2.747902e+3, 2.0179959e+2, -1137125.5, -1133519.6, -127875.29, -0.12998421, 0.37775013, -1007434.56, -45047.703, 0.0, 9.999294, 9.999588 
2.7475694e+3, 2.1179259e+2, -842856.1, -744318.25, -109983.3, 0.16622993, 0.108608454, -673072.6, 191372.75, 0.0, 9.999924, 10.001202 
2.7472362e+3, 2.2178595e+2, -831460.56, -962145.0, -20417.977, 0.35344562, -0.05981768, -828344.8, -61842.215, 0.0, 10.000338, 9.998934 
2.7469e+3, 2.3178104e+2, -634755.75, -743764.94, -4623.8584, 0.089727424, 0.05114708, -634560.0, 33992.53, 0.0, 10.000902, 9.999368 
2.7465633e+3, 2.4177565e+2, -555301.56, -835394.25, -94357.58, -0.16253255, 0.16315182, -526480.1, 44127.527, 0.0, 10.001364, 9.997947 
2.7462262e+3, 2.5176704e+2, -324286.66, -554897.6, -121897.93, -0.19389997, -0.03043282, -271799.22, 200894.72, 0.0, 10.002002, 9.998766 
2.7458897e+3, 2.6175928e+2, -182199.56, -476429.9, -23621.045, -0.22057575, -0.13410321, -180315.31, 194455.44, 0.0, 10.00227, 9.99862 
2.745555e+3, 2.717553e+2, -57010.96, -174128.75, -47470.3, -0.25580028, 0.010160585, -40187.008, 236619.38, 0.0, 10.001805, 10.000133 
2.745222e+3, 2.8175092e+2, -247826.67, -517867.47, -31871.82, -0.21780753, 0.17656824, -244115.97, -65267.918, 0.0, 10.00097, 9.997615 
2.744892e+3, 2.9174268e+2, -263413.44, -396454.75, -21266.418, 0.011101014, 0.088347785, -260096.73, -179161.73, 0.0, 10.000087, 9.998085 
2.74456e+3, 3.0173576e+2, -200717.5, -239805.98, 4554.0903, 0.065398954, 0.09496971, -200193.94, -200193.94, 0.0, 9.999279, 9.999031 
2.7442253e+3, 3.117336e+2, 114340.41, 223608.75, -27047.867, -0.20208456, 0.27949908, 229937.52, 229937.52, 0.0, 10.000002, 10.00144 
2.743897e+3, 3.217295e+2, -358388.13, -307372.06, 27240.664, 0.16411124, 0.417166, -295561.03, -295561.03, 0.0, 9.997788, 9.998899 
2.760233e+3, 1.3217087e+2, -1757152.6, -1900166.4, 198426.23, 0.51994354, -0.029784719, -1617742.0, 26989.773, 0.005822727, 10.000487, 9.998221 
2.7598965e+3, 1.4216845e+2, -1299049.6, -1725306.1, 136446.11, -0.13083132, 0.37105772, -1259114.3, 287657.22, 0.002969682, 10.003207, 9.997668 
2.7595666e+3, 1.5216178e+2, -1031093.56, -1229616.5, 137591.94, -0.014547736, 0.23287044, -960695.44, 488135.7, 0.0010279784, 10.003228, 10.000241 
2.7592367e+3, 1.6215476e+2, -1258196.4, -1628543.0, 51062.785, 0.15326698, 0.13917558, -1251284.9, 99609.99, 0.0002033788, 10.002235, 9.997451 
2.758903e+3, 1.7214715e+2, -1126071.3, -1407766.0, 29406.47, 0.11850965, 0.082234055, -1123034.3, 129936.91, 0.000016580547, 10.002184, 9.998186 
2.7585688e+3, 1.8214053e+2, -1206960.9, -1449551.9, -35456.676, 0.10299511, 0.14990406, -1201884.9, -46844.61, 0.00000009587778, 10.001062, 9.99788 
2.758234e+3, 1.9213577e+2, -1093633.8, -1122880.8, -77610.15, 0.15856119, 0.24419059, -1029281.4, 27815.475, 0.0, 10.000384, 9.999643 
2.7578995e+3, 2.0213163e+2, -1153281.3, -1107740.6, -75228.805, 0.20110793, 0.39761087, -1051911.5, -92768.69, 0.0, 9.999121, 9.999843 
2.757564e+3, 2.1212786e+2, -774262.3, -605157.6, -85752.586, 0.19739863, 0.3543136, -569283.2, 291888.6, 0.0, 10.000046, 10.002048 
2.7572292e+3, 2.2212332e+2, -985580.1, -1068329.9, -2640.022, 0.19377957, 0.35242167, -985496.0, -222285.17, 0.0, 9.9996, 9.998512 
2.756895e+3, 2.3211628e+2, -716080.4, -804091.6, 16755.924, 0.07271126, 0.25279045, -712998.25, -47714.2, 0.0, 10.000571, 9.999055 
2.7565604e+3, 2.4211052e+2, -759435.5, -941989.75, -77597.734, -0.038150225, 0.3556116, -730908.94, -163564.13, 0.0, 10.000176, 9.997736 
2.7562237e+3, 2.5210708e+2, -386865.53, -506375.06, -105480.36, -0.07478172, 0.58845913, -325390.2, 143991.03, 0.0, 10.001317, 9.999375 
2.7558872e+3, 2.6210156e+2, -469341.03, -758868.44, -36425.14, -0.123457216, 0.7051446, -464828.75, -93393.41, 0.0, 10.001047, 9.997257 
2.755552e+3, 2.7209076e+2, -262554.53, -421835.9, -85325.086, -0.19168594, 0.29044294, -225477.58, 48055.93, 0.0, 10.001205, 9.99867 
2.7552179e+3, 2.8208134e+2, -471629.84, -690853.56, -83756.4, -0.19540042, 0.07287881, -443292.8, -267672.94, 0.0, 9.999845, 9.996951 
2.7548856e+3, 2.9207495e+2, -332072.25, -389231.3, -66625.94, -0.08804407, 0.1219082, -288154.84, -210472.64, 0.0, 9.999497, 9.998398 
2.7545527e+3, 3.0206874e+2, -386077.16, -374735.53, -2400.7656, -0.09021749, 0.19445202, -374248.28, -374248.28, 0.0, 9.998322, 9.998546 
2.7542213e+3, 3.1206223e+2, 3150.509, 127914.87, -6447.5835, -0.093915425, -0.041042577, 128247.18, 128247.18, 0.0, 9.999512, 10.000988 
2.7538854e+3, 3.220611e+2, -375347.34, 4923.7656, -155909.17, -0.31651568, 0.30760714, 60672.734, 60672.734, 0.0, 9.996525, 10.001581 
2.7702263e+3, 1.3250771e+2, -1754385.4, -1773055.0, 296268.25, 0.20086819, 0.16616529, -1467304.9, 174128.2, 0.0036892202, 10.000063, 9.999244 
2.769901e+3, 1.4250407e+2, -1457089.3, -1872854.8, 206962.45, 0.4714904, 0.4014139, -1371631.4, 171847.22, 0.0018042208, 10.002459, 9.996992 
2.769565e+3, 1.524962e+2, -1265394.9, -1498309.9, 124688.11, 0.06904699, 0.2717545, -1211237.4, 234318.56, 0.00058557204, 10.002288, 9.99884 
2.769231e+3, 1.624888e+2, -1248411.6, -1503186.9, 10998.739, -0.14835083, 0.18861635, -1247937.6, 99689.65, 0.00010501939, 10.001723, 9.998569 
2.7688983e+3, 1.7248239e+2, -1029606.56, -1171426.8, 107750.9, -0.027740695, 0.090136096, -971526.3, 278161.0, 0.0000068884756, 10.001941, 9.999975 
2.7685648e+3, 1.8247649e+2, -1084637.0, -1330641.5, 92790.31, 0.057283044, 0.121193044, -1053562.6, 98183.1, 0.00000000965895, 10.001596, 9.998451 
2.7682295e+3, 1.9247103e+2, -969192.1, -1104083.6, 75803.81, 0.121393785, 0.1896547, -935172.9, 118634.516, 0.0, 10.001348, 9.999354 
2.7678943e+3, 2.0246588e+2, -897666.94, -1041557.2, 65106.95, 0.1360078, 0.3012127, -872581.06, 83282.35, 0.0, 10.001068, 9.999362 
2.767559e+3, 2.1246092e+2, -590317.1, -669247.3, -6349.6226, 0.11080475, 0.28832877, -589809.56, 268100.44, 0.0, 10.001913, 10.000747 
2.767224e+3, 2.2245614e+2, -532683.06, -784639.3, -23441.555, 0.059572857, 0.3397423, -530520.6, 229435.08, 0.0, 10.002327, 9.999177 
2.7668905e+3, 2.3245062e+2, -466712.28, -619977.94, 36063.902, -0.013278633, 0.35280478, -458650.4, 203362.69, 0.0, 10.001916, 9.9997425 
2.766556e+3, 2.4244516e+2, -527204.0, -785363.6, -40412.715, -0.058589052, 0.44445664, -521025.6, 43044.32, 0.0, 10.001441, 9.99824 
2.7662206e+3, 2.5243995e+2, -406037.84, -577237.1, -116125.89, 0.0019631223, 0.5613788, -347372.03, 118751.375, 0.0, 10.001328, 9.998949 
2.7658847e+3, 2.6243386e+2, -402217.53, -718687.56, -88403.375, 0.0063649057, 0.65708286, -379197.25, -11013.683, 0.0, 10.001387, 9.997371 
2.7655494e+3, 2.7242398e+2, -109276.83, -423000.84, -86789.36, -0.13059725, 0.39857543, -86867.86, 183407.38, 0.0, 10.002482, 9.998103 
2.765214e+3, 2.8241462e+2, 4577.711, -409387.66, -69267.0, -0.19419271, 0.2185843, 15860.345, 188222.11, 0.0, 10.002755, 9.997494 
2.76488e+3, 2.9240763e+2, -7277.356, -235059.5, -92449.11, -0.15351795, 0.19567497, 25521.768, 99947.45, 0.0, 10.001515, 9.998564 
2.7645463e+3, 3.0240095e+2, -188711.64, -276101.53, -20981.217, -0.12293914, 0.21361065, -183935.36, -183935.36, 0.0, 9.99952, 9.998651 
2.7642167e+3, 3.1239367e+2, -377663.97, -120867.55, -48534.977, 0.12451714, -0.043729696, -112000.52, -112000.52, 0.0, 9.9971, 10.000441 
2.7638754e+3, 3.2239142e+2, 53063.473, 286413.4, -310830.94, -0.5664857, 0.2128566, 501745.84, 501745.84, 0.0, 9.999022, 10.0023 
2.780221e+3, 1.3284329e+2, -1303443.8, -1478463.9, 341039.06, 0.08461848, 0.2543568, -1038866.25, 599276.94, 0.0021710019, 10.002825, 9.999932 
2.7799052e+3, 1.4283812e+2, -1433995.6, -1969987.1, 92701.086, 1.1938211, 0.32274565, -1418415.6, 121783.63, 0.0010072378, 10.002997, 9.996118 
2.7795634e+3, 1.5282992e+2, -1372732.6, -1703946.5, 61119.203, 0.20066035, 0.25899103, -1361814.1, 80472.91, 0.00030058212, 10.002117, 9.997575 
2.779225e+3, 1.6282283e+2, -1277696.1, -1350937.6, 35009.91, -0.36009854, 0.23655625, -1263653.5, 80705.74, 0.000046417692, 10.000838, 10.000044 
2.778894e+3, 1.7281845e+2, -967288.4, -877315.75, 63939.395, -0.076253295, 0.097856134, -844122.7, 402272.47, 0.0000020738605, 10.001275, 10.002306 
2.7785614e+3, 1.8281382e+2, -1183717.5, -1379162.9, 34387.035, 0.10181099, 0.12233948, -1177844.0, -29407.371, 0.00000000000031198744, 10.00099, 9.998385 
2.7782246e+3, 1.928078e+2, -948929.06, -1123914.6, 2269.7493, 0.048559766, 0.12995581, -948899.6, 101600.27, 0.0, 10.001705, 9.998992 
2.7778888e+3, 2.0280129e+2, -1032593.44, -1355372.4, 56282.277, 0.035478376, 0.20895208, -1023061.1, -70492.6, 0.0, 10.0013275, 9.997055 
2.7775547e+3, 2.1279314e+2, -799372.0, -1028811.2, -7449.884, 0.038155634, 0.08821513, -799130.4, 55522.71, 0.0, 10.001691, 9.998349 
2.7772206e+3, 2.2278714e+2, -775426.94, -925472.7, -30155.127, 0.021807428, 0.17901726, -769593.4, -12878.461, 0.0, 10.000852, 9.998893 
2.7768856e+3, 2.3278464e+2, -544763.9, -537706.9, -2877.7107, -0.09535846, 0.37592, -536682.2, 122057.29, 0.0, 10.00095, 10.00072 
2.7765512e+3, 2.4277957e+2, -812341.5, -1040008.5, -67926.49, -0.110611856, 0.4875081, -793615.25, -232826.11, 0.0, 10.000134, 9.997095 
2.7762172e+3, 2.5276813e+2, -571191.6, -782239.06, -132433.77, 0.08487193, 0.08018401, -507381.5, -44479.605, 0.0, 10.000874, 9.997726 
2.7758822e+3, 2.6275942e+2, -614715.6, -879886.25, -54297.797, 0.15043268, 0.024010098, -604028.06, -239039.8, 0.0, 10.000355, 9.996704 
2.7755463e+3, 2.7275592e+2, -214363.94, -455451.16, -41502.48, -0.112589546, 0.37222558, -207419.44, 59604.906, 0.0, 10.001793, 9.998157 
2.7752107e+3, 2.827504e+2, -194044.25, -516547.94, -106608.78, -0.28271842, 0.5842882, -161989.11, 7088.091, 0.0, 10.001601, 9.997276 
2.7748755e+3, 2.9274023e+2, -118304.95, -264343.9, -134923.86, -0.2200151, 0.20987894, -37909.004, 33261.168, 0.0, 10.000822, 9.998621 
2.7745405e+3, 3.0273262e+2, -412955.16, -480251.44, -111687.84, -0.15146255, 0.17549679, -329956.97, -329956.97, 0.0, 9.998576, 9.997664 
2.7742097e+3, 3.127293e+2, -607857.0, -316985.84, -152796.52, 0.28968278, 0.37215158, -251475.28, -251475.28, 0.0, 9.996029, 9.999573 
2.7738726e+3, 3.2271722e+2, -324831.5, -354067.75, 115812.766, -0.3436841, -0.12166973, -222717.94, -222717.94, 0.0, 9.998591, 9.998093 
2.790221e+3, 1.331702e+2, -1158548.6, -1646285.5, 219492.05, 0.021183055, -0.19927998, -1074318.8, 560611.2, 0.0011675075, 10.004816, 9.997846 
2.7898985e+3, 1.4316685e+2, -1200146.3, -1654820.3, -73426.29, 0.5745307, 0.11838346, -1188582.6, 348392.75, 0.00050489604, 10.00374, 9.997918 
2.789558e+3, 1.5316163e+2, -1232017.9, -1324285.5, 12460.616, -0.021546373, 0.0786225, -1230364.8, 208666.53, 0.00013439951, 10.001748, 10.000359 
2.789221e+3, 1.6315708e+2, -1354759.3, -1349490.4, 77985.97, -0.3025155, 0.1381142, -1274094.4, 66985.484, 0.000016423304, 10.000115, 10.000403 
2.78889e+3, 1.7315397e+2, -1118952.9, -1008873.6, 58213.156, -0.025482176, 0.18104677, -983800.0, 259311.3, 0.0000003300107, 10.000449, 10.001812 
2.7885574e+3, 1.831501e+2, -1116689.6, -1295195.6, -19811.73, 0.074894294, 0.28560713, -1114517.3, 30632.008, 0.0, 10.001143, 9.998923 
2.7882215e+3, 1.9314368e+2, -652075.25, -950384.8, 774.6419, -0.04708838, 0.2360428, -652073.25, 395138.9, 0.0, 10.003496, 9.999401 
2.787886e+3, 2.0313668e+2, -636398.56, -1176816.0, -28458.834, -0.08723075, 0.2601208, -634904.06, 314378.66, 0.0, 10.004096, 9.9969225 
2.7875516e+3, 2.1312815e+2, -780494.06, -1125745.0, -34891.457, 0.037169334, 0.19952947, -777003.2, 74369.47, 0.0, 10.002276, 9.997405 
2.787217e+3, 2.2312123e+2, -736111.56, -892741.2, -10523.062, 0.06474223, 0.25693405, -735407.75, 18036.305, 0.0, 10.000931, 9.999103 
2.7868813e+3, 2.3311737e+2, -590037.56, -602624.5, -29565.795, -0.1033745, 0.35395777, -566102.9, 89377.73, 0.0, 10.000637, 10.0005 
2.7865466e+3, 2.431119e+2, -638611.06, -906983.56, -80075.15, -0.15635578, 0.42563182, -616534.75, -59000.965, 0.0, 10.001037, 9.997578 
2.7862135e+3, 2.531016e+2, -197191.81, -596030.6, -74119.99, 0.04363311, 0.14138608, -183862.83, 275773.6, 0.0, 10.003346, 9.997846 
2.785879e+3, 2.630929e+2, -63688.645, -580307.8, -32924.55, 0.101101406, 0.07329315, -61598.793, 300124.34, 0.0, 10.003846, 9.997116 
2.785542e+3, 2.7308825e+2, -343286.72, -561325.8, -57230.176, -0.17655651, 0.3532074, -329178.06, -65407.49, 0.0, 10.000922, 9.99793 
2.785206e+3, 2.8308266e+2, -502652.56, -566212.56, -93227.984, -0.27750966, 0.5429657, -435936.75, -270112.6, 0.0, 9.998942, 9.998228 
2.784872e+3, 2.930734e+2, -210599.92, -246446.6, -96865.47, -0.07415096, 0.22027746, -130013.54, -62106.37, 0.0, 9.999825, 9.99925 
2.7845365e+3, 3.0306602e+2, -111053.57, -372129.06, -63413.01, 0.031643406, 0.18852541, -96466.15, -96466.15, 0.0, 10.000657, 9.997439 
2.7842027e+3, 3.1306309e+2, 167388.34, -80321.73, -146035.98, 0.2665269, 0.5450586, 235018.5, 235018.5, 0.0, 10.001743, 9.998542 
2.783869e+3, 3.2304606e+2, -434954.03, -562088.25, 397208.97, -0.07889949, -0.28650716, -96257.86, -96257.86, 0.0, 9.998303, 9.996868 
2.8002214e+3, 1.3349904e+2, -1403919.9, -1983625.1, 363170.53, 0.095914945, -0.53586435, -1229114.3, 402587.3, 0.0005665633, 10.004026, 9.995903 
2.7998903e+3, 1.4349721e+2, -1274071.9, -1484249.5, 37280.87, -0.040384136, -0.032831807, -1267655.0, 266081.8, 0.00022570654, 10.002391, 9.999695 
2.7995527e+3, 1.5349433e+2, -1026144.7, -931199.2, -8353.682, -0.17139351, -0.09663512, -930469.8, 505296.78, 0.00005282333, 10.001929, 10.002933 
2.7992183e+3, 1.6349174e+2, -1307303.4, -1383834.4, 70000.6, -0.09919096, 0.03786696, -1265792.1, 72004.086, 0.000004777361, 10.000791, 9.999772 
2.7988866e+3, 1.7348956e+2, -1171277.5, -1164101.5, 56840.586, 0.10222514, 0.26305497, -1110735.8, 129092.18, 0.00000002399446, 10.0007, 10.000573 
2.798554e+3, 1.8348604e+2, -1166381.4, -1330410.4, 74126.695, 0.15027118, 0.4895423, -1137846.6, 4020.916, 0.0, 10.000952, 9.998738 
2.7982193e+3, 1.934794e+2, -687194.75, -900024.9, 74930.13, -0.058841694, 0.35523614, -663461.06, 380467.47, 0.0, 10.0030575, 9.999921 
2.797884e+3, 2.0347242e+2, -810593.25, -1334201.8, -64537.64, -0.10188276, 0.3859816, -802755.94, 143240.39, 0.0, 10.003259, 9.996243 
2.7975488e+3, 2.1346416e+2, -852847.56, -1213981.1, -97053.77, 0.12773412, 0.37714595, -828417.3, 19665.9, 0.0, 10.002023, 9.99691 
2.7972135e+3, 2.2345655e+2, -905032.2, -1061502.1, 8645.169, 0.20183973, 0.42929754, -904556.0, -154394.86, 0.0, 10.000327, 9.998178 
2.796877e+3, 2.3344937e+2, -700106.44, -729953.9, -30048.37, -0.03343997, 0.25336096, -681479.9, -29250.012, 0.0, 10.000354, 9.999715 
2.796542e+3, 2.4344358e+2, -782887.5, -980432.0, 6414.4844, -0.15425095, 0.35909262, -782679.44, -228392.06, 0.0, 10.000188, 9.997449 
2.7962103e+3, 2.5343883e+2, -311234.22, -568529.06, 24280.268, -0.07036135, 0.54467225, -308963.0, 147375.64, 0.0, 10.00231, 9.9984865 
2.7958754e+3, 2.634318e+2, -362170.94, -790478.75, -105921.77, -0.100154035, 0.63410974, -337407.88, 21001.873, 0.0, 10.002212, 9.996431 
2.7955356e+3, 2.734203e+2, -509362.06, -691560.56, -161791.47, -0.325896, 0.25643665, -414785.4, -154265.92, 0.0, 10.000113, 9.997382 
2.7951998e+3, 2.8341192e+2, -612251.3, -577345.9, -91822.734, -0.27677, 0.18828519, -501331.97, -338734.6, 0.0, 9.99814, 9.998505 
2.7948695e+3, 2.9340714e+2, -237289.8, -148860.88, -67636.76, 0.23374724, 0.20398176, -112269.09, -47632.766, 0.0, 9.999269, 10.000162 
2.7945346e+3, 3.0340123e+2, -320581.4, -582784.94, -43300.883, 0.26640865, 0.31584305, -313615.66, -313615.66, 0.0, 9.999872, 9.996297 
2.794195e+3, 3.1339362e+2, 6708.8013, -280421.06, -89441.93, -0.19478367, 0.29577473, 32290.99, 32290.99, 0.0, 10.001334, 9.997278 
2.793862e+3, 3.233832e+2, -444528.4, -171381.38, 91839.37, -0.1624039, 0.04597215, -143374.22, -143374.22, 0.0, 9.996853, 10.000113 
2.810223e+3, 1.3384153e+2, -1398113.0, -1703427.4, 317175.47, 0.32398415, -0.0925576, -1198769.5, 429592.5, 0.0002494511, 10.00286, 9.998409 
2.8098857e+3, 1.438386e+2, -1561187.9, -1686567.6, 186237.61, -0.15769458, 0.20416571, -1427372.1, 103023.47, 0.00009135431, 10.000721, 9.999109 
2.8095496e+3, 1.538342e+2, -1158738.0, -1187709.1, 113735.98, -0.19302376, 0.16606826, -1058568.8, 373876.25, 0.000018191195, 10.001822, 10.001256 
2.8092152e+3, 1.6382986e+2, -1127739.1, -1317235.8, 63778.434, -0.11874797, 0.24383332, -1108273.0, 226219.75, 0.000001253609, 10.002085, 9.99961 
2.8088817e+3, 1.7382595e+2, -1069039.1, -1142576.6, 100481.86, -0.004004843, 0.3342889, -998810.06, 237725.73, 0.0000000065346386, 10.001484, 10.000369 
2.8085497e+3, 1.8382108e+2, -1091422.1, -1272010.4, 166767.98, 0.04880372, 0.44714633, -992072.9, 146511.89, 0.0, 10.001369, 9.998913 
2.808218e+3, 1.9381365e+2, -715565.9, -942459.2, 182464.02, 0.032517985, 0.27053967, -614156.1, 426496.75, 0.0, 10.002952, 9.999691 
2.807884e+3, 2.0380649e+2, -659017.1, -1147423.6, -66158.87, 0.023675526, 0.2564364, -650214.0, 292507.34, 0.0, 10.003719, 9.997315 
2.8075457e+3, 2.13799e+2, -570217.25, -998165.6, -31283.814, 0.031270366, 0.26213112, -567942.44, 276855.2, 0.0, 10.003479, 9.997751 
2.8072086e+3, 2.2379157e+2, -490680.53, -890832.56, 114189.1, 0.019216571, 0.30837438, -460388.22, 286484.6, 0.0, 10.003236, 9.997961 
2.806874e+3, 2.3378357e+2, -318831.3, -654320.1, 89377.45, -0.0342156, 0.17430787, -296505.97, 352446.3, 0.0, 10.003367, 9.998808 
2.8065395e+3, 2.4377754e+2, -365940.63, -724425.0, 103061.625, -0.081006676, 0.29462266, -338423.38, 212590.89, 0.0, 10.002682, 9.998018 
2.8062063e+3, 2.5377432e+2, -498101.56, -641569.94, 103966.23, -0.09197174, 0.63077664, -443523.56, 9528.499, 0.0, 10.000794, 9.998773 
2.8058705e+3, 2.6376808e+2, -607715.3, -828274.6, -33204.004, -0.1451122, 0.7599258, -602825.06, -247709.58, 0.0, 10.000041, 9.997272 
2.8055316e+3, 2.737556e+2, -318324.13, -572580.5, -39304.08, -0.26661736, 0.28015894, -312386.97, -55154.125, 0.0, 10.00113, 9.997798 
2.8051957e+3, 2.8374618e+2, -90138.17, -362109.63, 75199.18, -0.1427623, 0.10732686, -70730.74, 88590.53, 0.0, 10.001719, 9.998316 
2.804866e+3, 2.9374152e+2, 88469.46, -111570.03, -38789.164, 0.36059257, 0.25572535, 95727.62, 157090.81, 0.0, 10.001838, 9.999276 
2.804531e+3, 3.037354e+2, -55942.734, -357649.34, -47845.313, 0.3382141, 0.3655215, -48537.094, -48537.094, 0.0, 10.001196, 9.997207 
2.8041893e+3, 3.1372622e+2, -100802.875, -268912.9, 27757.203, -0.34076256, 0.14968953, -96338.36, -96338.36, 0.0, 10.000208, 9.997948 
2.8038552e+3, 3.2372206e+2, -15609.098, 208584.39, -109496.27, -0.05901379, 0.43115604, 253188.36, 253188.36, 0.0, 9.998836, 10.001852 
2.8202233e+3, 1.34184e+2, -1304867.3, -1293442.8, 122712.35, 0.5834503, 0.30638096, -1176309.8, 448713.7, 0.00010706495, 10.002007, 10.001599 
2.8198826e+3, 1.4418082e+2, -1512880.1, -1831323.4, 89476.2, -0.035879225, 0.48270956, -1489461.3, 37585.3, 0.000035101017, 10.001849, 9.997552 
2.8195468e+3, 1.5417452e+2, -1358124.6, -1518517.0, 58337.313, -0.08375748, 0.44875592, -1339150.9, 89970.414, 0.0000055355054, 10.00156, 9.999086 
2.8192124e+3, 1.641685e+2, -1264650.8, -1412162.9, 34555.273, -0.053477224, 0.49414673, -1256957.3, 74228.43, 0.0000002527922, 10.001335, 9.999325 
2.818877e+3, 1.741626e+2, -1040002.2, -1126980.6, 35221.55, -0.0720826, 0.3796683, -1027528.3, 205711.22, 0.0, 10.001762, 10.000352 
2.818545e+3, 1.8415616e+2, -1081362.3, -1321442.8, 209239.11, 0.0014599044, 0.36160514, -960175.1, 175123.72, 0.0, 10.00171, 9.998411 
2.8182176e+3, 1.9414774e+2, -846935.0, -1073827.1, 221028.67, 0.23403567, 0.11738697, -711938.56, 325438.78, 0.0, 10.002346, 9.999095 
2.8178844e+3, 2.0414029e+2, -821615.9, -1134033.1, -80567.9, 0.24818984, 0.08889692, -802062.4, 137384.84, 0.0, 10.002356, 9.998 
2.817542e+3, 2.1413355e+2, -635001.6, -884700.3, -87435.55, -0.08246471, 0.017383873, -607429.4, 234082.75, 0.0, 10.002553, 9.998908 
2.817204e+3, 2.2412676e+2, -714987.3, -1117705.5, 90118.766, -0.21566808, 0.11908548, -695740.7, 47839.22, 0.0, 10.002324, 9.996807 
2.8168717e+3, 2.3411898e+2, -534960.2, -861347.56, 64960.75, -0.0264841, 0.07930314, -522506.25, 123154.36, 0.0, 10.0024605, 9.997768 
2.816538e+3, 2.4411301e+2, -569903.06, -849061.25, 28567.895, 0.028152276, 0.27996436, -567009.56, -19285.27, 0.0, 10.00154, 9.997675 
2.8162017e+3, 2.5410846e+2, -612616.9, -690722.1, 17332.299, -0.06765181, 0.45356345, -608943.44, -159168.55, 0.0, 10.0000925, 9.998735 
2.8158656e+3, 2.6410276e+2, -703058.2, -803018.2, -19869.262, -0.10221991, 0.62738186, -699253.5, -347421.25, 0.0, 9.999258, 9.997755 
2.815529e+3, 2.7409396e+2, -343977.84, -458036.78, 3719.3564, -0.06744466, 0.37785512, -343856.7, -89943.29, 0.0, 10.000557, 9.998792 
2.8151935e+3, 2.840853e+2, -421938.28, -812499.2, 72767.11, -0.0128033385, 0.36105096, -408821.25, -252823.89, 0.0, 10.00088, 9.995562 
2.8148606e+3, 2.940764e+2, -219821.3, -552631.4, -31280.41, 0.17002062, 0.33157498, -216906.81, -158817.69, 0.0, 10.001145, 9.996509 
2.8145245e+3, 3.0406877e+2, -23596.596, -115981.54, -98936.6, 0.10105314, 0.35911518, 39399.74, 39399.74, 0.0, 10.000544, 9.999166 
2.814186e+3, 3.1406176e+2, -82011.8, 59637.355, -589.03534, -0.13158636, 0.05514484, 59639.805, 59639.805, 0.0, 9.999036, 10.000748 
2.813848e+3, 3.24061e+2, -238993.27, -23654.26, -35833.59, -0.23412283, 0.5583283, -17847.914, -17847.914, 0.0, 9.99807, 10.000537 
2.8302157e+3, 1.3451928e+2, -1295398.6, -1014486.7, 112690.21, 0.08542252, 0.38895753, -974867.8, 646883.1, 0.000050593044, 10.000872, 10.00407 
2.8298822e+3, 1.4451659e+2, -1356992.4, -1760110.6, -70305.52, 0.13194591, 0.50585335, -1345082.6, 178675.98, 0.000015386415, 10.002951, 9.997495 
2.8295442e+3, 1.5450837e+2, -1490192.6, -1654085.1, -35543.727, 0.023551222, 0.32520133, -1482816.1, -56963.77, 0.0000020566958, 10.000947, 9.998459 
2.8292084e+3, 1.6450198e+2, -1334463.0, -1400922.8, 39686.016, -0.044626214, 0.3457189, -1315931.9, 11987.475, 0.00000005936716, 10.000634, 9.999741 
2.8288737e+3, 1.7449701e+2, -894390.06, -1064674.3, 76065.16, -0.15840474, 0.32020634, -865360.9, 364601.0, 0.0, 10.002731, 10.000337 
2.8285417e+3, 1.8449137e+2, -829698.6, -1152707.9, 153362.42, -0.124949604, 0.36113548, -768484.2, 363529.5, 0.0, 10.003177, 9.998889 
2.8282133e+3, 1.9448408e+2, -914369.94, -1097200.8, 203985.73, 0.11791196, 0.2241888, -782252.44, 251831.94, 0.0, 10.001777, 9.999247 
2.8278804e+3, 2.0447743e+2, -936696.2, -1170478.3, -84747.86, 0.2007111, 0.2566169, -909206.8, 26942.268, 0.0, 10.00141, 9.998242 
2.8275406e+3, 2.1447085e+2, -636900.3, -918456.56, -106444.01, 0.024564533, 0.2500639, -601188.25, 237025.03, 0.0, 10.002607, 9.998685 
2.8272027e+3, 2.244638e+2, -581162.7, -1040941.44, -7782.1714, -0.1325706, 0.32143056, -581031.0, 159252.89, 0.0, 10.003099, 9.996982 
2.826867e+3, 2.3445545e+2, -549733.5, -935694.44, -9397.827, -0.21261527, 0.27261013, -549504.8, 92864.84, 0.0, 10.002495, 9.997307 
2.826532e+3, 2.4444835e+2, -438792.1, -697232.6, -58929.23, -0.1978021, 0.3399857, -425989.38, 118451.875, 0.0, 10.001978, 9.998546 
2.826197e+3, 2.5444195e+2, -337304.47, -550804.75, -51249.5, -0.088406384, 0.32380056, -325639.66, 120864.734, 0.0, 10.001806, 9.998954 
2.8258622e+3, 2.6443598e+2, -303976.0, -530272.0, -54523.76, 0.0067437193, 0.42143238, -291524.2, 57038.527, 0.0, 10.00158, 9.998513 
2.825526e+3, 2.7442986e+2, -194388.45, -370839.66, -101117.56, 0.06084603, 0.43186203, -148418.23, 102202.69, 0.0, 10.001482, 9.998955 
2.8251907e+3, 2.8442243e+2, -301304.4, -687499.56, 22027.713, 0.11199512, 0.48455885, -300052.06, -147356.98, 0.0, 10.001327, 9.996228 
2.8248563e+3, 2.9441243e+2, -203313.64, -572578.56, 108993.91, 0.13381164, 0.36381504, -173542.7, -118744.49, 0.0, 10.001244, 9.996368 
2.8245187e+3, 3.0440462e+2, 81862.164, 58942.21, 53909.08, -0.0045354306, 0.3373309, 125515.88, 125515.88, 0.0, 10.000592, 10.000383 
2.82418e+3, 3.143993e+2, 18233.285, 154395.78, -50048.082, -0.085737504, 0.159658, 170812.27, 170812.27, 0.0, 9.999351, 10.001303 
2.8238422e+3, 3.2439804e+2, 19826.648, -51483.496, -60461.98, -0.16085328, 0.6370427, 54363.707, 54363.707, 0.0, 10.000303, 9.999353 
2.8402093e+3, 1.3485381e+2, -1302505.3, -877662.4, 292719.75, -0.09847986, 0.40989944, -728410.3, 890070.56, 0.00002671971, 10.000094, 10.005451 
2.8398815e+3, 1.4485136e+2, -1652668.5, -1902674.5, -142213.84, 0.35307413, 0.506238, -1588329.1, -67848.42, 0.000008259606, 10.000895, 9.997504 
2.839541e+3, 1.5484154e+2, -1407668.0, -1624560.1, -110060.81, 0.18129389, 0.1576824, -1361602.1, 60986.07, 0.0000013335809, 10.001521, 9.998386 
2.8392047e+3, 1.6483499e+2, -1214114.0, -1333433.3, 123541.2, 0.038749233, 0.15976694, -1136581.4, 188073.72, 0.000000073245815, 10.001499, 9.999751 
2.838871e+3, 1.7483093e+2, -1017291.2, -1149444.4, 101900.14, -0.15155146, 0.22941822, -961919.2, 264769.03, 0.0, 10.002049, 10.000064 
2.838539e+3, 1.8482655e+2, -991047.75, -1201247.1, 87826.266, -0.17837963, 0.40530834, -959182.44, 169547.0, 0.0, 10.002029, 9.999057 
2.8382084e+3, 1.948209e+2, -926975.1, -1087105.0, 93700.28, -0.026611723, 0.37205452, -883791.75, 146996.73, 0.0, 10.001692, 9.999306 
2.8378755e+3, 2.0481534e+2, -929838.25, -1235919.5, -79236.55, 0.1348143, 0.54170346, -910542.44, 22303.9, 0.0, 10.001831, 9.997561 
2.8375402e+3, 2.1480907e+2, -704411.06, -1039318.6, -94456.48, 0.29463878, 0.6031941, -679607.7, 155303.1, 0.0, 10.00262, 9.997811 
2.8372023e+3, 2.2480176e+2, -720721.6, -1133074.6, -24588.248, 0.088794544, 0.71645266, -719260.6, 17724.418, 0.0, 10.002354, 9.996684 
2.836861e+3, 2.3479247e+2, -743847.6, -1061894.1, -31658.607, -0.4918504, 0.5590855, -740726.94, -101648.74, 0.0, 10.001395, 9.996951 
2.8365245e+3, 2.4478382e+2, -574902.06, -734826.4, -53102.695, -0.58404785, 0.48850134, -558875.44, -17715.5, 0.0, 10.001031, 9.998726 
2.836193e+3, 2.5477496e+2, -443485.13, -579860.75, -65572.945, -0.11225264, 0.16743766, -417071.72, 26166.514, 0.0, 10.001108, 9.999063 
2.835859e+3, 2.647685e+2, -477351.9, -663509.25, -68442.1, 0.11940672, 0.24734563, -454897.22, -109597.625, 0.0, 10.000755, 9.997935 
2.8355226e+3, 2.747636e+2, -376117.72, -530997.4, -102778.35, 0.11206717, 0.38869283, -324870.66, -77517.945, 0.0, 10.00067, 9.998193 
2.835187e+3, 2.8475776e+2, -231974.23, -349419.63, 23787.016, 0.14272131, 0.5216254, -227339.39, -77927.984, 0.0, 10.000615, 9.998851 
2.8348526e+3, 2.947498e+2, -119393.66, -223460.0, 120990.04, 0.1948942, 0.28456604, -39722.457, 11765.166, 0.0, 10.000599, 9.999055 
2.8345126e+3, 3.0474365e+2, -160670.06, -233058.98, 8029.91, -0.10736689, 0.374216, -159790.03, -159790.03, 0.0, 9.999861, 9.998666 
2.8341705e+3, 3.1473902e+2, -315232.0, -250651.5, -85189.19, -0.46236607, 0.4345486, -191838.2, -191838.2, 0.0, 9.998287, 9.998974 
2.83384e+3, 3.2473096e+2, -111825.51, -134975.75, 173698.36, -0.011483159, 0.31646502, 50682.99, 50682.99, 0.0, 9.999749, 9.9989195 
2.8502092e+3, 1.3518713e+2, -1685040.6, -1355738.5, 127758.695, 0.37688506, 0.29925138, -1311985.5, 303222.66, 0.0000133144695, 9.998678, 10.002894 
2.8498724e+3, 1.4518587e+2, -1811955.8, -1775334.1, -85439.56, 0.02153348, 0.5807061, -1706265.3, -189054.61, 0.0000038169696, 9.998903, 9.999343 
2.8495368e+3, 1.5517886e+2, -1178373.5, -1373130.9, 34011.836, 0.025275107, 0.36019033, -1172604.6, 246678.14, 0.0000005153316, 10.0024395, 9.999692 
2.8492022e+3, 1.6517192e+2, -1037798.56, -1373187.1, 88195.625, 0.00667626, 0.31724644, -1016020.3, 305330.4, 0.00000002542409, 10.003219, 9.998644 
2.8488678e+3, 1.7516485e+2, -1218990.5, -1402232.5, 61700.316, -0.1395598, 0.2276231, -1200151.9, 23263.957, 0.0, 10.001297, 9.998701 
2.8485352e+3, 1.8515918e+2, -1063848.9, -1204698.3, 79991.03, -0.20643936, 0.32303295, -1027698.6, 97771.77, 0.0, 10.001326, 9.999382 
2.8482047e+3, 1.9515394e+2, -714366.4, -978748.4, 103746.68, -0.16017081, 0.33384505, -678516.2, 349007.8, 0.0, 10.003022, 9.999432 
2.847872e+3, 2.0514852e+2, -546032.0, -995612.8, -104378.336, -0.028509429, 0.47738588, -522980.6, 406599.47, 0.0, 10.0041685, 9.9981 
2.8475377e+3, 2.1514216e+2, -368418.2, -853823.2, -70031.09, 0.17811257, 0.5211491, -358516.53, 473129.38, 0.0, 10.004709, 9.998127 
2.8472003e+3, 2.2513524e+2, -429356.88, -864003.9, -69117.836, 0.07734246, 0.59743077, -418630.4, 315085.38, 0.0, 10.003755, 9.997857 
2.8468585e+3, 2.351269e+2, -666699.25, -928035.5, -13639.234, -0.39082262, 0.4828499, -665989.3, -30191.371, 0.0, 10.001402, 9.997892 
2.8465217e+3, 2.4511872e+2, -574313.94, -762035.6, 46712.227, -0.44863474, 0.42021188, -563332.56, -25457.584, 0.0, 10.001024, 9.998586 
2.84619e+3, 2.551102e+2, -278306.97, -547965.1, -1984.8657, -0.07985249, 0.21317765, -278292.34, 161659.63, 0.0, 10.002309, 9.998752 
2.8458548e+3, 2.6510334e+2, -286193.22, -509359.78, -85419.52, 0.06255499, 0.22749141, -257251.33, 84766.94, 0.0, 10.001704, 9.998585 
2.845516e+3, 2.7509767e+2, -462016.72, -525905.25, -70014.305, -0.03506229, 0.30648565, -417003.6, -172925.19, 0.0, 9.999758, 9.998729 
2.8451806e+3, 2.8509262e+2, -287147.7, -197335.06, 90330.57, 0.016436273, 0.4106819, -141364.28, 4763.5723, 0.0, 9.9993515, 10.000552 
2.8448477e+3, 2.9508725e+2, -57826.332, -23589.05, 48799.52, 0.16556042, 0.31870502, 11007.305, 59183.09, 0.0, 10.00021, 10.000647 
2.8445083e+3, 3.0508155e+2, 38787.99, -258356.3, -88701.766, -0.0884241, 0.40326956, 63252.504, 63252.504, 0.0, 10.001612, 9.997704 
2.844166e+3, 3.1507573e+2, 338901.13, -93919.99, -142009.84, -0.46633023, 0.49303934, 381334.78, 381334.78, 0.0, 10.003321, 9.997699 
2.843837e+3, 3.2506514e+2, 58420.402, -152553.77, 83388.68, 0.18368675, 0.23341957, 87399.66, 87399.66, 0.0, 10.00107, 9.99829 
2.8602076e+3, 1.3552031e+2, -1608708.6, -1663203.1, 28083.973, 0.7899965, 0.18287273, -1596826.3, 15110.69, 0.0000059672334, 10.000728, 9.9997835 
2.8598642e+3, 1.4552e+2, -1446246.5, -1405748.1, 6466.9976, -0.2007468, 0.64182544, -1404740.5, 109203.24, 0.0000015122073, 10.000632, 10.001024 
2.8595328e+3, 1.555164e+2, -1151543.5, -1220679.3, 47639.07, -0.052820325, 0.590544, -1127252.1, 288722.7, 0.0000000966577, 10.002052, 10.00091 
2.8592005e+3, 1.655089e+2, -1222664.3, -1614404.4, -26367.219, 0.050440498, 0.50344634, -1220897.5, 97148.25, 0.00000000026919006, 10.002632, 9.997277 
2.858865e+3, 1.7549834e+2, -1212573.6, -1560491.0, -21747.63, -0.01726675, 0.188566, -1211219.5, 8928.515, 0.0, 10.002063, 9.997244 
2.858532e+3, 1.8549135e+2, -1007125.8, -1143236.8, 157130.52, -0.14411213, 0.21541873, -903945.9, 218269.5, 0.0, 10.001695, 9.999601 
2.8582016e+3, 1.9548643e+2, -925652.44, -1077776.4, 145781.23, -0.20801519, 0.23181602, -837283.3, 186979.66, 0.0, 10.001686, 9.999369 
2.8578693e+3, 2.0548077e+2, -789874.44, -1055352.0, -51812.18, -0.13755333, 0.34269446, -780120.8, 146198.3, 0.0, 10.002297, 9.998581 
2.8575352e+3, 2.1547364e+2, -641592.6, -963382.5, -43837.73, 0.011202067, 0.24061958, -635727.44, 192664.05, 0.0, 10.0027685, 9.9983225 
2.8571978e+3, 2.2546703e+2, -566503.56, -808825.4, -134943.6, 0.04810686, 0.29296923, -506309.2, 224147.3, 0.0, 10.002389, 9.99883 
2.8568578e+3, 2.3546012e+2, -706785.1, -858520.9, -119290.17, -0.0063943975, 0.18139811, -641280.9, -8758.463, 0.0, 10.000892, 9.998547 
2.8565213e+3, 2.4545386e+2, -733678.75, -926856.6, 80825.625, -0.044823807, 0.32668394, -704322.44, -169738.64, 0.0, 10.000509, 9.99758 
2.856187e+3, 2.5544718e+2, -548687.94, -810629.44, 31950.42, -0.033705123, 0.35541987, -544847.06, -108196.43, 0.0, 10.001171, 9.997406 
2.855849e+3, 2.6543993e+2, -369784.34, -475544.1, -160215.17, -0.13230017, 0.37774184, -253947.95, 84773.22, 0.0, 10.0009, 9.99916 
2.855507e+3, 2.754317e+2, -534757.0, -515260.38, -132398.16, -0.34011224, 0.09612505, -392252.13, -151451.22, 0.0, 9.999109, 9.999104 
2.8551716e+3, 2.854271e+2, -416934.22, -267004.97, 112796.72, -0.28008434, 0.23810518, -206534.03, -63689.91, 0.0, 9.998678, 10.00032 
2.8548405e+3, 2.9542437e+2, -234726.86, -174025.02, 84016.78, -0.026099399, 0.40492997, -115045.1, -70177.336, 0.0, 9.999414, 9.999946 
2.854505e+3, 3.0541736e+2, -97927.5, -374500.88, -30156.148, -0.060945936, 0.42856666, -94677.62, -94677.62, 0.0, 10.001067, 9.997085 
2.854167e+3, 3.1540725e+2, 124155.84, -312003.06, -66362.36, -0.15955599, 0.11187517, 134029.48, 134029.48, 0.0, 10.002517, 9.996513 
2.8538322e+3, 3.2540125e+2, -113868.08, -210948.98, -95150.71, 0.08516178, 0.33752328, -55591.71, -55591.71, 0.0, 10.0000105, 9.998313 
2.8701985e+3, 1.3585433e+2, -1534337.5, -1907688.1, -53642.805, 0.11196465, 0.21298008, -1526783.0, 81875.09, 0.0000021514043, 10.002388, 9.997346 
2.8698644e+3, 1.4585014e+2, -1223632.6, -1310373.0, -30387.746, 0.12527141, 0.4129702, -1214046.4, 296663.44, 0.00000043033984, 10.0021715, 10.000946 
2.86953e+3, 1.5584765e+2, -1286418.5, -1339868.3, -16027.802, -0.050292727, 0.5072925, -1281980.8, 130747.8, 0.000000019645139, 10.0013075, 10.000473 
2.8691983e+3, 1.6584112e+2, -1202180.5, -1474608.5, -72296.555, 0.08389358, 0.46743765, -1184183.5, 130606.36, 0.0, 10.002209, 9.998444 
2.868866e+3, 1.758314e+2, -881586.44, -1297350.8, 24176.523, 0.22251323, 0.16044775, -880185.3, 336698.44, 0.0, 10.003854, 9.998204 
2.8685316e+3, 1.8582541e+2, -740512.56, -937330.2, 103907.8, 0.0678934, 0.19339561, -695809.1, 423131.5, 0.0, 10.0030775, 10.000399 
2.8681973e+3, 1.9582129e+2, -1116590.1, -1119829.0, 159654.47, -0.22735234, 0.25894699, -958546.9, 62431.652, 0.0, 10.000003, 9.999966 
2.8678638e+3, 2.0581593e+2, -1112765.4, -1052265.8, 53151.19, -0.22776468, 0.29592398, -1021359.1, -98329.54, 0.0, 9.999365, 10.000011 
2.8675303e+3, 2.1580905e+2, -916530.56, -973898.9, 102138.375, -0.07562613, 0.13243097, -839125.0, -14028.47, 0.0, 10.00026, 9.999481 
2.8671947e+3, 2.2580275e+2, -681021.94, -948943.1, -41814.586, 0.050837327, 0.20338117, -674647.56, 52513.047, 0.0, 10.001828, 9.998199 
2.866857e+3, 2.3579663e+2, -325415.44, -746132.3, -94170.94, 0.16783772, 0.28047532, -305298.63, 323925.9, 0.0, 10.003656, 9.998057 
2.8665197e+3, 2.457902e+2, -320448.97, -663020.5, 24393.414, 0.13946787, 0.38753778, -318720.72, 212568.95, 0.0, 10.002963, 9.998243 
2.8661832e+3, 2.5578296e+2, -583872.3, -773667.7, 36944.473, -0.011835612, 0.35724413, -576934.56, -143572.69, 0.0, 10.000576, 9.997988 
2.8658438e+3, 2.6577607e+2, -377548.0, -469233.56, -97941.13, -0.17236306, 0.36802563, -315251.84, 20177.723, 0.0, 10.000655, 9.9993725 
2.8655025e+3, 2.7576858e+2, -39861.254, -276587.03, -124774.18, -0.35937983, 0.19470279, 13759.487, 251260.86, 0.0, 10.002335, 9.999244 
2.8651664e+3, 2.8576335e+2, -37926.297, -98252.56, 50737.773, -0.2657759, 0.2672998, -9062.856, 130485.6, 0.0, 10.001284, 10.000242 
2.8648347e+3, 2.9575968e+2, -374745.3, -268310.63, 11859.328, 0.003964462, 0.38636726, -267005.25, -225425.78, 0.0, 9.998457, 9.9998 
2.8645e+3, 3.0575258e+2, -358051.84, -388496.72, 71061.41, -0.027816668, 0.35211733, -300600.72, -300600.72, 0.0, 9.998698, 9.998177 
2.8641644e+3, 3.157427e+2, 12558.863, -254553.5, 91504.055, -0.11839462, 0.020621117, 40898.47, 40898.47, 0.0, 10.001116, 9.997648 
2.8638282e+3, 3.257388e+2, 288330.56, 27600.682, -91406.49, 0.11619658, 0.40734038, 317182.97, 317182.97, 0.0, 10.002399, 9.998858 
2.880191e+3, 1.3618849e+2, -1665049.1, -2130506.5, -35039.11, -0.35363913, 0.24697192, -1662426.3, -57045.938, 0.00000033823923, 10.002174, 9.995903 
2.879866e+3, 1.4618056e+2, -1186982.6, -1357326.1, 12469.08, 0.5996655, 0.18214191, -1186074.8, 321396.78, 0.000000039050374, 10.002734, 10.000334 
2.8795272e+3, 1.5617837e+2, -1177566.0, -1382956.5, -9.736179, 0.05860679, 0.3910573, -1177566.0, 231921.94, 0.0000000006124831, 10.002478, 9.999621 
2.8791958e+3, 1.6617288e+2, -1123617.3, -1285102.8, 25638.621, 0.16710365, 0.4314638, -1119644.4, 191894.45, 0.0, 10.002144, 9.999725 
2.878867e+3, 1.7616476e+2, -1129475.4, -1299366.1, 52291.5, 0.5406424, 0.1310463, -1114670.4, 98946.57, 0.0, 10.001666, 9.999221 
2.8785315e+3, 1.8616016e+2, -997337.94, -963820.75, 10558.144, 0.3399527, 0.21171348, -960772.1, 154886.9, 0.0, 10.001041, 10.001139 
2.8781924e+3, 1.961572e+2, -1164019.9, -1077806.8, 38195.04, -0.14627531, 0.29311255, -1063319.5, -45635.223, 0.0, 9.99952, 10.000457 
2.8778577e+3, 2.061526e+2, -1055219.6, -884402.3, 73919.36, -0.23663886, 0.3239196, -856856.5, 62868.777, 0.0, 9.999282, 10.001172 
2.877525e+3, 2.161463e+2, -990012.25, -951875.6, 79713.95, -0.056052532, 0.08502459, -888981.06, -67197.88, 0.0, 9.999646, 9.999894 
2.8771913e+3, 2.2614053e+2, -916729.44, -1204961.5, 1595.59, 0.10853449, 0.27066717, -916720.6, -192874.33, 0.0, 10.000982, 9.9968 
2.876856e+3, 2.3613493e+2, -670469.3, -1095372.5, -42044.855, 0.28172824, 0.52243227, -666348.9, -40434.566, 0.0, 10.002236, 9.996306 
2.876518e+3, 2.4612744e+2, -398213.13, -584849.4, -45524.918, 0.23148155, 0.55813396, -387700.66, 140290.34, 0.0, 10.002014, 9.999236 
2.8761783e+3, 2.561181e+2, -699941.94, -782957.0, -30939.89, 0.030975847, 0.20256177, -689679.3, -259599.55, 0.0, 9.99968, 9.998359 
2.8758395e+3, 2.6611242e+2, -530010.0, -590220.9, -27212.846, -0.096870445, 0.35026088, -519533.72, -187397.69, 0.0, 9.99996, 9.998824 
2.875501e+3, 2.761082e+2, -303748.6, -512127.7, -62148.01, -0.15856434, 0.53663224, -286621.06, -52441.066, 0.0, 10.001129, 9.998171 
2.8751647e+3, 2.8610128e+2, -185581.25, -220346.61, -57391.99, -0.029317118, 0.5144551, -142997.3, -6755.584, 0.0, 10.000563, 9.999719 
2.8748298e+3, 2.960924e+2, -585942.0, -466192.53, -61941.723, 0.19881079, 0.13756093, -439917.63, -401599.47, 0.0, 9.997503, 9.998891 
2.8744933e+3, 3.0608696e+2, -312772.0, -93223.04, 141277.14, -0.05912197, 0.18608323, -24085.059, -24085.059, 0.0, 9.997993, 10.000505 
2.8741568e+3, 3.16083e+2, -166637.67, -202620.14, 188186.75, -0.45498052, 0.21449055, 4415.8926, 4415.8926, 0.0, 9.999429, 9.998803 
2.8738263e+3, 3.260768e+2, 142446.64, 99365.15, 53539.816, 0.17743339, 0.16357246, 178616.52, 178616.52, 0.0, 10.001119, 9.999817 
2.890188e+3, 1.3652624e+2, -1604761.8, -1844281.9, -12130.668, -0.38303563, 0.6017478, -1604149.0, -2073.136, 0.0000000028010363, 10.0014515, 9.998238 
2.889866e+3, 1.4651364e+2, -1184155.6, -1428401.0, 83084.67, 0.77356684, 0.0047029047, -1158572.5, 345630.72, 0.0, 10.003063, 9.99968 
2.889526e+3, 1.5651222e+2, -1034768.8, -1379156.9, 93785.16, 0.02779926, 0.37276953, -1010885.2, 395332.72, 0.0, 10.00367, 9.999101 
2.8891906e+3, 1.6650788e+2, -1079539.5, -1209349.4, -11524.381, -0.067108735, 0.5172053, -1078524.4, 229735.83, 0.0, 10.00214, 10.000278 
2.8888577e+3, 1.7650154e+2, -1477464.1, -1410702.1, 29887.994, 0.082917936, 0.36745447, -1399277.0, -188955.27, 0.0, 9.998934, 9.999815 
2.8885236e+3, 1.8649632e+2, -1261100.1, -1054866.5, 37345.164, 0.107969426, 0.3339243, -1048312.25, 64055.98, 0.0, 9.998959, 10.00156 
2.8881893e+3, 1.964918e+2, -1010459.56, -966396.3, 61949.668, 0.027391402, 0.25338486, -922677.25, 91728.836, 0.0, 10.000286, 10.000904 
2.8878543e+3, 2.0648715e+2, -854061.7, -825822.1, 22475.363, -0.075037144, 0.26524156, -813399.3, 103047.76, 0.0, 10.000732, 10.000903 
2.8875193e+3, 2.1648176e+2, -826036.56, -869652.2, 2678.8623, -0.1909132, 0.15797228, -825872.6, -7376.34, 0.0, 10.000619, 10.000028 
2.8871855e+3, 2.2647597e+2, -756772.2, -984702.6, -18060.059, -0.041584376, 0.24126552, -755350.06, -34791.797, 0.0, 10.001341, 9.99818 
2.8868523e+3, 2.3646985e+2, -545561.8, -876387.8, 63173.133, 0.21520293, 0.34061736, -533909.0, 88719.9, 0.0, 10.002223, 9.997877 
2.8865144e+3, 2.4646391e+2, -310466.25, -497674.97, 19441.88, 0.18684642, 0.43148968, -308468.5, 216223.16, 0.0, 10.002336, 9.999728 
2.8861737e+3, 2.5645715e+2, -308780.44, -520210.0, 14451.064, -0.034914322, 0.33158088, -307797.28, 118961.08, 0.0, 10.001894, 9.999162 
2.8858355e+3, 2.664518e+2, -297237.25, -403429.28, 90013.8, -0.04309402, 0.4385032, -245826.47, 82983.15, 0.0, 10.001191, 9.999519 
2.8854987e+3, 2.7644718e+2, -343367.6, -478919.84, 120264.74, 0.042538926, 0.5744391, -273095.84, -42241.96, 0.0, 10.000532, 9.998705 
2.8851622e+3, 2.864388e+2, -102849.82, -354062.34, 98732.64, 0.13364308, 0.47001356, -68690.42, 64240.676, 0.0, 10.001701, 9.998303 
2.8848255e+3, 2.964278e+2, 242939.58, -174614.53, 28593.023, 0.24317837, 0.06371714, 244888.45, 279918.8, 0.0, 10.003492, 9.998055 
2.8844887e+3, 3.064214e+2, 289752.38, 152552.66, 103979.3, 0.04860145, 0.063955605, 345722.3, 345722.3, 0.0, 10.00225, 10.000212 
2.8841537e+3, 3.1641772e+2, -134702.97, -170306.2, -40359.375, -0.1917797, 0.1891768, -108393.63, -108393.63, 0.0, 9.999458, 9.9991045 
2.883824e+3, 3.2641274e+2, 563523.7, 323013.2, -226712.81, 0.22048381, 0.27998888, 699900.5, 699900.5, 0.0, 10.003637, 10.000363 
2.900187e+3, 1.3686249e+2, -1339692.5, -1455467.5, 58256.77, -0.17983064, 0.74607205, -1315453.3, 283333.22, 0.00000000011876347, 10.002114, 10.000624 
2.8998646e+3, 1.468481e+2, -1404645.5, -1595045.3, 140951.7, 0.9035027, -0.09368914, -1329756.0, 171165.52, 0.0, 10.001834, 9.999138 
2.899524e+3, 1.5684685e+2, -1336497.6, -1573871.4, 123114.32, 0.052358326, 0.34024557, -1284176.6, 118763.914, 0.0, 10.001858, 9.998629 
2.8991854e+3, 1.6684385e+2, -1146004.9, -1200902.5, -52668.684, -0.2616287, 0.62327164, -1114061.5, 190910.67, 0.0, 10.001617, 10.000539 
2.8988466e+3, 1.7683925e+2, -1313007.6, -1332022.4, 4925.343, -0.37499455, 0.6162115, -1311807.5, -104790.14, 0.0, 10.0001335, 9.999762 
2.8985152e+3, 1.8683313e+2, -1137039.4, -996618.4, 130912.766, -0.13140823, 0.5004662, -918276.94, 190794.72, 0.0, 9.99985, 10.001496 
2.8981873e+3, 1.9682626e+2, -1121583.9, -1054644.5, 92055.67, 0.34385097, 0.16644482, -990162.8, 20967.467, 0.0, 9.999733, 10.000515 
2.8978518e+3, 2.0682135e+2, -1010588.06, -985853.1, 38801.824, 0.16233526, 0.20714203, -957495.44, -44321.035, 0.0, 10.000099, 10.000052 
2.897513e+3, 2.1681672e+2, -1017532.5, -1030263.9, 34373.707, -0.30539688, 0.23815793, -988940.0, -173721.92, 0.0, 9.999703, 9.999323 
2.897179e+3, 2.2681063e+2, -724134.0, -673362.7, 55536.97, -0.23990306, 0.17287701, -637684.56, 79594.055, 0.0, 10.000442, 10.000674 
2.8968477e+3, 2.3680355e+2, -684486.8, -756945.75, 82393.31, 0.10163732, -0.09125882, -630709.44, -11358.777, 0.0, 10.000578, 9.999451 
2.8965098e+3, 2.468007e+2, -478934.97, -557289.9, 3977.549, 0.065734774, 0.2362191, -478733.56, 42651.42, 0.0, 10.001247, 9.999739 
2.8961685e+3, 2.5679916e+2, -534714.5, -647967.5, -983.2187, -0.15252915, 0.6215834, -534705.94, -111298.08, 0.0, 10.000584, 9.998839 
2.8958312e+3, 2.667932e+2, -299979.78, -265325.5, 73622.16, -0.042997025, 0.6093024, -207018.97, 118441.83, 0.0, 10.000676, 10.000666 
2.8954956e+3, 2.767848e+2, -449763.0, -524269.53, 118454.65, 0.21385616, 0.23297234, -362841.78, -135310.67, 0.0, 9.99987, 9.998696 
2.8951585e+3, 2.8677583e+2, -327950.0, -685187.4, 153996.64, 0.1512003, 0.1965668, -270730.6, -141112.81, 0.0, 10.001278, 9.996184 
2.8948212e+3, 2.9676595e+2, -79849.6, -641904.44, 82288.35, -0.026702013, 0.10831512, -68049.8, -36332.227, 0.0, 10.002771, 9.995147 
2.8944856e+3, 3.0675718e+2, 116459.44, -275268.72, -15501.387, 0.020127537, 0.15624851, 117071.89, 117071.89, 0.0, 10.002761, 9.996831 
2.8941515e+3, 3.1674963e+2, -534945.75, -958628.0, -52781.824, 0.13279161, 0.23653685, -528469.25, -528469.25, 0.0, 9.999501, 9.993542 
2.8938186e+3, 3.2673866e+2, -47711.27, -237146.14, 21969.98, -0.2919638, -0.002369181, -45196.652, -45196.652, 0.0, 10.001041, 9.997406 
2.9101866e+3, 1.3719466e+2, -1157622.6, -1042661.56, -157351.92, -0.0042340797, 0.45093375, -932620.06, 662921.56, 0.0000000000007792345, 10.0019045, 10.003606 
2.9098573e+3, 1.4718924e+2, -1601669.3, -1635245.3, 159162.83, 0.59463346, 0.373555, -1458411.5, 39165.65, 0.0, 10.000194, 9.999686 
2.909517e+3, 1.5718326e+2, -1570466.5, -1627765.6, 190036.17, -0.21694994, 0.29687268, -1406932.5, -7289.755, 0.0, 9.999942, 9.999213 
2.909182e+3, 1.6717933e+2, -1137740.0, -1117469.9, 47243.836, -0.23755895, 0.4183917, -1079286.3, 222394.7, 0.0, 10.001312, 10.001256 
2.908847e+3, 1.7717578e+2, -894349.25, -1102401.5, 120330.3, -0.06941549, 0.46910596, -839313.06, 364399.88, 0.0, 10.002802, 10.000078 
2.9085135e+3, 1.8716945e+2, -908193.7, -1087514.1, 125675.164, 0.05215457, 0.42344108, -843473.8, 262299.94, 0.0, 10.002207, 9.999772 
2.908181e+3, 1.9716199e+2, -1133705.9, -1170827.6, 68702.17, 0.1873956, 0.21666886, -1081101.5, -73255.86, 0.0, 10.000015, 9.999619 
2.907846e+3, 2.0715714e+2, -901270.3, -809080.4, 76996.23, 0.085161954, 0.22238252, -765435.94, 144454.63, 0.0, 10.000179, 10.001279 
2.9075095e+3, 2.1715315e+2, -737019.1, -736762.1, 150958.64, -0.21213774, 0.22430035, -585931.94, 225994.63, 0.0, 10.00082, 10.000838 
2.907175e+3, 2.2714894e+2, -677801.44, -549226.9, 115519.07, -0.16409531, 0.23593189, -481311.63, 232655.72, 0.0, 10.000229, 10.001679 
2.9068416e+3, 2.3714401e+2, -806356.5, -676945.75, 106245.99, 0.023279851, 0.12174932, -617252.6, -1236.392, 0.0, 9.998982, 10.000827 
2.9065043e+3, 2.4714051e+2, -604825.56, -543151.9, 65723.44, -0.013556066, 0.28076288, -501390.63, 16662.613, 0.0, 9.999915, 10.000518 
2.9061642e+3, 2.5713775e+2, -282873.3, -428369.16, 88073.37, -0.17568311, 0.49472684, -241388.23, 178696.31, 0.0, 10.001703, 9.999844 
2.9058272e+3, 2.6713115e+2, 4701.7993, -195891.83, 99150.375, -0.07079982, 0.41000494, 45437.773, 367581.22, 0.0, 10.002903, 10.000156 
2.9054916e+3, 2.771225e+2, 115330.09, -243829.55, 31984.486, 0.1489594, 0.06826575, 118156.19, 342373.6, 0.0, 10.003545, 9.998909 
2.9051557e+3, 2.8711507e+2, -119280.61, -512460.53, 171194.17, 0.21900003, 0.12604077, -55188.66, 71101.625, 0.0, 10.002341, 9.99688 
2.9048178e+3, 2.971072e+2, -418735.97, -648701.2, 320592.6, 0.033070683, 0.21042305, -193129.97, -164756.97, 0.0, 9.999561, 9.996681 
2.920186e+3, 1.3752943e+2, -939867.75, -681442.94, -231387.48, 0.26881307, 0.35453293, -545634.56, 1046633.94, 0.0, 10.002353, 10.005819 
2.9198495e+3, 1.475307e+2, -1341702.6, -1464962.5, 157593.84, 0.27263698, 0.83252174, -1234116.5, 260114.06, 0.0, 10.001813, 10.000034 
2.9195106e+3, 1.5752001e+2, -1511954.1, -1560506.6, 147561.44, -0.32857108, 0.24673662, -1386685.4, 9656.279, 0.0, 10.000189, 9.999547 
2.9191792e+3, 1.6751496e+2, -1185333.5, -1083656.4, 68873.62, -0.06368509, 0.19828153, -1048890.4, 249497.23, 0.0, 10.000709, 10.001808 
2.9188496e+3, 1.7751177e+2, -1145652.1, -1243694.1, 93972.44, 0.47838655, 0.22828695, -1088683.1, 111729.17, 0.0, 10.001206, 9.9998865 
2.9185125e+3, 1.8750577e+2, -1221659.3, -1431114.1, 66736.34, 0.33165988, 0.32099217, -1202203.0, -99727.86, 0.0, 10.0010195, 9.997913 
2.9181737e+3, 1.9749823e+2, -1336192.1, -1433058.8, 84272.484, 0.012874168, 0.27885047, -1287426.5, -282869.72, 0.0, 9.999381, 9.998124 
2.91784e+3, 2.0749372e+2, -839271.6, -580639.7, 173533.17, -0.013859588, 0.27398688, -493538.53, 413060.97, 0.0, 9.999863, 10.002965 
2.9175073e+3, 2.1749038e+2, -835365.75, -676064.6, 164957.66, 0.0500161, 0.16107528, -572534.3, 236093.27, 0.0, 9.999778, 10.001753 
2.9171717e+3, 2.2748895e+2, -769022.0, -560476.1, 73898.945, 0.026866833, 0.39664102, -536944.94, 173696.31, 0.0, 9.999552, 10.0018835 
2.9168344e+3, 2.3748769e+2, -980525.44, -760345.75, 82823.53, -0.004954759, 0.6031057, -732669.44, -120014.28, 0.0, 9.997923, 10.000725 
2.9164982e+3, 2.4748158e+2, -638663.8, -430353.63, 135617.25, -0.054708768, 0.43101937, -363510.72, 151200.52, 0.0, 9.999251, 10.001555 
2.9161608e+3, 2.5747356e+2, -497158.84, -535108.4, 144304.25, -0.12373611, -0.001427368, -370587.2, 46196.85, 0.0, 10.000366, 9.999731 
2.9158238e+3, 2.674671e+2, -235106.84, -465428.63, 123942.83, -0.16191372, 0.01792548, -181081.88, 137763.8, 0.0, 10.002128, 9.998562 
2.9154864e+3, 2.7746093e+2, -128238.11, -455850.16, 59363.73, -0.18134777, 0.04204171, -117813.06, 103091.94, 0.0, 10.002424, 9.997948 
2.9151532e+3, 2.874569e+2, 359.5349, -114520.73, 97657.52, 0.27279845, 0.28467909, 56217.07, 179160.45, 0.0, 10.001829, 9.999788 
2.914814e+3, 2.974513e+2, -285890.2, -44053.188, 346274.38, 0.2087904, 0.20267119, 201807.84, 226806.0, 0.0, 9.998316, 10.001396 
2.9301852e+3, 1.3786858e+2, -974645.6, -758484.2, -102268.47, 0.38506004, 0.54499614, -717768.8, 871175.4, 0.0, 10.002362, 10.005297 
2.9298425e+3, 1.4786476e+2, -1195736.8, -1493103.9, 38546.22, -0.20696932, 0.5935856, -1190821.5, 300139.97, 0.0, 10.003161, 9.9992285 
2.9295102e+3, 1.5785657e+2, -1505422.5, -1603817.0, 37173.45, 0.024604982, 0.34207883, -1492957.5, -99908.414, 0.0, 10.000346, 9.999211 
2.929176e+3, 1.6785255e+2, -1275909.3, -1086001.0, 6180.4253, 0.120259285, 0.37044308, -1085800.1, 209286.02, 0.0, 9.999847, 10.002238 
2.9288405e+3, 1.7784965e+2, -1313712.1, -1210856.5, 44078.426, 0.05947764, 0.3943094, -1194551.6, 2557.393, 0.0, 9.999467, 10.000988 
2.9285052e+3, 1.8784437e+2, -1227151.8, -1194738.8, 76790.74, 0.08277133, 0.37566996, -1132463.0, -33302.34, 0.0, 9.9999, 10.0001 
2.9281697e+3, 1.97838e+2, -1119629.3, -1127567.0, 247436.73, 0.11054333, 0.27276275, -876129.56, 125095.67, 0.0, 9.99992, 9.999976 
2.9278356e+3, 2.0783468e+2, -800440.25, -637904.1, 316222.22, 0.07999298, 0.36525592, -392674.13, 510584.5, 0.0, 10.000414, 10.002331 
2.927502e+3, 2.1783218e+2, -725322.7, -639448.25, 220527.11, -0.017131785, 0.42820507, -457717.25, 347565.25, 0.0, 10.000438, 10.001744 
2.927166e+3, 2.2782914e+2, -601906.56, -449357.38, 85056.09, 0.0056179767, 0.48364326, -411385.1, 295924.78, 0.0, 10.000373, 10.002362 
2.926829e+3, 2.37826e+2, -600369.9, -489176.53, 124636.1, 0.011032028, 0.48776212, -408299.22, 201038.83, 0.0, 9.999937, 10.001708 
2.9264924e+3, 2.4782088e+2, -513177.22, -365839.84, 171667.2, -0.052420624, 0.36518374, -252701.92, 258682.66, 0.0, 9.999937, 10.001756 
2.9261556e+3, 2.5781432e+2, -480275.97, -469242.4, 129235.26, -0.13819355, 0.090690754, -345406.22, 68037.945, 0.0, 10.000034, 10.000422 
2.92582e+3, 2.67808e+2, -382686.1, -518781.34, 186757.14, -0.14993018, 0.07463934, -251965.73, 63540.254, 0.0, 10.000909, 9.998836 
2.9254836e+3, 2.7780184e+2, -83195.234, -361657.4, 177655.83, -0.17050436, 0.10146594, 3287.8594, 220855.22, 0.0, 10.002212, 9.998763 
2.9251483e+3, 2.877989e+2, 82074.55, -61095.27, 48603.82, 0.15444109, 0.41282424, 97015.53, 216612.14, 0.0, 10.002091, 10.000162 
2.924808e+3, 2.977931e+2, 184518.78, 276887.34, 48895.793, 0.16191095, 0.29073766, 297962.2, 319616.38, 0.0, 10.000813, 10.0025015 
2.9401818e+3, 1.3820648e+2, -1157762.9, -1020135.56, 137990.64, 0.34601778, 0.5727085, -934752.2, 650877.25, 0.0, 10.0018015, 10.003797 
2.9398376e+3, 1.4819862e+2, -1342038.8, -1637773.9, 50714.22, -0.44191518, 0.32299754, -1333583.8, 154110.02, 0.0, 10.002533, 9.998525 
2.9395106e+3, 1.5819371e+2, -1341983.1, -1566818.1, 63836.434, 0.5412501, 0.46840796, -1325122.8, 64627.676, 0.0, 10.001721, 9.998789 
2.9391724e+3, 1.6819087e+2, -1098863.4, -960782.8, 81439.08, 0.28858534, 0.6138334, -923057.5, 368721.1, 0.0, 10.000989, 10.002498 
2.93883e+3, 1.7818819e+2, -1238809.0, -1087993.0, 82582.87, -0.4086078, 0.61621785, -1051569.4, 142232.84, 0.0, 9.999681, 10.001681 
2.9384968e+3, 1.8818383e+2, -987808.7, -761137.94, 86045.07, -0.18041505, 0.48190522, -732175.5, 363663.03, 0.0, 10.000225, 10.002898 
2.9381672e+3, 1.9817889e+2, -1005320.9, -915921.6, 182788.0, 0.41076118, 0.24696957, -772447.06, 225433.08, 0.0, 10.0001335, 10.001303 
2.9378322e+3, 2.081769e+2, -923389.94, -854667.94, 251057.33, 0.25034797, 0.49167487, -635631.06, 264271.97, 0.0, 10.000347, 10.000817 
2.9374957e+3, 2.1817526e+2, -1037216.0, -964404.6, 161196.06, -0.11528509, 0.77987486, -835554.3, -33629.754, 0.0, 9.999142, 10.000128 
2.9371598e+3, 2.2816901e+2, -693811.75, -419560.66, 50078.64, -0.05124634, 0.520651, -410702.34, 293277.3, 0.0, 9.999586, 10.002839 
2.9368243e+3, 2.381616e+2, -817404.25, -626116.2, 95792.54, 0.1266991, 0.027284877, -586394.06, 19649.232, 0.0, 9.998757, 10.001266 
2.9364872e+3, 2.4815957e+2, -669351.75, -481990.84, 153345.58, -0.022499543, 0.25534922, -395974.63, 112088.805, 0.0, 9.999239, 10.001194 
2.9361495e+3, 2.5815874e+2, -716425.7, -614101.3, 138125.9, -0.21006618, 0.57533807, -517966.75, -107892.4, 0.0, 9.998751, 9.999996 
2.9358163e+3, 2.6815236e+2, -364564.38, -340709.72, 224557.14, -0.065462425, 0.46629876, -127763.37, 184372.7, 0.0, 10.000376, 10.00031 
2.9354832e+3, 2.7814433e+2, -294327.22, -464319.0, 199329.56, 0.093253635, 0.15798065, -162628.45, 51584.758, 0.0, 10.000914, 9.99866 
2.9351404e+3, 2.881404e+2, -161808.17, -400360.4, 13232.937, -0.29141587, 0.5040525, -161076.36, -44819.29, 0.0, 10.001572, 9.997996 
2.9348037e+3, 2.981321e+2, -280702.38, -342658.34, -69302.69, 0.1355175, 0.37487316, -235769.23, -217421.7, 0.0, 9.999648, 9.998699 
2.950175e+3, 1.3854407e+2, -1497735.6, -1479247.8, 87973.836, -0.030339496, 0.3557467, -1400033.5, 182273.95, 0.0, 10.000688, 10.001224 
2.949839e+3, 1.4853908e+2, -1369022.3, -1558904.5, 148981.31, -0.009937102, 0.42100418, -1287302.0, 197050.98, 0.0, 10.001946, 9.999367 
2.9495057e+3, 1.5853311e+2, -1075059.5, -1393805.3, 182940.19, 0.21444644, 0.41178674, -991807.44, 394609.75, 0.0, 10.0033, 9.999252 
2.9491687e+3, 1.6852933e+2, -924531.0, -983009.2, 108424.51, 0.22649905, 0.508218, -841472.3, 446984.03, 0.0, 10.002553, 10.001634 
2.9488292e+3, 1.7852609e+2, -1129297.1, -1113627.9, 114609.64, -0.07951152, 0.56453943, -1006585.4, 183903.1, 0.0, 10.000668, 10.001061 
2.948494e+3, 1.8852152e+2, -845236.0, -810503.3, 82326.46, -0.08234728, 0.4910147, -743731.5, 348798.25, 0.0, 10.001605, 10.001932 
2.9481608e+3, 1.9851655e+2, -666228.4, -801589.8, 33811.137, 0.06854073, 0.34538573, -658252.8, 336320.94, 0.0, 10.002545, 10.000962 
2.9478264e+3, 2.0851284e+2, -715927.94, -753914.56, 33840.96, 0.04209553, 0.4154437, -696114.6, 200495.17, 0.0, 10.001621, 10.000969 
2.9474905e+3, 2.1850932e+2, -889780.8, -833455.5, 5461.0547, -0.114821024, 0.50980717, -832930.9, -34285.406, 0.0, 9.999724, 10.000794 
2.9471546e+3, 2.2850472e+2, -680334.9, -417652.34, -67167.79, -0.018822478, 0.3782365, -401474.0, 299212.6, 0.0, 9.999633, 10.002863 
2.9468185e+3, 2.3849961e+2, -595573.06, -473053.1, -62547.574, 0.1166197, 0.12019754, -446763.2, 155967.47, 0.0, 9.999947, 10.001769 
2.9464814e+3, 2.4849741e+2, -561194.7, -475210.72, 7731.701, -0.003333335, 0.31650355, -474521.0, 30232.518, 0.0, 9.999992, 10.000981 
2.9461446e+3, 2.5849572e+2, -468347.7, -455125.06, 8359.79, -0.16590896, 0.58319384, -451078.25, -44305.055, 0.0, 10.000064, 10.00054 
2.9458112e+3, 2.6848975e+2, -362385.53, -278296.88, 55489.74, -0.061008118, 0.44296616, -250721.97, 58110.266, 0.0, 9.999977, 10.001 
2.9454777e+3, 2.7848288e+2, -341687.06, -352537.72, -24862.684, 0.022247013, 0.18194436, -321664.66, -110765.055, 0.0, 9.999855, 9.999978 
2.9451364e+3, 2.8848037e+2, -64952.293, -252333.77, -12185.783, -0.2692508, 0.5324036, -64163.152, 48764.344, 0.0, 10.001611, 9.999097 
2.9448023e+3, 2.9847267e+2, 280757.28, -191099.67, 67139.52, 0.34389767, 0.45804292, 290124.47, 305134.8, 0.0, 10.003666, 9.997912 
2.960171e+3, 1.3888182e+2, -1601704.5, -1748692.1, -4981.6685, 0.022820685, 0.20382838, -1601535.9, -22550.467, 0.00000000001490612, 10.000975, 9.999231 
2.95984e+3, 1.4887896e+2, -1312038.8, -1407914.8, 159289.75, 0.45139495, 0.47276542, -1193630.0, 287386.3, 0.0, 10.001871, 10.000429 
2.9595e+3, 1.5887201e+2, -1270153.6, -1467958.6, 132392.23, -0.08462908, 0.2782152, -1203800.6, 179286.67, 0.0, 10.001894, 9.999419 
2.9591656e+3, 1.6886725e+2, -1161252.5, -1216398.1, 6821.959, 0.22560012, 0.33142072, -1160421.1, 124715.69, 0.0, 10.001453, 10.000555 
2.9588303e+3, 1.788631e+2, -1330895.0, -1371045.4, 89156.89, 0.53103155, 0.40115875, -1259581.1, -72400.87, 0.0, 10.000031, 9.999595 
2.9584917e+3, 1.8885836e+2, -1058530.3, -1107977.8, 154052.2, 0.088028684, 0.46309167, -927230.5, 161997.86, 0.0, 10.001098, 10.000074 
2.9581538e+3, 1.988529e+2, -969880.5, -1123748.3, 93187.34, -0.32986555, 0.45092988, -925972.7, 65309.492, 0.0, 10.001322, 9.999321 
2.95782e+3, 2.088464e+2, -759932.1, -695982.44, 22295.96, -0.19026181, 0.2533212, -688976.5, 204363.17, 0.0, 10.001135, 10.001525 
2.9574862e+3, 2.1884006e+2, -992148.5, -886940.6, -3331.503, 0.04234707, 0.00047189198, -886835.25, -91439.695, 0.0, 9.999223, 10.000606 
2.9571494e+3, 2.2883874e+2, -720854.94, -476277.78, -42229.008, 0.0704251, 0.22185221, -469191.78, 228217.16, 0.0, 9.999609, 10.002426 
2.9568124e+3, 2.3883857e+2, -813648.44, -655363.94, -57200.35, 0.08867431, 0.48002642, -636856.94, -37444.344, 0.0, 9.998896, 10.001018 
2.9564762e+3, 2.488339e+2, -609311.3, -471650.44, 5347.0977, 0.027248593, 0.43076184, -471443.06, 30014.705, 0.0, 9.999649, 10.001118 
2.95614e+3, 2.5882787e+2, -695864.44, -626914.44, 27769.494, -0.03677614, 0.24498995, -617121.3, -213604.78, 0.0, 9.99892, 9.999862 
2.9558045e+3, 2.6882267e+2, -478579.72, -345310.2, 57283.27, -0.19390222, 0.20036623, -324072.53, -18500.83, 0.0, 9.999355, 10.000755 
2.955468e+3, 2.7881834e+2, -468188.1, -312210.22, -1923.8241, -0.3880549, 0.1878097, -312186.5, -104568.47, 0.0, 9.998715, 10.000755 
2.9551375e+3, 2.8881958e+2, 175913.75, 361652.1, 68966.42, 0.20692751, 0.55316556, 384459.4, 494059.34, 0.0, 10.001288, 10.003376 
2.9547957e+3, 2.9881215e+2, 197761.36, -104182.41, 195074.22, -0.21579567, 0.107283965, 293460.22, 305127.3, 0.0, 10.002764, 9.998885 
2.9701656e+3, 1.3922031e+2, -1524707.1, -1667779.3, -87593.22, -0.22889009, 0.3800577, -1483150.4, 92513.05, 0.00000010737005, 10.001296, 9.999634 
2.969835e+3, 1.4921279e+2, -1333503.3, -1366391.6, 88795.29, 0.31387982, 0.11936838, -1259642.4, 218099.38, 0.0, 10.001463, 10.000918 
2.9694983e+3, 1.5920965e+2, -1432954.3, -1509128.0, 34628.37, 0.12303363, 0.27073324, -1419565.6, -39790.016, 0.0, 10.000559, 9.999799 
2.9691607e+3, 1.6920464e+2, -1294552.3, -1291436.0, -53042.14, 0.19839755, 0.27663365, -1239929.0, 41897.484, 0.0, 10.000532, 10.000513 
2.968822e+3, 1.7919916e+2, -1248857.8, -1315067.6, 59215.77, 0.16253953, 0.23020904, -1214121.4, -30239.393, 0.0, 10.000445, 9.999794 
2.968486e+3, 1.8919544e+2, -1038729.3, -1074644.9, 185245.3, -0.076795414, 0.37196392, -870573.44, 215349.08, 0.0, 10.001022, 10.000391 
2.9681504e+3, 1.9919133e+2, -974127.0, -1074312.5, 179336.38, -0.31213927, 0.4791159, -838018.75, 149947.39, 0.0, 10.000918, 9.999905 
2.9678172e+3, 2.0918438e+2, -716568.94, -711167.7, 105055.82, -0.07180093, 0.2528872, -608777.8, 281250.28, 0.0, 10.00153, 10.001267 
2.9674837e+3, 2.1917748e+2, -589151.0, -720772.75, 46589.887, 0.1826936, -0.0053923726, -574328.8, 217759.47, 0.0, 10.001978, 10.000459 
2.9671454e+3, 2.2917488e+2, -467037.25, -550029.5, -33753.57, 0.09540425, 0.21115443, -455042.88, 239073.88, 0.0, 10.002015, 10.000854 
2.9668066e+3, 2.3917313e+2, -405180.1, -481658.2, -95924.64, -0.07127947, 0.46649483, -340153.66, 255984.94, 0.0, 10.001617, 10.000947 
2.96647e+3, 2.4916852e+2, -355267.72, -247918.69, -22184.17, -0.0861877, 0.36305112, -243514.88, 254668.0, 0.0, 10.000828, 10.002134 
2.9661345e+3, 2.5916323e+2, -426843.94, -357017.13, 28002.713, -0.07920086, 0.17391048, -347174.53, 53058.324, 0.0, 9.999992, 10.001223 
2.9657993e+3, 2.691593e+2, -336338.56, -240139.61, 127228.12, -0.15791135, 0.19390826, -152222.34, 150051.69, 0.0, 9.999995, 10.001264 
2.965463e+3, 2.7915597e+2, -185701.34, -88798.99, 112313.45, -0.3126287, 0.26569474, -14931.619, 189377.75, 0.0, 10.000045, 10.001735 
2.9651326e+3, 2.891572e+2, 132600.17, 391591.6, -5733.107, 0.16916071, 0.5805848, 391718.44, 498008.4, 0.0, 10.000636, 10.004 
2.9647875e+3, 2.9915014e+2, -16561.553, -74173.01, -199767.17, -0.70645255, 0.12936947, 156466.05, 164816.17, 0.0, 10.000564, 10.0002165 
2.9801622e+3, 1.395566e+2, -1349537.5, -1535145.6, -136084.34, -0.24066737, 0.3685956, -1277625.0, 294740.38, 0.00000019973128, 10.00229, 10.000086 
2.9798302e+3, 1.4954749e+2, -1329859.1, -1304002.5, 50307.324, 0.19733094, -0.09557617, -1264988.8, 209471.53, 0.000000000008976791, 10.001265, 10.00145 
2.9794967e+3, 1.5954822e+2, -1515062.1, -1514178.9, 16262.022, 0.4500043, 0.37832037, -1498352.5, -121895.61, 0.0, 9.99989, 10.000115 
2.9791552e+3, 1.6954288e+2, -1297659.5, -1249946.3, -15036.392, 0.16183081, 0.31978884, -1245603.0, 32906.246, 0.0, 10.000413, 10.000854 
2.9788134e+3, 1.7953612e+2, -1308024.8, -1360534.9, 145343.13, -0.2567809, 0.13107748, -1186584.4, -6008.6836, 0.0, 10.00017, 9.999642 
2.9784802e+3, 1.895332e+2, -1143784.5, -1050799.1, 218867.67, -0.18410395, 0.32293653, -873540.6, 209069.4, 0.0, 10.000047, 10.001028 
2.978149e+3, 1.9953094e+2, -1246895.6, -1187054.1, 181357.63, 0.01598434, 0.5400197, -1033165.6, -48528.125, 0.0, 9.999051, 10.000025 
2.9778162e+3, 2.0952407e+2, -854485.3, -870252.3, 129425.53, 0.21592419, 0.34974366, -732703.44, 153996.98, 0.0, 10.000942, 10.000481 
2.9774824e+3, 2.195174e+2, -832179.94, -1007105.2, 70707.31, 0.4376179, 0.18710063, -807173.75, -18413.453, 0.0, 10.001129, 9.998908 
2.977142e+3, 2.2951205e+2, -740290.75, -874143.4, -12400.648, 0.13962327, 0.2884575, -739151.6, -48334.844, 0.0, 10.00114, 9.998992 
2.9768008e+3, 2.3950613e+2, -790822.3, -786703.0, -57365.055, -0.22873233, 0.31022647, -731360.6, -138480.42, 0.0, 9.999642, 9.9997835 
2.9764634e+3, 2.4950288e+2, -431650.7, -117595.51, -27942.77, -0.27411988, 0.2689237, -115128.7, 379783.2, 0.0, 9.999771, 10.003486 
2.9761276e+3, 2.595008e+2, -613500.8, -397754.47, 32530.432, -0.19625406, 0.29453763, -392956.22, 3974.8972, 0.0, 9.998657, 10.001574 
2.9757956e+3, 2.6949823e+2, -340318.44, -102929.4, 120426.555, 0.042003173, 0.34455505, -52535.348, 246418.19, 0.0, 9.999535, 10.002377 
2.9754618e+3, 2.7949506e+2, -489038.53, -390253.44, 109425.18, 0.09597596, 0.35667843, -319589.75, -118607.83, 0.0, 9.998824, 10.000231 
2.9751208e+3, 2.8949252e+2, -247049.48, -161494.72, -3947.5007, -0.5228582, 0.5686466, -161312.97, -58306.34, 0.0, 9.999813, 10.000546 
2.9747894e+3, 2.994874e+2, -100501.195, 113874.54, -245523.84, -0.062684186, 0.5295399, 274588.16, 279642.13, 0.0, 9.99931, 10.002048 
2.990173e+3, 1.3988529e+2, -1464194.4, -1685099.8, -296114.22, 1.0185859, -0.35999966, -1258603.8, 310546.44, 0.000000019519112, 10.0019455, 9.99928 
2.9898238e+3, 1.4988792e+2, -1395320.3, -1202452.3, -42135.27, -0.014876423, 0.28379458, -1193648.9, 277480.88, 0.0, 10.000298, 10.002649 
2.9894838e+3, 1.5988904e+2, -1609228.0, -1416939.4, 8365.086, -0.31459486, 0.6944521, -1416576.1, -43456.508, 0.0, 9.998606, 10.001421 
2.989148e+3, 1.6988447e+2, -1277735.4, -1041170.9, 43982.89, -0.06957275, 0.5610186, -1033258.06, 241906.48, 0.0, 9.999689, 10.00265 
2.9888117e+3, 1.7987925e+2, -1229316.8, -1211382.1, 198454.66, -0.0060685137, 0.3825755, -1021692.3, 155524.06, 0.0, 10.000215, 10.0006485 
2.9884782e+3, 1.8987279e+2, -1393736.8, -1274836.1, 212804.13, 0.18409, 0.28232154, -1113334.1, -34050.063, 0.0, 9.998777, 10.00013 
2.9881465e+3, 1.9986732e+2, -1625023.4, -1386561.5, 195412.55, 0.46499735, 0.28695333, -1276877.4, -295535.97, 0.0, 9.996475, 9.999906 
2.9878148e+3, 2.0986517e+2, -916088.1, -857646.56, 263330.78, 0.5436672, 0.5547248, -621920.25, 261437.63, 0.0, 10.000271, 10.000931 
2.9874802e+3, 2.1986113e+2, -383091.53, -729887.25, 123909.92, 0.42895755, 0.6465093, -343368.56, 442024.1, 0.0, 10.003787, 9.999579 
2.9871365e+3, 2.2985202e+2, -631762.2, -778861.06, 34767.867, -0.034031317, 0.34828863, -623958.5, 63526.91, 0.0, 10.001569, 9.999524 
2.986793e+3, 2.3984502e+2, -821998.8, -740399.6, 133024.61, -0.45297933, 0.23381151, -642058.44, -52500.03, 0.0, 9.999032, 10.000449 
2.9864565e+3, 2.498444e+2, -506389.34, -288653.97, 139248.05, -0.40288135, 0.5557575, -220767.06, 270796.7, 0.0, 9.999765, 10.002381 
2.986122e+3, 2.5984257e+2, -333828.78, -314163.72, 95538.26, -0.2522585, 0.7372416, -227953.36, 165627.25, 0.0, 10.000616, 10.001291 
2.9857928e+3, 2.6983634e+2, -145620.44, -86409.58, 76497.87, 0.22019236, 0.5116686, -33988.15, 261653.81, 0.0, 10.001127, 10.001841 
2.9854602e+3, 2.7983043e+2, -100135.555, -177574.47, -37395.36, 0.41303858, 0.31166458, -85025.56, 112674.21, 0.0, 10.001233, 10.00065 
2.985113e+3, 2.898194e+2, -250818.98, -193121.61, 27385.684, -0.7059802, -0.3172279, -182193.13, -82384.53, 0.0, 9.999785, 10.000546 
2.9847866e+3, 2.9981923e+2, -86536.28, 217027.25, 47630.086, 0.28776377, 0.18689728, 224325.13, 226133.64, 0.0, 9.998636, 10.003361 
3.000159e+3, 1.4023818e+2, -1347614.6, -2013534.6, 277950.8, -0.17133132, 0.67278177, -1246847.8, 318842.88, 0.0, 10.004182, 9.996016 
2.9998165e+3, 1.5022826e+2, -1414819.5, -1375352.5, 395464.97, -0.15848945, 0.29824382, -999128.94, 468666.25, 0.0, 10.000868, 10.001118 
2.999483e+3, 1.6022195e+2, -1698876.5, -1603438.6, 114988.6, 0.2636097, 0.104221076, -1526660.6, -156803.02, 0.0, 9.998478, 10.000163 
2.9991433e+3, 1.7022017e+2, -1385994.9, -1144514.3, -168198.75, 0.079864465, 0.26827955, -1058206.1, 213674.17, 0.0, 9.999106, 10.002101 
2.9988077e+3, 1.8021882e+2, -1203371.3, -1307062.3, -301134.9, 0.09990881, 0.45121375, -949651.4, 224246.25, 0.0, 10.000733, 9.999735 
2.9984757e+3, 1.9021758e+2, -737938.06, -1048219.1, -217719.63, 0.49764067, 0.8424892, -625739.06, 450171.1, 0.0, 10.00359, 9.999283 
2.998142e+3, 2.0020807e+2, -462401.7, -1034271.4, 50934.508, 0.6684022, 0.55184436, -457900.53, 520102.88, 0.0, 10.0052595, 9.998068 
2.9978058e+3, 2.1019885e+2, -518936.2, -578595.0, 259916.61, 0.074173935, 0.051550817, -287142.88, 592945.4, 0.0, 10.002675, 10.001541 
2.99747e+3, 2.2019617e+2, -808067.2, -999516.0, -22159.238, -0.4423747, 0.2448318, -805535.8, -23426.37, 0.0, 10.001163, 9.998927 
2.9971328e+3, 2.3019382e+2, -395127.38, -591222.0, -364504.3, 0.02704181, 0.5310346, -115713.87, 568421.2, 0.0, 10.002936, 9.999993 
2.996794e+3, 2.4019004e+2, -470683.88, -649046.25, -198479.53, 0.24506257, 0.6257337, -342270.47, 243903.69, 0.0, 10.001818, 9.999648 
2.996455e+3, 2.5017917e+2, -610166.8, -559091.0, 392260.53, 0.04744948, 0.0039439085, -191537.94, 296738.88, 0.0, 10.000084, 10.000186 
2.996118e+3, 2.6017487e+2, -1111149.4, -1046679.0, 311207.5, -0.17937542, 0.16385949, -766041.7, -375724.25, 0.0, 9.996928, 9.997918 
2.9957843e+3, 2.7017376e+2, 25618.504, -251729.67, 30729.639, -0.14953314, 0.66108066, 28982.486, 321320.53, 0.0, 10.003588, 9.999274 
2.995455e+3, 2.8016865e+2, -488994.3, -414139.06, -97762.71, 0.2846442, 0.69891244, -346884.44, -152487.66, 0.0, 9.998869, 10.000061 
2.9951122e+3, 2.9016393e+2, -270204.22, 91389.31, 137088.95, -0.17341289, 0.47302958, 137486.47, 233926.44, 0.0, 9.99865, 10.002824 
2.9947716e+3, 3.0016273e+2, -149235.83, 49282.008, -154937.89, -0.53048676, 0.69975495, 134028.75, 134028.75, 0.0, 9.999138, 10.001741 
