coord_x,coord_y,stress_xx,stress_yy,tau_xy,velocity_x,velocity_y,stress_1,eps,damage,lx,ly
4.9989253e+0, 1.2611319e+2, -1880126.9, -1636694.0, 15762.205, -0.016846966, 0.05087674, -1635677.8, 68414.42, 0.0013143772, 9.998182, 10.0014105 
4.999253e+0, 1.3611278e+2, -1849064.6, -1711133.1, 9794.394, 0.008672735, -0.010573021, -1710441.1, -104346.71, 0.0008064585, 9.998328, 10.000155 
4.9993405e+0, 1.4611264e+2, -1715302.5, -1564505.1, 5099.9814, 0.011953247, -0.051342834, -1564332.8, -56239.06, 0.00037918316, 9.998439, 10.000432 
4.999261e+0, 1.5611307e+2, -1609673.0, -1471048.3, 3912.8179, -0.00038212302, -0.05555151, -1470937.9, -60850.266, 0.00011767186, 9.998528, 10.000358 
4.999365e+0, 1.661132e+2, -1534106.9, -1468110.0, 8179.537, -0.0004316631, -0.03672838, -1467111.4, -155025.0, 0.000016018055, 9.998736, 9.999606 
4.999594e+0, 1.7611295e+2, -1393684.5, -1350495.5, 10060.641, 0.0077439086, -0.02783682, -1348266.9, -134176.6, 0.00000013955699, 9.999032, 9.9995985 
4.9997416e+0, 1.8611243e+2, -1274267.3, -1280794.0, 5288.0366, 0.0068205665, -0.020890243, -1271316.8, -155220.67, 0.0, 9.999345, 9.999254 
4.9998355e+0, 1.9611178e+2, -1130378.0, -1162743.5, -4975.809, 0.000059057853, -0.0139379185, -1129630.4, -111527.84, 0.0, 9.999669, 9.999235 
4.9999657e+0, 2.0611066e+2, -1016569.1, -1090778.8, -6618.435, 0.00037902372, -0.034217708, -1015983.5, -95870.52, 0.0, 9.999923, 9.998934 
5.000117e+0, 2.1610916e+2, -888858.2, -979303.94, -115.1792, 0.0051401835, -0.080938786, -888858.06, -66731.625, 0.0, 10.000131, 9.998925 
5.000223e+0, 2.2610831e+2, -779477.44, -906843.4, -4401.466, 0.0051761535, -0.045134235, -779325.5, -55189.645, 0.0, 10.000342, 9.998649 
5.000299e+0, 2.3610781e+2, -654412.44, -801974.8, -16168.206, 0.0021878832, 0.038237497, -652661.7, -26518.807, 0.0, 10.000554, 9.998593 
5.000402e+0, 2.4610613e+2, -572507.44, -785795.8, -8306.544, 0.0019583285, 0.04715899, -572184.44, -44023.08, 0.0, 10.000763, 9.9979315 
5.0005215e+0, 2.5610363e+2, -439360.97, -663357.7, 12078.853, 0.0035492205, 0.0006378619, -438711.5, -8524.032, 0.0, 10.000972, 9.997999 
5.000545e+0, 2.6610184e+2, -297368.56, -504464.88, 8452.132, -0.00070714514, -0.00038153713, -297024.2, 35180.42, 0.0, 10.001103, 9.998353 
5.0005054e+0, 2.761005e+2, -189767.0, -405612.5, -8213.157, -0.0087710135, 0.025451176, -189454.94, 44760.645, 0.0, 10.001185, 9.998319 
5.000597e+0, 2.860985e+2, -115445.95, -384789.6, -3757.6968, -0.0055783074, 0.027458305, -115393.54, 20839.56, 0.000000004221918, 10.001306, 9.99773 
5.000775e+0, 2.9609597e+2, 10694.248, -262701.4, 12763.839, 0.004794884, -0.005402909, 11288.852, 49545.297, 0.0000065845143, 10.001453, 9.997825 
5.000807e+0, 3.0609208e+2, 94002.63, -156947.11, 9743.998, 0.004840161, -0.19816288, 94380.41, 94380.41, 0.0000754208, 10.001515, 9.99819 
5.0006974e+0, 3.160922e+2, 165466.22, -7497.622, -3826.8228, -0.005942047, -0.0059068752, 165550.84, 165550.84, 0.0002698707, 10.001511, 9.999219 
1.4996773e+1, 1.2611297e+2, -1893235.1, -1663130.8, 18570.893, -0.050694916, -0.008613315, -1661641.5, 42450.31, 0.0012897267, 9.998179, 10.00123 
1.499776e+1, 1.36113e+2, -1861025.9, -1735426.8, 14857.536, 0.026095504, -0.0053666057, -1733693.1, -127602.055, 0.0007892631, 9.998327, 9.99999 
1.4998022e+1, 1.461129e+2, -1718331.9, -1570142.0, 7883.1846, 0.035819985, -0.034854334, -1569723.9, -61632.906, 0.00036879338, 9.998437, 10.000395 
1.4997783e+1, 1.5611309e+2, -1611923.0, -1475294.0, 7857.503, -0.0011165312, -0.05953872, -1474843.6, -64756.203, 0.00011270428, 9.998526, 10.00033 
1.4998095e+1, 1.6611317e+2, -1530544.3, -1460304.8, 18974.88, -0.001335331, -0.046930168, -1455506.5, -143420.5, 0.000014709239, 9.998735, 9.9996605 
1.4998782e+1, 1.7611301e+2, -1392945.3, -1348427.8, 21213.236, 0.023231465, -0.033466935, -1339938.3, -125850.086, 0.00000010097208, 9.99903, 9.999614 
1.4999224e+1, 1.861123e+2, -1293072.9, -1319223.3, 17358.818, 0.020417176, -0.029987592, -1284415.9, -168319.61, 0.0, 9.999343, 9.998991 
1.4999507e+1, 1.9611132e+2, -1145242.3, -1193382.5, 6791.538, 0.00014002551, -0.030775223, -1144302.5, -126194.9, 0.0, 9.999668, 9.999025 
1.4999896e+1, 2.0611052e+2, -1004224.94, -1064809.9, 1020.1577, 0.001124278, -0.019866832, -1004207.8, -84092.61, 0.0, 9.999922, 9.999113 
1.5000351e+1, 2.1610975e+2, -880496.0, -961493.8, 7775.659, 0.015423755, -0.010120916, -879756.3, -57635.375, 0.0, 10.000129, 9.999049 
1.500067e+1, 2.2610836e+2, -801178.0, -951504.06, 3510.564, 0.015496961, -0.017476646, -801096.06, -76960.18, 0.0, 10.00034, 9.9983425 
1.5000898e+1, 2.3610651e+2, -669659.4, -833457.1, -8161.106, 0.0065776175, -0.038879074, -669253.75, -43096.953, 0.0, 10.000554, 9.998378 
1.5001203e+1, 2.4610543e+2, -533889.6, -705407.7, -569.4098, 0.005824866, 0.009073317, -533887.7, -5718.8066, 0.0, 10.000762, 9.998485 
1.5001565e+1, 2.561048e+2, -407773.16, -597495.5, 19436.629, 0.01063713, 0.09428459, -405802.38, 24373.246, 0.0, 10.000971, 9.998451 
1.5001635e+1, 2.6610258e+2, -328386.88, -568569.6, 11366.967, -0.002139866, 0.05440928, -327850.13, 4346.8984, 0.0, 10.0011015, 9.997913 
1.5001516e+1, 2.760993e+2, -214900.33, -457463.6, -4870.785, -0.026286567, -0.06696425, -214802.56, 19425.121, 0.0, 10.0011835, 9.997964 
1.5001792e+1, 2.8609776e+2, -84129.69, -319332.94, 1721.5313, -0.016749235, -0.029096998, -84117.086, 52123.87, 0.0000000059189293, 10.001305, 9.998181 
1.5002325e+1, 2.9609722e+2, 36666.938, -208432.3, 17969.836, 0.01442228, 0.09370165, 37977.418, 76221.75, 0.0000065077284, 10.001452, 9.9981985 
1.5002419e+1, 3.0609316e+2, 70909.086, -204554.55, 9766.359, 0.014499327, -0.115039974, 71254.91, 71254.91, 0.000074264535, 10.001514, 9.997864 
1.500209e+1, 3.1609163e+2, 142179.94, -55350.324, -5744.415, -0.017958203, -0.056802068, 142346.86, 142346.86, 0.00026634705, 10.001509, 9.998892 
2.4994954e+1, 1.2611257e+2, -1923692.5, -1672615.3, -23475.426, -0.039388705, -0.021247176, -1670439.1, 33655.973, 0.0012539346, 9.997951, 10.001277 
2.4995913e+1, 1.3611281e+2, -1874882.6, -1738625.8, -8708.41, 0.014037158, -0.0015983785, -1738071.4, -131979.08, 0.0007642556, 9.998218, 10.000022 
2.4996388e+1, 1.461127e+2, -1719257.6, -1579225.0, -11865.772, 0.02705093, -0.029233811, -1578226.6, -70134.055, 0.0003536966, 9.998467, 10.000319 
2.4996507e+1, 1.5611276e+2, -1588998.3, -1471229.1, -14428.986, 0.009273403, -0.05716868, -1469487.0, -59396.418, 0.00010549485, 9.9987135, 10.000268 
2.4997057e+1, 1.6611283e+2, -1492023.3, -1434307.6, -1.3375773, 0.00963823, -0.049256198, -1434307.6, -122218.29, 0.000012859098, 9.998968, 9.999727 
2.4997911e+1, 1.7611265e+2, -1360491.4, -1327696.9, 3039.157, 0.023109972, -0.041178357, -1327417.6, -113327.13, 0.00000006033416, 9.99923, 9.99966 
2.4998619e+1, 1.8611193e+2, -1288033.6, -1328751.9, 5972.9536, 0.021390768, -0.037658587, -1287175.5, -171076.38, 0.0, 9.999429, 9.998885 
2.4999231e+1, 1.9611089e+2, -1162869.9, -1211742.3, 7157.0293, 0.009641988, -0.034224436, -1161843.4, -143731.38, 0.0, 9.99959, 9.998938 
2.499989e+1, 2.0611013e+2, -1009703.44, -1061656.8, 1102.4694, 0.011434889, -0.015269172, -1009680.06, -89560.86, 0.0, 9.999859, 9.999165 
2.5000572e+1, 2.1610953e+2, -868350.06, -951066.7, -2312.885, 0.021508638, 0.0045278496, -868285.44, -46161.99, 0.0, 10.000193, 9.99909 
2.5001088e+1, 2.2610807e+2, -801190.7, -954263.56, -1913.1936, 0.022630407, -0.0077120275, -801166.8, -77027.836, 0.0, 10.000352, 9.998319 
2.500149e+1, 2.361061e+2, -691903.3, -844761.25, 7798.678, 0.017939532, -0.041935146, -691506.5, -65344.957, 0.0, 10.000403, 9.998373 
2.500192e+1, 2.4610513e+2, -550165.8, -695874.44, 9438.246, 0.010456001, 0.009142859, -549557.0, -21384.643, 0.0, 10.000575, 9.99864 
2.500237e+1, 2.561048e+2, -418857.53, -587086.75, -845.5856, 0.0011403379, 0.106955774, -418853.28, 11322.62, 0.0, 10.000827, 9.998592 
2.5002646e+1, 2.6610255e+2, -339632.28, -573788.9, -4487.9165, -0.007327209, 0.06157394, -339546.28, -7349.1147, 0.0, 10.001024, 9.997915 
2.5002822e+1, 2.7609912e+2, -213138.06, -455810.38, 12397.048, -0.014692755, -0.076266356, -212506.4, 21723.273, 0.0, 10.001193, 9.997972 
2.5003153e+1, 2.8609768e+2, -80973.33, -308878.7, 15099.265, -0.0102096535, -0.03265652, -79977.32, 56264.76, 0.0000000086392555, 10.001287, 9.998261 
2.5003573e+1, 2.9609746e+2, 23655.129, -206425.72, 3557.2456, 0.00024357927, 0.11111041, 23710.113, 61952.836, 0.0000063841276, 10.0013275, 9.998272 
2.5003842e+1, 3.0609342e+2, 63145.793, -208002.97, -696.9216, 0.007939309, -0.09779256, 63147.582, 63147.582, 0.00007245599, 10.001461, 9.997867 
2.50038e+1, 3.1609172e+2, 161796.78, -47998.24, 5963.3813, -0.0052573583, -0.052545007, 161966.16, 161966.16, 0.00026087384, 10.001655, 9.998872 
3.499346e+1, 1.26112e+2, -1904325.1, -1632795.1, -15366.643, 0.015313243, 0.012490112, -1631928.3, 72173.71, 0.0012062672, 9.9979515, 10.00155 
3.4993714e+1, 1.361122e+2, -1858175.6, -1704670.8, 1357.251, -0.028464288, 0.0009287317, -1704658.8, -98560.59, 0.00073077687, 9.998221, 10.000254 
3.4994438e+1, 1.4611204e+2, -1727252.9, -1596239.4, -2901.0913, -0.015218984, -0.034087278, -1596175.1, -88076.586, 0.00033350204, 9.998469, 10.0002 
3.4995434e+1, 1.5611212e+2, -1596244.1, -1485726.3, -5126.7793, 0.03002592, -0.048022565, -1485488.9, -75391.625, 0.000095918134, 9.998712, 10.00017 
3.499625e+1, 1.6611215e+2, -1486725.8, -1422695.0, 9768.124, 0.03171989, -0.04370443, -1421238.0, -109141.88, 0.000010539653, 9.998965, 9.999808 
3.4996977e+1, 1.7611192e+2, -1354993.1, -1316269.0, 12642.446, 0.006701871, -0.051084798, -1312507.0, -98409.81, 0.000000028001644, 9.99923, 9.999738 
3.4997928e+1, 1.8611129e+2, -1284572.9, -1321515.8, 11878.143, 0.009031016, -0.04383277, -1281083.4, -164978.66, 0.0, 9.99943, 9.998935 
3.4999007e+1, 1.9611046e+2, -1160839.9, -1206887.3, 14101.34, 0.028203456, -0.02399797, -1156864.8, -138749.06, 0.0, 9.999588, 9.998972 
3.4999943e+1, 2.0610952e+2, -1015327.75, -1072860.9, 13828.013, 0.030749496, -0.020426638, -1012176.8, -92051.75, 0.0, 9.999857, 9.999089 
3.5000777e+1, 2.1610849e+2, -871110.75, -956714.94, 9222.85, 0.022865163, -0.036978606, -870128.4, -47994.4, 0.0, 10.000192, 9.999052 
3.5001472e+1, 2.261075e+2, -783183.06, -916727.5, -75.791084, 0.025796015, -0.015845278, -783183.0, -59037.99, 0.0, 10.000351, 9.998577 
3.5002077e+1, 2.3610654e+2, -677637.3, -815057.7, 10656.347, 0.035786334, 0.028956443, -676815.9, -50658.746, 0.0, 10.000403, 9.998577 
3.5002545e+1, 2.4610521e+2, -567070.94, -730758.3, 18845.65, 0.015297286, 0.047072645, -564929.25, -36757.516, 0.0, 10.000575, 9.998401 
3.5002935e+1, 2.5610358e+2, -430867.63, -611667.0, 8319.359, -0.025285339, 0.038774982, -430485.63, -297.34894, 0.0, 10.000825, 9.998425 
3.5003576e+1, 2.6610178e+2, -308779.47, -509506.38, 1750.7773, -0.016911974, 0.021175204, -308764.2, 23440.855, 0.0, 10.001023, 9.998358 
3.5004413e+1, 2.7609995e+2, -187414.38, -402110.03, 18446.486, 0.025291635, -0.002630767, -185841.0, 48380.594, 0.0, 10.001192, 9.998341 
3.5004675e+1, 2.8609827e+2, -101596.23, -351145.06, 16467.586, 0.01325909, 0.016583733, -100514.234, 35722.258, 0.000000011844628, 10.001286, 9.997972 
3.5004517e+1, 2.960966e+2, 7503.0728, -239444.45, 5700.183, -0.038228627, 0.046924073, 7634.5776, 45886.234, 0.0000061783935, 10.001327, 9.998046 
3.5005075e+1, 3.060928e+2, 86357.7, -159580.31, 6694.341, -0.015178405, -0.1464497, 86539.79, 86539.79, 0.00006980885, 10.001461, 9.9981985 
3.5005817e+1, 3.160925e+2, 182145.58, -5829.5903, 10791.753, 0.03079212, 0.0064387713, 182763.11, 182763.11, 0.00025299258, 10.001656, 9.999162 
4.4991484e+1, 1.2611091e+2, -1891225.3, -1613036.1, -20841.404, 0.021270823, 0.011672629, -1611483.5, 92629.43, 0.0011480161, 9.997984, 10.001671 
4.499198e+1, 1.3611116e+2, -1860745.0, -1692996.0, -13593.579, -0.020636989, -0.007976693, -1691901.6, -85793.61, 0.0006895071, 9.998149, 10.000369 
4.4992882e+1, 1.4611106e+2, -1742471.8, -1602168.6, -15613.583, -0.012670934, -0.044060834, -1600452.0, -92344.13, 0.00030865482, 9.99836, 10.000214 
4.4994003e+1, 1.5611126e+2, -1610799.8, -1491418.8, -8138.4204, 0.02119623, -0.047618967, -1490866.5, -80760.805, 0.00008435172, 9.998607, 10.000182 
4.4995058e+1, 1.6611125e+2, -1510199.8, -1431362.0, 7318.8745, 0.02436106, -0.047220856, -1430688.4, -118583.68, 0.000007991499, 9.998794, 9.999832 
4.4996098e+1, 1.761109e+2, -1393835.1, -1331115.5, 6029.9624, 0.009435558, -0.06823053, -1330541.0, -116434.41, 0.000000008983813, 9.998948, 9.999773 
4.499732e+1, 1.8611038e+2, -1305921.3, -1319097.3, 8132.8438, 0.015152946, -0.057979044, -1302042.9, -185930.02, 0.0, 9.9992285, 9.999048 
4.4998643e+1, 1.961098e+2, -1153605.0, -1192477.9, 14907.869, 0.032852244, -0.024122529, -1148546.1, -130425.03, 0.0, 9.999591, 9.99907 
4.4999787e+1, 2.0610885e+2, -1023833.9, -1079746.9, 18332.953, 0.031598862, -0.025380397, -1018358.9, -98227.92, 0.0, 9.999811, 9.999064 
4.5000803e+1, 2.1610764e+2, -908025.25, -974767.3, 17175.771, 0.018720523, -0.05841108, -903864.56, -81722.32, 0.0, 9.99994, 9.99905 
4.5001695e+1, 2.2610682e+2, -793895.94, -903965.75, 3884.9624, 0.020391759, -0.026463507, -793759.0, -69607.71, 0.0, 10.000201, 9.998737 
4.5002502e+1, 2.3610632e+2, -647295.1, -784985.1, 7038.691, 0.031279597, 0.046469808, -646936.25, -20777.465, 0.0, 10.000545, 9.998715 
4.500318e+1, 2.4610494e+2, -552866.9, -728951.7, 19202.264, 0.01534845, 0.05471555, -550797.1, -22623.16, 0.0, 10.000694, 9.998356 
4.5003772e+1, 2.5610292e+2, -448264.38, -623191.2, 22931.322, -0.018474892, 0.012731638, -445308.25, -15113.731, 0.0, 10.00072, 9.998396 
4.5004556e+1, 2.661013e+2, -323565.88, -502268.97, 10128.047, -0.013251986, 0.006487673, -322993.7, 9216.152, 0.0, 10.00086, 9.9984865 
4.5005488e+1, 2.7609998e+2, -196482.8, -394056.3, 2845.408, 0.019563925, 0.022817675, -196441.83, 37779.617, 0.0, 10.001077, 9.998452 
4.5005897e+1, 2.860983e+2, -109476.61, -361180.22, -977.14514, 0.00829421, 0.037459966, -109472.82, 26764.047, 0.000000014278152, 10.001259, 9.997916 
4.5005918e+1, 2.9609624e+2, 19403.852, -238011.47, 5716.516, -0.035949018, 0.034254845, 19530.738, 57786.867, 0.0000058442592, 10.001427, 9.998008 
4.5006612e+1, 3.060925e+2, 101292.88, -139090.7, 4205.614, -0.009503854, -0.15728566, 101366.44, 101366.44, 0.000066210356, 10.001506, 9.998319 
4.5007378e+1, 3.1609258e+2, 165196.95, -6220.0225, -10687.522, 0.028793184, 0.024234883, 165860.73, 165860.73, 0.0002424885, 10.001505, 9.999232 
5.498903e+1, 1.2610935e+2, -1892720.6, -1617724.3, -17391.705, -0.023919763, -0.02148267, -1616628.8, 87498.89, 0.0010818627, 9.997991, 10.001636 
5.4990697e+1, 1.361097e+2, -1861369.8, -1693856.3, -7179.8257, 0.03668198, -0.0281028, -1693549.1, -87427.15, 0.0006423977, 9.998147, 10.000364 
5.4991704e+1, 1.4610972e+2, -1732660.6, -1581015.5, -6201.8164, 0.033468667, -0.05957392, -1580762.4, -72641.836, 0.00028050644, 9.998357, 10.0003605 
5.4992217e+1, 1.5611014e+2, -1601666.3, -1472968.6, 1042.455, -0.018625744, -0.056039646, -1472960.3, -62844.453, 0.00007169208, 9.998609, 10.000307 
5.4993474e+1, 1.6611013e+2, -1512474.1, -1436333.0, 13059.656, -0.013425588, -0.059615064, -1434155.3, -122040.336, 0.0000055425044, 9.998795, 9.999797 
5.499526e+1, 1.7610964e+2, -1395248.6, -1332979.5, 12826.262, 0.030953594, -0.09207617, -1330441.1, -116322.38, 0.00000000116644, 9.998944, 9.999762 
5.499678e+1, 1.8610922e+2, -1294063.6, -1293500.0, 21945.709, 0.038896497, -0.079861, -1271834.3, -155710.75, 0.0, 9.999225, 9.999226 
5.4998136e+1, 1.9610894e+2, -1142302.1, -1169020.6, 27772.672, 0.02256636, -0.034798533, -1124842.8, -106714.24, 0.0, 9.999591, 9.99923 
5.499941e+1, 2.0610814e+2, -1021794.0, -1075473.8, 23132.8, 0.013036771, -0.030172197, -1013200.75, -93063.81, 0.0, 9.999811, 9.999094 
5.500064e+1, 2.1610697e+2, -905886.2, -970111.75, 23114.18, 0.0083789015, -0.06005614, -898432.6, -76284.414, 0.0, 9.999939, 9.999083 
5.5001754e+1, 2.2610609e+2, -789658.8, -894855.75, 16952.6, 0.0057355505, -0.039809123, -786994.4, -62836.496, 0.0, 10.000199, 9.9988 
5.500278e+1, 2.3610544e+2, -642142.8, -774174.75, 18859.023, 0.003976514, 0.010711125, -639501.9, -13335.402, 0.0, 10.000545, 9.99879 
5.5003816e+1, 2.4610429e+2, -542636.06, -707657.44, 20037.947, 0.009682672, 0.032321382, -540237.8, -12058.671, 0.0, 10.000693, 9.998503 
5.500488e+1, 2.5610277e+2, -440770.06, -607452.8, 24735.967, 0.0203675, 0.028621014, -437176.7, -6982.0283, 0.0, 10.000719, 9.998506 
5.5005574e+1, 2.6610106e+2, -336539.16, -528862.9, 18228.652, 0.00283445, 0.017169826, -334826.66, -2615.0427, 0.0, 10.000858, 9.998303 
5.500605e+1, 2.7609923e+2, -206870.69, -415203.03, 10720.937, -0.032308124, 0.0002285288, -206320.44, 27908.797, 0.0, 10.001075, 9.998307 
5.5006814e+1, 2.860977e+2, -97275.29, -335632.1, 5203.34, -0.025696851, 0.030022394, -97161.76, 39081.453, 0.000000014996283, 10.001259, 9.998092 
5.500777e+1, 2.960963e+2, 29761.195, -216235.61, 11618.724, 0.00617962, 0.07270606, 30308.744, 68564.94, 0.0000053587105, 10.001426, 9.998158 
5.5008453e+1, 3.0609247e+2, 94436.73, -152935.55, 4302.616, 0.02410398, -0.13114, 94511.54, 94511.54, 0.00006167987, 10.001505, 9.998224 
5.500847e+1, 3.1609195e+2, 154684.95, -27924.477, -12642.045, -0.012810937, -0.00032516805, 155556.02, 155556.02, 0.00022941288, 10.001505, 9.9990835 
6.498716e+1, 1.261083e+2, -1890856.0, -1630283.0, 13014.18, -0.013201709, -0.036025953, -1629634.6, 74501.89, 0.0010116006, 9.998062, 10.001514 
6.4988893e+1, 1.361086e+2, -1845803.4, -1697060.1, 18872.957, 0.0338607, -0.03499834, -1694702.9, -88570.93, 0.00059264415, 9.998301, 10.000268 
6.499012e+1, 1.461086e+2, -1708185.5, -1564876.5, 13516.954, 0.032031044, -0.06756329, -1563612.8, -55481.77, 0.0002512883, 9.998507, 10.000399 
6.499095e+1, 1.561091e+2, -1586301.6, -1462250.8, 12154.901, -0.010045832, -0.060440224, -1461070.9, -50945.71, 0.000059186506, 9.9987, 10.000337 
6.4992404e+1, 1.6610909e+2, -1500370.8, -1436438.4, 18812.05, -0.005858569, -0.06231128, -1431313.8, -119189.28, 0.0000034805446, 9.998904, 9.999743 
6.4994276e+1, 1.7610855e+2, -1372602.5, -1326067.6, 17534.035, 0.029899856, -0.09428455, -1320200.6, -106071.664, 0.00000000000024211628, 9.999117, 9.999725 
6.4995974e+1, 1.8610814e+2, -1280759.4, -1276485.8, 24827.914, 0.033265155, -0.086409874, -1253702.9, -137569.19, 0.0, 9.99927, 9.99932 
6.4997554e+1, 1.9610786e+2, -1165750.1, -1170872.9, 24224.197, 0.015139087, -0.04868539, -1143952.3, -125814.305, 0.0, 9.99939, 9.999314 
6.499907e+1, 2.061072e+2, -1048830.8, -1088175.4, 15153.653, 0.0071019484, -0.035530277, -1043671.0, -123525.55, 0.0, 9.999624, 9.999096 
6.500055e+1, 2.161062e+2, -906013.56, -968876.8, 13251.17, 0.00574354, -0.046201296, -903334.44, -81178.98, 0.0, 9.999933, 9.999093 
6.5001875e+1, 2.2610526e+2, -793827.2, -888145.6, 7773.3257, 0.001803144, -0.03887846, -793190.8, -69024.94, 0.0, 10.0001335, 9.9988785 
6.50031e+1, 2.3610434e+2, -677031.9, -780998.9, 10161.446, -0.004100365, -0.02303696, -676048.0, -49871.504, 0.0, 10.000262, 9.998879 
6.500435e+1, 2.4610339e+2, -562996.2, -698750.6, 9868.892, 0.004073635, 0.006012926, -562282.5, -34095.637, 0.0, 10.000473, 9.99867 
6.5005624e+1, 2.561024e+2, -427159.25, -584638.8, 16298.951, 0.021547606, 0.03761947, -425490.03, 4707.2905, 0.0, 10.000742, 9.998651 
6.500648e+1, 2.6610067e+2, -330891.4, -530804.2, 17711.639, 0.005338908, 0.02157949, -329334.34, 2880.2588, 0.0, 10.000917, 9.998262 
6.500711e+1, 2.7609852e+2, -214557.17, -422469.97, 20596.783, -0.0319463, -0.026197, -212536.4, 21699.688, 0.0, 10.001038, 9.998276 
6.500802e+1, 2.8609714e+2, -104062.59, -331156.2, 14443.552, -0.027078958, 0.015912652, -103147.65, 33101.41, 0.000000013847158, 10.001179, 9.998161 
6.500911e+1, 2.960962e+2, 19703.03, -214348.05, 12673.72, 0.0028124212, 0.09931468, 20387.303, 58645.074, 0.0000047556837, 10.0013275, 9.998219 
6.500998e+1, 3.0609235e+2, 92492.81, -159492.97, 2982.2246, 0.026010348, -0.10490749, 92528.1, 92528.1, 0.000056396846, 10.001515, 9.998174 
6.5010107e+1, 3.160915e+2, 179442.94, -28883.889, -12927.656, -0.010408267, -0.001706432, 180242.1, 180242.1, 0.00021408794, 10.00173, 9.998967 
7.498586e+1, 1.2610775e+2, -1904832.4, -1659776.8, 20166.104, 0.050100476, -0.0340043, -1658128.4, 46011.457, 0.00094218313, 9.998064, 10.001311 
7.498655e+1, 1.3610792e+2, -1857939.0, -1723750.3, 28167.889, -0.031397548, -0.028998123, -1718077.3, -111939.36, 0.0005443152, 9.998306, 10.000082 
7.498812e+1, 1.4610772e+2, -1712861.5, -1575404.8, 20888.662, -0.018740356, -0.06795897, -1572300.5, -64161.38, 0.00022371147, 9.99851, 10.000325 
7.499022e+1, 1.5610814e+2, -1591936.3, -1473084.5, 19710.96, 0.04604266, -0.06061158, -1469900.9, -59766.875, 0.00004811655, 9.998696, 10.000264 
7.499182e+1, 1.6610815e+2, -1505629.3, -1446454.8, 27024.557, 0.045779258, -0.055104245, -1435970.5, -123837.17, 0.0000019773436, 9.9989, 9.999677 
7.499315e+1, 1.7610765e+2, -1376513.9, -1334531.6, 25480.86, 0.004917039, -0.07508085, -1322509.0, -108371.42, 0.0, 9.999119, 9.999666 
7.4994886e+1, 1.861071e+2, -1279776.1, -1274657.9, 29337.791, -0.002915246, -0.07782601, -1247767.9, -131624.36, 0.0, 9.999272, 9.999331 
7.499689e+1, 1.9610658e+2, -1165518.9, -1169825.9, 29687.072, 0.010285018, -0.06556201, -1137907.3, -119757.7, 0.0, 9.999388, 9.999323 
7.4998754e+1, 2.0610602e+2, -1050849.0, -1091854.9, 26929.695, 0.013403311, -0.04128181, -1037505.5, -117349.1, 0.0, 9.999622, 9.999072 
7.5000525e+1, 2.1610536e+2, -906869.1, -970456.0, 24342.305, 0.009909365, -0.016790874, -898620.44, -76456.36, 0.0, 9.999932, 9.999083 
7.500207e+1, 2.2610432e+2, -787355.75, -874640.94, 12590.136, 0.0074799433, -0.023726782, -785576.0, -61400.668, 0.0, 10.0001335, 9.998971 
7.5003463e+1, 2.3610303e+2, -669945.6, -766184.6, 15614.281, 0.0061447243, -0.054807413, -667475.6, -41286.758, 0.0, 10.000261, 9.998981 
7.500476e+1, 2.4610223e+2, -549746.7, -671056.75, 19982.61, -0.0021165651, -0.024581386, -546539.9, -18342.533, 0.0, 10.000472, 9.99886 
7.5006e+1, 2.561018e+2, -414598.28, -558259.75, 25847.22, -0.015326813, 0.039827198, -410089.4, 20113.152, 0.0, 10.000741, 9.998833 
7.5007296e+1, 2.6610017e+2, -324040.2, -516308.2, 21974.44, -0.0061770277, 0.019850506, -321560.7, 10658.105, 0.0, 10.0009165, 9.998363 
7.500866e+1, 2.7609777e+2, -209058.1, -410694.1, 25304.744, 0.01959725, -0.056674074, -205930.92, 28311.123, 0.0, 10.001037, 9.998357 
7.5009507e+1, 2.860965e+2, -106609.48, -336206.13, 19955.443, 0.0031293612, -0.00503694, -104887.945, 31366.477, 0.000000011324871, 10.001178, 9.998127 
7.500994e+1, 2.9609588e+2, 17773.174, -218215.72, 18497.334, -0.04681278, 0.11411371, 19214.236, 57475.066, 0.000004098041, 10.0013275, 9.998192 
7.5011194e+1, 3.0609217e+2, 91964.125, -160168.23, 10955.45, -0.0044606887, -0.078140326, 92439.26, 92439.26, 0.000050636394, 10.001514, 9.998169 
7.501229e+1, 3.1609127e+2, 173506.66, -40324.887, -6420.805, 0.034563474, 0.020754743, 173699.28, 173699.28, 0.00019707165, 10.001727, 9.99889 
8.498391e+1, 1.2610659e+2, -1914214.0, -1671301.5, -11314.023, 0.050484393, -0.04166328, -1670775.6, 33374.535, 0.00087835814, 9.998029, 10.001249 
8.4984916e+1, 1.3610683e+2, -1851031.3, -1725648.0, 9041.138, -0.0284198, -0.024510358, -1724999.5, -118851.36, 0.0005011039, 9.998376, 10.000035 
8.4986734e+1, 1.461065e+2, -1695797.9, -1575196.9, 4273.8823, -0.016681448, -0.06995908, -1575045.6, -66894.87, 0.00020010647, 9.998662, 10.000254 
8.4988993e+1, 1.561068e+2, -1564887.5, -1467393.6, 3267.1177, 0.043039486, -0.06771503, -1467284.3, -57137.563, 0.000039437622, 9.998915, 10.000198 
8.499075e+1, 1.6610678e+2, -1478297.8, -1432872.5, 12496.872, 0.040267024, -0.060507234, -1429661.5, -117515.41, 0.0000010481418, 9.999086, 9.99968 
8.4992254e+1, 1.7610635e+2, -1363134.8, -1327884.8, 15612.495, -0.0006710278, -0.07542335, -1321964.3, -107814.305, 0.0, 9.99921, 9.999668 
8.4994173e+1, 1.8610579e+2, -1271209.6, -1271542.3, 19050.805, -0.0046165627, -0.0784869, -1252324.4, -136168.63, 0.0, 9.999335, 9.999323 
8.4996355e+1, 1.9610524e+2, -1155350.3, -1165684.5, 18671.86, 0.014404532, -0.06958847, -1141143.8, -122981.51, 0.0, 9.999461, 9.999315 
8.49984e+1, 2.0610462e+2, -1054417.0, -1096466.9, 19444.004, 0.015754115, -0.048685055, -1046804.2, -126634.44, 0.0, 9.999611, 9.999046 
8.5000336e+1, 2.1610391e+2, -930263.0, -982839.75, 16260.294, 0.00573301, -0.027732886, -925640.56, -103462.06, 0.0, 9.999777, 9.999073 
8.500211e+1, 2.2610304e+2, -800315.25, -867319.3, 4058.8164, 0.005949308, -0.022187235, -800070.25, -75882.15, 0.0, 9.999986, 9.999092 
8.5003775e+1, 2.3610209e+2, -667022.8, -751834.9, 8750.145, 0.013090417, -0.029620988, -666129.44, -39931.277, 0.0, 10.000226, 9.999097 
8.500522e+1, 2.4610128e+2, -560548.0, -669889.06, 7818.747, 0.0015935113, -0.012521018, -559991.75, -31784.842, 0.0, 10.000371, 9.998918 
8.5006523e+1, 2.561005e+2, -451471.34, -568234.5, 3817.3496, -0.022656118, 0.014642788, -451346.7, -21131.719, 0.0, 10.000454, 9.998902 
8.5008043e+1, 2.660991e+2, -348332.2, -508420.28, 508.85638, -0.010564588, 0.0035404689, -348330.56, -16101.623, 0.0, 10.000666, 9.998538 
8.500974e+1, 2.760973e+2, -209832.31, -394525.03, 9143.451, 0.027679872, -0.034104835, -209380.77, 24865.865, 0.0, 10.000958, 9.998506 
8.501072e+1, 2.8609598e+2, -112673.52, -346893.0, 3350.37, 0.007980794, 0.010222307, -112625.61, 23633.941, 0.000000007967864, 10.001168, 9.998059 
8.501117e+1, 2.9609492e+2, 14472.923, -225887.88, -330.08704, -0.056821972, 0.09329713, 14473.376, 52743.74, 0.0000034232567, 10.00133, 9.998139 
8.5012704e+1, 3.0609128e+2, 108026.195, -145948.39, -2162.7173, -0.008544647, -0.090912804, 108044.62, 108044.62, 0.00004462947, 10.0015955, 9.998228 
8.501416e+1, 3.160908e+2, 197527.05, -31768.36, -16669.031, 0.039965566, 0.042212073, 198732.5, 198732.5, 0.00017893763, 10.0019045, 9.998863 
9.4981295e+1, 1.2610477e+2, -1908651.9, -1659958.0, -134.33846, -0.014844283, -0.05900922, -1659957.9, 44209.84, 0.00082284986, 9.99803, 10.001327 
9.4983995e+1, 1.3610531e+2, -1844679.0, -1712776.8, 21837.086, 0.04130034, -0.021983804, -1709255.5, -103092.85, 0.00046510532, 9.998377, 10.000123 
9.498593e+1, 1.4610492e+2, -1699947.8, -1583919.8, 13993.889, 0.036386527, -0.073792495, -1582255.9, -74090.07, 0.00018171112, 9.998663, 10.000194 
9.498727e+1, 1.5610506e+2, -1568145.8, -1474719.5, 12648.749, -0.020798512, -0.082223535, -1473037.4, -62873.977, 0.000033543416, 9.998917, 10.000147 
9.4989204e+1, 1.6610502e+2, -1473273.4, -1422734.0, 17381.318, -0.023882983, -0.079272844, -1417333.4, -105170.51, 0.00000057940093, 9.999088, 9.999748 
9.49916e+1, 1.7610464e+2, -1359194.5, -1319441.0, 20466.85, 0.012408436, -0.095414385, -1310787.5, -96621.5, 0.0, 9.999208, 9.999726 
9.499383e+1, 1.8610421e+2, -1273042.0, -1275090.8, 23855.75, 0.027216468, -0.08808543, -1250188.6, -134017.92, 0.0, 9.999334, 9.999299 
9.499594e+1, 1.9610381e+2, -1156815.4, -1168837.5, 23738.7, 0.026568864, -0.06066168, -1138338.5, -120162.73, 0.0, 9.999462, 9.999293 
9.4997984e+1, 2.0610298e+2, -1056367.5, -1100571.3, 25678.766, 0.013450999, -0.057802815, -1044588.9, -124403.32, 0.0, 9.999611, 9.999018 
9.4999987e+1, 2.1610183e+2, -930959.06, -984204.3, 22946.89, -0.0073477603, -0.07894087, -922434.5, -100235.72, 0.0, 9.999776, 9.999064 
9.500201e+1, 2.2610143e+2, -790136.44, -846021.6, 13078.636, -0.0035072593, -0.034059163, -787227.1, -63022.914, 0.0, 9.999986, 9.999239 
9.5004034e+1, 2.3610157e+2, -658602.2, -733968.9, 17240.098, 0.016560063, 0.05194664, -654845.75, -28641.332, 0.0, 10.000225, 9.99922 
9.500572e+1, 2.4610049e+2, -565905.1, -680816.4, 10723.759, 0.01471055, 0.0420856, -564912.94, -36697.24, 0.0, 10.00037, 9.998842 
9.500719e+1, 2.5609857e+2, -454399.16, -574202.2, 7803.9795, -0.0016577339, -0.037810553, -453892.94, -23658.41, 0.0, 10.000453, 9.998861 
9.500872e+1, 2.6609752e+2, -330893.72, -472120.97, 11570.239, -0.008702321, -0.027161581, -329952.1, 2292.957, 0.0, 10.000665, 9.998788 
9.5010346e+1, 2.76097e+2, -194738.08, -362970.5, 19629.508, -0.007998679, 0.04135432, -192478.05, 41771.816, 0.0, 10.0009575, 9.998723 
9.501168e+1, 2.860955e+2, -119645.27, -361281.66, 9001.661, -0.013057758, 0.061497338, -119310.4, 16954.035, 0.0000000042394483, 10.001168, 9.99796 
9.5012784e+1, 2.9609326e+2, 8735.098, -237570.45, 6304.9424, -0.02783122, 0.03635272, 8896.386, 47182.76, 0.000002739973, 10.001329, 9.998059 
9.501451e+1, 3.060897e+2, 116605.04, -127471.75, 9787.432, 0.0130385095, -0.14380428, 116996.88, 116996.88, 0.000038513957, 10.001594, 9.998355 
9.50157e+1, 3.1609005e+2, 199113.47, -27474.334, -6460.863, 0.0034748155, 0.063197486, 199297.55, 199297.55, 0.00016010099, 10.001901, 9.998895 
1.0497931e+2, 1.2610288e+2, -1883214.5, -1654867.8, 2588.0623, -0.02651998, -0.07561437, -1654838.4, 49347.25, 0.0007762847, 9.998236, 10.001262 
1.0498259e+2, 1.3610348e+2, -1830697.3, -1709294.4, 14974.961, 0.057700526, -0.027695041, -1707474.5, -101294.33, 0.00043669788, 9.998487, 10.000093 
1.0498473e+2, 1.4610307e+2, -1694332.3, -1578275.8, 3726.939, 0.049223483, -0.08187997, -1578156.3, -69972.69, 0.00016867174, 9.998688, 10.00022 
1.0498601e+2, 1.5610325e+2, -1575930.5, -1475890.1, 8255.449, -0.03406065, -0.088120505, -1475213.5, -65032.727, 0.000030278157, 9.998852, 10.000171 
1.0498812e+2, 1.6610324e+2, -1482585.6, -1424079.3, 11904.781, -0.036587175, -0.0849498, -1421749.6, -109569.65, 0.0000004316036, 9.99901, 9.999778 
1.0499084e+2, 1.7610288e+2, -1364145.5, -1319055.3, 12379.702, 0.017507741, -0.10217912, -1315879.9, -101697.19, 0.0, 9.999163, 9.999752 
1.0499321e+2, 1.8610245e+2, -1280752.9, -1281600.9, 14388.218, 0.03475367, -0.09498176, -1266782.4, -150594.81, 0.0, 9.999293, 9.999274 
1.0499538e+2, 1.9610204e+2, -1164836.6, -1174331.1, 14008.393, 0.02658146, -0.06724853, -1154792.9, -136599.9, 0.0, 9.9994135, 9.99928 
1.0499759e+2, 2.0610127e+2, -1054390.3, -1090993.9, 22928.008, 0.014080201, -0.06082445, -1043355.25, -123153.2, 0.0, 9.999587, 9.999095 
1.0499983e+2, 2.1610025e+2, -923750.56, -972634.5, 28090.787, -0.0008971252, -0.076427564, -910956.75, -88742.914, 0.0, 9.999791, 9.999136 
1.05002e+2, 2.2609986e+2, -798407.25, -850272.7, 14185.971, -0.00016541088, -0.033538286, -794780.75, -70561.5, 0.0, 9.99993, 9.999236 
1.050041e+2, 2.3609993e+2, -687236.6, -747436.9, 7475.6055, 0.0108197285, 0.045548096, -686322.25, -60101.844, 0.0, 10.000027, 9.999223 
1.05006024e+2, 2.4609894e+2, -572170.56, -677088.9, 4967.0493, 0.01183602, 0.04184041, -571935.94, -43705.137, 0.0, 10.000298, 9.998903 
1.05007835e+2, 2.5609723e+2, -417369.84, -550457.0, 11493.791, 0.0058517638, -0.02386291, -416384.5, 13863.2, 0.0, 10.000682, 9.998915 
1.0500948e+2, 2.6609614e+2, -302370.63, -461043.7, 5449.4, -0.0091074, -0.017796803, -302183.7, 30074.854, 0.0, 10.000871, 9.998765 
1.0501108e+2, 2.7609542e+2, -199827.05, -367060.72, -6835.1274, -0.028135765, 0.034129232, -199548.16, 34717.082, 0.0, 10.000929, 9.99871 
1.0501272e+2, 2.8609395e+2, -122105.91, -355783.88, -17018.96, -0.022587722, 0.054295115, -120872.91, 15406.5205, 0.0000000012344323, 10.0011215, 9.998022 
1.0501436e+2, 2.9609188e+2, 22573.94, -224465.53, -7296.1143, -0.0068743643, 0.040579773, 22789.236, 61088.688, 0.0000020653147, 10.001394, 9.998119 
1.0501628e+2, 3.060884e+2, 120102.98, -120533.71, -1345.433, 0.030363409, -0.1394953, 120110.5, 120110.5, 0.00003243676, 10.001593, 9.998405 
1.05017304e+2, 3.1608862e+2, 171916.67, -47437.324, -25648.428, -0.01805953, 0.04850968, 174875.75, 174875.75, 0.00014094144, 10.001741, 9.998836 
1.1497794e+2, 1.2610088e+2, -1897770.0, -1685859.0, 10082.319, 0.012523814, -0.09243165, -1685380.4, 18823.652, 0.0007384457, 9.9982395, 10.001047 
1.1498069e+2, 1.3610134e+2, -1841720.1, -1731478.0, 24280.723, 0.01881512, -0.042474017, -1726367.1, -120166.45, 0.00041537013, 9.998485, 9.999943 
1.1498313e+2, 1.4610094e+2, -1687158.6, -1562730.4, 10233.268, 0.019767886, -0.095186435, -1561894.4, -53690.05, 0.00016046493, 9.998685, 10.000328 
1.1498523e+2, 1.5610138e+2, -1568844.1, -1461952.6, 14710.369, 0.001368797, -0.0855727, -1459965.3, -49766.188, 0.000029173738, 9.998855, 10.000265 
1.1498751e+2, 1.6610146e+2, -1482059.1, -1423682.0, 17652.738, 0.00070853805, -0.076994434, -1418759.1, -106561.75, 0.0000005105562, 9.999013, 9.999779 
1.1498996e+2, 1.7610109e+2, -1364197.5, -1319266.6, 18174.412, 0.0136976885, -0.09547132, -1312835.6, -98635.414, 0.0, 9.999163, 9.99975 
1.14992335e+2, 1.8610053e+2, -1282988.5, -1286107.1, 18968.844, 0.017224219, -0.0995797, -1265515.0, -149308.56, 0.0, 9.999292, 9.999243 
1.1499467e+2, 1.9609989e+2, -1165318.3, -1175381.5, 18994.98, 0.0140094, -0.08972458, -1150699.8, -132485.77, 0.0, 9.9994135, 9.999272 
1.1499721e+2, 2.060995e+2, -1041445.3, -1063963.4, 30693.236, 0.017025119, -0.05789367, -1020011.2, -99791.81, 0.0, 9.999586, 9.999281 
1.14999875e+2, 2.160992e+2, -913143.4, -950566.75, 35486.53, 0.024632059, -0.020110423, -891737.5, -69513.7, 0.0, 9.999791, 9.999288 
1.1500208e+2, 2.2609836e+2, -809023.44, -872236.2, 17639.426, 0.015536569, -0.020705696, -804434.3, -80201.016, 0.0, 9.999929, 9.999086 
1.1500398e+2, 2.3609722e+2, -695346.8, -764179.25, 12293.643, -0.0048127305, -0.048158124, -693217.06, -66970.98, 0.0, 10.000026, 9.999108 
1.1500613e+2, 2.4609667e+2, -558731.0, -649022.75, 19469.824, -0.007806001, -0.012838099, -554711.6, -26459.334, 0.0, 10.000297, 9.999097 
1.1500845e+2, 2.5609648e+2, -407456.28, -529597.3, 24718.002, -0.00021826393, 0.05601556, -402643.66, 27610.883, 0.0, 10.000681, 9.999059 
1.1501033e+2, 2.6609498e+2, -322740.8, -503289.84, 7334.585, -0.011927623, 0.031012995, -322443.34, 9826.242, 0.0, 10.000871, 9.998475 
1.1501195e+2, 2.7609262e+2, -216803.06, -402366.44, -3878.391, -0.03360339, -0.05565081, -216722.03, 17570.709, 0.0, 10.000929, 9.998467 
1.1501386e+2, 2.860914e+2, -106495.99, -322994.97, -6695.3745, -0.021562254, -0.011146231, -106289.125, 30015.35, 0.00000000006210851, 10.001121, 9.998247 
1.1501588e+2, 2.9609087e+2, 36711.223, -194484.33, 2684.664, 0.0053598555, 0.10608068, 36742.395, 75051.88, 0.0000014487281, 10.001392, 9.998326 
1.15017995e+2, 3.060874e+2, 117988.01, -124544.86, 4182.1235, 0.04255545, -0.077826545, 118060.1, 118060.1, 0.000026628812, 10.001591, 9.998379 
1.1501897e+2, 3.1608647e+2, 161114.89, -69816.94, -20700.102, -0.025875801, -0.0024722575, 162955.72, 162955.72, 0.00012196842, 10.001741, 9.998682 
1.2497648e+2, 1.2609902e+2, -1882070.8, -1679780.5, 15213.355, 0.036444403, -0.094339944, -1678642.8, 25579.031, 0.000709113, 9.998355, 10.001033 
1.2497895e+2, 1.360994e+2, -1825870.0, -1722710.1, 45142.285, -0.008590467, -0.05381612, -1705745.8, -99526.95, 0.00040043768, 9.9985895, 9.999952 
1.2498161e+2, 1.4609893e+2, -1682022.1, -1572499.5, 25094.44, -0.0036562444, -0.10857785, -1567023.5, -58800.02, 0.0001562618, 9.998773, 10.000219 
1.2498426e+2, 1.5609942e+2, -1566206.9, -1471757.9, 13313.34, 0.015971385, -0.081642196, -1469917.1, -59698.8, 0.000029665673, 9.99892, 10.000167 
1.2498674e+2, 1.6609952e+2, -1472419.3, -1420399.9, 9318.644, 0.018887442, -0.06609198, -1418780.9, -106564.125, 0.0000007617598, 9.9990835, 9.999768 
1.2498916e+2, 1.7609914e+2, -1350805.6, -1313759.6, 8460.848, 0.012772616, -0.08464036, -1311918.8, -97698.836, 0.0, 9.999258, 9.999743 
1.2499162e+2, 1.8609855e+2, -1261120.8, -1271743.5, 11376.169, 0.009580938, -0.09318973, -1253877.1, -137650.9, 0.0, 9.999425, 9.999278 
1.249941e+2, 1.9609788e+2, -1138221.6, -1158555.9, 16417.148, 0.0077971877, -0.09031383, -1129078.3, -110844.53, 0.0, 9.999583, 9.999306 
1.2499681e+2, 2.060975e+2, -1028377.5, -1055657.5, 22052.172, 0.014748195, -0.059398293, -1016087.8, -95849.02, 0.0, 9.999667, 9.999299 
1.24999665e+2, 2.1609725e+2, -923735.94, -953422.56, 14229.226, 0.027697707, -0.018676857, -918017.3, -95774.64, 0.0, 9.999708, 9.999309 
1.2500206e+2, 2.2609639e+2, -806474.6, -865329.9, 3538.3413, 0.020502351, -0.025857063, -806262.6, -82010.51, 0.0, 9.999922, 9.999137 
1.2500416e+2, 2.3609516e+2, -660043.44, -742448.94, 13336.1045, -0.00033028706, -0.066188514, -657938.94, -31673.756, 0.0, 10.000248, 9.999151 
1.250065e+2, 2.4609461e+2, -546119.94, -649291.4, 15850.694, -0.006766457, -0.029724985, -543739.7, -15468.194, 0.0, 10.000411, 9.999041 
1.2500899e+2, 2.560945e+2, -442791.84, -552429.6, 2325.3774, -0.0043867268, 0.050422702, -442742.53, -12468.92, 0.0, 10.0004635, 9.999007 
1.2501115e+2, 2.66093e+2, -348322.06, -515694.78, -9930.568, -0.008341101, 0.028455144, -347734.9, -15446.125, 0.0, 10.000695, 9.998475 
1.2501314e+2, 2.7609056e+2, -200226.06, -394649.06, 438.72675, -0.0138406, -0.061510615, -200225.06, 34087.277, 0.0, 10.001043, 9.9984665 
1.2501512e+2, 2.8608936e+2, -89655.65, -314336.16, -3946.4294, -0.011704494, -0.019010162, -89586.35, 46737.83, 0.0, 10.001232, 9.998254 
1.2501705e+2, 2.9608884e+2, 25666.426, -198353.9, -11208.629, -0.012238253, 0.09889211, 26225.842, 64554.723, 0.00000094519226, 10.00131, 9.99834 
1.2501952e+2, 3.0608547e+2, 118708.29, -121770.945, -10580.543, 0.03638788, -0.076311626, 119172.91, 119172.91, 0.000021325412, 10.001586, 9.998401 
1.2502103e+2, 3.1608447e+2, 189713.97, -67141.82, -32244.176, -0.007017411, -0.009046293, 193699.86, 193699.86, 0.00010374953, 10.001986, 9.998583 
1.3497491e+2, 1.2609728e+2, -1870445.1, -1654026.9, 23828.346, 0.044132557, -0.079841, -1651434.4, 52804.44, 0.0006877832, 9.998347, 10.001214 
1.3497736e+2, 1.3609765e+2, -1813170.3, -1698166.1, 54016.32, -0.027285868, -0.060905643, -1676774.3, -70539.62, 0.0003909241, 9.998597, 10.000118 
1.3498019e+2, 1.4609702e+2, -1703656.6, -1618986.9, 30414.006, -0.023654725, -0.12155001, -1609194.5, -100953.26, 0.00015498626, 9.998779, 9.999897 
1.349831e+2, 1.5609738e+2, -1586943.4, -1514021.1, 18900.973, 0.008718049, -0.0763218, -1509413.3, -99174.734, 0.000031126136, 9.998917, 9.999878 
1.349858e+2, 1.6609743e+2, -1474844.4, -1424701.9, 15970.039, 0.017136045, -0.05271564, -1420047.6, -107809.19, 0.0000011270397, 9.999081, 9.99974 
1.3498843e+2, 1.7609702e+2, -1351434.9, -1315644.5, 15147.383, 0.013506421, -0.07029597, -1310094.5, -95852.414, 0.0, 9.99926, 9.999729 
1.3499106e+2, 1.8609652e+2, -1253176.9, -1255809.6, 17352.406, 0.010796666, -0.07585515, -1237091.0, -120843.88, 0.0, 9.999427, 9.999387 
1.3499369e+2, 1.9609599e+2, -1132640.9, -1147261.0, 21997.61, 0.0073587173, -0.06859627, -1116770.6, -98518.32, 0.0, 9.999584, 9.999384 
1.349964e+2, 2.060953e+2, -1039172.56, -1078151.5, 23434.748, 0.0065969247, -0.06516694, -1028182.06, -107921.81, 0.0, 9.999667, 9.999145 
1.3499917e+2, 2.160944e+2, -931640.2, -969538.8, 16995.281, 0.007774651, -0.07216126, -925135.3, -102864.83, 0.0, 9.999706, 9.999198 
1.3500193e+2, 2.2609393e+2, -788924.6, -828693.25, 15869.409, 0.014041185, -0.048935357, -783368.3, -59092.57, 0.0, 9.999921, 9.99939 
1.3500465e+2, 2.3609376e+2, -646325.8, -713936.25, 24628.254, 0.023718238, -0.009028647, -638305.9, -12028.102, 0.0, 10.000248, 9.999347 
1.3500711e+2, 2.4609277e+2, -567384.2, -693509.6, 17617.877, 0.014519009, -0.009076048, -564969.44, -36681.063, 0.0, 10.000411, 9.998736 
1.3500941e+2, 2.5609124e+2, -459853.88, -587983.94, 5475.6333, -0.0074340547, -0.040154018, -459620.3, -29315.44, 0.0, 10.0004635, 9.998763 
1.3501193e+2, 2.6609015e+2, -328223.28, -473751.5, 3182.0562, 0.0007856311, -0.025196707, -328153.72, 4162.421, 0.0, 10.000694, 9.998763 
1.3501464e+2, 2.7608937e+2, -183479.4, -359611.97, 12726.344, 0.030582342, 0.016135175, -182564.63, 51759.457, 0.0, 10.001042, 9.998707 
1.3501655e+2, 2.8608784e+2, -104640.414, -345384.66, -1203.5792, 0.006418193, 0.030352836, -104634.4, 31704.174, 0.0, 10.001231, 9.998041 
1.3501789e+2, 2.960858e+2, 12807.671, -225276.25, -7026.059, -0.060457293, 0.018949265, 13014.835, 51372.51, 0.0000005800232, 10.00131, 9.998155 
1.3502084e+2, 3.060826e+2, 123996.19, -110348.164, 4522.7544, 0.011020084, -0.13526243, 124083.445, 124083.445, 0.000016654767, 10.001585, 9.998479 
1.3502346e+2, 3.1608266e+2, 186685.9, -72260.95, -17970.604, 0.036630563, 0.028366812, 187927.1, 187927.1, 0.00008670888, 10.001982, 9.998549 
1.4497323e+2, 1.2609512e+2, -1835643.1, -1647839.0, 8552.433, 0.028494662, -0.081819184, -1647450.4, 56809.645, 0.0006728006, 9.998631, 10.001121 
1.44976e+2, 1.3609563e+2, -1815963.3, -1704110.4, 19331.53, -0.022636594, -0.04499097, -1700863.5, -94608.57, 0.00038500954, 9.998596, 10.000077 
1.4497901e+2, 1.460949e+2, -1710254.3, -1626388.1, 3896.1394, -0.017307553, -0.11065445, -1626207.5, -117945.055, 0.00015511648, 9.998752, 9.99986 
1.44982e+2, 1.5609515e+2, -1575600.0, -1514109.4, 13111.049, 0.0011353852, -0.07253122, -1511430.5, -101169.96, 0.00003278088, 9.999018, 9.999829 
1.4498484e+2, 1.6609511e+2, -1473688.6, -1436794.3, 11707.24, 0.009934376, -0.049163006, -1433392.9, -121131.35, 0.0000015078091, 9.999143, 9.999627 
1.4498767e+2, 1.7609464e+2, -1370866.9, -1335283.6, 4610.541, 0.016531467, -0.062708944, -1334695.9, -120429.414, 0.0, 9.999171, 9.999638 
1.4499049e+2, 1.8609418e+2, -1263672.5, -1251109.8, 6175.759, 0.018156856, -0.064114876, -1248582.3, -132311.33, 0.0, 9.999312, 9.9994755 
1.449933e+2, 1.960938e+2, -1135451.8, -1140838.0, 8806.399, 0.014788976, -0.05296358, -1128935.9, -110661.62, 0.0, 9.99953, 9.999454 
1.4499614e+2, 2.0609295e+2, -1034011.6, -1082658.1, 11577.364, 0.011572209, -0.060762078, -1031396.9, -111113.805, 0.0, 9.999733, 9.999083 
1.44999e+2, 2.1609181e+2, -903800.56, -962120.25, 12514.302, 0.008823444, -0.088562064, -901228.6, -78932.75, 0.0, 9.999924, 9.999145 
1.4500192e+2, 2.260914e+2, -766672.94, -817180.3, 6924.542, 0.014328001, -0.057660885, -765740.75, -41440.16, 0.0, 10.000071, 9.999396 
1.4500488e+2, 2.360915e+2, -654246.25, -717335.0, -3171.335, 0.02528913, 0.008232839, -654087.2, -27787.15, 0.0, 10.000192, 9.999351 
1.4500755e+2, 2.4609043e+2, -572875.2, -696781.1, -6924.6143, 0.0193224, 0.00033588219, -572489.4, -44178.063, 0.0, 10.000376, 9.998732 
1.4501004e+2, 2.5608858e+2, -439888.3, -578756.25, 3718.7722, 0.0015735392, -0.060190782, -439788.8, -9458.3545, 0.0, 10.000603, 9.998759 
1.4501272e+2, 2.6608756e+2, -309817.0, -462343.5, 2894.6465, 0.005354703, -0.0412966, -309762.1, 22579.104, 0.0, 10.00081, 9.998786 
1.450156e+2, 2.7608705e+2, -188858.73, -359217.2, -7812.8438, 0.025195187, 0.025135264, -188501.19, 45845.293, 0.0, 10.000994, 9.998733 
1.4501774e+2, 2.860855e+2, -95157.56, -338956.16, -20591.822, 0.0007387099, 0.03430917, -93430.56, 42930.51, 0.0, 10.001289, 9.998056 
1.4501937e+2, 2.9608324e+2, 64954.332, -199139.67, -8707.548, -0.060580812, -0.00035585457, 65241.12, 103623.07, 0.00000034163278, 10.001664, 9.998164 
1.4502262e+2, 3.0608013e+2, 175318.17, -87388.67, 7807.088, 0.012039913, -0.14323427, 175549.98, 175549.98, 0.000012640429, 10.001945, 9.998464 
1.4502537e+2, 3.1608015e+2, 200539.33, -79234.43, -22646.791, 0.023985907, 0.017613957, 202360.66, 202360.66, 0.000071064576, 10.002135, 9.998427 
1.5497145e+2, 1.2609252e+2, -1860771.6, -1700798.6, 6132.8735, -0.014398859, -0.10073162, -1700563.8, 3721.7563, 0.0006609735, 9.998634, 10.000754 
1.5497486e+2, 1.360933e+2, -1833954.0, -1740146.8, 19036.137, 0.0047238134, -0.006139922, -1736431.0, -130151.0, 0.00037997565, 9.998591, 9.999833 
1.549781e+2, 1.4609258e+2, -1693203.1, -1589931.1, 13967.082, 0.015018296, -0.07581515, -1588075.5, -79788.29, 0.00015479715, 9.998747, 10.000113 
1.5498093e+2, 1.5609275e+2, -1561353.1, -1485321.1, 22401.191, -0.008419625, -0.07012845, -1479211.9, -68927.57, 0.000033834087, 9.999022, 10.000025 
1.5498386e+2, 1.6609259e+2, -1487135.0, -1465515.3, 12581.367, -0.0044022924, -0.055170927, -1459737.6, -147451.34, 0.0000017896223, 9.999146, 9.999428 
1.5498689e+2, 1.76092e+2, -1382872.3, -1359980.5, 6399.608, 0.02104954, -0.061516125, -1358312.9, -144019.44, 0.0, 9.999169, 9.999469 
1.5498994e+2, 1.8609154e+2, -1259364.3, -1241741.6, 14365.461, 0.030935977, -0.057882216, -1233700.5, -117402.52, 0.0, 9.9993105, 9.99954 
1.5499298e+2, 1.9609126e+2, -1130980.3, -1131622.5, 16995.525, 0.029485192, -0.043658286, -1114302.9, -96003.05, 0.0, 9.99953, 9.999517 
1.5499605e+2, 2.0609052e+2, -1031829.56, -1078117.1, 18691.457, 0.02925232, -0.046516817, -1025224.3, -104916.97, 0.0, 9.999732, 9.999114 
1.5499914e+2, 2.1608946e+2, -903574.06, -961683.9, 19545.0, 0.030298106, -0.06781523, -897611.94, -75293.03, 0.0, 9.999924, 9.999148 
1.5500206e+2, 2.2608878e+2, -783332.6, -851791.9, 11363.249, 0.020688284, -0.051931396, -781495.8, -57169.063, 0.0, 10.000071, 9.999159 
1.5500487e+2, 2.3608835e+2, -667189.6, -744107.56, 1845.819, 0.0040064338, -0.014209642, -667145.4, -40813.32, 0.0, 10.000191, 9.999167 
1.5500781e+2, 2.4608757e+2, -552600.44, -654636.8, 1565.2948, 0.006982652, -0.0013615001, -552576.44, -24236.193, 0.0, 10.000376, 9.999021 
1.5501085e+2, 2.5608653e+2, -423360.97, -544478.44, 12287.119, 0.021924099, -0.010271588, -422127.03, 8223.45, 0.0, 10.000603, 9.998995 
1.5501353e+2, 2.6608518e+2, -326832.6, -497582.44, 9780.708, 0.0048844484, -0.020161167, -326274.16, 6089.8135, 0.0, 10.00081, 9.998544 
1.5501602e+2, 2.7608362e+2, -202183.4, -386821.44, -215.59023, -0.030498859, -0.034120087, -202183.16, 32196.408, 0.0, 10.000993, 9.998543 
1.5501873e+2, 2.860823e+2, -77847.3, -303105.38, -6523.597, -0.029417004, -0.0071020606, -77658.53, 58733.184, 0.0, 10.001289, 9.998303 
1.550215e+2, 2.9608113e+2, 79488.2, -169078.83, 5223.896, -0.013094116, 0.040287267, 79597.94, 117999.73, 0.00000019535571, 10.001664, 9.99837 
1.5502483e+2, 3.060781e+2, 167109.9, -103735.92, 15216.357, 0.038797993, -0.100849494, 167962.1, 167962.1, 0.000009261703, 10.001942, 9.998352 
1.550268e+2, 3.1607693e+2, 185157.97, -110594.836, -14280.848, -0.047605112, -0.041476153, 185845.94, 185845.94, 0.000056915687, 10.002132, 9.998213 
1.6497003e+2, 1.2609003e+2, -1861739.9, -1720759.8, -5337.781, -0.023435257, -0.093071476, -1720558.0, -16247.769, 0.000647907, 9.998711, 10.000581 
1.6497354e+2, 1.3609073e+2, -1815893.5, -1741862.9, 23055.81, 0.003842932, 0.0033557767, -1735269.6, -128963.53, 0.00037279638, 9.998759, 9.99974 
1.6497695e+2, 1.4608993e+2, -1678612.5, -1576728.4, 20435.916, 0.022712016, -0.07339764, -1572782.1, -64468.133, 0.0001524271, 9.99882, 10.000167 
1.6498e+2, 1.5609013e+2, -1578435.4, -1488886.4, 13679.87, 0.0027636217, -0.07017964, -1486843.1, -76532.88, 0.000033788867, 9.998883, 10.000067 
1.6498303e+2, 1.6608997e+2, -1497058.5, -1474981.8, 5267.948, 0.0015652989, -0.054672096, -1473789.1, -161477.06, 0.0000018950186, 9.999098, 9.999387 
1.6498613e+2, 1.7608936e+2, -1351051.5, -1349410.1, 10583.199, 0.015750568, -0.058236826, -1339615.9, -125296.34, 0.0, 9.999409, 9.999426 
1.6498934e+2, 1.8608882e+2, -1216169.8, -1225482.1, 19179.58, 0.024047364, -0.05765028, -1201089.3, -84764.35, 0.0, 9.999626, 9.999499 
1.6499262e+2, 1.9608843e+2, -1096844.8, -1118852.5, 13442.081, 0.027423816, -0.05005304, -1090477.0, -72148.98, 0.0, 9.99978, 9.999485 
1.649959e+2, 2.0608778e+2, -1003523.0, -1060466.6, 11090.453, 0.031756103, -0.044178627, -1001439.25, -81104.69, 0.0, 9.999908, 9.99915 
1.6499917e+2, 2.1608694e+2, -887417.56, -951359.5, 12111.635, 0.03692977, -0.046950936, -885200.3, -62856.547, 0.0, 10.000023, 9.999171 
1.6500223e+2, 2.2608614e+2, -775694.8, -857245.4, 10793.624, 0.0266163, -0.04039681, -774290.44, -49937.605, 0.0, 10.000162, 9.999078 
1.6500515e+2, 2.3608536e+2, -653343.2, -745499.1, 13314.332, 0.0059798583, -0.029634137, -651458.1, -25096.453, 0.0, 10.000321, 9.999095 
1.6500825e+2, 2.4608463e+2, -531182.75, -643297.4, 8093.208, 0.0051725884, -0.008168865, -530601.5, -2232.2366, 0.0, 10.000519, 9.999029 
1.6501147e+2, 2.5608394e+2, -403429.66, -534219.2, -2243.0527, 0.016367372, 0.014633308, -403391.2, 26985.094, 0.0, 10.000737, 9.999001 
1.6501436e+2, 2.6608247e+2, -310679.56, -496146.47, -5685.5464, -0.00012125767, -0.0034523376, -310505.44, 21885.164, 0.0, 10.000949, 9.9984865 
1.6501708e+2, 2.7608052e+2, -182633.05, -383391.8, -1857.5392, -0.031943437, -0.051778212, -182615.86, 51793.82, 0.0, 10.001154, 9.998488 
1.6502006e+2, 2.860791e+2, -70850.62, -301772.66, -12045.558, -0.028844208, -0.02962007, -70223.99, 66198.56, 0.0, 10.001348, 9.998283 
1.650231e+2, 2.9607806e+2, 57975.53, -180251.5, -20162.682, -0.011313554, 0.033960804, 59669.977, 98101.32, 0.00000010392393, 10.001522, 9.998361 
1.6502674e+2, 3.0607525e+2, 152452.73, -104098.8, -10257.974, 0.041961927, -0.08630768, 152862.23, 152862.23, 0.0000064948904, 10.001812, 9.998411 
1.6502889e+2, 3.160739e+2, 188118.8, -112636.7, -26568.326, -0.05392928, -0.055819206, 190447.77, 190447.77, 0.00004432351, 10.002168, 9.99818 
1.7496899e+2, 1.2608767e+2, -1860470.8, -1717509.9, -3025.8008, 0.00087538175, -0.058176633, -1717445.9, -13111.984, 0.0006289189, 9.998708, 10.000604 
1.7497198e+2, 1.360879e+2, -1811049.0, -1732249.9, 25339.293, -0.027124157, -0.016193304, -1724805.0, -118471.625, 0.00036083558, 9.998761, 9.9998045 
1.749756e+2, 1.4608693e+2, -1688833.8, -1598429.8, 22536.861, 0.0036623043, -0.10335175, -1593123.0, -84780.24, 0.00014701553, 9.998822, 10.000017 
1.7497918e+2, 1.5608726e+2, -1586919.5, -1506277.4, 16999.162, 0.033582024, -0.07233939, -1502840.5, -92501.98, 0.00003249045, 9.998882, 9.999948 
1.749824e+2, 1.6608723e+2, -1488882.6, -1457824.1, 16949.018, 0.027283927, -0.047260657, -1450365.9, -138026.8, 0.0000018022155, 9.999097, 9.999505 
1.7498538e+2, 1.760867e+2, -1344871.0, -1336810.0, 21912.467, -0.00013802439, -0.053023346, -1318560.5, -104215.56, 0.0, 9.99941, 9.999512 
1.7498869e+2, 1.8608601e+2, -1226616.6, -1247192.3, 24879.65, -0.0035916949, -0.06352625, -1209981.6, -93629.68, 0.0, 9.999626, 9.999351 
1.749922e+2, 1.9608532e+2, -1105924.4, -1137623.0, 19108.746, 0.008101079, -0.072085895, -1096947.4, -78588.56, 0.0, 9.99978, 9.999356 
1.7499568e+2, 2.0608476e+2, -1000868.06, -1054780.9, 15377.549, 0.018440766, -0.053645074, -996790.3, -76425.56, 0.0, 9.999908, 9.999189 
1.7499912e+2, 2.1608426e+2, -884562.5, -945220.1, 16641.113, 0.028102728, -0.025996571, -880297.06, -57926.56, 0.0, 10.000022, 9.999214 
1.7500244e+2, 2.2608349e+2, -770572.2, -846414.1, 16650.752, 0.031479064, -0.0230959, -767077.6, -42698.71, 0.0, 10.000161, 9.999152 
1.750057e+2, 2.3608251e+2, -650585.06, -739885.06, 19649.676, 0.030717159, -0.038300987, -646452.56, -20063.574, 0.0, 10.000321, 9.999134 
1.7500883e+2, 2.4608162e+2, -550152.7, -682722.9, 16289.167, 0.013355464, -0.020207351, -548180.5, -19781.973, 0.0, 10.000519, 9.998758 
1.7501187e+2, 2.5608075e+2, -419322.22, -567189.1, 6001.806, -0.015652245, 0.014641664, -419079.03, 11328.879, 0.0, 10.000737, 9.998774 
1.7501521e+2, 2.6607937e+2, -301698.0, -477725.28, 1967.393, -0.010125086, 0.008779639, -301676.0, 30745.06, 0.0, 10.000949, 9.998612 
1.7501877e+2, 2.7607766e+2, -176868.94, -371601.13, 6081.234, 0.02013638, -0.028716749, -176679.2, 57757.723, 0.0, 10.001154, 9.9985695 
1.7502171e+2, 2.8607586e+2, -91177.94, -343722.3, -5495.2695, 0.0016801243, -0.033457045, -91058.42, 45395.24, 0.0, 10.001347, 9.997995 
1.7502418e+2, 2.9607406e+2, 41751.625, -213718.33, -12596.566, -0.0561671, -0.018313512, 42371.227, 80841.84, 0.00000004563321, 10.001521, 9.998132 
1.7502834e+2, 3.060717e+2, 168882.86, -70243.18, 3360.9216, 0.020476852, -0.09874781, 168930.08, 168930.08, 0.000004309572, 10.001813, 9.998644 
1.7503163e+2, 3.1607094e+2, 199158.36, -90501.445, -12642.69, 0.0036430405, -0.026116062, 199709.13, 199709.13, 0.000033325945, 10.002171, 9.998332 
1.8496731e+2, 1.2608439e+2, -1931608.4, -1728041.5, -30409.486, -0.007625794, -0.060121305, -1723596.0, -19229.201, 0.0006001509, 9.998117, 10.000816 
1.8497077e+2, 1.3608488e+2, -1799449.4, -1700600.9, 9513.151, -0.023847971, -0.016877977, -1699693.6, -93331.5, 0.00034227368, 9.998728, 10.000037 
1.8497455e+2, 1.4608392e+2, -1677880.9, -1612310.4, 1412.0048, 0.008964494, -0.1052334, -1612280.0, -103908.35, 0.00013807035, 9.99898, 9.9998455 
1.8497807e+2, 1.5608412e+2, -1581063.8, -1519170.6, -4789.4473, 0.028637856, -0.07029499, -1518802.1, -108432.46, 0.000029920388, 9.998991, 9.999806 
1.8498148e+2, 1.6608407e+2, -1471178.5, -1436146.0, 3042.7046, 0.023084387, -0.04702461, -1435883.6, -123513.3, 0.0000015280342, 9.999162, 9.999622 
1.8498485e+2, 1.7608362e+2, -1334651.9, -1321424.9, 7013.2896, 0.004004068, -0.057688806, -1318398.6, -104023.83, 0.0, 9.999434, 9.999606 
1.8498835e+2, 1.8608299e+2, -1234649.6, -1261385.8, 7403.059, -0.0004048695, -0.060298774, -1232736.6, -116355.18, 0.0, 9.999616, 9.999259 
1.8499193e+2, 1.9608237e+2, -1117804.1, -1151901.5, 5734.0034, 0.003716413, -0.05232374, -1116865.6, -98477.13, 0.0, 9.999735, 9.99928 
1.849955e+2, 2.0608175e+2, -1006268.7, -1052549.0, 3382.1917, 0.012216029, -0.040031664, -1006022.9, -85627.625, 0.0, 9.99985, 9.999233 
1.8499905e+2, 2.1608108e+2, -890070.6, -943520.9, 4971.955, 0.023986414, -0.033230796, -889612.06, -67210.08, 0.0, 9.999966, 9.999253 
1.8500261e+2, 2.2608036e+2, -770905.75, -844157.7, 5523.076, 0.03287194, -0.027792979, -770491.7, -46082.08, 0.0, 10.000149, 9.999173 
1.8500616e+2, 2.3607959e+2, -641624.25, -734498.94, 4846.5273, 0.03984571, -0.024969302, -641372.0, -14954.397, 0.0, 10.000379, 9.999144 
1.850095e+2, 2.4607857e+2, -540458.8, -690046.7, 9213.723, 0.021227947, -0.0143889105, -539893.44, -11465.046, 0.0, 10.000637, 9.998651 
1.8501271e+2, 2.5607735e+2, -400691.8, -569633.8, 10538.615, -0.015014372, -0.003405455, -400036.94, 30404.129, 0.0, 10.000915, 9.998672 
1.8501626e+2, 2.66076e+2, -281924.4, -473273.6, 743.98047, -0.00701064, -0.0031899952, -281921.5, 50532.89, 0.0, 10.001108, 9.998567 
1.8502007e+2, 2.7607447e+2, -167512.81, -371667.88, -7631.193, 0.032107368, -0.015934017, -167227.95, 67240.42, 0.0, 10.001239, 9.998528 
1.8502316e+2, 2.8607255e+2, -66241.22, -334640.7, -8350.413, 0.002822254, -0.029868146, -65981.67, 70504.55, 0.0, 10.001531, 9.997969 
1.8502568e+2, 2.960704e+2, 98325.39, -189873.55, 3671.76, -0.07901044, -0.043202493, 98372.164, 136878.14, 0.000000013949684, 10.0019245, 9.9981 
1.8503018e+2, 3.060683e+2, 213689.9, -54694.45, 12217.011, 0.007191663, -0.093145095, 214244.88, 214244.88, 0.0000026617806, 10.002148, 9.998589 
1.8503392e+2, 3.160676e+2, 203293.98, -98406.84, -24038.4, 0.012794298, -0.013500889, 205197.27, 205197.27, 0.00002394661, 10.002242, 9.998242 
1.94965e+2, 1.2608017e+2, -1903821.8, -1670303.6, -6249.4766, -0.051164605, -0.099236004, -1670136.5, 34272.586, 0.000559594, 9.9981165, 10.001213 
1.9496988e+2, 1.3608173e+2, -1771267.6, -1642332.4, 30276.014, 0.013321615, 0.0018041928, -1635577.0, -29184.537, 0.00031629903, 9.998729, 10.000437 
1.9497383e+2, 1.4608091e+2, -1691240.5, -1640167.6, 1792.6149, 0.038171586, -0.07841473, -1640104.8, -131704.03, 0.00012542125, 9.9989805, 9.999655 
1.9497666e+2, 1.5608072e+2, -1592296.3, -1542578.4, -3103.2944, -0.0130648855, -0.06396624, -1542385.5, -131981.48, 0.000026112697, 9.998991, 9.999646 
1.9498028e+2, 1.660805e+2, -1463401.6, -1419858.5, 13261.111, -0.012075967, -0.053975623, -1416137.8, -103731.65, 0.0000011234973, 9.999161, 9.999735 
1.9498451e+2, 1.760801e+2, -1327712.1, -1307018.6, 16829.75, 0.027783714, -0.072230525, -1297609.5, -83200.02, 0.0, 9.999434, 9.999705 
1.949883e+2, 1.8607977e+2, -1237160.1, -1266428.3, 11915.823, 0.03307814, -0.047792323, -1232922.5, -116508.914, 0.0, 9.999615, 9.999225 
1.9499177e+2, 1.9607961e+2, -1119687.1, -1155698.4, 10281.747, 0.01383908, 0.009327594, -1116958.3, -98541.02, 0.0, 9.999735, 9.999254 
1.9499534e+2, 2.0607875e+2, -1003087.25, -1045697.0, 7587.389, 0.012555483, -0.0031577926, -1001776.5, -81350.51, 0.0, 9.999849, 9.999281 
1.9499902e+2, 2.160774e+2, -887546.25, -938071.9, 9900.177, 0.023872958, -0.06890809, -885675.6, -63237.297, 0.0, 9.999965, 9.99929 
1.9500273e+2, 2.2607677e+2, -773366.5, -849125.5, 14126.748, 0.030090287, -0.05458261, -770818.0, -46373.15, 0.0, 10.000149, 9.99914 
1.9500646e+2, 2.3607658e+2, -643237.2, -737692.25, 13760.447, 0.032939114, 0.0101924185, -641273.4, -14825.817, 0.0, 10.000378, 9.999122 
1.9501022e+2, 2.4607547e+2, -536718.56, -682257.2, 19596.441, 0.02828649, 0.009297807, -534126.1, -5667.35, 0.0, 10.000637, 9.998705 
1.9501394e+2, 2.560737e+2, -399237.22, -566607.4, 20575.652, 0.017663866, -0.039748125, -396744.88, 33731.02, 0.0, 10.000915, 9.998692 
1.9501753e+2, 2.660722e+2, -297413.88, -505475.47, 5585.1904, 0.008678065, -0.039450623, -297264.06, 35226.57, 0.0, 10.001108, 9.998345 
1.9502103e+2, 2.7607086e+2, -179357.66, -396343.78, -1663.9, 0.0034349114, -0.012945768, -179344.9, 55159.14, 0.0, 10.001239, 9.998359 
1.950244e+2, 2.860691e+2, -50004.133, -300650.5, 6567.4473, -0.02616469, -0.018426992, -49832.17, 86688.14, 0.0, 10.00153, 9.998203 
1.9502759e+2, 2.9606712e+2, 109930.81, -165627.98, 17881.623, -0.08024525, -0.041759644, 111086.34, 149624.03, 0.0000000023315327, 10.0019245, 9.998267 
1.9503227e+2, 3.0606505e+2, 189764.25, -104431.44, 15515.357, 0.0020423378, -0.07041994, 190580.23, 190580.23, 0.0000014940416, 10.002148, 9.998247 
1.9503577e+2, 3.1606376e+2, 179973.75, -146835.6, -18078.506, -0.02798377, -0.017197926, 180970.78, 180970.78, 0.000016254342, 10.002243, 9.99791 
2.0496334e+2, 1.2607628e+2, -1846744.9, -1640603.9, -2117.8188, -0.048567127, -0.096265994, -1640582.1, 63865.69, 0.0005079089, 9.9985, 10.001232 
2.0496838e+2, 1.3607791e+2, -1818249.9, -1654496.1, 3977.0042, 0.009230381, 0.0035055366, -1654399.6, -47969.473, 0.00028337847, 9.998363, 10.00053 
2.0497257e+2, 1.4607722e+2, -1750629.1, -1658463.6, -24656.81, 0.036277495, -0.07601863, -1652281.9, -143844.58, 0.00010934245, 9.9985285, 9.999746 
2.0497559e+2, 1.5607713e+2, -1600364.1, -1537317.8, -8362.902, -0.013415316, -0.057880253, -1536227.4, -125787.805, 0.000021261263, 9.998897, 9.999728 
2.0497945e+2, 1.6607696e+2, -1469840.3, -1423856.3, 11700.886, -0.010724841, -0.047328986, -1421050.1, -108608.73, 0.00000067965186, 9.99912, 9.999727 
2.0498389e+2, 1.7607653e+2, -1355197.9, -1320387.9, 5787.143, 0.030459387, -0.06627984, -1319450.9, -105006.13, 0.0, 9.999246, 9.999704 
2.0498785e+2, 1.8607624e+2, -1263740.1, -1274709.1, -634.0196, 0.037386104, -0.042516086, -1263703.6, -147254.84, 0.0, 9.9994135, 9.999265 
2.0499149e+2, 1.960761e+2, -1135426.5, -1159222.0, 3296.0015, 0.020108508, 0.013516791, -1134978.4, -116526.195, 0.0, 9.999609, 9.99929 
2.0499524e+2, 2.0607527e+2, -1001941.2, -1045201.8, 2375.783, 0.017015805, 0.0022604691, -1001811.06, -81350.445, 0.0, 9.999857, 9.99928 
2.0499907e+2, 2.1607396e+2, -861897.44, -925835.8, 994.1842, 0.023703963, -0.06039648, -861882.0, -39409.28, 0.0, 10.000141, 9.9992895 
2.0500293e+2, 2.2607328e+2, -747979.4, -839165.5, 4057.415, 0.025512889, -0.04856209, -747799.2, -23319.646, 0.0, 10.000333, 9.99912 
2.050068e+2, 2.3607302e+2, -631663.5, -733438.1, 4847.4463, 0.024143327, 0.009694691, -631433.1, -4950.193, 0.0, 10.0004635, 9.999109 
2.0501086e+2, 2.4607193e+2, -532793.5, -674547.7, 13045.92, 0.029902605, 0.009453311, -531602.9, -3109.17, 0.0, 10.00064, 9.998756 
2.0501505e+2, 2.560703e+2, -406797.38, -566004.25, 13669.844, 0.03933527, -0.03395277, -405632.2, 24877.295, 0.0, 10.000845, 9.99873 
2.0501879e+2, 2.6606873e+2, -303379.1, -517371.72, 4266.6196, 0.02224106, -0.037530746, -303294.06, 29230.809, 0.0, 10.001105, 9.998265 
2.0502222e+2, 2.760672e+2, -161398.27, -395663.84, 7403.154, -0.00965126, -0.02079412, -161164.55, 73375.63, 0.0, 10.001396, 9.998288 
2.0502587e+2, 2.860654e+2, -38438.848, -293874.3, 11645.807, -0.036176093, -0.0247858, -37908.992, 98647.695, 0.0, 10.001604, 9.998214 
2.0502956e+2, 2.9606354e+2, 84621.21, -178228.39, 6235.243, -0.06744231, -0.037670728, 84769.04, 123342.086, 0.000000000097020676, 10.001752, 9.998263 
2.0503442e+2, 3.060617e+2, 167283.84, -126424.27, 6961.1206, 0.008150214, -0.040835295, 167448.73, 167448.73, 0.00000072960836, 10.00204, 9.998149 
2.050378e+2, 3.1605995e+2, 200211.78, -143802.6, -6646.18, -0.05750808, -0.023361972, 200340.14, 200340.14, 0.000010315381, 10.00241, 9.997851 
2.1496233e+2, 1.2607275e+2, -1872593.3, -1694421.5, -5953.666, -0.0006691089, -0.05053437, -1694222.8, 10260.375, 0.0004482875, 9.998501, 10.000862 
2.1496628e+2, 1.3607347e+2, -1834066.8, -1686941.1, 881.0305, -0.037200473, -0.011967108, -1686935.8, -80460.66, 0.00024549337, 9.998361, 10.000308 
2.1497075e+2, 1.460728e+2, -1724196.6, -1603321.5, -10840.397, 0.002108569, -0.09832733, -1602357.0, -93875.39, 0.00009091261, 9.998528, 10.000126 
2.149749e+2, 1.5607339e+2, -1577410.1, -1489536.6, 4817.917, 0.027548363, -0.05198305, -1489273.3, -78796.84, 0.000015871614, 9.998896, 10.000057 
2.1497895e+2, 1.6607344e+2, -1478937.5, -1442807.0, 16516.443, 0.026765488, -0.026873643, -1436394.8, -123918.68, 0.00000031009594, 9.999121, 9.999598 
2.1498294e+2, 1.7607296e+2, -1362405.3, -1335464.4, 10883.605, 0.011225817, -0.039673917, -1331617.0, -117136.06, 0.0, 9.999247, 9.9996 
2.14987e+2, 1.860724e+2, -1255567.4, -1257707.3, 6698.4917, 0.011596947, -0.04451553, -1249853.9, -133366.77, 0.0, 9.999413, 9.999382 
2.1499112e+2, 1.9607183e+2, -1128337.8, -1144558.1, 11188.351, 0.022065775, -0.04007157, -1122629.3, -104135.945, 0.0, 9.999609, 9.999391 
2.1499518e+2, 2.060713e+2, -1005465.75, -1052367.5, 13153.213, 0.025039408, -0.024051007, -1002028.9, -81529.63, 0.0, 9.999857, 9.999231 
2.1499921e+2, 2.1607074e+2, -864955.7, -932041.25, 11231.534, 0.02304372, -0.007501076, -863125.25, -40620.06, 0.0, 10.000141, 9.999248 
2.1500319e+2, 2.2606988e+2, -748461.2, -839930.3, 8893.761, 0.01856108, -0.009646742, -747604.5, -23090.803, 0.0, 10.000332, 9.999115 
2.1500714e+2, 2.3606886e+2, -631948.6, -733867.3, 10085.723, 0.012948438, -0.026622273, -630960.1, -4436.32, 0.0, 10.000463, 9.999106 
2.1501146e+2, 2.4606793e+2, -529448.8, -667662.2, 20650.68, 0.025623769, -0.013945735, -526429.3, 2103.7734, 0.0, 10.00064, 9.998804 
2.1501599e+2, 2.5606704e+2, -403140.75, -558391.3, 21793.793, 0.049425215, 0.013876013, -400139.4, 30402.477, 0.0, 10.000844, 9.998782 
2.1501999e+2, 2.6606545e+2, -299467.13, -508960.22, 15203.11, 0.033038884, 0.00293021, -298369.6, 34187.547, 0.0, 10.001104, 9.998324 
2.1502364e+2, 2.7606338e+2, -159685.75, -392099.53, 17977.813, -0.007753164, -0.04007483, -158303.34, 76273.61, 0.0, 10.001396, 9.998313 
2.1502756e+2, 2.8606144e+2, -53107.605, -324703.03, 16879.598, -0.027802974, -0.049495295, -52062.566, 84532.94, 0.0, 10.001605, 9.998002 
2.1503156e+2, 2.960597e+2, 72677.695, -203677.78, 12753.092, -0.041876014, -0.030500993, 73264.97, 111877.03, 0.0, 10.001754, 9.998089 
2.1503663e+2, 3.0605817e+2, 177203.7, -105307.32, 20884.781, 0.024166318, -0.0034797331, 178739.27, 178739.27, 0.0000002906552, 10.002039, 9.998294 
2.1504001e+2, 3.160561e+2, 214969.27, -112706.664, 9093.991, -0.077441536, -0.032314446, 215221.45, 215221.45, 0.0000060416633, 10.002408, 9.998065 
2.2496083e+2, 1.26069e+2, -1909447.0, -1721383.9, -5639.749, 0.0098683555, -0.02374458, -1721214.9, -16694.672, 0.0003850475, 9.998289, 10.000779 
2.2496444e+2, 1.3606936e+2, -1828599.9, -1684862.5, 20933.766, -0.058846656, -0.02048418, -1681875.8, -75359.94, 0.00020561775, 9.998402, 10.000303 
2.2496916e+2, 1.4606869e+2, -1716448.3, -1593510.6, 12760.865, -0.012255968, -0.10867189, -1592200.0, -83677.95, 0.00007189719, 9.998554, 10.000181 
2.2497383e+2, 1.5606953e+2, -1596038.0, -1493437.3, 3050.4263, 0.03853796, -0.043172497, -1493346.6, -82832.43, 0.000010694928, 9.998746, 10.000102 
2.249781e+2, 1.6606961e+2, -1501321.0, -1458172.3, 6448.659, 0.03741767, -0.014731619, -1457229.1, -144715.31, 0.000000092361944, 9.998987, 9.999557 
2.2498211e+2, 1.7606902e+2, -1362495.4, -1338870.6, 7435.6616, 0.004254022, -0.033807598, -1336725.1, -122205.19, 0.0, 9.999261, 9.999571 
2.2498637e+2, 1.8606839e+2, -1241352.4, -1244865.8, 3012.6611, 0.004296079, -0.044983808, -1239621.6, -123095.17, 0.0, 9.999485, 9.999435 
2.249908e+2, 1.9606784e+2, -1115526.1, -1133303.4, 2540.859, 0.025796944, -0.047206298, -1115170.1, -96637.766, 0.0, 9.999676, 9.999436 
2.2499509e+2, 2.0606737e+2, -1010493.94, -1057958.8, 4381.6724, 0.031688396, -0.026097357, -1010092.9, -89555.055, 0.0, 9.999836, 9.999203 
2.2499931e+2, 2.160669e+2, -890078.4, -946424.7, 3990.58, 0.027024247, 0.0034876335, -889797.1, -67253.805, 0.0, 9.999979, 9.999227 
2.2500351e+2, 2.2606605e+2, -763100.25, -842431.6, 4433.526, 0.023077106, 0.00058356504, -762853.25, -38301.406, 0.0, 10.000212, 9.999155 
2.2500768e+2, 2.3606497e+2, -623643.25, -725995.3, 8768.259, 0.0201335, -0.025914062, -622897.56, 3664.7368, 0.0, 10.000504, 9.999142 
2.2501215e+2, 2.4606405e+2, -520332.94, -661670.2, 17874.988, 0.028128024, -0.014578015, -518107.34, 10464.092, 0.0, 10.000695, 9.998818 
2.2501676e+2, 2.5606322e+2, -405742.06, -557560.44, 16806.736, 0.04242408, 0.017644718, -403903.78, 26675.996, 0.0, 10.000817, 9.998801 
2.2502102e+2, 2.6606172e+2, -304059.13, -505537.56, 13375.557, 0.029736264, 0.012634246, -303175.06, 29419.0, 0.0, 10.001048, 9.998374 
2.250251e+2, 2.7605978e+2, -164544.64, -390844.38, 15214.246, 0.0014062399, -0.024118926, -163526.36, 71086.3, 0.0, 10.0013485, 9.998344 
2.2502926e+2, 2.8605768e+2, -60672.465, -342514.78, 14657.548, -0.01706582, -0.04146488, -59912.234, 76720.58, 0.0, 10.001614, 9.997876 
2.2503342e+2, 2.9605567e+2, 78238.76, -214274.4, 17059.676, -0.036420234, -0.037785575, 79230.336, 117882.99, 0.0, 10.001849, 9.997971 
2.2503875e+2, 3.0605435e+2, 186296.16, -98649.836, 25837.424, 0.031131083, 0.014761414, 188620.0, 188620.0, 0.000000085825576, 10.002091, 9.998315 
2.2504245e+2, 3.160522e+2, 215003.31, -97313.06, 6950.6133, -0.07001774, -0.026021916, 215157.92, 215157.92, 0.0000031779714, 10.002342, 9.998203 
2.3495883e+2, 1.2606505e+2, -1895843.5, -1692396.5, 1068.427, -0.019393539, -0.014313569, -1692390.9, 12167.991, 0.00032214387, 9.998286, 10.000979 
2.3496288e+2, 1.3606557e+2, -1814321.3, -1654114.4, 25397.002, -0.055916518, -0.021552136, -1650184.6, -43632.55, 0.00016659255, 9.998397, 10.000516 
2.3496775e+2, 1.4606488e+2, -1736486.0, -1634771.6, 20065.898, -0.0070629925, -0.10668531, -1630956.3, -122397.586, 0.00005400246, 9.998552, 9.999899 
2.3497239e+2, 1.5606554e+2, -1613112.1, -1529312.0, 10637.542, 0.018112428, -0.031249985, -1527982.9, -117429.55, 0.000006396683, 9.998748, 9.999856 
2.3497692e+2, 1.6606545e+2, -1497372.5, -1450131.8, 16666.836, 0.019819658, -0.010790402, -1444843.5, -132288.97, 0.000000013163342, 9.998988, 9.999611 
2.3498143e+2, 1.7606473e+2, -1359039.0, -1331681.1, 17640.982, 0.009309234, -0.04888236, -1323037.0, -108475.055, 0.0, 9.999261, 9.9996195 
2.3498598e+2, 1.8606429e+2, -1242392.5, -1246914.0, 10247.668, 0.015038264, -0.043964285, -1234159.1, -117592.43, 0.0, 9.999484, 9.999421 
2.3499052e+2, 1.960641e+2, -1116287.1, -1135009.9, 9558.738, 0.030816494, -0.0076418207, -1112269.3, -93700.12, 0.0, 9.999676, 9.999425 
2.3499498e+2, 2.0606345e+2, -1010859.44, -1058640.5, 9687.981, 0.036347486, -0.0037570037, -1008969.8, -88393.414, 0.0, 9.999836, 9.999199 
2.3499936e+2, 2.1606244e+2, -889870.9, -945878.3, 10053.924, 0.0349862, -0.02767056, -888120.75, -65533.57, 0.0, 9.999978, 9.99923 
2.3500386e+2, 2.2606176e+2, -757467.5, -830346.44, 15449.134, 0.038371198, -0.017845633, -754327.8, -29733.754, 0.0, 10.00021, 9.999239 
2.3500845e+2, 2.3606133e+2, -618447.7, -715094.9, 19243.91, 0.045263544, 0.011900097, -614756.9, 11841.481, 0.0, 10.000503, 9.999217 
2.3501292e+2, 2.4606027e+2, -521850.06, -664848.3, 22379.602, 0.03687095, 0.0075517613, -518429.4, 10179.366, 0.0, 10.000695, 9.998796 
2.3501731e+2, 2.560588e+2, -407036.78, -560219.4, 22070.584, 0.017705664, -0.02299445, -403920.25, 26702.979, 0.0, 10.000817, 9.998783 
2.3502189e+2, 2.6605752e+2, -300869.53, -498990.88, 24422.508, 0.011962612, -0.008712952, -297903.38, 34732.332, 0.0, 10.001048, 9.99842 
2.350266e+2, 2.7605635e+2, -161518.05, -384691.53, 26242.475, 0.017028382, 0.02713382, -158473.78, 76173.53, 0.0, 10.0013485, 9.998387 
2.3503101e+2, 2.8605413e+2, -63663.465, -348860.66, 23511.291, -0.0046803663, -0.00042318917, -61738.223, 74930.4, 0.0, 10.001614, 9.997833 
2.350351e+2, 2.960514e+2, 74230.07, -223255.45, 26046.775, -0.05141425, -0.059832525, 76493.414, 115188.336, 0.0, 10.001851, 9.997909 
2.3504083e+2, 3.0605024e+2, 179454.25, -113092.375, 34799.855, 0.028559677, 0.013250671, 183536.89, 183536.89, 0.000000016806371, 10.002092, 9.998216 
2.3504512e+2, 3.1604818e+2, 219400.06, -87791.32, 18799.04, -0.038088083, -0.006040464, 220546.23, 220546.23, 0.0000014346882, 10.002341, 9.998269 
2.4495676e+2, 1.2606046e+2, -1942069.4, -1715793.4, -19452.098, -0.039953966, -0.02934613, -1714133.4, -9529.9375, 0.00026278105, 9.997972, 10.000971 
2.4496135e+2, 1.3606125e+2, -1829588.0, -1655704.9, -14437.067, -0.041341756, -0.014980951, -1654514.4, -47919.97, 0.00013053669, 9.998267, 10.000568 
2.4496645e+2, 1.4606057e+2, -1739133.4, -1637647.5, -12007.263, 0.0071008084, -0.099458225, -1636246.3, -127645.53, 0.000038366878, 9.998542, 9.999885 
2.4497098e+2, 1.5606104e+2, -1603037.8, -1525973.4, -1569.1577, 0.00033846975, -0.042036586, -1525941.4, -115344.59, 0.000003303544, 9.998824, 9.999843 
2.4497572e+2, 1.6606092e+2, -1501532.8, -1453607.0, 6766.2915, 0.0038748845, -0.02399683, -1452670.0, -140071.58, 0.00000000018007511, 9.998966, 9.999598 
2.4498065e+2, 1.7606027e+2, -1396106.1, -1350787.1, 2462.251, 0.017502017, -0.053044952, -1350653.8, -136048.44, 0.0, 9.999012, 9.999609 
2.4498542e+2, 1.8605986e+2, -1284821.4, -1268385.9, -3912.0808, 0.025205893, -0.04370948, -1267502.3, -150892.38, 0.0, 9.999198, 9.999413 
2.4499008e+2, 1.9605967e+2, -1144391.0, -1148474.1, -4366.963, 0.028040111, -0.006755187, -1141612.0, -122999.57, 0.0, 9.999483, 9.999425 
2.4499471e+2, 2.0605904e+2, -1022343.06, -1056897.3, -2733.594, 0.03248147, -0.0045108856, -1022128.1, -101508.56, 0.0, 9.999726, 9.999264 
2.4499936e+2, 2.1605808e+2, -891206.7, -939692.1, 2850.4802, 0.038059615, -0.030913612, -891039.7, -68409.64, 0.0, 9.99994, 9.999292 
2.4500409e+2, 2.260575e+2, -764848.56, -829250.1, 10830.13, 0.04284405, -0.01719617, -763076.06, -38439.953, 0.0, 10.000139, 9.999281 
2.4500889e+2, 2.3605718e+2, -640917.8, -720980.5, 11403.465, 0.04733885, 0.019852972, -639325.3, -12685.916, 0.0, 10.000327, 9.999261 
2.4501356e+2, 2.4605612e+2, -534760.06, -666100.7, 15576.203, 0.036683917, 0.011938674, -532938.1, -4288.4824, 0.0, 10.000586, 9.998841 
2.4501815e+2, 2.560546e+2, -393997.88, -550254.6, 20533.531, 0.015276209, -0.028820459, -391344.63, 39319.816, 0.0, 10.000891, 9.9988165 
2.4502297e+2, 2.6605332e+2, -289150.97, -498931.38, 22552.887, 0.008912018, -0.0123342015, -286753.75, 45923.227, 0.0, 10.001153, 9.998369 
2.4502794e+2, 2.7605218e+2, -160300.06, -389365.7, 16855.559, 0.014636733, 0.033677995, -159066.4, 75622.03, 0.0, 10.001379, 9.998341 
2.4503264e+2, 2.8605e+2, -51815.824, -344346.72, 14342.966, -0.006156102, 0.00941018, -51114.26, 85595.67, 0.0, 10.0017, 9.997823 
2.4503708e+2, 2.9604727e+2, 106360.445, -211985.7, 18742.965, -0.05163705, -0.05002353, 107460.164, 146196.72, 0.0, 10.002091, 9.99787 
2.4504305e+2, 3.0604613e+2, 196434.02, -128651.48, 18837.059, 0.031463772, 0.04317081, 197521.88, 197521.88, 0.0000000018495133, 10.002312, 9.998002 
2.4504752e+2, 3.1604376e+2, 228609.67, -84291.49, -3232.8767, -0.034162685, 0.009334038, 228643.06, 228643.06, 0.00000052479436, 10.002408, 9.9982605 
2.549546e+2, 1.2605518e+2, -1957867.0, -1747020.3, -5616.7236, -0.05250579, -0.069955364, -1746870.8, -42216.535, 0.00020966213, 9.997965, 10.000761 
2.5495985e+2, 1.3605636e+2, -1836811.5, -1671224.9, -3975.007, -0.01730394, -0.0009041834, -1671129.5, -64486.5, 0.00009902935, 9.998268, 10.000462 
2.5496522e+2, 1.4605579e+2, -1720603.3, -1599643.8, -1979.4591, 0.028000068, -0.08667924, -1599611.4, -90963.195, 0.000025643241, 9.998544, 10.000145 
2.5496966e+2, 1.5605605e+2, -1587502.8, -1493184.5, 7970.3706, -0.015025229, -0.0755478, -1492515.8, -81870.77, 0.0000014046367, 9.998821, 10.000069 
2.5497454e+2, 1.6605602e+2, -1507960.5, -1466447.1, 8232.275, -0.010752223, -0.054312002, -1464874.3, -152228.73, 0.0, 9.998963, 9.999511 
2.5497976e+2, 1.7605565e+2, -1401398.3, -1362026.5, 4951.599, 0.027743666, -0.045947656, -1361413.4, -146763.31, 0.0, 9.999013, 9.999531 
2.549847e+2, 1.8605512e+2, -1284561.8, -1267940.1, 6729.1987, 0.033538945, -0.043959085, -1265557.4, -148901.52, 0.0, 9.999198, 9.999415 
2.5498945e+2, 1.9605456e+2, -1143221.0, -1145955.9, 6250.786, 0.01690273, -0.044595744, -1138189.9, -119527.79, 0.0, 9.999483, 9.999442 
2.549943e+2, 2.0605415e+2, -1013215.44, -1037734.4, 5346.805, 0.019662237, -0.02849526, -1012100.2, -91432.94, 0.0, 9.999725, 9.999395 
2.5499928e+2, 2.160538e+2, -882956.06, -922394.1, 10946.19, 0.03565157, -0.0062489216, -880121.6, -57449.652, 0.0, 9.999939, 9.999412 
2.5500414e+2, 2.2605322e+2, -764802.56, -829081.2, 17868.512, 0.035870574, 0.0021951194, -760169.3, -35491.203, 0.0, 10.000138, 9.999283 
2.55009e+2, 2.3605248e+2, -640115.4, -719112.44, 18920.623, 0.025789233, -0.00210917, -635817.5, -9132.14, 0.0, 10.000326, 9.999274 
2.5501406e+2, 2.4605161e+2, -526799.4, -649517.56, 26905.365, 0.026938284, -0.0012538237, -521159.66, 7534.3047, 0.0, 10.000585, 9.998956 
2.5501925e+2, 2.560506e+2, -387548.16, -536982.0, 31856.162, 0.034419607, 0.00018254224, -381040.5, 49662.95, 0.0, 10.000892, 9.998907 
2.5502422e+2, 2.6604915e+2, -299576.28, -520932.75, 31005.795, 0.019938486, 0.0017135219, -295315.28, 37402.598, 0.0, 10.001155, 9.998219 
2.550291e+2, 2.7604732e+2, -169645.88, -409292.78, 25913.664, -0.0064432207, -0.0045175673, -166875.78, 67860.266, 0.0, 10.001381, 9.998203 
2.5503418e+2, 2.8604525e+2, -50236.676, -341025.5, 28707.586, -0.022115642, -0.0120169325, -47429.668, 89327.11, 0.0, 10.0017, 9.997846 
2.550393e+2, 2.960432e+2, 104967.41, -214329.55, 32338.227, -0.038211726, -0.0088452585, 108209.68, 146987.28, 0.0, 10.0020895, 9.997855 
2.5504544e+2, 3.0604205e+2, 173568.34, -176340.84, 22436.709, 0.039387237, 0.103891686, 175001.14, 175001.14, 0.000000000039700524, 10.002312, 9.997676 
2.550497e+2, 3.1603888e+2, 223412.94, -96270.53, 3589.8074, -0.058691926, 0.0195153, 223453.25, 223453.25, 0.00000015406697, 10.002412, 9.998177 
2.649525e+2, 1.2604982e+2, -1979277.8, -1752957.4, -20768.898, -0.049021963, -0.077502385, -1751067.3, -46360.313, 0.00016490842, 9.997799, 10.000799 
2.64958e+2, 1.3605116e+2, -1845859.1, -1665266.1, -5642.1777, -0.024060879, -0.00058124866, -1665090.0, -58396.02, 0.000073287774, 9.998162, 10.000553 
2.6496363e+2, 1.4605072e+2, -1739976.9, -1600582.0, -8736.149, 0.024363717, -0.081774846, -1600036.6, -91338.62, 0.000016155976, 9.998375, 10.00022 
2.6496834e+2, 1.56051e+2, -1628445.4, -1504113.3, -12735.773, -0.015452373, -0.07682501, -1502822.1, -92127.61, 0.00000046134082, 9.998504, 10.000148 
2.649734e+2, 1.66051e+2, -1533032.5, -1471553.8, -11074.0, -0.012661297, -0.058512285, -1469619.8, -156925.4, 0.0, 9.998763, 9.999573 
2.6497877e+2, 1.760507e+2, -1382682.4, -1346477.0, -3673.7422, 0.020510454, -0.04967034, -1346108.0, -131410.05, 0.0, 9.999114, 9.999589 
2.649839e+2, 1.8605018e+2, -1267298.3, -1256415.1, 3196.7231, 0.02679509, -0.053590696, -1255545.6, -138841.77, 0.0, 9.999303, 9.999444 
2.6498887e+2, 1.9604953e+2, -1155794.0, -1148618.6, 4600.754, 0.014519468, -0.06473891, -1146372.0, -127661.24, 0.0, 9.999382, 9.999473 
2.6499394e+2, 2.0604922e+2, -1030745.8, -1039959.44, 3250.2698, 0.017484587, -0.040839892, -1029714.6, -108999.71, 0.0, 9.9995775, 9.999452 
2.6499912e+2, 2.1604913e+2, -891149.3, -920165.56, 3108.6204, 0.030616146, 0.0012673278, -890820.0, -68102.5, 0.0, 9.999856, 9.999467 
2.6500425e+2, 2.260486e+2, -761551.56, -821918.9, 9844.305, 0.030102886, 0.007829026, -759986.8, -35263.43, 0.0, 10.000137, 9.999333 
2.650093e+2, 2.3604774e+2, -623468.2, -706470.4, 14781.514, 0.020635424, -0.012695942, -620914.4, 5817.141, 0.0, 10.000421, 9.999316 
2.6501462e+2, 2.4604689e+2, -511529.63, -645946.25, 19837.623, 0.02005144, -0.008259418, -508663.06, 20076.82, 0.0, 10.000706, 9.998921 
2.6502007e+2, 2.5604603e+2, -375731.28, -535179.94, 13394.425, 0.024458373, 0.009946005, -374613.9, 56134.49, 0.0, 10.000989, 9.998873 
2.650254e+2, 2.6604453e+2, -283206.6, -518231.97, 12027.025, 0.017211767, 0.010701804, -282592.72, 50170.707, 0.0, 10.001289, 9.998172 
2.650307e+2, 2.7604255e+2, -140470.08, -400238.94, 14813.094, 0.0046537397, -0.007818516, -139628.11, 95155.17, 0.0, 10.001604, 9.9981575 
2.6503605e+2, 2.8604043e+2, -34819.42, -338181.4, 18132.992, -0.012194023, -0.015036088, -33739.4, 103065.15, 0.0, 10.001827, 9.997804 
2.6504132e+2, 2.960384e+2, 84237.51, -230937.2, 16207.54, -0.039256617, -0.0028544476, 85068.77, 123893.93, 0.0, 10.001976, 9.997795 
2.6504767e+2, 3.0603722e+2, 147236.4, -204069.13, 10496.201, 0.035688628, 0.11789968, 147549.73, 147549.73, 0.0, 10.002196, 9.9975395 
2.650521e+2, 3.1603384e+2, 243171.94, -73624.336, 8111.6616, -0.06174458, 0.022584878, 243379.5, 243379.5, 0.000000038019415, 10.002494, 9.998292 
2.749505e+2, 1.2604435e+2, -1959005.9, -1710820.8, -3586.0134, -0.032559726, -0.05144576, -1710769.0, -6007.3984, 0.00012966055, 9.9978, 10.001088 
2.7495578e+2, 1.3604565e+2, -1825946.6, -1622651.8, 6144.241, -0.06194546, -0.013224188, -1622466.1, -15718.669, 0.00005392466, 9.998157, 10.000848 
2.7496174e+2, 1.4604539e+2, -1748512.5, -1617064.9, -4393.436, -0.004269296, -0.084063515, -1616918.3, -108168.29, 0.0000098627, 9.99837, 10.00011 
2.7496696e+2, 1.5604588e+2, -1633516.5, -1514461.8, -7342.2295, -0.0028723152, -0.045263074, -1514010.8, -103265.28, 0.00000011248763, 9.998503, 10.000077 
2.7497223e+2, 1.6604589e+2, -1518218.0, -1440865.6, 1938.1388, -0.0039713653, -0.03615129, -1440817.0, -128071.84, 0.0, 9.998763, 9.9997835 
2.749776e+2, 1.7604543e+2, -1369070.6, -1318124.5, 8562.939, -0.004859933, -0.063953504, -1316723.8, -101974.695, 0.0, 9.999113, 9.999784 
2.7498296e+2, 1.8604496e+2, -1263962.6, -1249131.3, 6012.3516, 0.004445736, -0.0725238, -1247000.3, -130246.414, 0.0, 9.999302, 9.999495 
2.749883e+2, 1.9604455e+2, -1152903.1, -1142516.3, 8296.06, 0.020335319, -0.066934444, -1137922.1, -119163.57, 0.0, 9.999382, 9.999515 
2.749936e+2, 2.0604429e+2, -1032135.2, -1042682.3, 13712.674, 0.02528989, -0.041443363, -1022717.0, -101954.266, 0.0, 9.9995775, 9.9994335 
2.749989e+2, 2.1604407e+2, -891644.5, -921089.25, 13767.4375, 0.02251324, -0.008262922, -886210.2, -63443.55, 0.0, 9.999856, 9.99946 
2.750043e+2, 2.260436e+2, -754647.56, -807453.06, 20501.629, 0.024959357, -0.00020520843, -747622.5, -22850.617, 0.0, 10.000136, 9.999433 
2.7500984e+2, 2.3604293e+2, -618269.1, -695762.25, 25555.744, 0.031335697, -0.012117626, -610600.25, 16177.661, 0.0, 10.000421, 9.99939 
2.750153e+2, 2.4604201e+2, -524388.44, -672700.75, 30408.066, 0.015483791, -0.009411449, -518396.1, 10391.361, 0.0, 10.000707, 9.998738 
2.7502066e+2, 2.5604087e+2, -387087.78, -558600.4, 24093.094, -0.015173669, 0.000439522, -383767.6, 47031.71, 0.0, 10.000988, 9.998713 
2.7502656e+2, 2.6603946e+2, -279094.84, -509437.56, 23617.283, 0.00007144261, 0.014837622, -276698.28, 56115.348, 0.0, 10.001288, 9.998233 
2.7503276e+2, 2.760378e+2, -137304.95, -393364.28, 26279.725, 0.046943385, 0.023300445, -134635.66, 100194.484, 0.0, 10.001603, 9.998205 
2.750382e+2, 2.8603548e+2, -42601.05, -354288.1, 23712.1, 0.022619922, -0.00030846798, -40807.434, 96045.85, 0.0, 10.001827, 9.997693 
2.7504316e+2, 2.960329e+2, 77493.6, -245718.13, 22118.38, -0.0550443, -0.031404633, 79000.21, 117879.35, 0.0, 10.001979, 9.997693 
2.750497e+2, 3.060317e+2, 150903.55, -197253.95, 21274.85, 0.019843843, 0.0864363, 152198.77, 152198.77, 0.0, 10.0022, 9.997585 
2.7505478e+2, 3.1602862e+2, 264414.4, -29458.73, 21387.922, -0.045943424, 0.018180434, 265962.84, 265962.84, 0.00000000643165, 10.002494, 9.998596 
2.849484e+2, 1.2603857e+2, -1954108.4, -1695950.5, 4962.4585, -0.021687105, -0.047404878, -1695855.1, 8963.453, 0.00010364884, 9.997779, 10.001202 
2.8495374e+2, 1.3603994e+2, -1838050.1, -1612081.0, -5206.5063, -0.07342376, -0.01685939, -1611961.1, -5157.821, 0.000040612387, 9.998003, 10.000996 
2.8495988e+2, 1.4603981e+2, -1775404.9, -1626670.8, -19190.844, -0.016367897, -0.081416264, -1624234.5, -115430.23, 0.0000062724685, 9.998173, 10.000139 
2.849653e+2, 1.560404e+2, -1655021.5, -1520525.0, -11829.695, -0.009135958, -0.036656998, -1519492.4, -108693.266, 0.000000028346124, 9.998337, 10.000115 
2.8497085e+2, 1.6604042e+2, -1538852.8, -1441468.5, 1728.8672, -0.01033316, -0.03312104, -1441437.9, -128639.1, 0.0, 9.998582, 9.999867 
2.849765e+2, 1.7603992e+2, -1397840.3, -1322952.3, -2225.1833, -0.015095211, -0.07311002, -1322886.1, -108083.414, 0.0, 9.9988785, 9.999865 
2.849821e+2, 1.8603957e+2, -1289805.8, -1256939.9, -15569.759, -0.0022938403, -0.07746913, -1250735.3, -133928.98, 0.0, 9.999105, 9.999536 
2.8498763e+2, 1.9603933e+2, -1163662.8, -1143733.0, -13860.5625, 0.021909287, -0.05662226, -1136627.1, -117817.85, 0.0, 9.999291, 9.99955 
2.8499317e+2, 2.06039e+2, -1039193.56, -1046864.94, -3219.6692, 0.027286123, -0.037858438, -1038021.4, -117207.5, 0.0, 9.999532, 9.999427 
2.849987e+2, 2.1603857e+2, -898797.2, -925102.94, -2330.0532, 0.019648094, -0.026200952, -898592.4, -75772.43, 0.0, 9.999809, 9.999456 
2.850044e+2, 2.2603816e+2, -760337.75, -809860.1, 924.8114, 0.020161036, -0.013057332, -760320.5, -35495.68, 0.0, 10.000095, 9.999436 
2.850102e+2, 2.3603773e+2, -622978.3, -697912.94, -1271.1848, 0.02652331, -0.0016678495, -622956.75, 3872.0603, 0.0, 10.000387, 9.999392 
2.8501594e+2, 2.4603675e+2, -530757.2, -676869.6, 8184.0103, 0.010377863, -0.0015033812, -530300.2, -1461.4666, 0.0, 10.000668, 9.998728 
2.8502157e+2, 2.5603542e+2, -394421.22, -563025.2, 14928.839, -0.020764878, -0.011462649, -393109.56, 37743.074, 0.0, 10.000942, 9.998704 
2.8502774e+2, 2.6603407e+2, -288656.6, -513857.5, 17788.418, -0.004254294, 0.008125096, -287260.16, 45606.477, 0.0, 10.001223, 9.998234 
2.8503427e+2, 2.7603263e+2, -152073.13, -400250.66, 15623.478, 0.045306128, 0.038779225, -151093.44, 83787.8, 0.0, 10.001501, 9.998207 
2.8504005e+2, 2.8603026e+2, -43250.0, -356467.2, 14454.414, 0.021636039, 0.013002742, -42584.367, 94320.29, 0.0, 10.001832, 9.997676 
2.8504524e+2, 2.9602748e+2, 108946.125, -233736.28, 19075.55, -0.056878574, -0.03716026, 110004.7, 148937.06, 0.0, 10.002211, 9.997663 
2.8505203e+2, 3.060261e+2, 186218.0, -185628.98, 15144.386, 0.020650193, 0.0655992, 186833.78, 186833.78, 0.0, 10.002467, 9.997537 
2.8505737e+2, 3.1602308e+2, 297621.56, 9008.427, 10739.566, -0.040092878, 0.0052952217, 298020.63, 298020.63, 0.00000000043435586, 10.002625, 9.998797 
2.949462e+2, 1.2603246e+2, -1958078.6, -1704563.6, 18718.016, -0.017543802, -0.06486232, -1703189.1, 1688.7041, 0.000085497144, 9.99778, 10.001142 
2.949519e+2, 1.3603404e+2, -1837934.0, -1611803.8, 2273.9932, -0.061092474, -0.011716707, -1611780.9, -4919.65, 0.000032281903, 9.998003, 10.000998 
2.9495803e+2, 1.4603403e+2, -1764335.3, -1603539.1, -13334.414, -0.014714076, -0.073939696, -1602440.9, -93580.0, 0.0000046245973, 9.998172, 10.0002985 
2.949634e+2, 1.5603457e+2, -1645692.9, -1500620.6, -5224.2915, -0.035333622, -0.050204262, -1500432.8, -89577.26, 0.00000001715619, 9.998335, 10.000254 
2.949692e+2, 1.6603461e+2, -1542479.3, -1448105.6, 12641.217, -0.032237403, -0.04863454, -1446441.6, -133586.67, 0.0, 9.998578, 9.999824 
2.949754e+2, 1.7603418e+2, -1400835.0, -1328337.8, 8466.454, -0.011256933, -0.0771913, -1327362.1, -112503.27, 0.0, 9.998875, 9.999829 
2.9498127e+2, 1.8603395e+2, -1288397.1, -1253437.3, -8597.91, 0.0054285196, -0.06847675, -1251437.1, -134575.75, 0.0, 9.999104, 9.99956 
2.949869e+2, 1.960339e+2, -1162042.9, -1140234.1, -6374.9395, 0.018649613, -0.03363841, -1138507.4, -119644.71, 0.0, 9.99929, 9.999575 
2.9499266e+2, 2.0603342e+2, -1038985.56, -1046238.25, 7197.672, 0.023081874, -0.030003242, -1034552.3, -113683.87, 0.0, 9.999531, 9.999432 
2.949985e+2, 2.1603265e+2, -899153.8, -925750.75, 8331.515, 0.021494335, -0.052794807, -896759.5, -73882.016, 0.0, 9.999808, 9.999453 
2.9500443e+2, 2.2603226e+2, -767049.94, -823501.75, 11865.951, 0.01512108, -0.030841656, -764657.2, -39774.938, 0.0, 10.000094, 9.999343 
2.950104e+2, 2.3603213e+2, -627901.1, -707907.94, 9666.548, 0.005856164, 0.018737106, -626749.75, 134.51355, 0.0, 10.000386, 9.999323 
2.9501653e+2, 2.4603118e+2, -519386.8, -653197.56, 18441.984, 0.0041312966, 0.015627546, -516891.63, 12002.166, 0.0, 10.000668, 9.998891 
2.950228e+2, 2.560297e+2, -384418.34, -542267.3, 25466.545, 0.0065975417, -0.026185663, -380411.44, 50497.016, 0.0, 10.000942, 9.998847 
2.9502904e+2, 2.660283e+2, -293026.94, -522777.28, 28092.25, 0.003643993, -0.009688812, -289641.88, 43280.62, 0.0, 10.001223, 9.998173 
2.950353e+2, 2.76027e+2, -155333.1, -406990.78, 26216.545, -0.00013386787, 0.038978346, -152630.98, 82305.59, 0.0, 10.001501, 9.99816 
2.950415e+2, 2.860248e+2, -38327.25, -346283.0, 28482.074, -0.015511043, 0.025134712, -35715.168, 101243.51, 0.0, 10.001832, 9.9977455 
2.9504755e+2, 2.9602212e+2, 111446.484, -228268.58, 32705.773, -0.046165787, -0.020801045, 114566.55, 153551.48, 0.0, 10.00221, 9.997701 
2.9505464e+2, 3.0602038e+2, 176202.14, -206443.22, 20970.066, 0.036899976, 0.055500455, 177347.94, 177347.94, 0.0, 10.002466, 9.997394 
2.9505998e+2, 3.1601712e+2, 305876.56, 24585.24, 20061.611, -0.045158003, -0.018188087, 307300.16, 307300.16, 0.0, 10.002631, 9.998901 
3.0494422e+2, 1.2602633e+2, -1929652.9, -1707583.9, 13647.781, -0.0067661023, -0.07003724, -1706748.3, -1810.9686, 0.000073591786, 9.99805, 10.000991 
3.0494973e+2, 1.3602786e+2, -1880665.1, -1642235.0, -16053.956, -0.06334066, -0.010071483, -1641158.9, -34236.81, 0.000027638554, 9.997753, 10.000909 
3.0495608e+2, 1.4602788e+2, -1786479.0, -1599729.8, -21767.598, -0.017077366, -0.073465884, -1597226.1, -88304.74, 0.000004191702, 9.997958, 10.000427 
3.049618e+2, 1.560284e+2, -1610481.6, -1471350.6, -16718.012, -0.03468431, -0.06422666, -1469369.9, -58454.67, 0.000000032166714, 9.998525, 10.000362 
3.0496782e+2, 1.6602848e+2, -1526844.8, -1447139.1, -8801.953, -0.033283982, -0.059327822, -1446178.6, -133264.33, 0.0, 9.998715, 9.9997635 
3.049741e+2, 1.7602815e+2, -1435649.6, -1350394.1, -14189.15, -0.018192835, -0.071848914, -1348094.6, -133176.58, 0.0, 9.998659, 9.999782 
3.049802e+2, 1.8602791e+2, -1313875.3, -1257030.3, -23086.447, -0.0031820342, -0.06573509, -1248835.5, -131915.0, 0.0, 9.998891, 9.999639 
3.0498612e+2, 1.9602777e+2, -1153178.9, -1128653.8, -17285.617, 0.011394521, -0.04640756, -1119722.9, -100800.84, 0.0, 9.999321, 9.9996395 
3.049922e+2, 2.0602731e+2, -1031309.25, -1051408.4, -8016.0024, 0.01835851, -0.041323595, -1028503.8, -107576.016, 0.0, 9.999622, 9.9993515 
3.049983e+2, 2.1602659e+2, -899642.3, -933616.94, -13271.948, 0.019923583, -0.05063961, -895072.44, -72135.63, 0.0, 9.999838, 9.999384 
3.0500448e+2, 2.260262e+2, -766616.44, -818277.2, -5029.4087, 0.012581086, -0.02736606, -766131.3, -41189.66, 0.0, 10.000075, 9.999388 
3.0501068e+2, 2.3602606e+2, -632976.94, -705324.4, 2979.2507, -0.00035621418, 0.015078747, -632854.44, -5910.6187, 0.0, 10.00033, 9.999368 
3.050171e+2, 2.4602516e+2, -527118.1, -652214.8, 10690.84, 0.00052337203, 0.012555902, -526211.06, 2741.728, 0.0, 10.000594, 9.998933 
3.050237e+2, 2.5602376e+2, -392567.66, -541507.0, 8906.889, 0.009602674, -0.023202619, -392036.88, 38929.453, 0.0, 10.000867, 9.998889 
3.050303e+2, 2.660224e+2, -292705.78, -520629.75, 13920.552, 0.002558497, -0.009161951, -291858.72, 41121.58, 0.0, 10.001217, 9.99819 
3.0503675e+2, 2.7602103e+2, -136538.25, -396256.88, 17406.525, -0.012476794, 0.031619903, -135376.84, 99618.07, 0.0, 10.001624, 9.998175 
3.0504328e+2, 2.8601888e+2, -22942.223, -340332.75, 17200.533, -0.024732014, 0.024420938, -22012.785, 115003.64, 0.0, 10.001945, 9.997731 
3.0504978e+2, 2.9601637e+2, 107455.625, -233659.92, 14833.082, -0.04215395, -0.0058890837, 108099.41, 147140.83, 0.0, 10.002197, 9.997669 
3.050572e+2, 3.060143e+2, 167495.0, -224778.47, -972.8689, 0.043069948, 0.04962891, 167497.42, 167497.42, 0.0, 10.002468, 9.997267 
3.0506268e+2, 3.16011e+2, 330113.9, 43934.055, 857.39386, -0.043239392, -0.015874464, 330116.47, 330116.47, 0.0, 10.002766, 9.998969 
3.1494242e+2, 1.2602021e+2, -1947482.9, -1745085.6, 9305.672, 0.0074902805, -0.06315991, -1744658.8, -39661.805, 0.00006650563, 9.998053, 10.000731 
3.149473e+2, 1.3602144e+2, -1893985.8, -1669995.5, -24560.086, -0.08187879, -0.010506754, -1667334.3, -60348.5, 0.000025576577, 9.997754, 10.000718 
3.1495398e+2, 1.4602138e+2, -1779366.4, -1584596.0, -538.485, -0.024632769, -0.078529425, -1584594.5, -75608.99, 0.000004447986, 9.997956, 10.000532 
3.1496057e+2, 1.5602191e+2, -1604600.3, -1458725.1, 2536.4565, -0.008999337, -0.07952175, -1458681.0, -47702.59, 0.00000006594377, 9.998523, 10.00045 
3.1496674e+2, 1.6602206e+2, -1533517.5, -1460637.1, -11040.375, -0.01530534, -0.06609453, -1459001.4, -146024.45, 0.0, 9.9987135, 9.999672 
3.149726e+2, 1.7602186e+2, -1440731.6, -1360628.5, -14438.938, -0.03671718, -0.056497734, -1358105.3, -143125.17, 0.0, 9.998657, 9.999713 
3.149788e+2, 1.8602148e+2, -1305003.6, -1238186.8, -6942.5435, -0.028873028, -0.06853518, -1237473.0, -120489.414, 0.0, 9.998889, 9.999769 
3.1498533e+2, 1.96021e+2, -1146264.8, -1113919.3, -1722.9219, -0.0004177634, -0.095321976, -1113827.8, -94840.62, 0.0, 9.999319, 9.999742 
3.1499174e+2, 2.0602068e+2, -1043192.5, -1075705.4, 149.33943, 0.012436778, -0.07222669, -1043191.8, -122199.836, 0.0, 9.999621, 9.999186 
3.1499812e+2, 2.1602042e+2, -908998.6, -952808.3, -4848.5283, 0.014243663, -0.019764254, -908468.44, -85470.414, 0.0, 9.999837, 9.999253 
3.1500456e+2, 2.2602002e+2, -753895.44, -791900.2, 4683.9834, 0.011893759, -0.0025481982, -753326.7, -28323.635, 0.0, 10.000075, 9.99957 
3.1501108e+2, 2.3601952e+2, -622042.94, -682689.25, 12719.858, 0.007237552, -0.012838386, -619483.1, 7524.417, 0.0, 10.00033, 9.999523 
3.150177e+2, 2.460187e+2, -532631.9, -663630.94, 20697.861, -0.00094066875, -0.010742464, -529439.4, -423.6692, 0.0, 10.000594, 9.998855 
3.1502435e+2, 2.5601766e+2, -396627.84, -549911.8, 19515.1, -0.0119628105, -0.0026447794, -394182.3, 36844.04, 0.0, 10.000866, 9.998831 
3.1503138e+2, 2.660163e+2, -286259.16, -507184.3, 29118.773, -0.0082223825, 0.009517296, -282485.63, 50554.383, 0.0, 10.001217, 9.998282 
3.1503856e+2, 2.760147e+2, -131583.05, -385809.8, 32302.71, 0.006879111, 0.016756121, -127542.79, 107513.46, 0.0, 10.001623, 9.998247 
3.1504542e+2, 2.8601253e+2, -29912.434, -354638.03, 26458.98, -0.0069474676, 0.011283218, -27770.654, 109307.23, 0.0, 10.001945, 9.997634 
3.1505194e+2, 2.9601017e+2, 100828.37, -248177.9, 24101.377, -0.045176942, 0.00674198, 102484.875, 141586.81, 0.0, 10.0022, 9.997569 
3.150596e+2, 3.0600786e+2, 159663.03, -241691.92, 9789.785, 0.038571402, 0.046758343, 159901.67, 159901.67, 0.0, 10.002471, 9.997149 
3.1506553e+2, 3.1600475e+2, 332179.44, 48399.082, 13744.882, -0.037118383, 0.011794869, 332843.6, 332843.6, 0.0, 10.002766, 9.999001 
3.249402e+2, 1.2601371e+2, -2002925.4, -1771504.9, -12126.77, 0.0021261878, -0.049099542, -1770871.1, -65810.18, 0.00006287029, 9.997672, 10.000733 
3.249452e+2, 1.3601485e+2, -1843092.6, -1642535.1, -34707.89, -0.08016076, -0.010248159, -1636698.5, -29648.004, 0.000025189593, 9.998092, 10.000743 
3.249521e+2, 1.460148e+2, -1746438.1, -1572677.9, -2636.426, -0.021304313, -0.07664618, -1572637.9, -63587.54, 0.0000050024137, 9.9982, 10.000496 
3.2495886e+2, 1.5601532e+2, -1663598.4, -1489541.4, -10879.299, -0.011333992, -0.07332736, -1488864.0, -77820.66, 0.000000115129794, 9.998129, 10.000428 
3.2496524e+2, 1.6601548e+2, -1581595.3, -1474812.4, -23356.842, -0.015683014, -0.06361712, -1469927.0, -156885.23, 0.0, 9.998344, 9.999752 
3.2497135e+2, 1.7601527e+2, -1420315.8, -1341993.8, -13201.882, -0.030914262, -0.06230453, -1339828.3, -124783.64, 0.0, 9.998761, 9.99979 
3.2497782e+2, 1.8601495e+2, -1279876.1, -1221222.9, 242.14021, -0.025077485, -0.075366005, -1221221.9, -104174.45, 0.0, 9.999042, 9.999811 
3.2498455e+2, 1.9601455e+2, -1156818.9, -1114994.3, -2051.9456, -0.004087733, -0.098300695, -1114893.9, -95843.98, 0.0, 9.999229, 9.999778 
3.249912e+2, 2.0601423e+2, -1070013.6, -1088492.6, 1510.6191, 0.006642836, -0.07601755, -1069891.0, -148836.45, 0.0, 9.999435, 9.999187 
3.249978e+2, 2.1601394e+2, -935284.0, -965494.8, 9121.872, 0.009880057, -0.027350578, -932743.4, -109682.48, 0.0, 9.999657, 9.999252 
3.2500458e+2, 2.2601353e+2, -774735.4, -806104.25, 16905.441, 0.01317261, -0.010019642, -767359.1, -42292.91, 0.0, 9.99995, 9.999532 
3.2501146e+2, 2.36013e+2, -629523.56, -690502.75, 8803.212, 0.01681359, -0.01747278, -628278.1, -1207.1324, 0.0, 10.000298, 9.999486 
3.250184e+2, 2.4601214e+2, -521927.78, -664999.5, 13062.75, 0.0040002754, -0.01428801, -520744.9, 8334.608, 0.0, 10.000696, 9.998796 
3.2502526e+2, 2.5601104e+2, -362348.16, -539879.2, 12722.473, -0.020259291, -0.0061870087, -361441.06, 69649.586, 0.0, 10.00113, 9.998774 
3.2503262e+2, 2.660096e+2, -258787.14, -499405.4, 14978.69, -0.01319148, 0.0033495422, -257858.3, 75246.8, 0.0, 10.001429, 9.998234 
3.2504028e+2, 2.760079e+2, -132630.52, -391066.72, 7686.848, 0.01632314, 0.007443968, -132402.1, 102720.1, 0.0, 10.001637, 9.998204 
3.250474e+2, 2.8600577e+2, -34876.285, -360366.25, 898.7352, 0.00011203402, 0.0059878733, -34873.8, 102269.92, 0.0, 10.0019245, 9.997603 
3.250541e+2, 2.9600343e+2, 108285.31, -248381.39, 2988.2783, -0.051899828, 0.007896085, 108310.34, 147477.7, 0.0, 10.002269, 9.997534 
3.2506207e+2, 3.0600083e+2, 174705.83, -238461.05, -5822.265, 0.03184006, 0.020028522, 174787.86, 174787.86, 0.0, 10.002592, 9.997113 
3.2506838e+2, 3.15998e+2, 354351.2, 63261.617, 5949.898, -0.03126994, 0.014210886, 354472.75, 354472.75, 0.0, 10.0029, 9.999038 
3.3493763e+2, 1.260069e+2, -1984385.1, -1733381.5, 13036.522, -0.026534071, -0.025898458, -1732706.3, -27577.125, 0.000061273975, 9.997673, 10.000994 
3.349435e+2, 1.360081e+2, -1825647.9, -1606174.4, -20543.938, -0.05975405, -0.010275836, -1604267.9, 2848.6614, 0.000025556885, 9.99809, 10.000994 
3.3495042e+2, 1.4600812e+2, -1760467.8, -1601277.9, -5251.367, -0.0084767975, -0.06897676, -1601104.9, -91989.08, 0.0000055599335, 9.998198, 10.0003 
3.3495668e+2, 1.5600868e+2, -1674139.4, -1510866.3, -11583.865, -0.0433694, -0.044336826, -1510048.5, -98938.58, 0.00000016881297, 9.998126, 10.000283 
3.349634e+2, 1.6600876e+2, -1563678.5, -1437205.3, -7504.1797, -0.035951674, -0.050543655, -1436761.6, -123652.85, 0.0, 9.9983425, 10.000011 
3.3497038e+2, 1.7600839e+2, -1404352.3, -1308720.5, 2102.1265, -0.0013861285, -0.08999749, -1308674.4, -93562.7, 0.0, 9.99876, 10.000019 
3.3497718e+2, 1.860083e+2, -1283889.3, -1229314.8, 7430.9595, 0.0075207087, -0.0871224, -1228321.1, -111209.15, 0.0, 9.99904, 9.999757 
3.3498383e+2, 1.9600841e+2, -1159496.3, -1120282.4, 5312.8306, -0.00007615728, -0.0552459, -1119575.3, -100465.086, 0.0, 9.999228, 9.9997425 
3.3499056e+2, 2.0600797e+2, -1058424.6, -1063999.4, 9899.438, 0.00048572264, -0.052170746, -1050927.6, -129812.19, 0.0, 9.9994335, 9.999356 
3.3499742e+2, 2.1600714e+2, -926496.94, -947103.1, 18103.398, 0.00622432, -0.073452845, -915970.06, -92844.5, 0.0, 9.999656, 9.999379 
3.3500454e+2, 2.260067e+2, -792623.7, -843239.94, 29820.344, 0.015709592, -0.04975315, -778819.75, -53688.434, 0.0, 9.99995, 9.999277 
3.3501187e+2, 2.3600651e+2, -645447.6, -723661.0, 22203.77, 0.027918601, 0.0011299752, -639583.9, -12449.755, 0.0, 10.000298, 9.999258 
3.350192e+2, 2.4600549e+2, -524970.4, -671249.56, 29426.432, 0.014724222, 0.0019401995, -519272.7, 9871.519, 0.0, 10.000695, 9.998754 
3.3502647e+2, 2.5600395e+2, -366720.22, -548728.6, 28257.217, -0.016095567, -0.03388255, -362434.16, 68725.07, 0.0, 10.001129, 9.998713 
3.3503407e+2, 2.6600233e+2, -272013.63, -526690.56, 22492.342, -0.012778813, -0.0273175, -270042.44, 63133.043, 0.0, 10.001428, 9.998047 
3.350419e+2, 2.760007e+2, -143550.4, -414002.5, 15850.612, 0.0153559875, 0.0025934193, -142624.6, 92568.17, 0.0, 10.001637, 9.998046 
3.3504927e+2, 2.8599858e+2, -32383.936, -355318.25, 13490.388, -0.004440763, 0.0074983, -31821.361, 105392.664, 0.0, 10.001925, 9.997639 
3.3505628e+2, 2.9599616e+2, 110394.836, -244006.48, 15666.683, -0.062699184, -0.0010084193, 111086.055, 150323.58, 0.0, 10.002269, 9.997564 
3.350646e+2, 3.059932e+2, 177694.56, -232496.69, 5495.1987, 0.022845937, -0.028804831, 177768.17, 177768.17, 0.0, 10.002592, 9.997154 
3.3507133e+2, 3.1599063e+2, 357808.13, 69604.836, 19817.96, -0.027805341, -0.010802497, 359164.5, 359164.5, 0.0, 10.002903, 9.99908 
3.4493503e+2, 1.2599954e+2, -2003560.0, -1728027.9, 10452.361, -0.042072922, -0.0282291, -1727631.9, -22429.98, 0.000060228966, 9.997477, 10.001126 
3.4494147e+2, 1.3600096e+2, -1888403.9, -1618515.6, -43532.56, -0.049539324, -0.0073056496, -1611667.6, -4480.9307, 0.000025763518, 9.9975815, 10.001155 
3.449485e+2, 1.4600116e+2, -1820569.6, -1625776.8, -26128.041, 0.0025057984, -0.059547387, -1622333.0, -113148.664, 0.000005876301, 9.997766, 10.00034 
3.449547e+2, 1.5600176e+2, -1683374.5, -1510043.6, -13531.079, -0.046467356, -0.034148525, -1508993.6, -97815.23, 0.0000002059256, 9.99804, 10.00033 
3.4496173e+2, 1.6600187e+2, -1556467.1, -1423606.3, -325.63135, -0.035094142, -0.042642128, -1423605.4, -110428.805, 0.0, 9.998349, 10.000101 
3.4496927e+2, 1.7600158e+2, -1409581.1, -1302425.4, -4610.0156, 0.014469249, -0.08555443, -1302227.4, -87049.02, 0.0, 9.998686, 10.000098 
3.4497628e+2, 1.8600148e+2, -1302267.4, -1240438.1, -9663.149, 0.020497283, -0.085248634, -1238963.0, -121784.58, 0.0, 9.998923, 9.999737 
3.4498298e+2, 1.9600154e+2, -1179706.5, -1131827.0, -8479.424, -0.0016235255, -0.055593845, -1130369.6, -111192.48, 0.0, 9.999097, 9.999725 
3.4498996e+2, 2.0600104e+2, -1062261.6, -1067522.3, -6070.4663, -0.0028914325, -0.05675633, -1058276.1, -137093.33, 0.0, 9.999415, 9.999341 
3.449972e+2, 2.1600014e+2, -903650.06, -939824.94, -11741.95, 0.009469396, -0.08353247, -900172.94, -76979.734, 0.0, 9.999828, 9.999346 
3.4500465e+2, 2.2599962e+2, -772175.9, -852969.44, -1900.7523, 0.01885292, -0.057393678, -772131.2, -46931.156, 0.0, 10.000175, 9.999103 
3.4501225e+2, 2.3599933e+2, -630278.0, -733628.5, -3860.369, 0.02635291, 0.0016063161, -630134.0, -2929.6143, 0.0, 10.000476, 9.999104 
3.4501997e+2, 2.4599825e+2, -512819.9, -662968.44, 9855.553, 0.017609812, 0.0006700911, -512175.75, 17039.268, 0.0, 10.000769, 9.9987755 
3.450277e+2, 2.559966e+2, -376698.5, -552639.8, 13525.846, -0.0025582877, -0.04377642, -375664.75, 55565.297, 0.0, 10.001057, 9.998721 
3.4503558e+2, 2.6599494e+2, -279168.75, -546261.75, 11373.993, -0.0056342026, -0.038536213, -278685.25, 54561.996, 0.0, 10.001449, 9.997903 
3.4504357e+2, 2.759932e+2, -112958.87, -413554.16, 7304.061, 0.004617604, -0.004698886, -112781.49, 122484.74, 0.0, 10.001908, 9.997919 
3.4505123e+2, 2.8599113e+2, 12993.41, -328122.38, 4438.443, -0.016343055, 0.0065943473, 13051.151, 150338.31, 0.0, 10.002213, 9.997687 
3.450586e+2, 2.959888e+2, 134874.95, -226904.56, 7608.3784, -0.06388521, 0.0043661864, 135034.88, 174344.0, 0.0, 10.002413, 9.997613 
3.4506717e+2, 3.0598554e+2, 174360.8, -232211.69, -4571.538, 0.024684805, -0.054548994, 174412.19, 174412.19, 0.0, 10.002561, 9.997171 
3.4507415e+2, 3.159832e+2, 320711.66, 45284.742, 9349.1875, -0.024957327, -0.014604912, 321028.66, 321028.66, 0.0, 10.002675, 9.999022 
3.5493246e+2, 1.2599161e+2, -2004255.5, -1727535.5, 24223.707, -0.045709167, -0.05868663, -1725431.0, -20151.277, 0.00005843651, 9.997468, 10.001134 
3.54939e+2, 1.3599344e+2, -1883947.8, -1608538.8, -39301.277, -0.051731262, -0.00074330275, -1603040.1, 4220.946, 0.000025162195, 9.997578, 10.001225 
3.5494632e+2, 1.4599389e+2, -1800540.3, -1584105.1, -15778.446, 0.009334565, -0.047606315, -1582961.0, -73704.77, 0.0000057861466, 9.997765, 10.0006275 
3.5495302e+2, 1.5599455e+2, -1666042.3, -1473878.6, -2484.818, -0.021031583, -0.044027895, -1473846.5, -62597.465, 0.00000020730299, 9.998038, 10.000579 
3.549603e+2, 1.6599484e+2, -1562947.5, -1436884.9, 12549.138, -0.013393386, -0.040990148, -1435647.9, -122402.44, 0.0, 9.998347, 10.0000105 
3.5496795e+2, 1.7599481e+2, -1415335.9, -1314225.3, 7678.1333, 0.015638798, -0.048548564, -1313645.5, -98400.62, 0.0, 9.998685, 10.000017 
3.5497513e+2, 1.8599448e+2, -1301019.1, -1237681.6, -3102.856, 0.0126688555, -0.06917646, -1237529.9, -120282.87, 0.0, 9.998922, 9.999756 
3.54982e+2, 1.9599396e+2, -1179563.6, -1131539.0, -746.87463, -0.009491172, -0.09972176, -1131527.5, -112276.48, 0.0, 9.999097, 9.999727 
3.5498938e+2, 2.0599346e+2, -1076507.3, -1096993.0, 9567.512, -0.004051748, -0.09015426, -1072733.9, -151477.25, 0.0, 9.999414, 9.999139 
3.549971e+2, 2.1599296e+2, -917100.06, -967597.7, 3635.6226, 0.019169156, -0.057651762, -916839.6, -93575.74, 0.0, 9.999827, 9.999156 
3.5500485e+2, 2.2599226e+2, -779341.6, -867735.8, 9496.536, 0.022070643, -0.032979183, -778332.9, -53060.46, 0.0, 10.0001745, 9.9990015 
3.5501257e+2, 2.3599146e+2, -636240.44, -746072.5, 7421.7173, 0.011570959, -0.016172478, -635741.2, -8459.404, 0.0, 10.000476, 9.999019 
3.5502067e+2, 2.4599037e+2, -506653.94, -650100.5, 20404.293, 0.012115231, -0.018166572, -503808.0, 25484.078, 0.0, 10.000768, 9.998864 
3.5502896e+2, 2.559891e+2, -371335.9, -541406.1, 24813.04, 0.019469721, -0.036421645, -367789.66, 63513.44, 0.0, 10.001057, 9.998798 
3.5503715e+2, 2.659874e+2, -286428.78, -561101.2, 28507.697, 0.007522678, -0.030845985, -283501.22, 49819.242, 0.0, 10.001447, 9.997802 
3.5504526e+2, 2.7598542e+2, -119588.82, -427095.63, 23639.725, -0.0160857, -0.0135607775, -117782.125, 117560.34, 0.0, 10.001907, 9.997827 
3.5505325e+2, 2.8598335e+2, 17179.955, -319015.3, 11621.708, -0.035667416, 0.0038986225, 17581.219, 154944.22, 0.0, 10.002211, 9.99775 
3.5506105e+2, 2.9598132e+2, 139225.22, -217441.63, 14534.26, -0.057262123, 0.021678606, 139816.52, 179198.78, 0.0, 10.002411, 9.997679 
3.5506982e+2, 3.0597788e+2, 173703.63, -233456.13, -904.00037, 0.035292357, -0.059279505, 173705.63, 173705.63, 0.0, 10.00256, 9.997164 
3.5507682e+2, 3.1597576e+2, 310454.4, 23402.107, 16270.44, -0.024710761, 0.0035645477, 311373.7, 311373.7, 0.0, 10.002678, 9.998871 
3.6493015e+2, 1.2598407e+2, -2006209.3, -1730121.8, 36296.0, -0.025323428, -0.051299963, -1725429.8, -20075.854, 0.000055122826, 9.997462, 10.001119 
3.6493638e+2, 1.3598584e+2, -1909048.4, -1617657.0, -38425.34, -0.06377323, -0.0022586153, -1612675.1, -5339.034, 0.000023501116, 9.997393, 10.001251 
3.6494392e+2, 1.4598635e+2, -1818705.5, -1586360.6, -13959.089, -0.0020327303, -0.04725265, -1585525.0, -76194.49, 0.00000526637, 9.997612, 10.000685 
3.6495125e+2, 1.5598713e+2, -1659558.1, -1464979.5, -18511.314, -0.0018301246, -0.039112028, -1463234.1, -51911.89, 0.00000017249042, 9.998057, 10.00063 
3.649588e+2, 1.6598742e+2, -1566415.0, -1441648.5, -10885.054, 0.0018010741, -0.03767926, -1440706.0, -127387.484, 0.0, 9.998336, 9.999984 
3.6496642e+2, 1.7598729e+2, -1443190.0, -1330888.6, -10540.951, 0.0014213978, -0.05075642, -1329907.9, -114589.125, 0.0, 9.998507, 9.999989 
3.649739e+2, 1.859869e+2, -1313845.4, -1250503.5, -20044.635, 0.0006077508, -0.072027765, -1244693.4, -127371.875, 0.0, 9.998862, 9.999697 
3.6498132e+2, 1.9598635e+2, -1148255.1, -1123585.1, -23993.887, 0.0024257181, -0.09971368, -1108941.3, -89615.38, 0.0, 9.999341, 9.999664 
3.6498907e+2, 2.0598581e+2, -1047071.06, -1094241.8, -12061.377, 0.012132429, -0.085483, -1044165.94, -122833.88, 0.0, 9.999665, 9.999038 
3.6499703e+2, 2.1598525e+2, -915822.75, -977800.4, -10634.154, 0.025800727, -0.04759149, -914048.94, -90709.24, 0.0, 9.999883, 9.999059 
3.650051e+2, 2.2598442e+2, -780854.4, -877414.9, 613.4484, 0.027334005, -0.029125046, -780850.44, -55500.93, 0.0, 10.000203, 9.998921 
3.650132e+2, 2.3598342e+2, -624712.9, -749351.3, -84.934616, 0.021424785, -0.025815422, -624712.8, 2648.0923, 0.0, 10.000594, 9.9989395 
3.650216e+2, 2.459823e+2, -484360.6, -645746.44, 6139.208, 0.017459007, -0.022978276, -484127.38, 45244.05, 0.0, 10.000949, 9.998807 
3.6503005e+2, 2.5598112e+2, -341694.06, -531687.2, -743.71484, 0.013699297, -0.024439111, -341691.13, 89690.42, 0.0, 10.001279, 9.998758 
3.6503854e+2, 2.659794e+2, -270347.8, -540493.4, 7969.852, 0.00028818205, -0.024960378, -270112.88, 63285.887, 0.0, 10.001501, 9.997917 
3.6504704e+2, 2.759773e+2, -148632.66, -429521.5, 19266.139, -0.018014433, -0.028514188, -147317.36, 88103.68, 0.0, 10.0016575, 9.997931 
3.650553e+2, 2.859754e+2, -25348.986, -343526.44, 9184.59, -0.03584444, -0.0027437622, -25084.082, 112356.52, 0.0, 10.001935, 9.997715 
3.650634e+2, 2.9597357e+2, 119289.12, -229345.81, 4101.307, -0.057825107, 0.04110572, 119337.36, 158795.66, 0.0, 10.002283, 9.99766 
3.6507237e+2, 3.0597e+2, 180087.86, -215658.31, -11896.506, 0.03357223, -0.060624022, 180445.16, 180445.16, 0.0, 10.00254, 9.997296 
3.6507952e+2, 3.15968e+2, 317354.84, 18749.813, 17896.73, -0.025549835, 0.0054820376, 318423.66, 318423.66, 0.0, 10.002758, 9.9988 
3.7492803e+2, 1.2597696e+2, -2009921.0, -1736381.3, 44511.84, 0.017698327, -0.0039850944, -1729320.3, -23895.727, 0.00005010573, 9.997456, 10.001078 
3.7493354e+2, 1.3597815e+2, -1911269.8, -1620907.5, -39627.367, -0.08612827, -0.012361128, -1615596.5, -8184.6543, 0.000020857056, 9.997387, 10.001232 
3.749412e+2, 1.4597853e+2, -1831625.4, -1612460.1, 2864.2136, -0.03224956, -0.059120074, -1612422.8, -103015.27, 0.000004428325, 9.997608, 10.000508 
3.7494943e+2, 1.5597944e+2, -1670372.0, -1487497.3, -2616.7644, 0.009619485, -0.018900203, -1487459.8, -76061.695, 0.00000011962439, 9.998057, 10.000476 
3.749572e+2, 1.6597953e+2, -1563178.6, -1435192.3, -4722.673, 0.008953414, -0.03234936, -1435018.3, -121622.24, 0.0, 9.998337, 10.000028 
3.7496462e+2, 1.7597899e+2, -1441200.4, -1326871.8, -2782.1663, -0.028815448, -0.092899084, -1326804.1, -111404.266, 0.0, 9.998507, 10.000017 
3.7497258e+2, 1.8597874e+2, -1323847.3, -1271306.8, -1806.4224, -0.016474146, -0.094332024, -1271244.8, -153843.03, 0.0, 9.998862, 9.999555 
3.74981e+2, 1.9597872e+2, -1157319.0, -1142454.9, -6686.692, 0.033771306, -0.055377007, -1139889.5, -120487.4, 0.0, 9.999341, 9.999536 
3.7498906e+2, 2.0597811e+2, -1047204.56, -1094553.3, -3837.0803, 0.045270145, -0.04259877, -1046895.6, -125486.625, 0.0, 9.999665, 9.999036 
3.7499696e+2, 2.1597707e+2, -916173.5, -978515.3, -1692.5243, 0.028575486, -0.053289995, -916127.56, -92707.02, 0.0, 9.999883, 9.999054 
3.7500533e+2, 2.259761e+2, -785009.0, -885982.4, 15257.891, 0.033936907, -0.045654282, -782753.8, -57322.43, 0.0, 10.000203, 9.998862 
3.7501413e+2, 2.3597516e+2, -629616.7, -759402.4, 14402.239, 0.055288825, -0.02751516, -628037.7, -595.996, 0.0, 10.000593, 9.998871 
3.7502268e+2, 2.4597402e+2, -498809.44, -675615.9, 18584.799, 0.03306723, -0.014071659, -496877.03, 32576.063, 0.0, 10.000948, 9.998602 
3.75031e+2, 2.559727e+2, -352520.94, -554268.94, 11020.023, -0.019992538, -0.007715146, -351920.78, 79544.56, 0.0, 10.001279, 9.998603 
3.7503976e+2, 2.6597098e+2, -247325.44, -492535.5, 13426.594, -0.02740498, -0.02082121, -246592.45, 86889.664, 0.0, 10.0015, 9.998247 
3.7504882e+2, 2.7596897e+2, -128374.87, -386702.0, 25691.693, -0.0025452026, -0.050569136, -125844.51, 109657.54, 0.0, 10.001655, 9.998226 
3.750574e+2, 2.8596723e+2, -34610.832, -362065.44, 21893.64, -0.018309083, -0.0137903895, -33153.508, 104366.484, 0.0, 10.001932, 9.99759 
3.7506562e+2, 2.959656e+2, 113149.734, -242683.34, 16208.239, -0.065576546, 0.0644121, 113886.49, 153423.39, 0.0, 10.002285, 9.997567 
3.7507474e+2, 3.059619e+2, 199079.39, -176680.81, -4259.2056, 0.019686554, -0.057529546, 199127.66, 199127.66, 0.0, 10.002542, 9.997562 
3.7508225e+2, 3.1596002e+2, 317554.7, 20137.76, 27887.984, -0.030137, -0.011835606, 320147.06, 320147.06, 0.0, 10.002754, 9.998812 
3.8492543e+2, 1.2596945e+2, -2043516.6, -1763421.6, 46010.445, 0.019822488, 0.020197174, -1756057.3, -50558.566, 0.00004363311, 9.997272, 10.000981 
3.849312e+2, 1.3597038e+2, -1899221.6, -1621247.1, -52888.72, -0.06308536, -0.009331589, -1611524.4, -4035.7944, 0.000017489165, 9.997495, 10.001178 
3.8493896e+2, 1.4597066e+2, -1818064.0, -1616392.9, 3103.9575, -0.02383362, -0.05918188, -1616345.1, -106859.88, 0.0000034194288, 9.9977455, 10.000415 
3.8494733e+2, 1.559715e+2, -1677950.8, -1501186.0, 3270.4526, -0.005465081, -0.0158885, -1501125.5, -89649.26, 0.00000006772674, 9.998048, 10.000387 
3.8495544e+2, 1.6597155e+2, -1571745.3, -1446204.4, -6857.74, 0.00023750964, -0.028675409, -1445830.9, -132356.03, 0.0, 9.998307, 9.999967 
3.849633e+2, 1.7597091e+2, -1439808.4, -1332751.8, -11925.87, -0.012518716, -0.089780465, -1331439.4, -115959.81, 0.0, 9.998544, 9.999959 
3.8497162e+2, 1.8597063e+2, -1322840.3, -1277320.9, -1638.6339, 0.0009388101, -0.08929742, -1277262.0, -159780.14, 0.0, 9.998897, 9.999497 
3.8498035e+2, 1.9597057e+2, -1162497.5, -1150528.1, -792.4295, 0.036413405, -0.04720143, -1150475.9, -130993.47, 0.0, 9.99933, 9.999486 
3.8498873e+2, 2.0596993e+2, -1038431.75, -1089046.5, -173.44012, 0.04537106, -0.036183555, -1038431.2, -116941.74, 0.0, 9.99972, 9.999047 
3.8499698e+2, 2.1596886e+2, -887874.25, -964818.56, 2989.7783, 0.034541477, -0.05085828, -887758.25, -64257.227, 0.0, 10.000076, 9.999055 
3.850057e+2, 2.2596784e+2, -762513.06, -885784.06, 20733.715, 0.03906112, -0.043280102, -759119.2, -33606.918, 0.0, 10.000403, 9.998768 
3.8501477e+2, 2.3596683e+2, -619310.06, -765068.6, 16553.277, 0.05474374, -0.023280054, -617453.8, 10069.501, 0.0, 10.00071, 9.9987755 
3.850236e+2, 2.4596557e+2, -507096.9, -690463.3, 21135.549, 0.033092584, -0.010808552, -504692.25, 24843.67, 0.0, 10.000937, 9.998506 
3.8503224e+2, 2.5596416e+2, -382494.75, -578268.94, 21204.031, -0.015021357, -0.0072208545, -380224.5, 51325.277, 0.0, 10.001115, 9.998517 
3.8504124e+2, 2.6596242e+2, -268005.9, -500168.94, 12210.235, -0.023082986, -0.018405266, -267365.5, 66201.16, 0.0, 10.001348, 9.998268 
3.8505048e+2, 2.7596048e+2, -132578.28, -386552.25, 1899.7877, -0.0024139176, -0.042320184, -132564.06, 103021.64, 0.0, 10.001615, 9.998247 
3.8505933e+2, 2.8595874e+2, -33963.176, -358655.44, 289.78696, -0.019289369, -0.007192921, -33962.918, 103640.53, 0.0, 10.001922, 9.997619 
3.8506788e+2, 2.9595706e+2, 114409.0, -237163.98, 5294.489, -0.065873146, 0.062289562, 114488.72, 154109.55, 0.0, 10.002272, 9.997611 
3.8507724e+2, 3.0595347e+2, 212269.13, -152045.11, -19113.621, 0.014586313, -0.06414069, 213269.17, 213269.17, 0.0, 10.002554, 9.997726 
3.850849e+2, 3.1595182e+2, 313672.8, 6383.796, 7615.892, -0.039914414, -0.0052748853, 313861.47, 313861.47, 0.000000000002787424, 10.002779, 9.998706 
3.949223e+2, 1.2596153e+2, -2055077.8, -1786065.5, 65182.926, -0.02040885, 0.020002449, -1771103.5, -65527.145, 0.0000362571, 9.997266, 10.00083 
3.9492938e+2, 1.3596253e+2, -1905383.1, -1633971.9, -44898.78, 0.005101948, 0.007386669, -1626737.3, -19170.898, 0.000013744367, 9.997494, 10.001091 
3.9493716e+2, 1.459627e+2, -1818549.5, -1617372.8, 14100.448, 0.023024958, -0.04702724, -1616389.3, -106825.58, 0.0000023661473, 9.997745, 10.000409 
3.9494494e+2, 1.5596329e+2, -1679712.3, -1504483.9, 14344.433, -0.047962066, -0.030698102, -1503317.4, -91760.555, 0.000000028035489, 9.998046, 10.000365 
3.949535e+2, 1.6596338e+2, -1583707.5, -1470774.9, 1974.2572, -0.02518185, -0.026810233, -1470740.4, -157185.17, 0.0, 9.998305, 9.999799 
3.949625e+2, 1.7596307e+2, -1450153.1, -1354133.5, -2185.067, 0.050464727, -0.04059048, -1354083.8, -138526.03, 0.0, 9.998544, 9.999812 
3.9497104e+2, 1.8596257e+2, -1321044.3, -1273462.6, 14663.346, 0.0529057, -0.05643003, -1269306.8, -151745.0, 0.0, 9.998896, 9.999524 
3.949794e+2, 1.9596192e+2, -1160436.8, -1146149.8, 15499.43, 0.009775267, -0.07548512, -1136226.9, -116659.88, 0.0, 9.999329, 9.9995165 
3.9498812e+2, 2.0596129e+2, -1036869.8, -1085539.9, 13373.036, 0.011672, -0.06615594, -1033437.4, -111863.875, 0.0, 9.999719, 9.999072 
3.9499712e+2, 2.1596065e+2, -887310.06, -963487.2, 16438.268, 0.043000836, -0.04056008, -883914.25, -60333.016, 0.0, 10.000076, 9.999064 
3.9500612e+2, 2.2595966e+2, -772179.5, -905648.3, 32361.316, 0.04207867, -0.02236472, -764746.94, -39154.7, 0.0, 10.000402, 9.9986315 
3.9501515e+2, 2.3595843e+2, -627806.3, -782721.56, 27675.51, 0.019636137, -0.012945657, -623010.56, 4595.2144, 0.0, 10.00071, 9.998655 
3.950244e+2, 2.45957e+2, -506574.22, -689206.44, 27562.709, 0.017185168, -0.012882299, -502505.16, 27114.836, 0.0, 10.0009365, 9.998514 
3.9503378e+2, 2.5595543e+2, -383805.75, -580369.06, 28179.39, 0.027365128, -0.023073914, -379845.72, 51789.14, 0.0, 10.001112, 9.998504 
3.9504293e+2, 2.6595372e+2, -287910.7, -541037.9, 22079.51, 0.012191086, -0.017916908, -285999.2, 47653.227, 0.0, 10.001346, 9.997989 
3.950519e+2, 2.7595186e+2, -149154.13, -421588.3, 11920.584, -0.018030362, -0.0037160453, -148633.52, 87038.34, 0.0, 10.001617, 9.998006 
3.9506105e+2, 2.8594998e+2, -21406.7, -332839.47, 13125.284, -0.039219182, 0.017192217, -20854.516, 116836.3, 0.0, 10.001924, 9.997795 
3.950702e+2, 2.9594797e+2, 126102.58, -211482.17, 18101.193, -0.060083576, 0.0348308, 127070.38, 166780.38, 0.0, 10.002266, 9.99779 
3.9507982e+2, 3.059446e+2, 215869.69, -143065.2, -11272.211, 0.017149894, -0.08091785, 216223.34, 216223.34, 0.0, 10.002547, 9.99779 
3.950875e+2, 3.1594345e+2, 298715.25, -25225.86, 19160.566, -0.05689955, 0.023933474, 299844.63, 299844.63, 0.000000001718879, 10.002782, 9.998487 
4.0491945e+2, 1.2595306e+2, -2052657.6, -1789860.8, 48415.414, -0.03268146, 0.010370627, -1781224.9, -75565.484, 0.000028702449, 9.997304, 10.000785 
4.049271e+2, 1.3595423e+2, -1915463.9, -1637730.9, -65086.484, 0.029055152, 0.015445837, -1623234.6, -15586.787, 0.000010028613, 9.997419, 10.0011015 
4.0493506e+2, 1.4595447e+2, -1831865.5, -1621825.8, 3939.9417, 0.042172678, -0.035389572, -1621751.9, -112107.36, 0.0000013962007, 9.997645, 10.000427 
4.0494305e+2, 1.5595491e+2, -1688907.8, -1508329.4, 5649.167, -0.039133713, -0.033846542, -1508152.9, -96514.016, 0.000000006286357, 9.997981, 10.000371 
4.0495187e+2, 1.6595498e+2, -1588362.6, -1486660.9, -4373.3467, -0.017070513, -0.026404599, -1486473.1, -172835.58, 0.0, 9.998333, 9.999678 
4.049612e+2, 1.7595471e+2, -1435213.0, -1359222.5, -5216.926, 0.06216613, -0.023190351, -1358866.0, -143225.83, 0.0, 9.998698, 9.999702 
4.0497008e+2, 1.8595408e+2, -1304630.0, -1263899.6, 14175.3955, 0.06207979, -0.047666337, -1259451.9, -141806.66, 0.0, 9.9990015, 9.999538 
4.0497872e+2, 1.9595319e+2, -1169793.3, -1149633.3, 13905.667, 0.012999948, -0.09326926, -1142538.4, -122886.35, 0.0, 9.999261, 9.999525 
4.0498778e+2, 2.0595253e+2, -1054324.9, -1100298.4, 9402.485, 0.012556681, -0.08344034, -1052476.3, -130817.52, 0.0, 9.999626, 9.999015 
4.049972e+2, 2.1595202e+2, -892882.0, -972421.75, 5700.0967, 0.043311935, -0.0390878, -892475.56, -68810.0, 0.0, 10.000065, 9.999008 
4.050065e+2, 2.25951e+2, -775525.8, -913134.06, 19314.584, 0.039900918, -0.017960217, -772866.25, -47189.16, 0.0, 10.000404, 9.998579 
4.0501574e+2, 2.3594964e+2, -636445.9, -792635.8, 20355.469, 0.013811404, -0.016332148, -633836.6, -6144.773, 0.0, 10.000675, 9.998603 
4.0502527e+2, 2.4594817e+2, -511774.94, -698860.56, 17202.402, 0.012909507, -0.014780362, -510206.34, 19500.26, 0.0, 10.000932, 9.99845 
4.050349e+2, 2.5594664e+2, -378863.84, -585916.44, 12601.066, 0.028367892, -0.017104633, -378099.78, 53621.727, 0.0, 10.001179, 9.998434 
4.0504438e+2, 2.6594484e+2, -280690.34, -554078.0, 13146.887, 0.016003495, -0.008438888, -280059.6, 53680.613, 0.0, 10.001466, 9.997842 
4.0505368e+2, 2.7594283e+2, -132825.8, -428149.75, 12493.38, -0.013450841, 0.005879901, -132298.22, 103463.38, 0.0, 10.001792, 9.997876 
4.0506306e+2, 2.859409e+2, 1155.2675, -314490.28, 12292.706, -0.03775815, 0.024596553, 1633.2787, 139414.19, 0.0, 10.002046, 9.997862 
4.050724e+2, 2.9593894e+2, 127166.14, -202437.69, 9120.569, -0.06406608, 0.038669493, 127418.32, 167217.61, 0.0, 10.002236, 9.997868 
4.0508223e+2, 3.0593574e+2, 208071.47, -139735.89, -23691.227, 0.007952399, -0.06396028, 209677.8, 209677.8, 0.0, 10.002463, 9.997854 
4.0509015e+2, 3.1593457e+2, 279052.38, -56250.32, 9420.534, -0.067265265, 0.034365743, 279316.84, 279316.84, 0.00000001196501, 10.002739, 9.998294 
4.149169e+2, 1.25944e+2, -2048543.0, -1780201.5, 63737.17, -0.01791399, -0.009426069, -1765832.0, -60083.953, 0.000021697306, 9.997299, 10.000854 
4.149243e+2, 1.3594548e+2, -1907848.8, -1621702.9, -60943.49, 0.007352718, 0.014134331, -1609263.8, -1530.6703, 0.000006740833, 9.997418, 10.001212 
4.149326e+2, 1.4594592e+2, -1829338.4, -1615966.5, 16395.178, 0.032058194, -0.024280446, -1614714.1, -104986.15, 0.0000006540361, 9.9976425, 10.000468 
4.149416e+2, 1.5594637e+2, -1686695.8, -1503426.1, 18545.924, 0.021642558, -0.024602184, -1501568.3, -89846.05, 0.0000000002364484, 9.997979, 10.000405 
4.1495064e+2, 1.6594632e+2, -1594355.9, -1498546.5, 9222.147, 0.02504092, -0.027191548, -1497666.9, -183944.64, 0.0, 9.99833, 9.999597 
4.149595e+2, 1.7594583e+2, -1440529.5, -1369887.5, 8329.417, 0.021337777, -0.03833058, -1368918.6, -153191.7, 0.0, 9.998697, 9.99963 
4.1496873e+2, 1.8594517e+2, -1304713.1, -1263734.0, 24009.006, 0.02677944, -0.063540526, -1252660.0, -134927.92, 0.0, 9.999, 9.99954 
4.149783e+2, 1.9594437e+2, -1170931.4, -1151741.4, 24562.398, 0.045702737, -0.100497276, -1134966.4, -115228.61, 0.0, 9.99926, 9.999511 
4.149878e+2, 2.0594364e+2, -1064465.4, -1121047.1, 25985.16, 0.04785929, -0.08818706, -1054342.6, -132597.42, 0.0, 9.999625, 9.998873 
4.149972e+2, 2.1594298e+2, -901616.4, -990465.8, 21864.664, 0.03522825, -0.046286266, -896527.25, -72773.086, 0.0, 10.000065, 9.998885 
4.1500685e+2, 2.2594187e+2, -773597.7, -908820.8, 29444.668, 0.031837903, -0.029892689, -767464.3, -41697.65, 0.0, 10.000403, 9.99861 
4.1501665e+2, 2.3594047e+2, -635469.8, -790311.8, 30495.922, 0.036298834, -0.033731207, -629680.1, -1898.4614, 0.0, 10.000673, 9.998619 
4.1502625e+2, 2.4593909e+2, -521446.47, -718609.5, 26372.729, 0.019542845, -0.016905159, -517979.78, 11816.115, 0.0, 10.00093, 9.998316 
4.1503567e+2, 2.5593773e+2, -387684.75, -604297.25, 21935.197, -0.012201743, 0.010499261, -385485.8, 46323.902, 0.0, 10.00118, 9.998307 
4.1504553e+2, 2.6593575e+2, -282078.4, -556804.8, 25092.098, -0.0121827945, 0.010158432, -279805.44, 54024.55, 0.0, 10.001466, 9.997823 
4.150557e+2, 2.7593338e+2, -134780.14, -431031.88, 24566.316, 0.010307393, -0.012980957, -132756.83, 103098.086, 0.0, 10.001786, 9.997859 
4.1506532e+2, 2.859315e+2, -2268.8198, -320355.78, 19137.86, -0.015829088, 0.015379542, -1121.519, 136752.2, 0.0, 10.002041, 9.997825 
4.150745e+2, 2.9592994e+2, 125758.53, -205405.48, 15877.306, -0.078687154, 0.07299357, 126518.016, 166406.7, 0.0, 10.002236, 9.997847 
4.1508448e+2, 3.0592692e+2, 212442.56, -130957.71, -13671.525, -0.014301321, -0.014289382, 212985.98, 212985.98, 0.0, 10.002465, 9.997913 
4.1509283e+2, 3.159252e+2, 266560.47, -81259.03, 22629.563, -0.07397216, 0.024308424, 268026.6, 268026.6, 0.000000036873733, 10.002735, 9.998124 
4.2491424e+2, 1.2593469e+2, -2065663.1, -1773799.8, 51544.176, -0.0026876475, -0.012090575, -1764964.4, -59124.863, 0.000015823704, 9.997123, 10.000981 
4.2492172e+2, 1.3593622e+2, -1888265.9, -1594635.4, -81447.625, 0.006001389, 0.00024319811, -1573556.5, 34266.586, 0.0000041887733, 9.9974785, 10.0013685 
4.2493019e+2, 1.4593677e+2, -1820462.8, -1617679.9, -5162.1357, 0.021130413, -0.032741975, -1617548.5, -107731.586, 0.00000021832761, 9.99773, 10.000414 
4.2493975e+2, 1.5593722e+2, -1697759.3, -1513375.6, -9995.763, 0.03958938, -0.027577119, -1512835.4, -101023.54, 0.0, 9.997924, 10.000363 
4.2494914e+2, 1.6593717e+2, -1592355.0, -1488853.4, -9083.392, 0.043921348, -0.031743724, -1488062.3, -174250.48, 0.0, 9.998307, 9.999675 
4.2495823e+2, 1.7593668e+2, -1417340.6, -1352613.9, 926.13525, 0.018253773, -0.04907737, -1352600.6, -136784.83, 0.0, 9.998831, 9.999684 
4.2496777e+2, 1.8593602e+2, -1291071.1, -1277390.6, 6478.785, 0.02245523, -0.067811355, -1274809.4, -156987.95, 0.0, 9.999182, 9.999358 
4.2497772e+2, 1.9593517e+2, -1160902.5, -1165519.4, -6369.275, 0.055538576, -0.0893555, -1156436.3, -136607.84, 0.0, 9.99941, 9.999344 
4.2498752e+2, 2.0593439e+2, -1055197.8, -1118262.0, 29.306267, 0.057076648, -0.07647549, -1055197.6, -133360.89, 0.0, 9.999697, 9.9988575 
4.2499718e+2, 2.1593359e+2, -908682.75, -995736.4, 4818.758, 0.03315552, -0.04451778, -908416.8, -84570.28, 0.0, 10.000025, 9.998867 
4.2500713e+2, 2.2593248e+2, -785135.5, -920437.4, 9653.879, 0.026956331, -0.025849346, -784450.1, -58590.84, 0.0, 10.000351, 9.998554 
4.250173e+2, 2.3593114e+2, -639156.44, -797729.3, 3988.8838, 0.034802254, -0.018308256, -639056.1, -11181.997, 0.0, 10.000673, 9.998569 
4.250272e+2, 2.4592973e+2, -516264.8, -718206.56, 1541.4006, 0.01946344, -0.00084816624, -516253.06, 13635.719, 0.0, 10.000975, 9.998297 
4.250369e+2, 2.5592825e+2, -376061.34, -600164.7, 5402.7534, -0.01257137, 0.018921982, -375931.16, 55972.344, 0.0, 10.001266, 9.998294 
4.25047e+2, 2.6592633e+2, -273966.5, -546981.25, 14959.14, -0.013544681, 0.0198358, -273149.3, 60773.945, 0.0, 10.001495, 9.997876 
4.250574e+2, 2.759241e+2, -147322.19, -432108.38, 19483.87, 0.0078846095, 0.0045981994, -145995.36, 89951.266, 0.0, 10.001679, 9.997904 
4.2506725e+2, 2.859221e+2, -31647.07, -344087.75, 13164.585, -0.016227515, 0.02783504, -31093.365, 106873.01, 0.0, 10.00188, 9.997739 
4.250767e+2, 2.959203e+2, 102769.25, -222537.34, 6387.6665, -0.07527945, 0.070479564, 102894.625, 142878.8, 0.0, 10.002105, 9.997792 
4.2508686e+2, 3.0591768e+2, 212435.31, -109770.6, -16601.111, -0.017208932, 0.011176722, 213288.4, 213288.4, 0.0, 10.002373, 9.998103 
4.2509547e+2, 3.1591603e+2, 256077.38, -84955.53, 32450.338, -0.08171365, 0.04018289, 259137.67, 259137.67, 0.00000007454206, 10.002656, 9.998137 
4.349115e+2, 1.2592514e+2, -2054153.8, -1749295.4, 76120.88, 0.011209964, 0.0041054455, -1731345.4, -25411.918, 0.0000113764345, 9.99712, 10.001151 
4.349194e+2, 1.3592646e+2, -1874459.0, -1566543.6, -68625.15, 0.024967758, -0.025810134, -1551941.5, 55975.934, 0.0000025044064, 9.99748, 10.001561 
4.349278e+2, 1.4592698e+2, -1831724.1, -1640480.9, 1940.2198, 0.009031852, -0.061063446, -1640461.1, -130549.625, 0.000000047491298, 9.997727, 10.000258 
4.3493742e+2, 1.5592742e+2, -1706591.4, -1531288.5, -1635.6582, 0.012634314, -0.044058174, -1531273.3, -119365.2, 0.0, 9.997923, 10.000241 
4.349474e+2, 1.659275e+2, -1575933.5, -1454227.1, 10722.314, 0.037343662, -0.04107752, -1453289.8, -139383.23, 0.0, 9.998304, 9.999913 
4.3495739e+2, 1.759273e+2, -1404717.6, -1326201.8, 20076.418, 0.052882202, -0.05511665, -1321366.1, -105459.27, 0.0, 9.99883, 9.9998665 
4.3496722e+2, 1.8592663e+2, -1317484.6, -1331614.1, 15003.963, 0.04939723, -0.05985178, -1307965.4, -190052.22, 0.0, 9.99918, 9.998987 
4.34977e+2, 1.9592565e+2, -1183840.4, -1212805.8, 2694.799, 0.041952603, -0.059690118, -1183591.9, -163668.02, 0.0, 9.999409, 9.99902 
4.3498704e+2, 2.0592476e+2, -1047579.6, -1102184.4, 12450.149, 0.03917938, -0.048402485, -1044874.9, -122941.375, 0.0, 9.999696, 9.998968 
4.3499726e+2, 2.159239e+2, -902612.25, -983007.5, 17371.158, 0.036124792, -0.034166634, -899019.4, -75076.6, 0.0, 10.000024, 9.998955 
4.3500748e+2, 2.2592284e+2, -795191.06, -941108.0, 21781.875, 0.024605984, -0.006049471, -792008.94, -66053.98, 0.0, 10.00035, 9.998413 
4.3501773e+2, 2.3592164e+2, -647689.6, -815365.6, 16010.447, 0.009009561, 0.02967176, -646174.56, -18205.27, 0.0, 10.000672, 9.998448 
4.350281e+2, 2.4592009e+2, -509969.56, -704655.94, 12309.866, 0.011871256, 0.03326822, -509194.3, 20791.018, 0.0, 10.000973, 9.99839 
4.3503854e+2, 2.5591826e+2, -369569.44, -586019.4, 16041.407, 0.026001418, 0.008721944, -368387.03, 63615.83, 0.0, 10.001263, 9.998392 
4.3504873e+2, 2.6591656e+2, -265715.06, -529344.75, 21626.453, 0.011163711, 0.020792285, -263952.75, 70067.29, 0.0, 10.001493, 9.997998 
4.3505877e+2, 2.7591494e+2, -140256.58, -417322.94, 25959.844, -0.021303454, 0.05726697, -137845.25, 98191.65, 0.0, 10.001678, 9.998006 
4.3506888e+2, 2.8591278e+2, -40967.332, -363008.97, 21248.607, -0.0402787, 0.061462957, -39571.383, 98487.58, 0.0, 10.001879, 9.997609 
4.3507898e+2, 2.9591015e+2, 96523.26, -235127.06, 15377.964, -0.054866828, 0.03316096, 97234.77, 137320.3, 0.0, 10.002103, 9.997706 
4.3508938e+2, 3.0590805e+2, 234305.33, -63655.703, -6414.9063, -0.0014949641, 0.013855861, 234443.38, 234443.38, 0.0, 10.002371, 9.998422 
4.35098e+2, 3.1590706e+2, 268813.38, -57999.84, 46179.047, -0.09346824, 0.077210605, 275213.22, 275213.22, 0.0000001100893, 10.002654, 9.998323 
4.4490874e+2, 1.2591508e+2, -2024768.1, -1732075.0, 74354.07, 0.015224086, -0.002412472, -1714269.6, -8237.747, 0.000008277144, 9.997308, 10.001179 
4.4491693e+2, 1.359165e+2, -1881087.8, -1562194.8, -91959.09, 0.034820445, -0.029247206, -1537577.0, 70437.73, 0.0000015575915, 9.997401, 10.00163 
4.449254e+2, 1.4591712e+2, -1839195.1, -1649211.0, -17285.736, -0.0012419985, -0.057058584, -1647651.1, -137642.97, 0.000000013935479, 9.997699, 10.000213 
4.449354e+2, 1.5591742e+2, -1674915.4, -1520530.1, -13009.053, 0.009428638, -0.04664193, -1519441.6, -107435.484, 0.0, 9.99816, 10.0002 
4.449458e+2, 1.6591752e+2, -1553787.9, -1440561.3, -6044.7324, 0.042279046, -0.04352664, -1440239.5, -126234.81, 0.0, 9.998445, 9.999939 
4.4495624e+2, 1.7591739e+2, -1436228.5, -1339125.4, -12407.919, 0.06393956, -0.051273383, -1337565.0, -121561.01, 0.0, 9.998605, 9.999886 
4.4496635e+2, 1.8591677e+2, -1353560.4, -1354477.4, -9120.303, 0.055831026, -0.051504616, -1344887.0, -226876.78, 0.0, 9.998956, 9.998938 
4.449764e+2, 1.9591576e+2, -1182273.0, -1217419.6, 2389.5173, 0.03707169, -0.049049925, -1182111.4, -162089.69, 0.0, 9.999443, 9.998971 
4.4498673e+2, 2.0591483e+2, -1029793.6, -1099665.8, 14107.453, 0.032283034, -0.0359627, -1027052.75, -105020.945, 0.0, 9.999845, 9.998914 
4.449973e+2, 2.1591392e+2, -883255.44, -979202.25, 6024.576, 0.033446692, -0.01963225, -882878.6, -58837.2, 0.0, 10.000181, 9.998905 
4.4500783e+2, 2.2591284e+2, -787966.94, -937903.44, 7844.8345, 0.023971979, 0.007887346, -787557.56, -61503.71, 0.0, 10.000401, 9.99841 
4.4501832e+2, 2.3591161e+2, -667672.0, -825313.56, 12519.184, 0.008805319, 0.0402446, -666683.94, -38615.523, 0.0, 10.000537, 9.998445 
4.45029e+2, 2.4591005e+2, -537450.94, -717507.75, 11942.14, 0.013103131, 0.04355449, -536662.3, -6577.7026, 0.0, 10.000782, 9.998394 
4.4503978e+2, 2.5590825e+2, -391469.0, -594878.56, 8323.268, 0.029279962, 0.021702979, -391129.0, 40973.16, 0.0, 10.001105, 9.998407 
4.4505015e+2, 2.6590657e+2, -282607.8, -529900.0, 4861.3823, 0.009547532, 0.033447016, -282512.28, 51606.56, 0.0, 10.001345, 9.998066 
4.4506028e+2, 2.7590504e+2, -157527.14, -418582.7, 5276.6563, -0.0324315, 0.06706885, -157420.53, 78714.43, 0.0, 10.001529, 9.998069 
4.4507065e+2, 2.8590286e+2, -42759.516, -358300.28, 11076.264, -0.047902327, 0.065673344, -42371.188, 95785.84, 0.0, 10.001842, 9.997661 
4.450812e+2, 2.959002e+2, 119146.586, -218103.67, 17678.164, -0.049628034, 0.031538986, 120070.71, 160254.61, 0.0, 10.002232, 9.997762 
4.4509178e+2, 3.058985e+2, 247353.81, -55244.723, -14994.927, 0.00054228544, 0.048296172, 248095.05, 248095.05, 0.00000000000009396187, 10.00245, 9.998441 
4.4510055e+2, 3.1589732e+2, 251900.72, -68762.68, 19158.084, -0.09418333, 0.088184215, 253041.27, 253041.27, 0.00000013361628, 10.00255, 9.998299 
4.54906e+2, 1.2590449e+2, -2032723.4, -1747968.0, 88133.61, 0.0074146665, -0.033420734, -1722897.4, -16762.299, 0.0000061456926, 9.997305, 10.001071 
4.549143e+2, 1.3590634e+2, -1884503.9, -1569631.4, -87302.92, 0.03372259, -0.011296878, -1547045.4, 61069.473, 0.0000010596042, 9.997401, 10.001579 
4.5492297e+2, 1.4590713e+2, -1835112.0, -1640590.9, 410.18524, -0.011570197, -0.021253943, -1640590.0, -130483.24, 0.000000007555667, 9.997698, 10.000273 
4.5493376e+2, 1.5590727e+2, -1672228.0, -1515091.1, 3851.54, 0.029920006, -0.033976156, -1514996.8, -102890.63, 0.0, 9.99816, 10.000237 
4.549444e+2, 1.659072e+2, -1567248.4, -1468085.6, -150.21379, 0.059087053, -0.037775505, -1468085.4, -153979.0, 0.0, 9.998443, 9.999751 
4.5495468e+2, 1.7590699e+2, -1446676.3, -1360278.1, -5098.2134, 0.050234396, -0.037878823, -1359978.4, -143870.9, 0.0, 9.998603, 9.999742 
4.5496514e+2, 1.8590637e+2, -1334640.4, -1314582.4, 9435.103, 0.039995585, -0.043807946, -1310841.8, -192728.8, 0.0, 9.998953, 9.999212 
4.5497584e+2, 1.9590548e+2, -1166352.9, -1184032.3, 20573.777, 0.040121768, -0.057758916, -1152800.1, -132678.3, 0.0, 9.999441, 9.999201 
4.549866e+2, 2.0590459e+2, -1045513.1, -1132045.9, 26827.068, 0.03611766, -0.03912541, -1037871.06, -115739.35, 0.0, 9.999844, 9.998692 
4.5499742e+2, 2.1590368e+2, -896610.44, -1006775.8, 18193.299, 0.024813274, -0.00067608705, -893683.6, -69541.1, 0.0, 10.000181, 9.998716 
4.5500824e+2, 2.2590248e+2, -778783.3, -918755.5, 12837.384, 0.02454364, 0.016058346, -777615.7, -51459.67, 0.0, 10.000401, 9.998542 
4.5501912e+2, 2.3590101e+2, -659871.4, -809003.94, 18177.771, 0.033582978, 0.013653686, -657687.7, -29516.115, 0.0, 10.000536, 9.998557 
4.5502985e+2, 2.4589962e+2, -543658.2, -730259.25, 23932.781, 0.02273518, 0.030250175, -540637.56, -10450.89, 0.0, 10.000781, 9.998307 
4.550405e+2, 2.558982e+2, -396778.94, -605673.75, 19823.613, -0.0030546233, 0.056733187, -394914.38, 37287.164, 0.0, 10.001104, 9.998334 
4.5505118e+2, 2.658964e+2, -281794.13, -527967.25, 11472.251, -0.018880602, 0.057401177, -281260.63, 52959.105, 0.0, 10.001344, 9.99808 
4.5506185e+2, 2.758943e+2, -155520.8, -414582.78, 13013.608, -0.026305765, 0.03562742, -154868.72, 81371.95, 0.0, 10.00153, 9.998096 
4.5507258e+2, 2.8589234e+2, -27430.768, -325965.38, 25569.666, -0.03985705, 0.04174687, -25256.545, 113003.94, 0.0, 10.00184, 9.997883 
4.550833e+2, 2.9589048e+2, 131819.66, -191037.13, 30824.055, -0.060579244, 0.06331571, 134736.17, 175015.81, 0.0, 10.002229, 9.99795 
4.5509413e+2, 3.0588904e+2, 228329.92, -93856.7, -11829.338, -0.012224562, 0.11246889, 228763.66, 228763.66, 0.00000000000087855477, 10.002447, 9.998178 
4.5510322e+2, 3.1588674e+2, 235527.0, -102518.48, 25944.807, -0.08588735, 0.07112203, 237506.66, 237506.66, 0.00000014519496, 10.002549, 9.998068 
4.6490327e+2, 1.2589394e+2, -2018222.5, -1757605.9, 80765.83, -0.0016516759, -0.03488241, -1734606.1, -28368.145, 0.000004581255, 9.997478, 10.000921 
4.6491188e+2, 1.3589568e+2, -1868080.9, -1572115.4, -106855.74, 0.04108208, -0.010532436, -1537568.6, 70651.12, 0.0000007444035, 9.99756, 10.001486 
4.649206e+2, 1.4589663e+2, -1812018.1, -1619073.6, -7710.4473, -0.021222156, -0.00833649, -1618766.0, -108555.586, 0.0000000034677494, 9.997812, 10.000365 
4.64932e+2, 1.5589686e+2, -1663925.1, -1502947.3, -2190.8552, 0.037582695, -0.021544438, -1502917.4, -90709.0, 0.0, 9.998182, 10.00031 
4.64943e+2, 1.658967e+2, -1552117.3, -1474628.3, -5602.4873, 0.06480326, -0.029865487, -1474225.3, -160015.7, 0.0, 9.998607, 9.999627 
4.6495336e+2, 1.7589629e+2, -1385292.9, -1342338.3, -5870.633, 0.03669567, -0.036618255, -1341550.3, -125337.3, 0.0, 9.999074, 9.999638 
4.6496415e+2, 1.8589567e+2, -1268559.3, -1271657.9, 3169.4094, 0.024868822, -0.045667734, -1266580.8, -148362.28, 0.0, 9.999359, 9.999312 
4.6497527e+2, 1.9589485e+2, -1150168.0, -1166661.9, 1402.0775, 0.037160125, -0.060516454, -1150049.6, -129823.85, 0.0, 9.999511, 9.999287 
4.6498638e+2, 2.0589396e+2, -1064395.1, -1146773.6, 9370.247, 0.03634286, -0.041880853, -1063342.8, -141107.28, 0.0, 9.999738, 9.998641 
4.6499747e+2, 2.1589302e+2, -923565.8, -1024542.0, 13009.277, 0.021077996, -0.0027410968, -921916.7, -97669.55, 0.0, 10.000016, 9.998673 
4.650086e+2, 2.2589177e+2, -789645.6, -919018.8, 6106.7227, 0.02312076, 0.009558827, -789358.0, -63097.07, 0.0, 10.000304, 9.998587 
4.650197e+2, 2.3589028e+2, -647325.8, -798230.1, 5080.0205, 0.039066583, -0.00073236064, -647154.94, -18878.56, 0.0, 10.000603, 9.998599 
4.6503067e+2, 2.4588893e+2, -529861.06, -724865.3, 14240.6045, 0.020708367, 0.019959377, -528826.56, 1464.5409, 0.0, 10.000882, 9.998295 
4.6504146e+2, 2.5588766e+2, -391023.72, -603686.75, 15086.098, -0.022359934, 0.059088774, -389958.88, 42346.58, 0.0, 10.001147, 9.998327 
4.6505243e+2, 2.6588592e+2, -268208.28, -511831.9, 9179.375, -0.030664014, 0.06393017, -267862.9, 66459.984, 0.0, 10.001395, 9.998166 
4.6506354e+2, 2.7588388e+2, -135434.73, -396168.66, 15939.17, -0.01332912, 0.040186685, -134463.97, 101878.96, 0.0, 10.00163, 9.998175 
4.650745e+2, 2.858819e+2, -28852.9, -331734.9, 22884.188, -0.03031659, 0.04273424, -27133.648, 111229.37, 0.0, 10.001851, 9.997838 
4.6508533e+2, 2.9587993e+2, 104152.586, -209419.14, 8235.838, -0.074069016, 0.06111773, 104368.75, 144752.0, 0.0, 10.00206, 9.997905 
4.6509638e+2, 3.0587873e+2, 206407.25, -113542.97, -37990.477, -0.024944166, 0.13893098, 210856.33, 210856.33, 0.00000000000042122027, 10.002335, 9.998096 
4.65106e+2, 3.1587604e+2, 250206.92, -93399.75, 15897.748, -0.063004054, 0.0623526, 250940.89, 250940.89, 0.00000014428599, 10.00264, 9.998088 
4.749006e+2, 1.2588342e+2, -2033229.5, -1787333.1, 91588.17, -0.015807958, -0.006579626, -1756969.0, -50628.39, 0.0000033199578, 9.997472, 10.00072 
4.7490957e+2, 1.3588457e+2, -1878311.0, -1593337.8, -102659.09, 0.057167094, -0.025607247, -1560207.4, 48121.813, 0.00000048107097, 9.997559, 10.001342 
4.7491834e+2, 1.4588556e+2, -1802741.0, -1599631.5, 6421.2305, -0.030577103, -0.017266234, -1599428.8, -89109.555, 0.000000000765976, 9.997811, 10.0005 
4.749301e+2, 1.5588613e+2, -1655470.4, -1485719.5, 12412.512, 0.030176366, -0.010561899, -1484816.6, -72503.35, 0.0, 9.998184, 10.000428 
4.749415e+2, 1.6588597e+2, -1556224.3, -1483552.0, 12151.094, 0.057291146, -0.021427162, -1481574.1, -167259.69, 0.0, 9.998609, 9.999565 
4.749523e+2, 1.758853e+2, -1389547.5, -1351427.4, 11110.981, 0.022530504, -0.04718127, -1348425.3, -132104.55, 0.0, 9.999075, 9.999575 
4.7496334e+2, 1.8588461e+2, -1273666.0, -1282411.8, 8904.766, 0.009848264, -0.056169845, -1268118.4, -149791.39, 0.0, 9.999359, 9.999238 
4.7497466e+2, 1.9588387e+2, -1154112.3, -1174931.0, 7686.3096, 0.027637413, -0.057204697, -1151582.0, -131248.47, 0.0, 9.999512, 9.999229 
4.7498608e+2, 2.0588297e+2, -1056195.3, -1129542.6, 19839.586, 0.032283336, -0.044573825, -1051172.9, -128829.6, 0.0, 9.999737, 9.99876 
4.7499746e+2, 2.1588193e+2, -916336.44, -1009371.1, 23610.514, 0.021544278, -0.025857931, -910687.5, -86332.15, 0.0, 10.000015, 9.998778 
4.7500882e+2, 2.2588073e+2, -792745.5, -925496.44, 17116.758, 0.019075975, -0.0115222195, -790574.0, -64205.28, 0.0, 10.000304, 9.998543 
4.7502017e+2, 2.3587938e+2, -649647.4, -802835.8, 16148.844, 0.024774304, -0.0034576068, -647963.5, -19580.46, 0.0, 10.000602, 9.998569 
4.750314e+2, 2.45878e+2, -525829.5, -716347.7, 23901.549, 0.0065584606, 0.012623585, -522876.7, 7521.3647, 0.0, 10.000881, 9.998355 
4.7504255e+2, 2.5587654e+2, -386798.97, -594838.44, 24798.49, -0.029387182, 0.029968204, -383883.8, 48530.008, 0.0, 10.001146, 9.998388 
4.7505388e+2, 2.6587516e+2, -257591.4, -489634.66, 17709.623, -0.02655003, 0.053840365, -256247.6, 78180.7, 0.0, 10.001394, 9.99832 
4.7506538e+2, 2.7587372e+2, -127171.62, -378857.88, 24341.266, 0.005223813, 0.07885352, -124839.125, 111602.88, 0.0, 10.00163, 9.998294 
4.7507644e+2, 2.8587148e+2, -49814.184, -375249.4, 30182.45, -0.020229055, 0.06722731, -47038.59, 91426.27, 0.0, 10.001851, 9.9975395 
4.7508723e+2, 2.9586866e+2, 85466.32, -248274.66, 16532.105, -0.09041939, 0.026273625, 86283.25, 126777.73, 0.0, 10.00206, 9.997638 
4.7509858e+2, 3.058676e+2, 212735.5, -99587.46, -26638.16, -0.037930645, 0.1293712, 214991.19, 214991.19, 0.0, 10.002332, 9.998194 
4.7510898e+2, 3.1586504e+2, 268355.97, -55251.043, 29534.678, -0.029269002, 0.056085486, 271029.44, 271029.44, 0.00000012581201, 10.002638, 9.99835 
4.8489773e+2, 1.2587187e+2, -2077105.9, -1798865.3, 55872.773, -0.030972838, -0.00937918, -1788064.9, -81611.04, 0.0000022837717, 9.99713, 10.000805 
4.8490745e+2, 1.3587314e+2, -1853080.0, -1570571.5, -124342.38, 0.0827902, -0.027688894, -1523640.3, 84801.13, 0.0000002759338, 9.997685, 10.001437 
4.849162e+2, 1.4587428e+2, -1771344.8, -1584692.1, -13985.805, -0.03684229, -0.009716701, -1583650.0, -73220.0, 0.000000000009128432, 9.998027, 10.000499 
4.849281e+2, 1.5587474e+2, -1653887.5, -1484422.6, -18148.047, 0.009826034, -0.012443505, -1482500.9, -70075.76, 0.0, 9.998192, 10.000434 
4.8493987e+2, 1.6587463e+2, -1569843.0, -1479832.8, -10840.348, 0.04264615, -0.023874192, -1478545.5, -164119.69, 0.0, 9.998469, 9.999659 
4.8495126e+2, 1.7587413e+2, -1419465.5, -1356906.9, -638.9086, 0.023772707, -0.04248403, -1356900.4, -140470.0, 0.0, 9.998831, 9.999656 
4.849626e+2, 1.8587346e+2, -1302690.8, -1302775.3, -2484.0857, 0.011872136, -0.04917092, -1300248.5, -181812.02, 0.0, 9.9991865, 9.999182 
4.8497412e+2, 1.9587263e+2, -1153538.4, -1179820.1, -2738.21, 0.020888839, -0.051916484, -1153256.1, -132812.0, 0.0, 9.9995365, 9.999184 
4.8498577e+2, 2.0587172e+2, -1046038.94, -1118249.4, 6474.3447, 0.026668156, -0.041293167, -1045463.0, -123009.19, 0.0, 9.999779, 9.998818 
4.8499748e+2, 2.1587074e+2, -923363.06, -1006778.2, 6308.5723, 0.023723278, -0.024433853, -922888.6, -98423.484, 0.0, 9.999941, 9.998832 
4.850091e+2, 2.2586958e+2, -800559.7, -930179.4, 4300.282, 0.017952593, -0.007570844, -800417.2, -73939.11, 0.0, 10.000255, 9.998534 
4.8502067e+2, 2.3586828e+2, -639086.44, -797655.06, 5046.797, 0.01250338, 0.0062579773, -638926.0, -10433.8, 0.0, 10.000673, 9.9985695 
4.850322e+2, 2.4586688e+2, -513478.0, -697909.6, 10368.41, -0.001945621, 0.015614889, -512896.94, 17610.096, 0.0, 10.000913, 9.9984665 
4.8504367e+2, 2.558654e+2, -397245.4, -588714.9, 15518.639, -0.023993839, 0.017236086, -395995.78, 36526.855, 0.0, 10.001027, 9.998487 
4.8505527e+2, 2.6586407e+2, -269451.22, -500266.9, 7100.437, -0.022300435, 0.04736396, -269233.0, 65303.316, 0.0, 10.001334, 9.998275 
4.8506698e+2, 2.758628e+2, -109108.52, -374468.25, -1477.0331, -0.0019640068, 0.09425976, -109100.305, 127448.6, 0.0, 10.001772, 9.998255 
4.850783e+2, 2.858605e+2, -26970.072, -358818.5, 5779.418, -0.02463843, 0.07253819, -26869.45, 111703.2, 0.0, 10.001985, 9.997588 
4.8508933e+2, 2.958574e+2, 84343.766, -244561.86, 18354.613, -0.08224882, -0.00014454266, 85364.88, 125969.31, 0.0, 10.002033, 9.997677 
4.8510092e+2, 3.0585656e+2, 205658.48, -115610.77, -13712.706, -0.036066785, 0.12708281, 206242.72, 206242.72, 0.0, 10.0023365, 9.998081 
4.851117e+2, 3.1585392e+2, 300603.94, -26957.91, 28656.824, -0.026997803, 0.056896977, 303092.1, 303092.1, 0.00000009052117, 10.002806, 9.998465 
4.9489465e+2, 1.2585928e+2, -2052123.9, -1744221.4, 81439.99, -0.04971326, -0.043465078, -1724007.6, -17429.604, 0.0000015131136, 9.997118, 10.001185 
4.9490544e+2, 1.3586135e+2, -1828237.6, -1519880.3, -104281.586, 0.1156716, -0.018100442, -1487925.3, 120631.34, 0.00000014199817, 9.997688, 10.001784 
4.9491414e+2, 1.4586271e+2, -1781010.8, -1605435.1, -8067.7534, -0.04255469, 0.013429303, -1605065.1, -94521.89, 0.0, 9.998029, 10.000355 
4.9492595e+2, 1.5586267e+2, -1661612.4, -1500449.8, -11761.923, -0.024289409, -0.02588203, -1499595.8, -87051.52, 0.0, 9.998192, 10.000324 
4.9493814e+2, 1.6586266e+2, -1551803.1, -1442239.9, 2479.0564, 0.020019673, -0.035828255, -1442183.8, -127639.82, 0.0, 9.998468, 9.999917 
4.9495026e+2, 1.7586273e+2, -1403010.4, -1322820.5, 13128.013, 0.03935613, -0.02264104, -1320726.0, -104183.73, 0.0, 9.998831, 9.999889 
4.9496198e+2, 1.858622e+2, -1305569.4, -1308464.8, 10779.095, 0.03012805, -0.02510361, -1296141.1, -177593.8, 0.0, 9.999186, 9.999144 
4.9497363e+2, 1.9586118e+2, -1155997.9, -1184792.9, 10051.468, 0.016541261, -0.04446593, -1152836.3, -132278.61, 0.0, 9.9995365, 9.99915 
4.9498546e+2, 2.0586027e+2, -1046042.9, -1118313.4, 12427.415, 0.018941006, -0.031656075, -1043965.6, -121398.28, 0.0, 9.999779, 9.998818 
4.9499744e+2, 2.1585946e+2, -923244.06, -1006401.94, 13336.058, 0.026959535, 0.0014126555, -921157.7, -96581.15, 0.0, 9.999941, 9.998836 
4.9500933e+2, 2.2585832e+2, -798991.8, -926773.6, 20016.166, 0.019058922, 0.021301666, -795929.8, -69340.766, 0.0, 10.000254, 9.998558 
4.9502125e+2, 2.3585698e+2, -636904.5, -792999.75, 19699.643, 0.001978974, 0.028879505, -634456.75, -5852.825, 0.0, 10.000672, 9.998602 
4.9503306e+2, 2.458556e+2, -502189.56, -674432.8, 14296.188, -0.005384602, 0.02919869, -501011.06, 29606.992, 0.0, 10.000912, 9.998628 
4.9504486e+2, 2.5585416e+2, -387919.72, -569444.94, 20733.285, -0.007319638, 0.020111442, -385581.75, 47050.164, 0.0, 10.001027, 9.99862 
4.9505663e+2, 2.6585272e+2, -285968.25, -534661.6, 23261.074, -0.01855041, 0.044066623, -283811.28, 50835.746, 0.0, 10.001334, 9.998039 
4.9506843e+2, 2.758512e+2, -122564.07, -402059.38, 13627.337, -0.034731943, 0.08717837, -121901.22, 114762.23, 0.0, 10.00177, 9.998067 
4.950801e+2, 2.8584895e+2, -685.7559, -303474.2, 7275.4487, -0.04362369, 0.059491545, -511.04108, 138175.19, 0.0, 10.001982, 9.99797 
4.9509168e+2, 2.9584616e+2, 107597.945, -196247.69, 21454.727, -0.050873894, -0.018523172, 109105.4, 149818.69, 0.0, 10.002033, 9.998008 
4.951034e+2, 3.0584556e+2, 183645.55, -160746.69, 3484.8494, -0.020170858, 0.13185598, 183680.8, 183680.8, 0.0, 10.002335, 9.997772 
4.9511424e+2, 3.1584257e+2, 297458.63, -31773.203, 47212.88, -0.05763344, 0.05807139, 304095.3, 304095.3, 0.000000050936965, 10.002798, 9.998435 
5.0489205e+2, 1.2584698e+2, -2006419.3, -1722991.5, 99581.1, -0.03591883, -0.053424723, -1691502.5, 15196.089, 0.0000009949754, 9.997437, 10.001179 
5.0490296e+2, 1.3584915e+2, -1873249.4, -1542359.6, -119073.31, 0.11146906, -0.017776128, -1503965.1, 104711.625, 0.000000065122016, 9.997382, 10.001778 
5.049117e+2, 1.4585067e+2, -1820951.5, -1616963.1, -22952.64, -0.07553414, 0.027171014, -1614412.4, -103750.484, 0.0, 9.997722, 10.000425 
5.0492424e+2, 1.558506e+2, -1640462.9, -1482643.6, -11489.815, -0.01573542, -0.022887364, -1481811.5, -69148.195, 0.0, 9.998303, 10.000393 
5.049368e+2, 1.6585065e+2, -1520188.4, -1420668.0, -2365.1875, 0.031479303, -0.032818157, -1420611.8, -105949.31, 0.0, 9.998657, 9.999975 
5.049489e+2, 1.7585088e+2, -1397665.0, -1314239.3, -6819.2993, 0.022577556, -0.01005038, -1313685.5, -97026.06, 0.0, 9.99884, 9.999945 
5.0496095e+2, 1.8585041e+2, -1312744.6, -1308882.5, -9852.17, 0.012192832, -0.00814886, -1300774.0, -182110.17, 0.0, 9.999123, 9.999171 
5.049731e+2, 1.9584943e+2, -1162818.4, -1184712.8, -5913.666, 0.017721422, -0.027449898, -1161323.1, -140649.19, 0.0, 9.999475, 9.999182 
5.0498533e+2, 2.0584852e+2, -1038777.3, -1109925.6, -3165.5916, 0.025641378, -0.020133862, -1038636.75, -115953.36, 0.0, 9.999806, 9.998862 
5.049975e+2, 2.1584763e+2, -893606.44, -987799.56, 971.3349, 0.028898574, 0.0031649242, -893596.44, -68904.016, 0.0, 10.000125, 9.998875 
5.050096e+2, 2.258465e+2, -788146.44, -923504.0, 8763.414, 0.01784451, 0.0212326, -787581.44, -60876.55, 0.0, 10.000337, 9.998541 
5.0502175e+2, 2.3584516e+2, -666971.9, -808959.9, 5235.048, -0.0011764249, 0.032533135, -666779.1, -38059.086, 0.0, 10.000473, 9.998589 
5.050339e+2, 2.4584384e+2, -519152.63, -675994.9, -6336.502, -0.005871502, 0.035436887, -518897.06, 11836.5625, 0.0, 10.000767, 9.998687 
5.05046e+2, 2.5584248e+2, -362695.8, -551078.5, -7441.241, -0.0017067781, 0.028711513, -362402.34, 70343.91, 0.0, 10.001174, 9.998675 
5.05058e+2, 2.6584098e+2, -270153.8, -523831.2, 4211.555, -0.017750595, 0.042554837, -270083.9, 64677.816, 0.0, 10.0014305, 9.998067 
5.0507e+2, 2.758393e+2, -148171.8, -410791.47, 13369.663, -0.04697953, 0.06548588, -147492.9, 89286.93, 0.0, 10.001579, 9.998098 
5.0508195e+2, 2.8583714e+2, -13350.121, -298681.75, 147.07138, -0.049080502, 0.043957073, -13350.045, 125451.35, 0.0, 10.001848, 9.998067 
5.0509393e+2, 2.9583475e+2, 135679.16, -173838.6, -6434.693, -0.03416101, -0.006131133, 135812.88, 176637.73, 0.0, 10.002189, 9.998087 
5.0510585e+2, 3.058341e+2, 190537.33, -170126.08, -21256.502, -0.012711273, 0.14417069, 191785.81, 191785.81, 0.0, 10.002438, 9.997659 
5.051169e+2, 3.158306e+2, 282500.0, -19688.05, 36798.824, -0.06251336, 0.030388983, 286916.6, 286916.6, 0.000000020855737, 10.002613, 9.998607 
5.148899e+2, 1.25835e+2, -2035659.8, -1783210.0, 97475.484, 0.006482029, -0.03765636, -1749953.9, -43138.266, 0.00000067894854, 9.997435, 10.000766 
5.148999e+2, 1.3583651e+2, -1899999.6, -1597539.3, -119578.1, 0.06877745, -0.024980003, -1555975.5, 52826.395, 0.000000029496794, 9.997379, 10.001402 
5.149088e+2, 1.4583816e+2, -1801181.8, -1574818.5, -1052.8733, -0.13827196, 0.03271801, -1574813.6, -64027.55, 0.0, 9.997717, 10.000716 
5.149231e+2, 1.558385e+2, -1622185.0, -1444965.9, 9184.661, 0.034480155, -0.0035428568, -1444491.1, -31708.752, 0.0, 9.998304, 10.00065 
5.149359e+2, 1.6583858e+2, -1530223.1, -1441806.6, 4013.1968, 0.07664674, -0.014924145, -1441624.9, -126843.44, 0.0, 9.998658, 9.999829 
5.149473e+2, 1.7583854e+2, -1406364.4, -1332388.0, 473.26895, -0.027414842, -0.004316835, -1332385.0, -115603.27, 0.0, 9.99884, 9.99982 
5.149595e+2, 1.8583812e+2, -1305952.8, -1294728.5, 3293.2651, -0.043498185, 0.0020798577, -1293833.6, -175047.77, 0.0, 9.999122, 9.9992695 
5.149726e+2, 1.958374e+2, -1156163.3, -1170654.4, 7250.4116, 0.023596002, -0.0007427167, -1153158.6, -132365.58, 0.0, 9.999473, 9.999279 
5.149853e+2, 2.0583643e+2, -1032697.5, -1096906.1, 8715.853, 0.04626819, -0.006845437, -1031535.4, -108733.266, 0.0, 9.9998045, 9.998953 
5.149976e+2, 2.158353e+2, -888257.9, -976547.5, 12333.313, 0.029284751, -0.018692521, -886567.44, -61754.77, 0.0, 10.000124, 9.998952 
5.150099e+2, 2.2583409e+2, -792374.75, -932431.1, 13707.404, 0.013731759, -0.0073566446, -791045.8, -64220.184, 0.0, 10.000337, 9.99848 
5.150223e+2, 2.3583284e+2, -671032.56, -817576.7, 11208.401, 0.0021565158, 0.017044932, -670180.2, -41339.566, 0.0, 10.000473, 9.998529 
5.150347e+2, 2.4583161e+2, -522237.97, -682433.2, 8781.45, -0.004050261, 0.03401637, -521758.03, 9095.694, 0.0, 10.000767, 9.998643 
5.1504713e+2, 2.5583035e+2, -364176.8, -553895.56, 6936.163, -0.007213443, 0.042971298, -363923.56, 68941.95, 0.0, 10.001172, 9.998657 
5.150594e+2, 2.6582885e+2, -250590.25, -483014.0, 9587.203, -0.020139039, 0.042970095, -250195.45, 84684.945, 0.0, 10.00143, 9.998348 
5.150716e+2, 2.7582708e+2, -130841.31, -374948.97, 19542.56, -0.039795987, 0.029840324, -129286.695, 107611.41, 0.0, 10.001579, 9.998344 
5.1508385e+2, 2.8582513e+2, -26288.08, -325182.03, 12673.814, -0.042099953, 0.02601723, -25751.643, 113166.55, 0.0, 10.001846, 9.997886 
5.150961e+2, 2.9582316e+2, 123300.06, -198574.03, 5778.976, -0.03320447, 0.034851525, 123403.79, 164343.08, 0.0, 10.002185, 9.997919 
5.151083e+2, 3.0582222e+2, 195231.2, -159836.42, -14994.884, -0.014695953, 0.16312951, 195863.33, 195863.33, 0.0, 10.002435, 9.997731 
5.151196e+2, 3.15818e+2, 308331.47, 33586.61, 43163.29, -0.043527517, -0.029855726, 314952.97, 314952.97, 0.0000000053166334, 10.002614, 9.998973 
5.2488726e+2, 1.2582286e+2, -2049344.4, -1790546.8, 76766.625, 0.0049104164, -0.0032861913, -1769489.0, -62553.336, 0.0000005002885, 9.997347, 10.000756 
5.248975e+2, 1.3582398e+2, -1854903.3, -1580980.1, -108709.15, 0.078405164, -0.025674732, -1543081.4, 65844.22, 0.000000016983103, 9.997711, 10.001355 
5.2490646e+2, 1.4582562e+2, -1756030.1, -1556443.8, 16972.586, -0.16113573, 0.036414273, -1555010.8, -44101.063, 0.0, 9.99804, 10.000687 
5.249213e+2, 1.5582602e+2, -1628944.3, -1451404.1, 1543.6968, 0.030678209, 0.008358277, -1451390.6, -38485.2, 0.0, 9.998272, 10.000622 
5.2493453e+2, 1.6582611e+2, -1546880.4, -1451330.8, -13941.818, 0.08012709, -0.00024292205, -1449338.0, -134433.4, 0.0, 9.99855, 9.999817 
5.2494603e+2, 1.7582604e+2, -1402860.4, -1331356.4, -7768.8228, -0.029357154, 0.009815403, -1330522.1, -113616.62, 0.0, 9.998867, 9.999814 
5.249586e+2, 1.8582565e+2, -1294028.5, -1281864.8, 497.85263, -0.046303585, 0.014267781, -1281844.4, -162935.17, 0.0, 9.999172, 9.999333 
5.249721e+2, 1.9582495e+2, -1153211.3, -1162673.9, 1433.6808, 0.024566663, 0.00803602, -1152998.8, -132083.27, 0.0, 9.999465, 9.999337 
5.2498513e+2, 2.0582391e+2, -1046714.3, -1102728.5, -3599.3699, 0.0471456, -0.007851143, -1046484.0, -123559.13, 0.0, 9.999704, 9.998961 
5.2499753e+2, 2.1582265e+2, -919221.44, -989998.1, -6459.3784, 0.02656946, -0.03306325, -918636.75, -93700.34, 0.0, 9.999905, 9.998965 
5.250101e+2, 2.2582151e+2, -807126.4, -932363.0, -2233.7676, 0.013215496, -0.020752175, -807086.56, -80137.836, 0.0, 10.000205, 9.998544 
5.250228e+2, 2.3582041e+2, -651030.5, -801407.2, 4787.8613, 0.008168693, 0.014366668, -650878.2, -21916.338, 0.0, 10.000583, 9.998588 
5.250355e+2, 2.4581917e+2, -510456.0, -679260.44, 9092.65, 0.001009676, 0.02861616, -509967.63, 21007.438, 0.0, 10.000859, 9.99862 
5.250482e+2, 2.5581777e+2, -381504.7, -563749.06, 8093.4624, -0.00880628, 0.025430238, -381145.97, 51842.465, 0.0, 10.0010605, 9.998643 
5.250608e+2, 2.658164e+2, -264845.38, -477742.6, 194.8358, -0.015618141, 0.030972531, -264845.2, 70157.02, 0.0, 10.00128, 9.998456 
5.2507335e+2, 2.7581492e+2, -134993.77, -366035.28, -2261.7595, -0.019653521, 0.03637625, -134971.63, 102045.21, 0.0, 10.001506, 9.998441 
5.250858e+2, 2.8581297e+2, -34778.12, -335056.06, -3415.952, -0.026834188, 0.032793876, -34739.27, 104297.6, 0.0, 10.001814, 9.997833 
5.2509826e+2, 2.958108e+2, 118530.82, -207463.06, -1224.0614, -0.03815862, 0.029215714, 118535.414, 159595.48, 0.0, 10.00218, 9.99786 
5.2511066e+2, 3.058097e+2, 201501.2, -165972.9, -28183.557, -0.02134417, 0.1441271, 203650.19, 203650.19, 0.0, 10.002518, 9.997648 
5.2512264e+2, 3.158056e+2, 350981.9, 75371.76, 17844.748, -0.016072258, -0.030992568, 352132.47, 352132.47, 0.00000000056215, 10.002815, 9.999162 
5.348841e+2, 1.2581056e+2, -2021635.1, -1732476.4, 85911.914, -0.048107218, 0.050447028, -1708877.1, -1818.4254, 0.00000041209, 9.997345, 10.001155 
5.348959e+2, 1.3581155e+2, -1833622.0, -1538294.1, -94650.65, 0.14018987, -0.019648839, -1510563.1, 98484.78, 0.000000018082496, 9.997716, 10.001646 
5.349046e+2, 1.458131e+2, -1781360.6, -1609316.4, 25517.49, -0.14413418, 0.038579848, -1605611.4, -94578.8, 0.0, 9.998041, 10.000323 
5.3491896e+2, 1.5581317e+2, -1651762.8, -1498723.5, 9875.202, -0.029298421, 0.013274584, -1498088.9, -85056.336, 0.0, 9.998272, 10.000298 
5.349327e+2, 1.6581324e+2, -1538591.0, -1433830.4, -2483.0676, 0.03931016, 0.011363166, -1433771.5, -118739.35, 0.0, 9.9985485, 9.999937 
5.3494537e+2, 1.7581342e+2, -1394852.9, -1314590.8, 4081.0977, 0.016459532, 0.032583624, -1314383.8, -97353.15, 0.0, 9.998866, 9.999929 
5.349583e+2, 1.85813e+2, -1292115.3, -1277570.3, 11297.983, 0.003983207, 0.028588109, -1271406.5, -152372.48, 0.0, 9.999171, 9.999364 
5.3497154e+2, 1.9581209e+2, -1151716.5, -1159541.5, 12106.183, 0.020347683, -0.0012867027, -1142906.3, -121864.85, 0.0, 9.999464, 9.99936 
5.349845e+2, 2.0581096e+2, -1052160.0, -1113755.0, 3814.3748, 0.027447615, -0.022996081, -1051924.8, -128873.13, 0.0, 9.999703, 9.998886 
5.349974e+2, 2.158097e+2, -923244.3, -998078.94, 1566.9155, 0.019885525, -0.04031004, -923211.56, -98147.85, 0.0, 9.999904, 9.998911 
5.350104e+2, 2.2580871e+2, -793915.06, -904796.7, 11784.408, 0.015538809, -0.019541234, -792676.5, -65602.37, 0.0, 10.000204, 9.9987335 
5.350235e+2, 2.3580793e+2, -638858.6, -776175.8, 18407.695, 0.01670302, 0.02443195, -636433.8, -7350.189, 0.0, 10.000583, 9.998761 
5.3503644e+2, 2.4580655e+2, -510745.03, -679884.4, 16508.754, 0.008734656, 0.019549843, -509148.78, 21948.824, 0.0, 10.000859, 9.998616 
5.3504926e+2, 2.5580478e+2, -382196.97, -565317.75, 15708.362, -0.007392877, -0.023146845, -380859.25, 52255.668, 0.0, 10.0010605, 9.998632 
5.350622e+2, 2.6580355e+2, -269393.28, -487086.47, 8412.779, -0.005142264, 0.006617899, -269068.66, 66058.52, 0.0, 10.001279, 9.998392 
5.350751e+2, 2.7580273e+2, -138929.23, -374057.34, 6434.7373, 0.011921849, 0.0829926, -138753.27, 98382.945, 0.0, 10.001505, 9.998386 
5.350879e+2, 2.8580067e+2, -29856.363, -324662.97, 10132.698, -0.004494586, 0.06324567, -29508.506, 109649.02, 0.0, 10.001812, 9.997905 
5.3510034e+2, 2.9579777e+2, 121852.04, -200568.23, 12573.734, -0.04828573, -0.019957451, 122341.65, 163528.61, 0.0, 10.00218, 9.997908 
5.3511304e+2, 3.0579647e+2, 184971.52, -199949.92, -17199.12, -0.03262197, 0.08987346, 185738.48, 185738.48, 0.0, 10.002516, 9.997416 
5.351258e+2, 3.1579322e+2, 352326.97, 78711.66, 28461.588, 0.015408826, 0.018307092, 355256.2, 355256.2, 0.0000000000003731001, 10.002813, 9.9991865 
5.4488105e+2, 1.2579776e+2, -2063750.0, -1755410.0, 94994.92, -0.073332325, 0.057459455, -1728493.3, -21308.406, 0.00000036785775, 9.997067, 10.001131 
5.4489386e+2, 1.3579868e+2, -1856324.5, -1558720.8, -112291.28, 0.17292547, -0.011476649, -1521105.6, 88069.57, 0.000000024396927, 9.997601, 10.001562 
5.449027e+2, 1.4580023e+2, -1777660.0, -1607926.3, 3255.3857, -0.14159629, 0.05308801, -1607863.9, -96704.31, 0.0, 9.998069, 10.0003195 
5.4491717e+2, 1.558002e+2, -1629870.4, -1488885.6, 13355.592, -0.04058023, 0.016531222, -1487631.6, -74471.5, 0.0, 9.9984255, 10.000291 
5.4493123e+2, 1.658002e+2, -1519871.8, -1432487.9, 3719.2944, 0.032459967, 0.012451403, -1432329.9, -117169.484, 0.0, 9.998711, 9.999868 
5.4494435e+2, 1.7580035e+2, -1388751.6, -1318136.4, -4368.932, 0.025075313, 0.039363917, -1317867.1, -100707.77, 0.0, 9.998937, 9.999871 
5.449576e+2, 1.8579994e+2, -1284651.0, -1267035.4, -1499.3444, 0.013824618, 0.035417885, -1266908.6, -147746.14, 0.0, 9.999193, 9.999425 
5.44971e+2, 1.9579905e+2, -1146895.0, -1151151.6, 1076.7527, 0.021607658, 0.0013126171, -1146638.1, -125468.86, 0.0, 9.999472, 9.9994135 
5.4498434e+2, 2.0579793e+2, -1047331.3, -1115580.3, -5986.552, 0.026870498, -0.020698328, -1046810.2, -123630.76, 0.0, 9.999755, 9.998849 
5.449974e+2, 2.1579665e+2, -905039.6, -992281.6, -5390.14, 0.022231981, -0.03602554, -904707.9, -79515.74, 0.0, 10.000042, 9.998884 
5.450107e+2, 2.257957e+2, -775424.56, -884573.5, 4032.0508, 0.01976959, -0.015850706, -775275.8, -48073.8, 0.0, 10.000282, 9.998835 
5.450241e+2, 2.3579498e+2, -646156.56, -769199.94, 3593.6763, 0.022142524, 0.026212135, -646051.7, -16841.582, 0.0, 10.000487, 9.998855 
5.4503727e+2, 2.4579367e+2, -532502.94, -688300.06, -2758.3162, 0.016257705, 0.021630181, -532454.1, -1230.7996, 0.0, 10.000702, 9.998633 
5.450504e+2, 2.557919e+2, -401108.25, -572880.9, -1560.6454, 0.0027062774, -0.01930024, -401094.06, 32146.336, 0.0, 10.000925, 9.998645 
5.4506356e+2, 2.657906e+2, -273522.47, -494022.38, -3147.815, 0.0023275728, 0.0020675054, -273477.53, 61776.07, 0.0, 10.001273, 9.998346 
5.450768e+2, 2.757896e+2, -112276.2, -365357.8, -4132.878, 0.012715002, 0.06199513, -112208.73, 125055.836, 0.0, 10.001706, 9.998348 
5.450898e+2, 2.8578755e+2, 2929.2952, -301153.16, -1591.5388, -0.0030157182, 0.04690928, 2937.625, 142222.72, 0.0, 10.002006, 9.9979725 
5.451026e+2, 2.9578495e+2, 127967.41, -192134.86, 628.0118, -0.040216178, -0.014201348, 127968.63, 169280.16, 0.0, 10.0022, 9.997954 
5.451156e+2, 3.057834e+2, 180394.95, -223778.2, -23530.12, -0.030837815, 0.074682534, 181760.22, 181760.22, 0.0, 10.002578, 9.997222 
5.451287e+2, 3.1578013e+2, 392040.94, 98085.984, 23181.326, 0.019570947, 0.020832956, 393857.78, 393857.78, 0.000000000015387011, 10.003086, 9.999187 
5.5487806e+2, 1.2578444e+2, -2096207.5, -1821715.0, 106408.92, -0.07367414, 0.01673359, -1785296.6, -77982.87, 0.0000003291145, 9.997064, 10.000678 
5.5489147e+2, 1.3578534e+2, -1888940.5, -1627516.6, -92169.42, 0.17457674, -0.0013884493, -1598288.5, 11018.753, 0.000000025104656, 9.997604, 10.001088 
5.5490065e+2, 1.4578703e+2, -1752121.9, -1555383.4, 16490.441, -0.15623249, 0.07995911, -1554010.8, -42720.27, 0.0, 9.998071, 10.000679 
5.54916e+2, 1.557871e+2, -1607740.3, -1442959.3, 26264.07, -0.0030069854, 0.018677454, -1438874.4, -25586.291, 0.0, 9.998425, 10.000607 
5.5493015e+2, 1.65787e+2, -1538760.1, -1471180.4, 12045.623, 0.06021784, 0.0034239485, -1469097.5, -153808.44, 0.0, 9.998709, 9.999603 
5.5494297e+2, 1.757869e+2, -1405587.4, -1352948.4, 4212.6274, -0.0046539935, 0.029684586, -1352613.4, -135321.63, 0.0, 9.998936, 9.999633 
5.5495644e+2, 1.857865e+2, -1278451.8, -1254029.4, 8787.266, -0.018561035, 0.034276612, -1251196.3, -131901.28, 0.0, 9.999191, 9.999516 
5.549705e+2, 1.9578587e+2, -1141114.6, -1138990.6, 11593.098, 0.027699787, 0.01576659, -1128411.0, -107111.82, 0.0, 9.999471, 9.999497 
5.549843e+2, 2.0578483e+2, -1047523.06, -1115813.0, 4694.568, 0.045185264, -0.0012775019, -1047201.8, -123893.37, 0.0, 9.999753, 9.998848 
5.5499756e+2, 2.157835e+2, -905022.75, -992226.0, 5225.4287, 0.033174302, -0.020095164, -904710.75, -79389.1, 0.0, 10.000041, 9.998885 
5.55011e+2, 2.2578247e+2, -774693.6, -882982.6, 11604.723, 0.025312373, -0.00941409, -773464.0, -46131.703, 0.0, 10.000282, 9.998846 
5.550246e+2, 2.3578162e+2, -645355.06, -767541.56, 11273.249, 0.02381142, 0.019665131, -644323.7, -14982.364, 0.0, 10.000487, 9.998867 
5.550381e+2, 2.4578053e+2, -529774.8, -682667.4, 5335.2583, 0.02285989, 0.03418754, -529588.9, 1763.4563, 0.0, 10.000702, 9.998672 
5.5505145e+2, 2.5577924e+2, -398642.06, -568014.94, 7342.077, 0.020790095, 0.035447083, -398324.4, 35040.56, 0.0, 10.000926, 9.998678 
5.550648e+2, 2.6577753e+2, -275533.88, -498380.8, 12964.1455, 0.006445834, 0.01708921, -274782.22, 60599.31, 0.0, 10.001273, 9.998317 
5.550782e+2, 2.7577546e+2, -113966.45, -368949.53, 11435.164, -0.01652493, -0.024164855, -113454.66, 123947.02, 0.0, 10.001706, 9.998324 
5.550916e+2, 2.8577372e+2, 6751.742, -292849.4, 5165.3853, -0.022573916, -0.014712844, 6840.7715, 146260.23, 0.0, 10.002004, 9.998031 
5.5510503e+2, 2.9577234e+2, 130303.69, -186764.17, 8317.643, -0.016872283, 0.04361271, 130521.734, 171955.84, 0.0, 10.002198, 9.9979925 
5.5511826e+2, 3.0577037e+2, 168724.38, -247001.94, -4879.4673, -0.018261353, 0.097205415, 168781.64, 168781.64, 0.0, 10.002573, 9.997065 
5.551316e+2, 3.1576627e+2, 390237.78, 95762.516, 39831.04, -0.0026822274, -0.023980921, 395530.25, 395530.25, 0.0000000020600701, 10.003079, 9.999175 
5.648753e+2, 1.2577097e+2, -2073762.9, -1816107.5, 77563.586, -0.06135934, 0.015692294, -1794560.0, -87114.53, 0.00000027083397, 9.997242, 10.000629 
5.6488913e+2, 1.3577166e+2, -1863518.3, -1630512.4, -81257.1, 0.17282069, -0.007980845, -1604974.4, 4467.0757, 0.000000017878008, 9.997844, 10.000953 
5.648985e+2, 1.457734e+2, -1726312.6, -1541923.6, 13467.095, -0.18388973, 0.0820361, -1540945.3, -29520.672, 0.0, 9.998244, 10.000688 
5.6491446e+2, 1.5577355e+2, -1609116.1, -1442613.5, -4079.636, 0.009028443, 0.029040031, -1442513.6, -29092.371, 0.0, 9.998412, 10.000613 
5.6492907e+2, 1.657734e+2, -1534348.9, -1471971.0, -16731.838, 0.07739245, 0.011155058, -1467766.4, -152343.7, 0.0, 9.998753, 9.999577 
5.64942e+2, 1.7577317e+2, -1365950.9, -1336726.0, -7913.7437, -0.010692764, 0.026946409, -1334720.6, -117294.195, 0.0, 9.999222, 9.999606 
5.6495565e+2, 1.8577279e+2, -1243493.9, -1237397.6, -6453.3555, -0.030056486, 0.035115637, -1233308.8, -113879.1, 0.0, 9.9994335, 9.999513 
5.6496996e+2, 1.9577229e+2, -1143113.0, -1139685.4, -10395.487, 0.024663284, 0.030412393, -1130863.4, -109430.46, 0.0, 9.999456, 9.999499 
5.6498396e+2, 2.057713e+2, -1056124.8, -1114847.0, -12195.902, 0.0483377, 0.014652822, -1053692.5, -130250.664, 0.0, 9.999673, 9.998894 
5.649976e+2, 2.1576995e+2, -902823.75, -986308.06, -8860.223, 0.040552605, -0.011802629, -901893.75, -76438.734, 0.0, 10.000035, 9.998928 
5.6501126e+2, 2.257689e+2, -773848.3, -879687.8, -5402.403, 0.030375587, -0.0062449244, -773573.3, -46107.695, 0.0, 10.000276, 9.998871 
5.6502503e+2, 2.3576804e+2, -652835.75, -768972.5, -4377.7393, 0.021617884, 0.019807698, -652670.94, -23196.525, 0.0, 10.000427, 9.998885 
5.6503874e+2, 2.4576692e+2, -530110.2, -688778.56, -8952.249, 0.023911726, 0.03368978, -529606.75, 1878.9624, 0.0, 10.000725, 9.998618 
5.650526e+2, 2.557656e+2, -372386.47, -560645.7, -13969.1455, 0.033045217, 0.03604615, -371355.6, 62143.234, 0.0, 10.00113, 9.998631 
5.650662e+2, 2.6576385e+2, -252335.53, -484045.75, -8635.844, 0.015024439, 0.015373555, -252014.13, 83501.555, 0.0, 10.00142, 9.998343 
5.6507975e+2, 2.7576175e+2, -124276.32, -370837.84, -6058.5376, -0.022826575, -0.030717734, -124127.54, 113408.375, 0.0, 10.001624, 9.99835 
5.650935e+2, 2.8576005e+2, 568.5741, -300372.28, -14041.88, -0.027468074, -0.016435085, 1222.3469, 140775.64, 0.0, 10.001982, 9.99799 
5.651074e+2, 2.9575875e+2, 162995.4, -176200.88, -18613.945, -0.007973023, 0.05491831, 164013.81, 205580.94, 0.0, 10.002445, 9.997946 
5.65121e+2, 3.0575645e+2, 183578.66, -242724.02, -30504.479, -0.013879261, 0.07859938, 185750.38, 185750.38, 0.0, 10.002687, 9.997039 
5.651345e+2, 3.1575266e+2, 346737.63, 78107.195, 20816.234, 0.0010209567, -0.01088814, 348341.1, 348341.1, 0.000000017271022, 10.002766, 9.999205 
5.7487273e+2, 1.2575737e+2, -2046903.8, -1762477.6, 86347.87, -0.042406946, 0.053970248, -1738316.1, -30736.18, 0.00000019303324, 9.9972515, 10.000993 
5.74887e+2, 1.357577e+2, -1848147.0, -1599963.8, -58745.418, 0.1672007, -0.030683968, -1586760.9, 22816.176, 0.000000007774616, 9.997848, 10.001162 
5.748963e+2, 1.4575933e+2, -1752003.1, -1594524.9, 20080.754, -0.22543073, 0.059514634, -1592004.6, -80443.13, 0.0, 9.998241, 10.000328 
5.749128e+2, 1.5575954e+2, -1631263.3, -1488438.3, 2886.2083, -0.0062604267, 0.04699864, -1488380.0, -74820.16, 0.0, 9.998412, 10.000299 
5.7492787e+2, 1.6575943e+2, -1519703.8, -1441605.8, 617.93524, 0.0823949, 0.035308495, -1441600.9, -126039.85, 0.0, 9.998752, 9.999785 
5.749414e+2, 1.757592e+2, -1352691.5, -1309524.6, 8515.507, 0.0068549193, 0.03161796, -1307905.5, -90342.18, 0.0, 9.999222, 9.999793 
5.7495517e+2, 1.8575884e+2, -1250446.9, -1251945.9, -5807.691, -0.02068824, 0.038216144, -1245340.5, -125774.0, 0.0, 9.9994335, 9.999413 
5.749693e+2, 1.9575834e+2, -1149215.8, -1152181.1, -8651.102, 0.012093149, 0.045110743, -1141921.3, -120350.61, 0.0, 9.999455, 9.999414 
5.7498354e+2, 2.0575733e+2, -1050110.6, -1101967.6, 1255.6555, 0.035637856, 0.027196992, -1050080.3, -126500.5, 0.0, 9.999671, 9.998982 
5.7499766e+2, 2.1575597e+2, -896948.0, -974017.7, 4170.459, 0.043700516, -0.011267964, -896723.0, -71130.62, 0.0, 10.000035, 9.999013 
5.750116e+2, 2.2575496e+2, -771173.25, -874135.1, 87.129524, 0.03437746, -0.0066151377, -771173.1, -43571.215, 0.0, 10.000276, 9.998909 
5.750253e+2, 2.357542e+2, -650940.06, -765336.56, 2004.9651, 0.015397031, 0.026306152, -650904.94, -21295.47, 0.0, 10.000428, 9.99891 
5.7503945e+2, 2.4575283e+2, -540326.94, -710269.4, 6060.14, 0.019168466, 0.020441417, -540111.1, -8487.781, 0.0, 10.000726, 9.99847 
5.7505375e+2, 2.5575095e+2, -381703.34, -579981.25, 554.2198, 0.03882635, -0.016602634, -381701.8, 51940.1, 0.0, 10.001129, 9.998498 
5.7506776e+2, 2.6574954e+2, -246541.7, -472064.16, -1453.0226, 0.027105547, -0.0030451855, -246532.34, 89123.71, 0.0, 10.00142, 9.998426 
5.750815e+2, 2.757484e+2, -119520.95, -360897.53, 2064.7131, -0.007827184, 0.03984888, -119503.29, 118164.17, 0.0, 10.001623, 9.998419 
5.750956e+2, 2.857465e+2, -9483.028, -320663.97, 3209.4836, -0.019054255, 0.040511068, -9449.93, 130236.72, 0.0, 10.001979, 9.997851 
5.751098e+2, 2.957442e+2, 153567.95, -195392.42, -2233.0002, -0.013349593, 0.021299051, 153582.25, 195292.55, 0.0, 10.002443, 9.997815 
5.751236e+2, 3.057416e+2, 190280.94, -228526.53, -28164.506, -0.018406263, 0.019646766, 192166.48, 192166.48, 0.00000000021282408, 10.0026865, 9.997137 
5.7513756e+2, 3.1573915e+2, 351975.06, 89519.46, 21539.732, 0.025928723, 0.053878836, 353731.1, 353731.1, 0.0000000699572, 10.002763, 9.999285 
5.848699e+2, 1.2574294e+2, -2059184.4, -1738679.4, 59363.05, -0.03830193, 0.059135593, -1728037.6, -20315.527, 0.00000011738098, 9.997039, 10.001258 
5.848847e+2, 1.3574341e+2, -1869294.1, -1595303.5, -78283.04, 0.17108604, -0.028808657, -1574514.4, 35202.35, 0.0000000014227642, 9.997639, 10.001293 
5.848943e+2, 1.4574498e+2, -1767152.3, -1619615.6, -4352.6885, -0.2501982, 0.059210554, -1619487.4, -107785.734, 0.0, 9.998215, 10.000168 
5.8491117e+2, 1.5574501e+2, -1600379.6, -1488525.0, -7995.8564, -0.019475758, 0.04538822, -1487956.3, -74253.734, 0.0, 9.99869, 10.000165 
5.8492666e+2, 1.6574493e+2, -1489926.5, -1410993.4, -9556.997, 0.07906394, 0.034705233, -1409852.8, -94149.305, 0.0, 9.998887, 9.99993 
5.849405e+2, 1.7574488e+2, -1393713.4, -1314927.8, -6761.2627, 0.010726794, 0.03312972, -1314351.8, -96648.38, 0.0, 9.998879, 9.99992 
5.8495444e+2, 1.8574452e+2, -1293198.4, -1282954.6, -21368.293, -0.016342701, 0.03984792, -1266103.0, -146396.48, 0.0, 9.999186, 9.999319 
5.8496886e+2, 1.9574393e+2, -1115273.0, -1144601.3, -24188.223, 0.012287046, 0.045549523, -1101651.0, -79938.42, 0.0, 9.999727, 9.999335 
5.849833e+2, 2.0574294e+2, -997465.6, -1066908.4, -16352.691, 0.0332165, 0.028868537, -993807.5, -70086.016, 0.0, 9.99999, 9.999069 
5.8499765e+2, 2.1574166e+2, -890151.44, -962377.7, -13767.782, 0.039674237, -0.006719677, -887616.06, -61883.543, 0.0, 10.000046, 9.999087 
5.8501184e+2, 2.2574066e+2, -774149.56, -882455.6, -20311.637, 0.031879816, -0.0036582055, -770465.7, -42723.574, 0.0, 10.000285, 9.998848 
5.850259e+2, 2.357398e+2, -620740.94, -757081.1, -25893.664, 0.016575862, 0.023883134, -615988.8, 13762.0625, 0.0, 10.000663, 9.998854 
5.850403e+2, 2.4573834e+2, -509248.97, -694608.3, -17037.465, 0.021992274, 0.014899687, -507695.97, 24069.4, 0.0, 10.000937, 9.998476 
5.8505493e+2, 2.5573647e+2, -381048.3, -579054.4, -11194.218, 0.041585263, -0.0235037, -380417.47, 53366.625, 0.0, 10.001132, 9.998503 
5.8506924e+2, 2.6573512e+2, -249288.8, -476151.44, -13475.176, 0.031951092, -0.0024558061, -248491.2, 87306.695, 0.0, 10.001413, 9.998402 
5.850833e+2, 2.757341e+2, -102062.0, -354789.25, -18137.934, 0.0012512219, 0.054729808, -100766.9, 137041.67, 0.0, 10.001753, 9.998398 
5.850977e+2, 2.857323e+2, 4117.9814, -309208.5, -9419.509, -0.009320784, 0.06067322, 4400.904, 144228.0, 0.0, 10.002051, 9.997895 
5.851122e+2, 2.9573e+2, 138080.78, -198876.97, -2022.7731, -0.006123722, 0.039513636, 138092.92, 179943.06, 0.0, 10.00232, 9.99785 
5.851262e+2, 3.057271e+2, 182647.13, -235671.08, -32086.273, -0.021513492, 0.0051555177, 185093.92, 185093.92, 0.000000006848287, 10.002649, 9.997106 
5.851404e+2, 3.157249e+2, 381436.6, 90336.14, 5230.232, 0.020938627, 0.07073143, 381530.53, 381530.53, 0.00000018333391, 10.003024, 9.999165 
5.948668e+2, 1.2572768e+2, -2047949.3, -1714056.0, 64757.758, -0.053217128, 0.028572707, -1701936.4, 5936.084, 0.000000058921596, 9.997034, 10.001429 
5.948824e+2, 1.3572878e+2, -1865076.0, -1587161.3, -54796.32, 0.18367018, -0.0028266062, -1576747.3, 33113.05, 0.000000000010343272, 9.997641, 10.001349 
5.948924e+2, 1.4573035e+2, -1764368.0, -1613948.6, 13850.572, -0.25903997, 0.08067924, -1612683.9, -100838.91, 0.0, 9.998215, 10.000207 
5.949097e+2, 1.5573e+2, -1596646.0, -1481500.9, 8626.87, -0.031137632, 0.024051258, -1480858.1, -67008.66, 0.0, 9.998692, 10.000213 
5.949254e+2, 1.6572994e+2, -1484683.6, -1400315.6, -10279.349, 0.0667212, 0.008744841, -1399081.3, -83231.4, 0.0, 9.998887, 10.000003 
5.9493923e+2, 1.7573018e+2, -1389532.0, -1305928.9, -5707.8794, 0.00013307355, 0.031116938, -1305541.0, -87694.664, 0.0, 9.998878, 9.999983 
5.949536e+2, 1.8572985e+2, -1299656.6, -1295927.3, -1001.7412, -0.017875087, 0.039935242, -1295675.1, -175825.55, 0.0, 9.999184, 9.999231 
5.949687e+2, 1.9572902e+2, -1120257.9, -1155441.5, -5079.518, 0.024820285, 0.03162213, -1119539.3, -97680.53, 0.0, 9.999728, 9.99926 
5.9498334e+2, 2.0572808e+2, -991386.44, -1054659.0, -14465.535, 0.04071181, 0.019230623, -988236.1, -64368.895, 0.0, 9.999992, 9.999152 
5.9499764e+2, 2.1572708e+2, -885562.8, -952965.9, -10870.788, 0.027999565, 0.0016207751, -883852.94, -57977.457, 0.0, 10.000046, 9.999152 
5.95012e+2, 2.2572598e+2, -785677.8, -906293.8, -6246.55, 0.0221128, 0.0024428405, -785355.2, -57469.188, 0.0, 10.000284, 9.998684 
5.950266e+2, 2.3572479e+2, -630820.44, -777810.56, -12245.979, 0.024406897, 0.012682094, -629807.2, 91.44743, 0.0, 10.000662, 9.998712 
5.9504133e+2, 2.457235e+2, -498028.34, -671279.9, -9948.953, 0.031788003, 0.016747763, -497458.9, 34452.89, 0.0, 10.0009365, 9.998637 
5.9505606e+2, 2.5572214e+2, -371063.97, -558427.25, -3541.768, 0.041111786, 0.014775511, -370997.06, 62928.297, 0.0, 10.001132, 9.998645 
5.950706e+2, 2.6572058e+2, -258684.64, -495790.03, -730.8781, 0.029394843, 0.017274104, -258682.39, 77258.7, 0.0, 10.001412, 9.998267 
5.95085e+2, 2.7571884e+2, -110003.74, -371544.16, -5563.502, 0.0031056048, 0.014514446, -109885.45, 128073.695, 0.0, 10.001753, 9.998283 
5.950998e+2, 2.857173e+2, 19442.842, -277427.8, 90.423164, -0.00016947182, 0.04392043, 19442.87, 159417.5, 0.0, 10.002051, 9.998114 
5.9511477e+2, 2.957161e+2, 151027.6, -171080.3, 7678.2666, 0.012314108, 0.10855783, 151210.53, 193197.27, 0.0, 10.0023155, 9.998044 
5.9512883e+2, 3.057128e+2, 170831.0, -258822.39, -18316.38, -0.023322668, 0.03540643, 171610.44, 171610.44, 0.000000033052434, 10.002643, 9.99695 
5.951431e+2, 3.157099e+2, 359909.3, 45748.168, 16655.553, -0.013823742, 0.043022268, 360789.84, 360789.84, 0.00000037488923, 10.003023, 9.998859 
6.0486364e+2, 1.2571268e+2, -2031708.8, -1706274.0, 65812.95, -0.077073865, 0.029845161, -1693468.5, 14551.116, 0.000000021349177, 9.9971485, 10.001426 
6.0488033e+2, 1.3571367e+2, -1856917.9, -1594216.3, -48851.22, 0.20063353, -0.0015825244, -1585426.1, 24582.248, 0.0, 9.997745, 10.00125 
6.0489064e+2, 1.4571515e+2, -1760194.9, -1602702.8, 7638.542, -0.25575086, 0.07294206, -1602333.1, -90339.44, 0.0, 9.998204, 10.000289 
6.049082e+2, 1.5571487e+2, -1620509.4, -1484156.9, 4192.656, -0.039463565, 0.016356792, -1484028.1, -70031.086, 0.0, 9.99849, 10.000291 
6.0492414e+2, 1.6571483e+2, -1496402.8, -1410105.5, -25372.64, 0.05680324, 0.0008803382, -1403198.4, -87201.125, 0.0, 9.998825, 9.999966 
6.049382e+2, 1.7571503e+2, -1346260.3, -1288808.8, -29216.58, -0.0036546318, 0.021947978, -1276561.6, -58567.414, 0.0, 9.999191, 9.9999485 
6.0495293e+2, 1.8571466e+2, -1259702.8, -1273683.5, -16693.545, -0.017337378, 0.029279564, -1248595.0, -128597.266, 0.0, 9.999445, 9.999258 
6.0496837e+2, 1.9571385e+2, -1134840.5, -1160027.9, -12800.856, 0.02802111, 0.019606292, -1129477.0, -107470.23, 0.0, 9.999618, 9.999282 
6.049833e+2, 2.0571299e+2, -1003555.9, -1063999.0, -27979.781, 0.043390125, 0.014942456, -992592.4, -68577.32, 0.0, 9.999924, 9.999122 
6.049978e+2, 2.157121e+2, -845965.0, -936838.75, -33017.766, 0.027710434, 0.01169665, -835235.3, -9212.458, 0.0, 10.000331, 9.999125 
6.050125e+2, 2.25711e+2, -743901.6, -882548.56, -23477.025, 0.023068234, 0.011894625, -740034.1, -12000.562, 0.0, 10.000556, 9.998716 
6.050273e+2, 2.3570971e+2, -631772.56, -775039.7, -14856.028, 0.029996052, 0.010402573, -630248.25, -201.54294, 0.0, 10.000641, 9.998741 
6.050422e+2, 2.4570851e+2, -514485.22, -677632.1, -12724.781, 0.03539816, 0.021344531, -513498.72, 18560.488, 0.0, 10.000816, 9.9986515 
6.0505706e+2, 2.5570735e+2, -380757.88, -561311.4, -17294.295, 0.03794315, 0.040666487, -379116.25, 54954.813, 0.0, 10.001058, 9.998661 
6.0507196e+2, 2.6570582e+2, -254208.53, -486988.47, -4859.625, 0.024303656, 0.036096767, -254107.13, 81979.83, 0.0, 10.001415, 9.998326 
6.050868e+2, 2.7570382e+2, -90884.49, -356855.16, 4424.4453, -0.0009612893, 0.0043092463, -90810.914, 147295.64, 0.0, 10.001861, 9.998332 
6.0510194e+2, 2.857023e+2, 34669.07, -281135.7, -1050.4164, 0.0000854058, 0.03683632, 34672.566, 174794.6, 0.0, 10.002203, 9.998015 
6.051172e+2, 2.9570127e+2, 164948.05, -174944.44, -17280.541, 0.020717377, 0.12994488, 165824.36, 207957.28, 0.00000000003092486, 10.002457, 9.99795 
6.051315e+2, 3.0569783e+2, 192938.7, -240308.58, -40203.703, -0.023377355, 0.041921213, 196637.86, 196637.86, 0.00000008707832, 10.002761, 9.99702 
6.05146e+2, 3.1569505e+2, 364951.7, 32959.12, 8070.361, -0.025693305, 0.05677677, 365147.75, 365147.75, 0.0000006525611, 10.003124, 9.998722 
6.148604e+2, 1.2569794e+2, -2045544.3, -1735126.9, 68189.81, -0.11576472, 0.062242538, -1720808.0, -12644.649, 0.0000000039655865, 9.9971485, 10.001227 
6.148783e+2, 1.3569808e+2, -1875771.0, -1633887.6, -26165.143, 0.22161722, -0.025549112, -1631089.6, -20928.83, 0.0, 9.9977455, 10.000978 
6.1488897e+2, 1.4569935e+2, -1751566.0, -1584524.0, 18407.883, -0.24052702, 0.034950357, -1582519.5, -70371.75, 0.0, 9.998202, 10.000416 
6.1490667e+2, 1.5569964e+2, -1613060.6, -1468339.9, 15167.161, -0.044842966, 0.022434447, -1466767.4, -52622.273, 0.0, 9.998488, 10.000401 
6.1492294e+2, 1.6569962e+2, -1507345.5, -1432784.6, -11698.226, 0.048886277, 0.01164928, -1430992.3, -114846.945, 0.0, 9.998824, 9.99981 
6.149374e+2, 1.7569938e+2, -1355015.9, -1307926.8, -16015.425, -0.0012153756, 0.005374357, -1302996.1, -84848.95, 0.0, 9.999195, 9.999816 
6.149524e+2, 1.8569899e+2, -1249582.4, -1253444.6, -10660.241, -0.015526721, 0.0073234634, -1240679.8, -120528.82, 0.0, 9.999448, 9.999395 
6.1496794e+2, 1.9569843e+2, -1126667.4, -1143010.4, -5809.1426, 0.021289514, 0.009505103, -1124813.0, -102656.26, 0.0, 9.999618, 9.999399 
6.149832e+2, 2.0569766e+2, -1014044.0, -1085483.6, -12848.332, 0.040722, 0.016314227, -1011803.5, -87638.734, 0.0, 9.999922, 9.998975 
6.149982e+2, 2.1569672e+2, -854316.6, -954156.9, -18564.309, 0.038290218, 0.023688627, -850976.56, -24801.852, 0.0, 10.000331, 9.999006 
6.150131e+2, 2.256957e+2, -728039.5, -849585.25, -20483.773, 0.034387384, 0.024707772, -724680.25, 3504.5125, 0.0, 10.000555, 9.998943 
6.15028e+2, 2.3569459e+2, -617311.56, -745357.44, -11286.259, 0.03297871, 0.016937846, -616324.4, 13870.771, 0.0, 10.000643, 9.998944 
6.15043e+2, 2.456934e+2, -523782.53, -697422.5, -3886.4038, 0.03230358, 0.028681682, -523695.6, 8511.912, 0.0, 10.000818, 9.998515 
6.1505806e+2, 2.5569218e+2, -388663.7, -577993.3, -7919.122, 0.031014897, 0.05362055, -388333.03, 45888.266, 0.0, 10.001059, 9.998547 
6.150733e+2, 2.6569074e+2, -236357.98, -450146.72, 11455.041, 0.015701195, 0.05336623, -235745.95, 100489.58, 0.0, 10.001415, 9.99858 
6.150886e+2, 2.7568907e+2, -76101.055, -325751.4, 20331.615, -0.010644268, 0.02474636, -74456.086, 163794.66, 0.0, 10.001859, 9.998548 
6.15104e+2, 2.8568727e+2, 5585.7744, -340867.47, 8164.518, -0.007976604, 0.0410305, 5778.0728, 146047.17, 0.0, 10.002199, 9.997607 
6.151196e+2, 2.9568553e+2, 138834.77, -229495.63, -7724.592, 0.016979432, 0.10369301, 138996.69, 181285.19, 0.0000000010306047, 10.002457, 9.997575 
6.151343e+2, 3.0568206e+2, 212503.33, -199607.92, -27328.566, -0.024941415, 0.022514628, 214307.67, 214307.67, 0.00000016756015, 10.002761, 9.9973 
6.1514914e+2, 3.1568035e+2, 365490.53, 35784.43, 18301.248, -0.017685967, 0.11334036, 366503.28, 366503.28, 0.000001002472, 10.003116, 9.998746 
6.2485754e+2, 1.2568244e+2, -2025405.5, -1729163.8, 38678.668, -0.12284308, 0.065168105, -1724197.0, -15882.723, 0.00000000008306351, 9.997304, 10.001193 
6.2487614e+2, 1.3568234e+2, -1835229.6, -1627154.3, -22127.277, 0.2209099, -0.03444757, -1624827.3, -14513.129, 0.0, 9.998078, 10.000864 
6.248872e+2, 1.4568342e+2, -1716031.1, -1571171.8, 2406.9363, -0.24598143, 0.013675818, -1571131.8, -58828.73, 0.0, 9.998463, 10.0003805 
6.2490517e+2, 1.5568385e+2, -1617651.6, -1474426.5, -13388.23, -0.042391486, 0.01689574, -1473185.8, -58886.715, 0.0, 9.998474, 10.000366 
6.249217e+2, 1.6568382e+2, -1523162.5, -1443417.1, -31067.246, 0.051749516, 0.010275546, -1432742.8, -116443.44, 0.0, 9.998729, 9.9997835 
6.249366e+2, 1.7568348e+2, -1358845.6, -1312156.9, -26745.34, -0.0035020001, -0.0027622443, -1300000.9, -81698.35, 0.0, 9.999179, 9.999795 
6.249518e+2, 1.856831e+2, -1243037.4, -1243470.1, -29151.729, -0.020031398, -0.0010161541, -1214101.3, -93794.91, 0.0, 9.999464, 9.999456 
6.2496746e+2, 1.9568266e+2, -1122104.0, -1134605.8, -30055.809, 0.016507138, 0.006572001, -1097656.0, -75345.24, 0.0, 9.999622, 9.9994545 
6.2498295e+2, 2.0568198e+2, -1030859.1, -1094036.8, -28157.625, 0.034735948, 0.018609758, -1020131.2, -95812.89, 0.0, 9.999809, 9.99897 
6.249983e+2, 2.1568108e+2, -899202.7, -975626.8, -23526.15, 0.030349625, 0.030722197, -892541.1, -66212.7, 0.0, 10.000022, 9.999007 
6.250135e+2, 2.256801e+2, -756056.2, -854391.25, -30148.744, 0.032049496, 0.032845013, -747548.8, -19210.691, 0.0, 10.000325, 9.999022 
6.250287e+2, 2.3567905e+2, -604906.3, -731437.8, -32180.738, 0.041609958, 0.023750192, -597192.1, 33155.594, 0.0, 10.000693, 9.999015 
6.25044e+2, 2.4567787e+2, -493493.1, -687875.3, -23334.975, 0.03897592, 0.03445933, -490731.06, 41629.043, 0.0, 10.001048, 9.99847 
6.250592e+2, 2.556766e+2, -343524.0, -561354.9, -20348.67, 0.025675854, 0.05745049, -341639.44, 92735.33, 0.0, 10.0013895, 9.998501 
6.2507474e+2, 2.6567516e+2, -209548.86, -441013.94, -9713.144, 0.012428323, 0.06286861, -209141.97, 127247.02, 0.0, 10.001616, 9.998547 
6.250905e+2, 2.7567357e+2, -94804.55, -338904.7, -22463.297, -0.00028331258, 0.047257382, -92754.586, 145648.78, 0.0, 10.001748, 9.99851 
6.251063e+2, 2.8567162e+2, -15441.491, -360882.75, -27014.943, 0.0003053652, 0.057836715, -13341.576, 127081.46, 0.0, 10.002097, 9.997519 
6.251221e+2, 2.956696e+2, 157449.28, -228944.4, -19649.748, 0.010074995, 0.09828125, 158445.97, 200891.55, 0.000000004235602, 10.002622, 9.997499 
6.2513703e+2, 3.0566624e+2, 250320.33, -164040.72, -37807.938, -0.03419091, 0.020053068, 253741.83, 253741.83, 0.000000262113, 10.002946, 9.997455 
6.2515235e+2, 3.15665e+2, 357912.78, 20554.145, -5194.0356, -0.009834668, 0.14497747, 357992.75, 357992.75, 0.0000013873902, 10.003114, 9.998642 
6.3485503e+2, 1.2566614e+2, -2015100.4, -1708131.5, 45768.62, -0.10071065, 0.033890735, -1701452.8, 7019.902, 0.0, 9.997305, 10.001337 
6.3487405e+2, 1.3566649e+2, -1830505.4, -1618398.3, 6113.7603, 0.19737443, -0.027343743, -1618222.3, -7753.924, 0.0, 9.998082, 10.000923 
6.348854e+2, 1.4566737e+2, -1730352.1, -1601596.9, 2574.0234, -0.27389628, 0.010218047, -1601545.4, -89086.1, 0.0, 9.998465, 10.000172 
6.3490367e+2, 1.5566745e+2, -1630672.9, -1501756.0, -12553.436, -0.033285975, -0.000938996, -1500545.0, -86086.13, 0.0, 9.998474, 10.000178 
6.3492054e+2, 1.6566741e+2, -1515991.6, -1428583.0, -14747.097, 0.06432407, -0.0041462434, -1426162.0, -109702.59, 0.0, 9.998729, 9.999886 
6.349357e+2, 1.7566736e+2, -1352182.4, -1298274.9, -10737.139, -0.010880512, -0.0019101786, -1296215.0, -77754.63, 0.0, 9.999178, 9.99989 
6.349511e+2, 1.8566705e+2, -1244704.5, -1246839.5, -23567.066, -0.031281874, 0.005165498, -1222180.8, -101717.09, 0.0, 9.999463, 9.9994335 
6.34967e+2, 1.9566657e+2, -1122534.0, -1135868.4, -24117.887, 0.012970026, 0.011065704, -1104178.8, -81709.99, 0.0, 9.999623, 9.999445 
6.3498265e+2, 2.0566595e+2, -1021058.2, -1073968.5, -20524.64, 0.024498222, 0.021664228, -1014029.94, -89554.28, 0.0, 9.999809, 9.999108 
6.34998e+2, 2.1566516e+2, -890687.94, -958024.44, -15231.508, 0.00334297, 0.032435615, -887402.8, -60918.676, 0.0, 10.000022, 9.999128 
6.350137e+2, 2.2566423e+2, -761244.2, -864940.1, -16465.076, 0.015318956, 0.03604708, -758692.6, -30198.932, 0.0, 10.000324, 9.998949 
6.3502955e+2, 2.3566313e+2, -609447.06, -740787.06, -18510.332, 0.0553829, 0.030965917, -606888.2, 23616.125, 0.0, 10.000693, 9.998951 
6.350452e+2, 2.4566193e+2, -489980.06, -680690.0, -10712.994, 0.054768734, 0.038815007, -489380.16, 43136.785, 0.0, 10.001048, 9.99852 
6.3506055e+2, 2.5566062e+2, -341429.44, -557090.06, -8074.4395, 0.021628797, 0.053242102, -341127.56, 93403.72, 0.0, 10.0013895, 9.99853 
6.3507634e+2, 2.656591e+2, -231892.23, -487640.3, -4862.733, 0.013970697, 0.065405935, -231799.81, 104747.26, 0.0, 10.001616, 9.998226 
6.350925e+2, 2.756574e+2, -114718.39, -380791.06, -16564.143, 0.027300347, 0.07000928, -113691.17, 124873.14, 0.0, 10.001749, 9.998222 
6.351086e+2, 2.856555e+2, 193.93318, -328376.75, -7578.0063, 0.022140862, 0.08498548, 368.61603, 140952.38, 0.0, 10.002097, 9.997743 
6.3512456e+2, 2.9565352e+2, 171626.95, -198005.84, -956.1567, 0.00094793405, 0.1148175, 171629.42, 214233.3, 0.000000008608103, 10.002615, 9.997715 
6.351398e+2, 3.056503e+2, 251508.52, -160053.78, -31648.863, -0.049513455, 0.03632477, 253928.08, 253928.08, 0.00000035003856, 10.002939, 9.997486 
6.351555e+2, 3.156491e+2, 342003.47, -12271.367, -1524.7623, -0.005877148, 0.15957728, 342010.03, 342010.03, 0.0000017531552, 10.003112, 9.998418 
6.448525e+2, 1.2564923e+2, -1989388.5, -1703004.1, 3830.2273, -0.09253837, -0.00023734996, -1702952.9, 5684.4824, 0.0, 9.997512, 10.001272 
6.4487183e+2, 1.3564998e+2, -1869136.8, -1647898.9, -28900.908, 0.18171744, -0.009948347, -1644185.8, -33555.754, 0.0, 9.997863, 10.000826 
6.4488363e+2, 1.4565074e+2, -1754273.8, -1603344.3, -39869.457, -0.2877231, 0.014796011, -1593459.6, -80837.31, 0.0, 9.998259, 10.000258 
6.449023e+2, 1.5565065e+2, -1601280.3, -1478593.3, -33199.215, -0.027969947, -0.02095101, -1470185.8, -55563.055, 0.0, 9.998637, 10.000258 
6.449194e+2, 1.6565071e+2, -1503722.6, -1423344.4, -28504.256, 0.07162098, -0.019808808, -1414262.3, -97639.81, 0.0, 9.9988165, 9.999879 
6.4493465e+2, 1.7565088e+2, -1402614.9, -1323440.1, -33253.1, -0.012084011, 0.0075653987, -1311327.1, -92705.31, 0.0, 9.998836, 9.999883 
6.4495033e+2, 1.8565063e+2, -1299517.4, -1270863.3, -46104.742, -0.035644528, 0.01884329, -1236910.8, -116285.88, 0.0, 9.999077, 9.9994545 
6.4496654e+2, 1.9565006e+2, -1138960.1, -1140564.6, -43926.367, 0.008083688, 0.013628723, -1095828.8, -73197.56, 0.0, 9.999497, 9.999474 
6.4498246e+2, 2.0564944e+2, -1004288.2, -1051176.3, -40117.78, 0.020459376, 0.017963542, -981266.56, -56628.984, 0.0, 9.999862, 9.999239 
6.4499813e+2, 2.1564876e+2, -859222.6, -929784.56, -35139.035, 0.001733073, 0.02571877, -844709.06, -18064.697, 0.0, 10.000182, 9.999246 
6.4501405e+2, 2.2564787e+2, -740918.8, -862739.94, -33609.145, 0.011071063, 0.032316662, -732261.6, -3607.958, 0.0, 10.000497, 9.998881 
6.4503014e+2, 2.3564678e+2, -596665.25, -741311.44, -35688.55, 0.044164717, 0.034817368, -588339.1, 42325.94, 0.0, 10.00081, 9.998891 
6.450461e+2, 2.456456e+2, -484185.25, -669742.0, -29367.508, 0.049614493, 0.044240084, -479648.28, 53029.2, 0.0, 10.001053, 9.998592 
6.4506197e+2, 2.5564432e+2, -359202.4, -559208.2, -25332.15, 0.032826427, 0.056054473, -356043.78, 78647.0, 0.0, 10.001241, 9.998588 
6.4507806e+2, 2.6564273e+2, -245659.66, -515540.22, -13820.166, 0.023490299, 0.0684351, -244953.8, 91753.8, 0.0, 10.001614, 9.998035 
6.450943e+2, 2.7564088e+2, -71344.01, -379020.8, -15913.36, 0.020623956, 0.074847504, -70523.14, 168204.39, 0.0, 10.0021305, 9.998051 
6.451107e+2, 2.85639e+2, 45813.18, -297105.47, -10239.95, 0.016170142, 0.09543916, 46118.688, 186865.7, 0.0, 10.002371, 9.997825 
6.451271e+2, 2.9563722e+2, 144669.48, -202160.97, -14483.5205, 0.010002335, 0.1338175, 145273.27, 188038.4, 0.000000011710588, 10.002392, 9.997794 
6.451426e+2, 3.056341e+2, 221901.56, -164180.84, -44408.35, -0.044314276, 0.06370225, 226943.69, 226943.69, 0.00000040808163, 10.002692, 9.997576 
6.451586e+2, 3.156327e+2, 349847.1, -23596.672, -12893.22, -0.015731068, 0.15782614, 350291.7, 350291.7, 0.0000020409286, 10.003231, 9.9982815 
6.548499e+2, 1.256317e+2, -2008896.3, -1744176.3, -6066.3696, -0.10300608, -0.039124314, -1744037.3, -35228.793, 0.0, 9.997516, 10.000988 
6.5486956e+2, 1.3563281e+2, -1887920.9, -1686297.0, -15829.934, 0.1728469, 0.017546779, -1685061.8, -74262.12, 0.0, 9.99786, 10.000565 
6.5488183e+2, 1.456335e+2, -1727040.5, -1546190.6, -26240.316, -0.28840744, 0.027175656, -1542460.3, -29667.883, 0.0, 9.998256, 10.000653 
6.5490097e+2, 1.5563346e+2, -1575577.8, -1425585.1, -20010.31, -0.026866404, -0.04218442, -1422961.5, -8171.181, 0.0, 9.998638, 10.000623 
6.5491813e+2, 1.6563368e+2, -1512535.3, -1441831.3, -28284.38, 0.073163375, -0.03570471, -1431908.9, -115120.46, 0.0, 9.9988165, 9.999753 
6.5493345e+2, 1.7563406e+2, -1410961.5, -1340389.0, -31952.883, -0.008227451, 0.025384476, -1328071.6, -109285.0, 0.0, 9.998834, 9.999768 
6.549494e+2, 1.8563384e+2, -1295753.3, -1262473.6, -30795.771, -0.034520745, 0.039649453, -1244109.6, -123319.52, 0.0, 9.999074, 9.999514 
6.54966e+2, 1.956331e+2, -1134817.4, -1131704.6, -28551.75, 0.001672246, 0.01431981, -1104666.9, -81869.02, 0.0, 9.9994955, 9.999535 
6.549824e+2, 2.0563248e+2, -995733.44, -1033243.06, -28351.951, 0.022557463, 0.007641813, -980494.5, -55690.59, 0.0, 9.999861, 9.999363 
6.549985e+2, 2.1563189e+2, -851493.6, -913710.6, -23217.424, 0.024833988, 0.010954633, -843784.75, -16975.79, 0.0, 10.000181, 9.999356 
6.550146e+2, 2.2563106e+2, -745443.7, -872144.6, -22076.25, 0.018593024, 0.021938719, -741707.3, -12889.462, 0.0, 10.000496, 9.9988165 
6.5503067e+2, 2.3563002e+2, -600548.9, -749399.0, -24260.176, 0.00797487, 0.035060443, -596694.6, 34135.223, 0.0, 10.00081, 9.998836 
6.5504694e+2, 2.4562891e+2, -478038.53, -656953.7, -22507.457, 0.023097904, 0.050425414, -475250.56, 57591.1, 0.0, 10.001052, 9.99868 
6.550634e+2, 2.5562775e+2, -353645.25, -547692.94, -17702.713, 0.057684034, 0.06529473, -352043.5, 82809.74, 0.0, 10.00124, 9.998668 
6.5507984e+2, 2.656261e+2, -250022.78, -524344.9, 5530.353, 0.039942324, 0.071607165, -249911.33, 86959.18, 0.0, 10.001612, 9.997975 
6.5509605e+2, 2.7562404e+2, -75770.92, -387287.4, 2591.413, -0.0187133, 0.06358409, -75749.37, 163143.39, 0.0, 10.002126, 9.997996 
6.5511274e+2, 2.8562215e+2, 41173.063, -306160.97, -9555.773, -0.01656771, 0.091315635, 41435.76, 182348.28, 0.0, 10.002368, 9.997765 
6.551298e+2, 2.9562056e+2, 140976.4, -210231.84, -12632.843, 0.03378675, 0.15381892, 141430.22, 184359.63, 0.000000011654482, 10.002393, 9.997739 
6.551456e+2, 3.0561772e+2, 231894.03, -143193.2, -24324.777, -0.022013532, 0.099624746, 233464.94, 233464.94, 0.00000041978168, 10.002691, 9.99772 
6.5516156e+2, 3.1561595e+2, 345107.78, -32044.805, 4446.2773, -0.038812328, 0.14949502, 345160.2, 345160.2, 0.000002202322, 10.003225, 9.998226 
6.6484743e+2, 1.2561439e+2, -2001064.6, -1735179.1, -35636.63, -0.1090057, -0.020862587, -1730485.5, -21506.412, 0.0, 9.997548, 10.001034 
6.6486746e+2, 1.3561547e+2, -1858085.4, -1667103.0, 1829.1797, 0.16455454, 0.026019612, -1667085.5, -56115.17, 0.0, 9.998044, 10.0006075 
6.6488016e+2, 1.4561601e+2, -1715898.5, -1537499.5, -19446.31, -0.2855333, 0.01806233, -1535404.4, -22439.924, 0.0, 9.998319, 10.000682 
6.648994e+2, 1.5561618e+2, -1610875.6, -1438923.5, -41918.156, -0.028309466, -0.033492327, -1429249.1, -14288.819, 0.0, 9.998381, 10.000654 
6.649169e+2, 1.6561645e+2, -1530479.6, -1436862.6, -52763.223, 0.069391325, -0.028929712, -1413137.5, -96180.016, 0.0, 9.998636, 9.999873 
6.6493237e+2, 1.7561676e+2, -1372297.9, -1308782.9, -38005.438, -0.011035469, 0.013104535, -1291013.1, -72057.305, 0.0, 9.999044, 9.999883 
6.649485e+2, 1.856166e+2, -1265010.6, -1245506.8, -28322.61, -0.036587995, 0.027624946, -1225304.3, -104345.61, 0.0, 9.999277, 9.999532 
6.649654e+2, 1.9561604e+2, -1151784.9, -1138177.6, -29440.242, -0.00043794437, 0.018250495, -1114765.0, -91800.09, 0.0, 9.9993725, 9.99955 
6.649821e+2, 2.0561542e+2, -1029831.5, -1046859.3, -31917.998, 0.021752734, 0.010895979, -1005311.4, -80340.47, 0.0, 9.999616, 9.999387 
6.649986e+2, 2.1561472e+2, -879037.4, -923791.4, -34857.086, 0.026180346, 0.00087846274, -859992.8, -33015.863, 0.0, 9.99998, 9.999383 
6.6501486e+2, 2.2561394e+2, -777959.44, -881792.1, -35171.01, 0.017325385, 0.012478683, -767167.7, -38182.336, 0.0, 10.000248, 9.99887 
6.6503114e+2, 2.3561306e+2, -650942.25, -768190.2, -28194.152, 0.00060365757, 0.036941916, -644514.8, -13518.933, 0.0, 10.00044, 9.998884 
6.6504776e+2, 2.4561198e+2, -511056.8, -674920.8, -22774.664, 0.014717638, 0.05285836, -507950.34, 25057.166, 0.0, 10.000835, 9.998661 
6.650647e+2, 2.556107e+2, -333193.53, -539577.44, -26364.533, 0.05195358, 0.059784733, -329878.84, 105141.16, 0.0, 10.001389, 9.9986515 
6.6508144e+2, 2.656091e+2, -234098.02, -511763.78, -4302.864, 0.036612675, 0.066354565, -234031.34, 103005.73, 0.0, 10.001701, 9.998018 
6.65098e+2, 2.756071e+2, -117375.836, -403071.63, -253.85535, -0.019494025, 0.06596851, -117375.62, 121682.54, 0.0, 10.001822, 9.998034 
6.65115e+2, 2.8560525e+2, 4301.896, -331193.0, -11434.753, -0.015406877, 0.09353855, 4691.1777, 145769.5, 0.0, 10.002147, 9.997699 
6.651323e+2, 2.9560348e+2, 172062.69, -201984.81, -14950.143, 0.035630897, 0.14771, 172659.27, 215756.36, 0.000000008469742, 10.002637, 9.997677 
6.651484e+2, 3.0560085e+2, 280022.84, -114112.984, -25391.236, -0.021044375, 0.115902975, 281651.88, 281651.88, 0.00000038345433, 10.002997, 9.997772 
6.6516477e+2, 3.1559893e+2, 343128.88, -41378.797, -6454.5557, -0.035950225, 0.1411639, 343237.22, 343237.22, 0.0000022156387, 10.003248, 9.998151 
6.748449e+2, 1.2559734e+2, -1973190.1, -1677947.3, -37714.176, -0.11468088, 0.05454468, -1673205.8, 35943.54, 0.0, 9.99755, 10.001426 
6.7486537e+2, 1.3559796e+2, -1831159.0, -1612531.1, 20325.283, 0.15597916, 0.015876725, -1610657.6, 484.3129, 0.0, 9.998049, 10.000979 
6.748785e+2, 1.4559828e+2, -1741101.8, -1590358.4, -17298.58, -0.2801704, -0.012903228, -1588398.8, -75260.91, 0.0, 9.998321, 10.000319 
6.7489773e+2, 1.555988e+2, -1633972.9, -1485867.9, -39174.91, -0.03372189, 0.005513569, -1476144.3, -61011.78, 0.0, 9.998376, 10.000335 
6.749154e+2, 1.6559903e+2, -1504989.3, -1382999.1, -37641.566, 0.058585703, 0.001151578, -1372319.4, -55189.836, 0.0, 9.9986315, 10.000245 
6.7493135e+2, 1.7559898e+2, -1347707.9, -1257967.0, -23288.64, -0.020818762, -0.029320626, -1252283.4, -33154.305, 0.0, 9.999045, 10.000231 
6.7494774e+2, 1.8559892e+2, -1266968.4, -1249958.6, -25044.15, -0.042153303, -0.017690595, -1232014.6, -110884.59, 0.0, 9.999278, 9.9995 
6.749647e+2, 1.9559886e+2, -1154426.8, -1143375.5, -25477.984, 0.0007381347, 0.025034122, -1122830.9, -99698.59, 0.0, 9.999371, 9.999515 
6.7498165e+2, 2.055983e+2, -1035804.2, -1058868.6, -18530.936, 0.017016774, 0.027853781, -1025510.1, -100371.61, 0.0, 9.999613, 9.999306 
6.7499834e+2, 2.1559729e+2, -883630.5, -933239.56, -21733.092, 0.005408313, -0.004528413, -875456.4, -48308.258, 0.0, 9.999979, 9.999319 
6.750151e+2, 2.2559653e+2, -765949.0, -856912.44, -28217.94, 0.006807913, 0.003983878, -757906.56, -28750.459, 0.0, 10.000248, 9.999042 
6.750318e+2, 2.3559594e+2, -639952.0, -745686.06, -20256.85, 0.021126028, 0.040606704, -636204.0, -5040.9326, 0.0, 10.000441, 9.999039 
6.750487e+2, 2.4559481e+2, -519937.13, -693567.2, -2069.4128, 0.023760209, 0.051861074, -519912.44, 13262.49, 0.0, 10.000835, 9.998533 
6.7506576e+2, 2.5559324e+2, -341316.16, -556116.9, -6517.462, 0.01616847, 0.039997328, -341118.6, 94072.29, 0.0, 10.001387, 9.998538 
6.7508286e+2, 2.655917e+2, -224536.17, -491575.8, -10.365669, 0.013338408, 0.053289592, -224536.17, 112670.92, 0.0, 10.001699, 9.998158 
6.7510015e+2, 2.7559015e+2, -108665.47, -384765.3, 4910.4565, 0.015233659, 0.080972336, -108578.164, 130645.586, 0.0, 10.001821, 9.99816 
6.7511743e+2, 2.8558823e+2, -1479.9581, -342286.88, 6652.085, 0.017038912, 0.1011043, -1350.168, 139894.31, 0.0, 10.002143, 9.997623 
6.751347e+2, 2.9558602e+2, 166251.83, -212713.27, 2927.6392, 0.017077316, 0.11732555, 166274.44, 209542.42, 0.0000000040864183, 10.002631, 9.997605 
6.7515117e+2, 3.0558363e+2, 276961.47, -119607.7, -16010.717, -0.040170297, 0.11452166, 277606.8, 277606.8, 0.0000003121116, 10.002993, 9.997737 
6.751683e+2, 3.155817e+2, 335590.66, -56657.95, 820.8398, -0.012071019, 0.14269698, 335592.38, 335592.38, 0.0000020914758, 10.003245, 9.998048 
6.848424e+2, 1.2557971e+2, -1991401.6, -1686965.0, -34602.805, -0.11256339, 0.07295828, -1683081.5, 26241.84, 0.0, 9.997427, 10.001423 
6.848633e+2, 1.3558045e+2, -1842401.4, -1613535.9, 12476.877, 0.15335019, 0.0410933, -1612857.8, -1542.9668, 0.0, 9.997954, 10.0010195 
6.84877e+2, 1.4558059e+2, -1745676.0, -1592134.8, -37742.06, -0.26598054, -0.0057128025, -1583358.9, -70046.76, 0.0, 9.998289, 10.00032 
6.848961e+2, 1.5558113e+2, -1623292.8, -1480182.1, -31913.791, -0.032719392, 0.013451621, -1473387.9, -58081.48, 0.0, 9.998448, 10.000339 
6.849139e+2, 1.6558138e+2, -1506445.1, -1375364.3, -24663.42, 0.052637964, 0.0076990738, -1370877.3, -53574.45, 0.0, 9.998588, 10.000318 
6.849302e+2, 1.7558137e+2, -1391556.9, -1271484.3, -33665.98, -0.024785832, -0.027476257, -1262689.1, -43387.52, 0.0, 9.998713, 10.000298 
6.8494684e+2, 1.8558127e+2, -1308133.5, -1270497.9, -45179.5, -0.045162644, -0.022219194, -1240373.9, -119071.08, 0.0, 9.999001, 9.999494 
6.849641e+2, 1.9558114e+2, -1146779.4, -1139977.3, -43832.367, -0.0042794244, 0.0132586, -1099414.3, -76108.42, 0.0, 9.999427, 9.999511 
6.849812e+2, 2.055806e+2, -1024704.8, -1052449.9, -32528.467, 0.011245376, 0.02237347, -1003214.25, -77902.61, 0.0, 9.999686, 9.999314 
6.8499815e+2, 2.155798e+2, -907321.25, -943794.7, -29013.84, 0.0006526664, 0.006911352, -891288.75, -63968.746, 0.0, 9.999813, 9.999327 
6.850152e+2, 2.2557905e+2, -778022.44, -859652.25, -34931.785, 0.0060783857, 0.016397621, -765115.06, -35787.438, 0.0, 10.000152, 9.999068 
6.8503237e+2, 2.3557839e+2, -606317.25, -726655.5, -38231.668, 0.026207445, 0.041697726, -595198.3, 36136.59, 0.0, 10.00066, 9.9990635 
6.8504953e+2, 2.455772e+2, -500526.1, -687279.94, -20151.338, 0.021172158, 0.046278708, -498376.44, 34970.95, 0.0, 10.000982, 9.998506 
6.8506676e+2, 2.5557557e+2, -376325.8, -575390.94, -17388.164, -0.004384867, 0.03061896, -374818.38, 60545.74, 0.0, 10.001157, 9.998516 
6.850843e+2, 2.6557407e+2, -257241.28, -502892.8, -15057.855, -0.00059404015, 0.047775097, -256321.72, 81058.12, 0.0, 10.001457, 9.998197 
6.851021e+2, 2.7557266e+2, -101177.42, -377154.88, -17668.055, 0.027434498, 0.0856835, -100050.914, 139344.13, 0.0, 10.001857, 9.998195 
6.8511975e+2, 2.8557068e+2, 5831.705, -339965.0, -12112.063, 0.029254157, 0.1004525, 6255.4297, 147671.6, 0.0, 10.002199, 9.997613 
6.851372e+2, 2.9556826e+2, 146278.16, -223009.48, -11586.342, 0.008947781, 0.098318584, 146641.31, 190082.92, 0.0000000009738006, 10.002498, 9.997599 
6.851541e+2, 3.0556616e+2, 256685.47, -124575.04, -27820.014, -0.046154737, 0.12309272, 258704.77, 258704.77, 0.00000022618863, 10.002833, 9.99778 
6.851716e+2, 3.155641e+2, 332913.34, -52477.895, -8287.729, 0.0036958563, 0.13339426, 333091.5, 333091.5, 0.0000018666766, 10.003204, 9.9980955 
6.9483984e+2, 1.2556155e+2, -2021327.3, -1749467.6, -32140.86, -0.10651744, 0.03151949, -1745719.4, -36218.43, 0.0, 9.997429, 10.000994 
6.948613e+2, 1.3556294e+2, -1865670.0, -1660707.9, 31931.984, 0.15652579, 0.10262787, -1655848.3, -44359.52, 0.0, 9.99795, 10.000698 
6.948754e+2, 1.45563e+2, -1719323.4, -1536534.5, -31691.615, -0.24303977, 0.041538384, -1531195.8, -17708.945, 0.0, 9.998284, 10.000705 
6.948947e+2, 1.555632e+2, -1598686.1, -1429769.6, -25382.754, -0.02616857, -0.010399355, -1426037.9, -10556.085, 0.0, 9.998451, 10.000683 
6.949125e+2, 1.6556354e+2, -1523848.3, -1411888.4, -20019.238, 0.050383955, -0.010524902, -1408416.5, -90939.45, 0.0, 9.998589, 10.000067 
6.949288e+2, 1.7556392e+2, -1408757.5, -1305969.1, -28525.04, -0.02376499, 0.01935161, -1298583.8, -79110.35, 0.0, 9.998707, 10.000064 
6.949458e+2, 1.8556364e+2, -1307731.6, -1268461.8, -29445.97, -0.046721213, 0.015421633, -1252704.6, -131228.02, 0.0, 9.998995, 9.99951 
6.949634e+2, 1.9556284e+2, -1145280.3, -1136785.1, -28453.232, -0.015745562, -0.016910382, -1112264.1, -88778.766, 0.0, 9.999426, 9.999533 
6.949808e+2, 2.0556241e+2, -1017931.6, -1038686.0, -28121.936, 0.004299644, -0.0060953847, -998333.4, -72843.055, 0.0, 9.999687, 9.999409 
6.94998e+2, 2.1556222e+2, -901591.06, -931967.7, -23596.908, 0.011162456, 0.034905728, -888716.94, -61224.527, 0.0, 9.999813, 9.999408 
6.9501543e+2, 2.2556154e+2, -786504.75, -877319.8, -15866.061, 0.014334815, 0.049781837, -783812.6, -54312.902, 0.0, 10.000152, 9.998947 
6.950329e+2, 2.3556039e+2, -614133.25, -742848.44, -19878.256, 0.015677156, 0.04042652, -611133.25, 20378.148, 0.0, 10.00066, 9.998953 
6.9505036e+2, 2.455591e+2, -495580.7, -676898.6, -13823.549, 0.0067006676, 0.03615423, -494532.84, 38991.89, 0.0, 10.000981, 9.998577 
6.950678e+2, 2.5555766e+2, -371921.78, -565853.2, -10468.829, -0.010913402, 0.0314275, -371358.28, 64181.29, 0.0, 10.001155, 9.998583 
6.950857e+2, 2.6555616e+2, -262017.1, -512190.75, -230.75201, -0.0058647897, 0.049544122, -262016.89, 75538.305, 0.0, 10.001454, 9.998135 
6.951038e+2, 2.755546e+2, -105351.79, -385761.4, -2848.2642, 0.017835045, 0.08053361, -105322.86, 134248.9, 0.0, 10.001857, 9.998136 
6.951218e+2, 2.855526e+2, 9329.5205, -332913.06, -1025.745, 0.021747189, 0.0921103, 9332.595, 150925.72, 0.0, 10.002199, 9.997662 
6.9513965e+2, 2.9555026e+2, 149253.4, -215673.48, -230.24593, 0.009307396, 0.08975793, 149253.55, 192871.42, 0.000000000021633938, 10.002492, 9.997652 
6.9515693e+2, 3.055485e+2, 263295.97, -108873.37, -14407.798, -0.04087266, 0.14074467, 263852.9, 263852.9, 0.00000014519733, 10.002825, 9.997891 
6.951749e+2, 3.155462e+2, 343997.56, -28072.994, 2724.2112, 0.009607729, 0.1203444, 344017.5, 344017.5, 0.0000015881137, 10.003199, 9.998266 
7.048373e+2, 1.2554348e+2, -2005736.5, -1761889.5, -54775.723, -0.10867657, 0.03130143, -1750150.3, -40471.984, 0.0, 9.9976225, 10.000814 
7.048592e+2, 1.3554484e+2, -1869422.5, -1672506.8, 43921.027, 0.15462624, 0.11076403, -1663154.5, -51487.51, 0.0, 9.997968, 10.0006075 
7.048739e+2, 1.4554484e+2, -1712738.6, -1519611.1, -29206.365, -0.22034818, 0.041386444, -1515291.0, -1625.2397, 0.0, 9.998272, 10.000826 
7.048932e+2, 1.5554525e+2, -1574883.8, -1406431.4, -43089.383, -0.02211394, -0.00085849105, -1396049.1, 19608.91, 0.0, 9.998565, 10.000788 
7.0491105e+2, 1.655456e+2, -1503376.1, -1417089.1, -44929.26, 0.045103073, 0.0018055927, -1397943.0, -80289.81, 0.0, 9.9987955, 9.99993 
7.049276e+2, 1.7554581e+2, -1378625.9, -1305118.8, -44666.117, -0.027863093, 0.027942272, -1284028.6, -64377.082, 0.0, 9.998975, 9.99994 
7.0494485e+2, 1.8554546e+2, -1283877.1, -1251083.0, -34826.793, -0.04877239, 0.021151798, -1228986.4, -107330.91, 0.0, 9.999134, 9.999561 
7.0496273e+2, 1.9554469e+2, -1163303.8, -1140311.9, -31914.158, -0.01596035, -0.012726525, -1117886.3, -94222.69, 0.0, 9.99928, 9.999578 
7.0498043e+2, 2.0554428e+2, -1036454.25, -1045809.44, -35194.293, 0.007776893, -0.0023561923, -1005628.06, -79960.055, 0.0, 9.999552, 9.999425 
7.0499796e+2, 2.1554412e+2, -883771.6, -921940.94, -36604.49, 0.02011349, 0.03829945, -861575.4, -33905.61, 0.0, 9.999929, 9.99942 
7.0501566e+2, 2.2554336e+2, -777147.56, -879158.56, -23973.922, 0.018090833, 0.04962548, -771794.3, -42116.7, 0.0, 10.000244, 9.99889 
7.0503336e+2, 2.3554212e+2, -640338.4, -761630.0, -23778.379, 0.0054306528, 0.034673963, -635843.4, -4152.9507, 0.0, 10.000506, 9.998898 
7.050511e+2, 2.4554078e+2, -528900.6, -693147.1, -24980.447, -0.0037076725, 0.030954238, -525185.4, 8518.689, 0.0, 10.000754, 9.998575 
7.050689e+2, 2.555394e+2, -396168.13, -577907.9, -27217.586, -0.010361315, 0.03194777, -392179.5, 43538.957, 0.0, 10.000991, 9.998579 
7.050872e+2, 2.6553792e+2, -265198.75, -513084.4, -6043.87, -0.004625687, 0.05189538, -265051.5, 72682.36, 0.0, 10.00143, 9.99814 
7.051057e+2, 2.755364e+2, -78636.55, -371753.28, -4355.13, 0.011674881, 0.082074575, -78571.85, 161178.42, 0.0, 10.002036, 9.998145 
7.05124e+2, 2.855343e+2, 25595.295, -321944.4, -14042.58, 0.017356427, 0.08526766, 26161.771, 167933.73, 0.0, 10.002298, 9.997688 
7.051421e+2, 2.955318e+2, 120023.18, -227383.63, -14513.912, 0.013914035, 0.06700355, 120628.484, 164426.14, 0.0, 10.002281, 9.997673 
7.051596e+2, 3.0553025e+2, 227005.92, -134406.22, -23488.955, -0.037467573, 0.14104344, 228526.13, 228526.13, 0.00000008201181, 10.00261, 9.997819 
7.05178e+2, 3.1552777e+2, 352212.22, -17724.154, -22583.285, 0.0032052286, 0.10848687, 353585.75, 353585.75, 0.0000012936833, 10.003227, 9.998324 
7.148348e+2, 1.2552553e+2, -1999706.1, -1749818.4, -55762.76, -0.121923596, 0.07472952, -1737939.6, -28084.543, 0.0, 9.997623, 10.000897 
7.1485704e+2, 1.3552614e+2, -1858086.0, -1649825.3, 57360.62, 0.14436437, 0.062923275, -1635071.8, -23222.219, 0.0, 9.997971, 10.000762 
7.1487236e+2, 1.4552613e+2, -1723685.0, -1543117.5, -18391.072, -0.20069721, -0.009381694, -1541263.4, -27414.617, 0.0, 9.998276, 10.000663 
7.1489173e+2, 1.555273e+2, -1586164.5, -1429406.0, -32116.873, -0.02085293, 0.043225158, -1423081.1, -7246.125, 0.0, 9.998563, 10.000631 
7.149098e+2, 1.6552757e+2, -1504641.0, -1419544.3, -38157.504, 0.036379136, 0.04668932, -1404940.6, -87109.53, 0.0, 9.998795, 9.999914 
7.1492654e+2, 1.75527e+2, -1378807.0, -1306416.6, -37797.445, -0.038254194, -0.0025792788, -1290278.9, -70442.7, 0.0, 9.998979, 9.999929 
7.149439e+2, 1.8552673e+2, -1278187.4, -1239828.0, -29618.803, -0.052266087, -0.00663864, -1223721.3, -101882.04, 0.0, 9.999136, 9.999638 
7.149621e+2, 1.955267e+2, -1158742.3, -1130533.6, -26142.88, -0.0054325126, 0.025985785, -1114933.0, -91092.68, 0.0, 9.999278, 9.999647 
7.149801e+2, 2.0552628e+2, -1041395.3, -1055838.9, -21242.705, 0.02107821, 0.0343939, -1026180.4, -100335.73, 0.0, 9.999551, 9.999357 
7.14998e+2, 2.1552546e+2, -888208.8, -931218.8, -22774.38, 0.027142325, 0.0174364, -878390.7, -50538.816, 0.0, 9.999929, 9.999357 
7.150159e+2, 2.2552454e+2, -776634.1, -878208.5, -14408.183, 0.017017761, 0.016054029, -774629.9, -44768.805, 0.0, 10.000244, 9.998898 
7.1503377e+2, 2.3552355e+2, -640183.44, -761296.94, -13920.369, -0.0050605848, 0.024248745, -638604.06, -6732.114, 0.0, 10.000506, 9.9989 
7.1505183e+2, 2.4552228e+2, -534684.5, -705192.25, -16239.391, -0.010732759, 0.030699247, -533151.6, 733.6446, 0.0, 10.000754, 9.998492 
7.1506995e+2, 2.555208e+2, -401171.13, -589018.5, -17682.486, -0.0034455785, 0.032084245, -399521.13, 36379.547, 0.0, 10.000994, 9.998502 
7.150886e+2, 2.6551935e+2, -259930.72, -502472.03, 16632.668, 0.002587153, 0.054696772, -258795.42, 79120.25, 0.0, 10.0014305, 9.998213 
7.151077e+2, 2.7551794e+2, -74853.03, -361813.25, 17293.705, 0.007935468, 0.089849554, -73814.58, 166115.9, 0.0, 10.002027, 9.998219 
7.151263e+2, 2.8551576e+2, 24611.72, -321843.4, -15186.93, 0.014935692, 0.07976006, 25276.168, 167228.8, 0.0, 10.002289, 9.997694 
7.151444e+2, 2.9551297e+2, 119982.61, -228392.72, -14248.93, 0.022156667, 0.03107801, 120564.44, 164545.2, 0.0, 10.002285, 9.997664 
7.151622e+2, 3.0551147e+2, 210873.45, -169445.86, -267.46112, -0.035933625, 0.12503155, 210873.64, 210873.64, 0.00000004119849, 10.002616, 9.997577 
7.1518105e+2, 3.1550884e+2, 346374.22, -27937.648, -1385.3895, -0.017265227, 0.101330444, 346379.34, 346379.34, 0.0000010048329, 10.003218, 9.998259 
7.248327e+2, 1.255071e+2, -1973713.5, -1734891.5, -67753.38, -0.10525938, 0.08647168, -1717009.0, -6972.3965, 0.0, 9.99779, 10.000919 
7.248548e+2, 1.3550767e+2, -1831932.9, -1625608.1, 52560.715, 0.12093709, 0.060094874, -1612990.0, -959.7264, 0.0, 9.9981, 10.000865 
7.248707e+2, 1.4550754e+2, -1730682.1, -1568888.1, -30039.62, -0.19878036, -0.016817138, -1563490.9, -49460.07, 0.0, 9.998325, 10.000461 
7.248903e+2, 1.5550874e+2, -1608350.0, -1461316.1, -46893.8, -0.011822233, 0.058030147, -1447633.5, -31615.46, 0.0, 9.998503, 10.000441 
7.249086e+2, 1.6550896e+2, -1507882.0, -1410537.9, -49851.133, 0.043381162, 0.05910977, -1389538.5, -71523.92, 0.0, 9.998727, 10.000009 
7.2492546e+2, 1.7550826e+2, -1370058.0, -1292661.4, -41549.863, -0.037499063, -0.01214525, -1274579.9, -54560.004, 0.0, 9.998998, 10.000014 
7.249431e+2, 1.8550801e+2, -1266621.9, -1240193.8, -36575.617, -0.053073317, -0.014006015, -1214518.4, -92496.02, 0.0, 9.999241, 9.999584 
7.249614e+2, 1.9550815e+2, -1134911.3, -1124535.4, -42633.914, -0.0054905144, 0.040201552, -1086774.9, -62752.445, 0.0, 9.999466, 9.999597 
7.2497976e+2, 2.0550767e+2, -1018104.4, -1042048.06, -33719.395, 0.02168732, 0.043633956, -994294.6, -68267.48, 0.0, 9.9997, 9.999379 
7.2499794e+2, 2.1550661e+2, -885688.2, -927987.4, -28808.104, 0.028849382, 0.0004076646, -871099.7, -43063.773, 0.0, 9.999938, 9.999375 
7.2501606e+2, 2.2550565e+2, -793237.06, -891461.1, -22522.633, 0.017831633, -0.0038331642, -788318.94, -58273.52, 0.0, 10.000153, 9.99885 
7.250341e+2, 2.3550475e+2, -665852.8, -778759.0, -26170.643, -0.0069620325, 0.020100165, -660081.7, -28025.922, 0.0, 10.000352, 9.998855 
7.2505254e+2, 2.4550352e+2, -530460.7, -703451.3, -19834.873, -0.009092902, 0.031110173, -528215.56, 5853.4004, 0.0, 10.000785, 9.99849 
7.2507125e+2, 2.5550196e+2, -341047.9, -560154.94, -15653.369, 0.0068513188, 0.027926622, -339935.25, 96149.36, 0.0, 10.001408, 9.998501 
7.2509015e+2, 2.655005e+2, -234723.69, -492324.06, 10566.008, 0.008583154, 0.048490897, -234291.02, 103808.82, 0.0, 10.001613, 9.998195 
7.2510934e+2, 2.7549905e+2, -156497.92, -403424.25, 4315.466, -0.0012050258, 0.08394722, -156422.52, 83692.375, 0.0, 10.001475, 9.9981985 
7.2512823e+2, 2.8549686e+2, -41480.883, -352415.06, -25129.082, 0.006963284, 0.071959846, -39463.098, 102674.02, 0.0, 10.001829, 9.997705 
7.251469e+2, 2.9549405e+2, 166358.77, -205129.27, -23955.586, 0.0292421, 0.018806716, 167897.19, 212062.47, 0.0, 10.002601, 9.997672 
7.251651e+2, 3.0549255e+2, 252289.25, -167497.56, -8581.603, -0.028695391, 0.11850271, 252464.61, 252464.61, 0.000000018939705, 10.002979, 9.997415 
7.251841e+2, 3.1548953e+2, 322377.0, -34641.93, -6400.653, -0.023893047, 0.07415065, 322491.72, 322491.72, 0.0000007295325, 10.003035, 9.998301 
7.3483086e+2, 1.2548815e+2, -1977302.4, -1742435.3, -66390.74, -0.061360676, 0.06367961, -1724967.5, -14744.357, 0.0, 9.99779, 10.000868 
7.3485255e+2, 1.3548948e+2, -1828896.3, -1618489.8, 63854.617, 0.084109776, 0.10540752, -1600627.4, 11581.683, 0.0, 9.998097, 10.000915 
7.348688e+2, 1.4548919e+2, -1748005.1, -1604542.0, -23497.416, -0.21529034, 0.02273291, -1600791.5, -86580.195, 0.0, 9.998323, 10.000217 
7.34889e+2, 1.5548958e+2, -1623953.0, -1494187.6, -39746.277, 0.002834702, 0.042084083, -1482981.4, -66774.17, 0.0, 9.998505, 10.000214 
7.349075e+2, 1.6548973e+2, -1493574.8, -1381483.5, -39889.426, 0.06476384, 0.036934, -1368737.6, -50533.6, 0.0, 9.99873, 10.000207 
7.3492455e+2, 1.7548957e+2, -1357450.6, -1266565.3, -31462.582, -0.025256077, -0.000052047973, -1256736.5, -36533.906, 0.0, 9.998998, 10.000194 
7.349423e+2, 1.8548933e+2, -1279664.3, -1267264.5, -28324.5, -0.051332008, 0.0002614368, -1244469.3, -122264.555, 0.0, 9.999241, 9.999399 
7.3496073e+2, 1.9548905e+2, -1146794.9, -1149492.0, -34250.99, -0.016878013, 0.029798072, -1113865.9, -89655.91, 0.0, 9.999467, 9.999426 
7.349793e+2, 2.0548843e+2, -1010212.1, -1025862.4, -25089.799, 0.008803739, 0.024850493, -991755.5, -65539.984, 0.0, 9.9997, 9.999491 
7.349978e+2, 2.1548755e+2, -878486.0, -913147.56, -20109.873, 0.024615789, -0.01319336, -869269.44, -41047.746, 0.0, 9.999938, 9.999477 
7.350162e+2, 2.2548667e+2, -800662.56, -907148.25, -15298.7705, 0.019833393, -0.010257239, -798508.2, -68277.695, 0.0, 10.000154, 9.998742 
7.350345e+2, 2.3548573e+2, -672507.94, -793089.5, -18016.406, -0.00089286466, 0.022482146, -669873.56, -37631.816, 0.0, 10.000354, 9.998756 
7.350534e+2, 2.4548449e+2, -524929.4, -692029.94, 3411.2427, 0.00054941553, 0.032238368, -524859.75, 9395.356, 0.0, 10.000785, 9.998569 
7.3507273e+2, 2.554829e+2, -336659.28, -549938.94, 6328.853, 0.019688034, 0.019304998, -336471.63, 99798.61, 0.0, 10.001403, 9.998573 
7.350918e+2, 2.6548138e+2, -242763.86, -508347.75, 5060.862, 0.012639047, 0.033456013, -242667.47, 95618.766, 0.0, 10.00161, 9.998086 
7.3511064e+2, 2.754798e+2, -163106.4, -418561.6, 654.185, -0.01589419, 0.06553567, -163104.73, 77198.44, 0.0, 10.00148, 9.998093 
7.3512995e+2, 2.8547764e+2, -39670.113, -349564.16, 3892.66, -0.0065939254, 0.06212942, -39621.227, 102703.93, 0.0, 10.001833, 9.997724 
7.3514956e+2, 2.9547504e+2, 166273.75, -202730.84, 4113.4424, 0.033752315, 0.028120799, 166319.6, 210670.78, 0.0, 10.002588, 9.997695 
7.3516816e+2, 3.0547342e+2, 243765.83, -182214.66, -6778.117, -0.018113362, 0.12085918, 243873.66, 243873.66, 0.0000000073965225, 10.002966, 9.99732 
7.351871e+2, 3.154699e+2, 330493.1, -17416.078, -5990.618, -0.020443581, 0.03015657, 330596.22, 330596.22, 0.0000004773962, 10.003033, 9.99842 
7.448287e+2, 1.2546934e+2, -1959298.6, -1741051.0, -75825.25, -0.06593641, 0.06828643, -1717293.4, -6884.893, 0.0, 9.997947, 10.000802 
7.4485064e+2, 1.3547082e+2, -1828794.9, -1615310.6, 58947.473, 0.08584095, 0.12411806, -1600115.5, 12276.629, 0.0, 9.998085, 10.000942 
7.4486744e+2, 1.4547043e+2, -1755707.1, -1620756.4, -22131.082, -0.18479551, 0.034496635, -1617219.6, -102824.375, 0.0, 9.998324, 10.000106 
7.448876e+2, 1.5547055e+2, -1602919.8, -1496637.3, -27767.621, 0.0055089667, 0.037265714, -1489819.9, -73425.8, 0.0, 9.998703, 10.000101 
7.4490625e+2, 1.6547062e+2, -1469144.3, -1375433.8, -36994.832, 0.060678605, 0.032450397, -1362589.4, -44197.816, 0.0, 9.998922, 10.000155 
7.4492365e+2, 1.7547053e+2, -1360287.5, -1274218.3, -47986.79, -0.015019099, 0.009337018, -1252795.9, -32406.77, 0.0, 9.999005, 10.000137 
7.4494165e+2, 1.854702e+2, -1290590.0, -1278592.9, -45291.746, -0.038262542, 0.004487503, -1238904.1, -116512.1, 0.0, 9.999191, 9.999345 
7.4496025e+2, 1.9546965e+2, -1150296.3, -1157203.4, -41486.797, -0.011881272, 0.013583702, -1112119.6, -87719.86, 0.0, 9.999469, 9.9993725 
7.44979e+2, 2.0546904e+2, -1000835.75, -1020867.6, -31393.002, 0.008794097, 0.010443247, -977899.6, -51494.355, 0.0, 9.999763, 9.999495 
7.449978e+2, 2.1546835e+2, -858964.1, -903530.4, -34880.652, 0.02233008, -0.007818483, -839856.5, -11447.08, 0.0, 10.000072, 9.999478 
7.4501646e+2, 2.2546741e+2, -771526.44, -901381.94, -32732.953, 0.021174561, -0.005404254, -763742.0, -33323.33, 0.0, 10.000389, 9.998669 
7.450352e+2, 2.3546624e+2, -625514.25, -778180.4, -32898.97, 0.008693082, 0.010544333, -618726.44, 13705.934, 0.0, 10.0007105, 9.998686 
7.450543e+2, 2.4546497e+2, -500683.75, -677286.0, -7947.6934, 0.005826836, 0.020995911, -500326.8, 34119.055, 0.0, 10.000939, 9.998595 
7.4507385e+2, 2.554636e+2, -380521.38, -568740.25, -9935.635, 0.010223334, 0.023113886, -379998.34, 56460.98, 0.0, 10.001091, 9.998594 
7.450932e+2, 2.6546204e+2, -274966.6, -525376.44, -17455.063, 0.0011227161, 0.035704583, -273755.75, 64719.59, 0.0, 10.001394, 9.998074 
7.4511224e+2, 2.7546027e+2, -112359.86, -394997.7, -14384.529, -0.018632054, 0.052552737, -111629.664, 128864.02, 0.0, 10.001834, 9.998084 
7.4513185e+2, 2.8545812e+2, 2258.2847, -324019.1, 3356.0864, -0.0070967837, 0.049079742, 2292.8018, 144808.3, 0.0, 10.002099, 9.99777 
7.4515194e+2, 2.954557e+2, 114405.3, -222966.25, 4964.954, 0.029862853, 0.026842631, 114478.35, 159018.5, 0.0, 10.002212, 9.997737 
7.451709e+2, 3.054541e+2, 176539.81, -219175.81, -8103.627, -0.018328642, 0.12162038, 176705.69, 176705.69, 0.0000000015345106, 10.002524, 9.997279 
7.451902e+2, 3.154505e+2, 341860.06, 8143.973, -5621.036, -0.01366722, 0.030390974, 341954.7, 341954.7, 0.00000026410652, 10.003025, 9.998599 
7.5482607e+2, 1.2545073e+2, -1967095.1, -1757209.1, -77592.5, -0.12694304, 0.106222406, -1731639.1, -21047.521, 0.0, 9.997945, 10.000692 
7.548491e+2, 1.3545173e+2, -1829977.1, -1617048.8, 63874.453, 0.12534527, 0.11422669, -1599357.5, 13222.072, 0.0, 9.998082, 10.000932 
7.5486654e+2, 1.4545126e+2, -1753492.3, -1616426.3, -8446.265, -0.10657695, 0.016124535, -1615907.6, -101324.71, 0.0, 9.998324, 10.000135 
7.5488615e+2, 1.5545167e+2, -1601343.0, -1494228.8, -13574.923, -0.004085899, 0.045081362, -1492535.1, -75956.68, 0.0, 9.998706, 10.000117 
7.549049e+2, 1.6545166e+2, -1490884.4, -1421384.9, -34059.055, 0.029989472, 0.047512595, -1407477.0, -88899.99, 0.0, 9.998925, 9.999839 
7.5492275e+2, 1.7545117e+2, -1381124.9, -1317790.3, -44723.813, -0.007971685, 0.015565471, -1294657.6, -74078.29, 0.0, 9.999006, 9.999838 
7.549411e+2, 1.8545061e+2, -1285294.0, -1267599.9, -35136.176, -0.01484791, -0.0021003278, -1240214.0, -117629.67, 0.0, 9.99919, 9.999421 
7.5495994e+2, 1.9544996e+2, -1145640.9, -1147650.5, -31137.658, 0.00940815, -0.008725222, -1115491.8, -90900.16, 0.0, 9.999469, 9.999438 
7.549789e+2, 2.0544946e+2, -1008451.56, -1036731.6, -20146.057, 0.021582156, 0.00035694527, -997978.5, -71382.27, 0.0, 9.999762, 9.999387 
7.549978e+2, 2.15449e+2, -866193.9, -918653.8, -23479.174, 0.021521512, 0.01672933, -857220.4, -28621.469, 0.0, 10.000072, 9.999375 
7.5501686e+2, 2.2544792e+2, -774336.1, -907227.94, -20883.861, 0.021058254, 0.01107498, -771131.56, -40521.824, 0.0, 10.000389, 9.998629 
7.5503594e+2, 2.3544629e+2, -628463.75, -784160.0, -21275.926, 0.021196874, -0.015905557, -625608.75, 7018.6274, 0.0, 10.00071, 9.998646 
7.5505525e+2, 2.4544501e+2, -502782.25, -681684.75, -2335.9622, 0.0063818567, -0.0027351798, -502751.75, 31889.305, 0.0, 10.000938, 9.998565 
7.550746e+2, 2.55444e+2, -382314.34, -572720.06, -3792.3206, -0.021327844, 0.039631978, -382238.84, 54412.754, 0.0, 10.001092, 9.998567 
7.550943e+2, 2.6544246e+2, -269633.8, -514152.5, -1207.6881, -0.025974868, 0.055186003, -269627.88, 69039.06, 0.0, 10.001393, 9.998151 
7.5511414e+2, 2.754405e+2, -107490.73, -383352.34, 1732.2891, -0.011281172, 0.04391381, -107479.85, 133206.53, 0.0, 10.001826, 9.998168 
7.5513405e+2, 2.8543842e+2, 6250.208, -313929.47, 7364.077, 0.0032706992, 0.03241319, 6419.4907, 149127.52, 0.0, 10.00209, 9.997845 
7.55154e+2, 2.9543608e+2, 118654.83, -213591.1, 9507.203, 0.0174768, 0.017487932, 118926.66, 163658.4, 0.0, 10.002209, 9.997804 
7.5517327e+2, 3.0543464e+2, 176882.86, -218151.22, 10320.529, -0.029097766, 0.12235576, 177152.31, 177152.31, 0.00000000001992495, 10.002522, 9.997287 
7.551933e+2, 3.1543142e+2, 356551.0, 40502.902, 11528.175, -0.007231785, 0.06855506, 356970.94, 356970.94, 0.000000109993245, 10.003016, 9.998826 
7.648238e+2, 1.254317e+2, -1994808.0, -1784047.8, -82339.555, -0.13994071, 0.116981834, -1755694.0, -44916.168, 0.0, 9.997812, 10.000573 
7.6484734e+2, 1.3543238e+2, -1791592.1, -1602055.8, 61915.145, 0.13025443, 0.096112065, -1583622.8, 29146.143, 0.0, 9.998362, 10.0009 
7.6486534e+2, 1.4543188e+2, -1715838.9, -1605247.6, -18427.0, -0.070514314, -0.0009540222, -1602258.0, -87485.61, 0.0, 9.998613, 10.000073 
7.648849e+2, 1.5543242e+2, -1611922.5, -1507891.3, -30874.373, 0.001055292, 0.048940256, -1499418.5, -82652.23, 0.0, 9.99867, 10.000042 
7.649037e+2, 1.6543226e+2, -1502962.4, -1450643.0, -48594.977, 0.026886858, 0.052848525, -1421613.9, -102847.58, 0.0, 9.998942, 9.999631 
7.64922e+2, 1.7543145e+2, -1336820.4, -1318880.5, -51142.39, 0.0012931001, 0.0072012134, -1275927.4, -55154.695, 0.0, 9.999406, 9.999639 
7.649407e+2, 1.8543072e+2, -1211426.8, -1239235.3, -44395.254, -0.0016059976, -0.012621737, -1178809.3, -56029.965, 0.0, 9.999729, 9.999356 
7.649597e+2, 1.9543009e+2, -1083097.5, -1125059.6, -51332.844, 0.018988742, -0.012001902, -1048623.5, -23837.418, 0.0, 9.99993, 9.999371 
7.6497877e+2, 2.0542957e+2, -968919.6, -1022911.3, -44522.598, 0.025939329, 0.0015934362, -943847.9, -17057.035, 0.0, 10.000056, 9.999339 
7.6499784e+2, 2.154291e+2, -863117.44, -922474.75, -43335.438, 0.019655649, 0.02025402, -840271.94, -11477.815, 0.0, 10.000115, 9.999328 
7.650172e+2, 2.2542796e+2, -781889.9, -914341.44, -32379.973, 0.019208891, 0.012700512, -774397.9, -43592.3, 0.0, 10.000353, 9.998596 
7.650367e+2, 2.3542622e+2, -626081.2, -787031.4, -33140.906, 0.024179297, -0.019468376, -619524.3, 13299.572, 0.0, 10.000744, 9.99861 
7.650562e+2, 2.454249e+2, -498887.4, -685475.56, -22525.395, 0.0064634727, -0.0061399047, -496206.63, 38631.457, 0.0, 10.00099, 9.998514 
7.650756e+2, 2.5542387e+2, -381536.22, -577129.6, -25278.078, -0.030673143, 0.04055729, -378322.16, 58526.8, 0.0, 10.001119, 9.998523 
7.650956e+2, 2.654224e+2, -272513.1, -505845.66, -15009.25, -0.030980287, 0.056321748, -271551.56, 67312.28, 0.0, 10.001333, 9.998237 
7.65116e+2, 2.754205e+2, -132479.48, -386787.06, -12469.218, -0.00017643135, 0.041919697, -131869.56, 109012.73, 0.0, 10.001617, 9.998244 
7.6513606e+2, 2.8541836e+2, -37512.84, -337795.03, -19469.877, 0.009667514, 0.029464033, -36255.703, 106648.11, 0.0, 10.001801, 9.99782 
7.6515585e+2, 2.9541606e+2, 73937.5, -237301.47, -23813.078, 0.0014081085, 0.015072455, 75748.914, 120677.14, 0.0, 10.00191, 9.997784 
7.651755e+2, 3.0541453e+2, 152248.9, -222799.53, -6951.512, -0.043982316, 0.110617176, 152377.7, 152377.7, 0.0, 10.002321, 9.997352 
7.6519626e+2, 3.1541163e+2, 368371.25, 72849.89, -3651.8872, -0.0036500772, 0.08034553, 368416.34, 368416.34, 0.000000028836135, 10.002981, 9.999065 
7.748219e+2, 1.2541223e+2, -2004948.3, -1802803.0, -64970.434, -0.10602611, 0.10024691, -1783722.3, -72755.34, 0.00000000003061157, 9.997802, 10.000449 
7.7484536e+2, 1.3541277e+2, -1794415.0, -1608229.0, 81345.46, 0.09796031, 0.0705821, -1577695.9, 35263.785, 0.0, 9.9983635, 10.000856 
7.7486384e+2, 1.4541227e+2, -1726611.5, -1629438.1, -17384.469, -0.079969004, -0.015669186, -1626421.6, -111458.23, 0.0, 9.99862, 9.999905 
7.7488375e+2, 1.5541276e+2, -1623878.3, -1532908.8, -28551.695, 0.020489661, 0.048120875, -1524690.0, -107732.45, 0.0, 9.99867, 9.99987 
7.7490294e+2, 1.6541244e+2, -1509822.9, -1464757.3, -31436.783, 0.05148924, 0.047857516, -1448611.9, -129652.266, 0.0, 9.998941, 9.999535 
7.7492154e+2, 1.7541134e+2, -1343357.9, -1333063.3, -34035.258, 0.012463689, -0.015893865, -1303788.3, -82819.17, 0.0, 9.999409, 9.99954 
7.749404e+2, 1.8541057e+2, -1225854.9, -1269824.3, -37175.97, 0.0007912632, -0.026898146, -1204649.5, -81672.82, 0.0, 9.999731, 9.999146 
7.749596e+2, 1.9541001e+2, -1097131.1, -1154643.0, -44273.887, 0.01622735, 0.004266763, -1073094.3, -48111.46, 0.0, 9.999931, 9.999167 
7.7497876e+2, 2.0540936e+2, -968033.1, -1021263.56, -42701.285, 0.021026762, 0.014567158, -944331.7, -17342.871, 0.0, 10.000057, 9.999351 
7.7499795e+2, 2.154086e+2, -862664.06, -921460.06, -40905.42, 0.016180621, 0.002445463, -841688.5, -12693.573, 0.0, 10.000115, 9.999335 
7.7501744e+2, 2.2540748e+2, -784125.1, -918993.7, -18043.46, 0.015205018, -0.0010005989, -781752.94, -50746.785, 0.0, 10.000353, 9.998565 
7.7503735e+2, 2.3540606e+2, -628396.56, -791784.4, -18904.87, 0.017433135, -0.00012397749, -626237.7, 6784.076, 0.0, 10.000743, 9.998577 
7.7505714e+2, 2.4540465e+2, -503971.1, -696015.9, -17841.975, 0.005388836, 0.010895845, -502327.56, 32709.105, 0.0, 10.000989, 9.998443 
7.7507687e+2, 2.5540325e+2, -385880.63, -586409.2, -20132.799, -0.019412445, 0.025696302, -383879.28, 53171.93, 0.0, 10.00112, 9.998459 
7.750971e+2, 2.6540175e+2, -266191.47, -492640.53, -4340.9463, -0.015411686, 0.03928612, -266108.28, 72957.66, 0.0, 10.001332, 9.998328 
7.751177e+2, 2.754002e+2, -127574.766, -375841.03, -2013.1193, 0.013949532, 0.04796896, -127558.445, 113522.6, 0.0, 10.001614, 9.998322 
7.7513784e+2, 2.853981e+2, -46115.047, -355186.34, -15483.44, 0.011358305, 0.040990133, -45341.316, 97761.14, 0.0, 10.001798, 9.997703 
7.751575e+2, 2.9539558e+2, 66860.57, -252101.8, -18261.645, -0.019698206, 0.017607816, 67902.7, 113032.086, 0.0, 10.00191, 9.997684 
7.751776e+2, 3.053938e+2, 159427.92, -206384.73, 18308.703, -0.064497605, 0.086306944, 160341.98, 160341.98, 0.0, 10.002315, 9.997468 
7.7519923e+2, 3.153911e+2, 383647.78, 108766.375, 19920.2, -0.00626144, 0.06620274, 385083.88, 385083.88, 0.0000000029769756, 10.002963, 9.999321 
7.848202e+2, 1.2539199e+2, -1980344.8, -1805500.4, -90825.625, -0.06868927, 0.06334525, -1766859.4, -55695.85, 0.0000000009851104, 9.998034, 10.0003195 
7.8484344e+2, 1.3539286e+2, -1791932.6, -1613555.5, 53665.7, 0.075010166, 0.07269687, -1598654.6, 14499.47, 0.0, 9.998408, 10.000798 
7.848624e+2, 1.4539231e+2, -1722187.1, -1633464.3, -52724.227, -0.082574666, -0.009361066, -1608921.5, -93763.445, 0.0, 9.998676, 9.99985 
7.8488266e+2, 1.553924e+2, -1590912.8, -1523170.3, -53728.125, 0.038848624, 0.015932344, -1493528.0, -76371.95, 0.0, 9.998922, 9.999816 
7.8490216e+2, 1.6539201e+2, -1477990.1, -1460050.5, -43163.105, 0.06996652, 0.017340392, -1424935.0, -105776.24, 0.0, 9.999206, 9.999439 
7.8492093e+2, 1.7539118e+2, -1334556.0, -1339873.0, -46770.688, 0.015998034, -0.0085306745, -1290368.4, -69202.02, 0.0, 9.999516, 9.999442 
7.8494006e+2, 1.853904e+2, -1229779.5, -1277646.1, -51456.297, 0.00010973949, -0.013147016, -1196962.9, -73788.766, 0.0, 9.99973, 9.999093 
7.8495955e+2, 1.9538958e+2, -1110212.5, -1167010.4, -46745.867, 0.019015886, -0.0032425816, -1083915.3, -58732.76, 0.0, 9.999868, 9.999113 
7.8497887e+2, 2.053888e+2, -973303.7, -1035889.75, -44724.68, 0.025124222, 0.0006502685, -950011.44, -22821.494, 0.0, 10.000073, 9.999242 
7.849982e+2, 2.1538799e+2, -837799.4, -921097.75, -52099.734, 0.02029706, -0.004124544, -812747.44, 16449.584, 0.0, 10.000337, 9.99923 
7.850179e+2, 2.2538693e+2, -757463.9, -898820.2, -26484.73, 0.016240573, 0.00083144027, -752664.6, -21456.98, 0.0, 10.000505, 9.998629 
7.8503793e+2, 2.3538566e+2, -645603.8, -793420.5, -20622.531, 0.012350809, 0.010088234, -642780.56, -9559.191, 0.0, 10.000597, 9.998635 
7.850581e+2, 2.4538417e+2, -523542.6, -717024.7, -15025.156, 0.005779306, 0.01574314, -522382.75, 12854.237, 0.0, 10.000906, 9.998338 
7.850782e+2, 2.5538248e+2, -352332.44, -581995.75, -20655.764, -0.003458185, 0.014360341, -350489.47, 86764.88, 0.0, 10.001401, 9.998354 
7.850985e+2, 2.6538092e+2, -240573.58, -484463.72, -20979.021, -0.006461507, 0.02806369, -238782.16, 100487.9, 0.0, 10.001526, 9.998291 
7.8511894e+2, 2.7537945e+2, -170205.25, -400082.88, -27802.914, -0.003632458, 0.050483644, -166890.39, 74394.234, 0.0, 10.001337, 9.998288 
7.8513926e+2, 2.8537744e+2, -77121.64, -359063.38, -26709.5, -0.0060012797, 0.049523305, -74613.66, 68691.31, 0.0, 10.001538, 9.997801 
7.851595e+2, 2.9537502e+2, 97135.484, -226867.11, -14389.735, -0.013209564, 0.025452936, 97773.305, 143103.7, 0.0, 10.002072, 9.997778 
7.851799e+2, 3.05373e+2, 145906.06, -213956.64, 20929.05, -0.05877279, 0.065986246, 147119.17, 147119.17, 0.0, 10.002227, 9.997458 
7.852015e+2, 3.153704e+2, 258955.58, 59113.992, 11633.623, -0.027597167, 0.058443345, 259630.55, 259630.55, 0.0, 10.002062, 9.9994135 
7.948185e+2, 1.25371e+2, -1990173.9, -1827393.0, -79038.63, -0.03295701, 0.008327945, -1795330.8, -83963.19, 0.0000000034592607, 9.998038, 10.000168 
7.948417e+2, 1.3537262e+2, -1798097.4, -1625787.1, 65908.125, 0.061805654, 0.104154795, -1603468.4, 9883.634, 0.0, 9.998406, 10.000715 
7.9486114e+2, 1.4537206e+2, -1717133.1, -1622625.4, -44798.79, -0.07811756, 0.019573592, -1604765.0, -89408.766, 0.0, 9.998675, 9.999926 
7.9488176e+2, 1.553713e+2, -1585588.1, -1512470.5, -44387.77, 0.055067386, -0.04860102, -1491524.4, -74162.92, 0.0, 9.998924, 9.999887 
7.949015e+2, 1.6537097e+2, -1484614.5, -1474617.6, -31808.168, 0.0810594, -0.039706267, -1447417.6, -128053.805, 0.0, 9.999208, 9.999338 
7.9492044e+2, 1.75371e+2, -1341155.3, -1354001.3, -35511.47, 0.011379185, 0.03031438, -1311490.6, -90126.42, 0.0, 9.999517, 9.999345 
7.9493976e+2, 1.8537025e+2, -1222378.8, -1262265.5, -46668.37, -0.0045625595, 0.029714428, -1191571.0, -68199.62, 0.0, 9.999729, 9.999199 
7.949594e+2, 1.953688e+2, -1104100.9, -1153788.1, -41578.637, 0.026844017, -0.03516008, -1080509.0, -55124.21, 0.0, 9.999866, 9.999205 
7.9497904e+2, 2.0536783e+2, -989733.1, -1069826.5, -35226.688, 0.03794403, -0.04077894, -976444.5, -49050.297, 0.0, 10.0000725, 9.99901 
7.949986e+2, 2.1536724e+2, -853026.1, -952770.5, -42755.62, 0.031435847, 0.0008716065, -837207.5, -7807.2573, 0.0, 10.000337, 9.999013 
7.9501843e+2, 2.2536631e+2, -746328.7, -876130.94, -23407.027, 0.021519748, 0.018506816, -742236.75, -10826.908, 0.0, 10.000506, 9.998784 
7.950385e+2, 2.35365e+2, -635362.3, -772457.9, -16801.576, 0.008478974, 0.010912645, -633333.25, 89.47469, 0.0, 10.000598, 9.998779 
7.9505897e+2, 2.4536344e+2, -533571.44, -737659.75, 3414.3748, 0.007287432, 0.008455414, -533514.4, 1924.5447, 0.0, 10.000904, 9.998197 
7.950798e+2, 2.5536165e+2, -363250.4, -603300.94, -2860.0896, 0.016304692, 0.00739494, -363216.3, 74241.81, 0.0, 10.001394, 9.998211 
7.9510003e+2, 2.6535997e+2, -252743.5, -508687.72, -28178.14, -0.00473753, 0.023025218, -249677.95, 89798.01, 0.0, 10.00152, 9.998128 
7.951198e+2, 2.7535832e+2, -180093.33, -421266.94, -33607.375, -0.05228792, 0.048280492, -175497.73, 65995.13, 0.0, 10.001339, 9.998142 
7.9514045e+2, 2.8535646e+2, -56441.664, -315867.44, -6407.713, -0.042583402, 0.05462222, -56283.492, 87227.72, 0.0, 10.001536, 9.998098 
7.951619e+2, 2.9535443e+2, 114991.92, -186960.17, 4773.532, 0.017428325, 0.041011248, 115067.37, 160598.42, 0.0, 10.00206, 9.998058 
7.951824e+2, 3.053522e+2, 135480.08, -233660.05, 14519.4795, -0.030180795, 0.051821854, 136050.3, 136050.3, 0.0, 10.002217, 9.997328 
7.9520315e+2, 3.1534955e+2, 255468.36, 50871.047, 5253.03, -0.068766, 0.049628664, 255603.14, 255603.14, 0.0, 10.002066, 9.999355 
8.0481684e+2, 1.2535016e+2, -1930230.0, -1805932.5, -96186.63, -0.028244987, 0.0034485077, -1753563.4, -41992.633, 0.0000000057252847, 9.99848, 10.000103 
8.0484015e+2, 1.3535166e+2, -1797593.9, -1627830.3, 53149.21, 0.066777796, 0.08671703, -1612563.4, 993.2638, 0.0, 9.99842, 10.000695 
8.0486006e+2, 1.4535119e+2, -1725156.4, -1628857.8, -50712.81, -0.054196145, 0.011381241, -1607077.5, -91517.03, 0.0, 9.9986315, 9.999904 
8.0488074e+2, 1.5535046e+2, -1555434.3, -1500650.1, -58161.56, 0.053010043, -0.046804868, -1463753.0, -46187.746, 0.0, 9.999142, 9.999865 
8.049007e+2, 1.6535012e+2, -1454167.3, -1459230.5, -51603.785, 0.07499897, -0.03842632, -1405033.0, -85465.29, 0.0, 9.999414, 9.999345 
8.0492e+2, 1.7535008e+2, -1345005.8, -1355021.1, -47082.54, 0.020978725, 0.022289839, -1302665.3, -81096.77, 0.0, 9.999488, 9.9993515 
8.0493957e+2, 1.8534929e+2, -1228612.4, -1265212.3, -57396.504, 0.0068749506, 0.018556016, -1186669.0, -63093.234, 0.0, 9.999687, 9.999198 
8.0495936e+2, 1.9534788e+2, -1086136.1, -1145923.3, -60464.89, 0.02803307, -0.043770954, -1048578.8, -22989.814, 0.0, 9.999993, 9.999197 
8.049792e+2, 2.0534687e+2, -972809.94, -1069238.1, -51386.777, 0.036432236, -0.049359765, -950559.8, -22961.123, 0.0, 10.000222, 9.99894 
8.0499893e+2, 2.1534617e+2, -850139.3, -958674.3, -47036.508, 0.03317792, -0.0105017945, -832591.8, -2985.8262, 0.0, 10.000388, 9.998947 
8.05019e+2, 2.2534516e+2, -731614.56, -873068.0, -30537.098, 0.024117593, 0.0061455076, -725303.75, 6312.551, 0.0, 10.000626, 9.998748 
8.050392e+2, 2.3534386e+2, -590195.25, -754671.06, -38575.53, 0.010423617, -0.00012443072, -581597.3, 52032.156, 0.0, 10.000926, 9.998743 
8.0505985e+2, 2.4534234e+2, -518947.4, -728710.5, -19436.709, 0.004968655, 0.003808551, -517161.6, 18483.67, 0.0, 10.000998, 9.998213 
8.0508083e+2, 2.5534067e+2, -438483.0, -638008.56, -14546.704, 0.00623134, 0.013176528, -437428.03, 235.48592, 0.0, 10.000872, 9.998223 
8.051013e+2, 2.6533893e+2, -323043.3, -548012.4, -31168.28, -0.012912071, 0.027008872, -318804.97, 20876.98, 0.0, 10.001062, 9.998077 
8.0512124e+2, 2.7533713e+2, -154814.39, -414101.9, -28614.484, -0.04974605, 0.040099867, -151694.1, 90006.77, 0.0, 10.001535, 9.998096 
8.0514205e+2, 2.853354e+2, -30623.852, -293447.75, -4713.965, -0.039411787, 0.052854054, -30539.33, 113178.93, 0.0, 10.001672, 9.998187 
8.051636e+2, 2.9533365e+2, 40214.414, -213371.3, -8887.16, 0.011957713, 0.06167678, 40525.492, 86260.1, 0.0, 10.001505, 9.998143 
8.0518425e+2, 3.0533114e+2, 58439.527, -268585.56, -399.75946, -0.034691114, 0.042203214, 58440.016, 58440.016, 0.0, 10.001679, 9.997347 
8.052052e+2, 3.1532845e+2, 270062.5, 61710.035, -297.5327, -0.067925036, 0.03640307, 270062.9, 270062.9, 0.0, 10.00215, 9.999389 
8.148149e+2, 1.253296e+2, -1926975.0, -1800521.1, -97801.37, -0.06244726, 0.055101376, -1747288.8, -35516.164, 0.000000004999778, 9.998486, 10.000138 
8.148388e+2, 1.3532995e+2, -1794434.8, -1620355.8, 50384.434, 0.08924992, 0.017649509, -1606824.6, 6943.4375, 0.0, 9.998417, 10.000747 
8.148591e+2, 1.4532964e+2, -1734369.3, -1648258.8, -31951.281, -0.011051663, -0.036557294, -1637698.4, -121927.81, 0.0, 9.998631, 9.999771 
8.1487966e+2, 1.5532999e+2, -1563580.8, -1518814.0, -39339.004, 0.031718463, 0.024814079, -1495936.3, -78169.11, 0.0, 9.999146, 9.999739 
8.1489986e+2, 1.6532956e+2, -1445549.5, -1442057.6, -49433.523, 0.050245274, 0.024522545, -1394339.3, -74568.94, 0.0, 9.999417, 9.999461 
8.149197e+2, 1.7532843e+2, -1337699.5, -1339099.1, -44140.945, 0.044413324, -0.034139078, -1294252.8, -72473.39, 0.0, 9.999485, 9.999462 
8.149395e+2, 1.8532754e+2, -1236759.8, -1281522.1, -45981.984, 0.034220546, -0.04854646, -1208001.4, -84214.086, 0.0, 9.999684, 9.999088 
8.149593e+2, 1.9532683e+2, -1093363.3, -1161244.1, -49345.004, 0.022037147, -0.028303377, -1067413.1, -41618.773, 0.0, 9.999994, 9.999092 
8.149792e+2, 2.0532592e+2, -966360.6, -1056222.9, -45583.848, 0.01962841, -0.024201361, -947286.4, -19483.088, 0.0, 10.000223, 9.99903 
8.149993e+2, 2.153248e+2, -844686.75, -947143.0, -40971.887, 0.025044348, -0.03823837, -830317.5, -503.45435, 0.0, 10.000387, 9.999027 
8.150196e+2, 2.2532356e+2, -747620.44, -906280.25, -19669.797, 0.023794848, -0.03608691, -745218.25, -13391.49, 0.0, 10.000626, 9.99852 
8.1504023e+2, 2.353222e+2, -605473.5, -786097.3, -27938.04, 0.017455317, -0.022491785, -601250.9, 32590.488, 0.0, 10.000924, 9.9985285 
8.150608e+2, 2.4532089e+2, -507598.94, -705116.2, -24393.89, -0.0019150429, 0.0018867624, -504630.84, 31224.986, 0.0, 10.000997, 9.998376 
8.150813e+2, 2.5531954e+2, -427061.7, -614871.25, -18694.756, -0.033136368, 0.03056438, -425218.88, 12651.536, 0.0, 10.000874, 9.998382 
8.151021e+2, 2.6531786e+2, -319432.84, -540270.1, -13630.375, -0.031267636, 0.039796356, -318594.72, 21293.277, 0.0, 10.0010605, 9.998132 
8.151232e+2, 2.7531588e+2, -153114.34, -407886.44, -11469.485, -0.00012477252, 0.02789703, -152599.05, 89309.445, 0.0, 10.001523, 9.998145 
8.151441e+2, 2.8531414e+2, -39612.63, -309771.72, -11136.987, -0.00011963574, 0.04541196, -39154.297, 104771.664, 0.0, 10.00166, 9.99808 
8.151647e+2, 2.953126e+2, 33947.68, -227355.1, -14189.197, -0.028416108, 0.08545856, 34715.918, 80656.96, 0.0, 10.001509, 9.998047 
8.151856e+2, 3.0530986e+2, 68860.98, -246671.3, 17742.875, -0.07135305, 0.03573597, 69855.55, 69855.55, 0.0, 10.001678, 9.997498 
8.152077e+2, 3.153072e+2, 275617.2, 78031.03, 16868.23, -0.031810608, 0.0151262665, 277046.9, 277046.9, 0.0000000016901937, 10.00213, 9.999511 
8.2481354e+2, 1.2530832e+2, -1923047.3, -1794234.0, -110063.17, -0.05446259, 0.06276016, -1731117.6, -19136.328, 0.0000000017683296, 9.998493, 10.000176 
8.2483745e+2, 1.3530847e+2, -1732214.3, -1585195.3, 34122.723, 0.09691402, 0.0002671746, -1577661.5, 36316.27, 0.0, 9.998822, 10.000792 
8.24858e+2, 1.4530824e+2, -1689082.8, -1638641.3, -40445.14, 0.007988047, -0.04205443, -1616197.6, -100218.0, 0.0, 9.998995, 9.999661 
8.2487863e+2, 1.5530871e+2, -1578051.6, -1536991.3, -45650.66, 0.021681275, 0.042320997, -1507466.8, -89490.91, 0.0, 9.999096, 9.999638 
8.2489914e+2, 1.6530819e+2, -1449126.1, -1436862.4, -59426.297, 0.0360032, 0.034361057, -1383252.5, -63272.67, 0.0, 9.999364, 9.999521 
8.2491934e+2, 1.753068e+2, -1290979.9, -1310872.4, -58816.656, 0.04939292, -0.056372944, -1241274.4, -19283.941, 0.0, 9.999781, 9.999513 
8.249394e+2, 1.8530585e+2, -1190069.4, -1267610.1, -61977.266, 0.04288834, -0.07433452, -1155734.9, -31736.28, 0.0, 10.000042, 9.999011 
8.249593e+2, 1.9530527e+2, -1072879.1, -1159791.0, -63143.145, 0.01956217, -0.034091733, -1039683.44, -13678.58, 0.0, 10.000172, 9.999016 
8.2497936e+2, 2.0530434e+2, -964711.75, -1064066.5, -68515.6, 0.015037238, -0.022610389, -929759.1, -1744.9073, 0.0, 10.000273, 9.998952 
8.2499963e+2, 2.1530312e+2, -856407.75, -961177.8, -76541.8, 0.026943678, -0.039333317, -816041.25, 13985.238, 0.0, 10.000343, 9.998952 
8.2502013e+2, 2.2530186e+2, -772166.94, -914750.56, -47512.21, 0.02648129, -0.037672654, -757785.4, -25745.67, 0.0, 10.0004425, 9.998549 
8.2504094e+2, 2.3530056e+2, -655215.9, -806730.1, -37200.047, 0.015170865, -0.023079747, -646575.2, -12521.395, 0.0, 10.000569, 9.998557 
8.2506156e+2, 2.4529928e+2, -536865.0, -716042.0, -34689.07, -0.010023864, 0.005265327, -530383.6, 5684.1494, 0.0, 10.000783, 9.998404 
8.2508206e+2, 2.5529805e+2, -394680.2, -595578.75, -39101.48, -0.04758929, 0.040666625, -387338.1, 50743.707, 0.0, 10.0010805, 9.998414 
8.251031e+2, 2.6529646e+2, -305423.8, -519923.78, -35419.81, -0.039017014, 0.0484514, -299726.34, 40372.266, 0.0, 10.001099, 9.998253 
8.251245e+2, 2.7529445e+2, -241806.83, -437761.72, -28564.781, 0.010451889, 0.027864663, -237727.78, 4390.4033, 0.0, 10.000859, 9.99826 
8.251455e+2, 2.8529274e+2, -133953.33, -358028.7, -19503.797, 0.007859406, 0.043260645, -132268.36, 11867.042, 0.0, 10.001025, 9.9980545 
8.251661e+2, 2.9529124e+2, 40613.336, -225823.11, -17453.355, -0.041366022, 0.087383114, 41751.78, 87902.58, 0.0, 10.001562, 9.99803 
8.2518715e+2, 3.0528843e+2, 79161.77, -221517.06, 13331.047, -0.08224979, 0.02290098, 79751.664, 79751.664, 0.0, 10.001662, 9.997678 
8.252095e+2, 3.1528628e+2, 168423.38, 38674.723, 13365.221, -0.024853032, 0.03822784, 169785.8, 169785.8, 0.000000023716037, 10.00134, 9.9996195 
8.3481246e+2, 1.2528631e+2, -1920234.9, -1788560.5, -95439.625, -0.007654862, 0.022984615, -1738452.6, -26255.754, 0.000000000051048894, 9.998492, 10.0002165 
8.348362e+2, 1.3528727e+2, -1728700.9, -1579961.3, 45760.59, 0.08808773, 0.038222, -1567010.4, 47175.195, 0.0, 9.998831, 10.000824 
8.348569e+2, 1.4528705e+2, -1693837.9, -1650537.5, -37915.656, 0.00087358034, -0.0015769091, -1628526.1, -112339.05, 0.0, 9.999003, 9.999577 
8.348777e+2, 1.5528664e+2, -1584022.0, -1548640.5, -41667.37, 0.022934001, 0.0029793836, -1521063.9, -102872.375, 0.0, 9.999093, 9.999559 
8.3489835e+2, 1.6528602e+2, -1449371.8, -1436884.1, -43562.945, 0.032240596, -0.01158407, -1399119.8, -78923.5, 0.0, 9.999361, 9.999523 
8.3491904e+2, 1.7528522e+2, -1290805.8, -1311475.6, -43236.582, 0.034666277, -0.042985514, -1256686.1, -34484.668, 0.0, 9.9997835, 9.999508 
8.3493936e+2, 1.8528429e+2, -1192923.3, -1274303.6, -57514.78, 0.031027887, -0.056953657, -1163160.4, -38950.97, 0.0, 10.000045, 9.998963 
8.3495945e+2, 1.952832e+2, -1076594.3, -1167344.8, -58614.637, 0.020172749, -0.061327096, -1047843.94, -21623.637, 0.0, 10.000171, 9.998965 
8.3497965e+2, 2.0528218e+2, -981909.25, -1099872.1, -66247.1, 0.022535052, -0.04506719, -952191.8, -23960.303, 0.0, 10.000272, 9.998707 
8.3500004e+2, 2.1528119e+2, -872442.8, -994915.6, -74328.85, 0.038283672, -0.013630387, -837374.1, -7130.977, 0.0, 10.000344, 9.998719 
8.350206e+2, 2.2528009e+2, -752417.5, -874236.3, -43183.49, 0.031400014, 0.0013536828, -738662.5, -6407.7305, 0.0, 10.000444, 9.998827 
8.350414e+2, 2.3527889e+2, -636386.56, -767842.3, -32547.73, 0.003466997, -0.0022072697, -628769.3, 5497.317, 0.0, 10.000569, 9.998825 
8.3506227e+2, 2.4527757e+2, -544599.3, -731805.6, -23740.518, -0.019806094, 0.014172221, -541635.56, -5354.7275, 0.0, 10.00078, 9.998297 
8.3508325e+2, 2.5527617e+2, -402524.28, -610357.9, -28171.104, -0.03907998, 0.04409801, -398773.47, 39523.902, 0.0, 10.001074, 9.998317 
8.3510417e+2, 2.652746e+2, -293294.88, -493636.9, -44464.617, -0.037516516, 0.053006344, -283869.66, 56443.906, 0.0, 10.001093, 9.998436 
8.351251e+2, 2.7527288e+2, -228613.27, -411837.94, -36953.12, -0.016888345, 0.038447756, -221441.23, 20888.65, 0.0, 10.000864, 9.998435 
8.351463e+2, 2.852712e+2, -130681.18, -352101.84, 738.18005, -0.014910663, 0.045955252, -130678.72, 13667.78, 0.0, 10.001028, 9.998094 
8.351677e+2, 2.9526955e+2, 41738.89, -220166.3, 2280.7588, -0.030133309, 0.069979936, 41758.754, 88122.39, 0.0, 10.001548, 9.998076 
8.351889e+2, 3.0526686e+2, 91757.93, -191719.23, 1313.9503, -0.07013343, 0.004462658, 91764.02, 91764.02, 0.0, 10.001646, 9.99789 
8.3521056e+2, 3.1526566e+2, 176505.83, 54828.996, 1270.3873, -0.047857508, 0.09479083, 176519.1, 176519.1, 0.00000010288848, 10.001342, 9.99973 
8.448113e+2, 1.2526442e+2, -1902500.6, -1798359.0, -88937.51, 0.021994054, 0.010721368, -1747370.4, -34959.906, 0.0, 9.9986925, 10.000052 
8.448349e+2, 1.3526535e+2, -1704461.5, -1586917.0, 30645.861, 0.07259899, 0.040232792, -1579406.9, 34993.53, 0.0, 9.999079, 10.000654 
8.44856e+2, 1.452651e+2, -1645487.4, -1619089.4, -63607.223, -0.0053035486, 0.004004128, -1567326.1, -50923.945, 0.0, 9.999301, 9.999647 
8.4487706e+2, 1.5526456e+2, -1528752.0, -1514131.3, -54741.176, 0.03395396, -0.013960591, -1466214.5, -47807.145, 0.0, 9.999438, 9.999629 
8.4489787e+2, 1.6526395e+2, -1423541.0, -1435888.3, -48332.89, 0.038908917, -0.025943609, -1380989.0, -60577.008, 0.0, 9.999587, 9.999421 
8.449186e+2, 1.7526327e+2, -1303826.1, -1328434.3, -56162.03, 0.018063754, -0.0331993, -1258636.1, -36219.668, 0.0, 9.999741, 9.999412 
8.449391e+2, 1.8526232e+2, -1218454.1, -1287143.4, -78234.39, 0.015022169, -0.044244684, -1167357.6, -42932.703, 0.0, 9.999872, 9.99896 
8.449596e+2, 1.9526108e+2, -1104457.5, -1181126.5, -75838.64, 0.025890984, -0.06368222, -1057815.4, -31378.035, 0.0, 9.99998, 9.998961 
8.4498e+2, 2.0526004e+2, -998134.3, -1110419.3, -70908.85, 0.03252464, -0.04725548, -963833.2, -35384.395, 0.0, 10.000173, 9.998682 
8.4500045e+2, 2.1525916e+2, -859875.9, -991392.75, -62615.516, 0.036725663, -0.002604994, -834833.0, -4373.2983, 0.0, 10.000442, 9.998697 
8.4502107e+2, 2.2525811e+2, -730226.06, -857329.4, -36389.04, 0.025176229, 0.015099651, -720545.4, 11925.602, 0.0, 10.00057, 9.998882 
8.450419e+2, 2.352569e+2, -631893.94, -759330.75, -42742.203, -0.0013982068, 0.0047461377, -618886.0, 15596.705, 0.0, 10.000573, 9.99888 
8.4506285e+2, 2.4525563e+2, -574378.8, -736940.9, -32969.07, -0.019776598, 0.018973386, -567946.9, -31450.555, 0.0, 10.000537, 9.998379 
8.450841e+2, 2.5525433e+2, -485975.1, -641937.7, -23921.783, -0.030887986, 0.05138514, -482388.4, -43876.54, 0.0, 10.0004635, 9.998393 
8.4510505e+2, 2.652528e+2, -353842.53, -522183.66, -40050.176, -0.038144868, 0.05938758, -344799.9, -4272.0674, 0.0, 10.000675, 9.998441 
8.451258e+2, 2.7525106e+2, -186301.17, -390519.56, -46017.047, -0.04163701, 0.04085889, -176411.02, 66133.58, 0.0, 10.001152, 9.998442 
8.451472e+2, 2.8524944e+2, -90971.79, -318751.66, -11728.921, -0.032714806, 0.049801916, -90369.43, 54190.83, 0.0, 10.001241, 9.9982195 
8.451691e+2, 2.9524794e+2, -35605.52, -243390.98, -4168.942, -0.012334053, 0.07982545, -35521.906, 11053.35, 0.0, 10.000957, 9.998201 
8.4519035e+2, 3.0524525e+2, 12147.541, -211993.23, -6339.199, -0.054436035, -0.0022298666, 12326.685, 12326.685, 0.00000000024035085, 10.001022, 9.998051 
8.452117e+2, 3.1524435e+2, 187122.06, 63153.734, -11550.749, -0.07487711, 0.102291495, 188189.13, 188189.13, 0.00000026211356, 10.001402, 9.999758 
8.5481006e+2, 1.2524271e+2, -1929294.4, -1855784.4, -70498.17, 0.02573645, 0.029163258, -1813035.1, -100413.695, 0.0, 9.998699, 9.999656 
8.548337e+2, 1.3524267e+2, -1732570.8, -1645374.0, 43857.9, 0.050155483, 0.0041136863, -1627131.3, -12508.606, 0.0, 9.99908, 10.000254 
8.548553e+2, 1.4524242e+2, -1627959.0, -1583718.3, -59265.633, -0.0107122725, -0.027741067, -1542579.4, -25954.424, 0.0, 9.999304, 9.999889 
8.548767e+2, 1.5524247e+2, -1511534.4, -1480414.3, -49268.605, 0.053562824, -0.006844763, -1444307.0, -25684.063, 0.0, 9.999446, 9.999857 
8.548976e+2, 1.6524199e+2, -1437496.0, -1466227.3, -42768.316, 0.05471248, -0.006792201, -1406745.1, -86118.47, 0.0, 9.999593, 9.99921 
8.5491806e+2, 1.75241e+2, -1317881.5, -1357573.3, -50613.15, -0.00054991985, -0.027001698, -1283362.4, -60726.715, 0.0, 9.99974, 9.999212 
8.549388e+2, 1.8523999e+2, -1215346.9, -1280511.8, -74435.52, -0.005448336, -0.036323123, -1166675.0, -42029.727, 0.0, 9.99987, 9.999006 
8.5495967e+2, 1.9523893e+2, -1101070.6, -1174306.5, -71943.33, 0.03616528, -0.04071281, -1056962.4, -30306.81, 0.0, 9.999981, 9.999009 
8.549803e+2, 2.0523797e+2, -984235.0, -1081685.9, -61268.58, 0.044337593, -0.028905299, -954678.9, -26013.084, 0.0, 10.000173, 9.998879 
8.550007e+2, 2.1523708e+2, -846662.8, -963869.6, -53144.06, 0.021901937, -0.005999936, -826154.6, 4521.39, 0.0, 10.000441, 9.998886 
8.550214e+2, 2.2523597e+2, -742184.1, -882213.94, -36822.93, 0.0072335456, 0.004070608, -733091.44, -403.48514, 0.0, 10.000569, 9.998713 
8.550424e+2, 2.352346e+2, -642699.44, -782100.94, -42761.246, -0.00018928372, -0.0020413834, -630627.8, 4073.8384, 0.0, 10.000574, 9.998724 
8.550635e+2, 2.4523349e+2, -556012.4, -699230.2, -35840.332, -0.010654038, 0.019528517, -547544.0, -10830.037, 0.0, 10.000538, 9.998638 
8.5508454e+2, 2.5523254e+2, -468473.2, -606172.5, -26328.633, -0.023657426, 0.062341228, -463610.75, -24885.541, 0.0, 10.000465, 9.998638 
8.5510564e+2, 2.65231e+2, -366304.75, -547813.6, -22157.389, -0.041545395, 0.06789682, -363639.06, -22897.76, 0.0, 10.000673, 9.998266 
8.5512674e+2, 2.7522898e+2, -198966.73, -414837.88, -28194.12, -0.06449252, 0.03579762, -195345.17, 47416.934, 0.0, 10.001143, 9.99828 
8.551483e+2, 2.8522748e+2, -77589.03, -289192.75, -22039.29, -0.046393137, 0.054581936, -75317.93, 69458.65, 0.0, 10.001232, 9.998427 
8.551703e+2, 2.952265e+2, -20833.361, -213545.95, -14096.215, 0.009636439, 0.11474431, -19807.734, 26978.031, 0.0, 10.000959, 9.998405 
8.551915e+2, 3.0522364e+2, 19390.367, -197154.84, 8282.481, -0.03732896, 0.0019042599, 19706.695, 19706.695, 0.0000000059514194, 10.001022, 9.998153 
8.552127e+2, 3.1522235e+2, 181654.83, 55054.84, 2752.288, -0.10746078, 0.058046427, 181714.63, 181714.63, 0.0000005093443, 10.001388, 9.999709 
8.648091e+2, 1.2522024e+2, -1828904.9, -1806805.5, -102913.72, 0.029533962, 0.023673305, -1714350.0, -1508.5515, 0.00000000000000000000885557, 9.999388, 9.99966 
8.6483276e+2, 1.3522014e+2, -1729473.6, -1646499.3, 36383.684, 0.04670596, -0.0060050287, -1632805.3, -17961.873, 0.0, 9.999114, 10.000228 
8.648545e+2, 1.4521994e+2, -1649648.5, -1598917.4, -55448.74, -0.007871184, -0.0265013, -1563307.8, -46462.46, 0.0, 9.999176, 9.999846 
8.648761e+2, 1.5522006e+2, -1495412.0, -1476975.5, -67388.125, 0.04491146, 0.003302734, -1418178.1, 664.9475, 0.0, 9.999576, 9.999818 
8.648972e+2, 1.6521956e+2, -1413021.0, -1453920.4, -69804.37, 0.046768423, 0.003818123, -1360732.5, -39885.32, 0.0, 9.999758, 9.999216 
8.649179e+2, 1.7521851e+2, -1315414.1, -1355187.6, -60889.25, 0.0027480396, -0.02162684, -1271246.4, -48389.383, 0.0, 9.999752, 9.999223 
8.649387e+2, 1.8521756e+2, -1208012.6, -1270282.9, -71807.02, -0.0042330176, -0.02887609, -1160881.3, -36015.305, 0.0, 9.999892, 9.999065 
8.6495954e+2, 1.9521666e+2, -1071210.8, -1153267.1, -68533.03, 0.023322444, -0.02519696, -1032363.5, -5488.6885, 0.0, 10.000156, 9.999068 
8.6498034e+2, 2.0521572e+2, -967282.4, -1065467.3, -65001.805, 0.030707994, -0.016152792, -934917.44, -6033.0684, 0.0, 10.000254, 9.998952 
8.6500096e+2, 2.1521479e+2, -877456.8, -970499.75, -66521.4, 0.019197533, -0.0052158707, -842803.5, -11908.811, 0.0, 10.000195, 9.99896 
8.6502177e+2, 2.252137e+2, -782128.0, -895624.8, -46134.74, 0.0066153863, 0.002466371, -765740.94, -32834.734, 0.0, 10.000271, 9.998764 
8.6504287e+2, 2.3521246e+2, -654252.06, -781785.44, -36322.203, -0.0066073625, 0.0022537503, -644632.8, -9713.754, 0.0, 10.000469, 9.998776 
8.6506397e+2, 2.452114e+2, -550229.75, -690605.5, -35209.914, -0.015980296, 0.02362643, -541893.25, -4962.4805, 0.0, 10.000553, 9.99869 
8.6508507e+2, 2.5521046e+2, -454780.38, -593735.4, -40987.82, -0.02185522, 0.061012883, -443591.13, -4649.3613, 0.0, 10.000535, 9.99869 
8.6510634e+2, 2.65209e+2, -375216.6, -541828.56, -22193.656, -0.035077445, 0.06547806, -372310.94, -31353.775, 0.0, 10.000569, 9.998357 
8.651277e+2, 2.7520704e+2, -265662.78, -437305.22, -9526.109, -0.054869268, 0.035743132, -265135.72, -22158.81, 0.0, 10.000644, 9.998365 
8.651493e+2, 2.8520563e+2, -142437.83, -322844.44, -13514.405, -0.044878487, 0.057391874, -141431.08, 3559.7703, 0.0, 10.000798, 9.998405 
8.651711e+2, 2.9520464e+2, -12006.337, -211244.89, -22760.701, -0.008486179, 0.12141107, -9439.266, 37560.66, 0.0, 10.001029, 9.998386 
8.651925e+2, 3.0520168e+2, 33643.176, -180884.05, -4226.9297, -0.047563016, -0.004466731, 33726.426, 33726.426, 0.000000027135602, 10.00108, 9.998237 
8.65214e+2, 3.1520048e+2, 108849.43, 10808.461, -11363.328, -0.08883063, 0.05166866, 110149.25, 110149.25, 0.00000083365, 10.000926, 9.999627 
8.748085e+2, 1.2519698e+2, -1796764.9, -1743090.0, -110797.47, 0.028033376, -0.0072719166, -1655926.0, 57144.777, 0.0000000055054987, 9.999398, 10.0000925 
8.7483203e+2, 1.3519777e+2, -1702506.5, -1591150.0, 25487.318, 0.06052182, 0.011655385, -1585593.6, 29468.787, 0.0, 9.999116, 10.0006075 
8.7485373e+2, 1.4519776e+2, -1674112.9, -1650093.6, -40487.7, 0.0011104223, 0.010124408, -1619872.0, -102809.46, 0.0, 9.999177, 9.9994955 
8.748753e+2, 1.5519731e+2, -1518503.3, -1525431.4, -52821.96, 0.006778531, 0.017098954, -1469031.9, -49964.285, 0.0, 9.9995775, 9.999485 
8.748966e+2, 1.6519666e+2, -1395844.0, -1419389.0, -70864.39, 0.014173387, 0.006350294, -1335781.0, -14707.268, 0.0, 9.999762, 9.999452 
8.7491786e+2, 1.7519586e+2, -1298781.9, -1321466.1, -61132.723, 0.0273989, -0.01709321, -1247948.0, -24867.98, 0.0, 9.999755, 9.999454 
8.749387e+2, 1.8519509e+2, -1202866.4, -1259702.9, -62039.05, 0.018156625, -0.022016808, -1163046.5, -37959.676, 0.0, 9.999891, 9.999139 
8.7495935e+2, 1.9519426e+2, -1066030.4, -1142852.1, -59064.875, -0.013441061, -0.017034046, -1033985.2, -6890.473, 0.0, 10.000157, 9.99914 
8.7498015e+2, 2.0519334e+2, -970793.56, -1073212.0, -67807.28, -0.009584491, -0.008765669, -937031.0, -7926.653, 0.0, 10.000256, 9.9988985 
8.750012e+2, 2.1519232e+2, -880530.0, -977309.44, -69133.234, 0.02770767, -0.00027841172, -844533.9, -13418.333, 0.0, 10.0001955, 9.998913 
8.7502223e+2, 2.2519137e+2, -763258.7, -856755.4, -39105.95, 0.02285656, 0.009973201, -749058.8, -15933.218, 0.0, 10.000271, 9.999031 
8.7504315e+2, 2.3519048e+2, -636404.9, -744555.7, -29287.184, -0.02067362, 0.017466431, -628983.25, 6151.48, 0.0, 10.000468, 9.999034 
8.7506425e+2, 2.4518938e+2, -561246.9, -713110.8, -36201.5, -0.0361204, 0.03159309, -553058.6, -15912.0625, 0.0, 10.00055, 9.998536 
8.7508553e+2, 2.5518808e+2, -464574.5, -614309.9, -41368.063, -0.026000677, 0.047916654, -453905.72, -14744.472, 0.0, 10.000535, 9.9985485 
8.75107e+2, 2.651867e+2, -351084.5, -492200.66, -19181.453, -0.019627187, 0.052227214, -348523.7, -7348.4404, 0.0, 10.00057, 9.998697 
8.751287e+2, 2.751853e+2, -242704.2, -389670.1, -6630.3154, -0.016025772, 0.040319495, -242405.69, 783.37933, 0.0, 10.000643, 9.998693 
8.751502e+2, 2.8518388e+2, -160372.63, -359416.8, -4907.4688, -0.03048939, 0.05859679, -160251.7, -15048.616, 0.0, 10.000794, 9.998156 
8.7517154e+2, 2.9518244e+2, -29079.912, -245937.88, -13574.183, -0.06346585, 0.101386435, -28233.541, 18984.0, 0.0, 10.001026, 9.99815 
8.751931e+2, 3.0517942e+2, 38130.797, -170679.98, -8883.778, -0.08294222, -0.021146495, 38508.07, 38508.07, 0.00000006425192, 10.001076, 9.998309 
8.7521553e+2, 3.151787e+2, 101481.84, -3564.7979, -15538.724, -0.027711224, 0.07353628, 103732.16, 103732.16, 0.0000011924308, 10.000922, 9.99953 
8.8480777e+2, 1.251742e+2, -1825111.3, -1753878.8, -94267.5, 0.02905982, -0.0042204633, -1688723.6, 24572.04, 0.00000006865042, 9.999192, 10.000118 
8.8483125e+2, 1.3517515e+2, -1645818.5, -1565440.6, 5496.1494, 0.05547365, 0.034254894, -1565066.5, 50218.81, 0.0, 9.999514, 10.000592 
8.8485307e+2, 1.4517517e+2, -1612648.3, -1620398.3, -56113.348, -0.0008736269, 0.035561062, -1560276.3, -42991.246, 0.0, 9.9995985, 9.999496 
8.848747e+2, 1.5517452e+2, -1526177.1, -1528496.0, -41354.996, -0.0036094617, 0.022229312, -1485965.4, -66673.43, 0.0, 9.999522, 9.999491 
8.8489616e+2, 1.6517386e+2, -1416754.4, -1422782.3, -55956.188, 0.0032577156, 0.008202581, -1363731.0, -42433.13, 0.0, 9.999591, 9.99951 
8.8491756e+2, 1.7517325e+2, -1292401.6, -1312436.9, -60307.44, 0.024389764, -0.003358514, -1241285.5, -17983.045, 0.0, 9.999772, 9.999507 
8.849386e+2, 1.8517251e+2, -1203189.4, -1255069.1, -66541.26, 0.018587943, -0.007620419, -1157710.6, -32401.945, 0.0, 9.999868, 9.999182 
8.849593e+2, 1.9517165e+2, -1101884.0, -1154848.8, -66142.086, -0.015108684, -0.011955826, -1057119.6, -29802.684, 0.0, 9.999889, 9.9991865 
8.849802e+2, 2.0517075e+2, -1005538.3, -1082446.9, -74515.46, -0.011742834, -0.007993159, -960139.8, -30813.594, 0.0, 9.999985, 9.998965 
8.8500136e+2, 2.151698e+2, -883055.75, -971136.4, -66983.984, 0.026994698, 0.0007574852, -846931.25, -15594.77, 0.0, 10.000147, 9.998979 
8.850224e+2, 2.2516891e+2, -776313.06, -861737.9, -42429.098, 0.023294408, 0.013662907, -758821.0, -25475.064, 0.0, 10.000176, 9.9990425 
8.850434e+2, 2.3516807e+2, -691245.0, -769518.56, -52262.25, -0.019851118, 0.0266115, -665089.9, -29734.965, 0.0, 10.000086, 9.999046 
8.8506466e+2, 2.4516702e+2, -602730.44, -716685.7, -53675.063, -0.034202714, 0.037481133, -581429.94, -44063.81, 0.0, 10.0001955, 9.998682 
8.8508606e+2, 2.5516576e+2, -460296.16, -595955.8, -37233.016, -0.022120357, 0.041994203, -450749.1, -11369.42, 0.0, 10.000495, 9.998693 
8.851076e+2, 2.6516446e+2, -344987.7, -486525.63, -21868.49, -0.017452927, 0.044625763, -341685.9, -293.06573, 0.0, 10.0006, 9.998722 
8.851292e+2, 2.7516314e+2, -258216.8, -394313.06, -32551.402, -0.019748429, 0.040996518, -250831.89, -7425.826, 0.0, 10.0005245, 9.998718 
8.851508e+2, 2.851618e+2, -174713.02, -353835.72, -18562.676, -0.038477857, 0.061103452, -172809.58, -27390.225, 0.0, 10.000643, 9.998266 
8.851724e+2, 2.9516044e+2, -35724.18, -236790.05, -1964.1057, -0.072639056, 0.09977628, -35704.996, 11727.898, 0.0, 10.000927, 9.9982605 
8.851942e+2, 3.051575e+2, 31970.104, -162721.4, 566.4872, -0.082307614, -0.02422461, 31971.752, 31971.752, 0.00000010587227, 10.000986, 9.998406 
8.852165e+2, 3.151569e+2, 83242.22, -20220.922, -5140.483, -0.014606621, 0.07652731, 83496.99, 83496.99, 0.0000015115112, 10.000831, 9.99946 
8.9480686e+2, 1.2515198e+2, -1855281.0, -1815435.9, -77476.26, 0.023101583, 0.03689188, -1755361.6, -41846.523, 0.00000033535434, 9.9991865, 9.999699 
8.948305e+2, 1.3515235e+2, -1676445.6, -1630244.9, 16764.28, 0.031008802, 0.06311288, -1624802.9, -9291.142, 0.00000000007521531, 9.999519, 10.000145 
8.948525e+2, 1.451522e+2, -1584833.8, -1565508.0, -60811.164, -0.013395671, 0.050486617, -1513596.8, 3915.921, 0.0, 9.999609, 9.999868 
8.948744e+2, 1.5515174e+2, -1499790.9, -1474347.0, -44408.098, 0.013072725, 0.018243557, -1440874.5, -21358.867, 0.0, 9.999524, 9.999862 
8.948958e+2, 1.6515122e+2, -1426371.4, -1442381.8, -48671.4, 0.013003051, 0.008631628, -1385051.3, -63531.8, 0.0, 9.999588, 9.999377 
8.94917e+2, 1.751507e+2, -1301347.8, -1331387.0, -53513.758, -0.0075609693, 0.020074815, -1260785.8, -37261.887, 0.0, 9.999774, 9.999377 
8.9493823e+2, 1.8514994e+2, -1202139.5, -1253602.3, -66457.516, -0.004698118, 0.015360884, -1156605.9, -31074.627, 0.0, 9.999871, 9.999191 
8.949595e+2, 1.9514887e+2, -1100861.3, -1152883.9, -65842.59, 0.018237611, -0.009828915, -1056078.3, -28536.896, 0.0, 9.999889, 9.999201 
8.949806e+2, 2.0514797e+2, -992376.8, -1055075.0, -69043.625, 0.024802225, -0.014012901, -947898.56, -18348.668, 0.0, 9.999984, 9.999154 
8.950014e+2, 2.1514723e+2, -870325.44, -944827.7, -61637.78, 0.016827248, -0.0022230162, -835556.7, -3999.5771, 0.0, 10.000147, 9.99916 
8.950224e+2, 2.2514635e+2, -793441.56, -897586.4, -46325.195, 0.0068574757, 0.013667993, -775817.8, -42250.824, 0.0, 10.000177, 9.998796 
8.950436e+2, 2.351453e+2, -707485.6, -803902.56, -55480.832, -0.005286115, 0.029900981, -682194.56, -46615.145, 0.0, 10.000088, 9.99881 
8.9506507e+2, 2.4514435e+2, -572086.25, -653536.06, -42420.277, -0.011206148, 0.04128112, -554006.44, -16417.127, 0.0, 10.000197, 9.999116 
8.9508665e+2, 2.5514346e+2, -431073.13, -534747.6, -26142.01, -0.011032912, 0.04283957, -424854.3, 14742.668, 0.0, 10.000492, 9.999116 
8.9510804e+2, 2.6514223e+2, -365335.28, -527905.06, -24827.205, -0.028588964, 0.042716693, -361628.25, -20018.482, 0.0, 10.000596, 9.99844 
8.9512926e+2, 2.751406e+2, -276749.94, -433265.84, -34614.016, -0.06353485, 0.0379259, -269436.66, -25809.086, 0.0, 10.000526, 9.99845 
8.9515114e+2, 2.8513944e+2, -143322.92, -288877.66, -7075.7314, -0.06772707, 0.064461336, -142979.77, 2659.6646, 0.0, 10.000643, 9.9987135 
8.9517367e+2, 2.9513863e+2, -6527.194, -173780.34, 8902.311, -0.041686654, 0.11518157, -6054.6895, 41591.414, 0.0, 10.000916, 9.998699 
8.951954e+2, 3.0513594e+2, 37553.85, -147728.16, -5313.0195, -0.050329242, -0.01460812, 37706.08, 37706.08, 0.00000013409642, 10.000972, 9.998516 
8.9521706e+2, 3.1513515e+2, 79527.016, -27471.975, -10279.296, -0.04593297, 0.05643393, 80505.59, 80505.59, 0.0000016978646, 10.00083, 9.999411 
9.0480614e+2, 1.2512971e+2, -1794761.9, -1796039.9, -66219.27, 0.013358565, 0.07887646, -1729178.5, -15444.122, 0.0000010631732, 9.999641, 9.999615 
9.0483004e+2, 1.3512956e+2, -1657635.4, -1634797.0, 48873.723, 0.022380067, 0.06315826, -1596026.3, 19709.967, 0.000000007369457, 9.999706, 10.000023 
9.0485215e+2, 1.4512931e+2, -1565601.1, -1553735.6, -38258.176, -0.012461287, 0.044266287, -1520952.9, -3214.9314, 0.0, 9.999732, 9.999889 
9.04874e+2, 1.5512908e+2, -1469704.4, -1457762.3, -49478.887, 0.019819388, 0.03344895, -1413895.4, 5843.0474, 0.0, 9.999722, 9.999881 
9.048955e+2, 1.6512859e+2, -1402614.1, -1435990.3, -56031.35, 0.018283581, 0.026708517, -1360838.5, -39096.363, 0.0, 9.999774, 9.999331 
9.0491676e+2, 1.7512786e+2, -1285572.1, -1328342.5, -54714.754, -0.012956816, 0.023470454, -1248211.9, -24463.313, 0.0, 9.999904, 9.999334 
9.0493804e+2, 1.8512705e+2, -1193708.9, -1247222.1, -71130.88, -0.007508973, 0.016571924, -1144468.6, -18712.414, 0.0, 9.99992, 9.99921 
9.049595e+2, 1.951261e+2, -1109884.8, -1155315.5, -69881.586, 0.0317361, 0.001666321, -1059119.4, -31354.076, 0.0, 9.99982, 9.999217 
9.049806e+2, 2.0512527e+2, -1005630.44, -1054347.9, -69786.55, 0.03531273, -0.00054726977, -956073.6, -26300.408, 0.0, 9.999864, 9.999217 
9.0500134e+2, 2.1512455e+2, -880391.75, -942690.6, -72560.24, 0.005397979, 0.0050476314, -832577.44, -797.2878, 0.0, 10.000049, 9.999221 
9.0502244e+2, 2.2512364e+2, -790223.5, -891789.75, -57899.516, -0.004603431, 0.016041575, -763991.8, -30201.963, 0.0, 10.000181, 9.998834 
9.050439e+2, 2.351226e+2, -678847.06, -785799.3, -45985.4, 0.003968518, 0.02868267, -661794.06, -25991.885, 0.0, 10.000266, 9.998847 
9.0506536e+2, 2.4512172e+2, -557189.1, -634133.75, -31827.818, -0.00011786744, 0.03916945, -545730.2, -7919.009, 0.0, 10.000247, 9.999225 
9.050869e+2, 2.5512096e+2, -476876.94, -544806.1, -39866.887, -0.016175946, 0.042726852, -458468.25, -18650.963, 0.0, 10.000126, 9.999223 
9.0510833e+2, 2.651198e+2, -410030.1, -540731.1, -34363.35, -0.037657138, 0.04012712, -401546.16, -59716.938, 0.0, 10.000253, 9.998517 
9.0512985e+2, 2.751182e+2, -259197.2, -416211.4, -18558.797, -0.06430989, 0.02849634, -257033.4, -13186.586, 0.0, 10.00061, 9.998527 
9.051518e+2, 2.851171e+2, -138133.73, -276473.34, 2291.9478, -0.06607068, 0.055438664, -138095.77, 7762.212, 0.0, 10.000636, 9.998801 
9.051742e+2, 2.9511648e+2, -83591.57, -200536.75, -7959.965, -0.044285867, 0.113595724, -83052.25, -35188.81, 0.0, 10.000342, 9.998791 
9.051962e+2, 3.0511394e+2, -21302.361, -148623.88, -22182.041, -0.047574516, -0.012853892, -17548.469, -17548.469, 0.0000001316986, 10.000449, 9.998761 
9.05218e+2, 3.1511328e+2, 98715.15, -8334.2705, -17650.063, -0.033242658, 0.044737622, 101550.17, 101550.17, 0.0000016698094, 10.000917, 9.9995 
9.148056e+2, 1.251075e+2, -1771742.5, -1752554.4, -60883.15, -0.00725321, 0.122767925, -1700514.0, 13438.942, 0.0000026057617, 9.999658, 9.999906 
9.1482973e+2, 1.3510685e+2, -1640576.3, -1599852.5, 50666.53, 0.027947467, 0.032213256, -1565609.4, 50348.438, 0.00000007607973, 9.999708, 10.000263 
9.14852e+2, 1.4510652e+2, -1590985.4, -1606434.3, -37991.613, -0.00013158117, 0.014647641, -1559940.9, -41980.65, 0.0, 9.999731, 9.999529 
9.148737e+2, 1.5510659e+2, -1494324.0, -1509848.8, -49709.965, 0.0158296, 0.06918641, -1451774.0, -31814.24, 0.0, 9.999725, 9.999521 
9.148953e+2, 1.6510595e+2, -1398894.5, -1430064.9, -52133.34, 0.018385062, 0.06499762, -1360066.6, -38101.297, 0.0, 9.999781, 9.99937 
9.149168e+2, 1.7510474e+2, -1282177.9, -1321939.8, -50305.426, 0.008326219, 0.00653526, -1247967.4, -23991.232, 0.0, 9.999905, 9.999378 
9.149381e+2, 1.8510391e+2, -1191802.3, -1243291.9, -75269.46, 0.010514218, -0.005164459, -1137996.5, -12012.864, 0.0, 9.99992, 9.999238 
9.1495925e+2, 1.951034e+2, -1108138.8, -1151911.8, -74024.08, 0.024488186, 0.02209198, -1052833.4, -24844.758, 0.0, 9.99982, 9.999241 
9.1498023e+2, 2.0510268e+2, -1010771.25, -1065170.4, -63440.004, 0.018107835, 0.03257213, -968945.8, -38950.055, 0.0, 9.999864, 9.999143 
9.150012e+2, 2.1510173e+2, -885226.6, -952787.94, -66200.875, -0.00790275, 0.023005968, -844685.75, -12680.589, 0.0, 10.000048, 9.999152 
9.150225e+2, 2.2510083e+2, -768054.75, -845697.56, -55207.484, -0.011166899, 0.021177065, -739385.6, -5371.3843, 0.0, 10.00018, 9.999151 
9.150442e+2, 2.3509999e+2, -657039.06, -740567.75, -43083.242, 0.007898029, 0.02282703, -638799.9, -2776.7295, 0.0, 10.000266, 9.999159 
9.150655e+2, 2.4509914e+2, -571830.5, -664744.25, -36399.76, -0.001215648, 0.03102687, -559268.9, -21237.15, 0.0, 10.000248, 9.999015 
9.150868e+2, 2.5509825e+2, -490698.94, -574318.8, -43986.902, -0.037547134, 0.041687652, -471821.8, -31781.572, 0.0, 10.00013, 9.99902 
9.151085e+2, 2.6509717e+2, -380665.53, -480019.34, -20599.922, -0.04555936, 0.036853805, -376563.72, -34512.8, 0.0, 10.000253, 9.998935 
9.151308e+2, 2.7509582e+2, -231835.22, -357578.06, -5173.408, -0.025767177, 0.012620061, -231622.72, 12441.175, 0.0, 10.000602, 9.998934 
9.151527e+2, 2.850948e+2, -157406.28, -314389.16, -8989.189, -0.03616816, 0.034894023, -156893.22, -10818.245, 0.0, 10.000627, 9.998547 
9.151742e+2, 2.9509392e+2, -100017.664, -235738.4, -18352.232, -0.077241816, 0.09693171, -97579.85, -49495.336, 0.0, 10.000347, 9.998548 
9.1519636e+2, 3.0509162e+2, 5851.3613, -93575.63, -4040.657, -0.0718218, -0.018128095, 6015.3013, 6015.3013, 0.00000009563079, 10.000454, 9.999138 
9.1521937e+2, 3.1509125e+2, 114419.945, 25230.934, 462.5597, 0.014903857, 0.032624654, 114422.34, 114422.34, 0.0000014046396, 10.000913, 9.999733 
9.248054e+2, 1.250845e+2, -1714732.1, -1722279.0, -63805.047, -0.007899279, 0.095167324, -1654589.0, 59588.617, 0.000005355975, 10.000039, 9.9999275 
9.2482936e+2, 1.350842e+2, -1646082.8, -1604466.3, 23342.986, 0.022446482, 0.040931135, -1594003.5, 22176.252, 0.00000033393198, 9.9996805, 10.000243 
9.2485166e+2, 1.4508395e+2, -1605276.8, -1617509.5, -51029.3, -0.004150963, 0.033268224, -1559998.6, -41816.867, 0.0, 9.999653, 9.99949 
9.2487353e+2, 1.5508378e+2, -1460043.8, -1496902.3, -38348.055, 0.01539095, 0.06760576, -1435926.5, -15742.984, 0.0, 9.999978, 9.999487 
9.248952e+2, 1.6508307e+2, -1361198.4, -1414798.0, -37510.113, 0.022049127, 0.058320586, -1341897.9, -19707.97, 0.0, 10.000054, 9.999341 
9.249168e+2, 1.7508192e+2, -1288350.9, -1328226.3, -41327.367, 0.01670816, 0.010111513, -1262403.3, -38203.066, 0.0, 9.999878, 9.999348 
9.24938e+2, 1.8508115e+2, -1194710.3, -1239837.9, -66043.164, 0.013339512, 0.00502957, -1147482.8, -21275.596, 0.0, 9.99988, 9.999281 
9.24959e+2, 1.9508073e+2, -1070207.6, -1128525.0, -64137.984, 0.0111174425, 0.034808293, -1028911.25, -699.8279, 0.0, 10.00006, 9.999285 
9.249801e+2, 2.0507997e+2, -980264.06, -1050817.0, -50845.863, 0.0075020143, 0.040727414, -953655.7, -23436.986, 0.0, 10.000075, 9.999139 
9.2500126e+2, 2.150789e+2, -903405.75, -961924.25, -48490.56, 0.0027389647, 0.020453017, -876030.75, -43801.797, 0.0, 9.999926, 9.999148 
9.2502266e+2, 2.2507805e+2, -805173.25, -855872.5, -42020.24, 0.000168613, 0.018108932, -781448.44, -47210.88, 0.0, 9.999893, 9.999219 
9.250442e+2, 2.3507737e+2, -695289.2, -751537.25, -49154.055, -0.00012674928, 0.028849687, -666782.1, -30537.455, 0.0, 9.999972, 9.999225 
9.2506564e+2, 2.4507649e+2, -594305.25, -679643.0, -46831.645, -0.010262839, 0.034060888, -573619.3, -35365.9, 0.0, 10.000112, 9.998978 
9.2508703e+2, 2.5507542e+2, -466414.38, -566666.3, -42040.008, -0.029937083, 0.029985707, -451118.8, -10854.988, 0.0, 10.000314, 9.998983 
9.251089e+2, 2.6507437e+2, -365938.34, -456031.6, -22285.768, -0.03317341, 0.023032816, -360727.1, -18453.156, 0.0, 10.000281, 9.999085 
9.251311e+2, 2.750733e+2, -306456.06, -376697.94, -26550.76, -0.02060227, 0.008928668, -297549.47, -53265.504, 0.0, 10.000017, 9.9990835 
9.251531e+2, 2.850723e+2, -230914.28, -353111.56, -28510.271, -0.0358378, 0.032761596, -224589.78, -78295.42, 0.0, 10.000136, 9.998516 
9.251746e+2, 2.950714e+2, -61927.414, -220524.28, -22166.252, -0.078565724, 0.088788085, -58887.617, -10582.349, 0.0, 10.000623, 9.998519 
9.2519695e+2, 3.0506912e+2, 63034.617, -67800.45, -10048.367, -0.0698245, -0.0149232345, 63801.85, 63801.85, 0.00000004550982, 10.000855, 9.999122 
9.2522025e+2, 3.1506875e+2, 94645.98, 192.04364, -33278.785, 0.018825494, 0.035375338, 105193.26, 105193.26, 0.0000009683944, 10.000845, 9.999594 
9.348055e+2, 1.2506074e+2, -1733283.5, -1762320.9, -75103.07, 0.0038014622, -0.014444267, -1671308.6, 43099.965, 0.000009813605, 10.000046, 9.99965 
9.348288e+2, 1.3506173e+2, -1667359.9, -1649617.1, 9191.658, 0.004947934, 0.09248525, -1645714.0, -29313.033, 0.0000009955157, 9.999685, 9.99993 
9.3485105e+2, 1.4506167e+2, -1583375.1, -1573587.1, -39636.77, -0.025835825, 0.105464585, -1538543.4, -20141.848, 0.00000000002439963, 9.999659, 9.999789 
9.348735e+2, 1.5506068e+2, -1438356.0, -1452472.3, -26173.854, 0.017363032, 0.027334893, -1418305.3, 2103.7708, 0.0, 9.999979, 9.999792 
9.3489534e+2, 1.6505994e+2, -1368249.5, -1429836.3, -44080.082, 0.028432015, 0.0037812884, -1345272.1, -22856.717, 0.0, 10.000055, 9.999238 
9.3491656e+2, 1.7505947e+2, -1295784.9, -1343982.6, -47933.125, 0.011041252, 0.03437796, -1266233.6, -41813.246, 0.0, 9.999879, 9.999239 
9.349377e+2, 1.8505886e+2, -1191176.8, -1232749.5, -59663.598, -0.00080598536, 0.048600037, -1148782.3, -22356.016, 0.0, 9.99988, 9.99933 
9.349588e+2, 1.950581e+2, -1066145.8, -1120680.1, -57828.9, -0.008685892, 0.04038646, -1029477.94, -1044.565, 0.0, 10.000062, 9.999338 
9.349801e+2, 2.0505719e+2, -975370.25, -1041074.9, -57156.887, 0.0035696498, 0.023915498, -942297.0, -11855.228, 0.0, 10.000076, 9.999206 
9.3500155e+2, 2.1505612e+2, -898824.2, -952687.1, -54695.973, 0.03651024, -0.003223403, -864788.8, -32337.61, 0.0, 9.999927, 9.999212 
9.3502283e+2, 2.250553e+2, -817808.25, -882440.56, -39412.55, 0.028313255, 0.006104093, -799156.94, -64697.51, 0.0, 9.999894, 9.999037 
9.3504393e+2, 2.3505475e+2, -707838.9, -777900.75, -46325.13, -0.020191358, 0.046696786, -684790.7, -48324.2, 0.0, 9.999973, 9.999043 
9.3506557e+2, 2.4505381e+2, -585343.1, -661096.5, -39389.55, -0.027715683, 0.048463464, -568573.8, -30097.865, 0.0, 10.000111, 9.999105 
9.350877e+2, 2.550525e+2, -457804.25, -548461.3, -34353.094, 0.00487096, 0.007617609, -446257.38, -5769.45, 0.0, 10.000312, 9.999109 
9.3510944e+2, 2.6505142e+2, -373537.5, -471632.34, -32230.855, -0.001650514, -0.0014433545, -363895.25, -21397.14, 0.0, 10.00028, 9.99898 
9.3513083e+2, 2.750506e+2, -312810.66, -391225.7, -36148.387, -0.047048032, 0.01713389, -298689.6, -54182.887, 0.0, 10.000023, 9.998982 
9.351529e+2, 2.850497e+2, -217867.38, -326803.7, -10083.432, -0.064310424, 0.048311725, -216941.89, -70426.01, 0.0, 10.000139, 9.998695 
9.351755e+2, 2.950488e+2, -50848.082, -195676.14, -3938.4966, -0.05273111, 0.087204844, -50741.055, -2215.2441, 0.0, 10.000614, 9.998694 
9.3519807e+2, 3.0504653e+2, 34049.703, -125049.36, -10562.393, -0.044994876, -0.005082051, 34747.867, 34747.867, 0.000000010385675, 10.000843, 9.998734 
9.352207e+2, 3.150458e+2, 60257.395, -70584.875, -32041.598, -0.018741203, 0.048813988, 67682.6, 67682.6, 0.00000050425, 10.000842, 9.999108 
9.4480544e+2, 1.2503791e+2, -1750138.9, -1779291.1, -73512.19, -0.0045018555, -0.027798159, -1689771.6, 24860.234, 0.000016619406, 9.999969, 9.999571 
9.448286e+2, 1.3503888e+2, -1611027.4, -1634721.3, 22457.863, -0.00097360474, 0.08780738, -1597483.3, 19141.65, 0.0000023427797, 10.000126, 9.99982 
9.4485086e+2, 1.4503883e+2, -1511616.5, -1533228.4, -20484.824, -0.0328146, 0.10448627, -1499262.3, 19363.277, 0.0000000053592455, 10.000129, 9.999838 
9.4487333e+2, 1.550379e+2, -1433866.1, -1444447.1, -27064.414, 0.0073390435, 0.027071204, -1411580.0, 9052.475, 0.0, 9.999987, 9.999843 
9.448952e+2, 1.650372e+2, -1382929.3, -1430865.1, -55026.457, 0.018161606, 0.0034796146, -1346877.4, -24239.287, 0.0, 9.99993, 9.99929 
9.4491637e+2, 1.7503676e+2, -1280603.9, -1330368.5, -47184.6, 0.002003273, 0.03194718, -1252142.9, -27500.402, 0.0, 9.999958, 9.999293 
9.4493765e+2, 1.8503615e+2, -1185389.5, -1234668.9, -51092.54, -0.003975588, 0.044671178, -1153305.6, -26657.188, 0.0, 9.999942, 9.999286 
9.4495887e+2, 1.9503537e+2, -1096348.8, -1140188.4, -56628.53, -0.0010494196, 0.03724148, -1057545.6, -28889.389, 0.0, 9.999877, 9.999293 
9.4498014e+2, 2.0503443e+2, -994963.7, -1048453.2, -63242.07, 0.015141333, 0.021662552, -953043.75, -22379.1, 0.0, 9.999933, 9.999224 
9.4500166e+2, 2.1503338e+2, -870865.0, -937241.44, -64755.72, 0.04473167, -0.005133741, -831288.1, 1385.4325, 0.0, 10.000111, 9.9992285 
9.450229e+2, 2.2503252e+2, -782813.9, -878460.44, -48260.54, 0.0348799, 0.002999842, -762694.94, -28012.516, 0.0, 10.000191, 9.998921 
9.4504404e+2, 2.3503181e+2, -686219.4, -780640.75, -50574.887, -0.013544348, 0.04135715, -664244.3, -27553.018, 0.0, 10.000178, 9.998925 
9.450657e+2, 2.4503088e+2, -584565.9, -654884.75, -44801.35, -0.020367717, 0.04682382, -562774.94, -24074.076, 0.0, 10.000092, 9.999158 
9.4508785e+2, 2.550297e+2, -510680.28, -568058.2, -45795.668, 0.013247187, 0.015500911, -485329.44, -44618.152, 0.0, 9.999924, 9.999162 
9.451096e+2, 2.6502866e+2, -413420.8, -497192.4, -42727.105, 0.00059193576, 0.007692668, -395473.28, -52751.863, 0.0, 10.000034, 9.998922 
9.4513094e+2, 2.750277e+2, -259049.61, -371619.66, -43418.66, -0.05782995, 0.019653399, -244248.88, 482.4752, 0.0, 10.00042, 9.998925 
9.451531e+2, 2.8502673e+2, -164361.08, -298287.1, -19381.867, -0.06754686, 0.0451154, -161612.52, -14871.369, 0.0, 10.000496, 9.998719 
9.451761e+2, 2.950258e+2, -100787.26, -216782.83, -24860.818, -0.028167335, 0.07933111, -95683.51, -46932.473, 0.0, 10.000259, 9.99872 
9.451988e+2, 3.050237e+2, -25814.258, -151761.03, -15623.88, -0.029619973, 0.0014450942, -23905.035, -23905.035, 0.00000000032400083, 10.0004225, 9.998754 
9.4522125e+2, 3.1502303e+2, 75679.18, -70193.12, -8563.092, -0.052944854, 0.058155462, 76180.13, 76180.13, 0.00000016973306, 10.000979, 9.999045 
9.54805e+2, 1.250162e+2, -1739621.8, -1759925.4, -64812.5, -0.04598387, 0.06448942, -1684170.9, 30675.219, 0.000026449812, 9.999977, 9.999701 
9.548288e+2, 1.3501571e+2, -1603051.6, -1619509.0, 28672.781, 0.004302477, 0.023634022, -1581450.1, 35400.75, 0.0000047469885, 10.000131, 9.999923 
9.548511e+2, 1.4501546e+2, -1527122.8, -1566361.3, -25567.023, -0.024849068, 0.02450829, -1514514.9, 4338.591, 0.000000046136613, 10.000132, 9.999609 
9.548731e+2, 1.550155e+2, -1449711.1, -1477940.0, -32394.354, -0.0156905, 0.06845715, -1428489.9, -7636.983, 0.0, 9.9999895, 9.999612 
9.548948e+2, 1.6501495e+2, -1367835.9, -1400075.1, -54221.395, -0.010743078, 0.060918897, -1327388.8, -4531.4946, 0.0, 9.999931, 9.999501 
9.549162e+2, 1.7501386e+2, -1265152.0, -1298967.0, -46161.44, -0.010997093, 0.0024099313, -1232899.1, -8033.0596, 0.0, 9.99996, 9.999509 
9.5493764e+2, 1.8501306e+2, -1195216.1, -1255590.0, -53999.688, 0.0035087357, -0.008043635, -1163538.6, -36665.117, 0.0, 9.999944, 9.999142 
9.5495903e+2, 1.9501251e+2, -1106619.6, -1161627.8, -59550.24, 0.033646084, 0.024538625, -1068528.6, -39648.98, 0.0, 9.999877, 9.999146 
9.549804e+2, 2.0501176e+2, -997634.2, -1053885.3, -57215.164, 0.041646674, 0.03357111, -962005.3, -31118.256, 0.0, 9.999932, 9.999187 
9.5500153e+2, 2.1501075e+2, -873255.56, -942341.5, -58706.184, 0.02731263, 0.015139067, -839683.7, -6788.08, 0.0, 10.000111, 9.999194 
9.550229e+2, 2.250097e+2, -786406.1, -886212.3, -49349.906, 0.01941749, 0.009527679, -766125.7, -31219.549, 0.0, 10.000191, 9.998868 
9.550445e+2, 2.3500858e+2, -689550.4, -788222.25, -51123.535, 0.018418517, 0.01264109, -667839.5, -30920.795, 0.0, 10.00018, 9.998873 
9.550661e+2, 2.4500772e+2, -586098.56, -658760.25, -51034.508, 0.010669687, 0.028432598, -559784.0, -20856.104, 0.0, 10.000093, 9.99913 
9.550876e+2, 2.550071e+2, -511886.1, -571562.9, -51873.867, -0.0040249424, 0.052861653, -481881.13, -40947.395, 0.0, 9.9999275, 9.999136 
9.5510936e+2, 2.6500604e+2, -414052.16, -499137.34, -28124.053, -0.026015082, 0.049924076, -405596.38, -62652.72, 0.0, 10.000036, 9.998908 
9.5513135e+2, 2.750046e+2, -260618.4, -374009.53, -28649.74, -0.055352222, 0.015877265, -253790.78, -8833.03, 0.0, 10.000415, 9.998912 
9.551538e+2, 2.850034e+2, -174148.67, -317180.94, -28075.4, -0.04829754, 0.022830209, -168835.22, -21865.244, 0.0, 10.000489, 9.998593 
9.5517665e+2, 2.950024e+2, -109170.55, -234799.75, -33082.516, -0.0052999877, 0.06640657, -100991.3, -52010.83, 0.0, 10.00026, 9.998596 
9.551993e+2, 3.0500066e+2, 1260.1934, -94746.766, 5686.836, -0.023796149, 0.0063100755, 1595.8713, 1595.8713, 0.0, 10.00042, 9.999146 
9.552219e+2, 3.1500033e+2, 95984.65, -23547.13, 13399.903, -0.08751232, 0.060159236, 97468.41, 97468.41, 0.000000027453995, 10.00096, 9.999375 
9.648049e+2, 1.249941e+2, -1703938.5, -1736643.5, -44516.63, -0.06379932, 0.098411635, -1672866.0, 42196.984, 0.00003990401, 10.000198, 9.999753 
9.6482885e+2, 1.3499315e+2, -1606021.6, -1618145.3, 39855.387, 0.0027698404, 0.009116712, -1571769.6, 45301.473, 0.000008636752, 10.000101, 9.999945 
9.648511e+2, 1.4499274e+2, -1545575.3, -1589101.6, -16269.577, -0.027856704, -0.00014133609, -1540166.1, -21091.025, 0.00000019058375, 10.000067, 9.999484 
9.6487296e+2, 1.5499297e+2, -1442802.6, -1487904.5, -15533.208, -0.026769543, 0.07335934, -1437970.6, -16896.994, 0.0, 10.000095, 9.999492 
9.648947e+2, 1.6499244e+2, -1343364.6, -1386408.9, -38228.0, -0.019004775, 0.073333845, -1321016.8, 2061.3413, 0.0, 10.0000925, 9.9995165 
9.6491617e+2, 1.7499122e+2, -1249006.1, -1289233.9, -45443.06, -0.0074057262, 0.0010661606, -1219424.5, 5663.0737, 0.0, 10.000064, 9.999525 
9.649377e+2, 1.8499032e+2, -1179738.9, -1257012.8, -58120.652, 0.012098213, -0.017682552, -1148584.5, -21488.525, 0.0, 10.000089, 9.999062 
9.649591e+2, 1.9498965e+2, -1070418.4, -1152937.9, -59134.598, 0.040875107, 0.0113898525, -1039572.2, -10468.914, 0.0, 10.000164, 9.999066 
9.649804e+2, 2.0498887e+2, -968136.3, -1048722.0, -53618.633, 0.045045115, 0.02615981, -941358.5, -10247.517, 0.0, 10.0001745, 9.999105 
9.650016e+2, 2.1498793e+2, -877939.44, -953699.2, -58744.3, 0.024292195, 0.022949962, -845920.94, -12801.692, 0.0, 10.000118, 9.999112 
9.65023e+2, 2.249868e+2, -802002.25, -893582.0, -51935.336, 0.019496312, 0.0149844615, -778553.44, -43423.09, 0.0, 10.000084, 9.998869 
9.6504474e+2, 2.349855e+2, -705548.7, -795551.44, -50162.074, 0.030606858, -0.0017514791, -683160.5, -46016.07, 0.0, 10.00007, 9.998876 
9.650663e+2, 2.449846e+2, -579000.3, -661420.0, -47956.605, 0.018397043, 0.014189619, -556979.75, -17825.928, 0.0, 10.00017, 9.999075 
9.650876e+2, 2.549841e+2, -449423.28, -547563.25, -51216.25, -0.016946532, 0.058702353, -427563.94, 13594.6455, 0.0, 10.000384, 9.999081 
9.651094e+2, 2.649831e+2, -374893.78, -488508.4, -30450.486, -0.03220371, 0.06169236, -367247.22, -24078.35, 0.0, 10.000341, 9.998834 
9.651318e+2, 2.7498147e+2, -321315.84, -411392.53, -35908.477, -0.02737739, 0.019276394, -308753.22, -63568.504, 0.0, 10.000034, 9.998838 
9.651543e+2, 2.849802e+2, -229941.6, -341308.13, -29256.064, -0.023823313, 0.019628998, -222723.8, -75526.1, 0.0, 10.000095, 9.998617 
9.651768e+2, 2.9497918e+2, -68536.99, -212179.56, -23985.117, -0.022262035, 0.058973175, -64637.85, -15430.021, 0.0, 10.000528, 9.998622 
9.651996e+2, 3.0497754e+2, 43788.023, -66494.52, 11907.338, -0.042519584, 0.0058814897, 45059.027, 45059.027, 0.0, 10.000679, 9.999216 
9.652228e+2, 3.149772e+2, 35954.945, -50132.438, -3145.2935, -0.070094414, 0.052039437, 36069.707, 36069.707, 0.00000000015790982, 10.000538, 9.999396 
9.7480506e+2, 1.2497162e+2, -1706274.8, -1741635.9, -45988.277, -0.06399362, 0.06589575, -1674685.4, 40597.05, 0.000057479218, 10.000198, 9.999719 
9.7482884e+2, 1.3497129e+2, -1610863.0, -1628831.9, 36471.3, -0.0075194994, 0.047058046, -1582285.8, 34998.902, 0.000014404859, 10.000103, 9.999871 
9.7485095e+2, 1.4497079e+2, -1546614.0, -1591868.9, -14811.789, -0.044664454, 0.0347312, -1542197.3, -22907.889, 0.0000005546723, 10.000069, 9.999464 
9.748731e+2, 1.5497032e+2, -1443501.8, -1489843.6, -14031.506, -0.02585433, 0.040010724, -1439584.4, -18290.188, 0.0, 10.000096, 9.999478 
9.748949e+2, 1.6496968e+2, -1356556.3, -1414321.9, -39366.156, -0.006175164, 0.037921626, -1336613.8, -13313.615, 0.0, 10.000094, 9.999325 
9.7491646e+2, 1.749689e+2, -1262497.8, -1317773.8, -46664.168, 0.012711298, 0.028474048, -1235901.0, -10594.303, 0.0, 10.000066, 9.999329 
9.7493786e+2, 1.8496795e+2, -1180750.9, -1259618.8, -55803.555, 0.021127257, 0.01697145, -1151854.1, -24538.695, 0.0, 10.00009, 9.999043 
9.74959e+2, 1.949668e+2, -1071030.9, -1155205.5, -56793.953, 0.019872732, -0.0018723148, -1042429.44, -13102.911, 0.0, 10.000168, 9.99905 
9.7498035e+2, 2.049658e+2, -976644.8, -1067205.5, -56591.496, 0.02433012, -0.00040466394, -949448.2, -18112.07, 0.0, 10.000177, 9.998978 
9.7500175e+2, 2.1496496e+2, -886695.75, -972184.44, -61463.13, 0.034695446, 0.017576339, -854574.9, -21230.648, 0.0, 10.000118, 9.998985 
9.7502327e+2, 2.2496389e+2, -798431.3, -886338.9, -53030.125, 0.034511086, 0.018499536, -773507.5, -38152.59, 0.0, 10.000084, 9.9989195 
9.750447e+2, 2.349626e+2, -701850.8, -788220.5, -50877.13, 0.023483992, -0.0014488358, -678301.75, -40933.67, 0.0, 10.000071, 9.998925 
9.7506624e+2, 2.4496159e+2, -584701.4, -673664.2, -40058.586, 0.0029170841, 0.004962249, -569322.25, -29943.934, 0.0, 10.000171, 9.998991 
9.750878e+2, 2.5496086e+2, -455268.0, -559831.0, -42936.566, -0.027064903, 0.033261776, -439896.66, 1488.9932, 0.0, 10.000383, 9.998997 
9.7510993e+2, 2.6495978e+2, -384549.3, -508651.4, -41697.348, -0.02009994, 0.04260833, -371840.72, -28443.838, 0.0, 10.000341, 9.998695 
9.751324e+2, 2.7495834e+2, -329914.78, -430911.38, -46938.824, 0.024140364, 0.029518804, -311468.7, -66056.64, 0.0, 10.000041, 9.998701 
9.7515464e+2, 2.8495708e+2, -218183.75, -318118.88, -12902.934, 0.004973843, 0.035508737, -216544.69, -69120.51, 0.0, 10.000099, 9.9987755 
9.7517675e+2, 2.949561e+2, -58287.414, -189193.27, -7498.8, -0.07833326, 0.05590396, -57859.254, -8425.8955, 0.0, 10.00052, 9.998785 
9.751998e+2, 3.0495435e+2, 25482.246, -101175.43, 6832.923, -0.086747475, -0.0012834725, 25849.8, 25849.8, 0.0, 10.000664, 9.998985 
9.752239e+2, 3.1495363e+2, 15805.696, -90045.84, -6917.777, -0.008894021, 0.02841628, 16255.884, 16255.884, 0.0, 10.000528, 9.999127 
9.8480517e+2, 1.2494894e+2, -1730824.6, -1757116.0, -60591.293, -0.059278794, 0.039722566, -1681969.4, 33533.906, 0.00007951568, 10.000046, 9.999686 
9.848288e+2, 1.3494882e+2, -1607644.8, -1633526.4, 20291.793, -0.01451672, 0.04556395, -1596518.5, 20985.547, 0.000022398126, 10.000154, 9.999814 
9.8485094e+2, 1.4494829e+2, -1528049.0, -1578386.6, -28238.53, -0.05669669, 0.0317375, -1515390.8, 4118.0205, 0.0000013019285, 10.000177, 9.999504 
9.8487324e+2, 1.5494764e+2, -1436219.0, -1481221.8, -23467.422, -0.020607302, 0.014973089, -1426208.3, -4693.331, 0.0, 10.000126, 9.999523 
9.848951e+2, 1.6494696e+2, -1355587.6, -1433834.9, -43017.06, 0.0019403088, 0.016405009, -1336563.8, -13042.2, 0.0, 10.000188, 9.9991455 
9.849166e+2, 1.749463e+2, -1233374.9, -1323591.9, -49495.8, 0.009373779, 0.034920204, -1211516.1, 14012.357, 0.0, 10.000352, 9.99915 
9.8493797e+2, 1.849453e+2, -1139963.1, -1241026.8, -60331.754, 0.0122016985, 0.030432735, -1111796.9, 15740.914, 0.0, 10.000375, 9.999034 
9.849592e+2, 1.9494401e+2, -1057921.3, -1149814.3, -60887.258, 0.010363856, -0.0019540188, -1027589.7, 1959.877, 0.0, 10.000262, 9.999042 
9.849805e+2, 2.0494288e+2, -971768.7, -1073421.6, -57115.418, 0.019009471, -0.00851444, -946139.3, -14579.133, 0.0, 10.000248, 9.9989 
9.8500204e+2, 2.1494193e+2, -860460.75, -967956.8, -58513.01, 0.038462345, 0.0063839355, -834756.75, -1187.1039, 0.0, 10.000336, 9.998909 
9.850235e+2, 2.2494085e+2, -760168.94, -869305.1, -52310.957, 0.038652726, 0.010381275, -739145.25, -3564.9124, 0.0, 10.000354, 9.998905 
9.8504484e+2, 2.3493965e+2, -669684.1, -774245.4, -55511.914, 0.019223329, 0.000022233098, -645709.6, -8117.38, 0.0, 10.000299, 9.998911 
9.850664e+2, 2.4493857e+2, -584472.0, -684268.3, -44399.2, 0.0020009794, 0.0041159787, -567578.56, -27975.38, 0.0, 10.000219, 9.998895 
9.8508817e+2, 2.549376e+2, -501655.03, -592680.94, -48772.105, -0.013191162, 0.017893633, -480458.56, -38845.277, 0.0, 10.000112, 9.998902 
9.851103e+2, 2.6493642e+2, -410898.97, -531141.25, -48178.402, -0.0057750563, 0.02954452, -393976.56, -50351.01, 0.0, 10.000204, 9.998607 
9.8513263e+2, 2.749351e+2, -268991.53, -411286.34, -50384.383, 0.024362665, 0.035960414, -252957.88, -7317.9175, 0.0, 10.000504, 9.998612 
9.851549e+2, 2.8493384e+2, -159783.86, -295179.97, -19530.729, 0.0026417917, 0.045945853, -157022.88, -9370.41, 0.0, 10.0005245, 9.998728 
9.8517716e+2, 2.9493263e+2, -100448.53, -214709.22, -29414.107, -0.07045469, 0.054232024, -93321.06, -43657.91, 0.0, 10.000254, 9.998737 
9.8520035e+2, 3.0493093e+2, -32509.35, -124821.59, -12992.131, -0.07727729, 0.00014571873, -30715.674, -30715.674, 0.0, 10.000248, 9.9990225 
9.8522437e+2, 3.149302e+2, 14200.185, -89597.51, -8000.33, -0.009874957, 0.02386348, 14813.198, 14813.198, 0.0, 10.000513, 9.999137 
9.9480516e+2, 1.2492611e+2, -1733366.3, -1762012.5, -54600.855, -0.061498266, 0.01834105, -1691241.1, 24484.19, 0.00010622788, 10.000043, 9.999654 
9.94829e+2, 1.3492572e+2, -1610902.5, -1640197.4, 24395.523, -0.017430622, 0.0019886382, -1597094.9, 20634.086, 0.00003292342, 10.000152, 9.999769 
9.94851e+2, 1.4492522e+2, -1521027.0, -1563817.5, -30448.61, -0.0632434, -0.012182491, -1505208.4, 14525.028, 0.0000026281716, 10.000176, 9.999604 
9.948734e+2, 1.5492494e+2, -1429036.5, -1466828.4, -25406.191, -0.0123138195, -0.0016829914, -1416269.6, 5465.8394, 0.00000000019976186, 10.000127, 9.999621 
9.948953e+2, 1.6492432e+2, -1366937.4, -1458057.3, -37038.805, 0.0037810914, 0.009254089, -1353781.3, -30039.28, 0.0, 10.000189, 9.99898 
9.949167e+2, 1.749234e+2, -1244039.1, -1347081.9, -43601.44, -0.018677779, 0.019759417, -1228065.8, -2313.3235, 0.0, 10.000356, 9.998987 
9.949381e+2, 1.849224e+2, -1139655.1, -1241417.0, -65395.527, -0.016381605, 0.022017403, -1107678.1, 20084.346, 0.0, 10.00038, 9.999029 
9.949594e+2, 1.9492131e+2, -1057917.4, -1150225.3, -65864.836, 0.0119829085, 0.010767231, -1023645.2, 6126.7993, 0.0, 10.000263, 9.999038 
9.949808e+2, 2.0492016e+2, -973725.9, -1077603.5, -54687.23, 0.02919952, 0.0015639616, -950243.6, -18460.814, 0.0, 10.000248, 9.998873 
9.950023e+2, 2.149189e+2, -862230.7, -971974.3, -55863.34, 0.035123676, -0.010049074, -838797.75, -5002.648, 0.0, 10.000337, 9.998881 
9.950237e+2, 2.2491774e+2, -765520.9, -880961.3, -54963.58, 0.03104463, -0.008639529, -743537.75, -7731.333, 0.0, 10.000355, 9.998825 
9.950451e+2, 2.3491667e+2, -674828.3, -785620.3, -57782.473, 0.016865252, 0.0018337158, -650177.25, -12360.532, 0.0, 10.000301, 9.998833 
9.950667e+2, 2.4491553e+2, -591876.06, -700401.7, -48466.285, 0.014443618, 0.01046556, -573382.9, -33554.62, 0.0, 10.000222, 9.998783 
9.950887e+2, 2.5491434e+2, -508579.7, -608446.94, -52436.066, 0.023605032, 0.012577502, -486105.38, -44264.227, 0.0, 10.000116, 9.998792 
9.9511063e+2, 2.6491308e+2, -413763.7, -538309.44, -36786.21, 0.010459427, 0.023239914, -403709.97, -59855.445, 0.0, 10.000209, 9.998556 
9.9513257e+2, 2.749118e+2, -272763.6, -418622.5, -38603.273, -0.02579644, 0.038880453, -263176.88, -17308.555, 0.0, 10.0005, 9.998564 
9.951551e+2, 2.849104e+2, -177318.75, -330830.66, -28680.049, -0.03160139, 0.050359827, -172135.56, -24253.098, 0.0, 10.00052, 9.998485 
9.951781e+2, 2.949089e+2, -116413.04, -249616.53, -38028.41, -0.0046025016, 0.053503815, -106320.9, -56424.004, 0.0, 10.00026, 9.998494 
9.952011e+2, 3.0490732e+2, -12836.133, -85030.92, -2067.1294, -0.018744664, 0.009878768, -12776.994, -12776.994, 0.0, 10.000252, 9.999294 
9.9522424e+2, 3.1490687e+2, 29578.969, -53579.453, 3589.8093, -0.07067202, 0.03237582, 29733.648, 29733.648, 0.0, 10.000495, 9.999393 
1.0048053e+3, 1.2490315e+2, -1708337.1, -1739551.4, -62313.6, -0.06338096, -0.0019067166, -1659706.0, 56243.336, 0.00013782152, 10.000169, 9.999748 
1.004829e+3, 1.3490283e+2, -1619849.9, -1634283.5, 25553.701, -0.017429316, -0.0189733, -1600513.5, 17438.256, 0.000046236724, 10.000047, 9.999861 
1.0048511e+3, 1.4490236e+2, -1537370.1, -1585310.1, -27690.273, -0.07152154, -0.030440146, -1524716.1, -4760.0166, 0.00000474816, 10.000122, 9.999483 
1.0048735e+3, 1.5490206e+2, -1400674.8, -1466900.9, -40029.1, -0.021647613, -0.009636906, -1381837.8, 40121.297, 0.000000004412824, 10.0003805, 9.999498 
1.0048955e+3, 1.6490139e+2, -1337768.9, -1444188.1, -58575.94, -0.0037623036, 0.0038696968, -1311843.1, 12123.182, 0.0, 10.00039, 9.998978 
1.0049169e+3, 1.7490043e+2, -1273119.5, -1360937.8, -52990.92, -0.023715818, 0.009273869, -1248209.8, -22232.209, 0.0, 10.000156, 9.998989 
1.00493826e+3, 1.8489948e+2, -1169052.6, -1253632.8, -63457.496, -0.021245956, 0.015947646, -1135084.6, -7097.5605, 0.0, 10.000169, 9.999046 
1.00495964e+3, 1.9489855e+2, -1031922.8, -1135633.1, -62497.555, 0.006124838, 0.018234571, -1002569.0, 27425.945, 0.0, 10.000433, 9.999057 
1.0049812e+3, 2.0489737e+2, -946224.75, -1077870.1, -57545.79, 0.025297886, 0.012661937, -924616.6, 7389.4717, 0.0, 10.000496, 9.99875 
1.0050026e+3, 2.1489593e+2, -868264.1, -988718.7, -66411.29, 0.035650596, -0.00485592, -838837.7, -4817.07, 0.0, 10.000356, 9.998757 
1.0050241e+3, 2.2489467e+2, -765329.4, -877207.25, -62854.78, 0.033736493, -0.00930218, -737126.25, -1093.4132, 0.0, 10.000341, 9.998857 
1.0050455e+3, 2.3489358e+2, -649242.94, -769117.1, -57619.06, 0.019141607, -0.0056400676, -626039.1, 12003.586, 0.0, 10.00046, 9.998868 
1.00506715e+3, 2.4489239e+2, -561358.2, -701639.75, -49408.902, 0.018678768, 0.004735369, -545702.9, -5648.3413, 0.0, 10.000502, 9.998638 
1.005089e+3, 2.5489116e+2, -468555.16, -605251.44, -56511.438, 0.032487713, 0.01836632, -448218.38, -6149.9395, 0.0, 10.000463, 9.998646 
1.005111e+3, 2.6488987e+2, -382264.16, -523627.22, -33407.242, 0.0151653495, 0.031288054, -374766.9, -30684.342, 0.0, 10.000428, 9.99855 
1.00513294e+3, 2.748885e+2, -288339.3, -426391.5, -32245.03, -0.034146965, 0.03884188, -281179.16, -35082.23, 0.0, 10.000395, 9.998561 
1.00515544e+3, 2.8488702e+2, -193332.02, -345090.3, -21267.74, -0.037191376, 0.04666367, -190407.86, -42296.06, 0.0, 10.00044, 9.998425 
1.0051786e+3, 2.948855e+2, -75681.1, -236159.2, -18365.838, 0.00829128, 0.05164289, -73606.06, -23479.045, 0.0, 10.000568, 9.998437 
1.0052016e+3, 3.0488408e+2, 21629.447, -71671.305, 14776.315, -0.012508594, 0.027463902, 23913.691, 23913.691, 0.0, 10.000504, 9.999265 
1.0052243e+3, 3.1488374e+2, -12628.465, -79079.14, -1361.8151, -0.09781701, 0.065782785, -12600.567, -12600.567, 0.0, 10.000228, 9.999346 
1.0148053e+3, 1.2488007e+2, -1692345.5, -1705476.9, -66450.445, -0.07623518, -0.025319196, -1632137.1, 84038.305, 0.00017450533, 10.000165, 9.999985 
1.01482905e+3, 1.3488024e+2, -1603571.8, -1599943.5, 20895.836, -0.016950209, -0.01626989, -1580783.1, 37388.547, 0.000062540406, 10.000044, 10.000098 
1.0148511e+3, 1.4487976e+2, -1562181.5, -1636724.3, -17690.275, -0.08370509, -0.02187056, -1558196.4, -38020.047, 0.000007860604, 10.000121, 9.999132 
1.0148736e+3, 1.5487905e+2, -1424950.0, -1518268.4, -30454.398, -0.049580805, -0.008342361, -1415890.8, 6294.5723, 0.000000028517778, 10.000383, 9.9991455 
1.01489566e+3, 1.6487823e+2, -1325761.4, -1420250.0, -68231.76, -0.02182811, 0.00021290316, -1290014.1, 34180.246, 0.0, 10.000394, 9.99914 
1.0149172e+3, 1.748774e+2, -1261337.0, -1336626.9, -62329.633, -0.0058170673, 0.0032758776, -1226166.3, 36.95967, 0.0, 10.000156, 9.999156 
1.0149386e+3, 1.8487659e+2, -1166528.4, -1248241.3, -54230.305, -0.0018505659, 0.011901871, -1139486.5, -11275.505, 0.0, 10.000168, 9.999084 
1.01495996e+3, 1.9487576e+2, -1028870.8, -1129748.3, -53021.02, -0.008114302, 0.020748783, -1006129.6, 24088.285, 0.0, 10.000434, 9.999097 
1.0149814e+3, 2.0487459e+2, -961525.0, -1110297.9, -63595.637, 0.0056439117, 0.025240075, -938045.5, -5815.9883, 0.0, 10.000499, 9.998527 
1.015003e+3, 2.1487306e+2, -883996.44, -1021672.25, -72408.4, 0.03948013, 0.021296129, -852926.25, -18680.322, 0.0, 10.000356, 9.99853 
1.01502456e+3, 2.2487167e+2, -755310.44, -856647.75, -59196.063, 0.046535872, 0.00768756, -728059.4, 8199.963, 0.0, 10.000341, 9.998998 
1.01504594e+3, 2.3487037e+2, -638592.75, -747630.75, -53320.816, 0.025771897, -0.021619588, -616852.75, 21417.031, 0.0, 10.000462, 9.999016 
1.01506755e+3, 2.4486919e+2, -573663.0, -727992.2, -50902.83, 0.014407826, -0.011877455, -558385.9, -18104.223, 0.0, 10.0005045, 9.998456 
1.0150893e+3, 2.548681e+2, -481313.6, -632165.94, -57626.016, 0.013183136, 0.035008512, -461819.47, -19524.508, 0.0, 10.0004635, 9.998461 
1.0151113e+3, 2.6486677e+2, -379717.16, -518658.97, -33979.59, 0.0074195126, 0.052865434, -371852.3, -27542.715, 0.0, 10.000428, 9.998585 
1.0151336e+3, 2.7486518e+2, -285067.72, -420441.1, -32411.326, -0.0037519163, 0.035469387, -277707.88, -31382.23, 0.0, 10.000398, 9.998601 
1.0151561e+3, 2.848637e+2, -186366.3, -330838.97, -15872.875, -0.016478816, 0.035233088, -184642.94, -36302.51, 0.0, 10.00044, 9.998523 
1.0151788e+3, 2.9486236e+2, -69994.37, -222160.72, -12686.852, -0.029762667, 0.04978639, -68943.85, -18590.16, 0.0, 10.000559, 9.998539 
1.0152016e+3, 3.0486116e+2, -1681.5294, -117223.91, 5994.081, -0.056956705, 0.05339902, -1371.4022, -1371.4022, 0.0, 10.00049, 9.998958 
1.01522446e+3, 3.1486073e+2, -36362.848, -126884.33, -8753.445, -0.0980917, 0.117153265, -35524.16, -35524.16, 0.0, 10.000221, 9.999021 
1.02480546e+3, 1.248573e+2, -1708876.4, -1722580.6, -51677.39, -0.07845424, -0.024977962, -1663598.9, 52799.535, 0.0002164286, 10.000092, 9.999902 
1.0248292e+3, 1.348575e+2, -1544283.8, -1581213.4, 9854.063, -0.02088321, -0.005965522, -1541818.9, 76575.914, 0.00008198819, 10.000493, 10.00001 
1.0248512e+3, 1.4485694e+2, -1506173.6, -1612199.1, -35326.895, -0.096425675, -0.011968624, -1495481.3, 24919.03, 0.000012107449, 10.000516, 9.999109 
1.0248738e+3, 1.5485615e+2, -1461898.4, -1538404.9, -23474.389, -0.059395075, -0.004702891, -1455270.0, -32859.887, 0.00000009714164, 10.00014, 9.999125 
1.0248959e+3, 1.6485535e+2, -1358467.8, -1429661.0, -47159.043, -0.028110765, 0.0026035244, -1334978.9, -10559.892, 0.0, 10.000142, 9.999197 
1.0249175e+3, 1.748546e+2, -1202210.4, -1301896.1, -49683.246, -0.0066908407, 0.009022814, -1181677.6, 44748.746, 0.0, 10.000535, 9.999212 
1.024939e+3, 1.8485373e+2, -1107494.1, -1228622.5, -52224.84, -0.0006652118, 0.013659451, -1088086.8, 40347.785, 0.0, 10.000611, 9.999004 
1.02496035e+3, 1.9485271e+2, -1044199.25, -1145950.8, -60580.355, -0.009859167, 0.010789008, -1015965.44, 14478.302, 0.0, 10.000368, 9.999017 
1.0249818e+3, 2.0485152e+2, -979947.3, -1113229.8, -64511.39, 0.00014552956, 0.01502901, -953837.44, -21381.908, 0.0, 10.000347, 9.998579 
1.0250033e+3, 2.1485017e+2, -849886.5, -999174.0, -52029.41, 0.029581834, 0.022361733, -833542.6, 927.31995, 0.0, 10.000565, 9.998585 
1.0250249e+3, 2.2484878e+2, -724946.44, -855374.4, -39625.563, 0.03940822, 0.01234746, -713851.56, 22631.898, 0.0, 10.000609, 9.998877 
1.0250464e+3, 2.3484732e+2, -645543.25, -764620.94, -54695.902, 0.028645352, -0.020284534, -624233.4, 14262.555, 0.0, 10.000475, 9.998892 
1.025068e+3, 2.4484608e+2, -576542.7, -727217.75, -53382.113, 0.017064506, -0.011609436, -559547.2, -19038.56, 0.0, 10.000476, 9.998474 
1.0250897e+3, 2.5484502e+2, -457308.34, -618162.44, -45366.195, 0.0048330724, 0.035956003, -445395.8, -2874.2817, 0.0, 10.000619, 9.998482 
1.0251117e+3, 2.648437e+2, -360987.53, -511966.66, -23415.152, 0.00053191866, 0.055606354, -357439.5, -12903.473, 0.0, 10.000568, 9.998562 
1.025134e+3, 2.7484214e+2, -298796.94, -429021.56, -26996.78, 0.0036788376, 0.04132164, -293422.1, -46869.984, 0.0, 10.000314, 9.998581 
1.0251565e+3, 2.848407e+2, -210740.44, -337735.2, -4882.369, -0.011575288, 0.043914996, -210553.0, -61986.4, 0.0, 10.000253, 9.998565 
1.0251791e+3, 2.948394e+2, -90469.91, -227365.06, -5963.16, -0.04451353, 0.06029139, -90210.65, -39631.31, 0.0, 10.000398, 9.99858 
1.02520175e+3, 3.0483827e+2, -24615.207, -123131.77, 6893.7866, -0.07179383, 0.068804696, -24135.146, -24135.146, 0.0, 10.00031, 9.999003 
1.0252246e+3, 3.1483784e+2, -70632.45, -139465.75, 16800.908, -0.09460197, 0.12405703, -66750.586, -66750.586, 0.0, 9.999969, 9.999056 
1.0348054e+3, 1.2483494e+2, -1740722.8, -1786564.4, -35956.32, -0.07994006, 0.00032245324, -1721003.0, -4385.8203, 0.0002637313, 10.000083, 9.999466 
1.0348296e+3, 1.3483463e+2, -1574108.9, -1644019.3, 25100.83, -0.029312884, 0.012394678, -1566030.1, 52590.383, 0.00010469639, 10.000497, 9.999577 
1.0348516e+3, 1.4483395e+2, -1483033.9, -1565585.3, -49971.95, -0.10969192, -0.00086614233, -1459495.4, 61132.09, 0.000017566988, 10.000522, 9.999428 
1.0348739e+3, 1.5483342e+2, -1439217.4, -1491196.9, -37908.17, -0.051502008, 0.0014798542, -1419245.3, 3387.8555, 0.00000023822265, 10.000139, 9.99945 
1.034896e+3, 1.6483279e+2, -1362469.3, -1437514.0, -32664.088, -0.022870969, 0.011024855, -1350243.6, -25604.14, 0.0, 10.000139, 9.999145 
1.03491776e+3, 1.7483208e+2, -1205660.0, -1309757.8, -34906.348, -0.027696636, 0.026904594, -1195038.9, 31607.486, 0.0, 10.000537, 9.999157 
1.0349394e+3, 1.8483098e+2, -1121595.3, -1258928.1, -62096.656, -0.020149944, 0.021598015, -1097681.6, 30975.51, 0.0, 10.000615, 9.9987955 
1.0349608e+3, 1.9482943e+2, -1058840.5, -1176646.6, -70590.0, 0.0008226359, -0.011713605, -1025806.0, 4866.0015, 0.0, 10.000368, 9.998806 
1.0349822e+3, 2.048282e+2, -956857.75, -1065296.3, -57467.152, 0.009570504, -0.018277619, -932069.44, 614.41254, 0.0, 10.000346, 9.998909 
1.03500366e+3, 2.1482728e+2, -826074.56, -949901.4, -44429.938, 0.0054272646, -0.0012842673, -811782.4, 22910.04, 0.0, 10.000565, 9.998922 
1.0350253e+3, 2.2482604e+2, -751806.4, -911675.4, -45103.734, 0.011114846, 0.005478062, -739959.2, -3254.5396, 0.0, 10.00061, 9.99849 
1.0350469e+3, 2.3482443e+2, -673238.2, -822648.2, -59906.37, 0.027073937, -0.0022618824, -652185.1, -13464.3545, 0.0, 10.000476, 9.998493 
1.0350686e+3, 2.4482305e+2, -561747.5, -696774.3, -48031.832, 0.025944185, 0.0045652455, -546404.9, -5669.6797, 0.0, 10.000477, 9.998684 
1.0350903e+3, 2.5482193e+2, -441678.72, -586086.25, -39484.047, 0.006439029, 0.021446034, -431588.03, 11159.924, 0.0, 10.000619, 9.998702 
1.0351122e+3, 2.6482067e+2, -366610.66, -524071.97, -32368.693, -0.0063069025, 0.040402964, -360216.4, -15454.787, 0.0, 10.000569, 9.998479 
1.0351341e+3, 2.7481934e+2, -304321.63, -441409.4, -35857.36, -0.01161735, 0.05742956, -295509.13, -48732.977, 0.0, 10.000317, 9.998494 
1.0351566e+3, 2.8481796e+2, -211079.88, -339244.38, 1340.2723, -0.022739114, 0.07292956, -211065.86, -62275.594, 0.0, 10.000255, 9.998554 
1.0351794e+3, 2.948166e+2, -91216.56, -228610.38, 1147.911, -0.0392995, 0.0814416, -91206.98, -40402.99, 0.0, 10.000396, 9.998573 
1.03520215e+3, 3.0481547e+2, -412.10934, -71915.195, -4691.3257, -0.06104752, 0.07325989, -105.62462, -105.62462, 0.0, 10.000305, 9.999358 
1.03522465e+3, 3.14815e+2, -46541.844, -88305.17, 4825.7627, -0.08958229, 0.09003401, -45991.48, -45991.48, 0.0, 9.999963, 9.999411 
1.0448056e+3, 1.2481209e+2, -1707457.1, -1775681.8, -59362.77, -0.086220965, 0.018158032, -1673103.5, 43737.813, 0.00031664252, 10.000332, 9.999422 
1.0448299e+3, 1.3481152e+2, -1620194.1, -1669759.0, 31530.725, -0.026824852, 0.008252445, -1604872.3, 13975.106, 0.00013079311, 10.0001955, 9.999545 
1.0448519e+3, 1.4481084e+2, -1508778.4, -1567376.9, -41758.1, -0.11200398, -0.009726063, -1487066.0, 33788.316, 0.000024312307, 10.0002985, 9.999522 
1.0448743e+3, 1.5481055e+2, -1358686.8, -1441604.5, -47855.03, -0.053879637, 0.008563872, -1336829.4, 86027.49, 0.0000004785213, 10.000645, 9.999546 
1.0448964e+3, 1.6480997e+2, -1289882.9, -1407239.1, -48819.87, -0.025798198, 0.0209043, -1272229.5, 52633.14, 0.0, 10.000659, 9.999102 
1.0449181e+3, 1.7480911e+2, -1239869.0, -1330835.0, -50680.082, -0.033302665, 0.02523684, -1217255.3, 9615.959, 0.0, 10.000323, 9.999115 
1.0449397e+3, 1.8480794e+2, -1175038.5, -1285760.8, -71424.26, -0.025895987, 0.0149068525, -1140032.1, -11149.345, 0.0, 10.000255, 9.998784 
1.0449612e+3, 1.948064e+2, -1043596.9, -1170667.1, -64766.082, -0.0018890197, -0.016324665, -1016405.2, 14492.464, 0.0, 10.00048, 9.998794 
1.0449827e+3, 2.0480518e+2, -920989.9, -1044589.44, -51092.137, 0.008393427, -0.022183977, -902604.75, 30304.568, 0.0, 10.000579, 9.998938 
1.0450041e+3, 2.1480429e+2, -826349.6, -946385.9, -61883.734, 0.0037768611, -0.005509276, -800160.0, 34757.676, 0.0, 10.000548, 9.998954 
1.0450257e+3, 2.2480309e+2, -757278.06, -910208.44, -64060.08, 0.0060753133, 0.00298416, -733990.5, 2938.9863, 0.0, 10.000556, 9.998526 
1.0450473e+3, 2.3480156e+2, -652051.75, -808358.44, -46701.465, 0.015277238, -0.0014034925, -639161.3, -216.34178, 0.0, 10.000604, 9.998529 
1.04506895e+3, 2.4480021e+2, -554502.9, -692674.0, -25552.785, 0.016108958, 0.0069158203, -549928.7, -8969.494, 0.0, 10.0005245, 9.998688 
1.04509085e+3, 2.547991e+2, -486539.6, -607105.9, -33714.957, 0.007688254, 0.02425574, -477752.1, -34779.992, 0.0, 10.000309, 9.998706 
1.0451127e+3, 2.6479787e+2, -389967.94, -533116.25, -26953.668, -0.0059449184, 0.044264063, -385061.0, -40075.402, 0.0, 10.000401, 9.998498 
1.0451345e+3, 2.7479655e+2, -229781.2, -403430.72, -22969.973, -0.024564652, 0.06226103, -226794.16, 20205.47, 0.0, 10.000819, 9.998513 
1.045157e+3, 2.847952e+2, -144459.0, -312220.47, 4415.493, -0.03319955, 0.08046434, -144342.86, 4670.842, 0.0, 10.000734, 9.9985075 
1.0451798e+3, 2.9479384e+2, -136188.56, -254819.89, 608.6527, -0.030796891, 0.09401422, -136185.45, -85157.734, 0.0, 10.000108, 9.99853 
1.04520224e+3, 3.0479267e+2, -66235.375, -97544.44, -12086.466, -0.05185093, 0.08062329, -62112.47, -62112.47, 0.0, 9.999828, 9.999411 
1.0452244e+3, 3.1479204e+2, -48215.37, -84207.11, -24354.465, -0.09956468, 0.07586298, -35929.375, -35929.375, 0.0, 9.99993, 9.999454 
1.0548057e+3, 1.2478875e+2, -1680412.4, -1720438.3, -64830.754, -0.10602853, 0.02591446, -1632575.9, 84494.984, 0.0003754383, 10.000335, 9.9998 
1.0548303e+3, 1.3478823e+2, -1593092.6, -1612528.1, 25968.164, -0.014265723, -0.019599019, -1575083.5, 43991.25, 0.00016041061, 10.000191, 9.999941 
1.0548523e+3, 1.4478764e+2, -1519243.4, -1587953.4, -28409.81, -0.10433428, -0.040115263, -1509018.4, 12061.771, 0.000032450233, 10.000294, 9.999384 
1.0548747e+3, 1.547876e+2, -1368305.0, -1462511.9, -34739.832, -0.067501515, 0.01588561, -1356879.9, 66201.336, 0.0000008393984, 10.0006485, 9.999401 
1.05489686e+3, 1.6478695e+2, -1291827.4, -1412654.1, -61968.14, -0.038595274, 0.03232538, -1265697.0, 59391.03, 0.0, 10.000664, 9.999063 
1.0549185e+3, 1.7478575e+2, -1242415.0, -1336291.8, -64005.703, -0.02353308, 0.004130013, -1209981.3, 17119.27, 0.0, 10.000323, 9.999078 
1.0549401e+3, 1.8478464e+2, -1161968.6, -1258306.4, -64037.86, -0.017430453, -0.0067028543, -1130005.8, -894.4917, 0.0, 10.000253, 9.998974 
1.05496146e+3, 1.9478364e+2, -1030021.1, -1142550.9, -56673.97, -0.01895955, -0.0033167652, -1006425.6, 24694.572, 0.0, 10.000479, 9.998986 
1.0549831e+3, 2.047825e+2, -940581.9, -1085584.9, -52802.508, -0.0054281247, 0.0036086286, -923391.8, 9739.662, 0.0, 10.00058, 9.998656 
1.0550049e+3, 2.1478122e+2, -846481.06, -988501.2, -63653.03, 0.023930779, 0.009642387, -822127.94, 13017.396, 0.0, 10.000549, 9.998665 
1.0550265e+3, 2.2477995e+2, -725411.4, -844365.56, -62981.855, 0.024178246, 0.004639255, -698261.5, 38896.15, 0.0, 10.000557, 9.998979 
1.0550476e+3, 2.3477872e+2, -618856.44, -739849.06, -45100.58, -0.0067617847, -0.017287659, -603895.06, 35273.188, 0.0, 10.000605, 9.999 
1.0550692e+3, 2.4477758e+2, -568125.7, -721568.5, -33457.41, -0.01287163, -0.0037485831, -561147.75, -19967.537, 0.0, 10.000526, 9.998489 
1.0550911e+3, 2.5477654e+2, -500890.63, -637910.6, -41330.902, 0.00787221, 0.044459842, -489388.97, -46195.34, 0.0, 10.000313, 9.998493 
1.055113e+3, 2.647753e+2, -381843.38, -516743.7, -11048.064, 0.00085636304, 0.06682027, -380944.53, -35736.8, 0.0, 10.0004015, 9.9986105 
1.0551353e+3, 2.747738e+2, -222066.45, -386218.0, -6223.677, -0.036681026, 0.055409845, -221830.83, 25391.713, 0.0, 10.0008135, 9.998635 
1.05515756e+3, 2.847724e+2, -151617.98, -325628.72, -17825.506, -0.0448228, 0.06681551, -149810.72, -573.85846, 0.0, 10.000728, 9.99842 
1.0551799e+3, 2.9477116e+2, -142263.69, -267943.75, -22041.742, -0.019439332, 0.100395076, -138510.11, -87259.79, 0.0, 10.000109, 9.99844 
1.0552021e+3, 3.0476987e+2, -80601.11, -128895.44, -7662.215, -0.044036247, 0.09276183, -79414.59, -79414.59, 0.0, 9.999834, 9.999193 
1.055224e+3, 3.1476894e+2, -63418.574, -116723.734, -18326.152, -0.126833, 0.08197886, -57726.016, -57726.016, 0.0, 9.999934, 9.999229 
1.0648061e+3, 1.2476527e+2, -1620949.0, -1689637.1, -52313.027, -0.10370977, -0.0003372194, -1592713.8, 124587.29, 0.00044023, 10.000736, 9.999817 
1.0648307e+3, 1.3476513e+2, -1523167.1, -1574647.0, 10530.101, -0.0165449, -0.008982396, -1521096.5, 98204.55, 0.0001936281, 10.000653, 9.999978 
1.06485255e+3, 1.447646e+2, -1488022.3, -1575903.3, -45715.063, -0.11454144, -0.02562426, -1468554.3, 52751.656, 0.00004209593, 10.000522, 9.999355 
1.0648753e+3, 1.5476424e+2, -1416801.9, -1489226.8, -43940.523, -0.06679599, 0.0022097344, -1396074.8, 27235.072, 0.0000013547506, 10.000332, 9.999369 
1.0648973e+3, 1.6476354e+2, -1345734.0, -1436186.9, -71663.02, -0.037416283, 0.012069495, -1306219.5, 19097.92, 0.0, 10.000285, 9.999083 
1.0649187e+3, 1.7476252e+2, -1229255.6, -1327656.9, -69614.23, -0.033099696, 0.0012492186, -1193210.5, 34118.133, 0.0, 10.000404, 9.999098 
1.0649403e+3, 1.8476157e+2, -1121849.1, -1225575.4, -61294.004, -0.027267817, 0.0012644895, -1093420.6, 35917.12, 0.0, 10.000471, 9.999093 
1.0649619e+3, 1.9476074e+2, -1020989.2, -1124247.1, -59589.26, -0.018257488, 0.007917363, -993773.8, 37570.906, 0.0, 10.000483, 9.99911 
1.0649835e+3, 2.0475963e+2, -965577.4, -1102350.6, -56729.035, -0.003708095, 0.0138015095, -945110.7, -11754.952, 0.0, 10.000429, 9.998613 
1.0650052e+3, 2.1475825e+2, -884305.0, -1012191.2, -49347.934, 0.015907628, 0.014237322, -867477.25, -32105.943, 0.0, 10.000313, 9.998615 
1.06502675e+3, 2.2475703e+2, -754114.7, -838377.25, -44884.84, 0.0155712925, 0.00828199, -734685.5, 2697.6294, 0.0, 10.000275, 9.999155 
1.0650481e+3, 2.3475602e+2, -647064.5, -732819.2, -49141.574, -0.0059183976, -0.009266746, -624724.0, 14666.865, 0.0, 10.000323, 9.999184 
1.0650696e+3, 2.4475498e+2, -577927.4, -725643.0, -43107.004, -0.013901817, 0.004641902, -566268.0, -24866.385, 0.0, 10.000456, 9.998495 
1.06509134e+3, 2.5475392e+2, -447206.13, -611695.56, -35516.47, -0.0076499227, 0.04817753, -439865.03, 3550.518, 0.0, 10.00068, 9.998496 
1.0651134e+3, 2.6475263e+2, -346289.4, -495021.34, 897.46295, -0.010771949, 0.06699041, -346283.97, -854.104, 0.0, 10.000626, 9.998651 
1.0651359e+3, 2.7475116e+2, -298390.28, -417887.34, -322.20206, -0.024325082, 0.053879324, -298389.4, -50944.94, 0.0, 10.000268, 9.998679 
1.0651581e+3, 2.847498e+2, -235591.44, -367442.72, -21062.828, -0.03401553, 0.066943504, -232308.45, -82849.96, 0.0, 10.000157, 9.998406 
1.0651799e+3, 2.947486e+2, -111978.78, -255108.16, -20298.172, -0.038578033, 0.10586225, -109155.836, -57684.242, 0.0, 10.000324, 9.998425 
1.06520206e+3, 3.0474722e+2, -24985.887, -110666.39, 4988.4893, -0.05892449, 0.09310959, -24696.424, -24696.424, 0.0, 10.000253, 9.999117 
1.06522426e+3, 3.147462e+2, -70085.86, -127605.75, 3524.5183, -0.09942378, 0.07938135, -69870.7, -69870.7, 0.0, 9.999923, 9.999159 
1.0748071e+3, 1.24741666e+2, -1647262.1, -1744446.3, -55207.453, -0.08541669, -0.0639824, -1622307.9, 95223.27, 0.00051082077, 10.000737, 9.99944 
1.07483104e+3, 1.3474233e+2, -1546542.3, -1624525.1, 7194.7813, -0.034578893, 0.041634027, -1545884.0, 73641.47, 0.00023041679, 10.000659, 9.999633 
1.0748528e+3, 1.4474177e+2, -1482207.9, -1564496.3, -53350.43, -0.14446887, 0.036716282, -1455979.1, 65551.87, 0.000053336094, 10.0005245, 9.999433 
1.07487574e+3, 1.5474053e+2, -1411365.3, -1477345.3, -51614.12, -0.052441373, -0.03227041, -1383098.8, 40443.594, 0.0000020676762, 10.000329, 9.999453 
1.0748977e+3, 1.6473971e+2, -1340729.1, -1425027.8, -67782.2, -0.02228094, -0.0413535, -1303060.0, 22490.707, 0.0000000000166348, 10.000281, 9.999162 
1.0749188e+3, 1.7473945e+2, -1223593.1, -1316198.3, -65144.53, -0.062970616, 0.016053943, -1189972.4, 37582.7, 0.0, 10.000404, 9.999176 
1.0749404e+3, 1.8473881e+2, -1118875.6, -1219702.6, -61531.53, -0.057665043, 0.039267227, -1089742.6, 39819.023, 0.0, 10.000471, 9.999133 
1.07496254e+3, 1.9473773e+2, -1017929.75, -1118197.8, -59792.137, -0.0001162453, 0.0181624, -990034.8, 41535.9, 0.0, 10.0004835, 9.999151 
1.07498415e+3, 2.047366e+2, -951420.25, -1073732.0, -61964.31, 0.013977784, 0.008564979, -925515.1, 8066.6523, 0.0, 10.000432, 9.99881 
1.07500516e+3, 2.147354e+2, -870246.4, -983482.2, -54309.004, -0.020585593, 0.0080993725, -848410.1, -12814.959, 0.0, 10.000315, 9.998813 
1.0750266e+3, 2.2473435e+2, -761009.06, -852936.5, -43684.484, -0.02102798, 0.013853786, -743561.44, -5955.853, 0.0, 10.000275, 9.999055 
1.0750486e+3, 2.347335e+2, -654480.3, -748524.7, -47376.816, 0.016671522, 0.02213033, -634751.9, 4860.736, 0.0, 10.000323, 9.999076 
1.0750703e+3, 2.4473245e+2, -564020.8, -696688.56, -34781.258, 0.012164955, 0.03159197, -555455.3, -13832.111, 0.0, 10.000455, 9.998695 
1.07509166e+3, 2.5473118e+2, -432962.2, -581352.94, -26654.598, -0.039060004, 0.03586403, -428319.63, 15318.026, 0.0, 10.000676, 9.998707 
1.0751138e+3, 2.6472992e+2, -348827.44, -499486.0, -11669.737, -0.041267697, 0.045595475, -347928.88, -2277.1133, 0.0, 10.000622, 9.998623 
1.07513644e+3, 2.7472866e+2, -300820.75, -423033.94, -12996.985, 0.010926302, 0.0579562, -299453.84, -51788.613, 0.0, 10.000268, 9.998645 
1.0751586e+3, 2.8472742e+2, -231418.27, -359034.5, -14642.215, -0.002008384, 0.08060754, -229759.81, -80081.305, 0.0, 10.000158, 9.998465 
1.0751798e+3, 2.947262e+2, -108071.54, -246909.8, -12765.928, -0.08740024, 0.10959953, -106907.49, -55215.96, 0.0, 10.000322, 9.998482 
1.0752019e+3, 3.0472466e+2, -22479.584, -105170.01, -5745.1846, -0.096960954, 0.08096849, -22082.328, -22082.328, 0.0, 10.000251, 9.999156 
1.0752249e+3, 3.147238e+2, -66418.59, -119720.555, -7503.85, -0.023325156, 0.0745867, -65382.35, -65382.35, 0.0, 9.999921, 9.999214 
1.0848079e+3, 1.2471865e+2, -1642186.8, -1751974.4, -65674.44, -0.08655008, -0.053339332, -1611485.8, 106271.83, 0.0005868495, 10.000817, 9.999349 
1.0848319e+3, 1.3471928e+2, -1526369.9, -1621127.5, 17840.844, -0.028029172, 0.055518508, -1523122.1, 96630.3, 0.00027068684, 10.000826, 9.999575 
1.08485326e+3, 1.447187e+2, -1452716.1, -1542927.3, -38920.1, -0.14826424, 0.046753373, -1438245.9, 83512.25, 0.00006622561, 10.000697, 9.999496 
1.084876e+3, 1.5471748e+2, -1393925.3, -1461795.5, -39680.27, -0.05509878, -0.02729807, -1375648.1, 48120.62, 0.000003027, 10.00042, 9.999515 
1.08489804e+3, 1.6471668e+2, -1329646.9, -1416405.8, -44676.867, -0.024156153, -0.0385466, -1310754.3, 15022.306, 0.000000000186287, 10.000343, 9.99919 
1.0849192e+3, 1.7471644e+2, -1209515.0, -1306141.6, -45908.28, -0.06432613, 0.019704448, -1191181.9, 36598.855, 0.0, 10.000489, 9.999203 
1.0849408e+3, 1.8471584e+2, -1118402.9, -1211250.5, -52207.508, -0.06086793, 0.04180457, -1094964.0, 34822.92, 0.0, 10.000441, 9.999206 
1.0849628e+3, 1.9471481e+2, -1056495.1, -1128848.6, -48352.62, -0.008381804, 0.017250486, -1032283.7, -488.22006, 0.0, 10.000184, 9.999222 
1.08498424e+3, 2.0471373e+2, -984730.7, -1079201.3, -46425.35, 0.0040700696, 0.006097176, -965735.44, -31929.625, 0.0, 10.000157, 9.998904 
1.0850054e+3, 2.1471263e+2, -852649.8, -964125.8, -46846.49, -0.028400801, 0.0063045337, -835577.7, 240.2916, 0.0, 10.000389, 9.998909 
1.08502686e+3, 2.2471164e+2, -739316.44, -844060.8, -41524.45, -0.026425224, 0.013026343, -724852.06, 12975.753, 0.0, 10.000431, 9.999041 
1.08504884e+3, 2.3471078e+2, -664685.7, -755164.3, -38845.473, 0.013268884, 0.022402136, -650296.44, -10461.253, 0.0, 10.000261, 9.99906 
1.0850705e+3, 2.4470973e+2, -599326.0, -702589.3, -20426.541, 0.011506309, 0.02751156, -595432.25, -53586.58, 0.0, 10.000165, 9.998794 
1.0850921e+3, 2.5470847e+2, -502271.8, -603268.56, -20672.502, -0.03586653, 0.021740105, -498204.28, -54344.555, 0.0, 10.000151, 9.99881 
1.0851141e+3, 2.647073e+2, -412679.4, -526060.4, -17067.912, -0.04151487, 0.035093144, -410165.8, -64292.88, 0.0, 10.000166, 9.998659 
1.0851366e+3, 2.747063e+2, -306109.5, -421702.16, -13937.109, -0.0012326152, 0.06663599, -304452.8, -56567.953, 0.0, 10.000215, 9.998679 
1.0851586e+3, 2.8470516e+2, -209691.1, -334620.25, -2129.2043, -0.012045253, 0.092696376, -209654.83, -59757.69, 0.0, 10.000247, 9.998589 
1.0851802e+3, 2.947039e+2, -107523.77, -232073.14, 4681.29, -0.07880436, 0.106362656, -107348.07, -55438.34, 0.0, 10.000265, 9.9986105 
1.08520225e+3, 3.0470237e+2, -39045.953, -107013.56, -559.99146, -0.08207045, 0.06594188, -39041.34, -39041.34, 0.0, 10.000111, 9.99921 
1.0852248e+3, 3.147018e+2, -82798.15, -119487.4, -2737.6624, -0.016391182, 0.08488065, -82595.0, -82595.0, 0.0, 9.999773, 9.999287 
1.09480835e+3, 1.2469632e+2, -1628018.9, -1721525.3, -64626.89, -0.113177426, 0.036574718, -1595006.9, 122972.6, 0.00066827383, 10.000813, 9.999559 
1.094833e+3, 1.3469607e+2, -1509398.6, -1585801.1, 18359.219, 0.0026911516, 0.03174517, -1505215.9, 114765.07, 0.00031450897, 10.000825, 9.999818 
1.09485425e+3, 1.446954e+2, -1449297.3, -1536160.9, -48895.633, -0.12527339, 0.0010097969, -1427329.5, 94657.07, 0.000080840386, 10.000698, 9.999543 
1.0948762e+3, 1.5469511e+2, -1390938.1, -1456502.5, -49931.984, -0.075534716, 0.017557219, -1363988.6, 59999.824, 0.0000043066148, 10.0004225, 9.99955 
1.0948982e+3, 1.6469449e+2, -1331503.3, -1420397.3, -39839.64, -0.045007695, 0.022712383, -1316261.6, 9732.891, 0.0000000006358386, 10.000344, 9.999163 
1.09492004e+3, 1.7469355e+2, -1211586.6, -1310716.9, -40587.21, -0.037368696, 0.012892999, -1197089.1, 30915.713, 0.0, 10.00049, 9.999171 
1.0949414e+3, 1.8469271e+2, -1110955.9, -1196485.8, -62246.46, -0.03663305, 0.008122676, -1078199.6, 51813.41, 0.0, 10.0004425, 9.999307 
1.0949625e+3, 1.9469199e+2, -1049149.8, -1113785.1, -58549.56, -0.043528922, 0.0044138823, -1014590.75, 17427.973, 0.0, 10.000184, 9.999326 
1.09498404e+3, 2.0469108e+2, -985931.3, -1081404.1, -38883.555, -0.034958214, 0.0061284015, -972099.1, -38071.73, 0.0, 10.000155, 9.99889 
1.09500594e+3, 2.1469e+2, -853667.6, -966524.06, -38648.02, -0.00849648, 0.008866259, -841701.3, -5662.0757, 0.0, 10.000389, 9.998893 
1.09502755e+3, 2.2468893e+2, -734064.94, -833658.94, -48198.418, -0.0011121227, 0.006093176, -714559.5, 23490.105, 0.0, 10.000432, 9.999112 
1.09504886e+3, 2.3468792e+2, -659088.2, -744048.1, -45370.785, -0.015859405, -0.007693068, -639414.7, 643.58734, 0.0, 10.000262, 9.999136 
1.0950705e+3, 2.4468687e+2, -599215.2, -702862.06, -21061.17, -0.016261188, -0.0068682586, -595099.0, -53030.12, 0.0, 10.000167, 9.998792 
1.0950927e+3, 2.546858e+2, -502648.75, -604189.8, -20675.977, -0.00012750686, 0.0056093307, -498600.1, -54518.51, 0.0, 10.000151, 9.998804 
1.0951145e+3, 2.6468483e+2, -406293.03, -512652.16, -14766.623, -0.012851264, 0.034987956, -404280.94, -58187.74, 0.0, 10.000164, 9.998753 
1.09513626e+3, 2.74684e+2, -299115.9, -407454.16, -11254.9, -0.05870424, 0.079608195, -297959.03, -49855.727, 0.0, 10.000216, 9.998776 
1.0951583e+3, 2.8468302e+2, -196927.66, -308020.1, -796.1097, -0.062845014, 0.103498556, -196921.95, -46807.688, 0.0, 10.000246, 9.998773 
1.095181e+3, 2.9468173e+2, -95233.445, -205043.7, 6251.6074, -0.018013207, 0.097126916, -94878.69, -42752.504, 0.0, 10.0002575, 9.9988 
1.095203e+3, 3.0468026e+2, -34692.574, -97077.125, -12655.054, -0.018457547, 0.04804755, -32223.176, -32223.176, 0.0, 10.000106, 9.999281 
1.095224e+3, 3.146802e+2, -74705.09, -105167.38, -14881.961, -0.07433101, 0.11100993, -68641.625, -68641.625, 0.0, 9.999783, 9.999381 
1.10480934e+3, 1.2467378e+2, -1569734.8, -1692226.4, -39207.78, -0.116359614, 0.06644694, -1558259.9, 159941.66, 0.00075577793, 10.001206, 9.999572 
1.1048337e+3, 1.3467331e+2, -1525364.9, -1588639.4, 25266.36, 0.0116340695, 0.03599495, -1516513.9, 103690.74, 0.00036234639, 10.000693, 9.999863 
1.1048547e+3, 1.4467257e+2, -1477053.0, -1552870.1, -44010.348, -0.12890773, -0.002735157, -1456875.6, 65334.945, 0.00009737699, 10.000523, 9.999513 
1.1048767e+3, 1.5467244e+2, -1347902.6, -1439613.0, -50846.9, -0.07762534, 0.033944782, -1325288.1, 98923.23, 0.0000060098255, 10.000736, 9.999515 
1.1048985e+3, 1.6467184e+2, -1283941.9, -1389187.8, -43864.18, -0.044149585, 0.03857367, -1268057.6, 58159.418, 0.0000000015512864, 10.000637, 9.999235 
1.1049203e+3, 1.7467073e+2, -1249696.9, -1320691.8, -36907.24, -0.033065457, 0.0046408703, -1233986.8, -5758.755, 0.0, 10.000194, 9.999246 
1.10494174e+3, 1.8466988e+2, -1162343.1, -1221005.3, -51891.35, -0.03464385, -0.005993942, -1132066.9, -1830.7336, 0.0, 10.000089, 9.999309 
1.10496275e+3, 1.9466929e+2, -1021586.4, -1100179.8, -56166.52, -0.050105095, 0.0051495642, -992334.5, 39906.652, 0.0, 10.000374, 9.999328 
1.1049843e+3, 2.0466849e+2, -949894.9, -1053235.8, -39079.426, -0.039558563, 0.009777438, -936780.8, -2531.7842, 0.0, 10.000358, 9.998986 
1.10500626e+3, 2.1466738e+2, -903716.7, -979739.8, -30358.266, 0.00021197731, 0.0015496595, -893081.5, -56821.254, 0.0, 9.999999, 9.99899 
1.1050278e+3, 2.2466633e+2, -805814.8, -868699.75, -33880.355, 0.0064723594, -0.0064430563, -791034.94, -52764.414, 0.0, 9.999943, 9.999107 
1.10504895e+3, 2.3466532e+2, -664519.0, -747570.2, -37823.785, -0.025333451, -0.018771758, -649875.1, -9595.531, 0.0, 10.00023, 9.999127 
1.10507056e+3, 2.4466434e+2, -576839.3, -685089.4, -21005.998, -0.027650256, -0.012245824, -572906.0, -30616.418, 0.0, 10.000291, 9.998854 
1.1050928e+3, 2.546634e+2, -506319.78, -598728.6, -16178.388, 0.0029731777, 0.010678415, -503569.25, -59268.72, 0.0, 10.000095, 9.998868 
1.1051146e+3, 2.646625e+2, -415372.28, -511284.22, -1020.7334, -0.010007494, 0.038123585, -415361.4, -69049.74, 0.0, 10.000078, 9.998803 
1.1051362e+3, 2.746616e+2, -288133.63, -396466.2, -952.68665, -0.07216774, 0.06680692, -288125.25, -39802.465, 0.0, 10.000267, 9.998827 
1.1051583e+3, 2.8466067e+2, -197431.47, -295613.7, -5958.6455, -0.07604211, 0.091500655, -197071.16, -46738.305, 0.0, 10.000189, 9.998885 
1.10518105e+3, 2.946597e+2, -152637.83, -220001.92, -4901.247, -0.012767816, 0.104929954, -152283.1, -99941.36, 0.0, 9.999809, 9.998914 
1.105203e+3, 3.0465817e+2, -84758.445, -125338.48, -22638.3, -0.007320108, 0.0462032, -74648.17, -74648.17, 0.0, 9.999782, 9.999242 
1.105224e+3, 3.14658e+2, -17593.494, -77227.945, -33034.16, -0.06950943, 0.10387775, -2909.9028, -2909.9028, 0.0, 10.000175, 9.999383 
1.1148107e+3, 1.24650985e+2, -1583073.1, -1719946.1, -54131.37, -0.09665065, 0.024702229, -1564252.8, 154171.36, 0.00085057894, 10.001206, 9.999381 
1.1148343e+3, 1.346511e+2, -1537077.8, -1612939.4, 5939.5483, -0.0032424973, 0.0690207, -1536615.5, 83806.81, 0.00041499882, 10.000692, 9.999697 
1.11485496e+3, 1.446503e+2, -1485397.5, -1569486.0, -36860.77, -0.16160172, 0.037856624, -1471527.3, 50902.242, 0.00011616446, 10.000519, 9.999401 
1.1148775e+3, 1.5464953e+2, -1355667.3, -1456225.4, -42847.203, -0.06192001, 0.021272058, -1339886.8, 84550.04, 0.000008247579, 10.000737, 9.999399 
1.11489944e+3, 1.6464876e+2, -1271276.8, -1363919.1, -60554.26, -0.021599455, 0.0070328657, -1241358.4, 85085.414, 0.0000000033697685, 10.00064, 9.999407 
1.1149203e+3, 1.7464805e+2, -1236815.1, -1294103.0, -54043.93, -0.052322667, -0.005596851, -1204293.5, 24156.344, 0.0, 10.000193, 9.999429 
1.11494154e+3, 1.8464738e+2, -1169908.5, -1236070.8, -42619.395, -0.05641425, -0.00029199084, -1149038.0, -18582.049, 0.0, 10.000086, 9.9992075 
1.1149633e+3, 1.9464679e+2, -1028933.9, -1116170.4, -45912.406, -0.028743893, 0.01971088, -1009223.6, 23238.611, 0.0, 10.000376, 9.999217 
1.1149849e+3, 2.0464595e+2, -934816.56, -1023156.7, -52741.68, -0.010037666, 0.017124264, -910192.2, 24278.215, 0.0, 10.000361, 9.99919 
1.1150062e+3, 2.146448e+2, -888415.25, -948316.1, -44471.402, -0.0023479832, -0.015684655, -864749.1, -28268.443, 0.0, 10.0, 9.999207 
1.1150276e+3, 2.246438e+2, -812184.6, -881728.1, -24385.795, -0.004250198, -0.02486084, -804485.9, -65995.625, 0.0, 9.999941, 9.999019 
1.1150492e+3, 2.3464295e+2, -671669.94, -762053.6, -27114.822, -0.016243998, -0.011328341, -664159.6, -23660.76, 0.0, 10.000228, 9.999029 
1.11507095e+3, 2.4464215e+2, -568704.1, -667727.94, -27724.18, -0.023534669, 0.010616021, -561470.5, -18962.861, 0.0, 10.000288, 9.998975 
1.11509256e+3, 2.5464138e+2, -497154.9, -580134.4, -23082.773, -0.025648693, 0.036319632, -491166.1, -46649.633, 0.0, 10.000096, 9.998995 
1.1151145e+3, 2.6464036e+2, -414536.34, -509920.1, 5912.0693, -0.032554906, 0.04444872, -414171.3, -67643.05, 0.0, 10.000079, 9.998812 
1.11513674e+3, 2.74639e+2, -289225.88, -396749.0, 6999.608, -0.045462646, 0.029201657, -288772.13, -40228.977, 0.0, 10.0002575, 9.99883 
1.1151588e+3, 2.8463817e+2, -195480.8, -289662.88, -18746.35, -0.05481449, 0.05768083, -191886.61, -41333.91, 0.0, 10.00018, 9.99893 
1.1151804e+3, 2.946378e+2, -148426.86, -213092.34, -18014.713, -0.05900411, 0.12922277, -143746.95, -91190.73, 0.0, 9.999816, 9.998958 
1.1152024e+3, 3.0463612e+2, -93970.6, -146905.92, -7753.8003, -0.045208115, 0.060248498, -92858.23, -92858.23, 0.0, 9.999791, 9.99909 
1.1152247e+3, 3.146353e+2, -25409.441, -91366.586, -16350.5, -0.010415999, 0.072345674, -21578.707, -21578.707, 0.0, 10.000165, 9.999291 
1.1248119e+3, 1.2462859e+2, -1579068.9, -1737772.8, -52216.543, -0.10478371, 0.013204041, -1563429.9, 155213.08, 0.00095378526, 10.001321, 9.999204 
1.1248353e+3, 1.3462856e+2, -1479747.9, -1602746.1, 2968.8674, 0.0052680518, 0.06108231, -1479676.3, 140966.47, 0.00047316175, 10.001163, 9.999539 
1.1248556e+3, 1.446277e+2, -1428788.1, -1540816.6, -25075.244, -0.16271602, 0.02994238, -1423431.8, 99219.28, 0.00013752929, 10.000902, 9.999413 
1.1248783e+3, 1.5462707e+2, -1385632.0, -1469200.8, -21381.016, -0.058357943, 0.026054453, -1380479.4, 44177.676, 0.00001111389, 10.000525, 9.999413 
1.12490006e+3, 1.6462632e+2, -1306079.9, -1381455.6, -42411.773, -0.017668605, 0.012857711, -1287030.4, 39633.523, 0.0000000061074554, 10.000404, 9.9994 
1.1249206e+3, 1.7462547e+2, -1180886.3, -1267962.3, -50852.156, -0.051907256, -0.013012294, -1157480.3, 71190.836, 0.0, 10.000582, 9.999421 
1.1249419e+3, 1.8462484e+2, -1109687.3, -1202212.8, -38632.785, -0.05397599, -0.007883237, -1095677.9, 34999.227, 0.0, 10.00048, 9.999249 
1.1249636e+3, 1.9462442e+2, -1072459.3, -1132290.9, -30387.428, -0.019049658, 0.027181404, -1059733.0, -27051.41, 0.0, 10.000056, 9.999261 
1.12498514e+3, 2.0462364e+2, -1000600.0, -1055780.9, -39463.027, -0.0021291424, 0.029266806, -980038.94, -45349.805, 0.0, 9.999915, 9.999182 
1.1250061e+3, 2.1462242e+2, -873768.9, -942288.2, -48794.94, -0.0063339574, -0.010994483, -848407.5, -11707.175, 0.0, 10.000106, 9.999196 
1.1250276e+3, 2.246214e+2, -787454.75, -864812.94, -29116.023, -0.007821164, -0.02400157, -777720.9, -39010.87, 0.0, 10.00009, 9.999063 
1.1250493e+3, 2.346206e+2, -725871.9, -782517.56, -21446.129, -0.005805559, -0.00979272, -718668.4, -77950.49, 0.0, 9.999832, 9.999079 
1.1250709e+3, 2.4461985e+2, -633772.0, -695304.5, -18443.098, -0.015382153, 0.013888275, -628667.5, -85941.56, 0.0, 9.999826, 9.999006 
1.1250925e+3, 2.5461915e+2, -492795.75, -574586.44, -21393.254, -0.03853978, 0.042648, -487538.1, -42803.844, 0.0, 10.000113, 9.999024 
1.1251144e+3, 2.646181e+2, -410537.28, -498513.5, -316.73083, -0.04322693, 0.043817557, -410536.16, -63790.21, 0.0, 10.000067, 9.998896 
1.12513684e+3, 2.7461666e+2, -373608.7, -427666.0, 6081.8877, -0.02709679, 0.0106606325, -372932.88, -124171.72, 0.0, 9.999638, 9.998916 
1.1251588e+3, 2.8461587e+2, -276035.9, -324534.6, -10542.472, -0.038625386, 0.040076397, -273843.34, -123073.38, 0.0, 9.999611, 9.998964 
1.12518005e+3, 2.9461578e+2, -110719.516, -191213.98, -10948.326, -0.08097598, 0.13300274, -109256.97, -56485.313, 0.0, 10.00006, 9.99899 
1.125202e+3, 3.04614e+2, -42775.57, -117441.78, 2796.6045, -0.067072265, 0.051917072, -42670.973, -42670.973, 0.0, 10.000122, 9.999133 
1.1252248e+3, 3.1461316e+2, -79472.875, -103389.06, 7899.99, 0.014706449, 0.053866804, -77098.984, -77098.984, 0.0, 9.999733, 9.999417 
1.13481276e+3, 1.2460667e+2, -1591207.8, -1762195.9, -52372.023, -0.14381157, 0.032932077, -1576441.8, 142415.4, 0.0010657869, 10.001318, 9.999038 
1.1348368e+3, 1.346058e+2, -1490011.4, -1624811.8, -3162.0732, 0.03740856, 0.010532647, -1489937.3, 130928.28, 0.00053702114, 10.001165, 9.999387 
1.1348568e+3, 1.4460483e+2, -1418701.4, -1520428.3, -39309.887, -0.13149579, -0.029587043, -1405281.5, 117593.266, 0.00016162105, 10.000904, 9.999552 
1.1348787e+3, 1.5460515e+2, -1375259.3, -1447585.1, -35696.266, -0.068393186, 0.0486049, -1360609.0, 64262.406, 0.000014669085, 10.0005245, 9.999561 
1.1349003e+3, 1.646046e+2, -1320004.6, -1410142.6, -36634.92, -0.03403698, 0.05761537, -1306993.3, 19883.291, 0.000000009421829, 10.000402, 9.999205 
1.1349215e+3, 1.7460306e+2, -1194663.8, -1297972.8, -44358.137, -0.03215641, -0.017238608, -1178231.4, 50659.98, 0.0, 10.0005865, 9.999212 
1.1349426e+3, 1.8460223e+2, -1095841.4, -1175011.6, -54755.633, -0.027652657, -0.029293519, -1067860.6, 63038.53, 0.0, 10.000485, 9.9994335 
1.1349636e+3, 1.9460224e+2, -1058397.6, -1103128.3, -47007.145, -0.021265473, 0.02729742, -1028706.44, 4192.266, 0.0, 10.000056, 9.999461 
1.1349847e+3, 2.0460163e+2, -1016999.5, -1089336.8, -33844.598, -0.016392227, 0.046044383, -1003634.0, -68729.15, 0.0, 9.999912, 9.998953 
1.13500625e+3, 2.1460025e+2, -890753.5, -977987.06, -42071.28, -0.012840863, 0.015608162, -873769.8, -36851.027, 0.0, 10.000107, 9.998951 
1.1350277e+3, 2.2459912e+2, -774973.2, -839363.94, -38867.06, -0.0055423807, -0.0037259797, -756698.9, -17769.354, 0.0, 10.000092, 9.999237 
1.1350492e+3, 2.3459826e+2, -712060.06, -754459.7, -31298.182, 0.0058762194, -0.014205213, -695457.6, -54521.26, 0.0, 9.999834, 9.99927 
1.1350709e+3, 2.4459748e+2, -637658.25, -703703.7, -8469.012, -0.0035106703, -0.0023326816, -636589.56, -93645.22, 0.0, 9.999827, 9.998949 
1.1350925e+3, 2.5459674e+2, -498415.7, -584807.56, -10107.1875, -0.03726865, 0.030303128, -497249.0, -52295.418, 0.0, 10.000106, 9.998958 
1.1351145e+3, 2.6459578e+2, -400625.72, -476613.97, -14806.001, -0.043536995, 0.03691673, -397842.75, -50878.332, 0.0, 10.00006, 9.99905 
1.13513656e+3, 2.7459458e+2, -360988.72, -403317.3, -9059.887, -0.016928757, 0.010707268, -359131.1, -110154.4, 0.0, 9.999644, 9.99908 
1.1351585e+3, 2.8459385e+2, -273632.66, -321642.2, 5642.3755, -0.027706675, 0.038004633, -272978.44, -121993.81, 0.0, 9.999619, 9.998981 
1.13518015e+3, 2.9459363e+2, -111912.82, -190875.17, 6929.6685, -0.08252945, 0.116863646, -111309.29, -58321.3, 0.0, 10.000047, 9.999 
1.1352021e+3, 3.0459186e+2, -28628.24, -85048.45, -9775.096, -0.07610288, 0.022730663, -26982.65, -26982.65, 0.0, 10.000109, 9.999363 
1.1352245e+3, 3.1459156e+2, -53612.508, -53191.28, -5671.0244, 0.007526371, 0.057326514, -47726.96, -47726.96, 0.0, 9.999747, 9.999756 
1.1448141e+3, 1.24584705e+2, -1574650.8, -1751179.5, -35979.44, -0.15174048, 0.030178146, -1567599.3, 151473.14, 0.001186206, 10.00142, 9.999064 
1.144838e+3, 1.3458385e+2, -1495534.0, -1624385.5, 18880.313, 0.049252924, 0.007595417, -1492824.5, 128255.6, 0.00060623896, 10.001114, 9.999415 
1.1448576e+3, 1.445828e+2, -1426261.9, -1534172.4, -18598.705, -0.12894174, -0.039270233, -1423146.4, 99943.836, 0.00018835878, 10.000896, 9.999461 
1.1448792e+3, 1.5458308e+2, -1345922.4, -1444468.4, -34482.188, -0.065828666, 0.044683836, -1335055.1, 90032.445, 0.000018936791, 10.000774, 9.999462 
1.1449008e+3, 1.6458254e+2, -1293812.4, -1399114.3, -30451.613, -0.031182272, 0.06011795, -1285640.5, 41452.426, 0.000000013934886, 10.000589, 9.99919 
1.14492185e+3, 1.7458104e+2, -1231755.0, -1317168.8, -22830.984, -0.029411227, -0.008288965, -1226035.4, 3072.0454, 0.0, 10.000338, 9.999202 
1.144943e+3, 1.845802e+2, -1133616.9, -1193540.4, -37366.21, -0.02519669, -0.02075802, -1115683.6, 15431.686, 0.0, 10.000228, 9.99943 
1.1449637e+3, 1.9458014e+2, -1024146.9, -1086779.5, -45718.527, -0.018816842, 0.02771871, -1000047.5, 33067.81, 0.0, 10.000293, 9.999459 
1.1449849e+3, 2.0457946e+2, -970173.4, -1070625.8, -26393.992, -0.013171595, 0.041582726, -963660.56, -28538.57, 0.0, 10.000251, 9.998918 
1.14500634e+3, 2.1457803e+2, -897540.94, -985089.7, -18781.252, -0.008522052, 0.009676218, -893682.0, -56545.656, 0.0, 10.000078, 9.998915 
1.1450277e+3, 2.2457689e+2, -784348.06, -841594.8, -16787.297, -0.0015783171, -0.008946795, -779788.5, -40641.5, 0.0, 10.000018, 9.999256 
1.1450492e+3, 2.345761e+2, -672646.25, -733136.25, -22465.514, 0.007374747, -0.015462886, -665215.5, -24062.459, 0.0, 10.000096, 9.99929 
1.1450708e+3, 2.4457526e+2, -619638.56, -698024.56, -4227.6753, -0.0006681243, -0.007902145, -619411.2, -76249.805, 0.0, 9.999965, 9.998921 
1.14509255e+3, 2.5457436e+2, -575763.94, -625193.56, -3713.4827, -0.028259283, 0.010344406, -575486.5, -130314.21, 0.0, 9.999589, 9.998929 
1.1451142e+3, 2.6457343e+2, -466529.8, -498555.3, -7855.504, -0.038290363, 0.017305687, -464706.72, -117523.99, 0.0, 9.999567, 9.999136 
1.1451362e+3, 2.7457252e+2, -308085.88, -367503.7, -7560.9395, -0.027813073, 0.008744292, -307138.84, -57946.59, 0.0, 9.999965, 9.999171 
1.1451582e+3, 2.8457186e+2, -222492.66, -291818.97, 3673.2039, -0.035742536, 0.039124794, -222298.58, -71099.414, 0.0, 9.9999485, 9.999026 
1.14518e+3, 2.9457158e+2, -196922.23, -227176.48, 7134.8115, -0.06481653, 0.10366129, -195324.06, -142120.45, 0.0, 9.999444, 9.999041 
1.1452019e+3, 3.045697e+2, -117763.02, -119712.74, -6647.28, -0.064503126, -0.0034036462, -112019.5, -112019.5, 0.0, 9.999462, 9.999435 
1.1452241e+3, 3.1456974e+2, 12386.908, 1069.2706, -15149.069, -0.021953894, 0.05522706, 22899.563, 22899.563, 0.0, 10.000107, 9.999954 
1.1548157e+3, 1.2456273e+2, -1559809.1, -1717592.6, -38729.074, -0.1279315, 0.0013842211, -1550815.4, 168472.64, 0.0013141764, 10.001409, 9.9993 
1.154839e+3, 1.3456286e+2, -1480373.3, -1592264.8, 7598.8135, 0.03823563, 0.054888625, -1479859.6, 141425.84, 0.0006802459, 10.001112, 9.999638 
1.15485825e+3, 1.4456174e+2, -1449316.4, -1582881.3, -23377.9, -0.15785292, 0.0044274963, -1445342.8, 77953.44, 0.00021757523, 10.000898, 9.999127 
1.1548802e+3, 1.5456091e+2, -1370458.9, -1496868.5, -39231.277, -0.050870962, 0.0139049925, -1359273.1, 66031.82, 0.000023929451, 10.000779, 9.999102 
1.15490146e+3, 1.6456017e+2, -1281346.3, -1374042.1, -40571.543, -0.009252745, 0.01833292, -1266097.3, 61215.44, 0.000000023716384, 10.000593, 9.999361 
1.1549221e+3, 1.7455949e+2, -1218487.5, -1289025.8, -32784.516, -0.04464433, 0.01367618, -1205603.4, 23715.363, 0.0, 10.000335, 9.999396 
1.1549429e+3, 1.8455884e+2, -1147937.6, -1222942.8, -35902.836, -0.04795323, 0.018618045, -1133522.4, -2197.5864, 0.0, 10.000225, 9.99923 
1.1549641e+3, 1.9455817e+2, -1038673.9, -1117943.4, -43737.51, -0.012946109, 0.028908607, -1019284.2, 14046.719, 0.0, 10.000297, 9.999244 
1.15498535e+3, 2.0455718e+2, -958811.56, -1047946.94, -33373.227, 0.006297594, 0.016053766, -947701.2, -12361.103, 0.0, 10.000255, 9.999072 
1.15500644e+3, 2.1455579e+2, -885307.6, -959951.94, -25925.9, 0.006697129, -0.029190574, -877186.5, -39833.797, 0.0, 10.000078, 9.999088 
1.1550278e+3, 2.2455476e+2, -793989.0, -861698.75, -14883.082, 0.0041825585, -0.040107384, -790862.0, -51499.89, 0.0, 10.000018, 9.999119 
1.1550492e+3, 2.3455416e+2, -683312.9, -755227.2, -19709.086, -0.0019308181, -0.013416137, -678265.56, -36897.895, 0.0, 10.000095, 9.99914 
1.15507066e+3, 2.4455327e+2, -619717.06, -698329.94, -17690.613, -0.00775927, -0.0025032084, -615919.5, -72542.77, 0.0, 9.999965, 9.9989195 
1.1550922e+3, 2.5455204e+2, -574458.75, -624105.44, -17436.486, -0.012422317, -0.01685846, -568946.8, -123556.69, 0.0, 9.999596, 9.998934 
1.155114e+3, 2.6455104e+2, -464562.8, -495873.2, 6302.1836, -0.028402926, -0.015073174, -463341.94, -115941.17, 0.0, 9.999572, 9.999152 
1.15513586e+3, 2.7455044e+2, -308184.94, -365833.5, 8123.906, -0.059636317, 0.0044499487, -307061.97, -57654.242, 0.0, 9.999956, 9.999187 
1.1551578e+3, 2.8454995e+2, -218211.34, -280482.34, -12973.183, -0.06299291, 0.04383307, -215616.69, -64203.32, 0.0, 9.999937, 9.99911 
1.1551798e+3, 2.9454955e+2, -189985.05, -214733.64, -10564.784, -0.03083961, 0.09393652, -186088.58, -132670.36, 0.0, 9.999452, 9.999123 
1.15520164e+3, 3.0454755e+2, -123447.15, -133719.5, 16259.879, -0.035019152, -0.02668112, -111531.52, -111531.52, 0.0, 9.999471, 9.999336 
1.1552238e+3, 3.145477e+2, 13120.974, 5852.8125, 9994.936, -0.07391472, 0.05231882, 20121.99, 20121.99, 0.0, 10.000092, 9.999995 
1.1648173e+3, 1.2454153e+2, -1515991.9, -1710236.5, -5934.737, -0.11941554, 0.0010950967, -1515810.8, 203684.72, 0.0014487223, 10.001769, 9.999177 
1.1648401e+3, 1.345417e+2, -1478580.1, -1608733.0, 854.8838, 0.041141238, 0.07427083, -1478574.5, 142918.53, 0.0007585872, 10.001199, 9.999483 
1.164859e+3, 1.4454035e+2, -1460511.6, -1592531.6, -22360.56, -0.16723481, 0.013098807, -1456827.3, 66678.67, 0.00024917058, 10.00084, 9.999088 
1.164881e+3, 1.5453921e+2, -1379149.9, -1505065.4, -13312.554, -0.044636562, -0.00625185, -1377757.9, 47759.633, 0.000029664654, 10.000737, 9.999065 
1.1649022e+3, 1.6453846e+2, -1276967.8, -1376228.9, -11130.017, 0.002216438, 0.00029617708, -1275735.0, 51790.145, 0.00000004774233, 10.000643, 9.999322 
1.16492264e+3, 1.7453812e+2, -1188348.4, -1278945.5, -21629.824, -0.03905995, 0.03302172, -1183449.3, 46078.86, 0.0, 10.000562, 9.999355 
1.1649432e+3, 1.8453737e+2, -1126593.0, -1231275.3, -27461.111, -0.043116275, 0.03987048, -1119826.6, 11708.566, 0.0, 10.000453, 9.999063 
1.1649645e+3, 1.9453615e+2, -1047919.5, -1141668.9, -31939.016, -0.004356634, 0.010501451, -1038072.6, -4525.6465, 0.0, 10.000316, 9.999071 
1.1649856e+3, 2.0453502e+2, -953794.94, -1030214.94, -23041.92, 0.013672799, -0.012036296, -947385.06, -11828.152, 0.0, 10.000224, 9.9992075 
1.1650066e+3, 2.1453406e+2, -858323.56, -930098.06, -17688.55, 0.0071272515, -0.031679682, -854201.06, -16636.443, 0.0, 10.000192, 9.999238 
1.16502784e+3, 2.2453311e+2, -793362.9, -881033.44, -6543.435, 0.0014824201, -0.032890107, -792877.2, -53304.035, 0.0, 10.000108, 9.998942 
1.1650492e+3, 2.345322e+2, -716301.56, -792288.7, -14812.322, -0.002694768, -0.015884778, -713516.25, -71933.586, 0.0, 9.999961, 9.998949 
1.1650705e+3, 2.4453121e+2, -621287.94, -694445.0, -16198.485, -0.0062312195, -0.00844189, -617861.7, -74268.48, 0.0, 9.999935, 9.9989605 
1.1650921e+3, 2.545301e+2, -503735.44, -584381.1, -13123.198, -0.009579311, -0.018656638, -501653.7, -56048.707, 0.0, 10.000058, 9.998983 
1.1651137e+3, 2.6452914e+2, -416066.88, -473631.9, 13751.873, -0.026165867, -0.0157719, -412950.38, -65335.43, 0.0, 9.99991, 9.999143 
1.16513565e+3, 2.7452847e+2, -384081.56, -403867.8, 13180.046, -0.059045937, 0.0019316484, -377494.78, -127872.484, 0.0, 9.999441, 9.999174 
1.1651575e+3, 2.8452796e+2, -310467.78, -330610.78, -14821.771, -0.0623819, 0.041593663, -302619.47, -150991.03, 0.0, 9.99933, 9.999059 
1.1651793e+3, 2.9452753e+2, -166105.55, -209266.02, -23154.162, -0.028821813, 0.09255013, -156034.22, -102400.11, 0.0, 9.999643, 9.999067 
1.16520114e+3, 3.0452543e+2, -97154.85, -119323.984, 9212.11, -0.03706384, -0.03545301, -93826.555, -93826.555, 0.0, 9.999645, 9.9993515 
1.1652233e+3, 3.1452566e+2, -93779.32, -25153.127, 12629.686, -0.08242797, 0.05065721, -22902.613, -22902.613, 0.0, 9.9992695, 10.000179 
1.17481895e+3, 1.245212e+2, -1550735.9, -1783478.1, -16685.8, -0.12815972, 0.033385098, -1549545.6, 170147.52, 0.001589411, 10.001773, 9.998673 
1.17484145e+3, 1.345204e+2, -1517550.0, -1689953.9, -21279.623, 0.057994496, 0.064465195, -1514962.4, 106739.984, 0.0008411694, 10.001199, 9.998926 
1.17486e+3, 1.445187e+2, -1442302.6, -1553937.8, -27700.012, -0.1566795, -0.015526356, -1435807.4, 87911.64, 0.0002831922, 10.000836, 9.999355 
1.1748817e+3, 1.5451807e+2, -1357587.0, -1459914.1, -17188.916, -0.04803163, -0.0156140765, -1354776.8, 70947.3, 0.000036181405, 10.000735, 9.999376 
1.17490284e+3, 1.645175e+2, -1294942.4, -1414261.4, -14386.473, 0.0018493382, 0.007131126, -1293232.4, 34496.977, 0.00000010132158, 10.000644, 9.999061 
1.1749233e+3, 1.7451698e+2, -1207768.9, -1320483.6, -24873.38, -0.0132437805, 0.050305534, -1202524.0, 27210.861, 0.0, 10.000566, 9.999069 
1.1749441e+3, 1.8451588e+2, -1135707.6, -1250973.6, -33341.305, -0.011614721, 0.043105382, -1126758.4, 4987.428, 0.0, 10.000456, 9.998926 
1.174965e+3, 1.945141e+2, -1056882.9, -1160518.5, -37627.504, 0.007498533, -0.02813998, -1044662.4, -10899.363, 0.0, 10.000317, 9.998941 
1.1749857e+3, 2.0451304e+2, -945779.2, -1013972.6, -25241.709, 0.009178528, -0.043434877, -937452.7, -1680.4955, 0.0, 10.000225, 9.999319 
1.1750066e+3, 2.1451285e+2, -849522.1, -911989.44, -19437.969, -0.008649202, 0.0024313985, -843967.56, -6195.8286, 0.0, 10.000192, 9.999362 
1.1750277e+3, 2.24512e+2, -808487.94, -912834.0, -12557.137, -0.01130259, 0.013324608, -806998.06, -67218.38, 0.0, 10.000109, 9.998724 
1.1750492e+3, 2.3451033e+2, -732182.7, -825999.56, -20546.83, 0.0047263172, -0.022826849, -727880.06, -86082.234, 0.0, 9.999963, 9.998717 
1.1750707e+3, 2.4450915e+2, -615819.4, -683535.44, -12183.325, 0.003372436, -0.026173683, -613694.06, -69883.54, 0.0, 9.999937, 9.999035 
1.175092e+3, 2.545085e+2, -497691.53, -571292.8, -8182.0366, -0.01976161, 0.0039120265, -496792.94, -50976.188, 0.0, 10.000055, 9.999075 
1.17511354e+3, 2.6450765e+2, -418473.03, -478431.47, -2420.0356, -0.031767458, 0.014465878, -418375.5, -70550.34, 0.0, 9.999908, 9.99911 
1.1751352e+3, 2.7450666e+2, -385929.5, -409164.28, -3522.7844, -0.029951705, 0.00091647444, -385407.13, -135571.39, 0.0, 9.999447, 9.999136 
1.175157e+3, 2.8450596e+2, -323278.7, -358682.63, -3599.266, -0.038078338, 0.03185083, -322916.5, -171072.34, 0.0, 9.999334, 9.998864 
1.1751787e+3, 2.945055e+2, -180431.14, -238906.34, -10316.586, -0.05751427, 0.09899458, -178664.4, -124813.266, 0.0, 9.999641, 9.998865 
1.1752006e+3, 3.0450332e+2, -87810.25, -99078.164, -2375.5767, -0.069332145, -0.029739156, -87329.9, -87329.9, 0.0, 9.99964, 9.999493 
1.1752228e+3, 3.145037e+2, -70259.695, 23732.838, 748.5284, -0.054717865, 0.054003194, 23738.799, 23738.799, 0.0, 9.999269, 10.000516 
1.1848205e+3, 1.2450022e+2, -1595076.8, -1806345.8, -33964.824, -0.1311986, 0.02400165, -1589750.8, 130146.96, 0.0017368259, 10.001476, 9.998658 
1.1848428e+3, 1.3449925e+2, -1510383.4, -1692027.5, -12568.357, 0.07054499, 0.043075178, -1509517.9, 112390.98, 0.00092832, 10.001272, 9.998876 
1.184861e+3, 1.4449754e+2, -1405655.5, -1543619.5, 10.995182, -0.14885715, -0.032364205, -1405655.5, 118270.44, 0.0003198089, 10.001121, 9.999288 
1.1848826e+3, 1.5449716e+2, -1321359.3, -1449905.3, -18151.2, -0.04217883, -0.0012787086, -1318845.4, 107083.63, 0.0000435681, 10.001017, 9.999308 
1.1849035e+3, 1.6449654e+2, -1271425.4, -1410958.6, -26012.652, 0.009605039, 0.024406105, -1266733.6, 61200.94, 0.00000019883093, 10.00084, 9.998988 
1.1849241e+3, 1.7449565e+2, -1210209.1, -1329413.4, -20611.363, 0.0004276004, 0.035996027, -1206745.9, 23197.537, 0.0, 10.000583, 9.999 
1.1849446e+3, 1.844944e+2, -1146198.4, -1268737.1, -15946.765, -0.002921133, 0.022508614, -1144157.1, -12201.431, 0.0, 10.00044, 9.998812 
1.1849652e+3, 1.9449274e+2, -1047426.75, -1168856.0, -19265.469, -0.0017400676, -0.02468475, -1044443.44, -10471.273, 0.0, 10.000438, 9.998826 
1.1849859e+3, 2.0449165e+2, -931730.0, -1017571.0, -14358.264, -0.0012543979, -0.03362554, -929392.06, 6589.9224, 0.0, 10.000366, 9.999226 
1.1850069e+3, 2.1449119e+2, -853367.25, -923735.75, -25039.432, -0.00014232461, -0.0029205475, -845366.94, -7383.189, 0.0, 10.000209, 9.999273 
1.18502796e+3, 2.2449027e+2, -810139.8, -914259.06, -19114.691, 0.00044294755, 0.0050610877, -806741.56, -66748.97, 0.0, 10.000101, 9.998717 
1.18504904e+3, 2.3448873e+2, -718620.56, -819624.1, -10361.29, -0.0006971971, -0.018794904, -717568.6, -75558.86, 0.0, 10.000057, 9.998715 
1.1850704e+3, 2.4448758e+2, -613894.75, -687730.94, 5639.3516, -0.007066341, -0.0157942, -613466.56, -69444.43, 0.0, 9.999972, 9.998988 
1.1850919e+3, 2.544869e+2, -532018.25, -593161.0, -996.43024, -0.019242635, 0.012908913, -532002.0, -85973.234, 0.0, 9.999843, 9.999027 
1.1851134e+3, 2.6448593e+2, -444062.75, -496035.5, -10198.251, -0.026364077, 0.017232371, -442133.25, -94095.02, 0.0, 9.999757, 9.999063 
1.1851349e+3, 2.7448475e+2, -349531.94, -396883.2, -13245.612, -0.028127272, -0.008488691, -346078.6, -96028.055, 0.0, 9.999721, 9.999087 
1.1851565e+3, 2.8448403e+2, -279164.5, -334194.8, 5417.2456, -0.037034284, 0.024856843, -278636.28, -126577.38, 0.0, 9.999624, 9.998892 
1.1851782e+3, 2.9448384e+2, -203881.53, -246539.38, 16181.645, -0.053211145, 0.11292379, -198437.92, -144374.3, 0.0, 9.999465, 9.998898 
1.1851999e+3, 3.044817e+2, -147067.39, -127143.09, 12752.583, -0.07011972, -0.01541399, -120922.76, -120922.76, 0.0, 9.999232, 9.9994955 
1.1852218e+3, 3.1448182e+2, -112566.734, 25214.834, 2566.436, -0.06596259, 0.04155558, 25262.623, 25262.623, 0.0, 9.998884, 10.0007105 
1.19482204e+3, 1.2447862e+2, -1561121.6, -1733089.6, -29448.33, -0.12748325, -0.029296476, -1556218.6, 163890.0, 0.0018922538, 10.001464, 9.9991665 
1.1948441e+3, 1.3447832e+2, -1476460.0, -1621567.6, -20122.11, 0.07787921, 0.009146106, -1473721.3, 148390.53, 0.00102056, 10.001272, 9.99936 
1.1948622e+3, 1.4447698e+2, -1434279.0, -1604270.1, -4114.632, -0.14525801, -0.036724787, -1434179.5, 89946.28, 0.0003592124, 10.001125, 9.998871 
1.1948838e+3, 1.5447657e+2, -1353317.3, -1517508.3, -22543.555, -0.027831804, 0.03802848, -1350278.3, 75853.13, 0.00005194898, 10.001021, 9.998842 
1.1949045e+3, 1.6447565e+2, -1263068.5, -1394383.3, -36211.184, 0.024594923, 0.053397894, -1253745.0, 74395.37, 0.00000035173326, 10.000843, 9.999101 
1.1949247e+3, 1.7447414e+2, -1199402.5, -1307706.4, -30799.137, 0.0019695282, -0.01092388, -1191256.6, 38896.883, 0.0, 10.000586, 9.999147 
1.1949448e+3, 1.8447293e+2, -1152324.9, -1282127.3, -17133.678, -0.017696204, -0.02358807, -1150101.4, -17936.602, 0.0, 10.000442, 9.998719 
1.19496524e+3, 1.9447209e+2, -1054532.8, -1183977.0, -19828.58, -0.03390757, 0.021620855, -1051563.5, -17389.506, 0.0, 10.000439, 9.998722 
1.1949861e+3, 2.0447086e+2, -952721.8, -1061302.3, -20668.98, -0.019719291, 0.019260474, -948920.44, -12734.819, 0.0, 10.000366, 9.998926 
1.1950074e+3, 2.1446915e+2, -874569.9, -968482.8, -31580.594, 0.032639768, -0.04748051, -864938.0, -26737.709, 0.0, 10.000211, 9.998965 
1.1950284e+3, 2.2446796e+2, -795840.06, -885349.5, -21581.24, 0.03674445, -0.058189508, -790908.4, -50696.926, 0.0, 10.000104, 9.998915 
1.1950489e+3, 2.3446742e+2, -702708.06, -786955.94, -12249.022, -0.01908401, -0.0039674947, -700963.3, -58745.16, 0.0, 10.000058, 9.9989395 
1.1950701e+3, 2.4446654e+2, -625307.2, -711924.9, 653.8663, -0.037911244, 0.022921236, -625302.25, -81074.61, 0.0, 9.999974, 9.998822 
1.1950918e+3, 2.5446522e+2, -544887.1, -620210.2, -5403.6665, -0.010068763, 0.008591724, -544501.44, -98260.67, 0.0, 9.999844, 9.998841 
1.1951133e+3, 2.6446396e+2, -449617.75, -507639.3, -10958.172, -0.012252526, -0.006963982, -447617.13, -99363.29, 0.0, 9.999757, 9.998983 
1.1951343e+3, 2.7446276e+2, -354455.38, -407333.1, -13846.022, -0.052138627, -0.025154924, -351049.2, -100782.78, 0.0, 9.999721, 9.999017 
1.1951559e+3, 2.8446227e+2, -261886.44, -298136.8, 292.6378, -0.05814844, 0.021118173, -261884.08, -109611.484, 0.0, 9.999623, 9.999141 
1.19517796e+3, 2.9446256e+2, -187120.17, -209685.39, 11532.227, -0.022075523, 0.1318877, -182269.3, -127997.43, 0.0, 9.999455, 9.999155 
1.19519934e+3, 3.0446047e+2, -158819.53, -149891.1, 1130.0382, -0.045511678, 0.0054868255, -149750.3, -149750.3, 0.0, 9.999225, 9.999344 
1.1952201e+3, 3.1446004e+2, -109299.68, 29423.547, -8985.094, -0.11305071, 0.022332698, 30003.09, 30003.09, 0.0, 9.998895, 10.000734 
1.2048236e+3, 1.2445763e+2, -1537670.8, -1725924.3, 3432.0527, -0.12609023, -0.05529663, -1537608.1, 182705.06, 0.0020569195, 10.001644, 9.999128 
1.20484546e+3, 1.344575e+2, -1477457.3, -1630963.8, -44799.35, 0.08469563, 0.009182622, -1465339.5, 156975.95, 0.0011183886, 10.001304, 9.999279 
1.2048633e+3, 1.4445621e+2, -1443186.0, -1608960.3, -30795.63, -0.14187504, -0.028130276, -1437650.0, 86679.305, 0.00040151636, 10.001066, 9.998865 
1.2048848e+3, 1.5445566e+2, -1363651.3, -1522133.5, -14231.28, -0.022624748, 0.034258913, -1362383.5, 63952.13, 0.000061428385, 10.000951, 9.998844 
1.2049055e+3, 1.6445464e+2, -1260272.8, -1406770.1, -16500.684, 0.025948899, 0.043845195, -1258437.3, 69908.5, 0.00000057087306, 10.000923, 9.998977 
1.2049253e+3, 1.7445302e+2, -1146310.9, -1297250.9, -32517.508, -0.006704951, -0.018423373, -1139603.6, 90756.74, 0.0, 10.001016, 9.999011 
1.20494545e+3, 1.8445176e+2, -1082163.3, -1251078.8, -30208.379, -0.026530137, -0.027183956, -1076923.5, 55448.766, 0.0, 10.000935, 9.998694 
1.2049658e+3, 1.9445096e+2, -1028101.1, -1173067.4, -27076.348, -0.03140427, 0.023945253, -1023209.0, 11171.699, 0.0, 10.000628, 9.998704 
1.2049866e+3, 2.044497e+2, -951280.4, -1071569.0, -15806.469, -0.014142238, 0.02380395, -949238.0, -12845.338, 0.0, 10.000423, 9.998828 
1.20500766e+3, 2.1444786e+2, -861884.56, -973672.56, -11223.326, 0.03034549, -0.044862967, -860768.9, -22359.947, 0.0, 10.000347, 9.998864 
1.2050286e+3, 2.2444654e+2, -779424.44, -888802.56, -2151.3574, 0.033473093, -0.05908729, -779382.1, -38960.445, 0.0, 10.000266, 9.998813 
1.2050491e+3, 2.3444584e+2, -692324.9, -793209.9, -17501.62, -0.014118005, -0.010732684, -689374.94, -46945.055, 0.0, 10.000179, 9.998837 
1.2050701e+3, 2.4444497e+2, -608873.4, -693030.5, -12067.687, -0.032249514, 0.015905116, -607177.1, -62737.785, 0.0, 10.00004, 9.9989195 
1.20509155e+3, 2.5444382e+2, -538185.4, -604136.94, 2939.5657, -0.014174737, 0.00839464, -538054.6, -91604.24, 0.0, 9.999835, 9.998956 
1.2051129e+3, 2.644426e+2, -466121.1, -525033.9, 12636.632, -0.016758619, -0.0039747725, -463524.97, -115062.0, 0.0, 9.999685, 9.998898 
1.205134e+3, 2.744413e+2, -376674.84, -428461.97, 8059.531, -0.044645306, -0.023943586, -375449.56, -124972.41, 0.0, 9.999615, 9.998922 
1.2051554e+3, 2.844408e+2, -287729.63, -296225.8, 7700.752, -0.049253885, 0.020285387, -283182.94, -130699.42, 0.0, 9.999385, 9.999268 
1.20517716e+3, 2.944412e+2, -252637.98, -225767.02, 8577.955, -0.025486115, 0.12889674, -223262.19, -168780.89, 0.0, 9.99894, 9.999291 
1.20519824e+3, 3.0443928e+2, -228083.42, -194496.63, 5159.9033, -0.05390356, 0.012963013, -193721.8, -193721.8, 0.0, 9.998798, 9.999242 
1.2052191e+3, 3.144387e+2, -83274.445, 51460.06, 373.0328, -0.110639945, 0.027710477, 51461.094, 51461.094, 0.0, 9.999034, 10.000817 
1.2148252e+3, 1.24437384e+2, -1582396.9, -1818464.9, 3597.404, -0.12743339, -0.049088143, -1582342.0, 138168.03, 0.0022312584, 10.001641, 9.998495 
1.2148468e+3, 1.3443688e+2, -1525477.4, -1731127.3, -58747.457, 0.08959924, 0.044871766, -1509878.4, 112640.84, 0.0012220372, 10.001305, 9.998591 
1.2148644e+3, 1.4443527e+2, -1413350.8, -1547603.5, -36559.043, -0.1400853, -0.0053154137, -1404040.8, 120495.28, 0.0004466493, 10.001067, 9.999287 
1.2148856e+3, 1.544345e+2, -1328948.0, -1450672.5, -18798.803, -0.02713698, -0.014560987, -1326110.9, 100430.54, 0.00007201624, 10.000952, 9.999334 
1.2149063e+3, 1.6443355e+2, -1286497.0, -1461696.9, -13992.901, 0.012589339, -0.0069533014, -1285386.4, 43163.746, 0.0000008702971, 10.000924, 9.998599 
1.2149262e+3, 1.7443232e+2, -1176062.8, -1359911.6, -29281.697, -0.0270834, 0.014527056, -1171511.6, 59051.746, 0.0, 10.001019, 9.99858 
1.2149463e+3, 1.8443096e+2, -1079158.5, -1245585.9, -41741.88, -0.031017406, 0.014414217, -1069276.0, 63301.344, 0.0, 10.000937, 9.998732 
1.2149668e+3, 1.9442938e+2, -1022657.0, -1163168.0, -39233.867, 0.00618281, -0.018330337, -1012444.3, 22147.664, 0.0, 10.000633, 9.998771 
1.2149872e+3, 2.0442817e+2, -943621.8, -1056816.3, -20064.127, 0.015853487, -0.022104874, -940170.56, -3567.5718, 0.0, 10.000428, 9.998927 
1.2150076e+3, 2.1442738e+2, -854485.0, -958525.4, -14639.508, -0.0075280853, 0.004740116, -852464.4, -13854.893, 0.0, 10.000347, 9.998968 
1.2150283e+3, 2.2442606e+2, -807489.2, -947012.4, -6014.8657, -0.010438238, 0.0031714498, -807230.4, -66607.57, 0.0, 10.000265, 9.998414 
1.21504955e+3, 2.3442402e+2, -722262.8, -855731.8, -20776.875, 0.012819373, -0.03854901, -719103.3, -76458.71, 0.0, 10.000179, 9.998409 
1.21507056e+3, 2.4442284e+2, -584345.5, -642511.06, -19398.977, 0.008450055, -0.036630757, -578469.3, -33812.418, 0.0, 10.000041, 9.999267 
1.2150912e+3, 2.5442266e+2, -510004.75, -546264.8, -4481.41, -0.031079348, 0.012479345, -509459.1, -62801.637, 0.0, 9.999837, 9.999352 
1.2151123e+3, 2.6442185e+2, -472251.8, -538271.44, 9851.486, -0.03968806, 0.025673565, -470813.13, -122147.52, 0.0, 9.999686, 9.998807 
1.21513404e+3, 2.7442032e+2, -385610.1, -446327.0, 6385.71, -0.010065846, -0.0069432096, -384945.78, -134262.9, 0.0, 9.99961, 9.998801 
1.2151551e+3, 2.844196e+2, -288283.72, -296912.56, -7063.599, -0.014597887, 0.02102517, -284321.16, -131629.28, 0.0, 9.999382, 9.999265 
1.2151757e+3, 2.9441977e+2, -251086.86, -224600.33, -7542.041, -0.060806703, 0.10660212, -222603.3, -167911.48, 0.0, 9.998948, 9.999296 
1.2151966e+3, 3.04418e+2, -230141.05, -200259.05, 13429.274, -0.09326696, 0.009383477, -195110.78, -195110.78, 0.0, 9.998804, 9.9992 
1.2152185e+3, 3.1441772e+2, -75159.8, 71447.0, 11695.562, -0.068579294, 0.05830543, 72374.16, 72374.16, 0.0, 9.99902, 10.000962 
1.22482665e+3, 1.24416865e+2, -1629846.4, -1841215.0, -12414.024, -0.12092529, -0.03214861, -1629119.8, 91591.414, 0.002414319, 10.001317, 9.998494 
1.2248482e+3, 1.3441609e+2, -1509515.0, -1725765.8, -39106.316, 0.09206119, 0.037936073, -1502660.4, 120062.28, 0.0013311396, 10.001427, 9.998569 
1.2248655e+3, 1.4441441e+2, -1363906.6, -1522113.0, -5511.2354, -0.14132208, -0.020035546, -1363714.9, 161025.06, 0.0004943066, 10.001403, 9.999299 
1.2248866e+3, 1.5441367e+2, -1289444.3, -1430149.8, -24740.217, -0.032578647, -0.027653694, -1285221.0, 141523.63, 0.000083587045, 10.001218, 9.999346 
1.2249071e+3, 1.644127e+2, -1270577.1, -1464208.6, -23794.992, 0.004831044, -0.015800068, -1267695.9, 61057.48, 0.0000012652538, 10.001079, 9.9985075 
1.224927e+3, 1.7441149e+2, -1188427.1, -1376228.6, -14066.72, -0.033038616, 0.013327165, -1187379.4, 43387.945, 0.0, 10.00098, 9.998486 
1.2249471e+3, 1.8441004e+2, -1088196.4, -1251169.3, -21282.852, -0.031161353, 0.011796328, -1085462.8, 47319.246, 0.0, 10.000882, 9.998719 
1.22496754e+3, 1.9440834e+2, -999778.0, -1152729.8, -24706.334, 0.0150564695, -0.03332729, -995886.2, 38911.49, 0.0, 10.000794, 9.998764 
1.2249878e+3, 2.044071e+2, -921546.2, -1060003.8, -15262.583, 0.02339676, -0.033013187, -919883.7, 16925.48, 0.0, 10.00064, 9.998803 
1.2250079e+3, 2.1440643e+2, -856960.0, -974101.8, -27899.395, -0.013329419, 0.018125864, -850654.7, -11839.257, 0.0, 10.000393, 9.998838 
1.2250284e+3, 2.2440511e+2, -813786.4, -943633.94, -10860.398, -0.01778186, 0.022751596, -812884.25, -72055.51, 0.0, 10.000195, 9.99847 
1.2250497e+3, 2.34403e+2, -735411.44, -853934.9, 11083.712, 0.01778985, -0.034932565, -734383.9, -91533.07, 0.0, 10.000054, 9.998481 
1.2250706e+3, 2.4440174e+2, -609802.44, -666547.75, 14299.564, 0.014705548, -0.03971469, -606402.7, -61538.92, 0.0, 9.999918, 9.99916 
1.2250909e+3, 2.5440148e+2, -524332.4, -565955.44, -9114.745, -0.03740276, 0.014235718, -522423.94, -75558.35, 0.0, 9.999794, 9.999237 
1.2251119e+3, 2.6440075e+2, -472578.34, -520664.4, -7032.682, -0.048419956, 0.034048893, -471570.9, -122697.78, 0.0, 9.999608, 9.998964 
1.2251334e+3, 2.743995e+2, -413999.3, -440253.7, 10117.375, -0.008021913, 0.009751968, -410552.9, -159665.47, 0.0, 9.999331, 9.998977 
1.2251544e+3, 2.843988e+2, -323944.53, -319261.56, 4967.8096, -0.009350771, 0.033171713, -316111.1, -163215.08, 0.0, 9.999161, 9.999217 
1.2251747e+3, 2.9439873e+2, -228845.22, -220855.19, -589.8614, -0.062383123, 0.10002593, -220811.88, -165913.31, 0.0, 9.999132, 9.999233 
1.22519545e+3, 3.0439708e+2, -218695.89, -191327.23, 21557.346, -0.09631039, 0.018926412, -179477.66, -179477.66, 0.0, 9.998869, 9.999229 
1.2252173e+3, 3.1439686e+2, -167835.05, 48891.72, 25278.58, -0.058934078, 0.06729159, 51801.105, 51801.105, 0.0, 9.998288, 10.001159 
1.23482816e+3, 1.2439614e+2, -1584108.3, -1744524.9, 4655.7197, -0.10616719, -0.0011176983, -1583973.3, 136942.84, 0.0026041293, 10.001308, 9.999162 
1.2348496e+3, 1.343952e+2, -1461609.8, -1626716.1, -34983.844, 0.09167845, -0.014338611, -1454503.1, 168421.97, 0.0014447866, 10.001427, 9.9992485 
1.2348668e+3, 1.4439367e+2, -1393036.9, -1583904.6, -12365.728, -0.1463097, -0.07499587, -1392239.1, 132700.97, 0.00054404186, 10.001407, 9.998873 
1.23488784e+3, 1.5439323e+2, -1323633.5, -1502340.5, -32203.414, -0.040048733, -0.0036209899, -1318007.5, 108937.06, 0.00009593835, 10.001222, 9.998849 
1.2349082e+3, 1.6439222e+2, -1256266.3, -1435293.1, -28266.309, 0.0014425303, 0.020087756, -1251909.4, 77045.25, 0.0000017602412, 10.0010805, 9.998706 
1.2349281e+3, 1.743905e+2, -1170730.4, -1340468.4, -18173.1, -0.024770377, -0.02324807, -1168806.5, 62165.094, 0.0, 10.000983, 9.998731 
1.234948e+3, 1.8438902e+2, -1091892.9, -1259748.9, -25438.133, -0.027570143, -0.037729513, -1088122.5, 44863.57, 0.0, 10.000885, 9.998659 
1.23496816e+3, 1.9438787e+2, -1004904.3, -1164052.4, -28431.14, -0.005551634, -0.020538697, -999977.7, 35019.63, 0.0, 10.000795, 9.998686 
1.2349883e+3, 2.0438655e+2, -946412.7, -1111808.4, -24852.248, 0.00747395, -0.0071571623, -942759.06, -5748.453, 0.0, 10.00064, 9.998447 
1.23500854e+3, 2.1438502e+2, -882631.75, -1028228.06, -37763.5, 0.011734218, -0.004849601, -873419.9, -34393.35, 0.0, 10.000396, 9.9984665 
1.23502895e+3, 2.2438374e+2, -777952.44, -870132.1, -16916.232, 0.010445771, -0.001345776, -774946.1, -33906.656, 0.0, 10.000197, 9.998975 
1.2350496e+3, 2.3438276e+2, -695921.2, -772376.6, 5634.8433, 0.0011943581, -0.00044222584, -695508.1, -52459.75, 0.0, 10.000055, 9.999041 
1.23507015e+3, 2.4438165e+2, -648116.44, -746228.56, 9349.712, -0.013387731, 0.00637118, -647233.4, -102173.56, 0.0, 9.999917, 9.998613 
1.2350908e+3, 2.5438032e+2, -567890.75, -656365.5, -12997.838, -0.03502528, 0.013466105, -566020.75, -118946.234, 0.0, 9.999793, 9.998617 
1.2351116e+3, 2.6437932e+2, -445732.2, -464948.44, -15984.6, -0.044405133, 0.021275463, -436690.28, -87604.96, 0.0, 9.999607, 9.999349 
1.23513244e+3, 2.743788e+2, -382194.16, -374694.38, 531.76245, -0.037021674, 0.026976142, -374656.84, -123566.01, 0.0, 9.999331, 9.999428 
1.2351533e+3, 2.8437835e+2, -329972.4, -332465.03, 3879.8428, -0.033210013, 0.05704118, -327143.63, -174047.47, 0.0, 9.999163, 9.9991255 
1.2351741e+3, 2.9437798e+2, -237752.06, -239524.73, -352.08603, -0.035747815, 0.10643576, -237684.7, -182582.73, 0.0, 9.999132, 9.9991045 
1.2351946e+3, 3.0437645e+2, -213033.53, -179543.23, 2229.321, -0.06781754, 0.039564844, -179395.5, -179395.5, 0.0, 9.998867, 9.999311 
1.2352154e+3, 3.143761e+2, -152258.45, 81290.7, 5891.3496, -0.07924966, 0.06403693, 81439.22, 81439.22, 0.0, 9.998287, 10.001383 
1.24482974e+3, 1.2437528e+2, -1503850.8, -1694142.1, 42299.227, -0.10172032, -0.014639246, -1494871.9, 226248.53, 0.0027991196, 10.001813, 9.999265 
1.244851e+3, 1.343745e+2, -1454129.3, -1611647.0, -56868.438, 0.0848156, -0.023897672, -1435744.0, 187382.98, 0.0015621701, 10.00143, 9.999351 
1.2448682e+3, 1.4437303e+2, -1422751.0, -1611893.6, -44158.598, -0.1501527, -0.076308206, -1412949.4, 112191.74, 0.00059554225, 10.001263, 9.998751 
1.24488905e+3, 1.5437244e+2, -1315237.9, -1513046.6, -37222.234, -0.03932928, -0.0061287633, -1308465.5, 118682.586, 0.00010892916, 10.001345, 9.998715 
1.2449093e+3, 1.6437137e+2, -1223433.4, -1407297.5, -26504.959, 0.00502533, 0.0134006385, -1219688.9, 109470.06, 0.0000023447426, 10.001255, 9.998813 
1.24492906e+3, 1.7436971e+2, -1165109.5, -1324094.3, -26231.611, -0.020898284, -0.03683466, -1160893.3, 70281.32, 0.0, 10.000963, 9.998851 
1.2449489e+3, 1.843683e+2, -1108408.3, -1275586.4, -33680.227, -0.02882311, -0.04704313, -1101878.0, 31310.139, 0.0, 10.000806, 9.998589 
1.2449688e+3, 1.9436724e+2, -1010546.3, -1175890.0, -37290.664, -0.018364182, -0.011486652, -1002525.1, 32674.09, 0.0, 10.000798, 9.998604 
1.24498874e+3, 2.043659e+2, -934857.75, -1103144.3, -26486.764, -0.003977417, 0.0017112839, -930787.44, 6425.8066, 0.0, 10.000707, 9.998475 
1.245009e+3, 2.1436417e+2, -863669.7, -1014759.6, -9435.506, 0.01700419, -0.01942375, -863082.75, -23851.969, 0.0, 10.000508, 9.998504 
1.2450292e+3, 2.2436291e+2, -767348.2, -867877.44, 9737.83, 0.01643168, -0.013500133, -766413.6, -25170.156, 0.0, 10.000283, 9.998948 
1.24504946e+3, 2.3436227e+2, -702180.4, -778329.5, -12144.085, -0.0124484515, 0.021951977, -700290.56, -57040.754, 0.0, 10.000026, 9.999014 
1.24506995e+3, 2.443612e+2, -662064.4, -748926.8, -10233.251, -0.026772978, 0.033220526, -660875.06, -115614.12, 0.0, 9.9998045, 9.998649 
1.2450906e+3, 2.543596e+2, -589513.5, -661851.5, 15360.07, -0.022459844, 0.00690458, -586387.1, -139109.03, 0.0, 9.999624, 9.99866 
1.2451112e+3, 2.6435855e+2, -470824.34, -476368.6, 22133.16, -0.028230166, 0.006705203, -451290.38, -102001.15, 0.0, 9.999433, 9.999353 
1.2451316e+3, 2.7435824e+2, -396392.28, -380907.9, 5780.095, -0.0463347, 0.035277233, -378988.28, -127695.586, 0.0, 9.999233, 9.999432 
1.24515235e+3, 2.8435785e+2, -332967.5, -322273.72, 4899.1533, -0.0456959, 0.06517111, -320368.66, -167071.25, 0.0, 9.999092, 9.9992285 
1.2451732e+3, 2.9435733e+2, -246777.61, -231504.25, 16861.053, -0.023002118, 0.088764116, -220631.1, -165327.08, 0.0, 9.999018, 9.999214 
1.2451935e+3, 3.0435604e+2, -238180.69, -200137.27, 5177.5464, -0.05311719, 0.04325316, -199445.2, -199445.2, 0.0, 9.998733, 9.999234 
1.2452135e+3, 3.143555e+2, -167816.34, 74604.87, -3895.7366, -0.0845643, 0.06014942, 74667.46, 74667.46, 0.0, 9.998177, 10.0013895 
1.2548316e+3, 1.2435438e+2, -1538847.8, -1769056.8, 41799.152, -0.10653574, -0.074491076, -1531493.3, 189829.89, 0.0029989923, 10.0018215, 9.998747 
1.2548521e+3, 1.3435403e+2, -1490297.4, -1687496.0, -72660.68, 0.0701068, 0.0116447415, -1466416.5, 156911.22, 0.001683169, 10.001431, 9.99883 
1.2548694e+3, 1.4435257e+2, -1409627.1, -1584434.3, -42908.297, -0.15462051, -0.020795457, -1399662.8, 125679.84, 0.0006488858, 10.001261, 9.99894 
1.2548906e+3, 1.5435135e+2, -1297743.6, -1477372.6, -34482.938, -0.030815478, -0.036738377, -1291351.5, 136003.33, 0.00012258759, 10.001347, 9.99896 
1.2549107e+3, 1.6435021e+2, -1222227.8, -1406173.1, -37797.918, 0.015226379, -0.038454086, -1214763.6, 114602.29, 0.0000030126384, 10.001259, 9.998819 
1.25493e+3, 1.7434916e+2, -1165082.1, -1325246.5, -37734.414, -0.021888731, -0.026544185, -1156637.3, 74738.31, 0.0, 10.000967, 9.998842 
1.2549496e+3, 1.8434793e+2, -1114489.9, -1288516.3, -35164.098, -0.035671607, -0.0141373705, -1107653.1, 25734.617, 0.0, 10.000807, 9.9985 
1.2549695e+3, 1.943465e+2, -1016677.9, -1189343.0, -38202.55, -0.024341412, -0.0069674402, -1008603.1, 26800.066, 0.0, 10.0008, 9.99851 
1.2549894e+3, 2.0434514e+2, -905940.06, -1043843.4, -34329.227, -0.012125483, -0.008139795, -897866.9, 39549.934, 0.0, 10.000709, 9.998881 
1.2550093e+3, 2.143439e+2, -832418.06, -950477.9, -17379.637, 0.002477447, -0.025074506, -829912.75, 9515.125, 0.0, 10.000509, 9.998945 
1.2550293e+3, 2.243427e+2, -805750.56, -947660.25, -494.7907, 0.00015714808, -0.012717329, -805748.9, -64308.367, 0.0, 10.000282, 9.998401 
1.2550493e+3, 2.3434152e+2, -745045.7, -867723.1, -21811.32, -0.024100773, 0.032053076, -741283.2, -97828.33, 0.0, 10.000027, 9.9984 
1.2550697e+3, 2.4434038e+2, -620305.7, -662693.94, -16912.334, -0.026763856, 0.040246174, -614384.94, -68917.89, 0.0, 9.999805, 9.999241 
1.2550904e+3, 2.5433925e+2, -541753.9, -563212.7, 8942.524, -0.0005394073, -0.004784514, -538515.9, -91039.54, 0.0, 9.999625, 9.999338 
1.2551108e+3, 2.6433834e+2, -495392.13, -528012.9, 14960.482, -0.0013670368, -0.008679497, -489570.06, -140085.05, 0.0, 9.999434, 9.998998 
1.2551309e+3, 2.743378e+2, -425751.3, -442546.03, -646.53345, -0.038455594, 0.03476483, -425726.47, -174233.4, 0.0, 9.999234, 9.999008 
1.2551513e+3, 2.8433722e+2, -313813.6, -283021.03, 2987.1072, -0.0483755, 0.057766587, -282733.94, -129234.14, 0.0, 9.999093, 9.999498 
1.2551722e+3, 2.943367e+2, -225021.69, -185639.17, 15009.016, -0.02320315, 0.049182635, -180571.27, -125066.33, 0.0, 9.999013, 9.999533 
1.2551923e+3, 3.0433574e+2, -253672.78, -231787.92, -13829.908, -0.05233283, 0.03209738, -225095.06, -225095.06, 0.0, 9.99873, 9.999018 
1.2552117e+3, 3.143351e+2, -180131.19, 46752.105, -22044.037, -0.08020387, 0.06116563, 48874.063, 48874.063, 0.0, 9.998186, 10.001193 
1.2648334e+3, 1.243338e+2, -1523496.6, -1769140.9, 22390.229, -0.10617636, -0.06940811, -1521472.4, 200052.42, 0.0032043438, 10.00196, 9.998679 
1.2648536e+3, 1.3433331e+2, -1462573.8, -1679626.0, -71352.875, 0.06446737, 0.008092184, -1441218.5, 182311.84, 0.0018082228, 10.001647, 9.99878 
1.2648708e+3, 1.443318e+2, -1392125.6, -1579557.0, -18329.86, -0.1508333, -0.024765395, -1390349.9, 135195.92, 0.0007044779, 10.001397, 9.998907 
1.2648918e+3, 1.543306e+2, -1315926.4, -1490340.5, -30680.166, -0.0317212, -0.03735975, -1310687.0, 116871.6, 0.00013709594, 10.00124, 9.998922 
1.2649119e+3, 1.6432948e+2, -1233345.5, -1405440.0, -47802.984, 0.010892363, -0.03463512, -1220958.8, 108610.76, 0.0000037895563, 10.001158, 9.998872 
1.264931e+3, 1.7432855e+2, -1132827.9, -1302610.5, -43268.68, -0.025618456, -0.017826624, -1122436.9, 109140.74, 0.0, 10.00116, 9.998904 
1.2649505e+3, 1.8432736e+2, -1080139.5, -1263129.0, -33040.723, -0.036339175, -0.009569523, -1074356.4, 59232.83, 0.0, 10.001006, 9.998577 
1.2649702e+3, 1.9432585e+2, -1032882.7, -1188255.1, -23400.482, -0.020594327, -0.017774, -1029434.9, 6170.0957, 0.0, 10.000651, 9.998589 
1.26499e+3, 2.0432454e+2, -953127.4, -1067323.4, -26962.676, -0.012126827, -0.019153547, -947081.3, -9463.053, 0.0, 10.000389, 9.998873 
1.2650095e+3, 2.1432348e+2, -872966.4, -971506.9, -44984.28, -0.011284378, -0.016782435, -855519.7, -15891.523, 0.0, 10.000239, 9.99893 
1.2650293e+3, 2.243223e+2, -830272.3, -949262.94, -26145.8, -0.012321567, -0.0033373882, -824780.75, -83140.32, 0.0, 10.000071, 9.998491 
1.2650493e+3, 2.3432101e+2, -760220.2, -863606.56, 5165.95, -0.015968792, 0.018450094, -759962.7, -116307.23, 0.0, 9.999874, 9.998501 
1.2650695e+3, 2.443199e+2, -631478.4, -662087.9, 21969.967, -0.012656127, 0.023427997, -620007.9, -74340.875, 0.0, 9.999703, 9.999294 
1.26509e+3, 2.5431907e+2, -546516.3, -559871.94, 1176.9165, -0.00031113447, 0.0011474685, -546413.44, -98739.516, 0.0, 9.999569, 9.999388 
1.2651102e+3, 2.6431826e+2, -499619.44, -528826.75, -7003.183, -0.004451456, 0.0024111413, -498027.1, -148345.13, 0.0, 9.9994, 9.999009 
1.2651302e+3, 2.743175e+2, -431815.56, -444158.72, 8212.651, -0.030224085, 0.026829386, -427714.06, -176022.48, 0.0, 9.999187, 9.99902 
1.2651505e+3, 2.843169e+2, -328994.78, -278400.47, 23775.166, -0.038443986, 0.03883142, -268981.56, -115282.96, 0.0, 9.998938, 9.999604 
1.265171e+3, 2.943165e+2, -273063.0, -195970.14, 20842.084, -0.024822786, 0.033504207, -190696.27, -134994.28, 0.0, 9.998629, 9.999646 
1.2651908e+3, 3.043159e+2, -298573.06, -269494.13, -13822.519, -0.054050494, 0.049292885, -263972.22, -263972.22, 0.0, 9.99849, 9.998874 
1.2652104e+3, 3.1431475e+2, -131402.86, 51744.332, -14771.374, -0.061212227, 0.046775695, 52928.035, 52928.035, 0.0, 9.9986, 10.001028 
1.2748353e+3, 1.2431369e+2, -1495248.8, -1709922.9, 22650.838, -0.100463554, 0.008096188, -1492884.8, 228839.81, 0.0034160875, 10.001957, 9.999087 
1.2748553e+3, 1.343124e+2, -1430575.8, -1613948.5, -83622.49, 0.06803127, -0.036665145, -1398168.9, 225565.73, 0.0019378624, 10.00165, 9.999229 
1.2748721e+3, 1.443108e+2, -1410195.8, -1618866.1, -25478.672, -0.1388462, -0.0917312, -1407129.8, 118620.33, 0.0007627392, 10.001403, 9.998635 
1.2748928e+3, 1.5431024e+2, -1338899.9, -1538929.6, -37105.438, -0.04332954, -0.0064722504, -1332238.6, 95519.96, 0.0001526722, 10.001243, 9.998589 
1.2749127e+3, 1.6430931e+2, -1226758.4, -1391987.4, -48637.848, -0.009637613, 0.027394831, -1213504.3, 116264.34, 0.000004722807, 10.001158, 9.998965 
1.2749322e+3, 1.7430794e+2, -1123502.1, -1283926.1, -43674.367, -0.033105366, -0.011201641, -1112382.9, 119397.46, 0.0, 10.001162, 9.999032 
1.2749515e+3, 1.843066e+2, -1062364.4, -1227211.8, -46412.24, -0.03203194, -0.034700498, -1050195.5, 83596.69, 0.0, 10.001009, 9.998823 
1.274971e+3, 1.9430536e+2, -1014510.6, -1151080.0, -37225.32, -0.007158484, -0.043549325, -1005023.06, 30781.125, 0.0, 10.000654, 9.998843 
1.2749903e+3, 2.0430411e+2, -983117.44, -1130119.4, -33647.227, -0.0037803405, -0.030895961, -975782.0, -37964.75, 0.0, 10.000391, 9.998442 
1.2750097e+3, 2.143029e+2, -906362.25, -1041394.5, -51089.047, -0.025325537, 0.00445058, -889211.3, -49379.844, 0.0, 10.00024, 9.99845 
1.2750293e+3, 2.2430177e+2, -779910.56, -844996.0, -34027.04, -0.022539005, 0.013594913, -765369.6, -23526.428, 0.0, 10.000071, 9.9992075 
1.2750494e+3, 2.3430075e+2, -703585.94, -746399.44, -2489.4924, 0.011313056, -0.017756812, -703441.6, -59590.063, 0.0, 9.999875, 9.999307 
1.2750694e+3, 2.4429981e+2, -664771.25, -731292.1, 16537.832, 0.015077461, -0.016134286, -660886.6, -115025.91, 0.0, 9.999703, 9.998819 
1.2750894e+3, 2.54299e+2, -586277.2, -642301.9, -3351.8904, -0.021759257, 0.02365129, -586077.4, -138206.6, 0.0, 9.999567, 9.998823 
1.2751092e+3, 2.6429823e+2, -474923.97, -477713.7, -14053.431, -0.036962412, 0.038566925, -462196.34, -112316.375, 0.0, 9.999399, 9.999361 
1.2751295e+3, 2.742974e+2, -402004.0, -382825.66, 1178.7792, -0.021894211, 0.012281502, -382753.47, -130865.16, 0.0, 9.999188, 9.999441 
1.2751496e+3, 2.842968e+2, -331972.9, -285190.94, 13162.109, -0.017309278, 0.00920271, -281742.03, -127848.04, 0.0, 9.9989395, 9.9995575 
1.2751696e+3, 2.942967e+2, -278376.8, -207503.19, 9928.103, -0.029291028, 0.040033832, -206138.7, -150243.27, 0.0, 9.99863, 9.999567 
1.2751892e+3, 3.0429637e+2, -304050.25, -281434.16, -9773.652, -0.059520528, 0.0929909, -277795.75, -277795.75, 0.0, 9.998491, 9.998792 
1.2752092e+3, 3.1429455e+2, -142455.8, 29297.28, -6292.446, -0.029713875, 0.025461903, 29527.506, 29527.506, 0.0, 9.998597, 10.000875 
1.2848371e+3, 1.2429331e+2, -1525417.4, -1720570.9, 66296.77, -0.106380254, 0.018163351, -1505026.0, 216898.7, 0.0036351434, 10.001734, 9.999122 
1.2848571e+3, 1.3429196e+2, -1405780.3, -1594472.3, -82116.836, 0.072964415, -0.04007019, -1375049.0, 248886.22, 0.002072395, 10.001788, 9.999296 
1.284874e+3, 1.4429039e+2, -1364639.3, -1595583.4, -32919.914, -0.117044665, -0.09707055, -1360038.4, 165911.88, 0.00082385907, 10.001712, 9.998646 
1.284894e+3, 1.5428992e+2, -1308932.6, -1523892.9, -20051.496, -0.049648557, -0.0018443563, -1307078.3, 120879.27, 0.00016942424, 10.001447, 9.998592 
1.2849139e+3, 1.6428898e+2, -1222870.8, -1392334.9, -17837.098, -0.023976438, 0.031569745, -1221013.6, 108953.984, 0.00000585612, 10.001195, 9.998944 
1.2849332e+3, 1.7428747e+2, -1153784.9, -1301030.6, -24048.936, -0.028430354, -0.018414617, -1149956.6, 82024.125, 0.0, 10.000965, 9.999009 
1.2849525e+3, 1.8428615e+2, -1095006.5, -1239345.6, -45435.96, -0.022759521, -0.042655434, -1081894.9, 52097.816, 0.0, 10.000771, 9.998854 
1.2849715e+3, 1.9428505e+2, -1017736.2, -1148544.0, -53822.332, -0.012540045, -0.038980003, -998437.6, 37565.418, 0.0, 10.000617, 9.9988785 
1.2849908e+3, 2.0428382e+2, -971651.94, -1125530.8, -40639.62, -0.012538184, -0.02645752, -961578.44, -23562.453, 0.0, 10.000475, 9.998432 
1.2850098e+3, 2.1428242e+2, -892204.0, -1035576.5, -22651.559, -0.022746988, -0.008142643, -888710.44, -48678.27, 0.0, 10.000343, 9.99844 
1.2850294e+3, 2.2428133e+2, -760875.5, -819829.25, -10785.514, -0.017480517, -0.0018650524, -758964.25, -16920.898, 0.0, 10.0001335, 9.99935 
1.2850493e+3, 2.3428063e+2, -700669.06, -727869.56, -28774.021, 0.0065931473, -0.017315524, -682443.0, -38395.047, 0.0, 9.999822, 9.999458 
1.285069e+3, 2.4427977e+2, -693907.44, -749425.6, -19380.564, 0.004952806, -0.01307395, -687811.4, -141755.2, 0.0, 9.99952, 9.998783 
1.2850887e+3, 2.5427878e+2, -637803.5, -672539.44, -1744.3507, -0.031057272, 0.011902613, -637716.1, -189647.28, 0.0, 9.999237, 9.998775 
1.2851083e+3, 2.6427805e+2, -514934.4, -477493.13, 3929.8691, -0.041269056, 0.027415587, -477085.1, -127007.39, 0.0, 9.999042, 9.999535 
1.2851286e+3, 2.742776e+2, -422416.53, -371112.9, 2209.2827, -0.015893752, 0.020711608, -371017.94, -118936.11, 0.0, 9.998956, 9.999633 
1.2851486e+3, 2.8427714e+2, -342669.1, -290447.5, 5041.712, -0.0091689285, 0.017544942, -289965.22, -135878.8, 0.0, 9.998867, 9.999557 
1.2851682e+3, 2.942768e+2, -258025.23, -199117.66, 5565.489, -0.030228613, 0.026661377, -198596.45, -142506.06, 0.0, 9.9987755, 9.999554 
1.2851878e+3, 3.0427676e+2, -277157.25, -251857.56, 462.33762, -0.056834873, 0.10197634, -251849.11, -251849.11, 0.0, 9.998607, 9.998939 
1.2852079e+3, 3.1427488e+2, -176747.2, 17059.195, 23796.002, -0.002022495, 0.01665499, 19938.158, 19938.158, 0.0, 9.998343, 10.000914 
1.2948386e+3, 1.2427271e+2, -1551787.8, -1775220.5, 79722.66, -0.1252463, -0.04595111, -1526258.9, 195865.69, 0.0038618036, 10.001732, 9.998748 
1.2948589e+3, 1.3427207e+2, -1429601.0, -1644312.5, -80477.46, 0.07827121, 0.000138784, -1402785.6, 221345.36, 0.0022117733, 10.001789, 9.998955 
1.294876e+3, 1.4427064e+2, -1343400.3, -1552539.9, -42794.74, -0.0863552, -0.036805216, -1334982.3, 191162.88, 0.000887706, 10.001716, 9.99894 
1.2948956e+3, 1.542697e+2, -1283751.6, -1472782.1, -30350.924, -0.0506391, -0.02441399, -1278998.0, 149156.78, 0.0001872894, 10.001451, 9.998941 
1.294915e+3, 1.6426855e+2, -1231890.8, -1412238.9, -27225.252, -0.032526214, -0.02418427, -1227870.5, 102295.414, 0.0000072252774, 10.001199, 9.998807 
1.2949343e+3, 1.7426722e+2, -1165857.9, -1326847.9, -33097.875, -0.011893293, -0.040054504, -1159319.0, 72859.61, 0.0, 10.000967, 9.998832 
1.2949534e+3, 1.84266e+2, -1108578.1, -1268005.9, -52009.207, -0.009044687, -0.0333134, -1093111.9, 41078.52, 0.0, 10.0007715, 9.998657 
1.2949719e+3, 1.9426496e+2, -1031306.44, -1177272.5, -60118.027, -0.037580796, -0.004039681, -1009734.2, 26466.996, 0.0, 10.000618, 9.998681 
1.294991e+3, 2.0426367e+2, -942686.6, -1065691.8, -46391.918, -0.039734513, -0.005658024, -927151.7, 11062.522, 0.0, 10.000475, 9.998843 
1.2950104e+3, 2.1426207e+2, -859654.5, -968560.44, -28062.373, -0.0040004305, -0.054052122, -852848.8, -12618.831, 0.0, 10.000345, 9.9989 
1.2950298e+3, 2.24261e+2, -790643.94, -882227.9, -22530.545, 0.0027827348, -0.04978339, -785401.3, -43160.605, 0.0, 10.000135, 9.998921 
1.2950487e+3, 2.3426063e+2, -735041.7, -799840.7, -40503.434, -0.030277379, 0.018474314, -715573.5, -71329.06, 0.0, 9.999824, 9.998964 
1.295068e+3, 2.4425979e+2, -666804.56, -693904.8, -30080.445, -0.04326744, 0.031635925, -647363.2, -101110.05, 0.0, 9.999522, 9.999165 
1.295088e+3, 2.5425836e+2, -605715.0, -606946.1, -11985.16, -0.02891377, -0.032275006, -594329.6, -146061.58, 0.0, 9.99924, 9.999224 
1.2951076e+3, 2.6425773e+2, -514471.25, -477341.53, 780.52057, -0.018582372, -0.029421363, -477325.13, -127050.04, 0.0, 9.999043, 9.999535 
1.2951276e+3, 2.742581e+2, -424638.38, -375517.16, -168.90706, -0.013402231, 0.0505246, -375516.6, -123244.34, 0.0, 9.998954, 9.999604 
1.2951474e+3, 2.842578e+2, -340239.13, -285509.5, 2486.8162, -0.014797253, 0.06220557, -285396.75, -131120.78, 0.0, 9.998865, 9.999592 
1.295167e+3, 2.9425675e+2, -254671.72, -192821.97, 3252.519, -0.02790481, -0.0042019617, -192651.4, -136364.73, 0.0, 9.998777, 9.999598 
1.2951866e+3, 3.0425698e+2, -251816.8, -199096.61, -8247.259, -0.046246216, 0.07854992, -197836.58, -197836.58, 0.0, 9.998606, 9.999302 
1.2952064e+3, 3.1425583e+2, -163257.7, 46265.406, 16987.492, 0.02002477, 0.025761994, 47633.76, 47633.76, 0.0, 9.998339, 10.001117 
1.3048409e+3, 1.2425246e+2, -1482851.1, -1753517.3, 79793.09, -0.091532, -0.06987936, -1461079.3, 261242.95, 0.004094851, 10.00226, 9.998641 
1.3048604e+3, 1.3425207e+2, -1456585.8, -1666105.5, -72997.51, 0.056247145, 0.011659547, -1433661.4, 190665.77, 0.0023553874, 10.001642, 9.998875 
1.3048773e+3, 1.442507e+2, -1394272.6, -1566123.9, -24504.576, -0.10120404, -0.020921808, -1390846.8, 135494.25, 0.00095388794, 10.00132, 9.999037 
1.3048969e+3, 1.5424964e+2, -1285249.4, -1460951.4, -29867.592, -0.039093815, -0.03125327, -1280311.0, 148040.03, 0.0002061118, 10.001388, 9.999053 
1.3049163e+3, 1.6424848e+2, -1220919.4, -1415034.4, -39908.043, -0.015824307, -0.035827685, -1213035.0, 117327.234, 0.000008878666, 10.00131, 9.998733 
1.3049352e+3, 1.7424722e+2, -1161655.3, -1334228.0, -39753.99, -0.017852066, -0.033654816, -1152937.9, 79436.59, 0.0, 10.001039, 9.998746 
1.304954e+3, 1.8424599e+2, -1103502.8, -1266974.3, -45234.82, -0.019193612, -0.024291467, -1091820.5, 42566.31, 0.0, 10.0008135, 9.998643 
1.3049726e+3, 1.9424479e+2, -1027500.1, -1175912.8, -39015.234, -0.027844246, -0.012403859, -1017868.75, 18530.523, 0.0, 10.000647, 9.998676 
1.3049914e+3, 2.0424353e+2, -940496.94, -1053550.1, -29372.44, -0.025563711, -0.013784978, -933321.1, 5090.5264, 0.0, 10.000443, 9.998941 
1.3050106e+3, 2.1424228e+2, -875238.3, -964112.4, -38266.15, -0.006672167, -0.03783472, -861032.8, -20609.133, 0.0, 10.000187, 9.999006 
1.3050297e+3, 2.2424121e+2, -819488.25, -909322.1, -37134.082, -0.0081650885, -0.033057433, -806125.94, -63691.69, 0.0, 9.999994, 9.998803 
1.3050485e+3, 2.3424038e+2, -735349.9, -814858.1, -28791.701, -0.037378732, 0.0025333562, -726018.9, -81576.08, 0.0, 9.9998865, 9.998831 
1.3050677e+3, 2.4423945e+2, -634149.06, -658974.2, -15469.803, -0.044452146, 0.0051053553, -626727.6, -80275.33, 0.0, 9.999665, 9.999334 
1.3050872e+3, 2.5423843e+2, -584883.3, -575370.1, -17018.447, -0.022071427, -0.03862553, -562456.06, -113993.44, 0.0, 9.99929, 9.999416 
1.3051067e+3, 2.6423797e+2, -517769.2, -480094.53, -6967.3413, -0.014730799, -0.027092226, -478847.3, -128379.66, 0.0, 9.999026, 9.999524 
1.3051264e+3, 2.7423826e+2, -431797.1, -381851.06, -7702.7905, -0.027157623, 0.044012297, -380690.1, -128223.86, 0.0, 9.998918, 9.9995775 
1.305146e+3, 2.8423786e+2, -348742.9, -274161.94, -4225.7715, -0.028060194, 0.04418273, -273923.25, -119452.57, 0.0, 9.998741, 9.999729 
1.3051657e+3, 2.9423684e+2, -289623.4, -192083.64, 3669.411, -0.01596795, -0.03380585, -191945.8, -135465.06, 0.0, 9.998462, 9.999754 
1.3051851e+3, 3.0423748e+2, -275895.6, -194960.36, -5629.5166, -0.026792448, 0.07452992, -194570.66, -194570.66, 0.0, 9.998373, 9.999442 
1.305205e+3, 3.1423655e+2, -136039.22, 48603.746, 4135.523, 0.022476096, 0.030942643, 48696.324, 48696.324, 0.0, 9.998571, 10.001021 
1.314844e+3, 1.24232665e+2, -1470437.5, -1729140.5, 65652.414, -0.000968531, -0.048431125, -1454730.3, 267786.3, 0.0043321527, 10.002266, 9.998807 
1.3148615e+3, 1.3423207e+2, -1443249.9, -1638939.8, -97057.01, 0.005742743, -0.0071195695, -1403277.3, 221245.6, 0.0025021203, 10.001644, 9.999062 
1.3148779e+3, 1.4423062e+2, -1402033.3, -1581943.6, -24385.943, -0.1651351, -0.05244087, -1398786.4, 127750.99, 0.0010219518, 10.001317, 9.99893 
1.3148987e+3, 1.5422982e+2, -1295286.8, -1481610.1, -27581.373, -0.015801353, -0.022042664, -1291289.6, 137256.13, 0.000225761, 10.001386, 9.998912 
1.314918e+3, 1.6422883e+2, -1221635.4, -1417184.9, -50050.445, 0.026115377, -0.0018356123, -1209569.6, 120986.41, 0.000010883995, 10.001312, 9.998717 
1.314936e+3, 1.7422758e+2, -1161171.5, -1334210.4, -50492.19, -0.046955775, 0.0017012225, -1147515.8, 85052.37, 0.0, 10.001041, 9.998745 
1.3149545e+3, 1.8422617e+2, -1090998.0, -1241690.9, -52490.52, -0.05470582, -0.014955853, -1074516.6, 60064.99, 0.0, 10.000815, 9.9988165 
1.3149737e+3, 1.9422452e+2, -1013810.2, -1148411.5, -45712.824, 0.0163046, -0.06467631, -999753.3, 36843.582, 0.0, 10.000649, 9.998864 
1.3149925e+3, 2.0422342e+2, -955438.56, -1085428.8, -39393.71, 0.029856693, -0.05211025, -944432.2, -5824.2446, 0.0, 10.000446, 9.998722 
1.3150106e+3, 2.1422309e+2, -892867.6, -1001098.5, -48256.67, -0.031248905, 0.039832126, -874476.56, -33863.74, 0.0, 10.000188, 9.998753 
1.3150291e+3, 2.24222e+2, -806580.2, -882790.44, -42111.97, -0.051234234, 0.048521593, -787892.56, -45268.793, 0.0, 9.999995, 9.998985 
1.3150486e+3, 2.3421991e+2, -719719.94, -782863.6, -32928.66, -0.015623932, -0.06352241, -705672.94, -61030.234, 0.0, 9.999887, 9.99905 
1.3150676e+3, 2.4421877e+2, -636510.5, -664482.94, -28725.95, 0.00017709105, -0.091927335, -618546.9, -71893.31, 0.0, 9.999667, 9.999296 
1.3150865e+3, 2.5421894e+2, -588333.25, -583250.9, -30606.324, -0.011645204, -0.009093616, -555080.44, -106427.66, 0.0, 9.999292, 9.999362 
1.3151056e+3, 2.6421875e+2, -519569.6, -484702.94, -11219.675, -0.030134741, 0.03262898, -481404.6, -130749.14, 0.0, 9.999028, 9.999493 
1.315125e+3, 2.74218e+2, -433465.47, -386317.63, -10635.9375, -0.056820244, 0.0039025713, -384029.38, -131365.78, 0.0, 9.99892, 9.999547 
1.3151446e+3, 2.8421736e+2, -332226.1, -240785.23, -13405.747, -0.048913326, -0.03308033, -238860.39, -84190.05, 0.0, 9.998744, 9.999958 
1.3151644e+3, 2.9421705e+2, -271411.84, -154605.64, -6260.6465, 0.003472281, -0.06286364, -154271.05, -97598.18, 0.0, 9.998463, 10.000011 
1.3151838e+3, 3.0421823e+2, -280198.78, -204408.56, 921.08154, -0.00092017755, 0.08761973, -204397.38, -204397.38, 0.0, 9.998374, 9.999377 
1.3152033e+3, 3.1421712e+2, -161983.81, -5143.9043, 15775.282, 0.0045775557, 0.041190725, -3572.9292, -3572.9292, 0.0, 9.9985695, 10.000653 
1.3248463e+3, 1.2421289e+2, -1518339.6, -1742146.5, 76237.766, 0.014000888, -0.04020338, -1494837.9, 227873.2, 0.0045723, 10.001892, 9.998898 
1.3248631e+3, 1.3421232e+2, -1409356.9, -1610630.0, -101940.9, 0.0025092226, -0.0064120796, -1366746.6, 257970.13, 0.0026508812, 10.001827, 9.999167 
1.3248795e+3, 1.4421086e+2, -1354529.9, -1564849.4, -22684.053, -0.15407524, -0.055948168, -1352111.1, 174620.3, 0.0010914269, 10.001671, 9.998877 
1.3249e+3, 1.5421018e+2, -1299629.3, -1491707.6, -20288.055, -0.023621405, -0.006649786, -1297509.8, 131229.27, 0.00024614425, 10.001392, 9.998839 
1.324919e+3, 1.6420917e+2, -1236846.4, -1420193.5, -40659.15, 0.011112304, 0.015314189, -1228234.4, 102514.9, 0.000013287297, 10.001189, 9.998755 
1.3249369e+3, 1.7420779e+2, -1150928.8, -1323598.3, -38284.832, -0.05098464, -0.00058781967, -1142820.9, 89941.54, 0.0, 10.001088, 9.998795 
1.3249554e+3, 1.8420638e+2, -1065309.5, -1222529.9, -41166.582, -0.05219329, -0.022536892, -1055182.8, 79592.83, 0.0, 10.000963, 9.998877 
1.3249744e+3, 1.9420493e+2, -986589.4, -1128152.3, -43931.58, 0.017740903, -0.05920585, -974064.2, 62724.547, 0.0, 10.000807, 9.998927 
1.3249929e+3, 2.0420384e+2, -933445.9, -1078180.1, -39666.68, 0.028665438, -0.04610848, -923287.56, 15511.732, 0.0, 10.000612, 9.998692 
1.3250108e+3, 2.1420331e+2, -870873.75, -994558.0, -33102.46, -0.036424085, 0.029443543, -862571.56, -21765.555, 0.0, 10.000358, 9.998715 
1.3250291e+3, 2.2420219e+2, -793938.5, -871704.75, -22126.664, -0.053147037, 0.033492412, -788083.6, -45266.305, 0.0, 10.000062, 9.999029 
1.3250485e+3, 2.3420027e+2, -741585.44, -787735.44, -25998.016, -0.005309142, -0.066446215, -729899.1, -85064.414, 0.0, 9.999714, 9.999101 
1.3250674e+3, 2.4419916e+2, -665680.5, -687473.75, -29137.219, 0.012790816, -0.08869697, -645469.0, -98623.96, 0.0, 9.999506, 9.999216 
1.3250859e+3, 2.541992e+2, -565922.75, -581991.94, -34163.53, -0.010041032, -0.008901743, -538861.75, -90016.24, 0.0, 9.99949, 9.999274 
1.3251047e+3, 2.641989e+2, -483017.53, -463524.9, -18398.486, -0.029981319, 0.02457359, -452450.7, -101601.49, 0.0, 9.999267, 9.999522 
1.3251239e+3, 2.7419806e+2, -454838.7, -391969.78, -13383.887, -0.04491429, -0.01877091, -389239.16, -136381.2, 0.0, 9.998755, 9.999587 
1.3251431e+3, 2.8419742e+2, -360044.1, -255574.5, -11142.464, -0.03858107, -0.054587666, -254399.3, -99535.02, 0.0, 9.998561, 9.999944 
1.325163e+3, 2.9419735e+2, -223176.5, -132345.67, -23438.264, -0.006207434, -0.061718173, -126654.21, -69789.36, 0.0, 9.998799, 10.000002 
1.3251822e+3, 3.0419862e+2, -217174.38, -164226.97, -24661.408, -0.01464022, 0.09262986, -154519.98, -154519.98, 0.0, 9.998767, 9.999463 
1.3252018e+3, 3.141973e+2, -204880.03, -47775.66, 5295.4434, 0.004487394, 0.016329288, -47597.37, -47597.37, 0.0, 9.998371, 10.000455 
1.3348475e+3, 1.2419317e+2, -1518440.9, -1741274.4, 80266.664, -0.053817667, -0.04782411, -1492538.9, 230366.48, 0.0048153205, 10.001887, 9.998906 
1.3348655e+3, 1.341929e+2, -1408315.5, -1608493.8, -104611.88, 0.04837467, 0.015613763, -1363623.9, 261284.27, 0.0028011485, 10.001827, 9.999183 
1.3348821e+3, 1.441915e+2, -1354370.3, -1565327.9, -33679.145, -0.064777344, -0.029388756, -1349123.9, 177798.27, 0.001161807, 10.001674, 9.998872 
1.3349009e+3, 1.5419076e+2, -1299432.6, -1492135.0, -31382.572, -0.06391049, 0.014802769, -1294450.6, 134479.38, 0.00026710884, 10.001394, 9.998836 
1.3349195e+3, 1.6418958e+2, -1230631.9, -1407825.3, -45528.45, -0.06388035, 0.015157205, -1219618.3, 111323.26, 0.000016044773, 10.001191, 9.99884 
1.3349383e+3, 1.7418788e+2, -1144045.4, -1310063.9, -42488.484, -0.030374782, -0.0414202, -1133803.3, 99153.72, 0.00000000003443261, 10.00109, 9.998887 
1.3349567e+3, 1.8418665e+2, -1068581.9, -1230198.5, -47698.887, -0.011574831, -0.04826052, -1055554.4, 79414.06, 0.0, 10.000966, 9.998823 
1.3349749e+3, 1.9418602e+2, -990944.56, -1137993.8, -50313.004, -0.023962175, 0.0042332024, -975377.8, 61596.508, 0.0, 10.00081, 9.998858 
1.3349931e+3, 2.0418486e+2, -922395.2, -1055632.4, -49647.176, -0.030203776, 0.005521558, -905930.2, 33055.133, 0.0, 10.000612, 9.998847 
1.3350113e+3, 2.14183e+2, -858281.44, -969154.25, -43181.35, -0.023215292, -0.068174355, -843448.2, -2445.2822, 0.0, 10.00036, 9.998889 
1.3350296e+3, 2.2418177e+2, -800286.25, -885707.4, -35461.65, -0.014730951, -0.07862895, -787483.56, -44468.777, 0.0, 10.000065, 9.998932 
1.3350481e+3, 2.3418145e+2, -749595.7, -805095.4, -39115.75, -0.006545267, -0.008317434, -729386.2, -84367.555, 0.0, 9.999716, 9.9989805 
1.3350667e+3, 2.4418066e+2, -674460.9, -706254.9, -30632.572, -0.006617326, 0.013280428, -655846.0, -108819.13, 0.0, 9.999507, 9.999087 
1.3350853e+3, 2.541793e+2, -575177.4, -601425.4, -34187.895, -0.017908946, -0.035806626, -551681.0, -102640.34, 0.0, 9.99949, 9.999142 
1.3351041e+3, 2.6417848e+2, -476522.16, -450713.7, -35572.586, -0.015747914, -0.04888429, -425777.1, -74728.34, 0.0, 9.999269, 9.99961 
1.335123e+3, 2.7417842e+2, -446191.16, -375454.6, -31772.64, 0.005945741, -0.026517438, -363279.03, -110229.34, 0.0, 9.99876, 9.999699 
1.3351423e+3, 2.841781e+2, -376940.2, -292191.0, -3472.6838, 0.0006247162, -0.024067644, -292048.94, -136996.05, 0.0, 9.998567, 9.99969 
1.3351613e+3, 2.9417777e+2, -242615.11, -172898.64, -13035.285, -0.04481178, -0.02929292, -170541.08, -113484.45, 0.0, 9.998799, 9.999724 
1.3351804e+3, 3.0417866e+2, -201945.75, -132529.42, -36394.35, -0.06745065, 0.09191982, -116946.38, -116946.38, 0.0, 9.998766, 9.999681 
1.3352002e+3, 3.1417707e+2, -208169.86, -54248.496, -5775.504, 0.019263538, -0.037497032, -54032.09, -54032.09, 0.0, 9.998369, 10.000412 
1.3448492e+3, 1.24174014e+2, -1478597.0, -1734176.1, 113844.49, -0.076968774, -0.04333513, -1435241.1, 287852.2, 0.0050627007, 10.002217, 9.998796 
1.3448673e+3, 1.3417374e+2, -1423652.0, -1630845.9, -89110.79, 0.056712374, 0.03284387, -1390599.5, 234497.14, 0.002953265, 10.001787, 9.999048 
1.344884e+3, 1.4417216e+2, -1372174.9, -1572677.1, -19596.908, -0.026141634, -0.021263104, -1370277.5, 156834.75, 0.0012327734, 10.001546, 9.998883 
1.3449022e+3, 1.5417135e+2, -1273220.6, -1476564.0, -15282.167, -0.07557094, 0.01107972, -1272078.5, 157041.81, 0.00028840025, 10.001563, 9.99886 
1.3449205e+3, 1.6417013e+2, -1195358.9, -1391506.9, -33984.535, -0.08984264, 0.007776997, -1189637.6, 141494.16, 0.00001901083, 10.001437, 9.998834 
1.3449395e+3, 1.741685e+2, -1140422.0, -1309223.3, -38990.008, -0.021030435, -0.04161909, -1131851.3, 101295.445, 0.0000000014653116, 10.00112, 9.9988785 
1.3449578e+3, 1.8416725e+2, -1079784.4, -1239369.6, -44472.063, 0.005009218, -0.04826293, -1068228.1, 66930.1, 0.0, 10.000906, 9.998789 
1.3449755e+3, 1.9416651e+2, -991047.94, -1141758.6, -45183.055, -0.03868888, -0.0045579495, -978540.1, 58625.06, 0.0, 10.000826, 9.998825 
1.3449934e+3, 2.041653e+2, -915013.56, -1043554.0, -52163.363, -0.050010744, -0.008503242, -896508.94, 42667.316, 0.0, 10.0006275, 9.998922 
1.3450117e+3, 2.1416351e+2, -865618.9, -962929.3, -53285.266, -0.012882274, -0.08296086, -842117.0, -924.39105, 0.0, 10.000268, 9.998976 
1.3450299e+3, 2.2416231e+2, -812054.7, -906028.0, -46435.72, 0.0027156156, -0.08970647, -792980.6, -49776.332, 0.0, 10.000048, 9.9988 
1.3450478e+3, 2.3416193e+2, -716154.0, -805211.25, -52770.7, -0.013419188, -0.0100487685, -691635.2, -46425.863, 0.0, 10.000017, 9.998834 
1.3450661e+3, 2.4416108e+2, -631997.56, -683538.6, -43000.2, -0.01948923, 0.013599592, -607636.9, -60418.527, 0.0, 9.999792, 9.9991045 
1.3450848e+3, 2.541597e+2, -600855.56, -610042.06, -35343.51, -0.011586372, -0.042768955, -569808.06, -120575.75, 0.0, 9.999299, 9.999173 
1.3451034e+3, 2.6415887e+2, -508415.2, -472346.84, -32120.89, -0.0009092592, -0.05575188, -453543.75, -102303.28, 0.0, 9.999079, 9.999552 
1.3451222e+3, 2.741588e+2, -381273.38, -350965.7, -41595.98, 0.014378238, -0.023285337, -321849.2, -68608.05, 0.0, 9.999238, 9.999636 
1.3451411e+3, 2.8415847e+2, -298217.88, -259743.06, -12136.535, 0.0065113315, -0.019344237, -256234.63, -100989.99, 0.0, 9.999134, 9.999639 
1.3451602e+3, 2.9415795e+2, -265615.63, -188230.48, -5105.28, -0.035473045, -0.03726959, -187895.13, -130645.5, 0.0, 9.998663, 9.999683 
1.3451791e+3, 3.0415863e+2, -242497.53, -140265.38, -23953.229, -0.062293068, 0.057984572, -134931.39, -134931.39, 0.0, 9.998439, 9.999786 
1.3451985e+3, 3.141573e+2, -193645.53, -64105.063, -1760.9918, -0.0012537367, -0.051967055, -64081.13, -64081.13, 0.0, 9.998545, 10.000259 
1.3548517e+3, 1.241555e+2, -1495613.6, -1769977.0, 101798.266, -0.052312676, -0.025741601, -1461968.8, 261305.27, 0.00531726, 10.002218, 9.99855 
1.3548687e+3, 1.3415487e+2, -1444306.0, -1674026.3, -106048.29, 0.024813524, 0.044367444, -1402836.1, 222445.67, 0.003108456, 10.001787, 9.998753 
1.3548854e+3, 1.4415292e+2, -1370646.5, -1569699.1, -20883.6, -0.042650353, -0.032926496, -1368479.0, 158822.08, 0.0013043365, 10.001546, 9.998904 
1.3549039e+3, 1.5415198e+2, -1269579.3, -1469521.9, -14820.833, -0.058330305, -0.0179643, -1268486.6, 160822.78, 0.00030973944, 10.001565, 9.998909 
1.3549222e+3, 1.6415088e+2, -1201999.6, -1406071.6, -45844.875, -0.06555713, -0.0072442302, -1192173.6, 139145.77, 0.000021994929, 10.00144, 9.998733 
1.3549404e+3, 1.7414969e+2, -1148015.5, -1325977.5, -51545.004, -0.023422316, -0.0012986864, -1134164.0, 99166.75, 0.0000000068048798, 10.001123, 9.998762 
1.3549586e+3, 1.8414822e+2, -1080612.5, -1241697.3, -48957.766, -0.0038315095, -0.021530313, -1066900.3, 68444.14, 0.0, 10.000908, 9.998773 
1.3549764e+3, 1.941464e+2, -990816.1, -1142195.9, -48637.39, -0.027121706, -0.08567851, -976536.25, 60824.61, 0.0, 10.000829, 9.998821 
1.3549942e+3, 2.041452e+2, -915059.0, -1044595.3, -65535.188, -0.031394355, -0.089924574, -887687.2, 51684.69, 0.0, 10.000631, 9.998914 
1.3550119e+3, 2.1414489e+2, -865752.25, -963753.4, -67342.77, -0.0056082234, -0.01589106, -831469.5, 9905.401, 0.0, 10.000269, 9.99897 
1.35503e+3, 2.2414383e+2, -823765.25, -930652.5, -49001.934, -0.0010173311, 0.000605626, -804700.9, -61315.36, 0.0, 10.000048, 9.9986315 
1.3550477e+3, 2.3414177e+2, -729306.5, -832595.44, -53858.73, -0.026679533, -0.06954157, -706332.56, -60926.184, 0.0, 10.000017, 9.998646 
1.3550659e+3, 2.4414049e+2, -620799.56, -660660.06, -60006.1, -0.026970208, -0.086229734, -577500.5, -30081.18, 0.0, 9.999793, 9.999262 
1.3550842e+3, 2.541404e+2, -586472.8, -581427.4, -53454.695, 0.00820718, -0.031732026, -530435.94, -81015.12, 0.0, 9.999304, 9.999368 
1.3551027e+3, 2.6414004e+2, -522628.84, -503073.63, -27495.264, 0.014420555, 0.0012030401, -483669.22, -132244.53, 0.0, 9.999083, 9.99934 
1.3551211e+3, 2.7413934e+2, -399356.66, -387813.28, -34298.313, -0.0199562, -0.007278945, -358804.4, -105372.22, 0.0, 9.999234, 9.999385 
1.3551399e+3, 2.841386e+2, -289480.1, -240523.1, -26921.484, -0.022547355, -0.036668766, -228615.28, -73175.89, 0.0, 9.999128, 9.999774 
1.3551593e+3, 2.9413792e+2, -253678.63, -163262.14, -21660.6, 0.018662365, -0.0851551, -158340.88, -100896.52, 0.0, 9.998661, 9.999856 
1.355178e+3, 3.0413848e+2, -242478.95, -140875.53, -20760.34, -0.002288376, -0.0106029045, -136797.33, -136797.33, 0.0, 9.99844, 9.999783 
1.3551964e+3, 3.1413808e+2, -210539.89, -99052.445, 6081.838, -0.05818909, -0.027530966, -98721.65, -98721.65, 0.0, 9.998542, 10.000022 
1.3648541e+3, 1.2413674e+2, -1520432.1, -1790807.6, 95302.695, -0.025381248, -0.023661071, -1490216.4, 233241.02, 0.005582378, 10.002087, 9.99847 
1.3648704e+3, 1.3413595e+2, -1384796.1, -1660123.5, -103484.055, -0.015785912, 0.04322789, -1350238.4, 275228.66, 0.0032685762, 10.002262, 9.998618 
1.3648869e+3, 1.441338e+2, -1287309.3, -1531717.5, -17830.77, -0.06852888, -0.0459026, -1286015.3, 241473.0, 0.0013768864, 10.0021305, 9.998882 
1.3649058e+3, 1.5413281e+2, -1266027.8, -1469113.5, -16684.514, -0.037492927, -0.032788876, -1264666.3, 164830.16, 0.00033094976, 10.0015955, 9.998898 
1.364924e+3, 1.6413173e+2, -1219815.5, -1421684.6, -42916.832, -0.034950685, -0.01828497, -1211070.4, 120435.9, 0.000024852021, 10.001348, 9.998671 
1.3649416e+3, 1.7413059e+2, -1098852.0, -1309468.9, -44708.87, -0.03264102, -0.00059980457, -1089754.4, 143763.14, 0.000000016360648, 10.0014925, 9.998698 
1.3649596e+3, 1.8412909e+2, -1020676.4, -1216532.1, -48696.395, -0.020445488, -0.019336741, -1009236.94, 126294.63, 0.0, 10.001336, 9.998738 
1.3649774e+3, 1.941271e+2, -1002295.2, -1151216.1, -51350.7, -0.0073238797, -0.09715324, -986305.4, 51244.086, 0.0, 10.000765, 9.998789 
1.364995e+3, 2.0412579e+2, -948451.75, -1075707.6, -67338.56, -0.005160748, -0.10209, -919435.2, 20126.242, 0.0, 10.000467, 9.998778 
1.3650124e+3, 2.1412551e+2, -834605.75, -964620.3, -79318.445, -0.014667823, -0.01020848, -797058.8, 44505.887, 0.0, 10.000553, 9.998827 
1.36503e+3, 2.2412443e+2, -770873.44, -898085.2, -63974.97, -0.019502958, 0.0071660727, -744265.6, -689.90704, 0.0, 10.000383, 9.9986925 
1.3650477e+3, 2.3412222e+2, -747943.56, -832952.56, -50393.78, -0.018470453, -0.08536071, -724522.6, -78925.336, 0.0, 9.999853, 9.998722 
1.3650657e+3, 2.4412093e+2, -658731.06, -683991.8, -51010.195, -0.009268176, -0.10664173, -618810.8, -71200.51, 0.0, 9.999556, 9.999214 
1.3650838e+3, 2.5412095e+2, -549002.56, -569352.8, -63318.355, 0.0110172955, -0.033933368, -495046.97, -45435.914, 0.0, 9.99959, 9.999311 
1.3651018e+3, 2.6412064e+2, -469862.63, -475174.0, -37030.305, 0.008755454, 0.0034858945, -435392.9, -83778.03, 0.0, 9.999438, 9.999358 
1.3651201e+3, 2.7411982e+2, -428091.8, -398229.0, -24473.234, -0.025673693, -0.016079694, -384491.84, -130869.03, 0.0, 9.999026, 9.999412 
1.3651387e+3, 2.8411907e+2, -357029.38, -277045.84, -19466.387, -0.027278842, -0.04289012, -272559.72, -116930.02, 0.0, 9.998684, 9.999736 
1.3651578e+3, 2.9411855e+2, -289942.75, -184595.9, -30544.012, 0.017964326, -0.077176124, -176380.69, -118746.664, 0.0, 9.998431, 9.999819 
1.3651764e+3, 3.0411887e+2, -245421.81, -130439.29, -16890.846, 0.001416165, -0.031402186, -128009.39, -128009.39, 0.0, 9.998369, 9.999887 
1.3651948e+3, 3.1411886e+2, -209070.64, -101925.24, 21846.148, -0.06613823, -0.01760114, -97642.19, -97642.19, 0.0, 9.998567, 9.999991 
1.3748564e+3, 1.2411776e+2, -1513871.8, -1776437.3, 102138.445, 0.0015769212, -0.037579, -1478819.3, 244823.58, 0.0058605294, 10.002083, 9.998571 
1.374872e+3, 1.3411702e+2, -1381479.8, -1653919.5, -97240.39, -0.065361604, 0.029792193, -1350333.1, 275318.6, 0.0034352848, 10.002265, 9.99866 
1.3748889e+3, 1.4411484e+2, -1291429.3, -1542036.5, -37225.242, -0.10440693, -0.059907995, -1286016.8, 241656.44, 0.0014510443, 10.002137, 9.998809 
1.3749076e+3, 1.541139e+2, -1271193.8, -1480848.9, -37695.094, -0.01397188, -0.033966046, -1264622.4, 165058.44, 0.0003520353, 10.001598, 9.998816 
1.3749255e+3, 1.641127e+2, -1220800.9, -1424351.3, -40185.35, 0.0011502794, -0.025376907, -1213154.6, 118537.12, 0.000027536262, 10.001349, 9.9986515 
1.374943e+3, 1.7411123e+2, -1098920.6, -1310845.4, -39543.008, -0.04937938, -0.039562307, -1091782.8, 141923.52, 0.000000027808229, 10.001496, 9.998687 
1.3749605e+3, 1.8410987e+2, -1024150.6, -1225026.6, -68896.21, -0.046243317, -0.042938747, -1002791.75, 132927.69, 0.0, 10.001341, 9.998678 
1.3749784e+3, 1.941086e+2, -1006328.6, -1160490.4, -73552.36, 0.02039608, -0.039280206, -976866.5, 60864.195, 0.0, 10.000768, 9.998725 
1.3749957e+3, 2.0410717e+2, -966733.4, -1113941.5, -66831.484, 0.028795654, -0.043915387, -940919.06, -1174.5259, 0.0, 10.000467, 9.998516 
1.3750125e+3, 2.1410549e+2, -854181.1, -1005712.5, -76186.055, -0.040611316, -0.06509404, -822500.25, 19261.34, 0.0, 10.000554, 9.998545 
1.37503e+3, 2.2410414e+2, -751140.9, -857813.3, -82221.99, -0.0541067, -0.07055492, -706470.94, 37303.87, 0.0, 10.000385, 9.998968 
1.3750479e+3, 2.341033e+2, -724056.3, -784350.56, -70344.445, 0.010401932, -0.05866947, -677671.1, -31889.06, 0.0, 9.999857, 9.999055 
1.3750657e+3, 2.4410237e+2, -675917.56, -720722.5, -51373.957, 0.0329345, -0.04850339, -642274.06, -94482.77, 0.0, 9.999559, 9.998961 
1.3750832e+3, 2.5410137e+2, -571263.2, -614939.5, -61259.66, -0.004087868, -0.04715265, -528065.56, -78262.664, 0.0, 9.999586, 9.9990015 
1.3751009e+3, 2.641006e+2, -454224.97, -442044.03, -50388.527, -0.019294787, -0.045989785, -397379.22, -45568.31, 0.0, 9.999434, 9.999588 
1.3751192e+3, 2.7410024e+2, -407380.03, -356661.28, -38903.813, -0.004355521, -0.051245447, -335581.4, -81767.92, 0.0, 9.999032, 9.999695 
1.3751376e+3, 2.8409994e+2, -369829.44, -305944.0, -28623.898, -0.008715365, -0.0410212, -294995.4, -139179.16, 0.0, 9.9986925, 9.999535 
1.3751556e+3, 2.9409978e+2, -306562.25, -219635.73, -38808.047, -0.037920453, -0.012584806, -204831.33, -147012.53, 0.0, 9.998431, 9.999579 
1.3751744e+3, 3.040997e+2, -233324.11, -104088.82, -9608.172, -0.052697323, -0.0034739964, -103378.4, -103378.4, 0.0, 9.998364, 10.000072 
1.3751939e+3, 3.1409955e+2, -200335.45, -80167.41, 32584.611, -0.030396702, -0.026330803, -71900.52, -71900.52, 0.0, 9.99855, 10.000148 
1.3848585e+3, 1.24098785e+2, -1447648.1, -1733894.1, 97665.13, -0.01878461, -0.047981508, -1417500.5, 306328.2, 0.006152381, 10.002497, 9.998664 
1.3848741e+3, 1.3409814e+2, -1423184.6, -1670719.4, -104026.25, -0.07306484, 0.026516145, -1385273.9, 240562.45, 0.0036092806, 10.001964, 9.99869 
1.3848908e+3, 1.4409597e+2, -1344533.9, -1567153.8, -40548.492, -0.08522344, -0.06409893, -1337378.4, 190479.19, 0.0015272575, 10.001769, 9.998815 
1.3849093e+3, 1.5409505e+2, -1204300.6, -1447751.3, -34242.543, -0.022997605, -0.039451856, -1199575.9, 230289.23, 0.0003731033, 10.002055, 9.998823 
1.384927e+3, 1.6409382e+2, -1137622.5, -1383135.1, -37283.137, -0.013530025, -0.03277506, -1132085.6, 199790.56, 0.000030085705, 10.001917, 9.998661 
1.3849445e+3, 1.7409235e+2, -1142526.5, -1331026.5, -35933.484, -0.03750061, -0.04959066, -1135908.9, 97981.94, 0.000000039188958, 10.001194, 9.998693 
1.3849619e+3, 1.8409096e+2, -1102016.3, -1274221.6, -62444.02, -0.027870102, -0.04820146, -1081756.8, 54147.484, 0.0, 10.000856, 9.998574 
1.3849792e+3, 1.9408976e+2, -971203.1, -1156224.9, -71093.48, 0.016561352, -0.028960548, -947041.2, 90874.414, 0.0, 10.001064, 9.9986105 
1.3849963e+3, 2.0408826e+2, -893917.06, -1080053.3, -59059.29, 0.01872583, -0.033004474, -876759.6, 63170.63, 0.0, 10.000974, 9.998505 
1.3850132e+3, 2.1408637e+2, -869037.7, -1013113.44, -48053.773, -0.034163717, -0.07542527, -854481.0, -12531.935, 0.0, 10.000454, 9.998542 
1.3850303e+3, 2.2408497e+2, -787375.2, -873645.75, -54015.664, -0.044287972, -0.084324315, -761384.94, -17422.557, 0.0, 10.00013, 9.998981 
1.3850477e+3, 2.3408438e+2, -688521.3, -764691.06, -66148.27, 0.0041094683, -0.05109833, -650277.6, -4310.2437, 0.0, 10.000092, 9.999075 
1.3850653e+3, 2.440835e+2, -630293.25, -706997.5, -50710.58, 0.02241922, -0.034248624, -605065.1, -57088.85, 0.0, 9.999911, 9.998884 
1.3850826e+3, 2.5408226e+2, -585458.75, -631240.44, -44552.086, -0.0017600129, -0.046810668, -558260.9, -108270.63, 0.0, 9.999532, 9.998915 
1.3851003e+3, 2.6408142e+2, -486321.78, -450521.97, -36324.63, -0.011745838, -0.055414338, -427926.38, -75927.09, 0.0, 9.999186, 9.999649 
1.3851182e+3, 2.7408108e+2, -423342.03, -355640.03, -40963.082, -0.0022770884, -0.063004285, -336351.0, -82350.234, 0.0, 9.998885, 9.999772 
1.3851362e+3, 2.8408086e+2, -377689.25, -331544.1, -29941.889, -0.013351994, -0.039404407, -316816.4, -160813.5, 0.0, 9.998734, 9.999337 
1.3851541e+3, 2.940808e+2, -266107.94, -224415.95, -38818.977, -0.050897688, 0.01716658, -201199.84, -143193.7, 0.0, 9.998817, 9.999359 
1.3851726e+3, 3.0408025e+2, -196035.95, -61202.223, -17529.533, -0.06009782, -0.01236828, -58960.504, -58960.504, 0.0, 9.998515, 10.000293 
1.3851918e+3, 3.1408048e+2, -318029.5, -101493.625, 28469.51, -0.0317318, -0.02483257, -97813.09, -97813.09, 0.0, 9.997594, 10.00046 
1.3948603e+3, 1.2407987e+2, -1441450.3, -1721746.8, 76615.7, -0.089848265, -0.055642243, -1421875.3, 302139.3, 0.006457894, 10.002501, 9.998746 
1.3948764e+3, 1.3407938e+2, -1423207.6, -1669980.4, -125142.86, -0.038708337, 0.03378805, -1370852.9, 255167.38, 0.0037909818, 10.00196, 9.998697 
1.3948934e+3, 1.4407726e+2, -1338520.9, -1554127.5, -33513.563, -0.010110403, -0.058037966, -1333431.6, 194609.28, 0.0016060187, 10.001766, 9.998906 
1.394911e+3, 1.5407626e+2, -1196495.9, -1432623.5, -23865.865, -0.065635026, -0.048668813, -1194107.9, 235941.06, 0.00039434384, 10.002058, 9.998925 
1.3949282e+3, 1.6407514e+2, -1134563.1, -1378604.6, -62275.97, -0.08149294, -0.040336292, -1119589.9, 212469.17, 0.000032562886, 10.001924, 9.998689 
1.394946e+3, 1.7407393e+2, -1140466.4, -1327687.1, -64028.36, 0.0026855024, -0.030927606, -1120663.6, 113407.234, 0.00000005013657, 10.001197, 9.998716 
1.3949634e+3, 1.8407245e+2, -1112423.1, -1296038.6, -58266.81, 0.035301074, -0.034958225, -1095494.1, 40591.426, 0.0, 10.000856, 9.998425 
1.39498e+3, 1.9407058e+2, -982562.8, -1180637.9, -63355.246, -0.019412512, -0.06612645, -964032.0, 74071.87, 0.0, 10.001067, 9.998443 
1.3949968e+3, 2.0406908e+2, -877362.25, -1046465.5, -76757.51, -0.037238084, -0.07047983, -847718.0, 92400.37, 0.0, 10.000977, 9.998734 
1.395014e+3, 2.1406816e+2, -849848.3, -973967.25, -68041.67, 0.0037263643, -0.04143863, -819815.2, 22311.791, 0.0, 10.000456, 9.99881 
1.3950309e+3, 2.2406699e+2, -804128.6, -909000.3, -57360.973, 0.009738715, -0.033733327, -778848.3, -34710.05, 0.0, 10.000132, 9.998739 
1.3950475e+3, 2.3406547e+2, -709131.06, -807741.8, -67280.66, -0.036932055, -0.061923414, -675023.56, -28870.543, 0.0, 10.000092, 9.99878 
1.3950646e+3, 2.4406429e+2, -623676.56, -693692.44, -63666.52, -0.041011654, -0.06378765, -586027.94, -37862.707, 0.0, 9.999911, 9.998976 
1.3950823e+3, 2.540636e+2, -575694.1, -612149.06, -58259.094, 0.016383879, -0.034481574, -532877.7, -82704.31, 0.0, 9.999536, 9.999044 
1.3950999e+3, 2.6406294e+2, -492623.34, -465544.3, -46932.57, 0.029696818, -0.026385447, -430237.28, -78056.984, 0.0, 9.999192, 9.999543 
1.3951169e+3, 2.7406234e+2, -431843.1, -373687.0, -51071.547, -0.020311963, -0.04944887, -343995.7, -89811.12, 0.0, 9.998885, 9.999649 
1.3951346e+3, 2.8406185e+2, -393044.72, -362502.88, -27289.06, -0.042927343, -0.035412233, -346502.5, -190312.98, 0.0, 9.998731, 9.999126 
1.3951533e+3, 2.9406142e+2, -282913.06, -258717.22, -33717.793, -0.024990967, 0.01060399, -234992.67, -176796.1, 0.0, 9.998815, 9.9991255 
1.3951716e+3, 3.0406052e+2, -176624.5, -21855.67, -47280.2, -0.024614124, -0.059152104, -8555.109, -8555.109, 0.0, 9.998516, 10.000563 
1.395189e+3, 3.140616e+2, -282218.72, -30285.39, -4798.2305, -0.07036541, -0.017573964, -30194.037, -30194.037, 0.0, 9.997604, 10.000946 
1.4048627e+3, 1.2406133e+2, -1451145.5, -1717153.8, 96685.58, -0.09835131, -0.058111988, -1419716.6, 304479.7, 0.0067786416, 10.002394, 9.998829 
1.4048785e+3, 1.3406084e+2, -1343820.4, -1630662.8, -104376.68, -0.051103335, 0.0290761, -1309860.3, 316341.22, 0.0039822184, 10.002504, 9.998705 
1.4048955e+3, 1.4405875e+2, -1261030.6, -1514912.1, -13915.087, -0.0027292508, -0.060958974, -1260270.3, 267951.47, 0.0016886669, 10.002293, 9.998921 
1.4049128e+3, 1.5405786e+2, -1253033.5, -1457846.4, -10051.961, -0.070463434, -0.04332041, -1252541.4, 177687.56, 0.0004161435, 10.001661, 9.998943 
1.4049298e+3, 1.6405673e+2, -1220798.6, -1423386.0, -58605.105, -0.09020309, -0.03443019, -1205066.9, 127172.36, 0.000035020938, 10.001346, 9.99866 
1.4049473e+3, 1.7405538e+2, -1102061.5, -1312832.6, -65606.03, 0.0032485232, -0.035884783, -1083309.0, 150943.47, 0.00000006103049, 10.001477, 9.998683 
1.4049645e+3, 1.8405388e+2, -1032400.1, -1248366.0, -48101.27, 0.038773544, -0.044221554, -1022171.2, 114095.984, 0.0, 10.0013685, 9.998505 
1.404981e+3, 1.9405216e+2, -997247.94, -1177451.1, -33384.094, -0.022941366, -0.06981692, -991262.1, 47021.695, 0.0, 10.000923, 9.998533 
1.4049976e+3, 2.0405072e+2, -933218.75, -1077061.6, -51935.35, -0.040902164, -0.07112136, -916427.3, 23870.27, 0.0, 10.000609, 9.9987 
1.4050144e+3, 2.1404974e+2, -847469.25, -977835.75, -67788.81, 0.0093227, -0.043275375, -818609.0, 23697.885, 0.0, 10.000495, 9.998763 
1.4050311e+3, 2.2404854e+2, -775106.3, -898482.44, -56489.207, 0.016732797, -0.03591582, -753149.6, -8830.744, 0.0, 10.000347, 9.998706 
1.4050475e+3, 2.34047e+2, -703556.7, -808706.25, -46929.336, -0.039403394, -0.06272169, -685658.25, -39324.16, 0.0, 10.000146, 9.998747 
1.4050643e+3, 2.4404585e+2, -627003.4, -693804.9, -43618.633, -0.048466474, -0.06066773, -605466.0, -57119.89, 0.0, 9.999883, 9.998989 
1.4050817e+3, 2.5404525e+2, -575300.44, -610109.0, -47650.93, 0.010412518, -0.025950085, -541974.9, -91621.555, 0.0, 9.99953, 9.999061 
1.4050992e+3, 2.640445e+2, -491611.66, -486837.25, -38067.54, 0.0262752, -0.018545577, -451082.13, -98720.91, 0.0, 9.999294, 9.999348 
1.405116e+3, 2.7404362e+2, -395698.28, -379991.47, -49385.44, -0.020437162, -0.047150858, -337838.9, -83470.1, 0.0, 9.999238, 9.999434 
1.4051335e+3, 2.840431e+2, -362743.6, -340457.03, -25164.375, -0.043681707, -0.030539174, -324079.1, -167704.66, 0.0, 9.998907, 9.999192 
1.4051516e+3, 2.9404283e+2, -371155.28, -291008.7, -8574.255, -0.029592525, 0.021539055, -290101.66, -231722.47, 0.0, 9.998164, 9.999217 
1.4051697e+3, 3.0404153e+2, -287640.2, -96856.55, -22678.607, -0.025273956, -0.07859599, -94197.77, -94197.77, 0.0, 9.997847, 10.00037 
1.4051868e+3, 3.140427e+2, -200490.92, 10563.502, -20662.637, -0.08044049, -0.009682137, 12567.388, 12567.388, 0.0, 9.99816, 10.000958 
1.4148656e+3, 1.2404328e+2, -1446119.1, -1705299.5, 97407.625, -0.04211228, -0.054492988, -1413592.5, 310780.63, 0.0071187555, 10.002388, 9.998914 
1.4148803e+3, 1.340426e+2, -1342754.3, -1629405.6, -100540.734, -0.11175981, 0.011844992, -1311006.5, 315372.9, 0.0041865646, 10.002508, 9.998712 
1.4148971e+3, 1.4404051e+2, -1264591.3, -1524396.4, -36811.375, -0.06675051, -0.07320008, -1259476.3, 268922.97, 0.001777482, 10.0023, 9.998853 
1.4149147e+3, 1.5403989e+2, -1258076.9, -1468385.9, -34638.85, -0.03787695, -0.023045393, -1252518.6, 177885.92, 0.00043918352, 10.001661, 9.998872 
1.4149317e+3, 1.6403867e+2, -1227447.0, -1437029.9, -56748.652, -0.03857913, -0.014540292, -1213067.8, 119348.29, 0.000037541082, 10.001344, 9.998569 
1.4149484e+3, 1.7403676e+2, -1108075.8, -1326482.1, -60867.72, -0.036582932, -0.06470974, -1092258.1, 142176.94, 0.00000007226826, 10.001481, 9.998588 
1.4149652e+3, 1.8403529e+2, -1010190.6, -1203572.8, -63768.9, -0.01979135, -0.07657622, -991055.8, 145393.2, 0.0, 10.001373, 9.99881 
1.4149821e+3, 1.9403453e+2, -972471.4, -1126839.8, -50617.03, 0.005387384, -0.040009838, -957354.5, 81100.664, 0.0, 10.000925, 9.998879 
1.4149986e+3, 2.0403323e+2, -953556.75, -1119934.8, -57863.254, 0.008154296, -0.0346321, -935411.9, 5055.7456, 0.0, 10.000611, 9.998405 
1.4150147e+3, 2.1403116e+2, -872616.1, -1030685.44, -72112.81, -0.017579509, -0.0809733, -844661.4, -2172.7036, 0.0, 10.000497, 9.998401 
1.4150311e+3, 2.2402963e+2, -763203.44, -874300.3, -63835.08, -0.024487961, -0.09158197, -734131.9, 10372.298, 0.0, 10.000348, 9.998873 
1.415048e+3, 2.3402897e+2, -687831.9, -776453.6, -54278.773, -0.0050966768, -0.053496517, -662073.94, -15563.252, 0.0, 10.000147, 9.998968 
1.4150646e+3, 2.4402817e+2, -631234.3, -703133.56, -56004.22, -0.0013904788, -0.024645168, -600634.3, -52115.332, 0.0, 9.999884, 9.998925 
1.415081e+3, 2.540272e+2, -581719.2, -623786.9, -60323.684, -0.019044718, -0.020006908, -538867.44, -88337.38, 0.0, 9.99953, 9.998967 
1.4150979e+3, 2.6402605e+2, -511790.34, -529503.56, -40441.594, -0.021620719, -0.031017147, -479246.94, -126704.85, 0.0, 9.999296, 9.999054 
1.4151153e+3, 2.740249e+2, -417612.72, -426564.2, -50018.195, -0.005952544, -0.057578012, -371870.4, -117316.69, 0.0, 9.999241, 9.999114 
1.4151326e+3, 2.8402448e+2, -337633.13, -289775.5, -49462.574, -0.018998493, -0.02619132, -258757.67, -102199.68, 0.0, 9.998912, 9.999539 
1.4151494e+3, 2.9402488e+2, -341176.0, -230299.36, -35239.496, -0.06402587, 0.05081072, -220047.27, -161493.05, 0.0, 9.998168, 9.999633 
1.4151672e+3, 3.0402333e+2, -333045.7, -191602.06, -13296.652, -0.06151922, -0.0689719, -190362.95, -190362.95, 0.0, 9.9978485, 9.999719 
1.415185e+3, 3.1402364e+2, -233592.33, -56587.168, -6686.3667, -0.06804773, -0.010293995, -56334.953, -56334.953, 0.0, 9.998153, 10.000501 
1.4248681e+3, 1.2402547e+2, -1394281.6, -1683744.1, 106259.93, -0.03570578, -0.04238367, -1359462.6, 365084.84, 0.007483504, 10.002763, 9.998881 
1.4248827e+3, 1.3402446e+2, -1359268.4, -1649065.3, -97521.98, -0.12880802, 0.0011518706, -1329506.9, 297049.9, 0.004407692, 10.002445, 9.998607 
1.4248993e+3, 1.4402233e+2, -1283881.5, -1531097.1, -47830.71, -0.06971365, -0.08556567, -1274950.0, 253627.06, 0.0018747556, 10.002157, 9.998876 
1.4249165e+3, 1.540218e+2, -1217272.0, -1444150.0, -38498.79, -0.02881206, -0.026988214, -1210917.1, 219663.75, 0.0004643644, 10.001923, 9.998912 
1.4249332e+3, 1.640206e+2, -1181120.3, -1420756.9, -40912.58, -0.030280812, -0.017642641, -1174327.9, 158264.34, 0.000040275583, 10.00169, 9.998512 
1.4249498e+3, 1.740185e+2, -1113417.8, -1336476.3, -41912.836, -0.047036767, -0.07772113, -1105802.4, 128810.93, 0.00000008454083, 10.001478, 9.99852 
1.4249665e+3, 1.8401705e+2, -1032406.25, -1206133.0, -65120.273, -0.034178972, -0.09033598, -1010706.8, 125920.72, 0.0, 10.001186, 9.998882 
1.4249828e+3, 1.940165e+2, -987269.75, -1123704.4, -73285.34, 0.008290353, -0.041471284, -955365.44, 83266.016, 0.0, 10.000781, 9.99897 
1.4249992e+3, 2.0401528e+2, -956294.7, -1115370.5, -65674.01, 0.016950691, -0.033174783, -932685.3, 7957.411, 0.0, 10.000568, 9.998457 
1.4250153e+3, 2.1401316e+2, -848140.94, -1013495.7, -48153.188, -0.019507792, -0.09023033, -835140.3, 7524.0117, 0.0, 10.000642, 9.998448 
1.4250314e+3, 2.2401161e+2, -748946.8, -871303.3, -41865.414, -0.027694268, -0.10456013, -735993.5, 8686.631, 0.0, 10.000463, 9.998837 
1.4250481e+3, 2.3401096e+2, -724370.1, -798724.5, -53723.066, 0.0036066547, -0.059778776, -696215.0, -49528.188, 0.0, 9.999916, 9.998926 
1.4250645e+3, 2.4401022e+2, -667848.8, -720493.5, -55705.035, 0.0054534054, -0.02422634, -632560.1, -83865.164, 0.0, 9.999631, 9.998927 
1.4250806e+3, 2.540093e+2, -551383.6, -607903.5, -52247.945, -0.033882983, -0.013511218, -520242.63, -69537.28, 0.0, 9.999733, 9.998978 
1.4250971e+3, 2.6400813e+2, -474869.8, -520191.53, -26508.535, -0.039765023, -0.0250546, -462656.38, -109938.48, 0.0, 9.999585, 9.998979 
1.4251146e+3, 2.740068e+2, -448469.34, -451126.53, -19947.814, -0.0010664746, -0.06101685, -429805.9, -175074.22, 0.0, 9.999069, 9.999028 
1.4251314e+3, 2.8400642e+2, -360992.97, -292868.9, -22872.492, -0.012327503, -0.026369713, -285902.0, -129166.17, 0.0, 9.998715, 9.999612 
1.4251477e+3, 2.940071e+2, -269143.38, -186469.38, -34031.67, -0.085928105, 0.06995524, -174262.9, -115534.195, 0.0, 9.998625, 9.999713 
1.425165e+3, 3.0400544e+2, -287826.38, -194771.8, -6021.2217, -0.07940539, -0.055089153, -194383.81, -194383.81, 0.0, 9.998266, 9.9994955 
1.425183e+3, 3.1400537e+2, -324901.16, -90523.43, 36777.36, -0.055476435, -0.011691671, -84888.016, -84888.016, 0.0, 9.997482, 10.00059 
1.4348705e+3, 1.24007955e+2, -1405399.3, -1707450.6, 90319.56, -0.0835292, -0.022750065, -1380452.3, 344266.28, 0.007877122, 10.002766, 9.998716 
1.4348854e+3, 1.3400652e+2, -1375449.8, -1682097.9, -110468.28, -0.1020938, -0.001782704, -1339798.9, 286934.06, 0.00464788, 10.002443, 9.998382 
1.434902e+3, 1.440042e+2, -1276087.3, -1515134.0, -58369.5, -0.010097571, -0.09728184, -1262596.1, 266158.72, 0.0019819823, 10.002158, 9.998985 
1.4349182e+3, 1.5400366e+2, -1205914.4, -1421672.6, -47994.92, -0.043854166, -0.056069277, -1195719.8, 235037.86, 0.00049257313, 10.001926, 9.999065 
1.4349346e+3, 1.6400255e+2, -1181985.3, -1424117.5, -50046.65, -0.06740294, -0.044397708, -1172048.8, 160718.73, 0.000043431377, 10.001696, 9.9984865 
1.4349514e+3, 1.7400071e+2, -1116219.1, -1343286.9, -50434.52, -0.028533803, -0.07503532, -1105521.0, 129265.766, 0.00000010052836, 10.001481, 9.998472 
1.434968e+3, 1.8399917e+2, -1043334.0, -1229762.3, -80244.49, -0.004130264, -0.085462674, -1013551.94, 123250.46, 0.0, 10.001189, 9.998719 
1.4349835e+3, 1.9399807e+2, -999108.94, -1149229.1, -88918.51, -0.014936507, -0.07435806, -957805.3, 81007.14, 0.0, 10.000784, 9.998795 
1.4349996e+3, 2.0399691e+2, -928588.1, -1058358.4, -65022.39, -0.016126864, -0.06704999, -901614.75, 39208.227, 0.0, 10.000569, 9.998848 
1.4350161e+3, 2.1399577e+2, -816304.56, -947852.0, -45317.582, 0.0025548495, -0.071231775, -802204.2, 40629.527, 0.0, 10.000643, 9.9988985 
1.4350322e+3, 2.2399448e+2, -764958.2, -904890.7, -60302.574, 0.006656115, -0.07504081, -742557.3, 2289.4731, 0.0, 10.0004635, 9.998608 
1.4350478e+3, 2.3399302e+2, -745621.0, -843673.94, -74142.57, -0.012949202, -0.08125272, -705761.5, -58898.965, 0.0, 9.999919, 9.998617 
1.4350638e+3, 2.43992e+2, -662780.06, -710965.3, -53682.383, -0.028340768, -0.059392944, -628031.75, -79157.72, 0.0, 9.999634, 9.998992 
1.4350802e+3, 2.539916e+2, -544257.4, -593047.44, -47411.246, -0.036503147, -0.0070225894, -515333.16, -64453.883, 0.0, 9.999732, 9.999082 
1.4350969e+3, 2.6399073e+2, -465108.4, -499505.7, -42712.402, -0.030312637, -0.0008304992, -436262.03, -83373.22, 0.0, 9.999582, 9.999123 
1.4351137e+3, 2.7398935e+2, -438046.06, -429245.97, -38199.324, -0.0049196584, -0.05654518, -395194.1, -140291.23, 0.0, 9.999066, 9.999181 
1.43513e+3, 2.8398886e+2, -375047.3, -322714.75, -26503.855, -0.023421155, -0.03055044, -311636.84, -154728.72, 0.0, 9.998717, 9.999407 
1.4351462e+3, 2.9398942e+2, -287611.66, -225771.0, -35414.516, -0.10007376, 0.07722488, -209677.97, -150774.86, 0.0, 9.998628, 9.999442 
1.4351632e+3, 3.0398777e+2, -273925.63, -166158.92, -32092.19, -0.08361678, -0.037435003, -157326.06, -157326.06, 0.0, 9.998266, 9.999692 
1.4351806e+3, 3.139878e+2, -282054.06, -1481.3207, 6615.7188, -0.042858064, -0.015387686, -1325.413, -1325.413, 0.0, 9.997481, 10.001203 
1.4448734e+3, 1.2399038e+2, -1370239.5, -1695674.4, 99242.15, -0.0910904, -0.039969128, -1342363.3, 382526.6, 0.008301398, 10.003035, 9.998667 
1.444888e+3, 1.3398899e+2, -1364600.5, -1687488.4, -89342.87, -0.09853792, -0.003307528, -1341528.0, 285375.97, 0.0049079615, 10.002565, 9.998284 
1.4449044e+3, 1.4398669e+2, -1263729.5, -1514607.1, -28329.625, 0.009715818, -0.09039644, -1260570.3, 268355.75, 0.0020998851, 10.002269, 9.998935 
1.4449203e+3, 1.5398581e+2, -1158730.9, -1403238.6, -31409.691, -0.04348529, -0.07981844, -1154760.5, 276171.47, 0.00052445993, 10.002271, 9.999024 
1.4449362e+3, 1.6398469e+2, -1133474.0, -1391772.1, -49797.516, -0.07488419, -0.071217954, -1124206.0, 208735.89, 0.000047180834, 10.001991, 9.998565 
1.444953e+3, 1.739833e+2, -1137665.4, -1343333.8, -41808.844, -0.026408203, -0.06523828, -1129491.3, 105465.55, 0.00000012546444, 10.001291, 9.998562 
1.444969e+3, 1.8398185e+2, -1082332.8, -1251124.9, -49803.094, -0.0012244491, -0.06954598, -1068733.6, 68237.89, 0.0, 10.000935, 9.998694 
1.4449844e+3, 1.9398035e+2, -955409.2, -1132384.6, -47184.188, -0.025411978, -0.09580648, -943615.2, 95370.44, 0.0, 10.001103, 9.998755 
1.4450002e+3, 2.0397915e+2, -871039.4, -1021550.7, -34727.22, -0.027063247, -0.09561496, -863413.25, 77583.555, 0.0, 10.000926, 9.998929 
1.4450166e+3, 2.1397847e+2, -870045.3, -963276.3, -43077.7, 0.010498514, -0.062078875, -853188.8, -10185.705, 0.0, 10.00023, 9.998991 
1.4450327e+3, 2.2397737e+2, -844678.44, -937843.0, -58984.883, 0.019370109, -0.0543381, -816100.06, -71085.68, 0.0, 9.999893, 9.998655 
1.4450479e+3, 2.3397568e+2, -718034.8, -825718.0, -46790.26, -0.016641771, -0.08883475, -700544.5, -53512.18, 0.0, 10.000088, 9.998658 
1.4450635e+3, 2.4397455e+2, -612708.2, -687805.9, -16336.283, -0.03501865, -0.079472594, -609308.44, -60263.484, 0.0, 9.999982, 9.998983 
1.4450799e+3, 2.5397426e+2, -589779.06, -616755.25, -19702.234, -0.02664415, -0.01525938, -579390.25, -128340.85, 0.0, 9.999426, 9.999066 
1.4450961e+3, 2.6397353e+2, -531992.8, -518629.3, -22902.512, -0.023418294, 0.004003466, -501453.75, -148396.39, 0.0, 9.999066, 9.99924 
1.4451124e+3, 2.7397245e+2, -438262.44, -414075.94, -20537.488, -0.029886542, -0.038331185, -402335.7, -147267.05, 0.0, 9.999, 9.999316 
1.4451285e+3, 2.8397194e+2, -362992.2, -322427.06, -1660.605, -0.049492177, -0.019624084, -322359.2, -165285.06, 0.0, 9.998823, 9.999357 
1.4451449e+3, 2.9397207e+2, -313664.66, -247881.13, 2315.6123, -0.08014476, 0.053768646, -247799.72, -188726.31, 0.0, 9.998488, 9.999357 
1.4451616e+3, 3.0397055e+2, -308314.3, -183815.22, -8965.449, -0.051376555, -0.042437777, -183172.9, -183172.9, 0.0, 9.998036, 9.9996805 
1.4451778e+3, 3.1397083e+2, -265661.8, 41476.477, 6660.926, -0.0682278, 0.0017870978, 41620.863, 41620.863, 0.0, 9.997445, 10.001514 
1.4548767e+3, 1.2397279e+2, -1365090.8, -1685680.3, 77044.805, -0.057802398, -0.09624033, -1347536.4, 377524.44, 0.008755289, 10.003037, 9.998735 
1.4548902e+3, 1.33972e+2, -1362140.4, -1682672.5, -107793.85, -0.118948884, -0.004433233, -1329262.1, 297807.1, 0.0051877103, 10.002566, 9.998318 
1.4549065e+3, 1.4396988e+2, -1278793.9, -1546783.0, -31592.4, -0.012555161, -0.06475315, -1275119.9, 253969.9, 0.0022286694, 10.002272, 9.998713 
1.4549227e+3, 1.5396832e+2, -1175355.1, -1438776.0, -31703.738, -0.028394908, -0.097814366, -1171593.3, 259510.05, 0.0005603208, 10.0022745, 9.998779 
1.4549385e+3, 1.6396706e+2, -1120037.0, -1365773.0, -74533.73, -0.052838545, -0.09747395, -1099197.6, 233917.39, 0.00005156165, 10.001999, 9.998741 
1.454954e+3, 1.7396632e+2, -1121509.0, -1310851.5, -68942.664, -0.04140925, -0.04806702, -1099066.0, 136056.95, 0.00000016567238, 10.001294, 9.998784 
1.4549696e+3, 1.8396515e+2, -1074210.3, -1234869.3, -47321.88, -0.027283778, -0.04184432, -1061307.9, 75826.67, 0.0, 10.000936, 9.998806 
1.4549854e+3, 1.9396336e+2, -948043.3, -1118303.0, -40704.242, -0.02359918, -0.10623711, -938812.56, 100338.34, 0.0, 10.001107, 9.998851 
1.4550011e+3, 2.0396197e+2, -886719.94, -1055362.0, -58133.973, -0.015978388, -0.1197267, -868622.25, 72541.96, 0.0, 10.000931, 9.998695 
1.4550167e+3, 2.1396127e+2, -888404.4, -1002451.6, -69541.695, 0.0036168573, -0.06271626, -855496.1, -12323.811, 0.0, 10.000234, 9.998721 
1.4550324e+3, 2.2396028e+2, -822181.1, -891605.75, -54831.91, 0.009077503, -0.042316012, -791997.5, -46814.68, 0.0, 9.999894, 9.998973 
1.455048e+3, 2.3395891e+2, -690973.0, -769679.9, -38767.813, -0.00844356, -0.08272567, -675084.9, -27888.54, 0.0, 10.000088, 9.999044 
1.4550637e+3, 2.4395785e+2, -618359.0, -699679.94, -34056.816, -0.015449897, -0.08478291, -605980.44, -56772.66, 0.0, 9.999981, 9.998903 
1.4550795e+3, 2.5395724e+2, -599017.75, -636457.25, -39899.355, -0.0049575195, -0.037832804, -573664.94, -122449.15, 0.0, 9.999427, 9.998931 
1.4550954e+3, 2.639566e+2, -525734.8, -506282.22, -26074.977, -0.019944843, -0.010143954, -488178.6, -134954.94, 0.0, 9.999068, 9.999324 
1.4551109e+3, 2.7395606e+2, -430615.75, -398463.13, -21590.611, -0.077301525, -0.0068685133, -387621.0, -132391.63, 0.0, 9.999, 9.999424 
1.455127e+3, 2.839556e+2, -354933.75, -306184.22, -12407.589, -0.091505975, 0.006076512, -303207.97, -145973.75, 0.0, 9.998824, 9.99947 
1.4551438e+3, 2.9395506e+2, -306950.06, -233836.55, -9335.556, -0.0279292, 0.00041010143, -232663.34, -173423.45, 0.0, 9.9984865, 9.999456 
1.4551602e+3, 3.0395374e+2, -323144.1, -215195.64, -29171.555, 0.014489209, -0.06836302, -207816.83, -207816.83, 0.0, 9.998038, 9.999465 
1.4551745e+3, 3.1395444e+2, -265574.38, 38944.0, -17193.873, -0.13317159, 0.040840734, 39911.734, 39911.734, 0.0, 9.997457, 10.001492 
1.4648798e+3, 1.2395592e+2, -1369542.6, -1688186.3, 93325.75, -0.046291973, -0.1132536, -1344221.1, 381004.2, 0.009235504, 10.003011, 9.998731 
1.464893e+3, 1.3395515e+2, -1300659.3, -1655540.8, -92869.05, -0.12390618, -0.018086558, -1277825.5, 349407.84, 0.0054858825, 10.003005, 9.998291 
1.4649089e+3, 1.4395313e+2, -1226794.0, -1533903.6, -20673.277, -0.012800237, -0.061764482, -1225408.6, 303844.66, 0.002367959, 10.002685, 9.9986 
1.464925e+3, 1.5395147e+2, -1235152.9, -1480622.9, -11497.167, -0.023504488, -0.09436141, -1234615.6, 196653.11, 0.0006001031, 10.001922, 9.998661 
1.4649403e+3, 1.6395015e+2, -1182336.1, -1382292.6, -47708.57, -0.047283925, -0.097850956, -1171536.4, 161744.7, 0.00005646771, 10.001514, 9.998859 
1.4649555e+3, 1.7394948e+2, -1058068.3, -1263599.6, -48291.832, -0.04260872, -0.058034286, -1047287.06, 188000.61, 0.00000022299002, 10.00166, 9.998931 
1.4649709e+3, 1.839484e+2, -993941.06, -1197937.9, -32733.453, -0.029424224, -0.049355526, -988817.3, 148480.67, 0.0, 10.001496, 9.998789 
1.4649865e+3, 1.9394676e+2, -986616.2, -1140836.1, -36141.023, -0.018096428, -0.0937459, -978566.75, 60746.723, 0.0, 10.000861, 9.998814 
1.4650019e+3, 2.039454e+2, -948070.6, -1077726.6, -53100.61, -0.01182595, -0.1064864, -929099.2, 12227.731, 0.0, 10.00048, 9.998758 
1.4650169e+3, 2.139445e+2, -846451.44, -973839.25, -39579.89, -0.00775812, -0.07699813, -835155.44, 8181.2383, 0.0, 10.000486, 9.9987955 
1.4650324e+3, 2.2394353e+2, -756361.6, -856115.4, -12306.604, -0.0017783549, -0.059199527, -754865.75, -9518.85, 0.0, 10.00033, 9.999006 
1.465048e+3, 2.3394254e+2, -712693.7, -776760.06, -22392.295, 0.0049113245, -0.06519299, -705643.1, -58285.79, 0.0, 9.999925, 9.999073 
1.4650635e+3, 2.4394163e+2, -661379.94, -707077.1, -34010.27, 0.00313186, -0.057872463, -643255.9, -93888.63, 0.0, 9.999629, 9.999022 
1.465079e+3, 2.5394088e+2, -580310.7, -612709.8, -21850.668, -0.009397853, -0.038769346, -569309.56, -117933.44, 0.0, 9.999494, 9.999062 
1.4650944e+3, 2.639402e+2, -495358.78, -490745.9, 4931.1963, -0.031973723, -0.022169549, -487608.44, -134224.48, 0.0, 9.999273, 9.999331 
1.4651099e+3, 2.7393976e+2, -440850.8, -404353.8, 796.4016, -0.073879495, -0.0076370714, -404336.44, -148947.64, 0.0, 9.998934, 9.999415 
1.4651257e+3, 2.8393933e+2, -382911.0, -313256.0, -426.4281, -0.0884746, 0.006089643, -313253.38, -155859.81, 0.0, 9.998605, 9.999526 
1.4651419e+3, 2.9393882e+2, -332122.25, -239635.2, -1985.6356, -0.048761923, -0.004758685, -239592.6, -180193.23, 0.0, 9.998287, 9.999511 
1.4651582e+3, 3.0393782e+2, -334265.06, -234983.22, -21075.422, -0.00042833603, -0.03622318, -230694.6, -230694.6, 0.0, 9.998023, 9.999335 
1.4651725e+3, 3.1393793e+2, -203333.06, 65887.97, -5819.551, -0.109046064, 0.025337785, 66013.7, 66013.7, 0.0, 9.997896, 10.001464 
1.4748825e+3, 1.23939864e+2, -1375413.1, -1700462.3, 87814.48, -0.0581486, -0.089581154, -1353206.5, 372176.13, 0.00973839, 10.003011, 9.998646 
1.474896e+3, 1.3393852e+2, -1306514.8, -1668751.6, -93825.17, -0.11397886, -0.04381805, -1283655.1, 343740.78, 0.005800612, 10.003009, 9.9981985 
1.4749117e+3, 1.4393651e+2, -1225785.1, -1533788.0, -48292.57, 0.008331361, -0.08138299, -1218390.6, 311025.06, 0.0025169705, 10.002693, 9.998598 
1.4749268e+3, 1.5393528e+2, -1234572.4, -1479494.0, -41237.844, -0.0296084, -0.069449626, -1227815.5, 203612.16, 0.000643619, 10.001921, 9.99867 
1.4749417e+3, 1.6393402e+2, -1178512.0, -1374515.9, -46561.223, -0.059691492, -0.07158877, -1168013.6, 165426.06, 0.00006177202, 10.001514, 9.998914 
1.4749572e+3, 1.7393276e+2, -1053015.4, -1254813.4, -42853.285, -0.03034464, -0.09585167, -1044292.25, 191158.3, 0.0000002932695, 10.001666, 9.998989 
1.4749725e+3, 1.8393159e+2, -1003077.5, -1218869.1, -54307.86, -0.007976476, -0.093318686, -990180.75, 147281.08, 0.0, 10.001504, 9.998642 
1.4749874e+3, 1.9393058e+2, -998313.8, -1166208.4, -60632.38, -0.009477555, -0.058031, -978707.06, 60766.094, 0.0, 10.000865, 9.998638 
1.4750023e+3, 2.0392944e+2, -923112.06, -1026363.6, -55707.227, -0.015714206, -0.054852907, -898787.1, 42697.76, 0.0, 10.000481, 9.999111 
1.4750172e+3, 2.1392815e+2, -817157.7, -913891.25, -39122.19, -0.024045652, -0.10521865, -803316.0, 40180.254, 0.0, 10.000489, 9.999207 
1.4750324e+3, 2.2392711e+2, -773552.6, -892479.1, -26048.59, -0.013595762, -0.105787136, -768097.44, -22590.604, 0.0, 10.000332, 9.998756 
1.4750482e+3, 2.3392656e+2, -735699.4, -824972.2, -37269.883, 0.022760464, -0.03643061, -722185.5, -74670.15, 0.0, 9.999926, 9.998742 
1.4750634e+3, 2.439259e+2, -639786.4, -662213.94, -39458.92, 0.019847749, 0.00079550216, -609978.75, -60455.23, 0.0, 9.999628, 9.9993305 
1.4750782e+3, 2.5392514e+2, -553492.4, -557025.1, -26094.76, -0.039928492, -0.018561605, -529104.25, -77573.75, 0.0, 9.999493, 9.999445 
1.4750932e+3, 2.6392436e+2, -499579.84, -500315.72, -6377.022, -0.059538685, -0.032058135, -493560.16, -140021.64, 0.0, 9.999275, 9.999266 
1.4751093e+3, 2.7392355e+2, -449743.4, -422520.5, -10787.128, -0.02251335, -0.039495993, -418764.34, -163217.25, 0.0, 9.998931, 9.999292 
1.4751248e+3, 2.8392312e+2, -383710.72, -314149.78, -11049.729, -0.04360749, -0.018565238, -312436.72, -154884.31, 0.0, 9.998601, 9.999522 
1.4751394e+3, 2.939233e+2, -331459.97, -239704.98, -12681.592, -0.13971142, 0.035670515, -237984.5, -178432.05, 0.0, 9.998293, 9.999508 
1.4751552e+3, 3.0392277e+2, -334466.66, -238319.5, -26359.908, -0.09236833, 0.051648386, -231566.86, -231566.86, 0.0, 9.998034, 9.999309 
1.4751714e+3, 3.139214e+2, -206357.78, 59447.74, -12780.166, -0.003182323, -0.030544495, 60060.805, 60060.805, 0.0, 9.997895, 10.001421 
1.4848858e+3, 1.2392412e+2, -1311655.3, -1673127.3, 96994.72, -0.05284429, -0.062128633, -1287273.0, 438264.56, 0.010262846, 10.00347, 9.998613 
1.484899e+3, 1.3392238e+2, -1329391.3, -1680871.9, -75544.805, -0.11704601, -0.055692293, -1313842.0, 313712.16, 0.0061310735, 10.002857, 9.998188 
1.4849143e+3, 1.4392036e+2, -1264691.8, -1554026.4, -32284.475, 0.006064352, -0.09105391, -1261133.1, 268440.72, 0.0026753244, 10.002433, 9.998584 
1.4849289e+3, 1.5391935e+2, -1176275.1, -1452047.6, -27275.426, -0.03349601, -0.058201868, -1173603.4, 257980.78, 0.00069087674, 10.002326, 9.998661 
1.4849435e+3, 1.6391812e+2, -1097670.3, -1336399.8, -25842.068, -0.06029375, -0.05473758, -1094904.9, 238690.86, 0.00006744942, 10.002075, 9.998903 
1.4849588e+3, 1.7391668e+2, -1063139.9, -1260795.9, -26745.568, -0.020808656, -0.097498335, -1059584.9, 176023.36, 0.00000037325287, 10.001603, 9.998978 
1.4849739e+3, 1.8391544e+2, -1046439.3, -1234055.9, -45922.15, 0.0010886912, -0.104255445, -1035802.2, 101817.85, 0.0, 10.001183, 9.998692 
1.4849882e+3, 1.9391455e+2, -996311.44, -1158636.1, -36697.91, -0.017468978, -0.06319543, -988400.4, 51230.02, 0.0, 10.000852, 9.998695 
1.4850028e+3, 2.0391352e+2, -900186.06, -1010399.9, -17496.996, -0.02509754, -0.051901914, -897475.0, 44165.977, 0.0, 10.000618, 9.999154 
1.485018e+3, 2.1391238e+2, -809127.0, -905543.5, -27507.594, -0.0110778455, -0.0914693, -801831.2, 41820.023, 0.0, 10.000526, 9.999245 
1.4850329e+3, 2.2391143e+2, -774743.56, -884078.94, -32460.959, 0.004470777, -0.08952879, -765832.4, -20171.385, 0.0, 10.000287, 9.998836 
1.485048e+3, 2.3391086e+2, -745387.94, -820247.1, -15248.148, 0.01935948, -0.030895926, -742401.2, -94731.664, 0.0, 9.999821, 9.998825 
1.4850628e+3, 2.4391018e+2, -653024.1, -663416.94, 2289.561, 0.007289774, -0.0025193414, -652542.06, -102864.43, 0.0, 9.9995165, 9.999374 
1.4850774e+3, 2.539094e+2, -555679.25, -553978.2, -9157.532, -0.04260925, -0.025882298, -545631.75, -93947.26, 0.0, 9.999461, 9.99948 
1.4850926e+3, 2.6390874e+2, -498412.03, -487370.63, -9198.537, -0.05282758, -0.03460315, -482163.28, -128472.02, 0.0, 9.999231, 9.999375 
1.4851083e+3, 2.739082e+2, -470073.75, -418706.4, 1967.865, -0.0081381835, -0.029077103, -418631.13, -162933.95, 0.0, 9.998734, 9.999413 
1.4851233e+3, 2.8390774e+2, -404090.5, -325303.03, 22219.492, -0.03485882, -0.017272871, -319468.78, -161766.13, 0.0, 9.998468, 9.999509 
1.4851376e+3, 2.9390755e+2, -296619.97, -227077.17, 17918.955, -0.15572813, 0.006166248, -222731.58, -163025.48, 0.0, 9.998551, 9.99947 
1.4851533e+3, 3.0390742e+2, -287652.28, -209670.78, -4008.3037, -0.109558, 0.05769657, -209465.3, -209465.3, 0.0, 9.99833, 9.999362 
1.4851694e+3, 3.1390598e+2, -244063.47, 34167.184, 11018.719, 0.013503849, -0.037009392, 34602.875, 34602.875, 0.0, 9.997668, 10.001356 
1.4948896e+3, 1.2390874e+2, -1309978.4, -1670836.0, 70035.13, -0.030575005, -0.031477343, -1296862.8, 428826.8, 0.010811662, 10.003477, 9.998627 
1.4949018e+3, 1.3390678e+2, -1325097.9, -1671461.5, -99712.81, -0.13388811, -0.05366965, -1298443.3, 329264.5, 0.0064788726, 10.002856, 9.998254 
1.4949165e+3, 1.4390479e+2, -1266399.0, -1557977.1, -39655.24, -0.021011611, -0.09056306, -1261102.1, 268625.0, 0.00284381, 10.002434, 9.998557 
1.4949311e+3, 1.5390372e+2, -1177565.8, -1456476.9, -31580.56, -0.036226425, -0.060703706, -1174034.6, 257703.06, 0.00074233697, 10.002333, 9.998629 
1.4949457e+3, 1.6390252e+2, -1101822.9, -1347312.5, -43155.723, -0.0498535, -0.047523826, -1094457.3, 239291.66, 0.000073667885, 10.002084, 9.998825 
1.4949606e+3, 1.7390127e+2, -1069026.4, -1273865.6, -45311.45, -0.014473603, -0.06254224, -1059450.9, 176309.39, 0.00000046463128, 10.001606, 9.998887 
1.4949751e+3, 1.8389997e+2, -1029099.56, -1198436.1, -59559.33, -0.0032353664, -0.08080844, -1010249.6, 127522.8, 0.0, 10.001183, 9.998937 
1.4949888e+3, 1.9389866e+2, -975362.94, -1116647.5, -49297.363, -0.04273784, -0.10960227, -959862.5, 79922.55, 0.0, 10.000857, 9.998981 
1.4950031e+3, 2.0389767e+2, -918643.06, -1049814.8, -22182.691, -0.040597927, -0.0991397, -914993.25, 26802.09, 0.0, 10.000622, 9.998882 
1.4950188e+3, 2.1389723e+2, -832533.44, -954831.4, -30886.482, 0.030337818, -0.035978496, -825175.7, 18625.78, 0.0, 10.000528, 9.998906 
1.4950337e+3, 2.238965e+2, -746738.4, -826013.75, -48470.1, 0.05155906, -0.010311781, -723762.2, 22047.287, 0.0, 10.000286, 9.999234 
1.4950477e+3, 2.3389545e+2, -710775.25, -749000.2, -32628.852, -0.0052974527, -0.04818621, -692073.3, -44253.527, 0.0, 9.999823, 9.999313 
1.495062e+3, 2.4389446e+2, -668254.5, -695792.56, -1070.1464, -0.034612294, -0.06711432, -668213.0, -118383.195, 0.0, 9.999519, 9.999152 
1.4950773e+3, 2.5389373e+2, -577969.8, -599769.94, -10141.532, -0.019142237, -0.05971006, -573981.56, -122143.33, 0.0, 9.999458, 9.999167 
1.4950922e+3, 2.6389337e+2, -479594.06, -447258.13, -25182.01, -0.01376886, -0.029630322, -433500.56, -79658.23, 0.0, 9.999227, 9.999653 
1.4951068e+3, 2.7389365e+2, -444942.56, -367658.88, -15837.131, -0.029500246, 0.021466918, -364539.44, -108699.805, 0.0, 9.998739, 9.999762 
1.4951216e+3, 2.8389314e+2, -404724.1, -329007.53, 23760.184, -0.061301894, 0.008628836, -322169.13, -164324.1, 0.0, 9.998477, 9.99948 
1.4951368e+3, 2.9389164e+2, -303625.66, -240167.5, 21994.549, -0.102904364, -0.08902641, -233289.66, -173429.16, 0.0, 9.998543, 9.999385 
1.4951521e+3, 3.0389172e+2, -279801.03, -190149.27, -25134.87, -0.05826955, -0.014463732, -183583.3, -183583.3, 0.0, 9.998317, 9.999502 
1.4951664e+3, 3.1389168e+2, -249606.2, 20240.674, -16429.63, -0.053974982, 0.013953288, 21237.31, 21237.31, 0.0, 9.99768, 10.001255 
1.5048932e+3, 1.2389364e+2, -1315988.3, -1687648.9, 98639.28, -0.01782996, -0.034728587, -1291431.8, 434405.7, 0.011389482, 10.003498, 9.9985 
1.5049046e+3, 1.3389169e+2, -1284000.9, -1660155.5, -79900.27, -0.137508, -0.048002645, -1267732.5, 360123.7, 0.006846774, 10.00318, 9.998175 
1.5049191e+3, 1.4388976e+2, -1209207.4, -1529782.8, -16975.395, -0.028241498, -0.073226675, -1208311.0, 321563.9, 0.0030239136, 10.002827, 9.99856 
1.5049335e+3, 1.5388848e+2, -1157589.8, -1445191.8, -4342.354, -0.03322831, -0.066063605, -1157524.3, 274362.66, 0.000798702, 10.002463, 9.998643 
1.5049477e+3, 1.638872e+2, -1113837.5, -1361134.3, -23085.47, -0.04619743, -0.058928654, -1111700.9, 222197.97, 0.0000807338, 10.002036, 9.998754 
1.504962e+3, 1.7388606e+2, -1088249.4, -1292154.8, -26582.467, -0.02594593, -0.054490704, -1084840.9, 151068.9, 0.00000057502143, 10.0015135, 9.998805 
1.504976e+3, 1.8388481e+2, -1026004.1, -1191181.0, -36076.406, -0.015103314, -0.066403456, -1018468.44, 119453.33, 0.0, 10.001181, 9.998986 
1.5049899e+3, 1.9388343e+2, -929309.3, -1087139.6, -41680.055, -0.0324194, -0.10886305, -918978.56, 120955.8, 0.0, 10.0011425, 9.999046 
1.5050042e+3, 2.0388241e+2, -880895.56, -1033299.56, -21015.617, -0.025083296, -0.10447539, -878050.75, 63894.0, 0.0, 10.000889, 9.998866 
1.5050192e+3, 2.13882e+2, -867653.56, -974322.44, -7423.554, 0.024404887, -0.035048883, -867139.44, -23188.49, 0.0, 10.000299, 9.998882 
1.5050337e+3, 2.2388133e+2, -789660.9, -838765.7, -18546.12, 0.03555826, -0.0058145253, -783443.5, -37484.93, 0.0, 9.999959, 9.999304 
1.5050474e+3, 2.3388034e+2, -679281.44, -725251.44, -33044.36, -0.0130973095, -0.044656824, -662014.25, -14046.375, 0.0, 10.000003, 9.99939 
1.5050617e+3, 2.4387938e+2, -623451.9, -665974.5, -13118.973, -0.03511348, -0.06894742, -619730.2, -69752.83, 0.0, 9.999792, 9.999225 
1.5050766e+3, 2.538786e+2, -612447.6, -607853.44, 4285.3438, -0.014953541, -0.07337882, -605288.4, -153302.4, 0.0, 9.9991865, 9.999242 
1.5050913e+3, 2.638783e+2, -528344.7, -463254.66, 3155.056, -0.014086679, -0.043731466, -463102.1, -109112.79, 0.0, 9.998861, 9.999719 
1.5051055e+3, 2.7387878e+2, -407025.6, -342466.4, -7772.3853, -0.047517076, 0.022050405, -341543.88, -85559.23, 0.0, 9.998971, 9.999822 
1.50512e+3, 2.8387833e+2, -359809.9, -297471.3, 18361.1, -0.07401711, 0.006686868, -292465.25, -134475.75, 0.0, 9.998744, 9.999567 
1.5051353e+3, 2.938767e+2, -377049.97, -264865.6, 27041.297, -0.07604759, -0.1116429, -258687.67, -198681.88, 0.0, 9.997995, 9.999479 
1.5051503e+3, 3.0387712e+2, -357803.78, -212221.23, -3116.927, -0.03362135, -0.018945064, -212154.53, -212154.53, 0.0, 9.997715, 9.999641 
1.5051639e+3, 3.1387728e+2, -192327.98, 26680.676, 531.3774, -0.08449279, 0.017498001, 26681.965, 26681.965, 0.0, 9.998164, 10.001066 
1.5148968e+3, 1.2387887e+2, -1334470.0, -1726439.8, 82683.77, -0.015898487, -0.07151037, -1317742.1, 408238.56, 0.011999011, 10.0035, 9.998232 
1.514908e+3, 1.3387717e+2, -1299625.4, -1693389.5, -92667.2, -0.12855494, -0.038521662, -1278907.4, 349091.44, 0.007236167, 10.003182, 9.997946 
1.514922e+3, 1.4387536e+2, -1206480.0, -1525822.1, -31974.498, -0.016034719, -0.037854407, -1203310.0, 326706.7, 0.003216304, 10.002834, 9.998585 
1.5149361e+3, 1.538737e+2, -1153384.5, -1437497.1, -18631.145, -0.024738938, -0.07427116, -1152168.0, 279863.38, 0.00086027547, 10.002467, 9.998694 
1.5149496e+3, 1.6387223e+2, -1117718.8, -1370188.3, -42838.824, -0.05025767, -0.08862281, -1110648.0, 223397.16, 0.00008890055, 10.002039, 9.99869 
1.514963e+3, 1.7387111e+2, -1092993.5, -1303411.9, -46680.914, -0.05641025, -0.07415124, -1083102.4, 152954.25, 0.00000071310234, 10.001518, 9.998727 
1.514977e+3, 1.8386996e+2, -1036008.3, -1213297.4, -39967.145, -0.035632987, -0.062318966, -1027414.9, 110653.07, 0.0, 10.001185, 9.998834 
1.5149915e+3, 1.9386886e+2, -940547.2, -1111419.0, -43269.895, 0.013147826, -0.060946755, -930214.7, 109863.51, 0.0, 10.001145, 9.998879 
1.5150055e+3, 2.0386775e+2, -864105.6, -998814.4, -41352.39, 0.021237416, -0.066884406, -852424.4, 89664.625, 0.0, 10.00089, 9.999104 
1.515019e+3, 2.1386671e+2, -847285.44, -932856.9, -29753.982, -0.02900023, -0.08824335, -837956.7, 6142.865, 0.0, 10.000302, 9.999166 
1.5150328e+3, 2.2386593e+2, -807682.5, -876814.25, -19316.121, -0.043855794, -0.07626917, -802651.5, -56543.215, 0.0, 9.999961, 9.9990425 
1.5150476e+3, 2.3386554e+2, -702581.1, -773826.44, -30663.293, -0.005035906, -0.020485641, -691201.5, -43087.867, 0.0, 10.000003, 9.999057 
1.5150617e+3, 2.4386491e+2, -598813.8, -614726.2, -32785.13, 0.004518308, -0.008928603, -573033.3, -22912.938, 0.0, 9.999791, 9.9995775 
1.5150756e+3, 2.5386402e+2, -581118.0, -543586.5, -18113.479, -0.029914679, -0.06810598, -536270.6, -84142.56, 0.0, 9.999188, 9.999682 
1.5150897e+3, 2.6386353e+2, -537828.94, -483743.88, 5069.679, -0.053335328, -0.07693385, -483272.78, -129140.3, 0.0, 9.998864, 9.999577 
1.5151042e+3, 2.7386364e+2, -423271.06, -374974.16, -2209.6584, -0.06358111, -0.024969246, -374873.28, -118740.98, 0.0, 9.998965, 9.999602 
1.5151188e+3, 2.8386334e+2, -346869.5, -269195.34, -5588.6245, -0.07451536, -0.021434266, -268795.3, -110659.08, 0.0, 9.998737, 9.999765 
1.5151332e+3, 2.9386273e+2, -357509.7, -226951.63, -673.6496, -0.074516, -0.06550492, -226948.14, -166805.48, 0.0, 9.998005, 9.999735 
1.5151481e+3, 3.0386347e+2, -346469.16, -191769.13, 9924.6, -0.035687108, 0.037963048, -191135.03, -191135.03, 0.0, 9.997726, 9.999777 
1.5151621e+3, 3.1386283e+2, -212898.38, -12722.702, 16284.781, -0.0831464, -0.014751285, -11406.549, -11406.549, 0.0, 9.998148, 10.000804 
1.5249002e+3, 1.23864494e+2, -1314302.6, -1726198.6, 78103.04, -0.022387156, -0.07868782, -1299990.3, 426131.13, 0.012640105, 10.003686, 9.998144 
1.5249112e+3, 1.3386273e+2, -1281959.1, -1686876.3, -80151.44, -0.12304488, -0.049129803, -1266670.9, 361469.5, 0.0076465933, 10.003315, 9.997927 
1.524925e+3, 1.4386107e+2, -1197564.4, -1522771.1, -14660.944, -0.010116747, -0.034051538, -1196904.8, 333252.25, 0.0034202072, 10.002901, 9.998574 
1.5249385e+3, 1.538594e+2, -1159318.4, -1441075.3, -6376.763, -0.031041147, -0.06877432, -1159174.1, 272997.38, 0.0009266569, 10.00243, 9.998688 
1.5249516e+3, 1.638579e+2, -1121930.3, -1380474.3, -32366.797, -0.061537605, -0.08144118, -1117939.9, 216245.72, 0.000098221106, 10.002048, 9.998615 
1.5249647e+3, 1.7385672e+2, -1057330.3, -1296011.4, -37059.313, -0.06266533, -0.06587381, -1051708.6, 184489.56, 0.0000008739153, 10.001806, 9.998638 
1.5249784e+3, 1.8385549e+2, -999629.75, -1202607.0, -24060.64, -0.036607973, -0.055917393, -996816.6, 141393.78, 0.0, 10.001465, 9.998772 
1.5249926e+3, 1.9385427e+2, -970244.75, -1132200.1, -19041.602, 0.017577162, -0.060357396, -968036.1, 72185.35, 0.0, 10.000971, 9.99882 
1.5250063e+3, 2.0385312e+2, -904547.94, -1017288.7, -23840.865, 0.023912841, -0.06810415, -899713.7, 42518.754, 0.0, 10.000609, 9.99911 
1.5250191e+3, 2.1385214e+2, -823540.56, -919998.3, -33694.098, -0.038877968, -0.084347606, -812936.5, 31306.047, 0.0, 10.00046, 9.999178 
1.5250327e+3, 2.2385132e+2, -776982.3, -859840.9, -21239.482, -0.056480356, -0.075278156, -771855.2, -25603.78, 0.0, 10.000163, 9.999062 
1.5250473e+3, 2.3385082e+2, -754367.3, -796036.6, -6477.906, -0.0063845366, -0.03583508, -753383.5, -105125.7, 0.0, 9.999637, 9.99908 
1.5250613e+3, 2.4385023e+2, -658878.1, -632681.0, -3653.5435, 0.0050070346, -0.024458855, -632181.0, -81917.19, 0.0, 9.999333, 9.999674 
1.5250747e+3, 2.5384971e+2, -547093.1, -515922.25, -13896.641, -0.041776128, -0.057315838, -510626.53, -58358.594, 0.0, 9.999375, 9.999783 
1.5250885e+3, 2.6384932e+2, -500723.6, -468614.0, -1814.2848, -0.06496269, -0.062627666, -468511.8, -114240.13, 0.0, 9.999131, 9.999552 
1.525103e+3, 2.7384907e+2, -503221.66, -417750.7, 2391.0725, -0.054743204, -0.04414008, -417683.84, -161408.56, 0.0, 9.998436, 9.999563 
1.5251172e+3, 2.838487e+2, -432746.63, -298084.63, 5650.0806, -0.06331528, -0.045855526, -297847.97, -139568.5, 0.0, 9.9980955, 9.999876 
1.5251312e+3, 2.9384863e+2, -302655.22, -184858.97, 2114.0735, -0.09177149, -0.049445774, -184821.03, -124540.43, 0.0, 9.998317, 9.999874 
1.5251458e+3, 3.038495e+2, -273502.22, -128773.13, 11536.195, -0.06309677, 0.048372243, -127859.36, -127859.36, 0.0, 9.99811, 10.000024 
1.5251599e+3, 3.1384885e+2, -357520.4, -90595.33, 25102.355, -0.07073784, -0.027382107, -88255.15, -88255.15, 0.0, 9.997193, 10.000728 
1.5349036e+3, 1.2385058e+2, -1308188.6, -1713589.5, 61637.33, -0.03813521, -0.053935405, -1299024.4, 427234.25, 0.013311994, 10.003689, 9.99823 
1.5349145e+3, 1.3384844e+2, -1268602.4, -1659595.0, -94813.81, -0.12198247, -0.079923145, -1246823.6, 381456.6, 0.008077795, 10.003319, 9.998113 
1.5349278e+3, 1.4384688e+2, -1199982.4, -1529075.6, -33449.06, -0.011735745, -0.062481534, -1196617.0, 333678.63, 0.0036348593, 10.002906, 9.9985285 
1.5349406e+3, 1.5384564e+2, -1163669.4, -1451034.8, -24766.111, -0.053365752, -0.04991575, -1161550.6, 270756.4, 0.0009972175, 10.002434, 9.998618 
1.5349536e+3, 1.6384432e+2, -1127873.9, -1394323.6, -43054.438, -0.08115773, -0.036801342, -1121089.6, 213230.17, 0.000108598695, 10.002052, 9.998518 
1.5349668e+3, 1.7384294e+2, -1063886.5, -1310968.0, -46315.18, -0.04488352, -0.02883134, -1055490.1, 180843.84, 0.0000010362653, 10.001811, 9.998534 
1.53498e+3, 1.838414e+2, -996944.1, -1197916.6, -42164.094, -0.01836252, -0.046079166, -988456.5, 149892.34, 0.0, 10.001468, 9.998803 
1.5349932e+3, 1.9383965e+2, -966400.9, -1125307.3, -37842.734, -0.02006439, -0.10737125, -957849.06, 82514.87, 0.0, 10.000974, 9.998867 
1.5350063e+3, 2.0383848e+2, -920187.9, -1050844.3, -31134.918, -0.01841571, -0.1093319, -913147.9, 29227.385, 0.0, 10.000612, 9.998879 
1.53502e+3, 2.1383825e+2, -842080.8, -959170.6, -39042.625, -0.0063191927, -0.023982158, -830256.44, 14123.3955, 0.0, 10.000462, 9.998909 
1.5350334e+3, 2.2383754e+2, -756100.9, -816749.25, -39548.6, -0.0032925666, -0.0029409695, -736588.8, 9798.968, 0.0, 10.000163, 9.999358 
1.5350467e+3, 2.3383611e+2, -728321.2, -742687.0, -25978.465, -0.017047148, -0.09017109, -708550.9, -60150.508, 0.0, 9.9996395, 9.999445 
1.5350603e+3, 2.4383533e+2, -669489.9, -655181.2, -4020.829, -0.03333671, -0.114611536, -654128.75, -103720.96, 0.0, 9.999334, 9.999519 
1.535074e+3, 2.5383562e+2, -563414.1, -549633.75, -11207.506, -0.051707026, -0.04067501, -543367.8, -90962.11, 0.0, 9.999373, 9.999553 
1.5350878e+3, 2.6383558e+2, -494867.22, -456580.8, -24024.271, -0.050988197, -0.0022493936, -445005.47, -90598.4, 0.0, 9.99913, 9.999636 
1.5351018e+3, 2.738349e+2, -493613.06, -399487.03, -23080.006, -0.02312424, -0.038700324, -394132.34, -137718.23, 0.0, 9.998442, 9.999686 
1.5351155e+3, 2.8383437e+2, -430649.03, -294460.47, 10886.349, -0.04225658, -0.06778245, -293595.75, -135175.98, 0.0, 9.998097, 9.999901 
1.5351291e+3, 2.9383442e+2, -303039.8, -183238.16, 11680.45, -0.1273778, -0.060189795, -182109.95, -121690.28, 0.0, 9.998304, 9.999891 
1.5351433e+3, 3.0383524e+2, -250161.39, -78112.78, -16743.92, -0.1146291, 0.013599035, -76498.4, -76498.4, 0.0, 9.998098, 10.000379 
1.5351574e+3, 3.1383532e+2, -346079.0, -70228.33, -9218.808, -0.052499466, -0.025143381, -69920.58, -69920.58, 0.0, 9.997207, 10.000862 
1.5449072e+3, 1.2383683e+2, -1312155.6, -1708696.6, 77405.93, -0.05193483, -0.046852645, -1297581.4, 428813.34, 0.014016845, 10.003633, 9.998291 
1.5449178e+3, 1.3383487e+2, -1251897.9, -1633914.6, -80698.32, -0.11833243, -0.070998244, -1235550.5, 392863.3, 0.008532243, 10.003363, 9.998267 
1.5449308e+3, 1.4383343e+2, -1189726.3, -1534659.1, -26772.074, -0.009800119, -0.044605274, -1187660.8, 342766.84, 0.0038614096, 10.003025, 9.998432 
1.544943e+3, 1.5383194e+2, -1147083.0, -1457883.9, -23411.152, -0.06543137, -0.0441217, -1145329.5, 287112.28, 0.0010719306, 10.002612, 9.998486 
1.5449554e+3, 1.6383046e+2, -1107987.9, -1391098.0, -38403.773, -0.09316279, -0.037813403, -1102870.9, 231585.36, 0.000119982535, 10.002216, 9.998462 
1.5449686e+3, 1.7382905e+2, -1060565.1, -1314365.9, -37679.434, -0.03632754, -0.028388565, -1055089.3, 181381.14, 0.0000011877057, 10.001856, 9.998488 
1.5449816e+3, 1.8382749e+2, -989393.6, -1196229.3, -35917.816, -0.008460387, -0.04423141, -983333.9, 155151.4, 0.0, 10.001529, 9.998785 
1.544994e+3, 1.9382577e+2, -926629.6, -1107953.5, -36981.39, -0.038907748, -0.103331454, -919377.25, 121122.984, 0.0, 10.001256, 9.99885 
1.545007e+3, 2.0382452e+2, -890891.06, -1049937.5, -28199.383, -0.040290236, -0.10516178, -886039.25, 56473.06, 0.0, 10.000872, 9.998761 
1.5450205e+3, 2.1382412e+2, -872115.44, -988351.5, -26110.344, 0.00803369, -0.023513563, -866519.6, -22000.541, 0.0, 10.0003195, 9.998776 
1.5450338e+3, 2.238234e+2, -780926.8, -812583.25, -25924.72, 0.019295746, -0.0027612338, -766380.3, -19853.2, 0.0, 9.999925, 9.9995 
1.5450464e+3, 2.3382223e+2, -696803.4, -708239.94, -26638.852, -0.02893673, -0.083744586, -675276.0, -26739.498, 0.0, 9.999772, 9.999618 
1.5450594e+3, 2.4382149e+2, -654489.8, -658053.2, -7434.7813, -0.05453751, -0.10738578, -648626.2, -98083.24, 0.0, 9.999481, 9.99943 
1.5450732e+3, 2.5382155e+2, -631305.25, -596320.6, -7823.887, -0.043838758, -0.043574512, -594650.6, -142106.75, 0.0, 9.998969, 9.999427 
1.545087e+3, 2.6382145e+2, -562429.6, -485235.72, -21430.715, -0.034567457, -0.0072965752, -479685.2, -125138.78, 0.0, 9.998652, 9.999669 
1.5451002e+3, 2.7382097e+2, -460088.6, -377820.25, -26351.324, -0.030007176, -0.028738176, -370103.5, -113552.06, 0.0, 9.99865, 9.999735 
1.5451136e+3, 2.838206e+2, -395096.7, -269246.28, 6375.847, -0.052766945, -0.04658628, -268924.1, -110368.836, 0.0, 9.998309, 9.999972 
1.5451272e+3, 2.9382068e+2, -424102.06, -232001.8, 10954.392, -0.110983804, -0.0430364, -231379.16, -170824.55, 0.0, 9.997435, 9.999975 
1.545141e+3, 3.0382115e+2, -382114.44, -121862.74, -15139.788, -0.10458576, -0.017116657, -120984.97, -120984.97, 0.0, 9.997109, 10.000554 
1.5451545e+3, 3.138217e+2, -284323.78, -34027.184, -23048.416, -0.078688726, -0.022739526, -31922.482, -31922.482, 0.0, 9.997606, 10.000917 
1.5549108e+3, 1.238233e+2, -1308801.9, -1701515.9, 64808.305, -0.06421566, -0.057036307, -1298383.3, 428145.88, 0.014762813, 10.0036335, 9.998342 
1.5549213e+3, 1.3382205e+2, -1242969.6, -1615537.0, -91874.95, -0.112399615, -0.021991557, -1221545.4, 406995.3, 0.009016216, 10.003365, 9.998393 
1.5549338e+3, 1.438208e+2, -1200222.1, -1557848.8, -42734.664, -0.0048910123, 0.021420583, -1195186.4, 335365.94, 0.0041035847, 10.00303, 9.998271 
1.5549456e+3, 1.5381837e+2, -1160617.4, -1487329.3, -39402.03, -0.06812433, -0.050566055, -1155932.6, 276642.72, 0.0011519974, 10.002617, 9.9982815 
1.5549576e+3, 1.6381636e+2, -1108628.5, -1393951.3, -52996.527, -0.09858558, -0.08451865, -1099102.9, 235491.83, 0.00013256267, 10.002222, 9.99844 
1.5549704e+3, 1.7381504e+2, -1059767.0, -1314056.4, -51646.91, -0.038004413, -0.065691955, -1049677.8, 186929.66, 0.0000013544981, 10.001861, 9.998489 
1.5549831e+3, 1.8381377e+2, -993822.56, -1206563.8, -47056.316, -0.008360413, -0.05092794, -983878.94, 154740.7, 0.0, 10.001533, 9.998713 
1.5549952e+3, 1.9381258e+2, -931943.1, -1119894.5, -47354.848, -0.039139763, -0.047965657, -920686.2, 119944.07, 0.0, 10.001259, 9.998767 
1.5550078e+3, 2.0381123e+2, -891319.4, -1051404.9, -47975.23, -0.041734893, -0.05484309, -878042.94, 64600.547, 0.0, 10.000873, 9.998751 
1.5550208e+3, 2.1380976e+2, -872088.1, -988901.8, -46816.34, 0.0035415464, -0.08230687, -855640.94, -10980.864, 0.0, 10.000321, 9.998773 
1.5550336e+3, 2.2380888e+2, -781293.56, -814242.1, -32990.21, 0.01052668, -0.07472835, -760892.94, -14223.664, 0.0, 9.9999275, 9.999489 
1.555046e+3, 2.3380907e+2, -697552.0, -710439.9, -31575.805, -0.042965546, -0.01771847, -671769.3, -23103.104, 0.0, 9.999774, 9.999602 
1.5550588e+3, 2.4380869e+2, -656809.5, -663453.44, -24688.693, -0.06008146, -0.004556343, -635220.3, -84550.664, 0.0, 9.999482, 9.9993925 
1.5550725e+3, 2.5380746e+2, -633709.0, -602068.2, -26411.957, -0.01910039, -0.06612557, -587101.0, -134418.47, 0.0, 9.998971, 9.999387 
1.5550856e+3, 2.6380685e+2, -563037.8, -486918.38, -22796.133, -0.015812796, -0.07614849, -480613.63, -125923.93, 0.0, 9.998652, 9.999658 
1.5550984e+3, 2.738072e+2, -461896.5, -381176.88, -24918.885, -0.074915364, -0.013979215, -374103.94, -117416.586, 0.0, 9.998647, 9.999714 
1.5551114e+3, 2.8380734e+2, -387290.53, -252933.56, -21712.04, -0.095289804, 0.01579026, -249512.05, -90825.64, 0.0, 9.998307, 10.000085 
1.5551253e+3, 2.9380733e+2, -413674.2, -211803.67, -20895.271, -0.048432007, -0.0009190468, -209663.53, -148977.6, 0.0, 9.997439, 10.000113 
1.5551388e+3, 3.0380717e+2, -383386.8, -125390.53, -954.38293, -0.039319906, -0.045732882, -125387.0, -125387.0, 0.0, 9.997111, 10.000529 
1.5551513e+3, 3.1380793e+2, -286453.66, -37020.01, -1755.2568, -0.14702053, -0.03126136, -37007.66, -37007.66, 0.0, 9.997598, 10.000902 
1.5649146e+3, 1.238107e+2, -1277006.3, -1701669.6, 98495.266, -0.05683095, -0.030756317, -1255273.8, 471379.4, 0.015563499, 10.003928, 9.998198 
1.5649249e+3, 1.3380906e+2, -1221382.4, -1613588.4, -74453.79, -0.113783695, -0.026519004, -1207724.1, 420944.22, 0.009538753, 10.003553, 9.998315 
1.5649368e+3, 1.4380772e+2, -1183113.5, -1557513.5, -33461.63, -0.013707229, 0.015946083, -1180146.4, 350534.3, 0.00436669, 10.003183, 9.998199 
1.5649486e+3, 1.5380538e+2, -1131338.8, -1480359.8, -20480.71, -0.057463303, -0.042820238, -1130141.0, 302561.97, 0.0012395725, 10.0028515, 9.998215 
1.56496e+3, 1.6380328e+2, -1075056.0, -1386714.1, -30616.338, -0.0840425, -0.077154, -1072076.9, 262646.03, 0.00014677673, 10.002494, 9.998358 
1.5649724e+3, 1.7380166e+2, -1032823.4, -1311163.6, -36521.688, -0.046397503, -0.079384916, -1028111.06, 208627.23, 0.0000015913902, 10.00209, 9.998398 
1.5649846e+3, 1.8380027e+2, -979127.9, -1207143.3, -34819.07, -0.020982446, -0.067541115, -973929.3, 164822.36, 0.0, 10.001668, 9.998643 
1.5649967e+3, 1.9379927e+2, -942090.6, -1132286.0, -34647.703, -0.026139965, -0.038809065, -935975.5, 104785.4, 0.0, 10.001223, 9.998699 
1.5650088e+3, 2.0379801e+2, -895323.8, -1052218.3, -36045.57, -0.025415437, -0.03581958, -887438.8, 55334.883, 0.0, 10.000841, 9.99876 
1.565021e+3, 2.1379638e+2, -836479.7, -970375.94, -34294.41, -0.012148352, -0.07849661, -828207.06, 16584.164, 0.0, 10.00056, 9.998784 
1.5650333e+3, 2.237954e+2, -750517.56, -813459.75, -20258.342, -0.013500343, -0.0770305, -744561.0, 2240.552, 0.0, 10.0002, 9.999362 
1.5650457e+3, 2.3379554e+2, -715720.06, -735340.44, -29072.135, -0.038672484, -0.011764629, -694847.5, -46048.063, 0.0, 9.999721, 9.999456 
1.5650585e+3, 2.4379513e+2, -678706.75, -670368.2, -27844.81, -0.044906303, 0.0067830123, -646382.25, -95578.984, 0.0, 9.999318, 9.999423 
1.5650713e+3, 2.5379398e+2, -619728.5, -589743.2, -23631.766, -0.020652058, -0.05393565, -576749.44, -123934.08, 0.0, 9.999043, 9.999436 
1.5650843e+3, 2.6379335e+2, -555512.0, -478037.03, -10074.277, -0.02290772, -0.06872572, -476748.47, -121926.1, 0.0, 9.998683, 9.999704 
1.565097e+3, 2.737936e+2, -527940.94, -408244.97, -8273.358, -0.0684969, -0.018920051, -407675.8, -150855.11, 0.0, 9.998174, 9.999756 
1.5651096e+3, 2.8379384e+2, -464272.06, -289245.22, -15060.316, -0.08351617, 0.014514244, -287958.78, -129139.62, 0.0, 9.997776, 10.000092 
1.5651228e+3, 2.9379407e+2, -394736.03, -201573.61, -24967.549, -0.047827538, 0.021352487, -198398.58, -137582.05, 0.0, 9.997566, 10.000121 
1.5651359e+3, 3.037936e+2, -363502.8, -108560.59, 8723.256, -0.045761075, -0.053711876, -108262.46, -108262.46, 0.0, 9.997218, 10.000593 
1.5651485e+3, 3.1379464e+2, -410716.25, -71718.78, 20991.965, -0.1305376, -0.017891278, -70423.83, -70423.83, 0.0, 9.996636, 10.001126 
1.5749186e+3, 1.23799115e+2, -1302421.3, -1755630.3, 83180.56, -0.031001791, 0.033560354, -1287636.9, 439128.97, 0.016432954, 10.003933, 9.997825 
1.5749282e+3, 1.3379595e+2, -1242908.8, -1659334.8, -89736.16, -0.124115534, -0.08479078, -1224394.5, 404402.0, 0.010108732, 10.003557, 9.998 
1.5749398e+3, 1.4379424e+2, -1180621.5, -1553842.4, -47796.1, -0.037888207, -0.061860133, -1174597.8, 356214.88, 0.0046556997, 10.003189, 9.998222 
1.5749516e+3, 1.5379295e+2, -1125534.4, -1470189.8, -33393.35, -0.033477783, -0.021348165, -1122328.8, 310495.72, 0.0013367783, 10.002858, 9.998282 
1.574963e+3, 1.6379124e+2, -1084338.6, -1407786.9, -46048.914, -0.04990048, -0.014606385, -1077910.4, 256930.2, 0.00016297578, 10.002501, 9.99821 
1.5749744e+3, 1.7378892e+2, -1045210.56, -1338035.0, -52006.69, -0.061852843, -0.06903, -1036248.25, 200614.67, 0.0000019381066, 10.002094, 9.998212 
1.574986e+3, 1.8378702e+2, -983779.5, -1217740.4, -51635.348, -0.047209285, -0.09417788, -972890.4, 165990.97, 0.0, 10.001671, 9.9985695 
1.5749982e+3, 1.9378586e+2, -945884.44, -1141159.8, -51477.844, -0.001411312, -0.07598275, -933145.1, 107747.08, 0.0, 10.001225, 9.998637 
1.5750098e+3, 2.0378481e+2, -893441.0, -1049086.9, -47438.973, 0.0072344686, -0.048215464, -880121.94, 62780.957, 0.0, 10.000843, 9.998781 
1.5750213e+3, 2.13784e+2, -834215.4, -966277.2, -44563.76, -0.039260957, -0.012635825, -820584.44, 24328.238, 0.0, 10.000562, 9.998813 
1.5750332e+3, 2.2378294e+2, -767410.06, -849374.25, -37223.234, -0.05321471, -0.009819734, -753028.8, -6104.904, 0.0, 10.000202, 9.999115 
1.5750456e+3, 2.3378159e+2, -735296.3, -776669.44, -46595.95, -0.016768262, -0.064610004, -705001.4, -56064.99, 0.0, 9.9997225, 9.999172 
1.5750581e+3, 2.437808e+2, -671686.5, -656528.4, -38315.004, -0.009572682, -0.07172992, -625050.0, -74106.125, 0.0, 9.99932, 9.999517 
1.5750702e+3, 2.5378105e+2, -609834.5, -569409.7, -32797.48, -0.049317386, -0.008039433, -551096.56, -98153.875, 0.0, 9.999043, 9.999577 
1.5750827e+3, 2.637809e+2, -549076.8, -465061.44, -27040.08, -0.05746926, 0.012526738, -457111.03, -102166.09, 0.0, 9.998683, 9.999794 
1.5750957e+3, 2.7378017e+2, -521455.9, -395748.22, -26310.744, -0.013876508, -0.04353793, -390463.5, -133511.55, 0.0, 9.998177, 9.999841 
1.575108e+3, 2.8378004e+2, -470642.5, -303333.34, -23598.61, -0.020188771, -0.048069865, -300068.53, -141114.61, 0.0, 9.997779, 9.999994 
1.5751198e+3, 2.937808e+2, -403423.3, -220334.8, -31796.467, -0.10756914, 0.024070114, -214970.0, -154023.05, 0.0, 9.997567, 9.999992 
1.5751323e+3, 3.0378044e+2, -352762.84, -86681.28, -10624.479, -0.12238292, -0.04181351, -86257.73, -86257.73, 0.0, 9.997219, 10.000744 
1.5751462e+3, 3.137817e+2, -376988.47, -1848.573, 3893.5671, -0.040546626, -0.0009275181, -1808.1661, -1808.1661, 0.0, 9.996635, 10.001608 
1.5849227e+3, 1.2378678e+2, -1282063.0, -1765301.0, 73009.31, -0.034635607, 0.020828007, -1271273.4, 455612.47, 0.017379753, 10.004165, 9.997645 
1.5849319e+3, 1.3378353e+2, -1214785.5, -1659118.1, -86347.79, -0.12071423, -0.09066592, -1198595.4, 430322.34, 0.010731313, 10.003817, 9.997874 
1.5849431e+3, 1.4378183e+2, -1144217.3, -1541553.3, -37574.305, -0.04023249, -0.058314465, -1140695.3, 390238.88, 0.004973393, 10.0034685, 9.99817 
1.5849546e+3, 1.5378037e+2, -1086646.4, -1457006.4, -32668.344, -0.02931153, -0.030657075, -1083786.9, 349160.63, 0.001444731, 10.003152, 9.998231 
1.5849657e+3, 1.637786e+2, -1052525.4, -1400396.8, -52833.85, -0.043388616, -0.022486538, -1044678.2, 290285.97, 0.00018110967, 10.002754, 9.998138 
1.5849765e+3, 1.7377646e+2, -1030341.5, -1339137.3, -52210.168, -0.059986647, -0.053918857, -1021752.9, 215232.47, 0.000002389593, 10.002234, 9.998136 
1.5849876e+3, 1.837745e+2, -970580.3, -1216568.6, -44403.51, -0.04695245, -0.076536976, -962810.44, 176193.73, 0.0, 10.001785, 9.998521 
1.5849996e+3, 1.9377302e+2, -917218.25, -1132645.8, -43162.14, 0.0017883875, -0.08739543, -908892.25, 132125.7, 0.0, 10.001447, 9.998588 
1.585011e+3, 2.037718e+2, -869432.9, -1048428.6, -42085.805, 0.012621856, -0.06850405, -860031.4, 82998.695, 0.0, 10.001057, 9.998682 
1.5850219e+3, 2.1377112e+2, -838584.6, -980165.25, -50099.406, -0.03358348, -0.009656276, -822650.0, 22388.885, 0.0, 10.000584, 9.998705 
1.5850334e+3, 2.2377008e+2, -774912.7, -854588.44, -42189.54, -0.048330754, 0.0012488723, -756724.56, -9674.574, 0.0, 10.000159, 9.9991 
1.5850456e+3, 2.3376855e+2, -721668.1, -770511.2, -31228.58, -0.014006635, -0.06966231, -706445.8, -57381.88, 0.0, 9.999819, 9.999168 
1.5850575e+3, 2.4376768e+2, -662956.1, -659667.2, -16359.701, -0.0063989377, -0.08196049, -644869.56, -93797.22, 0.0, 9.9994135, 9.999451 
1.5850691e+3, 2.5376797e+2, -636694.56, -591059.2, -27752.033, -0.0427125, -0.006409461, -577948.8, -124877.62, 0.0, 9.9988985, 9.999496 
1.5850814e+3, 2.6376784e+2, -580468.25, -470119.66, -32931.773, -0.050415915, 0.018563682, -461038.94, -105965.68, 0.0, 9.998426, 9.999882 
1.5850937e+3, 2.737672e+2, -536042.1, -389695.53, -31171.633, -0.01014484, -0.042457286, -383332.66, -126253.38, 0.0, 9.998023, 9.999955 
1.5851058e+3, 2.8376713e+2, -483183.28, -301909.22, -15513.819, -0.017043086, -0.04791474, -300591.1, -141510.95, 0.0, 9.997663, 10.000058 
1.5851171e+3, 2.93768e+2, -431960.9, -227934.53, -10317.66, -0.10192349, 0.026294487, -227414.1, -166341.64, 0.0, 9.997348, 10.000046 
1.5851294e+3, 3.037675e+2, -409954.0, -132165.0, -2804.0627, -0.118477605, -0.044209186, -132136.69, -132136.69, 0.0, 9.996904, 10.000582 
1.5851428e+3, 3.1376874e+2, -414259.8, -4396.29, -12450.878, -0.037859287, 0.008408914, -4018.4043, -4018.4043, 0.0, 9.996315, 10.001743 
1.5949266e+3, 1.237737e+2, -1278360.0, -1758798.5, 59132.246, -0.07003325, -0.067472346, -1271189.0, 455823.7, 0.018405749, 10.004173, 9.997686 
1.594936e+3, 1.337719e+2, -1208500.1, -1647762.6, -100319.08, -0.10333201, -0.04465842, -1186673.8, 442357.7, 0.011407597, 10.003825, 9.99795 
1.5949468e+3, 1.4377058e+2, -1153325.4, -1562093.9, -50966.05, -0.020343635, 0.027428586, -1147066.6, 383977.78, 0.005320472, 10.003476, 9.998027 
1.5949576e+3, 1.5376766e+2, -1099121.1, -1483839.6, -45185.934, -0.046253487, -0.07091262, -1093885.1, 339186.63, 0.0015636216, 10.003156, 9.998046 
1.5949681e+3, 1.637654e+2, -1052004.4, -1400641.5, -72245.76, -0.06613517, -0.10173997, -1037626.3, 297467.1, 0.0002008773, 10.002759, 9.998135 
1.5949789e+3, 1.7376427e+2, -1028061.94, -1335973.4, -72050.99, -0.0417622, -0.03384334, -1012036.2, 225069.2, 0.000002909139, 10.00224, 9.998156 
1.5949897e+3, 1.8376274e+2, -971533.5, -1219798.1, -58417.047, -0.021043908, -0.013314746, -958474.75, 180645.31, 0.0, 10.00179, 9.998497 
1.5950008e+3, 1.9376072e+2, -919303.44, -1137960.1, -55773.87, -0.01638311, -0.07321821, -905898.7, 135239.44, 0.0, 10.00145, 9.99855 
1.5950117e+3, 2.0375897e+2, -884652.94, -1081069.9, -59178.332, -0.009653948, -0.09715903, -868201.1, 74954.1, 0.0, 10.00106, 9.998457 
1.595023e+3, 2.1375774e+2, -855973.94, -1016806.8, -67603.64, 0.0033674773, -0.06879504, -831332.94, 13836.8125, 0.0, 10.000586, 9.998454 
1.595034e+3, 2.2375679e+2, -759892.6, -824098.6, -55352.945, -0.00019570671, -0.04308824, -728006.94, 19173.063, 0.0, 10.00016, 9.999309 
1.5950452e+3, 2.337564e+2, -702522.6, -731179.4, -43098.875, -0.030777188, -0.027934395, -671432.75, -22250.32, 0.0, 9.999819, 9.999438 
1.5950567e+3, 2.4375574e+2, -679438.94, -694458.25, -34313.668, -0.036310494, -0.024680493, -651822.8, -100633.85, 0.0, 9.999414, 9.999212 
1.5950684e+3, 2.5375473e+2, -657850.94, -635864.3, -46095.816, -0.0020989103, -0.04754069, -599469.06, -146267.8, 0.0, 9.9989, 9.999188 
1.5950802e+3, 2.6375422e+2, -573896.1, -457606.28, -47529.074, -0.0024504138, -0.04817645, -440652.3, -85444.695, 0.0, 9.998429, 9.999967 
1.5950914e+3, 2.7375463e+2, -526690.1, -370594.75, -45136.934, -0.057452846, -0.016748955, -358482.66, -101279.4, 0.0, 9.998023, 10.000087 
1.5951028e+3, 2.8375506e+2, -467921.3, -270510.25, -26448.77, -0.07507089, 0.011671895, -267028.13, -107829.27, 0.0, 9.997663, 10.000275 
1.5951152e+3, 2.9375556e+2, -415652.66, -195627.77, -21417.217, -0.035421498, 0.026401807, -193562.4, -132368.44, 0.0, 9.997353, 10.000265 
1.5951271e+3, 3.0375487e+2, -443067.72, -201097.2, -24320.494, -0.038001984, -0.05824108, -198676.95, -198676.95, 0.0, 9.996904, 10.000109 
1.595138e+3, 3.1375557e+2, -431164.47, -38693.363, -28594.334, -0.12252562, 0.0007988672, -36621.004, -36621.004, 0.0, 9.99631, 10.001511 
1.6049306e+3, 1.23761594e+2, -1263358.6, -1751606.1, 73366.11, -0.08912639, -0.08630228, -1252572.6, 474558.13, 0.019511389, 10.004285, 9.997683 
1.60494e+3, 1.337599e+2, -1172083.0, -1626706.1, -92467.49, -0.084882565, -0.054569293, -1153995.4, 475152.8, 0.012139068, 10.004067, 9.997976 
1.6049504e+3, 1.4375867e+2, -1124154.1, -1556935.0, -48396.4, -0.005731009, 0.027684426, -1118808.1, 412352.47, 0.0056983205, 10.003718, 9.997945 
1.6049606e+3, 1.5375559e+2, -1101158.9, -1495354.8, -36685.555, -0.05620284, -0.07744262, -1097773.8, 335416.28, 0.0016940074, 10.00319, 9.997948 
1.6049708e+3, 1.6375329e+2, -1047937.0, -1392548.0, -56990.668, -0.08120025, -0.110054746, -1038756.6, 296455.75, 0.00022220024, 10.002764, 9.998186 
1.6049813e+3, 1.7375231e+2, -984472.2, -1307079.4, -53831.48, -0.03288489, -0.032976195, -975726.75, 261495.69, 0.000003466771, 10.002508, 9.998223 
1.6049919e+3, 1.8375082e+2, -931291.5, -1218203.3, -44608.168, -0.0058804364, -0.006230504, -924516.0, 214720.81, 0.0, 10.002145, 9.998337 
1.6050021e+3, 1.9374861e+2, -909986.0, -1155433.3, -54847.355, -0.023135064, -0.06606916, -898287.44, 142969.9, 0.0, 10.001611, 9.998352 
1.6050127e+3, 2.0374669e+2, -873121.56, -1071485.4, -56886.98, -0.022570165, -0.09574082, -857965.44, 85310.51, 0.0, 10.001123, 9.998491 
1.6050236e+3, 2.1374537e+2, -831984.06, -997918.25, -42083.56, 0.009726074, -0.08169543, -821921.25, 23369.113, 0.0, 10.00072, 9.998518 
1.6050345e+3, 2.237444e+2, -749445.8, -830447.7, -26247.371, 0.013671882, -0.05849722, -741684.44, 5616.2163, 0.0, 10.000283, 9.999206 
1.6050449e+3, 2.3374406e+2, -716583.1, -752654.5, -44580.17, -0.028911976, -0.026976978, -686528.5, -37225.008, 0.0, 9.999787, 9.999305 
1.605056e+3, 2.437434e+2, -697424.44, -699103.0, -47365.09, -0.038030606, -0.01572223, -650891.2, -99580.9, 0.0, 9.999275, 9.999247 
1.6050674e+3, 2.5374243e+2, -676232.1, -637775.75, -33351.66, 0.006243072, -0.042663153, -618506.5, -165184.0, 0.0, 9.998747, 9.9992485 
1.6050786e+3, 2.6374194e+2, -590041.2, -460511.2, -16008.286, 0.0074526924, -0.04393037, -458562.1, -103233.8, 0.0, 9.998301, 10.000007 
1.6050893e+3, 2.7374244e+2, -530940.56, -369200.72, -20509.932, -0.060430642, -0.010410724, -366640.4, -109317.234, 0.0, 9.997981, 10.000115 
1.6051005e+3, 2.8374282e+2, -481005.63, -278700.0, -15826.4795, -0.082052045, 0.016138896, -277469.38, -118150.34, 0.0, 9.997582, 10.000257 
1.6051124e+3, 2.9374328e+2, -466685.6, -222541.83, -31179.621, -0.031013476, 0.030833952, -218622.78, -157307.78, 0.0, 9.997015, 10.000241 
1.6051239e+3, 3.0374283e+2, -510173.38, -229997.36, -31333.13, -0.022135474, -0.029832512, -226536.03, -226536.03, 0.0, 9.996431, 10.000137 
1.6051343e+3, 3.137432e+2, -466278.84, -27358.271, 12457.139, -0.11243362, -0.014632379, -27005.006, -27005.006, 0.0, 9.995949, 10.001762 
1.6149348e+3, 1.2375054e+2, -1268659.8, -1762746.0, 64392.258, -0.092025675, -0.03494717, -1260405.6, 466833.53, 0.020701654, 10.004289, 9.997604 
1.6149443e+3, 1.3374762e+2, -1175052.0, -1633565.6, -101774.51, -0.06686091, -0.119445436, -1153476.8, 475790.88, 0.012931809, 10.004073, 9.997928 
1.6149542e+3, 1.4374614e+2, -1124117.1, -1558608.4, -68171.055, 0.0018963364, -0.056980632, -1113672.3, 417609.88, 0.0061115595, 10.003726, 9.997931 
1.6149637e+3, 1.5374419e+2, -1101065.0, -1496798.1, -56996.563, -0.05991387, -0.050245505, -1093019.5, 340282.53, 0.0018381176, 10.003196, 9.997936 
1.6149735e+3, 1.6374227e+2, -1040128.8, -1377807.0, -68438.125, -0.0890404, -0.046445798, -1026785.5, 308535.16, 0.00024563554, 10.0027685, 9.998285 
1.6149838e+3, 1.7374058e+2, -976362.8, -1291283.4, -63522.09, -0.0338056, -0.051826585, -964032.6, 273303.72, 0.0000040686878, 10.002511, 9.998331 
1.614994e+3, 1.8373872e+2, -952011.75, -1262196.4, -63694.836, -0.0022598018, -0.056628715, -939441.75, 199912.72, 0.0, 10.002148, 9.998034 
1.6150038e+3, 1.9373664e+2, -935228.2, -1208817.8, -74927.0, -0.019491794, -0.06536503, -916052.2, 125323.33, 0.0, 10.001614, 9.997985 
1.6150138e+3, 2.0373496e+2, -852431.06, -1029632.7, -72809.914, -0.02698998, -0.063094765, -826352.4, 117039.914, 0.0, 10.001127, 9.998777 
1.615024e+3, 2.1373405e+2, -805061.56, -942887.9, -56690.52, -0.014759427, -0.04901349, -784739.94, 60660.945, 0.0, 10.000722, 9.998895 
1.6150345e+3, 2.2373289e+2, -778621.44, -891975.56, -44165.668, -0.007525969, -0.04523664, -763445.2, -16032.963, 0.0, 10.000285, 9.998782 
1.6150449e+3, 2.337315e+2, -754257.5, -831267.4, -62454.664, -0.009125205, -0.065455034, -719392.06, -69964.83, 0.0, 9.999788, 9.998766 
1.6150554e+3, 2.4373068e+2, -676566.2, -656360.94, -66337.08, -0.012086195, -0.05397801, -599361.6, -47924.996, 0.0, 9.999276, 9.99954 
1.615066e+3, 2.5373095e+2, -647298.94, -578075.5, -51996.766, -0.018164847, 0.006343742, -550224.2, -96788.63, 0.0, 9.998747, 9.999659 
1.6150767e+3, 2.6373094e+2, -590885.6, -462750.5, -27857.344, -0.022031102, 0.029586365, -456956.16, -101520.01, 0.0, 9.9983015, 9.999992 
1.6150877e+3, 2.7373052e+2, -535985.3, -380906.06, -31165.646, -0.021405522, -0.021664828, -374877.22, -117437.53, 0.0, 9.997985, 10.000033 
1.6150984e+3, 2.8373042e+2, -498247.22, -315700.84, -34968.0, -0.03963109, -0.032220602, -309231.72, -149790.48, 0.0, 9.997586, 10.000001 
1.6151088e+3, 2.9373115e+2, -486199.13, -263380.3, -52409.71, -0.088743314, 0.037712928, -251668.52, -190231.94, 0.0, 9.997015, 9.999963 
1.6151199e+3, 3.0373135e+2, -474390.03, -154949.47, -50065.742, -0.07177253, 0.03971872, -147286.52, -147286.52, 0.0, 9.996428, 10.000655 
1.6151312e+3, 3.1373146e+2, -418211.88, 72004.28, 501.70862, -0.016286392, -0.033530656, 72004.8, 72004.8, 0.0, 9.99595, 10.002444 
1.6249394e+3, 1.2373949e+2, -1221852.5, -1738887.4, 89130.67, -0.07928237, -0.026027864, -1206918.8, 520428.94, 0.021985937, 10.00462, 9.997609 
1.6249484e+3, 1.337364e+2, -1159584.4, -1623401.9, -72648.66, -0.07140468, -0.13069682, -1148471.5, 480905.84, 0.013794448, 10.004175, 9.997947 
1.6249578e+3, 1.437349e+2, -1119941.8, -1558579.3, -39364.92, -0.021803563, -0.06892672, -1116437.0, 414954.8, 0.006566257, 10.003767, 9.997909 
1.6249672e+3, 1.5373309e+2, -1063642.6, -1481892.9, -30737.85, -0.054533895, -0.0452628, -1061395.6, 372014.7, 0.0019992644, 10.003469, 9.997906 
1.6249765e+3, 1.6373119e+2, -999560.4, -1369611.1, -48602.535, -0.073017426, -0.03687627, -993283.44, 342145.88, 0.00027234203, 10.0030985, 9.998182 
1.6249864e+3, 1.7372921e+2, -970725.9, -1301691.6, -60873.367, -0.037903678, -0.058240622, -959884.75, 277562.97, 0.0000047643325, 10.002608, 9.998212 
1.624996e+3, 1.8372723e+2, -955930.75, -1262877.6, -65318.01, -0.01495043, -0.06685418, -942609.25, 196857.66, 0.0, 10.002118, 9.998042 
1.6250055e+3, 1.9372538e+2, -931698.06, -1204202.9, -48615.496, -0.02171306, -0.058745947, -923284.7, 118201.63, 0.0, 10.001627, 9.998009 
1.6250148e+3, 2.0372376e+2, -854352.25, -1038606.75, -39174.76, -0.02463802, -0.048018154, -846369.1, 97133.414, 0.0, 10.00115, 9.998704 
1.6250248e+3, 2.1372269e+2, -816297.4, -958577.06, -58178.05, -0.018070314, -0.03899742, -795537.44, 49975.113, 0.0, 10.000691, 9.998802 
1.6250347e+3, 2.2372144e+2, -791852.8, -893321.6, -54618.27, -0.010462301, -0.04092609, -768041.0, -20516.27, 0.0, 10.0001745, 9.998826 
1.6250446e+3, 2.3372003e+2, -780809.2, -836710.25, -29427.646, -0.002590372, -0.06867516, -768173.75, -118634.07, 0.0, 9.999576, 9.99883 
1.6250546e+3, 2.4371924e+2, -705079.9, -669052.7, -13528.003, -0.006533357, -0.059136365, -664538.6, -112989.81, 0.0, 9.999078, 9.999547 
1.6250646e+3, 2.5371963e+2, -648420.56, -579247.9, -29795.84, -0.029920777, 0.01125936, -568183.25, -114636.4, 0.0, 9.998743, 9.999652 
1.6250747e+3, 2.6371974e+2, -593629.7, -461466.34, -24721.246, -0.035623915, 0.042273242, -456993.6, -101446.8, 0.0, 9.998272, 10.000014 
1.6250855e+3, 2.7371928e+2, -594649.25, -405517.03, -20996.29, -0.012882211, -0.010506326, -403214.2, -145663.89, 0.0, 9.997569, 10.000063 
1.6250958e+3, 2.8371912e+2, -565501.25, -335898.97, -4290.132, -0.02669643, -0.03216597, -335818.84, -176266.48, 0.0, 9.997074, 10.000108 
1.6251057e+3, 2.9371986e+2, -497578.2, -255339.63, 5986.983, -0.09774045, 0.024463883, -255191.75, -193643.8, 0.0, 9.996881, 10.000081 
1.6251162e+3, 3.037206e+2, -467094.66, -127754.86, 4999.583, -0.069536366, 0.062404748, -127681.21, -127681.21, 0.0, 9.996377, 10.000865 
1.625127e+3, 3.1372058e+2, -482544.9, 52235.605, 27990.021, 0.0035434645, -0.04181542, 53696.59, 53696.59, 0.0, 9.99546, 10.002545 
1.6349442e+3, 1.2372855e+2, -1214113.0, -1724049.9, 72708.445, -0.05458627, -0.056101043, -1203948.6, 523506.66, 0.02337309, 10.004632, 9.997705 
1.6349523e+3, 1.3372627e+2, -1152556.3, -1609622.8, -89774.81, -0.0995771, -0.08943494, -1135555.4, 493921.75, 0.014732823, 10.004181, 9.99804 
1.6349609e+3, 1.4372502e+2, -1122571.8, -1564949.6, -52493.816, -0.07761863, -0.00856297, -1116428.0, 415061.13, 0.0070659146, 10.003772, 9.997864 
1.6349708e+3, 1.5372236e+2, -1067708.3, -1491344.4, -42065.39, -0.041083395, -0.061759245, -1063571.6, 369943.13, 0.0021797442, 10.003472, 9.99784 
1.6349801e+3, 1.6372e+2, -1020510.7, -1414462.0, -66550.836, -0.033873163, -0.081025004, -1009571.94, 325966.1, 0.00030356596, 10.003103, 9.997873 
1.634989e+3, 1.7371818e+2, -994535.3, -1352624.6, -79441.36, -0.04585039, -0.051823843, -977702.6, 259853.69, 0.000005612588, 10.002613, 9.997861 
1.6349979e+3, 1.837164e+2, -933173.44, -1216903.0, -83979.16, -0.04492465, -0.035799026, -910180.4, 229393.72, 0.0, 10.002122, 9.998357 
1.635007e+3, 1.9371475e+2, -902414.4, -1144290.3, -66879.9, -0.030508537, -0.04665782, -885153.56, 156436.25, 0.0, 10.00163, 9.99842 
1.6350162e+3, 2.0371303e+2, -884572.44, -1102288.3, -56468.94, -0.016459623, -0.051345393, -870797.6, 72809.336, 0.0, 10.001153, 9.998266 
1.6350256e+3, 2.137113e+2, -856066.3, -1041662.8, -74992.555, -0.00068670174, -0.05067987, -829552.4, 16073.0205, 0.0, 10.000692, 9.998232 
1.635035e+3, 2.2371005e+2, -756296.1, -820380.1, -76123.7, 0.0044427323, -0.044377916, -705745.7, 41892.61, 0.0, 10.000176, 9.999327 
1.6350442e+3, 2.3370962e+2, -734450.25, -741367.5, -51283.543, -0.009829508, -0.037840344, -686508.8, -36867.4, 0.0, 9.9995775, 9.999484 
1.6350536e+3, 2.4370904e+2, -724545.7, -710121.7, -26556.258, -0.022417687, -0.031600293, -689815.56, -138168.16, 0.0, 9.999079, 9.999266 
1.6350633e+3, 2.5370836e+2, -678126.06, -641519.75, -40942.035, -0.03005477, -0.0259394, -614975.9, -161319.03, 0.0, 9.998744, 9.999225 
1.635073e+3, 2.6370817e+2, -589520.9, -453829.5, -48451.15, -0.033927023, -0.0042795907, -438305.22, -82644.586, 0.0, 9.998275, 10.000066 
1.6350828e+3, 2.737086e+2, -585767.75, -387960.72, -46388.45, -0.034502707, 0.021293348, -377622.34, -119966.445, 0.0, 9.997571, 10.000184 
1.6350928e+3, 2.8370887e+2, -534085.4, -270820.03, -12804.184, -0.044297103, 0.014773906, -270198.75, -110545.22, 0.0, 9.997073, 10.000556 
1.635103e+3, 2.9370928e+2, -462517.13, -183033.06, -1123.4708, -0.062338844, -0.006622819, -183028.55, -121378.375, 0.0, 9.996881, 10.000578 
1.6351132e+3, 3.037104e+2, -472295.6, -138841.98, -26952.088, -0.018244384, 0.03989842, -136677.56, -136677.56, 0.0, 9.996376, 10.000791 
1.635122e+3, 3.137106e+2, -515997.38, -17974.766, -4422.81, -0.049833626, -0.025243731, -17935.49, -17935.49, 0.0, 9.995461, 10.002063 
1.6449492e+3, 1.2371866e+2, -1181011.5, -1731067.6, 107470.78, -0.045658886, -0.048178777, -1160759.4, 566792.8, 0.024868501, 10.004973, 9.997494 
1.6449565e+3, 1.3371614e+2, -1131741.0, -1626901.1, -82169.64, -0.09737106, -0.08082455, -1118461.5, 511115.7, 0.015748626, 10.004451, 9.997789 
1.6449647e+3, 1.4371479e+2, -1087959.1, -1544792.9, -51435.758, -0.09438865, 0.0022667004, -1082239.5, 449350.7, 0.0076109837, 10.004, 9.997891 
1.6449744e+3, 1.5371211e+2, -1033607.5, -1468246.0, -31124.58, -0.03468141, -0.057558313, -1031390.0, 402225.0, 0.0023800803, 10.00368, 9.997898 
1.6449834e+3, 1.6370964e+2, -1007538.7, -1427610.3, -52768.813, -0.0203789, -0.08428042, -1001011.4, 334627.53, 0.00034007852, 10.003277, 9.997699 
1.6449915e+3, 1.7370754e+2, -990814.06, -1374315.1, -56544.92, -0.053961992, -0.062402297, -982650.6, 255009.9, 0.000006640927, 10.002742, 9.997649 
1.6449998e+3, 1.8370566e+2, -922442.94, -1210722.3, -66075.8, -0.05946336, -0.04475437, -908019.5, 231660.16, 0.0, 10.002193, 9.9983635 
1.6450086e+3, 1.9370419e+2, -901618.5, -1140248.4, -77734.35, -0.026455853, -0.03998761, -878530.2, 163163.42, 0.0, 10.00162, 9.998451 
1.6450173e+3, 2.0370257e+2, -888618.5, -1092960.6, -63983.797, -0.0066330126, -0.040486768, -870237.3, 73472.44, 0.0, 10.001078, 9.998365 
1.645026e+3, 2.1370082e+2, -864227.4, -1033661.0, -33118.91, -0.0066977236, -0.054522477, -857983.75, -12255.533, 0.0, 10.000586, 9.998337 
1.6450348e+3, 2.236996e+2, -770361.8, -827990.4, -24854.045, -0.008632631, -0.049673364, -761123.7, -13382.943, 0.0, 10.000085, 9.999317 
1.6450436e+3, 2.3369937e+2, -737652.7, -746261.94, -51537.254, -0.015188537, -0.021885427, -690240.6, -40498.08, 0.0, 9.999572, 9.999453 
1.6450526e+3, 2.4369884e+2, -726950.0, -699756.4, -41058.906, -0.021398822, -0.013709876, -670101.5, -118353.414, 0.0, 9.999014, 9.999368 
1.6450618e+3, 2.5369796e+2, -722479.2, -649264.3, -15902.549, -0.025649358, -0.038281117, -645959.4, -192201.02, 0.0, 9.998383, 9.999345 
1.6450712e+3, 2.636977e+2, -651160.06, -483317.78, -3692.5632, -0.029132755, -0.026321802, -483236.6, -127474.49, 0.0, 9.997852, 10.000066 
1.6450803e+3, 2.7369842e+2, -598485.5, -396614.63, -12290.416, -0.035339117, 0.02409388, -395869.1, -138113.36, 0.0, 9.997496, 10.000159 
1.6450897e+3, 2.836988e+2, -542918.44, -263524.03, 4436.4966, -0.046625398, 0.026630996, -263453.6, -103701.06, 0.0, 9.9969635, 10.000658 
1.6450995e+3, 2.9369918e+2, -565378.06, -217155.73, -11939.006, -0.053216632, -0.009987218, -216746.89, -154997.53, 0.0, 9.99611, 10.000713 
1.6451094e+3, 3.0370054e+2, -562390.8, -150274.77, -36972.656, 0.010679431, 0.038450077, -146984.06, -146984.06, 0.0, 9.995622, 10.001074 
1.6451176e+3, 3.1370103e+2, -483049.38, -10022.365, 17044.121, -0.060481902, -0.02586587, -9409.026, -9409.026, 0.0, 9.995723, 10.001989 
1.654954e+3, 1.2370987e+2, -1217277.8, -1807805.1, 88297.21, -0.054757707, -0.00027223243, -1204358.0, 523279.63, 0.02647572, 10.004978, 9.9969635 
1.6549613e+3, 1.3370605e+2, -1172645.3, -1714171.5, -102022.055, -0.06587371, -0.10340106, -1154062.3, 475614.7, 0.016842859, 10.004459, 9.997189 
1.6549689e+3, 1.4370424e+2, -1081223.8, -1532077.4, -65064.99, -0.07325785, -0.03575499, -1072021.8, 459673.16, 0.008201903, 10.004006, 9.997977 
1.6549781e+3, 1.5370238e+2, -1020130.75, -1441896.9, -43303.313, -0.036224443, -0.03352398, -1015730.6, 417980.16, 0.0026004124, 10.003687, 9.998076 
1.6549864e+3, 1.637001e+2, -1009570.4, -1433269.3, -72325.37, -0.033616494, -0.046743747, -997564.6, 338167.2, 0.00038217273, 10.003282, 9.997658 
1.6549942e+3, 1.736973e+2, -995435.8, -1384895.8, -76592.82, -0.06292223, -0.0899106, -980914.25, 256846.0, 0.000007868034, 10.002745, 9.997576 
1.6550021e+3, 1.8369502e+2, -943676.6, -1255573.1, -87424.75, -0.059483524, -0.09375386, -920843.0, 218940.64, 0.0, 10.002195, 9.998055 
1.6550104e+3, 1.9369373e+2, -925583.94, -1191020.4, -98978.516, -0.009918632, -0.037962828, -892739.9, 149057.92, 0.0, 10.001624, 9.998102 
1.6550186e+3, 2.0369242e+2, -844073.06, -1001668.2, -82666.95, 0.0043554003, -0.014445003, -808665.2, 135145.67, 0.0, 10.001081, 9.998991 
1.6550265e+3, 2.1369119e+2, -809980.56, -921825.56, -51200.973, -0.036959875, -0.051217616, -790081.8, 55739.57, 0.0, 10.000588, 9.9991045 
1.6550347e+3, 2.2369008e+2, -805895.0, -902558.8, -43767.465, -0.050723217, -0.05730868, -789022.9, -41190.53, 0.0, 10.000087, 9.998805 
1.6550432e+3, 2.3368923e+2, -787294.6, -849943.7, -69776.484, -0.018959299, -0.020091208, -742134.0, -92290.69, 0.0, 9.999573, 9.998742 
1.6550517e+3, 2.4368858e+2, -693515.25, -631275.1, -63259.66, -0.004253806, -0.0048615574, -591895.25, -40044.15, 0.0, 9.999016, 9.999837 
1.6550604e+3, 2.536884e+2, -676311.2, -554851.75, -38679.996, -0.017245455, -0.026893606, -543579.8, -89727.68, 0.0, 9.998386, 9.999991 
1.6550691e+3, 2.636884e+2, -654493.2, -491537.44, -17592.387, -0.021919388, -0.024007475, -489659.84, -133807.9, 0.0, 9.997856, 10.000009 
1.655078e+3, 2.7368867e+2, -610004.0, -421714.94, -24127.393, -0.018243792, -0.00082448014, -418672.4, -160821.9, 0.0, 9.9974985, 9.999987 
1.6550867e+3, 2.8368884e+2, -559100.3, -298044.53, -24494.137, -0.03607996, 0.0041431785, -295766.2, -135916.13, 0.0, 9.996966, 10.000421 
1.6550955e+3, 2.9368946e+2, -580423.3, -249835.44, -43555.086, -0.06874291, 0.0134293055, -244193.34, -182347.06, 0.0, 9.996114, 10.000488 
1.655105e+3, 3.0369088e+2, -518074.8, -58814.4, -36280.2, 0.018114485, 0.055274744, -55966.035, -55966.035, 0.0, 9.995623, 10.001702 
1.6551135e+3, 3.136919e+2, -461654.88, 35019.88, 17354.463, -0.03306998, -0.023915518, 35625.527, 35625.527, 0.0, 9.99572, 10.002301 
1.664959e+3, 1.2370066e+2, -1186003.3, -1792491.6, 75223.875, -0.06070207, 0.0024978006, -1176812.4, 550915.9, 0.028198259, 10.005209, 9.996957 
1.6649663e+3, 1.3369676e+2, -1122086.5, -1693862.6, -74410.625, -0.03268231, -0.10469376, -1112561.5, 517206.66, 0.018018479, 10.004838, 9.997143 
1.6649732e+3, 1.4369485e+2, -1041605.4, -1527763.6, -22589.107, -0.053570475, -0.03785149, -1040558.06, 491228.9, 0.008841007, 10.004348, 9.997841 
1.6649815e+3, 1.5369287e+2, -1030885.6, -1463745.4, -24957.688, -0.048903633, -0.03270384, -1029451.4, 404352.88, 0.0028417257, 10.003686, 9.997927 
1.6649894e+3, 1.6369057e+2, -1030591.75, -1437123.6, -64683.402, -0.055748638, -0.04432282, -1020548.06, 315277.75, 0.00043000112, 10.003111, 9.997713 
1.6649969e+3, 1.7368785e+2, -1000197.75, -1378623.3, -58488.11, -0.058018543, -0.08646669, -991364.25, 246488.92, 0.000009349905, 10.002674, 9.997653 
1.6650043e+3, 1.8368557e+2, -943235.56, -1257485.0, -55359.004, -0.04371423, -0.09242973, -933768.56, 206107.77, 0.0, 10.002207, 9.998036 
1.6650121e+3, 1.9368418e+2, -918751.94, -1191463.4, -44248.266, -0.0103879, -0.044633202, -911752.2, 130139.305, 0.0, 10.001688, 9.998067 
1.6650195e+3, 2.0368288e+2, -838166.1, -993372.7, -35447.02, -0.005158779, -0.020069556, -830453.75, 113450.71, 0.0, 10.0011, 9.999039 
1.6650268e+3, 2.1368189e+2, -834076.6, -927067.6, -57483.867, -0.043481734, -0.040901653, -806638.2, 39274.76, 0.0, 10.000396, 9.999161 
1.6650346e+3, 2.2368085e+2, -842856.4, -913987.4, -57233.566, -0.054301348, -0.043779988, -811038.0, -63114.867, 0.0, 9.999807, 9.998861 
1.6650428e+3, 2.3367989e+2, -807722.3, -853864.9, -27474.637, -0.020862821, -0.02364532, -794916.9, -144981.69, 0.0, 9.999408, 9.998794 
1.6650508e+3, 2.4367926e+2, -697976.06, -628072.7, -6146.737, -0.008661117, -0.011303141, -627536.3, -75593.586, 0.0, 9.998962, 9.999885 
1.6650586e+3, 2.536793e+2, -664327.75, -544295.94, -26659.059, -0.028902283, -0.013346304, -538641.3, -84700.05, 0.0, 9.998449, 10.000033 
1.665067e+3, 2.636794e+2, -645426.94, -475316.03, -24494.342, -0.028663635, -0.010029704, -471859.3, -115919.15, 0.0, 9.997868, 10.000114 
1.6650754e+3, 2.7367947e+2, -650257.56, -428438.13, -10812.802, -0.0040121353, -0.015237528, -427912.28, -169972.3, 0.0, 9.997169, 10.000099 
1.6650838e+3, 2.8367972e+2, -614509.06, -333688.1, 5166.961, -0.025188748, -0.0101088965, -333593.06, -173653.81, 0.0, 9.996626, 10.000339 
1.6650914e+3, 2.9368055e+2, -549671.2, -245394.83, -4419.601, -0.09339252, 0.034466673, -245330.64, -183396.84, 0.0, 9.996371, 10.000394 
1.6651009e+3, 3.0368173e+2, -460422.3, -18420.703, -2434.9854, 0.00994086, 0.049920697, -18407.291, -18407.291, 0.0, 9.995965, 10.001814 
1.6651091e+3, 3.1368312e+2, -560380.3, -27875.416, -1353.5839, -0.0126580745, -0.0020736181, -27871.975, -27871.975, 0.0, 9.995111, 10.002161 
1.6749643e+3, 1.2369104e+2, -1150990.1, -1716405.6, 59325.387, -0.06856925, -0.0397046, -1144832.5, 582991.3, 0.030037267, 10.005212, 9.997479 
1.6749716e+3, 1.3368827e+2, -1086268.4, -1618700.3, -88388.68, 0.0016623187, -0.0854054, -1071978.6, 557872.06, 0.019279147, 10.004846, 9.997657 
1.6749778e+3, 1.4368665e+2, -1065456.4, -1578991.4, -46687.36, -0.03580414, -0.0040793587, -1061246.4, 470619.8, 0.009532213, 10.0043545, 9.997487 
1.674985e+3, 1.5368363e+2, -1063686.6, -1533384.6, -49646.004, -0.07331909, -0.055139624, -1058496.5, 375398.63, 0.0031062146, 10.003691, 9.997447 
1.6749923e+3, 1.6368102e+2, -1020412.4, -1416971.8, -82199.12, -0.08783509, -0.07704184, -1004049.25, 331871.53, 0.0004838882, 10.003114, 9.99785 
1.6749997e+3, 1.7367919e+2, -983847.5, -1345999.8, -74741.97, -0.040361512, -0.052021556, -969028.44, 268910.94, 0.0000111741165, 10.002679, 9.997875 
1.6750069e+3, 1.8367733e+2, -923848.3, -1218400.6, -74546.82, -0.013246785, -0.040731072, -906056.3, 233901.47, 0.0, 10.002211, 9.998304 
1.6750136e+3, 1.9367553e+2, -899315.6, -1152022.0, -63453.527, -0.028313735, -0.06011368, -884277.56, 157697.38, 0.0, 10.00169, 9.998338 
1.6750205e+3, 2.0367394e+2, -874672.44, -1069945.4, -60980.473, -0.03582402, -0.057218693, -857193.75, 86796.97, 0.0, 10.001102, 9.998512 
1.6750275e+3, 2.1367285e+2, -879534.5, -1022164.56, -83287.91, -0.026656656, -0.023150504, -841201.44, 4801.675, 0.0, 10.000399, 9.9985075 
1.6750346e+3, 2.2367188e+2, -799788.4, -825551.6, -72957.67, -0.020149138, -0.008556036, -738583.9, 9429.401, 0.0, 9.99981, 9.999468 
1.675042e+3, 2.3367126e+2, -751490.0, -738132.6, -41529.754, -0.021834252, -0.032844767, -702747.94, -52729.223, 0.0, 9.999411, 9.999588 
1.6750494e+3, 2.436708e+2, -723234.0, -681507.8, -24450.785, -0.03506341, -0.03294239, -670228.94, -118205.336, 0.0, 9.998965, 9.999517 
1.6750568e+3, 2.536707e+2, -702966.75, -625237.75, -44696.453, -0.061081193, 0.0024721643, -604872.0, -150845.64, 0.0, 9.99845, 9.999478 
1.6750646e+3, 2.6367065e+2, -626967.75, -437722.5, -48678.668, -0.05006728, 0.014760409, -425935.28, -69907.84, 0.0, 9.997869, 10.000373 
1.6750728e+3, 2.736708e+2, -622494.56, -372449.38, -36176.848, 0.007955122, -0.020472929, -367320.47, -109295.47, 0.0, 9.997173, 10.000483 
1.6750805e+3, 2.836713e+2, -609785.2, -324523.63, -6103.2993, -0.013539144, -0.015785815, -324393.13, -164372.23, 0.0, 9.996627, 10.0004015 
1.6750875e+3, 2.936724e+2, -548744.94, -242797.98, -11828.569, -0.13026473, 0.05565035, -242341.36, -180328.69, 0.0, 9.9963665, 10.000415 
1.6750966e+3, 3.0367294e+2, -488583.47, -77136.61, -28705.098, -0.016979087, 0.021443766, -75143.62, -75143.62, 0.0, 9.995964, 10.001412 
1.6751045e+3, 3.136746e+2, -596877.5, -106823.06, -44211.027, 0.0068638506, 0.040638447, -102866.445, -102866.445, 0.0, 9.995125, 10.001613 
1.6849697e+3, 1.2368256e+2, -1085783.3, -1677754.8, 97526.03, -0.06104518, -0.050443415, -1070130.0, 657778.1, 0.031990353, 10.005655, 9.997539 
1.6849764e+3, 1.3368016e+2, -1095675.0, -1622450.8, -86560.32, 0.012925484, -0.060449675, -1081816.0, 548115.1, 0.020627163, 10.004784, 9.997661 
1.6849819e+3, 1.4367859e+2, -1101037.9, -1593347.8, -51042.07, -0.045390043, 0.024850665, -1095801.6, 436144.44, 0.010279591, 10.004099, 9.997512 
1.6849887e+3, 1.5367523e+2, -1056570.3, -1527667.9, -17514.926, -0.07193467, -0.06325357, -1055920.0, 378058.13, 0.003396935, 10.003731, 9.997467 
1.6849954e+3, 1.6367254e+2, -993026.56, -1401110.1, -31867.213, -0.081525296, -0.094997965, -990553.06, 345451.3, 0.0005446166, 10.00329, 9.997875 
1.6850024e+3, 1.7367108e+2, -976077.6, -1339293.6, -38743.293, -0.04138196, -0.03553766, -971990.94, 266028.78, 0.000013478055, 10.00272, 9.997901 
1.685009e+3, 1.8366942e+2, -924299.25, -1207425.4, -53571.125, -0.019816846, -0.01002587, -914501.94, 225534.2, 0.0, 10.00216, 9.998403 
1.6850151e+3, 1.9366755e+2, -903244.5, -1142377.6, -55866.965, -0.03751005, -0.04751278, -890836.5, 151216.8, 0.0, 10.001614, 9.998441 
1.6850214e+3, 2.0366581e+2, -887665.9, -1090996.6, -50354.0, -0.040706147, -0.060203392, -875879.2, 68191.086, 0.0, 10.001077, 9.99838 
1.6850281e+3, 2.1366443e+2, -868284.44, -1035490.44, -38271.547, -0.015759505, -0.03776933, -859940.8, -13855.085, 0.0, 10.000557, 9.998339 
1.6850346e+3, 2.236634e+2, -768337.2, -800035.4, -21765.787, -0.005400321, -0.023677474, -757261.5, -9164.93, 0.0, 9.999983, 9.999559 
1.6850413e+3, 2.3366311e+2, -755819.44, -725829.6, -39233.93, -0.023612265, -0.028318156, -698822.75, -48724.22, 0.0, 9.999321, 9.999715 
1.6850482e+3, 2.4366279e+2, -759100.44, -695078.56, -37495.844, -0.04366542, -0.021559639, -677788.0, -125686.27, 0.0, 9.998705, 9.999549 
1.685055e+3, 2.536625e+2, -743930.1, -643556.94, -17469.52, -0.05964197, -0.004765655, -640603.4, -186497.06, 0.0, 9.998164, 9.99949 
1.6850623e+3, 2.636624e+2, -656885.5, -447539.13, -6375.214, -0.045535687, -0.004371404, -447345.16, -91236.73, 0.0, 9.997644, 10.000413 
1.6850698e+3, 2.736627e+2, -620447.4, -366542.22, -18955.07, 0.0023627914, -0.029306483, -365134.94, -107030.32, 0.0, 9.997168, 10.000525 
1.685077e+3, 2.8366345e+2, -612208.1, -310862.72, 150.14069, -0.021159897, -0.0038415159, -310862.63, -150765.1, 0.0, 9.996547, 10.000533 
1.6850837e+3, 2.9366484e+2, -633087.2, -266906.88, 5094.757, -0.12062904, 0.0802234, -266836.0, -204749.73, 0.0, 9.995718, 10.000562 
1.6850924e+3, 3.036648e+2, -583113.7, -138426.58, 10208.713, 0.0017029591, -0.0148298675, -138192.33, -138192.33, 0.0, 9.995382, 10.001272 
1.6850996e+3, 3.1366673e+2, -525857.75, -74592.664, 1082.485, -0.017040612, 0.05141418, -74590.06, -74590.06, 0.0, 9.99562, 10.0015955 
1.6949756e+3, 1.2367526e+2, -1114575.5, -1736350.6, 64329.785, -0.041321922, -0.028094634, -1107989.6, 619990.9, 0.03405598, 10.005658, 9.997126 
1.694981e+3, 1.3367245e+2, -1130102.0, -1695444.8, -118959.02, -0.00049858814, -0.030856768, -1106090.6, 523918.8, 0.022064116, 10.004788, 9.997159 
1.6949856e+3, 1.4367066e+2, -1074613.9, -1538513.6, -67576.125, -0.08438165, 0.04781156, -1064970.5, 467055.9, 0.011086418, 10.004103, 9.997888 
1.6949928e+3, 1.5366764e+2, -1020304.2, -1453515.8, -31266.123, -0.04608711, -0.05643597, -1018059.25, 415993.66, 0.003717093, 10.0037365, 9.997974 
1.6949993e+3, 1.6366512e+2, -997535.2, -1412080.8, -52552.4, -0.03773989, -0.09739381, -990976.8, 345099.75, 0.00061348337, 10.003295, 9.997798 
1.695005e+3, 1.736635e+2, -987153.94, -1363665.0, -60001.242, -0.061194077, -0.03762515, -977823.3, 260270.98, 0.000016459384, 10.002725, 9.997732 
1.6950108e+3, 1.8366185e+2, -929252.4, -1218690.0, -74112.72, -0.06388664, -0.000380339, -911379.0, 228732.47, 0.0, 10.002163, 9.998325 
1.6950168e+3, 1.936602e+2, -907458.3, -1152103.5, -76018.73, -0.038795993, -0.0067973346, -885761.25, 156365.36, 0.0, 10.0016165, 9.998374 
1.6950227e+3, 2.0365843e+2, -869716.3, -1054630.4, -69783.484, -0.02080066, -0.029209381, -846337.06, 97806.13, 0.0, 10.00108, 9.99863 
1.6950285e+3, 2.1365657e+2, -847216.94, -992402.7, -57328.836, -0.011813577, -0.084439114, -827309.44, 18851.764, 0.0, 10.000559, 9.998634 
1.6950347e+3, 2.2365536e+2, -796807.75, -860083.56, -45659.543, -0.010853351, -0.08829568, -772896.1, -24722.627, 0.0, 9.999985, 9.999146 
1.6950408e+3, 2.3365538e+2, -792576.56, -803186.56, -63057.164, -0.026038753, -0.010426301, -734601.6, -84426.66, 0.0, 9.999324, 9.999183 
1.695047e+3, 2.4365519e+2, -729798.6, -635072.6, -57306.637, -0.034842744, 0.022226233, -608089.8, -55912.207, 0.0, 9.998707, 9.999961 
1.6950536e+3, 2.5365472e+2, -704452.1, -562490.7, -36688.918, -0.026364144, -0.034424737, -553569.4, -99387.65, 0.0, 9.998166, 10.000047 
1.6950603e+3, 2.636545e+2, -668686.56, -472858.06, -23835.693, -0.016610157, -0.06595395, -469998.6, -113814.84, 0.0, 9.997646, 10.000239 
1.6950668e+3, 2.7365503e+2, -640461.1, -409463.06, -35768.54, -0.02190387, -0.041557077, -404051.3, -145871.8, 0.0, 9.997171, 10.000229 
1.6950732e+3, 2.8365612e+2, -598143.56, -282583.7, -28920.053, -0.04877473, 0.024755698, -279955.16, -119785.12, 0.0, 9.99655, 10.000728 
1.69508e+3, 2.9365778e+2, -614871.44, -229599.94, -23889.406, -0.06505902, 0.10708364, -228124.3, -165968.72, 0.0, 9.995718, 10.000818 
1.6950884e+3, 3.0365717e+2, -575861.1, -124007.086, 17080.836, 0.0639863, -0.058854837, -123362.32, -123362.32, 0.0, 9.995383, 10.001372 
1.6950946e+3, 3.1365937e+2, -488400.16, 2968.2307, -6251.225, -0.08236587, 0.02302974, 3047.7463, 3047.7463, 0.0, 9.995621, 10.002128 
1.7049812e+3, 1.2366859e+2, -1161672.0, -1758380.5, 77449.97, -0.0262114, 0.008310164, -1151783.3, 576264.44, 0.03623519, 10.005328, 9.997135 
1.704986e+3, 1.3366549e+2, -1109783.0, -1690708.8, -71283.06, -0.0017616348, -0.019754749, -1101164.0, 528915.1, 0.0235911, 10.004963, 9.997105 
1.7049897e+3, 1.4366353e+2, -1025905.06, -1518604.5, -11759.537, -0.10957701, 0.045111176, -1025624.56, 506473.13, 0.0119546065, 10.004462, 9.997851 
1.7049965e+3, 1.5366064e+2, -1024411.7, -1459539.6, -14734.4375, -0.035689622, -0.040680546, -1023913.3, 410209.53, 0.004069183, 10.003727, 9.997937 
1.7050026e+3, 1.6365819e+2, -1016543.4, -1414860.9, -51551.348, -0.014904528, -0.074865066, -1009979.6, 326166.03, 0.00069185556, 10.003138, 9.997854 
1.7050077e+3, 1.7365654e+2, -971696.8, -1349174.9, -42564.047, -0.06635246, -0.025621938, -966956.9, 271206.4, 0.000020346932, 10.0028, 9.997796 
1.7050128e+3, 1.8365479e+2, -913816.94, -1224643.1, -53761.125, -0.07820898, 0.0040152557, -904781.0, 235400.22, 0.0, 10.002327, 9.998206 
1.7050184e+3, 1.9365296e+2, -916676.25, -1172959.3, -62897.285, -0.030441796, -0.006541461, -902072.1, 140126.6, 0.0, 10.001625, 9.998225 
1.705024e+3, 2.036512e+2, -864048.4, -1031655.5, -57139.43, -0.006061719, -0.027219146, -846422.44, 97792.72, 0.0, 10.001033, 9.998808 
1.7050292e+3, 2.1364969e+2, -822423.94, -955406.25, -49607.535, -0.018984, -0.06963185, -805957.44, 40271.18, 0.0, 10.000623, 9.998857 
1.7050345e+3, 2.2364855e+2, -790056.94, -871681.75, -39614.746, -0.02447176, -0.0748211, -773992.5, -25752.588, 0.0, 10.000097, 9.999012 
1.7050402e+3, 2.3364812e+2, -798313.1, -827541.06, -34818.035, -0.019518565, -0.02143028, -775166.5, -124920.22, 0.0, 9.999379, 9.998988 
1.7050458e+3, 2.4364784e+2, -727490.2, -622387.1, -22223.172, -0.019155243, 0.007628192, -617881.4, -65631.195, 0.0, 9.998674, 10.000063 
1.7050518e+3, 2.536478e+2, -718463.44, -552539.25, -31224.629, -0.020372557, -0.01944384, -546857.75, -92608.04, 0.0, 9.998001, 10.000194 
1.7050578e+3, 2.6364774e+2, -698185.44, -484411.47, -23672.727, -0.017404871, -0.0447238, -481821.4, -125571.36, 0.0, 9.997435, 10.00026 
1.7050639e+3, 2.7364802e+2, -661073.44, -419443.03, -14571.449, -0.024461819, -0.048451517, -418567.47, -160319.02, 0.0, 9.997032, 10.000227 
1.7050697e+3, 2.8364906e+2, -609830.5, -280670.9, -13294.88, -0.048041914, 0.011771585, -280134.8, -119895.586, 0.0, 9.996439, 10.000793 
1.7050757e+3, 2.9365093e+2, -633318.5, -232357.89, -22723.37, -0.052024994, 0.11122722, -231074.22, -168851.89, 0.0, 9.995567, 10.000872 
1.7050835e+3, 3.036501e+2, -622861.75, -159456.55, 36445.957, 0.070287585, -0.07212856, -156607.66, -156607.66, 0.0, 9.995115, 10.001258 
1.70509e+3, 3.1365222e+2, -522548.25, 36069.938, -16765.672, -0.08497115, 0.009179243, 36572.668, 36572.668, 0.0, 9.995176, 10.002567 
1.7149866e+3, 1.23662576e+2, -1134309.8, -1697835.8, 59426.84, -0.020360991, 0.05843849, -1128111.1, 599998.6, 0.03852795, 10.005329, 9.997557 
1.714991e+3, 1.336593e+2, -1083064.3, -1633931.8, -84554.75, 0.008917536, -0.025042435, -1070377.8, 559762.1, 0.025207777, 10.00497, 9.997494 
1.714994e+3, 1.4365716e+2, -1055990.9, -1582697.1, -37917.05, -0.12149623, 0.018727805, -1053275.3, 478884.3, 0.012884646, 10.004469, 9.997408 
1.7150003e+3, 1.5365422e+2, -1064055.9, -1543316.5, -42437.31, -0.041849807, -0.017936848, -1060327.1, 373860.6, 0.004454726, 10.003733, 9.99736 
1.7150058e+3, 1.6365175e+2, -1003631.9, -1389214.0, -66272.23, -0.014099727, -0.028702362, -992559.25, 343652.38, 0.0007808963, 10.003141, 9.99803 
1.7150106e+3, 1.7365018e+2, -950692.8, -1306959.1, -55019.348, -0.05780842, 0.0011214565, -942389.5, 295837.13, 0.000025375884, 10.002805, 9.998084 
1.7150153e+3, 1.8364824e+2, -924700.94, -1248359.5, -78394.31, -0.064023964, 0.0037246738, -906712.6, 233532.86, 0.0, 10.00233, 9.998042 
1.7150202e+3, 1.936458e+2, -932708.5, -1207207.4, -89055.37, -0.013062306, -0.046431825, -906347.8, 135921.97, 0.0, 10.001628, 9.99799 
1.715025e+3, 2.0364408e+2, -856071.56, -1015897.75, -73626.266, 0.003107547, -0.053492393, -827324.94, 116961.234, 0.0, 10.001036, 9.998917 
1.7150295e+3, 2.1364374e+2, -811381.5, -933174.06, -64185.496, -0.037215102, 0.0055672955, -783801.06, 62487.195, 0.0, 10.000625, 9.99901 
1.7150344e+3, 2.2364289e+2, -781053.9, -853669.2, -64466.07, -0.04653231, 0.01542209, -743374.25, 4922.0137, 0.0, 10.000099, 9.999136 
1.7150396e+3, 2.3364128e+2, -789599.44, -810002.2, -61009.063, -0.0055623767, -0.060458947, -737944.75, -87631.87, 0.0, 9.99938, 9.999109 
1.7150447e+3, 2.4364066e+2, -741360.3, -651732.25, -46981.83, 0.0018221223, -0.06414673, -631618.75, -79298.7, 0.0, 9.998675, 9.999862 
1.7150496e+3, 2.5364166e+2, -735789.44, -590125.1, -55299.76, -0.041086566, 0.038922086, -571510.06, -117199.05, 0.0, 9.998007, 9.999933 
1.715055e+3, 2.63642e+2, -682655.6, -454088.13, -39071.227, -0.046891965, 0.057303198, -447593.8, -91285.72, 0.0, 9.997441, 10.000466 
1.715061e+3, 2.7364147e+2, -641691.6, -379439.38, -28881.154, -0.007300148, -0.049645606, -376296.44, -117984.32, 0.0, 9.997031, 10.000504 
1.7150664e+3, 2.8364214e+2, -614756.6, -290055.03, -43504.49, -0.021436706, -0.041887064, -284327.2, -124021.305, 0.0, 9.996434, 10.000731 
1.7150709e+3, 2.9364425e+2, -642820.7, -254438.19, -53306.133, -0.081182666, 0.092102185, -247254.7, -184967.14, 0.0, 9.995576, 10.000716 
1.7150782e+3, 3.0364355e+2, -644329.7, -207501.72, 36073.168, 0.020589562, -0.05257047, -204542.84, -204542.84, 0.0, 9.995129, 10.000923 
1.7150857e+3, 3.1364512e+2, -501098.4, 82002.375, -31144.143, -0.025036106, 0.00016513132, 83661.1, 83661.1, 0.0, 9.99517, 10.002887 
1.724992e+3, 1.2365705e+2, -1079873.5, -1672160.1, 98487.14, -0.031556062, 0.07555935, -1063926.1, 664238.94, 0.040934127, 10.005737, 9.997543 
1.7249963e+3, 1.3365369e+2, -1071718.9, -1636893.1, -75434.336, 0.028617501, -0.010434728, -1061823.9, 568372.2, 0.02691328, 10.005097, 9.997411 
1.7249985e+3, 1.436514e+2, -1054556.8, -1588968.8, -39796.008, -0.114504844, 0.026565874, -1051609.5, 480607.66, 0.01387566, 10.004514, 9.997343 
1.725004e+3, 1.5364851e+2, -1023021.1, -1530992.1, -8522.401, -0.0510764, 0.0020426284, -1022878.2, 411366.84, 0.0048739617, 10.00405, 9.997291 
1.7250091e+3, 1.6364598e+2, -961331.8, -1377626.5, -17259.742, -0.024133023, -0.0069326563, -960617.44, 375651.97, 0.0008815264, 10.003472, 9.99795 
1.7250134e+3, 1.7364417e+2, -972926.7, -1327088.3, -33351.35, -0.04514332, 0.005705136, -969813.3, 268473.25, 0.000031776486, 10.002694, 9.997998 
1.7250177e+3, 1.8364213e+2, -955119.5, -1257485.8, -63738.81, -0.04580419, 0.00084434904, -942232.56, 198073.61, 0.0, 10.002099, 9.99809 
1.7250219e+3, 1.9363986e+2, -901831.56, -1185334.9, -52901.266, -0.01744848, -0.037770346, -892281.94, 150046.63, 0.0, 10.00181, 9.998052 
1.725026e+3, 2.036382e+2, -819729.9, -1004946.56, -34691.586, -0.009660093, -0.04114172, -813445.25, 130899.164, 0.0, 10.001314, 9.998857 
1.7250301e+3, 2.1363766e+2, -839934.56, -956071.06, -44262.44, -0.034927685, 0.007010174, -824988.56, 21359.84, 0.0, 10.000469, 9.998926 
1.7250344e+3, 2.2363676e+2, -818793.7, -857245.7, -52838.44, -0.037253205, 0.012854335, -781792.1, -33435.574, 0.0, 9.999779, 9.999264 
1.725039e+3, 2.3363543e+2, -782828.75, -788355.5, -46651.93, -0.0033307937, -0.054693382, -738858.44, -88488.26, 0.0, 9.99935, 9.99927 
1.7250435e+3, 2.4363482e+2, -722138.94, -657257.44, -30117.426, -0.00028826977, -0.05820768, -645432.4, -93055.625, 0.0, 9.998874, 9.999726 
1.7250477e+3, 2.5363556e+2, -704691.6, -596082.3, -34027.29, -0.04327076, 0.032133304, -586302.25, -131931.06, 0.0, 9.998312, 9.999744 
1.7250524e+3, 2.6363578e+2, -654831.44, -431276.97, -21441.422, -0.04560254, 0.04979023, -429239.06, -72869.875, 0.0, 9.997594, 10.000549 
1.725058e+3, 2.7363557e+2, -692130.94, -389923.94, -23442.541, 0.005276208, -0.04050333, -388116.28, -129746.1, 0.0, 9.996629, 10.000625 
1.7250629e+3, 2.8363624e+2, -678873.1, -329714.8, -36252.285, -0.0049490533, -0.03452166, -325990.56, -165626.73, 0.0, 9.996035, 10.000651 
1.7250668e+3, 2.93638e+2, -587454.5, -244324.58, -44108.633, -0.07877617, 0.075433634, -238745.22, -176395.9, 0.0, 9.99603, 10.0005665 
1.7250733e+3, 3.0363753e+2, -587030.8, -201141.95, 47214.336, -0.008414408, -0.02561974, -195449.16, -195449.16, 0.0, 9.995614, 10.000733 
1.7250808e+3, 3.136386e+2, -579576.56, 74750.805, -24985.734, -0.0028829519, -0.0058382545, 75703.51, 75703.51, 0.0, 9.994502, 10.0031595 
1.7349975e+3, 1.2365208e+2, -1112978.6, -1738307.0, 69852.97, -0.06464696, 0.061778318, -1105270.6, 622942.6, 0.043457393, 10.005737, 9.997076 
1.7350017e+3, 1.3364862e+2, -1109808.8, -1717329.0, -99625.96, 0.055533074, 0.022052156, -1093888.5, 536359.2, 0.028707303, 10.005102, 9.996858 
1.7350033e+3, 1.4364624e+2, -1033699.94, -1545693.3, -58411.016, -0.09025385, 0.06669138, -1027120.6, 505150.0, 0.01492555, 10.004519, 9.997639 
1.7350079e+3, 1.5364355e+2, -992210.7, -1468131.1, -25868.188, -0.06378232, 0.020989966, -990808.8, 443485.6, 0.0053257043, 10.004057, 9.99772 
1.7350124e+3, 1.6364093e+2, -983712.1, -1425657.4, -45161.2, -0.04582127, -0.00740377, -979144.44, 357174.34, 0.0009941435, 10.003477, 9.997619 
1.7350163e+3, 1.736385e+2, -1004215.7, -1393411.3, -62518.25, -0.029294852, -0.012329718, -994419.6, 243923.64, 0.000039781222, 10.002698, 9.997541 
1.73502e+3, 1.8363643e+2, -937249.9, -1221322.8, -76682.64, -0.024379807, -0.0049374024, -917872.0, 222491.55, 0.0, 10.002101, 9.998338 
1.7350234e+3, 1.9363512e+2, -876363.25, -1133557.1, -62996.742, -0.04396364, 0.01848507, -861761.9, 180613.48, 0.0, 10.001814, 9.998406 
1.735027e+3, 2.036335e+2, -835745.2, -1039101.7, -63559.81, -0.04520938, 0.008949694, -817513.8, 126876.37, 0.0, 10.001316, 9.998622 
1.7350309e+3, 2.1363144e+2, -862797.5, -1004201.3, -75529.81, -0.013281279, -0.06366814, -830041.6, 16367.585, 0.0, 10.00047, 9.998596 
1.7350347e+3, 2.2363019e+2, -809235.94, -837987.94, -70218.79, 0.002156999, -0.080360055, -751936.6, -3515.7312, 0.0, 9.99978, 9.999396 
1.7350383e+3, 2.3363046e+2, -768511.3, -759673.7, -61533.668, -0.012770725, -0.0052174064, -702400.4, -51981.63, 0.0, 9.999353, 9.999467 
1.7350422e+3, 2.4363028e+2, -727063.4, -668421.8, -49837.12, -0.025386637, 0.02392189, -639920.0, -87498.914, 0.0, 9.998877, 9.999649 
1.7350462e+3, 2.5362933e+2, -713352.75, -614165.25, -54096.137, -0.028732859, -0.038676392, -590370.06, -135939.34, 0.0, 9.998311, 9.999621 
1.7350502e+3, 2.6362905e+2, -658844.4, -439439.4, -55035.297, -0.015932886, -0.06523136, -426408.34, -69974.48, 0.0, 9.997592, 10.000494 
1.7350547e+3, 2.736301e+2, -693866.1, -396220.72, -58989.652, 0.012177958, -0.02044833, -384956.0, -126532.54, 0.0, 9.996639, 10.000576 
1.735059e+3, 2.836312e+2, -683422.0, -342703.28, -40318.23, 0.0013647586, 0.032443326, -337997.28, -177583.25, 0.0, 9.996048, 10.000556 
1.735063e+3, 2.9363203e+2, -597531.6, -265866.1, -42668.043, -0.0463195, 0.058720455, -260464.9, -198056.06, 0.0, 9.99603, 10.00042 
1.7350689e+3, 3.03632e+2, -591700.4, -208658.06, 11139.379, -0.020507604, 0.010495571, -208334.39, -208334.39, 0.0, 9.9956045, 10.000686 
1.7350751e+3, 3.1363285e+2, -567894.06, 98722.6, -76568.46, -0.020530436, 0.008663998, 107404.29, 107404.29, 0.0, 9.994504, 10.003323 
1.745003e+3, 1.2364747e+2, -1109439.3, -1740628.0, 64540.84, -0.07571547, 0.056137405, -1102907.4, 625351.2, 0.046100788, 10.005797, 9.99703 
1.7450069e+3, 1.3364409e+2, -1105901.0, -1725262.5, -66282.49, 0.060564857, 0.031765893, -1098887.0, 531405.75, 0.030587623, 10.005183, 9.996762 
1.7450078e+3, 1.4364162e+2, -1022087.9, -1540478.9, -10967.895, -0.096497156, 0.07435427, -1021855.9, 510460.9, 0.0160307, 10.004611, 9.997629 
1.7450121e+3, 1.53639e+2, -985470.44, -1464840.6, -9544.075, -0.058934502, 0.035604905, -985280.44, 449059.56, 0.0058076493, 10.004107, 9.997718 
1.7450158e+3, 1.6363637e+2, -974801.06, -1421897.0, -44428.566, -0.037035264, 0.0070932694, -970428.9, 365935.47, 0.0011184075, 10.003543, 9.997612 
1.7450191e+3, 1.7363381e+2, -977954.5, -1382043.4, -31179.291, -0.02984012, -0.008585164, -975562.9, 262826.72, 0.00004956382, 10.002886, 9.997529 
1.7450222e+3, 1.836317e+2, -912384.75, -1214597.9, -24778.842, -0.027532032, -0.0038334602, -910366.56, 230043.55, 0.0000000000000006446772, 10.002296, 9.998289 
1.7450252e+3, 1.9363044e+2, -879053.8, -1141449.6, -40337.375, -0.03929003, 0.029442187, -872992.9, 169428.78, 0.0, 10.001825, 9.998345 
1.7450285e+3, 2.0362876e+2, -838735.94, -1041854.3, -63135.69, -0.035755955, 0.019344758, -820710.94, 123726.0, 0.0, 10.001304, 9.998608 
1.7450315e+3, 2.1362652e+2, -831570.2, -989971.8, -54100.19, -0.004418791, -0.0701638, -814856.5, 31601.055, 0.0, 10.00069, 9.998587 
1.7450346e+3, 2.2362521e+2, -771032.2, -824643.6, -34705.34, 0.007885089, -0.09084648, -753985.8, -5516.078, 0.0, 10.000066, 9.99935 
1.7450377e+3, 2.336256e+2, -762298.56, -763228.6, -44226.992, -0.013998302, 0.0010469563, -718534.1, -68067.79, 0.0, 9.999426, 9.999407 
1.7450409e+3, 2.4362539e+2, -738526.7, -668315.8, -42217.918, -0.024761848, 0.028005945, -648514.56, -96045.766, 0.0, 9.9987755, 9.999698 
1.7450444e+3, 2.536242e+2, -738413.0, -618855.4, -34054.055, -0.013778311, -0.06555042, -609836.0, -155355.67, 0.0, 9.99811, 9.999684 
1.745048e+3, 2.636239e+2, -678996.0, -468462.72, -33237.344, -0.0046172035, -0.0890127, -463340.13, -106856.43, 0.0, 9.9975395, 10.000319 
1.7450514e+3, 2.7362528e+2, -639795.56, -394187.88, -49819.426, -0.004353406, 0.0065499153, -384467.16, -125995.66, 0.0, 9.997116, 10.00036 
1.7450552e+3, 2.8362626e+2, -610851.44, -299682.7, -26362.307, -0.008519972, 0.057257302, -297465.06, -137001.45, 0.0, 9.996513, 10.000627 
1.7450593e+3, 2.9362652e+2, -657670.0, -284631.53, -12658.767, -0.006366809, 0.018785458, -284202.47, -221739.61, 0.0, 9.995576, 10.000508 
1.7450641e+3, 3.0362713e+2, -699232.4, -252576.47, 49762.09, -0.021615906, 0.030575747, -247099.61, -247099.61, 0.0, 9.994835, 10.000754 
1.7450695e+3, 3.1362793e+2, -570098.94, 89427.93, -38508.89, -0.039816044, 0.013017777, 91668.8, 91668.8, 0.0, 9.994524, 10.003248 
1.7550088e+3, 1.2364326e+2, -1086696.4, -1690061.8, 34819.594, -0.069963, 0.05737836, -1084693.6, 643607.3, 0.048858456, 10.005802, 9.997387 
1.7550118e+3, 1.3364011e+2, -1081811.0, -1672801.0, -88563.12, 0.043603137, 0.020581745, -1068824.8, 561506.25, 0.032548297, 10.005188, 9.997122 
1.7550121e+3, 1.4363758e+2, -1044337.44, -1587728.3, -30506.27, -0.1337868, 0.052043907, -1042630.2, 489725.1, 0.017186537, 10.004616, 9.997303 
1.7550163e+3, 1.5363488e+2, -1015282.1, -1528102.3, -28365.7, -0.038009636, 0.044889804, -1013717.94, 420664.03, 0.006317082, 10.004112, 9.997282 
1.7550199e+3, 1.636323e+2, -952934.8, -1377397.1, -68476.01, 0.000745354, 0.035482068, -942161.44, 394244.84, 0.0012534105, 10.003546, 9.997916 
1.7550217e+3, 1.7363015e+2, -947330.2, -1320097.0, -55765.164, -0.047255795, 0.01687904, -939166.6, 299259.03, 0.00006111771, 10.002892, 9.997952 
1.7550242e+3, 1.8362795e+2, -935934.56, -1265011.6, -43142.766, -0.056407217, 0.004312582, -930372.44, 210073.7, 0.0000000010737394, 10.002301, 9.997942 
1.7550275e+3, 1.936258e+2, -911816.94, -1210681.5, -57240.355, -0.0042658686, -0.003853786, -901229.0, 141238.56, 0.0, 10.001829, 9.9978695 
1.7550303e+3, 2.0362401e+2, -824659.9, -1013268.3, -84883.164, 0.017985146, -0.008731582, -792084.44, 152400.36, 0.0, 10.001305, 9.998804 
1.7550321e+3, 2.136229e+2, -809965.5, -946209.8, -76351.055, -0.008891163, -0.014082376, -775764.06, 70729.8, 0.0, 10.000693, 9.998887 
1.7550345e+3, 2.236218e+2, -786394.06, -857600.25, -57941.96, -0.021072913, -0.020493058, -753990.94, -5487.333, 0.0, 10.000069, 9.999123 
1.7550372e+3, 2.3362081e+2, -784126.25, -809363.5, -67115.8, -0.0078005283, -0.0352419, -728453.1, -77939.76, 0.0, 9.999428, 9.999089 
1.75504e+3, 2.4362011e+2, -727083.0, -645027.8, -66323.875, 0.0007011418, -0.044766545, -608067.5, -55547.176, 0.0, 9.998776, 9.999858 
1.7550427e+3, 2.5362006e+2, -720940.9, -584425.8, -58081.66, 0.00025853983, -0.04877186, -563058.7, -108537.945, 0.0, 9.9981165, 9.999918 
1.7550455e+3, 2.6362023e+2, -698339.1, -510602.66, -49614.58, -0.0127607165, -0.022760274, -498297.2, -141777.66, 0.0, 9.997547, 10.000027 
1.7550482e+3, 2.736209e+2, -666572.5, -450235.03, -64254.715, -0.04440506, 0.039060295, -432589.84, -174074.66, 0.0, 9.997117, 9.999975 
1.7550515e+3, 2.8362125e+2, -595866.4, -268456.47, -58269.313, -0.035085674, 0.040063407, -258395.42, -97882.06, 0.0, 9.996511, 10.000842 
1.7550555e+3, 2.936214e+2, -634247.8, -239186.25, -48435.12, 0.038010422, -0.0423516, -233334.7, -170822.42, 0.0, 9.995589, 10.000814 
1.7550589e+3, 3.03623e+2, -683354.06, -222427.66, 34437.082, -0.015362992, 0.034872487, -219868.97, -219868.97, 0.0, 9.994845, 10.000957 
1.7550637e+3, 3.1362423e+2, -594981.06, 39073.574, -45250.754, -0.065106444, 0.050567158, 42286.715, 42286.715, 0.0, 9.994517, 10.002907 
1.7650145e+3, 1.2363955e+2, -1119041.3, -1687943.4, 57644.227, -0.07916071, 0.05032759, -1113259.3, 615078.6, 0.051718093, 10.0055065, 9.997544 
1.765017e+3, 1.3363674e+2, -1048727.0, -1637939.8, -72750.95, 0.04756051, 0.032328565, -1039877.25, 590486.7, 0.03458254, 10.005356, 9.997279 
1.7650168e+3, 1.436342e+2, -1008982.06, -1578158.3, -26655.691, -0.14142427, 0.055329636, -1007736.44, 524651.94, 0.01838878, 10.004904, 9.997229 
1.7650205e+3, 1.5363128e+2, -1043926.4, -1554240.6, -2641.0925, -0.0329099, 0.040185396, -1043912.7, 390504.63, 0.0068510314, 10.003971, 9.9971695 
1.7650235e+3, 1.636287e+2, -979836.8, -1383854.8, -25726.031, 0.010973768, 0.030618623, -978205.3, 358236.88, 0.0013978849, 10.003336, 9.997972 
1.7650248e+3, 1.7362674e+2, -895674.7, -1286407.1, -37721.473, -0.048538078, 0.025638286, -892066.4, 346392.72, 0.0000742067, 10.00321, 9.998029 
1.7650267e+3, 1.8362457e+2, -867163.9, -1236771.8, -40282.945, -0.05989631, 0.013878626, -862824.44, 277654.56, 0.000000009428086, 10.002796, 9.997896 
1.7650294e+3, 1.9362216e+2, -906974.4, -1215765.3, -26713.748, 0.007325165, -0.014640999, -904680.4, 137822.64, 0.0, 10.001896, 9.997802 
1.7650317e+3, 2.0362028e+2, -846863.8, -1031923.3, -39143.766, 0.03385631, -0.02092145, -838924.7, 105596.57, 0.0, 10.001188, 9.998732 
1.765033e+3, 2.1361941e+2, -798249.56, -949084.7, -57906.52, -0.00879693, 0.0051642805, -778583.06, 67945.53, 0.0, 10.000812, 9.998809 
1.7650345e+3, 2.2361834e+2, -752834.75, -843511.0, -55214.277, -0.02796365, 0.007338653, -726729.44, 21808.734, 0.0, 10.00031, 9.999103 
1.7650367e+3, 2.3361702e+2, -762034.0, -800144.4, -44097.574, -0.005154837, -0.039741464, -733050.7, -82499.914, 0.0, 9.999587, 9.999075 
1.7650388e+3, 2.436162e+2, -711979.6, -644995.8, -35668.008, 0.007887151, -0.058691453, -629560.06, -77001.26, 0.0, 9.998912, 9.999792 
1.765041e+3, 2.536164e+2, -696630.5, -581469.25, -50009.594, 0.00035402566, -0.02887339, -562784.0, -108226.766, 0.0, 9.9983225, 9.999839 
1.7650431e+3, 2.6361668e+2, -676130.44, -496424.97, -43173.336, -0.01855626, 0.0075419685, -486590.94, -130035.63, 0.0, 9.997685, 10.000056 
1.7650452e+3, 2.73617e+2, -685045.0, -453898.34, -26775.6, -0.047519166, 0.032871358, -450837.25, -192283.92, 0.0, 9.996969, 10.00002 
1.7650479e+3, 2.836172e+2, -627476.56, -285671.47, -15904.637, -0.029523019, 0.013800713, -284933.0, -124380.11, 0.0, 9.9963045, 10.000823 
1.765051e+3, 2.9361752e+2, -620511.9, -234765.75, -32641.81, 0.046335436, -0.04527893, -232023.1, -169473.11, 0.0, 9.995694, 10.000793 
1.7650534e+3, 3.0361947e+2, -648893.44, -172263.95, 45631.26, -0.05248374, 0.05648085, -167934.66, -167934.66, 0.0, 9.994941, 10.001254 
1.7650582e+3, 3.1362066e+2, -672784.56, -24802.969, -10355.963, -0.04680712, 0.034658268, -24637.504, -24637.504, 0.0, 9.9941, 10.002668 
1.7750196e+3, 1.2363641e+2, -1125251.5, -1697274.5, 42568.207, -0.107235976, 0.037228744, -1122101.0, 606268.0, 0.0546754, 10.0055065, 9.9974785 
1.7750227e+3, 1.3363402e+2, -1053057.1, -1646293.8, -78003.414, 0.07061098, 0.066539735, -1042972.0, 587419.7, 0.03668866, 10.005362, 9.99722 
1.7750219e+3, 1.4363146e+2, -996884.56, -1552668.1, -58007.703, -0.12169443, 0.08392123, -990894.8, 541521.3, 0.01963554, 10.004909, 9.997403 
1.7750244e+3, 1.5362827e+2, -1028466.94, -1523193.8, -37725.195, -0.043904837, 0.021804368, -1025606.75, 408839.3, 0.0074071884, 10.003978, 9.99738 
1.7750265e+3, 1.6362554e+2, -993241.75, -1413447.4, -34303.895, -0.006915692, -0.006686126, -990459.75, 346012.28, 0.0015506698, 10.003343, 9.9977665 
1.7750283e+3, 1.7362359e+2, -914249.8, -1326388.8, -41656.836, -0.034476463, 0.017880997, -910081.5, 328408.44, 0.000088497945, 10.003215, 9.997753 
1.7750297e+3, 1.8362157e+2, -849705.94, -1201128.0, -69971.695, -0.03883512, 0.025161456, -836286.3, 304222.56, 0.000000028818846, 10.002797, 9.998141 
1.7750312e+3, 1.9361947e+2, -883222.2, -1167730.4, -60270.766, -0.0050708274, -0.003846497, -870981.0, 171547.34, 0.0, 10.0019, 9.99813 
1.7750326e+3, 2.0361756e+2, -870288.44, -1081822.1, -55226.043, 0.010699759, -0.018131288, -856738.3, 87808.414, 0.0, 10.001192, 9.998388 
1.7750338e+3, 2.1361604e+2, -829723.56, -1015501.8, -70726.51, -0.004671133, -0.011702999, -805862.4, 40699.66, 0.0, 10.000814, 9.998352 
1.775035e+3, 2.2361484e+2, -740109.5, -817815.25, -79706.914, -0.013051841, -0.0062946896, -690290.3, 58283.586, 0.0, 10.000311, 9.999279 
1.7750363e+3, 2.3361418e+2, -741834.7, -759563.6, -70321.66, -0.007047459, -0.012929225, -679821.0, -29241.922, 0.0, 9.999591, 9.999353 
1.7750376e+3, 2.4361356e+2, -731662.94, -687015.75, -57654.938, -0.0045734155, -0.014836012, -647513.5, -94928.48, 0.0, 9.998916, 9.999502 
1.7750391e+3, 2.5361317e+2, -723617.7, -638447.0, -70929.734, -0.013147114, -0.0073137307, -598300.6, -143710.27, 0.0, 9.998325, 9.999448 
1.7750406e+3, 2.6361308e+2, -652083.94, -447429.9, -68619.64, -0.021930713, 0.0013306331, -426551.9, -69960.16, 0.0, 9.997688, 10.000393 
1.7750424e+3, 2.7361348e+2, -651698.25, -386948.16, -52681.09, -0.018273698, -0.010372058, -376850.56, -118263.93, 0.0, 9.996977, 10.000477 
1.7750445e+3, 2.836139e+2, -643330.7, -320672.16, -38831.95, 0.003636666, -0.020708589, -316064.53, -155481.48, 0.0, 9.996312, 10.00058 
1.7750464e+3, 2.9361477e+2, -643843.9, -284477.97, -55794.043, 0.021036465, 0.008068566, -276014.88, -213437.88, 0.0, 9.995698, 10.000451 
1.7750476e+3, 3.0361655e+2, -622036.94, -116057.98, 14191.382, -0.13035414, 0.09091193, -115660.26, -115660.26, 0.0, 9.994938, 10.001641 
1.7750527e+3, 3.136175e+2, -680544.44, -42571.313, -19519.537, 0.00032166683, 0.0016692816, -41974.65, -41974.65, 0.0, 9.994103, 10.002545 
1.7850253e+3, 1.2363422e+2, -1069345.1, -1685396.8, 73734.7, -0.12523024, 0.040977597, -1060642.9, 667747.3, 0.057741817, 10.006003, 9.997325 
1.7850281e+3, 1.3363169e+2, -1078420.0, -1674089.5, -42069.043, 0.0829835, 0.07277983, -1075463.5, 554951.25, 0.038871825, 10.005261, 9.997075 
1.7850268e+3, 1.4362898e+2, -1019862.94, -1553815.6, -32868.113, -0.11547773, 0.07819944, -1017847.3, 514593.5, 0.020928442, 10.004713, 9.997487 
1.7850286e+3, 1.5362598e+2, -947760.25, -1470892.5, -20934.033, -0.046524405, 0.020850627, -946923.9, 487544.38, 0.007985549, 10.004484, 9.997495 
1.7850302e+3, 1.6362323e+2, -905243.8, -1382441.4, -16646.398, -0.008349055, -0.007816419, -904663.9, 431829.72, 0.0017113996, 10.004, 9.997662 
1.7850316e+3, 1.7362106e+2, -942163.0, -1355747.3, -14571.029, -0.018573456, 0.0070576705, -941650.25, 296864.06, 0.00010376734, 10.003095, 9.997608 
1.7850325e+3, 1.8361895e+2, -904231.5, -1224404.6, -46988.004, -0.020925015, 0.012427796, -897478.06, 243056.27, 0.0000000562377, 10.002413, 9.998166 
1.7850332e+3, 1.9361702e+2, -848439.2, -1145423.4, -59031.375, -0.011965615, -0.0041439687, -837135.75, 205416.3, 0.0, 10.002117, 9.998178 
1.785034e+3, 2.0361517e+2, -804144.44, -1048673.5, -54247.86, -0.002874211, -0.014874907, -792650.06, 151919.69, 0.0, 10.001641, 9.998399 
1.7850347e+3, 2.1361354e+2, -823248.25, -1012191.75, -36753.84, 0.006000553, -0.020454345, -816350.56, 30235.498, 0.0, 10.000859, 9.998353 
1.7850354e+3, 2.2361228e+2, -765864.4, -839569.0, -36024.543, 0.0043831146, -0.01713431, -751181.6, -2583.02, 0.0, 10.000175, 9.999194 
1.7850357e+3, 2.3361167e+2, -738821.4, -768976.6, -54644.496, -0.012745764, -0.0081534, -697212.56, -46608.656, 0.0, 9.99966, 9.999254 
1.7850365e+3, 2.436111e+2, -707520.06, -673123.9, -49251.41, -0.018157192, -0.0014616156, -638154.2, -85544.43, 0.0, 9.999073, 9.999522 
1.7850375e+3, 2.536107e+2, -717149.7, -631740.94, -32433.018, -0.009573756, 0.0008336726, -620821.0, -166205.98, 0.0, 9.998354, 9.999479 
1.7850384e+3, 2.6361054e+2, -659935.7, -448116.72, -24220.46, -0.013338575, -0.00070858654, -445382.53, -88765.75, 0.0, 9.997621, 10.000421 
1.7850393e+3, 2.7361083e+2, -666933.6, -391811.94, -39817.27, -0.020759081, -0.02759719, -386165.22, -127552.734, 0.0, 9.996861, 10.0005 
1.7850408e+3, 2.8361127e+2, -661862.6, -339308.06, -32910.074, 0.0033592172, -0.030092124, -335984.5, -175376.14, 0.0, 9.996227, 10.000493 
1.7850423e+3, 2.9361245e+2, -638186.25, -289655.34, -32745.352, 0.032306552, 0.038509667, -286605.53, -224005.69, 0.0, 9.995771, 10.0003805 
1.7850423e+3, 3.0361384e+2, -612334.75, -80124.75, 24268.477, -0.15017821, 0.0710288, -79020.414, -79020.414, 0.0, 9.994871, 10.00192 
1.7850466e+3, 3.1361517e+2, -777243.8, -86417.695, 6388.4497, 0.0050523253, -0.0033383183, -86358.625, -86358.625, 0.0, 9.993429, 10.002569 
1.7950311e+3, 1.23633005e+2, -1087878.8, -1720044.1, 35755.67, -0.13990748, 0.06295431, -1085862.8, 642538.2, 0.060936965, 10.006005, 9.997073 
1.7950335e+3, 1.3362983e+2, -1094360.0, -1707504.9, -68579.21, 0.0850862, 0.05085171, -1086783.1, 543649.8, 0.041142426, 10.005267, 9.996845 
1.7950314e+3, 1.4362678e+2, -1020976.7, -1556434.5, -44060.01, -0.122374654, 0.038031284, -1017375.44, 515087.03, 0.02227327, 10.004719, 9.997468 
1.795033e+3, 1.5362434e+2, -946368.75, -1468839.8, -29055.188, -0.042059142, 0.037380777, -944757.94, 489725.8, 0.008589576, 10.004489, 9.997506 
1.7950343e+3, 1.636218e+2, -905951.44, -1384982.6, -47228.504, 0.0051048812, 0.027441606, -901339.5, 435167.44, 0.0018810394, 10.004004, 9.997643 
1.7950349e+3, 1.736191e+2, -942590.94, -1358472.3, -48427.832, -0.0014848085, -0.007245615, -937026.2, 301506.2, 0.00012002525, 10.0031, 9.997587 
1.795035e+3, 1.8361667e+2, -917524.44, -1253622.3, -60701.754, -0.0075444654, -0.024547439, -906897.3, 233658.55, 0.000000085167756, 10.002418, 9.997964 
1.7950353e+3, 1.9361478e+2, -864157.94, -1179452.6, -69020.13, -0.014099702, -0.015159592, -849710.94, 192863.58, 0.0, 10.002121, 9.997943 
1.7950355e+3, 2.0361309e+2, -779147.1, -997607.2, -80478.94, -0.007053299, -0.0107284775, -752700.8, 191889.73, 0.0, 10.001643, 9.998749 
1.7950357e+3, 2.1361184e+2, -791598.3, -947589.4, -65264.902, 0.02248457, -0.02173829, -767894.25, 78706.97, 0.0, 10.000862, 9.9987955 
1.7950357e+3, 2.236106e+2, -789503.06, -889595.1, -55904.26, 0.0229786, -0.02592737, -764516.5, -15903.435, 0.0, 10.000177, 9.998851 
1.7950355e+3, 2.3360947e+2, -771718.0, -838387.94, -72774.37, -0.022592291, -0.0258255, -725007.2, -74381.35, 0.0, 9.999662, 9.998777 
1.7950355e+3, 2.4360874e+2, -684780.44, -626555.7, -74151.43, -0.033011746, -0.018514954, -576006.5, -23372.842, 0.0, 9.999074, 9.999842 
1.795036e+3, 2.536089e+2, -684881.8, -565788.7, -58299.523, 0.008251417, -0.0029277143, -542000.8, -87369.11, 0.0, 9.998356, 9.999932 
1.7950362e+3, 2.6360896e+2, -678566.25, -488096.63, -51692.938, 0.0048132655, 0.0018202796, -474971.72, -118340.66, 0.0, 9.997624, 10.000145 
1.7950359e+3, 2.736089e+2, -694521.3, -451426.84, -66959.586, -0.052395865, -0.022434287, -434203.34, -175571.44, 0.0, 9.99687, 10.000087 
1.7950366e+3, 2.836092e+2, -656261.44, -329414.88, -50686.816, -0.02837761, -0.016442224, -321734.9, -161105.25, 0.0, 9.996233, 10.000559 
1.7950386e+3, 2.936105e+2, -624899.4, -262890.6, -50247.645, 0.071850784, 0.049432762, -256045.55, -193426.55, 0.0, 9.995772, 10.000565 
1.7950375e+3, 3.0361122e+2, -601765.1, -58104.387, -27447.87, -0.11919621, -0.0035388402, -56722.137, -56722.137, 0.0, 9.99487, 10.002071 
1.7950396e+3, 3.136136e+2, -758927.7, -52301.902, -13616.575, -0.036820743, 0.012007774, -52039.61, -52039.61, 0.0, 9.993442, 10.002799 
1.8050371e+3, 1.2363195e+2, -1097507.5, -1737384.4, 42205.63, -0.1423486, 0.051533073, -1094735.6, 633674.6, 0.06427904, 10.006012, 9.996948 
1.8050389e+3, 1.3362877e+2, -1030714.06, -1684189.1, -39344.45, 0.08853384, 0.047724765, -1028353.7, 602088.94, 0.043514438, 10.005775, 9.996758 
1.8050364e+3, 1.4362554e+2, -937428.56, -1527898.3, -11943.72, -0.1287119, 0.028407408, -937187.06, 595286.9, 0.023679605, 10.005371, 9.997349 
1.8050377e+3, 1.5362298e+2, -930514.5, -1475544.8, -7539.211, -0.03575682, 0.027435351, -930410.2, 504086.34, 0.009224985, 10.004666, 9.997375 
1.8050385e+3, 1.6362038e+2, -910051.25, -1386147.9, -41202.105, 0.017667096, 0.019644331, -906511.9, 430008.3, 0.0020615114, 10.003975, 9.997648 
1.805038e+3, 1.736178e+2, -908930.56, -1339367.6, -41459.055, 0.0017361536, -0.007899037, -904973.6, 333571.1, 0.00013753609, 10.003322, 9.997611 
1.8050376e+3, 1.8361536e+2, -880759.94, -1238519.9, -35362.676, -0.007872598, -0.025054676, -877298.0, 263270.22, 0.00000010953618, 10.002684, 9.997938 
1.8050374e+3, 1.936133e+2, -872678.7, -1187384.6, -27884.098, -0.0067740832, -0.027655732, -870227.2, 172361.28, 0.0, 10.002082, 9.997907 
1.8050371e+3, 2.036116e+2, -796083.6, -996856.44, -47450.45, 0.00085336406, -0.026025228, -785434.1, 159170.5, 0.0, 10.001491, 9.998827 
1.8050367e+3, 2.1361059e+2, -777327.3, -929902.2, -59631.645, 0.017984562, -0.023954762, -756786.5, 89826.336, 0.0, 10.0009165, 9.99889 
1.8050359e+3, 2.2360943e+2, -768981.7, -876125.6, -50281.863, 0.014589232, -0.025613187, -749081.06, -457.3757, 0.0, 10.000304, 9.998881 
1.805035e+3, 2.3360817e+2, -775663.4, -838702.1, -31066.434, -0.019713432, -0.04007278, -762926.7, -112288.93, 0.0, 9.999629, 9.998792 
1.8050346e+3, 2.4360745e+2, -704671.6, -635931.7, -25939.463, -0.023606962, -0.03439367, -627241.8, -74595.99, 0.0, 9.998936, 9.999845 
1.8050344e+3, 2.5360778e+2, -706031.7, -575746.1, -43823.516, 0.014861534, -0.00008005435, -562377.2, -107735.0, 0.0, 9.998211, 9.999933 
1.8050338e+3, 2.636079e+2, -694400.75, -504478.78, -47995.1, 0.0046661566, 0.011054234, -493039.0, -136397.44, 0.0, 9.997554, 10.000067 
1.8050326e+3, 2.736076e+2, -684280.8, -457940.75, -41181.09, -0.0636528, -0.023702927, -450681.0, -192035.97, 0.0, 9.996988, 9.999986 
1.8050328e+3, 2.8360793e+2, -633520.25, -308232.1, -9555.724, -0.038368307, -0.01419445, -307951.63, -147308.9, 0.0, 9.996344, 10.000651 
1.8050343e+3, 2.936095e+2, -650366.6, -258623.06, -11931.386, 0.08216651, 0.06570137, -258260.0, -195631.4, 0.0, 9.995527, 10.000711 
1.8050325e+3, 3.0360973e+2, -657420.4, -106227.62, -20434.793, -0.09981356, -0.034049444, -105471.06, -105471.06, 0.0, 9.994584, 10.001878 
1.8050331e+3, 3.1361237e+2, -705365.06, -13115.651, 1776.9429, -0.05025394, 0.028860917, -13111.09, -13111.09, 0.0, 9.993751, 10.00292 
1.8150432e+3, 1.2363107e+2, -1100168.5, -1738682.3, 20395.264, -0.13562833, 0.007350923, -1099517.8, 628900.0, 0.0677815, 10.006015, 9.996938 
1.8150447e+3, 1.3362852e+2, -1028447.1, -1676455.4, -46769.07, 0.090530604, 0.06336116, -1025089.06, 605354.7, 0.04600182, 10.005777, 9.996811 
1.8150416e+3, 1.436253e+2, -953588.06, -1561649.1, -35764.457, -0.13788942, 0.04977727, -951491.75, 580983.56, 0.025157925, 10.005374, 9.997116 
1.8150425e+3, 1.5362188e+2, -949533.2, -1516593.0, -33819.313, -0.028007444, -0.009168421, -947523.4, 486983.34, 0.009897476, 10.004672, 9.99709 
1.8150425e+3, 1.6361898e+2, -907851.6, -1383003.9, -65845.15, 0.028999936, -0.030953614, -898895.8, 437637.8, 0.0022550148, 10.00398, 9.997668 
1.8150413e+3, 1.736171e+2, -903124.3, -1329052.6, -65402.867, -0.009382004, 0.0052010785, -893307.75, 345243.9, 0.00015673385, 10.003327, 9.99768 
1.8150401e+3, 1.8361497e+2, -870250.6, -1218433.1, -57773.527, -0.022346165, 0.0106979525, -860914.6, 279657.1, 0.00000012908751, 10.002689, 9.998075 
1.8150397e+3, 1.9361258e+2, -861505.6, -1165747.0, -49755.703, 0.009330474, -0.042151306, -853575.25, 189019.06, 0.0, 10.002087, 9.998054 
1.8150388e+3, 2.0361069e+2, -809246.25, -1025121.0, -68408.625, 0.019469745, -0.060883302, -789393.9, 155218.44, 0.0, 10.001493, 9.998632 
1.8150373e+3, 2.1360973e+2, -794463.1, -966661.0, -80037.71, -0.008273136, -0.027113779, -763007.56, 83613.836, 0.0, 10.000919, 9.998637 
1.815036e+3, 2.2360873e+2, -741253.06, -819227.25, -74137.03, -0.021068104, -0.016084556, -696476.9, 52154.15, 0.0, 10.000306, 9.999272 
1.8150347e+3, 2.3360774e+2, -740501.9, -766627.44, -55295.777, -0.0049993712, -0.050714478, -696746.9, -46106.426, 0.0, 9.999631, 9.999287 
1.8150339e+3, 2.4360713e+2, -726111.1, -681553.25, -52066.957, 0.009020084, -0.049538054, -647199.0, -94551.93, 0.0, 9.998939, 9.999531 
1.8150327e+3, 2.5360727e+2, -736738.06, -641400.4, -69954.72, 0.010311202, 0.0076108896, -604417.1, -149769.73, 0.0, 9.998218, 9.999481 
1.8150313e+3, 2.636072e+2, -685847.25, -487499.72, -68990.27, -0.013689381, 0.025786804, -465863.34, -109214.14, 0.0, 9.997556, 10.000183 
1.8150298e+3, 2.7360693e+2, -669947.3, -428095.53, -60912.273, -0.05846732, -0.02929063, -413620.63, -154968.27, 0.0, 9.996987, 10.000192 
1.8150292e+3, 2.8360742e+2, -624295.4, -290657.78, -37755.14, -0.030541249, -0.022200938, -286438.7, -125790.49, 0.0, 9.996348, 10.0007715 
1.8150297e+3, 2.9360935e+2, -640164.7, -242245.69, -43642.094, 0.06539913, 0.08338328, -237515.44, -174885.6, 0.0, 9.995544, 10.000817 
1.8150271e+3, 3.036093e+2, -694744.75, -185269.19, -55991.336, -0.08729281, -0.02160215, -179188.31, -179188.31, 0.0, 9.994592, 10.00133 
1.8150268e+3, 3.136111e+2, -704312.56, -10404.338, 7713.993, -0.052095372, 0.018036066, -10318.595, -10318.595, 0.0, 9.993746, 10.002943 
1.8250495e+3, 1.23630926e+2, -1048266.8, -1721187.9, 23003.025, -0.124169245, -0.0028199656, -1047481.4, 680937.4, 0.0714523, 10.006462, 9.996844 
1.8250507e+3, 1.3362841e+2, -1000420.9, -1666139.1, -35897.363, 0.09426584, 0.060954086, -998490.75, 631953.56, 0.048612844, 10.006013, 9.996768 
1.825047e+3, 1.4362518e+2, -942200.6, -1549421.4, -34017.004, -0.14456792, 0.046067625, -940300.94, 592175.0, 0.026714822, 10.005436, 9.9971695 
1.8250471e+3, 1.5362181e+2, -952794.7, -1510736.5, -9432.698, -0.025394699, -0.01458966, -952635.25, 481871.47, 0.010610872, 10.004622, 9.997153 
1.8250465e+3, 1.636189e+2, -913421.56, -1389957.4, -20731.244, 0.034627125, -0.038335852, -912521.4, 424012.28, 0.002463416, 10.003963, 9.997627 
1.8250448e+3, 1.7361695e+2, -872354.0, -1321198.4, -29137.988, -0.012322383, -0.0038081126, -870470.3, 368082.4, 0.00017803207, 10.0035715, 9.997615 
1.825043e+3, 1.8361485e+2, -822414.75, -1185987.8, -37230.094, -0.026379004, 0.0037436353, -818641.5, 321931.22, 0.00000015151502, 10.002979, 9.998157 
1.8250419e+3, 1.9361264e+2, -859719.5, -1153467.8, -34594.797, 0.016376987, -0.040219694, -855700.25, 186892.84, 0.0, 10.002051, 9.998154 
1.8250403e+3, 2.0361078e+2, -839867.3, -1041694.94, -41448.457, 0.027421325, -0.05938293, -831686.8, 112923.734, 0.0, 10.001292, 9.998614 
1.8250379e+3, 2.1360964e+2, -810888.56, -978740.25, -36793.785, -0.01610923, -0.0418455, -803177.44, 43444.438, 0.0, 10.000827, 9.998598 
1.825036e+3, 2.2360861e+2, -744841.5, -815558.3, -39328.004, -0.031327937, -0.032764845, -727314.1, 21317.809, 0.0, 10.000259, 9.99932 
1.8250346e+3, 2.336079e+2, -753980.2, -765942.6, -53786.75, 0.003703762, -0.045345508, -705843.1, -55204.438, 0.0, 9.99951, 9.999349 
1.8250328e+3, 2.4360739e+2, -737597.75, -682332.5, -54621.746, 0.020166498, -0.039833438, -648751.6, -96107.37, 0.0, 9.998841, 9.999572 
1.8250307e+3, 2.536073e+2, -721377.2, -630716.94, -36846.547, -0.0012161945, -0.007783822, -617630.56, -162984.06, 0.0, 9.998308, 9.99951 
1.8250287e+3, 2.6360723e+2, -672163.9, -478614.2, -22074.441, -0.026468718, 0.0077508055, -476128.5, -119480.06, 0.0, 9.99764, 10.000203 
1.8250267e+3, 2.7360734e+2, -705482.3, -443107.03, -28567.236, -0.04324003, -0.013342698, -440032.7, -181383.78, 0.0, 9.996736, 10.000209 
1.8250255e+3, 2.836079e+2, -662940.8, -302483.1, -9993.205, -0.023986313, 0.0010527672, -302206.28, -141562.28, 0.0, 9.996055, 10.000832 
1.8250248e+3, 2.936096e+2, -619475.7, -224421.78, -21044.102, 0.020654758, 0.07379407, -223303.94, -160676.19, 0.0, 9.995653, 10.000888 
1.825022e+3, 3.036097e+2, -688063.1, -206851.23, -44037.324, -0.077568546, -0.0086652925, -202854.42, -202854.42, 0.0, 9.994745, 10.001107 
1.8250206e+3, 3.1361112e+2, -746574.1, -6422.796, 76751.84, -0.024456048, 0.0184888, 1452.3873, 1452.3873, 0.0, 9.99335, 10.003161 
1.8350561e+3, 1.23631544e+2, -1063544.3, -1748630.8, -8331.352, -0.1183257, 0.021854058, -1063442.9, 664970.2, 0.0752972, 10.00646, 9.996654 
1.8350567e+3, 1.3362844e+2, -1011039.4, -1687286.3, -50949.195, 0.10083128, 0.040685352, -1007222.4, 623222.0, 0.051352043, 10.00602, 9.99662 
1.8350524e+3, 1.4362518e+2, -919405.7, -1501819.0, -62149.492, -0.14722818, 0.017893028, -912847.56, 619628.3, 0.028354067, 10.005445, 9.997499 
1.8350518e+3, 1.5362275e+2, -924018.5, -1451123.0, -39505.027, -0.029356113, 0.010460286, -921074.1, 513422.53, 0.011367639, 10.004627, 9.997561 
1.8350506e+3, 1.6362013e+2, -920874.75, -1406741.4, -37239.85, 0.032408163, -0.0033868784, -918037.06, 418483.44, 0.0026881844, 10.003967, 9.997511 
1.8350482e+3, 1.736173e+2, -885797.0, -1350811.9, -43165.41, -0.008044265, -0.034951936, -881824.06, 356724.28, 0.00020181201, 10.003576, 9.997411 
1.835046e+3, 1.8361492e+2, -820364.75, -1183046.6, -69044.23, -0.021004684, -0.04486763, -807665.4, 332906.06, 0.00000018976193, 10.002983, 9.998176 
1.8350439e+3, 1.9361344e+2, -855029.56, -1145560.5, -68775.78, 0.013847516, -0.022019656, -839571.1, 203013.92, 0.0, 10.002057, 9.998206 
1.8350415e+3, 2.0361187e+2, -828789.0, -1020235.5, -60430.96, 0.024451042, -0.022225484, -811309.56, 133290.08, 0.0, 10.001297, 9.99876 
1.835039e+3, 2.1361023e+2, -799084.56, -955287.44, -53088.68, -0.0062109376, -0.06828361, -782749.56, 63865.297, 0.0, 10.000829, 9.998759 
1.8350364e+3, 2.2360902e+2, -765315.1, -858535.8, -65182.99, -0.017322091, -0.07575164, -731792.2, 16834.879, 0.0, 10.000259, 9.999025 
1.835034e+3, 2.3360859e+2, -779363.94, -819893.3, -80765.36, 0.0055115954, -0.024581615, -716359.75, -65726.73, 0.0, 9.999514, 9.998978 
1.8350315e+3, 2.4360815e+2, -710428.6, -626369.3, -74645.01, 0.009404588, -0.005610362, -582734.7, -30096.615, 0.0, 9.998842, 9.999956 
1.8350288e+3, 2.5360784e+2, -685545.8, -556594.25, -55493.977, -0.0209742, -0.04552444, -536001.2, -81360.97, 0.0, 9.998308, 10.00002 
1.8350263e+3, 2.6360792e+2, -677738.7, -491323.56, -53415.266, -0.034800556, -0.042589057, -477102.8, -120462.71, 0.0, 9.9976425, 10.000116 
1.8350238e+3, 2.7360868e+2, -717335.75, -470446.4, -61424.777, -0.017858198, 0.022857467, -456008.56, -197372.88, 0.0, 9.996745, 10.000019 
1.8350217e+3, 2.8360933e+2, -661274.1, -300618.1, -26381.494, -0.018985383, 0.053415913, -298698.56, -138067.27, 0.0, 9.99606, 10.000842 
1.8350196e+3, 2.9361013e+2, -617046.4, -219319.03, -37243.96, -0.056840986, 0.035983607, -215861.5, -153238.17, 0.0, 9.995651, 10.000924 
1.8350168e+3, 3.0361086e+2, -681432.56, -193506.81, -95477.51, -0.072893165, 0.009127021, -175489.08, -175489.08, 0.0, 9.994746, 10.0012 
1.8350145e+3, 3.136124e+2, -721949.44, 38665.67, 42525.973, 0.035105787, 0.03653048, 41035.914, 41035.914, 0.0, 9.993372, 10.003463 
1.8450628e+3, 1.236327e+2, -993792.5, -1703781.5, 13135.956, -0.10779164, 0.020624284, -993549.56, 734852.5, 0.07932304, 10.006966, 9.996732 
1.845063e+3, 1.3362968e+2, -965129.56, -1647966.4, 6968.45, 0.10804676, 0.03431362, -965058.44, 665373.2, 0.054226797, 10.006305, 9.996751 
1.845058e+3, 1.4362645e+2, -894024.75, -1496924.4, -10977.004, -0.14771117, 0.010081113, -893825.0, 638637.56, 0.030081347, 10.00567, 9.997424 
1.8450564e+3, 1.5362391e+2, -875751.6, -1440143.0, -27584.916, -0.04364986, 0.0030185364, -874406.6, 560078.44, 0.012170849, 10.005023, 9.997445 
1.8450546e+3, 1.6362128e+2, -864622.06, -1366346.5, -36442.33, 0.019470818, -0.009639353, -861988.9, 474520.22, 0.0029307862, 10.0043, 9.997627 
1.845052e+3, 1.7361864e+2, -893018.44, -1337537.4, -16371.562, 0.0008785761, -0.038189083, -892416.3, 346118.3, 0.00022859612, 10.003456, 9.997559 
1.845049e+3, 1.8361634e+2, -858885.56, -1201224.6, -31736.941, -0.007918256, -0.04885392, -855968.25, 284588.47, 0.00000025167606, 10.002719, 9.998177 
1.8450458e+3, 1.9361475e+2, -840656.94, -1141446.0, -38608.6, 0.0017330698, -0.033042375, -835780.3, 206791.23, 0.0, 10.002171, 9.9981785 
1.8450429e+3, 2.0361318e+2, -793744.56, -1000722.5, -34593.293, 0.007367478, -0.03268325, -788115.9, 156470.53, 0.0, 10.001529, 9.998782 
1.8450397e+3, 2.136117e+2, -812416.5, -958721.94, -36793.42, 0.0063015614, -0.064575695, -803684.7, 42915.49, 0.0, 10.000727, 9.998784 
1.8450367e+3, 2.2361057e+2, -797714.4, -869878.6, -44308.074, 0.003235137, -0.06691641, -776655.2, -28043.494, 0.0, 10.000021, 9.999062 
1.8450335e+3, 2.3361008e+2, -782650.0, -817948.1, -30959.596, -0.004231307, -0.02618802, -764662.2, -114043.734, 0.0, 9.999477, 9.999007 
1.8450302e+3, 2.4360962e+2, -708562.3, -618008.6, -19751.387, -0.014118041, -0.013695422, -613888.0, -61264.254, 0.0, 9.998824, 10.000022 
1.8450269e+3, 2.536094e+2, -730440.2, -569830.75, -33387.504, -0.024495775, -0.052493066, -563166.6, -108541.74, 0.0, 9.997967, 10.0000925 
1.8450238e+3, 2.636096e+2, -732537.9, -507946.8, -45008.24, -0.022316217, -0.043792848, -499262.88, -142639.52, 0.0, 9.997227, 10.0002 
1.8450205e+3, 2.7361056e+2, -717723.25, -461030.0, -32968.973, -0.010152557, 0.031723157, -456863.2, -198246.14, 0.0, 9.996702, 10.000103 
1.8450175e+3, 2.8361118e+2, -657958.75, -288072.47, 18553.787, -0.038702622, 0.050289664, -287144.13, -126531.234, 0.0, 9.996037, 10.000939 
1.8450147e+3, 2.936117e+2, -690074.5, -243694.73, 9532.249, -0.10527784, -0.00434689, -243491.28, -180883.6, 0.0, 9.995106, 10.001018 
1.8450117e+3, 3.036131e+2, -730973.75, -213706.77, -54658.477, -0.028689979, 0.02999539, -207994.2, -207994.2, 0.0, 9.994391, 10.001231 
1.8450081e+3, 3.1361443e+2, -637149.3, 66720.86, 76786.35, 0.027626095, 0.036606092, 75000.22, 75000.22, 0.0, 9.99401, 10.003346 
1.85507e+3, 1.236344e+2, -973093.94, -1656722.5, -24690.746, -0.09566833, -0.0051721907, -972203.3, 756182.2, 0.08353372, 10.006977, 9.997081 
1.8550694e+3, 1.3363211e+2, -939991.56, -1590865.8, -15083.113, 0.11234882, 0.04073227, -939642.2, 690764.0, 0.05724515, 10.006306, 9.997159 
1.8550636e+3, 1.4362894e+2, -928660.8, -1567901.4, -34456.633, -0.15072827, 0.021381056, -926808.9, 605627.25, 0.031904124, 10.005669, 9.996931 
1.8550612e+3, 1.5362526e+2, -920035.4, -1534233.0, -51274.594, -0.06847675, -0.03596439, -915784.25, 518687.63, 0.013025159, 10.00503, 9.996798 
1.8550585e+3, 1.6362235e+2, -839374.5, -1316105.4, -66775.7, -0.0036829421, -0.054769732, -830197.9, 506301.66, 0.0031934357, 10.00431, 9.997969 
1.8550554e+3, 1.736209e+2, -856776.1, -1264306.5, -47605.633, 0.013870346, -0.014095967, -851288.94, 387222.97, 0.0002591912, 10.003464, 9.998059 
1.8550518e+3, 1.8361901e+2, -860245.7, -1205542.6, -53407.53, 0.011493242, -0.009924573, -852173.75, 288355.25, 0.0000003514084, 10.002724, 9.998146 
1.8550478e+3, 1.9361652e+2, -848180.75, -1158553.5, -58273.81, -0.02054711, -0.07283906, -837600.25, 204952.7, 0.0, 10.002175, 9.99806 
1.855044e+3, 2.0361467e+2, -800575.5, -1015931.5, -62822.55, -0.024228502, -0.089323185, -783589.06, 160982.16, 0.0, 10.001532, 9.998677 
1.8550408e+3, 2.13614e+2, -819274.25, -974098.9, -65780.09, 0.020574449, -0.03150035, -795100.7, 51477.652, 0.0, 10.00073, 9.998678 
1.855037e+3, 2.2361322e+2, -773072.6, -819233.56, -64928.492, 0.029684762, -0.0073875114, -727244.3, 21342.219, 0.0, 10.000021, 9.99941 
1.8550327e+3, 2.3361228e+2, -753012.94, -757212.56, -50009.383, -0.025746519, -0.049993906, -705059.3, -54463.598, 0.0, 9.999479, 9.999424 
1.8550286e+3, 2.436117e+2, -726421.8, -655797.9, -49601.56, -0.05098121, -0.06410791, -630222.6, -77620.62, 0.0, 9.998825, 9.999763 
1.855025e+3, 2.5361183e+2, -755384.8, -623180.44, -64828.7, -0.013274518, -0.029285721, -596696.1, -142094.63, 0.0, 9.997972, 9.999724 
1.8550214e+3, 2.636122e+2, -714665.2, -471677.8, -65801.58, 0.010333179, 0.0038097037, -455002.9, -98403.76, 0.0, 9.99723, 10.000449 
1.8550172e+3, 2.7361283e+2, -692571.7, -409589.4, -51439.67, -0.020759858, 0.013220964, -400528.94, -141934.98, 0.0, 9.996704, 10.000456 
1.855013e+3, 2.8361335e+2, -645418.9, -263309.75, -14144.468, -0.08445565, -0.007935849, -262786.88, -102197.12, 0.0, 9.996039, 10.001108 
1.8550095e+3, 2.9361415e+2, -679293.56, -223800.4, -25612.35, -0.12687893, -0.04702788, -222364.75, -159782.69, 0.0, 9.995113, 10.001152 
1.855007e+3, 3.036163e+2, -730294.44, -214915.28, -71095.49, 0.054352287, 0.051024016, -205287.66, -205287.66, 0.0, 9.994402, 10.001218 
1.8550016e+3, 3.1361777e+2, -679746.44, -23995.277, 43962.39, -0.036417536, 0.07987893, -21061.111, -21061.111, 0.0, 9.99402, 10.002719 
1.8650773e+3, 1.2363752e+2, -914008.9, -1653116.3, 20195.186, -0.08982575, -0.0137631055, -913457.5, 814896.44, 0.087926224, 10.007574, 9.996821 
1.865076e+3, 1.3363501e+2, -906301.94, -1601366.6, -1171.6989, 0.11940469, 0.036507368, -906299.94, 724077.56, 0.060409445, 10.006697, 9.996894 
1.8650694e+3, 1.4363171e+2, -894924.7, -1556045.6, -30364.941, -0.13805905, 0.02225676, -893533.0, 638876.06, 0.03382741, 10.005942, 9.99688 
1.8650663e+3, 1.53628e+2, -882231.4, -1517661.5, -1923.4437, -0.075671054, -0.03563913, -882225.56, 552219.5, 0.013935384, 10.005307, 9.996777 
1.8650629e+3, 1.6362508e+2, -801882.5, -1299127.6, -9283.136, -0.019098591, -0.05592007, -801709.25, 534763.7, 0.0034790225, 10.004577, 9.997956 
1.865059e+3, 1.7362356e+2, -823695.6, -1250242.8, -29975.71, 0.008164095, -0.017668108, -821599.4, 416886.22, 0.00029456237, 10.0037, 9.99804 
1.8650547e+3, 1.8362169e+2, -831624.94, -1186797.0, -47324.344, 0.012381322, -0.013852544, -825427.4, 315075.28, 0.00000050835786, 10.0029, 9.998189 
1.86505e+3, 1.936193e+2, -837785.8, -1148000.8, -39187.62, -0.018948026, -0.073374406, -832912.06, 209613.86, 0.0, 10.002224, 9.998109 
1.8650456e+3, 2.036175e+2, -804737.2, -1008306.94, -38403.59, -0.025702346, -0.08933664, -797733.3, 146810.2, 0.0, 10.001463, 9.998762 
1.8650413e+3, 2.1361688e+2, -837658.8, -973316.56, -29611.91, 0.010535794, -0.035492774, -831476.75, 15073.205, 0.0, 10.000564, 9.998762 
1.865037e+3, 2.2361615e+2, -804612.25, -828478.94, -20847.09, 0.021211293, -0.011929993, -792524.7, -43967.17, 0.0, 9.999781, 9.999461 
1.8650322e+3, 2.3361534e+2, -792263.1, -771151.8, -32127.154, -0.018350303, -0.048877794, -747890.7, -97324.67, 0.0, 9.99919, 9.999467 
1.8650274e+3, 2.4361485e+2, -754926.06, -661051.94, -42081.69, -0.04479473, -0.057566646, -644949.7, -92378.27, 0.0, 9.998595, 9.999836 
1.8650228e+3, 2.5361514e+2, -748831.06, -612193.94, -26680.043, -0.030635184, -0.018362636, -607169.1, -152599.45, 0.0, 9.997986, 9.999792 
1.8650185e+3, 2.6361546e+2, -698693.06, -455461.1, -12686.69, -0.0060368683, 0.0072485283, -454801.16, -98234.0, 0.0, 9.997304, 10.000524 
1.865014e+3, 2.7361593e+2, -719112.3, -412352.2, -18609.703, -0.008651961, -0.006654925, -411227.34, -152664.39, 0.0, 9.996482, 10.000543 
1.8650089e+3, 2.8361654e+2, -699835.94, -280233.9, -1348.6108, -0.08421939, -0.026327126, -280229.56, -119672.04, 0.0, 9.995629, 10.001188 
1.865004e+3, 2.9361773e+2, -709665.4, -230747.11, -15988.081, -0.169445, -0.03450636, -230213.97, -167667.55, 0.0, 9.994876, 10.001218 
1.8650018e+3, 3.0361986e+2, -711019.06, -193000.17, -44913.348, 0.0789814, 0.055361733, -189134.92, -189134.92, 0.0, 9.994481, 10.001329 
1.8649955e+3, 3.136211e+2, -692473.9, -64984.773, 47340.227, -0.056646314, 0.049985796, -61433.34, -61433.34, 0.0, 9.994087, 10.002402 
1.8750848e+3, 1.2364203e+2, -973714.1, -1773418.5, -24391.004, -0.09891268, -0.0061279773, -972970.9, 755336.7, 0.0924975, 10.007573, 9.995949 
1.8750827e+3, 1.3363838e+2, -969522.7, -1736545.0, -31001.285, 0.12918758, 0.02288483, -968271.7, 662073.75, 0.0637199, 10.006706, 9.995951 
1.8750757e+3, 1.4363478e+2, -868204.3, -1499924.6, -53502.58, -0.11000442, 0.015066844, -863705.06, 668676.06, 0.035854034, 10.005955, 9.997268 
1.8750717e+3, 1.536321e+2, -840889.2, -1430262.9, -24902.14, -0.06729665, 0.0024590786, -839838.94, 594565.94, 0.014905437, 10.005309, 9.997376 
1.8750674e+3, 1.6362937e+2, -828608.3, -1354676.8, -40843.086, -0.029246267, -0.015803443, -825456.2, 510973.78, 0.0037905101, 10.004576, 9.997576 
1.8750624e+3, 1.7362663e+2, -860919.25, -1329346.6, -62185.527, -0.016505165, -0.047980525, -852804.44, 385651.6, 0.00033571984, 10.003707, 9.997496 
1.8750575e+3, 1.8362436e+2, -822576.2, -1169789.4, -72852.2, -0.0053543057, -0.05801826, -807909.9, 332567.9, 0.000000733184, 10.002906, 9.998304 
1.8750525e+3, 1.9362299e+2, -821997.1, -1116504.4, -63509.34, 0.005302989, -0.035788737, -808885.4, 233605.61, 0.0, 10.002228, 9.998323 
1.8750472e+3, 2.036216e+2, -786457.06, -971320.56, -70274.94, 0.0015108951, -0.034870733, -762775.94, 181728.05, 0.0, 10.001465, 9.999016 
1.8750416e+3, 2.1362029e+2, -819025.1, -935950.4, -62303.504, -0.023907643, -0.07578972, -792050.06, 54465.445, 0.0, 10.000567, 9.999018 
1.8750362e+3, 2.2361934e+2, -821068.06, -863640.0, -43647.09, -0.022303358, -0.07894127, -793793.2, -45268.08, 0.0, 9.9997835, 9.999219 
1.8750316e+3, 2.3361912e+2, -814449.1, -818227.06, -52848.984, 0.01652509, -0.023448002, -763455.4, -112925.3, 0.0, 9.999193, 9.999143 
1.8750265e+3, 2.43619e+2, -727386.06, -604705.8, -63839.06, 0.0035141106, 0.005032128, -577513.25, -24980.557, 0.0, 9.998597, 10.000223 
1.8750204e+3, 2.536191e+2, -713735.75, -541048.2, -48482.457, -0.077027276, -0.020121923, -528367.75, -73837.47, 0.0, 9.997991, 10.000278 
1.8750152e+3, 2.636193e+2, -705340.7, -470817.9, -41948.668, -0.07204564, -0.03386477, -463540.44, -107012.06, 0.0, 9.997309, 10.000417 
1.8750107e+3, 2.7361974e+2, -731253.56, -439570.9, -49804.93, 0.024382876, -0.028702905, -431301.16, -172776.0, 0.0, 9.996489, 10.000354 
1.875005e+3, 2.836207e+2, -700368.6, -282038.97, -31463.06, -0.03894945, -0.004289415, -279685.84, -119168.664, 0.0, 9.995631, 10.001176 
1.8749984e+3, 2.9362237e+2, -710061.8, -232087.08, -40494.09, -0.23278692, 0.035433482, -228680.7, -166179.08, 0.0, 9.994876, 10.001209 
1.8749957e+3, 3.036237e+2, -693560.6, -160287.67, -54579.055, 0.04318189, 0.038154867, -154758.97, -154758.97, 0.0, 9.994492, 10.001552 
1.87499e+3, 3.1362492e+2, -688142.25, -61419.99, -15511.386, -0.015469719, 0.004156827, -61036.316, -61036.316, 0.0, 9.994109, 10.002417 
1.8850927e+3, 1.2364703e+2, -949383.5, -1773219.9, -46135.86, -0.07441774, 0.02782368, -946807.9, 781451.44, 0.09725414, 10.0078535, 9.995816 
1.8850894e+3, 1.3364272e+2, -909058.7, -1721879.0, 14449.775, 0.10601029, 0.0070740804, -908801.9, 721501.44, 0.06718015, 10.007247, 9.99579 
1.8850818e+3, 1.4363895e+2, -794527.56, -1460803.5, 8020.0654, -0.1255365, -0.010629464, -794431.0, 737909.5, 0.03798632, 10.00648, 9.997293 
1.8850772e+3, 1.536368e+2, -826126.06, -1417292.9, -3226.2983, -0.0481935, 0.023238055, -826108.44, 608250.8, 0.015937652, 10.005393, 9.997426 
1.8850721e+3, 1.636342e+2, -846040.6, -1370684.0, -27785.617, -0.0022467421, 0.02001937, -844573.2, 491809.78, 0.0041300547, 10.00449, 9.997506 
1.885066e+3, 1.73631e+2, -841855.75, -1330674.3, -16474.143, -0.029067686, -0.04987083, -841301.2, 397112.75, 0.0003836056, 10.003884, 9.9974 
1.8850602e+3, 1.8362854e+2, -786870.94, -1144319.8, -13690.422, -0.03236353, -0.07419906, -786347.4, 354090.03, 0.0000010250507, 10.003118, 9.998376 
1.8850547e+3, 1.9362754e+2, -835709.06, -1112711.3, -14344.377, 0.006593897, -0.026027927, -834968.25, 207478.58, 0.0, 10.00209, 9.998415 
1.8850487e+3, 2.0362629e+2, -812760.4, -981087.5, -27931.254, 0.013027669, -0.014668473, -808246.6, 136211.38, 0.0, 10.001274, 9.99904 
1.885042e+3, 2.1362484e+2, -782697.4, -917437.5, -38233.617, -0.03342721, -0.072997175, -772604.3, 73866.72, 0.0, 10.000814, 9.999026 
1.8850361e+3, 2.2362378e+2, -768847.1, -839795.44, -26722.588, -0.038824566, -0.08643434, -759908.3, -11426.634, 0.0, 10.00015, 9.999206 
1.8850307e+3, 2.336236e+2, -823806.44, -824555.8, -14692.339, 0.017350335, -0.02568102, -809484.0, -158997.56, 0.0, 9.999139, 9.999125 
1.8850249e+3, 2.4362358e+2, -763179.9, -609376.25, -14259.229, 0.010375225, 0.010008492, -608065.44, -55577.406, 0.0, 9.9983, 10.000333 
1.8850182e+3, 2.5362384e+2, -739678.9, -539546.7, -25042.057, -0.08236783, -0.010709833, -536460.8, -81977.03, 0.0, 9.997754, 10.000402 
1.8850122e+3, 2.6362404e+2, -725101.2, -478340.22, -35219.703, -0.08252711, -0.030762354, -473411.8, -116930.08, 0.0, 9.997168, 10.000432 
1.885007e+3, 2.736244e+2, -732494.5, -440326.25, -31546.924, 0.016586674, -0.0371643, -436958.78, -178478.7, 0.0, 9.996484, 10.000349 
1.8850006e+3, 2.8362554e+2, -693119.75, -257756.8, -5174.1685, -0.043637946, -0.0009018615, -257695.31, -97225.086, 0.0, 9.995595, 10.001359 
1.8849932e+3, 2.9362765e+2, -752708.5, -233068.83, 4954.07, -0.21907426, 0.06300058, -233021.61, -170571.86, 0.0, 9.994502, 10.001381 
1.8849902e+3, 3.0362856e+2, -762042.6, -195700.63, 14035.2705, 0.056047373, 0.0133652575, -195353.02, -195353.02, 0.0, 9.994033, 10.001529 
1.8849836e+3, 3.1362987e+2, -703729.56, -53626.414, -20382.154, -0.050704356, -0.007455871, -52988.016, -52988.016, 0.0, 9.993942, 10.002547 
1.895101e+3, 1.2365252e+2, -917343.0, -1693340.4, -77889.805, -0.025128726, 0.08767698, -909602.1, 818606.94, 0.10220754, 10.007855, 9.996388 
1.8950962e+3, 1.3364802e+2, -873614.1, -1635781.5, -5088.9233, 0.04941111, -0.011237658, -873580.2, 756671.06, 0.070793815, 10.007244, 9.996382 
1.8950877e+3, 1.4364417e+2, -819138.4, -1509019.4, -28806.018, -0.18535891, -0.055648465, -817937.7, 714350.1, 0.04022455, 10.006479, 9.996952 
1.8950829e+3, 1.5364203e+2, -859707.9, -1489081.6, -42995.92, -0.019594656, 0.027674912, -856784.2, 577524.1, 0.017032288, 10.005402, 9.996929 
1.8950772e+3, 1.6363955e+2, -829143.6, -1337219.0, -51824.816, 0.05984798, 0.053766914, -823911.3, 512420.75, 0.004498721, 10.004498, 9.997733 
1.89507e+3, 1.7363659e+2, -817802.5, -1281485.0, -38324.844, -0.030946882, -0.02470303, -814656.2, 423703.66, 0.00043902412, 10.003886, 9.997738 
1.8950629e+3, 1.8363418e+2, -785246.4, -1141586.0, -49932.41, -0.06980434, -0.0648203, -778381.75, 362000.5, 0.0000013628122, 10.003118, 9.998396 
1.8950565e+3, 1.9363287e+2, -837122.44, -1117394.3, -52133.367, -0.014876464, -0.04278337, -827739.25, 214654.73, 0.0, 10.002095, 9.998382 
1.89505e+3, 2.0363158e+2, -826898.0, -1012008.6, -46943.625, 0.0089012245, -0.026536917, -815673.75, 128732.22, 0.0, 10.001279, 9.998826 
1.895043e+3, 2.1363044e+2, -800067.8, -953985.94, -53913.21, -0.019709269, -0.028502652, -783062.4, 63355.035, 0.0, 10.000814, 9.9987755 
1.8950363e+3, 2.2362939e+2, -753699.5, -808976.25, -61161.848, -0.029766332, -0.03652374, -714221.2, 34206.94, 0.0, 10.00015, 9.999418 
1.8950297e+3, 2.3362869e+2, -803625.2, -784197.7, -51757.563, -0.01602386, -0.05496575, -741250.25, -90814.37, 0.0, 9.999144, 9.9994 
1.895023e+3, 2.4362853e+2, -774568.7, -634469.5, -36142.688, -0.024347797, -0.041163947, -625695.0, -73256.84, 0.0, 9.998304, 10.000159 
1.8950163e+3, 2.536293e+2, -755882.44, -574553.8, -44166.277, -0.04766742, 0.009410281, -564368.4, -109937.414, 0.0, 9.997759, 10.000161 
1.8950099e+3, 2.6362967e+2, -715135.75, -459003.94, -59249.195, -0.038291004, 0.01592016, -445962.28, -89534.2, 0.0, 9.997171, 10.000565 
1.895003e+3, 2.7362975e+2, -719324.0, -415573.25, -57580.758, -0.034189537, -0.03274338, -405024.28, -146595.55, 0.0, 9.996492, 10.000516 
1.8949956e+3, 2.8363094e+2, -665816.5, -202649.56, -45367.594, -0.09923265, -0.016838593, -198247.61, -37829.87, 0.0, 9.9956, 10.001736 
1.8949886e+3, 2.936335e+2, -727671.9, -183029.9, -31155.13, -0.12719008, 0.04721742, -181253.53, -118861.65, 0.0, 9.994508, 10.001723 
1.8949847e+3, 3.0363426e+2, -781267.2, -238408.73, 13013.918, 0.11376267, -0.01843859, -238096.94, -238096.94, 0.0, 9.994041, 10.001233 
1.8949765e+3, 3.1363592e+2, -681926.9, -9492.25, -73389.76, -0.1556734, 0.02813006, -1575.6675, -1575.6675, 0.0, 9.993947, 10.002849 
1.9051088e+3, 1.23658665e+2, -904547.75, -1674282.6, -22729.727, -0.03345807, 0.0831117, -903877.1, 824272.75, 0.10735168, 10.007937, 9.996497 
1.9051033e+3, 1.3365452e+2, -861929.94, -1617331.5, 29743.44, 0.047826666, 0.009550655, -860760.6, 769427.3, 0.07455282, 10.007305, 9.996486 
1.9050945e+3, 1.436507e+2, -801900.94, -1502452.8, -13705.028, -0.16177733, -0.03790779, -801632.9, 730590.9, 0.042562623, 10.006628, 9.996927 
1.9050884e+3, 1.5364815e+2, -812645.75, -1471225.5, 737.15, -0.031230839, 0.010193101, -812644.94, 621603.0, 0.018186532, 10.005762, 9.996877 
1.9050817e+3, 1.6364552e+2, -788567.06, -1326457.1, 5793.1704, 0.03961819, 0.029382158, -788504.6, 547768.4, 0.00489619, 10.00482, 9.997651 
1.9050738e+3, 1.7364287e+2, -839626.9, -1302373.6, -11669.074, -0.017637625, -0.010459344, -839332.8, 398966.06, 0.00050243177, 10.003782, 9.997643 
1.9050662e+3, 1.8364058e+2, -807520.3, -1144734.1, -38141.066, -0.04689006, -0.036264718, -803260.1, 337060.22, 0.000001731659, 10.0029335, 9.998462 
1.9050588e+3, 1.936391e+2, -787696.0, -1083950.4, -32800.44, -0.022289302, -0.04012112, -784107.9, 258225.05, 0.0, 10.002395, 9.9984665 
1.9050513e+3, 2.0363767e+2, -776571.44, -1001465.2, -18488.357, -0.008140987, -0.036633443, -775061.7, 169284.23, 0.0, 10.001685, 9.998702 
1.9050439e+3, 2.1363646e+2, -828905.25, -985588.4, -19143.62, -0.01154105, -0.02890462, -826600.2, 19758.45, 0.0, 10.000694, 9.998615 
1.9050364e+3, 2.2363542e+2, -791915.9, -818043.4, -28900.45, -0.014842549, -0.029812792, -773263.75, -24894.295, 0.0, 9.99985, 9.999499 
1.9050287e+3, 2.3363486e+2, -779067.94, -759722.94, -32435.115, -0.025829323, -0.047036298, -735548.8, -85173.484, 0.0, 9.999259, 9.999512 
1.905021e+3, 2.4363467e+2, -748438.8, -624758.2, -18895.24, -0.04001302, -0.04055923, -621935.94, -69558.45, 0.0, 9.998498, 10.000132 
1.9050139e+3, 2.536352e+2, -805107.1, -603762.94, -13331.093, -0.0375986, -0.0077260244, -602884.1, -148511.48, 0.0, 9.997447, 10.00011 
1.9050068e+3, 2.6363567e+2, -788505.5, -478484.34, -13127.914, -0.023484988, 0.0026982208, -477929.44, -121560.01, 0.0, 9.996602, 10.000704 
1.9049993e+3, 2.7363625e+2, -763705.6, -418731.56, -11854.623, -0.044661805, -0.013078322, -418324.66, -159958.75, 0.0, 9.996112, 10.000677 
1.9049911e+3, 2.836376e+2, -670993.6, -187372.28, -20127.074, -0.1072119, 0.0029315492, -186536.08, -26182.543, 0.0, 9.99549, 10.001892 
1.9049834e+3, 2.936399e+2, -707140.8, -162619.08, -24165.99, -0.10232743, 0.028776564, -161548.69, -99219.3, 0.0, 9.994607, 10.001815 
1.9049785e+3, 3.0364093e+2, -802711.94, -251387.39, 43120.652, 0.07201506, -0.008187059, -248035.19, -248035.19, 0.0, 9.993907, 10.001209 
1.9049703e+3, 3.1364268e+2, -749567.9, -323.57922, -56470.566, -0.14977936, 0.03806507, 3908.7024, 3908.7024, 0.0, 9.993307, 10.003219 
1.9151162e+3, 1.2366542e+2, -928945.06, -1717788.8, -52689.457, -0.10376274, 0.014012711, -925441.3, 802640.9, 0.112641566, 10.007948, 9.99616 
1.9151112e+3, 1.336622e+2, -887609.4, -1669668.4, 9844.713, 0.0973541, 0.06831998, -887485.5, 742628.1, 0.07842842, 10.007314, 9.996117 
1.9151022e+3, 1.4365847e+2, -784886.0, -1464501.5, -42491.04, -0.05990025, 0.041221008, -782239.7, 749909.25, 0.044985518, 10.006632, 9.997199 
1.9150937e+3, 1.5365513e+2, -787516.56, -1417430.4, -31008.373, -0.08294105, -0.02889432, -785993.8, 648184.5, 0.019394113, 10.005763, 9.997248 
1.9150856e+3, 1.6365212e+2, -815729.4, -1383833.6, -32035.84, -0.061393786, -0.052667957, -813928.56, 522277.94, 0.0053205625, 10.004823, 9.997257 
1.915078e+3, 1.736498e+2, -874713.8, -1377441.5, -49649.945, 0.010075151, -0.0064480244, -869857.25, 368374.1, 0.0005739007, 10.00379, 9.997126 
1.91507e+3, 1.836477e+2, -799556.25, -1130055.8, -59698.023, 0.0339223, 0.0122893425, -789103.56, 351148.4, 0.0000021934447, 10.00294, 9.998561 
1.9150612e+3, 1.9364613e+2, -774182.56, -1056702.0, -52016.586, -0.01743886, -0.018630667, -764909.8, 277354.34, 0.0, 10.002397, 9.998653 
1.9150527e+3, 2.036445e+2, -779158.06, -1007591.25, -52662.703, -0.039041143, -0.045956086, -767601.9, 176676.61, 0.0, 10.001686, 9.99866 
1.9150445e+3, 2.1364287e+2, -833824.6, -997097.44, -55175.086, -0.009137785, -0.07286757, -816927.8, 29367.48, 0.0, 10.000698, 9.998535 
1.9150364e+3, 2.2364186e+2, -794938.1, -825709.75, -51915.016, 0.0055451375, -0.064340726, -756177.0, -7870.8823, 0.0, 9.999854, 9.999446 
1.9150281e+3, 2.3364201e+2, -782314.1, -767251.5, -53222.906, -0.013080802, -0.0029279753, -721029.7, -70724.07, 0.0, 9.999261, 9.999461 
1.9150196e+3, 2.4364193e+2, -740552.6, -609240.94, -55167.805, -0.037375778, 0.009980647, -589140.3, -36833.43, 0.0, 9.9985, 10.000238 
1.9150113e+3, 2.5364152e+2, -795598.0, -585796.56, -52045.96, -0.054087874, -0.061625175, -573595.06, -119285.33, 0.0, 9.997453, 10.000231 
1.9150034e+3, 2.6364192e+2, -777263.2, -457061.3, -33807.184, -0.039660666, -0.06892031, -453530.84, -97224.266, 0.0, 9.996608, 10.000849 
1.9149958e+3, 2.7364373e+2, -751835.1, -396367.94, -29203.852, -0.014621994, 0.021030609, -393984.63, -135691.95, 0.0, 9.9961195, 10.000829 
1.914987e+3, 2.8364536e+2, -674856.9, -197126.36, -50666.375, -0.06694649, 0.05665727, -191811.98, -31533.258, 0.0, 9.995496, 10.001823 
1.9149776e+3, 2.9364672e+2, -717274.44, -187477.6, -55304.207, -0.14754392, 0.005150638, -181766.1, -119502.586, 0.0, 9.99462, 10.001639 
1.9149709e+3, 3.036486e+2, -783970.56, -215578.8, 22232.8, -0.074310035, 0.048926964, -214710.47, -214710.47, 0.0, 9.993917, 10.0014515 
1.9149645e+3, 3.136501e+2, -721471.56, 57818.88, -93795.93, -0.04797967, 0.03964818, 68949.25, 68949.25, 0.0, 9.993305, 10.00362 
1.9251242e+3, 1.2367376e+2, -843381.75, -1696314.8, -20416.344, -0.12404819, -0.0021334076, -842893.4, 885105.75, 0.11799296, 10.00876, 9.9959345 
1.9251186e+3, 1.336704e+2, -874598.56, -1686615.8, 59007.625, 0.08607617, 0.061717156, -870333.0, 759699.75, 0.08237042, 10.007545, 9.99589 
1.925109e+3, 1.436665e+2, -805249.25, -1483002.8, 6938.4194, -0.034605473, 0.033039067, -805178.25, 726892.1, 0.047468074, 10.006545, 9.9971075 
1.9250993e+3, 1.5366323e+2, -781380.94, -1422544.1, -12467.631, -0.084576294, -0.020156985, -781138.56, 652960.4, 0.020644201, 10.005851, 9.9971695 
1.9250904e+3, 1.6366015e+2, -782129.44, -1376602.1, -27435.639, -0.07534894, -0.04261267, -780865.94, 555261.75, 0.005768074, 10.005097, 9.997173 
1.9250819e+3, 1.7365752e+2, -817943.6, -1359755.1, -16383.3545, 0.0080297105, -0.020607688, -817448.7, 420706.66, 0.0006532421, 10.004225, 9.997037 
1.9250731e+3, 1.8365526e+2, -749233.06, -1118929.8, -7917.4546, 0.039302465, -0.008268413, -749063.56, 391114.06, 0.000002911813, 10.003345, 9.998441 
1.9250636e+3, 1.9365378e+2, -773271.8, -1071056.4, -22259.16, -0.012668219, -0.017534075, -771617.2, 270572.5, 0.0, 10.002468, 9.99852 
1.9250543e+3, 2.0365216e+2, -782894.6, -1004135.06, -38479.39, -0.036866143, -0.036831304, -776393.1, 167810.88, 0.0, 10.00164, 9.998705 
1.9250453e+3, 2.1365045e+2, -800557.7, -973629.06, -32758.93, -0.013678075, -0.07682541, -794564.56, 51656.313, 0.0, 10.000896, 9.9986 
1.9250363e+3, 2.2364943e+2, -764989.6, -813164.4, -19413.191, 0.00014122052, -0.07194073, -758140.4, -9908.852, 0.0, 10.00007, 9.999428 
1.9250274e+3, 2.3364964e+2, -806689.2, -782775.2, -18663.623, -0.007062052, -0.0019015638, -772566.9, -122336.09, 0.0, 9.999111, 9.999425 
1.9250181e+3, 2.4364954e+2, -767688.06, -612319.2, -22553.451, -0.02531765, 0.00800489, -609111.5, -56879.363, 0.0, 9.998273, 10.000325 
1.9250087e+3, 2.536491e+2, -762525.44, -559002.56, -22450.066, -0.050738342, -0.078311086, -556555.56, -102320.45, 0.0, 9.997635, 10.000326 
1.925e+3, 2.636497e+2, -744549.25, -434173.5, -7095.087, -0.04606018, -0.076090895, -434011.4, -77781.14, 0.0, 9.996804, 10.000911 
1.9249916e+3, 2.736519e+2, -815038.6, -420092.38, -9158.218, -0.017819602, 0.04872751, -419880.13, -161667.22, 0.0, 9.995659, 10.000886 
1.9249824e+3, 2.8365338e+2, -756176.6, -237247.14, -22425.96, -0.05309814, 0.07154036, -236279.78, -76079.54, 0.0, 9.994945, 10.001812 
1.9249724e+3, 2.9365423e+2, -684700.7, -174065.97, -18383.955, -0.12769988, -0.032501902, -173404.95, -111214.74, 0.0, 9.994858, 10.001616 
1.924964e+3, 3.0365682e+2, -727322.2, -140137.95, 53134.277, -0.14162855, 0.066767655, -135368.56, -135368.56, 0.0, 9.994102, 10.00188 
1.9249576e+3, 3.1365857e+2, -874364.94, -20670.314, -56826.418, -0.011883431, 0.035607502, -16904.262, -16904.262, 0.0, 9.992278, 10.003575 
1.9351333e+3, 1.2368359e+2, -857071.44, -1712835.5, -64015.145, -0.10360035, 0.027640924, -852309.3, 875592.4, 0.12331664, 10.008754, 9.99581 
1.9351254e+3, 1.3367915e+2, -883177.2, -1700195.5, 17602.826, 0.0154592935, -0.007068539, -882798.1, 747147.25, 0.0863216, 10.007553, 9.9957905 
1.935115e+3, 1.4367476e+2, -835462.9, -1546103.4, -19547.783, -0.083543286, -0.058744065, -834925.56, 697062.8, 0.049979392, 10.006557, 9.996654 
1.9351058e+3, 1.5367246e+2, -815866.5, -1496247.8, -36821.44, -0.03890752, 0.03477371, -813879.56, 620130.56, 0.021922806, 10.005859, 9.996659 
1.9350961e+3, 1.6366962e+2, -767708.4, -1347168.0, -58292.02, -0.007041951, 0.05681631, -761902.56, 574134.4, 0.0062339716, 10.005101, 9.9973755 
1.9350858e+3, 1.7366597e+2, -795886.56, -1314953.9, -48438.387, -0.024392635, -0.052181948, -791405.1, 446666.22, 0.0007401896, 10.004228, 9.997344 
1.9350758e+3, 1.8366316e+2, -772332.0, -1168006.5, -40186.316, -0.02964342, -0.09658254, -768291.8, 371806.1, 0.0000041218373, 10.003347, 9.998104 
1.9350661e+3, 1.9366194e+2, -803138.06, -1134404.6, -53811.285, -0.008013015, -0.03663332, -794616.1, 247493.78, 0.0, 10.002472, 9.998084 
1.9350563e+3, 2.0366058e+2, -774853.56, -988649.5, -65896.88, -0.0027755394, -0.009456485, -756174.56, 187948.38, 0.0, 10.001643, 9.998811 
1.9350462e+3, 2.1365915e+2, -787479.44, -946579.9, -59215.88, -0.026428375, -0.04094173, -767859.3, 78276.836, 0.0, 10.000895, 9.998788 
1.9350362e+3, 2.2365808e+2, -763591.7, -810917.5, -53343.332, -0.03183742, -0.053039428, -728898.44, 19248.102, 0.0, 10.000071, 9.999444 
1.9350263e+3, 2.3365769e+2, -807084.25, -784809.4, -53296.59, -0.008867706, -0.043068916, -741498.94, -91347.445, 0.0, 9.999114, 9.999411 
1.9350167e+3, 2.4365747e+2, -763458.9, -605161.6, -47128.496, -0.004954199, -0.044858824, -592192.94, -40038.996, 0.0, 9.998278, 10.000374 
1.9350067e+3, 2.5365782e+2, -757317.3, -550120.0, -45439.543, -0.027494682, -0.059606228, -540592.94, -86442.92, 0.0, 9.997641, 10.000385 
1.9349968e+3, 2.636588e+2, -745862.2, -437911.66, -47399.94, -0.042327907, -0.02070446, -430780.94, -74639.4, 0.0, 9.996807, 10.000884 
1.9349869e+3, 2.736606e+2, -818360.25, -428155.38, -51254.785, -0.057900764, 0.07111969, -421535.2, -163407.66, 0.0, 9.995662, 10.00083 
1.934977e+3, 2.8366166e+2, -752044.9, -231050.25, -29822.092, -0.06926311, 0.04869247, -229348.78, -69229.695, 0.0, 9.994952, 10.001853 
1.9349681e+3, 2.9366222e+2, -672087.1, -153626.39, -21117.807, -0.04177895, -0.08629935, -152767.66, -90656.77, 0.0, 9.994879, 10.001747 
1.9349584e+3, 3.0366555e+2, -681221.75, -46958.37, -7167.254, -0.12697215, 0.041848153, -46877.39, -46877.39, 0.0, 9.994111, 10.002515 
1.9349493e+3, 3.1366846e+2, -908060.44, -91738.78, -97915.42, -0.073927075, 0.07144012, -80158.39, -80158.39, 0.0, 9.99228, 10.003089 
1.9451421e+3, 1.2369358e+2, -904488.94, -1745388.0, -57243.33, -0.074486546, 0.02385593, -900610.06, 827193.8, 0.12856223, 10.008469, 9.995713 
1.9451328e+3, 1.336893e+2, -810905.4, -1663912.3, 30995.252, -0.03319325, 0.008933928, -809780.56, 820065.4, 0.090242006, 10.008139, 9.995758 
1.9451217e+3, 1.4368474e+2, -725749.25, -1513048.9, -3414.369, -0.11605882, -0.048697136, -725734.44, 806156.25, 0.052493256, 10.007466, 9.9964485 
1.9451119e+3, 1.536821e+2, -792587.7, -1509769.6, -3801.0852, -0.020674888, 0.03443045, -792567.5, 641348.56, 0.023216795, 10.006142, 9.9964285 
1.9451016e+3, 1.6367911e+2, -775928.2, -1347363.1, -11854.572, 0.026748298, 0.052494537, -775682.4, 560261.94, 0.006713776, 10.005034, 9.997403 
1.94509e+3, 1.7367557e+2, -778497.5, -1299230.0, -18443.36, -0.03471365, -0.0522766, -777845.06, 460131.78, 0.00083432574, 10.004318, 9.997407 
1.9450788e+3, 1.8367276e+2, -760204.4, -1180794.9, -18964.783, -0.057782117, -0.09332996, -759351.0, 380652.4, 0.0000060577904, 10.003512, 9.997935 
1.9450685e+3, 1.9367138e+2, -806610.94, -1158929.0, -17663.871, -0.009261746, -0.030140912, -805727.5, 236290.56, 0.0, 10.002549, 9.997877 
1.9450581e+3, 2.0366992e+2, -775573.4, -985929.25, -19070.404, 0.010474699, -0.0008732996, -773858.44, 170173.89, 0.0, 10.001628, 9.998836 
1.945047e+3, 2.1366854e+2, -799592.94, -946114.0, -21627.707, -0.02074011, -0.033955585, -796467.2, 49577.453, 0.0, 10.000786, 9.998842 
1.9450362e+3, 2.2366744e+2, -782545.5, -821831.25, -25355.58, -0.033183362, -0.04904706, -770114.25, -22059.457, 0.0, 9.99995, 9.999425 
1.9450255e+3, 2.3366697e+2, -808078.06, -788801.1, -28143.773, -0.014414264, -0.042937018, -768691.1, -118630.52, 0.0, 9.9991255, 9.999376 
1.9450149e+3, 2.4366678e+2, -769052.8, -605007.6, -21318.215, -0.004215838, -0.042366784, -602282.5, -50219.484, 0.0, 9.998229, 10.000397 
1.9450043e+3, 2.5366724e+2, -816835.94, -575577.7, -21212.451, -0.007313782, -0.046220675, -573726.8, -119669.02, 0.0, 9.99722, 10.000412 
1.9449936e+3, 2.6366815e+2, -793022.7, -462305.28, -21187.787, -0.03018179, -0.013480077, -460953.38, -104903.63, 0.0, 9.996492, 10.000867 
1.9449824e+3, 2.7366966e+2, -744675.8, -396273.34, -23931.705, -0.08788395, 0.0477698, -394637.16, -136598.6, 0.0, 9.996187, 10.000794 
1.944972e+3, 2.8367072e+2, -685099.6, -196883.39, -4229.4824, -0.0900722, 0.029331533, -196846.77, -36817.117, 0.0, 9.995406, 10.001868 
1.944963e+3, 2.9367188e+2, -808633.2, -205660.8, 1775.4854, 0.0048179636, -0.051122602, -205655.56, -143639.8, 0.0, 9.993886, 10.001867 
1.944952e+3, 3.036748e+2, -815613.8, -72736.95, 1741.3397, -0.11345871, 0.007991085, -72732.87, -72732.87, 0.0, 9.993026, 10.00286 
1.9449419e+3, 3.1367826e+2, -804639.5, -79905.37, -78168.74, -0.09052819, 0.06783213, -71570.06, -71570.06, 0.0, 9.9931555, 10.002747 
1.9551508e+3, 1.2370373e+2, -912932.3, -1757501.6, -69448.516, -0.04473179, -0.014788397, -907259.7, 820446.2, 0.13373101, 10.00848, 9.995627 
1.9551407e+3, 1.3370083e+2, -812194.75, -1659701.8, 20957.533, -0.061840586, 0.105555296, -811676.9, 818058.1, 0.09412615, 10.008141, 9.995787 
1.955129e+3, 1.436964e+2, -727002.56, -1511203.6, -45248.33, -0.13378258, 0.057982795, -724400.4, 807377.56, 0.055001143, 10.007463, 9.996465 
1.9551179e+3, 1.5369217e+2, -791381.0, -1507288.1, -52376.973, -0.030122884, -0.018797843, -787569.3, 646247.56, 0.024519414, 10.006148, 9.996444 
1.9551066e+3, 1.6368863e+2, -784401.44, -1367582.9, -40778.082, 0.026617698, -0.051054426, -781563.9, 554286.0, 0.0072042034, 10.005046, 9.997261 
1.9550945e+3, 1.7368625e+2, -789162.7, -1323798.1, -44042.336, -0.023783568, -0.022305798, -785558.9, 452313.75, 0.0009348644, 10.004327, 9.997236 
1.9550826e+3, 1.8368396e+2, -760758.9, -1183260.6, -52812.2, -0.04742703, -0.0017287491, -754257.44, 385637.38, 0.00000884908, 10.003516, 9.997918 
1.9550711e+3, 1.9368196e+2, -806105.2, -1158688.0, -52643.617, -0.017829062, 0.0023776137, -798412.9, 243501.88, 0.0, 10.002551, 9.997879 
1.9550596e+3, 2.0368008e+2, -779603.94, -995476.9, -50184.03, 0.0022051448, -0.010107199, -768508.0, 175424.94, 0.0, 10.00163, 9.99877 
1.955048e+3, 2.1367848e+2, -804288.5, -957194.25, -51706.953, 0.0026034121, -0.055974513, -788444.9, 57502.344, 0.0, 10.00079, 9.998765 
1.9550362e+3, 2.2367744e+2, -786251.0, -831040.9, -55299.73, -0.004969517, -0.060019597, -748983.6, -1026.4695, 0.0, 9.999954, 9.999361 
1.9550246e+3, 2.3367743e+2, -812295.94, -798386.1, -57899.426, -0.024160685, -0.0017598529, -747025.44, -97066.484, 0.0, 9.999127, 9.9993105 
1.955013e+3, 2.4367735e+2, -769146.56, -606282.1, -57499.27, -0.02358033, 0.015041769, -588028.0, -36067.7, 0.0, 9.998232, 10.000387 
1.9550017e+3, 2.536773e+2, -816722.94, -576858.25, -58119.04, 0.0072775264, -0.037335314, -563518.0, -109558.63, 0.0, 9.997225, 10.000402 
1.9549902e+3, 2.6367775e+2, -794056.25, -465918.53, -35060.363, -0.011739363, -0.053272754, -462214.25, -106258.48, 0.0, 9.996496, 10.000841 
1.9549784e+3, 2.736789e+2, -744740.2, -400434.13, -34841.45, -0.10753835, -0.02461872, -396943.78, -138996.31, 0.0, 9.9962015, 10.00076 
1.9549672e+3, 2.8368044e+2, -684420.3, -198230.63, -57352.29, -0.11536417, 0.011962293, -191556.8, -31623.512, 0.0, 9.995416, 10.001855 
1.954957e+3, 2.936831e+2, -802203.9, -192215.39, -55624.313, 0.0070533645, 0.07783274, -187184.55, -125278.9, 0.0, 9.993883, 10.001962 
1.9549452e+3, 3.0368432e+2, -814575.56, -70283.0, -844.7128, -0.102113694, -0.04020706, -70282.04, -70282.04, 0.0, 9.993022, 10.002879 
1.9549352e+3, 3.1368732e+2, -804808.25, -90976.74, -30210.379, -0.07736115, -0.018720722, -89700.48, -89700.48, 0.0, 9.9931965, 10.002653 
1.9651595e+3, 1.2371522e+2, -844497.7, -1719739.8, -41300.555, -0.060252607, 0.0022776804, -842553.1, 885041.3, 0.13885382, 10.009078, 9.995601 
1.9651487e+3, 1.3371237e+2, -833303.6, -1655187.9, 53793.58, -0.059118442, 0.11661718, -829797.7, 799824.5, 0.09799621, 10.007949, 9.995911 
1.9651365e+3, 1.4370792e+2, -783719.6, -1533376.4, -12015.293, -0.09847672, 0.057639226, -783527.1, 748137.75, 0.057513054, 10.007051, 9.996499 
1.965124e+3, 1.5370356e+2, -738905.56, -1479760.9, -20832.627, -0.049674176, -0.033970673, -738320.25, 695384.6, 0.025831401, 10.006522, 9.996451 
1.9651116e+3, 1.6369995e+2, -689937.94, -1335893.4, -9005.439, -0.01095392, -0.066049434, -689812.44, 645925.94, 0.0077030296, 10.005765, 9.997131 
1.965099e+3, 1.7369765e+2, -755864.8, -1324062.3, -11931.442, -0.019382995, -0.013573548, -755614.4, 482146.3, 0.0010404148, 10.004631, 9.997086 
1.9650863e+3, 1.8369533e+2, -751752.75, -1180452.3, -20225.258, -0.02466211, 0.012408078, -750800.7, 388982.75, 0.000012479297, 10.003589, 9.9979 
1.9650738e+3, 1.9369309e+2, -783409.8, -1148054.0, -20842.615, -0.015541747, -0.0077409856, -782222.4, 259582.86, 0.0, 10.00271, 9.997873 
1.9650613e+3, 2.036911e+2, -760215.25, -997736.5, -18304.576, -0.0063370075, -0.026196493, -758812.9, 185011.56, 0.0, 10.001816, 9.998664 
1.9650488e+3, 2.1368961e+2, -798481.56, -967908.1, -24225.535, -0.0010424643, -0.049024023, -795085.7, 50752.67, 0.0, 10.000891, 9.998642 
1.9650362e+3, 2.2368854e+2, -782803.25, -828844.75, -26819.787, -0.0045580072, -0.04757848, -770479.2, -22630.47, 0.0, 9.999979, 9.999363 
1.9650237e+3, 2.3368834e+2, -815869.0, -798008.25, -23504.6, -0.020615075, -0.010397103, -781794.7, -131942.83, 0.0, 9.999095, 9.999328 
1.9650112e+3, 2.4368821e+2, -769170.06, -617070.25, -22370.102, -0.020812435, 0.0055673798, -613848.44, -61994.86, 0.0, 9.998281, 10.000289 
1.964999e+3, 2.5368834e+2, -775254.56, -569577.3, -32210.18, 0.0026931518, -0.019596925, -564651.0, -110799.055, 0.0, 9.997569, 10.000284 
1.9649868e+3, 2.6368865e+2, -757111.2, -439327.97, -4782.8423, -0.013498011, -0.040389646, -439256.0, -83406.67, 0.0, 9.9967165, 10.0009165 
1.9649746e+3, 2.736895e+2, -825335.3, -427942.94, 5265.129, -0.08715726, -0.05188323, -427873.2, -170030.22, 0.0, 9.995603, 10.000858 
1.9649625e+3, 2.8369126e+2, -792791.0, -264839.38, -24746.35, -0.09503356, 0.0029991877, -263682.0, -103855.23, 0.0, 9.994737, 10.001723 
1.9649509e+3, 2.9369444e+2, -749254.6, -180537.42, -35408.594, -0.014584385, 0.13801327, -178341.34, -116546.34, 0.0, 9.994309, 10.001835 
1.9649385e+3, 3.0369446e+2, -762870.25, -80847.7, 5052.0513, -0.10117765, -0.0772033, -80810.28, -80810.28, 0.0, 9.993531, 10.00256 
1.9649282e+3, 3.1369773e+2, -922556.1, -98314.125, -5445.7153, -0.044594932, 0.004342556, -98278.14, -98278.14, 0.0, 9.992179, 10.003093 
1.975168e+3, 1.2372796e+2, -847295.3, -1715615.4, -73267.93, -0.12136227, 0.06803214, -841156.44, 886314.25, 0.14397165, 10.009081, 9.995633 
1.9751568e+3, 1.3372396e+2, -822789.06, -1623439.8, 15637.431, -0.028759481, 0.047458496, -822483.75, 807023.7, 0.10188138, 10.007949, 9.99613 
1.9751444e+3, 1.4371932e+2, -783103.9, -1529554.0, -32038.168, -0.015636057, -0.042812344, -781731.25, 749819.7, 0.060044784, 10.007057, 9.996526 
1.9751303e+3, 1.5371618e+2, -739475.94, -1481203.4, -39038.574, -0.079597056, -0.012509202, -737426.94, 696153.56, 0.027157582, 10.006529, 9.99644 
1.9751166e+3, 1.6371298e+2, -698655.2, -1354842.8, -48463.285, -0.08507834, 0.0034749715, -695095.2, 640515.4, 0.008209356, 10.005769, 9.997001 
1.9751035e+3, 1.7370974e+2, -765637.4, -1345699.0, -53959.953, -0.022408027, -0.02496757, -760660.44, 476981.22, 0.001149277, 10.004635, 9.996936 
1.9750902e+3, 1.8370682e+2, -752649.56, -1184013.5, -53407.508, 0.009102163, -0.04790078, -746135.5, 393534.06, 0.00001674632, 10.003594, 9.997875 
1.9750765e+3, 1.9370465e+2, -782960.0, -1149245.1, -52519.84, -0.0030249346, -0.059894573, -775578.2, 266112.06, 0.0, 10.002718, 9.997864 
1.975063e+3, 2.0370288e+2, -770358.0, -1020576.25, -51733.48, -0.015793506, -0.04972009, -760083.75, 183623.92, 0.0, 10.0018215, 9.998506 
1.9750494e+3, 2.137018e+2, -811306.7, -995063.6, -57475.613, -0.032149352, -0.012653231, -794810.4, 50908.535, 0.0, 10.000891, 9.998456 
1.975036e+3, 2.2370067e+2, -778250.25, -820421.0, -58982.305, -0.032470252, -0.011242996, -736697.75, 11032.477, 0.0, 9.999981, 9.999421 
1.9750229e+3, 2.3369959e+2, -808643.44, -784665.0, -55251.67, -0.0053801243, -0.06906075, -740116.75, -90376.47, 0.0, 9.9991, 9.999418 
1.9750097e+3, 2.4369927e+2, -782556.9, -646454.8, -49224.18, 0.0029581706, -0.0701499, -630518.0, -78774.17, 0.0, 9.998285, 10.000086 
1.9749963e+3, 2.5370017e+2, -791478.7, -605500.1, -58161.234, -0.021790756, 0.0066389637, -588809.25, -135072.55, 0.0, 9.997576, 10.000035 
1.9749832e+3, 2.637008e+2, -743721.8, -413681.47, -44796.285, -0.036132507, 0.024656449, -407709.34, -51977.746, 0.0, 9.996724, 10.00109 
1.9749707e+3, 2.7370143e+2, -808910.2, -395261.47, -37324.13, -0.028061412, -0.03386612, -391920.63, -134194.56, 0.0, 9.995606, 10.001082 
1.9749579e+3, 2.83703e+2, -811708.5, -304433.4, -44322.35, -0.030489614, 0.0033786055, -300589.94, -140878.78, 0.0, 9.994736, 10.001452 
1.9749446e+3, 2.9370573e+2, -772537.4, -234458.28, -49848.01, -0.06428236, 0.12585887, -229879.3, -168193.69, 0.0, 9.99433, 10.001455 
1.974932e+3, 3.0370504e+2, -808658.75, -181282.36, -46885.715, -0.11046985, -0.101266995, -177797.8, -177797.8, 0.0, 9.993553, 10.001861 
1.974921e+3, 3.137083e+2, -855498.56, 39401.246, -38437.152, 0.010042988, 0.041295804, 41049.137, 41049.137, 0.0, 9.992182, 10.004039 
1.9851771e+3, 1.23740956e+2, -862429.56, -1714462.8, -36561.855, -0.11235265, 0.06248421, -860863.5, 866479.56, 0.14912653, 10.008975, 9.995692 
1.9851647e+3, 1.3373695e+2, -793701.75, -1586763.4, 45043.836, -0.038825747, 0.021524524, -791151.56, 838227.1, 0.10580424, 10.0081, 9.99634 
1.9851518e+3, 1.4373243e+2, -764339.9, -1537432.5, 4448.5874, -0.004978927, -0.06174208, -764314.3, 767106.5, 0.062606975, 10.007292, 9.996357 
1.9851369e+3, 1.5372925e+2, -754708.25, -1513419.0, -16285.421, -0.08189631, -0.011209266, -754358.9, 679093.06, 0.028502341, 10.006541, 9.99621 
1.9851223e+3, 1.6372599e+2, -704243.5, -1356260.6, -42267.957, -0.091778114, 0.009097911, -701514.8, 633968.56, 0.008723493, 10.0057335, 9.997005 
1.9851083e+3, 1.7372254e+2, -733208.5, -1326089.3, -37398.184, -0.018628297, -0.04086657, -730858.8, 506656.8, 0.0012600906, 10.004845, 9.996968 
1.985094e+3, 1.8371956e+2, -708321.0, -1171148.9, -27535.027, 0.01626621, -0.06950999, -706688.6, 432855.28, 0.000021312582, 10.003938, 9.997797 
1.9850793e+3, 1.9371748e+2, -747784.94, -1142455.4, -32780.832, -0.0058618584, -0.06217492, -745080.75, 296483.16, 0.0, 10.003006, 9.997769 
1.9850647e+3, 2.0371567e+2, -749554.6, -1020393.56, -37677.9, -0.024235843, -0.04584466, -744410.7, 199171.17, 0.0, 10.002009, 9.998415 
1.9850501e+3, 2.1371436e+2, -815390.4, -1007543.9, -38390.137, -0.037957735, -0.023285812, -808004.4, 37591.24, 0.0, 10.000911, 9.998361 
1.9850358e+3, 2.2371313e+2, -778636.75, -816881.9, -29552.908, -0.03664268, -0.026300604, -762559.25, -14951.479, 0.0, 9.999964, 9.999453 
1.985022e+3, 2.3371223e+2, -781914.1, -765539.94, -27930.406, -0.009438331, -0.07286021, -744621.44, -95005.664, 0.0, 9.99926, 9.999471 
1.9850081e+3, 2.4371192e+2, -767250.2, -648118.75, -22473.273, -0.00234596, -0.070716895, -644020.3, -92401.15, 0.0, 9.998433, 10.000001 
1.9849938e+3, 2.5371262e+2, -823977.44, -632716.0, -20745.107, -0.030100938, -0.0034353973, -630491.75, -176876.97, 0.0, 9.997405, 9.999929 
1.9849798e+3, 2.637133e+2, -778121.4, -420505.56, -7909.375, -0.037074376, 0.018922364, -420330.72, -64721.055, 0.0, 9.996448, 10.001175 
1.9849665e+3, 2.7371427e+2, -800952.5, -378627.7, -11019.161, -0.0058275936, -0.012668762, -378340.38, -120740.61, 0.0, 9.995611, 10.001191 
1.9849527e+3, 2.8371578e+2, -801518.7, -301715.66, -1972.8481, -0.012438441, 0.015480825, -301707.88, -142122.73, 0.0, 9.99482, 10.001429 
1.9849385e+3, 2.9371783e+2, -830634.3, -274416.25, 15803.2, -0.08431181, 0.07634683, -273967.6, -212400.64, 0.0, 9.993987, 10.001345 
1.9849256e+3, 3.037177e+2, -915510.1, -279961.97, 20253.6, -0.071444556, -0.06725034, -279317.2, -279317.2, 0.0, 9.993025, 10.001437 
1.9849129e+3, 3.137202e+2, -826301.2, 116554.39, 47691.957, 0.005056959, 0.032354426, 118960.63, 118960.63, 0.0, 9.992111, 10.0046015 
1.9951868e+3, 1.2375423e+2, -864606.6, -1709518.6, -55707.17, -0.047104318, -0.011009668, -860949.56, 866262.0, 0.1543511, 10.008981, 9.995731 
1.9951725e+3, 1.3375129e+2, -783583.56, -1562605.3, 16189.661, -0.088178545, 0.03747666, -783247.25, 845989.2, 0.10978336, 10.00812, 9.996518 
1.9951585e+3, 1.4374714e+2, -787297.25, -1588856.6, -22651.855, -0.06208351, -0.0026659095, -786657.6, 744617.6, 0.06520932, 10.007311, 9.995997 
1.9951436e+3, 1.5374275e+2, -784653.7, -1576990.8, -43314.336, -0.05867674, -0.029370323, -782292.9, 651026.56, 0.029870367, 10.006545, 9.995773 
1.9951285e+3, 1.6373892e+2, -696501.06, -1339874.5, -73564.805, -0.035995457, -0.045764714, -688196.7, 647160.2, 0.00924682, 10.005733, 9.99712 
1.9951133e+3, 1.7373602e+2, -718897.0, -1298102.6, -69504.01, -0.008989612, -0.060851466, -710673.4, 526709.5, 0.0013724371, 10.00485, 9.997159 
1.9950978e+3, 1.8373343e+2, -716796.2, -1190303.0, -61515.777, -0.0030391866, -0.05428704, -708934.9, 430472.22, 0.000025832665, 10.0039425, 9.997664 
1.9950822e+3, 1.937315e+2, -760343.2, -1169288.6, -66361.97, -0.024333997, -0.015568627, -749843.8, 291583.0, 0.0, 10.003008, 9.997586 
1.9950667e+3, 2.0372942e+2, -752137.9, -1026866.6, -77132.414, -0.032295465, -0.01477664, -731963.75, 211484.0, 0.0, 10.002012, 9.998371 
1.9950512e+3, 2.1372719e+2, -816326.94, -1011232.4, -78113.94, -0.020052476, -0.080288194, -788884.44, 56584.88, 0.0, 10.000916, 9.998334 
1.995036e+3, 2.2372586e+2, -777096.4, -815687.06, -56670.516, -0.01830601, -0.09215267, -736526.4, 10955.708, 0.0, 9.9999695, 9.999459 
1.995021e+3, 2.3372613e+2, -781168.9, -765338.3, -52947.125, -0.033152647, -0.021813275, -719718.1, -70238.77, 0.0, 9.999263, 9.999472 
1.995006e+3, 2.4372606e+2, -765104.0, -644892.7, -59097.367, -0.037392795, 0.0034693782, -620706.06, -69225.45, 0.0, 9.998436, 10.000023 
1.9949912e+3, 2.5372556e+2, -820831.44, -628080.0, -58797.695, -0.023789799, -0.051347896, -611559.94, -158072.64, 0.0, 9.997411, 9.99996 
1.9949764e+3, 2.6372597e+2, -778969.5, -423930.25, -40478.086, -0.01649778, -0.057369124, -419373.8, -63889.246, 0.0, 9.996452, 10.00115 
1.994962e+3, 2.7372792e+2, -801551.7, -383941.38, -41990.023, -0.023386477, 0.012526649, -379761.2, -122295.95, 0.0, 9.9956255, 10.00115 
1.9949472e+3, 2.8372952e+2, -783650.44, -267548.7, -33649.0, -0.044461757, 0.037866075, -265364.06, -105913.875, 0.0, 9.994831, 10.001658 
1.9949326e+3, 2.9373065e+2, -818210.3, -249997.48, -18332.33, -0.07438008, -0.015675193, -249406.64, -187965.84, 0.0, 9.993991, 10.001512 
1.9949196e+3, 3.0373242e+2, -925236.94, -300731.53, -17093.488, 0.01754966, 0.032402664, -300264.03, -300264.03, 0.0, 9.993025, 10.001296 
1.9949047e+3, 3.13734e+2, -831160.9, 104591.67, -13087.308, -0.032458775, 0.049542196, 104774.67, 104774.67, 0.0, 9.992121, 10.004515 
2.0051962e+3, 1.2376913e+2, -809029.3, -1714551.4, -9591.737, -0.03244989, -0.02765823, -808927.75, 918135.94, 0.15966934, 10.009656, 9.995366 
2.0051806e+3, 1.3376583e+2, -720251.56, -1560983.8, 24486.316, -0.11777791, 0.019175434, -719539.0, 909554.06, 0.11384085, 10.008791, 9.996208 
2.0051658e+3, 1.4376174e+2, -721353.6, -1555288.5, -24508.34, -0.079797916, 0.0020713087, -720633.94, 810498.0, 0.06786715, 10.007825, 9.995976 
2.0051503e+3, 1.5375726e+2, -762157.75, -1564114.4, -16437.541, -0.04191661, -0.03465669, -761821.0, 671355.9, 0.031268466, 10.006709, 9.995782 
2.0051345e+3, 1.637534e+2, -700782.9, -1345107.9, -29335.268, -0.010741723, -0.05344539, -699450.06, 635764.56, 0.009781235, 10.005722, 9.9970875 
2.005118e+3, 1.7375055e+2, -707196.3, -1296794.6, -41854.29, -0.017763486, -0.05834855, -704240.0, 533000.3, 0.0014866849, 10.004953, 9.997117 
2.0051016e+3, 1.8374795e+2, -705955.8, -1194960.8, -48865.91, -0.024321444, -0.048179746, -701120.44, 438144.5, 0.000030080957, 10.004063, 9.997572 
2.0050852e+3, 1.9374585e+2, -773939.56, -1187004.8, -49564.855, -0.022658173, -0.015586996, -768075.4, 273211.16, 0.0, 10.002965, 9.997483 
2.0050687e+3, 2.0374368e+2, -750527.9, -1019588.7, -50679.547, -0.020555748, -0.017789774, -741298.6, 202009.4, 0.0, 10.001997, 9.998427 
2.0050524e+3, 2.1374154e+2, -764048.5, -977390.56, -44544.133, -0.019496804, -0.082060106, -755121.56, 90206.664, 0.0, 10.00124, 9.998409 
2.0050362e+3, 2.2374023e+2, -730054.4, -802906.7, -21746.682, -0.022032939, -0.09260899, -724056.7, 23284.057, 0.0, 10.000339, 9.999368 
2.0050202e+3, 2.3374039e+2, -797537.7, -786662.25, -27728.527, -0.030740209, -0.021556467, -763843.3, -114503.71, 0.0, 9.99921, 9.99935 
2.0050044e+3, 2.4374026e+2, -797167.0, -648941.1, -38016.797, -0.032867603, 0.0010750332, -639759.4, -88417.79, 0.0, 9.998168, 10.000124 
2.0049885e+3, 2.5373986e+2, -835622.2, -619703.3, -30767.48, -0.020470053, -0.05654923, -615404.7, -162057.73, 0.0, 9.997246, 10.000095 
2.0049728e+3, 2.637404e+2, -797631.3, -437469.13, -4589.32, -0.013618024, -0.055969168, -437410.66, -82067.86, 0.0, 9.996347, 10.001105 
2.0049575e+3, 2.7374235e+2, -826153.7, -403264.9, -6941.601, -0.023993352, 0.020906352, -403150.97, -145827.55, 0.0, 9.995492, 10.0010805 
2.0049419e+3, 2.8374368e+2, -818584.5, -275644.06, -9361.327, -0.050177086, 0.02165993, -275482.7, -116171.76, 0.0, 9.994556, 10.001734 
2.0049262e+3, 2.9374456e+2, -893495.0, -279627.06, -9934.904, -0.0767305, -0.06465967, -279466.34, -218162.06, 0.0, 9.99345, 10.001567 
2.0049126e+3, 3.0374765e+2, -958622.44, -268721.2, 19594.715, 0.044722464, 0.092159, -268165.1, -268165.1, 0.0, 9.99259, 10.001725 
2.0048966e+3, 3.1374854e+2, -852948.06, 69717.95, 29781.482, -0.06350077, -0.009689338, 70678.234, 70678.234, 0.0, 9.992083, 10.004291 
2.0152055e+3, 1.2378555e+2, -856318.44, -1818810.4, -28577.205, -0.068031445, 0.00981934, -855470.7, 871429.6, 0.16512537, 10.009669, 9.994631 
2.0151892e+3, 1.3378061e+2, -770843.06, -1661579.4, -4037.484, -0.13039654, -0.033027586, -770824.75, 858123.6, 0.1180119, 10.008791, 9.99546 
2.0151739e+3, 1.4377627e+2, -706164.8, -1517221.9, -61113.02, -0.06313641, -0.045460217, -701585.8, 829404.7, 0.07060298, 10.007823, 9.996247 
2.015157e+3, 1.5377274e+2, -734269.44, -1504296.3, -56126.965, -0.032411497, -0.026695365, -730199.9, 702824.8, 0.032707117, 10.006716, 9.996191 
2.0151402e+3, 1.6376932e+2, -712963.0, -1372229.1, -59002.953, -0.015489284, -0.015291033, -707724.0, 627333.56, 0.01033063, 10.00573, 9.9969 
2.0151226e+3, 1.7376605e+2, -726231.4, -1337499.9, -69460.68, -0.044766884, -0.034746036, -718437.6, 518650.78, 0.0016041679, 10.004956, 9.996838 
2.0151053e+3, 1.83763e+2, -709828.5, -1203685.0, -87356.74, -0.048288997, -0.050876867, -694831.6, 444286.38, 0.00003403542, 10.004064, 9.997514 
2.0150883e+3, 1.9376045e+2, -775450.0, -1191718.0, -89427.5, -0.0021393262, -0.060269006, -757051.4, 284092.22, 0.0, 10.00297, 9.99745 
2.015071e+3, 2.0375842e+2, -739456.0, -998413.56, -79150.76, 0.0094168475, -0.054204274, -717179.7, 225983.8, 0.0, 10.002003, 9.998571 
2.0150533e+3, 2.1375732e+2, -752064.56, -953682.1, -71338.13, -0.03662405, -0.029726772, -729376.25, 115797.086, 0.0, 10.001243, 9.998572 
2.0150362e+3, 2.2375615e+2, -743608.9, -832160.6, -61416.48, -0.04791278, -0.02869704, -712172.56, 35012.09, 0.0, 10.00034, 9.999167 
2.0150198e+3, 2.337549e+2, -814623.0, -823774.56, -69060.83, -0.0037214684, -0.07218479, -749986.5, -100789.086, 0.0, 9.999215, 9.999095 
2.0150031e+3, 2.4375445e+2, -783948.0, -623553.25, -72711.95, 0.010327573, -0.07730562, -595497.94, -44295.04, 0.0, 9.998174, 10.000297 
2.0149857e+3, 2.5375542e+2, -818991.75, -587828.0, -64978.668, -0.021435665, -0.018247917, -570815.0, -117620.375, 0.0, 9.997253, 10.000312 
2.0149691e+3, 2.6375645e+2, -801665.2, -447481.94, -37443.863, -0.030010184, 0.023725765, -443566.7, -88381.26, 0.0, 9.996353, 10.001035 
2.0149532e+3, 2.737574e+2, -831650.9, -417323.53, -38393.047, -0.00845008, 0.009477243, -413795.94, -156620.2, 0.0, 9.995501, 10.00098 
2.0149367e+3, 2.837582e+2, -824686.6, -290199.94, -51002.375, -0.028376244, -0.034353137, -285376.66, -126208.03, 0.0, 9.994562, 10.001633 
2.0149195e+3, 2.9375952e+2, -898140.75, -291067.84, -54287.313, -0.09396352, -0.06591758, -286251.44, -225093.17, 0.0, 9.993455, 10.001488 
2.0149046e+3, 3.037632e+2, -885609.0, -118495.25, -565.7647, 0.00081462396, 0.10496192, -118494.836, -118494.836, 0.0, 9.992593, 10.002756 
2.014889e+3, 3.1376523e+2, -875663.5, 21613.518, -36581.75, -0.034715105, 0.012605863, 23102.475, 23102.475, 0.0, 9.992089, 10.003956 
2.025215e+3, 1.23801894e+2, -840678.2, -1809649.1, -34997.516, -0.080566674, 0.023139315, -839415.8, 887324.0, 0.17079936, 10.009863, 9.994599 
2.0251982e+3, 1.337966e+2, -772907.4, -1668426.9, 18423.838, -0.124805585, -0.049371723, -772528.5, 856263.4, 0.1223475, 10.008842, 9.995387 
2.0251818e+3, 1.4379238e+2, -702063.94, -1508777.3, -20034.414, -0.04644264, -0.04665119, -701566.7, 829266.06, 0.07344484, 10.00785, 9.996296 
2.0251638e+3, 1.5378891e+2, -704004.1, -1482637.4, -38598.055, -0.043406162, -0.026737979, -702095.44, 730770.4, 0.034200873, 10.006915, 9.996242 
2.0251457e+3, 1.6378552e+2, -681048.44, -1361117.0, -46233.75, -0.037495192, -0.013379088, -677919.6, 656978.7, 0.01090223, 10.005977, 9.996854 
2.0251277e+3, 1.7378226e+2, -720755.75, -1341297.4, -41262.305, -0.050226502, -0.02653896, -718024.06, 518905.78, 0.0017275427, 10.005025, 9.996776 
2.0251095e+3, 1.8377918e+2, -706412.9, -1195573.4, -52313.406, -0.045260176, -0.044519804, -700880.8, 438079.0, 0.0000379013, 10.004062, 9.997568 
2.0250914e+3, 1.9377652e+2, -754209.9, -1174099.3, -48987.93, -0.004972788, -0.07048848, -748570.3, 292415.3, 0.0, 10.003086, 9.997514 
2.0250732e+3, 2.0377447e+2, -723286.4, -998849.6, -34743.156, 0.006592845, -0.06690336, -718973.44, 224032.16, 0.0, 10.0021515, 9.998495 
2.0250547e+3, 2.1377349e+2, -753804.25, -964929.7, -46017.633, -0.030206928, -0.021401914, -744210.06, 100804.945, 0.0, 10.001278, 9.998476 
2.0250367e+3, 2.2377232e+2, -746206.94, -827943.3, -49266.477, -0.038517054, -0.0147904195, -723064.2, 23962.275, 0.0, 10.000301, 9.999214 
2.025019e+3, 2.3377094e+2, -819509.6, -818737.7, -35216.316, 0.0006590689, -0.07904705, -783905.25, -134864.77, 0.0, 9.999152, 9.999158 
2.0250012e+3, 2.4377048e+2, -784968.6, -619453.06, -19672.246, 0.0138483895, -0.08782975, -617147.06, -66101.414, 0.0, 9.99815, 10.000335 
2.0249832e+3, 2.5377175e+2, -797380.56, -574273.8, -25512.545, -0.015929924, -0.0037260316, -571393.6, -118358.94, 0.0, 9.997391, 10.000338 
2.0249654e+3, 2.6377276e+2, -786996.7, -444019.03, -10390.644, -0.030401872, 0.039503597, -443704.53, -88679.055, 0.0, 9.99647, 10.001001 
2.0249483e+3, 2.737733e+2, -870705.75, -440585.0, -7715.8135, -0.017278362, -0.009192191, -440446.63, -183426.73, 0.0, 9.9952545, 10.000937 
2.024931e+3, 2.8377417e+2, -876967.0, -305700.84, -10524.402, -0.023479806, -0.048402395, -305507.0, -146494.86, 0.0, 9.9941635, 10.001717 
2.0249133e+3, 2.9377618e+2, -905819.3, -277845.72, 1681.2885, -0.06107595, -0.02224606, -277841.22, -216846.77, 0.0, 9.993332, 10.0016365 
2.024897e+3, 3.037794e+2, -872509.5, -74877.47, 51946.926, -0.030990504, 0.07199315, -71508.58, -71508.58, 0.0, 9.992522, 10.00309 
2.0248808e+3, 3.1378204e+2, -975205.56, -64940.67, -70821.25, -0.025263237, 0.019343996, -59463.53, -59463.53, 0.0, 9.991577, 10.003606 
2.035225e+3, 1.2381825e+2, -813202.75, -1725427.3, -53574.4, -0.07465987, 0.01395112, -810067.1, 916514.2, 0.17677647, 10.009864, 9.995181 
2.0352072e+3, 1.3381375e+2, -745183.6, -1595780.8, -14630.942, -0.105303235, -0.029868916, -744932.06, 883691.8, 0.12690258, 10.008838, 9.99592 
2.0351899e+3, 1.4381002e+2, -716193.2, -1533550.1, -52171.605, -0.03245622, -0.0015093263, -712876.56, 817782.75, 0.07642447, 10.007848, 9.996119 
2.0351703e+3, 1.5380572e+2, -723667.2, -1524508.1, -71419.55, -0.07474417, -0.03610831, -717347.8, 715353.06, 0.03576798, 10.006921, 9.995954 
2.0351514e+3, 1.6380197e+2, -674933.9, -1348999.4, -79927.766, -0.0766791, -0.047468897, -665586.06, 669151.3, 0.01150575, 10.0059805, 9.996938 
2.0351328e+3, 1.7379911e+2, -711265.0, -1321840.9, -75391.984, -0.035663333, -0.032511435, -702093.56, 534671.3, 0.0018606441, 10.005024, 9.996912 
2.0351137e+3, 1.8379639e+2, -696134.5, -1174313.4, -87741.46, -0.017898913, -0.029143173, -680543.1, 458247.84, 0.00004217649, 10.00406, 9.997717 
2.035094e+3, 1.9379397e+2, -743581.94, -1153250.1, -84195.83, -0.031188108, -0.047378365, -726952.8, 313860.75, 0.0, 10.003089, 9.997657 
2.035075e+3, 2.0379174e+2, -743510.56, -1042244.3, -66811.93, -0.028154692, -0.0565359, -729248.9, 213586.38, 0.0, 10.002155, 9.998197 
2.0350562e+3, 2.1378995e+2, -778804.3, -1017699.94, -76991.6, -0.0017525709, -0.055867758, -756141.25, 88712.77, 0.0, 10.001279, 9.998115 
2.0350373e+3, 2.237887e+2, -725532.06, -786221.56, -89953.41, 0.004286577, -0.049986936, -660943.0, 85923.95, 0.0, 10.000304, 9.999501 
2.0350179e+3, 2.3378839e+2, -792284.94, -764092.75, -77225.46, -0.018028826, -0.04265529, -699687.44, -50817.76, 0.0, 9.999157, 9.999533 
2.034999e+3, 2.437883e+2, -792075.4, -635741.8, -49467.113, -0.022296507, -0.030883119, -621404.3, -70533.48, 0.0, 9.998155, 10.000222 
2.0349807e+3, 2.5378874e+2, -808576.0, -599751.44, -53125.375, -0.005117562, -0.014376449, -587013.3, -134145.08, 0.0, 9.997397, 10.000161 
2.034962e+3, 2.6378927e+2, -785352.1, -443098.2, -54149.16, -0.015637549, -0.010389404, -434735.4, -79871.336, 0.0, 9.996478, 10.001006 
2.0349433e+3, 2.7379006e+2, -868828.8, -439169.9, -54178.684, -0.05327675, -0.03475349, -432443.44, -175586.61, 0.0, 9.995261, 10.000946 
2.034925e+3, 2.837916e+2, -858289.4, -267480.16, -44632.625, -0.03673647, -0.01787431, -264127.4, -105285.19, 0.0, 9.994164, 10.00198 
2.0349075e+3, 2.937945e+2, -877942.1, -223508.77, -28905.115, 0.025295282, 0.06740287, -222234.56, -161420.89, 0.0, 9.993345, 10.002005 
2.0348892e+3, 3.03796e+2, -899036.94, -133100.5, 17405.715, -0.054515086, -0.014118873, -132705.16, -132705.16, 0.0, 9.992533, 10.0026865 
2.0348723e+3, 3.1379822e+2, -982118.56, -79713.18, -103730.59, -0.031248624, -0.05730686, -67942.97, -67942.97, 0.0, 9.991574, 10.003509 
2.045235e+3, 1.23836026e+2, -798308.06, -1704569.0, 3144.7217, -0.0744243, 0.007874431, -798297.1, 928110.1, 0.18309762, 10.009997, 9.995287 
2.045216e+3, 1.3383159e+2, -773181.5, -1610591.5, -551.22345, -0.09136016, -0.027427748, -773181.2, 855268.25, 0.13171044, 10.008673, 9.995883 
2.0451976e+3, 1.43828e+2, -741376.1, -1535296.9, -36977.926, -0.021162126, 0.014131485, -739657.56, 790825.75, 0.07956606, 10.00764, 9.996204 
2.0451772e+3, 1.5382363e+2, -702032.1, -1501536.6, -28740.639, -0.08036185, -0.040163055, -701000.3, 731524.94, 0.03742427, 10.007037, 9.996054 
2.0451574e+3, 1.638198e+2, -650076.25, -1336353.0, -35681.07, -0.08884752, -0.061677337, -648226.06, 686335.9, 0.012149962, 10.006158, 9.996938 
2.0451377e+3, 1.7381701e+2, -736300.2, -1335876.8, -44026.043, -0.037499297, -0.04104333, -733084.7, 503504.9, 0.0020075592, 10.004863, 9.996892 
2.0451176e+3, 1.8381432e+2, -727322.2, -1184500.9, -55343.688, -0.01743866, -0.033169784, -720718.0, 417897.28, 0.000047725676, 10.003826, 9.997758 
2.0450972e+3, 1.9381195e+2, -725518.75, -1138192.6, -57675.293, -0.041186497, -0.04879964, -717609.6, 323026.84, 0.0, 10.003188, 9.99771 
2.0450771e+3, 2.0380971e+2, -724160.25, -1032033.1, -44220.457, -0.037485316, -0.061990436, -717934.6, 224723.4, 0.0, 10.002287, 9.998201 
2.0450576e+3, 2.1380778e+2, -824047.06, -1040158.06, -30464.117, 0.0065478473, -0.07633434, -819834.8, 24844.092, 0.0, 10.000974, 9.998107 
2.0450374e+3, 2.2380655e+2, -777626.3, -803916.2, -29402.055, 0.016052537, -0.0694034, -758564.56, -11872.702, 0.0, 9.999917, 9.999564 
2.045017e+3, 2.338066e+2, -771205.7, -745450.3, -38378.29, -0.023707515, -0.03409978, -717846.75, -69155.625, 0.0, 9.999269, 9.999605 
2.044997e+3, 2.4380666e+2, -762482.94, -620817.75, -24278.48, -0.03179399, -0.0119649805, -616772.44, -66081.52, 0.0, 9.998356, 10.000227 
2.0449778e+3, 2.5380686e+2, -863504.6, -626530.06, -15347.73, 0.00077206746, -0.016499061, -625540.2, -172849.67, 0.0, 9.997024, 10.000156 
2.0449583e+3, 2.6380733e+2, -858613.94, -469054.13, -3876.7808, -0.010840883, -0.02403365, -469015.56, -114328.29, 0.0, 9.995937, 10.001087 
2.0449384e+3, 2.7380833e+2, -865587.44, -428087.28, 1141.5973, -0.065704204, -0.0364196, -428084.3, -171406.1, 0.0, 9.995246, 10.001028 
2.0449194e+3, 2.8381005e+2, -807047.94, -233521.02, 10080.246, -0.03211011, -0.005464322, -233343.9, -74682.63, 0.0, 9.994478, 10.002061 
2.0449014e+3, 2.9381305e+2, -851928.7, -198245.66, 8195.822, 0.07421558, 0.079961166, -198142.9, -137511.81, 0.0, 9.993471, 10.002116 
2.0448813e+3, 3.0381408e+2, -964150.75, -185678.08, 39917.68, -0.08024916, -0.0451658, -183636.58, -183636.58, 0.0, 9.992182, 10.002492 
2.0448637e+3, 3.1381667e+2, -1066899.3, -84523.49, -27901.816, 0.0009139445, -0.024576347, -83731.66, -83731.66, 0.0, 9.99084, 10.003828 
2.0552449e+3, 1.2385524e+2, -826150.7, -1750441.4, -27526.143, -0.08297046, 0.013899716, -825331.6, 900886.3, 0.18974034, 10.009989, 9.9949465 
2.0552246e+3, 1.3385002e+2, -810552.4, -1689519.1, -42267.176, -0.084137134, -0.04470609, -808524.5, 819744.75, 0.13676363, 10.008685, 9.99532 
2.0552053e+3, 1.4384629e+2, -720698.3, -1489907.9, -58606.203, -0.01342384, -0.0011665348, -716258.75, 814046.3, 0.08287322, 10.007655, 9.996534 
2.0551845e+3, 1.5384251e+2, -673247.25, -1436213.0, -48789.78, -0.06303704, -0.038080327, -670139.9, 762199.44, 0.039177146, 10.007032, 9.996507 
2.0551635e+3, 1.6383895e+2, -658523.7, -1351674.6, -79953.086, -0.07772964, -0.055386055, -649420.8, 684952.1, 0.012840991, 10.006148, 9.996839 
2.0551424e+3, 1.738358e+2, -748172.6, -1362303.9, -91439.03, -0.056304015, -0.05229196, -734847.25, 501557.56, 0.0021719201, 10.004868, 9.99671 
2.0551214e+3, 1.8383287e+2, -730119.94, -1192604.8, -80651.05, -0.042954948, -0.056392357, -716459.0, 421974.28, 0.000055617635, 10.003834, 9.997701 
2.0551004e+3, 1.9383045e+2, -728560.2, -1144708.3, -79712.086, -0.03598132, -0.07414074, -713814.06, 326640.84, 0.0, 10.003186, 9.997668 
2.0550793e+3, 2.0382835e+2, -704170.0, -990555.7, -89286.9, -0.023252025, -0.082985505, -678613.5, 263861.16, 0.0, 10.002285, 9.998488 
2.0550583e+3, 2.1382688e+2, -800693.75, -992916.25, -78416.38, -0.0056182323, -0.08302662, -772762.6, 71727.836, 0.0, 10.000977, 9.998431 
2.0550372e+3, 2.238258e+2, -788517.75, -828269.56, -55427.867, -0.002803663, -0.073132955, -749509.9, -3007.8044, 0.0, 9.999922, 9.999396 
2.0550163e+3, 2.3382545e+2, -787178.25, -779982.9, -61293.05, -0.017627502, -0.053146258, -722182.0, -73676.2, 0.0, 9.999271, 9.999369 
2.0549956e+3, 2.4382542e+2, -753754.8, -604014.44, -71022.02, -0.015799124, -0.031034758, -575687.4, -25180.568, 0.0, 9.99836, 10.000341 
2.0549749e+3, 2.5382602e+2, -851337.4, -603123.56, -65395.6, 0.00077236234, -0.010413477, -586948.2, -134445.63, 0.0, 9.997029, 10.000317 
2.0549542e+3, 2.6382685e+2, -847780.5, -447706.16, -32831.395, -0.016210822, -0.000449187, -445029.8, -90533.9, 0.0, 9.99594, 10.001234 
2.0549339e+3, 2.7382797e+2, -853559.4, -406007.8, -24006.11, -0.055366833, -0.013745847, -404723.8, -148238.88, 0.0, 9.995255, 10.001177 
2.0549141e+3, 2.8382945e+2, -812941.0, -249373.58, -26129.7, -0.010994989, -0.014192083, -248164.69, -89694.15, 0.0, 9.994491, 10.001947 
2.054895e+3, 2.9383165e+2, -861408.6, -221653.0, -32202.684, 0.08219036, 0.008164134, -220036.14, -159587.63, 0.0, 9.993484, 10.001951 
2.0548733e+3, 3.0383366e+2, -964746.44, -184518.92, -17057.443, -0.106100306, -0.009740036, -184146.19, -184146.19, 0.0, 9.992172, 10.002504 
2.0548548e+3, 3.1383643e+2, -1025771.3, 572.9771, -19110.592, 0.009537598, 0.01976469, 928.69415, 928.69415, 0.0, 9.990834, 10.004418 
2.0652552e+3, 1.23875365e+2, -855932.6, -1760689.8, 96.933426, -0.05267905, 0.024712613, -855932.6, 870088.0, 0.19663651, 10.009788, 9.994971 
2.0652336e+3, 1.338698e+2, -772850.94, -1681889.6, 4092.249, -0.08725337, -0.055341396, -772832.5, 855243.06, 0.1420168, 10.009099, 9.995172 
2.0652129e+3, 1.4386588e+2, -659326.75, -1455081.9, -4000.0671, -0.03859531, -0.021259503, -659306.6, 870806.4, 0.08632548, 10.008123, 9.996571 
2.0651914e+3, 1.5386246e+2, -712811.75, -1449255.5, -19611.418, -0.051781632, -0.029683752, -712289.9, 719854.2, 0.041022647, 10.006734, 9.996559 
2.0651697e+3, 1.6385902e+2, -731043.94, -1391274.6, -60851.81, -0.0581291, -0.035527203, -725482.25, 608694.4, 0.013580689, 10.005666, 9.9967985 
2.0651472e+3, 1.7385568e+2, -719178.94, -1353400.9, -62645.707, -0.06950127, -0.04450399, -713050.25, 523160.22, 0.002355722, 10.005092, 9.996662 
2.065125e+3, 1.8385267e+2, -666810.6, -1147731.5, -43567.094, -0.065608524, -0.059838064, -662895.75, 475343.9, 0.000066718094, 10.0042095, 9.997827 
2.0651032e+3, 1.9385028e+2, -768151.3, -1147704.0, -30650.377, -0.03376745, -0.08752538, -765692.1, 274568.0, 0.0, 10.002848, 9.99781 
2.0650816e+3, 2.038483e+2, -777458.56, -1026017.75, -40145.04, -0.014780471, -0.09296565, -771135.56, 171143.13, 0.0, 10.001784, 9.998486 
2.0650594e+3, 2.1384703e+2, -771884.06, -980962.44, -55535.938, -0.018331269, -0.06992103, -758048.06, 86245.04, 0.0, 10.001185, 9.99841 
2.065037e+3, 2.23846e+2, -734465.44, -794590.06, -41959.547, -0.019968346, -0.05554714, -712910.44, 33393.832, 0.0, 10.000263, 9.999461 
2.0650154e+3, 2.3384549e+2, -845440.5, -800126.1, -26066.666, -0.013673396, -0.05886998, -788246.06, -139937.03, 0.0, 9.99884, 9.999436 
2.0649937e+3, 2.438454e+2, -848966.44, -652310.94, -25601.93, -0.0063390597, -0.04726333, -649032.56, -98721.914, 0.0, 9.997719, 10.000318 
2.0649719e+3, 2.5384605e+2, -850054.25, -606590.5, -35141.02, -0.0071254093, -0.016468262, -601619.8, -149313.63, 0.0, 9.997059, 10.000277 
2.0649502e+3, 2.6384696e+2, -808293.4, -418773.7, -11872.943, -0.02330701, 0.0031986677, -418412.13, -64113.61, 0.0, 9.99617, 10.001321 
2.064929e+3, 2.7384827e+2, -893480.56, -413430.16, -5346.7993, -0.035786703, -0.0034938587, -413370.63, -157085.05, 0.0, 9.994932, 10.001281 
2.0649084e+3, 2.8384966e+2, -891281.44, -286341.38, -633.703, 0.0047149244, -0.016504012, -286340.72, -128069.1, 0.0, 9.993952, 10.001953 
2.0648879e+3, 2.938515e+2, -889826.9, -236140.5, 1103.6526, 0.056074373, -0.029422529, -236138.64, -175885.28, 0.0, 9.993296, 10.00194 
2.0648655e+3, 3.0385408e+2, -944016.25, -160527.95, 6974.787, -0.09606155, 0.004113559, -160465.88, -160465.88, 0.0, 9.992257, 10.002626 
2.0648457e+3, 3.138566e+2, -1022844.7, -3569.7725, 54988.547, 0.02291998, -0.0036481083, -611.7968, -611.7968, 0.0, 9.990877, 10.004371 
2.0752653e+3, 1.238964e+2, -842486.9, -1710758.9, -14322.995, 0.011405727, 0.04615289, -842250.7, 883564.7, 0.20370981, 10.009791, 9.9953375 
2.0752424e+3, 1.3389082e+2, -764989.06, -1648941.6, -16925.404, -0.10250028, -0.057739235, -764665.1, 863203.75, 0.1474149, 10.009093, 9.995401 
2.0752205e+3, 1.4388674e+2, -680062.4, -1491204.5, -48030.78, -0.09675661, -0.04273118, -677228.2, 852679.7, 0.08989221, 10.008119, 9.996304 
2.0751983e+3, 1.5388332e+2, -735625.25, -1498116.5, -68385.836, -0.048150804, -0.016676359, -729540.44, 702399.94, 0.04294824, 10.006741, 9.996223 
2.0751755e+3, 1.638799e+2, -728094.94, -1387097.8, -83575.52, -0.03184206, -0.0048346273, -717661.0, 616312.75, 0.014365434, 10.005675, 9.996825 
2.0751521e+3, 1.7387657e+2, -713905.4, -1342648.3, -81858.92, -0.077869035, -0.019447705, -703422.56, 532584.7, 0.0025584195, 10.005091, 9.996738 
2.0751289e+3, 1.8387362e+2, -647637.2, -1107419.4, -89912.875, -0.08677152, -0.044356786, -630679.6, 507355.44, 0.000081402286, 10.004205, 9.998107 
2.0751062e+3, 1.9387138e+2, -746521.06, -1104183.8, -80509.19, -0.035625856, -0.08846389, -729234.1, 310818.9, 0.0, 10.002851, 9.998109 
2.0750833e+3, 2.0386946e+2, -796778.3, -1068111.4, -64435.445, -0.012148276, -0.09175749, -782253.9, 159817.1, 0.0, 10.00179, 9.998195 
2.0750603e+3, 2.1386813e+2, -797911.1, -1035208.3, -76098.18, -0.03247582, -0.037797093, -775604.3, 68483.375, 0.0, 10.001184, 9.99804 
2.075037e+3, 2.2386709e+2, -714431.2, -753443.06, -90734.47, -0.03643242, -0.01693755, -641129.7, 104969.68, 0.0, 10.000262, 9.999745 
2.0750141e+3, 2.3386662e+2, -819454.1, -747664.5, -78520.55, -0.012786044, -0.05193532, -697223.25, -49121.395, 0.0, 9.998844, 9.999796 
2.0749915e+3, 2.4386644e+2, -860574.4, -678013.9, -53011.906, -0.0039854697, -0.060892794, -663736.8, -113633.39, 0.0, 9.997723, 10.000141 
2.0749688e+3, 2.5386682e+2, -866749.4, -643169.94, -59805.516, -0.02443986, -0.0345057, -628177.8, -176075.47, 0.0, 9.997064, 10.000025 
2.0749463e+3, 2.638676e+2, -806353.7, -416437.44, -56667.574, -0.03254691, -0.013592098, -408368.75, -54272.574, 0.0, 9.996175, 10.001336 
2.0749243e+3, 2.7386907e+2, -888743.1, -405625.3, -52082.97, -0.006658045, -0.0075455825, -400074.25, -143992.88, 0.0, 9.994938, 10.001333 
2.0749027e+3, 2.8387064e+2, -882938.9, -270445.03, -28596.775, 0.013501801, -0.012157489, -269112.75, -111047.04, 0.0, 9.993955, 10.002062 
2.0748806e+3, 2.9387257e+2, -879283.0, -217102.31, -26289.912, -0.011060014, -0.02923821, -216060.19, -156013.64, 0.0, 9.993304, 10.0020685 
2.0748581e+3, 3.0387518e+2, -925649.7, -122944.11, -47408.34, -0.044980615, -0.010124748, -120153.836, -120153.836, 0.0, 9.99226, 10.002884 
2.0748365e+3, 3.1387857e+2, -1085102.8, -136871.06, 21354.506, 0.020691521, 0.04682745, -136390.39, -136390.39, 0.0, 9.9908905, 10.00345 
2.0852752e+3, 1.23918176e+2, -821945.2, -1689102.5, 28975.453, 0.0069596996, 0.022177467, -820978.06, 904623.6, 0.21090433, 10.009997, 9.995427 
2.0852515e+3, 1.3391313e+2, -803107.4, -1665762.5, 10829.248, -0.09099977, -0.029560804, -802971.44, 824679.0, 0.15291834, 10.008823, 9.995415 
2.0852283e+3, 1.4390896e+2, -731536.94, -1522173.4, -25028.176, -0.09831681, -0.019864691, -730745.44, 798945.1, 0.09354553, 10.007792, 9.996226 
2.085205e+3, 1.539052e+2, -707387.44, -1492119.9, -27909.953, -0.04812377, -0.020558817, -706396.06, 725330.5, 0.04493572, 10.006996, 9.99614 
2.0851813e+3, 1.6390166e+2, -667515.56, -1346091.9, -23019.686, -0.03208107, -0.01878479, -666735.5, 667025.4, 0.015185879, 10.006057, 9.996921 
2.085157e+3, 1.7389861e+2, -734412.44, -1339608.8, -18074.393, -0.08140908, -0.015991552, -733873.1, 501918.34, 0.0027769033, 10.004896, 9.996852 
2.085133e+3, 1.8389581e+2, -699352.5, -1137758.6, -41921.855, -0.09165998, -0.029486192, -695379.75, 442438.13, 0.00009950277, 10.003874, 9.998057 
2.0851092e+3, 1.9389352e+2, -719914.1, -1098702.5, -60703.367, -0.03830433, -0.07179507, -710423.75, 329413.2, 0.0, 10.003067, 9.998041 
2.0850852e+3, 2.0389156e+2, -748003.2, -1031913.56, -42280.707, -0.012389502, -0.079843946, -741840.4, 200014.83, 0.0, 10.002074, 9.998305 
2.0850612e+3, 2.1389021e+2, -845542.5, -1043354.56, -17632.904, -0.03003238, -0.039733388, -843983.0, -111.77519, 0.0, 10.000796, 9.998169 
2.0850371e+3, 2.2388917e+2, -801213.2, -803866.7, -29286.135, -0.03441449, -0.022712328, -773223.75, -27341.154, 0.0, 9.999706, 9.999666 
2.0850132e+3, 2.3388869e+2, -818783.7, -759272.94, -53429.45, -0.016625432, -0.046833895, -727872.06, -79986.25, 0.0, 9.998903, 9.999686 
2.0849892e+3, 2.4388847e+2, -819575.9, -650229.25, -31565.44, -0.010267711, -0.055444956, -644536.94, -94649.31, 0.0, 9.9979725, 10.00021 
2.0849656e+3, 2.538888e+2, -892014.4, -645349.56, -11991.252, -0.022505846, -0.045528363, -644768.0, -192881.7, 0.0, 9.99685, 10.000112 
2.0849423e+3, 2.6388943e+2, -856540.56, -446251.53, -1450.3093, -0.022066154, -0.037658826, -446246.4, -92365.54, 0.0, 9.995857, 10.001284 
2.0849192e+3, 2.7389085e+2, -881172.2, -409745.22, -7200.8496, 0.00096084696, -0.031197174, -409635.25, -153767.9, 0.0, 9.995026, 10.001262 
2.0848963e+3, 2.8389263e+2, -881494.44, -262311.78, 10157.154, -0.0018492902, -0.013447407, -262145.22, -104295.27, 0.0, 9.993934, 10.002128 
2.084873e+3, 2.9389495e+2, -987591.25, -261039.19, 9536.796, -0.046480875, 0.0033417363, -260914.03, -201087.39, 0.0, 9.992527, 10.002142 
2.0848508e+3, 3.0389693e+2, -989808.8, -120565.84, -9422.806, 0.009227605, -0.059679594, -120463.71, -120463.71, 0.0, 9.991676, 10.003181 
2.0848271e+3, 3.13901e+2, -1034310.25, -139702.38, 52878.094, -0.019233221, 0.03665973, -136587.72, -136587.72, 0.0, 9.991359, 10.003204 
2.0952846e+3, 1.23940706e+2, -839015.8, -1709026.4, -3102.1384, -0.058959562, -0.03759671, -839004.75, 886375.0, 0.2181987, 10.010003, 9.995253 
2.0952608e+3, 1.3393661e+2, -822015.75, -1698254.5, -25558.879, -0.05727311, 0.025977999, -821270.9, 806150.4, 0.15851001, 10.008818, 9.995196 
2.0952366e+3, 1.4393242e+2, -728346.25, -1508845.4, -51717.836, -0.05098696, 0.041993316, -724934.25, 804527.9, 0.0972659, 10.00779, 9.996331 
2.0952119e+3, 1.5392798e+2, -698201.5, -1470230.8, -54243.582, -0.05252451, -0.04021497, -694408.94, 737094.25, 0.046966378, 10.006999, 9.99629 
2.0951873e+3, 1.6392425e+2, -658135.3, -1326358.6, -62908.29, -0.0581488, -0.073215246, -652264.56, 681274.0, 0.01603036, 10.006059, 9.997058 
2.0951618e+3, 1.739217e+2, -725074.06, -1320981.0, -60187.984, -0.082013145, -0.03202836, -719055.75, 516508.16, 0.0030066525, 10.004898, 9.996981 
2.095137e+3, 1.8391915e+2, -724405.56, -1190950.5, -72180.0, -0.08205861, -0.015086393, -713493.6, 424095.4, 0.000120449, 10.003876, 9.997693 
2.095112e+3, 1.9391659e+2, -750307.25, -1162213.8, -88807.97, -0.042324018, -0.03915079, -731975.9, 307636.88, 0.0, 10.003066, 9.997607 
2.0950872e+3, 2.039145e+2, -713279.3, -960362.3, -86747.266, -0.0160869, -0.05801054, -685865.25, 255767.05, 0.0, 10.002073, 9.998797 
2.0950623e+3, 2.1391319e+2, -802669.1, -955334.2, -63877.188, -0.012506417, -0.07452787, -779468.0, 64176.44, 0.0, 10.000798, 9.998775 
2.0950371e+3, 2.2391213e+2, -832667.2, -870670.7, -60217.375, -0.014766388, -0.07178525, -788524.7, -42869.656, 0.0, 9.99971, 9.999207 
2.0950119e+3, 2.339116e+2, -860148.06, -846362.25, -82315.44, -0.026117675, -0.043470606, -770651.6, -122989.77, 0.0, 9.998906, 9.999088 
2.094987e+3, 2.439114e+2, -797008.7, -604788.4, -72340.33, -0.025508888, -0.03028622, -580606.06, -30941.799, 0.0, 9.997976, 10.000522 
2.0949626e+3, 2.5391182e+2, -861284.8, -583666.56, -54063.016, -0.00260541, -0.05026599, -573509.94, -121850.78, 0.0, 9.996857, 10.000533 
2.0949385e+3, 2.6391238e+2, -864956.1, -465661.88, -34177.527, 0.0068124603, -0.07033779, -462757.6, -109103.88, 0.0, 9.995863, 10.001148 
2.094914e+3, 2.7391347e+2, -894013.7, -439501.06, -39280.03, -0.015111794, -0.07627901, -436131.38, -180486.77, 0.0, 9.995036, 10.001054 
2.0948899e+3, 2.8391552e+2, -880205.9, -260601.61, -42937.754, -0.04222005, -0.019533463, -257640.23, -100015.03, 0.0, 9.993936, 10.00214 
2.0948657e+3, 2.9391864e+2, -988186.2, -261469.4, -43275.043, -0.0483541, 0.072020724, -258901.52, -199307.23, 0.0, 9.99252, 10.002144 
2.0948431e+3, 3.039191e+2, -967889.1, -75760.32, -22298.055, 0.06429706, -0.1551197, -75203.34, -75203.34, 0.0, 9.991676, 10.00349 
2.0948184e+3, 3.1392416e+2, -980758.9, -34611.29, -13678.892, -0.04709187, 0.005186927, -34413.57, -34413.57, 0.0, 9.991384, 10.003914 
2.1052945e+3, 1.23964764e+2, -830563.0, -1702404.9, 11522.169, -0.08891422, -0.036816314, -830410.75, 894733.1, 0.2256002, 10.010162, 9.9952345 
2.1052697e+3, 1.3396077e+2, -821495.25, -1691338.0, 4866.513, -0.03774446, 0.03426295, -821468.06, 805716.44, 0.1641813, 10.008853, 9.995225 
2.1052444e+3, 1.4395642e+2, -732071.3, -1500869.8, 2297.5747, -0.034857444, 0.029491043, -732064.44, 797162.5, 0.10103364, 10.00775, 9.996409 
2.1052188e+3, 1.5395214e+2, -702932.8, -1461185.1, -763.5869, -0.05940954, -0.04590576, -702932.06, 728334.2, 0.049020033, 10.006933, 9.996382 
2.1051931e+3, 1.6394849e+2, -669410.6, -1332361.8, -26258.232, -0.06975068, -0.07449402, -668372.2, 664928.44, 0.016885977, 10.005989, 9.997048 
2.105167e+3, 1.7394593e+2, -730580.2, -1325678.9, -35494.273, -0.06909787, -0.032683976, -728470.6, 506855.72, 0.0032422023, 10.004872, 9.99696 
2.1051408e+3, 1.8394335e+2, -729998.7, -1192287.6, -32059.262, -0.061657775, -0.016048761, -727786.0, 409565.78, 0.00014336416, 10.003835, 9.997702 
2.105115e+3, 1.9394077e+2, -772017.5, -1171409.4, -16605.084, -0.041888174, -0.041596573, -771328.3, 268047.44, 0.0, 10.002913, 9.997616 
2.1050891e+3, 2.039387e+2, -733706.8, -970444.5, -23165.313, -0.024922524, -0.06036675, -731461.3, 209934.02, 0.0, 10.001937, 9.998794 
2.105063e+3, 2.1393737e+2, -791438.7, -950428.6, -47170.496, -0.012781555, -0.0759294, -778497.2, 64910.098, 0.0, 10.000879, 9.998768 
2.1050368e+3, 2.2393627e+2, -811325.7, -859510.5, -43711.418, -0.01064463, -0.07670898, -785506.8, -40088.86, 0.0, 9.999856, 9.999211 
2.1050107e+3, 2.3393567e+2, -863747.2, -847557.56, -20828.197, -0.024334218, -0.056499615, -833306.44, -185881.03, 0.0, 9.998882, 9.99909 
2.1049848e+3, 2.4393547e+2, -811013.0, -614012.0, -2910.1687, -0.024745306, -0.042422306, -613969.0, -64541.227, 0.0, 9.997893, 10.000497 
2.1049595e+3, 2.53936e+2, -861856.25, -587430.4, -19549.684, 0.000405321, -0.04820293, -586044.7, -134622.88, 0.0, 9.99687, 10.0005 
2.1049343e+3, 2.6393655e+2, -873479.5, -474102.56, -10808.805, 0.010559292, -0.06358002, -473810.25, -120393.91, 0.0, 9.995825, 10.001108 
2.104909e+3, 2.7393746e+2, -937058.06, -464631.2, -4281.1187, -0.013561392, -0.081121765, -464592.38, -209183.44, 0.0, 9.994762, 10.001012 
2.1048835e+3, 2.8393948e+2, -900048.9, -259210.27, -5787.7207, -0.04184016, -0.03287991, -259158.0, -101767.93, 0.0, 9.993754, 10.002236 
2.1048585e+3, 2.9394272e+2, -939715.4, -229390.86, -206.30449, -0.0437163, 0.06376313, -229390.8, -170033.44, 0.0, 9.992818, 10.002219 
2.1048345e+3, 3.0394313e+2, -940854.6, -61412.984, 31767.334, 0.04220629, -0.17263775, -60266.973, -60266.973, 0.0, 9.991858, 10.003501 
2.1048093e+3, 3.1394866e+2, -1075358.3, -55783.28, -35132.9, -0.046657354, 0.031579174, -54574.094, -54574.094, 0.0, 9.990635, 10.0041275 
2.1153045e+3, 1.23990245e+2, -834604.1, -1688950.0, -26687.479, -0.088561065, 0.018535525, -833771.3, 891124.0, 0.23311703, 10.0101385, 9.995368 
2.1152785e+3, 1.339856e+2, -812010.2, -1656024.9, -33853.426, -0.032993745, -0.000079995865, -810654.56, 816286.2, 0.16991249, 10.00886, 9.995467 
2.1152522e+3, 1.4398095e+2, -730543.9, -1494985.1, -25346.477, -0.0487527, -0.049469907, -729704.4, 799281.06, 0.104819156, 10.007766, 9.99645 
2.1152256e+3, 1.5397754e+2, -702576.6, -1458558.5, -28548.646, -0.07037523, -0.03805975, -701500.06, 729516.7, 0.051072616, 10.006936, 9.996401 
2.115199e+3, 1.6397423e+2, -680513.44, -1354923.6, -64864.848, -0.06938262, -0.02693446, -674331.4, 658717.1, 0.017739138, 10.005987, 9.996897 
2.1151721e+3, 1.7397118e+2, -742055.3, -1350659.6, -75162.12, -0.043790154, -0.019605447, -732910.25, 502169.44, 0.003478075, 10.004875, 9.996788 
2.115145e+3, 1.8396835e+2, -704130.0, -1140137.6, -65624.22, -0.03184571, -0.031769644, -694466.94, 442639.84, 0.00016731709, 10.003839, 9.998059 
2.1151179e+3, 1.9396602e+2, -742076.44, -1110405.9, -49473.76, -0.038496517, -0.07677313, -735546.9, 303579.9, 0.00000000000010610821, 10.002916, 9.998035 
2.1150908e+3, 2.0396404e+2, -768402.25, -1043902.9, -61062.23, -0.039151136, -0.08544062, -755475.0, 185670.39, 0.0, 10.00194, 9.998289 
2.1150637e+3, 2.1396267e+2, -834463.4, -1040434.25, -84996.65, -0.031299952, -0.04470673, -803918.2, 39242.484, 0.0, 10.000879, 9.998151 
2.1150365e+3, 2.2396152e+2, -778774.6, -793124.9, -79241.78, -0.022530807, -0.037799794, -706383.8, 38788.52, 0.0, 9.999859, 9.999667 
2.1150097e+3, 2.3396078e+2, -821691.44, -762053.2, -56253.195, -0.0124511495, -0.08633483, -728204.44, -81026.96, 0.0, 9.998887, 9.999676 
2.1149829e+3, 2.4396054e+2, -837057.06, -669436.8, -40825.62, -0.00894185, -0.09293116, -660022.1, -110842.76, 0.0, 9.997897, 10.000115 
2.1149562e+3, 2.5396118e+2, -896579.75, -661530.0, -58251.344, -0.014776346, -0.039744586, -647885.8, -196710.6, 0.0, 9.996877, 9.999989 
2.11493e+3, 2.6396185e+2, -869101.3, -467087.16, -51616.547, -0.011188823, -0.015024718, -460565.66, -107395.984, 0.0, 9.995831, 10.001155 
2.1149038e+3, 2.7396277e+2, -926873.6, -445917.28, -45276.297, 0.0043936204, -0.043812513, -441692.16, -186530.94, 0.0, 9.994769, 10.001139 
2.1148777e+3, 2.8396434e+2, -887012.6, -233280.64, -42377.508, -0.0012224711, -0.05675115, -230545.0, -73399.2, 0.0, 9.993757, 10.002414 
2.1148513e+3, 2.93967e+2, -927133.0, -207641.31, -34437.184, -0.032477006, -0.033065945, -205996.8, -146879.05, 0.0, 9.992833, 10.002362 
2.1148252e+3, 3.039691e+2, -963007.4, -109766.79, -11114.909, -0.06564614, -0.093743384, -109622.02, -109622.02, 0.0, 9.991866, 10.003166 
2.1148004e+3, 3.1397307e+2, -1101612.8, -106561.555, -113105.234, 0.0008436028, -0.0081972135, -93867.086, -93867.086, 0.0, 9.990618, 10.003788 
2.1253145e+3, 1.2401641e+2, -882532.7, -1707710.1, 15873.132, -0.07571826, 0.003745149, -882227.44, 842411.3, 0.2407176, 10.009781, 9.995373 
2.1252877e+3, 1.3401201e+2, -788065.06, -1621994.1, 10306.584, -0.027036998, -0.004809276, -787937.75, 838743.75, 0.17565665, 10.009033, 9.995619 
2.1252598e+3, 1.4400741e+2, -690754.7, -1476589.5, 17662.502, -0.060510803, -0.055729937, -690357.9, 838367.6, 0.10857964, 10.008113, 9.996423 
2.1252324e+3, 1.5400408e+2, -702172.8, -1462243.1, 12701.563, -0.07569759, -0.030411048, -701960.6, 728795.8, 0.05309734, 10.006974, 9.996354 
2.1252048e+3, 1.6400075e+2, -691507.25, -1359441.4, -21178.502, -0.067201495, -0.018748827, -690836.4, 641952.2, 0.018577369, 10.005916, 9.996898 
2.125177e+3, 1.7399749e+2, -728383.7, -1343280.1, -19612.186, -0.030792477, -0.03115737, -727758.75, 507062.66, 0.0037098983, 10.00497, 9.996791 
2.1251489e+3, 1.8399465e+2, -683861.25, -1129703.3, -13454.121, -0.017792683, -0.046909098, -683455.6, 453393.1, 0.0001915741, 10.003978, 9.998063 
2.1251209e+3, 1.939925e+2, -740911.3, -1109212.1, -28046.777, -0.03793705, -0.0731503, -738787.75, 300079.3, 0.0000000000129771185, 10.002924, 9.998038 
2.1250927e+3, 2.039905e+2, -779743.75, -1060965.8, -43600.535, -0.043685492, -0.07556075, -773139.06, 167746.66, 0.0, 10.001915, 9.998182 
2.1250644e+3, 2.1398893e+2, -829664.75, -1051618.6, -32317.615, -0.029288374, -0.044305112, -825054.9, 17848.758, 0.0, 10.000974, 9.998028 
2.1250364e+3, 2.239877e+2, -757419.3, -777090.75, -20491.316, -0.01898128, -0.04051442, -744525.44, 390.6043, 0.0, 9.999983, 9.999716 
2.1250086e+3, 2.3398705e+2, -812144.94, -749928.2, -36427.277, -0.012418631, -0.087215304, -733133.75, -86214.07, 0.0, 9.998922, 9.999741 
2.1249807e+3, 2.4398677e+2, -836244.5, -676365.2, -29199.217, -0.008014612, -0.096978344, -671199.4, -122277.74, 0.0, 9.997936, 10.000048 
2.1249531e+3, 2.5398725e+2, -876672.9, -661098.7, -15747.653, -0.010397267, -0.046851076, -659954.44, -209035.28, 0.0, 9.997055, 9.999904 
2.1249259e+3, 2.6398802e+2, -836794.3, -451208.25, 1379.8479, -0.013298773, -0.014727695, -451203.28, -98289.87, 0.0, 9.996054, 10.001155 
2.1248984e+3, 2.73989e+2, -913337.56, -438648.5, -949.0838, -0.007357563, -0.03632402, -438646.6, -183742.69, 0.0, 9.994863, 10.0011425 
2.1248716e+3, 2.8399026e+2, -887884.2, -238492.38, -4432.2856, 0.0066076326, -0.07187162, -238462.11, -81571.23, 0.0, 9.993774, 10.002368 
2.1248445e+3, 2.9399267e+2, -924810.7, -207231.55, -12213.148, 0.009137066, -0.07188842, -207023.75, -148157.61, 0.0, 9.992857, 10.002352 
2.1248165e+3, 3.03996e+2, -949885.6, -77259.695, 17760.318, -0.122473486, -0.021037992, -76898.375, -76898.375, 0.0, 9.991844, 10.003399 
2.1247913e+3, 3.1399888e+2, -1127236.0, -153793.97, -38825.95, 0.04172785, -0.06601205, -152247.84, -152247.84, 0.0, 9.990593, 10.003474 
2.1353245e+3, 1.24043174e+2, -896242.5, -1719706.3, -10445.184, -0.05382642, -0.079637825, -896110.06, 828265.56, 0.24830675, 10.009785, 9.995263 
2.1352966e+3, 1.340399e+2, -790411.06, -1616182.0, -11594.853, -0.020977665, 0.018875092, -790248.25, 836159.56, 0.1813399, 10.009038, 9.9956665 
2.1352679e+3, 1.4403562e+2, -699193.7, -1488259.4, -18235.371, -0.07126297, 0.003704698, -698772.44, 829676.44, 0.11226793, 10.008116, 9.996335 
2.1352395e+3, 1.5403168e+2, -710340.56, -1478208.1, -26349.844, -0.07677242, -0.023663685, -709437.44, 721048.94, 0.05507117, 10.006977, 9.996245 
2.1352106e+3, 1.6402799e+2, -682556.1, -1341088.3, -55096.56, -0.06465491, -0.046836402, -677978.25, 654543.3, 0.019392012, 10.005919, 9.997024 
2.1351819e+3, 1.7402482e+2, -716907.7, -1321170.1, -53453.125, -0.030764315, -0.06500642, -712215.7, 522336.7, 0.003934965, 10.004975, 9.996942 
2.1351528e+3, 1.840221e+2, -707238.6, -1180294.4, -51256.297, -0.019461961, -0.061199956, -701748.6, 434830.0, 0.00021566173, 10.0039835, 9.997714 
2.1351238e+3, 1.9402009e+2, -768934.2, -1168454.4, -65632.59, -0.04036117, -0.032224733, -758428.44, 280169.13, 0.0000000000136278775, 10.002925, 9.997633 
2.1350946e+3, 2.0401804e+2, -760138.94, -1021430.75, -77671.46, -0.039466772, -0.031946115, -738794.06, 201823.28, 0.0, 10.001917, 9.998455 
2.1350656e+3, 2.1401607e+2, -804631.4, -1001068.75, -65728.19, -0.008199682, -0.07419965, -784667.56, 57969.49, 0.0, 10.000977, 9.998375 
2.1350366e+3, 2.2401473e+2, -783065.56, -831985.5, -58735.863, -0.0009591149, -0.08461134, -743900.1, 750.067, 0.0, 9.999988, 9.999338 
2.1350074e+3, 2.3401433e+2, -844291.7, -817956.2, -75189.71, -0.025210971, -0.058807015, -754789.94, -108136.766, 0.0, 9.998925, 9.999274 
2.1349785e+3, 2.4401407e+2, -818431.25, -641013.25, -62776.223, -0.022453528, -0.053313743, -621047.8, -72392.34, 0.0, 9.99794, 10.00029 
2.1349505e+3, 2.540142e+2, -852079.2, -612854.94, -48768.43, 0.012315963, -0.070649706, -603295.06, -152640.55, 0.0, 9.997065, 10.000233 
2.1349218e+3, 2.6401484e+2, -839370.2, -458583.06, -43028.184, 0.0028139541, -0.065532304, -453781.53, -101132.69, 0.0, 9.99606, 10.001102 
2.1348928e+3, 2.7401596e+2, -920199.8, -455786.13, -46776.543, -0.050961945, -0.06123961, -451121.56, -196483.45, 0.0, 9.994872, 10.001021 
2.134865e+3, 2.840172e+2, -908585.75, -284242.75, -41578.105, -0.018993367, -0.07773962, -281486.03, -124859.74, 0.0, 9.993783, 10.002051 
2.134838e+3, 2.9401958e+2, -936580.44, -235614.1, -46843.867, 0.08055557, -0.05067428, -232497.48, -173893.83, 0.0, 9.992869, 10.002152 
2.1348082e+3, 3.040237e+2, -886404.5, 54612.73, -29312.387, -0.12799247, 0.043031596, 55524.918, 55524.918, 0.0, 9.991842, 10.004306 
2.1347818e+3, 3.140263e+2, -1155690.1, -216006.52, -36658.316, 0.015485962, -0.113985084, -214578.6, -214578.6, 0.0, 9.9906025, 10.003045 
2.1453345e+3, 1.240722e+2, -883463.25, -1722655.8, 23427.98, -0.042185355, -0.052652236, -882809.7, 841281.56, 0.2557303, 10.010054, 9.995105 
2.1453057e+3, 1.3406852e+2, -774157.5, -1608681.0, 26506.826, -0.029174305, 0.009662068, -773316.44, 852810.56, 0.18686655, 10.00924, 9.995631 
2.1452759e+3, 1.4406417e+2, -688969.25, -1486916.4, 9250.396, -0.08526303, -0.008388736, -688862.06, 839306.7, 0.115834385, 10.008249, 9.996279 
2.1452466e+3, 1.5406029e+2, -707564.94, -1481604.3, 4185.612, -0.06188233, -0.024134679, -707542.3, 722663.7, 0.056972347, 10.007036, 9.996191 
2.145217e+3, 1.6405663e+2, -674318.7, -1336117.1, -15718.653, -0.042771403, -0.04114773, -673945.56, 658295.44, 0.02017518, 10.005982, 9.997025 
2.145187e+3, 1.7405342e+2, -690174.2, -1307678.8, -23701.156, -0.0337946, -0.061662875, -689265.8, 545005.8, 0.0041511096, 10.005162, 9.9969425 
2.145157e+3, 1.8405062e+2, -681536.9, -1179782.9, -26809.277, -0.031110048, -0.06166917, -680098.5, 456200.3, 0.0002392666, 10.004215, 9.997604 
2.1451268e+3, 1.9404843e+2, -754068.75, -1175061.1, -22534.818, -0.03690988, -0.037235986, -752865.94, 285454.13, 0.000000000027357056, 10.00309, 9.997506 
2.1450967e+3, 2.0404635e+2, -743087.7, -1005464.44, -26829.2, -0.029312968, -0.03414329, -740372.4, 199967.77, 0.0, 10.002004, 9.998521 
2.1450667e+3, 2.1404457e+2, -800015.9, -989257.94, -34497.95, -0.0032952686, -0.06603635, -793923.2, 48434.313, 0.0, 10.00097, 9.998458 
2.1450366e+3, 2.2404319e+2, -792316.6, -855335.8, -30245.094, -0.00038877144, -0.07560643, -780149.9, -35779.055, 0.0, 10.000008, 9.999167 
2.1450064e+3, 2.3404251e+2, -826164.3, -831455.44, -27560.375, -0.02710297, -0.058767475, -801122.8, -154745.5, 0.0, 9.999147, 9.999073 
2.1449766e+3, 2.4404211e+2, -788946.3, -618985.0, -13688.261, -0.020723486, -0.05707984, -617889.6, -69508.766, 0.0, 9.998112, 10.000358 
2.1449475e+3, 2.5404233e+2, -878929.8, -614223.2, -16863.63, 0.024606818, -0.07607019, -613153.2, -162774.64, 0.0, 9.996833, 10.000334 
2.1449177e+3, 2.6404297e+2, -878346.8, -473425.5, -14242.549, 0.008136386, -0.07514676, -472925.16, -120552.92, 0.0, 9.995778, 10.001136 
2.1448877e+3, 2.7404416e+2, -900356.0, -444441.16, -9185.664, -0.07005871, -0.068772875, -444256.16, -189895.08, 0.0, 9.995003, 10.001035 
2.1448587e+3, 2.8404546e+2, -887754.1, -284765.56, 5139.431, -0.02788029, -0.07462958, -284721.78, -128372.74, 0.0, 9.993974, 10.001954 
2.1448311e+3, 2.9404774e+2, -979506.7, -264730.1, 15871.39, 0.11383235, -0.04610516, -264377.84, -206049.55, 0.0, 9.992615, 10.002074 
2.1448e+3, 3.0405182e+2, -937733.3, 48927.434, 5797.2773, -0.10836332, 0.037468486, 48961.496, 48961.496, 0.0, 9.991412, 10.004472 
2.144772e+3, 3.1405482e+2, -1153145.4, -192542.25, 5239.445, 0.008911808, -0.09357602, -192513.67, -192513.67, 0.0, 9.99053, 10.003239 
2.1553445e+3, 1.2410316e+2, -900785.75, -1752985.6, -4851.373, -0.040756214, 0.058843877, -900758.1, 823031.0, 0.26281974, 10.01007, 9.994887 
2.1553144e+3, 1.3409783e+2, -786697.94, -1623735.6, 2959.3079, -0.0528657, -0.029910713, -786687.5, 839152.06, 0.1921329, 10.00924, 9.995504 
2.155284e+3, 1.4409305e+2, -694268.9, -1491786.5, -28471.834, -0.10458496, -0.08435894, -693253.75, 834631.3, 0.11922545, 10.008247, 9.996245 
2.1552539e+3, 1.5408982e+2, -708736.8, -1483775.0, -37137.332, -0.032799702, -0.030205218, -706961.4, 722954.75, 0.058776643, 10.007044, 9.996175 
2.1552233e+3, 1.6408652e+2, -682803.25, -1355286.3, -45703.13, -0.0036710314, -0.0042182505, -679711.4, 652236.7, 0.020917844, 10.005989, 9.996892 
2.1551922e+3, 1.7408319e+2, -700577.9, -1329295.4, -52470.71, -0.040373553, -0.023393866, -696228.9, 537751.4, 0.0043562693, 10.00516, 9.996797 
2.1551609e+3, 1.8408008e+2, -674598.06, -1165526.0, -66016.28, -0.05288103, -0.049314342, -665875.7, 470134.44, 0.00026221768, 10.004212, 9.997705 
2.1551299e+3, 1.940774e+2, -744270.56, -1156266.8, -62766.508, -0.028745769, -0.08629427, -734920.44, 303114.94, 0.00000000007381513, 10.003094, 9.997635 
2.1550986e+3, 2.0407538e+2, -752611.44, -1027452.3, -64444.13, -0.014308261, -0.0803144, -738251.0, 201804.06, 0.0, 10.002009, 9.998368 
2.1550673e+3, 2.1407433e+2, -812331.7, -1016032.8, -71403.055, -0.014954861, -0.01988541, -789796.0, 52270.008, 0.0, 10.000972, 9.998275 
2.1550363e+3, 2.2407301e+2, -790112.25, -852013.7, -61525.06, -0.017439293, -0.013857426, -752191.5, -8112.608, 0.0, 10.00001, 9.99919 
2.1550053e+3, 2.3407148e+2, -821923.94, -824627.7, -58829.504, -0.018863624, -0.08782008, -764430.75, -118337.63, 0.0, 9.999153, 9.999119 
2.1549748e+3, 2.4407081e+2, -796442.25, -636409.94, -60554.313, -0.0036224087, -0.1095132, -616079.6, -67980.55, 0.0, 9.9981165, 10.0002365 
2.1549444e+3, 2.5407153e+2, -887832.06, -634806.2, -65086.51, 0.024784504, -0.06282398, -619045.5, -168953.17, 0.0, 9.996839, 10.000192 
2.1549135e+3, 2.6407236e+2, -868618.9, -455254.22, -45377.043, 0.0020973384, -0.042462807, -450331.6, -98247.12, 0.0, 9.995784, 10.001259 
2.1548826e+3, 2.7407345e+2, -888426.94, -422709.6, -39223.69, -0.06502821, -0.060105324, -419429.2, -165355.33, 0.0, 9.995013, 10.001181 
2.1548527e+3, 2.8407496e+2, -878570.5, -266997.56, -45680.93, -0.021543259, -0.061334014, -263604.28, -107544.51, 0.0, 9.993978, 10.002076 
2.1548235e+3, 2.9407713e+2, -976951.25, -260201.06, -35725.617, 0.10459789, -0.054711252, -258424.77, -200384.56, 0.0, 9.992615, 10.002107 
2.1547918e+3, 3.0407995e+2, -983930.1, -47540.387, -33998.94, -0.05794534, -0.058592748, -46307.555, -46307.555, 0.0, 9.991411, 10.003812 
2.1547621e+3, 3.1408468e+2, -1078361.4, -45526.62, 31730.045, -0.026268648, 0.040422965, -44552.75, -44552.75, 0.0, 9.990558, 10.004238 
2.1653548e+3, 1.2413416e+2, -845495.4, -1725124.8, 15818.842, -0.060818408, 0.067537434, -845210.94, 878273.56, 0.26943833, 10.010718, 9.994766 
2.165324e+3, 1.341285e+2, -780252.25, -1628756.3, 32350.898, -0.039899644, -0.0436925, -779020.6, 846517.8, 0.19704378, 10.009391, 9.995397 
2.1652922e+3, 1.4412372e+2, -704397.2, -1499824.5, 4366.427, -0.07862555, -0.08940287, -704373.25, 823210.75, 0.12238511, 10.008217, 9.996196 
2.165261e+3, 1.5412043e+2, -682396.94, -1474487.6, -4443.657, -0.03333169, -0.03495839, -682372.0, 747243.7, 0.06045716, 10.007271, 9.996127 
2.1652293e+3, 1.6411708e+2, -652146.2, -1341774.8, -7643.7144, -0.013222803, -0.011594244, -652061.44, 679586.75, 0.021610482, 10.006219, 9.996872 
2.165197e+3, 1.7411363e+2, -721178.5, -1340838.3, -5234.8716, -0.033929158, -0.039578117, -721134.25, 512547.0, 0.0045485515, 10.00503, 9.9967785 
2.1651651e+3, 1.8411054e+2, -706573.94, -1177762.5, -15206.443, -0.0422658, -0.06437235, -706083.7, 429627.3, 0.00028439512, 10.003983, 9.99773 
2.1651328e+3, 1.9410804e+2, -736262.94, -1149340.8, -19760.549, -0.03079849, -0.08610137, -735319.8, 302414.94, 0.000000000201105, 10.003139, 9.99766 
2.1651009e+3, 2.0410597e+2, -722594.44, -1022205.94, -23599.486, -0.022943802, -0.07941994, -720746.94, 219007.81, 0.0, 10.002258, 9.998283 
2.1650685e+3, 2.1410462e+2, -766972.44, -1004256.8, -25200.453, -0.021753913, -0.038022827, -764325.6, 77442.85, 0.0, 10.001329, 9.998181 
2.1650364e+3, 2.2410326e+2, -744877.1, -827000.94, -12199.036, -0.018035384, -0.03453047, -743103.4, 678.6771, 0.0, 10.00031, 9.999216 
2.1650046e+3, 2.3410192e+2, -818199.44, -818620.3, -10061.681, -0.0066243615, -0.088484265, -808346.0, -162551.7, 0.0, 9.999164, 9.999154 
2.1649729e+3, 2.4410132e+2, -800667.8, -649488.06, -13467.204, 0.005272062, -0.10251416, -648297.75, -100497.73, 0.0, 9.9981365, 10.000136 
2.1649411e+3, 2.541018e+2, -833646.0, -621012.5, -16679.938, 0.009629254, -0.066429384, -619712.0, -169916.4, 0.0, 9.997265, 10.000079 
2.1649094e+3, 2.6410255e+2, -816936.75, -425319.28, -738.4751, -0.0084837675, -0.051769916, -425317.88, -73529.2, 0.0, 9.996119, 10.001302 
2.1648777e+3, 2.7410373e+2, -939029.9, -440252.7, -839.7143, -0.036344692, -0.0627882, -440251.28, -186474.64, 0.0, 9.994638, 10.001241 
2.1648467e+3, 2.841054e+2, -930983.1, -288710.25, -8714.102, -0.007262105, -0.055371914, -288592.06, -132830.78, 0.0, 9.993604, 10.002106 
2.1648157e+3, 2.941075e+2, -927291.7, -244103.14, -9105.506, 0.047965687, -0.053207237, -243981.8, -186239.31, 0.0, 9.992991, 10.002035 
2.1647836e+3, 3.0410984e+2, -973975.0, -102968.055, -19227.035, -0.014139049, -0.07104283, -102543.836, -102543.836, 0.0, 9.991742, 10.00327 
2.1647525e+3, 3.141141e+2, -1111484.5, 3374.8782, 86526.29, -0.04531485, 0.024743466, 10050.371, 10050.371, 0.0, 9.990056, 10.004814 
2.175365e+3, 1.2416522e+2, -856601.6, -1735732.5, -25010.574, -0.10271529, -0.018632423, -855890.7, 867287.2, 0.2755044, 10.010714, 9.994699 
2.1753338e+3, 1.341604e+2, -790307.44, -1643308.1, -5985.9575, 0.005279053, -0.033750154, -790265.44, 834959.3, 0.20153369, 10.009393, 9.995295 
2.175301e+3, 1.4415602e+2, -711356.5, -1510101.4, -26376.955, -0.013366134, -0.031302568, -710486.4, 816780.8, 0.12527026, 10.008221, 9.996116 
2.1752678e+3, 1.5415205e+2, -689142.75, -1487459.3, -35891.652, -0.06264289, -0.038783114, -687532.3, 741773.25, 0.061993193, 10.00727, 9.99604 
2.1752349e+3, 1.6414823e+2, -647212.2, -1331798.8, -48651.113, -0.0683878, -0.05937399, -643772.0, 687570.0, 0.02224702, 10.006222, 9.996942 
2.1752024e+3, 1.7414469e+2, -713627.0, -1327977.1, -47968.35, -0.015413175, -0.10628862, -709904.2, 523471.16, 0.0047271866, 10.005039, 9.996864 
2.1751694e+3, 1.8414186e+2, -709065.2, -1185883.1, -46263.203, -0.0020611256, -0.104934186, -704618.0, 430784.34, 0.00030576604, 10.003992, 9.997671 
2.1751358e+3, 1.9414017e+2, -741553.9, -1161547.9, -49451.023, -0.04331305, -0.03809941, -735809.94, 301609.4, 0.0000000007393769, 10.00314, 9.997576 
2.1751025e+3, 2.0413801e+2, -724560.8, -1027369.3, -56403.688, -0.054542672, -0.033539537, -714395.8, 225044.55, 0.0, 10.00226, 9.998249 
2.1750699e+3, 2.1413538e+2, -768612.8, -1009002.0, -58203.58, -0.024686428, -0.119793296, -755261.9, 86203.836, 0.0, 10.001332, 9.998149 
2.1750368e+3, 2.2413379e+2, -742534.56, -823762.5, -53236.215, -0.0034767645, -0.13596922, -716188.94, 27292.203, 0.0, 10.000314, 9.999238 
2.1750039e+3, 2.341338e+2, -816199.1, -815752.9, -52147.41, 0.00838518, -0.059778433, -763828.1, -118346.46, 0.0, 9.999166, 9.999174 
2.174971e+3, 2.4413353e+2, -806419.5, -662861.7, -46769.375, 0.0053583197, -0.035833243, -648969.2, -101484.7, 0.0, 9.99814, 10.000045 
2.174938e+3, 2.5413305e+2, -839440.06, -635685.75, -50002.684, -0.022182873, -0.08787929, -624076.25, -174586.98, 0.0, 9.997273, 9.999976 
2.1749052e+3, 2.6413336e+2, -818779.56, -431434.06, -55734.81, -0.024497082, -0.10456913, -423573.9, -72088.07, 0.0, 9.996125, 10.001259 
2.1748728e+3, 2.741349e+2, -939463.44, -443318.3, -55199.664, 0.0150465, -0.07882643, -437251.16, -183780.78, 0.0, 9.994644, 10.001219 
2.1748403e+3, 2.8413662e+2, -935752.56, -300077.5, -34177.098, 0.0137546705, -0.05948168, -298245.25, -142790.75, 0.0, 9.9936075, 10.0020275 
2.1748076e+3, 2.941388e+2, -939489.56, -273160.25, -37603.65, -0.06107871, -0.04184227, -271044.84, -213608.92, 0.0, 9.993005, 10.001831 
2.1747759e+3, 3.0414152e+2, -1005644.2, -171002.95, -85505.6, 0.022082593, 0.014158579, -162333.3, -162333.3, 0.0, 9.99175, 10.002801 
2.1747427e+3, 3.1414372e+2, -1101529.5, 24683.217, 6501.12, -0.004631938, -0.059085425, 24720.744, 24720.744, 0.0, 9.990051, 10.004964 
2.1853757e+3, 1.24197885e+2, -841939.25, -1724282.8, -6753.423, -0.096448004, -0.060385056, -841887.56, 880968.25, 0.28099412, 10.01093, 9.99467 
2.185343e+3, 1.3419324e+2, -786760.25, -1651112.5, 17273.576, 0.0005686099, -0.0469243, -786415.2, 838486.9, 0.20557995, 10.009515, 9.995182 
2.1853094e+3, 1.4418902e+2, -706331.4, -1507028.0, 12716.352, -0.010640688, -0.02223662, -706129.44, 820814.1, 0.12786336, 10.0082855, 9.996106 
2.1852751e+3, 1.541849e+2, -681427.7, -1483485.3, 11842.885, -0.06138085, -0.042941213, -681252.9, 747730.44, 0.063375734, 10.007341, 9.996032 
2.185241e+3, 1.6418098e+2, -628373.94, -1325107.1, -3719.9985, -0.06926447, -0.069015935, -628354.06, 702666.44, 0.022825412, 10.0063715, 9.996914 
2.1852075e+3, 1.7417745e+2, -668407.5, -1308998.3, -11566.356, -0.017657628, -0.10994576, -668198.75, 564855.0, 0.004892292, 10.005368, 9.996835 
2.1851733e+3, 1.8417463e+2, -662522.8, -1167621.5, -9693.685, -0.0049242373, -0.106792964, -662336.9, 472744.13, 0.00032634463, 10.0043335, 9.997631 
2.1851389e+3, 1.9417281e+2, -727105.06, -1158641.3, -10573.745, -0.046935353, -0.04454647, -726846.1, 310252.75, 0.000000002893483, 10.003261, 9.997537 
2.1851048e+3, 2.0417067e+2, -728817.56, -1022701.8, -13142.368, -0.05695611, -0.04151224, -728231.0, 210888.95, 0.0, 10.002206, 9.998305 
2.1850711e+3, 2.141681e+2, -786897.3, -1010267.7, -8667.5, -0.022250587, -0.12513824, -786561.5, 54582.953, 0.0, 10.001178, 9.998214 
2.1850371e+3, 2.2416654e+2, -765307.75, -843188.6, -5091.4043, -0.000057630907, -0.13770509, -764976.3, -21816.563, 0.0, 10.000196, 9.99916 
2.1850032e+3, 2.341665e+2, -807225.75, -821407.2, -13194.114, 0.0064775045, -0.055881977, -799337.75, -154176.53, 0.0, 9.999273, 9.999082 
2.1849692e+3, 2.4416623e+2, -787070.7, -648992.8, -6222.4004, -0.0006055343, -0.03020794, -648713.0, -101548.56, 0.0, 9.998257, 10.000083 
2.184935e+3, 2.5416574e+2, -861187.8, -641379.3, 1449.941, -0.026865702, -0.08537796, -641369.75, -192200.84, 0.0, 9.997107, 10.000016 
2.1849014e+3, 2.6416603e+2, -835671.0, -449428.28, -7004.835, -0.020562552, -0.10498591, -449301.28, -98135.35, 0.0, 9.996054, 10.001168 
2.1848679e+3, 2.7416736e+2, -876974.8, -424816.63, -11539.468, 0.030611077, -0.08609276, -424522.3, -171369.95, 0.0, 9.995125, 10.001113 
2.184834e+3, 2.8416902e+2, -897240.6, -288414.4, 9558.912, 0.013706747, -0.06466645, -288264.34, -133127.23, 0.0, 9.993904, 10.001964 
2.1847998e+3, 2.941714e+2, -1041445.44, -326991.53, 5365.1694, -0.093254514, -0.01826361, -326951.22, -269835.1, 0.0, 9.992329, 10.001785 
2.1847679e+3, 3.0417362e+2, -1075615.0, -208963.6, -13965.727, 0.064218886, -0.0071816402, -208738.6, -208738.6, 0.0, 9.991287, 10.002764 
2.1847327e+3, 3.1417555e+2, -1028362.0, 23975.305, 58159.008, -0.03749722, -0.10271603, 27179.791, 27179.791, 0.0, 9.99071, 10.00464 
2.195387e+3, 1.24232e+2, -852989.44, -1731330.0, -47186.555, -0.054744385, -0.06306233, -850461.75, 872058.2, 0.28595433, 10.010891, 9.994648 
2.195352e+3, 1.342269e+2, -798660.1, -1671268.6, -23343.016, -0.050500166, -0.08074112, -798036.1, 826534.94, 0.20921583, 10.009508, 9.9950485 
2.1953171e+3, 1.4422263e+2, -704205.25, -1501939.1, -17427.646, -0.06455246, -0.05615413, -703824.7, 822788.75, 0.13018212, 10.0083, 9.996141 
2.1952827e+3, 1.5421884e+2, -677673.9, -1475987.8, -19188.273, -0.032710325, -0.04738352, -677212.94, 751437.0, 0.064611316, 10.00735, 9.99608 
2.1952479e+3, 1.6421519e+2, -636705.5, -1343741.4, -38632.797, -0.021913856, -0.043978125, -634600.9, 696084.25, 0.02334763, 10.006376, 9.996785 
2.1952124e+3, 1.7421183e+2, -678228.9, -1330797.3, -47149.98, -0.040416226, -0.054725103, -674839.75, 557878.1, 0.0050445017, 10.005371, 9.996685 
2.1951772e+3, 1.8420868e+2, -664144.6, -1172531.4, -47729.043, -0.048584238, -0.07263976, -659702.5, 475045.63, 0.00034621853, 10.004337, 9.997597 
2.195142e+3, 1.9420595e+2, -727655.2, -1161182.1, -48721.65, -0.04274577, -0.10323039, -722247.06, 314526.97, 0.000000010094747, 10.003263, 9.9975195 
2.1951072e+3, 2.0420384e+2, -718429.2, -1002779.94, -50291.94, -0.032216568, -0.10008624, -709796.4, 228997.9, 0.0, 10.00221, 9.998442 
2.1950723e+3, 2.1420272e+2, -776178.44, -989260.1, -45279.418, -0.01514883, -0.054906417, -766955.8, 73849.875, 0.0, 10.00118, 9.998359 
2.1950372e+3, 2.242014e+2, -777947.0, -870920.94, -38684.625, -0.007846552, -0.042289253, -763956.4, -21137.31, 0.0, 10.000199, 9.99897 
2.1950021e+3, 2.3419996e+2, -821973.9, -853813.75, -46859.81, -0.013589856, -0.07802333, -788403.5, -143569.5, 0.0, 9.999277, 9.998859 
2.1949673e+3, 2.4419929e+2, -775064.06, -625862.7, -48893.734, -0.013651853, -0.08563108, -611267.75, -64426.945, 0.0, 9.998261, 10.000241 
2.1949324e+3, 2.5419983e+2, -847632.44, -615155.06, -42221.023, -0.0051702457, -0.058226313, -607724.7, -158889.42, 0.0, 9.997111, 10.000196 
2.1948975e+3, 2.642004e+2, -845519.0, -471385.13, -43179.293, 0.0031021954, -0.051466726, -466466.4, -115636.77, 0.0, 9.9960575, 10.001018 
2.1948625e+3, 2.7420104e+2, -889411.44, -453273.63, -46902.76, 0.008141675, -0.082253605, -448286.66, -195463.53, 0.0, 9.995133, 10.000916 
2.1948276e+3, 2.8420246e+2, -901310.0, -299193.1, -49833.22, -0.008536052, -0.07120721, -295096.63, -140286.61, 0.0, 9.993911, 10.001888 
2.1947928e+3, 2.9420513e+2, -1032138.06, -309837.34, -54369.594, -0.044999626, 0.008935117, -305767.72, -248983.03, 0.0, 9.992333, 10.001904 
2.1947592e+3, 3.0420607e+2, -1042444.8, -141520.42, -33474.637, 0.10640296, -0.14177713, -140278.36, -140278.36, 0.0, 9.991291, 10.003226 
2.1947232e+3, 3.1420994e+2, -1084288.1, -93370.3, -28393.006, -0.059093606, -0.07042708, -92557.41, -92557.41, 0.0, 9.990716, 10.003831 
2.2053976e+3, 1.2426709e+2, -916136.4, -1749564.9, -20987.602, -0.04055896, -0.07154823, -915608.2, 806567.56, 0.29050574, 10.010247, 9.994826 
2.2053613e+3, 1.3426207e+2, -763131.7, -1638280.8, 18668.047, -0.07237591, -0.089561746, -762733.6, 861492.2, 0.21252595, 10.0098095, 9.99513 
2.2053254e+3, 1.4425777e+2, -626707.9, -1468149.8, 24979.633, -0.07957077, -0.06787545, -625967.0, 900301.4, 0.13227305, 10.008956, 9.996092 
2.20529e+3, 1.5425402e+2, -653142.7, -1470247.4, 17613.916, -0.029595437, -0.049783025, -652763.2, 775541.7, 0.06571754, 10.007572, 9.996012 
2.2052541e+3, 1.6425036e+2, -642880.56, -1358179.4, 3244.4604, -0.014281101, -0.03689888, -642865.9, 687474.6, 0.023816975, 10.006388, 9.996678 
2.2052178e+3, 1.7424698e+2, -670835.75, -1339240.4, -2049.1875, -0.048300378, -0.03823104, -670829.5, 561544.75, 0.005183817, 10.005478, 9.996574 
2.2051814e+3, 1.8424375e+2, -643486.94, -1154239.0, -3608.8396, -0.05756515, -0.058742236, -643461.44, 490943.75, 0.000365385, 10.004446, 9.997668 
2.2051455e+3, 1.9424093e+2, -723056.0, -1148794.6, 2059.9756, -0.03266256, -0.10794179, -723046.06, 313385.1, 0.000000028477277, 10.003255, 9.997607 
2.2051094e+3, 2.042388e+2, -722705.1, -1010334.9, 4733.4663, -0.018934168, -0.10822911, -722627.25, 215823.97, 0.0, 10.002207, 9.99839 
2.2050732e+3, 2.1423776e+2, -756075.5, -986078.44, -6289.4214, -0.019864038, -0.0454446, -755903.6, 84558.68, 0.0, 10.001349, 9.998297 
2.2050373e+3, 2.242365e+2, -746080.25, -843639.25, -751.00903, -0.020556504, -0.030314546, -746074.44, -3598.9233, 0.0, 10.000371, 9.999073 
2.2050013e+3, 2.3423497e+2, -820462.6, -839447.25, 16405.805, -0.020314412, -0.084262826, -811000.94, -166510.27, 0.0, 9.999233, 9.998978 
2.2049654e+3, 2.4423434e+2, -797238.7, -640017.44, 18997.908, -0.016622238, -0.09280134, -637754.4, -91257.28, 0.0, 9.998127, 10.000207 
2.2049294e+3, 2.5423503e+2, -858085.75, -625457.56, 7440.896, -0.007864067, -0.044404797, -625219.8, -176729.3, 0.0, 9.997066, 10.000146 
2.2048935e+3, 2.6423556e+2, -851005.9, -474887.0, 5876.1367, -0.0001667813, -0.036130384, -474795.22, -124309.7, 0.0, 9.996027, 10.001007 
2.2048576e+3, 2.7423605e+2, -916138.4, -467147.9, 13689.105, 0.0068733282, -0.08380792, -466730.9, -214249.8, 0.0, 9.994958, 10.000903 
2.2048216e+3, 2.8423756e+2, -915853.3, -291034.94, 12365.305, 0.004379245, -0.066796795, -290790.3, -136323.66, 0.0, 9.993748, 10.002022 
2.2047853e+3, 2.942405e+2, -991257.1, -266254.63, 23928.588, -0.009990863, 0.027813977, -265465.72, -209028.28, 0.0, 9.992515, 10.002113 
2.2047505e+3, 3.0424106e+2, -1014513.4, -137707.22, 46066.04, 0.07291846, -0.17399786, -135293.63, -135293.63, 0.0, 9.991527, 10.003138 
2.2047138e+3, 3.1424612e+2, -1113685.9, -102207.36, -26538.896, -0.040662576, 0.041044965, -101511.516, -101511.516, 0.0, 9.990495, 10.003876 
2.2154078e+3, 1.2430314e+2, -903510.2, -1706754.4, -31349.873, -0.055429216, -0.078931004, -902288.5, 819534.94, 0.29480228, 10.010258, 9.995154 
2.2153711e+3, 1.3429858e+2, -753494.8, -1606334.9, 7592.4194, -0.071116194, -0.075505525, -753427.25, 870440.56, 0.21561186, 10.009799, 9.995385 
2.2153345e+3, 1.442943e+2, -638461.8, -1487474.0, -16489.07, -0.06400406, -0.05874236, -638141.7, 887767.94, 0.1341916, 10.008945, 9.995946 
2.2152974e+3, 1.5429029e+2, -665467.06, -1497215.9, -29205.781, -0.05093792, -0.04984013, -664442.8, 763506.2, 0.06671655, 10.007573, 9.995828 
2.2152603e+3, 1.642864e+2, -648594.1, -1372240.9, -29166.258, -0.042819217, -0.04558898, -647420.5, 682566.94, 0.024237456, 10.006395, 9.99658 
2.2152232e+3, 1.7428282e+2, -676331.5, -1352407.1, -33739.19, -0.04281881, -0.057406966, -674651.94, 557371.9, 0.0053095003, 10.005483, 9.996483 
2.215186e+3, 1.8427978e+2, -631252.3, -1130582.4, -45559.65, -0.035376683, -0.06336432, -627129.44, 506923.63, 0.00038352155, 10.004451, 9.997831 
2.215149e+3, 1.9427763e+2, -709678.5, -1123280.9, -40745.75, -0.01786617, -0.06080502, -705702.7, 330368.72, 0.00000006498394, 10.003262, 9.997782 
2.2151116e+3, 2.042754e+2, -738973.75, -1046727.1, -26754.643, -0.016911432, -0.06876871, -736665.1, 201427.03, 0.0, 10.002214, 9.998137 
2.2150744e+3, 2.142732e+2, -775561.4, -1027880.1, -36490.188, -0.037562724, -0.09594267, -770390.1, 69725.11, 0.0, 10.001351, 9.998011 
2.2150373e+3, 2.2427176e+2, -718057.44, -786582.8, -41400.125, -0.039000433, -0.09912611, -698580.94, 43548.887, 0.0, 10.000372, 9.999466 
2.2150005e+3, 2.3427148e+2, -788626.56, -774647.9, -25528.934, -0.013886084, -0.07355908, -755168.8, -111036.85, 0.0, 9.999235, 9.999423 
2.2149634e+3, 2.442713e+2, -814033.4, -676390.1, -21222.182, -0.009491176, -0.05196908, -673192.3, -127058.22, 0.0, 9.998131, 9.999957 
2.214926e+3, 2.5427124e+2, -878443.44, -669927.0, -32258.67, -0.036995206, -0.04496591, -665050.5, -216914.8, 0.0, 9.997072, 9.99984 
2.2148892e+3, 2.6427144e+2, -841295.94, -456394.34, -34903.242, -0.032454226, -0.060719643, -453254.9, -103120.24, 0.0, 9.996031, 10.001134 
2.2148527e+3, 2.7427223e+2, -903248.8, -442425.06, -29496.904, 0.025631774, -0.093468875, -440544.66, -188417.33, 0.0, 9.994963, 10.001072 
2.2148156e+3, 2.8427422e+2, -891890.7, -242053.25, -35428.766, 0.05333867, -0.05037991, -240127.4, -86019.86, 0.0, 9.993748, 10.00236 
2.214778e+3, 2.9427752e+2, -969479.0, -223139.55, -17474.066, 0.01180881, 0.043206953, -222730.64, -166656.34, 0.0, 9.992519, 10.00241 
2.2147407e+3, 3.0427846e+2, -1060146.4, -235655.27, 8979.974, -0.04508014, -0.09840199, -235557.48, -235557.48, 0.0, 9.991537, 10.002462 
2.2147046e+3, 3.1428173e+2, -1058329.1, 5789.7095, -70535.2, -0.011520021, -0.0014057341, 10444.778, 10444.778, 0.0, 9.990518, 10.004609 
2.2254184e+3, 1.24340884e+2, -828114.25, -1676389.6, 24225.744, -0.047235414, -0.07992209, -827423.0, 894030.75, 0.29895574, 10.011095, 9.9950485 
2.2253808e+3, 1.343364e+2, -765945.9, -1623970.1, 47257.645, -0.06951848, -0.05520692, -763350.9, 860146.7, 0.21854618, 10.009786, 9.995243 
2.2253433e+3, 1.4433184e+2, -678906.5, -1508442.4, 11233.794, -0.053317655, -0.0556859, -678754.4, 846787.56, 0.13597922, 10.008653, 9.995919 
2.225305e+3, 1.5432763e+2, -640314.56, -1485774.8, 9873.783, -0.060803916, -0.0610771, -640199.3, 787383.4, 0.06762733, 10.007776, 9.995807 
2.2252665e+3, 1.6432373e+2, -599162.94, -1346282.9, 22270.504, -0.059751824, -0.058638006, -598499.7, 731121.56, 0.024613617, 10.0067425, 9.99659 
2.2252285e+3, 1.743203e+2, -672097.4, -1348196.5, 25676.951, -0.04817248, -0.05513579, -671123.6, 560532.75, 0.00542077, 10.005506, 9.9965 
2.2251904e+3, 1.8431729e+2, -638746.44, -1143021.6, 12019.527, -0.03526448, -0.05518846, -638460.1, 495225.47, 0.0003999822, 10.00444, 9.997749 
2.2251521e+3, 1.9431497e+2, -667193.4, -1112467.4, -3108.349, -0.020884857, -0.05862303, -667171.7, 368533.97, 0.000000118630574, 10.003597, 9.997692 
2.2251138e+3, 2.0431267e+2, -680246.9, -1006074.0, 10997.169, -0.019773692, -0.0744325, -679876.1, 257850.97, 0.0, 10.002568, 9.998245 
2.2250757e+3, 2.1431045e+2, -774727.7, -1013112.06, 30286.326, -0.036029078, -0.11308805, -770940.0, 68809.47, 0.0, 10.0013, 9.998136 
2.2250377e+3, 2.243091e+2, -749131.9, -801281.7, 28653.668, -0.037273698, -0.113506444, -736464.94, 5298.2144, 0.0, 10.000162, 9.999464 
2.2249995e+3, 2.3430903e+2, -795255.56, -778340.3, 10185.534, -0.01582096, -0.06503194, -773558.75, -129794.91, 0.0, 9.999196, 9.999414 
2.2249614e+3, 2.4430886e+2, -804156.9, -666009.5, 6375.4985, -0.008970625, -0.04223215, -665715.9, -119949.92, 0.0, 9.9981785, 10.000003 
2.224923e+3, 2.5430858e+2, -873531.44, -660750.75, 22426.645, -0.028016413, -0.06291331, -658412.75, -210643.27, 0.0, 9.997081, 9.999895 
2.2248851e+3, 2.6430887e+2, -851137.44, -449239.84, 30850.912, -0.028011639, -0.077406816, -446885.4, -97117.914, 0.0, 9.995916, 10.001235 
2.2248474e+3, 2.7431014e+2, -935540.94, -445389.22, 30202.916, 0.015248297, -0.07099356, -443535.16, -191779.52, 0.0, 9.994692, 10.00118 
2.2248094e+3, 2.8431213e+2, -896013.0, -234577.11, 16208.664, 0.050185867, -0.038979877, -234180.16, -80444.04, 0.0, 9.993684, 10.00244 
2.2247708e+3, 2.9431477e+2, -925299.3, -202161.4, 13450.493, 0.027783167, -0.019074047, -201911.31, -146201.89, 0.0, 9.992829, 10.002401 
2.2247317e+3, 3.043168e+2, -1081614.3, -242931.03, 36054.01, -0.08889778, -0.04694104, -241383.97, -241383.97, 0.0, 9.991382, 10.002484 
2.2246948e+3, 3.1431848e+2, -1162184.8, 27864.375, 29488.338, 0.021381607, -0.11694538, 28594.621, 28594.621, 0.0, 9.989502, 10.005248 
2.2354297e+3, 1.2438023e+2, -856109.9, -1726328.6, -8092.51, -0.030506996, -0.061204616, -856034.6, 865033.0, 0.30299217, 10.011095, 9.994577 
2.2353907e+3, 1.3437533e+2, -794621.75, -1693537.0, 10685.531, -0.068631575, -0.029795893, -794494.75, 828621.9, 0.22136176, 10.009792, 9.994759 
2.2353521e+3, 1.4437029e+2, -674735.94, -1499887.4, -16366.262, -0.046515018, -0.057822026, -674411.44, 850754.56, 0.13766535, 10.008665, 9.995983 
2.2353125e+3, 1.5436599e+2, -634213.7, -1471438.8, -19010.727, -0.06243558, -0.08227436, -633782.25, 793424.56, 0.06846854, 10.007775, 9.995908 
2.2352731e+3, 1.6436222e+2, -592936.94, -1332132.4, -20492.963, -0.06936692, -0.07518481, -592369.25, 736874.06, 0.02495323, 10.006738, 9.996692 
2.235234e+3, 1.7435928e+2, -664475.56, -1333772.5, -18835.238, -0.06468753, -0.03238959, -663945.94, 567327.3, 0.0055191135, 10.005509, 9.996599 
2.2351946e+3, 1.8435614e+2, -660204.3, -1190151.5, -18981.29, -0.055622514, -0.035066377, -659525.3, 473778.7, 0.00041452266, 10.004448, 9.997423 
2.2351556e+3, 1.9435288e+2, -691761.75, -1164747.0, -32693.875, -0.041399047, -0.09904169, -689512.56, 345822.2, 0.0000001807627, 10.0036, 9.997334 
2.2351162e+3, 2.0435052e+2, -648540.9, -940972.8, -33930.137, -0.027771305, -0.122150704, -644655.7, 292700.9, 0.0, 10.002568, 9.998694 
2.2350772e+3, 2.1434945e+2, -738898.44, -939501.25, -15651.569, -0.016113475, -0.096875824, -737684.6, 101681.43, 0.0, 10.0013, 9.998643 
2.2350378e+3, 2.243484e+2, -777404.44, -861615.2, -7258.2476, -0.01613447, -0.07491033, -776783.44, -35406.8, 0.0, 10.000166, 9.99905 
2.2349985e+3, 2.3434752e+2, -828275.3, -848692.4, -25327.652, -0.027956773, -0.059656627, -811176.25, -167788.8, 0.0, 9.9992, 9.998931 
2.2349595e+3, 2.4434698e+2, -779207.44, -615608.1, -34818.395, -0.015747916, -0.06373209, -608506.1, -63112.58, 0.0, 9.998181, 10.000349 
2.2349207e+3, 2.5434697e+2, -843459.5, -600189.0, -19664.516, 0.019814556, -0.09817988, -598609.7, -151217.0, 0.0, 9.997086, 10.000311 
2.2348814e+3, 2.6434776e+2, -847061.3, -441914.5, -16042.581, 0.014058675, -0.0855058, -441280.28, -91895.62, 0.0, 9.995918, 10.0012865 
2.2348416e+3, 2.743497e+2, -932965.56, -441518.53, -15226.026, -0.026822468, -0.016186858, -441047.25, -189680.63, 0.0, 9.994694, 10.001207 
2.2348025e+3, 2.843511e+2, -910321.94, -265532.3, -17210.063, -0.009706678, -0.0347476, -265073.28, -111719.984, 0.0, 9.993686, 10.002228 
2.2347637e+3, 2.9435197e+2, -948310.94, -253583.45, -22899.387, 0.03396794, -0.16524686, -252829.47, -197485.06, 0.0, 9.992841, 10.002045 
2.2347234e+3, 3.043558e+2, -1030319.2, -135932.02, -39336.875, -0.051014625, -0.025785554, -134205.23, -134205.23, 0.0, 9.991376, 10.003223 
2.2346841e+3, 3.143588e+2, -1130984.9, 92493.805, -2637.3125, -0.012023444, -0.05997499, 92499.49, 92499.49, 0.0, 9.989494, 10.0057 
2.245441e+3, 1.24420255e+2, -813805.56, -1714730.0, 4455.495, -0.022173934, -0.059745923, -813783.56, 906891.9, 0.30686173, 10.011642, 9.994409 
2.2454007e+3, 1.3441531e+2, -734610.56, -1663197.6, 40483.688, -0.065517955, -0.022199566, -732848.94, 889875.8, 0.224057, 10.010386, 9.994683 
2.2453609e+3, 1.4441004e+2, -626816.5, -1481282.8, 30285.018, -0.034720104, -0.06479428, -625744.44, 899031.9, 0.13926949, 10.009091, 9.995925 
2.2453204e+3, 1.544057e+2, -640252.0, -1480707.3, 21182.027, -0.062032927, -0.086772434, -639718.5, 787099.06, 0.06925802, 10.007768, 9.995847 
2.2452798e+3, 1.6440192e+2, -610053.75, -1340665.3, 13613.281, -0.07252603, -0.07856088, -609800.2, 719054.06, 0.02526557, 10.006622, 9.996687 
2.2452395e+3, 1.7439897e+2, -637294.56, -1320395.5, 7868.7637, -0.0625569, -0.035814047, -637203.94, 593680.1, 0.005608168, 10.0057, 9.996597 
2.245199e+3, 1.8439583e+2, -632552.06, -1177111.0, 15358.811, -0.053935703, -0.037387706, -632119.25, 500795.66, 0.00042766985, 10.0046425, 9.997417 
2.245159e+3, 1.9439256e+2, -719395.5, -1178808.8, 26227.611, -0.047007546, -0.09926767, -717903.0, 317042.97, 0.0000002419392, 10.003416, 9.997324 
2.2451186e+3, 2.0439023e+2, -684410.25, -953394.2, 21506.023, -0.03230954, -0.11951451, -682701.7, 254266.03, 0.0, 10.002305, 9.9987335 
2.2450784e+3, 2.1438923e+2, -729615.7, -929937.4, 4571.7085, -0.008540783, -0.08981634, -729511.44, 109464.85, 0.0, 10.001345, 9.998685 
2.2450382e+3, 2.2438823e+2, -750792.44, -840443.94, 14404.098, -0.006194387, -0.06911453, -748535.0, -7548.7344, 0.0, 10.000316, 9.999121 
2.2449978e+3, 2.3438731e+2, -823766.44, -837969.7, 38243.867, -0.027955648, -0.06322138, -791970.44, -148973.38, 0.0, 9.999199, 9.999003 
2.2449575e+3, 2.4438678e+2, -790022.3, -610634.0, 38603.168, -0.0187227, -0.073651746, -602679.56, -57676.633, 0.0, 9.998068, 10.000436 
2.2449178e+3, 2.5438684e+2, -863184.4, -599284.06, 28721.307, 0.024518041, -0.10772762, -596194.4, -149193.14, 0.0, 9.99691, 10.000399 
2.2448772e+3, 2.6438776e+2, -860947.0, -441334.5, 18751.123, 0.017260201, -0.091975436, -440498.22, -91506.13, 0.0, 9.995796, 10.001347 
2.2448362e+3, 2.7438974e+2, -922912.4, -429489.97, 22716.99, -0.03897908, -0.021500545, -428446.28, -177473.11, 0.0, 9.994738, 10.001266 
2.2447959e+3, 2.8439108e+2, -923889.75, -271219.88, 30866.012, -0.028572874, -0.04676169, -269763.4, -116803.31, 0.0, 9.993594, 10.002231 
2.2447559e+3, 2.943919e+2, -1032846.25, -296550.84, 39223.656, 0.027059207, -0.18007444, -294467.25, -239515.5, 0.0, 9.992276, 10.002019 
2.2447146e+3, 3.043956e+2, -1057170.4, -123068.62, 8145.2314, -0.030934984, -0.06439527, -122997.59, -122997.59, 0.0, 9.991085, 10.003449 
2.2446735e+3, 3.1439883e+2, -1056050.9, 99495.93, 17515.371, -0.031237703, -0.09826978, 99761.36, 99761.36, 0.0, 9.990139, 10.005434 
2.2554524e+3, 1.2446101e+2, -814112.6, -1704778.8, -22121.225, -0.024550688, -0.0637803, -813563.5, 906712.94, 0.31047946, 10.011636, 9.99451 
2.2554109e+3, 1.3445628e+2, -727135.56, -1628540.4, 4946.9063, -0.06613737, -0.028716382, -727108.4, 895214.5, 0.22660111, 10.010356, 9.994933 
2.2553702e+3, 1.4445104e+2, -641948.06, -1506332.5, -11276.7295, -0.024841176, -0.074855894, -641800.94, 882573.2, 0.14079514, 10.00907, 9.995737 
2.2553281e+3, 1.5444669e+2, -653028.25, -1511499.6, -23209.816, -0.06042803, -0.075646244, -652401.2, 774015.0, 0.07000823, 10.007779, 9.995632 
2.2552864e+3, 1.644427e+2, -615328.94, -1356950.9, -18829.266, -0.06864321, -0.07040763, -614851.2, 713604.0, 0.025558686, 10.006642, 9.996567 
2.2552451e+3, 1.7443927e+2, -644544.5, -1337237.9, -24527.002, -0.044447813, -0.06378333, -643677.1, 586812.4, 0.005691634, 10.005704, 9.996482 
2.2552039e+3, 1.8443626e+2, -612777.3, -1136192.9, -28163.887, -0.03386005, -0.05966486, -611266.25, 521252.56, 0.0004401925, 10.00464, 9.997703 
2.2551623e+3, 1.9443391e+2, -696955.5, -1133246.3, -18093.01, -0.039750744, -0.060334813, -696206.5, 338334.06, 0.00000029306102, 10.003417, 9.997639 
2.2551209e+3, 2.0443168e+2, -710393.06, -1009619.0, -13452.283, -0.033802804, -0.06932923, -709789.5, 226772.23, 0.0, 10.002311, 9.998346 
2.2550796e+3, 2.1442974e+2, -758885.9, -992452.94, -29577.6, -0.014069874, -0.092670605, -755198.5, 83382.68, 0.0, 10.0013485, 9.998256 
2.2550383e+3, 2.2442853e+2, -711591.94, -760185.5, -25850.2, -0.007644584, -0.095135905, -700412.44, 40180.316, 0.0, 10.000318, 9.999673 
2.254997e+3, 2.3442836e+2, -779961.8, -748497.6, -2980.1262, -0.016113482, -0.07566427, -748217.8, -105624.38, 0.0, 9.999201, 9.999619 
2.2549556e+3, 2.4442819e+2, -803985.8, -640899.3, -4998.4517, -0.018656267, -0.07197423, -640746.3, -96151.36, 0.0, 9.99807, 10.000229 
2.254914e+3, 2.5442815e+2, -881077.9, -638509.44, -15598.117, -0.017606845, -0.09164165, -637510.56, -190914.44, 0.0, 9.996916, 10.000129 
2.2548726e+3, 2.644287e+2, -856201.06, -432709.1, -22680.467, -0.020693142, -0.09745961, -431497.88, -82907.07, 0.0, 9.995798, 10.001407 
2.2548307e+3, 2.7443016e+2, -917380.6, -419520.47, -17389.592, -0.01978067, -0.089765914, -418913.8, -168337.45, 0.0, 9.9947405, 10.001335 
2.2547896e+3, 2.8443202e+2, -908269.1, -239377.98, -19355.848, -0.0042842445, -0.075282596, -238818.34, -86261.06, 0.0, 9.993592, 10.002452 
2.254748e+3, 2.9443464e+2, -1010478.0, -250741.34, -12962.212, 0.0037320033, -0.056605212, -250520.25, -195989.05, 0.0, 9.992274, 10.002337 
2.2547056e+3, 3.0443606e+2, -1085406.3, -181872.39, -28978.09, -0.02885187, -0.16790363, -180943.97, -180943.97, 0.0, 9.991083, 10.003048 
2.2546639e+3, 3.1443906e+2, -1099598.4, 2069.7175, -10116.533, -0.018990276, -0.1685042, 2162.6091, 2162.6091, 0.0, 9.990164, 10.004755 
2.265464e+3, 1.2450312e+2, -808538.5, -1710045.3, 10443.481, -0.02590466, -0.07021253, -808417.56, 911446.3, 0.31374732, 10.011796, 9.994379 
2.2654212e+3, 1.3449842e+2, -748562.2, -1637130.5, 24139.156, -0.07421031, -0.034209497, -747906.9, 874003.25, 0.22893551, 10.010175, 9.994962 
2.2653788e+3, 1.4449322e+2, -662086.94, -1519899.3, 21647.814, -0.025610263, -0.073018506, -661540.94, 862420.06, 0.14222103, 10.008947, 9.995685 
2.2653359e+3, 1.5448895e+2, -598093.9, -1488705.1, 22442.715, -0.059711784, -0.05810676, -597528.7, 828473.7, 0.07071894, 10.00822, 9.995574 
2.2652932e+3, 1.6448487e+2, -544482.4, -1328037.3, 28982.74, -0.064928345, -0.055278875, -543411.75, 784630.5, 0.025836023, 10.0071745, 9.996508 
2.265251e+3, 1.7448114e+2, -642758.9, -1342573.9, 27210.547, -0.03645361, -0.072365135, -641702.5, 588376.94, 0.0057710703, 10.005748, 9.996423 
2.2652085e+3, 1.8447809e+2, -625856.1, -1137757.0, 21214.715, -0.026049707, -0.069864064, -624978.44, 507130.63, 0.0004523581, 10.004534, 9.997741 
2.2651657e+3, 1.9447602e+2, -670194.4, -1115022.8, 10864.627, -0.037430655, -0.04549845, -669929.1, 364199.06, 0.00000031998934, 10.003582, 9.997683 
2.265123e+3, 2.0447388e+2, -677992.25, -994244.56, 18856.746, -0.03552553, -0.048094016, -676871.9, 259276.95, 0.0, 10.002538, 9.998341 
2.2650808e+3, 2.1447176e+2, -754969.9, -990979.4, 33115.324, -0.01750142, -0.087053195, -750411.44, 87758.71, 0.0, 10.001382, 9.998247 
2.2650386e+3, 2.244705e+2, -712603.75, -740912.75, 37422.543, -0.008824107, -0.10084784, -686748.25, 53433.516, 0.0, 10.000229, 9.999846 
2.264996e+3, 2.3447044e+2, -785059.5, -730026.9, 27711.732, -0.009962834, -0.0876669, -718490.8, -76310.37, 0.0, 9.99908, 9.999802 
2.2649536e+3, 2.4447043e+2, -815904.9, -641254.6, 19066.744, -0.016869778, -0.07969086, -639197.3, -95017.234, 0.0, 9.997969, 10.000273 
2.2649106e+3, 2.544706e+2, -881498.4, -635016.06, 30833.488, -0.03370583, -0.08045778, -631217.5, -185037.73, 0.0, 9.996901, 10.000157 
2.2648679e+3, 2.6447114e+2, -851899.94, -423310.56, 35010.17, -0.035213154, -0.09118212, -420469.53, -72294.89, 0.0, 9.995801, 10.001468 
2.2648257e+3, 2.7447227e+2, -932725.7, -420101.78, 37798.266, -0.008135753, -0.119369425, -417329.72, -167167.33, 0.0, 9.994611, 10.00139 
2.2647832e+3, 2.844742e+2, -920307.3, -243026.94, 27230.244, 0.0051468136, -0.10713433, -241933.9, -89790.92, 0.0, 9.9935055, 10.002466 
2.26474e+3, 2.944772e+2, -961759.06, -218628.28, 15663.92, -0.020864261, -0.043423828, -218298.27, -164185.45, 0.0, 9.992577, 10.002408 
2.2646968e+3, 3.044786e+2, -1033515.5, -167616.69, -922.7416, -0.037859928, -0.16048847, -167615.7, -167615.7, 0.0, 9.991489, 10.002948 
2.2646537e+3, 3.1448224e+2, -1129374.4, -19803.65, 56181.76, -0.003932593, -0.07721507, -16966.21, -16966.21, 0.0, 9.989994, 10.004685 
2.2754756e+3, 1.2454645e+2, -831741.0, -1754138.4, -25996.008, -0.035571367, -0.075342566, -831008.94, 888429.94, 0.31656814, 10.011744, 9.994077 
2.2754309e+3, 1.3454162e+2, -757272.8, -1659747.8, -21359.48, -0.08988037, -0.03765798, -756767.56, 864719.9, 0.23099169, 10.010195, 9.994798 
2.2753876e+3, 1.445365e+2, -655857.1, -1512265.1, -1431.1449, -0.035393097, -0.060688216, -655854.75, 867683.0, 0.14351168, 10.008983, 9.995731 
2.275344e+3, 1.5453239e+2, -595750.25, -1481143.5, -1214.372, -0.061935056, -0.035751235, -595748.56, 829828.8, 0.0713804, 10.008211, 9.995632 
2.2753003e+3, 1.6452834e+2, -548162.4, -1332136.1, -20315.385, -0.064376935, -0.033649337, -547636.25, 779980.6, 0.02609754, 10.007156, 9.99649 
2.2752567e+3, 1.7452446e+2, -642769.4, -1344673.6, -24099.855, -0.038550284, -0.062237795, -641942.9, 587712.25, 0.0058467854, 10.005753, 9.9964075 
2.2752129e+3, 1.8452121e+2, -639245.3, -1169744.8, -13433.249, -0.029406251, -0.06959141, -638905.4, 492781.53, 0.00046416812, 10.004547, 9.997516 
2.2751692e+3, 1.945188e+2, -686256.75, -1150163.3, -22723.76, -0.04063515, -0.054560706, -685146.3, 348563.56, 0.00000031187102, 10.003586, 9.997441 
2.2751255e+3, 2.0451674e+2, -652495.2, -941584.56, -22354.324, -0.038335137, -0.053688474, -650776.8, 284952.7, 0.0, 10.002535, 9.998706 
2.275082e+3, 2.145152e+2, -727467.1, -934182.75, -8185.1304, -0.019634634, -0.07316089, -727143.5, 110600.52, 0.0, 10.001379, 9.998641 
2.2750385e+3, 2.2451404e+2, -728884.25, -775490.56, -4457.591, -0.010399598, -0.086960204, -728461.75, 11292.76, 0.0, 10.000229, 9.99961 
2.2749951e+3, 2.3451346e+2, -802828.75, -768590.2, -14773.228, -0.011238147, -0.09958619, -763097.1, -121338.03, 0.0, 9.9990835, 9.999537 
2.2749515e+3, 2.4451339e+2, -794471.5, -598370.4, -21703.629, -0.013890928, -0.09673849, -595997.0, -52237.637, 0.0, 9.997972, 10.000568 
2.2749077e+3, 2.5451413e+2, -857464.2, -587617.44, -9208.701, -0.02352165, -0.07484477, -587303.5, -141550.4, 0.0, 9.996907, 10.000483 
2.2748637e+3, 2.6451498e+2, -848753.1, -418143.03, -10447.88, -0.025473522, -0.072729, -417889.7, -70145.53, 0.0, 9.995803, 10.001504 
2.27482e+3, 2.7451605e+2, -930276.8, -416751.25, -9116.793, -0.00679143, -0.1082231, -416589.44, -166857.8, 0.0, 9.994615, 10.001413 
2.2747764e+3, 2.8451738e+2, -936392.6, -277750.25, -9879.163, -0.0031422467, -0.14392306, -277602.1, -125883.92, 0.0, 9.993507, 10.002229 
2.2747321e+3, 2.9451945e+2, -975669.5, -250956.58, -18241.52, -0.04893168, -0.15307032, -250497.72, -196798.7, 0.0, 9.992587, 10.002184 
2.274688e+3, 3.0452335e+2, -1011411.2, -125663.66, -55238.902, -0.059698056, -0.021307569, -122232.02, -122232.02, 0.0, 9.991502, 10.003232 
2.2746438e+3, 3.1452549e+2, -1119261.8, 994.59015, 2744.92, -0.009148291, -0.11776971, 1001.31586, 1001.31586, 0.0, 9.989993, 10.004829 
2.285487e+3, 1.2459104e+2, -875661.7, -1785542.6, 3162.3357, -0.046350755, -0.058272406, -875650.7, 843351.9, 0.3188622, 10.011343, 9.99405 
2.2854412e+3, 1.3458604e+2, -686936.2, -1607684.3, 17473.639, -0.10778241, -0.043881793, -686604.7, 934447.4, 0.23270525, 10.010798, 9.994888 
2.2853968e+3, 1.4458102e+2, -567619.3, -1473448.3, 40302.293, -0.049825322, -0.059172623, -565829.7, 957271.56, 0.14462303, 10.0097275, 9.995681 
2.285352e+3, 1.5457682e+2, -617241.06, -1497905.9, 36019.85, -0.06662865, -0.035814844, -615770.25, 809371.6, 0.07197133, 10.008085, 9.995576 
2.2853072e+3, 1.6457275e+2, -595413.56, -1360179.4, 18570.154, -0.06436926, -0.0300438, -594962.9, 732218.94, 0.026337618, 10.006849, 9.996443 
2.2852625e+3, 1.7456892e+2, -597975.0, -1327911.9, 12339.393, -0.03954081, -0.04787266, -597766.5, 631453.4, 0.0059182784, 10.006089, 9.996358 
2.2852175e+3, 1.8456562e+2, -568408.56, -1130285.6, 25845.271, -0.027309705, -0.059811447, -567222.25, 564029.9, 0.00047585164, 10.005016, 9.997559 
2.2851726e+3, 1.9456302e+2, -684103.25, -1143310.1, 36083.188, -0.030815726, -0.06708624, -681285.2, 351991.22, 0.00000027835299, 10.003581, 9.997488 
2.285128e+3, 2.04561e+2, -681299.3, -946574.3, 39899.156, -0.028377507, -0.06767856, -675428.2, 259867.4, 0.0, 10.002304, 9.99878 
2.2850832e+3, 2.1455973e+2, -746394.56, -934779.75, 29495.76, -0.0187596, -0.063615434, -741884.3, 95423.016, 0.0, 10.001215, 9.9987135 
2.2850385e+3, 2.2455865e+2, -745266.8, -781169.7, 29577.73, -0.01303399, -0.07470582, -728619.2, 10697.981, 0.0, 10.00011, 9.999627 
2.2849938e+3, 2.3455785e+2, -817268.7, -773801.0, 40183.137, -0.009120073, -0.10836294, -749850.6, -108527.04, 0.0, 9.9989805, 9.999549 
2.2849493e+3, 2.4455775e+2, -805209.25, -591529.6, 38761.285, -0.007900531, -0.11417755, -584715.6, -41391.504, 0.0, 9.997849, 10.000671 
2.2849043e+3, 2.5455862e+2, -878638.9, -583984.06, 35183.42, -0.014759973, -0.0864066, -579841.2, -134525.1, 0.0, 9.996707, 10.000602 
2.2848594e+3, 2.6455963e+2, -870915.0, -424033.7, 26317.707, -0.021375457, -0.07659998, -422489.13, -75183.66, 0.0, 9.995634, 10.001543 
2.2848147e+3, 2.7456084e+2, -924244.1, -409763.75, 27550.064, -0.0131933605, -0.1013823, -408292.7, -159001.13, 0.0, 9.994641, 10.001448 
2.2847697e+3, 2.8456202e+2, -932108.0, -278361.34, 35540.543, -0.0151137, -0.15354979, -276434.88, -125155.055, 0.0, 9.993552, 10.002201 
2.2847244e+3, 2.9456353e+2, -1021463.4, -277664.5, 42924.266, -0.064628854, -0.2131819, -275195.56, -221929.23, 0.0, 9.992297, 10.002138 
2.2846794e+3, 3.045683e+2, -1061125.4, -155911.17, -4672.508, -0.030770065, 0.015040525, -155887.06, -155887.06, 0.0, 9.991192, 10.003173 
2.2846335e+3, 3.1456903e+2, -1056665.4, 30109.754, 26673.523, -0.0333056, -0.22153479, 30764.027, 30764.027, 0.0, 9.990435, 10.004812 
2.2954981e+3, 1.2463669e+2, -862678.3, -1752097.1, -4300.6494, -0.06636631, -0.028459253, -862657.5, 855898.94, 0.32056737, 10.011395, 9.994255 
2.2954516e+3, 1.3463159e+2, -674093.06, -1575368.5, 3091.821, -0.12886406, -0.05301466, -674082.44, 946522.75, 0.23401786, 10.010783, 9.995185 
2.2954063e+3, 1.4462666e+2, -580745.1, -1495229.5, -10538.475, -0.06977882, -0.066967666, -580623.7, 942029.06, 0.1455043, 10.009705, 9.995519 
2.2953598e+3, 1.5462218e+2, -626356.3, -1521944.5, -20117.033, -0.07518225, -0.055110708, -625904.7, 798792.06, 0.072458066, 10.0081005, 9.995405 
2.2953139e+3, 1.6461805e+2, -599136.7, -1373883.4, -8491.108, -0.06595479, -0.04254233, -599043.7, 727694.3, 0.026543446, 10.006871, 9.99634 
2.2952683e+3, 1.7461441e+2, -605289.6, -1343184.6, -13702.283, -0.04059064, -0.029929342, -605035.25, 623739.4, 0.005983712, 10.006085, 9.996257 
2.2952224e+3, 1.8461119e+2, -550181.7, -1090456.0, -25049.271, -0.021128504, -0.041102357, -549022.8, 581782.94, 0.0004878867, 10.005004, 9.99784 
2.2951765e+3, 1.9460855e+2, -663071.56, -1099832.4, -15799.475, -0.008988443, -0.0836862, -662500.75, 370328.28, 0.00000025032995, 10.003577, 9.99779 
2.2951303e+3, 2.046065e+2, -697027.4, -980920.44, 316.70132, -0.0068032253, -0.09022113, -697027.0, 237821.11, 0.0, 10.002307, 9.998545 
2.2950844e+3, 2.1460527e+2, -763702.94, -972083.3, -9356.849, -0.016803527, -0.058769386, -763283.6, 73577.52, 0.0, 10.001217, 9.998459 
2.2950386e+3, 2.2460423e+2, -726860.3, -744095.3, -11472.009, -0.017546576, -0.063766524, -721129.75, 17740.938, 0.0, 10.000112, 9.999883 
2.294993e+3, 2.3460354e+2, -797427.94, -734342.94, -1570.7616, -0.0044330372, -0.11488833, -734303.8, -93428.836, 0.0, 9.998984, 9.99982 
2.294947e+3, 2.4460341e+2, -812287.6, -607354.8, -4722.559, 0.0008437065, -0.1326764, -607246.06, -64370.758, 0.0, 9.997851, 10.000564 
2.2949012e+3, 2.5460404e+2, -885514.7, -599719.2, -8639.769, -0.009897173, -0.115669824, -599458.25, -154588.6, 0.0, 9.99671, 10.000494 
2.294855e+3, 2.6460505e+2, -868019.0, -419438.56, -12222.306, -0.025023125, -0.1038712, -419105.8, -72246.33, 0.0, 9.995636, 10.001576 
2.294809e+3, 2.746066e+2, -919899.5, -403842.8, -9649.043, -0.029788617, -0.10036525, -403662.47, -154819.42, 0.0, 9.99465, 10.001486 
2.2947629e+3, 2.8460804e+2, -919070.94, -252373.0, -12823.297, -0.030133713, -0.1331346, -252126.45, -101298.234, 0.0, 9.993553, 10.002381 
2.2947165e+3, 2.9460952e+2, -1013927.56, -260441.58, -7347.8003, -0.06586674, -0.21352552, -260369.94, -207555.92, 0.0, 9.992287, 10.002263 
2.2946714e+3, 3.046132e+2, -1093926.4, -223410.58, -36826.543, 0.049082395, -0.07999306, -221855.44, -221855.44, 0.0, 9.991183, 10.002716 
2.2946236e+3, 3.1461546e+2, -1055465.4, 25210.742, -12984.865, -0.07863843, -0.12366602, 25366.74, 25366.74, 0.0, 9.990462, 10.004767 
2.3055097e+3, 1.2468356e+2, -747430.2, -1698452.5, 41240.594, -0.089043446, -0.034725443, -745645.1, 972451.0, 0.321586, 10.01266, 9.994075 
2.3054624e+3, 1.3467826e+2, -681839.75, -1591197.4, 26084.076, -0.13219179, -0.06236654, -681092.2, 939055.2, 0.23484874, 10.010796, 9.995035 
2.3054157e+3, 1.4467344e+2, -619930.4, -1516864.6, 7907.652, -0.06866447, -0.055854674, -619860.7, 902333.5, 0.1460891, 10.009416, 9.99548 
2.3053682e+3, 1.5466869e+2, -560038.44, -1490586.1, 7880.896, -0.07414462, -0.06589941, -559971.7, 864268.94, 0.072794236, 10.008614, 9.99537 
2.3053211e+3, 1.6466449e+2, -509595.16, -1317905.4, 31707.988, -0.06629121, -0.061246794, -508353.25, 817928.94, 0.02669332, 10.007459, 9.99644 
2.3052742e+3, 1.7466104e+2, -624143.56, -1339807.1, 41104.363, -0.045891043, -0.04019062, -621790.44, 606526.2, 0.0060375184, 10.005906, 9.996364 
2.3052274e+3, 1.8465792e+2, -608612.6, -1119058.5, 25783.137, -0.024556363, -0.045373306, -607313.6, 523033.16, 0.00050011184, 10.00461, 9.99783 
2.30518e+3, 1.9465527e+2, -660409.75, -1099959.6, 10759.221, -0.0022239648, -0.08429388, -660146.56, 372224.06, 0.0000002600781, 10.003606, 9.997773 
2.3051327e+3, 2.046532e+2, -666529.3, -961684.25, 26403.307, 0.0033714778, -0.094067514, -664186.0, 270204.1, 0.0, 10.0025015, 9.998581 
2.3050857e+3, 2.1465188e+2, -752135.75, -961281.1, 38079.664, -0.009898205, -0.07355521, -745418.25, 90985.17, 0.0, 10.00128, 9.9985 
2.3050386e+3, 2.2465087e+2, -730653.3, -745553.25, 38622.445, -0.012190741, -0.07695215, -698768.9, 39643.773, 0.0, 10.000088, 9.999882 
2.304992e+3, 2.3465034e+2, -805755.44, -738410.9, 27723.85, 0.00096185855, -0.11058235, -728466.25, -88050.3, 0.0, 9.998931, 9.999816 
2.3049448e+3, 2.4465023e+2, -813372.2, -601668.4, 21481.7, 0.0009119282, -0.1282287, -599510.6, -57094.566, 0.0, 9.99782, 10.000616 
2.3048978e+3, 2.546507e+2, -877760.06, -589848.75, 30054.826, -0.01829391, -0.13129723, -586744.8, -142333.52, 0.0, 9.996739, 10.000546 
2.3048504e+3, 2.646517e+2, -867809.5, -414377.7, 34345.34, -0.029439768, -0.12782595, -411790.94, -65389.473, 0.0, 9.995619, 10.001617 
2.3048034e+3, 2.746533e+2, -941841.0, -408860.03, 37703.016, -0.018802887, -0.117714986, -406206.13, -157821.44, 0.0, 9.99448, 10.001531 
2.3047563e+3, 2.8465503e+2, -930271.3, -248503.8, 26944.5, -0.030363122, -0.12719536, -247440.58, -97073.23, 0.0, 9.99344, 10.0024605 
2.3047085e+3, 2.94657e+2, -992683.2, -244029.05, 20601.768, -0.09618549, -0.170524, -243462.55, -191113.83, 0.0, 9.992409, 10.002316 
2.3046629e+3, 3.0465963e+2, -1077906.4, -233997.1, 13035.705, 0.08562398, -0.12909847, -233795.78, -233795.78, 0.0, 9.991374, 10.00255 
2.3046136e+3, 3.1466213e+2, -1036377.75, 43824.254, 27190.297, -0.12381862, -0.13162982, 44508.24, 44508.24, 0.0, 9.990561, 10.004844 
2.315522e+3, 1.247314e+2, -773643.3, -1762495.3, -1818.3761, -0.116731055, -0.0809739, -773639.94, 943984.6, 0.32174122, 10.012629, 9.993591 
2.3154731e+3, 1.3472596e+2, -709347.0, -1659364.4, -25762.53, -0.12494208, -0.07065139, -708648.9, 911030.7, 0.2350657, 10.010803, 9.994507 
2.3154253e+3, 1.4472124e+2, -614393.0, -1510787.6, -16489.559, -0.05308274, -0.028514521, -614089.8, 907636.5, 0.14628577, 10.009439, 9.99552 
2.3153767e+3, 1.5471625e+2, -556180.7, -1482323.5, -17778.652, -0.06545823, -0.06897762, -555839.56, 867934.94, 0.07292276, 10.008612, 9.99543 
2.3153284e+3, 1.64712e+2, -492282.47, -1280433.0, -22298.16, -0.06598073, -0.0855902, -491652.13, 834163.4, 0.026758643, 10.007448, 9.996712 
2.3152798e+3, 1.747087e+2, -604543.94, -1299785.5, -15319.552, -0.05552645, -0.07733061, -604206.5, 623640.56, 0.006070109, 10.005906, 9.99664 
2.3152314e+3, 1.8470567e+2, -629629.06, -1165263.4, -11060.021, -0.037827916, -0.07091324, -629400.75, 500475.7, 0.0005112487, 10.004617, 9.997512 
2.3151833e+3, 1.9470312e+2, -683961.44, -1150137.5, -24948.705, -0.011470606, -0.06883083, -682630.06, 349272.06, 0.00000033057657, 10.003608, 9.99743 
2.3151353e+3, 2.0470099e+2, -645465.75, -918711.3, -17310.504, 0.0022434846, -0.07961245, -644373.5, 289548.78, 0.0, 10.002501, 9.9988785 
2.3150869e+3, 2.1469948e+2, -729666.1, -915313.06, -5997.43, 0.0017021239, -0.109597154, -729472.56, 106462.71, 0.0, 10.001278, 9.998818 
2.3150389e+3, 2.2469848e+2, -750139.7, -786973.6, -3645.9697, 0.0024038735, -0.114249624, -749782.25, -11838.113, 0.0, 10.000089, 9.9995985 
2.3149908e+3, 2.3469818e+2, -825960.3, -781758.1, -15039.576, 0.00480443, -0.09502891, -777126.4, -137178.97, 0.0, 9.998933, 9.999519 
2.3149423e+3, 2.4469814e+2, -798423.44, -572204.9, -19546.447, -0.009098108, -0.100273296, -570528.4, -28581.213, 0.0, 9.997823, 10.000819 
2.314894e+3, 2.5469854e+2, -861879.2, -559791.75, -11676.535, -0.04188859, -0.1329141, -559341.1, -115399.36, 0.0, 9.996747, 10.000751 
2.3148459e+3, 2.6469943e+2, -865270.75, -410456.6, -10354.085, -0.034268335, -0.14849095, -410221.0, -64288.83, 0.0, 9.995621, 10.001645 
2.3147984e+3, 2.7470094e+2, -939312.9, -403548.5, -4890.9063, 0.019627914, -0.15442416, -403503.88, -155586.53, 0.0, 9.994476, 10.001572 
2.3147498e+3, 2.8470296e+2, -932800.8, -254173.63, -11812.48, -0.017109666, -0.13711013, -253968.08, -104070.1, 0.0, 9.993438, 10.002425 
2.3147002e+3, 2.947058e+2, -992547.0, -248554.78, -20958.672, -0.15958533, -0.083044894, -247964.83, -196093.83, 0.0, 9.992424, 10.00228 
2.314654e+3, 3.047077e+2, -1069858.3, -220295.6, -23406.45, 0.07287733, -0.12023352, -219651.2, -219651.2, 0.0, 9.991383, 10.002643 
2.3146042e+3, 3.1470925e+2, -1005299.44, 107824.734, -49839.813, -0.081469074, -0.22408909, 110051.836, 110051.836, 0.0, 9.990556, 10.005289 
2.3255342e+3, 1.24780506e+2, -797553.94, -1780627.3, 11777.613, -0.13971937, -0.09878116, -797412.9, 919728.7, 0.3207798, 10.012374, 9.993588 
2.3254842e+3, 1.3477492e+2, -660675.06, -1641162.4, 6665.6147, -0.11723492, -0.090040684, -660629.75, 958568.44, 0.23447739, 10.011285, 9.994398 
2.3254348e+3, 1.4477028e+2, -549307.8, -1489659.6, 36404.87, -0.04483682, -0.027880484, -547900.56, 973343.94, 0.14596905, 10.010016, 9.995408 
2.3253852e+3, 1.5476502e+2, -568732.25, -1500218.8, 28586.37, -0.07392219, -0.08188064, -567855.8, 855439.6, 0.072773084, 10.008572, 9.995324 
2.3253354e+3, 1.6476068e+2, -517857.7, -1286621.9, 4602.6074, -0.076070055, -0.10359396, -517830.13, 807507.3, 0.026705753, 10.007246, 9.996761 
2.3252858e+3, 1.7475748e+2, -579300.56, -1280254.8, -4197.6655, -0.050476015, -0.09049793, -579275.44, 648092.5, 0.006069734, 10.006056, 9.996699 
2.3252364e+3, 1.8475454e+2, -595499.8, -1147415.5, 12364.367, -0.031856686, -0.079853795, -595222.94, 534173.8, 0.00051924144, 10.00485, 9.9975195 
2.3251867e+3, 1.94752e+2, -680808.9, -1147266.8, 22810.588, -0.01995232, -0.07380572, -679696.06, 351726.22, 0.0000004741107, 10.003629, 9.997437 
2.3251374e+3, 2.0474987e+2, -652408.0, -922532.8, 30205.576, -0.0058318134, -0.085425325, -649071.56, 284371.2, 0.0, 10.0024605, 9.998869 
2.3250881e+3, 2.147483e+2, -719791.25, -910882.1, 16287.87, 0.010537822, -0.12007096, -718412.9, 117043.46, 0.0, 10.001352, 9.998811 
2.3250388e+3, 2.247473e+2, -734478.6, -779433.4, 15924.844, 0.013229666, -0.12313064, -729409.1, 8056.2046, 0.0, 10.000199, 9.999596 
2.3249894e+3, 2.3474705e+2, -818995.4, -778124.94, 27128.084, 0.0025117903, -0.095402114, -764596.5, -125128.375, 0.0, 9.998984, 9.999517 
2.3249401e+3, 2.4474701e+2, -801770.2, -566771.3, 30684.023, -0.0151640875, -0.10305605, -562830.94, -21362.934, 0.0, 9.997774, 10.000877 
2.3248906e+3, 2.5474733e+2, -883686.25, -563905.25, 26445.275, -0.03859249, -0.14779572, -561733.0, -118270.07, 0.0, 9.996575, 10.000802 
2.3248416e+3, 2.6474833e+2, -877255.94, -412425.06, 25250.008, -0.023898702, -0.1576953, -411057.47, -65604.87, 0.0, 9.995527, 10.001675 
2.3247927e+3, 2.7475e+2, -923077.4, -392784.94, 29402.744, 0.029838553, -0.14542422, -391159.66, -143723.34, 0.0, 9.994578, 10.001595 
2.3247431e+3, 2.8475195e+2, -930521.4, -255342.77, 19843.74, -0.019957896, -0.13214436, -254760.05, -105342.33, 0.0, 9.993467, 10.0024 
2.3246923e+3, 2.9475474e+2, -1011923.75, -257271.72, 10701.415, -0.17147838, -0.08571904, -257120.0, -205728.16, 0.0, 9.992295, 10.002279 
2.3246452e+3, 3.0475676e+2, -1037092.44, -168111.53, 29008.463, 0.0637782, -0.124285676, -167144.23, -167144.23, 0.0, 9.991456, 10.002963 
2.3245952e+3, 3.1475905e+2, -1006184.94, 101127.0, -24664.592, -0.049725145, -0.18444373, 101676.12, 101676.12, 0.0, 9.990578, 10.005232 
2.3355462e+3, 1.2483061e+2, -780572.7, -1731296.1, -12826.317, -0.16533852, -0.1046329, -780399.7, 936249.7, 0.31843197, 10.012341, 9.993944 
2.3354954e+3, 1.3482504e+2, -648713.6, -1611756.8, -23657.438, -0.11016926, -0.11888819, -648132.8, 970571.8, 0.23287006, 10.011265, 9.994622 
2.3354448e+3, 1.4482045e+2, -565003.75, -1524573.5, -9137.115, -0.043697976, -0.049612544, -564916.75, 955833.44, 0.1450005, 10.010007, 9.99514 
2.3353933e+3, 1.5481493e+2, -586901.25, -1540922.4, -20197.334, -0.098710105, -0.1035228, -586473.9, 836331.0, 0.07227332, 10.008562, 9.995051 
2.3353423e+3, 1.6481045e+2, -529307.0, -1310569.3, -36343.992, -0.09618922, -0.11555579, -527619.94, 797229.06, 0.026504384, 10.007241, 9.996597 
2.335292e+3, 1.7480731e+2, -590591.5, -1304331.1, -45824.313, -0.03312716, -0.08064476, -587661.5, 639218.75, 0.0060264007, 10.006053, 9.996538 
2.3352411e+3, 1.848044e+2, -574031.94, -1103771.9, -31339.52, -0.009214195, -0.07336981, -572184.4, 556724.0, 0.00052185345, 10.00485, 9.997821 
2.3351902e+3, 1.9480184e+2, -658407.2, -1102023.4, -21118.113, -0.028153203, -0.10073703, -657404.2, 373528.1, 0.0000006856804, 10.00363, 9.997749 
2.3351397e+3, 2.0479971e+2, -674875.9, -970736.8, -9862.129, -0.020918572, -0.11095045, -674547.5, 258405.08, 0.0, 10.002462, 9.998539 
2.3350896e+3, 2.147982e+2, -743919.4, -961798.25, -22931.385, 0.014497218, -0.10501552, -741532.0, 93435.625, 0.0, 10.001351, 9.998464 
2.3350391e+3, 2.247972e+2, -715325.0, -740696.94, -28464.084, 0.019469718, -0.10352857, -696847.9, 40129.047, 0.0, 10.0002, 9.999863 
2.3349883e+3, 2.347969e+2, -798630.7, -737493.7, -18207.47, -0.0072729257, -0.11268044, -732482.06, -93502.97, 0.0, 9.998987, 9.999797 
2.3349378e+3, 2.4479675e+2, -808939.44, -582996.75, -15234.355, -0.017332058, -0.13754606, -581974.2, -40994.84, 0.0, 9.997777, 10.000767 
2.3348872e+3, 2.5479704e+2, -891696.6, -581723.9, -18746.82, -0.00921041, -0.17661683, -580594.25, -137618.42, 0.0, 9.996577, 10.000681 
2.3348372e+3, 2.6479825e+2, -876204.94, -411105.72, -11421.571, 0.0010535981, -0.15428975, -410825.4, -65861.91, 0.0, 9.995527, 10.001685 
2.3347871e+3, 2.748005e+2, -921800.06, -393439.38, -9088.175, 0.008449124, -0.0862141, -393283.1, -146341.05, 0.0, 9.994588, 10.001587 
2.3347363e+3, 2.8480202e+2, -933716.7, -264236.38, -26917.04, -0.04049829, -0.112884745, -263155.9, -114228.375, 0.0, 9.993473, 10.002339 
2.3346849e+3, 2.948035e+2, -1011036.44, -256093.8, -30956.242, -0.1310928, -0.1918844, -254826.58, -203913.05, 0.0, 9.992293, 10.00229 
2.3346364e+3, 3.048068e+2, -994523.75, -80084.35, -113.61818, 0.06077154, -0.13781385, -80084.336, -80084.336, 0.0, 9.991453, 10.003571 
2.3345855e+3, 3.1480998e+2, -1084825.4, -64588.55, -82096.12, -0.06468185, -0.16016518, -58024.69, -58024.69, 0.0, 9.990582, 10.004095 
2.3455584e+3, 1.2488174e+2, -783646.8, -1719568.9, 12665.443, -0.15746391, -0.121371165, -783475.44, 932671.5, 0.3145071, 10.012178, 9.994102 
2.3455064e+3, 1.3487604e+2, -672144.94, -1626437.4, -8393.741, -0.12089705, -0.14697024, -672071.1, 946132.1, 0.23008358, 10.0110235, 9.994624 
2.3454544e+3, 1.4487159e+2, -588242.94, -1526913.9, 3135.8953, -0.06399302, -0.06784354, -588232.5, 932014.8, 0.14327572, 10.009763, 9.995237 
2.3454016e+3, 1.5486626e+2, -600132.44, -1536964.3, 14926.052, -0.09992515, -0.11100466, -599894.7, 822405.3, 0.07137259, 10.008415, 9.995146 
2.3453496e+3, 1.6486178e+2, -552804.0, -1338668.0, 19860.8, -0.091142066, -0.12064307, -552302.4, 772042.3, 0.026135502, 10.007151, 9.996443 
2.3452978e+3, 1.7485839e+2, -614021.2, -1333555.3, 11076.377, -0.035730835, -0.09175038, -613850.75, 612528.4, 0.0059335628, 10.005973, 9.996373 
2.3452458e+3, 1.8485542e+2, -572256.94, -1095635.1, 17920.76, -0.012441969, -0.08334672, -571644.06, 556764.06, 0.00051685056, 10.004837, 9.997881 
2.3451938e+3, 1.94853e+2, -637832.4, -1083980.4, 9196.218, -0.02421008, -0.10232289, -637642.9, 392787.53, 0.00000091071996, 10.003742, 9.997816 
2.345142e+3, 2.0485093e+2, -661302.4, -966476.75, 21251.277, -0.018841285, -0.1097738, -659829.6, 272620.66, 0.0, 10.00257, 9.998514 
2.3450905e+3, 2.1484935e+2, -752063.5, -968269.56, 30594.805, 0.0066259373, -0.10510158, -747817.5, 86648.586, 0.0, 10.001311, 9.998436 
2.3450391e+3, 2.2484833e+2, -727394.94, -745665.8, 28288.965, 0.010820182, -0.10514938, -706802.94, 29673.102, 0.0, 10.000118, 9.999866 
2.3449871e+3, 2.3484796e+2, -796992.1, -735534.94, 17821.42, -0.0064079347, -0.11591108, -730741.0, -92262.25, 0.0, 9.998999, 9.999803 
2.3449355e+3, 2.448479e+2, -793640.56, -572401.4, 15511.684, -0.010327166, -0.1355995, -571319.06, -30840.51, 0.0, 9.997871, 10.0007925 
2.344884e+3, 2.548483e+2, -869011.2, -566978.1, 22959.93, 0.0022426043, -0.16257776, -565242.7, -122769.01, 0.0, 9.99672, 10.000711 
2.3448326e+3, 2.648495e+2, -865926.1, -410106.38, 40729.875, 0.0068057, -0.1389686, -406495.56, -62034.113, 0.0, 9.99562, 10.001645 
2.3447815e+3, 2.7485165e+2, -927288.6, -398772.84, 37131.15, -0.00046449114, -0.07824721, -396176.9, -149735.6, 0.0, 9.994569, 10.001557 
2.3447298e+3, 2.8485313e+2, -917058.0, -244810.44, 21050.752, -0.043627746, -0.114779204, -244151.9, -95724.52, 0.0, 9.993543, 10.002436 
2.3446774e+3, 2.9485443e+2, -979190.44, -236601.78, 30055.893, -0.10840774, -0.2143603, -235387.27, -184972.95, 0.0, 9.992498, 10.002324 
2.344628e+3, 3.0485818e+2, -991326.25, -84578.055, 39312.15, 0.061586067, -0.11121491, -82876.87, -82876.87, 0.0, 9.991507, 10.00351 
2.3445764e+3, 3.1486145e+2, -1084527.4, -63622.176, -76700.33, -0.017165482, -0.122069605, -57891.863, -57891.863, 0.0, 9.99059, 10.004094 
2.3555708e+3, 1.2493366e+2, -782052.06, -1724531.4, -16411.705, -0.12984885, -0.15593418, -781766.4, 933870.0, 0.3090079, 10.012121, 9.994096 
2.3555169e+3, 1.3492787e+2, -681261.44, -1654484.0, -39752.51, -0.14912786, -0.17391583, -679640.44, 938053.9, 0.22610334, 10.010979, 9.994457 
2.3554637e+3, 1.4492366e+2, -565769.2, -1481606.9, -37812.97, -0.10284459, -0.08200192, -564210.56, 955525.5, 0.1407786, 10.009741, 9.995604 
2.3554102e+3, 1.5491888e+2, -574544.2, -1482204.0, -30658.602, -0.08108192, -0.10605155, -573509.8, 848272.44, 0.07006164, 10.0084095, 9.995527 
2.3553567e+3, 1.6491447e+2, -563600.2, -1363973.4, -22046.568, -0.065505445, -0.12004809, -562993.4, 760832.75, 0.025594557, 10.007152, 9.996271 
2.3553035e+3, 1.7491059e+2, -626506.25, -1360726.8, -30981.178, -0.05768468, -0.1229932, -625201.3, 600664.8, 0.0057880087, 10.005973, 9.996189 
2.3552503e+3, 1.849075e+2, -585028.75, -1123127.9, -21157.727, -0.03919487, -0.108122446, -584198.1, 543699.06, 0.00050242455, 10.004836, 9.997695 
2.3551975e+3, 1.9490537e+2, -651146.0, -1111960.0, -29589.082, -0.009786173, -0.07938122, -649253.8, 380664.03, 0.0000010540134, 10.003739, 9.997627 
2.3551445e+3, 2.0490335e+2, -642985.1, -929110.44, -24051.625, -0.0014543618, -0.0826881, -640977.44, 290959.4, 0.0, 10.002569, 9.998773 
2.3550916e+3, 2.1490161e+2, -733702.2, -930821.7, -14851.539, -0.014484427, -0.12172513, -732589.56, 101363.28, 0.0, 10.00131, 9.998696 
2.3550388e+3, 2.2490051e+2, -746397.44, -786464.75, -12750.519, -0.012733167, -0.12798052, -742684.06, -6720.4043, 0.0, 10.00012, 9.999587 
2.354986e+3, 2.349002e+2, -816606.06, -778125.06, -23856.418, 0.0035680907, -0.104899004, -766717.2, -128749.2, 0.0, 9.999002, 9.999511 
2.3549333e+3, 2.4490036e+2, -781984.3, -549876.6, -28204.688, 0.004999636, -0.09548173, -546498.5, -6532.2505, 0.0, 9.997875, 10.000947 
2.3548804e+3, 2.549011e+2, -855535.56, -542028.2, -21043.563, -0.008041626, -0.10275181, -540621.94, -98664.88, 0.0, 9.996729, 10.00088 
2.3548278e+3, 2.6490203e+2, -873445.44, -427842.9, -228.13596, -0.008465026, -0.11274834, -427842.8, -83895.555, 0.0, 9.9956255, 10.001523 
2.3547758e+3, 2.749033e+2, -932282.94, -410407.6, -3042.3843, 0.0038538855, -0.12902822, -410389.88, -164454.31, 0.0, 9.994571, 10.001478 
2.3547232e+3, 2.8490517e+2, -898036.56, -206089.27, -19120.34, -0.028444193, -0.13656726, -205561.33, -57643.67, 0.0, 9.993542, 10.002705 
2.3546697e+3, 2.9490775e+2, -974362.25, -229917.58, -9558.359, -0.10835412, -0.13352492, -229794.86, -179902.39, 0.0, 9.992508, 10.002367 
2.3546194e+3, 3.0491072e+2, -1050368.5, -210016.48, 3906.9363, 0.06617884, -0.058114067, -209998.31, -209998.31, 0.0, 9.991515, 10.002647 
2.3545666e+3, 3.1491348e+2, -983698.25, 141437.72, -75388.26, -0.038958006, -0.059581228, 146466.53, 146466.53, 0.0, 9.990604, 10.005498 
2.3655823e+3, 1.2498714e+2, -834718.56, -1731044.0, 10206.45, -0.13503213, -0.14436223, -834602.3, 880509.5, 0.30215114, 10.011355, 9.994419 
2.3655273e+3, 1.3498126e+2, -729647.75, -1667403.1, 5961.751, -0.14606564, -0.18886393, -729609.9, 887559.9, 0.22107816, 10.010411, 9.994638 
2.3654729e+3, 1.4497697e+2, -606428.9, -1501219.9, 6989.2676, -0.105420455, -0.110874996, -606374.3, 912837.44, 0.13758883, 10.009387, 9.995613 
2.3654185e+3, 1.5497226e+2, -585676.9, -1486907.1, -5500.2725, -0.08125303, -0.12874424, -585643.3, 835614.56, 0.068370745, 10.008314, 9.995537 
2.3653638e+3, 1.6496794e+2, -555667.9, -1355778.6, -1096.894, -0.065503724, -0.13543403, -555666.4, 767634.7, 0.024887806, 10.007191, 9.996305 
2.3653091e+3, 1.7496414e+2, -618481.6, -1351934.6, 4343.5757, -0.061605114, -0.13112585, -618455.9, 606883.94, 0.0055888905, 10.006012, 9.996227 
2.3652549e+3, 1.8496104e+2, -593675.5, -1134954.3, 26252.713, -0.04529875, -0.11590344, -592405.2, 534966.25, 0.00047768457, 10.004816, 9.997621 
2.365201e+3, 1.9495878e+2, -677422.1, -1133127.0, 24599.43, -0.015030279, -0.090618685, -676098.06, 353296.2, 0.0000010408802, 10.0036, 9.997547 
2.365147e+3, 2.0495678e+2, -654631.6, -921873.75, 27291.375, -0.005740338, -0.09127121, -651873.06, 279540.06, 0.0, 10.002439, 9.998884 
2.3650928e+3, 2.1495523e+2, -722818.3, -911959.5, 24598.236, -0.01759718, -0.12228755, -719671.6, 113755.17, 0.0, 10.001331, 9.998813 
2.3650388e+3, 2.2495414e+2, -745469.4, -796810.2, 29165.256, -0.015453435, -0.1263462, -732286.44, 3150.9993, 0.0, 10.000177, 9.999487 
2.3649849e+3, 2.349537e+2, -828192.44, -794222.7, 32629.912, 0.003310927, -0.10540318, -774421.75, -136978.03, 0.0, 9.998973, 9.999412 
2.3649311e+3, 2.449538e+2, -780331.5, -557614.56, 31624.434, 0.0047145975, -0.091327086, -553211.1, -13768.129, 0.0, 9.997929, 10.000866 
2.3648772e+3, 2.5495458e+2, -818263.3, -532088.6, 19626.602, -0.0122970315, -0.086743094, -530748.8, -89314.98, 0.0, 9.9970255, 10.000804 
2.3648235e+3, 2.6495537e+2, -823575.25, -403207.44, 31790.965, -0.012175166, -0.10633967, -400816.8, -57391.516, 0.0, 9.99597, 10.001523 
2.3647705e+3, 2.7495626e+2, -903478.0, -396067.56, 38434.387, 0.012125121, -0.1543526, -393172.8, -147756.5, 0.0, 9.994772, 10.001477 
2.3647168e+3, 2.849583e+2, -867515.6, -198993.23, 16024.235, -0.018840794, -0.13980563, -198609.36, -51212.707, 0.0, 9.993791, 10.002631 
2.3646621e+3, 2.9496154e+2, -916743.6, -209936.52, -2738.2559, -0.12011734, -0.062364016, -209925.92, -160560.61, 0.0, 9.992943, 10.002293 
2.3646109e+3, 3.049633e+2, -1007998.2, -194886.66, 43372.996, 0.07350127, -0.104425035, -192579.61, -192579.61, 0.0, 9.991832, 10.002598 
2.3645566e+3, 3.1496534e+2, -993052.94, 102031.43, 28831.725, -0.087576285, -0.17553777, 102789.99, 102789.99, 0.0, 9.990696, 10.00518 
2.375593e+3, 1.2504193e+2, -800597.94, -1672430.3, -12879.043, -0.16834575, -0.102852665, -800407.75, 914167.6, 0.29427898, 10.011334, 9.994948 
2.3755379e+3, 1.35036e+2, -703356.5, -1610461.9, -20790.643, -0.12110338, -0.19357367, -702880.25, 913750.94, 0.21525063, 10.010381, 9.995054 
2.3754825e+3, 1.4503142e+2, -623011.56, -1545638.5, -27295.512, -0.081978805, -0.15084349, -622204.75, 896471.1, 0.13384406, 10.009371, 9.995301 
2.3754263e+3, 1.5502635e+2, -605628.44, -1534482.4, -41014.633, -0.098970555, -0.17450027, -603820.9, 816906.44, 0.066358685, 10.008306, 9.995218 
2.3753706e+3, 1.6502212e+2, -541928.2, -1327059.3, -41757.875, -0.08693279, -0.16447875, -539713.5, 783056.3, 0.024033569, 10.007182, 9.996509 
2.3753151e+3, 1.7501894e+2, -604637.9, -1322452.8, -37150.395, -0.049388845, -0.119426586, -602720.25, 622081.4, 0.005340073, 10.006004, 9.996435 
2.3752597e+3, 1.850159e+2, -593967.6, -1135378.3, -17374.48, -0.034137413, -0.1086697, -593410.6, 533421.7, 0.00044326755, 10.00481, 9.9976225 
2.3752041e+3, 1.950131e+2, -678488.4, -1135123.1, -18996.85, -0.04051991, -0.13474412, -677699.44, 351161.25, 0.00000087333115, 10.003594, 9.997538 
2.375149e+3, 2.0501114e+2, -657347.1, -928377.56, -12720.382, -0.030403709, -0.13292216, -656751.44, 274128.53, 0.0, 10.002438, 9.998842 
2.375094e+3, 2.150101e+2, -726032.1, -919583.25, -15095.059, -0.0047708657, -0.107100755, -724861.94, 108027.02, 0.0, 10.00133, 9.998763 
2.3750389e+3, 2.2500914e+2, -739795.6, -786522.7, -15112.658, 0.0012538387, -0.10038749, -735333.8, -435.55228, 0.0, 10.00018, 9.999558 
2.3749836e+3, 2.3500837e+2, -822278.3, -783700.44, -12126.453, -0.009547107, -0.11828105, -780205.3, -143298.38, 0.0, 9.998976, 9.999485 
2.3749287e+3, 2.4500813e+2, -803952.6, -608293.6, -2729.785, -0.011879505, -0.12476692, -608255.5, -69345.766, 0.0, 9.9979315, 10.000518 
2.374874e+3, 2.5500858e+2, -841674.75, -583681.0, -15474.464, -0.011137244, -0.116724044, -582756.1, -141851.14, 0.0, 9.997034, 10.000447 
2.3748195e+3, 2.6500943e+2, -813707.9, -385185.75, -14736.736, -0.004154945, -0.11941462, -384679.56, -41783.324, 0.0, 9.995976, 10.001646 
2.3747651e+3, 2.7501062e+2, -897144.0, -385711.16, -6071.506, 0.020012451, -0.15029255, -385639.1, -140755.27, 0.0, 9.99478, 10.001547 
2.3747104e+3, 2.8501254e+2, -899711.2, -268774.5, -16750.313, -0.01718128, -0.12617889, -268330.13, -121464.91, 0.0, 9.993799, 10.00215 
2.3746549e+3, 2.9501572e+2, -929497.5, -240550.56, -39363.598, -0.14140657, -0.009657902, -238308.78, -189474.1, 0.0, 9.992956, 10.002078 
2.3746029e+3, 3.0501586e+2, -945127.4, -65823.59, -4225.673, 0.07907271, -0.2537289, -65803.28, -65803.28, 0.0, 9.991834, 10.003486 
2.3745476e+3, 3.150191e+2, -1117176.3, -155576.66, -13317.937, -0.03097977, -0.2647049, -155392.23, -155392.23, 0.0, 9.990694, 10.003412 
2.3856042e+3, 1.2509756e+2, -805998.6, -1675448.6, 30026.459, -0.1553656, -0.12622726, -804962.9, 909065.6, 0.2857496, 10.011148, 9.995004 
2.385548e+3, 1.3509172e+2, -721814.9, -1629617.3, 6259.7837, -0.11713847, -0.20187663, -721771.75, 894312.2, 0.2088713, 10.0101795, 9.995009 
2.3854914e+3, 1.4508711e+2, -642707.44, -1554747.9, -3573.6465, -0.08961336, -0.15968196, -642693.44, 875435.94, 0.12969103, 10.009171, 9.99533 
2.3854344e+3, 1.5508217e+2, -629246.1, -1543843.3, 3904.3608, -0.10462334, -0.17173718, -629229.5, 790950.8, 0.064096846, 10.008106, 9.995247 
2.3853774e+3, 1.65078e+2, -558223.94, -1320552.4, 9638.455, -0.08995441, -0.16374387, -558102.06, 764120.06, 0.023061674, 10.007003, 9.996637 
2.3853211e+3, 1.7507479e+2, -614770.7, -1312724.4, 9397.4795, -0.04907728, -0.13323629, -614644.2, 609609.25, 0.005051672, 10.005875, 9.996563 
2.3852642e+3, 1.8507178e+2, -612816.5, -1147098.0, 22727.281, -0.03528982, -0.121254034, -611851.5, 514432.06, 0.0004015239, 10.004698, 9.997593 
2.3852076e+3, 1.950691e+2, -698369.0, -1146746.3, 18590.988, -0.047210567, -0.13308142, -697599.44, 330712.16, 0.00000061647575, 10.003472, 9.997514 
2.3851511e+3, 2.0506713e+2, -672160.44, -934313.44, 31186.305, -0.03870147, -0.12952739, -668501.5, 261829.67, 0.0, 10.002336, 9.998848 
2.3850952e+3, 2.15066e+2, -732963.4, -921994.94, 31442.514, -0.010119218, -0.11108926, -727870.56, 104470.21, 0.0, 10.001284, 9.998767 
2.385039e+3, 2.25065e+2, -732144.44, -787446.6, 28094.34, -0.0028131618, -0.10643877, -720376.3, 13974.334, 0.0, 10.000257, 9.999513 
2.3849827e+3, 2.3506421e+2, -786515.3, -770817.75, 22415.307, -0.012822388, -0.12076064, -754916.8, -118557.24, 0.0, 9.999245, 9.999441 
2.3849265e+3, 2.450639e+2, -777097.25, -604477.4, 41046.46, -0.012840809, -0.12597336, -595214.2, -56851.098, 0.0, 9.99816, 10.000432 
2.3848708e+3, 2.5506422e+2, -851997.06, -598164.4, 47896.168, -0.006302425, -0.12064321, -589427.5, -149067.72, 0.0, 9.99701, 10.000357 
2.3848154e+3, 2.6506498e+2, -818094.94, -393289.4, 48408.66, -0.0015032378, -0.12260084, -387842.84, -45490.797, 0.0, 9.995978, 10.001586 
2.3847601e+3, 2.750662e+2, -867790.6, -378628.8, 42284.668, 0.014730885, -0.14398389, -375000.5, -130660.92, 0.0, 9.995017, 10.001478 
2.384704e+3, 2.850681e+2, -893606.1, -275179.47, 44137.64, -0.014973206, -0.112863764, -272045.22, -125723.94, 0.0, 9.993888, 10.002059 
2.3846477e+3, 2.9507104e+2, -978090.9, -267998.3, 47971.08, -0.11952904, -0.006549899, -264772.25, -216479.42, 0.0, 9.992648, 10.002034 
2.3845942e+3, 3.0507106e+2, -959253.75, -67869.734, 50797.887, 0.06404507, -0.26924363, -64984.227, -64984.227, 0.0, 9.991721, 10.003524 
2.3845384e+3, 3.150773e+2, -1066282.4, -113993.445, -21448.35, -0.026974263, 0.029001316, -113510.61, -113510.61, 0.0, 9.990973, 10.003562 
2.3956157e+3, 1.251539e+2, -809983.0, -1706182.6, 2746.4265, -0.113176204, -0.20304829, -809974.56, 903498.5, 0.27689362, 10.011146, 9.994707 
2.3955579e+3, 1.3514832e+2, -737295.1, -1687519.9, -19861.398, -0.1314777, -0.2144906, -736880.2, 878648.4, 0.20216629, 10.010167, 9.994618 
2.3955002e+3, 1.4514393e+2, -622803.7, -1516308.5, -35662.21, -0.122560434, -0.14581077, -621382.56, 896190.7, 0.12526593, 10.009155, 9.995605 
2.3954424e+3, 1.5513954e+2, -610612.5, -1504293.8, -31678.889, -0.101473704, -0.12909745, -609490.94, 810127.6, 0.061659478, 10.008089, 9.995529 
2.3953845e+3, 1.6513535e+2, -556102.25, -1315688.4, -29899.402, -0.07947306, -0.13720289, -554927.1, 766732.9, 0.022008406, 10.0069895, 9.99668 
2.3953263e+3, 1.7513157e+2, -613515.8, -1309219.5, -30794.688, -0.06114265, -0.16820787, -612155.4, 611540.7, 0.0047381176, 10.005865, 9.996593 
2.3952685e+3, 1.8512861e+2, -617697.3, -1157062.0, -21603.768, -0.047426574, -0.1501064, -616833.4, 508892.47, 0.00035607343, 10.004692, 9.997529 
2.395211e+3, 1.951266e+2, -702759.6, -1155978.6, -25297.738, -0.037002098, -0.08989689, -701351.94, 326396.47, 0.00000034817865, 10.003469, 9.997455 
2.3951533e+3, 2.0512462e+2, -669502.8, -929744.56, -6793.3994, -0.0326385, -0.08477829, -669325.56, 260442.38, 0.0, 10.0023365, 9.998881 
2.395096e+3, 2.1512283e+2, -730830.06, -918226.75, -6139.391, -0.034832276, -0.13525817, -730629.1, 101154.195, 0.0, 10.001282, 9.998796 
2.3950388e+3, 2.2512163e+2, -743995.25, -813210.44, -8837.301, -0.027328804, -0.14326604, -742884.7, -9089.478, 0.0, 10.0002575, 9.999337 
2.3949817e+3, 2.3512113e+2, -798023.75, -796705.6, -15535.642, -0.008685909, -0.11185713, -781815.06, -146012.69, 0.0, 9.999249, 9.999264 
2.3949248e+3, 2.4512105e+2, -764389.7, -579985.2, -3175.7092, 0.0013479529, -0.09393676, -579930.5, -42126.86, 0.0, 9.998164, 10.000601 
2.394868e+3, 2.5512144e+2, -839935.6, -575111.6, 4584.5625, -0.00029177655, -0.09761965, -575032.3, -135233.69, 0.0, 9.997014, 10.000515 
2.394811e+3, 2.6512197e+2, -837499.6, -434497.84, 11647.042, -0.0056098416, -0.11573355, -434161.53, -92368.414, 0.0, 9.995979, 10.001305 
2.3947546e+3, 2.7512294e+2, -882522.94, -411601.25, 4378.7295, -0.0048373323, -0.13303256, -411560.53, -167776.55, 0.0, 9.995024, 10.00125 
2.394698e+3, 2.851249e+2, -872571.5, -232307.72, -4288.601, -0.010925108, -0.09938097, -232278.98, -86513.71, 0.0, 9.993887, 10.002357 
2.3946409e+3, 2.9512745e+2, -972220.9, -253694.4, 3276.56, -0.05244554, -0.06505893, -253679.47, -205938.5, 0.0, 9.992635, 10.002141 
2.3945852e+3, 3.0512902e+2, -1022443.0, -198126.3, 23651.668, 0.019416736, -0.12099591, -197448.23, -197448.23, 0.0, 9.991713, 10.002635 
2.3945293e+3, 3.1513336e+2, -972349.8, 75193.36, -76456.39, -0.022637842, 0.052851085, 80744.22, 80744.22, 0.0, 9.99099, 10.004858 
2.4056269e+3, 1.2521182e+2, -779177.0, -1696470.6, 15155.352, -0.10355493, -0.21242626, -778926.6, 933977.94, 0.26797804, 10.011328, 9.994709 
2.4055679e+3, 1.3520615e+2, -753486.06, -1705477.1, 13408.681, -0.13082537, -0.227769, -753297.25, 861664.5, 0.19532482, 10.00998, 9.994585 
2.4055088e+3, 1.4520182e+2, -648543.5, -1513908.0, 11690.803, -0.12999284, -0.1585874, -648385.56, 868620.56, 0.12068967, 10.008839, 9.995773 
2.4054502e+3, 1.551979e+2, -626725.0, -1494486.9, 12365.351, -0.10585958, -0.10928945, -626548.8, 792497.9, 0.05911669, 10.007877, 9.995696 
2.4053912e+3, 1.6519383e+2, -579132.7, -1327075.0, 6739.8604, -0.083306566, -0.1146156, -579071.94, 742015.1, 0.020908792, 10.006825, 9.996677 
2.405332e+3, 1.7518978e+2, -637207.1, -1320501.1, 2883.1816, -0.06665636, -0.17112783, -637194.94, 585930.9, 0.00441364, 10.005703, 9.996592 
2.405273e+3, 1.8518674e+2, -632819.8, -1158618.8, 12142.212, -0.05441846, -0.1618812, -632539.56, 492616.63, 0.00031067766, 10.004568, 9.997576 
2.4052142e+3, 1.9518484e+2, -707062.94, -1152404.0, 15382.839, -0.04511479, -0.09157711, -706532.25, 320644.94, 0.0000001406684, 10.00342, 9.9975 
2.4051555e+3, 2.051829e+2, -682230.4, -943352.0, 36966.133, -0.038202077, -0.08239795, -677098.06, 252098.61, 0.0, 10.002286, 9.99881 
2.4050972e+3, 2.1518098e+2, -753613.25, -936372.4, 29175.518, -0.033733785, -0.13619633, -749068.7, 82144.94, 0.0, 10.001162, 9.998727 
2.4050388e+3, 2.251797e+2, -759860.9, -818533.25, 34694.94, -0.025280047, -0.1469762, -743761.94, -10535.649, 0.0, 10.000144, 9.999353 
2.4049807e+3, 2.351792e+2, -801793.44, -796407.3, 42670.625, -0.008992209, -0.11525433, -756344.9, -121111.72, 0.0, 9.999219, 9.999278 
2.4049228e+3, 2.4517916e+2, -752187.94, -572217.2, 51116.09, 0.0012591684, -0.09279406, -558712.4, -21478.598, 0.0, 9.998243, 10.000613 
2.4048647e+3, 2.551796e+2, -813807.2, -561277.4, 46471.97, 0.0028943487, -0.091248065, -552996.9, -113768.695, 0.0, 9.997191, 10.000523 
2.4048069e+3, 2.6518008e+2, -830829.75, -439743.25, 56636.684, -0.009269886, -0.11271084, -431706.34, -90482.81, 0.0, 9.996066, 10.001225 
2.4047492e+3, 2.751809e+2, -907633.4, -430563.94, 62993.32, -0.02269861, -0.13410598, -422386.34, -179170.31, 0.0, 9.994887, 10.0011835 
2.4046916e+3, 2.851829e+2, -865648.06, -223374.5, 50080.793, -0.008393361, -0.09802814, -219492.95, -74295.48, 0.0, 9.9939165, 10.002401 
2.404634e+3, 2.9518527e+2, -903379.9, -220353.97, 40056.754, 0.002995143, -0.07924131, -218012.83, -170838.27, 0.0, 9.99311, 10.00214 
2.4045764e+3, 3.051872e+2, -1011227.9, -239757.45, 75051.71, -0.035767097, -0.07899021, -232523.95, -232523.95, 0.0, 9.991999, 10.002209 
2.40452e+3, 3.1518757e+2, -1026708.5, 85258.625, -18005.465, 0.0042581665, -0.26086518, 85550.1, 85550.1, 0.0, 9.990473, 10.00517 
2.415638e+3, 1.2527096e+2, -764699.1, -1676143.0, -22240.338, -0.12581334, -0.18143947, -764156.75, 948169.2, 0.25916734, 10.01125, 9.994932 
2.4155776e+3, 1.352651e+2, -734447.0, -1674351.9, -24804.516, -0.11956872, -0.23798981, -733792.9, 880591.5, 0.18848579, 10.009972, 9.994804 
2.4155176e+3, 1.452607e+2, -637937.94, -1504297.0, -18135.39, -0.11854451, -0.1877853, -637558.5, 878870.25, 0.116067216, 10.008847, 9.995846 
2.4154578e+3, 1.5525718e+2, -621979.94, -1486619.9, -19937.424, -0.11884677, -0.10748278, -621520.44, 796945.0, 0.05653467, 10.007863, 9.995759 
2.4153978e+3, 1.6525328e+2, -584965.94, -1337592.8, -32468.314, -0.099868394, -0.09675314, -583567.9, 736936.7, 0.019795464, 10.006804, 9.996617 
2.4153377e+3, 1.7524919e+2, -642632.1, -1329147.6, -36697.105, -0.066514805, -0.1489634, -640676.1, 581868.1, 0.0040907743, 10.005685, 9.996543 
2.4152774e+3, 1.8524602e+2, -625663.2, -1141830.3, -28877.73, -0.058065716, -0.15985698, -624052.6, 500523.2, 0.000268358, 10.004556, 9.9977 
2.415217e+3, 1.9524378e+2, -699997.6, -1136674.6, -25385.338, -0.07195664, -0.1346452, -698526.8, 328071.8, 0.00000003428923, 10.003411, 9.997615 
2.4151574e+3, 2.0524187e+2, -695383.5, -971000.6, -3526.1091, -0.0546264, -0.11787201, -695338.4, 233279.48, 0.0, 10.002284, 9.998623 
2.4150984e+3, 2.1524036e+2, -766464.3, -963585.9, -10887.222, -0.009568533, -0.11383796, -765864.9, 64767.83, 0.0, 10.00116, 9.998543 
2.4150391e+3, 2.2523916e+2, -745704.9, -790835.4, 1192.4133, 0.0015020698, -0.11853977, -745673.4, -13028.733, 0.0, 10.000147, 9.999544 
2.4149798e+3, 2.3523837e+2, -787907.56, -770152.5, 8603.944, -0.015617913, -0.13216975, -766667.25, -132014.66, 0.0, 9.999226, 9.999457 
2.4149206e+3, 2.452382e+2, -763376.56, -596685.7, 11034.598, -0.013629692, -0.123667724, -595958.44, -59304.19, 0.0, 9.998245, 10.000446 
2.4148618e+3, 2.552387e+2, -823920.25, -584526.1, 5733.63, 0.00085770746, -0.10124889, -584388.9, -145739.81, 0.0, 9.997197, 10.000362 
2.4148028e+3, 2.6523924e+2, -822215.2, -423633.28, 10966.969, -0.013024837, -0.11388773, -423331.75, -82687.88, 0.0, 9.996068, 10.001337 
2.4147436e+3, 2.7524003e+2, -902003.44, -419641.4, 18808.984, -0.041258108, -0.14929096, -418909.1, -176272.97, 0.0, 9.994886, 10.001261 
2.4146855e+3, 2.8524193e+2, -881578.06, -257066.44, 19544.264, -0.009755631, -0.11055517, -256455.39, -111837.29, 0.0, 9.993916, 10.0021715 
2.4146274e+3, 2.9524463e+2, -909976.3, -237592.92, 10313.159, 0.0439781, -0.039408922, -237434.77, -190842.14, 0.0, 9.993121, 10.002018 
2.4145676e+3, 3.0524522e+2, -1014363.06, -249003.3, 19729.793, -0.0971994, -0.16814929, -248495.03, -248495.03, 0.0, 9.992004, 10.002145 
2.41451e+3, 3.1524792e+2, -1013657.0, 112924.18, -63511.78, -0.03586539, -0.09743596, 116493.39, 116493.39, 0.0, 9.990462, 10.00537 
2.4256484e+3, 1.2533124e+2, -825041.4, -1701220.9, 19423.867, -0.12160995, -0.17483234, -824611.0, 887125.3, 0.2505064, 10.010542, 9.995038 
2.4255876e+3, 1.3532569e+2, -724664.4, -1661955.8, 16505.266, -0.1177843, -0.20685394, -724373.8, 889417.56, 0.18172278, 10.009946, 9.994901 
2.4255264e+3, 1.4532119e+2, -620654.7, -1493492.3, 12460.294, -0.11685091, -0.17442025, -620476.9, 895359.7, 0.111475006, 10.008928, 9.995887 
2.4254653e+3, 1.5531743e+2, -659160.6, -1501937.0, 9737.54, -0.1112376, -0.119840555, -659048.1, 758826.6, 0.053968243, 10.00756, 9.995797 
2.425404e+3, 1.6531354e+2, -642243.5, -1358446.6, 5778.094, -0.09831775, -0.11155488, -642196.9, 677716.8, 0.018696195, 10.006369, 9.996682 
2.4253428e+3, 1.7530969e+2, -688689.4, -1342975.3, 10345.475, -0.081215784, -0.1450734, -688525.8, 533425.8, 0.0037796318, 10.005335, 9.9966135 
2.4252816e+3, 1.8530662e+2, -655684.25, -1142895.5, 21197.229, -0.07315669, -0.1521114, -654763.75, 469218.2, 0.00023095144, 10.004297, 9.997814 
2.4252202e+3, 1.9530438e+2, -714512.9, -1130980.6, 23300.496, -0.07271588, -0.13913688, -713213.3, 312790.97, 0.000000003872902, 10.003261, 9.997725 
2.4251594e+3, 2.0530243e+2, -707027.6, -982950.3, 50056.387, -0.051649235, -0.12685697, -698227.3, 229796.53, 0.0, 10.002234, 9.998562 
2.4250993e+3, 2.153009e+2, -762967.75, -967715.9, 50925.523, -0.010966301, -0.115398936, -751000.9, 79038.54, 0.0, 10.001214, 9.998486 
2.4250391e+3, 2.2529975e+2, -735475.06, -775977.2, 66447.695, -0.0026608193, -0.11579381, -686261.0, 45789.883, 0.0, 10.000179, 9.999628 
2.4249788e+3, 2.3529902e+2, -796942.7, -764423.25, 66019.83, -0.020175552, -0.13149433, -712690.4, -78632.69, 0.0, 9.9991255, 9.999542 
2.4249187e+3, 2.4529876e+2, -789594.0, -615182.94, 68234.35, -0.018235028, -0.1336236, -591660.25, -55600.21, 0.0, 9.9980955, 10.000389 
2.4248587e+3, 2.5529903e+2, -843861.25, -599465.44, 70746.09, -0.0018050349, -0.12471584, -580463.7, -142406.6, 0.0, 9.997089, 10.000309 
2.4247986e+3, 2.652996e+2, -813562.4, -422235.88, 72126.57, -0.016797194, -0.12674229, -409365.3, -69313.86, 0.0, 9.996144, 10.0013075 
2.4247386e+3, 2.7530053e+2, -860414.6, -405443.1, 67452.805, -0.046227925, -0.14311859, -395653.38, -153611.16, 0.0, 9.995198, 10.001207 
2.4246794e+3, 2.8530216e+2, -863594.4, -266677.88, 69778.62, -0.0073877177, -0.12171371, -258629.39, -114602.234, 0.0, 9.994121, 10.002006 
2.4246204e+3, 2.9530454e+2, -933283.2, -258146.48, 65223.12, 0.05763866, -0.0656368, -251903.19, -205898.28, 0.0, 9.993008, 10.001928 
2.4245593e+3, 3.0530545e+2, -1014571.7, -232936.6, 67997.484, -0.1155081, -0.16403574, -227065.33, -227065.33, 0.0, 9.991938, 10.002286 
2.4245007e+3, 3.1530973e+2, -978246.5, 124505.85, 7531.9663, -0.010738788, 0.0577779, 124557.3, 124557.3, 0.0, 9.99073, 10.005319 
2.4356592e+3, 1.2539257e+2, -813432.7, -1701670.4, 2440.2246, -0.10200544, -0.17992093, -813425.94, 897710.25, 0.24195407, 10.010564, 9.995021 
2.4355972e+3, 1.3538766e+2, -722237.06, -1666459.5, -1510.3087, -0.12791125, -0.14828981, -722234.7, 890950.75, 0.17505166, 10.009912, 9.994887 
2.4355352e+3, 1.4538297e+2, -622209.56, -1498394.1, -31967.336, -0.12527382, -0.13375464, -621044.75, 894187.25, 0.10695485, 10.008884, 9.9958725 
2.4354729e+3, 1.5537852e+2, -660661.44, -1504421.4, -36590.35, -0.0867001, -0.14558052, -659077.6, 758198.2, 0.051453896, 10.007532, 9.995797 
2.4354105e+3, 1.6537459e+2, -632648.94, -1336392.5, -29879.03, -0.08258521, -0.1517919, -631382.6, 687932.4, 0.017630551, 10.0063505, 9.996845 
2.4353476e+3, 1.753712e+2, -679401.3, -1321140.6, -25942.334, -0.11138659, -0.15428007, -678354.25, 542994.56, 0.0034866913, 10.005319, 9.996774 
2.4352854e+3, 1.853685e+2, -650984.6, -1131764.3, -15597.8545, -0.09881638, -0.13800135, -650479.06, 472896.63, 0.00019907542, 10.004287, 9.997898 
2.4352236e+3, 1.9536647e+2, -709717.8, -1120097.4, -13191.573, -0.050182056, -0.109639876, -709294.25, 316101.38, 0.0000000002134854, 10.003252, 9.997806 
2.4351619e+3, 2.0536444e+2, -704502.7, -977751.4, 13126.675, -0.03173866, -0.112262465, -703873.56, 223542.3, 0.0, 10.002231, 9.998602 
2.4351001e+3, 2.1536255e+2, -760602.5, -963400.2, 14290.911, -0.03930763, -0.1419089, -759600.4, 69834.53, 0.0, 10.001212, 9.998519 
2.4350385e+3, 2.2536142e+2, -737795.94, -781729.7, 27782.04, -0.0371314, -0.13817781, -724345.5, 7100.4243, 0.0, 10.000179, 9.99959 
2.4349776e+3, 2.3536108e+2, -799111.6, -769721.25, 26532.188, -0.024809161, -0.11112226, -754086.5, -120637.586, 0.0, 9.999124, 9.999509 
2.4349165e+3, 2.4536073e+2, -786277.6, -609131.4, 29571.793, -0.013340426, -0.12172034, -604325.25, -68873.46, 0.0, 9.9980955, 10.000433 
2.4348557e+3, 2.5536057e+2, -840533.4, -594564.9, 33389.063, -0.007470453, -0.16190751, -590113.06, -152660.31, 0.0, 9.997094, 10.000343 
2.4347946e+3, 2.653612e+2, -826794.56, -451325.3, 36447.3, -0.020682152, -0.1516336, -447820.06, -108373.43, 0.0, 9.996147, 10.001109 
2.4347337e+3, 2.753625e+2, -873018.9, -434802.88, 30201.389, -0.036404733, -0.111355565, -432731.22, -191297.11, 0.0, 9.995208, 10.001003 
2.4346733e+3, 2.853635e+2, -872332.06, -287843.3, 26304.406, -0.0019703119, -0.13280568, -286661.9, -143236.97, 0.0, 9.994128, 10.001859 
2.4346131e+3, 2.9536477e+2, -938606.2, -269914.16, 24956.38, 0.034968555, -0.17231224, -268984.03, -223570.94, 0.0, 9.993007, 10.00185 
2.4345513e+3, 3.0536816e+2, -987463.06, -174256.58, 23668.914, -0.080631204, -0.04131738, -173568.25, -173568.25, 0.0, 9.991924, 10.002697 
2.4344915e+3, 3.1536964e+2, -1079328.5, -80829.62, -55618.27, 0.0034966557, -0.13847035, -77741.125, -77741.125, 0.0, 9.990709, 10.00392 
2.4456696e+3, 1.2545519e+2, -757349.25, -1686032.3, 22245.936, -0.10839324, -0.159158, -756816.7, 953706.6, 0.23343666, 10.011014, 9.994942 
2.4456067e+3, 1.3545018e+2, -765498.44, -1699808.1, 19251.627, -0.116382934, -0.12946315, -765101.94, 847471.7, 0.16845387, 10.009514, 9.994849 
2.4455434e+3, 1.454454e+2, -700532.06, -1524736.4, -10060.823, -0.11303523, -0.12827845, -700409.25, 814211.6, 0.10251737, 10.008188, 9.99601 
2.44548e+3, 1.5544093e+2, -716121.3, -1517438.9, -4886.712, -0.08445584, -0.15579394, -716091.5, 700572.94, 0.04900645, 10.007053, 9.995935 
2.4454163e+3, 1.6543712e+2, -671318.0, -1338962.0, 14230.162, -0.08187813, -0.16197737, -671014.8, 647687.3, 0.016606506, 10.006005, 9.996992 
2.4453525e+3, 1.7543401e+2, -710977.8, -1320843.3, 16461.2, -0.10582914, -0.15050273, -710533.8, 510199.53, 0.0032135283, 10.0050335, 9.996913 
2.4452893e+3, 1.8543142e+2, -682848.6, -1137188.0, 25054.863, -0.094814815, -0.13174236, -681471.1, 441287.88, 0.00017231023, 10.004028, 9.997984 
2.4452263e+3, 1.9542943e+2, -741099.2, -1124113.6, 27385.21, -0.051620316, -0.108720884, -739151.06, 285627.44, 0.00000000008671795, 10.002996, 9.997897 
2.4451636e+3, 2.0542741e+2, -732895.4, -986138.06, 56015.625, -0.036013495, -0.11352456, -721058.4, 205740.02, 0.0, 10.002019, 9.998644 
2.4451011e+3, 2.1542554e+2, -776458.2, -965745.0, 57040.293, -0.044279024, -0.14442782, -760598.3, 68218.945, 0.0, 10.001085, 9.998562 
2.4450386e+3, 2.2542442e+2, -749651.75, -786333.06, 69648.945, -0.041881304, -0.14094348, -695969.06, 34858.926, 0.0, 10.000098, 9.999596 
2.4449766e+3, 2.354241e+2, -808006.56, -772843.56, 71599.21, -0.026339076, -0.11155788, -716698.9, -83868.26, 0.0, 9.9990635, 9.999514 
2.4449146e+3, 2.4542369e+2, -788082.75, -614765.4, 75588.305, -0.016217066, -0.12515405, -586431.4, -51597.344, 0.0, 9.998107, 10.000387 
2.4448526e+3, 2.5542337e+2, -829864.06, -593900.4, 72014.805, -0.01412453, -0.17389798, -573658.3, -136821.83, 0.0, 9.9971895, 10.0003 
2.4447906e+3, 2.6542395e+2, -816249.4, -449878.28, 78647.07, -0.0215788, -0.16179405, -433709.1, -94878.58, 0.0, 9.996239, 10.001073 
2.4447288e+3, 2.754253e+2, -864477.56, -433469.7, 83724.0, -0.022360543, -0.11306034, -417777.5, -176960.1, 0.0, 9.995284, 10.000973 
2.4446675e+3, 2.8542614e+2, -863942.8, -290034.6, 81060.09, 0.0035103147, -0.14473513, -278805.22, -135995.55, 0.0, 9.994217, 10.001799 
2.4446057e+3, 2.954271e+2, -952117.2, -286406.2, 84332.13, 0.012308723, -0.20568743, -275889.16, -231088.42, 0.0, 9.992957, 10.0017605 
2.4445434e+3, 3.05431e+2, -986651.6, -151782.7, 77646.25, -0.04759185, -0.031480916, -144622.69, -144622.69, 0.0, 9.991837, 10.0028925 
2.444482e+3, 3.154313e+2, -1034037.56, -92859.5, -19314.846, -0.013592453, -0.26278147, -92463.29, -92463.29, 0.0, 9.991171, 10.0036125 
2.4556802e+3, 1.2551878e+2, -757097.44, -1695961.0, -20255.402, -0.13675138, -0.12576114, -756660.6, 953239.75, 0.22490256, 10.010949, 9.994882 
2.4556164e+3, 1.3551332e+2, -768744.94, -1710592.0, -25392.58, -0.09143551, -0.13746238, -768060.9, 843894.7, 0.16190635, 10.009451, 9.994806 
2.4555518e+3, 1.4550856e+2, -686203.4, -1497092.6, -44983.477, -0.0879139, -0.14493549, -683715.56, 830287.1, 0.098155856, 10.008158, 9.996229 
2.4554865e+3, 1.555045e+2, -700167.7, -1485480.5, -41896.137, -0.1034516, -0.15225369, -697938.9, 718103.06, 0.046624094, 10.007043, 9.996162 
2.4554221e+3, 1.6550094e+2, -664197.3, -1324806.9, -18849.28, -0.09456764, -0.14888093, -663659.94, 654416.94, 0.015622139, 10.005999, 9.997095 
2.4553579e+3, 1.7549793e+2, -705532.2, -1307836.9, -17516.27, -0.06957034, -0.13794631, -705023.25, 515083.63, 0.0029579713, 10.005021, 9.99701 
2.4552934e+3, 1.854953e+2, -678501.9, -1127304.8, -11833.321, -0.06568835, -0.132802, -678190.06, 443942.72, 0.00014961128, 10.00402, 9.998058 
2.455229e+3, 1.9549313e+2, -735920.9, -1113629.3, -9252.431, -0.07738641, -0.13348196, -735694.4, 288459.4, 0.00000000016280782, 10.002993, 9.997973 
2.4551652e+3, 2.0549129e+2, -730248.2, -981560.8, 22415.336, -0.06258138, -0.128462, -728264.56, 197907.61, 0.0, 10.002019, 9.998677 
2.455102e+3, 2.154898e+2, -774072.0, -961153.8, 23850.984, -0.027728315, -0.12285233, -771079.1, 57108.07, 0.0, 10.001081, 9.998597 
2.4550389e+3, 2.2548868e+2, -747764.2, -783672.25, 32056.54, -0.018505594, -0.124566, -728976.25, 1221.6405, 0.0, 10.000099, 9.999616 
2.4549754e+3, 2.3548798e+2, -806207.8, -771805.3, 33379.336, -0.027747182, -0.13396423, -751455.75, -119252.1, 0.0, 9.99907, 9.99952 
2.4549124e+3, 2.4548751e+2, -798242.06, -637615.94, 40104.91, -0.027479364, -0.14461716, -628159.4, -93951.72, 0.0, 9.99811, 10.000231 
2.4548493e+3, 2.554874e+2, -838663.6, -613921.8, 35896.78, -0.02345445, -0.15687029, -608327.5, -172118.86, 0.0, 9.997192, 10.000164 
2.4547866e+3, 2.6548785e+2, -807284.5, -432532.63, 41294.598, -0.020068089, -0.15745236, -428036.25, -89832.58, 0.0, 9.99624, 10.001193 
2.4547242e+3, 2.7548888e+2, -853895.8, -412920.2, 48612.535, -0.006684994, -0.15487677, -407624.8, -167431.75, 0.0, 9.995286, 10.001115 
2.4546614e+3, 2.8549016e+2, -860657.3, -284623.6, 34214.465, 0.0088600665, -0.15351963, -282598.5, -140417.63, 0.0, 9.994217, 10.001839 
2.4545981e+3, 2.954919e+2, -958107.9, -300103.78, 34926.324, -0.006340586, -0.13830099, -298255.13, -254090.63, 0.0, 9.992957, 10.001669 
2.4545352e+3, 3.054934e+2, -992434.56, -163702.11, 47835.69, -0.024044462, -0.187102, -160950.1, -160950.1, 0.0, 9.991832, 10.002815 
2.4544731e+3, 3.1549594e+2, -958616.5, 58793.703, -44011.445, 0.0011564303, -0.20754026, 60694.016, 60694.016, 0.0, 9.991187, 10.004648 
2.4656904e+3, 1.255829e+2, -804910.25, -1694074.8, -14485.303, -0.13750622, -0.13105293, -804674.4, 904598.25, 0.21632178, 10.010272, 9.995221 
2.4656253e+3, 1.3557775e+2, -823266.5, -1707911.5, 290.6981, -0.08884481, -0.14332186, -823266.4, 788057.6, 0.15537614, 10.008793, 9.99514 
2.4655594e+3, 1.4557326e+2, -736334.5, -1507514.8, 7648.2583, -0.08649737, -0.14632303, -736258.7, 777109.8, 0.093841374, 10.007676, 9.99638 
2.4654934e+3, 1.5556943e+2, -711184.44, -1475077.6, 8760.514, -0.1059261, -0.1453779, -711084.0, 704321.8, 0.044286598, 10.006882, 9.996309 
2.4654277e+3, 1.65566e+2, -671529.56, -1315217.6, 27462.617, -0.092081, -0.14191851, -670360.0, 647079.44, 0.014666471, 10.00589, 9.9972105 
2.4653625e+3, 1.7556301e+2, -737773.94, -1308809.9, 31085.236, -0.05460148, -0.13793719, -736086.75, 483381.9, 0.0027154468, 10.004743, 9.997134 
2.4652974e+3, 1.8556033e+2, -714071.6, -1147696.4, 39340.195, -0.054761782, -0.13945176, -710531.4, 410963.4, 0.00012972216, 10.003794, 9.998024 
2.4652317e+3, 1.9555806e+2, -735626.3, -1117135.4, 33482.746, -0.08418148, -0.14639673, -732710.06, 290807.06, 0.00000000021615258, 10.003011, 9.997941 
2.465167e+3, 2.0555623e+2, -718424.7, -970039.1, 57960.316, -0.07041554, -0.13894603, -705715.25, 219819.97, 0.0, 10.002078, 9.998726 
2.465103e+3, 2.1555491e+2, -778955.94, -956783.4, 58675.176, -0.021538854, -0.12247178, -761340.6, 66208.03, 0.0, 10.001026, 9.998651 
2.4650386e+3, 2.2555372e+2, -756007.0, -790471.56, 66702.516, -0.01076357, -0.12787248, -704346.75, 25212.832, 0.0, 10.000059, 9.999586 
2.4649744e+3, 2.3555283e+2, -796475.56, -769518.7, 65790.695, -0.027221069, -0.15372753, -715840.0, -84272.82, 0.0, 9.999152, 9.999494 
2.4649101e+3, 2.4555233e+2, -787321.3, -640991.2, 76024.52, -0.031050757, -0.16070646, -608643.94, -75072.445, 0.0, 9.998227, 10.000149 
2.4648464e+3, 2.5555232e+2, -830567.7, -617552.0, 76306.21, -0.027989063, -0.154518, -593038.6, -157466.81, 0.0, 9.997285, 10.000092 
2.4647827e+3, 2.6555267e+2, -804657.25, -429376.8, 74849.445, -0.022818983, -0.16233651, -414998.97, -77431.0, 0.0, 9.996253, 10.001207 
2.4647193e+3, 2.7555344e+2, -875921.06, -421887.03, 73760.24, -0.0035007217, -0.18401608, -410204.84, -170645.25, 0.0, 9.995129, 10.001129 
2.4646555e+3, 2.8555495e+2, -855597.9, -279013.84, 53427.727, 0.013103451, -0.16150555, -274104.9, -132559.81, 0.0, 9.994241, 10.001864 
2.4645913e+3, 2.9555714e+2, -875359.7, -257507.86, 49641.17, -0.0055110175, -0.10422722, -253544.86, -210020.53, 0.0, 9.993519, 10.001688 
2.464527e+3, 3.0555746e+2, -937277.0, -145892.23, 65050.82, -0.01893134, -0.26575968, -140580.8, -140580.8, 0.0, 9.992255, 10.002729 
2.4644639e+3, 3.1556225e+2, -1022344.9, 42866.152, -3485.5, 0.006438741, -0.050345086, 42877.56, 42877.56, 0.0, 9.99069, 10.004776 
2.4757007e+3, 1.256476e+2, -772998.25, -1630035.4, -53554.28, -0.12239757, -0.16301997, -769664.7, 938974.7, 0.20763704, 10.010173, 9.995821 
2.4756335e+3, 1.3564333e+2, -788745.3, -1628124.1, -42891.61, -0.10807254, -0.14774384, -786559.3, 824121.8, 0.14879285, 10.008743, 9.995714 
2.4755667e+3, 1.4563929e+2, -729401.4, -1498749.0, -17573.107, -0.10544235, -0.13683018, -729000.2, 783720.6, 0.08951323, 10.00766, 9.996456 
2.4755e+3, 1.5563554e+2, -707161.44, -1466132.3, -18172.367, -0.09513273, -0.13464005, -706726.56, 708031.4, 0.04195591, 10.00686, 9.996385 
2.4754336e+3, 1.6563213e+2, -664769.56, -1299281.0, -12693.639, -0.07816196, -0.1380951, -664515.7, 652275.4, 0.013722253, 10.005872, 9.997333 
2.4753672e+3, 1.7562914e+2, -729466.9, -1291371.6, -9078.306, -0.059992243, -0.14765485, -729320.25, 489499.4, 0.0024806908, 10.004736, 9.997259 
2.4753007e+3, 1.8562642e+2, -724283.6, -1170140.8, 11887.001, -0.06031684, -0.15111183, -723966.9, 396879.22, 0.00011163791, 10.003794, 9.997873 
2.4752346e+3, 1.9562407e+2, -746098.5, -1139292.3, 5918.668, -0.074573375, -0.1500412, -746009.44, 276860.22, 0.00000000023303823, 10.003008, 9.997792 
2.475169e+3, 2.0562217e+2, -716281.2, -966098.7, 19873.904, -0.06172252, -0.14591798, -714710.0, 210178.6, 0.0, 10.002076, 9.998756 
2.4751037e+3, 2.1562073e+2, -777277.8, -953672.4, 20926.197, -0.028151724, -0.142199, -774829.25, 52073.32, 0.0, 10.001023, 9.998676 
2.4750383e+3, 2.2561951e+2, -760682.9, -801610.25, 33365.004, -0.018490398, -0.14991173, -742005.94, -13092.094, 0.0, 10.000061, 9.999511 
2.4749732e+3, 2.3561859e+2, -800550.94, -779617.7, 31797.23, -0.025435422, -0.1693992, -756608.75, -125687.125, 0.0, 9.999155, 9.999426 
2.4749082e+3, 2.4561809e+2, -788233.44, -644728.94, 39871.99, -0.02695281, -0.17381643, -634394.94, -101468.8, 0.0, 9.998231, 10.000123 
2.4748436e+3, 2.5561804e+2, -831564.0, -622513.1, 40004.434, -0.030194309, -0.16842915, -615119.3, -180192.63, 0.0, 9.997293, 10.000055 
2.4747786e+3, 2.656183e+2, -813029.3, -447849.1, 31216.06, -0.03091898, -0.17625214, -445199.94, -108275.95, 0.0, 9.996252, 10.001083 
2.4747139e+3, 2.75619e+2, -886241.8, -443151.4, 31386.451, -0.0145235825, -0.19365442, -440939.2, -202022.13, 0.0, 9.995123, 10.000988 
2.4746497e+3, 2.8562036e+2, -856957.0, -282906.97, 24972.322, 0.015338918, -0.17227547, -281822.7, -140919.16, 0.0, 9.994241, 10.001841 
2.4745847e+3, 2.9562244e+2, -864354.7, -239163.89, 18072.674, 0.013452974, -0.12591024, -238641.89, -195758.52, 0.0, 9.993534, 10.001809 
2.474519e+3, 3.056236e+2, -941905.5, -156832.03, 988.5477, -0.033181965, -0.21439989, -156830.78, -156830.78, 0.0, 9.992256, 10.002656 
2.4744539e+3, 3.1562716e+2, -1038620.1, 4263.008, 40261.227, -0.029962568, -0.09515445, 5815.0107, 5815.0107, 0.0, 9.990698, 10.004515 
2.48571e+3, 1.2571421e+2, -881200.56, -1671859.5, 1529.8784, -0.12511383, -0.17195185, -881197.6, 826789.25, 0.1987347, 10.009072, 9.995986 
2.4856418e+3, 1.3571015e+2, -819517.3, -1627961.5, -5137.044, -0.115325995, -0.15080026, -819484.7, 790541.4, 0.14204524, 10.008357, 9.995897 
2.485574e+3, 1.4570628e+2, -747117.1, -1492422.0, 19315.463, -0.10775815, -0.1380549, -746616.9, 765446.94, 0.08508765, 10.007427, 9.996612 
2.4855065e+3, 1.5570267e+2, -764387.3, -1478360.8, 24453.48, -0.08269842, -0.13591799, -763550.75, 650548.6, 0.03958568, 10.006368, 9.996535 
2.4854392e+3, 1.6569929e+2, -722543.4, -1323805.9, 28549.566, -0.066621654, -0.14299601, -721190.8, 594941.25, 0.012771619, 10.005451, 9.997364 
2.4853715e+3, 1.7569627e+2, -739753.3, -1293389.0, 25775.879, -0.06192473, -0.15761408, -738555.9, 479605.03, 0.002249304, 10.004652, 9.997286 
2.4853045e+3, 1.8569355e+2, -723227.44, -1168769.4, 53399.945, -0.06092238, -0.16316739, -716916.6, 403270.78, 0.0000947438, 10.003801, 9.997877 
2.4852376e+3, 1.9569118e+2, -759620.8, -1144001.6, 57314.074, -0.061485853, -0.16301776, -751256.8, 270953.9, 0.00000000017417703, 10.002915, 9.997801 
2.485171e+3, 2.0568922e+2, -732454.5, -978986.94, 67596.67, -0.050652348, -0.15893747, -715136.7, 209093.42, 0.0, 10.001992, 9.998705 
2.4851045e+3, 2.1568772e+2, -778437.94, -959120.75, 63524.47, -0.030926798, -0.15488245, -758339.6, 67905.37, 0.0, 10.0010395, 9.99863 
2.4850383e+3, 2.2568645e+2, -756095.8, -804906.0, 77513.93, -0.026278447, -0.16265346, -699235.8, 29021.21, 0.0, 10.000121, 9.999456 
2.4849722e+3, 2.3568548e+2, -793581.9, -781166.1, 76204.625, -0.029822314, -0.1806677, -710916.94, -80651.62, 0.0, 9.999229, 9.999377 
2.4849063e+3, 2.4568494e+2, -780454.25, -640390.5, 83822.13, -0.02243544, -0.18535459, -601195.06, -68924.95, 0.0, 9.998285, 10.000125 
2.4848408e+3, 2.5568485e+2, -832249.0, -623360.8, 85836.61, -0.011585684, -0.18346557, -592614.3, -158343.44, 0.0, 9.997295, 10.000047 
2.4847749e+3, 2.6568502e+2, -802616.2, -462199.03, 74701.06, -0.01870322, -0.18690793, -446528.03, -110258.93, 0.0, 9.996412, 10.000905 
2.484709e+3, 2.7568564e+2, -830865.2, -433951.47, 69696.4, -0.022758873, -0.19284587, -422068.8, -183805.28, 0.0, 9.995584, 10.000826 
2.4846436e+3, 2.8568685e+2, -816267.5, -258583.3, 66679.55, 0.0037165696, -0.18136477, -250721.58, -110470.195, 0.0, 9.994505, 10.001878 
2.4845779e+3, 2.9568863e+2, -896601.56, -248236.14, 62584.773, 0.009718236, -0.16815138, -242250.28, -200016.9, 0.0, 9.993287, 10.001864 
2.4845113e+3, 3.0569044e+2, -947955.5, -191394.47, 16499.533, -0.023986602, -0.18044019, -191034.8, -191034.8, 0.0, 9.992356, 10.002368 
2.4844448e+3, 3.1569177e+2, -939674.4, 59555.883, 82713.27, -0.011475512, -0.24819674, 66356.36, 66356.36, 0.0, 9.991349, 10.004577 
2.4957187e+3, 1.257824e+2, -881552.25, -1687506.8, -17872.244, -0.14162971, -0.16015305, -881156.1, 826162.4, 0.18948959, 10.009048, 9.99586 
2.4956499e+3, 1.3577808e+2, -821593.3, -1644508.9, -26070.883, -0.11622393, -0.15049617, -820768.2, 788592.25, 0.13502982, 10.008336, 9.995796 
2.4955814e+3, 1.4577419e+2, -732478.5, -1468338.8, -13996.921, -0.099771306, -0.14644736, -732212.4, 779185.9, 0.08049627, 10.007413, 9.996799 
2.495513e+3, 1.5577073e+2, -751700.6, -1452888.8, -11068.785, -0.07042465, -0.14825869, -751525.94, 661905.5, 0.03714347, 10.006355, 9.996717 
2.4954443e+3, 1.6576742e+2, -727310.75, -1334889.0, 627.51984, -0.057587493, -0.15605873, -727310.1, 588153.5, 0.011804959, 10.005446, 9.9972925 
2.495376e+3, 1.7576432e+2, -744485.2, -1304120.9, -2430.57, -0.061861243, -0.1676196, -744474.6, 473018.88, 0.0020194338, 10.00465, 9.997215 
2.4953079e+3, 1.8576163e+2, -714406.94, -1151332.5, 21648.574, -0.05780862, -0.17479505, -713336.94, 406182.47, 0.000078699835, 10.0038, 9.997999 
2.4952403e+3, 1.9575931e+2, -751489.75, -1127240.6, 25328.748, -0.046396054, -0.18251394, -749790.06, 271751.2, 0.00000000005180779, 10.002912, 9.99792 
2.4951729e+3, 2.0575735e+2, -741307.75, -998279.0, 32946.105, -0.03752805, -0.1767813, -737151.0, 186409.6, 0.0, 10.001992, 9.998575 
2.4951053e+3, 2.1575584e+2, -786543.2, -977297.6, 29703.047, -0.03143323, -0.16275795, -782025.0, 43551.73, 0.0, 10.00104, 9.998507 
2.495038e+3, 2.2575448e+2, -760369.4, -815526.94, 45018.98, -0.034817897, -0.16747311, -735153.25, -7563.5205, 0.0, 10.000124, 9.999384 
2.494971e+3, 2.3575343e+2, -797729.1, -791705.5, 42349.87, -0.04326461, -0.1867975, -752260.5, -122661.57, 0.0, 9.999232, 9.999305 
2.4949045e+3, 2.4575284e+2, -778276.6, -637330.8, 45430.35, -0.017656164, -0.19459493, -623956.56, -92352.586, 0.0, 9.998288, 10.000147 
2.4948381e+3, 2.557527e+2, -831117.44, -622706.06, 48581.695, 0.02817823, -0.19763353, -611937.8, -178333.14, 0.0, 9.997298, 10.000052 
2.4947715e+3, 2.6575285e+2, -819128.0, -498933.56, 43252.06, 0.014931691, -0.19416197, -493193.94, -157590.22, 0.0, 9.996418, 10.000652 
2.4947043e+3, 2.7575338e+2, -841903.5, -461535.9, 36205.19, -0.029119672, -0.1820019, -458120.4, -220521.08, 0.0, 9.9956, 10.000631 
2.4946377e+3, 2.8575438e+2, -809114.44, -245683.58, 19222.162, -0.024416056, -0.1880032, -245028.55, -105439.85, 0.0, 9.994508, 10.001967 
2.4945706e+3, 2.9575574e+2, -902498.3, -256343.05, 19976.826, -0.022558779, -0.22650084, -255726.03, -214152.25, 0.0, 9.993265, 10.0018215 
2.4945037e+3, 3.057577e+2, -990763.0, -281771.34, -14986.039, 0.016214535, -0.18457136, -281454.75, -281454.75, 0.0, 9.992358, 10.001749 
2.4944364e+3, 3.1575996e+2, -962900.6, 4025.7947, -28434.701, 0.017501628, -0.10753763, 4861.2607, 4861.2607, 0.0, 9.991378, 10.004183 
2.5057274e+3, 1.2585199e+2, -882096.8, -1688678.3, 26954.777, -0.13658503, -0.13380623, -881197.0, 825439.4, 0.17983308, 10.008942, 9.995897 
2.5056583e+3, 1.3584739e+2, -845765.06, -1657800.6, 28871.678, -0.10376446, -0.15572463, -844739.9, 763941.06, 0.12770735, 10.008078, 9.995829 
2.5055882e+3, 1.4584334e+2, -768852.1, -1492355.5, 33023.785, -0.08747341, -0.16403006, -767347.9, 743372.1, 0.07572147, 10.00714, 9.996748 
2.505519e+3, 1.5583982e+2, -780384.7, -1472185.9, 23773.28, -0.06341308, -0.1652973, -779568.7, 633185.0, 0.0346254, 10.006161, 9.996676 
2.5054497e+3, 1.6583651e+2, -744838.25, -1342412.5, 40951.31, -0.052743845, -0.16706108, -742044.94, 572740.6, 0.010823876, 10.005321, 9.997298 
2.5053805e+3, 1.7583352e+2, -753248.8, -1306258.3, 42797.355, -0.056745816, -0.1698614, -749956.4, 466858.28, 0.001791782, 10.004586, 9.997228 
2.5053117e+3, 1.858308e+2, -719984.5, -1147548.5, 61437.617, -0.05216774, -0.18151395, -711331.56, 407509.06, 0.00006342164, 10.003739, 9.998052 
2.5052428e+3, 1.958284e+2, -762734.7, -1127219.6, 59661.223, -0.039420847, -0.20162559, -753217.5, 267645.44, 0.0000000000010010511, 10.002813, 9.997966 
2.5051746e+3, 2.0582643e+2, -753781.5, -1012796.5, 66915.27, -0.032999806, -0.19388048, -737515.75, 185366.8, 0.0, 10.001947, 9.998495 
2.5051063e+3, 2.1582493e+2, -779728.94, -981371.5, 65542.445, -0.03130034, -0.16748697, -760297.4, 64601.46, 0.0, 10.001125, 9.998434 
2.505038e+3, 2.2582358e+2, -738587.5, -807967.56, 84630.62, -0.034261435, -0.16705577, -681813.1, 45098.95, 0.0, 10.000292, 9.999353 
2.50497e+3, 2.3582247e+2, -770330.7, -781755.25, 86247.79, -0.038083024, -0.18761985, -689606.25, -60684.504, 0.0, 9.99944, 9.99927 
2.5049025e+3, 2.4582179e+2, -747039.06, -636268.8, 81548.93, -0.015522926, -0.1936801, -593075.4, -62147.527, 0.0, 9.998568, 10.000017 
2.5048354e+3, 2.558216e+2, -787079.5, -614243.1, 71969.484, 0.024215503, -0.19133213, -588199.3, -155269.42, 0.0, 9.99766, 9.999933 
2.5047678e+3, 2.6582164e+2, -784213.4, -486341.66, 71761.445, 0.015517949, -0.1879538, -469954.84, -135025.14, 0.0, 9.99668, 10.00061 
2.5046998e+3, 2.75822e+2, -835646.5, -461570.38, 78477.02, -0.018341104, -0.18418357, -445773.84, -208847.6, 0.0, 9.99566, 10.0006 
2.5046322e+3, 2.8582293e+2, -797707.0, -247854.5, 51113.2, -0.01788789, -0.19640878, -243143.48, -104226.9, 0.0, 9.994624, 10.001894 
2.5045636e+3, 2.9582426e+2, -867897.94, -251889.94, 41014.816, -0.023950193, -0.22758922, -249171.11, -208269.4, 0.0, 9.99356, 10.001707 
2.504496e+3, 3.0582604e+2, -955422.2, -266052.38, 40238.063, 0.015507878, -0.19139384, -263711.66, -263711.66, 0.0, 9.992611, 10.001732 
2.504427e+3, 3.1582776e+2, -956386.3, -46937.49, 2594.4888, -0.025795326, -0.17034118, -46930.086, -46930.086, 0.0, 9.991664, 10.00369 
2.5157362e+3, 1.2592274e+2, -870019.4, -1674572.5, 369.42603, -0.12178449, -0.09904497, -870019.2, 835923.7, 0.1697854, 10.008892, 9.996035 
2.5156662e+3, 1.3591784e+2, -837152.2, -1645315.1, 575.7469, -0.08020667, -0.16516952, -837151.8, 770837.8, 0.12012016, 10.008042, 9.995932 
2.5155956e+3, 1.4591356e+2, -782837.8, -1529359.5, -401.69424, -0.07105708, -0.1874814, -782837.56, 727193.4, 0.07080222, 10.007127, 9.996493 
2.515525e+3, 1.5590984e+2, -793287.6, -1505441.3, -9190.617, -0.062614426, -0.18450256, -793169.0, 618898.06, 0.032054964, 10.006165, 9.9964485 
2.5154546e+3, 1.6590656e+2, -739659.7, -1334602.0, 15797.331, -0.052690595, -0.17573564, -739240.5, 574858.0, 0.0098385215, 10.005324, 9.997352 
2.515385e+3, 1.7590377e+2, -749564.4, -1298160.8, 16532.951, -0.04778901, -0.16542381, -749066.56, 467058.8, 0.0015688693, 10.00458, 9.997289 
2.515315e+3, 1.8590097e+2, -722495.25, -1152283.5, 28114.135, -0.044877384, -0.18443649, -720664.0, 397487.94, 0.00004917204, 10.003733, 9.998025 
2.5152457e+3, 1.9589835e+2, -765444.5, -1133157.1, 26768.08, -0.041687332, -0.22236182, -763506.06, 256670.58, 0.0, 10.0028105, 9.997929 
2.5151762e+3, 2.0589639e+2, -757762.8, -1022811.7, 37099.016, -0.036924865, -0.21051401, -752668.0, 169528.6, 0.0, 10.00195, 9.998426 
2.5151068e+3, 2.15895e+2, -783286.8, -989908.75, 35933.84, -0.031910088, -0.1664483, -777215.94, 46995.914, 0.0, 10.001125, 9.998378 
2.515038e+3, 2.2589369e+2, -737279.1, -806895.6, 53530.816, -0.02482972, -0.1599556, -708234.75, 17989.832, 0.0, 10.000295, 9.999362 
2.5149697e+3, 2.3589255e+2, -769649.5, -783363.2, 54485.848, -0.015779253, -0.18373537, -721590.75, -93356.5, 0.0, 9.999449, 9.999258 
2.5149012e+3, 2.4589176e+2, -768052.75, -682412.0, 46935.38, -0.017515754, -0.1833072, -661698.8, -131456.63, 0.0, 9.998573, 9.9997 
2.5148323e+3, 2.558914e+2, -804528.5, -653425.75, 36227.156, -0.028667705, -0.16298471, -645189.2, -212942.25, 0.0, 9.997668, 9.999662 
2.5147638e+3, 2.6589134e+2, -771606.44, -461886.8, 31812.914, -0.01932689, -0.16782348, -458652.9, -124405.35, 0.0, 9.996683, 10.000778 
2.5146955e+3, 2.7589154e+2, -826922.3, -443406.88, 39446.64, 0.010842747, -0.20105293, -439391.63, -203146.95, 0.0, 9.995655, 10.000729 
2.514627e+3, 2.8589246e+2, -816994.9, -288743.56, 11093.193, 0.028061656, -0.20426448, -288510.72, -150275.64, 0.0, 9.994622, 10.0016165 
2.5145575e+3, 2.958943e+2, -878161.5, -277678.78, 1822.7677, 0.013053985, -0.15678786, -277673.25, -237456.98, 0.0, 9.993573, 10.001526 
2.5144878e+3, 3.0589548e+2, -906319.4, -167537.33, 7117.9087, -0.04420868, -0.20965542, -167468.77, -167468.77, 0.0, 9.99262, 10.002406 
2.5144187e+3, 3.158962e+2, -981752.94, -98620.0, -74315.41, -0.010491665, -0.34970012, -92410.04, -92410.04, 0.0, 9.991655, 10.003342 
2.5257447e+3, 1.2599362e+2, -891451.2, -1686102.1, 16161.79, -0.10973861, -0.1274373, -891122.6, 814124.5, 0.15942883, 10.008612, 9.996072 
2.5256738e+3, 1.3598917e+2, -885249.75, -1669971.4, 12515.547, -0.06475369, -0.15108731, -885050.25, 722240.1, 0.11235151, 10.007596, 9.9959755 
2.5256023e+3, 1.4598498e+2, -818032.4, -1543377.1, 25217.49, -0.06044828, -0.17005526, -817156.7, 692174.2, 0.06579993, 10.00682, 9.996541 
2.5255308e+3, 1.5598105e+2, -781878.6, -1495653.8, 34257.973, -0.06280447, -0.18996042, -780238.2, 631130.25, 0.0294649, 10.006218, 9.996487 
2.5254598e+3, 1.6597766e+2, -732853.9, -1332865.1, 61609.855, -0.05537166, -0.19366246, -726593.0, 586807.9, 0.008861484, 10.005378, 9.997335 
2.5253892e+3, 1.7597477e+2, -778495.7, -1313105.4, 57612.89, -0.046159085, -0.18779151, -772357.5, 443070.8, 0.001354062, 10.004389, 9.997275 
2.5253186e+3, 1.8597206e+2, -760605.44, -1180153.6, 64416.09, -0.044307258, -0.19277641, -750937.94, 366516.7, 0.000036455094, 10.003517, 9.997934 
2.525248e+3, 1.959696e+2, -783059.9, -1150021.1, 58394.73, -0.046135217, -0.20594247, -773991.56, 245487.28, 0.0, 10.00273, 9.9978485 
2.525178e+3, 2.0596752e+2, -745394.4, -1014408.06, 74478.875, -0.037047286, -0.20032679, -726150.8, 195348.81, 0.0, 10.002029, 9.998444 
2.5251082e+3, 2.1596587e+2, -744799.7, -969403.75, 78098.1, -0.020352842, -0.18317114, -720313.3, 103203.22, 0.0, 10.001387, 9.99839 
2.5250384e+3, 2.2596449e+2, -711247.75, -802149.8, 86922.984, -0.016272232, -0.17877017, -658610.06, 66919.7, 0.0, 10.000512, 9.999287 
2.5249687e+3, 2.3596342e+2, -771500.9, -792126.3, 81573.52, -0.01835144, -0.18638399, -699590.8, -72051.76, 0.0, 9.9994755, 9.999183 
2.5248995e+3, 2.4596259e+2, -780691.94, -704578.8, 81397.33, -0.022598831, -0.17863227, -652780.94, -123232.9, 0.0, 9.998562, 9.999551 
2.5248298e+3, 2.5596207e+2, -804530.1, -666229.3, 82229.04, -0.031402, -0.15882477, -627939.56, -196384.47, 0.0, 9.997728, 9.999542 
2.5247604e+3, 2.6596195e+2, -758855.56, -447447.94, 71001.15, -0.020686485, -0.16783804, -432023.63, -98467.336, 0.0, 9.99674, 10.000847 
2.524691e+3, 2.7596214e+2, -827845.4, -437702.2, 69888.945, 0.013082245, -0.20495571, -425560.4, -190007.72, 0.0, 9.995627, 10.000778 
2.5246215e+3, 2.8596315e+2, -813464.9, -300121.88, 49749.97, 0.03707008, -0.1929253, -295344.88, -157802.63, 0.0, 9.994709, 10.001493 
2.5245512e+3, 2.9596502e+2, -834436.1, -264406.94, 50434.855, 0.032346085, -0.12711242, -259978.97, -220455.4, 0.0, 9.993915, 10.001449 
2.5244802e+3, 3.0596566e+2, -871940.4, -112962.38, 34464.563, -0.04779761, -0.24698934, -111400.59, -111400.59, 0.0, 9.992699, 10.00274 
2.5244108e+3, 3.159693e+2, -1016813.06, -98034.61, -62392.61, 0.07187347, -0.13031475, -93816.99, -93816.99, 0.0, 9.991341, 10.003498 
2.5357535e+3, 1.2606476e+2, -886434.75, -1691413.5, -14709.208, -0.10265932, -0.20115288, -886166.06, 818382.4, 0.14886563, 10.008587, 9.9960375 
2.535681e+3, 1.3606134e+2, -882191.06, -1672198.6, -17764.81, -0.057653066, -0.11810107, -881791.75, 724791.7, 0.104481325, 10.00757, 9.995974 
2.535609e+3, 1.4605743e+2, -798861.75, -1507413.0, 5938.5747, -0.055810437, -0.12131034, -798812.0, 709809.2, 0.060768187, 10.006805, 9.996798 
2.535537e+3, 1.5605333e+2, -766463.94, -1463968.0, 12072.153, -0.06459841, -0.18516752, -766255.06, 644404.2, 0.026884183, 10.006203, 9.996714 
2.5354648e+3, 1.6604969e+2, -739714.4, -1347265.9, 26046.826, -0.060680438, -0.21946879, -738599.75, 574093.9, 0.007904961, 10.005368, 9.997243 
2.535393e+3, 1.7604652e+2, -785284.06, -1328102.5, 22658.615, -0.051942293, -0.23258571, -784339.9, 430383.94, 0.0011512499, 10.004387, 9.997175 
2.5353217e+3, 1.86044e+2, -771368.94, -1205135.4, 36149.914, -0.050416376, -0.20473187, -768376.9, 348372.38, 0.000025789182, 10.003524, 9.997762 
2.5352505e+3, 1.96042e+2, -791302.94, -1170075.1, 30977.2, -0.053415917, -0.15345946, -788786.25, 229984.05, 0.0, 10.002739, 9.997708 
2.5351796e+3, 2.0603973e+2, -738257.44, -1002269.56, 51678.45, -0.033521023, -0.1653208, -728502.25, 192290.17, 0.0, 10.002037, 9.998526 
2.5351095e+3, 2.1603745e+2, -740215.5, -961405.25, 54036.61, 0.0006593307, -0.21980415, -727720.2, 95093.53, 0.0, 10.001389, 9.998446 
2.535039e+3, 2.2603592e+2, -723699.7, -829363.56, 48710.367, -0.009726657, -0.22348, -704671.25, 20156.969, 0.0, 10.000513, 9.999102 
2.5349677e+3, 2.3603503e+2, -782652.25, -816332.94, 43021.043, -0.047252923, -0.19401838, -753292.94, -126456.38, 0.0, 9.9994755, 9.999019 
2.5348973e+3, 2.460342e+2, -779236.5, -702676.4, 49345.566, -0.029815692, -0.17959741, -678503.6, -149657.84, 0.0, 9.998562, 9.999565 
2.5348276e+3, 2.560335e+2, -802241.7, -663738.9, 49672.965, 0.018358327, -0.1803761, -647766.1, -216911.5, 0.0, 9.997734, 9.999559 
2.534757e+3, 2.6603332e+2, -763409.56, -458030.53, 28588.09, 0.012752698, -0.18909483, -455377.3, -122521.125, 0.0, 9.99674, 10.000777 
2.534686e+3, 2.7603382e+2, -832018.8, -447149.16, 28510.72, -0.016883012, -0.19285613, -445048.6, -210198.23, 0.0, 9.995626, 10.000717 
2.5346154e+3, 2.8603497e+2, -812460.1, -299274.4, 18791.756, 0.002740339, -0.16194479, -298587.2, -161748.77, 0.0, 9.99471, 10.0015 
2.534545e+3, 2.960363e+2, -833753.1, -264952.13, 16915.172, 0.027969886, -0.15028678, -264449.53, -225624.56, 0.0, 9.993919, 10.001445 
2.5344732e+3, 3.060367e+2, -874077.75, -116322.945, -22648.637, 0.02509549, -0.2953791, -115646.6, -115646.6, 0.0, 9.992689, 10.002725 
2.5344017e+3, 3.1604213e+2, -981143.6, -32330.654, -27180.246, 0.044646148, -0.0018040369, -31552.672, -31552.672, 0.0, 9.991362, 10.003946 
2.5457618e+3, 1.2613748e+2, -882622.44, -1689688.6, 9182.819, -0.108128875, -0.21712229, -882517.94, 821316.9, 0.13818632, 10.0085125, 9.996085 
2.5456885e+3, 1.3613401e+2, -896710.2, -1676303.3, 13559.032, -0.0506502, -0.14050561, -896474.44, 709395.94, 0.09656995, 10.0073805, 9.996037 
2.5456154e+3, 1.4613023e+2, -824904.44, -1509223.1, 49795.637, -0.049064796, -0.1390773, -821299.94, 686606.94, 0.05574619, 10.006536, 9.996912 
2.5455424e+3, 1.5612635e+2, -800441.7, -1469483.5, 46506.23, -0.06549772, -0.19110626, -797224.44, 612718.3, 0.024335867, 10.005904, 9.996818 
2.5454697e+3, 1.6612278e+2, -770726.5, -1365530.3, 50092.313, -0.06457234, -0.2209236, -766537.4, 545439.3, 0.0069798613, 10.005167, 9.997212 
2.5453973e+3, 1.7611955e+2, -791691.3, -1334686.9, 51039.664, -0.055739675, -0.2346497, -786935.4, 427072.2, 0.00096396403, 10.004361, 9.997141 
2.545325e+3, 1.8611695e+2, -751073.25, -1200295.3, 77969.42, -0.049548708, -0.2107118, -737925.25, 378108.8, 0.000017480745, 10.00369, 9.997712 
2.545253e+3, 1.9611484e+2, -739533.8, -1148040.0, 79907.78, -0.044153076, -0.16430284, -724459.3, 293597.1, 0.0, 10.003113, 9.997677 
2.5451815e+3, 2.0611262e+2, -703707.4, -979213.4, 96341.13, -0.028797947, -0.1711385, -673360.75, 246717.11, 0.0, 10.002253, 9.998578 
2.5451103e+3, 2.1611047e+2, -764547.1, -968692.9, 95783.516, -0.0067884843, -0.2150431, -726643.75, 95453.53, 0.0, 10.001208, 9.998481 
2.5450388e+3, 2.2610877e+2, -755074.94, -861770.25, 89896.68, -0.015642375, -0.22566853, -703888.44, 20224.893, 0.0, 10.000378, 9.998941 
2.544967e+3, 2.3610756e+2, -762236.0, -820437.1, 85861.2, -0.042928882, -0.21340945, -700677.94, -74552.37, 0.0, 9.999681, 9.998888 
2.544896e+3, 2.461067e+2, -747268.44, -675708.44, 93036.38, -0.019197198, -0.19884568, -611809.06, -83674.21, 0.0, 9.998737, 9.999663 
2.5448254e+3, 2.561062e+2, -812769.06, -659354.7, 98583.17, 0.03523774, -0.18848076, -611151.4, -181010.06, 0.0, 9.997626, 9.999639 
2.5447536e+3, 2.6610604e+2, -767243.06, -472918.1, 78636.04, 0.02075293, -0.19050644, -453226.1, -121083.36, 0.0, 9.996776, 10.000655 
2.5446817e+3, 2.7610642e+2, -774365.2, -430929.56, 72909.664, -0.028500898, -0.1909753, -416092.22, -181953.84, 0.0, 9.996077, 10.000608 
2.54461e+3, 2.8610742e+2, -787454.6, -290632.25, 52453.387, -0.00918093, -0.16753604, -285154.72, -149026.4, 0.0, 9.9949, 10.001467 
2.5445384e+3, 2.9610863e+2, -904191.06, -299350.84, 47487.496, 0.028553078, -0.16759852, -295645.2, -257528.47, 0.0, 9.99344, 10.001439 
2.544466e+3, 3.0610937e+2, -869860.2, -109572.984, 13353.661, 0.0333014, -0.27755767, -109338.516, -109338.516, 0.0, 9.9927025, 10.002762 
2.544393e+3, 3.1611204e+2, -902620.1, -37904.613, 30880.666, 0.01686486, -0.26003614, -36803.207, -36803.207, 0.0, 9.992101, 10.003544 
2.5557697e+3, 1.262115e+2, -874442.6, -1679899.4, -25612.295, -0.12524407, -0.18910807, -873629.06, 829479.9, 0.12747066, 10.008446, 9.996191 
2.5556955e+3, 1.3620721e+2, -884339.0, -1662467.0, -20573.545, -0.046034437, -0.20631173, -883795.44, 721355.94, 0.08866939, 10.007379, 9.996133 
2.555622e+3, 1.4620341e+2, -819747.56, -1511784.8, 29111.174, -0.042179473, -0.20825964, -818525.2, 688662.9, 0.05076859, 10.006555, 9.996888 
2.555548e+3, 1.5620007e+2, -800514.1, -1472821.8, 24114.781, -0.06687837, -0.20459503, -799650.25, 609569.3, 0.021841342, 10.005898, 9.996799 
2.5554746e+3, 1.6619681e+2, -770983.5, -1366039.8, 21615.053, -0.068032384, -0.2012513, -770199.4, 541051.5, 0.0060960324, 10.005158, 9.997215 
2.5554013e+3, 1.7619376e+2, -790700.06, -1334151.5, 23412.232, -0.058508802, -0.19907919, -789693.3, 423587.28, 0.00079446426, 10.004363, 9.997146 
2.5553286e+3, 1.861908e+2, -747407.4, -1194473.4, 57972.4, -0.042552583, -0.21239918, -740012.25, 375297.84, 0.0000114613495, 10.003693, 9.997754 
2.5552565e+3, 1.9618805e+2, -737240.1, -1142765.8, 57894.1, -0.021537146, -0.23442534, -729136.9, 288200.88, 0.0, 10.003106, 9.997719 
2.5551838e+3, 2.0618615e+2, -703965.0, -979847.0, 58100.785, -0.024230957, -0.21318653, -692228.25, 227127.97, 0.0, 10.002248, 9.998577 
2.555111e+3, 2.1618487e+2, -765086.0, -970717.8, 59132.105, -0.04223364, -0.16839063, -749294.5, 72073.18, 0.0, 10.001207, 9.998469 
2.555039e+3, 2.2618303e+2, -765049.5, -884005.25, 64585.21, -0.033060268, -0.18673542, -736727.2, -13341.459, 0.0, 10.0003805, 9.99879 
2.554967e+3, 2.3618093e+2, -768808.8, -836764.1, 57984.844, -0.006679145, -0.24636115, -735579.9, -110173.27, 0.0, 9.999688, 9.9987755 
2.5548947e+3, 2.4618007e+2, -735267.3, -652354.56, 50590.16, 0.008369665, -0.23666988, -628404.56, -100989.0, 0.0, 9.998739, 9.9998255 
2.5548226e+3, 2.5618017e+2, -804348.06, -642443.6, 58108.484, 0.014828142, -0.1816577, -623747.2, -194331.98, 0.0, 9.997624, 9.999759 
2.55475e+3, 2.6618013e+2, -780652.25, -501882.16, 52683.117, 0.0010846104, -0.17050496, -492258.16, -160842.25, 0.0, 9.996777, 10.000459 
2.5546774e+3, 2.7618e+2, -783782.94, -454949.94, 43144.883, -0.019331023, -0.19964588, -449383.3, -215966.55, 0.0, 9.996091, 10.00044 
2.5546047e+3, 2.8618047e+2, -792403.7, -302042.94, -3868.005, 0.0046379766, -0.2149903, -302012.44, -166600.22, 0.0, 9.9949, 10.001391 
2.5545314e+3, 2.9618192e+2, -909530.5, -304256.2, -684.8568, 0.033173047, -0.18359134, -304255.4, -266856.6, 0.0, 9.993408, 10.001424 
2.5544575e+3, 3.0618387e+2, -875084.2, -121164.66, 1031.2388, -0.04484952, -0.17242812, -121163.24, -121163.24, 0.0, 9.992702, 10.002686 
2.5543854e+3, 3.1618503e+2, -941327.2, -123217.78, -56939.996, 0.07687217, -0.28597865, -119273.8, -119273.8, 0.0, 9.992121, 10.00295 
2.565778e+3, 1.2628621e+2, -924937.5, -1696481.8, 7292.059, -0.08999621, -0.18635115, -924868.56, 777508.3, 0.1168195, 10.00791, 9.996321 
2.5657025e+3, 1.36282e+2, -854431.2, -1637107.8, 14588.74, -0.074610785, -0.20785588, -854159.4, 750258.7, 0.08084582, 10.007503, 9.996246 
2.565628e+3, 1.4627822e+2, -796313.8, -1507961.9, 60652.15, -0.07129591, -0.20984894, -791181.6, 715272.94, 0.045876093, 10.006729, 9.99683 
2.5655538e+3, 1.5627483e+2, -825083.06, -1489957.8, 54300.92, -0.05955491, -0.20213461, -820677.44, 587809.4, 0.01942291, 10.005738, 9.996758 
2.5654796e+3, 1.6627155e+2, -792134.5, -1370133.8, 57837.39, -0.05669724, -0.20169295, -786403.8, 524114.72, 0.005262003, 10.004986, 9.997269 
2.5654054e+3, 1.7626846e+2, -782071.1, -1322534.3, 62562.92, -0.06254536, -0.20708346, -774923.5, 437625.1, 0.000643514, 10.004394, 9.997209 
2.5653318e+3, 1.8626559e+2, -754482.56, -1185576.6, 98447.766, -0.047924746, -0.21724255, -733064.44, 381512.34, 0.000007326942, 10.003595, 9.99786 
2.565259e+3, 1.9626303e+2, -794162.8, -1159635.4, 102064.41, -0.019235106, -0.23022342, -767591.44, 249010.88, 0.0, 10.002674, 9.99781 
2.5651854e+3, 2.0626105e+2, -754061.6, -1010647.06, 98428.72, -0.020989321, -0.21510366, -720653.25, 197968.22, 0.0, 10.001938, 9.998513 
2.565112e+3, 2.1625958e+2, -752508.7, -969496.3, 93679.0, -0.042643543, -0.1832141, -717661.44, 102973.91, 0.0, 10.00132, 9.998422 
2.565039e+3, 2.2625782e+2, -743908.7, -866032.06, 107082.98, -0.032854456, -0.19384804, -681701.2, 40951.58, 0.0, 10.000498, 9.998855 
2.5649664e+3, 2.3625594e+2, -785903.3, -838220.8, 116244.81, -0.00072598894, -0.23476277, -692910.4, -68239.04, 0.0, 9.999548, 9.998831 
2.5648934e+3, 2.4625501e+2, -735464.75, -660077.06, 101194.65, 0.007791435, -0.2300069, -589783.94, -63103.05, 0.0, 9.998776, 9.999751 
2.5648198e+3, 2.5625485e+2, -739918.5, -616573.8, 89642.766, -0.0015167211, -0.19197372, -569437.56, -140754.7, 0.0, 9.998095, 9.999707 
2.5647464e+3, 2.6625478e+2, -748433.44, -481624.5, 84238.875, -0.010795161, -0.17938277, -457254.0, -126570.58, 0.0, 9.996983, 10.000496 
2.564673e+3, 2.762548e+2, -852163.1, -485011.53, 91055.82, -0.010449245, -0.19938867, -463669.7, -230986.52, 0.0, 9.995615, 10.00046 
2.5645995e+3, 2.862551e+2, -806996.6, -321033.75, 49205.74, 0.0077415546, -0.22572447, -316101.53, -181420.94, 0.0, 9.994858, 10.001278 
2.564525e+3, 2.962563e+2, -770324.4, -249195.42, 48445.348, 0.010542136, -0.20443739, -244730.1, -208060.27, 0.0, 9.994423, 10.001308 
2.5644502e+3, 3.062589e+2, -821064.94, -114725.53, 40615.344, -0.035508927, -0.11401423, -112397.766, -112397.766, 0.0, 9.993161, 10.002505 
2.5643775e+3, 3.1626162e+2, -966605.25, -95650.01, -20371.863, 0.12209875, -0.05201553, -95173.766, -95173.766, 0.0, 9.991776, 10.0033045 
2.575786e+3, 1.2636152e+2, -909718.4, -1677130.5, -4629.817, -0.021110663, -0.20287281, -909690.44, 791949.0, 0.10637704, 10.007879, 9.996481 
2.5757092e+3, 1.3635816e+2, -842645.7, -1622105.9, -852.67194, -0.13135073, -0.1567072, -842644.75, 761027.56, 0.0731948, 10.007489, 9.996357 
2.5756338e+3, 1.4635438e+2, -800160.44, -1523752.6, 25842.303, -0.1286284, -0.1567751, -799238.7, 706469.9, 0.041123684, 10.006723, 9.996726 
2.5755593e+3, 1.5635051e+2, -828982.2, -1501812.4, 21153.81, -0.045029495, -0.18720782, -828317.75, 579427.6, 0.017106662, 10.005736, 9.996679 
2.5754845e+3, 1.663469e+2, -786021.4, -1359466.0, 37577.7, -0.034082107, -0.22005416, -783569.4, 526210.6, 0.004485845, 10.004987, 9.997344 
2.5754094e+3, 1.7634362e+2, -775955.5, -1309569.5, 40329.285, -0.06968702, -0.2532801, -772924.75, 438887.0, 0.00051122456, 10.004388, 9.997303 
2.575335e+3, 1.863413e+2, -744187.3, -1164500.0, 64864.277, -0.0649632, -0.22302684, -734404.94, 379429.8, 0.0000045842844, 10.003592, 9.998009 
2.5752613e+3, 1.9633967e+2, -785935.2, -1143786.9, 69876.57, -0.035151772, -0.15703243, -772774.6, 243076.55, 0.0, 10.002675, 9.99792 
2.5751874e+3, 2.0633724e+2, -763911.94, -1032639.0, 76098.65, -0.018405495, -0.18123567, -743858.6, 174016.03, 0.0, 10.001941, 9.998363 
2.5751135e+3, 2.1633454e+2, -759157.9, -983885.25, 70040.164, -0.011310459, -0.25923613, -739116.06, 80784.64, 0.0, 10.001318, 9.998326 
2.5750393e+3, 2.2633311e+2, -725096.75, -828357.8, 72133.7, -0.016942494, -0.24406129, -688020.0, 33894.492, 0.0, 10.000499, 9.999115 
2.5749654e+3, 2.3633261e+2, -772327.1, -811268.75, 81846.33, -0.02693296, -0.17681897, -707667.5, -83747.7, 0.0, 9.999549, 9.999018 
2.5748917e+3, 2.4633148e+2, -759143.5, -710136.9, 75516.01, -0.021938171, -0.17838618, -655248.25, -129316.92, 0.0, 9.998777, 9.99941 
2.5748175e+3, 2.5633016e+2, -755001.06, -651505.3, 60112.04, -0.014524238, -0.22139671, -623935.44, -195990.5, 0.0, 9.998106, 9.999464 
2.574743e+3, 2.6633006e+2, -728664.4, -441925.13, 30978.715, -0.014229462, -0.21969546, -438616.44, -108670.664, 0.0, 9.996983, 10.0007715 
2.5746685e+3, 2.763308e+2, -840466.0, -456451.78, 44166.813, -0.0041613313, -0.1910566, -451437.5, -219500.0, 0.0, 9.995592, 10.0006695 
2.5745937e+3, 2.8633136e+2, -821668.0, -351815.25, 35577.72, -0.0037901737, -0.1929611, -349136.53, -215203.92, 0.0, 9.994854, 10.00107 
2.5745186e+3, 2.9633188e+2, -780753.6, -284292.72, 25803.252, -0.04399696, -0.21986449, -282955.2, -247026.45, 0.0, 9.994475, 10.001045 
2.5744444e+3, 3.063342e+2, -832774.7, -143263.14, -26429.174, 0.08541926, -0.1296638, -142251.6, -142251.6, 0.0, 9.9931755, 10.002305 
2.5743684e+3, 3.1633592e+2, -949680.56, -56797.758, 4400.35, 0.06939764, -0.16352582, -56776.074, -56776.074, 0.0, 9.991751, 10.003589 
2.585794e+3, 1.2643805e+2, -902340.25, -1689069.0, 36387.598, -0.0076065105, -0.1904828, -900660.9, 800228.0, 0.09629644, 10.007919, 9.996371 
2.5857162e+3, 1.364345e+2, -861092.2, -1641854.9, 23133.69, -0.12441349, -0.15109937, -860407.4, 742516.94, 0.065823644, 10.00734, 9.996292 
2.5856403e+3, 1.4643069e+2, -811773.4, -1515550.8, 39883.0, -0.12513812, -0.15895066, -809520.44, 695440.5, 0.036574077, 10.006554, 9.996861 
2.5855646e+3, 1.5642686e+2, -828319.4, -1487790.4, 50802.23, -0.04272301, -0.19702007, -824428.8, 582568.1, 0.014920832, 10.005674, 9.996804 
2.5854892e+3, 1.664234e+2, -796502.56, -1356059.3, 81441.55, -0.031247152, -0.2233865, -784890.06, 524140.0, 0.003775283, 10.004879, 9.997417 
2.5854135e+3, 1.7642032e+2, -808079.94, -1316343.3, 83362.05, -0.06490819, -0.24263225, -794756.7, 416303.22, 0.00039759843, 10.004133, 9.997377 
2.5853384e+3, 1.8641798e+2, -772187.3, -1177102.0, 95826.914, -0.06345949, -0.2154534, -750654.1, 362428.9, 0.00000279495, 10.003401, 9.998012 
2.5852636e+3, 1.9641621e+2, -784134.8, -1140819.9, 89832.375, -0.040684905, -0.16177812, -762787.75, 252313.02, 0.0, 10.002682, 9.997935 
2.585189e+3, 2.0641387e+2, -770207.06, -1023540.06, 105336.305, -0.023586916, -0.18589573, -732130.94, 184992.73, 0.0, 10.00185, 9.998467 
2.5851142e+3, 2.1641131e+2, -805244.1, -994157.56, 117152.57, -0.009865672, -0.25748762, -749212.3, 69935.83, 0.0, 10.000957, 9.998426 
2.5850394e+3, 2.2640996e+2, -753701.2, -839695.56, 115238.24, -0.015659388, -0.23948167, -673699.94, 47461.363, 0.0, 10.000298, 9.999131 
2.5849646e+3, 2.3640949e+2, -738469.75, -791218.75, 105845.06, -0.03102053, -0.16810977, -655762.7, -32596.436, 0.0, 9.99977, 9.999045 
2.5848898e+3, 2.4640837e+2, -753371.2, -697753.7, 105556.164, -0.025831303, -0.17531508, -616404.6, -91226.945, 0.0, 9.99878, 9.999491 
2.5848153e+3, 2.56407e+2, -834515.4, -681365.3, 120937.734, -0.012466031, -0.23229101, -614798.2, -187606.38, 0.0, 9.997529, 9.999535 
2.5847396e+3, 2.664069e+2, -752971.44, -457450.1, 88595.69, -0.013796966, -0.22692262, -432924.94, -103732.47, 0.0, 9.996838, 10.000731 
2.584664e+3, 2.7640778e+2, -719380.9, -400292.5, 77127.94, -0.010039939, -0.18012843, -382627.6, -151444.39, 0.0, 9.996437, 10.000646 
2.5845885e+3, 2.8640828e+2, -747123.3, -310871.25, 71428.69, -0.013154593, -0.18656354, -299473.8, -166295.33, 0.0, 9.995347, 10.001113 
2.5845125e+3, 2.964085e+2, -869410.9, -327238.06, 78667.05, -0.050965577, -0.24308491, -316054.5, -280877.66, 0.0, 9.993872, 10.0010395 
2.5844374e+3, 3.064107e+2, -834370.2, -160649.02, 33837.35, 0.12449417, -0.15172295, -158953.81, -158953.81, 0.0, 9.993241, 10.0021515 
2.5843596e+3, 3.1641048e+2, -830543.1, -29418.621, 58681.17, 0.00054931897, -0.3633748, -25143.129, -25143.129, 0.0, 9.992707, 10.003311 
2.5958014e+3, 1.2651561e+2, -915826.56, -1734863.3, 17109.666, -0.0366195, -0.15534765, -915469.3, 784657.94, 0.08668466, 10.00791, 9.996052 
2.595724e+3, 1.3651106e+2, -874492.2, -1676105.5, 1903.9672, -0.06932734, -0.18383208, -874487.7, 727686.1, 0.058818948, 10.007306, 9.996075 
2.5956467e+3, 1.4650719e+2, -790809.4, -1474793.5, 9075.396, -0.07619622, -0.20575432, -790689.0, 713522.06, 0.032283504, 10.006534, 9.997161 
2.59557e+3, 1.5650386e+2, -808371.94, -1448768.5, 20299.021, -0.05329105, -0.2253057, -807729.2, 598512.5, 0.01289192, 10.0056715, 9.997076 
2.5954938e+3, 1.6650094e+2, -790732.1, -1346296.3, 54733.13, -0.044928666, -0.21259871, -785391.25, 522878.28, 0.003137115, 10.004881, 9.997486 
2.5954175e+3, 1.7649841e+2, -805434.75, -1312145.5, 56718.914, -0.049102068, -0.18239023, -799163.5, 411131.0, 0.00030238874, 10.004134, 9.997408 
2.5953415e+3, 1.8649557e+2, -783266.94, -1200914.6, 70015.414, -0.046659738, -0.19776277, -771841.94, 340480.7, 0.0000016192165, 10.0034, 9.997851 
2.5952658e+3, 1.964927e+2, -790382.06, -1153239.6, 63301.785, -0.039504215, -0.23846102, -779655.94, 234695.13, 0.0, 10.002675, 9.997856 
2.59519e+3, 2.064909e+2, -746335.7, -975385.8, 72789.16, -0.0370124, -0.22379132, -725161.6, 191206.84, 0.0, 10.001851, 9.998799 
2.5951147e+3, 2.164898e+2, -786777.0, -957748.6, 86533.21, -0.037140563, -0.18114763, -750624.75, 67753.79, 0.0, 10.00096, 9.998677 
2.5950396e+3, 2.2648823e+2, -770686.56, -876033.5, 96312.84, -0.028151749, -0.1833632, -713584.5, 6809.6123, 0.0, 10.000299, 9.998882 
2.5949645e+3, 2.3648652e+2, -746975.5, -810695.06, 81845.65, -0.0140376445, -0.21104507, -691007.25, -68595.875, 0.0, 9.999774, 9.998913 
2.5948888e+3, 2.464856e+2, -717793.0, -624789.94, 57328.965, -0.0033547485, -0.22146542, -597474.1, -73053.87, 0.0, 9.998779, 9.999995 
2.5948125e+3, 2.5648525e+2, -810071.6, -629235.5, 78369.04, 0.0034186488, -0.2229568, -599999.3, -173576.27, 0.0, 9.997519, 9.9999 
2.5947362e+3, 2.6648533e+2, -782335.9, -518249.53, 75317.27, -0.010907251, -0.19782077, -498279.25, -169856.22, 0.0, 9.996834, 10.000319 
2.5946602e+3, 2.7648565e+2, -735635.1, -442151.47, 56736.41, -0.03126796, -0.16409321, -431565.0, -201144.64, 0.0, 9.996468, 10.000345 
2.5945836e+3, 2.8648582e+2, -721490.7, -261697.84, 13213.224, -0.01833598, -0.21210572, -261318.44, -128899.63, 0.0, 9.995359, 10.001448 
2.5945064e+3, 2.9648617e+2, -854709.0, -287202.28, 30519.047, -0.002350469, -0.28675476, -285565.75, -251151.34, 0.0, 9.993825, 10.00134 
2.5944299e+3, 3.0648875e+2, -846688.06, -187337.34, 33144.344, 0.054724727, -0.16529919, -185675.42, -185675.42, 0.0, 9.993241, 10.001971 
2.5943524e+3, 3.1648934e+2, -834791.06, -52284.65, -60591.215, 0.022707496, -0.26901233, -47620.734, -47620.734, 0.0, 9.992762, 10.003131 
2.6058087e+3, 1.2659313e+2, -876384.4, -1718439.0, 31575.1, -0.08053611, -0.19006032, -875202.06, 824163.44, 0.07758881, 10.008142, 9.996055 
2.6057312e+3, 1.3658863e+2, -907848.0, -1690117.0, 36497.5, -0.032485235, -0.21228273, -906148.8, 695263.44, 0.05223144, 10.007006, 9.996122 
2.6056534e+3, 1.4658505e+2, -820126.4, -1467965.9, 52478.566, -0.04373105, -0.21836199, -815902.9, 687544.3, 0.028290564, 10.006214, 9.997358 
2.6055753e+3, 1.565821e+2, -802024.8, -1426434.4, 55582.445, -0.06908458, -0.21695761, -797115.7, 608358.56, 0.011039573, 10.005629, 9.997248 
2.605498e+3, 1.6657926e+2, -790057.06, -1342755.3, 82077.39, -0.061513852, -0.20588094, -778125.9, 529375.75, 0.002575811, 10.004874, 9.997511 
2.6054212e+3, 1.765766e+2, -817907.6, -1313545.4, 80516.01, -0.040957887, -0.18942098, -805155.94, 404371.97, 0.00022497958, 10.004033, 9.997445 
2.6053447e+3, 1.8657376e+2, -801161.6, -1195047.4, 106574.08, -0.036632136, -0.21146879, -774174.75, 337381.03, 0.00000086705097, 10.003221, 9.997975 
2.605268e+3, 1.9657096e+2, -817879.9, -1152001.8, 119313.234, -0.03919475, -0.25668672, -779648.3, 233934.88, 0.0, 10.002432, 9.997978 
2.6051918e+3, 2.0656928e+2, -757906.75, -977092.5, 121859.875, -0.044382587, -0.23517303, -703608.1, 211991.33, 0.0, 10.001761, 9.998828 
2.6051152e+3, 2.1656838e+2, -755228.2, -936865.2, 112199.37, -0.051374704, -0.17602132, -701697.44, 115910.55, 0.0, 10.001156, 9.998725 
2.6050392e+3, 2.2656678e+2, -772505.8, -858893.6, 130491.23, -0.03825774, -0.19070692, -678245.44, 41378.152, 0.0, 10.000214, 9.99904 
2.6049635e+3, 2.365649e+2, -836643.4, -835880.25, 145961.7, -0.011885392, -0.2485285, -690299.6, -68657.73, 0.0, 9.999086, 9.999068 
2.604887e+3, 2.4656418e+2, -755147.44, -632033.94, 112268.734, -0.0039897785, -0.24952513, -565553.56, -41904.688, 0.0, 9.998482, 10.000086 
2.60481e+3, 2.5656423e+2, -715427.0, -572930.56, 101422.72, -0.007732925, -0.2176259, -520231.72, -94583.766, 0.0, 9.998127, 9.99999 
2.6047328e+3, 2.665643e+2, -739187.6, -491266.66, 108698.77, -0.016452465, -0.1984871, -450358.63, -122710.73, 0.0, 9.997108, 10.000369 
2.604656e+3, 2.765644e+2, -839310.7, -485235.88, 123389.39, -0.02137009, -0.19416317, -446478.97, -216831.34, 0.0, 9.995732, 10.0004015 
2.6045787e+3, 2.8656465e+2, -771979.1, -276094.3, 74131.17, -0.0031751755, -0.2358654, -265249.4, -133604.28, 0.0, 9.994977, 10.00153 
2.6045004e+3, 2.9656535e+2, -746304.56, -225007.83, 73214.79, 0.010888411, -0.28026167, -214920.2, -181282.73, 0.0, 9.994533, 10.001422 
2.6044226e+3, 3.065678e+2, -806330.94, -177895.52, 83188.5, 0.008719319, -0.17254387, -167070.0, -167070.0, 0.0, 9.993565, 10.001879 
2.604345e+3, 3.165694e+2, -840639.06, 1123.3018, -37763.543, 0.09142525, -0.1664029, 2814.0718, 2814.0718, 0.0, 9.992485, 10.003628 
2.615816e+3, 1.2667078e+2, -852977.9, -1680940.8, -5674.208, -0.13519703, -0.27648482, -852939.0, 845663.2, 0.06902746, 10.00813, 9.996325 
2.615738e+3, 1.3666718e+2, -889982.75, -1656336.9, 924.6155, -0.014644532, -0.23542856, -889981.6, 710658.75, 0.04608441, 10.006984, 9.996366 
2.6156592e+3, 1.4666411e+2, -813238.06, -1458635.5, 32348.275, -0.026807027, -0.20391633, -811620.75, 691050.1, 0.024613876, 10.006207, 9.99743 
2.6155803e+3, 1.5666145e+2, -797865.3, -1419414.4, 33327.043, -0.08920389, -0.17977664, -796083.44, 608612.44, 0.009372803, 10.005622, 9.997301 
2.6155025e+3, 1.6665827e+2, -794207.44, -1349885.0, 51635.434, -0.08122631, -0.20358141, -789450.06, 517276.94, 0.0020921452, 10.004861, 9.997471 
2.615425e+3, 1.7665492e+2, -818020.8, -1310384.0, 50735.8, -0.041562654, -0.2528768, -812847.06, 395912.66, 0.00016431265, 10.004014, 9.9974785 
2.6153478e+3, 1.8665256e+2, -775263.4, -1141388.6, 78290.47, -0.03285363, -0.25094098, -759224.7, 351557.8, 0.00000042407203, 10.003217, 9.998347 
2.6152703e+3, 1.9665085e+2, -797886.7, -1112827.4, 91734.984, -0.038951807, -0.22340508, -773114.8, 239683.84, 0.0, 10.002438, 9.998246 
2.615193e+3, 2.066489e+2, -778003.0, -1019407.44, 100243.07, -0.04634484, -0.2240572, -741804.94, 173012.83, 0.0, 10.00176, 9.998541 
2.6151162e+3, 2.1664695e+2, -767104.06, -959694.9, 87768.77, -0.055762935, -0.23997056, -733106.9, 83730.086, 0.0, 10.001144, 9.998576 
2.615039e+3, 2.2664557e+2, -734487.56, -780372.7, 88616.74, -0.04720806, -0.25870734, -665891.7, 52958.066, 0.0, 10.000211, 9.999582 
2.6149622e+3, 2.3664458e+2, -808038.2, -777847.94, 108053.52, -0.026691569, -0.28093165, -683840.25, -62982.246, 0.0, 9.999087, 9.999468 
2.614885e+3, 2.4664405e+2, -780401.8, -685008.44, 99625.516, -0.02945107, -0.25932238, -622250.56, -99386.695, 0.0, 9.998481, 9.999724 
2.6148075e+3, 2.566439e+2, -727104.8, -601756.2, 81833.05, -0.049470305, -0.21609116, -561354.2, -136487.23, 0.0, 9.998143, 9.999786 
2.6147297e+3, 2.666438e+2, -699975.4, -411240.06, 54902.27, -0.03016109, -0.2330662, -401152.94, -74285.516, 0.0, 9.997109, 10.00092 
2.614652e+3, 2.7664393e+2, -813456.25, -424989.6, 77183.7, 0.022842512, -0.27947062, -410215.97, -181351.1, 0.0, 9.995699, 10.0008335 
2.6145735e+3, 2.8664488e+2, -792083.94, -313839.66, 61028.313, 0.032802008, -0.25489068, -306174.75, -175318.4, 0.0, 9.994956, 10.001283 
2.6144943e+3, 2.9664636e+2, -755370.0, -252837.64, 54149.723, -0.020846786, -0.20139077, -247069.03, -214225.2, 0.0, 9.994567, 10.001217 
2.6144156e+3, 3.0664772e+2, -802154.0, -172543.63, 33476.492, -0.0061640986, -0.19135799, -170768.67, -170768.67, 0.0, 9.993573, 10.001913 
2.6143375e+3, 3.1664893e+2, -794457.3, 102875.94, -20079.727, 0.121553786, -0.23838948, 103325.04, 103325.04, 0.0, 9.992457, 10.004342 
2.6258236e+3, 1.2675035e+2, -839727.7, -1677216.8, 35800.035, -0.15126923, -0.29840097, -838200.1, 859620.56, 0.061016716, 10.008168, 9.996332 
2.6257446e+3, 1.3674681e+2, -875043.5, -1649232.3, 29570.254, -0.0344389, -0.2500846, -873915.7, 725942.6, 0.040385935, 10.007054, 9.99638 
2.625665e+3, 1.4674377e+2, -814936.75, -1457761.9, 68108.88, -0.036017597, -0.2159961, -807799.7, 694089.2, 0.021255886, 10.006175, 9.997446 
2.6255858e+3, 1.5674111e+2, -821495.94, -1425316.9, 64015.926, -0.078390464, -0.19268566, -814783.7, 589130.75, 0.007889913, 10.005433, 9.997348 
2.6255068e+3, 1.6673803e+2, -821506.56, -1340109.6, 84537.59, -0.07028436, -0.2159271, -808073.94, 497870.28, 0.0016826511, 10.0045805, 9.997669 
2.6254284e+3, 1.767349e+2, -853930.44, -1306022.8, 100312.33, -0.04062734, -0.26497373, -832672.25, 375302.63, 0.00011847509, 10.003682, 9.997664 
2.6253504e+3, 1.8673265e+2, -802038.0, -1147040.8, 124900.25, -0.03606795, -0.26066136, -761568.0, 348428.44, 0.00000019125741, 10.003008, 9.998406 
2.6252726e+3, 1.9673105e+2, -790730.3, -1100750.9, 114351.44, -0.043009654, -0.22674274, -753115.5, 258896.2, 0.0, 10.002454, 9.998321 
2.6251945e+3, 2.0672913e+2, -792154.0, -1009023.9, 130425.914, -0.04333145, -0.23573422, -730974.5, 183055.81, 0.0, 10.001594, 9.99869 
2.625117e+3, 2.1672712e+2, -839749.8, -978045.2, 148315.83, -0.040915113, -0.2697252, -745254.6, 70794.97, 0.0, 10.000581, 9.998717 
2.625039e+3, 2.2672589e+2, -777711.2, -794014.8, 136224.94, -0.04339889, -0.28148395, -649394.4, 68666.625, 0.0, 9.999888, 9.999641 
2.6249608e+3, 2.367252e+2, -764514.4, -748584.6, 121362.32, -0.04445998, -0.28099367, -634926.1, -14859.38, 0.0, 9.999355, 9.999537 
2.624883e+3, 2.4672464e+2, -773741.3, -673059.06, 127089.61, -0.043056767, -0.2666488, -586703.44, -64630.766, 0.0, 9.998493, 9.999799 
2.624805e+3, 2.567243e+2, -819488.4, -635122.75, 138946.27, -0.04552425, -0.2468883, -560561.06, -136483.52, 0.0, 9.997465, 9.999882 
2.6247263e+3, 2.6672435e+2, -734635.8, -408521.56, 93061.516, -0.03141163, -0.26293787, -383834.0, -57757.547, 0.0, 9.996793, 10.001089 
2.6246473e+3, 2.7672476e+2, -722176.3, -366367.7, 87254.234, 0.009235488, -0.2959948, -346122.44, -118051.76, 0.0, 9.996268, 10.000959 
2.6245683e+3, 2.8672576e+2, -719946.3, -293719.06, 77645.24, 0.03235067, -0.26234132, -280015.13, -149953.39, 0.0, 9.995519, 10.001146 
2.6244888e+3, 2.9672718e+2, -749852.5, -260622.22, 76701.32, -0.0015820712, -0.20476878, -248878.9, -216828.25, 0.0, 9.994655, 10.00112 
2.624409e+3, 3.0672818e+2, -725897.0, -120166.21, 52622.79, -0.015131769, -0.23097631, -115628.6, -115628.6, 0.0, 9.994036, 10.002048 
2.62433e+3, 3.1672934e+2, -679233.1, 126817.72, 1215.3977, 0.06601152, -0.29321796, 126819.55, 126819.55, 0.0, 9.993392, 10.004052 
2.6358315e+3, 1.2683147e+2, -854746.0, -1710914.6, -3946.5437, -0.1433961, -0.2739095, -854727.8, 842296.56, 0.053572845, 10.008115, 9.996118 
2.6357508e+3, 1.3682742e+2, -885434.1, -1677435.9, -6437.9624, -0.08754061, -0.25578323, -885381.75, 713685.1, 0.035138864, 10.007041, 9.996193 
2.6356706e+3, 1.4682405e+2, -815721.1, -1464715.8, 43216.004, -0.06627079, -0.24665146, -812856.06, 688244.9, 0.018212568, 10.006173, 9.9974 
2.6355913e+3, 1.5682113e+2, -821496.75, -1422221.8, 37722.383, -0.04326924, -0.24486572, -819137.25, 583992.06, 0.006584123, 10.005408, 9.997384 
2.6355115e+3, 1.6681857e+2, -796126.3, -1285827.4, 52506.11, -0.03538344, -0.24050657, -790559.9, 514594.03, 0.0013413008, 10.004568, 9.998051 
2.635432e+3, 1.7681633e+2, -833126.06, -1266093.1, 69544.29, -0.03968931, -0.23605642, -822229.9, 384945.47, 0.00008493855, 10.003692, 9.997935 
2.635353e+3, 1.8681392e+2, -819480.0, -1184606.3, 105271.266, -0.046317644, -0.24534467, -791303.2, 317895.78, 0.00000008629741, 10.003009, 9.99815 
2.6352745e+3, 1.9681159e+2, -800836.5, -1118427.4, 92189.445, -0.052888326, -0.26108044, -776015.75, 235206.36, 0.0, 10.002435, 9.99821 
2.6351961e+3, 2.0680995e+2, -754422.44, -930364.06, 93121.26, -0.03589576, -0.26663914, -714290.06, 198947.08, 0.0, 10.001589, 9.999234 
2.6351175e+3, 2.1680881e+2, -812203.44, -923374.25, 113856.51, -0.008697022, -0.26953113, -741088.25, 74158.7, 0.0, 10.000587, 9.999092 
2.6350385e+3, 2.2680767e+2, -807550.4, -857448.9, 116951.836, -0.027661404, -0.26081404, -712916.2, 4341.929, 0.0, 9.999891, 9.999207 
2.6349598e+3, 2.3680668e+2, -782582.8, -786950.8, 97986.42, -0.06695932, -0.24797262, -686756.06, -67487.5, 0.0, 9.999355, 9.999276 
2.634881e+3, 2.4680594e+2, -737962.9, -599034.6, 87421.9, -0.043655824, -0.27224842, -556839.2, -35563.496, 0.0, 9.99849, 10.00031 
2.6348028e+3, 2.5680548e+2, -794271.3, -581454.94, 103297.55, 0.005167678, -0.3131044, -539562.44, -116282.71, 0.0, 9.997456, 10.0002575 
2.634723e+3, 2.6680598e+2, -755467.6, -450518.5, 74506.27, -0.022028323, -0.28548422, -433288.38, -108013.625, 0.0, 9.996783, 10.000807 
2.6346427e+3, 2.7680698e+2, -735767.5, -399977.53, 65280.98, -0.07366385, -0.23016293, -387732.78, -160468.3, 0.0, 9.996287, 10.000721 
2.634563e+3, 2.8680724e+2, -718397.7, -295786.3, 42770.76, -0.008354691, -0.26005837, -291501.13, -162239.0, 0.0, 9.995537, 10.001126 
2.634484e+3, 2.9680747e+2, -748220.44, -257765.16, 45243.063, 0.08049633, -0.31821296, -253626.53, -222365.8, 0.0, 9.994652, 10.0011425 
2.6344025e+3, 3.068093e+2, -706229.2, -86540.586, 35623.465, -0.020941578, -0.27695367, -84499.45, -84499.45, 0.0, 9.99406, 10.00227 
2.6343223e+3, 3.1681135e+2, -772814.8, -82777.64, -85984.21, 0.0021594113, -0.25796592, -72224.7, -72224.7, 0.0, 9.993448, 10.00259 
2.645839e+3, 1.2691298e+2, -882632.56, -1705713.4, 4456.371, -0.14826873, -0.26858494, -882608.44, 813617.06, 0.04670422, 10.0077715, 9.996319 
2.6457572e+3, 1.3690901e+2, -868683.4, -1649937.4, 27222.297, -0.11224548, -0.26165238, -867736.0, 730530.06, 0.030344816, 10.007049, 9.996377 
2.645676e+3, 1.4690562e+2, -825266.2, -1465417.8, 87708.06, -0.08733421, -0.26383275, -813466.6, 686833.4, 0.015479581, 10.006082, 9.997435 
2.645596e+3, 1.569026e+2, -872847.0, -1442527.6, 87515.484, -0.046871163, -0.27207184, -859705.9, 542623.5, 0.005447494, 10.005034, 9.997422 
2.6455155e+3, 1.6690016e+2, -823785.1, -1293401.0, 96670.086, -0.036677472, -0.259849, -804664.2, 499688.94, 0.0010611379, 10.004358, 9.998096 
2.6454353e+3, 1.7689812e+2, -803661.1, -1243689.5, 90718.12, -0.04666727, -0.23724437, -785692.06, 420680.72, 0.00006105264, 10.003864, 9.998004 
2.6453558e+3, 1.8689579e+2, -809294.7, -1163786.9, 131779.95, -0.049345087, -0.24982017, -765674.0, 342721.63, 0.000000036839044, 10.003017, 9.998285 
2.6452765e+3, 1.9689341e+2, -855089.7, -1130756.6, 144475.69, -0.04682727, -0.28121537, -793245.2, 217173.61, 0.0, 10.00201, 9.998325 
2.645197e+3, 2.0689188e+2, -787070.7, -945345.9, 130712.91, -0.033150826, -0.28095147, -713405.75, 199027.39, 0.0, 10.001368, 9.999235 
2.645118e+3, 2.1689092e+2, -766517.44, -898597.75, 112282.28, -0.013637026, -0.26449674, -702293.94, 112147.58, 0.0, 10.000894, 9.999112 
2.6450384e+3, 2.2688976e+2, -781217.3, -838173.6, 124509.734, -0.025548678, -0.2616967, -681970.44, 34482.44, 0.0, 10.000048, 9.999261 
2.6449588e+3, 2.3688862e+2, -826911.9, -799762.75, 140777.27, -0.050977487, -0.26681006, -671907.06, -53442.535, 0.0, 9.999019, 9.999348 
2.6448795e+3, 2.4688806e+2, -757735.4, -593349.1, 121335.27, -0.0325353, -0.28198665, -528988.6, -8518.732, 0.0, 9.998294, 10.000442 
2.6448e+3, 2.5688794e+2, -752827.06, -549493.8, 110260.62, 0.006324073, -0.30240166, -501182.1, -78711.36, 0.0, 9.997694, 10.00036 
2.6447195e+3, 2.6688835e+2, -716643.06, -441179.2, 90521.32, -0.020682532, -0.2832051, -414095.5, -89628.76, 0.0, 9.997095, 10.000719 
2.6446387e+3, 2.7688903e+2, -711328.2, -393313.47, 93156.9, -0.07111983, -0.24966995, -368034.22, -141574.72, 0.0, 9.996481, 10.000671 
2.6445585e+3, 2.868893e+2, -693681.5, -270668.25, 71008.125, -0.010287358, -0.28149977, -259066.8, -130610.516, 0.0, 9.995656, 10.001238 
2.6444784e+3, 2.9688972e+2, -732299.25, -240336.1, 87079.12, 0.083808385, -0.32977012, -225377.61, -194925.7, 0.0, 9.994726, 10.001224 
2.6443964e+3, 3.0689117e+2, -659896.6, -71806.67, 84472.44, -0.019264866, -0.32191387, -59913.676, -59913.676, 0.0, 9.994417, 10.002195 
2.6443163e+3, 3.1689337e+2, -706753.8, -141955.48, -98037.266, 0.048222225, -0.27350554, -125422.23, -125422.23, 0.0, 9.9943, 10.001769 
2.6558462e+3, 1.2699495e+2, -846782.4, -1633739.3, -17203.73, -0.1669477, -0.2736894, -846406.44, 849016.7, 0.040406838, 10.007736, 9.996846 
2.655764e+3, 1.3699147e+2, -842707.5, -1588605.0, 1039.8481, -0.1163509, -0.27000862, -842706.06, 754750.56, 0.025999667, 10.006989, 9.996829 
2.655682e+3, 1.4698829e+2, -823445.44, -1459603.0, 49687.37, -0.102622375, -0.2727129, -819588.0, 679899.75, 0.013049058, 10.006052, 9.997491 
2.6556003e+3, 1.5698534e+2, -871402.44, -1442262.4, 53023.58, -0.08409389, -0.2799049, -866519.2, 534997.44, 0.0044697546, 10.005037, 9.997424 
2.6555192e+3, 1.6698268e+2, -840487.44, -1329934.9, 79865.445, -0.0688858, -0.27315465, -827785.06, 475757.94, 0.0008344772, 10.00436, 9.997847 
2.6554388e+3, 1.7698032e+2, -813459.56, -1261743.5, 70824.945, -0.061178558, -0.2604971, -802536.0, 403030.78, 0.000044246008, 10.00385, 9.997889 
2.6553583e+3, 1.869782e+2, -777397.06, -1098178.5, 94701.99, -0.046592213, -0.27140728, -751525.44, 356061.13, 0.000000014947995, 10.003016, 9.998738 
2.6552784e+3, 1.9697636e+2, -833822.94, -1090637.0, 110187.67, -0.027851515, -0.29412568, -793026.9, 216576.52, 0.0, 10.002024, 9.998597 
2.6551983e+3, 2.0697476e+2, -822272.4, -1020672.3, 113687.89, -0.035805818, -0.28117546, -770589.75, 141029.55, 0.0, 10.001372, 9.998717 
2.6551178e+3, 2.1697342e+2, -789951.56, -945240.94, 91957.2, -0.0559413, -0.25340724, -747243.3, 66390.08, 0.0, 10.000881, 9.9988 
2.655038e+3, 2.269721e+2, -745676.9, -764009.9, 86513.81, -0.03615045, -0.2835034, -667845.3, 47800.12, 0.0, 10.000043, 9.999774 
2.654958e+3, 2.3697096e+2, -800462.7, -746791.9, 105099.664, 0.0012340198, -0.33927897, -665155.75, -47500.496, 0.0, 9.999023, 9.999711 
2.6548773e+3, 2.4697101e+2, -776773.9, -633742.94, 98442.875, -0.011908653, -0.2943609, -583580.7, -63925.113, 0.0, 9.998293, 10.000166 
2.6547965e+3, 2.5697172e+2, -765209.5, -577559.75, 86936.336, -0.048532512, -0.20660758, -543474.4, -121823.93, 0.0, 9.9977, 10.000166 
2.6547164e+3, 2.6697138e+2, -707682.56, -424873.72, 66862.79, -0.024949193, -0.25698864, -409862.53, -86209.62, 0.0, 9.997101, 10.00083 
2.6546356e+3, 2.7697074e+2, -699453.9, -371120.63, 67442.29, 0.030236518, -0.36971623, -357807.28, -132149.89, 0.0, 9.996488, 10.000823 
2.6545542e+3, 2.86972e+2, -676347.4, -235159.56, 35279.152, 0.027651334, -0.325642, -232356.31, -104712.4, 0.0, 9.995653, 10.001486 
2.6544717e+3, 2.969743e+2, -725353.4, -225109.7, 59884.605, -0.018442646, -0.20708226, -218040.77, -188420.05, 0.0, 9.994718, 10.001334 
2.654391e+3, 3.0697367e+2, -690068.3, -140140.61, 84719.98, 0.006224192, -0.38465068, -127384.81, -127384.81, 0.0, 9.994436, 10.001719 
2.6543108e+3, 3.1697544e+2, -696920.56, -137177.02, -110994.195, 0.113347456, -0.33424833, -115970.85, -115970.85, 0.0, 9.994362, 10.001776 
2.665853e+3, 1.2707807e+2, -885436.4, -1636512.9, 32572.514, -0.19283904, -0.29352203, -884026.44, 810581.06, 0.034664568, 10.007343, 9.997014 
2.6657704e+3, 1.3707477e+2, -916514.7, -1609415.8, 31416.451, -0.11459463, -0.28683257, -915093.1, 681545.6, 0.02208572, 10.006378, 9.996978 
2.6656872e+3, 1.4707169e+2, -876818.06, -1484912.3, 73780.05, -0.102346145, -0.2829114, -867994.4, 630674.56, 0.010902646, 10.005672, 9.997495 
2.665605e+3, 1.5706882e+2, -861521.25, -1435786.4, 74663.07, -0.09682196, -0.2832002, -851972.7, 548724.75, 0.0036353553, 10.005099, 9.997436 
2.6655233e+3, 1.6706607e+2, -837024.7, -1326652.9, 114647.984, -0.07780209, -0.28606328, -811509.2, 491215.44, 0.0006523595, 10.004383, 9.997855 
2.6654422e+3, 1.7706351e+2, -848403.4, -1277281.8, 119853.05, -0.05849683, -0.29053158, -817182.4, 387567.44, 0.000032245298, 10.003611, 9.997894 
2.6653612e+3, 1.8706147e+2, -787285.94, -1103406.6, 123769.484, -0.04920621, -0.29272902, -744592.8, 362176.28, 0.0000000057994387, 10.002956, 9.998729 
2.66528e+3, 1.9705984e+2, -785380.7, -1066379.6, 109535.0, -0.041963607, -0.29287988, -747728.5, 261055.69, 0.0, 10.002358, 9.9986 
2.6651993e+3, 2.0705815e+2, -793479.1, -1007281.3, 129471.22, -0.0433105, -0.28740174, -732479.56, 178321.39, 0.0, 10.001577, 9.998708 
2.6651183e+3, 2.1705657e+2, -813128.75, -953987.94, 139654.42, -0.049285166, -0.2811901, -727149.6, 85667.805, 0.0, 10.000716, 9.9988165 
2.6650375e+3, 2.2705539e+2, -747579.3, -751539.44, 120762.89, -0.030306047, -0.30562866, -628780.25, 86047.94, 0.0, 9.999976, 9.999889 
2.6649567e+3, 2.3705453e+2, -757384.8, -717246.7, 112755.4, 0.0036325806, -0.34355384, -622788.25, -5953.3516, 0.0, 9.999287, 9.999784 
2.6648757e+3, 2.4705446e+2, -745375.6, -635228.56, 109097.33, -0.006029576, -0.3019049, -568091.94, -49255.543, 0.0, 9.998585, 10.000013 
2.6647943e+3, 2.570549e+2, -746784.5, -577123.44, 106206.27, -0.03798955, -0.22528285, -526027.56, -105193.27, 0.0, 9.997867, 10.000086 
2.6647133e+3, 2.6705462e+2, -691349.56, -397980.5, 90597.95, -0.013251183, -0.274848, -372257.53, -49421.58, 0.0, 9.997136, 10.000995 
2.6646322e+3, 2.7705416e+2, -706436.94, -361009.03, 93241.37, 0.04794771, -0.38472983, -337447.5, -112609.195, 0.0, 9.9963875, 10.000937 
2.66455e+3, 2.8705552e+2, -651303.1, -233031.17, 42166.605, 0.03772678, -0.33202428, -228822.64, -101998.53, 0.0, 9.9958725, 10.001392 
2.6644662e+3, 2.970578e+2, -624679.2, -181962.81, 44072.457, -0.030985326, -0.20355044, -177618.03, -148817.17, 0.0, 9.995436, 10.001283 
2.664385e+3, 3.070567e+2, -648779.06, -118586.016, 96524.21, 0.016989488, -0.4274653, -101560.06, -101560.06, 0.0, 9.994718, 10.00173 
2.6643044e+3, 3.1705913e+2, -710582.75, -102977.48, -49074.715, 0.07985275, -0.31178492, -99039.36, -99039.36, 0.0, 9.994101, 10.002132 
2.67586e+3, 1.2716213e+2, -896225.9, -1653096.6, -2027.7137, -0.224179, -0.32488558, -896220.5, 797560.75, 0.029449148, 10.00728, 9.996923 
2.6757765e+3, 1.3715886e+2, -921592.44, -1623425.4, 857.0198, -0.11169231, -0.30563867, -921591.4, 674221.8, 0.018570863, 10.006368, 9.996887 
2.6756927e+3, 1.471558e+2, -877655.25, -1492240.0, 54057.723, -0.09310736, -0.29105726, -872936.7, 624906.9, 0.009012016, 10.00568, 9.997443 
2.67561e+3, 1.5715298e+2, -860987.1, -1436064.9, 53237.38, -0.091406, -0.28211004, -856100.25, 543771.8, 0.0029245287, 10.005097, 9.9974375 
2.6755276e+3, 1.671502e+2, -823200.3, -1299555.9, 86064.73, -0.06808884, -0.3009139, -808127.6, 493771.16, 0.00050544756, 10.004385, 9.998042 
2.6754457e+3, 1.7714757e+2, -842061.3, -1266679.5, 91747.95, -0.042791326, -0.3306462, -823085.2, 380838.3, 0.000023461465, 10.003617, 9.997966 
2.6753634e+3, 1.8714552e+2, -815707.75, -1163824.5, 102216.57, -0.0576262, -0.31310084, -787913.4, 318030.44, 0.000000001728097, 10.002957, 9.998316 
2.6752815e+3, 1.9714384e+2, -803377.44, -1102205.9, 87178.94, -0.08701128, -0.27584544, -779803.9, 228156.98, 0.0, 10.002347, 9.998361 
2.6752004e+3, 2.0714204e+2, -764296.1, -946701.25, 98128.89, -0.05497468, -0.29911003, -721531.56, 188446.64, 0.0, 10.001574, 9.999126 
2.6751193e+3, 2.171403e+2, -792951.8, -913282.75, 108851.945, 0.00061544485, -0.3489719, -728744.4, 83250.08, 0.0, 10.000718, 9.999097 
2.6750377e+3, 2.2713953e+2, -766167.1, -791393.6, 94947.266, -0.010727338, -0.3271644, -682998.94, 31002.602, 0.0, 9.999978, 9.999617 
2.6749554e+3, 2.3713928e+2, -772945.2, -749904.2, 86542.484, -0.04632162, -0.27736574, -674118.8, -58115.05, 0.0, 9.999284, 9.999563 
2.6748738e+3, 2.4713838e+2, -748286.06, -642317.56, 81950.695, -0.013044489, -0.3075998, -597714.7, -79701.73, 0.0, 9.998587, 9.999965 
2.6747927e+3, 2.571374e+2, -743760.94, -574048.94, 78510.04, 0.040615544, -0.36784315, -543300.56, -123277.195, 0.0, 9.997877, 10.000104 
2.6747102e+3, 2.671381e+2, -676535.6, -368001.5, 61237.15, 0.0107845515, -0.33687297, -356291.72, -34275.69, 0.0, 9.997134, 10.001204 
2.6746273e+3, 2.771395e+2, -704410.56, -355616.97, 67142.555, -0.036780614, -0.27409306, -343138.47, -119137.914, 0.0, 9.996377, 10.000981 
2.674545e+3, 2.8713977e+2, -686536.3, -308810.2, 25925.984, 0.021097964, -0.30019385, -307039.03, -181041.4, 0.0, 9.995879, 10.000871 
2.6744625e+3, 2.971398e+2, -635471.44, -214880.1, 22742.479, 0.07793424, -0.35255197, -213653.92, -185656.63, 0.0, 9.995476, 10.0010395 
2.6743793e+3, 3.071405e+2, -605517.5, -30674.893, 60326.305, -0.019719299, -0.42661202, -24412.236, -24412.236, 0.0, 9.9947195, 10.002336 
2.6742977e+3, 3.171439e+2, -658880.4, 8533.55, -23677.29, 0.033320937, -0.2732168, 9372.475, 9372.475, 0.0, 9.994075, 10.002914 
2.6858664e+3, 1.27247e+2, -969707.7, -1688473.4, 15470.7705, -0.21399553, -0.33497235, -969374.9, 723572.94, 0.024718534, 10.006723, 9.9969425 
2.6857823e+3, 1.3724361e+2, -931018.5, -1627389.5, 25712.014, -0.12388906, -0.3304434, -930070.44, 664910.9, 0.015415868, 10.006281, 9.996901 
2.685698e+3, 1.4724062e+2, -879270.94, -1495997.9, 83143.695, -0.10863112, -0.3065313, -868258.56, 628752.7, 0.0073461453, 10.005677, 9.997416 
2.6856145e+3, 1.5723796e+2, -874947.2, -1444783.5, 82546.21, -0.10142811, -0.27871203, -863230.5, 535808.1, 0.0023176093, 10.005012, 9.9974165 
2.6855314e+3, 1.6723508e+2, -831391.06, -1305697.4, 104421.016, -0.07935603, -0.30327436, -809419.94, 491646.2, 0.0003856508, 10.004342, 9.998018 
2.6854488e+3, 1.7723227e+2, -832495.0, -1261208.6, 97798.734, -0.057177357, -0.34842506, -811238.9, 391853.34, 0.000016815273, 10.003684, 9.997969 
2.6853663e+3, 1.8723021e+2, -810035.1, -1156502.4, 124379.07, -0.060576316, -0.3332828, -770008.25, 335104.25, 0.0000000002885943, 10.002981, 9.998351 
2.6852837e+3, 1.972286e+2, -814110.94, -1103473.4, 135410.16, -0.07310335, -0.29344782, -760629.2, 246500.03, 0.0, 10.002261, 9.998391 
2.6852018e+3, 2.0722686e+2, -771181.3, -945534.0, 133588.58, -0.04651859, -0.31197888, -698840.8, 210305.13, 0.0, 10.001513, 9.999162 
2.6851198e+3, 2.172252e+2, -786269.9, -907136.25, 120164.12, -0.0025088321, -0.35591766, -712198.06, 98963.16, 0.0, 10.000757, 9.999117 
2.6850373e+3, 2.2722434e+2, -748933.1, -794667.56, 111087.32, -0.010782239, -0.33607525, -658383.8, 54785.43, 0.0, 10.000152, 9.999508 
2.6849547e+3, 2.3722392e+2, -732443.9, -736514.8, 112833.11, -0.037909783, -0.29048505, -621627.9, -6454.721, 0.0, 9.999593, 9.999504 
2.6848724e+3, 2.4722296e+2, -711001.0, -614431.6, 113435.4, -0.002973397, -0.32953787, -539432.06, -22249.477, 0.0, 9.998804, 10.00005 
2.6847902e+3, 2.5722194e+2, -737867.5, -569316.44, 119845.734, 0.053388704, -0.4033178, -507081.3, -87888.305, 0.0, 9.997914, 10.000115 
2.684707e+3, 2.6722264e+2, -661706.7, -389995.72, 84832.23, 0.01291051, -0.35104993, -365685.0, -44499.25, 0.0, 9.997367, 10.000938 
2.6846236e+3, 2.7722418e+2, -637493.4, -345607.38, 55758.95, -0.050661627, -0.2516991, -335318.4, -112148.164, 0.0, 9.996937, 10.000778 
2.6845407e+3, 2.8722394e+2, -632539.5, -284725.4, 32098.475, 0.02422622, -0.31758046, -281787.97, -156615.75, 0.0, 9.9962635, 10.000848 
2.684458e+3, 2.972232e+2, -640071.4, -224669.1, 63257.66, 0.110648215, -0.4401222, -215249.78, -188070.92, 0.0, 9.995482, 10.000966 
2.684374e+3, 3.0722535e+2, -598566.56, -49310.816, 57054.88, -0.023025542, -0.35594347, -43446.75, -43446.75, 0.0, 9.994868, 10.002132 
2.6842916e+3, 3.172277e+2, -592292.06, 75669.06, -39294.31, 0.061810426, -0.29466814, 77972.695, 77972.695, 0.0, 9.994389, 10.003221 
2.6958734e+3, 1.273326e+2, -964165.75, -1675764.6, -1053.5012, -0.18009496, -0.329312, -964164.2, 727944.0, 0.020427428, 10.00669, 9.997046 
2.6957878e+3, 1.3732894e+2, -924798.7, -1616809.9, 8143.004, -0.14834736, -0.3609649, -924702.9, 669441.0, 0.012584525, 10.006271, 9.99698 
2.695703e+3, 1.4732607e+2, -880265.9, -1500495.5, 58060.69, -0.14258301, -0.3286613, -874877.56, 621295.4, 0.00587829, 10.005674, 9.997389 
2.695619e+3, 1.5732364e+2, -878966.75, -1453108.5, 57428.477, -0.1253618, -0.2738406, -873278.8, 524919.3, 0.0017984891, 10.005005, 9.997364 
2.695535e+3, 1.6732065e+2, -845080.25, -1334616.1, 80601.664, -0.108940475, -0.29468742, -832150.75, 468076.28, 0.00028703015, 10.004339, 9.997823 
2.6954517e+3, 1.7731759e+2, -836887.7, -1271187.1, 74358.83, -0.09781939, -0.34602663, -824509.06, 377746.84, 0.00001161511, 10.003683, 9.997903 
2.6953688e+3, 1.8731552e+2, -783233.0, -1102086.5, 98095.59, -0.058743335, -0.35410404, -755471.0, 348804.6, 0.000000000007316074, 10.002983, 9.998726 
2.6952863e+3, 1.9731395e+2, -798118.5, -1070618.6, 107571.45, -0.008989451, -0.3439793, -760772.2, 245518.08, 0.0, 10.002259, 9.998619 
2.695203e+3, 2.073125e+2, -791943.25, -990009.0, 104903.54, -0.021346202, -0.3246607, -746711.56, 161593.23, 0.0, 10.001514, 9.998857 
2.6951197e+3, 2.1731119e+2, -802456.8, -940498.3, 94307.734, -0.057720583, -0.3044472, -754610.94, 55707.316, 0.0, 10.000752, 9.998893 
2.6950368e+3, 2.2730975e+2, -747539.5, -792365.94, 91465.79, -0.02873662, -0.33484897, -675780.8, 36550.813, 0.0, 10.000152, 9.999525 
2.6949543e+3, 2.3730844e+2, -726088.06, -725805.44, 89128.53, 0.025461504, -0.38351232, -636818.1, -22474.586, 0.0, 9.9996, 9.999576 
2.694871e+3, 2.4730821e+2, -695011.5, -582682.9, 78746.234, 0.021095233, -0.36463794, -542123.9, -25778.63, 0.0, 9.998806, 10.000268 
2.6947874e+3, 2.5730854e+2, -739437.4, -573235.6, 90392.27, -0.008196686, -0.31985876, -533550.06, -115207.98, 0.0, 9.997913, 10.000092 
2.694704e+3, 2.6730826e+2, -718151.2, -509113.5, 69347.664, -0.0053001475, -0.31651422, -488199.97, -167854.63, 0.0, 9.997373, 10.000119 
2.6946208e+3, 2.773079e+2, -667782.2, -414694.0, 35139.19, 0.01903585, -0.33140066, -409905.8, -187556.08, 0.0, 9.996961, 10.000295 
2.6945367e+3, 2.873079e+2, -591158.0, -203040.75, 386.4779, 0.043654963, -0.38880715, -203040.38, -78691.6, 0.0, 9.996277, 10.001406 
2.6944524e+3, 2.973083e+2, -636321.7, -215504.25, 36707.574, 0.03579243, -0.4482191, -212326.28, -185983.08, 0.0, 9.995472, 10.001036 
2.694369e+3, 3.0731124e+2, -690192.2, -240726.2, 33880.527, 0.041745864, -0.19968627, -238186.66, -238186.66, 0.0, 9.99487, 10.000818 
2.6942858e+3, 3.1731012e+2, -613726.7, 23054.727, -34316.47, 0.068877235, -0.37160856, 24898.719, 24898.719, 0.0, 9.994412, 10.002853 
2.7058795e+3, 1.2741868e+2, -1002844.6, -1689964.0, 20631.168, -0.15675049, -0.32447994, -1002225.75, 689038.56, 0.01654754, 10.006373, 9.9971 
2.705793e+3, 1.3741505e+2, -955315.75, -1626513.9, 25069.332, -0.17549221, -0.35731378, -954380.7, 638918.6, 0.010052524, 10.006023, 9.99703 
2.705708e+3, 1.4741208e+2, -910940.6, -1516179.3, 66638.93, -0.16772921, -0.33644375, -903690.3, 591638.8, 0.00458951, 10.005465, 9.997379 
2.7056232e+3, 1.5740949e+2, -902010.3, -1462272.9, 66996.28, -0.12754096, -0.29645494, -894110.25, 503245.53, 0.0013561104, 10.004839, 9.997378 
2.7055392e+3, 1.6740665e+2, -852835.94, -1330365.4, 102132.71, -0.109854154, -0.30812436, -831909.1, 467474.5, 0.00020595774, 10.004256, 9.997889 
2.7054548e+3, 1.7740382e+2, -832137.2, -1261468.3, 109645.98, -0.10575075, -0.34119976, -805755.94, 395654.66, 0.0000075413723, 10.003689, 9.997963 
2.7053714e+3, 1.8740176e+2, -784748.3, -1098515.6, 118381.555, -0.06468207, -0.35023502, -745095.3, 358334.56, 0.0, 10.002959, 9.998759 
2.7052882e+3, 1.9740014e+2, -809083.25, -1072867.8, 107703.57, -0.007335415, -0.34937838, -770694.5, 234750.22, 0.0, 10.002175, 9.998642 
2.7052045e+3, 2.0739861e+2, -782466.8, -993373.9, 112613.65, -0.017405398, -0.33270964, -733640.5, 173819.56, 0.0, 10.001618, 9.998781 
2.7051204e+3, 2.1739724e+2, -748238.06, -918236.2, 114537.16, -0.05468396, -0.31049162, -690606.1, 118868.29, 0.0, 10.001145, 9.998853 
2.705037e+3, 2.273958e+2, -712942.1, -768373.0, 115801.64, -0.02759655, -0.34309912, -621585.44, 89902.2, 0.0, 10.000361, 9.999586 
2.7049536e+3, 2.3739445e+2, -745577.7, -733543.1, 117537.48, 0.028751153, -0.39797127, -621869.0, -8369.717, 0.0, 9.999465, 9.999585 
2.7048695e+3, 2.473942e+2, -679902.4, -595644.6, 88861.23, 0.025226308, -0.37002444, -539431.44, -23930.043, 0.0, 9.999002, 10.000082 
2.7047852e+3, 2.573945e+2, -639195.6, -541042.6, 72036.3, -0.005122007, -0.30997637, -502954.13, -85455.375, 0.0, 9.998676, 9.999942 
2.704701e+3, 2.6739392e+2, -641159.2, -481864.6, 81509.27, 0.00020717272, -0.32698283, -447549.38, -128044.5, 0.0, 9.997949, 10.000027 
2.7046177e+3, 2.7739307e+2, -661286.94, -424141.38, 99227.38, 0.032893702, -0.37749538, -388099.88, -166586.33, 0.0, 9.997065, 10.000177 
2.704533e+3, 2.873932e+2, -558953.44, -206211.84, 39564.906, 0.051428176, -0.40295961, -201828.56, -78317.19, 0.0, 9.996583, 10.001233 
2.7044478e+3, 2.9739398e+2, -542757.94, -199236.97, 22989.645, 0.027916627, -0.40695405, -197705.25, -172202.55, 0.0, 9.9962435, 10.000773 
2.7043638e+3, 3.0739596e+2, -597515.44, -260358.11, 51444.426, 0.044892162, -0.20916818, -252683.28, -252683.28, 0.0, 9.995786, 10.00024 
2.70428e+3, 3.1739366e+2, -569588.56, 28750.223, -124.90669, 0.061184403, -0.44646868, 28750.248, 28750.248, 0.0, 9.994786, 10.002709 
2.7158856e+3, 1.2750523e+2, -1006470.6, -1690072.1, 6339.341, -0.1426199, -0.3200438, -1006411.8, 684004.3, 0.013075476, 10.006321, 9.997123 
2.7157986e+3, 1.3750188e+2, -954654.25, -1625017.0, 9512.117, -0.20701805, -0.32765284, -954519.3, 637929.0, 0.007811793, 10.006007, 9.997049 
2.7157128e+3, 1.4749864e+2, -911542.7, -1518840.5, 43346.29, -0.18731473, -0.33381593, -908464.44, 586015.94, 0.0034710807, 10.00546, 9.997365 
2.7156278e+3, 1.5749556e+2, -899278.44, -1455764.8, 45237.496, -0.11318761, -0.34084275, -895625.06, 500886.1, 0.0009848371, 10.00483, 9.997429 
2.7155432e+3, 1.6749305e+2, -836216.56, -1294693.0, 81575.38, -0.08809288, -0.3386367, -822134.56, 476401.34, 0.00014068338, 10.004248, 9.998139 
2.7154586e+3, 1.7749085e+2, -823628.25, -1242304.0, 86066.74, -0.08819401, -0.3335608, -806626.06, 393931.2, 0.0000045032148, 10.003679, 9.998101 
2.7153736e+3, 1.8748884e+2, -802114.8, -1135963.1, 88877.39, -0.07875386, -0.3249995, -779928.2, 322647.9, 0.0, 10.002962, 9.998504 
2.7152893e+3, 1.9748706e+2, -819410.8, -1096466.9, 81944.516, -0.062866, -0.31648844, -796988.8, 207604.2, 0.0, 10.002181, 9.998479 
2.7152053e+3, 2.0748515e+2, -775612.6, -980197.2, 96094.586, -0.032277893, -0.3381095, -737555.75, 169055.97, 0.0, 10.001619, 9.998873 
2.7151215e+3, 2.1748334e+2, -741794.1, -903989.3, 93215.02, -0.000050236365, -0.36938953, -699336.6, 109293.1, 0.0, 10.001139, 9.998956 
2.715037e+3, 2.2748245e+2, -704686.2, -752124.44, 81203.48, -0.010316311, -0.357271, -643808.6, 66828.8, 0.0, 10.000361, 9.9997 
2.7149522e+3, 2.3748201e+2, -751092.06, -744814.25, 89016.49, -0.03114489, -0.33154505, -658881.3, -46240.855, 0.0, 9.99946, 9.999512 
2.7148682e+3, 2.474809e+2, -723679.2, -687853.2, 77932.02, 0.010765276, -0.3483343, -625801.94, -111150.31, 0.0, 9.999005, 9.999449 
2.714784e+3, 2.574797e+2, -655203.9, -580769.94, 54297.055, 0.065706104, -0.37833396, -552159.3, -135495.1, 0.0, 9.9987, 9.99966 
2.7146992e+3, 2.6747954e+2, -589088.7, -378175.28, 46182.066, 0.028286746, -0.38458252, -368506.4, -49841.75, 0.0, 9.997962, 10.000733 
2.7146137e+3, 2.774799e+2, -643573.56, -387535.44, 72031.61, -0.023064762, -0.38262883, -368661.9, -148002.03, 0.0, 9.997061, 10.000432 
2.7145293e+3, 2.8748006e+2, -632806.75, -362473.13, 28508.361, 0.048952434, -0.34926063, -359499.47, -236840.64, 0.0, 9.9965925, 10.000158 
2.7144447e+3, 2.974803e+2, -580997.06, -288204.1, 7867.8486, 0.10929537, -0.3035669, -287992.8, -263335.13, 0.0, 9.996281, 10.000147 
2.7143583e+3, 3.07479e+2, -557188.0, -190272.25, 32841.707, -0.049821936, -0.442397, -187355.86, -187355.86, 0.0, 9.995839, 10.000699 
2.7142748e+3, 3.1747988e+2, -578104.75, 20744.857, -154216.42, 0.11415632, -0.3915464, 58125.51, 58125.51, 0.0, 9.99475, 10.002669 
2.7258915e+3, 1.2759195e+2, -1073878.1, -1700905.8, 19959.273, -0.14246726, -0.31967583, -1073243.4, 616322.44, 0.010022923, 10.005738, 9.99733 
2.7258042e+3, 1.3758865e+2, -978703.0, -1614137.4, 28305.518, -0.19876496, -0.34108725, -977444.6, 614152.4, 0.005867589, 10.005736, 9.997253 
2.7257177e+3, 1.4758556e+2, -932182.5, -1509665.9, 58018.613, -0.1832807, -0.3502711, -926411.2, 567216.2, 0.0025236618, 10.005236, 9.997533 
2.7256322e+3, 1.5758264e+2, -929374.3, -1454646.0, 71100.51, -0.11728023, -0.35652164, -919920.3, 475736.1, 0.00068276044, 10.0045595, 9.997564 
2.725547e+3, 1.6758025e+2, -873218.5, -1309580.8, 102885.19, -0.0956903, -0.3462578, -850177.0, 447503.22, 0.000090271606, 10.003985, 9.998161 
2.7254617e+3, 1.7757818e+2, -853072.9, -1252052.1, 92567.414, -0.09702621, -0.32937646, -832642.44, 367058.28, 0.0000024128854, 10.003462, 9.998137 
2.7253762e+3, 1.8757617e+2, -796863.4, -1129438.1, 102310.32, -0.09120778, -0.32696125, -767910.1, 333809.66, 0.0, 10.002985, 9.998533 
2.7252913e+3, 1.9757426e+2, -768614.0, -1068436.4, 111510.664, -0.0793578, -0.33102548, -731688.4, 272049.0, 0.0, 10.002521, 9.998504 
2.7252066e+3, 2.0757233e+2, -766407.5, -975659.2, 123052.98, -0.03888035, -0.35489106, -709513.7, 196242.61, 0.0, 10.001688, 9.998869 
2.7251223e+3, 2.1757051e+2, -801878.75, -933539.2, 115781.05, 0.011107158, -0.38535944, -734521.6, 73252.77, 0.0, 10.000733, 9.998946 
2.725037e+3, 2.2756968e+2, -709280.25, -761690.9, 97082.2, -0.0009329415, -0.36237806, -634928.75, 74853.016, 0.0, 10.000366, 9.99963 
2.7249518e+3, 2.375693e+2, -648272.06, -700914.6, 91841.26, -0.031435464, -0.32183883, -579054.75, 32729.68, 0.0, 10.0001955, 9.999456 
2.724867e+3, 2.4756798e+2, -664357.25, -664622.4, 106420.7, 0.01173772, -0.3555367, -558069.0, -44271.563, 0.0, 9.999441, 9.999396 
2.7247828e+3, 2.575664e+2, -691319.2, -604705.3, 123116.625, 0.07590458, -0.41497564, -517501.0, -101687.92, 0.0, 9.9984865, 9.999596 
2.7246967e+3, 2.6756632e+2, -577801.8, -383101.63, 81267.11, 0.031549998, -0.404907, -353639.34, -35826.223, 0.0, 9.998091, 10.000635 
2.724611e+3, 2.7756685e+2, -536007.2, -348395.72, 49183.883, -0.031683683, -0.37277883, -336283.7, -116476.914, 0.0, 9.99786, 10.000313 
2.724526e+3, 2.8756684e+2, -556639.6, -351046.28, 38969.527, 0.067653775, -0.34038213, -343907.6, -222099.95, 0.0, 9.997231, 9.999926 
2.724441e+3, 2.9756674e+2, -564186.3, -287944.2, 80189.65, 0.16428635, -0.30527872, -266353.63, -242543.81, 0.0, 9.996436, 10.000071 
2.724353e+3, 3.0756497e+2, -554316.5, -146878.44, 109518.36, -0.1170665, -0.50917214, -119306.055, -119306.055, 0.0, 9.995684, 10.001068 
2.7242696e+3, 3.1756756e+2, -517986.63, 3512.5784, -141002.72, 0.12794547, -0.31472552, 39195.297, 39195.297, 0.0, 9.995371, 10.002247 
2.7358967e+3, 1.276789e+2, -1044784.8, -1649576.8, 23366.393, -0.15366124, -0.32142812, -1043883.4, 644829.5, 0.0074050995, 10.005766, 9.997669 
2.7358097e+3, 1.376755e+2, -963045.9, -1570999.5, 23139.738, -0.16251431, -0.3873054, -962166.4, 628577.94, 0.0042302585, 10.005679, 9.997579 
2.735723e+3, 1.4767286e+2, -918403.1, -1472075.1, 32470.473, -0.16303998, -0.38099918, -916505.4, 576264.7, 0.0017508796, 10.005189, 9.997816 
2.7356362e+3, 1.5767059e+2, -919345.8, -1430685.4, 47091.543, -0.13771224, -0.34945256, -915045.1, 479747.84, 0.00044809782, 10.004541, 9.99774 
2.73555e+3, 1.6766818e+2, -885656.2, -1335919.9, 83725.98, -0.12780778, -0.33595708, -870591.5, 426225.94, 0.000053684576, 10.003984, 9.997983 
2.7354643e+3, 1.7766586e+2, -856180.1, -1260047.4, 74243.33, -0.12892082, -0.32938278, -842964.4, 355876.78, 0.0000011019603, 10.003466, 9.998082 
2.735379e+3, 1.8766373e+2, -780155.7, -1093522.5, 86069.62, -0.10213417, -0.35252565, -758072.0, 342788.7, 0.0, 10.002977, 9.998785 
2.7352935e+3, 1.9766177e+2, -760437.9, -1046869.1, 89625.82, -0.063452885, -0.38517773, -734705.25, 268172.5, 0.0, 10.002498, 9.998665 
2.735208e+3, 2.0766014e+2, -772904.5, -989177.44, 86319.125, -0.039265677, -0.3801229, -742677.4, 162216.63, 0.0, 10.001685, 9.998778 
2.7351224e+3, 2.1765871e+2, -810251.56, -952250.7, 87747.664, -0.021019135, -0.3628525, -768376.9, 38532.086, 0.0, 10.000735, 9.998818 
2.7350372e+3, 2.2765744e+2, -728085.0, -802046.1, 92558.945, 0.0017314382, -0.3618636, -665392.5, 43528.73, 0.0, 10.00037, 9.999352 
2.734952e+3, 2.3765637e+2, -650102.75, -707561.8, 77866.695, 0.025361024, -0.36662802, -595834.6, 15096.598, 0.0, 10.000204, 9.999408 
2.734866e+3, 2.4765547e+2, -624647.6, -584106.0, 68582.305, 0.02636455, -0.38936272, -532861.5, -19922.959, 0.0, 9.999445, 9.9999485 
2.73478e+3, 2.5765476e+2, -683046.75, -586516.0, 95112.46, 0.016447028, -0.41472566, -528123.4, -113179.266, 0.0, 9.998479, 9.999725 
2.7346945e+3, 2.6765427e+2, -649587.75, -533045.06, 74989.82, 0.008712335, -0.3852162, -496347.84, -179397.86, 0.0, 9.998093, 9.999606 
2.7346087e+3, 2.7765393e+2, -568183.5, -423178.3, 34171.6, 0.01585299, -0.34336513, -415529.0, -196573.81, 0.0, 9.997891, 9.999785 
2.734523e+3, 2.8765345e+2, -499333.63, -238431.98, 7375.6685, 0.109211795, -0.38710383, -238223.64, -117264.44, 0.0, 9.997252, 10.000691 
2.7344373e+3, 2.976532e+2, -525201.9, -206705.13, 53128.863, 0.17874333, -0.4388804, -198076.4, -175116.72, 0.0, 9.99643, 10.000633 
2.7343482e+3, 3.0765468e+2, -547544.75, -125789.97, 84768.914, -0.14232837, -0.34544188, -109389.9, -109389.9, 0.0, 9.995651, 10.00123 
2.7342647e+3, 3.1765515e+2, -569523.75, -130317.58, -66859.086, 0.110641435, -0.3695247, -120365.33, -120365.33, 0.0, 9.995464, 10.001293 
2.745902e+3, 1.2776628e+2, -1025528.25, -1638717.1, 60943.188, -0.16970214, -0.37256688, -1019529.94, 668324.0, 0.005231318, 10.005877, 9.997692 
2.7458146e+3, 1.3776332e+2, -1074948.0, -1614718.1, 44568.402, -0.16088934, -0.39615196, -1071292.8, 518589.63, 0.0029041625, 10.004859, 9.997672 
2.7457273e+3, 1.477609e+2, -1013576.25, -1493071.8, 51302.1, -0.16552618, -0.38529345, -1008148.8, 483757.34, 0.0011502806, 10.00443, 9.998035 
2.7456403e+3, 1.5775876e+2, -952522.5, -1425318.3, 61619.305, -0.15187258, -0.36219946, -944623.7, 449303.8, 0.00027577378, 10.004226, 9.997926 
2.7455536e+3, 1.6775641e+2, -899696.0, -1336040.8, 106483.07, -0.14064246, -0.35278782, -875097.2, 420854.06, 0.000029149433, 10.003863, 9.998038 
2.7454674e+3, 1.7775409e+2, -855951.5, -1252390.3, 108516.8, -0.1347632, -0.35002813, -828191.25, 369783.75, 0.00000039166414, 10.00344, 9.998144 
2.7453813e+3, 1.87752e+2, -816603.44, -1105888.0, 107677.836, -0.10138605, -0.3733162, -780924.06, 319070.28, 0.0, 10.00271, 9.998827 
2.7452955e+3, 1.977501e+2, -844555.25, -1079842.9, 99369.53, -0.05660277, -0.40306836, -808204.4, 193806.67, 0.0, 10.001892, 9.998729 
2.7452093e+3, 2.0774862e+2, -778224.56, -979481.44, 105981.57, -0.042533513, -0.38988608, -732708.6, 171316.84, 0.0, 10.001599, 9.998885 
2.745123e+3, 2.1774738e+2, -698801.94, -892127.25, 119579.36, -0.038062576, -0.36401743, -641702.1, 164336.36, 0.0, 10.001478, 9.998871 
2.7450374e+3, 2.2774589e+2, -689349.6, -798494.44, 134245.64, -0.0011530699, -0.37711924, -599008.1, 109044.875, 0.0, 10.000706, 9.999212 
2.7449518e+3, 2.3774447e+2, -725036.7, -751057.8, 129211.64, 0.048143674, -0.40350264, -608182.25, 1884.6279, 0.0, 9.999727, 9.999337 
2.7448654e+3, 2.4774376e+2, -614819.5, -568601.56, 97048.484, 0.03626998, -0.40847588, -491948.66, 20123.455, 0.0, 9.999471, 10.00004 
2.7447787e+3, 2.577434e+2, -548507.06, -521631.94, 90807.125, 0.00030319323, -0.4050906, -443273.53, -29199.705, 0.0, 9.999408, 9.999722 
2.7446923e+3, 2.6774257e+2, -590394.8, -536998.3, 101707.625, 0.0102154985, -0.3880456, -458543.13, -142460.22, 0.0, 9.998645, 9.99931 
2.7446064e+3, 2.777417e+2, -616206.9, -468833.56, 112886.164, 0.052473415, -0.37135944, -407712.9, -189618.97, 0.0, 9.997665, 9.9995775 
2.7445203e+3, 2.8774112e+2, -490907.72, -229420.69, 58008.465, 0.11630379, -0.4158964, -217129.77, -97030.96, 0.0, 9.997295, 10.000729 
2.744433e+3, 2.97741e+2, -427981.28, -155313.11, 44881.234, 0.13522752, -0.46182278, -148115.64, -126017.375, 0.0, 9.997085, 10.000669 
2.7443442e+3, 3.0774316e+2, -443315.78, -72779.1, 45140.086, -0.08986067, -0.30274045, -67359.25, -67359.25, 0.0, 9.996361, 10.00125 
2.74426e+3, 3.1774247e+2, -567989.25, -149367.25, -11450.656, 0.17349666, -0.44256002, -149054.27, -149054.27, 0.0, 9.995565, 10.001112 
2.7559072e+3, 1.2785408e+2, -1048971.6, -1671580.5, 21495.742, -0.19219503, -0.45809487, -1048230.44, 638759.56, 0.0034968755, 10.005799, 9.997502 
2.755819e+3, 1.37852e+2, -1079358.0, -1627302.0, 15356.093, -0.18658905, -0.374519, -1078928.0, 510084.1, 0.0018787874, 10.004867, 9.997583 
2.7557313e+3, 1.478496e+2, -999226.9, -1469795.8, 44887.18, -0.18569067, -0.3686582, -994983.44, 496052.56, 0.0007079034, 10.004453, 9.998186 
2.7556437e+3, 1.5784717e+2, -938631.0, -1398210.9, 52183.12, -0.16207178, -0.3902176, -932780.3, 460279.22, 0.00015678519, 10.0042305, 9.998112 
2.755557e+3, 1.6784492e+2, -886277.8, -1303644.6, 90898.73, -0.13789216, -0.39272216, -867340.2, 427741.6, 0.00001409945, 10.003841, 9.998272 
2.7554706e+3, 1.7784284e+2, -853139.5, -1237094.1, 88309.84, -0.119565554, -0.38881263, -833802.06, 363300.6, 0.00000009505926, 10.003396, 9.998271 
2.7553838e+3, 1.8784092e+2, -830025.56, -1130505.0, 76349.195, -0.092086375, -0.3892421, -811738.8, 287382.34, 0.0, 10.002694, 9.998667 
2.7552968e+3, 1.9783919e+2, -845427.44, -1083919.5, 76090.164, -0.060076386, -0.38987145, -823219.2, 177918.56, 0.0, 10.001899, 9.998699 
2.7552104e+3, 2.0783778e+2, -759101.75, -940639.56, 103229.51, -0.048548084, -0.38662434, -712410.4, 190740.66, 0.0, 10.0016, 9.999152 
2.755124e+3, 2.1783654e+2, -686447.2, -864430.56, 106715.2, -0.044313893, -0.38347954, -636486.9, 168675.73, 0.0, 10.001467, 9.999068 
2.7550372e+3, 2.2783506e+2, -689566.1, -799587.56, 95825.336, -0.010677464, -0.40528744, -634083.94, 73093.086, 0.0, 10.000705, 9.999207 
2.7549508e+3, 2.3783357e+2, -734123.8, -769345.3, 101730.1, 0.034316372, -0.4329701, -648491.4, -39300.074, 0.0, 9.999722, 9.999216 
2.7548644e+3, 2.4783279e+2, -643681.3, -629052.44, 97453.13, 0.04194167, -0.41471705, -538639.6, -27441.197, 0.0, 9.999472, 9.999626 
2.754778e+3, 2.5783235e+2, -554394.94, -540585.5, 79146.23, 0.02952426, -0.38274634, -468043.38, -54841.05, 0.0, 9.9994335, 9.99958 
2.754691e+3, 2.6783133e+2, -552699.25, -462328.3, 62252.918, 0.037958816, -0.4156361, -430590.75, -115378.98, 0.0, 9.998656, 9.99982 
2.754604e+3, 2.778302e+2, -610395.6, -453120.44, 85849.23, 0.07114767, -0.46615466, -415336.56, -198114.34, 0.0, 9.997647, 9.999697 
2.754517e+3, 2.8783002e+2, -552511.4, -355996.4, 53984.97, 0.08019956, -0.4210641, -342142.75, -222917.48, 0.0, 9.997288, 9.999865 
2.7544287e+3, 2.9783025e+2, -469198.34, -246675.0, 29512.18, 0.025288021, -0.3457917, -242827.47, -221603.14, 0.0, 9.997107, 10.000031 
2.7543417e+3, 3.078297e+2, -452163.4, -100225.875, 6117.5654, 0.0635224, -0.42702436, -100119.57, -100119.57, 0.0, 9.996394, 10.001048 
2.7542552e+3, 3.1783032e+2, -505579.88, -12147.228, 14221.918, 0.17350724, -0.4264184, -11737.658, -11737.658, 0.0, 9.995541, 10.002062 
2.7659115e+3, 1.279431e+2, -1159759.0, -1720511.5, 34007.863, -0.23881502, -0.4644418, -1157704.1, 528411.6, 0.0021799097, 10.005009, 9.997547 
2.7658236e+3, 1.3794099e+2, -1084133.5, -1624889.3, 42235.367, -0.1953089, -0.3877462, -1080854.6, 507283.9, 0.0011275423, 10.004813, 9.997624 
2.765735e+3, 1.4793858e+2, -998550.2, -1469503.1, 74324.96, -0.18846494, -0.38395476, -987098.8, 503064.0, 0.00040047747, 10.004459, 9.998183 
2.7656475e+3, 1.5793613e+2, -960469.9, -1401519.9, 68059.71, -0.16740432, -0.4066393, -950206.2, 441980.47, 0.00008005251, 10.004052, 9.998174 
2.7655604e+3, 1.6793406e+2, -940146.44, -1305417.9, 94402.64, -0.14076097, -0.40683225, -917191.1, 377015.9, 0.000005757098, 10.003372, 9.998484 
2.765473e+3, 1.7793222e+2, -951635.44, -1262462.9, 93006.8, -0.11911636, -0.39831904, -925931.3, 270293.94, 0.00000000965895, 10.002631, 9.998464 
2.7653858e+3, 1.8793045e+2, -873500.4, -1141691.6, 97579.69, -0.09391708, -0.39698708, -841754.44, 256488.03, 0.0, 10.002357, 9.998751 
2.7652985e+3, 1.9792876e+2, -792274.25, -1048566.8, 111197.89, -0.06415727, -0.39949256, -750754.9, 249503.73, 0.0, 10.002225, 9.998782 
2.7652118e+3, 2.079273e+2, -768329.2, -938626.7, 128841.23, -0.046780612, -0.4057241, -699042.3, 203229.95, 0.0, 10.0015135, 9.999206 
2.7651247e+3, 2.1792604e+2, -801063.0, -908707.56, 118628.62, -0.034575265, -0.4122248, -724617.9, 79666.266, 0.0, 10.000637, 9.999162 
2.7650377e+3, 2.2792481e+2, -714467.7, -793033.7, 113334.39, -0.0125601245, -0.42118952, -633801.4, 72494.34, 0.0, 10.000459, 9.999369 
2.7649507e+3, 2.3792364e+2, -621653.2, -710369.1, 132096.45, 0.017494822, -0.43165603, -526665.9, 81640.88, 0.0, 10.000478, 9.999255 
2.7648637e+3, 2.4792257e+2, -611295.8, -645025.8, 139503.23, 0.04306805, -0.4235514, -487641.84, 22675.363, 0.0, 9.999836, 9.999339 
2.7647772e+3, 2.5792167e+2, -626947.0, -590366.06, 126638.77, 0.060020376, -0.40955192, -480703.72, -68377.33, 0.0, 9.999006, 9.999441 
2.7646893e+3, 2.679207e+2, -528788.2, -427017.6, 88274.5, 0.051843144, -0.44107193, -376012.25, -61678.1, 0.0, 9.998723, 10.000027 
2.7646017e+3, 2.7791983e+2, -475909.13, -385572.63, 92777.45, 0.05440212, -0.4862696, -327552.56, -111211.5, 0.0, 9.998563, 9.999717 
2.7645138e+3, 2.879195e+2, -480389.28, -372121.22, 84301.28, 0.059486102, -0.42708698, -326069.4, -207723.13, 0.0, 9.99801, 9.999403 
2.7644256e+3, 2.979194e+2, -466894.16, -291458.03, 84427.07, 0.013465372, -0.3381081, -257428.84, -237078.83, 0.0, 9.997327, 9.999615 
2.7643386e+3, 3.0791765e+2, -427960.4, -128337.9, 49090.37, 0.12880452, -0.49697557, -120499.94, -120499.94, 0.0, 9.996737, 10.000688 
2.7642497e+3, 3.1791914e+2, -410910.16, 74389.88, 35894.51, 0.07216781, -0.38476104, 77030.4, 77030.4, 0.0, 9.996021, 10.002421 
2.775916e+3, 1.280331e+2, -1142905.0, -1689958.8, 27133.748, -0.30279818, -0.4153472, -1141562.4, 543670.6, 0.0012418942, 10.005026, 9.997747 
2.775828e+3, 1.3803029e+2, -1080599.3, -1611224.0, 32311.596, -0.19407952, -0.4294227, -1078639.0, 508622.72, 0.00061306136, 10.004782, 9.997734 
2.775739e+3, 1.4802784e+2, -1014221.9, -1492816.1, 59615.34, -0.1790446, -0.42512617, -1006907.75, 482378.88, 0.00020178867, 10.0044155, 9.998046 
2.7756512e+3, 1.5802558e+2, -970231.4, -1411014.1, 50472.277, -0.16868374, -0.4151474, -964525.8, 426783.47, 0.000034848283, 10.004003, 9.998134 
2.7755633e+3, 1.680238e+2, -930473.75, -1280703.8, 67576.34, -0.14978741, -0.39801386, -917887.3, 375439.88, 0.0000017161015, 10.00335, 9.998665 
2.7754754e+3, 1.7802224e+2, -934841.9, -1229278.9, 72616.734, -0.134157, -0.38021195, -917906.56, 277436.1, 0.00000000000031198744, 10.002636, 9.998691 
2.7753878e+3, 1.8802053e+2, -854487.2, -1100990.9, 94635.25, -0.10533339, -0.3985314, -822346.44, 275012.0, 0.0, 10.002349, 9.999036 
2.7753e+3, 1.9801883e+2, -785324.0, -1027824.75, 98529.86, -0.06973261, -0.42891157, -750338.06, 249035.75, 0.0, 10.002195, 9.99894 
2.7752128e+3, 2.0801724e+2, -780518.06, -962339.2, 94609.164, -0.038319807, -0.4448637, -740220.3, 161168.92, 0.0, 10.001505, 9.999047 
2.7751252e+3, 2.1801582e+2, -801511.4, -910808.4, 95505.35, -0.011433278, -0.45211676, -746124.75, 57278.586, 0.0, 10.00064, 9.999147 
2.775038e+3, 2.2801514e+2, -691629.0, -747350.75, 116333.48, -0.007664064, -0.42611903, -599866.7, 105542.58, 0.0, 10.0004635, 9.999681 
2.7749506e+3, 2.3801468e+2, -607893.5, -684056.0, 123862.63, -0.0068055005, -0.39444238, -516390.28, 91022.43, 0.0, 10.000484, 9.9994335 
2.7748632e+3, 2.4801311e+2, -622518.56, -669438.7, 106201.875, 0.03931162, -0.43377787, -537216.44, -27788.227, 0.0, 9.999837, 9.999172 
2.774776e+3, 2.580113e+2, -639918.25, -614800.75, 103154.34, 0.089658454, -0.48911545, -523443.47, -111997.445, 0.0, 9.998992, 9.999282 
2.7746877e+3, 2.680108e+2, -539708.06, -449528.66, 85365.05, 0.048523687, -0.46351048, -398076.8, -84626.83, 0.0, 9.998721, 9.999875 
2.7745992e+3, 2.7801073e+2, -477176.78, -396485.5, 81777.43, -0.0034750144, -0.41769093, -345642.75, -130193.18, 0.0, 9.998596, 9.999627 
2.7745116e+3, 2.8800955e+2, -476680.94, -371308.44, 57342.152, 0.06001732, -0.4365869, -346123.22, -228661.25, 0.0, 9.9980345, 9.999399 
2.7744237e+3, 2.9800823e+2, -475952.34, -312268.84, 61750.652, 0.11604425, -0.46702787, -291586.38, -272109.8, 0.0, 9.997332, 9.999472 
2.7743345e+3, 3.0800745e+2, -463686.13, -204530.25, 31410.07, 0.07175699, -0.49214548, -200777.64, -200777.64, 0.0, 9.996743, 10.000162 
2.7742454e+3, 3.1800857e+2, -451088.88, -14330.16, -57426.203, 0.053034015, -0.36243597, -6905.814, -6905.814, 0.0, 9.996027, 10.001818 
2.7859202e+3, 1.2812302e+2, -1161069.9, -1693008.4, 34223.594, -0.31714454, -0.40861288, -1158877.0, 525474.06, 0.000629063, 10.004872, 9.997802 
2.7858317e+3, 1.3811998e+2, -1141195.0, -1627387.1, 31697.838, -0.2041131, -0.45114917, -1139137.1, 447244.63, 0.00029189864, 10.00431, 9.99785 
2.785743e+3, 1.4811768e+2, -1097206.5, -1509738.9, 71911.26, -0.1837312, -0.44728962, -1085030.5, 403374.2, 0.00008600763, 10.003751, 9.998248 
2.7856544e+3, 1.5811573e+2, -1068787.0, -1435416.0, 82753.4, -0.16634767, -0.4280647, -1050973.9, 339450.4, 0.000011710244, 10.003231, 9.998336 
2.785566e+3, 1.6811411e+2, -985086.4, -1290211.5, 102839.97, -0.15007211, -0.4093493, -953661.44, 338779.03, 0.00000025139548, 10.002904, 9.998815 
2.7854776e+3, 1.7811266e+2, -925906.5, -1209924.6, 104966.71, -0.13853528, -0.39403743, -891324.0, 303131.1, 0.0, 10.002631, 9.998826 
2.7853894e+3, 1.8811099e+2, -891774.5, -1106228.1, 119071.305, -0.10700811, -0.41818082, -838765.3, 257704.95, 0.0, 10.002044, 9.999145 
2.7853018e+3, 1.9810937e+2, -893423.75, -1063900.8, 113365.13, -0.068334915, -0.45238838, -836826.94, 161657.94, 0.0, 10.001392, 9.999077 
2.785214e+3, 2.0810801e+2, -802358.9, -957638.3, 122457.484, -0.04155995, -0.45970434, -735002.9, 165495.36, 0.0, 10.001294, 9.99918 
2.7851257e+3, 2.1810678e+2, -694435.56, -849298.4, 141621.6, -0.017571282, -0.4577275, -610459.7, 192050.72, 0.0, 10.001335, 9.999233 
2.785038e+3, 2.28106e+2, -663875.56, -737558.25, 147120.75, -0.0039977515, -0.4413298, -549053.44, 155463.81, 0.0, 10.000673, 9.999645 
2.7849504e+3, 2.3810537e+2, -702112.06, -725873.8, 130487.664, 0.008914861, -0.4224985, -582965.5, 23556.688, 0.0, 9.999827, 9.99946 
2.7848625e+3, 2.48104e+2, -642482.9, -663675.5, 122364.96, 0.042667795, -0.45178056, -530256.25, -21720.514, 0.0, 9.999638, 9.999306 
2.7847746e+3, 2.5810245e+2, -550124.56, -569249.06, 141711.36, 0.076569796, -0.49379838, -417653.22, -7101.9487, 0.0, 9.999602, 9.999299 
2.784686e+3, 2.6810175e+2, -494792.88, -455982.53, 125723.25, 0.04364369, -0.4703817, -348175.7, -35618.32, 0.0, 9.999156, 9.999618 
2.7845973e+3, 2.7810135e+2, -490696.44, -418578.94, 110235.03, 0.0075781443, -0.42954743, -338654.94, -124094.695, 0.0, 9.998578, 9.999481 
2.7845094e+3, 2.8809997e+2, -462318.0, -354207.03, 81317.23, 0.07113505, -0.46734005, -310617.84, -194043.8, 0.0, 9.998094, 9.999486 
2.7844205e+3, 2.9809853e+2, -430019.13, -286769.8, 97487.83, 0.12519886, -0.51712656, -237423.52, -218834.3, 0.0, 9.997637, 9.999497 
2.784331e+3, 3.0809852e+2, -363978.94, -169876.55, 97329.9, 0.061593395, -0.46077052, -129479.42, -129479.42, 0.0, 9.997491, 10.000037 
2.784242e+3, 3.1809866e+2, -331017.3, -29851.879, -24353.33, 0.111726835, -0.40438712, -27895.293, -27895.293, 0.0, 9.997174, 10.001155 
2.7959248e+3, 1.2821291e+2, -1178220.0, -1704045.9, 13334.866, -0.29802623, -0.43104893, -1177882.0, 505587.1, 0.00027296846, 10.004765, 9.997778 
2.7958354e+3, 1.3821006e+2, -1135294.3, -1609591.4, 13184.415, -0.22515601, -0.45580545, -1134928.0, 450570.25, 0.00011559219, 10.004283, 9.997986 
2.795746e+3, 1.482081e+2, -1067619.1, -1445618.8, 53888.06, -0.20129582, -0.45289436, -1060086.9, 427430.28, 0.00002830601, 10.003736, 9.998697 
2.7956572e+3, 1.5820648e+2, -1047919.0, -1385663.0, 67078.734, -0.16500984, -0.44275272, -1035084.4, 354447.97, 0.000002446046, 10.003201, 9.998693 
2.7955684e+3, 1.6820492e+2, -982435.8, -1277841.9, 93627.49, -0.14346668, -0.439078, -955260.94, 336287.03, 0.0000000042322403, 10.002872, 9.998917 
2.7954796e+3, 1.7820342e+2, -926593.56, -1204356.0, 89890.83, -0.13249233, -0.43775126, -900040.94, 293522.22, 0.0, 10.0026, 9.998881 
2.795391e+3, 1.8820184e+2, -896111.56, -1113980.3, 93712.99, -0.101453915, -0.4526078, -861348.94, 234229.16, 0.0, 10.002036, 9.999096 
2.795303e+3, 1.9820036e+2, -885125.44, -1048771.3, 97411.85, -0.06408616, -0.46954298, -839731.75, 157860.03, 0.0, 10.001399, 9.999178 
2.7952147e+3, 2.0819956e+2, -774337.44, -900165.4, 126261.8, -0.056414403, -0.45171702, -696183.3, 203416.14, 0.0, 10.001295, 9.999576 
2.795126e+3, 2.1819891e+2, -685471.0, -828287.2, 133249.86, -0.055032585, -0.42763212, -605701.6, 195903.86, 0.0, 10.001323, 9.999385 
2.7950382e+3, 2.2819735e+2, -692098.2, -795665.7, 113521.96, -0.001042595, -0.46674198, -619107.0, 84512.984, 0.0, 10.0006695, 9.999249 
2.7949503e+3, 2.3819569e+2, -712103.6, -745866.3, 107627.17, 0.06483844, -0.5182289, -620041.94, -14406.244, 0.0, 9.999822, 9.999328 
2.794862e+3, 2.4819525e+2, -612094.8, -600453.56, 123139.65, 0.05154916, -0.4777869, -482997.06, 24642.89, 0.0, 9.999635, 9.9997425 
2.7947733e+3, 2.5819516e+2, -534185.1, -541045.44, 135249.53, 0.0125356885, -0.41504017, -402322.25, 7318.78, 0.0, 9.999621, 9.999485 
2.7946848e+3, 2.6819354e+2, -521211.4, -513542.66, 103205.3, 0.03885497, -0.4613275, -414100.53, -102444.41, 0.0, 9.999165, 9.999221 
2.7945966e+3, 2.7819163e+2, -506663.53, -450363.3, 89629.445, 0.09614069, -0.5365212, -384567.34, -170892.95, 0.0, 9.9985695, 9.999268 
2.794507e+3, 2.8819087e+2, -450779.5, -328176.88, 64488.023, 0.090289906, -0.52079725, -300503.16, -184820.73, 0.0, 9.998083, 9.99967 
2.7944168e+3, 2.9819068e+2, -414994.0, -255337.44, 86717.0, 0.022251764, -0.46448353, -217299.73, -199614.6, 0.0, 9.997633, 9.999717 
2.7943286e+3, 3.08191e+2, -336854.16, -121115.195, 98820.33, 0.1135105, -0.39711875, -82692.91, -82692.91, 0.0, 9.997519, 10.000361 
2.7942386e+3, 3.1818953e+2, -380967.25, -148606.28, -63556.78, 0.11284436, -0.5178915, -132358.03, -132358.03, 0.0, 9.997241, 10.000307 
2.805929e+3, 1.2830319e+2, -1307326.0, -1730722.9, 33087.438, -0.26829046, -0.45458856, -1304755.9, 377827.72, 0.0000954518, 10.003723, 9.998097 
2.805839e+3, 1.3830079e+2, -1201283.9, -1606291.5, 44552.516, -0.24036676, -0.4644298, -1196440.9, 388166.78, 0.0000345017, 10.003679, 9.9983 
2.805749e+3, 1.4829907e+2, -1127586.0, -1442797.4, 72126.29, -0.21760216, -0.4669215, -1111866.1, 374757.75, 0.0000060034013, 10.003188, 9.99898 
2.8056598e+3, 1.5829761e+2, -1120680.0, -1396733.8, 78996.02, -0.16722769, -0.46819466, -1099673.0, 288964.2, 0.00000016363987, 10.002599, 9.998908 
2.8055707e+3, 1.6829613e+2, -1064610.5, -1308524.4, 111659.26, -0.13813204, -0.46719423, -1021215.44, 269436.53, 0.0, 10.002275, 9.998991 
2.8054816e+3, 1.782947e+2, -997486.9, -1222663.4, 106659.266, -0.12446869, -0.4656291, -954987.06, 237679.4, 0.0, 10.002053, 9.999015 
2.8053927e+3, 1.8829334e+2, -906996.5, -1101194.6, 116430.65, -0.10458226, -0.4757756, -852489.75, 242189.63, 0.0, 10.001885, 9.999255 
2.8053036e+3, 1.9829205e+2, -832228.56, -1011781.4, 132450.9, -0.077549905, -0.4867958, -761995.44, 234695.72, 0.0, 10.001711, 9.999283 
2.8052154e+3, 2.0829129e+2, -800777.06, -912696.0, 143845.27, -0.060389113, -0.46591333, -702389.75, 196308.78, 0.0, 10.001115, 9.999575 
2.805127e+3, 2.1829069e+2, -811252.94, -883059.4, 125457.42, -0.046661366, -0.43963033, -716662.44, 84042.16, 0.0, 10.00044, 9.999431 
2.8050384e+3, 2.2828913e+2, -716634.9, -795520.06, 127129.16, -0.0024108572, -0.48791575, -622970.25, 79748.68, 0.0, 10.000454, 9.999352 
2.80495e+3, 2.3828742e+2, -593452.25, -681153.3, 153778.6, 0.052180342, -0.5518644, -477394.28, 127340.41, 0.0, 10.0006075, 9.999392 
2.8048614e+3, 2.4828707e+2, -568420.94, -580552.8, 147813.2, 0.044329837, -0.5016618, -426549.25, 80188.84, 0.0, 9.999944, 9.999728 
2.8047723e+3, 2.5828713e+2, -612767.2, -576965.7, 130463.7, 0.015196042, -0.42210385, -463180.4, -54442.477, 0.0, 9.999079, 9.999497 
2.8046834e+3, 2.6828548e+2, -551625.4, -525064.5, 119791.625, 0.041019425, -0.4741746, -417819.44, -107065.93, 0.0, 9.998944, 9.999247 
2.804595e+3, 2.7828342e+2, -444437.66, -418287.75, 134508.7, 0.09799239, -0.564852, -296220.0, -83446.72, 0.0, 9.998986, 9.999288 
2.8045052e+3, 2.882827e+2, -362938.0, -285225.44, 100529.15, 0.09379219, -0.54315996, -216304.53, -101523.84, 0.0, 9.998687, 9.999673 
2.8044143e+3, 2.9828268e+2, -324440.8, -209466.69, 109074.47, 0.02174668, -0.4705584, -143657.34, -126875.58, 0.0, 9.99825, 9.999732 
2.8043258e+3, 3.0828315e+2, -310678.53, -104381.734, 103612.766, 0.09357922, -0.39298216, -61327.543, -61327.543, 0.0, 9.997683, 10.000397 
2.8042352e+3, 3.1828132e+2, -358518.6, -122236.52, -67288.71, 0.08332152, -0.5560258, -104417.73, -104417.73, 0.0, 9.997333, 10.000441 
2.8159323e+3, 1.2839384e+2, -1266914.8, -1652432.8, 36408.223, -0.23869205, -0.47893822, -1263506.5, 418188.1, 0.000023604834, 10.003749, 9.998621 
2.815842e+3, 1.3839206e+2, -1184685.6, -1553150.4, 37685.867, -0.2520506, -0.47712427, -1180870.8, 402840.63, 0.0000064184533, 10.003598, 9.998704 
2.8157517e+3, 1.4839049e+2, -1125775.8, -1426915.0, 49678.883, -0.23156653, -0.4882857, -1117792.0, 367933.9, 0.00000052844416, 10.003133, 9.999117 
2.8156617e+3, 1.5838902e+2, -1112869.4, -1379712.1, 61323.625, -0.17096184, -0.5018909, -1099451.3, 288287.9, 0.0000000005064632, 10.002593, 9.999028 
2.8155726e+3, 1.6838773e+2, -1059079.4, -1298078.4, 104275.984, -0.13627905, -0.49258414, -1019979.94, 269772.44, 0.0, 10.002277, 9.9990635 
2.8154835e+3, 1.7838652e+2, -986970.75, -1198864.9, 100059.92, -0.120125294, -0.47872803, -947189.44, 244575.48, 0.0, 10.002042, 9.999185 
2.815394e+3, 1.8838543e+2, -886803.7, -1055536.1, 111348.29, -0.116007626, -0.4896523, -831469.9, 262304.8, 0.0, 10.001867, 9.999579 
2.815305e+3, 1.9838437e+2, -829493.25, -1000676.75, 119204.55, -0.10731014, -0.50533646, -768334.6, 227448.89, 0.0, 10.001686, 9.9993725 
2.8152162e+3, 2.083832e+2, -828792.56, -969316.1, 116499.36, -0.053793196, -0.50124466, -763007.2, 134788.42, 0.0, 10.001107, 9.99919 
2.8151274e+3, 2.1838209e+2, -815531.56, -891428.06, 110310.055, 0.0041007795, -0.49265224, -736824.9, 62982.9, 0.0, 10.000436, 9.999376 
2.8150383e+3, 2.2838129e+2, -674295.4, -709407.1, 135923.0, -0.010346397, -0.503977, -554799.2, 147014.88, 0.0, 10.00046, 9.999942 
2.8149495e+3, 2.3838058e+2, -575218.1, -646519.1, 147727.08, -0.03668781, -0.5202774, -458900.72, 144918.11, 0.0, 10.000619, 9.999625 
2.8148606e+3, 2.4837944e+2, -603716.6, -654025.8, 112443.516, 0.021991061, -0.52467674, -513648.4, -7817.9585, 0.0, 9.999942, 9.999227 
2.8147718e+3, 2.5837827e+2, -627141.2, -603318.94, 107689.77, 0.090456545, -0.52233434, -506883.6, -99040.625, 0.0, 9.999061, 9.999327 
2.814682e+3, 2.6837757e+2, -518677.47, -454939.34, 123492.72, 0.047268227, -0.5088319, -359269.84, -49420.35, 0.0, 9.998935, 9.999734 
2.8145924e+3, 2.7837697e+2, -423213.84, -378354.0, 132565.97, -0.003433207, -0.49828267, -266333.78, -54479.043, 0.0, 9.999002, 9.999557 
2.8145033e+3, 2.8837565e+2, -376595.16, -318599.44, 85599.7, 0.08201469, -0.5312333, -257219.3, -143351.28, 0.0, 9.998705, 9.999437 
2.8144133e+3, 2.9837435e+2, -337189.7, -242788.75, 91588.45, 0.1407387, -0.55876833, -186953.66, -171072.45, 0.0, 9.998277, 9.999492 
2.8143218e+3, 3.083748e+2, -334098.25, -153364.27, 77919.83, -0.025408491, -0.45834738, -124409.46, -124409.46, 0.0, 9.997682, 10.000062 
2.8142327e+3, 3.1837422e+2, -244492.48, 116136.82, -28240.736, 0.1330931, -0.49338377, 118334.945, 118334.945, 0.0, 9.997317, 10.0020895 
2.8259352e+3, 1.2848562e+2, -1276326.3, -1640710.9, 67127.06, -0.26987496, -0.47742864, -1264353.5, 416440.4, 0.0000033256797, 10.003613, 9.998767 
2.8258452e+3, 1.384837e+2, -1307956.8, -1593558.1, 52682.582, -0.21023121, -0.5043974, -1298548.8, 284263.03, 0.00000050691085, 10.002671, 9.998872 
2.8257543e+3, 1.4848237e+2, -1222170.5, -1455478.0, 70433.19, -0.20217058, -0.5067732, -1202556.4, 282267.53, 0.0000000023756648, 10.002399, 9.999272 
2.8256637e+3, 1.5848121e+2, -1140245.8, -1374889.9, 82825.016, -0.17523542, -0.5047585, -1113955.8, 272878.53, 0.0, 10.002332, 9.999186 
2.8255743e+3, 1.684799e+2, -1090618.1, -1302819.9, 124786.2, -0.14761971, -0.5078633, -1032923.4, 255923.78, 0.0, 10.002015, 9.999157 
2.825485e+3, 1.7847863e+2, -1039382.56, -1215125.5, 121002.266, -0.12745462, -0.5103737, -977711.56, 213148.44, 0.0, 10.00164, 9.999269 
2.8253952e+3, 1.8847767e+2, -959738.4, -1081380.6, 122634.34, -0.11127741, -0.5144349, -883671.3, 209197.33, 0.0, 10.00133, 9.999658 
2.8253058e+3, 1.984768e+2, -914375.75, -1029999.44, 115603.875, -0.093023285, -0.51890403, -842934.06, 151941.88, 0.0, 10.001061, 9.999467 
2.8252167e+3, 2.0847565e+2, -845375.5, -969511.75, 129897.09, -0.051978607, -0.5234042, -763479.4, 133408.48, 0.0, 10.000964, 9.999256 
2.8251275e+3, 2.1847445e+2, -747400.7, -853817.8, 154478.13, -0.0067052757, -0.5269084, -637224.3, 161675.98, 0.0, 10.000885, 9.999417 
2.8250384e+3, 2.2847377e+2, -687275.1, -717829.2, 155300.47, -0.01609022, -0.5243545, -546502.06, 154403.67, 0.0, 10.000382, 9.99992 
2.8249493e+3, 2.3847325e+2, -693716.6, -701847.94, 123097.93, -0.033686943, -0.5204414, -574617.25, 28292.068, 0.0, 9.999802, 9.999638 
2.8248602e+3, 2.4847202e+2, -625041.2, -659191.1, 104834.31, 0.02445488, -0.53893274, -535900.4, -30978.688, 0.0, 9.999776, 9.9992695 
2.8247708e+3, 2.5847065e+2, -513068.4, -547542.44, 138511.8, 0.091449626, -0.5603283, -390725.22, 16210.685, 0.0, 9.999841, 9.999334 
2.8246808e+3, 2.6847002e+2, -465075.34, -433234.88, 133384.89, 0.037082687, -0.5323362, -314823.47, -5881.87, 0.0, 9.999324, 9.999694 
2.8245908e+3, 2.7846962e+2, -471656.16, -402699.03, 106857.53, -0.021248631, -0.49494395, -324895.34, -113950.39, 0.0, 9.998681, 9.99954 
2.8245017e+3, 2.8846824e+2, -371058.13, -319093.6, 69418.34, 0.10137734, -0.53678113, -270954.44, -157995.36, 0.0, 9.998759, 9.999408 
2.824412e+3, 2.9846668e+2, -247045.64, -214727.02, 82377.27, 0.19276407, -0.5876253, -146939.1, -131964.33, 0.0, 9.9989605, 9.999356 
2.8243184e+3, 3.0846667e+2, -272015.78, -166992.6, 49617.867, -0.123899326, -0.5004124, -147258.78, -147258.78, 0.0, 9.998298, 9.99967 
2.8242305e+3, 3.1846628e+2, -131615.55, 215629.78, 9482.1045, 0.18915476, -0.49414572, 215888.52, 215888.52, 0.0, 9.997906, 10.002486 
2.835938e+3, 1.2857828e+2, -1288285.3, -1656221.0, 31069.943, -0.33467275, -0.45621848, -1285680.1, 394204.38, 0.00000016214108, 10.003573, 9.998679 
2.835848e+3, 1.3857572e+2, -1309161.6, -1592201.4, 30107.424, -0.13639684, -0.5398798, -1305994.5, 275914.3, 0.0000000020979667, 10.002653, 9.998891 
2.8357568e+3, 1.485747e+2, -1210088.5, -1431739.3, 70213.58, -0.14884773, -0.5228075, -1189718.5, 294199.53, 0.0, 10.002402, 9.999435 
2.8356656e+3, 1.5857406e+2, -1129203.4, -1353562.6, 77011.46, -0.18400215, -0.4854504, -1105313.0, 280610.56, 0.0, 10.0023365, 9.9993305 
2.8355756e+3, 1.6857259e+2, -1086050.9, -1291686.9, 110285.73, -0.16783573, -0.51571065, -1038089.3, 249847.86, 0.0, 10.002007, 9.999239 
2.835486e+3, 1.7857097e+2, -1041140.06, -1214463.3, 107386.41, -0.1421112, -0.55738634, -989808.6, 200143.48, 0.0, 10.001621, 9.999283 
2.8353965e+3, 1.8857007e+2, -968508.0, -1099484.4, 112319.44, -0.09326372, -0.5483555, -903979.44, 187981.67, 0.0, 10.001328, 9.999536 
2.835307e+3, 1.9856939e+2, -908058.2, -1016754.0, 108411.38, -0.0429806, -0.5283676, -841134.8, 152833.3, 0.0, 10.00106, 9.99956 
2.8352174e+3, 2.0856857e+2, -811627.9, -899910.4, 128324.586, -0.05709991, -0.5330461, -720064.9, 175910.31, 0.0, 10.000964, 9.999735 
2.835127e+3, 2.1856771e+2, -741542.25, -840354.7, 145002.64, -0.08169758, -0.54381955, -637759.9, 160222.6, 0.0, 10.000877, 9.999515 
2.8350383e+3, 2.2856656e+2, -732913.7, -811517.44, 131535.92, -0.017477313, -0.54959345, -634933.56, 65060.703, 0.0, 10.000377, 9.999281 
2.8349498e+3, 2.385654e+2, -709779.6, -733096.25, 108996.86, 0.06447476, -0.55241585, -611819.4, -9813.03, 0.0, 9.99979, 9.999429 
2.8348595e+3, 2.485648e+2, -583094.25, -572911.56, 109911.67, 0.04921825, -0.54223454, -467973.38, 36038.473, 0.0, 9.999778, 9.999862 
2.8347692e+3, 2.5856426e+2, -496744.66, -520877.2, 132475.39, 0.0039933943, -0.529028, -375787.16, 30228.871, 0.0, 9.999869, 9.999505 
2.8346795e+3, 2.6856285e+2, -508644.63, -525528.2, 105280.11, 0.010667768, -0.5455392, -411468.4, -103438.07, 0.0, 9.999329, 9.999061 
2.8345898e+3, 2.785613e+2, -497211.97, -452170.72, 91034.33, 0.056487914, -0.56918305, -380912.75, -170866.28, 0.0, 9.998664, 9.99921 
2.8345007e+3, 2.8856042e+2, -356554.53, -288952.3, 79291.87, 0.15398513, -0.5602807, -236557.63, -124502.61, 0.0, 9.998757, 9.999617 
2.8344104e+3, 2.985598e+2, -244442.4, -215355.47, 75975.17, 0.16469894, -0.53317064, -152544.3, -138483.47, 0.0, 9.998984, 9.999343 
2.8343153e+3, 3.0855873e+2, -305020.8, -237758.7, 11509.288, -0.19492866, -0.5201976, -235843.84, -235843.84, 0.0, 9.998305, 9.999182 
2.8342277e+3, 3.1855732e+2, -238828.56, -19496.934, 94202.836, 0.17437667, -0.54737693, 15408.22, 15408.22, 0.0, 9.997956, 10.000848 
2.8459415e+3, 1.2867112e+2, -1354759.9, -1682977.1, 31021.871, -0.27763796, -0.47162026, -1351853.5, 327119.22, 0.00000000032983427, 10.003094, 9.998728 
2.84585e+3, 1.386687e+2, -1377031.0, -1624302.4, 48255.16, -0.13610257, -0.54551035, -1367947.6, 213048.47, 0.0, 10.002185, 9.998897 
2.8457585e+3, 1.4866754e+2, -1269791.1, -1473315.1, 101018.51, -0.15875828, -0.53400046, -1228164.8, 254842.31, 0.0, 10.0020485, 9.99932 
2.8456676e+3, 1.5866673e+2, -1162392.5, -1369428.0, 85855.72, -0.18937883, -0.5039352, -1131421.8, 253592.7, 0.0, 10.002109, 9.999331 
2.845577e+3, 1.686654e+2, -1112638.9, -1281101.8, 111142.016, -0.1589326, -0.5346346, -1057416.1, 229610.13, 0.0, 10.001728, 9.999443 
2.845487e+3, 1.7866394e+2, -1083666.9, -1218899.5, 121461.99, -0.121896, -0.57815194, -1012268.8, 176769.94, 0.0, 10.0012665, 9.999419 
2.8453973e+3, 1.8866305e+2, -1003235.4, -1121883.3, 137299.02, -0.090067826, -0.5680148, -912992.06, 178055.7, 0.0, 10.001117, 9.999483 
2.8453076e+3, 1.9866236e+2, -910321.1, -1018038.4, 135665.7, -0.056652837, -0.5435636, -818214.25, 174841.14, 0.0, 10.001043, 9.99956 
2.8452176e+3, 2.086616e+2, -829937.56, -898418.75, 134190.77, -0.060485724, -0.54884577, -725687.8, 169373.92, 0.0, 10.000795, 9.9998255 
2.8451276e+3, 2.1866082e+2, -793933.7, -863241.3, 124051.17, -0.0714994, -0.5612902, -699786.94, 97281.11, 0.0, 10.000511, 9.999532 
2.8450385e+3, 2.2865954e+2, -749820.56, -835750.94, 127131.21, -0.011150697, -0.5687802, -658590.56, 40490.78, 0.0, 10.000333, 9.999133 
2.8449494e+3, 2.3865825e+2, -663414.9, -720356.8, 140760.38, 0.06683122, -0.57200176, -548275.0, 52820.523, 0.0, 10.000153, 9.99934 
2.844859e+3, 2.4865773e+2, -575586.0, -567629.5, 120421.88, 0.050224043, -0.549586, -451120.16, 51979.977, 0.0, 9.999825, 9.999875 
2.8447685e+3, 2.5865734e+2, -559978.3, -555277.0, 101232.23, 0.0057740766, -0.5223088, -456368.13, -51265.332, 0.0, 9.999456, 9.999465 
2.8446785e+3, 2.6865572e+2, -501524.94, -540636.5, 88970.914, 0.014675028, -0.54874367, -429985.97, -122866.46, 0.0, 9.999457, 9.998895 
2.8445888e+3, 2.7865383e+2, -381311.72, -404430.2, 109661.375, 0.0638974, -0.58872294, -282602.03, -73462.86, 0.0, 9.999489, 9.999144 
2.844499e+3, 2.886531e+2, -318418.9, -258412.61, 102804.945, 0.15081245, -0.5706172, -181322.13, -70176.09, 0.0, 9.998967, 9.999725 
2.8444088e+3, 2.9865277e+2, -336738.94, -269624.22, 92106.57, 0.1507132, -0.5247943, -205152.42, -192003.53, 0.0, 9.998402, 9.999247 
2.8443143e+3, 3.0865136e+2, -238039.69, -260692.77, 26632.15, -0.15164295, -0.5059452, -220425.56, -220425.56, 0.0, 9.999009, 9.998683 
2.8442255e+3, 3.1864917e+2, -112292.46, 4809.9624, 112593.23, 0.14622904, -0.56235677, 73166.12, 73166.12, 0.0, 9.998985, 10.000519 
2.8559452e+3, 1.2876418e+2, -1372575.5, -1678815.0, -10711.59, -0.15325655, -0.51312757, -1372201.4, 305857.63, 0.0, 10.002918, 9.998839 
2.8558514e+3, 1.3876241e+2, -1373517.0, -1626363.5, 23917.398, -0.18684475, -0.5287467, -1371274.5, 208801.48, 0.0, 10.002225, 9.998863 
2.85576e+3, 1.4876081e+2, -1290372.9, -1520257.6, 103218.77, -0.2092267, -0.53954, -1250829.5, 231262.23, 0.0, 10.002065, 9.998991 
2.8556693e+3, 1.5875933e+2, -1176071.0, -1385174.1, 81377.13, -0.19118322, -0.5485081, -1148133.8, 235972.34, 0.0, 10.002052, 9.999251 
2.855579e+3, 1.6875833e+2, -1093806.9, -1236322.8, 93229.36, -0.13118711, -0.5632563, -1047721.75, 238392.31, 0.0, 10.001702, 9.9997635 
2.8554887e+3, 1.7875747e+2, -1068418.3, -1188986.8, 109131.49, -0.07850197, -0.5799266, -1004027.44, 184093.11, 0.0, 10.001272, 9.999623 
2.855398e+3, 1.8875657e+2, -1003354.2, -1123543.8, 135140.05, -0.10118329, -0.57584476, -915549.6, 174579.63, 0.0, 10.00112, 9.999472 
2.8553078e+3, 1.9875571e+2, -919071.9, -1033594.4, 129851.71, -0.12878722, -0.56538475, -834416.56, 157721.75, 0.0, 10.001031, 9.99946 
2.855218e+3, 2.0875475e+2, -849391.94, -938598.06, 123189.414, -0.059904773, -0.57038057, -762979.5, 131168.06, 0.0, 10.000793, 9.999551 
2.8551286e+3, 2.1875376e+2, -798808.56, -871464.8, 114918.664, 0.02032349, -0.5792486, -714612.7, 81544.05, 0.0, 10.000502, 9.999481 
2.8550383e+3, 2.2875276e+2, -726299.0, -788135.1, 121358.49, -0.0021374975, -0.580913, -631982.06, 66184.67, 0.0, 10.000336, 9.99946 
2.854948e+3, 2.3875178e+2, -660954.44, -719297.8, 131645.63, -0.03901696, -0.57861084, -555287.1, 44889.64, 0.0, 10.000168, 9.999342 
2.8548583e+3, 2.4875079e+2, -616879.75, -653308.5, 104919.38, 0.029299947, -0.5624211, -528605.44, -26418.484, 0.0, 9.999822, 9.999289 
2.854769e+3, 2.587498e+2, -578574.6, -592264.9, 92101.61, 0.10724476, -0.54402924, -493064.13, -88867.02, 0.0, 9.999448, 9.999216 
2.8546777e+3, 2.6874867e+2, -477316.28, -492095.66, 92955.06, 0.049528345, -0.53892183, -391457.66, -85248.3, 0.0, 9.999463, 9.999227 
2.8545868e+3, 2.7874747e+2, -360594.6, -369676.47, 101857.36, -0.01461125, -0.53959584, -263177.0, -54955.293, 0.0, 9.999522, 9.999368 
2.8544968e+3, 2.8874633e+2, -321110.72, -262088.1, 75763.484, 0.07980799, -0.56671554, -210291.2, -100059.31, 0.0, 9.998958, 9.999705 
2.8544065e+3, 2.9874533e+2, -357451.3, -301655.75, 88772.61, 0.14695023, -0.5812558, -236500.52, -224259.69, 0.0, 9.998354, 9.99905 
2.8543147e+3, 3.087447e+2, -266840.25, -331679.1, 66166.5, 0.044427674, -0.4465466, -225577.75, -225577.75, 0.0, 9.999058, 9.998174 
2.8542235e+3, 3.1874168e+2, 4706.8745, 249393.08, -69285.8, 0.07934961, -0.580667, 267649.97, 267649.97, 0.0, 9.998978, 10.002204 
2.8659472e+3, 1.2885685e+2, -1592479.8, -1734360.5, -29350.457, -0.101316035, -0.53107566, -1586647.8, 90502.49, 0.0, 10.001187, 9.999294 
2.865853e+3, 1.3885568e+2, -1340408.3, -1576131.8, 14127.552, -0.21982966, -0.5313863, -1339564.6, 239595.98, 0.0, 10.002305, 9.999168 
2.8657612e+3, 1.4885412e+2, -1316931.9, -1528537.9, 95945.19, -0.21744354, -0.548729, -1279907.1, 201268.36, 0.0, 10.001866, 9.999027 
2.8656706e+3, 1.5885256e+2, -1307650.5, -1438494.0, 98628.75, -0.1528735, -0.5701828, -1254718.4, 128472.445, 0.0, 10.001108, 9.999337 
2.8655797e+3, 1.6885175e+2, -1177679.5, -1262055.4, 110654.484, -0.11471896, -0.5797866, -1101443.5, 183753.84, 0.0, 10.001064, 9.999893 
2.865489e+3, 1.7885111e+2, -1073881.5, -1180367.6, 114247.625, -0.092729285, -0.5844435, -1001079.5, 186122.1, 0.0, 10.001185, 9.999725 
2.8653985e+3, 1.8885022e+2, -1010805.56, -1120478.9, 141522.56, -0.1026289, -0.58769715, -913867.1, 175342.73, 0.0, 10.001042, 9.999529 
2.8653082e+3, 1.9884926e+2, -947493.56, -1049545.3, 141562.69, -0.11315087, -0.5906993, -848041.4, 143177.77, 0.0, 10.00085, 9.999435 
2.8652185e+3, 2.0884815e+2, -871211.56, -970661.5, 138055.0, -0.050869137, -0.5949416, -774199.5, 119030.94, 0.0, 10.00074, 9.999355 
2.8651288e+3, 2.1884707e+2, -784004.2, -873482.3, 134359.2, 0.02337295, -0.59618914, -687131.2, 108110.49, 0.0, 10.000645, 9.999397 
2.8650382e+3, 2.2884625e+2, -703800.25, -767702.4, 127471.58, -0.002922425, -0.5818135, -604336.44, 92913.26, 0.0, 10.000451, 9.999544 
2.8649476e+3, 2.3884547e+2, -653870.2, -720276.6, 122039.22, -0.043279096, -0.5651415, -560598.0, 38659.438, 0.0, 10.000239, 9.999299 
2.864858e+3, 2.4884403e+2, -590274.7, -673269.8, 107367.164, 0.025407728, -0.5755805, -516664.7, -15392.218, 0.0, 10.000149, 9.998993 
2.8647682e+3, 2.5884247e+2, -505883.06, -574954.4, 114514.57, 0.10759555, -0.5864668, -420809.78, -17521.307, 0.0, 10.000023, 9.999058 
2.864677e+3, 2.6884174e+2, -451487.7, -470423.06, 104433.64, 0.055815406, -0.5391255, -356093.44, -50796.367, 0.0, 9.999603, 9.999307 
2.8645858e+3, 2.7884114e+2, -418219.56, -394329.4, 92518.8, -0.002703246, -0.48856172, -312987.75, -105683.59, 0.0, 9.999122, 9.999387 
2.8644952e+3, 2.8883943e+2, -289154.3, -260997.78, 56443.355, 0.06629176, -0.5654122, -216903.47, -107583.98, 0.0, 9.999243, 9.999574 
2.8644046e+3, 2.988377e+2, -198298.22, -228698.6, 69836.77, 0.11381356, -0.6421218, -142026.6, -130691.49, 0.0, 9.999464, 9.999019 
2.864314e+3, 3.0883798e+2, -283404.47, -328283.75, 99104.18, 0.10622286, -0.42120358, -204231.25, -204231.25, 0.0, 9.9988985, 9.998274 
2.8642222e+3, 3.1883445e+2, 65446.25, 310490.88, -60322.46, 0.06140991, -0.61878675, 324535.44, 324535.44, 0.0, 9.999264, 10.002483 
2.8759483e+3, 1.2894937e+2, -1536526.1, -1626589.0, 18803.457, -0.09570868, -0.52885264, -1532757.9, 143486.39, 0.0, 10.001225, 10.000013 
2.8758544e+3, 1.3894866e+2, -1314918.5, -1501359.0, 29462.16, -0.24442747, -0.54997194, -1310373.5, 267874.53, 0.0, 10.00221, 9.999727 
2.8757626e+3, 1.4894754e+2, -1303718.0, -1488293.0, 62917.29, -0.20001775, -0.56447, -1284311.4, 195947.0, 0.0, 10.001809, 9.999331 
2.875672e+3, 1.5894634e+2, -1294416.4, -1412859.8, 80788.09, -0.08833406, -0.57752573, -1253468.5, 128801.27, 0.0, 10.001116, 9.999511 
2.8755805e+3, 1.6894555e+2, -1179869.4, -1269073.3, 115517.48, -0.10693048, -0.5849123, -1100642.4, 183634.14, 0.0, 10.001073, 9.999843 
2.8754893e+3, 1.789449e+2, -1074056.4, -1178528.9, 113675.336, -0.15275978, -0.588795, -1001189.9, 185091.89, 0.0, 10.001175, 9.9997425 
2.8753993e+3, 1.8894398e+2, -1001655.1, -1102131.3, 133279.94, -0.09519359, -0.6036593, -909459.3, 178830.08, 0.0, 10.001044, 9.999654 
2.8753096e+3, 1.9894299e+2, -945751.2, -1045776.6, 135120.27, -0.022880781, -0.6211367, -851684.9, 138613.19, 0.0, 10.000848, 9.999463 
2.875219e+3, 2.0894183e+2, -879769.56, -989622.06, 134833.13, -0.03874753, -0.62198126, -789104.4, 103206.09, 0.0, 10.000743, 9.999226 
2.875128e+3, 2.189407e+2, -794188.1, -892866.44, 128976.32, -0.06634291, -0.6141918, -705435.9, 88887.164, 0.0, 10.000636, 9.999269 
2.8750384e+3, 2.2894004e+2, -714669.5, -789756.44, 119237.99, -0.009209197, -0.57233953, -627204.1, 69126.31, 0.0, 10.000449, 9.999394 
2.8749484e+3, 2.3893933e+2, -659858.2, -732944.25, 116324.98, 0.059566017, -0.5330294, -574471.3, 23866.453, 0.0, 10.000239, 9.999212 
2.8748578e+3, 2.489374e+2, -590219.94, -675808.56, 104436.44, 0.033351954, -0.58890635, -520150.1, -19793.455, 0.0, 10.000158, 9.998972 
2.8747663e+3, 2.5893533e+2, -508016.6, -585472.0, 104887.914, -0.013783746, -0.6483716, -434935.03, -32558.367, 0.0, 10.000048, 9.998975 
2.874676e+3, 2.6893494e+2, -465933.9, -499497.5, 83445.695, 0.032043263, -0.54983497, -397599.25, -93216.34, 0.0, 9.9995985, 9.999109 
2.8745857e+3, 2.7893472e+2, -434631.1, -426313.2, 81887.88, 0.112079486, -0.43994367, -348478.72, -142091.27, 0.0, 9.999109, 9.999174 
2.8744948e+3, 2.8893226e+2, -305849.8, -301089.56, 68943.27, 0.11888337, -0.568885, -234485.34, -126075.38, 0.0, 9.999264, 9.9992895 
2.874403e+3, 2.9892975e+2, -175092.83, -193846.23, 61254.88, 0.043467287, -0.7038257, -122501.13, -112068.81, 0.0, 9.999523, 9.999229 
2.874311e+3, 3.0893126e+2, -230444.63, -202411.17, 67635.4, -0.017734332, -0.4281895, -147355.36, -147355.36, 0.0, 9.998837, 9.999165 
2.8742218e+3, 3.1892803e+2, -66009.164, 27927.771, 154796.63, 0.15908554, -0.63166, 142724.66, 142724.66, 0.0, 9.999298, 10.000528 
2.8859487e+3, 1.2904194e+2, -1534806.1, -1614897.0, 55439.465, -0.1284879, -0.5569708, -1506461.8, 168873.64, 0.0, 10.001186, 10.000114 
2.885856e+3, 1.3904157e+2, -1495801.0, -1559846.1, 24420.145, -0.20314844, -0.5587978, -1487552.1, 89784.73, 0.0, 10.000845, 9.999983 
2.885764e+3, 1.4904083e+2, -1408843.9, -1489998.9, 43106.98, -0.17374572, -0.5734818, -1390220.5, 89122.46, 0.0, 10.000878, 9.999767 
2.8856727e+3, 1.5904e+2, -1294410.3, -1384020.3, 73027.34, -0.09279494, -0.58920693, -1253538.6, 127811.58, 0.0, 10.000992, 9.999767 
2.8855813e+3, 1.6903932e+2, -1192942.6, -1278211.8, 117897.92, -0.10373424, -0.59317714, -1110207.3, 173148.95, 0.0, 10.000996, 9.999816 
2.88549e+3, 1.7903864e+2, -1102019.4, -1188788.6, 115720.16, -0.13826635, -0.5964473, -1021818.5, 163543.4, 0.0, 10.00097, 9.999769 
2.8853998e+3, 1.8903774e+2, -1013148.56, -1096050.3, 128800.25, -0.08509922, -0.6204995, -919293.56, 168075.94, 0.0, 10.000917, 9.999756 
2.88531e+3, 1.9903676e+2, -939188.25, -1032999.06, 129376.78, -0.014407167, -0.6444897, -848476.56, 140900.97, 0.0, 10.000851, 9.99955 
2.8852192e+3, 2.0903578e+2, -884830.3, -983872.25, 139600.83, -0.033606756, -0.6358316, -786227.3, 105161.016, 0.0, 10.000672, 9.999299 
2.8851286e+3, 2.190348e+2, -816853.44, -907170.1, 148602.84, -0.06710409, -0.616601, -706698.94, 86700.53, 0.0, 10.000497, 9.999238 
2.8850383e+3, 2.290339e+2, -717258.6, -812403.3, 139188.13, -0.008284854, -0.5823637, -617737.56, 77671.84, 0.0, 10.0005245, 9.999202 
2.8849486e+3, 2.3903295e+2, -617110.8, -717638.7, 133048.97, 0.067194894, -0.55168927, -525147.8, 72271.74, 0.0, 10.000557, 9.999164 
2.8848574e+3, 2.490312e+2, -558467.3, -644210.94, 126699.24, 0.033955544, -0.59774184, -467583.03, 31853.371, 0.0, 10.000309, 9.999114 
2.884766e+3, 2.5902936e+2, -513342.22, -587403.8, 137241.36, -0.020216875, -0.64573824, -408223.53, -6769.5347, 0.0, 10.000017, 9.99897 
2.8846753e+3, 2.6902863e+2, -445618.1, -520961.5, 106547.39, 0.032232784, -0.55997396, -370278.72, -66815.016, 0.0, 9.999879, 9.998822 
2.8845847e+3, 2.79028e+2, -372364.63, -409371.22, 101999.055, 0.12339353, -0.46660897, -287204.13, -81731.3, 0.0, 9.999597, 9.999054 
2.8844938e+3, 2.8902563e+2, -301832.28, -307059.94, 126650.66, 0.12401037, -0.58041376, -177768.48, -70274.19, 0.0, 9.999332, 9.999211 
2.884402e+3, 2.990232e+2, -208502.63, -242464.52, 122462.04, 0.043301642, -0.69001186, -101849.83, -92334.375, 0.0, 9.999441, 9.998933 
2.8843108e+3, 3.0902413e+2, -48865.34, -194543.19, 19156.824, 0.021334037, -0.42074135, -46388.31, -46388.31, 0.0, 10.000437, 9.998455 
2.884221e+3, 3.1902036e+2, 71768.6, 37436.2, 84627.23, 0.12899071, -0.6107867, 140953.11, 140953.11, 0.0, 10.000484, 10.000036 
2.8959486e+3, 1.2913461e+2, -1556942.4, -1662812.5, 43230.242, -0.18916479, -0.60948426, -1541533.0, 132891.17, 0.0, 10.0012, 9.999777 
2.8958574e+3, 1.3913453e+2, -1493547.4, -1555789.6, 21338.043, -0.11492719, -0.5581671, -1486934.8, 89490.914, 0.0, 10.000848, 10.000009 
2.8957647e+3, 1.4913414e+2, -1372182.4, -1415255.1, 48828.18, -0.14109357, -0.57409817, -1340352.0, 138076.14, 0.0, 10.000882, 10.000279 
2.8956726e+3, 1.5913367e+2, -1272883.9, -1338970.4, 75153.39, -0.14905308, -0.6014431, -1223830.4, 156600.89, 0.0, 10.000989, 10.000078 
2.8955817e+3, 1.6913305e+2, -1193026.1, -1278194.1, 116619.47, -0.105334006, -0.6075336, -1111459.0, 170977.23, 0.0, 10.000994, 9.999818 
2.8954914e+3, 1.7913239e+2, -1101569.3, -1186336.0, 114374.88, -0.06759207, -0.61157465, -1021977.4, 162464.72, 0.0, 10.000963, 9.99979 
2.8954005e+3, 1.8913148e+2, -1009138.5, -1086918.1, 127141.29, -0.07556199, -0.6378875, -915072.2, 171377.52, 0.0, 10.000911, 9.999823 
2.89531e+3, 1.991306e+2, -931856.7, -1014077.7, 125002.17, -0.081344076, -0.6621243, -841378.4, 147078.98, 0.0, 10.000834, 9.999688 
2.8952196e+3, 2.0912999e+2, -866212.06, -945524.7, 132001.08, -0.031890858, -0.6375236, -768039.06, 122424.914, 0.0, 10.000674, 9.999562 
2.8951293e+3, 2.1912935e+2, -813769.56, -900863.94, 145154.88, 0.016531855, -0.606363, -705770.4, 86700.875, 0.0, 10.000496, 9.999282 
2.8950384e+3, 2.291279e+2, -733971.06, -847851.9, 142065.69, -0.006973029, -0.61154723, -637859.6, 56627.02, 0.0, 10.000526, 9.998958 
2.8949478e+3, 2.3912635e+2, -617305.7, -719562.5, 128670.555, -0.0329118, -0.620983, -529977.5, 66525.26, 0.0, 10.000563, 9.999149 
2.8948575e+3, 2.4912547e+2, -537325.44, -599640.2, 114666.984, 0.03187528, -0.60043395, -449658.16, 48853.438, 0.0, 10.000307, 9.999422 
2.894767e+3, 2.591246e+2, -507844.72, -578214.25, 131089.53, 0.09856934, -0.5751286, -407300.22, -6780.164, 0.0, 10.000026, 9.999029 
2.894675e+3, 2.6912284e+2, -472412.25, -579969.0, 99446.68, 0.05294568, -0.57224274, -413134.2, -110594.61, 0.0, 9.99989, 9.998411 
2.8945827e+3, 2.7912086e+2, -368265.6, -409332.44, 85003.92, 0.008809853, -0.57968694, -301350.25, -96789.26, 0.0, 9.999629, 9.99904 
2.8944921e+3, 2.8911963e+2, -292107.7, -278888.38, 127117.18, 0.073263526, -0.5990319, -158209.13, -51637.69, 0.0, 9.999307, 9.999412 
2.8944018e+3, 2.9911837e+2, -282035.97, -383003.34, 146714.44, 0.123541966, -0.59182405, -177362.55, -168780.31, 0.0, 9.999393, 9.997988 
2.8943133e+3, 3.0911583e+2, -232967.34, -594294.6, 61646.965, 0.28415757, -0.44835266, -222739.14, -222739.14, 0.0, 10.000517, 9.995673 
2.8942186e+3, 3.191107e+2, 195198.83, 294865.53, -92790.0, -0.1302094, -0.5794524, 350357.13, 350357.13, 0.0, 10.0004835, 10.001807 
2.9059494e+3, 1.2922803e+2, -1583828.5, -1692280.9, 57855.664, -0.21082383, -0.6382299, -1558759.3, 114746.36, 0.0, 10.001081, 9.999634 
2.905858e+3, 1.3922797e+2, -1525317.5, -1576971.4, 53342.17, -0.0989297, -0.57059324, -1491878.8, 83629.7, 0.0, 10.000653, 9.999958 
2.9057652e+3, 1.4922763e+2, -1401207.0, -1422657.4, 71057.39, -0.12864308, -0.5846327, -1340070.0, 137440.89, 0.0, 10.000654, 10.000338 
2.905673e+3, 1.5922719e+2, -1303495.9, -1342381.4, 70866.484, -0.15023959, -0.61523664, -1249453.4, 130060.11, 0.0, 10.00073, 10.00018 
2.9055822e+3, 1.6922669e+2, -1220043.0, -1271543.6, 112648.836, -0.10390378, -0.62643415, -1130238.8, 151278.55, 0.0, 10.000724, 9.999993 
2.905492e+3, 1.7922615e+2, -1131056.9, -1184941.4, 120161.6, -0.056970336, -0.6331932, -1034854.06, 148667.48, 0.0, 10.000692, 9.999931 
2.905401e+3, 1.8922547e+2, -1049186.0, -1096532.9, 134258.56, -0.06655211, -0.64844096, -936529.7, 148997.84, 0.0, 10.000592, 9.999911 
2.90531e+3, 1.9922477e+2, -974440.75, -1026847.25, 134563.23, -0.07858542, -0.66099954, -863553.25, 123980.4, 0.0, 10.000505, 9.999759 
2.90522e+3, 2.0922421e+2, -863604.06, -936050.75, 132155.27, -0.026425516, -0.6383374, -762797.7, 126742.13, 0.0, 10.000655, 9.999637 
2.9051295e+3, 2.1922362e+2, -758725.25, -861859.6, 134629.22, 0.028691007, -0.611651, -666125.2, 125421.336, 0.0, 10.000818, 9.999395 
2.905039e+3, 2.2922216e+2, -704834.56, -812078.06, 152961.28, -0.00807696, -0.63289833, -596368.56, 97192.72, 0.0, 10.000631, 9.999153 
2.9049474e+3, 2.3922066e+2, -640890.8, -725208.9, 165112.92, -0.04747713, -0.65564835, -512639.6, 82937.18, 0.0, 10.000379, 9.999198 
2.904857e+3, 2.4921998e+2, -544540.3, -610863.9, 127619.625, 0.029584002, -0.6063567, -445844.3, 51740.223, 0.0, 10.000293, 9.9993515 
2.9047665e+3, 2.592194e+2, -479623.28, -542930.44, 122014.99, 0.11288035, -0.54944414, -385222.88, 14368.329, 0.0, 10.000128, 9.999222 
2.9046744e+3, 2.692177e+2, -469931.22, -513139.94, 139105.4, 0.05824439, -0.58374804, -350762.5, -49153.914, 0.0, 9.999627, 9.998995 
2.9045817e+3, 2.7921584e+2, -406034.44, -377199.4, 190174.05, 0.004053329, -0.63407046, -200897.16, 2730.311, 0.0, 9.999168, 9.999475 
2.90449e+3, 2.8921545e+2, -477248.4, -301384.22, 207973.56, 0.03617815, -0.61150706, -163517.61, -57886.855, 0.0, 9.99776, 9.999999 
2.9159498e+3, 1.2932202e+2, -1590431.6, -1694733.6, 36341.45, -0.20784526, -0.6471417, -1579018.3, 93563.33, 0.0, 10.001037, 9.999637 
2.9158577e+3, 1.393218e+2, -1531268.6, -1592656.0, 43422.98, -0.13831972, -0.5931867, -1508786.5, 65800.35, 0.0, 10.000669, 9.999843 
2.9157653e+3, 1.4932124e+2, -1418417.9, -1463225.4, 73502.3, -0.13250972, -0.60525995, -1363980.8, 112611.14, 0.0, 10.000674, 10.000051 
2.915674e+3, 1.5932061e+2, -1305926.4, -1348620.5, 73381.74, -0.11158738, -0.63188344, -1250849.8, 127747.1, 0.0, 10.000733, 10.000135 
2.9155827e+3, 1.6932027e+2, -1198344.6, -1226836.8, 112374.79, -0.10066145, -0.647424, -1099316.5, 181282.3, 0.0, 10.000723, 10.000301 
2.9154918e+3, 1.7932e+2, -1117220.3, -1153598.8, 117449.18, -0.096164756, -0.6576925, -1016560.25, 166039.88, 0.0, 10.00068, 10.000152 
2.9154012e+3, 1.8931964e+2, -1041712.9, -1081123.1, 129328.445, -0.057664976, -0.6535072, -930597.0, 154006.2, 0.0, 10.000592, 10.000018 
2.915311e+3, 1.9931923e+2, -974205.44, -1026519.8, 134869.36, -0.016753303, -0.6460867, -862980.1, 123626.93, 0.0, 10.000505, 9.999762 
2.9152203e+3, 2.0931843e+2, -870367.25, -950720.06, 139730.2, -0.02216451, -0.6383978, -765152.2, 123463.6, 0.0, 10.000656, 9.9995365 
2.9151294e+3, 2.1931762e+2, -747011.44, -834913.1, 134753.02, -0.03351933, -0.63223916, -649222.94, 141402.1, 0.0, 10.000806, 9.999587 
2.9150388e+3, 2.2931673e+2, -660890.3, -720602.8, 142867.7, -0.0073231063, -0.64584523, -544792.5, 147840.63, 0.0, 10.00063, 9.9997835 
2.9149482e+3, 2.3931582e+2, -633968.44, -712198.75, 158479.3, 0.023460353, -0.65641195, -509848.53, 84792.96, 0.0, 10.000383, 9.999284 
2.914857e+3, 2.4931474e+2, -578873.0, -681054.56, 125137.586, 0.01877071, -0.6159647, -494798.38, 1856.9105, 0.0, 10.000289, 9.998869 
2.9147652e+3, 2.5931376e+2, -453018.16, -493934.0, 107251.66, 0.0039877878, -0.5719054, -364290.72, 34377.418, 0.0, 10.00015, 9.99955 
2.9146737e+3, 2.6931342e+2, -354302.7, -275515.2, 117602.09, 0.048455253, -0.59148157, -190884.25, 109785.91, 0.0, 9.999631, 10.000628 
2.9145816e+3, 2.7931324e+2, -353489.84, -260475.83, 178938.14, 0.11212031, -0.618143, -122099.74, 80570.26, 0.0, 9.999145, 10.000287 
2.914487e+3, 2.8931314e+2, -427514.78, -190277.45, 112136.414, 0.012755455, -0.62014025, -145663.27, -40991.445, 0.0, 9.997735, 10.000775 
2.9259503e+3, 1.2941559e+2, -1668013.5, -1726034.8, 4446.5986, -0.21113554, -0.6518673, -1667674.6, 3988.265, 0.0, 10.00048, 9.999689 
2.9258576e+3, 1.3941532e+2, -1533403.3, -1589831.0, 17451.566, -0.15734355, -0.6052502, -1528442.3, 45226.4, 0.0, 10.000635, 9.99988 
2.9257655e+3, 1.4941472e+2, -1420186.3, -1462066.1, 64744.773, -0.13224602, -0.6270282, -1373079.4, 102594.516, 0.0, 10.000651, 10.000071 
2.9256743e+3, 1.5941407e+2, -1319770.8, -1349395.6, 79845.41, -0.08583862, -0.6575535, -1253375.5, 124303.39, 0.0, 10.000609, 10.000193 
2.925583e+3, 1.6941395e+2, -1225558.9, -1227563.5, 107424.59, -0.081392035, -0.65905654, -1119131.9, 160546.94, 0.0, 10.000479, 10.000416 
2.925492e+3, 1.7941393e+2, -1159890.3, -1164266.5, 102972.44, -0.089030914, -0.6557532, -1059082.8, 122595.45, 0.0, 10.000338, 10.000246 
2.9254013e+3, 1.8941353e+2, -1059315.1, -1078717.5, 114480.13, -0.048924547, -0.66497076, -954125.9, 129555.77, 0.0, 10.000422, 10.000118 
2.925311e+3, 1.9941309e+2, -959165.56, -1002682.3, 123670.82, -0.0040772404, -0.6728102, -855353.6, 130332.13, 0.0, 10.000535, 9.999913 
2.92522e+3, 2.0941254e+2, -879169.94, -930116.5, 147941.0, -0.025776133, -0.6609218, -754525.2, 133166.8, 0.0, 10.000485, 9.999761 
2.9251295e+3, 2.19412e+2, -794439.56, -841296.56, 158651.02, -0.05198605, -0.6467004, -657496.5, 132201.75, 0.0, 10.000406, 9.999737 
2.925039e+3, 2.2941129e+2, -691968.06, -723778.7, 132623.34, -0.0047525796, -0.6534849, -574299.7, 117405.414, 0.0, 10.000363, 9.999891 
2.9249486e+3, 2.3941056e+2, -631678.6, -690279.06, 120498.27, 0.04658821, -0.6591745, -536969.44, 56742.7, 0.0, 10.000304, 9.999476 
2.9248565e+3, 2.4940963e+2, -578228.2, -638560.75, 136107.36, -0.0031613288, -0.63419247, -468984.25, 26739.818, 0.0, 10.000105, 9.999253 
2.9247642e+3, 2.5940886e+2, -483112.94, -476389.28, 162417.16, -0.05995429, -0.6035294, -317299.16, 80435.3, 0.0, 9.999796, 9.999846 
2.9246727e+3, 2.6940906e+2, -368838.2, -240213.89, 94455.65, 0.04979512, -0.6009386, -190254.78, 109477.25, 0.0, 9.999342, 10.001014 
2.924581e+3, 2.794095e+2, -361298.2, -214529.98, 80302.18, 0.1843667, -0.6106238, -179131.42, 22595.129, 0.0, 9.998855, 10.000757 
2.9244843e+3, 2.8940985e+2, -224378.27, -32533.283, -18497.11, -0.019488562, -0.62518024, -30766.125, 72957.2, 0.0, 9.998843, 10.001346 
2.9359502e+3, 1.295088e+2, -1662488.0, -1713750.5, 9100.052, -0.22088252, -0.65698004, -1660920.5, 9827.7705, 0.0, 10.000481, 9.999771 
2.9358578e+3, 1.3950862e+2, -1528139.4, -1569906.0, 21152.887, -0.16182956, -0.6117947, -1519298.0, 53454.895, 0.0, 10.000597, 10.000034 
2.935766e+3, 1.4950806e+2, -1407154.8, -1428416.4, 63035.082, -0.12925053, -0.6509446, -1353860.4, 120896.52, 0.0, 10.000622, 10.000317 
2.9356745e+3, 1.5950753e+2, -1315660.4, -1335113.3, 76587.43, -0.07117324, -0.6906037, -1248184.3, 128575.69, 0.0, 10.000585, 10.000302 
2.9355833e+3, 1.695077e+2, -1231090.6, -1235899.1, 100737.62, -0.05049215, -0.6648234, -1132728.6, 146029.58, 0.0, 10.000464, 10.000365 
2.935492e+3, 1.7950788e+2, -1160625.5, -1164289.8, 101047.31, -0.04516525, -0.63366735, -1061393.8, 119362.53, 0.0, 10.00033, 10.00025 
2.9354015e+3, 1.8950717e+2, -1052145.3, -1064639.6, 119225.21, -0.042925727, -0.68264866, -939003.7, 143758.86, 0.0, 10.0004225, 10.000215 
2.935311e+3, 1.995064e+2, -940211.4, -961368.8, 125068.0, -0.039949596, -0.7376459, -825275.5, 159493.8, 0.0, 10.000526, 10.0002 
2.9352203e+3, 2.0950653e+2, -842137.4, -852515.5, 144193.36, -0.034576733, -0.7041848, -703039.75, 183728.38, 0.0, 10.000482, 10.000296 
2.9351297e+3, 2.1950674e+2, -789106.8, -828790.9, 155884.39, -0.028914565, -0.65723026, -651806.75, 136959.78, 0.0, 10.0004, 9.9998255 
2.935039e+3, 2.2950587e+2, -722095.7, -783839.3, 130511.13, -0.0055130394, -0.6544533, -618854.8, 71922.414, 0.0, 10.000353, 9.999483 
2.934948e+3, 2.3950489e+2, -608121.4, -642798.94, 115503.66, 0.015902825, -0.66226923, -508662.34, 84126.36, 0.0, 10.000308, 9.999803 
2.9348558e+3, 2.4950472e+2, -485409.34, -449573.5, 127668.5, -0.03386644, -0.66061014, -338571.7, 156218.64, 0.0, 10.000117, 10.000548 
2.934763e+3, 2.5950488e+2, -462811.13, -438383.03, 149226.13, -0.0826939, -0.64276284, -300871.94, 95916.88, 0.0, 9.999814, 10.000097 
2.9346716e+3, 2.6950467e+2, -440584.3, -389727.2, 75993.03, 0.056277197, -0.61166865, -335021.16, -36227.137, 0.0, 9.999347, 9.999981 
2.9345796e+3, 2.7950436e+2, -340195.2, -193507.88, 56998.027, 0.19910868, -0.613545, -173964.14, 26835.738, 0.0, 9.9989395, 10.000867 
2.934482e+3, 2.8950608e+2, -151700.63, 109016.48, -3828.61, -0.07814255, -0.5732824, 109072.69, 211852.4, 0.0, 9.99888, 10.0023 
2.9459497e+3, 1.2960152e+2, -1677992.3, -1711235.9, -19491.596, -0.259959, -0.676267, -1668997.5, 840.4196, 0.0, 10.000321, 9.999871 
2.9458582e+3, 1.3960126e+2, -1593857.3, -1577038.6, 1628.9167, -0.11364694, -0.6528685, -1576882.3, -5039.7764, 0.0, 10.000039, 10.000256 
2.9457662e+3, 1.4960103e+2, -1468654.9, -1427517.6, 45088.51, -0.09988414, -0.68644947, -1398527.8, 75315.23, 0.0, 10.000064, 10.000594 
2.9456744e+3, 1.5960073e+2, -1379112.1, -1353835.3, 59107.902, -0.07462656, -0.72500944, -1306029.8, 69813.9, 0.0, 10.000094, 10.000412 
2.9455832e+3, 1.6960089e+2, -1280776.5, -1262195.1, 82864.36, -0.04447569, -0.70126987, -1188102.3, 89740.15, 0.0, 10.00013, 10.000349 
2.9454923e+3, 1.7960107e+2, -1186655.4, -1170147.8, 88943.67, -0.028537743, -0.67285675, -1089075.8, 90765.414, 0.0, 10.00012, 10.000314 
2.9454014e+3, 1.8960063e+2, -1075128.5, -1059502.1, 114301.18, -0.04374132, -0.70663446, -952747.4, 129097.39, 0.0, 10.000188, 10.000366 
2.9453105e+3, 1.996002e+2, -964001.4, -955099.44, 119425.92, -0.05525146, -0.7450869, -840041.56, 143806.64, 0.0, 10.000277, 10.000369 
2.9452202e+3, 2.096004e+2, -861529.8, -843440.1, 112961.25, -0.03440393, -0.72224313, -739162.2, 146684.22, 0.0, 10.000261, 10.000469 
2.94513e+3, 2.1960069e+2, -799067.2, -818248.0, 107176.76, -0.0144360885, -0.6845042, -701052.6, 86791.51, 0.0, 10.000257, 9.999971 
2.9450387e+3, 2.2960009e+2, -723699.06, -767725.0, 113151.234, -0.015655564, -0.6691667, -630439.44, 59412.94, 0.0, 10.000258, 9.999644 
2.9449475e+3, 2.3959936e+2, -607454.5, -612325.94, 128160.94, -0.016558275, -0.66864645, -481706.16, 110155.51, 0.0, 10.000176, 10.000077 
2.9448554e+3, 2.4959949e+2, -477183.88, -396925.53, 88166.33, -0.03976964, -0.6793014, -340185.47, 153674.39, 0.0, 9.999957, 10.000991 
2.944763e+3, 2.5960004e+2, -455925.25, -412447.63, 59058.207, -0.061046455, -0.6652156, -371254.34, 24599.55, 0.0, 9.999761, 10.000305 
2.9446706e+3, 2.6960003e+2, -376995.97, -384151.0, 39052.59, 0.042010933, -0.6073654, -341357.38, -43499.04, 0.0, 9.999878, 9.999772 
2.944578e+3, 2.7959937e+2, -213504.33, -157466.58, 55207.984, 0.14731888, -0.615971, -123574.4, 76294.6, 0.0, 9.999914, 10.000642 
2.9444814e+3, 2.896013e+2, -93939.08, 135573.06, -79069.99, -0.023756392, -0.5400064, 160176.31, 262023.06, 0.0, 9.99927, 10.002289 
2.955949e+3, 1.2969394e+2, -1677453.9, -1693502.8, -32182.082, -0.31938866, -0.69560945, -1652310.9, 16619.248, 0.0, 10.000255, 10.000024 
2.9558587e+3, 1.3969351e+2, -1578697.1, -1540539.3, 1056.9401, -0.029298916, -0.7095312, -1540510.0, 30425.414, 0.0, 10.000019, 10.000515 
2.955766e+3, 1.4969376e+2, -1449556.8, -1385768.8, 46814.34, -0.053045176, -0.7238705, -1361016.4, 111914.94, 0.0, 10.000055, 10.000885 
2.955674e+3, 1.5969378e+2, -1372596.4, -1337563.5, 60155.035, -0.09227589, -0.75574577, -1292426.5, 82502.7, 0.0, 10.000082, 10.00053 
2.9555827e+3, 1.6969366e+2, -1279211.1, -1258897.1, 83061.805, -0.059841577, -0.7630182, -1185373.6, 91557.17, 0.0, 10.000129, 10.000373 
2.9554918e+3, 1.796936e+2, -1180102.3, -1156203.8, 87780.86, -0.03844853, -0.7645608, -1079562.6, 99369.63, 0.0, 10.000119, 10.000409 
2.9554012e+3, 1.8969396e+2, -1061745.3, -1030502.7, 117135.8, -0.049242236, -0.7348605, -927951.1, 152976.98, 0.0, 10.000182, 10.000568 
2.9553106e+3, 1.9969444e+2, -961911.25, -947770.06, 120657.0, -0.049484644, -0.6991409, -833976.6, 148946.22, 0.0, 10.000263, 10.000426 
2.9552203e+3, 2.0969413e+2, -874726.25, -869092.56, 110795.24, -0.02875105, -0.71466994, -761078.4, 123848.23, 0.0, 10.000252, 10.000298 
2.9551297e+3, 2.1969385e+2, -785560.7, -786516.1, 107591.36, -0.015935574, -0.7268465, -678446.0, 108484.63, 0.0, 10.00024, 10.000197 
2.9550382e+3, 2.2969398e+2, -672908.56, -660984.3, 112215.62, -0.03445482, -0.6971033, -554572.56, 134357.86, 0.0, 10.000253, 10.00038 
2.954947e+3, 2.3969407e+2, -590140.1, -578928.4, 121293.15, -0.051132116, -0.67785466, -463111.63, 127818.99, 0.0, 10.000185, 10.000303 
2.9548553e+3, 2.4969396e+2, -506977.44, -458559.47, 78425.555, -0.022300739, -0.6887425, -400691.4, 92241.24, 0.0, 9.999954, 10.000569 
2.954763e+3, 2.596943e+2, -438592.2, -379625.63, 56031.082, 0.0045221457, -0.6662854, -345794.25, 49135.805, 0.0, 9.999772, 10.000525 
2.9546696e+3, 2.6969522e+2, -315617.5, -264973.0, 53057.96, -0.0010326293, -0.5843387, -231504.4, 65419.11, 0.0, 9.999914, 10.000574 
2.954576e+3, 2.7969477e+2, -246459.05, -244976.38, 39924.74, 0.0020921824, -0.614296, -205786.1, -6855.655, 0.0, 9.999988, 10.000009 
2.9544818e+3, 2.896941e+2, -192020.34, -75780.19, -103443.266, 0.13355647, -0.64198625, -15247.61, 85689.94, 0.0, 9.999301, 10.000822 
2.9659486e+3, 1.2978621e+2, -1715262.4, -1659353.0, -38411.855, -0.2983849, -0.73735934, -1639800.5, 28223.121, 0.0, 9.999768, 10.000491 
2.9658583e+3, 1.3978629e+2, -1597143.8, -1530731.9, 14929.22, 0.0032335243, -0.7381394, -1527530.1, 42492.32, 0.0, 9.999808, 10.000687 
2.965766e+3, 1.4978671e+2, -1477780.3, -1403594.5, 42992.19, -0.04174305, -0.73556185, -1383905.3, 88111.84, 0.0, 9.999877, 10.000851 
2.9656732e+3, 1.597871e+2, -1401900.9, -1349107.3, 45773.664, -0.097207256, -0.7313588, -1322664.5, 51347.73, 0.0, 9.999866, 10.000558 
2.9655826e+3, 1.6978681e+2, -1311797.1, -1282286.3, 63513.42, -0.054643378, -0.7551401, -1231836.8, 44179.188, 0.0, 9.999932, 10.000311 
2.9654917e+3, 1.7978653e+2, -1196001.6, -1159196.1, 62844.336, -0.011388324, -0.77346236, -1112115.5, 65903.91, 0.0, 9.99998, 10.000462 
2.965401e+3, 1.89787e+2, -1063988.0, -1009733.3, 92058.88, -0.019205678, -0.749288, -940888.1, 139126.19, 0.0, 10.000068, 10.000769 
2.9653105e+3, 1.9978753e+2, -976209.2, -946542.2, 88548.88, -0.033327542, -0.7247846, -871593.0, 110415.86, 0.0, 10.000127, 10.000502 
2.9652196e+3, 2.0978735e+2, -910688.8, -876212.94, 88423.32, -0.033838347, -0.73697233, -803362.94, 80648.58, 0.0, 9.999957, 10.000394 
2.965129e+3, 2.1978721e+2, -827758.56, -782345.5, 109194.97, -0.031917546, -0.7454583, -693521.2, 92492.875, 0.0, 9.999839, 10.0004225 
2.965038e+3, 2.297876e+2, -679189.9, -630475.75, 94128.305, -0.052691557, -0.72198784, -557604.2, 130406.73, 0.0, 10.000055, 10.0006895 
2.9649466e+3, 2.3978798e+2, -572451.1, -551188.3, 69857.59, -0.06993646, -0.7054052, -491157.78, 98850.04, 0.0, 10.000213, 10.000488 
2.9648548e+3, 2.4978785e+2, -508813.8, -475445.03, 38333.184, -0.015569818, -0.712776, -450322.7, 41687.52, 0.0, 9.999996, 10.0004425 
2.9647624e+3, 2.5978816e+2, -421369.88, -357558.8, 40531.51, 0.035700757, -0.6898062, -337881.72, 56127.03, 0.0, 9.999821, 10.000661 
2.9646686e+3, 2.6978943e+2, -280873.63, -209623.69, 20690.129, -0.041802593, -0.6045518, -204051.33, 91945.98, 0.0, 9.999985, 10.000923 
2.9645747e+3, 2.7978927e+2, -233944.77, -255129.67, -22033.564, -0.099357374, -0.6310528, -220089.77, -22089.646, 0.0, 10.00015, 9.9998665 
2.9644823e+3, 2.8978768e+2, -105534.94, -106167.99, -94518.27, 0.2355581, -0.68536645, -11332.657, 88685.41, 0.0, 10.000231, 10.000168 
2.975949e+3, 1.2987807e+2, -1690625.1, -1578001.4, -43098.25, -0.22462906, -0.82465535, -1563401.4, 103719.82, 0.0, 9.9996395, 10.001111 
2.9758576e+3, 1.3987911e+2, -1590583.4, -1515511.4, 18659.797, -0.0034205217, -0.7742595, -1511129.1, 57979.453, 0.0, 9.999803, 10.000793 
2.9757652e+3, 1.498796e+2, -1473673.3, -1430236.6, 39825.76, -0.057037964, -0.7479859, -1406592.3, 64511.324, 0.0, 10.00003, 10.000594 
2.9756728e+3, 1.5988053e+2, -1371571.5, -1337812.9, 44302.4, -0.09582472, -0.6757376, -1307283.3, 65811.5, 0.0, 10.00009, 10.000527 
2.9755822e+3, 1.698802e+2, -1298835.9, -1290442.1, 65800.61, -0.033000268, -0.6939629, -1228704.6, 46394.355, 0.0, 10.000083, 10.000181 
2.975492e+3, 1.7987987e+2, -1183439.4, -1151958.1, 67041.31, 0.049242057, -0.7093431, -1098834.4, 78268.86, 0.0, 10.000061, 10.000472 
2.9754013e+3, 1.8987978e+2, -1046402.1, -981783.0, 96442.09, 0.036736347, -0.75517684, -912382.25, 166721.22, 0.0, 10.000104, 10.000943 
2.9753104e+3, 1.9987947e+2, -968829.7, -932065.44, 85622.945, -0.018508516, -0.8220327, -862873.7, 118232.32, 0.0, 10.000131, 10.000599 
2.9752192e+3, 2.0988004e+2, -883385.7, -820548.25, 80217.99, -0.048611034, -0.7900841, -765815.6, 117285.57, 0.0, 9.99996, 10.000774 
2.9751283e+3, 2.1988082e+2, -812339.44, -750052.56, 112142.945, -0.057319112, -0.74369395, -664808.9, 120285.6, 0.0, 9.999837, 10.000647 
2.9750374e+3, 2.29881e+2, -685776.1, -644751.75, 104270.23, -0.070647955, -0.7400765, -558995.25, 128098.08, 0.0, 10.000056, 10.000592 
2.9749462e+3, 2.3988114e+2, -563647.56, -531203.2, 66791.53, -0.07856005, -0.7442436, -478692.03, 110400.29, 0.0, 10.000204, 10.000629 
2.974854e+3, 2.4988127e+2, -496808.88, -451212.97, 29984.02, -0.02243676, -0.7487715, -436344.1, 54747.984, 0.0, 9.999999, 10.000607 
2.9747617e+3, 2.598816e+2, -415690.34, -348459.03, 39303.652, 0.025212955, -0.73546994, -330356.3, 62733.44, 0.0, 9.999832, 10.000717 
2.9746678e+3, 2.6988256e+2, -287761.44, -225125.53, 30370.318, -0.082964614, -0.6754544, -212818.14, 82262.305, 0.0, 9.999989, 10.000815 
2.9745737e+3, 2.7988294e+2, -197053.52, -181062.23, -22031.902, -0.16122472, -0.6616275, -165619.98, 31457.61, 0.0, 10.000175, 10.0003605 
2.9744828e+3, 2.898827e+2, -83917.07, -72770.57, -75907.89, 0.29597855, -0.6412957, -2231.6113, 96849.82, 0.0, 10.000308, 10.00035 
2.985948e+3, 1.2997296e+2, -1755588.3, -1648718.3, 8805.789, -0.20594908, -0.677302, -1647997.5, 18190.883, 0.0, 9.999366, 10.000761 
2.9858556e+3, 1.3997136e+2, -1627206.9, -1549464.1, 52186.793, -0.12852441, -0.86487746, -1523262.9, 44938.09, 0.0, 9.999631, 10.00064 
2.9857647e+3, 1.4997128e+2, -1391525.1, -1431167.4, 61676.14, -0.11115635, -0.86795896, -1346563.4, 123639.55, 0.0, 10.000776, 10.000224 
2.9856735e+3, 1.5997076e+2, -1191994.3, -1270371.4, 22128.387, -0.07199975, -0.9008132, -1186178.3, 186031.4, 0.0, 10.001414, 10.000347 
2.9855826e+3, 1.6997159e+2, -1097692.0, -1144534.4, 52711.23, -0.034149088, -0.82930624, -1063432.9, 210769.27, 0.0, 10.001263, 10.00061 
2.9854912e+3, 1.7997222e+2, -1045762.56, -1069746.8, 81351.414, -0.04295614, -0.7846796, -975524.1, 200672.06, 0.0, 10.000949, 10.000604 
2.9854e+3, 1.8997212e+2, -1028471.44, -999651.5, 89114.22, -0.08372139, -0.8155419, -923789.7, 154407.27, 0.0, 10.000343, 10.000706 
2.9853094e+3, 1.9997239e+2, -987300.7, -930476.44, 80979.67, -0.08474411, -0.8145251, -873069.25, 107124.9, 0.0, 9.999954, 10.0007 
2.9852188e+3, 2.0997311e+2, -842102.9, -790485.3, 63282.5, -0.06015321, -0.7793447, -747951.06, 134236.55, 0.0, 10.000195, 10.000872 
2.985128e+3, 2.1997386e+2, -750287.9, -706664.75, 68548.164, -0.052743994, -0.74469584, -656541.7, 127639.12, 0.0, 10.0002, 10.0007715 
2.985037e+3, 2.2997415e+2, -692460.25, -620899.7, 81337.43, -0.058879964, -0.75235575, -567820.5, 118357.6, 0.0, 9.999894, 10.000835 
2.984946e+3, 2.3997436e+2, -613433.7, -546690.5, 60876.082, -0.06593074, -0.76828396, -510639.03, 77537.11, 0.0, 9.999826, 10.000705 
2.9848537e+3, 2.4997447e+2, -464806.16, -437386.44, 13044.958, -0.03709425, -0.7748757, -432171.94, 58003.926, 0.0, 10.000225, 10.000593 
2.9847613e+3, 2.599747e+2, -307319.94, -285975.63, 8224.194, -0.007926145, -0.77278286, -283174.38, 108999.945, 0.0, 10.000524, 10.000821 
2.984667e+3, 2.6997545e+2, -295642.38, -211490.23, 8205.177, -0.091026284, -0.75521964, -210697.67, 83468.14, 0.0, 9.999843, 10.000991 
2.984573e+3, 2.7997607e+2, -291452.2, -191838.16, -13590.409, -0.15802827, -0.7407089, -190017.28, 6141.4194, 0.0, 9.999372, 10.000697 
2.984483e+3, 2.8997546e+2, -15796.872, -90537.99, -70308.59, 0.32382432, -0.76546025, 26455.785, 124621.38, 0.0, 10.000929, 10.000006 
2.9959473e+3, 1.3006495e+2, -1543923.5, -1657909.5, -65503.586, -0.2041619, -0.85906416, -1514089.5, 151194.2, 0.0, 10.001287, 9.999777 
2.9958558e+3, 1.4006399e+2, -1527665.6, -1545278.4, -40430.387, -0.055524737, -0.9186353, -1495093.6, 72196.695, 0.0, 10.000485, 10.000266 
2.9957655e+3, 1.5006548e+2, -1569286.8, -1580473.9, -47002.914, -0.052407462, -0.7216693, -1527545.8, -58267.21, 0.0, 9.999801, 9.999684 
2.995674e+3, 1.6006406e+2, -1606759.5, -1504350.1, -43585.57, -0.09462746, -0.7839988, -1488311.8, -117016.24, 0.0, 9.998686, 10.000071 
2.9955834e+3, 1.7006405e+2, -1420184.5, -1213309.4, -11456.1045, -0.0064940033, -0.84737897, -1212676.9, 60617.95, 0.0, 9.998648, 10.0014105 
2.9954922e+3, 1.8006596e+2, -1338277.5, -1192953.8, -14633.771, 0.028618218, -0.74265957, -1191494.9, -16219.9, 0.0, 9.998835, 10.000791 
2.9954e+3, 1.9006515e+2, -1176902.6, -1132957.8, 29424.492, -0.040462688, -0.813155, -1118207.0, -40923.266, 0.0, 9.999565, 10.000176 
2.9953092e+3, 2.0006612e+2, -1052098.9, -959843.1, 56760.586, -0.031252176, -0.7247466, -932830.44, 46444.832, 0.0, 9.999485, 10.000731 
2.9952192e+3, 2.100658e+2, -935394.7, -858183.6, 52321.484, 0.025752533, -0.7827108, -831766.6, 49511.91, 0.0, 9.999643, 10.000675 
2.9951274e+3, 2.2006564e+2, -744485.94, -700661.5, 25587.85, -0.0749817, -0.8191325, -688885.7, 94394.16, 0.0, 10.000222, 10.000803 
2.9950362e+3, 2.3006673e+2, -686066.9, -551953.75, 20367.936, -0.09507682, -0.79227585, -548928.7, 136339.8, 0.0, 9.999651, 10.001427 
2.9949456e+3, 2.4006735e+2, -599590.9, -536394.0, 43098.355, -0.05585295, -0.8044821, -514551.56, 72710.04, 0.0, 9.999906, 10.000735 
2.9948533e+3, 2.5006753e+2, -465774.2, -455436.13, 29430.873, -0.06386158, -0.79506874, -430723.78, 58537.582, 0.0, 10.000297, 10.00043 
2.994761e+3, 2.6006758e+2, -291281.7, -263045.44, 1783.1536, -0.061074357, -0.80053514, -262933.28, 128328.32, 0.0, 10.00056, 10.000965 
2.994667e+3, 2.7006808e+2, -262954.97, -150652.63, -20017.475, -0.06576824, -0.8446183, -147191.28, 146061.86, 0.0, 9.999858, 10.0014105 
2.9945725e+3, 2.8006852e+2, -301609.03, -179049.72, 4806.27, -0.10086517, -0.88921833, -178861.52, 16383.575, 0.0, 9.99927, 10.000811 
2.9944828e+3, 2.9006678e+2, -71730.63, -161818.61, 21904.375, 0.2860182, -1.0095881, -66687.07, 30575.734, 0.0, 10.000802, 9.999547 
