coord_x,coord_y,stress_xx,stress_yy,tau_xy,velocity_x,velocity_y,stress_1,eps,damage,lx,ly
5.0002325e+0, 1.2481308e+2, -1657266.4, -1633649.8, -2186.1199, 0.014941886, 0.34239286, -1633449.0, 83413.81, 0.0013801174, 10.000157, 10.000478 
5.00022e+0, 1.3481063e+2, -1633378.9, -1736136.3, 4299.0815, 0.0035803616, 0.19689028, -1633199.3, -14313.219, 0.0008364695, 10.000361, 9.9990015 
5.000218e+0, 1.4481147e+2, -1466252.0, -1523607.6, 2442.6348, -0.002861049, 0.342378, -1466148.1, 54729.094, 0.00038681776, 10.000487, 9.999722 
5.000237e+0, 1.5481055e+2, -1369891.5, -1437374.3, -4618.1084, -0.0027336567, 0.27802816, -1369576.9, 53308.996, 0.00011816065, 10.0005245, 9.999622 
5.0002825e+0, 1.6481008e+2, -1274313.4, -1347477.6, -10307.294, 0.0012395204, 0.27331403, -1272889.0, 52000.51, 0.000016018055, 10.000537, 9.999563 
5.000359e+0, 1.748097e+2, -1177639.4, -1250848.1, -16038.518, 0.009101283, 0.27192536, -1174279.9, 52612.004, 0.00000013955699, 10.000532, 9.999556 
5.000324e+0, 1.8480906e+2, -1098956.5, -1201460.6, -12282.865, 0.0037779915, 0.27049214, -1097505.3, 31392.084, 0.0, 10.000569, 9.999207 
5.0001746e+0, 1.9480829e+2, -991891.44, -1103155.4, -3419.641, -0.01512353, 0.26910156, -991786.44, 39118.176, 0.0, 10.000649, 9.999169 
5.0001776e+0, 2.0480733e+2, -884592.75, -983728.2, -6687.173, -0.014396951, 0.25009778, -884143.7, 48769.293, 0.0, 10.000641, 9.999319 
5.000339e+0, 2.1480612e+2, -803055.3, -895584.56, -18843.795, 0.0070215943, 0.19100228, -799364.94, 35557.895, 0.0, 10.000536, 9.999302 
5.0003684e+0, 2.2480528e+2, -720966.56, -828685.75, -11555.538, 0.010361423, 0.18861306, -719740.9, 17189.297, 0.0, 10.000527, 9.999092 
5.00025e+0, 2.3480485e+2, -610548.5, -726489.8, 5636.979, -0.006096558, 0.22889476, -610275.06, 28659.744, 0.0, 10.00062, 9.999076 
5.000191e+0, 2.4480419e+2, -492463.97, -597708.6, 6945.4614, -0.014402096, 0.24596299, -492007.6, 48934.125, 0.0, 10.000668, 9.999267 
5.000199e+0, 2.5480327e+2, -395825.1, -503521.63, -7303.6504, -0.013824765, 0.22290225, -395332.03, 47618.902, 0.0, 10.000671, 9.999238 
5.000215e+0, 2.6480246e+2, -325948.03, -432531.8, -13262.658, -0.005451144, 0.22476651, -324322.5, 20636.979, 0.0, 10.000536, 9.999117 
5.000238e+0, 2.7480182e+2, -271141.88, -356260.78, -2926.7192, 0.0114875175, 0.24178529, -271041.34, -24074.975, 0.0, 10.000243, 9.999108 
5.000206e+0, 2.8480116e+2, -184502.0, -271260.3, 8628.063, 0.010608487, 0.2691161, -183652.27, -34679.17, 0.000000004221918, 10.000197, 9.999041 
5.0001156e+0, 2.948003e+2, -49889.02, -150974.69, 338.05005, -0.010013036, 0.27460092, -49887.887, 1093.325, 0.0000065845143, 10.000429, 9.999083 
5.0000817e+0, 3.0479828e+2, -70616.26, -239851.95, -17622.158, -0.011852039, 0.20644765, -68800.78, -68800.78, 0.00007542163, 10.000398, 9.998157 
5.00011e+0, 3.147965e+2, 80963.664, 152352.53, -26252.965, 0.007623871, 0.21512009, 160967.36, 160967.36, 0.00027006015, 10.000061, 10.001014 
1.5000689e+1, 1.2481326e+2, -1646311.8, -1608609.0, 2337.446, 0.04403442, 0.37572688, -1608464.6, 108398.27, 0.00135349, 10.000149, 10.000655 
1.500066e+1, 1.3481116e+2, -1621356.3, -1709911.4, 12185.931, 0.01079663, 0.24853276, -1619710.0, -828.0265, 0.0008181531, 10.000358, 9.999185 
1.5000655e+1, 1.4481199e+2, -1477907.4, -1545920.6, 3140.738, -0.008560156, 0.3905276, -1477762.6, 43110.598, 0.00037595516, 10.000481, 9.999572 
1.500071e+1, 1.548108e+2, -1381971.0, -1460882.6, -2946.6948, -0.008148769, 0.31837428, -1381861.1, 41023.82, 0.00011312574, 10.000519, 9.999464 
1.500085e+1, 1.6481003e+2, -1283956.5, -1366217.0, -11386.012, 0.0037995246, 0.29580468, -1282409.6, 42482.43, 0.000014709239, 10.000532, 9.999437 
1.5001076e+1, 1.7480928e+2, -1187776.5, -1270957.1, -16020.881, 0.027361456, 0.27284682, -1184797.5, 42100.652, 0.00000010097208, 10.000528, 9.99942 
1.5000972e+1, 1.8480869e+2, -1082759.5, -1166157.5, -9705.721, 0.0113107795, 0.27014744, -1081644.9, 47257.875, 0.0, 10.000563, 9.999452 
1.5000525e+1, 1.9480838e+2, -974385.75, -1065870.4, 176.87906, -0.045307282, 0.29132876, -974385.4, 56518.906, 0.0, 10.000646, 9.999428 
1.500053e+1, 2.0480765e+2, -905515.7, -1025583.1, -11143.032, -0.043294717, 0.29507428, -904490.3, 28420.635, 0.0, 10.000634, 9.999036 
1.5001018e+1, 2.148064e+2, -824821.5, -939646.2, -22081.379, 0.021290205, 0.2623204, -820721.5, 14201.92, 0.0, 10.000531, 9.999002 
1.5001102e+1, 2.2480541e+2, -688668.94, -759862.2, -8841.069, 0.030862512, 0.23787856, -687587.44, 49344.246, 0.0, 10.000521, 9.999568 
1.5000752e+1, 2.3480481e+2, -577850.06, -657725.75, 9784.135, -0.018148186, 0.21336946, -576669.06, 62265.684, 0.0, 10.000617, 9.999551 
1.500057e+1, 2.4480413e+2, -517576.47, -648692.25, 6430.9814, -0.0434581, 0.2225802, -517261.78, 23679.404, 0.0, 10.000663, 9.998919 
1.5000595e+1, 2.548034e+2, -420705.2, -554028.7, -6645.793, -0.041560825, 0.2515584, -420374.75, 22576.62, 0.0, 10.000667, 9.998894 
1.5000644e+1, 2.6480258e+2, -305750.72, -389242.5, -24511.238, -0.01635677, 0.25727296, -299086.72, 45873.28, 0.0, 10.000531, 9.999417 
1.500071e+1, 2.7480182e+2, -252168.13, -315441.1, -13521.044, 0.034257915, 0.23444399, -249399.88, -2433.8542, 0.0, 10.000238, 9.999392 
1.5000618e+1, 2.84801e+2, -199356.55, -300796.25, 16158.193, 0.032055557, 0.24316044, -196844.92, -47871.285, 0.0000000059189293, 10.000193, 9.99884 
1.5000343e+1, 2.9480007e+2, -64165.426, -179121.17, 10067.909, -0.03048069, 0.2616084, -63290.332, -12306.698, 0.0000065077284, 10.000423, 9.998892 
1.5000248e+1, 3.0479807e+2, -88375.82, -275135.56, -30272.076, -0.0350701, 0.21748343, -83591.55, -83591.55, 0.000074265045, 10.000393, 9.997918 
1.5000322e+1, 3.1479642e+2, 62284.695, 116262.47, -33586.383, 0.022039443, 0.26508844, 132360.06, 132360.06, 0.00026651216, 10.000052, 10.000771 
2.500106e+1, 1.2481319e+2, -1604021.0, -1590451.1, 12428.506, 0.051147353, 0.37528157, -1583076.3, 133787.23, 0.0013145427, 10.000453, 10.000633 
2.5001022e+1, 1.3481127e+2, -1621414.9, -1714649.9, 5386.271, 0.009891028, 0.2693139, -1621104.6, -2223.29, 0.0007913486, 10.00038, 9.999143 
2.5001067e+1, 1.4481206e+2, -1497001.5, -1557633.1, -6105.511, -0.0091738375, 0.41180015, -1496392.8, 24480.521, 0.00036019128, 10.00036, 9.999551 
2.5001296e+1, 1.5481077e+2, -1399366.1, -1471653.3, -2411.403, 0.0039760466, 0.3299003, -1399285.8, 23600.37, 0.00010584406, 10.000409, 9.999444 
2.5001448e+1, 1.6480999e+2, -1286099.5, -1369834.5, 1873.3881, 0.010319462, 0.30807936, -1286057.6, 38835.85, 0.000012859098, 10.000529, 9.999414 
2.5001526e+1, 1.7480932e+2, -1159933.1, -1260432.3, 4390.0454, 0.009087245, 0.2972961, -1159741.8, 67156.92, 0.00000006033416, 10.000733, 9.999394 
2.5001466e+1, 1.8480866e+2, -1054063.4, -1148069.0, 2885.9177, -0.0043084123, 0.2871068, -1053974.9, 74928.92, 0.0, 10.000741, 9.99949 
2.500127e+1, 1.9480814e+2, -986612.3, -1066934.8, -4048.3655, -0.030319612, 0.2806309, -986408.8, 44498.277, 0.0, 10.000542, 9.999471 
2.5001264e+1, 2.0480748e+2, -924374.2, -1027926.9, -7966.8086, -0.025349524, 0.28794318, -923764.9, 9147.91, 0.0, 10.000476, 9.999097 
2.5001463e+1, 2.1480665e+2, -817984.94, -929250.6, 7371.4307, 0.011835292, 0.29091, -817498.7, 17422.822, 0.0, 10.000548, 9.999066 
2.5001502e+1, 2.248057e+2, -679685.3, -756417.25, 20725.771, 0.015720034, 0.2664698, -674445.0, 62484.414, 0.0, 10.000586, 9.999561 
2.5001377e+1, 2.3480472e+2, -583084.3, -661112.56, 1607.4739, -0.015793435, 0.20589119, -583051.2, 55884.484, 0.0, 10.000586, 9.999542 
2.500122e+1, 2.4480398e+2, -544453.8, -658366.9, -11031.074, -0.034865387, 0.20961674, -543395.44, -2452.9524, 0.0, 10.0004635, 9.998949 
2.5001043e+1, 2.5480354e+2, -485958.25, -581135.4, 4792.398, -0.040214784, 0.2632139, -485717.56, -42767.492, 0.0, 10.0002, 9.998933 
2.500095e+1, 2.6480272e+2, -355076.22, -423535.8, -5658.379, -0.024061054, 0.27270254, -354611.7, -9652.93, 0.0, 10.000238, 9.999323 
2.5000963e+1, 2.748017e+2, -203408.92, -303653.0, -24879.41, 0.016397135, 0.23080112, -197573.8, 49394.01, 0.0, 10.000624, 9.999288 
2.5000903e+1, 2.848008e+2, -139453.05, -272802.16, -7250.342, 0.020572139, 0.23839498, -139059.98, 9916.224, 0.0000000086392555, 10.000608, 9.998833 
2.5000724e+1, 2.9480007e+2, -108598.94, -201350.28, 514.1973, -0.01942358, 0.27510875, -108596.086, -57611.62, 0.0000063841276, 10.000121, 9.998885 
2.5000638e+1, 3.0479804e+2, -134215.05, -304483.5, -16045.06, -0.02098508, 0.23316273, -132716.25, -132716.25, 0.00007245626, 10.000111, 9.997852 
2.500063e+1, 3.1479636e+2, 144039.97, 146885.4, -3367.1953, 0.017545361, 0.28277147, 149118.11, 149118.11, 0.0002610093, 10.000655, 10.00069 
3.5001355e+1, 1.2481287e+2, -1620300.9, -1622932.9, 5556.7085, 0.032560907, 0.33686984, -1615906.5, 100958.4, 0.0012623775, 10.000448, 10.000412 
3.500129e+1, 1.3481094e+2, -1639659.1, -1752388.8, 3448.8464, -0.0019857853, 0.25814044, -1639553.8, -20669.184, 0.000755357, 10.0003805, 9.998884 
3.500145e+1, 1.4481172e+2, -1488330.4, -1539717.9, -5596.935, -0.008301187, 0.40532357, -1487727.8, 33149.43, 0.00033918672, 10.00036, 9.999675 
3.5001996e+1, 1.5481046e+2, -1390926.4, -1453528.6, -330.86197, 0.03162397, 0.3146545, -1390924.6, 31964.438, 0.00009620481, 10.000407, 9.99957 
3.5002068e+1, 1.6480994e+2, -1280909.4, -1357568.8, 8956.002, 0.018410657, 0.30983764, -1279877.0, 45016.52, 0.000010539653, 10.000524, 9.999501 
3.5001695e+1, 1.7480983e+2, -1154269.8, -1247783.6, 12696.228, -0.047993638, 0.34468964, -1152576.8, 74316.92, 0.000000028001644, 10.00073, 9.999483 
3.5001805e+1, 1.8480898e+2, -1065753.1, -1171305.0, -4928.7407, -0.04575501, 0.3203945, -1065523.5, 63377.06, 0.0, 10.000737, 9.999333 
3.5002404e+1, 1.9480753e+2, -999090.75, -1091943.1, -11020.104, 0.02846073, 0.2376215, -997800.75, 33112.168, 0.0, 10.000538, 9.999301 
3.5002372e+1, 2.0480682e+2, -896485.75, -967869.44, -5808.3047, 0.037223555, 0.22807585, -896016.25, 36902.234, 0.0, 10.000468, 9.999513 
3.5001668e+1, 2.1480687e+2, -788710.6, -867453.0, 10778.942, -0.023209672, 0.27680027, -787261.75, 47655.336, 0.0, 10.000544, 9.999493 
3.500156e+1, 2.2480612e+2, -713438.0, -825060.25, 20228.133, -0.037703995, 0.27253336, -709885.3, 27038.258, 0.0, 10.00058, 9.999094 
3.500212e+1, 2.3480459e+2, -617589.75, -732427.2, 2356.1184, -0.00037346833, 0.20637198, -617541.44, 21396.307, 0.0, 10.000584, 9.999055 
3.5002127e+1, 2.4480377e+2, -515725.4, -596875.56, -21179.781, 0.009324738, 0.2054053, -510530.2, 30415.527, 0.0, 10.000457, 9.999373 
3.5001534e+1, 2.5480375e+2, -456873.5, -519087.0, -4756.6646, -0.011891886, 0.2588204, -456511.94, -13564.911, 0.0, 10.000194, 9.999361 
3.5001123e+1, 2.6480296e+2, -389173.63, -493400.25, 7698.5005, -0.031257264, 0.27017874, -388608.06, -43652.258, 0.0, 10.000235, 9.998845 
3.5000983e+1, 2.7480146e+2, -237695.56, -373461.72, -9507.246, -0.044757556, 0.23202334, -237033.05, 9938.643, 0.0, 10.000618, 9.998811 
3.500105e+1, 2.8480056e+2, -126696.49, -244846.88, -25140.031, -0.025759108, 0.25371242, -121569.664, 27411.172, 0.000000011844628, 10.000603, 9.999027 
3.5001248e+1, 2.9480025e+2, -96157.05, -173268.84, -17362.047, 0.020074569, 0.31562197, -92428.22, -41444.465, 0.0000061783935, 10.000114, 9.999081 
3.500125e+1, 3.047982e+2, -127067.62, -288661.78, 2487.3726, 0.028827107, 0.25285032, -127029.34, -127029.34, 0.00006980898, 10.000107, 9.997963 
3.5001022e+1, 3.147963e+2, 150138.67, 160666.02, 22545.0, -0.010896386, 0.27163252, 178553.66, 178553.66, 0.00025310565, 10.000652, 10.000787 
4.5001617e+1, 1.2481253e+2, -1645188.8, -1641857.3, -14500.23, 0.022006746, 0.324748, -1628927.4, 87940.234, 0.0011988538, 10.000305, 10.000355 
4.5001832e+1, 1.3481054e+2, -1634301.5, -1760916.5, -4244.5293, 0.0100181075, 0.24889511, -1634159.4, -15270.829, 0.0007112032, 10.000465, 9.998785 
4.5002076e+1, 1.4481121e+2, -1453198.9, -1516316.4, -7029.9976, 0.007538581, 0.39039138, -1452425.4, 68456.7, 0.00031351, 10.000574, 9.999733 
4.500251e+1, 1.5481003e+2, -1351245.6, -1428106.5, -8732.773, 0.030477177, 0.3002189, -1350265.9, 72626.94, 0.000084590996, 10.000652, 9.999628 
4.500258e+1, 1.6480963e+2, -1265833.9, -1345077.8, -3619.343, 0.013302219, 0.30177736, -1265668.9, 59227.14, 0.000007991499, 10.000606, 9.999548 
4.500232e+1, 1.7480971e+2, -1194565.0, -1261362.3, -3341.947, -0.0435055, 0.35030037, -1194398.1, 32496.604, 0.000000008983813, 10.000429, 9.999535 
4.5002392e+1, 1.8480888e+2, -1122909.5, -1199513.4, -19652.424, -0.040705502, 0.32580382, -1118162.0, 10739.715, 0.0, 10.000348, 9.999328 
4.5002797e+1, 1.9480726e+2, -1023152.75, -1104431.9, -14776.796, 0.022148116, 0.22771327, -1020549.6, 10366.018, 0.0, 10.000377, 9.999293 
4.500275e+1, 2.0480655e+2, -899861.4, -959348.1, -8920.586, 0.03209758, 0.2129641, -898552.44, 34368.555, 0.0, 10.000401, 9.999604 
4.500224e+1, 2.1480677e+2, -801743.8, -862537.9, -18203.467, -0.013345553, 0.26861247, -796709.94, 38207.348, 0.0, 10.000407, 9.999592 
4.5002136e+1, 2.2480604e+2, -753666.9, -855050.25, -10123.684, -0.026336132, 0.26709935, -752665.9, -15742.229, 0.0, 10.000349, 9.999 
4.5002496e+1, 2.3480438e+2, -676925.56, -771230.25, 727.4246, -0.0029508965, 0.19808641, -676919.94, -37979.98, 0.0, 10.00022, 9.998963 
4.5002475e+1, 2.448036e+2, -531474.4, -596114.44, -15614.132, 0.0058516352, 0.1999647, -527900.3, 13047.759, 0.0, 10.000313, 9.999449 
4.500204e+1, 2.5480372e+2, -385591.1, -476174.75, -27119.004, -0.0029159472, 0.2622944, -378092.88, 64854.418, 0.0, 10.000647, 9.999438 
4.500163e+1, 2.6480302e+2, -328294.38, -468931.6, -10815.322, -0.025612779, 0.27976334, -327467.5, 17487.738, 0.0, 10.000673, 9.998803 
4.5001325e+1, 2.748015e+2, -279388.56, -398039.63, 5205.462, -0.058737602, 0.24250099, -279160.66, -32188.904, 0.0, 10.00035, 9.998772 
4.5001367e+1, 2.8480056e+2, -172550.2, -270480.34, -5867.9517, -0.03956081, 0.26391205, -172199.86, -23218.508, 0.000000014278152, 10.000304, 9.998996 
4.500167e+1, 2.948002e+2, -28814.617, -145837.02, -17085.217, 0.027327824, 0.3232434, -26371.203, 24613.576, 0.0000058442592, 10.000598, 9.999038 
4.5001715e+1, 3.0479798e+2, -55469.973, -257243.27, -2084.0269, 0.039970502, 0.24933101, -55448.45, -55448.45, 0.00006621042, 10.000612, 9.997936 
4.5001465e+1, 3.1479624e+2, 88503.12, 123758.5, 9220.304, -0.011211692, 0.2853724, 126024.266, 126024.266, 0.0002425997, 10.000256, 10.000727 
5.500181e+1, 1.2481218e+2, -1636042.8, -1624350.0, -10566.54, 0.008422054, 0.3407982, -1618120.3, 98751.37, 0.0011275938, 10.000312, 10.000472 
5.500265e+1, 1.3481006e+2, -1628921.8, -1749836.3, 1496.7804, 0.04420974, 0.24550869, -1628903.3, -10010.019, 0.00066134764, 10.000465, 9.998862 
5.500294e+1, 1.4481057e+2, -1453794.0, -1516399.5, -4301.691, 0.035497278, 0.36673933, -1453499.8, 67387.99, 0.00028458898, 10.000569, 9.999735 
5.5002815e+1, 1.5480946e+2, -1351810.6, -1429358.9, -4921.4976, -0.005345791, 0.28522864, -1351499.6, 71397.734, 0.00007188515, 10.000653, 9.9996195 
5.500295e+1, 1.6480902e+2, -1264680.1, -1342705.8, -10773.136, -0.0110504385, 0.2831307, -1263219.9, 61681.1, 0.0000055425044, 10.000606, 9.999564 
5.500339e+1, 1.7480896e+2, -1193948.6, -1259170.8, -9834.311, 0.020700453, 0.315288, -1192498.1, 34403.98, 0.00000000116644, 10.000425, 9.999552 
5.500323e+1, 1.8480834e+2, -1113567.6, -1178205.3, -19074.232, 0.007324269, 0.30371904, -1108358.8, 20548.564, 0.0, 10.00034, 9.999477 
5.500243e+1, 1.948073e+2, -1012855.1, -1082229.9, -13123.421, -0.053036038, 0.25002438, -1010455.6, 20459.816, 0.0, 10.000374, 9.999447 
5.500239e+1, 2.0480664e+2, -915322.8, -990675.4, -8869.597, -0.044425376, 0.241191, -914292.9, 18627.572, 0.0, 10.000397, 9.999392 
5.500317e+1, 2.148063e+2, -818389.06, -896144.44, -17261.416, 0.038720056, 0.26583695, -814729.3, 20192.883, 0.0, 10.000402, 9.999365 
5.500322e+1, 2.2480546e+2, -734475.9, -812970.06, -15293.197, 0.046563834, 0.24920705, -731601.5, 5328.0654, 0.0, 10.00034, 9.999292 
5.5002487e+1, 2.3480411e+2, -656266.06, -727752.0, -3594.3088, -0.026559625, 0.1816414, -656085.8, -17143.436, 0.0, 10.000218, 9.999264 
5.500225e+1, 2.4480344e+2, -549910.9, -633971.56, -3802.8625, -0.049194604, 0.19185622, -549739.2, -8789.516, 0.0, 10.000311, 9.99919 
5.500256e+1, 2.5480348e+2, -405352.28, -516354.53, -13898.166, -0.016556567, 0.27347094, -403638.6, 39312.33, 0.0, 10.000642, 9.999166 
5.500247e+1, 2.648029e+2, -300612.22, -410241.34, -22679.736, -0.009936157, 0.3000578, -296105.56, 48851.625, 0.0, 10.000669, 9.9992075 
5.5001974e+1, 2.748018e+2, -251395.27, -338450.84, -6825.79, -0.029606666, 0.26297733, -250863.33, -3895.4363, 0.0, 10.000346, 9.999183 
5.5001813e+1, 2.848008e+2, -191124.45, -309256.5, 3916.27, -0.025716478, 0.2693063, -190994.77, -42017.055, 0.000000014996283, 10.000304, 9.99873 
5.500199e+1, 2.947999e+2, -47951.664, -184801.3, -4738.639, -0.0017620118, 0.30021185, -47787.777, 3199.5862, 0.0000053587105, 10.000594, 9.998772 
5.500202e+1, 3.0479738e+2, -67168.375, -280839.72, -14992.159, 0.008461351, 0.22155625, -66121.586, -66121.586, 0.000061679886, 10.00061, 9.997776 
5.500193e+1, 3.1479612e+2, 73714.14, 94245.78, 1215.3049, 0.007934177, 0.32010934, 94317.47, 94317.47, 0.00022953504, 10.000252, 10.000525 
6.5002394e+1, 1.248118e+2, -1583075.4, -1601545.5, -6058.1206, 0.01729879, 0.3536994, -1581265.6, 135610.5, 0.001052614, 10.0006895, 10.000444 
6.500329e+1, 1.3480967e+2, -1595096.3, -1740144.5, -5244.4326, 0.048947547, 0.26375732, -1594906.9, 23991.037, 0.00060904585, 10.000728, 9.998801 
6.5003526e+1, 1.4481011e+2, -1445686.1, -1501862.8, -19497.041, 0.036679637, 0.37312642, -1439582.5, 81310.82, 0.000254567, 10.000581, 9.999829 
6.5003264e+1, 1.5480912e+2, -1403322.1, -1443181.1, -12988.911, -0.0052640005, 0.29575714, -1399463.0, 23438.129, 0.00005931439, 10.000254, 9.999717 
6.500335e+1, 1.6480868e+2, -1334630.0, -1374939.5, -10883.076, -0.0070841038, 0.287005, -1331879.5, -6974.579, 0.0000034805446, 10.000119, 9.9995775 
6.500381e+1, 1.7480843e+2, -1224922.6, -1272998.0, -10875.282, 0.03115585, 0.30049607, -1222577.0, 4330.662, 0.00000000000024211628, 10.000208, 9.999562 
6.500367e+1, 1.8480796e+2, -1104886.1, -1166166.4, -15407.893, 0.016182998, 0.29845917, -1101230.3, 27681.508, 0.0, 10.000368, 9.999546 
6.5002906e+1, 1.948074e+2, -974448.8, -1055339.9, -16061.66, -0.05345651, 0.28346735, -971376.3, 59539.25, 0.0, 10.000603, 9.999521 
6.5002877e+1, 2.0480669e+2, -886175.4, -982429.4, -16747.541, -0.046986528, 0.2723521, -883344.7, 49575.992, 0.0, 10.000624, 9.999338 
6.500359e+1, 2.1480584e+2, -819196.75, -902401.56, -12952.038, 0.040059928, 0.25134686, -817227.2, 17699.953, 0.0, 10.000423, 9.9993105 
6.500358e+1, 2.2480501e+2, -733117.0, -805536.2, -10454.752, 0.049235586, 0.23493327, -731637.94, 5296.635, 0.0, 10.00032, 9.999352 
6.5002763e+1, 2.348042e+2, -637921.4, -711320.25, -17151.04, -0.0251639, 0.21490699, -634111.5, 4830.923, 0.0, 10.000312, 9.9993305 
6.500257e+1, 2.4480355e+2, -553520.0, -642704.5, -9169.917, -0.0478006, 0.22722222, -552586.9, -11637.441, 0.0, 10.000316, 9.999129 
6.5003073e+1, 2.5480306e+2, -454175.75, -546374.7, -3552.6396, -0.013588868, 0.26175952, -454039.06, -11083.621, 0.0, 10.000335, 9.999107 
6.5003085e+1, 2.648024e+2, -330564.53, -408690.0, -23155.021, -0.0011881585, 0.27389726, -324217.47, 20744.826, 0.0, 10.000395, 9.99935 
6.5002596e+1, 2.748016e+2, -217060.45, -306044.53, -28603.25, -0.010107061, 0.2565918, -208659.31, 38309.9, 0.0, 10.000514, 9.999324 
6.5002424e+1, 2.8480074e+2, -160933.27, -316662.56, -14664.161, -0.009928469, 0.27820364, -159564.45, -10586.338, 0.000000013847158, 10.000607, 9.998533 
6.500255e+1, 2.9479975e+2, -54054.145, -209467.38, -18311.375, -0.007382823, 0.31946594, -51925.777, -936.0024, 0.0000047556837, 10.000646, 9.998578 
6.5002495e+1, 3.0479693e+2, -79676.195, -291462.16, -36720.19, -0.0017474769, 0.22209245, -73490.2, -73490.2, 0.000056396846, 10.000545, 9.997734 
6.5002286e+1, 3.1479564e+2, 75978.016, 82920.56, -10433.1045, 0.015643165, 0.3247324, 90444.71, 90444.71, 0.00021421611, 10.000322, 10.000413 
7.500336e+1, 1.2481137e+2, -1594884.8, -1626713.1, -7623.567, 0.043226093, 0.35864422, -1593153.0, 123728.33, 0.0009783517, 10.000691, 10.00027 
7.5003695e+1, 1.3480936e+2, -1608410.1, -1769614.5, -3164.4905, 0.01518009, 0.3001717, -1608348.0, 10554.876, 0.00055803865, 10.000734, 9.998595 
7.500378e+1, 1.4480974e+2, -1431901.0, -1473896.9, -32042.273, 0.0020992332, 0.40732735, -1414589.5, 106309.63, 0.00022607559, 10.000584, 10.00002 
7.5003886e+1, 1.5480898e+2, -1389272.4, -1413715.4, -25044.54, 0.030202016, 0.33315238, -1373626.5, 49277.918, 0.000048170983, 10.000252, 9.99992 
7.500379e+1, 1.6480856e+2, -1333997.6, -1372270.1, -8137.7837, 0.023792502, 0.31400684, -1332339.3, -7431.673, 0.0000019773436, 10.000114, 9.999598 
7.500354e+1, 1.748081e+2, -1224159.9, -1271402.6, -6797.9463, -0.017498784, 0.3052729, -1223201.1, 3710.516, 0.0, 10.000209, 9.999573 
7.5003684e+1, 1.8480767e+2, -1105539.8, -1167388.0, -6740.5063, -0.020126555, 0.30891344, -1104813.6, 24101.428, 0.0, 10.000367, 9.999537 
7.5004244e+1, 1.9480747e+2, -975590.44, -1056702.1, -6889.705, 0.018962506, 0.32874972, -975009.4, 55906.668, 0.0, 10.000598, 9.999514 
7.5004196e+1, 2.0480672e+2, -878986.7, -965957.8, -24267.77, 0.022303922, 0.3066349, -872673.5, 60248.12, 0.0, 10.000617, 9.999454 
7.500349e+1, 2.148054e+2, -811576.8, -885692.3, -19882.018, -0.013309825, 0.22543265, -806580.2, 28352.006, 0.0, 10.000421, 9.999427 
7.500319e+1, 2.2480467e+2, -744479.06, -828720.75, -11134.804, -0.022393186, 0.22355688, -743032.2, -6093.564, 0.0, 10.000319, 9.999195 
7.500332e+1, 2.3480465e+2, -649948.0, -735849.0, -17002.734, -0.0011205544, 0.29733318, -646705.0, -7764.8506, 0.0, 10.000309, 9.999165 
7.500345e+1, 2.4480392e+2, -544154.1, -621929.2, -8819.672, 0.007724608, 0.30440933, -543166.5, -2218.9626, 0.0, 10.000311, 9.999273 
7.500357e+1, 2.5480247e+2, -444024.53, -524551.1, -2703.147, 0.0017405188, 0.22818156, -443933.88, -973.0639, 0.0, 10.000332, 9.999258 
7.5003463e+1, 2.6480144e+2, -338547.5, -425190.6, -19437.3, -0.003344112, 0.20199434, -334386.78, 10583.727, 0.0, 10.000395, 9.999237 
7.5003195e+1, 2.7480093e+2, -226590.8, -324897.13, -23280.754, -0.0024324595, 0.22321206, -221356.22, 25619.525, 0.0, 10.000509, 9.999197 
7.500319e+1, 2.8480038e+2, -170090.33, -334903.97, -13549.016, 0.0046789795, 0.28965023, -168983.92, -20001.242, 0.000000011324871, 10.000605, 9.998409 
7.5003344e+1, 2.9479975e+2, -62526.137, -226429.83, -16597.467, 0.006068326, 0.3801424, -60862.31, -9870.276, 0.000004098041, 10.000645, 9.998462 
7.500309e+1, 3.0479664e+2, -74623.234, -281234.7, -45620.29, 0.0030702895, 0.25202316, -64998.523, -64998.523, 0.000050636394, 10.0005455, 9.997803 
7.5002515e+1, 3.147949e+2, 74397.54, 80661.68, -14009.557, 0.004501575, 0.30239785, 91885.01, 91885.01, 0.00019719645, 10.000318, 10.000398 
8.500399e+1, 1.24811105e+2, -1599411.0, -1613806.4, 7130.607, 0.041513607, 0.3533611, -1596477.0, 120407.555, 0.00090933184, 10.000594, 10.000406 
8.5004187e+1, 1.3480932e+2, -1650532.9, -1778361.3, 35270.117, 0.008725109, 0.3079218, -1641447.0, -22543.813, 0.0005120121, 10.000395, 9.998699 
8.500423e+1, 1.4480965e+2, -1473708.4, -1505767.9, 8393.9795, 0.0010702108, 0.40929285, -1471643.5, 49256.508, 0.00020159004, 10.000347, 9.999915 
8.500441e+1, 1.5480894e+2, -1361654.9, -1413101.0, -9236.041, 0.046007004, 0.3501816, -1360047.0, 62859.125, 0.000039447743, 10.000498, 9.999805 
8.5004264e+1, 1.6480851e+2, -1261174.6, -1327728.3, 3650.813, 0.037023924, 0.33479202, -1260975.0, 63934.11, 0.0000010481418, 10.000575, 9.999681 
8.500385e+1, 1.7480808e+2, -1164980.8, -1232932.8, 9626.211, -0.02520464, 0.31950888, -1163643.5, 63268.652, 0.0, 10.000572, 9.9996605 
8.500402e+1, 1.8480761e+2, -1096957.9, -1162373.1, 11087.385, -0.025463413, 0.31232718, -1095129.8, 33785.71, 0.0, 10.0004225, 9.999546 
8.500478e+1, 1.9480723e+2, -1044040.0, -1088463.9, 11800.7295, 0.037460037, 0.31690627, -1041099.8, -10182.223, 0.0, 10.000124, 9.999524 
8.500476e+1, 2.0480646e+2, -948609.44, -1002676.5, -5070.237, 0.040379383, 0.29274833, -948138.06, -15214.395, 0.0, 10.000153, 9.999426 
8.50039e+1, 2.1480523e+2, -797999.7, -882648.9, -12555.063, -0.020136215, 0.2241248, -796176.75, 38757.37, 0.0, 10.000527, 9.999396 
8.50036e+1, 2.248046e+2, -694524.4, -804925.8, -8435.8, -0.030027026, 0.23129097, -693883.5, 43056.664, 0.0, 10.000663, 9.999192 
8.5003924e+1, 2.3480463e+2, -614999.1, -718495.56, -3092.1338, 0.01597369, 0.31188732, -614906.8, 24033.975, 0.0, 10.000548, 9.999167 
8.500399e+1, 2.4480389e+2, -528218.4, -611292.7, 7723.9546, 0.02607822, 0.31627363, -527506.3, 13441.678, 0.0, 10.000406, 9.9993 
8.500378e+1, 2.5480235e+2, -456072.72, -527577.8, 4048.0317, -0.005003502, 0.22806124, -455844.28, -12882.404, 0.0, 10.000237, 9.999284 
8.500371e+1, 2.6480123e+2, -371154.34, -454017.8, -9632.937, -0.009647558, 0.19615863, -370049.25, -25076.514, 0.0, 10.000226, 9.999121 
8.5003877e+1, 2.748006e+2, -253056.34, -350367.84, -14174.815, 0.021297038, 0.21861579, -251033.63, -4054.0313, 0.0, 10.000381, 9.9990835 
8.500402e+1, 2.8480014e+2, -179758.47, -330296.63, 2583.2144, 0.033524185, 0.29380736, -179714.16, -30728.188, 0.000000007967864, 10.000496, 9.998494 
8.500399e+1, 2.9479977e+2, -66167.55, -218331.67, 14058.656, 0.0104631055, 0.40320873, -64879.55, -13887.166, 0.0000034232567, 10.000577, 9.998551 
8.500358e+1, 3.0479658e+2, -47377.8, -247091.03, -8069.8677, -0.0068719075, 0.25319594, -47052.25, -47052.25, 0.00004462947, 10.000641, 9.997992 
8.500293e+1, 3.1479496e+2, 126644.27, 112982.766, 34094.707, -0.0024857027, 0.29808798, 154585.75, 154585.75, 0.00017905688, 10.000645, 10.0004635 
9.5004195e+1, 1.2481098e+2, -1568292.0, -1549286.4, -3642.8152, 0.0009857839, 0.33768734, -1548612.1, 168273.8, 0.0008487081, 10.000593, 10.000851 
9.5004815e+1, 1.3480955e+2, -1621017.9, -1718688.6, 28014.13, 0.030820087, 0.28757495, -1613553.3, 5345.5522, 0.00047347447, 10.000401, 9.999106 
9.5004904e+1, 1.4480983e+2, -1501141.8, -1562973.5, 13083.592, 0.033013385, 0.3804722, -1498487.3, 22409.084, 0.00018256163, 10.000349, 9.999521 
9.5004797e+1, 1.5480892e+2, -1391210.3, -1474925.0, -2736.878, 0.033884093, 0.34527352, -1391120.9, 31785.572, 0.00003354367, 10.000499, 9.999381 
9.5004714e+1, 1.6480853e+2, -1252099.8, -1308301.9, 3712.927, 0.024009768, 0.3475126, -1251855.6, 73054.25, 0.00000057940093, 10.000572, 9.999815 
9.5004755e+1, 1.7480837e+2, -1154469.6, -1210553.8, 9931.234, 0.007220221, 0.3430971, -1152763.0, 74145.99, 0.0, 10.00057, 9.999815 
9.500469e+1, 1.8480772e+2, -1094861.8, -1157514.4, -493.31308, -0.0012771474, 0.30988216, -1094857.8, 34055.05, 0.0, 10.000421, 9.99958 
9.500452e+1, 1.9480671e+2, -1042074.56, -1084293.6, 1035.1217, -0.0016704145, 0.24816966, -1042049.2, -11128.95, 0.0, 10.000124, 9.999553 
9.500455e+1, 2.0480594e+2, -961454.5, -1028679.0, 8373.006, 0.0038912923, 0.23109849, -960427.3, -27500.334, 0.0, 10.00015, 9.9992485 
9.5004797e+1, 2.148054e+2, -810955.6, -908808.5, 2069.0452, 0.016895562, 0.24724595, -810911.9, 24021.238, 0.0, 10.0005245, 9.999219 
9.500481e+1, 2.2480476e+2, -684609.1, -783216.25, -12861.843, 0.023465928, 0.2583017, -682959.1, 53980.117, 0.0, 10.000658, 9.999344 
9.5004547e+1, 2.3480415e+2, -604244.75, -695290.94, -7146.081, 0.02358074, 0.2580103, -603687.3, 35257.16, 0.0, 10.000545, 9.999329 
9.500419e+1, 2.4480347e+2, -534601.8, -624040.06, 798.45856, 0.0046751853, 0.26352018, -534594.7, 6356.264, 0.0, 10.000404, 9.999213 
9.500372e+1, 2.5480267e+2, -463550.6, -542238.44, -1825.3563, -0.03623724, 0.2600161, -463508.28, -20549.473, 0.0, 10.000234, 9.999185 
9.5003814e+1, 2.6480174e+2, -380661.97, -472826.13, -4402.557, -0.021920945, 0.25539038, -380452.13, -35483.113, 0.0, 10.000222, 9.998993 
9.500462e+1, 2.7480063e+2, -261055.0, -366897.63, -8164.0254, 0.056702238, 0.24338357, -260428.98, -13448.252, 0.0, 10.000381, 9.998971 
9.5004904e+1, 2.848e+2, -158719.83, -286442.22, 4653.477, 0.07142363, 0.2925589, -158550.5, -9562.56, 0.0000000042394483, 10.000496, 9.9987955 
9.500451e+1, 2.947998e+2, -46763.96, -176561.75, 17912.22, 0.0034810647, 0.38805395, -44337.418, 6653.4473, 0.000002739973, 10.00057, 9.998841 
9.500396e+1, 3.0479676e+2, -26473.041, -201890.25, -8065.441, -0.033849414, 0.2244415, -26102.984, -26102.984, 0.000038513957, 10.000634, 9.998304 
9.5003486e+1, 3.1479585e+2, 136679.64, 134386.1, 38915.465, -0.012624183, 0.30861807, 174465.22, 174465.22, 0.00016021931, 10.000643, 10.000611 
1.05004825e+2, 1.2481125e+2, -1559453.4, -1545743.1, 222.44942, 0.0014895094, 0.34603956, -1545739.5, 171143.8, 0.00079770345, 10.000659, 10.000842 
1.05005324e+2, 1.3480972e+2, -1606995.6, -1714040.3, -911.917, 0.036683884, 0.28923598, -1606987.8, 11908.866, 0.0004431459, 10.000508, 9.999085 
1.0500534e+2, 1.4480977e+2, -1483711.4, -1560103.6, -7171.791, 0.034530587, 0.3618911, -1483043.9, 37852.367, 0.00016917764, 10.000491, 9.999473 
1.05005234e+2, 1.5480892e+2, -1376441.6, -1474084.0, 3406.5637, 0.021917984, 0.3383149, -1376323.0, 46582.777, 0.000030278157, 10.000627, 9.999326 
1.05005234e+2, 1.6480847e+2, -1263685.3, -1329054.4, 5243.0654, 0.019432427, 0.343559, -1263267.4, 61642.625, 0.0000004316036, 10.000557, 9.999681 
1.0500539e+2, 1.7480813e+2, -1207014.6, -1250773.1, -10772.943, 0.029030906, 0.33516675, -1204506.3, 22405.219, 0.0, 10.000274, 9.999682 
1.0500524e+2, 1.8480742e+2, -1114995.1, -1159280.5, -25658.05, 0.02018029, 0.2992505, -1103246.3, 25669.592, 0.0, 10.000248, 9.999651 
1.0500477e+2, 1.9480647e+2, -981828.5, -1047299.44, -21944.934, -0.0076756743, 0.23550823, -975153.44, 55768.844, 0.0, 10.000502, 9.999624 
1.0500481e+2, 2.0480582e+2, -909998.5, -1010866.6, -4057.8071, -0.0048885746, 0.22993045, -909835.56, 23092.39, 0.0, 10.000532, 9.999187 
1.05005346e+2, 2.1480547e+2, -845469.94, -931855.56, -2178.6133, 0.029825166, 0.2720991, -845415.06, -10482.184, 0.0, 10.000317, 9.99916 
1.0500545e+2, 2.2480474e+2, -724221.6, -791593.94, -13738.592, 0.0378779, 0.27217042, -721527.75, 15412.048, 0.0, 10.00034, 9.999439 
1.0500506e+2, 2.3480372e+2, -586596.1, -676534.0, -13303.138, 0.017399212, 0.22149388, -584669.7, 54278.547, 0.0, 10.000621, 9.999421 
1.0500468e+2, 2.448031e+2, -495467.78, -609431.4, -14598.132, -0.00080056477, 0.23093939, -493627.56, 47326.47, 0.0, 10.000691, 9.999176 
1.0500429e+2, 2.548029e+2, -421718.22, -526174.1, -14888.713, -0.01764811, 0.28882933, -419637.5, 23319.732, 0.0, 10.000538, 9.999148 
1.0500433e+2, 2.6480204e+2, -341211.84, -464697.3, -650.1525, -0.008261433, 0.3005023, -341208.44, 3758.3555, 0.0, 10.000538, 9.9988985 
1.0500493e+2, 2.7480054e+2, -222914.06, -359686.63, -2916.2297, 0.034217533, 0.25732997, -222851.9, 24130.236, 0.0, 10.00069, 9.998873 
1.0500521e+2, 2.847997e+2, -135449.38, -265504.5, -7412.469, 0.04702601, 0.28414473, -135028.27, 13962.628, 0.0000000012344323, 10.000613, 9.998884 
1.0500504e+2, 2.9479945e+2, -81386.17, -182836.6, -10977.081, 0.014730801, 0.3681283, -80212.02, -29219.102, 0.0000020653147, 10.000285, 9.998937 
1.0500461e+2, 3.0479634e+2, -80312.05, -227803.63, -43589.203, -0.012805614, 0.1932777, -68393.02, -68393.02, 0.00003243676, 10.00026, 9.99831 
1.0500426e+2, 3.1479588e+2, 107179.586, 97633.36, -19460.504, 0.005329027, 0.3189057, 122443.78, 122443.78, 0.00014106146, 10.000536, 10.000411 
1.1500588e+2, 1.2481188e+2, -1591743.1, -1613314.5, -7252.51, 0.038645208, 0.3766593, -1589531.5, 127345.305, 0.0007564602, 10.000662, 10.000377 
1.1500564e+2, 1.3480984e+2, -1638923.3, -1779599.3, -6314.0103, 0.017276159, 0.31112224, -1638640.4, -19743.451, 0.00042056636, 10.0005045, 9.998638 
1.1500545e+2, 1.4480945e+2, -1464843.1, -1519587.0, -2147.785, -0.0044892994, 0.35148546, -1464759.0, 56141.35, 0.00016082273, 10.000485, 9.999754 
1.1500575e+2, 1.5480892e+2, -1354559.9, -1429813.5, 9399.407, 0.009353174, 0.32896426, -1353403.6, 69500.79, 0.000029173776, 10.000631, 9.999627 
1.15005836e+2, 1.6480833e+2, -1290412.6, -1385368.4, -5989.1743, 0.02269863, 0.32428154, -1290036.4, 34873.484, 0.0000005105562, 10.000561, 9.999293 
1.1500574e+2, 1.7480738e+2, -1235692.4, -1310575.9, -20991.592, 0.035196975, 0.29622412, -1230209.4, -3290.1018, 0.0, 10.000275, 9.999271 
1.1500562e+2, 1.8480672e+2, -1108698.0, -1145279.1, -16624.252, 0.03295499, 0.27980903, -1102272.0, 26652.656, 0.0, 10.000244, 9.999749 
1.1500553e+2, 1.948065e+2, -973997.0, -1030825.2, -11805.882, 0.017471615, 0.27784085, -971642.0, 59281.895, 0.0, 10.000501, 9.999739 
1.1500551e+2, 2.0480609e+2, -906822.4, -1003238.4, -12291.077, 0.011873935, 0.2891244, -905280.2, 27646.498, 0.0, 10.000527, 9.999242 
1.1500553e+2, 2.1480547e+2, -841754.4, -923527.1, -9892.11, 0.016401563, 0.2983534, -840574.75, -5641.293, 0.0, 10.000314, 9.999219 
1.1500552e+2, 2.2480454e+2, -722316.75, -786554.75, -3841.3613, 0.010864155, 0.27265504, -722087.8, 14854.252, 0.0, 10.000336, 9.999476 
1.1500547e+2, 2.3480336e+2, -584738.44, -671912.0, -2167.436, -0.0048275734, 0.20258933, -584684.6, 54267.42, 0.0, 10.000617, 9.9994545 
1.15005456e+2, 2.4480283e+2, -496081.7, -609752.8, -20560.057, 0.0073011527, 0.21901418, -492477.22, 48480.055, 0.0, 10.000688, 9.999176 
1.15005486e+2, 2.54803e+2, -420985.34, -524120.75, -20363.041, 0.04735111, 0.31458595, -417110.47, 25846.78, 0.0, 10.000536, 9.999164 
1.1500525e+2, 2.648022e+2, -345710.44, -473255.34, 4141.608, 0.028720463, 0.33191124, -345576.1, -609.9561, 0.0, 10.000535, 9.998841 
1.150048e+2, 2.7480033e+2, -228967.5, -371153.66, 3219.1138, -0.047972776, 0.25862387, -228894.66, 18089.36, 0.0, 10.000686, 9.998796 
1.1500494e+2, 2.8479916e+2, -145209.83, -284047.2, -20093.781, -0.04087953, 0.26651555, -142360.17, 6634.8213, 0.00000000006210851, 10.000607, 9.99876 
1.15005575e+2, 2.9479873e+2, -88846.484, -198156.16, -22444.428, 0.039311256, 0.34418002, -84417.45, -33419.023, 0.0000014487281, 10.000284, 9.998832 
1.1500552e+2, 3.0479538e+2, -101393.2, -270294.28, -34190.727, 0.05197163, 0.16144396, -94734.48, -94734.48, 0.000026628812, 10.000257, 9.998019 
1.1500521e+2, 3.14795e+2, 67323.85, 17395.834, -5268.9243, 0.045665007, 0.32720283, 67873.82, 67873.82, 0.00012208533, 10.000526, 9.999865 
1.2500612e+2, 1.24811776e+2, -1625689.6, -1631091.4, -30314.842, 0.0073788096, 0.3620186, -1597955.6, 118922.38, 0.0007247361, 10.000436, 10.000364 
1.2500621e+2, 1.3481005e+2, -1616138.8, -1768829.6, 3897.2703, 0.017173527, 0.3309045, -1616039.4, 2855.5957, 0.00040489552, 10.000664, 9.998635 
1.2500612e+2, 1.448095e+2, -1444751.9, -1513371.5, 11772.473, 0.008402864, 0.35550585, -1442788.4, 78111.5, 0.00015657058, 10.000638, 9.999723 
1.2500633e+2, 1.5480877e+2, -1397137.9, -1453715.9, -2676.3018, 0.01936607, 0.31519845, -1397011.6, 25894.078, 0.000029665785, 10.000354, 9.999597 
1.2500638e+2, 1.6480815e+2, -1317719.4, -1400627.8, -12391.996, 0.029010545, 0.3104555, -1315906.9, 9004.582, 0.0000007617598, 10.0003805, 9.999276 
1.2500626e+2, 1.7480738e+2, -1168788.5, -1280660.8, 483.29437, 0.037257418, 0.30291373, -1168786.4, 58132.97, 0.0, 10.000742, 9.999252 
1.2500615e+2, 1.8480676e+2, -1035637.4, -1128049.4, 10807.273, 0.032827932, 0.3006377, -1034390.3, 94534.414, 0.0, 10.000821, 9.99959 
1.2500605e+2, 1.9480647e+2, -972105.1, -1047611.25, -5304.5117, 0.014863535, 0.3064259, -971734.3, 59191.246, 0.0, 10.00059, 9.99958 
1.2500596e+2, 2.0480594e+2, -899421.06, -984589.06, -15102.64, 0.0056118453, 0.30748728, -896822.25, 36107.13, 0.0, 10.000513, 9.999377 
1.2500589e+2, 2.1480516e+2, -789632.94, -883062.6, -7663.718, 0.0053381626, 0.2870017, -789008.5, 45928.137, 0.0, 10.000604, 9.999357 
1.2500581e+2, 2.2480433e+2, -706003.25, -779318.0, 589.28064, 0.0006561489, 0.2625514, -705998.5, 30945.576, 0.0, 10.000449, 9.999472 
1.2500577e+2, 2.3480348e+2, -670654.6, -713876.94, -1950.0399, -0.00863567, 0.22713141, -670566.9, -31615.803, 0.0, 10.0000305, 9.99945 
1.250059e+2, 2.4480294e+2, -587655.2, -659530.94, -12442.993, 0.013069406, 0.2450053, -585562.0, -44605.6, 0.0, 10.000083, 9.999126 
1.2500624e+2, 2.5480273e+2, -410941.78, -525622.5, -16766.414, 0.06548219, 0.30799866, -408540.78, 34418.984, 0.0, 10.000631, 9.999108 
1.2500605e+2, 2.6480168e+2, -318551.84, -463152.72, -4675.941, 0.04511274, 0.3071888, -318400.8, 26569.568, 0.0, 10.000735, 9.998815 
1.2500532e+2, 2.7479973e+2, -278188.84, -398393.9, -4760.481, -0.04721376, 0.2293284, -278000.63, -31012.178, 0.0, 10.000361, 9.998766 
1.2500542e+2, 2.8479856e+2, -187623.16, -330848.66, -20768.352, -0.044357754, 0.24882, -184672.44, -35672.77, 0.0, 10.000426, 9.998527 
1.2500621e+2, 2.9479825e+2, -12243.0, -187756.64, -33481.62, 0.043016136, 0.3583741, -6072.8354, 44930.254, 0.00000094519226, 10.000925, 9.998595 
1.250062e+2, 3.047946e+2, 15593.158, -215348.84, -42105.574, 0.054546997, 0.1648623, 23030.38, 23030.38, 0.000021325412, 10.001067, 9.998008 
1.2500598e+2, 3.147939e+2, 89066.33, -4763.669, 9555.067, 0.05626393, 0.30013987, 90029.48, 90029.48, 0.000103857135, 10.000814, 9.999576 
1.3500547e+2, 1.24810934e+2, -1597530.0, -1570521.6, -25989.9, -0.10127234, 0.30557272, -1554736.9, 162149.78, 0.0007016644, 10.000426, 10.000785 
1.3500708e+2, 1.3481037e+2, -1584646.0, -1706222.5, 13537.262, 0.034835823, 0.34885377, -1583157.0, 35733.74, 0.00039489288, 10.000675, 9.999061 
1.3500741e+2, 1.4480989e+2, -1466804.8, -1560676.3, -65.218834, 0.070760645, 0.3740479, -1466804.6, 54090.395, 0.00015526546, 10.000646, 9.999395 
1.3500696e+2, 1.5480845e+2, -1422508.8, -1505373.6, -13040.939, 0.04499869, 0.29736635, -1420504.9, 2404.7947, 0.000031126172, 10.000349, 9.999245 
1.3500677e+2, 1.648079e+2, -1294209.8, -1350716.5, 505.97702, 0.03078049, 0.3013269, -1294205.3, 30709.64, 0.0000011270397, 10.000376, 9.999621 
1.3500698e+2, 1.748081e+2, -1142802.0, -1227271.3, 14725.708, 0.03344395, 0.35359952, -1140308.5, 86603.42, 0.0, 10.000745, 9.999619 
1.3500683e+2, 1.8480757e+2, -1063992.4, -1186875.6, 2015.6012, 0.018288849, 0.36138847, -1063959.4, 64956.95, 0.0, 10.000821, 9.9991865 
1.3500632e+2, 1.948064e+2, -1002032.56, -1109571.3, -13574.942, -0.017966643, 0.32144204, -1000345.44, 30581.94, 0.0, 10.000589, 9.999156 
1.3500616e+2, 2.0480537e+2, -885283.44, -954127.6, -12296.4795, -0.026923455, 0.28480056, -883153.06, 49783.113, 0.0, 10.000508, 9.999589 
1.3500638e+2, 2.1480455e+2, -774635.0, -850956.4, -3534.7603, -0.005587282, 0.23770726, -774471.6, 60470.79, 0.0, 10.000599, 9.99958 
1.3500631e+2, 2.2480409e+2, -710500.44, -787351.2, -15235.198, 0.0042450516, 0.24252874, -707590.3, 29355.408, 0.0, 10.000443, 9.999419 
1.350059e+2, 2.3480406e+2, -673881.5, -720633.44, -17217.434, 0.0030586468, 0.29403758, -668225.1, -29279.717, 0.0, 10.00003, 9.999403 
1.35006e+2, 2.448034e+2, -595010.2, -674006.25, 7157.517, 0.013630051, 0.30739877, -594366.9, -53415.215, 0.0, 10.000079, 9.999028 
1.3500658e+2, 2.5480208e+2, -418943.9, -541478.25, 4388.017, 0.034540493, 0.2684445, -418786.97, 24177.838, 0.0, 10.000628, 9.9990015 
1.3500671e+2, 2.6480055e+2, -319922.56, -464855.75, -18500.191, 0.038923495, 0.22586496, -317598.34, 27381.158, 0.0, 10.0007305, 9.998805 
1.3500649e+2, 2.7479884e+2, -277000.63, -396149.78, -17901.982, 0.031335473, 0.17033517, -274369.0, -27373.648, 0.0, 10.000362, 9.998781 
1.3500662e+2, 2.847979e+2, -212155.63, -380812.56, -3154.7717, 0.032139372, 0.23166874, -212096.64, -63091.754, 0.0, 10.000422, 9.998185 
1.3500695e+2, 2.9479793e+2, -38603.12, -240886.7, -13877.652, 0.022258079, 0.40844744, -37655.484, 13351.667, 0.0000005800232, 10.000918, 9.998234 
1.3500665e+2, 3.047941e+2, 32851.598, -176631.42, -51805.99, -0.0072932555, 0.19998577, 44963.176, 44963.176, 0.000016654767, 10.001057, 9.998278 
1.3500653e+2, 3.147927e+2, 87645.36, -6510.5957, 3245.7776, 0.028996259, 0.23719478, 87757.12, 87757.12, 0.000086807726, 10.000812, 9.999564 
1.4500584e+2, 1.248109e+2, -1627099.8, -1573419.0, -982.60815, -0.09261766, 0.3057772, -1573401.0, 143485.77, 0.0006852014, 10.000173, 10.000887 
1.4500746e+2, 1.348104e+2, -1620896.3, -1706838.5, 18258.668, 0.022122573, 0.3399583, -1617178.0, 1711.5024, 0.00038852147, 10.000353, 9.999211 
1.450078e+2, 1.4480981e+2, -1492328.8, -1580463.9, -6809.9487, 0.052298017, 0.35104752, -1491805.6, 29089.092, 0.00015533686, 10.000501, 9.99933 
1.4500739e+2, 1.548086e+2, -1392469.8, -1499409.6, -689.26013, 0.04206273, 0.30329305, -1392465.4, 30442.686, 0.00003278088, 10.000591, 9.999169 
1.4500727e+2, 1.6480808e+2, -1262792.0, -1335256.6, 21396.023, 0.032178447, 0.3136879, -1256946.3, 67966.78, 0.0000015078091, 10.000589, 9.999624 
1.450075e+2, 1.7480813e+2, -1178513.0, -1243909.8, 7970.4087, 0.025103228, 0.35087013, -1177555.6, 49355.145, 0.0, 10.000496, 9.999623 
1.4500743e+2, 1.8480746e+2, -1122672.6, -1220753.9, -14181.604, 0.015101704, 0.34676683, -1120663.3, 8253.101, 0.0, 10.000442, 9.999138 
1.45007e+2, 1.9480613e+2, -1029155.7, -1128727.3, -3222.3057, 0.000087634195, 0.29613358, -1029051.5, 1877.8081, 0.0, 10.000428, 9.999103 
1.4500682e+2, 2.0480512e+2, -896726.1, -964666.7, 11341.724, -0.008154144, 0.2657135, -894882.8, 38055.44, 0.0, 10.000451, 9.999544 
1.450069e+2, 2.1480452e+2, -789774.7, -862984.56, -844.1595, -0.009049147, 0.24564518, -789764.94, 45177.426, 0.0, 10.000517, 9.999537 
1.4500684e+2, 2.2480403e+2, -680039.6, -787625.4, -28933.52, 0.000053904037, 0.25756508, -672752.06, 64193.95, 0.0, 10.000717, 9.999287 
1.4500663e+2, 2.3480372e+2, -534027.8, -668375.56, -37703.695, 0.020736344, 0.29327098, -524169.9, 114778.836, 0.0, 10.001055, 9.999269 
1.4500657e+2, 2.4480286e+2, -489235.53, -631214.4, -18242.17, 0.023950335, 0.29624996, -486929.13, 54027.68, 0.0, 10.000841, 9.998956 
1.4500661e+2, 2.5480142e+2, -511112.47, -594426.75, -20176.99, 0.005421079, 0.25385535, -506483.22, -63512.895, 0.0, 10.000032, 9.998924 
1.450068e+2, 2.6479986e+2, -432499.63, -520609.44, -29820.395, 0.013824737, 0.21409044, -423355.94, -78370.82, 0.0, 9.999963, 9.998792 
1.4500727e+2, 2.747982e+2, -234680.3, -376774.78, -30282.488, 0.057907347, 0.16658062, -228495.81, 18505.018, 0.0, 10.000659, 9.998771 
1.4500763e+2, 2.8479734e+2, -141909.78, -339945.78, -2766.8335, 0.06876462, 0.22796027, -141871.14, 7138.9194, 0.0, 10.000875, 9.998247 
1.450077e+2, 2.9479733e+2, -82295.26, -256321.42, 16509.36, 0.023717918, 0.39768878, -80742.91, -29731.158, 0.00000034163278, 10.000593, 9.998285 
1.450073e+2, 3.0479366e+2, -21779.61, -179640.83, -10607.392, -0.023606857, 0.192533, -21070.041, -21070.041, 0.000012640429, 10.000578, 9.998488 
1.4500737e+2, 3.1479245e+2, 72236.17, -25497.129, 36854.906, 0.03491672, 0.2256003, 84576.01, 84576.01, 0.00007115946, 10.000755, 9.999461 
1.5500723e+2, 1.2481161e+2, -1640064.6, -1602310.5, 3503.0166, 0.024631293, 0.35885277, -1601988.3, 114890.75, 0.0006719969, 10.000181, 10.000685 
1.5500732e+2, 1.3481012e+2, -1629382.1, -1724111.5, 25168.988, -0.028049909, 0.30440053, -1623110.1, -4218.6807, 0.00038301162, 10.00035, 9.999094 
1.5500724e+2, 1.4480928e+2, -1479434.1, -1552176.9, -3715.4575, -0.053885482, 0.2869468, -1479244.9, 41654.145, 0.00015494693, 10.000494, 9.999527 
1.5500766e+2, 1.5480919e+2, -1377677.8, -1469738.4, 3314.6577, 0.008572957, 0.33258674, -1377558.5, 45342.3, 0.000033834087, 10.000595, 9.999371 
1.5500785e+2, 1.6480866e+2, -1285722.1, -1383708.4, 17186.53, 0.030724043, 0.3468867, -1282795.1, 42110.76, 0.0000017896223, 10.000593, 9.9992895 
1.5500784e+2, 1.7480747e+2, -1203231.3, -1294702.1, 4780.314, 0.008031586, 0.29551786, -1202982.1, 23933.688, 0.0, 10.000494, 9.999275 
1.5500791e+2, 1.8480644e+2, -1101798.9, -1176790.9, -15153.393, 0.01824372, 0.25705954, -1098852.6, 30072.156, 0.0, 10.000438, 9.999441 
1.550081e+2, 1.9480565e+2, -1006836.1, -1082297.8, -3325.9534, 0.06623057, 0.2297683, -1006689.8, 24241.795, 0.0, 10.000427, 9.999422 
1.5500794e+2, 2.0480517e+2, -918337.8, -1008795.2, 13285.495, 0.059196293, 0.24991724, -916426.94, 16508.746, 0.0, 10.000447, 9.999243 
1.5500744e+2, 2.1480505e+2, -811877.1, -908721.06, 2186.737, -0.007775919, 0.3094554, -811827.8, 23108.857, 0.0, 10.000515, 9.999225 
1.5500742e+2, 2.2480415e+2, -695239.3, -818189.8, -16764.064, -0.014965342, 0.30620727, -692994.56, 43950.473, 0.0, 10.000712, 9.999079 
1.550079e+2, 2.3480245e+2, -549231.8, -699241.5, -24475.67, 0.042726375, 0.22483929, -545339.3, 93621.71, 0.0, 10.001052, 9.999059 
1.5500757e+2, 2.448013e+2, -493740.7, -639552.56, -48206.418, 0.041252557, 0.21206106, -479244.5, 61727.3, 0.0, 10.000836, 9.9989 
1.5500633e+2, 2.5480074e+2, -514208.88, -601073.44, -49870.543, -0.026277905, 0.26396754, -491509.22, -48532.793, 0.0, 10.000033, 9.9988785 
1.550063e+2, 2.6479962e+2, -433948.97, -522922.34, -4839.8335, -0.03403544, 0.2705438, -433686.47, -88699.03, 0.0, 9.999961, 9.998776 
1.5500765e+2, 2.7479792e+2, -236456.1, -379292.44, -3761.3662, 0.029720372, 0.2167463, -236357.11, 10647.922, 0.0, 10.000654, 9.998755 
1.5500845e+2, 2.847968e+2, -110309.38, -273669.44, -13243.07, 0.06310143, 0.23577337, -109242.77, 39772.566, 0.0, 10.000872, 9.998705 
1.550085e+2, 2.9479647e+2, -48345.91, -187066.4, 7688.5176, 0.041980807, 0.32697573, -47921.08, 3095.7527, 0.00000019535571, 10.000597, 9.998759 
1.5500812e+2, 3.0479336e+2, -12273.86, -159108.44, -4120.0703, -0.00063570327, 0.14332601, -12158.346, -12158.346, 0.000009261703, 10.000575, 9.998629 
1.5500844e+2, 3.1479314e+2, 57834.39, -53595.496, 46256.082, 0.06349941, 0.2642909, 74533.39, 74533.39, 0.00005700469, 10.000748, 9.9992695 
1.6500771e+2, 1.2481169e+2, -1613707.6, -1601294.9, -12002.434, 0.04326029, 0.36450008, -1593989.1, 122888.55, 0.00065754744, 10.00041, 10.000581 
1.650076e+2, 1.3481003e+2, -1659599.3, -1742048.4, 16405.463, -0.024625521, 0.29755872, -1656454.9, -37563.035, 0.00037533476, 10.000157, 9.999063 
1.6500749e+2, 1.4480904e+2, -1515127.6, -1563163.4, -2331.368, -0.06540626, 0.2625542, -1515014.6, 5886.0796, 0.00015252095, 10.000222, 9.999582 
1.6500804e+2, 1.5480919e+2, -1370183.4, -1459556.6, -7565.8545, -0.013208214, 0.32755473, -1369547.4, 53352.363, 0.000033788867, 10.000618, 9.999429 
1.6500835e+2, 1.6480862e+2, -1273906.5, -1386947.9, -4145.1724, 0.014053073, 0.33901653, -1273754.8, 51150.41, 0.0000018950186, 10.000712, 9.99921 
1.6500837e+2, 1.748071e+2, -1211570.4, -1308337.3, 1803.3347, 0.011224218, 0.26217443, -1211536.9, 15381.636, 0.0, 10.000478, 9.99919 
1.6500849e+2, 1.8480605e+2, -1093201.4, -1176465.9, -7421.4253, 0.027820153, 0.22810055, -1092545.1, 36382.766, 0.0, 10.000515, 9.999406 
1.6500874e+2, 1.9480559e+2, -946912.75, -1057179.5, -22772.104, 0.06656862, 0.23827943, -942395.0, 88536.7, 0.0, 10.0008545, 9.999389 
1.6500863e+2, 2.048051e+2, -853825.75, -991149.2, -20193.283, 0.05717401, 0.26534113, -850917.94, 82018.0, 0.0, 10.000948, 9.999124 
1.650081e+2, 2.1480459e+2, -782692.1, -908218.75, -17565.012, -0.0053021107, 0.29809153, -780280.6, 54659.703, 0.0, 10.000773, 9.999104 
1.6500804e+2, 2.248035e+2, -730622.3, -853213.2, -23064.344, -0.014034389, 0.28889853, -726426.56, 10524.317, 0.0, 10.000547, 9.998917 
1.650085e+2, 2.3480183e+2, -673926.06, -777461.4, -28457.475, 0.03555775, 0.22569928, -666619.9, -27652.219, 0.0, 10.000275, 9.998896 
1.6500816e+2, 2.4480063e+2, -551336.0, -658612.7, -50513.77, 0.038594224, 0.21243618, -531294.56, 9684.145, 0.0, 10.000403, 9.998979 
1.6500698e+2, 2.5479996e+2, -374199.34, -523790.06, -42307.785, -0.011300487, 0.24386178, -363062.78, 79920.41, 0.0, 10.000953, 9.998966 
1.6500686e+2, 2.6479888e+2, -305510.5, -486416.88, 7433.0845, -0.022738649, 0.26073104, -305205.6, 39788.344, 0.0, 10.000953, 9.998549 
1.65008e+2, 2.7479732e+2, -295776.03, -434499.2, -9372.939, 0.01489199, 0.24891394, -295145.63, -48134.21, 0.0, 10.000361, 9.998517 
1.650088e+2, 2.8479612e+2, -197589.73, -293732.47, -38636.355, 0.04604311, 0.2581053, -183987.56, -34964.61, 0.0, 10.000178, 9.9989 
1.6500907e+2, 2.947954e+2, -61809.84, -170839.25, -38665.797, 0.048167583, 0.28711975, -49489.695, 1537.0817, 0.00000010392393, 10.000408, 9.99896 
1.6500877e+2, 3.0479264e+2, -9640.248, -144097.64, -56391.895, 0.009756051, 0.12542926, 10879.236, 10879.236, 0.0000064948904, 10.000535, 9.998751 
1.6500923e+2, 3.1479293e+2, 13754.964, -94369.28, -9510.626, 0.08137006, 0.28507027, 14585.1455, 14585.1455, 0.000044405664, 10.000527, 9.999095 
1.7500727e+2, 1.2481113e+2, -1614674.5, -1602502.0, -26102.742, -0.04439127, 0.32484573, -1581785.4, 135097.33, 0.0006370072, 10.000407, 10.000573 
1.7500831e+2, 1.3481012e+2, -1655018.1, -1734369.8, 7881.748, 0.029725358, 0.31853962, -1654242.9, -35352.34, 0.00036284848, 10.000164, 9.999112 
1.7500854e+2, 1.4480904e+2, -1520554.4, -1575409.4, 11215.687, 0.014025379, 0.2759013, -1518349.8, 2550.5479, 0.00014707113, 10.000226, 9.9994955 
1.7500852e+2, 1.548086e+2, -1376532.3, -1472514.3, 7702.197, -0.028640755, 0.28894344, -1375918.1, 46986.84, 0.00003249045, 10.000617, 9.999341 
1.750087e+2, 1.6480795e+2, -1261771.0, -1361308.6, -13146.866, -0.022988988, 0.29084745, -1260063.9, 64846.773, 0.0000018022155, 10.00071, 9.999388 
1.7500906e+2, 1.74807e+2, -1198930.3, -1281965.8, -6590.7734, 0.032314934, 0.25056297, -1198410.4, 28508.305, 0.0, 10.000477, 9.999372 
1.7500915e+2, 1.8480627e+2, -1119687.3, -1231449.1, 4585.0884, 0.040435705, 0.25970834, -1119499.4, 9426.157, 0.0, 10.000514, 9.999029 
1.7500892e+2, 1.9480594e+2, -974383.9, -1113740.1, -9498.791, -0.00070625567, 0.3210343, -973739.4, 57190.44, 0.0, 10.000853, 9.9990015 
1.7500885e+2, 2.0480493e+2, -849734.06, -981833.2, -26705.71, -0.016357495, 0.31161052, -844539.4, 88399.625, 0.0, 10.000944, 9.999189 
1.750089e+2, 2.1480316e+2, -778204.1, -897742.6, -23604.688, -0.004452057, 0.21168374, -773711.8, 61241.492, 0.0, 10.000768, 9.999179 
1.7500874e+2, 2.2480209e+2, -739392.7, -870360.3, -33717.117, -0.0004059533, 0.2062583, -731222.06, 5741.399, 0.0, 10.000544, 9.998801 
1.7500839e+2, 2.348018e+2, -682329.5, -795062.25, -38105.75, -0.0035545675, 0.29412714, -670657.56, -31688.818, 0.0, 10.000275, 9.998775 
1.7500831e+2, 2.4480078e+2, -536651.44, -627728.9, -30727.791, 0.013056812, 0.2954853, -527254.06, 13723.81, 0.0, 10.0004015, 9.999191 
1.7500854e+2, 2.54799e+2, -358840.38, -491171.63, -21325.914, 0.047983076, 0.19335575, -355488.47, 87502.25, 0.0, 10.00095, 9.999191 
1.7500852e+2, 2.6479757e+2, -336619.7, -550832.56, -14409.998, 0.04558549, 0.18440895, -335654.7, 9350.048, 0.0, 10.000951, 9.998108 
1.7500831e+2, 2.747965e+2, -327376.9, -500723.53, -30743.588, 0.00946047, 0.26289412, -322085.94, -75065.914, 0.0, 10.000363, 9.998062 
1.7500865e+2, 2.8479522e+2, -203046.7, -304831.75, -31021.07, 0.012512609, 0.29523528, -194337.58, -45304.598, 0.0, 10.000177, 9.998823 
1.7500937e+2, 2.9479393e+2, -67644.945, -181756.86, -29060.465, 0.038255382, 0.2772791, -60670.5, -9628.662, 0.00000004563321, 10.000403, 9.998887 
1.7500925e+2, 3.0479145e+2, -1831.7642, -128136.75, -56481.746, 0.0034511613, 0.13783267, 19741.33, 19741.33, 0.000004309572, 10.000535, 9.99886 
1.750098e+2, 3.147918e+2, 5225.08, -114235.516, -8652.509, 0.08100063, 0.2929643, 5848.526, 5848.526, 0.000033397264, 10.000535, 9.998956 
1.8500717e+2, 1.2481076e+2, -1694213.1, -1651241.9, -12797.794, -0.0687126, 0.29596537, -1647719.3, 69165.266, 0.0006065531, 9.999906, 10.00048 
1.8500875e+2, 1.3481009e+2, -1591070.4, -1704452.8, 18481.688, 0.033968452, 0.32365274, -1588133.9, 30755.984, 0.00034376056, 10.000607, 9.999103 
1.8500912e+2, 1.448089e+2, -1449854.1, -1546480.5, 11094.465, 0.026733434, 0.27270383, -1448596.6, 72304.53, 0.00013809917, 10.000733, 9.99945 
1.8500902e+2, 1.548082e+2, -1436931.5, -1506501.9, 9446.95, -0.020862808, 0.26455134, -1435671.5, -12763.503, 0.000029920388, 10.000224, 9.999296 
1.850092e+2, 1.648076e+2, -1332610.9, -1398179.6, -7631.431, -0.020121388, 0.27399114, -1331734.4, -6820.8843, 0.0000015280342, 10.000236, 9.999363 
1.8500966e+2, 1.7480703e+2, -1151797.4, -1261842.4, -17705.945, 0.028528485, 0.27571955, -1149018.8, 77899.516, 0.0, 10.000813, 9.999349 
1.8500972e+2, 1.8480629e+2, -1074054.3, -1232291.1, -14400.994, 0.02725848, 0.29512691, -1072754.3, 56171.37, 0.0, 10.000925, 9.998825 
1.8500936e+2, 1.9480552e+2, -1034173.3, -1165372.8, -15482.767, -0.027340798, 0.33087692, -1032370.94, -1436.234, 0.0, 10.00054, 9.998797 
1.8500936e+2, 2.0480426e+2, -925361.3, -1012938.25, -25156.152, -0.032726742, 0.30639997, -918649.7, 14296.417, 0.0, 10.000402, 9.999237 
1.8500973e+2, 2.1480253e+2, -807749.4, -906049.6, -24996.574, 0.01438512, 0.20396727, -801758.2, 33201.574, 0.0, 10.00054, 9.999231 
1.8500954e+2, 2.2480153e+2, -718215.0, -850034.56, -30220.084, 0.020798262, 0.19838054, -711617.2, 25351.365, 0.0, 10.000645, 9.998893 
1.8500876e+2, 2.3480137e+2, -611602.0, -750599.25, -19213.299, -0.015264178, 0.2895896, -608995.06, 29976.637, 0.0, 10.000715, 9.998868 
1.8500875e+2, 2.4480034e+2, -508624.25, -634562.9, -5986.3164, 0.00082125724, 0.2941216, -508340.34, 32640.693, 0.0, 10.000683, 9.999008 
1.850095e+2, 2.547984e+2, -432192.88, -547659.3, -28535.746, 0.07004301, 0.1951853, -425525.7, 17470.889, 0.0, 10.000538, 9.9990015 
1.8500952e+2, 2.6479682e+2, -392046.75, -575738.44, -34829.94, 0.0716983, 0.18155728, -385664.38, -40652.418, 0.0, 10.000564, 9.998123 
1.8500885e+2, 2.7479562e+2, -267387.22, -469334.06, -16258.059, 0.007211498, 0.24617903, -266086.72, -19059.467, 0.0, 10.000766, 9.998083 
1.8500905e+2, 2.8479424e+2, -137647.42, -290593.03, 4811.055, 0.008530271, 0.27240032, -137496.23, 11545.149, 0.0, 10.000702, 9.998669 
1.8500999e+2, 2.947929e+2, -87503.26, -209673.69, -1582.9661, 0.060872775, 0.26108328, -87482.75, -36430.45, 0.000000013949684, 10.000347, 9.998721 
1.8500975e+2, 3.0479074e+2, -20444.451, -113855.82, -20521.113, 0.011536153, 0.15771174, -16135.068, -16135.068, 0.0000026617806, 10.000306, 9.999068 
1.8501009e+2, 3.1479076e+2, 13481.684, -103034.836, 31844.613, 0.05618675, 0.25551447, 21616.979, 21616.979, 0.000023992492, 10.000564, 9.999017 
1.9500744e+2, 1.2481058e+2, -1706424.9, -1677250.9, 9398.326, -0.03442893, 0.27732092, -1674485.4, 42397.723, 0.0005643703, 9.999908, 10.0003 
1.9500886e+2, 1.3480994e+2, -1595929.3, -1714557.9, 45594.402, -0.015462345, 0.31344134, -1580430.3, 38459.645, 0.00031730495, 10.0006075, 9.999034 
1.9500929e+2, 1.448086e+2, -1450128.9, -1547195.6, -7562.9126, -0.03174929, 0.25361174, -1449543.1, 71360.016, 0.00012543245, 10.000733, 9.999445 
1.9500953e+2, 1.5480798e+2, -1436450.6, -1506382.5, -9104.969, 0.00789203, 0.25396645, -1435284.6, -12375.471, 0.000026112697, 10.000227, 9.999296 
1.9500984e+2, 1.6480753e+2, -1348717.6, -1431631.3, 12789.884, 0.019652547, 0.28766298, -1346789.5, -21875.76, 0.0000011234973, 10.0002365, 9.999133 
1.9501017e+2, 1.748072e+2, -1168312.9, -1295712.8, 4464.268, -0.0021064756, 0.33771843, -1168156.6, 58760.543, 0.0, 10.000811, 9.999117 
1.9501024e+2, 1.8480612e+2, -1076071.6, -1235855.6, -28522.688, -0.014952937, 0.33456406, -1071132.8, 57795.406, 0.0, 10.000923, 9.998802 
1.9501002e+2, 1.948043e+2, -1036082.25, -1168757.9, -29704.137, -0.0156355, 0.26853317, -1029735.56, 1210.7523, 0.0, 10.000538, 9.9987755 
1.9501014e+2, 2.0480311e+2, -923659.25, -1008703.25, -20740.758, 0.0050221854, 0.25082937, -918870.6, 14086.543, 0.0, 10.0004, 9.999268 
1.9501062e+2, 2.1480265e+2, -805886.8, -901581.5, -19074.908, 0.048657935, 0.27348882, -802224.75, 32735.04, 0.0, 10.000537, 9.999264 
1.9501045e+2, 2.248018e+2, -697932.0, -807297.6, -28061.7, 0.0471373, 0.26449588, -691152.06, 45814.29, 0.0, 10.000642, 9.999187 
1.9500962e+2, 2.348005e+2, -590644.56, -706420.25, -16123.552, -0.0019914978, 0.21245262, -588441.06, 50535.582, 0.0, 10.000712, 9.999173 
1.9500941e+2, 2.4479926e+2, -549429.56, -718953.25, -11791.8955, -0.00053904206, 0.20914547, -548613.25, -7625.034, 0.0, 10.000681, 9.998429 
1.9500986e+2, 2.547981e+2, -474589.25, -635501.3, -33485.78, 0.05226058, 0.24857701, -467899.0, -24898.184, 0.0, 10.000537, 9.998399 
1.9500992e+2, 2.6479664e+2, -359860.88, -508726.22, -28054.219, 0.053006344, 0.25181574, -354749.47, -9733.718, 0.0, 10.000563, 9.998584 
1.9500962e+2, 2.7479473e+2, -233069.4, -397824.22, -8499.536, 0.0054357783, 0.19844313, -232632.1, 14401.217, 0.0, 10.000764, 9.998575 
1.9500998e+2, 2.847931e+2, -154208.05, -324353.97, -8502.226, 0.031131174, 0.18977648, -153784.25, -4735.9126, 0.0, 10.000699, 9.998438 
1.9501086e+2, 2.9479212e+2, -105852.586, -248098.03, -13539.789, 0.11279156, 0.23839112, -104575.26, -53516.902, 0.0000000023315327, 10.000348, 9.998458 
1.9501026e+2, 3.047905e+2, 842.1789, -69874.09, -12199.74, 0.030338287, 0.18571174, 2887.6716, 2887.6716, 0.0000014940416, 10.000308, 9.999369 
1.950101e+2, 3.1478983e+2, 30309.303, -68177.945, 40493.523, -0.0012793067, 0.18035367, 44820.363, 44820.363, 0.00001627015, 10.000564, 9.999256 
2.0500794e+2, 1.24809794e+2, -1595620.9, -1638853.1, -25453.393, -0.018339813, 0.24307218, -1583843.4, 133045.28, 0.0005112227, 10.000736, 10.000164 
2.0500904e+2, 1.348094e+2, -1675218.9, -1756643.0, 14140.967, -0.032538075, 0.30851486, -1672832.9, -53938.586, 0.00028397882, 10.00008, 9.999 
2.0500942e+2, 1.4480817e+2, -1543102.8, -1585318.5, -32140.68, -0.060369916, 0.25629088, -1525758.5, -4851.141, 0.000109345056, 10.000067, 9.999506 
2.0500992e+2, 1.5480772e+2, -1359019.0, -1461074.6, -29748.309, -0.0026139882, 0.26758286, -1350980.8, 71930.67, 0.000021261263, 10.000725, 9.999368 
2.0501034e+2, 1.648072e+2, -1263368.9, -1396118.9, 2122.3276, 0.015678575, 0.29393935, -1263334.9, 61581.54, 0.00000067965186, 10.000846, 9.9990835 
2.0501065e+2, 1.7480658e+2, -1231658.4, -1331980.1, 6590.204, -0.015399354, 0.319313, -1231227.4, -4304.913, 0.0, 10.000401, 9.999066 
2.0501077e+2, 1.8480538e+2, -1153643.1, -1267324.3, -17732.871, -0.024817986, 0.3041863, -1150941.3, -22006.896, 0.0, 10.000364, 9.998856 
2.0501076e+2, 1.9480363e+2, -997495.75, -1143701.3, -14116.315, -0.008468868, 0.23926038, -996145.25, 34806.5, 0.0, 10.000775, 9.998834 
2.0501083e+2, 2.0480262e+2, -869107.0, -990624.9, -9703.589, 0.013949209, 0.23872891, -868337.0, 64624.363, 0.0, 10.00081, 9.999194 
2.0501103e+2, 2.1480243e+2, -825061.6, -919094.8, -16925.469, 0.04172025, 0.29641232, -822107.94, 12854.39, 0.0, 10.000442, 9.999189 
2.0501097e+2, 2.248015e+2, -719918.44, -810133.56, -23504.293, 0.04400952, 0.2819018, -714162.06, 22807.084, 0.0, 10.000458, 9.999257 
2.0501064e+2, 2.3479977e+2, -559622.06, -683110.06, -29705.998, 0.019650389, 0.17951587, -552847.7, 86134.31, 0.0, 10.000891, 9.999248 
2.050104e+2, 2.4479844e+2, -518094.25, -723520.94, -35777.0, 0.016392754, 0.17000252, -512041.7, 28953.002, 0.0, 10.000981, 9.998254 
2.0501028e+2, 2.5479752e+2, -463135.47, -650354.06, -27058.428, 0.032777134, 0.25250885, -459303.2, -16296.556, 0.0, 10.000703, 9.998217 
2.0501027e+2, 2.647961e+2, -348300.22, -483035.34, -3590.601, 0.03248723, 0.26425728, -348204.6, -3183.7598, 0.0, 10.000554, 9.998765 
2.0501044e+2, 2.7479413e+2, -253251.38, -386480.97, -7999.011, 0.022728797, 0.18235925, -252772.83, -5735.1807, 0.0, 10.000535, 9.998764 
2.0501083e+2, 2.8479245e+2, -194622.64, -356455.13, -26523.234, 0.05822241, 0.16198589, -190386.55, -41333.242, 0.0, 10.000475, 9.998326 
2.0501128e+2, 2.947914e+2, -111433.54, -264813.13, -22086.398, 0.11939121, 0.22007015, -108316.484, -57251.367, 0.000000000097020676, 10.000371, 9.998332 
2.0501046e+2, 3.0479026e+2, -7471.4595, -72912.15, -14736.606, 0.022714881, 0.22081509, -4306.0337, -4306.0337, 0.00000072960836, 10.000246, 9.99938 
2.0501052e+2, 3.147892e+2, -42828.625, -99689.87, 9743.409, 0.009146179, 0.17620476, -41205.39, -41205.39, 0.00001031642, 10.000044, 9.999292 
2.150086e+2, 1.2480841e+2, -1603170.0, -1654536.4, -53556.086, -0.026742652, 0.19423151, -1569457.3, 147443.88, 0.00045034575, 10.000736, 10.000057 
2.1500926e+2, 1.348085e+2, -1675739.6, -1758517.8, -9480.313, -0.019462582, 0.3085952, -1674667.8, -55764.41, 0.0002457903, 10.000083, 9.998986 
2.1500947e+2, 1.4480756e+2, -1533527.4, -1565900.6, -8762.192, -0.06272038, 0.2809166, -1531308.0, -10394.078, 0.00009091271, 10.000069, 9.999638 
2.1501012e+2, 1.548074e+2, -1349192.9, -1440067.1, -4352.345, -0.054681025, 0.30565232, -1348985.0, 73930.03, 0.000015871614, 10.000722, 9.999515 
2.150107e+2, 1.6480662e+2, -1254460.8, -1377153.8, -14168.971, -0.03539831, 0.29304463, -1252845.8, 72075.72, 0.00000031009594, 10.000844, 9.999215 
2.1501108e+2, 1.7480516e+2, -1222593.6, -1313713.3, -9726.01, -0.013512818, 0.2208615, -1221567.0, 5366.975, 0.0, 10.0004015, 9.999191 
2.1501134e+2, 1.8480407e+2, -1144290.9, -1247796.4, -3083.0852, -0.0058980226, 0.20429112, -1144199.1, -15254.891, 0.0, 10.000364, 9.99899 
2.1501154e+2, 1.9480346e+2, -988225.7, -1123947.5, 1917.261, -0.007794529, 0.24251987, -988198.6, 42752.613, 0.0, 10.000772, 9.99897 
2.1501143e+2, 2.0480272e+2, -882040.56, -1016469.7, -23309.01, -0.008125664, 0.26952758, -878113.6, 54845.293, 0.0, 10.000806, 9.999019 
2.1501097e+2, 2.1480182e+2, -838267.7, -945795.94, -30193.053, -0.008478075, 0.27371532, -830369.8, 4597.449, 0.0, 10.000438, 9.999008 
2.1501108e+2, 2.2480065e+2, -731305.4, -832866.0, -8250.754, 0.009074783, 0.25111365, -730639.5, 6337.533, 0.0, 10.000454, 9.999103 
2.150118e+2, 2.3479918e+2, -571312.4, -706283.0, -12881.769, 0.047506098, 0.18987797, -570093.94, 68894.055, 0.0, 10.000886, 9.99909 
2.1501173e+2, 2.4479783e+2, -502957.75, -691406.8, -46420.95, 0.049520746, 0.17690231, -492143.4, 48857.09, 0.0, 10.0009775, 9.998476 
2.1501076e+2, 2.5479662e+2, -446591.8, -615505.9, -37148.453, 0.008849588, 0.20668465, -438782.94, 4231.1304, 0.0, 10.000701, 9.998458 
2.1501057e+2, 2.6479527e+2, -356259.53, -498810.28, -4849.087, 0.007630322, 0.2191563, -356094.78, -11067.449, 0.0, 10.000551, 9.998658 
2.1501131e+2, 2.747938e+2, -262154.03, -404564.38, -8173.783, 0.056198824, 0.19717705, -261686.4, -14645.929, 0.0, 10.000533, 9.998641 
2.1501161e+2, 2.8479218e+2, -194344.03, -355416.38, -31585.186, 0.08729585, 0.18881142, -188371.83, -39315.375, 0.0, 10.000473, 9.998335 
2.1501122e+2, 2.9479074e+2, -110153.5, -262774.66, -25479.746, 0.076338895, 0.20542844, -106012.09, -54939.277, 0.0, 10.000372, 9.998346 
2.1501032e+2, 3.0479002e+2, -27344.16, -112672.66, -22059.74, -0.014986744, 0.26236436, -21978.52, -21978.52, 0.0000002906552, 10.000241, 9.999108 
2.1501127e+2, 3.14789e+2, -55042.08, -124745.23, -357.28268, 0.08019531, 0.24901311, -55040.246, -55040.246, 0.0000060416633, 10.000044, 9.999121 
2.2500885e+2, 1.2480763e+2, -1696632.6, -1691376.9, -53167.234, -0.041628033, 0.19503292, -1640772.6, 76136.914, 0.0003861587, 10.000061, 10.000131 
2.2500964e+2, 1.3480778e+2, -1601304.6, -1703530.8, 7948.0, -0.013072205, 0.29905498, -1600690.4, 18219.436, 0.00020573656, 10.000514, 9.999155 
2.2500986e+2, 1.4480688e+2, -1459225.4, -1531927.4, 20900.754, -0.056827392, 0.26549, -1453645.1, 67274.71, 0.00007189719, 10.000587, 9.999622 
2.250105e+2, 1.5480682e+2, -1416870.4, -1473988.8, 11777.131, -0.06653236, 0.30318198, -1414537.4, 8382.847, 0.000010694928, 10.000263, 9.999503 
2.2501107e+2, 1.6480604e+2, -1336017.5, -1403341.4, -12826.136, -0.05101741, 0.28606015, -1333656.8, -8730.019, 0.000000092361944, 10.000227, 9.999333 
2.2501145e+2, 1.748045e+2, -1200033.3, -1288684.5, -9687.805, -0.020258637, 0.19199292, -1198986.9, 27952.988, 0.0, 10.000496, 9.999317 
2.2501177e+2, 1.8480356e+2, -1115095.5, -1222989.5, 2892.2512, -0.0067736823, 0.18121105, -1115018.0, 13930.204, 0.0, 10.000518, 9.999086 
2.2501206e+2, 1.9480342e+2, -1052765.5, -1144248.4, 4381.7246, -0.0069443714, 0.25390518, -1052556.1, -21605.44, 0.0, 10.000283, 9.999067 
2.2501199e+2, 2.0480263e+2, -951563.06, -1062527.5, -20438.559, -0.0104396865, 0.2783266, -947918.2, -14959.621, 0.0, 10.000381, 9.998907 
2.250115e+2, 2.1480119e+2, -787292.7, -934102.9, -23173.021, -0.019726494, 0.24039678, -783721.8, 51250.34, 0.0, 10.000844, 9.998892 
2.2501163e+2, 2.247999e+2, -679955.0, -824072.25, 963.8449, -0.003190157, 0.21839306, -679948.56, 57035.137, 0.0, 10.000875, 9.99896 
2.2501242e+2, 2.3479876e+2, -646360.5, -758852.5, -3654.465, 0.04291399, 0.20431384, -646241.94, -7249.2407, 0.0, 10.000442, 9.998944 
2.2501244e+2, 2.447975e+2, -570776.7, -700167.75, -33359.41, 0.050879847, 0.19819379, -562682.4, -21678.143, 0.0, 10.000409, 9.998691 
2.2501156e+2, 2.5479615e+2, -415641.47, -576057.3, -26557.898, 0.014118425, 0.19101958, -411358.94, 31659.01, 0.0, 10.000808, 9.998677 
2.2501133e+2, 2.6479486e+2, -328945.13, -496701.28, -5391.1294, 0.016728055, 0.20013179, -328772.03, 16258.756, 0.0, 10.000788, 9.998559 
2.2501186e+2, 2.7479357e+2, -302082.88, -435691.6, -8405.42, 0.06932613, 0.21194994, -301556.16, -54513.34, 0.0, 10.000311, 9.998534 
2.2501202e+2, 2.8479198e+2, -228344.14, -371155.72, -16109.613, 0.09307346, 0.20944706, -226549.47, -77490.195, 0.0, 10.0002365, 9.998341 
2.2501157e+2, 2.947903e+2, -80836.45, -249196.77, -12288.313, 0.063565746, 0.20198967, -79944.28, -28866.482, 0.0, 10.000575, 9.9983425 
2.2501056e+2, 3.047898e+2, 13096.286, -108589.22, -17874.828, -0.031314306, 0.2920668, 15667.648, 15667.648, 0.000000085825576, 10.000584, 9.998973 
2.2501159e+2, 3.1478855e+2, -22568.035, -99177.42, 8766.698, 0.09751712, 0.26473454, -21577.633, -21577.633, 0.0000031779714, 10.000223, 9.99921 
2.3500866e+2, 1.2480748e+2, -1678673.9, -1654090.4, -43071.97, -0.07042573, 0.24950175, -1621590.6, 95323.18, 0.00032267286, 10.000062, 10.000385 
2.3501012e+2, 1.3480729e+2, -1577330.8, -1652415.5, 25562.318, -0.016000254, 0.28065518, -1569454.4, 49459.305, 0.0001666326, 10.000508, 9.999509 
2.3501056e+2, 1.4480607e+2, -1471830.9, -1556987.9, 8972.657, -0.045965537, 0.20970514, -1470895.8, 50029.35, 0.00005400246, 10.000583, 9.999453 
2.3501101e+2, 1.5480597e+2, -1429024.1, -1500385.9, 168.80891, -0.041275676, 0.26020578, -1429023.6, -6096.3477, 0.000006396683, 10.000268, 9.99932 
2.3501146e+2, 1.6480547e+2, -1327213.8, -1385991.4, -3596.7107, -0.03561803, 0.2731701, -1326994.4, -2061.983, 0.000000013163342, 10.000231, 9.99945 
2.3501179e+2, 1.7480455e+2, -1190956.6, -1269816.5, 869.517, -0.038118, 0.23231493, -1190947.1, 35993.215, 0.0, 10.000496, 9.999447 
2.3501207e+2, 1.8480386e+2, -1111419.3, -1214448.8, -5958.8525, -0.030228175, 0.2342002, -1111075.8, 17870.754, 0.0, 10.000515, 9.999146 
2.3501234e+2, 1.9480343e+2, -1048763.8, -1135955.3, -4124.6064, -0.007846664, 0.27410868, -1048569.0, -17618.82, 0.0, 10.000283, 9.999125 
2.3501253e+2, 2.0480233e+2, -955095.2, -1069212.3, -3799.3774, 0.004332509, 0.26564607, -954968.8, -22008.42, 0.0, 10.00038, 9.998862 
2.350126e+2, 2.1480054e+2, -791512.1, -941469.44, -5031.022, 0.004823993, 0.196105, -791343.5, 43633.574, 0.0, 10.000838, 9.998844 
2.3501259e+2, 2.2479925e+2, -689942.1, -843631.9, -15202.513, 0.0043856082, 0.18389645, -688452.8, 48536.387, 0.0, 10.000871, 9.998828 
2.3501249e+2, 2.347985e+2, -655242.2, -777066.5, -19376.771, 0.0040452513, 0.22335084, -652234.44, -13238.44, 0.0, 10.000441, 9.998819 
2.3501253e+2, 2.4479745e+2, -557131.4, -671961.9, -19313.271, 0.01825193, 0.2336578, -553970.1, -12964.232, 0.0, 10.000409, 9.998884 
2.3501268e+2, 2.547961e+2, -402717.28, -548315.94, -11087.575, 0.04528291, 0.20502084, -401877.8, 41140.68, 0.0, 10.000804, 9.99887 
2.3501253e+2, 2.6479477e+2, -335678.9, -509334.4, -23589.357, 0.056820225, 0.20743869, -332531.56, 12499.813, 0.0, 10.000782, 9.998475 
2.3501207e+2, 2.7479348e+2, -307513.97, -446409.2, -25921.836, 0.058484238, 0.22623734, -302833.88, -55789.11, 0.0, 10.000309, 9.998462 
2.3501205e+2, 2.8479183e+2, -229002.03, -372238.72, -3947.4414, 0.07242759, 0.22330289, -228893.33, -79831.5, 0.0, 10.000235, 9.998335 
2.350123e+2, 2.9479006e+2, -82597.41, -253194.05, 1312.327, 0.07771341, 0.20902543, -82587.31, -31507.035, 0.0, 10.000576, 9.998316 
2.3501119e+2, 3.0478966e+2, 12948.691, -107164.3, -31905.889, -0.028353797, 0.30846068, 20897.846, 20897.846, 0.000000016806371, 10.000577, 9.998985 
2.3501137e+2, 3.1478792e+2, 1013.92993, -48421.45, -8625.209, 0.05189856, 0.22917175, 2475.591, 2475.591, 0.0000014346882, 10.0002165, 9.999561 
2.4500905e+2, 1.2480772e+2, -1607338.5, -1625297.5, -1797.1595, -0.06202773, 0.29203364, -1607160.4, 109751.52, 0.00026299746, 10.000573, 10.000337 
2.4501066e+2, 1.3480708e+2, -1577139.9, -1646459.1, 46630.527, -0.010650641, 0.2740231, -1553698.8, 65216.156, 0.0001305452, 10.0004835, 9.999562 
2.4501106e+2, 1.4480563e+2, -1496521.3, -1575951.5, 11203.923, -0.047511898, 0.17766641, -1494971.1, 25957.125, 0.000038366878, 10.000443, 9.999391 
2.4501131e+2, 1.5480556e+2, -1410725.8, -1497776.4, 10422.099, -0.04625546, 0.23731036, -1409495.4, 13435.195, 0.000003303544, 10.000421, 9.999265 
2.450117e+2, 1.6480525e+2, -1311370.5, -1382895.4, 16492.383, -0.041322853, 0.27513406, -1307750.9, 17183.639, 0.00000000018007511, 10.00036, 9.99941 
2.450121e+2, 1.7480475e+2, -1225031.9, -1290512.4, 7262.2783, -0.044901986, 0.27874097, -1224236.1, 2703.5469, 0.0, 10.000281, 9.999409 
2.4501245e+2, 1.8480405e+2, -1120494.6, -1205966.6, -5010.17, -0.03735555, 0.2768953, -1120202.0, 8743.684, 0.0, 10.000397, 9.999262 
2.4501279e+2, 1.9480318e+2, -976745.8, -1087585.9, 973.66376, -0.013807492, 0.26020333, -976737.25, 54214.875, 0.0, 10.000719, 9.999246 
2.4501309e+2, 2.0480198e+2, -902642.6, -1043328.25, 7670.605, 0.0050655995, 0.23525289, -902225.6, 30737.096, 0.0, 10.000737, 9.998868 
2.4501336e+2, 2.1480046e+2, -851241.2, -970086.0, 9027.309, 0.017541835, 0.19267526, -850559.4, -15582.161, 0.0, 10.000427, 9.998847 
2.4501331e+2, 2.2479928e+2, -759543.94, -869429.1, 2655.1304, 0.015699407, 0.18855648, -759479.8, -22491.406, 0.0, 10.000359, 9.998898 
2.4501292e+2, 2.3479848e+2, -633455.0, -758640.75, 12516.895, -0.00067819364, 0.21400838, -632215.75, 6780.053, 0.0, 10.000555, 9.99889 
2.4501295e+2, 2.447974e+2, -528624.5, -657586.25, 23773.695, 0.011183733, 0.21831244, -524381.5, 16624.143, 0.0, 10.000603, 9.99889 
2.4501339e+2, 2.547961e+2, -447637.53, -569578.3, 17032.361, 0.05024421, 0.19377646, -445303.2, -2285.7756, 0.0, 10.000493, 9.998874 
2.4501318e+2, 2.6479483e+2, -374843.47, -538073.3, -11138.296, 0.055592295, 0.20698214, -374086.94, -29056.838, 0.0, 10.000555, 9.998386 
2.4501234e+2, 2.747936e+2, -244156.34, -426203.28, -15780.071, 0.031209782, 0.24322973, -242798.63, 4245.359, 0.0, 10.000788, 9.99837 
2.4501228e+2, 2.8479192e+2, -161659.56, -315396.53, 13349.538, 0.053826198, 0.23149347, -160508.98, -11447.879, 0.0, 10.000592, 9.998553 
2.4501285e+2, 2.9479003e+2, -159152.6, -266074.7, 35599.8, 0.10662947, 0.1798095, -148384.14, -97304.92, 0.0, 9.9999485, 9.9985285 
2.450116e+2, 3.0478966e+2, -120178.055, -193091.05, 9582.63, -0.002858583, 0.2808366, -118939.69, -118939.69, 0.0000000018495133, 9.999759, 9.998788 
2.4501126e+2, 3.1478783e+2, -19876.13, -42947.37, 7378.975, 0.031149462, 0.21374063, -17717.963, -17717.963, 0.00000052479436, 10.000006, 9.999701 
2.5501004e+2, 1.2480832e+2, -1633225.9, -1676800.5, -10550.512, -0.021715613, 0.3191317, -1630805.8, 86098.87, 0.000209724, 10.000564, 9.999989 
2.5501126e+2, 1.3480718e+2, -1593868.9, -1683497.1, 44067.62, -0.0020274117, 0.27822974, -1575831.9, 43081.66, 0.00009902971, 10.000492, 9.999305 
2.5501132e+2, 1.4480549e+2, -1491684.9, -1567310.9, 9479.086, -0.0674628, 0.16973166, -1490514.9, 30414.688, 0.000025643241, 10.00045, 9.999447 
2.5501138e+2, 1.5480556e+2, -1405785.5, -1486485.8, 9467.119, -0.084461614, 0.23484854, -1404689.8, 18240.129, 0.0000014046367, 10.000416, 9.999345 
2.5501177e+2, 1.648054e+2, -1326627.3, -1413042.9, 12960.11, -0.070645764, 0.29206312, -1324725.4, 207.41216, 0.0, 10.000354, 9.999206 
2.550124e+2, 1.7480505e+2, -1239652.4, -1321723.5, 4767.1206, -0.043624695, 0.3312681, -1239376.4, -12438.36, 0.0, 10.000285, 9.999193 
2.550129e+2, 1.8480413e+2, -1107706.6, -1179803.8, 6587.292, -0.031919025, 0.30929166, -1107109.6, 21836.36, 0.0, 10.000399, 9.99944 
2.5501338e+2, 1.9480263e+2, -963747.75, -1059969.6, 13570.3125, -0.02756676, 0.21184374, -961870.5, 69086.09, 0.0, 10.000717, 9.999436 
2.5501367e+2, 2.0480154e+2, -899790.56, -1035923.7, -3822.112, -0.0106626935, 0.18651643, -899683.3, 33282.31, 0.0, 10.000731, 9.998921 
2.5501376e+2, 2.1480095e+2, -847952.0, -962422.06, -2081.2976, 0.016413806, 0.23107913, -847914.2, -12941.617, 0.0, 10.000424, 9.9989 
2.550138e+2, 2.2479998e+2, -740723.3, -830166.94, 9137.663, 0.028388264, 0.2323022, -739799.3, -2817.936, 0.0, 10.000358, 9.999168 
2.5501373e+2, 2.3479863e+2, -615221.2, -719630.9, 20368.07, 0.025644448, 0.17665337, -611388.5, 27603.592, 0.0, 10.00055, 9.999161 
2.550137e+2, 2.4479733e+2, -541576.7, -683521.25, 19301.387, 0.025793044, 0.15305664, -538998.94, 2004.4999, 0.0, 10.000599, 9.9987135 
2.5501364e+2, 2.5479612e+2, -460027.88, -594882.8, 13491.922, 0.026574733, 0.15703131, -458691.28, -15676.465, 0.0, 10.000492, 9.9987 
2.550133e+2, 2.64795e+2, -381726.63, -553022.8, -2717.3555, 0.010850586, 0.19779508, -381683.53, -36656.453, 0.0, 10.000558, 9.998284 
2.5501266e+2, 2.7479398e+2, -252196.17, -442976.38, -6621.225, -0.016374797, 0.2627842, -251966.66, -4926.0835, 0.0, 10.000787, 9.998257 
2.5501266e+2, 2.847923e+2, -131182.84, -250641.61, -11297.209, 0.0329391, 0.23403737, -130123.85, 18933.365, 0.0, 10.0005865, 9.999001 
2.550132e+2, 2.9479015e+2, -127078.695, -198015.08, 12091.068, 0.14538443, 0.11420544, -125074.414, -73999.734, 0.0, 9.999944, 9.998998 
2.550118e+2, 3.0478975e+2, -149422.88, -254070.19, 18980.51, 0.041238394, 0.20848463, -146086.64, -146086.64, 0.000000000039700524, 9.999758, 9.998371 
2.5501126e+2, 3.1478825e+2, -24707.14, -54709.33, 12933.066, 0.028065242, 0.21560392, -19901.746, -19901.746, 0.00000015406697, 10.000011, 9.999619 
2.6501074e+2, 1.2480793e+2, -1620565.6, -1692667.5, -48158.027, -0.015450462, 0.28182265, -1596459.5, 120447.305, 0.0001649167, 10.000743, 9.999793 
2.6501167e+2, 1.3480721e+2, -1604531.4, -1700505.8, 23117.455, -0.0074381195, 0.29211152, -1599253.4, 19660.13, 0.000073287774, 10.000469, 9.999199 
2.6501167e+2, 1.4480567e+2, -1501034.9, -1561554.9, 3901.9058, -0.072329655, 0.19853029, -1500784.4, 20144.205, 0.000016155976, 10.000341, 9.999538 
2.6501188e+2, 1.5480562e+2, -1403390.1, -1473217.0, 4021.0483, -0.071304426, 0.24174032, -1403159.3, 19769.828, 0.00000046134082, 10.000381, 9.999453 
2.6501235e+2, 1.6480528e+2, -1310226.9, -1407486.1, 17432.396, -0.054099698, 0.27790827, -1307196.8, 17736.252, 0.0, 10.000477, 9.999185 
2.6501286e+2, 1.748047e+2, -1192155.6, -1301549.3, 22549.404, -0.043185417, 0.29752484, -1187689.9, 39250.086, 0.0, 10.000623, 9.999169 
2.6501328e+2, 1.8480378e+2, -1083448.1, -1165560.4, 26021.21, -0.041272007, 0.2764181, -1075896.6, 53051.445, 0.0, 10.000555, 9.999463 
2.6501372e+2, 1.9480255e+2, -1027451.7, -1087928.3, 19554.424, -0.03995032, 0.20165764, -1021679.9, 9277.066, 0.0, 10.000268, 9.999461 
2.6501408e+2, 2.0480165e+2, -961459.1, -1053014.3, -2252.216, -0.018919412, 0.18807822, -961403.75, -28439.299, 0.0, 10.000253, 9.999035 
2.650143e+2, 2.1480116e+2, -824210.6, -938212.06, 3988.2134, 0.019411733, 0.23185813, -824071.3, 10898.831, 0.0, 10.000531, 9.999016 
2.6501435e+2, 2.2480026e+2, -695611.75, -808291.9, 12364.867, 0.032433953, 0.23455954, -694270.9, 42707.37, 0.0, 10.000668, 9.999169 
2.650143e+2, 2.3479897e+2, -600421.1, -712641.06, 1991.4045, 0.019169083, 0.18405384, -600385.8, 38602.746, 0.0, 10.000652, 9.99916 
2.650142e+2, 2.4479763e+2, -545225.5, -678277.2, -8642.638, 0.016669763, 0.15547173, -544666.44, -3666.5918, 0.0, 10.000544, 9.998776 
2.65014e+2, 2.5479633e+2, -478854.78, -596536.3, 3091.0447, 0.023537708, 0.1415765, -478773.66, -35761.973, 0.0, 10.000331, 9.998766 
2.650137e+2, 2.6479512e+2, -431620.3, -568537.9, 12144.922, 0.0149032, 0.16732147, -430551.38, -85527.13, 0.0, 10.000178, 9.99836 
2.6501322e+2, 2.7479407e+2, -346921.63, -479910.88, 21772.994, -0.004592178, 0.22274382, -343447.72, -96410.01, 0.0, 10.0001, 9.998333 
2.6501313e+2, 2.8479257e+2, -198848.73, -284912.2, -3978.7827, 0.04300194, 0.20793056, -198665.19, -49612.277, 0.0, 10.000132, 9.998983 
2.6501328e+2, 2.9479077e+2, -85017.25, -180252.33, -19309.658, 0.14460872, 0.12382214, -81251.01, -30183.24, 0.0, 10.000244, 9.998976 
2.650118e+2, 3.047901e+2, -78106.1, -230252.11, -3058.5796, 0.037027285, 0.197824, -78044.64, -78044.64, 0.0, 10.000294, 9.998276 
2.650115e+2, 3.1478834e+2, 35189.164, -912.5953, 9294.386, 0.031641945, 0.18802224, 37441.48, 37441.48, 0.000000038019415, 10.0003195, 9.999838 
2.7501118e+2, 1.2480655e+2, -1622240.9, -1696201.4, -68750.76, -0.050462924, 0.18154559, -1581155.8, 135762.98, 0.00012966055, 10.000745, 9.999767 
2.750119e+2, 1.3480715e+2, -1601575.3, -1692720.5, 12308.562, -0.030488098, 0.31648466, -1599942.3, 18972.51, 0.00005392466, 10.000463, 9.999256 
2.7501208e+2, 1.448061e+2, -1492924.9, -1543219.9, 4564.362, -0.0662361, 0.26392767, -1492514.0, 28411.47, 0.0000098627, 10.000335, 9.999668 
2.7501288e+2, 1.5480568e+2, -1393590.1, -1453874.1, 6036.3516, -0.011330989, 0.25708935, -1392991.6, 29936.69, 0.00000011248763, 10.000385, 9.999583 
2.7501342e+2, 1.6480488e+2, -1298666.0, -1384275.9, 22096.7, 0.0036719888, 0.23210074, -1293299.1, 31635.875, 0.0, 10.000481, 9.999343 
2.7501345e+2, 1.7480372e+2, -1180673.1, -1277238.9, 28040.162, -0.046257224, 0.17827274, -1173121.5, 53823.918, 0.0, 10.000621, 9.999337 
2.7501357e+2, 1.8480305e+2, -1093774.6, -1185733.1, 14930.0, -0.068373725, 0.17897657, -1091411.4, 37540.36, 0.0, 10.000549, 9.999328 
2.750139e+2, 1.9480294e+2, -1037927.25, -1109366.1, 9047.464, -0.05347555, 0.2302128, -1036799.25, -5846.102, 0.0, 10.000266, 9.999314 
2.750143e+2, 2.0480227e+2, -949165.6, -1026820.44, 7578.5713, -0.022230998, 0.23982178, -948432.94, -15473.735, 0.0, 10.000251, 9.999216 
2.7501485e+2, 2.1480109e+2, -811617.44, -911082.1, 15172.214, 0.023959149, 0.1949062, -809354.56, 25615.428, 0.0, 10.000527, 9.999205 
2.7501497e+2, 2.2480012e+2, -715654.94, -848400.9, 11766.212, 0.024533408, 0.19515571, -714620.06, 22358.83, 0.0, 10.000661, 9.998897 
2.7501452e+2, 2.3479947e+2, -619941.2, -752829.3, 2040.4592, -0.021342024, 0.23572129, -619909.9, 19075.416, 0.0, 10.000651, 9.998884 
2.750144e+2, 2.447983e+2, -524038.44, -634555.9, -16966.953, -0.017852858, 0.22435965, -521492.28, 19502.775, 0.0, 10.000545, 9.999076 
2.750145e+2, 2.5479668e+2, -457911.6, -552355.75, -4643.7373, 0.036840748, 0.14757311, -457683.8, -14675.746, 0.0, 10.000327, 9.999072 
2.7501437e+2, 2.6479518e+2, -414021.4, -530456.25, 8387.918, 0.06299118, 0.11662733, -413420.25, -68398.69, 0.0, 10.000173, 9.998624 
2.75014e+2, 2.7479392e+2, -328396.5, -440200.2, 19728.018, 0.06387367, 0.12321333, -325017.56, -77982.17, 0.0, 10.000095, 9.998607 
2.7501366e+2, 2.8479275e+2, -233120.33, -356437.66, 265.44315, 0.08169172, 0.15182921, -233119.75, -84071.44, 0.0, 10.000133, 9.998492 
2.750131e+2, 2.9479185e+2, -121015.79, -256050.63, -14668.393, 0.100053616, 0.20801656, -119440.78, -68382.16, 0.0, 10.000247, 9.998454 
2.750115e+2, 3.0479068e+2, -62483.707, -197877.38, -3191.1409, -0.021121435, 0.24901906, -62408.535, -62408.535, 0.0, 10.000295, 9.998497 
2.750118e+2, 3.14788e+2, 69631.69, 72368.84, 4997.787, 0.031935375, 0.1252033, 76182.055, 76182.055, 0.00000000643165, 10.000313, 10.000343 
2.8501147e+2, 1.2480608e+2, -1703842.9, -1725891.9, -59699.402, -0.06405247, 0.1573578, -1654158.6, 62764.35, 0.00010364884, 10.000145, 9.999853 
2.8501233e+2, 1.3480695e+2, -1557515.0, -1650408.9, 37147.723, -0.044441853, 0.30044967, -1544487.0, 74429.24, 0.000040612387, 10.000674, 9.999445 
2.850126e+2, 1.4480607e+2, -1415922.4, -1508885.5, 22296.537, -0.07378911, 0.25800696, -1410851.3, 110073.98, 0.0000062724685, 10.000876, 9.999642 
2.850135e+2, 1.5480572e+2, -1352884.5, -1436789.0, 10249.188, -0.0018452388, 0.26000062, -1351650.6, 71277.195, 0.000000028346124, 10.000676, 9.999561 
2.8501397e+2, 1.6480492e+2, -1294769.0, -1362879.8, 22318.154, 0.015939072, 0.22803429, -1288107.4, 36826.742, 0.0, 10.000424, 9.9995165 
2.8501382e+2, 1.7480372e+2, -1237491.0, -1284357.8, 28280.205, -0.047935937, 0.15166211, -1224197.0, 2746.7703, 0.0, 10.000145, 9.999517 
2.8501388e+2, 1.8480313e+2, -1164439.0, -1226250.3, 19871.236, -0.06954963, 0.1547773, -1158602.0, -29652.715, 0.0, 10.000093, 9.999269 
2.8501427e+2, 1.9480325e+2, -1040010.06, -1117883.6, 18946.232, -0.03956902, 0.23592709, -1035645.2, -4695.3716, 0.0, 10.000284, 9.999248 
2.8501478e+2, 2.0480265e+2, -917867.75, -1005398.8, 25461.719, -0.010377938, 0.25080776, -911000.1, 21955.605, 0.0, 10.000438, 9.999273 
2.850153e+2, 2.148013e+2, -803811.06, -900035.6, 22632.791, 0.015123453, 0.18451306, -798753.5, 36213.484, 0.0, 10.00055, 9.999269 
2.850154e+2, 2.2480027e+2, -738026.6, -864946.9, 13307.15, 0.011381456, 0.1773964, -736646.44, 329.92584, 0.0, 10.000532, 9.998846 
2.8501505e+2, 2.3479964e+2, -664551.2, -780379.06, 19981.613, -0.021310017, 0.22555275, -661201.0, -22217.707, 0.0, 10.000371, 9.998831 
2.850149e+2, 2.4479857e+2, -557586.6, -649676.1, 50.48453, -0.012052419, 0.22453919, -557586.56, -16593.686, 0.0, 10.00031, 9.999085 
2.8501487e+2, 2.5479707e+2, -451925.72, -548096.8, -10996.517, 0.039404847, 0.16198115, -450684.38, -7679.5366, 0.0, 10.000363, 9.9990835 
2.8501466e+2, 2.647957e+2, -372932.13, -486787.47, -10669.263, 0.06482432, 0.1267421, -371940.94, -26923.74, 0.0, 10.000353, 9.9988365 
2.850142e+2, 2.7479437e+2, -289886.28, -396700.94, -4095.341, 0.069028884, 0.10848464, -289729.47, -42699.54, 0.0, 10.000253, 9.99883 
2.850138e+2, 2.8479326e+2, -223070.78, -368545.94, -3346.9653, 0.07521366, 0.13967484, -222993.81, -73951.695, 0.0, 10.000275, 9.998341 
2.8501308e+2, 2.947925e+2, -101772.26, -264488.47, 7446.7246, 0.06558656, 0.22711624, -101432.164, -50379.91, 0.0, 10.000458, 9.998293 
2.8501162e+2, 3.047909e+2, -64894.023, -201403.52, 8863.105, -0.03873538, 0.2353102, -64320.977, -64320.977, 0.0, 10.000289, 9.998475 
2.8501222e+2, 3.147885e+2, -16331.78, 40738.438, -11815.917, 0.07468087, 0.1374042, 43088.09, 43088.09, 0.00000000043435586, 9.999678, 10.000434 
2.9501167e+2, 1.2480651e+2, -1690494.1, -1698360.0, -49318.832, -0.064288124, 0.20815253, -1644951.6, 71967.78, 0.000085497144, 10.000145, 10.000043 
2.9501295e+2, 1.348066e+2, -1535511.1, -1604949.1, 57813.867, -0.052532632, 0.24313655, -1502792.4, 116125.37, 0.000032281903, 10.000675, 9.999756 
2.9501325e+2, 1.4480561e+2, -1429041.6, -1536055.6, 15011.093, -0.09773445, 0.1811358, -1426975.9, 93951.98, 0.0000046245973, 10.000876, 9.999456 
2.9501373e+2, 1.5480575e+2, -1366195.3, -1463457.0, 2644.6636, -0.047239024, 0.25262597, -1366123.4, 56804.234, 0.00000001715619, 10.000672, 9.999379 
2.9501402e+2, 1.6480544e+2, -1281821.8, -1335192.9, 10964.208, -0.022136211, 0.26749077, -1279657.1, 45273.17, 0.0, 10.000421, 9.999709 
2.9501393e+2, 1.7480467e+2, -1224200.1, -1256096.1, 18192.453, -0.050822597, 0.21630819, -1215955.0, 10980.129, 0.0, 10.000142, 9.999712 
2.950142e+2, 1.8480404e+2, -1164527.0, -1225699.5, 26571.465, -0.04749626, 0.20245622, -1154597.0, -25656.195, 0.0, 10.000091, 9.999274 
2.9501498e+2, 1.9480348e+2, -1039767.44, -1116977.5, 26536.799, -0.00033262034, 0.21867833, -1031526.44, -579.2739, 0.0, 10.000283, 9.999255 
2.9501545e+2, 2.0480274e+2, -923131.6, -1015202.1, 29441.285, 0.014112041, 0.22122994, -914522.25, 18431.785, 0.0, 10.000433, 9.999208 
2.9501563e+2, 2.1480177e+2, -808964.5, -910050.4, 27479.066, -0.009356493, 0.2002024, -801977.56, 32983.65, 0.0, 10.000546, 9.999202 
2.9501572e+2, 2.2480068e+2, -726385.94, -839733.5, 6954.2256, -0.0100414045, 0.18055993, -725960.9, 11009.958, 0.0, 10.000528, 9.999021 
2.950158e+2, 2.3479947e+2, -652627.2, -754761.7, 14334.259, 0.016184123, 0.15393089, -650653.56, -11670.792, 0.0, 10.000366, 9.999009 
2.9501563e+2, 2.447984e+2, -577734.7, -690508.0, 1525.4076, 0.03067909, 0.15682766, -577714.06, -36720.676, 0.0, 10.000305, 9.998807 
2.9501513e+2, 2.5479752e+2, -472317.44, -589942.6, -8229.67, 0.02958663, 0.18380581, -471744.44, -28742.371, 0.0, 10.000361, 9.998797 
2.9501456e+2, 2.647965e+2, -362258.3, -464261.4, -14715.266, 0.019366648, 0.19591151, -360177.88, -15166.432, 0.0, 10.000351, 9.998992 
2.9501384e+2, 2.7479538e+2, -278431.22, -372617.97, -7699.2246, 0.005991512, 0.17817585, -277806.0, -30784.543, 0.0, 10.000252, 9.998997 
2.950135e+2, 2.8479406e+2, -210270.56, -341420.56, 2280.595, 0.018020608, 0.17256519, -210230.92, -61196.63, 0.0, 10.000273, 9.998528 
2.9501328e+2, 2.947927e+2, -89134.664, -236479.23, 15237.79, 0.038345575, 0.1813299, -87575.336, -36526.58, 0.0, 10.00045, 9.998489 
2.9501212e+2, 3.047908e+2, -84606.984, -240726.11, -13325.453, -0.017397396, 0.15689813, -83477.77, -83477.77, 0.0, 10.000282, 9.998209 
2.9501268e+2, 3.147896e+2, -36621.4, -3273.4607, -38585.22, 0.15126093, 0.20933367, 22086.37, 22086.37, 0.0, 9.999686, 10.000127 
3.0501193e+2, 1.2480712e+2, -1637495.4, -1673411.3, -20736.174, -0.06938857, 0.23731467, -1628022.0, 88891.88, 0.000073591786, 10.000516, 10.000034 
3.0501357e+2, 1.3480689e+2, -1584095.0, -1619531.0, 77168.83, -0.03648431, 0.23121871, -1522636.3, 96278.01, 0.000027638554, 10.000304, 9.999836 
3.0501392e+2, 1.448058e+2, -1518046.4, -1580931.6, 26664.791, -0.08892267, 0.15690336, -1508262.1, 12662.705, 0.000004191702, 10.000276, 9.999437 
3.0501392e+2, 1.5480602e+2, -1404150.1, -1483930.3, 24228.31, -0.08303715, 0.23779027, -1397368.6, 25555.715, 0.000000032166714, 10.0004225, 9.99936 
3.0501422e+2, 1.6480581e+2, -1267490.0, -1334867.6, 27873.61, -0.05246692, 0.26839638, -1257453.8, 67472.59, 0.0, 10.000549, 9.999648 
3.0501455e+2, 1.7480524e+2, -1153377.5, -1229164.0, 14242.711, -0.027292695, 0.24090941, -1150789.3, 76140.91, 0.0, 10.00066, 9.999648 
3.050149e+2, 1.8480453e+2, -1075666.0, -1184184.9, 19523.74, -0.014357125, 0.22703141, -1072260.3, 56675.887, 0.0, 10.000707, 9.999262 
3.0501541e+2, 1.9480374e+2, -978987.56, -1087700.5, 17988.445, -0.003906972, 0.21797906, -976088.4, 54856.152, 0.0, 10.000703, 9.999252 
3.0501577e+2, 2.0480287e+2, -896454.8, -998942.7, 19342.47, -0.0061068614, 0.20745057, -892925.8, 40026.297, 0.0, 10.000603, 9.999238 
3.0501592e+2, 2.1480195e+2, -829085.7, -916695.2, 23660.447, -0.026302697, 0.18842289, -823104.2, 11854.313, 0.0, 10.000396, 9.999229 
3.0501607e+2, 2.2480091e+2, -756023.2, -844948.5, 3191.6846, -0.016109658, 0.16877955, -755908.8, -18941.396, 0.0, 10.000284, 9.999104 
3.0501625e+2, 2.3479977e+2, -659417.25, -748331.7, 2255.1467, 0.028751783, 0.13954177, -659360.06, -20381.367, 0.0, 10.000278, 9.999096 
3.0501607e+2, 2.4479878e+2, -568642.8, -678291.8, 5773.0723, 0.044468638, 0.14304839, -568339.7, -27351.105, 0.0, 10.000335, 9.998878 
3.050155e+2, 2.54798e+2, -453738.9, -573106.3, 22500.252, 0.026665954, 0.17415802, -449638.56, -6642.127, 0.0, 10.000455, 9.998868 
3.0501476e+2, 2.647971e+2, -354666.1, -472699.28, 14124.671, 0.0005983506, 0.1977495, -352999.38, -7994.0244, 0.0, 10.000457, 9.998883 
3.0501384e+2, 2.7479607e+2, -274115.94, -383095.8, -1299.1049, -0.028401837, 0.20116924, -274100.44, -27085.19, 0.0, 10.000338, 9.998882 
3.0501348e+2, 2.8479475e+2, -220334.55, -324388.13, -648.9325, -0.0023944613, 0.18939994, -220330.5, -71302.34, 0.0, 10.000111, 9.998723 
3.0501363e+2, 2.9479322e+2, -178118.4, -256630.89, 11883.246, 0.06727808, 0.15972336, -176359.23, -125316.04, 0.0, 9.999742, 9.9986925 
3.0501252e+2, 3.047911e+2, -134548.6, -251161.45, 5012.7036, 0.015782231, 0.10207911, -134333.52, -134333.52, 0.0, 9.99988, 9.998331 
3.0501258e+2, 3.14791e+2, 88371.625, 53407.543, 1902.043, 0.127697, 0.25005248, 88474.79, 88474.79, 0.0, 10.000561, 10.000095 
3.1501234e+2, 1.2480794e+2, -1652646.5, -1704928.9, -39235.313, -0.08237954, 0.24630207, -1631641.4, 85264.64, 0.00006650563, 10.000515, 9.999819 
3.150142e+2, 1.3480783e+2, -1593091.0, -1639422.9, 70450.68, -0.0052735326, 0.26678148, -1542095.3, 76810.25, 0.000025576577, 10.00031, 9.999697 
3.1501454e+2, 1.4480668e+2, -1507801.4, -1560829.1, 31411.152, -0.057198454, 0.18743394, -1493210.0, 27706.03, 0.000004447986, 10.000279, 9.999575 
3.1501406e+2, 1.5480652e+2, -1395130.1, -1463834.8, 30225.16, -0.11101973, 0.21416478, -1383726.1, 39192.063, 0.00000006594377, 10.000417, 9.9995 
3.1501454e+2, 1.6480608e+2, -1291269.1, -1382869.8, 31564.264, -0.07660286, 0.23028563, -1281446.0, 43476.46, 0.0, 10.000543, 9.999322 
3.1501567e+2, 1.748054e+2, -1176948.4, -1277744.1, 18720.7, 0.018585097, 0.2269484, -1173583.8, 53344.83, 0.0, 10.000658, 9.999315 
3.1501603e+2, 1.8480471e+2, -1077451.0, -1187879.0, 18790.352, 0.024404982, 0.23086008, -1074341.3, 54593.95, 0.0, 10.000706, 9.999238 
3.1501564e+2, 1.94804e+2, -980639.4, -1090528.9, 18320.652, -0.052296974, 0.23247947, -977665.44, 53276.668, 0.0, 10.000699, 9.999236 
3.1501567e+2, 2.0480303e+2, -889088.44, -981765.6, 11489.88, -0.07338492, 0.20836729, -887685.2, 45264.973, 0.0, 10.000595, 9.999359 
3.150162e+2, 2.1480185e+2, -821149.4, -899128.94, 16498.166, -0.038288515, 0.14903401, -817802.5, 17156.494, 0.0, 10.000391, 9.999352 
3.1501642e+2, 2.2480099e+2, -757309.9, -846759.06, 2587.147, -0.009667298, 0.14209999, -757235.1, -20268.951, 0.0, 10.00028, 9.999093 
3.150164e+2, 2.3480052e+2, -660375.5, -750264.1, 2614.3945, 0.014663244, 0.18147661, -660299.5, -21328.115, 0.0, 10.000278, 9.9990835 
3.1501624e+2, 2.447997e+2, -539814.06, -617743.44, 9535.1, 0.027135173, 0.18211527, -538664.4, 2314.415, 0.0, 10.000332, 9.999294 
3.1501597e+2, 2.5479856e+2, -423825.63, -510106.03, 27193.049, 0.025777165, 0.13304406, -415970.38, 27017.646, 0.0, 10.000451, 9.999303 
3.1501526e+2, 2.6479745e+2, -381358.44, -527452.44, 9228.405, 0.0044508628, 0.13325639, -380777.8, -35778.938, 0.0, 10.000454, 9.998508 
3.1501406e+2, 2.7479643e+2, -302310.28, -440610.7, -5004.829, -0.036400206, 0.17712957, -302129.4, -55118.035, 0.0, 10.000333, 9.998489 
3.1501374e+2, 2.8479522e+2, -207822.97, -296604.97, -15020.216, 0.012837613, 0.18940273, -205350.69, -56326.82, 0.0, 10.000103, 9.998918 
3.1501418e+2, 2.947939e+2, -162421.8, -224958.44, -1509.789, 0.14600514, 0.16114618, -162385.38, -111349.66, 0.0, 9.999746, 9.998908 
3.150128e+2, 3.0479184e+2, -98365.53, -177618.45, 29181.908, 0.054905567, 0.07007239, -88779.8, -88779.8, 0.0, 9.9998865, 9.998834 
3.1501183e+2, 3.1479254e+2, 105696.9, 90988.17, 23048.096, -0.0036749267, 0.24973449, 122535.54, 122535.54, 0.0, 10.000553, 10.000358 
3.250129e+2, 1.2480837e+2, -1672972.3, -1716550.6, -74413.63, -0.07093918, 0.24985203, -1617223.4, 99678.805, 0.00006287029, 10.000386, 9.999799 
3.2501453e+2, 1.348085e+2, -1562759.5, -1617525.6, 59942.33, -0.012119815, 0.28695953, -1524241.8, 94657.26, 0.000025189593, 10.000486, 9.999762 
3.2501498e+2, 1.4480737e+2, -1466610.3, -1549296.4, 26738.807, -0.05279188, 0.21016623, -1458717.0, 62192.074, 0.0000050024137, 10.0006, 9.999498 
3.2501486e+2, 1.5480682e+2, -1364767.9, -1457167.6, 7371.3677, -0.08246207, 0.2072484, -1364183.5, 58730.72, 0.000000115129794, 10.000659, 9.999429 
3.2501534e+2, 1.6480617e+2, -1280900.8, -1386468.6, 8884.252, -0.053629242, 0.20788887, -1280158.3, 44762.332, 0.0, 10.000652, 9.999244 
3.2501614e+2, 1.7480543e+2, -1191146.4, -1292570.0, 14374.787, 0.0015178476, 0.20655708, -1189148.4, 37779.21, 0.0, 10.000597, 9.999242 
3.250164e+2, 1.8480477e+2, -1102008.3, -1194317.9, 24535.2, 0.0025910982, 0.21413046, -1095892.3, 33041.676, 0.0, 10.000515, 9.999285 
3.250163e+2, 1.9480416e+2, -1019646.2, -1104212.3, 27705.775, -0.043812722, 0.22243242, -1011377.6, 19561.717, 0.0, 10.000408, 9.999283 
3.2501635e+2, 2.0480327e+2, -921231.5, -999510.25, 18400.256, -0.0550169, 0.20304562, -917122.06, 15824.827, 0.0, 10.000382, 9.999341 
3.2501668e+2, 2.1480209e+2, -814681.75, -897277.75, 11761.015, -0.03191332, 0.14656873, -813039.7, 21916.64, 0.0, 10.000442, 9.99934 
3.2501674e+2, 2.2480126e+2, -728908.4, -828104.25, -2523.6023, -0.01515739, 0.13955013, -728844.25, 8119.16, 0.0, 10.000455, 9.999137 
3.2501653e+2, 2.348008e+2, -636884.06, -733823.56, 1324.8651, -0.0030962825, 0.17636593, -636865.94, 2101.787, 0.0, 10.000418, 9.999129 
3.2501638e+2, 2.4479997e+2, -548816.94, -623865.5, -5933.3057, 0.010564037, 0.17619637, -548350.75, -7375.8604, 0.0, 10.0002775, 9.999278 
3.2501617e+2, 2.5479883e+2, -486829.8, -542510.6, -23099.89, 0.024372948, 0.12834062, -478494.34, -35509.67, 0.0, 10.000028, 9.999285 
3.250156e+2, 2.6479766e+2, -437082.0, -543884.44, -35603.164, 0.015788361, 0.119006, -426301.63, -81305.336, 0.0, 10.000026, 9.998602 
3.2501462e+2, 2.7479655e+2, -301382.44, -429439.28, -13827.347, -0.013928174, 0.14194916, -299906.4, -52896.637, 0.0, 10.000292, 9.998587 
3.2501414e+2, 2.8479552e+2, -153231.13, -268406.3, -17798.373, 0.022731906, 0.16893199, -150543.4, -1523.0958, 0.0, 10.00047, 9.998934 
3.2501405e+2, 2.947948e+2, -46958.973, -167711.22, -20722.719, 0.11906063, 0.19452977, -43501.66, 7525.4795, 0.0, 10.000533, 9.998922 
3.2501268e+2, 3.0479267e+2, -14842.383, -121993.02, 862.33966, 0.028635476, 0.08966266, -14835.442, -14835.442, 0.0, 10.000394, 9.998971 
3.250121e+2, 3.1479302e+2, 17243.73, 27676.27, -39363.37, -0.0060234326, 0.2255829, 62167.49, 62167.49, 0.0, 10.000032, 10.000174 
3.3501348e+2, 1.2480846e+2, -1660575.5, -1693358.0, -82316.84, -0.05005409, 0.25009495, -1593033.9, 123867.7, 0.000061273975, 10.000397, 9.999954 
3.3501458e+2, 1.3480891e+2, -1545438.0, -1580066.3, 65375.97, -0.055977043, 0.29200834, -1495122.3, 123772.62, 0.000025556885, 10.00048, 10.000023 
3.350154e+2, 1.4480788e+2, -1487768.5, -1591886.0, 29624.504, -0.07513073, 0.22558048, -1479929.6, 40974.227, 0.0000055599335, 10.000593, 9.999209 
3.350163e+2, 1.5480699e+2, -1384583.9, -1498398.0, 10473.175, -0.0060735783, 0.21860625, -1383628.1, 39284.234, 0.00000016881297, 10.000661, 9.9991455 
3.3501664e+2, 1.6480611e+2, -1268209.8, -1361257.5, 6199.657, 0.0064567197, 0.20363306, -1267798.5, 57122.008, 0.0, 10.000656, 9.999416 
3.3501592e+2, 1.7480531e+2, -1178778.3, -1266429.0, 12874.094, -0.078756206, 0.1780421, -1176926.4, 50000.87, 0.0, 10.000594, 9.999424 
3.350161e+2, 1.848047e+2, -1095189.3, -1178612.8, 20243.459, -0.08117361, 0.17582247, -1090536.5, 38396.043, 0.0, 10.000508, 9.999395 
3.350173e+2, 1.9480425e+2, -1012802.8, -1089660.5, 24214.727, 0.018225048, 0.1880466, -1005809.94, 25126.344, 0.0, 10.000406, 9.999384 
3.3501777e+2, 2.0480357e+2, -932751.9, -1022352.2, 20182.578, 0.044748053, 0.19268805, -928415.56, 4526.836, 0.0, 10.000378, 9.9991865 
3.3501732e+2, 2.1480267e+2, -825843.94, -920231.44, 14673.351, -0.010037809, 0.18008082, -823615.44, 11335.265, 0.0, 10.00044, 9.999184 
3.35017e+2, 2.2480166e+2, -722468.4, -813816.06, -4369.505, -0.03566911, 0.16039409, -722259.9, 14699.388, 0.0, 10.000451, 9.999237 
3.3501673e+2, 2.3480058e+2, -629296.1, -717700.0, 374.5217, -0.027136592, 0.12417868, -629294.56, 9673.247, 0.0, 10.000416, 9.999241 
3.350165e+2, 2.4479964e+2, -580871.44, -689891.06, -15549.488, -0.008021644, 0.12564026, -578697.0, -37720.06, 0.0, 10.000276, 9.998826 
3.3501616e+2, 2.5479883e+2, -519970.78, -610757.4, -31857.387, 0.02007026, 0.15990418, -509907.38, -66920.97, 0.0, 10.000025, 9.9988165 
3.350158e+2, 2.6479775e+2, -398913.97, -463505.3, -26661.008, 0.033107754, 0.15446636, -389331.0, -44333.383, 0.0, 10.000021, 9.999157 
3.350154e+2, 2.7479637e+2, -259962.06, -343193.8, -3445.86, 0.033978913, 0.09469741, -259819.66, -12809.132, 0.0, 10.000292, 9.999179 
3.3501458e+2, 2.8479564e+2, -164839.88, -292390.97, -15728.355, 0.02235129, 0.12773411, -162929.03, -13911.491, 0.0, 10.000468, 9.99877 
3.3501324e+2, 2.947958e+2, -60365.12, -194155.17, -17286.014, -0.016482718, 0.25995117, -58167.813, -7150.408, 0.0, 10.000526, 9.998744 
3.3501214e+2, 3.047935e+2, -32719.486, -157375.08, -13626.265, -0.06497097, 0.16003767, -31247.367, -31247.367, 0.0, 10.000387, 9.998732 
3.350133e+2, 3.1479242e+2, -24802.223, -60146.023, -55110.926, 0.11073129, 0.17177688, 15400.832, 15400.832, 0.0, 10.000036, 9.999568 
3.450138e+2, 1.2480823e+2, -1728571.6, -1745655.6, -83320.445, -0.040593952, 0.22605811, -1653356.5, 63545.34, 0.000060228966, 10.000015, 9.999778 
3.4501517e+2, 1.3480851e+2, -1514289.9, -1576614.3, 47003.746, -0.058251712, 0.261733, -1489056.8, 129840.98, 0.000025763518, 10.00074, 9.999922 
3.4501624e+2, 1.4480758e+2, -1426261.6, -1558435.1, -7959.693, -0.06912259, 0.2071203, -1425784.0, 95122.33, 0.000005876301, 10.000999, 9.999242 
3.4501705e+2, 1.548068e+2, -1377452.6, -1490371.5, -5245.3457, 0.002457174, 0.20767213, -1377209.5, 45704.16, 0.0000002059256, 10.0006895, 9.999186 
3.4501734e+2, 1.6480602e+2, -1277244.3, -1361363.3, 4594.668, 0.017859837, 0.19941121, -1276994.0, 47926.645, 0.0, 10.000576, 9.999454 
3.4501666e+2, 1.7480534e+2, -1159944.3, -1253046.9, -506.25113, -0.069705166, 0.18178514, -1159941.5, 66984.93, 0.0, 10.000704, 9.999463 
3.4501678e+2, 1.848047e+2, -1064615.9, -1159877.9, -6129.712, -0.074026905, 0.17235467, -1064223.1, 64708.797, 0.0, 10.0007, 9.999432 
3.4501785e+2, 1.9480404e+2, -988522.7, -1072835.8, -8059.9253, 0.025634872, 0.16181765, -987759.1, 43177.94, 0.0, 10.000553, 9.999427 
3.4501824e+2, 2.0480344e+2, -915504.56, -1011608.4, -745.69257, 0.051127177, 0.17001866, -915498.8, 17443.68, 0.0, 10.000486, 9.9992075 
3.4501782e+2, 2.1480289e+2, -814543.6, -912652.44, 6322.5103, -0.008509417, 0.18944821, -814137.9, 20809.98, 0.0, 10.000507, 9.999204 
3.4501746e+2, 2.248019e+2, -719789.44, -813947.2, -13068.076, -0.035155408, 0.17006338, -718009.4, 18947.027, 0.0, 10.000475, 9.999224 
3.450172e+2, 2.3480046e+2, -634829.56, -721632.9, -18603.3, -0.023361303, 0.09982219, -631010.6, 7957.5293, 0.0, 10.000383, 9.9992285 
3.4501687e+2, 2.4479944e+2, -568171.06, -693957.5, -24829.814, -0.003247579, 0.0999707, -563447.2, -22468.846, 0.0, 10.000406, 9.998735 
3.4501648e+2, 2.547989e+2, -449791.78, -587251.9, -13926.304, 0.023666354, 0.16825537, -448395.1, -5408.5366, 0.0, 10.000551, 9.998725 
3.4501603e+2, 2.6479796e+2, -330367.06, -414396.34, -8994.028, 0.032428775, 0.17593947, -329415.2, 15581.122, 0.0, 10.0004225, 9.999301 
3.4501544e+2, 2.7479663e+2, -294621.75, -343896.94, -19474.715, 0.02532216, 0.10623224, -287854.3, -40846.69, 0.0, 9.999984, 9.999323 
3.450147e+2, 2.8479588e+2, -245405.28, -341390.75, -33038.445, 0.0101437075, 0.13002282, -235132.75, -86117.69, 0.0, 9.999959, 9.998679 
3.4501362e+2, 2.947958e+2, -84697.57, -216959.06, -29277.32, -0.025989985, 0.25464055, -78506.555, -27489.09, 0.0, 10.000405, 9.998646 
3.4501272e+2, 3.047936e+2, 7784.0625, -150670.06, -30104.54, -0.06092186, 0.17291942, 13310.824, 13310.824, 0.0, 10.000721, 9.998615 
3.4501383e+2, 3.1479225e+2, 58075.395, -68999.36, -69916.195, 0.11920901, 0.16889524, 89011.68, 89011.68, 0.0, 10.000817, 9.999129 
3.550138e+2, 1.2480767e+2, -1764677.8, -1819537.0, -66657.91, -0.04455185, 0.17776479, -1720026.5, -3123.5242, 0.00005843651, 10.0000105, 9.999273 
3.550162e+2, 1.3480735e+2, -1545422.9, -1642139.4, 76614.03, -0.02996426, 0.1974507, -1503181.9, 115725.734, 0.000025162195, 10.000743, 9.999471 
3.5501745e+2, 1.4480647e+2, -1400882.4, -1507319.3, -18213.557, -0.047294058, 0.15678763, -1397852.0, 123064.46, 0.0000057861466, 10.001005, 9.999591 
3.550172e+2, 1.5480624e+2, -1352617.6, -1438055.1, -16340.194, -0.05553897, 0.17417873, -1349599.3, 73318.8, 0.00000020730299, 10.000686, 9.999547 
3.5501754e+2, 1.6480589e+2, -1284825.6, -1376290.4, 8485.121, -0.01934549, 0.19557565, -1284045.1, 40875.953, 0.0, 10.000572, 9.999353 
3.5501832e+2, 1.748055e+2, -1167548.8, -1269124.3, 5035.2236, 0.02248165, 0.21804939, -1167299.8, 59625.37, 0.0, 10.000705, 9.999352 
3.550184e+2, 1.8480475e+2, -1066720.9, -1164180.3, -11745.127, 0.016670797, 0.20464568, -1065325.4, 63606.598, 0.0, 10.000699, 9.999403 
3.5501793e+2, 1.9480358e+2, -989974.94, -1075873.3, -13027.659, -0.023202267, 0.142441, -988042.56, 42899.273, 0.0, 10.000552, 9.999407 
3.5501784e+2, 2.0480287e+2, -902542.2, -983496.56, -410.11115, -0.03730098, 0.13395745, -902540.1, 30407.203, 0.0, 10.000481, 9.999403 
3.5501814e+2, 2.1480273e+2, -801519.6, -884405.1, 7801.5015, -0.029797345, 0.17496611, -800791.7, 34156.164, 0.0, 10.000503, 9.9994 
3.5501814e+2, 2.2480191e+2, -729542.4, -833024.9, -16905.313, -0.016706634, 0.16874146, -726850.7, 10104.237, 0.0, 10.00047, 9.999096 
3.5501784e+2, 2.3480038e+2, -644683.7, -741893.6, -21606.828, 0.005608989, 0.1031931, -640097.5, -1128.6946, 0.0, 10.000382, 9.99909 
3.5501754e+2, 2.4479938e+2, -549656.56, -654893.44, -20164.084, 0.022550484, 0.09891833, -545925.3, -4946.1665, 0.0, 10.000403, 9.999005 
3.5501713e+2, 2.5479898e+2, -429952.88, -545183.1, -8277.013, 0.032061152, 0.15285635, -429361.38, 13623.844, 0.0, 10.000547, 9.999016 
3.5501623e+2, 2.6479828e+2, -349452.4, -453047.4, -25274.75, 0.010206644, 0.18272378, -343614.9, 1377.5784, 0.0, 10.000418, 9.999038 
3.5501474e+2, 2.747973e+2, -314886.9, -385516.94, -35244.055, -0.042801037, 0.17645454, -300309.1, -53308.074, 0.0, 9.999982, 9.999038 
3.5501438e+2, 2.8479615e+2, -248066.47, -346110.56, -17959.418, -0.016466323, 0.17585345, -244880.27, -95867.445, 0.0, 9.999955, 9.998649 
3.5501513e+2, 2.9479483e+2, -86054.41, -219028.42, -11560.602, 0.085425265, 0.17870438, -85056.83, -34029.54, 0.0, 10.000402, 9.998633 
3.550144e+2, 3.0479294e+2, 6847.835, -151980.53, -26082.908, 0.034835204, 0.1284525, 11021.514, 11021.514, 0.0, 10.000717, 9.998609 
3.5501355e+2, 3.1479254e+2, 39038.793, -107742.4, -68507.93, 0.0090253735, 0.22072904, 66044.99, 66044.99, 0.0, 10.0008135, 9.998865 
3.6501426e+2, 1.2480711e+2, -1654777.3, -1768617.0, -87325.85, -0.03713645, 0.1528617, -1607458.6, 109448.27, 0.000055122826, 10.000773, 9.999253 
3.6501697e+2, 1.3480681e+2, -1587217.0, -1657648.8, 103949.02, -0.010189671, 0.16999301, -1512680.6, 106230.62, 0.000023501116, 10.000435, 9.999513 
3.6501843e+2, 1.4480615e+2, -1482859.6, -1544107.8, 8957.682, -0.021399107, 0.14694408, -1481576.5, 39341.918, 0.00000526637, 10.00043, 9.999616 
3.650177e+2, 1.5480602e+2, -1346590.3, -1431670.1, -16724.74, -0.072227545, 0.17194174, -1343420.6, 79499.05, 0.00000017249042, 10.0007105, 9.999578 
3.6501807e+2, 1.6480573e+2, -1249138.4, -1356363.8, 2869.5464, -0.038235802, 0.19505659, -1249061.6, 75860.97, 0.0, 10.000805, 9.999376 
3.650192e+2, 1.7480531e+2, -1166208.8, -1265317.5, 8663.029, 0.042141818, 0.21303801, -1165457.1, 61469.277, 0.0, 10.000701, 9.999379 
3.6501935e+2, 1.8480454e+2, -1076275.4, -1184995.3, -6846.2134, 0.042957302, 0.20542794, -1075846.0, 53087.504, 0.0, 10.000703, 9.999258 
3.6501858e+2, 1.9480339e+2, -958919.5, -1077369.3, -18410.23, -0.027296728, 0.16022867, -956124.06, 74819.85, 0.0, 10.000834, 9.999262 
3.650183e+2, 2.0480259e+2, -869086.75, -961990.75, -22746.045, -0.048383053, 0.14357188, -863816.7, 69134.016, 0.0, 10.000686, 9.999453 
3.6501855e+2, 2.1480213e+2, -837408.4, -895149.56, -26237.496, -0.022363408, 0.14920267, -827267.25, 7686.222, 0.0, 10.000227, 9.999459 
3.6501858e+2, 2.2480139e+2, -773718.1, -840925.44, -34867.316, -0.00025189682, 0.14183815, -758897.25, -21937.766, 0.0, 10.00011, 9.999215 
3.6501837e+2, 2.3480034e+2, -639480.25, -726021.1, -21065.027, 0.020523654, 0.11255909, -634625.2, 4343.6777, 0.0, 10.0003605, 9.99921 
3.6501798e+2, 2.4479951e+2, -543386.5, -644237.6, -19217.9, 0.025744265, 0.11675915, -539848.56, 1128.8835, 0.0, 10.000414, 9.999073 
3.6501732e+2, 2.5479895e+2, -468027.75, -556251.9, -24526.832, 0.011877967, 0.1487844, -461667.66, -18682.902, 0.0, 10.000254, 9.999082 
3.650164e+2, 2.647982e+2, -375193.8, -478657.78, -46659.105, -0.0082510095, 0.17147359, -357260.38, -12267.472, 0.0, 10.000297, 9.99892 
3.6501512e+2, 2.7479714e+2, -237319.84, -361654.25, -46070.7, -0.03252063, 0.17410125, -222109.6, 24892.39, 0.0, 10.000571, 9.998919 
3.6501482e+2, 2.8479588e+2, -175370.31, -313234.25, -19632.467, 0.008370303, 0.16789967, -172629.06, -23613.813, 0.0, 10.000463, 9.9986315 
3.6501554e+2, 2.9479435e+2, -160868.02, -257165.81, -13817.149, 0.11138996, 0.14965945, -158924.7, -107892.52, 0.0, 9.999896, 9.998615 
3.6501497e+2, 3.04793e+2, -53113.063, -153939.42, 10260.104, 0.047791023, 0.1438654, -52079.586, -52079.586, 0.0, 10.000189, 9.998851 
3.6501428e+2, 3.147927e+2, 141420.11, -46087.72, -17857.617, -0.030839069, 0.22201915, 143105.66, 143105.66, 0.0, 10.00146, 9.99898 
3.7501514e+2, 1.2480655e+2, -1623887.9, -1703108.8, -112709.586, -0.029747287, 0.15127563, -1544031.0, 172882.7, 0.00005010573, 10.000768, 9.999706 
3.7501755e+2, 1.348069e+2, -1550041.5, -1580880.3, 93106.78, 0.0016419507, 0.18027994, -1471085.9, 147822.92, 0.000020857056, 10.000436, 10.000039 
3.7501916e+2, 1.4480658e+2, -1503505.5, -1586750.6, 19062.746, 0.00760565, 0.178453, -1499347.9, 21564.334, 0.000004428325, 10.000429, 9.999324 
3.7501863e+2, 1.5480612e+2, -1367444.4, -1474846.0, -5605.05, -0.055023044, 0.20073512, -1367152.6, 55766.1, 0.00000011962439, 10.0007105, 9.999283 
3.750188e+2, 1.648055e+2, -1238343.1, -1334086.4, -1056.9216, -0.04723202, 0.19842595, -1238331.5, 86593.62, 0.0, 10.000805, 9.99953 
3.7501937e+2, 1.7480475e+2, -1154697.0, -1241773.9, 5311.5044, -0.011409128, 0.16656512, -1154374.3, 72556.33, 0.0, 10.000702, 9.99954 
3.7501964e+2, 1.8480411e+2, -1094925.0, -1223204.4, -2709.6514, 0.0028255843, 0.17459333, -1094867.8, 34068.79, 0.0, 10.0007, 9.998998 
3.7501982e+2, 1.9480354e+2, -978405.0, -1117202.1, -12874.867, 0.009970977, 0.21536002, -977220.8, 53722.492, 0.0, 10.000832, 9.99899 
3.750196e+2, 2.0480254e+2, -875871.94, -975189.4, -39834.676, 0.014100983, 0.1987746, -861869.1, 71083.6, 0.0, 10.000682, 9.999364 
3.7501913e+2, 2.1480109e+2, -843462.56, -907004.5, -42862.14, 0.010585393, 0.111853056, -821880.44, 13084.324, 0.0, 10.000224, 9.999379 
3.750188e+2, 2.2480032e+2, -748582.2, -788157.5, -26461.023, 0.011360682, 0.08942396, -735328.4, 1641.7834, 0.0, 10.000107, 9.999579 
3.7501872e+2, 2.3480032e+2, -613423.75, -671081.2, -11272.379, 0.01937256, 0.12759385, -611298.3, 27670.07, 0.0, 10.000357, 9.999589 
3.7501815e+2, 2.4479985e+2, -553159.1, -663628.1, -25280.195, 0.0036230271, 0.15275837, -547648.75, -6675.4966, 0.0, 10.00041, 9.998941 
3.7501708e+2, 2.5479886e+2, -478346.2, -577725.7, -30093.658, -0.039382875, 0.156023, -469943.78, -26958.658, 0.0, 10.000254, 9.998934 
3.7501654e+2, 2.6479763e+2, -373845.1, -475735.22, -37387.594, -0.025257515, 0.14261262, -361598.16, -16600.613, 0.0, 10.000296, 9.998941 
3.7501654e+2, 2.7479622e+2, -235494.58, -356409.84, -35273.55, 0.052465808, 0.099339426, -225956.86, 21053.697, 0.0, 10.000565, 9.998958 
3.7501603e+2, 2.8479508e+2, -175904.02, -312696.3, -40466.28, 0.08011983, 0.10618736, -164829.72, -15807.308, 0.0, 10.000456, 9.998638 
3.7501484e+2, 2.9479435e+2, -160985.22, -257966.78, -34388.504, 0.04799724, 0.16768183, -150029.19, -98997.17, 0.0, 9.999899, 9.998609 
3.7501445e+2, 3.047938e+2, -18609.47, -82858.46, 55425.598, -0.025432404, 0.21866132, 13328.348, 13328.348, 0.0, 10.000192, 9.999337 
3.75016e+2, 3.1479284e+2, 174409.45, 25909.896, 28546.672, -0.0091349725, 0.18022244, 179708.03, 179708.03, 0.0, 10.001447, 9.99948 
3.850158e+2, 1.2480642e+2, -1647554.0, -1702069.0, -111212.25, -0.029234497, 0.17438275, -1560307.6, 156608.27, 0.00004363311, 10.000553, 9.999815 
3.8501808e+2, 1.348068e+2, -1480661.8, -1529979.6, 78031.46, -0.010607039, 0.18952505, -1423485.6, 195424.11, 0.000017489165, 10.000834, 10.000197 
3.8502e+2, 1.448065e+2, -1440025.3, -1573139.0, -1505.9177, 0.020829916, 0.19080098, -1440008.1, 80904.305, 0.0000034194288, 10.000937, 9.999171 
3.8501963e+2, 1.5480573e+2, -1377658.1, -1497075.5, -18442.22, -0.023301512, 0.19812971, -1374874.9, 48047.566, 0.00000006772674, 10.000715, 9.999127 
3.8501975e+2, 1.6480501e+2, -1257120.8, -1336358.3, -11087.821, -0.023718268, 0.19038601, -1255598.5, 69331.32, 0.0, 10.000646, 9.999592 
3.8501996e+2, 1.748044e+2, -1137292.9, -1225647.8, -12536.261, -0.028072597, 0.16430053, -1135548.6, 91385.164, 0.0, 10.000787, 9.999612 
3.850202e+2, 1.848038e+2, -1080474.6, -1208860.5, -13230.867, -0.016821427, 0.17151383, -1079125.3, 49813.645, 0.0, 10.000767, 9.999064 
3.8502067e+2, 1.9480322e+2, -1013449.6, -1126322.9, 1114.5018, 0.026986865, 0.20422265, -1013438.6, 17507.002, 0.0, 10.000558, 9.999059 
3.8502052e+2, 2.0480226e+2, -901644.7, -994066.25, -14168.9375, 0.042934388, 0.19009873, -899521.25, 33433.64, 0.0, 10.000533, 9.999306 
3.8501972e+2, 2.148009e+2, -775859.44, -881268.25, -16818.135, 0.023881525, 0.11758872, -773241.1, 61725.49, 0.0, 10.000718, 9.999318 
3.8501918e+2, 2.2480015e+2, -665248.0, -744364.56, -6829.681, 0.013773181, 0.09972804, -664662.75, 72309.2, 0.0, 10.000663, 9.999612 
3.85019e+2, 2.3480015e+2, -611588.25, -666256.8, -18137.934, 0.014852047, 0.13099998, -606117.8, 32852.438, 0.0, 10.000352, 9.999625 
3.850185e+2, 2.4479954e+2, -580816.75, -681751.25, -41016.53, 0.0028370721, 0.14588092, -566250.94, -25275.143, 0.0, 10.000239, 9.998899 
3.850175e+2, 2.5479838e+2, -468119.13, -577682.7, -39393.113, -0.025032558, 0.13622305, -455426.0, -12437.209, 0.0, 10.000345, 9.99889 
3.8501704e+2, 2.6479718e+2, -367835.22, -480017.7, -40380.46, -0.006935235, 0.12798335, -354812.0, -9810.53, 0.0, 10.000367, 9.998878 
3.8501707e+2, 2.747959e+2, -280024.53, -384860.06, -45730.996, 0.06285126, 0.10876073, -262879.78, -15865.912, 0.0, 10.000288, 9.998896 
3.8501638e+2, 2.8479478e+2, -177298.22, -313870.97, -59157.813, 0.072697744, 0.11922695, -155237.06, -6211.1133, 0.0, 10.000446, 9.998635 
3.8501486e+2, 2.9479387e+2, -17622.953, -190530.67, -55938.242, 0.012709845, 0.1631088, -1104.2114, 49932.504, 0.0, 10.000889, 9.998596 
3.850148e+2, 3.0479357e+2, 63682.438, -54644.742, 25603.602, -0.04005676, 0.24614389, 68984.92, 68984.92, 0.0, 10.000805, 9.999236 
3.850171e+2, 3.1479207e+2, -18245.941, -63966.45, -49754.85, 0.024305658, 0.15959653, 13649.047, 13649.047, 0.000000000002787424, 10.000109, 9.999507 
3.9501622e+2, 1.248067e+2, -1664954.9, -1736631.5, -112658.336, -0.040238578, 0.22163804, -1582571.9, 134341.7, 0.0000362571, 10.000548, 9.999579 
3.950185e+2, 1.3480647e+2, -1494553.9, -1559089.9, 90552.38, -0.051462874, 0.19650167, -1430692.0, 188222.14, 0.000013744367, 10.000834, 9.999998 
3.9502084e+2, 1.4480594e+2, -1442679.4, -1577556.6, -8380.479, 0.011746199, 0.1839567, -1442160.6, 78758.41, 0.0000023661473, 10.000932, 9.999144 
3.9502078e+2, 1.5480489e+2, -1378885.1, -1500079.0, -26355.01, 0.019693648, 0.16449806, -1373402.0, 49528.527, 0.000000028035489, 10.000716, 9.999106 
3.9502093e+2, 1.6480428e+2, -1259154.9, -1340509.9, -7290.651, 0.028531387, 0.17164467, -1258506.8, 66429.914, 0.0, 10.000645, 9.999564 
3.9502093e+2, 1.7480424e+2, -1139112.0, -1228757.6, -6734.606, -0.010762538, 0.20622045, -1138608.9, 88327.16, 0.0, 10.000784, 9.999592 
3.9502093e+2, 1.8480366e+2, -1053128.6, -1151507.9, -20938.955, -0.019781716, 0.19627552, -1048857.5, 80083.125, 0.0, 10.000764, 9.999459 
3.9502114e+2, 1.9480248e+2, -985358.56, -1067416.4, -6352.065, 0.021275857, 0.12720649, -984869.75, 46081.11, 0.0, 10.000555, 9.999464 
3.95021e+2, 2.0480174e+2, -904425.06, -998748.56, -8038.3247, 0.035391707, 0.11808903, -903744.94, 29212.361, 0.0, 10.000528, 9.999275 
3.9502037e+2, 2.1480155e+2, -779368.2, -887306.06, -9200.657, 0.014943329, 0.16657296, -778589.56, 56369.688, 0.0, 10.000712, 9.999279 
3.9501977e+2, 2.2480088e+2, -686717.0, -787824.6, -18553.34, 0.00393104, 0.17236188, -683419.94, 53545.01, 0.0, 10.000658, 9.999316 
3.950193e+2, 2.3479974e+2, -632849.06, -710139.44, -29427.0, 0.005186269, 0.12235155, -622920.56, 16054.087, 0.0, 10.000351, 9.999325 
3.9501894e+2, 2.4479862e+2, -578189.3, -675954.9, -37901.51, 0.021058377, 0.09653493, -565217.0, -24231.902, 0.0, 10.000238, 9.99894 
3.9501864e+2, 2.5479752e+2, -465272.7, -570203.2, -34986.707, 0.05129711, 0.08964718, -454677.1, -11681.22, 0.0, 10.000339, 9.998944 
3.9501792e+2, 2.6479676e+2, -378346.94, -500444.66, -43480.63, 0.04318261, 0.12751845, -364445.63, -19440.838, 0.0, 10.000361, 9.99874 
3.950167e+2, 2.7479628e+2, -290183.06, -406544.25, -48263.05, -0.0038572273, 0.20195986, -272770.63, -25758.756, 0.0, 10.000291, 9.998746 
3.9501595e+2, 2.84795e+2, -178485.6, -316763.9, -43668.703, -0.016667714, 0.20645438, -165849.6, -16823.744, 0.0, 10.000448, 9.998614 
3.9501563e+2, 2.9479295e+2, -20785.568, -193848.67, -38346.367, 0.000788403, 0.13691877, -12669.6, 38376.555, 0.0, 10.000875, 9.99858 
3.95016e+2, 3.0479237e+2, 13824.127, -155151.33, 84.824165, -0.0004456362, 0.22699626, 13824.17, 13824.17, 0.0, 10.0007925, 9.998551 
3.9501756e+2, 3.147904e+2, -49975.19, -129334.71, -75806.09, 0.060069196, 0.16576806, -4091.8354, -4091.8354, 0.000000001718879, 10.00011, 9.999057 
4.050171e+2, 1.2480659e+2, -1617878.1, -1766592.0, -101814.49, -0.035154495, 0.20738074, -1566159.1, 150753.33, 0.000028702449, 10.0011, 9.999108 
4.0501943e+2, 1.3480595e+2, -1493426.3, -1609118.0, 93187.734, -0.05127705, 0.1866421, -1441590.4, 177329.72, 0.000010028613, 10.00106, 9.999547 
4.05022e+2, 1.4480546e+2, -1418070.1, -1536150.6, -15269.334, 0.03317782, 0.18938684, -1416127.6, 104797.29, 0.0000013962007, 10.000973, 9.99941 
4.050216e+2, 1.5480459e+2, -1352413.4, -1455424.8, -13845.298, 0.02969367, 0.1575067, -1350585.0, 72347.37, 0.000000006286357, 10.00076, 9.9993925 
4.0502173e+2, 1.6480397e+2, -1257024.4, -1357956.6, 26693.03, 0.03910245, 0.15773717, -1250399.9, 74538.055, 0.0, 10.000738, 9.999399 
4.0502197e+2, 1.7480375e+2, -1133014.5, -1245540.4, 15271.4795, 0.010773625, 0.19045514, -1130978.8, 95961.805, 0.0, 10.00091, 9.999416 
4.050219e+2, 1.8480317e+2, -1020886.6, -1117814.6, -24773.295, -0.006180935, 0.18317847, -1014922.0, 114023.5, 0.0, 10.000909, 9.99962 
4.0502167e+2, 1.9480222e+2, -945131.6, -1028973.25, -29235.69, 0.0068906914, 0.12177789, -935943.94, 95009.04, 0.0, 10.00075, 9.999635 
4.0502134e+2, 2.048017e+2, -891444.44, -977468.2, -27371.195, 0.015222668, 0.11708386, -883473.94, 49483.09, 0.0, 10.000553, 9.99941 
4.050208e+2, 2.1480164e+2, -827790.56, -895423.25, -16255.128, 0.01081241, 0.16583301, -824086.6, 10870.53, 0.0, 10.000315, 9.999415 
4.050203e+2, 2.2480091e+2, -750776.56, -847150.1, -15248.42, 0.0043299585, 0.17150268, -748421.44, -11457.644, 0.0, 10.000341, 9.999061 
4.050197e+2, 2.3479952e+2, -607209.25, -726943.3, -24043.098, -0.0018045362, 0.12116885, -602561.7, 36415.676, 0.0, 10.000653, 9.9990635 
4.0501934e+2, 2.4479824e+2, -490943.7, -625180.6, -27247.107, 0.01426796, 0.09177739, -485623.97, 55365.176, 0.0, 10.0008, 9.999019 
4.050192e+2, 2.547972e+2, -395981.6, -526938.56, -22580.246, 0.052910786, 0.07732329, -392197.53, 50800.984, 0.0, 10.0007715, 9.999034 
4.050184e+2, 2.6479638e+2, -345867.34, -500626.1, -35213.75, 0.0405694, 0.11846491, -338231.56, 6775.445, 0.0, 10.000652, 9.998599 
4.0501687e+2, 2.7479592e+2, -277081.22, -417047.53, -41491.043, -0.02489927, 0.20895118, -265706.22, -18691.527, 0.0, 10.000453, 9.998596 
4.0501624e+2, 2.8479457e+2, -193957.06, -333391.78, -24660.816, -0.028972458, 0.21650204, -189723.98, -40694.137, 0.0, 10.000381, 9.998532 
4.0501654e+2, 2.947923e+2, -91948.9, -236711.22, -24387.078, 0.028614236, 0.13230638, -87950.99, -36898.715, 0.0, 10.0004225, 9.998504 
4.0501708e+2, 3.0479166e+2, -37088.06, -200561.06, 15865.321, 0.04151373, 0.22769699, -35562.54, -35562.54, 0.0, 10.000532, 9.998365 
4.0501797e+2, 3.1478915e+2, 53870.715, -64998.895, -26497.063, 0.05748975, 0.13135944, 59509.64, 59509.64, 0.00000001196501, 10.000758, 9.999187 
4.1501838e+2, 1.2480604e+2, -1668453.1, -1869841.3, -114916.63, -0.021443702, 0.12895705, -1616356.1, 100556.99, 0.000021697306, 10.001093, 9.998403 
4.1502088e+2, 1.3480523e+2, -1541467.5, -1710807.9, 93582.36, -0.014073705, 0.15932195, -1499936.6, 118990.86, 0.000006740833, 10.001066, 9.998847 
4.1502348e+2, 1.448051e+2, -1379407.5, -1455883.9, -22807.355, 0.079826176, 0.20675808, -1373122.3, 147807.72, 0.0000006540361, 10.000973, 9.999961 
4.1502216e+2, 1.5480481e+2, -1311223.5, -1369439.0, -21443.686, 0.0056737354, 0.17698044, -1304177.5, 118750.47, 0.0000000002364484, 10.000758, 9.999984 
4.1502213e+2, 1.6480406e+2, -1279075.8, -1402734.6, 32417.125, 0.005820571, 0.14876664, -1271093.0, 53840.76, 0.0, 10.000734, 9.999094 
4.1502312e+2, 1.7480288e+2, -1156417.6, -1293216.6, 22174.922, 0.032717604, 0.117722824, -1152912.9, 74034.484, 0.0, 10.000906, 9.99909 
4.1502306e+2, 1.8480234e+2, -1026443.2, -1128574.8, -31188.795, 0.019273916, 0.13261509, -1017672.06, 111281.62, 0.0, 10.000905, 9.999548 
4.150222e+2, 1.948025e+2, -950472.06, -1038948.75, -34671.184, -0.017811343, 0.1879754, -938504.3, 92447.63, 0.0, 10.000745, 9.999568 
4.1502154e+2, 2.0480211e+2, -871160.0, -934275.1, -36570.453, -0.01955019, 0.18686254, -854413.56, 78540.586, 0.0, 10.000548, 9.999708 
4.1502112e+2, 2.1480115e+2, -806699.9, -850581.06, -24775.316, 0.009101488, 0.11561718, -795546.6, 39413.855, 0.0, 10.000311, 9.999724 
4.150207e+2, 2.2480024e+2, -766215.8, -878422.2, -4308.309, 0.012267741, 0.09740143, -766050.6, -29082.086, 0.0, 10.000338, 9.998848 
4.150203e+2, 2.3479944e+2, -623408.56, -759589.56, -11699.742, -0.00909913, 0.12808168, -622410.75, 16567.666, 0.0, 10.000649, 9.99884 
4.150198e+2, 2.4479845e+2, -483123.44, -607912.5, -28468.613, -0.020520946, 0.13183804, -476935.63, 64052.35, 0.0, 10.000795, 9.999139 
4.150192e+2, 2.547973e+2, -387479.53, -508886.3, -23368.99, -0.021799121, 0.09824796, -383136.7, 59860.215, 0.0, 10.000769, 9.999159 
4.1501847e+2, 2.6479614e+2, -356745.16, -522420.4, -43126.617, -0.016379392, 0.100245066, -346191.25, -1182.9813, 0.0, 10.000649, 9.99845 
4.1501752e+2, 2.7479494e+2, -289213.25, -439848.38, -47958.418, -0.004182079, 0.13073389, -275240.6, -28218.266, 0.0, 10.000443, 9.998444 
4.1501725e+2, 2.8479353e+2, -204552.19, -353550.4, -23704.89, 0.031532537, 0.15001647, -200871.77, -51833.79, 0.0, 10.000374, 9.998398 
4.1501763e+2, 2.9479197e+2, -101025.22, -255657.13, -22875.094, 0.09258831, 0.14991711, -97712.23, -46657.19, 0.0, 10.000423, 9.998373 
4.1501802e+2, 3.0479145e+2, -14914.877, -154846.53, 23689.049, 0.08209597, 0.24914151, -11013.336, -11013.336, 0.0, 10.000534, 9.998677 
4.150183e+2, 3.1478828e+2, 101753.39, 37266.863, -17822.748, 0.00720684, 0.05484947, 106351.39, 106351.39, 0.000000036873733, 10.000748, 9.999895 
4.250199e+2, 1.24805756e+2, -1621212.5, -1840819.3, -154132.47, 0.00796248, 0.11024833, -1541771.1, 175143.72, 0.000015823704, 10.001394, 9.998456 
4.2502195e+2, 1.3480501e+2, -1523804.9, -1695390.0, 120732.695, -0.018608104, 0.13929307, -1461486.9, 157441.72, 0.0000041887733, 10.001158, 9.99891 
4.250246e+2, 1.4480506e+2, -1356678.1, -1451811.8, 15344.713, 0.08777699, 0.20616093, -1354264.3, 166665.0, 0.00000021832761, 10.00116, 9.999899 
4.2502317e+2, 1.5480474e+2, -1240333.9, -1341897.4, -34226.484, 0.0051999874, 0.17807913, -1229876.5, 193051.98, 0.0, 10.001274, 9.999925 
4.25023e+2, 1.6480398e+2, -1226063.5, -1366816.4, 5947.454, 0.00081396854, 0.14856666, -1225812.6, 99121.72, 0.0, 10.001056, 9.999186 
4.2502376e+2, 1.7480284e+2, -1205378.6, -1306267.1, 25522.758, 0.02594271, 0.11241544, -1199289.4, 27657.91, 0.0, 10.000525, 9.999184 
4.2502367e+2, 1.8480237e+2, -1108838.4, -1170212.0, -1883.7955, 0.017928578, 0.1299936, -1108780.6, 20172.252, 0.0, 10.000348, 9.999531 
4.2502293e+2, 1.9480261e+2, -981070.9, -1055968.6, -2320.4534, -0.0080739055, 0.19715244, -980999.0, 49951.58, 0.0, 10.000545, 9.999547 
4.250222e+2, 2.0480216e+2, -858640.1, -935976.2, -19244.926, -0.011676835, 0.19257665, -854115.75, 78838.016, 0.0, 10.000669, 9.999639 
4.250216e+2, 2.1480092e+2, -752543.4, -832382.94, -36744.41, 0.0021420422, 0.100662716, -738206.9, 96755.86, 0.0, 10.000717, 9.999654 
4.2502108e+2, 2.2480004e+2, -711181.4, -836681.56, -11240.6, 0.0027899987, 0.08044846, -710182.56, 26788.043, 0.0, 10.00065, 9.998983 
4.2502084e+2, 2.3479956e+2, -640389.56, -751897.7, 7471.422, -0.008551418, 0.1310405, -639891.2, -914.29614, 0.0, 10.000464, 9.998982 
4.2502034e+2, 2.447987e+2, -550684.56, -647904.7, -4370.6406, -0.026233818, 0.14451322, -550488.44, -9503.371, 0.0, 10.000363, 9.999072 
4.250195e+2, 2.5479746e+2, -452426.22, -548417.8, -15148.787, -0.051614933, 0.10848534, -450092.28, -7097.04, 0.0, 10.000359, 9.999084 
4.250189e+2, 2.6479608e+2, -363096.16, -521805.44, -29225.607, -0.03320731, 0.09213856, -357885.47, -12877.289, 0.0, 10.000589, 9.998485 
4.2501864e+2, 2.7479455e+2, -195907.0, -390130.78, -20559.7, 0.03308182, 0.087351464, -193754.5, 53269.504, 0.0, 10.001063, 9.9984865 
4.250183e+2, 2.8479308e+2, -109814.07, -316425.78, 1596.905, 0.06949889, 0.10098991, -109801.73, 39238.203, 0.0, 10.0010605, 9.9983225 
4.2501792e+2, 2.9479173e+2, -87457.51, -257719.9, 4300.3545, 0.07409278, 0.125178, -87348.96, -36293.08, 0.0, 10.000553, 9.998297 
4.2501828e+2, 3.0479118e+2, -56569.99, -185152.42, 52189.246, 0.06503118, 0.2326976, -38053.73, -38053.73, 0.0, 10.000293, 9.998586 
4.250189e+2, 3.1478807e+2, 55851.242, 46204.35, -21486.785, 0.021670248, 0.055227228, 73049.32, 73049.32, 0.00000007454206, 10.000298, 10.000174 
4.350217e+2, 1.2480574e+2, -1565786.8, -1725203.0, -173551.73, 0.045536425, 0.15133977, -1454514.3, 262403.38, 0.0000113764345, 10.001392, 9.999249 
4.3502265e+2, 1.3480525e+2, -1466539.1, -1577523.6, 114312.336, -0.06617628, 0.12699126, -1394961.8, 223961.48, 0.0000025044064, 10.001161, 9.999719 
4.3502545e+2, 1.4480534e+2, -1403554.9, -1548460.5, 20349.445, 0.054178793, 0.18808018, -1400751.4, 120171.7, 0.000000047491298, 10.001157, 9.999237 
4.3502462e+2, 1.5480432e+2, -1289770.3, -1443711.5, -29398.146, 0.023511346, 0.15969469, -1284347.1, 138586.66, 0.0, 10.001271, 9.999228 
4.3502423e+2, 1.6480371e+2, -1193486.8, -1298157.5, -14139.101, 0.018463602, 0.15608402, -1191610.5, 133329.27, 0.0, 10.001052, 9.999659 
4.3502393e+2, 1.7480361e+2, -1170426.9, -1233163.4, 6265.87, -0.011200547, 0.17441957, -1169807.1, 57133.08, 0.0, 10.000524, 9.999686 
4.3502375e+2, 1.8480325e+2, -1106938.1, -1165508.4, 4580.485, -0.012867493, 0.17620519, -1106582.1, 22361.027, 0.0, 10.000345, 9.999564 
4.3502387e+2, 1.948026e+2, -979921.94, -1052575.3, 5402.6826, 0.033025946, 0.15016226, -979522.4, 51426.473, 0.0, 10.000541, 9.999572 
4.3502337e+2, 2.0480181e+2, -889971.44, -999587.56, -17568.408, 0.035854567, 0.13430843, -887224.5, 45731.37, 0.0, 10.000663, 9.999205 
4.3502212e+2, 2.1480094e+2, -784435.7, -897375.94, -34173.87, -0.013037961, 0.12105597, -774900.3, 60063.77, 0.0, 10.000712, 9.99921 
4.3502146e+2, 2.2480026e+2, -678123.6, -767336.2, -18505.498, -0.027261602, 0.121163204, -674437.3, 62532.68, 0.0, 10.000648, 9.999461 
4.350214e+2, 2.3479985e+2, -605746.44, -679456.9, 773.26105, -0.0020269125, 0.12921326, -605738.3, 33234.7, 0.0, 10.000463, 9.99948 
4.350209e+2, 2.44799e+2, -569000.06, -685256.6, -5078.838, -0.0049597374, 0.12910825, -568778.6, -27797.908, 0.0, 10.0003605, 9.998817 
4.3501997e+2, 2.5479767e+2, -471805.16, -587912.2, -14644.895, -0.04068763, 0.108963214, -469986.47, -26992.861, 0.0, 10.000356, 9.998816 
4.350197e+2, 2.6479626e+2, -348350.9, -490212.8, -12168.037, -0.013637238, 0.094831996, -347314.78, -2308.0732, 0.0, 10.000586, 9.998703 
4.3502024e+2, 2.7479482e+2, -180370.72, -356817.7, -2622.8765, 0.08382509, 0.07881624, -180331.73, 66688.13, 0.0, 10.001059, 9.998718 
4.350195e+2, 2.847933e+2, -111538.21, -318474.8, -17333.908, 0.081801295, 0.069488734, -110096.29, 38939.555, 0.0, 10.001055, 9.998311 
4.3501747e+2, 2.947915e+2, -89391.17, -260646.11, -13897.867, -0.030659875, 0.058275245, -88270.65, -37215.707, 0.0, 10.000548, 9.998279 
4.350178e+2, 3.0479085e+2, -91672.09, -256864.03, 51129.773, -0.013421758, 0.17824048, -77127.195, -77127.195, 0.0, 10.000288, 9.9980955 
4.3501997e+2, 3.1478852e+2, 44154.625, 23982.248, -18585.814, 0.092446186, 0.12540247, 55214.684, 55214.684, 0.0000001100893, 10.00029, 10.000024 
4.4502297e+2, 1.248059e+2, -1576189.4, -1694685.1, -153746.52, 0.04652565, 0.16547352, -1470669.9, 246247.4, 0.000008277144, 10.00117, 9.999565 
4.4502375e+2, 1.3480546e+2, -1448395.4, -1534589.8, 105761.586, -0.07066943, 0.11430333, -1377287.1, 241632.84, 0.0000015575915, 10.001136, 10.000026 
4.4502673e+2, 1.4480568e+2, -1435130.5, -1581531.4, 13915.994, 0.074937895, 0.18094517, -1433819.5, 87098.66, 0.000000013935479, 10.001018, 9.999077 
4.450256e+2, 1.5480448e+2, -1382660.8, -1506975.4, -67.254364, 0.024153812, 0.15222727, -1382660.8, 40271.492, 0.0, 10.000714, 9.999061 
4.4502506e+2, 1.648039e+2, -1236579.9, -1304926.4, 22936.62, 0.013559706, 0.1535847, -1229596.1, 95342.39, 0.0, 10.000696, 9.9997835 
4.4502473e+2, 1.7480405e+2, -1091845.9, -1180239.5, 15660.296, -0.006171883, 0.18332137, -1089153.4, 137782.25, 0.0, 10.000999, 9.99982 
4.4502446e+2, 1.8480372e+2, -1007373.2, -1114829.6, 3108.0537, -0.0077965236, 0.1805545, -1007283.4, 121654.414, 0.0, 10.001019, 9.999587 
4.4502443e+2, 1.9480285e+2, -949963.06, -1035775.94, 2757.7527, 0.02714029, 0.13183936, -949874.56, 81070.914, 0.0, 10.000737, 9.999593 
4.4502392e+2, 2.0480207e+2, -901367.0, -1005773.4, -1615.7614, 0.027743211, 0.11364482, -901342.0, 31610.715, 0.0, 10.000588, 9.999198 
4.4502276e+2, 2.1480137e+2, -803980.75, -907773.56, 13735.27, -0.014578505, 0.1207765, -802193.9, 32765.324, 0.0, 10.000583, 9.999201 
4.4502205e+2, 2.2480075e+2, -688110.06, -769276.1, 25326.27, -0.030018933, 0.12506564, -680855.9, 56108.8, 0.0, 10.000567, 9.999486 
4.4502175e+2, 2.3480022e+2, -592472.8, -670614.75, 8152.923, -0.0150515195, 0.117996216, -591631.25, 47337.51, 0.0, 10.000543, 9.999503 
4.4502133e+2, 2.4479933e+2, -529427.94, -665508.9, 2294.5447, -0.011383676, 0.11372911, -529389.25, 11587.348, 0.0, 10.000629, 9.998824 
4.4502077e+2, 2.5479808e+2, -401176.4, -552350.56, 12637.946, -0.021693522, 0.102157205, -400127.2, 42861.367, 0.0, 10.000834, 9.998828 
4.4502053e+2, 2.6479676e+2, -332085.22, -488091.38, 13515.027, 0.004785109, 0.09530965, -330923.06, 14078.281, 0.0, 10.000722, 9.9986515 
4.450208e+2, 2.7479535e+2, -298769.38, -420315.72, 876.2506, 0.07332972, 0.087375835, -298763.06, -51748.336, 0.0, 10.000273, 9.998661 
4.4502002e+2, 2.847938e+2, -204584.31, -357457.2, -17911.52, 0.061203007, 0.08081028, -202513.73, -53483.316, 0.0, 10.000389, 9.998364 
4.450182e+2, 2.9479203e+2, -5480.772, -212877.44, -10661.109, -0.03880429, 0.06248353, -4934.184, 46114.813, 0.0, 10.001094, 9.998344 
4.4501853e+2, 3.04791e+2, -7226.895, -246693.14, 46814.53, -0.0019198164, 0.15520939, 1599.7784, 1599.7784, 0.00000000000009396187, 10.0009985, 9.997824 
4.4502014e+2, 3.14789e+2, 8242.169, 3285.9607, -7918.897, 0.095721185, 0.16658533, 14061.65, 14061.65, 0.00000013361628, 10.000058, 9.999993 
4.5502374e+2, 1.24806195e+2, -1585598.0, -1714935.4, -164029.11, 0.0033649285, 0.14988913, -1473949.9, 242964.03, 0.0000061456926, 10.001174, 9.999424 
4.5502523e+2, 1.3480558e+2, -1461005.6, -1561250.6, 106877.336, -0.035250284, 0.09944113, -1393081.4, 225837.53, 0.0000010596042, 10.001136, 9.999844 
4.5502847e+2, 1.4480604e+2, -1412636.4, -1534052.6, 4103.6626, 0.1451968, 0.18382347, -1412497.8, 108416.6, 0.000000007555667, 10.001014, 9.999404 
4.5502612e+2, 1.5480523e+2, -1358660.4, -1456849.5, -10524.265, 0.0034265644, 0.15729935, -1357545.0, 65378.805, 0.0, 10.000713, 9.999405 
4.5502543e+2, 1.6480456e+2, -1251153.6, -1335287.1, 33308.707, -0.017625215, 0.14359958, -1239563.3, 85367.29, 0.0, 10.000696, 9.999575 
4.5502618e+2, 1.7480414e+2, -1108309.4, -1213390.6, 27832.713, 0.038684, 0.13941966, -1101392.6, 125541.016, 0.0, 10.000996, 9.999595 
4.5502588e+2, 1.8480375e+2, -1007846.7, -1113763.4, -7086.753, 0.030034406, 0.1420763, -1007374.6, 121562.26, 0.0, 10.00101, 9.999598 
4.5502463e+2, 1.948034e+2, -949445.56, -1033491.06, -7331.0913, -0.028508877, 0.14188468, -948810.9, 82129.484, 0.0, 10.000732, 9.99961 
4.5502383e+2, 2.0480289e+2, -873115.2, -946045.25, -2556.0903, -0.039063137, 0.13086939, -873025.7, 59918.5, 0.0, 10.000584, 9.99961 
4.5502344e+2, 2.1480225e+2, -774666.56, -846054.8, 14027.653, -0.0044310573, 0.100415975, -772009.06, 62939.105, 0.0, 10.000579, 9.999626 
4.5502284e+2, 2.248015e+2, -719220.9, -832711.0, 23967.64, -0.007331195, 0.09216572, -714366.9, 22587.887, 0.0, 10.000563, 9.999053 
4.5502198e+2, 2.3480064e+2, -624243.4, -736219.2, 7569.615, -0.049598094, 0.09842502, -623734.0, 15230.037, 0.0, 10.000542, 9.999053 
4.5502162e+2, 2.4479972e+2, -511060.6, -626916.6, 9254.325, -0.047904685, 0.099630505, -510326.06, 30646.625, 0.0, 10.000627, 9.99909 
4.5502183e+2, 2.5479874e+2, -382220.47, -511043.66, 20428.504, 0.0023913067, 0.08714098, -379058.56, 63921.727, 0.0, 10.000826, 9.999116 
4.550214e+2, 2.647975e+2, -355369.25, -535078.6, -3362.2415, 0.019713314, 0.09288661, -355306.38, -10314.106, 0.0, 10.000715, 9.998332 
4.5502034e+2, 2.7479607e+2, -322194.94, -469356.9, -15066.148, -0.0015430885, 0.11250822, -320668.34, -73659.65, 0.0, 10.000274, 9.998323 
4.5501983e+2, 2.847947e+2, -197038.83, -340961.13, 7178.3037, 0.0045279646, 0.1341416, -196681.69, -47657.93, 0.0, 10.000386, 9.998479 
4.550201e+2, 2.9479325e+2, 3324.4324, -192517.89, 15615.278, 0.04480374, 0.13792366, 4561.6836, 55599.86, 0.0, 10.001085, 9.998488 
4.5502052e+2, 3.0479163e+2, -12957.65, -256023.08, 11985.195, 0.095098145, 0.16413641, -12368.107, -12368.107, 0.00000000000087855477, 10.000989, 9.997765 
4.550195e+2, 3.147895e+2, 13907.334, 15941.581, -39472.844, 0.024370333, 0.1682225, 54410.402, 54410.402, 0.00000014519496, 10.000055, 10.000081 
4.6502504e+2, 1.2480705e+2, -1593793.8, -1738704.3, -122235.39, 0.012029802, 0.12528712, -1524153.0, 192750.4, 0.000004581255, 10.001208, 9.999241 
4.6502626e+2, 1.3480626e+2, -1466158.0, -1589102.1, 151289.9, -0.0496548, 0.079666086, -1364328.4, 254582.98, 0.0000007444035, 10.001209, 9.999618 
4.6502975e+2, 1.4480677e+2, -1371154.9, -1509139.5, 33547.98, 0.16050974, 0.17742474, -1363430.9, 157475.92, 0.0000000034677494, 10.001279, 9.999448 
4.6502727e+2, 1.5480594e+2, -1264073.3, -1404957.3, -4681.9063, 0.016684016, 0.14462763, -1263917.9, 158997.72, 0.0, 10.001336, 9.999461 
4.6502644e+2, 1.6480522e+2, -1187815.0, -1310369.1, 37428.324, -0.008937048, 0.12492896, -1177288.4, 147634.08, 0.0, 10.001156, 9.999525 
4.6502706e+2, 1.7480469e+2, -1150578.0, -1239603.8, 43767.492, 0.041642923, 0.11476543, -1132665.0, 94261.695, 0.0, 10.00073, 9.999543 
4.650266e+2, 1.8480432e+2, -1082481.4, -1156522.1, 11905.239, 0.025509411, 0.12394657, -1080614.1, 48316.195, 0.0, 10.000526, 9.999537 
4.6502516e+2, 1.948041e+2, -976122.8, -1053259.5, 6011.0454, -0.043861065, 0.14525057, -975657.2, 55276.07, 0.0, 10.000579, 9.999549 
4.6502426e+2, 2.0480369e+2, -866486.2, -921597.75, 1548.4497, -0.05214516, 0.13771293, -866442.7, 66493.414, 0.0, 10.000538, 9.9998 
4.6502396e+2, 2.1480307e+2, -788996.8, -831623.2, -532.9858, -0.002833352, 0.091068774, -788990.1, 45948.637, 0.0, 10.000388, 9.999817 
4.6502343e+2, 2.2480229e+2, -746280.2, -860924.25, 19819.828, 0.003270648, 0.07547672, -742950.44, -6004.973, 0.0, 10.000442, 9.998918 
4.650227e+2, 2.3480134e+2, -609445.1, -744528.25, 26076.41, -0.03620583, 0.08491406, -604586.1, 34370.2, 0.0, 10.0007105, 9.998914 
4.650224e+2, 2.4480034e+2, -498430.2, -622765.75, 24240.727, -0.036413137, 0.08823529, -493871.3, 47094.48, 0.0, 10.000723, 9.999071 
4.6502253e+2, 2.5479934e+2, -436136.44, -539616.06, 11759.16, 0.006488588, 0.0757792, -434816.97, 8156.7944, 0.0, 10.000466, 9.999094 
4.65022e+2, 2.6479813e+2, -380180.97, -541772.4, -9369.907, 0.015630348, 0.07979543, -379639.47, -34653.76, 0.0, 10.000523, 9.99838 
4.6502078e+2, 2.747967e+2, -226224.94, -417242.9, 6156.0225, -0.014394297, 0.096912324, -226026.75, 20974.836, 0.0, 10.000909, 9.998375 
4.6502042e+2, 2.8479543e+2, -126164.914, -312319.94, 43926.613, -0.0034792344, 0.13077776, -116320.266, 32695.15, 0.0, 10.000897, 9.998429 
4.6502098e+2, 2.9479423e+2, -93332.98, -243725.94, 37646.395, 0.05821573, 0.16068141, -84435.69, -33407.598, 0.0, 10.000441, 9.998447 
4.6502137e+2, 3.0479205e+2, -97418.76, -284209.63, 19546.127, 0.115237296, 0.12888531, -95395.336, -95395.336, 0.00000000000042122027, 10.000352, 9.997878 
4.6501964e+2, 3.1479004e+2, 111557.42, 77478.516, -17256.47, 0.0032254765, 0.13608007, 118769.336, 118769.336, 0.00000014428599, 10.000661, 10.000215 
4.7502673e+2, 1.2480845e+2, -1611547.3, -1774402.4, -129049.64, 0.06242617, 0.09111767, -1540383.0, 176502.84, 0.0000033199578, 10.001203, 9.999 
4.7502676e+2, 1.3480753e+2, -1485629.1, -1630826.4, 153773.72, -0.119431764, 0.05887521, -1388178.0, 230719.23, 0.00000048107097, 10.001213, 9.999331 
4.7503057e+2, 1.4480786e+2, -1385795.3, -1541308.3, 36003.066, 0.11470101, 0.16636963, -1377864.5, 143030.5, 0.000000000765976, 10.001286, 9.999225 
4.7502908e+2, 1.548066e+2, -1280345.1, -1437727.0, -1893.2859, 0.062086787, 0.11293493, -1280322.4, 142585.34, 0.0, 10.001331, 9.999238 
4.7502807e+2, 1.6480584e+2, -1181171.3, -1295321.6, 21640.273, 0.037122447, 0.09639523, -1177206.4, 147708.17, 0.0, 10.00115, 9.99963 
4.7502738e+2, 1.7480569e+2, -1142560.9, -1222586.6, 28445.908, -0.0026033572, 0.10972843, -1133479.9, 93435.18, 0.0, 10.000729, 9.99966 
4.750266e+2, 1.848054e+2, -1091288.4, -1174627.9, 12982.755, -0.027448475, 0.12802054, -1089312.6, 39605.523, 0.0, 10.000525, 9.999414 
4.7502598e+2, 1.94805e+2, -985221.3, -1072106.6, 8687.817, -0.02014837, 0.14216267, -984361.1, 46563.023, 0.0, 10.000578, 9.99942 
4.7502518e+2, 2.0480448e+2, -871013.1, -929068.6, -4173.1826, -0.013534316, 0.13392977, -870714.7, 62213.81, 0.0, 10.00053, 9.999752 
4.7502422e+2, 2.1480387e+2, -792261.9, -838103.2, -5844.6123, -0.012716348, 0.09273606, -791528.44, 43402.625, 0.0, 10.000387, 9.999773 
4.7502384e+2, 2.2480312e+2, -735469.9, -837777.25, 28924.98, -0.0021137246, 0.075305514, -727858.3, 9078.486, 0.0, 10.000438, 9.999079 
4.75024e+2, 2.3480225e+2, -597864.06, -719536.6, 36617.965, 0.022316998, 0.076439366, -587693.8, 51251.797, 0.0, 10.000706, 9.999088 
4.750237e+2, 2.448012e+2, -521207.13, -668917.06, 14364.156, 0.020010378, 0.07834096, -519823.22, 21132.934, 0.0, 10.000718, 9.998757 
4.750228e+2, 2.547999e+2, -459035.06, -587342.44, 2460.847, -0.012117125, 0.068766385, -458987.88, -16018.961, 0.0, 10.000467, 9.998766 
4.750223e+2, 2.6479855e+2, -351762.88, -482632.06, 4373.061, -0.009713658, 0.057314184, -351616.94, -6635.3237, 0.0, 10.000522, 9.998786 
4.7502214e+2, 2.747972e+2, -197281.94, -355069.28, 21056.379, 0.030428693, 0.041132104, -194520.33, 52473.176, 0.0, 10.0009, 9.998806 
4.7502166e+2, 2.8479603e+2, -142147.44, -343432.25, 26906.658, 0.033276647, 0.07130516, -138612.78, 10392.757, 0.0, 10.000888, 9.99822 
4.7502086e+2, 2.9479486e+2, -108120.43, -274577.4, 21216.346, -0.0022824411, 0.12954469, -105458.79, -54439.836, 0.0, 10.000441, 9.998236 
4.7502115e+2, 3.0479223e+2, -78394.11, -243294.95, 29712.428, 0.05584093, 0.04753698, -73203.78, -73203.78, 0.0, 10.000347, 9.998161 
4.7502053e+2, 3.1479055e+2, 123681.45, 106062.03, 1240.903, 0.02336984, 0.061053783, 123768.42, 123768.42, 0.00000012581201, 10.000648, 10.000416 
4.8502785e+2, 1.2480954e+2, -1649397.5, -1794551.3, -173622.73, 0.06840936, 0.088376604, -1533793.0, 183081.13, 0.0000022837717, 10.000956, 9.998979 
4.8502788e+2, 1.3480856e+2, -1482317.1, -1638222.9, 127464.03, -0.13231766, 0.057520617, -1410858.6, 208027.63, 0.0000002759338, 10.001272, 9.999252 
4.8503208e+2, 1.4480886e+2, -1376950.4, -1544899.6, 14914.073, 0.12993672, 0.16959397, -1375636.3, 145248.45, 0.000000000009128432, 10.001381, 9.999153 
4.850303e+2, 1.548074e+2, -1315228.8, -1462770.9, -14922.236, 0.061876807, 0.103877366, -1313734.6, 109164.92, 0.0, 10.001126, 9.9991665 
4.8502898e+2, 1.6480662e+2, -1213132.4, -1306830.9, 6957.2637, 0.026793623, 0.08629818, -1212618.6, 112288.125, 0.0, 10.000914, 9.999665 
4.8502803e+2, 1.7480661e+2, -1129529.8, -1212098.5, 7110.184, -0.014481912, 0.11234856, -1128922.0, 97983.36, 0.0, 10.0008, 9.999698 
4.8502716e+2, 1.8480629e+2, -1068875.5, -1162838.8, 2287.882, -0.030710934, 0.12503652, -1068819.9, 60088.62, 0.0, 10.000673, 9.999425 
4.850266e+2, 1.9480567e+2, -994152.8, -1075276.9, 7294.146, -0.007796782, 0.11555293, -993502.2, 37414.266, 0.0, 10.000511, 9.999431 
4.8502588e+2, 2.0480515e+2, -878279.94, -947402.7, 1716.0956, 0.0012255051, 0.11269885, -878237.3, 54683.97, 0.0, 10.000543, 9.999621 
4.8502487e+2, 2.1480478e+2, -744474.7, -829777.4, -6704.6367, -0.009064641, 0.10879528, -743950.94, 90971.72, 0.0, 10.000779, 9.999642 
4.8502448e+2, 2.2480404e+2, -685746.2, -804066.5, 19511.102, 0.002734469, 0.09625232, -682611.8, 54316.527, 0.0, 10.000738, 9.999166 
4.8502472e+2, 2.3480296e+2, -636629.75, -728559.1, 19499.105, 0.03885866, 0.06687541, -632664.8, 6273.61, 0.0, 10.000398, 9.999174 
4.8502433e+2, 2.4480192e+2, -577222.4, -687973.3, 8592.163, 0.033215884, 0.063420966, -576559.75, -35611.36, 0.0, 10.0002985, 9.998829 
4.850232e+2, 2.5480092e+2, -456274.47, -577575.25, 25369.674, -0.01884905, 0.07505438, -451182.25, -8223.788, 0.0, 10.000451, 9.99884 
4.8502275e+2, 2.647996e+2, -338367.63, -464911.63, 42094.375, -0.013101201, 0.056795396, -325644.34, 19326.176, 0.0, 10.0005665, 9.998886 
4.8502317e+2, 2.7479798e+2, -228720.42, -359668.28, 34043.09, 0.05558359, 0.0036299645, -220398.92, 26585.229, 0.0, 10.000639, 9.998901 
4.8502266e+2, 2.8479677e+2, -172024.1, -360087.38, 19129.791, 0.054174867, 0.028004322, -170097.94, -21101.988, 0.0, 10.000692, 9.9982 
4.8502123e+2, 2.9479587e+2, -68746.586, -257095.9, 25850.096, -0.020831393, 0.11506461, -65263.2, -14256.197, 0.0, 10.000717, 9.998222 
4.850214e+2, 3.0479294e+2, -39699.953, -203114.58, 44746.996, 0.04232856, -0.005538406, -28249.45, -28249.45, 0.0, 10.00052, 9.998354 
4.8502105e+2, 3.1479156e+2, 36675.887, 61742.0, 12034.516, 0.040132947, 0.017462594, 66584.414, 66584.414, 0.00000009052117, 10.00006, 10.000395 
4.9502832e+2, 1.2481031e+2, -1636254.4, -1767248.3, -164144.4, 0.01671271, 0.11739775, -1525022.1, 191845.95, 0.0000015131136, 10.000956, 9.999166 
4.950296e+2, 1.3480929e+2, -1474287.3, -1620812.5, 141501.95, -0.0900062, 0.07329073, -1388206.8, 230672.34, 0.00000014199817, 10.001268, 9.999374 
4.9503422e+2, 1.4480971e+2, -1372198.8, -1533885.8, 6842.1406, 0.20288165, 0.18619835, -1371909.8, 148966.47, 0.0, 10.001374, 9.999232 
4.950309e+2, 1.5480833e+2, -1309761.5, -1451139.1, -23901.639, 0.00932701, 0.1200423, -1305829.9, 117061.15, 0.0, 10.001125, 9.999246 
4.9502918e+2, 1.6480756e+2, -1214953.3, -1311788.3, 1300.2809, -0.04730965, 0.09950018, -1214935.8, 109962.78, 0.0, 10.000918, 9.99963 
4.9502903e+2, 1.7480746e+2, -1132571.0, -1218227.1, 3564.4329, 0.0050918404, 0.12222656, -1132423.0, 94474.6, 0.0, 10.000798, 9.999657 
4.950283e+2, 1.8480699e+2, -1060167.1, -1142910.6, -3791.3215, 0.013802196, 0.11470269, -1059993.8, 68907.52, 0.0, 10.000666, 9.999565 
4.950271e+2, 1.9480611e+2, -983806.0, -1053874.9, 1667.895, -0.010366818, 0.064821, -983766.3, 47144.03, 0.0, 10.000511, 9.9995775 
4.950263e+2, 2.0480567e+2, -893358.4, -977697.4, 9740.772, -0.012629997, 0.07381778, -892248.0, 40666.625, 0.0, 10.000538, 9.999416 
4.9502578e+2, 2.1480578e+2, -759579.9, -860708.2, 3046.3562, 0.006277916, 0.13756227, -759488.2, 75425.4, 0.0, 10.000776, 9.999432 
4.9502534e+2, 2.2480506e+2, -687230.25, -805476.7, 6657.035, 0.014484431, 0.13640924, -686856.7, 50063.465, 0.0, 10.0007305, 9.999159 
4.9502486e+2, 2.3480347e+2, -636789.0, -729186.06, 7041.6055, 0.012248066, 0.05713949, -636255.44, 2679.3171, 0.0, 10.000399, 9.99917 
4.9502432e+2, 2.4480256e+2, -545828.2, -622277.25, 13508.836, 0.0015243643, 0.04474204, -543511.3, -2568.9407, 0.0, 10.000296, 9.999282 
4.9502364e+2, 2.5480238e+2, -423803.16, -509432.16, 31514.34, -0.016962746, 0.09421127, -413455.3, 29487.197, 0.0, 10.000447, 9.99931 
4.950235e+2, 2.648012e+2, -353854.03, -496110.47, 44214.89, 0.0015747354, 0.07716152, -341231.56, 3721.1882, 0.0, 10.000563, 9.998673 
4.9502385e+2, 2.74799e+2, -244935.22, -393125.1, 37317.86, 0.05807328, -0.01686639, -236068.22, 10905.422, 0.0, 10.000638, 9.998672 
4.9502337e+2, 2.8479767e+2, -161876.34, -337697.63, 19673.941, 0.05697631, 0.00039302016, -159701.78, -10715.064, 0.0, 10.000687, 9.998357 
4.9502215e+2, 2.9479724e+2, -56702.926, -230043.73, 27743.268, -0.0012635674, 0.11862397, -52370.87, -1378.7034, 0.0, 10.00071, 9.998412 
4.9502224e+2, 3.047942e+2, -34794.582, -190631.0, 27550.615, 0.07109777, -0.028970113, -30067.262, -30067.262, 0.0, 10.00051, 9.998444 
4.9502116e+2, 3.1479293e+2, 20211.83, 29419.723, 2128.8079, 0.044342533, -0.0010415075, 29888.068, 29888.068, 0.000000050936965, 10.000054, 10.0001745 
5.050296e+2, 1.2481088e+2, -1531490.3, -1691579.1, -174894.58, 0.019529002, 0.1315373, -1419193.3, 297670.4, 0.0000009949754, 10.001571, 9.999387 
5.0503045e+2, 1.3480966e+2, -1523670.8, -1626785.8, 134066.13, -0.10843901, 0.051121123, -1431590.1, 187285.0, 0.000000065122016, 10.00085, 9.999537 
5.050352e+2, 1.4481023e+2, -1479236.9, -1575900.6, 9871.786, 0.2111573, 0.16586965, -1478239.0, 42631.332, 0.0, 10.000599, 9.999318 
5.0503176e+2, 1.548093e+2, -1346268.8, -1459470.8, -23840.445, -0.00062132336, 0.13674377, -1341452.8, 81428.8, 0.0, 10.000834, 9.99933 
5.050299e+2, 1.6480865e+2, -1223863.6, -1311859.8, -1660.1361, -0.06023474, 0.12158973, -1223832.3, 101055.97, 0.0, 10.000838, 9.999668 
5.0502974e+2, 1.7480832e+2, -1164974.0, -1229708.0, 5382.0483, 0.008724891, 0.117181025, -1164529.6, 62359.85, 0.0, 10.000557, 9.999695 
5.050289e+2, 1.848078e+2, -1089157.4, -1151858.3, 5387.8037, 0.024559507, 0.1020251, -1088697.8, 40195.47, 0.0, 10.000444, 9.999611 
5.0502765e+2, 1.9480711e+2, -975915.9, -1044895.3, 2773.625, -0.0052147587, 0.066964544, -975804.56, 55095.145, 0.0, 10.000543, 9.999624 
5.050269e+2, 2.0480667e+2, -897368.0, -992460.0, 15153.812, -0.006984209, 0.076973535, -895011.5, 37892.74, 0.0, 10.000565, 9.999303 
5.050265e+2, 2.148065e+2, -809239.4, -897639.75, 14016.628, 0.016816, 0.12661956, -807070.1, 27836.48, 0.0, 10.00049, 9.999315 
5.050259e+2, 2.248058e+2, -722309.56, -806733.8, 17489.742, 0.020153966, 0.12661667, -718829.75, 18083.514, 0.0, 10.000422, 9.9993 
5.0502515e+2, 2.3480454e+2, -633569.25, -711076.0, 28126.387, 0.002533375, 0.06470948, -624438.2, 14486.103, 0.0, 10.00035, 9.999318 
5.050246e+2, 2.4480371e+2, -529142.94, -611372.5, 39117.547, -0.0050740317, 0.05249456, -513507.34, 27423.31, 0.0, 10.000399, 9.999307 
5.050243e+2, 2.548034e+2, -402484.9, -497019.66, 23540.387, -0.0013610055, 0.08329618, -396947.4, 45984.57, 0.0, 10.000585, 9.99933 
5.0502425e+2, 2.648022e+2, -365762.1, -510907.94, 13344.795, 0.02102032, 0.06876381, -364545.34, -19602.775, 0.0, 10.000521, 9.998591 
5.0502425e+2, 2.7480012e+2, -317825.5, -437974.94, 14924.818, 0.0604322, -0.0011514033, -315999.3, -69036.266, 0.0, 10.00018, 9.998583 
5.050238e+2, 2.847989e+2, -221713.6, -344598.44, 16737.482, 0.055833384, 0.019809324, -219474.66, -70499.445, 0.0, 10.000182, 9.998552 
5.050229e+2, 2.947985e+2, -67471.46, -211460.4, 26584.951, 0.01100978, 0.12214811, -62719.836, -11740.902, 0.0, 10.000533, 9.998624 
5.05023e+2, 3.047955e+2, -4832.46, -162583.95, 12051.067, 0.08728987, -0.039206672, -3917.157, -3917.157, 0.0, 10.000658, 9.998566 
5.050214e+2, 3.1479472e+2, 71073.195, 25185.785, -8687.926, 0.037752092, 0.027056657, 72663.016, 72663.016, 0.000000020855737, 10.000526, 9.999919 
5.150317e+2, 1.2481121e+2, -1514827.4, -1654574.9, -203805.23, 0.06642646, 0.12844172, -1369250.6, 347610.88, 0.00000067894854, 10.001559, 9.999647 
5.1503044e+2, 1.348097e+2, -1507777.6, -1594969.3, 108461.875, -0.19405326, -0.0033663674, -1434477.9, 184396.19, 0.000000029496794, 10.000854, 9.999754 
5.150352e+2, 1.4481045e+2, -1472944.0, -1564985.1, 17189.604, 0.1457742, 0.11598341, -1469838.5, 51028.38, 0.0, 10.000607, 9.99939 
5.150329e+2, 1.5481025e+2, -1341555.3, -1449027.3, -14427.535, 0.029059814, 0.15319197, -1339652.1, 83219.31, 0.0, 10.000832, 9.999403 
5.150313e+2, 1.6480982e+2, -1215754.6, -1293708.1, -12385.839, -0.014826, 0.15180698, -1213834.0, 111042.16, 0.0, 10.000832, 9.999796 
5.150301e+2, 1.7480914e+2, -1155545.6, -1210672.0, -4823.414, -0.008423764, 0.0970233, -1155126.8, 71754.43, 0.0, 10.000559, 9.999825 
5.1502913e+2, 1.8480875e+2, -1092399.6, -1159291.3, 7872.7915, -0.0050157807, 0.08836174, -1091485.5, 37398.574, 0.0, 10.000447, 9.999558 
5.150283e+2, 1.9480868e+2, -980063.3, -1053205.5, 6956.6626, 0.0062374608, 0.12098147, -979407.56, 51476.94, 0.0, 10.000541, 9.999569 
5.1502764e+2, 2.0480809e+2, -900833.56, -997301.1, 12052.032, 0.015801787, 0.121034, -899350.6, 33539.695, 0.0, 10.000554, 9.999274 
5.1502705e+2, 2.1480696e+2, -811333.1, -901847.3, 11724.618, 0.020296808, 0.07630505, -809839.06, 25062.826, 0.0, 10.000489, 9.999288 
5.150264e+2, 2.248063e+2, -702489.06, -764682.1, 14283.804, 0.016662354, 0.06711555, -699365.4, 37542.375, 0.0, 10.000418, 9.999591 
5.150255e+2, 2.3480615e+2, -612647.8, -667650.25, 25979.537, 0.006958505, 0.08813975, -602317.06, 36590.207, 0.0, 10.000349, 9.999617 
5.1502514e+2, 2.4480537e+2, -558053.25, -670752.56, 45100.93, 0.009155952, 0.084028095, -542226.94, -1313.445, 0.0, 10.000397, 9.9989 
5.150252e+2, 2.5480387e+2, -432380.75, -558667.8, 30843.842, 0.025437836, 0.042140674, -425250.2, 17676.703, 0.0, 10.000583, 9.998907 
5.1502496e+2, 2.6480255e+2, -363850.4, -505955.25, 759.3203, 0.043510456, 0.032249104, -363846.34, -18906.402, 0.0, 10.000516, 9.998628 
5.150244e+2, 2.748014e+2, -314373.2, -430697.2, 2986.803, 0.059896298, 0.050995737, -314296.53, -67344.164, 0.0, 10.000179, 9.998634 
5.1502395e+2, 2.8480044e+2, -206525.88, -311998.9, 29161.84, 0.046812434, 0.08554559, -199000.02, -50038.41, 0.0, 10.000177, 9.998778 
5.150234e+2, 2.9479966e+2, -51868.438, -177310.56, 40741.793, 0.01057227, 0.12440459, -39797.62, 11169.916, 0.0, 10.000526, 9.998862 
5.1502365e+2, 3.0479684e+2, 4338.4326, -141468.73, 6410.619, 0.086607926, -0.037549403, 4619.7417, 4619.7417, 0.0, 10.000649, 9.998715 
5.1502174e+2, 3.147969e+2, 52039.504, -12728.395, -5880.013, 0.015366856, 0.10073208, 52568.996, 52568.996, 0.0000000053166334, 10.000521, 9.999661 
5.250325e+2, 1.2481206e+2, -1699355.3, -1735737.6, -148073.94, 0.06433676, 0.113347575, -1568359.3, 148493.22, 0.0000005002885, 10.000262, 9.999713 
5.2503115e+2, 1.348108e+2, -1457123.8, -1569134.5, 143711.72, -0.22632995, 0.004953601, -1358890.1, 259972.89, 0.000000016983103, 10.001194, 9.999768 
5.250362e+2, 1.4481151e+2, -1362945.1, -1507808.8, 30222.938, 0.14351141, 0.11707072, -1356892.5, 163963.44, 0.0, 10.001345, 9.999427 
5.2503365e+2, 1.5481102e+2, -1382582.9, -1464688.0, -5807.662, 0.034165934, 0.12151463, -1382174.1, 40688.215, 0.0, 10.000532, 9.999439 
5.250318e+2, 1.6481054e+2, -1309640.0, -1353899.4, -1129.7003, -0.011178101, 0.118515156, -1309611.3, 15256.615, 0.0, 10.000251, 9.999663 
5.250306e+2, 1.7481002e+2, -1160130.8, -1228585.3, -15152.407, -0.010244524, 0.09625695, -1156926.8, 69945.82, 0.0, 10.000594, 9.999686 
5.2502966e+2, 1.8480973e+2, -1051866.4, -1135024.8, -10962.703, -0.008109978, 0.10230335, -1050445.4, 78429.78, 0.0, 10.000704, 9.999602 
5.250289e+2, 1.9480966e+2, -976475.06, -1045889.44, -5424.1855, 0.0019448556, 0.13134098, -976053.8, 54821.336, 0.0, 10.000542, 9.999619 
5.250281e+2, 2.0480907e+2, -911146.1, -987138.1, 9763.205, 0.0107758725, 0.12113133, -909911.8, 22968.678, 0.0, 10.000418, 9.999409 
5.250274e+2, 2.1480791e+2, -823226.6, -892121.3, 20710.154, 0.015653627, 0.060304523, -817480.3, 17411.305, 0.0, 10.000341, 9.999425 
5.250268e+2, 2.2480729e+2, -713365.8, -787214.94, 19872.967, 0.01870084, 0.057465028, -708357.6, 28539.44, 0.0, 10.000418, 9.999436 
5.250262e+2, 2.3480728e+2, -578399.7, -668936.3, -3727.137, 0.02104839, 0.107385315, -578246.5, 60649.91, 0.0, 10.000662, 9.999458 
5.2502584e+2, 2.448064e+2, -534139.44, -669644.75, 3473.3584, 0.029496305, 0.10614005, -534050.5, 6853.6455, 0.0, 10.000606, 9.998808 
5.250258e+2, 2.5480458e+2, -491929.13, -597544.06, 12260.002, 0.045229305, 0.04022564, -490524.63, -47603.82, 0.0, 10.000218, 9.998816 
5.250254e+2, 2.648032e+2, -397685.4, -517488.88, 2601.358, 0.05478663, 0.028009398, -397628.94, -52694.695, 0.0, 10.000262, 9.998671 
5.2502483e+2, 2.7480227e+2, -225716.89, -382244.03, 4434.865, 0.054722026, 0.06474944, -225591.33, 21352.89, 0.0, 10.000765, 9.998684 
5.250243e+2, 2.8480127e+2, -120167.19, -267641.53, 17398.748, 0.037181064, 0.09208067, -118142.32, 30811.096, 0.0, 10.000759, 9.998802 
5.2502376e+2, 2.9480025e+2, -98019.12, -197711.89, 11528.845, 0.008227774, 0.10281784, -96703.24, -45741.816, 0.0, 10.000201, 9.9988785 
5.2502406e+2, 3.0479768e+2, -57009.47, -155070.28, -19884.992, 0.085661426, -0.04261849, -53130.58, -53130.58, 0.0, 10.000158, 9.998858 
5.2502215e+2, 3.1479806e+2, 54664.883, -35839.496, -27140.133, 0.0043338635, 0.115240194, 62179.61, 62179.61, 0.00000000056215, 10.000642, 9.999445 
5.3503215e+2, 1.2481346e+2, -1709104.1, -1758336.4, -111339.66, -0.0026548272, 0.090056755, -1619691.9, 97144.53, 0.00000041209, 10.000272, 9.999554 
5.350325e+2, 1.3481289e+2, -1471829.5, -1600359.8, 179657.31, -0.20839784, 0.07388776, -1345289.0, 273553.47, 0.000000018082496, 10.001195, 9.999555 
5.350381e+2, 1.4481331e+2, -1362580.3, -1505229.4, 355.06128, 0.20053521, 0.16698427, -1362579.4, 158258.83, 0.0, 10.001336, 9.999449 
5.3503394e+2, 1.5481159e+2, -1380608.9, -1461091.3, -36536.168, 0.00970035, 0.0432008, -1366497.1, 56356.93, 0.0, 10.000535, 9.999463 
5.350316e+2, 1.6481075e+2, -1337403.0, -1412820.6, 9637.763, -0.055952985, 0.025494823, -1336190.8, -11327.895, 0.0, 10.000257, 9.999257 
5.350314e+2, 1.7481095e+2, -1189280.6, -1288818.9, -1591.4438, 0.00090942037, 0.11483709, -1189255.1, 37608.61, 0.0, 10.000592, 9.999274 
5.350306e+2, 1.8481071e+2, -1042925.0, -1114893.6, -17157.709, 0.012129576, 0.1432254, -1039043.8, 89822.87, 0.0, 10.000697, 9.999743 
5.350292e+2, 1.9481006e+2, -966041.06, -1024127.94, -11383.561, -0.02105118, 0.09732016, -963889.8, 66981.83, 0.0, 10.000541, 9.999769 
5.350282e+2, 2.048096e+2, -890650.75, -943737.94, 6196.059, -0.025644733, 0.0774942, -889937.1, 42937.684, 0.0, 10.000415, 9.999709 
5.350276e+2, 2.1480936e+2, -802790.75, -848764.8, 18210.717, 0.0002439761, 0.07759983, -796451.44, 38424.42, 0.0, 10.000337, 9.999725 
5.350272e+2, 2.2480881e+2, -756052.8, -874607.1, 28033.057, 0.022823753, 0.09550777, -749758.4, -12877.007, 0.0, 10.000412, 9.998839 
5.35027e+2, 2.3480795e+2, -621589.0, -758820.1, 5962.958, 0.042747438, 0.12218756, -621330.4, 17561.26, 0.0, 10.000662, 9.998841 
5.3502667e+2, 2.4480684e+2, -519426.75, -638472.6, -10784.715, 0.053613156, 0.1185475, -518457.63, 22444.941, 0.0, 10.000603, 9.9990225 
5.3502613e+2, 2.5480548e+2, -475758.9, -564261.0, -1699.1901, 0.055089105, 0.07655965, -475726.3, -32812.438, 0.0, 10.000218, 9.999044 
5.350257e+2, 2.6480412e+2, -394752.38, -510881.4, 20521.059, 0.05147866, 0.05409767, -391232.8, -46307.01, 0.0, 10.00026, 9.998717 
5.3502554e+2, 2.7480274e+2, -223163.72, -375682.56, 23831.404, 0.041168395, 0.03963667, -219526.73, 27412.018, 0.0, 10.000759, 9.998732 
5.350249e+2, 2.8480142e+2, -133601.14, -293598.97, -3340.711, 0.023412434, 0.040219866, -133531.42, 15419.27, 0.0, 10.000751, 9.998629 
5.350239e+2, 2.9480025e+2, -111073.26, -224693.27, -8073.1333, 0.0023467666, 0.057733215, -110502.5, -59541.95, 0.0, 10.0002, 9.998694 
5.350241e+2, 3.04798e+2, -49200.926, -137587.92, -2610.703, 0.08153083, -0.05548153, -49123.883, -49123.883, 0.0, 10.000154, 9.9989805 
5.350227e+2, 3.1479824e+2, 41200.51, -60954.87, -492.92032, -0.0057135867, 0.07238243, 41202.89, 41202.89, 0.0000000000003731001, 10.00063, 9.999277 
5.450328e+2, 1.24814376e+2, -1590040.0, -1711329.3, -138758.31, -0.011724343, 0.07421649, -1499252.6, 217573.02, 0.00000036785775, 10.001135, 9.999459 
5.450333e+2, 1.3481387e+2, -1575221.0, -1665975.9, 152262.22, -0.22297226, 0.078730606, -1461718.3, 157114.38, 0.000000024396927, 10.000552, 9.9994135 
5.4503906e+2, 1.4481425e+2, -1474278.9, -1548189.9, -29999.803, 0.20895164, 0.17084397, -1463635.0, 57194.113, 0.0, 10.000524, 9.999544 
5.450346e+2, 1.5481257e+2, -1288527.5, -1405918.6, -65225.016, -0.0054236087, 0.042663436, -1259476.4, 163367.3, 0.0, 10.00112, 9.999559 
5.450321e+2, 1.6481175e+2, -1213036.6, -1360566.4, -4511.4077, -0.07911745, 0.023184495, -1212898.8, 111953.58, 0.0, 10.001144, 9.999187 
5.4503185e+2, 1.7481188e+2, -1205403.6, -1303931.6, 9078.457, -0.007987083, 0.113792166, -1204574.1, 22279.877, 0.0, 10.000516, 9.999205 
5.45031e+2, 1.8481156e+2, -1107878.3, -1153805.0, 6388.587, 0.008817707, 0.13955453, -1107006.1, 21852.008, 0.0, 10.000285, 9.999675 
5.450296e+2, 1.9481078e+2, -977189.8, -1037263.8, -5430.176, -0.031040546, 0.087279804, -976702.9, 54162.105, 0.0, 10.000498, 9.9997 
5.450286e+2, 2.0481037e+2, -869107.7, -933935.25, -10861.779, -0.03084671, 0.07633775, -867336.2, 65531.734, 0.0, 10.000565, 9.999704 
5.4502815e+2, 2.1481036e+2, -783463.25, -839580.56, -22500.715, 0.012108348, 0.10090788, -775555.7, 59310.88, 0.0, 10.00047, 9.999724 
5.450278e+2, 2.2480975e+2, -756064.5, -870871.44, 6932.3374, 0.037682813, 0.11106991, -755647.44, -18775.178, 0.0, 10.000396, 9.998873 
5.450276e+2, 2.348085e+2, -665016.0, -775704.7, 32500.174, 0.044944532, 0.095391914, -656178.9, -17293.332, 0.0, 10.000346, 9.998877 
5.450271e+2, 2.4480739e+2, -544086.0, -652299.5, 26704.201, 0.04465131, 0.08980288, -537854.94, 3041.6843, 0.0, 10.0004425, 9.999004 
5.4502636e+2, 2.5480643e+2, -408142.06, -533586.8, 16494.209, 0.03639603, 0.08915895, -406009.56, 36895.32, 0.0, 10.000693, 9.999025 
5.45026e+2, 2.6480514e+2, -332964.3, -473817.53, 36018.99, 0.03809839, 0.07277091, -324287.97, 20627.986, 0.0, 10.000654, 9.998782 
5.4502606e+2, 2.748035e+2, -285857.2, -399130.8, 39400.1, 0.0491173, 0.025358353, -273500.53, -26569.969, 0.0, 10.0002985, 9.998794 
5.450256e+2, 2.8480205e+2, -211225.14, -347058.38, 8169.193, 0.03652489, 0.016901089, -210735.61, -61791.72, 0.0, 10.000287, 9.998485 
5.4502434e+2, 2.9480097e+2, -58822.84, -215627.27, 4449.491, 0.0029819647, 0.055306036, -58696.68, -7742.3403, 0.0, 10.00063, 9.998548 
5.4502445e+2, 3.0479902e+2, 16540.354, -90853.77, 15125.859, 0.07837831, -0.02546595, 18630.084, 18630.084, 0.0, 10.00054, 9.999115 
5.450231e+2, 3.1479868e+2, -58565.137, -116462.625, 23082.451, 0.0015981431, 0.03173503, -50489.168, -50489.168, 0.000000000015387011, 9.999978, 9.999209 
5.5503434e+2, 1.24814786e+2, -1590299.6, -1711362.4, -156394.83, 0.03058608, 0.062258437, -1483130.6, 233690.1, 0.0000003291145, 10.001133, 9.999459 
5.550333e+2, 1.3481382e+2, -1577047.0, -1670974.3, 130412.9, -0.27426603, 0.021489015, -1485399.3, 133433.7, 0.000000025104656, 10.000558, 9.999376 
5.5503917e+2, 1.4481442e+2, -1463786.6, -1527564.4, -9398.378, 0.16222711, 0.13148765, -1462430.5, 58397.605, 0.0, 10.000527, 9.999684 
5.5503565e+2, 1.5481403e+2, -1278251.5, -1384381.3, -42110.844, -0.014247672, 0.11905936, -1263572.8, 159258.6, 0.0, 10.001118, 9.999709 
5.550332e+2, 1.6481352e+2, -1195154.9, -1321458.9, -28048.045, -0.083852656, 0.109875426, -1189206.4, 135629.84, 0.0, 10.001136, 9.999459 
5.55032e+2, 1.7481285e+2, -1186485.0, -1264169.5, -14579.103, -0.039992284, 0.0929767, -1183839.0, 43004.188, 0.0, 10.000514, 9.999478 
5.55031e+2, 1.8481228e+2, -1127761.8, -1194800.5, 13154.054, -0.021983394, 0.09189393, -1125273.0, 3576.553, 0.0, 10.000283, 9.999394 
5.550301e+2, 1.9481179e+2, -998145.4, -1079955.0, 3071.9226, -0.030220278, 0.10093256, -998030.2, 32825.04, 0.0, 10.000493, 9.999409 
5.550294e+2, 2.0481135e+2, -890969.8, -977889.56, -14567.963, -0.0077966903, 0.11629245, -888593.2, 44266.77, 0.0, 10.000559, 9.999406 
5.55029e+2, 2.1481094e+2, -805111.75, -883742.25, -25505.074, 0.048112277, 0.12966813, -797563.44, 37300.195, 0.0, 10.000466, 9.999423 
5.5502844e+2, 2.2481015e+2, -710312.7, -775137.5, 4630.059, 0.060322408, 0.10406276, -709983.6, 26885.994, 0.0, 10.000393, 9.999531 
5.550278e+2, 2.3480897e+2, -617862.94, -677506.44, 30895.95, 0.025434516, 0.02749573, -604744.06, 34134.12, 0.0, 10.000345, 9.999552 
5.550271e+2, 2.4480803e+2, -562055.56, -688925.56, 35344.82, 0.00044257895, 0.019500226, -552873.4, -11986.988, 0.0, 10.00044, 9.9987545 
5.5502653e+2, 2.548074e+2, -426960.44, -572176.8, 26366.148, -0.013125201, 0.07778957, -422321.47, 20572.484, 0.0, 10.00069, 9.998761 
5.550264e+2, 2.6480627e+2, -327737.47, -462330.66, 22624.271, 0.011844639, 0.08387258, -324036.25, 20868.602, 0.0, 10.000651, 9.998862 
5.5502665e+2, 2.7480453e+2, -280523.94, -388083.06, 26646.715, 0.075616404, 0.020279659, -274284.44, -27364.58, 0.0, 10.000298, 9.99887 
5.550262e+2, 2.8480312e+2, -221374.64, -366585.53, 20287.156, 0.07361158, 0.020236302, -218593.61, -69660.35, 0.0, 10.00028, 9.998353 
5.5502504e+2, 2.948023e+2, -69527.75, -235288.1, 17871.99, 0.005394202, 0.09619111, -67622.72, -16679.717, 0.0, 10.00062, 9.998418 
5.550249e+2, 3.048007e+2, 26110.844, -68008.79, -6691.0933, 0.07185022, 0.049290534, 26584.143, 26584.143, 0.0, 10.000527, 9.999278 
5.5502325e+2, 3.1479943e+2, -54112.688, -107032.164, 9131.024, 0.019644512, -0.0030474863, -52581.477, -52581.477, 0.0000000020600701, 9.999977, 9.999274 
5.650357e+2, 1.2481546e+2, -1583220.3, -1705871.5, -153194.06, 0.050500583, 0.06359929, -1479533.0, 237281.48, 0.00000027083397, 10.001176, 9.999475 
5.650336e+2, 1.3481441e+2, -1548410.3, -1658997.8, 122991.98, -0.30576256, 0.014978178, -1468854.4, 149972.7, 0.000000017878008, 10.00076, 9.999362 
5.6503946e+2, 1.4481494e+2, -1464654.5, -1518483.6, 10311.724, 0.14021999, 0.11564213, -1462746.8, 58076.13, 0.0, 10.000481, 9.999769 
5.6503624e+2, 1.5481485e+2, -1381411.1, -1423874.4, -26351.7, -0.026794773, 0.12388764, -1368802.0, 54021.793, 0.0, 10.000368, 9.999798 
5.650338e+2, 1.6481453e+2, -1289289.3, -1343445.8, -33077.7, -0.0934856, 0.11901272, -1273619.8, 51206.977, 0.0, 10.000391, 9.999666 
5.650325e+2, 1.7481396e+2, -1164584.1, -1230925.6, -27095.521, -0.048106827, 0.08924575, -1154924.3, 71907.766, 0.0, 10.0005665, 9.999681 
5.6503135e+2, 1.848134e+2, -1090840.5, -1182615.0, 15528.823, -0.023621019, 0.08519555, -1088284.1, 40553.48, 0.0, 10.000561, 9.999345 
5.650306e+2, 1.9481295e+2, -1021351.0, -1096905.8, 22399.828, -0.023365047, 0.10197952, -1015209.4, 15633.789, 0.0, 10.0003605, 9.999356 
5.6503e+2, 2.0481241e+2, -923537.2, -1010473.1, 24153.227, 0.0002896337, 0.11695167, -917277.5, 15571.792, 0.0, 10.000408, 9.999254 
5.650296e+2, 2.1481176e+2, -777543.2, -887340.4, 23370.146, 0.050332744, 0.12129772, -772775.9, 62080.098, 0.0, 10.00073, 9.999271 
5.6502897e+2, 2.248109e+2, -655852.4, -745249.7, 26555.05, 0.05958554, 0.09569332, -648559.3, 88303.31, 0.0, 10.0007515, 9.999563 
5.6502813e+2, 2.3480985e+2, -599866.2, -664630.9, 3973.9275, 0.024713494, 0.029293243, -599623.25, 39245.902, 0.0, 10.00045, 9.999589 
5.650275e+2, 2.4480893e+2, -581058.06, -696770.1, 6217.949, -0.002849996, 0.01943666, -580724.94, -39847.887, 0.0, 10.000302, 9.998766 
5.65027e+2, 2.5480816e+2, -479369.75, -596470.56, 16992.326, -0.021947075, 0.063394405, -476953.88, -34067.715, 0.0, 10.000325, 9.998771 
5.650269e+2, 2.648071e+2, -376889.97, -493010.38, 7277.9336, 0.0069334027, 0.07999033, -376435.6, -31538.904, 0.0, 10.000344, 9.998798 
5.650271e+2, 2.7480567e+2, -277325.25, -392835.34, -998.747, 0.08476875, 0.051254682, -277316.63, -30407.14, 0.0, 10.00035, 9.99881 
5.6502664e+2, 2.8480425e+2, -222592.36, -361994.1, 4092.9666, 0.08690924, 0.05013003, -222472.3, -73548.875, 0.0, 10.000251, 9.998399 
5.650254e+2, 2.9480314e+2, -151080.69, -271831.88, 14087.965, 0.013555613, 0.09346693, -149458.84, -98522.81, 0.0, 10.000047, 9.998444 
5.6502527e+2, 3.0480194e+2, -12472.839, -83979.43, -9384.323, 0.06959427, 0.08672778, -11261.778, -11261.778, 0.0, 10.000249, 9.999303 
5.650236e+2, 3.1480053e+2, 80618.27, -36458.527, -1436.7246, 0.013494627, 0.013904693, 80635.91, 80635.91, 0.000000017271022, 10.000876, 9.999327 
5.750368e+2, 1.2481647e+2, -1582608.8, -1707971.1, -162270.08, 0.03871711, 0.07940383, -1471334.5, 245471.58, 0.00000019303324, 10.001187, 9.999456 
5.7503426e+2, 1.3481566e+2, -1548659.4, -1660906.0, 107265.555, -0.3204526, 0.058782604, -1483721.9, 135092.88, 0.000000007774616, 10.000764, 9.999349 
5.750399e+2, 1.4481585e+2, -1463054.3, -1513794.8, 4520.786, 0.13929527, 0.12264641, -1462654.6, 58158.74, 0.0, 10.000475, 9.999804 
5.7503647e+2, 1.5481506e+2, -1378794.0, -1417892.1, -30169.178, -0.046726972, 0.058081035, -1362393.9, 60427.16, 0.0, 10.000365, 9.99984 
5.750341e+2, 1.6481481e+2, -1280391.4, -1324857.3, -27076.574, -0.112165555, 0.05185756, -1267589.4, 57234.137, 0.0, 10.000389, 9.999796 
5.750332e+2, 1.7481515e+2, -1155471.3, -1212379.4, -19867.322, -0.03486041, 0.10239756, -1149221.8, 77598.695, 0.0, 10.000567, 9.99981 
5.7503223e+2, 1.8481497e+2, -1079213.1, -1157657.1, 7568.2144, 0.00017031709, 0.11883734, -1078489.6, 50332.39, 0.0, 10.000558, 9.999517 
5.7503104e+2, 1.9481425e+2, -1009552.56, -1071569.4, 14917.688, -0.013459041, 0.09046113, -1006150.8, 24677.984, 0.0, 10.000357, 9.999532 
5.7503027e+2, 2.0481353e+2, -924343.9, -1011339.8, 35197.387, -0.008936035, 0.07879941, -911887.1, 20948.867, 0.0, 10.000404, 9.99925 
5.7502997e+2, 2.1481279e+2, -778603.75, -888467.4, 35770.945, 0.016332833, 0.07658685, -767983.56, 66860.1, 0.0, 10.000725, 9.999267 
5.750295e+2, 2.24812e+2, -697521.6, -830683.06, 15201.802, 0.03293105, 0.08606003, -695808.2, 41042.98, 0.0, 10.000747, 9.99898 
5.750288e+2, 2.3481116e+2, -641848.9, -751286.75, -6787.4624, 0.040483568, 0.09923951, -641429.5, -2571.0347, 0.0, 10.000448, 9.998995 
5.750281e+2, 2.4481004e+2, -562110.3, -657527.0, 6326.5796, 0.031747594, 0.08813633, -561692.7, -20824.078, 0.0, 10.000302, 9.999036 
5.750276e+2, 2.5480872e+2, -460153.75, -556109.9, 18214.54, 0.006506348, 0.045654405, -456812.56, -13931.132, 0.0, 10.000323, 9.999049 
5.7502735e+2, 2.6480767e+2, -392515.06, -524626.4, 7090.739, 0.020811388, 0.06145346, -392135.6, -47244.1, 0.0, 10.00034, 9.998584 
5.7502735e+2, 2.748069e+2, -292646.9, -423447.53, -398.86548, 0.07369068, 0.119382024, -292645.7, -45746.246, 0.0, 10.000345, 9.998603 
5.7502675e+2, 2.848054e+2, -207192.2, -328935.75, -4249.5254, 0.073193125, 0.10788371, -207044.06, -58129.723, 0.0, 10.000245, 9.998629 
5.7502556e+2, 2.9480344e+2, -136481.4, -241530.45, 7426.575, 0.022399865, 0.044605773, -135958.98, -85025.38, 0.0, 10.000046, 9.9986515 
5.750255e+2, 3.0480272e+2, -23174.695, -105254.08, 13065.92, 0.06773264, 0.08386121, -21144.973, -21144.973, 0.00000000021282408, 10.000245, 9.999159 
5.750242e+2, 3.148019e+2, 79172.1, -35282.74, 28514.742, -0.023123737, 0.085852444, 85882.68, 85882.68, 0.0000000699572, 10.000859, 9.999343 
5.850375e+2, 1.248177e+2, -1651790.0, -1717667.3, -149052.69, 0.025920598, 0.108194254, -1532079.9, 184715.75, 0.00000011738098, 10.000613, 9.999665 
5.85035e+2, 1.3481686e+2, -1541668.8, -1632982.8, 125402.93, -0.31731036, 0.06309838, -1453869.9, 164932.9, 0.0000000014227642, 10.0007105, 9.999564 
5.850406e+2, 1.4481689e+2, -1455830.5, -1513157.8, 27385.441, 0.15985127, 0.10503124, -1444851.1, 75950.875, 0.0, 10.000539, 9.999777 
5.850367e+2, 1.5481625e+2, -1413434.1, -1438295.8, -14409.32, -0.050111018, 0.05496198, -1406834.6, 15974.29, 0.0, 10.000144, 9.999806 
5.850342e+2, 1.6481599e+2, -1320072.1, -1345801.5, 1068.1371, -0.12514919, 0.0510257, -1320027.9, 4783.837, 0.0, 10.000124, 9.99978 
5.850338e+2, 1.748162e+2, -1163817.8, -1218035.5, -2785.323, -0.03533233, 0.08978952, -1163675.0, 63134.793, 0.0, 10.000518, 9.999794 
5.850329e+2, 1.8481602e+2, -1044096.8, -1133088.1, 3476.735, 0.006445313, 0.10382992, -1043961.2, 84850.11, 0.0, 10.000767, 9.999584 
5.850317e+2, 1.9481543e+2, -932694.4, -1026754.75, 1831.7507, -0.010044635, 0.08258998, -932658.75, 98157.53, 0.0, 10.000851, 9.999601 
5.850308e+2, 2.0481478e+2, -878451.75, -995866.9, 19543.72, -0.009850438, 0.076722376, -875284.1, 57538.645, 0.0, 10.000749, 9.99919 
5.850305e+2, 2.1481402e+2, -822761.75, -916679.44, 14840.722, 0.010265155, 0.07911626, -820472.44, 14358.445, 0.0, 10.000451, 9.999204 
5.8502996e+2, 2.2481316e+2, -752248.2, -875564.7, 8318.328, 0.021949794, 0.09138896, -751689.6, -14849.966, 0.0, 10.00045, 9.998815 
5.850292e+2, 2.3481214e+2, -606667.06, -753152.0, 17409.791, 0.024265481, 0.104560204, -604626.3, 34222.914, 0.0, 10.0007715, 9.998827 
5.850286e+2, 2.4481091e+2, -495998.63, -639233.7, 28402.174, 0.022397975, 0.09616165, -490572.3, 50288.617, 0.0, 10.000816, 9.998915 
5.850281e+2, 2.548095e+2, -434257.47, -556562.4, 9126.601, 0.016260475, 0.059525285, -433580.16, 9294.331, 0.0, 10.000558, 9.998933 
5.850278e+2, 2.6480845e+2, -380881.4, -513374.7, -2517.7175, 0.030510994, 0.073720075, -380833.56, -35948.652, 0.0, 10.000397, 9.998633 
5.850276e+2, 2.7480757e+2, -287735.47, -415773.22, 9322.154, 0.06429074, 0.122738026, -287060.3, -40167.49, 0.0, 10.000354, 9.9986515 
5.850269e+2, 2.8480598e+2, -197853.97, -328140.38, 2505.3345, 0.06373462, 0.09773882, -197805.81, -48897.02, 0.0, 10.000325, 9.998596 
5.8502585e+2, 2.9480377e+2, -105422.375, -232109.63, -8320.1, 0.03164323, 0.014837595, -104878.3, -53947.883, 0.0, 10.000284, 9.998602 
5.8502567e+2, 3.0480337e+2, -49093.27, -131171.86, 1382.048, 0.06999948, 0.09550496, -49070.008, -49070.008, 0.000000006848287, 10.000127, 9.999037 
5.850244e+2, 3.1480265e+2, -54354.977, -87559.92, 22490.686, -0.034688056, 0.11371704, -43002.61, -43002.61, 0.00000018333391, 9.999889, 9.999451 
5.95038e+2, 1.2481917e+2, -1619714.3, -1653301.3, -134245.7, 0.0080954395, 0.15194681, -1501215.8, 215567.02, 0.000000058921596, 10.000621, 10.000104 
5.95036e+2, 1.3481797e+2, -1509753.6, -1567538.9, 128514.87, -0.29993272, 0.027051125, -1406923.6, 211867.47, 0.000000000010343272, 10.000712, 10.000012 
5.950416e+2, 1.4481814e+2, -1463173.1, -1527802.4, 11647.794, 0.19747204, 0.062142327, -1461138.0, 59650.566, 0.0, 10.000535, 9.999679 
5.950369e+2, 1.5481839e+2, -1420967.9, -1454579.0, -28529.549, -0.039576467, 0.11357272, -1404662.0, 18125.537, 0.0, 10.000146, 9.999694 
5.950342e+2, 1.6481805e+2, -1331735.9, -1369900.9, 14695.484, -0.1360699, 0.11495883, -1326733.1, -1941.7367, 0.0, 10.000123, 9.999615 
5.9503406e+2, 1.7481707e+2, -1174943.3, -1241175.3, 12491.428, -0.05237463, 0.05156639, -1172665.6, 54134.63, 0.0, 10.000517, 9.999636 
5.950336e+2, 1.8481655e+2, -1047032.8, -1138319.9, 6561.9155, -0.008216986, 0.040447615, -1046563.56, 82241.58, 0.0, 10.000762, 9.999551 
5.9503245e+2, 1.9481653e+2, -935215.8, -1031643.7, 5312.3486, -0.01552847, 0.07863172, -934924.06, 95881.39, 0.0, 10.000849, 9.999569 
5.950317e+2, 2.0481616e+2, -887658.5, -1013745.7, 7975.415, -0.0049776956, 0.11061074, -887156.06, 45653.473, 0.0, 10.000743, 9.99907 
5.9503114e+2, 2.1481544e+2, -832077.25, -934716.3, 4112.1304, 0.029431185, 0.12787941, -831912.75, 2904.7852, 0.0, 10.000446, 9.999083 
5.950304e+2, 2.2481434e+2, -735350.6, -839570.7, 19227.7, 0.02383798, 0.11092408, -731916.44, 4911.581, 0.0, 10.000445, 9.9990635 
5.950295e+2, 2.3481281e+2, -589322.06, -716409.44, 29819.89, -0.026533147, 0.04676431, -582672.94, 56168.31, 0.0, 10.000768, 9.999082 
5.950288e+2, 2.4481153e+2, -532285.4, -713795.9, 18798.42, -0.033694446, 0.045325074, -530358.94, 10494.921, 0.0, 10.000813, 9.9984045 
5.9502864e+2, 2.5481057e+2, -470869.7, -631672.5, -12.969548, 0.0054134773, 0.10549501, -470869.7, -28004.459, 0.0, 10.000554, 9.998419 
5.950283e+2, 2.6480937e+2, -359197.47, -467935.75, -4686.9507, 0.034155652, 0.11678399, -358995.8, -14118.829, 0.0, 10.000394, 9.998947 
5.950278e+2, 2.748078e+2, -265905.75, -369869.28, 8567.586, 0.05143555, 0.06004468, -265204.44, -18314.645, 0.0, 10.000351, 9.998968 
5.950271e+2, 2.84806e+2, -220910.23, -374756.97, 495.784, 0.053213153, 0.018547561, -220908.64, -72001.68, 0.0, 10.0003195, 9.998279 
5.950262e+2, 2.948042e+2, -129746.37, -280073.34, -9986.252, 0.03893443, 0.007594966, -129085.875, -78159.62, 0.0, 10.000273, 9.998278 
5.950259e+2, 3.04804e+2, -56581.742, -144096.66, -8238.204, 0.07510957, 0.12673318, -55812.996, -55812.996, 0.000000033052434, 10.000114, 9.998955 
5.9502435e+2, 3.1480274e+2, -38727.5, -53467.887, 20078.0, -0.030435875, 0.0974106, -24709.709, -24709.709, 0.00000037488923, 9.999884, 9.999687 
6.050387e+2, 1.2482048e+2, -1602430.4, -1652949.8, -72261.016, 0.009694416, 0.10660209, -1551141.4, 165626.69, 0.000000021349177, 10.000775, 10.000031 
6.050364e+2, 1.3481972e+2, -1578561.4, -1606677.6, 135405.6, -0.30435976, 0.030022554, -1456486.1, 162287.34, 0.0, 10.000268, 9.999958 
6.05042e+2, 1.4481983e+2, -1516616.5, -1561627.6, 12399.606, 0.20489189, 0.06579755, -1513426.8, 7345.2153, 0.0, 10.000205, 9.999605 
6.0503745e+2, 1.5481989e+2, -1335255.0, -1420826.8, -24604.068, -0.029283252, 0.105720766, -1328685.1, 94087.26, 0.0, 10.000769, 9.999625 
6.050347e+2, 1.6481943e+2, -1226070.9, -1331075.0, 20740.893, -0.13270605, 0.10400349, -1222122.5, 102654.58, 0.0, 10.0009, 9.999507 
6.050345e+2, 1.7481841e+2, -1180386.0, -1255889.5, 21182.973, -0.06267887, 0.046899408, -1174849.1, 51937.33, 0.0, 10.000532, 9.999527 
6.05034e+2, 1.848178e+2, -1118182.8, -1188533.6, 15580.77, -0.020987008, 0.040790845, -1114886.5, 13905.839, 0.0, 10.000342, 9.999409 
6.0503304e+2, 1.9481768e+2, -1015637.9, -1086567.6, 4894.785, -0.021258585, 0.08265097, -1015301.7, 15492.746, 0.0, 10.000367, 9.999424 
6.050322e+2, 2.0481718e+2, -924658.75, -1026606.44, 5800.9365, -0.0044187703, 0.1063451, -924329.75, 8469.865, 0.0, 10.000468, 9.999114 
6.050317e+2, 2.1481629e+2, -800843.2, -914673.3, 13668.27, 0.035569433, 0.10207026, -799225.0, 35583.11, 0.0, 10.000639, 9.999127 
6.050311e+2, 2.248152e+2, -704732.1, -827217.4, 32218.375, 0.03209809, 0.08625862, -696774.44, 40043.78, 0.0, 10.000668, 9.999042 
6.050302e+2, 2.348139e+2, -623540.25, -735525.8, 20712.51, -0.020673018, 0.047801137, -619832.1, 18998.209, 0.0, 10.000545, 9.999057 
6.0502946e+2, 2.448127e+2, -578341.06, -727529.8, 12275.735, -0.035128497, 0.050904788, -577337.75, -36495.39, 0.0, 10.00046, 9.99848 
6.050289e+2, 2.5481164e+2, -485197.66, -630494.5, 36646.91, -0.008118436, 0.093690716, -476477.84, -33624.01, 0.0, 10.000421, 9.998491 
6.050285e+2, 2.6481032e+2, -371693.8, -486086.6, 42429.67, 0.021994533, 0.09823659, -357674.3, -12808.038, 0.0, 10.000359, 9.998841 
6.0502815e+2, 2.748087e+2, -287554.6, -392740.63, 22103.201, 0.054522514, 0.045844365, -283098.72, -36218.22, 0.0, 10.000255, 9.998858 
6.0502744e+2, 2.8480697e+2, -221939.58, -374635.78, 17777.963, 0.05460257, 0.01668476, -219897.06, -70999.695, 0.0, 10.000309, 9.998284 
6.0502636e+2, 2.948054e+2, -89406.05, -262215.28, 30548.752, 0.02015766, 0.026096549, -84164.695, -33250.105, 0.00000000003092486, 10.000555, 9.998265 
6.0502595e+2, 3.0480504e+2, -29171.227, -147084.89, 23272.8, 0.05735174, 0.14013381, -24744.06, -24744.06, 0.00000008707832, 10.000373, 9.99881 
6.050244e+2, 3.148032e+2, -49213.75, -40310.2, 45678.527, -0.0014752453, 0.06843204, 1132.975, 1132.975, 0.0000006525611, 9.999734, 9.99985 
6.150397e+2, 1.2482169e+2, -1643838.9, -1738827.0, -80349.52, 0.029991053, -0.023261258, -1597996.3, 118754.67, 0.0000000039655865, 10.000774, 9.999444 
6.1503637e+2, 1.348221e+2, -1618742.5, -1689198.4, 115136.09, -0.3333581, 0.0726513, -1533565.6, 85184.02, 0.0, 10.000265, 9.9993925 
6.150419e+2, 1.4482194e+2, -1519957.1, -1569111.5, 30684.549, 0.17813757, 0.11521359, -1505220.5, 15531.585, 0.0, 10.000206, 9.999554 
6.1503834e+2, 1.5482074e+2, -1337387.0, -1426100.8, -2473.0706, -0.022297176, 0.03137201, -1337318.1, 85445.11, 0.0, 10.000771, 9.999589 
6.150358e+2, 1.6482013e+2, -1230072.5, -1338637.8, 7269.097, -0.11930025, 0.019094214, -1229588.0, 95180.84, 0.0, 10.000897, 9.999456 
6.15035e+2, 1.7482018e+2, -1184127.0, -1263768.6, 7575.1533, -0.06846718, 0.07520765, -1183412.9, 43355.258, 0.0, 10.000532, 9.999473 
6.1503416e+2, 1.8481977e+2, -1136810.9, -1226863.3, 15271.064, -0.034973025, 0.1036763, -1134291.6, -5518.7705, 0.0, 10.000341, 9.999146 
6.150333e+2, 1.9481887e+2, -1034034.94, -1124803.6, 6258.8916, -0.029561717, 0.09387462, -1033605.4, -2822.1282, 0.0, 10.000367, 9.999162 
6.150327e+2, 2.048178e+2, -910968.4, -996908.75, 11560.316, -0.011145534, 0.063694455, -909440.5, 23352.584, 0.0, 10.000463, 9.999321 
6.150323e+2, 2.1481656e+2, -785989.94, -883089.1, 20361.318, 0.025413468, 0.0032533056, -781893.06, 52909.227, 0.0, 10.000636, 9.999346 
6.1503184e+2, 2.2481577e+2, -726509.1, -871318.06, 27066.744, 0.043290697, 0.019232368, -721615.4, 15194.705, 0.0, 10.000662, 9.998741 
6.150313e+2, 2.3481542e+2, -645209.75, -779816.56, 16583.248, 0.04003009, 0.10696764, -643196.8, -4380.4478, 0.0, 10.000542, 9.9987545 
6.1503047e+2, 2.448144e+2, -533487.0, -633779.9, 10056.162, 0.016196202, 0.11197518, -532488.6, 8337.922, 0.0, 10.000457, 9.999125 
6.1502916e+2, 2.548127e+2, -439591.44, -535060.7, 35563.61, -0.028478647, 0.023777248, -427799.9, 15040.487, 0.0, 10.000418, 9.999148 
6.1502856e+2, 2.6481137e+2, -408996.25, -562900.5, 38287.086, -0.010534597, 0.018272204, -399997.63, -55144.766, 0.0, 10.000356, 9.998315 
6.1502856e+2, 2.7481037e+2, -325446.44, -470646.16, 18551.992, 0.072143, 0.082784235, -323113.53, -76248.85, 0.0, 10.000252, 9.998325 
6.150279e+2, 2.8480893e+2, -199544.16, -327293.5, 26322.664, 0.06698512, 0.09457302, -194332.95, -45453.188, 0.0, 10.000305, 9.998612 
6.150264e+2, 2.9480734e+2, -67797.516, -215935.02, 40763.344, -0.030172018, 0.06755653, -57321.42, -6425.768, 0.0000000010306047, 10.000549, 9.998587 
6.150259e+2, 3.0480653e+2, -47786.97, -183494.86, -731.3708, 0.009896485, 0.13178414, -47783.027, -47783.027, 0.00000016756015, 10.000363, 9.998564 
6.150247e+2, 3.148041e+2, -47368.01, -32244.342, 25411.477, 0.04610897, 0.02488841, -13293.454, -13293.454, 0.000001002472, 9.999717, 9.999913 
6.2504035e+2, 1.24823555e+2, -1689737.4, -1773789.5, -120245.1, 0.031133601, -0.027118282, -1604385.8, 112346.65, 0.00000000008306351, 10.000511, 9.9993305 
6.2503666e+2, 1.3482413e+2, -1594137.8, -1685146.4, 94051.0, -0.33701447, 0.09274772, -1535161.3, 83568.734, 0.0, 10.000466, 9.999323 
6.2504226e+2, 1.4482373e+2, -1500582.9, -1569496.9, 49863.055, 0.17619462, 0.1185538, -1474429.6, 46305.168, 0.0, 10.000379, 9.999468 
6.250389e+2, 1.5482219e+2, -1399836.0, -1465234.1, 13969.586, -0.019367622, 0.009371381, -1396977.0, 25771.537, 0.0, 10.0003805, 9.999508 
6.2503654e+2, 1.6482149e+2, -1297969.1, -1376396.3, 8998.821, -0.11256236, -0.0062202057, -1296949.8, 27805.012, 0.0, 10.000454, 9.999411 
6.250357e+2, 1.748217e+2, -1174418.6, -1264056.4, 8273.566, -0.05500547, 0.07017526, -1173661.4, 53091.45, 0.0, 10.000622, 9.999428 
6.2503487e+2, 1.8482128e+2, -1082245.8, -1210707.1, 29332.602, -0.025721282, 0.10395185, -1075865.0, 52892.78, 0.0, 10.000758, 9.999057 
6.250338e+2, 1.9482017e+2, -970685.94, -1104667.3, 32227.021, -0.039826833, 0.082790874, -963337.3, 67432.555, 0.0, 10.000846, 9.999069 
6.2503314e+2, 2.0481895e+2, -860661.44, -976897.6, 34877.047, -0.027010946, 0.045951158, -850999.56, 81781.27, 0.0, 10.000826, 9.999284 
6.250329e+2, 2.1481766e+2, -779237.6, -883879.3, 23565.904, 0.018160494, -0.016251888, -774175.4, 60615.137, 0.0, 10.0007, 9.99931 
6.250325e+2, 2.2481686e+2, -747744.56, -886453.9, 23783.803, 0.043228753, 0.0037954608, -743779.8, -6981.406, 0.0, 10.000538, 9.998697 
6.250318e+2, 2.3481658e+2, -679667.9, -801715.7, 31651.76, 0.04507288, 0.102231115, -671947.7, -33143.1, 0.0, 10.000327, 9.998707 
6.250309e+2, 2.4481563e+2, -555504.0, -633260.2, 22649.04, 0.025014041, 0.11155713, -549387.8, -8573.702, 0.0, 10.0002575, 9.999225 
6.250297e+2, 2.5481397e+2, -444840.88, -526403.94, 5122.8315, -0.018396353, 0.018670693, -444520.38, -1693.3955, 0.0, 10.000333, 9.9992485 
6.250289e+2, 2.6481262e+2, -399720.63, -566448.4, 5012.812, -0.010680944, 0.009636344, -399570.03, -54730.52, 0.0, 10.000454, 9.998242 
6.250288e+2, 2.7481157e+2, -274943.66, -454755.34, 19291.59, 0.050077096, 0.07433474, -272897.2, -26044.92, 0.0, 10.000634, 9.99825 
6.2502813e+2, 2.8481025e+2, -165382.75, -304183.3, 29670.371, 0.049432237, 0.0972881, -159306.34, -10439.705, 0.0, 10.000511, 9.998672 
6.250269e+2, 2.9480886e+2, -136897.48, -243377.17, 21091.84, -0.015569057, 0.088103436, -132871.75, -81991.17, 0.000000004235602, 10.00005, 9.998638 
6.250261e+2, 3.0480775e+2, -118231.68, -229895.67, -25933.201, 0.022184286, 0.12539391, -112502.79, -112502.79, 0.000000262113, 9.999932, 9.998453 
6.250246e+2, 3.1480518e+2, 35622.86, 22292.852, 11128.874, 0.043344922, 0.01167712, 41929.906, 41929.906, 0.0000013873902, 10.000221, 10.000045 
6.350407e+2, 1.24826066e+2, -1663653.9, -1720831.8, -109337.86, 0.011388758, 0.09213652, -1579229.1, 137483.14, 0.0, 10.000513, 9.999695 
6.3503736e+2, 1.3482583e+2, -1564473.5, -1624073.9, 90692.625, -0.31924236, 0.08938418, -1498810.6, 119903.84, 0.0, 10.000468, 9.999742 
6.350428e+2, 1.4482519e+2, -1509049.4, -1587293.0, 46868.727, 0.19483626, 0.07681497, -1487120.5, 33599.48, 0.0, 10.0003805, 9.999346 
6.3503927e+2, 1.5482423e+2, -1409295.6, -1484491.4, 14034.4375, -0.023057412, 0.03868877, -1406761.6, 15966.62, 0.0, 10.000379, 9.999377 
6.3503695e+2, 1.6482349e+2, -1301240.9, -1382629.6, 14026.752, -0.11676869, 0.02665708, -1298891.3, 25843.857, 0.0, 10.000451, 9.99937 
6.3503665e+2, 1.7482294e+2, -1176923.5, -1269855.1, 14862.747, -0.025630832, 0.031837907, -1174604.3, 52136.125, 0.0, 10.000623, 9.999388 
6.350359e+2, 1.8482229e+2, -1077631.6, -1200109.4, 32032.846, 0.002235319, 0.04226152, -1069759.6, 58987.137, 0.0, 10.000754, 9.999131 
6.3503456e+2, 1.9482155e+2, -965469.2, -1093433.9, 35576.57, -0.054461185, 0.050276786, -956243.44, 74510.77, 0.0, 10.000844, 9.999147 
6.3503367e+2, 2.0482065e+2, -881380.4, -1018822.06, 29232.707, -0.0551528, 0.053240124, -875421.2, 57341.598, 0.0, 10.00082, 9.998999 
6.350335e+2, 2.1481958e+2, -799976.5, -926492.5, 19211.611, 0.011646644, 0.041227944, -797123.5, 37649.203, 0.0, 10.000697, 9.999019 
6.3503283e+2, 2.2481848e+2, -734524.9, -857277.7, 15282.916, 0.029169291, 0.037318442, -732650.75, 4132.687, 0.0, 10.00053, 9.9989 
6.3503164e+2, 2.348174e+2, -664799.75, -770528.75, 24232.486, -0.007981393, 0.034202702, -659510.4, -20715.486, 0.0, 10.000326, 9.998922 
6.3503075e+2, 2.4481642e+2, -587287.5, -698854.1, 24797.13, -0.0120798275, 0.050892893, -582024.25, -41219.36, 0.0, 10.000256, 9.9987755 
6.350303e+2, 2.5481552e+2, -476738.34, -592466.1, 8361.632, 0.020032771, 0.07949517, -476137.3, -33323.95, 0.0, 10.000332, 9.9987955 
6.3502973e+2, 2.6481414e+2, -373896.8, -512493.66, 11425.217, 0.019705506, 0.0732652, -372961.28, -28135.229, 0.0, 10.000452, 9.998614 
6.350287e+2, 2.7481228e+2, -248960.14, -399441.25, 26940.87, -0.015783476, 0.019257227, -244282.28, 2561.104, 0.0, 10.000628, 9.998633 
6.350281e+2, 2.8481084e+2, -181102.19, -335339.56, 12610.584, -0.003200341, 0.02240591, -180077.94, -31219.717, 0.0, 10.0005045, 9.998461 
6.350277e+2, 2.9481003e+2, -153216.3, -275549.53, 4177.0176, 0.062047776, 0.090443656, -153073.84, -102204.76, 0.000000008608103, 10.000042, 9.998421 
6.3502675e+2, 3.0480877e+2, -117093.22, -226529.17, -15869.784, 0.09232802, 0.1259914, -114838.33, -114838.33, 0.00000035003856, 9.9999275, 9.998479 
6.3502425e+2, 3.1480643e+2, 49746.875, 53709.984, 25727.904, -0.01769063, 0.02853117, 77532.53, 77532.53, 0.0000017531552, 10.000213, 10.000265 
6.450411e+2, 1.24827564e+2, -1719432.0, -1734424.9, -106275.38, 0.024858603, 0.13964723, -1620389.0, 96311.86, 0.0, 10.0000725, 9.999814 
6.4503783e+2, 1.3482721e+2, -1540919.1, -1593316.0, 56697.54, -0.31749254, 0.109775335, -1504659.9, 114042.91, 0.0, 10.000549, 9.999911 
6.4504313e+2, 1.448266e+2, -1479877.4, -1561418.4, -1395.118, 0.18720244, 0.084012315, -1479853.5, 40853.984, 0.0, 10.000531, 9.99945 
6.4503956e+2, 1.54826e+2, -1433727.8, -1484722.9, -17356.867, -0.019066239, 0.07311012, -1428380.8, -5668.7188, 0.0, 10.000162, 9.99948 
6.450373e+2, 1.6482529e+2, -1346645.8, -1410078.3, 9382.536, -0.11114201, 0.061825585, -1345287.1, -20568.756, 0.0, 10.000162, 9.999321 
6.450372e+2, 1.7482442e+2, -1193531.9, -1283804.0, 8144.1006, -0.02647254, 0.038750313, -1192803.0, 33923.715, 0.0, 10.000534, 9.999335 
6.4503664e+2, 1.8482362e+2, -1088630.3, -1196466.9, 14541.564, 0.006062171, 0.03349207, -1086703.8, 42030.254, 0.0, 10.000641, 9.99921 
6.450353e+2, 1.9482295e+2, -1012790.5, -1106514.3, 17257.486, -0.03650859, 0.04055823, -1009713.9, 21025.793, 0.0, 10.00048, 9.999232 
6.4503443e+2, 2.0482217e+2, -949826.6, -1065194.5, 17487.236, -0.044819344, 0.057838626, -947234.25, -14487.012, 0.0, 10.000409, 9.998878 
6.450339e+2, 2.1482128e+2, -848099.7, -964089.56, 18517.201, -0.008885913, 0.07554171, -845215.25, -10458.268, 0.0, 10.000429, 9.99889 
6.450331e+2, 2.2482008e+2, -734762.2, -853487.1, 16692.412, 0.004148367, 0.06631596, -732459.9, 4308.8203, 0.0, 10.000511, 9.998937 
6.4503205e+2, 2.3481861e+2, -613471.1, -741424.06, 11090.352, -0.010376724, 0.020436807, -612517.0, 26265.434, 0.0, 10.00066, 9.9989605 
6.4503133e+2, 2.4481747e+2, -539223.75, -699720.75, 14881.208, -0.0049846973, 0.029363073, -537855.6, 2938.1523, 0.0, 10.0006895, 9.99856 
6.450308e+2, 2.5481662e+2, -454911.2, -606635.1, 15340.416, 0.02153201, 0.08744606, -453375.7, -10573.022, 0.0, 10.000588, 9.998574 
6.4503014e+2, 2.6481524e+2, -362516.0, -486629.6, 20893.498, 0.020265033, 0.08120247, -359093.16, -14277.553, 0.0, 10.000444, 9.9987955 
6.4502925e+2, 2.7481323e+2, -290919.88, -398495.78, 20303.826, -0.0106733125, -0.00411676, -287215.3, -40382.43, 0.0, 10.00025, 9.998821 
6.450286e+2, 2.848118e+2, -230472.86, -372913.8, -2659.1956, 0.0055979113, -0.004953893, -230423.23, -81575.86, 0.0, 10.000225, 9.998337 
6.45028e+2, 2.9481107e+2, -113137.06, -270596.72, -5751.5166, 0.072716326, 0.08443849, -112927.26, -62069.313, 0.000000011710588, 10.000379, 9.998292 
6.450269e+2, 3.048095e+2, -48522.32, -193900.84, -12746.991, 0.08994555, 0.09455683, -47413.11, -47413.11, 0.00000040808163, 10.000399, 9.998476 
6.450244e+2, 3.1480747e+2, 66912.31, 68023.88, 25538.623, -0.02501593, 0.030494416, 93012.77, 93012.77, 0.0000020409286, 10.000303, 10.000321 
6.550417e+2, 1.24828085e+2, -1726871.9, -1752334.5, -75788.49, 0.07306504, 0.11591192, -1662752.8, 53944.89, 0.0, 10.000081, 9.999688 
6.5503824e+2, 1.3482833e+2, -1547851.6, -1605891.4, 72506.445, -0.33559164, 0.15312392, -1498773.3, 119921.36, 0.0, 10.000543, 9.999828 
6.5504336e+2, 1.4482793e+2, -1457990.6, -1514210.8, -17953.586, 0.14930128, 0.13778445, -1452746.4, 67950.91, 0.0, 10.000523, 9.999778 
6.550398e+2, 1.5482754e+2, -1410087.5, -1436685.8, -30755.863, -0.011402471, 0.11273325, -1389878.6, 32820.848, 0.0, 10.000166, 9.999808 
6.550376e+2, 1.6482693e+2, -1350875.3, -1419585.4, 21989.477, -0.09990226, 0.0998761, -1344440.5, -19736.4, 0.0, 10.000165, 9.999254 
6.550374e+2, 1.7482612e+2, -1198605.1, -1294360.9, 21973.982, -0.059398655, 0.08948293, -1193803.4, 32908.453, 0.0, 10.000533, 9.999264 
6.55037e+2, 1.8482526e+2, -1083263.5, -1184059.3, 7557.974, -0.017431052, 0.07589887, -1082699.9, 46019.383, 0.0, 10.000635, 9.999298 
6.5503633e+2, 1.9482435e+2, -1006731.2, -1093723.5, 11327.874, 0.011276033, 0.051907845, -1005280.3, 25445.926, 0.0, 10.000478, 9.999321 
6.5503526e+2, 2.0482354e+2, -948312.56, -1060853.4, 17494.434, 0.0008110131, 0.058249265, -945655.8, -12921.674, 0.0, 10.000404, 9.99891 
6.5503395e+2, 2.1482277e+2, -846169.44, -959815.94, 19557.596, -0.045537136, 0.08702779, -842897.94, -8154.7393, 0.0, 10.000427, 9.9989195 
6.550333e+2, 2.2482167e+2, -744709.9, -873266.9, 21330.244, -0.0350834, 0.091492586, -741263.1, -4509.0566, 0.0, 10.000507, 9.998803 
6.5503323e+2, 2.348202e+2, -623011.7, -761461.8, 17019.705, 0.035457883, 0.060001515, -620950.2, 17816.893, 0.0, 10.00066, 9.998823 
6.5503246e+2, 2.4481875e+2, -539228.9, -698896.5, 10739.6, 0.042843208, 0.045388423, -538509.75, 2271.0369, 0.0, 10.000686, 9.998568 
6.550311e+2, 2.548173e+2, -454688.9, -604938.1, 12125.363, -0.016562873, 0.041911382, -453716.7, -10921.728, 0.0, 10.000583, 9.998589 
6.5503025e+2, 2.6481593e+2, -364065.03, -489044.47, 13417.013, -0.011296735, 0.03260191, -362640.9, -17832.748, 0.0, 10.000441, 9.998781 
6.550302e+2, 2.748145e+2, -292286.97, -400444.88, 13738.598, 0.06235374, 0.0059012542, -290569.13, -43748.594, 0.0, 10.000247, 9.998809 
6.550294e+2, 2.8481314e+2, -233714.77, -379280.22, 2730.444, 0.07172853, 0.01839757, -233663.56, -84829.81, 0.0, 10.000223, 9.998295 
6.550278e+2, 2.9481202e+2, -117022.625, -277071.4, 759.1051, 0.012705258, 0.069846734, -117019.02, -66171.79, 0.000000011654482, 10.000371, 9.998252 
6.5502656e+2, 3.0480987e+2, -51466.582, -197897.44, -16473.168, 0.011923278, 0.028433034, -49636.266, -49636.266, 0.00000041978168, 10.000391, 9.998452 
6.550251e+2, 3.148083e+2, 58144.25, 53609.273, 24173.625, 0.016774021, 0.014775456, 80156.5, 80156.5, 0.000002202322, 10.000288, 10.000229 
6.650418e+2, 1.2482904e+2, -1676194.5, -1719291.9, -31337.21, 0.061969858, 0.10087021, -1659712.0, 56976.047, 0.0, 10.000391, 9.999766 
6.6503865e+2, 1.3482948e+2, -1618951.9, -1625446.0, 113048.77, -0.31785035, 0.14535981, -1509103.5, 109579.27, 0.0, 9.999994, 9.999957 
6.650437e+2, 1.448291e+2, -1544162.6, -1568984.8, 19357.166, 0.1597123, 0.13059136, -1533579.4, -12893.744, 0.0, 9.999989, 9.99966 
6.650402e+2, 1.5482873e+2, -1359979.5, -1426282.5, -26394.15, -0.00939793, 0.119709656, -1350755.6, 71933.02, 0.0, 10.000569, 9.999685 
6.6503805e+2, 1.648281e+2, -1269543.3, -1376616.5, 10502.643, -0.10332585, 0.11110174, -1268522.8, 56170.918, 0.0, 10.000709, 9.999286 
6.6503775e+2, 1.7482728e+2, -1218754.6, -1299740.8, 16810.47, -0.06449903, 0.09437649, -1215403.9, 11297.086, 0.0, 10.00038, 9.999299 
6.650374e+2, 1.8482642e+2, -1127672.1, -1202732.9, 5888.043, -0.021875344, 0.07886334, -1127213.1, 1494.8324, 0.0, 10.00032, 9.999321 
6.650368e+2, 1.9482556e+2, -994333.0, -1085875.6, 2780.012, 0.00873282, 0.056796163, -994248.6, 36465.715, 0.0, 10.000554, 9.999338 
6.6503584e+2, 2.0482463e+2, -918058.4, -1055362.0, 1032.3274, 0.004346561, 0.056489352, -918050.6, 14672.691, 0.0, 10.00065, 9.998829 
6.650346e+2, 2.1482365e+2, -826123.8, -958372.7, -6135.424, -0.03236599, 0.07086944, -825839.8, 8895.116, 0.0, 10.000603, 9.998843 
6.650339e+2, 2.248226e+2, -726844.75, -855748.7, 4100.171, -0.023545237, 0.08042381, -726714.44, 10030.761, 0.0, 10.000592, 9.998881 
6.650338e+2, 2.3482145e+2, -623212.9, -752654.8, 15336.775, 0.032398313, 0.07392987, -621420.56, 17333.861, 0.0, 10.000621, 9.998902 
6.6503304e+2, 2.4482003e+2, -559596.44, -707112.9, 9521.243, 0.03690601, 0.056353845, -558984.44, -18216.873, 0.0, 10.000539, 9.998582 
6.6503155e+2, 2.548183e+2, -489844.0, -620402.7, 9384.292, -0.0128641175, 0.018935744, -489172.94, -46388.12, 0.0, 10.000335, 9.998602 
6.650308e+2, 2.648168e+2, -387254.25, -514587.8, 13557.766, -0.003481316, 0.010116002, -385826.7, -41027.79, 0.0, 10.000343, 9.9986515 
6.650307e+2, 2.7481562e+2, -253366.64, -396306.2, 4172.645, 0.06797845, 0.02191201, -253244.94, -6435.1997, 0.0, 10.000578, 9.998677 
6.650298e+2, 2.8481436e+2, -158981.4, -328916.44, -2615.219, 0.06832623, 0.04059793, -158941.17, -10119.107, 0.0, 10.000676, 9.998421 
6.6502815e+2, 2.94813e+2, -67174.36, -237632.16, 6632.153, -0.0075527397, 0.059972744, -66916.71, -16080.985, 0.000000008469742, 10.000649, 9.998387 
6.650267e+2, 3.0481064e+2, -47269.504, -198208.8, -15039.576, -0.0054154303, -0.014896463, -45785.555, -45785.555, 0.00000038345433, 10.00043, 9.99843 
6.650256e+2, 3.1480956e+2, -664.5777, 4981.7603, 23502.408, 0.048368916, 0.024180247, 25829.955, 25829.955, 0.0000022156387, 9.99997, 10.000047 
6.750415e+2, 1.24830455e+2, -1657008.0, -1679702.9, -34343.098, -0.008340732, 0.09314391, -1632186.1, 84485.65, 0.0, 10.000388, 10.000041 
6.750391e+2, 1.3483071e+2, -1594648.0, -1576140.6, 96209.21, -0.27038145, 0.08775932, -1488741.1, 129925.53, 0.0, 10.0, 10.000292 
6.7504424e+2, 1.4483014e+2, -1582590.0, -1650402.0, 37050.38, 0.21266192, 0.063888125, -1566273.0, -45600.95, 0.0, 9.999995, 9.999098 
6.750407e+2, 1.5482959e+2, -1400728.4, -1510138.5, -4505.648, -0.016316613, 0.093023546, -1400543.1, 22136.398, 0.0, 10.000566, 9.999112 
6.750385e+2, 1.6482885e+2, -1261575.3, -1357897.6, -2310.159, -0.12529515, 0.09444531, -1261519.9, 63166.844, 0.0, 10.0007, 9.999419 
6.750384e+2, 1.7482792e+2, -1208589.0, -1278696.1, 4837.5547, -0.045043956, 0.0542573, -1208256.8, 18437.1, 0.0, 10.00038, 9.999444 
6.750379e+2, 1.8482715e+2, -1131915.4, -1211521.1, 13519.921, -0.010995927, 0.04299106, -1129681.9, -982.2329, 0.0, 10.00032, 9.999261 
6.750368e+2, 1.9482657e+2, -999459.9, -1095720.4, 11525.221, -0.045930725, 0.055338677, -998099.2, 32604.629, 0.0, 10.00055, 9.999273 
6.750361e+2, 2.048255e+2, -932000.3, -1082615.1, -1589.7756, -0.036616866, 0.05278791, -931983.56, 730.9825, 0.0, 10.000643, 9.998646 
6.750358e+2, 2.1482393e+2, -839522.7, -985584.7, -7670.65, 0.027968936, 0.026252715, -839121.0, -4388.9, 0.0, 10.0006, 9.998659 
6.750351e+2, 2.248229e+2, -707303.1, -814028.4, 4568.042, 0.035202693, 0.031944584, -707107.94, 29634.178, 0.0, 10.000587, 9.99917 
6.7503387e+2, 2.3482242e+2, -602748.1, -709600.94, 16998.77, -0.020481918, 0.06226286, -600109.06, 38635.223, 0.0, 10.000618, 9.9992 
6.75033e+2, 2.4482131e+2, -558799.56, -704787.9, 1520.3615, -0.024248919, 0.061932296, -558783.7, -18029.64, 0.0, 10.000536, 9.998599 
6.7503226e+2, 2.548195e+2, -489324.56, -619139.5, 2194.7842, 0.028987711, 0.019206427, -489287.47, -46515.387, 0.0, 10.000334, 9.998611 
6.7503154e+2, 2.6481795e+2, -404796.56, -550684.4, 21846.766, 0.039203156, 0.014747886, -401595.25, -56807.57, 0.0, 10.000342, 9.998404 
6.7503065e+2, 2.7481672e+2, -271734.5, -432749.5, 13708.659, 0.0039321464, 0.043020826, -270575.7, -23775.164, 0.0, 10.00057, 9.99843 
6.750298e+2, 2.8481543e+2, -139409.61, -286691.28, -3873.159, -0.005810415, 0.059799805, -139307.83, 9504.571, 0.0, 10.0006695, 9.9987135 
6.750289e+2, 2.9481417e+2, -47569.645, -194371.33, 6772.3447, 0.00859628, 0.05579332, -47257.883, 3565.4028, 0.0000000040864183, 10.000639, 9.99869 
6.750276e+2, 3.0481178e+2, -49523.67, -201410.58, -31709.152, 0.033287488, -0.03385948, -43169.625, -43169.625, 0.0000003121116, 10.000424, 9.998411 
6.750257e+2, 3.148113e+2, -20326.36, -33894.797, 7899.1147, 0.060973972, 0.06467698, -16698.008, -16698.008, 0.0000020914758, 9.999963, 9.999783 
6.8504184e+2, 1.24831535e+2, -1684351.8, -1715893.1, -45630.246, -0.006378968, 0.08006107, -1651843.6, 64816.105, 0.0, 10.0003, 9.999836 
6.8503934e+2, 1.3483179e+2, -1569396.1, -1582024.8, 30532.637, -0.2624751, 0.08977246, -1544531.8, 74124.11, 0.0, 10.000253, 10.00013 
6.850442e+2, 1.4483109e+2, -1554475.8, -1633237.9, -4590.62, 0.2046243, 0.060525924, -1554209.1, -33546.457, 0.0, 10.000174, 9.999129 
6.850412e+2, 1.5483038e+2, -1447038.0, -1528707.1, -275.0895, -0.008769253, 0.07138934, -1447037.1, -24366.063, 0.0, 10.000233, 9.999144 
6.850391e+2, 1.6482967e+2, -1303082.3, -1376916.1, 9819.091, -0.11435801, 0.07186305, -1301798.8, 22879.201, 0.0, 10.000413, 9.999425 
6.850389e+2, 1.748289e+2, -1158724.4, -1254131.1, 4295.6777, -0.04290022, 0.048167534, -1158531.4, 68152.49, 0.0, 10.00072, 9.999448 
6.850384e+2, 1.8482819e+2, -1075220.4, -1189660.0, 7828.061, -0.012012994, 0.0452059, -1074687.4, 54001.918, 0.0, 10.000733, 9.999212 
6.850373e+2, 1.9482757e+2, -1018527.75, -1109139.8, 7038.026, -0.046735544, 0.05765006, -1017984.4, 12709.811, 0.0, 10.000441, 9.999231 
6.850366e+2, 2.0482646e+2, -963381.44, -1091214.1, 9648.269, -0.037037227, 0.050267663, -962657.4, -29952.31, 0.0, 10.0004015, 9.998701 
6.850364e+2, 2.1482483e+2, -829995.56, -975062.8, 20111.277, 0.02761813, 0.013123943, -827259.06, 7463.3267, 0.0, 10.000638, 9.998713 
6.850357e+2, 2.2482377e+2, -695653.06, -801082.6, 26482.617, 0.034506906, 0.011982464, -689374.8, 47357.52, 0.0, 10.000635, 9.999236 
6.8503433e+2, 2.3482336e+2, -632825.6, -715744.2, 20267.688, -0.022511235, 0.03999067, -628136.8, 10597.528, 0.0, 10.000377, 9.999273 
6.8503344e+2, 2.448224e+2, -579312.0, -715625.6, 2776.3918, -0.025040453, 0.051365465, -579255.5, -38512.58, 0.0, 10.0004, 9.9985895 
6.8503284e+2, 2.5482085e+2, -433044.7, -593018.06, 1293.3456, 0.031052357, 0.034498073, -433034.22, 9724.516, 0.0, 10.000726, 9.998601 
6.8503207e+2, 2.6481926e+2, -345242.13, -526122.2, 26393.197, 0.03531714, 0.028936984, -341469.66, 3305.0461, 0.0, 10.00077, 9.998366 
6.85031e+2, 2.7481768e+2, -281728.3, -441902.4, 32535.732, -0.014242127, 0.026588913, -275371.7, -28581.037, 0.0, 10.00052, 9.998392 
6.850302e+2, 2.8481635e+2, -181552.4, -307806.03, 11801.419, -0.020052334, 0.03898691, -180458.77, -31655.742, 0.0, 10.000384, 9.998706 
6.850295e+2, 2.9481527e+2, -88252.625, -213744.13, -1729.0719, 0.016925104, 0.057032496, -88228.805, -37417.082, 0.0000000009738006, 10.00036, 9.998691 
6.850281e+2, 3.0481288e+2, -34324.613, -191167.78, -48568.867, 0.038210683, -0.03696043, -20502.61, -20502.61, 0.00000022618863, 10.000516, 9.998437 
6.8502605e+2, 3.1481227e+2, 96641.62, -4080.5964, -8518.372, 0.057495862, 0.053580698, 97356.95, 97356.95, 0.0000018666766, 10.000882, 9.999545 
6.950429e+2, 1.24832325e+2, -1731874.5, -1817842.5, -35614.305, 0.06515262, 0.05837786, -1719037.3, -2385.6455, 0.0, 10.000313, 9.999131 
6.950393e+2, 1.3483274e+2, -1616557.9, -1677990.0, 26639.379, -0.29754984, 0.1489547, -1606615.3, 12034.71, 0.0, 10.000246, 9.999474 
6.950437e+2, 1.4483197e+2, -1512338.6, -1543584.1, -5021.7363, 0.13266087, 0.117445536, -1511551.4, 9105.731, 0.0, 10.000165, 9.999748 
6.950416e+2, 1.5483117e+2, -1401421.9, -1435136.6, 3176.0486, 0.009050478, 0.05524929, -1401125.3, 21537.17, 0.0, 10.000237, 9.999784 
6.9504e+2, 1.648306e+2, -1313074.0, -1398134.4, 20074.602, -0.07655072, 0.04361097, -1308574.4, 16092.56, 0.0, 10.000415, 9.999279 
6.950395e+2, 1.7483021e+2, -1170804.8, -1277726.4, 15455.372, -0.061417688, 0.07538827, -1168615.5, 58055.242, 0.0, 10.000713, 9.9992895 
6.950389e+2, 1.8482955e+2, -1077802.3, -1192628.6, -3919.7532, -0.028711544, 0.084689155, -1077668.6, 51008.242, 0.0, 10.000723, 9.999197 
6.9503826e+2, 1.9482857e+2, -1019756.1, -1111051.4, -3662.5981, 0.0038769415, 0.062639765, -1019609.44, 11075.763, 0.0, 10.000438, 9.999221 
6.9503736e+2, 2.0482752e+2, -943822.94, -1050313.5, 17369.393, 0.000012951559, 0.04771154, -941061.5, -8366.77, 0.0, 10.0004, 9.998983 
6.950364e+2, 2.1482639e+2, -810711.75, -934129.9, 29294.678, -0.03570337, 0.031284492, -804111.3, 30594.494, 0.0, 10.000634, 9.998997 
6.950357e+2, 2.2482531e+2, -706710.5, -822969.2, 16183.729, -0.028524224, 0.02068764, -704499.7, 32216.035, 0.0, 10.00063, 9.999088 
6.950352e+2, 2.3482431e+2, -643894.6, -738980.9, 10743.386, 0.023212582, 0.00742462, -642695.9, -3971.5193, 0.0, 10.000378, 9.999114 
6.950344e+2, 2.4482332e+2, -581142.2, -719516.5, 14157.451, 0.030698378, 0.024383593, -579708.56, -38974.56, 0.0, 10.0004, 9.998563 
6.950332e+2, 2.548223e+2, -435182.06, -596571.7, 14151.3955, -0.008281404, 0.06395782, -433950.6, 8794.153, 0.0, 10.000722, 9.998579 
6.950323e+2, 2.6482075e+2, -334324.4, -502078.97, 17042.62, -0.016635923, 0.051242113, -332610.5, 12149.432, 0.0, 10.000764, 9.998534 
6.9503176e+2, 2.7481854e+2, -271276.34, -418706.0, 23870.055, 0.009372495, -0.02588429, -267507.94, -20727.975, 0.0, 10.000514, 9.998554 
6.95031e+2, 2.8481707e+2, -203360.61, -352358.7, 10697.372, 0.020551024, -0.02021635, -202596.5, -53802.758, 0.0, 10.000381, 9.998402 
6.9502985e+2, 2.9481637e+2, -109968.61, -257751.64, -1613.9789, 0.0132419, 0.06376072, -109950.984, -59149.945, 0.000000000021633938, 10.000355, 9.99839 
6.950283e+2, 3.048139e+2, -29835.111, -180548.64, -35732.438, 0.0066596894, -0.02462214, -21792.541, -21792.541, 0.00000014519733, 10.000511, 9.998512 
6.950267e+2, 3.1481275e+2, 79007.89, -36774.03, 5568.4956, 0.030712359, 0.00068511965, 79275.086, 79275.086, 0.0000015881137, 10.000866, 9.999328 
7.0504314e+2, 1.24832846e+2, -1748171.6, -1821899.3, -70555.52, 0.065633364, 0.08462827, -1705430.0, 11218.569, 0.0, 10.000184, 9.9991665 
7.050398e+2, 1.3483328e+2, -1569810.1, -1646571.5, 30186.002, -0.27912894, 0.17069978, -1559361.8, 59284.387, 0.0, 10.000533, 9.999548 
7.0504403e+2, 1.4483257e+2, -1448349.9, -1500691.5, 2170.7593, 0.12690988, 0.13348186, -1448260.0, 72392.58, 0.0, 10.000553, 9.999855 
7.0504177e+2, 1.5483184e+2, -1372833.3, -1409816.4, -29365.273, -0.006424866, 0.06913559, -1356622.5, 66034.05, 0.0, 10.000385, 9.9998865 
7.050402e+2, 1.6483136e+2, -1329583.8, -1399781.4, -18093.854, -0.08300725, 0.059770986, -1325194.4, -534.6375, 0.0, 10.000274, 9.999335 
7.050401e+2, 1.7483114e+2, -1239337.6, -1303809.8, -6907.2563, -0.042562623, 0.09835934, -1238606.0, -11943.273, 0.0, 10.000215, 9.99935 
7.0503974e+2, 1.8483043e+2, -1135354.4, -1216313.5, -19470.123, -0.0035467076, 0.101080745, -1130915.4, -2246.3184, 0.0, 10.000312, 9.99923 
7.050389e+2, 1.9482927e+2, -996588.56, -1097042.0, -18261.615, 0.014820586, 0.057424568, -993371.75, 37307.36, 0.0, 10.000584, 9.999247 
7.0503783e+2, 2.0482834e+2, -892417.5, -996410.7, 5172.47, -0.004094136, 0.040622473, -892160.9, 40526.094, 0.0, 10.000627, 9.999246 
7.0503676e+2, 2.1482766e+2, -821833.9, -908928.94, 14914.77, -0.056355424, 0.042898078, -819350.56, 15342.03, 0.0, 10.000427, 9.999268 
7.0503604e+2, 2.248267e+2, -741705.56, -860921.6, 1830.0469, -0.047091175, 0.038402442, -741677.5, -4975.957, 0.0, 10.000482, 9.998899 
7.050358e+2, 2.3482543e+2, -595366.56, -737769.0, -7544.8516, 0.025861848, 0.018401846, -594967.94, 43745.984, 0.0, 10.000806, 9.998916 
7.050351e+2, 2.4482429e+2, -510852.34, -678018.2, -1101.378, 0.041642044, 0.02801999, -510845.1, 29880.207, 0.0, 10.00085, 9.9986315 
7.050339e+2, 2.548233e+2, -447294.63, -594117.7, 4568.254, -0.0030195625, 0.05946607, -447152.63, -4417.0156, 0.0, 10.000603, 9.998653 
7.0503294e+2, 2.648218e+2, -365067.6, -504120.28, 4586.5156, -0.014129572, 0.0471376, -364916.47, -20167.158, 0.0, 10.000498, 9.998649 
7.050323e+2, 2.7481982e+2, -259155.02, -399515.66, 6838.877, 0.011690851, -0.021137865, -258822.6, -12055.873, 0.0, 10.000541, 9.9986725 
7.0503145e+2, 2.8481832e+2, -182298.81, -359084.13, 4082.0488, 0.01775583, -0.01710654, -182204.6, -33423.69, 0.0, 10.000599, 9.998251 
7.050302e+2, 2.9481736e+2, -71086.43, -255813.5, 2357.5662, 0.00083317375, 0.055435408, -71056.34, -20264.639, 0.0, 10.000693, 9.998241 
7.050287e+2, 3.04815e+2, 4773.77, -139587.83, -18940.154, -0.011351991, -0.023025388, 7217.345, 7217.345, 0.00000008201181, 10.000644, 9.99873 
7.050273e+2, 3.1481388e+2, 10192.439, -72629.05, 28976.95, 0.029372152, -0.01740938, 19323.889, 19323.889, 0.0000012936833, 10.000402, 9.999305 
7.1504265e+2, 1.2483315e+2, -1695237.0, -1712172.0, -47677.1, -0.0061096027, 0.15614441, -1655281.4, 61368.78, 0.0, 10.000182, 9.999921 
7.1504104e+2, 1.3483353e+2, -1512648.6, -1529203.1, 42873.13, -0.21371111, 0.15573369, -1477261.0, 141383.11, 0.0, 10.000539, 10.000351 
7.1504503e+2, 1.4483291e+2, -1478004.3, -1562270.0, -6838.441, 0.17927247, 0.10901313, -1477452.9, 43195.773, 0.0, 10.000554, 9.999432 
7.1504164e+2, 1.5483241e+2, -1404635.6, -1474816.3, -35360.37, -0.058337912, 0.11180699, -1389909.4, 32743.666, 0.0, 10.0003805, 9.999442 
7.1503997e+2, 1.6483201e+2, -1311063.3, -1359631.6, -20554.076, -0.13683599, 0.11823734, -1303532.5, 21123.979, 0.0, 10.000267, 9.999615 
7.150409e+2, 1.7483164e+2, -1218656.8, -1261207.3, -8222.191, 0.010767606, 0.11628526, -1217123.3, 9535.948, 0.0, 10.000216, 9.999641 
7.150406e+2, 1.8483089e+2, -1131585.1, -1208145.4, -10129.032, 0.058748256, 0.09385544, -1130267.8, -1602.2212, 0.0, 10.00031, 9.999288 
7.1503913e+2, 1.948297e+2, -993692.0, -1090001.5, -7798.432, -0.016903523, 0.04306557, -993064.6, 37611.04, 0.0, 10.000578, 9.999298 
7.1503794e+2, 2.0482896e+2, -875899.75, -960697.7, -2921.77, -0.05202153, 0.029947931, -875799.2, 56882.3, 0.0, 10.00062, 9.999494 
7.1503735e+2, 2.1482867e+2, -804450.9, -872502.3, 7578.2354, -0.03671427, 0.04734945, -803617.2, 31065.57, 0.0, 10.000425, 9.999519 
7.150368e+2, 2.2482795e+2, -757134.25, -892762.7, 12822.554, -0.024145486, 0.064084806, -755932.6, -19242.934, 0.0, 10.000481, 9.998681 
7.150362e+2, 2.3482674e+2, -612015.5, -771525.94, 5241.996, -0.016370686, 0.072223425, -611843.44, 26859.47, 0.0, 10.000802, 9.998687 
7.1503556e+2, 2.4482536e+2, -500711.13, -655645.06, -10519.172, 0.0052519822, 0.06181292, -500000.2, 40716.45, 0.0, 10.000844, 9.998788 
7.1503496e+2, 2.548238e+2, -436464.16, -571392.7, -4225.669, 0.043394055, 0.02248194, -436331.94, 6399.1772, 0.0, 10.000602, 9.99881 
7.15034e+2, 2.648225e+2, -359919.88, -493564.0, 5738.3433, 0.039401527, 0.017154753, -359673.94, -14931.293, 0.0, 10.000498, 9.998721 
7.1503264e+2, 2.748215e+2, -254376.92, -388623.97, 9022.924, -0.0099983355, 0.039347105, -253773.19, -7022.1953, 0.0, 10.000536, 9.99875 
7.1503156e+2, 2.8482008e+2, -183036.23, -359300.88, 7100.9707, -0.03117795, 0.047082268, -182750.63, -33986.098, 0.0, 10.000593, 9.998252 
7.150307e+2, 2.9481822e+2, -72673.92, -256714.33, 7123.2334, -0.023617916, 0.03346609, -72398.63, -21615.088, 0.0, 10.000684, 9.9982395 
7.150293e+2, 3.0481622e+2, 28920.893, -87615.914, -27653.238, -0.018973745, -0.032022115, 35149.84, 35149.84, 0.00000004119849, 10.000635, 9.999091 
7.1502787e+2, 3.1481576e+2, 20104.898, -49905.9, 19619.637, 0.04547686, 0.008806106, 25228.145, 25228.145, 0.0000010048329, 10.000394, 9.999466 
7.2504294e+2, 1.24833606e+2, -1654711.3, -1683712.1, 17196.86, -0.0018299947, 0.16931687, -1646717.4, 69928.44, 0.0, 10.000418, 10.000005 
7.2504145e+2, 1.3483381e+2, -1579339.9, -1549148.4, 43028.402, -0.19785596, 0.14370091, -1518644.5, 99996.11, 0.0, 10.0000305, 10.000458 
7.2504526e+2, 1.4483327e+2, -1560603.0, -1599783.0, -9029.63, 0.1759626, 0.0965783, -1558622.1, -37977.58, 0.0, 9.999978, 9.999452 
7.2504216e+2, 1.54833e+2, -1398070.5, -1469820.4, -2738.3794, -0.044648092, 0.12011728, -1397966.3, 24681.191, 0.0, 10.000419, 9.999457 
7.2504056e+2, 1.6483264e+2, -1272736.4, -1339369.8, 10174.232, -0.118799806, 0.12953785, -1271217.5, 53433.06, 0.0, 10.000523, 9.99963 
7.250412e+2, 1.7483212e+2, -1210163.4, -1255954.5, -205.6217, 0.017915646, 0.111194424, -1210162.5, 16492.213, 0.0, 10.000269, 9.999653 
7.25041e+2, 1.8483141e+2, -1129111.9, -1188813.4, 7042.3984, 0.057144016, 0.08368892, -1128292.4, 368.0579, 0.0, 10.000248, 9.999451 
7.2503954e+2, 1.9483045e+2, -995874.5, -1071722.9, 17952.283, -0.025760727, 0.039013576, -991840.06, 38828.094, 0.0, 10.000483, 9.999468 
7.2503865e+2, 2.048298e+2, -875636.94, -971742.56, 5569.0186, -0.05401616, 0.031516224, -875315.3, 57357.977, 0.0, 10.00067, 9.999393 
7.250382e+2, 2.1482947e+2, -756718.7, -861529.5, -12031.034, -0.017497916, 0.054485302, -755355.4, 79320.44, 0.0, 10.000804, 9.9994135 
7.250376e+2, 2.2482875e+2, -701731.06, -850027.5, -2149.1174, -0.008363507, 0.0706762, -701699.94, 34982.867, 0.0, 10.000792, 9.998825 
7.250368e+2, 2.3482761e+2, -625818.75, -761245.94, 17055.104, -0.03012492, 0.0704996, -623703.94, 14990.678, 0.0, 10.000634, 9.998837 
7.250361e+2, 2.448263e+2, -536772.4, -671120.06, 5352.1, -0.016710635, 0.05950207, -536559.5, 4147.7656, 0.0, 10.000587, 9.998806 
7.2503555e+2, 2.5482485e+2, -427504.97, -564998.6, 313.38193, 0.03549964, 0.028058218, -427504.25, 15216.739, 0.0, 10.000654, 9.998829 
7.2503453e+2, 2.648236e+2, -334923.94, -483802.6, 6271.6646, 0.035007916, 0.024471896, -334660.22, 10072.388, 0.0, 10.00068, 9.998701 
7.2503316e+2, 2.7482247e+2, -236398.33, -382413.3, 1199.037, -0.02197961, 0.041434888, -236388.48, 10353.553, 0.0, 10.0006695, 9.998729 
7.250321e+2, 2.8482106e+2, -176466.39, -344555.6, -1646.1155, -0.03334166, 0.045719087, -176450.27, -27694.756, 0.0, 10.000587, 9.998357 
7.250315e+2, 2.948193e+2, -101793.68, -258758.9, 5953.9854, 0.0015615587, 0.031369444, -101568.16, -50794.965, 0.0, 10.000431, 9.998347 
7.2502995e+2, 3.0481768e+2, 6210.886, -95216.46, -34489.953, -0.005571841, -0.0015899208, 16827.74, 16827.74, 0.000000018939705, 10.000465, 9.999122 
7.250282e+2, 3.1481695e+2, 58334.848, -40401.625, -16427.027, 0.020815557, 0.0062680203, 60996.125, 60996.125, 0.0000007295325, 10.000694, 9.999387 
7.350441e+2, 1.2483419e+2, -1695966.6, -1769593.5, 11775.89, 0.06957174, 0.12260105, -1694129.0, 22506.852, 0.0, 10.000418, 9.999416 
7.3504114e+2, 1.348342e+2, -1619981.0, -1632740.9, 27099.176, -0.23398894, 0.13359368, -1598520.9, 20114.846, 0.0, 10.000029, 9.999885 
7.3504466e+2, 1.4483367e+2, -1527792.8, -1531596.5, 5354.324, 0.11395464, 0.09444561, -1524012.5, -3372.3713, 0.0, 9.999977, 9.99992 
7.3504335e+2, 1.5483363e+2, -1364012.3, -1400238.3, 15048.104, 0.02963264, 0.09386549, -1358576.9, 64062.32, 0.0, 10.0004225, 9.999933 
7.350419e+2, 1.6483328e+2, -1291844.8, -1378578.1, 237.9647, -0.035131518, 0.093537934, -1291844.1, 32797.86, 0.0, 10.000521, 9.999362 
7.350411e+2, 1.7483258e+2, -1229768.9, -1296609.8, -9568.708, -0.022942292, 0.084343605, -1228426.0, -1776.8887, 0.0, 10.000268, 9.999374 
7.3504055e+2, 1.84832e+2, -1109908.0, -1148193.6, 14793.548, -0.010328912, 0.07072493, -1104857.9, 23796.068, 0.0, 10.000245, 9.999731 
7.350402e+2, 1.948315e+2, -975724.44, -1029564.5, 26845.645, -0.014573264, 0.043972537, -964626.4, 66030.1, 0.0, 10.000481, 9.999759 
7.3503965e+2, 2.0483087e+2, -907456.0, -1036697.1, 9835.428, -0.014037743, 0.04407519, -906711.8, 25950.451, 0.0, 10.000666, 9.99895 
7.350391e+2, 2.1483004e+2, -789776.6, -928861.94, -6569.969, -0.0016666112, 0.06476043, -789467.0, 45204.684, 0.0, 10.000798, 9.998954 
7.3503846e+2, 2.2482912e+2, -667660.4, -777936.94, -8781.757, -0.0022486171, 0.058896255, -666965.44, 69715.1, 0.0, 10.000786, 9.999324 
7.3503757e+2, 2.3482805e+2, -589830.3, -686423.25, 11343.035, -0.0180467, 0.0144360745, -588516.1, 50172.824, 0.0, 10.000633, 9.999352 
7.3503655e+2, 2.4482715e+2, -544310.75, -686619.9, 7147.8203, -0.02707271, 0.021265164, -543952.6, -3255.4229, 0.0, 10.0005865, 9.9987 
7.3503554e+2, 2.5482643e+2, -436167.72, -581751.2, 3274.868, -0.029139329, 0.0749793, -436094.1, 6611.0894, 0.0, 10.0006485, 9.998716 
7.350346e+2, 2.6482502e+2, -343950.8, -501141.84, 5724.076, -0.029681334, 0.06804291, -343742.66, 976.47107, 0.0, 10.000674, 9.998586 
7.3503375e+2, 2.748228e+2, -245901.28, -401052.13, 1648.4182, -0.026721599, -0.0125910835, -245883.77, 855.7688, 0.0, 10.000665, 9.998604 
7.3503315e+2, 2.8482133e+2, -161452.3, -312588.9, -7511.6846, 0.007898908, -0.019519793, -161079.88, -12326.267, 0.0, 10.000584, 9.998578 
7.350327e+2, 2.948206e+2, -85988.92, -224978.9, 1551.4105, 0.07191324, 0.04721823, -85971.61, -35210.992, 0.0, 10.000426, 9.998582 
7.350307e+2, 3.048195e+2, -16869.584, -141946.98, -25905.447, 0.02391903, 0.06687938, -11716.474, -11716.474, 0.0000000073965225, 10.000461, 9.998802 
7.3502815e+2, 3.148176e+2, 30769.4, -93074.66, -8613.572, -0.052259803, -0.010272241, 31365.62, 31365.62, 0.0000004773962, 10.000675, 9.999034 
7.450449e+2, 1.2483467e+2, -1657324.4, -1775398.1, -3926.4583, 0.081603475, 0.08636276, -1657193.9, 59434.445, 0.0, 10.00079, 9.999196 
7.450415e+2, 1.3483454e+2, -1563816.8, -1629559.0, 24637.686, -0.2253391, 0.105943196, -1555608.4, 63022.06, 0.0, 10.000519, 9.999668 
7.450446e+2, 1.4483404e+2, -1482727.8, -1498078.4, 21540.271, 0.1004314, 0.07477274, -1467536.1, 53099.03, 0.0, 10.000234, 10.000027 
7.450437e+2, 1.5483415e+2, -1407051.5, -1408446.8, 4694.6157, 0.041948073, 0.07655407, -1403003.0, 19629.99, 0.0, 10.0000725, 10.000046 
7.450425e+2, 1.6483387e+2, -1331111.5, -1386263.9, -10214.262, -0.016501123, 0.07342789, -1329280.6, -4645.8447, 0.0, 10.000203, 9.999462 
7.450415e+2, 1.748332e+2, -1168556.1, -1255906.8, 7221.293, -0.02190604, 0.05515499, -1167963.1, 58678.09, 0.0, 10.000641, 9.999473 
7.4504095e+2, 1.848327e+2, -1044660.06, -1128645.6, 28990.04, -0.014952062, 0.052682027, -1035625.25, 93020.164, 0.0, 10.000743, 9.999626 
7.4504066e+2, 1.9483244e+2, -982632.0, -1045558.75, 9971.097, -0.013422468, 0.0585673, -981089.8, 49557.563, 0.0, 10.000485, 9.999647 
7.450403e+2, 2.0483184e+2, -933858.0, -1040902.06, 4225.952, -0.010405498, 0.06464512, -933691.44, -1038.0773, 0.0, 10.000447, 9.999026 
7.450399e+2, 2.1483088e+2, -806205.1, -927342.75, 26817.037, 0.00064651115, 0.06222485, -800533.94, 34129.79, 0.0, 10.000646, 9.999037 
7.4503917e+2, 2.2482993e+2, -680281.94, -780470.7, 17677.912, 0.00019752009, 0.048749994, -677254.25, 59418.285, 0.0, 10.000683, 9.999356 
7.4503815e+2, 2.3482898e+2, -601781.6, -688430.0, 708.9462, -0.014364924, 0.01380319, -601775.8, 36903.855, 0.0, 10.000535, 9.999386 
7.4503714e+2, 2.4482813e+2, -549227.1, -677490.4, -4815.546, -0.030436223, 0.019627212, -549046.6, -8359.367, 0.0, 10.0005045, 9.998801 
7.4503595e+2, 2.5482738e+2, -435242.7, -570126.5, 6266.944, -0.048393726, 0.061131682, -434952.16, 7742.992, 0.0, 10.000607, 9.9988165 
7.4503505e+2, 2.648261e+2, -363680.38, -519350.22, 12448.236, -0.04336328, 0.062851205, -362691.22, -17982.775, 0.0, 10.000574, 9.998508 
7.450344e+2, 2.7482408e+2, -289321.13, -431306.25, 10374.39, -0.011635563, 0.012510101, -288567.13, -41839.3, 0.0, 10.000405, 9.998522 
7.450338e+2, 2.8482255e+2, -183771.66, -320602.9, 966.8368, 0.025998734, 0.00021880216, -183764.81, -35021.906, 0.0, 10.000419, 9.998603 
7.450331e+2, 2.9482144e+2, -56005.844, -207411.83, -6691.3564, 0.06605965, 0.025107147, -55710.695, -4957.7075, 0.0, 10.000619, 9.99861 
7.450312e+2, 3.048206e+2, 25182.479, -138103.53, -26793.012, 0.011114563, 0.07802155, 29466.451, 29466.451, 0.0000000015345106, 10.00082, 9.998655 
7.4502903e+2, 3.148186e+2, 79987.27, -77533.66, -1181.7402, -0.045389418, 0.008705587, 79996.14, 79996.14, 0.00000026410652, 10.001049, 9.9989605 
7.550451e+2, 1.24835104e+2, -1650060.8, -1760553.1, -7457.1187, 0.025059095, 0.061133247, -1649559.8, 67062.914, 0.0, 10.000789, 9.999299 
7.550425e+2, 1.3483492e+2, -1556034.9, -1612407.5, 13337.899, -0.17639309, 0.06019545, -1553038.4, 65586.29, 0.0, 10.000515, 9.999787 
7.550452e+2, 1.4483443e+2, -1500253.0, -1533838.0, 13205.174, 0.1306384, 0.037072867, -1495682.8, 24946.76, 0.0, 10.000232, 9.999783 
7.5504327e+2, 1.5483458e+2, -1423553.4, -1443451.9, -762.53436, -0.009141122, 0.0688967, -1423524.1, -895.6158, 0.0, 10.000075, 9.9998045 
7.550422e+2, 1.6483444e+2, -1297777.9, -1317665.9, 5217.967, -0.06600306, 0.06856896, -1296492.0, 28136.73, 0.0, 10.000204, 9.999932 
7.5504255e+2, 1.7483395e+2, -1135247.0, -1187174.8, 23839.564, 0.017089043, 0.022181071, -1125962.5, 100668.42, 0.0, 10.000641, 9.999946 
7.5504225e+2, 1.8483356e+2, -1080111.0, -1200407.5, 18791.56, 0.037814926, 0.02815911, -1077243.9, 51390.938, 0.0, 10.000735, 9.999137 
7.5504106e+2, 1.9483326e+2, -1018741.25, -1119765.4, 479.2084, -0.023643248, 0.082906954, -1018739.0, 11901.627, 0.0, 10.000483, 9.99914 
7.550404e+2, 2.0483273e+2, -893461.56, -956131.44, 10410.885, -0.043914866, 0.0932291, -891777.3, 40868.973, 0.0, 10.0004425, 9.999611 
7.550404e+2, 2.1483193e+2, -764179.56, -839237.3, 34134.91, -0.013727554, 0.046695504, -750977.7, 83674.336, 0.0, 10.000641, 9.999644 
7.550398e+2, 2.2483116e+2, -710464.7, -841626.3, 11414.25, -0.0050379117, 0.03987059, -709478.8, 27179.98, 0.0, 10.000676, 9.9989395 
7.550386e+2, 2.348304e+2, -633200.1, -752510.0, -4661.837, -0.021121884, 0.06745399, -633018.25, 5648.4395, 0.0, 10.00053, 9.998948 
7.550376e+2, 2.4482928e+2, -528781.4, -634139.8, -1574.1019, -0.0283357, 0.05398666, -528757.9, 11919.381, 0.0, 10.000501, 9.999102 
7.5503683e+2, 2.5482777e+2, -414150.22, -525623.1, 10599.287, -0.025561178, -0.011808834, -413151.34, 29539.22, 0.0, 10.000604, 9.999124 
7.5503594e+2, 2.648268e+2, -366210.03, -524092.1, 5960.477, -0.00987218, 0.010052023, -365985.3, -21284.875, 0.0, 10.000571, 9.998478 
7.5503516e+2, 2.7482635e+2, -291736.7, -435635.75, 5198.4688, 0.019429862, 0.11326777, -291549.13, -44842.094, 0.0, 10.000402, 9.998493 
7.550341e+2, 2.8482467e+2, -197522.4, -348286.97, 8472.046, 0.01774217, 0.10272301, -197047.83, -48324.344, 0.0, 10.000414, 9.998415 
7.550329e+2, 2.948218e+2, -71045.4, -236856.66, 2173.051, -0.018759595, -0.029744552, -71016.92, -20267.156, 0.0, 10.00061, 9.998412 
7.550314e+2, 3.0482104e+2, 27559.28, -130943.7, -18724.86, -0.047946967, 0.036911797, 29741.314, 29741.314, 0.00000000001992495, 10.000812, 9.998709 
7.5503093e+2, 3.148201e+2, 92499.27, -48385.832, 7497.4355, 0.033671405, 0.06678278, 92897.14, 92897.14, 0.000000109993245, 10.001036, 9.999167 
7.650455e+2, 1.2483572e+2, -1710440.6, -1765305.6, -9145.922, 0.013012803, 0.06398103, -1708956.3, 7660.69, 0.0, 10.000266, 9.99952 
7.6504326e+2, 1.3483559e+2, -1548204.4, -1583366.5, 10005.11, -0.1475069, 0.047408164, -1545556.8, 73060.125, 0.0, 10.000462, 10.000012 
7.6504564e+2, 1.4483516e+2, -1475777.3, -1543429.1, 16409.295, 0.14180371, 0.027716605, -1472007.3, 48613.926, 0.0, 10.000492, 9.999591 
7.6504344e+2, 1.5483524e+2, -1379781.0, -1444721.5, 5828.223, -0.014906007, 0.07197083, -1379262.1, 43359.74, 0.0, 10.000472, 9.999605 
7.6504236e+2, 1.648351e+2, -1267466.5, -1294087.4, 8201.829, -0.075158745, 0.07583981, -1265142.4, 59480.188, 0.0, 10.000371, 10.000016 
7.650429e+2, 1.7483464e+2, -1194843.8, -1205770.9, -2939.3247, 0.013852929, 0.025120927, -1194103.3, 32520.62, 0.0, 10.000188, 10.000037 
7.650427e+2, 1.8483421e+2, -1155607.1, -1240114.6, -8602.432, 0.03907397, 0.025479551, -1154740.3, -26112.416, 0.0, 10.000232, 9.999107 
7.6504165e+2, 1.9483382e+2, -1015898.44, -1121945.6, 7601.169, -0.018480716, 0.07240816, -1015356.4, 15278.716, 0.0, 10.000518, 9.999107 
7.650409e+2, 2.0483337e+2, -865905.1, -928653.44, 19429.057, -0.04228683, 0.086420335, -860376.4, 72263.73, 0.0, 10.00057, 9.999738 
7.6504076e+2, 2.1483286e+2, -795665.44, -840270.8, 6604.084, -0.025333013, 0.05545911, -794708.2, 39934.664, 0.0, 10.000364, 9.999771 
7.650402e+2, 2.2483216e+2, -753442.75, -860536.44, -15863.968, -0.017358042, 0.049985014, -751142.2, -14493.448, 0.0, 10.000376, 9.998953 
7.650392e+2, 2.3483129e+2, -619251.94, -744996.8, -224.48354, -0.021024382, 0.06328324, -619251.56, 19406.434, 0.0, 10.000624, 9.998955 
7.650383e+2, 2.4483015e+2, -504463.63, -621476.56, 6439.9863, -0.018840961, 0.046654377, -504110.25, 36558.605, 0.0, 10.000663, 9.99911 
7.650375e+2, 2.5482872e+2, -431085.75, -532853.06, -5133.7666, -0.010465412, -0.010548454, -430827.44, 11854.093, 0.0, 10.0004835, 9.999132 
7.6503664e+2, 2.6482785e+2, -367735.1, -519492.8, -13536.769, -0.0010427944, 0.020049548, -366537.06, -21846.729, 0.0, 10.00054, 9.998524 
7.650357e+2, 2.7482754e+2, -224573.94, -397915.06, -9957.915, 0.0103056915, 0.13189109, -224003.77, 22691.701, 0.0, 10.000841, 9.99854 
7.650346e+2, 2.848258e+2, -132109.45, -321968.88, -58.800056, 0.0015910366, 0.1136603, -132109.44, 16603.084, 0.0, 10.000885, 9.998369 
7.6503336e+2, 2.9482266e+2, -64543.453, -239731.0, 2923.3723, -0.030840246, -0.042652387, -64494.684, -13753.134, 0.0, 10.00068, 9.99836 
7.650322e+2, 3.0482194e+2, 8.699548, -156635.22, -9860.298, -0.047295526, 0.040370513, 626.9377, 626.9377, 0.0, 10.000673, 9.998599 
7.650322e+2, 3.1482086e+2, 72673.36, -44395.76, -129.92694, 0.06453238, 0.065945216, 72673.5, 72673.5, 0.000000028836135, 10.000839, 9.9992895 
7.75046e+2, 1.24836564e+2, -1686894.6, -1715244.8, 3142.5706, 0.037042126, 0.09843953, -1686550.5, 30060.117, 0.00000000003061157, 10.000261, 9.999866 
7.750438e+2, 1.3483663e+2, -1525302.8, -1534835.1, 16589.115, -0.14326078, 0.067710795, -1512808.6, 105798.41, 0.0, 10.000459, 10.000346 
7.75046e+2, 1.4483629e+2, -1484968.8, -1562988.8, 13529.315, 0.12736209, 0.045997012, -1482689.3, 37920.508, 0.0, 10.000493, 9.999456 
7.750443e+2, 1.5483613e+2, -1390421.8, -1467832.8, 5501.135, 0.021056611, 0.08349477, -1390032.9, 32580.172, 0.0, 10.000475, 9.999446 
7.75043e+2, 1.6483581e+2, -1288652.1, -1337239.4, 545.13025, -0.047734015, 0.09346458, -1288646.0, 35970.168, 0.0, 10.000368, 9.999721 
7.7504265e+2, 1.748353e+2, -1215090.5, -1247798.5, -9579.164, -0.033291087, 0.0639215, -1212491.6, 14127.907, 0.0, 10.000188, 9.999748 
7.750424e+2, 1.8483473e+2, -1126109.5, -1178325.6, 1212.471, -0.013751874, 0.044142954, -1126081.4, 2542.911, 0.0, 10.000228, 9.999534 
7.750423e+2, 1.9483414e+2, -985764.1, -1058935.9, 18530.246, -0.0012210987, 0.027257575, -981339.06, 49291.48, 0.0, 10.000514, 9.999542 
7.750418e+2, 2.0483378e+2, -889801.2, -976111.44, 10980.088, -0.010263876, 0.044176508, -888426.25, 44208.215, 0.0, 10.000562, 9.999416 
7.7504104e+2, 2.1483368e+2, -820336.9, -890248.5, -1100.1832, -0.036149565, 0.088378824, -820319.56, 14316.482, 0.0, 10.000359, 9.99943 
7.750404e+2, 2.2483298e+2, -724031.25, -798749.7, -7676.978, -0.038337387, 0.078540914, -723250.6, 13391.578, 0.0, 10.000372, 9.999379 
7.7503985e+2, 2.3483163e+2, -588726.1, -680840.9, 9502.04, -0.017159788, 0.0022064291, -587756.2, 50897.14, 0.0, 10.000619, 9.999397 
7.7503914e+2, 2.448307e+2, -524931.4, -662521.6, -687.1793, -0.006059341, -0.001886074, -524927.94, 15734.059, 0.0, 10.000657, 9.998832 
7.75038e+2, 2.548302e+2, -451797.47, -574909.94, -11280.969, -0.0056928447, 0.062495362, -450772.3, -8104.285, 0.0, 10.00048, 9.998845 
7.75037e+2, 2.6482925e+2, -360305.16, -503582.0, -2503.446, -0.01818533, 0.0919571, -360261.4, -15583.399, 0.0, 10.000537, 9.998634 
7.7503604e+2, 2.7482772e+2, -217728.22, -382244.63, 2397.1592, -0.043010026, 0.073428154, -217693.3, 28999.275, 0.0, 10.000834, 9.9986515 
7.750352e+2, 2.8482592e+2, -124634.58, -304966.63, -8021.5005, -0.02813664, 0.036722105, -124278.47, 24431.11, 0.0, 10.000879, 9.998488 
7.7503467e+2, 2.9482388e+2, -57215.457, -223896.42, -2748.474, 0.025876356, -0.021635933, -57170.15, -6441.3306, 0.0, 10.000677, 9.99847 
7.750335e+2, 3.048233e+2, -21444.244, -199919.53, -2590.7988, 0.0097089065, 0.08340838, -21406.643, -21406.643, 0.0, 10.000668, 9.998305 
7.750327e+2, 3.14821e+2, 69696.3, -48040.867, 5864.23, 0.035667013, 0.016889814, 69987.66, 69987.66, 0.0000000029769756, 10.000827, 9.999271 
7.8504664e+2, 1.2483753e+2, -1609126.1, -1685167.4, 41782.066, 0.043072313, 0.092044346, -1590655.1, 125945.22, 0.0000000009851104, 10.000825, 9.999802 
7.850442e+2, 1.3483767e+2, -1573669.1, -1568114.9, 14786.019, -0.13062187, 0.08055657, -1555847.5, 62749.023, 0.0, 10.000171, 10.000257 
7.850462e+2, 1.4483732e+2, -1550160.9, -1584337.1, 22088.924, 0.12072157, 0.056977157, -1539321.9, -18722.719, 0.0, 10.0, 9.99955 
7.8504485e+2, 1.5483695e+2, -1388880.9, -1456194.1, 32875.777, 0.028015845, 0.0627146, -1375488.8, 47114.715, 0.0, 10.000438, 9.999544 
7.8504366e+2, 1.6483651e+2, -1271244.9, -1359981.8, 27169.318, -0.037770662, 0.0688293, -1263587.0, 61021.09, 0.0, 10.000623, 9.999442 
7.85043e+2, 1.7483597e+2, -1183035.1, -1264619.3, 15850.891, -0.034374014, 0.066695936, -1180063.6, 46549.605, 0.0, 10.000547, 9.99946 
7.850427e+2, 1.848354e+2, -1081322.5, -1134027.6, 27054.625, -0.019375876, 0.050726194, -1069907.1, 58710.902, 0.0, 10.000437, 9.999737 
7.8504264e+2, 1.9483481e+2, -1003440.06, -1043520.7, 26796.29, -0.005943047, 0.012242183, -990019.1, 40603.566, 0.0, 10.00029, 9.999756 
7.850422e+2, 2.0483445e+2, -940886.6, -1016281.25, 14641.6875, -0.009853421, 0.023821719, -938143.06, -5516.62, 0.0, 10.000278, 9.999276 
7.850415e+2, 2.148343e+2, -822662.25, -908061.94, 15745.205, -0.026065212, 0.080203585, -819851.8, 14777.643, 0.0, 10.000415, 9.999281 
7.8504086e+2, 2.2483364e+2, -710941.2, -782704.56, 8333.932, -0.031043658, 0.0769607, -709986.06, 26649.662, 0.0, 10.000421, 9.999466 
7.850402e+2, 2.3483238e+2, -629850.9, -690258.2, -2363.3389, -0.027044129, 0.0002915358, -629758.56, 8887.098, 0.0, 10.000294, 9.999488 
7.850395e+2, 2.4483152e+2, -573043.3, -698248.56, -18604.531, -0.020139024, 0.0024881316, -570337.3, -29683.398, 0.0, 10.000382, 9.998717 
7.850386e+2, 2.5483105e+2, -428993.9, -577355.75, -17664.95, -0.009970252, 0.080965474, -426919.6, 15740.697, 0.0, 10.000694, 9.998724 
7.850376e+2, 2.6482984e+2, -335816.7, -488154.5, -7755.2656, -0.018122375, 0.092098795, -335422.88, 9249.406, 0.0, 10.000689, 9.998668 
7.8503656e+2, 2.7482784e+2, -284192.53, -410631.7, -10313.234, -0.045005713, 0.020963788, -283356.84, -36666.277, 0.0, 10.000362, 9.998684 
7.8503597e+2, 2.8482616e+2, -188127.39, -326523.94, -19995.84, -0.021544648, -0.0103410985, -185296.27, -36589.855, 0.0, 10.000403, 9.9985695 
7.8503567e+2, 2.9482487e+2, -32347.06, -202489.72, -18900.125, 0.05451955, -0.0018585256, -30272.848, 20446.535, 0.0, 10.000809, 9.998552 
7.850345e+2, 3.0482435e+2, 16609.658, -196470.14, -12672.261, 0.031579703, 0.11257039, 17360.654, 17360.654, 0.0, 10.000995, 9.998171 
7.850335e+2, 3.148214e+2, 102506.88, -16400.709, 1990.3304, 0.022558507, -0.00549933, 102540.19, 102540.19, 0.0, 10.000985, 9.999413 
7.950472e+2, 1.2483866e+2, -1642285.1, -1754442.5, 20559.414, 0.016675906, 0.047501963, -1638635.3, 77950.54, 0.0000000034592607, 10.000825, 9.999328 
7.9504454e+2, 1.3483879e+2, -1608401.3, -1641946.8, -10607.86, -0.111434504, 0.08441929, -1605328.3, 13256.842, 0.0, 10.000177, 9.999747 
7.950462e+2, 1.4483832e+2, -1527056.3, -1536973.0, 35806.063, 0.11945217, 0.059877347, -1495866.9, 24722.264, 0.0, 10.000004, 9.999872 
7.9504496e+2, 1.5483776e+2, -1364961.8, -1405263.3, 49655.938, 0.0010887616, 0.010800018, -1331523.6, 91069.17, 0.0, 10.000433, 9.999895 
7.950441e+2, 1.6483724e+2, -1290830.1, -1399596.5, 23599.17, -0.050653186, 0.0031424041, -1285930.5, 38667.51, 0.0, 10.000617, 9.999173 
7.95044e+2, 1.7483671e+2, -1203005.0, -1306591.3, 13260.068, 0.0079128845, 0.033646964, -1201334.5, 25270.25, 0.0, 10.000547, 9.999172 
7.950435e+2, 1.8483627e+2, -1082958.1, -1136528.4, 20698.58, 0.018272417, 0.04453375, -1075892.5, 52716.715, 0.0, 10.000434, 9.999722 
7.9504263e+2, 1.9483586e+2, -1004705.75, -1045361.7, 21173.217, -0.034840986, 0.02588683, -995681.9, 34929.48, 0.0, 10.000287, 9.999745 
7.9504216e+2, 2.0483537e+2, -938649.0, -1010782.2, 18522.006, -0.04308902, 0.024093278, -934171.0, -1555.2214, 0.0, 10.000275, 9.999316 
7.950422e+2, 2.148348e+2, -820490.44, -902406.2, 20897.078, 0.0018585321, 0.031714752, -815467.5, 19155.316, 0.0, 10.000409, 9.999323 
7.9504156e+2, 2.248342e+2, -729967.4, -820647.1, 2539.727, 0.0002807547, 0.04577346, -729896.3, 6732.8213, 0.0, 10.000414, 9.999208 
7.950403e+2, 2.3483355e+2, -648516.5, -728599.44, -6967.38, -0.05218715, 0.056868583, -647914.9, -9279.995, 0.0, 10.000292, 9.999227 
7.950394e+2, 2.4483256e+2, -569897.3, -691608.4, -7419.439, -0.062713906, 0.05958461, -569446.75, -28802.277, 0.0, 10.0003805, 9.998764 
7.9503906e+2, 2.5483125e+2, -426226.1, -570594.9, -5094.1694, -0.027859364, 0.046943586, -426046.56, 16611.47, 0.0, 10.0006895, 9.998774 
7.950384e+2, 2.648297e+2, -339362.9, -494430.44, -20160.668, -0.006015421, 0.021185648, -336784.66, 7888.251, 0.0, 10.000684, 9.998628 
7.950374e+2, 2.748278e+2, -287376.34, -416981.6, -21455.85, 0.0016714836, -0.030671552, -283916.72, -37227.08, 0.0, 10.0003605, 9.998642 
7.9503673e+2, 2.8482646e+2, -186904.34, -323614.5, -4262.575, 0.019096438, -0.029537994, -186771.56, -38068.5, 0.0, 10.0004015, 9.99859 
7.9503644e+2, 2.9482564e+2, -31329.242, -199098.02, -2036.0021, 0.046618618, 0.025148341, -31304.537, 19407.912, 0.0, 10.000802, 9.99858 
7.950353e+2, 3.0482513e+2, 20043.568, -188072.78, -13650.185, 0.009358516, 0.13510318, 20935.055, 20935.055, 0.0, 10.000989, 9.998231 
7.9503447e+2, 3.148219e+2, 123615.4, 28764.47, 1968.0887, 0.019239437, -0.01535041, 123656.22, 123656.22, 0.0, 10.000979, 9.999725 
8.0504775e+2, 1.2483951e+2, -1773100.9, -1826877.8, 1151.1154, 0.028476974, 0.013497601, -1773076.3, -56501.33, 0.0000000057252847, 9.999967, 9.999247 
8.050451e+2, 1.348395e+2, -1530033.3, -1616169.0, -7374.799, -0.10694916, 0.048838492, -1529406.4, 89170.08, 0.0, 10.000769, 9.999639 
8.050464e+2, 1.4483911e+2, -1415997.9, -1490978.1, 33446.46, 0.10218889, 0.039845694, -1403246.9, 117333.67, 0.0, 10.0008, 9.999804 
8.0504525e+2, 1.5483873e+2, -1417258.4, -1438862.5, 15641.005, -0.0035932155, 0.016503185, -1409051.9, 13530.88, 0.0, 10.00011, 9.999821 
8.050445e+2, 1.648382e+2, -1370976.3, -1428786.1, 2034.202, -0.045900527, 0.008472431, -1370904.8, -46316.89, 0.0, 10.000026, 9.999259 
8.050446e+2, 1.748375e+2, -1190980.0, -1291065.1, 18330.313, 0.014188683, 0.010506943, -1187728.5, 38867.527, 0.0, 10.000588, 9.999259 
8.050441e+2, 1.8483704e+2, -1045583.1, -1139787.6, 18915.727, 0.020226264, 0.026150512, -1041926.8, 86673.92, 0.0, 10.000783, 9.999531 
8.0504304e+2, 1.9483684e+2, -973904.06, -1052593.0, 4532.929, -0.042453803, 0.047787532, -973643.8, 56958.2, 0.0, 10.000594, 9.999547 
8.0504245e+2, 2.0483623e+2, -916393.4, -1001130.7, 315.74017, -0.051486295, 0.04512986, -916392.2, 16215.498, 0.0, 10.000433, 9.999306 
8.0504256e+2, 2.148352e+2, -837321.25, -910759.2, -2074.1082, 0.000085177686, 0.0074692364, -837262.7, -2644.4956, 0.0, 10.000297, 9.999318 
8.0504197e+2, 2.2483453e+2, -747651.06, -832129.9, -12034.836, 0.0031854636, 0.016903644, -745970.06, -9345.077, 0.0, 10.000305, 9.999182 
8.050407e+2, 2.3483427e+2, -624919.2, -720450.6, -4970.0913, -0.04590701, 0.06820507, -624661.3, 13966.515, 0.0, 10.000468, 9.999197 
8.050399e+2, 2.4483337e+2, -550039.56, -673565.3, 7448.7773, -0.060186658, 0.075738125, -549592.0, -8955.27, 0.0, 10.000481, 9.998839 
8.0503947e+2, 2.5483176e+2, -470924.66, -583443.0, 10157.849, -0.037990615, 0.02827299, -470015.0, -27362.76, 0.0, 10.000345, 9.998851 
8.050389e+2, 2.648302e+2, -365928.4, -508930.72, -2668.3835, -0.011517985, -0.00010486178, -365878.63, -21211.648, 0.0, 10.000509, 9.998611 
8.050383e+2, 2.7482867e+2, -198373.03, -375881.88, -3292.205, 0.020700745, -0.019540304, -198312.0, 48369.402, 0.0, 10.00098, 9.998625 
8.050377e+2, 2.8482735e+2, -97853.48, -288145.4, 11265.543, 0.03760778, -0.0059627057, -97188.86, 51505.426, 0.0, 10.001046, 9.998524 
8.05037e+2, 2.948264e+2, -51397.203, -216451.39, 4468.986, 0.036594596, 0.039272793, -51276.293, -571.1477, 0.0, 10.000697, 9.99851 
8.05036e+2, 3.048255e+2, -21491.238, -227981.6, -10115.734, -0.0031660206, 0.122981854, -20996.863, -20996.863, 0.0, 10.00079, 9.998054 
8.0503577e+2, 3.1482223e+2, 175971.8, 59987.953, -16134.295, 0.034994412, -0.014144761, 178174.38, 178174.38, 0.0, 10.001314, 9.999778 
8.150481e+2, 1.2484018e+2, -1751242.5, -1782221.4, 32840.203, 0.06429877, -0.0043647387, -1730422.1, -13855.24, 0.000000004999778, 9.99997, 9.999551 
8.150457e+2, 1.348399e+2, -1512262.9, -1575947.3, 21929.648, -0.122812115, -0.024637837, -1505442.0, 113128.09, 0.0, 10.000757, 9.999919 
8.150468e+2, 1.4483975e+2, -1448762.3, -1558149.8, 6488.6343, 0.06288453, -0.00087859243, -1448378.8, 72193.9, 0.0, 10.000794, 9.999347 
8.1504554e+2, 1.5483992e+2, -1449203.1, -1508252.4, -9326.21, 0.011787586, 0.07874306, -1447765.3, -25192.338, 0.0, 10.000122, 9.99934 
8.1504476e+2, 1.6483946e+2, -1340241.4, -1366647.4, 21748.979, -0.026626583, 0.08217032, -1328001.5, -3424.046, 0.0, 10.000033, 9.9996805 
8.150449e+2, 1.7483832e+2, -1160993.8, -1226566.8, 39475.473, -0.019084463, -0.0045029195, -1142464.9, 84121.98, 0.0, 10.00058, 9.999706 
8.150446e+2, 1.8483776e+2, -1072703.9, -1193648.5, 11303.253, -0.017297674, -0.004508797, -1071656.5, 56935.926, 0.0, 10.0007715, 9.9991665 
8.150437e+2, 1.9483778e+2, -1001061.9, -1108271.9, -2493.2144, -0.031265613, 0.07928588, -1001003.94, 29590.3, 0.0, 10.00059, 9.999167 
8.1504303e+2, 2.0483707e+2, -921356.94, -1010466.6, -5733.0874, -0.038067065, 0.087281816, -920989.6, 11612.128, 0.0, 10.000428, 9.999244 
8.150425e+2, 2.1483554e+2, -841768.06, -919391.1, -7083.5215, -0.033631988, 0.006585717, -841126.94, -6511.5107, 0.0, 10.000294, 9.999261 
8.15042e+2, 2.248347e+2, -733312.44, -802190.7, -6895.118, -0.024974149, -0.010070329, -732628.94, 3994.1145, 0.0, 10.000304, 9.999388 
8.150415e+2, 2.3483458e+2, -610654.75, -690357.25, 1467.3206, -0.011679848, 0.034612257, -610627.75, 27996.426, 0.0, 10.000465, 9.999406 
8.150408e+2, 2.4483389e+2, -544077.3, -660523.1, 1735.8754, -0.016601307, 0.050254624, -544051.44, -3420.846, 0.0, 10.000477, 9.998932 
8.150398e+2, 2.5483263e+2, -464683.03, -570108.0, 5371.046, -0.041729037, 0.023912255, -464410.1, -21767.266, 0.0, 10.000343, 9.998944 
8.150392e+2, 2.6483145e+2, -365935.16, -508432.3, 14788.117, -0.03583213, 0.028973028, -364416.66, -19762.293, 0.0, 10.000506, 9.998616 
8.150391e+2, 2.7483037e+2, -199053.67, -375995.56, 15662.061, 0.0052848686, 0.058526877, -197678.05, 48987.336, 0.0, 10.000974, 9.998628 
8.1503856e+2, 2.8482893e+2, -107973.81, -308577.34, -2006.7305, 0.026582362, 0.06159521, -107953.74, 40726.156, 0.0, 10.001042, 9.998385 
8.150376e+2, 2.9482704e+2, -62645.633, -239671.81, -7144.852, 0.02296973, 0.032652326, -62357.734, -11659.626, 0.0, 10.000695, 9.998353 
8.1503683e+2, 3.0482537e+2, -52435.047, -291031.72, 10560.334, -0.006826353, 0.071295425, -51968.56, -51968.56, 0.0, 10.000786, 9.997622 
8.150373e+2, 3.1482235e+2, 157930.64, 25268.781, 3840.6616, 0.05555238, -0.002742701, 158041.73, 158041.73, 0.0000000016901937, 10.001303, 9.999545 
8.250482e+2, 1.2484075e+2, -1674944.3, -1728419.0, 22048.299, 0.061633594, -0.0009911477, -1667025.9, 49535.695, 0.0000000017683296, 10.000422, 9.999701 
8.250462e+2, 1.3484056e+2, -1620187.3, -1616534.9, -6725.4805, -0.10689346, -0.023617992, -1611392.1, 7171.175, 0.0, 9.999966, 10.000022 
8.2504725e+2, 1.4484043e+2, -1557079.1, -1616652.6, -16307.06, 0.0635335, 0.0001797756, -1552907.5, -32341.988, 0.0, 10.000077, 9.99929 
8.2504594e+2, 1.5484047e+2, -1344198.0, -1463984.5, -2406.2048, 0.00726361, 0.07152076, -1344149.6, 78418.15, 0.0, 10.000871, 9.999283 
8.250451e+2, 1.6484007e+2, -1214454.3, -1301924.0, 24141.654, -0.031723592, 0.082181185, -1208233.6, 116338.49, 0.0, 10.00088, 9.999716 
8.2504517e+2, 1.7483921e+2, -1232725.0, -1257629.8, 10802.215, -0.022639262, 0.020938456, -1228692.6, -2114.0874, 0.0, 10.0000725, 9.999737 
8.250449e+2, 1.8483864e+2, -1209531.0, -1262331.3, -10142.969, -0.017388847, 0.018598776, -1207649.5, -79065.25, 0.0, 9.9998455, 9.999141 
8.250442e+2, 1.948383e+2, -1053711.3, -1136701.1, 1212.7734, -0.026627082, 0.06949732, -1053693.5, -23103.709, 0.0, 10.000243, 9.999139 
8.250435e+2, 2.0483759e+2, -907053.3, -991730.0, 12751.607, -0.035394777, 0.07270673, -905174.7, 27422.404, 0.0, 10.000476, 9.999349 
8.2504284e+2, 2.1483642e+2, -798804.75, -886607.2, 22970.145, -0.04003564, 0.018531542, -793158.56, 41447.676, 0.0, 10.000537, 9.999369 
8.2504237e+2, 2.2483559e+2, -715076.6, -810554.3, 18634.031, -0.02990317, 0.0044007325, -711568.75, 25044.982, 0.0, 10.000504, 9.999235 
8.25042e+2, 2.3483506e+2, -636145.94, -719998.0, -1714.4218, -0.0049851374, 0.02441822, -636110.94, 2508.6921, 0.0, 10.000365, 9.999249 
8.2504135e+2, 2.4483424e+2, -539130.94, -643515.0, -9903.453, -0.0076178126, 0.02753624, -538199.7, 2427.521, 0.0, 10.000449, 9.999062 
8.250404e+2, 2.548331e+2, -392541.1, -519968.8, -3889.1563, -0.03983344, 0.002969997, -392422.5, 50214.246, 0.0, 10.000773, 9.999081 
8.2503986e+2, 2.6483214e+2, -314624.44, -482690.56, 9728.712, -0.04276838, 0.022059307, -314063.16, 30582.863, 0.0, 10.000856, 9.998624 
8.2503974e+2, 2.7483135e+2, -240964.5, -395311.1, 9304.763, -0.012630306, 0.07894822, -240405.6, 6249.631, 0.0, 10.000684, 9.998634 
8.2503945e+2, 2.8482983e+2, -151054.36, -343024.1, -11094.882, 0.01614662, 0.07991478, -150415.27, -1744.4767, 0.0, 10.000806, 9.998262 
8.2503873e+2, 2.948275e+2, 8147.112, -218921.61, -15614.562, 0.040355165, 0.015617025, 9215.83, 59909.105, 0.0, 10.001241, 9.998232 
8.25038e+2, 3.0482543e+2, 12518.076, -268832.47, 18677.66, 0.014326728, 0.026977452, 13752.589, 13752.589, 0.0, 10.00127, 9.997541 
8.250384e+2, 3.1482312e+2, 93180.35, -1706.4247, 32490.023, 0.054488305, 0.031939156, 103238.94, 103238.94, 0.000000023716037, 10.00084, 9.999582 
8.350481e+2, 1.24841295e+2, -1674740.5, -1728613.0, 6811.5776, 0.0060790814, 0.023994232, -1673892.6, 42665.91, 0.000000000051048894, 10.000421, 9.9997015 
8.3504665e+2, 1.3484153e+2, -1621276.6, -1622797.5, -23063.186, -0.063221835, 0.049342178, -1598961.3, 19594.287, 0.0, 9.999981, 9.999972 
8.350477e+2, 1.4484121e+2, -1534545.3, -1571385.4, 11210.977, 0.099261306, 0.039793402, -1531401.8, -10842.824, 0.0, 10.000085, 9.999598 
8.350466e+2, 1.5484041e+2, -1322810.6, -1416050.0, 27492.598, -0.019753601, -0.004432539, -1315307.9, 107259.52, 0.0, 10.000856, 9.999619 
8.3504564e+2, 1.6484007e+2, -1239190.6, -1351186.5, -6106.0234, -0.06472932, 0.011609164, -1238858.6, 85712.56, 0.0, 10.00087, 9.999384 
8.3504546e+2, 1.7484024e+2, -1256662.4, -1309099.6, -18988.121, 0.00010030414, 0.08844139, -1250508.8, -23938.56, 0.0, 10.000079, 9.999381 
8.3504504e+2, 1.8483973e+2, -1188368.9, -1219380.1, 3523.1616, 0.015617315, 0.09501652, -1187973.6, -59397.875, 0.0, 9.999849, 9.9994335 
8.350444e+2, 1.948384e+2, -1032933.7, -1092323.3, 16161.657, -0.031158166, 0.017301032, -1028820.5, 1768.0774, 0.0, 10.000237, 9.999446 
8.350439e+2, 2.0483778e+2, -888520.25, -952319.4, 14145.907, -0.04607614, 0.0016681046, -885524.44, 47069.18, 0.0, 10.000471, 9.999622 
8.3504355e+2, 2.1483788e+2, -780108.25, -847108.25, 24836.12, -0.022276724, 0.04365896, -771905.94, 62684.47, 0.0, 10.000533, 9.999641 
8.35043e+2, 2.2483721e+2, -751618.8, -885766.6, 12301.7705, -0.014652357, 0.05948437, -750500.0, -13903.208, 0.0, 10.0005, 9.998721 
8.350422e+2, 2.3483574e+2, -673056.0, -796562.44, -6886.851, -0.02662873, 0.037912462, -672673.2, -34059.445, 0.0, 10.000364, 9.998725 
8.350416e+2, 2.4483442e+2, -527130.75, -618482.25, 1506.1844, -0.034314025, 0.009488884, -527105.94, 13520.165, 0.0, 10.000447, 9.999234 
8.350412e+2, 2.5483328e+2, -380604.38, -494149.3, 9112.327, -0.037279353, -0.033927027, -379877.72, 62755.957, 0.0, 10.000768, 9.999261 
8.3504075e+2, 2.6483235e+2, -314562.97, -482347.16, 3175.1067, -0.037769813, -0.02195449, -314502.9, 30138.955, 0.0, 10.000854, 9.998628 
8.350402e+2, 2.748316e+2, -241479.84, -395762.75, 3456.6746, -0.034591608, 0.03912046, -241402.44, 5248.625, 0.0, 10.000679, 9.998633 
8.350401e+2, 2.8483012e+2, -159979.75, -360022.44, 5234.5557, 0.0050571267, 0.049124382, -159842.88, -11176.005, 0.0, 10.0008, 9.998149 
8.350404e+2, 2.9482773e+2, -831.7313, -235149.14, 2308.466, 0.081151314, -0.0060002296, -808.9908, 49881.16, 0.0, 10.001231, 9.998125 
8.350397e+2, 3.048257e+2, 31943.68, -228260.92, 3335.8848, 0.052838814, -0.0059149805, 31986.44, 31986.44, 0.0, 10.001267, 9.997822 
8.3503896e+2, 3.1482437e+2, 115372.414, 43913.613, 16810.244, 0.024315998, 0.07222947, 119129.4, 119129.4, 0.00000010288848, 10.00084, 9.999896 
8.450485e+2, 1.2484195e+2, -1700985.3, -1741978.9, 26150.87, 0.0055042263, 0.037563793, -1688255.8, 28296.799, 0.0, 10.000243, 9.999695 
8.45047e+2, 1.3484216e+2, -1537658.5, -1587054.9, -8625.058, -0.05436564, 0.06363348, -1536195.8, 82354.51, 0.0, 10.000578, 9.9999275 
8.4504795e+2, 1.4484179e+2, -1479595.4, -1535680.8, 23097.16, 0.101681165, 0.05075874, -1471308.0, 49245.586, 0.0, 10.000424, 9.999678 
8.45047e+2, 1.5484095e+2, -1470683.9, -1478019.1, 22107.041, -0.008903198, -0.007728525, -1451942.3, -29380.316, 0.0, 9.999802, 9.999701 
8.4504616e+2, 1.6484061e+2, -1386719.6, -1421316.0, -10047.576, -0.054262113, 0.002583253, -1384013.3, -59447.613, 0.0, 9.999854, 9.999392 
8.450458e+2, 1.7484081e+2, -1175948.9, -1269628.5, 1798.1552, -0.0030600626, 0.0816059, -1175914.4, 50650.23, 0.0, 10.00063, 9.999386 
8.450453e+2, 1.8484029e+2, -1042457.6, -1144892.6, 28924.512, 0.0101742605, 0.08716832, -1034854.56, 93715.336, 0.0, 10.000832, 9.999473 
8.4504473e+2, 1.9483899e+2, -1003782.1, -1073501.5, 21655.791, -0.027089702, 0.0057701324, -997603.2, 32978.883, 0.0, 10.000416, 9.99949 
8.450443e+2, 2.0483841e+2, -921179.4, -965186.9, 4914.0586, -0.03732922, -0.008888882, -920637.3, 11949.201, 0.0, 10.000235, 9.999648 
8.450441e+2, 2.1483856e+2, -812457.06, -860005.2, -3667.439, -0.014434171, 0.037519667, -812175.9, 22407.21, 0.0, 10.000299, 9.999666 
8.450435e+2, 2.2483796e+2, -760195.44, -887556.56, -6146.3594, -0.016446747, 0.056227315, -759899.5, -23310.518, 0.0, 10.000432, 9.99874 
8.4504247e+2, 2.3483653e+2, -630930.44, -774273.25, 13658.208, -0.047312092, 0.037824836, -629640.7, 8964.173, 0.0, 10.000646, 9.998742 
8.4504193e+2, 2.4483517e+2, -499695.1, -617644.06, 34362.734, -0.0510349, 0.008955955, -490414.25, 50203.35, 0.0, 10.00069, 9.999123 
8.4504193e+2, 2.5483385e+2, -419906.34, -525664.4, 18530.143, -0.025543058, -0.040413573, -416753.63, 25873.715, 0.0, 10.000553, 9.999146 
8.450417e+2, 2.648327e+2, -362168.5, -509214.6, -3210.032, -0.015838047, -0.042279728, -362098.47, -17460.871, 0.0, 10.0005455, 9.998591 
8.4504104e+2, 2.748317e+2, -242519.81, -399878.13, -7019.571, -0.02187484, -0.0020832715, -242207.3, 4441.3677, 0.0, 10.0006895, 9.998598 
8.450409e+2, 2.848303e+2, -148347.84, -348520.1, 12021.4375, 0.0037723652, 0.014354546, -147628.47, 1035.2108, 0.0, 10.000856, 9.998199 
8.450414e+2, 2.948283e+2, -28162.97, -241973.84, 19922.38, 0.06280085, -0.0074239415, -26322.494, 24361.059, 0.0, 10.001017, 9.99818 
8.4504074e+2, 3.0482614e+2, 25368.07, -217010.44, 5963.7944, 0.037353233, -0.028946538, 25514.723, 25514.723, 0.00000000024035085, 10.001162, 9.997949 
8.4504e+2, 3.1482515e+2, 188232.4, 89463.086, 3891.7922, 0.027832827, 0.06882317, 188385.52, 188385.52, 0.00000026211356, 10.001296, 9.9999895 
8.550491e+2, 1.24842785e+2, -1703403.6, -1747983.8, 37281.21, 0.043001767, 0.04154325, -1682257.1, 34286.137, 0.0, 10.000247, 9.999652 
8.550473e+2, 1.3484246e+2, -1544790.8, -1600094.6, 3331.1536, -0.07984784, 0.021838125, -1544590.9, 73956.05, 0.0, 10.00057, 9.999842 
8.550481e+2, 1.4484228e+2, -1487463.0, -1551580.6, -1104.5901, 0.06878118, 0.0363506, -1487444.0, 33105.094, 0.0, 10.000421, 9.999571 
8.550472e+2, 1.5484215e+2, -1477823.1, -1495950.6, -215.88266, 0.03363953, 0.061086293, -1477820.5, -55269.457, 0.0, 9.999814, 9.999572 
8.550465e+2, 1.648417e+2, -1363900.5, -1375586.1, 18000.861, -0.0066100922, 0.052539546, -1350818.0, -26262.727, 0.0, 9.999861, 9.9997015 
8.5504615e+2, 1.7484091e+2, -1153249.6, -1221094.5, 30994.152, -0.03275702, 0.0002261509, -1141222.4, 85339.32, 0.0, 10.000624, 9.999722 
8.5504574e+2, 1.8484038e+2, -1057253.4, -1174076.3, 13069.333, -0.03538838, -0.0034673472, -1055809.1, 72757.39, 0.0, 10.000824, 9.999276 
8.5504526e+2, 1.9484007e+2, -1018409.6, -1103942.9, 5800.962, -0.017414864, 0.035733946, -1018018.0, 12551.791, 0.0, 10.000416, 9.999281 
8.550448e+2, 2.0483948e+2, -936456.7, -996608.06, 5947.109, -0.012178053, 0.04059259, -935874.3, -3298.8682, 0.0, 10.000233, 9.9994335 
8.550443e+2, 2.1483855e+2, -828078.7, -891570.6, -1394.852, -0.01852953, 0.00061486935, -828048.06, 6535.7754, 0.0, 10.000295, 9.999452 
8.550437e+2, 2.2483787e+2, -723108.56, -810006.56, 543.4021, -0.037352905, -0.0032540737, -723105.2, 13484.456, 0.0, 10.000428, 9.999274 
8.550429e+2, 2.3483746e+2, -592781.7, -694526.9, 21824.703, -0.07023388, 0.02328042, -588297.8, 50294.957, 0.0, 10.000643, 9.999291 
8.550425e+2, 2.4483645e+2, -528166.56, -676621.3, 28707.117, -0.061390005, 0.023369338, -522808.72, 17793.08, 0.0, 10.000689, 9.998719 
8.550427e+2, 2.5483483e+2, -449487.9, -586513.3, 13514.597, -0.006710652, -0.016221175, -448167.72, -5550.161, 0.0, 10.00055, 9.998732 
8.550426e+2, 2.6483324e+2, -367763.6, -520339.4, 1343.9741, 0.021739008, -0.03647483, -367751.75, -23118.957, 0.0, 10.000543, 9.998516 
8.550421e+2, 2.748317e+2, -248419.64, -410908.7, -570.54535, 0.020415783, -0.0426251, -248417.64, -1769.9485, 0.0, 10.000685, 9.998526 
8.550418e+2, 2.848304e+2, -134008.9, -318335.66, 18583.547, 0.00713587, -0.024169032, -132154.02, 16507.154, 0.0, 10.000854, 9.998408 
8.5504156e+2, 2.9482916e+2, -13993.123, -211381.48, 27355.918, -0.018420275, 0.008645179, -10272.034, 40401.688, 0.0, 10.001011, 9.998393 
8.550412e+2, 3.0482677e+2, 22287.05, -222055.53, 11011.655, -0.034137405, -0.044194072, 22782.303, 22782.303, 0.0000000059514194, 10.001156, 9.997916 
8.550416e+2, 3.1482533e+2, 177642.6, 70850.62, 9454.389, 0.057109833, 0.012996853, 178473.14, 178473.14, 0.0000005093443, 10.001283, 9.999867 
8.650494e+2, 1.2484304e+2, -1749892.8, -1773593.5, 24862.432, 0.067318924, 0.02109134, -1734200.9, -17661.23, 0.00000000000000000000885557, 9.999944, 9.99962 
8.6504775e+2, 1.348427e+2, -1606826.3, -1639111.9, -10223.767, -0.07793706, 0.0076339818, -1603861.0, 14683.239, 0.0, 10.000185, 9.99976 
8.6504835e+2, 1.4484264e+2, -1484568.8, -1546619.6, -25239.438, 0.054236487, 0.0352112, -1475599.0, 44946.63, 0.0, 10.000425, 9.999602 
8.650475e+2, 1.5484259e+2, -1346197.3, -1429341.0, -15604.721, 0.033064533, 0.06700303, -1343364.9, 79181.66, 0.0, 10.000703, 9.9996 
8.650468e+2, 1.6484214e+2, -1244965.6, -1316557.9, 12106.952, -0.0014104645, 0.05836354, -1242973.6, 81576.96, 0.0, 10.000668, 9.99972 
8.6504656e+2, 1.7484134e+2, -1198805.5, -1240161.4, 2812.3533, -0.03402277, 0.0001279284, -1198615.1, 27942.44, 0.0, 10.000299, 9.999747 
8.650462e+2, 1.8484083e+2, -1144226.5, -1209649.9, -27663.422, -0.036147475, -0.004902003, -1134097.5, -5535.5327, 0.0, 10.0002, 9.999331 
8.650457e+2, 1.9484061e+2, -1018591.3, -1098374.4, -16797.256, -0.009609195, 0.036935598, -1015199.1, 15364.877, 0.0, 10.00039, 9.999331 
8.6504525e+2, 2.0483992e+2, -916182.0, -1007398.2, -755.8138, -0.004046796, 0.03917126, -916175.75, 16394.959, 0.0, 10.00046, 9.99925 
8.6504465e+2, 2.1483874e+2, -825910.5, -911318.75, -6939.899, -0.020739518, -0.0072427164, -825350.25, 9232.015, 0.0, 10.0004, 9.999266 
8.650441e+2, 2.24838e+2, -713545.1, -780956.9, -10062.93, -0.036856536, -0.018382415, -712075.06, 24513.291, 0.0, 10.000389, 9.999493 
8.650436e+2, 2.3483771e+2, -607825.4, -676131.56, -14175.488, -0.05250656, -0.0024414423, -605000.4, 33588.336, 0.0, 10.00043, 9.999519 
8.6504334e+2, 2.4483685e+2, -567294.06, -713830.4, -14797.287, -0.042721536, 0.007516232, -565814.75, -25218.184, 0.0, 10.000501, 9.998554 
8.650433e+2, 2.5483537e+2, -451808.97, -607002.6, -13120.686, -0.0056306324, 0.0014854898, -450707.5, -8094.847, 0.0, 10.000618, 9.998557 
8.650432e+2, 2.648338e+2, -325646.72, -487235.06, -2239.104, 0.015828181, -0.01498882, -325615.72, 19012.463, 0.0, 10.000778, 9.99863 
8.65043e+2, 2.7483213e+2, -199216.84, -374239.34, 8824.18, 0.020474581, -0.049815763, -198773.08, 47870.207, 0.0, 10.000966, 9.998642 
8.650427e+2, 2.848308e+2, -119680.13, -309332.22, 21605.447, 0.005108051, -0.034741357, -117249.95, 31405.912, 0.0, 10.000943, 9.998426 
8.6504227e+2, 2.9482982e+2, -55316.16, -228948.42, 13725.97, -0.032532386, 0.021281399, -54237.793, -3571.3975, 0.0, 10.000718, 9.998413 
8.6504203e+2, 3.0482718e+2, -22506.693, -233075.97, 6613.4336, -0.045212515, -0.06021556, -22299.188, -22299.188, 0.000000027135602, 10.000803, 9.99801 
8.650429e+2, 3.1482577e+2, 154871.53, 54115.36, 11006.637, 0.06175163, -0.009616143, 156059.88, 156059.88, 0.00000083365, 10.001149, 9.999816 
8.7504935e+2, 1.2484275e+2, -1749199.0, -1772356.3, 34339.316, 0.06562146, -0.022861058, -1724538.8, -7997.3354, 0.0000000055054987, 9.999944, 9.99963 
8.750481e+2, 1.3484292e+2, -1609359.9, -1644923.8, -675.10236, -0.055865727, 0.019090727, -1609347.1, 9194.816, 0.0, 10.000187, 9.999719 
8.7504876e+2, 1.4484286e+2, -1476188.4, -1529848.0, -15379.199, 0.05043276, 0.044992846, -1472093.1, 48450.086, 0.0, 10.000427, 9.999717 
8.7504774e+2, 1.5484232e+2, -1336526.6, -1408701.6, -4870.826, -0.009736235, 0.011853503, -1336199.4, 86348.76, 0.0, 10.0007, 9.999744 
8.7504715e+2, 1.6484204e+2, -1262251.3, -1351831.5, -2585.4968, -0.038706362, 0.023386596, -1262176.6, 62374.445, 0.0, 10.000664, 9.999479 
8.7504715e+2, 1.7484213e+2, -1217028.8, -1278115.3, -10953.98, -0.011270818, 0.081255496, -1215123.9, 11427.803, 0.0, 10.000299, 9.999487 
8.750468e+2, 1.8484168e+2, -1124114.3, -1167338.5, -21616.482, 0.0025077832, 0.08142093, -1115159.1, 13396.652, 0.0, 10.000197, 9.999624 
8.750462e+2, 1.9484062e+2, -997596.56, -1054174.4, -9780.402, -0.0054754918, 0.009221698, -995953.56, 34610.58, 0.0, 10.000386, 9.999638 
8.750456e+2, 2.0483977e+2, -927684.3, -1030444.6, -3981.9111, -0.015134431, -0.012235796, -927530.25, 5041.444, 0.0, 10.000456, 9.999095 
8.7504506e+2, 2.1483916e+2, -837299.8, -934732.7, -9371.427, -0.023829676, 0.013070567, -836406.6, -1828.3323, 0.0, 10.000398, 9.999106 
8.750447e+2, 2.2483836e+2, -720512.75, -795147.2, -9759.28, -0.018071627, 0.008831307, -719257.75, 17327.293, 0.0, 10.000387, 9.999397 
8.750446e+2, 2.3483734e+2, -615033.44, -690321.2, -12599.158, 0.003732613, -0.037579365, -612981.0, 25611.22, 0.0, 10.000425, 9.999425 
8.750442e+2, 2.4483639e+2, -562401.75, -703365.6, -11360.659, 0.0022885283, -0.034918327, -561492.06, -20890.83, 0.0, 10.000498, 9.998628 
8.750437e+2, 2.5483552e+2, -447175.78, -596962.9, -7995.596, -0.025807338, 0.012393307, -446750.2, -4137.883, 0.0, 10.000616, 9.998628 
8.7504345e+2, 2.6483434e+2, -306011.06, -445996.56, 5259.122, -0.036460865, 0.019600196, -305813.75, 38809.9, 0.0, 10.000775, 9.998915 
8.7504345e+2, 2.7483287e+2, -179215.2, -331540.75, 16969.635, -0.025031388, -0.024715908, -177347.63, 69287.8, 0.0, 10.000961, 9.998939 
8.750435e+2, 2.8483155e+2, -132453.84, -335231.6, 12589.645, -0.0059997262, -0.01677978, -131675.19, 16972.473, 0.0, 10.000939, 9.99825 
8.750435e+2, 2.9483032e+2, -68691.98, -255382.86, 6566.658, 0.016808234, 0.031674333, -68461.29, -17799.93, 0.0, 10.000712, 9.998234 
8.7504333e+2, 3.0482745e+2, -8199.685, -201747.02, 20804.39, 0.00093271025, -0.07642992, -5988.6797, -5988.6797, 0.00000006425192, 10.000797, 9.998228 
8.7504375e+2, 3.148264e+2, 156051.11, 59411.887, 25774.36, 0.03092484, -0.010655818, 162495.56, 162495.56, 0.0000011924308, 10.001139, 9.999857 
8.8504946e+2, 1.2484265e+2, -1623368.0, -1702499.4, 7420.9243, 0.041277643, -0.011880258, -1622678.1, 93865.06, 0.00000006865043, 10.000768, 9.999713 
8.8504845e+2, 1.348428e+2, -1578052.5, -1626651.9, -25552.348, -0.050464172, 0.026291411, -1567090.4, 51452.973, 0.0, 10.000388, 9.999747 
8.850491e+2, 1.4484277e+2, -1505258.1, -1535796.3, -28689.209, 0.058416013, 0.050242715, -1488027.8, 32516.473, 0.0, 10.000193, 9.999789 
8.8504815e+2, 1.5484224e+2, -1397951.3, -1429232.5, -22218.508, -0.012968853, 0.009732452, -1386420.4, 36128.605, 0.0, 10.000241, 9.999824 
8.8504755e+2, 1.64842e+2, -1327790.0, -1386228.4, -27568.135, -0.038509693, 0.021118712, -1316837.5, 7714.3047, 0.0, 10.000229, 9.999452 
8.850475e+2, 1.7484212e+2, -1242199.8, -1294840.0, -21483.629, 0.007251982, 0.08594972, -1234545.0, -7992.545, 0.0, 10.000145, 9.999448 
8.850472e+2, 1.8484174e+2, -1123794.4, -1155418.9, -15849.071, 0.022617366, 0.089968696, -1117218.6, 11337.431, 0.0, 10.000148, 9.999731 
8.850465e+2, 1.948408e+2, -1009507.56, -1046767.75, -18929.123, -0.0045503774, 0.01967031, -1001578.44, 28984.615, 0.0, 10.000249, 9.999754 
8.850459e+2, 2.048401e+2, -935340.94, -1022195.3, -14120.873, -0.021965604, -0.000301121, -933102.8, -533.74396, 0.0, 10.000353, 9.9992 
8.850454e+2, 2.1483956e+2, -821441.3, -915354.94, -790.34674, -0.02563673, 0.024663763, -821434.7, 13139.42, 0.0, 10.000457, 9.999209 
8.850452e+2, 2.2483867e+2, -728637.06, -820953.25, 2934.5662, -0.01240585, 0.014896774, -728543.9, 8038.014, 0.0, 10.000426, 9.999201 
8.8504505e+2, 2.3483735e+2, -653938.25, -731803.4, -9727.43, 0.018034436, -0.040103875, -652741.44, -14148.725, 0.0, 10.000257, 9.999222 
8.850448e+2, 2.4483636e+2, -574595.6, -691368.8, 2113.6794, 0.013581403, -0.04111882, -574557.4, -33955.13, 0.0, 10.000338, 9.998787 
8.8504434e+2, 2.5483564e+2, -424837.6, -567283.25, 11360.639, -0.029352779, 0.005836965, -423937.22, 18673.588, 0.0, 10.000689, 9.998796 
8.8504416e+2, 2.6483455e+2, -305861.4, -448320.84, 9839.386, -0.045276415, 0.013060338, -305185.03, 39436.184, 0.0, 10.000787, 9.998893 
8.850443e+2, 2.7483308e+2, -230037.64, -358483.13, -3557.3162, -0.029952444, -0.029622491, -229939.19, 16694.424, 0.0, 10.000624, 9.998915 
8.850444e+2, 2.8483182e+2, -156574.88, -341492.88, -7794.6294, -0.0034449755, -0.017191993, -156246.9, -7601.533, 0.0, 10.000752, 9.998297 
8.8504463e+2, 2.9483068e+2, 957.8787, -216594.64, 2057.566, 0.032327108, 0.038871642, 977.33704, 51634.715, 0.0, 10.001167, 9.998282 
8.8504446e+2, 3.0482778e+2, 51215.098, -166395.11, 15180.071, 0.012102593, -0.07676432, 52268.93, 52268.93, 0.00000010587227, 10.001174, 9.99829 
8.850445e+2, 3.1482697e+2, 89633.086, 11523.645, 3980.8528, 0.010820258, 0.0043921145, 89835.445, 89835.445, 0.0000015115112, 10.000751, 9.999715 
8.9504963e+2, 1.2484277e+2, -1615533.8, -1684730.4, -9820.23, -0.024758587, 0.052102488, -1614167.1, 102377.44, 0.00000033567557, 10.000761, 9.999838 
8.9504874e+2, 1.3484243e+2, -1573858.3, -1617778.0, -39616.164, -0.06089238, 0.032599192, -1550522.6, 68025.5, 0.00000000007521531, 10.000388, 9.999808 
8.950496e+2, 1.4484245e+2, -1499534.3, -1525913.1, -29363.527, 0.07823546, 0.055473644, -1480533.9, 40014.02, 0.0, 10.000199, 9.999855 
8.950487e+2, 1.5484239e+2, -1394835.3, -1422563.3, -20183.047, 0.017205914, 0.059583943, -1384213.3, 38335.414, 0.0, 10.000239, 9.999871 
8.950481e+2, 1.6484204e+2, -1317292.4, -1363705.1, -30896.682, -0.0082631735, 0.04939697, -1301857.6, 22694.734, 0.0, 10.000225, 9.999608 
8.950478e+2, 1.7484134e+2, -1230420.4, -1270336.5, -24399.488, 0.019517096, 0.01496636, -1218856.1, 7703.38, 0.0, 10.000145, 9.999616 
8.950473e+2, 1.8484105e+2, -1128888.3, -1166239.0, -13238.361, 0.021422885, 0.023129676, -1124672.0, 3890.144, 0.0, 10.000148, 9.999657 
8.950467e+2, 1.948412e+2, -1014669.06, -1057914.5, -15399.276, -0.00874465, 0.06813532, -1009746.0, 20814.328, 0.0, 10.00025, 9.999678 
8.950462e+2, 2.0484087e+2, -910456.0, -969884.75, -11639.27, -0.026748417, 0.073672816, -908257.75, 24304.848, 0.0, 10.00035, 9.999561 
8.950458e+2, 2.1484001e+2, -796631.8, -862425.5, 2727.6025, -0.029047294, 0.028240655, -796518.94, 38050.508, 0.0, 10.00045, 9.999577 
8.9504546e+2, 2.2483899e+2, -750160.9, -864755.44, -4562.639, -0.02350227, 0.0018356013, -749979.5, -13400.987, 0.0, 10.000422, 9.998903 
8.9504504e+2, 2.348378e+2, -675558.6, -777113.56, -15829.095, -0.011650179, -0.011336437, -673148.56, -34558.66, 0.0, 10.0002575, 9.99891 
8.950449e+2, 2.4483673e+2, -558018.9, -657302.9, 14687.22, -0.010715599, -0.01397105, -555891.75, -15292.072, 0.0, 10.000339, 9.999021 
8.950451e+2, 2.5483575e+2, -407835.66, -531039.2, 25283.338, -0.0195215, -0.017426394, -402848.94, 39759.035, 0.0, 10.000684, 9.999048 
8.950452e+2, 2.6483443e+2, -328480.0, -494515.78, 3205.2776, -0.014996698, -0.031619, -328418.16, 16202.289, 0.0, 10.000782, 9.998579 
8.9504516e+2, 2.7483273e+2, -253925.63, -407211.72, -8783.132, 0.0025911396, -0.06311473, -253424.0, -6786.532, 0.0, 10.00062, 9.998583 
8.950453e+2, 2.8483158e+2, -138882.39, -303985.16, 8572.292, 0.010294931, -0.03564153, -138438.5, 10210.185, 0.0, 10.000749, 9.998556 
8.950455e+2, 2.9483098e+2, 19322.104, -177146.1, 19711.328, 0.008254597, 0.04342597, 21280.193, 71934.414, 0.0, 10.001161, 9.998556 
8.950453e+2, 3.0482826e+2, 43181.734, -182391.27, -713.9396, -0.018156216, -0.0610841, 43183.996, 43183.996, 0.00000013409642, 10.00117, 9.998182 
8.950451e+2, 3.1482735e+2, 65802.16, -35770.324, -10561.682, -0.005398485, 0.025813265, 66888.75, 66888.75, 0.0000016978646, 10.000742, 9.999394 
9.0505e+2, 1.2484257e+2, -1686808.3, -1707788.4, 1657.1104, -0.030689158, 0.06105308, -1686678.1, 29869.164, 0.0000010657902, 10.000219, 9.999944 
9.0504897e+2, 1.348422e+2, -1590331.5, -1619243.1, -28466.621, -0.069034524, 0.03590661, -1572860.5, 45689.664, 0.000000007369457, 10.000246, 9.9998665 
9.050497e+2, 1.4484228e+2, -1502118.5, -1530534.0, -15861.859, 0.07104568, 0.060915887, -1495031.6, 25518.014, 0.0, 10.000199, 9.999823 
9.0504897e+2, 1.5484218e+2, -1421861.1, -1440486.5, -15259.2, 0.022151671, 0.064676866, -1413297.3, 9254.33, 0.0, 10.000073, 9.999829 
9.050483e+2, 1.6484188e+2, -1314233.3, -1333158.8, -19172.086, -0.00017540263, 0.049430903, -1302315.8, 22238.715, 0.0, 10.00012, 9.999869 
9.0504795e+2, 1.7484136e+2, -1178043.9, -1214065.8, -6063.983, 0.016534064, 0.005603823, -1177050.5, 49507.77, 0.0, 10.000373, 9.999891 
9.0504754e+2, 1.848411e+2, -1091056.3, -1158132.3, 6439.938, 0.013788861, 0.007333454, -1090443.5, 38116.81, 0.0, 10.000454, 9.999563 
9.05047e+2, 1.9484112e+2, -1007298.9, -1066157.5, 1679.4513, -0.0129015185, 0.04935795, -1007251.0, 23309.654, 0.0, 10.000352, 9.999572 
9.050465e+2, 2.0484085e+2, -925773.56, -967342.3, -6677.6763, -0.022370778, 0.062398493, -924727.2, 7835.7256, 0.0, 10.000202, 9.99965 
9.050463e+2, 2.148403e+2, -855736.3, -880672.1, -14625.478, -0.012843732, 0.03655877, -848985.6, -14418.418, 0.0, 10.000001, 9.999668 
9.0504587e+2, 2.2483942e+2, -786003.7, -874670.7, -10287.728, -0.0126215825, 0.018572353, -784825.7, -48250.957, 0.0, 10.000144, 9.998968 
9.0504533e+2, 2.3483825e+2, -612320.1, -739364.2, 5365.3994, -0.024017638, 0.00070829253, -612093.94, 26491.8, 0.0, 10.000661, 9.998975 
9.050453e+2, 2.448371e+2, -501462.44, -634568.1, 33907.074, -0.023653, -0.008602034, -493322.78, 47272.805, 0.0, 10.000748, 9.99898 
9.0504575e+2, 2.5483602e+2, -456159.9, -559121.56, 21341.158, -0.009367065, -0.020073675, -451911.75, -9307.178, 0.0, 10.000373, 9.999004 
9.0504605e+2, 2.6483458e+2, -397804.2, -542992.1, 176.48184, 0.0059341267, -0.0358373, -397803.97, -53185.695, 0.0, 10.000372, 9.998443 
9.050461e+2, 2.748328e+2, -241677.11, -416644.22, 1220.7136, 0.021356462, -0.062269587, -241668.6, 4968.5156, 0.0, 10.000769, 9.9984455 
9.050462e+2, 2.848316e+2, -111179.766, -277518.8, 21548.336, 0.019303104, -0.038523134, -108433.63, 40215.027, 0.0, 10.000881, 9.998675 
9.050464e+2, 2.9483098e+2, -41265.414, -191644.52, 20024.355, -0.00064496265, 0.026890118, -38644.66, 12008.295, 0.0, 10.000683, 9.998687 
9.050462e+2, 3.0482832e+2, 8172.903, -201811.36, 1154.1414, -0.032744583, -0.081739284, 8179.2466, 8179.2466, 0.0000001316986, 10.000943, 9.998157 
9.0504616e+2, 3.1482744e+2, 184726.69, -6509.204, -5597.588, -0.020994734, 0.015606296, 184890.39, 184890.39, 0.0000016698094, 10.001677, 9.999146 
9.150507e+2, 1.2484209e+2, -1674978.0, -1687111.6, 62.708057, 0.009079385, 0.018546969, -1674977.6, 41573.22, 0.000002613721, 10.000234, 10.000079 
9.1504914e+2, 1.3484225e+2, -1585236.3, -1607298.0, -27854.734, -0.080841616, 0.035148926, -1566307.8, 52241.26, 0.00000007607973, 10.000239, 9.999952 
9.150495e+2, 1.4484233e+2, -1513529.6, -1553112.3, -20532.77, 0.029194431, 0.064222105, -1504802.6, 15746.209, 0.0, 10.000194, 9.99967 
9.150488e+2, 1.5484168e+2, -1431971.5, -1461717.1, -19207.232, -0.0006860409, 0.026653573, -1422552.0, 5.29189, 0.0, 10.000075, 9.999682 
9.150483e+2, 1.6484159e+2, -1287433.0, -1279370.9, -11282.673, -0.016609795, 0.025096629, -1271420.8, 53136.617, 0.0, 10.000126, 10.0002365 
9.150482e+2, 1.7484222e+2, -1151862.9, -1159727.1, 3167.2097, -0.0040977686, 0.057968866, -1150745.9, 75802.555, 0.0, 10.000371, 10.000266 
9.150478e+2, 1.8484192e+2, -1099798.1, -1174965.4, 1612.7174, -0.0035844832, 0.041680112, -1099763.5, 28786.654, 0.0, 10.000448, 9.999452 
9.150472e+2, 1.9484062e+2, -1016801.5, -1084643.3, -2438.655, -0.02009601, -0.03589447, -1016713.94, 13849.609, 0.0, 10.000346, 9.999448 
9.150468e+2, 2.0484011e+2, -940175.06, -996384.75, -15382.422, -0.012975739, -0.032200668, -936240.9, -3671.53, 0.0, 10.000197, 9.999454 
9.150466e+2, 2.1484041e+2, -869128.5, -908604.9, -22479.299, 0.020436581, 0.04916422, -858951.56, -24384.543, 0.0, 10.000001, 9.999476 
9.1504633e+2, 2.2483999e+2, -756801.06, -814113.1, 7379.086, 0.018245101, 0.063560486, -755866.25, -19295.89, 0.0, 10.000144, 9.999384 
9.1504604e+2, 2.3483874e+2, -582793.44, -677033.7, 24842.902, -0.021618398, -0.002950727, -576645.56, 61934.168, 0.0, 10.000656, 9.999406 
9.1504604e+2, 2.4483758e+2, -523506.6, -679732.9, 19592.557, -0.029101988, -0.02299186, -521086.97, 19502.68, 0.0, 10.000744, 9.998672 
9.150462e+2, 2.548365e+2, -479427.9, -607460.3, 7693.3584, -0.0020504477, -0.0019618515, -478967.28, -36367.047, 0.0, 10.000373, 9.998673 
9.150465e+2, 2.648351e+2, -395180.13, -537867.8, 14787.993, 0.015187821, -0.0010300768, -393663.63, -49049.16, 0.0, 10.000373, 9.998477 
9.150469e+2, 2.7483332e+2, -238575.38, -409830.22, 17507.377, 0.02224422, -0.028447853, -236803.92, 9828.5625, 0.0, 10.000767, 9.998494 
9.1504705e+2, 2.848319e+2, -113608.85, -281363.84, 13741.543, 0.018387765, -0.026072543, -112490.68, 36154.54, 0.0, 10.000875, 9.9986515 
9.150471e+2, 2.9483077e+2, -43880.71, -195360.6, 13615.131, 0.002533609, -0.009142251, -42666.7, 7986.5874, 0.0, 10.000675, 9.998665 
9.1504717e+2, 3.0482793e+2, 12200.735, -192622.45, 28724.643, -0.033823032, -0.1370127, 16152.855, 16152.855, 0.00000009563079, 10.000938, 9.998223 
9.150476e+2, 3.148272e+2, 173034.4, -28328.58, 24858.264, -0.046542596, -0.03530055, 176057.77, 176057.77, 0.0000014046396, 10.001666, 9.9990015 
9.2505085e+2, 1.2484194e+2, -1724294.3, -1704383.1, 7722.1025, 0.023178503, 0.008386474, -1701739.3, 14812.209, 0.0000053718704, 9.999872, 10.000132 
9.2504925e+2, 1.3484196e+2, -1591362.5, -1609596.0, -26441.455, -0.08591796, 0.012410365, -1572510.3, 46040.754, 0.00000033393198, 10.000195, 9.999958 
9.2504954e+2, 1.4484216e+2, -1484841.6, -1527179.8, -19242.799, 0.013921063, 0.04807879, -1477402.8, 43147.14, 0.0, 10.00034, 9.999777 
9.250489e+2, 1.5484183e+2, -1388841.5, -1427608.8, -755.9589, -0.010609359, 0.03104629, -1388826.8, 33728.254, 0.0, 10.000317, 9.999798 
9.250484e+2, 1.6484186e+2, -1276728.6, -1275469.4, 7812.8447, -0.023431228, 0.032614645, -1268260.8, 56293.57, 0.0, 10.00021, 10.000221 
9.250483e+2, 1.748423e+2, -1204589.4, -1187684.5, -7770.6025, -0.011299711, 0.05150413, -1184655.4, 41891.652, 0.0, 10.000022, 10.000241 
9.2504805e+2, 1.84842e+2, -1172896.5, -1205965.8, -20869.746, -0.003624502, 0.03542866, -1162805.3, -34256.387, 0.0, 9.999928, 9.999489 
9.250475e+2, 1.9484091e+2, -1073461.0, -1107093.0, -14534.928, -0.0068083536, -0.026160525, -1068050.0, -37489.496, 0.0, 9.999938, 9.99949 
9.250471e+2, 2.0484032e+2, -963955.7, -1020935.4, -13412.888, -0.0011099195, -0.025826607, -960956.2, -28389.178, 0.0, 10.000092, 9.999334 
9.2504674e+2, 2.1484028e+2, -819703.94, -898633.44, -16179.582, 0.015183014, 0.031539723, -816516.06, 18052.238, 0.0, 10.000401, 9.999352 
9.2504656e+2, 2.248398e+2, -699182.94, -779142.94, 9732.457, 0.011047311, 0.046527624, -698015.4, 38556.52, 0.0, 10.00051, 9.999448 
9.250466e+2, 2.348389e+2, -615407.1, -685222.1, -1810.1176, -0.014727992, 0.0067153256, -615360.25, 23217.791, 0.0, 10.000401, 9.999473 
9.2504674e+2, 2.4483775e+2, -565731.56, -708770.8, -20490.166, -0.016442193, -0.011842889, -562854.25, -22266.328, 0.0, 10.000491, 9.998594 
9.2504686e+2, 2.5483632e+2, -421139.8, -588347.06, -15335.219, 0.0067584733, -0.014940998, -419745.0, 22856.947, 0.0, 10.000811, 9.998593 
9.2504716e+2, 2.6483494e+2, -307039.56, -489209.44, 10426.497, 0.017889075, -0.012112143, -306444.75, 38171.348, 0.0, 10.000951, 9.998534 
9.2504764e+2, 2.7483353e+2, -217099.19, -392740.25, 12839.803, 0.016863897, -0.0103982035, -216165.53, 30464.863, 0.0, 10.000885, 9.998554 
9.25048e+2, 2.848321e+2, -111964.76, -293639.13, 1317.3845, 0.017494572, -0.006877818, -111955.2, 36688.176, 0.0, 10.000944, 9.998534 
9.250482e+2, 2.9483056e+2, 16070.604, -179673.2, -8268.209, 0.020324767, -0.017312659, 16419.232, 67075.03, 0.0, 10.001143, 9.998548 
9.2504835e+2, 3.048278e+2, 46742.676, -151709.81, 16790.734, -0.01795337, -0.14157753, 48153.285, 48153.285, 0.00000004550982, 10.001071, 9.998441 
9.250486e+2, 3.1482738e+2, 35233.117, -89641.41, 22909.705, -0.062213026, -0.03095116, 39303.496, 39303.496, 0.0000009683944, 10.000698, 9.999046 
9.350505e+2, 1.2484211e+2, -1728376.0, -1711606.1, 16219.122, -0.0054759346, 0.022694966, -1701732.8, 14816.191, 0.000009857008, 9.9998665, 10.000085 
9.350494e+2, 1.3484149e+2, -1597467.9, -1622802.6, -13296.677, -0.087655, -0.028804401, -1591770.5, 26784.79, 0.0000009955157, 10.000199, 9.999865 
9.3505e+2, 1.4484195e+2, -1457141.8, -1473195.0, -21359.162, 0.021441879, 0.018445129, -1442350.9, 78200.625, 0.00000000002439963, 10.000353, 10.000143 
9.350492e+2, 1.5484275e+2, -1363393.3, -1374401.8, -1778.534, -0.010989352, 0.07808896, -1363113.0, 59431.402, 0.0, 10.000313, 10.000167 
9.350486e+2, 1.6484267e+2, -1305171.4, -1333334.9, -51.479855, -0.024946298, 0.071040206, -1305171.3, 19373.674, 0.0, 10.000205, 9.999826 
9.3504834e+2, 1.7484167e+2, -1233767.3, -1247724.5, -14813.825, -0.008526109, -0.013418725, -1224370.5, 2182.8928, 0.0, 10.00002, 9.99983 
9.350481e+2, 1.8484144e+2, -1161146.3, -1181462.8, -21663.506, 0.009027227, -0.010063013, -1147377.6, -18822.041, 0.0, 9.999927, 9.999659 
9.350478e+2, 1.9484203e+2, -1059822.3, -1079259.8, -14594.925, 0.02464756, 0.07715112, -1052006.3, -21455.28, 0.0, 9.99994, 9.9996805 
9.350473e+2, 2.0484154e+2, -966961.2, -1027419.0, -3589.5576, 0.011622107, 0.07972012, -966748.8, -34193.027, 0.0, 10.0000925, 9.99929 
9.350467e+2, 2.148399e+2, -823890.25, -906544.94, -4803.319, -0.03063357, -0.014969759, -823612.06, 10958.538, 0.0, 10.000397, 9.999301 
9.3504655e+2, 2.2483897e+2, -720505.8, -822285.6, 4697.4478, -0.03708931, -0.03030431, -720289.5, 16289.3, 0.0, 10.0005045, 9.999155 
9.350471e+2, 2.3483877e+2, -636914.0, -729086.25, -5868.083, -0.005812046, 0.029711256, -636541.94, 2038.2557, 0.0, 10.000397, 9.999173 
9.3504757e+2, 2.4483767e+2, -555598.1, -687637.6, -9416.204, 0.011737447, 0.02455194, -554930.0, -14339.854, 0.0, 10.00049, 9.99874 
9.350478e+2, 2.548356e+2, -409968.66, -565023.0, -2422.2637, 0.014279996, -0.05945077, -409930.8, 32678.553, 0.0, 10.00081, 9.998755 
9.3504804e+2, 2.648342e+2, -302044.75, -477754.2, 8028.179, 0.010875073, -0.06919071, -301678.72, 42944.176, 0.0, 10.000946, 9.998615 
9.3504834e+2, 2.7483347e+2, -213157.5, -383070.5, 11343.856, 0.0016664561, -0.007305802, -212403.5, 34226.953, 0.0, 10.000879, 9.998625 
9.350489e+2, 2.848322e+2, -126970.1, -324357.1, 8576.072, 0.012935002, 0.020279989, -126598.19, 22044.518, 0.0, 10.00094, 9.998325 
9.350496e+2, 2.9483038e+2, 838.7838, -210859.92, 984.2112, 0.046302106, 0.0021034044, 843.3594, 51503.477, 0.0, 10.00114, 9.998336 
9.3504965e+2, 3.0482793e+2, 70537.61, -100282.78, 2742.0242, 0.008343726, -0.09718356, 70581.61, 70581.61, 0.000000010385675, 10.001063, 9.998797 
9.350492e+2, 3.1482798e+2, 48622.72, -57782.777, 11361.582, -0.07662154, 0.018981498, 49822.344, 49822.344, 0.00000050425, 10.000681, 9.999273 
9.450504e+2, 1.2484222e+2, -1627633.9, -1668784.6, 18886.527, -0.03130353, 0.02238075, -1620280.0, 96267.375, 0.000016753027, 10.000583, 10.000034 
9.450497e+2, 1.348415e+2, -1635152.6, -1651151.3, -9750.748, -0.07626975, -0.030298883, -1630539.9, -11984.698, 0.000002343361, 9.999986, 9.999772 
9.450503e+2, 1.4484192e+2, -1534761.1, -1506098.3, -19721.088, 0.04055337, 0.017307516, -1496051.1, 24500.236, 0.0000000053592455, 9.9998045, 10.000179 
9.4504935e+2, 1.5484266e+2, -1395442.8, -1385631.5, -25659.193, -0.019472206, 0.06876593, -1364413.3, 58131.0, 0.0, 10.000076, 10.000203 
9.4504863e+2, 1.6484256e+2, -1313721.8, -1358007.6, -34785.89, -0.039420977, 0.06462883, -1294629.3, 29916.393, 0.0, 10.000236, 9.999642 
9.450485e+2, 1.7484152e+2, -1209654.1, -1256599.9, -34633.652, -0.00777822, -0.0054566697, -1191288.4, 35267.7, 0.0, 10.000276, 9.999646 
9.450482e+2, 1.848413e+2, -1107401.4, -1146871.1, -33274.54, 0.015427055, 0.004770653, -1088449.5, 40109.04, 0.0, 10.00026, 9.999734 
9.4504786e+2, 1.9484195e+2, -1017213.56, -1050183.4, -34937.5, 0.025840722, 0.091866635, -995067.1, 35485.242, 0.0, 10.000196, 9.999756 
9.4504744e+2, 2.0484148e+2, -939359.25, -1003640.4, -13211.067, 0.006451362, 0.08759831, -936750.0, -4193.8247, 0.0, 10.000237, 9.999384 
9.4504696e+2, 2.1483982e+2, -818689.7, -893550.3, -5212.813, -0.043917883, -0.021047289, -818328.44, 16242.219, 0.0, 10.000388, 9.999393 
9.45047e+2, 2.2483876e+2, -738399.7, -851640.44, 4262.7905, -0.04653475, -0.04391873, -738239.44, -1659.2175, 0.0, 10.000471, 9.998968 
9.450476e+2, 2.3483837e+2, -637179.3, -750826.9, 352.88815, 0.0007992907, 0.016377054, -637178.25, 1406.3551, 0.0, 10.000488, 9.99898 
9.4504815e+2, 2.4483733e+2, -535389.3, -664976.2, 11152.003, 0.018730463, 0.021654624, -534436.6, 6157.7705, 0.0, 10.000573, 9.998857 
9.4504845e+2, 2.5483558e+2, -414315.88, -553328.44, 13735.4375, 0.005436679, -0.04265388, -412971.72, 29638.482, 0.0, 10.000721, 9.9988785 
9.450488e+2, 2.648342e+2, -323678.1, -483224.72, 11174.99, 0.0016488888, -0.059206534, -322899.2, 21724.016, 0.0, 10.000776, 9.998659 
9.450492e+2, 2.7483317e+2, -228738.31, -385425.66, 11181.666, 0.008651368, -0.031017883, -227944.38, 18688.8, 0.0, 10.00075, 9.998671 
9.450498e+2, 2.8483197e+2, -151937.3, -342775.03, 22032.416, 0.017208463, 0.0025399928, -149426.66, -781.4049, 0.0, 10.000797, 9.998269 
9.450504e+2, 2.9483056e+2, -38182.63, -235927.6, 24710.049, 0.027905295, 0.033478193, -35141.65, 15517.993, 0.0, 10.000898, 9.998281 
9.450506e+2, 3.0482835e+2, 65957.43, -83780.94, 14933.402, 0.002267682, -0.05001884, 67432.21, 67432.21, 0.00000000032400083, 10.000951, 9.998965 
9.450504e+2, 3.1482792e+2, 94219.14, -30280.172, 5019.535, -0.037457258, 0.003286406, 94421.19, 94421.19, 0.00000016973306, 10.000971, 9.999323 
9.550506e+2, 1.2484239e+2, -1628954.0, -1675222.1, -9890.071, -0.073507085, 0.011569784, -1626928.6, 89616.98, 0.00002677623, 10.000597, 9.999985 
9.550499e+2, 1.3484205e+2, -1642365.0, -1665555.8, -32038.225, -0.054742623, 0.0075284857, -1619888.4, -1338.631, 0.0000047533053, 9.999982, 9.999676 
9.5505035e+2, 1.4484216e+2, -1555956.4, -1549317.3, -10251.883, 0.06736225, 0.04283853, -1541860.9, -21311.73, 0.000000046136613, 9.999801, 9.999885 
9.550492e+2, 1.5484172e+2, -1416381.5, -1428792.4, -14606.136, -0.03957034, 0.004147766, -1406717.3, 15836.274, 0.0, 10.000075, 9.999907 
9.5504856e+2, 1.648416e+2, -1312145.6, -1355382.1, -33510.254, -0.07134137, 0.01600353, -1293885.5, 30669.924, 0.0, 10.0002365, 9.9996605 
9.5504874e+2, 1.7484191e+2, -1207353.5, -1252258.6, -32738.857, -0.011152037, 0.07474406, -1190107.8, 36446.832, 0.0, 10.000276, 9.999676 
9.5504844e+2, 1.8484165e+2, -1109191.3, -1150509.9, -36651.227, 0.012731715, 0.07972156, -1087777.8, 40779.547, 0.0, 10.000259, 9.999709 
9.550477e+2, 1.9484079e+2, -1019728.5, -1054992.5, -37517.938, -0.0053321226, 0.020504897, -995905.9, 34657.95, 0.0, 10.000195, 9.999724 
9.550474e+2, 2.0484024e+2, -924804.6, -972818.56, -8857.2705, -0.01956603, 0.000067773704, -923222.8, 9344.697, 0.0, 10.000234, 9.999598 
9.550475e+2, 2.1484001e+2, -803482.5, -860954.1, 139.6645, -0.028000833, 0.011991933, -803482.1, 31086.178, 0.0, 10.000383, 9.9996195 
9.550477e+2, 2.2483918e+2, -744758.94, -864029.75, 3470.519, -0.020689089, 0.004321372, -744658.06, -8082.1504, 0.0, 10.000467, 9.998886 
9.5504814e+2, 2.3483773e+2, -643098.2, -763151.7, 1233.2134, 0.0026338224, -0.033377692, -643085.56, -4494.6343, 0.0, 10.000487, 9.998897 
9.550485e+2, 2.4483676e+2, -530328.2, -654022.6, 16271.847, 0.002178738, -0.020975305, -528223.44, 12376.908, 0.0, 10.000571, 9.998933 
9.550489e+2, 2.548363e+2, -410144.7, -543174.44, 19840.264, -0.023279551, 0.035940863, -407248.72, 35355.375, 0.0, 10.000714, 9.998951 
9.5504946e+2, 2.6483494e+2, -322980.22, -481503.1, 9730.465, -0.013393541, 0.019544631, -322385.16, 22231.414, 0.0, 10.000773, 9.998673 
9.5505023e+2, 2.7483264e+2, -227224.6, -382500.53, 11110.172, 0.033431612, -0.08159282, -226433.67, 20204.645, 0.0, 10.000749, 9.998692 
9.5505065e+2, 2.8483135e+2, -146201.33, -329411.8, 25882.422, 0.026444873, -0.0618475, -142615.08, 6035.88, 0.0, 10.000791, 9.9983635 
9.5505065e+2, 2.9483116e+2, -33227.758, -222972.1, 30095.293, -0.038365796, 0.07533359, -28568.752, 22085.564, 0.0, 10.000888, 9.998375 
9.550511e+2, 3.0482903e+2, 63441.797, -87714.055, 15444.6875, -0.039777476, 0.0006454928, 65003.754, 65003.754, 0.0, 10.000944, 9.998942 
9.550522e+2, 3.1482723e+2, 84409.7, -48633.215, 8942.233, 0.04323245, -0.07652784, 85008.05, 85008.05, 0.000000027453995, 10.000961, 9.999202 
9.650511e+2, 1.2484267e+2, -1731293.1, -1718890.8, -15176.828, -0.045620896, 0.011328847, -1708697.1, 7845.693, 0.000040530904, 9.999874, 10.0000305 
9.6504986e+2, 1.3484247e+2, -1600781.8, -1643133.9, -24809.318, -0.06665182, 0.017746275, -1589339.9, 29205.61, 0.000008656152, 10.000258, 9.999695 
9.650503e+2, 1.4484245e+2, -1484014.4, -1532883.3, 13462.924, 0.051467933, 0.048305936, -1480551.0, 39994.957, 0.00000019058375, 10.000375, 9.99972 
9.6504945e+2, 1.5484157e+2, -1414437.9, -1446436.9, 16013.984, -0.027871082, -0.017541144, -1407800.4, 14754.186, 0.0, 10.00017, 9.999739 
9.650489e+2, 1.6484135e+2, -1338132.0, -1375654.5, 793.1281, -0.055532455, -0.0051058987, -1338115.3, -13557.339, 0.0, 10.0000925, 9.999589 
9.650489e+2, 1.748419e+2, -1226847.0, -1268692.9, -6122.6934, -0.018300887, 0.084793665, -1225969.6, 585.68164, 0.0, 10.000174, 9.999611 
9.650486e+2, 1.8484162e+2, -1099138.3, -1138723.0, -9816.395, -0.007275308, 0.08905899, -1096837.6, 31720.283, 0.0, 10.000299, 9.999771 
9.6504784e+2, 1.9484049e+2, -974791.7, -1025995.0, -4618.1094, -0.02824393, -0.004948673, -974378.5, 56187.805, 0.0, 10.000472, 9.999789 
9.6504766e+2, 2.0483993e+2, -902095.06, -973587.3, 13612.6, -0.029745918, -0.022514554, -899590.9, 32979.105, 0.0, 10.000442, 9.999491 
9.6504796e+2, 2.1484002e+2, -838168.4, -890133.3, -3417.9534, -0.0094795935, 0.032270383, -837944.5, -3375.7979, 0.0, 10.000199, 9.999508 
9.6504825e+2, 2.2483927e+2, -776228.56, -875716.3, 671.56244, 0.00052316964, 0.035362855, -776224.0, -39647.887, 0.0, 10.0002365, 9.998918 
9.650487e+2, 2.3483759e+2, -628771.5, -752196.4, 5387.93, -0.0017121134, -0.026912425, -628536.75, 10056.251, 0.0, 10.000569, 9.998932 
9.650491e+2, 2.448366e+2, -517704.6, -642284.2, 16217.209, -0.0063778604, -0.022393053, -515628.13, 24974.473, 0.0, 10.000634, 9.998981 
9.6504956e+2, 2.548363e+2, -449232.8, -556248.44, 17058.822, -0.013256333, 0.046661634, -446579.34, -3974.9194, 0.0, 10.0004225, 9.9990015 
9.6505016e+2, 2.6483506e+2, -369001.88, -510355.66, 11895.946, -0.006469984, 0.04008234, -368007.75, -23391.537, 0.0, 10.000488, 9.998613 
9.650508e+2, 2.7483273e+2, -220304.83, -386048.25, 5718.899, 0.014783468, -0.055062305, -220107.73, 26530.816, 0.0, 10.000827, 9.998631 
9.6505135e+2, 2.8483135e+2, -116214.42, -300126.28, 13011.418, 0.0071970713, -0.048279766, -115298.45, 33353.41, 0.0, 10.000934, 9.998496 
9.650516e+2, 2.9483092e+2, -33281.805, -207534.22, 18101.754, -0.030853288, 0.056111395, -31421.219, 19234.682, 0.0, 10.000822, 9.998512 
9.6505225e+2, 3.0482894e+2, 44488.82, -106953.4, 7560.0137, -0.019147966, -0.010729798, 44865.28, 44865.28, 0.0, 10.000859, 9.998851 
9.650533e+2, 3.148273e+2, 81256.44, -68057.734, -5490.175, 0.059527487, -0.06560872, 81458.04, 81458.04, 0.00000000015790982, 10.001019, 9.999042 
9.7505176e+2, 1.2484308e+2, -1721812.8, -1698069.3, -6079.038, 0.032026272, 0.01566677, -1696603.4, 19935.414, 0.000058506626, 9.999868, 10.000176 
9.750496e+2, 1.3484281e+2, -1591369.0, -1623666.0, -8780.965, -0.11588919, 0.001685364, -1589136.0, 29405.46, 0.00001444443, 10.000258, 9.999828 
9.7505003e+2, 1.448429e+2, -1487507.4, -1540428.0, 6083.2656, -0.011991486, 0.036270928, -1486817.1, 33723.695, 0.0000005546723, 10.000376, 9.999668 
9.7505e+2, 1.5484227e+2, -1418662.5, -1454684.4, 8741.054, 0.0126665225, 0.003609792, -1416653.4, 5893.353, 0.0, 10.000168, 9.999684 
9.750496e+2, 1.6484182e+2, -1349446.3, -1398926.8, 2632.664, 0.003760122, 0.0019644755, -1349306.6, -24754.23, 0.0, 10.000092, 9.999431 
9.7504896e+2, 1.7484154e+2, -1238449.6, -1292424.8, -3014.013, -0.031746652, 0.026791845, -1238281.8, -11724.379, 0.0, 10.000172, 9.99945 
9.750485e+2, 1.8484128e+2, -1089108.6, -1117293.9, -4366.192, -0.04812759, 0.033979807, -1088447.8, 40112.047, 0.0, 10.000296, 9.999921 
9.750482e+2, 1.9484104e+2, -964154.56, -1003193.6, 1544.8325, -0.04531486, 0.01388566, -964093.5, 66466.0, 0.0, 10.000468, 9.999948 
9.750481e+2, 2.048406e+2, -932366.56, -1035877.56, 3089.3198, -0.0271931, 0.018280847, -932274.44, 288.80734, 0.0, 10.000439, 9.999065 
9.7504836e+2, 2.1483992e+2, -868878.06, -953776.44, -12932.0625, 0.008820507, 0.040696092, -866951.94, -32380.646, 0.0, 10.000198, 9.999072 
9.7504866e+2, 2.2483906e+2, -767175.0, -856770.1, 11590.368, 0.014058821, 0.04971923, -765699.94, -29119.605, 0.0, 10.000235, 9.999048 
9.750491e+2, 2.3483801e+2, -619806.6, -732156.5, 17928.47, -0.014362174, 0.03599165, -617015.0, 21575.443, 0.0, 10.000563, 9.999072 
9.750497e+2, 2.4483688e+2, -516370.2, -638892.9, 7675.5356, -0.009368099, 0.019060915, -515891.22, 24709.396, 0.0, 10.00063, 9.999007 
9.750504e+2, 2.5483564e+2, -446733.3, -551684.7, 9542.903, 0.031415608, -0.010952328, -445872.66, -3261.674, 0.0, 10.000424, 9.999033 
9.750509e+2, 2.648345e+2, -379013.75, -530863.2, 24658.393, 0.018989637, -0.00032251552, -375109.9, -30487.91, 0.0, 10.000486, 9.998473 
9.7505105e+2, 2.7483347e+2, -231351.73, -407820.06, 19903.06, -0.05058558, 0.046346974, -229134.81, 17498.895, 0.0, 10.000821, 9.998484 
9.7505176e+2, 2.84832e+2, -105675.26, -277635.97, 8697.202, -0.044207312, 0.044411488, -105236.51, 43411.06, 0.0, 10.000929, 9.998653 
9.750532e+2, 2.9483008e+2, -22066.137, -183343.19, 15283.188, 0.04300403, -0.019182293, -20630.625, 30033.207, 0.0, 10.000816, 9.998682 
9.750539e+2, 3.0482814e+2, 31531.05, -131455.25, 13580.308, 0.05796496, -0.08145517, 32654.836, 32654.836, 0.0, 10.000848, 9.998689 
9.7505385e+2, 3.148279e+2, 64461.08, -98174.21, 3708.9707, 0.0037853136, 0.020789972, 64545.62, 64545.62, 0.0, 10.000998, 9.998845 
9.850518e+2, 1.2484319e+2, -1726461.5, -1691352.1, -8527.072, 0.051464345, 0.0027223083, -1689390.8, 27146.732, 0.00008108169, 9.999798, 10.000257 
9.8504984e+2, 1.34843e+2, -1629680.1, -1636218.3, -13574.622, -0.10642575, -0.008323554, -1618986.5, -447.10757, 0.000022462764, 9.999969, 9.999883 
9.850503e+2, 1.4484322e+2, -1527425.5, -1558374.4, -11383.45, -0.008526612, 0.037495006, -1523689.5, -3152.0137, 0.0000013019285, 10.000095, 9.9996805 
9.850501e+2, 1.548428e+2, -1420757.6, -1453467.6, -4859.7104, 0.0067946883, 0.021475242, -1420050.9, 2490.9846, 0.0, 10.000145, 9.999702 
9.8504966e+2, 1.6484226e+2, -1329815.4, -1386956.9, 5988.844, -0.0052424064, 0.012749116, -1329194.5, -4646.945, 0.0, 10.0002165, 9.999453 
9.850491e+2, 1.7484167e+2, -1216596.0, -1279614.3, 12740.43, -0.03718222, 0.0040076333, -1214117.8, 12436.814, 0.0, 10.000312, 9.999471 
9.850488e+2, 1.8484133e+2, -1112584.1, -1160649.5, 443.97717, -0.045296337, 0.015964935, -1112580.0, 15978.086, 0.0, 10.000273, 9.999634 
9.850486e+2, 1.9484128e+2, -1038275.9, -1071199.8, -27994.56, -0.031731255, 0.04170349, -1022261.8, 8296.057, 0.0, 10.000097, 9.99966 
9.8504853e+2, 2.048407e+2, -967989.9, -1059866.5, -24809.783, -0.020704692, 0.050447, -961718.5, -29154.896, 0.0, 10.000223, 9.999005 
9.850486e+2, 2.1483955e+2, -803532.25, -928453.6, -13534.945, -0.011728702, 0.031824302, -802082.56, 32493.18, 0.0, 10.000673, 9.999017 
9.8504895e+2, 2.2483864e+2, -689378.1, -814752.44, 19159.96, -0.008790392, 0.03617882, -686515.4, 50069.62, 0.0, 10.0007515, 9.999086 
9.8504955e+2, 2.34838e+2, -636132.56, -735784.8, 16550.727, -0.012896643, 0.05846432, -633455.6, 5135.4385, 0.0, 10.000433, 9.999109 
9.850503e+2, 2.448369e+2, -540488.5, -654985.1, 5278.012, 0.00003448713, 0.04605148, -540245.75, 355.10828, 0.0, 10.000486, 9.998966 
9.850511e+2, 2.548353e+2, -376890.97, -522962.84, -231.8761, 0.03042237, -0.0153066935, -376890.6, 65724.27, 0.0, 10.000925, 9.998988 
9.850516e+2, 2.6483408e+2, -309995.78, -493001.16, 12598.597, 0.016605388, -0.011722137, -309132.53, 35494.055, 0.0, 10.000941, 9.998513 
9.8505175e+2, 2.748333e+2, -272354.7, -422369.22, 20148.04, -0.044392593, 0.055301193, -269695.8, -23060.137, 0.0, 10.00052, 9.998528 
9.850525e+2, 2.8483188e+2, -173370.06, -315142.16, 15736.394, -0.034581423, 0.05755736, -171644.36, -22995.275, 0.0, 10.000487, 9.998608 
9.850541e+2, 2.948298e+2, -24234.166, -189777.66, 5810.2583, 0.051912483, -0.018848674, -24030.488, 26636.748, 0.0, 10.000826, 9.998633 
9.8505485e+2, 3.048279e+2, 38264.254, -125107.53, -567.1088, 0.06974002, -0.071667634, 38266.223, 38266.223, 0.0, 10.000882, 9.998714 
9.850548e+2, 3.1482777e+2, 17541.297, -121490.48, -244.2544, 0.019969398, 0.03643706, 17541.727, 17541.727, 0.0, 10.000676, 9.998839 
9.950511e+2, 1.24843016e+2, -1727232.4, -1692379.1, -10358.213, -0.001727453, -0.030342842, -1689533.1, 27005.225, 0.000108580556, 9.999796, 10.000251 
9.950505e+2, 1.348431e+2, -1632809.5, -1642079.8, -5729.7476, -0.041803032, -0.011549663, -1630074.9, -11536.302, 0.000033028722, 9.999967, 9.999844 
9.95051e+2, 1.448435e+2, -1521853.8, -1546751.5, -9918.582, 0.056365263, 0.052987624, -1518385.6, 2149.6094, 0.0000026281716, 10.000093, 9.999761 
9.9504966e+2, 1.5484315e+2, -1414346.5, -1440115.8, -2537.2424, -0.048423182, 0.03576001, -1414099.1, 8440.107, 0.00000000019976186, 10.000144, 9.999795 
9.9504906e+2, 1.6484278e+2, -1316505.1, -1358718.4, 8625.965, -0.0857387, 0.025925763, -1314810.5, 9732.344, 0.0, 10.000213, 9.999648 
9.950494e+2, 1.7484236e+2, -1202772.8, -1251050.5, 16178.669, -0.037450388, 0.015449037, -1197852.4, 28693.953, 0.0, 10.000312, 9.999667 
9.950494e+2, 1.8484184e+2, -1162871.9, -1265032.9, -7383.204, -0.0038311693, 0.03499032, -1162341.1, -33788.758, 0.0, 10.000272, 9.998919 
9.9504906e+2, 1.9484125e+2, -1089440.5, -1177571.9, -35008.59, 0.009616154, 0.08020518, -1077226.6, -46665.945, 0.0, 10.000098, 9.998929 
9.950488e+2, 2.048403e+2, -947156.7, -1016457.0, -9687.507, -0.013171704, 0.07499003, -945828.0, -13257.56, 0.0, 10.000221, 9.999304 
9.9504864e+2, 2.1483897e+2, -782171.8, -882472.75, 2962.8337, -0.07247596, 0.005947275, -782084.4, 52497.313, 0.0, 10.000667, 9.999335 
9.9504906e+2, 2.2483805e+2, -694016.6, -823315.44, 6145.069, -0.069670305, -0.004445482, -693725.2, 42864.586, 0.0, 10.000746, 9.999031 
9.950502e+2, 2.3483758e+2, -640227.5, -744341.75, 4554.793, -0.00064554554, 0.03994669, -640028.6, -1434.0574, 0.0, 10.000433, 9.999051 
9.9505097e+2, 2.4483667e+2, -549323.9, -672751.4, 21007.766, 0.01783162, 0.05665771, -545846.25, -5243.229, 0.0, 10.000483, 9.998846 
9.950515e+2, 2.5483534e+2, -386147.28, -540994.25, 17230.191, -0.018086001, 0.033900287, -384253.2, 58362.383, 0.0, 10.000919, 9.998867 
9.950522e+2, 2.648339e+2, -296309.06, -464237.28, -3111.725, -0.015217479, 0.009788799, -296251.44, 48377.766, 0.0, 10.000938, 9.998713 
9.95053e+2, 2.748323e+2, -258043.08, -392042.72, 5163.0674, 0.027336316, -0.024034327, -257844.44, -11200.477, 0.0, 10.000516, 9.998738 
9.950537e+2, 2.84831e+2, -190768.0, -349097.22, 28794.98, 0.029762167, -0.0089568, -185693.75, -37037.3, 0.0, 10.000478, 9.99838 
9.950543e+2, 2.9483002e+2, -41216.613, -223624.39, 21128.69, -0.008015295, 0.050732043, -38801.215, 11865.128, 0.0, 10.00082, 9.998403 
9.950552e+2, 3.048283e+2, 50478.7, -99567.45, -7493.0234, 0.013224858, 0.014078607, 50851.96, 50851.96, 0.0, 10.00088, 9.998892 
9.950563e+2, 3.1482694e+2, 26214.611, -99690.6, -4218.0234, 0.098067164, -0.01503522, 26355.764, 26355.764, 0.0, 10.00066, 9.998998 
1.00505084e+3, 1.2484336e+2, -1709821.9, -1686738.4, -5067.8105, -0.011943208, -0.02496964, -1685674.8, 30860.412, 0.00014134821, 9.999925, 10.00023 
1.0050505e+3, 1.3484329e+2, -1654360.0, -1656742.3, 7616.3765, -0.026629703, -0.016819896, -1647842.3, -29305.648, 0.000046426092, 9.999837, 9.999806 
1.0050513e+3, 1.4484362e+2, -1546214.0, -1567273.6, 4870.23, 0.07450986, 0.045618035, -1545142.3, -24608.19, 0.00000474816, 9.999966, 9.999681 
1.0050498e+3, 1.5484321e+2, -1401568.5, -1443773.8, -3521.4216, -0.05647617, 0.030028671, -1401276.6, 21262.395, 0.000000004412824, 10.000272, 9.999709 
1.0050493e+3, 1.6484281e+2, -1299142.9, -1360094.0, -14922.452, -0.09866782, 0.027087048, -1295685.6, 28857.537, 0.0, 10.000372, 9.999562 
1.0050497e+3, 1.7484245e+2, -1215044.9, -1265696.6, -29123.688, -0.033158384, 0.030101897, -1201775.6, 24770.564, 0.0, 10.000265, 9.999588 
1.0050499e+3, 1.8484184e+2, -1153695.5, -1265719.9, -34922.85, 0.0031791874, 0.046601426, -1143700.3, -15147.477, 0.0, 10.000358, 9.998872 
1.00504935e+3, 1.9484098e+2, -1010023.1, -1144471.3, -12212.097, 0.002918901, 0.07025624, -1008922.9, 21640.494, 0.0, 10.000666, 9.998883 
1.0050492e+3, 2.0483994e+2, -886853.4, -994836.44, 26686.084, -0.01767384, 0.062514156, -880618.4, 51955.38, 0.0, 10.0006695, 9.999235 
1.00504935e+3, 2.1483874e+2, -832840.44, -914791.56, 9381.0205, -0.058156837, 0.012669966, -831780.3, 2803.6985, 0.0, 10.000353, 9.999265 
1.0050497e+3, 2.2483778e+2, -751899.4, -851681.8, -1200.329, -0.05716319, 0.0027123236, -751884.94, -15292.575, 0.0, 10.000352, 9.999025 
1.0050506e+3, 2.3483707e+2, -603530.44, -727207.9, -724.95605, -0.013326505, 0.024732739, -603526.2, 35072.71, 0.0, 10.000689, 9.999045 
1.00505136e+3, 2.4483612e+2, -532389.4, -675883.7, 18180.395, 0.0017437479, 0.040133342, -530121.75, 10486.39, 0.0, 10.000649, 9.998743 
1.0050521e+3, 2.5483492e+2, -496430.72, -605348.2, 14349.119, -0.0142479, 0.042117115, -494572.03, -51951.95, 0.0, 10.000215, 9.998763 
1.0050529e+3, 2.648335e+2, -393386.28, -494825.72, -6698.204, -0.0017670962, 0.019587709, -392945.88, -48312.6, 0.0, 10.000205, 9.998855 
1.00505374e+3, 2.7483183e+2, -232116.64, -363539.1, -4301.144, 0.03967329, -0.039245944, -231976.02, 14672.019, 0.0, 10.000627, 9.99888 
1.0050544e+3, 2.8483054e+2, -155128.08, -330877.16, 28286.834, 0.038479634, -0.027908819, -150687.52, -2027.5133, 0.0, 10.000719, 9.998387 
1.005055e+3, 2.948298e+2, -90171.5, -246309.38, 34640.86, -0.005871484, 0.050875388, -82831.14, -32162.354, 0.0, 10.000482, 9.998409 
1.0050559e+3, 3.048282e+2, 14370.196, -104530.4, 14493.867, 0.017212812, 0.023453187, 16111.484, 16111.484, 0.0, 10.000579, 9.999002 
1.00505725e+3, 3.1482673e+2, 80273.33, -62715.668, 12475.03, 0.11366725, -0.028060827, 81353.55, 81353.55, 0.0, 10.000986, 9.999093 
1.01505086e+3, 1.24844216e+2, -1711764.1, -1688474.1, -17180.613, -0.0022578747, 0.014565392, -1679363.9, 37164.227, 0.0001798155, 9.999916, 10.000221 
1.01505e+3, 1.3484365e+2, -1655521.0, -1658642.9, 5808.3735, -0.06481982, -0.025281603, -1651067.5, -32534.516, 0.000062927356, 9.999836, 9.999794 
1.0150509e+3, 1.4484362e+2, -1564043.5, -1604867.1, 15987.136, 0.04234753, 0.014482953, -1558527.9, -37994.46, 0.000007860604, 9.999967, 9.999424 
1.0150504e+3, 1.5484302e+2, -1420095.6, -1482682.4, 8397.134, -0.021946339, 0.005279061, -1418988.6, 3552.166, 0.000000028517778, 10.000273, 9.999443 
1.0150501e+3, 1.6484247e+2, -1324584.3, -1413185.8, -19629.19, -0.05035785, 0.018906511, -1320430.3, 4117.1123, 0.0, 10.000373, 9.999198 
1.0150501e+3, 1.7484201e+2, -1240092.3, -1317731.0, -33201.22, -0.027307326, 0.048652656, -1227830.6, -1277.507, 0.0, 10.000265, 9.999231 
1.0150499e+3, 1.8484136e+2, -1111039.5, -1176773.4, -24904.275, -0.026638765, 0.049937513, -1102669.8, 25889.346, 0.0, 10.000355, 9.999484 
1.0150495e+3, 1.9484052e+2, -966224.4, -1052953.1, -1137.0264, -0.053768884, 0.011539692, -966209.44, 64356.043, 0.0, 10.000663, 9.999513 
1.0150497e+3, 2.0483969e+2, -917725.2, -1058272.5, 13478.05, -0.037675735, 0.013447507, -916444.4, 16128.854, 0.0, 10.000666, 9.998802 
1.0150505e+3, 2.148389e+2, -864709.1, -980610.94, -2943.906, 0.026554776, 0.052022453, -864634.4, -30052.188, 0.0, 10.000351, 9.998815 
1.0150509e+3, 2.2483788e+2, -750419.4, -847552.6, 9698.328, 0.023384824, 0.056998905, -749460.56, -12868.363, 0.0, 10.000347, 9.999057 
1.0150509e+3, 2.3483658e+2, -601028.0, -721305.56, 12036.978, -0.051925447, 0.01383051, -599835.25, 38768.305, 0.0, 10.000685, 9.999087 
1.0150515e+3, 2.448353e+2, -539411.9, -690106.1, 1423.4984, -0.049428772, -0.00019291103, -539398.44, 1217.1097, 0.0, 10.000647, 9.998647 
1.0150529e+3, 2.548341e+2, -503184.63, -619430.5, -1483.2731, 0.036584016, 0.009692365, -503165.72, -60537.625, 0.0, 10.000213, 9.998668 
1.0150536e+3, 2.648329e+2, -387755.72, -481999.38, 9188.301, 0.051073752, 0.014370536, -386868.25, -42229.336, 0.0, 10.000199, 9.998945 
1.01505384e+3, 2.7483186e+2, -225139.48, -349187.0, 13567.498, -0.010682266, 0.005624094, -223672.89, 22974.934, 0.0, 10.000627, 9.998979 
1.01505466e+3, 2.8483057e+2, -140731.6, -302342.78, 19999.465, -0.011482064, 0.0005521211, -138293.44, 10365.955, 0.0, 10.000723, 9.998582 
1.015056e+3, 2.9482907e+2, -78428.94, -219265.89, 27141.262, 0.051917985, -0.009707163, -73379.48, -22705.6, 0.0, 10.000468, 9.998602 
1.01505704e+3, 3.0482763e+2, 15936.498, -96341.84, 30166.643, 0.07473792, -0.036580548, 23528.268, 23528.268, 0.0, 10.000558, 9.999068 
1.0150577e+3, 3.14827e+2, 83141.805, -53309.97, 31497.322, 0.05503674, -0.014239488, 90061.46, 90061.46, 0.0, 10.000973, 9.999163 
1.0250509e+3, 1.2484507e+2, -1769732.6, -1728825.8, -15265.988, 0.023757681, 0.06247279, -1723756.8, -7236.012, 0.00022439056, 9.999574, 10.000108 
1.0250499e+3, 1.348439e+2, -1599824.3, -1646142.0, 5694.327, -0.07271323, -0.024907045, -1599134.5, 19396.66, 0.0000828242, 10.0002775, 9.999667 
1.025051e+3, 1.4484364e+2, -1486189.6, -1576208.6, 8445.615, 0.029729456, 0.0011220984, -1485404.1, 35129.46, 0.000012107546, 10.000538, 9.999346 
1.0250509e+3, 1.5484321e+2, -1426599.3, -1494035.5, 12837.031, -0.0054265675, 0.017662216, -1424238.3, -1699.3188, 0.00000009714164, 10.000265, 9.999368 
1.02505066e+3, 1.6484258e+2, -1357729.3, -1447410.5, 2305.8247, -0.030912522, 0.03458101, -1357670.0, -33123.56, 0.0, 10.000226, 9.999033 
1.0250504e+3, 1.7484173e+2, -1225485.4, -1330005.3, 1853.6327, -0.0312988, 0.042967804, -1225452.5, 1103.6404, 0.0, 10.000448, 9.99906 
1.0250502e+3, 1.8484096e+2, -1089257.0, -1162267.0, -1668.2089, -0.037433382, 0.03746507, -1089218.9, 39344.51, 0.0, 10.000487, 9.999519 
1.02505006e+3, 1.9484024e+2, -1009239.7, -1069028.5, -22984.848, -0.055605564, 0.008766277, -1001424.94, 29142.916, 0.0, 10.000348, 9.999554 
1.0250503e+3, 2.0483945e+2, -963684.25, -1089512.1, -21655.566, -0.035312403, 0.014752035, -960061.5, -27486.357, 0.0, 10.00039, 9.99872 
1.025051e+3, 2.1483855e+2, -830083.2, -973246.6, -11946.758, 0.027120307, 0.050013807, -829093.1, 5492.365, 0.0, 10.000629, 9.99873 
1.0250514e+3, 2.2483745e+2, -719171.9, -841123.94, 13281.975, 0.02771942, 0.055647563, -717742.06, 18854.313, 0.0, 10.0006, 9.998978 
1.02505155e+3, 2.3483613e+2, -664828.75, -760580.44, 5487.385, -0.03845959, 0.020940216, -664515.3, -25907.295, 0.0, 10.000285, 9.999009 
1.02505215e+3, 2.4483483e+2, -579124.8, -694906.75, -2174.1082, -0.03385326, 0.0011308583, -579084.0, -38463.96, 0.0, 10.000314, 9.998774 
1.0250535e+3, 2.548335e+2, -423363.97, -566770.25, 10007.439, 0.04581456, -0.013087441, -422668.97, 19963.709, 0.0, 10.0007, 9.998795 
1.0250542e+3, 2.6483238e+2, -312838.6, -459943.72, 25764.398, 0.05280623, -0.005986125, -308456.66, 36186.563, 0.0, 10.000775, 9.998818 
1.0250543e+3, 2.7483144e+2, -250323.31, -375186.63, 10900.202, -0.017502835, 0.017092122, -249378.89, -2727.6482, 0.0, 10.000516, 9.998851 
1.0250552e+3, 2.8483015e+2, -185764.95, -320770.03, -4363.9873, -0.014134568, 0.012955199, -185624.05, -36960.555, 0.0, 10.000402, 9.998609 
1.0250566e+3, 2.9482836e+2, -80755.47, -217264.36, -9551.165, 0.06741011, -0.030550266, -80090.44, -29409.99, 0.0, 10.00044, 9.998629 
1.0250577e+3, 3.0482703e+2, 5156.592, -87823.76, 2428.741, 0.09342261, -0.054999784, 5219.9897, 5219.9897, 0.0, 10.000425, 9.999189 
1.0250583e+3, 3.1482673e+2, -2475.0916, -82910.38, 2759.3367, 0.059987746, -0.010542161, -2380.5435, -2380.5435, 0.0, 10.000332, 9.999269 
1.03505075e+3, 1.24846e+2, -1787740.8, -1765657.8, 344.13876, 0.050256833, 0.11605293, -1765652.4, -49139.81, 0.00027553758, 9.999571, 9.999856 
1.03505045e+3, 1.3484415e+2, -1617474.5, -1682178.1, 33529.242, -0.054982662, -0.014499171, -1603233.9, 15296.207, 0.000106410545, 10.000275, 9.99942 
1.03505164e+3, 1.4484379e+2, -1479866.0, -1562766.8, -1602.2156, 0.031207794, 0.008263107, -1479835.1, 40698.484, 0.000017580353, 10.000536, 9.999439 
1.0350511e+3, 1.5484385e+2, -1418807.6, -1477837.0, 2668.0957, -0.009196806, 0.065781616, -1418687.3, 3845.7632, 0.00000023822265, 10.000264, 9.999479 
1.03505075e+3, 1.6484319e+2, -1355442.6, -1443986.5, 8985.989, -0.042386103, 0.07161349, -1354539.9, -29999.934, 0.0, 10.00023, 9.999056 
1.0350507e+3, 1.7484169e+2, -1224190.4, -1327440.4, 9979.825, -0.048275568, 0.012692183, -1223234.6, 3320.1597, 0.0, 10.000447, 9.999078 
1.03505075e+3, 1.8484068e+2, -1127719.1, -1241653.0, -8088.9663, -0.034331344, 0.010841655, -1127147.8, 1417.1943, 0.0, 10.000484, 9.998976 
1.0350509e+3, 1.9484022e+2, -1048088.56, -1149206.9, -28718.482, -0.005688954, 0.062379852, -1040501.5, -9931.793, 0.0, 10.000345, 9.999004 
1.0350509e+3, 2.0483924e+2, -946029.3, -1052181.1, -14346.897, -0.013149812, 0.065657236, -944124.44, -11545.428, 0.0, 10.000386, 9.998979 
1.03505075e+3, 2.1483767e+2, -811119.9, -933439.44, -3330.2598, -0.056719895, 0.006159818, -811029.25, 23564.047, 0.0, 10.000627, 9.999004 
1.0350513e+3, 2.2483651e+2, -732698.7, -868843.25, 310.2867, -0.045669805, 0.00022352464, -732698.0, 3906.4502, 0.0, 10.000597, 9.998789 
1.0350524e+3, 2.348358e+2, -678738.9, -789659.06, -6192.786, 0.023465693, 0.044953384, -678394.2, -39782.21, 0.0, 10.000284, 9.998811 
1.0350532e+3, 2.448347e+2, -555859.7, -645647.8, 11658.361, 0.043218367, 0.040421866, -554370.6, -13749.046, 0.0, 10.000309, 9.999114 
1.0350538e+3, 2.548332e+2, -398553.3, -515653.22, 25498.564, 0.011410751, -0.026929304, -393241.9, 49391.598, 0.0, 10.0007, 9.9991455 
1.0350545e+3, 2.6483187e+2, -338605.38, -513473.72, 16399.451, 0.0017976256, -0.038208865, -337080.72, 7564.807, 0.0, 10.000774, 9.998451 
1.03505515e+3, 2.7483076e+2, -278303.22, -431241.25, 2031.8966, 0.015035471, 0.0005612419, -278276.22, -31618.559, 0.0, 10.000505, 9.998472 
1.0350559e+3, 2.8482935e+2, -195160.16, -337497.9, -2728.1829, 0.025518296, 0.010249466, -195107.88, -46435.8, 0.0, 10.00039, 9.9985 
1.0350568e+3, 2.948276e+2, -86705.2, -230347.2, -5185.3364, 0.035097852, -0.018105177, -86518.26, -35829.652, 0.0, 10.0004425, 9.998537 
1.035058e+3, 3.0482632e+2, 15901.959, -67920.625, 652.25385, 0.06813771, -0.037014116, 15907.034, 15907.034, 0.0, 10.000434, 9.999323 
1.0350593e+3, 3.1482595e+2, 3630.4924, -67131.1, 2520.216, 0.121555604, -0.011169476, 3720.138, 3720.138, 0.0, 10.000318, 9.999385 
1.0450508e+3, 1.2484554e+2, -1712694.1, -1728948.4, -33215.75, 0.06853514, 0.093140505, -1686625.6, 29891.373, 0.0003338259, 10.000081, 9.999863 
1.0450508e+3, 1.3484406e+2, -1617534.1, -1681204.0, 27352.379, -0.04834761, -0.0008521632, -1607397.5, 11133.6455, 0.00013404706, 10.000269, 9.99943 
1.045052e+3, 1.4484379e+2, -1490564.6, -1574498.4, -19423.744, 0.022907287, 0.03127782, -1486287.6, 34246.527, 0.000024406929, 10.000493, 9.999378 
1.0450514e+3, 1.5484358e+2, -1361251.3, -1457744.3, -31133.283, -0.02172267, 0.06785098, -1352078.1, 70458.29, 0.0000004785213, 10.00069, 9.999413 
1.04505114e+3, 1.6484284e+2, -1288205.5, -1402761.0, -28047.553, -0.04949646, 0.06793117, -1281707.1, 42836.414, 0.0, 10.000653, 9.999134 
1.04505114e+3, 1.7484157e+2, -1226980.6, -1319051.4, -23547.3, -0.039638896, 0.021064386, -1221307.8, 5247.704, 0.0, 10.000387, 9.999164 
1.0450513e+3, 1.8484052e+2, -1165405.5, -1284870.3, -24846.43, -0.019239092, 0.021017589, -1160444.0, -31877.861, 0.0, 10.000337, 9.99875 
1.0450514e+3, 1.9483973e+2, -1038486.4, -1170493.1, -22495.078, 0.004211934, 0.063393734, -1034758.25, -4183.118, 0.0, 10.000524, 9.998772 
1.0450513e+3, 2.048386e+2, -915758.3, -1030478.9, -492.7997, -0.015105828, 0.06134301, -915756.2, 16829.764, 0.0, 10.000565, 9.999041 
1.04505114e+3, 2.1483712e+2, -830982.5, -935208.4, -6010.1475, -0.07805246, 0.002552357, -830637.06, 3961.6182, 0.0, 10.000459, 9.999072 
1.0450517e+3, 2.2483593e+2, -755023.6, -885020.8, -10153.9795, -0.062905386, -0.005583667, -754235.3, -17625.836, 0.0, 10.000467, 9.99874 
1.045053e+3, 2.348351e+2, -636615.2, -775020.0, -7674.2495, 0.034714453, 0.032046296, -636191.0, 2427.219, 0.0, 10.000598, 9.998759 
1.0450538e+3, 2.4483399e+2, -521506.7, -639378.8, 8235.272, 0.05682444, 0.032913655, -520934.1, 19694.063, 0.0, 10.000588, 9.999022 
1.0450542e+3, 2.548326e+2, -444666.94, -547360.44, -12080.381, -0.0012178738, -0.0134292785, -443265.0, -625.7018, 0.0, 10.000426, 9.999058 
1.0450548e+3, 2.6483124e+2, -401547.75, -542499.25, -32971.484, -0.011802488, -0.024015801, -394216.34, -49564.637, 0.0, 10.000338, 9.998462 
1.0450557e+3, 2.748299e+2, -302891.1, -441901.0, -18988.262, 0.027370851, -0.008565823, -300344.06, -53678.234, 0.0, 10.000331, 9.998483 
1.0450565e+3, 2.8482842e+2, -192197.83, -338419.66, 4705.0845, 0.039044112, -0.0036534108, -192046.6, -43365.902, 0.0, 10.00042, 9.998478 
1.0450571e+3, 2.9482684e+2, -67505.57, -223000.7, 4582.768, 0.024622701, -0.015615995, -67370.625, -16674.725, 0.0, 10.000584, 9.998519 
1.0450584e+3, 3.0482563e+2, 27033.889, -67388.8, -4210.184, 0.05752224, -0.02559827, 27221.244, 27221.244, 0.0, 10.000532, 9.999279 
1.0450597e+3, 3.1482518e+2, -7065.913, -78351.62, -15798.053, 0.13543287, -0.0043311794, -3721.6987, -3721.6987, 0.0, 10.000271, 9.99933 
1.0550508e+3, 1.24843806e+2, -1694098.8, -1689386.8, -34874.047, 0.059127606, -0.00756653, -1656789.1, 59744.098, 0.00039971265, 10.000075, 10.000137 
1.05505094e+3, 1.3484377e+2, -1598296.6, -1641732.1, 36197.246, -0.05385234, 0.015515284, -1577801.9, 40731.492, 0.00016604259, 10.000271, 9.999701 
1.05505235e+3, 1.448437e+2, -1505647.9, -1606945.6, -12020.235, 0.0025878353, 0.068990044, -1504241.0, 16293.485, 0.000032768716, 10.000497, 9.999154 
1.0550519e+3, 1.5484248e+2, -1379160.5, -1493384.5, -23353.416, -0.047108985, 0.025723085, -1374570.3, 47977.8, 0.0000008393984, 10.000684, 9.999171 
1.0550516e+3, 1.6484171e+2, -1280186.9, -1385291.6, -38783.8, -0.05804126, 0.027740125, -1267425.1, 57130.816, 0.0, 10.000649, 9.999257 
1.0550519e+3, 1.7484143e+2, -1217276.6, -1299185.1, -33677.71, -0.007931886, 0.06841623, -1205207.9, 21349.715, 0.0, 10.000388, 9.9993 
1.0550519e+3, 1.8484047e+2, -1159156.5, -1272622.9, -19375.871, 0.0051066987, 0.066466704, -1155939.1, -27372.4, 0.0, 10.000339, 9.998834 
1.0550516e+3, 1.9483879e+2, -1032697.56, -1158564.0, -15819.429, -0.027614526, 0.0106566185, -1030739.75, -155.97952, 0.0, 10.000524, 9.998855 
1.0550516e+3, 2.0483759e+2, -925627.0, -1050605.8, -5767.104, -0.044265255, 0.0031920737, -925361.44, 7233.9326, 0.0, 10.000563, 9.998903 
1.0550519e+3, 2.148369e+2, -841309.5, -956139.4, -10248.78, -0.04087217, 0.03901002, -840401.94, -5800.891, 0.0, 10.000456, 9.998931 
1.0550525e+3, 2.2483574e+2, -749627.1, -873185.3, -6632.8984, -0.028456721, 0.03629489, -749272.06, -12660.889, 0.0, 10.0004635, 9.998824 
1.0550531e+3, 2.3483407e+2, -630046.4, -761976.4, -2719.6033, -0.0060313046, -0.017762944, -629990.4, 8635.899, 0.0, 10.000599, 9.998849 
1.0550539e+3, 2.4483274e+2, -558082.8, -715217.6, 1814.718, 0.0054057473, -0.018730834, -558061.9, -17422.79, 0.0, 10.000587, 9.998503 
1.0550547e+3, 2.5483176e+2, -482367.06, -624783.25, -17394.633, 0.0050625894, 0.027706558, -480273.28, -37623.734, 0.0, 10.000422, 9.998529 
1.0550554e+3, 2.6483047e+2, -375021.03, -486040.7, -33203.863, 0.008434135, 0.032872137, -365848.28, -21186.563, 0.0, 10.000331, 9.998853 
1.0550559e+3, 2.748289e+2, -273722.44, -382179.97, -17502.816, 0.01477888, -0.014016607, -270967.8, -24292.285, 0.0, 10.000334, 9.998892 
1.05505675e+3, 2.8482747e+2, -189978.28, -334077.4, 11665.121, 0.021973351, -0.028889509, -189040.08, -40351.14, 0.0, 10.000421, 9.998508 
1.0550579e+3, 2.9482615e+2, -68133.95, -221439.5, 12357.012, 0.032920994, -0.01760714, -67144.32, -16442.57, 0.0, 10.00057, 9.998536 
1.0550588e+3, 3.0482495e+2, 11309.15, -97005.53, -13801.148, 0.05858129, -0.016579743, 13039.995, 13039.995, 0.0, 10.000519, 9.999083 
1.0550596e+3, 3.1482434e+2, -18900.752, -104661.88, -22057.332, 0.09199391, 0.0077975444, -13560.277, -13560.277, 0.0, 10.000278, 9.9991455 
1.0650508e+3, 1.2484286e+2, -1674913.0, -1674722.1, -19121.57, 0.04941788, -0.04361681, -1655695.8, 60846.105, 0.00047318285, 10.000189, 10.000182 
1.06505126e+3, 1.3484326e+2, -1573985.9, -1625194.0, 41907.313, -0.05055136, 0.018586945, -1550479.9, 68057.914, 0.00020250746, 10.000416, 9.999745 
1.0650528e+3, 1.4484328e+2, -1502997.5, -1610051.0, -12692.198, 0.0008820204, 0.07939761, -1501513.4, 19025.104, 0.000042863663, 10.000534, 9.999115 
1.0650524e+3, 1.548418e+2, -1415190.6, -1514878.8, -11861.675, -0.049685635, 0.014363195, -1413798.6, 8756.25, 0.0000013547858, 10.000457, 9.999131 
1.0650522e+3, 1.6484094e+2, -1298960.4, -1391926.8, -24692.68, -0.061632894, 0.010664981, -1292808.8, 31754.654, 0.0, 10.000513, 9.999274 
1.0650524e+3, 1.748408e+2, -1165463.3, -1272034.1, -28978.066, -0.012859006, 0.061905343, -1158093.4, 68470.17, 0.0, 10.000735, 9.999318 
1.0650524e+3, 1.8483992e+2, -1095376.9, -1241935.1, -19532.143, 0.0012686894, 0.066539265, -1092818.5, 35753.527, 0.0, 10.000777, 9.998832 
1.06505215e+3, 1.9483827e+2, -1015384.25, -1150270.8, -23354.604, -0.029365448, 0.014718605, -1011455.06, 19133.965, 0.0, 10.000644, 9.998853 
1.0650522e+3, 2.0483707e+2, -928400.2, -1059123.6, -16099.35, -0.03867706, 0.010373916, -926446.7, 6154.002, 0.0, 10.000575, 9.998839 
1.0650526e+3, 2.1483633e+2, -827835.06, -956893.3, -16247.596, -0.022785965, 0.04797496, -825821.0, 8785.659, 0.0, 10.000579, 9.998866 
1.0650531e+3, 2.2483507e+2, -734601.25, -871038.9, -8489.305, -0.018368065, 0.04107807, -734075.06, 2542.5425, 0.0, 10.000588, 9.998778 
1.0650536e+3, 2.3483327e+2, -631644.6, -767188.9, -15618.818, -0.02670327, -0.022081, -629868.2, 8765.598, 0.0, 10.000609, 9.998808 
1.0650542e+3, 2.4483182e+2, -579328.75, -733918.4, -10530.115, -0.013706406, -0.028685592, -578614.8, -37967.168, 0.0, 10.00048, 9.9984255 
1.0650552e+3, 2.5483072e+2, -520856.34, -652031.8, 2185.4897, 0.021954358, 0.01378878, -520819.94, -78160.72, 0.0, 10.000195, 9.998452 
1.0650559e+3, 2.648294e+2, -396041.5, -497474.97, 2927.0486, 0.03192464, 0.020254483, -395957.1, -51285.26, 0.0, 10.000191, 9.998842 
1.06505625e+3, 2.7482793e+2, -255549.89, -373805.22, -13845.405, 0.014703073, -0.0176001, -253950.5, -7265.3687, 0.0, 10.000462, 9.998887 
1.06505714e+3, 2.8482658e+2, -185916.72, -321683.0, -7070.8887, 0.0152959665, -0.029094655, -185549.45, -36851.85, 0.0, 10.000404, 9.9986 
1.06505826e+3, 2.948253e+2, -140765.77, -245974.81, -1693.5928, 0.036017653, -0.02252071, -140738.5, -90029.19, 0.0, 10.000027, 9.998628 
1.0650591e+3, 3.04824e+2, -49809.71, -132001.83, -7788.653, 0.054701477, -0.030413436, -49078.16, -49078.16, 0.0, 10.000123, 9.999031 
1.0650598e+3, 3.148234e+2, 31971.178, -85969.76, -10361.57, 0.067373, -0.0027159455, 32874.563, 32874.563, 0.0, 10.000654, 9.999092 
1.07505076e+3, 1.2484281e+2, -1689114.5, -1704246.6, -20294.854, 0.026826331, -0.015282195, -1675021.3, 41520.8, 0.00055371417, 10.00019, 9.999978 
1.0750519e+3, 1.3484263e+2, -1588471.8, -1653101.1, 52181.836, -0.042850237, 0.009695659, -1559409.0, 59134.664, 0.00024334127, 10.000406, 9.9995575 
1.07505344e+3, 1.4484258e+2, -1494214.5, -1590366.9, -15134.626, 0.011155632, 0.064902365, -1491888.6, 28656.467, 0.00005483326, 10.000527, 9.999253 
1.0750531e+3, 1.5484159e+2, -1404242.8, -1492977.6, -14499.056, -0.031971995, 0.033764724, -1401933.6, 20622.502, 0.000002073113, 10.00046, 9.999281 
1.0750528e+3, 1.6484062e+2, -1303912.4, -1403603.9, -17815.795, -0.06275434, 0.015217276, -1300824.1, 23741.438, 0.0000000000166348, 10.000519, 9.999192 
1.0750528e+3, 1.7483974e+2, -1172346.8, -1285661.9, -20593.764, -0.056381915, 0.0016551776, -1168720.1, 57852.832, 0.0, 10.000731, 9.999227 
1.07505284e+3, 1.8483892e+2, -1102650.6, -1256123.4, -25690.928, -0.03501408, 0.023542644, -1098464.3, 30117.027, 0.0, 10.000772, 9.998737 
1.0750531e+3, 1.9483823e+2, -1022567.44, -1164527.1, -28708.11, -0.0042891377, 0.0758076, -1016981.7, 13608.587, 0.0, 10.000641, 9.998756 
1.0750531e+3, 2.0483708e+2, -928371.0, -1058980.3, -17463.14, -0.0017553272, 0.08169158, -926076.4, 6525.1157, 0.0, 10.000573, 9.998841 
1.0750532e+3, 2.1483545e+2, -827397.5, -956223.4, -16584.29, -0.02594224, 0.02882502, -825296.8, 9318.428, 0.0, 10.000579, 9.998871 
1.07505344e+3, 2.2483398e+2, -746350.4, -895609.44, -9134.165, -0.035161644, 0.009984892, -745793.44, -9165.302, 0.0, 10.000588, 9.9986105 
1.0750541e+3, 2.3483273e+2, -643960.8, -792564.3, -14532.062, -0.02971294, 0.018610006, -642553.0, -3912.769, 0.0, 10.000607, 9.998635 
1.0750548e+3, 2.4483125e+2, -554761.6, -682686.2, -21522.467, -0.003603094, 0.00061345304, -551237.7, -10584.187, 0.0, 10.000478, 9.998778 
1.0750557e+3, 2.5482953e+2, -495027.13, -599371.6, -7840.413, 0.045136694, -0.05526308, -494441.28, -51773.25, 0.0, 10.000198, 9.998812 
1.0750563e+3, 2.648281e+2, -424656.94, -557272.56, 13269.67, 0.05521653, -0.059651498, -423342.2, -78660.516, 0.0, 10.000192, 9.998432 
1.0750569e+3, 2.74827e+2, -285920.03, -435732.53, -2345.0798, 0.02431483, -0.018103456, -285883.34, -39189.11, 0.0, 10.000455, 9.998466 
1.07505746e+3, 2.848257e+2, -175871.83, -298849.3, -21266.195, 0.015856119, -0.0055661155, -172298.16, -23591.643, 0.0, 10.000396, 9.998762 
1.0750581e+3, 2.9482427e+2, -127507.05, -219554.69, -13693.36, 0.028474668, -0.033371817, -125513.16, -74794.71, 0.0, 10.0000305, 9.998808 
1.0750592e+3, 3.0482286e+2, -45186.52, -122954.016, 13591.188, 0.041754704, -0.06832936, -42879.66, -42879.66, 0.0, 10.000125, 9.999094 
1.07506044e+3, 3.1482238e+2, 34627.816, -77975.625, 12496.346, 0.055404093, -0.029086007, 35997.945, 35997.945, 0.0, 10.000642, 9.999154 
1.08505115e+3, 1.2484276e+2, -1595761.6, -1674964.1, -40580.566, 0.01660268, 0.030201677, -1578661.5, 137881.47, 0.00064071716, 10.0009, 9.999837 
1.0850523e+3, 1.3484196e+2, -1582061.3, -1663239.8, 45048.65, -0.04353115, 0.0039703804, -1562013.3, 56537.516, 0.00028839763, 10.00051, 9.999437 
1.0850538e+3, 1.4484175e+2, -1499762.0, -1582934.3, -12910.755, 0.0038770083, 0.04586362, -1497803.9, 22749.3, 0.00006873226, 10.000449, 9.999341 
1.0850537e+3, 1.5484113e+2, -1368193.5, -1465915.3, -19886.174, -0.026599644, 0.042533502, -1364301.6, 58258.465, 0.0000030594845, 10.000667, 9.999366 
1.08505346e+3, 1.6484019e+2, -1275645.1, -1397677.9, -24227.953, -0.05334505, 0.02681943, -1271011.0, 53558.105, 0.000000000186287, 10.000746, 9.999124 
1.08505346e+3, 1.74839e+2, -1184526.0, -1299142.9, -26777.963, -0.051445123, -0.00964859, -1178578.4, 48001.594, 0.0, 10.000684, 9.999156 
1.0850536e+3, 1.848382e+2, -1118394.0, -1255508.0, -29722.768, -0.03350607, 0.012846991, -1112228.3, 16360.073, 0.0, 10.00063, 9.998809 
1.0850536e+3, 1.9483782e+2, -1022931.2, -1156254.3, -21045.535, -0.0075544636, 0.089566305, -1019688.0, 10905.713, 0.0, 10.000602, 9.998832 
1.0850537e+3, 2.0483662e+2, -926325.44, -1067463.3, -355.72513, -0.00870774, 0.089815386, -926324.56, 6280.701, 0.0, 10.000628, 9.998756 
1.0850537e+3, 2.1483454e+2, -812366.3, -958711.6, -7154.5947, -0.036255855, 0.00024057165, -812017.3, 22605.932, 0.0, 10.000725, 9.998783 
1.08505405e+3, 2.2483301e+2, -738784.7, -900235.06, -4348.244, -0.039189775, -0.017400887, -738667.7, -2030.4117, 0.0, 10.000677, 9.998535 
1.0850548e+3, 2.348321e+2, -667433.9, -812314.06, -4743.6504, -0.017654832, 0.032460846, -667278.75, -28631.748, 0.0, 10.000482, 9.99856 
1.0850554e+3, 2.4483068e+2, -546881.56, -670053.4, -15263.177, 0.008311053, 0.02190439, -545018.4, -4358.843, 0.0, 10.000493, 9.998858 
1.0850561e+3, 2.5482875e+2, -413553.28, -550461.25, -22977.352, 0.03988144, -0.061714638, -409799.9, 32875.168, 0.0, 10.000716, 9.9988985 
1.08505666e+3, 2.6482728e+2, -371974.4, -543458.4, -3045.5964, 0.047851346, -0.07271191, -371920.34, -27231.037, 0.0, 10.000605, 9.998327 
1.08505726e+3, 2.748262e+2, -337606.16, -473120.78, 3465.1733, 0.030081082, -0.016088037, -337517.63, -90815.41, 0.0, 10.0001545, 9.998354 
1.08505785e+3, 2.848249e+2, -215598.4, -309825.94, -3669.8955, 0.022796998, -0.0007942251, -215455.69, -66741.16, 0.0, 10.000087, 9.998835 
1.0850584e+3, 2.948235e+2, -70776.7, -183968.77, -5768.369, 0.027119232, -0.036788102, -70483.5, -19757.578, 0.0, 10.000385, 9.998882 
1.0850592e+3, 3.0482203e+2, -23420.504, -100988.8, 19225.662, 0.03469058, -0.08602646, -18916.82, -18916.82, 0.0, 10.000225, 9.999196 
1.0850604e+3, 3.1482172e+2, -105367.46, -131936.95, 19318.32, 0.044341758, -0.03836738, -95206.914, -95206.914, 0.0, 9.999623, 9.999272 
1.095052e+3, 1.2484281e+2, -1602337.4, -1684932.5, -64677.73, 0.0073938053, 0.091104165, -1566897.0, 149647.3, 0.000734217, 10.000885, 9.999775 
1.0950526e+3, 1.3484132e+2, -1585001.6, -1670692.8, 32498.34, -0.055509217, 0.0023370413, -1574071.0, 44487.25, 0.00033773432, 10.000515, 9.999385 
1.0950541e+3, 1.448409e+2, -1496681.0, -1577593.8, -4922.4263, -0.02436181, 0.022741362, -1496382.6, 24179.475, 0.0000845864, 10.000454, 9.999374 
1.0950542e+3, 1.5484048e+2, -1367731.9, -1463770.6, -11106.076, -0.03675353, 0.04050725, -1366464.3, 56101.715, 0.0000043925156, 10.000661, 9.999383 
1.0950543e+3, 1.6483976e+2, -1280548.5, -1406857.9, -27268.404, -0.038685475, 0.0457797, -1274913.1, 49660.152, 0.0000000006358386, 10.000741, 9.9990635 
1.0950547e+3, 1.7483868e+2, -1188963.0, -1308335.9, -29115.307, -0.0017935988, 0.02783836, -1182240.3, 44343.715, 0.0, 10.000683, 9.999094 
1.0950546e+3, 1.848378e+2, -1102079.4, -1221398.4, -32257.361, 0.0010724822, 0.033369236, -1093917.1, 34675.523, 0.0, 10.000629, 9.999044 
1.0950539e+3, 1.9483712e+2, -1006083.25, -1121111.6, -22701.29, -0.04046349, 0.05609232, -1001765.1, 28833.758, 0.0, 10.000601, 9.999074 
1.09505385e+3, 2.0483576e+2, -938279.56, -1092308.5, 1579.7634, -0.06122216, 0.036405746, -938263.4, -5652.038, 0.0, 10.0006275, 9.998587 
1.0950543e+3, 2.1483365e+2, -825406.6, -985213.3, -3659.5352, -0.056329645, -0.03679005, -825322.8, 9307.41, 0.0, 10.000721, 9.998604 
1.0950548e+3, 2.2483218e+2, -738699.5, -899763.3, -12832.676, -0.0338385, -0.040691253, -737683.44, -1039.009, 0.0, 10.000674, 9.99854 
1.0950556e+3, 2.3483138e+2, -666801.5, -811164.44, -12099.171, 0.006618729, 0.019548371, -665794.44, -27140.834, 0.0, 10.000482, 9.998568 
1.095056e+3, 2.4483015e+2, -559649.5, -696883.94, -7406.804, 0.019615108, 0.035135865, -559250.9, -18585.445, 0.0, 10.000493, 9.998675 
1.0950564e+3, 2.5482845e+2, -427034.66, -577254.06, -13768.885, 0.0040911636, -0.006855146, -425783.06, 16896.89, 0.0, 10.0007105, 9.998718 
1.0950569e+3, 2.6482692e+2, -359493.4, -516176.72, -19762.967, 0.0076174946, -0.020598553, -357039.1, -12344.682, 0.0, 10.000598, 9.998518 
1.09505735e+3, 2.748256e+2, -323615.5, -444446.72, -12008.71, 0.028628146, -0.011847256, -322433.6, -75724.87, 0.0, 10.000155, 9.998549 
1.09505795e+3, 2.8482422e+2, -217527.08, -314199.8, 8254.717, 0.033889133, -0.013555006, -216827.28, -68106.05, 0.0, 10.000087, 9.998805 
1.0950587e+3, 2.948229e+2, -74018.65, -189258.44, 7440.7817, 0.027093196, -0.03414226, -73540.195, -22808.57, 0.0, 10.000378, 9.99885 
1.09505944e+3, 3.0482143e+2, -15854.647, -82796.87, -3861.056, 0.027372954, -0.08618311, -15632.6875, -15632.6875, 0.0, 10.000214, 9.999327 
1.0950598e+3, 3.1482142e+2, -92581.17, -105495.65, -393.5795, 0.02642419, -0.028725121, -92569.19, -92569.19, 0.0, 9.999623, 9.9994545 
1.10505246e+3, 1.2484222e+2, -1703855.1, -1740187.6, -61433.258, -0.0001444051, 0.08656283, -1657958.5, 58591.418, 0.00083503575, 10.000215, 9.999719 
1.1050535e+3, 1.3484074e+2, -1536983.1, -1651635.0, 43970.67, -0.04248626, 0.0022439836, -1522061.6, 96502.516, 0.0003918232, 10.000858, 9.9993515 
1.10505484e+3, 1.4484031e+2, -1403062.9, -1529229.9, 726.8942, -0.022626078, 0.021978771, -1403058.8, 117509.28, 0.000102570426, 10.001081, 9.999405 
1.1050551e+3, 1.5483987e+2, -1355528.9, -1454213.0, -7537.3647, -0.030826796, 0.033220552, -1354956.5, 67614.99, 0.0000061708192, 10.000731, 9.999414 
1.1050551e+3, 1.6483916e+2, -1313130.8, -1424279.4, -18620.445, -0.026465608, 0.039294127, -1310094.3, 14484.17, 0.0000000015512864, 10.000527, 9.999044 
1.1050554e+3, 1.7483816e+2, -1214640.3, -1322781.1, -18544.604, 0.016522137, 0.029485302, -1211548.5, 15040.432, 0.0, 10.000517, 9.999074 
1.1050553e+3, 1.8483719e+2, -1101709.8, -1221045.0, -21672.883, 0.013089318, 0.0279677, -1097895.6, 30702.617, 0.0, 10.000631, 9.999045 
1.10505454e+3, 1.9483629e+2, -964614.5, -1100665.6, -30558.502, -0.049027875, 0.028273296, -958065.94, 72540.22, 0.0, 10.000884, 9.999077 
1.1050545e+3, 2.0483497e+2, -897145.4, -1070607.8, -14515.041, -0.06947746, 0.011793728, -895939.1, 36679.035, 0.0, 10.000903, 9.998603 
1.1050551e+3, 2.1483316e+2, -831004.44, -985858.94, -7201.27, -0.042980902, -0.031711325, -830670.3, 3964.4036, 0.0, 10.000675, 9.998621 
1.10505566e+3, 2.2483175e+2, -742612.6, -899421.56, -5339.6094, -0.018001525, -0.032762904, -742431.06, -5782.583, 0.0, 10.000639, 9.99856 
1.1050562e+3, 2.3483069e+2, -617888.0, -785464.1, -4325.784, 0.004324835, 0.0016156086, -617776.4, 20882.957, 0.0, 10.000809, 9.998587 
1.10505655e+3, 2.4482943e+2, -537711.7, -702917.0, 500.08142, 0.012519592, 0.021386698, -537710.2, 2961.681, 0.0, 10.000716, 9.998526 
1.10505685e+3, 2.5482795e+2, -489369.4, -624797.75, -5627.236, 0.0052945516, 0.015898509, -489135.97, -46449.992, 0.0, 10.000358, 9.998562 
1.1050572e+3, 2.6482648e+2, -394812.53, -525307.75, -14902.647, 0.0032150699, 0.0102291005, -393132.28, -48431.727, 0.0, 10.000321, 9.998589 
1.1050575e+3, 2.7482498e+2, -251976.44, -401544.16, -17340.129, 0.0058261133, -0.0021181742, -249992.42, -3277.1543, 0.0, 10.000612, 9.998625 
1.1050581e+3, 2.8482363e+2, -161643.66, -291378.94, -2909.9524, 0.016238457, -0.006890821, -161578.42, -12850.701, 0.0, 10.00049, 9.998768 
1.10505894e+3, 2.948224e+2, -139224.02, -225611.39, -5781.528, 0.037631713, -0.013254576, -138838.8, -88101.055, 0.0, 9.999952, 9.998805 
1.1050595e+3, 3.0482087e+2, -70433.484, -105767.445, -20697.746, 0.038906764, -0.072077766, -60887.99, -60887.99, 0.0, 9.999825, 9.999356 
1.1050595e+3, 3.1482098e+2, -17495.338, -61075.723, -29596.37, 0.014195382, -0.0030679384, -2532.877, -2532.877, 0.0, 10.000103, 9.999529 
1.1150526e+3, 1.24841034e+2, -1707875.0, -1748451.4, -46953.55, -0.013904977, 0.012295711, -1677014.0, 39545.434, 0.000944546, 10.000216, 9.999661 
1.1150547e+3, 1.3484028e+2, -1539539.5, -1656078.5, 70784.44, -0.009125659, 0.0028164715, -1506126.0, 112442.01, 0.00045159098, 10.000854, 9.999324 
1.1150561e+3, 1.4484006e+2, -1401286.8, -1523931.3, -11581.2295, 0.0040829843, 0.042274784, -1400202.8, 120367.59, 0.00012308804, 10.001074, 9.999445 
1.1150559e+3, 1.5483934e+2, -1352395.6, -1447850.1, -20649.168, -0.013380505, 0.02183905, -1348120.3, 74455.7, 0.000008505592, 10.000731, 9.999458 
1.1150557e+3, 1.6483845e+2, -1311784.0, -1421820.6, -20749.568, -0.021786513, 0.008463935, -1308001.3, 16582.66, 0.0000000033697685, 10.000529, 9.999062 
1.11505575e+3, 1.7483744e+2, -1213397.9, -1320150.3, -19091.0, 0.002026939, -0.0043632453, -1210086.5, 16507.691, 0.0, 10.000516, 9.999093 
1.11505575e+3, 1.8483642e+2, -1117745.6, -1253949.6, -13661.581, -0.00020190794, -0.002425804, -1116388.9, 12215.503, 0.0, 10.000628, 9.998822 
1.1150555e+3, 1.9483538e+2, -981226.7, -1135005.9, -21231.127, -0.036665823, 0.0066062533, -978349.3, 52265.45, 0.0, 10.000883, 9.998842 
1.1150557e+3, 2.0483425e+2, -884389.4, -1043636.6, -24393.543, -0.03810895, 0.015395333, -880736.56, 51888.797, 0.0, 10.0009, 9.99879 
1.1150561e+3, 2.148331e+2, -817317.1, -957016.9, -16462.004, 0.0010248363, 0.014438321, -815403.5, 19232.824, 0.0, 10.000673, 9.998821 
1.1150565e+3, 2.2483172e+2, -739889.94, -893394.06, -625.4262, 0.0058000535, 0.005363634, -739887.4, -3238.3318, 0.0, 10.000636, 9.998603 
1.11505665e+3, 2.348301e+2, -615605.6, -779833.4, 2283.2795, -0.026163219, -0.020616142, -615573.9, 23089.754, 0.0, 10.000804, 9.998629 
1.115057e+3, 2.4482864e+2, -547345.94, -721955.0, -13154.426, -0.01560967, -0.017412739, -546360.5, -5682.264, 0.0, 10.000711, 9.998398 
1.1150576e+3, 2.5482732e+2, -499031.8, -644912.44, -18195.666, 0.040036123, 0.007370441, -496796.53, -54103.723, 0.0, 10.000358, 9.998424 
1.11505784e+3, 2.6482594e+2, -398483.4, -533101.06, -3891.163, 0.03190696, 0.019487256, -398371.03, -53663.594, 0.0, 10.000322, 9.998534 
1.1150578e+3, 2.7482444e+2, -256582.86, -409106.06, -4993.7944, -0.04271352, 0.010932463, -256419.53, -9697.739, 0.0, 10.000603, 9.998577 
1.11505814e+3, 2.8482315e+2, -165946.03, -298356.66, -22736.865, -0.03573365, 0.017687201, -162150.56, -13416.758, 0.0, 10.000481, 9.998725 
1.1150592e+3, 2.94822e+2, -141278.25, -231322.52, -23508.47, 0.055800244, 0.027874496, -135510.22, -84766.57, 0.0, 9.999957, 9.998764 
1.1150597e+3, 3.0482033e+2, -76269.266, -119131.516, -9424.988, 0.06781242, -0.0407511, -74288.35, -74288.35, 0.0, 9.999829, 9.999262 
1.11505955e+3, 3.148205e+2, -20788.139, -65845.266, -15863.694, -0.0018362576, 0.043631073, -15763.245, -15763.245, 0.0, 10.000093, 9.999501 
1.12505324e+3, 1.248404e+2, -1588940.9, -1700553.0, -37013.06, -0.016840799, -0.023593938, -1577782.1, 138782.03, 0.0010643419, 10.001075, 9.999576 
1.1250554e+3, 1.3483995e+2, -1579997.6, -1681044.9, 86921.82, -0.005389945, 0.0017461609, -1529982.5, 88588.17, 0.00051804923, 10.000601, 9.999274 
1.1250569e+3, 1.4483975e+2, -1483407.0, -1569996.1, -1886.7588, -0.01057871, 0.050004475, -1483365.9, 37207.21, 0.00014661087, 10.00054, 9.999386 
1.12505674e+3, 1.5483882e+2, -1345192.9, -1451901.6, -22586.426, -0.005542405, 0.01602682, -1340609.0, 81971.83, 0.00001150662, 10.000813, 9.9993925 
1.1250565e+3, 1.6483788e+2, -1261105.4, -1399543.3, -28215.426, -0.008730205, -0.00041636673, -1255575.5, 69013.98, 0.0000000061074554, 10.000884, 9.999043 
1.1250564e+3, 1.7483692e+2, -1180240.4, -1306048.5, -29990.729, 0.0003773054, -0.005068919, -1173456.8, 53142.06, 0.0, 10.0007515, 9.999076 
1.1250564e+3, 1.8483587e+2, -1110419.8, -1253023.1, -9476.652, -0.0018752747, -0.0048897224, -1109792.8, 18816.646, 0.0, 10.00069, 9.998797 
1.1250565e+3, 1.9483465e+2, -1007006.25, -1150029.5, -3083.458, -0.024380777, -0.0088450285, -1006939.8, 23681.408, 0.0, 10.000718, 9.998818 
1.12505674e+3, 2.0483361e+2, -898895.9, -1053325.0, -10779.269, -0.022878429, 0.008405987, -898147.06, 34484.56, 0.0, 10.0008135, 9.998765 
1.1250571e+3, 2.1483274e+2, -773734.5, -938786.94, -20121.85, 0.0063816165, 0.039051127, -771316.8, 63323.664, 0.0, 10.000984, 9.9987955 
1.1250573e+3, 2.2483139e+2, -687483.6, -854716.5, -9979.263, 0.004680822, 0.029637635, -686890.25, 49762.543, 0.0, 10.000938, 9.998723 
1.12505734e+3, 2.3482957e+2, -627599.44, -771407.94, -3560.6365, -0.031206282, -0.029694268, -627511.4, 11157.201, 0.0, 10.000662, 9.9987545 
1.12505764e+3, 2.448281e+2, -574465.56, -732598.6, -14832.396, -0.021961266, -0.033943187, -573086.3, -32403.527, 0.0, 10.000517, 9.998418 
1.125058e+3, 2.5482702e+2, -476831.8, -631772.44, -9054.307, 0.035316326, 0.010323979, -476304.5, -33608.918, 0.0, 10.000501, 9.998444 
1.1250582e+3, 2.648256e+2, -376810.38, -520419.72, 25668.184, 0.033504788, 0.023167724, -372360.44, -27650.44, 0.0, 10.0004635, 9.998553 
1.1250584e+3, 2.7482396e+2, -283811.34, -420843.25, 27937.06, -0.030483548, -0.004418445, -278334.66, -31608.783, 0.0, 10.00041, 9.9985895 
1.1250586e+3, 2.8482267e+2, -188188.42, -322129.2, -3325.1865, -0.030354189, 0.007401543, -188105.94, -39367.656, 0.0, 10.000384, 9.998609 
1.1250592e+3, 2.9482177e+2, -88301.31, -219195.0, -12518.365, 0.037246138, 0.05001103, -87114.84, -36367.68, 0.0, 10.00038, 9.998643 
1.1250594e+3, 3.0481988e+2, -20033.521, -102056.1, 9729.464, 0.047502745, -0.02865617, -18895.217, -18895.217, 0.0, 10.00026, 9.999171 
1.1250597e+3, 3.1481978e+2, -31398.518, -70694.09, 2312.661, 0.002169525, 0.042400643, -31262.879, -31262.879, 0.0, 10.000021, 9.999502 
1.1350543e+3, 1.24840364e+2, -1597027.5, -1714613.1, -63007.258, -0.013994546, -0.020105442, -1569643.1, 146920.48, 0.0011953667, 10.001064, 9.999483 
1.1350558e+3, 1.348398e+2, -1583983.9, -1689510.8, 71104.89, -0.035841707, 0.0004346753, -1548204.3, 70367.055, 0.00059164723, 10.000601, 9.999216 
1.1350568e+3, 1.4483948e+2, -1495460.4, -1594786.5, 8552.551, -0.071933456, 0.046598762, -1494729.4, 25846.06, 0.00017336896, 10.000539, 9.999217 
1.1350575e+3, 1.548384e+2, -1357748.9, -1478010.6, -11898.55, -0.010009866, 0.01464996, -1356583.0, 66002.734, 0.000015247707, 10.000813, 9.999213 
1.1350576e+3, 1.6483746e+2, -1265259.0, -1407508.3, -34260.137, 0.0087679075, 0.011271462, -1257437.6, 67157.13, 0.000000009421829, 10.00088, 9.998991 
1.1350573e+3, 1.7483665e+2, -1183745.1, -1313347.1, -35064.805, 0.0074143517, 0.026945842, -1174866.4, 51736.063, 0.0, 10.000751, 9.999026 
1.1350571e+3, 1.8483557e+2, -1098870.4, -1229135.9, -10138.397, 0.0028689804, 0.020169249, -1098086.0, 30526.498, 0.0, 10.00069, 9.998962 
1.13505736e+3, 1.9483422e+2, -994955.0, -1124742.4, -2641.7832, -0.01396752, -0.01805022, -994901.25, 35723.89, 0.0, 10.000716, 9.998994 
1.1350575e+3, 2.0483308e+2, -915517.44, -1086848.3, -5829.619, -0.025946293, -0.008566662, -915319.3, 17317.168, 0.0, 10.000808, 9.998537 
1.1350577e+3, 2.1483216e+2, -790868.4, -973921.5, -13618.9795, -0.029085437, 0.043114346, -789860.7, 44785.887, 0.0, 10.000981, 9.998556 
1.13505796e+3, 2.2483085e+2, -675294.5, -828423.8, -21292.73, -0.024743726, 0.041083917, -672388.9, 64270.09, 0.0, 10.000934, 9.998906 
1.13505825e+3, 2.3482914e+2, -614649.8, -743892.0, -13904.543, -0.013393259, -0.02654424, -613170.8, 25502.945, 0.0, 10.000658, 9.998946 
1.13505825e+3, 2.4482787e+2, -563068.56, -707889.56, -16095.905, -0.009411949, -0.03039761, -561301.2, -20615.648, 0.0, 10.000512, 9.9985895 
1.1350581e+3, 2.5482705e+2, -465187.72, -606445.7, -8757.238, -0.011499413, 0.02409854, -464646.9, -21952.797, 0.0, 10.000496, 9.99862 
1.1350585e+3, 2.6482564e+2, -371094.53, -507565.3, 23944.74, 0.004410616, 0.022907905, -367015.2, -22307.428, 0.0, 10.000458, 9.998645 
1.13505945e+3, 2.7482367e+2, -277057.8, -408122.6, 28026.133, 0.037765775, -0.045354214, -271316.38, -24589.57, 0.0, 10.000415, 9.998675 
1.1350596e+3, 2.848223e+2, -203563.38, -354261.03, -3178.1497, 0.028145973, -0.035864323, -203496.38, -54755.758, 0.0, 10.000385, 9.998387 
1.1350589e+3, 2.948216e+2, -105954.4, -252795.27, -10879.288, -0.02339375, 0.049093112, -105152.74, -54404.098, 0.0, 10.000367, 9.998419 
1.1350589e+3, 3.0481946e+2, -27092.727, -113239.57, 1199.9436, -0.028079506, -0.038844433, -27076.016, -27076.016, 0.0, 10.000244, 9.999103 
1.1350598e+3, 3.1481907e+2, -25607.59, -60511.484, -2517.7974, 0.017600112, 0.0053815655, -25426.904, -25426.904, 0.0, 10.000028, 9.99957 
1.1450549e+3, 1.2484023e+2, -1675150.0, -1751095.0, -74861.25, -0.028992107, -0.013183333, -1629181.4, 87383.62, 0.0013373722, 10.000524, 9.999494 
1.1450565e+3, 1.3483967e+2, -1524611.6, -1655995.5, 71895.19, -0.034357302, 0.004196569, -1492915.9, 125656.18, 0.000672049, 10.000986, 9.999263 
1.1450574e+3, 1.448393e+2, -1426654.1, -1578351.4, 12625.372, -0.09492777, 0.04928084, -1425610.5, 94966.414, 0.0002032588, 10.001081, 9.999068 
1.1450582e+3, 1.5483809e+2, -1389216.9, -1509800.1, -8374.613, -0.015949627, 0.020107508, -1388638.0, 33951.086, 0.000019742625, 10.000669, 9.999064 
1.14505835e+3, 1.6483708e+2, -1309342.4, -1426615.1, -20411.047, 0.013021541, 0.016188243, -1305891.4, 18707.555, 0.000000013934886, 10.000569, 9.99901 
1.1450581e+3, 1.7483626e+2, -1172495.1, -1306026.6, -17023.424, 0.00999127, 0.027786102, -1170359.0, 56247.36, 0.0, 10.000818, 9.999045 
1.145058e+3, 1.8483524e+2, -1063465.5, -1210326.0, 3962.4219, 0.0031375338, 0.024487838, -1063358.8, 65257.207, 0.0, 10.000927, 9.998977 
1.1450581e+3, 1.9483398e+2, -967724.2, -1110086.9, -1416.4363, -0.016477598, -0.0019861797, -967710.1, 62917.375, 0.0, 10.000896, 9.999007 
1.1450582e+3, 2.0483282e+2, -901232.06, -1062108.3, 5684.4897, -0.029117394, -0.004208804, -901031.44, 31607.299, 0.0, 10.00083, 9.998696 
1.1450586e+3, 2.1483171e+2, -817178.56, -968116.44, 25824.18, -0.032065492, 0.011625686, -812882.56, 21767.012, 0.0, 10.000723, 9.99872 
1.1450587e+3, 2.2483046e+2, -726198.56, -864013.56, 16104.721, -0.023752168, 0.0111715095, -724341.6, 12319.997, 0.0, 10.000634, 9.998804 
1.1450589e+3, 2.3482905e+2, -636032.0, -766081.6, 757.2553, -0.005439893, -0.01589591, -636027.56, 2647.408, 0.0, 10.000565, 9.998837 
1.1450589e+3, 2.4482782e+2, -530575.0, -668257.06, -288.80704, -0.0063352813, -0.019293407, -530574.4, 10111.716, 0.0, 10.000632, 9.998803 
1.1450586e+3, 2.548268e+2, -399094.4, -550251.56, 8100.114, -0.02618674, -0.0058118333, -398661.6, 44033.188, 0.0, 10.000845, 9.998838 
1.1450589e+3, 2.6482543e+2, -327601.22, -494349.6, 25790.469, -0.013607079, -0.012888367, -323703.38, 21004.627, 0.0, 10.000789, 9.998577 
1.14505984e+3, 2.748237e+2, -277902.22, -415960.7, 16893.432, 0.031559277, -0.05050056, -275865.13, -29139.014, 0.0, 10.0004425, 9.998608 
1.1450599e+3, 2.8482243e+2, -203338.0, -341668.5, 2256.3464, 0.028047537, -0.028678475, -203301.2, -54562.31, 0.0, 10.000335, 9.998497 
1.1450593e+3, 2.9482177e+2, -85047.914, -231136.22, 18806.844, -0.022584813, 0.047592193, -82665.64, -31919.586, 0.0, 10.000461, 9.998523 
1.1450592e+3, 3.0481946e+2, -17684.525, -124729.055, 30887.094, -0.034225482, -0.05609174, -9411.602, -9411.602, 0.0, 10.000379, 9.99896 
1.14505984e+3, 3.1481907e+2, -15723.505, -54814.13, 15398.418, 0.00014036016, 0.0024161194, -10386.484, -10386.484, 0.0, 10.000094, 9.999576 
1.1550551e+3, 1.2484008e+2, -1670337.5, -1737907.8, -64806.168, -0.06732288, -0.0017856243, -1631038.6, 85528.85, 0.001489488, 10.000511, 9.99959 
1.15505785e+3, 1.3483961e+2, -1515677.1, -1637156.0, 91373.0, -0.00477171, 0.0116129145, -1466697.4, 151875.39, 0.00075867696, 10.000984, 9.999393 
1.1550586e+3, 1.4483923e+2, -1434844.9, -1595333.6, -2308.1208, -0.08366619, 0.05669427, -1434811.6, 85765.56, 0.0002361324, 10.0010805, 9.998953 
1.1550588e+3, 1.5483798e+2, -1397037.1, -1526213.9, -23703.055, -0.0270162, 0.03319321, -1392825.1, 29765.135, 0.000024990082, 10.000669, 9.998953 
1.1550588e+3, 1.6483682e+2, -1303539.9, -1414200.9, -12541.633, -0.0008751077, 0.015598002, -1302136.3, 22465.074, 0.000000023716384, 10.000567, 9.999097 
1.1550588e+3, 1.748358e+2, -1166999.4, -1293662.6, -7729.5415, 0.0056868833, -0.0014785886, -1166529.5, 60080.523, 0.0, 10.000814, 9.999132 
1.1550588e+3, 1.8483488e+2, -1073980.3, -1230925.8, 1758.2279, -0.00450924, 0.008527605, -1073960.5, 54658.25, 0.0, 10.00092, 9.998839 
1.1550588e+3, 1.9483405e+2, -978086.94, -1131270.3, -2643.1843, -0.03480769, 0.038086154, -978041.3, 52586.523, 0.0, 10.000895, 9.998863 
1.1550591e+3, 2.0483291e+2, -864618.5, -985594.3, 197.67767, -0.036224347, 0.020727247, -864618.2, 68019.81, 0.0, 10.000827, 9.999224 
1.15505956e+3, 2.1483146e+2, -779518.44, -889176.1, 21067.44, -0.0050981343, -0.055016335, -775610.25, 59038.945, 0.0, 10.000718, 9.999265 
1.1550597e+3, 2.2483024e+2, -753480.44, -918798.5, 11901.935, 0.0045499275, -0.05982968, -752627.94, -15967.539, 0.0, 10.000627, 9.998432 
1.1550594e+3, 2.3482934e+2, -663688.8, -823159.56, -1544.5629, -0.009523221, 0.0020582834, -663673.9, -25002.074, 0.0, 10.000563, 9.998446 
1.15505934e+3, 2.4482805e+2, -514028.94, -632951.75, 7422.29, -0.0160761, -0.00003673288, -513567.5, 27116.588, 0.0, 10.0006275, 9.999048 
1.15505956e+3, 2.5482637e+2, -381517.03, -513650.3, 16983.686, -0.01350855, -0.07861793, -379368.97, 63328.22, 0.0, 10.000843, 9.999091 
1.15505956e+3, 2.6482502e+2, -344834.25, -529106.5, 12868.975, -0.024383416, -0.08554389, -343939.84, 770.6806, 0.0, 10.000785, 9.99834 
1.1550594e+3, 2.74824e+2, -295962.66, -451463.8, 4786.0156, -0.05071989, -0.023119537, -295815.5, -49091.633, 0.0, 10.000434, 9.998367 
1.1550597e+3, 2.8482318e+2, -171712.25, -273792.16, 7532.988, -0.033281803, 0.02658637, -171159.34, -22426.26, 0.0, 10.000324, 9.998969 
1.1550603e+3, 2.9482242e+2, -50390.043, -160931.17, 26699.047, 0.031107122, 0.04835238, -44279.227, 6459.323, 0.0, 10.000466, 9.999002 
1.15506016e+3, 3.0481997e+2, -37884.94, -167597.63, 20379.994, 0.021653919, -0.07875218, -34758.277, -34758.277, 0.0, 10.000382, 9.998664 
1.15505934e+3, 3.148198e+2, -26235.895, -74203.8, 6918.614, -0.055997897, 0.03415807, -25257.934, -25257.934, 0.0, 10.000084, 9.999449 
1.1650556e+3, 1.2483996e+2, -1597446.5, -1704182.3, -65556.055, -0.088656664, 0.012565322, -1566282.0, 150287.16, 0.0016512593, 10.001019, 9.999577 
1.1650588e+3, 1.3483928e+2, -1585653.9, -1669063.6, 84727.695, 0.021947833, 0.0030140455, -1532923.3, 85652.75, 0.0008513687, 10.000494, 9.999412 
1.16505936e+3, 1.4483888e+2, -1516145.5, -1622898.6, -1538.0197, -0.08325142, 0.040645495, -1516123.4, 4456.7676, 0.00027198074, 10.000472, 9.999057 
1.1650594e+3, 1.5483785e+2, -1355927.4, -1494597.8, -9947.597, -0.033021543, 0.027532896, -1355217.4, 67373.28, 0.00003101119, 10.000898, 9.999059 
1.1650594e+3, 1.6483672e+2, -1250060.9, -1393512.1, 4142.8247, -0.009881883, 0.010292751, -1249941.3, 74659.95, 0.00000004774233, 10.000957, 9.999051 
1.1650594e+3, 1.7483555e+2, -1194501.8, -1312121.4, -2146.1365, -0.00842063, -0.017372275, -1194462.6, 32148.95, 0.0, 10.000649, 9.999085 
1.1650594e+3, 1.8483458e+2, -1133334.9, -1254641.4, 11104.309, -0.013646995, -0.01087622, -1132326.8, -3705.9421, 0.0, 10.000491, 9.998883 
1.1650596e+3, 1.9483386e+2, -1032585.0, -1151996.8, 19914.533, -0.02869133, 0.023338327, -1029351.4, 1277.8279, 0.0, 10.000497, 9.998912 
1.1650598e+3, 2.0483287e+2, -896455.25, -992905.06, 15921.253, -0.023921164, 0.015043549, -893895.06, 38742.973, 0.0, 10.000576, 9.999293 
1.1650603e+3, 2.1483159e+2, -771628.9, -877833.25, 894.42554, 0.0030437962, -0.047887098, -771621.3, 63026.05, 0.0, 10.00074, 9.999331 
1.1650604e+3, 2.2483043e+2, -719753.25, -891751.56, -11167.704, 0.008809905, -0.05655004, -719031.1, 17626.82, 0.0, 10.000812, 9.9985285 
1.16506e+3, 2.3482943e+2, -625365.56, -793552.56, 9110.89, -0.008489323, -0.014652672, -624873.5, 13796.343, 0.0, 10.000779, 9.998546 
1.16505995e+3, 2.4482816e+2, -516664.88, -637735.9, 27237.012, -0.018365348, -0.015818335, -510819.66, 29862.117, 0.0, 10.000625, 9.999018 
1.16506e+3, 2.548267e+2, -456977.1, -553383.25, 15169.233, -0.020921215, -0.07236536, -454646.6, -11952.742, 0.0, 10.000341, 9.999059 
1.16506e+3, 2.6482537e+2, -398910.25, -544629.3, 14283.422, -0.0343078, -0.07728381, -397523.38, -52816.543, 0.0, 10.000371, 9.998431 
1.16505995e+3, 2.748243e+2, -249385.77, -419714.06, 29529.076, -0.057826664, -0.032849498, -244411.7, 2308.767, 0.0, 10.000713, 9.998452 
1.16506e+3, 2.8482348e+2, -112121.76, -241661.73, 25587.203, -0.04413132, 0.015913174, -107250.836, 41478.348, 0.0, 10.000718, 9.9990015 
1.16506055e+3, 2.9482293e+2, -61517.7, -162667.36, 7944.3867, 0.008266045, 0.05314583, -60897.543, -10164.123, 0.0, 10.000377, 9.999034 
1.1650604e+3, 3.0482045e+2, -61222.195, -175500.58, -4366.6895, 0.0092502, -0.081098326, -61055.582, -61055.582, 0.0, 10.000209, 9.9986925 
1.16505966e+3, 3.1482017e+2, 1351.3323, -37167.227, 7944.205, -0.026407491, 0.017880086, 2925.4453, 2925.4453, 0.0, 10.00017, 9.999663 
1.1750566e+3, 1.24839954e+2, -1606191.9, -1721273.8, -87510.945, -0.096659325, 0.033409514, -1558999.1, 157569.92, 0.0018234614, 10.001015, 9.999462 
1.1750596e+3, 1.3483874e+2, -1591610.4, -1681341.4, 66683.21, 0.041154306, -0.020275787, -1556104.4, 62476.44, 0.0009506097, 10.000492, 9.99933 
1.1750597e+3, 1.4483833e+2, -1494843.1, -1577698.6, 13953.619, -0.099101014, 0.0030312093, -1492556.4, 28028.236, 0.00031097958, 10.000467, 9.99937 
1.1750603e+3, 1.5483773e+2, -1334248.4, -1448799.6, 6023.716, -0.03733006, 0.0029807491, -1333932.5, 88657.195, 0.00003785508, 10.0008955, 9.999374 
1.1750603e+3, 1.6483681e+2, -1262658.9, -1419846.4, -8489.576, -0.018354721, -0.0014513903, -1262201.6, 62396.51, 0.00000010132158, 10.000956, 9.998872 
1.1750598e+3, 1.7483553e+2, -1207088.9, -1338745.0, -13858.547, -0.034915425, -0.020766608, -1205645.9, 20964.533, 0.0, 10.000649, 9.998903 
1.1750598e+3, 1.848344e+2, -1117805.4, -1222102.6, 9671.139, -0.028480548, -0.032734767, -1116916.1, 11705.237, 0.0, 10.000489, 9.999107 
1.1750603e+3, 1.9483346e+2, -1016786.8, -1118484.9, 19568.928, -0.00066387584, -0.044096734, -1013151.25, 17479.58, 0.0, 10.000493, 9.999144 
1.17506064e+3, 2.0483272e+2, -923606.1, -1048408.94, 20545.27, 0.004800878, -0.02043575, -920310.9, 12327.376, 0.0, 10.000571, 9.998915 
1.17506094e+3, 2.1483219e+2, -799385.8, -934960.5, 6947.8633, -0.010862612, 0.030103525, -799030.7, 35613.047, 0.0, 10.000737, 9.998941 
1.175061e+3, 2.2483107e+2, -682761.3, -813788.25, -13496.401, -0.0148295555, 0.019024733, -681385.56, 55268.242, 0.0, 10.000806, 9.999067 
1.17506094e+3, 2.3482935e+2, -586606.7, -712501.7, 7656.357, -0.005163275, -0.06608686, -586142.75, 52525.914, 0.0, 10.000774, 9.9991045 
1.1750606e+3, 2.4482825e+2, -538152.06, -681084.8, 15639.908, -0.016008003, -0.06697836, -536460.75, 4218.242, 0.0, 10.00062, 9.998722 
1.1750602e+3, 2.548278e+2, -478870.2, -598320.94, 5145.7314, -0.050069995, 0.010762413, -478648.94, -35964.395, 0.0, 10.0003395, 9.998752 
1.1750603e+3, 2.6482657e+2, -369833.38, -483730.44, 27510.336, -0.045661062, 0.010317005, -363536.72, -18840.13, 0.0, 10.000366, 9.998853 
1.1750612e+3, 2.748246e+2, -219376.77, -357230.94, 44487.332, 0.00048189916, -0.07845063, -206266.88, 40448.36, 0.0, 10.000711, 9.998883 
1.175061e+3, 2.8482348e+2, -144907.97, -308730.3, 13039.209, -0.013234861, -0.060202006, -143876.63, 4850.086, 0.0, 10.000713, 9.998543 
1.1750599e+3, 2.9482326e+2, -95812.86, -231274.73, -3922.0876, -0.091887325, 0.059680857, -95699.4, -44968.5, 0.0, 10.000365, 9.998568 
1.1750598e+3, 3.0482087e+2, -32734.697, -113929.26, -4784.7603, -0.07214924, -0.06556318, -32453.707, -32453.707, 0.0, 10.000197, 9.999122 
1.17506094e+3, 3.1482032e+2, 47863.605, 58326.074, 11436.106, 0.07235875, -0.038401484, 65670.625, 65670.625, 0.0, 10.000174, 10.000318 
1.18505724e+3, 1.2483968e+2, -1695225.0, -1760655.5, -78061.7, -0.10036823, 0.021465546, -1643300.4, 73270.195, 0.0020081834, 10.000389, 9.999492 
1.18506044e+3, 1.3483854e+2, -1540299.4, -1648281.1, 83773.97, 0.062293563, -0.034069084, -1494625.4, 123955.99, 0.0010574218, 10.00081, 9.999403 
1.1850603e+3, 1.4483808e+2, -1436773.0, -1559542.3, 28197.373, -0.109090775, -0.013714922, -1430606.4, 89978.99, 0.00035351914, 10.00091, 9.99928 
1.1850612e+3, 1.548373e+2, -1378992.9, -1480061.1, -11801.777, -0.036676113, -0.022259533, -1377633.1, 44959.582, 0.00004562391, 10.00063, 9.999287 
1.1850612e+3, 1.648364e+2, -1311115.5, -1434549.9, -35162.656, -0.00950276, -0.021984981, -1301801.5, 22799.697, 0.00000019883093, 10.000586, 9.998949 
1.1850607e+3, 1.7483541e+2, -1179710.6, -1316217.3, -21992.799, -0.026494725, -0.021276703, -1176254.9, 50356.203, 0.0, 10.000798, 9.998985 
1.1850605e+3, 1.8483442e+2, -1068972.0, -1198505.8, 3040.2144, -0.024377914, -0.024210192, -1068900.8, 59720.02, 0.0, 10.000826, 9.999106 
1.1850609e+3, 1.9483343e+2, -990965.2, -1106581.5, -5780.357, -0.0044654217, -0.0392364, -990676.9, 39953.5, 0.0, 10.000672, 9.999139 
1.1850612e+3, 2.0483261e+2, -926932.56, -1056957.8, 4189.5537, -0.004267218, -0.020881804, -926797.7, 5841.2114, 0.0, 10.000577, 9.998854 
1.1850614e+3, 2.1483196e+2, -831652.25, -956464.4, 13793.408, -0.024444014, 0.024126206, -830146.06, 4500.059, 0.0, 10.000544, 9.998886 
1.18506156e+3, 2.2483093e+2, -708063.8, -801762.2, -7956.654, -0.027689403, 0.013706289, -707392.94, 29262.473, 0.0, 10.000528, 9.999283 
1.1850614e+3, 2.348295e+2, -606884.06, -697541.7, -12730.461, -0.012825489, -0.06474251, -605130.3, 33536.406, 0.0, 10.000529, 9.999325 
1.1850612e+3, 2.448285e+2, -549532.25, -694208.56, -11524.626, -0.02043771, -0.062217176, -548619.94, -7943.955, 0.0, 10.000575, 9.998653 
1.1850607e+3, 2.5482798e+2, -436995.4, -586843.9, -6873.5103, -0.0518196, 0.016433872, -436680.78, 6002.371, 0.0, 10.000664, 9.998674 
1.1850608e+3, 2.648268e+2, -330921.38, -438196.28, 20256.145, -0.043766946, 0.01296671, -327223.97, 17470.586, 0.0, 10.000519, 9.999092 
1.1850616e+3, 2.7482498e+2, -286060.66, -361310.1, 21679.506, 0.0051462436, -0.08503481, -280261.63, -33551.313, 0.0, 10.000134, 9.999131 
1.18506156e+3, 2.8482392e+2, -245228.92, -359002.3, -1478.9757, -0.009069732, -0.075168416, -245209.69, -96488.75, 0.0, 10.000035, 9.998523 
1.1850603e+3, 2.9482362e+2, -120138.0, -246938.19, 14539.54, -0.08828436, 0.0384291, -118492.19, -67765.8, 0.0, 10.000215, 9.998534 
1.1850601e+3, 3.0482122e+2, -14765.738, -118208.06, 16684.41, -0.07518238, -0.076592624, -12141.265, -12141.265, 0.0, 10.000378, 9.999005 
1.1850612e+3, 3.1482068e+2, 108896.195, 99317.69, -14600.442, 0.059907276, -0.03880904, 119472.805, 119472.805, 0.0, 10.000545, 10.00042 
1.1950576e+3, 1.24839246e+2, -1685535.1, -1738677.4, -59763.5, -0.10744237, -0.021145757, -1646702.1, 69870.34, 0.0022081332, 10.0003805, 9.999646 
1.1950614e+3, 1.3483869e+2, -1525671.4, -1617852.5, 100267.37, 0.08199103, -0.039009307, -1461408.5, 157168.31, 0.0011730703, 10.000808, 9.999613 
1.19506106e+3, 1.4483818e+2, -1470002.8, -1629003.6, 17224.734, -0.11696946, -0.01085813, -1468158.1, 52423.832, 0.00040013902, 10.000911, 9.998804 
1.1950618e+3, 1.5483664e+2, -1412681.1, -1550254.6, -22252.016, -0.034073155, -0.047585722, -1409171.5, 13427.48, 0.00005450229, 10.00063, 9.998805 
1.195062e+3, 1.6483565e+2, -1288474.0, -1387368.3, -28426.813, 0.012021241, -0.0490579, -1280885.1, 43724.242, 0.00000035173326, 10.000585, 9.999273 
1.1950618e+3, 1.748353e+2, -1156530.0, -1267407.1, -14197.353, 0.013421538, -0.018669223, -1154741.0, 71871.6, 0.0, 10.000794, 9.999323 
1.1950615e+3, 1.848347e+2, -1085489.8, -1232362.6, -3873.4204, -0.005825907, 0.012483531, -1085387.6, 43230.81, 0.0, 10.000823, 9.998877 
1.1950611e+3, 1.9483384e+2, -1007875.25, -1141504.6, -11906.586, -0.042579655, 0.034781612, -1006822.6, 23804.82, 0.0, 10.00067, 9.998901 
1.1950613e+3, 2.0483263e+2, -910339.1, -1021558.3, 1526.9158, -0.054158643, 0.013761521, -910318.1, 22321.094, 0.0, 10.000572, 9.999099 
1.1950619e+3, 2.1483101e+2, -814291.0, -919756.3, 12093.669, -0.039054, -0.063612446, -812921.94, 21732.049, 0.0, 10.00054, 9.999141 
1.195062e+3, 2.2483009e+2, -715503.56, -815884.75, -9231.304, -0.032016054, -0.07080366, -714661.7, 22000.568, 0.0, 10.000523, 9.999189 
1.1950618e+3, 2.3482993e+2, -614175.1, -712307.4, -12464.639, -0.03325981, -0.012329172, -612616.6, 26046.887, 0.0, 10.000526, 9.999226 
1.19506165e+3, 2.4482903e+2, -540474.06, -674537.3, -8574.339, -0.034112103, -0.0027320373, -539927.94, 744.40436, 0.0, 10.00057, 9.998791 
1.1950615e+3, 2.5482735e+2, -427971.16, -566640.94, -2632.3872, -0.032722197, -0.053840086, -427921.2, 14767.891, 0.0, 10.000656, 9.998817 
1.1950614e+3, 2.6482618e+2, -329124.66, -433310.88, 5978.2437, -0.03428349, -0.06855952, -328782.72, 15917.57, 0.0, 10.000513, 9.999129 
1.1950613e+3, 2.748255e+2, -283484.5, -355535.2, 8048.01, -0.042849377, -0.053264286, -282596.5, -35890.887, 0.0, 10.000133, 9.999172 
1.1950613e+3, 2.8482482e+2, -212938.23, -292706.34, 5478.712, -0.031582426, -0.030112756, -212563.7, -63851.95, 0.0, 10.000036, 9.998978 
1.1950614e+3, 2.9482403e+2, -89014.76, -181528.97, 23906.871, 0.004654482, -0.010300454, -83202.12, -32482.895, 0.0, 10.00021, 9.998985 
1.19506106e+3, 3.0482158e+2, -68684.46, -228940.25, 23125.465, -0.013375756, -0.1134043, -65414.113, -65414.113, 0.0, 10.000371, 9.998248 
1.19506046e+3, 3.148213e+2, 68413.45, 18251.068, -5704.5947, -0.06339534, 0.024138156, 69054.016, 69054.016, 0.0, 10.000532, 9.999867 
1.2050581e+3, 1.248385e+2, -1647460.1, -1720400.6, -74028.7, -0.100239806, -0.0540931, -1601405.6, 115172.17, 0.0024257244, 10.000646, 9.999642 
1.2050623e+3, 1.3483809e+2, -1555765.6, -1627035.8, 67149.555, 0.100779615, -0.061271917, -1515381.5, 103199.78, 0.0012988481, 10.000577, 9.999661 
1.20506175e+3, 1.4483775e+2, -1508983.6, -1641395.4, -9905.287, -0.1290614, -0.020881457, -1508246.8, 12338.273, 0.00045139206, 10.000616, 9.99886 
1.2050625e+3, 1.5483639e+2, -1390874.4, -1532855.0, -11878.948, -0.03243359, -0.047434088, -1389887.4, 32713.088, 0.00006471426, 10.000752, 9.998865 
1.2050627e+3, 1.6483545e+2, -1269105.5, -1384128.1, -6659.3496, 0.0235766, -0.04338754, -1268721.3, 55889.563, 0.00000057087306, 10.000746, 9.999217 
1.20506264e+3, 1.7483504e+2, -1186711.3, -1289022.4, -23047.645, 0.022181707, -0.01252013, -1181759.0, 44856.17, 0.0, 10.000618, 9.999258 
1.2050623e+3, 1.8483439e+2, -1114447.0, -1234976.4, -17982.574, -0.002046041, 0.012478921, -1111821.4, 16800.31, 0.0, 10.000575, 9.998978 
1.20506175e+3, 1.9483353e+2, -1008385.0, -1129198.8, -1377.3091, -0.044797864, 0.022177204, -1008369.3, 22260.795, 0.0, 10.000615, 9.999011 
1.20506175e+3, 2.0483236e+2, -909062.8, -1007479.6, 18762.64, -0.05532603, -0.004467372, -905607.2, 27033.791, 0.0, 10.0005245, 9.999218 
1.20506234e+3, 2.1483089e+2, -841216.7, -919745.6, 18127.336, -0.033333253, -0.07981711, -837234.2, -2579.817, 0.0, 10.0002985, 9.999257 
1.20506234e+3, 2.2483009e+2, -766884.5, -845025.1, -473.7906, -0.026586233, -0.07904362, -766881.6, -30219.734, 0.0, 10.000188, 9.99915 
1.2050621e+3, 2.3483004e+2, -663988.6, -740244.94, -919.4592, -0.03553342, -0.0054460503, -663977.56, -25314.615, 0.0, 10.000204, 9.999188 
1.20506205e+3, 2.4482921e+2, -575705.44, -663758.75, 10763.705, -0.036380243, 0.0017497302, -574408.75, -33738.055, 0.0, 10.000211, 9.999038 
1.2050619e+3, 2.5482756e+2, -476058.97, -561054.75, 23526.947, -0.028424015, -0.07213846, -469981.25, -27295.566, 0.0, 10.000204, 9.999072 
1.20506175e+3, 2.648264e+2, -373733.1, -475913.84, 24054.219, -0.03566074, -0.09035892, -368353.72, -23656.945, 0.0, 10.000299, 9.998939 
1.2050615e+3, 2.748257e+2, -243951.27, -359113.94, 7792.6816, -0.059781052, -0.057438444, -243426.34, 3277.3362, 0.0, 10.000501, 9.998971 
1.2050615e+3, 2.8482497e+2, -131282.2, -237347.8, -11565.597, -0.042908583, -0.031560175, -130035.72, 18674.275, 0.0, 10.000529, 9.999121 
1.2050619e+3, 2.948242e+2, -53740.855, -147919.75, -19822.318, 0.019504081, -0.026067963, -49738.813, 977.4227, 0.0, 10.000383, 9.999131 
1.2050615e+3, 3.0482188e+2, -95717.24, -269351.2, -9432.01, 0.0014208944, -0.1148552, -95206.38, -95206.38, 0.0, 10.000305, 9.998001 
1.2050608e+3, 3.148213e+2, 25423.076, -9633.813, 1962.9321, -0.067718126, 0.019102028, 25532.645, 25532.645, 0.0, 10.000265, 9.999805 
1.21505894e+3, 1.24837555e+2, -1660282.6, -1746473.1, -74036.71, -0.082026795, -0.07353875, -1617712.0, 98873.27, 0.0026624324, 10.000642, 9.999466 
1.21506296e+3, 1.3483684e+2, -1563190.6, -1643218.1, 64862.805, 0.114639595, -0.10052967, -1526992.3, 91601.44, 0.0014356553, 10.000578, 9.99955 
1.21506214e+3, 1.448369e+2, -1468692.6, -1557791.4, -5683.0454, -0.15075998, -0.043649524, -1468331.5, 52262.133, 0.0005075534, 10.000615, 9.999434 
1.21506326e+3, 1.5483657e+2, -1350200.1, -1447889.0, -6669.494, -0.034741566, -0.023230018, -1349746.9, 72849.93, 0.000076397075, 10.000749, 9.999451 
1.2150635e+3, 1.6483583e+2, -1300636.9, -1449254.0, -13115.198, 0.02109254, -0.0072635845, -1299488.4, 25116.691, 0.0000008702971, 10.000743, 9.998772 
1.21506296e+3, 1.748347e+2, -1219259.4, -1356633.1, -28058.455, -0.002297827, -0.0026521217, -1213749.4, 12869.065, 0.0, 10.000617, 9.9987955 
1.21506274e+3, 1.8483362e+2, -1084752.0, -1172456.5, -17664.07, -0.016453218, -0.020830175, -1081328.1, 47301.266, 0.0, 10.00057, 9.999409 
1.21506274e+3, 1.9483255e+2, -977448.4, -1064594.4, -210.92548, -0.013792626, -0.07461853, -977447.9, 53189.758, 0.0, 10.000612, 9.999456 
1.21506274e+3, 2.0483187e+2, -909681.6, -1008664.1, 8735.651, -0.011847099, -0.075421005, -908916.6, 23727.04, 0.0, 10.000523, 9.999211 
1.2150629e+3, 2.1483162e+2, -842434.8, -922016.06, 9077.707, -0.011303355, -0.02737399, -841412.5, -6765.4956, 0.0, 10.000296, 9.999244 
1.21506274e+3, 2.2483096e+2, -767211.5, -844755.6, -1571.8604, -0.015260681, -0.012789581, -767179.7, -30525.771, 0.0, 10.000183, 9.999154 
1.2150625e+3, 2.3482986e+2, -663850.06, -739642.06, -400.31708, -0.022806205, -0.04312092, -663847.94, -25183.443, 0.0, 10.000201, 9.999194 
1.2150623e+3, 2.4482909e+2, -551159.2, -612558.8, 9695.756, -0.03028086, -0.04837306, -549664.5, -8993.695, 0.0, 10.000208, 9.999391 
1.215062e+3, 2.5482863e+2, -450411.88, -508370.38, 23737.633, -0.039725687, -0.039217483, -441930.84, 741.94293, 0.0, 10.000205, 9.999434 
1.215062e+3, 2.648275e+2, -402343.1, -535714.9, 31388.732, -0.048496738, -0.053182945, -395325.1, -50641.33, 0.0, 10.000299, 9.998528 
1.215062e+3, 2.748256e+2, -275290.47, -421475.03, 17003.715, -0.05525163, -0.097069375, -273338.7, -26634.69, 0.0, 10.000488, 9.9985485 
1.2150619e+3, 2.848245e+2, -147939.63, -269820.94, -16506.24, -0.05278975, -0.07876471, -145743.77, 2971.4407, 0.0, 10.000519, 9.998903 
1.2150616e+3, 2.9482415e+2, -68870.26, -178776.16, -24123.307, -0.042073086, -0.008315787, -63808.535, -13091.172, 0.0, 10.0003805, 9.99892 
1.21506155e+3, 3.0482206e+2, -72126.7, -221476.55, -10065.836, -0.029767869, -0.07999388, -71451.34, -71451.34, 0.0, 10.000309, 9.998329 
1.215062e+3, 3.148208e+2, 59140.63, 63352.93, 5625.626, 0.029174102, -0.04675715, 67253.734, 67253.734, 0.0, 10.000254, 10.000313 
1.2250597e+3, 1.2483681e+2, -1656039.9, -1759870.6, -53149.71, -0.083545715, -0.090419784, -1633657.9, 82933.64, 0.0029179724, 10.00074, 9.999325 
1.2250636e+3, 1.3483617e+2, -1565715.5, -1651011.4, 79103.164, 0.12031967, -0.10187309, -1518496.0, 100104.164, 0.0015834377, 10.000592, 9.999489 
1.2250626e+3, 1.4483632e+2, -1462880.4, -1534430.4, 6842.204, -0.1659345, -0.042280298, -1462231.9, 58367.35, 0.00056846405, 10.000569, 9.999616 
1.2250641e+3, 1.5483603e+2, -1339132.1, -1422004.6, -25404.412, -0.025295349, -0.035928544, -1331964.4, 90636.65, 0.00008951281, 10.000738, 9.999632 
1.2250645e+3, 1.6483535e+2, -1295842.4, -1443842.0, -39006.55, 0.034018103, -0.027052272, -1286191.3, 38417.465, 0.0000012652538, 10.000763, 9.998798 
1.2250635e+3, 1.7483424e+2, -1217548.6, -1352241.5, -19216.377, -0.012495277, -0.02001482, -1214860.6, 11761.207, 0.0, 10.000615, 9.998825 
1.2250631e+3, 1.8483324e+2, -1101813.8, -1176157.5, -1591.7767, -0.024189206, -0.033661116, -1101779.6, 26852.664, 0.0, 10.000436, 9.999448 
1.22506335e+3, 1.9483228e+2, -1028714.06, -1085048.3, -15501.077, 0.006270686, -0.08216748, -1024730.44, 5909.8257, 0.0, 10.000242, 9.999494 
1.22506335e+3, 2.0483175e+2, -950997.56, -1026377.9, -18082.887, 0.012999211, -0.06917754, -946884.1, -14239.104, 0.0, 10.00023, 9.99923 
1.2250632e+3, 2.1483175e+2, -824619.5, -910415.7, -16052.783, -0.0063384897, 0.002956567, -821714.3, 12931.892, 0.0, 10.000407, 9.999268 
1.2250631e+3, 2.248311e+2, -718642.7, -812448.25, -21215.45, -0.017007941, 0.01331007, -714067.6, 22585.219, 0.0, 10.00048, 9.999232 
1.2250628e+3, 2.3482974e+2, -624827.56, -712248.1, -16524.916, -0.017839631, -0.051939763, -621808.2, 16857.22, 0.0, 10.000432, 9.99927 
1.2250625e+3, 2.4482894e+2, -531308.6, -606062.6, -18216.545, -0.027750056, -0.06373984, -527105.8, 13566.063, 0.0, 10.000358, 9.999363 
1.22506216e+3, 2.548287e+2, -443018.1, -507611.75, -34348.07, -0.048732914, -0.029930597, -428167.56, 14504.528, 0.0, 10.000269, 9.999409 
1.22506216e+3, 2.648276e+2, -411941.88, -533049.75, -19592.9, -0.05580805, -0.038202323, -408851.0, -64168.73, 0.0, 10.000203, 9.998591 
1.2250624e+3, 2.7482566e+2, -320869.1, -435962.03, -541.6061, -0.047312815, -0.09842868, -320866.53, -74163.5, 0.0, 10.000145, 9.998613 
1.2250624e+3, 2.8482443e+2, -196728.02, -300384.84, -9397.969, -0.043397803, -0.09135793, -195882.84, -47167.723, 0.0, 10.000216, 9.998837 
1.225062e+3, 2.94824e+2, -65970.88, -185259.44, -6732.8086, -0.045192536, -0.024473151, -65592.08, -14873.725, 0.0, 10.000434, 9.99885 
1.2250619e+3, 3.0482203e+2, -45458.38, -209114.8, -3266.0674, -0.026851257, -0.0780942, -45393.227, -45393.227, 0.0, 10.000494, 9.998324 
1.22506276e+3, 3.1482032e+2, 85599.74, 90214.32, -16933.488, 0.06454008, -0.08909591, 104996.99, 104996.99, 0.0, 10.000374, 10.000439 
1.2350601e+3, 1.2483634e+2, -1665469.9, -1777992.0, -51116.445, -0.114763625, -0.10486488, -1645716.5, 70879.05, 0.0031899144, 10.000733, 9.999204 
1.2350642e+3, 1.3483617e+2, -1567920.0, -1654732.9, 73337.11, 0.11550025, -0.066262096, -1526106.4, 92493.33, 0.0017411282, 10.000587, 9.999466 
1.235063e+3, 1.448361e+2, -1478968.5, -1566562.5, 10782.123, -0.17909431, -0.01663098, -1477660.8, 42940.258, 0.0006337289, 10.000563, 9.999398 
1.23506494e+3, 1.5483485e+2, -1354662.8, -1454668.4, -18799.01, -0.008055576, -0.08405935, -1351245.6, 71366.695, 0.00010392506, 10.000738, 9.999409 
1.23506546e+3, 1.6483405e+2, -1261887.0, -1372524.1, -45120.617, 0.057306204, -0.100545794, -1245819.3, 78801.4, 0.0000017603737, 10.000758, 9.99929 
1.2350641e+3, 1.7483374e+2, -1182264.9, -1279124.9, -24985.184, -0.011227653, -0.06469597, -1176199.8, 50425.168, 0.0, 10.000614, 9.999328 
1.23506345e+3, 1.8483332e+2, -1126507.9, -1227589.6, -10868.343, -0.029762762, -0.028722545, -1125352.6, 3277.8916, 0.0, 10.000436, 9.999096 
1.23506375e+3, 1.9483271e+2, -1053991.9, -1138136.5, -23435.586, 0.012882214, -0.0028652556, -1047904.94, -17267.416, 0.0, 10.000244, 9.999129 
1.23506375e+3, 2.0483208e+2, -947829.9, -1019813.44, -12951.67, 0.01719888, 0.013847208, -945570.44, -12925.896, 0.0, 10.000229, 9.999276 
1.23506345e+3, 2.148314e+2, -821050.56, -902922.8, -9690.308, -0.02039085, 0.011740707, -819919.3, 14732.138, 0.0, 10.000405, 9.99932 
1.2350634e+3, 2.2483063e+2, -708463.44, -790830.4, -24026.924, -0.034447845, -0.00036027477, -701967.06, 34691.234, 0.0, 10.000476, 9.999384 
1.2350632e+3, 2.3482972e+2, -614849.75, -690924.56, -18120.164, -0.022692006, -0.032777593, -610754.25, 27910.947, 0.0, 10.000428, 9.99942 
1.23506285e+3, 2.4482879e+2, -560336.1, -666072.25, -22361.434, -0.030902384, -0.044935957, -555801.5, -15128.054, 0.0, 10.000355, 9.998953 
1.2350624e+3, 2.548278e+2, -473012.8, -568651.4, -36734.93, -0.06058941, -0.04412258, -460531.7, -17848.732, 0.0, 10.000262, 9.998993 
1.23506226e+3, 2.6482683e+2, -376920.7, -459194.25, -21420.807, -0.06285447, -0.04556784, -371677.66, -26985.78, 0.0, 10.000196, 9.999104 
1.2350626e+3, 2.7482584e+2, -283670.84, -359480.94, -1425.5732, -0.037265945, -0.06108291, -283644.03, -36943.44, 0.0, 10.000147, 9.999139 
1.23506285e+3, 2.848248e+2, -189425.47, -285723.53, -1476.8799, -0.016983528, -0.0686773, -189402.83, -40693.145, 0.0, 10.000217, 9.998938 
1.23506285e+3, 2.9482374e+2, -61870.63, -173340.1, 3482.6934, 0.000051781528, -0.07516415, -61761.92, -11042.848, 0.0, 10.000419, 9.9989395 
1.2350628e+3, 3.0482182e+2, -73988.445, -265505.2, -6757.1235, -0.0005432609, -0.10929534, -73750.336, -73750.336, 0.0, 10.000481, 9.997944 
1.23506285e+3, 3.1481993e+2, 62809.605, 43124.11, -16934.662, 0.03471432, -0.09507888, 72554.164, 72554.164, 0.0, 10.000372, 10.000116 
1.24506064e+3, 1.2483595e+2, -1667614.6, -1774532.1, -61343.96, -0.1297567, -0.07944499, -1639704.4, 76895.92, 0.003475539, 10.000702, 9.999242 
1.24506496e+3, 1.3483572e+2, -1543331.9, -1628245.8, 60945.75, 0.12942019, -0.059511017, -1511512.4, 107091.55, 0.0019075654, 10.000693, 9.999596 
1.2450636e+3, 1.4483558e+2, -1482460.6, -1570772.9, 14574.024, -0.18137743, -0.025080167, -1480117.8, 40488.08, 0.0007030745, 10.000549, 9.999375 
1.2450654e+3, 1.5483423e+2, -1418469.9, -1487212.3, -1599.7493, -0.010842244, -0.09886517, -1418432.6, 4185.3413, 0.00011956255, 10.00031, 9.99939 
1.2450661e+3, 1.6483349e+2, -1316999.5, -1390854.6, -29519.816, 0.061324704, -0.11121075, -1306650.6, 17975.14, 0.0000023468863, 10.000346, 9.999362 
1.24506496e+3, 1.748334e+2, -1166428.6, -1263600.4, -42532.43, -0.00016345497, -0.061129425, -1150442.1, 76185.97, 0.0, 10.00069, 9.999397 
1.2450642e+3, 1.8483303e+2, -1070470.5, -1217472.4, -42849.863, -0.025057033, -0.013911776, -1058892.1, 69741.29, 0.0, 10.000894, 9.998943 
1.2450641e+3, 1.9483238e+2, -965952.56, -1112715.3, -40982.137, -0.0011026356, 0.02120715, -955284.2, 75357.63, 0.0, 10.000923, 9.998976 
1.245064e+3, 2.0483163e+2, -869922.1, -971728.44, -22097.969, 0.0006367455, 0.03022184, -865332.5, 67317.43, 0.0, 10.00072, 9.999369 
1.24506384e+3, 2.1483079e+2, -833383.7, -897989.9, -17275.95, -0.025208585, 0.0011226019, -829054.1, 5603.435, 0.0, 10.000275, 9.999417 
1.2450636e+3, 2.2483002e+2, -767007.8, -817842.44, -29241.605, -0.03319853, -0.014722081, -753680.94, -17017.166, 0.0, 10.000069, 9.999394 
1.2450635e+3, 2.3482937e+2, -657140.5, -709314.25, -34645.215, -0.020972898, -0.025880186, -639859.0, -1190.6843, 0.0, 10.000131, 9.999436 
1.24506325e+3, 2.4482837e+2, -587281.1, -693103.3, -32233.22, -0.02187783, -0.03766257, -578236.06, -37558.71, 0.0, 10.000233, 9.998825 
1.2450629e+3, 2.5482705e+2, -467473.34, -580789.94, -27493.453, -0.03683555, -0.05887944, -461155.03, -18464.006, 0.0, 10.000365, 9.998859 
1.2450627e+3, 2.648261e+2, -345481.1, -422802.97, -18156.428, -0.037918866, -0.06002599, -341429.94, 3269.648, 0.0, 10.000322, 9.999291 
1.2450629e+3, 2.7482554e+2, -274919.84, -333056.56, -23556.975, -0.025522077, -0.05141578, -266572.94, -19869.97, 0.0, 10.000112, 9.999335 
1.2450631e+3, 2.8482452e+2, -215553.13, -297792.72, -29844.426, -0.00846339, -0.0652956, -205864.19, -57152.824, 0.0, 10.000036, 9.998941 
1.24506325e+3, 2.9482308e+2, -113058.93, -197546.45, -34792.094, 0.01613018, -0.109300524, -100575.87, -49850.973, 0.0, 10.000066, 9.998941 
1.24506325e+3, 3.048215e+2, -103247.53, -285539.0, -31276.74, 0.008614136, -0.105564795, -98030.516, -98030.516, 0.0, 10.000306, 9.997889 
1.2450633e+3, 3.1481975e+2, 120223.9, 66461.46, -15199.221, 0.029298544, -0.07519653, 124223.36, 124223.36, 0.0, 10.000786, 10.000075 
1.2550613e+3, 1.24835774e+2, -1655063.0, -1749006.1, -52748.055, -0.13494311, -0.011944936, -1631404.0, 85200.31, 0.0037739007, 10.000702, 9.999418 
1.255066e+3, 1.3483492e+2, -1523856.5, -1588903.1, 59961.05, 0.15721448, -0.081598766, -1488166.3, 130445.82, 0.0020822603, 10.000696, 9.9998665 
1.2550642e+3, 1.4483476e+2, -1471166.3, -1546825.4, 3603.6694, -0.17816556, -0.06944621, -1470995.0, 49617.91, 0.0007764397, 10.000546, 9.999541 
1.2550655e+3, 1.548342e+2, -1406034.3, -1461878.8, -10595.185, -0.035541147, -0.08261296, -1404091.6, 18526.037, 0.00013646827, 10.000311, 9.999564 
1.2550661e+3, 1.648337e+2, -1341868.5, -1441849.8, -18915.123, 0.042508196, -0.06189772, -1338409.8, -13786.061, 0.0000030208696, 10.000343, 9.999014 
1.2550658e+3, 1.7483328e+2, -1191237.0, -1315549.5, -29708.256, 0.017456416, -0.009625007, -1184502.3, 42128.523, 0.0, 10.000691, 9.999041 
1.2550652e+3, 1.848325e+2, -1067959.4, -1211529.8, -42392.363, -0.013805066, 0.011946373, -1056376.6, 72263.68, 0.0, 10.00089, 9.998987 
1.2550648e+3, 1.9483133e+2, -962896.06, -1105859.8, -39992.703, -0.037729062, -0.009015145, -952469.0, 78183.45, 0.0, 10.000919, 9.999025 
1.2550643e+3, 2.0483047e+2, -861390.2, -953149.94, -40076.008, -0.03978782, -0.01992781, -846351.7, 86308.88, 0.0, 10.000715, 9.999499 
1.2550642e+3, 2.1482995e+2, -824476.2, -879045.1, -34434.438, -0.023116384, -0.028521378, -807826.94, 26837.31, 0.0, 10.000272, 9.999549 
1.2550639e+3, 2.2482935e+2, -775579.6, -836021.3, -28770.504, -0.015768545, -0.029378928, -764074.7, -27405.797, 0.0, 10.00007, 9.9992695 
1.2550637e+3, 2.3482868e+2, -665730.7, -727448.25, -32234.438, -0.015702207, -0.030793535, -651965.25, -13290.862, 0.0, 10.000131, 9.999312 
1.2550637e+3, 2.448277e+2, -577009.1, -671648.06, -27647.219, -0.0043720626, -0.041484445, -569524.4, -28841.096, 0.0, 10.00023, 9.998974 
1.2550639e+3, 2.548264e+2, -457096.22, -559400.0, -21543.096, 0.01891584, -0.07343652, -452744.78, -10048.745, 0.0, 10.000364, 9.999007 
1.2550636e+3, 2.648254e+2, -354852.2, -442368.97, -25974.5, 0.015424818, -0.08038342, -347723.75, -3018.7058, 0.0, 10.000321, 9.999158 
1.2550631e+3, 2.7482474e+2, -285079.06, -352660.25, -30021.818, -0.017323866, -0.069717236, -273668.84, -26958.848, 0.0, 10.000104, 9.999206 
1.255063e+3, 2.8482363e+2, -224064.75, -313869.44, -27938.326, -0.02281045, -0.08227982, -216082.6, -67362.48, 0.0, 10.000028, 9.998836 
1.2550633e+3, 2.948221e+2, -119940.67, -213123.97, -31831.352, -0.00031729173, -0.12577385, -110105.23, -59369.54, 0.0, 10.000071, 9.998833 
1.2550634e+3, 3.0482116e+2, -82224.25, -242688.19, -13710.389, -0.002915984, -0.065940335, -81061.234, -81061.234, 0.0, 10.000309, 9.998182 
1.2550642e+3, 3.148198e+2, 134588.55, 100126.9, 7903.78, 0.0377005, -0.024964696, 136314.8, 136314.8, 0.0, 10.000769, 10.000316 
1.2650624e+3, 1.2483511e+2, -1620103.0, -1740386.1, -28198.22, -0.11219388, -0.015074246, -1613820.5, 102790.305, 0.004085261, 10.0009775, 9.999344 
1.2650667e+3, 1.3483422e+2, -1540682.6, -1595479.3, 50273.21, 0.17244191, -0.08902951, -1510826.5, 107792.42, 0.0022650692, 10.000575, 9.999878 
1.2650646e+3, 1.4483409e+2, -1479893.9, -1545649.1, -9391.929, -0.19081305, -0.07589682, -1478578.8, 42040.664, 0.00085386867, 10.000465, 9.999587 
1.265066e+3, 1.5483382e+2, -1339041.9, -1425168.0, -33658.535, -0.054029968, -0.06438234, -1327448.5, 95172.95, 0.00015477135, 10.000753, 9.999602 
1.2650666e+3, 1.6483332e+2, -1278353.8, -1418374.4, -33879.613, 0.023315797, -0.04148679, -1270587.0, 54040.453, 0.0000038088367, 10.000811, 9.998949 
1.2650663e+3, 1.7483263e+2, -1208332.6, -1330715.9, -24673.37, 0.0016954303, -0.011083171, -1203545.5, 23091.676, 0.0, 10.000606, 9.998977 
1.2650658e+3, 1.8483175e+2, -1117679.6, -1219491.6, -24679.861, -0.022099076, -0.002468238, -1112012.5, 16634.67, 0.0, 10.000481, 9.999128 
1.2650654e+3, 1.9483069e+2, -1021208.8, -1117493.5, -16694.793, -0.03722078, -0.028651617, -1018396.25, 12261.399, 0.0, 10.00045, 9.99917 
1.2650649e+3, 2.0482981e+2, -909061.94, -993312.9, -29698.443, -0.036935095, -0.040042635, -899645.6, 33020.043, 0.0, 10.0004635, 9.999345 
1.2650645e+3, 2.1482919e+2, -801300.7, -885355.6, -46847.113, -0.024354052, -0.04378405, -780392.0, 54278.91, 0.0, 10.000507, 9.999392 
1.2650642e+3, 2.2482853e+2, -705745.3, -802677.25, -37359.617, -0.016697375, -0.042342667, -693017.4, 43658.94, 0.0, 10.000551, 9.999266 
1.265064e+3, 2.3482783e+2, -598388.1, -695211.4, -33367.613, -0.012427975, -0.044511344, -588002.75, 50679.074, 0.0, 10.000594, 9.99931 
1.265064e+3, 2.448269e+2, -540063.25, -650739.56, -33039.543, 0.0033165447, -0.05234157, -530950.44, 9739.78, 0.0, 10.00047, 9.9990015 
1.2650642e+3, 2.548257e+2, -481743.9, -567467.56, -37318.297, 0.030182835, -0.077424295, -467774.47, -25072.61, 0.0, 10.000179, 9.99904 
1.265064e+3, 2.6482472e+2, -395045.97, -473730.63, -43516.63, 0.026911167, -0.08265138, -375723.84, -31012.635, 0.0, 10.000097, 9.99905 
1.2650633e+3, 2.7482387e+2, -277408.88, -361262.56, -47524.746, -0.0075206016, -0.07617549, -255960.17, -9242.011, 0.0, 10.00021, 9.999095 
1.2650633e+3, 2.848227e+2, -181486.27, -301597.13, -35461.234, -0.01697238, -0.08595899, -171798.22, -23068.85, 0.0, 10.000356, 9.998761 
1.2650634e+3, 2.948212e+2, -54126.65, -189573.77, -38088.19, -0.00096764974, -0.11723658, -44150.844, 6593.9834, 0.0, 10.000558, 9.99876 
1.2650639e+3, 3.048206e+2, -39173.832, -207454.03, -24984.264, -0.0013841202, -0.02937065, -35542.81, -35542.81, 0.0, 10.000543, 9.998311 
1.2650649e+3, 3.1481883e+2, 60442.46, 63602.277, -16640.697, 0.055831674, -0.044845946, 78737.9, 78737.9, 0.0, 10.000262, 10.000308 
1.2750639e+3, 1.2483406e+2, -1643402.1, -1787125.1, -33500.67, -0.06892068, -0.0855107, -1635977.0, 80641.914, 0.0044096503, 10.000969, 9.999028 
1.2750673e+3, 1.3483368e+2, -1557041.4, -1630060.0, 34272.484, 0.17320633, -0.082330965, -1543475.4, 75148.555, 0.0024558255, 10.000578, 9.999639 
1.2750646e+3, 1.4483365e+2, -1484748.8, -1556538.5, -1312.4409, -0.22340658, -0.045125935, -1484724.8, 35899.848, 0.00093550276, 10.000467, 9.999513 
1.2750664e+3, 1.548332e+2, -1345491.0, -1438994.9, -22515.393, -0.071103826, -0.044306025, -1340351.9, 82276.96, 0.00017466526, 10.000753, 9.999508 
1.2750672e+3, 1.6483244e+2, -1265121.6, -1389763.6, -42376.55, -0.00046840272, -0.04968871, -1252079.0, 72557.49, 0.0000047674703, 10.000805, 9.999148 
1.2750664e+3, 1.7483151e+2, -1193438.6, -1299807.4, -32767.592, -0.049067974, -0.06457835, -1184154.6, 42492.21, 0.0, 10.000605, 9.999189 
1.275066e+3, 1.8483086e+2, -1101694.3, -1185692.4, -27661.592, -0.053714786, -0.057547804, -1093403.3, 35250.484, 0.0, 10.000477, 9.999363 
1.2750661e+3, 1.9483048e+2, -1004663.44, -1083390.0, -18363.59, -0.0023818344, -0.03746249, -1000590.7, 30066.316, 0.0, 10.000451, 9.999405 
1.2750658e+3, 2.048297e+2, -939418.56, -1056433.0, -29386.605, 0.006342727, -0.030095242, -932453.1, 211.6161, 0.0, 10.000463, 9.998912 
1.275065e+3, 2.1482852e+2, -832739.7, -950357.1, -45452.375, -0.031868674, -0.044942487, -817222.25, 17454.908, 0.0, 10.000505, 9.998947 
1.2750646e+3, 2.2482757e+2, -698726.6, -786884.3, -37023.445, -0.039762564, -0.0538005, -685240.94, 51444.813, 0.0, 10.0005455, 9.999377 
1.2750646e+3, 2.3482691e+2, -590572.94, -678323.1, -31610.232, -0.013285438, -0.06648091, -580371.9, 58318.42, 0.0, 10.00059, 9.999428 
1.2750646e+3, 2.4482602e+2, -547171.7, -665206.8, -44426.688, -0.0010710008, -0.06968853, -532319.06, 8378.752, 0.0, 10.000468, 9.998904 
1.275064e+3, 2.5482497e+2, -488471.53, -581325.5, -47311.387, -0.005116916, -0.0715427, -468612.53, -25904.184, 0.0, 10.000177, 9.998947 
1.2750638e+3, 2.6482394e+2, -401145.56, -486054.4, -38984.2, -0.0052603893, -0.06797283, -385961.9, -41243.86, 0.0, 10.000094, 9.998968 
1.2750638e+3, 2.7482298e+2, -282872.88, -373435.72, -41491.48, -0.0008014069, -0.070229985, -266738.1, -20010.854, 0.0, 10.000213, 9.999011 
1.2750639e+3, 2.8482178e+2, -184354.67, -308179.34, -27910.777, 0.003951324, -0.07556518, -178354.2, -29615.367, 0.0, 10.000357, 9.998716 
1.2750642e+3, 2.9482043e+2, -58986.418, -196256.17, -28809.326, 0.008465552, -0.08480357, -53185.258, -2432.9788, 0.0, 10.000542, 9.998722 
1.2750645e+3, 3.048198e+2, -44772.727, -215506.3, -33517.836, 0.008965683, 0.0027004445, -38428.37, -38428.37, 0.0, 10.000526, 9.998263 
1.2750654e+3, 3.148169e+2, 40800.785, 24532.682, -20292.045, 0.07387626, -0.120019175, 54528.344, 54528.344, 0.0, 10.000255, 10.000043 
1.2850648e+3, 1.24833256e+2, -1629067.5, -1788930.3, -41281.07, -0.070493534, -0.10705855, -1619036.9, 97589.4, 0.0047468157, 10.001108, 9.998948 
1.285068e+3, 1.3483323e+2, -1493697.0, -1601483.0, 27627.803, 0.15784714, -0.06595786, -1487028.1, 131599.95, 0.0026545508, 10.001024, 9.9996195 
1.2850651e+3, 1.4483312e+2, -1444383.1, -1548422.4, 8299.546, -0.24223788, -0.032616112, -1443725.1, 76904.64, 0.0010215283, 10.000794, 9.99941 
1.2850672e+3, 1.5483233e+2, -1388525.5, -1471631.1, -14619.949, -0.061009288, -0.05313068, -1386028.6, 36608.79, 0.00019628371, 10.00051, 9.9994 
1.2850678e+3, 1.6483153e+2, -1302934.6, -1391924.6, -34772.92, 0.010459325, -0.0672582, -1290958.8, 33686.66, 0.0000059623408, 10.000478, 9.999291 
1.2850668e+3, 1.7483078e+2, -1168996.9, -1271641.1, -31205.453, -0.07033584, -0.077075034, -1160254.5, 66398.53, 0.0, 10.000704, 9.999334 
1.2850663e+3, 1.8483023e+2, -1067310.8, -1174954.8, -42329.254, -0.08070454, -0.06335581, -1052659.5, 75999.12, 0.0, 10.00074, 9.999309 
1.2850666e+3, 1.9482988e+2, -991522.94, -1083371.1, -55973.79, -0.005951784, -0.03484933, -965044.75, 65617.54, 0.0, 10.000569, 9.999348 
1.2850665e+3, 2.0482908e+2, -931318.2, -1052800.9, -55670.844, 0.0143698035, -0.027140109, -909665.6, 23004.75, 0.0, 10.000521, 9.998908 
1.2850656e+3, 2.1482782e+2, -817964.75, -942922.9, -40201.445, -0.027031414, -0.05052159, -806148.56, 28534.475, 0.0, 10.0006075, 9.998948 
1.2850651e+3, 2.2482678e+2, -712195.7, -814620.06, -30889.64, -0.03758386, -0.059380494, -703601.06, 33091.664, 0.0, 10.0005455, 9.9991865 
1.2850651e+3, 2.34826e+2, -643255.2, -724710.6, -50286.55, -0.0135194445, -0.06296175, -619272.1, 19427.143, 0.0, 10.000321, 9.999239 
1.2850648e+3, 2.4482507e+2, -563320.3, -663969.6, -65388.625, -0.005289113, -0.06774508, -531132.94, 9574.683, 0.0, 10.000319, 9.998984 
1.2850644e+3, 2.5482395e+2, -428284.22, -543048.6, -56325.355, -0.014772248, -0.0820448, -405259.56, 37458.063, 0.0, 10.00055, 9.99903 
1.2850639e+3, 2.6482293e+2, -336163.72, -464273.75, -40618.332, -0.013299418, -0.07817617, -324370.9, 20356.152, 0.0, 10.000582, 9.998882 
1.2850639e+3, 2.74822e+2, -260871.11, -372533.0, -44891.63, -0.00009384397, -0.067998774, -245061.63, 1674.7523, 0.0, 10.000405, 9.998924 
1.2850642e+3, 2.8482074e+2, -201232.19, -316404.8, -27753.287, 0.01504058, -0.07575034, -194893.33, -46144.707, 0.0, 10.000241, 9.998715 
1.2850647e+3, 2.9481924e+2, -127697.04, -229397.13, -27529.912, 0.033273946, -0.10213234, -120723.016, -69959.836, 0.0, 10.000069, 9.998723 
1.285065e+3, 3.048187e+2, -107550.94, -228263.06, -23943.992, 0.033982173, -0.0106460005, -102974.96, -102974.96, 0.0, 10.000022, 9.998418 
1.2850657e+3, 3.1481564e+2, 17318.451, -238.44287, 4096.742, 0.08403019, -0.1661357, 18227.338, 18227.338, 0.0, 10.000152, 9.999923 
1.2950654e+3, 1.2483284e+2, -1619433.1, -1770634.3, -34433.914, -0.12519735, -0.07911175, -1611960.6, 104671.31, 0.0050962004, 10.001113, 9.999072 
1.2950686e+3, 1.3483298e+2, -1481495.8, -1574883.5, 23314.479, 0.123017885, -0.040805787, -1475998.9, 142631.67, 0.0028611089, 10.001019, 9.999805 
1.2950657e+3, 1.4483257e+2, -1455077.9, -1569141.5, -4843.793, -0.25266865, -0.0386718, -1454872.5, 65761.945, 0.00111182, 10.000787, 9.999272 
1.295068e+3, 1.5483135e+2, -1396586.3, -1489284.8, -25150.443, -0.027315186, -0.08961847, -1390202.3, 32444.287, 0.000219555, 10.000513, 9.999278 
1.2950687e+3, 1.6483061e+2, -1296528.4, -1379273.0, -27674.412, 0.051132668, -0.094250664, -1288125.8, 36527.99, 0.0000074533, 10.000479, 9.999378 
1.2950675e+3, 1.748305e+2, -1163376.8, -1260185.8, -22854.36, -0.06588315, -0.050120216, -1158252.6, 68402.59, 0.0, 10.000703, 9.999414 
1.2950668e+3, 1.8482997e+2, -1091919.6, -1225704.6, -49781.973, -0.106275044, -0.021340622, -1075428.4, 53233.016, 0.0, 10.000737, 9.998962 
1.2950668e+3, 1.94829e+2, -1016150.56, -1134475.6, -62662.113, -0.04984601, -0.020653151, -989134.56, 41538.293, 0.0, 10.000568, 9.998998 
1.2950666e+3, 2.0482804e+2, -902524.94, -992709.8, -53990.96, -0.016142089, -0.03077485, -877272.9, 55409.074, 0.0, 10.000518, 9.999323 
1.2950663e+3, 2.1482714e+2, -787886.2, -880670.56, -37398.63, -0.012106725, -0.06112056, -774689.0, 59999.23, 0.0, 10.000607, 9.999376 
1.2950659e+3, 2.2482617e+2, -746381.9, -885451.0, -40372.992, -0.012634342, -0.059663534, -735511.0, 1186.0261, 0.0, 10.000545, 9.998701 
1.2950654e+3, 2.3482518e+2, -678429.94, -797854.7, -58262.984, -0.015537842, -0.034676965, -654714.8, -16006.4, 0.0, 10.00032, 9.998738 
1.2950651e+3, 2.4482402e+2, -546302.4, -627933.0, -57142.363, -0.012711439, -0.047192097, -516895.63, 23823.617, 0.0, 10.000315, 9.999234 
1.295065e+3, 2.5482273e+2, -410422.8, -505337.84, -46611.5, -0.003062249, -0.10804794, -391360.8, 51368.473, 0.0, 10.000547, 9.999291 
1.2950647e+3, 2.648217e+2, -342928.56, -478176.78, -46847.7, -0.001414422, -0.112548135, -328286.47, 16451.463, 0.0, 10.000579, 9.998789 
1.2950644e+3, 2.7482098e+2, -268747.38, -386793.47, -49828.1, -0.009333697, -0.0691741, -250526.9, -3781.5935, 0.0, 10.000395, 9.998832 
1.2950644e+3, 2.848196e+2, -200128.89, -312385.84, -33055.766, 0.013153474, -0.08629334, -191118.36, -42359.76, 0.0, 10.000234, 9.998747 
1.2950651e+3, 2.9481763e+2, -124830.984, -223320.14, -31684.584, 0.06763854, -0.16562435, -115518.4, -64741.26, 0.0, 10.000069, 9.998764 
1.2950654e+3, 3.0481735e+2, -82572.92, -178571.81, -19556.383, 0.06825771, -0.066721775, -78741.88, -78741.88, 0.0, 10.000029, 9.998757 
1.2950657e+3, 3.1481513e+2, 15831.318, 1598.9779, 14499.339, 0.07744583, -0.17392191, 24866.64, 24866.64, 0.0, 10.000131, 9.999946 
1.3050663e+3, 1.248326e+2, -1576890.3, -1758715.4, -5230.307, -0.15638529, -0.059603073, -1576740.0, 139894.31, 0.0054552136, 10.001446, 9.998993 
1.3050699e+3, 1.3483235e+2, -1456400.8, -1569957.6, 19126.158, 0.1401084, -0.051874273, -1453266.0, 165370.22, 0.003073975, 10.001224, 9.99974 
1.305067e+3, 1.4483179e+2, -1424727.4, -1550920.3, -12125.565, -0.22772649, -0.06452967, -1423572.9, 97068.68, 0.0012055306, 10.000981, 9.999303 
1.3050686e+3, 1.5483086e+2, -1354865.1, -1465559.6, -21053.164, -0.03967031, -0.09002157, -1350996.1, 71654.734, 0.000244213, 10.000785, 9.99931 
1.305069e+3, 1.6483018e+2, -1274341.5, -1372877.8, -10245.553, 0.030973276, -0.08821175, -1273287.5, 51370.01, 0.000009295233, 10.000651, 9.999338 
1.3050683e+3, 1.7482989e+2, -1181292.9, -1273340.3, -15417.328, -0.062088918, -0.057822045, -1178779.3, 47881.19, 0.0, 10.0006, 9.999373 
1.3050677e+3, 1.8482919e+2, -1111729.1, -1253776.6, -41517.43, -0.10026882, -0.034667164, -1100484.6, 28183.713, 0.0, 10.000683, 9.9987955 
1.3050674e+3, 1.9482808e+2, -979631.94, -1135137.8, -42221.914, -0.067672044, -0.030920977, -968907.75, 61773.902, 0.0, 10.000899, 9.998833 
1.3050671e+3, 2.048271e+2, -846157.9, -964186.94, -43787.465, -0.03730869, -0.035435427, -831687.3, 101003.83, 0.0, 10.000901, 9.999333 
1.305067e+3, 2.1482632e+2, -777944.56, -874143.6, -59262.51, -0.014537996, -0.05650441, -749718.4, 84977.97, 0.0, 10.000669, 9.999391 
1.3050665e+3, 2.2482537e+2, -746742.06, -884902.1, -61185.08, -0.00638456, -0.054904852, -723541.75, 13163.128, 0.0, 10.000539, 9.998708 
1.3050659e+3, 2.3482428e+2, -648614.7, -782460.25, -43193.164, -0.012284275, -0.039638497, -635886.3, 2830.497, 0.0, 10.000521, 9.998746 
1.3050656e+3, 2.4482307e+2, -540012.94, -632595.1, -29709.068, -0.009266263, -0.053823777, -531299.5, 9428.593, 0.0, 10.000391, 9.999166 
1.3050655e+3, 2.5482178e+2, -474979.3, -544104.75, -44808.035, 0.0038586964, -0.10819516, -452952.78, -10214.165, 0.0, 10.000137, 9.999223 
1.3050652e+3, 2.6482078e+2, -413755.2, -505941.66, -52373.242, 0.012420444, -0.11075403, -390080.66, -45333.46, 0.0, 10.000067, 9.998844 
1.3050649e+3, 2.7482006e+2, -293732.22, -392612.84, -45944.906, 0.01593152, -0.07092249, -275679.75, -28925.764, 0.0, 10.000196, 9.998887 
1.305065e+3, 2.848186e+2, -193766.52, -308029.1, -24358.842, 0.039275963, -0.0986416, -188790.34, -40022.645, 0.0, 10.000272, 9.998758 
1.3050656e+3, 2.9481643e+2, -90578.555, -205359.7, -26975.0, 0.083291106, -0.196762, -84555.18, -33767.332, 0.0, 10.000298, 9.998778 
1.3050656e+3, 3.048164e+2, -44537.67, -138149.05, -20155.375, 0.06996219, -0.08656282, -40382.477, -40382.477, 0.0, 10.000196, 9.998954 
1.3050656e+3, 3.1481495e+2, -17335.484, -29323.885, 3222.588, 0.054549217, -0.13494004, -16524.135, -16524.135, 0.0, 9.999964, 9.999816 
1.3150676e+3, 1.24832675e+2, -1599097.6, -1802486.1, -5243.33, -0.17455484, -0.043734036, -1598962.6, 117669.71, 0.005819013, 10.001432, 9.9987 
1.3150717e+3, 1.3483149e+2, -1478142.3, -1615571.1, 10263.821, 0.2049328, -0.098434456, -1477379.9, 141264.3, 0.0032902497, 10.001226, 9.999425 
1.3150685e+3, 1.4483085e+2, -1410444.1, -1522303.8, -21501.053, -0.1737481, -0.11021648, -1406453.6, 114196.7, 0.0013013786, 10.000985, 9.999498 
1.3150688e+3, 1.548309e+2, -1342635.0, -1439636.4, -28604.652, -0.100530095, -0.05570795, -1334828.1, 87821.93, 0.00026992275, 10.000782, 9.99949 
1.3150689e+3, 1.6483028e+2, -1286989.4, -1398922.1, -13953.877, -0.052105434, -0.050214265, -1285276.0, 39380.17, 0.00001153221, 10.000649, 9.999161 
1.3150689e+3, 1.7482902e+2, -1192396.9, -1297223.0, -17622.941, -0.061856803, -0.0983601, -1189513.5, 37154.555, 0.0, 10.000603, 9.999208 
1.3150686e+3, 1.84828e+2, -1111099.0, -1252340.4, -34756.19, -0.06841846, -0.10118237, -1103009.6, 25669.14, 0.0, 10.000681, 9.998807 
1.3150683e+3, 1.9482721e+2, -978733.06, -1133671.8, -34357.074, -0.06217631, -0.066419676, -971456.25, 59232.113, 0.0, 10.000899, 9.998843 
1.3150679e+3, 2.0482633e+2, -873644.44, -1020985.75, -53394.973, -0.051111836, -0.04188838, -856329.44, 76368.375, 0.0, 10.000899, 9.998945 
1.3150674e+3, 2.1482539e+2, -806165.3, -932272.25, -67785.26, -0.0366515, -0.036849845, -776641.4, 58065.516, 0.0, 10.000666, 9.998994 
1.315067e+3, 2.2482438e+2, -713752.1, -815231.9, -63065.76, -0.022449914, -0.044696312, -683548.6, 53167.05, 0.0, 10.000532, 9.999189 
1.3150664e+3, 2.3482333e+2, -614097.9, -710616.4, -43717.902, -0.006302953, -0.077307984, -597240.25, 41483.926, 0.0, 10.000519, 9.999241 
1.315066e+3, 2.4482223e+2, -566200.7, -687057.56, -39410.063, 0.002433228, -0.087837294, -554485.1, -13751.0205, 0.0, 10.000391, 9.998793 
1.3150656e+3, 2.5482112e+2, -502444.9, -600740.3, -53065.67, 0.0030292165, -0.08286121, -479263.75, -36518.38, 0.0, 10.000134, 9.998836 
1.3150655e+3, 2.6482013e+2, -401318.16, -479709.97, -47001.55, 0.025072144, -0.073654026, -379313.84, -34559.168, 0.0, 10.000064, 9.999026 
1.3150656e+3, 2.7481925e+2, -280464.1, -365110.13, -39099.195, 0.07077488, -0.072094835, -265167.78, -18405.643, 0.0, 10.0001955, 9.999077 
1.3150658e+3, 2.8481776e+2, -194166.02, -309741.22, -23271.758, 0.08826318, -0.111717395, -189656.1, -40880.273, 0.0, 10.000274, 9.998747 
1.3150656e+3, 2.9481575e+2, -93878.76, -208122.13, -24013.54, 0.074769184, -0.19505572, -89036.445, -38241.266, 0.0, 10.000278, 9.998769 
1.3150653e+3, 3.0481586e+2, -43557.418, -132659.77, -27291.826, 0.033830885, -0.07054504, -35862.53, -35862.53, 0.0, 10.00018, 9.999001 
1.315065e+3, 3.148152e+2, -35840.113, -66200.67, 1318.0427, 0.007927135, -0.044073794, -35783.004, -35783.004, 0.0, 9.999958, 9.999565 
1.3250694e+3, 1.2483233e+2, -1571485.8, -1782003.5, -17072.096, -0.16160166, -0.05388295, -1570110.3, 146524.78, 0.006183249, 10.001591, 9.998766 
1.3250728e+3, 1.348311e+2, -1507936.5, -1622489.3, 13859.222, 0.19477737, -0.117047496, -1506283.6, 112363.02, 0.0035072896, 10.000991, 9.99949 
1.3250694e+3, 1.448305e+2, -1440800.9, -1549626.6, 4413.8486, -0.18136887, -0.12657325, -1440622.1, 80030.77, 0.0013982238, 10.000833, 9.999384 
1.3250698e+3, 1.5483066e+2, -1284334.8, -1425814.1, -25160.508, -0.096557595, -0.048226323, -1279993.5, 142658.83, 0.00029637254, 10.001244, 9.999362 
1.32507e+3, 1.6482997e+2, -1200155.8, -1372026.0, -29151.879, -0.046206083, -0.03353129, -1195345.8, 129313.73, 0.000014169166, 10.001309, 9.999027 
1.3250695e+3, 1.7482856e+2, -1146341.1, -1289885.6, -32510.248, -0.06287335, -0.08628931, -1139321.5, 87352.15, 0.0, 10.000983, 9.999075 
1.3250694e+3, 1.8482746e+2, -1082178.5, -1215795.3, -30781.248, -0.068258844, -0.098063976, -1075428.4, 53255.926, 0.0, 10.000783, 9.999008 
1.3250692e+3, 1.9482674e+2, -988706.25, -1115329.1, -16529.563, -0.054891605, -0.07718082, -986584.0, 44107.45, 0.0, 10.000732, 9.999049 
1.3250688e+3, 2.0482582e+2, -916858.25, -1064906.8, -28612.385, -0.047195174, -0.056980465, -911520.9, 21180.21, 0.0, 10.000702, 9.998738 
1.3250679e+3, 2.1482474e+2, -818249.2, -961389.9, -31481.096, -0.04822944, -0.04555326, -811631.5, 23081.566, 0.0, 10.000685, 9.998783 
1.3250674e+3, 2.2482367e+2, -694070.2, -794647.0, -30669.826, -0.03419887, -0.053936347, -685455.6, 51267.145, 0.0, 10.000621, 9.999288 
1.325067e+3, 2.3482263e+2, -609519.94, -696268.6, -41434.004, -0.0022404303, -0.094410814, -592910.0, 45820.016, 0.0, 10.0005, 9.999349 
1.3250665e+3, 2.448216e+2, -561041.2, -697192.3, -42321.066, 0.013642957, -0.09841169, -548958.44, -8219.073, 0.0, 10.000482, 9.998678 
1.325066e+3, 2.5482062e+2, -445155.22, -585526.9, -37983.996, 0.011695334, -0.07207089, -435536.06, 7214.635, 0.0, 10.000584, 9.998723 
1.3250656e+3, 2.648196e+2, -350917.2, -458996.47, -31825.219, 0.029058786, -0.05990458, -342242.16, 2518.895, 0.0, 10.000426, 9.998994 
1.3250656e+3, 2.7481848e+2, -313389.2, -384296.7, -41557.844, 0.06870585, -0.07546157, -294216.72, -47446.06, 0.0, 9.999986, 9.999046 
1.3250658e+3, 2.8481713e+2, -255508.0, -328944.47, -21500.264, 0.084493555, -0.10373306, -249676.39, -100893.33, 0.0, 9.999811, 9.998837 
1.3250658e+3, 2.948156e+2, -138160.27, -217831.64, -16597.64, 0.07469587, -0.14629593, -134840.84, -84043.32, 0.0, 9.999926, 9.998872 
1.3250655e+3, 3.0481556e+2, -78480.45, -127118.08, -19773.803, 0.03824975, -0.05412797, -71455.875, -71455.875, 0.0, 9.9998455, 9.999198 
1.3250647e+3, 3.1481493e+2, -96085.66, -99115.41, 19897.662, 0.0023889143, -0.0430448, -77645.29, -77645.29, 0.0, 9.999563, 9.999528 
1.3350713e+3, 1.24831684e+2, -1542886.5, -1723027.6, -33163.105, -0.13025126, -0.08740829, -1536975.4, 179666.44, 0.0065457188, 10.001593, 9.999171 
1.335073e+3, 1.3483131e+2, -1479101.5, -1561107.4, -10294.093, 0.11021843, -0.107616045, -1477829.1, 140813.94, 0.0037237175, 10.000985, 9.999915 
1.3350694e+3, 1.4483073e+2, -1470614.1, -1610497.9, 16616.04, -0.25296694, -0.11380541, -1468667.5, 51981.188, 0.0014951822, 10.000827, 9.998969 
1.3350716e+3, 1.5483017e+2, -1313085.0, -1485834.1, -9170.679, -0.033771135, -0.06721114, -1312599.5, 110057.35, 0.00032323142, 10.001245, 9.99895 
1.335072e+3, 1.6482937e+2, -1208240.1, -1388417.0, -41787.625, 0.03996726, -0.037500784, -1199020.3, 125646.234, 0.000017128494, 10.001307, 9.998917 
1.3350706e+3, 1.748285e+2, -1154097.3, -1306497.1, -45083.914, -0.06751703, -0.023440856, -1141759.1, 84917.39, 0.00000000003443261, 10.000985, 9.998961 
1.3350698e+3, 1.8482763e+2, -1055150.0, -1160027.0, -34442.957, -0.101737276, -0.027711518, -1044850.06, 83834.4, 0.0, 10.000784, 9.999392 
1.33507e+3, 1.9482672e+2, -960737.7, -1057643.5, -18852.158, -0.048345447, -0.06394511, -957199.4, 73491.18, 0.0, 10.000732, 9.999446 
1.3350695e+3, 2.0482562e+2, -920213.5, -1070839.9, -30847.67, -0.030315032, -0.079984024, -914140.9, 18559.822, 0.0, 10.000697, 9.998701 
1.3350686e+3, 2.1482435e+2, -821663.5, -968406.4, -32643.707, -0.052281935, -0.08271541, -814729.4, 19985.408, 0.0, 10.000683, 9.998737 
1.3350679e+3, 2.248232e+2, -712882.25, -833603.44, -36259.203, -0.044111006, -0.08342355, -702828.9, 33897.2, 0.0, 10.00062, 9.999021 
1.3350675e+3, 2.3482221e+2, -628961.8, -736222.9, -45467.277, -0.0020921929, -0.091458485, -612282.25, 26451.834, 0.0, 10.000496, 9.999077 
1.3350672e+3, 2.448212e+2, -553024.5, -679404.7, -38852.516, 0.021796953, -0.085991874, -542035.75, -1292.1359, 0.0, 10.000476, 9.998804 
1.3350667e+3, 2.548202e+2, -436691.53, -567342.2, -33181.723, 0.025978493, -0.07465296, -428747.3, 14007.155, 0.0, 10.00058, 9.99885 
1.3350661e+3, 2.6481906e+2, -367113.84, -492997.47, -47656.78, 0.021272581, -0.06861626, -351107.3, -6340.9727, 0.0, 10.000427, 9.998761 
1.335065e+3, 2.7481773e+2, -330886.94, -419286.5, -56080.42, 0.006519811, -0.081168145, -303682.0, -56902.57, 0.0, 9.999979, 9.998811 
1.3350649e+3, 2.848167e+2, -244470.13, -304726.1, -16263.622, 0.02473559, -0.07536642, -240360.69, -91571.33, 0.0, 9.999804, 9.999007 
1.3350658e+3, 2.9481605e+2, -125132.66, -191066.73, -9582.141, 0.07950155, -0.048691176, -123768.33, -72973.52, 0.0, 9.999926, 9.999056 
1.3350657e+3, 3.0481547e+2, -53625.15, -76065.17, -29336.613, 0.0777421, -0.03501638, -33436.156, -33436.156, 0.0, 9.999847, 9.999549 
1.3350648e+3, 3.1481412e+2, -84777.27, -71216.83, 14413.792, 0.026515005, -0.13185066, -62068.184, -62068.184, 0.0, 9.999544, 9.999729 
1.3450727e+3, 1.2483131e+2, -1572472.1, -1738743.0, -18106.758, -0.12546632, -0.10377585, -1570523.1, 146122.08, 0.0069055543, 10.001397, 9.999157 
1.3450742e+3, 1.348312e+2, -1367028.8, -1510114.5, -37650.24, 0.095092095, -0.09471279, -1357726.5, 260917.36, 0.0039389143, 10.001773, 9.9998865 
1.3450707e+3, 1.4483064e+2, -1355105.4, -1559643.1, -11938.923, -0.2557384, -0.09713584, -1354410.9, 166238.58, 0.0015916337, 10.001642, 9.998925 
1.3450728e+3, 1.5482974e+2, -1352089.6, -1509964.0, -12487.629, -0.02219448, -0.0773219, -1351108.0, 71552.57, 0.0003501717, 10.001001, 9.998901 
1.3450734e+3, 1.6482884e+2, -1283806.0, -1427665.5, -23812.84, 0.05212993, -0.05595137, -1279966.8, 44704.656, 0.000020254476, 10.000801, 9.998891 
1.3450716e+3, 1.7482807e+2, -1139466.8, -1302106.0, -21007.5, -0.068567455, -0.029730452, -1136797.1, 89883.555, 0.0000000014653116, 10.001097, 9.998938 
1.3450707e+3, 1.8482724e+2, -1006114.4, -1139263.9, -26004.234, -0.10369283, -0.02515955, -1001215.94, 127472.36, 0.0, 10.001133, 9.999366 
1.3450709e+3, 1.9482638e+2, -942838.9, -1051399.6, -43457.19, -0.040405028, -0.055539783, -927585.94, 103108.25, 0.0, 10.000867, 9.999424 
1.3450705e+3, 2.0482533e+2, -906965.7, -1047658.56, -58028.27, -0.018848296, -0.072534256, -886120.56, 46582.98, 0.0, 10.000716, 9.998851 
1.3450694e+3, 2.1482414e+2, -809635.75, -945401.1, -45979.656, -0.045190975, -0.083937295, -795529.5, 39186.855, 0.0, 10.000691, 9.998892 
1.3450685e+3, 2.2482301e+2, -717888.4, -850645.25, -39172.563, -0.044149905, -0.08382261, -707191.6, 29535.906, 0.0, 10.00065, 9.998889 
1.345068e+3, 2.34822e+2, -623611.1, -747784.1, -40786.242, -0.012566635, -0.080333695, -611412.7, 27323.963, 0.0, 10.000598, 9.998947 
1.3450675e+3, 2.4482097e+2, -548539.75, -662425.3, -27862.67, 0.00956949, -0.07666478, -542088.44, -1341.9758, 0.0, 10.000446, 9.998933 
1.345067e+3, 2.5481993e+2, -485340.44, -575587.7, -22901.59, 0.021570602, -0.08230637, -479861.44, -37104.53, 0.0, 10.000183, 9.998983 
1.3450663e+3, 2.6481885e+2, -404578.6, -510625.2, -28500.094, 0.021440798, -0.07616798, -397404.5, -52636.41, 0.0, 10.000171, 9.998762 
1.3450652e+3, 2.748177e+2, -263679.03, -386156.9, -21634.29, 0.007832023, -0.06953952, -259969.9, -13189.762, 0.0, 10.000441, 9.998814 
1.345065e+3, 2.8481677e+2, -174374.17, -260150.4, 17704.578, 0.022490254, -0.060325027, -170863.56, -22074.309, 0.0, 10.000241, 9.999102 
1.3450654e+3, 2.9481608e+2, -174861.63, -203290.33, 16741.297, 0.06891301, -0.04910467, -167114.22, -116319.97, 0.0, 9.999537, 9.999158 
1.3450652e+3, 3.0481508e+2, -127415.836, -108257.27, -6771.6777, 0.077913165, -0.08181101, -106105.48, -106105.48, 0.0, 9.999329, 9.9995775 
1.3450643e+3, 3.148144e+2, -72686.54, -64348.387, 11662.172, 0.040004507, -0.116125055, -56132.492, -56132.492, 0.0, 9.999624, 9.999738 
1.355074e+3, 1.2483133e+2, -1604966.6, -1804139.8, -1104.8094, -0.1520273, -0.10169849, -1604960.5, 111684.0, 0.0072628423, 10.001386, 9.998714 
1.3550764e+3, 1.3483089e+2, -1399671.5, -1576773.8, -23653.477, 0.14276627, -0.079633266, -1396566.9, 222081.66, 0.004152666, 10.00177, 9.999429 
1.3550729e+3, 1.4483027e+2, -1334836.3, -1517896.6, -36558.633, -0.20033997, -0.07824264, -1327805.3, 192849.27, 0.0016872559, 10.001643, 9.999212 
1.3550735e+3, 1.5482947e+2, -1331565.3, -1468323.8, -36942.45, -0.06257612, -0.07776675, -1322224.0, 100438.77, 0.0003769789, 10.001004, 9.9991865 
1.3550735e+3, 1.6482843e+2, -1279241.3, -1418324.6, -15128.32, -0.009506157, -0.08772588, -1277614.8, 47058.96, 0.000023370363, 10.000801, 9.998956 
1.3550727e+3, 1.748273e+2, -1134144.8, -1291508.5, -9832.135, -0.06917033, -0.104217015, -1133532.9, 93152.914, 0.0000000068048798, 10.001099, 9.99901 
1.3550721e+3, 1.848264e+2, -1036860.44, -1202554.6, -36683.43, -0.08131078, -0.08863078, -1029102.25, 99592.83, 0.0, 10.001129, 9.998934 
1.3550718e+3, 1.9482577e+2, -973392.56, -1115431.9, -53527.95, -0.03350025, -0.052305363, -955479.5, 75222.22, 0.0, 10.000868, 9.998984 
1.3550712e+3, 2.04825e+2, -883574.94, -999412.44, -60232.117, -0.014509913, -0.036415365, -857932.4, 74776.83, 0.0, 10.000716, 9.999182 
1.3550702e+3, 2.1482411e+2, -785621.4, -894997.0, -46988.85, -0.029565103, -0.0501806, -768207.06, 66510.234, 0.0, 10.000688, 9.99924 
1.3550693e+3, 2.248231e+2, -719691.0, -852823.0, -42298.785, -0.037578, -0.055615153, -707388.6, 29338.203, 0.0, 10.000643, 9.9988785 
1.3550684e+3, 2.3482199e+2, -625722.8, -751341.2, -42535.125, -0.036762785, -0.06103522, -612675.4, 26062.248, 0.0, 10.000592, 9.998925 
1.3550675e+3, 2.4482088e+2, -538801.9, -641596.3, -37884.566, -0.025810616, -0.071162485, -526348.4, 14399.69, 0.0, 10.000443, 9.999078 
1.3550669e+3, 2.5481978e+2, -475709.63, -554299.06, -31639.104, -0.004192037, -0.0957018, -464555.28, -21797.383, 0.0, 10.000176, 9.999133 
1.3550666e+3, 2.6481894e+2, -391360.25, -481498.56, -18106.855, 0.026682224, -0.08319857, -387858.97, -43092.645, 0.0, 10.000163, 9.998967 
1.3550663e+3, 2.7481842e+2, -250117.61, -356787.0, -9661.961, 0.06714966, -0.039050143, -249249.5, -2476.5586, 0.0, 10.000434, 9.999019 
1.3550657e+3, 2.848173e+2, -172991.34, -256985.13, -7524.475, 0.071475856, -0.05620378, -172322.6, -23539.682, 0.0, 10.000239, 9.9991255 
1.3550647e+3, 2.9481557e+2, -174713.34, -201478.28, -7339.294, 0.036816955, -0.14716999, -172832.92, -122036.625, 0.0, 9.99953, 9.999175 
1.355064e+3, 3.0481434e+2, -149301.63, -151988.27, 4920.405, 0.033683553, -0.19554694, -145544.47, -145544.47, 0.0, 9.99932, 9.999282 
1.3550639e+3, 3.148155e+2, -84925.58, -87870.164, 27032.121, 0.036716405, -0.010945345, -59325.684, -59325.684, 0.0, 9.999616, 9.999581 
1.3650757e+3, 1.24831505e+2, -1531129.0, -1778812.1, 3316.561, -0.13971281, -0.08227553, -1531084.5, 185558.0, 0.0076198755, 10.001938, 9.998623 
1.3650781e+3, 1.3483067e+2, -1462068.9, -1615905.5, 1781.9651, 0.16015182, -0.08979004, -1462048.3, 156602.36, 0.004366158, 10.00138, 9.999346 
1.3650745e+3, 1.4483e+2, -1402733.5, -1545901.0, -9547.989, -0.17421845, -0.09259209, -1402099.5, 118557.58, 0.0017823466, 10.001156, 9.999255 
1.3650747e+3, 1.548292e+2, -1276114.8, -1437498.3, -28205.814, -0.059350956, -0.095877066, -1271327.1, 151337.75, 0.0004035849, 10.001368, 9.999224 
1.3650745e+3, 1.6482827e+2, -1184579.9, -1357769.3, -2411.32, -0.015740003, -0.10289916, -1184546.3, 140127.92, 0.000026350568, 10.001386, 9.999089 
1.3650739e+3, 1.7482738e+2, -1114019.6, -1266708.9, 6128.773, -0.06679352, -0.10813842, -1113774.0, 112909.45, 0.000000016360648, 10.001171, 9.9991455 
1.3650732e+3, 1.848265e+2, -1062339.6, -1230867.6, -14259.11, -0.07888435, -0.09267602, -1061141.6, 67551.32, 0.0, 10.001022, 9.998791 
1.3650726e+3, 1.9482557e+2, -969043.44, -1129859.9, -10490.661, -0.0443578, -0.070245825, -968362.0, 62341.246, 0.0, 10.000968, 9.998837 
1.3650718e+3, 2.0482472e+2, -867927.6, -992915.3, -16945.092, -0.025089018, -0.054357484, -865671.0, 67040.836, 0.0, 10.00083, 9.999171 
1.3650708e+3, 2.1482399e+2, -799768.94, -902057.94, -31277.268, -0.02427569, -0.052262053, -790963.25, 43755.02, 0.0, 10.000595, 9.999235 
1.3650699e+3, 2.2482309e+2, -741723.8, -851726.2, -32331.818, -0.02618057, -0.052865442, -732924.75, 3802.002, 0.0, 10.000443, 9.9989805 
1.3650689e+3, 2.3482199e+2, -650584.7, -752085.5, -24778.729, -0.03090008, -0.06649959, -644858.6, -6121.328, 0.0, 10.000375, 9.999025 
1.3650678e+3, 2.4482094e+2, -553960.1, -642464.3, -21950.27, -0.028150402, -0.0787195, -548815.25, -8068.083, 0.0, 10.000313, 9.999134 
1.365067e+3, 2.5481993e+2, -458407.13, -538766.4, -24646.049, -0.017286308, -0.099537395, -451450.47, -8694.48, 0.0, 10.000267, 9.999194 
1.3650665e+3, 2.6481915e+2, -401443.38, -471579.16, -14299.317, 0.019530017, -0.09079803, -398640.06, -53876.336, 0.0, 10.000033, 9.999095 
1.3650665e+3, 2.7481866e+2, -364760.8, -397349.25, -13112.659, 0.083812244, -0.0566212, -360139.88, -113369.98, 0.0, 9.999588, 9.9991455 
1.3650657e+3, 2.8481776e+2, -264303.34, -298676.53, -13795.044, 0.08850151, -0.06167644, -259451.75, -110673.64, 0.0, 9.999605, 9.999144 
1.3650644e+3, 2.9481634e+2, -88669.305, -157413.16, -15587.977, 0.031309646, -0.12195911, -85299.82, -34511.094, 0.0, 10.000112, 9.999196 
1.3650638e+3, 3.048146e+2, -59656.297, -137008.23, -3226.3855, 0.02986815, -0.2055909, -59521.957, -59521.957, 0.0, 10.000058, 9.999029 
1.3650635e+3, 3.1481564e+2, -118668.3, -105316.625, 18526.22, 0.035453577, -0.011437188, -92300.14, -92300.14, 0.0, 9.999388, 9.999571 
1.375078e+3, 1.24831855e+2, -1515653.6, -1745464.8, -17860.87, -0.09975924, -0.051880974, -1514273.9, 202365.48, 0.0079810945, 10.001932, 9.998857 
1.3750795e+3, 1.3483065e+2, -1443161.5, -1576327.4, -20398.771, 0.14737509, -0.12241385, -1440106.9, 178542.83, 0.0045821774, 10.001379, 9.9996195 
1.3750756e+3, 1.4482991e+2, -1415610.1, -1573075.3, -4560.592, -0.17817102, -0.13689478, -1415478.1, 105178.5, 0.0018779465, 10.001157, 9.999068 
1.3750765e+3, 1.54829e+2, -1289361.0, -1465151.0, -19928.695, -0.01815726, -0.13293844, -1287130.1, 135536.23, 0.00043006244, 10.001367, 9.999035 
1.3750765e+3, 1.6482843e+2, -1172125.9, -1331128.1, -11055.515, 0.024575317, -0.10355409, -1171360.9, 153311.67, 0.000029160963, 10.001382, 9.999275 
1.3750751e+3, 1.7482838e+2, -1100604.5, -1239060.6, -2479.961, -0.063196816, -0.04282229, -1100560.0, 126113.3, 0.000000027808229, 10.001171, 9.999336 
1.3750741e+3, 1.8482755e+2, -1053239.5, -1211924.9, -18361.684, -0.097687356, -0.039079886, -1051142.5, 77539.25, 0.0, 10.001021, 9.998922 
1.3750732e+3, 1.9482584e+2, -959652.4, -1110395.1, -13155.072, -0.07495429, -0.109410614, -958513.0, 72185.484, 0.0, 10.000967, 9.998972 
1.3750724e+3, 2.0482455e+2, -892648.9, -1043385.3, -27107.967, -0.053554088, -0.12488946, -887922.06, 44788.992, 0.0, 10.000825, 9.998828 
1.3750714e+3, 2.1482383e+2, -824992.8, -953753.1, -40155.34, -0.0322868, -0.08872009, -813496.44, 21222.338, 0.0, 10.00059, 9.998882 
1.3750704e+3, 2.2482297e+2, -727719.9, -821869.25, -35827.71, -0.013421819, -0.07561197, -715636.7, 21090.252, 0.0, 10.00044, 9.999187 
1.3750696e+3, 2.3482202e+2, -635736.2, -720447.75, -27038.893, 0.0024960844, -0.09614907, -627841.5, 10894.028, 0.0, 10.00037, 9.999245 
1.3750684e+3, 2.4482115e+2, -557609.06, -648996.44, -23917.018, -0.00005152411, -0.099312045, -551728.2, -10984.551, 0.0, 10.000307, 9.999093 
1.3750672e+3, 2.5482038e+2, -462362.7, -546012.5, -25297.85, -0.022225989, -0.09254175, -455307.1, -12556.069, 0.0, 10.000261, 9.999147 
1.3750663e+3, 2.6481944e+2, -397946.5, -464357.6, -30474.848, -0.0040000523, -0.09786864, -386081.84, -41321.516, 0.0, 10.000032, 9.9991455 
1.3750657e+3, 2.7481842e+2, -361109.63, -389934.28, -28039.465, 0.05409556, -0.123576924, -343995.34, -97224.04, 0.0, 9.999587, 9.999198 
1.3750651e+3, 2.8481802e+2, -264569.66, -298325.6, 5587.8926, 0.06931989, -0.07892494, -263668.7, -114893.5, 0.0, 9.9996, 9.999148 
1.3750647e+3, 2.9481834e+2, -90168.63, -157103.2, 6268.0757, 0.045570612, 0.028350983, -89586.72, -38815.17, 0.0, 10.000096, 9.999206 
1.3750641e+3, 3.0481592e+2, -76189.74, -169938.11, -26158.506, 0.058699906, -0.109743655, -69384.73, -69384.73, 0.0, 10.00005, 9.998808 
1.3750628e+3, 3.148145e+2, -111063.625, -88173.56, -3993.8638, 0.026838025, -0.13598901, -87496.73, -87496.73, 0.0, 9.999381, 9.999693 
1.38508e+3, 1.2483187e+2, -1557587.8, -1772670.3, -398.6299, -0.07939299, -0.07836116, -1557587.0, 159051.6, 0.008351057, 10.001675, 9.998793 
1.3850811e+3, 1.3483094e+2, -1362708.6, -1540931.0, -27803.043, 0.1444805, -0.12026952, -1358472.1, 260175.3, 0.004803759, 10.00195, 9.999587 
1.3850771e+3, 1.4483044e+2, -1314717.5, -1525508.8, -15718.873, -0.17434815, -0.108157024, -1313551.9, 207100.39, 0.0019753822, 10.001857, 9.999058 
1.3850778e+3, 1.5482932e+2, -1287843.9, -1466132.1, -19924.092, -0.017167361, -0.120911926, -1285644.4, 137018.9, 0.00045665295, 10.001385, 9.99902 
1.3850777e+3, 1.6482863e+2, -1220487.9, -1359920.3, -12855.396, 0.027333084, -0.101266935, -1219312.5, 105358.15, 0.00003186285, 10.001074, 9.999227 
1.3850763e+3, 1.7482851e+2, -1134213.0, -1260787.0, -22922.324, -0.052131444, -0.042313553, -1130189.8, 96482.41, 0.000000039188958, 10.000965, 9.999286 
1.385075e+3, 1.8482773e+2, -1063183.3, -1203271.8, -42957.617, -0.08526583, -0.036663037, -1051059.8, 77620.24, 0.0, 10.000897, 9.999041 
1.3850743e+3, 1.948262e+2, -965911.1, -1099701.8, -39774.723, -0.07015161, -0.10007486, -954979.6, 75714.98, 0.0, 10.000867, 9.999093 
1.3850732e+3, 2.0482498e+2, -893211.75, -1035103.8, -43516.996, -0.053742453, -0.11987062, -880928.8, 51777.523, 0.0, 10.000785, 9.998903 
1.3850719e+3, 2.1482414e+2, -811336.25, -939330.4, -26415.322, -0.036059618, -0.10133599, -806099.0, 28615.56, 0.0, 10.00065, 9.998953 
1.3850708e+3, 2.2482324e+2, -723739.9, -824366.3, -12373.239, -0.01640463, -0.095650196, -722240.75, 14482.49, 0.0, 10.000486, 9.999147 
1.38507e+3, 2.3482229e+2, -648961.56, -730432.2, -24364.904, 0.00487057, -0.11263331, -642230.94, -3498.8289, 0.0, 10.000298, 9.999209 
1.3850687e+3, 2.4482149e+2, -580941.44, -658746.94, -27005.71, 0.0037430422, -0.10688192, -572486.7, -31746.781, 0.0, 10.000145, 9.999102 
1.3850674e+3, 2.5482088e+2, -496336.22, -561291.8, -25230.066, -0.02180337, -0.08513127, -487687.84, -44941.617, 0.0, 10.000027, 9.999154 
1.3850664e+3, 2.6481995e+2, -387972.3, -452561.97, -28539.326, -0.009092472, -0.09571933, -377169.0, -32413.424, 0.0, 10.000073, 9.999206 
1.3850656e+3, 2.7481866e+2, -252877.94, -330622.0, -27418.76, 0.042542905, -0.14985202, -244180.83, 2587.1147, 0.0, 10.0003, 9.999261 
1.3850649e+3, 2.8481838e+2, -199864.44, -265191.88, 6712.0376, 0.06020998, -0.096173294, -199181.94, -50410.96, 0.0, 10.000039, 9.999163 
1.3850643e+3, 2.948192e+2, -211316.1, -212845.16, 5415.921, 0.04826853, 0.060055424, -206611.02, -155846.98, 0.0, 9.999257, 9.999226 
1.3850638e+3, 3.0481684e+2, -217044.2, -230696.66, -14804.847, 0.07583643, -0.07973699, -207567.64, -207567.64, 0.0, 9.999055, 9.998868 
1.3850623e+3, 3.1481516e+2, -68524.13, -15442.239, 26180.145, 0.04357466, -0.14256702, -4702.8726, -4702.8726, 0.0, 9.999453, 10.000155 
1.3950817e+3, 1.2483161e+2, -1582560.3, -1824136.4, 7842.555, -0.08251402, -0.16181278, -1582305.9, 134333.92, 0.008733579, 10.001669, 9.998444 
1.395083e+3, 1.3483153e+2, -1386851.6, -1588744.4, -17545.197, 0.1464387, -0.08583402, -1385338.3, 233304.84, 0.005033633, 10.001941, 9.999262 
1.395079e+3, 1.4483155e+2, -1305784.8, -1505561.9, -34444.625, -0.17088585, -0.011001669, -1300012.8, 220630.77, 0.002076125, 10.001849, 9.999199 
1.3950789e+3, 1.5483023e+2, -1277316.3, -1444882.3, -38103.695, -0.057058763, -0.06035491, -1269058.6, 153596.86, 0.00048381835, 10.001387, 9.999166 
1.3950783e+3, 1.6482893e+2, -1239282.3, -1400671.6, -18977.305, -0.008587789, -0.09424225, -1237080.9, 87587.086, 0.000034571214, 10.00108, 9.998944 
1.3950774e+3, 1.7482784e+2, -1153393.1, -1301582.3, -27071.508, -0.037167333, -0.105325386, -1148602.5, 78076.555, 0.00000005013657, 10.000968, 9.999005 
1.3950764e+3, 1.8482712e+2, -1056597.0, -1189032.9, -45066.746, -0.04766664, -0.08453399, -1042716.1, 85970.664, 0.0, 10.000894, 9.99914 
1.3950755e+3, 1.9482674e+2, -958858.1, -1084777.4, -40887.99, -0.033602953, -0.043512728, -946746.2, 83944.91, 0.0, 10.000865, 9.999197 
1.3950743e+3, 2.0482601e+2, -860725.94, -966574.44, -49517.19, -0.029864753, -0.04216568, -841173.06, 91524.34, 0.0, 10.000779, 9.999377 
1.3950726e+3, 2.1482497e+2, -777863.6, -869430.94, -31635.998, -0.03771897, -0.09091618, -767996.8, 66708.69, 0.0, 10.000648, 9.999434 
1.3950711e+3, 2.2482389e+2, -744101.25, -866482.3, -20602.521, -0.03686345, -0.11298983, -740725.94, -4010.612, 0.0, 10.000484, 9.99886 
1.39507e+3, 2.348228e+2, -670541.0, -774600.7, -31129.064, -0.026488198, -0.11524236, -661939.8, -23212.988, 0.0, 10.000294, 9.998909 
1.3950688e+3, 2.4482197e+2, -577204.5, -650294.5, -31584.178, -0.020426486, -0.10133824, -565447.4, -24711.635, 0.0, 10.00014, 9.999163 
1.3950676e+3, 2.5482142e+2, -492028.28, -551810.75, -28612.729, -0.019433636, -0.078875095, -480541.1, -37799.535, 0.0, 10.000023, 9.999222 
1.3950665e+3, 2.6482058e+2, -384275.2, -444458.63, -19428.389, 0.0007836181, -0.086157694, -378548.28, -33798.64, 0.0, 10.00007, 9.999264 
1.395066e+3, 2.7481946e+2, -250016.75, -322322.47, -16612.156, 0.042966805, -0.13235784, -246382.77, 376.78607, 0.0, 10.000289, 9.999324 
1.3950649e+3, 2.8481892e+2, -199553.86, -264229.5, -21230.145, 0.05476439, -0.10978921, -193207.66, -44442.4, 0.0, 10.000035, 9.999172 
1.3950635e+3, 2.9481897e+2, -212052.08, -214348.97, -21765.041, 0.033362325, -0.028944675, -191405.2, -140638.44, 0.0, 9.999255, 9.999217 
1.3950628e+3, 3.048173e+2, -191867.52, -178661.9, -109.41842, 0.07520606, -0.11721637, -178661.0, -178661.0, 0.0, 9.999056, 9.999226 
1.3950622e+3, 3.1481734e+2, -15627.678, 98418.016, 42023.605, 0.07395048, -0.041722827, 112230.1, 112230.1, 0.0, 9.999435, 10.000946 
1.4050837e+3, 1.2483241e+2, -1523322.1, -1799704.0, -9273.977, -0.07563766, -0.119100325, -1523011.3, 193622.5, 0.009133226, 10.002098, 9.9984045 
1.4050849e+3, 1.3483186e+2, -1430834.9, -1611288.6, -12858.078, 0.14460036, -0.08615311, -1429923.4, 188717.63, 0.005275387, 10.001644, 9.999249 
1.4050809e+3, 1.4483196e+2, -1358910.3, -1533652.6, -23547.957, -0.16361162, -0.004660913, -1355792.6, 164847.94, 0.0021822979, 10.001496, 9.999175 
1.4050804e+3, 1.548307e+2, -1231813.3, -1425525.4, -40277.145, -0.060381122, -0.0460109, -1223772.5, 198879.28, 0.00051218417, 10.001712, 9.99914 
1.4050797e+3, 1.648293e+2, -1159465.0, -1365269.5, -21872.596, -0.013815346, -0.08440526, -1157166.1, 167498.7, 0.000037386584, 10.001643, 9.998915 
1.4050785e+3, 1.7482802e+2, -1110027.6, -1284012.5, -13070.261, -0.031976156, -0.11291539, -1109051.3, 117626.4, 0.00000006103049, 10.001281, 9.998975 
1.4050774e+3, 1.8482722e+2, -1049488.9, -1178221.3, -20734.559, -0.036527418, -0.1001905, -1046231.7, 82454.055, 0.0, 10.000912, 9.999206 
1.4050762e+3, 1.9482693e+2, -1000634.5, -1097248.1, -20818.443, -0.025438668, -0.056974996, -996339.44, 34349.504, 0.0, 10.000546, 9.999264 
1.4050749e+3, 2.0482638e+2, -912793.75, -979080.75, -37843.266, -0.021611359, -0.047006417, -895632.1, 37061.46, 0.0, 10.000369, 9.999488 
1.4050733e+3, 2.1482562e+2, -805836.75, -869711.25, -47735.832, -0.025892945, -0.08050777, -780339.7, 54359.668, 0.0, 10.0004015, 9.99955 
1.4050716e+3, 2.2482467e+2, -756150.1, -863447.94, -40675.645, -0.029648514, -0.099405944, -742473.56, -5765.5527, 0.0, 10.000365, 9.998937 
1.4050701e+3, 2.3482355e+2, -671873.94, -767313.1, -24986.025, -0.03434562, -0.110756755, -665728.3, -27008.855, 0.0, 10.00025, 9.99898 
1.4050688e+3, 2.4482267e+2, -579358.8, -654235.5, -12317.765, -0.028096754, -0.1025304, -577384.5, -36655.85, 0.0, 10.000137, 9.999137 
1.4050676e+3, 2.5482208e+2, -492207.72, -554765.06, -17852.297, -0.010607684, -0.08445328, -487471.7, -44736.355, 0.0, 10.000034, 9.999196 
1.4050667e+3, 2.648213e+2, -413916.44, -447612.22, -8681.018, 0.013134582, -0.08744198, -411811.44, -67068.83, 0.0, 9.99982, 9.999361 
1.4050658e+3, 2.7482045e+2, -359712.2, -362962.34, -4852.76, 0.04446222, -0.11771521, -356219.63, -109469.98, 0.0, 9.999486, 9.99943 
1.4050646e+3, 2.848198e+2, -293654.5, -312810.38, -16730.178, 0.051269468, -0.1065579, -283954.56, -135198.52, 0.0, 9.999405, 9.999142 
1.4050628e+3, 2.9481938e+2, -164771.4, -195966.05, -21017.04, 0.03238639, -0.06957774, -154196.36, -103433.97, 0.0, 9.999598, 9.999178 
1.4050622e+3, 3.04818e+2, -130069.266, -160637.27, -4151.757, 0.07901574, -0.12162238, -129515.41, -129515.41, 0.0, 9.999531, 9.999121 
1.4050613e+3, 3.1481823e+2, -37477.863, 112615.88, -4777.213, 0.06902661, -0.019566026, 112767.78, 112767.78, 0.0, 9.999178, 10.001168 
1.4150858e+3, 1.2483423e+2, -1507820.9, -1764897.1, -32041.662, -0.066341355, 0.041200984, -1503887.5, 212732.9, 0.009556688, 10.002088, 9.99865 
1.4150862e+3, 1.3483204e+2, -1412163.5, -1571983.6, -30282.625, 0.13755159, -0.1177931, -1406618.0, 212021.95, 0.0055341963, 10.001644, 9.99952 
1.4150824e+3, 1.4483172e+2, -1369950.3, -1558416.1, -17675.31, -0.15552425, -0.08297136, -1368306.9, 152335.39, 0.0022969088, 10.001502, 9.999003 
1.4150824e+3, 1.5483074e+2, -1245310.8, -1452417.8, -31818.6, -0.032921515, -0.07649376, -1240532.6, 182119.06, 0.0005425403, 10.001706, 9.99896 
1.4150815e+3, 1.6482979e+2, -1147083.4, -1337560.1, -36482.414, 0.004755872, -0.0722842, -1140334.9, 184325.75, 0.000040406845, 10.001633, 9.99911 
1.4150797e+3, 1.7482904e+2, -1095796.9, -1254748.4, -26853.22, -0.038250793, -0.06708696, -1091382.9, 135284.72, 0.00000007226826, 10.00128, 9.999176 
1.4150782e+3, 1.8482806e+2, -1047487.1, -1174785.0, -35562.68, -0.054826982, -0.084298864, -1038225.94, 90450.625, 0.0, 10.000914, 9.999229 
1.4150767e+3, 1.9482681e+2, -998575.44, -1094107.8, -34583.844, -0.04681933, -0.1382674, -987370.0, 43317.715, 0.0, 10.000549, 9.999285 
1.4150752e+3, 2.0482613e+2, -929638.75, -1014260.75, -37941.66, -0.03099531, -0.13200042, -915118.5, 17575.9, 0.0, 10.000369, 9.999247 
1.4150739e+3, 2.1482608e+2, -823327.9, -905609.44, -46162.152, -0.0040735644, -0.07002167, -802634.1, 32061.727, 0.0, 10.000398, 9.999306 
1.4150722e+3, 2.2482553e+2, -727569.3, -802636.1, -45366.668, -0.00009444293, -0.055713434, -706222.44, 30478.633, 0.0, 10.000358, 9.999359 
1.4150704e+3, 2.3482452e+2, -641555.0, -704464.7, -28733.37, -0.020808173, -0.10010955, -630406.9, 8302.998, 0.0, 10.000249, 9.999413 
1.415069e+3, 2.448236e+2, -587486.5, -671291.5, -16217.64, -0.02153925, -0.11152863, -584457.56, -43738.945, 0.0, 10.000137, 9.999021 
1.4150678e+3, 2.5482282e+2, -501810.38, -573533.5, -20560.299, 0.0006049432, -0.09893101, -496334.56, -53607.402, 0.0, 10.000028, 9.999071 
1.4150666e+3, 2.6482213e+2, -405467.44, -429895.44, -20429.799, 0.022911303, -0.09643132, -393878.94, -49144.72, 0.0, 9.999817, 9.999485 
1.4150654e+3, 2.7482155e+2, -351057.16, -345004.56, -15836.674, 0.04238963, -0.10855539, -331907.63, -85168.93, 0.0, 9.999485, 9.999555 
1.415064e+3, 2.8482106e+2, -296579.5, -319038.2, -9326.85, 0.04526573, -0.08974364, -293211.3, -144467.44, 0.0, 9.999404, 9.9991 
1.4150627e+3, 2.9482055e+2, -169326.7, -204114.92, -11079.95, 0.03910325, -0.058083355, -166097.52, -115347.06, 0.0, 9.999591, 9.9991255 
1.4150618e+3, 3.0481905e+2, -170831.56, -246060.83, -15333.834, 0.08068528, -0.08676797, -167826.17, -167826.17, 0.0, 9.999532, 9.998534 
1.41506e+3, 3.148178e+2, -67129.375, 51561.676, -19354.213, 0.020771654, -0.076662935, 54637.918, 54637.918, 0.0, 9.999175, 10.0007515 
1.425088e+3, 1.24835126e+2, -1526624.1, -1771314.6, 6788.585, -0.047922075, 0.050508507, -1526435.9, 190176.31, 0.010011913, 10.001946, 9.998673 
1.425088e+3, 1.3483286e+2, -1335294.1, -1532569.1, -6044.9165, 0.11823945, -0.11944998, -1335109.1, 283523.03, 0.0058154534, 10.002164, 9.999541 
1.425084e+3, 1.448326e+2, -1312252.6, -1537934.9, -3223.8994, -0.16381441, -0.0744355, -1312206.6, 208426.89, 0.002423067, 10.001934, 9.998935 
1.4250842e+3, 1.5483132e+2, -1313432.4, -1493420.8, -11419.801, -0.013311656, -0.09208372, -1312710.8, 109935.36, 0.00057589856, 10.001273, 9.998886 
1.425083e+3, 1.6483039e+2, -1238094.1, -1369372.4, -10860.199, 0.028769655, -0.08858557, -1237201.8, 87453.336, 0.00004378684, 10.0009575, 9.999217 
1.4250809e+3, 1.7482997e+2, -1128068.9, -1257475.1, -9308.231, -0.033479758, -0.05998883, -1127402.9, 99255.58, 0.00000008454083, 10.001006, 9.999288 
1.425079e+3, 1.8482909e+2, -1038824.8, -1167109.9, -24209.584, -0.060776494, -0.07508614, -1034408.1, 94257.89, 0.0, 10.00096, 9.999257 
1.4250773e+3, 1.9482768e+2, -954781.1, -1069396.0, -23585.682, -0.05576327, -0.14846328, -950117.4, 80560.76, 0.0, 10.000837, 9.999314 
1.4250755e+3, 2.0482685e+2, -894395.9, -1007537.94, -15567.879, -0.039354805, -0.15377875, -892292.9, 40393.36, 0.0, 10.000656, 9.999154 
1.4250742e+3, 2.1482666e+2, -828849.0, -919052.0, -14437.28, -0.0096023055, -0.09384641, -826594.6, 8094.9443, 0.0, 10.000406, 9.999209 
1.4250727e+3, 2.2482623e+2, -742835.4, -798740.7, -19413.3, 0.000411666, -0.068592556, -736755.25, -61.12483, 0.0, 10.000204, 9.99946 
1.4250706e+3, 2.3482557e+2, -661979.3, -701680.5, -28475.434, -0.011226909, -0.089588724, -647118.25, -8418.548, 0.0, 10.000055, 9.999524 
1.4250691e+3, 2.4482475e+2, -614059.06, -673346.75, -20256.553, -0.0088587515, -0.10208337, -607799.06, -67091.87, 0.0, 9.999908, 9.999116 
1.4250678e+3, 2.548238e+2, -533790.94, -577731.7, -9232.275, 0.009367239, -0.11516661, -531929.94, -89213.61, 0.0, 9.999761, 9.99917 
1.4250663e+3, 2.6482305e+2, -444356.44, -469491.75, -13794.108, 0.02317923, -0.111996226, -438263.34, -93539.31, 0.0, 9.99964, 9.999299 
1.4250647e+3, 2.7482256e+2, -353811.4, -367958.0, -34297.813, 0.029085832, -0.09780987, -325865.13, -79135.805, 0.0, 9.999557, 9.999363 
1.4250632e+3, 2.8482202e+2, -279362.94, -307938.1, -25467.145, 0.030529188, -0.07628047, -264449.3, -115713.97, 0.0, 9.99951, 9.9991255 
1.4250621e+3, 2.9482135e+2, -180274.44, -205899.17, -23986.482, 0.03707209, -0.064031065, -165892.9, -115150.516, 0.0, 9.999502, 9.999156 
1.4250612e+3, 3.048201e+2, -195970.28, -272284.78, -19781.178, 0.08612583, -0.0623662, -191147.64, -191147.64, 0.0, 9.99942, 9.998406 
1.4250593e+3, 3.1481794e+2, -62068.64, 42499.78, 5432.7104, 0.02131662, -0.1306335, 42781.27, 42781.27, 0.0, 9.999257, 10.0006485 
1.4350903e+3, 1.2483518e+2, -1540490.3, -1798398.4, 8459.285, -0.023094721, -0.08914495, -1540213.1, 176395.78, 0.010506618, 10.001938, 9.998492 
1.4350899e+3, 1.3483436e+2, -1351803.5, -1563662.4, 2116.4548, 0.08097546, -0.09200374, -1351782.3, 266834.53, 0.006123269, 10.002152, 9.999332 
1.4350857e+3, 1.4483465e+2, -1312487.1, -1537635.0, -29605.676, -0.19585457, 0.017893964, -1308659.3, 211954.6, 0.002563054, 10.001928, 9.99894 
1.4350854e+3, 1.5483245e+2, -1311236.8, -1490501.6, -36418.06, -0.0041283686, -0.09378453, -1304120.8, 118514.09, 0.0006133788, 10.001279, 9.998904 
1.4350842e+3, 1.6483112e+2, -1236057.6, -1366814.8, -10911.012, 0.05503178, -0.13106601, -1235153.4, 89494.02, 0.000047750204, 10.000963, 9.999231 
1.435082e+3, 1.7483085e+2, -1127119.0, -1255515.5, -7683.802, -0.020647833, -0.0899186, -1126660.9, 99988.65, 0.00000010052836, 10.001005, 9.999302 
1.43508e+3, 1.8483032e+2, -1037160.4, -1163059.0, -30351.18, -0.0585352, -0.07190128, -1030225.44, 98428.33, 0.0, 10.000956, 9.999289 
1.435078e+3, 1.9482948e+2, -952290.4, -1064689.3, -28324.283, -0.055968665, -0.09117493, -945556.2, 85104.12, 0.0, 10.000837, 9.999348 
1.4350761e+3, 2.048285e+2, -892199.1, -1002113.06, -25758.64, -0.051411502, -0.11475161, -886461.94, 46207.305, 0.0, 10.000651, 9.999194 
1.4350744e+3, 2.148274e+2, -826158.3, -913804.44, -23696.37, -0.043310475, -0.15142253, -820161.94, 14518.526, 0.0, 10.000406, 9.999246 
1.4350726e+3, 2.2482678e+2, -757723.6, -829779.9, -25907.703, -0.028879102, -0.13714555, -749375.7, -12688.513, 0.0, 10.000203, 9.999248 
1.4350708e+3, 2.3482668e+2, -677513.75, -733810.0, -33492.56, -0.008660847, -0.07821155, -661911.8, -23223.047, 0.0, 10.000053, 9.999306 
1.4350691e+3, 2.448261e+2, -593194.56, -629303.2, -25862.98, 0.0050110705, -0.07324311, -579707.6, -39013.45, 0.0, 9.999904, 9.999421 
1.4350675e+3, 2.54825e+2, -512001.16, -532491.94, -13875.36, 0.012765924, -0.13478237, -504998.56, -62295.48, 0.0, 9.999759, 9.999483 
1.4350659e+3, 2.648241e+2, -477833.7, -539189.0, -16385.176, 0.012281973, -0.13622443, -473732.16, -129019.98, 0.0, 9.9996395, 9.998821 
1.435064e+3, 2.7482352e+2, -388633.9, -439921.4, -35212.33, 0.0015604746, -0.08240014, -370717.22, -123996.24, 0.0, 9.999554, 9.998872 
1.4350624e+3, 2.8482273e+2, -274793.9, -298675.75, -24375.47, 0.0023082998, -0.06266251, -259591.72, -110861.78, 0.0, 9.999509, 9.999189 
1.4350614e+3, 2.9482174e+2, -177088.61, -197933.42, -21909.906, 0.019707208, -0.090455875, -163248.48, -112509.805, 0.0, 9.999495, 9.999215 
1.4350608e+3, 3.0482107e+2, -170778.97, -218606.5, -25228.697, 0.090199046, -0.051226024, -159931.33, -159931.33, 0.0, 9.9994135, 9.998779 
1.435059e+3, 3.148189e+2, -48462.723, 72187.08, -1434.808, 0.06385494, -0.16022773, 72204.14, 72204.14, 0.0, 9.999251, 10.000856 
1.4450921e+3, 1.2483643e+2, -1516991.9, -1791026.3, -3661.252, -0.037548516, -0.09862953, -1516943.0, 199652.88, 0.011047917, 10.002122, 9.998452 
1.4450918e+3, 1.348355e+2, -1429556.4, -1610846.1, 1277.9624, 0.08797838, -0.10631563, -1429547.4, 189058.55, 0.00646129, 10.001659, 9.999243 
1.4450875e+3, 1.4483596e+2, -1366384.1, -1559075.4, -25999.568, -0.17739032, 0.025438592, -1362937.6, 157663.7, 0.0027186894, 10.00154, 9.99898 
1.4450867e+3, 1.5483388e+2, -1234879.9, -1448418.9, -31673.941, -0.016645834, -0.079198346, -1230280.9, 192340.23, 0.0006559602, 10.001783, 9.998948 
1.4450853e+3, 1.6483252e+2, -1141428.3, -1331023.0, -9227.002, 0.036145415, -0.11635745, -1140980.3, 183653.53, 0.000052490832, 10.00166, 9.999139 
1.4450833e+3, 1.7483209e+2, -1109360.9, -1257833.1, -16496.271, -0.018177351, -0.08316808, -1107550.1, 119087.76, 0.00000012546444, 10.001176, 9.999203 
1.4450811e+3, 1.8483147e+2, -1056409.6, -1174887.0, -41916.008, -0.04859188, -0.06735355, -1043079.9, 85563.26, 0.0, 10.000835, 9.999265 
1.4450787e+3, 1.9483067e+2, -982270.56, -1081645.9, -45791.97, -0.057005234, -0.08050439, -964387.75, 66261.63, 0.0, 10.000644, 9.999324 
1.4450766e+3, 2.0482972e+2, -915260.56, -1007453.1, -45825.957, -0.05507191, -0.10193469, -896357.7, 36300.184, 0.0, 10.000469, 9.999245 
1.4450747e+3, 2.1482866e+2, -834950.4, -911805.25, -43971.35, -0.040262025, -0.14078407, -814981.4, 19686.98, 0.0, 10.000321, 9.999299 
1.4450727e+3, 2.2482796e+2, -759314.8, -834698.56, -35563.12, -0.029919168, -0.13339388, -745185.7, -8510.286, 0.0, 10.000212, 9.999209 
1.4450707e+3, 2.3482773e+2, -668716.8, -734345.56, -31637.404, -0.026499836, -0.08551387, -655949.3, -17270.75, 0.0, 10.000134, 9.999262 
1.4450689e+3, 2.448271e+2, -585032.1, -622565.06, -30680.738, -0.017102435, -0.081562944, -567833.5, -27149.332, 0.0, 9.999947, 9.999448 
1.4450671e+3, 2.548261e+2, -527136.2, -536818.4, -41765.254, -0.00081539276, -0.13457794, -489932.4, -47240.41, 0.0, 9.99964, 9.999511 
1.4450653e+3, 2.6482525e+2, -497410.88, -554803.25, -31002.379, 0.0058836318, -0.13073753, -483862.3, -139161.63, 0.0, 9.999531, 9.998766 
1.4450637e+3, 2.7482465e+2, -381835.94, -442265.84, -18544.672, 0.0016538111, -0.07461439, -376598.84, -129889.19, 0.0, 9.999625, 9.998819 
1.445062e+3, 2.848237e+2, -273539.16, -293118.16, 2449.811, 0.0013994873, -0.07188512, -273237.28, -124517.21, 0.0, 9.999496, 9.999233 
1.4450607e+3, 2.9482237e+2, -226919.88, -217755.92, 1315.6427, 0.009423369, -0.13732423, -217570.78, -166839.06, 0.0, 9.999133, 9.999252 
1.4450598e+3, 3.048223e+2, -226345.53, -219275.22, -2973.499, 0.08204059, -0.053576156, -218190.95, -218190.95, 0.0, 9.998921, 9.999011 
1.4450583e+3, 3.148205e+2, -107220.4, 39082.535, 3069.055, 0.07717347, -0.14774099, 39146.887, 39146.887, 0.0, 9.99887, 10.000811 
1.4550936e+3, 1.2483893e+2, -1511660.1, -1780056.1, -31031.701, -0.09793531, 0.016935153, -1508119.0, 208453.73, 0.011640448, 10.00212, 9.99853 
1.4550939e+3, 1.348363e+2, -1429490.9, -1610842.3, -16017.233, 0.13608034, -0.16141684, -1428087.0, 190511.58, 0.0068325973, 10.001659, 9.999244 
1.4550897e+3, 1.4483662e+2, -1361500.5, -1548286.3, -19412.52, -0.11163924, -0.04735273, -1359504.4, 161090.75, 0.0028915813, 10.001537, 9.999054 
1.4550883e+3, 1.5483566e+2, -1230486.6, -1437550.3, -22530.494, -0.05445712, -0.048536234, -1228063.4, 194540.64, 0.00070428615, 10.001778, 9.999025 
1.4550863e+3, 1.6483463e+2, -1156649.8, -1363365.0, -28705.63, -0.032959532, -0.045138124, -1152737.5, 171876.28, 0.000058062662, 10.00166, 9.998919 
1.4550842e+3, 1.7483369e+2, -1123833.3, -1289655.3, -34573.434, -0.029616699, -0.04220202, -1116913.6, 109709.66, 0.00000016567238, 10.001181, 9.998983 
1.455082e+3, 1.8483254e+2, -1062665.6, -1188025.3, -50375.406, -0.036149807, -0.06149376, -1044931.2, 83702.51, 0.0, 10.000835, 9.999174 
1.4550793e+3, 1.9483127e+2, -988052.44, -1094663.0, -52678.594, -0.06026421, -0.11508919, -966414.5, 64230.555, 0.0, 10.000647, 9.999233 
1.4550771e+3, 2.0483053e+2, -911219.75, -999457.94, -52518.543, -0.052310176, -0.11449384, -886748.1, 45903.71, 0.0, 10.000469, 9.9993 
1.4550753e+3, 2.148304e+2, -830503.5, -902902.8, -49079.383, -0.005787222, -0.064665884, -805717.9, 28935.297, 0.0, 10.000321, 9.999361 
1.455073e+3, 2.2482978e+2, -751565.4, -817337.56, -39117.81, -0.008679864, -0.059702065, -733346.7, 3312.2344, 0.0, 10.000204, 9.999332 
1.4550704e+3, 2.3482867e+2, -660065.5, -716095.44, -33732.457, -0.06597438, -0.111958556, -644231.7, -5562.723, 0.0, 10.000133, 9.99939 
1.4550683e+3, 2.4482778e+2, -602839.94, -659346.94, -42004.492, -0.07536498, -0.12746693, -580470.94, -39793.813, 0.0, 9.999945, 9.999197 
1.4550664e+3, 2.548272e+2, -545528.0, -574824.7, -51892.61, -0.033703793, -0.11377291, -506255.88, -63572.99, 0.0, 9.999639, 9.999251 
1.4550649e+3, 2.6482654e+2, -473359.47, -504160.47, -26917.084, 0.00013607279, -0.094604954, -457748.6, -113059.21, 0.0, 9.999527, 9.999116 
1.4550634e+3, 2.7482593e+2, -357515.88, -390034.06, -13318.138, 0.024081416, -0.07543729, -352757.56, -106061.91, 0.0, 9.999617, 9.999183 
1.4550617e+3, 2.8482485e+2, -270850.97, -286850.84, -10254.361, 0.023894899, -0.10534513, -265845.1, -117138.94, 0.0, 9.999492, 9.999279 
1.4550596e+3, 2.9482323e+2, -225185.19, -214035.66, -10248.32, 0.0030332063, -0.20226666, -207943.97, -157222.69, 0.0, 9.999131, 9.999281 
1.4550586e+3, 3.0482373e+2, -220522.83, -208093.28, -3635.3413, 0.057447232, -0.06676675, -207108.11, -207108.11, 0.0, 9.998923, 9.999086 
1.4550568e+3, 3.1482294e+2, -133429.25, -13845.826, -188.25201, 0.05223551, -0.0685043, -13845.529, -13845.529, 0.0, 9.998862, 10.000452 
1.4650957e+3, 1.2484053e+2, -1544097.4, -1781696.3, -34842.355, -0.09116587, 0.03247839, -1539093.4, 177464.33, 0.012283001, 10.001836, 9.998655 
1.4650957e+3, 1.3483782e+2, -1393209.8, -1591398.8, -11847.749, 0.1338428, -0.15574953, -1392504.0, 226080.23, 0.00723705, 10.001903, 9.99926 
1.4650916e+3, 1.4483818e+2, -1319139.6, -1527513.0, -8610.426, -0.10625692, -0.03870519, -1318784.5, 201795.7, 0.0030819494, 10.001832, 9.999052 
1.4650899e+3, 1.5483719e+2, -1249579.9, -1446479.3, -19748.205, -0.053378694, -0.04325723, -1247618.6, 174970.47, 0.0007585455, 10.001646, 9.999026 
1.4650878e+3, 1.6483605e+2, -1196137.9, -1391804.4, -36739.32, -0.038851824, -0.047390345, -1189467.0, 135132.97, 0.00006440502, 10.001431, 9.998833 
1.4650853e+3, 1.7483486e+2, -1128767.4, -1301156.8, -34613.87, -0.044809736, -0.057256773, -1122076.9, 104534.74, 0.00000022299002, 10.00119, 9.998898 
1.4650828e+3, 1.8483374e+2, -1038881.2, -1172470.0, -33509.75, -0.048514396, -0.07288093, -1030946.75, 97675.48, 0.0, 10.000984, 9.9992075 
1.4650802e+3, 1.9483271e+2, -959406.5, -1076969.3, -27709.838, -0.058777723, -0.1038218, -953202.6, 77428.69, 0.0, 10.00083, 9.999266 
1.4650777e+3, 2.0483203e+2, -891984.44, -995568.8, -27074.867, -0.048288405, -0.0963979, -885334.5, 47303.047, 0.0, 10.000626, 9.999251 
1.4650756e+3, 2.1483175e+2, -828836.56, -908010.6, -33627.176, -0.012748648, -0.05661482, -816482.1, 18158.197, 0.0, 10.000359, 9.999308 
1.4650732e+3, 2.2483104e+2, -769289.2, -823137.56, -30271.762, -0.016794898, -0.060241748, -755700.5, -19053.768, 0.0, 10.000071, 9.999357 
1.4650704e+3, 2.3482987e+2, -712901.7, -738422.44, -34016.7, -0.064821586, -0.12063805, -689330.75, -50674.01, 0.0, 9.999757, 9.999416 
1.465068e+3, 2.44829e+2, -652139.44, -695851.9, -36708.234, -0.07615302, -0.13177957, -631273.44, -90608.33, 0.0, 9.999662, 9.999082 
1.465066e+3, 2.5482845e+2, -530837.06, -580751.06, -37374.383, -0.04838878, -0.100175574, -510853.06, -68181.71, 0.0, 9.999797, 9.999134 
1.4650641e+3, 2.6482782e+2, -447145.5, -470959.03, -16906.615, -0.016845902, -0.084655866, -438373.66, -93696.02, 0.0, 9.999619, 9.999299 
1.4650628e+3, 2.7482712e+2, -418458.9, -398587.47, -18137.307, 0.017511304, -0.09329044, -387842.75, -141159.61, 0.0, 9.999108, 9.999369 
1.4650609e+3, 2.8482607e+2, -362380.44, -338794.8, -21786.855, 0.019720884, -0.12525935, -325813.9, -177120.92, 0.0, 9.998898, 9.999208 
1.4650588e+3, 2.9482466e+2, -247000.36, -232686.33, -31663.186, -0.007091488, -0.19456519, -207381.36, -156674.11, 0.0, 9.999018, 9.999206 
1.4650574e+3, 3.0482525e+2, -186410.03, -159989.72, -18596.125, 0.039679244, -0.057616282, -150389.27, -150389.27, 0.0, 9.999022, 9.999369 
1.4650556e+3, 3.148246e+2, -136217.89, -28741.242, -6031.7583, 0.044558298, -0.07435422, -28403.79, -28403.79, 0.0, 9.998902, 10.000327 
1.4750983e+3, 1.2484134e+2, -1532880.3, -1756364.5, -41664.492, -0.01957598, -0.046028882, -1525365.4, 191184.56, 0.012969934, 10.001827, 9.998835 
1.4750971e+3, 1.3484012e+2, -1390465.1, -1585087.5, -9311.257, 0.076263085, -0.0910592, -1390020.8, 228541.45, 0.0076708426, 10.001902, 9.999304 
1.4750928e+3, 1.448407e+2, -1324733.5, -1541785.3, -16926.799, -0.1682418, 0.050624836, -1323421.4, 197134.58, 0.0032881629, 10.001841, 9.998952 
1.475092e+3, 1.5483852e+2, -1256032.0, -1459614.5, -26461.904, -0.017338328, -0.062969856, -1252648.8, 169927.05, 0.00081847684, 10.001642, 9.998939 
1.4750898e+3, 1.6483682e+2, -1194206.8, -1386882.5, -47534.26, 0.013051866, -0.11980875, -1183117.9, 141473.7, 0.000071419374, 10.001427, 9.998869 
1.4750864e+3, 1.7483573e+2, -1126001.5, -1296141.1, -43691.824, -0.066380166, -0.12608446, -1115437.4, 111165.14, 0.0000002932695, 10.001193, 9.998931 
1.4750834e+3, 1.8483509e+2, -1027926.7, -1150990.9, -40342.582, -0.089261755, -0.10036578, -1015880.75, 112727.6, 0.0, 10.000988, 9.999354 
1.475081e+3, 1.9483505e+2, -948387.6, -1055147.8, -33379.113, -0.056594167, -0.049092755, -938810.6, 91797.59, 0.0, 10.000832, 9.999415 
1.4750783e+3, 2.0483428e+2, -904147.4, -1019893.4, -38016.51, -0.047769785, -0.049436945, -892777.75, 39837.465, 0.0, 10.00062, 9.999087 
1.4750755e+3, 2.148328e+2, -840445.4, -932694.75, -43319.195, -0.062013973, -0.11453957, -823292.6, 11336.819, 0.0, 10.0003605, 9.999138 
1.475073e+3, 2.248318e+2, -774789.1, -835009.1, -42656.78, -0.05495262, -0.13301277, -752685.94, -16047.384, 0.0, 10.000072, 9.999276 
1.4750706e+3, 2.3483138e+2, -718076.8, -749879.3, -44973.402, -0.02714112, -0.111491, -686276.3, -47634.47, 0.0, 9.999759, 9.999337 
1.4750682e+3, 2.4483071e+2, -651714.25, -694486.94, -31725.578, -0.024635809, -0.09557894, -634839.8, -94191.516, 0.0, 9.99966, 9.999093 
1.4750658e+3, 2.548299e+2, -530638.4, -579027.56, -30930.836, -0.04880385, -0.09399252, -515563.47, -72906.016, 0.0, 9.99979, 9.999148 
1.4750634e+3, 2.6482904e+2, -445866.03, -468309.6, -34855.457, -0.04731229, -0.10095252, -420470.44, -75804.91, 0.0, 9.999617, 9.99932 
1.4750613e+3, 2.748282e+2, -417407.8, -396518.1, -35488.66, -0.020338695, -0.12679884, -369969.2, -123297.17, 0.0, 9.999107, 9.999385 
1.4750594e+3, 2.8482732e+2, -376301.66, -367753.94, -16876.79, -0.014132116, -0.1300491, -354618.25, -205937.88, 0.0, 9.998898, 9.99901 
1.4750575e+3, 2.9482657e+2, -262412.22, -263082.88, -24830.855, -0.025496367, -0.11606293, -237914.42, -187224.42, 0.0, 9.99901, 9.999001 
1.4750563e+3, 3.0482683e+2, -151105.75, -86509.29, -22047.309, 0.025138188, -0.028628163, -79701.77, -79701.77, 0.0, 9.999019, 9.999876 
1.4750546e+3, 3.1482574e+2, -127611.55, -10756.832, -10233.863, 0.04526017, -0.14048608, -9867.345, -9867.345, 0.0, 9.9989, 10.000454 
1.4851004e+3, 1.2484294e+2, -1526494.6, -1748236.6, -25992.715, -0.0043356484, -0.06741869, -1523488.5, 193044.86, 0.013700743, 10.001854, 9.998876 
1.4850987e+3, 1.3484189e+2, -1384085.3, -1591194.9, 3341.6348, 0.056101203, -0.08891116, -1384031.4, 234513.13, 0.00813248, 10.001986, 9.999222 
1.4850944e+3, 1.4484245e+2, -1323783.9, -1536261.3, -19029.436, -0.17768241, 0.05428032, -1322093.0, 198445.61, 0.0035089266, 10.001827, 9.998997 
1.4850937e+3, 1.5484022e+2, -1294688.1, -1471542.8, -19215.594, 0.0035786375, -0.07037619, -1292624.4, 129934.516, 0.0008836724, 10.00135, 9.998997 
1.4850913e+3, 1.6483858e+2, -1229047.5, -1390587.8, -21146.414, 0.041701864, -0.13090456, -1226325.3, 98248.8, 0.00007901186, 10.001134, 9.998983 
1.4850876e+3, 1.7483762e+2, -1113901.6, -1277751.6, -13219.577, -0.055472653, -0.13380669, -1112842.0, 113741.125, 0.00000037325287, 10.001223, 9.9990425 
1.4850843e+3, 1.8483704e+2, -1023986.44, -1160296.8, -23531.197, -0.08666255, -0.10375679, -1020038.6, 108549.9, 0.0, 10.001063, 9.999254 
1.4850818e+3, 1.9483696e+2, -983883.2, -1083319.6, -36750.953, -0.053713746, -0.045218557, -971774.75, 58814.473, 0.0, 10.000638, 9.999314 
1.485079e+3, 2.0483609e+2, -928696.3, -1033735.56, -37161.934, -0.05140213, -0.049954653, -916878.4, 15719.049, 0.0, 10.000463, 9.999067 
1.4850758e+3, 2.1483439e+2, -813913.1, -922351.25, -32666.75, -0.07996824, -0.13280755, -804832.7, 29780.605, 0.0, 10.000554, 9.999115 
1.485073e+3, 2.2483338e+2, -718730.7, -813703.5, -31928.008, -0.07289169, -0.14833039, -708995.1, 27627.457, 0.0, 10.0004835, 9.999223 
1.4850706e+3, 2.3483317e+2, -653168.1, -725323.06, -34436.293, -0.030444827, -0.10168241, -639371.3, -747.0896, 0.0, 10.000235, 9.999276 
1.485068e+3, 2.4483249e+2, -617761.7, -680432.6, -16107.931, -0.021742959, -0.0836695, -613863.94, -73233.06, 0.0, 9.999904, 9.99907 
1.4850654e+3, 2.5483143e+2, -577367.9, -604174.9, -20017.322, -0.048625883, -0.10510476, -566681.0, -124038.75, 0.0, 9.999482, 9.999124 
1.485063e+3, 2.6483053e+2, -486844.72, -494136.1, -27883.85, -0.052998327, -0.1122923, -462369.22, -117718.336, 0.0, 9.999364, 9.999263 
1.4850606e+3, 2.7482983e+2, -353146.66, -371773.2, -35017.586, -0.035522636, -0.11488673, -326225.0, -79568.79, 0.0, 9.9995775, 9.999328 
1.4850585e+3, 2.8482905e+2, -298788.63, -326110.8, -12264.557, -0.029398404, -0.111581996, -294090.94, -145426.89, 0.0, 9.999413, 9.999046 
1.4850564e+3, 2.948282e+2, -284542.47, -269923.1, -5025.674, -0.030189112, -0.10804453, -268362.1, -217688.45, 0.0, 9.998843, 9.999034 
1.485055e+3, 3.0482808e+2, -208272.73, -97622.52, 1498.0419, 0.013827485, -0.07007335, -97602.24, -97602.24, 0.0, 9.998558, 10.000021 
1.4850532e+3, 3.1482756e+2, -179498.33, -42244.035, -17157.61, 0.038916934, -0.1364163, -40131.74, -40131.74, 0.0, 9.998573, 10.000393 
1.4951017e+3, 1.24845415e+2, -1535614.8, -1766006.0, -33219.8, -0.04752476, -0.030135956, -1530920.4, 185587.11, 0.014485369, 10.001849, 9.998755 
1.495101e+3, 1.3484319e+2, -1401801.8, -1625490.5, 8670.481, 0.07176536, -0.1465543, -1401466.1, 217064.45, 0.008627366, 10.001977, 9.998989 
1.4950967e+3, 1.4484353e+2, -1310063.5, -1507867.6, -38219.266, -0.13760485, -0.023041265, -1302935.8, 217591.67, 0.0037456865, 10.001826, 9.999193 
1.495095e+3, 1.5484233e+2, -1279323.1, -1441667.1, -37327.383, 0.0050995816, -0.06547219, -1271151.8, 151386.3, 0.0009542572, 10.001358, 9.999199 
1.4950925e+3, 1.6484132e+2, -1215190.0, -1364414.1, -19573.06, 0.041461445, -0.081670165, -1212665.4, 111881.48, 0.00008722728, 10.001143, 9.999159 
1.4950892e+3, 1.7484054e+2, -1101831.9, -1252699.3, -10125.448, -0.015297225, -0.08315603, -1101155.4, 125397.84, 0.0000004647829, 10.001221, 9.999217 
1.495086e+3, 1.8483959e+2, -1049002.8, -1211162.9, -40668.273, -0.045400433, -0.0837456, -1039375.1, 89187.34, 0.0, 10.001058, 9.998908 
1.4950824e+3, 1.948385e+2, -1007738.8, -1134492.3, -52770.055, -0.052728336, -0.0904711, -988645.6, 41928.324, 0.0, 10.000644, 9.9989605 
1.4950792e+3, 2.048375e+2, -920524.94, -1017615.44, -34765.953, -0.06172207, -0.0966644, -909359.94, 23224.016, 0.0, 10.000464, 9.999178 
1.4950764e+3, 2.148366e+2, -805381.6, -904634.06, -28856.672, -0.0703881, -0.11269593, -797601.6, 36990.32, 0.0, 10.000553, 9.999238 
1.4950734e+3, 2.2483581e+2, -722444.3, -820246.25, -41810.17, -0.074925326, -0.10856722, -707007.1, 29591.695, 0.0, 10.000477, 9.999182 
1.4950703e+3, 2.3483525e+2, -656227.3, -731276.6, -43247.26, -0.07637591, -0.09105818, -636494.44, 2109.4526, 0.0, 10.000232, 9.999237 
1.4950675e+3, 2.448343e+2, -622898.0, -691255.7, -31686.021, -0.068545766, -0.09508554, -610470.0, -69857.1, 0.0, 9.999903, 9.998998 
1.4950648e+3, 2.54833e+2, -582742.5, -615383.2, -34497.543, -0.05025364, -0.1322604, -560899.56, -118273.86, 0.0, 9.999481, 9.999048 
1.4950626e+3, 2.6483223e+2, -495965.84, -512844.97, -19655.852, -0.037440293, -0.11866051, -483014.3, -138380.5, 0.0, 9.999362, 9.999136 
1.4950603e+3, 2.7483204e+2, -362660.5, -390334.0, -25085.2, -0.032392435, -0.059275493, -347849.0, -101212.89, 0.0, 9.999572, 9.999203 
1.4950578e+3, 2.8483114e+2, -281072.75, -289670.3, -32167.29, -0.030053766, -0.07101484, -252918.28, -104273.984, 0.0, 9.999413, 9.999298 
1.4950553e+3, 2.9482955e+2, -268060.6, -234712.95, -24351.447, -0.026871772, -0.16736558, -221873.9, -171215.63, 0.0, 9.9988365, 9.99928 
1.4950533e+3, 3.048289e+2, -223381.13, -128106.58, 2193.7231, 0.00024627865, -0.17942621, -128056.09, -128056.09, 0.0, 9.998553, 9.999814 
1.4950517e+3, 3.1483003e+2, -195022.89, -73473.805, -12988.286, 0.017276295, -0.06428016, -72101.42, -72101.42, 0.0, 9.99857, 10.00018 
1.5051031e+3, 1.2484753e+2, -1547647.1, -1760290.3, -22454.41, -0.08180699, -0.05051316, -1545301.9, 171183.42, 0.015336017, 10.001716, 9.99886 
1.505103e+3, 1.3484521e+2, -1439747.1, -1643145.0, 46800.992, 0.09862182, -0.17758282, -1429495.1, 189013.73, 0.009162785, 10.001712, 9.998996 
1.505099e+3, 1.4484549e+2, -1320245.6, -1519676.1, -6437.922, -0.093750775, -0.058318045, -1320038.0, 200468.7, 0.0040015904, 10.001788, 9.999128 
1.5050966e+3, 1.5484457e+2, -1193316.1, -1406699.5, -27288.467, -0.012266227, -0.066049024, -1189881.6, 232633.95, 0.001031135, 10.001977, 9.999141 
1.5050936e+3, 1.6484371e+2, -1132956.9, -1326769.4, -32935.313, 0.014961728, -0.06393955, -1127513.0, 197010.5, 0.000096309515, 10.001716, 9.999143 
1.5050906e+3, 1.7484292e+2, -1140806.0, -1272721.4, -38309.2, 0.0064171017, -0.065210074, -1130487.9, 96042.04, 0.000000575819, 10.000959, 9.999205 
1.505087e+3, 1.848418e+2, -1107028.8, -1243259.9, -54165.02, -0.01470191, -0.07954424, -1088118.0, 40422.59, 0.0, 10.00068, 9.998869 
1.5050831e+3, 1.9484039e+2, -969410.9, -1121052.3, -44731.67, -0.057664104, -0.115006275, -957199.2, 73355.91, 0.0, 10.00093, 9.998915 
1.5050799e+3, 2.0483938e+2, -865110.7, -991446.6, -22294.902, -0.06901152, -0.11671849, -861291.7, 71273.336, 0.0, 10.000849, 9.999172 
1.5050772e+3, 2.1483888e+2, -827003.44, -915603.9, -27270.287, -0.044676855, -0.09245841, -819282.75, 15286.832, 0.0, 10.000409, 9.999231 
1.5050739e+3, 2.2483817e+2, -768208.5, -852049.9, -43095.227, -0.05023391, -0.07824639, -750008.1, -13431.881, 0.0, 10.000207, 9.999093 
1.5050705e+3, 2.3483728e+2, -659524.44, -743196.94, -49871.113, -0.08910614, -0.0831557, -636265.4, 2319.3271, 0.0, 10.000256, 9.999144 
1.5050672e+3, 2.4483621e+2, -582588.7, -665024.94, -43954.22, -0.09356064, -0.098155044, -563549.75, -22955.082, 0.0, 10.000154, 9.999056 
1.5050645e+3, 2.5483498e+2, -518584.1, -577638.56, -38816.453, -0.062190168, -0.13507059, -499340.7, -56734.74, 0.0, 9.999894, 9.999107 
1.5050618e+3, 2.6483417e+2, -467236.16, -498774.75, -4745.3203, -0.04249158, -0.12620589, -466537.66, -121923.66, 0.0, 9.99956, 9.999136 
1.5050596e+3, 2.748339e+2, -425302.66, -420621.28, -2270.3633, -0.036218695, -0.0762556, -419701.06, -173083.34, 0.0, 9.999144, 9.9992 
1.505057e+3, 2.8483313e+2, -337468.66, -301998.5, -13839.704, -0.027377978, -0.08092274, -297237.56, -148613.1, 0.0, 9.998962, 9.99943 
1.5050544e+3, 2.9483193e+2, -229274.61, -200862.83, -16449.607, -0.012493184, -0.1521052, -193334.03, -142700.19, 0.0, 9.999039, 9.999414 
1.505052e+3, 3.0483085e+2, -193734.66, -133435.13, 9351.755, -0.0026789762, -0.20676272, -132018.08, -132018.08, 0.0, 9.998841, 9.9996395 
1.5050499e+3, 3.1483215e+2, -226010.28, -88187.24, -3832.6287, -0.0029214153, -0.05738604, -88080.75, -88080.75, 0.0, 9.998356, 10.000184 
1.5151046e+3, 1.2484944e+2, -1524621.8, -1710557.1, -36636.1, -0.106632516, -0.11711151, -1517663.5, 198801.66, 0.01625663, 10.001712, 9.999204 
1.515105e+3, 1.3484801e+2, -1422190.3, -1606304.6, 46435.52, 0.13089405, -0.18275873, -1411141.8, 207337.05, 0.0097409645, 10.001711, 9.999249 
1.5151012e+3, 1.4484835e+2, -1344148.9, -1568980.9, -938.41876, -0.05301613, -0.052231196, -1344145.0, 176331.1, 0.0042781597, 10.001785, 9.998793 
1.5150982e+3, 1.5484698e+2, -1217875.6, -1456403.1, -19888.941, -0.049211387, -0.07180679, -1216228.5, 206262.6, 0.0011151112, 10.00197, 9.998803 
1.5150948e+3, 1.648458e+2, -1146264.5, -1353960.6, -61996.027, -0.039532438, -0.07576276, -1129166.6, 195336.7, 0.000106548556, 10.001712, 9.998959 
1.5150914e+3, 1.748448e+2, -1153001.6, -1299740.3, -66702.695, 0.006230397, -0.07867093, -1127213.0, 99299.305, 0.0000007145684, 10.000965, 9.999017 
1.515088e+3, 1.8484373e+2, -1089174.8, -1207834.5, -45975.69, 0.0008009016, -0.09074926, -1073446.0, 55076.285, 0.0, 10.000686, 9.99911 
1.515084e+3, 1.9484264e+2, -951662.25, -1084823.3, -35061.92, -0.07012534, -0.119139545, -942994.5, 87538.02, 0.0, 10.000931, 9.999165 
1.5150806e+3, 2.048418e+2, -874595.94, -1010665.8, -39306.55, -0.075455904, -0.11083298, -864057.6, 68483.04, 0.0, 10.000845, 9.9990425 
1.515078e+3, 2.148413e+2, -836746.0, -935631.1, -43505.33, -0.00642337, -0.07193747, -820330.5, 14215.381, 0.0, 10.000407, 9.999095 
1.5150747e+3, 2.2484045e+2, -778975.5, -873692.0, -41955.477, -0.0030637218, -0.05723727, -763063.94, -26509.305, 0.0, 10.000202, 9.998947 
1.515071e+3, 2.3483926e+2, -669810.7, -764636.5, -46964.637, -0.07100972, -0.077756725, -650487.8, -11921.271, 0.0, 10.000255, 9.998997 
1.5150672e+3, 2.448382e+2, -570506.56, -639445.2, -53135.22, -0.10015323, -0.093469284, -541639.56, -1063.3009, 0.0, 10.00015, 9.999234 
1.5150641e+3, 2.548373e+2, -506290.7, -550807.0, -47134.055, -0.08763642, -0.11404984, -476423.56, -33840.523, 0.0, 9.999887, 9.999295 
1.5150611e+3, 2.6483637e+2, -460095.94, -483113.7, -19357.313, -0.07067499, -0.13443774, -449084.63, -104493.09, 0.0, 9.999557, 9.999247 
1.5150586e+3, 2.7483538e+2, -418448.56, -406045.34, -15935.81, -0.049670346, -0.16279557, -395146.97, -148545.83, 0.0, 9.999142, 9.999302 
1.515056e+3, 2.8483498e+2, -335414.97, -298368.84, -10866.61, -0.024656884, -0.13872023, -295416.66, -146812.02, 0.0, 9.998964, 9.9994545 
1.5150537e+3, 2.9483527e+2, -227677.78, -197718.9, -11850.494, 0.007865357, -0.06473978, -193598.14, -142997.45, 0.0, 9.999039, 9.999437 
1.515051e+3, 3.0483377e+2, -203882.22, -155808.83, -7646.7285, 0.0004763157, -0.15583491, -154621.81, -154621.81, 0.0, 9.998845, 9.999485 
1.515048e+3, 3.148336e+2, -209205.27, -52036.12, -15442.648, -0.03182164, -0.13379261, -50533.176, -50533.176, 0.0, 9.998348, 10.000437 
1.5251069e+3, 1.24852106e+2, -1459713.4, -1670105.5, -40769.332, -0.0810888, -0.11956391, -1452089.4, 264349.44, 0.017243471, 10.002129, 9.999285 
1.5251067e+3, 1.3485096e+2, -1398553.1, -1593015.3, 33739.98, 0.112207405, -0.15814252, -1392865.5, 225583.77, 0.010359546, 10.001867, 9.999268 
1.5251029e+3, 1.4485109e+2, -1369741.0, -1587404.0, -7105.8633, -0.06119276, -0.047673717, -1369509.3, 150939.11, 0.0045741852, 10.001633, 9.998741 
1.5251e+3, 1.5484934e+2, -1307399.5, -1504111.8, -5530.2534, -0.02912532, -0.100768164, -1307244.1, 115222.5, 0.0012060112, 10.001374, 9.998764 
1.5250966e+3, 1.6484803e+2, -1206054.1, -1386682.9, -39206.984, -0.024544824, -0.113686316, -1197911.0, 126569.09, 0.000118081814, 10.001321, 9.998921 
1.5250924e+3, 1.7484717e+2, -1075607.9, -1266862.1, -35053.785, -0.02070314, -0.10020103, -1069385.5, 157102.89, 0.0000008766353, 10.001516, 9.998977 
1.5250887e+3, 1.8484621e+2, -986226.9, -1157185.1, -10807.562, -0.024217729, -0.09793662, -985546.4, 142951.03, 0.0, 10.001387, 9.999121 
1.5250851e+3, 1.9484526e+2, -954373.75, -1084901.0, -17753.23, -0.047499813, -0.11258795, -952002.2, 78503.984, 0.0, 10.000907, 9.999175 
1.5250817e+3, 2.048444e+2, -904557.0, -1031468.9, -30944.494, -0.04539161, -0.1046304, -897413.94, 35100.63, 0.0, 10.000669, 9.998983 
1.5250786e+3, 2.1484369e+2, -799249.9, -925031.44, -31458.025, -0.0126171205, -0.0811141, -791821.0, 42701.098, 0.0, 10.000697, 9.999028 
1.525075e+3, 2.248427e+2, -730651.06, -852115.4, -19651.803, -0.017646328, -0.07560277, -727550.7, 8981.513, 0.0, 10.000544, 9.99893 
1.5250711e+3, 2.3484148e+2, -679827.9, -771096.44, -16977.863, -0.06580607, -0.098977156, -676772.0, -38227.355, 0.0, 10.0001955, 9.9989805 
1.5250675e+3, 2.4484055e+2, -604528.7, -645760.1, -25947.29, -0.08782698, -0.10470742, -592004.25, -51451.168, 0.0, 9.999875, 9.999323 
1.5250638e+3, 2.5484e+2, -545291.25, -559685.56, -28281.287, -0.081772216, -0.10037985, -523305.72, -80749.055, 0.0, 9.999579, 9.999383 
1.5250607e+3, 2.6483905e+2, -476144.94, -490082.13, -4182.024, -0.06781457, -0.1231246, -474986.38, -130421.695, 0.0, 9.999444, 9.999252 
1.5250579e+3, 2.7483776e+2, -369806.66, -382018.34, -10006.983, -0.046247892, -0.18560012, -364189.84, -117612.87, 0.0, 9.999475, 9.999307 
1.5250552e+3, 2.848373e+2, -286315.97, -274643.56, -6848.469, -0.023849504, -0.16558251, -271481.8, -122901.1, 0.0, 9.999303, 9.9994545 
1.5250526e+3, 2.9483792e+2, -244735.2, -205924.84, -11469.488, 0.0011933894, -0.06066239, -202788.73, -152214.53, 0.0, 9.998923, 9.999435 
1.5250495e+3, 3.048363e+2, -242206.64, -191700.8, -12889.024, -0.012362257, -0.15421288, -188601.7, -188601.7, 0.0, 9.99866, 9.999327 
1.5250464e+3, 3.1483585e+2, -166261.11, -3280.281, -18128.266, -0.028321423, -0.14741568, -1288.2323, -1288.2323, 0.0, 9.998525, 10.000687 
1.5351097e+3, 1.2485558e+2, -1475241.9, -1700464.6, -63728.96, -0.008990734, -0.05828158, -1458459.6, 257946.13, 0.018292114, 10.00212, 9.999078 
1.535108e+3, 1.3485412e+2, -1414415.6, -1627510.9, 24628.023, 0.041110195, -0.10612144, -1411606.3, 206813.77, 0.011016453, 10.001872, 9.999028 
1.5351039e+3, 1.4485374e+2, -1352461.6, -1551683.4, -17997.402, -0.120020695, -0.0442684, -1350848.9, 169574.33, 0.0048880493, 10.001636, 9.998985 
1.5351021e+3, 1.5485172e+2, -1289719.4, -1466958.1, -15271.688, 0.041755494, -0.15188679, -1288413.1, 134028.5, 0.0013030368, 10.001373, 9.99902 
1.5350987e+3, 1.6485044e+2, -1199683.0, -1374053.4, -33223.223, 0.051605757, -0.17641164, -1193567.4, 130885.98, 0.00013086536, 10.001322, 9.999009 
1.5350933e+3, 1.7485002e+2, -1069054.6, -1254175.9, -27444.373, -0.075314544, -0.12897313, -1065071.8, 161386.33, 0.0000010420176, 10.001518, 9.999064 
1.5350895e+3, 1.8484928e+2, -1001307.3, -1188149.3, -29518.771, -0.090757586, -0.100438744, -996754.7, 131711.17, 0.0, 10.001385, 9.99891 
1.5350865e+3, 1.948483e+2, -970290.6, -1117251.0, -35659.93, 0.0054670502, -0.09634583, -962094.8, 68381.055, 0.0, 10.000903, 9.998956 
1.535083e+3, 2.0484722e+2, -905143.8, -1032401.44, -30751.496, 0.015249119, -0.09899877, -898102.4, 34384.316, 0.0, 10.000666, 9.99898 
1.5350786e+3, 2.1484607e+2, -799169.6, -925259.06, -29489.953, -0.063865535, -0.11910779, -792613.4, 41884.51, 0.0, 10.000697, 9.999027 
1.5350747e+3, 2.2484495e+2, -724189.5, -838207.6, -32816.484, -0.094785415, -0.13167363, -715418.94, 21089.873, 0.0, 10.00054, 9.999028 
1.5350713e+3, 2.3484391e+2, -673601.44, -757180.4, -28928.217, -0.0754763, -0.14581479, -664565.7, -26046.8, 0.0, 10.00019, 9.99908 
1.5350676e+3, 2.4484323e+2, -605549.8, -646705.4, -36926.613, -0.060167424, -0.13155432, -583854.44, -43329.156, 0.0, 9.999868, 9.999319 
1.5350638e+3, 2.54843e+2, -545913.75, -561757.06, -37787.37, -0.047637645, -0.093425736, -515226.63, -72699.695, 0.0, 9.999581, 9.999368 
1.5350604e+3, 2.6484224e+2, -481838.06, -503140.94, -2430.0493, -0.03809082, -0.093169235, -481564.38, -137030.73, 0.0, 9.999448, 9.999161 
1.5350574e+3, 2.7484095e+2, -376331.28, -395453.44, -6972.9556, -0.031521816, -0.1482276, -374058.66, -127513.07, 0.0, 9.999472, 9.999216 
1.5350544e+3, 2.8484005e+2, -289910.0, -281385.7, -19867.697, -0.029843204, -0.16369973, -265328.13, -116775.05, 0.0, 9.999299, 9.999411 
1.5350512e+3, 2.9483983e+2, -248529.84, -213132.42, -23635.75, -0.03471296, -0.13479972, -201303.3, -150749.16, 0.0, 9.99892, 9.999389 
1.5350479e+3, 3.0483845e+2, -252328.13, -213040.45, -17580.98, -0.042352553, -0.19759814, -206321.98, -206321.98, 0.0, 9.998659, 9.999182 
1.5350452e+3, 3.1483844e+2, -148057.95, 34810.64, -14568.949, -0.0072975387, -0.13207607, 35964.06, 35964.06, 0.0, 9.998522, 10.00095 
1.5451118e+3, 1.2485861e+2, -1531324.3, -1744522.5, -47839.86, 0.013671841, -0.078671984, -1521081.5, 195292.97, 0.019402182, 10.001803, 9.998928 
1.5451096e+3, 1.3485715e+2, -1414871.1, -1648154.4, 56765.227, 0.027840996, -0.11048594, -1401791.6, 216598.39, 0.011713042, 10.00196, 9.998844 
1.5451056e+3, 1.4485668e+2, -1297973.9, -1507399.5, 6845.7627, -0.11891784, -0.055268962, -1297750.4, 222643.69, 0.005220401, 10.001936, 9.999144 
1.5451038e+3, 1.5485482e+2, -1228713.3, -1418443.0, 641.56006, 0.050666798, -0.16351075, -1228711.0, 193698.83, 0.0014059248, 10.00171, 9.99919 
1.5451e+3, 1.648536e+2, -1176836.0, -1371072.1, -15548.848, 0.06281402, -0.18668729, -1175599.1, 148821.67, 0.00014487762, 10.001512, 9.998939 
1.545095e+3, 1.7485315e+2, -1100309.5, -1277570.3, -22192.523, -0.06631055, -0.13508393, -1097573.3, 128853.13, 0.000001197513, 10.001339, 9.99899 
1.5450907e+3, 1.8485236e+2, -1041846.6, -1209912.9, -37626.023, -0.0861787, -0.10614453, -1033807.6, 94627.375, 0.0, 10.001118, 9.998888 
1.5450874e+3, 1.9485132e+2, -979581.56, -1124245.9, -31061.496, 0.0002956093, -0.10590468, -973194.25, 57251.47, 0.0, 10.000851, 9.998932 
1.5450835e+3, 2.0485021e+2, -898953.4, -1025613.8, -2815.6057, 0.0047642845, -0.111049816, -898890.8, 33565.965, 0.0, 10.000693, 9.999012 
1.5450792e+3, 2.1484908e+2, -802234.4, -922853.7, -313.82425, -0.07566322, -0.13172002, -802233.56, 32234.03, 0.0, 10.000661, 9.999061 
1.5450752e+3, 2.2484808e+2, -730292.94, -829862.44, -15682.914, -0.101665646, -0.13941142, -727881.2, 8596.02, 0.0, 10.000451, 9.999127 
1.5450715e+3, 2.3484726e+2, -686936.5, -752803.94, -13143.415, -0.07088582, -0.1426847, -684410.7, -45925.867, 0.0, 10.000052, 9.999176 
1.5450676e+3, 2.4484651e+2, -614203.44, -672073.8, -16502.018, -0.04719423, -0.1289361, -609828.56, -69336.48, 0.0, 9.999902, 9.999129 
1.5450637e+3, 2.5484598e+2, -496518.56, -559622.75, -33064.258, -0.031354133, -0.10370157, -482367.5, -39869.563, 0.0, 10.000015, 9.999174 
1.5450601e+3, 2.6484516e+2, -429106.88, -475354.72, -6333.5605, -0.024634536, -0.09992922, -428255.2, -83749.85, 0.0, 9.999801, 9.999183 
1.545057e+3, 2.7484408e+2, -408020.66, -408216.66, -3608.22, -0.02731833, -0.13466164, -404509.13, -157994.86, 0.0, 9.999246, 9.999237 
1.5450536e+3, 2.8484312e+2, -335158.16, -305491.44, -6222.499, -0.027087152, -0.16146052, -304239.16, -155716.67, 0.0, 9.999001, 9.999389 
1.5450503e+3, 2.9484245e+2, -230266.64, -206912.69, -10909.875, -0.02416175, -0.17490107, -202609.14, -152081.14, 0.0, 9.999059, 9.999365 
1.5450466e+3, 3.0484134e+2, -237021.81, -213609.36, -6925.721, -0.03626827, -0.20079283, -211714.06, -211714.06, 0.0, 9.998802, 9.999107 
1.5450433e+3, 3.148412e+2, -177959.86, 38580.93, 3286.2698, -0.026444642, -0.14127158, 38630.79, 38630.79, 0.0, 9.998242, 10.001109 
1.5551133e+3, 1.2486137e+2, -1538210.0, -1756694.9, -58622.336, -0.010205788, -0.16814734, -1523474.8, 192869.02, 0.020579461, 10.001797, 9.998848 
1.555112e+3, 1.348601e+2, -1423887.8, -1666038.5, 62907.344, 0.06741259, -0.1685024, -1408520.6, 209838.14, 0.012454377, 10.001958, 9.998722 
1.5551081e+3, 1.4485992e+2, -1293615.3, -1499056.1, -2281.4878, -0.06486352, -0.0796889, -1293589.9, 226770.81, 0.005574592, 10.001937, 9.999203 
1.5551049e+3, 1.5485863e+2, -1222837.1, -1408575.0, -7615.482, -0.004675344, -0.13809353, -1222525.5, 199846.0, 0.001515748, 10.001718, 9.999256 
1.5551011e+3, 1.6485749e+2, -1191935.1, -1402644.9, -23326.73, 0.007682558, -0.14664052, -1189383.6, 134998.69, 0.00016035176, 10.001513, 9.998722 
1.555097e+3, 1.7485657e+2, -1117174.1, -1311121.0, -28361.172, 0.0007380236, -0.11982352, -1113112.0, 113281.29, 0.0000013687348, 10.001333, 9.998763 
1.5550925e+3, 1.8485549e+2, -1031860.75, -1188537.3, -48076.97, -0.019036649, -0.11485721, -1018284.44, 110120.09, 0.0, 10.001113, 9.999038 
1.5550877e+3, 1.9485435e+2, -967485.9, -1100913.3, -40421.133, -0.06293703, -0.13951287, -956195.8, 74219.51, 0.0, 10.000856, 9.99909 
1.5550834e+3, 2.0485343e+2, -894410.75, -1017264.75, -4772.3223, -0.07600333, -0.13904513, -894225.6, 38198.926, 0.0, 10.000697, 9.999069 
1.5550801e+3, 2.1485275e+2, -799500.56, -915693.7, -1065.9954, -0.052604336, -0.120116375, -799490.75, 34940.586, 0.0, 10.000653, 9.999114 
1.5550762e+3, 2.2485209e+2, -724164.56, -815623.56, -31056.906, -0.045209322, -0.10114448, -714615.5, 21822.102, 0.0, 10.0004425, 9.999229 
1.5550716e+3, 2.3485148e+2, -679815.56, -738818.06, -27200.352, -0.054440003, -0.09137038, -669189.75, -30747.041, 0.0, 10.000054, 9.999271 
1.5550674e+3, 2.448504e+2, -640767.2, -727703.4, -12069.725, -0.0517473, -0.098201945, -639122.6, -98669.09, 0.0, 9.999903, 9.998748 
1.5550637e+3, 2.5484887e+2, -524257.8, -616647.7, -27139.322, -0.03638766, -0.13210973, -516875.56, -74405.766, 0.0, 10.000011, 9.998785 
1.55506e+3, 2.6484782e+2, -420363.84, -456290.94, -25988.727, -0.030278832, -0.14291246, -406734.63, -62254.785, 0.0, 9.999796, 9.999316 
1.5550561e+3, 2.7484724e+2, -398511.94, -389413.06, -22080.43, -0.035340868, -0.1411646, -371418.25, -124935.414, 0.0, 9.9992485, 9.999366 
1.5550527e+3, 2.848464e+2, -334250.9, -304947.4, -3105.6355, -0.018802451, -0.157476, -304621.9, -156132.88, 0.0, 9.999005, 9.999391 
1.5550499e+3, 2.9484558e+2, -230267.58, -206907.34, -6883.555, 0.023212459, -0.18771707, -205029.86, -154533.36, 0.0, 9.999057, 9.999366 
1.5550458e+3, 3.0484492e+2, -240838.77, -220429.72, -26773.068, -0.0032683203, -0.16939011, -201982.38, -201982.38, 0.0, 9.998796, 9.999064 
1.5550411e+3, 3.14844e+2, -177837.3, 38258.2, -10515.394, -0.091251686, -0.17769589, 38768.684, 38768.684, 0.0, 9.998243, 10.001107 
1.5651153e+3, 1.24864995e+2, -1442926.3, -1701934.9, -60394.953, -0.038037676, -0.18340057, -1429535.8, 286770.5, 0.02183582, 10.002435, 9.998916 
1.565114e+3, 1.3486345e+2, -1415747.3, -1660858.1, 80320.31, 0.07137031, -0.21364462, -1391772.1, 226551.05, 0.013248415, 10.002009, 9.998735 
1.5651102e+3, 1.4486325e+2, -1323147.3, -1526969.6, 15876.065, -0.034641083, -0.12168138, -1321918.0, 198407.88, 0.0059555885, 10.001793, 9.99908 
1.5651064e+3, 1.5486234e+2, -1218115.6, -1419305.1, -4961.2153, -0.035053935, -0.1287631, -1217993.4, 204341.2, 0.0016345053, 10.001808, 9.999137 
1.5651023e+3, 1.6486132e+2, -1174004.6, -1382435.0, -23728.922, -0.030664643, -0.12598467, -1171337.3, 153007.66, 0.00017771397, 10.001589, 9.998822 
1.5650983e+3, 1.748602e+2, -1142031.3, -1311584.9, -6521.4746, 0.012174588, -0.12825428, -1141780.8, 84576.13, 0.0000016137079, 10.001116, 9.998863 
1.5650937e+3, 1.8485904e+2, -1053593.1, -1206423.8, -8090.5986, 0.00450396, -0.13298081, -1053166.0, 75202.8, 0.0, 10.000997, 9.998971 
1.5650886e+3, 1.9485795e+2, -912428.2, -1082355.5, -18818.479, -0.06842096, -0.14628547, -910369.1, 120010.51, 0.0, 10.00127, 9.999018 
1.5650842e+3, 2.0485705e+2, -835535.1, -989998.75, -6614.5386, -0.087144464, -0.13808073, -835252.44, 97136.3, 0.0, 10.001106, 9.999059 
1.5650807e+3, 2.1485642e+2, -825963.0, -929799.9, -8862.521, -0.044774726, -0.11531979, -825212.0, 9183.226, 0.0, 10.000479, 9.999102 
1.5650766e+3, 2.2485572e+2, -761697.0, -838570.2, -38170.367, -0.034239173, -0.096240014, -745964.0, -9562.107, 0.0, 10.000208, 9.999185 
1.5650718e+3, 2.3485504e+2, -644487.56, -727030.06, -47502.406, -0.05830482, -0.09032579, -622831.9, 15576.116, 0.0, 10.000321, 9.999223 
1.5650673e+3, 2.4485391e+2, -602637.7, -706065.5, -23885.613, -0.061004903, -0.101338916, -597388.0, -56968.76, 0.0, 10.000152, 9.9987755 
1.5650634e+3, 2.5485238e+2, -569390.6, -634881.0, -8927.122, -0.040715255, -0.13950513, -568195.56, -125760.445, 0.0, 9.999688, 9.998815 
1.5650596e+3, 2.6485133e+2, -458846.0, -469592.03, 4127.014, -0.03150826, -0.15140532, -457443.94, -112999.516, 0.0, 9.999511, 9.999362 
1.5650555e+3, 2.7485076e+2, -341491.16, -357124.44, -393.48706, -0.0349777, -0.14856619, -341481.25, -95034.68, 0.0, 9.99962, 9.999409 
1.5650518e+3, 2.8484988e+2, -288709.72, -300739.94, 8630.406, -0.017517293, -0.16709338, -284205.06, -135751.31, 0.0, 9.999394, 9.999232 
1.5650487e+3, 2.948489e+2, -275998.34, -245984.78, -8876.89, 0.023835486, -0.19934252, -243555.89, -193092.08, 0.0, 9.998818, 9.999212 
1.5650445e+3, 3.0484855e+2, -276679.63, -212874.7, -26253.568, 0.013142448, -0.14967471, -203461.11, -203461.11, 0.0, 9.998443, 9.999287 
1.5650395e+3, 3.1484714e+2, -172236.7, 44696.395, 9633.434, -0.06914058, -0.23258704, 45123.348, 45123.348, 0.0, 9.998263, 10.0011425 
1.5751174e+3, 1.2486955e+2, -1430975.4, -1675945.6, -89800.52, -0.070784934, -0.12793538, -1401583.1, 314678.78, 0.023184983, 10.00243, 9.999103 
1.5751158e+3, 1.3486725e+2, -1405974.8, -1642320.4, 63955.063, 0.03640168, -0.24730068, -1389778.5, 228504.78, 0.014104312, 10.002016, 9.99886 
1.575112e+3, 1.4486672e+2, -1344593.5, -1571686.0, 14268.693, -0.0314447, -0.17959702, -1343700.4, 176588.83, 0.006368667, 10.001794, 9.998773 
1.575108e+3, 1.5486602e+2, -1240313.9, -1464291.5, -3954.7864, -0.04376463, -0.13443705, -1240244.0, 182054.73, 0.00176415, 10.001803, 9.998831 
1.5751037e+3, 1.6486514e+2, -1145624.1, -1323413.9, -42050.375, -0.05754113, -0.12267706, -1136180.1, 188128.06, 0.00019721544, 10.001587, 9.9992285 
1.575099e+3, 1.7486408e+2, -1112370.5, -1251667.4, -24313.139, -0.032465287, -0.15963182, -1108248.8, 118068.49, 0.0000019795527, 10.001121, 9.999273 
1.5750946e+3, 1.8486302e+2, -1073705.4, -1249165.9, 771.97675, -0.015986025, -0.16037837, -1073702.0, 54625.848, 0.0, 10.000999, 9.998676 
1.5750903e+3, 1.948621e+2, -935035.94, -1127779.1, -8342.852, -0.0220496, -0.12782007, -934675.5, 95663.32, 0.0, 10.001263, 9.998711 
1.5750858e+3, 2.048611e+2, -841562.3, -1001179.94, -30099.592, -0.03637814, -0.10942714, -836075.0, 96274.42, 0.0, 10.001099, 9.998986 
1.575081e+3, 2.148601e+2, -830755.25, -940376.44, -31463.803, -0.05379562, -0.11686235, -822366.4, 11992.733, 0.0, 10.00048, 9.999029 
1.5750764e+3, 2.2485901e+2, -775763.4, -868544.94, -34193.836, -0.069323145, -0.12326719, -764523.2, -28153.477, 0.0, 10.00021, 9.998979 
1.5750718e+3, 2.348579e+2, -659480.2, -757499.4, -42049.62, -0.08471738, -0.13844746, -643913.4, -5532.65, 0.0, 10.000317, 9.999018 
1.5750673e+3, 2.44857e+2, -572920.25, -643435.3, -40411.668, -0.07765533, -0.13751747, -554547.6, -14158.353, 0.0, 10.000146, 9.999209 
1.5750632e+3, 2.548564e+2, -538577.7, -571351.2, -24653.506, -0.0470854, -0.12548575, -525361.7, -82967.664, 0.0, 9.999688, 9.999251 
1.5750591e+3, 2.6485565e+2, -461634.84, -475782.2, 9194.063, -0.032012388, -0.12713785, -457108.2, -112708.57, 0.0, 9.999511, 9.99932 
1.5750551e+3, 2.748547e+2, -344926.44, -364352.6, 5843.9243, -0.032208554, -0.16173485, -343303.94, -96897.72, 0.0, 9.9996195, 9.99936 
1.5750512e+3, 2.848535e+2, -311940.8, -348884.25, -11797.23, -0.028368609, -0.1931473, -308494.97, -160077.67, 0.0, 9.9993925, 9.998903 
1.5750471e+3, 2.9485235e+2, -297762.47, -292926.7, -28359.666, -0.023448749, -0.20476446, -266882.03, -216452.13, 0.0, 9.998823, 9.998889 
1.5750429e+3, 3.048523e+2, -240874.94, -139344.66, -32057.271, 0.011057911, -0.13815257, -130070.08, -130070.08, 0.0, 9.998446, 9.99979 
1.5750387e+3, 3.1485066e+2, -167552.38, 54322.734, 6108.539, 0.024566894, -0.29568878, 54490.78, 54490.78, 0.0, 9.998263, 10.001209 
1.5851198e+3, 1.24873586e+2, -1467888.1, -1676763.8, -91216.67, -0.053326998, -0.1359083, -1433661.9, 282560.5, 0.024637632, 10.002103, 9.999251 
1.5851174e+3, 1.3487147e+2, -1367921.3, -1617577.8, 64375.78, -0.00021625793, -0.24319999, -1352299.0, 265941.84, 0.01502948, 10.00226, 9.998909 
1.585114e+3, 1.448708e+2, -1309789.0, -1562788.9, 16892.29, -0.032808106, -0.18723942, -1308666.1, 211581.73, 0.0068178168, 10.002073, 9.998696 
1.5851098e+3, 1.5486991e+2, -1285232.5, -1494284.5, 12985.116, -0.03444309, -0.15336317, -1284429.0, 137830.84, 0.0019058621, 10.0015335, 9.998754 
1.5851049e+3, 1.6486907e+2, -1180247.3, -1340102.9, -25223.395, -0.058141716, -0.13598317, -1176361.8, 147907.88, 0.0002187055, 10.00135, 9.999228 
1.5851e+3, 1.7486823e+2, -1048146.94, -1220796.5, -39397.645, -0.06236693, -0.15079632, -1039581.56, 186695.22, 0.000002466339, 10.001564, 9.99927 
1.5850955e+3, 1.8486723e+2, -1010163.4, -1214055.3, -17508.672, -0.04107376, -0.14677116, -1008670.75, 119615.9, 0.0, 10.001419, 9.9987135 
1.5850915e+3, 1.9486621e+2, -985630.1, -1147861.5, -2270.5544, -0.008677264, -0.12676527, -985598.4, 44699.79, 0.0, 10.000899, 9.998746 
1.5850869e+3, 2.0486513e+2, -903419.06, -1033507.4, -13066.494, -0.016418574, -0.11665159, -902119.6, 30189.7, 0.0, 10.000689, 9.9989605 
1.5850817e+3, 2.1486406e+2, -784535.5, -921419.75, -13774.983, -0.06093531, -0.12795559, -783163.0, 51156.586, 0.0, 10.0008135, 9.998998 
1.5850767e+3, 2.2486293e+2, -721392.2, -849089.6, -7949.6646, -0.079785295, -0.13329741, -720899.2, 15431.6045, 0.0, 10.000613, 9.998918 
1.5850721e+3, 2.3486184e+2, -698695.8, -782955.44, -5615.829, -0.07341547, -0.14164941, -698323.2, -59980.92, 0.0, 10.000077, 9.998957 
1.5850675e+3, 2.4486092e+2, -608354.3, -645538.8, -7880.106, -0.05955405, -0.1448675, -606753.25, -66402.77, 0.0, 9.99984, 9.999341 
1.585063e+3, 2.548603e+2, -496574.94, -536536.2, -16792.49, -0.038669895, -0.14784445, -490455.5, -48101.215, 0.0, 9.999915, 9.999381 
1.5850587e+3, 2.648596e+2, -450449.22, -484717.8, 465.78442, -0.022630705, -0.14627782, -450442.88, -106083.43, 0.0, 9.999651, 9.999191 
1.5850548e+3, 2.7485874e+2, -440036.53, -424294.22, -10559.232, -0.009671731, -0.15830906, -418995.25, -172629.0, 0.0, 9.99903, 9.999231 
1.5850504e+3, 2.8485745e+2, -401310.44, -382990.4, -15065.556, -0.01512944, -0.19517444, -374518.72, -226140.66, 0.0, 9.998743, 9.9989805 
1.5850456e+3, 2.94856e+2, -295626.47, -282033.28, -2693.362, -0.043231674, -0.24142861, -281519.06, -231127.03, 0.0, 9.998798, 9.998974 
1.5850414e+3, 3.048561e+2, -179353.77, -105454.99, -691.8052, 0.00040354594, -0.16946252, -105448.516, -105448.516, 0.0, 9.998851, 9.999827 
1.5850374e+3, 3.1485492e+2, -104300.58, 44501.332, -2842.2112, 0.03638833, -0.28197312, 44555.6, 44555.6, 0.0, 9.998873, 10.000847 
1.5951225e+3, 1.2487729e+2, -1461093.8, -1662548.4, -95960.46, 0.008895427, -0.1965014, -1422701.0, 293485.03, 0.026202215, 10.002104, 9.999352 
1.5951192e+3, 1.3487615e+2, -1369254.3, -1621303.9, 70423.12, -0.040882062, -0.20344718, -1350912.6, 267282.9, 0.016029086, 10.002264, 9.998883 
1.595116e+3, 1.4487556e+2, -1300454.5, -1543308.6, -4995.6367, -0.042816598, -0.14680043, -1300351.8, 219849.75, 0.007305444, 10.002073, 9.998831 
1.5951116e+3, 1.5487407e+2, -1275912.3, -1475638.9, -7580.149, -0.0113048935, -0.18567598, -1275625.0, 146592.81, 0.002060233, 10.001535, 9.998881 
1.5951066e+3, 1.648731e+2, -1208138.4, -1398893.3, -18930.559, -0.03732872, -0.16544539, -1206277.9, 117951.16, 0.00024185247, 10.001353, 9.998823 
1.5951015e+3, 1.7487262e+2, -1077534.9, -1281239.3, -30763.352, -0.0820785, -0.10287504, -1072990.4, 153244.92, 0.0000030340082, 10.00156, 9.9988575 
1.5950967e+3, 1.8487166e+2, -985073.3, -1161341.9, -37014.715, -0.07618269, -0.09230518, -977616.06, 150629.0, 0.0, 10.001415, 9.999079 
1.5950923e+3, 1.9487032e+2, -959204.94, -1093939.9, -21066.033, -0.028935887, -0.14177987, -955988.06, 74269.36, 0.0, 10.000902, 9.999116 
1.5950875e+3, 2.0486917e+2, -903313.3, -1034474.7, -9035.653, -0.027716048, -0.15805668, -902693.75, 29574.605, 0.0, 10.000691, 9.998953 
1.5950824e+3, 2.1486829e+2, -786272.2, -923653.44, -8347.198, -0.07003398, -0.14869595, -785766.9, 48510.223, 0.0, 10.000806, 9.998986 
1.5950775e+3, 2.2486746e+2, -716340.44, -837065.8, -28088.777, -0.070558675, -0.12684523, -710125.1, 26160.414, 0.0, 10.000605, 9.999005 
1.5950726e+3, 2.3486681e+2, -692846.44, -770478.3, -24371.682, -0.028340153, -0.10135755, -685829.44, -47536.504, 0.0, 10.000074, 9.999044 
1.5950678e+3, 2.4486564e+2, -620925.0, -671947.7, -4771.85, -0.011002271, -0.12451764, -620482.56, -80179.125, 0.0, 9.99984, 9.999162 
1.595063e+3, 2.5486404e+2, -509194.25, -563233.7, -12180.282, -0.019259127, -0.20710725, -506575.75, -64259.5, 0.0, 9.999915, 9.999199 
1.5950586e+3, 2.648631e+2, -465527.72, -516822.3, -21647.824, -0.0061554266, -0.20772193, -457612.97, -113288.75, 0.0, 9.999652, 9.99897 
1.5950543e+3, 2.7486286e+2, -455062.84, -456717.25, -31967.22, 0.028037118, -0.13538691, -423912.13, -177585.4, 0.0, 9.999033, 9.999007 
1.5950495e+3, 2.8486168e+2, -367036.72, -313041.2, -12196.051, 0.016774625, -0.17278999, -310414.28, -162077.73, 0.0, 9.998747, 9.999459 
1.5950446e+3, 2.948598e+2, -260860.81, -210968.83, 1857.8129, -0.043171186, -0.31550545, -210899.75, -160548.23, 0.0, 9.998801, 9.999462 
1.5950401e+3, 3.0485988e+2, -211306.92, -171240.6, 1272.003, -0.0257736, -0.24785927, -171200.25, -171200.25, 0.0, 9.998848, 9.999377 
1.5950355e+3, 3.148601e+2, -160755.47, -73688.945, -4209.679, -0.035632305, -0.16938658, -73485.88, -73485.88, 0.0, 9.998876, 10.000034 
1.6051249e+3, 1.2488191e+2, -1387710.0, -1640610.6, -75000.836, -0.003710521, -0.20258586, -1367140.5, 349000.13, 0.027890507, 10.002689, 9.999224 
1.6051213e+3, 1.3488092e+2, -1405458.4, -1665487.4, 76076.32, -0.06311957, -0.17043813, -1384836.3, 233313.48, 0.017110147, 10.00213, 9.998645 
1.6051182e+3, 1.4488001e+2, -1333063.3, -1556872.0, -11606.954, -0.009412967, -0.13348359, -1332462.9, 187695.84, 0.007835286, 10.001842, 9.998848 
1.6051134e+3, 1.5487833e+2, -1222303.9, -1446918.0, -23566.99, -0.0052810404, -0.19533305, -1219857.8, 202318.17, 0.0022287087, 10.001896, 9.998903 
1.6051081e+3, 1.648773e+2, -1155832.4, -1370772.5, -17976.393, -0.043801393, -0.18355331, -1154339.3, 169848.05, 0.00026665046, 10.001705, 9.998843 
1.6051027e+3, 1.7487693e+2, -1119555.9, -1298695.9, -103.077385, -0.08200487, -0.11196572, -1119555.8, 106636.88, 0.0000036433328, 10.001265, 9.998878 
1.605098e+3, 1.8487605e+2, -1025671.94, -1171877.9, -2764.0388, -0.07958404, -0.098489605, -1025619.7, 102582.02, 0.0, 10.0011, 9.999157 
1.6050932e+3, 1.9487473e+2, -906242.0, -1059925.1, -9997.323, -0.049492955, -0.15234967, -905594.4, 124619.37, 0.0, 10.001231, 9.999189 
1.6050883e+3, 2.0487365e+2, -847921.0, -1000489.2, -6394.6396, -0.044631653, -0.16752055, -847653.5, 84570.36, 0.0, 10.001041, 9.999017 
1.6050832e+3, 2.1487291e+2, -823243.56, -934266.56, -881.4521, -0.061156712, -0.15029034, -823236.56, 10994.521, 0.0, 10.000523, 9.999049 
1.6050781e+3, 2.2487214e+2, -776324.5, -860866.44, -24159.484, -0.04868573, -0.12836474, -769907.56, -33668.582, 0.0, 10.000173, 9.999048 
1.6050729e+3, 2.3487146e+2, -701321.1, -770256.7, -26492.379, -0.008401966, -0.11070526, -692316.2, -54069.367, 0.0, 9.999999, 9.999082 
1.6050678e+3, 2.4487033e+2, -617312.7, -677079.3, 9889.009, 0.0035537803, -0.12873198, -615718.94, -75461.875, 0.0, 9.999895, 9.999098 
1.6050631e+3, 2.5486887e+2, -520706.4, -575524.4, 10223.666, -0.013141667, -0.19267792, -518861.75, -76592.87, 0.0, 9.999868, 9.999135 
1.6050582e+3, 2.6486775e+2, -461770.5, -527253.6, -7074.1274, -0.0071168356, -0.19984157, -461015.0, -116736.37, 0.0, 9.999735, 9.998857 
1.6050534e+3, 2.748671e+2, -396922.2, -442110.6, -11383.868, 0.020993259, -0.1591144, -394216.38, -147930.64, 0.0, 9.999492, 9.998885 
1.6050485e+3, 2.8486598e+2, -284370.0, -255788.17, 12959.267, 0.014834546, -0.1924053, -250787.3, -102492.59, 0.0, 9.99924, 9.999615 
1.6050436e+3, 2.9486462e+2, -225714.8, -174859.16, 519.79114, -0.02703047, -0.2961247, -174853.84, -124550.58, 0.0, 9.998962, 9.999631 
1.6050391e+3, 3.0486438e+2, -243886.22, -195451.72, 2293.8435, -0.010937735, -0.26197606, -195343.31, -195343.31, 0.0, 9.998662, 9.999299 
1.605034e+3, 3.1486475e+2, -253848.6, -140764.1, 15600.283, -0.04758063, -0.16565688, -138651.45, -138651.45, 0.0, 9.998336, 9.999831 
1.6151266e+3, 1.2488753e+2, -1413939.1, -1694608.9, -97611.664, -0.09311641, -0.15174915, -1383329.8, 332755.66, 0.029721467, 10.00269, 9.998845 
1.6151233e+3, 1.3488585e+2, -1436716.5, -1733195.5, 54707.56, -0.07048811, -0.14269632, -1426943.8, 191159.1, 0.018286213, 10.002137, 9.998177 
1.6151209e+3, 1.4488426e+2, -1339137.6, -1570157.6, -11594.126, 0.061397426, -0.14406943, -1338557.1, 181561.66, 0.008415702, 10.001843, 9.998756 
1.6151151e+3, 1.5488271e+2, -1228851.9, -1460193.3, -20533.727, -0.01943719, -0.18352795, -1227043.4, 195090.61, 0.0024150638, 10.001894, 9.998814 
1.6151094e+3, 1.6488166e+2, -1126471.9, -1309326.5, -35037.992, -0.08129347, -0.1901447, -1119988.0, 204156.23, 0.0002938315, 10.001701, 9.999269 
1.6151042e+3, 1.7488115e+2, -1089687.4, -1237336.6, -16305.435, -0.0645282, -0.17544772, -1087908.1, 138240.69, 0.000004294035, 10.001265, 9.9993 
1.6150993e+3, 1.8488039e+2, -1040354.56, -1202486.5, 1056.916, -0.05536212, -0.16292384, -1040347.6, 87809.17, 0.0, 10.0011, 9.998947 
1.6150941e+3, 1.9487944e+2, -922710.0, -1092826.5, -4550.14, -0.07424706, -0.1586326, -922588.4, 107578.92, 0.0, 10.0012245, 9.998967 
1.615089e+3, 2.048786e+2, -839184.8, -981123.06, -26142.385, -0.07153725, -0.14546204, -834523.0, 97652.92, 0.0, 10.001035, 9.999154 
1.6150838e+3, 2.1487795e+2, -813372.06, -913758.1, -19335.26, -0.03734226, -0.13312171, -809776.7, 24405.006, 0.0, 10.000522, 9.999191 
1.6150786e+3, 2.2487698e+2, -777624.44, -864547.3, -30999.563, -0.017725967, -0.13689484, -767701.7, -31510.479, 0.0, 10.000175, 9.999023 
1.615073e+3, 2.3487578e+2, -702553.44, -774059.4, -31873.988, -0.015372206, -0.16783668, -690408.3, -52204.242, 0.0, 10.000002, 9.999055 
1.6150676e+3, 2.4487495e+2, -613961.75, -670230.9, 9204.673, -0.017449645, -0.1560902, -612494.25, -72282.61, 0.0, 9.999894, 9.999146 
1.6150628e+3, 2.5487468e+2, -517686.06, -568605.4, 11012.471, -0.024448575, -0.10561086, -515406.4, -73193.75, 0.0, 9.999864, 9.999186 
1.6150577e+3, 2.6487347e+2, -463470.13, -530947.5, -15070.264, -0.03005761, -0.12468258, -460257.3, -116033.97, 0.0, 9.999733, 9.998834 
1.6150524e+3, 2.7487132e+2, -398177.38, -446482.66, -18235.326, -0.03329597, -0.23101838, -392066.56, -145822.47, 0.0, 9.999497, 9.998854 
1.6150473e+3, 2.848702e+2, -296713.44, -282197.25, 3312.58, -0.023092384, -0.25361052, -281477.06, -133223.77, 0.0, 9.999243, 9.999433 
1.6150427e+3, 2.9487044e+2, -237828.61, -200401.0, -8215.109, -0.0010292289, -0.18157093, -198677.23, -148429.28, 0.0, 9.998962, 9.999455 
1.6150382e+3, 3.0486962e+2, -222900.3, -152726.38, -9498.298, 0.037802506, -0.21085553, -151463.47, -151463.47, 0.0, 9.998665, 9.999592 
1.6150329e+3, 3.1486866e+2, -223165.7, -77865.31, -1587.8287, -0.0050822115, -0.27573523, -77847.96, -77847.96, 0.0, 9.998339, 10.000262 
1.6251296e+3, 1.24892645e+2, -1426005.1, -1709659.8, -100912.875, -0.0689841, -0.14707665, -1393768.1, 322267.16, 0.031719536, 10.002651, 9.998759 
1.6251256e+3, 1.348908e+2, -1370292.8, -1710106.3, 68228.42, -0.099507004, -0.14626172, -1357105.5, 260949.06, 0.019575521, 10.0026455, 9.99809 
1.625123e+3, 1.4488892e+2, -1275624.5, -1533430.9, 21918.855, 0.0731354, -0.17509559, -1273774.3, 246299.23, 0.009057564, 10.002262, 9.998805 
1.6251168e+3, 1.5488786e+2, -1266892.1, -1472639.3, 21651.324, -0.042228814, -0.1714658, -1264638.4, 157445.28, 0.002624381, 10.00161, 9.998863 
1.6251107e+3, 1.6488686e+2, -1182687.5, -1338611.8, 1879.1775, -0.104386136, -0.17302005, -1182664.9, 141428.17, 0.00032476612, 10.001327, 9.999247 
1.6251057e+3, 1.7488597e+2, -1068764.5, -1229916.0, -13253.067, -0.048927072, -0.19373444, -1067681.9, 158419.31, 0.000005034694, 10.001422, 9.999274 
1.6251005e+3, 1.8488517e+2, -1022485.0, -1195881.1, -5331.3784, -0.02922629, -0.18029885, -1022321.2, 105788.414, 0.0, 10.001233, 9.998927 
1.6250952e+3, 1.9488461e+2, -993009.06, -1128455.5, 2103.1296, -0.06906833, -0.13650766, -992976.44, 37140.707, 0.0, 10.000752, 9.998949 
1.6250898e+3, 2.0488377e+2, -910686.5, -1014297.44, -17401.373, -0.078543305, -0.122692086, -907842.06, 24283.758, 0.0, 10.00054, 9.999164 
1.6250843e+3, 2.1488273e+2, -801672.6, -907077.3, -22174.654, -0.04816842, -0.15090221, -797197.56, 36937.426, 0.0, 10.000598, 9.999199 
1.6250789e+3, 2.2488178e+2, -710863.4, -824431.56, -30357.16, -0.025981722, -0.15760915, -703258.06, 32886.19, 0.0, 10.000601, 9.999093 
1.6250731e+3, 2.34881e+2, -617891.75, -725362.56, -25304.81, -0.0148369735, -0.15151314, -612231.6, 25921.252, 0.0, 10.000551, 9.999124 
1.6250677e+3, 2.4488029e+2, -565198.06, -647669.44, 10283.477, -0.009308823, -0.13259767, -563935.1, -23775.512, 0.0, 10.000235, 9.999136 
1.6250627e+3, 2.5487977e+2, -551361.0, -586208.44, 5440.301, -0.01134046, -0.104942866, -550531.44, -108368.28, 0.0, 9.9996395, 9.999171 
1.6250573e+3, 2.6487857e+2, -503710.8, -539489.8, -8188.203, -0.0230902, -0.12864748, -501925.97, -157752.06, 0.0, 9.999411, 9.998929 
1.6250518e+3, 2.7487662e+2, -384461.78, -428291.38, -3399.9636, -0.04232854, -0.22225747, -384199.6, -138007.38, 0.0, 9.999544, 9.998955 
1.6250466e+3, 2.8487563e+2, -299072.63, -299124.13, 10250.235, -0.02785934, -0.22979459, -288848.1, -140647.56, 0.0, 9.999297, 9.999288 
1.6250418e+3, 2.9487592e+2, -293905.47, -243774.33, -1214.4249, 0.017822642, -0.1388061, -243744.94, -193549.13, 0.0, 9.99865, 9.999307 
1.6250369e+3, 3.0487466e+2, -258980.83, -161616.56, 5586.7188, 0.049484637, -0.20860036, -161297.05, -161297.05, 0.0, 9.99838, 9.999669 
1.6250314e+3, 3.148736e+2, -173743.36, -14495.934, -9345.484, 0.0067151305, -0.29134738, -13949.366, -13949.366, 0.0, 9.998505, 10.00062 
1.6351335e+3, 1.2489744e+2, -1413062.3, -1680131.5, -89693.875, 0.053691853, -0.17412393, -1385735.3, 330252.97, 0.03390636, 10.002647, 9.998966 
1.6351275e+3, 1.3489577e+2, -1352009.9, -1669911.8, 66854.1, -0.15409675, -0.18205628, -1338522.8, 279482.1, 0.020992927, 10.002641, 9.998369 
1.6351247e+3, 1.4489394e+2, -1265052.0, -1509407.5, -5344.147, 0.02155516, -0.22683515, -1264935.1, 255087.55, 0.009768749, 10.002254, 9.998976 
1.635118e+3, 1.5489371e+2, -1255419.3, -1449628.6, -2762.6565, -0.07573186, -0.15801346, -1255380.0, 166644.84, 0.0028602842, 10.001611, 9.9990225 
1.6351119e+3, 1.6489285e+2, -1213805.1, -1403390.0, 4111.1577, -0.116802216, -0.13229692, -1213716.0, 110317.76, 0.00036087315, 10.001327, 9.998802 
1.6351072e+3, 1.7489134e+2, -1101182.1, -1297216.5, -9207.303, -0.038606644, -0.16892028, -1100750.6, 125299.23, 0.000005927034, 10.001421, 9.998814 
1.635102e+3, 1.8489042e+2, -1011134.94, -1172537.5, -23565.24, -0.0058256406, -0.15260185, -1007764.75, 120295.44, 0.0, 10.001232, 9.999088 
1.6350962e+3, 1.9489025e+2, -980655.4, -1104112.6, -15153.926, -0.037586298, -0.086842164, -978822.5, 51240.695, 0.0, 10.000755, 9.999115 
1.6350903e+3, 2.0488918e+2, -918901.7, -1031879.9, -15763.751, -0.069644526, -0.09904346, -916743.44, 15330.286, 0.0, 10.000541, 9.999043 
1.6350845e+3, 2.1488725e+2, -811132.0, -926394.7, -18956.87, -0.09530923, -0.20247263, -808094.3, 25996.854, 0.0, 10.000595, 9.999069 
1.635079e+3, 2.2488652e+2, -700412.4, -801574.06, -32269.809, -0.07544395, -0.18951748, -690995.2, 45103.074, 0.0, 10.000594, 9.999253 
1.6350737e+3, 2.3488708e+2, -607200.4, -702331.9, -25713.902, -0.010509977, -0.064444065, -600694.8, 37399.027, 0.0, 10.000546, 9.999285 
1.6350682e+3, 2.4488628e+2, -571349.7, -660171.7, -11354.143, 0.022974934, -0.059748486, -569921.25, -29819.813, 0.0, 10.000232, 9.999053 
1.6350627e+3, 2.5488412e+2, -556634.3, -598918.94, -15101.258, 0.023223186, -0.18848163, -551795.0, -109674.41, 0.0, 9.999644, 9.999083 
1.6350572e+3, 2.6488298e+2, -488864.56, -509442.28, -2554.5789, 0.010887623, -0.20949301, -488552.16, -144421.58, 0.0, 9.999413, 9.999135 
1.6350517e+3, 2.7488294e+2, -369729.78, -397798.47, 3489.2764, -0.012990766, -0.13319631, -369302.53, -123171.7, 0.0, 9.999543, 9.999166 
1.635046e+3, 2.848822e+2, -306049.63, -314765.38, -13174.026, -0.006579894, -0.12285016, -296531.4, -148393.98, 0.0, 9.999299, 9.999181 
1.6350405e+3, 2.94881e+2, -301443.03, -261810.44, -23579.1, 0.025185864, -0.16857564, -250826.4, -200678.64, 0.0, 9.998657, 9.99918 
1.635035e+3, 3.0487946e+2, -269147.0, -182840.3, 9994.987, 0.02136661, -0.25349715, -181697.92, -181697.92, 0.0, 9.99838, 9.999522 
1.6350296e+3, 3.1487927e+2, -154491.33, 26220.473, -4341.5435, -0.018305792, -0.2327548, 26324.717, 26324.717, 0.0, 9.998502, 10.0009 
1.6451363e+3, 1.24902286e+2, -1414766.9, -1680611.0, -78951.35, 0.07685426, -0.1928546, -1393087.5, 322853.94, 0.036291655, 10.002642, 9.998965 
1.6451296e+3, 1.3490133e+2, -1423049.0, -1685882.3, 44270.906, -0.17976876, -0.1437031, -1415792.5, 202158.7, 0.022544228, 10.002065, 9.998536 
1.645127e+3, 1.4489949e+2, -1337280.4, -1538314.0, -35174.586, 0.04463689, -0.20385037, -1331303.6, 188665.67, 0.010552243, 10.001727, 9.999031 
1.6451198e+3, 1.5489914e+2, -1230089.0, -1431994.0, -41009.668, -0.06718485, -0.14937425, -1222077.3, 199894.89, 0.0031239854, 10.001763, 9.999069 
1.6451134e+3, 1.6489826e+2, -1173095.3, -1392832.6, -16441.172, -0.11914226, -0.124609455, -1171871.9, 152109.4, 0.0004029895, 10.001646, 9.99872 
1.6451086e+3, 1.7489682e+2, -1113895.9, -1312289.9, -3889.164, -0.044714212, -0.14721602, -1113819.6, 112177.49, 0.0000070009137, 10.001374, 9.998731 
1.6451032e+3, 1.8489586e+2, -1017790.94, -1179759.9, -17516.438, -0.014185871, -0.12868118, -1015918.25, 112089.88, 0.0, 10.001205, 9.99905 
1.645097e+3, 1.9489554e+2, -927877.7, -1083205.3, -25675.563, -0.04954025, -0.07367221, -923743.56, 106269.23, 0.0, 10.001139, 9.999073 
1.645091e+3, 2.0489448e+2, -852826.44, -983250.44, -18958.13, -0.07190262, -0.088329844, -850126.6, 81896.18, 0.0, 10.000924, 9.999192 
1.6450854e+3, 2.1489277e+2, -806148.0, -907368.7, -3616.5776, -0.07397141, -0.184905, -806018.94, 28018.43, 0.0, 10.00056, 9.999215 
1.6450796e+3, 2.2489204e+2, -749217.2, -830382.06, -11921.343, -0.05292766, -0.1774646, -747502.4, -11458.193, 0.0, 10.000282, 9.999206 
1.645074e+3, 2.3489238e+2, -676731.5, -741539.7, -23047.256, -0.010694288, -0.070671596, -669371.25, -31329.203, 0.0, 10.000094, 9.999233 
1.6450682e+3, 2.4489148e+2, -605299.7, -671849.9, -18608.988, 0.013231276, -0.07398224, -600449.6, -60399.152, 0.0, 9.999979, 9.999093 
1.6450626e+3, 2.5488937e+2, -512707.84, -573447.0, -14429.695, 0.017857362, -0.20056671, -509454.13, -67384.98, 0.0, 9.999928, 9.99912 
1.6450568e+3, 2.6488844e+2, -448047.97, -473948.78, 5021.336, 0.016669758, -0.21337365, -447108.56, -103031.26, 0.0, 9.999626, 9.999274 
1.6450511e+3, 2.7488866e+2, -429144.84, -411134.66, 4331.21, 0.010749715, -0.122116975, -410147.2, -164072.86, 0.0, 9.99907, 9.9993 
1.6450454e+3, 2.848879e+2, -359630.8, -350608.84, -11246.055, 0.017353518, -0.11618114, -343002.78, -194921.38, 0.0, 9.998976, 9.999089 
1.6450396e+3, 2.9488635e+2, -212276.11, -228380.33, -22572.473, 0.032775752, -0.18595678, -196362.56, -146266.58, 0.0, 9.999312, 9.999092 
1.6450335e+3, 3.0488503e+2, -182107.16, -148429.17, 9146.624, 0.0045846202, -0.24160083, -146105.38, -146105.38, 0.0, 9.999012, 9.999453 
1.6450281e+3, 3.1488487e+2, -197959.19, 26325.45, -1207.4163, -0.007637086, -0.213141, 26331.95, 26331.95, 0.0, 9.998113, 10.001087 
1.6551381e+3, 1.2490725e+2, -1426941.8, -1707800.6, -75504.2, -0.009106788, -0.19997038, -1407930.5, 307963.72, 0.038870342, 10.002653, 9.998771 
1.6551317e+3, 1.3490751e+2, -1419423.9, -1679792.8, 22238.295, -0.17945972, -0.03274767, -1417538.3, 200354.94, 0.024226949, 10.002071, 9.998576 
1.6551296e+3, 1.4490551e+2, -1342024.3, -1546622.1, -36489.145, 0.13561474, -0.1091011, -1335711.4, 184201.84, 0.011408221, 10.00172, 9.998978 
1.6551219e+3, 1.5490417e+2, -1234816.6, -1441874.0, -38935.848, -0.023065358, -0.14666024, -1227737.0, 194188.13, 0.0034157853, 10.001762, 9.999002 
1.655115e+3, 1.6490312e+2, -1154004.1, -1353815.4, -26908.31, -0.117024384, -0.14935984, -1150443.9, 173491.33, 0.00045137366, 10.001647, 9.998989 
1.6551097e+3, 1.749024e+2, -1094754.6, -1273092.6, -13285.385, -0.069645904, -0.1275536, -1093770.4, 132172.63, 0.000008273259, 10.001374, 9.9990015 
1.655104e+3, 1.8490148e+2, -1034426.5, -1213953.0, -20398.412, -0.057043385, -0.1073713, -1032137.94, 95815.52, 0.0, 10.001204, 9.998817 
1.6550976e+3, 1.9490047e+2, -945361.06, -1119270.8, -27283.719, -0.1055832, -0.09577461, -941181.1, 88784.72, 0.0, 10.001137, 9.998828 
1.6550918e+3, 2.048997e+2, -824637.56, -924647.7, -32501.959, -0.08759112, -0.0902266, -815003.0, 116970.12, 0.0, 10.000922, 9.999596 
1.6550867e+3, 2.1489926e+2, -777554.4, -848335.5, -16345.725, 0.009743408, -0.10094279, -773961.94, 60012.3, 0.0, 10.00056, 9.999621 
1.6550808e+3, 2.248983e+2, -767061.4, -867870.3, -19321.936, 0.034917228, -0.12298094, -763484.8, -27502.271, 0.0, 10.000282, 9.998949 
1.655074e+3, 2.3489687e+2, -694476.8, -779941.0, -28568.05, -0.01787014, -0.16761757, -685806.9, -47809.324, 0.0, 10.000099, 9.998968 
1.6550678e+3, 2.4489589e+2, -594073.8, -649017.44, -19706.607, -0.040220942, -0.1728129, -587736.6, -47729.65, 0.0, 9.99998, 9.99925 
1.6550618e+3, 2.548955e+2, -501278.8, -550093.5, -14412.295, -0.030828154, -0.14336763, -497341.25, -55331.89, 0.0, 9.999928, 9.999281 
1.6550562e+3, 2.648948e+2, -443461.75, -465302.53, -14733.758, -0.008995302, -0.14229056, -436042.6, -92027.836, 0.0, 9.999628, 9.999334 
1.6550504e+3, 2.7489376e+2, -424319.47, -403438.22, -13942.323, 0.025560947, -0.18608774, -396460.6, -150437.48, 0.0, 9.999078, 9.999351 
1.6550447e+3, 2.848927e+2, -364523.28, -362528.9, 1964.1886, 0.040968783, -0.20740709, -361323.28, -213290.25, 0.0, 9.998981, 9.999005 
1.6550389e+3, 2.948919e+2, -216193.02, -237773.78, -8967.338, 0.03341001, -0.19236672, -212953.23, -162911.8, 0.0, 9.999316, 9.999027 
1.6550323e+3, 3.048913e+2, -180743.52, -145176.77, -24229.254, -0.0071121873, -0.17486532, -132905.11, -132905.11, 0.0, 9.999009, 9.999477 
1.6550265e+3, 3.148903e+2, -194190.27, 34454.2, -26267.537, 0.026573904, -0.23266114, 37433.1, 37433.1, 0.0, 9.998112, 10.001143 
1.665141e+3, 1.2491289e+2, -1354298.3, -1694163.9, -37252.36, -0.021479297, -0.18303688, -1350263.0, 365576.25, 0.04162856, 10.003283, 9.99856 
1.6651337e+3, 1.3491306e+2, -1380822.8, -1652998.5, 24232.87, -0.20250264, -0.032558758, -1378682.1, 239156.72, 0.026035924, 10.002318, 9.998638 
1.6651314e+3, 1.4491092e+2, -1341103.1, -1551141.3, -1786.1283, 0.15373659, -0.121476404, -1341087.9, 178772.13, 0.012337034, 10.001751, 9.99893 
1.6651239e+3, 1.5490961e+2, -1236985.5, -1448511.3, -2260.8728, -0.018887384, -0.15268035, -1236961.4, 184910.94, 0.003736676, 10.001773, 9.998951 
1.6651165e+3, 1.6490857e+2, -1147407.8, -1345586.6, -7465.6045, -0.1265873, -0.15235329, -1147126.9, 176755.36, 0.00050616945, 10.00167, 9.999034 
1.665111e+3, 1.7490791e+2, -1084417.1, -1263380.8, -12350.733, -0.09103178, -0.12787208, -1083568.8, 142320.22, 0.000009797576, 10.001424, 9.999044 
1.6651051e+3, 1.84907e+2, -1027768.4, -1197278.6, -9594.195, -0.072489016, -0.115304925, -1027227.06, 100671.945, 0.0, 10.001191, 9.998939 
1.6650988e+3, 1.9490594e+2, -959491.56, -1111876.6, 9124.7, -0.098189324, -0.12313673, -958947.1, 70964.33, 0.0, 10.00098, 9.998953 
1.6650927e+3, 2.0490529e+2, -842859.1, -937710.7, -1640.9076, -0.07410505, -0.10859764, -842830.75, 89086.805, 0.0, 10.000817, 9.999556 
1.6650873e+3, 2.149052e+2, -761267.7, -845289.06, -20102.691, 0.011986494, -0.07998687, -756705.6, 77210.63, 0.0, 10.000694, 9.9995775 
1.6650812e+3, 2.2490427e+2, -721871.2, -838086.75, -23968.451, 0.037692927, -0.100580014, -717121.94, 18802.605, 0.0, 10.00056, 9.999019 
1.6650745e+3, 2.3490253e+2, -644186.25, -748106.25, -10432.768, -0.0033547166, -0.18295753, -643149.25, -5207.325, 0.0, 10.000413, 9.999035 
1.6650678e+3, 2.4490157e+2, -563818.7, -628274.7, 6195.4995, -0.03139592, -0.19265425, -563228.56, -23277.633, 0.0, 10.000161, 9.999305 
1.6650617e+3, 2.5490156e+2, -515461.5, -551033.2, 1669.1143, -0.045431998, -0.13211042, -515383.34, -73433.27, 0.0, 9.999807, 9.999332 
1.6650556e+3, 2.6490086e+2, -448898.06, -473375.25, -9712.951, -0.029236864, -0.12893866, -445512.2, -101556.86, 0.0, 9.999616, 9.999284 
1.6650495e+3, 2.7489948e+2, -357307.4, -377333.72, -18255.594, 0.01942121, -0.20307972, -346499.2, -100532.23, 0.0, 9.999566, 9.999294 
1.6650438e+3, 2.8489828e+2, -317709.72, -334998.28, 7559.4927, 0.04572692, -0.23517385, -314870.56, -166892.64, 0.0, 9.999283, 9.999048 
1.665038e+3, 2.9489768e+2, -292498.22, -267983.97, 3322.9392, 0.045516994, -0.2086261, -267541.53, -217556.72, 0.0, 9.998765, 9.999084 
1.6650312e+3, 3.0489755e+2, -257244.97, -189638.28, -21989.867, -0.00504655, -0.14247954, -183115.2, -183115.2, 0.0, 9.998518, 9.999408 
1.665025e+3, 3.1489623e+2, -152124.98, 23198.135, -24534.67, 0.03941989, -0.21887049, 26566.785, 26566.785, 0.0, 9.998538, 10.00086 
1.6751446e+3, 1.2491912e+2, -1367982.6, -1722187.9, -35294.914, 0.022927996, -0.15105942, -1364500.0, 351277.5, 0.04455171, 10.003285, 9.998363 
1.6751355e+3, 1.3491799e+2, -1374362.1, -1640700.4, -12896.684, -0.25344726, -0.13853018, -1373739.1, 244048.72, 0.027968736, 10.002327, 9.998719 
1.6751327e+3, 1.4491577e+2, -1343357.3, -1556849.4, -3805.0806, 0.0963472, -0.23690793, -1343289.4, 176520.16, 0.013341848, 10.001755, 9.99889 
1.675125e+3, 1.5491544e+2, -1240389.6, -1454997.4, -172.17804, -0.05549019, -0.1661205, -1240389.4, 181424.16, 0.004089343, 10.001769, 9.998909 
1.675118e+3, 1.6491462e+2, -1160271.4, -1371777.3, -16852.777, -0.1504948, -0.13340177, -1158937.0, 164885.38, 0.0005678562, 10.001666, 9.9988575 
1.6751122e+3, 1.7491339e+2, -1097048.6, -1290364.0, -20958.357, -0.11217303, -0.14732537, -1094802.5, 131032.7, 0.000011659807, 10.001426, 9.998859 
1.6751063e+3, 1.8491244e+2, -995094.25, -1129426.8, -17576.45, -0.06491749, -0.15153478, -992832.56, 135012.16, 0.0, 10.001189, 9.999406 
1.6751003e+3, 1.9491188e+2, -926769.3, -1043957.5, 2129.621, -0.032930106, -0.1558785, -926730.6, 103119.26, 0.0, 10.000978, 9.999421 
1.675094e+3, 2.0491125e+2, -876106.1, -1006208.25, -6675.8228, -0.036531072, -0.1426754, -875764.44, 56092.023, 0.0, 10.000814, 9.999087 
1.6750872e+3, 2.1491061e+2, -795260.4, -915846.6, -23450.139, -0.06677631, -0.11999343, -790860.6, 43002.906, 0.0, 10.000692, 9.999095 
1.675081e+3, 2.2490993e+2, -695650.9, -782979.75, -29060.225, -0.043962456, -0.10889975, -686864.6, 49005.664, 0.0, 10.000556, 9.9994 
1.6750751e+3, 2.3490928e+2, -617590.06, -692413.9, -14446.608, 0.0298876, -0.11975351, -614897.7, 22978.049, 0.0, 10.000409, 9.99942 
1.6750687e+3, 2.4490844e+2, -568240.06, -637157.1, -6683.7085, 0.034878533, -0.13603887, -567597.9, -27714.613, 0.0, 10.000158, 9.999247 
1.6750616e+3, 2.5490746e+2, -519524.4, -560787.56, -9570.932, -0.031111246, -0.16493855, -517412.53, -75520.914, 0.0, 9.999811, 9.999265 
1.6750549e+3, 2.6490656e+2, -459805.9, -497224.1, -10541.8, -0.047692202, -0.17261605, -457040.38, -113140.9, 0.0, 9.999619, 9.99912 
1.6750488e+3, 2.749057e+2, -367924.4, -400415.84, -17987.729, -0.011665431, -0.1756587, -359932.1, -114025.39, 0.0, 9.999569, 9.999135 
1.675043e+3, 2.8490457e+2, -305991.1, -311704.75, -10948.088, 0.02795818, -0.20086554, -297533.22, -149616.38, 0.0, 9.999286, 9.9992075 
1.675037e+3, 2.9490358e+2, -279142.7, -241670.28, -13642.755, 0.06412255, -0.22938523, -237229.55, -187303.2, 0.0, 9.99877, 9.999263 
1.6750298e+3, 3.0490366e+2, -269070.4, -215636.4, -20774.674, 0.007301123, -0.1432339, -208509.86, -208509.86, 0.0, 9.998522, 9.9992285 
1.6750233e+3, 3.14903e+2, -199187.81, -76568.766, -5491.361, 0.014798916, -0.13795772, -76323.336, -76323.336, 0.0, 9.998546, 10.000172 
1.6851479e+3, 1.2492558e+2, -1349525.0, -1746406.9, 21624.451, 0.010341023, -0.15917084, -1348350.3, 367361.94, 0.04763037, 10.003576, 9.9980545 
1.685138e+3, 1.3492395e+2, -1312453.5, -1622494.3, -14041.273, -0.25075567, -0.18601055, -1311818.9, 305908.8, 0.030026976, 10.002823, 9.998606 
1.6851348e+3, 1.4492187e+2, -1295172.0, -1545513.0, 10271.311, 0.10836169, -0.25893947, -1294751.3, 224997.33, 0.014428621, 10.002144, 9.998781 
1.6851269e+3, 1.5492168e+2, -1257167.1, -1475236.9, 9326.45, -0.056358393, -0.16326183, -1256768.9, 164983.11, 0.0044782558, 10.001705, 9.998801 
1.6851196e+3, 1.6492088e+2, -1182972.0, -1372496.4, 4180.3604, -0.1535786, -0.12682167, -1182879.9, 140880.88, 0.0006375465, 10.001467, 9.998948 
1.6851136e+3, 1.749196e+2, -1089211.6, -1275906.9, 19160.945, -0.108078726, -0.15679398, -1087265.4, 138508.4, 0.00001399049, 10.001435, 9.998953 
1.6851076e+3, 1.8491864e+2, -986434.44, -1126586.0, 10598.246, -0.056798372, -0.16618967, -985637.56, 142145.58, 0.0, 10.001255, 9.999393 
1.6851014e+3, 1.9491813e+2, -938637.6, -1051848.9, -6840.11, -0.024958221, -0.16335729, -938225.8, 91562.06, 0.0, 10.000905, 9.999402 
1.6850947e+3, 2.0491745e+2, -891134.25, -1013457.56, -8079.661, -0.035576865, -0.15224917, -890602.9, 41191.957, 0.0, 10.0007105, 9.999088 
1.6850878e+3, 2.1491672e+2, -796886.5, -915872.8, 9192.256, -0.080555335, -0.14090934, -796180.5, 37622.434, 0.0, 10.000679, 9.9991 
1.6850813e+3, 2.2491606e+2, -714424.9, -796487.0, -1559.975, -0.057877332, -0.1254999, -714395.25, 21414.477, 0.0, 10.000448, 9.999358 
1.6850755e+3, 2.3491558e+2, -679739.44, -727034.6, -20151.953, 0.031129012, -0.11497115, -672317.56, -34503.496, 0.0, 10.000006, 9.999375 
1.6850689e+3, 2.4491484e+2, -609267.8, -646011.7, -15460.264, 0.045098033, -0.12279313, -603628.3, -63807.68, 0.0, 9.999832, 9.999342 
1.6850615e+3, 2.549139e+2, -495879.97, -539175.75, -8359.446, -0.018047709, -0.15815668, -494322.0, -52493.574, 0.0, 9.99993, 9.999355 
1.6850547e+3, 2.6491296e+2, -443105.4, -496109.72, -3396.633, -0.035224117, -0.1674764, -442888.63, -99052.195, 0.0, 9.9997635, 9.999057 
1.6850485e+3, 2.7491212e+2, -407234.63, -426757.56, -5078.409, -0.0037009693, -0.16454147, -405992.63, -160148.3, 0.0, 9.999331, 9.999068 
1.6850421e+3, 2.8491104e+2, -328173.84, -322336.75, 350.9482, 0.025634099, -0.1819713, -322315.72, -174461.6, 0.0, 9.999135, 9.999207 
1.6850358e+3, 2.9491007e+2, -222765.47, -212677.34, -16712.443, 0.049759075, -0.20869246, -200264.36, -150401.36, 0.0, 9.99915, 9.999279 
1.6850285e+3, 3.0490988e+2, -189160.1, -170009.97, -14194.774, 0.00006842173, -0.15375611, -162462.72, -162462.72, 0.0, 9.999042, 9.9992895 
1.685022e+3, 3.149093e+2, -181074.44, -100767.41, 32251.496, 0.014621717, -0.1407636, -89418.84, -89418.84, 0.0, 9.99881, 9.999879 
1.6951507e+3, 1.2493214e+2, -1381162.0, -1811965.0, 33210.434, -0.06823655, -0.22183864, -1378616.9, 337028.1, 0.05086495, 10.00357, 9.99761 
1.6951413e+3, 1.3493092e+2, -1334687.3, -1667373.8, -43127.73, -0.20056418, -0.17673913, -1329187.4, 288471.28, 0.032215923, 10.002817, 9.9983015 
1.6951378e+3, 1.4492917e+2, -1308330.5, -1573350.1, -9015.313, 0.18270911, -0.19240002, -1308024.1, 211653.5, 0.015604373, 10.002144, 9.998591 
1.695129e+3, 1.5492831e+2, -1268700.0, -1501648.0, -6547.3984, -0.027833227, -0.14422815, -1268516.1, 153171.56, 0.0049088504, 10.001715, 9.998616 
1.6951211e+3, 1.6492738e+2, -1157199.4, -1320433.6, 2547.866, -0.14182581, -0.13075374, -1157159.6, 166537.58, 0.0007170378, 10.0014715, 9.999304 
1.6951153e+3, 1.7492649e+2, -1063999.5, -1223801.4, 18668.6, -0.08260856, -0.15797272, -1061847.5, 163857.31, 0.000016975888, 10.001434, 9.999312 
1.6951089e+3, 1.8492554e+2, -1021227.3, -1197746.8, -2746.2717, -0.051752657, -0.16064379, -1021184.56, 106530.01, 0.0, 10.001249, 9.998908 
1.6951019e+3, 1.9492464e+2, -973249.06, -1124050.5, -19058.896, -0.07442806, -0.14645393, -970877.6, 58847.875, 0.0, 10.000905, 9.998908 
1.6950952e+3, 2.0492391e+2, -859594.75, -947657.56, -9237.505, -0.07191548, -0.13776796, -858636.2, 73096.54, 0.0, 10.000708, 9.999542 
1.695089e+3, 2.1492346e+2, -765039.8, -849240.0, 9123.743, -0.034230035, -0.14431623, -764062.56, 69672.52, 0.0, 10.000675, 9.99956 
1.6950823e+3, 2.2492261e+2, -746449.6, -862485.9, -18203.086, -0.010043731, -0.15074682, -743661.06, -7917.583, 0.0, 10.000444, 9.998908 
1.695075e+3, 2.349214e+2, -711616.7, -794798.5, -34887.844, -0.0022988012, -0.16717334, -698921.6, -61164.465, 0.0, 10.0000105, 9.998909 
1.6950682e+3, 2.4492076e+2, -592569.94, -612180.0, -10780.829, -0.0019702448, -0.15201502, -587802.2, -48038.746, 0.0, 9.999834, 9.999574 
1.6950616e+3, 2.5492078e+2, -479186.16, -504685.53, -2557.6714, -0.008618478, -0.11259315, -478932.16, -37171.12, 0.0, 9.999929, 9.999593 
1.6950549e+3, 2.649201e+2, -441213.22, -492567.2, -18722.885, 0.0048586386, -0.114339374, -435112.0, -91345.164, 0.0, 9.9997635, 9.999083 
1.6950482e+3, 2.749187e+2, -405225.78, -424477.16, -19057.617, 0.036910474, -0.16754417, -393500.9, -147720.6, 0.0, 9.999338, 9.999081 
1.6950414e+3, 2.8491762e+2, -339189.72, -347022.94, 1605.75, 0.033652436, -0.17743935, -338873.34, -191082.88, 0.0, 9.999141, 9.999036 
1.6950344e+3, 2.9491702e+2, -233690.39, -235179.66, -13763.247, -0.0025445446, -0.14738518, -220651.66, -170855.94, 0.0, 9.999147, 9.999127 
1.6950272e+3, 3.0491605e+2, -167864.39, -126558.83, -22342.982, -0.031603526, -0.17956644, -116785.53, -116785.53, 0.0, 9.999043, 9.999589 
1.695021e+3, 3.1491554e+2, -165191.05, -70964.19, 41353.656, 0.024835765, -0.18941242, -55389.496, -55389.496, 0.0, 9.998823, 10.000077 
1.7051543e+3, 1.24938935e+2, -1409930.0, -1817768.8, 19516.617, -0.06877376, -0.21371676, -1408998.3, 306580.5, 0.054258425, 10.003333, 9.997684 
1.7051443e+3, 1.3493788e+2, -1323878.8, -1653250.0, -73367.97, -0.18629058, -0.16126083, -1308275.1, 309315.88, 0.034540452, 10.002865, 9.998376 
1.7051397e+3, 1.4493638e+2, -1270230.1, -1556876.3, -8646.753, 0.16879083, -0.15384941, -1269969.5, 249637.67, 0.016874576, 10.002424, 9.998569 
1.7051308e+3, 1.5493502e+2, -1209242.5, -1475390.6, 5563.299, -0.023692295, -0.15565592, -1209126.3, 212495.36, 0.0053858333, 10.002136, 9.998593 
1.7051229e+3, 1.6493396e+2, -1115968.9, -1300572.8, 12358.917, -0.1281659, -0.15239383, -1115145.1, 208487.02, 0.00080826663, 10.001754, 9.999305 
1.7051166e+3, 1.7493339e+2, -1087735.3, -1235741.8, 478.0503, -0.07152453, -0.14613053, -1087733.8, 137903.38, 0.000020835996, 10.001272, 9.99931 
1.70511e+3, 1.8493259e+2, -1053041.4, -1214052.3, -12418.189, -0.050388157, -0.13414662, -1052089.3, 75556.414, 0.0, 10.001035, 9.9989 
1.7051026e+3, 1.9493163e+2, -953033.8, -1114707.1, 5298.9126, -0.091001496, -0.12546885, -952860.3, 76796.78, 0.0, 10.001049, 9.998901 
1.7050958e+3, 2.0493078e+2, -832098.94, -929204.0, 17565.377, -0.0826875, -0.12993222, -829019.2, 102645.93, 0.0, 10.000876, 9.999586 
1.7050897e+3, 2.1493019e+2, -788194.56, -855845.8, 3703.979, -0.015761541, -0.15593192, -787992.3, 45676.184, 0.0, 10.000498, 9.999599 
1.7050828e+3, 2.2492933e+2, -741467.3, -852688.2, -14289.626, 0.0009259192, -0.16664103, -739660.75, -3984.2827, 0.0, 10.000448, 9.998972 
1.705075e+3, 2.349283e+2, -600971.8, -734419.44, 5334.9487, -0.03667861, -0.17206769, -600758.9, 36929.332, 0.0, 10.000741, 9.99897 
1.705068e+3, 2.449276e+2, -510646.66, -592036.8, 23482.85, -0.037914447, -0.15656555, -504357.34, 35337.832, 0.0, 10.000481, 9.9994 
1.7050615e+3, 2.5492737e+2, -532802.9, -549793.8, -450.33234, -0.00035635216, -0.12860869, -532790.94, -91094.85, 0.0, 9.999647, 9.999418 
1.7050548e+3, 2.6492655e+2, -501766.8, -518417.4, -20839.69, 0.031072725, -0.13411528, -487651.0, -143947.6, 0.0, 9.999337, 9.999109 
1.7050478e+3, 2.7492523e+2, -372406.56, -405804.78, -22564.777, 0.053541273, -0.18154623, -361033.8, -115317.44, 0.0, 9.999553, 9.999105 
1.7050406e+3, 2.849244e+2, -299983.56, -319280.1, 2728.782, 0.041532997, -0.17442466, -299605.13, -151880.72, 0.0, 9.999373, 9.999113 
1.7050335e+3, 2.9492405e+2, -277316.63, -248091.94, 4855.4414, 0.001611483, -0.12522975, -247306.36, -197579.61, 0.0, 9.998815, 9.999198 
1.7050262e+3, 3.0492258e+2, -237705.73, -152887.28, 362.75443, -0.0055408594, -0.21489832, -152885.72, -152885.72, 0.0, 9.998533, 9.999654 
1.7050195e+3, 3.149222e+2, -199360.0, -55458.367, 53863.895, 0.0139206145, -0.21379873, -37530.156, -37530.156, 0.0, 9.998454, 10.0003605 
1.7151582e+3, 1.2494577e+2, -1376868.5, -1741408.1, 36576.027, -0.0030281348, -0.15868205, -1373234.9, 342280.3, 0.05779923, 10.0033245, 9.998215 
1.7151469e+3, 1.3494486e+2, -1294192.6, -1589302.4, -90449.625, -0.21187672, -0.13781834, -1268676.5, 348847.88, 0.03699678, 10.002867, 9.998819 
1.7151412e+3, 1.4494357e+2, -1261529.4, -1538008.1, -21553.863, 0.06441976, -0.1390613, -1259859.1, 259677.7, 0.018240586, 10.002423, 9.998699 
1.7151327e+3, 1.5494174e+2, -1200358.8, -1456781.1, -4458.9214, -0.045670427, -0.1980349, -1200281.1, 221272.77, 0.0059123994, 10.002136, 9.998722 
1.7151247e+3, 1.6494061e+2, -1140609.5, -1351836.4, -5854.7783, -0.11595912, -0.19174102, -1140447.4, 183118.33, 0.0009130127, 10.001753, 9.998955 
1.715118e+3, 1.7494032e+2, -1111708.3, -1287358.5, -16597.184, -0.07722308, -0.12102339, -1110153.8, 115416.72, 0.000025810483, 10.001279, 9.998953 
1.7151111e+3, 1.8493979e+2, -1021434.5, -1149139.1, -12148.765, -0.057076816, -0.08693725, -1020289.0, 107287.47, 0.0, 10.001036, 9.999346 
1.7151037e+3, 1.9493905e+2, -921434.75, -1049204.1, 6892.2954, -0.078778476, -0.102604166, -921064.06, 108519.086, 0.0, 10.001047, 9.999353 
1.7150968e+3, 2.0493804e+2, -857613.7, -981005.25, 3484.1113, -0.07229889, -0.12967783, -857515.4, 74077.1, 0.0, 10.000871, 9.999234 
1.7150901e+3, 2.1493685e+2, -814509.8, -909709.1, -9100.113, -0.027538933, -0.1753371, -813647.75, 19955.666, 0.0, 10.000493, 9.999233 
1.715083e+3, 2.2493622e+2, -704055.4, -773596.1, -3338.8562, -0.02662871, -0.17301658, -703895.44, 31713.549, 0.0, 10.000442, 9.999519 
1.7150754e+3, 2.3493622e+2, -562880.7, -654147.6, 17689.717, -0.07382088, -0.1313783, -559571.94, 78036.04, 0.0, 10.000734, 9.999526 
1.7150682e+3, 2.449353e+2, -551635.6, -675820.4, -7260.3574, -0.06578047, -0.13779359, -551212.56, -11595.959, 0.0, 10.000474, 9.998828 
1.7150612e+3, 2.5493354e+2, -573160.1, -634967.75, -29694.799, 0.0014352908, -0.20426741, -561205.75, -119571.72, 0.0, 9.999652, 9.998832 
1.7150542e+3, 2.6493225e+2, -499436.44, -515618.6, -11858.796, 0.039781712, -0.22550835, -493171.44, -149524.77, 0.0, 9.999344, 9.999126 
1.7150472e+3, 2.7493164e+2, -370413.97, -402085.13, -12729.1, 0.043627527, -0.20639467, -365932.2, -120278.93, 0.0, 9.999554, 9.999132 
1.7150402e+3, 2.849312e+2, -277663.94, -272648.75, -17651.695, 0.045614433, -0.17254698, -257327.42, -109670.734, 0.0, 9.999372, 9.999435 
1.7150329e+3, 2.9493105e+2, -256546.48, -206378.28, -12717.343, 0.055723164, -0.13896623, -203338.69, -153682.0, 0.0, 9.99882, 9.999482 
1.7150256e+3, 3.0492932e+2, -251282.1, -184211.25, -2448.5796, 0.07185693, -0.25816146, -184121.97, -184121.97, 0.0, 9.998544, 9.999435 
1.7150174e+3, 3.1492877e+2, -165564.03, 12051.671, 56830.57, -0.028668867, -0.25684956, 28678.863, 28678.863, 0.0, 9.998463, 10.000822 
1.7251617e+3, 1.24952905e+2, -1341314.3, -1700421.0, 105056.2, -0.011384918, -0.16082542, -1312838.3, 402607.06, 0.061463173, 10.003494, 9.998425 
1.72515e+3, 1.3495187e+2, -1301751.3, -1588076.0, -80690.14, -0.19161808, -0.15590653, -1280577.5, 336877.63, 0.03957232, 10.002802, 9.998859 
1.7251432e+3, 1.4495079e+2, -1259489.5, -1520002.3, -8710.19, 0.023620564, -0.14467078, -1259198.5, 260266.5, 0.019698907, 10.002367, 9.998851 
1.7251348e+3, 1.5494913e+2, -1164632.5, -1422352.1, 9891.306, -0.049471434, -0.20381914, -1164253.4, 257226.64, 0.0064899237, 10.002311, 9.998875 
1.7251268e+3, 1.6494793e+2, -1103739.5, -1352092.5, 7540.4404, -0.1024689, -0.20476188, -1103510.8, 219981.6, 0.001032905, 10.002086, 9.998793 
1.7251195e+3, 1.749473e+2, -1066670.8, -1284381.9, 9005.344, -0.07350585, -0.15023343, -1066298.9, 159201.92, 0.00003215152, 10.001669, 9.998785 
1.7251123e+3, 1.8494667e+2, -972208.94, -1107329.5, 21707.553, -0.04943125, -0.1246984, -968807.2, 158700.17, 0.0, 10.001297, 9.999507 
1.725105e+3, 1.9494611e+2, -920877.3, -1031254.3, 17824.99, -0.052402705, -0.13890985, -918070.1, 111440.95, 0.0, 10.000975, 9.999512 
1.7250977e+3, 2.0494515e+2, -892172.56, -1019515.44, 6038.9814, -0.054931037, -0.15859926, -891886.8, 39633.19, 0.0, 10.000728, 9.999039 
1.7250904e+3, 2.1494392e+2, -818670.0, -933402.56, 3390.26, -0.048230153, -0.1920662, -818569.9, 14963.311, 0.0, 10.000562, 9.999037 
1.7250831e+3, 2.2494325e+2, -720338.1, -773989.1, 7185.2188, -0.044715043, -0.18378821, -719392.5, 16146.88, 0.0, 10.000299, 9.999584 
1.725076e+3, 2.3494335e+2, -675735.9, -700680.3, -9129.484, -0.048525468, -0.14046942, -672751.6, -35214.445, 0.0, 9.999928, 9.999593 
1.7250685e+3, 2.4494244e+2, -637331.56, -717349.1, -38557.605, -0.03938097, -0.1478095, -621776.0, -82230.53, 0.0, 9.999891, 9.998822 
1.725061e+3, 2.549406e+2, -495016.53, -598733.5, -20876.383, -0.013751945, -0.22003484, -490972.2, -49408.242, 0.0, 10.000197, 9.9988165 
1.7250536e+3, 2.649394e+2, -400341.4, -464943.75, 19711.248, 0.017708482, -0.23542845, -394802.13, -51225.945, 0.0, 10.000012, 9.999151 
1.7250468e+3, 2.74939e+2, -402417.97, -414333.88, 17773.133, 0.049355835, -0.19596073, -389630.75, -144050.28, 0.0, 9.999323, 9.999158 
1.7250393e+3, 2.8493854e+2, -336603.9, -296934.0, 1501.4355, 0.05108075, -0.16940716, -296877.25, -149292.88, 0.0, 9.998952, 9.99947 
1.7250314e+3, 2.9493803e+2, -245071.61, -200945.97, -16056.328, 0.036621336, -0.17693108, -195721.92, -146133.72, 0.0, 9.998902, 9.99948 
1.7250246e+3, 3.0493656e+2, -234678.63, -202413.25, -11877.704, 0.09838293, -0.25361395, -198512.38, -198512.38, 0.0, 9.998773, 9.9992 
1.7250161e+3, 3.149362e+2, -138295.73, 59626.664, 37470.566, -0.012761752, -0.21203773, 66483.055, 66483.055, 0.0, 9.998504, 10.001129 
1.7351642e+3, 1.24960326e+2, -1355949.6, -1725631.4, 98117.74, -0.09868943, -0.21837927, -1331522.1, 383847.03, 0.06523749, 10.003477, 9.99826 
1.7351535e+3, 1.3495892e+2, -1327636.9, -1640510.5, -107371.97, -0.13206924, -0.2160216, -1294333.9, 323049.88, 0.042257246, 10.002795, 9.998503 
1.7351457e+3, 1.4495808e+2, -1248889.0, -1496374.1, -11940.211, 0.039723333, -0.1708414, -1248314.3, 271077.7, 0.021244539, 10.002362, 9.99902 
1.7351374e+3, 1.5495718e+2, -1151971.5, -1397126.4, 8999.275, -0.040192682, -0.1729928, -1151641.6, 269758.34, 0.007118056, 10.002315, 9.999048 
1.735129e+3, 1.6495588e+2, -1102681.0, -1350040.3, -8498.201, -0.09468988, -0.19116405, -1102389.5, 221022.97, 0.0011691411, 10.002085, 9.998808 
1.7351212e+3, 1.7495432e+2, -1065652.0, -1282633.9, -5973.812, -0.06359888, -0.23333563, -1065487.8, 159940.84, 0.00004011834, 10.001669, 9.998797 
1.7351137e+3, 1.8495326e+2, -981348.9, -1125818.5, 9622.976, -0.030655023, -0.2448297, -980710.7, 146727.8, 0.0, 10.001293, 9.999382 
1.7351064e+3, 1.9495283e+2, -930176.1, -1050528.1, 6991.843, -0.015748655, -0.23110321, -929771.3, 99669.61, 0.0, 10.000973, 9.999381 
1.7350987e+3, 2.0495215e+2, -896014.6, -1027283.6, -583.33795, -0.03494812, -0.21475281, -896012.06, 35435.773, 0.0, 10.000725, 9.998987 
1.7350908e+3, 2.1495126e+2, -822349.5, -941771.25, -1508.8121, -0.08024331, -0.20777865, -822330.44, 11128.107, 0.0, 10.000563, 9.99898 
1.7350833e+3, 2.2495039e+2, -748406.25, -831989.06, -6187.8203, -0.056780178, -0.1998354, -747950.6, -12482.314, 0.0, 10.000298, 9.999187 
1.7350768e+3, 2.3494966e+2, -704461.75, -760010.06, -20946.729, 0.03350498, -0.19755986, -697448.44, -59972.684, 0.0, 9.999927, 9.999187 
1.7350693e+3, 2.44949e+2, -600961.56, -641408.94, -26279.941, 0.035808846, -0.18560281, -588024.56, -48542.445, 0.0, 9.999887, 9.999347 
1.7350608e+3, 2.549485e+2, -458006.47, -521842.56, -7476.7773, -0.048408475, -0.17763522, -457142.44, -15655.725, 0.0, 10.0001955, 9.999346 
1.735053e+3, 2.6494783e+2, -398773.75, -461365.66, -5390.8003, -0.037377875, -0.16546729, -398312.84, -54819.914, 0.0, 10.0000105, 9.999178 
1.7350462e+3, 2.7494723e+2, -400084.16, -411509.63, -6600.898, 0.06447013, -0.14882763, -397067.22, -151568.36, 0.0, 9.9993305, 9.999174 
1.7350383e+3, 2.8494623e+2, -352758.3, -333265.28, -134.09923, 0.05199273, -0.16528116, -333264.38, -185755.89, 0.0, 9.998961, 9.999217 
1.7350295e+3, 2.9494473e+2, -265039.7, -244374.23, -15382.348, -0.05937772, -0.24319497, -236176.39, -186653.67, 0.0, 9.998907, 9.999181 
1.7350231e+3, 3.0494422e+2, -253549.95, -241606.67, -21434.375, 0.070076615, -0.1964494, -225327.63, -225327.63, 0.0, 9.998772, 9.998932 
1.7350154e+3, 3.1494367e+2, -130957.28, 74279.945, 8206.313, 0.061103586, -0.15155813, 74607.55, 74607.55, 0.0, 9.998507, 10.001228 
1.7451674e+3, 1.249685e+2, -1380524.1, -1726234.1, 116059.58, -0.124186635, -0.23910084, -1345175.6, 370111.34, 0.069128506, 10.003257, 9.998366 
1.7451568e+3, 1.3496694e+2, -1331278.8, -1644449.5, -79769.58, -0.080870785, -0.2513473, -1312130.9, 305171.8, 0.045049455, 10.0027895, 9.998473 
1.745148e+3, 1.4496587e+2, -1253439.4, -1519149.6, 32797.348, 0.018309804, -0.21651256, -1249451.0, 269862.25, 0.022873743, 10.002427, 9.998828 
1.7451395e+3, 1.5496498e+2, -1181870.9, -1432962.9, 25993.475, -0.044513486, -0.1967729, -1179208.3, 242113.6, 0.0077954754, 10.002204, 9.998854 
1.7451312e+3, 1.6496374e+2, -1112821.1, -1349236.4, -8903.291, -0.08759903, -0.20407158, -1112486.3, 210847.97, 0.0013223072, 10.001991, 9.9988575 
1.7451231e+3, 1.749622e+2, -1042544.0, -1265574.4, -5115.9297, -0.056361087, -0.24937713, -1042426.7, 182922.92, 0.000049909977, 10.001804, 9.998849 
1.7451152e+3, 1.8496104e+2, -955559.1, -1128958.0, 10891.678, -0.024117209, -0.26630497, -954877.7, 172482.75, 0.0000000000000006446772, 10.001539, 9.999242 
1.7451075e+3, 1.9496039e+2, -908817.8, -1055937.4, 5616.1025, -0.010771807, -0.26027378, -908603.75, 120761.5, 0.0, 10.001189, 9.999238 
1.7450994e+3, 2.0495968e+2, -861582.7, -1008637.25, 8544.838, -0.032592054, -0.23992752, -861087.8, 70284.766, 0.0, 10.000955, 9.999003 
1.7450914e+3, 2.1495898e+2, -781080.9, -920166.06, 11275.32, -0.082486264, -0.21527132, -780172.75, 53208.8, 0.0, 10.000839, 9.998994 
1.7450838e+3, 2.2495808e+2, -709521.06, -826199.0, 12393.075, -0.06237706, -0.20406884, -708219.25, 27172.545, 0.0, 10.000622, 9.99907 
1.7450768e+3, 2.3495711e+2, -657891.5, -750953.1, 16343.198, 0.025962574, -0.21494202, -655104.8, -17702.709, 0.0, 10.000306, 9.999065 
1.7450692e+3, 2.4495646e+2, -579683.75, -623787.56, 18636.568, 0.031241123, -0.19832233, -572863.4, -33454.707, 0.0, 10.000003, 9.999411 
1.7450608e+3, 2.5495628e+2, -525169.2, -546749.1, 1927.0508, -0.045483, -0.16540246, -524998.44, -83587.95, 0.0, 9.999705, 9.99941 
1.7450528e+3, 2.6495573e+2, -470639.84, -493992.72, -27209.625, -0.033229385, -0.14723296, -452707.13, -109291.35, 0.0, 9.999512, 9.999192 
1.7450455e+3, 2.7495497e+2, -385636.94, -403211.25, -30695.613, 0.06264229, -0.14640346, -362495.5, -117072.65, 0.0, 9.999426, 9.999184 
1.7450373e+3, 2.8495386e+2, -310353.78, -304690.7, -4891.19, 0.042362146, -0.17768086, -301870.56, -154437.08, 0.0, 9.99922, 9.999288 
1.7450282e+3, 2.9495236e+2, -268524.03, -241905.66, 2747.8435, -0.07523127, -0.26343897, -241624.95, -192176.95, 0.0, 9.998869, 9.999215 
1.7450218e+3, 3.0495256e+2, -274352.88, -260975.81, 20971.2, 0.08612143, -0.13532183, -245652.34, -245652.34, 0.0, 9.99867, 9.998849 
1.7450139e+3, 3.1495118e+2, -133385.38, 52210.55, 27907.652, 0.060669746, -0.17449236, 56316.145, 56316.145, 0.0, 9.998583, 10.00104 
1.755171e+3, 1.24977484e+2, -1363898.8, -1679348.8, 96547.53, -0.09334889, -0.21653534, -1336695.1, 378503.13, 0.0731461, 10.0032215, 9.99871 
1.75516e+3, 1.3497585e+2, -1313011.9, -1605162.1, -96956.195, -0.042128343, -0.26373187, -1283763.1, 333449.16, 0.04794812, 10.002794, 9.998747 
1.7551497e+3, 1.4497416e+2, -1289941.6, -1598280.3, 23088.482, -0.044906173, -0.27835342, -1288222.4, 231006.36, 0.02458278, 10.002438, 9.99828 
1.7551416e+3, 1.5497257e+2, -1220527.6, -1514320.8, 18006.725, -0.06489686, -0.27377194, -1219428.1, 201817.78, 0.008520388, 10.002207, 9.998294 
1.7551331e+3, 1.6497146e+2, -1107713.6, -1337874.3, -16437.89, -0.08435732, -0.24343121, -1106545.5, 216712.42, 0.0014925124, 10.0019865, 9.998939 
1.755125e+3, 1.7497087e+2, -1036995.4, -1254347.8, -11489.953, -0.055749338, -0.19996345, -1036389.7, 188874.63, 0.00006156021, 10.001804, 9.998927 
1.7551167e+3, 1.8496992e+2, -966422.6, -1151751.6, -2408.1118, -0.035185628, -0.19272998, -966391.3, 160882.23, 0.0000000010737394, 10.001538, 9.999086 
1.7551084e+3, 1.9496867e+2, -919953.9, -1079840.9, -6400.2524, -0.0390466, -0.2307332, -919698.1, 109586.56, 0.0, 10.001191, 9.999074 
1.7551003e+3, 2.0496766e+2, -856308.3, -997331.06, 4367.8574, -0.049280576, -0.23557767, -856173.2, 75121.57, 0.0, 10.000952, 9.999083 
1.7550924e+3, 2.1496701e+2, -776663.75, -909442.4, 8522.982, -0.059474383, -0.21426104, -776118.9, 57183.64, 0.0, 10.000831, 9.999072 
1.7550844e+3, 2.2496627e+2, -700684.75, -806387.9, 921.0061, -0.06615466, -0.19699545, -700676.75, 34633.605, 0.0, 10.000614, 9.99921 
1.7550762e+3, 2.3496558e+2, -648395.25, -731753.56, 6256.2383, -0.07124473, -0.19455318, -647928.3, -10611.125, 0.0, 10.000305, 9.999198 
1.7550683e+3, 2.4496473e+2, -606575.4, -679486.06, 7819.569, -0.053826272, -0.1866334, -605746.2, -66420.086, 0.0, 10.000002, 9.999029 
1.7550609e+3, 2.5496387e+2, -552186.3, -603249.9, -7433.219, -0.009921284, -0.1824641, -551126.25, -109790.4, 0.0, 9.999705, 9.9990225 
1.755053e+3, 2.6496294e+2, -470683.03, -495289.63, -29451.844, 0.024248784, -0.18032199, -451067.97, -107722.695, 0.0, 9.999516, 9.999183 
1.7550448e+3, 2.749621e+2, -385660.6, -404546.44, -31483.607, 0.04049213, -0.18882948, -362234.28, -116881.08, 0.0, 9.99943, 9.999174 
1.7550363e+3, 2.849613e+2, -283524.56, -249071.66, -17505.53, 0.01911395, -0.20681332, -241738.11, -94377.78, 0.0, 9.99922, 9.99967 
1.7550278e+3, 2.9496074e+2, -241490.61, -189163.89, -9301.904, -0.017503642, -0.23938203, -187559.52, -138194.28, 0.0, 9.998882, 9.999571 
1.755021e+3, 3.0496165e+2, -263961.1, -242018.84, 19010.39, 0.13853255, -0.065196306, -231040.94, -231040.94, 0.0, 9.99868, 9.998974 
1.755012e+3, 3.1495938e+2, -187742.0, -58711.7, -18483.299, 0.00515937, -0.2033496, -56116.215, -56116.215, 0.0, 9.998574, 10.000282 
1.7651735e+3, 1.2498596e+2, -1520809.8, -1753241.3, 80474.4, -0.09320763, -0.21433328, -1495667.0, 219448.28, 0.07730057, 10.002045, 9.998761 
1.7651631e+3, 1.3498457e+2, -1268559.0, -1576532.1, -122192.375, -0.011099239, -0.2411846, -1225967.8, 391159.16, 0.050952706, 10.003098, 9.9988 
1.765152e+3, 1.449827e+2, -1175856.8, -1547753.3, -21117.191, -0.09645453, -0.27384394, -1174661.6, 344483.25, 0.026366603, 10.003273, 9.998223 
1.7651439e+3, 1.5498096e+2, -1165763.9, -1494179.9, 7959.609, -0.067387454, -0.27845985, -1165571.0, 255592.05, 0.009289176, 10.002618, 9.998233 
1.7651354e+3, 1.649798e+2, -1090995.4, -1338696.6, -5421.2905, -0.065700084, -0.24521597, -1090876.9, 232298.84, 0.0016790415, 10.002145, 9.998856 
1.7651267e+3, 1.7497928e+2, -1036596.56, -1263747.3, -14590.607, -0.051996775, -0.18776847, -1035663.2, 189518.86, 0.000074904594, 10.00185, 9.998839 
1.7651181e+3, 1.8497829e+2, -966034.6, -1158660.0, -9846.662, -0.041425157, -0.17595996, -965532.6, 161659.4, 0.000000009428086, 10.001574, 9.999021 
1.7651096e+3, 1.9497694e+2, -904562.6, -1080025.3, -8870.432, -0.04814559, -0.217393, -904115.3, 125089.04, 0.0, 10.001331, 9.999004 
1.7651013e+3, 2.049759e+2, -842978.75, -980001.7, 7697.3433, -0.050411843, -0.22603835, -842547.7, 88666.8, 0.0, 10.000998, 9.99918 
1.7650932e+3, 2.149753e+2, -807685.75, -913109.9, 11254.054, -0.042927455, -0.21008654, -806497.75, 26723.406, 0.0, 10.000572, 9.99917 
1.765085e+3, 2.2497459e+2, -738380.5, -821123.9, 5213.3105, -0.0570434, -0.19732827, -738053.3, -2824.877, 0.0, 10.000341, 9.999239 
1.7650762e+3, 2.349739e+2, -646973.6, -728009.2, 953.9697, -0.09524835, -0.19692974, -646962.4, -9727.211, 0.0, 10.000304, 9.999224 
1.7650682e+3, 2.44973e+2, -599450.2, -675550.56, 6000.717, -0.07821886, -0.19400625, -598979.9, -59735.555, 0.0, 10.00005, 9.999033 
1.7650606e+3, 2.5497207e+2, -569375.06, -611177.9, 18045.688, -0.0016286997, -0.19731572, -562662.75, -121408.17, 0.0, 9.999587, 9.999024 
1.7650525e+3, 2.6497114e+2, -489118.78, -487295.4, 27895.41, 0.03793427, -0.20535515, -460296.78, -117032.96, 0.0, 9.999317, 9.999331 
1.765044e+3, 2.7497026e+2, -404708.4, -396783.5, 36253.01, 0.033614717, -0.23040473, -364277.03, -119005.81, 0.0, 9.9992285, 9.999323 
1.7650354e+3, 2.849696e+2, -311371.3, -271916.8, 32991.324, 0.014589439, -0.23884366, -253204.6, -105927.27, 0.0, 9.99907, 9.999584 
1.7650267e+3, 2.9496935e+2, -254017.84, -205658.22, 5294.533, 0.00028355277, -0.22577743, -205085.36, -155805.53, 0.0, 9.998843, 9.9994755 
1.7650196e+3, 3.0497015e+2, -243907.92, -178284.2, 35564.953, 0.12146397, -0.083645985, -162707.19, -162707.19, 0.0, 9.998584, 9.999457 
1.7650104e+3, 3.149676e+2, -251342.2, -112349.91, -18941.486, 0.012263913, -0.30153084, -109814.85, -109814.85, 0.0, 9.998239, 10.0000725 
1.7751753e+3, 1.2499418e+2, -1538619.9, -1790532.3, 93618.85, -0.1159306, -0.21279761, -1507638.4, 207397.16, 0.081620745, 10.002043, 9.9985075 
1.7751664e+3, 1.3499314e+2, -1284227.9, -1604768.3, -84416.69, 0.006766594, -0.18617278, -1263355.3, 353690.7, 0.054072574, 10.003086, 9.998606 
1.7751549e+3, 1.449915e+2, -1149759.1, -1488011.9, -46028.824, -0.14226705, -0.20685562, -1143607.5, 375454.03, 0.028222809, 10.003256, 9.998649 
1.7751466e+3, 1.5499014e+2, -1138213.1, -1434961.9, -15577.866, -0.0568395, -0.21463953, -1137397.6, 283676.1, 0.010097322, 10.002612, 9.998643 
1.7751378e+3, 1.6498876e+2, -1109055.0, -1375842.9, -16642.512, -0.03747563, -0.21146046, -1108020.8, 215066.81, 0.0018804749, 10.002142, 9.998603 
1.7751287e+3, 1.7498739e+2, -1054868.3, -1301176.6, -24459.756, -0.047954313, -0.21187425, -1052462.8, 172640.06, 0.00008970714, 10.001847, 9.998585 
1.7751198e+3, 1.8498616e+2, -965901.75, -1157763.9, -18539.25, -0.045415107, -0.2129354, -964126.75, 162988.86, 0.000000028818846, 10.001569, 9.999031 
1.775111e+3, 1.9498518e+2, -904492.2, -1079296.8, -16297.687, -0.042274576, -0.21876621, -902985.7, 126138.83, 0.0, 10.001327, 9.999013 
1.7751025e+3, 2.0498437e+2, -835832.1, -964705.1, -7713.9277, -0.040852964, -0.21169329, -835372.0, 95760.28, 0.0, 10.000994, 9.999287 
1.7750938e+3, 2.1498378e+2, -800595.44, -898679.94, -3011.1416, -0.035591077, -0.2040691, -800503.06, 32634.994, 0.0, 10.000571, 9.99927 
1.7750855e+3, 2.2498296e+2, -744249.0, -832732.06, 4354.6123, -0.03816721, -0.20429853, -744035.2, -8888.695, 0.0, 10.000339, 9.999162 
1.775077e+3, 2.34982e+2, -653660.75, -740315.9, 1547.175, -0.050502375, -0.22142567, -653633.1, -16476.633, 0.0, 10.000296, 9.999145 
1.7750685e+3, 2.4498123e+2, -573618.5, -621396.06, -10435.915, -0.046850234, -0.22190061, -571438.5, -32274.44, 0.0, 10.000046, 9.999408 
1.77506e+3, 2.549808e+2, -543161.9, -557960.0, 2785.6816, -0.024569446, -0.2114671, -542654.9, -101487.3, 0.0, 9.99959, 9.99939 
1.7750515e+3, 2.6498017e+2, -467612.56, -443651.06, 25059.674, 0.0044218926, -0.2219981, -427855.47, -84683.14, 0.0, 9.999321, 9.99963 
1.7750433e+3, 2.7497938e+2, -382667.44, -353128.16, 34183.195, 0.03631766, -0.26926592, -330660.28, -85482.61, 0.0, 9.999236, 9.9996195 
1.7750345e+3, 2.8497863e+2, -348214.88, -350330.88, 24759.105, 0.023432218, -0.27376643, -324491.16, -177305.77, 0.0, 9.999077, 9.999043 
1.7750253e+3, 2.949782e+2, -290990.88, -283624.13, -671.57, -0.024235157, -0.22546878, -283563.4, -234370.66, 0.0, 9.998846, 9.99894 
1.7750172e+3, 3.04978e+2, -182914.27, -51155.465, 24748.44, 0.030270126, -0.19799091, -46660.29, -46660.29, 0.0, 9.998582, 10.000332 
1.7750098e+3, 3.1497768e+2, -227965.81, -65938.87, -61311.707, 0.117750324, -0.2811783, -45353.58, -45353.58, 0.0, 9.998249, 10.000386 
1.7851776e+3, 1.2500264e+2, -1438490.5, -1744723.3, 99879.266, -0.12807173, -0.218522, -1408794.1, 306158.0, 0.08616123, 10.00283, 9.9984455 
1.7851695e+3, 1.3500154e+2, -1339188.9, -1626838.1, -31911.682, 0.033888392, -0.20014425, -1335691.1, 281272.22, 0.057330903, 10.002678, 9.998643 
1.7851575e+3, 1.4500001e+2, -1250516.1, -1516083.0, -23412.676, -0.16623174, -0.2201473, -1248467.9, 270509.94, 0.030156005, 10.002462, 9.998831 
1.7851491e+3, 1.5499902e+2, -1184945.0, -1438409.5, -12464.3, -0.042822283, -0.2089258, -1184333.5, 236652.98, 0.0109433, 10.00221, 9.998812 
1.7851402e+3, 1.649977e+2, -1135856.0, -1388212.1, -6212.2183, -0.012684237, -0.20797767, -1135703.1, 187296.42, 0.0020959685, 10.001957, 9.998606 
1.7851304e+3, 1.7499611e+2, -1074868.9, -1310475.0, 3446.4749, -0.044049855, -0.232442, -1074818.4, 150198.34, 0.000105867584, 10.001711, 9.998585 
1.7851213e+3, 1.8499485e+2, -979900.44, -1163129.3, 21014.53, -0.047761407, -0.23550121, -977521.2, 149508.6, 0.0000000562377, 10.001471, 9.99904 
1.7851123e+3, 1.9499408e+2, -915223.9, -1083402.0, 21214.576, -0.036242537, -0.22092976, -912589.06, 116447.945, 0.0, 10.001251, 9.99902 
1.7851034e+3, 2.049933e+2, -846938.9, -975249.1, 18127.941, -0.03371841, -0.20967062, -844426.9, 86618.01, 0.0, 10.000941, 9.999239 
1.7850944e+3, 2.1499255e+2, -808402.94, -908100.3, 10131.07, -0.03560314, -0.21211411, -807383.8, 25668.49, 0.0, 10.000543, 9.999219 
1.7850856e+3, 2.2499177e+2, -763603.9, -831165.56, 26954.842, -0.036031272, -0.20930237, -754167.75, -19107.426, 0.0, 10.000158, 9.99926 
1.7850772e+3, 2.3499106e+2, -719635.25, -760608.1, 35379.594, -0.035913683, -0.21269137, -699238.8, -62170.97, 0.0, 9.999794, 9.999247 
1.7850684e+3, 2.4499036e+2, -630495.7, -633373.2, 20653.01, -0.033879675, -0.21812716, -611231.4, -72157.09, 0.0, 9.999589, 9.999545 
1.7850594e+3, 2.5498983e+2, -541640.75, -542153.6, 15174.034, -0.028266808, -0.22990221, -526721.0, -85643.086, 0.0, 9.999536, 9.999524 
1.7850508e+3, 2.6498926e+2, -462291.1, -444078.75, 21153.377, -0.005812355, -0.23998888, -430154.78, -87072.87, 0.0, 9.99937, 9.999604 
1.7850423e+3, 2.7498865e+2, -403761.6, -366659.78, 5504.2495, 0.03252397, -0.26575273, -365860.4, -120774.52, 0.0, 9.999105, 9.99959 
1.7850336e+3, 2.8498802e+2, -381732.94, -355838.4, 3417.6333, 0.039083723, -0.2620966, -355394.94, -208302.28, 0.0, 9.9988, 9.999139 
1.7850244e+3, 2.949877e+2, -345976.84, -295930.78, 22458.861, 0.020169849, -0.21290389, -287330.13, -238231.47, 0.0, 9.998407, 9.999066 
1.785015e+3, 3.049869e+2, -212774.42, -46796.32, 59616.05, -0.029765693, -0.2646917, -27602.906, -27602.906, 0.0, 9.998296, 10.000501 
1.7850085e+3, 3.1498754e+2, -180039.72, -31876.688, -87293.16, 0.1432557, -0.2594051, 8532.696, 8532.696, 0.0, 9.998533, 10.000482 
1.7951804e+3, 1.2501138e+2, -1434532.3, -1725621.9, 55406.88, -0.13381079, -0.22789626, -1424342.6, 290522.16, 0.09098768, 10.002802, 9.998581 
1.7951725e+3, 1.3500983e+2, -1325060.4, -1592716.3, -36337.895, 0.067493, -0.27903527, -1320214.8, 296664.13, 0.060760994, 10.002667, 9.998892 
1.7951599e+3, 1.4500831e+2, -1256547.9, -1527024.6, -33318.836, -0.17285618, -0.30813903, -1252504.0, 266389.63, 0.03217915, 10.002457, 9.998759 
1.7951515e+3, 1.5500763e+2, -1191168.0, -1450531.5, -20758.277, -0.03034834, -0.25680184, -1189517.1, 231384.06, 0.011831271, 10.002206, 9.998732 
1.7951421e+3, 1.6500664e+2, -1119138.3, -1353181.8, -15568.73, 0.0040899883, -0.23135875, -1118107.1, 204804.44, 0.0023264778, 10.001955, 9.998848 
1.795132e+3, 1.7500536e+2, -1057680.9, -1275330.4, -4754.196, -0.043277208, -0.24888994, -1057577.0, 167347.38, 0.00012352158, 10.001712, 9.998826 
1.7951226e+3, 1.850043e+2, -979933.56, -1164084.3, 12708.93, -0.05295803, -0.24447158, -979060.56, 147874.64, 0.000000085167756, 10.001472, 9.999033 
1.7951137e+3, 1.9500357e+2, -915519.25, -1084581.5, 14214.081, -0.033323433, -0.22468072, -914332.5, 114610.16, 0.0, 10.001251, 9.999012 
1.7951044e+3, 2.050026e+2, -861277.9, -1004675.3, 3416.279, -0.031656813, -0.2185739, -861196.5, 69756.3, 0.0, 10.000938, 9.99904 
1.7950949e+3, 2.1500155e+2, -823090.6, -938429.25, -2829.703, -0.044768494, -0.2336832, -823021.25, 9943.172, 0.0, 10.00054, 9.999014 
1.7950857e+3, 2.2500098e+2, -745200.25, -793417.6, 13898.641, -0.053046484, -0.21401149, -741480.9, -6510.308, 0.0, 10.000158, 9.999519 
1.7950767e+3, 2.3500098e+2, -701587.56, -723864.3, 23298.781, -0.055580642, -0.17190179, -686901.6, -49931.402, 0.0, 9.999794, 9.999499 
1.795068e+3, 2.450003e+2, -636462.25, -645917.4, 19125.67, -0.043290347, -0.18179747, -621488.5, -82512.69, 0.0, 9.999588, 9.99946 
1.7950591e+3, 2.5499913e+2, -547349.56, -554373.75, 14799.074, -0.015644303, -0.2504281, -535651.56, -94665.57, 0.0, 9.999536, 9.999441 
1.7950504e+3, 2.6499835e+2, -485124.3, -493388.47, 12230.136, 0.0046261856, -0.2610929, -476347.06, -133353.77, 0.0, 9.999376, 9.999264 
1.7950414e+3, 2.7499798e+2, -426997.5, -417760.53, -1321.9738, 0.016269755, -0.2278159, -417575.06, -172577.95, 0.0, 9.999115, 9.999236 
1.7950326e+3, 2.849977e+2, -331076.97, -251482.08, -10805.092, 0.056497436, -0.20645323, -250041.36, -103041.57, 0.0, 9.998804, 9.999854 
1.7950238e+3, 2.949979e+2, -291939.3, -185082.14, 8310.846, 0.12623604, -0.17804453, -184439.63, -135442.36, 0.0, 9.998412, 9.9998255 
1.795013e+3, 3.0499664e+2, -249502.7, -124858.51, 68697.11, -0.07054947, -0.28882465, -94426.43, -94426.43, 0.0, 9.9983015, 9.999962 
1.7950064e+3, 3.149968e+2, -158241.39, 8122.7373, -40190.055, 0.07965962, -0.2758364, 17323.01, 17323.01, 0.0, 9.998554, 10.000747 
1.8051831e+3, 1.2502044e+2, -1474131.9, -1717512.1, 37499.066, -0.13154688, -0.23997909, -1468485.1, 246290.47, 0.09616451, 10.002395, 9.99883 
1.8051754e+3, 1.350192e+2, -1334249.0, -1562310.9, -9285.5, 0.10300449, -0.29127085, -1333871.6, 282914.06, 0.06440308, 10.002451, 9.999219 
1.8051623e+3, 1.4501785e+2, -1269905.1, -1543872.6, -8127.1304, -0.16208228, -0.31636384, -1269664.3, 249134.56, 0.03431206, 10.002414, 9.998662 
1.8051536e+3, 1.5501696e+2, -1189023.5, -1460849.6, 991.5751, -0.036158018, -0.2754207, -1189019.9, 231789.75, 0.01276939, 10.002274, 9.998627 
1.8051441e+3, 1.6501601e+2, -1086224.5, -1317582.4, 3508.4172, 0.0004414141, -0.24809694, -1086171.3, 236648.3, 0.002574409, 10.002102, 9.99902 
1.805134e+3, 1.7501506e+2, -1015245.25, -1235513.3, 7045.972, -0.032355085, -0.2500382, -1015020.1, 209808.16, 0.00014305822, 10.001923, 9.998997 
1.8051243e+3, 1.8501405e+2, -967531.44, -1169625.8, 14412.934, -0.038915686, -0.24198003, -966508.7, 160329.66, 0.00000010953618, 10.001609, 9.998928 
1.8051149e+3, 1.9501317e+2, -935571.6, -1105787.8, 7481.6406, -0.027022567, -0.22934087, -935243.44, 93604.92, 0.0, 10.001166, 9.998907 
1.8051052e+3, 2.0501219e+2, -874835.6, -1015391.56, 1828.3448, -0.03462738, -0.21813929, -874811.9, 56047.375, 0.0, 10.000866, 9.999 
1.8050954e+3, 2.1501124e+2, -801283.7, -931686.5, 5108.299, -0.059546355, -0.2169816, -801083.9, 31785.918, 0.0, 10.00071, 9.998977 
1.8050858e+3, 2.2501062e+2, -715359.44, -777594.1, 13430.613, -0.070993334, -0.20080012, -712584.75, 22291.443, 0.0, 10.000359, 9.999531 
1.8050765e+3, 2.3501042e+2, -698262.2, -720798.5, 3795.5745, -0.06810377, -0.17933509, -697640.06, -60763.047, 0.0, 9.999812, 9.999512 
1.8050674e+3, 2.4500974e+2, -654862.3, -665836.6, 6271.5586, -0.04376268, -0.18722321, -652016.3, -113133.42, 0.0, 9.999509, 9.999362 
1.8050587e+3, 2.550087e+2, -566832.2, -574237.06, -465.40305, 0.0021508508, -0.23315297, -566803.06, -125910.63, 0.0, 9.999448, 9.999347 
1.8050496e+3, 2.6500788e+2, -501696.16, -502127.34, 628.1336, 0.018902868, -0.24118456, -501247.66, -158347.45, 0.0, 9.999265, 9.999258 
1.8050402e+3, 2.7500734e+2, -453404.88, -431725.75, 10897.119, 0.009282949, -0.22627859, -427195.1, -182289.38, 0.0, 9.998939, 9.999226 
1.8050313e+3, 2.8500694e+2, -332213.3, -247918.73, -5376.9663, 0.059450068, -0.21863754, -247577.14, -100667.79, 0.0, 9.998778, 9.99989 
1.8050228e+3, 2.9500708e+2, -230464.14, -146681.5, -39029.668, 0.16338482, -0.19651897, -131317.28, -82410.66, 0.0, 9.998797, 9.999904 
1.805011e+3, 3.050062e+2, -259354.95, -137444.11, 6804.4688, -0.09836181, -0.2717244, -137065.5, -137065.5, 0.0, 9.998269, 9.999891 
1.8050046e+3, 3.150069e+2, -324989.63, -33692.555, -20916.568, 0.11994148, -0.1930038, -32198.309, -32198.309, 0.0, 9.997246, 10.001091 
1.8151855e+3, 1.2502986e+2, -1454725.9, -1671925.0, -6118.789, -0.12888369, -0.24922772, -1454553.6, 260130.36, 0.10174683, 10.002384, 9.999178 
1.8151782e+3, 1.3502961e+2, -1310599.5, -1510041.6, -6158.078, 0.13276626, -0.24046835, -1310409.6, 306274.56, 0.06829826, 10.002444, 9.99961 
1.815165e+3, 1.4502855e+2, -1280282.0, -1563579.1, -14505.404, -0.14295389, -0.24971066, -1279541.3, 239153.17, 0.0365772, 10.002407, 9.99853 
1.8151557e+3, 1.5502694e+2, -1199188.6, -1481180.5, -3558.1643, -0.062124755, -0.26661634, -1199143.8, 221568.23, 0.013766695, 10.002272, 9.998488 
1.815146e+3, 1.6502579e+2, -1079359.0, -1304243.9, -3626.7542, -0.026582351, -0.25807458, -1079300.6, 243423.11, 0.0028426799, 10.002103, 9.999112 
1.8151361e+3, 1.7502518e+2, -1008582.2, -1221766.5, 1239.9023, -0.015541388, -0.23667267, -1008575.0, 216153.66, 0.00016504708, 10.001921, 9.999093 
1.8151262e+3, 1.8502413e+2, -982991.7, -1200450.3, -2347.6956, -0.0110919885, -0.22710651, -982966.4, 143773.0, 0.00000012908751, 10.001602, 9.99872 
1.8151161e+3, 1.9502282e+2, -950221.9, -1136495.6, -7673.848, -0.019698149, -0.23493946, -949906.3, 78848.06, 0.0, 10.001165, 9.998697 
1.815106e+3, 2.0502193e+2, -867586.6, -1000742.2, -3645.2295, -0.045379546, -0.20971684, -867486.94, 63277.723, 0.0, 10.000866, 9.999101 
1.8150958e+3, 2.1502155e+2, -794305.44, -917550.25, 783.9391, -0.08414116, -0.16388106, -794300.44, 38468.945, 0.0, 10.000708, 9.999076 
1.815086e+3, 2.2502065e+2, -731167.9, -809553.5, -6781.1245, -0.09391426, -0.16915075, -730585.56, 4192.34, 0.0, 10.000354, 9.999315 
1.8150762e+3, 2.3501936e+2, -713414.7, -752909.9, -14701.946, -0.075117946, -0.23370118, -708542.9, -71754.08, 0.0, 9.999813, 9.999291 
1.8150671e+3, 2.4501856e+2, -662384.25, -683039.5, 4870.0728, -0.037238125, -0.23602107, -661293.56, -122497.41, 0.0, 9.999514, 9.999242 
1.8150583e+3, 2.550184e+2, -575100.2, -592874.8, -671.80054, 0.01853559, -0.18106921, -575074.8, -134276.7, 0.0, 9.999452, 9.999218 
1.815049e+3, 2.6501775e+2, -478617.06, -454458.9, -11105.808, 0.031389125, -0.18078084, -450129.34, -107325.89, 0.0, 9.999265, 9.999585 
1.8150394e+3, 2.7501667e+2, -430588.34, -384478.72, 233.49811, 0.006987047, -0.25569278, -384477.53, -139665.53, 0.0, 9.998938, 9.99955 
1.81503e+3, 2.850156e+2, -373824.72, -337758.03, -3691.0483, 0.044153288, -0.29612458, -337384.16, -190562.33, 0.0, 9.99879, 9.99927 
1.8150212e+3, 2.950151e+2, -267162.75, -230602.31, -35986.813, 0.12704629, -0.27821127, -208518.97, -159690.7, 0.0, 9.998826, 9.999316 
1.815009e+3, 3.050155e+2, -235625.98, -88783.39, -34404.188, -0.11638277, -0.21642764, -81122.414, -81122.414, 0.0, 9.998275, 10.000221 
1.8150018e+3, 3.1501564e+2, -300019.9, 19472.676, 17641.77, 0.116059765, -0.22012079, 20443.87, 20443.87, 0.0, 9.997237, 10.001461 
1.8251884e+3, 1.250398e+2, -1461131.4, -1698929.4, -5908.422, -0.086315505, -0.26588556, -1460984.8, 253601.47, 0.10776605, 10.002468, 9.998931 
1.8251805e+3, 1.3503976e+2, -1323347.8, -1538076.5, -7397.5522, 0.11833439, -0.214808, -1323093.3, 293493.22, 0.072472624, 10.002463, 9.999397 
1.8251674e+3, 1.4503889e+2, -1265678.1, -1534976.3, -28304.121, -0.14827348, -0.20392236, -1262735.4, 255859.63, 0.038990494, 10.002428, 9.998716 
1.8251581e+3, 1.5503718e+2, -1169419.9, -1445917.0, 3173.7275, -0.0561562, -0.2486123, -1169383.4, 251228.3, 0.01482972, 10.002394, 9.99867 
1.8251482e+3, 1.6503589e+2, -1086475.6, -1326290.6, -3490.3047, -0.018687269, -0.25434405, -1086424.9, 236199.58, 0.0031336541, 10.002138, 9.998942 
1.8251379e+3, 1.750351e+2, -1059276.9, -1265092.4, -19680.627, -0.018296963, -0.23141336, -1057411.8, 167220.19, 0.00019006866, 10.001657, 9.998921 
1.8251276e+3, 1.8503402e+2, -1021388.56, -1210560.6, -21785.55, -0.0185851, -0.22183745, -1018912.1, 107731.18, 0.00000015151502, 10.001306, 9.998793 
1.8251172e+3, 1.9503278e+2, -956046.75, -1131194.1, -8774.491, -0.026846167, -0.23029241, -955608.3, 73048.48, 0.0, 10.001094, 9.998767 
1.8251067e+3, 2.0503184e+2, -874727.0, -1009311.44, 4476.5986, -0.04748483, -0.21022522, -874578.25, 56088.73, 0.0, 10.000839, 9.999054 
1.8250966e+3, 2.1503133e+2, -822263.94, -935635.7, -3180.6345, -0.07671043, -0.17247657, -822174.8, 10498.084, 0.0, 10.000538, 9.999032 
1.8250863e+3, 2.250303e+2, -752088.5, -834537.7, -17640.209, -0.083886966, -0.1805789, -748472.94, -13790.344, 0.0, 10.000275, 9.999182 
1.8250762e+3, 2.350289e+2, -689635.5, -755641.7, -21177.568, -0.069117844, -0.24441366, -683425.2, -46730.258, 0.0, 10.00004, 9.999163 
1.8250667e+3, 2.45028e+2, -626379.4, -664592.25, 14337.788, -0.032049704, -0.25179335, -621598.0, -82894.83, 0.0, 9.999758, 9.999251 
1.8250579e+3, 2.5502774e+2, -579832.3, -594488.5, 17663.307, 0.02624115, -0.20754164, -568037.3, -127331.74, 0.0, 9.999417, 9.999224 
1.8250483e+3, 2.650271e+2, -500607.72, -462473.84, -2364.3555, 0.03908723, -0.20765007, -462327.8, -119617.28, 0.0, 9.999104, 9.999607 
1.8250382e+3, 2.7502614e+2, -448981.0, -391167.13, -15748.614, 0.013489651, -0.27023032, -387155.53, -142437.92, 0.0, 9.998804, 9.999568 
1.8250287e+3, 2.8502506e+2, -403586.66, -366554.4, -7.7523875, 0.034050003, -0.30949202, -366554.4, -219826.34, 0.0, 9.998648, 9.999141 
1.8250196e+3, 2.9502422e+2, -305796.84, -261514.19, 1260.6486, 0.08536543, -0.31024054, -261478.33, -212740.48, 0.0, 9.998615, 9.999205 
1.8250075e+3, 3.0502477e+2, -224741.61, -84237.65, -18164.662, -0.09444812, -0.22747114, -81927.27, -81927.27, 0.0, 9.998355, 10.000212 
1.8249997e+3, 3.1502447e+2, -196398.42, 57729.31, 61270.594, 0.14755748, -0.2748979, 71730.36, 71730.36, 0.0, 9.997994, 10.001361 
1.8351914e+3, 1.2505022e+2, -1517271.5, -1818658.0, -46098.723, -0.027408289, -0.29125497, -1510378.1, 204104.42, 0.11422007, 10.002444, 9.998112 
1.8351823e+3, 1.3504969e+2, -1375601.9, -1647345.8, -6551.7563, 0.058591798, -0.20969234, -1375444.0, 241047.95, 0.07692826, 10.002468, 9.998603 
1.8351695e+3, 1.450489e+2, -1232534.1, -1467248.4, -29555.914, -0.18207008, -0.17302987, -1228869.6, 289630.4, 0.041556932, 10.002439, 9.999192 
1.8351607e+3, 1.5504766e+2, -1137235.6, -1377644.9, 3253.8218, -0.025533777, -0.22168411, -1137191.6, 283317.25, 0.015961973, 10.002389, 9.999146 
1.8351507e+3, 1.6504627e+2, -1118274.9, -1390128.5, -21702.41, 0.016044686, -0.23808908, -1116553.3, 205968.81, 0.003449119, 10.002127, 9.99851 
1.8351392e+3, 1.7504486e+2, -1089402.5, -1328544.4, -36440.688, -0.0421205, -0.23453431, -1083972.9, 140565.5, 0.00021871291, 10.001659, 9.998486 
1.8351284e+3, 1.8504372e+2, -997236.3, -1162763.9, -29064.098, -0.06311384, -0.22547744, -992281.44, 134268.84, 0.00000018976193, 10.001313, 9.999118 
1.8351181e+3, 1.9504297e+2, -932109.94, -1083991.9, -15028.987, -0.05154006, -0.2164801, -930637.06, 97919.164, 0.0, 10.001102, 9.999088 
1.8351077e+3, 2.0504189e+2, -887714.44, -1036643.1, -6402.93, -0.044869103, -0.21875414, -887439.6, 43127.184, 0.0, 10.00084, 9.998867 
1.8350974e+3, 2.1504058e+2, -835196.56, -963024.3, -12440.953, -0.04064492, -0.24170443, -833996.94, -1416.2065, 0.0, 10.000538, 9.998846 
1.835087e+3, 2.2503957e+2, -756935.7, -844123.0, -25733.053, -0.04453148, -0.23592351, -749907.25, -15316.343, 0.0, 10.000271, 9.999118 
1.8350764e+3, 2.3503897e+2, -694315.5, -765621.3, -28041.945, -0.05565377, -0.212408, -684608.94, -48012.805, 0.0, 10.000039, 9.999096 
1.8350664e+3, 2.4503794e+2, -616991.44, -644505.9, 2133.937, -0.03245009, -0.23436792, -616826.9, -78222.19, 0.0, 9.999754, 9.999392 
1.8350573e+3, 2.5503662e+2, -569520.4, -574030.4, 6877.1934, 0.022523241, -0.31027573, -564537.9, -123922.59, 0.0, 9.99942, 9.999364 
1.8350475e+3, 2.6503584e+2, -519926.13, -505085.47, -12859.465, 0.03989218, -0.3207782, -497659.0, -155036.84, 0.0, 9.999112, 9.999312 
1.8350372e+3, 2.7503565e+2, -468468.06, -434823.3, -24999.668, 0.023726705, -0.27347025, -421513.06, -176889.27, 0.0, 9.998815, 9.999265 
1.8350272e+3, 2.850351e+2, -378700.63, -316886.06, -1243.8951, 0.023415, -0.2627911, -316861.03, -170231.66, 0.0, 9.998656, 9.999478 
1.8350177e+3, 2.9503432e+2, -280854.0, -211789.97, -387.26318, 0.028182816, -0.2913958, -211787.8, -163151.34, 0.0, 9.998624, 9.999542 
1.8350066e+3, 3.0503404e+2, -247781.27, -132859.42, -34436.1, -0.030546665, -0.29344153, -123330.77, -123330.77, 0.0, 9.998358, 9.999877 
1.8349971e+3, 3.1503424e+2, -260963.72, -84804.6, 70624.58, 0.08304548, -0.25603518, -59986.688, -59986.688, 0.0, 9.998022, 10.000374 
1.8451937e+3, 1.2506093e+2, -1537582.9, -1832020.9, -63776.52, -0.032388236, -0.27870768, -1524362.3, 190015.28, 0.121078186, 10.002313, 9.998087 
1.8451849e+3, 1.350601e+2, -1282138.4, -1598878.1, 56267.28, 0.014021909, -0.22736603, -1272439.8, 343949.75, 0.08165061, 10.003176, 9.998604 
1.8451725e+3, 1.4505929e+2, -1139823.6, -1430531.9, 11409.165, -0.16520081, -0.19005543, -1139376.6, 379021.1, 0.044275217, 10.00315, 9.999112 
1.8451631e+3, 1.5505797e+2, -1167507.8, -1401104.3, 2116.44, -0.021135993, -0.23604517, -1167488.5, 252918.77, 0.017166656, 10.002221, 9.9990635 
1.8451527e+3, 1.6505662e+2, -1167242.1, -1408010.8, -14122.05, 0.014703827, -0.24959612, -1166416.6, 156003.78, 0.0037913383, 10.001767, 9.99856 
1.845141e+3, 1.750553e+2, -1065829.0, -1311776.6, 5102.449, -0.0465379, -0.24107394, -1065723.3, 158712.55, 0.00025177147, 10.001801, 9.998531 
1.8451299e+3, 1.8505411e+2, -941608.25, -1143012.3, 17169.61, -0.06890329, -0.23341466, -940155.0, 186292.7, 0.00000025167606, 10.001728, 9.999053 
1.8451193e+3, 1.9505322e+2, -871628.7, -1061894.6, 827.90594, -0.056885395, -0.23231669, -871625.1, 156829.63, 0.0, 10.00155, 9.9990225 
1.8451086e+3, 2.0505203e+2, -855921.06, -1034764.75, -12796.384, -0.046335164, -0.23605028, -855010.1, 75456.3, 0.0, 10.001118, 9.998746 
1.8450978e+3, 2.1505065e+2, -859031.7, -987652.4, -15652.115, -0.03543027, -0.25311786, -857154.3, -24673.0, 0.0, 10.000434, 9.998726 
1.8450873e+3, 2.250496e+2, -792784.0, -868579.1, -12760.824, -0.032071013, -0.2417532, -790693.25, -56201.152, 0.0, 10.000057, 9.999052 
1.8450765e+3, 2.3504901e+2, -708350.4, -779971.1, -16675.125, -0.034750987, -0.2120621, -704658.3, -68160.68, 0.0, 9.999977, 9.999026 
1.8450664e+3, 2.4504797e+2, -613847.25, -644275.6, 2485.7202, -0.01656156, -0.23159796, -613645.56, -75139.18, 0.0, 9.999783, 9.999378 
1.8450567e+3, 2.550466e+2, -563089.8, -571321.0, -5709.374, 0.021109523, -0.3105894, -560167.25, -119650.15, 0.0, 9.999469, 9.999356 
1.8450466e+3, 2.650457e+2, -506155.63, -507427.72, -18135.553, 0.030278329, -0.32448745, -488644.97, -146120.14, 0.0, 9.9992485, 9.9992285 
1.845036e+3, 2.7504545e+2, -430647.8, -426235.2, -15070.379, 0.014065418, -0.27905968, -413210.47, -168682.56, 0.0, 9.999119, 9.999176 
1.8450257e+3, 2.8504503e+2, -354230.94, -296840.8, 4437.291, 0.0076556727, -0.25373596, -296499.75, -149967.73, 0.0, 9.998789, 9.999551 
1.8450157e+3, 2.950446e+2, -339493.28, -233351.48, -19372.566, 0.00658801, -0.2571865, -229926.22, -181390.97, 0.0, 9.998194, 9.9996 
1.8450053e+3, 3.0504355e+2, -312938.44, -187109.05, -45645.91, 0.02591933, -0.3223917, -172294.67, -172294.67, 0.0, 9.9980135, 9.999668 
1.8449947e+3, 3.1504324e+2, -212680.92, -78593.65, 65032.28, 0.027699357, -0.32015243, -52234.68, -52234.68, 0.0, 9.9984255, 10.000222 
1.855195e+3, 1.2507196e+2, -1494509.8, -1726789.1, -54944.918, -0.12426832, -0.2266599, -1482168.5, 232102.39, 0.12828696, 10.002307, 9.998816 
1.8551876e+3, 1.3507095e+2, -1239906.3, -1501168.9, 86512.46, -0.021930818, -0.2702626, -1213856.5, 402423.16, 0.08661796, 10.003143, 9.999354 
1.8551761e+3, 1.4506996e+2, -1188025.5, -1520794.1, -23574.217, -0.10814118, -0.25667295, -1186363.8, 331925.25, 0.047144454, 10.003113, 9.998485 
1.8551652e+3, 1.5506814e+2, -1211515.9, -1493004.9, -31808.084, -0.045756306, -0.28815, -1207966.3, 212340.72, 0.018449815, 10.002219, 9.998433 
1.855154e+3, 1.6506691e+2, -1130193.3, -1334116.3, -12963.693, -0.02511317, -0.28315052, -1129372.4, 192946.95, 0.0041641076, 10.00178, 9.999062 
1.855143e+3, 1.7506635e+2, -1029638.75, -1238707.0, 7158.9736, -0.03558869, -0.2504103, -1029393.9, 194930.8, 0.00029041685, 10.001807, 9.99903 
1.8551318e+3, 1.8506515e+2, -973490.4, -1209018.0, 9913.866, -0.041985296, -0.24636513, -973073.8, 153262.56, 0.0000003514084, 10.001725, 9.998602 
1.855121e+3, 1.9506347e+2, -903863.2, -1128318.4, -4738.6914, -0.046825152, -0.27813646, -903763.2, 124589.73, 0.0, 10.001546, 9.9985695 
1.8551098e+3, 2.0506223e+2, -860548.94, -1044180.9, -38251.027, -0.054699194, -0.26223052, -852899.75, 77466.6, 0.0, 10.001115, 9.998683 
1.8550982e+3, 2.1506149e+2, -862994.5, -997207.1, -39451.01, -0.06382788, -0.20857836, -852257.1, -19881.71, 0.0, 10.000438, 9.998659 
1.8550871e+3, 2.2506034e+2, -797209.8, -878710.9, -15323.899, -0.048314173, -0.19963372, -794423.8, -60036.74, 0.0, 10.00006, 9.998982 
1.8550768e+3, 2.3505895e+2, -713040.0, -790788.44, -17716.611, -0.00882526, -0.24400333, -709193.2, -72793.04, 0.0, 9.99998, 9.998952 
1.8550664e+3, 2.4505797e+2, -625627.3, -669706.5, -8744.893, 0.012525208, -0.24477763, -623955.8, -85546.83, 0.0, 9.999785, 9.999203 
1.8550561e+3, 2.5505754e+2, -573989.5, -595733.7, -15908.121, 0.016883548, -0.21078245, -565593.25, -125181.15, 0.0, 9.999475, 9.999187 
1.8550456e+3, 2.6505667e+2, -497678.94, -490619.0, -22961.887, 0.007344569, -0.22108717, -470917.34, -128497.59, 0.0, 9.999251, 9.999344 
1.8550348e+3, 2.750554e+2, -422018.1, -409535.03, -17814.44, -0.017824225, -0.28542238, -396900.38, -152469.4, 0.0, 9.999123, 9.9992895 
1.8550242e+3, 2.8505474e+2, -366520.63, -324810.6, -17951.455, -0.017438605, -0.2807336, -318148.56, -171711.53, 0.0, 9.998796, 9.999357 
1.855014e+3, 2.9505488e+2, -353364.84, -265451.44, -43311.18, 0.0112597095, -0.21087305, -247698.75, -199263.0, 0.0, 9.998205, 9.999376 
1.8550038e+3, 3.0505317e+2, -317243.53, -199091.4, -31952.219, 0.075486064, -0.3237057, -191004.05, -191004.05, 0.0, 9.998027, 9.999578 
1.8549937e+3, 3.1505337e+2, -153460.98, 38038.152, 31328.133, 0.06912301, -0.2631578, 43032.973, 43032.973, 0.0, 9.998452, 10.001011 
1.8651976e+3, 1.2508276e+2, -1458511.8, -1695050.4, -41602.7, -0.11159567, -0.22240613, -1451408.0, 262756.8, 0.13577262, 10.002555, 9.998923 
1.86519e+3, 1.3508163e+2, -1402663.9, -1569183.6, 60267.715, -0.0322039, -0.28825432, -1383140.5, 233033.25, 0.091802955, 10.001881, 9.9994545 
1.8651792e+3, 1.450808e+2, -1370878.9, -1613456.0, -59373.668, -0.050094068, -0.26229632, -1357126.1, 161055.19, 0.05016522, 10.001802, 9.998482 
1.8651672e+3, 1.5507898e+2, -1196810.1, -1486091.4, -23990.693, -0.061625294, -0.29561907, -1194834.0, 225366.28, 0.019819729, 10.002328, 9.998426 
1.8651557e+3, 1.6507773e+2, -1037467.44, -1297189.6, -716.63617, -0.060149726, -0.287816, -1037465.44, 284747.56, 0.0045722285, 10.002455, 9.99899 
1.865145e+3, 1.7507717e+2, -979792.75, -1222964.3, -25031.287, -0.03842764, -0.24758668, -977242.8, 246975.39, 0.0003360051, 10.002185, 9.998957 
1.8651336e+3, 1.8507595e+2, -976774.44, -1212391.4, -37524.25, -0.033202067, -0.24081784, -970942.7, 155287.47, 0.00000050835786, 10.001711, 9.998585 
1.8651222e+3, 1.9507426e+2, -977648.06, -1165546.8, -21920.504, -0.047109723, -0.27327636, -975124.7, 53122.36, 0.0, 10.001049, 9.998552 
1.8651105e+3, 2.0507297e+2, -903660.9, -1071277.1, -30413.326, -0.06092628, -0.25696334, -898313.1, 31947.695, 0.0, 10.000849, 9.998625 
1.8650988e+3, 2.1507218e+2, -770945.75, -959855.44, -33284.5, -0.07304444, -0.20209306, -765252.8, 67017.36, 0.0, 10.0011015, 9.998595 
1.8650876e+3, 2.2507092e+2, -692372.94, -843550.3, -18077.125, -0.054620083, -0.19582613, -690241.44, 44041.746, 0.0, 10.000848, 9.998843 
1.8650767e+3, 2.350693e+2, -704647.6, -801537.25, -26916.982, -0.007255639, -0.24642402, -697672.06, -61373.64, 0.0, 10.000104, 9.9988165 
1.8650661e+3, 2.4506828e+2, -648006.06, -694751.56, -9157.348, 0.016179007, -0.23894627, -646276.2, -107967.94, 0.0, 9.999697, 9.999072 
1.8650557e+3, 2.5506797e+2, -564051.3, -605855.8, -14845.677, 0.01937612, -0.18205501, -559315.75, -119004.484, 0.0, 9.999609, 9.999052 
1.865045e+3, 2.6506704e+2, -488732.16, -486476.5, -28792.89, 0.010934349, -0.18905343, -458789.38, -116469.89, 0.0, 9.999315, 9.999341 
1.8650338e+3, 2.7506563e+2, -468348.75, -430339.47, -33151.984, -0.013167738, -0.27059335, -411131.13, -166799.27, 0.0, 9.998801, 9.9993 
1.8650231e+3, 2.8506482e+2, -390041.28, -327864.94, -23074.363, -0.012301534, -0.28394577, -320237.47, -173898.6, 0.0, 9.998603, 9.999428 
1.8650126e+3, 2.950648e+2, -276126.63, -221019.95, -31163.352, 0.02545554, -0.23023619, -206975.92, -158637.73, 0.0, 9.998708, 9.999437 
1.8650018e+3, 3.0506358e+2, -276252.56, -184863.42, -5212.64, 0.06390314, -0.30062002, -184567.06, -184567.06, 0.0, 9.998331, 9.99953 
1.8649912e+3, 3.1506404e+2, -274849.38, 5643.6475, 25062.422, 0.02916997, -0.2077953, 7865.409, 7865.409, 0.0, 9.997509, 10.001241 
1.875201e+3, 1.2509322e+2, -1492531.6, -1767732.3, -65057.06, -0.0346269, -0.27846113, -1477927.3, 236133.61, 0.14346069, 10.002544, 9.998423 
1.875192e+3, 1.3509221e+2, -1435927.6, -1641902.8, 38338.336, -0.024791248, -0.27766013, -1429023.1, 187047.84, 0.09718228, 10.001895, 9.99892 
1.8751815e+3, 1.450919e+2, -1330408.8, -1526937.3, -39746.816, 0.0008098512, -0.20309195, -1322674.5, 195399.3, 0.05334204, 10.001813, 9.999071 
1.8751694e+3, 1.5509042e+2, -1157929.5, -1401833.5, -3513.0603, -0.07274853, -0.26311108, -1157879.0, 262208.6, 0.021286089, 10.002319, 9.999013 
1.875158e+3, 1.6508898e+2, -1084424.4, -1390911.6, -11619.618, -0.09484006, -0.2703183, -1083984.4, 238117.83, 0.0050208755, 10.002436, 9.998356 
1.8751468e+3, 1.7508774e+2, -1025459.3, -1316109.3, -33997.17, -0.057512715, -0.23427247, -1021535.7, 202580.77, 0.00038988978, 10.002176, 9.9983225 
1.8751353e+3, 1.8508653e+2, -948769.8, -1154654.4, -61985.457, -0.045639224, -0.2149315, -931548.4, 194580.28, 0.000000733184, 10.001711, 9.998982 
1.8751232e+3, 1.9508553e+2, -949230.5, -1108463.3, -45376.184, -0.060349304, -0.2184118, -937207.56, 90929.875, 0.0, 10.001055, 9.998942 
1.8751113e+3, 2.050842e+2, -907173.06, -1080045.4, -20985.86, -0.06777978, -0.22176106, -904661.94, 25488.541, 0.0, 10.000854, 9.998563 
1.8751e+3, 2.150827e+2, -776804.8, -970668.9, -22392.188, -0.066620335, -0.2333001, -774252.06, 57914.188, 0.0, 10.001094, 9.998526 
1.8750884e+3, 2.2508126e+2, -707682.75, -874482.06, -45656.82, -0.054488596, -0.22921498, -696003.25, 38177.62, 0.0, 10.000842, 9.998634 
1.8750766e+3, 2.3508005e+2, -719055.4, -831704.44, -52823.063, -0.033342008, -0.21934883, -698161.2, -61968.125, 0.0, 10.000103, 9.998611 
1.8750657e+3, 2.4507885e+2, -653981.25, -708184.44, -11619.57, -0.0077167847, -0.21474566, -651595.4, -113390.375, 0.0, 9.9997, 9.99898 
1.8750553e+3, 2.5507778e+2, -570351.4, -621449.0, -16327.19, 0.02447794, -0.22367094, -565579.94, -125364.46, 0.0, 9.999619, 9.998941 
1.8750444e+3, 2.650768e+2, -495842.25, -503842.16, -47679.598, 0.036942538, -0.22768478, -451995.13, -109770.25, 0.0, 9.999324, 9.999218 
1.875033e+3, 2.7507597e+2, -473706.88, -444760.03, -50451.285, 0.02292057, -0.236199, -406747.16, -162515.31, 0.0, 9.998813, 9.999197 
1.8750219e+3, 2.850751e+2, -366062.8, -279230.13, -19628.963, 0.018326554, -0.26326352, -274999.06, -128760.48, 0.0, 9.998608, 9.99976 
1.8750116e+3, 2.9507446e+2, -253112.2, -172625.1, -26348.607, 0.046315726, -0.30937046, -164766.75, -116523.65, 0.0, 9.998703, 9.999772 
1.8749994e+3, 3.050746e+2, -274899.88, -186777.4, -36635.37, -0.015644312, -0.25605395, -173536.44, -173536.44, 0.0, 9.998346, 9.999512 
1.8749894e+3, 3.1507355e+2, -277135.2, -7530.968, -22366.115, 0.0844032, -0.31095648, -5688.0923, -5688.0923, 0.0, 9.997546, 10.001131 
1.8852042e+3, 1.2510447e+2, -1415377.3, -1732200.9, -52163.684, -0.012628147, -0.27342203, -1407009.6, 306939.8, 0.15130897, 10.003226, 9.998332 
1.8851939e+3, 1.3510288e+2, -1319697.9, -1604729.5, 53198.813, -0.07091769, -0.30749863, -1310092.5, 305872.9, 0.1027529, 10.002901, 9.998694 
1.8851839e+3, 1.4510271e+2, -1228006.1, -1473961.4, -11386.729, 0.017731624, -0.2103492, -1227480.1, 290487.06, 0.05668712, 10.002552, 9.999094 
1.8851717e+3, 1.5510142e+2, -1179631.1, -1409693.6, -17696.135, -0.0649629, -0.2518105, -1178278.0, 241701.16, 0.022858981, 10.002159, 9.999035 
1.88516e+3, 1.6509996e+2, -1163738.0, -1428532.0, -31228.398, -0.09242563, -0.2633655, -1160105.0, 161889.1, 0.0055146767, 10.001885, 9.998363 
1.8851487e+3, 1.7509848e+2, -1089144.5, -1346238.3, -8707.248, -0.061453193, -0.251538, -1088850.0, 135160.08, 0.0004532519, 10.001739, 9.998326 
1.885137e+3, 1.850972e+2, -956883.56, -1172246.6, -34442.484, -0.05117318, -0.23461962, -951509.3, 174514.02, 0.0000010252129, 10.001716, 9.998858 
1.8851244e+3, 1.9509624e+2, -846653.6, -1073035.9, -57155.477, -0.06315787, -0.22184438, -833041.8, 194990.83, 0.0, 10.00182, 9.998817 
1.8851125e+3, 2.050949e+2, -816824.1, -1030497.25, -46936.137, -0.064508766, -0.22149022, -806968.56, 123077.195, 0.0, 10.00145, 9.998615 
1.8851009e+3, 2.1509337e+2, -840872.94, -995616.5, -42051.773, -0.0544597, -0.2406488, -830183.7, 1877.4124, 0.0, 10.00063, 9.998577 
1.885089e+3, 2.2509192e+2, -792703.75, -911411.06, -52613.77, -0.04165242, -0.24314736, -772741.2, -38665.637, 0.0, 10.000246, 9.998667 
1.8850769e+3, 2.3509069e+2, -690047.25, -814297.7, -43484.777, -0.027298322, -0.23811655, -676340.6, -40253.06, 0.0, 10.000291, 9.998638 
1.8850656e+3, 2.4508943e+2, -591282.94, -683396.4, 14187.704, -0.008999991, -0.23676798, -589147.25, -51047.285, 0.0, 10.0001545, 9.99893 
1.885055e+3, 2.550883e+2, -542345.3, -613420.56, 11720.509, 0.017318776, -0.24862058, -540462.44, -100351.03, 0.0, 9.999837, 9.998891 
1.8850438e+3, 2.650873e+2, -467879.22, -490218.38, -19481.906, 0.03361979, -0.24738336, -456592.06, -114471.31, 0.0, 9.999517, 9.999217 
1.8850319e+3, 2.7508667e+2, -419309.94, -417672.9, -15071.963, 0.027752351, -0.23754059, -403397.25, -159271.16, 0.0, 9.999185, 9.999202 
1.8850206e+3, 2.850859e+2, -354378.22, -274761.78, 14102.841, 0.025490915, -0.26115152, -272337.5, -126204.73, 0.0, 9.998694, 9.999748 
1.8850103e+3, 2.9508498e+2, -344155.53, -218117.23, -17440.496, 0.07080764, -0.33072698, -215748.44, -167608.5, 0.0, 9.998088, 9.999755 
1.8849972e+3, 3.050856e+2, -326256.66, -172117.86, -37553.125, -0.051452037, -0.24352871, -163455.53, -163455.53, 0.0, 9.997823, 9.999866 
1.884987e+3, 3.1508464e+2, -266105.16, -2504.2314, 18439.717, 0.09711071, -0.32591602, -1220.5663, -1220.5663, 0.0, 9.997631, 10.001121 
1.8952067e+3, 1.2511641e+2, -1404615.3, -1698242.1, -42526.746, -0.07382875, -0.21951711, -1398580.1, 315251.8, 0.15932071, 10.003217, 9.998581 
1.8951958e+3, 1.3511363e+2, -1321084.9, -1599745.0, 43604.7, -0.1716708, -0.3810271, -1314421.0, 301436.47, 0.108536236, 10.002881, 9.998744 
1.8951862e+3, 1.4511316e+2, -1266623.9, -1549087.8, -26277.842, -0.0031363305, -0.28721038, -1264200.0, 253662.02, 0.060219586, 10.002527, 9.998573 
1.8951741e+3, 1.5511206e+2, -1216052.4, -1485843.9, -30867.371, -0.04420768, -0.2585245, -1212565.8, 207308.92, 0.024547812, 10.002156, 9.998513 
1.8951622e+3, 1.6511074e+2, -1120780.9, -1339662.0, -36269.098, -0.06151823, -0.2601669, -1114927.5, 206960.28, 0.0060573337, 10.001888, 9.998973 
1.8951507e+3, 1.7510939e+2, -1047512.3, -1260079.9, -13210.643, -0.054583147, -0.29612455, -1046694.44, 177204.92, 0.0005270964, 10.001738, 9.998919 
1.8951386e+3, 1.8510789e+2, -1000700.9, -1262632.1, -30757.348, -0.053697962, -0.3002497, -997137.7, 128777.33, 0.0000013718216, 10.001711, 9.998241 
1.8951264e+3, 1.9510636e+2, -891038.94, -1163285.6, -51667.34, -0.059115548, -0.28216597, -881563.2, 146369.7, 0.0, 10.00181, 9.998203 
1.8951142e+3, 2.0510507e+2, -806851.2, -1009194.6, -76903.32, -0.05508891, -0.25363487, -780940.9, 149005.86, 0.0, 10.001445, 9.998765 
1.8951017e+3, 2.1510418e+2, -830815.1, -974659.7, -70454.336, -0.04085668, -0.22345532, -802056.56, 29898.62, 0.0, 10.000628, 9.998723 
1.8950894e+3, 2.2510281e+2, -773138.7, -872149.44, -50316.793, -0.019303204, -0.23799779, -752056.8, -18089.03, 0.0, 10.000249, 9.998936 
1.8950775e+3, 2.3510115e+2, -671967.4, -777819.44, -39934.758, 0.006286152, -0.30193767, -658591.44, -22608.828, 0.0, 10.000294, 9.998889 
1.8950659e+3, 2.4509999e+2, -591665.56, -685311.0, 2878.5718, 0.008372797, -0.30295184, -591577.2, -53583.46, 0.0, 10.000157, 9.998917 
1.8950546e+3, 2.5509942e+2, -542270.3, -614399.4, 1466.73, -0.0053476673, -0.2572105, -542240.5, -102240.41, 0.0, 9.999839, 9.998884 
1.895043e+3, 2.6509854e+2, -458329.28, -471865.75, -31397.375, -0.0015988365, -0.24997413, -432978.9, -90970.59, 0.0, 9.999522, 9.999342 
1.8950309e+3, 2.7509767e+2, -410516.9, -402785.56, -27230.813, -0.004968612, -0.27577135, -379147.4, -135131.53, 0.0, 9.999196, 9.999301 
1.8950191e+3, 2.8509694e+2, -377667.5, -324126.38, -8969.652, 0.005426625, -0.27841538, -322663.66, -176641.1, 0.0, 9.998699, 9.999407 
1.8950085e+3, 2.9509622e+2, -369760.53, -273458.78, -33788.203, 0.09881601, -0.29575694, -262786.63, -214756.7, 0.0, 9.998095, 9.999373 
1.894995e+3, 3.050965e+2, -272889.13, -66228.35, -43732.375, -0.056290634, -0.262147, -57354.957, -57354.957, 0.0, 9.997841, 10.000586 
1.8949845e+3, 3.1509736e+2, -287539.4, -48801.95, 79493.414, 0.073016375, -0.23346, -24754.86, -24754.86, 0.0, 9.9976425, 10.000795 
1.90521e+3, 1.2512794e+2, -1381781.9, -1687986.4, -11692.309, -0.074722685, -0.24419083, -1381336.1, 332380.75, 0.16752876, 10.003438, 9.998562 
1.9051984e+3, 1.3512501e+2, -1373213.8, -1654933.9, 26365.582, -0.18455894, -0.39276254, -1370767.5, 244976.61, 0.11456048, 10.00262, 9.998481 
1.9051889e+3, 1.4512436e+2, -1310564.8, -1576421.8, -22429.51, 0.029113363, -0.30371937, -1308685.6, 209065.17, 0.0639551, 10.002235, 9.998526 
1.9051765e+3, 1.5512301e+2, -1206038.6, -1485678.6, 4141.0186, -0.024738336, -0.29314157, -1205977.4, 213788.1, 0.02635815, 10.002253, 9.9984665 
1.9051644e+3, 1.6512169e+2, -1081189.0, -1315421.1, -3514.9463, -0.052036103, -0.29609764, -1081136.3, 240642.27, 0.0066510234, 10.002143, 9.999017 
1.9051524e+3, 1.7512052e+2, -1017665.1, -1241149.1, -22711.684, -0.054603077, -0.31975356, -1015380.4, 208408.14, 0.0006122247, 10.001924, 9.99896 
1.9051403e+3, 1.8511906e+2, -1010845.0, -1275080.4, -35117.496, -0.0517534, -0.31542197, -1006257.44, 119546.45, 0.0000017786746, 10.001676, 9.998173 
1.9051282e+3, 1.9511752e+2, -955275.9, -1202111.6, -18595.266, -0.045441892, -0.29069176, -953882.9, 73939.805, 0.0, 10.001404, 9.998132 
1.9051155e+3, 2.0511623e+2, -834909.94, -1020338.1, -40933.465, -0.04315796, -0.2616947, -826275.9, 103561.16, 0.0, 10.001245, 9.998784 
1.9051026e+3, 2.1511528e+2, -745976.75, -931388.0, -45203.844, -0.04260793, -0.23902327, -735543.06, 96302.766, 0.0, 10.001202, 9.998743 
1.90509e+3, 2.2511397e+2, -673923.2, -820953.44, -30279.96, -0.021910816, -0.24973108, -667931.44, 65926.35, 0.0, 10.0009165, 9.998965 
1.905078e+3, 2.351125e+2, -654910.3, -766817.75, -38503.176, 0.0139771085, -0.29797807, -642942.6, -7071.6577, 0.0, 10.000399, 9.998914 
1.9050659e+3, 2.4511139e+2, -632072.6, -696236.25, -7379.6865, 0.012973298, -0.29840916, -631234.8, -93353.5, 0.0, 9.999847, 9.99899 
1.905054e+3, 2.5511074e+2, -621622.3, -644959.6, -4051.7864, -0.012140259, -0.26698297, -620938.8, -181051.02, 0.0, 9.999265, 9.99895 
1.9050422e+3, 2.6510978e+2, -544518.7, -520423.66, -30567.803, -0.005390866, -0.27019954, -499614.94, -157717.88, 0.0, 9.998963, 9.999277 
1.9050299e+3, 2.7510875e+2, -455844.0, -430394.1, -41881.863, 0.002040506, -0.30117923, -399346.72, -155440.66, 0.0, 9.998914, 9.999246 
1.9050178e+3, 2.8510824e+2, -371690.34, -320949.13, -22881.75, -0.0017771262, -0.28177947, -312154.8, -166243.7, 0.0, 9.99874, 9.999408 
1.9050066e+3, 2.9510796e+2, -319813.13, -259675.61, -18948.512, 0.0757469, -0.2551635, -254203.17, -206288.89, 0.0, 9.998486, 9.999279 
1.9049934e+3, 3.0510733e+2, -224111.61, -55662.63, -50510.22, -0.019148698, -0.2951244, -41677.92, -41677.92, 0.0, 9.99823, 10.000472 
1.9049825e+3, 3.151077e+2, -306675.03, -63443.766, 53765.184, 0.11136626, -0.3155554, -52089.26, -52089.26, 0.0, 9.99754, 10.000741 
1.9152138e+3, 1.2513903e+2, -1406956.5, -1727106.4, -10659.474, -0.04391251, -0.34688562, -1406602.0, 307002.75, 0.17597272, 10.003393, 9.99828 
1.9152017e+3, 1.3513708e+2, -1409713.5, -1736108.6, 660.0289, -0.12098578, -0.34242326, -1409712.1, 205913.31, 0.12084207, 10.002618, 9.997922 
1.9151919e+3, 1.4513628e+2, -1284877.6, -1519474.3, -21841.69, 0.103494406, -0.25818405, -1282861.4, 234772.03, 0.06789752, 10.002241, 9.998916 
1.9151789e+3, 1.5513426e+2, -1181475.1, -1430726.5, 5055.51, -0.012786393, -0.35570893, -1181372.6, 238279.19, 0.028290106, 10.002243, 9.99885 
1.9151664e+3, 1.6513272e+2, -1117557.8, -1387927.1, -12298.009, -0.067735516, -0.37376797, -1116999.5, 204667.6, 0.007296161, 10.002128, 9.998527 
1.9151542e+3, 1.7513177e+2, -1052257.0, -1311919.5, -29216.904, -0.06459289, -0.32418266, -1049010.1, 174667.63, 0.0007092475, 10.001918, 9.998477 
1.915142e+3, 1.8513072e+2, -979979.9, -1211456.8, -44611.36, -0.050329667, -0.27992058, -971679.75, 154010.39, 0.0000023137907, 10.001675, 9.998611 
1.9151297e+3, 1.951297e+2, -925948.56, -1140677.0, -27425.404, -0.026656197, -0.24671794, -922501.1, 105201.37, 0.0, 10.0014, 9.998556 
1.9151169e+3, 2.0512827e+2, -842548.4, -1036113.06, -41954.586, -0.03183339, -0.24615185, -833846.06, 95871.49, 0.0, 10.001242, 9.998678 
1.9151035e+3, 2.1512659e+2, -754220.8, -947842.06, -44938.707, -0.06305568, -0.2862862, -744299.1, 87434.57, 0.0, 10.001197, 9.998632 
1.9150907e+3, 2.2512534e+2, -688433.25, -850856.9, -48876.113, -0.052022636, -0.27676204, -674859.8, 58886.29, 0.0, 10.000914, 9.998763 
1.9150782e+3, 2.3512462e+2, -669206.06, -795673.44, -56082.02, -0.006749584, -0.22771934, -647919.4, -12165.896, 0.0, 10.000394, 9.998719 
1.9150656e+3, 2.4512352e+2, -621271.2, -674755.8, -28381.84, 0.002929184, -0.2262645, -609017.6, -71253.79, 0.0, 9.999849, 9.999137 
1.9150533e+3, 2.5512215e+2, -610952.0, -625895.5, -24030.424, -0.008987662, -0.278839, -593258.5, -153482.89, 0.0, 9.999275, 9.999076 
1.9150414e+3, 2.651209e+2, -560474.8, -555871.4, -31961.605, 0.017951697, -0.30634144, -526128.75, -184341.05, 0.0, 9.998971, 9.99903 
1.9150293e+3, 2.7511987e+2, -469768.78, -461992.0, -42781.87, 0.044245403, -0.31375623, -422922.16, -179124.47, 0.0, 9.998922, 9.999026 
1.9150166e+3, 2.8511965e+2, -345414.53, -269103.0, -32746.943, 0.000094756404, -0.2733334, -256977.31, -111177.8, 0.0, 9.998751, 9.99976 
1.9150043e+3, 2.9512003e+2, -305052.78, -234655.27, -22625.703, -0.004850809, -0.2127445, -228010.56, -180216.08, 0.0, 9.998507, 9.999442 
1.9149923e+3, 3.0511808e+2, -287638.3, -191986.75, -69959.67, 0.053655658, -0.3416308, -155067.86, -155067.86, 0.0, 9.998247, 9.999529 
1.9149792e+3, 3.1511796e+2, -281746.5, -15214.304, 76812.945, 0.03253181, -0.32849562, 5337.9365, 5337.9365, 0.0, 9.99755, 10.001071 
1.9252172e+3, 1.2515077e+2, -1434733.1, -1725761.6, -4591.8335, -0.0140524665, -0.36485848, -1434660.6, 278827.88, 0.18468429, 10.003118, 9.998421 
1.9252044e+3, 1.3514896e+2, -1362395.8, -1712533.9, 6404.9526, -0.11715268, -0.34361044, -1362278.6, 253229.23, 0.1273857, 10.003018, 9.9978895 
1.9251943e+3, 1.4514792e+2, -1231404.0, -1493516.8, -5833.576, 0.10100771, -0.28150535, -1231274.3, 286244.0, 0.07204244, 10.00265, 9.998908 
1.925181e+3, 1.5514603e+2, -1213799.1, -1448461.3, -8869.445, -0.005909123, -0.3648604, -1213464.3, 206071.06, 0.030339934, 10.002026, 9.998834 
1.9251683e+3, 1.6514449e+2, -1168632.5, -1419081.5, -12910.836, -0.06032903, -0.37803042, -1167968.8, 153582.11, 0.007991714, 10.001804, 9.998467 
1.9251561e+3, 1.7514345e+2, -1050303.8, -1317398.9, -1696.4453, -0.072415166, -0.33244237, -1050293.0, 173269.95, 0.000818734, 10.001961, 9.998418 
1.9251436e+3, 1.8514246e+2, -942557.1, -1167166.5, -20674.379, -0.065179385, -0.28928038, -940670.0, 184904.39, 0.0000031359323, 10.0018215, 9.998843 
1.925131e+3, 1.9514167e+2, -907609.2, -1106781.8, -19308.406, -0.038404066, -0.25565612, -905754.6, 121828.86, 0.0, 10.00142, 9.998778 
1.925118e+3, 2.0514035e+2, -851682.25, -1043065.8, -26240.684, -0.03402817, -0.25372815, -848149.6, 81447.87, 0.0, 10.001192, 9.998652 
1.9251049e+3, 2.1513869e+2, -766206.7, -957126.44, -25977.715, -0.051079553, -0.2899718, -762735.1, 68879.26, 0.0, 10.001132, 9.998599 
1.9250917e+3, 2.2513744e+2, -710444.75, -868812.44, -39725.13, -0.04023113, -0.27390906, -701038.7, 32588.623, 0.0, 10.000797, 9.998694 
1.9250785e+3, 2.3513672e+2, -701661.2, -819247.8, -38117.8, -0.0078111026, -0.21852268, -690385.8, -54750.766, 0.0, 10.000206, 9.998647 
1.9250654e+3, 2.4513552e+2, -617542.56, -680744.9, -3432.392, -0.0053237895, -0.21948135, -617356.75, -79710.14, 0.0, 9.999909, 9.999066 
1.9250529e+3, 2.5513405e+2, -527866.1, -593954.6, -16456.652, -0.017896075, -0.27766436, -523995.03, -84335.23, 0.0, 9.999883, 9.999002 
1.9250406e+3, 2.651328e+2, -465138.44, -498619.38, -17291.074, 0.013868069, -0.30181465, -457811.8, -116140.84, 0.0, 9.99958, 9.999129 
1.9250283e+3, 2.7513194e+2, -450017.5, -440768.13, -4441.735, 0.051706776, -0.30640933, -438980.6, -195301.73, 0.0, 9.999011, 9.999127 
1.925015e+3, 2.851315e+2, -376611.9, -278670.22, 5208.598, -0.01313721, -0.29232493, -278394.0, -132712.11, 0.0, 9.998515, 9.999806 
1.9250019e+3, 2.9513165e+2, -365584.13, -263320.5, -3382.5212, -0.06516868, -0.2592116, -263208.72, -215530.02, 0.0, 9.998093, 9.999443 
1.9249913e+3, 3.0512974e+2, -358833.9, -269944.13, -31126.512, 0.14234145, -0.36357042, -260128.47, -260128.47, 0.0, 9.99795, 9.999135 
1.924977e+3, 3.1512967e+2, -281171.53, -20123.766, 117777.72, 0.06713976, -0.30880716, 25159.277, 25159.277, 0.0, 9.997581, 10.00102 
1.9352207e+3, 1.2516318e+2, -1408710.9, -1661412.6, 16447.148, 0.0036346957, -0.29749662, -1407644.9, 305722.84, 0.1936958, 10.003107, 9.998954 
1.935207e+3, 1.3516064e+2, -1340308.4, -1650001.9, 3126.5447, -0.17824517, -0.39542738, -1340276.9, 275114.75, 0.13419838, 10.0029955, 9.99833 
1.9351962e+3, 1.4515924e+2, -1260536.1, -1549842.3, -28051.102, 0.019189974, -0.37118226, -1257841.4, 259564.13, 0.07638745, 10.00263, 9.99852 
1.9351831e+3, 1.551583e+2, -1239772.1, -1504427.3, -29581.117, -0.0073970454, -0.3219387, -1236506.1, 182909.86, 0.032504734, 10.002031, 9.998447 
1.9351704e+3, 1.6515698e+2, -1144182.3, -1371243.6, -6934.4136, -0.0366974, -0.30945608, -1143970.8, 177458.77, 0.008736665, 10.001817, 9.998792 
1.9351579e+3, 1.7515549e+2, -1028495.9, -1271606.4, 4841.6157, -0.08265432, -0.34261012, -1028399.44, 195044.97, 0.0009414751, 10.001957, 9.998734 
1.935145e+3, 1.8515423e+2, -941532.3, -1163020.1, -35517.535, -0.09896713, -0.3420931, -935976.1, 189481.08, 0.0000044945964, 10.001811, 9.998878 
1.935132e+3, 1.9515342e+2, -905765.0, -1101545.3, -32384.836, -0.082789674, -0.31677383, -900547.1, 126919.07, 0.0, 10.001412, 9.998819 
1.9351192e+3, 2.0515244e+2, -850474.4, -1039328.4, -27769.195, -0.05262493, -0.28359288, -846475.8, 83001.47, 0.0, 10.001184, 9.998683 
1.9351064e+3, 2.1515149e+2, -766425.44, -954336.75, -26354.78, -0.0106462035, -0.24962239, -762799.1, 68689.57, 0.0, 10.001116, 9.998627 
1.935093e+3, 2.2515021e+2, -707114.94, -860967.25, -61087.527, 0.009544861, -0.24139613, -685810.1, 47692.1, 0.0, 10.000791, 9.998753 
1.9350788e+3, 2.3514873e+2, -697530.3, -811863.7, -57790.21, 0.0058344104, -0.26848114, -673409.0, -37892.5, 0.0, 10.00021, 9.998696 
1.9350652e+3, 2.4514733e+2, -637261.4, -723769.0, -3650.1423, -0.015123408, -0.2747887, -637107.6, -99577.375, 0.0, 9.999915, 9.99877 
1.9350524e+3, 2.5514627e+2, -546391.4, -634268.56, -16202.671, -0.043135066, -0.26466972, -543499.1, -103957.75, 0.0, 9.999888, 9.998725 
1.9350398e+3, 2.6514542e+2, -433813.63, -434637.22, -38205.6, -0.020494768, -0.2592013, -396017.6, -54469.367, 0.0, 9.999583, 9.999568 
1.935027e+3, 2.7514482e+2, -421088.56, -382714.3, -24595.057, 0.018265733, -0.27957898, -370707.5, -127156.76, 0.0, 9.999017, 9.999525 
1.9350132e+3, 2.851437e+2, -392506.56, -314861.9, -11247.191, -0.04594848, -0.3390443, -313265.5, -167705.97, 0.0, 9.998526, 9.999555 
1.9349997e+3, 2.951427e+2, -373497.66, -286136.44, -14559.574, -0.11264999, -0.3966092, -283773.84, -236205.27, 0.0, 9.998116, 9.999278 
1.9349903e+3, 3.0514228e+2, -343441.63, -241612.9, -34018.805, 0.24747907, -0.35571527, -231293.69, -231293.69, 0.0, 9.997965, 9.999322 
1.9349748e+3, 3.1514123e+2, -283272.6, -31709.576, 5389.8784, 0.06765185, -0.40737367, -31594.146, -31594.146, 0.0, 9.997603, 10.000935 
1.9452237e+3, 1.2517498e+2, -1396825.8, -1643407.4, 40479.94, -0.013216105, -0.31583032, -1390350.4, 322901.53, 0.2030465, 10.00318, 9.999079 
1.9452098e+3, 1.3517304e+2, -1389855.8, -1656890.1, -11898.605, -0.1565862, -0.373771, -1389326.6, 225943.4, 0.14129116, 10.002532, 9.9985075 
1.9451986e+3, 1.4517148e+2, -1287834.1, -1562821.4, -28359.209, 0.015277185, -0.3746334, -1284940.0, 232345.52, 0.08093128, 10.002434, 9.998525 
1.9451854e+3, 1.5517057e+2, -1136120.4, -1451506.9, -6058.337, -0.024278497, -0.319681, -1136004.0, 283291.56, 0.034782283, 10.00277, 9.998451 
1.9451725e+3, 1.6516934e+2, -1034713.8, -1302537.8, 17104.475, -0.053327918, -0.30582058, -1033625.9, 287682.28, 0.009530246, 10.002516, 9.998924 
1.9451597e+3, 1.7516793e+2, -1050238.3, -1267376.8, 14108.481, -0.09170313, -0.34309223, -1049325.4, 173996.36, 0.0010781297, 10.001747, 9.998863 
1.9451466e+3, 1.851667e+2, -1007464.94, -1187674.1, -28015.715, -0.10194431, -0.3499228, -1003210.0, 122124.055, 0.0000066792873, 10.00133, 9.998939 
1.9451334e+3, 1.9516584e+2, -927243.94, -1105465.8, -25315.629, -0.08143651, -0.3341302, -923717.7, 103625.61, 0.0, 10.001239, 9.998875 
1.9451201e+3, 2.051649e+2, -887031.7, -1051648.6, -21543.637, -0.05052818, -0.30277705, -884258.94, 45095.168, 0.0, 10.000914, 9.998728 
1.945107e+3, 2.1516405e+2, -871153.06, -1000005.3, -20810.23, -0.011746531, -0.263966, -867875.5, -36510.73, 0.0, 10.000379, 9.998668 
1.9450936e+3, 2.251629e+2, -769433.94, -877976.06, -44333.96, 0.012232162, -0.25167024, -753627.56, -20250.24, 0.0, 10.000309, 9.998865 
1.9450794e+3, 2.3516156e+2, -621905.94, -763050.0, -38302.75, 0.020824261, -0.27488795, -612181.56, 23208.723, 0.0, 10.000679, 9.998804 
1.9450656e+3, 2.4516024e+2, -569858.44, -688369.0, 16928.768, -0.0020013333, -0.28110084, -567487.6, -30084.158, 0.0, 10.00037, 9.998792 
1.9450521e+3, 2.5515914e+2, -612577.56, -663563.2, 26796.68, -0.048717648, -0.27381462, -601084.6, -161669.86, 0.0, 9.999425, 9.998745 
1.9450389e+3, 2.6515836e+2, -523710.63, -464356.2, 9580.393, -0.031893153, -0.26792246, -462848.13, -121427.54, 0.0, 9.998908, 9.999688 
1.945026e+3, 2.751579e+2, -451520.66, -385763.97, -2150.8157, 0.02491115, -0.28746873, -385693.7, -142272.33, 0.0, 9.99876, 9.999626 
1.9450119e+3, 2.8515667e+2, -410599.25, -333225.63, 6334.981, -0.023610936, -0.35590455, -332710.38, -187279.33, 0.0, 9.9984455, 9.999466 
1.9449978e+3, 2.9515558e+2, -386646.0, -286144.8, 17593.104, -0.103919774, -0.41762084, -283154.1, -235712.45, 0.0, 9.998002, 9.99933 
1.9449879e+3, 3.051557e+2, -320694.1, -198461.08, 28803.043, 0.21441476, -0.34266493, -192013.97, -192013.97, 0.0, 9.997987, 9.999606 
1.9449721e+3, 3.1515503e+2, -198638.9, 23691.766, -15161.78, 0.033760652, -0.37601, 24720.955, 24720.955, 0.0, 9.998124, 10.001063 
1.9552262e+3, 1.2518634e+2, -1417411.0, -1676053.8, 35015.457, -0.07988255, -0.4038076, -1412754.4, 300385.38, 0.2127412, 10.003163, 9.998809 
1.9552134e+3, 1.3518609e+2, -1396827.3, -1669230.4, -30081.87, -0.062611215, -0.28186578, -1393544.9, 221598.4, 0.14865935, 10.002532, 9.998425 
1.9552016e+3, 1.4518455e+2, -1265916.0, -1511646.9, -15867.966, 0.07764832, -0.296009, -1264895.6, 252263.08, 0.08566713, 10.002435, 9.998878 
1.9551878e+3, 1.5518287e+2, -1115719.8, -1402891.9, 5931.158, -0.061603047, -0.3558294, -1115597.4, 303577.1, 0.03716917, 10.002753, 9.998798 
1.9551744e+3, 1.6518156e+2, -1041067.7, -1310862.6, -11626.729, -0.112889014, -0.36340016, -1040567.56, 280619.47, 0.01037135, 10.002495, 9.998878 
1.9551614e+3, 1.7518076e+2, -1054169.0, -1274845.4, -12742.347, -0.10219179, -0.3349182, -1053435.6, 169759.81, 0.0012287758, 10.001742, 9.998816 
1.9551481e+3, 1.8517981e+2, -1002679.8, -1177907.4, -30345.857, -0.08036008, -0.31467548, -997573.3, 127632.2, 0.000009908067, 10.001328, 9.999007 
1.955135e+3, 1.9517893e+2, -923521.8, -1097046.3, -27193.373, -0.04024532, -0.30750644, -919360.1, 107855.23, 0.0, 10.001234, 9.998936 
1.9551212e+3, 2.051777e+2, -884368.75, -1046134.1, -41020.383, -0.03214348, -0.3103276, -874561.4, 54667.11, 0.0, 10.000912, 9.998768 
1.955107e+3, 2.1517628e+2, -867595.75, -993579.06, -38256.375, -0.05667824, -0.33142093, -856888.7, -25645.375, 0.0, 10.0003805, 9.998712 
1.9550934e+3, 2.2517538e+2, -757534.6, -854320.75, -29337.54, -0.033670373, -0.303273, -749336.4, -16083.055, 0.0, 10.000311, 9.999029 
1.9550802e+3, 2.3517509e+2, -611106.94, -739299.44, -23053.346, 0.033471253, -0.23859692, -607087.2, 28170.244, 0.0, 10.00067, 9.998973 
1.9550663e+3, 2.4517407e+2, -547989.5, -642302.25, -17861.162, 0.029504284, -0.24006195, -544720.25, -7452.774, 0.0, 10.000365, 9.999111 
1.9550516e+3, 2.5517255e+2, -589704.5, -618577.75, -6401.369, -0.039187692, -0.30488637, -588348.9, -149067.92, 0.0, 9.9994335, 9.99905 
1.955038e+3, 2.6517156e+2, -536224.0, -493109.03, 4268.8633, -0.023335146, -0.32632655, -492690.4, -151401.31, 0.0, 9.998918, 9.999488 
1.9550252e+3, 2.75171e+2, -463290.53, -415224.44, -7339.2476, 0.06402659, -0.332108, -414128.78, -170836.55, 0.0, 9.998778, 9.999417 
1.955011e+3, 2.8517035e+2, -403087.9, -321148.16, -11906.945, 0.047699183, -0.34253076, -319453.0, -174155.28, 0.0, 9.99846, 9.999543 
1.9549963e+3, 2.9517016e+2, -368465.88, -250459.58, 3933.3848, -0.044424128, -0.31692648, -250328.63, -203029.8, 0.0, 9.998008, 9.999574 
1.954984e+3, 3.0516973e+2, -291405.53, -139496.42, 37800.496, 0.036844507, -0.33914155, -130610.11, -130610.11, 0.0, 9.997994, 10.000008 
1.9549711e+3, 3.151699e+2, -194101.34, 20644.729, -100997.1, 0.10233742, -0.31677666, 60680.59, 60680.59, 0.0, 9.998173, 10.001022 
1.9652294e+3, 1.2519911e+2, -1389350.4, -1686176.1, 63217.87, -0.09589862, -0.41089284, -1376447.1, 336566.4, 0.22268727, 10.003581, 9.998523 
1.9652164e+3, 1.3519885e+2, -1333404.3, -1634330.9, -7302.2456, -0.036340047, -0.28622916, -1333227.1, 281790.8, 0.15625688, 10.0030775, 9.998397 
1.965204e+3, 1.4519727e+2, -1238589.0, -1480394.8, 20054.896, 0.0685325, -0.31100947, -1236936.9, 280096.9, 0.0905779, 10.002578, 9.999042 
1.96519e+3, 1.5519577e+2, -1205437.1, -1429449.3, 25748.24, -0.06082764, -0.3660831, -1202515.8, 216531.44, 0.039660398, 10.002045, 9.998953 
1.9651765e+3, 1.651946e+2, -1149273.4, -1360742.5, -5068.438, -0.107736684, -0.37140676, -1149152.0, 171906.52, 0.0112578245, 10.001735, 9.9989 
1.9651629e+3, 1.7519382e+2, -1065943.8, -1277424.8, -3131.8633, -0.10344328, -0.3424191, -1065897.4, 157169.4, 0.001392616, 10.001654, 9.998838 
1.9651495e+3, 1.8519291e+2, -991175.6, -1180640.9, -16296.559, -0.08418016, -0.31487745, -989784.1, 135292.75, 0.000014255441, 10.001448, 9.998929 
1.9651361e+3, 1.951921e+2, -944467.94, -1114969.3, -25080.963, -0.042080283, -0.29253754, -940855.06, 86231.695, 0.0, 10.001128, 9.998861 
1.9651222e+3, 2.051909e+2, -861998.8, -1007013.44, -37447.508, -0.0335325, -0.30005032, -852899.56, 76199.55, 0.0, 10.000945, 9.999019 
1.9651075e+3, 2.151895e+2, -776738.1, -922464.5, -21096.883, -0.05954275, -0.34566036, -773745.4, 57367.105, 0.0, 10.000889, 9.998954 
1.9650936e+3, 2.2518866e+2, -732777.4, -840186.3, -5734.4233, -0.040882807, -0.324384, -732472.06, 649.6978, 0.0, 10.000475, 9.999045 
1.9650802e+3, 2.3518847e+2, -746220.0, -801899.56, -12519.147, 0.020447284, -0.24946128, -743534.7, -108408.945, 0.0, 9.999735, 9.998992 
1.9650662e+3, 2.4518771e+2, -658053.06, -664937.06, -19699.63, 0.03067783, -0.24042974, -641497.0, -104363.52, 0.0, 9.999479, 9.999381 
1.9650514e+3, 2.5518656e+2, -537333.94, -562921.9, -12779.948, -0.007587062, -0.29536098, -532044.44, -92901.65, 0.0, 9.999666, 9.999318 
1.9650373e+3, 2.651856e+2, -461575.8, -464210.75, 3487.0413, -0.008630022, -0.32196203, -459165.66, -118015.13, 0.0, 9.999465, 9.99942 
1.9650236e+3, 2.7518487e+2, -451788.6, -416666.28, 896.9118, 0.031137923, -0.34121713, -416643.4, -173487.02, 0.0, 9.998893, 9.99935 
1.9650097e+3, 2.8518426e+2, -374891.44, -296677.8, 7498.86, 0.05550368, -0.34424177, -295965.34, -150804.42, 0.0, 9.998609, 9.999639 
1.9649956e+3, 2.951843e+2, -276256.88, -184159.16, 24105.35, 0.048943713, -0.31008205, -178231.42, -131072.03, 0.0, 9.99855, 9.999766 
1.964981e+3, 3.0518386e+2, -304564.75, -132002.53, 33558.926, -0.070611045, -0.35079145, -125705.94, -125705.94, 0.0, 9.997846, 10.000131 
1.964968e+3, 3.151841e+2, -382151.7, -62685.906, -112953.04, 0.051330555, -0.32780886, -26783.973, -26783.973, 0.0, 9.996854, 10.001083 
1.9752331e+3, 1.2521315e+2, -1408169.8, -1717322.5, 51158.004, -0.07275097, -0.34679064, -1399924.3, 312950.7, 0.23270737, 10.003566, 9.9982815 
1.975219e+3, 1.3521133e+2, -1336567.3, -1631947.6, -21463.244, -0.080179766, -0.3788991, -1335015.8, 279878.06, 0.16399536, 10.00306, 9.998424 
1.9752058e+3, 1.4520968e+2, -1243188.0, -1486047.3, 3075.7478, -0.014833805, -0.4097995, -1243149.0, 273761.38, 0.09563432, 10.002571, 9.999004 
1.9751926e+3, 1.5520929e+2, -1208483.0, -1436141.6, 8392.165, -0.028360454, -0.35117692, -1208174.0, 210739.97, 0.04225016, 10.0020485, 9.998905 
1.9751789e+3, 1.6520835e+2, -1143404.1, -1350258.8, -8465.12, -0.04793424, -0.33196467, -1143058.3, 177864.86, 0.012187517, 10.001742, 9.99897 
1.9751647e+3, 1.7520705e+2, -1061049.5, -1268962.6, -5359.703, -0.09954242, -0.36433017, -1060911.4, 162024.84, 0.0015681973, 10.001658, 9.998895 
1.9751507e+3, 1.8520595e+2, -1006340.6, -1212606.9, -27840.863, -0.115335524, -0.34781078, -1002648.9, 122299.79, 0.000019593592, 10.001449, 9.99871 
1.9751367e+3, 1.9520527e+2, -958638.1, -1144774.5, -34853.496, -0.08849337, -0.29017854, -952325.94, 74632.46, 0.0, 10.001128, 9.998658 
1.9751228e+3, 2.0520444e+2, -831131.75, -942592.7, -38350.098, -0.057277136, -0.2746483, -819211.56, 109755.445, 0.0, 10.000942, 9.999464 
1.9751088e+3, 2.1520361e+2, -748182.56, -860896.3, -21322.951, -0.02575739, -0.30746734, -744283.56, 86689.586, 0.0, 10.000876, 9.999384 
1.9750944e+3, 2.252026e+2, -743733.5, -862151.1, -32674.594, -0.015220628, -0.31515765, -735316.06, -2332.488, 0.0, 10.000469, 9.998898 
1.9750796e+3, 2.3520161e+2, -755454.1, -823030.06, -37611.453, -0.021468775, -0.30695716, -738682.75, -103686.516, 0.0, 9.999741, 9.998845 
1.9750653e+3, 2.4520105e+2, -641002.75, -632167.1, -12223.976, -0.00025410732, -0.28061187, -623587.1, -86584.69, 0.0, 9.999488, 9.999604 
1.9750516e+3, 2.5520104e+2, -520761.66, -530797.9, -5283.302, 0.039681047, -0.2457552, -518493.16, -79491.87, 0.0, 9.999673, 9.999537 
1.9750369e+3, 2.6520038e+2, -456085.94, -454735.72, -18344.086, 0.00601174, -0.25669637, -437054.3, -96048.11, 0.0, 9.999472, 9.999483 
1.9750215e+3, 2.751993e+2, -446108.2, -407842.4, -18989.973, -0.07811546, -0.31711936, -400018.16, -157002.9, 0.0, 9.998902, 9.999407 
1.9750078e+3, 2.8519836e+2, -365003.56, -278462.56, 4787.9995, -0.002302011, -0.36187932, -278198.47, -133176.38, 0.0, 9.998616, 9.999761 
1.9749954e+3, 2.951978e+2, -263933.75, -165226.05, 20693.164, 0.1701914, -0.39827684, -161063.45, -114038.62, 0.0, 9.998576, 9.999886 
1.9749784e+3, 3.0519798e+2, -316541.5, -161823.7, -16920.393, -0.11652682, -0.3727459, -159994.86, -159994.86, 0.0, 9.997866, 9.999917 
1.9749658e+3, 3.1519753e+2, -364402.66, -30876.807, -37187.293, 0.13550413, -0.3968366, -26780.82, -26780.82, 0.0, 9.996872, 10.001295 
1.985237e+3, 1.2522708e+2, -1454376.5, -1763204.8, 79618.79, -0.022739476, -0.3535236, -1435058.4, 277678.16, 0.24262328, 10.00327, 9.998124 
1.9852221e+3, 1.3522495e+2, -1330119.0, -1626205.1, 3125.7996, -0.088047884, -0.41779613, -1330086.0, 284672.88, 0.17176598, 10.003133, 9.9984255 
1.985208e+3, 1.452235e+2, -1213819.5, -1485638.4, 21402.78, -0.07603796, -0.4229905, -1212144.6, 304629.44, 0.10078937, 10.002876, 9.998861 
1.9851947e+3, 1.5522315e+2, -1164187.8, -1428315.8, 17981.666, -0.026162839, -0.34517244, -1162969.1, 255808.66, 0.04492615, 10.002441, 9.998768 
1.985181e+3, 1.6522212e+2, -1088773.6, -1330210.0, 7812.291, -0.025249196, -0.32429373, -1088521.1, 232266.89, 0.013157884, 10.002159, 9.998903 
1.9851665e+3, 1.7522062e+2, -1011522.44, -1251602.4, -455.52042, -0.100119814, -0.36846235, -1011521.56, 211281.44, 0.0017538491, 10.002032, 9.998833 
1.985152e+3, 1.8521942e+2, -959596.2, -1177090.1, -24729.07, -0.12286474, -0.36506188, -956819.94, 167996.05, 0.0000256483, 10.001716, 9.998825 
1.9851379e+3, 1.9521868e+2, -935713.56, -1121120.8, -9251.244, -0.08762183, -0.32317626, -935253.1, 91572.25, 0.0, 10.001233, 9.998769 
1.9851238e+3, 2.0521803e+2, -854568.56, -949114.7, -11671.564, -0.04843486, -0.29860118, -853149.06, 75683.43, 0.0, 10.000763, 9.999504 
1.9851094e+3, 2.1521756e+2, -828811.56, -894491.2, -26551.08, -0.009430383, -0.29855475, -819420.9, 11415.042, 0.0, 10.000304, 9.999428 
1.9850947e+3, 2.2521666e+2, -780203.1, -859854.94, -40320.74, -0.010263145, -0.30698657, -763355.7, -30510.422, 0.0, 10.000135, 9.999073 
1.9850793e+3, 2.3521554e+2, -672590.2, -763336.5, -21750.775, -0.04325201, -0.33007872, -667646.1, -32787.758, 0.0, 10.000228, 9.999019 
1.9850647e+3, 2.4521503e+2, -584831.44, -598462.44, 9839.549, -0.016647143, -0.31052804, -579677.5, -42813.52, 0.0, 9.999849, 9.999659 
1.9850512e+3, 2.5521517e+2, -608593.2, -566748.25, 3949.4011, 0.056982283, -0.2627584, -566378.75, -127517.33, 0.0, 9.999045, 9.999592 
1.9850363e+3, 2.6521462e+2, -555822.06, -494694.03, -10184.732, 0.026838157, -0.2708271, -493041.78, -152176.13, 0.0, 9.998754, 9.999554 
1.9850202e+3, 2.7521363e+2, -441599.94, -398206.97, -11542.505, -0.07767158, -0.32892737, -395327.72, -152453.9, 0.0, 9.998906, 9.999469 
1.9850065e+3, 2.8521273e+2, -346328.3, -278817.8, 3981.9392, -0.0024408519, -0.36804646, -278583.78, -133703.42, 0.0, 9.998788, 9.999674 
1.984994e+3, 2.9521197e+2, -302620.7, -197168.19, 623.09106, 0.18606347, -0.41523278, -197164.5, -150279.34, 0.0, 9.998373, 9.999762 
1.9849762e+3, 3.0521208e+2, -310461.22, -147718.61, -56761.95, -0.11469821, -0.3950717, -129876.98, -129876.98, 0.0, 9.997858, 10.000017 
1.9849631e+3, 3.1521165e+2, -261786.69, 32561.432, 48855.957, 0.1533063, -0.4331961, 40458.67, 40458.67, 0.0, 9.997518, 10.001418 
1.9952409e+3, 1.2524085e+2, -1464193.5, -1779973.3, 66799.89, 0.036048517, -0.43704605, -1450644.0, 261955.2, 0.25233525, 10.003268, 9.997999 
1.9952254e+3, 1.3523966e+2, -1336941.6, -1636503.4, 272.92157, -0.06980307, -0.40388447, -1336941.4, 277672.25, 0.17948338, 10.003133, 9.998355 
1.9952103e+3, 1.4523858e+2, -1228949.3, -1516669.4, 6149.1826, -0.12304754, -0.3534886, -1228817.9, 287807.84, 0.105993055, 10.002888, 9.998621 
1.995197e+3, 1.5523726e+2, -1179024.5, -1461773.9, 3053.9973, -0.05584114, -0.34898916, -1178991.5, 239647.63, 0.047671728, 10.00245, 9.998535 
1.995183e+3, 1.6523586e+2, -1103318.9, -1359946.9, 3311.7405, -0.041962154, -0.3461697, -1103276.1, 217377.44, 0.0141666755, 10.002156, 9.998701 
1.9951685e+3, 1.7523448e+2, -1026500.6, -1280169.3, -3567.414, -0.108801894, -0.35584095, -1026450.44, 196217.08, 0.0019487245, 10.00202, 9.998643 
1.9951539e+3, 1.8523327e+2, -931616.56, -1116799.1, -42065.05, -0.112197414, -0.36812884, -922509.2, 202170.39, 0.000032105352, 10.001704, 9.999246 
1.9951397e+3, 1.9523232e+2, -908435.9, -1064189.8, -25370.0, -0.04563589, -0.38863134, -904407.7, 122280.586, 0.0, 10.001229, 9.999163 
1.9951248e+3, 2.052316e+2, -879935.94, -1002758.06, -28486.838, -0.012170187, -0.36800003, -873650.5, 55045.594, 0.0, 10.000765, 9.999136 
1.9951099e+3, 2.1523128e+2, -852886.0, -945639.5, -41160.293, -0.013907676, -0.31810257, -837254.9, -6553.292, 0.0, 10.000307, 9.999076 
1.9950946e+3, 2.2523072e+2, -744826.94, -787228.44, -35995.277, -0.027503291, -0.30075014, -724252.9, 8454.99, 0.0, 10.000136, 9.999573 
1.9950795e+3, 2.3523013e+2, -639885.2, -694239.44, -17193.871, -0.049274866, -0.3195798, -634902.94, -189.70564, 0.0, 10.00022, 9.999498 
1.9950646e+3, 2.4522948e+2, -593716.56, -616912.9, -20371.693, -0.02363987, -0.3309855, -581872.8, -45153.668, 0.0, 9.999848, 9.999534 
1.99505e+3, 2.5522888e+2, -615543.3, -584285.9, -24176.113, 0.040972207, -0.34683523, -571126.75, -132402.33, 0.0, 9.999057, 9.999467 
1.9950353e+3, 2.652282e+2, -549348.25, -484536.78, -5126.91, 0.053281017, -0.36189225, -484133.72, -143403.83, 0.0, 9.998766, 9.999619 
1.9950202e+3, 2.7522776e+2, -437311.72, -393444.0, -5719.141, 0.025789598, -0.3737588, -392710.63, -149977.42, 0.0, 9.998921, 9.9994955 
1.9950058e+3, 2.852272e+2, -365174.8, -321733.4, -13147.235, 0.04735088, -0.36309958, -318064.38, -173326.92, 0.0, 9.998803, 9.9993725 
1.9949913e+3, 2.9522657e+2, -327242.13, -252323.08, -18471.305, 0.086608835, -0.3690113, -248016.52, -201273.5, 0.0, 9.998388, 9.999376 
1.9949746e+3, 3.0522597e+2, -278734.1, -85333.44, -78305.51, -0.05850942, -0.41328642, -57604.242, -57604.242, 0.0, 9.997871, 10.000441 
1.9949596e+3, 3.1522658e+2, -281044.6, -12525.844, 125458.164, 0.048125893, -0.39487073, 36968.23, 36968.23, 0.0, 9.997539, 10.0011 
2.0052442e+3, 1.2525506e+2, -1317021.9, -1674191.1, 24311.818, -0.023430657, -0.4538358, -1315374.6, 397085.53, 0.26188743, 10.0045805, 9.998162 
2.0052287e+3, 1.3525431e+2, -1295682.3, -1605088.1, -23678.36, -0.050898157, -0.3835421, -1293880.6, 320589.22, 0.18714817, 10.003474, 9.998419 
2.0052134e+3, 1.4525345e+2, -1223959.6, -1528984.3, 3304.7124, -0.11827185, -0.30676436, -1223923.8, 292555.9, 0.111231856, 10.003015, 9.998471 
2.0051995e+3, 1.5525138e+2, -1101959.1, -1438621.9, 655.2485, -0.069203965, -0.36100745, -1101957.9, 316542.6, 0.05047923, 10.003084, 9.998387 
2.0051853e+3, 1.6524981e+2, -1047962.8, -1329308.1, -3485.24, -0.04890056, -0.3696954, -1047919.6, 272597.0, 0.01521361, 10.00253, 9.998732 
2.0051704e+3, 1.7524877e+2, -1109281.5, -1316667.0, 4597.9863, -0.08791072, -0.34854263, -1109179.6, 113347.82, 0.0021533365, 10.001438, 9.998672 
2.0051555e+3, 1.852476e+2, -1020018.5, -1147593.9, -18858.584, -0.09075478, -0.3608828, -1017289.1, 107249.24, 0.00003871999, 10.001049, 9.999348 
2.005141e+3, 1.9524652e+2, -893329.4, -1045256.56, -26850.06, -0.048216395, -0.4073587, -888723.8, 137823.89, 0.0, 10.001287, 9.999263 
2.0051257e+3, 2.052458e+2, -829881.8, -989757.5, -41697.402, -0.026234206, -0.38944697, -819660.2, 108895.86, 0.0, 10.00116, 9.999033 
2.0051102e+3, 2.1524552e+2, -801900.6, -932449.06, -36406.914, -0.027184831, -0.3224336, -792434.06, 38127.973, 0.0, 10.000708, 9.998973 
2.0050947e+3, 2.2524506e+2, -738384.6, -764460.1, -29245.635, -0.025199821, -0.29838312, -719402.25, 13165.173, 0.0, 10.000098, 9.999746 
2.0050795e+3, 2.3524462e+2, -754444.3, -730534.9, -36070.043, -0.01810568, -0.31990814, -704490.06, -69919.555, 0.0, 9.999354, 9.999665 
2.0050643e+3, 2.4524397e+2, -687252.94, -657148.7, -38720.56, -0.0055198073, -0.34020597, -630657.5, -94081.52, 0.0, 9.999186, 9.999576 
2.005049e+3, 2.5524327e+2, -545115.2, -545692.1, -31302.154, 0.011849549, -0.3687049, -514100.16, -75518.086, 0.0, 9.999523, 9.999505 
2.0050342e+3, 2.6524267e+2, -453130.03, -441738.72, -6749.041, 0.034988035, -0.37892225, -438603.2, -98015.84, 0.0, 9.999446, 9.999581 
2.0050196e+3, 2.7524233e+2, -428833.25, -392935.88, -14471.037, 0.06629663, -0.37344313, -387828.84, -145239.02, 0.0, 9.998999, 9.99946 
2.0050046e+3, 2.8524184e+2, -384763.38, -330645.6, -18079.914, 0.06356183, -0.3568639, -325161.16, -180567.08, 0.0, 9.99867, 9.999373 
2.0049891e+3, 2.9524124e+2, -337234.06, -269208.7, -5958.9224, 0.02245044, -0.35692236, -268690.63, -222090.9, 0.0, 9.998374, 9.999266 
2.0049733e+3, 3.052405e+2, -277753.84, -107808.695, -80291.24, 0.019948496, -0.39700165, -75875.23, -75875.23, 0.0, 9.997979, 10.000234 
2.0049573e+3, 3.152402e+2, -308057.53, -40647.73, 90134.28, 0.061306365, -0.45942405, -13103.788, -13103.788, 0.0, 9.997429, 10.000953 
2.0152472e+3, 1.252696e+2, -1303235.9, -1628922.1, -20286.332, -0.1982006, -0.41735554, -1301977.1, 410343.16, 0.2715738, 10.004542, 9.998611 
2.0152324e+3, 1.3526891e+2, -1290226.3, -1583592.9, -53533.246, -0.03838571, -0.3606395, -1280762.8, 333564.7, 0.19492346, 10.003452, 9.998614 
2.0152168e+3, 1.4526811e+2, -1233305.0, -1544224.4, 6627.1367, -0.07424176, -0.28281042, -1233163.9, 283172.03, 0.116572104, 10.003001, 9.998375 
2.0152025e+3, 1.5526555e+2, -1111921.6, -1454579.5, 3679.675, -0.07349068, -0.37791407, -1111882.1, 306479.5, 0.05336771, 10.003066, 9.998287 
2.0151877e+3, 1.65264e+2, -1033460.94, -1297133.5, -43874.92, -0.05207876, -0.3911233, -1026351.9, 294025.56, 0.016304638, 10.002522, 9.99896 
2.0151722e+3, 1.7526342e+2, -1092959.5, -1285822.6, -33880.363, -0.042603992, -0.34630185, -1087180.9, 135202.39, 0.0023698893, 10.00145, 9.998879 
2.0151569e+3, 1.8526241e+2, -1031722.4, -1175208.6, -9408.3, -0.062535994, -0.3439314, -1031108.1, 93285.06, 0.00004542485, 10.001061, 9.999153 
2.0151415e+3, 1.952612e+2, -906466.56, -1072991.0, -16858.775, -0.09742519, -0.38230705, -904776.94, 121627.664, 0.0, 10.001287, 9.999073 
2.0151262e+3, 2.0526043e+2, -819805.0, -968621.8, -57876.15, -0.091358796, -0.36687174, -799946.44, 128466.766, 0.0, 10.001157, 9.999181 
2.0151106e+3, 2.1526016e+2, -793829.56, -913936.0, -51428.688, -0.05283747, -0.31193206, -774817.6, 55600.363, 0.0, 10.000698, 9.999105 
2.015095e+3, 2.2525959e+2, -749937.0, -788522.56, -56345.004, -0.0076643904, -0.29861635, -709673.3, 22751.242, 0.0, 10.000096, 9.999583 
2.0150794e+3, 2.3525888e+2, -763843.56, -752783.44, -61205.832, 0.044678885, -0.33037254, -696858.4, -62427.207, 0.0, 9.999364, 9.99951 
2.0150639e+3, 2.4525839e+2, -670719.75, -626325.0, -25590.586, 0.033744086, -0.3377835, -614646.1, -78210.83, 0.0, 9.999199, 9.999783 
2.0150481e+3, 2.552583e+2, -531301.56, -518990.4, -18528.2, -0.03542092, -0.3296554, -505622.0, -67186.516, 0.0, 9.999529, 9.999687 
2.0150329e+3, 2.6525784e+2, -462317.72, -462850.0, -24311.287, -0.031369332, -0.32382587, -438271.1, -97831.734, 0.0, 9.999453, 9.999434 
2.0150183e+3, 2.7525723e+2, -433104.06, -406100.4, -29734.473, 0.03878143, -0.3305981, -386945.88, -144500.7, 0.0, 9.999015, 9.999363 
2.0150031e+3, 2.852565e+2, -362435.56, -287814.34, -30538.96, 0.043731768, -0.34898397, -276909.7, -132458.08, 0.0, 9.998683, 9.999662 
2.0149872e+3, 2.9525593e+2, -325289.47, -247823.27, -20113.0, -0.01245122, -0.37383577, -242912.52, -196456.34, 0.0, 9.998386, 9.999408 
2.0149723e+3, 3.0525544e+2, -334845.7, -230706.16, -96472.914, 0.11410346, -0.35063818, -173147.98, -173147.98, 0.0, 9.997994, 9.999383 
2.0149548e+3, 3.1525472e+2, -297180.72, -21088.348, -5133.3833, 0.071336105, -0.37663078, -20992.936, -20992.936, 0.0, 9.997445, 10.001078 
2.0252506e+3, 1.2528488e+2, -1442446.3, -1692469.1, 2584.5374, -0.23952001, -0.39296958, -1442419.5, 269751.53, 0.28198725, 10.003251, 9.998639 
2.025236e+3, 1.3528343e+2, -1283359.8, -1598565.0, -40995.89, -0.025864897, -0.38728502, -1278115.1, 336069.78, 0.2031543, 10.003643, 9.998396 
2.0252202e+3, 1.4528246e+2, -1183516.1, -1509125.4, 10929.181, -0.051857043, -0.32127666, -1183149.6, 333045.0, 0.12216646, 10.00337, 9.998445 
2.0252055e+3, 1.5528025e+2, -1196676.6, -1490755.9, 16796.928, -0.058762904, -0.38673028, -1195720.4, 222496.38, 0.05638722, 10.002429, 9.998345 
2.0251901e+3, 1.6527878e+2, -1095937.1, -1330074.0, -31508.959, -0.0427097, -0.39248106, -1091771.0, 228460.84, 0.017454358, 10.002102, 9.998932 
2.0251742e+3, 1.7527807e+2, -965002.7, -1226763.4, -40484.85, -0.034218132, -0.35910147, -958884.1, 263355.3, 0.002602448, 10.002344, 9.998852 
2.0251584e+3, 1.8527712e+2, -885012.6, -1111387.9, -11892.178, -0.06401745, -0.34530953, -884389.56, 239859.67, 0.0000523828, 10.002102, 9.999089 
2.0251428e+3, 1.9527614e+2, -889559.7, -1072399.5, -12422.992, -0.11834468, -0.35306847, -888719.44, 137539.61, 0.0, 10.001436, 9.999005 
2.0251271e+3, 2.0527539e+2, -854963.1, -969517.25, -58366.094, -0.10115389, -0.33875948, -830464.5, 97802.8, 0.0, 10.000848, 9.999324 
2.0251115e+3, 2.1527499e+2, -837689.0, -919076.8, -54266.97, -0.022603838, -0.31290418, -810553.0, 19719.635, 0.0, 10.000331, 9.999246 
2.0250954e+3, 2.2527432e+2, -758765.4, -797014.56, -49590.074, 0.011918033, -0.31391585, -724739.94, 7539.7656, 0.0, 10.000056, 9.999544 
2.0250788e+3, 2.3527355e+2, -675310.75, -714528.6, -45889.324, 0.009080824, -0.34693563, -645016.4, -10729.605, 0.0, 9.999992, 9.999468 
2.025063e+3, 2.4527316e+2, -601790.6, -584776.3, -789.04144, 0.00058697973, -0.34687307, -584739.8, -48449.766, 0.0, 9.9996395, 9.999854 
2.0250475e+3, 2.5527328e+2, -598830.9, -544397.25, -4723.925, -0.015385251, -0.3215781, -543990.4, -105702.38, 0.0, 9.999038, 9.999748 
2.0250322e+3, 2.652729e+2, -569235.75, -520494.06, -13241.12, -0.007612569, -0.3092212, -517129.28, -176837.73, 0.0, 9.998747, 9.999378 
2.0250171e+3, 2.7527216e+2, -481870.56, -435505.5, -13385.647, 0.026644172, -0.32433414, -431918.56, -189619.31, 0.0, 9.998707, 9.999309 
2.0250015e+3, 2.852713e+2, -380914.1, -291504.22, -24674.156, 0.027022975, -0.35503048, -285147.0, -140839.83, 0.0, 9.998537, 9.999705 
2.0249854e+3, 2.9527077e+2, -338265.2, -242181.03, -33985.742, -0.011891604, -0.37823433, -231375.23, -185064.23, 0.0, 9.998251, 9.99951 
2.0249705e+3, 3.0527064e+2, -321674.66, -225918.36, -66786.62, 0.13122514, -0.3282282, -191621.27, -191621.27, 0.0, 9.998089, 9.999372 
2.024952e+3, 3.1527072e+2, -238986.42, -29472.344, 30909.87, 0.027773296, -0.26716292, -25007.328, -25007.328, 0.0, 9.998003, 10.0007515 
2.0352545e+3, 1.2530088e+2, -1469932.4, -1745966.4, -2076.896, -0.17778656, -0.37444213, -1469916.8, 242096.0, 0.29386312, 10.003222, 9.998232 
2.0352398e+3, 1.3529794e+2, -1322929.1, -1687892.6, -28210.371, -0.02252122, -0.45263687, -1320761.4, 293280.2, 0.21227317, 10.003638, 9.997762 
2.0352235e+3, 1.4529654e+2, -1171488.0, -1480755.4, -18911.73, -0.05633354, -0.40969604, -1170335.9, 345719.56, 0.12821318, 10.003373, 9.998668 
2.0352082e+3, 1.552954e+2, -1184132.9, -1461818.1, -14506.958, -0.0308359, -0.3906921, -1183377.1, 234689.66, 0.059609216, 10.002428, 9.998546 
2.0351924e+3, 1.6529407e+2, -1114451.5, -1368754.5, -21947.256, -0.026077593, -0.3787243, -1112571.3, 207509.7, 0.018685577, 10.002101, 9.998668 
2.0351763e+3, 1.7529269e+2, -983867.0, -1264596.4, -30005.807, -0.06467886, -0.3862963, -980695.7, 241400.66, 0.002857233, 10.002337, 9.998597 
2.0351602e+3, 1.8529172e+2, -883415.94, -1106257.6, -35709.82, -0.09737387, -0.36252436, -877833.4, 246273.5, 0.000060137387, 10.002092, 9.999129 
2.0351441e+3, 1.9529133e+2, -888807.0, -1068472.4, -34852.36, -0.11681535, -0.31710368, -882283.06, 143828.44, 0.0, 10.001425, 9.999039 
2.0351283e+3, 2.0529065e+2, -846431.7, -951601.2, -76704.375, -0.06162486, -0.3035451, -806017.94, 122100.86, 0.0, 10.000845, 9.999449 
2.0351125e+3, 2.152899e+2, -828388.2, -900929.25, -70869.18, 0.05739365, -0.3253135, -785047.2, 45079.504, 0.0, 10.000334, 9.999371 
2.0350955e+3, 2.2528915e+2, -752036.75, -785205.25, -51141.79, 0.02986032, -0.34423655, -714857.44, 17276.277, 0.0, 10.000063, 9.999622 
2.0350775e+3, 2.3528853e+2, -670525.8, -704646.56, -46920.895, -0.12618758, -0.3699356, -637660.0, -3521.5576, 0.0, 9.99999, 9.999537 
2.0350616e+3, 2.4528816e+2, -606488.5, -596049.1, -23423.682, -0.10577252, -0.36695132, -577270.6, -41129.367, 0.0, 9.999643, 9.999776 
2.0350474e+3, 2.5528818e+2, -601540.44, -553393.44, -25736.914, 0.066562496, -0.3430498, -542226.0, -104085.54, 0.0, 9.999049, 9.999682 
2.035032e+3, 2.652878e+2, -565001.4, -514971.6, -15106.876, 0.10064812, -0.3340382, -510763.84, -170619.03, 0.0, 9.998758, 9.999412 
2.0350158e+3, 2.7528697e+2, -480940.6, -437038.88, -14763.67, 0.022978133, -0.35445273, -432535.88, -190382.75, 0.0, 9.998719, 9.999293 
2.0349999e+3, 2.852861e+2, -395065.88, -323430.06, -36844.04, 0.011400216, -0.37516803, -307863.1, -163701.16, 0.0, 9.998547, 9.999483 
2.0349841e+3, 2.9528564e+2, -331003.3, -232189.81, -45054.22, 0.02520417, -0.37305948, -214731.7, -168565.84, 0.0, 9.99827, 9.99957 
2.0349678e+3, 3.0528602e+2, -256778.92, -93945.02, -70600.17, 0.051780526, -0.33046645, -67597.86, -67597.86, 0.0, 9.998099, 10.000275 
2.03495e+3, 3.1528604e+2, -263680.72, -87046.99, 24494.479, 0.012700068, -0.34226155, -83713.17, -83713.17, 0.0, 9.998024, 10.000348 
2.0452587e+3, 1.2531696e+2, -1389545.1, -1688760.6, -8111.3413, -0.10753066, -0.35245895, -1389325.4, 322530.44, 0.30776966, 10.004031, 9.998303 
2.0452434e+3, 1.3531373e+2, -1312765.0, -1685323.4, 9476.147, -0.030165678, -0.45260963, -1312524.1, 301362.13, 0.2226283, 10.003785, 9.997705 
2.0452268e+3, 1.453119e+2, -1173585.1, -1486568.4, 5354.7896, -0.069780156, -0.4470843, -1173493.5, 342410.53, 0.13488474, 10.0034075, 9.998607 
2.0452109e+3, 1.5531099e+2, -1125906.1, -1438754.8, -9303.941, -0.01785336, -0.39951777, -1125629.8, 292283.75, 0.063104466, 10.002893, 9.99848 
2.0451948e+3, 1.6530971e+2, -1060101.0, -1345799.1, 9513.417, -0.01794033, -0.375961, -1059784.5, 260142.58, 0.02002416, 10.0025015, 9.998632 
2.0451784e+3, 1.7530823e+2, -1001944.25, -1277866.0, 14907.649, -0.08575476, -0.3888413, -1001141.1, 220802.36, 0.0031421313, 10.002232, 9.998556 
2.0451619e+3, 1.8530725e+2, -935532.7, -1128510.5, -7774.1553, -0.111195594, -0.36739415, -935220.0, 188734.4, 0.00006977841, 10.001721, 9.999155 
2.0451456e+3, 1.9530688e+2, -949036.2, -1093717.5, -8359.915, -0.092034616, -0.31981483, -948554.75, 77403.9, 0.0, 10.000998, 9.99907 
2.0451292e+3, 2.0530614e+2, -873866.25, -971728.56, -39162.934, -0.04407937, -0.31138542, -860123.7, 67842.99, 0.0, 10.0006895, 9.999384 
2.0451128e+3, 2.1530521e+2, -771881.8, -880883.7, -48738.594, 0.027243977, -0.34535903, -753267.75, 76708.66, 0.0, 10.000753, 9.999306 
2.0450956e+3, 2.2530451e+2, -682890.3, -742459.44, -37633.816, 0.0031181995, -0.3588132, -664680.9, 67301.664, 0.0, 10.000501, 9.999704 
2.0450777e+3, 2.353042e+2, -667310.2, -694312.94, -34952.57, -0.1030626, -0.36273932, -643342.0, -9358.163, 0.0, 9.999977, 9.999614 
2.0450614e+3, 2.4530375e+2, -623962.3, -621632.5, -17426.305, -0.08016931, -0.3627758, -605332.2, -69344.945, 0.0, 9.999599, 9.999621 
2.0450464e+3, 2.5530338e+2, -568410.2, -553555.8, -25788.021, 0.053196043, -0.36479405, -534146.75, -96156.02, 0.0, 9.999348, 9.9995365 
2.0450307e+3, 2.6530287e+2, -511804.4, -480039.8, -6416.4243, 0.08121294, -0.36276248, -478792.66, -138796.56, 0.0, 9.999086, 9.999493 
2.0450145e+3, 2.7530232e+2, -464349.97, -420185.63, -3498.5566, 0.030481279, -0.36650825, -419910.22, -177908.22, 0.0, 9.998798, 9.999369 
2.0449986e+3, 2.8530163e+2, -402379.72, -313539.7, -12953.499, 0.023072155, -0.3765988, -311689.5, -167680.7, 0.0, 9.99844, 9.999601 
2.044982e+3, 2.9530117e+2, -358981.94, -225950.2, 1229.1091, 0.012036536, -0.38614723, -225938.84, -179926.22, 0.0, 9.997994, 9.999745 
2.0449653e+3, 3.0530185e+2, -314777.5, -101040.41, -47434.902, 0.028227571, -0.33162212, -90986.086, -90986.086, 0.0, 9.997618, 10.000454 
2.0449477e+3, 3.153018e+2, -325404.78, -87563.76, 17081.889, 0.020008218, -0.3602154, -86343.19, -86343.19, 0.0, 9.997479, 10.000604 
2.0552634e+3, 1.2533331e+2, -1376375.9, -1640839.4, -23438.104, -0.050490353, -0.3045872, -1374314.8, 337383.38, 0.3238632, 10.003993, 9.998814 
2.0552468e+3, 1.3533066e+2, -1293693.5, -1617329.1, 3520.9485, -0.05494233, -0.39897656, -1293655.3, 320065.5, 0.2343467, 10.003767, 9.998181 
2.05523e+3, 1.4532837e+2, -1197229.3, -1531210.3, -11283.065, -0.097106904, -0.44379967, -1196848.5, 318893.66, 0.14227152, 10.003401, 9.998274 
2.0552136e+3, 1.5532696e+2, -1147919.0, -1485608.3, -25110.205, -0.025095334, -0.41015798, -1146062.0, 271695.1, 0.06692606, 10.002893, 9.998159 
2.0551972e+3, 1.6532572e+2, -1049343.3, -1322852.4, 532.6731, -0.024599876, -0.37793824, -1049342.3, 270428.2, 0.021495463, 10.0025015, 9.998791 
2.0551804e+3, 1.7532463e+2, -992545.94, -1257821.8, 5829.976, -0.10249308, -0.36683834, -992417.9, 229363.97, 0.0034661766, 10.002229, 9.998697 
2.0551635e+3, 1.8532357e+2, -934258.75, -1126138.0, -34386.688, -0.10943663, -0.361589, -928282.44, 195510.58, 0.0000827448, 10.00172, 9.999173 
2.055147e+3, 1.9532275e+2, -947532.94, -1092134.3, -32994.51, -0.04843957, -0.36122975, -940360.2, 85441.25, 0.0, 10.001002, 9.99908 
2.0551299e+3, 2.0532179e+2, -890252.5, -1008092.8, -36115.79, -0.051140342, -0.36075237, -880064.5, 47747.246, 0.0, 10.000697, 9.999131 
2.0551121e+3, 2.1532084e+2, -790196.5, -917858.94, -44660.445, -0.11270005, -0.37117797, -776124.06, 53698.332, 0.0, 10.000747, 9.999056 
2.0550953e+3, 2.2532034e+2, -678346.6, -733207.44, -56286.984, -0.06862344, -0.35626385, -643161.94, 88664.92, 0.0, 10.000499, 9.999769 
2.0550793e+3, 2.3532045e+2, -662619.94, -685897.2, -52540.67, 0.07051878, -0.32559797, -620444.25, 13379.763, 0.0, 9.999981, 9.999671 
2.0550625e+3, 2.4531981e+2, -638934.3, -655320.1, -27140.418, 0.06983434, -0.33449447, -618777.2, -82948.03, 0.0, 9.999609, 9.999386 
2.0550446e+3, 2.5531867e+2, -583702.56, -587222.44, -34510.12, -0.05843231, -0.38812405, -550907.56, -113067.63, 0.0, 9.999354, 9.999303 
2.0550284e+3, 2.65318e+2, -502521.25, -462441.4, -18000.295, -0.06631366, -0.39598763, -455544.2, -115697.6, 0.0, 9.999091, 9.999613 
2.0550135e+3, 2.7531797e+2, -450866.56, -395261.7, -14349.828, 0.043187022, -0.36253273, -391776.88, -149929.6, 0.0, 9.998809, 9.9995365 
2.0549974e+3, 2.8531775e+2, -367862.9, -245163.42, -30590.793, 0.055680487, -0.35881814, -237959.63, -94110.805, 0.0, 9.998451, 10.000067 
2.0549795e+3, 2.953173e+2, -335791.47, -182993.36, -15168.853, -0.05666083, -0.41376323, -181502.05, -135650.14, 0.0, 9.998014, 10.000032 
2.0549634e+3, 3.053179e+2, -361779.3, -196652.61, -63151.816, 0.066807926, -0.3407558, -175269.53, -175269.53, 0.0, 9.997611, 9.999801 
2.0549455e+3, 3.1531742e+2, -295259.28, -32035.594, 55520.66, 0.04939738, -0.366837, -20804.094, -20804.094, 0.0, 9.997497, 10.000984 
2.0652671e+3, 1.2534975e+2, -1459713.9, -1680672.6, 19160.627, -0.037788976, -0.3411105, -1458064.6, 253471.69, 0.34183767, 10.003233, 9.998784 
2.0652507e+3, 1.353477e+2, -1302942.6, -1610735.6, 31751.08, -0.042046174, -0.38330764, -1299701.4, 313852.13, 0.24729961, 10.00369, 9.998271 
2.0652336e+3, 1.4534527e+2, -1171747.4, -1529422.1, -355.0271, -0.07583174, -0.43753424, -1171747.1, 343829.47, 0.1503604, 10.003695, 9.998144 
2.0652166e+3, 1.5534383e+2, -1098389.3, -1474456.4, -2659.3936, -0.046228237, -0.39575002, -1098370.5, 319221.94, 0.0710995, 10.003334, 9.998023 
2.0651998e+3, 1.653424e+2, -1005221.06, -1305214.8, 23303.227, -0.04532269, -0.37169272, -1003421.7, 316185.4, 0.023120005, 10.0028305, 9.998756 
2.0651829e+3, 1.7534107e+2, -999181.7, -1264116.8, 15282.223, -0.082648866, -0.38156152, -998303.1, 223317.13, 0.0038376052, 10.002198, 9.998668 
2.0651655e+3, 1.8533994e+2, -920287.44, -1128992.4, -31368.572, -0.0878474, -0.37697345, -915674.6, 207957.2, 0.00010035138, 10.001861, 9.999085 
2.0651482e+3, 1.9533919e+2, -840494.5, -1050966.0, -39662.707, -0.060190402, -0.36093888, -833268.3, 192371.6, 0.0, 10.001781, 9.998988 
2.0651306e+3, 2.0533821e+2, -792874.7, -967503.25, -34617.895, -0.06709597, -0.3550048, -786262.5, 141387.89, 0.0, 10.001393, 9.999075 
2.0651127e+3, 2.1533717e+2, -794704.5, -926023.75, -31575.691, -0.10655954, -0.3685165, -787506.6, 42155.027, 0.0, 10.000745, 9.999 
2.0650959e+3, 2.253365e+2, -700369.75, -762104.8, -42745.082, -0.055892475, -0.35896513, -678512.1, 53155.67, 0.0, 10.000429, 9.999603 
2.0650797e+3, 2.3533638e+2, -612284.25, -679449.7, -57349.355, 0.07767836, -0.33451018, -579408.4, 54259.117, 0.0, 10.000406, 9.99951 
2.0650622e+3, 2.4533565e+2, -573207.25, -619922.25, -34720.563, 0.07262188, -0.3474827, -554718.7, -19045.17, 0.0, 10.000047, 9.999417 
2.0650439e+3, 2.5533453e+2, -576492.7, -579996.9, -23367.037, -0.05793829, -0.40341794, -554812.1, -117128.26, 0.0, 9.999391, 9.999334 
2.0650274e+3, 2.653339e+2, -535325.06, -468895.1, 4953.9614, -0.06530951, -0.41115305, -468527.7, -128838.164, 0.0, 9.998828, 9.999695 
2.0650122e+3, 2.7533394e+2, -513780.44, -416031.72, 4070.9558, 0.04699343, -0.37642026, -415862.47, -174173.77, 0.0, 9.998338, 9.999621 
2.0649953e+3, 2.853337e+2, -436989.66, -276611.66, -31645.264, 0.044847738, -0.38296852, -270593.34, -126902.5, 0.0, 9.997972, 10.000081 
2.0649768e+3, 2.9533306e+2, -391557.56, -217260.42, -52512.62, -0.08607627, -0.45502865, -202662.0, -156965.77, 0.0, 9.997667, 9.999961 
2.0649615e+3, 3.0533424e+2, -358661.2, -189245.25, -70278.31, 0.10961074, -0.32194114, -163887.42, -163887.42, 0.0, 9.997611, 9.999848 
2.0649433e+3, 3.1533206e+2, -266796.47, -20387.854, 75113.24, 0.067724764, -0.5263618, 703.71576, 703.71576, 0.0, 9.997699, 10.000968 
2.07527e+3, 1.2536636e+2, -1485164.3, -1736749.9, 27750.256, -0.08037076, -0.44145626, -1482139.8, 229229.86, 0.36101717, 10.003282, 9.998279 
2.0752549e+3, 1.3536488e+2, -1324680.1, -1653870.1, 46490.81, -0.0067059672, -0.39699778, -1318240.3, 295143.97, 0.26114845, 10.003679, 9.997987 
2.0752378e+3, 1.4536265e+2, -1175993.3, -1526896.9, -11904.595, -0.021681467, -0.42238042, -1175589.9, 339817.16, 0.15904789, 10.003672, 9.998175 
2.0752195e+3, 1.553614e+2, -1099441.9, -1473314.9, -14176.647, -0.08486417, -0.36004788, -1098905.1, 318515.53, 0.075622, 10.003331, 9.9980345 
2.0752022e+3, 1.6535963e+2, -1018571.0, -1333578.1, 630.7333, -0.0820044, -0.36151475, -1018569.7, 300868.84, 0.024911137, 10.002834, 9.998559 
2.0751855e+3, 1.7535749e+2, -1012385.94, -1292106.8, -5988.4155, -0.03218853, -0.4320165, -1012257.8, 209201.23, 0.0042627356, 10.002198, 9.998477 
2.0751677e+3, 1.8535632e+2, -934327.94, -1158352.9, -33257.008, -0.052101415, -0.41205618, -929495.06, 193976.13, 0.00012354909, 10.00186, 9.998885 
2.0751494e+3, 1.9535615e+2, -855276.56, -1080618.1, -40997.926, -0.12896538, -0.31893787, -848049.3, 177425.16, 0.0, 10.001776, 9.998788 
2.0751318e+3, 2.0535532e+2, -784739.44, -950836.44, -57897.41, -0.09380568, -0.29516947, -766549.75, 160933.58, 0.0, 10.001392, 9.99919 
2.075115e+3, 2.1535408e+2, -788456.5, -912596.8, -53019.33, 0.036465243, -0.339026, -768894.9, 60600.43, 0.0, 10.000741, 9.999094 
2.0750971e+3, 2.2535288e+2, -727153.0, -819012.5, -42695.13, 0.034186654, -0.36663452, -710373.75, 21132.578, 0.0, 10.000433, 9.999211 
2.0750783e+3, 2.353519e+2, -638783.8, -734889.44, -56822.766, -0.08215864, -0.3883489, -612419.56, 21095.479, 0.0, 10.000405, 9.99913 
2.0750608e+3, 2.4535114e+2, -552766.94, -578735.75, -59271.86, -0.07120749, -0.40050232, -505073.94, 30447.354, 0.0, 10.00005, 9.999699 
2.0750444e+3, 2.5535077e+2, -555789.9, -539475.25, -47426.277, 0.047730826, -0.41104525, -499509.9, -61986.152, 0.0, 9.999398, 9.99961 
2.0750275e+3, 2.653504e+2, -532384.3, -464943.63, -14492.706, 0.079698935, -0.40722016, -461961.13, -122435.086, 0.0, 9.998836, 9.999719 
2.0750102e+3, 2.7535015e+2, -512418.16, -416717.9, -13489.573, 0.04005386, -0.40458313, -414852.8, -173325.44, 0.0, 9.99835, 9.999611 
2.0749927e+3, 2.8534922e+2, -467373.47, -343553.9, -45518.324, -0.014846132, -0.45265973, -328621.4, -185084.56, 0.0, 9.997985, 9.999616 
2.0749743e+3, 2.9534814e+2, -420255.75, -281787.56, -66582.914, -0.09634018, -0.5236333, -254966.23, -209417.39, 0.0, 9.997686, 9.999511 
2.0749594e+3, 3.0535087e+2, -303012.7, -75470.38, -66066.95, 0.16674604, -0.252969, -57678.938, -57678.938, 0.0, 9.997621, 10.000625 
2.0749405e+3, 3.1534836e+2, -285769.63, -62161.926, -19207.463, 0.004550137, -0.5659819, -60524.04, -60524.04, 0.0, 9.997708, 10.000678 
2.0852745e+3, 1.2538385e+2, -1267860.4, -1646704.5, 21987.154, -0.08628484, -0.48352847, -1266588.5, 444607.63, 0.38052785, 10.005963, 9.997864 
2.0852584e+3, 1.3538277e+2, -1307644.8, -1659715.3, 41884.69, -0.023682585, -0.37887388, -1302730.5, 310478.66, 0.27543947, 10.0039835, 9.997798 
2.0852412e+3, 1.4538057e+2, -1243388.8, -1566797.6, 9265.451, -0.022563554, -0.39123183, -1243123.5, 272108.72, 0.1681741, 10.003158, 9.998148 
2.0852226e+3, 1.5537898e+2, -1099510.8, -1475724.3, 5100.854, -0.10019237, -0.36245477, -1099441.6, 317806.97, 0.08046866, 10.003357, 9.998004 
2.0852049e+3, 1.6537707e+2, -991294.94, -1338142.8, 2305.3208, -0.09673115, -0.36681008, -991279.6, 327988.06, 0.026876008, 10.003112, 9.998393 
2.0851877e+3, 1.7537504e+2, -980984.9, -1295844.5, -4356.2974, -0.03078354, -0.40954795, -980924.6, 240362.9, 0.0047472673, 10.002497, 9.998309 
2.0851699e+3, 1.8537365e+2, -910866.94, -1155528.6, -9553.84, -0.043701477, -0.3996996, -910494.44, 212807.08, 0.00015303373, 10.002056, 9.99881 
2.0851511e+3, 1.9537295e+2, -860662.9, -1090813.6, -10239.609, -0.12230766, -0.35040566, -860208.2, 165100.56, 0.0, 10.001774, 9.998717 
2.0851333e+3, 2.0537199e+2, -780591.6, -960551.2, -40796.176, -0.08335597, -0.33063176, -771775.2, 155543.33, 0.0, 10.001476, 9.999082 
2.0851162e+3, 2.1537095e+2, -733715.4, -897942.4, -52992.24, 0.05740842, -0.3437273, -718100.6, 111228.11, 0.0, 10.00117, 9.998987 
2.0850979e+3, 2.2536974e+2, -679516.1, -799247.75, -26311.47, 0.04503662, -0.36715877, -673989.2, 57350.938, 0.0, 10.000775, 9.999181 
2.0850787e+3, 2.3536852e+2, -654416.25, -745924.44, -16358.266, -0.099084236, -0.40849572, -651579.94, -18228.95, 0.0, 10.000316, 9.999096 
2.0850605e+3, 2.4536769e+2, -581182.0, -604109.7, -29342.563, -0.09085612, -0.41912603, -561143.4, -25785.115, 0.0, 9.999907, 9.999594 
2.085044e+3, 2.5536743e+2, -542276.94, -543074.25, -46871.027, 0.051717833, -0.4073209, -495802.88, -58442.45, 0.0, 9.9995365, 9.999518 
2.0850267e+3, 2.6536718e+2, -493586.8, -431999.34, -23246.717, 0.09179786, -0.39278242, -424209.84, -84848.29, 0.0, 9.9990425, 9.999845 
2.0850088e+3, 2.7536705e+2, -492914.06, -393792.13, -14960.445, 0.045430765, -0.39203617, -391583.38, -150222.05, 0.0, 9.998429, 9.999729 
2.0849907e+3, 2.8536603e+2, -471255.6, -334876.3, -13083.714, -0.01605801, -0.46024427, -333632.47, -190261.28, 0.0, 9.997912, 9.999711 
2.084972e+3, 2.9536474e+2, -450916.34, -287122.63, 6095.706, -0.09514331, -0.5588691, -286896.06, -241511.58, 0.0, 9.997433, 9.999598 
2.0849566e+3, 3.053675e+2, -387220.2, -130998.6, 8120.9023, 0.14028242, -0.28345218, -130741.47, -130741.47, 0.0, 9.997106, 10.000493 
2.0849377e+3, 3.1536648e+2, -362221.84, -45095.117, -56140.42, 0.016332101, -0.43450287, -35450.016, -35450.016, 0.0, 9.996952, 10.00116 
2.0952806e+3, 1.2540215e+2, -1306677.3, -1683205.8, -21151.326, -0.07660216, -0.47339687, -1305492.9, 405523.97, 0.39953458, 10.005834, 9.997532 
2.0952617e+3, 1.3540131e+2, -1321049.6, -1678661.1, -10839.884, -0.09408465, -0.33133164, -1320721.4, 292307.6, 0.28975058, 10.003977, 9.997661 
2.095244e+3, 1.4539896e+2, -1246389.0, -1573692.4, 15105.209, -0.078552365, -0.34715036, -1245693.4, 269359.9, 0.17759731, 10.003184, 9.998089 
2.095226e+3, 1.5539652e+2, -1103619.8, -1482690.5, 12446.693, -0.09992035, -0.39972928, -1103211.5, 313865.06, 0.08562376, 10.003363, 9.997955 
2.095208e+3, 1.653947e+2, -1003455.75, -1362412.3, -19567.438, -0.096833244, -0.38456866, -1002392.25, 316702.5, 0.029027106, 10.003109, 9.99823 
2.09519e+3, 1.753936e+2, -991810.8, -1319611.4, -25183.977, -0.07869846, -0.3178114, -989887.3, 231219.33, 0.0052997805, 10.002501, 9.998145 
2.0951717e+3, 1.8539178e+2, -906929.1, -1149685.5, -19230.732, -0.06279161, -0.34263217, -905415.1, 217708.53, 0.0001898094, 10.002064, 9.998848 
2.0951538e+3, 1.9538955e+2, -859139.94, -1087954.1, -19189.1, -0.048011556, -0.45168886, -857541.8, 167601.52, 0.0, 10.001773, 9.998738 
2.0951353e+3, 2.0538819e+2, -802305.0, -1006456.25, -51704.74, -0.041668035, -0.4565635, -789956.8, 137199.81, 0.0, 10.001478, 9.998767 
2.0951165e+3, 2.1538773e+2, -754743.5, -941305.1, -61984.973, -0.043134987, -0.38056776, -736026.8, 93135.96, 0.0, 10.001167, 9.998692 
2.0950979e+3, 2.2538696e+2, -658844.2, -756383.44, -42525.023, -0.021770138, -0.36040238, -642907.9, 88262.09, 0.0, 10.000774, 9.999476 
2.09508e+3, 2.3538609e+2, -636717.75, -708573.7, -31956.26, 0.018914811, -0.39586687, -624562.25, 8614.381, 0.0, 10.000312, 9.999355 
2.0950615e+3, 2.4538518e+2, -614216.56, -673909.75, -43841.754, 0.006826034, -0.4025297, -591026.2, -55840.504, 0.0, 9.99991, 9.999113 
2.0950425e+3, 2.5538442e+2, -572702.9, -609175.0, -60658.13, -0.051296223, -0.3909493, -527598.9, -90403.81, 0.0, 9.999547, 9.99906 
2.0950244e+3, 2.6538417e+2, -475953.72, -398838.38, -47681.742, -0.03238897, -0.3696693, -376075.22, -36877.69, 0.0, 9.999055, 10.000067 
2.0950073e+3, 2.7538446e+2, -473625.53, -358320.13, -37685.887, 0.055851504, -0.3460279, -347095.72, -105903.22, 0.0, 9.998446, 9.999965 
2.094989e+3, 2.85384e+2, -424788.88, -240163.9, -33316.836, 0.040380374, -0.40204412, -234335.64, -91140.82, 0.0, 9.99792, 10.000359 
2.0949697e+3, 2.9538304e+2, -405545.22, -193146.88, -12342.529, -0.081040256, -0.53915864, -192432.06, -147229.9, 0.0, 9.997434, 10.000244 
2.0949525e+3, 3.0538362e+2, -458520.66, -282642.38, 754.8285, 0.010993503, -0.45298037, -282639.16, -282639.16, 0.0, 9.997117, 9.999448 
2.094936e+3, 3.153842e+2, -253568.5, 170486.34, -52374.184, 0.14149445, -0.34498677, 176859.2, 176859.2, 0.0, 9.996996, 10.002619 
2.1052852e+3, 1.2542105e+2, -1547845.0, -1860836.6, -1462.9591, -0.069449194, -0.4452962, -1547838.3, 162993.61, 0.41745248, 10.003163, 9.997472 
2.1052659e+3, 1.354197e+2, -1275063.6, -1647995.9, 10102.045, -0.09016458, -0.3522789, -1274790.1, 338058.22, 0.303801, 10.004506, 9.997618 
2.1052478e+3, 1.4541729e+2, -1091667.5, -1504683.9, 33193.22, -0.06488805, -0.36149898, -1089016.8, 425856.44, 0.18724121, 10.004618, 9.997886 
2.1052298e+3, 1.5541469e+2, -1064839.4, -1482181.1, 20466.18, -0.08215776, -0.40931734, -1063838.1, 353060.1, 0.09109824, 10.003761, 9.9977665 
2.1052112e+3, 1.6541278e+2, -996735.6, -1364367.4, -14593.588, -0.08534265, -0.3914931, -996157.25, 322759.9, 0.031387735, 10.003186, 9.998179 
2.1051924e+3, 1.7541164e+2, -944474.7, -1302407.5, -12879.906, -0.08223424, -0.32303303, -944011.8, 276917.28, 0.0059327246, 10.002856, 9.998091 
2.105174e+3, 1.8540974e+2, -853646.1, -1144154.6, -4487.303, -0.058704015, -0.34480602, -853576.9, 269370.2, 0.00023581006, 10.002521, 9.998664 
2.105156e+3, 1.9540736e+2, -810841.7, -1084834.3, -21956.625, -0.016881779, -0.45044398, -809093.3, 215875.08, 0.0, 10.0021925, 9.998558 
2.105137e+3, 2.0540579e+2, -756508.7, -989521.3, -52071.047, -0.027317245, -0.46444738, -745401.9, 181581.55, 0.0, 10.001816, 9.998719 
2.1051171e+3, 2.1540508e+2, -723679.94, -931421.0, -45784.625, -0.08204015, -0.4084262, -714036.94, 114954.37, 0.0, 10.001404, 9.998644 
2.1050984e+3, 2.254043e+2, -648395.56, -757504.0, -37062.316, -0.056923375, -0.3826415, -636996.94, 94001.76, 0.0, 10.0008745, 9.999419 
2.1050806e+3, 2.3540367e+2, -651525.0, -721086.94, -52319.6, 0.038646467, -0.3900216, -623480.4, 9523.643, 0.0, 10.000236, 9.999305 
2.1050616e+3, 2.4540284e+2, -641555.4, -678495.1, -46537.547, 0.03112519, -0.38988456, -609956.5, -74944.13, 0.0, 9.999688, 9.999187 
2.1050417e+3, 2.5540203e+2, -616990.6, -623534.7, -23573.076, -0.06499549, -0.39054906, -596463.56, -159441.89, 0.0, 9.999216, 9.99912 
2.105023e+3, 2.6540157e+2, -529364.06, -436305.72, -8549.627, -0.059163295, -0.38584393, -435526.75, -96500.51, 0.0, 9.998738, 9.999963 
2.1050057e+3, 2.7540162e+2, -508716.25, -385513.5, -24010.203, 0.039199732, -0.37998104, -380999.7, -139974.94, 0.0, 9.998248, 9.999876 
2.104987e+3, 2.8540164e+2, -429205.66, -223183.53, -44205.91, 0.04624993, -0.39057484, -214098.92, -71076.94, 0.0, 9.9978075, 10.000529 
2.1049675e+3, 2.9540172e+2, -398838.66, -173969.61, -61262.266, -0.032963444, -0.4368937, -158362.78, -113344.92, 0.0, 9.997412, 10.000386 
2.1049495e+3, 3.0540025e+2, -488422.22, -296632.88, -25572.422, 0.013515198, -0.56869227, -293281.72, -293281.72, 0.0, 9.996913, 9.999449 
2.1049324e+3, 3.154014e+2, -344140.28, 136599.44, 24056.773, 0.111118354, -0.39891434, 137800.27, 137800.27, 0.0, 9.99634, 10.002699 
2.1152881e+3, 1.2544037e+2, -1546295.6, -1838881.8, 39200.156, -0.079942584, -0.41374564, -1541134.6, 169508.19, 0.43402916, 10.003172, 9.997635 
2.115271e+3, 1.3543798e+2, -1281261.3, -1643759.1, 43812.65, -0.029103976, -0.4361463, -1276041.1, 336626.4, 0.31747463, 10.004487, 9.997669 
2.1152532e+3, 1.4543556e+2, -1120818.8, -1559617.4, 6404.689, 0.003760916, -0.4268993, -1120725.3, 393966.9, 0.19708933, 10.004592, 9.997508 
2.1152338e+3, 1.5543343e+2, -1088322.8, -1532214.0, -7280.3296, -0.053528454, -0.39162746, -1088203.4, 328510.66, 0.09692158, 10.003763, 9.997423 
2.1152146e+3, 1.6543125e+2, -992476.1, -1356231.3, -25897.115, -0.06761749, -0.38819927, -990641.6, 328093.97, 0.03398917, 10.003197, 9.998232 
2.1151955e+3, 1.7542917e+2, -940701.1, -1296147.3, -23857.594, -0.048979867, -0.41839704, -939106.94, 281648.25, 0.006662534, 10.002863, 9.998131 
2.1151768e+3, 1.8542747e+2, -880390.75, -1201359.9, -16071.016, -0.0366732, -0.40208858, -879588.06, 243183.94, 0.00029476336, 10.002525, 9.998271 
2.115158e+3, 1.9542624e+2, -836975.94, -1138945.3, -31800.414, -0.030193452, -0.35230497, -833663.4, 191121.61, 0.00000000000010610821, 10.00219, 9.998189 
2.1151386e+3, 2.0542465e+2, -743453.1, -962428.6, -66013.65, -0.04072642, -0.36076632, -725091.8, 201708.25, 0.0, 10.001813, 9.998908 
2.115119e+3, 2.1542291e+2, -713928.3, -909232.4, -58996.566, -0.06650946, -0.42648238, -697490.44, 131324.95, 0.0, 10.001393, 9.998802 
2.1150991e+3, 2.2542173e+2, -676306.6, -815133.8, -59918.766, -0.065764084, -0.43087077, -654022.3, 76804.805, 0.0, 10.000872, 9.999026 
2.1150798e+3, 2.3542115e+2, -675026.44, -771446.5, -74198.85, -0.0423726, -0.3905874, -634751.0, -1916.9683, 0.0, 10.00024, 9.998958 
2.1150608e+3, 2.4542056e+2, -597466.6, -588838.06, -64613.402, -0.018618666, -0.38326052, -528395.06, 6444.376, 0.0, 9.999695, 9.999801 
2.1150415e+3, 2.5542012e+2, -577202.9, -543425.8, -41314.746, 0.0057758368, -0.4092518, -515681.03, -78839.25, 0.0, 9.999226, 9.999665 
2.1150224e+3, 2.654193e+2, -558567.56, -498778.47, -28240.398, 0.008478169, -0.43934062, -487548.78, -148699.98, 0.0, 9.998746, 9.999531 
2.1150032e+3, 2.754184e+2, -535151.3, -443089.8, -42548.09, -0.013330443, -0.48510617, -426437.47, -185579.11, 0.0, 9.998259, 9.999476 
2.1149844e+3, 2.8541875e+2, -448811.16, -267514.94, -60642.227, -0.0058217323, -0.4291444, -249100.86, -106246.82, 0.0, 9.99782, 10.00022 
2.1149658e+3, 2.9542053e+2, -421352.13, -227382.19, -75758.086, 0.046513923, -0.2764632, -201300.63, -156465.64, 0.0, 9.997437, 10.000008 
2.1149477e+3, 3.0541754e+2, -419322.3, -152771.16, -54397.53, 0.15004489, -0.5873237, -142097.19, -142097.19, 0.0, 9.996913, 10.000437 
2.1149272e+3, 3.1541893e+2, -450165.72, -86954.3, 61075.13, -0.030824844, -0.49786246, -76959.37, -76959.37, 0.0, 9.996349, 10.001162 
2.1252917e+3, 1.2545979e+2, -1386342.6, -1688526.9, 51857.824, -0.12592894, -0.3993406, -1377691.0, 332762.16, 0.44937712, 10.005107, 9.997841 
2.1252756e+3, 1.3545726e+2, -1293578.5, -1642925.8, 58300.164, -0.007446109, -0.44240105, -1284106.0, 328371.75, 0.33082938, 10.004397, 9.997732 
2.1252578e+3, 1.4545475e+2, -1206934.0, -1627866.9, 12405.697, 0.030823328, -0.4359347, -1206568.6, 307934.22, 0.20718454, 10.003973, 9.997336 
2.1252376e+3, 1.5545245e+2, -1084660.4, -1547192.9, 10706.643, -0.04936896, -0.4012625, -1084412.6, 332113.94, 0.10313728, 10.003889, 9.997258 
2.125218e+3, 1.6545002e+2, -937117.7, -1346175.0, -2364.862, -0.06756245, -0.40386283, -937104.06, 381446.4, 0.03686731, 10.003681, 9.998064 
2.1251987e+3, 1.7544767e+2, -874367.8, -1282102.4, -18106.594, -0.03803298, -0.44447675, -873565.3, 347007.44, 0.0075095785, 10.003405, 9.997966 
2.1251795e+3, 1.8544598e+2, -831311.1, -1182631.6, -12219.213, -0.032420743, -0.41770056, -830886.6, 291703.16, 0.0003731331, 10.002887, 9.998224 
2.1251601e+3, 1.9544497e+2, -843509.8, -1147261.1, -5181.963, -0.047243953, -0.34072313, -843421.44, 181179.4, 0.0000000000129771185, 10.00217, 9.99814 
2.1251404e+3, 2.0544334e+2, -764267.2, -975013.0, -28970.871, -0.049361937, -0.34912577, -760357.2, 166259.13, 0.0, 10.001684, 9.998882 
2.1251203e+3, 2.1544138e+2, -716225.3, -913358.06, -39004.242, -0.040767275, -0.43596897, -708788.6, 119845.08, 0.0, 10.001394, 9.998773 
2.1251003e+3, 2.2544008e+2, -680937.3, -825031.6, -44001.438, -0.046606157, -0.4445918, -668563.44, 62083.055, 0.0, 10.000876, 9.998955 
2.1250798e+3, 2.3543951e+2, -690000.56, -785906.2, -36015.945, -0.0646386, -0.39623612, -677981.5, -45327.715, 0.0, 10.000171, 9.998891 
2.1250601e+3, 2.4543893e+2, -594695.75, -572377.6, -24423.262, -0.04075074, -0.39171243, -556684.9, -22025.98, 0.0, 9.999649, 9.999935 
2.125041e+3, 2.5543854e+2, -561475.94, -521344.97, -36989.33, 0.023850294, -0.42678767, -499329.2, -62669.227, 0.0, 9.999271, 9.999795 
2.1250215e+3, 2.654378e+2, -546020.1, -495666.0, -23549.412, 0.034000248, -0.45493004, -486369.0, -147703.08, 0.0, 9.998846, 9.999502 
2.1250014e+3, 2.7543688e+2, -524278.25, -441002.47, -10207.454, -0.01488524, -0.49742243, -439769.56, -199094.06, 0.0, 9.998351, 9.999443 
2.1249817e+3, 2.8543696e+2, -481338.63, -298584.16, -10485.105, -0.026848787, -0.46129575, -297984.56, -155309.92, 0.0, 9.997666, 10.000079 
2.1249627e+3, 2.9543844e+2, -512640.0, -289278.38, -10438.259, 0.035531778, -0.320406, -288791.66, -244132.28, 0.0, 9.996891, 9.999844 
2.1249448e+3, 3.0543646e+2, -443857.5, -154819.81, -6554.9355, 0.17651126, -0.5241322, -154671.23, -154671.23, 0.0, 9.996701, 10.0005245 
2.1249238e+3, 3.1543797e+2, -481682.63, -118122.65, 24411.28, 0.0032465837, -0.43527386, -116490.87, -116490.87, 0.0, 9.996197, 10.001022 
2.1352962e+3, 1.2547927e+2, -1402622.4, -1681599.0, 35611.87, -0.21455263, -0.400313, -1398148.1, 312114.53, 0.46409237, 10.004919, 9.998026 
2.1352798e+3, 1.3547748e+2, -1300977.9, -1638472.6, 37192.938, -0.027812699, -0.37607625, -1296927.6, 315352.13, 0.3442051, 10.00437, 9.997761 
2.1352614e+3, 1.4547475e+2, -1207884.9, -1624093.3, 7773.7363, 0.013521585, -0.39349863, -1207739.8, 306566.56, 0.2177, 10.003989, 9.997356 
2.1352412e+3, 1.5547167e+2, -1084791.6, -1544687.0, 6938.7227, -0.072221056, -0.43710676, -1084686.9, 331649.4, 0.109834485, 10.0039, 9.997272 
2.1352214e+3, 1.6546908e+2, -964386.94, -1403761.0, -12052.284, -0.08828872, -0.43670112, -964056.56, 354305.5, 0.040071916, 10.003684, 9.997669 
2.1352021e+3, 1.7546707e+2, -900184.94, -1335579.9, -27076.023, -0.05117578, -0.40567547, -898507.6, 321875.16, 0.008500088, 10.003403, 9.997601 
2.1351822e+3, 1.8546519e+2, -813613.06, -1145895.1, -37871.816, -0.04759483, -0.3945803, -809351.3, 313049.88, 0.00048067368, 10.002885, 9.998478 
2.1351619e+3, 1.9546351e+2, -827691.3, -1114097.0, -29235.72, -0.0715688, -0.4092172, -824737.44, 199679.03, 0.000000000014668022, 10.002166, 9.99837 
2.1351418e+3, 2.0546183e+2, -779937.06, -1007968.6, -38805.16, -0.056434255, -0.4223946, -773514.3, 152918.25, 0.0, 10.001683, 9.998657 
2.1351221e+3, 2.1546033e+2, -730427.9, -943399.1, -48092.68, -0.008638092, -0.43856835, -720071.3, 108376.06, 0.0, 10.001394, 9.998568 
2.1351016e+3, 2.2545923e+2, -665228.7, -792979.8, -69490.19, -0.0029241345, -0.42835376, -634716.9, 95741.38, 0.0, 10.000876, 9.999175 
2.1350802e+3, 2.3545863e+2, -677013.44, -758991.7, -60408.875, -0.033700116, -0.40672302, -645000.2, -12535.662, 0.0, 10.00017, 9.999077 
2.1350598e+3, 2.4545786e+2, -617159.2, -620686.1, -38990.426, -0.038694497, -0.41203815, -579892.4, -45420.707, 0.0, 9.999655, 9.999601 
2.1350399e+3, 2.554572e+2, -580190.3, -563408.0, -50760.742, -0.01696493, -0.44052812, -520349.5, -83872.43, 0.0, 9.999284, 9.999501 
2.13502e+3, 2.6545686e+2, -518323.25, -440727.53, -43784.03, 0.012915126, -0.43437907, -421024.8, -82545.84, 0.0, 9.998856, 9.999875 
2.1350002e+3, 2.7545685e+2, -498722.3, -391847.44, -31580.744, 0.031933647, -0.42391768, -383213.1, -142735.06, 0.0, 9.998366, 9.999774 
2.1349795e+3, 2.854561e+2, -481467.4, -300419.6, -43026.06, -0.01785453, -0.48643935, -290714.66, -148229.6, 0.0, 9.997672, 10.000063 
2.1349585e+3, 2.9545546e+2, -508182.03, -281599.25, -33312.566, -0.07626624, -0.5570662, -276803.1, -232311.8, 0.0, 9.996897, 9.999895 
2.1349405e+3, 3.0545676e+2, -489819.66, -253412.64, -7005.5786, 0.08308638, -0.4034319, -253205.23, -253205.23, 0.0, 9.996711, 9.999845 
2.1349207e+3, 3.154559e+2, -384106.7, 85391.42, -70096.27, 0.06517036, -0.47360474, 95633.4, 95633.4, 0.0, 9.996199, 10.002416 
2.1452996e+3, 1.2549749e+2, -1647275.8, -1828152.9, 34056.59, -0.18973662, -0.42944467, -1641075.9, 69007.8, 0.4793029, 10.001629, 9.998451 
2.145284e+3, 1.3549635e+2, -1319181.4, -1608168.0, 25117.275, -0.040311836, -0.37678486, -1317014.5, 295080.13, 0.35831803, 10.004074, 9.998111 
2.1452656e+3, 1.4549388e+2, -1111438.6, -1527288.5, -17983.121, -0.019893993, -0.40055647, -1110662.5, 403456.13, 0.22899958, 10.004746, 9.997654 
2.1452457e+3, 1.554912e+2, -1011418.7, -1471370.0, -8260.086, -0.065551184, -0.4341407, -1011270.4, 404873.9, 0.11716673, 10.004359, 9.997551 
2.1452254e+3, 1.6548875e+2, -937443.2, -1390788.8, -12672.977, -0.071019575, -0.43181294, -937089.2, 381079.28, 0.043669816, 10.003897, 9.997653 
2.1452056e+3, 1.7548665e+2, -910063.1, -1342786.4, -3697.416, -0.051827513, -0.4081964, -910031.5, 310158.66, 0.009666739, 10.003351, 9.997574 
2.145185e+3, 1.854846e+2, -807862.1, -1133007.1, -13745.813, -0.049137518, -0.41459745, -807282.06, 314927.63, 0.000630019, 10.002885, 9.998565 
2.1451643e+3, 1.9548278e+2, -777023.0, -1081279.1, -18321.58, -0.058092996, -0.4527033, -775923.7, 248301.98, 0.000000045114895, 10.002481, 9.998443 
2.1451437e+3, 2.0548114e+2, -743464.56, -1003949.8, -23814.537, -0.046333227, -0.4573683, -741305.25, 184936.2, 0.0, 10.001995, 9.998534 
2.1451235e+3, 2.1547984e+2, -732425.8, -957640.6, -28359.588, -0.017331006, -0.44027826, -728909.56, 99345.805, 0.0, 10.001438, 9.998447 
2.1451023e+3, 2.2547877e+2, -646748.8, -774396.2, -55780.816, -0.008351169, -0.4269304, -625808.3, 104457.76, 0.0, 10.000962, 9.999262 
2.1450809e+3, 2.3547806e+2, -616123.3, -720590.2, -56765.13, -0.015439659, -0.42581904, -591216.56, 41056.035, 0.0, 10.00055, 9.999157 
2.1450599e+3, 2.4547724e+2, -590460.56, -622649.2, -31018.563, -0.02440301, -0.4304286, -571609.5, -37329.434, 0.0, 9.999905, 9.999466 
2.1450388e+3, 2.554766e+2, -619827.56, -595348.0, -28806.05, -0.0324356, -0.44324434, -576289.2, -140002.89, 0.0, 9.999069, 9.999384 
2.1450186e+3, 2.6547632e+2, -582272.2, -461221.94, -23058.898, -0.00999359, -0.43197143, -456978.22, -118690.125, 0.0, 9.998373, 9.999967 
2.1449983e+3, 2.7547643e+2, -578055.7, -421285.78, -33352.93, 0.03345529, -0.41776615, -414484.97, -174199.36, 0.0, 9.997783, 9.999854 
2.1449773e+3, 2.854757e+2, -527315.8, -311922.88, -48036.24, -0.0012536059, -0.48480874, -301695.6, -159403.44, 0.0, 9.997312, 10.000158 
2.1449554e+3, 2.9547483e+2, -490637.63, -255593.58, -26990.188, -0.08345689, -0.5899342, -252534.11, -208233.19, 0.0, 9.996942, 10.0000515 
2.1449368e+3, 3.0547675e+2, -528034.94, -263156.22, 35984.438, 0.055110727, -0.38950095, -258354.69, -258354.69, 0.0, 9.996409, 9.999923 
2.1449172e+3, 3.1547496e+2, -426942.06, 110604.15, 6412.407, 0.12999302, -0.557655, 110680.63, 110680.63, 0.0, 9.995722, 10.0028105 
2.1553023e+3, 1.2551475e+2, -1591663.3, -1729725.0, 82249.69, -0.07080171, -0.4742278, -1553315.0, 156598.3, 0.49653685, 10.002164, 9.99905 
2.1552879e+3, 1.3551408e+2, -1288004.0, -1547202.1, 76826.305, -0.056604013, -0.43753037, -1266943.9, 344976.7, 0.37415105, 10.004193, 9.998726 
2.1552698e+3, 1.4551228e+2, -1094194.5, -1468557.5, -26096.809, -0.077220015, -0.4499235, -1092384.0, 421554.34, 0.24155833, 10.004709, 9.998173 
2.1552503e+3, 1.5551102e+2, -985380.1, -1402216.9, -17071.896, -0.034827814, -0.39432994, -984682.1, 431268.28, 0.12531856, 10.004355, 9.998042 
2.1552297e+3, 1.6550897e+2, -918179.94, -1346163.8, -30558.62, -0.022189118, -0.39209646, -916009.0, 401961.22, 0.04774117, 10.003899, 9.99796 
2.155209e+3, 1.7550635e+2, -890935.0, -1302527.8, -21393.076, -0.0446121, -0.4487467, -889826.06, 330169.53, 0.011051238, 10.003353, 9.99785 
2.155188e+3, 1.855042e+2, -813055.8, -1144810.3, -27198.758, -0.04100564, -0.4739151, -810840.7, 311175.13, 0.0008379428, 10.002887, 9.998485 
2.1551672e+3, 1.9550267e+2, -781955.06, -1093183.9, -31154.143, -0.012611374, -0.4747832, -778867.2, 245162.33, 0.00000065828607, 10.002485, 9.99836 
2.155146e+3, 2.0550118e+2, -746307.2, -1010836.0, -43626.36, -0.023561988, -0.4586086, -739298.0, 186746.28, 0.0, 10.001998, 9.9984865 
2.1551242e+3, 2.1549986e+2, -736653.9, -965446.0, -46662.152, -0.06889392, -0.43887693, -727503.1, 100555.36, 0.0, 10.001432, 9.998398 
2.1551028e+3, 2.2549865e+2, -650833.56, -781925.44, -69826.47, -0.062756225, -0.4363877, -620608.9, 109461.7, 0.0, 10.000957, 9.999214 
2.1550815e+3, 2.354977e+2, -618475.94, -726281.2, -71605.77, -0.013440081, -0.45334074, -582752.25, 49326.742, 0.0, 10.000551, 9.999118 
2.1550599e+3, 2.4549697e+2, -585931.7, -614306.3, -63460.5, -0.0014276969, -0.44958225, -535091.94, -1006.4434, 0.0, 9.9999075, 9.999522 
2.1550381e+3, 2.5549665e+2, -615307.4, -587766.25, -59919.27, -0.02645509, -0.43715546, -540055.5, -103966.47, 0.0, 9.999075, 9.9994335 
2.1550167e+3, 2.654961e+2, -593345.25, -486970.44, -46323.72, -0.0372898, -0.4479529, -469625.66, -131531.3, 0.0, 9.9983835, 9.999786 
2.1549957e+3, 2.754956e+2, -587208.5, -443279.34, -55746.62, -0.019708684, -0.47787422, -424213.22, -184114.17, 0.0, 9.997794, 9.999699 
2.1549746e+3, 2.8549576e+2, -512342.53, -281364.8, -63599.492, 0.019220171, -0.45627767, -265010.7, -122913.9, 0.0, 9.997314, 10.000367 
2.1549533e+3, 2.954965e+2, -470850.7, -217701.6, -39624.316, 0.020531962, -0.4199387, -211644.31, -167555.19, 0.0, 9.996953, 10.000307 
2.1549334e+3, 3.0549636e+2, -473369.16, -151933.53, 4245.197, 0.07753433, -0.4795339, -151877.47, -151877.47, 0.0, 9.996415, 10.000687 
2.1549124e+3, 3.154971e+2, -487848.1, -22894.531, 23931.94, 0.06674125, -0.4686683, -21665.96, -21665.96, 0.0, 9.995745, 10.001886 
2.1652937e+3, 1.3553509e+2, -1056474.3, -1478608.1, 100411.17, -0.052082848, -0.4246507, -1033807.06, 577906.5, 0.39236897, 10.007238, 9.998052 
2.1652739e+3, 1.4553273e+2, -1193441.3, -1498835.3, 68444.39, -0.076273926, -0.47230068, -1178803.3, 334934.34, 0.25562376, 10.003783, 9.998345 
2.1652547e+3, 1.5553154e+2, -993514.6, -1390765.0, 67772.98, -0.026255209, -0.4248437, -982270.44, 433477.6, 0.13439853, 10.00426, 9.9981785 
2.165234e+3, 1.6552964e+2, -870434.06, -1313647.0, 24283.406, -0.010206189, -0.41648793, -869107.56, 448658.63, 0.05237076, 10.004228, 9.998026 
2.1652123e+3, 1.7552722e+2, -827991.56, -1266177.5, 17943.078, -0.035105895, -0.45916125, -827258.0, 392531.8, 0.012711261, 10.003774, 9.997896 
2.1651912e+3, 1.8552509e+2, -770968.25, -1150182.4, 1159.2, -0.04097669, -0.4724026, -770964.7, 350845.9, 0.0011285368, 10.003289, 9.998253 
2.1651697e+3, 1.9552344e+2, -755125.4, -1105316.9, -16105.646, -0.026629997, -0.46118182, -754386.25, 269440.1, 0.0000036037882, 10.002778, 9.998136 
2.1651483e+3, 2.0552187e+2, -697876.56, -981554.2, -30001.396, -0.032802556, -0.44515362, -694738.4, 231103.52, 0.0, 10.002305, 9.998539 
2.1651259e+3, 2.155205e+2, -669774.3, -927433.2, -27712.826, -0.057793025, -0.43560416, -666827.3, 161028.53, 0.0, 10.001869, 9.998447 
2.165104e+3, 2.2551915e+2, -631981.1, -790854.75, -56353.227, -0.05394365, -0.43925032, -614022.4, 115846.72, 0.0, 10.001166, 9.99905 
2.1650818e+3, 2.3551801e+2, -673643.7, -769782.75, -67440.016, -0.022045733, -0.45838478, -638895.1, -7015.183, 0.0, 10.000247, 9.998965 
2.1650596e+3, 2.4551727e+2, -638421.56, -631590.75, -62446.31, -0.005289743, -0.45358706, -572466.5, -38579.633, 0.0, 9.999513, 9.999595 
2.1650371e+3, 2.55517e+2, -632060.9, -586484.7, -58147.24, -0.009655471, -0.4390464, -546819.6, -110930.23, 0.0, 9.99892, 9.999517 
2.1650149e+3, 2.6551652e+2, -582251.0, -468092.2, -24028.592, -0.033516347, -0.45454207, -463240.72, -125346.79, 0.0, 9.998404, 9.999905 
2.1649931e+3, 2.7551603e+2, -556133.3, -415910.28, -11775.047, -0.045688596, -0.49312246, -414928.34, -175030.19, 0.0, 9.997957, 9.999805 
2.164972e+3, 2.8551647e+2, -519669.03, -294024.75, -26000.668, 0.01347999, -0.44706637, -291067.5, -149173.7, 0.0, 9.997306, 10.000282 
2.1649502e+3, 2.9551756e+2, -563569.6, -269429.8, -28336.078, 0.049798034, -0.36444515, -266724.94, -222841.75, 0.0, 9.996352, 10.000239 
2.1649295e+3, 3.0551663e+2, -560291.2, -144924.97, -2513.1875, 0.08454961, -0.5242583, -144909.77, -144909.77, 0.0, 9.995615, 10.001117 
2.1649072e+3, 3.1551808e+2, -517502.8, -59361.223, -6879.923, -0.026795145, -0.49148825, -59257.934, -59257.934, 0.0, 9.995638, 10.001688 
2.175301e+3, 1.3555902e+2, -1158498.9, -1669636.1, -87827.2, -0.031367995, -0.344822, -1143828.9, 467648.6, 0.41235933, 10.007138, 9.99626 
2.175278e+3, 1.45555e+2, -1200866.9, -1520427.6, 83233.91, -0.030610671, -0.46973965, -1180487.1, 333031.28, 0.27083606, 10.003858, 9.998177 
2.1752585e+3, 1.5555266e+2, -1008763.5, -1417870.8, 83704.45, -0.044452056, -0.52046514, -992299.9, 423238.47, 0.1443579, 10.0042715, 9.99798 
2.175238e+3, 1.6555071e+2, -885324.5, -1338194.8, 9370.971, -0.03687075, -0.49810907, -885130.6, 432426.34, 0.057651125, 10.004214, 9.997863 
2.1752164e+3, 1.7554912e+2, -840351.75, -1291997.4, 3141.365, -0.027501324, -0.44250605, -840329.9, 379244.34, 0.014731017, 10.0037775, 9.997719 
2.1751943e+3, 1.8554708e+2, -797175.44, -1206480.6, -16721.104, -0.05194444, -0.41582546, -796493.5, 325101.88, 0.0015380563, 10.003297, 9.997864 
2.1751718e+3, 1.9554499e+2, -780650.1, -1159003.5, -32612.713, -0.099645615, -0.41242576, -777859.6, 245757.39, 0.000013465528, 10.00278, 9.9977665 
2.1751499e+3, 2.055431e+2, -687951.0, -961028.25, -44701.926, -0.073864214, -0.41576153, -680819.6, 244815.48, 0.0, 10.002303, 9.998682 
2.1751286e+3, 2.1554162e+2, -662632.06, -911119.7, -42586.38, 0.007694799, -0.43377954, -655536.1, 172112.56, 0.0, 10.001861, 9.998566 
2.1751057e+3, 2.2554015e+2, -652216.06, -831981.8, -90042.73, 0.010884734, -0.4392754, -614872.3, 114790.805, 0.0, 10.001161, 9.998771 
2.1750818e+3, 2.3553891e+2, -692031.44, -807928.0, -99874.945, -0.045104463, -0.44067824, -634511.1, -2834.6272, 0.0, 10.000245, 9.998705 
2.1750586e+3, 2.4553804e+2, -631941.7, -619628.75, -84923.016, -0.037432782, -0.4414242, -540639.3, -6954.232, 0.0, 9.999517, 9.999676 
2.1750364e+3, 2.5553763e+2, -623034.7, -571219.25, -80406.0, 0.011259544, -0.4481482, -512650.16, -76961.92, 0.0, 9.998934, 9.999617 
2.1750137e+3, 2.6553753e+2, -553096.06, -408857.2, -42570.656, -0.0022152918, -0.45171422, -397230.16, -59542.16, 0.0, 9.998408, 10.00031 
2.1749912e+3, 2.7553773e+2, -529457.3, -362800.75, -27558.45, -0.045013547, -0.46266088, -358361.88, -118677.76, 0.0, 9.997966, 10.000167 
2.1749687e+3, 2.8553772e+2, -544976.0, -350881.56, -64153.934, -0.025927337, -0.45865837, -331593.53, -189908.83, 0.0, 9.997321, 9.9998865 
2.1749458e+3, 2.9553786e+2, -589875.7, -328717.66, -71572.31, -0.020274203, -0.43112355, -310389.1, -266703.75, 0.0, 9.99637, 9.999825 
2.1749254e+3, 3.0553737e+2, -562823.25, -145024.66, -17733.764, 0.10399501, -0.52211267, -144273.28, -144273.28, 0.0, 9.995597, 10.001123 
2.1749036e+3, 3.155393e+2, -449503.97, 73376.01, -66815.78, 0.041089926, -0.44851655, 81778.97, 81778.97, 0.0, 9.995656, 10.0026 
2.1853076e+3, 1.355819e+2, -1364469.8, -1834976.1, -91132.29, 0.0157057, -0.4171971, -1347435.0, 263817.47, 0.4323395, 10.004899, 9.996191 
2.1852838e+3, 1.4557843e+2, -913629.25, -1421384.0, 105639.81, -0.03012929, -0.45255098, -892527.5, 620760.44, 0.28644204, 10.006983, 9.997555 
2.1852635e+3, 1.5557529e+2, -960391.1, -1454741.1, 87207.2, -0.03026044, -0.5195762, -945458.2, 469858.4, 0.15508933, 10.005, 9.9973755 
2.1852422e+3, 1.6557294e+2, -911268.44, -1368179.4, 22589.73, -0.025889374, -0.49921843, -910154.3, 407185.13, 0.06370463, 10.004121, 9.997704 
2.1852203e+3, 1.7557128e+2, -807115.25, -1292525.8, 14698.352, -0.03826487, -0.4341449, -806670.56, 412686.72, 0.017226338, 10.00409, 9.997565 
2.1851978e+3, 1.8556911e+2, -732447.06, -1187307.0, -1752.6198, -0.06255942, -0.40876776, -732440.3, 388939.34, 0.0021187835, 10.003796, 9.997755 
2.1851748e+3, 1.9556679e+2, -710298.75, -1136229.4, 808.9824, -0.0901314, -0.41515577, -710297.2, 313106.03, 0.000039463976, 10.003313, 9.997666 
2.1851523e+3, 2.0556474e+2, -658286.1, -959019.06, -17568.77, -0.063163154, -0.42545265, -657263.25, 268159.88, 0.0, 10.0025625, 9.9985695 
2.1851304e+3, 2.1556307e+2, -706703.1, -943673.9, -35840.87, 0.005932562, -0.4476511, -701400.94, 126037.45, 0.0, 10.001608, 9.998463 
2.1851067e+3, 2.2556174e+2, -667108.06, -826179.1, -70533.73, 0.0070002605, -0.4437735, -640337.9, 89113.98, 0.0, 10.001003, 9.998886 
2.1850823e+3, 2.3556079e+2, -621050.5, -762069.56, -52836.883, -0.042823747, -0.4261572, -603450.25, 28011.895, 0.0, 10.000684, 9.998808 
2.1850583e+3, 2.455599e+2, -553644.0, -593498.9, -32638.04, -0.039063185, -0.42748913, -535330.8, -1859.8744, 0.0, 10.000108, 9.999569 
2.1850352e+3, 2.5555924e+2, -573712.4, -559240.2, -43735.38, 0.002602832, -0.44830537, -522146.34, -86669.664, 0.0, 9.999326, 9.999509 
2.185012e+3, 2.6555914e+2, -554106.0, -407605.97, -30036.662, -0.005022976, -0.4461444, -401686.75, -64210.234, 0.0, 9.998395, 10.000325 
2.1849887e+3, 2.755595e+2, -620873.6, -404869.97, -43339.676, -0.037625637, -0.44111237, -396498.6, -157027.47, 0.0, 9.997332, 10.000184 
2.1849658e+3, 2.855594e+2, -604114.5, -365935.25, -60846.934, -0.02407056, -0.4540232, -351291.22, -209818.52, 0.0, 9.99686, 10.000005 
2.1849424e+3, 2.955594e+2, -514147.84, -282111.72, -35654.625, -0.014735503, -0.45281273, -276756.63, -233281.86, 0.0, 9.996847, 9.999915 
2.1849205e+3, 3.05559e+2, -522721.75, -156925.75, 13563.717, 0.04312775, -0.52265507, -156423.5, -156423.5, 0.0, 9.996004, 10.000847 
2.1848983e+3, 3.1556183e+2, -598819.25, 83533.61, -48663.48, 0.020308362, -0.33447677, 86986.68, 86986.68, 0.0, 9.994281, 10.003331 
2.195313e+3, 1.356038e+2, -1320218.8, -1623770.8, 67773.94, 0.07070427, -0.6205943, -1305774.3, 305263.5, 0.45123625, 10.00479, 9.997714 
2.19529e+3, 1.4560282e+2, -986148.9, -1544466.9, 51688.332, -0.08069006, -0.42156774, -981403.94, 531643.8, 0.30220196, 10.006901, 9.996513 
2.1952689e+3, 1.555992e+2, -1020608.2, -1593526.9, 30140.258, 0.009569159, -0.43176538, -1019026.94, 396057.66, 0.16673276, 10.005024, 9.996397 
2.1952465e+3, 1.6559616e+2, -919730.06, -1389105.9, 23079.709, 0.015314908, -0.42883864, -918597.94, 398517.13, 0.07074614, 10.004158, 9.997543 
2.1952239e+3, 1.7559363e+2, -816577.75, -1311845.0, 14910.7705, -0.07043091, -0.4336292, -816129.25, 403010.38, 0.02035067, 10.004098, 9.99743 
2.1952014e+3, 1.8559112e+2, -721407.1, -1165092.1, -18199.52, -0.0757986, -0.44623217, -720661.8, 400502.16, 0.002941261, 10.0038, 9.997907 
2.195179e+3, 1.955888e+2, -701243.06, -1117593.0, -16021.222, -0.009264568, -0.46791536, -700627.5, 322558.47, 0.00009790344, 10.003311, 9.997796 
2.1951555e+3, 2.0558667e+2, -683462.4, -1011647.75, -52602.7, -0.008661067, -0.4735102, -675237.2, 249969.84, 0.000000012688071, 10.0025625, 9.998209 
2.195131e+3, 2.1558487e+2, -729111.06, -989509.0, -67702.445, -0.063773744, -0.4732014, -712560.6, 114665.01, 0.0, 10.001603, 9.998152 
2.1951069e+3, 2.2558382e+2, -632896.75, -755447.0, -80972.68, -0.06439046, -0.4498498, -592627.7, 136608.23, 0.0, 10.001003, 9.9993725 
2.195083e+3, 2.3558353e+2, -589559.4, -697867.0, -64502.98, -0.02180494, -0.4162341, -559491.6, 71746.555, 0.0, 10.000687, 9.9992485 
2.1950589e+3, 2.4558271e+2, -574353.7, -637284.2, -63360.16, -0.015838556, -0.413799, -535075.94, -1830.0668, 0.0, 10.00011, 9.999269 
2.1950342e+3, 2.5558174e+2, -594948.6, -605016.8, -73853.83, -0.041042514, -0.439617, -525957.5, -90701.57, 0.0, 9.999331, 9.999193 
2.19501e+3, 2.6558128e+2, -579422.4, -461817.88, -71814.94, -0.045447562, -0.43850446, -427802.6, -90541.92, 0.0, 9.998401, 9.999951 
2.1949863e+3, 2.7558127e+2, -640803.3, -449157.3, -81798.17, -0.029040279, -0.43048272, -418992.25, -179731.83, 0.0, 9.997343, 9.999875 
2.1949631e+3, 2.855814e+2, -560661.2, -276441.0, -63224.38, 0.017710563, -0.43450177, -263011.38, -121752.45, 0.0, 9.9968605, 10.00062 
2.1949401e+3, 2.9558215e+2, -471388.3, -195253.45, -38022.813, 0.06657872, -0.4248417, -190113.52, -146861.45, 0.0, 9.996853, 10.00051 
2.1949148e+3, 3.0558148e+2, -551679.94, -223580.2, -46603.703, -0.122643165, -0.5278957, -217088.97, -217088.97, 0.0, 9.996031, 10.000378 
2.194892e+3, 3.1558308e+2, -597808.0, 91242.3, -41453.75, -0.010614155, -0.40428582, 93727.23, 93727.23, 0.0, 9.994272, 10.003382 
2.2053194e+3, 1.3562869e+2, -1327836.9, -1556344.0, 146774.6, 0.25401148, -0.4746358, -1256088.6, 354705.13, 0.4700747, 10.004334, 9.998742 
2.2052965e+3, 1.4562628e+2, -1105071.8, -1648640.5, 8501.678, -0.079038605, -0.44724855, -1104938.8, 407878.4, 0.31901035, 10.005957, 9.996242 
2.2052741e+3, 1.5562291e+2, -926482.8, -1564827.1, 20346.469, 0.011781783, -0.4055192, -925834.94, 489018.75, 0.17989926, 10.005992, 9.996129 
2.2052515e+3, 1.6561975e+2, -748382.2, -1304396.5, 55090.133, 0.021507775, -0.39732128, -742976.4, 573909.25, 0.07913318, 10.005488, 9.99749 
2.2052285e+3, 1.7561688e+2, -736278.8, -1277566.5, 55333.047, -0.05669366, -0.4310689, -730680.3, 488232.47, 0.0242947, 10.004702, 9.997375 
2.2052053e+3, 1.8561423e+2, -691224.75, -1157875.6, 15451.213, -0.06598229, -0.45028186, -690713.7, 430224.3, 0.0040929425, 10.004046, 9.997837 
2.2051823e+3, 1.9561194e+2, -679781.56, -1113502.3, -935.5028, -0.012183024, -0.46200517, -679779.56, 343180.2, 0.00021415144, 10.003488, 9.997739 
2.2051582e+3, 2.0560981e+2, -646850.7, -989874.44, -38601.7, -0.01727725, -0.46623918, -642560.3, 282420.22, 0.00000016341261, 10.002798, 9.998245 
2.2051328e+3, 2.15608e+2, -664339.2, -953951.06, -26598.404, -0.070538566, -0.47079986, -661916.6, 165082.34, 0.0, 10.002032, 9.998188 
2.2051081e+3, 2.2560692e+2, -591637.75, -744634.5, -35033.273, -0.07272793, -0.4480992, -583997.4, 145012.16, 0.0, 10.001328, 9.9992895 
2.2050835e+3, 2.3560655e+2, -596130.25, -709080.56, -60983.902, -0.03189253, -0.4118091, -569488.1, 61524.188, 0.0, 10.00068, 9.999174 
2.2050586e+3, 2.4560565e+2, -607002.75, -656218.3, -77531.12, -0.021659788, -0.4158748, -550267.94, -17246.932, 0.0, 9.999901, 9.999238 
2.2050332e+3, 2.5560448e+2, -645436.8, -633785.4, -68430.15, -0.037228707, -0.45630163, -570933.44, -135900.75, 0.0, 9.999005, 9.999152 
2.2050086e+3, 2.65604e+2, -579985.9, -470295.28, -38941.918, -0.039827995, -0.44692734, -457876.3, -120838.836, 0.0, 9.998434, 9.999876 
2.2049838e+3, 2.7560422e+2, -539372.25, -407770.84, -29100.53, -0.024063839, -0.411716, -401623.13, -162587.17, 0.0, 9.998072, 9.999807 
2.20496e+3, 2.8560427e+2, -525707.1, -249727.53, -21898.05, 0.018712424, -0.4279238, -248000.8, -106964.734, 0.0, 9.997059, 10.000708 
2.2049363e+3, 2.956046e+2, -641683.5, -261789.45, -34849.625, 0.06324604, -0.4672497, -258618.98, -215585.56, 0.0, 9.995621, 10.000646 
2.2049104e+3, 3.056059e+2, -704625.94, -299605.03, -47485.977, -0.11160894, -0.37988505, -294112.13, -294112.13, 0.0, 9.9949875, 10.0003605 
2.2048873e+3, 3.1560564e+2, -521171.7, 134429.42, 29178.846, 0.051493417, -0.43286893, 135725.53, 135725.53, 0.0, 9.994775, 10.003433 
2.2153215e+3, 1.3565335e+2, -1372957.6, -1560750.6, 223209.23, 0.044699147, -0.29546344, -1224699.4, 385852.53, 0.49156937, 10.003769, 9.999351 
2.2153027e+3, 1.4564884e+2, -1096287.8, -1586711.0, 10575.509, -0.04280267, -0.52301025, -1096059.9, 416536.03, 0.33868977, 10.005964, 9.996665 
2.2152798e+3, 1.5564638e+2, -915878.56, -1511015.0, 19950.795, -0.026909063, -0.43387732, -915210.5, 499413.6, 0.19560573, 10.005979, 9.996506 
2.2152568e+3, 1.6564365e+2, -752175.8, -1299450.3, 29334.729, -0.009265596, -0.39998084, -750607.94, 566044.06, 0.089350455, 10.005487, 9.997529 
2.2152336e+3, 1.756409e+2, -735586.0, -1275002.4, 28718.281, -0.0050350605, -0.4265481, -734061.4, 484616.63, 0.029278222, 10.004718, 9.997385 
2.2152095e+3, 1.8563832e+2, -709196.5, -1196984.4, -4481.5933, -0.038536873, -0.42364708, -709155.3, 411547.94, 0.0056721675, 10.004059, 9.997563 
2.215185e+3, 1.9563611e+2, -695965.3, -1147266.3, -20377.56, -0.097545356, -0.39933518, -695047.1, 327678.38, 0.00042144925, 10.003488, 9.997507 
2.2151601e+3, 2.0563407e+2, -618452.44, -931915.5, -66071.93, -0.08719056, -0.40578824, -605094.94, 319649.75, 0.0000010850493, 10.0028, 9.998642 
2.2151352e+3, 2.1563232e+2, -640504.56, -904617.0, -53215.652, -0.024284024, -0.44452357, -630185.4, 196574.72, 0.0, 10.00203, 9.9985285 
2.2151099e+3, 2.2563088e+2, -636032.7, -836768.25, -58866.223, -0.026297605, -0.441217, -620043.56, 108730.51, 0.0, 10.001327, 9.998658 
2.2150837e+3, 2.3562981e+2, -636234.0, -792792.3, -84741.02, -0.07698725, -0.41177914, -599149.94, 31635.393, 0.0, 10.00068, 9.9986 
2.215058e+3, 2.4562858e+2, -590803.9, -622848.44, -112077.016, -0.05768653, -0.4323344, -493609.7, 39187.438, 0.0, 9.999902, 9.999468 
2.2150327e+3, 2.556274e+2, -627307.1, -599122.0, -100420.87, 0.009412767, -0.49750054, -511809.7, -77002.0, 0.0, 9.999017, 9.999386 
2.2150074e+3, 2.6562732e+2, -563001.3, -437406.63, -53581.113, 0.006935458, -0.4727394, -417654.3, -80846.41, 0.0, 9.998442, 10.000099 
2.2149819e+3, 2.7562827e+2, -525449.1, -382632.4, -47061.24, -0.036431696, -0.3858499, -368519.34, -129720.734, 0.0, 9.998086, 9.999974 
2.2149567e+3, 2.8562784e+2, -557401.6, -315629.38, -79236.69, -0.025780486, -0.43270215, -291975.16, -151170.39, 0.0, 9.997061, 10.000255 
2.2149311e+3, 2.956266e+2, -664340.6, -307442.3, -82793.016, -0.014538001, -0.58164537, -289171.4, -246351.34, 0.0, 9.995614, 10.000337 
2.214907e+3, 3.0563223e+2, -669366.3, -224428.75, -55341.023, 0.06256314, -0.08100658, -217648.78, -217648.78, 0.0, 9.994974, 10.000886 
2.214881e+3, 3.15629e+2, -518307.84, 125965.35, 57342.66, -0.04540868, -0.47678378, 131029.25, 131029.25, 0.0, 9.994828, 10.003354 
2.2253098e+3, 1.456736e+2, -1041283.56, -1495141.6, 60706.566, 0.027998772, -0.51355225, -1033303.94, 479050.84, 0.36324504, 10.0065155, 9.997092 
2.2252856e+3, 1.5567139e+2, -913641.7, -1462875.8, 82837.9, -0.04084036, -0.44199806, -901419.7, 512959.06, 0.2149349, 10.005923, 9.996882 
2.225262e+3, 1.6566859e+2, -772247.5, -1355796.3, 79715.65, -0.034555476, -0.40761143, -761553.94, 554853.4, 0.1019103, 10.005609, 9.997082 
2.2252388e+3, 1.7566559e+2, -679744.9, -1290570.8, 46309.12, 0.0153784985, -0.41391787, -676253.94, 542183.25, 0.03553276, 10.005331, 9.9969845 
2.2252141e+3, 1.8566294e+2, -617219.2, -1140063.9, 9115.92, -0.017962078, -0.4048649, -617060.3, 503403.13, 0.007778014, 10.00465, 9.997669 
2.2251885e+3, 1.956608e+2, -650982.6, -1113976.8, 18573.574, -0.11070114, -0.38464218, -650238.75, 372245.7, 0.0007555034, 10.00375, 9.997609 
2.2251628e+3, 2.0565872e+2, -593197.7, -937444.1, -32678.459, -0.10398729, -0.39056143, -590123.06, 334380.66, 0.000005509597, 10.003053, 9.998482 
2.2251377e+3, 2.1565685e+2, -580361.3, -891767.0, -62261.88, -0.020667145, -0.42577752, -568374.2, 258146.23, 0.0, 10.002516, 9.998382 
2.2251113e+3, 2.2565518e+2, -590064.8, -826766.4, -69108.63, -0.02076138, -0.43044397, -571364.8, 157171.45, 0.0, 10.001698, 9.998547 
2.2250845e+3, 2.3565385e+2, -645710.1, -808003.9, -57615.01, -0.08241414, -0.416503, -627336.6, 3213.3606, 0.0, 10.000665, 9.998502 
2.2250581e+3, 2.4565262e+2, -586858.6, -614600.6, -68960.016, -0.06286456, -0.43753153, -530388.44, 2173.36, 0.0, 9.999904, 9.999522 
2.225032e+3, 2.5565156e+2, -575726.0, -566107.7, -70850.4, 0.015007033, -0.49335238, -499903.4, -65332.7, 0.0, 9.999339, 9.9994545 
2.2250056e+3, 2.6565152e+2, -556113.06, -426258.7, -35638.4, 0.0067511294, -0.47173753, -417120.8, -80550.336, 0.0, 9.998458, 10.000167 
2.2249795e+3, 2.756525e+2, -632660.56, -425787.22, -43593.7, -0.052060746, -0.392242, -416976.13, -178414.83, 0.0, 9.997315, 10.000049 
2.2249533e+3, 2.8565222e+2, -614766.5, -327386.78, -58853.004, -0.044686135, -0.43345934, -315801.22, -175235.47, 0.0, 9.9966, 10.000395 
2.2249268e+3, 2.9565108e+2, -582324.94, -260390.58, -19010.832, -0.032331098, -0.5828989, -259271.84, -216692.19, 0.0, 9.996144, 10.000403 
2.2249024e+3, 3.0565685e+2, -614012.6, -151921.95, 15715.451, 0.08425743, -0.08974866, -151388.1, -151388.1, 0.0, 9.995161, 10.001291 
2.224875e+3, 3.1565288e+2, -692475.4, 24411.865, 82879.516, -0.092280984, -0.6106444, 33868.832, 33868.832, 0.0, 9.993723, 10.003182 
2.2353171e+3, 1.4570032e+2, -1058399.3, -1464035.0, 41278.266, 0.11493143, -0.42434525, -1054241.3, 457854.88, 0.39427984, 10.006374, 9.9975195 
2.2352915e+3, 1.5569772e+2, -907371.2, -1410287.4, 64350.613, -0.03583097, -0.43370035, -899267.75, 514852.03, 0.2387553, 10.005946, 9.99723 
2.2352673e+3, 1.6569443e+2, -830756.7, -1481023.3, 69362.75, -0.060529273, -0.4196532, -823440.2, 492712.9, 0.11727183, 10.0056505, 9.9962 
2.2352439e+3, 1.7569086e+2, -736751.25, -1405198.1, 34665.35, -0.0013330337, -0.39539692, -734958.3, 483233.1, 0.043277785, 10.00533, 9.996199 
2.2352187e+3, 1.85688e+2, -587431.4, -1075189.4, -22991.795, -0.008261263, -0.39353195, -586349.94, 533869.3, 0.010492761, 10.004649, 9.998118 
2.2351927e+3, 1.956859e+2, -622441.1, -1057634.1, -12903.943, -0.060750335, -0.4159025, -622058.9, 400178.7, 0.0012444501, 10.003762, 9.997991 
2.2351663e+3, 2.0568366e+2, -640741.6, -1037315.2, -52306.746, -0.07490744, -0.41819263, -633958.56, 290300.03, 0.000017494829, 10.0030575, 9.997795 
2.2351396e+3, 2.1568152e+2, -624081.6, -981121.6, -81055.18, -0.062268134, -0.41224924, -606542.1, 219738.22, 0.0, 10.002508, 9.997772 
2.2351125e+3, 2.2567981e+2, -564614.56, -772162.1, -106595.25, -0.056448944, -0.41444606, -519621.56, 208675.06, 0.0, 10.00169, 9.998926 
2.2350852e+3, 2.3567858e+2, -620828.3, -756921.94, -94142.82, -0.054753818, -0.4280465, -572714.7, 57592.684, 0.0, 10.000666, 9.998853 
2.2350581e+3, 2.4567758e+2, -594858.2, -631919.8, -91103.875, -0.0431411, -0.4345762, -520419.63, 11896.712, 0.0, 9.999906, 9.999403 
2.2350308e+3, 2.5567687e+2, -581775.6, -580320.94, -93650.91, -0.028373966, -0.4444668, -487394.56, -53071.855, 0.0, 9.999345, 9.999355 
2.2350037e+3, 2.6567656e+2, -563545.25, -440945.1, -80538.51, -0.042631738, -0.44309294, -401031.78, -64705.688, 0.0, 9.998454, 10.000068 
2.2349766e+3, 2.7567673e+2, -632844.0, -426686.5, -84458.8, -0.0693775, -0.4312909, -396504.2, -158179.03, 0.0, 9.997317, 10.000043 
2.2349499e+3, 2.8567728e+2, -560210.6, -216615.98, -76636.11, -0.044486422, -0.4329609, -200297.89, -59977.863, 0.0, 9.996607, 10.001154 
2.2349231e+3, 2.9567802e+2, -549500.2, -199283.6, -39663.344, -0.017063787, -0.47127125, -194847.77, -152535.22, 0.0, 9.99617, 10.000813 
2.2348963e+3, 3.0567953e+2, -610227.8, -141553.16, -39549.1, -0.03189, -0.41120893, -138239.23, -138239.23, 0.0, 9.995153, 10.001364 
2.23487e+3, 3.1568077e+2, -735046.1, -59267.996, -105959.766, 0.06999686, -0.44449604, -43043.39, -43043.39, 0.0, 9.993691, 10.002629 
2.245322e+3, 1.457258e+2, -1319632.1, -1608015.0, 51258.68, 0.12673931, -0.3874852, -1310792.1, 201055.27, 0.43301058, 10.003459, 9.997759 
2.2452979e+3, 1.5572324e+2, -834727.25, -1346940.9, 48686.824, -0.031828567, -0.41622537, -830140.56, 583730.06, 0.26783013, 10.0067, 9.997453 
2.2452734e+3, 1.6572008e+2, -652596.0, -1342503.3, 15458.446, -0.07260046, -0.41459563, -652249.8, 663652.44, 0.13586238, 10.007006, 9.996494 
2.245249e+3, 1.7571674e+2, -695671.8, -1351286.0, 54783.496, -0.027819073, -0.3965919, -691125.6, 526812.0, 0.052680537, 10.005532, 9.996471 
2.2452234e+3, 1.8571395e+2, -587094.06, -1096360.6, 21440.607, -0.020016164, -0.39204416, -586193.0, 533772.1, 0.0138493, 10.004762, 9.997917 
2.245197e+3, 1.9571172e+2, -524893.1, -1030389.75, -17499.64, -0.037589423, -0.40412498, -524288.0, 497697.06, 0.0018943939, 10.004523, 9.99781 
2.2451697e+3, 2.0570941e+2, -541902.9, -984046.8, -57150.266, -0.056621656, -0.40999773, -534635.25, 389371.6, 0.000040102543, 10.003714, 9.997844 
2.2451422e+3, 2.1570718e+2, -620679.0, -973003.1, -35121.39, -0.076389775, -0.41553164, -617212.06, 208816.45, 0.0, 10.002506, 9.9978285 
2.245114e+3, 2.2570544e+2, -584223.94, -775632.8, -50632.594, -0.069378525, -0.4255004, -571655.56, 156389.19, 0.0, 10.00153, 9.998979 
2.2450861e+3, 2.3570421e+2, -609292.4, -744851.3, -60985.79, -0.03929562, -0.444846, -585894.44, 44161.082, 0.0, 10.000718, 9.998909 
2.2450581e+3, 2.4570328e+2, -604548.56, -633604.4, -55525.56, -0.027425993, -0.44779572, -561681.8, -29617.996, 0.0, 9.999828, 9.999427 
2.2450298e+3, 2.557027e+2, -650916.2, -610283.9, -49508.56, -0.033887763, -0.44574058, -577085.1, -143016.16, 0.0, 9.998858, 9.999383 
2.2450016e+3, 2.657024e+2, -615589.7, -452102.44, -27388.025, -0.06370893, -0.44988412, -447636.3, -111564.086, 0.0, 9.998041, 10.000189 
2.2449736e+3, 2.7570248e+2, -622058.94, -406087.8, -14824.727, -0.094826184, -0.46018204, -405074.94, -167002.8, 0.0, 9.99733, 10.0001745 
2.2449465e+3, 2.857034e+2, -569993.94, -203657.16, -22523.303, -0.030810388, -0.43747562, -202277.56, -62214.656, 0.0, 9.996469, 10.001307 
2.2449197e+3, 2.9570493e+2, -650881.7, -231823.11, -36780.1, 0.059442293, -0.4112758, -228619.47, -186572.42, 0.0, 9.995412, 10.000951 
2.2448902e+3, 3.0570462e+2, -712400.4, -160845.33, -34413.844, -0.110257536, -0.55472344, -158706.39, -158706.39, 0.0, 9.994326, 10.00163 
2.2448647e+3, 3.1570882e+2, -739273.7, -42942.633, -68327.35, 0.16046663, -0.32861775, -36301.367, -36301.367, 0.0, 9.993577, 10.0028 
2.255325e+3, 1.4575018e+2, -1289364.3, -1575269.1, 123159.586, 0.058401335, -0.3968341, -1243627.4, 267980.4, 0.4808583, 10.004092, 9.997858 
2.2553045e+3, 1.5574808e+2, -847929.8, -1335938.1, 119839.734, -0.039617073, -0.38949203, -820089.2, 593540.75, 0.30313563, 10.006797, 9.997548 
2.2552805e+3, 1.6574559e+2, -599999.75, -1178788.8, -29246.85, -0.07809377, -0.39260584, -598525.6, 717128.5, 0.158101, 10.0069275, 9.997831 
2.2552541e+3, 1.7574318e+2, -621575.8, -1180734.9, 6544.6777, -0.06647494, -0.41561598, -621499.25, 596177.3, 0.06378682, 10.005552, 9.997649 
2.2552277e+3, 1.8574062e+2, -640701.9, -1212000.3, 12936.732, -0.054829247, -0.3983057, -640409.06, 479293.0, 0.017789038, 10.004792, 9.9971075 
2.2552015e+3, 1.9573817e+2, -575067.5, -1132331.8, -27456.521, -0.045899164, -0.3540701, -573718.0, 448009.88, 0.0026765105, 10.004514, 9.997116 
2.2551736e+3, 2.057358e+2, -493666.47, -880135.06, -100692.6, -0.052065887, -0.3697161, -469005.16, 454744.22, 0.00007357514, 10.003696, 9.998566 
2.2551446e+3, 2.1573368e+2, -575913.9, -877498.75, -77107.35, -0.069579, -0.43805084, -557343.1, 268423.34, 0.0, 10.002494, 9.998491 
2.2551157e+3, 2.2573195e+2, -604085.0, -814266.44, -80301.84, -0.0644068, -0.46475303, -576916.7, 150865.3, 0.0, 10.001518, 9.99872 
2.2550869e+3, 2.3573063e+2, -624882.7, -777389.3, -90881.49, -0.04018455, -0.4662673, -582502.06, 47293.18, 0.0, 10.000718, 9.998686 
2.2550578e+3, 2.4572963e+2, -594454.94, -612186.0, -92847.09, -0.01805244, -0.47544616, -510051.06, 21753.805, 0.0, 9.999827, 9.999575 
2.2550291e+3, 2.5572896e+2, -639053.56, -587692.9, -85680.055, -0.00750095, -0.49669477, -523927.44, -90116.9, 0.0, 9.998866, 9.999535 
2.2549997e+3, 2.6572898e+2, -591444.3, -403226.2, -56027.46, -0.062370557, -0.49433267, -387810.88, -52000.86, 0.0, 9.998044, 10.000524 
2.2549705e+3, 2.7572963e+2, -604561.56, -371267.9, -41876.594, -0.14024037, -0.48050463, -363978.72, -126175.336, 0.0, 9.997334, 10.000413 
2.2549431e+3, 2.857305e+2, -605714.9, -278146.38, -65021.668, -0.0038604678, -0.444312, -265711.75, -125916.27, 0.0, 9.996469, 10.000796 
2.2549164e+3, 2.9573175e+2, -658492.94, -249236.56, -82539.03, 0.20944129, -0.39611816, -233217.1, -191432.66, 0.0, 9.995418, 10.000831 
2.2548838e+3, 3.0573195e+2, -664870.44, -60701.305, -70804.59, -0.17659245, -0.5318918, -52514.414, -52514.414, 0.0, 9.99432, 10.00232 
2.2548574e+3, 3.157346e+2, -636416.4, 169272.34, 130253.77, 0.0726258, -0.49880683, 189806.8, 189806.8, 0.0, 9.993581, 10.004256 
2.2653127e+3, 1.557751e+2, -664249.2, -1287912.6, 95680.1, -0.043241117, -0.42000887, -649900.44, 763466.0, 0.3456149, 10.00943, 9.996832 
2.2652861e+3, 1.6577344e+2, -884044.3, -1298140.3, 79368.48, -0.09085404, -0.31269962, -869353.2, 446029.78, 0.18406989, 10.004664, 9.997951 
2.2652605e+3, 1.7577028e+2, -487028.94, -1101460.3, 43518.1, -0.04139171, -0.42112687, -483962.0, 733448.8, 0.076346464, 10.006562, 9.997755 
2.2652334e+3, 1.8576741e+2, -441777.06, -1133508.3, -817.9768, -0.035590567, -0.42923638, -441776.1, 677662.75, 0.022111546, 10.006296, 9.996922 
2.2652058e+3, 1.9576499e+2, -581902.94, -1149152.9, -528.20245, -0.060823258, -0.36245215, -581902.44, 439562.28, 0.0035215202, 10.004533, 9.996991 
2.2651768e+3, 2.0576273e+2, -546522.2, -874508.25, -72863.16, -0.05896756, -0.3783552, -531064.0, 392421.03, 0.00011284617, 10.003201, 9.998842 
2.2651473e+3, 2.157607e+2, -600017.0, -858903.7, -81357.55, -0.036705635, -0.46405262, -576572.7, 248927.56, 0.0, 10.0022, 9.998758 
2.2651172e+3, 2.2575922e+2, -612000.75, -804612.44, -68491.17, -0.03845602, -0.48500428, -590129.3, 137384.14, 0.0, 10.001407, 9.998839 
2.2650874e+3, 2.3575827e+2, -613105.44, -758609.5, -52588.52, -0.052964352, -0.46150908, -596088.9, 33434.98, 0.0, 10.000743, 9.998803 
2.2650576e+3, 2.4575742e+2, -580854.5, -592710.3, -52189.83, -0.02900683, -0.46631235, -534257.0, -2724.854, 0.0, 9.999864, 9.999691 
2.265028e+3, 2.5575677e+2, -638990.44, -575069.56, -47259.33, 0.013023821, -0.4972223, -549978.1, -116440.67, 0.0, 9.998814, 9.999646 
2.2649978e+3, 2.6575685e+2, -606364.4, -401632.72, -20992.113, -0.042500205, -0.49821427, -399502.47, -63966.27, 0.0, 9.997906, 10.0006 
2.2649676e+3, 2.7575755e+2, -643556.2, -384322.16, -27639.713, -0.13745794, -0.48598573, -381407.94, -143879.17, 0.0, 9.997043, 10.000463 
2.2649394e+3, 2.8575817e+2, -636339.06, -298063.75, -37764.094, 0.0017676259, -0.4712122, -293899.16, -154376.55, 0.0, 9.996282, 10.000749 
2.2649121e+3, 2.9575914e+2, -622150.3, -221984.13, -26150.814, 0.22093055, -0.44801253, -220282.4, -178768.53, 0.0, 9.995625, 10.0009165 
2.2648785e+3, 3.0576015e+2, -637096.56, -48440.41, -53599.86, -0.14874579, -0.5152457, -43599.7, -43599.7, 0.0, 9.994519, 10.002305 
2.2648506e+3, 3.15762e+2, -698757.9, 141532.22, 192807.89, 0.056924738, -0.53914094, 183660.63, 183660.63, 0.0, 9.993151, 10.004269 
2.2753221e+3, 1.5580407e+2, -809714.4, -1488720.5, -217788.2, -0.048825346, -0.4995948, -745864.0, 667218.6, 0.39454773, 10.009178, 9.9953575 
2.2752905e+3, 1.6580331e+2, -937618.1, -1432988.6, 142219.03, -0.11909965, -0.1802432, -899691.3, 415400.22, 0.21272837, 10.004817, 9.996977 
2.2752678e+3, 1.7579792e+2, -549069.1, -1215690.5, 98535.61, 0.03384962, -0.41680846, -534809.25, 682332.06, 0.08958107, 10.006581, 9.996906 
2.2752404e+3, 1.8579428e+2, -424664.06, -1083975.0, -63894.117, 0.028473448, -0.48357633, -418529.16, 700646.5, 0.026441636, 10.006263, 9.997284 
2.27521e+3, 1.9579214e+2, -560130.94, -1099216.4, -61810.914, -0.08629386, -0.42467132, -553134.56, 468061.75, 0.0043238834, 10.004515, 9.997343 
2.2751796e+3, 2.0579009e+2, -557083.4, -894799.25, -109240.44, -0.07895999, -0.43105567, -524828.2, 398386.5, 0.00014920706, 10.003194, 9.998707 
2.27515e+3, 2.1578814e+2, -607972.3, -873537.7, -114289.5, 0.015154579, -0.49430105, -565559.9, 259671.02, 0.0, 10.002191, 9.998663 
2.2751191e+3, 2.2578715e+2, -580384.3, -736990.0, -91886.375, 0.0029346014, -0.48704535, -537962.5, 189277.39, 0.0, 10.001398, 9.999308 
2.2750877e+3, 2.3578697e+2, -582866.44, -695102.8, -77351.12, -0.08346624, -0.4337561, -543420.75, 85821.71, 0.0, 10.000739, 9.999242 
2.2750571e+3, 2.4578652e+2, -575319.8, -580815.94, -92795.99, -0.06405264, -0.42378366, -485231.2, 46015.64, 0.0, 9.999862, 9.999774 
2.2750269e+3, 2.55786e+2, -633510.25, -565284.0, -85393.98, 0.022671102, -0.44957578, -507441.5, -74190.63, 0.0, 9.998818, 9.999711 
2.274996e+3, 2.657859e+2, -619710.5, -429914.72, -54827.133, -0.0048121703, -0.46035278, -415215.06, -79963.56, 0.0, 9.997907, 10.000405 
2.274965e+3, 2.7578616e+2, -650385.7, -401785.25, -61080.727, -0.09078972, -0.47111487, -387588.56, -150339.94, 0.0, 9.997056, 10.000338 
2.2749355e+3, 2.8578636e+2, -604566.25, -233435.47, -64211.438, -0.024948316, -0.5230931, -222639.9, -83394.55, 0.0, 9.996285, 10.001192 
2.2749062e+3, 2.9578683e+2, -604395.0, -183841.31, -52645.45, 0.06989027, -0.5900567, -177351.23, -136113.42, 0.0, 9.995617, 10.0011835 
2.2748743e+3, 3.057894e+2, -699730.94, -175553.45, -111131.875, 0.0018438553, -0.46083456, -152965.53, -152965.53, 0.0, 9.994506, 10.001439 
2.2748438e+3, 3.1579036e+2, -839768.8, -172098.67, 69904.836, 0.04795336, -0.49883604, -164858.19, -164858.19, 0.0, 9.993221, 10.00209 
2.2853291e+3, 1.558346e+2, -1187546.4, -1628559.3, -136615.13, -0.019484505, -0.4235714, -1148655.9, 264125.28, 0.44573778, 10.004658, 9.996447 
2.2852986e+3, 1.6583136e+2, -343448.3, -1198489.0, 161283.28, -0.10189777, -0.34057996, -314037.66, 1000775.7, 0.24135393, 10.010827, 9.995895 
2.2852747e+3, 1.758267e+2, -508763.66, -1290282.0, 123441.85, 0.018409908, -0.3965192, -489729.44, 727129.7, 0.10211295, 10.0074, 9.996002 
2.2852461e+3, 1.8582322e+2, -524053.22, -1086932.9, -46387.305, 0.02875168, -0.4300619, -520256.03, 598636.4, 0.03026272, 10.005385, 9.9976845 
2.2852148e+3, 1.958207e+2, -536800.1, -1045479.0, -41742.297, -0.040735517, -0.44786224, -533397.5, 487517.6, 0.0049640187, 10.004498, 9.997719 
2.2851834e+3, 2.0581874e+2, -500807.6, -862167.4, -70980.95, -0.043527953, -0.46407676, -487365.06, 435567.6, 0.00017466657, 10.003556, 9.998755 
2.2851521e+3, 2.1581726e+2, -558139.75, -843307.25, -64015.94, 0.0035578553, -0.48623398, -544428.4, 280517.34, 0.0, 10.002506, 9.998719 
2.2851203e+3, 2.2581646e+2, -560193.94, -705903.7, -41141.793, -0.013482505, -0.47126767, -549379.94, 177573.2, 0.0, 10.001442, 9.999501 
2.2850884e+3, 2.3581629e+2, -625707.8, -693904.9, -46852.867, -0.073999986, -0.43548357, -601858.94, 27096.184, 0.0, 10.00035, 9.999436 
2.2850569e+3, 2.4581595e+2, -624209.4, -577288.06, -64767.76, -0.05386329, -0.4354823, -531862.8, -904.8062, 0.0, 9.999408, 10.000017 
2.2850254e+3, 2.5581563e+2, -657126.3, -551256.1, -45681.69, 0.020276763, -0.4654556, -534270.25, -101310.375, 0.0, 9.998547, 9.999939 
2.2849938e+3, 2.6581573e+2, -658914.56, -447997.03, 1686.8273, 0.009907908, -0.4655746, -447983.56, -113025.164, 0.0, 9.997633, 10.000414 
2.2849624e+3, 2.7581623e+2, -702602.0, -423815.16, 9776.089, -0.04108867, -0.45335293, -423472.75, -186519.56, 0.0, 9.996682, 10.000367 
2.2849317e+3, 2.8581622e+2, -652431.0, -244840.75, 6319.424, -0.014808804, -0.531843, -244742.8, -105791.195, 0.0, 9.995907, 10.001296 
2.2849008e+3, 2.958161e+2, -669933.56, -217549.25, -12870.294, 0.003492659, -0.6707612, -217183.38, -176233.69, 0.0, 9.995178, 10.001163 
2.2848694e+3, 3.0581975e+2, -716009.9, -202475.28, -62818.88, 0.066705935, -0.41537753, -194902.53, -194902.53, 0.0, 9.994481, 10.001264 
2.2848365e+3, 3.1581986e+2, -787472.75, -206980.86, 132745.75, -0.03459952, -0.5328396, -178065.19, -178065.19, 0.0, 9.993841, 10.00155 
2.2953342e+3, 1.5586643e+2, -996724.1, -1224912.3, 240731.94, 0.039515898, -0.21813856, -844417.5, 568047.6, 0.49156922, 10.00575, 9.999826 
2.2953098e+3, 1.6585773e+2, -438018.88, -1337663.3, 62690.156, -0.05653989, -0.76353776, -433671.44, 880875.75, 0.26581615, 10.010807, 9.994706 
2.295281e+3, 1.7585653e+2, -573626.5, -1427535.6, 16025.34, -0.08697778, -0.35668173, -573325.9, 643239.4, 0.112173386, 10.007422, 9.995036 
2.295251e+3, 1.8585399e+2, -495080.7, -1026348.0, -75136.53, -0.034221075, -0.27800345, -484658.7, 633932.56, 0.033034, 10.0054, 9.998109 
2.2952205e+3, 1.9585046e+2, -514424.47, -990778.0, -68545.79, 0.06457278, -0.4389641, -504757.13, 515865.75, 0.0053489017, 10.004464, 9.998111 
2.2951877e+3, 2.0584854e+2, -490059.6, -833491.6, -107529.41, 0.03821165, -0.48064753, -459170.2, 463470.06, 0.00018505024, 10.003529, 9.998966 
2.2951537e+3, 2.1584786e+2, -547488.5, -818040.75, -99440.586, -0.07389699, -0.4427997, -514871.66, 309774.7, 0.0, 10.002491, 9.9989 
2.2951208e+3, 2.2584699e+2, -566675.06, -717408.7, -80717.805, -0.08761193, -0.43960536, -531608.56, 195045.98, 0.0, 10.001433, 9.999427 
2.295089e+3, 2.3584612e+2, -629584.3, -700315.7, -85415.586, -0.031114902, -0.46687526, -572502.44, 56160.33, 0.0, 10.000341, 9.999397 
2.2950566e+3, 2.4584565e+2, -596035.5, -518668.06, -97880.664, -0.0038582205, -0.4991258, -452104.2, 78562.125, 0.0, 9.999407, 10.000422 
2.2950236e+3, 2.558456e+2, -628384.2, -493709.6, -78625.89, -0.0025194008, -0.5426816, -457527.13, -24862.025, 0.0, 9.998553, 10.000332 
2.2949915e+3, 2.6584625e+2, -643076.9, -416124.13, -35228.58, -0.0037762474, -0.51607203, -410781.56, -76123.98, 0.0, 9.997636, 10.000632 
2.2949594e+3, 2.758476e+2, -688277.8, -396440.34, -23714.623, 0.0069477214, -0.438921, -394525.88, -157882.3, 0.0, 9.996691, 10.000552 
2.294928e+3, 2.858478e+2, -671404.25, -283858.22, -22509.332, 0.03155033, -0.4917643, -282555.22, -143913.98, 0.0, 9.995904, 10.00103 
2.294896e+3, 2.9584712e+2, -694601.56, -266953.44, -43901.223, 0.017429763, -0.6625843, -262493.16, -221845.56, 0.0, 9.995169, 10.000829 
2.2948635e+3, 3.0585065e+2, -676065.6, -123420.63, -82675.11, 0.030995794, -0.4269443, -111317.586, -111317.586, 0.0, 9.9944935, 10.001802 
2.2948296e+3, 3.1585202e+2, -689234.3, -1105.7938, 78012.7, -0.09061948, -0.48348698, 7627.618, 7627.618, 0.0, 9.993845, 10.0029545 
2.3053208e+3, 1.6588923e+2, -413182.3, -1323335.5, 16947.98, -0.042777024, -0.73748815, -412866.84, 901371.1, 0.2812833, 10.0112915, 9.99456 
2.3052894e+3, 1.7588724e+2, -343598.9, -1302107.3, 30268.291, -0.09061213, -0.39684564, -342644.03, 873619.0, 0.11791488, 10.00926, 9.995011 
2.3052569e+3, 1.858848e+2, -247002.27, -872172.75, -9089.994, -0.044150557, -0.32502732, -246870.13, 871417.44, 0.03430682, 10.007018, 9.9984255 
2.3052245e+3, 1.9588193e+2, -530911.5, -966847.2, -4850.044, 0.058245134, -0.45254302, -530857.56, 489455.3, 0.0054344675, 10.004212, 9.998397 
2.3051909e+3, 2.0588033e+2, -587334.25, -872368.0, -10623.765, 0.039599888, -0.47679052, -586938.9, 335388.8, 0.00018017596, 10.002824, 9.999039 
2.3051563e+3, 2.1587978e+2, -553023.6, -811342.3, -13955.213, -0.06095962, -0.432688, -552271.9, 272061.66, 0.0, 10.002413, 9.998983 
2.3051223e+3, 2.2587888e+2, -559180.44, -693562.56, -6213.728, -0.07541177, -0.44301555, -558893.75, 167448.02, 0.0, 10.001396, 9.999608 
2.3050891e+3, 2.3587792e+2, -679223.2, -706324.7, 10235.872, -0.024659118, -0.49686053, -675791.7, -47441.723, 0.0, 9.999922, 9.999559 
2.3050559e+3, 2.4587761e+2, -647847.7, -543775.9, 11993.383, 0.0028400754, -0.51844496, -542411.6, -12059.497, 0.0, 9.999048, 10.0004225 
2.3050225e+3, 2.5587794e+2, -623206.1, -490323.28, -961.923, 0.008935256, -0.5243213, -490316.3, -57968.008, 0.0, 9.998583, 10.000342 
2.304989e+3, 2.6587853e+2, -606208.56, -383645.53, 16103.315, 0.0018327519, -0.5116586, -382486.44, -48144.98, 0.0, 9.997824, 10.000766 
2.3049563e+3, 2.758795e+2, -658498.9, -368634.3, 21518.65, 0.0050973343, -0.48458642, -367045.53, -130715.336, 0.0, 9.996837, 10.000672 
2.3049238e+3, 2.8588006e+2, -678876.2, -289529.06, 34718.445, 0.021682017, -0.5054827, -286457.44, -148132.77, 0.0, 9.995861, 10.001013 
2.3048909e+3, 2.9588026e+2, -735298.5, -281636.22, 30927.479, -0.0012845921, -0.58570194, -279537.53, -239214.02, 0.0, 9.994866, 10.000875 
2.3048581e+3, 3.058828e+2, -686020.3, -104805.65, 19368.28, 0.055413187, -0.46269557, -104160.94, -104160.94, 0.0, 9.994313, 10.002024 
2.3048237e+3, 3.1588432e+2, -694099.25, -19098.688, 55098.402, -0.06904251, -0.5226162, -14630.734, -14630.734, 0.0, 9.993887, 10.002809 
2.3153318e+3, 1.659252e+2, -375571.8, -1236760.0, -35279.47, -0.07353709, -0.31638116, -374128.97, 939762.44, 0.28348204, 10.011298, 9.995355 
2.3152994e+3, 1.759186e+2, -307974.53, -1195359.8, -23671.49, -0.008426706, -0.5160445, -307343.53, 908611.0, 0.117905855, 10.009153, 9.9958105 
2.3152642e+3, 1.8591559e+2, -244490.14, -847798.25, -107350.88, -0.01309548, -0.552263, -225957.72, 892024.44, 0.033833914, 10.006929, 9.998641 
2.3152275e+3, 1.9591488e+2, -519532.38, -942037.0, -96326.055, -0.06028542, -0.48317122, -498607.5, 521379.4, 0.0052236165, 10.004206, 9.998572 
2.3151928e+3, 2.059139e+2, -588899.4, -877712.8, -23448.514, -0.037343983, -0.45247406, -587008.0, 334988.88, 0.00016225579, 10.002832, 9.998998 
2.3151594e+3, 2.1591285e+2, -556821.3, -812978.06, -28627.014, 0.03123659, -0.45501494, -553661.06, 270347.84, 0.0, 10.002384, 9.998987 
2.3151246e+3, 2.2591203e+2, -532323.2, -633745.8, -60261.31, 0.013297985, -0.47982484, -504275.0, 221740.97, 0.0, 10.001378, 10.00003 
2.3150887e+3, 2.3591156e+2, -654427.0, -655495.8, -40706.73, -0.060800016, -0.52657413, -614251.2, 13766.942, 0.0, 9.999923, 9.999909 
2.3150544e+3, 2.4591173e+2, -674677.56, -601215.25, -6354.7646, -0.035358556, -0.49542475, -600669.6, -70653.0, 0.0, 9.999055, 10.000026 
2.3150213e+3, 2.5591254e+2, -647499.75, -543223.2, -20175.979, 0.049126543, -0.41267422, -539455.56, -107445.02, 0.0, 9.998592, 9.999975 
2.314987e+3, 2.6591247e+2, -602032.2, -376027.97, -22512.908, 0.022197725, -0.45133358, -373807.22, -39796.87, 0.0, 9.997827, 10.000818 
2.3149525e+3, 2.759119e+2, -652877.9, -358587.78, -15230.688, -0.059947837, -0.58658636, -357801.66, -121788.58, 0.0, 9.996841, 10.00074 
2.314919e+3, 2.859129e+2, -660904.0, -252833.5, -2343.7158, -0.04951346, -0.57843465, -252820.05, -114817.66, 0.0, 9.995862, 10.001265 
2.3148853e+3, 2.9591534e+2, -700278.56, -213325.05, -2236.9106, -0.044064343, -0.45777202, -213314.78, -173336.06, 0.0, 9.994883, 10.001337 
2.314853e+3, 3.0591667e+2, -689109.75, -113012.195, 10853.87, 0.1196789, -0.4906634, -112807.78, -112807.78, 0.0, 9.994317, 10.001967 
2.3148173e+3, 3.1591803e+2, -798800.7, -234676.6, -72337.8, -0.07276736, -0.5233717, -225548.4, -225548.4, 0.0, 9.993883, 10.0013275 
2.3253445e+3, 1.6596077e+2, -104417.836, -1089249.4, -1591.0563, -0.0448094, -0.24764085, -104415.266, 1209127.8, 0.27094337, 10.013572, 9.995633 
2.3253076e+3, 1.7595379e+2, -547405.8, -1297610.0, -86.1683, 0.020319177, -0.51054764, -547405.8, 668203.5, 0.11178799, 10.007135, 9.996058 
2.32527e+3, 1.8595064e+2, -556965.8, -999060.75, -8751.089, -0.00437887, -0.57048166, -556792.6, 560845.2, 0.03165048, 10.004696, 9.99864 
2.3252317e+3, 1.9594999e+2, -424523.8, -895269.7, -7856.2163, -0.08547833, -0.49635956, -424392.72, 595248.94, 0.004758803, 10.004857, 9.99858 
2.3251958e+3, 2.0594887e+2, -463071.66, -833499.75, 56542.953, -0.061356492, -0.4684769, -454633.03, 467019.88, 0.0001356785, 10.003767, 9.998853 
2.3251617e+3, 2.1594758e+2, -660041.6, -875628.9, 44752.863, 0.034034964, -0.47858536, -651120.75, 172547.2, 0.0, 10.00173, 9.998873 
2.3251258e+3, 2.2594689e+2, -618834.7, -669697.2, 10223.93, 0.026766125, -0.4908443, -616856.5, 108817.78, 0.0, 10.000756, 10.000083 
2.3250891e+3, 2.3594671e+2, -568087.75, -608877.5, 3733.6555, -0.046671193, -0.5109306, -567748.8, 59924.305, 0.0, 10.000493, 9.999954 
2.3250537e+3, 2.4594681e+2, -594803.94, -573913.75, 41483.29, -0.034796238, -0.4829022, -541580.8, -11908.432, 0.0, 9.999651, 9.999926 
2.3250195e+3, 2.5594732e+2, -685133.44, -572695.44, 49448.805, 0.029878134, -0.4215957, -554042.8, -122373.086, 0.0, 9.998383, 9.999874 
2.3249844e+3, 2.6594722e+2, -659687.8, -415009.44, 51853.137, 0.0015261889, -0.4490161, -404474.16, -70804.24, 0.0, 9.9974785, 10.000718 
2.3249489e+3, 2.7594683e+2, -667560.9, -375435.5, 43764.887, -0.06834214, -0.55772215, -369019.75, -133348.19, 0.0, 9.996781, 10.000654 
2.3249145e+3, 2.8594765e+2, -655422.0, -244308.77, 39961.77, -0.05553313, -0.565015, -240460.36, -102797.586, 0.0, 9.995874, 10.001318 
2.32488e+3, 2.9594997e+2, -695178.8, -199481.84, 24531.793, -0.051101454, -0.46342084, -198270.73, -158630.33, 0.0, 9.994872, 10.001436 
2.324847e+3, 3.0595168e+2, -727880.44, -129420.984, 36176.848, 0.09706022, -0.4632098, -127242.03, -127242.03, 0.0, 9.994042, 10.0019865 
2.3248105e+3, 3.1595325e+2, -826152.1, -190891.6, -37558.09, -0.12901604, -0.47386992, -188678.78, -188678.78, 0.0, 9.993458, 10.00183 
2.3354013e+3, 1.5600011e+2, -1115208.5, -1165505.9, 45373.094, -0.12077674, -0.28115246, -1088480.6, 322675.88, 0.46380287, 10.003025, 10.0017395 
2.3353587e+3, 1.6599599e+2, -116426.82, -1123766.6, -185284.75, 0.018013872, -0.48438314, -83427.55, 1229765.5, 0.24613625, 10.0131855, 9.995433 
2.3353142e+3, 1.7599237e+2, -560343.5, -1342605.0, -192357.16, -0.010787612, -0.39056808, -515602.06, 699629.8, 0.10058881, 10.007109, 9.9957905 
2.3352744e+3, 1.8598945e+2, -560690.2, -1019967.8, -666.6217, -0.023585452, -0.40164965, -560689.25, 556569.94, 0.028090905, 10.004739, 9.998467 
2.3352371e+3, 1.9598694e+2, -441143.16, -920050.7, -3388.6604, -0.031422615, -0.49793237, -441119.2, 578160.44, 0.00411411, 10.00481, 9.998432 
2.3351997e+3, 2.059851e+2, -485991.84, -871920.94, -18690.537, -0.04249169, -0.5237456, -485088.78, 436208.7, 0.00010616724, 10.003726, 9.99861 
2.3351623e+3, 2.1598387e+2, -677273.1, -911215.75, -21742.896, -0.054604143, -0.5042272, -675269.5, 148042.84, 0.0, 10.001728, 9.998631 
2.3351258e+3, 2.2598329e+2, -638098.4, -711926.56, 1709.7035, -0.0338644, -0.47656992, -638058.75, 87259.18, 0.0, 10.000765, 9.999789 
2.33509e+3, 2.3598331e+2, -585591.1, -644385.25, -8240.223, 0.009408988, -0.45072755, -584458.06, 42857.887, 0.0, 10.000488, 9.999714 
2.3350537e+3, 2.4598283e+2, -581552.7, -545928.44, -7430.6924, -0.0016187066, -0.48057085, -544440.6, -15120.636, 0.0, 9.999648, 10.00012 
2.335017e+3, 2.559822e+2, -673288.2, -549518.75, 4124.724, -0.055254288, -0.550221, -549381.44, -118055.17, 0.0, 9.998387, 10.000031 
2.3349813e+3, 2.6598278e+2, -677539.25, -453140.72, 25035.553, -0.061616156, -0.5046756, -450381.5, -117060.91, 0.0, 9.997481, 10.000456 
2.3349462e+3, 2.7598426e+2, -682150.2, -410390.38, 15441.808, -0.023237562, -0.3994398, -409515.75, -174209.47, 0.0, 9.996799, 10.000406 
2.334911e+3, 2.859843e+2, -665920.44, -268736.44, 160.26198, -0.0017271509, -0.46182734, -268736.38, -131430.42, 0.0, 9.995884, 10.001146 
2.334875e+3, 2.9598406e+2, -715457.0, -242943.88, -10051.075, -0.03881004, -0.5969467, -242730.17, -203421.38, 0.0, 9.994875, 10.001138 
2.3348399e+3, 3.059876e+2, -721992.1, -115563.18, 2466.077, -0.0046464084, -0.39994696, -115553.15, -115553.15, 0.0, 9.994035, 10.002086 
2.3348044e+3, 3.1598836e+2, -676248.2, 104714.43, 63061.387, -0.06420986, -0.5261588, 109773.75, 109773.75, 0.0, 9.993506, 10.003846 
2.3454082e+3, 1.5603603e+2, -842496.0, -1584530.0, 17165.9, -0.05933943, -0.75997984, -842099.1, 568700.2, 0.4068382, 10.009391, 9.99434 
2.345368e+3, 1.6603348e+2, -878057.5, -1493460.6, -242106.84, 0.026129209, -0.53734237, -794228.8, 518595.22, 0.21393465, 10.005792, 9.996134 
2.3453218e+3, 1.7603104e+2, -425877.66, -1218218.6, -173268.0, -0.008145039, -0.3929084, -389644.56, 825207.44, 0.08628548, 10.007787, 9.996311 
2.3452802e+3, 1.8602827e+2, -304147.47, -935830.7, 47302.727, -0.018662209, -0.38804948, -300624.94, 816253.75, 0.023687152, 10.006701, 9.99811 
2.3452415e+3, 1.9602531e+2, -634105.2, -1047785.2, 34580.24, -0.019111695, -0.49179256, -631234.44, 387669.88, 0.003370185, 10.003629, 9.998119 
2.3452029e+3, 2.0602332e+2, -676867.25, -970785.25, 40682.6, -0.038046647, -0.51670665, -671340.1, 249583.64, 0.000077848636, 10.002445, 9.998547 
2.3451643e+3, 2.1602207e+2, -569389.7, -866813.1, 50301.8, -0.06518393, -0.48939425, -561112.7, 261824.97, 0.0, 10.002502, 9.998561 
2.3451267e+3, 2.2602125e+2, -537983.06, -693228.2, 81713.03, -0.047910754, -0.46957317, -502901.22, 222044.5, 0.0, 10.001581, 9.999524 
2.34509e+3, 2.360208e+2, -678378.94, -716504.25, 75154.37, 0.0024782775, -0.4611679, -619907.3, 7041.167, 0.0, 9.99997, 9.999468 
2.345053e+3, 2.4602008e+2, -662548.75, -605396.0, 68155.09, -0.0063241553, -0.49343696, -560068.9, -31113.83, 0.0, 9.99918, 9.999938 
2.3450156e+3, 2.5601935e+2, -607057.75, -535618.75, 50115.516, -0.05668067, -0.55635744, -509796.0, -78833.53, 0.0, 9.99892, 9.99987 
2.344979e+3, 2.660198e+2, -582070.44, -422589.72, 63218.695, -0.059570093, -0.50667226, -400569.94, -67611.84, 0.0, 9.998204, 10.000318 
2.3449431e+3, 2.7602124e+2, -638673.56, -402433.38, 60822.58, -0.01888819, -0.3929136, -387693.6, -152748.77, 0.0, 9.997156, 10.000289 
2.344907e+3, 2.8602126e+2, -638972.3, -269615.84, 47269.066, -0.0023048033, -0.44638836, -263662.47, -126717.44, 0.0, 9.99613, 10.00102 
2.3448698e+3, 2.960208e+2, -703956.3, -266319.6, 41906.133, -0.028291985, -0.5884712, -262343.0, -223393.06, 0.0, 9.995079, 10.000879 
2.3448335e+3, 3.0602387e+2, -709520.9, -133535.77, 49869.82, -0.051682502, -0.4090186, -129249.836, -129249.836, 0.0, 9.994225, 10.00187 
2.3447986e+3, 3.160249e+2, -731347.9, 143618.73, 94144.42, 0.03078677, -0.50134635, 153633.83, 153633.83, 0.0, 9.992853, 10.004425 
2.355417e+3, 1.560752e+2, -607760.94, -1113295.0, -245145.0, -0.11882497, -0.4055828, -508409.75, 902008.9, 0.34622183, 10.009106, 9.998787 
2.3553734e+3, 1.6607292e+2, -771802.56, -1275554.3, -169538.23, -0.023134418, -0.43207255, -720059.1, 592379.4, 0.17957751, 10.005755, 9.997618 
2.3553295e+3, 1.7606972e+2, -352209.4, -1062702.9, -121324.766, 0.018291939, -0.50992876, -332063.1, 882407.5, 0.07105473, 10.007662, 9.997497 
2.3552871e+3, 1.8606706e+2, -350790.9, -1018783.7, -65825.91, 0.0029542227, -0.5141312, -344366.03, 772130.75, 0.019017864, 10.006608, 9.997569 
2.3552446e+3, 1.9606498e+2, -666734.44, -1117953.8, -65260.15, -0.05237122, -0.47663438, -657485.44, 361031.84, 0.0025995278, 10.003634, 9.997636 
2.3552051e+3, 2.0606333e+2, -665483.5, -953163.7, 44421.656, -0.049107496, -0.45044076, -658780.4, 261753.0, 0.000052233427, 10.002469, 9.998656 
2.3551673e+3, 2.1606207e+2, -567584.4, -856974.6, 49440.508, -0.00863037, -0.43606776, -559370.9, 263174.6, 0.0, 10.002475, 9.998643 
2.3551287e+3, 2.2606061e+2, -557158.25, -729421.1, 21677.729, -0.022844486, -0.4701357, -554472.2, 170086.61, 0.0, 10.001563, 9.999285 
2.3550893e+3, 2.3605913e+2, -696186.56, -755920.44, 20575.697, -0.07250573, -0.5421778, -689785.1, -63213.418, 0.0, 9.999979, 9.999194 
2.3550518e+3, 2.4605852e+2, -699915.4, -686572.3, 57401.973, -0.05028322, -0.5198483, -635455.44, -106877.2, 0.0, 9.999193, 9.999375 
2.3550151e+3, 2.5605866e+2, -639170.2, -606003.0, 37159.96, 0.015919201, -0.43987933, -581894.1, -151315.13, 0.0, 9.998934, 9.999381 
2.3549777e+3, 2.6605827e+2, -581773.5, -423753.3, 21986.428, 0.0028224152, -0.4565421, -420751.22, -88168.09, 0.0, 9.998211, 10.000306 
2.3549399e+3, 2.7605766e+2, -636889.06, -400527.56, 21575.598, -0.06015938, -0.54173416, -398574.22, -163986.22, 0.0, 9.997163, 10.000299 
2.3549023e+3, 2.860584e+2, -642824.75, -279005.75, 7493.2964, -0.06275057, -0.52023715, -278851.47, -142271.19, 0.0, 9.996135, 10.000955 
2.3548649e+3, 2.9606017e+2, -715183.8, -297630.28, 5778.6543, -0.035436902, -0.43453768, -297550.34, -258986.98, 0.0, 9.995111, 10.00065 
2.3548278e+3, 3.0606034e+2, -748448.4, -219563.38, 19190.758, -0.03220901, -0.49445608, -218867.94, -218867.94, 0.0, 9.994245, 10.001271 
2.3547906e+3, 3.1606278e+2, -811824.7, -9685.247, -69280.32, -0.050032884, -0.3997843, -3745.5295, -3745.5295, 0.0, 9.992804, 10.003391 
2.3654756e+3, 1.4611554e+2, -1134287.6, -1321934.8, -132597.84, -0.16823871, -0.3341371, -1065676.5, 442351.94, 0.46357322, 10.004826, 10.000106 
2.3654243e+3, 1.5611552e+2, -848166.9, -1167727.4, -198859.58, -0.10553501, -0.3361763, -752849.4, 657174.9, 0.28965273, 10.00569, 9.999659 
2.3653784e+3, 1.6611344e+2, -750593.94, -1214335.3, -49112.906, -0.054528527, -0.41149077, -745449.7, 566592.5, 0.14722827, 10.005462, 9.998219 
2.3653352e+3, 1.7611036e+2, -726195.44, -1196683.8, -49035.496, -0.016467132, -0.5336208, -721139.2, 492931.88, 0.056641925, 10.004611, 9.997972 
2.3652923e+3, 1.861078e+2, -684312.0, -1220515.1, -57171.793, -0.016754258, -0.52903867, -678283.94, 437813.13, 0.014571083, 10.004427, 9.997221 
2.3652488e+3, 1.9610581e+2, -530487.06, -1087466.3, -42661.7, -0.041550487, -0.44586113, -527238.3, 490880.63, 0.0018678865, 10.004724, 9.99732 
2.3652083e+3, 2.06104e+2, -493413.28, -864536.6, 78924.055, -0.02621253, -0.4241648, -477326.4, 442810.2, 0.000030235551, 10.003629, 9.998706 
2.3651694e+3, 2.1610239e+2, -687973.25, -912767.9, 79906.664, 0.016408032, -0.44860163, -662464.0, 159686.33, 0.0, 10.001639, 9.998662 
2.3651299e+3, 2.2610076e+2, -670380.4, -817965.6, 58245.113, -0.01645458, -0.4834606, -650163.2, 74001.875, 0.0, 10.000935, 9.99898 
2.3650897e+3, 2.360992e+2, -558512.7, -721060.5, 52529.168, -0.095261715, -0.5311771, -543014.9, 83164.45, 0.0, 10.001062, 9.998911 
2.3650512e+3, 2.460984e+2, -565335.4, -644676.4, 99004.08, -0.06659731, -0.5017158, -498349.6, 29838.21, 0.0, 10.000218, 9.999168 
2.3650141e+3, 2.560983e+2, -685734.2, -650054.6, 104432.65, 0.030461332, -0.42494994, -561949.0, -131758.1, 0.0, 9.99871, 9.999186 
2.3649758e+3, 2.6609766e+2, -665229.8, -481413.28, 93801.99, 0.013069835, -0.44763544, -441997.72, -109799.92, 0.0, 9.997717, 10.000148 
2.3649368e+3, 2.760968e+2, -665887.9, -431195.72, 80043.61, -0.067940176, -0.5419578, -406495.75, -172289.88, 0.0, 9.99704, 10.000146 
2.3648985e+3, 2.8609762e+2, -614957.56, -274112.13, 58133.715, -0.07584656, -0.5029914, -264469.75, -128272.25, 0.0, 9.9963665, 10.000875 
2.3648602e+3, 2.9609963e+2, -643664.06, -264678.72, 52278.438, -0.057483718, -0.38190755, -257599.5, -219422.31, 0.0, 9.995614, 10.000631 
2.3648228e+3, 3.0609867e+2, -744603.3, -255415.48, 89401.52, 0.021268401, -0.53931624, -239588.95, -239588.95, 0.0, 9.994434, 10.000935 
2.364783e+3, 3.161004e+2, -746567.75, -79326.84, -25904.574, -0.11747011, -0.4721389, -78322.65, -78322.65, 0.0, 9.9936905, 10.002483 
2.3754819e+3, 1.4615776e+2, -1200078.8, -1539068.5, -148647.98, 0.004324238, -0.64262193, -1144130.3, 363479.2, 0.39474615, 10.004694, 9.997785 
2.3754305e+3, 1.5615681e+2, -931147.1, -1408187.3, -198107.98, -0.03824487, -0.50721234, -859604.94, 550013.25, 0.24155483, 10.005648, 9.997494 
2.3753835e+3, 1.6615482e+2, -745701.44, -1233449.0, -78718.3, -0.075981244, -0.46589476, -733311.7, 578324.9, 0.1193348, 10.005432, 9.99806 
2.3753388e+3, 1.7615272e+2, -731322.5, -1218961.9, -75740.055, -0.11200807, -0.47399175, -719829.44, 493826.0, 0.044101443, 10.004599, 9.997823 
2.3752959e+3, 1.8615025e+2, -697544.0, -1249072.3, -45110.504, -0.07656082, -0.4445057, -693878.7, 421802.72, 0.010675698, 10.004413, 9.997032 
2.3752539e+3, 1.9614767e+2, -550094.5, -1118300.9, -37760.68, 0.003296442, -0.4014108, -547596.06, 470114.66, 0.0012329647, 10.004676, 9.997133 
2.3752125e+3, 2.0614518e+2, -498232.13, -868381.75, 4793.4673, 0.023815032, -0.4356403, -498170.06, 421564.28, 0.000013777543, 10.0036, 9.998694 
2.3751709e+3, 2.1614295e+2, -692185.3, -922210.5, 15927.895, 0.00469248, -0.5229656, -691087.6, 130665.1, 0.0, 10.001641, 9.998597 
2.3751307e+3, 2.261416e+2, -694159.7, -871220.06, 63803.383, -0.030700393, -0.50555146, -673563.94, 50201.027, 0.0, 10.000949, 9.998608 
2.3750906e+3, 2.3614094e+2, -580337.3, -765987.94, 51797.203, -0.07415416, -0.42867878, -566863.6, 58908.574, 0.0, 10.001058, 9.998606 
2.3750512e+3, 2.4613966e+2, -555632.4, -624482.7, 40615.0, -0.059805404, -0.44130105, -536815.94, -9031.276, 0.0, 10.0002165, 9.999309 
2.3750122e+3, 2.561382e+2, -678565.06, -637437.2, 50653.19, -0.018033521, -0.5115398, -603332.8, -173534.08, 0.0, 9.998718, 9.9992695 
2.3749729e+3, 2.66138e+2, -686766.3, -528554.44, 66917.06, -0.03235725, -0.4782932, -504047.44, -172244.86, 0.0, 9.997724, 9.999822 
2.3749338e+3, 2.761386e+2, -686558.25, -479749.84, 55384.855, -0.059041534, -0.39366883, -465851.38, -232052.27, 0.0, 9.997061, 9.999804 
2.374895e+3, 2.861388e+2, -621544.4, -292012.8, 28096.36, -0.042365294, -0.39381585, -289634.44, -153837.02, 0.0, 9.996384, 10.000745 
2.3748554e+3, 2.9613915e+2, -626529.56, -233610.16, 16604.916, -0.07492424, -0.42613852, -232909.69, -195117.63, 0.0, 9.995631, 10.000837 
2.3748174e+3, 3.0613872e+2, -741882.5, -249126.52, 39744.4, 0.07068893, -0.5561639, -245941.42, -245941.42, 0.0, 9.994431, 10.000979 
2.374777e+3, 3.1613982e+2, -712524.0, -37030.547, 17519.293, -0.07359497, -0.5274547, -36576.48, -36576.48, 0.0, 9.993791, 10.002736 
2.3855285e+3, 1.3620839e+2, -1323663.3, -1809135.5, 183108.81, -0.059742983, -0.2993236, -1262344.0, 342767.22, 0.48251003, 10.005904, 9.996053 
2.3854853e+3, 1.4620107e+2, -1326985.4, -1697181.1, -216151.23, -0.05443139, -0.6833624, -1227508.9, 279674.53, 0.34098035, 10.003471, 9.997259 
2.3854363e+3, 1.5619984e+2, -995493.3, -1513130.1, -168354.2, 0.0063424646, -0.52375245, -945555.94, 463640.3, 0.20319661, 10.005159, 9.996933 
2.3853894e+3, 1.6619748e+2, -770646.0, -1298991.6, -54648.63, -0.027254876, -0.4660802, -765052.75, 546166.44, 0.096742734, 10.005368, 9.997576 
2.3853435e+3, 1.7619504e+2, -706457.44, -1253475.5, -72351.195, -0.12230777, -0.45904756, -697049.75, 516192.28, 0.033852093, 10.004933, 9.997422 
2.3853001e+3, 1.8619247e+2, -702781.8, -1216536.4, -17846.875, -0.09082192, -0.43829396, -702162.56, 413105.75, 0.007498392, 10.004217, 9.997348 
2.3852581e+3, 1.9618993e+2, -725695.1, -1178602.4, 18701.098, 0.022914294, -0.42122632, -724924.25, 292371.56, 0.00073588756, 10.003365, 9.997348 
2.3852156e+3, 2.0618746e+2, -641841.3, -984175.2, 31230.4, 0.029530453, -0.44046077, -639015.56, 280304.47, 0.000004432612, 10.002817, 9.998275 
2.3851725e+3, 2.1618521e+2, -596718.5, -918305.8, 14943.717, -0.03197974, -0.4854557, -596025.6, 225314.5, 0.0, 10.00248, 9.9982195 
2.3851316e+3, 2.2618356e+2, -588092.8, -828145.25, 88103.75, -0.054892536, -0.47591075, -559227.94, 164127.27, 0.0, 10.001713, 9.998536 
2.3850918e+3, 2.3618244e+2, -642734.6, -804750.1, 94864.17, -0.048528433, -0.43739098, -598996.75, 26369.057, 0.0, 10.000668, 9.998528 
2.3850515e+3, 2.4618101e+2, -621564.2, -667540.06, 60793.934, -0.04273735, -0.45534313, -579557.1, -52177.46, 0.0, 9.999817, 9.999204 
2.3850107e+3, 2.561796e+2, -632286.25, -625354.3, 52860.105, -0.042732403, -0.51264566, -575846.7, -146452.6, 0.0, 9.9990835, 9.999175 
2.3849706e+3, 2.6617944e+2, -603150.75, -489898.3, 89280.68, -0.058100674, -0.46476242, -440800.5, -109403.35, 0.0, 9.998309, 9.999804 
2.3849311e+3, 2.7618024e+2, -630058.06, -455535.13, 98854.234, -0.0576117, -0.36054996, -410937.84, -177545.77, 0.0, 9.997465, 9.999775 
2.3848917e+3, 2.8618023e+2, -611224.0, -295555.88, 82546.41, -0.031685617, -0.3712151, -275273.38, -139881.0, 0.0, 9.996493, 10.000667 
2.3848511e+3, 2.961802e+2, -652254.44, -249492.64, 70349.125, -0.06490705, -0.4387763, -237558.6, -200166.73, 0.0, 9.995474, 10.000803 
2.384812e+3, 3.061807e+2, -660464.75, -157784.77, 85035.09, 0.07191547, -0.4986538, -143789.58, -143789.58, 0.0, 9.994768, 10.001442 
2.3847705e+3, 3.1618416e+2, -691180.25, 80745.914, 63501.555, -0.110212296, -0.2703203, 85934.914, 85934.914, 0.0, 9.993485, 10.003688 
2.3955363e+3, 1.3624845e+2, -1185579.4, -1487782.5, -24512.734, 0.15301163, -0.3739684, -1183604.0, 421117.47, 0.43457124, 10.005817, 9.998688 
2.3954861e+3, 1.4624527e+2, -1245497.4, -1547668.6, -153798.39, -0.30925307, -0.51548624, -1180988.9, 325762.9, 0.3006556, 10.003561, 9.998218 
2.3954414e+3, 1.562444e+2, -938947.7, -1406537.6, -128187.71, 0.025747439, -0.41131952, -906111.5, 502648.63, 0.17387262, 10.005127, 9.9976635 
2.3953955e+3, 1.6624127e+2, -817773.3, -1417228.6, -72126.76, 0.073330805, -0.417199, -809217.06, 501574.0, 0.07923406, 10.005318, 9.996787 
2.3953488e+3, 1.7623731e+2, -751577.56, -1350020.0, -89308.31, -0.06529348, -0.4830549, -738534.0, 474296.38, 0.025875734, 10.004893, 9.99678 
2.3953044e+3, 1.862345e+2, -652076.3, -1108469.9, -48854.65, -0.06839021, -0.501394, -646905.25, 467952.13, 0.005072368, 10.004196, 9.998101 
2.3952612e+3, 1.9623254e+2, -688262.3, -1099377.1, -10798.151, 0.01371718, -0.49982527, -687978.9, 328896.3, 0.00039055978, 10.003355, 9.997898 
2.3952177e+3, 2.0623067e+2, -698057.56, -1101946.8, 18479.395, -0.008291298, -0.43672878, -697213.8, 221680.98, 0.00000085980406, 10.002819, 9.997467 
2.3951744e+3, 2.1622904e+2, -646694.6, -1019750.5, 1991.0956, -0.09693095, -0.34171727, -646684.0, 174229.75, 0.0, 10.002467, 9.99753 
2.3951328e+3, 2.2622654e+2, -574024.7, -797852.56, 49831.18, -0.091169186, -0.3992061, -563432.0, 159504.77, 0.0, 10.001706, 9.998748 
2.3950925e+3, 2.3622367e+2, -633882.6, -786437.06, 57296.445, -0.02606876, -0.5539979, -614760.1, 10200.62, 0.0, 10.000667, 9.998655 
2.3950516e+3, 2.4622242e+2, -645697.4, -719856.2, 31695.266, -0.01979948, -0.5392627, -633996.94, -107023.65, 0.0, 9.999823, 9.998843 
2.3950097e+3, 2.562223e+2, -650207.25, -665534.6, 24675.973, -0.05233807, -0.4274312, -632032.3, -203054.8, 0.0, 9.999093, 9.998896 
2.3949687e+3, 2.6622194e+2, -581565.5, -447682.75, 56044.313, -0.066366374, -0.4078747, -427319.4, -96337.13, 0.0, 9.998319, 10.00009 
2.3949285e+3, 2.7622166e+2, -605429.56, -410010.2, 65123.137, -0.06375936, -0.44167402, -390296.7, -157311.61, 0.0, 9.997487, 10.000077 
2.3948877e+3, 2.8622192e+2, -611937.0, -300023.72, 42565.5, -0.050327405, -0.43884778, -294319.3, -159336.4, 0.0, 9.996504, 10.000632 
2.3948464e+3, 2.9622248e+2, -672518.44, -295123.3, 38416.94, -0.052459534, -0.44028658, -291252.38, -254273.64, 0.0, 9.995486, 10.000485 
2.3948064e+3, 3.062248e+2, -603789.9, -44748.93, 56623.914, 0.042654622, -0.3297301, -39071.29, -39071.29, 0.0, 9.994785, 10.002213 
2.3947637e+3, 3.162272e+2, -804258.25, -156118.88, -150419.73, -0.13594641, -0.3096059, -122911.0, -122911.0, 0.0, 9.993493, 10.002059 
2.405542e+3, 1.3629124e+2, -1215591.4, -1498786.6, -26099.398, 0.17722839, -0.4200375, -1213206.1, 391097.38, 0.40038243, 10.005119, 9.998818 
2.4054904e+3, 1.462895e+2, -1090053.1, -1447952.5, -88914.91, -0.280235, -0.42381322, -1069180.8, 437139.28, 0.27111772, 10.00484, 9.99829 
2.405446e+3, 1.5628813e+2, -954952.44, -1409865.9, -117379.766, 0.009520796, -0.37683812, -926451.0, 481881.8, 0.15197618, 10.004847, 9.997765 
2.4054004e+3, 1.6628486e+2, -904088.3, -1470224.3, -77659.85, 0.059180282, -0.40068856, -893628.56, 416736.66, 0.066034794, 10.004654, 9.996741 
2.4053535e+3, 1.7628089e+2, -834374.8, -1398562.3, -48899.133, -0.0481745, -0.46449444, -830168.0, 382237.1, 0.019897886, 10.004322, 9.996719 
2.4053083e+3, 1.8627796e+2, -701841.6, -1138911.9, -28491.777, -0.05406246, -0.48675007, -699992.1, 414440.8, 0.0033305348, 10.003877, 9.998044 
2.4052644e+3, 1.9627589e+2, -684463.6, -1103338.4, -46699.297, 0.0048500923, -0.48818403, -679320.4, 337130.72, 0.00018027515, 10.003409, 9.997844 
2.4052204e+3, 2.0627391e+2, -679467.9, -1092149.9, 5892.3276, -0.021508303, -0.43486723, -679383.75, 239087.86, 0.000000053009718, 10.002947, 9.997472 
2.4051768e+3, 2.1627212e+2, -641899.0, -1018058.94, 40853.39, -0.098660864, -0.35432035, -637513.2, 182978.8, 0.0, 10.002506, 9.997521 
2.4051346e+3, 2.2626968e+2, -595270.44, -812131.0, 76291.3, -0.08383771, -0.40216848, -571120.56, 151393.97, 0.0, 10.001582, 9.998708 
2.4050933e+3, 2.36267e+2, -680616.8, -813070.56, 68455.73, -0.0088082915, -0.5329719, -651595.7, -27058.871, 0.0, 10.000366, 9.998615 
2.405051e+3, 2.4626571e+2, -686889.56, -743593.2, 68678.0, -0.013888616, -0.5185524, -640941.4, -114391.63, 0.0, 9.9995575, 9.998808 
2.4050085e+3, 2.562654e+2, -669573.5, -679018.1, 83966.14, -0.0691764, -0.4224103, -590197.0, -161641.27, 0.0, 9.99898, 9.9988575 
2.4049668e+3, 2.662648e+2, -591694.4, -453497.5, 105069.52, -0.08064937, -0.42181265, -396841.4, -66279.13, 0.0, 9.998257, 10.000078 
2.404926e+3, 2.762643e+2, -612822.0, -412547.38, 88974.14, -0.054644816, -0.47190788, -378729.9, -146163.64, 0.0, 9.9974375, 10.000082 
2.4048842e+3, 2.862648e+2, -580226.94, -278225.3, 57456.535, -0.04839816, -0.4538161, -267663.47, -133100.72, 0.0, 9.996697, 10.000687 
2.4048418e+3, 2.9626554e+2, -604824.9, -261578.0, 61962.996, -0.0768778, -0.43972522, -250734.95, -214177.22, 0.0, 9.99595, 10.000491 
2.4048012e+3, 3.0626857e+2, -567622.06, -9894.532, 75406.34, 0.048983134, -0.26237127, 120.770615, 120.770615, 0.0, 9.99496, 10.002367 
2.4047583e+3, 3.1626788e+2, -788224.3, -292447.13, -155477.23, -0.037431143, -0.5715125, -247723.48, -247723.48, 0.0, 9.994232, 10.000762 
2.4155949e+3, 1.2633815e+2, -1396837.1, -1726142.9, -514.72095, 0.26034644, -0.5385092, -1396836.3, 305000.66, 0.4918927, 10.005545, 9.997246 
2.4155459e+3, 1.3633615e+2, -1285425.8, -1706457.1, -45662.81, 0.06355531, -0.4434682, -1280530.4, 323332.56, 0.37622496, 10.005079, 9.99695 
2.4154978e+3, 1.4633386e+2, -1110086.8, -1525916.9, -94121.63, -0.033330604, -0.38430682, -1089774.8, 416112.44, 0.2495646, 10.004854, 9.997646 
2.4154505e+3, 1.5633118e+2, -969136.56, -1466257.5, -119869.74, -0.045781624, -0.40763378, -941742.25, 466170.72, 0.1356765, 10.004855, 9.997368 
2.4154039e+3, 1.6632828e+2, -860455.1, -1384122.9, -87859.51, -0.05456589, -0.41432717, -846107.44, 463833.8, 0.056174293, 10.004649, 9.997338 
2.4153574e+3, 1.7632553e+2, -807301.0, -1340076.3, -62171.72, -0.06965159, -0.4123815, -800142.1, 411826.0, 0.015521086, 10.004297, 9.997135 
2.4153122e+3, 1.8632264e+2, -759149.8, -1255606.9, -45252.477, -0.050432228, -0.40292874, -755058.75, 358938.0, 0.0021450834, 10.003859, 9.997253 
2.4152675e+3, 1.9631992e+2, -728994.5, -1193083.1, -61025.215, -0.009763603, -0.39354834, -721104.1, 294919.8, 0.00006995564, 10.003395, 9.997236 
2.4152234e+3, 2.0631714e+2, -629001.25, -985762.44, -8446.898, -0.014551925, -0.43552378, -628801.4, 289249.13, 0.0, 10.002938, 9.998207 
2.4151798e+3, 2.1631448e+2, -603934.5, -934286.1, 22670.814, -0.04840403, -0.51317686, -602385.94, 217689.0, 0.0, 10.002482, 9.99811 
2.4151365e+3, 2.26313e+2, -616178.0, -853961.5, 30875.293, -0.039601065, -0.47639656, -612234.4, 109854.52, 0.0, 10.001573, 9.9984255 
2.4150935e+3, 2.3631233e+2, -695510.2, -844551.9, 26458.83, -0.0019886456, -0.37685433, -690952.4, -66857.375, 0.0, 10.000366, 9.998401 
2.4150506e+3, 2.4631074e+2, -666309.6, -702527.6, 45576.49, -0.026598059, -0.39868757, -635376.25, -109266.03, 0.0, 9.999563, 9.999087 
2.415007e+3, 2.5630873e+2, -654295.3, -650277.75, 60323.863, -0.099398874, -0.49924582, -591929.25, -163799.61, 0.0, 9.99899, 9.999051 
2.4149649e+3, 2.6630798e+2, -613645.7, -501787.47, 72542.6, -0.10541693, -0.5055226, -466116.94, -135979.22, 0.0, 9.998264, 9.999744 
2.4149233e+3, 2.7630824e+2, -632929.94, -458424.22, 58186.633, -0.042619735, -0.44860527, -440802.2, -208665.94, 0.0, 9.997452, 9.999762 
2.4148811e+3, 2.8630877e+2, -567882.5, -254796.17, 27940.996, -0.026718168, -0.41548795, -252322.17, -118189.625, 0.0, 9.996706, 10.000844 
2.4148372e+3, 2.9630932e+2, -573886.9, -204702.89, 32083.832, -0.12875256, -0.4367758, -201935.4, -165806.23, 0.0, 9.995978, 10.000869 
2.4147964e+3, 3.063119e+2, -598620.5, -80722.79, 32177.773, 0.06736266, -0.3094433, -78731.195, -78731.195, 0.0, 9.994984, 10.00187 
2.4147524e+3, 3.163132e+2, -665951.25, -53801.164, 106955.27, -0.04851328, -0.34933326, -35651.96, -35651.96, 0.0, 9.994293, 10.002374 
2.4255942e+3, 1.2638251e+2, -1536922.5, -1864778.4, -82639.91, -0.25575468, -0.5868703, -1517270.1, 184133.28, 0.47493464, 10.003632, 9.9972725 
2.42555e+3, 1.36381e+2, -1297117.6, -1727982.0, -49725.73, 0.003482645, -0.44493976, -1291453.3, 311970.0, 0.35861555, 10.004885, 9.996893 
2.4255034e+3, 1.4637844e+2, -1081205.0, -1544492.6, -58544.344, 0.03317164, -0.39203054, -1073921.5, 431528.72, 0.23339117, 10.005187, 9.997328 
2.425455e+3, 1.5637533e+2, -946157.0, -1478192.3, -64450.27, -0.05869505, -0.4258213, -938460.9, 469019.6, 0.12327165, 10.005087, 9.997154 
2.4254082e+3, 1.6637248e+2, -851076.3, -1364611.9, -53664.824, -0.06736289, -0.42619666, -845528.2, 463980.1, 0.048719704, 10.004625, 9.9974785 
2.4253619e+3, 1.7637004e+2, -843415.5, -1343947.1, -57386.68, -0.033021018, -0.40768507, -836920.3, 374611.88, 0.01233306, 10.00398, 9.99726 
2.4253161e+3, 1.8636727e+2, -798934.3, -1276071.6, -11839.531, -0.031680197, -0.3913626, -798640.7, 314919.16, 0.001370591, 10.003592, 9.99724 
2.4252705e+3, 1.9636452e+2, -734481.5, -1197329.8, 20681.764, -0.045435105, -0.38222536, -733559.2, 282028.7, 0.00002188698, 10.0033655, 9.997219 
2.4252258e+3, 2.063617e+2, -668333.4, -1002494.1, 51266.035, -0.03706722, -0.4256031, -660645.2, 256969.56, 0.0, 10.002661, 9.998224 
2.4251819e+3, 2.1635905e+2, -717034.6, -984924.44, 29773.293, -0.016971352, -0.50362873, -713765.5, 105873.375, 0.0, 10.001694, 9.99814 
2.4251378e+3, 2.263576e+2, -689934.4, -879657.5, 32882.39, -0.015276008, -0.46938705, -684396.94, 37255.344, 0.0, 10.001026, 9.998511 
2.4250938e+3, 2.3635697e+2, -665534.0, -822732.06, 55766.65, -0.017261762, -0.3729214, -647760.2, -24102.455, 0.0, 10.000544, 9.998464 
2.42505e+3, 2.4635535e+2, -607088.9, -682034.94, 79374.86, -0.041581072, -0.39707386, -556786.06, -31112.625, 0.0, 10.000009, 9.999012 
2.4250063e+3, 2.5635323e+2, -593671.1, -627323.5, 65468.047, -0.088216946, -0.50012165, -542901.56, -115207.63, 0.0, 9.999438, 9.99899 
2.4249631e+3, 2.6635256e+2, -573261.5, -483171.84, 70759.08, -0.09689112, -0.4946615, -444336.47, -114635.4, 0.0, 9.9985485, 9.999734 
2.4249206e+3, 2.7635294e+2, -640985.1, -466933.47, 79765.87, -0.048331983, -0.4242313, -435908.06, -204209.72, 0.0, 9.9974165, 9.99972 
2.4248774e+3, 2.863532e+2, -596877.75, -277446.88, 59157.86, -0.034475412, -0.4083261, -266843.0, -133146.03, 0.0, 9.996546, 10.000766 
2.424833e+3, 2.963536e+2, -592797.44, -217496.73, 41813.086, -0.14186692, -0.43798852, -212894.67, -177199.66, 0.0, 9.99587, 10.000831 
2.4247907e+3, 3.0635554e+2, -623175.75, -158934.69, 5407.0327, 0.016692651, -0.3476977, -158871.73, -158871.73, 0.0, 9.995106, 10.001273 
2.4247462e+3, 3.1635672e+2, -599242.4, 163792.75, 196775.56, -0.08284046, -0.33753318, 211549.31, 211549.31, 0.0, 9.993955, 10.004031 
2.4356006e+3, 1.2642784e+2, -1457775.1, -1658422.1, -38312.953, 0.018115334, -0.3753799, -1450708.3, 250258.66, 0.4616749, 10.003784, 9.998803 
2.4355547e+3, 1.3642581e+2, -1228343.9, -1556574.0, -22843.645, -0.029360434, -0.43826005, -1226761.8, 376222.53, 0.34462172, 10.004884, 9.998222 
2.4355076e+3, 1.464232e+2, -1082361.4, -1557682.6, -65500.375, -0.052501794, -0.44463387, -1073500.5, 431509.0, 0.22043833, 10.005141, 9.997265 
2.4354602e+3, 1.5642047e+2, -954443.56, -1496384.0, -72285.78, -0.03879095, -0.43358526, -944967.5, 462069.53, 0.1133878, 10.005024, 9.997063 
2.4354133e+3, 1.6641745e+2, -871818.3, -1406386.5, -77239.32, 0.0011912882, -0.43369207, -860881.8, 448185.47, 0.04291562, 10.004581, 9.997216 
2.4353665e+3, 1.7641449e+2, -854106.56, -1364799.4, -77111.375, 0.046532795, -0.441084, -842717.25, 368379.3, 0.009984851, 10.003962, 9.997128 
2.4353199e+3, 1.8641187e+2, -753344.94, -1181861.8, -18679.191, -0.003112502, -0.44271225, -752532.25, 360589.9, 0.0008776933, 10.003589, 9.9978895 
2.4352732e+3, 1.964096e+2, -704000.25, -1131281.8, 9138.134, -0.104671985, -0.44737592, -703804.9, 311339.03, 0.000005286762, 10.00335, 9.997683 
2.4352281e+3, 2.0640749e+2, -714394.7, -1097305.6, 14633.7295, -0.08908486, -0.40431815, -713836.25, 203329.53, 0.0, 10.002655, 9.997578 
2.4351835e+3, 2.1640565e+2, -753475.44, -1059703.8, -2025.0039, -0.008309637, -0.33757713, -753462.06, 65723.6, 0.0, 10.001687, 9.997632 
2.4351387e+3, 2.2640336e+2, -659494.75, -817481.75, 15831.375, -0.011641896, -0.3892048, -657923.94, 63282.066, 0.0, 10.001029, 9.998938 
2.4350938e+3, 2.3640093e+2, -645017.7, -780397.0, 37438.324, -0.061610676, -0.51472193, -635354.1, -12128.865, 0.0, 10.000542, 9.998756 
2.4350499e+3, 2.463995e+2, -636739.1, -744560.9, 56223.195, -0.06235962, -0.50661236, -612756.25, -87516.64, 0.0, 10.0000105, 9.998583 
2.435006e+3, 2.5639886e+2, -614402.3, -673403.1, 40885.08, -0.04182871, -0.42225593, -593485.8, -166236.55, 0.0, 9.999449, 9.998671 
2.4349621e+3, 2.663985e+2, -550100.7, -436732.47, 26422.248, -0.05620011, -0.38931954, -430876.8, -101623.65, 0.0, 9.998553, 10.000052 
2.4349177e+3, 2.7639836e+2, -621903.0, -431133.84, 37972.7, -0.07263818, -0.40060675, -423853.22, -192599.94, 0.0, 9.997431, 9.999961 
2.4348736e+3, 2.8639805e+2, -622202.8, -333230.8, 31322.758, -0.080078594, -0.4339972, -329874.6, -196617.75, 0.0, 9.996556, 10.000379 
2.4348286e+3, 2.9639825e+2, -627507.25, -292661.88, 15568.955, -0.14425911, -0.4427139, -291939.53, -256682.97, 0.0, 9.995881, 10.000311 
2.4347849e+3, 3.0639926e+2, -668428.25, -250812.42, -33755.906, -0.07402344, -0.37829384, -248101.53, -248101.53, 0.0, 9.995096, 10.000647 
2.4347414e+3, 3.1639898e+2, -613454.1, 128114.46, 33616.36, 0.05431327, -0.46852732, 129635.22, 129635.22, 0.0, 9.99397, 10.003784 
2.445606e+3, 1.2647326e+2, -1265051.8, -1573725.6, 24706.46, 0.06691314, -0.33677486, -1263086.6, 437437.34, 0.44935113, 10.006154, 9.998708 
2.4455594e+3, 1.3647082e+2, -1204109.3, -1546610.9, -14157.443, -0.036436804, -0.4332915, -1203525.0, 399019.34, 0.3320253, 10.005046, 9.99824 
2.445512e+3, 1.4646833e+2, -1152318.4, -1580834.5, -79466.59, -0.07674342, -0.44306698, -1138056.4, 366511.97, 0.20914173, 10.004391, 9.997468 
2.4454646e+3, 1.56466e+2, -1066376.6, -1538207.5, -76845.695, -0.051271185, -0.40975592, -1054176.4, 352415.63, 0.10505407, 10.004046, 9.997246 
2.4454172e+3, 1.6646305e+2, -949846.6, -1422812.6, -56876.21, -0.010566287, -0.42293426, -943103.1, 365517.8, 0.038224813, 10.003906, 9.997427 
2.4453701e+3, 1.7645992e+2, -848849.5, -1342429.4, -27415.64, 0.029813563, -0.46467215, -847331.4, 363319.13, 0.008219202, 10.003905, 9.997308 
2.4453232e+3, 1.8645746e+2, -748824.56, -1179644.5, 14396.76, -0.007339411, -0.4583861, -748344.0, 364331.03, 0.0005688727, 10.003622, 9.997887 
2.4452767e+3, 1.9645552e+2, -726084.0, -1138510.6, -6389.62, -0.08600462, -0.4297807, -725985.0, 288709.6, 0.00000082284765, 10.003192, 9.997705 
2.4452305e+3, 2.0645355e+2, -719040.25, -1088238.6, 619.45654, -0.080539815, -0.37920523, -719039.25, 197676.08, 0.0, 10.00258, 9.997674 
2.445185e+3, 2.1645172e+2, -721500.25, -1035893.7, 35366.69, -0.024104074, -0.32000208, -717570.9, 101163.94, 0.0, 10.001873, 9.9977045 
2.4451396e+3, 2.2644927e+2, -637423.25, -808837.5, 61580.24, -0.031325568, -0.3881754, -617594.4, 103162.055, 0.0, 10.001193, 9.998916 
2.445094e+3, 2.3644659e+2, -647470.3, -782879.4, 50340.965, -0.07172589, -0.5364622, -630805.9, -8028.078, 0.0, 10.000536, 9.998739 
2.4450496e+3, 2.4644528e+2, -674388.75, -762236.44, 74831.734, -0.06189298, -0.51609844, -631542.25, -106751.07, 0.0, 9.999752, 9.998586 
2.4450053e+3, 2.56445e+2, -698946.1, -714313.6, 88768.586, -0.02603774, -0.3969508, -617529.4, -190731.52, 0.0, 9.99887, 9.998669 
2.4449605e+3, 2.6644447e+2, -618764.4, -474015.44, 62590.957, -0.0464031, -0.37205836, -450704.53, -121901.875, 0.0, 9.998102, 10.000012 
2.444915e+3, 2.764439e+2, -629644.25, -439441.16, 48076.258, -0.08041216, -0.42145258, -427979.9, -197173.47, 0.0, 9.997402, 9.999914 
2.4448702e+3, 2.8644344e+2, -587392.94, -332631.3, 53687.83, -0.08060319, -0.4595007, -321779.5, -188968.84, 0.0, 9.996866, 10.000233 
2.444825e+3, 2.9644373e+2, -578441.3, -295142.3, 53705.766, -0.11400848, -0.44569665, -285302.88, -250494.0, 0.0, 9.9963255, 10.000081 
2.4447797e+3, 3.0644408e+2, -602754.7, -247234.03, 26645.729, -0.10006129, -0.42000943, -245248.06, -245248.06, 0.0, 9.995668, 10.000395 
2.444736e+3, 3.1644514e+2, -527427.2, 54512.965, 34610.973, 0.09825091, -0.3554879, 56564.227, 56564.227, 0.0, 9.995064, 10.002747 
2.4556106e+3, 1.2651876e+2, -1311905.0, -1677448.1, 299.48627, -0.0725698, -0.43626335, -1311904.8, 388171.38, 0.43604806, 10.006063, 9.997448 
2.4555644e+3, 1.3651623e+2, -1246076.6, -1666007.0, -38525.01, -0.03369478, -0.41997844, -1242571.5, 359530.1, 0.3194039, 10.005024, 9.9972515 
2.4555163e+3, 1.4651391e+2, -1126320.9, -1532086.8, -85344.586, -0.060701963, -0.38982993, -1109101.1, 395023.8, 0.19853191, 10.004403, 9.997807 
2.455468e+3, 1.5651192e+2, -1039476.6, -1483590.5, -83645.16, -0.09784787, -0.3586425, -1024245.2, 381899.94, 0.09765989, 10.004043, 9.997626 
2.4554202e+3, 1.6650918e+2, -909207.44, -1337512.0, -54693.684, -0.094257005, -0.3989144, -902333.44, 405836.53, 0.034295358, 10.003898, 9.998018 
2.4553731e+3, 1.7650624e+2, -822523.8, -1284470.8, -28947.08, -0.07410845, -0.48166168, -820716.94, 389478.53, 0.006860083, 10.003885, 9.997717 
2.4553265e+3, 1.8650393e+2, -792518.3, -1266298.6, -1228.4998, -0.041377608, -0.44179222, -792515.1, 319704.38, 0.00037737557, 10.0036, 9.997306 
2.4552806e+3, 1.9650221e+2, -758661.0, -1197792.5, -21346.086, -0.0026418653, -0.33621776, -757625.8, 256614.7, 0.000000047828348, 10.003152, 9.99732 
2.4552336e+3, 2.0649984e+2, -668582.3, -978721.75, -24078.314, -0.020277794, -0.35152683, -666724.06, 249539.56, 0.0, 10.002557, 9.998438 
2.4551865e+3, 2.164973e+2, -684165.94, -953903.75, 11251.417, -0.069842406, -0.4396057, -683697.44, 134588.95, 0.0, 10.001851, 9.998279 
2.4551402e+3, 2.2649531e+2, -670197.1, -877347.4, 37778.156, -0.075262785, -0.45816404, -663522.56, 56781.33, 0.0, 10.001193, 9.998447 
2.4550948e+3, 2.3649383e+2, -669499.4, -831775.94, 24943.586, -0.05401955, -0.44274786, -665751.9, -43435.086, 0.0, 10.000546, 9.9984 
2.4550493e+3, 2.4649252e+2, -643699.4, -700076.4, 39684.918, -0.043376442, -0.43118858, -623210.5, -98881.055, 0.0, 9.999757, 9.999011 
2.4550039e+3, 2.564915e+2, -677462.56, -671059.0, 54971.984, -0.04768311, -0.42274806, -619195.6, -192855.34, 0.0, 9.998874, 9.998965 
2.4549583e+3, 2.664905e+2, -648274.7, -535829.8, 34069.03, -0.07140498, -0.4438309, -526312.9, -197962.44, 0.0, 9.998102, 9.999589 
2.4549124e+3, 2.764895e+2, -651736.06, -488011.22, 23505.322, -0.08204054, -0.4902629, -484703.5, -254344.39, 0.0, 9.997412, 9.9995775 
2.4548674e+3, 2.8648946e+2, -574593.75, -308702.97, 32743.299, -0.031917777, -0.4816604, -304730.13, -172371.58, 0.0, 9.996874, 10.000395 
2.454822e+3, 2.9649025e+2, -566799.44, -275935.53, 31160.795, -0.031112451, -0.428886, -272634.7, -238284.94, 0.0, 9.996344, 10.000206 
2.4547754e+3, 3.0648974e+2, -594576.1, -240438.38, 6110.221, -0.09910622, -0.5010994, -240332.98, -240332.98, 0.0, 9.9957075, 10.000424 
2.4547295e+3, 3.1649056e+2, -619620.6, -141226.02, -27740.846, -0.062325314, -0.4484845, -139622.78, -139622.78, 0.0, 9.99509, 10.001385 
2.4656157e+3, 1.2656556e+2, -1386131.9, -1762383.1, 17926.088, -0.118046954, -0.46201652, -1385279.8, 314337.8, 0.42087507, 10.005182, 9.99718 
2.4655694e+3, 1.3656346e+2, -1216690.8, -1671532.4, 21130.648, -0.036834337, -0.3764238, -1215711.1, 385929.16, 0.30605778, 10.005337, 9.997054 
2.4655212e+3, 1.4656101e+2, -1056782.6, -1492510.0, -12610.668, -0.038661126, -0.35103202, -1056417.9, 447247.0, 0.18807812, 10.004943, 9.99781 
2.4654724e+3, 1.5655854e+2, -1006705.06, -1463975.4, -20326.082, -0.059216388, -0.36615628, -1005803.3, 399885.25, 0.09082782, 10.004254, 9.997651 
2.4654244e+3, 1.6655588e+2, -904792.3, -1325342.3, -1518.3248, -0.07502871, -0.40512678, -904786.8, 402925.84, 0.030890783, 10.003878, 9.998109 
2.4653764e+3, 1.7655328e+2, -846550.3, -1284474.3, -10852.348, -0.09368508, -0.46177575, -846281.5, 363453.53, 0.005785583, 10.003672, 9.997817 
2.4653293e+3, 1.8655102e+2, -863322.25, -1290786.3, 18124.691, -0.06326197, -0.42650074, -862555.1, 249203.44, 0.0002587623, 10.003076, 9.997388 
2.465283e+3, 1.9654915e+2, -879170.8, -1246750.0, 41399.383, -0.0026690718, -0.34244207, -874565.8, 139214.9, 0.0000000002215969, 10.002282, 9.997404 
2.4652359e+3, 2.0654681e+2, -769933.7, -1008249.25, 32605.986, -0.009945689, -0.36700782, -765553.1, 150250.17, 0.0, 10.0017805, 9.998608 
2.465188e+3, 2.1654439e+2, -732541.4, -961243.8, 24237.334, -0.05578459, -0.45852184, -730001.0, 87823.4, 0.0, 10.001457, 9.998415 
2.4651414e+3, 2.2654259e+2, -687210.8, -899776.2, 54381.94, -0.07524972, -0.45665285, -674105.9, 45734.84, 0.0, 10.001142, 9.998317 
2.4650949e+3, 2.3654132e+2, -637229.1, -826866.8, 63095.85, -0.07226699, -0.4055958, -618154.6, 3698.057, 0.0, 10.000816, 9.998302 
2.465049e+3, 2.4653994e+2, -608207.9, -669907.6, 55244.242, -0.049442645, -0.4040239, -575783.4, -51917.324, 0.0, 9.999948, 9.999125 
2.465003e+3, 2.5653863e+2, -685743.0, -663576.7, 49276.758, -0.025486449, -0.4358521, -624152.06, -198273.13, 0.0, 9.998772, 9.999063 
2.4649563e+3, 2.665376e+2, -651923.1, -537441.56, 56268.26, -0.05749263, -0.46006313, -514416.38, -186527.75, 0.0, 9.998077, 9.999589 
2.4649097e+3, 2.7653685e+2, -623824.8, -478110.22, 75829.35, -0.08618756, -0.4817318, -445809.2, -215914.27, 0.0, 9.997616, 9.999549 
2.4648643e+3, 2.8653675e+2, -568170.5, -316822.34, 79227.53, -0.024920372, -0.47393852, -293933.38, -162038.27, 0.0, 9.996968, 10.000293 
2.4648184e+3, 2.9653704e+2, -593323.25, -291492.34, 54131.492, -0.017477596, -0.45950887, -282077.84, -248187.02, 0.0, 9.9961815, 10.000174 
2.4647713e+3, 3.065368e+2, -579878.7, -214014.81, 46809.832, -0.077734314, -0.51225406, -208120.75, -208120.75, 0.0, 9.995732, 10.000591 
2.4647248e+3, 3.16538e+2, -568941.75, -162034.94, -35814.004, -0.07057034, -0.435487, -158906.81, -158906.81, 0.0, 9.995636, 10.0009775 
2.4756208e+3, 1.2661351e+2, -1357992.8, -1695572.4, 20928.613, -0.10132556, -0.42767984, -1356700.1, 342449.38, 0.40370095, 10.005174, 9.99765 
2.4755745e+3, 1.3661218e+2, -1193803.0, -1621254.1, 22019.66, -0.055544727, -0.31215996, -1192671.8, 408492.22, 0.29175365, 10.005309, 9.997413 
2.4755262e+3, 1.4660934e+2, -1066850.3, -1530239.4, -35488.96, -0.016400844, -0.32671738, -1064148.0, 439043.16, 0.17750497, 10.004934, 9.997545 
2.4754776e+3, 1.5660582e+2, -1020284.94, -1503558.0, -40723.64, 0.047503605, -0.4201838, -1016877.3, 388346.25, 0.08431312, 10.00426, 9.99738 
2.475429e+3, 1.666031e+2, -926510.6, -1375044.6, -7055.298, 0.028330388, -0.43298176, -926399.6, 380849.7, 0.027844056, 10.003877, 9.99777 
2.4753803e+3, 1.7660101e+2, -861656.2, -1311482.1, -19566.502, -0.046335913, -0.40682718, -860806.7, 348462.75, 0.004909618, 10.003646, 9.997646 
2.4753323e+3, 1.8659863e+2, -819232.56, -1197966.6, -10023.762, -0.07839402, -0.41394928, -818967.44, 292325.34, 0.0001841839, 10.003066, 9.998032 
2.4752845e+3, 1.9659628e+2, -846163.25, -1178914.6, 15459.923, -0.08328705, -0.4395425, -845446.5, 167869.5, 0.00000000023303823, 10.002282, 9.997871 
2.4752371e+3, 2.0659436e+2, -796013.0, -1065144.6, 20648.176, -0.046151623, -0.41988423, -794438.06, 120897.1, 0.0, 10.001789, 9.998215 
2.4751902e+3, 2.1659285e+2, -754298.94, -1005747.94, 13809.736, 0.008959016, -0.38260624, -753542.75, 63807.57, 0.0, 10.001451, 9.998115 
2.4751428e+3, 2.2659096e+2, -673487.3, -871133.6, 43339.65, -0.037002124, -0.38865706, -664401.56, 54966.676, 0.0, 10.001138, 9.998516 
2.4750952e+3, 2.3658903e+2, -629291.94, -809038.0, 46466.79, -0.13194546, -0.42086846, -617990.25, 3395.5723, 0.0, 10.000808, 9.998431 
2.4750486e+3, 2.4658747e+2, -623448.3, -701352.0, 9456.026, -0.08105827, -0.4316898, -622317.0, -98915.414, 0.0, 9.999944, 9.998911 
2.4750023e+3, 2.5658622e+2, -691818.9, -679380.75, 8545.301, 0.034769002, -0.4367608, -675031.0, -249616.28, 0.0, 9.998783, 9.99895 
2.4749549e+3, 2.665858e+2, -620753.2, -474559.34, 37023.902, -0.0063382764, -0.41973338, -465717.7, -138299.77, 0.0, 9.998082, 10.00002 
2.474907e+3, 2.7658603e+2, -602288.6, -436566.13, 56952.48, -0.096492715, -0.38762295, -418881.0, -189467.39, 0.0, 9.997626, 9.999831 
2.4748605e+3, 2.8658515e+2, -598721.1, -382902.7, 47215.355, -0.06881936, -0.4380817, -373025.28, -241603.81, 0.0, 9.996977, 9.999837 
2.4748138e+3, 2.9658374e+2, -606196.75, -321841.88, 22895.984, -0.096834294, -0.5541718, -320010.13, -286574.47, 0.0, 9.996194, 9.999961 
2.4747676e+3, 3.0658564e+2, -549228.1, -148415.08, 37510.46, -0.008673366, -0.41430658, -144934.84, -144934.84, 0.0, 9.995723, 10.001047 
2.4747209e+3, 3.1658742e+2, -488174.0, -19848.941, -65065.598, 0.0039967718, -0.31343347, -10977.271, -10977.271, 0.0, 9.995714, 10.001933 
2.4856265e+3, 1.2666246e+2, -1291507.1, -1676185.5, 54363.254, -0.09563646, -0.38072097, -1283972.1, 414697.72, 0.38469666, 10.005846, 9.9975395 
2.4855796e+3, 1.3666035e+2, -1172934.8, -1623017.0, 31389.963, -0.067029014, -0.32962728, -1170756.1, 429935.5, 0.27646807, 10.005461, 9.997333 
2.485531e+3, 1.4665732e+2, -1050477.0, -1515995.6, -34827.77, -0.019417835, -0.36336988, -1047885.75, 454834.28, 0.16667658, 10.004993, 9.997611 
2.4854822e+3, 1.5665391e+2, -982014.7, -1480207.4, -21616.799, 0.07005466, -0.45095307, -981078.5, 423672.13, 0.07796043, 10.004509, 9.997417 
2.485433e+3, 1.6665138e+2, -921906.9, -1388213.8, 34586.895, 0.0548189, -0.43963903, -919355.44, 387420.0, 0.025041329, 10.003966, 9.997637 
2.485384e+3, 1.7664951e+2, -902566.7, -1341357.4, 33587.324, -0.026770221, -0.37800997, -900010.6, 308784.5, 0.004172973, 10.003404, 9.99756 
2.4853352e+3, 1.8664704e+2, -816705.25, -1176560.1, 23231.018, -0.07692318, -0.39843026, -815211.7, 295607.2, 0.00013555438, 10.002998, 9.998211 
2.4852866e+3, 1.9664447e+2, -778918.56, -1129130.4, 16150.988, -0.10461199, -0.46541443, -778175.3, 234667.67, 0.00000000017417703, 10.002677, 9.998019 
2.4852388e+3, 2.0664263e+2, -746739.25, -1051802.8, 28165.582, -0.06672901, -0.43791932, -744160.6, 170700.83, 0.0, 10.002176, 9.998118 
2.4851914e+3, 2.1664135e+2, -740029.3, -1004789.6, 40837.742, 0.0059059556, -0.3643683, -733873.5, 83001.625, 0.0, 10.0015745, 9.99806 
2.4851435e+3, 2.2663951e+2, -711507.06, -865207.6, 73731.055, -0.02452965, -0.37625962, -681857.44, 37035.332, 0.0, 10.000776, 9.99873 
2.4850957e+3, 2.3663752e+2, -752713.8, -847873.5, 75657.41, -0.10443479, -0.43706974, -710918.7, -90007.86, 0.0, 9.999878, 9.99861 
2.485048e+3, 2.4663608e+2, -705027.8, -739188.4, 48696.625, -0.06874476, -0.44117308, -670502.9, -147577.56, 0.0, 9.999381, 9.998921 
2.4850008e+3, 2.566351e+2, -649807.7, -660724.44, 64196.508, 0.021584585, -0.42009595, -590837.9, -165901.58, 0.0, 9.999081, 9.998934 
2.4849528e+3, 2.6663467e+2, -559222.1, -457454.63, 77337.516, -0.009764046, -0.39551172, -415762.75, -88822.86, 0.0, 9.998563, 9.999905 
2.484905e+3, 2.766347e+2, -568702.5, -429186.06, 54935.67, -0.075331695, -0.36879084, -410151.63, -181214.17, 0.0, 9.997901, 9.999745 
2.4848577e+3, 2.866338e+2, -556568.7, -355875.9, 52851.15, -0.070361175, -0.4247514, -342808.7, -211862.53, 0.0, 9.99724, 9.999893 
2.4848096e+3, 2.966324e+2, -544014.4, -281567.16, 66050.08, -0.1248103, -0.5416919, -265881.78, -232921.53, 0.0, 9.996575, 10.000055 
2.4847634e+3, 3.0663502e+2, -511121.3, -87268.48, 84819.27, 0.016219169, -0.35758966, -70925.06, -70925.06, 0.0, 9.995808, 10.001423 
2.4847159e+3, 3.1663498e+2, -574037.56, 9945.917, -14892.973, -0.04434421, -0.4739211, 10325.477, 10325.477, 0.0, 9.994826, 10.0025625 
2.495632e+3, 1.2671226e+2, -1307972.8, -1748788.5, 46390.918, -0.10862183, -0.31951883, -1303143.5, 395036.84, 0.36411646, 10.005789, 9.99699 
2.4955848e+3, 1.3670821e+2, -1189532.5, -1685355.4, 22782.719, -0.08084092, -0.40867326, -1188487.9, 411733.34, 0.26029116, 10.005414, 9.996924 
2.4955356e+3, 1.4670515e+2, -1029582.44, -1478989.5, -49652.035, -0.049736623, -0.4454705, -1024162.1, 478087.84, 0.15556821, 10.00497, 9.997905 
2.4954858e+3, 1.5670276e+2, -963177.44, -1442733.1, -38553.688, 0.015608211, -0.46293682, -960097.7, 444172.88, 0.071697906, 10.004497, 9.997683 
2.4954365e+3, 1.6670056e+2, -919092.3, -1385363.0, 13296.066, 0.013861501, -0.4301253, -918713.5, 387579.1, 0.022417659, 10.003966, 9.997658 
2.4953872e+3, 1.7669867e+2, -905361.8, -1347496.3, 13965.849, -0.0343835, -0.37167194, -904921.1, 303392.13, 0.003538077, 10.003399, 9.99752 
2.4953382e+3, 1.866962e+2, -834379.06, -1212175.1, 11366.768, -0.062401053, -0.37803432, -834037.4, 276300.3, 0.00010185649, 10.002991, 9.997972 
2.4952893e+3, 1.9669358e+2, -793388.2, -1153566.8, 3830.5557, -0.077341266, -0.4245632, -793347.44, 219015.03, 0.00000000005180779, 10.002649, 9.997867 
2.4952407e+3, 2.0669152e+2, -736133.2, -1026949.3, 6657.635, -0.07611684, -0.42455816, -735980.8, 178402.0, 0.0, 10.00216, 9.998299 
2.4951921e+3, 2.1668993e+2, -729625.6, -980722.56, 18591.209, -0.067182615, -0.40225372, -728256.6, 88142.46, 0.0, 10.001561, 9.998235 
2.4951443e+3, 2.2668822e+2, -698387.3, -837802.2, 40614.52, -0.03747495, -0.4167592, -687418.44, 30996.426, 0.0, 10.000772, 9.99892 
2.4950965e+3, 2.3668665e+2, -738522.25, -820438.2, 45304.492, 0.0025815133, -0.45424053, -718406.06, -97977.36, 0.0, 9.999883, 9.998797 
2.4950479e+3, 2.4668568e+2, -687475.0, -705023.0, 35416.31, -0.017955896, -0.43276706, -659762.06, -137323.64, 0.0, 9.999389, 9.999153 
2.4949987e+3, 2.566852e+2, -642962.0, -649200.2, 49981.152, -0.07414972, -0.38326293, -596002.75, -171558.52, 0.0, 9.999089, 9.99901 
2.4949507e+3, 2.6668411e+2, -606437.6, -557693.6, 50894.453, -0.07011902, -0.38764408, -525636.56, -199181.22, 0.0, 9.9985695, 9.999214 
2.4949034e+3, 2.7668282e+2, -598218.3, -495130.2, 28305.613, -0.022549111, -0.42665562, -487869.5, -259401.84, 0.0, 9.997918, 9.999286 
2.4948552e+3, 2.8668255e+2, -511383.66, -264538.5, 25673.168, -0.030971978, -0.43514365, -261896.64, -131426.53, 0.0, 9.997248, 10.000519 
2.4948062e+3, 2.9668316e+2, -513462.72, -221851.2, 42916.94, -0.1141878, -0.41699654, -215666.22, -183201.97, 0.0, 9.996589, 10.000461 
2.494759e+3, 3.0668467e+2, -506247.8, -81632.97, 45383.605, 0.003227848, -0.34919745, -76836.47, -76836.47, 0.0, 9.995824, 10.001455 
2.4947102e+3, 3.1668472e+2, -593619.44, -30014.768, -28762.201, -0.07491019, -0.47200605, -28550.762, -28550.762, 0.0, 9.9948225, 10.002289 
2.505638e+3, 1.2676057e+2, -1291775.5, -1713581.6, 34278.36, -0.066767216, -0.39914498, -1289008.0, 408696.78, 0.3422928, 10.005664, 9.997289 
2.5055903e+3, 1.3675734e+2, -1205806.5, -1675806.5, 47965.125, -0.045403216, -0.43505457, -1200961.5, 398775.88, 0.24341966, 10.005066, 9.997165 
2.5055403e+3, 1.4675456e+2, -1060423.1, -1508641.6, -15744.298, -0.045720533, -0.44497225, -1059870.8, 441893.28, 0.14425226, 10.00473, 9.997786 
2.50549e+3, 1.567522e+2, -958228.06, -1451542.6, -28820.348, -0.02309627, -0.44753662, -956550.0, 447235.94, 0.06551938, 10.004557, 9.997592 
2.50544e+3, 1.667499e+2, -899758.8, -1374048.8, 5253.7583, -0.018907111, -0.42194512, -899700.6, 406108.66, 0.019942543, 10.004088, 9.997674 
2.5053906e+3, 1.7674781e+2, -893130.3, -1337742.5, 5435.047, -0.034087267, -0.38359854, -893063.9, 314767.53, 0.0029817424, 10.00347, 9.99755 
2.5053412e+3, 1.8674545e+2, -854904.0, -1215858.9, 19735.299, -0.043528114, -0.38321227, -853828.2, 256026.72, 0.00007665515, 10.002826, 9.998024 
2.505292e+3, 1.9674312e+2, -859073.5, -1179075.0, 30514.365, -0.045934882, -0.40690508, -856189.75, 155687.5, 0.0000000000010010511, 10.0021715, 9.997921 
2.5052428e+3, 2.0674108e+2, -804212.44, -1051990.9, 34355.19, -0.06486507, -0.41022673, -799537.2, 114360.34, 0.0, 10.001662, 9.998364 
2.505193e+3, 2.1673937e+2, -772571.75, -991988.3, 33549.637, -0.09000053, -0.40597984, -767556.5, 48358.477, 0.0, 10.001231, 9.998313 
2.5051448e+3, 2.2673775e+2, -710965.5, -832975.1, 41050.313, -0.046803605, -0.4206158, -698440.0, 19490.027, 0.0, 10.000642, 9.999015 
2.5050968e+3, 2.3673636e+2, -719458.8, -799762.0, 43766.063, 0.034035377, -0.44870833, -700216.6, -80274.555, 0.0, 9.999967, 9.998897 
2.5050476e+3, 2.4673551e+2, -651344.7, -674117.56, 43524.91, -0.0022202965, -0.42508382, -617741.5, -95791.46, 0.0, 9.999581, 9.99927 
2.5049978e+3, 2.5673515e+2, -604307.6, -622189.4, 45748.168, -0.10057224, -0.3762751, -566634.8, -142680.75, 0.0, 9.999323, 9.999081 
2.5049493e+3, 2.667338e+2, -585678.3, -564447.0, 58715.824, -0.08422999, -0.3982555, -515394.9, -189427.33, 0.0, 9.998787, 9.999062 
2.5049013e+3, 2.767321e+2, -581329.7, -498385.47, 73004.83, 0.00593005, -0.46583322, -455895.44, -227910.66, 0.0, 9.998085, 9.999183 
2.5048524e+3, 2.8673217e+2, -502581.72, -245482.61, 56000.24, -0.0072743627, -0.44174886, -233814.42, -103830.41, 0.0, 9.997248, 10.000648 
2.5048023e+3, 2.967336e+2, -547233.8, -235005.16, 38758.57, -0.111740455, -0.35318083, -230265.78, -198295.63, 0.0, 9.996347, 10.000483 
2.504755e+3, 3.067339e+2, -496442.7, -107118.44, 27423.209, 0.017765466, -0.38766003, -105196.29, -105196.29, 0.0, 9.996021, 10.0011835 
2.5047052e+3, 3.1673425e+2, -457518.0, 10582.559, -2076.447, -0.07941555, -0.46048194, 10591.77, 10591.77, 0.0, 9.995869, 10.002061 
2.5156444e+3, 1.268078e+2, -1231621.1, -1611824.9, 19441.178, 0.0007640952, -0.58751106, -1230629.6, 466609.75, 0.31963575, 10.005668, 9.998246 
2.515596e+3, 1.3680759e+2, -1162318.5, -1580435.9, 30253.717, 0.02422281, -0.41651756, -1160140.9, 439100.72, 0.22613467, 10.005033, 9.997862 
2.5155452e+3, 1.4680533e+2, -1086022.6, -1579569.4, -24055.385, -0.016530808, -0.37508258, -1084852.9, 416411.78, 0.13286862, 10.004704, 9.997314 
2.5154942e+3, 1.568022e+2, -983505.56, -1510195.5, -37102.223, -0.053656872, -0.4078273, -980904.75, 422392.13, 0.05946106, 10.004537, 9.9972 
2.515444e+3, 1.6679943e+2, -900491.0, -1375221.8, -16313.834, -0.04802836, -0.41423854, -899931.06, 405394.03, 0.017607195, 10.004075, 9.997674 
2.515394e+3, 1.76797e+2, -890209.7, -1328714.5, -15854.345, -0.03158169, -0.41166228, -889637.2, 317712.28, 0.0024902453, 10.003453, 9.997622 
2.515344e+3, 1.8679485e+2, -834354.0, -1172885.1, -3765.2366, -0.023134708, -0.41149765, -834312.1, 275058.38, 0.000056666635, 10.00282, 9.998323 
2.5152943e+3, 1.9679303e+2, -844859.44, -1148272.1, 8622.804, -0.017154058, -0.41212308, -844614.6, 166773.27, 0.0, 10.002163, 9.998138 
2.5152445e+3, 2.0679125e+2, -808687.75, -1061841.5, 18704.9, -0.036983598, -0.3949548, -807313.2, 106093.07, 0.0, 10.001662, 9.998298 
2.5151947e+3, 2.1678963e+2, -777859.3, -1000978.44, 17283.238, -0.07087645, -0.37460515, -776528.44, 38895.05, 0.0, 10.001219, 9.998259 
2.515145e+3, 2.2678801e+2, -709780.0, -831058.3, 16037.223, -0.056115933, -0.3877416, -707695.2, 9743.691, 0.0, 10.000642, 9.99903 
2.515096e+3, 2.3678657e+2, -717459.4, -797722.9, 21211.844, -0.015173803, -0.42223662, -712198.44, -92746.81, 0.0, 9.999973, 9.99891 
2.515047e+3, 2.4678552e+2, -651417.6, -676409.7, 32897.668, -0.021665823, -0.41958922, -628722.6, -107261.766, 0.0, 9.999588, 9.999253 
2.5149974e+3, 2.5678486e+2, -599318.8, -615215.06, 32363.086, -0.06092407, -0.39937276, -573942.1, -150475.55, 0.0, 9.999333, 9.9991255 
2.5149482e+3, 2.6678368e+2, -557677.6, -507782.97, 30331.836, -0.05577095, -0.42859378, -493457.03, -167979.55, 0.0, 9.99879, 9.999451 
2.5148994e+3, 2.7678245e+2, -562578.75, -461632.6, 44264.082, -0.004026714, -0.4883013, -444972.66, -217483.23, 0.0, 9.998091, 9.9994335 
2.51485e+3, 2.867826e+2, -531622.0, -307037.4, 19936.207, 0.0012260488, -0.44122896, -305281.44, -175793.2, 0.0, 9.99725, 10.000227 
2.514799e+3, 2.9678375e+2, -570024.2, -284847.97, 10716.411, -0.099524386, -0.33440128, -284445.8, -252968.19, 0.0, 9.996355, 10.000138 
2.514751e+3, 3.0678236e+2, -521696.06, -164929.45, 22866.852, 0.01764848, -0.50958353, -163469.78, -163469.78, 0.0, 9.99604, 10.000779 
2.5147006e+3, 3.1678274e+2, -457314.78, 4269.7983, 102091.27, -0.12748809, -0.53290087, 25841.748, 25841.748, 0.0, 9.995907, 10.001994 
2.5256506e+3, 1.268585e+2, -1136141.1, -1596912.8, 46456.688, 0.02639243, -0.5518466, -1131503.9, 565238.1, 0.2965625, 10.006605, 9.997911 
2.5256002e+3, 1.3685758e+2, -1185991.8, -1621962.5, 1342.9237, -0.018070897, -0.41761693, -1185987.6, 412764.06, 0.2087261, 10.004851, 9.997628 
2.5255492e+3, 1.4685518e+2, -1125552.8, -1584832.3, -23904.957, -0.048632946, -0.39253014, -1124311.9, 376464.3, 0.12157036, 10.004274, 9.997481 
2.5254986e+3, 1.5685217e+2, -1002649.25, -1503839.1, -3625.9448, -0.038393073, -0.4297259, -1002623.0, 400183.7, 0.053574085, 10.004307, 9.997352 
2.5254476e+3, 1.6684952e+2, -913558.06, -1370558.0, 20168.426, -0.035505444, -0.43433502, -912669.7, 392163.63, 0.015413968, 10.00393, 9.997774 
2.525397e+3, 1.7684725e+2, -898557.1, -1321931.3, 25968.342, -0.043269817, -0.42684802, -896970.25, 309885.84, 0.0020559325, 10.00335, 9.997717 
2.5253466e+3, 1.8684517e+2, -845382.56, -1176992.6, 25518.11, -0.03483521, -0.42258218, -843430.4, 265446.28, 0.00004051296, 10.002743, 9.998331 
2.5252965e+3, 1.9684337e+2, -847395.25, -1145274.6, 18271.14, -0.015725184, -0.42045987, -846278.7, 164615.45, 0.0, 10.0021305, 9.998173 
2.525246e+3, 2.0684172e+2, -804716.94, -1045832.5, 37606.51, -0.02088188, -0.39842626, -798987.6, 113923.74, 0.0, 10.001632, 9.998422 
2.5251958e+3, 2.1684028e+2, -777226.06, -991608.06, 47356.305, -0.03806793, -0.37105963, -767231.2, 47695.65, 0.0, 10.001187, 9.998337 
2.5251457e+3, 2.2683871e+2, -713635.56, -850266.2, 37939.28, -0.047578454, -0.37314755, -703807.6, 13134.869, 0.0, 10.000694, 9.998871 
2.5250956e+3, 2.3683725e+2, -696912.75, -800648.06, 31156.496, -0.047317047, -0.39358944, -688274.4, -69318.016, 0.0, 10.000174, 9.998791 
2.5250462e+3, 2.46836e+2, -636740.25, -666561.3, 48566.68, -0.04392425, -0.4064935, -600846.8, -79879.5, 0.0, 9.9996805, 9.999275 
2.5249967e+3, 2.56835e+2, -616533.25, -616089.8, 47747.223, -0.046811182, -0.41854602, -568563.8, -145588.66, 0.0, 9.999187, 9.9991865 
2.5249466e+3, 2.6683405e+2, -574442.8, -489492.28, 29075.205, -0.051102996, -0.44754377, -480494.1, -155510.11, 0.0, 9.998567, 9.9996805 
2.524897e+3, 2.7683324e+2, -585539.2, -454228.16, 30623.21, -0.025974888, -0.48495004, -447437.66, -220446.28, 0.0, 9.99786, 9.999593 
2.524847e+3, 2.868335e+2, -505299.6, -312239.56, 20800.172, 0.015713327, -0.42515257, -310024.0, -181034.9, 0.0, 9.997512, 10.000061 
2.5247964e+3, 2.9683435e+2, -444342.22, -242967.7, 30569.576, -0.025689475, -0.33099854, -238429.38, -207448.06, 0.0, 9.997304, 9.999966 
2.524746e+3, 3.0683193e+2, -485816.56, -187760.5, 45130.863, -0.06505323, -0.58236724, -181076.78, -181076.78, 0.0, 9.996466, 10.000414 
2.5246963e+3, 3.1683466e+2, -537426.56, 3165.911, 109095.836, -0.09672115, -0.33613724, 24352.018, 24352.018, 0.0, 9.995201, 10.002324 
2.5356567e+3, 1.2691201e+2, -1197912.1, -1758123.1, -4523.378, 0.007956499, -0.33995444, -1197875.6, 498343.28, 0.27345765, 10.006496, 9.996569 
2.5356036e+3, 1.3690746e+2, -1230627.5, -1762281.5, -40794.523, -0.15392643, -0.4387547, -1227515.5, 370750.4, 0.19144857, 10.004862, 9.996665 
2.5355527e+3, 1.4690438e+2, -1075507.5, -1488772.0, -19787.15, -0.13271339, -0.48119414, -1074562.3, 425733.16, 0.110494666, 10.004305, 9.9981365 
2.5355032e+3, 1.5690218e+2, -965362.06, -1423368.0, -5390.8613, 0.010820209, -0.50241154, -965298.6, 437016.22, 0.047910668, 10.004285, 9.997916 
2.535452e+3, 1.6690016e+2, -904298.5, -1347449.3, -1699.3826, 0.008730974, -0.47638232, -904292.0, 400042.53, 0.013370922, 10.003904, 9.997948 
2.5354e+3, 1.7689845e+2, -895800.8, -1311588.4, 3442.2417, -0.07191978, -0.42900205, -895772.3, 310580.13, 0.0016752464, 10.003326, 9.997801 
2.5353488e+3, 1.8689631e+2, -865322.8, -1217114.5, 2360.4014, -0.07679587, -0.41802093, -865307.0, 243067.23, 0.000027817086, 10.002734, 9.99806 
2.5352982e+3, 1.9689414e+2, -859796.75, -1169600.1, -1831.7827, -0.043394767, -0.42917097, -859785.9, 150610.38, 0.0, 10.002122, 9.998012 
2.5352475e+3, 2.0689249e+2, -783871.3, -1002978.25, 21670.877, -0.017139453, -0.41756734, -781748.56, 130664.59, 0.0, 10.00163, 9.998718 
2.535197e+3, 2.1689126e+2, -766258.6, -967752.75, 31372.523, 0.0014961608, -0.39716423, -761486.94, 52938.82, 0.0, 10.00118, 9.998507 
2.5351465e+3, 2.2688979e+2, -738087.06, -901525.25, 18826.227, -0.024189414, -0.37707552, -735946.5, -19505.057, 0.0, 10.000693, 9.998521 
2.5350955e+3, 2.3688835e+2, -716053.0, -841595.56, 11985.885, -0.06737929, -0.3611733, -714918.94, -96462.11, 0.0, 10.000175, 9.998511 
2.5350454e+3, 2.4688692e+2, -632401.0, -658646.94, 28774.555, -0.07179422, -0.38454354, -613898.25, -93428.414, 0.0, 9.999683, 9.99933 
2.5349954e+3, 2.5688562e+2, -610411.56, -606347.75, 26974.563, -0.0665594, -0.43326178, -581328.7, -158848.44, 0.0, 9.999198, 9.99925 
2.534945e+3, 2.6688477e+2, -570247.25, -482440.5, 723.2933, -0.07118784, -0.4536231, -482434.53, -157946.75, 0.0, 9.99857, 9.999729 
2.5348943e+3, 2.768844e+2, -579878.9, -445840.97, 6362.2544, -0.058987577, -0.451566, -445539.63, -219048.42, 0.0, 9.99787, 9.999647 
2.534845e+3, 2.868847e+2, -497700.97, -299691.38, 11010.838, 0.02927315, -0.39628178, -299080.97, -170592.94, 0.0, 9.997523, 10.000143 
2.5347948e+3, 2.9688507e+2, -440869.03, -242799.38, 14825.097, 0.08327179, -0.36092785, -241695.89, -211211.81, 0.0, 9.997332, 9.999955 
2.5347412e+3, 3.0688283e+2, -510705.84, -238159.05, -2023.2465, -0.19637841, -0.56628674, -238144.03, -238144.03, 0.0, 9.996458, 10.0000725 
2.5346923e+3, 3.1688577e+2, -497734.84, 63714.973, -69743.15, -0.031397443, -0.27762216, 72248.734, 72248.734, 0.0, 9.995254, 10.002736 
2.5456625e+3, 1.2696327e+2, -1247949.9, -1782366.9, -34238.973, -0.017694535, -0.33399162, -1245765.1, 449953.06, 0.2506466, 10.00581, 9.996742 
2.5456092e+3, 1.3695887e+2, -1128699.5, -1690428.6, 7200.661, -0.116719514, -0.43552762, -1128607.3, 469155.8, 0.17450932, 10.005573, 9.99681 
2.5455573e+3, 1.4695588e+2, -996104.2, -1457958.6, 43667.633, -0.10653391, -0.46949565, -992011.75, 507779.4, 0.09975125, 10.004901, 9.998081 
2.545507e+3, 1.5695375e+2, -999998.4, -1445310.6, 17477.215, -0.0053144707, -0.47607434, -999313.5, 402496.06, 0.042512808, 10.004037, 9.997883 
2.5454554e+3, 1.6695161e+2, -970411.56, -1380548.8, -2112.2097, -0.0067524463, -0.4612643, -970400.7, 333429.88, 0.0114853075, 10.003444, 9.997941 
2.545403e+3, 1.7694966e+2, -941790.44, -1329123.1, -9386.803, -0.06707823, -0.4364204, -941563.06, 264287.84, 0.0013461994, 10.00299, 9.997842 
2.5453514e+3, 1.8694766e+2, -869200.1, -1192981.9, 9609.484, -0.06741903, -0.4277493, -868915.2, 238955.58, 0.000018404051, 10.002598, 9.99829 
2.5453004e+3, 1.9694577e+2, -832783.1, -1138305.3, 36192.13, -0.03446016, -0.43143675, -828554.3, 181334.63, 0.0, 10.002233, 9.998172 
2.5452492e+3, 2.0694405e+2, -800291.06, -1028079.06, 45759.723, -0.020319818, -0.4236677, -791442.25, 120464.48, 0.0, 10.0015955, 9.998561 
2.545198e+3, 2.1694258e+2, -824071.2, -1007195.44, 24427.32, -0.015517185, -0.41241297, -820868.8, -6946.2607, 0.0, 10.000836, 9.998399 
2.545147e+3, 2.2694108e+2, -771339.25, -910108.75, 29516.87, -0.022544352, -0.39253157, -765321.8, -49383.516, 0.0, 10.000437, 9.998583 
2.545096e+3, 2.3693974e+2, -709668.4, -832571.2, 50607.68, -0.032549195, -0.3722055, -691511.94, -73559.55, 0.0, 10.000198, 9.998559 
2.545045e+3, 2.4693842e+2, -638477.4, -663038.9, 67841.4, -0.051899385, -0.38569334, -581814.2, -61849.406, 0.0, 9.999652, 9.999311 
2.5449944e+3, 2.5693727e+2, -649585.44, -625950.2, 59995.13, -0.07839255, -0.42095616, -576619.8, -154645.03, 0.0, 9.998937, 9.99924 
2.5449434e+3, 2.6693642e+2, -566755.25, -478855.25, 34927.086, -0.083192006, -0.43764973, -466666.97, -142684.5, 0.0, 9.99859, 9.9997425 
2.5448924e+3, 2.76936e+2, -503878.1, -407027.38, 36167.04, -0.058210395, -0.4389164, -395012.1, -169025.6, 0.0, 9.998387, 9.999662 
2.544842e+3, 2.869363e+2, -473423.16, -283749.5, 34235.41, 0.018640313, -0.38555652, -277759.3, -149776.36, 0.0, 9.997675, 10.000178 
2.5447914e+3, 2.969368e+2, -525915.2, -277820.5, 33962.125, 0.06643104, -0.34207925, -273255.38, -243278.06, 0.0, 9.996724, 10.000007 
2.5447378e+3, 3.069346e+2, -505340.13, -214439.67, 35504.574, -0.16936892, -0.5592449, -210169.02, -210169.02, 0.0, 9.996412, 10.000254 
2.5446877e+3, 3.1693488e+2, -422683.06, 6168.039, -28981.777, -0.017046768, -0.54511684, 8117.7646, 8117.7646, 0.0, 9.996186, 10.0018835 
2.5556678e+3, 1.2701297e+2, -1172000.3, -1612974.0, -38709.88, -0.05846528, -0.4806737, -1168628.0, 526605.3, 0.22837521, 10.005708, 9.998111 
2.5556162e+3, 1.3701163e+2, -1067816.8, -1560038.9, -3992.469, 0.050430626, -0.4086359, -1067784.4, 529460.75, 0.15806696, 10.005527, 9.997775 
2.5555632e+3, 1.4700931e+2, -1032122.4, -1547848.4, 12346.913, 0.0006490408, -0.37606123, -1031826.94, 467440.34, 0.08942479, 10.004892, 9.99744 
2.5555104e+3, 1.570067e+2, -1034334.5, -1524963.1, -10900.319, -0.0807778, -0.36868367, -1034092.44, 367200.3, 0.037412763, 10.004037, 9.997339 
2.555458e+3, 1.6700378e+2, -981074.1, -1405449.8, -17830.922, -0.07359846, -0.39900687, -980326.25, 322995.72, 0.009761859, 10.003448, 9.997768 
2.5554064e+3, 1.7700094e+2, -942721.2, -1331224.1, -23866.678, -0.037296694, -0.44762784, -941260.5, 264090.25, 0.0010661418, 10.002988, 9.997829 
2.5553545e+3, 1.8699922e+2, -823625.56, -1098351.1, -3197.7673, -0.015337922, -0.44901162, -823588.4, 283777.53, 0.000011845724, 10.002594, 9.998944 
2.5553027e+3, 1.969982e+2, -806976.25, -1080592.3, 19586.531, 0.0013321943, -0.4294487, -805581.25, 203791.77, 0.0, 10.002212, 9.998579 
2.5552505e+3, 2.0699632e+2, -841555.9, -1114285.8, 16510.768, -0.03195142, -0.41817504, -840560.0, 70832.99, 0.0, 10.001595, 9.997972 
2.555198e+3, 2.1699421e+2, -849349.9, -1062203.3, 1169.1573, -0.08878781, -0.41511372, -849343.44, -35926.2, 0.0, 10.000844, 9.998019 
2.555147e+3, 2.2699262e+2, -738165.3, -844305.9, 21871.951, -0.042683065, -0.41760716, -733834.9, -18401.746, 0.0, 10.000448, 9.999031 
2.5550967e+3, 2.369914e+2, -684503.7, -782632.75, 38723.137, 0.049181357, -0.4263799, -671063.7, -53620.145, 0.0, 10.000206, 9.998899 
2.5550452e+3, 2.4699044e+2, -645086.25, -678323.25, 39323.656, 0.012930079, -0.41005287, -619013.75, -99560.914, 0.0, 9.999655, 9.9992075 
2.554993e+3, 2.569898e+2, -655339.94, -640441.8, 35907.797, -0.087665826, -0.3828202, -611218.56, -189758.9, 0.0, 9.998944, 9.999139 
2.5549418e+3, 2.6698893e+2, -568290.1, -483861.06, 26470.377, -0.090825774, -0.39940226, -476248.4, -152779.72, 0.0, 9.998596, 9.999707 
2.5548908e+3, 2.7698803e+2, -502614.56, -409653.56, 22468.664, -0.033599865, -0.44645548, -404507.75, -179030.0, 0.0, 9.998406, 9.999637 
2.5548393e+3, 2.869883e+2, -473784.38, -285548.63, -4162.8066, -0.016468864, -0.39360112, -285456.63, -157982.14, 0.0, 9.997676, 10.000168 
2.5547865e+3, 2.9698953e+2, -520102.84, -263046.63, 6446.179, -0.07148457, -0.27188754, -262885.06, -233423.83, 0.0, 9.996709, 10.000117 
2.5547358e+3, 3.069869e+2, -467135.66, -141627.0, 29167.168, -0.0037887131, -0.5675949, -139034.13, -139034.13, 0.0, 9.996435, 10.000746 
2.5546834e+3, 3.1698826e+2, -521793.75, -203359.03, 38318.832, -0.086124875, -0.47259128, -198812.83, -198812.83, 0.0, 9.996217, 10.0004225 
2.565673e+3, 1.2706523e+2, -1239844.3, -1637649.4, 26943.28, -0.07910858, -0.49161762, -1238027.6, 456693.5, 0.20683332, 10.004914, 9.998264 
2.5656217e+3, 1.3706441e+2, -1087777.5, -1562617.4, -1803.6276, 0.08174462, -0.38071725, -1087770.6, 508957.03, 0.14224595, 10.005232, 9.99789 
2.565568e+3, 1.4706197e+2, -1036705.6, -1567680.6, -10272.027, 0.015671013, -0.35673198, -1036507.0, 462244.28, 0.07958406, 10.004887, 9.997306 
2.5655138e+3, 1.5705892e+2, -1011516.44, -1526339.5, -3360.584, -0.11465686, -0.37805805, -1011494.5, 389286.94, 0.03263798, 10.004238, 9.997232 
2.5654614e+3, 1.6705607e+2, -950114.0, -1390059.9, 15509.931, -0.087534875, -0.3989615, -949567.9, 353242.53, 0.008203425, 10.003657, 9.997773 
2.5654095e+3, 1.7705348e+2, -923043.2, -1318707.6, 19616.348, 0.0017970231, -0.42317444, -922073.06, 282763.9, 0.0008310689, 10.003112, 9.997854 
2.5653568e+3, 1.8705168e+2, -844054.25, -1101294.1, 14809.253, -0.00013269692, -0.43662134, -843204.5, 263647.84, 0.000007464854, 10.002428, 9.999002 
2.565304e+3, 1.9705044e+2, -878020.0, -1108912.5, -264.1836, -0.039362736, -0.44426343, -878019.7, 130841.13, 0.0, 10.0017, 9.998631 
2.5652516e+3, 2.070486e+2, -840332.56, -1110774.4, 21384.123, -0.051322486, -0.43198645, -838652.2, 72227.984, 0.0, 10.0015955, 9.9979925 
2.5651997e+3, 2.1704663e+2, -713084.75, -992193.6, 42560.277, -0.052342426, -0.4152937, -706739.2, 106163.86, 0.0, 10.001765, 9.9980545 
2.565148e+3, 2.2704506e+2, -633877.8, -783786.3, 48947.207, -0.024339844, -0.4218221, -619311.25, 95607.22, 0.0, 10.001122, 9.999121 
2.5650963e+3, 2.3704383e+2, -696106.1, -780115.2, 41208.3, 0.022274805, -0.44185093, -679267.6, -62338.855, 0.0, 10.000095, 9.998969 
2.5650448e+3, 2.470429e+2, -674723.75, -697361.5, 39284.375, 0.0031013277, -0.4232218, -645160.1, -126221.95, 0.0, 9.999477, 9.99916 
2.5649923e+3, 2.570423e+2, -644979.6, -638961.2, 39752.55, -0.053556748, -0.38633105, -602104.1, -181158.84, 0.0, 9.999034, 9.999104 
2.5649402e+3, 2.670415e+2, -613084.9, -502949.47, 35794.89, -0.07395593, -0.39218563, -492338.22, -169384.66, 0.0, 9.9982815, 9.999725 
2.5648883e+3, 2.7704072e+2, -651883.44, -479178.5, 35382.29, -0.05374128, -0.43122706, -472210.78, -247249.14, 0.0, 9.997375, 9.999655 
2.5648364e+3, 2.8704077e+2, -525153.56, -305028.4, 18811.336, -0.0440207, -0.4006477, -303432.4, -176471.8, 0.0, 9.997305, 10.00021 
2.564783e+3, 2.9704183e+2, -397433.8, -201432.8, 28930.883, -0.09924367, -0.30290967, -197251.63, -168301.78, 0.0, 9.997546, 10.0001335 
2.5647327e+3, 3.0704015e+2, -452754.84, -139503.77, 13297.005, 0.061811946, -0.49923328, -138940.34, -138940.34, 0.0, 9.996553, 10.000704 
2.5646788e+3, 3.170437e+2, -592627.75, -159567.94, 74813.27, -0.11794853, -0.1838586, -147007.84, -147007.84, 0.0, 9.995399, 10.001117 
2.5756776e+3, 1.2711947e+2, -1275421.5, -1732813.6, 34231.543, -0.09395576, -0.40118057, -1272873.8, 421314.22, 0.18621354, 10.004875, 9.997529 
2.575626e+3, 1.3711731e+2, -1123260.6, -1643527.8, 3505.969, -0.0011926846, -0.35165745, -1123237.0, 472972.63, 0.12717175, 10.00515, 9.997337 
2.575572e+3, 1.4711414e+2, -1022733.3, -1534969.3, -32648.363, -0.046380397, -0.39490995, -1020660.75, 477579.78, 0.07029769, 10.00483, 9.9975605 
2.575518e+3, 1.5711069e+2, -997488.6, -1495389.4, -25403.475, -0.11763558, -0.4822024, -996195.9, 404077.94, 0.028215315, 10.004214, 9.997458 
2.575465e+3, 1.6710854e+2, -940647.06, -1370303.3, -3921.6082, -0.059833217, -0.45001233, -940611.25, 361684.56, 0.006812128, 10.00365, 9.997914 
2.575413e+3, 1.7710713e+2, -922421.9, -1315396.1, -1653.1475, 0.043120895, -0.36834353, -922414.94, 281896.1, 0.0006366626, 10.0031, 9.997885 
2.575359e+3, 1.8710493e+2, -875620.5, -1169961.3, -12551.219, -0.01976227, -0.39572814, -875086.25, 231244.83, 0.0000046197197, 10.002439, 9.998528 
2.5753045e+3, 1.9710253e+2, -893459.3, -1146640.1, -19204.426, -0.15136266, -0.47217244, -892010.9, 116340.68, 0.0, 10.001722, 9.998362 
2.575253e+3, 2.0710091e+2, -799928.1, -1029855.25, 29300.305, -0.077834666, -0.46136123, -796253.06, 114114.75, 0.0, 10.001605, 9.998546 
2.5752026e+3, 2.1709977e+2, -689393.9, -937629.56, 41241.953, 0.079745814, -0.41514313, -682721.3, 129659.47, 0.0, 10.0017395, 9.998444 
2.5751495e+3, 2.2709835e+2, -653946.7, -822685.6, 10015.958, 0.026443144, -0.40739295, -653354.2, 61040.938, 0.0, 10.001108, 9.998862 
2.5750953e+3, 2.3709692e+2, -710398.0, -810033.8, 6694.5747, -0.11465265, -0.42025125, -709950.25, -93541.625, 0.0, 10.000093, 9.998766 
2.5750428e+3, 2.4709567e+2, -674444.06, -697478.1, 21888.092, -0.08070997, -0.42559335, -661227.94, -142806.6, 0.0, 9.999478, 9.99916 
2.574992e+3, 2.5709465e+2, -641294.4, -634493.25, 19276.783, 0.017642247, -0.42988324, -618319.4, -197887.27, 0.0, 9.999045, 9.99913 
2.5749388e+3, 2.670941e+2, -608465.06, -494717.0, -858.6789, -0.033752516, -0.41684607, -494710.5, -172272.83, 0.0, 9.998282, 9.9997835 
2.574885e+3, 2.7709398e+2, -648458.7, -471584.06, 9584.666, -0.12461595, -0.39719948, -471066.22, -246627.02, 0.0, 9.99737, 9.999711 
2.5748333e+3, 2.870937e+2, -519987.47, -295901.47, 28740.438, -0.06905629, -0.4067722, -292274.03, -165831.95, 0.0, 9.997309, 10.000272 
2.5747815e+3, 2.9709357e+2, -396765.88, -210632.45, 23281.104, -0.024630474, -0.4315291, -207764.7, -179320.89, 0.0, 9.997588, 10.000052 
2.5747287e+3, 3.0709437e+2, -476406.75, -190482.69, -46533.344, 0.032205623, -0.35387257, -183100.14, -183100.14, 0.0, 9.996558, 10.000354 
2.5746745e+3, 3.1709456e+2, -464087.03, 108871.83, 78415.984, -0.05930056, -0.36893725, 119410.13, 119410.13, 0.0, 9.995383, 10.002974 
2.585683e+3, 1.2717256e+2, -1209571.4, -1706831.5, 15614.11, -0.055940382, -0.40238807, -1209081.6, 484584.84, 0.16670844, 10.005354, 9.99748 
2.58563e+3, 1.3716982e+2, -1226979.6, -1701949.3, 19502.605, -0.047798544, -0.40516973, -1226180.1, 369513.75, 0.112974815, 10.004276, 9.997358 
2.5855762e+3, 1.4716692e+2, -1124416.8, -1561119.0, 1955.313, -0.077497676, -0.43857038, -1124408.0, 373314.66, 0.061634436, 10.003935, 9.99781 
2.5855222e+3, 1.5716407e+2, -1017910.06, -1479997.4, 7359.4697, -0.088081434, -0.48924267, -1017792.9, 381957.56, 0.024167819, 10.003948, 9.99769 
2.585469e+3, 1.671622e+2, -942790.6, -1355441.1, 22111.365, -0.04576017, -0.44547668, -941609.25, 360160.16, 0.0055877767, 10.003565, 9.998056 
2.5854155e+3, 1.7716093e+2, -932455.44, -1315669.3, 25101.654, 0.01012656, -0.3622207, -930818.2, 272964.63, 0.00047878033, 10.003013, 9.997925 
2.5853613e+3, 1.871585e+2, -850951.25, -1197285.5, 23404.385, -0.037537657, -0.3924852, -849376.8, 256428.94, 0.0000028007903, 10.00278, 9.998175 
2.5853068e+3, 1.971557e+2, -772288.2, -1115389.3, 21087.625, -0.12690449, -0.4743602, -770996.94, 236834.4, 0.0, 10.002674, 9.998117 
2.5852546e+3, 2.0715402e+2, -761935.0, -993747.0, 49050.31, -0.06654884, -0.46750623, -751983.4, 157864.55, 0.0, 10.001792, 9.998701 
2.5852033e+3, 2.1715303e+2, -848375.1, -997910.94, 34343.816, 0.058707733, -0.42292804, -840864.56, -29005.826, 0.0, 10.000582, 9.998585 
2.5851497e+3, 2.2715178e+2, -768301.3, -873631.06, 13027.682, 0.002461315, -0.40422893, -766713.94, -52842.445, 0.0, 10.00031, 9.998894 
2.5850952e+3, 2.3715056e+2, -658763.6, -783614.6, 27786.326, -0.12937984, -0.40003037, -652858.9, -36975.25, 0.0, 10.000444, 9.998776 
2.5850424e+3, 2.4714926e+2, -621485.8, -676713.1, 40389.492, -0.08744356, -0.40699697, -600172.75, -82275.57, 0.0, 9.999865, 9.999115 
2.584991e+3, 2.5714806e+2, -655844.6, -640585.25, 34418.21, 0.023732705, -0.4231789, -612961.2, -193051.45, 0.0, 9.998946, 9.999134 
2.584937e+3, 2.6714754e+2, -568335.94, -460982.78, 18982.268, -0.027431736, -0.41680196, -457725.16, -135810.56, 0.0, 9.998501, 9.9999075 
2.5848827e+3, 2.771475e+2, -518309.34, -399758.16, 35908.996, -0.12059773, -0.39720827, -389729.7, -165815.63, 0.0, 9.998227, 9.999789 
2.5848308e+3, 2.8714713e+2, -502954.63, -297381.47, 56732.32, -0.04722748, -0.41602865, -282764.3, -156845.97, 0.0, 9.99747, 10.000184 
2.5847787e+3, 2.9714665e+2, -564014.06, -304714.88, 36449.71, 0.01659182, -0.46740305, -299688.56, -271764.13, 0.0, 9.996498, 9.999932 
2.5847247e+3, 3.0714822e+2, -499991.3, -221726.69, -33892.332, -0.006213985, -0.29474375, -217658.13, -217658.13, 0.0, 9.996488, 10.000171 
2.5846702e+3, 3.1714538e+2, -337616.78, 189675.17, 35454.758, -0.04377188, -0.60383826, 192048.45, 192048.45, 0.0, 9.996176, 10.003141 
2.5956884e+3, 1.2722494e+2, -1176589.0, -1646844.8, -19227.78, 0.008699595, -0.46771014, -1175804.1, 517348.4, 0.14845222, 10.005305, 9.997965 
2.5956342e+3, 1.3722216e+2, -1197284.5, -1642148.4, -10629.961, -0.0730606, -0.52469, -1197030.6, 398148.4, 0.09975782, 10.004259, 9.997777 
2.59558e+3, 1.4722024e+2, -1105540.4, -1527676.5, 949.03265, -0.085991025, -0.48722687, -1105538.3, 391660.22, 0.05365141, 10.003935, 9.998042 
2.5955263e+3, 1.5721886e+2, -1003314.44, -1448821.4, 2475.678, -0.03817366, -0.41621435, -1003300.7, 395912.78, 0.020512478, 10.003931, 9.997914 
2.595472e+3, 1.6721693e+2, -933508.06, -1336491.5, -178.18349, -0.047247868, -0.3955856, -933508.0, 367724.6, 0.004527264, 10.00356, 9.998191 
2.5954175e+3, 1.7721494e+2, -930493.1, -1311710.4, 7034.226, -0.08871417, -0.39713398, -930363.4, 272888.5, 0.00035322845, 10.003011, 9.997954 
2.595364e+3, 1.8721241e+2, -871631.56, -1238773.0, 19955.299, -0.053750943, -0.4200877, -870550.06, 234726.23, 0.0000016193491, 10.00277, 9.997896 
2.5953108e+3, 1.972098e+2, -794892.2, -1154905.3, 9517.64, 0.011952141, -0.45516774, -794640.75, 212660.7, 0.0, 10.00264, 9.997864 
2.5952566e+3, 2.0720786e+2, -777962.75, -1024794.2, 2996.9673, -0.026469136, -0.4542206, -777926.4, 131394.97, 0.0, 10.00178, 9.998496 
2.595202e+3, 2.1720637e+2, -854877.3, -1012411.0, 872.4612, -0.10791186, -0.43889388, -854872.44, -43535.33, 0.0, 10.000584, 9.9984865 
2.595149e+3, 2.2720535e+2, -747347.2, -831705.9, 19985.078, -0.09073913, -0.41035166, -742852.1, -29504.672, 0.0, 10.000316, 9.999181 
2.5950965e+3, 2.3720469e+2, -644388.9, -754620.44, 25041.127, -0.03209943, -0.38026312, -638967.0, -23612.783, 0.0, 10.000445, 9.998977 
2.595043e+3, 2.4720359e+2, -628667.44, -691835.5, 4226.8823, -0.022838928, -0.36826077, -628385.9, -111019.61, 0.0, 9.999863, 9.999014 
2.594989e+3, 2.5720248e+2, -657931.75, -646591.9, 4058.9033, -0.042003747, -0.36727464, -645288.8, -225909.88, 0.0, 9.99895, 9.999093 
2.594935e+3, 2.6720172e+2, -555133.8, -434437.66, 8348.037, -0.05813213, -0.3917338, -433862.97, -112478.02, 0.0, 9.998503, 10.00009 
2.5948817e+3, 2.772013e+2, -508734.03, -385025.84, 19995.217, -0.048156764, -0.42869917, -381874.25, -158487.61, 0.0, 9.998247, 9.999883 
2.594829e+3, 2.8720102e+2, -518732.56, -331605.6, 16898.617, 0.025935443, -0.42775244, -330091.8, -204701.9, 0.0, 9.997472, 9.99995 
2.5947753e+3, 2.9720098e+2, -577229.56, -326968.16, 9695.752, 0.03422446, -0.40856984, -326593.06, -299201.22, 0.0, 9.996473, 9.999794 
2.59472e+3, 3.0720156e+2, -506729.63, -237051.38, -18527.684, -0.09388241, -0.3289557, -235784.42, -235784.42, 0.0, 9.996489, 10.000068 
2.5946665e+3, 3.1719995e+2, -395513.1, 58732.746, -86769.734, -0.027793903, -0.4890229, 74743.14, 74743.14, 0.0, 9.996213, 10.00223 
2.6056942e+3, 1.2727918e+2, -1136224.3, -1630908.0, 8570.025, 0.021003712, -0.44886667, -1136075.8, 556547.06, 0.13149151, 10.00553, 9.997978 
2.6056382e+3, 1.3727662e+2, -1156388.1, -1618308.9, -344.06393, -0.07454255, -0.48449066, -1156387.9, 438259.2, 0.08756818, 10.004504, 9.997824 
2.6055837e+3, 1.4727472e+2, -1082539.6, -1509183.9, 23649.629, -0.09339042, -0.4526501, -1081232.8, 415433.4, 0.046378683, 10.004049, 9.998112 
2.60553e+3, 1.5727325e+2, -1007402.75, -1443481.3, 8685.816, -0.04393988, -0.39573285, -1007229.8, 391451.7, 0.01725668, 10.003863, 9.997982 
2.6054755e+3, 1.6727121e+2, -938553.06, -1331962.3, -14038.059, -0.053910173, -0.3923232, -938052.8, 362648.5, 0.0036245666, 10.003496, 9.998251 
2.60542e+3, 1.7726907e+2, -920652.8, -1299379.4, -11779.933, -0.09739017, -0.41377023, -920286.75, 282434.78, 0.0002556899, 10.003049, 9.998019 
2.605366e+3, 1.8726677e+2, -908560.5, -1246838.9, 21333.09, -0.058130827, -0.4225939, -907220.5, 197523.52, 0.00000086705097, 10.00248, 9.997978 
2.605313e+3, 1.9726454e+2, -903046.8, -1199144.0, 31562.605, 0.018446274, -0.4281999, -899719.8, 107046.11, 0.0, 10.001867, 9.997931 
2.605258e+3, 2.0726259e+2, -826330.56, -1051112.9, 29351.24, -0.028829748, -0.427379, -822561.2, 86224.555, 0.0, 10.001465, 9.998466 
2.6052025e+3, 2.1726094e+2, -773528.06, -975755.75, 40316.58, -0.12808675, -0.4240332, -765786.8, 45016.04, 0.0, 10.001155, 9.998462 
2.6051491e+3, 2.2725977e+2, -700324.75, -809030.5, 64978.215, -0.096047886, -0.40932092, -669964.0, 42850.758, 0.0, 10.00064, 9.99918 
2.6050967e+3, 2.3725896e+2, -700600.8, -770058.4, 46443.6, -0.003287377, -0.3926418, -677337.4, -62514.563, 0.0, 10.000014, 9.999076 
2.6050425e+3, 2.472582e+2, -682792.3, -675578.5, 27160.63, -0.013107134, -0.37489617, -651786.3, -134955.16, 0.0, 9.999312, 9.999389 
2.6049873e+3, 2.572576e+2, -694423.56, -635607.4, 67030.84, -0.07261377, -0.3586761, -591817.3, -172979.19, 0.0, 9.99858, 9.999345 
2.6049334e+3, 2.6725683e+2, -569029.6, -457020.8, 87432.4, -0.06999439, -0.38428316, -409194.03, -88349.53, 0.0, 9.998479, 9.999945 
2.60488e+3, 2.7725613e+2, -465170.22, -377024.72, 66971.836, -0.014588711, -0.4326873, -340924.94, -118075.66, 0.0, 9.998606, 9.999763 
2.6048264e+3, 2.8725582e+2, -432213.94, -292728.25, 39783.85, 0.03335989, -0.42612684, -282179.0, -157326.33, 0.0, 9.998085, 9.999919 
2.604772e+3, 2.9725596e+2, -469477.5, -270600.3, 51649.62, -0.001554829, -0.38866615, -257986.6, -231133.77, 0.0, 9.997201, 9.999826 
2.604717e+3, 3.0725604e+2, -513147.16, -222751.44, 64670.582, -0.059030864, -0.3671293, -209000.56, -209000.56, 0.0, 9.996379, 10.000215 
2.604663e+3, 3.1725627e+2, -380620.0, 24855.74, -2902.1733, 0.022726227, -0.34697992, 24876.512, 24876.512, 0.0, 9.996498, 10.001856 
2.615699e+3, 1.2733495e+2, -1159310.9, -1674332.4, -28315.035, -0.0097645745, -0.36710906, -1157758.9, 534321.5, 0.11581889, 10.005424, 9.997679 
2.6156425e+3, 1.3733293e+2, -1167863.0, -1656024.3, -28147.904, -0.06801205, -0.32031533, -1166245.4, 427854.6, 0.07640486, 10.004504, 9.997564 
2.6155874e+3, 1.4733021e+2, -1085434.6, -1525584.4, 17669.602, -0.107366845, -0.35223606, -1084726.5, 411399.47, 0.039814264, 10.004061, 9.997996 
2.6155332e+3, 1.5732741e+2, -1020062.5, -1462546.5, 339.9447, -0.098764, -0.41774824, -1020062.25, 378090.53, 0.014393463, 10.003818, 9.997875 
2.6154786e+3, 1.673252e+2, -945834.94, -1339099.1, -30055.09, -0.065367825, -0.42632145, -943551.25, 356622.66, 0.002869869, 10.003456, 9.998223 
2.6154238e+3, 1.7732339e+2, -918978.7, -1290066.1, -29028.953, -0.035450503, -0.41407636, -916721.56, 285469.56, 0.0001820931, 10.00302, 9.998098 
2.6153687e+3, 1.8732153e+2, -880711.4, -1189206.8, -1241.8268, -0.057023633, -0.40430933, -880706.4, 223502.34, 0.00000042407203, 10.002478, 9.998377 
2.6153135e+3, 1.9731984e+2, -880702.0, -1152584.1, 11939.147, -0.09520429, -0.39648306, -880178.75, 126046.3, 0.0, 10.0018635, 9.998254 
2.615259e+3, 2.0731816e+2, -819666.1, -1037603.75, 18311.578, -0.068395905, -0.38692853, -818138.3, 90103.31, 0.0, 10.001464, 9.99856 
2.6152048e+3, 2.1731661e+2, -774332.94, -975321.9, 27574.826, -0.020003516, -0.38115966, -770618.44, 39638.656, 0.0, 10.001143, 9.998472 
2.6151505e+3, 2.273149e+2, -719965.75, -848933.3, 42361.902, -0.024088236, -0.40329942, -707295.9, 4978.3604, 0.0, 10.000633, 9.99891 
2.6150963e+3, 2.3731335e+2, -702262.94, -772929.5, 21836.072, -0.04611802, -0.43871573, -696060.0, -81769.984, 0.0, 10.000009, 9.999061 
2.615041e+3, 2.4731304e+2, -625098.75, -555294.4, -2260.053, -0.05830178, -0.42584038, -555221.25, -38929.023, 0.0, 9.999309, 10.0002165 
2.6149857e+3, 2.5731334e+2, -656152.94, -558894.5, 46135.844, -0.07529161, -0.39577973, -540491.56, -122203.75, 0.0, 9.998589, 9.999868 
2.6149318e+3, 2.6731277e+2, -602985.8, -529818.44, 92290.76, -0.06391252, -0.3945316, -467125.0, -146831.31, 0.0, 9.998486, 9.999444 
2.6148784e+3, 2.7731192e+2, -487680.72, -427314.7, 64311.676, -0.021819795, -0.4074946, -386455.4, -164152.92, 0.0, 9.998619, 9.999413 
2.614824e+3, 2.8731146e+2, -420392.44, -271393.4, 5490.388, -0.038816582, -0.41109622, -271191.38, -146884.05, 0.0, 9.9980955, 10.000061 
2.6147676e+3, 2.973114e+2, -452763.1, -244059.52, 15205.93, -0.1296432, -0.40964964, -242957.44, -216649.08, 0.0, 9.997232, 9.999995 
2.6147154e+3, 3.0731156e+2, -488806.88, -172106.56, 34567.285, 0.16683565, -0.407144, -168377.52, -168377.52, 0.0, 9.996375, 10.000566 
2.6146588e+3, 3.173123e+2, -409083.75, -52420.81, 84993.48, -0.05425338, -0.36574838, -33202.277, -33202.277, 0.0, 9.996554, 10.00131 
2.6257038e+3, 1.2739071e+2, -1249690.0, -1735427.9, 10853.953, -0.02791635, -0.3466094, -1249447.6, 442087.2, 0.10140529, 10.0047, 9.997598 
2.6256475e+3, 1.3738851e+2, -1060383.0, -1613986.4, 15122.151, -0.05364914, -0.30747375, -1059970.3, 533585.9, 0.06623453, 10.005307, 9.997466 
2.6255918e+3, 1.4738566e+2, -1039248.0, -1523019.9, 42565.465, -0.09053889, -0.33874157, -1035531.4, 460052.13, 0.033928465, 10.004461, 9.997818 
2.6255366e+3, 1.5738268e+2, -1137494.0, -1534862.3, 26674.727, -0.08908284, -0.40309694, -1135711.4, 261900.56, 0.011900517, 10.003062, 9.997741 
2.6254818e+3, 1.6738041e+2, -1053687.1, -1390753.9, 17776.59, -0.059885293, -0.41132766, -1052752.1, 246881.72, 0.002249026, 10.002716, 9.998221 
2.6254267e+3, 1.773786e+2, -945392.8, -1294966.6, 15491.633, -0.031869065, -0.39884683, -944707.6, 256943.94, 0.00012833992, 10.002811, 9.998162 
2.625371e+3, 1.8737681e+2, -872740.75, -1157148.1, 21941.88, -0.066779956, -0.39968684, -871057.9, 232610.06, 0.00000019125741, 10.002417, 9.998624 
2.625315e+3, 1.9737521e+2, -871114.7, -1123501.8, 25239.457, -0.12037483, -0.4043096, -868615.44, 137066.7, 0.0, 10.001828, 9.998468 
2.6252604e+3, 2.0737368e+2, -807591.06, -1020457.5, 39707.336, -0.070287734, -0.39604747, -800425.44, 107271.61, 0.0, 10.0015, 9.998659 
2.6252064e+3, 2.1737225e+2, -751319.2, -952261.94, 44741.945, 0.01991292, -0.3869541, -741807.25, 67903.81, 0.0, 10.001255, 9.998573 
2.625151e+3, 2.2737065e+2, -750283.5, -856886.25, 58593.184, -0.0022067747, -0.40739998, -724375.0, -12647.568, 0.0, 10.0004, 9.998966 
2.6250955e+3, 2.3736914e+2, -801142.56, -816114.9, 64566.05, -0.06480921, -0.4400639, -743630.1, -129887.28, 0.0, 9.999313, 9.999098 
2.62504e+3, 2.4736874e+2, -645455.44, -566663.6, 22028.025, -0.07374322, -0.43507686, -560923.4, -45177.688, 0.0, 9.999178, 10.000201 
2.6249847e+3, 2.5736895e+2, -538832.1, -499440.0, 8773.97, -0.06452219, -0.41746512, -497574.13, -79832.02, 0.0, 9.999385, 9.999891 
2.6249304e+3, 2.6736847e+2, -553983.25, -491980.78, 65105.016, -0.044005264, -0.41241315, -450872.78, -131126.08, 0.0, 9.998764, 9.999568 
2.6248768e+3, 2.773679e+2, -600984.6, -468778.78, 82206.914, 0.00044317555, -0.41365385, -429394.38, -207641.02, 0.0, 9.997788, 9.999526 
2.6248208e+3, 2.8736752e+2, -503151.3, -300861.88, 33937.535, -0.08139035, -0.41650566, -295320.1, -171562.9, 0.0, 9.997485, 10.000152 
2.6247635e+3, 2.9736745e+2, -418558.88, -225268.16, 36828.848, -0.25219157, -0.4229377, -218488.7, -192730.63, 0.0, 9.997459, 10.000013 
2.6247135e+3, 3.0736768e+2, -341625.53, -107182.55, 32018.012, 0.31657618, -0.4099984, -102888.48, -102888.48, 0.0, 9.997415, 10.000509 
2.6246545e+3, 3.1736773e+2, -407112.4, -58701.6, 92928.74, -0.11253462, -0.43540934, -35465.18, -35465.18, 0.0, 9.996608, 10.001236 
2.6357082e+3, 1.274466e+2, -1242956.9, -1725492.3, 28530.8, -0.04656337, -0.3723997, -1241275.8, 449709.8, 0.088209555, 10.004667, 9.997678 
2.6356527e+3, 1.3744372e+2, -1066413.3, -1621109.1, 18633.691, -0.040052705, -0.4078332, -1065788.0, 527225.0, 0.057010967, 10.005233, 9.997452 
2.6355964e+3, 1.474412e+2, -1055900.8, -1560560.9, -11979.804, -0.05199063, -0.39035746, -1055616.5, 439421.34, 0.028681511, 10.004441, 9.997573 
2.63554e+3, 1.5743895e+2, -1145227.8, -1558910.9, -13179.396, -0.031823523, -0.35745755, -1144808.3, 252252.02, 0.009749007, 10.003087, 9.997566 
2.6354843e+3, 1.674367e+2, -1050909.5, -1389298.4, 22828.852, -0.04471806, -0.35795617, -1049376.4, 249706.55, 0.0017459476, 10.002731, 9.998226 
2.6354286e+3, 1.7743462e+2, -947806.8, -1294255.5, 14316.625, -0.08243659, -0.37345064, -947216.25, 253887.64, 0.0000901775, 10.002784, 9.998182 
2.635373e+3, 1.8743257e+2, -870880.3, -1147820.6, 390.85422, -0.08672895, -0.40612856, -870879.75, 232242.1, 0.00000008629741, 10.002389, 9.998703 
2.635317e+3, 1.9743071e+2, -868784.44, -1113006.4, 7647.2188, -0.07387964, -0.44606698, -868545.25, 136591.98, 0.0, 10.001801, 9.998555 
2.635262e+3, 2.0742913e+2, -801454.94, -1005185.4, 32328.445, -0.04230562, -0.45037392, -796448.0, 110704.0, 0.0, 10.001488, 9.998771 
2.6352072e+3, 2.1742782e+2, -742301.9, -929217.5, 29833.957, -0.007855248, -0.44220734, -737655.56, 71509.58, 0.0, 10.001233, 9.998744 
2.635151e+3, 2.2742693e+2, -727737.6, -807745.06, 16866.508, -0.027824579, -0.42026344, -724327.4, -13152.537, 0.0, 10.000388, 9.9993105 
2.6350948e+3, 2.3742628e+2, -796494.9, -807811.6, 34445.285, -0.06730604, -0.3972254, -767246.3, -154064.25, 0.0, 9.999316, 9.999155 
2.6350394e+3, 2.4742526e+2, -704014.0, -690430.56, 30452.143, -0.061873138, -0.403933, -666021.94, -150829.72, 0.0, 9.999185, 9.99935 
2.634984e+3, 2.574243e+2, -568905.25, -566303.6, 6436.2676, -0.046175312, -0.42374802, -561038.0, -143836.22, 0.0, 9.999401, 9.999427 
2.634929e+3, 2.6742393e+2, -500377.28, -381627.16, 25624.295, -0.01368706, -0.43826517, -376333.8, -57129.65, 0.0, 9.998767, 10.000325 
2.634875e+3, 2.7742392e+2, -559278.44, -383690.25, 51664.055, 0.042498194, -0.4524949, -369616.9, -148414.44, 0.0, 9.997792, 10.00011 
2.6348183e+3, 2.874239e+2, -500811.9, -295066.88, 32146.045, -0.08925695, -0.4438263, -290161.28, -166958.61, 0.0, 9.9974785, 10.000196 
2.6347598e+3, 2.9742414e+2, -427539.8, -243062.44, 37900.027, -0.35127, -0.4235807, -235579.58, -210377.77, 0.0, 9.997453, 9.999896 
2.634711e+3, 3.0742437e+2, -368886.44, -178481.19, 28508.992, 0.3286713, -0.37297887, -174304.22, -174304.22, 0.0, 9.99747, 9.999997 
2.634652e+3, 3.174236e+2, -344711.53, 75184.38, -12871.556, -0.03233936, -0.4440507, 75578.58, 75578.58, 0.0, 9.996604, 10.002151 
2.6457125e+3, 1.2750219e+2, -1190686.6, -1676271.8, 25104.076, -0.08290985, -0.39970863, -1189392.3, 501048.44, 0.07617641, 10.004891, 9.997917 
2.645658e+3, 1.3749976e+2, -1126252.8, -1629400.1, 14461.256, -0.0072905007, -0.41164222, -1125837.5, 466625.53, 0.04868851, 10.004661, 9.997671 
2.6456007e+3, 1.4749734e+2, -1069438.5, -1551052.5, -24435.633, -0.02198409, -0.40241653, -1068201.9, 426284.88, 0.024036074, 10.004265, 9.997719 
2.6455435e+3, 1.5749505e+2, -1030043.1, -1488996.6, 246.0643, -0.028098801, -0.38737804, -1030043.0, 366466.7, 0.007910069, 10.003826, 9.997686 
2.6454872e+3, 1.6749305e+2, -999950.06, -1361085.3, 57194.023, -0.04074264, -0.36912853, -991108.56, 307421.6, 0.0013442416, 10.003071, 9.998254 
2.6454312e+3, 1.7749129e+2, -1028937.44, -1327261.9, 49289.246, -0.067006506, -0.35324496, -1021004.8, 179543.27, 0.00006369034, 10.002206, 9.998232 
2.645375e+3, 1.874892e+2, -950534.1, -1176141.4, 36673.465, -0.06692909, -0.39814207, -944722.4, 157844.1, 0.000000036839044, 10.001804, 9.998788 
2.6453188e+3, 1.9748712e+2, -893336.6, -1112728.6, 43236.887, -0.051183186, -0.46768174, -885123.1, 119460.52, 0.0, 10.001585, 9.998658 
2.645263e+3, 2.0748562e+2, -859835.7, -1017270.9, 67146.67, -0.042804398, -0.476222, -835087.6, 71509.96, 0.0, 10.001021, 9.998911 
2.6452073e+3, 2.1748453e+2, -866253.6, -976423.06, 62893.934, -0.03738778, -0.45911142, -837732.3, -29123.766, 0.0, 10.000332, 9.998853 
2.645151e+3, 2.2748378e+2, -771890.1, -829087.2, 30326.781, -0.042300474, -0.4244473, -758804.25, -48187.38, 0.0, 10.000087, 9.999308 
2.6450944e+3, 2.3748328e+2, -700133.2, -765424.1, 30086.324, -0.045357298, -0.38733467, -688383.7, -75760.57, 0.0, 9.999998, 9.999116 
2.6450387e+3, 2.474821e+2, -651320.0, -685272.5, 68252.34, -0.042745672, -0.39732042, -597964.4, -83329.38, 0.0, 9.999636, 9.9991665 
2.6449832e+3, 2.5748083e+2, -619750.9, -607134.25, 84123.18, -0.04351218, -0.4269383, -529083.2, -112435.76, 0.0, 9.9991255, 9.999277 
2.6449278e+3, 2.6748034e+2, -533433.6, -401251.44, 54700.336, -0.020378603, -0.44352305, -381551.2, -62900.15, 0.0, 9.998557, 10.000291 
2.6448727e+3, 2.774803e+2, -536318.75, -371546.28, 29771.018, 0.037158836, -0.4587156, -366332.28, -145682.52, 0.0, 9.997945, 10.000119 
2.644816e+3, 2.874804e+2, -446952.0, -256221.84, 21263.893, -0.06909687, -0.4487633, -253879.95, -131231.22, 0.0, 9.997796, 10.000309 
2.6447576e+3, 2.9748076e+2, -375977.63, -212815.44, 30586.084, -0.30922756, -0.4251072, -207270.28, -182624.25, 0.0, 9.997787, 9.999941 
2.6447073e+3, 3.074805e+2, -403805.6, -213769.33, 34737.004, 0.23831387, -0.41579372, -207618.77, -207618.77, 0.0, 9.997311, 9.999831 
2.6446486e+3, 3.1748036e+2, -318063.28, 105969.125, -67959.05, -0.012397289, -0.4097647, 116594.56, 116594.56, 0.0, 9.996725, 10.002296 
2.6557165e+3, 1.2755771e+2, -1160902.9, -1622828.3, 19562.414, -0.14243585, -0.4222304, -1160075.9, 529821.6, 0.065238096, 10.004885, 9.998306 
2.655663e+3, 1.3755661e+2, -1110742.1, -1579550.6, 6222.5713, 0.03445239, -0.34176266, -1110659.5, 481246.72, 0.041219413, 10.004556, 9.998066 
2.655605e+3, 1.4755405e+2, -1048236.8, -1494951.5, -39807.188, -0.0029709388, -0.38664353, -1044717.3, 449213.16, 0.01995428, 10.004195, 9.99814 
2.6555467e+3, 1.575511e+2, -1010296.5, -1443611.6, -19086.729, -0.074459426, -0.47939917, -1009457.4, 386501.7, 0.006354518, 10.003799, 9.998012 
2.65549e+3, 1.6754955e+2, -998675.2, -1357014.4, 24679.012, -0.048315164, -0.43068835, -996983.56, 300991.28, 0.0010277808, 10.00306, 9.998287 
2.6554337e+3, 1.7754865e+2, -1027496.3, -1322372.8, 23354.746, 0.00046747967, -0.33352026, -1025658.0, 174326.42, 0.000045503482, 10.002195, 9.998272 
2.655377e+3, 1.875466e+2, -945340.25, -1165783.9, 29774.928, -0.016218413, -0.3783031, -941389.4, 160613.31, 0.000000014947995, 10.001803, 9.99886 
2.6553202e+3, 1.975443e+2, -888423.3, -1100140.4, 31730.318, -0.055733293, -0.47678223, -883770.1, 120252.61, 0.0, 10.001572, 9.998753 
2.6552635e+3, 2.0754303e+2, -850113.4, -996267.6, 40801.703, -0.070530236, -0.47640523, -839494.3, 66540.19, 0.0, 10.001015, 9.99906 
2.655207e+3, 2.1754228e+2, -866013.4, -973481.8, 43018.016, -0.076242834, -0.43965432, -850915.1, -42873.074, 0.0, 10.000319, 9.99888 
2.655151e+3, 2.2754116e+2, -794623.44, -877552.25, 28357.19, -0.047703043, -0.42096972, -785854.1, -75800.01, 0.0, 10.000092, 9.998974 
2.655095e+3, 2.3754008e+2, -707614.75, -783629.06, 23908.463, -0.0064713545, -0.41134644, -700720.25, -88653.81, 0.0, 10.000007, 9.998988 
2.6550382e+3, 2.4753922e+2, -617940.56, -617025.75, 48302.79, -0.019788237, -0.41506055, -569178.2, -55103.95, 0.0, 9.999638, 9.999635 
2.654982e+3, 2.5753856e+2, -608052.5, -585530.94, 63526.53, -0.064041264, -0.42613843, -532274.8, -116195.52, 0.0, 9.999135, 9.999422 
2.654926e+3, 2.6753774e+2, -592789.06, -524326.94, 30547.662, -0.06525462, -0.42809853, -512678.53, -194590.84, 0.0, 9.998553, 9.999449 
2.6548696e+3, 2.7753705e+2, -575015.0, -453719.3, 12127.509, -0.023165211, -0.42856896, -452518.66, -232423.02, 0.0, 9.997951, 9.999554 
2.6548138e+3, 2.8753698e+2, -432661.66, -230120.86, 21048.406, -0.023084437, -0.42825115, -227956.61, -105860.89, 0.0, 9.997808, 10.0004835 
2.6547572e+3, 2.975373e+2, -355326.5, -177996.36, 23893.35, -0.12697206, -0.42534462, -174833.4, -150742.13, 0.0, 9.997819, 10.000167 
2.6547027e+3, 3.0753598e+2, -382892.8, -168781.6, 6638.4604, 0.04476817, -0.5508321, -168575.97, -168575.97, 0.0, 9.9973, 10.000148 
2.654645e+3, 3.1753802e+2, -390779.8, -54116.77, -88147.36, -0.0315635, -0.33607787, -32433.928, -32433.928, 0.0, 9.996745, 10.001197 
2.665722e+3, 1.2761499e+2, -1093903.9, -1589422.1, 58767.457, -0.09934168, -0.39587328, -1087029.5, 602306.2, 0.055327557, 10.00531, 9.998343 
2.6656666e+3, 1.376133e+2, -1247212.0, -1636067.0, 34519.645, 0.020809675, -0.37885264, -1244171.4, 347178.97, 0.034547858, 10.003503, 9.998183 
2.6656085e+3, 1.4761116e+2, -1169068.8, -1523946.4, 9925.516, -0.012455605, -0.40092543, -1168791.4, 324579.38, 0.01639111, 10.003211, 9.998412 
2.6655504e+3, 1.5760897e+2, -1034086.25, -1427006.4, 12565.426, -0.056138556, -0.44336998, -1033684.9, 361707.44, 0.0050499025, 10.003513, 9.998262 
2.665493e+3, 1.6760726e+2, -984839.9, -1331742.5, 36633.53, -0.039602887, -0.4285954, -981013.5, 316395.06, 0.00078039774, 10.003078, 9.99845 
2.6654357e+3, 1.776059e+2, -993816.9, -1291722.6, 46471.336, -0.011281186, -0.39347017, -986735.94, 212685.53, 0.000032798478, 10.002367, 9.998398 
2.6653787e+3, 1.8760414e+2, -952361.44, -1167145.0, 64106.293, -0.014006574, -0.41413417, -934682.8, 166754.53, 0.0000000057994387, 10.00175, 9.998875 
2.6653218e+3, 1.9760242e+2, -943477.8, -1125088.5, 60976.863, -0.025715597, -0.45579353, -924904.06, 78548.74, 0.0, 10.001192, 9.998762 
2.6652646e+3, 2.0760112e+2, -866704.94, -1008661.6, 57727.293, -0.050595567, -0.45529222, -846193.56, 59271.598, 0.0, 10.000923, 9.999017 
2.6652074e+3, 2.1760009e+2, -804580.3, -948439.9, 48036.113, -0.07756863, -0.44077542, -790015.25, 17459.996, 0.0, 10.000763, 9.998836 
2.6651508e+3, 2.275988e+2, -745975.2, -860845.9, 50122.97, -0.05443096, -0.4350971, -727179.75, -17690.984, 0.0, 10.000457, 9.99891 
2.6650944e+3, 2.3759757e+2, -698775.2, -782415.3, 61664.508, -0.008057037, -0.43361062, -666087.4, -54585.316, 0.0, 10.000085, 9.998957 
2.6650378e+3, 2.4759679e+2, -613905.44, -609263.8, 61173.496, -0.017832972, -0.43103853, -550367.1, -36857.992, 0.0, 9.999643, 9.999684 
2.664981e+3, 2.5759628e+2, -604994.75, -584476.9, 48478.063, -0.054734048, -0.4308304, -545184.1, -129671.305, 0.0, 9.999159, 9.999417 
2.6649243e+3, 2.6759538e+2, -551772.9, -526512.9, 45273.652, -0.065107964, -0.43086374, -492140.53, -174617.98, 0.0, 9.998933, 9.99925 
2.6648676e+3, 2.7759445e+2, -474119.34, -426721.53, 71679.52, -0.036333088, -0.43336487, -374924.78, -155391.7, 0.0, 9.998741, 9.999356 
2.664812e+3, 2.875942e+2, -396150.0, -236134.05, 72944.984, -0.002737794, -0.42740968, -207872.69, -86337.49, 0.0, 9.998163, 10.00027 
2.6647553e+3, 2.975944e+2, -413742.47, -212751.11, 46166.49, -0.050717525, -0.41660652, -202654.17, -179121.8, 0.0, 9.997448, 10.000106 
2.6646984e+3, 3.075934e+2, -389428.0, -135801.63, 13217.103, -0.060869303, -0.52667016, -135114.72, -135114.72, 0.0, 9.997107, 10.0004635 
2.6646417e+3, 3.1759548e+2, -369455.53, -51638.227, -34514.953, -0.02538977, -0.33660725, -47933.1, -47933.1, 0.0, 9.99693, 10.0011215 
2.675728e+3, 1.2767366e+2, -1113461.4, -1620114.5, -7209.656, 0.010460144, -0.33486727, -1113358.9, 575400.44, 0.046390176, 10.005225, 9.998152 
2.6756692e+3, 1.3766998e+2, -1252160.1, -1652920.3, -9466.854, -0.045590635, -0.4965519, -1251936.6, 338857.06, 0.028613005, 10.003512, 9.998062 
2.6756114e+3, 1.4766875e+2, -1157293.4, -1505187.5, 24064.521, -0.048821796, -0.43406, -1155636.6, 337170.03, 0.013294989, 10.003222, 9.998539 
2.6755545e+3, 1.5766843e+2, -1030910.94, -1408680.0, 16389.975, 0.011266756, -0.30122688, -1030201.2, 364610.16, 0.003961155, 10.003455, 9.998418 
2.675496e+3, 1.6766603e+2, -972329.75, -1298642.1, 10331.976, -0.021115558, -0.37786415, -972002.94, 324830.06, 0.0005869594, 10.003045, 9.998695 
2.6754373e+3, 1.7766306e+2, -981301.8, -1266308.1, 20930.727, -0.09623118, -0.5253504, -979772.9, 219086.16, 0.000023679344, 10.002367, 9.998573 
2.6753798e+3, 1.8766187e+2, -952556.44, -1171746.1, 42794.105, -0.054529168, -0.49628448, -944497.7, 156372.25, 0.000000001728097, 10.001764, 9.998837 
2.6753232e+3, 1.9766143e+2, -949657.44, -1139459.4, 44280.125, 0.030177057, -0.40553534, -939835.3, 63039.02, 0.0, 10.001196, 9.998663 
2.675266e+3, 2.0765983e+2, -882536.56, -1043773.94, 52104.535, 0.010122936, -0.4154612, -867164.3, 37725.746, 0.0, 10.000932, 9.998773 
2.6752082e+3, 2.1765794e+2, -814666.44, -967633.6, 40631.645, -0.051823422, -0.46364936, -804543.6, 2364.941, 0.0, 10.000752, 9.998711 
2.6751512e+3, 2.2765665e+2, -732795.06, -833460.8, 36344.348, -0.065257974, -0.46621028, -721044.9, -12123.709, 0.0, 10.000454, 9.999101 
2.675094e+3, 2.376557e+2, -695614.9, -775909.06, 46685.88, -0.056140963, -0.4533369, -674187.94, -63257.625, 0.0, 10.000082, 9.999004 
2.675037e+3, 2.4765474e+2, -640065.0, -663922.56, 42528.215, -0.03689794, -0.4455797, -607824.25, -94884.3, 0.0, 9.999643, 9.99931 
2.6749802e+3, 2.5765392e+2, -612956.44, -605545.2, 33317.527, -0.02450456, -0.43995485, -575727.8, -160779.47, 0.0, 9.999176, 9.999266 
2.6749232e+3, 2.6765314e+2, -519420.2, -461615.94, 38181.723, -0.022220856, -0.4518453, -442630.94, -125675.05, 0.0, 9.9989395, 9.999694 
2.6748666e+3, 2.7765244e+2, -460594.8, -403537.38, 59453.863, -0.0030424027, -0.4727762, -366121.8, -147159.53, 0.0, 9.998759, 9.999509 
2.6748097e+3, 2.8765205e+2, -439205.03, -327521.97, 43587.082, -0.013139414, -0.4491842, -312524.88, -191557.02, 0.0, 9.998169, 9.999641 
2.6747522e+3, 2.9765204e+2, -440963.1, -268200.66, 23617.27, -0.10283241, -0.39793336, -265030.25, -242060.19, 0.0, 9.99744, 9.99973 
2.6746956e+3, 3.0765298e+2, -374544.38, -105953.51, 2134.016, -0.058926214, -0.3130386, -105936.555, -105936.555, 0.0, 9.997106, 10.000671 
2.6746383e+3, 3.176516e+2, -287810.84, 112621.51, 28610.621, -0.028765544, -0.50360835, 114655.38, 114655.38, 0.0, 9.996949, 10.002243 
2.6857325e+3, 1.2773217e+2, -1189194.8, -1681136.8, 9558.634, -0.007188496, -0.3791012, -1189009.1, 499174.6, 0.038372923, 10.004738, 9.997953 
2.6856732e+3, 1.3772891e+2, -1170167.4, -1624047.0, 14601.225, -0.004537529, -0.48083392, -1169698.1, 420518.0, 0.023355238, 10.004121, 9.997967 
2.6856145e+3, 1.4772764e+2, -1127335.3, -1479983.1, 72822.39, -0.032299645, -0.42291182, -1112889.0, 379340.3, 0.010614303, 10.003379, 9.998635 
2.685557e+3, 1.5772717e+2, -1145633.6, -1454773.0, 62553.0, -0.0209602, -0.3154562, -1133456.0, 260778.77, 0.0030550463, 10.0026245, 9.9985 
2.6854986e+3, 1.6772483e+2, -1061435.6, -1338584.0, 46202.926, -0.024255835, -0.38861954, -1053936.1, 242319.89, 0.00043506903, 10.002422, 9.998718 
2.68544e+3, 1.7772202e+2, -970180.9, -1258950.5, 41369.914, -0.04557866, -0.5234806, -964371.0, 233910.11, 0.000016890075, 10.002439, 9.998587 
2.685382e+3, 1.8772085e+2, -887612.75, -1147389.1, 52956.97, -0.032472886, -0.4867491, -877232.0, 223060.0, 0.0000000002885943, 10.002244, 9.998772 
2.6853245e+3, 1.9772038e+2, -847600.56, -1101378.3, 50005.813, -0.0007296245, -0.3907162, -838102.6, 164194.3, 0.0, 10.001947, 9.998561 
2.6852667e+3, 2.0771852e+2, -851049.5, -1050087.1, 58069.54, 0.0030704848, -0.40963265, -835346.5, 68968.72, 0.0, 10.001244, 9.998576 
2.6852092e+3, 2.1771632e+2, -869956.1, -1005117.94, 53507.047, -0.006936821, -0.47126377, -851338.56, -45001.664, 0.0, 10.000424, 9.99861 
2.6851514e+3, 2.2771506e+2, -756061.75, -831309.3, 55351.63, -0.044343676, -0.47483706, -726757.56, -18408.896, 0.0, 10.000239, 9.999218 
2.685094e+3, 2.3771425e+2, -669701.25, -759084.56, 56485.12, -0.08083663, -0.45852244, -642365.75, -32009.895, 0.0, 10.000244, 9.99904 
2.6850367e+3, 2.477132e+2, -635634.2, -686246.6, 48603.77, -0.049670417, -0.447864, -606143.25, -93776.33, 0.0, 9.999783, 9.999087 
2.6849794e+3, 2.5771222e+2, -627418.7, -625635.8, 53341.074, -0.0027726474, -0.43974614, -573178.7, -158800.84, 0.0, 9.999139, 9.999144 
2.6849222e+3, 2.6771152e+2, -514526.97, -442504.8, 56004.645, -0.013226028, -0.44348314, -411932.75, -95548.86, 0.0, 9.998904, 9.99984 
2.6848653e+3, 2.7771103e+2, -454310.6, -394715.3, 53248.01, -0.016537186, -0.45770684, -363494.5, -145106.86, 0.0, 9.998779, 9.999558 
2.6848078e+3, 2.8771022e+2, -397473.0, -331147.8, 44487.83, -0.02204263, -0.46230006, -308822.34, -188425.13, 0.0, 9.998563, 9.999424 
2.6847497e+3, 2.9770967e+2, -336636.56, -229728.27, 49803.46, -0.10117506, -0.44533876, -210122.63, -187717.48, 0.0, 9.998214, 9.999619 
2.6846927e+3, 3.07712e+2, -368798.88, -78935.61, 26628.54, -0.046154954, -0.23594318, -76509.66, -76509.66, 0.0, 9.997046, 10.000881 
2.6846346e+3, 3.1770942e+2, -411329.25, 66381.01, 104505.266, -0.031379975, -0.56192017, 88242.44, 88242.44, 0.0, 9.996051, 10.002354 
2.695736e+3, 1.277907e+2, -1207111.9, -1709687.3, -16437.543, -0.12873875, -0.49537888, -1206574.9, 481032.66, 0.031216389, 10.00467, 9.997784 
2.6956785e+3, 1.3778968e+2, -1180247.8, -1641343.9, -8376.768, 0.11683721, -0.35792226, -1180095.6, 409525.7, 0.018720806, 10.004085, 9.997867 
2.6956183e+3, 1.4778763e+2, -1120708.9, -1469928.1, 43203.94, 0.020493098, -0.3802838, -1115443.3, 376197.78, 0.008304449, 10.003384, 9.998704 
2.695558e+3, 1.5778536e+2, -1142522.0, -1452597.5, 40598.137, -0.14067486, -0.45859006, -1137294.6, 256366.89, 0.0023039475, 10.002639, 9.998509 
2.6955006e+3, 1.6778378e+2, -1070368.4, -1360575.9, 46745.563, -0.045351528, -0.4471118, -1063024.6, 232652.17, 0.00031532926, 10.002435, 9.998563 
2.695444e+3, 1.7778255e+2, -983303.44, -1283289.8, 38672.8, 0.11759064, -0.40595144, -978398.1, 219291.06, 0.000011633443, 10.002422, 9.998429 
2.6953846e+3, 1.8778095e+2, -899130.2, -1167787.5, 41946.73, 0.038086876, -0.399826, -892733.2, 206971.45, 0.000000000007316074, 10.002228, 9.99864 
2.695325e+3, 1.9777931e+2, -860512.25, -1122219.3, 33228.62, -0.116288014, -0.4081486, -856359.1, 145361.17, 0.0, 10.00192, 9.998432 
2.6952672e+3, 2.0777725e+2, -861409.94, -1070937.3, 26485.219, -0.06494581, -0.4337531, -858113.94, 45626.418, 0.0, 10.001239, 9.998437 
2.69521e+3, 2.1777523e+2, -877125.44, -1019260.2, 32805.906, 0.0502966, -0.46535826, -869918.94, -64158.586, 0.0, 10.000418, 9.998517 
2.6951522e+3, 2.2777401e+2, -753429.75, -827434.94, 58097.33, 0.004169202, -0.46258104, -721552.06, -13780.367, 0.0, 10.000246, 9.999242 
2.6950938e+3, 2.377732e+2, -668079.7, -758441.0, 50594.438, -0.092394516, -0.44816616, -645429.06, -35650.137, 0.0, 10.000254, 9.999041 
2.6950362e+3, 2.477721e+2, -640287.9, -696900.75, 22466.957, -0.059188947, -0.4379628, -632455.44, -120665.21, 0.0, 9.999784, 9.999015 
2.6949784e+3, 2.5777102e+2, -633515.6, -640346.94, 34146.86, 0.005084858, -0.42889178, -602614.0, -188812.4, 0.0, 9.999145, 9.999041 
2.6949206e+3, 2.677705e+2, -525708.9, -466353.94, 51580.305, -0.040968854, -0.40472013, -436522.75, -120715.9, 0.0, 9.998905, 9.999677 
2.694863e+3, 2.777702e+2, -455278.47, -400854.9, 47483.176, -0.09316024, -0.3820322, -373338.88, -155529.61, 0.0, 9.998795, 9.99951 
2.6948065e+3, 2.8776875e+2, -380608.2, -300644.13, 32376.281, -0.029068176, -0.46687356, -289179.22, -169355.52, 0.0, 9.998577, 9.999628 
2.6947486e+3, 2.977672e+2, -320542.2, -203981.22, 24783.553, -0.027586807, -0.5680783, -198930.52, -177091.89, 0.0, 9.998242, 9.9997835 
2.6946893e+3, 3.077701e+2, -355120.38, -52082.254, -29667.84, -0.056982912, -0.31199777, -49205.05, -49205.05, 0.0, 9.997052, 10.001063 
2.6946303e+3, 3.177697e+2, -489070.53, -100792.54, 99407.805, -0.05405009, -0.42323154, -76821.79, -76821.79, 0.0, 9.996055, 10.001215 
2.7057406e+3, 1.2785017e+2, -1245877.4, -1716607.9, -25147.336, -0.10111431, -0.52973723, -1244537.8, 442487.63, 0.024870029, 10.004309, 9.997913 
2.705682e+3, 1.3785005e+2, -1211365.0, -1645684.8, -64.46044, 0.08989509, -0.3152561, -1211365.0, 377665.63, 0.014666926, 10.003803, 9.997972 
2.7056217e+3, 1.4784773e+2, -1121795.5, -1472928.1, 52171.168, 0.018968944, -0.36523774, -1114207.9, 376844.06, 0.0063307397, 10.003385, 9.998679 
2.7055612e+3, 1.5784478e+2, -1091917.0, -1438010.4, 45893.14, -0.09309864, -0.5057152, -1085934.8, 307142.94, 0.0016866735, 10.00303, 9.99842 
2.705503e+3, 1.6784325e+2, -1052701.6, -1382758.4, 54274.293, -0.02464338, -0.46999928, -1044005.94, 251087.6, 0.00022097027, 10.002688, 9.998288 
2.705446e+3, 1.778423e+2, -1007986.7, -1314393.6, 35772.76, 0.090863995, -0.37529555, -1003865.6, 193239.0, 0.000007542903, 10.002337, 9.998255 
2.7053866e+3, 1.8784055e+2, -955647.4, -1188562.4, 40153.797, 0.0185956, -0.38090333, -948919.4, 150202.3, 0.0, 10.001814, 9.998696 
2.7053264e+3, 1.9783862e+2, -948128.6, -1150355.4, 45608.234, -0.10929363, -0.4234315, -938318.5, 62821.16, 0.0, 10.00126, 9.998555 
2.7052683e+3, 2.0783682e+2, -852460.25, -1037787.06, 63436.58, -0.062881574, -0.4440127, -832826.25, 70330.17, 0.0, 10.001178, 9.9986925 
2.7052107e+3, 2.178352e+2, -754681.0, -954622.4, 94332.516, 0.041288372, -0.4555398, -717200.75, 87970.86, 0.0, 10.001238, 9.998563 
2.7051523e+3, 2.2783372e+2, -701605.3, -857882.56, 102575.28, -0.0028537398, -0.44757238, -650796.94, 56389.64, 0.0, 10.000843, 9.998743 
2.7050936e+3, 2.3783243e+2, -684418.1, -800682.94, 58048.67, -0.089395665, -0.4355333, -660398.06, -51197.86, 0.0, 10.000294, 9.99873 
2.7050355e+3, 2.4783118e+2, -595959.2, -659310.75, 27449.496, -0.06399634, -0.43808743, -585720.44, -74508.17, 0.0, 10.000022, 9.999157 
2.7049777e+3, 2.5783008e+2, -536644.44, -589147.06, 54797.06, -0.008941328, -0.4451799, -502135.13, -88912.58, 0.0, 9.999793, 9.999078 
2.7049196e+3, 2.6782954e+2, -498006.4, -481896.28, 71417.445, -0.059064955, -0.40583694, -418081.1, -102852.85, 0.0, 9.999225, 9.9994135 
2.7048615e+3, 2.7782926e+2, -506852.97, -442291.06, 59716.965, -0.107627295, -0.35919598, -406688.47, -189456.77, 0.0, 9.998518, 9.999355 
2.7048045e+3, 2.8782764e+2, -442154.88, -315153.94, 40470.34, 0.0013312749, -0.45869157, -303353.97, -184107.27, 0.0, 9.998095, 9.99976 
2.7047473e+3, 2.9782593e+2, -394261.53, -248025.55, 21317.75, 0.051591337, -0.5882359, -244981.3, -223718.97, 0.0, 9.997776, 9.999704 
2.7046853e+3, 3.078284e+2, -280717.56, -82991.586, -87445.95, -0.18215667, -0.33499822, -49867.133, -49867.133, 0.0, 9.997854, 10.000463 
2.7046278e+3, 3.178281e+2, -278037.66, -76079.195, 53892.87, -0.01153526, -0.37872273, -62597.75, -62597.75, 0.0, 9.99784, 10.00052 
2.7157462e+3, 1.2791039e+2, -1232995.6, -1665667.6, -44082.04, 0.024834925, -0.50302094, -1228550.1, 457888.2, 0.019308204, 10.004191, 9.998317 
2.7156842e+3, 1.3791016e+2, -1197370.0, -1612513.6, -15047.566, -0.06026705, -0.33595085, -1196825.4, 391616.75, 0.011166469, 10.003776, 9.998213 
2.7156243e+3, 1.4790802e+2, -1126966.8, -1488892.9, 38382.88, -0.025052538, -0.3701997, -1122940.9, 367520.38, 0.004669305, 10.003398, 9.998566 
2.715566e+3, 1.5790533e+2, -1104277.9, -1466447.3, 31789.46, 0.086882934, -0.4740041, -1101508.8, 290976.13, 0.0011884103, 10.003037, 9.998222 
2.715506e+3, 1.679032e+2, -1079865.8, -1439619.9, 41325.063, 0.023616783, -0.46484274, -1075179.9, 219326.69, 0.00014779682, 10.002689, 9.997897 
2.715446e+3, 1.779014e+2, -1024285.75, -1345281.6, 21340.865, -0.103535846, -0.41840962, -1022873.2, 173652.81, 0.0000045032148, 10.002323, 9.998051 
2.715387e+3, 1.8789977e+2, -940848.0, -1156546.8, 19382.977, -0.076248504, -0.4203099, -939120.06, 159421.8, 0.0, 10.001805, 9.998921 
2.7153286e+3, 1.9789831e+2, -927680.4, -1104265.0, 31392.209, 0.0021935902, -0.4392815, -922265.7, 78289.4, 0.0, 10.001242, 9.998881 
2.71527e+3, 2.0789719e+2, -812130.94, -954119.3, 65691.5, -0.0028614842, -0.44204825, -786401.06, 116162.98, 0.0, 10.001177, 9.999268 
2.715211e+3, 2.1789622e+2, -746032.6, -936233.94, 89210.234, -0.039257213, -0.4386691, -710739.25, 93832.0, 0.0, 10.001234, 9.998692 
2.7151522e+3, 2.278942e+2, -769658.7, -1000212.75, 80222.12, -0.06250069, -0.42881092, -744492.2, -37898.41, 0.0, 10.000845, 9.9977665 
2.715094e+3, 2.3789193e+2, -726883.94, -888622.5, 41000.47, -0.07813174, -0.42059812, -717084.1, -108464.18, 0.0, 10.00029, 9.998129 
2.7150357e+3, 2.4789041e+2, -572345.8, -610370.94, 20527.705, -0.0671152, -0.44944575, -563378.6, -52745.445, 0.0, 10.000021, 9.999495 
2.7149767e+3, 2.5788933e+2, -522757.53, -565985.9, 41929.758, -0.05736852, -0.48554307, -497198.84, -84558.23, 0.0, 9.999815, 9.999228 
2.7149186e+3, 2.678886e+2, -523115.78, -536498.44, 42781.58, -0.067723945, -0.4479039, -486505.4, -171856.95, 0.0, 9.999231, 9.999037 
2.7148604e+3, 2.7788803e+2, -524507.5, -480423.06, 35668.656, -0.05526502, -0.39298528, -460535.44, -243879.6, 0.0, 9.998522, 9.999094 
2.7148032e+3, 2.878869e+2, -440095.5, -309400.0, 26534.713, 0.064688, -0.43501928, -304218.2, -185551.6, 0.0, 9.998085, 9.999805 
2.7147454e+3, 2.9788595e+2, -418320.0, -297924.94, 15108.478, 0.10493743, -0.487046, -296057.9, -275382.63, 0.0, 9.997772, 9.999365 
2.714681e+3, 3.078867e+2, -375824.75, -289716.72, -82319.37, -0.40094495, -0.30726287, -239872.27, -239872.27, 0.0, 9.997889, 9.999029 
2.7146265e+3, 3.1788436e+2, -283903.88, -102503.07, 129740.99, 0.10603448, -0.42578268, -34902.215, -34902.215, 0.0, 9.99791, 10.000301 
2.7257496e+3, 1.2797211e+2, -1334479.5, -1679144.6, 12702.714, 0.03337888, -0.4091734, -1334012.0, 351823.34, 0.014523506, 10.003299, 9.998658 
2.7256876e+3, 1.3797075e+2, -1216875.9, -1609975.1, 32736.283, -0.058906663, -0.3861954, -1214168.3, 373678.97, 0.008205639, 10.003578, 9.998324 
2.7256277e+3, 1.4796853e+2, -1152930.1, -1556971.8, 61187.887, -0.021815613, -0.3978976, -1143867.1, 346000.75, 0.0033054492, 10.003457, 9.998068 
2.725569e+3, 1.5796614e+2, -1101259.0, -1499285.1, 29830.72, 0.09944557, -0.4253843, -1099035.8, 292854.94, 0.00079891447, 10.003208, 9.997912 
2.7255088e+3, 1.6796382e+2, -1066309.5, -1419599.9, 53707.613, 0.026355598, -0.43040955, -1058325.3, 235588.28, 0.00009313198, 10.002728, 9.998014 
2.725448e+3, 1.779617e+2, -1042718.4, -1348303.5, 63209.758, -0.116923705, -0.4276273, -1030159.7, 165775.42, 0.0000024128854, 10.002175, 9.9981 
2.7253887e+3, 1.8795991e+2, -975518.8, -1189404.8, 47618.582, -0.074284814, -0.43564835, -965396.3, 132556.11, 0.0, 10.001641, 9.998773 
2.72533e+3, 1.979584e+2, -948821.06, -1126707.9, 40509.508, 0.032478947, -0.44734997, -940030.44, 59936.414, 0.0, 10.001152, 9.998768 
2.725271e+3, 2.0795731e+2, -815158.9, -961710.75, 54317.996, 0.006433769, -0.43745333, -797221.8, 104754.016, 0.0, 10.001185, 9.999209 
2.7252117e+3, 2.1795644e+2, -729949.25, -932540.5, 30476.057, -0.06410528, -0.42058057, -725464.0, 78518.78, 0.0, 10.001364, 9.998654 
2.725153e+3, 2.279545e+2, -739012.5, -985008.4, 44034.266, -0.07769526, -0.3981892, -731367.8, -25363.504, 0.0, 10.001056, 9.997768 
2.7250946e+3, 2.3795235e+2, -688772.44, -871567.56, 72960.484, -0.0647943, -0.3795435, -663222.4, -55192.84, 0.0, 10.000561, 9.998114 
2.7250355e+3, 2.4795069e+2, -574613.1, -621659.56, 51473.582, -0.06073575, -0.4172093, -541542.44, -31498.414, 0.0, 10.000053, 9.999399 
2.7249762e+3, 2.5794935e+2, -570037.7, -596946.4, 41686.082, -0.06586417, -0.46925992, -539688.5, -127635.0, 0.0, 9.999532, 9.999149 
2.7249175e+3, 2.6794833e+2, -513216.03, -535232.06, 50493.68, -0.06516174, -0.4532773, -472544.4, -158480.95, 0.0, 9.999319, 9.9990015 
2.724859e+3, 2.779475e+2, -438617.8, -447182.4, 67697.87, -0.028712586, -0.422194, -375066.94, -158993.75, 0.0, 9.999149, 9.999018 
2.7248016e+3, 2.8794658e+2, -356438.34, -287938.44, 52946.055, 0.064799346, -0.4265884, -259130.13, -141047.92, 0.0, 9.998747, 9.999631 
2.7247426e+3, 2.9794604e+2, -366362.44, -293345.75, 33102.902, 0.066549286, -0.42231432, -280572.66, -260484.66, 0.0, 9.998225, 9.999174 
2.724679e+3, 3.0794594e+2, -367875.6, -314786.38, 13220.655, -0.356044, -0.30331418, -311676.28, -311676.28, 0.0, 9.998074, 9.998765 
2.724624e+3, 3.1794292e+2, -316333.25, -69630.5, 210732.03, 0.08925081, -0.47168228, 51197.47, 51197.47, 0.0, 9.997489, 10.000725 
2.735752e+3, 1.2803505e+2, -1316161.1, -1634440.5, 16286.366, -0.05140757, -0.26527444, -1315329.9, 369889.88, 0.010511181, 10.003266, 9.998979 
2.7356923e+3, 1.3803177e+2, -1218567.4, -1614031.9, 30278.361, 0.055283327, -0.460567, -1216262.6, 370984.1, 0.005775446, 10.003573, 9.998299 
2.7356312e+3, 1.4802933e+2, -1210496.0, -1676719.0, 47162.0, 0.012535571, -0.44343174, -1205773.0, 283498.63, 0.0022273788, 10.003451, 9.99725 
2.7355707e+3, 1.5802723e+2, -1134782.1, -1561201.5, 16908.727, -0.029346606, -0.36320683, -1134112.8, 257181.98, 0.0005081635, 10.003173, 9.997506 
2.735511e+3, 1.680251e+2, -1030819.3, -1343881.1, 32521.916, -0.0071122954, -0.37183103, -1027476.5, 265838.53, 0.00005459018, 10.002718, 9.998541 
2.7354515e+3, 1.7802304e+2, -1025862.8, -1314868.9, 40197.83, 0.019490588, -0.40906352, -1020375.9, 174957.56, 0.0000011019603, 10.00218, 9.998328 
2.735391e+3, 1.880209e+2, -1007274.9, -1259815.4, 26628.793, 0.005863663, -0.43016016, -1004497.6, 92856.71, 0.0, 10.001659, 9.998281 
2.7353305e+3, 1.9801886e+2, -983869.5, -1202831.1, 29420.193, -0.016673667, -0.44434327, -979985.44, 19389.328, 0.0, 10.001165, 9.9982395 
2.7352715e+3, 2.0801724e+2, -857479.0, -1051976.5, 62921.652, -0.0294303, -0.42957225, -838898.3, 62492.855, 0.0, 10.001194, 9.998588 
2.735213e+3, 2.1801588e+2, -745897.6, -959436.6, 32059.547, -0.04338801, -0.40465242, -741188.25, 62217.01, 0.0, 10.001335, 9.998485 
2.735154e+3, 2.2801474e+2, -677512.4, -854924.8, 27059.742, -0.05455464, -0.35817486, -673476.94, 31940.682, 0.0, 10.001045, 9.998667 
2.735095e+3, 2.380137e+2, -652866.44, -799263.44, 53993.06, -0.06012966, -0.30888093, -635107.44, -27678.63, 0.0, 10.000568, 9.998608 
2.7350357e+3, 2.4801196e+2, -609898.2, -696734.4, 30250.613, -0.046062283, -0.3396762, -600399.06, -90954.2, 0.0, 10.000059, 9.998882 
2.734976e+3, 2.580101e+2, -588773.0, -638264.1, 26126.758, -0.03936382, -0.39495572, -577533.2, -166071.84, 0.0, 9.999539, 9.998863 
2.7349168e+3, 2.6800877e+2, -491888.63, -491369.06, 45658.086, -0.05566175, -0.42287764, -445970.03, -132496.63, 0.0, 9.99932, 9.999303 
2.7348578e+3, 2.7800766e+2, -427336.66, -430190.0, 59349.223, -0.04649699, -0.44249415, -369396.97, -153913.7, 0.0, 9.999175, 9.999124 
2.7347997e+3, 2.880067e+2, -383686.66, -349924.3, 32100.371, -0.0008919096, -0.43424082, -330536.9, -213043.06, 0.0, 9.998765, 9.999198 
2.7347398e+3, 2.9800597e+2, -363797.63, -292635.4, 15628.091, -0.051648963, -0.4041966, -289354.56, -269852.6, 0.0, 9.998242, 9.999172 
2.73468e+3, 3.0800617e+2, -296140.72, -166143.27, 15669.341, -0.060769733, -0.32286063, -164281.22, -164281.22, 0.0, 9.998075, 9.999785 
2.7346194e+3, 3.180037e+2, -245156.3, 70691.11, -67758.56, -0.10647067, -0.5324352, 84613.61, 84613.61, 0.0, 9.997494, 10.0017 
2.7457547e+3, 1.2809561e+2, -1366226.4, -1686669.0, -3720.6199, -0.07175512, -0.2811629, -1366183.3, 318442.56, 0.0072569842, 10.003028, 9.998734 
2.7456957e+3, 1.3809226e+2, -1208478.5, -1619038.3, -34825.758, 0.09337279, -0.46097004, -1205545.4, 381109.16, 0.0038593789, 10.00368, 9.998213 
2.7456346e+3, 1.4808996e+2, -1210967.9, -1649418.8, -2667.7966, 0.024685038, -0.44208682, -1210951.6, 277726.25, 0.0014164648, 10.003335, 9.99749 
2.7455732e+3, 1.580881e+2, -1189694.6, -1567751.0, 30265.928, -0.0646245, -0.36271074, -1187287.0, 203411.72, 0.00030295522, 10.002712, 9.997682 
2.7455133e+3, 1.6808608e+2, -1061666.8, -1359343.3, 40537.63, -0.01717648, -0.3652499, -1056245.0, 236473.05, 0.000029338584, 10.002509, 9.998534 
2.7454537e+3, 1.7808409e+2, -988711.06, -1297926.9, 13980.333, 0.05869045, -0.39525127, -988080.25, 206655.97, 0.00000039166414, 10.002441, 9.998317 
2.745393e+3, 1.8808201e+2, -931843.8, -1229660.3, 10124.551, 0.027027149, -0.40524215, -931500.0, 165256.33, 0.0, 10.002207, 9.998223 
2.7453318e+3, 1.9808003e+2, -885343.5, -1167509.5, 44436.66, -0.0336179, -0.4059537, -878510.9, 120265.164, 0.0, 10.001898, 9.998129 
2.7452725e+3, 2.080781e+2, -848225.4, -1074861.0, 109187.445, -0.051660378, -0.4037487, -804181.1, 96615.125, 0.0, 10.001379, 9.99834 
2.7452138e+3, 2.1807629e+2, -822457.0, -999071.0, 100710.7, -0.05410284, -0.40168563, -776820.9, 25994.49, 0.0, 10.000825, 9.998457 
2.7451548e+3, 2.2807522e+2, -701453.56, -817356.75, 77076.2, -0.058805868, -0.37350267, -662973.2, 41852.293, 0.0, 10.000672, 9.999104 
2.7450955e+3, 2.3807445e+2, -628546.44, -762152.94, 70248.87, -0.057071332, -0.3381011, -598408.6, 8423.577, 0.0, 10.000629, 9.998832 
2.7450356e+3, 2.480728e+2, -592159.0, -718474.0, 44623.336, -0.03960504, -0.3484441, -577985.3, -69137.16, 0.0, 10.000315, 9.998609 
2.7449757e+3, 2.5807095e+2, -554118.5, -642570.75, 59190.582, -0.028304178, -0.37573016, -524456.4, -113590.11, 0.0, 9.99987, 9.998673 
2.744916e+3, 2.6806962e+2, -479431.66, -485812.28, 70063.13, -0.05480821, -0.39459044, -412486.25, -99607.74, 0.0, 9.9994135, 9.999293 
2.7448568e+3, 2.7806854e+2, -464676.28, -446727.03, 60215.44, -0.05468731, -0.41290545, -394821.1, -179933.03, 0.0, 9.99892, 9.999129 
2.7447975e+3, 2.8806722e+2, -416483.9, -362662.22, 50491.57, -0.030991739, -0.43738794, -332357.75, -215456.94, 0.0, 9.998531, 9.999222 
2.7447373e+3, 2.9806617e+2, -363323.44, -273018.16, 68088.02, -0.10334155, -0.44825402, -236471.7, -217560.13, 0.0, 9.998163, 9.999345 
2.744679e+3, 3.0806717e+2, -302479.53, -106343.414, 51962.555, 0.047937214, -0.32775828, -93427.45, -93427.45, 0.0, 9.997762, 10.000347 
2.7446166e+3, 3.180654e+2, -268671.84, 11435.189, -115344.586, -0.11930811, -0.50834537, 52818.61, 52818.61, 0.0, 9.997545, 10.001266 
2.755758e+3, 1.281545e+2, -1404774.3, -1777562.9, 20047.316, -0.048844278, -0.4135478, -1403699.3, 280347.75, 0.004727152, 10.003071, 9.998088 
2.755699e+3, 1.3815251e+2, -1227117.1, -1642906.8, -21504.088, 0.06313781, -0.4002887, -1226008.0, 360059.03, 0.0024216264, 10.003612, 9.998082 
2.7556378e+3, 1.4815064e+2, -1142328.8, -1500606.9, -26053.879, 0.016523058, -0.40334442, -1140444.0, 347640.9, 0.00084080716, 10.003303, 9.998529 
2.755576e+3, 1.5814887e+2, -1147100.6, -1481393.4, 11652.128, -0.02867423, -0.41157657, -1146695.0, 243406.64, 0.00016702582, 10.00272, 9.998272 
2.7555156e+3, 1.6814688e+2, -1094201.4, -1425526.1, 37663.945, -0.010971716, -0.40212658, -1089973.9, 202148.11, 0.000014111729, 10.0025015, 9.998084 
2.7554557e+3, 1.7814493e+2, -1010247.1, -1333025.0, 9722.4, 0.0114631485, -0.38702688, -1009954.5, 184187.83, 0.00000009505926, 10.0023985, 9.998097 
2.7553946e+3, 1.8814331e+2, -913717.9, -1187285.6, 140.1404, -0.0037705142, -0.36318648, -913717.8, 182440.02, 0.0, 10.002186, 9.998525 
2.7553335e+3, 1.9814187e+2, -870936.1, -1134040.9, 30484.385, -0.028983943, -0.33807305, -867450.25, 130720.93, 0.0, 10.001881, 9.998368 
2.7552736e+3, 2.081398e+2, -843783.6, -1064708.0, 87247.83, -0.06431569, -0.36348504, -813483.3, 86708.445, 0.0, 10.001373, 9.998413 
2.755214e+3, 2.1813762e+2, -819534.0, -990643.4, 85328.35, -0.10204747, -0.40532503, -784256.06, 17957.379, 0.0, 10.000813, 9.998521 
2.755155e+3, 2.2813597e+2, -700850.8, -816645.5, 76032.35, -0.09033932, -0.43888682, -663181.3, 41046.766, 0.0, 10.000672, 9.999109 
2.7550957e+3, 2.3813458e+2, -631501.1, -766659.25, 64276.543, -0.061290774, -0.4650273, -605815.0, 424.7293, 0.0, 10.00062, 9.998807 
2.7550358e+3, 2.4813321e+2, -596740.0, -727247.9, 28886.035, -0.044181034, -0.44449338, -590632.3, -82378.29, 0.0, 10.000311, 9.99855 
2.754975e+3, 2.5813192e+2, -559019.94, -657907.7, 42629.016, -0.043880425, -0.40832105, -543180.4, -132912.25, 0.0, 9.999891, 9.998559 
2.754915e+3, 2.6813096e+2, -501580.56, -534307.1, 50575.625, -0.063007444, -0.36577603, -464787.0, -152508.27, 0.0, 9.99942, 9.99896 
2.7548555e+3, 2.7813005e+2, -467864.8, -455752.6, 42007.395, -0.055189837, -0.3322671, -419367.0, -205079.1, 0.0, 9.998928, 9.999065 
2.7547958e+3, 2.881283e+2, -382001.8, -287749.2, 36992.957, -0.030038588, -0.43933532, -274964.16, -158660.95, 0.0, 9.998517, 9.999743 
2.754735e+3, 2.9812664e+2, -339518.84, -221280.31, 58145.965, -0.106152736, -0.55724657, -197477.69, -179161.47, 0.0, 9.998152, 9.999707 
2.7546754e+3, 3.0812907e+2, -295644.88, -98106.875, 33901.33, -0.025426675, -0.3087961, -92450.71, -92450.71, 0.0, 9.997779, 10.0004 
2.7546155e+3, 3.18128e+2, -416247.34, -285339.4, 96543.8, 0.040047888, -0.39784107, -234153.22, -234153.22, 0.0, 9.997531, 9.999219 
2.7657616e+3, 1.2821452e+2, -1299440.4, -1706761.9, 31219.066, 0.014328263, -0.4489229, -1297061.4, 386397.75, 0.0028619904, 10.003698, 9.998276 
2.7657014e+3, 1.3821341e+2, -1309330.4, -1654432.3, 32881.535, 0.0017074761, -0.36708713, -1306225.3, 279246.2, 0.001404134, 10.00292, 9.998338 
2.76564e+3, 1.482118e+2, -1195706.9, -1484658.6, 6894.666, -0.021956543, -0.3763135, -1195542.5, 291943.88, 0.00045776708, 10.002755, 9.998902 
2.765579e+3, 1.5821007e+2, -1121385.1, -1438580.6, 3443.3704, 0.0018055083, -0.41537365, -1121347.8, 268153.94, 0.000083043655, 10.002766, 9.998543 
2.765518e+3, 1.682082e+2, -1113179.1, -1428412.9, 42370.97, 0.0052503943, -0.40819266, -1107583.4, 183937.88, 0.000005757098, 10.00235, 9.998136 
2.7654573e+3, 1.7820635e+2, -1086558.5, -1359632.1, 48460.914, -0.011936355, -0.38532555, -1078213.5, 115327.305, 0.00000000965895, 10.001838, 9.998183 
2.765396e+3, 1.8820474e+2, -969371.3, -1201899.9, 42589.918, -0.03167859, -0.37286776, -961816.06, 133740.03, 0.0, 10.001754, 9.9986315 
2.7653348e+3, 1.9820322e+2, -880331.6, -1129778.6, 53998.61, -0.04461648, -0.36599496, -869144.1, 128425.586, 0.0, 10.001779, 9.9984455 
2.7652746e+3, 2.0820135e+2, -851436.3, -1069642.6, 89578.67, -0.06942315, -0.3705115, -819373.5, 80214.86, 0.0, 10.0013275, 9.998401 
2.7652147e+3, 2.1819949e+2, -831816.9, -997063.4, 86444.99, -0.09770953, -0.3802876, -794860.3, 6747.1924, 0.0, 10.000735, 9.998513 
2.765155e+3, 2.2819772e+2, -745682.3, -840552.7, 84420.766, -0.08064671, -0.42415845, -696282.75, 7340.5903, 0.0, 10.000378, 9.999085 
2.765096e+3, 2.3819606e+2, -702091.8, -793131.94, 72519.73, -0.04437751, -0.47597843, -661989.5, -56351.992, 0.0, 10.000107, 9.998871 
2.7650356e+3, 2.4819475e+2, -603772.0, -705019.2, 54186.875, -0.047392923, -0.4656306, -580240.56, -72589.805, 0.0, 10.0001545, 9.998776 
2.7649748e+3, 2.5819367e+2, -499950.1, -617001.7, 83373.73, -0.06833058, -0.43044457, -456611.06, -46948.414, 0.0, 10.00025, 9.998664 
2.7649146e+3, 2.6819286e+2, -445076.44, -527056.2, 94367.38, -0.072537646, -0.36122996, -383181.06, -71508.8, 0.0, 9.999898, 9.998777 
2.7648547e+3, 2.781921e+2, -410824.16, -438810.9, 94589.586, -0.041668605, -0.29808217, -329198.47, -115517.12, 0.0, 9.999367, 9.998969 
2.7647945e+3, 2.881902e+2, -349476.28, -263741.94, 62365.715, -0.02084975, -0.4201479, -230931.67, -115233.97, 0.0, 9.998712, 9.99981 
2.764733e+3, 2.9818836e+2, -359921.16, -226986.8, 56466.594, -0.09587137, -0.5644441, -206239.52, -188527.61, 0.0, 9.998004, 9.999734 
2.7646732e+3, 3.0819076e+2, -238389.66, -84363.79, 33825.95, -0.06208358, -0.3063414, -77262.59, -77262.59, 0.0, 9.9982395, 10.000269 
2.7646133e+3, 3.1818968e+2, -331814.13, -274622.28, 63179.332, 0.040095415, -0.38563678, -233868.69, -233868.69, 0.0, 9.998249, 9.998942 
2.775766e+3, 1.2827554e+2, -1249643.9, -1593343.0, 5799.912, 0.09765297, -0.40838107, -1249546.0, 433317.2, 0.0015760282, 10.003658, 9.999071 
2.7757034e+3, 1.3827492e+2, -1278151.9, -1583308.3, 15201.965, -0.09095415, -0.35503438, -1277396.5, 307472.44, 0.0007342051, 10.0028925, 9.998838 
2.775642e+3, 1.4827341e+2, -1207651.9, -1508969.4, 9430.962, -0.084989324, -0.36035082, -1207357.0, 279526.0, 0.00022181349, 10.002749, 9.99874 
2.7755818e+3, 1.5827169e+2, -1121251.3, -1435263.8, -1444.9888, 0.026420714, -0.38499564, -1121244.6, 267654.53, 0.00003543484, 10.002751, 9.998573 
2.7755204e+3, 1.6827002e+2, -1081929.3, -1362231.1, 22719.414, 0.025714753, -0.38729137, -1080099.6, 210816.03, 0.0000017161015, 10.002344, 9.998593 
2.7754587e+3, 1.7826842e+2, -1066799.3, -1316345.5, 34646.836, -0.023932237, -0.38543594, -1062078.3, 130853.57, 0.00000000000031198744, 10.001827, 9.9984865 
2.7753976e+3, 1.882663e+2, -974315.0, -1211890.1, 44506.813, -0.058703776, -0.4279526, -966250.9, 128700.305, 0.0, 10.001751, 9.998566 
2.7753362e+3, 1.9826417e+2, -887490.7, -1142067.6, 48238.28, -0.08195633, -0.4763177, -878656.8, 118313.81, 0.0, 10.001766, 9.998368 
2.775276e+3, 2.0826285e+2, -858769.56, -1084747.5, 66624.09, -0.06928867, -0.41800863, -840589.6, 58395.79, 0.0, 10.001327, 9.998298 
2.7752158e+3, 2.1826184e+2, -840106.0, -1010820.3, 67607.63, -0.05121349, -0.3314319, -816574.94, -15576.991, 0.0, 10.000718, 9.998428 
2.775156e+3, 2.282604e+2, -750372.6, -849975.3, 74210.03, -0.034166306, -0.3363952, -710802.25, -7790.304, 0.0, 10.000375, 9.999023 
2.7750963e+3, 2.3825887e+2, -691586.25, -772682.7, 66662.81, -0.017935699, -0.37137341, -654108.25, -49082.613, 0.0, 10.000111, 9.99901 
2.7750355e+3, 2.4825744e+2, -567144.9, -630694.2, 58848.31, -0.051815502, -0.41072938, -532040.9, -25002.496, 0.0, 10.00016, 9.999287 
2.7749744e+3, 2.5825617e+2, -476225.28, -570150.1, 80546.18, -0.10636216, -0.44227025, -429950.6, -20900.754, 0.0, 10.0002575, 9.998983 
2.7749142e+3, 2.6825535e+2, -448877.7, -534286.8, 75318.29, -0.08560568, -0.38418576, -404999.78, -93940.4, 0.0, 9.999895, 9.998729 
2.774854e+3, 2.7825463e+2, -420570.97, -460796.97, 73962.44, -0.020480763, -0.310161, -364035.6, -150967.34, 0.0, 9.999373, 9.998816 
2.7747932e+3, 2.882529e+2, -379698.56, -330225.03, 33212.117, -0.002056194, -0.37492186, -313549.8, -198465.58, 0.0, 9.998722, 9.999352 
2.7747312e+3, 2.9825118e+2, -378135.38, -273505.25, 39083.637, -0.07531436, -0.46246648, -260517.97, -243418.64, 0.0, 9.998038, 9.9994 
2.774671e+3, 3.0825207e+2, -262736.75, -133351.92, 55250.12, -0.078697346, -0.33092228, -112969.75, -112969.75, 0.0, 9.998235, 9.999933 
2.7746102e+3, 3.1825045e+2, -198216.75, -16730.18, -201858.53, -0.04970071, -0.45314702, 113843.53, 113843.53, 0.0, 9.998283, 10.000723 
2.7857685e+3, 1.283379e+2, -1289775.8, -1616325.4, 73435.87, 0.034906365, -0.38785312, -1274021.3, 408230.56, 0.00076552347, 10.0033865, 9.999047 
2.7857062e+3, 1.3833691e+2, -1308250.1, -1599687.6, 45559.81, -0.05943164, -0.3675467, -1301293.9, 282967.16, 0.00033414474, 10.002691, 9.998823 
2.7856448e+3, 1.4833531e+2, -1230618.4, -1525122.4, 57912.03, -0.064923905, -0.3767816, -1219639.6, 266636.38, 0.00009108268, 10.002619, 9.998691 
2.7855843e+3, 1.5833361e+2, -1124290.5, -1434639.6, 44655.75, 0.009262835, -0.394559, -1117992.9, 270299.3, 0.000011753326, 10.002726, 9.998589 
2.7855223e+3, 1.683322e+2, -1087309.3, -1354869.1, 34366.1, -0.004747727, -0.3783516, -1082965.8, 207341.03, 0.00000025139548, 10.002262, 9.998684 
2.7854604e+3, 1.7833087e+2, -1082561.1, -1314921.5, 31516.934, -0.05357552, -0.3585727, -1078362.1, 113958.555, 0.0, 10.001674, 9.998572 
2.785399e+3, 1.883288e+2, -976666.9, -1203624.3, 61580.516, -0.054133926, -0.406002, -961034.9, 133304.83, 0.0, 10.001697, 9.998648 
2.7853382e+3, 1.9832663e+2, -869694.7, -1126429.5, 66422.15, -0.039529096, -0.46421993, -853528.06, 142831.19, 0.0, 10.001867, 9.998424 
2.7852774e+3, 2.0832522e+2, -845337.0, -1082901.9, 71151.81, -0.04953672, -0.4122825, -825657.0, 72717.9, 0.0, 10.001444, 9.998252 
2.7852163e+3, 2.1832412e+2, -821478.4, -1001944.75, 79807.805, -0.060963456, -0.33132526, -791248.6, 9140.022, 0.0, 10.000848, 9.9984255 
2.785156e+3, 2.2832285e+2, -749227.5, -843588.8, 99373.37, -0.0434305, -0.3210575, -686403.25, 15997.931, 0.0, 10.0003605, 9.999072 
2.7850962e+3, 2.3832159e+2, -713291.75, -774613.56, 101803.62, -0.016586922, -0.33477262, -637632.06, -33219.363, 0.0, 9.999929, 9.999083 
2.7850354e+3, 2.4832031e+2, -617047.4, -643066.56, 81161.26, -0.04512405, -0.368929, -547859.6, -41435.68, 0.0, 9.99977, 9.999388 
2.7849743e+3, 2.5831908e+2, -549305.7, -585944.0, 71685.33, -0.09550003, -0.40493467, -493635.8, -85201.33, 0.0, 9.999673, 9.999156 
2.7849135e+3, 2.6831815e+2, -479255.13, -513630.13, 71046.41, -0.09020227, -0.38525963, -423346.78, -112902.88, 0.0, 9.99954, 9.99904 
2.784853e+3, 2.7831733e+2, -417235.44, -445079.6, 93716.625, -0.035251085, -0.35107, -336412.44, -123959.82, 0.0, 9.999345, 9.998933 
2.784792e+3, 2.883159e+2, -329709.78, -338442.1, 67025.555, 0.008964182, -0.37072954, -266908.3, -152441.36, 0.0, 9.999208, 9.99906 
2.78473e+3, 2.983145e+2, -245639.64, -230544.63, 86367.66, -0.038294777, -0.39745215, -151395.33, -134914.6, 0.0, 9.999039, 9.999212 
2.7846688e+3, 3.083144e+2, -287409.9, -141759.69, 119603.84, -0.07202572, -0.35725048, -74554.18, -74554.18, 0.0, 9.998058, 9.999956 
2.784608e+3, 3.1831294e+2, -262065.17, 50146.84, -144982.45, -0.036489524, -0.47643486, 107087.77, 107087.77, 0.0, 9.997429, 10.001592 
2.7957702e+3, 1.2840128e+2, -1336775.1, -1705229.9, 40300.594, -0.13687697, -0.38230887, -1332418.6, 349210.22, 0.0003149128, 10.003353, 9.99845 
2.79571e+3, 1.3839938e+2, -1325649.3, -1650549.5, 27582.875, 0.0636865, -0.39522168, -1323324.3, 260324.0, 0.00012577139, 10.002756, 9.998444 
2.795648e+3, 1.483976e+2, -1222723.0, -1516512.9, 62889.375, 0.0124696335, -0.41539475, -1209826.9, 275838.44, 0.00002907313, 10.00265, 9.998736 
2.795586e+3, 1.5839592e+2, -1134777.9, -1443756.8, 40756.55, -0.05324193, -0.43389428, -1129492.3, 258188.63, 0.0000024460635, 10.002671, 9.998553 
2.7955237e+3, 1.6839471e+2, -1108194.9, -1391485.6, 11150.122, -0.077858716, -0.38022086, -1107756.8, 181937.92, 0.0000000042322403, 10.002232, 9.998448 
2.795461e+3, 1.7839366e+2, -1088418.0, -1328234.5, 18615.047, -0.09709976, -0.31092197, -1086981.6, 104725.94, 0.0, 10.001678, 9.99848 
2.7954006e+3, 1.883921e+2, -962636.5, -1173827.9, 70037.9, -0.024799578, -0.31685355, -941520.9, 152201.06, 0.0, 10.001694, 9.998854 
2.7953407e+3, 1.9839045e+2, -866229.25, -1108355.8, 63737.6, 0.06289545, -0.34359047, -850475.9, 145260.67, 0.0, 10.00182, 9.998571 
2.7952787e+3, 2.0838843e+2, -846512.06, -1082433.6, 49002.023, -0.014878475, -0.36089966, -836738.94, 61018.477, 0.0, 10.001429, 9.998263 
2.7952164e+3, 2.1838641e+2, -817631.4, -993214.2, 60190.344, -0.13200368, -0.3723381, -798979.3, 799.4875, 0.0, 10.000844, 9.998488 
2.7951556e+3, 2.2838518e+2, -738934.44, -823657.1, 83077.01, -0.106795266, -0.3710804, -688042.0, 13748.572, 0.0, 10.000364, 9.999208 
2.7950957e+3, 2.3838422e+2, -715407.2, -778198.3, 89284.62, -0.042146184, -0.36541057, -652159.06, -48360.12, 0.0, 9.999924, 9.999062 
2.7950352e+3, 2.4838328e+2, -639496.94, -689538.7, 77847.34, -0.028324666, -0.3423706, -582748.3, -76940.14, 0.0, 9.999769, 9.99907 
2.7949744e+3, 2.583824e+2, -544990.1, -580692.56, 67301.36, -0.04558896, -0.31788567, -493212.75, -85395.93, 0.0, 9.999688, 9.999186 
2.7949128e+3, 2.683813e+2, -431390.2, -416030.34, 63506.66, -0.08922428, -0.36295673, -359740.94, -49914.984, 0.0, 9.999544, 9.99971 
2.7948517e+3, 2.7838013e+2, -387212.72, -386766.66, 86447.28, -0.09636402, -0.42381176, -300542.13, -88707.195, 0.0, 9.99936, 9.999327 
2.7947912e+3, 2.883791e+2, -337779.56, -355673.0, 62049.645, 0.008657073, -0.41044444, -284034.97, -170188.86, 0.0, 9.999211, 9.9989395 
2.7947292e+3, 2.9837826e+2, -249690.55, -237673.77, 70337.76, 0.019537376, -0.369676, -173088.25, -157232.48, 0.0, 9.999032, 9.999167 
2.7946672e+3, 3.0837777e+2, -263006.2, -95690.14, 69987.46, -0.04531519, -0.3859282, -70275.21, -70275.21, 0.0, 9.998071, 10.000271 
2.7946055e+3, 3.183773e+2, -297999.9, -13613.165, 45322.406, -0.014148142, -0.43329984, -6564.868, -6564.868, 0.0, 9.997407, 10.001151 
2.8057736e+3, 1.2846434e+2, -1337354.5, -1738799.6, 26399.148, -0.10725448, -0.38736704, -1335626.0, 345384.22, 0.00010351229, 10.003491, 9.998155 
2.8057125e+3, 1.384623e+2, -1230691.9, -1621979.4, 23048.316, 0.04398231, -0.38483912, -1229339.0, 353693.3, 0.00003585604, 10.00348, 9.998293 
2.8056502e+3, 1.484606e+2, -1206206.3, -1494673.3, 58690.176, -0.015267486, -0.39994147, -1194722.6, 290325.88, 0.00000603324, 10.002705, 9.998859 
2.805588e+3, 1.5845907e+2, -1256175.3, -1495665.6, 44562.85, -0.07361134, -0.41697577, -1248152.1, 138910.5, 0.00000016363987, 10.001807, 9.998614 
2.8055254e+3, 1.6845767e+2, -1165601.4, -1423675.3, 37621.438, -0.06964082, -0.37950683, -1160228.8, 128849.125, 0.0, 10.001863, 9.998404 
2.805463e+3, 1.784564e+2, -1020771.5, -1293334.4, 55923.184, -0.061234344, -0.32864398, -1009743.7, 181349.14, 0.0, 10.002144, 9.998489 
2.805402e+3, 1.8845496e+2, -975821.44, -1179117.6, 93288.984, -0.02611658, -0.32467708, -939501.56, 153605.02, 0.0, 10.0016, 9.998862 
2.8053415e+3, 1.9845349e+2, -994165.6, -1157008.9, 78444.05, 0.02019936, -0.3346698, -962525.56, 32594.305, 0.0, 10.000879, 9.9986925 
2.8052795e+3, 2.0845175e+2, -888210.8, -1064579.3, 82757.74, -0.035703994, -0.34923628, -855459.94, 41677.297, 0.0, 10.00098, 9.998601 
2.8052172e+3, 2.1845001e+2, -743704.25, -935357.4, 106389.52, -0.11754957, -0.36442426, -696347.5, 102807.5, 0.0, 10.001261, 9.998683 
2.805156e+3, 2.2844864e+2, -693865.0, -813093.9, 107695.7, -0.09410469, -0.37421378, -630385.0, 70782.8, 0.0, 10.000727, 9.9991045 
2.8050953e+3, 2.3844746e+2, -710520.25, -783980.9, 109148.61, -0.03599979, -0.3800972, -632087.5, -28908.97, 0.0, 9.999994, 9.998987 
2.8050348e+3, 2.4844643e+2, -616830.3, -682740.75, 126015.195, -0.029831013, -0.36071256, -519532.38, -14343.751, 0.0, 9.999946, 9.999029 
2.804974e+3, 2.5844556e+2, -498779.13, -558900.06, 125471.01, -0.048076663, -0.33519214, -399817.88, 7379.751, 0.0, 10.000012, 9.999177 
2.8049123e+3, 2.6844448e+2, -426201.88, -412437.06, 76604.49, -0.079782546, -0.37166283, -342406.44, -33200.17, 0.0, 9.999575, 9.999721 
2.804851e+3, 2.7844343e+2, -428796.0, -390654.6, 57499.242, -0.07421194, -0.42613032, -349145.97, -137931.33, 0.0, 9.999, 9.999476 
2.8047898e+3, 2.8844273e+2, -393809.5, -335673.94, 58201.824, 0.016002677, -0.4147148, -299684.9, -186463.03, 0.0, 9.998625, 9.999359 
2.804728e+3, 2.9844224e+2, -344102.28, -262405.84, 102506.34, 0.012670973, -0.37650946, -192908.56, -177681.4, 0.0, 9.9983, 9.999349 
2.804666e+3, 3.0844155e+2, -187836.03, -86042.47, 80114.836, 0.009718918, -0.4006846, -42024.184, -42024.184, 0.0, 9.998698, 10.000035 
2.804603e+3, 3.184413e+2, -143770.66, 10707.233, 47004.164, -0.04026691, -0.39877465, 23885.355, 23885.355, 0.0, 9.998687, 10.000698 
2.8157786e+3, 1.2852728e+2, -1348478.5, -1755762.3, 25629.576, 0.050421532, -0.3975932, -1346872.0, 333521.6, 0.00002429662, 10.003472, 9.998043 
2.8157145e+3, 1.3852565e+2, -1252252.0, -1635440.4, 12845.015, -0.094596446, -0.3474769, -1251821.9, 330591.25, 0.000006466996, 10.003346, 9.998263 
2.8156516e+3, 1.4852424e+2, -1204926.0, -1478894.5, 22107.441, -0.123482235, -0.34217745, -1203153.5, 281273.16, 0.00000052844416, 10.0026455, 9.998998 
2.8155896e+3, 1.5852289e+2, -1241492.6, -1472823.3, 23953.197, -0.058430254, -0.353447, -1239038.5, 147400.11, 0.0000000005064632, 10.001839, 9.998756 
2.815528e+3, 1.6852106e+2, -1152486.1, -1400824.1, 50534.414, -0.00025340347, -0.37625793, -1142596.6, 145860.1, 0.0, 10.001881, 9.998552 
2.815466e+3, 1.7851914e+2, -1023064.56, -1289108.6, 54454.746, 0.027867848, -0.4008536, -1012350.06, 178125.77, 0.0, 10.002104, 9.99854 
2.8154033e+3, 1.8851744e+2, -989304.9, -1204692.9, 64560.61, -0.057901837, -0.41582718, -971435.9, 121056.86, 0.0, 10.001588, 9.998693 
2.8153405e+3, 1.9851588e+2, -986105.8, -1142508.3, 64210.668, -0.15520242, -0.42182353, -963121.8, 31385.898, 0.0, 10.000889, 9.998789 
2.8152797e+3, 2.0851523e+2, -845985.25, -977155.2, 96018.41, -0.10573171, -0.37124416, -795290.75, 101223.25, 0.0, 10.00098, 9.999203 
2.8152192e+3, 2.1851477e+2, -730786.94, -897350.9, 103772.24, -0.028490487, -0.3126696, -681010.4, 117507.945, 0.0, 10.001211, 9.998968 
2.8151575e+3, 2.2851315e+2, -718436.7, -861743.75, 77967.19, -0.012550853, -0.33549786, -684198.25, 16335.691, 0.0, 10.000715, 9.998777 
2.8150955e+3, 2.3851131e+2, -716813.0, -800416.25, 91921.35, -0.013162789, -0.37949678, -657634.9, -55083.188, 0.0, 10.000008, 9.998868 
2.8150344e+3, 2.485098e+2, -599496.3, -648746.25, 130534.266, -0.05259191, -0.42168766, -491284.6, 13280.619, 0.0, 9.999951, 9.999262 
2.814973e+3, 2.5850847e+2, -503483.38, -570877.75, 119917.32, -0.10707437, -0.4560184, -412618.66, -6041.8735, 0.0, 10.00002, 9.999092 
2.814912e+3, 2.6850775e+2, -474175.3, -511498.8, 53791.074, -0.061953954, -0.4107145, -435900.78, -127315.695, 0.0, 9.999572, 9.999042 
2.8148508e+3, 2.7850726e+2, -433346.84, -400456.38, 38499.35, 0.031215772, -0.3519326, -375037.0, -164445.34, 0.0, 9.999, 9.999411 
2.8147882e+3, 2.8850675e+2, -324936.1, -191670.28, 44538.387, 0.027802924, -0.3834146, -178155.75, -65561.43, 0.0, 9.998617, 10.000354 
2.8147247e+3, 2.9850635e+2, -311568.8, -196440.33, 101897.0, -0.08019043, -0.4288472, -136971.92, -122376.66, 0.0, 9.998304, 9.9998 
2.814665e+3, 3.0850598e+2, -237427.58, -195241.48, 107124.02, 0.095009804, -0.3860428, -107153.62, -107153.62, 0.0, 9.998725, 9.999273 
2.8146014e+3, 3.1850454e+2, -160580.48, -38540.17, -103863.75, -0.072023965, -0.4321667, 20901.857, 20901.857, 0.0, 9.998732, 10.000347 
2.825781e+3, 1.2859021e+2, -1371763.1, -1706942.8, -1796.1304, 0.019644562, -0.39972812, -1371753.5, 308025.28, 0.000003329977, 10.003045, 9.9985895 
2.825717e+3, 1.3858928e+2, -1417687.5, -1677715.6, 26782.086, -0.1008671, -0.32984534, -1414957.6, 166832.5, 0.00000050691085, 10.00205, 9.998597 
2.825654e+3, 1.4858785e+2, -1298681.4, -1536291.6, 44782.29, -0.109051004, -0.3284888, -1290521.5, 193282.28, 0.0000000023756648, 10.002059, 9.998884 
2.825592e+3, 1.5858632e+2, -1170705.0, -1437595.9, 31896.535, -0.025599943, -0.3497931, -1166945.9, 218871.9, 0.0, 10.002325, 9.998762 
2.8255296e+3, 1.6858456e+2, -1141370.4, -1380411.9, 53488.86, 0.006343581, -0.37551197, -1129947.4, 157887.78, 0.0, 10.001891, 9.998689 
2.8254673e+3, 1.7858277e+2, -1126912.5, -1325356.8, 56538.348, 0.0037395083, -0.40022948, -1111934.8, 77917.945, 0.0, 10.001326, 9.998669 
2.8254044e+3, 1.8858123e+2, -999023.4, -1194968.8, 82655.27, -0.08115567, -0.41116524, -968814.4, 123053.28, 0.0, 10.001462, 9.998819 
2.8253415e+3, 1.9857982e+2, -856184.7, -1063677.4, 97562.54, -0.17266053, -0.414621, -817517.0, 176363.88, 0.0, 10.001719, 9.998924 
2.8252804e+3, 2.085791e+2, -835519.75, -960654.5, 101870.195, -0.115955256, -0.3826411, -778537.06, 117350.125, 0.0, 10.001008, 9.999301 
2.8252196e+3, 2.1857852e+2, -887361.3, -968128.9, 82103.38, -0.022247277, -0.3439106, -836247.44, -38355.42, 0.0, 10.000116, 9.999009 
2.825158e+3, 2.2857694e+2, -789257.0, -905234.94, 66911.41, -0.006262549, -0.35864034, -758703.0, -58795.637, 0.0, 10.000271, 9.998692 
2.8250957e+3, 2.3857516e+2, -626268.25, -757645.9, 93457.28, -0.008659685, -0.3878036, -577723.6, 24201.148, 0.0, 10.000635, 9.998858 
2.8250346e+3, 2.485737e+2, -559813.94, -617047.94, 124098.734, -0.044291392, -0.43304875, -461075.44, 42862.203, 0.0, 10.00017, 9.999374 
2.824973e+3, 2.585724e+2, -572221.8, -596181.44, 108417.516, -0.09292712, -0.47611454, -475124.25, -69175.54, 0.0, 9.999512, 9.999165 
2.8249115e+3, 2.6857173e+2, -505855.6, -525827.06, 80712.414, -0.05255331, -0.42861512, -434513.53, -126557.055, 0.0, 9.999352, 9.999048 
2.8248498e+3, 2.785713e+2, -393768.38, -378533.16, 110003.04, 0.043465924, -0.36178815, -275884.28, -65921.93, 0.0, 9.999268, 9.999429 
2.8247875e+3, 2.885707e+2, -238043.22, -152276.75, 68899.94, 0.044522256, -0.40197158, -114004.74, -2038.8196, 0.0, 9.999226, 10.000332 
2.8247237e+3, 2.9857013e+2, -191913.5, -150584.16, 58174.38, -0.0657957, -0.4616704, -109513.2, -95544.69, 0.0, 9.999172, 9.9997 
2.8246632e+3, 3.0856955e+2, -272284.25, -248313.67, 73351.1, 0.057833314, -0.41889122, -185975.14, -185975.14, 0.0, 9.998644, 9.998946 
2.8246e+3, 3.185679e+2, -184512.64, 4522.074, -129732.7, -0.03634079, -0.4676766, 70516.73, 70516.73, 0.0, 9.998342, 10.000825 
2.8357825e+3, 1.2865321e+2, -1314541.0, -1556885.6, -37750.367, -0.14218673, -0.3908188, -1308796.8, 370367.78, 0.00000016214108, 10.002917, 9.999678 
2.8357196e+3, 1.3865325e+2, -1366874.0, -1587720.0, 5446.9097, -0.017447123, -0.32349017, -1366739.8, 214423.34, 0.0000000020979667, 10.002117, 9.999183 
2.8356567e+3, 1.4865154e+2, -1313368.6, -1577519.9, 57111.78, -0.013698399, -0.3504545, -1301549.4, 181630.03, 0.0, 10.002104, 9.998581 
2.8355944e+3, 1.5864946e+2, -1188025.4, -1463190.3, 33136.34, 0.011770322, -0.397718, -1184091.1, 201108.28, 0.0, 10.002278, 9.99861 
2.8355306e+3, 1.6864818e+2, -1139039.6, -1369695.0, 31353.037, -0.0387167, -0.37546125, -1134853.8, 152359.11, 0.0, 10.001864, 9.9987755 
2.8354672e+3, 1.7864718e+2, -1112910.6, -1296736.5, 46309.746, -0.11478817, -0.33544135, -1101903.3, 87320.66, 0.0, 10.0013275, 9.998864 
2.8354055e+3, 1.8864615e+2, -973000.9, -1138454.8, 95750.67, -0.09769628, -0.32493708, -929189.56, 162043.02, 0.0, 10.001451, 9.999213 
2.8353444e+3, 1.986451e+2, -855893.06, -1048504.25, 91774.1, -0.060559638, -0.328006, -819167.6, 174073.34, 0.0, 10.001656, 9.99906 
2.8352815e+3, 2.0864329e+2, -862386.56, -1012423.06, 64717.355, -0.07790337, -0.3869741, -838328.75, 56928.6, 0.0, 10.000988, 9.998956 
2.8352186e+3, 2.1864136e+2, -898209.56, -992261.94, 64964.055, -0.10576181, -0.45255142, -865037.3, -67762.375, 0.0, 10.000122, 9.998841 
2.8351572e+3, 2.2864011e+2, -779474.3, -886698.2, 84245.2, -0.07223188, -0.43760663, -733228.9, -33941.688, 0.0, 10.000277, 9.998817 
2.8350958e+3, 2.3863909e+2, -622859.1, -748039.3, 94576.42, -0.022723766, -0.40328282, -572037.5, 29260.0, 0.0, 10.000623, 9.998931 
2.8350347e+3, 2.4863815e+2, -561814.0, -621298.75, 97635.11, -0.0067261364, -0.3950216, -489491.6, 13814.568, 0.0, 10.00017, 9.999346 
2.834973e+3, 2.586373e+2, -550939.56, -556568.94, 90412.805, -0.018711522, -0.39527032, -463297.63, -57983.97, 0.0, 9.99953, 9.999429 
2.8349105e+3, 2.6863644e+2, -454246.8, -419992.8, 78471.08, -0.05616383, -0.42645934, -356801.44, -49481.125, 0.0, 9.999355, 9.999776 
2.834848e+3, 2.786356e+2, -385380.25, -365529.44, 108312.125, -0.051771045, -0.46444058, -266688.9, -57362.098, 0.0, 9.999286, 9.999511 
2.8347865e+3, 2.8863457e+2, -315056.75, -314735.1, 68348.0, 0.06543395, -0.47188053, -246547.72, -135210.98, 0.0, 9.999237, 9.999211 
2.834724e+3, 2.986336e+2, -238176.94, -249369.3, 49139.117, 0.06881024, -0.46641067, -194316.38, -180969.34, 0.0, 9.999182, 9.999018 
2.8346598e+3, 3.0863196e+2, -265465.22, -234267.08, 43098.66, -0.1292688, -0.5144841, -204031.38, -204031.38, 0.0, 9.998641, 9.999046 
2.8345993e+3, 3.1863198e+2, -93713.67, 198715.38, -29926.615, 0.07903936, -0.42970103, 201746.6, 201746.6, 0.0, 9.998324, 10.002165 
2.8457847e+3, 1.287175e+2, -1491398.6, -1672542.8, 57793.707, -0.13772374, -0.38800344, -1474530.5, 204003.0, 0.00000000032983427, 10.001826, 9.999413 
2.8457218e+3, 1.3871725e+2, -1254730.5, -1542199.9, 12068.728, -0.018812584, -0.3252723, -1254224.8, 326311.4, 0.0, 10.002923, 9.999108 
2.8456587e+3, 1.4871562e+2, -1267899.0, -1537570.5, 54980.86, -0.023130797, -0.3517341, -1257120.3, 225431.4, 0.0, 10.002339, 9.998741 
2.845596e+3, 1.5871373e+2, -1305282.4, -1508332.4, 62178.863, -0.0024122833, -0.39548483, -1287754.8, 96815.125, 0.0, 10.001425, 9.998712 
2.8455323e+3, 1.6871256e+2, -1199171.1, -1396693.1, 71060.26, -0.04885761, -0.36590573, -1176263.3, 110318.8, 0.0, 10.001447, 9.998789 
2.8454685e+3, 1.7871161e+2, -1060232.9, -1260755.1, 80238.88, -0.1197687, -0.32197592, -1032078.44, 156513.94, 0.0, 10.00165, 9.998952 
2.8454068e+3, 1.887106e+2, -1028932.25, -1151089.1, 108631.86, -0.08041847, -0.32292587, -965385.44, 125215.11, 0.0, 10.001006, 9.999341 
2.8453454e+3, 1.9870953e+2, -1059587.3, -1143599.9, 90687.08, -0.013256362, -0.3363639, -1001650.2, -9041.611, 0.0, 10.00024, 9.999092 
2.8452823e+3, 2.0870766e+2, -940055.44, -1064862.1, 74210.984, -0.06060421, -0.3930086, -905497.7, -10872.085, 0.0, 10.00052, 9.998821 
2.845219e+3, 2.1870564e+2, -771863.3, -935119.06, 89697.38, -0.13053824, -0.45650595, -732211.6, 64432.75, 0.0, 10.001008, 9.998805 
2.8451574e+3, 2.2870424e+2, -703537.5, -837360.06, 113299.12, -0.09028088, -0.46316198, -638866.8, 59790.63, 0.0, 10.000746, 9.998929 
2.8450963e+3, 2.3870312e+2, -666632.94, -761676.2, 119291.8, -0.018181488, -0.44891927, -585745.7, 14922.443, 0.0, 10.000292, 9.998997 
2.8450346e+3, 2.4870256e+2, -570195.44, -628134.3, 113074.484, -0.000025436879, -0.40346438, -482438.4, 20235.527, 0.0, 10.000125, 9.999319 
2.8449726e+3, 2.5870216e+2, -485740.78, -519252.75, 105447.266, -0.0067542973, -0.35806772, -395726.5, 8951.721, 0.0, 9.999957, 9.999477 
2.84491e+3, 2.68701e+2, -395957.56, -374807.16, 63787.664, -0.045857523, -0.4295768, -320724.03, -14037.293, 0.0, 9.999681, 9.99993 
2.844847e+3, 2.786997e+2, -368407.47, -360314.1, 59799.996, -0.049193203, -0.5236464, -304424.03, -95727.73, 0.0, 9.999407, 9.999493 
2.8447855e+3, 2.8869888e+2, -305420.53, -345180.84, 64707.156, 0.046580855, -0.49202657, -257608.47, -146903.1, 0.0, 9.999454, 9.9988985 
2.8447226e+3, 2.9869816e+2, -207586.52, -255616.38, 95623.81, 0.039566606, -0.43066445, -133008.19, -120293.625, 0.0, 9.999493, 9.998821 
2.8446588e+3, 3.086959e+2, -164522.77, -186874.3, 84312.69, -0.113206916, -0.534234, -90648.38, -90648.38, 0.0, 9.999348, 9.99903 
2.844598e+3, 3.1869653e+2, 5168.9453, 256515.02, -10690.589, 0.10123534, -0.3887938, 256968.89, 256968.89, 0.0, 9.99896, 10.002257 
2.8557873e+3, 1.2878269e+2, -1580373.8, -1857483.3, 95383.3, -0.038826365, -0.3934922, -1550716.1, 127174.44, 0.0, 10.001833, 9.9981365 
2.855724e+3, 1.3878128e+2, -1311870.4, -1635157.9, 27886.414, -0.08307034, -0.3334723, -1309482.6, 270426.84, 0.0, 10.002813, 9.998522 
2.85566e+3, 1.4878012e+2, -1238845.0, -1465919.0, 16930.855, -0.10699893, -0.33182064, -1237589.6, 244331.11, 0.0, 10.002289, 9.999258 
2.8555965e+3, 1.5877898e+2, -1281047.4, -1461314.3, 40706.52, -0.060202852, -0.347058, -1272281.6, 111648.87, 0.0, 10.001438, 9.999028 
2.8555334e+3, 1.6877756e+2, -1198469.9, -1398234.1, 81100.04, -0.037081294, -0.3521049, -1169691.0, 116253.2, 0.0, 10.001459, 9.998773 
2.8554708e+3, 1.7877607e+2, -1067252.0, -1269348.4, 74785.07, -0.04006886, -0.35810247, -1042588.06, 145370.4, 0.0, 10.001623, 9.998906 
2.855408e+3, 1.8877465e+2, -1036325.56, -1168626.9, 75876.414, -0.03743518, -0.3932481, -1001812.7, 88158.3, 0.0, 10.001013, 9.999219 
2.8553453e+3, 1.9877326e+2, -1059941.0, -1150028.8, 77201.47, -0.029816698, -0.4271247, -1015603.6, -23621.137, 0.0, 10.000265, 9.999036 
2.8552827e+3, 2.0877226e+2, -934127.4, -1056866.5, 94952.945, -0.062061682, -0.39834553, -882438.2, 11553.64, 0.0, 10.000538, 9.998867 
2.8552198e+3, 2.1877125e+2, -771151.8, -927321.06, 96021.32, -0.103578754, -0.36491147, -725473.3, 70528.016, 0.0, 10.00098, 9.998873 
2.8551582e+3, 2.2876926e+2, -697845.6, -825578.44, 95274.91, -0.06707539, -0.44028988, -647011.44, 51007.57, 0.0, 10.000744, 9.999012 
2.8550965e+3, 2.3876719e+2, -659568.6, -751310.06, 106416.375, -0.014313523, -0.5267145, -589557.6, 10479.463, 0.0, 10.000309, 9.999061 
2.8550345e+3, 2.4876688e+2, -570353.75, -628759.9, 107890.33, -0.027428556, -0.45844573, -487784.1, 14257.0, 0.0, 10.000125, 9.999316 
2.854972e+3, 2.5876692e+2, -496264.7, -543988.4, 97076.484, -0.060228303, -0.3666233, -420160.38, -16118.01, 0.0, 9.999968, 9.999303 
2.8549096e+3, 2.687654e+2, -428066.72, -443094.34, 52188.953, -0.020401966, -0.43743768, -382853.47, -76797.39, 0.0, 9.999687, 9.99946 
2.8548473e+3, 2.7876368e+2, -372950.34, -372657.47, 53349.066, 0.05106879, -0.53393644, -319454.63, -111383.484, 0.0, 9.999418, 9.999403 
2.854784e+3, 2.8876364e+2, -267145.25, -266529.9, 67720.1, -0.022082498, -0.45790237, -199116.78, -89044.945, 0.0, 9.999456, 9.999438 
2.8547198e+3, 2.9876384e+2, -178437.69, -202772.66, 93433.29, -0.18979095, -0.35374674, -96382.95, -84312.27, 0.0, 9.999525, 9.999169 
2.8546607e+3, 3.0876148e+2, -168081.47, -202335.6, 80975.414, 0.13897912, -0.4719162, -102441.67, -102441.67, 0.0, 9.999382, 9.99891 
2.8545952e+3, 3.1876093e+2, -98995.71, 33783.03, -120915.04, -0.04600288, -0.40405717, 105335.66, 105335.66, 0.0, 9.998974, 10.000727 
2.8657892e+3, 1.2884656e+2, -1525220.3, -1771405.4, 37144.445, -0.0046158577, -0.42056513, -1519738.0, 157526.14, 0.0, 10.00195, 9.9986725 
2.8657252e+3, 1.3884574e+2, -1520442.6, -1699469.5, 63692.996, -0.1483527, -0.35082722, -1500095.0, 79180.586, 0.0, 10.001224, 9.998846 
2.865661e+3, 1.4884476e+2, -1373032.3, -1534448.4, 39133.098, -0.14423802, -0.33960512, -1364045.4, 117240.59, 0.0, 10.001387, 9.999221 
2.8655982e+3, 1.5884365e+2, -1233664.1, -1429199.0, 32561.072, -0.041546118, -0.34796154, -1228384.5, 154911.66, 0.0, 10.001725, 9.999108 
2.865535e+3, 1.6884229e+2, -1184921.1, -1366176.5, 79765.39, -0.016382582, -0.36745384, -1154818.1, 130490.63, 0.0, 10.001443, 9.999001 
2.8654718e+3, 1.7884085e+2, -1146902.3, -1305293.3, 84749.29, -0.025085444, -0.38766924, -1110104.8, 77217.0, 0.0, 10.001063, 9.998931 
2.865409e+3, 1.8883924e+2, -1026554.6, -1197307.3, 76413.66, -0.02947358, -0.4180919, -997352.75, 91983.88, 0.0, 10.001225, 9.998918 
2.865346e+3, 1.9883768e+2, -893844.06, -1084384.3, 71702.164, -0.030458814, -0.44642222, -869876.6, 121474.61, 0.0, 10.001471, 9.998902 
2.8652835e+3, 2.0883676e+2, -844221.5, -1003026.0, 93480.555, -0.05495338, -0.41113967, -800972.5, 92387.09, 0.0, 10.001113, 9.998959 
2.865221e+3, 2.1883595e+2, -814169.2, -939870.3, 95287.46, -0.079752, -0.36635607, -762871.2, 32495.664, 0.0, 10.00065, 9.998945 
2.865159e+3, 2.2883414e+2, -713454.4, -830184.9, 87415.39, -0.05274995, -0.4277045, -666710.4, 30672.705, 0.0, 10.000626, 9.999037 
2.8650966e+3, 2.388322e+2, -609786.4, -721334.6, 90662.664, -0.011139056, -0.5047563, -559115.8, 40284.508, 0.0, 10.000628, 9.999111 
2.865034e+3, 2.4883167e+2, -593140.94, -634933.1, 85146.05, -0.027528916, -0.46382302, -526364.4, -24958.178, 0.0, 9.99995, 9.999357 
2.8649715e+3, 2.588314e+2, -613697.9, -604634.56, 88475.5, -0.06130394, -0.40181565, -520574.75, -117164.91, 0.0, 9.999177, 9.999269 
2.864909e+3, 2.6883006e+2, -462613.22, -477343.75, 77813.125, -0.023968356, -0.44559634, -391817.56, -86394.78, 0.0, 9.999527, 9.999301 
2.864847e+3, 2.788286e+2, -293856.97, -338807.9, 93267.84, 0.054800205, -0.5025038, -220394.77, -12958.378, 0.0, 9.999988, 9.999357 
2.8647834e+3, 2.8882855e+2, -216802.64, -226976.38, 83642.77, -0.031272203, -0.43365827, -138092.2, -28655.64, 0.0, 9.99974, 9.999572 
2.8647187e+3, 2.988287e+2, -188441.23, -193156.22, 79075.055, -0.21246167, -0.3490369, -111688.53, -100253.28, 0.0, 9.9993925, 9.999303 
2.86466e+3, 3.0882642e+2, -189205.86, -200058.34, 71232.55, 0.19443801, -0.47181955, -123193.18, -123193.18, 0.0, 9.9991865, 9.999019 
2.8645933e+3, 3.1882542e+2, -86006.53, -49702.16, -85599.67, -0.1340847, -0.44412437, 19648.828, 19648.828, 0.0, 9.99946, 9.999914 
2.875791e+3, 1.2890963e+2, -1399332.1, -1495553.8, 7139.62, -0.01533191, -0.45277214, -1398805.3, 277842.97, 0.0, 10.001892, 10.00059 
2.8757253e+3, 1.3891065e+2, -1459575.4, -1560971.1, 46298.742, -0.22647722, -0.3757067, -1441615.8, 137019.89, 0.0, 10.001172, 9.99982 
2.875662e+3, 1.4890951e+2, -1407975.3, -1605121.8, 51081.633, -0.15505022, -0.37478796, -1395525.9, 85122.19, 0.0, 10.001377, 9.998741 
2.8756005e+3, 1.5890792e+2, -1243526.3, -1449707.4, 35215.348, 0.030886859, -0.39322257, -1237677.4, 144988.38, 0.0, 10.001725, 9.998967 
2.8755367e+3, 1.6890688e+2, -1157381.0, -1308518.4, 62782.145, 0.011075891, -0.40280235, -1134704.0, 149970.75, 0.0, 10.001439, 9.999399 
2.8754723e+3, 1.7890596e+2, -1144727.4, -1295877.8, 76758.664, -0.065495625, -0.4055148, -1112583.0, 74098.87, 0.0, 10.001043, 9.999006 
2.8754097e+3, 1.8890439e+2, -1057763.6, -1261300.8, 87247.56, -0.05339033, -0.4043307, -1025483.8, 63213.98, 0.0, 10.001222, 9.998481 
2.875347e+3, 1.9890268e+2, -912167.06, -1117446.9, 71620.09, -0.024068918, -0.4066242, -889649.56, 101065.85, 0.0, 10.001449, 9.998687 
2.8752846e+3, 2.0890117e+2, -836826.9, -986447.94, 74819.72, -0.044019565, -0.43223503, -805832.8, 86895.82, 0.0, 10.001105, 9.999078 
2.8752214e+3, 2.188998e+2, -812176.8, -930995.44, 84484.76, -0.07372353, -0.4549459, -768304.25, 26436.014, 0.0, 10.00063, 9.999017 
2.875159e+3, 2.2889893e+2, -716648.75, -833732.25, 90827.17, -0.047783468, -0.42374623, -667131.7, 29617.51, 0.0, 10.000613, 9.999019 
2.875097e+3, 2.388981e+2, -609274.94, -717829.0, 80583.945, -0.0077835536, -0.38811493, -566393.5, 32364.336, 0.0, 10.000617, 9.999141 
2.8750342e+3, 2.488969e+2, -588541.56, -627088.75, 52667.582, -0.003713666, -0.42110565, -551731.75, -50962.547, 0.0, 9.999955, 9.99941 
2.8749707e+3, 2.588957e+2, -603759.75, -588979.75, 77140.6, -0.027149992, -0.46186122, -518876.0, -116095.5, 0.0, 9.999197, 9.999366 
2.874908e+3, 2.68895e+2, -449932.7, -451650.6, 99576.01, -0.06352252, -0.45248586, -351211.94, -46425.113, 0.0, 9.99953, 9.9994755 
2.8748456e+3, 2.7889445e+2, -287267.72, -333994.78, 98376.67, -0.056447156, -0.4316236, -209518.31, -2726.5308, 0.0, 10.000023, 9.999374 
2.8747836e+3, 2.888936e+2, -235414.19, -270379.94, 70142.734, 0.024271922, -0.42368013, -180608.38, -71808.62, 0.0, 9.999757, 9.999268 
2.87472e+3, 2.9889268e+2, -195698.11, -205988.58, 67417.695, -0.0006604636, -0.42270926, -133229.6, -122420.69, 0.0, 9.999386, 9.999217 
2.8746572e+3, 3.0889082e+2, -170789.56, -156649.56, 64016.035, -0.00026719042, -0.52183414, -99314.3, -99314.3, 0.0, 9.999171, 9.999322 
2.874593e+3, 3.1889045e+2, -67832.19, -19495.096, 57145.605, -0.08579575, -0.46230444, 18382.623, 18382.623, 0.0, 9.9994955, 10.000104 
2.8857914e+3, 1.2897427e+2, -1492991.5, -1514673.9, 27865.86, -0.07781406, -0.40560424, -1473932.3, 202084.45, 0.0, 10.001129, 10.000832 
2.8857267e+3, 1.3897498e+2, -1532407.3, -1567534.9, -6153.2754, -0.16166544, -0.38213444, -1531360.5, 46645.066, 0.0, 10.000546, 10.000077 
2.8856635e+3, 1.4897396e+2, -1448623.3, -1599148.3, 45263.258, -0.121776104, -0.39482006, -1436060.9, 43955.156, 0.0, 10.000988, 9.998969 
2.8856015e+3, 1.5897256e+2, -1254080.1, -1439440.8, 52580.367, 0.0019797317, -0.41359285, -1240203.8, 141827.36, 0.0, 10.001586, 9.999105 
2.8855377e+3, 1.6897169e+2, -1178272.0, -1320316.8, 42735.33, -0.010300704, -0.40799463, -1166406.0, 117632.9, 0.0, 10.001303, 9.999383 
2.885473e+3, 1.7897092e+2, -1169704.1, -1305367.9, 46660.473, -0.066881984, -0.3964847, -1155205.1, 30840.354, 0.0, 10.000859, 9.999027 
2.8854105e+3, 1.8896955e+2, -1088793.0, -1268585.6, 94400.04, -0.060093172, -0.37996364, -1048333.2, 39726.594, 0.0, 10.0009775, 9.998548 
2.8853485e+3, 1.9896807e+2, -949790.9, -1133984.0, 97472.984, -0.03302231, -0.36694005, -907787.6, 82288.04, 0.0, 10.001183, 9.998703 
2.885285e+3, 2.0896624e+2, -878829.9, -1013770.06, 78850.44, -0.036555633, -0.4187893, -842523.25, 49568.484, 0.0, 10.000848, 9.999015 
2.8852218e+3, 2.189645e+2, -841240.06, -936119.06, 84823.46, -0.04661535, -0.4734957, -791491.44, 2615.0798, 0.0, 10.000393, 9.999096 
2.8851596e+3, 2.2896403e+2, -784319.44, -834685.44, 111994.19, -0.031251278, -0.42406535, -694711.8, 1399.9716, 0.0, 10.000012, 9.999301 
2.8850973e+3, 2.3896375e+2, -728021.2, -755768.5, 122652.4, -0.0054011745, -0.35925838, -618460.25, -20344.76, 0.0, 9.999719, 9.999312 
2.885034e+3, 2.4896248e+2, -555607.0, -613775.9, 93649.03, -0.011529752, -0.40308446, -486630.0, 13497.25, 0.0, 10.0001955, 9.999384 
2.8849706e+3, 2.5896105e+2, -384855.28, -487897.3, 113155.09, -0.033596173, -0.46101725, -312044.13, 90095.984, 0.0, 10.000729, 9.999318 
2.8849074e+3, 2.6896048e+2, -363371.66, -424745.5, 112767.336, -0.059733197, -0.4309103, -277190.44, 26955.635, 0.0, 10.000194, 9.999336 
2.884845e+3, 2.7896e+2, -391686.5, -388985.6, 88217.34, -0.043360207, -0.38909867, -302108.38, -95957.32, 0.0, 9.999328, 9.99933 
2.8847829e+3, 2.8895873e+2, -279633.2, -303115.72, 85560.234, 0.03970312, -0.42011636, -205012.36, -96849.414, 0.0, 9.999507, 9.999161 
2.88472e+3, 2.9895735e+2, -100479.445, -181599.69, 93038.266, 0.020276174, -0.4500482, -39544.527, -29368.512, 0.0, 10.000139, 9.9990225 
2.8846565e+3, 3.0895635e+2, 6598.9146, -119659.44, 47215.34, -0.033338644, -0.4286554, 22302.354, 22302.354, 0.0, 10.000612, 9.998892 
2.8845933e+3, 3.1895494e+2, 43665.5, 30019.72, -21002.887, -0.03753573, -0.43348008, 58925.934, 58925.934, 0.0, 10.000273, 10.000089 
2.8957915e+3, 1.2904002e+2, -1573359.0, -1665691.9, 111.02323, -0.18243775, -0.30449396, -1573358.9, 102015.21, 0.0, 10.00107, 9.999819 
2.8957286e+3, 1.3903897e+2, -1538808.4, -1603122.3, -8126.523, 0.008084926, -0.3708918, -1537797.4, 39584.832, 0.0, 10.000646, 9.999784 
2.8956652e+3, 1.4903827e+2, -1391265.5, -1486294.8, 71904.71, -0.05714157, -0.3966461, -1352594.8, 126792.555, 0.0, 10.001014, 9.999731 
2.8956017e+3, 1.5903762e+2, -1243877.4, -1398271.4, 59226.887, -0.108689554, -0.40898874, -1223774.8, 157617.38, 0.0, 10.001499, 9.99943 
2.895538e+3, 1.6903672e+2, -1207009.8, -1373103.0, 23596.047, -0.074650094, -0.39340666, -1203722.6, 79679.07, 0.0, 10.001273, 9.999035 
2.895474e+3, 1.7903575e+2, -1168279.3, -1308542.4, 39605.72, -0.044614233, -0.37092233, -1157868.6, 27543.607, 0.0, 10.000886, 9.998993 
2.8954113e+3, 1.890348e+2, -1053617.3, -1198789.4, 104372.914, -0.05469103, -0.3463289, -999071.75, 88350.37, 0.0, 10.000989, 9.9990225 
2.895349e+3, 1.990338e+2, -941576.4, -1108093.1, 95196.79, -0.06358901, -0.32635424, -898365.9, 91066.43, 0.0, 10.001144, 9.9988985 
2.8952858e+3, 2.0903192e+2, -895563.7, -1046390.8, 61416.24, -0.033072475, -0.37408984, -873719.06, 17730.193, 0.0, 10.000838, 9.9987955 
2.8952226e+3, 2.1903001e+2, -836113.25, -924513.9, 69646.02, -0.0036047453, -0.4308232, -797825.75, -4359.4946, 0.0, 10.000388, 9.999178 
2.8951597e+3, 2.2902946e+2, -744878.06, -754606.5, 98589.44, -0.009194132, -0.4285056, -651032.94, 44437.996, 0.0, 10.000018, 9.999848 
2.8950965e+3, 2.390292e+2, -706220.2, -713118.7, 122821.8, -0.02170406, -0.41320264, -586799.25, 10673.895, 0.0, 9.99973, 9.9996 
2.8950337e+3, 2.4902841e+2, -561835.3, -627406.9, 118028.6, -0.0520006, -0.40893692, -472123.5, 27356.912, 0.0, 10.000199, 9.999289 
2.8949705e+3, 2.590275e+2, -394717.1, -514753.1, 118047.84, -0.08584182, -0.4017514, -322306.06, 79182.875, 0.0, 10.000755, 9.999121 
2.894908e+3, 2.690265e+2, -395653.56, -494502.3, 78900.08, -0.011697857, -0.380642, -351975.9, -48475.313, 0.0, 10.000202, 9.998853 
2.8948456e+3, 2.7902526e+2, -397977.72, -404780.34, 65285.875, 0.09658103, -0.37505478, -336004.63, -130490.37, 0.0, 9.999336, 9.999217 
2.894782e+3, 2.890239e+2, -275773.56, -288208.84, 111380.89, 0.0032831465, -0.42587963, -170436.89, -62910.344, 0.0, 9.999486, 9.999267 
2.8947178e+3, 2.990227e+2, -117016.04, -220690.73, 116302.33, -0.19723013, -0.4393135, -41521.76, -31984.684, 0.0, 10.000164, 9.998738 
2.8946587e+3, 3.0902267e+2, -70789.61, -292583.47, 61704.195, 0.13594392, -0.23751469, -54778.945, -54778.945, 0.0, 10.000671, 9.997676 
2.8945932e+3, 3.1901786e+2, 8197.582, -41402.09, -150522.25, -0.03913327, -0.45806986, 135949.31, 135949.31, 0.0, 10.000261, 9.999609 
2.9057923e+3, 1.2910478e+2, -1681175.0, -1771408.1, 29857.422, -0.15702194, -0.31155834, -1672190.0, 2548.4004, 0.0, 10.000555, 9.999346 
2.9057297e+3, 1.3910338e+2, -1370019.9, -1538390.8, 32999.25, 0.0045753643, -0.37026304, -1363783.4, 212968.55, 0.0, 10.001873, 9.999639 
2.9056656e+3, 1.4910293e+2, -1352703.6, -1432615.3, 72510.09, -0.061390303, -0.38884008, -1309869.5, 168884.39, 0.0, 10.001125, 10.000046 
2.9056022e+3, 1.5910257e+2, -1442714.1, -1477787.8, 45724.85, -0.108707964, -0.39834973, -1411278.5, -30523.84, 0.0, 10.000062, 9.999577 
2.9055387e+3, 1.6910154e+2, -1298082.8, -1425550.8, 34829.188, -0.080495514, -0.39526895, -1289186.9, -6421.053, 0.0, 10.000685, 9.998959 
2.9054752e+3, 1.7910041e+2, -1069107.8, -1257068.0, 57187.75, -0.051455837, -0.38477227, -1053075.5, 131702.98, 0.0, 10.00155, 9.999027 
2.9054123e+3, 1.8909967e+2, -1021963.94, -1164435.4, 93993.336, -0.049916163, -0.35129413, -975262.06, 111524.35, 0.0, 10.001122, 9.999194 
2.9053497e+3, 1.9909894e+2, -1024828.7, -1127503.6, 72194.99, -0.044905983, -0.32124662, -987579.2, 1214.7194, 0.0, 10.00048, 9.999087 
2.9052866e+3, 2.0909727e+2, -916068.06, -1032081.6, 62781.445, -0.0063210875, -0.36994994, -888598.0, 2211.0703, 0.0, 10.000592, 9.999013 
2.9052234e+3, 2.1909553e+2, -764664.56, -879464.4, 91587.91, 0.030379618, -0.42684674, -713976.06, 78848.36, 0.0, 10.000832, 9.999274 
2.90516e+3, 2.2909504e+2, -668015.1, -723916.25, 82205.14, 0.002964824, -0.41732436, -609138.7, 85690.2, 0.0, 10.000573, 9.999792 
2.9050964e+3, 2.390948e+2, -638271.7, -686346.1, 79452.55, -0.028098453, -0.39560133, -579299.94, 17531.371, 0.0, 10.000223, 9.999546 
2.9050338e+3, 2.4909392e+2, -549069.1, -618321.25, 88202.77, -0.05182701, -0.39758798, -488939.25, 9900.096, 0.0, 10.000275, 9.999314 
2.9049706e+3, 2.5909302e+2, -452054.56, -524146.1, 84777.73, -0.07753399, -0.39635065, -395977.8, 4869.9927, 0.0, 10.000282, 9.999283 
2.904908e+3, 2.690923e+2, -429079.78, -465426.63, 69886.46, -0.0017638577, -0.37997693, -375042.47, -72186.02, 0.0, 9.999779, 9.999253 
2.9048452e+3, 2.790914e+2, -371360.9, -351173.2, 136520.08, 0.12088324, -0.37801516, -224374.33, -19507.861, 0.0, 9.999355, 9.99957 
2.9047808e+3, 2.890906e+2, -307923.2, -229394.36, 200068.5, -0.026487678, -0.41718608, -64773.75, 42099.496, 0.0, 9.998949, 9.999929 
2.9157937e+3, 1.2916887e+2, -1678190.5, -1776315.1, 83254.875, -0.04733804, -0.38962406, -1630616.9, 43490.234, 0.0, 10.000608, 9.999283 
2.91573e+3, 1.3916813e+2, -1391551.6, -1553889.3, 48216.48, -0.13741437, -0.37784365, -1378310.6, 197805.38, 0.0, 10.001749, 9.999592 
2.915666e+3, 1.491678e+2, -1360669.5, -1441585.9, 24375.484, -0.12031449, -0.37806553, -1353893.9, 124223.29, 0.0, 10.001092, 10.000001 
2.915603e+3, 1.5916744e+2, -1431606.6, -1471743.5, 32202.684, -0.026754396, -0.38498777, -1413731.0, -33612.44, 0.0, 10.000135, 9.999583 
2.9155394e+3, 1.6916622e+2, -1283647.9, -1402936.1, 72681.53, -0.04153801, -0.4084671, -1249270.5, 32859.95, 0.0, 10.000714, 9.999101 
2.915476e+3, 1.7916495e+2, -1072841.9, -1252829.0, 67412.414, -0.08776452, -0.42662135, -1050393.1, 133750.73, 0.0, 10.001499, 9.999082 
2.9154134e+3, 1.8916419e+2, -1032217.3, -1179893.1, 66815.76, -0.04797218, -0.3901979, -1006474.2, 79678.336, 0.0, 10.001096, 9.999102 
2.9153505e+3, 1.9916353e+2, -1013246.75, -1101435.1, 61153.652, 0.011019729, -0.3501636, -981948.2, 6211.8696, 0.0, 10.000471, 9.99927 
2.9152873e+3, 2.0916231e+2, -874122.4, -945110.2, 73750.41, 0.036651842, -0.400606, -827769.25, 62401.47, 0.0, 10.000591, 9.999611 
2.915224e+3, 2.1916108e+2, -762310.44, -869290.6, 91443.305, 0.043779925, -0.45758528, -709861.56, 82319.66, 0.0, 10.000809, 9.999355 
2.91516e+3, 2.2916073e+2, -710972.06, -812959.44, 67627.47, 0.006166149, -0.3916208, -677267.25, 16918.771, 0.0, 10.000572, 9.999183 
2.9150966e+3, 2.3916048e+2, -662250.2, -738829.25, 73851.4, -0.028824367, -0.3120501, -617352.5, -21162.234, 0.0, 10.000236, 9.999179 
2.915034e+3, 2.4915904e+2, -540642.44, -599418.75, 93635.03, -0.01706742, -0.3686341, -471892.0, 26311.72, 0.0, 10.000271, 9.999443 
2.9149714e+3, 2.591576e+2, -412607.6, -449018.4, 73606.94, -0.022236623, -0.44375268, -354988.1, 45228.668, 0.0, 10.000307, 9.999789 
2.9149073e+3, 2.691578e+2, -338251.2, -280432.25, 45875.99, -0.0394708, -0.43080714, -255116.6, 47097.523, 0.0, 9.999787, 10.0005245 
2.914843e+3, 2.791584e+2, -317504.9, -239949.19, 141163.27, -0.0038066113, -0.3960638, -132334.45, 71873.28, 0.0, 9.999368, 10.000328 
2.9147792e+3, 2.891589e+2, -226395.61, -61809.168, 151640.11, -0.044051852, -0.3887541, 28428.467, 134630.89, 0.0, 9.998977, 10.001063 
2.9257953e+3, 1.2923323e+2, -1569230.5, -1696817.4, 51506.715, 0.038706373, -0.39261562, -1551032.8, 122442.195, 0.0, 10.00124, 9.999522 
2.9257303e+3, 1.3923246e+2, -1627764.4, -1662767.8, 30876.73, -0.17320831, -0.40258163, -1609774.1, -34290.12, 0.0, 10.000104, 9.999638 
2.9256666e+3, 1.4923213e+2, -1447329.1, -1501088.5, 2174.861, -0.13094611, -0.39461368, -1447241.3, 30245.008, 0.0, 10.000573, 9.999844 
2.925604e+3, 1.5923178e+2, -1270773.5, -1396483.4, 8363.643, 0.015070703, -0.38597474, -1270219.5, 109268.945, 0.0, 10.001246, 9.999566 
2.9255402e+3, 1.6923063e+2, -1232625.5, -1357742.0, 55204.695, -0.022117028, -0.4177472, -1211750.5, 69748.9, 0.0, 10.000973, 9.999288 
2.9254767e+3, 1.792294e+2, -1198168.9, -1288424.4, 47157.637, -0.10103958, -0.45063984, -1178025.3, 5486.279, 0.0, 10.0005245, 9.999309 
2.9254138e+3, 1.8922879e+2, -1094879.1, -1178905.1, 57324.51, -0.050514888, -0.42473763, -1065820.4, 19697.549, 0.0, 10.000529, 9.999381 
2.925351e+3, 1.9922833e+2, -975840.75, -1061711.3, 79175.24, 0.025381695, -0.3903951, -928708.5, 58814.543, 0.0, 10.000633, 9.999465 
2.9252875e+3, 2.092275e+2, -874114.44, -937139.6, 72461.73, 0.023964223, -0.41170233, -826609.7, 62920.938, 0.0, 10.000555, 9.999683 
2.925224e+3, 2.1922667e+2, -811453.4, -892583.3, 60399.813, 0.005962005, -0.4357006, -779260.9, 12277.449, 0.0, 10.000466, 9.999361 
2.9251605e+3, 2.2922619e+2, -706807.5, -815329.4, 58724.313, -0.0044818507, -0.38097683, -681113.5, 12431.352, 0.0, 10.000617, 9.9991455 
2.925097e+3, 2.3922573e+2, -589747.94, -704142.6, 100326.42, -0.0064945295, -0.31870848, -531459.7, 64091.598, 0.0, 10.0007305, 9.999182 
2.9250342e+3, 2.4922435e+2, -541950.94, -580332.6, 123837.36, -0.0006491647, -0.3784832, -435826.25, 61738.11, 0.0, 10.000173, 9.999624 
2.9249713e+3, 2.592231e+2, -518927.0, -474244.47, 103284.49, -0.014773733, -0.45265862, -390912.56, 8663.069, 0.0, 9.999457, 10.00003 
2.9249066e+3, 2.6922384e+2, -367128.56, -237723.13, 29244.744, -0.0508541, -0.4258672, -231420.94, 70146.57, 0.0, 9.99934, 10.001036 
2.924842e+3, 2.79225e+2, -301684.16, -187749.08, 84951.83, -0.022693863, -0.3860963, -142432.14, 61122.844, 0.0, 9.999266, 10.00075 
2.9247782e+3, 2.8922537e+2, -192327.7, -12951.537, 26202.62, -0.03225166, -0.42423066, -9202.318, 96347.805, 0.0, 9.999057, 10.001375 
2.935797e+3, 1.2929776e+2, -1552580.6, -1637676.1, 1243.7158, 0.10084554, -0.3447271, -1552562.5, 120280.18, 0.0, 10.001139, 9.999974 
2.9357308e+3, 1.3929644e+2, -1614912.6, -1645902.3, 16268.379, -0.13116173, -0.44225255, -1607940.8, -33085.727, 0.0, 10.000147, 9.999732 
2.9356673e+3, 1.4929602e+2, -1463237.3, -1536576.6, 34020.3, -0.10749338, -0.4317038, -1449886.5, 26973.297, 0.0, 10.000583, 9.999596 
2.935605e+3, 1.5929574e+2, -1283857.4, -1409514.3, 19853.059, 0.019499604, -0.3973744, -1280795.3, 98067.73, 0.0, 10.001185, 9.999506 
2.9355413e+3, 1.6929473e+2, -1221853.1, -1329318.8, 39541.28, -0.02121071, -0.42664474, -1208872.1, 72000.16, 0.0, 10.000946, 9.9994955 
2.9354772e+3, 1.7929372e+2, -1170810.3, -1232907.4, 39068.633, -0.097643666, -0.4621513, -1151955.3, 30926.176, 0.0, 10.000529, 9.999687 
2.935414e+3, 1.8929346e+2, -1049725.3, -1089632.3, 61614.363, -0.060516577, -0.455595, -1004914.0, 79968.805, 0.0, 10.000547, 9.999986 
2.9353514e+3, 1.9929332e+2, -962887.1, -1034566.2, 78891.03, -0.007071287, -0.4417395, -912076.44, 74806.91, 0.0, 10.000633, 9.999651 
2.9352874e+3, 2.0929283e+2, -901526.6, -993168.4, 67191.73, -0.039203003, -0.40695214, -866019.25, 22870.03, 0.0, 10.000551, 9.999301 
2.9352236e+3, 2.192923e+2, -817350.1, -899370.4, 62005.117, -0.08120041, -0.36895102, -784020.06, 6875.849, 0.0, 10.000443, 9.999326 
2.9351607e+3, 2.2929144e+2, -676788.9, -746973.8, 66307.805, -0.03271057, -0.38302085, -636860.0, 56044.996, 0.0, 10.000592, 9.999626 
2.9350978e+3, 2.3929054e+2, -566423.25, -655262.0, 93399.6, 0.028223535, -0.4091393, -507418.4, 87495.836, 0.0, 10.000726, 9.999521 
2.935034e+3, 2.4928986e+2, -524098.6, -547107.06, 96681.664, -0.0042472566, -0.42502534, -438239.13, 58682.254, 0.0, 10.000185, 9.999851 
2.93497e+3, 2.592896e+2, -514533.88, -470831.7, 85266.984, -0.0676328, -0.4200508, -404660.44, -5736.1465, 0.0, 9.999483, 10.000039 
2.934906e+3, 2.6929045e+2, -386276.5, -279338.47, 29925.617, -0.0396346, -0.36070716, -271533.7, 29382.307, 0.0, 9.999352, 10.000739 
2.9348418e+3, 2.792911e+2, -282143.28, -177799.88, 68931.945, 0.048382014, -0.34703645, -143522.17, 59387.18, 0.0, 9.999383, 10.000769 
2.934777e+3, 2.8929043e+2, -194597.56, -29298.383, 28032.541, -0.023622796, -0.48657236, -24673.818, 80239.055, 0.0, 9.999098, 10.0012455 
2.9457968e+3, 1.293615e+2, -1681377.4, -1686562.0, -12695.708, 0.03855243, -0.37246424, -1671012.0, 1205.5313, 0.0, 10.000186, 10.000106 
2.9457316e+3, 1.393606e+2, -1525167.4, -1577999.0, -268.5772, -0.055861805, -0.44501483, -1525166.0, 49059.227, 0.0, 10.000656, 9.999953 
2.945668e+3, 1.4936054e+2, -1460193.4, -1510825.4, 46648.38, -0.075148955, -0.42073876, -1432434.3, 43792.44, 0.0, 10.000498, 9.999815 
2.9456052e+3, 1.5936041e+2, -1418781.0, -1458177.5, 53055.613, -0.012107761, -0.38758197, -1381884.9, -3656.303, 0.0, 10.000187, 9.999654 
2.9455417e+3, 1.6935961e+2, -1283845.9, -1341129.1, 72534.77, -0.01669883, -0.41169876, -1234502.6, 45733.4, 0.0, 10.00044, 9.9996605 
2.945478e+3, 1.793588e+2, -1134364.1, -1205826.9, 67537.6, -0.05106747, -0.4416902, -1093688.3, 88555.04, 0.0, 10.000737, 9.999774 
2.9454145e+3, 1.8935849e+2, -1006141.2, -1076393.3, 55752.883, -0.053090136, -0.4383094, -975371.7, 108873.74, 0.0, 10.0008745, 9.999923 
2.9453516e+3, 1.9935831e+2, -911684.25, -1006538.3, 30747.51, -0.04138466, -0.42703956, -902589.3, 83657.25, 0.0, 10.00096, 9.999691 
2.9452875e+3, 2.0935772e+2, -905291.8, -982102.7, 27125.092, -0.05392921, -0.41122678, -896678.7, -8425.338, 0.0, 10.000463, 9.999423 
2.9452237e+3, 2.1935713e+2, -876987.0, -910510.2, 62651.746, -0.071856685, -0.3903894, -828893.44, -38633.01, 0.0, 9.999949, 9.999492 
2.9451606e+3, 2.2935663e+2, -748098.3, -744783.94, 72120.445, -0.03666048, -0.39775348, -674301.6, 17964.014, 0.0, 9.999936, 9.99996 
2.9450977e+3, 2.393561e+2, -669024.4, -680112.4, 83178.87, 0.014334665, -0.41914877, -591204.94, 3066.1028, 0.0, 9.999911, 9.999743 
2.945034e+3, 2.493557e+2, -568564.1, -557683.0, 67817.94, -0.008446382, -0.41902137, -495087.75, 1188.037, 0.0, 9.999828, 9.999952 
2.9449695e+3, 2.593558e+2, -473550.44, -447364.78, 54058.71, -0.058689196, -0.38725778, -404835.97, -6560.181, 0.0, 9.999749, 10.000074 
2.9449052e+3, 2.6935655e+2, -342389.3, -284010.03, 16516.45, -0.020294324, -0.3272158, -279661.22, 20608.13, 0.0, 9.999756, 10.000521 
2.9448414e+3, 2.7935654e+2, -245733.72, -176869.44, 47630.145, 0.0703393, -0.35234126, -152529.11, 49740.633, 0.0, 9.999707, 10.000611 
2.9447764e+3, 2.8935647e+2, -151810.8, 9695.867, 1032.9437, 0.0060552824, -0.43184426, 9702.474, 113969.77, 0.0, 9.9993, 10.001408 
2.9557952e+3, 1.2942466e+2, -1687479.4, -1694926.8, 4338.5596, -0.11682562, -0.44916496, -1685485.6, -13887.886, 0.0, 10.000175, 10.000052 
2.9557332e+3, 1.394249e+2, -1515823.4, -1540122.8, 9883.746, 0.038779657, -0.4140493, -1512310.9, 61283.594, 0.0, 10.000578, 10.000251 
2.9556686e+3, 1.4942552e+2, -1427700.4, -1431728.5, 33046.785, -0.040987868, -0.36991826, -1396606.4, 78982.05, 0.0, 10.000447, 10.000382 
2.9556045e+3, 1.5942568e+2, -1400753.6, -1415415.4, 47224.26, -0.075078554, -0.35764462, -1360294.6, 17292.305, 0.0, 10.000164, 9.99996 
2.955542e+3, 1.6942511e+2, -1272304.8, -1318746.8, 85171.39, -0.0123579195, -0.37677953, -1207245.6, 72346.9, 0.0, 10.000445, 9.999812 
2.9554793e+3, 1.794245e+2, -1148076.8, -1233656.5, 71477.555, 0.022525746, -0.39530092, -1107559.9, 74038.9, 0.0, 10.000736, 9.999583 
2.9554155e+3, 1.8942381e+2, -1054577.8, -1169864.0, 60093.715, -0.03319736, -0.37893572, -1028950.3, 54656.01, 0.0, 10.000845, 9.999294 
2.9553518e+3, 1.9942331e+2, -925872.0, -1021268.0, 26044.16, -0.07775058, -0.35039183, -919224.8, 66387.22, 0.0, 10.000896, 9.99962 
2.955288e+3, 2.0942226e+2, -868943.2, -902694.75, 3168.0798, -0.028735345, -0.41971692, -868648.4, 18973.479, 0.0, 10.000444, 9.999978 
2.9552245e+3, 2.1942124e+2, -852808.8, -859728.0, 53491.81, 0.012950592, -0.49116546, -802664.8, -13033.464, 0.0, 9.999947, 9.999842 
2.9551607e+3, 2.2942172e+2, -733101.1, -713740.56, 74202.06, -0.020537512, -0.424068, -648590.0, 43037.05, 0.0, 9.999937, 10.000173 
2.955097e+3, 2.3942234e+2, -656902.75, -657497.3, 79116.9, -0.04957537, -0.35201377, -578082.56, 15539.432, 0.0, 9.999921, 9.999895 
2.9550335e+3, 2.4942191e+2, -568270.44, -557323.9, 64270.92, -0.0172172, -0.36095482, -498293.63, -2666.0928, 0.0, 9.999828, 9.999955 
2.9549697e+3, 2.5942183e+2, -466161.2, -436452.4, 52404.836, 0.0044339863, -0.3514199, -396837.34, 792.45734, 0.0, 9.999767, 10.000142 
2.954905e+3, 2.6942217e+2, -343367.03, -293929.5, 24541.367, 0.00022204134, -0.3261011, -283815.88, 15811.15, 0.0, 9.999789, 10.000437 
2.9548404e+3, 2.7942148e+2, -256856.73, -218620.4, 33989.836, 0.016117748, -0.40045467, -198740.97, 2893.5217, 0.0, 9.999778, 10.000295 
2.9547757e+3, 2.8942254e+2, -122932.81, 53900.426, -6090.998, 0.016742712, -0.34799224, 54109.98, 157732.44, 0.0, 9.999361, 10.001686 
2.9657954e+3, 1.294889e+2, -1610079.0, -1630809.0, -1685.9308, -0.111363426, -0.42941758, -1609942.9, 61025.11, 0.0, 10.000595, 10.000287 
2.9657334e+3, 1.3948897e+2, -1631762.5, -1595600.3, 13965.228, 0.064372905, -0.4244773, -1590835.1, -17869.045, 0.0, 9.999777, 10.00026 
2.9656684e+3, 1.49489e+2, -1520225.0, -1478636.1, 7139.569, -0.03687154, -0.43721786, -1477444.6, -2479.1335, 0.0, 9.99982, 10.000365 
2.965604e+3, 1.5948907e+2, -1418162.1, -1408593.6, 4935.18, -0.10670245, -0.44001895, -1406504.4, -29539.557, 0.0, 9.999973, 10.000101 
2.9655418e+3, 1.6948898e+2, -1262746.6, -1306369.3, 48716.77, -0.057996735, -0.42165354, -1231181.4, 47784.97, 0.0, 10.000471, 9.999889 
2.9654795e+3, 1.7948884e+2, -1126684.6, -1220519.1, 14942.571, -0.009417226, -0.3981162, -1124362.6, 56606.125, 0.0, 10.000861, 9.9996195 
2.965416e+3, 1.8948826e+2, -1119456.1, -1183541.5, 28541.83, -0.026267808, -0.3838144, -1108587.6, -25612.527, 0.0, 10.000317, 9.999459 
2.9653522e+3, 1.9948755e+2, -1091366.6, -1097711.1, 40116.004, -0.04807294, -0.38131958, -1054297.6, -69315.01, 0.0, 9.999742, 9.999654 
2.9652882e+3, 2.0948689e+2, -896943.75, -890676.25, 8735.146, -0.024813473, -0.42799118, -884529.75, 2458.7957, 0.0, 10.000141, 10.000207 
2.9652244e+3, 2.1948646e+2, -726340.25, -774540.06, 46590.55, 0.0042702593, -0.46620318, -697985.5, 91006.64, 0.0, 10.00071, 10.000059 
2.9651606e+3, 2.2948688e+2, -643988.06, -673639.3, 45873.902, -0.023489783, -0.4131023, -610603.56, 80385.14, 0.0, 10.000554, 10.0001545 
2.9650965e+3, 2.3948738e+2, -610261.75, -620327.94, 37843.133, -0.052778892, -0.35701433, -577118.5, 15866.259, 0.0, 10.000169, 10.000038 
2.965033e+3, 2.4948709e+2, -517308.53, -525035.7, 33271.68, -0.0091189835, -0.36313516, -487676.88, 7311.874, 0.0, 10.0001335, 10.000037 
2.96497e+3, 2.5948706e+2, -397305.4, -394584.38, 23249.64, 0.0328787, -0.3559289, -372655.5, 24334.883, 0.0, 10.000195, 10.000229 
2.9649046e+3, 2.694874e+2, -341139.38, -290941.3, -2701.365, -0.0028267438, -0.34337994, -290796.34, 8191.673, 0.0, 9.999799, 10.000454 
2.9648393e+3, 2.7948666e+2, -326325.84, -258074.38, 20086.924, -0.0277599, -0.42025638, -252601.5, -51605.875, 0.0, 9.999338, 10.000241 
2.964775e+3, 2.8948814e+2, -116170.27, 48083.934, -14489.98, 0.012542261, -0.30502728, 49352.4, 152333.08, 0.0, 9.999485, 10.001587 
2.9757968e+3, 1.2955382e+2, -1617298.5, -1598727.3, -46966.78, -0.0026334575, -0.34978497, -1560137.0, 110194.72, 0.0, 10.000396, 10.000601 
2.9757327e+3, 1.3955261e+2, -1647696.1, -1628074.8, -7280.17, 0.037189163, -0.48052457, -1625668.6, -53327.348, 0.0, 9.999779, 10.000035 
2.975668e+3, 1.4955114e+2, -1525029.9, -1531126.4, 5876.1924, -0.053741258, -0.6067991, -1521458.4, -47102.37, 0.0, 10.000006, 9.999915 
2.9756036e+3, 1.5955086e+2, -1382981.9, -1391130.3, 11171.778, -0.118422024, -0.6198501, -1375164.6, 1194.7865, 0.0, 10.0002165, 10.000102 
2.9755414e+3, 1.6955145e+2, -1246220.0, -1296708.1, 67831.125, -0.14647445, -0.535471, -1199087.8, 79267.195, 0.0, 10.00058, 9.999901 
2.975479e+3, 1.7955203e+2, -1108700.6, -1188423.8, 9787.342, -0.1259139, -0.44066367, -1107516.6, 72834.12, 0.0, 10.000885, 9.999826 
2.975416e+3, 1.8955186e+2, -1054595.1, -1059700.4, -1706.5615, -0.032156788, -0.4502905, -1054077.3, 28274.24, 0.0, 10.000364, 10.000285 
2.9753524e+3, 1.9955096e+2, -1076821.1, -1079122.1, 33128.1, 0.025958808, -0.51868856, -1044823.5, -60464.36, 0.0, 9.999793, 9.999757 
2.975288e+3, 2.0955154e+2, -895766.6, -892648.0, 30887.246, -0.041182235, -0.4422073, -863280.75, 23073.473, 0.0, 10.00016, 10.000184 
2.975224e+3, 2.1955271e+2, -725788.8, -763929.4, 56714.813, -0.08773921, -0.32901272, -685023.94, 103319.94, 0.0, 10.000669, 10.000153 
2.9751608e+3, 2.2955213e+2, -662181.2, -708061.56, 33769.133, -0.044966433, -0.3637622, -644297.3, 46052.844, 0.0, 10.000538, 9.9999275 
2.9750973e+3, 2.3955141e+2, -603811.1, -605106.75, 27217.627, -0.0089336075, -0.42050815, -577233.56, 15124.097, 0.0, 10.00016, 10.000146 
2.9750335e+3, 2.4955136e+2, -507385.16, -506631.75, 38165.008, 0.011026513, -0.4194537, -468841.6, 25517.176, 0.0, 10.000143, 10.000157 
2.9749697e+3, 2.5955158e+2, -384958.75, -375156.7, 15920.247, 0.019215064, -0.39687485, -363400.16, 32957.12, 0.0, 10.000221, 10.00035 
2.974904e+3, 2.695521e+2, -327138.8, -266213.13, -20124.52, -0.036539696, -0.38077465, -260165.95, 38186.438, 0.0, 9.999815, 10.000618 
2.974838e+3, 2.7955222e+2, -304979.8, -220724.63, 10154.238, -0.08041082, -0.40226617, -219518.14, -19166.36, 0.0, 9.999384, 10.000473 
2.9747742e+3, 2.8955343e+2, -158723.75, -49516.16, 9474.078, 0.0093790395, -0.29785946, -48700.35, 53639.055, 0.0, 9.999552, 10.000873 
2.985797e+3, 1.2961665e+2, -1585282.0, -1634475.5, -57529.242, -0.05320305, -0.45721883, -1547311.9, 122404.164, 0.0, 10.000813, 10.000176 
2.9857314e+3, 1.3961673e+2, -1729655.0, -1673327.4, -56298.44, -0.013670021, -0.42917278, -1638541.1, -66827.43, 0.0, 9.999248, 9.999981 
2.9856682e+3, 1.496179e+2, -1483393.4, -1502072.5, 53620.336, -0.039388612, -0.2962482, -1438305.4, 35397.402, 0.0, 10.000266, 9.999983 
2.985606e+3, 1.5961799e+2, -1248368.5, -1326676.4, 24402.938, 0.045751438, -0.2708171, -1241386.4, 134316.27, 0.0, 10.001173, 10.000069 
2.9855445e+3, 1.6961816e+2, -1198808.9, -1252313.4, 74779.03, 0.1153841, -0.24030615, -1146140.8, 131561.58, 0.0, 10.000846, 10.000061 
2.985482e+3, 1.7961809e+2, -1091174.6, -1141102.9, 44623.91, 0.09627268, -0.23454684, -1065006.6, 114697.33, 0.0, 10.000869, 10.000144 
2.985417e+3, 1.896168e+2, -965105.25, -1006846.9, -19713.086, 0.019327201, -0.36881313, -957267.25, 124447.24, 0.0, 10.000959, 10.000352 
2.9853523e+3, 1.9961624e+2, -851478.9, -922610.2, 12783.398, -0.016863652, -0.43377882, -849251.25, 134466.8, 0.0, 10.001145, 10.000176 
2.9852882e+3, 2.0961678e+2, -801244.44, -845324.0, 15002.469, -0.048851725, -0.3761296, -796622.94, 89091.46, 0.0, 10.000802, 10.000202 
2.9852235e+3, 2.1961716e+2, -845465.25, -830629.9, 15685.553, -0.111072846, -0.3313087, -820696.5, -32983.824, 0.0, 9.99988, 10.000078 
2.98516e+3, 2.2961666e+2, -750810.9, -724698.44, 22965.256, -0.0842136, -0.37373504, -711337.44, -21619.11, 0.0, 9.99982, 10.000159 
2.985097e+3, 2.3961611e+2, -576752.6, -576287.44, 34810.223, -0.021634793, -0.42895797, -541709.06, 50014.973, 0.0, 10.00028, 10.000285 
2.985033e+3, 2.4961625e+2, -497487.1, -476063.06, 44977.98, 0.003919455, -0.42822373, -440539.1, 53183.19, 0.0, 10.0001, 10.000389 
2.9849693e+3, 2.5961664e+2, -438027.72, -390120.44, 34546.25, 0.009094558, -0.4080466, -372035.75, 23682.73, 0.0, 9.999804, 10.000455 
2.9849035e+3, 2.6961714e+2, -301768.34, -263568.03, -17134.879, -0.03544349, -0.3946824, -257008.48, 40705.504, 0.0, 10.000011, 10.000555 
2.9848373e+3, 2.7961758e+2, -172043.28, -139811.88, -7397.625, -0.08079235, -0.38588184, -138195.1, 61515.035, 0.0, 10.00022, 10.000654 
2.9847738e+3, 2.8961772e+2, -147252.48, -109391.27, 8688.238, 0.029223584, -0.38226014, -107492.734, -5785.2275, 0.0, 9.9998455, 10.000409 
2.9957995e+3, 1.296803e+2, -1433254.1, -1622032.4, 52407.164, 0.15377025, -0.45809552, -1419681.1, 249411.17, 0.0, 10.002156, 9.999594 
2.9957286e+3, 1.3968094e+2, -1649577.9, -1611820.4, -20609.43, -0.2130027, -0.35232693, -1602750.0, -31663.645, 0.0, 9.999702, 10.00018 
2.9956684e+3, 1.4968066e+2, -1603372.9, -1522700.4, 27889.71, 0.0064678807, -0.39503625, -1513997.4, -40907.43, 0.0, 9.999229, 10.000365 
2.995606e+3, 1.5968041e+2, -1514579.9, -1480894.0, -179715.86, -0.014257946, -0.41076076, -1317233.5, 57860.063, 0.0, 9.999389, 9.999905 
2.9955432e+3, 1.6967888e+2, -1407854.9, -1334175.9, -58277.19, -0.05946719, -0.5670607, -1302070.6, -24961.977, 0.0, 9.999251, 10.000304 
2.9954815e+3, 1.7968105e+2, -1381704.3, -1258821.5, -12804.255, -0.009232294, -0.38433754, -1257501.5, -78414.39, 0.0, 9.998697, 10.0004225 
2.9954183e+3, 1.8968002e+2, -1094386.8, -1141802.9, -10741.471, 0.071616426, -0.46217582, -1092067.0, -10972.359, 0.0, 10.000319, 9.999764 
2.9953519e+3, 1.9968e+2, -873976.06, -883349.1, 19851.938, -0.16957077, -0.4808894, -858264.94, 124827.36, 0.0, 10.000728, 10.0006695 
2.9952884e+3, 2.0968042e+2, -1008170.44, -950438.8, -12871.744, -0.08436922, -0.45243594, -947698.94, -62608.613, 0.0, 9.99938, 10.000174 
2.995225e+3, 2.1967997e+2, -940053.0, -907048.94, -37230.313, 0.03089804, -0.46058318, -882827.4, -95730.11, 0.0, 9.999362, 9.999802 
2.9951605e+3, 2.2968124e+2, -744115.6, -646762.0, -8514.862, -0.020950716, -0.36200202, -646022.9, 43062.516, 0.0, 9.999547, 10.000821 
2.9950967e+3, 2.396815e+2, -553424.3, -546066.0, 33480.613, -0.055383943, -0.37447628, -516062.97, 75020.0, 0.0, 10.000361, 10.00045 
2.995033e+3, 2.4968186e+2, -469269.22, -416131.94, 31742.814, -0.028704578, -0.39030457, -401306.16, 91772.48, 0.0, 10.000098, 10.000794 
2.994969e+3, 2.5968236e+2, -437227.56, -388035.78, 34179.234, 0.0030943472, -0.38979045, -370522.56, 24550.283, 0.0, 9.999793, 10.000478 
2.9949036e+3, 2.6968247e+2, -322607.03, -320639.4, 451.83853, -0.008814486, -0.38765344, -320540.63, -23467.822, 0.0, 10.000055, 10.000149 
2.9948378e+3, 2.7968258e+2, -177032.14, -129361.48, -15511.207, -0.052863322, -0.38897395, -124758.8, 74313.625, 0.0, 10.000179, 10.000722 
2.994773e+3, 2.8968215e+2, -148984.83, -61654.797, 21948.182, 0.036972597, -0.48063427, -56449.0, 44623.973, 0.0, 9.999691, 10.000785 
