coord_x,coord_y,stress_xx,stress_yy,tau_xy,velocity_x,velocity_y,stress_1,eps,damage,lx,ly
4.999209e+0, 1.2468924e+2, -1877674.0, -1700394.0, 379.76862, -0.0032654528, 0.61559105, -1700393.3, 17714.332, 0.000055290777, 9.998482, 10.000831 
4.9992657e+0, 1.3469031e+2, -1790368.8, -1656776.6, -161.70006, -0.004505284, 0.6820082, -1656776.4, -36680.504, 0.000019222676, 9.998621, 10.00039 
4.9993783e+0, 1.4468944e+2, -1683290.9, -1578938.6, -900.9643, -0.0016675377, 0.56787306, -1578930.8, -56828.08, 0.000002703532, 9.998789, 10.000169 
4.9995145e+0, 1.5468965e+2, -1555842.9, -1467244.4, -3544.7012, 0.0017695243, 0.57084894, -1467102.8, -43004.426, 0.000000021272871, 9.998994, 10.000164 
4.9995977e+0, 1.6468965e+2, -1458869.1, -1410807.9, -5189.886, 0.001584627, 0.57313144, -1410253.9, -84157.03, 0.0, 9.999164, 9.999798 
4.9996227e+0, 1.7468937e+2, -1340687.5, -1302198.0, -2945.8413, -0.0026465643, 0.56198066, -1301973.9, -73875.234, 0.0, 9.999298, 9.999805 
4.999687e+0, 1.8468894e+2, -1212316.0, -1173171.4, -3158.4849, -0.0030665945, 0.53357965, -1172918.3, -42817.883, 0.0, 9.999436, 9.999951 
4.9997973e+0, 1.9468845e+2, -1092238.3, -1062241.8, -6529.0635, 0.00082385796, 0.48627433, -1060882.3, -28781.459, 0.0, 9.9995775, 9.999972 
4.9998918e+0, 2.0468791e+2, -1002722.2, -1022168.1, -5775.388, 0.0016228502, 0.4587273, -1001136.25, -67032.8, 0.0, 9.999751, 9.999491 
4.99997e+0, 2.1468732e+2, -874037.5, -909235.0, -3020.6365, -0.0010640611, 0.44872072, -873780.2, -37672.03, 0.0, 9.999961, 9.999492 
5.0000477e+0, 2.2468652e+2, -775886.1, -847349.75, -2375.862, -0.0011518311, 0.43718168, -775807.2, -37691.805, 0.0, 10.000118, 9.999168 
5.000125e+0, 2.3468557e+2, -663251.5, -741550.44, 191.08528, 0.0017675543, 0.42248556, -663251.06, -23126.324, 0.0, 10.000216, 9.999175 
5.0001866e+0, 2.4468477e+2, -564372.5, -664542.4, 2182.2542, 0.0029312884, 0.4348677, -564325.0, -22191.691, 0.0, 10.000314, 9.998984 
5.0002277e+0, 2.5468418e+2, -450809.7, -557538.5, 3322.8484, 0.0020323147, 0.4735131, -450706.34, -6565.8984, 0.0, 10.000414, 9.998997 
5.000254e+0, 2.646831e+2, -365351.28, -507434.53, 3454.571, 0.000015915284, 0.4873775, -365267.3, -19115.412, 0.0, 10.000508, 9.998623 
5.0002664e+0, 2.746816e+2, -253899.19, -401922.8, 2890.6924, -0.0031605077, 0.47258392, -253842.77, -5675.446, 0.0, 10.000596, 9.998632 
5.000296e+0, 2.8468016e+2, -141849.44, -287739.6, 11.445707, -0.0029827792, 0.46135792, -141849.44, 8330.686, 0.0000000005106852, 10.000652, 9.998716 
5.0003433e+0, 2.9467875e+2, -42187.004, -190331.1, -2813.621, 0.0008313785, 0.4442351, -42133.586, 10056.436, 0.000003227908, 10.0006695, 9.998704 
5.0003535e+0, 3.046763e+2, -26845.537, -213080.19, -5274.1436, 0.0014586042, 0.3568594, -26696.293, -26696.293, 0.000038102575, 10.000677, 9.998209 
5.000351e+0, 3.146756e+2, 69307.86, -11330.859, -6307.002, 0.0016445518, 0.45939228, 69798.17, 69798.17, 0.00014042419, 10.000669, 9.999599 
1.4997627e+1, 1.24689244e+2, -1880034.3, -1705098.4, 4364.8794, -0.009898861, 0.62065005, -1704989.6, 13117.883, 0.000051840474, 9.998481, 10.000799 
1.4997798e+1, 1.3469023e+2, -1792597.8, -1661285.1, 5081.116, -0.013516105, 0.6827139, -1661088.9, -40992.324, 0.000017729604, 9.998621, 10.00036 
1.4998135e+1, 1.4468934e+2, -1688213.6, -1589057.1, 6644.1924, -0.005000978, 0.5702414, -1588613.9, -66510.1, 0.0000024017909, 9.998789, 10.0001 
1.4998543e+1, 1.5468957e+2, -1560930.0, -1477728.9, 4157.6963, 0.0053089834, 0.58119345, -1477521.6, -53421.94, 0.000000014045858, 9.998993, 10.0000925 
1.4998794e+1, 1.646895e+2, -1454882.4, -1402502.8, -105.28005, 0.0047552786, 0.57944477, -1402502.5, -76404.02, 0.0, 9.999164, 9.999855 
1.4998868e+1, 1.746891e+2, -1336421.1, -1293305.0, 2144.8774, -0.007945265, 0.55151886, -1293198.5, -65097.875, 0.0, 9.999298, 9.9998665 
1.4999062e+1, 1.8468863e+2, -1218209.4, -1185360.0, 2189.2656, -0.0092017725, 0.51820797, -1185214.8, -55112.0, 0.0, 9.999435, 9.999868 
1.4999391e+1, 1.9468814e+2, -1098487.3, -1075197.6, -1147.277, 0.0024660113, 0.4791881, -1075141.3, -43037.44, 0.0, 9.9995775, 9.999884 
1.4999676e+1, 2.0468763e+2, -997937.0, -1012218.06, 2065.3389, 0.004865862, 0.45633608, -997644.3, -63537.84, 0.0, 9.999751, 9.999559 
1.499991e+1, 2.1468714e+2, -868977.2, -898679.5, 4921.163, -0.003194113, 0.44794104, -868183.06, -32072.781, 0.0, 9.999961, 9.999565 
1.5000144e+1, 2.2468641e+2, -770914.9, -836973.94, 1427.6804, -0.0034620902, 0.43759328, -770884.0, -32767.3, 0.0, 10.000118, 9.99924 
1.5000376e+1, 2.3468554e+2, -658324.7, -731287.9, 3882.1467, 0.0052891527, 0.42347947, -658118.7, -17993.451, 0.0, 10.000216, 9.999246 
1.500056e+1, 2.4468479e+2, -562141.9, -659886.4, 5950.678, 0.00879226, 0.4367607, -561780.94, -19647.848, 0.0, 10.000314, 9.999016 
1.5000682e+1, 2.5468424e+2, -448686.44, -553106.06, 7128.5386, 0.0060889823, 0.4769088, -448202.03, -4062.4255, 0.0, 10.000414, 9.999027 
1.5000764e+1, 2.646832e+2, -366214.53, -509198.2, 6755.992, 0.00004716627, 0.49088144, -365896.03, -19745.14, 0.0, 10.000508, 9.998611 
1.50008e+1, 2.7468166e+2, -254932.22, -404042.13, 6244.2437, -0.009485317, 0.47521207, -254671.19, -6504.6196, 0.0, 10.000596, 9.998617 
1.5000889e+1, 2.8468025e+2, -146888.3, -298160.1, 775.74603, -0.008952935, 0.4701438, -146884.33, 3295.2197, 0.00000000036389677, 10.000652, 9.998645 
1.5001029e+1, 2.946789e+2, -47392.875, -201121.2, -2057.6545, 0.0024930395, 0.4674433, -47365.34, 4824.106, 0.0000031171262, 10.0006695, 9.99863 
1.500106e+1, 3.0467635e+2, -28802.02, -217115.88, -5509.065, 0.0043742205, 0.37735835, -28640.99, -28640.99, 0.0000374169, 10.000677, 9.998181 
1.5001053e+1, 3.1467542e+2, 67260.47, -15467.339, -6471.8804, 0.0048919944, 0.4586712, 67763.71, 67763.71, 0.00013856335, 10.000668, 9.999571 
2.4996056e+1, 1.2468899e+2, -1890583.1, -1710640.3, -6335.8203, -0.011671372, 0.62437665, -1710417.4, 7692.6626, 0.000046849033, 9.998411, 10.000795 
2.4996428e+1, 1.3468993e+2, -1772954.3, -1651780.3, -1987.5007, -0.019395076, 0.68162686, -1651747.6, -31648.209, 0.000015561249, 9.998755, 10.0003605 
2.4996966e+1, 1.4468904e+2, -1664114.1, -1579699.4, -1516.6688, -0.0096370345, 0.57086384, -1579672.1, -57565.42, 0.0000019703923, 9.998963, 10.00008 
2.4997498e+1, 1.5468933e+2, -1558084.6, -1478793.4, -269.69724, -0.0002824186, 0.5900802, -1478792.5, -54690.12, 0.000000006345991, 9.999023, 10.000071 
2.49979e+1, 1.6468926e+2, -1455671.3, -1399366.0, -2384.3074, 0.00006515342, 0.5858561, -1399265.3, -73164.07, 0.0, 9.999143, 9.9998865 
2.499817e+1, 1.7468876e+2, -1328946.4, -1285996.0, -2132.4927, -0.009231587, 0.5434963, -1285890.4, -57786.547, 0.0, 9.999333, 9.9999 
2.4998534e+1, 1.8468821e+2, -1209870.0, -1186610.1, -1955.9434, -0.009643067, 0.50564444, -1186446.8, -56340.445, 0.0, 9.999516, 9.999822 
2.4998999e+1, 1.9468774e+2, -1085494.3, -1074491.3, -2304.0854, -0.00020397006, 0.4732923, -1074028.3, -41920.64, 0.0, 9.999691, 9.999834 
2.499944e+1, 2.0468728e+2, -985533.44, -1000111.75, 1027.3877, 0.0030526447, 0.45615566, -985461.4, -51351.36, 0.0, 9.99981, 9.999614 
2.499985e+1, 2.1468689e+2, -878886.2, -897016.1, 2710.012, -0.0006669239, 0.45290238, -878489.75, -42376.77, 0.0, 9.999866, 9.999622 
2.500025e+1, 2.2468628e+2, -781241.6, -831977.44, 505.91528, 0.0011056288, 0.44556633, -781236.6, -43118.19, 0.0, 10.000004, 9.99933 
2.5000644e+1, 2.346855e+2, -648740.2, -716646.94, 4433.948, 0.009288801, 0.43197018, -648451.9, -8326.103, 0.0, 10.000238, 9.999335 
2.5000957e+1, 2.4468479e+2, -547994.5, -651334.1, 4018.3481, 0.012790791, 0.4418646, -547838.5, -5705.2017, 0.0, 10.000403, 9.999031 
2.500118e+1, 2.5468415e+2, -436479.56, -545762.3, 3807.234, 0.010660538, 0.4744779, -436347.1, 7793.134, 0.0, 10.000491, 9.999041 
2.5001332e+1, 2.6468307e+2, -356514.6, -503513.3, 2933.3704, 0.0031915468, 0.48503968, -356456.06, -10304.49, 0.0, 10.00057, 9.99862 
2.5001413e+1, 2.7468157e+2, -248093.81, -399823.3, 4178.281, -0.009918553, 0.47090787, -247978.84, 188.11136, 0.0, 10.000639, 9.998626 
2.5001538e+1, 2.8468022e+2, -148147.48, -307847.03, -3029.5024, -0.010879704, 0.4732887, -148090.05, 2089.91, 0.00000000025082827, 10.000682, 9.998564 
2.50017e+1, 2.9467893e+2, -49443.91, -211540.39, -6649.6025, 0.0010284095, 0.4848452, -49171.586, 3018.7007, 0.000002969252, 10.000696, 9.998546 
2.5001723e+1, 3.0467632e+2, -19404.38, -211634.84, -8638.185, -0.00018966541, 0.39418012, -19016.992, -19016.992, 0.00003639656, 10.000737, 9.99819 
2.5001734e+1, 3.1467527e+2, 88116.164, -4454.787, -6658.0093, -0.00059018936, 0.45963067, 88592.58, 88592.58, 0.0001357669, 10.000807, 9.99958 
3.4994498e+1, 1.2468848e+2, -1889222.0, -1707426.6, 5235.6836, -0.008726068, 0.6267748, -1707276.0, 10839.414, 0.000040315306, 9.998409, 10.000818 
3.4995157e+1, 1.3468939e+2, -1770833.9, -1647307.5, 11028.223, -0.022194605, 0.67876613, -1646330.8, -26226.105, 0.000012732851, 9.998755, 10.000391 
3.499587e+1, 1.4468855e+2, -1662028.8, -1575397.4, 977.61255, -0.015672136, 0.56982136, -1575386.4, -53275.004, 0.0000014374052, 9.998964, 10.00011 
3.4996372e+1, 1.5468895e+2, -1556065.4, -1474576.8, 1979.3988, -0.015124019, 0.5975535, -1474528.8, -50422.457, 0.0000000013691683, 9.999023, 10.0001 
3.4996918e+1, 1.6468889e+2, -1455246.5, -1398463.9, 4646.1123, -0.012602813, 0.59238315, -1398086.3, -71981.26, 0.0, 9.999143, 9.999892 
3.4997532e+1, 1.7468826e+2, -1328533.5, -1285156.3, 5109.4595, -0.006550205, 0.53792787, -1284562.5, -56454.367, 0.0, 9.999333, 9.999906 
3.49981e+1, 1.8468769e+2, -1210573.8, -1188059.1, 4665.085, -0.0044474034, 0.49590164, -1187130.8, -57019.793, 0.0, 9.999516, 9.999812 
3.499862e+1, 1.9468726e+2, -1086199.9, -1075938.1, 4347.6387, -0.007239043, 0.46858397, -1074343.9, -42231.598, 0.0, 9.999691, 9.999825 
3.499918e+1, 2.046869e+2, -982641.56, -994092.1, 3290.2773, -0.0038967677, 0.45819536, -981763.44, -47649.277, 0.0, 9.99981, 9.999656 
3.4999788e+1, 2.1468663e+2, -875904.6, -890801.8, 4823.1074, 0.006436621, 0.4636071, -874479.44, -38363.22, 0.0, 9.999866, 9.999665 
3.5000366e+1, 2.2468615e+2, -773754.4, -816382.4, 9121.95, 0.012461681, 0.46109807, -771884.4, -33763.92, 0.0, 10.000004, 9.999436 
3.5000926e+1, 2.3468547e+2, -641115.6, -700783.6, 13276.912, 0.013727871, 0.44793367, -638294.7, 1831.7421, 0.0, 10.000237, 9.999444 
3.5001382e+1, 2.4468473e+2, -548092.8, -651495.4, 7486.832, 0.014869556, 0.4502025, -547553.56, -5419.681, 0.0, 10.000403, 9.99903 
3.5001725e+1, 2.5468394e+2, -436806.47, -546389.4, 7134.9995, 0.015712256, 0.46623722, -436343.84, 7798.451, 0.0, 10.000491, 9.999037 
3.5001963e+1, 2.646828e+2, -354408.47, -499114.8, 5507.2583, 0.009380114, 0.46986985, -354199.2, -8045.1563, 0.0, 10.00057, 9.998651 
3.5002106e+1, 2.746814e+2, -245909.52, -395274.34, 6780.99, -0.004530525, 0.45966262, -245602.3, 2566.1616, 0.0, 10.000639, 9.998657 
3.500224e+1, 2.8468007e+2, -154496.39, -321039.13, -2488.985, -0.008853476, 0.47078434, -154459.2, -4277.8438, 0.00000000021451357, 10.000682, 9.998473 
3.5002345e+1, 2.946788e+2, -56049.24, -225276.7, -6103.763, -0.0036147442, 0.49641767, -55829.37, -3636.8232, 0.0000027944461, 10.000696, 9.998451 
3.500234e+1, 3.0467623e+2, -16279.632, -205116.84, -6037.565, -0.012264951, 0.4073752, -16086.794, -16086.794, 0.000035014476, 10.000738, 9.998235 
3.5002398e+1, 3.146751e+2, 91344.11, 2254.1606, -3916.3442, -0.015084279, 0.46226436, 91515.94, 91515.94, 0.00013190451, 10.000808, 9.999626 
4.499317e+1, 1.246879e+2, -1820045.4, -1678298.8, 8356.997, -0.0067210468, 0.6239144, -1677807.8, 40313.008, 0.000032724987, 9.998902, 10.00078 
4.4993916e+1, 1.3468875e+2, -1762944.6, -1646832.1, 10534.052, -0.02528823, 0.6719022, -1645884.3, -25773.68, 0.0000095173555, 9.998824, 10.000361 
4.499475e+1, 1.4468789e+2, -1674817.9, -1582026.1, -3141.357, -0.019708738, 0.56466883, -1581919.9, -59802.43, 0.00000089505704, 9.9988785, 10.000106 
4.4995347e+1, 1.5468837e+2, -1546615.3, -1470371.1, -4520.748, -0.023370493, 0.5990744, -1470104.0, -45991.844, 0.00000000008098328, 9.999089, 10.000097 
4.499603e+1, 1.6468833e+2, -1435466.9, -1385583.1, -1159.7784, -0.021722479, 0.5965557, -1385556.1, -59445.586, 0.0, 9.999264, 9.999923 
4.4996837e+1, 1.7468773e+2, -1316609.5, -1275909.3, 1260.0079, -0.012550082, 0.5401467, -1275870.4, -47756.99, 0.0, 9.9994, 9.999937 
4.49976e+1, 1.8468717e+2, -1211608.0, -1188152.5, 891.6753, -0.0056713605, 0.49723482, -1188118.6, -58002.64, 0.0, 9.999507, 9.999816 
4.4998306e+1, 1.9468676e+2, -1101996.9, -1083189.9, 1537.5173, -0.0019688234, 0.47042018, -1083065.0, -50947.668, 0.0, 9.99958, 9.999827 
4.4999015e+1, 2.0468639e+2, -993922.1, -994501.25, 1187.3773, 0.0037317188, 0.45912614, -992989.5, -58870.273, 0.0, 9.999711, 9.999701 
4.4999725e+1, 2.1468614e+2, -866772.3, -881194.0, 2970.6343, 0.011814205, 0.46187124, -866184.4, -30063.543, 0.0, 9.999906, 9.999712 
4.500043e+1, 2.2468573e+2, -757460.44, -800721.75, 8621.129, 0.014619125, 0.4604669, -755805.75, -17681.361, 0.0, 10.000082, 9.999506 
4.5001143e+1, 2.3468518e+2, -636026.94, -690417.3, 9959.511, 0.011552047, 0.45276108, -634260.56, 5868.56, 0.0, 10.000238, 9.999516 
4.500174e+1, 2.4468446e+2, -552856.2, -653869.6, -904.6221, 0.01182428, 0.45423347, -552848.06, -10711.644, 0.0, 10.000371, 9.99903 
4.5002204e+1, 2.5468358e+2, -439343.38, -547971.94, -1297.168, 0.0156581, 0.4623529, -439327.88, 4817.9805, 0.0, 10.000476, 9.999034 
4.5002553e+1, 2.6468247e+2, -350041.9, -485609.56, -1742.8693, 0.011821744, 0.46221966, -350019.5, -3862.1516, 0.0, 10.000551, 9.998753 
4.5002764e+1, 2.7468115e+2, -245088.8, -383062.5, 5066.2915, -0.00015411645, 0.45291382, -244903.02, 3267.1047, 0.0, 10.000594, 9.998763 
4.5002946e+1, 2.846799e+2, -159980.9, -330081.84, 296.25845, -0.0061130677, 0.46973214, -159980.39, -9797.937, 0.00000000034042036, 10.000672, 9.998416 
4.500306e+1, 2.9467872e+2, -46841.617, -227770.48, -859.0452, -0.00677289, 0.5062251, -46837.54, 5356.7974, 0.0000026033522, 10.000789, 9.998389 
4.500306e+1, 3.0467612e+2, 7409.819, -184985.2, 1031.0552, -0.02016094, 0.4152648, 7415.344, 7415.344, 0.00003329706, 10.000863, 9.998313 
4.5003185e+1, 3.146749e+2, 108101.45, 18955.67, 5557.39, -0.020926364, 0.45629406, 108446.57, 108446.57, 0.00012697614, 10.000885, 9.999703 
5.499208e+1, 1.2468726e+2, -1827189.9, -1693072.4, 4516.0977, -0.006528072, 0.6160967, -1692920.5, 25205.623, 0.000024933155, 9.998902, 10.000679 
5.49927e+1, 1.3468799e+2, -1769461.9, -1660195.5, 7466.3384, -0.028901845, 0.6611319, -1659687.8, -39570.434, 0.000006388969, 9.998823, 10.00027 
5.4993606e+1, 1.4468709e+2, -1677554.0, -1587564.8, 4409.4805, -0.021881243, 0.5554082, -1587349.3, -65224.164, 0.00000045379167, 9.998878, 10.000068 
5.4994416e+1, 1.5468758e+2, -1549076.8, -1475507.4, 3433.5876, -0.025151756, 0.59468144, -1475347.4, -51227.383, 0.0, 9.999089, 10.000062 
5.499523e+1, 1.646876e+2, -1431625.4, -1377661.5, 4004.2207, -0.027434578, 0.5984075, -1377366.0, -51248.01, 0.0, 9.999264, 9.999977 
5.499609e+1, 1.7468715e+2, -1312605.8, -1267603.6, 6396.7827, -0.027412253, 0.5501795, -1266712.0, -38592.695, 0.0, 9.9994, 9.999994 
5.4997027e+1, 1.8468665e+2, -1210368.4, -1185596.5, 3764.983, -0.013528053, 0.50968266, -1185036.9, -54915.53, 0.0, 9.999507, 9.999833 
5.4998064e+1, 1.9468619e+2, -1100814.3, -1080769.0, 4351.9336, 0.015506223, 0.4788511, -1079865.0, -47741.855, 0.0, 9.99958, 9.999845 
5.4998946e+1, 2.0468578e+2, -990494.2, -987374.5, 8398.241, 0.025861144, 0.45896196, -980392.44, -46267.3, 0.0, 9.999711, 9.99975 
5.499966e+1, 2.1468544e+2, -863265.1, -873875.4, 10355.485, 0.015312816, 0.44767323, -856934.94, -20807.957, 0.0, 9.999906, 9.999763 
5.500044e+1, 2.2468504e+2, -755189.4, -795964.4, 14559.237, 0.00740056, 0.4436377, -750524.5, -12394.369, 0.0, 10.000082, 9.999539 
5.5001295e+1, 2.3468465e+2, -633772.56, -685703.75, 15869.659, 0.0026745116, 0.44645777, -629306.94, 10827.013, 0.0, 10.000238, 9.999548 
5.500203e+1, 2.44684e+2, -552906.2, -653940.94, 3083.3765, 0.0034988027, 0.45392242, -552812.2, -10671.194, 0.0, 10.000371, 9.999029 
5.500263e+1, 2.5468314e+2, -439504.38, -548296.4, 2639.2163, 0.010359822, 0.4628202, -439440.4, 4710.4985, 0.0, 10.000476, 9.999031 
5.500309e+1, 2.6468208e+2, -337842.06, -460290.56, -100.10735, 0.010406191, 0.46206716, -337841.97, 8319.542, 0.0, 10.000551, 9.998926 
5.500339e+1, 2.7468094e+2, -232474.84, -356879.6, 6643.9194, 0.0031373512, 0.45067024, -232121.03, 16050.893, 0.0, 10.000594, 9.998943 
5.500365e+1, 2.846798e+2, -161618.36, -333478.38, 4612.4727, -0.002743045, 0.470095, -161494.66, -11311.422, 0.0000000006700443, 10.000672, 9.998393 
5.500383e+1, 2.9467866e+2, -48911.027, -232023.58, 3527.8142, -0.008508718, 0.51425326, -48843.09, 3352.569, 0.0000023959767, 10.000789, 9.998361 
5.500388e+1, 3.0467606e+2, 15239.8545, -168713.28, 2044.7296, -0.023994152, 0.41775838, 15262.58, 15262.58, 0.000031288328, 10.000863, 9.9984255 
5.5004096e+1, 3.1467476e+2, 115790.5, 34820.13, 6476.081, -0.018587653, 0.4415743, 116305.195, 116305.195, 0.0001210288, 10.000886, 9.999812 
6.499095e+1, 1.2468658e+2, -1816087.1, -1696718.8, -3103.378, -0.014998992, 0.61205506, -1696638.1, 21493.926, 0.00001782932, 9.999017, 10.000599 
6.4991564e+1, 1.346872e+2, -1738058.3, -1652703.1, 2398.7808, -0.03768274, 0.6533066, -1652635.8, -32511.268, 0.0000037958928, 9.999072, 10.000202 
6.499257e+1, 1.4468627e+2, -1639449.6, -1570534.4, 7435.3193, -0.027113704, 0.5474587, -1569741.3, -47608.477, 0.0000001737419, 9.999145, 10.000056 
6.499355e+1, 1.5468675e+2, -1526703.6, -1465829.6, 8576.746, -0.02943732, 0.58879435, -1464644.3, -40516.582, 0.0, 9.999248, 10.000052 
6.4994484e+1, 1.6468683e+2, -1421160.9, -1372292.6, 6257.102, -0.03225808, 0.5971705, -1371504.3, -45378.773, 0.0, 9.999334, 9.99998 
6.499542e+1, 1.7468645e+2, -1311539.5, -1266720.1, 4531.1567, -0.034438197, 0.5569825, -1266266.6, -38140.293, 0.0, 9.999406, 9.999997 
6.499651e+1, 1.8468596e+2, -1210210.4, -1189946.9, -1425.4666, -0.016966017, 0.5193514, -1189847.1, -59718.58, 0.0, 9.999527, 9.999793 
6.4997774e+1, 1.9468544e+2, -1085329.4, -1077883.3, -5182.1353, 0.022189947, 0.48545083, -1075225.5, -43094.44, 0.0, 9.999707, 9.999803 
6.499884e+1, 2.0468496e+2, -961678.3, -962848.56, -398.7717, 0.03603355, 0.45684934, -961555.3, -27422.057, 0.0, 9.999863, 9.999845 
6.499968e+1, 2.1468458e+2, -843616.6, -853225.9, 5348.537, 0.021477934, 0.43050212, -841231.56, -5096.8887, 0.0, 9.999992, 9.999862 
6.500056e+1, 2.2468424e+2, -751079.4, -788541.4, 10019.82, 0.010659071, 0.4246585, -748567.8, -10430.721, 0.0, 10.000087, 9.999588 
6.5001494e+1, 2.34684e+2, -644622.9, -685649.6, 12368.928, 0.004257759, 0.4408235, -641182.4, -1042.619, 0.0, 10.000141, 9.999595 
6.500231e+1, 2.4468349e+2, -568462.1, -653999.25, 3092.7173, 0.0022543864, 0.45554394, -568350.44, -26204.594, 0.0, 10.000232, 9.999096 
6.500299e+1, 2.5468272e+2, -451107.4, -546431.7, 7848.017, 0.0049620746, 0.46463886, -450465.6, -6310.383, 0.0, 10.000363, 9.999098 
6.500355e+1, 2.6468173e+2, -344055.4, -452701.25, 2530.5317, 0.005628482, 0.46363795, -343996.5, 2168.5325, 0.0, 10.000463, 9.999022 
6.500397e+1, 2.7468067e+2, -235766.27, -347795.28, 2813.554, 0.004350501, 0.45169234, -235695.66, 12478.636, 0.0, 10.000525, 9.999039 
6.5004313e+1, 2.846796e+2, -173230.69, -341588.2, -476.16534, -0.00023534326, 0.472804, -173229.34, -23044.121, 0.0000000009839726, 10.000604, 9.99837 
6.500456e+1, 2.9467848e+2, -63920.242, -242127.03, -1333.2775, -0.010214341, 0.5210872, -63910.27, -11712.148, 0.0000021664155, 10.000698, 9.998335 
6.5004677e+1, 3.0467585e+2, 12532.692, -165495.75, -5678.759, -0.029182566, 0.42444524, 12713.649, 12713.649, 0.000029021434, 10.000825, 9.998466 
6.5005004e+1, 3.1467462e+2, 132758.64, 46640.473, -6907.0674, -0.02127795, 0.4472989, 133309.1, 133309.1, 0.00011410821, 10.000987, 9.999845 
7.49898e+1, 1.24685846e+2, -1820282.3, -1705161.8, -1986.459, -0.03253597, 0.6115454, -1705127.5, 13011.131, 0.000012032456, 9.999016, 10.000542 
7.4990493e+1, 1.3468638e+2, -1741220.5, -1659181.8, 4308.5176, -0.051963855, 0.6483263, -1658956.1, -38824.016, 0.000001957589, 9.999071, 10.000157 
7.4991626e+1, 1.446854e+2, -1638562.4, -1568625.5, 11136.894, -0.03571816, 0.5407851, -1566894.9, -44754.176, 0.00000004027787, 9.999145, 10.00007 
7.499272e+1, 1.546859e+2, -1525730.6, -1463683.6, 12395.601, -0.036447857, 0.5814052, -1461298.9, -37163.746, 0.0, 9.999248, 10.000067 
7.4993783e+1, 1.6468601e+2, -1424671.9, -1379468.9, 8930.235, -0.03633566, 0.59285355, -1377768.6, -51635.688, 0.0, 9.999334, 9.999931 
7.499483e+1, 1.7468564e+2, -1315120.6, -1274128.5, 7224.9688, -0.033771556, 0.56052816, -1272892.4, -44758.06, 0.0, 9.999406, 9.999947 
7.499605e+1, 1.8468511e+2, -1217074.1, -1204166.5, 5222.7993, -0.016127212, 0.5262139, -1202318.0, -72180.664, 0.0, 9.999527, 9.999696 
7.4997437e+1, 1.9468448e+2, -1092268.9, -1092273.4, 1628.4003, 0.01800057, 0.4902097, -1090642.8, -58501.71, 0.0, 9.999707, 9.999704 
7.499868e+1, 2.0468391e+2, -951768.1, -942281.75, 4552.665, 0.034164168, 0.45281184, -940450.4, -6306.8335, 0.0, 9.999863, 9.999986 
7.4999756e+1, 2.1468353e+2, -833118.25, -831407.4, 10250.873, 0.030214822, 0.41036308, -821976.3, 14167.67, 0.0, 9.999992, 10.000012 
7.5000787e+1, 2.2468328e+2, -746582.7, -779167.06, 12185.584, 0.024249101, 0.40355158, -742529.75, -4384.5845, 0.0, 10.000087, 9.999652 
7.5001764e+1, 2.3468329e+2, -640292.3, -676641.25, 14430.939, 0.016188707, 0.4358589, -635259.8, 4886.597, 0.0, 10.000141, 9.999657 
7.50026e+1, 2.4468295e+2, -559100.44, -634548.3, 7921.8926, 0.008004785, 0.45909256, -558277.6, -16126.629, 0.0, 10.000232, 9.999229 
7.50033e+1, 2.546823e+2, -441594.56, -526660.1, 12794.817, -0.00061074656, 0.46781024, -439711.75, 4447.0884, 0.0, 10.000363, 9.999234 
7.500393e+1, 2.646814e+2, -342962.94, -450437.7, 4925.885, -0.0026095763, 0.4669595, -342737.66, 3430.224, 0.0, 10.000463, 9.999037 
7.5004476e+1, 2.7468035e+2, -234964.22, -346124.4, 5140.8115, 0.0034135114, 0.45593086, -234726.98, 13450.236, 0.0, 10.000525, 9.99905 
7.500493e+1, 2.8467926e+2, -174802.31, -344848.97, 3044.4995, 0.0012993012, 0.47781968, -174747.83, -24559.434, 0.0000000010869243, 10.000604, 9.998348 
7.5005233e+1, 2.9467812e+2, -65480.21, -245389.55, 2198.0054, -0.011993701, 0.526654, -65453.363, -13251.636, 0.0000019142904, 10.000698, 9.998312 
7.500543e+1, 3.0467555e+2, 10354.272, -170033.27, 389.28555, -0.035855852, 0.43527603, 10355.112, 10355.112, 0.000026528098, 10.000825, 9.998434 
7.500591e+1, 3.1467444e+2, 129719.58, 40338.285, -792.4674, -0.029311432, 0.47334227, 129726.6, 129726.6, 0.000106300286, 10.000986, 9.999802 
8.498876e+1, 1.246849e+2, -1808025.5, -1705035.1, -6669.082, -0.042670127, 0.599428, -1704605.1, 13541.71, 0.000007783007, 9.9991255, 10.000489 
8.498957e+1, 1.3468543e+2, -1720514.0, -1653087.3, 909.06946, -0.058777466, 0.63877094, -1653075.0, -32934.26, 0.0000008582932, 9.99923, 10.000122 
8.4990823e+1, 1.4468446e+2, -1613581.4, -1552881.8, 8487.186, -0.03833072, 0.53322333, -1551717.4, -29568.164, 0.00000000288778, 9.9993, 10.000102 
8.4991974e+1, 1.5468498e+2, -1510031.3, -1452226.0, 11200.3545, -0.04015187, 0.57255083, -1450131.8, -25988.732, 0.0, 9.999339, 10.000102 
8.499315e+1, 1.6468506e+2, -1420633.3, -1393295.3, 6683.1885, -0.037876513, 0.58694404, -1391748.9, -65607.74, 0.0, 9.999431, 9.999789 
8.4994376e+1, 1.7468463e+2, -1299477.6, -1283025.4, -2353.6858, -0.029230155, 0.56241447, -1282695.3, -54550.902, 0.0, 9.999584, 9.9998 
8.4995687e+1, 1.8468407e+2, -1190092.1, -1189695.8, -3360.9297, -0.013234243, 0.53092045, -1186527.1, -56378.973, 0.0, 9.999706, 9.999708 
8.499712e+1, 1.9468342e+2, -1078413.1, -1083465.6, 1920.527, 0.010406758, 0.4919943, -1077766.0, -45614.277, 0.0, 9.999793, 9.999723 
8.499844e+1, 2.0468287e+2, -950520.2, -934027.94, 4232.707, 0.025186684, 0.45166013, -933005.06, 1148.6659, 0.0, 9.999839, 10.000054 
8.4999675e+1, 2.1468252e+2, -850675.94, -831972.06, 3856.8096, 0.030084927, 0.40635705, -831208.0, 4945.47, 0.0, 9.999838, 10.000083 
8.500083e+1, 2.2468235e+2, -769531.44, -782297.44, 3895.95, 0.030256383, 0.39883983, -768436.44, -30282.457, 0.0, 9.999895, 9.999723 
8.500193e+1, 2.3468244e+2, -653204.6, -674939.25, 6841.5083, 0.025280084, 0.43288675, -651230.4, -11075.964, 0.0, 10.000018, 9.999728 
8.500285e+1, 2.446822e+2, -564327.94, -624460.75, 1337.7603, 0.014454577, 0.45559096, -564298.25, -22140.174, 0.0, 10.000141, 9.999342 
8.5003585e+1, 2.5468162e+2, -448174.8, -517019.8, 4625.9863, -0.0033108408, 0.461141, -447865.34, -3700.7393, 0.0, 10.000263, 9.999349 
8.500429e+1, 2.6468074e+2, -358606.06, -464202.25, -8005.7983, -0.009032266, 0.46091452, -358002.53, -11829.117, 0.0, 10.000382, 9.9989805 
8.500495e+1, 2.7467972e+2, -243181.72, -356943.1, -13349.127, -0.00048133425, 0.45470908, -241636.28, 6547.4395, 0.0, 10.000499, 9.998988 
8.500551e+1, 2.846786e+2, -171374.08, -336145.22, -15228.738, -0.000559744, 0.47818106, -169978.4, -19783.37, 0.0000000009777485, 10.000597, 9.998411 
8.5005915e+1, 2.9467753e+2, -64379.14, -237172.14, -9334.578, -0.012674839, 0.5249294, -63876.332, -11668.778, 0.0000016479609, 10.000673, 9.998381 
8.500623e+1, 3.04675e+2, 2517.5857, -178485.53, -5060.271, -0.03693604, 0.43752187, 2658.9443, 2658.9443, 0.000023861305, 10.000792, 9.998392 
8.50069e+1, 3.1467402e+2, 121220.086, 29693.521, -7337.5806, -0.027699511, 0.49121875, 121804.6, 121804.6, 0.00009776159, 10.000957, 9.9997425 
9.498785e+1, 1.24683745e+2, -1811308.4, -1711774.1, -3451.923, -0.04616701, 0.5755736, -1711654.5, 6502.194, 0.0000050394015, 9.999125, 10.000443 
9.4988805e+1, 1.3468434e+2, -1722392.8, -1656893.3, 4705.7905, -0.058400728, 0.6245392, -1656557.0, -36406.406, 0.00000033786506, 9.999229, 10.000096 
9.499015e+1, 1.4468345e+2, -1610043.5, -1545373.0, 9903.779, -0.035207793, 0.52474934, -1543890.3, -21732.031, 0.0, 9.9993, 10.000154 
9.499131e+1, 1.54684e+2, -1506347.5, -1444423.6, 12603.309, -0.040896963, 0.56205744, -1441956.8, -17805.686, 0.0, 9.999338, 10.000155 
9.4992584e+1, 1.6468403e+2, -1437268.9, -1427689.6, 12373.876, -0.037194796, 0.57926565, -1419210.8, -93060.53, 0.0, 9.99943, 9.999554 
9.4994044e+1, 1.7468342e+2, -1316739.4, -1318797.9, 3473.698, -0.020963002, 0.56264114, -1314145.6, -85989.06, 0.0, 9.999584, 9.999554 
9.4995445e+1, 1.8468282e+2, -1181463.8, -1171762.5, -15.524899, -0.008438245, 0.5334891, -1171762.5, -41601.387, 0.0, 9.999706, 9.999832 
9.49968e+1, 1.9468227e+2, -1068861.3, -1063629.9, 5221.7437, -0.00071324484, 0.4907954, -1060405.3, -28242.502, 0.0, 9.999793, 9.999859 
9.4998115e+1, 2.0468183e+2, -950863.5, -934729.4, 4318.544, 0.008980135, 0.4533798, -933646.2, 517.5288, 0.0, 9.999839, 10.00005 
9.4999415e+1, 2.1468157e+2, -851304.0, -833268.25, 3852.4192, 0.020949155, 0.41852656, -832479.8, 3683.2625, 0.0, 9.999838, 10.000073 
9.500071e+1, 2.246814e+2, -764109.5, -771045.9, 8401.302, 0.028558036, 0.41055962, -758488.7, -20325.336, 0.0, 9.999895, 9.999801 
9.5002013e+1, 2.3468146e+2, -647594.06, -663279.7, 11495.942, 0.031479053, 0.431884, -641520.44, -1356.6583, 0.0, 10.000018, 9.999808 
9.500307e+1, 2.446812e+2, -557832.94, -610972.2, 5919.5967, 0.021532517, 0.4450231, -557181.5, -15014.546, 0.0, 10.000141, 9.999435 
9.5003855e+1, 2.5468066e+2, -441619.78, -503401.88, 9196.035, -0.0032371045, 0.44465396, -440280.03, 3892.4695, 0.0, 10.000263, 9.999442 
9.5004624e+1, 2.6467982e+2, -367510.13, -482678.13, -3647.598, -0.013740775, 0.44550258, -367394.72, -21213.053, 0.0, 10.000382, 9.998854 
9.500538e+1, 2.746787e+2, -252596.17, -376483.7, -8994.69, -0.007438854, 0.44801444, -251946.53, -3752.715, 0.0, 10.000499, 9.998855 
9.500606e+1, 2.8467765e+2, -160976.75, -314559.63, -12317.554, -0.005973629, 0.4738497, -159995.14, -9789.979, 0.00000000065795036, 10.000597, 9.998559 
9.500659e+1, 2.9467666e+2, -53283.777, -214076.39, -6546.2603, -0.0123355305, 0.5158818, -53017.703, -802.096, 0.000001379458, 10.000672, 9.99854 
9.500706e+1, 3.0467424e+2, -1219.5167, -186232.27, 1135.7319, -0.032491047, 0.43113875, -1212.545, -1212.545, 0.000021105876, 10.000792, 9.99834 
9.500797e+1, 3.146733e+2, 116066.14, 18863.8, -1132.4729, -0.016851056, 0.5007926, 116079.33, 116079.33, 0.000088718174, 10.0009575, 9.999668 
1.0498706e+2, 1.2468263e+2, -1793555.9, -1713522.8, -2245.9133, -0.04696355, 0.5577416, -1713459.8, 4706.4155, 0.0000035788082, 9.999291, 10.000351 
1.04988076e+2, 1.346832e+2, -1706416.5, -1657500.3, 2686.395, -0.061979707, 0.6128125, -1657353.3, -37192.5, 0.000000177014, 9.999375, 10.000022 
1.04989514e+2, 1.446823e+2, -1586848.0, -1539095.3, 2187.7454, -0.03795393, 0.5170313, -1538995.3, -16826.408, 0.0, 9.99948, 10.00011 
1.0499076e+2, 1.5468279e+2, -1469229.8, -1431384.0, -2603.8308, -0.04332819, 0.551744, -1431205.8, -7043.5005, 0.0, 9.999614, 10.000112 
1.0499213e+2, 1.6468276e+2, -1402139.8, -1420701.3, -432.68213, -0.040044237, 0.5701423, -1402129.8, -75967.664, 0.0, 9.999714, 9.999464 
1.04993686e+2, 1.7468213e+2, -1294773.5, -1318241.6, 2380.2039, -0.025078777, 0.55910903, -1294534.5, -66365.19, 0.0, 9.999779, 9.999464 
1.0499516e+2, 1.846815e+2, -1161940.1, -1158086.4, -218.13705, -0.013551777, 0.5334567, -1158074.0, -27899.965, 0.0, 9.999822, 9.999869 
1.0499656e+2, 1.9468102e+2, -1058618.6, -1053947.8, -2168.6504, -0.006444904, 0.49169227, -1053096.1, -20921.035, 0.0, 9.999843, 9.999902 
1.04997925e+2, 2.0468064e+2, -948706.0, -935977.1, -8945.914, 0.0043447297, 0.4589412, -931362.7, 2812.7942, 0.0, 9.999863, 10.00003 
1.0499926e+2, 2.1468043e+2, -846330.0, -833348.0, -10485.446, 0.019318238, 0.43312636, -827507.0, 8667.617, 0.0, 9.999883, 10.0000515 
1.0500062e+2, 2.2468027e+2, -756805.5, -760378.9, -4158.7334, 0.029320123, 0.42111596, -754065.9, -15890.867, 0.0, 9.999914, 9.999865 
1.0500202e+2, 2.3468019e+2, -651374.2, -657609.8, -1951.9858, 0.03390117, 0.42354733, -650813.5, -10637.562, 0.0, 9.99996, 9.999875 
1.05003186e+2, 2.4467991e+2, -569152.25, -606727.7, -7606.9043, 0.025472546, 0.42844853, -567670.7, -25492.113, 0.0, 10.000022, 9.999522 
1.0500409e+2, 2.546795e+2, -459065.63, -502031.94, -4791.418, 0.0020153394, 0.43217462, -458537.78, -14355.239, 0.0, 10.000101, 9.99953 
1.0500495e+2, 2.6467872e+2, -398627.63, -503670.63, -14737.373, -0.009481355, 0.43672755, -396599.16, -50407.758, 0.0, 10.000195, 9.9988 
1.0500579e+2, 2.7467757e+2, -285197.22, -398711.28, -14406.102, -0.0067476346, 0.4424402, -283397.47, -35192.656, 0.0, 10.000302, 9.998796 
1.0500657e+2, 2.8467658e+2, -179998.84, -313826.53, -17192.666, -0.0058276565, 0.471364, -177825.42, -27609.398, 0.00000000025503108, 10.000423, 9.998648 
1.0500723e+2, 2.946757e+2, -63631.91, -208574.84, -16388.895, -0.009386355, 0.51632214, -61801.9, -9577.172, 0.000001118805, 10.000556, 9.998633 
1.0500786e+2, 3.046733e+2, -12079.991, -193237.88, -6825.4287, -0.028843433, 0.42977953, -11823.195, -11823.195, 0.000018367069, 10.000724, 9.998323 
1.05008975e+2, 3.1467235e+2, 109584.984, 11747.56, -6181.8643, -0.010647878, 0.49785304, 109974.04, 109974.04, 0.00007944771, 10.00093, 9.999633 
1.1498637e+2, 1.2468154e+2, -1803470.1, -1734038.5, 421.22742, -0.045513224, 0.54589885, -1734035.9, -15860.6875, 0.000003050449, 9.999291, 10.00021 
1.1498737e+2, 1.3468203e+2, -1715170.4, -1675484.3, 5809.422, -0.069946535, 0.60348284, -1674651.4, -54480.125, 0.00000018630364, 9.999374, 9.999899 
1.1498891e+2, 1.4468102e+2, -1597001.6, -1559922.4, 7156.5093, -0.047055513, 0.5099163, -1558589.0, -36408.16, 0.0000000000835116, 9.999479, 9.999968 
1.14990324e+2, 1.5468132e+2, -1479383.5, -1452344.8, 2423.532, -0.04772929, 0.5416507, -1452129.3, -27953.002, 0.0, 9.999614, 9.999969 
1.1499178e+2, 1.6468123e+2, -1398127.4, -1412306.5, 2058.8623, -0.04660036, 0.5596317, -1397834.5, -71657.91, 0.0, 9.999714, 9.999522 
1.149933e+2, 1.7468071e+2, -1290251.5, -1308752.5, 4842.583, -0.04177056, 0.5517607, -1289060.6, -60878.074, 0.0, 9.999778, 9.999529 
1.14994824e+2, 1.8468015e+2, -1165429.1, -1165232.6, 643.1146, -0.028743422, 0.53077054, -1164680.4, -34493.395, 0.0, 9.999822, 9.999821 
1.1499639e+2, 1.9467966e+2, -1062327.1, -1061621.4, -1343.7781, -0.0068669263, 0.49466428, -1060584.9, -28396.426, 0.0, 9.999843, 9.999849 
1.1499786e+2, 2.046793e+2, -951311.9, -941350.0, -8197.541, 0.011217798, 0.468365, -936738.8, -2549.6802, 0.0, 9.999863, 9.999992 
1.149992e+2, 2.1467914e+2, -848846.1, -838568.4, -9728.103, 0.02514171, 0.45014182, -832705.25, 3482.8665, 0.0, 9.999883, 10.000016 
1.15000576e+2, 2.2467889e+2, -753207.06, -752920.2, -2474.748, 0.032474127, 0.43047008, -750584.75, -12395.84, 0.0, 9.999914, 9.999916 
1.1500197e+2, 2.3467863e+2, -647582.8, -649718.75, -236.69727, 0.03247442, 0.40790096, -647556.94, -7365.995, 0.0, 9.99996, 9.999929 
1.1500322e+2, 2.4467836e+2, -563457.56, -594890.5, -4663.975, 0.02617317, 0.40591612, -562780.1, -20587.059, 0.0, 10.000022, 9.999603 
1.1500429e+2, 2.5467816e+2, -453344.78, -490148.22, -1810.5347, 0.012374852, 0.42368308, -453255.9, -9061.235, 0.0, 10.000101, 9.999611 
1.1500528e+2, 2.646775e+2, -397273.28, -500848.97, -10711.16, 0.003702499, 0.43454167, -396177.22, -49974.58, 0.0, 10.000195, 9.99882 
1.1500617e+2, 2.7467635e+2, -284008.97, -396236.84, -10340.961, 0.0015339716, 0.43795073, -283064.06, -34847.324, 0.0, 10.000302, 9.998814 
1.1500704e+2, 2.8467542e+2, -178008.69, -309677.22, -12208.443, -0.00020915386, 0.47067362, -176886.28, -26658.643, 0.000000000026412617, 10.000423, 9.998676 
1.1500784e+2, 2.946747e+2, -61602.73, -204333.36, -11419.094, -0.003951824, 0.526122, -60694.926, -8459.994, 0.0000008745259, 10.000556, 9.998663 
1.15008615e+2, 3.046722e+2, -10646.227, -190256.52, 891.5107, -0.026147218, 0.43333545, -10641.802, -10641.802, 0.000015743772, 10.000724, 9.998344 
1.1500992e+2, 3.146711e+2, 109721.73, 11981.087, 1414.8247, -0.009456644, 0.4822083, 109742.2, 109742.2, 0.000070235736, 10.00093, 9.999634 
1.24985725e+2, 1.24680236e+2, -1804059.0, -1741372.4, -15533.665, -0.039851297, 0.5396129, -1737734.3, -19547.152, 0.0000030832873, 9.999317, 10.000147 
1.24986835e+2, 1.3468067e+2, -1694095.9, -1669992.3, -3612.9868, -0.0691074, 0.59694946, -1669462.3, -49278.582, 0.0000002714346, 9.999539, 9.999858 
1.2498847e+2, 1.446796e+2, -1575329.0, -1560054.4, 225.61554, -0.04861321, 0.50570595, -1560051.0, -37857.063, 0.0000000011616538, 9.999674, 9.999873 
1.2498995e+2, 1.5467982e+2, -1472023.5, -1459505.4, -996.10236, -0.051679432, 0.5368429, -1459426.6, -35236.035, 0.0, 9.99971, 9.999872 
1.2499146e+2, 1.646797e+2, -1392629.9, -1407438.5, -2352.419, -0.0504948, 0.5552045, -1392265.3, -66073.81, 0.0, 9.999742, 9.999542 
1.24993056e+2, 1.7467922e+2, -1290004.6, -1306032.9, -2863.9934, -0.04279793, 0.5493389, -1289508.3, -61311.5, 0.0, 9.999768, 9.999553 
1.2499464e+2, 1.8467863e+2, -1170747.9, -1177038.5, -9578.725, -0.02955314, 0.5296184, -1163811.3, -33609.945, 0.0, 9.999825, 9.999738 
1.2499624e+2, 1.9467807e+2, -1057648.1, -1068975.3, -14120.686, -0.01051166, 0.4936609, -1048097.6, -15893.352, 0.0, 9.999916, 9.999763 
1.24997735e+2, 2.0467769e+2, -933459.06, -929813.75, -21353.191, 0.007260225, 0.4696482, -910205.6, 23999.639, 0.0, 9.999973, 10.000018 
1.2499912e+2, 2.1467763e+2, -831103.8, -826682.5, -17957.545, 0.023763059, 0.456138, -810800.06, 25403.3, 0.0, 9.9999895, 10.000046 
1.250005e+2, 2.2467738e+2, -738418.7, -743605.75, -8820.844, 0.03097546, 0.43423787, -731818.0, 6385.875, 0.0, 10.000007, 9.999935 
1.2500192e+2, 2.3467702e+2, -637167.8, -642547.25, -9167.317, 0.027680902, 0.4014548, -630303.75, 9902.694, 0.0, 10.000022, 9.9999485 
1.2500322e+2, 2.4467675e+2, -556801.5, -582267.44, -14640.532, 0.02283662, 0.3955418, -550131.5, -7923.299, 0.0, 10.000027, 9.999687 
1.2500438e+2, 2.546767e+2, -459387.16, -483460.28, -11466.935, 0.015832247, 0.41679806, -454799.34, -10590.917, 0.0, 10.000018, 9.999697 
1.2500548e+2, 2.6467612e+2, -413457.25, -506132.63, -17112.889, 0.011284422, 0.43155718, -410398.25, -64182.746, 0.0, 10.0000725, 9.998842 
1.2500651e+2, 2.7467504e+2, -298195.78, -400812.1, -16434.797, 0.010263161, 0.43934873, -295627.88, -47398.555, 0.0, 10.0001955, 9.998834 
1.2500753e+2, 2.846741e+2, -195301.95, -322403.34, -19999.885, 0.010075462, 0.4744813, -192229.17, -41988.813, 0.0, 10.000323, 9.998637 
1.2500846e+2, 2.9467335e+2, -79113.74, -217294.17, -24522.445, 0.008128196, 0.52986753, -74890.87, -22642.533, 0.0000006546641, 10.000456, 9.998622 
1.2500937e+2, 3.0467087e+2, -23488.742, -192640.64, -11866.727, -0.017689988, 0.43646523, -22660.297, -22660.297, 0.0000132978475, 10.00062, 9.998378 
1.2501082e+2, 3.1466982e+2, 94250.61, 6225.4253, -10351.59, -0.006722819, 0.49027148, 95451.555, 95451.555, 0.000061306615, 10.000816, 9.999649 
1.3498513e+2, 1.246787e+2, -1803111.8, -1739179.5, -7574.549, -0.030386174, 0.5388329, -1738294.4, -20092.318, 0.0000033913916, 9.999316, 10.000163 
1.3498646e+2, 1.3467915e+2, -1691374.8, -1664217.5, 4810.4326, -0.059753887, 0.5932814, -1663390.6, -43192.59, 0.00000039333747, 9.999538, 9.999897 
1.3498819e+2, 1.4467812e+2, -1578645.1, -1566850.5, 1865.7981, -0.042884883, 0.5044431, -1566562.4, -44354.39, 0.0000000035362315, 9.999673, 9.999826 
1.3498962e+2, 1.5467829e+2, -1475519.0, -1466588.1, 435.91394, -0.055453602, 0.53731036, -1466566.9, -42361.58, 0.0, 9.999709, 9.999825 
1.349912e+2, 1.6467814e+2, -1394160.8, -1410440.3, -1284.5148, -0.051960856, 0.5568632, -1394060.0, -67853.58, 0.0, 9.999742, 9.999521 
1.3499297e+2, 1.7467764e+2, -1291491.3, -1309023.3, -1809.4452, -0.028313752, 0.55184877, -1291306.4, -63094.855, 0.0, 9.999768, 9.999532 
1.349946e+2, 1.8467699e+2, -1178970.3, -1194081.6, -6194.281, -0.016074851, 0.53000665, -1176755.6, -46538.453, 0.0, 9.999825, 9.999621 
1.3499607e+2, 1.9467624e+2, -1066068.5, -1086461.0, -10635.029, -0.017447667, 0.48869124, -1061531.6, -29309.115, 0.0, 9.999916, 9.999643 
1.3499756e+2, 2.0467582e+2, -927204.3, -916838.25, -20628.09, -0.007633504, 0.46277273, -900752.0, 33471.883, 0.0, 9.999973, 10.000108 
1.3499902e+2, 2.1467587e+2, -824401.1, -812753.94, -17299.49, 0.015075684, 0.45111668, -800324.1, 35896.2, 0.0, 9.9999895, 10.000141 
1.3500045e+2, 2.246757e+2, -739272.9, -745355.5, -8233.071, 0.024696356, 0.4324174, -733537.3, 4682.671, 0.0, 10.000006, 9.999924 
1.3500185e+2, 2.3467536e+2, -638260.75, -644806.7, -8572.767, 0.019452134, 0.40419874, -632357.4, 7865.1655, 0.0, 10.000022, 9.999933 
1.3500316e+2, 2.4467514e+2, -550709.75, -569625.44, -14957.755, 0.015431206, 0.39734402, -542470.56, -246.47385, 0.0, 10.000027, 9.999774 
1.3500437e+2, 2.546751e+2, -453061.06, -470350.78, -11800.211, 0.012336312, 0.41150633, -447077.9, -2854.0967, 0.0, 10.000018, 9.999787 
1.3500558e+2, 2.646746e+2, -411658.3, -502407.75, -12630.7295, 0.0131412065, 0.4277072, -409933.13, -63703.1, 0.0, 10.0000725, 9.998868 
1.3500679e+2, 2.7467364e+2, -296572.3, -397426.9, -11797.571, 0.019335289, 0.44656786, -295210.66, -46968.086, 0.0, 10.0001955, 9.998857 
1.3500799e+2, 2.846727e+2, -202839.48, -338060.06, -15040.346, 0.024875652, 0.48272067, -201186.77, -50932.54, 0.0, 10.000323, 9.998529 
1.3500911e+2, 2.9467168e+2, -86911.12, -233493.52, -19554.16, 0.026737439, 0.5275549, -84347.42, -32082.467, 0.0000004660869, 10.000456, 9.99851 
1.3501014e+2, 3.0466926e+2, -20199.643, -185838.86, -4497.124, -0.0036352365, 0.4391286, -20077.635, -20077.635, 0.000011042731, 10.00062, 9.998425 
1.3501167e+2, 3.1466854e+2, 96294.34, 10369.511, -3164.913, -0.0029628542, 0.52162075, 96410.76, 96410.76, 0.000052781335, 10.000817, 9.999678 
1.449846e+2, 1.24677025e+2, -1767695.0, -1725454.1, -3394.2295, -0.02787095, 0.5265007, -1725183.1, -6965.464, 0.000003766588, 9.999574, 10.000133 
1.4498611e+2, 1.3467745e+2, -1670539.5, -1654915.5, 5818.9946, -0.056659166, 0.57964534, -1652986.5, -32773.016, 0.00000052701, 9.999685, 9.999891 
1.4498793e+2, 1.4467642e+2, -1570448.0, -1572016.5, -4751.009, -0.041021354, 0.4956843, -1566416.9, -44193.4, 0.000000006774009, 9.999769, 9.999744 
1.4498937e+2, 1.5467656e+2, -1465705.6, -1471249.3, -9059.171, -0.057680707, 0.5333176, -1459003.8, -34781.906, 0.0, 9.999817, 9.999741 
1.4499098e+2, 1.6467638e+2, -1378213.5, -1407694.0, -12935.845, -0.053404387, 0.5558505, -1373342.3, -47118.75, 0.0, 9.999872, 9.999477 
1.4499287e+2, 1.7467585e+2, -1270416.5, -1303718.8, -15237.283, -0.023534216, 0.5520947, -1264497.0, -36268.02, 0.0, 9.999933, 9.999489 
1.4499456e+2, 1.8467516e+2, -1162407.4, -1188301.8, -17646.127, -0.009481713, 0.53028446, -1153468.1, -23233.121, 0.0, 9.999948, 9.999601 
1.4499603e+2, 1.9467437e+2, -1068736.4, -1089900.0, -14521.637, -0.014048429, 0.4877065, -1061350.1, -29109.432, 0.0, 9.9999075, 9.999624 
1.4499748e+2, 2.0467396e+2, -934023.4, -916737.44, -22333.305, -0.008563959, 0.46101743, -901433.0, 32809.14, 0.0, 9.999911, 10.000138 
1.4499894e+2, 2.1467404e+2, -825281.0, -809567.94, -23777.254, 0.008510337, 0.4489591, -792382.8, 43855.37, 0.0, 9.999968, 10.000174 
1.4500037e+2, 2.246739e+2, -743328.3, -746345.3, -18413.664, 0.01707672, 0.43138292, -726361.44, 11876.116, 0.0, 9.999974, 9.999932 
1.4500178e+2, 2.3467362e+2, -652179.94, -650680.7, -17062.383, 0.016007667, 0.40620938, -634351.5, 5888.3955, 0.0, 9.999923, 9.999941 
1.4500313e+2, 2.4467342e+2, -561946.06, -571613.9, -22582.027, 0.014745105, 0.40007305, -543686.3, -1445.1892, 0.0, 9.999935, 9.9998045 
1.4500439e+2, 2.5467336e+2, -451006.5, -465849.13, -23784.133, 0.012769031, 0.41214412, -433512.75, 10727.925, 0.0, 10.000017, 9.999819 
1.4500569e+2, 2.6467285e+2, -406143.53, -498415.5, -24842.975, 0.015632529, 0.42588335, -399880.06, -53633.367, 0.0, 10.000105, 9.998879 
1.4500704e+2, 2.746719e+2, -295905.3, -395828.0, -24899.135, 0.024974918, 0.44187787, -290044.6, -41785.508, 0.0, 10.000195, 9.998868 
1.4500839e+2, 2.8467092e+2, -206781.88, -344941.44, -24881.75, 0.033320542, 0.47787386, -202437.42, -52166.457, 0.0, 10.000319, 9.998485 
1.450097e+2, 2.9466993e+2, -86984.71, -238624.02, -24438.076, 0.037531465, 0.5255453, -83143.586, -30861.252, 0.00000031171322, 10.000477, 9.998466 
1.4501081e+2, 3.0466747e+2, -18188.414, -180258.45, -6810.138, 0.0043221614, 0.43951386, -17902.758, -17902.758, 0.000008961074, 10.000614, 9.998466 
1.4501247e+2, 3.1466693e+2, 83215.73, 6002.774, -6494.6084, -0.0003559561, 0.52990514, 83758.195, 83758.195, 0.000044704477, 10.000719, 9.999695 
1.5498413e+2, 1.24675214e+2, -1773039.4, -1736358.5, 749.37585, -0.032824576, 0.502613, -1736343.1, -18109.19, 0.000004107076, 9.999573, 10.000058 
1.5498577e+2, 1.3467559e+2, -1674374.9, -1662709.0, 10154.976, -0.06013396, 0.5560685, -1656831.0, -36600.875, 0.00000065226897, 9.999684, 9.999838 
1.549877e+2, 1.4467454e+2, -1578821.0, -1589186.9, -2714.4897, -0.04332619, 0.4794623, -1578153.3, -55912.664, 0.000000011338887, 9.999768, 9.999627 
1.5498917e+2, 1.5467465e+2, -1474209.5, -1488753.1, -7164.75, -0.058606748, 0.52489984, -1471272.9, -47032.746, 0.0, 9.999817, 9.99962 
1.5499085e+2, 1.6467442e+2, -1383025.1, -1417643.3, -10583.025, -0.05503768, 0.5522058, -1380046.3, -53803.387, 0.0, 9.999871, 9.99941 
1.5499276e+2, 1.7467384e+2, -1275081.6, -1313406.8, -12853.619, -0.02860924, 0.5501033, -1271170.0, -42921.105, 0.0, 9.999933, 9.999423 
1.549945e+2, 1.8467318e+2, -1157021.1, -1177093.9, -19038.168, -0.009907236, 0.5304898, -1145535.9, -15281.276, 0.0, 9.999948, 9.999679 
1.5499608e+2, 1.946725e+2, -1063025.3, -1078021.5, -16028.72, -0.0003862844, 0.4907279, -1052827.6, -20568.592, 0.0, 9.9999075, 9.999705 
1.5499753e+2, 2.0467211e+2, -936019.4, -920883.06, -20345.31, 0.00443062, 0.46437907, -906743.9, 27516.262, 0.0, 9.999911, 10.00011 
1.5499885e+2, 2.1467213e+2, -827479.6, -814121.44, -21628.49, 0.0039752773, 0.44966087, -798164.2, 38092.785, 0.0, 9.999968, 10.000142 
1.5500025e+2, 2.2467199e+2, -741318.94, -742171.4, -20238.809, 0.008020985, 0.4311778, -721501.9, 16754.693, 0.0, 9.999974, 9.999961 
1.5500173e+2, 2.3467176e+2, -650051.2, -646260.0, -18993.85, 0.017279724, 0.4074883, -629067.4, 11190.959, 0.0, 9.999923, 9.99997 
1.5500313e+2, 2.4467157e+2, -563749.56, -575334.6, -19657.064, 0.020665392, 0.4036695, -549049.3, -6789.9204, 0.0, 9.999935, 9.99978 
1.5500446e+2, 2.546715e+2, -452935.4, -469824.53, -20675.62, 0.017028423, 0.41867998, -439046.34, 5212.6865, 0.0, 10.000017, 9.999791 
1.5500583e+2, 2.6467094e+2, -406319.56, -498786.9, -21463.047, 0.018674353, 0.42610243, -401580.56, -55315.01, 0.0, 10.000105, 9.998878 
1.5500726e+2, 2.746698e+2, -295981.4, -396024.72, -21517.285, 0.027125036, 0.42535803, -291549.78, -43270.875, 0.0, 10.000195, 9.998866 
1.5500873e+2, 2.8466883e+2, -205509.69, -342362.16, -18984.957, 0.035386976, 0.46001187, -202924.8, -52634.203, 0.0, 10.000319, 9.998503 
1.550102e+2, 2.94668e+2, -85594.03, -235769.73, -18418.506, 0.040486563, 0.52380586, -83368.06, -31067.56, 0.000000191647, 10.000477, 9.998485 
1.5501146e+2, 3.046656e+2, -15704.473, -175122.1, -2765.38, 0.0060401238, 0.43763942, -15656.517, -15656.517, 0.000007033754, 10.000614, 9.998501 
1.550132e+2, 3.1466496e+2, 83703.08, 6950.691, -2889.281, 0.00063401146, 0.5150618, 83811.69, 83811.69, 0.00003709365, 10.000719, 9.9997015 
1.6498375e+2, 1.2467343e+2, -1762967.3, -1733785.9, -9769.545, -0.032384194, 0.500032, -1730817.1, -12566.18, 0.000004370903, 9.999652, 10.000038 
1.6498545e+2, 1.346737e+2, -1668068.3, -1659405.4, 3967.0396, -0.061939742, 0.5423823, -1657863.3, -37615.773, 0.00000075351153, 9.999726, 9.99984 
1.6498744e+2, 1.446726e+2, -1583737.4, -1605743.4, -8552.883, -0.044950865, 0.4666967, -1580804.1, -58545.7, 0.000000017178404, 9.999795, 9.9995 
1.6498902e+2, 1.5467264e+2, -1478645.1, -1505582.4, -13987.3, -0.055584796, 0.51788276, -1472696.0, -48436.49, 0.0, 9.999849, 9.999489 
1.6499075e+2, 1.6467237e+2, -1380270.3, -1415445.3, -15400.174, -0.050867546, 0.5487851, -1374480.8, -48217.793, 0.0, 9.9998865, 9.999418 
1.6499268e+2, 1.7467183e+2, -1278350.5, -1313551.0, -11721.937, -0.027512202, 0.5481961, -1274804.4, -46535.78, 0.0, 9.999905, 9.999435 
1.6499443e+2, 1.846712e+2, -1156477.1, -1174319.6, -17955.33, -0.011097737, 0.53020227, -1145348.9, -15075.042, 0.0, 9.99994, 9.9997015 
1.64996e+2, 1.9467056e+2, -1048409.56, -1068393.1, -19384.785, -0.0029060054, 0.49194345, -1036593.0, -4315.2036, 0.0, 9.999996, 9.999729 
1.6499749e+2, 2.0467019e+2, -918663.5, -916405.06, -24591.453, 0.0011330228, 0.4668902, -892916.94, 41362.082, 0.0, 10.000048, 10.000074 
1.6499886e+2, 2.1467018e+2, -811788.7, -810631.1, -26189.992, 0.00054161303, 0.45323184, -785013.5, 51262.97, 0.0, 10.000093, 10.000106 
1.6500027e+2, 2.2467004e+2, -720477.4, -727692.56, -28123.79, 0.006150821, 0.43567216, -695730.75, 42545.297, 0.0, 10.000098, 10.0 
1.6500172e+2, 2.3466985e+2, -627619.94, -630707.5, -26094.049, 0.018776149, 0.4128654, -603024.06, 37253.11, 0.0, 10.000056, 10.000013 
1.6500317e+2, 2.4466968e+2, -548452.4, -572165.6, -22619.082, 0.023606028, 0.40948036, -534770.75, 7507.2915, 0.0, 10.000058, 9.999742 
1.6500454e+2, 2.546696e+2, -442551.03, -469243.97, -24442.316, 0.019212453, 0.42416143, -428048.72, 16229.435, 0.0, 10.000108, 9.999751 
1.6500598e+2, 2.646689e+2, -392517.22, -489126.13, -23412.91, 0.019224763, 0.4240333, -387142.22, -40857.063, 0.0, 10.000187, 9.998904 
1.6500749e+2, 2.7466765e+2, -279242.94, -384632.84, -21109.457, 0.025165642, 0.4076591, -275171.97, -26873.02, 0.0, 10.000296, 9.998896 
1.650091e+2, 2.8466666e+2, -195500.94, -343059.13, -18318.059, 0.034317892, 0.44080842, -193260.9, -42950.176, 0.0, 10.000411, 9.998453 
1.6501072e+2, 2.9466593e+2, -81445.22, -239462.08, -22990.4, 0.043952037, 0.5189394, -78168.23, -25847.898, 0.000000103903474, 10.00053, 9.998434 
1.6501214e+2, 3.046635e+2, -14118.747, -171565.52, -13002.988, 0.012541506, 0.43358722, -13052.102, -13052.102, 0.0000052712203, 10.000612, 9.998526 
1.6501398e+2, 3.1466278e+2, 73037.93, 1462.0087, -14233.345, 0.01160545, 0.5021169, 75764.46, 75764.46, 0.00002996744, 10.000647, 9.999698 
1.7498346e+2, 1.2467168e+2, -1760785.1, -1728992.0, -7076.7437, -0.026896983, 0.5192003, -1727488.0, -9219.37, 0.000004515703, 9.999651, 10.000072 
1.7498517e+2, 1.3467178e+2, -1664128.0, -1651003.6, 6926.809, -0.062298477, 0.5387816, -1648024.1, -27758.516, 0.0000008179498, 9.999725, 9.999898 
1.7498723e+2, 1.4467059e+2, -1593323.5, -1625513.9, -6371.1885, -0.046096835, 0.45751843, -1592108.4, -69831.09, 0.000000022541565, 9.999794, 9.999366 
1.7498896e+2, 1.5467052e+2, -1488684.6, -1526346.3, -11885.801, -0.04869307, 0.51235026, -1485247.3, -60967.04, 0.0, 9.999848, 9.999347 
1.7499074e+2, 1.6467026e+2, -1374340.0, -1403088.6, -14647.795, -0.0409435, 0.5456415, -1368191.8, -41907.88, 0.0, 9.9998865, 9.999503 
1.7499267e+2, 1.7466982e+2, -1271858.4, -1300077.6, -10983.128, -0.020346446, 0.5464193, -1268087.6, -39799.668, 0.0, 9.999905, 9.999528 
1.7499435e+2, 1.8466923e+2, -1158652.3, -1178859.1, -15893.915, -0.013219454, 0.5294005, -1149922.4, -19629.691, 0.0, 9.99994, 9.99967 
1.7499581e+2, 1.9466855e+2, -1050855.0, -1073493.6, -17260.818, -0.021731274, 0.4913721, -1041533.0, -9235.939, 0.0, 9.999996, 9.999694 
1.7499733e+2, 2.0466816e+2, -921541.56, -922363.2, -22860.01, -0.018567061, 0.468563, -899088.7, 35210.09, 0.0, 10.000047, 10.000034 
1.7499894e+2, 2.1466817e+2, -814698.44, -816660.2, -24462.352, -0.0018662591, 0.45968795, -791197.3, 45099.402, 0.0, 10.000093, 10.000065 
1.7500043e+2, 2.2466806e+2, -716925.5, -720323.44, -29589.715, 0.011332743, 0.44483814, -688986.0, 49310.063, 0.0, 10.000098, 10.000051 
1.750018e+2, 2.3466793e+2, -623801.44, -622803.3, -27672.186, 0.02043821, 0.42232206, -595625.7, 44670.566, 0.0, 10.000056, 10.000068 
1.7500322e+2, 2.4466774e+2, -551951.5, -579449.7, -20897.021, 0.023493098, 0.41751343, -540686.2, 1610.9011, 0.0, 10.000058, 9.999692 
1.7500463e+2, 2.5466758e+2, -446233.25, -476911.78, -22557.922, 0.019235564, 0.42861253, -434293.34, 10004.747, 0.0, 10.000108, 9.999699 
1.7500615e+2, 2.646668e+2, -388533.4, -480893.22, -19406.445, 0.017239848, 0.41969007, -384621.44, -38315.89, 0.0, 10.000187, 9.9989605 
1.7500772e+2, 2.7466547e+2, -274965.63, -375789.6, -16996.373, 0.018985765, 0.38875866, -272177.56, -23858.268, 0.0, 10.000296, 9.998957 
1.7500946e+2, 2.8466442e+2, -203636.13, -359994.2, -13834.959, 0.029876702, 0.4202409, -202421.4, -52090.02, 0.0, 10.000411, 9.998337 
1.7501129e+2, 2.946637e+2, -89920.445, -257101.0, -18419.709, 0.047803007, 0.511008, -87915.05, -35573.215, 0.00000004563321, 10.00053, 9.998313 
1.7501286e+2, 3.0466124e+2, -13034.874, -169345.7, -11604.088, 0.02370801, 0.42740735, -12178.114, -12178.114, 0.0000037135492, 10.000612, 9.998541 
1.7501484e+2, 3.146605e+2, 72199.76, -325.41028, -13356.945, 0.03195685, 0.49095365, 74581.484, 74581.484, 0.000023373406, 10.000647, 9.999685 
1.849831e+2, 1.2466969e+2, -1736751.8, -1716201.8, -17993.395, -0.03558378, 0.53121483, -1705756.3, 12532.22, 0.000004500078, 9.99981, 10.000082 
1.8498495e+2, 1.3466972e+2, -1645599.9, -1638388.9, -5789.6846, -0.062362213, 0.5399978, -1635173.8, -14887.936, 0.0000008390777, 9.999836, 9.999931 
1.849871e+2, 1.4466853e+2, -1586681.1, -1625596.4, -17054.004, -0.042205613, 0.4583892, -1580265.3, -57967.957, 0.000000025661054, 9.999854, 9.999336 
1.8498886e+2, 1.5466842e+2, -1490015.4, -1530478.3, -14320.943, -0.042247824, 0.51429605, -1485459.8, -61159.14, 0.0, 9.999854, 9.999316 
1.849907e+2, 1.6466816e+2, -1374579.5, -1400995.4, -15003.376, -0.032832637, 0.54587346, -1367798.8, -41494.316, 0.0, 9.999875, 9.999523 
1.8499264e+2, 1.7466769e+2, -1268748.5, -1296129.3, -16706.049, -0.011776306, 0.54214525, -1260839.8, -32531.398, 0.0, 9.999915, 9.99955 
1.8499434e+2, 1.8466708e+2, -1154717.6, -1176405.9, -21977.477, -0.01011091, 0.52281207, -1141054.5, -10741.481, 0.0, 9.999965, 9.999676 
1.8499573e+2, 1.9466642e+2, -1046207.7, -1070676.6, -20295.12, -0.030792486, 0.4849242, -1034744.56, -2427.1787, 0.0, 10.000026, 9.9997 
1.8499726e+2, 2.0466603e+2, -922666.06, -925585.4, -25209.516, -0.030247642, 0.4630019, -898874.0, 35445.297, 0.0, 10.000051, 10.0000105 
1.8499896e+2, 2.1466601e+2, -824619.5, -824304.1, -25682.025, -0.005341869, 0.456185, -798779.3, 37538.37, 0.0, 10.000037, 10.000039 
1.8500052e+2, 2.2466594e+2, -719035.8, -720351.56, -31096.393, 0.011531685, 0.44407824, -688590.3, 49726.64, 0.0, 10.000079, 10.000059 
1.8500191e+2, 2.3466583e+2, -604250.94, -612217.0, -32441.62, 0.019200096, 0.42494845, -575548.75, 64767.813, 0.0, 10.000186, 10.000078 
1.8500334e+2, 2.4466565e+2, -528217.06, -568948.1, -26834.326, 0.0229344, 0.41849297, -514895.25, 27422.135, 0.0, 10.000225, 9.999683 
1.850048e+2, 2.546654e+2, -435498.9, -472681.56, -25181.934, 0.021678349, 0.42223477, -422789.0, 21530.027, 0.0, 10.000186, 9.99969 
1.8500637e+2, 2.6466462e+2, -382902.03, -474487.7, -17638.844, 0.018846896, 0.41064855, -379622.34, -33295.95, 0.0, 10.00021, 9.998994 
1.8500797e+2, 2.7466333e+2, -271586.72, -370331.2, -17093.916, 0.015524949, 0.3823892, -268711.28, -20371.994, 0.0, 10.000302, 9.998991 
1.850098e+2, 2.8466234e+2, -208625.38, -367775.16, -12136.199, 0.025398359, 0.4167057, -207705.23, -57353.973, 0.0, 10.0004, 9.998289 
1.850118e+2, 2.9466155e+2, -97803.29, -266437.9, -11307.085, 0.04674833, 0.51051253, -97048.516, -44686.176, 0.000000013949684, 10.0005, 9.998263 
1.850135e+2, 3.046591e+2, -14342.914, -167040.22, -3383.8535, 0.028485877, 0.42474216, -14267.963, -14267.963, 0.0000024106344, 10.000591, 9.998568 
1.8501565e+2, 3.146583e+2, 74709.33, 350.79272, -5041.9883, 0.04773696, 0.48522168, 75049.65, 75049.65, 0.000017412012, 10.000667, 9.9996805 
1.9498268e+2, 1.24667466e+2, -1737941.0, -1718280.1, -16877.328, -0.058948096, 0.5360797, -1708579.0, 9731.833, 0.000004294411, 9.999809, 10.000069 
1.949848e+2, 1.3466752e+2, -1645141.6, -1637267.0, -4691.897, -0.062278464, 0.5461623, -1635079.3, -14771.145, 0.0000008137795, 9.999836, 9.999939 
1.9498703e+2, 1.4466642e+2, -1581302.8, -1614348.3, -16940.957, -0.033379965, 0.46944764, -1574161.3, -51842.7, 0.000000025948266, 9.999853, 9.9994135 
1.9498879e+2, 1.5466638e+2, -1484410.3, -1518764.5, -14256.607, -0.03643332, 0.52377576, -1479264.6, -54943.98, 0.0, 9.999854, 9.999396 
1.9499065e+2, 1.6466604e+2, -1377755.8, -1407522.6, -13495.052, -0.026703173, 0.5495122, -1372548.6, -46224.063, 0.0, 9.999874, 9.999478 
1.9499266e+2, 1.7466544e+2, -1272190.6, -1303230.6, -15164.233, -0.0018610236, 0.5354018, -1266012.1, -37682.242, 0.0, 9.999915, 9.999502 
1.9499439e+2, 1.8466477e+2, -1151825.4, -1170356.8, -19730.605, -0.0018196645, 0.51046973, -1139293.1, -8958.119, 0.0, 9.999965, 9.999718 
1.9499576e+2, 1.9466415e+2, -1042993.56, -1063997.8, -18007.813, -0.030128533, 0.47255084, -1032649.25, -310.43445, 0.0, 10.000026, 9.999745 
1.9499727e+2, 2.0466378e+2, -923182.3, -926679.8, -25636.547, -0.033988643, 0.4501949, -899234.94, 35105.613, 0.0, 10.000051, 10.000003 
1.9499895e+2, 2.1466376e+2, -825314.44, -825743.06, -26187.154, -0.009984693, 0.44272676, -799340.75, 36998.61, 0.0, 10.000037, 10.00003 
1.9500054e+2, 2.2466367e+2, -721382.9, -725196.6, -27244.967, 0.0066505, 0.43337438, -695978.1, 42360.64, 0.0, 10.000079, 10.000027 
1.9500206e+2, 2.346636e+2, -606618.6, -617142.5, -28417.656, 0.015013601, 0.4206959, -582979.8, 57358.355, 0.0, 10.000186, 10.000044 
1.9500357e+2, 2.4466339e+2, -525875.1, -564102.0, -28156.416, 0.021868061, 0.41241312, -510957.56, 31381.432, 0.0, 10.000225, 9.999717 
1.9500504e+2, 2.5466308e+2, -432945.3, -467420.66, -26683.416, 0.026414748, 0.4050438, -418416.0, 25924.928, 0.0, 10.000186, 9.999726 
1.9500662e+2, 2.6466236e+2, -382199.22, -473060.2, -14324.5, 0.023899762, 0.39687467, -379994.4, -33646.723, 0.0, 10.00021, 9.999003 
1.950083e+2, 2.7466127e+2, -270989.56, -369136.56, -13599.601, 0.014765992, 0.38846153, -269140.0, -20781.012, 0.0, 10.000302, 9.999 
1.9501016e+2, 2.8466034e+2, -207245.8, -364891.38, -8378.164, 0.02086029, 0.4301724, -206801.78, -56431.45, 0.0, 10.0004, 9.998308 
1.9501224e+2, 2.9465955e+2, -96313.53, -263307.6, -7479.546, 0.040736612, 0.5175128, -95979.195, -43597.33, 0.0000000023315327, 10.0005, 9.998284 
1.9501409e+2, 3.0465704e+2, -11824.157, -161758.34, -520.12494, 0.026797533, 0.42562282, -11822.353, -11822.353, 0.0000014034579, 10.000591, 9.998604 
1.9501643e+2, 3.1465632e+2, 74736.6, 446.55203, -2670.8477, 0.058686208, 0.48466846, 74832.5, 74832.5, 0.000012235335, 10.000667, 9.999681 
2.0498241e+2, 1.2466513e+2, -1742637.9, -1726046.1, -11718.759, -0.06587066, 0.5249336, -1719984.0, -1650.8136, 0.000003892583, 9.999801, 10.000019 
2.0498462e+2, 1.3466524e+2, -1650365.0, -1643268.4, -2583.1624, -0.061612707, 0.5445724, -1642427.8, -22097.143, 0.00000074131736, 9.999815, 9.999908 
2.0498693e+2, 1.4466423e+2, -1574438.6, -1604507.9, -15991.492, -0.03066151, 0.47575474, -1567524.0, -45183.938, 0.000000023374444, 9.999872, 9.999473 
2.0498873e+2, 1.5466422e+2, -1462968.4, -1501472.3, -14718.592, -0.032060973, 0.52525705, -1457986.5, -33644.984, 0.0, 9.999971, 9.999459 
2.049906e+2, 1.6466384e+2, -1356981.0, -1401034.8, -14938.237, -0.025618728, 0.5435755, -1352393.3, -26047.684, 0.0, 10.000032, 9.999447 
2.0499256e+2, 1.7466307e+2, -1254934.4, -1298731.9, -15558.27, -0.010097133, 0.51947653, -1249970.3, -21617.93, 0.0, 10.00005, 9.999468 
2.049943e+2, 1.8466242e+2, -1135718.3, -1156553.4, -19403.264, -0.009416482, 0.4941343, -1124112.9, 6244.446, 0.0, 10.000049, 9.999771 
2.0499584e+2, 1.9466196e+2, -1038745.94, -1055511.8, -16858.744, -0.025542177, 0.46658045, -1028300.94, 4058.5105, 0.0, 10.000027, 9.999803 
2.049974e+2, 2.0466165e+2, -920771.06, -929644.56, -23227.11, -0.028013831, 0.44886234, -901560.75, 32800.016, 0.0, 10.000085, 9.999966 
2.0499904e+2, 2.1466155e+2, -798765.75, -817321.0, -25968.35, -0.015020737, 0.43956712, -780467.44, 55893.098, 0.0, 10.000238, 9.99999 
2.0500064e+2, 2.2466145e+2, -693196.44, -712968.8, -29549.2, -0.0012717597, 0.42952618, -671923.5, 66436.984, 0.0, 10.000278, 10.000014 
2.0500223e+2, 2.3466137e+2, -606818.0, -618451.44, -29031.646, 0.01350619, 0.4174073, -583026.1, 57333.676, 0.0, 10.00019, 10.000033 
2.0500377e+2, 2.4466115e+2, -531624.94, -563598.7, -27874.752, 0.022200262, 0.40598437, -515478.03, 26882.475, 0.0, 10.000172, 9.999745 
2.0500521e+2, 2.546608e+2, -423968.25, -459728.1, -26804.451, 0.023387497, 0.3912814, -409627.53, 34734.72, 0.0, 10.000233, 9.999757 
2.0500685e+2, 2.6466003e+2, -375993.88, -478232.6, -15562.444, 0.02191468, 0.38304532, -373677.5, -27308.266, 0.0, 10.000287, 9.998931 
2.0500864e+2, 2.7465898e+2, -272295.72, -378396.53, -21220.027, 0.018889444, 0.382822, -268209.16, -19827.918, 0.0, 10.00033, 9.998922 
2.0501062e+2, 2.8465807e+2, -204257.3, -354683.75, -16737.086, 0.02753104, 0.4297633, -202417.55, -52025.305, 0.0, 10.000382, 9.998387 
2.0501275e+2, 2.9465738e+2, -98678.82, -254923.06, -10967.906, 0.045788683, 0.5190662, -97912.664, -45510.344, 0.000000000097020676, 10.0004425, 9.99837 
2.0501466e+2, 3.0465487e+2, -17809.008, -158261.95, -498.05243, 0.029849995, 0.42098382, -17807.24, -17807.24, 0.0000007042908, 10.000523, 9.998661 
2.0501709e+2, 3.1465408e+2, 69551.09, -135.85341, -1789.6919, 0.06050726, 0.4688483, 69597.02, 69597.02, 0.000007994477, 10.000623, 9.999699 
2.1498232e+2, 1.2466269e+2, -1748794.4, -1738528.1, -11015.377, -0.05659762, 0.49764514, -1731508.6, -13152.783, 0.0000033185577, 9.999799, 9.999934 
2.1498445e+2, 1.346629e+2, -1655440.4, -1653590.6, -1937.7871, -0.060413193, 0.5352242, -1652368.4, -32015.104, 0.00000061904166, 9.999814, 9.999838 
2.1498677e+2, 1.44662e+2, -1571790.9, -1598821.8, -12250.052, -0.034165144, 0.47731262, -1567065.4, -44703.227, 0.000000017936356, 9.999871, 9.999512 
2.1498874e+2, 1.5466194e+2, -1459974.4, -1495110.5, -10957.1875, -0.029251372, 0.5187663, -1456837.5, -32474.287, 0.0, 9.99997, 9.999503 
2.149906e+2, 1.6466148e+2, -1358320.9, -1403698.0, -14176.267, -0.029698223, 0.5280844, -1354256.1, -27888.584, 0.0, 10.000031, 9.999429 
2.1499236e+2, 1.7466061e+2, -1256330.8, -1301560.3, -14879.507, -0.036632907, 0.49435723, -1251874.8, -23499.213, 0.0, 10.00005, 9.999449 
2.1499413e+2, 1.8466002e+2, -1131114.3, -1146956.0, -20172.73, -0.03304221, 0.47378287, -1117363.0, 13016.8545, 0.0, 10.000049, 9.999837 
2.1499594e+2, 1.9465983e+2, -1033940.56, -1045497.6, -17690.518, -0.017112384, 0.4670613, -1021108.75, 11270.65, 0.0, 10.000027, 9.999871 
2.1499763e+2, 2.0465963e+2, -925396.6, -939225.4, -17693.688, -0.012373752, 0.4590415, -913314.3, 21065.732, 0.0, 10.000085, 9.9999 
2.1499923e+2, 2.1465944e+2, -803602.25, -827384.1, -20191.164, -0.020561622, 0.44671944, -792060.75, 44320.586, 0.0, 10.000238, 9.999921 
2.1500081e+2, 2.2465925e+2, -692467.5, -711491.94, -32576.697, -0.01237946, 0.4325338, -668042.7, 70339.414, 0.0, 10.000278, 10.000025 
2.1500243e+2, 2.3465915e+2, -605889.8, -616569.6, -32395.56, 0.014600979, 0.41510665, -578397.0, 61984.38, 0.0, 10.00019, 10.000046 
2.1500395e+2, 2.4465889e+2, -529822.25, -559918.8, -25767.74, 0.023882424, 0.39917725, -515030.5, 27351.322, 0.0, 10.000172, 9.999771 
2.1500535e+2, 2.5465852e+2, -422182.5, -456077.75, -24498.361, 0.012546487, 0.38090795, -409341.0, 35041.99, 0.0, 10.000233, 9.999782 
2.1500705e+2, 2.6465765e+2, -386890.06, -500864.1, -13932.62, 0.012808667, 0.36919802, -385211.63, -38820.57, 0.0, 10.000287, 9.9987755 
2.1500905e+2, 2.7465641e+2, -283679.1, -402007.4, -19592.15, 0.027735366, 0.36557397, -280519.53, -32113.557, 0.0, 10.00033, 9.99876 
2.1501118e+2, 2.8465554e+2, -194659.52, -334696.84, -14524.451, 0.045174584, 0.4155623, -193168.92, -42751.953, 0.0, 10.000381, 9.998525 
2.1501337e+2, 2.9465508e+2, -88221.79, -233191.77, -8678.551, 0.061756544, 0.5151921, -87704.1, -35280.4, 0.0, 10.0004425, 9.99852 
2.1501528e+2, 3.0465266e+2, -12369.103, -146953.66, 3215.396, 0.03755422, 0.41096404, -12292.327, -12292.327, 0.00000028677624, 10.000523, 9.998738 
2.1501765e+2, 3.146517e+2, 71947.55, 4809.005, 1490.2651, 0.052855026, 0.437596, 71980.61, 71980.61, 0.0000047712674, 10.000623, 9.999732 
2.2498219e+2, 1.2466038e+2, -1756033.4, -1743074.8, -12285.852, -0.046085227, 0.48819157, -1735664.4, -17286.453, 0.0000026194793, 9.999754, 9.999926 
2.2498435e+2, 1.3466068e+2, -1645066.4, -1647900.1, 2583.7688, -0.055762958, 0.5337014, -1643536.5, -23161.547, 0.0000004546107, 9.999882, 9.999845 
2.2498666e+2, 1.4465983e+2, -1552379.4, -1585853.1, -4298.7847, -0.037121046, 0.48023555, -1551836.1, -29453.006, 0.000000010467296, 9.9999895, 9.999544 
2.2498871e+2, 1.5465969e+2, -1443328.9, -1483252.8, -3878.0852, -0.033850435, 0.509975, -1442955.6, -18571.41, 0.0, 10.000069, 9.999537 
2.2499062e+2, 1.6465916e+2, -1351147.4, -1404837.4, -11564.535, -0.034829695, 0.5130008, -1348762.4, -22373.29, 0.0, 10.000101, 9.999388 
2.2499236e+2, 1.7465825e+2, -1254927.3, -1305775.1, -14263.832, -0.041362446, 0.47955593, -1251199.3, -22801.572, 0.0, 10.00008, 9.999405 
2.2499415e+2, 1.8465768e+2, -1123029.3, -1139360.1, -21280.074, -0.036151502, 0.46239913, -1108401.9, 22000.082, 0.0, 10.000089, 9.99987 
2.2499602e+2, 1.9465762e+2, -1016152.0, -1033014.6, -21316.31, -0.017159328, 0.46258903, -1001660.1, 30740.184, 0.0, 10.000132, 9.999907 
2.2499774e+2, 2.0465744e+2, -919886.44, -941973.3, -19907.082, -0.013264634, 0.4585988, -908164.75, 26236.014, 0.0, 10.000147, 9.999852 
2.2499934e+2, 2.1465722e+2, -823267.94, -842674.9, -21015.773, -0.026762398, 0.44695443, -809823.6, 26579.355, 0.0, 10.000129, 9.999869 
2.2500095e+2, 2.24657e+2, -708471.9, -717879.7, -34950.973, -0.020442938, 0.43210903, -677909.7, 60494.363, 0.0, 10.000163, 10.000036 
2.2500259e+2, 2.3465687e+2, -595021.1, -609847.5, -34767.715, 0.008568104, 0.41261557, -566885.06, 73518.04, 0.0, 10.000258, 10.00006 
2.2500417e+2, 2.4465658e+2, -512674.25, -555893.3, -29436.645, 0.021114621, 0.3934185, -497766.8, 44636.848, 0.0, 10.000308, 9.999733 
2.2500563e+2, 2.546561e+2, -414734.4, -456983.8, -33105.676, 0.014486277, 0.3705534, -396587.75, 47817.773, 0.0, 10.000303, 9.999742 
2.250074e+2, 2.646552e+2, -391427.72, -510146.78, -22533.564, 0.019912224, 0.35825822, -387294.6, -40880.363, 0.0, 10.000286, 9.998712 
2.2500947e+2, 2.7465394e+2, -299345.47, -416731.9, -20861.357, 0.040559832, 0.35857266, -295748.3, -47318.547, 0.0, 10.000254, 9.998696 
2.2501166e+2, 2.84653e+2, -205766.53, -333043.63, -12261.094, 0.060278233, 0.404608, -204596.14, -54155.14, 0.0, 10.000276, 9.998588 
2.250139e+2, 2.946525e+2, -95632.13, -229091.06, -12406.0, 0.07515206, 0.49122155, -94488.695, -42041.19, 0.0, 10.000359, 9.998589 
2.2501583e+2, 3.046501e+2, -23114.65, -149872.73, -5067.914, 0.046390824, 0.38632056, -22912.352, -22912.352, 0.00000008572978, 10.000439, 9.998759 
2.2501822e+2, 3.1464934e+2, 54824.363, -6346.729, -11604.331, 0.05386429, 0.42906693, 56951.75, 56951.75, 0.000002540607, 10.000518, 9.999707 
2.3498206e+2, 1.2465819e+2, -1751348.8, -1733105.8, -7375.8916, -0.03455606, 0.4966569, -1730496.8, -12097.201, 0.0000018640146, 9.999753, 9.999994 
2.349843e+2, 1.3465856e+2, -1639244.1, -1635599.6, 7495.3574, -0.047794197, 0.5400738, -1629708.3, -9312.611, 0.0000002777255, 9.999881, 9.999929 
2.3498663e+2, 1.4465775e+2, -1550842.6, -1582410.4, -1128.9845, -0.03963684, 0.484557, -1550802.4, -28399.36, 0.0000000036051038, 9.999989, 9.999568 
2.3498866e+2, 1.5465747e+2, -1441750.6, -1479759.0, -851.2615, -0.04589485, 0.49893457, -1441731.5, -17326.793, 0.0, 10.000068, 9.999562 
2.3499064e+2, 1.6465689e+2, -1355821.5, -1414333.6, -12178.842, -0.041026726, 0.49836168, -1353387.9, -26977.842, 0.0, 10.0001, 9.999323 
2.3499261e+2, 1.74656e+2, -1259834.3, -1315788.4, -15010.886, -0.024341913, 0.4751002, -1256061.6, -27642.736, 0.0, 10.00008, 9.999336 
2.3499443e+2, 1.8465544e+2, -1123147.5, -1139449.0, -19721.736, -0.018825455, 0.46004334, -1109958.6, 20464.816, 0.0, 10.000088, 9.99987 
2.3499607e+2, 1.9465528e+2, -1016033.4, -1032699.94, -19650.014, -0.02577428, 0.4532262, -1003022.6, 29399.656, 0.0, 10.000132, 9.999908 
2.3499772e+2, 2.046551e+2, -922187.3, -946750.9, -20488.105, -0.030795129, 0.4475402, -910581.75, 23841.32, 0.0, 10.000147, 9.999819 
2.3499939e+2, 2.1465486e+2, -825685.06, -847721.9, -21686.66, -0.033649057, 0.44023037, -812378.25, 24047.293, 0.0, 10.000129, 9.999835 
2.3500107e+2, 2.2465466e+2, -707543.8, -715953.5, -31509.053, -0.025492359, 0.42824858, -679960.3, 58466.16, 0.0, 10.000163, 10.00005 
2.3500271e+2, 2.3465458e+2, -593970.3, -607675.9, -31187.215, -0.0046399846, 0.4099353, -568891.9, 71532.95, 0.0, 10.000258, 10.000074 
2.350044e+2, 2.4465421e+2, -519790.56, -570679.6, -29473.412, 0.013802888, 0.38869146, -506297.88, 36128.113, 0.0, 10.000308, 9.999632 
2.350061e+2, 2.5465357e+2, -422180.97, -472447.2, -33294.113, 0.029104652, 0.36018023, -405598.72, 38831.16, 0.0, 10.000303, 9.999636 
2.3500791e+2, 2.6465267e+2, -389361.84, -505867.8, -23764.822, 0.043144707, 0.3501803, -384700.78, -38261.957, 0.0, 10.000286, 9.998741 
2.350099e+2, 2.7465153e+2, -296964.53, -411829.44, -22114.74, 0.057259787, 0.36176252, -292853.9, -44401.27, 0.0, 10.000254, 9.99873 
2.3501207e+2, 2.846505e+2, -206566.78, -334742.53, -9309.321, 0.07268379, 0.3968798, -205894.17, -55429.855, 0.0, 10.000276, 9.998576 
2.3501436e+2, 2.9464963e+2, -96432.21, -230746.5, -9318.542, 0.08589544, 0.44730404, -95788.78, -43315.06, 0.0, 10.000359, 9.998577 
2.3501638e+2, 3.0464724e+2, -25614.309, -155080.84, -2125.9326, 0.056248847, 0.34700993, -25579.41, -25579.41, 0.000000016806371, 10.000439, 9.998723 
2.3501883e+2, 3.1464696e+2, 49131.33, -18212.303, -9125.912, 0.06297624, 0.44267234, 50346.094, 50346.094, 0.0000011714155, 10.000518, 9.999625 
2.4498186e+2, 1.246558e+2, -1742139.5, -1725508.1, -10973.132, -0.032227043, 0.49774846, -1720055.8, -1633.0177, 0.0000011498672, 9.999803, 10.000023 
2.4498428e+2, 1.3465619e+2, -1624652.4, -1624145.3, 362.80927, -0.04232759, 0.53945184, -1623956.3, -3537.8076, 0.00000012802465, 9.999963, 9.999969 
2.4498667e+2, 1.4465542e+2, -1536304.6, -1569844.8, -12283.581, -0.038579844, 0.48385888, -1532287.3, -9862.108, 0.00000000023702618, 10.000064, 9.999619 
2.4498872e+2, 1.5465508e+2, -1433811.8, -1470237.1, -10158.784, -0.048025575, 0.4871117, -1431170.1, -6743.141, 0.0, 10.000097, 9.999613 
2.4499075e+2, 1.6465451e+2, -1353144.3, -1412720.1, -20312.156, -0.041869935, 0.4836086, -1346878.0, -20445.893, 0.0, 10.000117, 9.999326 
2.4499276e+2, 1.7465371e+2, -1253549.0, -1312666.8, -18072.596, -0.019236516, 0.46725222, -1248461.9, -20021.55, 0.0, 10.000123, 9.999337 
2.4499458e+2, 1.8465313e+2, -1119669.1, -1142298.6, -20196.049, -0.013978082, 0.45463008, -1107834.3, 22610.79, 0.0, 10.000132, 9.999829 
2.4499619e+2, 1.9465293e+2, -1017020.6, -1037861.4, -23424.063, -0.028191376, 0.445069, -1001803.7, 30641.182, 0.0, 10.000145, 9.999867 
2.4499783e+2, 2.0465267e+2, -923977.2, -949365.4, -27104.809, -0.03407245, 0.43789792, -906741.2, 27705.023, 0.0, 10.000142, 9.999804 
2.4499956e+2, 2.1465243e+2, -827995.1, -850472.75, -26879.398, -0.03054792, 0.43068492, -810099.5, 26349.146, 0.0, 10.00012, 9.99982 
2.4500124e+2, 2.246522e+2, -711472.1, -720360.6, -33168.418, -0.023342948, 0.41792312, -682451.56, 55998.137, 0.0, 10.000147, 10.000028 
2.4500288e+2, 2.3465209e+2, -599579.6, -612852.6, -35531.563, -0.011737086, 0.397768, -570070.1, 70378.23, 0.0, 10.00023, 10.000052 
2.4500462e+2, 2.4465169e+2, -532400.3, -585361.94, -38295.43, 0.008619222, 0.37867457, -512321.78, 30128.229, 0.0, 10.000258, 9.999555 
2.4500644e+2, 2.5465104e+2, -439740.44, -489807.1, -40262.164, 0.038543545, 0.35701388, -417363.78, 27090.887, 0.0, 10.000221, 9.999556 
2.4500833e+2, 2.6465017e+2, -391790.78, -500274.78, -26873.215, 0.05756489, 0.3514585, -385498.8, -39035.418, 0.0, 10.00024, 9.998802 
2.4501027e+2, 2.746491e+2, -282211.38, -397470.75, -22899.217, 0.065538675, 0.36474696, -277828.5, -29352.68, 0.0, 10.000323, 9.998795 
2.4501243e+2, 2.8464803e+2, -192216.84, -328390.5, -7640.3496, 0.077164866, 0.39219475, -191789.5, -41302.13, 0.0, 10.000377, 9.998571 
2.4501477e+2, 2.9464698e+2, -91476.86, -229003.4, -7238.4746, 0.089372925, 0.42452934, -91096.92, -38598.87, 0.0, 10.000395, 9.998571 
2.4501686e+2, 3.0464455e+2, -26504.188, -160493.39, 1381.0382, 0.06115583, 0.3244069, -26489.955, -26489.955, 0.0000000018495133, 10.000454, 9.998678 
2.4501944e+2, 3.1464446e+2, 48888.508, -28501.895, -6861.833, 0.07080947, 0.44192117, 49492.203, 49492.203, 0.00000045275593, 10.00056, 9.999534 
2.549816e+2, 1.2465323e+2, -1743419.4, -1727721.1, -4844.637, -0.039410144, 0.4915915, -1726346.4, -7898.6685, 0.0000005982307, 9.999801, 10.000009 
2.5498426e+2, 1.346536e+2, -1625247.1, -1625125.3, 6432.337, -0.039556045, 0.53191155, -1618753.5, 1689.886, 0.00000003796869, 9.999961, 9.999962 
2.5498676e+2, 1.4465287e+2, -1531198.0, -1559028.9, -10761.978, -0.034113795, 0.4782612, -1527521.9, -5072.519, 0.0, 10.000063, 9.999693 
2.5498888e+2, 1.5465255e+2, -1428506.8, -1458946.9, -8858.394, -0.040446173, 0.47453454, -1426116.6, -1665.5463, 0.0, 10.000096, 9.999691 
2.549909e+2, 1.6465202e+2, -1348406.0, -1402612.3, -20038.223, -0.037573226, 0.46878245, -1341802.9, -15347.516, 0.0, 10.000116, 9.999395 
2.5499284e+2, 1.7465132e+2, -1248757.5, -1302566.6, -17825.605, -0.026172493, 0.4561128, -1243388.1, -14925.818, 0.0, 10.000122, 9.999407 
2.5499463e+2, 1.8465078e+2, -1125385.3, -1154072.8, -19666.408, -0.021734849, 0.4462224, -1115387.4, 15079.442, 0.0, 10.000131, 9.999749 
2.5499636e+2, 1.946505e+2, -1023105.5, -1050439.4, -22879.55, -0.024470426, 0.43811083, -1010121.75, 22346.365, 0.0, 10.000145, 9.999781 
2.549981e+2, 2.046502e+2, -923884.1, -949118.2, -27872.902, -0.023152018, 0.429707, -905905.56, 28564.559, 0.0, 10.000141, 9.999805 
2.5499982e+2, 2.1464992e+2, -827635.0, -849683.7, -27666.17, -0.017603101, 0.41836977, -808877.56, 27594.805, 0.0, 10.000119, 9.9998255 
2.550015e+2, 2.2464962e+2, -715547.94, -728827.25, -30151.363, -0.014152995, 0.40113178, -691313.8, 47160.0, 0.0, 10.000147, 9.9999695 
2.5500312e+2, 2.3464939e+2, -603757.94, -621580.56, -32381.68, -0.0127923265, 0.37609413, -579083.75, 61389.87, 0.0, 10.000231, 9.999992 
2.5500485e+2, 2.44649e+2, -536025.6, -592900.2, -39558.46, 0.005473173, 0.36335298, -515743.8, 26731.89, 0.0, 10.000258, 9.999503 
2.550067e+2, 2.546485e+2, -443359.9, -497316.16, -41677.996, 0.042691566, 0.36104867, -420690.53, 23789.363, 0.0, 10.000221, 9.999504 
2.550086e+2, 2.646477e+2, -385494.06, -487173.34, -23927.076, 0.06303233, 0.36208147, -380144.97, -33657.066, 0.0, 10.00024, 9.998892 
2.5501058e+2, 2.7464667e+2, -275518.13, -383573.28, -19795.648, 0.065375045, 0.3674733, -272005.72, -23506.398, 0.0, 10.000323, 9.998891 
2.5501278e+2, 2.846456e+2, -192083.48, -328112.28, -6913.828, 0.073734395, 0.390498, -191732.98, -41222.81, 0.0, 10.000377, 9.998573 
2.5501513e+2, 2.9464453e+2, -91542.29, -229109.95, -6628.4395, 0.08554018, 0.42276233, -91223.65, -38703.137, 0.0, 10.000395, 9.99857 
2.550173e+2, 3.0464205e+2, -30333.566, -168412.19, 5244.5522, 0.061016086, 0.31842035, -30134.652, -30134.652, 0.000000000039700524, 10.000454, 9.998624 
2.5502005e+2, 3.146418e+2, 41647.26, -43447.973, -3434.4517, 0.07714527, 0.42640296, 41785.652, 41785.652, 0.00000014491832, 10.00056, 9.999432 
2.6498157e+2, 1.24650575e+2, -1718528.5, -1713767.4, -1350.0138, -0.028416963, 0.47838774, -1713411.1, 5061.826, 0.00000026973817, 9.999964, 10.000025 
2.6498428e+2, 1.3465099e+2, -1619179.3, -1619600.4, 11957.005, -0.035163797, 0.51949143, -1607431.0, 13037.192, 0.0000000060296985, 9.999992, 9.999985 
2.6498678e+2, 1.4465031e+2, -1540785.3, -1564838.8, -10225.903, -0.035030175, 0.4708121, -1537025.5, -14551.942, 0.0, 10.000003, 9.999682 
2.6498902e+2, 1.5464994e+2, -1444837.8, -1468105.9, -15319.717, -0.032897696, 0.463478, -1437235.3, -12759.309, 0.0, 9.9999895, 9.99968 
2.6499102e+2, 1.6464943e+2, -1358953.6, -1396435.6, -28556.256, -0.030471075, 0.45454592, -1343537.9, -17057.887, 0.0, 9.999995, 9.999496 
2.6499286e+2, 1.746488e+2, -1255775.8, -1294273.8, -23661.65, -0.03023537, 0.439531, -1244522.4, -16037.015, 0.0, 10.000024, 9.999512 
2.6499465e+2, 1.846483e+2, -1142511.4, -1170271.1, -23751.299, -0.027757632, 0.4319035, -1128881.8, 1607.9147, 0.0, 10.000048, 9.999678 
2.649965e+2, 1.9464801e+2, -1039719.56, -1067162.8, -26314.822, -0.02170744, 0.43116084, -1023763.7, 8728.176, 0.0, 10.000069, 9.999702 
2.6499826e+2, 2.046477e+2, -926495.1, -947001.3, -29795.67, -0.017994596, 0.42562547, -905237.75, 29256.262, 0.0, 10.000109, 9.999836 
2.6499993e+2, 2.1464744e+2, -817442.75, -840922.2, -27371.738, -0.017497828, 0.41208005, -799399.4, 37096.15, 0.0, 10.000173, 9.99986 
2.6500165e+2, 2.246471e+2, -717032.25, -738949.2, -30031.17, -0.014514154, 0.39187, -696022.6, 42474.64, 0.0, 10.000177, 9.999886 
2.6500332e+2, 2.3464674e+2, -627126.5, -642695.6, -34387.855, -0.00834486, 0.36293185, -599653.1, 40845.527, 0.0, 10.000113, 9.999905 
2.6500508e+2, 2.4464633e+2, -558884.0, -611388.0, -42034.688, 0.009987326, 0.35539198, -535577.1, 6924.3467, 0.0, 10.0001335, 9.999436 
2.6500693e+2, 2.546459e+2, -443357.84, -504647.38, -45201.57, 0.041873224, 0.3688083, -419392.3, 25113.041, 0.0, 10.000253, 9.999439 
2.6500887e+2, 2.646451e+2, -372550.34, -477939.53, -30255.61, 0.060968306, 0.3700458, -364482.13, -17968.584, 0.0, 10.000317, 9.998919 
2.6501092e+2, 2.7464393e+2, -274468.06, -379626.75, -31040.068, 0.06671174, 0.3579197, -265989.44, -17463.807, 0.0, 10.000316, 9.998921 
2.650132e+2, 2.8464285e+2, -193210.31, -321893.34, -18762.662, 0.07783417, 0.37546864, -190530.44, -39994.406, 0.0, 10.00034, 9.998633 
2.650156e+2, 2.9464194e+2, -87661.67, -220152.22, -13764.153, 0.09171788, 0.41627875, -86246.85, -33702.258, 0.0, 10.000391, 9.998634 
2.6501787e+2, 3.0463946e+2, -33074.508, -166145.42, 4487.9473, 0.07074329, 0.30807614, -32923.32, -32923.32, 0.0, 10.000421, 9.998656 
2.650207e+2, 3.1463903e+2, 20885.998, -55032.86, 1782.3287, 0.08991531, 0.39643526, 20927.818, 20927.818, 0.000000037775372, 10.000424, 9.999417 
2.7498186e+2, 1.2464785e+2, -1715587.6, -1707148.3, -196.6015, 0.000533093, 0.45791072, -1707143.6, 11355.103, 0.00000012804327, 9.999961, 10.000072 
2.7498433e+2, 1.3464835e+2, -1615795.6, -1612162.5, 13100.702, -0.029336132, 0.5023162, -1600753.0, 19739.62, 0.0000000018569922, 9.99999, 10.000037 
2.749867e+2, 1.4464773e+2, -1547818.1, -1579026.6, -10514.916, -0.041517563, 0.46166736, -1544606.0, -22108.326, 0.0, 10.000001, 9.999586 
2.7498907e+2, 1.5464726e+2, -1452099.9, -1482907.9, -15781.1875, -0.025597218, 0.4540757, -1445451.0, -20949.217, 0.0, 9.999989, 9.999578 
2.7499112e+2, 1.6464671e+2, -1349785.9, -1377212.1, -27516.049, -0.020749059, 0.44101503, -1332755.3, -6249.2466, 0.0, 9.999994, 9.999629 
2.7499285e+2, 1.7464615e+2, -1246022.1, -1273824.8, -22539.137, -0.03154853, 0.4176004, -1233442.1, -4932.3877, 0.0, 10.000023, 9.999652 
2.7499467e+2, 1.8464571e+2, -1146946.1, -1179322.1, -22929.94, -0.032139886, 0.41170326, -1135065.8, -4552.415, 0.0, 10.000047, 9.999617 
2.7499658e+2, 1.9464548e+2, -1044608.75, -1077258.3, -25480.38, -0.01998939, 0.42424476, -1030672.2, 1843.9033, 0.0, 10.000069, 9.999634 
2.7499837e+2, 2.0464523e+2, -922384.5, -938464.3, -27436.236, -0.018686933, 0.42566574, -901834.44, 32683.496, 0.0, 10.000109, 9.999894 
2.75e+2, 2.1464503e+2, -812949.1, -831646.06, -24916.992, -0.03027071, 0.411825, -795684.6, 40833.473, 0.0, 10.000174, 9.999924 
2.750017e+2, 2.2464468e+2, -724751.7, -755012.25, -32316.85, -0.024503224, 0.39013875, -704198.6, 34321.45, 0.0, 10.000177, 9.999775 
2.7500355e+2, 2.3464414e+2, -635298.75, -659652.4, -36841.285, 0.0015093127, 0.35827902, -608674.06, 31849.32, 0.0, 10.000113, 9.999788 
2.7500534e+2, 2.4464367e+2, -564674.06, -623376.5, -37815.246, 0.02209787, 0.35480273, -546155.8, -3628.6, 0.0, 10.0001335, 9.999354 
2.7500713e+2, 2.5464332e+2, -449006.06, -516360.6, -40716.24, 0.036067892, 0.38028377, -429844.25, 14686.831, 0.0, 10.000253, 9.999359 
2.750091e+2, 2.6464236e+2, -375082.5, -483176.5, -30159.02, 0.051333737, 0.37535563, -367237.3, -20697.012, 0.0, 10.000317, 9.998883 
2.7501127e+2, 2.7464086e+2, -276922.38, -384631.16, -31084.404, 0.06940836, 0.33613384, -268595.28, -20040.514, 0.0, 10.000316, 9.998887 
2.7501366e+2, 2.846398e+2, -184956.05, -304633.0, -16922.186, 0.08925323, 0.3471174, -182609.28, -32044.352, 0.0, 10.0003395, 9.998752 
2.7501613e+2, 2.9463917e+2, -78892.93, -201845.64, -11911.148, 0.10779286, 0.4050402, -77749.66, -25179.326, 0.0, 10.000391, 9.99876 
2.7501845e+2, 3.0463678e+2, -24861.756, -149042.8, 4695.468, 0.09027659, 0.29332736, -24684.467, -24684.467, 0.0, 10.00042, 9.998774 
2.750213e+2, 3.1463617e+2, 25877.34, -44737.19, 1412.7085, 0.10841915, 0.35210943, 25905.59, 25905.59, 0.00000000643165, 10.000424, 9.999488 
2.849819e+2, 1.2464521e+2, -1702710.8, -1697218.1, -6417.7334, 0.0077392203, 0.45429716, -1692983.9, 25540.38, 0.000000073181255, 10.000033, 10.000106 
2.8498444e+2, 1.3464572e+2, -1605781.1, -1603303.8, 5740.5737, -0.021540686, 0.49715024, -1598669.8, 21847.904, 0.00000000048290855, 10.000041, 10.000073 
2.8498676e+2, 1.4464517e+2, -1540892.3, -1574567.0, -15560.875, -0.04103511, 0.45993102, -1534802.9, -12280.865, 0.0, 10.000044, 9.999596 
2.849891e+2, 1.5464467e+2, -1444372.5, -1478012.0, -12546.861, -0.027184537, 0.4482383, -1440208.3, -15681.759, 0.0, 10.000036, 9.999589 
2.8499112e+2, 1.6464409e+2, -1341704.5, -1369339.9, -22516.826, -0.021407371, 0.42985559, -1329103.6, -2572.922, 0.0, 10.000032, 9.999664 
2.8499293e+2, 1.7464349e+2, -1241963.1, -1267801.1, -25372.586, -0.028283376, 0.3999818, -1226409.9, 2124.4033, 0.0, 10.000032, 9.999689 
2.8499475e+2, 1.8464305e+2, -1154178.1, -1190051.3, -30149.09, -0.027511688, 0.39570048, -1137033.5, -6495.521, 0.0, 10.000029, 9.999552 
2.8499663e+2, 1.9464287e+2, -1056140.9, -1090431.5, -32626.486, -0.016811954, 0.4192467, -1036429.06, -3887.9438, 0.0, 10.000022, 9.999566 
2.8499845e+2, 2.0464262e+2, -935064.4, -944067.8, -35547.195, -0.018003512, 0.42387134, -903734.94, 30808.205, 0.0, 10.00002, 9.999899 
2.8500006e+2, 2.1464238e+2, -834379.0, -841141.06, -37170.98, -0.033331737, 0.40423968, -800435.6, 36107.855, 0.0, 10.000022, 9.999931 
2.850018e+2, 2.2464196e+2, -746525.3, -771046.8, -45865.688, -0.027051624, 0.38178098, -711309.9, 27235.719, 0.0, 10.0000515, 9.999725 
2.8500366e+2, 2.3464145e+2, -638981.25, -667243.1, -45543.066, 0.0043582944, 0.3549007, -605427.25, 35122.066, 0.0, 10.000113, 9.999737 
2.8500554e+2, 2.4464098e+2, -561859.25, -626285.75, -39099.75, 0.026359184, 0.3549157, -543412.06, -858.59467, 0.0, 10.000171, 9.999316 
2.850074e+2, 2.5464058e+2, -455278.34, -523551.84, -38685.996, 0.037150253, 0.3822668, -437821.25, 6736.323, 0.0, 10.000228, 9.999322 
2.850094e+2, 2.646396e+2, -381518.78, -482468.6, -27199.992, 0.05167534, 0.37096164, -374656.47, -28089.31, 0.0, 10.000256, 9.998918 
2.8501156e+2, 2.7463797e+2, -283666.25, -383707.53, -22936.508, 0.07173609, 0.31581426, -278658.28, -30076.188, 0.0, 10.000252, 9.998924 
2.8501394e+2, 2.8463688e+2, -191876.2, -303193.84, -6817.757, 0.09183461, 0.32242018, -191460.2, -40868.227, 0.0, 10.000272, 9.998795 
2.850165e+2, 2.9463637e+2, -86397.445, -200684.78, -7954.995, 0.108807765, 0.389532, -85846.39, -33250.168, 0.0, 10.000319, 9.998803 
2.850189e+2, 3.046341e+2, -31040.236, -146103.39, 1709.7225, 0.0934814, 0.28199872, -31014.838, -31014.838, 0.0, 10.000352, 9.998827 
2.8502175e+2, 3.146335e+2, 17846.727, -47955.227, -7056.8027, 0.114578664, 0.3356727, 18595.01, 18595.01, 0.00000000043435586, 10.000366, 9.999494 
2.9498178e+2, 1.2464264e+2, -1701529.4, -1694146.5, -6079.896, -0.0074917073, 0.4678418, -1690725.1, 27824.32, 0.000000040732502, 10.0000305, 10.000128 
2.9498455e+2, 1.3464311e+2, -1604543.8, -1600345.6, 6120.314, -0.0122058615, 0.5042028, -1595974.4, 24568.902, 0.0000000000036468957, 10.000039, 10.000094 
2.9498687e+2, 1.446426e+2, -1532799.5, -1557468.0, -15738.803, -0.034014884, 0.46574262, -1525137.6, -2590.941, 0.0, 10.000042, 9.999714 
2.94989e+2, 1.5464215e+2, -1435935.6, -1460195.4, -12767.715, -0.03788731, 0.44623002, -1430454.5, -5904.317, 0.0, 10.000035, 9.999712 
2.9499105e+2, 1.6464154e+2, -1346083.0, -1378168.3, -22492.76, -0.032572977, 0.42130488, -1334497.9, -7943.5127, 0.0, 10.000031, 9.999605 
2.9499304e+2, 1.7464083e+2, -1246768.0, -1277629.0, -25309.018, -0.020603519, 0.38671896, -1232556.5, -3997.2654, 0.0, 10.000032, 9.999621 
2.949949e+2, 1.8464035e+2, -1158918.5, -1199833.3, -30406.691, -0.014031421, 0.38394406, -1142728.0, -12164.346, 0.0, 10.000029, 9.999485 
2.9499674e+2, 1.9464019e+2, -1060858.0, -1100211.6, -32844.617, -0.012248454, 0.41625202, -1042247.1, -9680.209, 0.0, 10.000022, 9.999499 
2.9499847e+2, 2.0463988e+2, -938501.5, -951180.44, -35433.574, -0.01601948, 0.42028162, -908844.75, 25725.047, 0.0, 10.000019, 9.99985 
2.9500017e+2, 2.1463947e+2, -837744.75, -848119.4, -37015.31, -0.02676459, 0.38933396, -805555.06, 31016.572, 0.0, 10.000022, 9.999884 
2.950019e+2, 2.2463904e+2, -745844.3, -769640.6, -43688.684, -0.022219596, 0.36682144, -712462.56, 26111.402, 0.0, 10.0000515, 9.999736 
2.9500374e+2, 2.3463866e+2, -638055.0, -665372.25, -43250.44, 0.00015081976, 0.35281464, -606357.7, 34218.668, 0.0, 10.000113, 9.999749 
2.9500568e+2, 2.4463822e+2, -561549.4, -625666.75, -37005.242, 0.02264722, 0.35572344, -544647.4, -2067.2832, 0.0, 10.000172, 9.999321 
2.9500768e+2, 2.5463775e+2, -455007.22, -522943.97, -36584.984, 0.044981126, 0.37472504, -439052.53, 5532.387, 0.0, 10.000227, 9.999326 
2.9500973e+2, 2.6463673e+2, -374263.16, -467342.38, -27355.336, 0.061878957, 0.35683098, -366818.97, -20224.785, 0.0, 10.000256, 9.999022 
2.9501185e+2, 2.746352e+2, -276123.72, -368011.5, -23165.246, 0.07367996, 0.29694209, -270614.03, -22006.334, 0.0, 10.000252, 9.999032 
2.9501417e+2, 2.846341e+2, -194179.22, -307968.5, -5141.9263, 0.08558966, 0.30138138, -193947.34, -43330.14, 0.0, 10.000272, 9.998762 
2.950167e+2, 2.9463357e+2, -89032.37, -206143.02, -6219.8687, 0.09476365, 0.36982602, -88702.95, -36080.668, 0.0, 10.000319, 9.998765 
2.950191e+2, 3.046314e+2, -31947.879, -147951.88, 2315.3525, 0.08029656, 0.27404737, -31901.686, -31901.686, 0.0, 10.000352, 9.998815 
2.9502207e+2, 3.1463096e+2, 13845.335, -56262.0, -6897.298, 0.107999235, 0.34623426, 14517.461, 14517.461, 0.0, 10.000366, 9.999437 
3.0498177e+2, 1.2463981e+2, -1715412.1, -1699843.6, -16609.418, -0.0045212335, 0.4702464, -1689284.9, 29292.1, 0.000000022140249, 9.999931, 10.000136 
3.049846e+2, 1.3464022e+2, -1612885.1, -1603826.1, -5397.277, -0.0101664495, 0.4990295, -1601309.5, 19261.934, 0.0, 9.99998, 10.0001 
3.049868e+2, 1.4463979e+2, -1531319.5, -1546138.1, -30091.268, -0.041036528, 0.4619911, -1507738.8, 14835.396, 0.0, 10.000007, 9.999809 
3.0498892e+2, 1.5463941e+2, -1434265.8, -1448287.1, -29002.33, -0.047111712, 0.4419221, -1411438.8, 13137.554, 0.0, 9.999999, 9.999812 
3.04991e+2, 1.6463886e+2, -1351236.9, -1378511.5, -36720.72, -0.038946934, 0.41678107, -1325702.9, 877.0404, 0.0, 9.999987, 9.999624 
3.0499303e+2, 1.7463817e+2, -1254301.5, -1279426.8, -33194.582, -0.018874628, 0.38265258, -1231371.9, -2787.14, 0.0, 9.999972, 9.999639 
3.0499497e+2, 1.8463768e+2, -1167740.3, -1203707.8, -32220.99, -0.00883831, 0.3789309, -1148824.0, -18234.873, 0.0, 9.999966, 9.999489 
3.0499676e+2, 1.9463749e+2, -1068211.4, -1103359.9, -29307.79, -0.008792481, 0.40859473, -1051612.5, -19020.063, 0.0, 9.9999695, 9.999503 
3.0499852e+2, 2.0463715e+2, -948116.94, -962059.75, -28876.87, -0.011105675, 0.41144317, -925381.9, 9213.849, 0.0, 9.99998, 9.999795 
3.0500025e+2, 2.1463668e+2, -844921.4, -857987.44, -31129.299, -0.016795231, 0.38115224, -819646.94, 16951.28, 0.0, 10.000001, 9.999826 
3.05002e+2, 2.2463623e+2, -751927.2, -775699.7, -38362.746, -0.013666994, 0.36026365, -723651.44, 14949.561, 0.0, 10.000024, 9.999707 
3.0500382e+2, 2.3463586e+2, -649168.2, -673681.06, -40819.383, -0.00016222482, 0.3488668, -618804.9, 21798.582, 0.0, 10.000049, 9.9997225 
3.0500576e+2, 2.446354e+2, -572853.5, -629704.56, -35297.77, 0.017236229, 0.35134375, -555958.56, -13351.345, 0.0, 10.000088, 9.999333 
3.0500782e+2, 2.5463492e+2, -466452.9, -526934.9, -34178.56, 0.038808297, 0.36657512, -451057.4, -6445.2876, 0.0, 10.000142, 9.999339 
3.0500996e+2, 2.6463392e+2, -376455.63, -461824.3, -26672.232, 0.05776758, 0.3470719, -368807.47, -22186.516, 0.0, 10.000213, 9.99908 
3.050121e+2, 2.7463242e+2, -264791.13, -355871.63, -26139.48, 0.07481241, 0.2880279, -257822.47, -9188.945, 0.0, 10.0003, 9.999092 
3.0501446e+2, 2.846314e+2, -187466.3, -305560.2, -10805.674, 0.08628222, 0.29326805, -186485.72, -35843.02, 0.0, 10.00032, 9.9987545 
3.050169e+2, 2.9463086e+2, -97653.8, -211309.61, -9842.321, 0.08861086, 0.3628198, -96807.77, -44159.65, 0.0, 10.000264, 9.998756 
3.0501932e+2, 3.0462876e+2, -42994.156, -146382.2, 3437.4836, 0.07320397, 0.271119, -42879.992, -42879.992, 0.0, 10.000246, 9.998876 
3.050223e+2, 3.146284e+2, 1265.6595, -60330.266, -465.1069, 0.10256119, 0.34483144, 1269.1713, 1269.1713, 0.0, 10.000271, 9.999455 
3.1498194e+2, 1.2463672e+2, -1716294.1, -1700877.3, -15224.245, 0.016252343, 0.46147594, -1691521.1, 27085.514, 0.00000002336468, 9.9999275, 10.000132 
3.1498453e+2, 1.3463701e+2, -1614029.6, -1605724.4, -3441.9797, -0.015712697, 0.48175538, -1604483.4, 16118.798, 0.0, 9.999978, 10.000088 
3.1498665e+2, 1.4463666e+2, -1526433.0, -1535678.6, -30241.479, -0.06228488, 0.4488319, -1500463.0, 22141.145, 0.0, 10.000005, 9.999882 
3.1498882e+2, 1.5463643e+2, -1429062.0, -1437225.8, -29315.156, -0.05518278, 0.4352898, -1403545.9, 21059.234, 0.0, 9.999997, 9.999888 
3.1499097e+2, 1.6463603e+2, -1344386.5, -1364097.1, -37299.895, -0.04086074, 0.4162499, -1315661.9, 10945.563, 0.0, 9.999986, 9.999723 
3.14993e+2, 1.746355e+2, -1247279.3, -1264738.9, -33702.586, -0.023254868, 0.38789415, -1221194.3, 7416.6816, 0.0, 9.999971, 9.99974 
3.149949e+2, 1.8463507e+2, -1162511.5, -1192814.3, -32107.656, -0.012040859, 0.3807674, -1142159.8, -11545.277, 0.0, 9.999966, 9.999563 
3.1499675e+2, 1.9463481e+2, -1063061.8, -1092646.1, -29155.32, -0.006513251, 0.39624724, -1045160.75, -12542.957, 0.0, 9.9999695, 9.999577 
3.1499857e+2, 2.0463446e+2, -952436.56, -970984.7, -28112.752, -0.0033271164, 0.39732957, -932107.6, 2513.2834, 0.0, 9.99998, 9.999734 
3.1500039e+2, 2.1463406e+2, -849607.7, -867696.9, -30334.459, -0.003545001, 0.37970367, -826998.1, 9625.19, 0.0, 10.0, 9.99976 
3.1500217e+2, 2.2463357e+2, -756558.75, -785350.5, -37386.51, -0.0015533763, 0.3621123, -730892.25, 7734.436, 0.0, 10.000024, 9.999641 
3.150039e+2, 2.3463306e+2, -653741.3, -683210.75, -39891.15, 0.0033699453, 0.34305498, -625950.56, 14680.029, 0.0, 10.000049, 9.999658 
3.1500578e+2, 2.4463254e+2, -571431.56, -626787.25, -33316.94, 0.010099452, 0.34177083, -555795.6, -13160.772, 0.0, 10.000088, 9.999353 
3.1500775e+2, 2.5463206e+2, -464797.84, -523513.28, -32173.664, 0.018612806, 0.35786727, -450600.78, -5961.649, 0.0, 10.000142, 9.999363 
3.1500998e+2, 2.6463112e+2, -375574.28, -459980.22, -23437.49, 0.039268445, 0.34173396, -369502.97, -22855.531, 0.0, 10.000213, 9.999093 
3.1501243e+2, 2.7462974e+2, -263952.06, -354070.78, -22855.486, 0.07496921, 0.28902194, -258486.98, -9827.381, 0.0, 10.0003, 9.9991045 
3.1501487e+2, 2.8462872e+2, -186313.5, -303093.63, -12827.06, 0.093703054, 0.2980039, -184921.19, -34252.7, 0.0, 10.00032, 9.998772 
3.150172e+2, 2.9462823e+2, -96371.93, -208607.84, -12026.966, 0.09020691, 0.36841306, -95097.61, -42423.836, 0.0, 10.000263, 9.9987755 
3.1501955e+2, 3.0462617e+2, -33521.016, -126659.34, 4299.929, 0.07208268, 0.27316663, -33322.92, -33322.92, 0.0, 10.000246, 9.999011 
3.1502253e+2, 3.146258e+2, 7768.064, -46698.89, 236.19527, 0.09756243, 0.33090502, 7769.088, 7769.088, 0.0, 10.00027, 9.999549 
3.2498202e+2, 1.24633715e+2, -1686145.6, -1684791.4, -10511.355, 0.022184396, 0.45312756, -1674935.4, 43699.918, 0.00000007294155, 10.000128, 10.000145 
3.249845e+2, 1.3463393e+2, -1607421.8, -1602039.8, 3142.475, -0.017847685, 0.4647695, -1600593.5, 20038.08, 0.00000000003860718, 10.000021, 10.0000925 
3.249865e+2, 1.4463362e+2, -1532522.6, -1533599.5, -24281.725, -0.07357515, 0.4345299, -1508773.4, 13859.803, 0.0, 9.999942, 9.999927 
3.2498875e+2, 1.5463346e+2, -1442383.4, -1438450.6, -25666.973, -0.059322864, 0.42470413, -1414674.8, 9958.691, 0.0, 9.999884, 9.999935 
3.2499087e+2, 1.646332e+2, -1359493.9, -1363552.1, -35081.438, -0.041818466, 0.41163263, -1326383.0, 252.01497, 0.0, 9.999848, 9.999794 
3.2499287e+2, 1.7463283e+2, -1261470.1, -1263679.0, -33730.55, -0.026084617, 0.3920104, -1228826.0, -188.73851, 0.0, 9.99984, 9.99981 
3.2499477e+2, 1.8463245e+2, -1173599.3, -1188734.4, -31997.246, -0.013872304, 0.3832361, -1148286.9, -17646.84, 0.0, 9.999848, 9.999648 
3.249967e+2, 1.9463214e+2, -1070451.4, -1086658.3, -28165.867, -0.003917119, 0.38498652, -1049246.4, -16603.496, 0.0, 9.999877, 9.999661 
3.2499856e+2, 2.0463178e+2, -970176.4, -987957.8, -27269.455, 0.0007244974, 0.38297537, -950384.9, -15738.8545, 0.0, 9.999894, 9.999659 
3.2500038e+2, 2.1463138e+2, -870063.25, -886690.0, -30654.182, -0.0015149271, 0.3745195, -846615.1, -9966.283, 0.0, 9.999899, 9.999679 
3.2500216e+2, 2.2463086e+2, -774334.4, -800357.44, -36840.39, 0.0001851999, 0.36122498, -748275.3, -9622.473, 0.0, 9.999929, 9.999583 
3.2500398e+2, 2.3463026e+2, -666479.0, -695645.0, -38656.973, 0.006874092, 0.3408526, -639745.8, 911.64935, 0.0, 9.999989, 9.999601 
3.2500586e+2, 2.446297e+2, -577670.1, -628685.0, -31822.783, 0.012127106, 0.33591118, -562393.75, -19731.543, 0.0, 10.00004, 9.999363 
3.2500783e+2, 2.546292e+2, -472438.2, -525741.6, -31495.094, 0.015386857, 0.34572908, -457831.5, -13164.976, 0.0, 10.000083, 9.999376 
3.2501006e+2, 2.6462826e+2, -393825.16, -469066.8, -24603.324, 0.034917675, 0.3311866, -386494.34, -39819.7, 0.0, 10.000088, 9.99909 
3.250126e+2, 2.7462694e+2, -300684.75, -372053.22, -25258.674, 0.07418226, 0.2890622, -292649.84, -43963.49, 0.0, 10.000049, 9.999103 
3.2501504e+2, 2.8462604e+2, -216922.83, -304581.63, -13034.4375, 0.09493132, 0.29779768, -215025.73, -64330.984, 0.0, 10.000053, 9.998891 
3.250174e+2, 2.9462552e+2, -110408.72, -201461.69, -4338.5474, 0.091715686, 0.35579297, -110202.46, -57502.92, 0.0, 10.000108, 9.998899 
3.2501975e+2, 3.0462357e+2, -43380.523, -111809.56, 16273.284, 0.07215047, 0.2574855, -39707.67, -39707.67, 0.0, 10.000093, 9.9991865 
3.2502258e+2, 3.1462336e+2, -22404.582, -46363.39, 14555.164, 0.08947809, 0.3143307, -15533.02, -15533.02, 0.0, 10.0, 9.999681 
3.3498207e+2, 1.24630794e+2, -1684391.3, -1680529.1, -15201.691, 0.012683485, 0.4451454, -1667136.4, 51526.453, 0.00000025481785, 10.000126, 10.000175 
3.3498454e+2, 1.3463093e+2, -1606224.0, -1599134.8, -785.6651, -0.017008653, 0.44795534, -1599048.6, 21611.004, 0.0000000058941185, 10.000019, 10.0001135 
3.349864e+2, 1.4463066e+2, -1531541.6, -1531195.4, -26481.566, -0.075219825, 0.41901168, -1504886.4, 17774.676, 0.0, 9.99994, 9.999944 
3.3498862e+2, 1.5463054e+2, -1441318.5, -1436031.0, -27852.215, -0.059725795, 0.41018194, -1410697.4, 13964.081, 0.0, 9.999883, 9.999952 
3.349907e+2, 1.6463035e+2, -1356736.3, -1357693.9, -35488.668, -0.041960273, 0.4029387, -1321723.1, 4939.2603, 0.0, 9.999847, 9.999834 
3.3499268e+2, 1.7463014e+2, -1258746.5, -1257933.8, -33990.383, -0.027487295, 0.39495757, -1224347.4, 4316.305, 0.0, 9.99984, 9.99985 
3.349946e+2, 1.8462984e+2, -1167013.9, -1174990.4, -30973.32, -0.01445112, 0.38626346, -1139773.1, -9107.481, 0.0, 9.999848, 9.9997425 
3.349966e+2, 1.9462949e+2, -1063680.9, -1072562.5, -27054.535, -0.0010913005, 0.37481266, -1040705.1, -8037.244, 0.0, 9.999877, 9.999759 
3.3499843e+2, 2.0462908e+2, -976477.5, -1000993.6, -27043.72, 0.00097034714, 0.3684053, -959043.4, -24372.371, 0.0, 9.999894, 9.999569 
3.3500016e+2, 2.1462865e+2, -876853.0, -900792.2, -30426.828, -0.010773021, 0.36560383, -856126.06, -19451.266, 0.0, 9.999899, 9.999581 
3.35002e+2, 2.246281e+2, -777766.1, -807537.6, -34679.6, -0.008558243, 0.3575797, -754912.5, -16233.167, 0.0, 9.999929, 9.999535 
3.3500397e+2, 2.3462752e+2, -669785.4, -702555.06, -36419.734, 0.010241296, 0.34226707, -646234.5, -5550.401, 0.0, 9.999989, 9.999554 
3.35006e+2, 2.446269e+2, -577712.3, -628815.1, -30217.049, 0.023167063, 0.33381775, -563691.7, -21002.416, 0.0, 10.00004, 9.999362 
3.3500805e+2, 2.5462624e+2, -472264.25, -525374.6, -29895.688, 0.029024584, 0.3301609, -458832.8, -14138.472, 0.0, 10.000083, 9.999379 
3.3501026e+2, 2.646253e+2, -395101.63, -471693.1, -26042.707, 0.044642467, 0.31539777, -387085.53, -40382.91, 0.0, 10.000088, 9.999072 
3.3501264e+2, 2.7462414e+2, -301963.75, -374687.2, -26775.898, 0.07238891, 0.2880922, -293168.8, -44455.047, 0.0, 10.000049, 9.999084 
3.350151e+2, 2.8462327e+2, -201540.39, -272585.78, -11135.759, 0.08985595, 0.29263973, -199835.84, -49114.36, 0.0, 10.000052, 9.99911 
3.350175e+2, 2.9462275e+2, -94325.484, -167965.34, -2261.2458, 0.09304933, 0.32509565, -94256.11, -41530.688, 0.0, 10.000107, 9.99913 
3.3501983e+2, 3.0462098e+2, -28580.006, -80991.54, 12924.484, 0.07326649, 0.22416094, -25566.182, -25566.182, 0.0, 10.000093, 9.999398 
3.3502245e+2, 3.146211e+2, -10641.513, -22029.895, 10710.681, 0.077549934, 0.29433843, -4205.473, -4205.473, 0.0, 10.0, 9.999848 
3.449819e+2, 1.2462803e+2, -1708703.1, -1695938.1, -7962.7734, -0.008114138, 0.4382426, -1692115.6, 26572.94, 0.00000066099744, 9.999974, 10.000142 
3.449845e+2, 1.3462809e+2, -1626969.6, -1614365.6, 2201.199, -0.01618944, 0.43578136, -1613992.3, 6694.655, 0.000000050287014, 9.9999, 10.000067 
3.4498632e+2, 1.4462785e+2, -1536786.4, -1526090.5, -21824.436, -0.07277041, 0.41044432, -1508968.4, 13719.694, 0.0000000000012273421, 9.999871, 10.000012 
3.449885e+2, 1.5462784e+2, -1435515.8, -1425103.0, -19087.566, -0.059788313, 0.40539536, -1410524.5, 14162.707, 0.0, 9.999887, 10.000025 
3.4499058e+2, 1.646277e+2, -1350920.1, -1359183.3, -26437.967, -0.042955827, 0.40182325, -1328292.9, -1605.0474, 0.0, 9.999906, 9.999796 
3.4499255e+2, 1.7462748e+2, -1248830.3, -1257938.3, -31186.27, -0.027944697, 0.39752957, -1221867.3, 6822.5884, 0.0, 9.999928, 9.999807 
3.4499452e+2, 1.8462716e+2, -1153799.8, -1165325.1, -34157.594, -0.015244045, 0.3884817, -1124922.1, 5769.688, 0.0, 9.999925, 9.999772 
3.4499645e+2, 1.946268e+2, -1059200.4, -1066792.9, -35100.06, -0.0031168042, 0.3720681, -1027691.9, 5001.737, 0.0, 9.999892, 9.999791 
3.4499833e+2, 2.0462634e+2, -982191.5, -1010371.75, -36085.375, 0.000117998345, 0.36136562, -957542.94, -22845.855, 0.0, 9.999884, 9.99951 
3.450001e+2, 2.146258e+2, -880890.3, -909745.7, -36837.105, -0.00766456, 0.3549243, -855756.25, -19054.162, 0.0, 9.999902, 9.999518 
3.45002e+2, 2.2462524e+2, -781025.6, -812098.6, -37973.027, -0.0031816212, 0.34895507, -755533.7, -16826.617, 0.0, 9.99992, 9.999508 
3.45004e+2, 2.3462473e+2, -678849.2, -709848.75, -38006.457, 0.01586399, 0.34244195, -653303.5, -12592.083, 0.0, 9.999939, 9.999528 
3.4500605e+2, 2.446241e+2, -587078.75, -626940.5, -29519.217, 0.027958827, 0.33361766, -571391.9, -28675.672, 0.0, 9.9999485, 9.999419 
3.4500808e+2, 2.5462338e+2, -487834.53, -526049.5, -24800.387, 0.03179814, 0.31897038, -475634.6, -30913.363, 0.0, 9.999947, 9.99944 
3.4501028e+2, 2.646225e+2, -413504.6, -478516.0, -18553.703, 0.04555121, 0.30190787, -408582.22, -61853.04, 0.0, 9.999953, 9.99909 
3.4501263e+2, 2.746214e+2, -312574.84, -377957.8, -16753.22, 0.07155867, 0.2821673, -308532.1, -59792.285, 0.0, 9.999968, 9.999101 
3.4501505e+2, 2.8462058e+2, -209561.02, -262481.44, -3300.2756, 0.08921491, 0.2838191, -209355.98, -58608.957, 0.0, 9.999938, 9.999235 
3.4501752e+2, 2.9462004e+2, -121976.336, -166829.17, -1970.6359, 0.094996504, 0.30175057, -121889.92, -69139.5, 0.0, 9.999855, 9.999259 
3.4501982e+2, 3.046184e+2, -59977.492, -82099.1, 5208.545, 0.07348725, 0.20042613, -58812.49, -58812.49, 0.0, 9.999818, 9.999524 
3.450223e+2, 3.1461868e+2, -29706.842, -22192.783, -3751.04, 0.06594584, 0.2757079, -20640.805, -20640.805, 0.0, 9.99983, 9.999929 
3.5498154e+2, 1.2462544e+2, -1716031.3, -1710376.1, -11805.631, -0.040781997, 0.43232894, -1701064.3, 17648.475, 0.0000013452728, 9.999971, 10.000045 
3.549844e+2, 1.3462535e+2, -1635306.9, -1631283.8, -498.37042, -0.01565727, 0.4282321, -1631223.0, -10509.792, 0.00000017487064, 9.999898, 9.999951 
3.5498628e+2, 1.4462519e+2, -1528708.4, -1509030.0, -21281.467, -0.066487305, 0.40880185, -1495423.3, 27290.701, 0.0000000006565857, 9.999869, 10.00013 
3.5498837e+2, 1.5462537e+2, -1426755.0, -1406657.5, -18459.834, -0.05974558, 0.41028416, -1395688.6, 29022.133, 0.0, 9.9998865, 10.000152 
3.5499048e+2, 1.6462524e+2, -1359304.8, -1376398.4, -25646.068, -0.044957668, 0.40826097, -1340818.9, -14107.612, 0.0, 9.999905, 9.999678 
3.5499248e+2, 1.7462486e+2, -1257753.6, -1276414.9, -30298.35, -0.02754311, 0.3997177, -1235381.8, -6666.164, 0.0, 9.999928, 9.9996805 
3.5499442e+2, 1.8462445e+2, -1156344.5, -1170590.6, -35329.03, -0.016354017, 0.38987398, -1127427.6, 3291.1763, 0.0, 9.999925, 9.999736 
3.5499626e+2, 1.9462408e+2, -1061522.4, -1071601.6, -36283.81, -0.010098967, 0.37670922, -1029929.9, 2790.2634, 0.0, 9.999892, 9.999758 
3.549982e+2, 2.0462355e+2, -984261.75, -1014663.9, -35452.77, -0.0019202982, 0.36184427, -960888.56, -26164.459, 0.0, 9.999884, 9.99948 
3.5500014e+2, 2.1462287e+2, -882865.4, -913836.56, -36102.598, 0.0077056666, 0.34246612, -859067.4, -22336.664, 0.0, 9.999902, 9.999491 
3.550021e+2, 2.2462226e+2, -781405.6, -812912.6, -37253.39, 0.016214432, 0.33532402, -756711.75, -17975.742, 0.0, 9.99992, 9.999502 
3.5500404e+2, 2.3462187e+2, -679146.5, -710526.1, -37276.414, 0.023702336, 0.34135842, -654392.5, -13653.211, 0.0, 9.999939, 9.999523 
3.5500598e+2, 2.4462132e+2, -579027.6, -610283.94, -29578.684, 0.02644643, 0.33528996, -561202.25, -18459.133, 0.0, 9.9999485, 9.999534 
3.5500798e+2, 2.5462064e+2, -479469.97, -508679.8, -24903.086, 0.02359684, 0.31214207, -465205.03, -20457.873, 0.0, 9.999947, 9.999559 
3.5501015e+2, 2.6461977e+2, -409776.38, -470733.3, -18074.34, 0.03753895, 0.29071683, -404820.13, -58065.75, 0.0, 9.999952, 9.999145 
3.550126e+2, 2.7461874e+2, -309074.66, -370596.2, -16234.555, 0.07166548, 0.2712971, -305053.47, -56288.902, 0.0, 9.999968, 9.999151 
3.55015e+2, 2.8461796e+2, -207547.83, -258174.27, -6332.9653, 0.09294205, 0.27131933, -206767.64, -55996.234, 0.0, 9.999937, 9.999266 
3.550174e+2, 2.946174e+2, -119941.53, -162540.88, -5101.501, 0.09738207, 0.2857073, -119339.12, -66564.55, 0.0, 9.999854, 9.999289 
3.550196e+2, 3.0461583e+2, -57269.71, -76503.17, 5515.992, 0.07257937, 0.18624596, -55800.066, -55800.066, 0.0, 9.999818, 9.999562 
3.5502198e+2, 3.146161e+2, -29835.207, -22671.723, -3283.7515, 0.053875916, 0.2568005, -21394.258, -21394.258, 0.0, 9.999831, 9.999926 
3.6498138e+2, 1.2462272e+2, -1710479.3, -1709577.1, -16545.559, -0.055197816, 0.41767406, -1693476.5, 25261.498, 0.000002293197, 10.000017, 10.000029 
3.6498427e+2, 1.3462266e+2, -1623356.8, -1629217.6, 2392.1882, -0.021980485, 0.41894463, -1622504.3, -1765.7074, 0.00000039420158, 9.999995, 9.999918 
3.6498612e+2, 1.4462253e+2, -1516774.0, -1506346.0, -19517.035, -0.07397832, 0.40654913, -1491358.5, 31380.84, 0.000000005977529, 9.999965, 10.000102 
3.6498827e+2, 1.5462269e+2, -1424659.8, -1408504.5, -28378.637, -0.059652034, 0.40879413, -1387076.3, 37660.43, 0.0, 9.999913, 10.000126 
3.6499038e+2, 1.6462259e+2, -1364087.8, -1378077.8, -36610.63, -0.041241914, 0.40883046, -1333809.9, -7072.5913, 0.0, 9.999869, 9.999683 
3.649924e+2, 1.7462224e+2, -1270043.4, -1281466.4, -31128.18, -0.025133273, 0.40386763, -1244107.1, -15365.8, 0.0, 9.99984, 9.999688 
3.649943e+2, 1.8462181e+2, -1170253.8, -1176517.8, -29824.041, -0.016714107, 0.39136705, -1143397.8, -12653.217, 0.0, 9.9998255, 9.9997425 
3.649961e+2, 1.9462137e+2, -1070114.0, -1074948.8, -27804.645, -0.014878108, 0.3682742, -1044621.9, -11875.499, 0.0, 9.999829, 9.999765 
3.64998e+2, 2.0462081e+2, -995228.94, -1022144.8, -24706.688, -0.0043600723, 0.35187423, -980552.6, -45802.156, 0.0, 9.999818, 9.99946 
3.6500007e+2, 2.1462017e+2, -901085.4, -924911.1, -24842.465, 0.01541921, 0.34068155, -885447.1, -48690.43, 0.0, 9.999786, 9.99947 
3.6500204e+2, 2.2461958e+2, -801951.3, -824216.75, -24750.566, 0.026532223, 0.33541057, -785945.0, -47183.02, 0.0, 9.999784, 9.99949 
3.6500394e+2, 2.3461911e+2, -697541.56, -720726.06, -25335.947, 0.02791611, 0.33586258, -681271.8, -40506.133, 0.0, 9.999819, 9.999511 
3.6500585e+2, 2.4461852e+2, -594893.7, -618712.6, -22971.967, 0.026208613, 0.32613558, -580927.56, -38157.73, 0.0, 9.999843, 9.999527 
3.6500782e+2, 2.5461784e+2, -492868.28, -515910.3, -27908.385, 0.020715347, 0.30172056, -474196.38, -29422.275, 0.0, 9.999858, 9.999553 
3.6501005e+2, 2.6461703e+2, -420161.75, -469462.03, -26310.822, 0.034681883, 0.28270212, -408757.9, -61977.043, 0.0, 9.999854, 9.9992 
3.6501247e+2, 2.7461612e+2, -324981.97, -371686.53, -23981.898, 0.071964465, 0.2697995, -314860.97, -66071.13, 0.0, 9.99983, 9.99921 
3.6501488e+2, 2.8461534e+2, -224917.61, -264943.0, -15913.11, 0.09342117, 0.26869974, -219362.05, -68565.73, 0.0, 9.999811, 9.99928 
3.6501718e+2, 2.9461467e+2, -127146.85, -164483.45, -15951.652, 0.09465351, 0.27343273, -121259.89, -68459.78, 0.0, 9.999799, 9.999303 
3.650194e+2, 3.0461317e+2, -64752.684, -79388.72, -6296.77, 0.073928796, 0.17625868, -62416.547, -62416.547, 0.0, 9.999763, 9.999569 
3.6502182e+2, 3.1461346e+2, -51319.836, -36939.57, -17493.354, 0.0625247, 0.25009477, -25216.338, -25216.338, 0.0, 9.9997, 9.99989 
3.7498143e+2, 1.24619894e+2, -1706297.1, -1700310.5, -18952.113, -0.05158399, 0.39399996, -1684116.8, 34647.69, 0.000003431768, 10.000014, 10.000093 
3.7498415e+2, 1.3462001e+2, -1620180.6, -1622297.3, 1673.3495, -0.035365522, 0.40786135, -1619259.0, 1504.0372, 0.0000006949508, 9.999993, 9.999967 
3.7498587e+2, 1.446199e+2, -1529141.9, -1531720.3, -21365.98, -0.09539619, 0.40362597, -1509026.3, 13737.796, 0.00000001953993, 9.999964, 9.999928 
3.749882e+2, 1.5461983e+2, -1437523.5, -1435006.4, -30373.604, -0.059601378, 0.40086633, -1405865.3, 18899.71, 0.0, 9.999912, 9.999945 
3.7499034e+2, 1.6461973e+2, -1355115.3, -1359344.6, -37862.992, -0.031913966, 0.40345043, -1319307.9, 7458.1245, 0.0, 9.999868, 9.999812 
3.7499228e+2, 1.7461963e+2, -1260208.4, -1260994.9, -32213.52, -0.020889455, 0.4098973, -1228385.8, 381.07266, 0.0, 9.99984, 9.999828 
3.749941e+2, 1.8461926e+2, -1166795.6, -1169325.8, -29719.61, -0.016467044, 0.39291474, -1138314.3, -7545.2446, 0.0, 9.9998255, 9.999792 
3.7499592e+2, 1.9461863e+2, -1066865.1, -1068200.3, -27604.383, -0.017508347, 0.34675035, -1039920.3, -7147.9785, 0.0, 9.999829, 9.999811 
3.749978e+2, 2.0461808e+2, -995941.2, -1023623.4, -25787.959, -0.007258934, 0.33141485, -980514.6, -45738.48, 0.0, 9.999818, 9.999451 
3.7499985e+2, 2.1461774e+2, -901976.56, -926798.75, -25979.879, 0.015396011, 0.34956196, -885595.5, -48815.414, 0.0, 9.999786, 9.999457 
3.7500182e+2, 2.2461718e+2, -803368.4, -827237.6, -23545.705, 0.027656384, 0.34926277, -788905.4, -50120.37, 0.0, 9.999785, 9.999469 
3.7500376e+2, 2.3461646e+2, -698843.2, -723491.6, -24073.264, 0.028437754, 0.32599688, -684122.9, -43332.297, 0.0, 9.999819, 9.999492 
3.7500575e+2, 2.4461569e+2, -603899.6, -637466.0, -22397.63, 0.027163537, 0.3061578, -592694.8, -49898.445, 0.0, 9.999843, 9.999398 
3.7500772e+2, 2.5461495e+2, -502220.5, -535353.3, -27349.027, 0.023077728, 0.28769335, -486811.7, -42009.61, 0.0, 9.999858, 9.999419 
3.7500992e+2, 2.6461416e+2, -416129.97, -461088.47, -27236.305, 0.036891095, 0.27782276, -403294.47, -56485.79, 0.0, 9.999854, 9.999258 
3.7501234e+2, 2.7461347e+2, -320439.06, -362154.53, -24945.66, 0.072264224, 0.27765048, -308780.2, -59964.52, 0.0, 9.999829, 9.999276 
3.750147e+2, 2.8461272e+2, -225173.45, -265341.94, -16444.5, 0.09040401, 0.2759944, -219300.08, -68478.27, 0.0, 9.99981, 9.999277 
3.750169e+2, 2.946119e+2, -127436.67, -164964.06, -16444.799, 0.08676696, 0.26489362, -121250.266, -68423.18, 0.0, 9.999798, 9.999299 
3.750192e+2, 3.0461037e+2, -66586.484, -83136.15, -8626.106, 0.077431455, 0.17037761, -62907.97, -62907.97, 0.0, 9.999763, 9.999543 
3.7502182e+2, 3.1461075e+2, -55774.535, -46225.51, -19693.645, 0.09073992, 0.25357676, -30735.88, -30735.88, 0.0, 9.9997, 9.999826 
3.849814e+2, 1.2461726e+2, -1698305.6, -1689011.0, -13928.206, -0.06068419, 0.37784457, -1678975.3, 39813.953, 0.000004652705, 10.000038, 10.000159 
3.8498408e+2, 1.3461743e+2, -1626476.6, -1619856.8, 8337.3125, -0.037423965, 0.39150447, -1614196.4, 6590.555, 0.0000010439659, 9.999927, 10.000015 
3.8498572e+2, 1.4461735e+2, -1550125.5, -1553676.3, -10857.59, -0.100946896, 0.39269987, -1540899.1, -18111.178, 0.000000039313953, 9.99987, 9.999823 
3.8498807e+2, 1.5461722e+2, -1451262.1, -1454033.4, -14682.237, -0.06160918, 0.39481345, -1437900.3, -13109.671, 0.0, 9.999871, 9.999833 
3.8499025e+2, 1.646171e+2, -1346965.1, -1347075.5, -20371.184, -0.032681186, 0.39970407, -1326649.0, 142.84483, 0.0, 9.999889, 9.9998865 
3.8499212e+2, 1.746171e+2, -1241641.5, -1242953.8, -19148.383, -0.023271823, 0.40548062, -1223138.0, 5653.114, 0.0, 9.999928, 9.999909 
3.8499397e+2, 1.8461673e+2, -1155650.6, -1168006.8, -23455.145, -0.018596983, 0.38770023, -1137573.6, -6780.6914, 0.0, 9.99992, 9.999756 
3.8499576e+2, 1.9461605e+2, -1065882.9, -1072350.4, -28016.5, -0.017225705, 0.34052116, -1040914.1, -8116.9937, 0.0, 9.999856, 9.99977 
3.8499764e+2, 2.0461549e+2, -995379.9, -1027772.44, -29553.041, -0.005642462, 0.32722422, -977876.0, -43074.645, 0.0, 9.999841, 9.999411 
3.849997e+2, 2.1461515e+2, -891124.4, -926077.3, -31733.744, 0.01708812, 0.3510716, -872373.0, -35567.81, 0.0, 9.999881, 9.999417 
3.8500172e+2, 2.2461459e+2, -783944.0, -817369.6, -28490.863, 0.027936159, 0.3503052, -767625.8, -28815.627, 0.0, 9.999916, 9.999474 
3.850036e+2, 2.3461379e+2, -679581.6, -713396.8, -26965.385, 0.025572091, 0.31916, -664661.56, -23845.598, 0.0, 9.999948, 9.999499 
3.850056e+2, 2.4461296e+2, -597155.75, -641262.7, -24537.664, 0.025846055, 0.2954549, -586217.5, -43395.13, 0.0, 9.99992, 9.999335 
3.850076e+2, 2.5461215e+2, -511704.97, -547329.7, -24575.55, 0.028744642, 0.27787268, -499165.44, -54336.348, 0.0, 9.9998255, 9.999352 
3.8500977e+2, 2.646114e+2, -425952.03, -457535.75, -21124.148, 0.04140103, 0.27027193, -415369.44, -68533.93, 0.0, 9.999751, 9.999331 
3.8501203e+2, 2.7461082e+2, -333202.94, -359323.63, -17797.807, 0.06608796, 0.27385855, -324187.63, -75346.66, 0.0, 9.999703, 9.999356 
3.8501433e+2, 2.8461006e+2, -246268.67, -272968.7, -7583.7056, 0.07954834, 0.27153945, -244265.0, -93418.43, 0.0, 9.999655, 9.9993 
3.850165e+2, 2.9460925e+2, -154038.22, -175446.89, -5771.617, 0.07834429, 0.2549666, -152581.38, -99728.92, 0.0, 9.999605, 9.99932 
3.8501883e+2, 3.046078e+2, -94027.305, -94052.06, 4061.7412, 0.07492614, 0.16732033, -89977.92, -89977.92, 0.0, 9.999564, 9.999563 
3.8502145e+2, 3.1460828e+2, -81105.56, -60028.746, -3383.8972, 0.09310702, 0.25687084, -59498.785, -59498.785, 0.0, 9.999534, 9.999812 
3.949812e+2, 1.2461483e+2, -1694103.1, -1679714.5, -19928.97, -0.08275224, 0.36895496, -1665721.0, 53090.996, 0.000005817951, 10.000035, 10.000224 
3.949841e+2, 1.3461491e+2, -1623329.8, -1613035.8, 4239.542, -0.028209418, 0.36981386, -1611514.5, 9295.641, 0.0000013925978, 9.999926, 10.000063 
3.9498568e+2, 1.4461488e+2, -1553022.5, -1559439.0, -10979.3545, -0.09070448, 0.37372628, -1544792.3, -21981.305, 0.00000005997622, 9.999869, 9.9997835 
3.9498788e+2, 1.5461484e+2, -1454282.9, -1460125.3, -14659.983, -0.06586097, 0.39061785, -1442255.9, -17442.41, 0.0, 9.99987, 9.999792 
3.9499e+2, 1.6461475e+2, -1345775.0, -1344497.4, -18979.459, -0.04371704, 0.39756927, -1326146.0, 668.8131, 0.0, 9.999888, 9.999905 
3.9499196e+2, 1.7461461e+2, -1240160.3, -1239853.5, -17635.467, -0.03231032, 0.39060807, -1222370.8, 6443.5537, 0.0, 9.9999275, 9.999931 
3.9499384e+2, 1.8461424e+2, -1164372.4, -1186136.1, -25687.979, -0.023153625, 0.3757061, -1147356.4, -16540.111, 0.0, 9.99992, 9.999631 
3.9499563e+2, 1.9461364e+2, -1074941.0, -1091218.4, -30353.814, -0.014102087, 0.3496178, -1051653.6, -18832.918, 0.0, 9.999856, 9.99964 
3.9499757e+2, 2.04613e+2, -1000281.56, -1038025.4, -28175.295, 0.0003931997, 0.33935583, -985241.9, -50415.777, 0.0, 9.999841, 9.99934 
3.9499962e+2, 2.1461242e+2, -895850.6, -935932.9, -30174.248, 0.020397501, 0.34521505, -879668.4, -42836.336, 0.0, 9.999881, 9.99935 
3.9500162e+2, 2.2461177e+2, -781894.06, -813160.94, -27268.135, 0.02729303, 0.33849692, -766095.75, -27258.205, 0.0, 9.999916, 9.999502 
3.950035e+2, 2.3461108e+2, -677252.5, -708597.9, -25793.816, 0.019238545, 0.31532913, -662743.2, -21901.264, 0.0, 9.999948, 9.999532 
3.9500546e+2, 2.446103e+2, -597023.75, -641026.2, -27957.244, 0.022153312, 0.2940202, -583448.9, -40600.996, 0.0, 9.99992, 9.999336 
3.9500752e+2, 2.5460944e+2, -511741.9, -547386.1, -28195.434, 0.03763681, 0.27227995, -496208.22, -51353.03, 0.0, 9.999825, 9.999352 
3.9500958e+2, 2.646087e+2, -419688.16, -444490.9, -23046.844, 0.048107255, 0.26010618, -405917.97, -59056.56, 0.0, 9.999751, 9.999421 
3.950116e+2, 2.7460814e+2, -326709.34, -345793.06, -19656.914, 0.053384155, 0.25847214, -314400.78, -65534.996, 0.0, 9.999703, 9.999449 
3.9501375e+2, 2.8460747e+2, -243044.97, -266200.88, -9538.219, 0.06079506, 0.255344, -239622.05, -88751.34, 0.0, 9.999654, 9.999347 
3.95016e+2, 2.9460675e+2, -151004.88, -168961.77, -7731.498, 0.069224305, 0.24373707, -148134.75, -95258.48, 0.0, 9.999604, 9.999365 
3.950183e+2, 3.0460545e+2, -89713.336, -84951.445, 2803.7102, 0.06625114, 0.1671587, -83654.12, -83654.12, 0.0, 9.999564, 9.999626 
3.9502075e+2, 3.14606e+2, -78885.96, -55436.055, -4262.827, 0.06883612, 0.25746974, -54685.18, -54685.18, 0.0, 9.999534, 9.999844 
4.0498108e+2, 1.2461262e+2, -1698648.0, -1685628.3, -4615.038, -0.09683144, 0.3580346, -1684158.4, 34673.773, 0.0000067594556, 10.000021, 10.000191 
4.049841e+2, 1.3461256e+2, -1615003.9, -1615118.0, 14052.572, -0.02543134, 0.34983835, -1601008.3, 19823.646, 0.0000016759602, 10.000009, 10.000009 
4.0498564e+2, 1.4461255e+2, -1533165.6, -1549759.1, -1630.861, -0.09006585, 0.35974184, -1533006.9, -10174.158, 0.00000007424828, 10.000006, 9.999784 
4.0498778e+2, 1.5461272e+2, -1434712.1, -1450439.9, -2089.6904, -0.070050985, 0.3954871, -1434439.3, -9605.506, 0.0, 10.000004, 9.999794 
4.0498987e+2, 1.6461259e+2, -1335116.9, -1346563.0, -7403.7817, -0.051099528, 0.4035945, -1331482.1, -4646.8145, 0.0, 9.999992, 9.99984 
4.0499187e+2, 1.7461221e+2, -1238034.1, -1246289.9, -12683.669, -0.0410652, 0.3771126, -1228823.5, 13.494835, 0.0, 9.999975, 9.999865 
4.049937e+2, 1.8461171e+2, -1168291.5, -1205036.3, -26748.543, -0.03006595, 0.36089215, -1154213.5, -23373.107, 0.0, 9.999967, 9.999479 
4.0499553e+2, 1.9461115e+2, -1069475.0, -1106035.6, -33517.754, -0.01535286, 0.35480002, -1049576.6, -16731.328, 0.0, 9.9999695, 9.999484 
4.0499747e+2, 2.046105e+2, -979957.2, -1026924.8, -27494.547, 0.0027329717, 0.34882063, -967282.5, -32431.36, 0.0, 9.999974, 9.999352 
4.0499958e+2, 2.1460979e+2, -879757.3, -925982.4, -22914.389, 0.023881378, 0.34054348, -870323.56, -33465.996, 0.0, 9.999982, 9.999369 
4.0500155e+2, 2.2460909e+2, -779680.8, -815464.4, -20524.447, 0.029704046, 0.32872602, -770344.5, -31481.203, 0.0, 9.999947, 9.999472 
4.050034e+2, 2.3460841e+2, -691953.5, -719278.1, -24135.146, 0.017864138, 0.3111141, -677882.0, -37014.242, 0.0, 9.999863, 9.9995 
4.050053e+2, 2.4460769e+2, -612824.0, -643770.0, -29094.26, 0.019585418, 0.29417333, -595344.2, -52470.844, 0.0, 9.99979, 9.99938 
4.050073e+2, 2.546069e+2, -521561.72, -546789.5, -25952.15, 0.037000515, 0.27523836, -505320.38, -60440.504, 0.0, 9.999735, 9.999399 
4.0500927e+2, 2.6460615e+2, -427375.88, -440333.03, -19285.576, 0.047637474, 0.25710773, -413509.78, -66624.01, 0.0, 9.999664, 9.999492 
4.0501124e+2, 2.746055e+2, -339766.84, -344104.16, -17585.123, 0.050941516, 0.23929389, -324217.16, -75326.79, 0.0, 9.999579, 9.99952 
4.050133e+2, 2.8460488e+2, -268607.4, -278450.03, -10605.467, 0.057164818, 0.23617093, -261837.05, -110942.12, 0.0, 9.999478, 9.999347 
4.0501547e+2, 2.9460433e+2, -186619.39, -186257.94, -12426.693, 0.06542831, 0.24383837, -174010.66, -121111.12, 0.0, 9.99936, 9.999364 
4.0501767e+2, 3.0460322e+2, -118861.62, -84164.41, 1530.1946, 0.059822895, 0.17533147, -84097.05, -84097.05, 0.0, 9.9993, 9.999759 
4.0502e+2, 3.1460366e+2, -104100.71, -55352.754, 506.76013, 0.05208251, 0.24494517, -55347.49, -55347.49, 0.0, 9.999308, 9.999952 
4.1498104e+2, 1.2461066e+2, -1708269.3, -1705176.8, -7460.309, -0.102901444, 0.34503195, -1699104.1, 19745.422, 0.0000073152505, 10.000019, 10.000057 
4.1498408e+2, 1.346104e+2, -1626128.5, -1637994.3, 13685.841, -0.029205266, 0.3315787, -1617144.9, 3707.3364, 0.0000018222407, 10.000008, 9.999852 
4.1498554e+2, 1.4461042e+2, -1530649.5, -1544331.5, -1659.72, -0.0991832, 0.35076332, -1530451.0, -7597.9277, 0.00000007352536, 10.000005, 9.999823 
4.1498777e+2, 1.5461084e+2, -1431630.1, -1443916.4, -2168.5967, -0.074227124, 0.40950537, -1431258.5, -6407.2544, 0.0, 10.000003, 9.99984 
4.149898e+2, 1.6461068e+2, -1345617.3, -1368333.9, -8156.4355, -0.054819137, 0.41788536, -1342992.0, -16138.8, 0.0, 9.999992, 9.999691 
4.1499174e+2, 1.7460988e+2, -1248995.8, -1269039.8, -13336.306, -0.049631085, 0.36502552, -1242335.5, -13476.318, 0.0, 9.999974, 9.999708 
4.1499358e+2, 1.8460916e+2, -1181033.9, -1231493.3, -26679.652, -0.03948617, 0.34326103, -1169543.8, -38678.637, 0.0, 9.999967, 9.999297 
4.1499546e+2, 1.946086e+2, -1082326.9, -1132778.6, -33327.92, -0.021043146, 0.356025, -1065754.5, -32883.68, 0.0, 9.9999695, 9.999301 
4.1499743e+2, 2.0460795e+2, -973342.1, -1013296.94, -27226.813, 0.0013386745, 0.3556217, -959549.8, -24673.354, 0.0, 9.999975, 9.999446 
4.149996e+2, 2.1460725e+2, -872265.06, -910531.4, -22579.27, 0.027437957, 0.33708254, -861802.6, -24920.857, 0.0, 9.999982, 9.999475 
4.1500157e+2, 2.246065e+2, -785919.75, -828480.2, -23545.727, 0.035021037, 0.32100275, -775462.8, -36575.254, 0.0, 9.999947, 9.999383 
4.150033e+2, 2.3460577e+2, -698880.0, -733700.9, -27275.648, 0.021386547, 0.3064879, -683931.75, -43038.3, 0.0, 9.999863, 9.999401 
4.1500506e+2, 2.446051e+2, -606853.75, -631402.9, -31293.922, 0.018080676, 0.29591084, -585513.2, -42614.38, 0.0, 9.99979, 9.999465 
4.1500694e+2, 2.546045e+2, -515013.84, -533206.44, -28102.215, 0.02676949, 0.2867264, -494572.44, -49669.152, 0.0, 9.999735, 9.999493 
4.1500884e+2, 2.6460376e+2, -423798.6, -432917.06, -22540.074, 0.03989653, 0.26128218, -405361.28, -58452.563, 0.0, 9.999664, 9.999543 
4.1501087e+2, 2.7460286e+2, -336445.63, -337108.9, -20887.861, 0.05863041, 0.21635453, -315886.78, -66972.016, 0.0, 9.999578, 9.999569 
4.1501287e+2, 2.8460228e+2, -271958.72, -285249.3, -15060.938, 0.068457834, 0.2140753, -262142.19, -111222.84, 0.0, 9.999477, 9.999301 
4.1501483e+2, 2.94602e+2, -190175.22, -193565.11, -17013.203, 0.066786714, 0.25520858, -174772.73, -121850.44, 0.0, 9.99936, 9.999313 
4.1501695e+2, 3.04601e+2, -104797.555, -54860.26, 1538.9521, 0.055447623, 0.19178899, -54812.88, -54812.88, 0.0, 9.999299, 9.99996 
4.1501918e+2, 3.1460124e+2, -91320.23, -28494.957, 1225.6698, 0.041607823, 0.21656966, -28471.055, -28471.055, 0.0, 9.999306, 10.000138 
4.249811e+2, 1.2460867e+2, -1684437.9, -1700007.1, -13240.989, -0.1115277, 0.333151, -1676862.6, 42005.13, 0.000007399852, 10.00021, 10.000001 
4.249841e+2, 1.3460833e+2, -1603492.4, -1635683.9, 16610.752, -0.034340452, 0.31944987, -1596458.3, 24413.22, 0.0000017914846, 10.0002, 9.999775 
4.2498556e+2, 1.4460832e+2, -1506371.8, -1534903.8, 1785.9039, -0.10751791, 0.34132, -1506260.4, 16612.395, 0.000000055205398, 10.000181, 9.999802 
4.2498782e+2, 1.5460879e+2, -1412584.6, -1436760.9, -3676.5854, -0.074694715, 0.40381065, -1412037.9, 12832.789, 0.0, 10.000143, 9.999821 
4.249899e+2, 1.6460858e+2, -1337766.1, -1379735.4, -11659.502, -0.053425934, 0.41584182, -1334744.5, -7871.372, 0.0, 10.000112, 9.999555 
4.2499173e+2, 1.7460765e+2, -1241653.5, -1281219.1, -15667.544, -0.053479727, 0.3663815, -1236200.8, -7320.0225, 0.0, 10.0000925, 9.999568 
4.2499357e+2, 1.8460684e+2, -1167665.5, -1230190.0, -22922.0, -0.044528596, 0.34358594, -1160162.4, -29274.434, 0.0, 10.00008, 9.999251 
4.2499545e+2, 1.9460617e+2, -1069888.6, -1131511.0, -18944.828, -0.022639936, 0.35025024, -1064530.3, -31635.902, 0.0, 10.000075, 9.999258 
4.2499745e+2, 2.0460549e+2, -961908.44, -1006437.25, -11093.195, 0.00030266083, 0.34739268, -959297.9, -24397.75, 0.0, 10.000048, 9.999457 
4.2499954e+2, 2.1460481e+2, -869774.6, -907645.9, -13450.258, 0.02365197, 0.33046338, -865483.8, -28579.0, 0.0, 9.999992, 9.99949 
4.2500147e+2, 2.2460407e+2, -788832.2, -832490.9, -17201.281, 0.031547803, 0.31302497, -782869.4, -43958.71, 0.0, 9.999938, 9.999359 
4.2500317e+2, 2.3460324e+2, -697249.1, -735720.56, -15547.846, 0.021839034, 0.29375142, -691751.3, -50833.785, 0.0, 9.999886, 9.999375 
4.250049e+2, 2.4460259e+2, -599752.75, -626645.8, -18726.723, 0.019064099, 0.28604952, -590145.0, -47222.152, 0.0, 9.999833, 9.999476 
4.2500666e+2, 2.5460213e+2, -507048.94, -527786.5, -21567.793, 0.024233093, 0.28843972, -493486.97, -48560.832, 0.0, 9.999783, 9.999507 
4.2500848e+2, 2.6460138e+2, -425898.94, -433865.9, -24625.701, 0.03678673, 0.26367047, -404936.6, -58005.234, 0.0, 9.99965, 9.999543 
4.2501038e+2, 2.7460042e+2, -359056.25, -347932.22, -26880.898, 0.058312442, 0.20646778, -326043.94, -77105.555, 0.0, 9.999423, 9.999569 
4.2501226e+2, 2.8459975e+2, -299431.94, -299276.22, -18247.58, 0.06818656, 0.2017843, -281106.34, -130163.086, 0.0, 9.999292, 9.999293 
4.2501414e+2, 2.945996e+2, -203343.11, -200667.55, -16933.81, 0.0635105, 0.2522946, -185018.75, -132073.1, 0.0, 9.999272, 9.999307 
4.2501613e+2, 3.0459866e+2, -120138.56, -60126.125, -3619.6714, 0.05188801, 0.1963363, -59908.594, -59908.594, 0.0, 9.999185, 9.999979 
4.250183e+2, 3.1459883e+2, -133336.19, -49050.676, -17774.602, 0.036695268, 0.2111584, -45455.61, -45455.61, 0.0, 9.999019, 10.000135 
4.3498117e+2, 1.2460666e+2, -1683249.0, -1697198.9, -16496.0, -0.12305519, 0.32223174, -1672314.0, 46572.8, 0.0000070344795, 10.000208, 10.000021 
4.3498427e+2, 1.3460635e+2, -1603359.6, -1635282.0, 16322.775, -0.040942922, 0.31348705, -1596491.1, 24398.627, 0.0000016069694, 10.000199, 9.999779 
4.3498567e+2, 1.4460628e+2, -1512206.8, -1546840.6, 419.02142, -0.11515456, 0.3314635, -1512201.6, 10689.963, 0.000000030249723, 10.00018, 9.999721 
4.34988e+2, 1.5460649e+2, -1418493.6, -1448907.5, -5180.308, -0.071528435, 0.37824756, -1417635.5, 7256.1704, 0.0, 10.000142, 9.999738 
4.3499005e+2, 1.6460626e+2, -1346432.6, -1397697.3, -12496.487, -0.047026094, 0.39728323, -1343548.6, -16653.64, 0.0, 10.000112, 9.999432 
4.349918e+2, 1.7460555e+2, -1250457.8, -1299531.5, -16374.176, -0.052703343, 0.38122192, -1245496.0, -16594.219, 0.0, 10.0000925, 9.999442 
4.3499362e+2, 1.8460475e+2, -1161412.4, -1217287.6, -23153.086, -0.045284115, 0.36200926, -1153065.4, -22156.408, 0.0, 10.00008, 9.99934 
4.3499553e+2, 1.9460386e+2, -1062931.5, -1117168.1, -19069.025, -0.020230329, 0.3374915, -1056898.1, -23982.031, 0.0, 10.000075, 9.999356 
4.3499747e+2, 2.0460309e+2, -966744.06, -1016580.75, -13080.228, -0.00048614672, 0.32405525, -963519.6, -28597.355, 0.0, 10.000048, 9.999388 
4.349994e+2, 2.1460249e+2, -875101.44, -918835.1, -15487.686, 0.012453194, 0.32069921, -870172.25, -33245.5, 0.0, 9.999992, 9.999413 
4.3500128e+2, 2.2460172e+2, -785861.56, -826400.25, -19171.133, 0.01921635, 0.3048468, -778231.5, -39298.777, 0.0, 9.999938, 9.999401 
4.35003e+2, 2.3460083e+2, -693928.2, -728873.75, -17509.545, 0.019138884, 0.2729564, -686664.75, -45724.81, 0.0, 9.999886, 9.999423 
4.3500477e+2, 2.4460016e+2, -603976.25, -635466.7, -20711.64, 0.022419332, 0.26460862, -593704.44, -50759.08, 0.0, 9.999833, 9.999416 
4.350065e+2, 2.5459975e+2, -511659.0, -537392.1, -23532.365, 0.029260594, 0.28042603, -497705.4, -52756.945, 0.0, 9.999783, 9.999441 
4.3500814e+2, 2.6459906e+2, -429409.06, -441208.25, -32980.598, 0.03817601, 0.2642966, -401804.56, -54850.727, 0.0, 9.99965, 9.999493 
4.3500972e+2, 2.7459803e+2, -362516.1, -355177.2, -35507.313, 0.049895313, 0.20961475, -323150.22, -74188.89, 0.0, 9.999423, 9.999519 
4.3501145e+2, 2.8459734e+2, -297153.22, -294531.5, -19331.441, 0.05624654, 0.1993084, -276466.53, -125499.8, 0.0, 9.999292, 9.999327 
4.3501332e+2, 2.9459706e+2, -200940.94, -195526.33, -17778.695, 0.055568255, 0.23531248, -180249.98, -127280.336, 0.0, 9.999271, 9.999343 
4.350153e+2, 3.0459616e+2, -131752.8, -84013.87, -9659.44, 0.049092308, 0.18915546, -82133.45, -82133.45, 0.0, 9.999184, 9.999816 
4.3501735e+2, 3.1459638e+2, -146871.08, -76906.7, -23349.406, 0.03633494, 0.22577657, -69830.02, -69830.02, 0.0, 9.999018, 9.999945 
4.449813e+2, 1.2460472e+2, -1662689.8, -1686211.9, -12231.49, -0.13665003, 0.30929336, -1657482.3, 61422.785, 0.00000631539, 10.000345, 10.00003 
4.449845e+2, 1.3460444e+2, -1579214.0, -1624455.1, 23061.646, -0.04378193, 0.3051985, -1569530.9, 51376.63, 0.0000013346397, 10.000369, 9.999771 
4.449859e+2, 1.4460431e+2, -1488321.4, -1543376.6, 5763.8804, -0.12028416, 0.32016066, -1487724.4, 35185.32, 0.000000013876045, 10.000379, 9.999648 
4.449882e+2, 1.5460432e+2, -1391385.6, -1444136.1, 689.5835, -0.07621941, 0.3542037, -1391376.6, 33534.93, 0.0, 10.000364, 9.999664 
4.4499025e+2, 1.6460404e+2, -1325750.4, -1401115.4, -7365.2466, -0.051263306, 0.37713414, -1325037.4, 1878.3523, 0.0, 10.000312, 9.999312 
4.4499195e+2, 1.7460342e+2, -1241074.6, -1308686.4, -11028.184, -0.056386128, 0.38437995, -1239321.3, -10398.755, 0.0, 10.0002165, 9.99932 
4.449937e+2, 1.8460263e+2, -1146799.3, -1206971.4, -17850.088, -0.048436385, 0.371481, -1141902.5, -10972.628, 0.0, 10.000167, 9.99937 
4.4499564e+2, 1.9460166e+2, -1046758.6, -1105380.8, -18455.24, -0.022889907, 0.33333638, -1041432.5, -8495.216, 0.0, 10.00017, 9.9993925 
4.4499755e+2, 2.0460083e+2, -956206.94, -1016157.1, -16144.11, -0.002914002, 0.31434992, -952135.9, -17192.24, 0.0, 10.00014, 9.999347 
4.4499946e+2, 2.146002e+2, -866377.8, -919676.8, -16299.328, 0.009954968, 0.31513467, -861788.5, -24840.086, 0.0, 10.000074, 9.999368 
4.4500124e+2, 2.2459944e+2, -773085.7, -817115.7, -19084.19, 0.017563613, 0.29976052, -765965.4, -27010.926, 0.0, 10.000012, 9.999429 
4.4500294e+2, 2.3459855e+2, -681713.44, -719471.3, -18624.256, 0.019268584, 0.2637722, -674073.0, -33111.438, 0.0, 9.999954, 9.9994545 
4.450046e+2, 2.4459787e+2, -599186.4, -630331.75, -20925.71, 0.023346169, 0.25331524, -588674.7, -45707.92, 0.0, 9.999854, 9.999441 
4.4500622e+2, 2.545975e+2, -521150.28, -539264.94, -17134.643, 0.029882453, 0.26955056, -510826.4, -65856.93, 0.0, 9.999705, 9.999465 
4.4500774e+2, 2.6459682e+2, -441808.1, -452414.88, -24860.78, 0.036796268, 0.2562049, -421691.3, -74716.54, 0.0, 9.999587, 9.999446 
4.450091e+2, 2.745958e+2, -354194.75, -356771.38, -27560.785, 0.044512, 0.20679294, -327892.2, -78909.45, 0.0, 9.999504, 9.99947 
4.4501072e+2, 2.845951e+2, -284135.75, -283916.75, -9664.851, 0.05080308, 0.19497378, -274360.78, -123372.37, 0.0, 9.999363, 9.999365 
4.450125e+2, 2.9459476e+2, -215314.52, -197765.02, -7736.169, 0.054789122, 0.22192693, -194841.72, -141850.28, 0.0, 9.999153, 9.999385 
4.4501442e+2, 3.0459392e+2, -166512.16, -107763.016, 2953.1592, 0.05031516, 0.18422063, -107614.94, -107614.94, 0.0, 9.998975, 9.999753 
4.450162e+2, 3.1459424e+2, -179615.27, -101897.195, -2391.4553, 0.033459205, 0.23673849, -101823.68, -101823.68, 0.0, 9.998833, 9.999862 
4.5498148e+2, 1.2460284e+2, -1663202.4, -1686757.1, -14923.506, -0.152873, 0.29386318, -1655968.8, 62953.887, 0.0000053674253, 10.000343, 10.000028 
4.5498487e+2, 1.346026e+2, -1580614.0, -1627253.0, 24102.965, -0.042909026, 0.2945151, -1570396.1, 50528.305, 0.0000010357217, 10.000368, 9.999753 
4.5498624e+2, 1.4460239e+2, -1492828.5, -1552617.1, 5253.7207, -0.12303607, 0.30730435, -1492370.4, 30556.734, 0.000000007555667, 10.000379, 9.999585 
4.5498842e+2, 1.5460224e+2, -1396062.5, -1453733.8, 102.43649, -0.08902226, 0.33173853, -1396062.4, 28867.713, 0.0, 10.000363, 9.9995985 
4.549904e+2, 1.6460188e+2, -1334062.0, -1418360.5, -10902.45, -0.06635374, 0.35549438, -1332674.8, -5739.371, 0.0, 10.000311, 9.999194 
4.5499206e+2, 1.7460129e+2, -1249500.5, -1326202.4, -14611.719, -0.06461868, 0.37575904, -1246811.3, -17868.139, 0.0, 10.0002165, 9.9992 
4.5499384e+2, 1.846005e+2, -1148977.8, -1211526.4, -17912.146, -0.05406726, 0.37186807, -1144211.4, -13260.682, 0.0, 10.000167, 9.999338 
4.5499572e+2, 1.9459954e+2, -1048674.6, -1109467.0, -18332.62, -0.030688604, 0.3378227, -1043574.1, -10616.251, 0.0, 10.00017, 9.999364 
4.5499766e+2, 2.0459868e+2, -957116.5, -1018173.56, -18565.967, -0.0070523703, 0.31835198, -951914.3, -16949.898, 0.0, 10.000141, 9.999332 
4.5499957e+2, 2.1459799e+2, -867330.75, -921746.56, -18760.834, 0.0160796, 0.31378302, -861489.6, -24519.799, 0.0, 10.000074, 9.999353 
4.5500135e+2, 2.2459723e+2, -772126.2, -815191.2, -21254.875, 0.02651145, 0.29778045, -763402.8, -24426.89, 0.0, 10.000012, 9.999442 
4.5500293e+2, 2.3459639e+2, -680615.1, -717245.06, -20806.068, 0.02215916, 0.26618126, -671211.3, -30228.865, 0.0, 9.999954, 9.99947 
4.5500445e+2, 2.4459575e+2, -591410.6, -614273.3, -26441.063, 0.021786867, 0.25216296, -574035.6, -31048.559, 0.0, 9.999854, 9.999552 
4.5500588e+2, 2.5459537e+2, -513170.7, -522767.72, -22801.324, 0.026029903, 0.25583923, -494668.44, -49679.24, 0.0, 9.999705, 9.999578 
4.5500728e+2, 2.645947e+2, -444862.1, -458797.88, -28104.232, 0.03256776, 0.2394386, -422874.84, -75880.54, 0.0, 9.999587, 9.999402 
4.550086e+2, 2.7459368e+2, -357739.06, -364163.13, -30713.238, 0.04208303, 0.1981176, -330070.38, -81067.77, 0.0, 9.999504, 9.999419 
4.5501012e+2, 2.8459302e+2, -281062.06, -277524.63, -17412.799, 0.051729582, 0.18885843, -261790.94, -110782.62, 0.0, 9.999362, 9.99941 
4.5501176e+2, 2.9459268e+2, -212052.9, -190893.25, -15736.09, 0.06098319, 0.21204057, -182511.08, -129500.016, 0.0, 9.999152, 9.999433 
4.5501342e+2, 3.0459198e+2, -164130.05, -102599.055, -2415.4373, 0.05540244, 0.1815201, -102504.38, -102504.38, 0.0, 9.998974, 9.999789 
4.5501497e+2, 3.1459242e+2, -178223.84, -98699.22, -7028.3013, 0.027389107, 0.24217704, -98082.84, -98082.84, 0.0, 9.998831, 9.999885 
4.64982e+2, 1.2460117e+2, -1624305.0, -1673754.0, -7037.36, -0.15078007, 0.28475988, -1623322.9, 95615.24, 0.000004304928, 10.000635, 9.999975 
4.6498534e+2, 1.3460092e+2, -1550405.8, -1620351.1, 32233.1, -0.044791702, 0.29111385, -1537817.3, 83122.92, 0.0000007438799, 10.000608, 9.999684 
4.649866e+2, 1.4460064e+2, -1469470.8, -1543826.5, 10504.065, -0.13204968, 0.30098024, -1468015.4, 54927.867, 0.0000000034677494, 10.000549, 9.999563 
4.649888e+2, 1.5460034e+2, -1386423.8, -1451476.9, 8488.262, -0.093142346, 0.31296146, -1385334.4, 39612.67, 0.0, 10.000441, 9.9995775 
4.6499074e+2, 1.645999e+2, -1329470.4, -1427570.9, 740.6424, -0.0692465, 0.33445966, -1329464.8, -2511.655, 0.0, 10.000392, 9.999092 
4.6499234e+2, 1.745993e+2, -1227555.8, -1327533.0, -1892.8861, -0.0703896, 0.36432472, -1227520.0, 1441.653, 0.0, 10.000419, 9.999093 
4.6499404e+2, 1.8459848e+2, -1118032.4, -1206046.4, -5872.1377, -0.061112415, 0.36625963, -1117642.4, 13327.725, 0.0, 10.00042, 9.999253 
4.6499595e+2, 1.9459744e+2, -1022390.25, -1106164.4, -10495.721, -0.037113626, 0.33360785, -1021095.25, 11882.767, 0.0, 10.000391, 9.99928 
4.649978e+2, 2.0459656e+2, -932138.6, -1004439.4, -15451.338, -0.0123021295, 0.31503633, -928974.94, 6009.859, 0.0, 10.000305, 9.999348 
4.6499968e+2, 2.145959e+2, -854561.44, -913568.2, -13407.151, 0.012516947, 0.3109433, -851658.0, -14668.196, 0.0, 10.000154, 9.999372 
4.6500134e+2, 2.2459514e+2, -773630.56, -817810.94, -15207.452, 0.025173826, 0.29618382, -768902.06, -29906.246, 0.0, 10.0000105, 9.999425 
4.6500286e+2, 2.345943e+2, -693282.56, -725449.56, -17377.893, 0.023709983, 0.26666492, -685687.56, -44684.973, 0.0, 9.999877, 9.999451 
4.650043e+2, 2.4459365e+2, -600095.8, -607151.4, -26187.645, 0.025287788, 0.24751268, -577199.44, -34192.246, 0.0, 9.999746, 9.999653 
4.650056e+2, 2.5459325e+2, -518240.1, -513431.47, -23261.34, 0.0304093, 0.23774943, -492450.53, -47441.668, 0.0, 9.99962, 9.999683 
4.6500686e+2, 2.6459262e+2, -457392.72, -458968.9, -24896.71, 0.03705174, 0.21936396, -433271.63, -86258.53, 0.0, 9.9994755, 9.9994545 
4.6500802e+2, 2.745918e+2, -382639.94, -370660.1, -20076.635, 0.045685325, 0.18956861, -355698.88, -106678.9, 0.0, 9.99931, 9.999468 
4.6500936e+2, 2.8459117e+2, -312571.78, -296891.53, -7301.4746, 0.052960932, 0.18476829, -294018.16, -142992.63, 0.0, 9.999165, 9.999372 
4.650108e+2, 2.9459077e+2, -231042.83, -204714.55, -12521.788, 0.058152087, 0.20413369, -199710.31, -146680.81, 0.0, 9.999042, 9.999391 
4.6501234e+2, 3.045901e+2, -166993.84, -90281.47, 718.31476, 0.05412044, 0.17585817, -90274.74, -90274.74, 0.0, 9.998896, 9.999911 
4.6501383e+2, 3.1459066e+2, -186421.3, -89368.484, 3480.4746, 0.032628555, 0.23801363, -89243.83, -89243.83, 0.0, 9.998718, 10.000003 
4.7498283e+2, 1.24599725e+2, -1631754.5, -1688806.3, -12385.275, -0.13075438, 0.28143045, -1629181.9, 89769.86, 0.0000032345054, 10.000633, 9.999873 
4.749859e+2, 1.3459945e+2, -1558845.0, -1637696.8, 31388.348, -0.04965978, 0.2950436, -1547876.1, 73078.33, 0.00000048107097, 10.0006075, 9.999566 
4.74987e+2, 1.4459907e+2, -1468365.6, -1541357.0, 6516.399, -0.14766817, 0.3013023, -1467788.4, 55169.77, 0.000000000765976, 10.000548, 9.999581 
4.749893e+2, 1.5459864e+2, -1384945.0, -1448328.8, 4342.769, -0.088668205, 0.29793683, -1384648.9, 40313.613, 0.0, 10.00044, 9.999599 
4.749912e+2, 1.6459809e+2, -1335632.4, -1440384.0, 1406.5275, -0.059947852, 0.31405377, -1335613.5, -8644.408, 0.0, 10.000392, 9.999004 
4.749927e+2, 1.7459747e+2, -1234113.0, -1341190.3, -896.407, -0.07387481, 0.350109, -1234105.5, -5127.493, 0.0, 10.000419, 9.999 
4.749944e+2, 1.8459655e+2, -1127750.3, -1226275.3, -6918.274, -0.0697922, 0.35474303, -1127266.9, 3720.8616, 0.0, 10.00042, 9.999115 
4.7499627e+2, 1.9459537e+2, -1032190.56, -1126593.9, -11585.422, -0.042260636, 0.32065436, -1030789.56, 2208.235, 0.0, 10.000391, 9.99914 
4.7499806e+2, 2.0459445e+2, -929124.6, -998271.44, -21008.43, -0.018718323, 0.3043451, -923242.25, 11762.728, 0.0, 10.000305, 9.99939 
4.7499967e+2, 2.145939e+2, -851019.94, -906346.25, -19109.346, -0.00081560656, 0.30662793, -845061.44, -8052.994, 0.0, 10.000154, 9.999421 
4.7500122e+2, 2.2459319e+2, -776949.1, -824799.25, -20264.977, 0.0134355575, 0.29497227, -769520.1, -30505.996, 0.0, 10.0000105, 9.999377 
4.7500274e+2, 2.3459229e+2, -697014.94, -733259.5, -22413.271, 0.023854826, 0.2652474, -686314.1, -45292.063, 0.0, 9.999877, 9.999397 
4.750041e+2, 2.4459158e+2, -593669.06, -593933.75, -30984.793, 0.033745192, 0.23946527, -562816.3, -19789.236, 0.0, 9.999746, 9.999743 
4.7500533e+2, 2.5459114e+2, -511344.75, -499256.6, -28023.564, 0.042906366, 0.21532804, -476632.75, -31604.234, 0.0, 9.99962, 9.999781 
4.7500646e+2, 2.6459065e+2, -447045.16, -437592.03, -31123.38, 0.050136425, 0.19598182, -410838.38, -63807.188, 0.0, 9.9994755, 9.999601 
4.7500744e+2, 2.7459008e+2, -372285.2, -349185.63, -26368.09, 0.055166103, 0.18108751, -331948.72, -82913.75, 0.0, 9.99931, 9.999616 
4.7500855e+2, 2.8458953e+2, -321024.25, -314391.34, -11933.605, 0.0543292, 0.18264183, -305321.94, -154281.84, 0.0, 9.999164, 9.999252 
4.7500974e+2, 2.9458895e+2, -240394.42, -223998.81, -17122.922, 0.046266526, 0.1982201, -213212.45, -160165.64, 0.0, 9.999042, 9.999258 
4.7501114e+2, 3.0458835e+2, -152651.61, -60324.855, -5776.143, 0.04644335, 0.16730168, -59964.89, -59964.89, 0.0, 9.998895, 10.000118 
4.750127e+2, 3.1458905e+2, -171683.58, -58541.574, -2683.45, 0.04827699, 0.2225145, -58477.965, -58477.965, 0.0, 9.998716, 10.000216 
4.8498362e+2, 1.245984e+2, -1615653.9, -1692438.8, -8472.284, -0.12278274, 0.27884984, -1614730.1, 104233.55, 0.000002270887, 10.000793, 9.999771 
4.849866e+2, 1.3459794e+2, -1540253.1, -1641942.4, 40059.83, -0.05073668, 0.2877962, -1526367.9, 94600.5, 0.0000002759338, 10.000792, 9.999448 
4.849876e+2, 1.4459746e+2, -1443006.5, -1538113.3, 8545.358, -0.15571606, 0.29208994, -1442244.8, 80728.5, 0.000000000009128432, 10.000761, 9.9995 
4.8498985e+2, 1.5459697e+2, -1355049.1, -1442892.8, -1593.2555, -0.08961667, 0.2914178, -1355020.3, 69957.625, 0.0, 10.000684, 9.999518 
4.8499173e+2, 1.6459636e+2, -1304700.6, -1431835.3, -4078.2097, -0.057193633, 0.306756, -1304570.0, 22415.074, 0.0, 10.000632, 9.998947 
4.8499325e+2, 1.7459562e+2, -1210158.3, -1335990.1, -3441.6492, -0.07103092, 0.33784246, -1210064.1, 18930.79, 0.0, 10.00061, 9.998942 
4.8499492e+2, 1.8459466e+2, -1109210.1, -1222559.4, -6496.0474, -0.06806874, 0.3425021, -1108839.1, 22166.139, 0.0, 10.00057, 9.999067 
4.8499674e+2, 1.9459349e+2, -1018558.6, -1125228.4, -4236.6465, -0.043241635, 0.3143009, -1018390.6, 14624.899, 0.0, 10.000507, 9.999093 
4.8499838e+2, 2.0459256e+2, -913155.5, -987995.9, -14590.968, -0.02243184, 0.29814786, -910411.44, 24611.496, 0.0, 10.000404, 9.999413 
4.849998e+2, 2.1459197e+2, -834875.1, -895655.06, -14713.045, -0.0071737845, 0.2936268, -831500.9, 5525.701, 0.0, 10.000252, 9.999447 
4.850012e+2, 2.2459127e+2, -763388.1, -814675.94, -14062.958, 0.007741397, 0.28075457, -759785.2, -20753.191, 0.0, 10.000089, 9.999409 
4.8500264e+2, 2.3459046e+2, -689923.7, -726367.44, -9878.844, 0.022638552, 0.25678402, -687418.1, -46378.84, 0.0, 9.99991, 9.999428 
4.850039e+2, 2.4458979e+2, -586358.5, -583053.9, -14569.577, 0.03474916, 0.23122515, -570043.2, -26999.441, 0.0, 9.999765, 9.999809 
4.85005e+2, 2.5458935e+2, -501058.63, -486778.88, -13892.5205, 0.04341217, 0.20063582, -478298.9, -33254.08, 0.0, 9.99966, 9.999848 
4.8500597e+2, 2.645889e+2, -442082.72, -430985.16, -25302.344, 0.05079662, 0.18096048, -410630.3, -63583.492, 0.0, 9.999493, 9.999639 
4.8500675e+2, 2.7458847e+2, -378085.16, -348008.1, -29224.96, 0.05663861, 0.17300713, -330179.38, -81129.74, 0.0, 9.999253, 9.999651 
4.8500767e+2, 2.8458792e+2, -339089.38, -326925.3, -13614.298, 0.054684516, 0.17579122, -318096.28, -167041.5, 0.0, 9.999057, 9.999217 
4.8500866e+2, 2.9458725e+2, -262311.2, -238806.27, -11839.394, 0.04335434, 0.18598314, -233876.66, -180813.95, 0.0, 9.99891, 9.99922 
4.8501e+2, 3.0458662e+2, -161362.58, -56672.242, -1322.3142, 0.04615765, 0.15216856, -56655.543, -56655.543, 0.0, 9.998801, 10.000188 
4.8501152e+2, 3.1458738e+2, -164371.7, -47108.81, -8955.301, 0.057119034, 0.20393886, -46428.84, -46428.84, 0.0, 9.9987335, 10.000286 
4.949844e+2, 1.245972e+2, -1623449.4, -1707910.1, -13465.478, -0.12772006, 0.27670774, -1621354.6, 97619.56, 0.0000015131092, 10.000791, 9.999666 
4.949874e+2, 1.3459647e+2, -1548748.1, -1659420.5, 40164.973, -0.048162073, 0.2693312, -1535708.0, 85273.79, 0.00000014199817, 10.000791, 9.999329 
4.9498835e+2, 1.4459583e+2, -1455783.5, -1564441.3, 5660.646, -0.15642604, 0.2733288, -1455489.4, 67499.09, 0.0, 10.00076, 9.99932 
4.9499044e+2, 1.5459536e+2, -1368090.1, -1469810.6, -4600.72, -0.09630267, 0.29348457, -1367882.5, 57110.82, 0.0, 10.000683, 9.999334 
4.9499235e+2, 1.6459468e+2, -1306614.9, -1435806.9, -5094.525, -0.06126699, 0.31266898, -1306414.4, 20586.816, 0.0, 10.000632, 9.9989195 
4.9499395e+2, 1.7459376e+2, -1211564.8, -1338973.8, -4283.691, -0.06196809, 0.32758746, -1211420.9, 17591.486, 0.0, 10.00061, 9.998922 
4.9499556e+2, 1.8459278e+2, -1106140.4, -1216206.9, -8868.591, -0.055993646, 0.32957518, -1105430.4, 25592.217, 0.0, 10.00057, 9.999111 
4.9499726e+2, 1.9459178e+2, -1015337.44, -1118580.4, -6607.9673, -0.04014151, 0.31460735, -1014916.2, 18115.096, 0.0, 10.000507, 9.999139 
4.9499878e+2, 2.0459087e+2, -912917.94, -987585.25, -20179.32, -0.023570437, 0.29650733, -907813.3, 27225.38, 0.0, 10.000404, 9.999415 
4.9500006e+2, 2.1459007e+2, -834698.5, -895424.56, -20429.809, -0.00665231, 0.27194548, -828465.2, 8579.031, 0.0, 10.000253, 9.999449 
4.9500132e+2, 2.2458938e+2, -755507.94, -798442.06, -20712.723, 0.00799098, 0.25354928, -747144.6, -8095.092, 0.0, 10.000089, 9.99952 
4.950025e+2, 2.3458879e+2, -681810.25, -709647.9, -16562.12, 0.019985909, 0.24130504, -674094.94, -33040.62, 0.0, 9.999911, 9.999543 
4.950036e+2, 2.4458829e+2, -583534.4, -577293.9, -18732.07, 0.028233245, 0.22276302, -561423.94, -18366.73, 0.0, 9.999765, 9.999848 
4.9500453e+2, 2.545879e+2, -498527.2, -481598.53, -17891.146, 0.031854644, 0.1936456, -470270.5, -25212.652, 0.0, 9.99966, 9.999884 
4.9500534e+2, 2.6458743e+2, -447149.53, -441560.38, -34114.234, 0.038918268, 0.17430541, -410126.44, -63066.324, 0.0, 9.999493, 9.999566 
4.950059e+2, 2.7458692e+2, -383525.38, -359338.4, -38226.652, 0.050089154, 0.1653592, -331337.88, -82273.85, 0.0, 9.999252, 9.999574 
4.950067e+2, 2.845863e+2, -335759.75, -319953.34, -19248.793, 0.05401115, 0.16422114, -307048.47, -155978.81, 0.0, 9.999056, 9.999266 
4.9500763e+2, 2.9458565e+2, -258740.78, -231235.56, -17329.463, 0.049293693, 0.1674094, -222864.78, -169787.52, 0.0, 9.998909, 9.999272 
4.950089e+2, 3.0458492e+2, -166216.19, -66537.36, -3839.88, 0.053083654, 0.130492, -66389.66, -66389.66, 0.0, 9.9988, 10.00012 
4.9501026e+2, 3.145856e+2, -169758.45, -57972.13, -11176.77, 0.058633007, 0.18100141, -56865.594, -56865.594, 0.0, 9.998732, 10.000213 
5.0498533e+2, 1.2459589e+2, -1586342.6, -1704065.4, -17668.303, -0.12569843, 0.26092443, -1583748.1, 135237.28, 0.0000009949754, 10.001106, 9.99954 
5.049884e+2, 1.3459507e+2, -1526494.0, -1664369.1, 39696.254, -0.042962614, 0.25836357, -1515881.6, 105112.67, 0.000000065122016, 10.001011, 9.999188 
5.049892e+2, 1.445943e+2, -1436337.6, -1570371.1, 5691.832, -0.15424925, 0.26374453, -1436096.4, 86906.2, 0.0, 10.00096, 9.999184 
5.0499123e+2, 1.545937e+2, -1339672.9, -1471560.5, -1209.9633, -0.09763199, 0.2842213, -1339661.8, 85347.03, 0.0, 10.000945, 9.999196 
5.049931e+2, 1.6459292e+2, -1273826.1, -1420855.8, -968.8087, -0.062473077, 0.3018939, -1273819.8, 53197.71, 0.0, 10.000861, 9.998912 
5.0499463e+2, 1.7459196e+2, -1199526.9, -1333474.1, 981.0511, -0.058223184, 0.31323957, -1199519.6, 29508.95, 0.0, 10.000695, 9.9989195 
5.049962e+2, 1.8459101e+2, -1108802.3, -1218736.5, -4661.132, -0.05185107, 0.31660965, -1108605.0, 22433.773, 0.0, 10.000557, 9.9991 
5.0499773e+2, 1.9459006e+2, -1024284.8, -1124280.8, -6880.5605, -0.04117591, 0.30887884, -1023813.56, 9233.778, 0.0, 10.000452, 9.999126 
5.049991e+2, 2.0458917e+2, -920040.56, -987919.44, -23637.65, -0.02627136, 0.29361916, -912620.3, 22434.422, 0.0, 10.000342, 9.999443 
5.050003e+2, 2.1458839e+2, -836443.0, -892965.25, -21995.615, -0.006747141, 0.26672795, -828892.1, 8168.212, 0.0, 10.000227, 9.999478 
5.050014e+2, 2.2458775e+2, -743257.56, -777217.5, -20924.51, 0.0070547727, 0.24702583, -733290.25, 5774.6143, 0.0, 10.000107, 9.999658 
5.050024e+2, 2.3458733e+2, -661556.4, -684136.25, -14918.671, 0.014049168, 0.23449765, -654137.25, -13069.469, 0.0, 9.999983, 9.999683 
5.050033e+2, 2.4458691e+2, -575784.2, -568685.94, -16932.426, 0.021017293, 0.21632887, -554934.7, -11865.177, 0.0, 9.999798, 9.999892 
5.050041e+2, 2.5458658e+2, -512712.9, -484190.94, -16032.116, 0.027694277, 0.18860543, -476994.88, -31925.229, 0.0, 9.999544, 9.999922 
5.0500476e+2, 2.6458606e+2, -467806.97, -458144.94, -30623.654, 0.03722785, 0.16653684, -431973.6, -84901.24, 0.0, 9.999379, 9.999506 
5.0500524e+2, 2.7458543e+2, -378424.84, -364148.78, -33867.82, 0.05024533, 0.15008214, -336674.97, -87597.234, 0.0, 9.99932, 9.999508 
5.0500584e+2, 2.845848e+2, -316476.6, -308645.34, -17031.27, 0.05551948, 0.14730592, -295085.38, -144001.63, 0.0, 9.999181, 9.999283 
5.050066e+2, 2.9458416e+2, -251912.14, -225740.1, -17749.24, 0.05149763, 0.15578839, -216774.36, -163683.84, 0.0, 9.998946, 9.999291 
5.050077e+2, 3.045835e+2, -172876.17, -70075.055, -249.98041, 0.057128385, 0.11908079, -70074.45, -70074.45, 0.0, 9.998756, 10.000117 
5.05009e+2, 3.1458408e+2, -187883.25, -67227.56, -2442.3389, 0.066010445, 0.16220364, -67178.14, -67178.14, 0.0, 9.99861, 10.000207 
5.149865e+2, 1.2459447e+2, -1597137.4, -1725891.4, -26791.97, -0.117686786, 0.23119648, -1591784.9, 127212.48, 0.00000067894854, 10.001103, 9.999392 
5.1498944e+2, 1.3459376e+2, -1537920.9, -1687899.1, 36166.17, -0.035365324, 0.2550478, -1529655.3, 91350.76, 0.000000029496794, 10.00101, 9.999028 
5.149902e+2, 1.4459288e+2, -1443194.8, -1584450.6, 4965.595, -0.14949085, 0.26348764, -1443020.4, 79995.08, 0.0, 10.000959, 9.999087 
5.1499224e+2, 1.5459199e+2, -1346224.6, -1485063.8, -1880.2036, -0.093806736, 0.2637334, -1346199.3, 78825.25, 0.0, 10.000944, 9.999104 
5.1499397e+2, 1.645911e+2, -1273263.1, -1419627.1, -7119.9224, -0.060944125, 0.27450642, -1272917.6, 54116.35, 0.0, 10.00086, 9.99892 
5.149953e+2, 1.7459026e+2, -1198637.3, -1331639.9, -5362.176, -0.059947878, 0.29479074, -1198421.5, 30622.38, 0.0, 10.000694, 9.998932 
5.149967e+2, 1.8458933e+2, -1113554.6, -1228637.5, -8780.197, -0.05581691, 0.3035912, -1112888.5, 18165.293, 0.0, 10.000557, 9.999032 
5.149981e+2, 1.9458832e+2, -1029308.94, -1134785.9, -10876.152, -0.04644874, 0.29708162, -1028199.1, 4864.575, 0.0, 10.000452, 9.999055 
5.149994e+2, 2.0458749e+2, -916350.2, -980345.06, -28003.068, -0.030582502, 0.289431, -905826.94, 29244.055, 0.0, 10.000342, 9.9994955 
5.150005e+2, 2.1458693e+2, -832442.4, -884783.06, -26339.021, -0.0075250827, 0.27796435, -821482.8, 15592.139, 0.0, 10.000227, 9.999534 
5.150015e+2, 2.2458643e+2, -731896.06, -753772.94, -25586.967, 0.00481731, 0.2611867, -715007.5, 24070.547, 0.0, 10.000108, 9.999818 
5.1500225e+2, 2.3458603e+2, -649840.4, -659964.75, -19590.328, 0.00477722, 0.23634426, -634668.75, 6411.0356, 0.0, 9.999983, 9.999849 
5.1500297e+2, 2.4458566e+2, -572445.25, -561911.75, -26345.852, 0.013027428, 0.21190694, -540311.4, 2769.2988, 0.0, 9.999799, 9.999938 
5.150037e+2, 2.545854e+2, -509893.66, -478471.78, -25600.31, 0.030827431, 0.18549223, -464145.9, -19065.604, 0.0, 9.999544, 9.999961 
5.150042e+2, 2.645848e+2, -471297.72, -465462.22, -33160.957, 0.0456631, 0.15766865, -435090.88, -88007.31, 0.0, 9.99938, 9.999456 
5.150046e+2, 2.7458397e+2, -382312.75, -372188.25, -36092.78, 0.056977935, 0.12723982, -340804.44, -91713.664, 0.0, 9.999319, 9.999453 
5.1500505e+2, 2.845833e+2, -317631.2, -310921.25, -25545.842, 0.058983356, 0.12510602, -288511.0, -137413.86, 0.0, 9.99918, 9.999268 
5.1500547e+2, 2.9458284e+2, -253053.03, -227891.75, -26502.725, 0.04989797, 0.15112971, -211135.27, -158032.64, 0.0, 9.998945, 9.999277 
5.150065e+2, 3.045822e+2, -168993.89, -61837.063, -5683.9185, 0.05823441, 0.117966905, -61536.414, -61536.414, 0.0, 9.998755, 10.0001745 
5.1500773e+2, 3.1458274e+2, -183755.11, -58584.34, -7679.805, 0.078644685, 0.1473209, -58114.91, -58114.91, 0.0, 9.99861, 10.000267 
5.249878e+2, 1.2459323e+2, -1567109.4, -1722525.1, -29580.297, -0.112589665, 0.21164364, -1561669.8, 157338.45, 0.0000005002885, 10.001358, 9.999292 
5.249906e+2, 1.3459249e+2, -1502601.9, -1683338.1, 42856.586, -0.037663613, 0.24462853, -1492954.6, 128062.68, 0.000000016983103, 10.001306, 9.998917 
5.249913e+2, 1.4459154e+2, -1413805.3, -1576552.1, 13545.297, -0.15368739, 0.25322115, -1412685.5, 110342.03, 0.0, 10.001188, 9.999031 
5.2499324e+2, 1.5459053e+2, -1344889.5, -1490528.5, 9277.0, -0.0918889, 0.24702017, -1344301.0, 80736.66, 0.0, 10.00098, 9.999048 
5.2499485e+2, 1.6458958e+2, -1276596.8, -1425383.6, 4320.831, -0.056062754, 0.25528333, -1276471.4, 50576.29, 0.0, 10.000855, 9.998883 
5.2499616e+2, 1.745887e+2, -1181847.3, -1327751.6, 2205.8162, -0.05517406, 0.27767363, -1181813.9, 47243.66, 0.0, 10.000829, 9.998894 
5.2499735e+2, 1.8458775e+2, -1091805.1, -1221568.1, -3999.6672, -0.0526487, 0.28954056, -1091681.9, 39385.777, 0.0, 10.000722, 9.9990015 
5.249986e+2, 1.9458677e+2, -1021787.75, -1134581.1, -3206.043, -0.046806842, 0.28717217, -1021696.7, 11381.252, 0.0, 10.000519, 9.999023 
5.249997e+2, 2.0458598e+2, -915207.5, -976042.1, -18925.922, -0.033950776, 0.28348812, -909800.2, 25285.0, 0.0, 10.000334, 9.999529 
5.250007e+2, 2.145855e+2, -838015.25, -883531.4, -18937.045, -0.013378349, 0.27598113, -831166.9, 5921.6646, 0.0, 10.000172, 9.999569 
5.2500147e+2, 2.2458506e+2, -739166.44, -745807.2, -21330.12, -0.0009984163, 0.25882816, -720899.8, 18191.127, 0.0, 10.000009, 9.999921 
5.250021e+2, 2.345847e+2, -662594.75, -654307.9, -19965.477, 0.002071707, 0.22830695, -638060.44, 3031.5315, 0.0, 9.999845, 9.999955 
5.250027e+2, 2.445844e+2, -585144.75, -563349.75, -31206.035, 0.013405728, 0.2018457, -541193.2, 1899.014, 0.0, 9.999692, 9.99998 
5.2500325e+2, 2.5458416e+2, -506405.66, -472518.7, -30780.324, 0.034312867, 0.17789201, -454326.6, -9235.249, 0.0, 9.99955, 9.999998 
5.250036e+2, 2.6458365e+2, -464838.5, -454995.47, -31368.205, 0.04780124, 0.14832675, -428165.03, -81070.87, 0.0, 9.9993925, 9.999521 
5.2500385e+2, 2.745828e+2, -392825.38, -369838.0, -25171.625, 0.052367847, 0.1110822, -353660.13, -104559.06, 0.0, 9.999216, 9.999518 
5.250041e+2, 2.8458217e+2, -334811.78, -318467.94, -11576.621, 0.05265188, 0.10885707, -312469.5, -161362.48, 0.0, 9.999059, 9.999273 
5.2500445e+2, 2.945818e+2, -256138.25, -228992.97, -11422.9795, 0.047856767, 0.14267507, -224825.8, -171713.84, 0.0, 9.998923, 9.99928 
5.2500516e+2, 3.045812e+2, -160828.02, -53241.965, 11151.797, 0.05749527, 0.11120117, -52098.188, -52098.188, 0.0, 9.998792, 10.000216 
5.2500635e+2, 3.145817e+2, -173233.38, -48706.66, 7803.3047, 0.07578248, 0.13435279, -48219.582, -48219.582, 0.0, 9.998661, 10.00031 
5.349892e+2, 1.24592155e+2, -1571050.6, -1730210.3, -37365.06, -0.11137417, 0.20163193, -1562715.3, 156302.73, 0.00000041209, 10.001356, 9.99924 
5.3499174e+2, 1.3459128e+2, -1506919.9, -1692181.1, 40902.89, -0.050192058, 0.22738664, -1498291.1, 122736.97, 0.000000018082496, 10.001305, 9.998857 
5.3499234e+2, 1.4459026e+2, -1415301.4, -1579452.8, 5852.7495, -0.1671872, 0.23323679, -1415093.0, 107945.914, 0.0, 10.001187, 9.999011 
5.349942e+2, 1.5458931e+2, -1346287.0, -1493282.5, 1295.1416, -0.09208765, 0.23419999, -1346275.6, 78772.71, 0.0, 10.000979, 9.99903 
5.349958e+2, 1.6458832e+2, -1282595.0, -1437844.9, 2885.1897, -0.048013277, 0.24430628, -1282541.4, 44517.133, 0.0, 10.000855, 9.998798 
5.3499705e+2, 1.7458731e+2, -1188130.9, -1340803.6, 1098.2589, -0.04402966, 0.2620054, -1188123.0, 40946.605, 0.0, 10.000828, 9.998805 
5.3499824e+2, 1.8458633e+2, -1091493.4, -1220928.3, -11419.614, -0.042414922, 0.274535, -1090493.6, 40586.707, 0.0, 10.000721, 9.999006 
5.349992e+2, 1.9458541e+2, -1021128.56, -1133291.0, -10915.958, -0.042309064, 0.2791463, -1020076.1, 13014.03, 0.0, 10.000519, 9.999033 
5.35e+2, 2.0458466e+2, -914231.75, -974097.0, -25148.117, -0.03647097, 0.2758032, -905069.75, 30027.559, 0.0, 10.000334, 9.999542 
5.3500074e+2, 2.145841e+2, -837063.9, -881694.56, -25074.727, -0.024381367, 0.26081577, -825812.6, 11288.443, 0.0, 10.000172, 9.999581 
5.350014e+2, 2.2458366e+2, -736013.1, -739449.0, -27474.643, -0.010459618, 0.23993237, -710202.75, 28900.791, 0.0, 10.000009, 9.999964 
5.35002e+2, 2.3458335e+2, -659453.06, -647930.94, -26109.752, 0.005860416, 0.2103562, -626954.25, 14150.044, 0.0, 9.999845, 9.999998 
5.350026e+2, 2.4458311e+2, -582578.44, -558153.6, -36543.625, 0.022073643, 0.1861668, -531835.8, 11268.33, 0.0, 9.999692, 10.000015 
5.350029e+2, 2.5458294e+2, -503959.38, -467567.9, -36079.58, 0.038076356, 0.16584246, -445355.47, -252.67601, 0.0, 9.999551, 10.000032 
5.35003e+2, 2.6458254e+2, -452178.53, -428792.56, -37969.508, 0.04354159, 0.13850155, -400756.34, -53652.11, 0.0, 9.999393, 9.9997015 
5.350029e+2, 2.7458188e+2, -379840.72, -342906.94, -31802.795, 0.036362458, 0.101557, -324598.25, -75489.586, 0.0, 9.999216, 9.999703 
5.35003e+2, 2.8458136e+2, -333112.4, -314870.9, -16688.49, 0.03646053, 0.098543584, -304973.4, -153859.98, 0.0, 9.999059, 9.999299 
5.3500336e+2, 2.94581e+2, -255083.13, -226598.56, -16502.873, 0.045170702, 0.13050134, -219042.05, -165923.42, 0.0, 9.998922, 9.999297 
5.3500396e+2, 3.0458042e+2, -159244.53, -49703.2, 6319.581, 0.054673437, 0.09888179, -49339.82, -49339.82, 0.0, 9.99879, 10.000241 
5.350048e+2, 3.1458095e+2, -171750.1, -45321.605, 3064.6206, 0.057225566, 0.122905836, -45247.36, -45247.36, 0.0, 9.998659, 10.000334 
5.449905e+2, 1.2459138e+2, -1558941.4, -1727226.0, -31992.61, -0.119125925, 0.20568821, -1553064.5, 165960.45, 0.00000036785775, 10.001452, 9.999214 
5.4499316e+2, 1.345903e+2, -1494722.4, -1689916.8, 53948.734, -0.047982026, 0.21428053, -1480804.3, 140232.45, 0.000000024396927, 10.001405, 9.998824 
5.4499364e+2, 1.4458917e+2, -1403263.8, -1586282.6, 12178.977, -0.1593848, 0.21635868, -1402456.9, 120591.62, 0.0, 10.001325, 9.9988985 
5.449953e+2, 1.5458827e+2, -1322885.0, -1495182.5, -278.02042, -0.08823672, 0.23425895, -1322884.5, 102173.27, 0.0, 10.001197, 9.998912 
5.4499674e+2, 1.6458721e+2, -1258879.0, -1426424.4, 1584.8479, -0.04566885, 0.24452707, -1258864.0, 68204.55, 0.0, 10.001019, 9.998797 
5.4499793e+2, 1.7458601e+2, -1195232.0, -1343645.5, 6760.0146, -0.039401438, 0.24242406, -1194924.8, 34155.99, 0.0, 10.000777, 9.99881 
5.449989e+2, 1.8458498e+2, -1111291.3, -1232414.5, -3739.6226, -0.03747794, 0.25001386, -1111175.9, 19915.955, 0.0, 10.000594, 9.998989 
5.449997e+2, 1.9458418e+2, -1028255.6, -1138816.5, -5484.945, -0.039712526, 0.26732215, -1027984.2, 5116.9277, 0.0, 10.000479, 9.999014 
5.450004e+2, 2.0458347e+2, -908089.44, -963028.7, -18927.395, -0.036468234, 0.2671305, -902200.0, 32907.9, 0.0, 10.000341, 9.999614 
5.4500085e+2, 2.145829e+2, -831073.4, -870327.3, -14198.786, -0.027052492, 0.24391387, -826475.9, 10635.53, 0.0, 10.000177, 9.999658 
5.450013e+2, 2.245825e+2, -739737.9, -740389.6, -16809.734, -0.013097819, 0.22168659, -723250.9, 15862.796, 0.0, 9.99998, 9.999971 
5.450018e+2, 2.3458226e+2, -673784.44, -654488.6, -18598.92, 0.006314846, 0.19913357, -643184.2, -2070.0085, 0.0, 9.999745, 10.000001 
5.4500216e+2, 2.445821e+2, -595797.2, -554438.1, -26404.135, 0.021250691, 0.17914093, -541579.3, 1534.0314, 0.0, 9.999558, 10.000105 
5.450023e+2, 2.5458205e+2, -515515.4, -462703.7, -21499.701, 0.030756762, 0.15944467, -455058.03, -9947.227, 0.0, 9.999427, 10.000125 
5.450022e+2, 2.6458174e+2, -462375.44, -426569.22, -26121.555, 0.03297258, 0.13099875, -412804.4, -65692.914, 0.0, 9.999292, 9.999764 
5.450019e+2, 2.7458107e+2, -384706.34, -338286.03, -29355.541, 0.026456863, 0.09079172, -324073.5, -74957.79, 0.0, 9.999152, 9.999765 
5.450019e+2, 2.8458062e+2, -332148.75, -304050.03, -15618.364, 0.03020506, 0.0875167, -297091.8, -145972.23, 0.0, 9.999021, 9.999391 
5.450023e+2, 2.9458037e+2, -252121.19, -214768.66, -9824.751, 0.045996826, 0.12286766, -212342.11, -159218.98, 0.0, 9.998898, 9.999391 
5.4500276e+2, 3.0457982e+2, -168466.7, -56879.52, 12815.309, 0.055792022, 0.08943063, -55426.652, -55426.652, 0.0, 9.998739, 10.0002165 
5.4500335e+2, 3.1458023e+2, -192034.58, -58419.953, 5248.378, 0.05154228, 0.10473858, -58214.117, -58214.117, 0.000000000015387011, 9.998535, 10.000304 
5.549918e+2, 1.2459091e+2, -1559347.0, -1727768.9, -39655.39, -0.13689372, 0.22376455, -1550477.1, 168552.11, 0.0000003291145, 10.001451, 9.99921 
5.549947e+2, 1.3458955e+2, -1495300.3, -1691180.1, 52073.555, -0.031180494, 0.20537072, -1482317.3, 138725.7, 0.000000025104656, 10.001405, 9.998816 
5.5499524e+2, 1.4458828e+2, -1417882.3, -1616575.6, 7385.569, -0.13043238, 0.20256117, -1417608.1, 105448.31, 0.0, 10.001325, 9.998691 
5.549966e+2, 1.5458742e+2, -1338383.8, -1527280.0, -5236.007, -0.08053268, 0.24742435, -1338238.8, 86827.305, 0.0, 10.001197, 9.9986925 
5.5499774e+2, 1.6458629e+2, -1253056.3, -1414324.9, -7458.1157, -0.049155015, 0.2561894, -1252712.0, 74365.5, 0.0, 10.001019, 9.998881 
5.5499864e+2, 1.7458482e+2, -1188427.6, -1329530.5, -2464.9795, -0.041395728, 0.21895133, -1188384.6, 40706.332, 0.0, 10.000777, 9.998906 
5.5499953e+2, 1.8458372e+2, -1114064.8, -1238272.0, -8371.407, -0.037987992, 0.21595173, -1113503.1, 17599.156, 0.0, 10.000594, 9.998949 
5.550002e+2, 1.9458306e+2, -1031559.44, -1145808.3, -9858.131, -0.039126236, 0.2516931, -1030715.06, 2395.9104, 0.0, 10.00048, 9.998966 
5.550007e+2, 2.0458244e+2, -898910.3, -944125.94, -25103.682, -0.034020904, 0.257456, -887734.9, 47382.066, 0.0, 10.000342, 9.999744 
5.550011e+2, 2.1458192e+2, -821347.44, -850270.9, -20408.922, -0.021498507, 0.22522818, -810795.9, 26323.695, 0.0, 10.000177, 9.999795 
5.550014e+2, 2.2458157e+2, -741725.7, -744704.75, -25535.016, -0.00902596, 0.20406568, -717636.8, 21484.445, 0.0, 9.99998, 9.999942 
5.550016e+2, 2.3458146e+2, -676379.6, -660103.4, -27370.383, 0.0033535021, 0.19465008, -639686.9, 1434.7618, 0.0, 9.999746, 9.999963 
5.550016e+2, 2.445814e+2, -585649.06, -533599.75, -31534.92, 0.010823461, 0.18078181, -518737.6, 24382.266, 0.0, 9.999558, 10.000248 
5.550015e+2, 2.5458148e+2, -504862.22, -440804.53, -26400.984, 0.012249689, 0.15870371, -431326.06, 13789.369, 0.0, 9.999427, 10.000276 
5.550013e+2, 2.6458114e+2, -466025.38, -434294.88, -31339.254, 0.015986225, 0.12581332, -415033.84, -67917.836, 0.0, 9.999292, 9.999712 
5.550011e+2, 2.745804e+2, -389086.34, -347426.63, -34590.313, 0.022527749, 0.07882699, -327878.6, -78756.34, 0.0, 9.999152, 9.999702 
5.55001e+2, 2.8458e+2, -321103.75, -281042.6, -20235.967, 0.033732977, 0.07586081, -272600.03, -121474.45, 0.0, 9.999021, 9.999549 
5.5500114e+2, 2.9457998e+2, -240447.75, -190401.61, -14371.852, 0.05023824, 0.11984244, -186568.06, -133442.53, 0.0, 9.998897, 9.999558 
5.550015e+2, 3.0457944e+2, -174070.03, -68276.26, 5361.3125, 0.06068903, 0.08291068, -68005.26, -68005.26, 0.0, 9.998737, 10.000138 
5.55002e+2, 3.1457958e+2, -198567.53, -71530.66, -2353.3955, 0.05815521, 0.08015183, -71487.08, -71487.08, 0.0000000020600701, 9.998532, 10.000215 
5.649933e+2, 1.24590166e+2, -1531902.8, -1717910.1, -51540.32, -0.13601126, 0.21793664, -1518576.3, 200459.84, 0.00000027083397, 10.001654, 9.999181 
5.6499624e+2, 1.3458887e+2, -1482139.5, -1688631.8, 43896.63, -0.027830109, 0.20933248, -1473195.3, 147854.05, 0.000000017878008, 10.001511, 9.998782 
5.6499666e+2, 1.4458753e+2, -1414576.3, -1619278.9, 2502.366, -0.12247534, 0.2042068, -1414545.8, 108517.445, 0.0, 10.001366, 9.998652 
5.6499785e+2, 1.5458655e+2, -1339313.1, -1532188.3, 3148.2075, -0.075597346, 0.23932998, -1339261.8, 85812.14, 0.0, 10.001209, 9.998652 
5.649988e+2, 1.6458534e+2, -1250997.1, -1412953.1, 2165.8687, -0.04599034, 0.24316, -1250968.1, 76117.71, 0.0, 10.001031, 9.998884 
5.649995e+2, 1.745839e+2, -1181203.5, -1325582.6, -121.68946, -0.037883952, 0.20679231, -1181203.5, 47895.453, 0.0, 10.000825, 9.998911 
5.650001e+2, 1.845828e+2, -1110348.8, -1232113.5, -5339.409, -0.034484133, 0.20299752, -1110115.1, 20994.941, 0.0, 10.000601, 9.998987 
5.650006e+2, 1.9458213e+2, -1046896.56, -1148845.6, -328.2874, -0.036348294, 0.23596132, -1046895.5, -13776.85, 0.0, 10.000356, 9.999004 
5.6500095e+2, 2.045816e+2, -922902.56, -948972.0, -14112.903, -0.03203434, 0.2438165, -916725.9, 18398.193, 0.0, 10.000149, 9.999804 
5.6500125e+2, 2.1458122e+2, -844796.7, -854908.3, -15369.12, -0.020230785, 0.21941246, -833673.1, 3452.467, 0.0, 9.999988, 9.999854 
5.650013e+2, 2.2458094e+2, -760028.44, -748009.0, -21918.049, -0.00865246, 0.20164075, -731291.7, 7834.8716, 0.0, 9.999831, 9.99999 
5.650013e+2, 2.3458086e+2, -682650.1, -657789.3, -17372.672, 0.0026075002, 0.19035915, -648857.94, -7731.335, 0.0, 9.9996805, 10.00001 
5.650011e+2, 2.4458084e+2, -587067.5, -527979.06, -19729.057, 0.008548016, 0.17353162, -521997.28, 21127.207, 0.0, 9.999522, 10.000304 
5.6500083e+2, 2.5458091e+2, -511673.6, -437755.25, -21692.703, 0.007952078, 0.1471062, -431859.38, 13260.2705, 0.0, 9.999353, 10.000332 
5.6500053e+2, 2.645806e+2, -477352.7, -442367.0, -27811.457, 0.012900879, 0.114492066, -427004.47, -79884.3, 0.0, 9.999227, 9.999688 
5.6500024e+2, 2.7457985e+2, -391905.38, -351814.6, -28439.002, 0.024528656, 0.07327467, -337066.4, -87939.71, 0.0, 9.999146, 9.999676 
5.650001e+2, 2.845795e+2, -310342.6, -269571.6, -16058.59, 0.035593115, 0.071682975, -264006.25, -112876.51, 0.0, 9.999067, 9.999605 
5.6500006e+2, 2.9457954e+2, -222870.56, -175222.25, -18368.316, 0.045768637, 0.111809775, -168963.44, -115834.72, 0.0, 9.998989, 9.999618 
5.650003e+2, 3.0457896e+2, -166991.64, -75893.58, -8227.713, 0.056793213, 0.071696214, -75156.44, -75156.44, 0.0, 9.998834, 10.00004 
5.6500053e+2, 3.1457895e+2, -197498.75, -82855.664, -17526.795, 0.06352658, 0.06642311, -80236.01, -80236.01, 0.000000017271022, 9.998591, 10.000109 
5.7499516e+2, 1.2458914e+2, -1535883.0, -1726184.4, -62643.85, -0.11724467, 0.18774374, -1517113.1, 201932.7, 0.00000019303324, 10.001654, 9.999124 
5.749976e+2, 1.3458826e+2, -1486191.4, -1697185.5, 38345.832, -0.038160812, 0.2263698, -1479438.5, 141616.95, 0.000000007774616, 10.001511, 9.998724 
5.749979e+2, 1.4458695e+2, -1405606.0, -1600579.4, -3452.1592, -0.13573353, 0.22157978, -1405544.9, 117523.766, 0.0, 10.001365, 9.998781 
5.749991e+2, 1.5458563e+2, -1329639.0, -1512027.3, -2899.8362, -0.07356702, 0.2099021, -1329593.0, 95488.4, 0.0, 10.001209, 9.998791 
5.7499987e+2, 1.6458438e+2, -1256513.8, -1424388.8, -5674.0273, -0.036292247, 0.20528603, -1256322.1, 70771.26, 0.0, 10.001031, 9.998806 
5.750004e+2, 1.7458323e+2, -1187524.3, -1338785.0, -8030.734, -0.02894325, 0.2059467, -1187099.1, 42005.645, 0.0, 10.000825, 9.99882 
5.750008e+2, 1.8458222e+2, -1102158.4, -1215242.8, -14606.68, -0.027040957, 0.21120195, -1100302.1, 30812.96, 0.0, 10.000601, 9.999104 
5.7500106e+2, 1.9458145e+2, -1038078.3, -1130669.1, -9653.552, -0.031432863, 0.2201264, -1037082.56, -3958.4426, 0.0, 10.000356, 9.999129 
5.750012e+2, 2.0458095e+2, -923698.2, -950769.5, -20355.113, -0.030561531, 0.22619918, -912789.1, 22340.111, 0.0, 10.000149, 9.999791 
5.750012e+2, 2.1458079e+2, -846076.5, -857760.56, -21437.756, -0.023332084, 0.2264434, -829699.06, 7430.5186, 0.0, 9.999989, 9.999834 
5.750011e+2, 2.2458065e+2, -751065.06, -729658.7, -27593.604, -0.012097032, 0.2144021, -710765.2, 28364.441, 0.0, 9.999832, 10.000116 
5.75001e+2, 2.345805e+2, -673254.7, -638513.06, -23012.15, 0.0040354533, 0.18625322, -627051.5, 14077.6455, 0.0, 9.9996805, 10.000142 
5.750007e+2, 2.4458042e+2, -589135.3, -532468.9, -26021.588, 0.014397409, 0.1573559, -522332.66, 20794.607, 0.0, 9.999522, 10.000273 
5.750003e+2, 2.5458038e+2, -514307.63, -443415.84, -28010.705, 0.017801767, 0.12463903, -433684.2, 11439.374, 0.0, 9.999354, 10.000293 
5.7499987e+2, 2.645801e+2, -476837.4, -441451.53, -30897.266, 0.02363122, 0.09705877, -423539.97, -76415.96, 0.0, 9.999227, 9.999695 
5.7499945e+2, 2.7457958e+2, -391331.16, -350743.06, -31366.83, 0.032303926, 0.07414301, -333677.7, -84548.64, 0.0, 9.999146, 9.999683 
5.7499915e+2, 2.845792e+2, -313653.9, -276421.78, -18959.938, 0.035545684, 0.07494915, -268466.47, -117334.4, 0.0, 9.999066, 9.999558 
5.74999e+2, 2.94579e+2, -226519.52, -182556.5, -21243.738, 0.032375075, 0.09884826, -173968.69, -120835.945, 0.0, 9.998987, 9.999568 
5.74999e+2, 3.0457833e+2, -175717.75, -93658.28, -17076.057, 0.04391924, 0.05591444, -90246.695, -90246.695, 0.00000000021282408, 9.998832, 9.999919 
5.749992e+2, 3.1457832e+2, -206438.69, -101042.445, -26484.64, 0.067297935, 0.06331997, -94761.52, -94761.52, 0.0000000699572, 9.9985895, 9.999985 
5.849969e+2, 1.2458845e+2, -1533325.8, -1724451.9, -54415.586, -0.11117205, 0.17195876, -1518919.1, 200132.92, 0.00000011738098, 10.00167, 9.999128 
5.849992e+2, 1.345877e+2, -1462408.8, -1685055.5, 56691.945, -0.037469856, 0.22262917, -1448804.6, 172255.69, 0.0000000014227642, 10.001672, 9.99873 
5.849994e+2, 1.445864e+2, -1376107.9, -1581524.6, 9145.332, -0.13175288, 0.21487708, -1375701.6, 147371.78, 0.0, 10.001547, 9.998824 
5.850003e+2, 1.5458499e+2, -1316864.0, -1500718.4, 2336.7432, -0.07199851, 0.1900181, -1316834.3, 108252.04, 0.0, 10.001275, 9.9988365 
5.8500093e+2, 1.6458373e+2, -1258459.0, -1428183.1, -2117.8062, -0.037248973, 0.18329574, -1258432.6, 68665.836, 0.0, 10.00103, 9.99878 
5.8500123e+2, 1.7458265e+2, -1191097.3, -1343835.6, -113.0732, -0.031669315, 0.19490671, -1191097.1, 38012.33, 0.0, 10.000814, 9.99879 
5.850014e+2, 1.8458171e+2, -1096721.4, -1202723.8, -6158.867, -0.02829859, 0.20478883, -1096364.8, 34754.457, 0.0, 10.000596, 9.999191 
5.8500147e+2, 1.94581e+2, -1028936.0, -1115759.5, -3763.0967, -0.02759803, 0.21086709, -1028773.25, 4353.9717, 0.0, 10.000374, 9.999223 
5.8500135e+2, 2.0458055e+2, -925827.6, -954632.2, -14852.505, -0.024571057, 0.21753824, -919541.2, 15590.788, 0.0, 10.000147, 9.999765 
5.850012e+2, 2.1458042e+2, -858850.8, -867426.7, -16890.701, -0.018637143, 0.22247304, -845712.25, -8579.439, 0.0, 9.999916, 9.999803 
5.8500093e+2, 2.2458029e+2, -759359.75, -723282.44, -22797.518, -0.0080460105, 0.21096028, -712250.1, 26882.492, 0.0, 9.99973, 10.000209 
5.8500063e+2, 2.3458022e+2, -678360.25, -630013.7, -20826.725, 0.008129857, 0.17826083, -622279.25, 18851.676, 0.0, 9.9995985, 10.000239 
5.850002e+2, 2.445801e+2, -600280.9, -542496.3, -25924.707, 0.018524513, 0.14452276, -532570.4, 10558.624, 0.0, 9.999466, 10.000232 
5.849997e+2, 2.5458e+2, -521233.28, -452225.8, -28780.76, 0.022074074, 0.10683312, -441798.06, 3328.6118, 0.0, 9.99933, 10.000244 
5.849992e+2, 2.6457974e+2, -473453.5, -434591.72, -27695.22, 0.028705971, 0.08283964, -420190.88, -73063.875, 0.0, 9.999228, 9.999742 
5.8499867e+2, 2.7457938e+2, -385274.4, -342154.3, -24891.686, 0.038861107, 0.07341089, -330783.66, -81653.38, 0.0, 9.999164, 9.999734 
5.849983e+2, 2.8457904e+2, -313991.94, -275783.44, -10371.775, 0.041500147, 0.07360355, -273149.56, -122016.69, 0.0, 9.999061, 9.999566 
5.8499795e+2, 2.9457867e+2, -237183.2, -187140.66, -8658.643, 0.03533335, 0.08038657, -185684.83, -132550.06, 0.0, 9.998912, 9.999574 
5.849979e+2, 3.0457798e+2, -176704.22, -105308.016, -153.61575, 0.04384949, 0.038157754, -105307.69, -105307.69, 0.000000006848287, 9.998874, 9.999819 
5.8499795e+2, 3.1457806e+2, -157959.86, -89355.836, -7994.2993, 0.0645315, 0.06702607, -88436.586, -88436.586, 0.00000018333391, 9.998972, 9.999881 
5.949985e+2, 1.24588124e+2, -1528937.4, -1715268.8, -59791.316, -0.11868008, 0.17003132, -1511401.4, 207653.3, 0.000000058921596, 10.001669, 9.999191 
5.95001e+2, 1.3458721e+2, -1457467.4, -1674988.4, 56581.875, -0.025935885, 0.19804105, -1443629.5, 177434.36, 0.000000000010343272, 10.001672, 9.998798 
5.9500116e+2, 1.4458586e+2, -1379142.1, -1587904.6, -914.9306, -0.11068213, 0.1839756, -1379138.1, 143938.98, 0.0, 10.001547, 9.99878 
5.950016e+2, 1.5458463e+2, -1320221.0, -1507756.3, -8092.5137, -0.07102782, 0.17970572, -1319872.5, 105216.305, 0.0, 10.001275, 9.998789 
5.950018e+2, 1.6458338e+2, -1256658.1, -1424518.6, -10441.171, -0.048962444, 0.1772545, -1256011.1, 71089.71, 0.0, 10.00103, 9.998805 
5.950019e+2, 1.7458218e+2, -1189050.9, -1339640.3, -8340.674, -0.04614125, 0.17367445, -1188590.4, 40522.723, 0.0, 10.000814, 9.998819 
5.950019e+2, 1.845813e+2, -1092483.8, -1194069.9, -14626.713, -0.038351983, 0.1837439, -1090419.8, 40702.63, 0.0, 10.000596, 9.99925 
5.950018e+2, 1.9458084e+2, -1024656.3, -1107062.9, -12233.631, -0.024943491, 0.20819807, -1022878.56, 10249.289, 0.0, 10.000374, 9.999282 
5.950016e+2, 2.0458041e+2, -928511.1, -960390.56, -23594.871, -0.014182406, 0.21784942, -915976.44, 19155.9, 0.0, 10.000148, 9.999726 
5.950012e+2, 2.1458007e+2, -861895.0, -873964.25, -25604.605, -0.0062320186, 0.20749904, -841623.5, -4488.018, 0.0, 9.999917, 9.999758 
5.9500074e+2, 2.2457993e+2, -755172.4, -714812.7, -27882.914, 0.0034294946, 0.19130655, -700573.3, 38562.31, 0.0, 9.999731, 10.000267 
5.950003e+2, 2.3457997e+2, -673945.94, -621064.7, -25732.475, 0.014814469, 0.16640031, -610609.94, 30522.014, 0.0, 9.999599, 10.000301 
5.9499973e+2, 2.4457991e+2, -603867.75, -550163.25, -30994.377, 0.020822415, 0.13505402, -536007.0, 7122.7124, 0.0, 9.999467, 10.000178 
5.94999e+2, 2.545797e+2, -525299.25, -460891.66, -33853.492, 0.02061676, 0.09368835, -446371.3, -1242.3136, 0.0, 9.9993305, 10.000184 
5.949984e+2, 2.6457947e+2, -467282.53, -421962.6, -30150.582, 0.027936066, 0.07182474, -406906.1, -59776.824, 0.0, 9.999228, 9.999828 
5.9499794e+2, 2.7457932e+2, -378767.3, -328707.94, -27190.068, 0.04410488, 0.07110352, -316781.1, -67650.71, 0.0, 9.999164, 9.999826 
5.9499747e+2, 2.84579e+2, -309744.3, -266911.56, -15749.276, 0.053333748, 0.06770001, -261744.08, -110611.88, 0.0, 9.999061, 9.999627 
5.94997e+2, 2.9457852e+2, -233105.6, -178531.19, -14156.929, 0.05441899, 0.056356523, -175077.38, -121942.516, 0.0, 9.998911, 9.999634 
5.949968e+2, 3.0457783e+2, -182501.13, -117085.45, 3280.6208, 0.056307867, 0.018334532, -116921.336, -116921.336, 0.000000033052434, 9.998872, 9.999739 
5.949968e+2, 3.1457815e+2, -164285.56, -102000.836, -4016.526, 0.054949965, 0.0774661, -101742.89, -101742.89, 0.00000037488923, 9.99897, 9.999795 
6.050002e+2, 1.2458809e+2, -1517110.3, -1703529.8, -51821.18, -0.11861999, 0.17717233, -1503673.4, 215381.64, 0.000000021349177, 10.001725, 9.999245 
6.0500264e+2, 1.3458711e+2, -1462891.1, -1670645.5, 68739.016, -0.025996847, 0.19195096, -1442207.0, 178857.2, 0.0, 10.001605, 9.99886 
6.0500276e+2, 1.445857e+2, -1394084.5, -1600569.9, 5138.623, -0.10354275, 0.17080946, -1393956.8, 129121.04, 0.0, 10.001468, 9.998732 
6.0500294e+2, 1.5458447e+2, -1318047.5, -1512728.6, -2711.4082, -0.06945041, 0.17402059, -1318009.8, 107080.0, 0.0, 10.001316, 9.998734 
6.050029e+2, 1.6458327e+2, -1241533.0, -1407810.8, -4955.0386, -0.0511611, 0.1737703, -1241385.5, 85715.93, 0.0, 10.001093, 9.998889 
6.050027e+2, 1.7458211e+2, -1186859.8, -1328477.1, 1492.1001, -0.049163472, 0.16619535, -1186844.0, 42268.758, 0.0, 10.000787, 9.998909 
6.0500246e+2, 1.8458124e+2, -1101752.0, -1199654.3, -2782.7654, -0.039536342, 0.17347556, -1101672.9, 29448.82, 0.0, 10.000538, 9.999241 
6.050023e+2, 1.9458075e+2, -1027932.0, -1110382.0, -6092.6494, -0.021443728, 0.19652282, -1027484.2, 5643.4355, 0.0, 10.00036, 9.999267 
6.050018e+2, 2.0458032e+2, -923997.3, -960351.25, -19604.984, -0.007903808, 0.2065558, -915439.4, 19693.08, 0.0, 10.000188, 9.999706 
6.050012e+2, 2.1457998e+2, -847579.9, -869334.0, -19859.805, 0.000687368, 0.19868833, -835813.56, 1322.1877, 0.0, 10.000025, 9.999737 
6.050006e+2, 2.2457983e+2, -736510.2, -706097.06, -21725.531, 0.008921437, 0.1829362, -694785.0, 44350.97, 0.0, 9.999861, 10.000264 
6.0499996e+2, 2.3457985e+2, -660456.8, -614944.25, -24470.027, 0.01649457, 0.15606983, -604284.5, 36847.83, 0.0, 9.999694, 10.000298 
6.049992e+2, 2.4457979e+2, -600132.2, -550020.44, -32081.67, 0.022454409, 0.12705117, -534369.6, 8760.394, 0.0, 9.999499, 10.000164 
6.0499835e+2, 2.5457963e+2, -534975.06, -467406.7, -31857.367, 0.026514472, 0.0931601, -454755.28, -9626.012, 0.0, 9.999272, 10.000168 
6.049977e+2, 2.6457947e+2, -475475.8, -418268.63, -22192.21, 0.035391618, 0.072334915, -410669.2, -63539.977, 0.0, 9.999139, 9.999896 
6.049971e+2, 2.745793e+2, -380951.03, -321838.63, -20750.23, 0.050032172, 0.06515443, -315281.94, -66152.266, 0.0, 9.999114, 9.999897 
6.0499656e+2, 2.8457898e+2, -306349.47, -263354.75, -13862.469, 0.059353743, 0.056137078, -259272.73, -108141.47, 0.0, 9.999076, 9.999644 
6.04996e+2, 2.9457846e+2, -216010.39, -168729.6, -15889.096, 0.062319156, 0.039936617, -163886.11, -110751.88, 0.00000000003092486, 9.999022, 9.999647 
6.0499585e+2, 3.0457783e+2, -164131.38, -107256.56, 8506.7705, 0.06378227, 0.004427746, -106011.46, -106011.46, 0.00000008707832, 9.998994, 9.999747 
6.0499585e+2, 3.1457826e+2, -158908.47, -98474.29, 8469.757, 0.060174175, 0.07466822, -97309.7, -97309.7, 0.0000006525611, 9.999002, 9.999804 
6.15002e+2, 1.2458833e+2, -1514159.8, -1697520.5, -61164.723, -0.11169581, 0.19304451, -1495629.4, 223423.67, 0.0000000039655865, 10.001725, 9.999286 
6.1500406e+2, 1.3458738e+2, -1459049.4, -1662990.6, 63985.85, -0.037697926, 0.20431615, -1440636.4, 180424.77, 0.0, 10.001605, 9.998913 
6.150041e+2, 1.4458588e+2, -1397885.5, -1608542.8, -816.22833, -0.11033503, 0.1752712, -1397882.3, 125193.08, 0.0, 10.001468, 9.998676 
6.150043e+2, 1.5458453e+2, -1322321.6, -1521633.5, -8615.449, -0.067353316, 0.17290992, -1321949.9, 103139.07, 0.0, 10.001315, 9.998673 
6.15004e+2, 1.6458337e+2, -1231574.5, -1387221.9, -16440.635, -0.043938797, 0.17285179, -1229856.9, 97243.305, 0.0, 10.001093, 9.999031 
6.150035e+2, 1.7458244e+2, -1176334.1, -1306723.0, -10232.3125, -0.040823936, 0.17249225, -1175536.0, 53572.53, 0.0, 10.000787, 9.999059 
6.1500305e+2, 1.8458156e+2, -1107400.8, -1211518.0, -9866.812, -0.031956896, 0.174033, -1106474.0, 24643.457, 0.0, 10.000538, 9.999159 
6.1500263e+2, 1.9458076e+2, -1034319.5, -1123814.6, -12880.422, -0.017139789, 0.17583866, -1032502.56, 624.0322, 0.0, 10.00036, 9.999174 
6.150021e+2, 2.0458026e+2, -923951.44, -960461.56, -25834.537, -0.005756222, 0.18367244, -910573.1, 24559.193, 0.0, 10.000189, 9.999706 
6.1500126e+2, 2.1458013e+2, -847294.8, -868938.4, -25975.375, 0.0020309505, 0.19608313, -829977.1, 7156.6333, 0.0, 10.000026, 9.99974 
6.150005e+2, 2.2457999e+2, -741032.0, -715653.2, -27986.535, 0.008334358, 0.18587954, -697613.6, 41520.145, 0.0, 9.999861, 10.000198 
6.1499965e+2, 2.3457983e+2, -665227.5, -625069.25, -30675.73, 0.013090346, 0.14726183, -608485.44, 32646.643, 0.0, 9.999695, 10.000228 
6.149987e+2, 2.4457978e+2, -598471.4, -546816.25, -40538.355, 0.023321904, 0.12050574, -524577.0, 18553.047, 0.0, 9.9995, 10.000186 
6.1499774e+2, 2.5457984e+2, -533091.1, -463660.5, -40368.316, 0.03975286, 0.10526098, -445133.4, -5.87456, 0.0, 9.999272, 10.000194 
6.1499697e+2, 2.6457968e+2, -472050.4, -411275.6, -23313.113, 0.051058263, 0.0843984, -403362.94, -56236.027, 0.0, 9.999139, 9.999945 
6.1499625e+2, 2.7457935e+2, -377546.53, -314806.75, -21532.66, 0.05646645, 0.055516616, -308127.66, -58999.418, 0.0, 9.999114, 9.999946 
6.1499566e+2, 2.8457898e+2, -308365.6, -267472.3, -15737.572, 0.05930319, 0.03883267, -262117.1, -110986.92, 0.0, 9.999075, 9.999617 
6.1499506e+2, 2.9457852e+2, -218400.98, -173487.64, -17767.158, 0.05889433, 0.031235067, -167309.13, -114176.22, 0.0000000010306047, 9.999021, 9.999616 
6.149949e+2, 3.0457792e+2, -157663.22, -93565.04, 8938.705, 0.06616605, -0.0034118087, -92341.85, -92341.85, 0.00000016756015, 9.998993, 9.999843 
6.1499506e+2, 3.1457835e+2, -152174.61, -84128.01, 9070.889, 0.07972407, 0.058645047, -82939.58, -82939.58, 0.000001002472, 9.999001, 9.999903 
6.2500376e+2, 1.2458851e+2, -1496180.9, -1688872.8, -61019.645, -0.10950005, 0.19038893, -1478483.3, 240567.84, 0.00000000008306351, 10.001849, 9.999285 
6.2500566e+2, 1.3458759e+2, -1440780.4, -1652740.3, 65353.477, -0.045182344, 0.20420055, -1422249.9, 198808.69, 0.0, 10.001725, 9.998926 
6.250056e+2, 1.4458609e+2, -1386602.3, -1599318.4, -1152.5768, -0.110369645, 0.1723652, -1386596.0, 136476.67, 0.0, 10.00153, 9.998711 
6.2500554e+2, 1.5458477e+2, -1328484.1, -1520915.9, -1989.4537, -0.06621089, 0.16884293, -1328463.6, 96622.55, 0.0, 10.001258, 9.998707 
6.250051e+2, 1.6458362e+2, -1240658.3, -1389868.5, -12039.638, -0.041668642, 0.16759926, -1239693.0, 87404.305, 0.0, 10.001023, 9.999046 
6.250044e+2, 1.7458269e+2, -1168561.0, -1301544.0, -16275.524, -0.03689565, 0.16616891, -1166598.0, 62507.582, 0.0, 10.0008335, 9.999071 
6.2500364e+2, 1.8458183e+2, -1093711.6, -1200331.1, -15828.325, -0.02804145, 0.16826402, -1091411.5, 39702.656, 0.0, 10.000612, 9.9992 
6.25003e+2, 1.945811e+2, -1032088.1, -1118120.5, -8834.53, -0.015500631, 0.17240638, -1031190.3, 1932.2599, 0.0, 10.000356, 9.999215 
6.2500226e+2, 2.045806e+2, -932917.0, -968536.06, -15763.046, -0.004035767, 0.18060273, -926943.06, 8185.078, 0.0, 10.000143, 9.999672 
6.250014e+2, 2.1458043e+2, -855715.75, -877200.9, -18956.92, 0.0066599348, 0.19109428, -844669.1, -7538.8447, 0.0, 9.999986, 9.9997015 
6.2500036e+2, 2.2458024e+2, -746807.94, -720254.3, -20923.652, 0.012746906, 0.17991818, -708750.6, 30380.11, 0.0, 9.999829, 10.000182 
6.2499934e+2, 2.3458008e+2, -669493.9, -628896.44, -19649.855, 0.013620253, 0.14151837, -620943.5, 20185.566, 0.0, 9.999673, 10.000212 
6.249983e+2, 2.4458e+2, -596332.0, -554565.0, -30767.615, 0.02488634, 0.11780301, -538262.94, 4864.493, 0.0, 9.999553, 10.000107 
6.249972e+2, 2.5458002e+2, -509382.38, -461278.16, -38754.402, 0.04816461, 0.10873741, -439718.78, 5406.7905, 0.0, 9.999475, 10.000113 
6.249963e+2, 2.6457986e+2, -438244.44, -392522.2, -24619.768, 0.059719592, 0.08736163, -381786.22, -34660.934, 0.0, 9.999361, 9.999967 
6.249954e+2, 2.7457947e+2, -362570.8, -304679.4, -24599.338, 0.057549454, 0.050190907, -295638.53, -46511.957, 0.0, 9.999205, 9.999971 
6.2499475e+2, 2.8457904e+2, -306964.44, -270209.8, -18388.611, 0.058912754, 0.030236077, -262589.7, -111461.08, 0.0, 9.9991, 9.999586 
6.2499416e+2, 2.9457858e+2, -215522.1, -175807.05, -20613.695, 0.06432698, 0.02545069, -167042.11, -113910.49, 0.000000004235602, 9.999057, 9.999581 
6.24994e+2, 3.0457798e+2, -153644.45, -83879.08, 5168.4585, 0.07384963, -0.011331949, -83498.26, -83498.26, 0.000000262113, 9.998987, 9.999911 
6.249941e+2, 3.1457844e+2, -162603.0, -80984.68, 3180.5093, 0.08561359, 0.042049497, -80860.93, -80860.93, 0.0000013873902, 9.998895, 9.999975 
6.350056e+2, 1.2458862e+2, -1499026.4, -1694982.6, -69870.125, -0.1126866, 0.16894193, -1476665.3, 242384.1, 0.0, 10.00185, 9.999243 
6.350074e+2, 1.3458775e+2, -1442499.3, -1656643.5, 60387.785, -0.048598155, 0.19158728, -1426644.0, 194412.33, 0.0, 10.001725, 9.9988985 
6.350072e+2, 1.4458632e+2, -1378129.1, -1581846.4, -11477.497, -0.10385318, 0.16212274, -1377484.5, 145585.3, 0.0, 10.00153, 9.998831 
6.3500684e+2, 1.5458515e+2, -1319646.3, -1502615.5, -12428.023, -0.06616545, 0.16184403, -1318806.0, 106275.26, 0.0, 10.001257, 9.998833 
6.350061e+2, 1.64584e+2, -1248575.9, -1406319.9, -19503.182, -0.044461295, 0.15804927, -1246200.3, 80892.375, 0.0, 10.001023, 9.998934 
6.350052e+2, 1.7458285e+2, -1177281.4, -1319731.3, -23561.629, -0.0374654, 0.1472253, -1173485.4, 55618.46, 0.0, 10.0008335, 9.998946 
6.350043e+2, 1.8458208e+2, -1082330.8, -1176875.6, -25577.578, -0.027890677, 0.15614602, -1075854.8, 55256.926, 0.0, 10.000613, 9.999361 
6.350033e+2, 1.9458179e+2, -1019890.8, -1092974.3, -18619.068, -0.016631488, 0.18625158, -1015420.75, 17694.725, 0.0, 10.000356, 9.999388 
6.350024e+2, 2.0458138e+2, -937626.25, -978520.7, -21942.904, -0.0028693138, 0.19737242, -928080.44, 7039.5693, 0.0, 10.000144, 9.999603 
6.350014e+2, 2.1458088e+2, -861246.7, -888949.94, -24872.893, 0.014451647, 0.18371561, -846628.5, -9503.083, 0.0, 9.999987, 9.999621 
6.350002e+2, 2.2458059e+2, -744444.2, -715604.4, -26810.42, 0.022038879, 0.16504823, -699582.0, 39544.836, 0.0, 9.99983, 10.000214 
6.3499904e+2, 2.3458058e+2, -666821.94, -623603.9, -25471.896, 0.018051086, 0.13887171, -611809.8, 29313.615, 0.0, 9.999674, 10.000248 
6.3499784e+2, 2.4458048e+2, -608929.5, -580954.75, -33797.766, 0.027068436, 0.11900206, -558364.3, -15242.127, 0.0, 9.999554, 9.999926 
6.349967e+2, 2.5458026e+2, -522645.0, -489002.72, -41633.44, 0.05155711, 0.10360648, -460920.7, -15797.213, 0.0, 9.9994755, 9.999922 
6.3499564e+2, 2.6457995e+2, -438569.4, -393325.94, -30300.678, 0.061169405, 0.08121859, -378134.0, -31009.547, 0.0, 9.999361, 9.999961 
6.349946e+2, 2.745796e+2, -362408.9, -304381.97, -30339.52, 0.053185426, 0.04925895, -291416.06, -42291.258, 0.0, 9.999205, 9.999974 
6.3499385e+2, 2.845792e+2, -309507.03, -275466.47, -20056.61, 0.058070295, 0.030464254, -266181.66, -115054.96, 0.0, 9.999099, 9.99955 
6.349934e+2, 2.9457867e+2, -218269.5, -181362.61, -22076.688, 0.07844945, 0.022578223, -171042.64, -117912.164, 0.000000008608103, 9.999056, 9.999544 
6.34993e+2, 3.04578e+2, -150956.11, -78077.47, 1842.2457, 0.086632095, -0.019395936, -78030.93, -78030.93, 0.00000035003856, 9.998986, 9.999951 
6.3499284e+2, 3.145784e+2, -159775.25, -74802.15, -69.94774, 0.07745691, 0.024805637, -74802.09, -74802.09, 0.0000017531521, 9.998893, 10.000019 
6.450074e+2, 1.245891e+2, -1510938.3, -1696474.1, -62755.086, -0.11743324, 0.16350189, -1491705.9, 227338.16, 0.0, 10.00175, 9.999281 
6.4500904e+2, 1.3458818e+2, -1465281.8, -1661037.4, 77259.055, -0.04603642, 0.1737299, -1438463.8, 182587.56, 0.0, 10.001541, 9.998958 
6.450088e+2, 1.4458677e+2, -1401436.1, -1587153.4, 4276.8916, -0.08853688, 0.14153899, -1401337.6, 121726.625, 0.0, 10.001344, 9.998883 
6.45008e+2, 1.5458581e+2, -1328055.0, -1500801.8, -2164.8398, -0.062804334, 0.1569519, -1328027.9, 97045.85, 0.0, 10.001174, 9.998885 
6.450071e+2, 1.6458468e+2, -1259645.4, -1415135.6, -9454.536, -0.046890885, 0.15497749, -1259072.6, 68012.35, 0.0, 10.000962, 9.998902 
6.45006e+2, 1.7458336e+2, -1199514.0, -1334480.6, -6996.3125, -0.03770329, 0.12970126, -1199152.3, 29945.95, 0.0, 10.000699, 9.99891 
6.4500487e+2, 1.8458258e+2, -1094914.5, -1178724.6, -8325.904, -0.02669752, 0.13849288, -1094095.4, 37010.7, 0.0, 10.000508, 9.999398 
6.450038e+2, 1.9458249e+2, -1009542.1, -1083597.9, -11440.095, -0.015091636, 0.1854797, -1007815.1, 25292.543, 0.0, 10.000408, 9.999427 
6.450026e+2, 2.0458212e+2, -923695.0, -978112.4, -19430.184, -0.0011568782, 0.19977507, -917469.5, 17642.457, 0.0, 10.000267, 9.999547 
6.450015e+2, 2.1458142e+2, -852275.3, -891543.0, -21042.184, 0.01624398, 0.1731296, -843129.6, -6010.19, 0.0, 10.000078, 9.999558 
6.4500016e+2, 2.245811e+2, -736841.4, -715338.4, -24302.81, 0.025002105, 0.15336306, -699515.0, 39606.54, 0.0, 9.999898, 10.000183 
6.449988e+2, 2.3458117e+2, -661516.25, -624347.25, -28030.5, 0.023238929, 0.14003831, -609300.0, 31817.275, 0.0, 9.999725, 10.000218 
6.449975e+2, 2.4458106e+2, -606767.94, -586338.2, -31371.965, 0.031154929, 0.12306838, -563560.0, -20443.744, 0.0, 9.999597, 9.999867 
6.449962e+2, 2.5458068e+2, -520373.9, -494562.66, -29325.299, 0.050762806, 0.09884541, -475428.78, -30309.92, 0.0, 9.999519, 9.999862 
6.4499503e+2, 2.6458028e+2, -431974.72, -396611.63, -16614.18, 0.05825934, 0.072600864, -390030.7, -42909.85, 0.0, 9.999434, 9.999903 
6.4499384e+2, 2.745799e+2, -346956.38, -303380.0, -21428.338, 0.051415052, 0.042564925, -294608.44, -45486.684, 0.0, 9.999339, 9.999916 
6.4499307e+2, 2.845795e+2, -285454.7, -260164.25, -8890.325, 0.059418693, 0.026564578, -257351.8, -106228.27, 0.0, 9.9992485, 9.999583 
6.449925e+2, 2.9457906e+2, -199609.9, -168323.22, -5297.638, 0.08533891, 0.022609774, -167450.55, -114324.19, 0.000000011710588, 9.9991665, 9.99958 
6.449921e+2, 3.0457836e+2, -146185.72, -79191.055, 15904.124, 0.091626436, -0.02107467, -75607.23, -75607.23, 0.00000040808163, 9.999034, 9.999921 
6.449917e+2, 3.1457865e+2, -169300.3, -83196.875, 7957.185, 0.072123624, 0.013696121, -82467.695, -82467.695, 0.0000020407565, 9.998844, 9.999985 
6.5500903e+2, 1.2458997e+2, -1502580.5, -1679384.8, -73957.58, -0.124376245, 0.1734184, -1475723.5, 243311.47, 0.0, 10.001751, 9.999398 
6.550107e+2, 1.3458885e+2, -1455044.1, -1640170.0, 69047.26, -0.03760088, 0.15075286, -1432128.0, 188915.34, 0.0, 10.001542, 9.999101 
6.550104e+2, 1.4458743e+2, -1402400.8, -1589310.6, -2603.8198, -0.064521395, 0.11067686, -1402364.5, 120691.66, 0.0, 10.001344, 9.998869 
6.5500927e+2, 1.5458675e+2, -1329564.1, -1504013.1, -8736.25, -0.05620542, 0.154102, -1329127.8, 95935.875, 0.0, 10.001174, 9.998863 
6.550081e+2, 1.645857e+2, -1256240.3, -1408165.5, -19413.58, -0.049040586, 0.15832001, -1253798.8, 73275.54, 0.0, 10.000962, 9.99895 
6.5500665e+2, 1.7458421e+2, -1195906.8, -1327069.0, -17110.068, -0.03771208, 0.11363273, -1193711.5, 35377.125, 0.0, 10.000699, 9.998961 
6.550054e+2, 1.8458337e+2, -1101035.9, -1191536.4, -12553.179, -0.02454573, 0.115398124, -1099326.9, 31770.424, 0.0, 10.000508, 9.9993105 
6.550042e+2, 1.9458325e+2, -1016208.25, -1097602.0, -15321.659, -0.010929139, 0.17010926, -1013419.6, 19679.504, 0.0, 10.000408, 9.9993305 
6.5500295e+2, 2.0458284e+2, -926782.9, -984772.9, -26473.314, 0.0010545778, 0.18779503, -916515.4, 18588.62, 0.0, 10.000268, 9.999501 
6.5500146e+2, 2.1458207e+2, -855278.3, -898074.2, -28168.857, 0.012019735, 0.1593239, -841301.75, -4189.462, 0.0, 10.000079, 9.999514 
6.550001e+2, 2.245817e+2, -743420.1, -729224.56, -30807.22, 0.021604132, 0.14485355, -704708.06, 34406.848, 0.0, 9.999898, 10.000088 
6.549986e+2, 2.3458184e+2, -668270.25, -638619.44, -34483.207, 0.029100006, 0.14502075, -615909.75, 25201.059, 0.0, 9.999725, 10.00012 
6.549971e+2, 2.4458173e+2, -602191.75, -577070.5, -34391.477, 0.037064772, 0.1300002, -553017.7, -9908.09, 0.0, 9.999598, 9.999931 
6.549957e+2, 2.545813e+2, -515413.56, -484455.94, -32155.102, 0.045730934, 0.094486244, -464248.0, -19136.152, 0.0, 9.99952, 9.999931 
6.5499437e+2, 2.6458085e+2, -439888.66, -413206.97, -20116.324, 0.050904077, 0.061548725, -402409.78, -55295.23, 0.0, 9.999434, 9.999788 
6.5499324e+2, 2.7458033e+2, -355495.9, -321157.8, -24906.383, 0.052104108, 0.030098343, -308076.2, -58958.617, 0.0, 9.999339, 9.999794 
6.549923e+2, 2.8457996e+2, -278473.66, -245632.19, -11934.784, 0.06282759, 0.018536076, -241753.17, -90633.945, 0.0, 9.9992485, 9.999683 
6.549917e+2, 2.945797e+2, -192078.66, -152587.23, -8191.998, 0.084892206, 0.025621273, -150955.34, -97835.96, 0.000000011654482, 9.999166, 9.999689 
6.549911e+2, 3.0457905e+2, -153590.39, -94471.06, 9092.065, 0.08868403, -0.016232984, -93104.375, -93104.375, 0.00000041978168, 9.999033, 9.999817 
6.549905e+2, 3.145791e+2, -177477.02, -99946.89, 1028.3796, 0.06927968, 0.008681671, -99933.26, -99933.26, 0.0000022012798, 9.998842, 9.99987 
6.650108e+2, 1.2459093e+2, -1520633.0, -1687123.8, -63404.36, -0.11757572, 0.16901809, -1499236.6, 219788.2, 0.0, 10.001623, 9.999406 
6.650121e+2, 1.3458985e+2, -1453361.6, -1635488.3, 73803.26, -0.04438859, 0.14570726, -1427209.5, 193823.33, 0.0, 10.001537, 9.999135 
6.6501176e+2, 1.4458843e+2, -1397826.6, -1582569.5, -3061.0198, -0.061912537, 0.101667546, -1397775.9, 125269.76, 0.0, 10.001356, 9.998909 
6.6501045e+2, 1.5458776e+2, -1340862.5, -1504834.0, -4498.716, -0.05261741, 0.14285937, -1340739.1, 84313.664, 0.0, 10.001078, 9.998904 
6.6500896e+2, 1.6458675e+2, -1268793.5, -1411761.0, -12688.862, -0.043854833, 0.14951086, -1267676.1, 59386.777, 0.0, 10.000866, 9.998972 
6.650075e+2, 1.7458537e+2, -1189313.3, -1321587.1, -12776.318, -0.029758638, 0.11296126, -1188090.5, 40985.855, 0.0, 10.000734, 9.998981 
6.65006e+2, 1.8458447e+2, -1093773.6, -1191618.8, -5614.634, -0.016896658, 0.11070455, -1093452.5, 37632.83, 0.0, 10.000574, 9.999278 
6.650046e+2, 1.9458415e+2, -1022535.7, -1104631.8, -3888.5432, -0.007374323, 0.14710775, -1022351.94, 10737.048, 0.0, 10.000382, 9.999295 
6.650031e+2, 2.0458367e+2, -941489.25, -998943.44, -14659.244, 0.0004943535, 0.16364047, -937965.1, -2870.7446, 0.0, 10.000197, 9.999437 
6.6500145e+2, 2.1458304e+2, -868154.44, -911612.2, -18099.293, 0.0073036733, 0.1542585, -861603.8, -24501.895, 0.0, 10.000023, 9.999448 
6.649999e+2, 2.2458267e+2, -753355.5, -743939.2, -20136.563, 0.016852474, 0.14667763, -727967.7, 11137.321, 0.0, 9.999873, 9.999998 
6.649983e+2, 2.3458265e+2, -670946.7, -650015.06, -23337.732, 0.029306253, 0.1393031, -634903.9, 6198.96, 0.0, 9.999751, 10.00003 
6.6499674e+2, 2.4458243e+2, -589948.6, -567295.44, -20937.402, 0.038522083, 0.1197383, -554817.3, -11715.019, 0.0, 9.999665, 9.999966 
6.6499525e+2, 2.5458205e+2, -498060.44, -471698.56, -20963.967, 0.043922983, 0.08330968, -460116.13, -15012.523, 0.0, 9.999621, 9.9999695 
6.649938e+2, 2.645816e+2, -429810.38, -410796.6, -9682.719, 0.04870451, 0.05221726, -406733.8, -59627.86, 0.0, 9.999516, 9.999766 
6.649926e+2, 2.745811e+2, -357701.7, -325088.75, -7498.35, 0.052953586, 0.02579673, -323447.34, -74338.08, 0.0, 9.999336, 9.999767 
6.649915e+2, 2.8458077e+2, -281819.44, -242123.73, 9170.392, 0.06170373, 0.017614003, -240107.61, -88996.81, 0.0, 9.999204, 9.999728 
6.649907e+2, 2.9458064e+2, -194374.64, -148348.08, 8288.681, 0.07569828, 0.025984934, -146900.9, -93790.6, 0.000000008469742, 9.999127, 9.999736 
6.6499007e+2, 3.0457997e+2, -161290.88, -92851.77, 22838.553, 0.08245895, -0.017236218, -85930.38, -85930.38, 0.00000038345433, 9.998958, 9.999864 
6.6498935e+2, 3.1458005e+2, -198546.31, -104824.98, 26497.07, 0.07960976, 0.0022386715, -97852.414, -97852.414, 0.000002213461, 9.998676, 9.999917 
6.7501265e+2, 1.24592006e+2, -1527568.1, -1702014.3, -69100.59, -0.098042004, 0.14993818, -1503513.4, 215499.75, 0.0, 10.001625, 9.999303 
6.750135e+2, 1.3459116e+2, -1458452.0, -1646527.0, 70222.27, -0.0664627, 0.15837371, -1435125.9, 185894.02, 0.0, 10.001538, 9.999059 
6.7501295e+2, 1.4458974e+2, -1391137.9, -1568897.9, -13648.177, -0.08072961, 0.11426337, -1390096.1, 132936.7, 0.0, 10.001357, 9.999002 
6.750115e+2, 1.5458885e+2, -1333638.3, -1489968.9, -15175.338, -0.052215975, 0.12338156, -1332178.8, 92862.555, 0.0, 10.001078, 9.999006 
6.7501e+2, 1.6458789e+2, -1269147.8, -1412601.0, -18050.545, -0.031548224, 0.12875429, -1266911.3, 60139.5, 0.0, 10.000866, 9.998966 
6.7500836e+2, 1.7458685e+2, -1190082.8, -1323345.6, -17908.96, -0.01398444, 0.12759958, -1187718.0, 41343.316, 0.0, 10.000734, 9.99897 
6.750067e+2, 1.8458594e+2, -1092146.9, -1188447.5, -12917.703, -0.0039106766, 0.12429294, -1090444.3, 40625.95, 0.0, 10.000575, 9.9993 
6.750051e+2, 1.9458519e+2, -1020803.8, -1101220.8, -11247.483, -0.0045155887, 0.11649186, -1019260.3, 13816.827, 0.0, 10.000382, 9.999318 
6.750033e+2, 2.0458464e+2, -947235.0, -1011089.75, -21372.76, -0.0028950188, 0.12736495, -940741.7, -5658.405, 0.0, 10.000198, 9.999353 
6.7500144e+2, 2.1458432e+2, -874221.0, -924466.44, -24710.72, 0.0019490535, 0.15796728, -864104.94, -27016.537, 0.0, 10.000024, 9.999359 
6.749997e+2, 2.2458394e+2, -759162.75, -756277.9, -24769.688, 0.010576198, 0.15887594, -732908.6, 6183.3184, 0.0, 9.999874, 9.999913 
6.74998e+2, 2.3458354e+2, -676754.0, -662395.56, -27861.967, 0.02376145, 0.12285984, -640802.75, 290.74112, 0.0, 9.999752, 9.999944 
6.749964e+2, 2.4458319e+2, -589620.2, -566912.94, -22675.6, 0.035413533, 0.092234485, -552907.44, -9813.134, 0.0, 9.999666, 9.999968 
6.749949e+2, 2.545829e+2, -497554.34, -470854.1, -22580.838, 0.045247156, 0.06531101, -457972.2, -12877.964, 0.0, 9.999621, 9.999976 
6.749934e+2, 2.645826e+2, -425038.88, -401053.88, -16148.713, 0.05159818, 0.04463178, -392931.66, -45836.547, 0.0, 9.999516, 9.999833 
6.749919e+2, 2.745823e+2, -352884.72, -315215.0, -14089.112, 0.0538722, 0.029690566, -310528.47, -61431.508, 0.0, 9.999336, 9.999835 
6.7499065e+2, 2.84582e+2, -282666.38, -243904.45, 6227.262, 0.055875424, 0.023793466, -242928.58, -91830.234, 0.0, 9.999204, 9.999717 
6.749897e+2, 2.945817e+2, -195621.86, -150864.03, 5632.958, 0.05760186, 0.02371009, -150165.98, -97066.74, 0.0000000040864183, 9.999126, 9.99972 
6.7498887e+2, 3.0458114e+2, -147610.83, -64280.73, 12723.044, 0.07284905, -0.024117008, -62381.434, -62381.434, 0.0000003121116, 9.998957, 10.000061 
6.7498827e+2, 3.145814e+2, -184376.77, -75130.3, 16058.618, 0.1028562, -0.005637439, -72818.68, -72818.68, 0.0000020895884, 9.998674, 10.000122 
6.8501437e+2, 1.24593236e+2, -1526552.9, -1709549.0, -64377.973, -0.09012484, 0.13247576, -1506174.1, 212825.47, 0.0, 10.001668, 9.99923 
6.8501496e+2, 1.3459252e+2, -1478093.5, -1660822.5, 78674.39, -0.067982666, 0.15705343, -1448888.0, 172117.97, 0.0, 10.001426, 9.999015 
6.8501437e+2, 1.4459111e+2, -1407750.9, -1569675.4, -7059.4097, -0.0721356, 0.11307598, -1407443.6, 115575.336, 0.0, 10.001212, 9.999066 
6.8501264e+2, 1.5459013e+2, -1332739.6, -1481945.3, -11135.238, -0.04880982, 0.10819965, -1331913.3, 93114.58, 0.0, 10.001051, 9.999073 
6.8501085e+2, 1.6458921e+2, -1262186.0, -1404944.8, -11027.273, -0.031217966, 0.11153736, -1261339.3, 65697.54, 0.0, 10.0008955, 9.999004 
6.850091e+2, 1.7458834e+2, -1186071.8, -1317280.4, -7254.262, -0.013835952, 0.12249302, -1185671.9, 43373.832, 0.0, 10.000745, 9.999006 
6.850073e+2, 1.8458745e+2, -1099083.4, -1195531.6, -5422.8276, -0.0034139503, 0.12110006, -1098779.4, 32274.979, 0.0, 10.000544, 9.999266 
6.8500537e+2, 1.9458656e+2, -1037563.7, -1113327.3, -8503.484, -0.0031566045, 0.103002295, -1036621.0, -3558.3206, 0.0, 10.000285, 9.999282 
6.8500346e+2, 2.0458594e+2, -963340.56, -1020845.2, -15644.701, -0.000042306074, 0.110350326, -959359.8, -24290.45, 0.0, 10.000096, 9.999335 
6.8500155e+2, 2.1458565e+2, -880335.5, -929274.3, -13583.312, 0.0069622695, 0.14557447, -876818.2, -39744.145, 0.0, 9.99999, 9.999343 
6.8499964e+2, 2.2458525e+2, -762128.9, -771044.9, -10122.716, 0.014061189, 0.15073544, -755526.0, -16447.977, 0.0, 9.999911, 9.999794 
6.849978e+2, 2.3458476e+2, -669292.25, -672737.94, -16269.542, 0.021329304, 0.1185153, -654654.56, -13573.509, 0.0, 9.999864, 9.999819 
6.8499607e+2, 2.4458434e+2, -575967.8, -558595.5, -13348.251, 0.031301048, 0.08708787, -551356.06, -8273.38, 0.0, 9.999753, 9.999983 
6.8499446e+2, 2.54584e+2, -504115.66, -471592.22, -12269.452, 0.044540685, 0.05385529, -467482.8, -22400.336, 0.0, 9.999566, 9.999997 
6.8499285e+2, 2.6458374e+2, -438571.63, -405457.78, -8170.969, 0.051685143, 0.032872636, -403551.3, -56468.336, 0.0, 9.9994135, 9.999851 
6.8499124e+2, 2.745835e+2, -356684.9, -315052.72, -10113.855, 0.051580876, 0.024695074, -312725.78, -63641.64, 0.0, 9.999302, 9.999853 
6.849898e+2, 2.8458327e+2, -290215.8, -247097.4, 8846.706, 0.051124386, 0.022000179, -245352.89, -94267.484, 0.0, 9.99915, 9.99972 
6.849886e+2, 2.9458296e+2, -221233.42, -162966.39, 9588.755, 0.050455127, 0.021145066, -161428.98, -108342.125, 0.0000000009738006, 9.99895, 9.999721 
6.849877e+2, 3.0458245e+2, -163875.42, -52665.332, 13165.368, 0.0671277, -0.030010153, -51128.027, -51128.027, 0.00000022618863, 9.998761, 10.000235 
6.8498695e+2, 3.145828e+2, -184240.98, -55063.203, 14266.546, 0.10312629, -0.01888789, -53506.35, -53506.35, 0.0000018662819, 9.9985895, 10.0003 
6.9501597e+2, 1.24594666e+2, -1529404.5, -1715958.8, -74682.41, -0.094466045, 0.11621383, -1503190.6, 215793.45, 0.0, 10.001669, 9.999186 
6.9501656e+2, 1.3459393e+2, -1478833.8, -1662780.5, 69217.48, -0.049330898, 0.14200088, -1455697.8, 165293.3, 0.0, 10.001427, 9.9990015 
6.9501585e+2, 1.4459254e+2, -1405394.1, -1564990.5, -13596.318, -0.036519613, 0.09835653, -1404244.1, 118760.086, 0.0, 10.001213, 9.999099 
6.9501376e+2, 1.5459165e+2, -1330485.5, -1477493.6, -17313.305, -0.04256016, 0.097124085, -1328474.0, 96538.19, 0.0, 10.001052, 9.999104 
6.950117e+2, 1.6459075e+2, -1256463.9, -1393299.3, -16853.346, -0.04292933, 0.097678244, -1254418.6, 72602.02, 0.0, 10.000896, 9.999084 
6.950097e+2, 1.7458984e+2, -1180168.4, -1305178.5, -13104.729, -0.029336901, 0.097765744, -1178809.4, 50220.125, 0.0, 10.000745, 9.999089 
6.950077e+2, 1.84589e+2, -1105388.3, -1208748.4, -15154.926, -0.015419165, 0.101233326, -1103212.0, 27825.98, 0.0, 10.000544, 9.999175 
6.9500566e+2, 1.9458824e+2, -1044370.0, -1127674.5, -18359.115, -0.0033796756, 0.10655667, -1040503.4, -7457.685, 0.0, 10.000286, 9.999184 
6.950037e+2, 2.0458758e+2, -959965.8, -1014130.75, -19979.55, 0.00892074, 0.112517, -953393.56, -18340.816, 0.0, 10.000097, 9.999381 
6.9500166e+2, 2.1458703e+2, -876506.94, -921647.6, -17619.14, 0.02227602, 0.11706642, -870444.2, -33385.41, 0.0, 9.999991, 9.999394 
6.9499964e+2, 2.2458659e+2, -772909.06, -793755.44, -11956.674, 0.027263535, 0.12225114, -767470.2, -28406.992, 0.0, 9.999912, 9.999638 
6.9499767e+2, 2.345863e+2, -680827.6, -697027.5, -17991.41, 0.021964317, 0.12634611, -669196.9, -28131.19, 0.0, 9.999865, 9.999652 
6.9499576e+2, 2.4458589e+2, -573985.06, -554797.56, -20122.834, 0.02609641, 0.1044084, -542098.5, 968.96967, 0.0, 9.999754, 10.000009 
6.9499403e+2, 2.545854e+2, -501559.47, -466551.88, -19236.404, 0.04168633, 0.04898212, -458047.56, -12979.113, 0.0, 9.999567, 10.000031 
6.9499224e+2, 2.64585e+2, -440679.16, -410061.78, -12445.739, 0.04883865, 0.016939078, -405641.0, -58571.375, 0.0, 9.999414, 9.99982 
6.949904e+2, 2.7458474e+2, -359080.7, -320178.4, -14159.443, 0.0459993, 0.010784458, -315570.53, -66499.625, 0.0, 9.999303, 9.999818 
6.949889e+2, 2.8458455e+2, -289023.0, -244660.89, 1573.66, 0.047406457, 0.012257334, -244605.14, -93533.05, 0.0, 9.99915, 9.999737 
6.949876e+2, 2.9458436e+2, -219989.88, -160330.66, 2275.0635, 0.054290775, 0.018280122, -160244.03, -107170.77, 0.000000000021633938, 9.99895, 9.99974 
6.9498646e+2, 3.045839e+2, -153596.45, -31176.365, 6779.5625, 0.06525065, -0.03495631, -30802.06, -30802.06, 0.00000014519733, 9.99876, 10.000382 
6.949853e+2, 3.1458426e+2, -173826.47, -33219.85, 8041.415, 0.07996738, -0.037799083, -32761.451, -32761.451, 0.0000015881137, 9.998589, 10.000451 
7.050177e+2, 1.2459626e+2, -1539981.0, -1719589.1, -71805.61, -0.082387105, 0.10259246, -1514803.3, 204164.11, 0.0, 10.001591, 9.999198 
7.050179e+2, 1.3459559e+2, -1483353.5, -1659703.1, 76643.07, -0.05068708, 0.12845196, -1454699.6, 166274.3, 0.0, 10.001373, 9.999047 
7.0501715e+2, 1.4459424e+2, -1409206.6, -1563681.9, -1544.4658, -0.029085059, 0.0861479, -1409191.1, 113795.484, 0.0, 10.001173, 9.999126 
7.050148e+2, 1.545934e+2, -1334275.9, -1476336.3, -5317.7334, -0.04024991, 0.08935523, -1334077.1, 90916.94, 0.0, 10.001014, 9.99913 
7.050125e+2, 1.6459255e+2, -1264475.8, -1391858.3, -7403.6187, -0.04381325, 0.0900965, -1264046.9, 62955.145, 0.0, 10.000819, 9.999131 
7.050103e+2, 1.7459165e+2, -1200240.3, -1309426.1, -6472.6406, -0.030867822, 0.0854316, -1199857.9, 29152.885, 0.0, 10.000585, 9.999137 
7.0500815e+2, 1.845908e+2, -1128733.4, -1229022.4, -8628.367, -0.0153206345, 0.0900152, -1127996.4, 3022.875, 0.0, 10.0004225, 9.999094 
7.0500606e+2, 1.9459005e+2, -1041296.06, -1135892.3, -11011.313, 0.0008655568, 0.10331022, -1040031.25, -7003.6636, 0.0, 10.000349, 9.999096 
7.0500386e+2, 2.0458932e+2, -939440.8, -1003768.8, -12570.627, 0.0130195925, 0.10839882, -937071.6, -2036.5426, 0.0, 10.0002365, 9.999385 
7.0500165e+2, 2.1458867e+2, -863565.0, -914611.8, -13714.249, 0.021406185, 0.10159674, -860113.9, -23072.348, 0.0, 10.000077, 9.999401 
7.0499957e+2, 2.2458819e+2, -778047.3, -806354.2, -6390.9287, 0.025150685, 0.106070474, -776671.3, -37624.91, 0.0, 9.999921, 9.999547 
7.049975e+2, 2.3458791e+2, -701332.8, -717609.6, -7151.978, 0.022793928, 0.12199751, -698636.8, -57587.5, 0.0, 9.99977, 9.999556 
7.049955e+2, 2.4458751e+2, -588706.56, -562103.2, -8735.342, 0.027531348, 0.10596389, -559491.4, -16440.031, 0.0, 9.999654, 10.000007 
7.049936e+2, 2.54587e+2, -500065.5, -465684.9, -10496.279, 0.040932763, 0.04946567, -462733.75, -17681.648, 0.0, 9.9995775, 10.000032 
7.0499164e+2, 2.645865e+2, -434787.13, -408056.2, -4576.1294, 0.04739742, 0.01086786, -407294.47, -60240.797, 0.0, 9.999458, 9.999812 
7.0498973e+2, 2.7458614e+2, -361405.9, -322253.9, -4444.7793, 0.04571285, -0.008211896, -321755.66, -72699.63, 0.0, 9.999291, 9.999809 
7.0498806e+2, 2.8458592e+2, -299339.7, -249279.33, 8308.761, 0.048029676, -0.0069316975, -247936.31, -96878.98, 0.0, 9.999078, 9.999741 
7.049865e+2, 2.945859e+2, -239577.7, -169391.64, 7635.1553, 0.055445753, 0.013775898, -168570.66, -115513.11, 0.0, 9.998814, 9.9997425 
7.049851e+2, 3.045855e+2, -169405.3, -32467.867, 11460.083, 0.06470979, -0.038111795, -31515.414, -31515.414, 0.00000008201181, 9.998625, 10.000439 
7.049838e+2, 3.1458572e+2, -179304.81, -29600.395, 5603.304, 0.07540162, -0.057107832, -29390.96, -29390.96, 0.0000012936833, 9.998524, 10.000507 
7.150196e+2, 1.24598056e+2, -1535110.9, -1709849.0, -79969.4, -0.054968346, 0.09132743, -1504038.1, 214910.97, 0.0, 10.001592, 9.999265 
7.150191e+2, 1.3459745e+2, -1475902.1, -1644644.0, 68081.984, -0.072085515, 0.11628229, -1451859.0, 169095.45, 0.0, 10.001374, 9.999151 
7.1501815e+2, 1.445962e+2, -1407510.8, -1560470.5, -7979.4185, -0.049761046, 0.07626547, -1407095.6, 115870.58, 0.0, 10.001174, 9.999148 
7.150158e+2, 1.5459545e+2, -1332797.9, -1473489.3, -11453.111, -0.042032603, 0.08494694, -1331871.6, 93101.41, 0.0, 10.001014, 9.999149 
7.1501344e+2, 1.6459464e+2, -1263528.3, -1390125.5, -16278.939, -0.034082856, 0.0888244, -1261468.5, 65512.223, 0.0, 10.000819, 9.999143 
7.1501106e+2, 1.7459375e+2, -1199356.3, -1307876.0, -15490.073, -0.018640561, 0.08536252, -1197188.5, 31800.754, 0.0, 10.000585, 9.999147 
7.1500874e+2, 1.8459286e+2, -1133743.5, -1239703.0, -11811.535, -0.0033202148, 0.087356985, -1132442.8, -1444.3771, 0.0, 10.000423, 9.999021 
7.150065e+2, 1.9459195e+2, -1046600.9, -1147150.9, -13884.937, 0.0094893575, 0.09327754, -1044718.7, -11710.422, 0.0, 10.00035, 9.999019 
7.150041e+2, 2.0459117e+2, -942162.06, -1009695.7, -18526.842, 0.012225182, 0.09801923, -937413.4, -2397.0337, 0.0, 10.000237, 9.999345 
7.150016e+2, 2.1459055e+2, -866242.2, -920489.25, -19769.584, 0.004281878, 0.09915811, -859802.0, -22779.818, 0.0, 10.000078, 9.999361 
7.1499926e+2, 2.2459002e+2, -779822.2, -810363.4, -12062.465, 0.007604361, 0.10219269, -775632.7, -36605.215, 0.0, 9.999922, 9.999519 
7.1499723e+2, 2.3458959e+2, -703050.0, -721527.56, -12737.187, 0.023748713, 0.10543202, -696553.75, -55521.74, 0.0, 9.999772, 9.999529 
7.1499527e+2, 2.445892e+2, -590814.0, -566781.06, -11711.555, 0.035541523, 0.09167425, -562017.94, -18983.723, 0.0, 9.999655, 9.999974 
7.149932e+2, 2.5458884e+2, -502323.38, -470651.6, -13302.433, 0.042214043, 0.055312824, -465805.84, -20772.334, 0.0, 9.9995775, 9.999998 
7.149911e+2, 2.6458836e+2, -433688.22, -406049.4, -10666.105, 0.047298357, 0.014693887, -402411.94, -55376.703, 0.0, 9.999459, 9.9998255 
7.1498907e+2, 2.7458772e+2, -360244.47, -320062.22, -10607.128, 0.05070148, -0.03233681, -317434.1, -68394.48, 0.0, 9.999291, 9.999825 
7.149871e+2, 2.8458747e+2, -300171.84, -251108.92, -1410.6722, 0.052882962, -0.03568183, -251068.39, -100027.14, 0.0, 9.999078, 9.999728 
7.149854e+2, 2.945876e+2, -240626.44, -171533.77, -2090.4922, 0.05368158, 0.0076146745, -171470.58, -118430.74, 0.0, 9.998814, 9.999728 
7.1498376e+2, 3.0458722e+2, -172119.9, -38019.23, 7677.0596, 0.065256335, -0.03942896, -37581.16, -37581.16, 0.00000004119849, 9.998624, 10.0004015 
7.1498245e+2, 3.1458724e+2, -182306.66, -35682.47, 2119.7937, 0.089214996, -0.0767826, -35651.83, -35651.83, 0.0000010048329, 9.998523, 10.000466 
7.2502124e+2, 1.24600135e+2, -1537939.1, -1710463.6, -67547.336, -0.04723523, 0.08420955, -1514639.4, 204288.55, 0.0, 10.00157, 9.999271 
7.250204e+2, 1.3459958e+2, -1478244.5, -1641001.5, 74884.56, -0.07887032, 0.107885204, -1449032.9, 171899.92, 0.0, 10.001339, 9.999193 
7.250193e+2, 1.4459835e+2, -1416319.5, -1560130.9, -1847.1123, -0.047415014, 0.06692484, -1416295.8, 106648.445, 0.0, 10.001095, 9.999188 
7.250167e+2, 1.5459761e+2, -1352145.5, -1478232.1, -3593.8154, -0.043189492, 0.07312583, -1352043.1, 72907.695, 0.0, 10.000862, 9.999189 
7.2501415e+2, 1.6459681e+2, -1279751.4, -1402703.9, -7048.3857, -0.034612626, 0.07833953, -1279348.6, 47609.83, 0.0, 10.00073, 9.9991 
7.250117e+2, 1.7459595e+2, -1184088.6, -1305786.5, -10659.215, -0.013539579, 0.08101574, -1183162.0, 45805.152, 0.0, 10.000713, 9.9991 
7.2500926e+2, 1.8459503e+2, -1110476.1, -1228080.6, -8163.6323, 0.002371275, 0.08386081, -1109912.1, 21064.408, 0.0, 10.000582, 9.999023 
7.250068e+2, 1.9459407e+2, -1051067.6, -1148697.1, -4249.837, 0.00980049, 0.0844103, -1050883.0, -17896.336, 0.0, 10.000318, 9.999023 
7.250042e+2, 2.0459326e+2, -964590.06, -1025741.3, -5411.597, 0.008656866, 0.087938726, -964114.8, -29119.92, 0.0, 10.000107, 9.999297 
7.250015e+2, 2.1459264e+2, -886923.1, -935980.25, -7467.6934, -0.0014561443, 0.092717506, -885811.56, -48810.695, 0.0, 9.99996, 9.9993105 
7.249991e+2, 2.2459206e+2, -794787.06, -820753.0, 624.7157, 0.0025685083, 0.09470027, -794772.06, -55765.508, 0.0, 9.999833, 9.999491 
7.24997e+2, 2.3459153e+2, -711203.06, -728491.56, -153.86047, 0.022907952, 0.0912729, -711201.75, -70189.805, 0.0, 9.999729, 9.999501 
7.249949e+2, 2.4459106e+2, -597543.5, -574755.1, 1879.5061, 0.035836592, 0.07524684, -574601.1, -31586.47, 0.0, 9.999629, 9.999931 
7.249927e+2, 2.545907e+2, -511888.38, -480219.6, -530.53314, 0.040000122, 0.041940663, -480210.72, -35196.438, 0.0, 9.999534, 9.999953 
7.2499055e+2, 2.6459023e+2, -440324.88, -403457.03, -583.2276, 0.044777453, 0.0040011234, -403447.8, -56432.066, 0.0, 9.99939, 9.999877 
7.249883e+2, 2.745897e+2, -371165.63, -319106.4, 2202.8916, 0.05037902, -0.04084507, -319013.34, -69994.125, 0.0, 9.99919, 9.99988 
7.249862e+2, 2.8458944e+2, -312309.4, -257318.47, 11603.803, 0.053307444, -0.04407776, -254970.19, -103949.6, 0.0, 9.998997, 9.999724 
7.249841e+2, 2.945896e+2, -241647.83, -172762.69, 11332.81, 0.05315199, -0.002943482, -170946.14, -117926.555, 0.0, 9.99881, 9.999722 
7.249824e+2, 3.0458924e+2, -184421.33, -44343.723, 22314.258, 0.0656699, -0.045168117, -40874.977, -40874.977, 0.000000018939705, 9.998542, 10.000398 
7.2498083e+2, 3.1458935e+2, -231899.69, -60188.195, 19185.436, 0.09283573, -0.07189445, -58070.707, -58070.707, 0.0000007295325, 9.998186, 10.00046 
7.350227e+2, 1.2460254e+2, -1541576.3, -1718288.0, -75025.31, -0.059838355, 0.08084952, -1514020.3, 204883.42, 0.0, 10.001571, 9.999217 
7.3502177e+2, 1.3460195e+2, -1479478.5, -1643808.1, 65756.6, -0.071380876, 0.103312396, -1456405.6, 164503.5, 0.0, 10.001339, 9.999173 
7.3502064e+2, 1.4460069e+2, -1412355.0, -1552156.5, -10978.775, -0.02247053, 0.058153957, -1411498.0, 111422.555, 0.0, 10.001096, 9.999243 
7.350176e+2, 1.5459992e+2, -1347865.0, -1469739.4, -12495.265, -0.04393554, 0.05392699, -1346597.1, 78329.99, 0.0, 10.000863, 9.999248 
7.350148e+2, 1.6459909e+2, -1286615.4, -1417341.4, -8114.4165, -0.045492515, 0.05869691, -1286113.6, 40821.445, 0.0, 10.0007305, 9.998999 
7.350125e+2, 1.7459822e+2, -1191590.8, -1321630.6, -11419.532, -0.015596861, 0.07241286, -1190595.5, 38348.965, 0.0, 10.000714, 9.998991 
7.3500985e+2, 1.8459734e+2, -1104950.5, -1216824.5, -17940.205, 0.0017272244, 0.07951306, -1102144.0, 28809.781, 0.0, 10.000583, 9.999101 
7.3500705e+2, 1.9459644e+2, -1045000.75, -1136373.6, -14370.732, 0.0017289438, 0.0766808, -1042793.9, -9831.1045, 0.0, 10.000318, 9.999108 
7.3500425e+2, 2.0459561e+2, -968335.8, -1033816.25, -11227.591, 0.0022066399, 0.07815483, -966464.2, -31493.459, 0.0, 10.000107, 9.999242 
7.350015e+2, 2.1459492e+2, -891071.6, -944911.3, -13019.137, 0.0041056783, 0.08223254, -888088.7, -51111.29, 0.0, 9.999961, 9.999249 
7.34999e+2, 2.2459427e+2, -796811.06, -825325.2, -3334.662, 0.0099700615, 0.08355095, -796426.25, -57442.75, 0.0, 9.999834, 9.999458 
7.349967e+2, 2.3459372e+2, -713091.3, -732764.06, -3989.576, 0.020188991, 0.07952464, -712313.0, -71324.016, 0.0, 9.99973, 9.999472 
7.349945e+2, 2.4459316e+2, -601264.4, -582785.0, -1659.3579, 0.028311621, 0.05668355, -582637.2, -39644.445, 0.0, 9.99963, 9.999876 
7.349922e+2, 2.545926e+2, -515725.6, -488481.47, -4010.4595, 0.034213375, 0.009288122, -487903.38, -42908.945, 0.0, 9.999535, 9.999897 
7.349899e+2, 2.645922e+2, -434105.47, -390794.8, -7903.0283, 0.039742783, -0.021258825, -389397.78, -42402.523, 0.0, 9.99939, 9.999965 
7.3498744e+2, 2.7459207e+2, -364584.53, -305596.0, -5144.2007, 0.044563692, -0.03364386, -305150.75, -56155.8, 0.0, 9.99919, 9.999972 
7.349852e+2, 2.845919e+2, -312049.72, -256845.8, 4742.6226, 0.04910388, -0.031992182, -256441.31, -105445.9, 0.0, 9.998996, 9.999728 
7.3498297e+2, 2.9459178e+2, -241617.55, -172850.28, 4598.796, 0.0538555, -0.017923063, -172544.11, -119547.16, 0.0, 9.99881, 9.999722 
7.349809e+2, 3.0459148e+2, -182572.02, -40627.902, 9294.203, 0.06588274, -0.05533964, -40021.926, -40021.926, 0.0000000073965225, 9.998542, 10.000423 
7.349789e+2, 3.1459206e+2, -230340.44, -56765.668, 6078.9087, 0.085581966, -0.04241528, -56553.035, -56553.035, 0.0000004773962, 9.998184, 10.000484 
7.4502426e+2, 1.2460513e+2, -1535545.0, -1717451.4, -72345.34, -0.059265126, 0.08113746, -1510281.5, 208596.44, 0.0, 10.001621, 9.999198 
7.450231e+2, 1.3460451e+2, -1493214.0, -1648684.0, 68460.21, -0.07361871, 0.09969922, -1467365.6, 153518.08, 0.0, 10.001238, 9.999188 
7.450217e+2, 1.4460327e+2, -1425325.6, -1554577.1, -1838.603, -0.012605839, 0.053490993, -1425299.5, 97595.39, 0.0, 10.000991, 9.999276 
7.450185e+2, 1.546025e+2, -1336185.5, -1460328.0, -4773.4224, -0.043806802, 0.04678714, -1336002.1, 88898.77, 0.0, 10.000928, 9.999281 
7.450155e+2, 1.6460167e+2, -1283996.3, -1421352.1, 688.5005, -0.050340977, 0.05116934, -1283992.9, 42916.07, 0.0, 10.000772, 9.998951 
7.45013e+2, 1.7460077e+2, -1225481.3, -1343798.1, 1434.2826, -0.019621205, 0.066914536, -1225463.9, 3455.128, 0.0, 10.000507, 9.998939 
7.4501026e+2, 1.8459985e+2, -1141402.0, -1234558.4, -6708.173, -0.0022908452, 0.074303515, -1140921.5, -9992.786, 0.0, 10.000334, 9.999099 
7.450073e+2, 1.9459893e+2, -1052451.6, -1140047.3, -9744.327, -0.0032581226, 0.06973229, -1051380.8, -18443.1, 0.0, 10.000268, 9.999106 
7.450044e+2, 2.045981e+2, -957882.4, -1028554.75, -6809.121, -0.00014919684, 0.069101706, -957232.3, -22286.74, 0.0, 10.000178, 9.999243 
7.450016e+2, 2.1459736e+2, -876184.3, -937455.1, -3880.7124, 0.008476891, 0.07047261, -875939.5, -38987.418, 0.0, 10.000062, 9.999251 
7.44999e+2, 2.2459666e+2, -791257.2, -834125.3, 5410.8633, 0.015642505, 0.07084049, -790584.75, -51626.04, 0.0, 9.999923, 9.999355 
7.449965e+2, 2.3459601e+2, -717096.5, -746690.7, -1278.0902, 0.02076546, 0.06813485, -717041.44, -76076.016, 0.0, 9.999755, 9.999364 
7.44994e+2, 2.445954e+2, -609068.94, -582860.75, 194.41144, 0.024613788, 0.044717945, -582859.3, -39889.637, 0.0, 9.999561, 9.999908 
7.4499154e+2, 2.5459486e+2, -541774.2, -496647.0, 4877.73, 0.027295683, -0.005609134, -496125.8, -51154.777, 0.0, 9.999337, 9.999935 
7.4498904e+2, 2.6459453e+2, -463590.0, -402810.5, 2799.5635, 0.030866282, -0.03504913, -402681.8, -55710.36, 0.0, 9.999179, 9.999984 
7.4498653e+2, 2.7459446e+2, -376915.22, -309487.2, -164.46594, 0.03517116, -0.041518785, -309486.78, -60516.133, 0.0, 9.999097, 9.99999 
7.449841e+2, 2.8459436e+2, -312578.38, -248486.39, 7229.0938, 0.043964878, -0.0393344, -247681.13, -96710.44, 0.0, 9.998956, 9.9998045 
7.4498177e+2, 2.9459426e+2, -245254.64, -165711.52, 12846.17, 0.058507722, -0.031054633, -163688.31, -110716.5, 0.0, 9.998747, 9.9998 
7.4497944e+2, 3.04594e+2, -192884.69, -44449.81, 13990.801, 0.07017292, -0.06446641, -43142.613, -43142.613, 0.0000000015345106, 9.9984665, 10.000433 
7.44977e+2, 3.1459475e+2, -241171.75, -61484.13, 8922.498, 0.07775086, -0.03806672, -61042.164, -61042.164, 0.00000026410652, 9.998109, 10.000488 
7.55026e+2, 1.2460792e+2, -1534700.6, -1715724.8, -84285.14, -0.04658535, 0.08461928, -1501534.0, 217316.44, 0.0, 10.001621, 9.99921 
7.550242e+2, 1.3460729e+2, -1489885.3, -1642125.0, 53559.49, -0.085747175, 0.097094096, -1472930.6, 147925.64, 0.0, 10.001239, 9.999233 
7.550227e+2, 1.446061e+2, -1424354.8, -1553043.3, -5080.6895, -0.017827641, 0.052919984, -1424154.5, 98712.45, 0.0, 10.000992, 9.999287 
7.550194e+2, 1.5460537e+2, -1335529.4, -1459349.6, -7281.594, -0.042894654, 0.051624518, -1335102.6, 89769.48, 0.0, 10.000929, 9.999288 
7.5501627e+2, 1.6460456e+2, -1283792.6, -1421269.6, -9171.149, -0.049279913, 0.055705085, -1283183.5, 43696.477, 0.0, 10.000773, 9.998951 
7.550134e+2, 1.746036e+2, -1225289.9, -1343738.3, -8751.462, -0.025743587, 0.06450703, -1224646.8, 4243.9614, 0.0, 10.000508, 9.998939 
7.550105e+2, 1.846026e+2, -1147154.8, -1246807.9, -9650.394, -0.009809106, 0.06820881, -1146228.9, -15327.597, 0.0, 10.000335, 9.999015 
7.550075e+2, 1.9460158e+2, -1058567.8, -1153071.5, -12341.689, -0.005222353, 0.06352341, -1056982.5, -24071.172, 0.0, 10.000269, 9.999018 
7.550046e+2, 2.046007e+2, -953752.8, -1020298.5, -11227.843, 0.0015372679, 0.0607403, -951909.44, -16990.064, 0.0, 10.000179, 9.9993 
7.550017e+2, 2.146e+2, -871609.2, -928264.3, -8304.101, 0.011593293, 0.057442416, -870417.1, -33492.203, 0.0, 10.000063, 9.999314 
7.549989e+2, 2.2459923e+2, -803467.94, -859797.4, -814.5502, 0.019512242, 0.056575704, -803456.1, -64524.01, 0.0, 9.999924, 9.999179 
7.5499624e+2, 2.3459841e+2, -730142.56, -774118.5, -7524.512, 0.024574902, 0.057075653, -728890.7, -87949.47, 0.0, 9.999756, 9.999175 
7.5499356e+2, 2.4459782e+2, -600594.25, -565598.0, -8117.3784, 0.024661299, 0.03935848, -563806.8, -20861.354, 0.0, 9.999562, 10.000027 
7.5499076e+2, 2.5459749e+2, -532446.3, -477493.34, -3481.062, 0.019153696, -0.0026518719, -477273.7, -32329.59, 0.0, 9.999338, 10.000067 
7.549881e+2, 2.6459715e+2, -467100.38, -410274.53, -397.9514, 0.018022316, -0.037284445, -410271.72, -63327.344, 0.0, 9.999179, 9.999932 
7.5498545e+2, 2.745968e+2, -380936.88, -318069.53, -3019.9988, 0.022051662, -0.06456025, -317924.78, -68978.32, 0.0, 9.999098, 9.999931 
7.5498295e+2, 2.8459674e+2, -302250.34, -227190.28, -358.8725, 0.03773563, -0.06619493, -227188.56, -76242.055, 0.0, 9.998956, 9.99995 
7.5498056e+2, 2.945969e+2, -234510.78, -143299.55, 5181.7505, 0.06696725, -0.0421991, -143006.11, -90061.766, 0.0, 9.998746, 9.999954 
7.5497794e+2, 3.0459684e+2, -193463.44, -45679.5, 907.91284, 0.07832844, -0.07239416, -45673.92, -45673.92, 0.00000000001992495, 9.9984665, 10.000425 
7.54975e+2, 3.1459737e+2, -242353.95, -64236.93, -4165.48, 0.06871776, -0.059073076, -64139.57, -64139.57, 0.000000109993245, 9.998109, 10.000469 
7.650276e+2, 1.24610804e+2, -1558892.4, -1726596.5, -72042.945, -0.041186623, 0.07330339, -1532194.3, 186627.42, 0.0, 10.001452, 9.999217 
7.650253e+2, 1.3461025e+2, -1475584.4, -1630918.6, 61733.58, -0.09898739, 0.090991825, -1454038.5, 166788.16, 0.0, 10.00132, 9.99927 
7.650237e+2, 1.4460912e+2, -1408180.0, -1545187.6, 5363.4663, -0.021057859, 0.051958833, -1407970.4, 114866.19, 0.0, 10.001103, 9.999287 
7.650203e+2, 1.546084e+2, -1351967.1, -1467453.5, 2762.8516, -0.039786384, 0.04860937, -1351901.0, 72940.82, 0.0, 10.000817, 9.999285 
7.6501703e+2, 1.6460751e+2, -1310798.1, -1439633.9, -1786.7013, -0.045057423, 0.050046276, -1310773.4, 16076.858, 0.0, 10.000611, 9.998902 
7.6501393e+2, 1.7460646e+2, -1230058.0, -1351630.6, -5381.863, -0.026661286, 0.055506177, -1229820.3, -958.2747, 0.0, 10.0005, 9.998888 
7.650109e+2, 1.8460545e+2, -1141022.4, -1247470.4, -2763.4707, -0.01060856, 0.05998052, -1140950.6, -10077.83, 0.0, 10.000393, 9.998982 
7.6500785e+2, 1.9460444e+2, -1057799.5, -1156309.3, -1199.332, 0.00019625564, 0.06077885, -1057784.9, -24902.053, 0.0, 10.00029, 9.998984 
7.650048e+2, 2.0460355e+2, -955991.1, -1023954.5, -2244.7324, 0.005969196, 0.05768871, -955917.06, -21026.03, 0.0, 10.000175, 9.999276 
7.650017e+2, 2.1460274e+2, -875974.44, -932950.56, -6092.4478, 0.0067525306, 0.04751484, -875330.25, -38433.043, 0.0, 10.000045, 9.99929 
7.6499873e+2, 2.2460192e+2, -809760.1, -862401.5, 2025.0256, 0.012212348, 0.043279495, -809682.4, -70777.734, 0.0, 9.999879, 9.999183 
7.6499593e+2, 2.3460114e+2, -742051.9, -779435.44, 9523.4375, 0.022776222, 0.04443934, -739765.6, -98852.18, 0.0, 9.999673, 9.999179 
7.6499313e+2, 2.4460053e+2, -610472.8, -574387.44, 11510.125, 0.024727674, 0.0286096, -571028.7, -28111.055, 0.0, 9.999512, 9.99999 
7.649901e+2, 2.546002e+2, -525153.0, -478201.5, 3227.8582, 0.016700706, -0.010039764, -477980.63, -33064.176, 0.0, 9.999407, 10.000029 
7.6498723e+2, 2.6459983e+2, -459826.9, -403951.78, 1599.265, 0.015251886, -0.04619952, -403906.03, -56989.0, 0.0, 9.999217, 9.999957 
7.649844e+2, 2.7459946e+2, -403382.8, -325816.94, 5240.3247, 0.021539073, -0.080783874, -325464.5, -76544.91, 0.0, 9.998931, 9.999958 
7.6498175e+2, 2.8459942e+2, -338499.75, -235584.45, 7264.2324, 0.035404205, -0.082564235, -235074.23, -84155.09, 0.0, 9.998669, 10.000031 
7.649791e+2, 2.945998e+2, -273994.56, -153083.19, 7186.1826, 0.058092963, -0.050346624, -152657.6, -99742.22, 0.0, 9.998436, 10.000036 
7.6497626e+2, 3.0459976e+2, -226865.86, -51886.516, 432.24234, 0.07302027, -0.08143189, -51885.45, -51885.45, 0.0, 9.998195, 10.000512 
7.6497316e+2, 3.1460026e+2, -259818.8, -63202.082, 2918.854, 0.07856992, -0.08220701, -63158.758, -63158.758, 0.000000028836135, 9.997949, 10.000553 
7.7502906e+2, 1.2461379e+2, -1558897.6, -1726871.6, -73786.92, -0.043814432, 0.047266558, -1531088.8, 187702.77, 0.0, 10.001452, 9.999215 
7.750265e+2, 1.3461344e+2, -1473559.3, -1626953.5, 56279.867, -0.113474935, 0.081402175, -1455125.6, 165669.0, 0.0, 10.00132, 9.999298 
7.750248e+2, 1.4461242e+2, -1409017.3, -1547205.6, -5662.4316, -0.02245106, 0.050566338, -1408785.6, 114018.01, 0.0, 10.001104, 9.999272 
7.750212e+2, 1.5461157e+2, -1352791.5, -1469599.9, -8196.576, -0.03465451, 0.037847597, -1352219.1, 72590.85, 0.0, 10.000819, 9.9992695 
7.750177e+2, 1.6461058e+2, -1317522.4, -1454087.5, -6471.419, -0.037818976, 0.034286737, -1317216.5, 9603.063, 0.0, 10.000613, 9.998803 
7.7501446e+2, 1.7460942e+2, -1237155.0, -1366804.5, -9758.702, -0.022492157, 0.0399445, -1236424.5, -7592.0615, 0.0, 10.000502, 9.998783 
7.7501136e+2, 1.8460841e+2, -1139741.0, -1245151.1, -6825.307, -0.004812873, 0.049642663, -1139300.9, -8457.566, 0.0, 10.000394, 9.998998 
7.750083e+2, 1.9460754e+2, -1056146.9, -1153198.8, -5208.3564, 0.012917019, 0.061470836, -1055868.1, -23016.355, 0.0, 10.000291, 9.999006 
7.7500504e+2, 2.0460661e+2, -963273.25, -1039373.7, -7186.0405, 0.013045725, 0.05992465, -962600.6, -27740.275, 0.0, 10.000176, 9.99917 
7.7500165e+2, 2.146056e+2, -883699.25, -949329.25, -11079.474, -0.006150247, 0.04067114, -881879.3, -45010.383, 0.0, 10.000046, 9.999178 
7.749984e+2, 2.2460479e+2, -796901.06, -836078.75, -5663.167, -0.0063639446, 0.030931186, -796098.9, -57222.605, 0.0, 9.99988, 9.999363 
7.7499557e+2, 2.3460415e+2, -728322.7, -751263.3, 1797.7238, 0.015291811, 0.030267784, -728182.7, -87300.62, 0.0, 9.999674, 9.999372 
7.749926e+2, 2.4460354e+2, -624021.5, -602825.75, 7426.968, 0.024732037, 0.012487335, -600482.44, -57596.35, 0.0, 9.999513, 9.999795 
7.7498955e+2, 2.5460297e+2, -539804.25, -508954.63, -646.3089, 0.019829316, -0.02785218, -508941.1, -64053.008, 0.0, 9.999408, 9.999818 
7.7498657e+2, 2.6460257e+2, -452882.1, -389828.72, -8899.37, 0.02245475, -0.06184463, -388596.72, -41707.223, 0.0, 9.999218, 10.000053 
7.749835e+2, 2.7460235e+2, -395748.97, -310044.0, -5457.239, 0.033688128, -0.090049066, -309697.9, -60807.766, 0.0, 9.998931, 10.000067 
7.749804e+2, 2.846024e+2, -337729.3, -233982.47, -1465.6941, 0.03686639, -0.08823078, -233961.77, -83073.05, 0.0, 9.998668, 10.000043 
7.7497727e+2, 2.946028e+2, -273401.34, -152007.25, -1355.7072, 0.031257972, -0.055350173, -151992.11, -99107.09, 0.0, 9.998436, 10.000044 
7.749742e+2, 3.046028e+2, -214201.6, -25797.047, -8687.339, 0.05364863, -0.09150135, -25397.32, -25397.32, 0.0, 9.998196, 10.000692 
7.7497137e+2, 3.1460336e+2, -247071.66, -36579.31, -6021.1206, 0.10726262, -0.107666425, -36407.215, -36407.215, 0.0000000029769756, 9.997948, 10.000737 
7.850304e+2, 1.246172e+2, -1549722.9, -1717729.0, -65141.992, -0.054755375, 0.045535777, -1527424.5, 191333.53, 0.0, 10.001495, 9.999257 
7.850277e+2, 1.3461684e+2, -1491210.9, -1627483.6, 63596.453, -0.11575074, 0.07248918, -1466142.8, 154617.84, 0.0, 10.001165, 9.999369 
7.8502595e+2, 1.4461583e+2, -1436671.5, -1565780.5, 3885.537, -0.01096056, 0.042641815, -1436554.8, 86214.48, 0.0, 10.000937, 9.999225 
7.8502196e+2, 1.5461493e+2, -1350463.6, -1474196.8, -1094.522, -0.037273392, 0.030261299, -1350453.9, 74322.59, 0.0, 10.00086, 9.999218 
7.850183e+2, 1.646139e+2, -1299683.3, -1448816.8, 3411.7205, -0.04375047, 0.026321515, -1299605.3, 27181.342, 0.0, 10.000751, 9.998773 
7.8501505e+2, 1.7461272e+2, -1224892.1, -1364168.5, 5661.034, -0.01914174, 0.030939573, -1224662.5, 4137.3203, 0.0, 10.0006, 9.998754 
7.8501177e+2, 1.846117e+2, -1132088.1, -1241700.8, 10843.516, 0.0004546213, 0.04258652, -1131025.8, -215.22705, 0.0, 10.000447, 9.998995 
7.8500855e+2, 1.9461088e+2, -1056011.4, -1153277.4, 10563.85, 0.011504676, 0.059933603, -1054877.3, -22058.934, 0.0, 10.000293, 9.999004 
7.850052e+2, 2.0460992e+2, -973887.25, -1052999.3, 8239.689, 0.009127083, 0.057441108, -973038.2, -38210.77, 0.0, 10.00014, 9.999094 
7.8500164e+2, 2.1460873e+2, -897410.1, -964871.25, 6526.525, -0.007701103, 0.029918423, -896784.5, -59946.73, 0.0, 9.99999, 9.999098 
7.849983e+2, 2.2460787e+2, -797271.5, -831077.3, 7344.639, -0.0067115673, 0.018055016, -795744.75, -56899.473, 0.0, 9.999856, 9.999409 
7.8499526e+2, 2.3460734e+2, -715264.3, -739048.5, 3966.2495, 0.014713956, 0.022127897, -714620.4, -73770.984, 0.0, 9.999739, 9.999424 
7.849921e+2, 2.4460669e+2, -625969.2, -610974.8, 7007.031, 0.023613757, 0.000710752, -608210.1, -65356.543, 0.0, 9.999532, 9.99973 
7.849888e+2, 2.5460592e+2, -572153.4, -532452.5, 9291.499, 0.017836517, -0.052713398, -530385.56, -85527.664, 0.0, 9.99922, 9.999745 
7.8498566e+2, 2.646055e+2, -483374.4, -400613.2, 4097.3716, 0.021082098, -0.08375349, -400410.84, -53551.344, 0.0, 9.998992, 10.000088 
7.8498244e+2, 2.7460557e+2, -402714.4, -309083.9, 2038.3517, 0.034675106, -0.09046411, -309039.56, -60181.613, 0.0, 9.998865, 10.000105 
7.8497905e+2, 2.846057e+2, -334480.97, -226815.56, 2689.904, 0.035650972, -0.08405753, -226748.4, -75892.74, 0.0, 9.998667, 10.000092 
7.849756e+2, 2.9460603e+2, -277561.72, -148423.34, 5697.3364, 0.022530135, -0.066034585, -148172.47, -95319.76, 0.0, 9.998384, 10.000093 
7.8497237e+2, 3.04606e+2, -221550.02, -26743.158, -4868.725, 0.047191292, -0.10663819, -26621.553, -26621.553, 0.0, 9.998135, 10.000714 
7.8496945e+2, 3.146066e+2, -248266.17, -34881.566, -14578.162, 0.11429425, -0.11825719, -33890.21, -33890.21, 0.0, 9.997931, 10.000756 
7.9503167e+2, 1.2462101e+2, -1543811.3, -1705711.8, -73091.66, -0.074732244, 0.0673014, -1515695.8, 203025.28, 0.0, 10.001495, 9.99934 
7.95029e+2, 1.3462047e+2, -1483301.8, -1611425.6, 50662.664, -0.106079295, 0.06438576, -1465689.8, 155034.63, 0.0, 10.001166, 9.999478 
7.950271e+2, 1.4461942e+2, -1442248.0, -1577890.8, 53.272263, 0.013160851, 0.02838588, -1442248.0, 80485.234, 0.0, 10.000939, 9.999142 
7.950228e+2, 1.5461853e+2, -1356567.9, -1487364.1, -4176.969, -0.047709614, 0.025831606, -1356434.6, 68306.45, 0.0, 10.000861, 9.999127 
7.9501885e+2, 1.6461751e+2, -1296946.5, -1443555.4, -2312.667, -0.06286958, 0.026081696, -1296910.0, 29841.092, 0.0, 10.0007515, 9.998809 
7.950157e+2, 1.7461634e+2, -1221733.1, -1358015.4, -181.59926, -0.016655343, 0.028425438, -1221732.9, 7030.7896, 0.0, 10.000601, 9.9987955 
7.9501235e+2, 1.8461533e+2, -1133620.5, -1245234.8, 4820.706, 0.005126865, 0.038785964, -1133412.8, -2638.5842, 0.0, 10.000448, 9.998971 
7.9500866e+2, 1.9461448e+2, -1057738.5, -1157247.9, 4571.33, -0.0041045393, 0.05621719, -1057529.0, -24746.604, 0.0, 10.000294, 9.998977 
7.9500514e+2, 2.0461343e+2, -977209.6, -1060279.9, 2462.9915, -0.0058584213, 0.050296873, -977136.7, -42344.547, 0.0, 10.000142, 9.999043 
7.950017e+2, 2.1461214e+2, -900834.06, -972340.2, 798.66425, 0.0020530808, 0.015257571, -900825.2, -64021.457, 0.0, 9.999991, 9.999046 
7.9499835e+2, 2.2461121e+2, -803506.25, -844382.6, 2834.012, 0.011115056, 0.004645408, -803310.7, -64499.016, 0.0, 9.999857, 9.999317 
7.9499507e+2, 2.346107e+2, -721471.4, -752312.3, -426.60547, 0.020954447, 0.020001069, -721465.5, -80650.04, 0.0, 9.99974, 9.999333 
7.949916e+2, 2.4460998e+2, -621465.75, -601970.56, -4433.258, 0.021259971, -0.006727152, -601009.8, -58189.66, 0.0, 9.999532, 9.999791 
7.94988e+2, 2.5460902e+2, -567394.75, -522789.75, -2390.2207, 0.0106637, -0.08456187, -522662.03, -77836.164, 0.0, 9.999221, 9.999812 
7.949846e+2, 2.6460868e+2, -485589.7, -405425.5, -938.4764, 0.011023141, -0.111796774, -405414.5, -58587.418, 0.0, 9.998993, 10.000055 
7.949812e+2, 2.7460906e+2, -405119.63, -314406.97, -2603.8882, 0.023998894, -0.08194222, -314332.28, -65509.203, 0.0, 9.998866, 10.000068 
7.949777e+2, 2.846093e+2, -328516.34, -214712.83, -7620.755, 0.03127328, -0.06997464, -214204.77, -63384.64, 0.0, 9.998668, 10.000175 
7.949741e+2, 2.9460937e+2, -271486.1, -135827.94, -4837.6304, 0.032224257, -0.082325116, -135655.64, -82837.01, 0.0, 9.9983835, 10.00018 
7.949706e+2, 3.0460933e+2, -231247.95, -46887.125, -12555.023, 0.05388307, -0.12667051, -46036.055, -46036.055, 0.0, 9.998134, 10.000577 
7.949672e+2, 3.1460997e+2, -258600.56, -56472.563, -21848.838, 0.09834605, -0.11415004, -54137.8, -54137.8, 0.0, 9.997931, 10.000608 
8.050332e+2, 1.2462498e+2, -1549050.0, -1709787.5, -55898.25, -0.07131498, 0.07596308, -1531522.1, 187159.98, 0.0, 10.001467, 9.999326 
8.0503017e+2, 1.3462429e+2, -1471423.9, -1604887.3, 54646.16, -0.11037825, 0.057669744, -1451904.1, 168782.42, 0.0, 10.001245, 9.999485 
8.0502814e+2, 1.4462323e+2, -1431463.9, -1581044.0, 6254.258, 0.017044336, 0.023236077, -1431202.9, 91492.64, 0.0, 10.00105, 9.999066 
8.050236e+2, 1.5462235e+2, -1355417.5, -1495328.9, 3518.002, -0.046756763, 0.029544145, -1355329.1, 69374.72, 0.0, 10.000907, 9.999051 
8.050196e+2, 1.6462132e+2, -1296089.9, -1438230.8, 3794.789, -0.06405254, 0.031383205, -1295988.6, 30725.32, 0.0, 10.000736, 9.998853 
8.050162e+2, 1.7462014e+2, -1227843.0, -1355525.3, 6180.9004, -0.019239407, 0.026905494, -1227544.5, 1181.5131, 0.0, 10.000536, 9.998844 
8.050127e+2, 1.8461907e+2, -1143717.9, -1255601.9, 12930.906, 0.0011969417, 0.03246634, -1142242.8, -11506.189, 0.0, 10.000403, 9.998921 
8.0500895e+2, 1.9461815e+2, -1054060.0, -1161444.1, 10660.606, -0.009207603, 0.047467854, -1053012.0, -20266.172, 0.0, 10.000345, 9.998923 
8.050053e+2, 2.0461708e+2, -962547.6, -1056288.8, 7044.4023, -0.0077487756, 0.043370787, -962021.25, -27265.37, 0.0, 10.000257, 9.999016 
8.0500185e+2, 2.146158e+2, -882436.56, -966434.56, 7004.51, 0.008301996, 0.014918737, -881856.44, -45089.38, 0.0, 10.000132, 9.99902 
8.049983e+2, 2.2461484e+2, -794027.5, -845370.56, 9593.024, 0.018685807, 0.0024996279, -792293.7, -53518.207, 0.0, 9.999947, 9.999267 
8.0499476e+2, 2.3461416e+2, -732164.75, -763167.56, 9082.714, 0.021991167, 0.006617058, -729699.8, -88919.31, 0.0, 9.999691, 9.999281 
8.0499107e+2, 2.446134e+2, -635731.3, -609724.6, 479.4394, 0.020075312, -0.022537123, -609715.8, -66930.164, 0.0, 9.999438, 9.999783 
8.0498725e+2, 2.546125e+2, -572270.0, -525812.25, -3335.8596, 0.012383017, -0.09281119, -525573.94, -80783.04, 0.0, 9.99919, 9.999805 
8.049835e+2, 2.6461217e+2, -487681.88, -404082.38, 1431.737, 0.011412038, -0.11758483, -404057.84, -57265.934, 0.0, 9.998969, 10.000075 
8.049799e+2, 2.7461255e+2, -416643.7, -317517.44, 4146.0044, 0.017991371, -0.09109687, -317344.3, -68556.35, 0.0, 9.998777, 10.000089 
8.049763e+2, 2.846128e+2, -348403.5, -220071.78, -6050.2397, 0.026274582, -0.08038109, -219787.17, -69002.36, 0.0, 9.998513, 10.000212 
8.049724e+2, 2.946129e+2, -299824.56, -145208.72, -7386.5215, 0.036769573, -0.09159276, -144856.64, -92073.88, 0.0, 9.998171, 10.000217 
8.049687e+2, 3.0461287e+2, -254664.19, -64427.977, -6182.1665, 0.05780203, -0.13382529, -64227.28, -64227.28, 0.0, 9.998, 10.00052 
8.049651e+2, 3.1461352e+2, -249791.39, -59128.85, -8858.736, 0.08970909, -0.12079806, -58718.133, -58718.133, 0.0, 9.998021, 10.000546 
8.150349e+2, 1.2462913e+2, -1556721.6, -1726141.0, -59061.35, -0.04570578, 0.07146806, -1538164.8, 180476.2, 0.0, 10.001468, 9.999213 
8.150312e+2, 1.3462833e+2, -1478193.0, -1619373.5, 45856.223, -0.12866318, 0.052260306, -1464606.1, 156040.58, 0.0, 10.001246, 9.999385 
8.15029e+2, 1.4462727e+2, -1435940.0, -1590887.0, 384.8009, 0.00087045674, 0.027017862, -1435939.0, 86717.0, 0.0, 10.001051, 9.998999 
8.150247e+2, 1.5462641e+2, -1359716.8, -1504818.6, -2008.9431, -0.034537513, 0.04136192, -1359688.9, 64975.703, 0.0, 10.000909, 9.998985 
8.150205e+2, 1.6462536e+2, -1292381.9, -1431094.1, -3897.5454, -0.047492284, 0.04223826, -1292272.5, 34402.273, 0.0, 10.000738, 9.998901 
8.150167e+2, 1.7462412e+2, -1223897.8, -1347864.6, -1554.7738, -0.027005984, 0.026407955, -1223878.3, 4808.3164, 0.0, 10.000538, 9.998896 
8.1501293e+2, 1.8462296e+2, -1148926.0, -1266883.3, 10408.546, -0.011443119, 0.023651024, -1148014.6, -17316.734, 0.0, 10.000404, 9.998843 
8.1500936e+2, 1.946219e+2, -1059566.8, -1173323.8, 8324.253, -0.003891085, 0.033669267, -1058960.9, -26252.334, 0.0, 10.000346, 9.998841 
8.1500566e+2, 2.0462087e+2, -962988.2, -1057621.9, 2265.7222, 0.003368177, 0.03662063, -962934.0, -28215.43, 0.0, 10.0002575, 9.999006 
8.15002e+2, 2.146198e+2, -882581.25, -967147.44, 2216.1794, 0.010932297, 0.028909838, -882523.25, -45795.414, 0.0, 10.000133, 9.999015 
8.149982e+2, 2.2461876e+2, -794708.5, -847190.0, 92.059, 0.015890254, 0.011631678, -794708.4, -55971.82, 0.0, 9.999948, 9.999254 
8.149944e+2, 2.3461774e+2, -732986.2, -765253.94, -520.0418, 0.017771546, -0.018024474, -732977.8, -92233.305, 0.0, 9.999692, 9.999267 
8.149905e+2, 2.4461693e+2, -641371.2, -621771.06, -8904.349, 0.020006085, -0.0466711, -618329.94, -75579.82, 0.0, 9.999439, 9.999701 
8.149865e+2, 2.5461635e+2, -578043.75, -538118.0, -12639.412, 0.02279577, -0.07731609, -534453.1, -89700.04, 0.0, 9.999191, 9.999722 
8.149826e+2, 2.6461604e+2, -482547.38, -393745.78, -5815.58, 0.02200955, -0.10103176, -393366.53, -46612.45, 0.0, 9.998969, 10.000146 
8.149787e+2, 2.7461603e+2, -411153.6, -306424.47, -2962.797, 0.016797477, -0.1180439, -306340.72, -57587.938, 0.0, 9.998777, 10.000165 
8.149747e+2, 2.8461623e+2, -349205.4, -221955.5, -18704.934, 0.020739218, -0.115367465, -219262.97, -68513.125, 0.0, 9.998513, 10.000199 
8.149705e+2, 2.9461667e+2, -300942.25, -147617.05, -20111.162, 0.035387244, -0.09362855, -145023.02, -92277.77, 0.0, 9.998171, 10.000202 
8.149667e+2, 3.046167e+2, -253233.14, -61463.176, -5527.9956, 0.058165237, -0.12789053, -61303.957, -61303.957, 0.0, 9.998, 10.000541 
8.149631e+2, 3.1461713e+2, -248484.95, -56389.38, -7655.4907, 0.08860692, -0.13867702, -56084.773, -56084.773, 0.0, 9.99802, 10.000566 
8.2503647e+2, 1.24633476e+2, -1544556.3, -1734532.9, -37492.543, -0.04991729, 0.056379933, -1537424.8, 181172.42, 0.0, 10.001614, 9.999085 
8.250325e+2, 1.3463262e+2, -1458131.4, -1622680.3, 59976.92, -0.1367722, 0.042567164, -1438590.8, 182013.38, 0.0, 10.001441, 9.999269 
8.250302e+2, 1.4463156e+2, -1413306.8, -1586466.9, 14728.045, 0.0026222388, 0.026994564, -1412063.0, 110550.695, 0.0, 10.001235, 9.99894 
8.250256e+2, 1.5463066e+2, -1348302.0, -1505635.0, 13225.489, -0.032035735, 0.043175433, -1347198.0, 77424.94, 0.0, 10.001015, 9.998928 
8.250213e+2, 1.6462955e+2, -1276567.3, -1426308.0, 10395.345, -0.04651192, 0.04243466, -1275849.0, 50784.496, 0.0, 10.000859, 9.998875 
8.2501733e+2, 1.7462821e+2, -1190743.3, -1334608.8, 6901.104, -0.03040402, 0.020901127, -1190412.9, 38232.875, 0.0, 10.000777, 9.998871 
8.250134e+2, 1.84627e+2, -1117456.8, -1256968.5, 17460.06, -0.015069028, 0.015397768, -1115304.9, 15352.752, 0.0, 10.000644, 9.998796 
8.2500976e+2, 1.9462591e+2, -1047955.1, -1173029.8, 17812.07, -0.0029578567, 0.026037823, -1045467.94, -12799.08, 0.0, 10.00045, 9.998793 
8.25006e+2, 2.0462486e+2, -964792.3, -1060093.8, 11372.277, 0.005706764, 0.03206782, -963454.06, -28775.047, 0.0, 10.000253, 9.998991 
8.250021e+2, 2.1462384e+2, -895669.9, -974820.1, 10527.397, 0.011099089, 0.03030027, -894293.6, -57605.688, 0.0, 10.000049, 9.9990015 
8.249981e+2, 2.2462277e+2, -808621.7, -851844.44, 6566.748, 0.014212198, 0.010266097, -807646.0, -68949.33, 0.0, 9.999844, 9.999272 
8.24994e+2, 2.3462164e+2, -739979.0, -766549.6, 8123.7866, 0.014664446, -0.03213361, -737692.06, -96986.82, 0.0, 9.999636, 9.999285 
8.249899e+2, 2.446208e+2, -645433.2, -630656.9, 2263.1587, 0.019991722, -0.060973678, -630318.0, -87606.984, 0.0, 9.999442, 9.999638 
8.2498586e+2, 2.546203e+2, -571657.56, -542217.56, -142.98201, 0.030969135, -0.077352166, -542216.9, -97503.08, 0.0, 9.999267, 9.999656 
8.249817e+2, 2.6462e+2, -477035.06, -389482.84, 2767.579, 0.03083779, -0.09839988, -389395.44, -42680.465, 0.0, 9.9990015, 10.00016 
8.249774e+2, 2.746199e+2, -431018.66, -314022.22, 839.60236, 0.017550964, -0.12633643, -314016.2, -65301.836, 0.0, 9.998633, 10.000182 
8.2497317e+2, 2.8462008e+2, -370409.47, -233248.77, -15958.788, 0.018482983, -0.1264707, -231416.42, -80704.79, 0.0, 9.998373, 10.000189 
8.2496876e+2, 2.9462057e+2, -292778.53, -144832.05, -17099.986, 0.03624399, -0.09797677, -142881.31, -90174.67, 0.0, 9.998233, 10.000191 
8.2496464e+2, 3.0462065e+2, -246508.75, -49711.17, 3058.403, 0.057466064, -0.12910967, -49663.656, -49663.656, 0.0, 9.99801, 10.000616 
8.249608e+2, 3.1462112e+2, -290767.1, -68121.96, 5222.466, 0.08013755, -0.14402528, -67999.52, -67999.52, 0.0, 9.997693, 10.000643 
8.350377e+2, 1.2463802e+2, -1554489.9, -1755618.0, -38192.49, -0.08430601, 0.030736284, -1547481.6, 171068.69, 0.0, 10.001615, 9.99894 
8.3503395e+2, 1.3463715e+2, -1467551.9, -1642603.5, 53023.75, -0.1349346, 0.02873555, -1452743.5, 167814.9, 0.0, 10.001442, 9.999131 
8.350316e+2, 1.446361e+2, -1416708.6, -1594010.1, 5991.18, 0.021938803, 0.0232982, -1416506.4, 106062.04, 0.0, 10.001237, 9.998888 
8.350266e+2, 1.546351e+2, -1351537.8, -1512903.9, 4744.2217, -0.039350484, 0.035101734, -1351398.4, 73180.195, 0.0, 10.001016, 9.9988785 
8.3502203e+2, 1.646339e+2, -1283445.8, -1441187.6, 6961.6587, -0.06111522, 0.03208137, -1283139.1, 43451.074, 0.0, 10.000861, 9.998773 
8.350181e+2, 1.7463246e+2, -1197724.5, -1349678.0, 3654.2493, -0.029513653, 0.010379761, -1197636.6, 30966.906, 0.0, 10.000779, 9.998767 
8.3501416e+2, 1.8463121e+2, -1118571.0, -1259764.4, 10090.746, -0.009821263, 0.007648178, -1117853.5, 12762.327, 0.0, 10.000646, 9.998776 
8.350102e+2, 1.9463016e+2, -1048875.6, -1175408.5, 10315.872, -0.0064946483, 0.02455221, -1048040.1, -15413.452, 0.0, 10.000451, 9.998776 
8.350062e+2, 2.0462908e+2, -966187.7, -1063439.3, 3590.7537, -0.0008302179, 0.029723097, -966055.25, -31418.033, 0.0, 10.000254, 9.998968 
8.3500206e+2, 2.1462797e+2, -897052.6, -978172.1, 2748.0278, 0.008707165, 0.019107148, -896959.7, -60312.32, 0.0, 10.000051, 9.998979 
8.3499795e+2, 2.246269e+2, -805230.6, -845239.5, -1339.8207, 0.013562615, -0.0015846788, -805185.8, -66529.89, 0.0, 9.999845, 9.999317 
8.3499366e+2, 2.3462589e+2, -736466.4, -759668.06, 280.17532, 0.012581346, -0.035648737, -736463.0, -95800.38, 0.0, 9.999637, 9.999331 
8.3498937e+2, 2.4462505e+2, -648425.3, -637264.94, -4397.2407, 0.019901581, -0.06541133, -635740.6, -93072.22, 0.0, 9.999443, 9.999592 
8.349852e+2, 2.546244e+2, -574867.0, -549333.4, -6656.657, 0.036868963, -0.09302593, -547702.2, -103029.11, 0.0, 9.999268, 9.999607 
8.349807e+2, 2.646241e+2, -480077.72, -396234.97, -10806.373, 0.03784983, -0.10974085, -394864.56, -48189.87, 0.0, 9.999002, 10.0001135 
8.349761e+2, 2.7462414e+2, -434260.3, -320982.78, -12897.379, 0.019891506, -0.11571773, -319532.88, -70860.05, 0.0, 9.998633, 10.000134 
8.349715e+2, 2.8462434e+2, -371081.25, -234755.31, -21280.916, 0.01911542, -0.113423735, -231510.53, -80840.234, 0.0, 9.998373, 10.000179 
8.34967e+2, 2.946246e+2, -293252.34, -146119.2, -22087.852, 0.039513145, -0.10470183, -142874.88, -90207.76, 0.0, 9.998233, 10.000182 
8.3496267e+2, 3.0462477e+2, -237339.39, -30896.46, -8384.833, 0.05585411, -0.13760483, -30556.465, -30556.465, 0.0, 9.99801, 10.000746 
8.349584e+2, 3.146255e+2, -281784.5, -49057.23, -6198.903, 0.063349076, -0.13723834, -48892.234, -48892.234, 0.0, 9.997691, 10.000775 
8.4503925e+2, 1.24642625e+2, -1550604.6, -1756572.4, -45174.547, -0.09268736, 0.018974788, -1541132.1, 177372.05, 0.0, 10.001654, 9.998915 
8.450353e+2, 1.346417e+2, -1472480.6, -1646984.1, 48116.105, -0.13674738, 0.01615087, -1460092.9, 160419.75, 0.0, 10.001417, 9.999113 
8.4503293e+2, 1.4464067e+2, -1417863.0, -1602556.4, 7431.5293, 0.028067831, 0.015084518, -1417564.5, 104958.36, 0.0, 10.001264, 9.998816 
8.450277e+2, 1.5463957e+2, -1327225.9, -1509388.3, 4680.885, -0.04267957, 0.023775185, -1327105.6, 97428.51, 0.0, 10.001219, 9.998804 
8.45023e+2, 1.6463833e+2, -1251461.6, -1425790.9, 8517.1455, -0.06651143, 0.020859707, -1251046.5, 75499.73, 0.0, 10.001081, 9.998772 
8.450189e+2, 1.7463693e+2, -1189206.4, -1345261.4, 12989.272, -0.028713513, 0.0028436382, -1188132.5, 40426.52, 0.0, 10.000837, 9.99877 
8.4501475e+2, 1.8463568e+2, -1123664.4, -1265050.0, 22323.39, -0.008257608, 0.0029400173, -1120223.5, 10347.64, 0.0, 10.000623, 9.998751 
8.450106e+2, 1.9463463e+2, -1052112.4, -1179838.0, 21620.861, -0.01032141, 0.02178912, -1048551.8, -15969.644, 0.0, 10.000442, 9.998751 
8.4500635e+2, 2.0463352e+2, -967304.44, -1070194.3, 13573.4795, -0.005999998, 0.027311172, -965543.9, -30950.604, 0.0, 10.000274, 9.998912 
8.450022e+2, 2.1463232e+2, -891100.25, -981651.06, 9931.405, 0.0068557356, 0.0154258115, -890023.75, -53419.305, 0.0, 10.000119, 9.99892 
8.449979e+2, 2.2463124e+2, -792572.44, -834793.94, 1973.3014, 0.0148746045, -0.0061462526, -792480.44, -53867.258, 0.0, 9.999914, 9.999355 
8.4499335e+2, 2.3463026e+2, -731744.3, -752530.25, 2934.2002, 0.016753439, -0.041126188, -731338.06, -90718.98, 0.0, 9.999649, 9.999374 
8.449889e+2, 2.4462944e+2, -655515.44, -638646.8, 957.7099, 0.024780482, -0.07279625, -638592.56, -95968.09, 0.0, 9.999387, 9.99961 
8.4498435e+2, 2.5462878e+2, -594339.8, -556856.06, 3471.8765, 0.039999183, -0.10307878, -556537.2, -111907.78, 0.0, 9.999127, 9.999623 
8.449797e+2, 2.6462847e+2, -499460.2, -410363.38, -837.55023, 0.03932781, -0.11684221, -410355.5, -63724.344, 0.0, 9.998891, 10.00007 
8.4497476e+2, 2.746286e+2, -430957.22, -324491.56, -3153.0232, 0.019944912, -0.11344932, -324398.28, -75768.945, 0.0, 9.998679, 10.000088 
8.449699e+2, 2.846288e+2, -354440.5, -219159.0, -5038.8936, 0.020679953, -0.109516494, -218971.56, -68344.98, 0.0, 9.998455, 10.000246 
8.4496534e+2, 2.946291e+2, -290448.0, -136773.11, 54.357037, 0.045838162, -0.10808758, -136773.08, -84150.125, 0.0, 9.998219, 10.000253 
8.4496063e+2, 3.0462924e+2, -247307.97, -36048.234, 6897.947, 0.057179168, -0.14269245, -35823.246, -35823.246, 0.0, 9.997944, 10.000742 
8.4495586e+2, 3.1462997e+2, -293223.13, -55383.258, -1942.3541, 0.0483475, -0.14089109, -55367.395, -55367.395, 0.0, 9.997617, 10.000767 
8.550411e+2, 1.2464729e+2, -1544102.5, -1743451.4, -47574.2, -0.076346315, 0.020700881, -1533331.1, 185127.25, 0.0, 10.001654, 9.999005 
8.550367e+2, 1.3464634e+2, -1465574.8, -1633020.8, 38831.36, -0.14230153, 0.004805117, -1457007.9, 163458.55, 0.0, 10.001418, 9.999208 
8.550341e+2, 1.4464529e+2, -1424217.8, -1616306.5, 5149.9834, 0.02113994, 0.0024605342, -1424079.8, 98396.8, 0.0, 10.001266, 9.998721 
8.550289e+2, 1.5464407e+2, -1333949.9, -1523853.4, 2876.202, -0.042156383, 0.009310643, -1333906.4, 90583.0, 0.0, 10.001221, 9.998705 
8.5502404e+2, 1.6464286e+2, -1244389.9, -1411602.1, -649.049, -0.06290635, 0.008821602, -1244387.4, 82113.9, 0.0, 10.001083, 9.998869 
8.5501975e+2, 1.7464164e+2, -1181602.6, -1330018.1, 3565.573, -0.028115172, -0.0016899434, -1181517.0, 46995.15, 0.0, 10.000838, 9.998874 
8.550154e+2, 1.8464045e+2, -1125808.4, -1270020.0, 15216.735, -0.0104786875, 0.0013108928, -1124220.3, 6303.0996, 0.0, 10.000625, 9.998716 
8.55011e+2, 1.9463934e+2, -1054583.3, -1185470.1, 14587.25, -0.014517725, 0.01772545, -1052977.3, -20442.041, 0.0, 10.000443, 9.998712 
8.550066e+2, 2.0463817e+2, -973494.8, -1083545.3, 7554.5845, -0.009873815, 0.02479524, -972978.6, -38431.477, 0.0, 10.000275, 9.998819 
8.550023e+2, 2.1463695e+2, -897456.9, -995378.6, 3989.3535, 0.0054902867, 0.019257454, -897294.6, -60735.44, 0.0, 10.000121, 9.998826 
8.549978e+2, 2.2463582e+2, -790325.75, -830599.2, -7958.3086, 0.01807055, -0.0034237108, -788810.1, -50241.695, 0.0, 9.999915, 9.999384 
8.549931e+2, 2.3463479e+2, -729051.4, -747418.6, -7040.8535, 0.027133897, -0.048610233, -726662.94, -86088.44, 0.0, 9.999651, 9.99941 
8.5498834e+2, 2.4463399e+2, -649797.56, -627200.8, -8834.441, 0.034564987, -0.08314665, -624156.9, -81577.56, 0.0, 9.999388, 9.999688 
8.549835e+2, 2.5463343e+2, -588735.44, -545538.4, -6226.029, 0.040199388, -0.10742384, -544658.94, -100076.09, 0.0, 9.999127, 9.999701 
8.549785e+2, 2.6463318e+2, -502389.75, -416739.25, -8715.023, 0.035107456, -0.11962692, -415861.5, -69277.03, 0.0, 9.998891, 10.000026 
8.549734e+2, 2.7463323e+2, -434082.94, -331466.8, -10893.008, 0.017671606, -0.11970279, -330323.22, -81739.24, 0.0, 9.99868, 10.00004 
8.5496837e+2, 2.846335e+2, -344305.2, -198516.92, -13691.8, 0.023080837, -0.11495827, -197242.19, -46661.54, 0.0, 9.998456, 10.000388 
8.549636e+2, 2.9463398e+2, -280106.75, -115345.414, -8534.342, 0.054922074, -0.108101666, -114904.53, -62330.285, 0.0, 9.998218, 10.000401 
8.549586e+2, 3.046341e+2, -257556.97, -57183.348, -4698.644, 0.0611493, -0.14431655, -57073.23, -57073.23, 0.0, 9.997943, 10.000598 
8.5495335e+2, 3.146346e+2, -304214.8, -78155.58, -13656.078, 0.034865927, -0.15533127, -77333.62, -77333.62, 0.0, 9.997616, 10.000611 
8.650428e+2, 1.2465218e+2, -1550096.4, -1750625.4, -26145.605, -0.06542258, 0.017709427, -1546743.5, 171666.56, 0.00000000000000000000885557, 10.001632, 9.998966 
8.650381e+2, 1.3465118e+2, -1452138.3, -1630862.9, 43010.426, -0.14761476, 0.0009957126, -1442326.4, 178092.39, 0.0, 10.001531, 9.999168 
8.650354e+2, 1.446501e+2, -1409692.8, -1609936.9, 8610.275, 0.015467752, -0.0012519954, -1409323.1, 113105.76, 0.0, 10.0013685, 9.998714 
8.650301e+2, 1.5464875e+2, -1344663.3, -1529356.3, 13574.672, -0.042946853, -0.0065682223, -1343670.9, 80771.66, 0.0, 10.001149, 9.998701 
8.6502516e+2, 1.6464755e+2, -1255135.4, -1413637.8, 10108.253, -0.061340634, -0.0071351416, -1254493.4, 71960.88, 0.0, 10.000997, 9.998897 
8.6502063e+2, 1.746465e+2, -1167968.8, -1320075.5, 8550.352, -0.027543386, -0.0038581365, -1167489.5, 60974.156, 0.0, 10.000918, 9.998903 
8.6501604e+2, 1.8464535e+2, -1107895.5, -1262897.1, 15672.311, -0.010887418, 0.0013075263, -1106326.8, 24148.041, 0.0, 10.000755, 9.998702 
8.650114e+2, 1.9464411e+2, -1048902.3, -1184366.3, 16558.871, -0.015688475, 0.006610634, -1046907.56, -14419.955, 0.0, 10.00049, 9.998696 
8.650069e+2, 2.046429e+2, -975668.4, -1089710.8, 14699.71, -0.01120754, 0.0133129675, -973804.06, -39304.047, 0.0, 10.000283, 9.998774 
8.650024e+2, 2.1464175e+2, -897844.25, -1000817.3, 14594.221, 0.0044492153, 0.019717101, -895815.8, -59303.793, 0.0, 10.000142, 9.998778 
8.6499774e+2, 2.2464065e+2, -782889.5, -821728.25, 727.5072, 0.019371307, 0.00028991635, -782875.9, -44354.71, 0.0, 9.999944, 9.999431 
8.649928e+2, 2.346396e+2, -721113.44, -737843.56, 2454.0518, 0.033347927, -0.051490027, -720760.9, -80233.77, 0.0, 9.999681, 9.99946 
8.649878e+2, 2.4463883e+2, -642852.9, -619381.0, -314.42004, 0.040062953, -0.0876199, -619376.75, -76845.25, 0.0, 9.999416, 9.999727 
8.649826e+2, 2.5463837e+2, -582648.5, -538249.44, -864.30865, 0.038539294, -0.10782839, -538232.6, -93698.33, 0.0, 9.999151, 9.999739 
8.649774e+2, 2.6463816e+2, -501405.3, -411402.72, -1249.603, 0.033084232, -0.11932892, -411385.38, -64849.9, 0.0, 9.998878, 10.000069 
8.6497205e+2, 2.746382e+2, -443525.16, -331131.28, 3199.8994, 0.022968618, -0.12255718, -331040.25, -82505.32, 0.0, 9.998595, 10.000083 
8.6496687e+2, 2.846385e+2, -356594.56, -202099.33, 723.6201, 0.026708728, -0.11940145, -202095.94, -51564.508, 0.0, 9.998363, 10.000408 
8.6496174e+2, 2.94639e+2, -283483.78, -114685.79, -3977.5828, 0.04647624, -0.112347074, -114592.12, -62067.4, 0.0, 9.998186, 10.000421 
8.649565e+2, 3.0463916e+2, -256375.4, -58450.047, -4224.715, 0.052224457, -0.1449507, -58359.914, -58359.914, 0.0, 9.997959, 10.00058 
8.649511e+2, 3.146397e+2, -298177.94, -77311.76, -3373.3032, 0.038839124, -0.15080215, -77260.25, -77260.25, 0.0, 9.997667, 10.000591 
8.7504447e+2, 1.246573e+2, -1561738.8, -1775395.5, -23306.527, -0.060615573, 0.01005195, -1559225.9, 159133.08, 0.0000000055054987, 10.001634, 9.9987955 
8.7503964e+2, 1.3465625e+2, -1464370.3, -1656601.9, 38806.92, -0.15289617, 0.0046873754, -1456831.8, 163537.36, 0.0, 10.001532, 9.998992 
8.7503666e+2, 1.4465514e+2, -1404003.5, -1598597.5, 172.35294, 0.010877133, 0.0038807185, -1404003.4, 118376.25, 0.0, 10.001369, 9.998793 
8.750312e+2, 1.5465365e+2, -1338240.3, -1516609.0, 5112.6885, -0.04509, -0.023809657, -1338093.8, 86299.805, 0.0, 10.001151, 9.998788 
8.750261e+2, 1.6465244e+2, -1257925.3, -1420011.1, 6751.695, -0.061892334, -0.026875023, -1257644.5, 68760.53, 0.0, 10.0009985, 9.998852 
8.750215e+2, 1.7465153e+2, -1171112.6, -1327139.6, 5391.3525, -0.027120415, -0.0036587429, -1170926.5, 57487.223, 0.0, 10.00092, 9.998855 
8.7501687e+2, 1.8465038e+2, -1107384.6, -1262369.5, 5707.657, -0.00959477, 0.0028950986, -1107174.8, 23250.207, 0.0, 10.000756, 9.998706 
8.75012e+2, 1.9464894e+2, -1048276.6, -1183602.6, 6333.0264, -0.013936291, -0.011512252, -1047980.9, -15541.661, 0.0, 10.000491, 9.998701 
8.7500715e+2, 2.0464772e+2, -975643.8, -1090165.9, 9010.247, -0.010104646, -0.007092059, -974939.25, -40487.324, 0.0, 10.000284, 9.99877 
8.750025e+2, 2.1464674e+2, -897837.7, -1001332.8, 9128.118, 0.0036533931, 0.016762951, -897038.8, -60575.99, 0.0, 10.000143, 9.998775 
8.749977e+2, 2.2464573e+2, -778307.0, -812716.2, -9100.893, 0.018695919, 0.0049428465, -776048.2, -37576.91, 0.0, 9.999946, 9.999492 
8.749925e+2, 2.3464473e+2, -716430.6, -728625.9, -7471.1143, 0.035311356, -0.04974302, -712884.7, -72407.79, 0.0, 9.999682, 9.999523 
8.7498724e+2, 2.4464399e+2, -642809.2, -619738.4, -10266.914, 0.04119022, -0.08618963, -615831.1, -73350.016, 0.0, 9.999418, 9.999724 
8.7498176e+2, 2.5464353e+2, -582747.56, -538891.2, -10752.272, 0.034912888, -0.10433106, -536396.9, -91913.1, 0.0, 9.999152, 9.999735 
8.749763e+2, 2.6464337e+2, -492377.1, -393018.1, -11759.277, 0.03316768, -0.11597103, -391645.34, -45161.074, 0.0, 9.9988785, 10.000195 
8.7497085e+2, 2.746435e+2, -434326.06, -312209.53, -7211.382, 0.035856068, -0.12198125, -311785.16, -63302.883, 0.0, 9.998595, 10.000214 
8.7496525e+2, 2.846438e+2, -364041.5, -217626.92, -5762.8384, 0.031483687, -0.12283843, -217400.45, -66921.414, 0.0, 9.998363, 10.000302 
8.7495965e+2, 2.9464415e+2, -291420.4, -131318.05, -10265.197, 0.020078866, -0.12087913, -130662.555, -78188.03, 0.0, 9.998186, 10.000306 
8.749542e+2, 3.0464438e+2, -248734.47, -42779.996, -14555.053, 0.030074973, -0.144519, -41756.46, -41756.46, 0.0, 9.997959, 10.000689 
8.749489e+2, 3.1464523e+2, -290124.44, -60703.152, -13788.875, 0.060270365, -0.12793455, -59877.375, -59877.375, 0.0, 9.997666, 10.000707 
8.8504624e+2, 1.2466276e+2, -1535007.8, -1778312.6, -6331.383, -0.058344074, 0.013864205, -1534843.0, 183461.47, 0.00000006865042, 10.001886, 9.998653 
8.850412e+2, 1.3466144e+2, -1464945.6, -1673615.0, 50307.668, -0.14883415, -0.0026147119, -1453450.4, 166867.45, 0.0, 10.0016, 9.998841 
8.8503814e+2, 1.4466025e+2, -1399156.3, -1594678.5, 11603.948, 0.017181572, -0.003613019, -1398469.9, 123859.21, 0.0, 10.001397, 9.998806 
8.850325e+2, 1.5465878e+2, -1315361.6, -1503346.3, 11514.612, -0.042924218, -0.03158658, -1314658.9, 109683.55, 0.0, 10.001299, 9.998807 
8.8502717e+2, 1.6465758e+2, -1240130.8, -1415911.8, 10680.415, -0.062194742, -0.033167697, -1239484.3, 86869.63, 0.0, 10.001141, 9.998811 
8.8502246e+2, 1.7465666e+2, -1175927.3, -1334144.6, 9572.137, -0.028022582, -0.006633918, -1175350.3, 53012.668, 0.0, 10.000908, 9.998812 
8.850176e+2, 1.8465549e+2, -1112267.6, -1260536.4, 8976.102, -0.008533231, -0.0021375564, -1111726.3, 18648.293, 0.0, 10.000706, 9.998742 
8.850125e+2, 1.94654e+2, -1038953.2, -1174563.3, 11882.74, -0.008035553, -0.02461283, -1037919.9, -5530.903, 0.0, 10.000537, 9.998741 
8.850075e+2, 2.0465283e+2, -966394.4, -1078096.5, 18520.928, -0.0032235, -0.021147365, -963403.56, -29002.469, 0.0, 10.000316, 9.998837 
8.850026e+2, 2.1465197e+2, -909165.6, -998940.4, 23898.46, 0.007249186, 0.009632464, -903200.1, -66789.48, 0.0, 10.000032, 9.998844 
8.8499755e+2, 2.2465108e+2, -796333.44, -818425.25, 7210.808, 0.018867021, 0.0024388712, -794188.2, -55769.754, 0.0, 9.999809, 9.999517 
8.849921e+2, 2.346501e+2, -718508.9, -726953.0, 5630.608, 0.031746708, -0.04979523, -715693.2, -75269.19, 0.0, 9.999658, 9.999546 
8.8498664e+2, 2.446494e+2, -632935.7, -606711.5, 1727.8583, 0.036650315, -0.08719321, -606598.2, -64170.207, 0.0, 9.999451, 9.999798 
8.849809e+2, 2.5464898e+2, -573082.6, -525731.1, 7017.7134, 0.032505497, -0.110427655, -524712.94, -80282.85, 0.0, 9.999183, 9.999809 
8.8497514e+2, 2.6464888e+2, -484171.88, -387907.2, 4981.786, 0.032052536, -0.120814055, -387650.06, -41220.11, 0.0, 9.998931, 10.000204 
8.849694e+2, 2.7464914e+2, -419139.75, -304040.94, 16.36159, 0.035121854, -0.11844149, -304040.94, -55613.69, 0.0, 9.998696, 10.00022 
8.8496363e+2, 2.8464934e+2, -352140.75, -213709.3, 1257.1647, 0.028318254, -0.12040459, -213697.88, -63273.574, 0.0, 9.998453, 10.000285 
8.849578e+2, 2.9464957e+2, -291915.03, -133456.19, 3770.0642, 0.011414971, -0.13015316, -133366.53, -80945.38, 0.0, 9.998192, 10.000288 
8.8495207e+2, 3.0464983e+2, -246901.2, -39947.555, -1006.5733, 0.022747759, -0.15084907, -39942.656, -39942.656, 0.0, 9.997965, 10.000705 
8.8494664e+2, 3.1465092e+2, -273108.06, -50524.363, -7903.7124, 0.062100567, -0.116720244, -50244.063, -50244.063, 0.0, 9.997776, 10.000723 
8.9504814e+2, 1.2466856e+2, -1542995.4, -1795464.4, -10141.167, -0.059616268, 0.028836574, -1542588.8, 175657.67, 0.00000033535434, 10.001887, 9.998536 
8.950429e+2, 1.3466679e+2, -1473773.8, -1692326.4, 39103.633, -0.13562758, -0.020757247, -1466988.0, 153276.6, 0.00000000007521531, 10.001602, 9.998713 
8.9503974e+2, 1.4466548e+2, -1402775.5, -1602635.3, 7309.7197, 0.03420761, -0.023447497, -1402508.5, 119768.63, 0.0, 10.001398, 9.998751 
8.9503384e+2, 1.5466419e+2, -1318763.1, -1510843.8, 7604.359, -0.036697496, -0.029922513, -1318462.5, 105826.41, 0.0, 10.001301, 9.998755 
8.950283e+2, 1.6466297e+2, -1242826.9, -1422008.3, 1894.3821, -0.062416118, -0.026155941, -1242806.9, 83493.47, 0.0, 10.001142, 9.998769 
8.950234e+2, 1.7466189e+2, -1178543.8, -1340088.3, 555.343, -0.030325232, -0.012757508, -1178541.9, 49769.336, 0.0, 10.00091, 9.998771 
8.9501834e+2, 1.8466067e+2, -1107374.1, -1250846.1, 2274.7754, -0.0077888817, -0.013723218, -1107338.0, 22985.234, 0.0, 10.000707, 9.998808 
8.950132e+2, 1.9465931e+2, -1033796.06, -1164340.6, 5282.945, 0.0019233647, -0.03271866, -1033582.6, -1245.97, 0.0, 10.000538, 9.998811 
8.9500797e+2, 2.0465823e+2, -956607.75, -1058303.1, 7787.3584, 0.0093299765, -0.028898815, -956014.9, -21667.39, 0.0, 10.000318, 9.998973 
8.950027e+2, 2.1465749e+2, -899138.0, -978670.8, 13055.803, 0.015106473, -0.0016695288, -897049.6, -60694.1, 0.0, 10.000034, 9.998983 
8.9499736e+2, 2.2465666e+2, -796940.1, -820207.6, 1183.3896, 0.019749269, -0.007212396, -796880.06, -58517.5, 0.0, 9.999811, 9.999505 
8.949917e+2, 2.3465575e+2, -719609.75, -729786.06, -76.92213, 0.022567939, -0.05166556, -719609.2, -79240.69, 0.0, 9.999659, 9.999526 
8.94986e+2, 2.4465509e+2, -622407.0, -585345.2, -8185.5884, 0.026347356, -0.09067424, -583617.8, -41245.68, 0.0, 9.999452, 9.999945 
8.9498e+2, 2.546547e+2, -562152.0, -503432.03, -2922.8066, 0.031247804, -0.12621298, -503286.9, -58913.727, 0.0, 9.999184, 9.999963 
8.9497405e+2, 2.6465467e+2, -491910.2, -404297.84, -3745.0076, 0.02963198, -0.13393074, -404138.03, -57765.5, 0.0, 9.998931, 10.000092 
8.94968e+2, 2.7465495e+2, -427499.56, -321698.9, -8576.862, 0.020460695, -0.11182844, -321008.13, -72638.14, 0.0, 9.998697, 10.000099 
8.9496195e+2, 2.8465518e+2, -347145.9, -203595.3, -8195.112, 0.017003087, -0.11196593, -203128.95, -52761.61, 0.0, 9.998453, 10.000355 
8.9495605e+2, 2.9465526e+2, -286594.25, -122499.43, -5743.6353, 0.0207156, -0.14031796, -122298.64, -69933.9, 0.0, 9.998191, 10.000364 
8.9495015e+2, 3.0465555e+2, -252564.39, -51764.59, -7750.3784, 0.030376315, -0.16419663, -51465.887, -51465.887, 0.0, 9.997964, 10.000625 
8.949442e+2, 3.1465662e+2, -279168.5, -63246.66, -14452.435, 0.043473627, -0.11737705, -62283.6, -62283.6, 0.0, 9.997775, 10.000636 
9.0505016e+2, 1.2467407e+2, -1532270.5, -1794996.3, -13639.552, -0.05054408, 0.014994912, -1531564.4, 186626.83, 0.0000010631732, 10.001982, 9.998493 
9.0504456e+2, 1.3467222e+2, -1470595.6, -1696810.6, 33636.66, -0.13490303, -0.035281077, -1465700.0, 154510.16, 0.000000007369457, 10.001651, 9.998658 
9.050411e+2, 1.4467095e+2, -1402909.5, -1606494.8, 12622.447, 0.03229558, -0.032361016, -1402129.9, 120093.02, 0.0, 10.001415, 9.998715 
9.0503514e+2, 1.5466963e+2, -1322985.3, -1516598.4, 14380.356, -0.034291208, -0.036532342, -1321923.0, 102311.91, 0.0, 10.001288, 9.998721 
9.050295e+2, 1.6466841e+2, -1242279.8, -1417391.4, 8427.106, -0.05850104, -0.03369363, -1241875.1, 84371.195, 0.0, 10.001128, 9.998807 
9.050243e+2, 1.7466731e+2, -1172552.3, -1332585.6, 12865.069, -0.028604615, -0.02508351, -1171524.6, 56732.61, 0.0, 10.000932, 9.998811 
9.0501904e+2, 1.8466617e+2, -1101013.8, -1242722.4, 17630.549, -0.006994778, -0.02361927, -1098853.3, 31415.566, 0.0, 10.00073, 9.998853 
9.050137e+2, 1.9466494e+2, -1033891.7, -1159294.3, 18536.781, 0.0034404807, -0.031941943, -1031209.0, 1071.975, 0.0, 10.000517, 9.998855 
9.050083e+2, 2.0466395e+2, -948517.4, -1040318.25, 17803.158, 0.010513373, -0.029382082, -945185.7, -10894.715, 0.0, 10.000313, 9.999098 
9.0500283e+2, 2.1466318e+2, -877588.06, -953823.7, 21979.883, 0.01471471, -0.01691928, -871704.94, -35406.41, 0.0, 10.00012, 9.999111 
9.0499717e+2, 2.2466242e+2, -783373.6, -811167.5, 11714.262, 0.016743982, -0.023578536, -779095.06, -40790.117, 0.0, 9.999894, 9.999527 
9.0499127e+2, 2.3466167e+2, -722694.6, -729200.3, 13125.597, 0.015745126, -0.053821806, -712424.8, -72114.73, 0.0, 9.99963, 9.999544 
9.049853e+2, 2.446611e+2, -629218.3, -581090.9, 1584.1738, 0.020681862, -0.08877713, -581038.8, -38725.594, 0.0, 9.999373, 10.0000105 
9.049792e+2, 2.546607e+2, -565502.4, -497304.03, 269.00912, 0.032393754, -0.13164788, -497302.97, -52988.945, 0.0, 9.999128, 10.000031 
9.0497303e+2, 2.6466066e+2, -494593.72, -406981.44, 1682.8492, 0.030712532, -0.14124522, -406949.13, -60635.965, 0.0, 9.9989195, 10.000079 
9.049666e+2, 2.74661e+2, -421117.88, -320289.9, 4680.221, 0.013799067, -0.1147724, -320073.13, -71762.734, 0.0, 9.998749, 10.000083 
9.049604e+2, 2.8466123e+2, -339408.6, -205555.1, 2328.8796, 0.009767742, -0.11123476, -205514.6, -55206.684, 0.0, 9.998531, 10.000303 
9.049543e+2, 2.9466128e+2, -279896.75, -125100.78, -5257.5366, 0.020767266, -0.13688159, -124922.42, -72616.516, 0.0, 9.998263, 10.000312 
9.049482e+2, 3.046615e+2, -236953.55, -48359.055, -5941.357, 0.030203626, -0.16287543, -48172.066, -48172.066, 0.0, 9.99809, 10.0005865 
9.0494204e+2, 3.1466246e+2, -246919.73, -51863.594, -8980.735, 0.034916062, -0.12517604, -51450.98, -51450.98, 0.0, 9.998015, 10.000599 
9.150523e+2, 1.2467932e+2, -1530001.9, -1790858.0, -19251.242, -0.03215796, -0.026815219, -1528588.8, 189549.6, 0.0000026057617, 10.001984, 9.998522 
9.150461e+2, 1.3467781e+2, -1469382.5, -1694606.6, 20761.215, -0.14677009, -0.0461914, -1467484.8, 152669.7, 0.00000007607973, 10.001651, 9.9986725 
9.150423e+2, 1.4467666e+2, -1404104.1, -1609339.5, 7450.4863, 0.011526971, -0.030478505, -1403834.1, 118332.07, 0.0, 10.001416, 9.998696 
9.150364e+2, 1.5467514e+2, -1324273.3, -1519608.3, 9407.618, -0.035735898, -0.051283948, -1323821.3, 100358.83, 0.0, 10.001289, 9.9987 
9.150307e+2, 1.6467391e+2, -1234211.8, -1401063.1, 820.42004, -0.050541572, -0.055585634, -1234207.8, 91984.03, 0.0, 10.001129, 9.998919 
9.150253e+2, 1.7467296e+2, -1164124.0, -1315580.4, 5202.069, -0.022974648, -0.043548245, -1163945.6, 64255.395, 0.0, 10.000934, 9.998927 
9.1501975e+2, 1.8467198e+2, -1099503.6, -1240076.3, 9376.304, -0.0062698713, -0.031834736, -1098881.0, 31329.932, 0.0, 10.000731, 9.99887 
9.1501415e+2, 1.9467095e+2, -1032614.44, -1157109.5, 10221.779, -0.0035493143, -0.02234142, -1031780.75, 441.08847, 0.0, 10.000518, 9.99887 
9.150085e+2, 2.0466998e+2, -940462.6, -1024075.0, 10275.168, 0.00028314325, -0.022664031, -939218.4, -4986.9297, 0.0, 10.000315, 9.999208 
9.150029e+2, 2.1466906e+2, -869353.94, -937237.56, 14537.935, 0.006024249, -0.03615969, -866371.5, -30131.84, 0.0, 10.000122, 9.999225 
9.14997e+2, 2.2466837e+2, -779345.06, -803329.6, 1729.1636, 0.009775697, -0.046696212, -779221.0, -40975.47, 0.0, 9.999896, 9.99958 
9.1499084e+2, 2.3466787e+2, -718788.56, -721601.06, 3141.417, 0.011203126, -0.056249715, -716753.0, -76504.18, 0.0, 9.999631, 9.999596 
9.149847e+2, 2.4466741e+2, -630162.2, -583469.94, -7650.696, 0.019587759, -0.081446595, -582248.3, -39997.07, 0.0, 9.999374, 9.999994 
9.149784e+2, 2.5466698e+2, -566685.06, -500135.88, -8861.969, 0.03592339, -0.12663622, -498976.0, -54723.305, 0.0, 9.999129, 10.000011 
9.14972e+2, 2.6466691e+2, -488497.4, -394696.47, -4627.3784, 0.035272688, -0.14275137, -394468.75, -48216.85, 0.0, 9.99892, 10.000163 
9.149654e+2, 2.7466723e+2, -414810.66, -307542.88, -1518.433, 0.01502925, -0.1275371, -307521.38, -59272.836, 0.0, 9.99875, 10.000171 
9.1495883e+2, 2.8466746e+2, -351868.03, -231561.7, -7506.498, 0.006405313, -0.11838168, -231095.14, -80849.05, 0.0, 9.998531, 10.000125 
9.1495246e+2, 2.9466757e+2, -293077.75, -152412.11, -15114.833, 0.011470487, -0.119383655, -150806.31, -98561.52, 0.0, 9.998262, 10.000125 
9.1494614e+2, 3.0466765e+2, -236639.55, -47883.68, -8428.162, 0.02218035, -0.14643583, -47508.098, -47508.098, 0.0, 9.99809, 10.000591 
9.1494006e+2, 3.146683e+2, -246028.08, -50416.754, -11208.889, 0.036073875, -0.1410094, -49776.56, -49776.56, 0.0, 9.998016, 10.000608 
9.250543e+2, 1.2468499e+2, -1524828.9, -1784476.3, -14655.028, -0.034566864, -0.037626907, -1524004.4, 194078.16, 0.000005355975, 10.002003, 9.998555 
9.2504776e+2, 1.3468355e+2, -1458005.0, -1686648.3, 18530.803, -0.14868665, -0.051266037, -1456512.9, 163584.9, 0.00000033393198, 10.001719, 9.998693 
9.250437e+2, 1.4468248e+2, -1394085.9, -1596364.5, 13192.833, 0.00801268, -0.030697526, -1393229.0, 128879.43, 0.0, 10.001451, 9.998768 
9.250377e+2, 1.54681e+2, -1331542.3, -1514698.5, 22192.764, -0.036946703, -0.056497097, -1328891.5, 95230.39, 0.0, 10.001204, 9.998775 
9.250318e+2, 1.646798e+2, -1250089.5, -1406634.0, 14534.518, -0.04893869, -0.06317614, -1248751.5, 77381.91, 0.0, 10.001012, 9.998937 
9.2502624e+2, 1.7467886e+2, -1171175.0, -1317068.9, 11280.583, -0.01801891, -0.050691023, -1170307.9, 57834.727, 0.0, 10.000877, 9.998943 
9.250205e+2, 1.8467794e+2, -1095155.3, -1228067.4, 12744.794, -0.0015807907, -0.037270688, -1093944.3, 36207.766, 0.0, 10.000719, 9.998958 
9.250147e+2, 1.9467705e+2, -1023952.2, -1142699.1, 18950.06, -0.0032789425, -0.024698874, -1021001.4, 11160.262, 0.0, 10.000534, 9.9989605 
9.250088e+2, 2.0467615e+2, -935296.8, -1010630.6, 19883.547, -0.002429512, -0.027135946, -930370.8, 3799.524, 0.0, 10.000303, 9.999306 
9.250029e+2, 2.1467526e+2, -877528.44, -930257.5, 22549.475, 0.0019372742, -0.048441757, -869200.5, -33022.5, 0.0, 10.00002, 9.999322 
9.249968e+2, 2.2467461e+2, -794231.06, -807436.44, 8315.762, 0.0052308505, -0.058628894, -790215.5, -52032.19, 0.0, 9.999781, 9.999607 
9.249904e+2, 2.3467425e+2, -722580.06, -720565.3, 7439.3613, 0.0073047974, -0.058672614, -714065.44, -73879.44, 0.0, 9.999594, 9.99962 
9.2498404e+2, 2.4467385e+2, -626094.56, -583278.4, -4047.084, 0.015738348, -0.0776735, -582899.2, -40710.984, 0.0, 9.999411, 9.999978 
9.2497754e+2, 2.5467342e+2, -552898.4, -495481.78, -5361.018, 0.031504378, -0.12030367, -494985.5, -50795.703, 0.0, 9.999233, 9.999993 
9.2497087e+2, 2.6467332e+2, -469208.8, -377482.1, -1686.9824, 0.03158304, -0.14176911, -377451.06, -31262.025, 0.0, 9.99902, 10.000234 
9.2496413e+2, 2.7467355e+2, -407139.8, -295625.44, 138.32109, 0.013253473, -0.14100914, -295625.28, -47439.707, 0.0, 9.998768, 10.000243 
9.2495745e+2, 2.846738e+2, -353385.63, -248693.95, -4331.2744, 0.0055587287, -0.13049729, -248515.08, -98331.72, 0.0, 9.998592, 9.999977 
9.249508e+2, 2.9467395e+2, -269859.3, -158345.61, -9633.756, 0.010859228, -0.112030834, -157519.47, -105336.79, 0.0, 9.998496, 9.999971 
9.249444e+2, 3.0467394e+2, -199471.92, -32843.516, -753.139, 0.022395518, -0.137938, -32840.113, -32840.113, 0.0, 9.998358, 10.000565 
9.2493814e+2, 3.1467435e+2, -223603.63, -41925.7, -6091.4355, 0.037465207, -0.15422496, -41721.688, -41721.688, 0.0, 9.998181, 10.000587 
9.350561e+2, 1.2469109e+2, -1522037.0, -1779091.9, -18530.8, -0.05857298, -0.018019728, -1520708.0, 197315.31, 0.000009813605, 10.002004, 9.998592 
9.3504953e+2, 1.346895e+2, -1456274.8, -1683340.6, 7641.268, -0.1408919, -0.05064121, -1456017.9, 164021.98, 0.0000009955157, 10.00172, 9.998716 
9.350453e+2, 1.4468847e+2, -1382772.5, -1573305.0, 3643.849, 0.021385523, -0.032979373, -1382702.9, 139346.7, 0.00000000002439963, 10.0014515, 9.998926 
9.350388e+2, 1.5468724e+2, -1319900.3, -1490929.1, 12696.789, -0.038131807, -0.052304577, -1318962.9, 105097.484, 0.0, 10.0012045, 9.998938 
9.350327e+2, 1.646861e+2, -1255449.5, -1418163.3, 9145.004, -0.0537982, -0.056627087, -1254937.1, 71134.0, 0.0, 10.001013, 9.9988575 
9.350272e+2, 1.7468506e+2, -1177009.6, -1329619.9, 5966.7886, -0.013808887, -0.04663301, -1176776.6, 51305.33, 0.0, 10.000879, 9.998857 
9.3502134e+2, 1.846841e+2, -1084245.4, -1205883.5, 5558.461, 0.006948467, -0.039992403, -1083991.9, 46099.92, 0.0, 10.000721, 9.99911 
9.3501526e+2, 1.9468322e+2, -1012387.56, -1119147.5, 11692.856, 0.004106363, -0.038995944, -1011121.9, 20978.426, 0.0, 10.000535, 9.999122 
9.350092e+2, 2.0468245e+2, -929503.1, -999051.0, 9068.569, 0.0022589157, -0.042724933, -928340.06, 5767.5244, 0.0, 10.000304, 9.999385 
9.350029e+2, 2.1468173e+2, -871940.7, -919139.0, 11653.582, 0.002377125, -0.053723924, -869220.1, -33106.664, 0.0, 10.000021, 9.999397 
9.3499655e+2, 2.2468117e+2, -794237.4, -807955.9, 1023.1393, 0.0030375752, -0.059370704, -794161.5, -56043.29, 0.0, 9.999783, 9.999603 
9.3499e+2, 2.3468077e+2, -722673.7, -721314.56, 363.28375, 0.0039963517, -0.061156914, -721223.5, -81101.82, 0.0, 9.999595, 9.999616 
9.349834e+2, 2.4468039e+2, -627203.25, -586126.75, -10710.098, 0.008997001, -0.07753917, -583501.94, -41377.813, 0.0, 9.999413, 9.999958 
9.3497664e+2, 2.5468004e+2, -554099.75, -498457.34, -11929.014, 0.018830372, -0.11265058, -496007.75, -51882.31, 0.0, 9.999234, 9.999972 
9.349698e+2, 2.646799e+2, -465267.63, -369685.84, -11016.919, 0.01937358, -0.13827118, -368432.47, -22307.793, 0.0, 9.999021, 10.000287 
9.349628e+2, 2.7468002e+2, -403053.63, -287445.97, -9140.423, 0.008595657, -0.15520549, -286727.75, -38606.22, 0.0, 9.998768, 10.0003 
9.349561e+2, 2.846802e+2, -361617.78, -266070.78, -7773.113, 0.0073289303, -0.1477392, -265442.53, -115322.72, 0.0, 9.998592, 9.999858 
9.3494934e+2, 2.9468036e+2, -278342.75, -176299.06, -12963.391, 0.01842727, -0.11516301, -174677.98, -122558.266, 0.0, 9.998496, 9.999848 
9.3494284e+2, 3.046803e+2, -203662.97, -41815.516, -7137.454, 0.030378405, -0.1376337, -41501.363, -41501.363, 0.0, 9.998358, 10.000504 
9.349364e+2, 3.1468055e+2, -227763.42, -50521.492, -12286.715, 0.039250087, -0.16478136, -49673.81, -49673.81, 0.0, 9.99818, 10.000529 
9.45058e+2, 1.2469745e+2, -1511888.9, -1766768.3, 1826.1195, -0.06600978, -0.0064135245, -1511875.9, 206085.61, 0.000016619406, 10.002042, 9.998659 
9.450513e+2, 1.3469577e+2, -1458667.0, -1678738.5, 23130.63, -0.13507716, -0.05222994, -1456262.1, 163716.25, 0.0000023427797, 10.00168, 9.998767 
9.450468e+2, 1.4469478e+2, -1391668.8, -1573841.3, 18540.135, 0.026921505, -0.036797985, -1389801.0, 132186.66, 0.0000000053592455, 10.001375, 9.99896 
9.4504005e+2, 1.5469359e+2, -1328542.0, -1491252.6, 17840.238, -0.035420068, -0.053444766, -1326608.9, 97388.91, 0.0, 10.00113, 9.998971 
9.4503367e+2, 1.6469248e+2, -1264780.9, -1421051.5, 17004.184, -0.053522434, -0.05698067, -1262952.1, 63056.2, 0.0, 10.000943, 9.998871 
9.4502795e+2, 1.7469144e+2, -1184134.1, -1331446.6, 21247.01, -0.015835894, -0.048522405, -1181130.9, 46888.41, 0.0, 10.000824, 9.99887 
9.45022e+2, 1.8469049e+2, -1093147.0, -1201813.1, 17633.145, 0.004777503, -0.044764362, -1090357.4, 39671.6, 0.0, 10.000625, 9.999184 
9.4501567e+2, 1.9468966e+2, -1036834.9, -1122314.5, 17056.533, 0.0044126664, -0.047989566, -1033557.06, -1520.158, 0.0, 10.000331, 9.999198 
9.4500935e+2, 2.0468895e+2, -950817.2, -996718.5, 12893.265, 0.003484619, -0.053340726, -947443.56, -13400.375, 0.0, 10.000105, 9.999497 
9.450029e+2, 2.1468838e+2, -873990.9, -907428.6, 18082.145, 0.0028015573, -0.063273646, -866082.8, -30035.418, 0.0, 9.999953, 9.999511 
9.4499636e+2, 2.2468786e+2, -796779.8, -810003.6, 9009.127, 0.002101518, -0.06745051, -792216.7, -54165.11, 0.0, 9.999769, 9.999595 
9.4498956e+2, 2.3468748e+2, -730134.25, -726248.4, 7664.3003, 0.00096211967, -0.06701069, -720284.56, -80228.94, 0.0, 9.999551, 9.999602 
9.449827e+2, 2.4468714e+2, -632822.7, -585501.44, -834.2196, 0.0040423796, -0.08062312, -585486.7, -43428.68, 0.0, 9.99936, 9.999988 
9.449758e+2, 2.5468683e+2, -556696.2, -496276.9, 1616.2813, 0.012050104, -0.11250663, -496233.72, -52175.117, 0.0, 9.999203, 10.000003 
9.449688e+2, 2.6468667e+2, -462456.53, -373566.22, -39.877934, 0.014612418, -0.13867377, -373566.2, -27508.29, 0.0, 9.999063, 10.000239 
9.449617e+2, 2.746867e+2, -381350.1, -282412.78, -6321.5024, 0.010522218, -0.16037424, -282010.5, -33954.71, 0.0, 9.998941, 10.000251 
9.4495475e+2, 2.8468683e+2, -329623.44, -252527.38, -2438.5684, 0.011702643, -0.15391243, -252450.31, -102395.83, 0.0, 9.998821, 9.999841 
9.44948e+2, 2.9468703e+2, -249111.0, -163938.56, 427.42023, 0.02003001, -0.11797297, -163936.42, -111882.32, 0.0, 9.998705, 9.999832 
9.449413e+2, 3.0468696e+2, -176916.05, -36744.703, 7953.3325, 0.02859639, -0.13889362, -36294.875, -36294.875, 0.0, 9.998576, 10.000433 
9.449346e+2, 3.146871e+2, -196619.83, -43473.645, 1477.6915, 0.034131687, -0.16816211, -43459.387, -43459.387, 0.0, 9.998429, 10.000457 
9.550601e+2, 1.2470408e+2, -1505143.5, -1753326.6, -5473.4263, -0.05822728, -0.0026634352, -1505022.9, 212873.63, 0.000026449812, 10.002044, 9.998751 
9.5505303e+2, 1.347024e+2, -1453347.0, -1667938.6, 9229.591, -0.13149203, -0.05603063, -1452950.8, 166962.33, 0.0000047469885, 10.00168, 9.998841 
9.550481e+2, 1.4470139e+2, -1398079.4, -1587460.5, 9107.459, 0.024617314, -0.042138338, -1397642.4, 124280.08, 0.000000046136613, 10.001375, 9.998866 
9.5504117e+2, 1.5470009e+2, -1335150.0, -1505451.3, 8426.01, -0.02889425, -0.05987092, -1334734.1, 89199.914, 0.0, 10.001131, 9.998874 
9.5503473e+2, 1.6469896e+2, -1257303.6, -1406122.6, 12165.195, -0.048250757, -0.06417374, -1256315.8, 69628.92, 0.0, 10.000945, 9.998973 
9.550287e+2, 1.7469802e+2, -1176254.8, -1315602.4, 16528.29, -0.024184905, -0.056292467, -1174321.1, 53633.227, 0.0, 10.000825, 9.998979 
9.5502245e+2, 1.8469714e+2, -1093478.6, -1202986.3, 6530.3667, -0.008112864, -0.051530734, -1093090.6, 36872.69, 0.0, 10.000626, 9.999176 
9.55016e+2, 1.9469634e+2, -1037435.06, -1124103.1, 5747.7124, -0.002334152, -0.05172139, -1037055.5, -5084.142, 0.0, 10.000333, 9.999186 
9.5500946e+2, 2.0469566e+2, -940697.56, -976229.7, 6750.203, 0.0012287142, -0.0590374, -939458.44, -5481.473, 0.0, 10.000106, 9.999638 
9.5500284e+2, 2.1469514e+2, -863479.56, -886080.8, 12193.494, 0.0030966483, -0.077110775, -858155.4, -22175.602, 0.0, 9.999954, 9.999657 
9.549961e+2, 2.246947e+2, -797725.06, -812488.6, 663.031, 0.0022852637, -0.082868524, -797695.4, -59712.01, 0.0, 9.999771, 9.9995775 
9.549891e+2, 2.3469435e+2, -731459.4, -729536.0, -597.24066, -0.0018771625, -0.076209806, -729365.6, -89377.88, 0.0, 9.999552, 9.999579 
9.5498204e+2, 2.4469405e+2, -627278.94, -574516.6, -6824.574, 0.00085855194, -0.08692693, -573648.2, -31658.363, 0.0, 9.999362, 10.000062 
9.5497495e+2, 2.546938e+2, -550875.3, -484720.78, -4125.403, 0.011283402, -0.12004499, -484464.53, -40475.246, 0.0, 9.999204, 10.000082 
9.549679e+2, 2.6469368e+2, -472960.38, -395861.63, -4452.093, 0.01732132, -0.1431238, -395605.4, -49616.56, 0.0, 9.9990635, 10.000087 
9.5496076e+2, 2.7469364e+2, -392352.06, -305619.78, -10681.308, 0.018607093, -0.15636107, -304323.7, -56335.254, 0.0, 9.998942, 10.000092 
9.549537e+2, 2.8469372e+2, -323496.75, -240134.17, -6561.964, 0.018255142, -0.14878458, -239620.81, -89633.32, 0.0, 9.998821, 9.999927 
9.5494664e+2, 2.9469395e+2, -242338.13, -150344.4, -3473.4612, 0.015842715, -0.120524935, -150213.45, -98227.516, 0.0, 9.998706, 9.999926 
9.549398e+2, 3.0469385e+2, -182677.36, -49077.676, 2986.8132, 0.017034603, -0.14183852, -49010.938, -49010.938, 0.0, 9.998577, 10.000348 
9.549329e+2, 3.1469396e+2, -203086.45, -56810.395, -3473.6526, 0.020819375, -0.16442585, -56727.95, -56727.95, 0.0, 9.998427, 10.000367 
9.6506226e+2, 1.2471081e+2, -1508597.1, -1755009.8, 6531.043, -0.04997002, -0.012407284, -1508424.3, 209405.89, 0.00003990401, 10.002021, 9.99875 
9.6505475e+2, 1.3470922e+2, -1458500.3, -1672560.9, 7916.888, -0.12603098, -0.054053724, -1458207.9, 161638.14, 0.000008636752, 10.001656, 9.998821 
9.6504945e+2, 1.4470825e+2, -1396334.6, -1583609.3, 13979.656, 0.020892428, -0.03631588, -1395296.9, 126558.36, 0.00000019058375, 10.001375, 9.998892 
9.6504235e+2, 1.547069e+2, -1325344.8, -1497529.5, 22533.182, -0.031294554, -0.063639775, -1322444.8, 101422.4, 0.0, 10.001185, 9.998901 
9.650356e+2, 1.6470578e+2, -1250404.9, -1399467.1, 29989.85, -0.04974617, -0.069697574, -1244597.5, 81280.17, 0.0, 10.000978, 9.9990015 
9.650295e+2, 1.7470494e+2, -1184965.5, -1316390.9, 28370.0, -0.0254884, -0.054840833, -1179103.0, 48783.527, 0.0, 10.0007515, 9.999008 
9.65023e+2, 1.847041e+2, -1101472.6, -1203979.4, 14639.376, -0.01056983, -0.047775462, -1099422.9, 30472.117, 0.0, 10.000559, 9.9992 
9.650163e+2, 1.947033e+2, -1025020.75, -1115278.1, 16383.948, -0.007451895, -0.05092872, -1022138.7, 9764.395, 0.0, 10.000406, 9.99921 
9.650095e+2, 2.0470262e+2, -922691.6, -958198.44, 16665.406, -0.004046417, -0.06362551, -916095.1, 17813.254, 0.0, 10.000191, 9.999721 
9.650028e+2, 2.147021e+2, -865067.4, -877225.1, 17316.828, 0.00042464572, -0.08986082, -852793.44, -16882.91, 0.0, 9.999903, 9.999742 
9.649958e+2, 2.2470169e+2, -810904.9, -821149.2, 4725.892, 0.00038000965, -0.09634864, -809057.75, -71143.92, 0.0, 9.999691, 9.999556 
9.649886e+2, 2.3470138e+2, -731595.0, -732326.4, 3115.7092, -0.0049522095, -0.082002215, -728823.6, -88905.266, 0.0, 9.999563, 9.999555 
9.649814e+2, 2.4470113e+2, -613460.9, -565891.44, -3967.2888, -0.0023429515, -0.089230984, -565562.9, -23642.492, 0.0, 9.999449, 10.000079 
9.649742e+2, 2.5470087e+2, -528591.2, -471758.44, -5953.305, 0.009097992, -0.12368769, -471141.53, -27221.896, 0.0, 9.999348, 10.000101 
9.64967e+2, 2.6470074e+2, -455818.97, -395878.8, -6308.39, 0.017106468, -0.14328514, -395222.1, -49302.832, 0.0, 9.999218, 10.000011 
9.649598e+2, 2.747007e+2, -381467.75, -308982.66, -6546.812, 0.021371808, -0.14746295, -308396.1, -60476.87, 0.0, 9.999054, 10.000014 
9.649526e+2, 2.8470078e+2, -306843.06, -232861.31, -770.05634, 0.020881273, -0.13995111, -232853.3, -82934.63, 0.0, 9.9989395, 9.999919 
9.6494544e+2, 2.9470086e+2, -217296.02, -138613.08, -5141.7695, 0.014918893, -0.12221993, -138278.5, -86360.96, 0.0, 9.99888, 9.999922 
9.6493834e+2, 3.047007e+2, -159446.05, -45617.137, -4691.5376, 0.012686219, -0.14854066, -45424.098, -45424.098, 0.0, 9.998771, 10.0002775 
9.649313e+2, 3.1470075e+2, -181658.4, -54517.734, -10007.321, 0.013070794, -0.17147934, -53734.87, -53734.87, 0.0, 9.9986105, 10.000294 
9.7506434e+2, 1.247177e+2, -1515453.3, -1769187.6, -1739.8059, -0.04240052, -0.035143416, -1515441.4, 202320.48, 0.000057479218, 10.002019, 9.998653 
9.7505647e+2, 1.3471629e+2, -1466595.3, -1689593.4, -6022.263, -0.11886362, -0.04652084, -1466432.8, 153344.36, 0.000014404859, 10.001656, 9.998705 
9.750508e+2, 1.4471543e+2, -1386234.1, -1563097.3, 6572.204, 0.015633345, -0.01962974, -1385990.3, 135795.23, 0.0000005546723, 10.001376, 9.999033 
9.750434e+2, 1.5471403e+2, -1314789.1, -1475963.3, 15156.713, -0.04266404, -0.06486946, -1313376.1, 110420.86, 0.0, 10.001185, 9.99905 
9.7503656e+2, 1.6471294e+2, -1253486.1, -1406270.4, 21242.852, -0.058023486, -0.07360509, -1250587.6, 75219.5, 0.0, 10.000979, 9.998955 
9.750303e+2, 1.7471221e+2, -1188314.8, -1323852.6, 19550.568, -0.019839387, -0.04427281, -1185551.0, 42264.59, 0.0, 10.000752, 9.998957 
9.750237e+2, 1.847114e+2, -1097427.3, -1196103.5, 8503.29, -0.0027602867, -0.0335933, -1096699.8, 33124.125, 0.0, 10.000561, 9.999254 
9.7501665e+2, 1.9471055e+2, -1020735.75, -1106874.9, 10368.024, -0.011057658, -0.04564554, -1019505.4, 12326.519, 0.0, 10.000408, 9.999268 
9.750096e+2, 2.0470984e+2, -920958.0, -955075.7, 5698.063, -0.012421327, -0.06710808, -920031.5, 13805.737, 0.0, 10.000192, 9.999742 
9.7500265e+2, 2.1470925e+2, -863401.44, -874278.56, 6259.835, -0.005270199, -0.1015242, -860547.6, -24707.967, 0.0, 9.999904, 9.999762 
9.7499543e+2, 2.2470883e+2, -812684.06, -825397.75, -373.0435, -0.003656662, -0.107863836, -812673.1, -74830.125, 0.0, 9.999693, 9.999526 
9.749881e+2, 2.347086e+2, -733484.4, -736830.9, -1728.9686, -0.00830401, -0.08443954, -732751.56, -92904.21, 0.0, 9.999565, 9.999523 
9.7498083e+2, 2.4470834e+2, -616327.6, -572419.2, -7751.985, -0.00567218, -0.087604344, -571090.8, -29241.137, 0.0, 9.999451, 10.000034 
9.749735e+2, 2.5470805e+2, -531481.9, -478260.63, -9609.448, 0.005270757, -0.123313315, -476578.75, -32729.059, 0.0, 9.99935, 10.000056 
9.7496617e+2, 2.6470792e+2, -455354.47, -395384.34, -12198.078, 0.0137554705, -0.13900499, -392998.16, -47148.914, 0.0, 9.999219, 10.000015 
9.749588e+2, 2.74708e+2, -380822.16, -308295.4, -12356.019, 0.018772509, -0.13380587, -306248.16, -58399.93, 0.0, 9.999056, 10.000018 
9.7495157e+2, 2.8470796e+2, -314037.2, -248296.08, -2816.7666, 0.019441845, -0.12762314, -248175.63, -98327.48, 0.0, 9.998941, 9.999813 
9.7494435e+2, 2.9470783e+2, -224905.89, -154405.14, -7060.5664, 0.016732993, -0.12296353, -153704.98, -101855.945, 0.0, 9.998879, 9.999814 
9.749372e+2, 3.047075e+2, -163583.98, -54140.87, -10246.829, 0.015118589, -0.158922, -53189.758, -53189.758, 0.0, 9.99877, 10.00022 
9.749299e+2, 3.147074e+2, -185547.81, -62912.28, -15396.699, 0.010796772, -0.19003455, -61008.797, -61008.797, 0.0, 9.9986105, 10.0002365 
9.850663e+2, 1.2472473e+2, -1538376.5, -1768917.1, -7663.7607, -0.041099094, -0.040045135, -1538122.1, 179571.23, 0.00007951568, 10.001814, 9.9987545 
9.850582e+2, 1.3472353e+2, -1469541.9, -1681663.5, -2622.8843, -0.11316634, -0.04065142, -1469509.5, 150197.16, 0.000022398126, 10.001596, 9.998787 
9.850521e+2, 1.4472274e+2, -1386565.9, -1559128.3, 15901.487, 0.014885775, -0.010000574, -1385112.9, 136601.13, 0.0000013019285, 10.001357, 9.999069 
9.8504454e+2, 1.5472132e+2, -1327048.5, -1477702.4, 15983.383, -0.039763276, -0.062352993, -1325371.5, 98354.31, 0.0, 10.001084, 9.999086 
9.8503745e+2, 1.6472024e+2, -1270360.4, -1410856.8, 21368.867, -0.055250783, -0.073273234, -1267182.1, 58553.617, 0.0, 10.000849, 9.998986 
9.8503095e+2, 1.7471956e+2, -1200511.3, -1326111.3, 25742.598, -0.021639386, -0.040830955, -1195439.9, 32303.865, 0.0, 10.000654, 9.998989 
9.8502415e+2, 1.847188e+2, -1107432.6, -1194052.9, 19532.232, -0.0060386476, -0.030620283, -1103232.0, 26519.479, 0.0, 10.000463, 9.999315 
9.8501694e+2, 1.9471797e+2, -1035647.75, -1107029.6, 21619.9, -0.012293654, -0.047197614, -1029610.25, 2148.6272, 0.0, 10.000276, 9.99933 
9.850098e+2, 2.0471723e+2, -938809.3, -966811.1, 12510.501, -0.011289497, -0.07218209, -934034.25, -269.98883, 0.0, 10.000083, 9.999713 
9.850025e+2, 2.147166e+2, -868519.0, -880255.44, 8828.6045, -0.0014259341, -0.10868099, -863786.25, -28018.951, 0.0, 9.999885, 9.999729 
9.849952e+2, 2.2471619e+2, -807744.2, -823642.75, 5481.4473, 0.00027126505, -0.11336841, -806037.5, -68266.79, 0.0, 9.99973, 9.99952 
9.8498774e+2, 2.3471598e+2, -725337.1, -733371.5, 5943.8755, -0.007208128, -0.08463478, -722180.25, -82405.836, 0.0, 9.999624, 9.999518 
9.849803e+2, 2.4471568e+2, -612218.5, -580884.6, -284.60135, -0.0069767735, -0.08733979, -580882.06, -39104.766, 0.0, 9.999524, 9.99994 
9.849729e+2, 2.5471523e+2, -526322.4, -486538.5, -6378.545, 0.0020570166, -0.12745778, -485540.84, -41761.598, 0.0, 9.999432, 9.999959 
9.8496544e+2, 2.6471508e+2, -431133.44, -380982.22, -10188.174, 0.010683278, -0.1422731, -378991.53, -33212.28, 0.0, 9.999374, 10.000039 
9.84958e+2, 2.7471527e+2, -335048.34, -283060.66, -8784.439, 0.018051246, -0.13074407, -281616.44, -33839.453, 0.0, 9.999357, 10.000046 
9.849506e+2, 2.847152e+2, -274030.8, -235124.19, 1412.9114, 0.020474179, -0.12637156, -235072.95, -85296.11, 0.0, 9.999243, 9.999758 
9.849433e+2, 2.947149e+2, -209041.75, -153082.98, 669.9353, 0.01906427, -0.1323719, -153074.97, -101295.99, 0.0, 9.999017, 9.999757 
9.8493606e+2, 3.0471444e+2, -149192.83, -56289.582, 1180.8942, 0.016084902, -0.17260762, -56274.574, -56274.574, 0.0, 9.998909, 10.000138 
9.849287e+2, 3.1471428e+2, -143606.47, -51753.65, -5928.643, 0.0074446406, -0.20275728, -51372.566, -51372.566, 0.0, 9.998939, 10.0001545 
9.95068e+2, 1.2473195e+2, -1517880.6, -1726651.5, -10915.3955, -0.04732122, -0.027801784, -1517311.5, 200312.69, 0.00010622788, 10.001814, 9.999045 
9.950597e+2, 1.3473092e+2, -1450281.1, -1641789.3, -10889.497, -0.10900014, -0.036500264, -1449663.9, 169970.3, 0.00003292342, 10.0015955, 9.999062 
9.950535e+2, 1.4473024e+2, -1391372.5, -1569316.1, 5598.734, 0.018482432, -0.0072501423, -1391196.5, 130443.79, 0.0000026281716, 10.001357, 9.999 
9.9504584e+2, 1.5472877e+2, -1332186.0, -1488781.1, 5500.7007, -0.022915319, -0.056152396, -1331993.0, 91660.24, 0.00000000019976186, 10.001085, 9.99901 
9.9503845e+2, 1.6472769e+2, -1262720.1, -1395566.3, 13728.678, -0.0417121, -0.06884816, -1261316.3, 64347.168, 0.0, 10.00085, 9.999091 
9.9503154e+2, 1.7472704e+2, -1192426.1, -1309938.4, 18145.648, -0.030900031, -0.04450901, -1189688.0, 37982.555, 0.0, 10.000656, 9.9991 
9.950245e+2, 1.8472633e+2, -1102667.0, -1184739.4, 12134.611, -0.02036745, -0.03879194, -1100910.5, 28766.875, 0.0, 10.000464, 9.999378 
9.950173e+2, 1.9472556e+2, -1030923.56, -1097783.4, 14245.346, -0.011229114, -0.055557992, -1028014.94, 3668.912, 0.0, 10.0002775, 9.9993925 
9.9500996e+2, 2.0472483e+2, -944331.8, -978841.3, 4762.466, -0.0007425707, -0.07882308, -943686.7, -9997.412, 0.0, 10.000085, 9.99963 
9.9500257e+2, 2.1472415e+2, -874376.5, -892985.25, 1117.8889, 0.011901154, -0.1113489, -874309.56, -38616.137, 0.0, 9.9998865, 9.999641 
9.9499506e+2, 2.2472373e+2, -806568.06, -821792.2, 1244.409, 0.012100775, -0.11289893, -806467.06, -68770.164, 0.0, 9.999732, 9.999533 
9.9498737e+2, 2.3472357e+2, -723814.56, -730801.2, 1888.2057, -0.0017290262, -0.082512245, -723336.9, -83637.44, 0.0, 9.999625, 9.999536 
9.949798e+2, 2.4472316e+2, -622215.1, -602245.44, -3703.136, -0.006318147, -0.088359065, -601580.9, -59877.57, 0.0, 9.999526, 9.999793 
9.949723e+2, 2.547225e+2, -536689.7, -508740.38, -9659.026, -0.00066387584, -0.13633469, -505727.2, -62018.75, 0.0, 9.9994335, 9.999806 
9.949648e+2, 2.6472226e+2, -428024.9, -375146.34, -10707.743, 0.0077318316, -0.1533911, -373060.38, -27350.996, 0.0, 9.999376, 10.000078 
9.949573e+2, 2.7472252e+2, -331568.7, -276191.6, -9117.692, 0.019087395, -0.13827197, -274729.03, -27023.432, 0.0, 9.999358, 10.000093 
9.949499e+2, 2.8472245e+2, -274327.66, -236015.1, -6414.121, 0.023806963, -0.1361983, -234969.8, -85264.92, 0.0, 9.999243, 9.999752 
9.949423e+2, 2.9472208e+2, -209281.92, -154158.89, -7284.84, 0.021592565, -0.1508787, -153212.4, -101504.92, 0.0, 9.999018, 9.999749 
9.949349e+2, 3.0472156e+2, -156866.81, -72819.01, 2572.6409, 0.015161837, -0.18999092, -72740.336, -72740.336, 0.0, 9.99891, 10.000025 
9.949275e+2, 3.1472138e+2, -151562.73, -68400.95, -4092.0234, 0.002416126, -0.20970507, -68200.086, -68200.086, 0.0, 9.998939, 10.000041 
1.0050698e+3, 1.2473957e+2, -1519960.9, -1714877.0, 22189.637, -0.044507977, -0.024495171, -1517466.8, 200083.31, 0.00013782152, 10.001745, 9.999159 
1.0050614e+3, 1.3473865e+2, -1464015.4, -1637745.8, 4431.893, -0.09982104, -0.03325663, -1463902.4, 155656.13, 0.000046236724, 10.001456, 9.999156 
1.0050548e+3, 1.4473797e+2, -1414164.5, -1585599.8, 15826.282, 0.020119475, -0.0045438777, -1412715.8, 108848.625, 0.00000474816, 10.001224, 9.998952 
1.005047e+3, 1.5473643e+2, -1342592.8, -1499410.6, 17349.254, -0.018240703, -0.055832658, -1340696.3, 82882.38, 0.000000004412824, 10.001039, 9.99896 
1.0050394e+3, 1.6473535e+2, -1259294.5, -1387519.5, 25869.59, -0.03682719, -0.06865874, -1254272.0, 71316.92, 0.0, 10.000847, 9.999147 
1.0050322e+3, 1.7473479e+2, -1189066.0, -1301423.5, 26461.686, -0.029286006, -0.0421222, -1183145.9, 44448.938, 0.0, 10.000649, 9.999161 
1.0050249e+3, 1.8473409e+2, -1101870.3, -1181781.8, 17365.828, -0.021854863, -0.038575068, -1098259.5, 31341.646, 0.0, 10.00046, 9.999401 
1.0050175e+3, 1.9473328e+2, -1029435.8, -1094529.1, 16221.255, -0.015475378, -0.062193543, -1025617.5, 5990.406, 0.0, 10.0002775, 9.999414 
1.0050101e+3, 2.0473254e+2, -937256.5, -980630.75, 8511.725, -0.0038667081, -0.08393619, -935645.94, -2032.6166, 0.0, 10.000156, 9.999582 
1.00500256e+3, 2.1473192e+2, -845936.1, -884735.7, 7623.03, 0.014095642, -0.10575561, -844492.2, -8874.759, 0.0, 10.000106, 9.999592 
1.00499496e+3, 2.2473145e+2, -767646.3, -802236.2, 8247.93, 0.016669866, -0.10941022, -765780.25, -28159.15, 0.0, 9.999996, 9.999538 
1.0049872e+3, 2.3473114e+2, -694728.2, -715631.8, 7953.797, 0.002078223, -0.095348395, -692045.94, -52421.57, 0.0, 9.999822, 9.999544 
1.00497946e+3, 2.4473068e+2, -606287.8, -607860.94, 4913.0625, -0.0037654138, -0.10109356, -602098.75, -60469.973, 0.0, 9.999694, 9.999673 
1.0049718e+3, 2.5473008e+2, -518311.44, -513595.38, 965.1681, -0.0000632193, -0.13084313, -513405.47, -69771.14, 0.0, 9.99962, 9.999682 
1.00496426e+3, 2.647298e+2, -409685.8, -371176.66, -1801.4031, 0.008507365, -0.14343244, -371092.56, -25456.563, 0.0, 9.999524, 10.000033 
1.0049568e+3, 2.7472988e+2, -328408.0, -279139.2, -7252.405, 0.022653718, -0.13904671, -278093.8, -30460.523, 0.0, 9.9994, 10.000052 
1.00494914e+3, 2.8472975e+2, -266412.1, -232906.13, -11018.96, 0.027659742, -0.14473602, -229607.19, -79974.07, 0.0, 9.999302, 9.999744 
1.0049415e+3, 2.9472932e+2, -177663.13, -139389.23, -12045.045, 0.022515707, -0.16396588, -135914.11, -84278.36, 0.0, 9.999238, 9.999744 
1.00493394e+3, 3.0472878e+2, -129443.89, -69242.52, 2004.217, 0.014574656, -0.19795479, -69175.875, -69175.875, 0.0, 9.999141, 9.999937 
1.0049265e+3, 3.147287e+2, -148862.88, -76820.06, -2776.1472, 0.002517563, -0.20319477, -76713.25, -76713.25, 0.0, 9.999, 9.999953 
1.01507165e+3, 1.2474763e+2, -1524587.3, -1724280.3, 14890.953, -0.03471606, -0.029427093, -1523483.0, 193987.42, 0.00017450533, 10.001743, 9.999095 
1.015063e+3, 1.3474669e+2, -1470030.5, -1650292.1, -6673.988, -0.085913554, -0.03092023, -1469783.8, 149695.48, 0.000062540406, 10.001456, 9.99907 
1.015056e+3, 1.4474598e+2, -1416132.8, -1590010.9, 8660.003, 0.019663697, -0.0020104349, -1415702.5, 105783.34, 0.000007860604, 10.0012245, 9.998921 
1.0150479e+3, 1.5474431e+2, -1344384.9, -1503629.8, 10082.714, -0.02564075, -0.06140541, -1343749.0, 79752.555, 0.000000028517778, 10.0010395, 9.998931 
1.0150401e+3, 1.6474323e+2, -1258623.5, -1386679.5, 18141.072, -0.04049871, -0.072663106, -1256103.1, 69408.78, 0.0, 10.000848, 9.999153 
1.015033e+3, 1.747428e+2, -1188236.1, -1300256.5, 18743.025, -0.016986083, -0.033739544, -1185183.3, 42333.188, 0.0, 10.000651, 9.999168 
1.0150255e+3, 1.847421e+2, -1103051.5, -1184837.9, 10140.436, -0.01077534, -0.030090485, -1101813.0, 27709.69, 0.0, 10.000462, 9.999379 
1.0150177e+3, 1.9474111e+2, -1030699.2, -1097801.8, 9069.385, -0.025109025, -0.06717312, -1029495.0, 2035.8348, 0.0, 10.000279, 9.999392 
1.01501e+3, 2.0474039e+2, -938010.0, -982825.5, 6155.805, -0.020684678, -0.08757007, -937179.8, -3643.4236, 0.0, 10.000158, 9.999567 
1.0150026e+3, 2.1473993e+2, -846634.94, -886829.25, 5530.7314, 0.0050860317, -0.09191978, -845887.8, -10348.694, 0.0, 10.000108, 9.9995775 
1.0149949e+3, 2.2473937e+2, -767605.0, -802834.6, 1616.7135, 0.013884404, -0.10292191, -767530.94, -29987.62, 0.0, 9.999998, 9.999534 
1.014987e+3, 2.3473871e+2, -694619.2, -716113.56, 1313.2614, 0.004097221, -0.12331246, -694539.25, -54990.125, 0.0, 9.999824, 9.99954 
1.0149792e+3, 2.4473825e+2, -612651.8, -621771.2, 2048.9587, 0.00057795475, -0.12562451, -612212.6, -70658.87, 0.0, 9.999696, 9.999577 
1.0149715e+3, 2.54738e+2, -524917.6, -527829.56, -1605.8999, 0.0039131776, -0.11059325, -524205.94, -80648.96, 0.0, 9.999621, 9.999584 
1.0149638e+3, 2.647377e+2, -418964.4, -390843.47, -6084.678, 0.013009959, -0.111921616, -389583.34, -44024.137, 0.0, 9.999525, 9.999899 
1.0149562e+3, 2.7473742e+2, -337711.84, -298942.8, -11567.528, 0.02831833, -0.13312937, -295753.75, -48193.555, 0.0, 9.999402, 9.999916 
1.01494856e+3, 2.8473705e+2, -267168.16, -234889.8, -13258.646, 0.031566527, -0.15212178, -230142.03, -80580.266, 0.0, 9.999303, 9.999731 
1.0149407e+3, 2.947366e+2, -178228.45, -140675.61, -14033.814, 0.0219391, -0.17121807, -136010.58, -84446.61, 0.0, 9.999238, 9.999736 
1.0149331e+3, 3.0473614e+2, -133678.81, -78181.39, -2553.3352, 0.014398762, -0.19593473, -78064.164, -78064.164, 0.0, 9.999141, 9.999877 
1.0149256e+3, 3.1473616e+2, -153001.34, -85916.25, -7333.362, 0.0068309493, -0.18324965, -85123.97, -85123.97, 0.0, 9.999001, 9.99989 
1.0250734e+3, 1.247558e+2, -1560538.9, -1740114.0, 7610.572, -0.023010181, -0.017680798, -1560216.9, 157173.56, 0.0002164286, 10.001491, 9.999108 
1.02506444e+3, 1.3475464e+2, -1492049.1, -1661865.3, -11783.803, -0.073067814, -0.04054663, -1491235.4, 128165.86, 0.00008198819, 10.00131, 9.999061 
1.0250573e+3, 1.447539e+2, -1424260.5, -1590597.6, 11155.143, 0.020264536, -0.013191036, -1423515.8, 97892.13, 0.000012107449, 10.001155, 9.99895 
1.02504894e+3, 1.5475248e+2, -1345665.5, -1500774.5, 16674.156, -0.022746917, -0.053061564, -1343893.4, 79528.41, 0.00000009714164, 10.001017, 9.9989605 
1.02504104e+3, 1.6475146e+2, -1260033.8, -1389018.1, 24651.799, -0.03761825, -0.06055283, -1255482.9, 69948.93, 0.0, 10.000847, 9.999137 
1.0250336e+3, 1.7475085e+2, -1191286.9, -1303527.6, 23209.537, -0.016722472, -0.035178944, -1186676.9, 40760.65, 0.0, 10.000639, 9.999151 
1.025026e+3, 1.8475011e+2, -1099676.0, -1183148.9, 16696.084, -0.011747907, -0.0359308, -1096460.4, 32983.81, 0.0, 10.000485, 9.999379 
1.02501795e+3, 1.9474919e+2, -1013990.6, -1089618.5, 17280.299, -0.025851207, -0.067200825, -1010229.3, 21222.316, 0.0, 10.000394, 9.9993925 
1.0250103e+3, 2.0474845e+2, -927158.5, -984931.8, 14175.843, -0.020809263, -0.08476471, -923867.6, 9589.675, 0.0, 10.000265, 9.9995 
1.0250027e+3, 2.1474792e+2, -853126.06, -897331.2, 9492.81, 0.005964358, -0.08990949, -851173.75, -15712.782, 0.0, 10.000096, 9.999511 
1.02499485e+3, 2.2474727e+2, -770594.9, -806234.94, 2960.2979, 0.015301962, -0.106055945, -770350.7, -32884.656, 0.0, 9.999988, 9.999516 
1.02498695e+3, 2.3474649e+2, -677994.7, -709961.3, 1372.0365, 0.0055197435, -0.13612594, -677935.9, -38463.4, 0.0, 9.999947, 9.999523 
1.024979e+3, 2.4474601e+2, -590507.06, -617913.5, 3345.045, 0.002967443, -0.1341501, -590104.7, -48627.613, 0.0, 9.999879, 9.999515 
1.02497116e+3, 2.547459e+2, -506435.44, -525652.5, 2077.7996, 0.0085005555, -0.09958576, -506213.34, -62733.69, 0.0, 9.999779, 9.999523 
1.0249635e+3, 2.6474556e+2, -401560.84, -393971.66, -306.2942, 0.016060818, -0.09641449, -393959.3, -48476.805, 0.0, 9.999696, 9.999794 
1.02495566e+3, 2.7474505e+2, -311461.28, -297883.25, -3713.5354, 0.025422568, -0.12997742, -296933.97, -49448.324, 0.0, 9.999633, 9.999811 
1.0249479e+3, 2.8474456e+2, -236495.1, -227245.64, -6355.7217, 0.02924668, -0.15359542, -224010.13, -74521.77, 0.0, 9.999545, 9.999666 
1.0249401e+3, 2.9474407e+2, -155435.0, -136566.77, -11474.056, 0.02784084, -0.16870871, -131146.38, -79655.87, 0.0, 9.999425, 9.999673 
1.02493234e+3, 3.0474362e+2, -119898.8, -73558.086, -4324.1953, 0.022731014, -0.1929997, -73158.04, -73158.04, 0.0, 9.999245, 9.999858 
1.0249246e+3, 3.1474352e+2, -153505.42, -88134.125, -6006.247, 0.010698012, -0.18525434, -87586.86, -87586.86, 0.0, 9.999006, 9.999872 
1.03507504e+3, 1.2476412e+2, -1554628.6, -1728118.1, 3245.4148, -0.008845299, 0.009664581, -1554568.0, 162741.75, 0.0002637313, 10.001491, 9.999191 
1.03506595e+3, 1.3476254e+2, -1487562.6, -1653055.1, -18736.295, -0.06137358, -0.061949123, -1485467.9, 133856.13, 0.00010469639, 10.001311, 9.999121 
1.03505835e+3, 1.4476185e+2, -1418202.4, -1578533.6, 5752.994, 0.02185277, -0.037759915, -1417996.1, 103333.94, 0.000017566988, 10.001156, 9.999033 
1.0350501e+3, 1.5476097e+2, -1339547.5, -1488471.3, 11185.21, -0.009774539, -0.030990766, -1338712.1, 84626.625, 0.00000023822265, 10.001018, 9.999045 
1.03504196e+3, 1.6476001e+2, -1262687.9, -1394976.4, 16586.504, -0.02841441, -0.03267311, -1260640.0, 64708.074, 0.0, 10.000848, 9.999096 
1.0350342e+3, 1.7475899e+2, -1194180.9, -1310122.6, 15073.241, -0.028491197, -0.046434823, -1192253.3, 35104.652, 0.0, 10.000641, 9.999105 
1.03502624e+3, 1.8475813e+2, -1098108.9, -1180533.4, 12779.294, -0.024666198, -0.055954114, -1096173.0, 33192.395, 0.0, 10.000486, 9.999396 
1.0350184e+3, 1.9475749e+2, -1012289.7, -1086728.5, 13577.926, -0.017780872, -0.062297646, -1009890.3, 21479.771, 0.0, 10.000396, 9.999412 
1.0350106e+3, 2.0475675e+2, -935269.7, -1002405.1, 7551.2866, -0.0044159126, -0.07562164, -934430.8, -1054.8925, 0.0, 10.000267, 9.99938 
1.0350029e+3, 2.147559e+2, -861414.1, -915205.0, 2888.8381, 0.016618041, -0.099775895, -861259.44, -25876.549, 0.0, 10.000098, 9.999388 
1.034995e+3, 2.2475512e+2, -772793.25, -811469.56, 1143.4196, 0.020834496, -0.11878501, -772759.44, -35370.336, 0.0, 9.9999895, 9.999479 
1.0349868e+3, 2.3475447e+2, -680171.9, -715152.44, -205.04861, 0.0063279457, -0.13362923, -680170.7, -40776.31, 0.0, 9.9999485, 9.999487 
1.03497885e+3, 2.4475403e+2, -592362.7, -622439.75, -267.1232, 0.0033611942, -0.12656716, -592360.3, -50961.504, 0.0, 9.999881, 9.999483 
1.0349711e+3, 2.5475383e+2, -508263.34, -530079.0, -1482.292, 0.0133884605, -0.098040245, -508163.06, -64760.72, 0.0, 9.999781, 9.999493 
1.0349631e+3, 2.6475343e+2, -406691.53, -405170.1, -2498.0247, 0.017309178, -0.09717616, -403319.53, -57913.492, 0.0, 9.999697, 9.999717 
1.0349552e+3, 2.7475283e+2, -316758.1, -309254.84, -5715.7046, 0.013998127, -0.12940887, -306169.5, -58759.715, 0.0, 9.999634, 9.999733 
1.0349474e+3, 2.8475225e+2, -244915.64, -245055.14, -10353.041, 0.020704223, -0.14881219, -234632.11, -85219.086, 0.0, 9.999546, 9.999544 
1.0349396e+3, 2.9475173e+2, -163809.02, -154459.13, -15523.453, 0.039651357, -0.15624289, -142921.95, -91506.375, 0.0, 9.999426, 9.99955 
1.0349318e+3, 3.0475113e+2, -118248.055, -70643.74, -12907.852, 0.039020002, -0.18922058, -67369.055, -67369.055, 0.0, 9.999246, 9.999878 
1.0349237e+3, 3.1475082e+2, -151884.86, -84884.63, -14402.634, 0.014121983, -0.20992512, -81919.79, -81919.79, 0.0, 9.999006, 9.999895 
1.0450764e+3, 1.24772355e+2, -1566067.6, -1723414.6, 12310.485, -0.008866152, 0.014161386, -1565110.3, 152119.31, 0.00031664252, 10.001369, 9.999281 
1.0450672e+3, 1.3477077e+2, -1481821.0, -1641874.8, -10150.578, -0.055458136, -0.065028355, -1481179.8, 138063.67, 0.00013079311, 10.001316, 9.999195 
1.04505956e+3, 1.4477013e+2, -1411507.9, -1571737.0, 10435.678, 0.020962318, -0.040642805, -1410831.0, 110417.945, 0.000024312307, 10.001188, 9.9990635 
1.04505114e+3, 1.5476938e+2, -1346001.6, -1488009.4, 11334.821, -0.0030752749, -0.022978256, -1345102.5, 78153.98, 0.0000004785213, 10.000958, 9.999076 
1.0450429e+3, 1.6476846e+2, -1273887.3, -1397680.6, 16883.445, -0.020513674, -0.024828676, -1271626.0, 53639.598, 0.0, 10.00076, 9.99912 
1.0450348e+3, 1.7476733e+2, -1198443.6, -1309357.3, 20369.793, -0.02692398, -0.05118775, -1194821.0, 32455.164, 0.0, 10.0006, 9.99913 
1.0450267e+3, 1.8476647e+2, -1100398.5, -1182093.9, 23245.408, -0.026114227, -0.063134074, -1094247.5, 35036.12, 0.0, 10.000474, 9.999392 
1.0450188e+3, 1.947659e+2, -1014374.1, -1088247.0, 22101.273, -0.018477302, -0.06063988, -1008266.8, 23020.64, 0.0, 10.000385, 9.999406 
1.045011e+3, 2.0476514e+2, -934425.44, -1010809.5, 15688.342, -0.005590744, -0.07147162, -931328.8, 1964.749, 0.0, 10.000312, 9.9993 
1.0450031e+3, 2.1476416e+2, -843813.6, -915679.56, 13927.986, 0.013580162, -0.09993734, -841208.75, -5906.5347, 0.0, 10.000258, 9.999307 
1.044995e+3, 2.2476335e+2, -748740.5, -803043.8, 14877.863, 0.019305747, -0.118924566, -744931.5, -7622.461, 0.0, 10.000169, 9.99945 
1.04498684e+3, 2.3476271e+2, -668580.1, -712556.06, 13863.342, 0.010048147, -0.1291955, -664574.56, -25260.74, 0.0, 10.000042, 9.999459 
1.0449789e+3, 2.4476223e+2, -588283.75, -625440.44, 12966.129, 0.00833649, -0.12265963, -584206.5, -42887.906, 0.0, 9.999931, 9.999437 
1.0449708e+3, 2.5476187e+2, -503021.0, -532546.2, 10259.326, 0.015039636, -0.10020806, -499806.16, -56482.883, 0.0, 9.999839, 9.999447 
1.0449629e+3, 2.6476145e+2, -401468.72, -411973.6, 9800.949, 0.01783092, -0.09891525, -395601.5, -50273.855, 0.0, 9.999774, 9.999633 
1.04495496e+3, 2.7476084e+2, -307885.6, -314379.94, 5828.6924, 0.01607016, -0.12355397, -304460.6, -57128.99, 0.0, 9.999737, 9.999648 
1.04494706e+3, 2.847602e+2, -233761.5, -244018.42, 572.1438, 0.023246964, -0.14486504, -233729.69, -84394.164, 0.0, 9.999642, 9.999504 
1.0449391e+3, 2.947595e+2, -157207.39, -155519.94, 1452.3805, 0.041166443, -0.1646747, -154684.0, -103344.75, 0.0, 9.999491, 9.999511 
1.04493104e+3, 3.0475885e+2, -109450.086, -70371.28, 1992.897, 0.0411631, -0.19989415, -70269.914, -70269.914, 0.0, 9.999325, 9.999841 
1.0449227e+3, 3.1475857e+2, -135762.83, -81096.68, -4333.8965, 0.019234445, -0.21198803, -80755.22, -80755.22, 0.0, 9.999135, 9.999858 
1.0550776e+3, 1.24780536e+2, -1559109.4, -1709497.8, 10733.177, -0.024157053, -0.0033424203, -1558347.3, 158802.34, 0.0003754382, 10.00137, 9.999377 
1.0550686e+3, 1.3477936e+2, -1475889.0, -1629800.1, -12248.242, -0.055117212, -0.050195225, -1474920.4, 144238.95, 0.00016041061, 10.001316, 9.999278 
1.0550607e+3, 1.4477877e+2, -1413215.9, -1575454.8, 1920.0475, 0.017537339, -0.022405783, -1413193.1, 107971.164, 0.000032450233, 10.001187, 9.999039 
1.0550521e+3, 1.5477777e+2, -1347709.6, -1491978.8, 2397.2383, -0.0027459092, -0.02887187, -1347669.9, 75504.85, 0.0000008393984, 10.000959, 9.999049 
1.0550437e+3, 1.6477682e+2, -1267695.6, -1385448.8, 10447.2705, -0.01398662, -0.036692448, -1266775.9, 58408.105, 0.0, 10.000762, 9.999203 
1.0550355e+3, 1.7477591e+2, -1191872.3, -1296408.9, 14039.867, -0.012195355, -0.0494807, -1190019.4, 37172.55, 0.0, 10.000602, 9.999218 
1.0550273e+3, 1.847751e+2, -1102215.8, -1186530.1, 19500.469, -0.016372949, -0.05766012, -1097924.0, 31274.506, 0.0, 10.000476, 9.999361 
1.0550192e+3, 1.9477445e+2, -1016418.9, -1093151.5, 18423.41, -0.02804442, -0.062301412, -1012224.7, 18978.742, 0.0, 10.000387, 9.999372 
1.0550111e+3, 2.0477365e+2, -937104.5, -1017059.4, 13380.059, -0.024321921, -0.07229232, -934924.8, -1714.665, 0.0, 10.000314, 9.999257 
1.0550032e+3, 2.1477273e+2, -846427.9, -921849.0, 11711.446, -0.0032144068, -0.09042742, -844651.1, -9432.4, 0.0, 10.00026, 9.999264 
1.0549951e+3, 2.2477192e+2, -750181.44, -806763.6, 10012.766, 0.010607628, -0.10654675, -748461.8, -11236.102, 0.0, 10.000172, 9.999424 
1.05498694e+3, 2.3477118e+2, -669901.56, -715974.56, 9045.667, 0.016559584, -0.12283007, -668189.25, -28958.34, 0.0, 10.000044, 9.999435 
1.0549789e+3, 2.4477059e+2, -592422.25, -634666.9, 9535.723, 0.017761873, -0.12241278, -590369.5, -49133.023, 0.0, 9.999933, 9.999373 
1.0549707e+3, 2.5477013e+2, -507357.9, -542068.8, 7077.0225, 0.013457577, -0.10605765, -505970.47, -62728.03, 0.0, 9.999841, 9.999381 
1.05496265e+3, 2.647696e+2, -408074.3, -426135.88, 8643.35, 0.017686918, -0.10153697, -404604.6, -59357.2, 0.0, 9.999775, 9.999536 
1.0549548e+3, 2.7476907e+2, -314478.3, -328503.63, 4757.482, 0.03143977, -0.11231478, -313016.84, -65765.65, 0.0, 9.999738, 9.999551 
1.0549468e+3, 2.8476834e+2, -230891.36, -238421.22, -4750.1294, 0.03655436, -0.14184064, -228595.06, -79339.11, 0.0, 9.999642, 9.999542 
1.0549385e+3, 2.9476735e+2, -154170.63, -149417.45, -3690.961, 0.032316286, -0.19437702, -147404.13, -96142.42, 0.0, 9.999491, 9.999554 
1.0549303e+3, 3.0476668e+2, -116364.32, -85016.19, -4462.973, 0.029003222, -0.22517926, -84393.19, -84393.19, 0.0, 9.999325, 9.999741 
1.054922e+3, 3.1476685e+2, -142684.0, -96024.6, -11063.431, 0.024874704, -0.18440604, -93534.26, -93534.26, 0.0, 9.999137, 9.999756 
1.065079e+3, 1.2478904e+2, -1551770.6, -1701936.0, 21422.855, -0.028973317, -0.0075536566, -1548774.1, 168292.17, 0.00044022893, 10.001405, 9.999412 
1.06506996e+3, 1.3478799e+2, -1494507.8, -1635789.5, -6056.112, -0.049281437, -0.042814843, -1494248.6, 124826.13, 0.0001936281, 10.001176, 9.999304 
1.0650618e+3, 1.4478746e+2, -1435915.6, -1580823.3, 7473.8965, 0.016946822, -0.014792755, -1435531.1, 85548.21, 0.00004209593, 10.001009, 9.999087 
1.0650531e+3, 1.5478642e+2, -1353455.3, -1489101.0, 13240.579, -0.0010045735, -0.02932044, -1352174.9, 70915.11, 0.0000013547506, 10.000897, 9.999098 
1.0650444e+3, 1.6478546e+2, -1267325.4, -1386579.3, 21258.967, -0.0099386815, -0.039247226, -1263648.9, 61450.31, 0.0, 10.0007715, 9.99919 
1.0650361e+3, 1.7478459e+2, -1189111.1, -1296478.5, 17052.232, -0.005875425, -0.04750042, -1186468.0, 40638.973, 0.0, 10.000628, 9.999205 
1.0650279e+3, 1.8478377e+2, -1104078.5, -1188753.3, 19876.182, -0.011541412, -0.055938285, -1099645.0, 29468.602, 0.0, 10.00047, 9.999348 
1.0650195e+3, 1.9478303e+2, -1030111.25, -1100939.9, 20294.6, -0.02883095, -0.066274926, -1024708.4, 6410.731, 0.0, 10.0002985, 9.99936 
1.06501125e+3, 2.0478223e+2, -957797.25, -1033191.6, 18949.607, -0.029251754, -0.07406622, -953302.4, -20176.285, 0.0, 10.000199, 9.999201 
1.0650033e+3, 2.1478137e+2, -862389.8, -935796.56, 16136.665, -0.010790504, -0.08104271, -858999.2, -23864.396, 0.0, 10.000178, 9.999207 
1.0649952e+3, 2.2478056e+2, -747114.75, -800746.56, 15380.315, 0.00416983, -0.094867766, -743017.1, -5875.4243, 0.0, 10.000174, 9.999463 
1.064987e+3, 2.347798e+2, -646287.8, -699684.1, 19180.7, 0.015481919, -0.118689135, -640112.1, -965.38135, 0.0, 10.000186, 9.999478 
1.0649789e+3, 2.4477918e+2, -567070.94, -626942.6, 20739.82, 0.019282924, -0.12072114, -560588.44, -19436.059, 0.0, 10.000127, 9.999332 
1.0649706e+3, 2.547787e+2, -488424.16, -537496.8, 19577.174, 0.014646959, -0.10138829, -481571.03, -38412.52, 0.0, 9.999991, 9.999339 
1.0649625e+3, 2.6477817e+2, -397560.03, -423640.2, 25808.832, 0.019178161, -0.09729887, -381684.03, -36520.188, 0.0, 9.999859, 9.999512 
1.0649546e+3, 2.7477756e+2, -316698.97, -331965.6, 27374.5, 0.033750616, -0.11195503, -295913.44, -48745.332, 0.0, 9.999733, 9.999529 
1.0649464e+3, 2.8477678e+2, -236215.81, -244732.2, 16294.298, 0.037299488, -0.14389619, -223632.5, -74459.18, 0.0, 9.999623, 9.999508 
1.064938e+3, 2.9477575e+2, -150724.53, -151371.84, 11340.463, 0.028934276, -0.19743347, -139703.11, -88523.6, 0.0, 9.999531, 9.99952 
1.0649296e+3, 3.0477506e+2, -114268.05, -82870.914, 6956.59, 0.02890274, -0.22975211, -81398.6, -81398.6, 0.0, 9.999335, 9.99975 
1.0649212e+3, 3.1477532e+2, -156739.05, -101142.586, 8355.346, 0.035561062, -0.17792158, -99914.05, -99914.05, 0.0, 9.999034, 9.999769 
1.0750804e+3, 1.24797896e+2, -1553903.1, -1706328.3, 12271.73, -0.024174932, 0.0011052291, -1552921.5, 164057.97, 0.0005108164, 10.001404, 9.999383 
1.0750712e+3, 1.3479674e+2, -1496896.0, -1641018.1, -14865.708, -0.038338207, -0.04276355, -1495378.6, 123610.82, 0.00023041679, 10.001177, 9.999269 
1.0750629e+3, 1.4479622e+2, -1427521.1, -1563926.6, 3046.6416, 0.018901173, -0.017569, -1427453.1, 93540.79, 0.000053336094, 10.00101, 9.999204 
1.07505396e+3, 1.5479536e+2, -1344682.9, -1471451.4, 8685.7705, 0.00213994, -0.024404345, -1344090.5, 78911.57, 0.0000020676762, 10.000898, 9.999219 
1.0750453e+3, 1.6479443e+2, -1275062.6, -1403171.5, 15607.739, -0.008334931, -0.03265058, -1273188.5, 51822.5, 0.0000000000166348, 10.000772, 9.999076 
1.07503675e+3, 1.7479339e+2, -1197165.4, -1313801.8, 11382.986, -0.007997649, -0.045298304, -1196064.9, 30955.953, 0.0, 10.000629, 9.999085 
1.0750283e+3, 1.8479247e+2, -1103611.3, -1188468.3, 13121.767, -0.011664595, -0.057974454, -1101628.5, 27400.111, 0.0, 10.000472, 9.99935 
1.0750199e+3, 1.947917e+2, -1029294.7, -1099969.4, 13578.814, -0.020938497, -0.07257555, -1026775.56, 4258.607, 0.0, 10.000301, 9.999367 
1.0750116e+3, 2.047909e+2, -962477.4, -1043623.44, 17759.273, -0.020542923, -0.07681837, -958760.9, -25719.547, 0.0, 10.000201, 9.999128 
1.07500345e+3, 2.1479009e+2, -867297.2, -946694.6, 15180.259, -0.009247876, -0.07174671, -864493.8, -29443.602, 0.0, 10.000181, 9.999131 
1.0749954e+3, 2.247893e+2, -739537.5, -785752.06, 15682.624, -0.00008989223, -0.0838435, -734718.25, 2338.7136, 0.0, 10.000175, 9.999565 
1.0749872e+3, 2.3478855e+2, -638426.9, -684112.4, 19693.943, 0.006715898, -0.11686581, -631109.3, 7952.006, 0.0, 10.000188, 9.999585 
1.074979e+3, 2.4478799e+2, -568299.1, -630210.9, 15809.66, 0.012786007, -0.11760227, -564495.7, -23429.465, 0.0, 10.000129, 9.99931 
1.0749706e+3, 2.5478765e+2, -489815.0, -540992.3, 14705.41, 0.018408353, -0.085997276, -485890.47, -42818.89, 0.0, 9.999992, 9.999315 
1.0749624e+3, 2.6478708e+2, -393906.53, -416526.4, 21339.404, 0.022065794, -0.086085126, -381065.2, -35988.16, 0.0, 9.99986, 9.99956 
1.0749542e+3, 2.747863e+2, -313051.2, -324744.72, 23083.758, 0.022816751, -0.12268842, -295085.28, -48002.863, 0.0, 9.999734, 9.999578 
1.0749459e+3, 2.8478548e+2, -244085.2, -261348.17, 13227.544, 0.025311915, -0.15101255, -236922.05, -87834.36, 0.0, 9.999623, 9.999394 
1.0749375e+3, 2.9478467e+2, -158735.34, -168235.97, 8305.346, 0.030879632, -0.17304331, -153917.78, -102824.99, 0.0, 9.999531, 9.999405 
1.0749291e+3, 3.047839e+2, -105945.75, -65741.266, -3823.7302, 0.040848345, -0.21313292, -65380.832, -65380.832, 0.0, 9.999335, 9.999868 
1.0749203e+3, 3.1478396e+2, -147746.94, -82382.03, -2592.43, 0.051162317, -0.19346897, -82279.375, -82279.375, 0.0, 9.999033, 9.9999 
1.0850818e+3, 1.24806724e+2, -1579417.9, -1714015.0, 12036.663, -0.025514826, 0.0014049503, -1578349.9, 138543.22, 0.0005868399, 10.001209, 9.999423 
1.0850724e+3, 1.3480562e+2, -1497174.5, -1637328.3, -9149.468, -0.03447228, -0.04033119, -1496579.6, 122323.09, 0.00027068684, 10.00116, 9.999301 
1.0850638e+3, 1.4480512e+2, -1418809.0, -1554290.3, 8250.293, 0.014278136, -0.017664326, -1418308.4, 102598.62, 0.00006622561, 10.001048, 9.99925 
1.0850548e+3, 1.5480429e+2, -1348019.8, -1467661.0, 7952.661, 0.0016122168, -0.027064525, -1347493.4, 75421.31, 0.000003027, 10.000854, 9.999267 
1.085046e+3, 1.648034e+2, -1284325.5, -1402424.6, 18238.791, -0.006947708, -0.03470858, -1281573.0, 43350.023, 0.000000000186287, 10.000688, 9.999122 
1.0850374e+3, 1.7480244e+2, -1204890.6, -1312357.1, 26115.574, -0.007357835, -0.043456037, -1198880.4, 28051.3, 0.0, 10.000556, 9.99913 
1.0850288e+3, 1.848015e+2, -1114091.3, -1203054.5, 31002.242, -0.011107943, -0.05688475, -1104353.4, 24586.492, 0.0, 10.0004425, 9.999263 
1.08502015e+3, 1.9480059e+2, -1028799.3, -1109584.8, 24153.828, -0.019562017, -0.07709917, -1022128.5, 8818.813, 0.0, 10.000348, 9.999277 
1.0850118e+3, 2.0479976e+2, -955009.8, -1037911.3, 30234.975, -0.01914498, -0.08021808, -945154.44, -12199.559, 0.0, 10.000244, 9.999146 
1.0850037e+3, 2.1479905e+2, -872781.7, -946791.2, 34668.645, -0.008811645, -0.06714845, -859078.8, -24116.148, 0.0, 10.0001335, 9.999153 
1.0849955e+3, 2.2479828e+2, -759154.6, -797920.1, 35914.73, -0.0005667768, -0.07717212, -737726.1, -756.8354, 0.0, 10.000053, 9.99954 
1.0849873e+3, 2.3479746e+2, -665965.8, -700088.06, 29706.965, 0.005194887, -0.11404956, -648769.3, -9794.762, 0.0, 10.000011, 9.999559 
1.084979e+3, 2.447969e+2, -586826.56, -631882.0, 21033.928, 0.012434625, -0.11712312, -578533.44, -37553.98, 0.0, 9.999971, 9.999374 
1.0849706e+3, 2.547966e+2, -494086.3, -535443.44, 26523.254, 0.021780284, -0.08658096, -481133.25, -38149.418, 0.0, 9.999931, 9.999382 
1.0849623e+3, 2.6479608e+2, -390572.3, -411095.47, 35154.543, 0.023863256, -0.08615956, -364212.28, -19223.781, 0.0, 9.999867, 9.999594 
1.08495384e+3, 2.7479535e+2, -304047.03, -316645.75, 35366.582, 0.017274104, -0.12041763, -274423.2, -27429.893, 0.0, 9.99978, 9.999612 
1.0849454e+3, 2.8479457e+2, -245195.73, -267748.0, 25623.244, 0.019300748, -0.14568377, -228477.19, -79478.62, 0.0, 9.999641, 9.999341 
1.084937e+3, 2.9479373e+2, -174377.17, -181839.7, 25221.018, 0.03189957, -0.1639463, -152612.9, -101608.6, 0.0, 9.999451, 9.99935 
1.0849284e+3, 3.047929e+2, -114979.83, -63232.016, 8546.821, 0.0460145, -0.21104272, -61856.938, -61856.938, 0.0, 9.999245, 9.999928 
1.0849194e+3, 3.1479302e+2, -143614.77, -72284.35, 4482.5522, 0.05711033, -0.19185545, -72003.76, -72003.76, 0.0, 9.999027, 9.999971 
1.0950829e+3, 1.2481557e+2, -1572063.4, -1698724.1, 8805.683, -0.03329645, -0.0065463423, -1571454.1, 145352.83, 0.00066826155, 10.001208, 9.999529 
1.0950735e+3, 1.3481468e+2, -1490320.3, -1623248.3, -11170.843, -0.037431866, -0.035491824, -1489388.1, 129426.22, 0.00031450897, 10.001159, 9.999399 
1.0950647e+3, 1.448142e+2, -1420588.0, -1558264.4, 950.4395, 0.0032933077, -0.015173134, -1420581.5, 100236.875, 0.000080840386, 10.001048, 9.999224 
1.09505564e+3, 1.548132e+2, -1349936.0, -1472076.3, 247.6255, -0.0027062304, -0.037197635, -1349935.5, 72892.125, 0.0000043066148, 10.0008545, 9.999236 
1.0950468e+3, 1.6481239e+2, -1270191.1, -1373666.8, 12871.006, -0.0059755016, -0.04526164, -1268614.3, 56220.54, 0.0000000006358386, 10.000689, 9.999319 
1.095038e+3, 1.7481177e+2, -1190362.8, -1282817.5, 20787.252, -0.004048496, -0.041932814, -1185904.0, 40935.395, 0.0, 10.000557, 9.999332 
1.0950292e+3, 1.8481086e+2, -1126330.8, -1229081.3, 27052.21, -0.009975974, -0.052699167, -1119643.6, 9203.56, 0.0, 10.000443, 9.9990835 
1.0950205e+3, 1.9480969e+2, -1041605.7, -1136874.5, 20316.094, -0.024736242, -0.079885274, -1037454.2, -6595.8657, 0.0, 10.00035, 9.999089 
1.095012e+3, 2.048088e+2, -947337.5, -1022701.2, 25772.813, -0.025068557, -0.08431086, -939366.75, -6500.1523, 0.0, 10.000247, 9.99925 
1.0950038e+3, 2.1480824e+2, -864525.06, -930348.3, 30284.682, -0.009573931, -0.06734949, -852711.56, -17839.563, 0.0, 10.000135, 9.999266 
1.0949955e+3, 2.2480749e+2, -769727.25, -820559.56, 34084.83, 0.0026076178, -0.0749025, -752625.7, -15747.0625, 0.0, 10.000055, 9.999385 
1.0949873e+3, 2.3480654e+2, -677007.9, -723632.06, 28109.723, 0.0108370865, -0.11011482, -663801.4, -24914.943, 0.0, 10.000013, 9.999397 
1.094979e+3, 2.4480589e+2, -576045.75, -610074.25, 19671.664, 0.018164698, -0.11927022, -567051.2, -26159.107, 0.0, 9.999973, 9.999524 
1.09497055e+3, 2.548056e+2, -482796.9, -512554.44, 25320.133, 0.02469739, -0.10345695, -468307.56, -25412.184, 0.0, 9.999932, 9.999539 
1.0949621e+3, 2.648052e+2, -389461.78, -409301.06, 32253.543, 0.024510216, -0.097687446, -365636.94, -20738.584, 0.0, 9.999868, 9.999606 
1.09495364e+3, 2.7480477e+2, -302965.8, -314861.3, 32520.434, 0.017064722, -0.10477675, -275853.72, -28952.91, 0.0, 9.999781, 9.999624 
1.0949451e+3, 2.8480402e+2, -244758.36, -267115.4, 18877.19, 0.019171825, -0.12765674, -233998.16, -85092.11, 0.0, 9.999641, 9.999346 
1.0949364e+3, 2.9480293e+2, -173999.48, -181125.06, 18619.09, 0.031810567, -0.17057568, -158605.38, -107691.14, 0.0, 9.99945, 9.999355 
1.09492764e+3, 3.0480206e+2, -115417.27, -64230.645, 906.5447, 0.044058684, -0.22377126, -64214.598, -64214.598, 0.0, 9.999244, 9.999923 
1.0949185e+3, 3.1480256e+2, -143184.48, -71523.77, -3293.3645, 0.052509513, -0.16876273, -71372.734, -71372.734, 0.0, 9.999026, 9.999977 
1.1050841e+3, 1.24824725e+2, -1573090.9, -1697928.6, 23976.031, -0.029118532, -0.00825778, -1568644.5, 148072.88, 0.00075576623, 10.001197, 9.999539 
1.1050746e+3, 1.3482401e+2, -1513334.1, -1633655.6, -1711.6575, -0.03192817, -0.02103064, -1513309.9, 105413.664, 0.00036234639, 10.000999, 9.999404 
1.10506564e+3, 1.4482352e+2, -1446152.0, -1567655.9, 8026.783, -0.0017048473, -0.0016482448, -1445624.0, 75103.555, 0.00009737699, 10.000861, 9.999249 
1.1050564e+3, 1.5482242e+2, -1360468.9, -1474007.8, 11060.473, -0.0050178086, -0.03707988, -1359401.5, 63336.168, 0.0000060098255, 10.00077, 9.999263 
1.1050474e+3, 1.648216e+2, -1274567.8, -1368683.6, 20098.717, -0.0055573396, -0.05123142, -1270455.3, 54289.25, 0.0000000015512864, 10.000629, 9.999381 
1.10503845e+3, 1.7482105e+2, -1203012.5, -1281638.8, 17419.549, -0.0011908461, -0.0460818, -1199326.0, 27421.943, 0.0, 10.000441, 9.999396 
1.10502966e+3, 1.8482018e+2, -1148024.1, -1244008.1, 26491.525, -0.006433478, -0.05522214, -1141198.0, -12442.438, 0.0, 10.000316, 9.9990425 
1.1050207e+3, 1.9481897e+2, -1057629.4, -1149241.1, 30433.86, -0.02237941, -0.081053525, -1048440.75, -17673.377, 0.0, 10.000261, 9.999046 
1.1050122e+3, 2.0481808e+2, -949561.6, -1021410.4, 38383.457, -0.024483854, -0.08400508, -932913.7, -137.89105, 0.0, 10.000222, 9.99927 
1.1050039e+3, 2.1481757e+2, -853828.44, -922619.94, 35968.727, -0.01138416, -0.06551606, -838456.56, -3676.078, 0.0, 10.000198, 9.999288 
1.1049956e+3, 2.2481681e+2, -766189.4, -823952.4, 38637.547, 0.00091224647, -0.070875935, -746831.9, -10044.691, 0.0, 10.000103, 9.999338 
1.10498734e+3, 2.3481584e+2, -692605.6, -736584.56, 40936.156, 0.012110001, -0.10316263, -668126.75, -29330.955, 0.0, 9.99993, 9.999348 
1.104979e+3, 2.448152e+2, -587298.1, -603263.7, 38316.973, 0.021026509, -0.11520981, -556141.25, -15339.877, 0.0, 9.999844, 9.999632 
1.1049704e+3, 2.5481492e+2, -486895.9, -501963.2, 40300.742, 0.027392609, -0.108563684, -453430.7, -10627.251, 0.0, 9.999851, 9.999651 
1.104962e+3, 2.6481456e+2, -399385.53, -413289.94, 41812.008, 0.02621579, -0.10853623, -363951.7, -19145.643, 0.0, 9.999798, 9.999613 
1.1049534e+3, 2.748141e+2, -317722.25, -321445.84, 41305.797, 0.017127959, -0.1174532, -278236.3, -31427.365, 0.0, 9.999678, 9.999628 
1.1049447e+3, 2.848134e+2, -252073.78, -263414.97, 27542.072, 0.01855778, -0.13591751, -229624.61, -80810.99, 0.0, 9.999561, 9.99941 
1.1049359e+3, 2.9481253e+2, -169372.89, -171506.73, 31550.043, 0.031366777, -0.16809787, -138871.73, -88051.54, 0.0, 9.999451, 9.999421 
1.1049269e+3, 3.0481157e+2, -106561.74, -68405.45, 12912.854, 0.04381729, -0.22562584, -64446.293, -64446.293, 0.0, 9.999342, 9.999846 
1.10491745e+3, 3.1481197e+2, -116232.2, -65397.434, 2796.9473, 0.052699286, -0.17016429, -65244.008, -65244.008, 0.0, 9.999242, 9.999915 
1.1150855e+3, 1.2483424e+2, -1579614.9, -1711114.4, 14318.814, -0.013900448, -0.004236909, -1578073.8, 138550.16, 0.00085056474, 10.001194, 9.999451 
1.1150758e+3, 1.3483362e+2, -1520078.6, -1647570.8, -9391.575, -0.01842214, 0.0028023666, -1519390.5, 99239.555, 0.00041499882, 10.000998, 9.99931 
1.11506656e+3, 1.4483313e+2, -1440947.1, -1556956.9, 4242.884, -0.0010867246, 0.022741744, -1440792.1, 79842.25, 0.00011616446, 10.00086, 9.999323 
1.1150571e+3, 1.5483198e+2, -1354938.3, -1462865.3, 7187.8643, -0.005390242, -0.02683336, -1354461.6, 68182.7, 0.000008247579, 10.000771, 9.99934 
1.115048e+3, 1.6483103e+2, -1279538.1, -1379591.9, 12619.251, -0.005694103, -0.05271812, -1277971.0, 46681.0, 0.0000000033697685, 10.000631, 9.999306 
1.1150389e+3, 1.7483032e+2, -1207963.0, -1292749.1, 9915.545, 0.0011151029, -0.055948243, -1206818.9, 19838.234, 0.0, 10.0004425, 9.99932 
1.11503005e+3, 1.8482946e+2, -1141202.9, -1230672.4, 24011.281, -0.00060928555, -0.06441938, -1135166.3, -6501.7197, 0.0, 10.000318, 9.999134 
1.1150211e+3, 1.9482845e+2, -1050488.8, -1135135.9, 28062.053, -0.012644785, -0.080580056, -1042030.9, -11356.547, 0.0, 10.000263, 9.999143 
1.1150125e+3, 2.0482762e+2, -954026.75, -1031310.44, 37250.723, -0.017565224, -0.07930351, -938995.44, -6313.208, 0.0, 10.000224, 9.999203 
1.11500405e+3, 2.1482702e+2, -858430.8, -932822.0, 34888.316, -0.0143530555, -0.061606698, -844629.3, -9941.241, 0.0, 10.0002, 9.999217 
1.1149956e+3, 2.2482628e+2, -761810.1, -815546.6, 32116.813, -0.005709401, -0.065095, -746804.8, -10109.952, 0.0, 10.000105, 9.999395 
1.1149872e+3, 2.348254e+2, -688015.44, -727699.1, 34409.613, 0.008927018, -0.09326723, -668136.75, -29434.014, 0.0, 9.999932, 9.999409 
1.1149788e+3, 2.4482483e+2, -582740.06, -594400.6, 38597.375, 0.020907782, -0.104907796, -549535.06, -8827.829, 0.0, 9.9998455, 9.999693 
1.1149704e+3, 2.5482458e+2, -482330.78, -493000.56, 40902.297, 0.02974775, -0.10169719, -446416.94, -3708.8044, 0.0, 9.999852, 9.999713 
1.1149618e+3, 2.6482406e+2, -399452.63, -413806.8, 37760.574, 0.028881574, -0.118778475, -368193.13, -23481.467, 0.0, 9.999798, 9.999609 
1.11495316e+3, 2.7482328e+2, -318014.7, -322315.03, 37270.758, 0.017346479, -0.15911794, -282832.13, -36114.277, 0.0, 9.999678, 9.999622 
1.1149442e+3, 2.8482273e+2, -243740.9, -246350.73, 23868.707, 0.017273849, -0.17097034, -221141.47, -72420.016, 0.0, 9.999561, 9.999528 
1.1149353e+3, 2.9482242e+2, -160676.84, -153858.95, 28049.512, 0.030431062, -0.15606436, -129012.0, -78289.71, 0.0, 9.999451, 9.999542 
1.1149263e+3, 3.0482143e+2, -117013.94, -90603.39, 9693.075, 0.045244046, -0.21626993, -87427.73, -87427.73, 0.0, 9.999343, 9.999694 
1.1149169e+3, 3.148214e+2, -125614.84, -85215.52, -478.649, 0.05740508, -0.19357349, -85209.86, -85209.86, 0.0, 9.999243, 9.99978 
1.12508655e+3, 1.2484375e+2, -1614031.9, -1729633.3, 10612.812, -0.0053296764, -0.002120729, -1613065.6, 103464.805, 0.0009537465, 10.000968, 9.999433 
1.1250768e+3, 1.348431e+2, -1540524.3, -1659973.0, -5657.734, -0.009994256, 0.0034124625, -1540256.9, 78280.53, 0.00047316175, 10.00087, 9.999286 
1.12506725e+3, 1.4484261e+2, -1452735.1, -1555299.9, 10878.28, -0.0037723605, 0.022441808, -1451594.0, 68947.69, 0.00013752929, 10.00075, 9.999388 
1.12505786e+3, 1.5484159e+2, -1376388.9, -1465681.5, 12405.868, -0.0066590416, -0.020702522, -1374697.4, 47852.727, 0.00001111389, 10.000591, 9.999406 
1.12504855e+3, 1.6484064e+2, -1299066.0, -1391191.1, 20234.65, -0.007202108, -0.049421508, -1294817.5, 29740.084, 0.0000000061074554, 10.000507, 9.999285 
1.12503946e+3, 1.7483978e+2, -1201074.3, -1291757.0, 21514.92, -0.00256592, -0.06549456, -1196228.6, 30335.566, 0.0, 10.000502, 9.999297 
1.1250304e+3, 1.848389e+2, -1125145.6, -1220713.1, 34442.434, -0.0017122864, -0.07367927, -1114026.4, 14545.311, 0.0, 10.00042, 9.999152 
1.1250215e+3, 1.9483806e+2, -1049990.9, -1132555.0, 32549.734, -0.0060296315, -0.075602345, -1038702.06, -8122.079, 0.0, 10.0002575, 9.999163 
1.1250127e+3, 2.0483725e+2, -972481.4, -1040746.5, 41791.12, -0.010026964, -0.07356439, -952655.3, -20067.533, 0.0, 10.0001, 9.999196 
1.12500414e+3, 2.1483652e+2, -895480.5, -951301.2, 43923.535, -0.0132682435, -0.06921254, -871349.9, -36754.97, 0.0, 9.999949, 9.99921 
1.1249956e+3, 2.2483578e+2, -791359.25, -826743.25, 42994.31, -0.008673355, -0.07181558, -762559.1, -25957.498, 0.0, 9.999889, 9.999422 
1.1249871e+3, 2.3483512e+2, -686755.2, -723798.4, 42542.004, 0.0044270926, -0.08426875, -658877.75, -20269.732, 0.0, 9.9999275, 9.999437 
1.12497866e+3, 2.4483457e+2, -573449.75, -582519.0, 45434.02, 0.01667077, -0.09500664, -532324.6, 8287.158, 0.0, 9.999878, 9.999758 
1.1249701e+3, 2.5483426e+2, -494907.03, -491614.53, 47652.75, 0.027821736, -0.1064895, -445579.6, -2966.93, 0.0, 9.999735, 9.999779 
1.1249615e+3, 2.648337e+2, -421431.88, -421065.7, 44843.316, 0.030289466, -0.13293064, -376405.1, -31788.742, 0.0, 9.999634, 9.999639 
1.1249527e+3, 2.748329e+2, -330129.0, -324786.25, 46641.734, 0.02309287, -0.17691158, -280739.44, -34116.72, 0.0, 9.999581, 9.999652 
1.1249439e+3, 2.8483242e+2, -250084.72, -248131.13, 29990.813, 0.022677876, -0.18210301, -219101.22, -70475.46, 0.0, 9.999513, 9.999537 
1.1249348e+3, 2.9483232e+2, -163421.84, -153962.28, 25567.3, 0.030555747, -0.14969562, -132690.95, -82065.79, 0.0, 9.999428, 9.999553 
1.12492554e+3, 3.0483127e+2, -121211.38, -94112.33, 7223.0825, 0.046040908, -0.21419027, -92307.3, -92307.3, 0.0, 9.999321, 9.99968 
1.12491615e+3, 3.1483114e+2, -130862.1, -86430.836, 7471.2856, 0.06565049, -0.19738615, -85208.16, -85208.16, 0.0, 9.999202, 9.99979 
1.1350876e+3, 1.2485332e+2, -1611282.5, -1723330.4, 4080.8042, -0.003141547, -0.0018534409, -1611134.1, 105302.24, 0.0010656647, 10.000964, 9.999478 
1.1350776e+3, 1.3485248e+2, -1537776.8, -1654302.8, -9690.038, -0.0065911864, -0.01866841, -1536976.4, 81468.625, 0.00053702114, 10.000869, 9.999326 
1.135068e+3, 1.4485201e+2, -1449230.9, -1548431.9, 4695.731, -0.00984076, -0.002067988, -1449009.1, 71439.984, 0.00016162105, 10.00075, 9.999434 
1.1350585e+3, 1.548513e+2, -1372691.0, -1458548.1, 5964.4453, -0.008968915, -0.018571056, -1372278.6, 50175.87, 0.000014669085, 10.000593, 9.9994545 
1.13504894e+3, 1.6485044e+2, -1296759.6, -1386983.4, 19467.639, -0.010171585, -0.041382235, -1292738.4, 31722.67, 0.000000009421829, 10.000509, 9.999313 
1.1350398e+3, 1.7484945e+2, -1198825.5, -1287632.9, 20869.563, -0.012191441, -0.07467111, -1194165.6, 32303.285, 0.0, 10.000503, 9.999326 
1.1350306e+3, 1.8484858e+2, -1129015.9, -1229302.6, 28072.607, -0.0097073475, -0.082960255, -1121692.5, 6784.296, 0.0, 10.000421, 9.999093 
1.13502175e+3, 1.9484784e+2, -1053777.1, -1141134.6, 26158.076, -0.002569796, -0.06620993, -1046543.4, -16059.075, 0.0, 10.000259, 9.999104 
1.13501295e+3, 2.04847e+2, -968510.94, -1033232.1, 35821.652, -0.001947537, -0.06693609, -952597.3, -20104.975, 0.0, 10.000103, 9.999248 
1.1350042e+3, 2.1484606e+2, -891454.25, -943630.8, 38072.184, -0.008228967, -0.08839034, -871389.6, -36888.71, 0.0, 9.999951, 9.999263 
1.1349955e+3, 2.2484535e+2, -791679.44, -828068.25, 44142.492, -0.008077093, -0.09101697, -762128.7, -25621.291, 0.0, 9.999891, 9.999413 
1.13498695e+3, 2.3484494e+2, -686924.5, -724801.06, 44006.977, -0.0014855237, -0.07612594, -657953.75, -19442.184, 0.0, 9.999929, 9.99943 
1.1349784e+3, 2.4484445e+2, -568646.9, -573165.06, 40209.14, 0.008189431, -0.08559451, -530633.44, 9881.512, 0.0, 9.99988, 9.999822 
1.1349698e+3, 2.5484392e+2, -490160.84, -482212.75, 42489.51, 0.021454995, -0.12315648, -443511.84, -994.63776, 0.0, 9.999736, 9.999843 
1.1349612e+3, 2.648434e+2, -417293.3, -412826.63, 43196.12, 0.030298648, -0.1509189, -371806.16, -27285.979, 0.0, 9.999635, 9.999695 
1.1349524e+3, 2.7484292e+2, -325803.6, -316195.13, 45238.145, 0.034276176, -0.17022261, -275506.84, -28983.168, 0.0, 9.999582, 9.999711 
1.1349435e+3, 2.848425e+2, -257239.73, -263322.25, 27243.695, 0.03472114, -0.16887282, -232868.06, -84341.42, 0.0, 9.999514, 9.9994335 
1.1349342e+3, 2.9484215e+2, -170910.97, -169588.1, 22834.063, 0.031693142, -0.14936845, -147405.89, -96876.79, 0.0, 9.999427, 9.999446 
1.134925e+3, 3.0484107e+2, -112592.25, -76331.81, 3285.9873, 0.046039693, -0.2195727, -76036.44, -76036.44, 0.0, 9.999321, 9.999803 
1.1349154e+3, 3.148413e+2, -119520.516, -63314.773, 3519.7043, 0.07684114, -0.17615086, -63095.223, -63095.223, 0.0, 9.999203, 9.999949 
1.1450885e+3, 1.2486294e+2, -1625139.8, -1722937.9, 6943.0967, -0.0057701087, -0.005952651, -1624649.4, 91692.42, 0.0011858052, 10.000839, 9.99954 
1.1450785e+3, 1.3486212e+2, -1555788.0, -1656220.3, -2934.8145, -0.0032859012, -0.026411582, -1555702.3, 62647.902, 0.00060623867, 10.000717, 9.999385 
1.1450686e+3, 1.4486165e+2, -1463215.6, -1551601.6, 11633.143, -0.014395706, -0.014305434, -1461710.1, 58644.043, 0.00018835878, 10.00064, 9.999466 
1.14505894e+3, 1.54861e+2, -1371646.8, -1454582.5, 11117.37, -0.014173567, -0.02795597, -1370182.4, 52176.52, 0.000018936791, 10.0005865, 9.999484 
1.1450494e+3, 1.6486023e+2, -1300714.9, -1385149.0, 24093.594, -0.014443311, -0.046302255, -1294323.5, 30041.309, 0.000000013934886, 10.000467, 9.999346 
1.1450402e+3, 1.7485932e+2, -1228650.0, -1298220.4, 25469.014, -0.014165728, -0.07372141, -1220322.8, 6049.351, 0.0, 10.000282, 9.999358 
1.145031e+3, 1.8485846e+2, -1164363.4, -1247776.8, 34845.37, -0.009479048, -0.07987836, -1151722.6, -23342.82, 0.0, 10.000186, 9.99908 
1.145022e+3, 1.9485772e+2, -1066624.4, -1148702.0, 36065.9, -0.0001276309, -0.0648987, -1053028.6, -22640.977, 0.0, 10.000178, 9.99909 
1.14501305e+3, 2.0485684e+2, -963065.5, -1031460.9, 44197.883, -0.0005355056, -0.067478016, -941380.0, -8984.009, 0.0, 10.000145, 9.999239 
1.1450042e+3, 2.1485586e+2, -872967.3, -935524.6, 41661.156, -0.011283367, -0.09119427, -852149.9, -17745.209, 0.0, 10.000083, 9.999254 
1.1449954e+3, 2.2485515e+2, -780956.94, -821546.25, 47196.227, -0.011933184, -0.094943106, -749876.94, -13465.81, 0.0, 9.999961, 9.999423 
1.1449868e+3, 2.3485476e+2, -708639.94, -733825.75, 48326.176, -0.0024509751, -0.0795593, -671292.9, -32877.766, 0.0, 9.999775, 9.999442 
1.1449782e+3, 2.4485426e+2, -599624.1, -586189.44, 42369.613, 0.008241131, -0.09094675, -550008.0, -9589.544, 0.0, 9.9996605, 9.999838 
1.1449695e+3, 2.548537e+2, -506204.4, -488037.9, 40589.242, 0.020677052, -0.13314736, -455527.97, -13106.996, 0.0, 9.999619, 9.999859 
1.1449608e+3, 2.6485324e+2, -424329.2, -411171.75, 39860.246, 0.030492214, -0.15882733, -377350.97, -32927.59, 0.0, 9.999566, 9.999739 
1.144952e+3, 2.748529e+2, -334603.2, -315310.28, 40596.703, 0.037343387, -0.1688144, -283229.7, -36804.27, 0.0, 9.9995, 9.999755 
1.144943e+3, 2.848525e+2, -268845.13, -268622.56, 25073.838, 0.03696817, -0.16622029, -243659.75, -95231.555, 0.0, 9.9994335, 9.999435 
1.1449336e+3, 2.9485208e+2, -179452.06, -173431.89, 28544.027, 0.029041942, -0.15457326, -147739.67, -97307.81, 0.0, 9.999369, 9.999447 
1.1449242e+3, 3.0485097e+2, -110059.48, -74102.04, 9100.521, 0.042552955, -0.22936879, -71929.984, -71929.984, 0.0, 9.999335, 9.99981 
1.1449147e+3, 3.1485143e+2, -97292.75, -47282.152, -238.82076, 0.077974685, -0.16333751, -47281.01, -47281.01, 0.0, 9.999333, 9.999995 
1.1550892e+3, 1.2487265e+2, -1620593.3, -1712828.4, -1200.161, -0.013656391, -0.014663327, -1620577.6, 95668.46, 0.0013130474, 10.000835, 9.999612 
1.1550792e+3, 1.3487205e+2, -1550935.5, -1645987.5, -7869.533, -0.000099928264, -0.019949503, -1550288.4, 67964.13, 0.0006802244, 10.000715, 9.999456 
1.15506925e+3, 1.4487156e+2, -1462491.0, -1550165.6, 9208.555, -0.017404074, -0.014294574, -1461534.3, 58722.42, 0.00021757523, 10.000639, 9.999476 
1.1550594e+3, 1.5487072e+2, -1371089.4, -1453709.8, 8549.819, -0.02232251, -0.048695456, -1370213.9, 52049.152, 0.000023929451, 10.0005865, 9.999491 
1.1550498e+3, 1.6487e+2, -1298349.6, -1380796.4, 16747.37, -0.020119222, -0.063993245, -1295077.5, 29191.11, 0.000000023716384, 10.000468, 9.999375 
1.15504056e+3, 1.748694e+2, -1225986.0, -1293495.9, 18126.955, -0.008719403, -0.06278955, -1221426.8, 4846.553, 0.0, 10.000285, 9.999391 
1.15503125e+3, 1.8486862e+2, -1162069.3, -1243832.1, 34148.668, -0.001296143, -0.064680666, -1149683.3, -21402.883, 0.0, 10.000188, 9.999105 
1.1550222e+3, 1.9486767e+2, -1064324.8, -1144674.6, 35455.96, 0.0012269825, -0.07168348, -1050916.6, -20626.684, 0.0, 10.00018, 9.999117 
1.1550132e+3, 2.0486678e+2, -967826.8, -1042015.06, 41671.277, -0.0057974756, -0.075065985, -949131.4, -16832.945, 0.0, 10.000147, 9.9991665 
1.15500405e+3, 2.1486592e+2, -877623.7, -945891.1, 39152.7, -0.022490887, -0.07759834, -859814.7, -25508.727, 0.0, 10.000085, 9.999183 
1.15499526e+3, 2.2486517e+2, -778819.44, -817809.3, 40158.04, -0.020328289, -0.083692074, -753674.44, -17361.748, 0.0, 9.999963, 9.999449 
1.15498655e+3, 2.3486453e+2, -706479.56, -729952.94, 41295.395, 0.0014881083, -0.094706796, -675285.4, -36966.895, 0.0, 9.999777, 9.999468 
1.1549779e+3, 2.4486399e+2, -602076.8, -591812.56, 40824.016, 0.016797755, -0.11109611, -555799.4, -15477.027, 0.0, 9.999661, 9.999799 
1.1549691e+3, 2.5486356e+2, -508649.56, -493617.97, 39298.5, 0.02539722, -0.13635074, -461123.0, -18798.914, 0.0, 9.9996195, 9.999821 
1.1549603e+3, 2.6486313e+2, -422449.34, -407702.72, 37737.09, 0.03069198, -0.15664937, -376625.38, -32299.238, 0.0, 9.999566, 9.999763 
1.15495145e+3, 2.7486277e+2, -332831.1, -311815.44, 38529.93, 0.032115094, -0.17298442, -282386.2, -36057.97, 0.0, 9.9995, 9.99978 
1.1549423e+3, 2.848624e+2, -261568.73, -253642.08, 23102.014, 0.029086547, -0.1743918, -234165.89, -85835.234, 0.0, 9.999433, 9.999538 
1.1549328e+3, 2.9486206e+2, -171992.3, -158347.16, 26806.334, 0.021861922, -0.16510643, -137508.8, -87175.13, 0.0, 9.99937, 9.999551 
1.15492344e+3, 3.0486086e+2, -117909.45, -90966.45, 9498.704, 0.034888085, -0.2434384, -87954.43, -87954.43, 0.0, 9.999336, 9.999695 
1.154914e+3, 3.1486145e+2, -102403.28, -58340.87, -52.238216, 0.06889555, -0.15647043, -58340.813, -58340.813, 0.0, 9.999334, 9.99992 
1.1650898e+3, 1.2488256e+2, -1661070.5, -1733015.5, 7237.7705, -0.01646964, -0.019901775, -1660349.6, 55799.035, 0.0014461256, 10.000562, 9.999605 
1.16507985e+3, 1.3488205e+2, -1576732.9, -1659362.8, -1995.3223, 0.0016499336, -0.015706664, -1576684.8, 41469.84, 0.0007584584, 10.000544, 9.999447 
1.1650697e+3, 1.4488158e+2, -1478324.5, -1547622.9, 14177.571, -0.02092121, -0.012914215, -1475536.1, 44622.414, 0.00024917058, 10.000487, 9.999566 
1.16505995e+3, 1.5488073e+2, -1395039.0, -1455139.9, 18987.861, -0.022874856, -0.05455696, -1389542.8, 32621.559, 0.000029664654, 10.00038, 9.999579 
1.1650503e+3, 1.6488004e+2, -1320991.3, -1393319.4, 27920.314, -0.02077302, -0.071306355, -1311467.4, 12702.17, 0.00000004774233, 10.000321, 9.99936 
1.1650408e+3, 1.7487948e+2, -1223454.0, -1294065.0, 25432.76, -0.012785462, -0.065589905, -1215247.4, 10926.893, 0.0, 10.000311, 9.999373 
1.16503134e+3, 1.8487869e+2, -1151799.8, -1239522.3, 39977.04, -0.0062821587, -0.06572324, -1136314.9, -8133.3965, 0.0, 10.000262, 9.999099 
1.1650223e+3, 1.9487773e+2, -1065798.0, -1145989.9, 38550.918, -0.0022428979, -0.07389446, -1050271.5, -20080.459, 0.0, 10.0001745, 9.999111 
1.1650132e+3, 2.048768e+2, -980468.5, -1054295.0, 42923.88, -0.008192174, -0.07709884, -960768.6, -28568.693, 0.0, 10.000088, 9.99911 
1.16500415e+3, 2.1487592e+2, -893834.1, -959847.1, 41323.715, -0.024142312, -0.07829035, -873953.25, -39745.336, 0.0, 10.000001, 9.999126 
1.1649951e+3, 2.248751e+2, -791436.8, -826568.9, 37446.203, -0.02168266, -0.08587664, -767641.2, -31426.01, 0.0, 9.999888, 9.999423 
1.16498634e+3, 2.3487438e+2, -712674.2, -735638.44, 34391.508, 0.00012988149, -0.10122516, -687898.7, -49677.113, 0.0, 9.999747, 9.999443 
1.16497755e+3, 2.4487387e+2, -608350.06, -594075.9, 36428.07, 0.016439999, -0.115112066, -564092.3, -23867.053, 0.0, 9.999617, 9.9998045 
1.16496876e+3, 2.5487354e+2, -525846.6, -501141.9, 37954.934, 0.026793778, -0.1308621, -473579.9, -31353.738, 0.0, 9.999499, 9.9998255 
1.1649598e+3, 2.648731e+2, -439423.06, -408975.78, 40101.94, 0.030881189, -0.15766491, -381305.1, -37076.855, 0.0, 9.999422, 9.999823 
1.1649508e+3, 2.7487254e+2, -345387.63, -310845.5, 43278.246, 0.028069064, -0.1972094, -281519.38, -35288.105, 0.0, 9.999386, 9.999841 
1.16494164e+3, 2.8487223e+2, -276619.72, -261678.36, 24155.89, 0.026289584, -0.19594473, -243864.3, -95631.01, 0.0, 9.999334, 9.99953 
1.16493225e+3, 2.9487216e+2, -187726.03, -166725.94, 19085.453, 0.026115565, -0.15726538, -155442.84, -105208.44, 0.0, 9.999267, 9.999542 
1.1649227e+3, 3.0487096e+2, -125884.24, -91294.16, 6524.142, 0.03839502, -0.23886584, -90104.53, -90104.53, 0.0, 9.999268, 9.999724 
1.1649132e+3, 3.1487143e+2, -95401.82, -45898.47, 7938.716, 0.064659745, -0.16571692, -44656.52, -44656.52, 0.0, 9.999345, 9.999999 
1.17509045e+3, 1.248927e+2, -1667356.3, -1745997.5, 2470.5981, -0.0141980015, -0.021547852, -1667278.6, 48770.145, 0.0015842223, 10.00056, 9.999517 
1.1750805e+3, 1.3489214e+2, -1583127.0, -1672775.1, -3129.665, 0.0016613998, -0.013965194, -1583017.9, 35038.117, 0.0008407167, 10.000543, 9.999355 
1.1750702e+3, 1.448917e+2, -1467040.5, -1524529.3, 9735.453, -0.02530074, -0.010628363, -1465436.6, 54623.027, 0.0002831922, 10.000487, 9.999724 
1.1750603e+3, 1.548911e+2, -1383042.3, -1430832.0, 14343.291, -0.016072644, -0.045683384, -1379067.9, 42994.547, 0.000036181405, 10.0003805, 9.999746 
1.17505066e+3, 1.6489038e+2, -1325289.9, -1402981.4, 27002.191, -0.016545074, -0.0682964, -1316827.0, 7240.364, 0.00000010132158, 10.000323, 9.999293 
1.1750409e+3, 1.7488955e+2, -1227906.6, -1304077.8, 24590.73, -0.026314806, -0.081972785, -1220657.6, 5417.1094, 0.0, 10.000314, 9.999305 
1.1750315e+3, 1.8488872e+2, -1154557.3, -1246005.9, 36264.77, -0.024351686, -0.08272864, -1141921.9, -13839.187, 0.0, 10.000264, 9.999054 
1.1750225e+3, 1.9488789e+2, -1068368.5, -1152162.4, 34930.496, -0.0105736805, -0.071528874, -1055717.4, -25626.355, 0.0, 10.000176, 9.999068 
1.1750133e+3, 2.0488693e+2, -983248.3, -1060863.0, 39447.33, -0.007833029, -0.07377117, -966719.4, -34619.176, 0.0, 10.00009, 9.999064 
1.1750042e+3, 2.1488582e+2, -896579.6, -966289.44, 37890.164, -0.016332515, -0.09329419, -879951.2, -45840.836, 0.0, 10.000003, 9.999083 
1.17499515e+3, 2.2488494e+2, -796767.2, -838339.3, 32026.832, -0.016085373, -0.10141554, -779372.4, -43253.863, 0.0, 9.99989, 9.999342 
1.174986e+3, 2.3488432e+2, -718046.2, -747456.9, 29052.752, -0.006653994, -0.099064276, -700189.1, -62064.824, 0.0, 9.999749, 9.999361 
1.17497705e+3, 2.4488388e+2, -605002.2, -587748.44, 32022.12, 0.0069788713, -0.10296144, -563211.5, -23084.207, 0.0, 9.999618, 9.999847 
1.1749681e+3, 2.5488362e+2, -522370.9, -494377.4, 33780.855, 0.024807831, -0.11662545, -471808.4, -29681.174, 0.0, 9.9995, 9.999872 
1.17495924e+3, 2.6488307e+2, -433045.9, -396089.28, 39115.355, 0.030982606, -0.16194142, -371307.22, -27177.46, 0.0, 9.999422, 9.999912 
1.1749502e+3, 2.7488217e+2, -338974.47, -297882.56, 42465.082, 0.024744663, -0.2417703, -271254.2, -25119.346, 0.0, 9.999386, 9.99993 
1.1749411e+3, 2.8488195e+2, -285490.1, -280382.13, 21985.719, 0.028213441, -0.23101878, -260802.55, -112666.18, 0.0, 9.999334, 9.999402 
1.1749317e+3, 2.948824e+2, -196863.78, -185679.83, 16821.584, 0.042319074, -0.13087554, -173545.11, -123410.72, 0.0, 9.999265, 9.999413 
1.17492214e+3, 3.0488116e+2, -113614.836, -65805.39, 9935.289, 0.05352919, -0.21551238, -63822.94, -63822.94, 0.0, 9.999267, 9.999901 
1.1749126e+3, 3.1488135e+2, -78732.12, -11794.524, 11290.762, 0.06427907, -0.18903367, -9941.351, -9941.351, 0.0, 9.999346, 10.000234 
1.1850909e+3, 1.2490296e+2, -1674872.5, -1742818.1, 3022.76, -0.02167073, -0.015411317, -1674738.3, 41210.035, 0.0017273793, 10.00048, 9.999577 
1.1850809e+3, 1.3490233e+2, -1594441.6, -1671553.3, 11914.807, 0.0023245062, -0.020648096, -1592642.6, 25313.281, 0.0009271282, 10.000438, 9.999414 
1.1850706e+3, 1.4490186e+2, -1477034.5, -1528428.5, 23341.291, -0.027188284, -0.023023665, -1468016.3, 51943.32, 0.00031980837, 10.000416, 9.999732 
1.1850608e+3, 1.5490139e+2, -1381239.9, -1428927.9, 15794.68, -0.015297608, -0.046524458, -1376483.0, 45478.133, 0.0000435681, 10.00039, 9.999755 
1.1850509e+3, 1.6490066e+2, -1324082.0, -1406206.1, 24697.732, -0.015670814, -0.067527175, -1317226.8, 6739.3228, 0.00000019883093, 10.000349, 9.999259 
1.18504114e+3, 1.7489971e+2, -1232609.8, -1310034.4, 24615.139, -0.02842448, -0.09020616, -1225446.6, 528.03796, 0.0, 10.0002985, 9.99927 
1.18503176e+3, 1.8489884e+2, -1161564.9, -1255957.5, 35322.883, -0.027906919, -0.090980835, -1149810.4, -21827.121, 0.0, 10.000245, 9.998994 
1.1850226e+3, 1.9489805e+2, -1071113.3, -1159894.9, 32414.59, -0.01371515, -0.070603475, -1060538.1, -30546.76, 0.0, 10.000186, 9.999009 
1.1850134e+3, 2.0489705e+2, -981952.7, -1061606.3, 36590.484, -0.009606521, -0.07196602, -967695.9, -35694.97, 0.0, 10.000106, 9.999051 
1.1850041e+3, 2.1489586e+2, -897427.6, -967894.6, 37244.977, -0.015848571, -0.09895335, -881391.4, -47379.582, 0.0, 10.000004, 9.99907 
1.184995e+3, 2.2489496e+2, -795751.0, -840516.7, 33764.316, -0.016631924, -0.10731435, -777624.3, -41604.324, 0.0, 9.99991, 9.999317 
1.1849857e+3, 2.348944e+2, -708591.2, -745545.1, 34705.0, -0.011806876, -0.09810046, -687751.06, -49725.652, 0.0, 9.999826, 9.999336 
1.1849767e+3, 2.4489391e+2, -594589.8, -590267.3, 35102.676, 0.00053962495, -0.1012133, -557259.44, -17230.65, 0.0, 9.999723, 9.999779 
1.1849677e+3, 2.548935e+2, -512688.78, -497255.97, 27810.293, 0.020708585, -0.12029747, -476111.4, -34081.395, 0.0, 9.999601, 9.999804 
1.1849586e+3, 2.6489288e+2, -422679.06, -387825.25, 27652.549, 0.029112091, -0.16951789, -372566.38, -28533.328, 0.0, 9.999481, 9.99994 
1.1849496e+3, 2.7489203e+2, -340571.44, -295290.84, 26083.24, 0.02501391, -0.25165248, -283392.5, -37354.72, 0.0, 9.999362, 9.999959 
1.18494034e+3, 2.848918e+2, -290777.44, -283972.0, 9211.338, 0.030599657, -0.23830394, -277554.97, -129516.04, 0.0, 9.999305, 9.999392 
1.184931e+3, 2.948923e+2, -190830.64, -183835.31, 12917.361, 0.046753477, -0.13087207, -173950.45, -123913.87, 0.0, 9.999312, 9.999402 
1.1849215e+3, 3.0489102e+2, -114504.125, -69305.58, 3485.734, 0.05581153, -0.22095367, -69038.336, -69038.336, 0.0, 9.999275, 9.999872 
1.1849119e+3, 3.1489122e+2, -100296.375, -18166.5, -11438.374, 0.061916493, -0.19188249, -16603.213, -16603.213, 0.0, 9.999182, 10.000268 
1.19509116e+3, 1.24913365e+2, -1661423.6, -1714457.4, -3125.4739, -0.038926654, -0.002704202, -1661240.0, 54606.766, 0.0018763061, 10.000477, 9.999774 
1.1950813e+3, 1.3491265e+2, -1580468.4, -1642759.6, 9842.269, 0.0037312426, -0.03519303, -1578950.3, 38903.38, 0.0010180003, 10.000437, 9.999613 
1.19507104e+3, 1.449121e+2, -1487067.3, -1549683.5, 21862.203, -0.026539786, -0.049197238, -1480189.5, 39668.305, 0.00035919753, 10.000417, 9.999586 
1.19506106e+3, 1.5491164e+2, -1391647.0, -1451032.6, 14071.28, -0.020601867, -0.056990243, -1388481.5, 33378.67, 0.00005194898, 10.000391, 9.999603 
1.1950513e+3, 1.6491093e+2, -1324266.3, -1407308.6, 22234.227, -0.018211374, -0.06912001, -1318687.9, 5177.617, 0.00000035173326, 10.00035, 9.99925 
1.1950416e+3, 1.7491e+2, -1232362.0, -1310401.5, 22304.434, -0.019348493, -0.0904263, -1226437.0, -563.26917, 0.0, 10.0003, 9.999268 
1.1950321e+3, 1.8490906e+2, -1166731.4, -1267536.0, 32745.453, -0.017262891, -0.09068592, -1157028.4, -29145.621, 0.0, 10.000248, 9.998915 
1.1950228e+3, 1.9490819e+2, -1076244.3, -1171369.6, 29842.209, -0.0117878225, -0.07113653, -1067657.5, -37765.37, 0.0, 10.000189, 9.99893 
1.19501345e+3, 2.0490718e+2, -980403.3, -1059193.3, 32528.014, -0.013534087, -0.071591884, -968709.75, -36807.863, 0.0, 10.000108, 9.999067 
1.1950041e+3, 2.1490602e+2, -895775.75, -965307.75, 33267.42, -0.022746434, -0.09531131, -882423.2, -48511.246, 0.0, 10.000006, 9.999087 
1.19499475e+3, 2.2490515e+2, -793575.2, -836814.8, 30493.602, -0.023414504, -0.10367175, -777814.9, -41895.188, 0.0, 9.999912, 9.999342 
1.1949855e+3, 2.3490457e+2, -706339.5, -741642.3, 31553.94, -0.015389317, -0.09832536, -687835.4, -49910.652, 0.0, 9.999828, 9.999363 
1.19497634e+3, 2.4490392e+2, -607337.8, -617485.25, 30614.666, -0.0029448238, -0.10992425, -581379.25, -41449.504, 0.0, 9.999725, 9.999592 
1.1949672e+3, 2.5490323e+2, -525677.7, -524878.06, 23467.586, 0.014182216, -0.14214323, -501806.9, -59872.273, 0.0, 9.999602, 9.999614 
1.1949582e+3, 2.6490256e+2, -425394.8, -394021.75, 23512.924, 0.024950389, -0.1804206, -381443.03, -37504.785, 0.0, 9.999482, 9.999897 
1.194949e+3, 2.7490205e+2, -343210.06, -301124.94, 21927.365, 0.029083079, -0.22634314, -291776.75, -45836.42, 0.0, 9.999362, 9.999919 
1.1949397e+3, 2.8490183e+2, -283296.47, -268757.0, 9887.374, 0.033456683, -0.21752556, -263754.44, -115813.164, 0.0, 9.999305, 9.999496 
1.19493015e+3, 2.9490194e+2, -183387.67, -168802.77, 13803.563, 0.03813023, -0.15776394, -160483.73, -110542.375, 0.0, 9.999313, 9.999505 
1.1949207e+3, 3.0490053e+2, -131756.1, -105374.086, 395.46872, 0.04394561, -0.25563097, -105368.16, -105368.16, 0.0, 9.999274, 9.999625 
1.19491085e+3, 3.14901e+2, -113105.195, -44481.234, -14884.965, 0.057678446, -0.1712823, -41391.688, -41391.688, 0.0, 9.999179, 10.00009 
1.20509155e+3, 1.2492363e+2, -1684856.4, -1715864.6, 256.83688, -0.037678577, -0.009881033, -1684854.3, 30892.006, 0.002031728, 10.000275, 9.999861 
1.2050818e+3, 1.3492312e+2, -1590049.0, -1637100.6, 9127.906, 0.004716708, -0.031115035, -1588340.3, 29410.438, 0.001113559, 10.000328, 9.999703 
1.2050713e+3, 1.4492252e+2, -1500719.0, -1561998.9, 18999.115, -0.031326387, -0.0501481, -1495306.6, 24448.5, 0.0004014388, 10.000349, 9.999534 
1.2050614e+3, 1.549219e+2, -1405435.9, -1463556.6, 17850.418, -0.02446774, -0.067732796, -1400391.4, 21367.783, 0.000061428385, 10.000322, 9.999549 
1.2050516e+3, 1.649212e+2, -1330195.3, -1410311.9, 29836.398, -0.01925877, -0.07991863, -1320304.8, 3459.9197, 0.00000057087306, 10.000312, 9.9992485 
1.20504186e+3, 1.7492034e+2, -1231031.0, -1309936.4, 29772.19, -0.015578171, -0.09153896, -1221058.0, 4713.943, 0.0, 10.000312, 9.999265 
1.2050323e+3, 1.8491939e+2, -1168331.1, -1275759.4, 38707.21, -0.013656784, -0.089993976, -1155837.6, -28056.568, 0.0, 10.00027, 9.998847 
1.2050229e+3, 1.949184e+2, -1081343.3, -1181329.1, 36332.52, -0.013504271, -0.0769312, -1069535.3, -39743.457, 0.0, 10.000187, 9.998862 
1.20501354e+3, 2.049173e+2, -981615.0, -1063023.3, 37086.434, -0.01786385, -0.07938752, -967253.44, -35451.16, 0.0, 10.000114, 9.999037 
1.205004e+3, 2.1491615e+2, -891321.5, -966466.44, 33920.563, -0.026894428, -0.100348026, -878274.9, -44462.586, 0.0, 10.000052, 9.999057 
1.2049948e+3, 2.2491524e+2, -787832.4, -838830.44, 26198.262, -0.025315126, -0.10817805, -776772.56, -40952.39, 0.0, 9.999974, 9.999298 
1.2049854e+3, 2.349146e+2, -702137.06, -744220.1, 21714.363, -0.0128625855, -0.1046897, -692941.9, -55116.137, 0.0, 9.999879, 9.99932 
1.2049761e+3, 2.4491386e+2, -603147.4, -623587.3, 21685.598, -0.0012433146, -0.119279385, -589394.2, -49562.555, 0.0, 9.99979, 9.999517 
1.2049668e+3, 2.5491303e+2, -515073.75, -527797.3, 23006.592, 0.009564231, -0.15565066, -497565.56, -55727.76, 0.0, 9.999711, 9.99954 
1.2049575e+3, 2.6491243e+2, -410477.56, -392919.22, 26026.729, 0.018443944, -0.18652548, -374230.88, -30389.18, 0.0, 9.999612, 9.999842 
1.20494835e+3, 2.7491203e+2, -327886.53, -299545.13, 23064.463, 0.025410973, -0.21303463, -286645.97, -40802.977, 0.0, 9.999494, 9.9998665 
1.204939e+3, 2.849118e+2, -271185.94, -257276.86, 10015.59, 0.032141298, -0.20259486, -252038.06, -104194.31, 0.0, 9.999365, 9.999545 
1.2049294e+3, 2.949118e+2, -193280.72, -167687.75, 9659.637, 0.038436413, -0.1603766, -164451.19, -114606.91, 0.0, 9.999221, 9.999557 
1.2049198e+3, 3.049102e+2, -152291.0, -131676.52, 724.27075, 0.043095894, -0.26768318, -131651.11, -131651.11, 0.0, 9.999206, 9.999477 
1.2049101e+3, 3.1491077e+2, -97954.63, -45118.688, -7271.733, 0.05497698, -0.16516574, -44136.16, -44136.16, 0.0, 9.999319, 10.000017 
1.215092e+3, 1.2493382e+2, -1686846.1, -1719854.6, -2698.9119, -0.018464113, -0.035184212, -1686626.9, 29019.348, 0.0021936102, 10.000273, 9.999835 
1.215082e+3, 1.3493375e+2, -1591614.8, -1640517.1, 10403.5625, 0.0049185473, -0.009246761, -1589493.5, 28153.24, 0.0012136708, 10.000328, 9.9996805 
1.2150715e+3, 1.449332e+2, -1497960.6, -1556705.6, 17440.594, -0.04169615, -0.027105382, -1493173.0, 26477.951, 0.00044641417, 10.000349, 9.999571 
1.2150616e+3, 1.5493226e+2, -1402327.3, -1457816.3, 16243.437, -0.02696044, -0.07875664, -1397922.0, 23735.459, 0.00007201624, 10.000324, 9.999589 
1.21505186e+3, 1.6493148e+2, -1330124.1, -1410939.5, 29244.518, -0.018889472, -0.09959736, -1320651.8, 3011.7705, 0.0000008702971, 10.000314, 9.999244 
1.21504225e+3, 1.7493078e+2, -1230923.3, -1310577.5, 29261.816, -0.01709523, -0.09351677, -1221329.3, 4339.796, 0.0, 10.000314, 9.99926 
1.21503256e+3, 1.8492986e+2, -1172164.6, -1284657.3, 35154.11, -0.017032223, -0.0889432, -1162082.5, -34404.445, 0.0, 10.000273, 9.998785 
1.2150231e+3, 1.9492866e+2, -1085023.9, -1189945.1, 32917.52, -0.01894255, -0.08803805, -1075551.6, -45861.168, 0.0, 10.00019, 9.998802 
1.2150136e+3, 2.0492746e+2, -986993.3, -1075101.3, 34443.277, -0.022738377, -0.095396705, -975126.9, -43424.895, 0.0, 10.000117, 9.998953 
1.2150042e+3, 2.1492624e+2, -896651.3, -978365.3, 31385.723, -0.028410373, -0.113999695, -885987.9, -52275.285, 0.0, 10.000054, 9.998975 
1.2149948e+3, 2.2492525e+2, -795740.3, -856047.3, 22552.309, -0.022388687, -0.12080692, -788239.56, -52518.11, 0.0, 9.999976, 9.999179 
1.2149853e+3, 2.3492448e+2, -710080.94, -761449.06, 18170.732, -0.004240241, -0.11730572, -704303.1, -66574.82, 0.0, 9.999881, 9.999202 
1.21497594e+3, 2.4492373e+2, -600112.75, -618031.2, 18778.615, 0.0055913054, -0.12933919, -588265.6, -48531.2, 0.0, 9.999792, 9.999556 
1.21496655e+3, 2.54923e+2, -511915.53, -521971.2, 20317.066, 0.006863702, -0.16074173, -496013.44, -54273.855, 0.0, 9.999713, 9.99958 
1.21495716e+3, 2.6492238e+2, -415333.84, -403688.7, 22087.477, 0.009491929, -0.18783888, -386669.22, -42925.695, 0.0, 9.999614, 9.999767 
1.2149478e+3, 2.7492192e+2, -332915.72, -310585.88, 19190.418, 0.013282375, -0.21184602, -299548.8, -53802.867, 0.0, 9.9994955, 9.99979 
1.21493824e+3, 2.849218e+2, -271848.63, -259001.4, 5108.535, 0.025991244, -0.19350496, -257217.7, -109471.125, 0.0, 9.999365, 9.999534 
1.21492885e+3, 2.9492188e+2, -193926.02, -169127.28, 4662.1714, 0.04818849, -0.13855207, -168279.77, -118534.09, 0.0, 9.999221, 9.999547 
1.2149192e+3, 3.0492017e+2, -155776.22, -138946.16, 5606.756, 0.053819954, -0.25700215, -137249.39, -137249.39, 0.0, 9.999205, 9.999428 
1.2149094e+3, 3.1492049e+2, -95598.39, -40436.066, -2310.7898, 0.052894983, -0.1716372, -40339.434, -40339.434, 0.0, 9.999318, 10.00005 
1.22509226e+3, 1.249442e+2, -1718646.6, -1733973.3, -4809.312, -0.0069924486, -0.03392856, -1717262.5, -1718.1808, 0.0023606704, 10.00005, 9.999845 
1.2250824e+3, 1.3494422e+2, -1610580.6, -1647595.8, 15315.071, 0.006565764, -0.0033399388, -1605065.6, 12478.658, 0.0013175874, 10.00019, 9.999698 
1.2250718e+3, 1.4494361e+2, -1508696.8, -1560152.1, 18689.545, -0.04678041, -0.02631832, -1502624.9, 16924.082, 0.0004937232, 10.00027, 9.999585 
1.225062e+3, 1.5494268e+2, -1409801.9, -1459664.9, 15049.479, -0.026053363, -0.08100933, -1405611.8, 15943.909, 0.000083587045, 10.000267, 9.999603 
1.22505225e+3, 1.6494189e+2, -1332815.5, -1411086.1, 28959.514, -0.017587772, -0.10062899, -1323265.9, 295.42923, 0.0000012652538, 10.000291, 9.999253 
1.2250425e+3, 1.7494129e+2, -1225425.0, -1306531.6, 29867.13, -0.021252373, -0.08910467, -1215613.5, 9952.406, 0.0, 10.000347, 9.99927 
1.2250328e+3, 1.8494028e+2, -1164116.6, -1289993.9, 32362.182, -0.02326502, -0.087550156, -1156284.0, -28708.543, 0.0, 10.000369, 9.998701 
1.22502334e+3, 1.9493888e+2, -1067115.6, -1190513.9, 28122.693, -0.023757726, -0.098127656, -1061008.6, -31418.94, 0.0, 10.000354, 9.998719 
1.2250138e+3, 2.0493759e+2, -965799.4, -1073971.8, 27517.814, -0.025809042, -0.105485946, -959201.56, -27599.396, 0.0, 10.000303, 9.998871 
1.2250043e+3, 2.1493642e+2, -878839.9, -978745.75, 24264.53, -0.02935734, -0.11257691, -873258.44, -39645.793, 0.0, 10.0002165, 9.998894 
1.2249947e+3, 2.2493537e+2, -781367.25, -853606.5, 16113.583, -0.0222328, -0.11911531, -777935.94, -42313.87, 0.0, 10.000095, 9.999138 
1.2249852e+3, 2.3493445e+2, -704576.4, -763168.56, 17241.082, -0.00410257, -0.1265735, -699879.56, -62249.402, 0.0, 9.999938, 9.999162 
1.2249757e+3, 2.4493365e+2, -600536.7, -620414.6, 19390.525, 0.004740821, -0.13888605, -588686.3, -49049.797, 0.0, 9.9998, 9.999535 
1.2249662e+3, 2.54933e+2, -517590.56, -526678.44, 16157.292, 0.004032801, -0.15990648, -505350.44, -63709.41, 0.0, 9.999683, 9.999561 
1.22495666e+3, 2.649324e+2, -425018.22, -412625.94, 15903.639, 0.0059844307, -0.18479863, -401754.03, -58108.85, 0.0, 9.999567, 9.999728 
1.2249471e+3, 2.7493185e+2, -342728.78, -319584.38, 15417.277, 0.010338985, -0.21486439, -311879.44, -66230.68, 0.0, 9.999448, 9.999751 
1.2249376e+3, 2.8493166e+2, -274523.22, -261926.16, 2980.4963, 0.022719251, -0.19679415, -261256.55, -113606.836, 0.0, 9.999354, 9.999517 
1.224928e+3, 2.949318e+2, -185100.19, -166575.28, 1905.3029, 0.043818157, -0.13654892, -166381.34, -116733.04, 0.0, 9.9992895, 9.999531 
1.2249184e+3, 3.0493006e+2, -150294.95, -134863.58, 9931.8545, 0.051985845, -0.2574404, -130002.555, -130002.555, 0.0, 9.999237, 9.99944 
1.2249088e+3, 3.149304e+2, -107360.99, -34919.11, 6316.525, 0.059906226, -0.16824399, -34372.47, -34372.47, 0.0, 9.99919, 10.000149 
1.2350924e+3, 1.2495484e+2, -1715784.0, -1728188.5, -4902.5337, -0.0031485495, -0.007762718, -1714080.4, 1359.9888, 0.0025307094, 10.00005, 9.999886 
1.2350825e+3, 1.3495453e+2, -1606680.6, -1639920.4, 19852.906, 0.009598919, -0.0128751015, -1597409.3, 20033.72, 0.0014240493, 10.00019, 9.999751 
1.2350722e+3, 1.4495385e+2, -1509543.1, -1562399.9, 17990.656, -0.04665824, -0.0468294, -1504000.9, 15447.65, 0.00054276333, 10.00027, 9.99957 
1.23506226e+3, 1.5495315e+2, -1410625.1, -1462094.4, 14146.711, -0.021917546, -0.07462082, -1406993.1, 14460.166, 0.00009593835, 10.000268, 9.999586 
1.2350525e+3, 1.6495249e+2, -1330893.9, -1408025.8, 30349.71, -0.015506862, -0.08353551, -1320384.0, 3073.817, 0.0000017602412, 10.000294, 9.999273 
1.2350427e+3, 1.7495182e+2, -1223319.9, -1303114.1, 31445.84, -0.028177826, -0.078508355, -1212417.3, 13045.116, 0.0, 10.00035, 9.999293 
1.23503305e+3, 1.849507e+2, -1171484.4, -1306143.3, 31354.764, -0.032467388, -0.08583402, -1164541.5, -37068.555, 0.0, 10.000372, 9.99859 
1.2350236e+3, 1.9494909e+2, -1074398.9, -1206476.9, 27219.037, -0.02800452, -0.1071614, -1069009.4, -39520.0, 0.0, 10.000357, 9.998609 
1.23501405e+3, 2.0494775e+2, -971496.75, -1086649.8, 24027.113, -0.02711549, -0.10964128, -966684.5, -35181.832, 0.0, 10.000306, 9.998783 
1.2350044e+3, 2.1494669e+2, -884449.25, -991255.8, 20874.48, -0.029790092, -0.096185155, -880514.5, -47002.098, 0.0, 10.000219, 9.998807 
1.2349949e+3, 2.249456e+2, -778683.2, -848858.5, 10123.59, -0.024967143, -0.103174455, -777251.94, -41729.97, 0.0, 10.000097, 9.99917 
1.23498514e+3, 2.3494451e+2, -702003.06, -758568.3, 11367.309, -0.012644085, -0.1324185, -699804.2, -62272.94, 0.0, 9.99994, 9.999193 
1.23497546e+3, 2.4494366e+2, -605950.6, -632396.2, 15160.177, -0.0039780727, -0.14784652, -599056.9, -59518.887, 0.0, 9.999802, 9.999453 
1.23496585e+3, 2.5494307e+2, -523219.1, -538918.5, 12107.085, 0.0008824395, -0.15301351, -516639.7, -75097.48, 0.0, 9.999685, 9.999477 
1.23495616e+3, 2.6494244e+2, -425421.44, -413870.2, 11918.324, 0.0077948803, -0.17734218, -406401.78, -62854.94, 0.0, 9.999567, 9.99972 
1.2349466e+3, 2.749417e+2, -342918.06, -320477.38, 11529.323, 0.016857577, -0.22249041, -315609.8, -70058.164, 0.0, 9.999448, 9.999745 
1.234937e+3, 2.8494143e+2, -276159.47, -265725.66, 1068.6407, 0.022346728, -0.21304059, -265617.3, -118063.87, 0.0, 9.999355, 9.999492 
1.2349271e+3, 2.949415e+2, -187039.02, -170815.22, 97.53757, 0.024183072, -0.15468234, -170814.63, -121262.1, 0.0, 9.999289, 9.999503 
1.23491734e+3, 3.0493987e+2, -145722.23, -125288.79, 8873.842, 0.036513988, -0.26907733, -121973.086, -121973.086, 0.0, 9.999235, 9.999507 
1.2349081e+3, 3.1494057e+2, -96397.22, -11882.698, 5281.32, 0.0762045, -0.1530654, -11553.947, -11553.947, 0.0, 9.999188, 10.000309 
1.2450924e+3, 1.2496509e+2, -1726754.3, -1729424.9, -10037.214, -0.0012327447, -0.009435422, -1717963.9, -2624.1675, 0.002701762, 9.999958, 9.99992 
1.2450826e+3, 1.349648e+2, -1627604.8, -1644545.3, 18564.164, 0.010051677, -0.017045572, -1615669.8, 1672.4286, 0.0015319061, 10.000024, 9.999799 
1.24507226e+3, 1.4496414e+2, -1531440.8, -1574700.0, 14536.721, -0.048882652, -0.05072878, -1527009.8, -7661.9497, 0.00059303787, 10.000129, 9.999553 
1.2450625e+3, 1.5496358e+2, -1413637.6, -1465092.5, 10168.687, -0.02219977, -0.06325078, -1411700.9, 9650.64, 0.00010892868, 10.000256, 9.999571 
1.2450529e+3, 1.649629e+2, -1324895.9, -1405960.5, 24515.678, -0.014612148, -0.07232057, -1318058.5, 5297.752, 0.0000023447426, 10.00034, 9.999265 
1.24504305e+3, 1.7496209e+2, -1219667.4, -1302051.9, 23092.117, -0.026812647, -0.08307383, -1213636.3, 11725.719, 0.0, 10.000379, 9.999286 
1.24503344e+3, 1.8496087e+2, -1174653.6, -1310702.0, 21278.252, -0.031182434, -0.09434542, -1171403.4, -44030.434, 0.0, 10.000364, 9.998562 
1.2450239e+3, 1.9495934e+2, -1085562.8, -1214775.9, 22939.996, -0.027423736, -0.107562676, -1081610.9, -52222.027, 0.0, 10.000294, 9.998581 
1.2450143e+3, 2.0495798e+2, -985374.6, -1098449.1, 23129.098, -0.027223915, -0.10730705, -980826.56, -49424.37, 0.0, 10.000234, 9.998736 
1.2450046e+3, 2.1495685e+2, -892851.25, -1000292.56, 22623.73, -0.030540736, -0.09645494, -888281.75, -54868.914, 0.0, 10.000184, 9.998761 
1.24499485e+3, 2.2495571e+2, -774842.0, -846958.1, 10191.061, -0.027418924, -0.10609442, -773429.5, -38006.652, 0.0, 10.000125, 9.999169 
1.2449851e+3, 2.3495458e+2, -685207.8, -750348.75, 8650.61, -0.017943392, -0.13819252, -684078.56, -46646.504, 0.0, 10.000056, 9.999193 
1.2449753e+3, 2.4495374e+2, -582339.94, -625988.1, 13090.901, -0.009274337, -0.15163733, -578714.8, -39275.99, 0.0, 9.999987, 9.999407 
1.2449656e+3, 2.5495318e+2, -492722.2, -529166.0, 12550.959, -0.0015142092, -0.1498001, -488817.97, -47375.02, 0.0, 9.999917, 9.999433 
1.2449558e+3, 2.6495248e+2, -401456.72, -408913.3, 8359.324, 0.006478496, -0.1745491, -396031.94, -52583.656, 0.0, 9.999761, 9.99966 
1.2449462e+3, 2.7495164e+2, -336858.22, -324071.78, 3756.559, 0.014882246, -0.22759134, -323049.8, -77595.27, 0.0, 9.999519, 9.999686 
1.2449363e+3, 2.849513e+2, -271947.13, -260823.47, -2472.5295, 0.017843487, -0.22146615, -260298.64, -112841.984, 0.0, 9.9993725, 9.9995165 
1.2449263e+3, 2.949514e+2, -180752.63, -164938.89, 158.07297, 0.015060019, -0.16208534, -164937.3, -115482.35, 0.0, 9.999321, 9.999527 
1.2449165e+3, 3.049497e+2, -147650.77, -130855.766, 6121.86, 0.028392702, -0.28087312, -128861.19, -128861.19, 0.0, 9.999244, 9.999464 
1.2449074e+3, 3.1495035e+2, -100196.0, -7566.5176, -5919.686, 0.07783729, -0.16665196, -7189.74, -7189.74, 0.0, 9.999137, 10.000362 
1.2550925e+3, 1.24975026e+2, -1725328.9, -1726734.0, -12979.006, -0.0010578404, -0.0375367, -1713033.4, 2208.4236, 0.002872962, 9.999958, 9.999939 
1.2550826e+3, 1.3497506e+2, -1624940.4, -1639748.8, 20208.652, 0.0078929495, -0.016020296, -1610822.3, 6419.26, 0.001640651, 10.000026, 9.999831 
1.2550724e+3, 1.4497451e+2, -1532409.1, -1577548.6, 18582.145, -0.053564746, -0.038676832, -1525743.9, -6497.61, 0.0006444068, 10.000131, 9.999533 
1.2550628e+3, 1.5497398e+2, -1414556.1, -1467869.0, 14248.949, -0.026919793, -0.047164876, -1410986.8, 10263.404, 0.00012257921, 10.000258, 9.999552 
1.2550531e+3, 1.6497315e+2, -1327464.4, -1412102.1, 25366.225, -0.014916396, -0.06691046, -1320444.3, 2811.9634, 0.0000030126384, 10.000342, 9.999222 
1.2550436e+3, 1.7497204e+2, -1222164.1, -1308057.9, 24062.436, -0.017294295, -0.10252899, -1215882.6, 9381.984, 0.0, 10.000381, 9.999245 
1.2550339e+3, 1.8497086e+2, -1170912.5, -1303775.6, 18196.85, -0.01962425, -0.11289453, -1168465.4, -41190.117, 0.0, 10.000366, 9.998609 
1.2550242e+3, 1.9496964e+2, -1081652.8, -1207542.1, 19972.373, -0.022192331, -0.09944322, -1078560.1, -49272.29, 0.0, 10.000296, 9.998631 
1.2550145e+3, 2.049683e+2, -985815.06, -1100206.4, 21039.549, -0.02628116, -0.09863536, -982068.06, -50767.34, 0.0, 10.0002365, 9.998723 
1.2550047e+3, 2.1496691e+2, -893269.44, -1001994.0, 20636.914, -0.031754524, -0.113357, -889484.1, -56170.2, 0.0, 10.000187, 9.998749 
1.254995e+3, 2.2496568e+2, -777064.75, -852419.44, 7560.762, -0.029712996, -0.1278151, -776313.6, -40988.945, 0.0, 10.000127, 9.999131 
1.254985e+3, 2.3496467e+2, -687385.5, -755686.75, 6125.8667, -0.020022558, -0.14389056, -686840.44, -49507.684, 0.0, 10.000058, 9.999156 
1.2549752e+3, 2.4496388e+2, -582786.8, -627735.8, 10664.062, -0.011185852, -0.15028793, -580385.1, -41046.082, 0.0, 9.999989, 9.999394 
1.2549655e+3, 2.549633e+2, -493073.66, -530726.3, 10297.581, -0.003237653, -0.15044568, -490441.4, -49097.977, 0.0, 9.999919, 9.999421 
1.2549555e+3, 2.6496252e+2, -409278.7, -425874.1, -265.55862, 0.0018550882, -0.17657794, -409274.44, -65924.69, 0.0, 9.999763, 9.999543 
1.2549455e+3, 2.7496156e+2, -344921.7, -341216.84, -4791.0444, 0.0039039636, -0.230004, -337932.56, -92574.92, 0.0, 9.999519, 9.999569 
1.2549356e+3, 2.8496122e+2, -266967.28, -250697.75, -3774.8918, 0.008835022, -0.22181608, -249864.56, -102504.96, 0.0, 9.9993725, 9.999587 
1.2549257e+3, 2.9496142e+2, -175562.83, -154543.33, -1081.2966, 0.016881425, -0.1587466, -154487.84, -105131.98, 0.0, 9.999321, 9.999599 
1.2549157e+3, 3.0495954e+2, -158674.9, -153920.44, 2715.321, 0.027827894, -0.29324755, -152688.77, -152688.77, 0.0, 9.999243, 9.999307 
1.2549062e+3, 3.149597e+2, -104515.516, -16207.706, -9172.614, 0.06334473, -0.20811382, -15265.002, -15265.002, 0.0, 9.999134, 10.000305 
1.2650922e+3, 1.2498506e+2, -1748639.5, -1736927.9, -19308.084, -0.0061435327, -0.04036813, -1722607.1, -7463.626, 0.0030443578, 9.999795, 9.999948 
1.2650827e+3, 1.349851e+2, -1617660.4, -1632998.9, 17729.209, 0.0056260405, -0.020103993, -1606012.8, 11130.294, 0.0017503432, 10.000063, 9.99986 
1.2650725e+3, 1.449846e+2, -1515834.6, -1563191.4, 14984.032, -0.054752477, -0.04273391, -1511491.8, 7655.6187, 0.00069703115, 10.000218, 9.999588 
1.265063e+3, 1.5498427e+2, -1412153.4, -1460373.6, 15753.059, -0.027173873, -0.03752001, -1407463.3, 13686.259, 0.00013704965, 10.000249, 9.999607 
1.2650535e+3, 1.6498347e+2, -1343006.3, -1426508.3, 26444.24, -0.01364432, -0.054668643, -1335336.1, -12180.544, 0.0000037895563, 10.000267, 9.999159 
1.2650439e+3, 1.749822e+2, -1242739.1, -1324915.9, 23239.299, -0.013563246, -0.09913271, -1236622.4, -11456.596, 0.0, 10.000272, 9.999181 
1.2650342e+3, 1.8498099e+2, -1177328.0, -1297584.0, 15644.52, -0.015121112, -0.113906264, -1175326.1, -48149.54, 0.0, 10.000284, 9.998691 
1.2650245e+3, 1.9497983e+2, -1075186.0, -1195129.8, 19633.88, -0.018696548, -0.10025816, -1072053.9, -42866.33, 0.0, 10.000302, 9.998713 
1.2650147e+3, 2.0497853e+2, -984428.8, -1101669.8, 19266.725, -0.024548313, -0.09903329, -981343.8, -50143.844, 0.0, 10.000257, 9.998703 
1.265005e+3, 2.1497713e+2, -900916.06, -1007959.44, 17805.672, -0.03249227, -0.113131605, -898032.0, -64818.42, 0.0, 10.000145, 9.998727 
1.2649952e+3, 2.2497585e+2, -782885.94, -856646.44, 6857.394, -0.029852431, -0.13102917, -782253.8, -47028.99, 0.0, 10.000094, 9.999117 
1.2649852e+3, 2.3497476e+2, -681670.44, -754337.6, 6950.6313, -0.016530676, -0.15466912, -681011.56, -43778.008, 0.0, 10.000105, 9.999142 
1.2649754e+3, 2.4497397e+2, -572275.7, -618777.94, 11170.073, -0.009011196, -0.16166472, -569731.75, -30492.074, 0.0, 10.000045, 9.999429 
1.2649654e+3, 2.5497347e+2, -491131.78, -525871.56, 13850.416, -0.007329691, -0.1553178, -486285.75, -45042.73, 0.0, 9.999916, 9.999455 
1.2649553e+3, 2.6497272e+2, -410256.28, -435742.47, 2973.4263, -0.006616405, -0.1762443, -409913.97, -66664.664, 0.0, 9.999798, 9.999458 
1.2649451e+3, 2.7497172e+2, -326302.9, -341505.84, 587.6403, -0.0071060723, -0.2255833, -326280.25, -81022.0, 0.0, 9.999688, 9.999485 
1.264935e+3, 2.8497133e+2, -241530.92, -240370.48, 2225.8938, 0.0010377188, -0.21787103, -238650.44, -91389.695, 0.0, 9.999557, 9.999569 
1.2649249e+3, 2.9497147e+2, -165231.08, -151488.7, -1978.5308, 0.018091569, -0.16010879, -151209.52, -101952.42, 0.0, 9.999401, 9.999581 
1.264915e+3, 3.0496943e+2, -155193.63, -162763.17, 1790.9182, 0.027485548, -0.30278865, -154791.28, -154791.28, 0.0, 9.999313, 9.999211 
1.2649053e+3, 3.1496942e+2, -81294.35, -3742.4858, -5263.332, 0.053909387, -0.22762287, -3386.9016, -3386.9016, 0.0, 9.999289, 10.000316 
1.2750919e+3, 1.2499525e+2, -1748639.5, -1737678.0, -14686.19, -0.016222168, -0.018562982, -1727483.1, -12438.905, 0.003216271, 9.999797, 9.999942 
1.2750828e+3, 1.3499501e+2, -1615896.1, -1630137.3, 27027.953, 0.0031794014, -0.02934938, -1595066.5, 21979.795, 0.0018611854, 10.000065, 9.999879 
1.2750727e+3, 1.4499447e+2, -1506875.6, -1545314.0, 15302.215, -0.052603792, -0.06250317, -1501527.9, 17522.934, 0.0007511169, 10.00022, 9.999711 
1.2750633e+3, 1.5499447e+2, -1403194.4, -1442561.0, 16071.137, -0.023124129, -0.034120556, -1397466.8, 23582.492, 0.0001525157, 10.000251, 9.999729 
1.2750538e+3, 1.6499385e+2, -1348806.6, -1439400.0, 25933.895, -0.010938471, -0.03571779, -1341907.9, -18853.893, 0.000004722807, 10.000269, 9.99907 
1.2750442e+3, 1.7499258e+2, -1248487.4, -1337832.6, 22956.756, -0.015638443, -0.07328618, -1242933.9, -17868.564, 0.0, 10.000275, 9.999091 
1.2750345e+3, 1.8499126e+2, -1169204.3, -1281684.3, 15883.59, -0.017648863, -0.09771895, -1167004.3, -39927.477, 0.0, 10.000287, 9.998798 
1.2750249e+3, 1.9498996e+2, -1066934.0, -1178927.4, 20033.662, -0.016994042, -0.109962225, -1063458.1, -34370.1, 0.0, 10.000304, 9.998823 
1.275015e+3, 2.049887e+2, -986549.06, -1106939.9, 14872.143, -0.022131268, -0.10838373, -984739.1, -53639.332, 0.0, 10.000258, 9.998666 
1.2750052e+3, 2.1498752e+2, -903011.44, -1013153.6, 13494.449, -0.032839015, -0.09576467, -901382.2, -68270.5, 0.0, 10.000148, 9.998691 
1.2749952e+3, 2.2498623e+2, -782156.1, -855959.06, 7189.9644, -0.027894216, -0.11576946, -781462.2, -46338.82, 0.0, 10.000097, 9.999122 
1.2749854e+3, 2.3498482e+2, -680848.6, -753374.6, 7434.949, -0.0075346925, -0.17062578, -680094.25, -42959.684, 0.0, 10.000107, 9.999148 
1.2749754e+3, 2.4498397e+2, -566759.6, -608017.94, 6532.2207, -0.0028599722, -0.18587707, -565750.1, -26609.332, 0.0, 10.000047, 9.999502 
1.2749653e+3, 2.5498372e+2, -485623.38, -514985.53, 9396.368, -0.013928819, -0.16444759, -482873.84, -41732.03, 0.0, 9.999917, 9.99953 
1.274955e+3, 2.649831e+2, -414054.06, -444139.34, -560.4943, -0.019061284, -0.17347276, -414043.63, -70896.44, 0.0, 9.999799, 9.999401 
1.2749445e+3, 2.749821e+2, -329845.28, -349538.16, -2787.3838, -0.018210582, -0.21428972, -329458.34, -84301.82, 0.0, 9.99969, 9.99943 
1.2749344e+3, 2.8498158e+2, -249217.73, -256860.63, -2946.564, -0.005645006, -0.20968457, -248213.66, -101053.3, 0.0, 9.9995575, 9.999456 
1.2749244e+3, 2.949815e+2, -173435.55, -168567.17, -7177.822, 0.018457003, -0.16628774, -163422.03, -114263.06, 0.0, 9.9994, 9.999465 
1.2749144e+3, 3.0497938e+2, -157792.9, -168182.1, 1653.4408, 0.027182387, -0.30922878, -157536.11, -157536.11, 0.0, 9.999311, 9.999176 
1.2749046e+3, 3.1497946e+2, -76135.14, 6545.1123, -4990.2983, 0.04934892, -0.22289678, 6845.2207, 6845.2207, 0.0, 9.9992895, 10.000386 
1.2850916e+3, 1.2500513e+2, -1739750.4, -1727092.9, -22190.934, -0.017671162, -0.00713291, -1710345.9, 4602.32, 0.0033890037, 9.999832, 9.999997 
1.2850827e+3, 1.3500492e+2, -1617363.6, -1621226.3, 28446.94, 0.0055154185, -0.021550864, -1590782.5, 26166.63, 0.0019731622, 10.000014, 9.999964 
1.285073e+3, 1.4500436e+2, -1516769.5, -1546281.9, 8424.355, -0.04747892, -0.06295841, -1514534.0, 4419.6636, 0.0008066489, 10.000137, 9.999743 
1.2850636e+3, 1.550044e+2, -1410519.8, -1442373.0, 2017.6315, -0.01859523, -0.036435112, -1410392.5, 10559.767, 0.00016903538, 10.000186, 9.999761 
1.2850541e+3, 1.6500385e+2, -1347419.1, -1432136.0, 13825.854, -0.008516754, -0.03356341, -1345219.9, -22263.51, 0.00000585612, 10.000252, 9.999127 
1.2850446e+3, 1.7500272e+2, -1235663.9, -1324911.1, 21533.69, -0.01656097, -0.06029498, -1230739.8, -5773.619, 0.0, 10.000335, 9.99915 
1.2850349e+3, 1.8500146e+2, -1155565.4, -1269308.9, 15343.398, -0.018720413, -0.086480856, -1153531.9, -26554.797, 0.0, 10.000357, 9.998849 
1.2850253e+3, 1.9500008e+2, -1061972.1, -1170622.9, 14701.521, -0.01503777, -0.11309664, -1060018.0, -31029.223, 0.0, 10.000315, 9.998874 
1.2850153e+3, 2.0499879e+2, -985566.56, -1107880.3, 5394.0737, -0.019312356, -0.11562234, -985329.1, -54328.566, 0.0, 10.000273, 9.998652 
1.2850052e+3, 2.1499766e+2, -891944.5, -1009174.4, 5461.0366, -0.03127793, -0.09689656, -891690.6, -58678.21, 0.0, 10.000231, 9.998677 
1.2849954e+3, 2.2499643e+2, -767303.56, -838767.7, 3973.8716, -0.027152022, -0.113451526, -767083.3, -32059.908, 0.0, 10.000157, 9.99921 
1.2849855e+3, 2.3499511e+2, -682673.3, -744201.94, 10109.209, -0.0073215235, -0.16756257, -681054.94, -44021.76, 0.0, 10.000052, 9.999237 
1.2849754e+3, 2.4499428e+2, -578302.75, -612259.7, 7612.8584, -0.0038174274, -0.18877174, -576674.1, -37634.836, 0.0, 9.999963, 9.999513 
1.2849651e+3, 2.549939e+2, -489083.28, -515402.4, 5283.449, -0.016661577, -0.17981456, -488062.25, -47020.785, 0.0, 9.999889, 9.99954 
1.2849547e+3, 2.649933e+2, -413857.2, -441633.72, -5036.046, -0.022455297, -0.1850352, -412972.3, -69925.836, 0.0, 9.99979, 9.999421 
1.2849443e+3, 2.7499256e+2, -331747.97, -347978.16, -1721.1498, -0.021090763, -0.20571837, -331567.47, -86513.51, 0.0, 9.999667, 9.999451 
1.284934e+3, 2.8499204e+2, -245213.61, -259230.9, 5036.628, -0.009041036, -0.20113915, -243591.56, -96533.63, 0.0, 9.999604, 9.999416 
1.2849239e+3, 2.949917e+2, -147329.86, -160647.86, 6138.776, 0.013440704, -0.1780271, -144932.0, -95873.31, 0.0, 9.999601, 9.999422 
1.2849137e+3, 3.0498955e+2, -131902.64, -163567.48, 16098.281, 0.021000827, -0.318551, -125155.87, -125155.87, 0.0, 9.999525, 9.999104 
1.2849039e+3, 3.1498975e+2, -61273.82, 17988.037, 6705.834, 0.045997284, -0.21368195, 18551.371, 18551.371, 0.0, 9.999374, 10.000423 
1.2950915e+3, 1.2501475e+2, -1731279.3, -1711066.9, -20548.354, -0.010683007, -0.0056297504, -1698274.0, 16580.52, 0.0035624073, 9.999837, 10.000105 
1.2950829e+3, 1.3501494e+2, -1606875.1, -1600580.6, 34548.42, 0.012402517, 0.0027664371, -1569036.4, 47814.793, 0.0020858154, 10.000018, 10.000105 
1.2950732e+3, 1.4501435e+2, -1520474.6, -1554813.4, 9524.879, -0.03953129, -0.044778787, -1518009.6, 846.2115, 0.00086324645, 10.00014, 9.999684 
1.2950638e+3, 1.5501405e+2, -1414386.4, -1451291.0, 3200.6526, -0.0136666875, -0.044474, -1414110.9, 6747.2153, 0.0001865044, 10.000189, 9.999699 
1.2950543e+3, 1.6501352e+2, -1333187.9, -1403485.9, 16312.065, -0.00642333, -0.047862228, -1329587.1, -6725.0693, 0.0000072252774, 10.000254, 9.999323 
1.2950449e+3, 1.7501274e+2, -1221322.1, -1295966.1, 24163.703, -0.016444342, -0.059965264, -1214182.8, 10685.381, 0.0, 10.000337, 9.999349 
1.2950353e+3, 1.8501163e+2, -1156090.0, -1271163.5, 13344.9375, -0.018493911, -0.08015876, -1154562.6, -27685.324, 0.0, 10.000359, 9.9988365 
1.2950255e+3, 1.950102e+2, -1062526.8, -1172618.5, 12818.066, -0.012920108, -0.109687865, -1061054.1, -32164.654, 0.0, 10.000317, 9.99886 
1.2950157e+3, 2.0500882e+2, -984827.25, -1107190.1, 3575.5566, -0.016138617, -0.12079141, -984722.9, -53820.566, 0.0, 10.000276, 9.998656 
1.2950057e+3, 2.1500756e+2, -891128.44, -1008271.75, 3768.5222, -0.02787467, -0.11658915, -891007.3, -58091.617, 0.0, 10.000233, 9.998683 
1.2949955e+3, 2.2500649e+2, -755298.0, -814641.7, 22.949455, -0.027764741, -0.12406445, -755298.0, -20373.143, 0.0, 10.000159, 9.999375 
1.2949854e+3, 2.3500568e+2, -670606.94, -719881.2, 6270.8257, -0.016059957, -0.14525695, -669821.44, -32892.05, 0.0, 10.000054, 9.999404 
1.2949753e+3, 2.4500485e+2, -582121.0, -620829.1, 5090.4873, -0.011979952, -0.17017607, -581462.75, -42527.555, 0.0, 9.999965, 9.9994545 
1.294965e+3, 2.5500402e+2, -492919.28, -523906.8, 2877.0369, -0.015535982, -0.20161016, -492654.44, -51712.32, 0.0, 9.99989, 9.999482 
1.2949546e+3, 2.650034e+2, -407125.53, -428147.1, -9151.3, -0.016745888, -0.21117227, -403699.94, -60752.5, 0.0, 9.999791, 9.999514 
1.294944e+3, 2.7500305e+2, -325025.38, -334315.25, -5692.342, -0.015645152, -0.19984937, -322323.34, -77372.56, 0.0, 9.999667, 9.999545 
1.2949336e+3, 2.8500262e+2, -242899.47, -254737.38, 5723.53, -0.009178684, -0.19222769, -240584.78, -93631.07, 0.0, 9.999604, 9.999448 
1.2949233e+3, 2.9500207e+2, -145001.72, -156420.0, 6908.433, 0.0026353954, -0.19560735, -141748.67, -92792.125, 0.0, 9.999602, 9.999452 
1.2949131e+3, 3.0499992e+2, -139869.9, -180624.98, 11223.825, 0.008540137, -0.3308844, -136983.34, -136983.34, 0.0, 9.999526, 9.998987 
1.2949033e+3, 3.1500027e+2, -61998.176, 16374.147, 2207.9734, 0.043723214, -0.19858907, 16436.303, 16436.303, 0.0, 9.999373, 10.000413 
1.3050915e+3, 1.2502429e+2, -1680527.6, -1687767.8, -15296.767, -0.014552129, -0.019774381, -1668428.4, 46332.19, 0.0037353144, 10.000194, 10.0000925 
1.305083e+3, 1.350246e+2, -1586966.1, -1588215.8, 34900.97, 0.016653702, 0.0011757257, -1552684.4, 64071.453, 0.002198173, 10.000144, 10.000128 
1.3050734e+3, 1.4502405e+2, -1517515.0, -1549566.5, 7708.6006, -0.03069459, -0.045844283, -1515757.4, 3002.859, 0.00092024496, 10.000145, 9.999718 
1.305064e+3, 1.5502375e+2, -1412603.9, -1446689.9, 7961.343, -0.011136698, -0.048650812, -1410836.0, 9926.712, 0.00020472471, 10.000186, 9.999731 
1.3050546e+3, 1.650233e+2, -1333847.3, -1393468.3, 20135.969, -0.0041811266, -0.051542066, -1327683.9, -4917.574, 0.000008878654, 10.000206, 9.999414 
1.3050452e+3, 1.7502266e+2, -1234314.3, -1291714.3, 19800.785, -0.0079596955, -0.05929496, -1228146.5, -3375.5557, 0.0, 10.000204, 9.999441 
1.3050357e+3, 1.8502162e+2, -1176642.1, -1276088.5, 4307.77, -0.00946156, -0.07841316, -1176455.9, -49676.496, 0.0, 10.000197, 9.998879 
1.3050258e+3, 1.950202e+2, -1078406.1, -1175132.3, 7739.195, -0.009250266, -0.11016258, -1077790.8, -48999.44, 0.0, 10.000187, 9.998904 
1.3050158e+3, 2.050189e+2, -995340.5, -1098653.8, 3578.0852, -0.013244431, -0.12399993, -995216.7, -64413.15, 0.0, 10.000146, 9.998776 
1.3050057e+3, 2.150177e+2, -906046.6, -1001739.44, 12133.11, -0.021149084, -0.12326155, -904532.2, -71716.44, 0.0, 10.0000725, 9.998804 
1.3049956e+3, 2.2501674e+2, -767126.2, -814622.56, 8929.541, -0.024976097, -0.12993447, -765502.9, -30678.988, 0.0, 10.000054, 9.999425 
1.3049853e+3, 2.3501603e+2, -661950.9, -710012.94, 6040.434, -0.024780944, -0.14578141, -661203.3, -24375.807, 0.0, 10.000091, 9.999454 
1.3049752e+3, 2.4501525e+2, -571107.4, -615541.7, -253.89146, -0.021037038, -0.16953856, -571105.94, -32272.686, 0.0, 10.000041, 9.999453 
1.3049649e+3, 2.5501436e+2, -490337.44, -522709.66, 1507.2692, -0.013973942, -0.20431677, -490267.4, -49426.6, 0.0, 9.999909, 9.99948 
1.3049543e+3, 2.6501378e+2, -399251.72, -413524.13, -8683.688, -0.011803782, -0.2146602, -395148.16, -52302.535, 0.0, 9.9998, 9.99961 
1.3049436e+3, 2.7501357e+2, -311957.1, -317346.84, -5483.7637, -0.014349373, -0.20129251, -308541.8, -63694.465, 0.0, 9.999712, 9.9996395 
1.3049331e+3, 2.8501314e+2, -239795.16, -258863.72, 5932.326, -0.011382625, -0.19236, -238100.23, -91250.3, 0.0, 9.999651, 9.999397 
1.3049228e+3, 2.9501256e+2, -146801.88, -163156.25, 551.86554, -0.003197799, -0.19529188, -146783.27, -97929.58, 0.0, 9.999617, 9.999397 
1.3049126e+3, 3.0501035e+2, -135603.66, -188656.42, 435.62427, -0.00042247312, -0.32782578, -135600.08, -135600.08, 0.0, 9.999599, 9.998896 
1.3049027e+3, 3.1501052e+2, -28111.063, 34165.363, -6356.8374, 0.03559189, -0.20584846, 34807.61, 34807.61, 0.0, 9.999601, 10.000425 
1.3150916e+3, 1.2503377e+2, -1689800.0, -1707786.3, -22088.75, -0.028814202, -0.048905276, -1674943.8, 39722.12, 0.003906043, 10.0001955, 9.999955 
1.315083e+3, 1.3503401e+2, -1593128.5, -1602139.3, 32384.4, 0.018321501, -0.025608206, -1564937.6, 51724.883, 0.0023090318, 10.000148, 10.000031 
1.3150737e+3, 1.4503354e+2, -1508715.6, -1532334.6, 8481.385, -0.021093383, -0.06558101, -1505985.5, 12680.941, 0.000976971, 10.000148, 9.999835 
1.3150643e+3, 1.5503356e+2, -1403901.5, -1429532.9, 8840.265, -0.0111068, -0.049072675, -1401148.3, 19517.832, 0.00022350362, 10.000189, 9.999848 
1.3150547e+3, 1.6503322e+2, -1334581.0, -1395858.1, 19452.719, -0.0018821283, -0.04496042, -1328927.3, -6258.646, 0.000010883257, 10.000209, 9.999397 
1.3150455e+3, 1.750325e+2, -1235136.9, -1294314.0, 19263.371, 0.008705609, -0.058318134, -1229418.9, -4744.472, 0.0, 10.000206, 9.999423 
1.315036e+3, 1.8503146e+2, -1169498.5, -1262126.5, 3488.5208, 0.00815268, -0.08115903, -1169367.4, -42684.277, 0.0, 10.0002, 9.998975 
1.3150261e+3, 1.9503014e+2, -1071175.1, -1160957.3, 7073.6543, -0.004149614, -0.11454278, -1070621.3, -41926.957, 0.0, 10.00019, 9.9990015 
1.3150162e+3, 2.0502901e+2, -978764.1, -1065058.6, 626.4314, -0.010743774, -0.12530464, -978759.56, -48055.36, 0.0, 10.000148, 9.999007 
1.315006e+3, 2.1502814e+2, -889357.56, -967970.6, 9314.188, -0.011274449, -0.11686258, -888269.06, -55556.527, 0.0, 10.000075, 9.999036 
1.3149957e+3, 2.2502717e+2, -771717.44, -825069.75, 10279.767, -0.01889482, -0.13107288, -769805.3, -35084.824, 0.0, 10.000057, 9.999352 
1.3149853e+3, 2.3502617e+2, -666563.75, -720375.75, 7493.4473, -0.0335208, -0.16939493, -665539.75, -28812.014, 0.0, 10.0000925, 9.999382 
1.314975e+3, 2.4502543e+2, -567217.2, -608170.06, -4965.7354, -0.031101396, -0.1869866, -566623.6, -27890.152, 0.0, 10.000043, 9.999503 
1.3149649e+3, 2.5502494e+2, -486267.16, -514899.75, -3036.3274, -0.012134638, -0.18751447, -485948.72, -45211.1, 0.0, 9.999911, 9.999535 
1.3149542e+3, 2.6502448e+2, -392691.28, -400407.0, -11421.889, -0.0077819484, -0.19515899, -384493.3, -41752.07, 0.0, 9.999801, 9.9997 
1.3149434e+3, 2.7502406e+2, -305464.97, -304306.16, -8065.247, -0.017478295, -0.21039495, -296799.53, -52055.617, 0.0, 9.999712, 9.999729 
1.3149327e+3, 2.8502363e+2, -249706.53, -279794.72, 5351.2383, -0.015875712, -0.20173267, -248783.14, -102036.21, 0.0, 9.999651, 9.999253 
1.3149224e+3, 2.9502317e+2, -156944.86, -184418.3, -105.499916, -0.0038910874, -0.17636614, -156944.45, -108193.97, 0.0, 9.999616, 9.999252 
1.3149121e+3, 3.0502084e+2, -140330.7, -198702.4, 1180.548, -0.0058754147, -0.3089286, -140306.83, -140306.83, 0.0, 9.999599, 9.998828 
1.3149022e+3, 3.1502047e+2, -25714.559, 38586.656, -4872.587, 0.020607134, -0.23495987, 38953.793, 38953.793, 0.0, 9.999602, 10.000456 
1.3250919e+3, 1.250433e+2, -1689208.9, -1712149.6, -29905.82, -0.029584402, -0.06303881, -1668649.3, 45922.082, 0.004073657, 10.000221, 9.999912 
1.3250832e+3, 1.3504353e+2, -1578677.9, -1595075.6, 35110.43, 0.01510666, -0.041219156, -1550821.8, 65746.46, 0.0024175402, 10.000248, 10.000031 
1.3250738e+3, 1.450431e+2, -1491913.4, -1519479.6, 11861.969, -0.017522607, -0.07902208, -1487511.9, 31060.2, 0.0010328876, 10.000244, 9.999876 
1.3250645e+3, 1.5504327e+2, -1399489.1, -1422758.0, 6215.1353, -0.0036068845, -0.05181414, -1397933.1, 22637.238, 0.00024265106, 10.0002, 9.999888 
1.325055e+3, 1.6504301e+2, -1338024.9, -1391974.8, 15524.401, 0.0041814838, -0.042857174, -1333876.6, -11304.391, 0.000013283229, 10.000162, 9.999446 
1.3250458e+3, 1.7504235e+2, -1242579.6, -1292221.3, 19952.385, 0.00856637, -0.057128794, -1235554.4, -10976.635, 0.0, 10.000133, 9.999473 
1.3250361e+3, 1.8504135e+2, -1176905.3, -1255350.4, 6236.677, 0.0061538843, -0.08196648, -1176412.5, -49826.445, 0.0, 10.000106, 9.999065 
1.3250263e+3, 1.9504009e+2, -1080569.1, -1154999.4, 9186.027, -0.003877674, -0.118198685, -1079452.3, -50855.45, 0.0, 10.000081, 9.999094 
1.3250162e+3, 2.0503908e+2, -983534.9, -1051122.3, -2547.1655, -0.008695752, -0.12983115, -983439.0, -52833.69, 0.0, 10.000047, 9.999151 
1.325006e+3, 2.1503836e+2, -890079.0, -951990.1, -677.4482, -0.007781392, -0.12037454, -890071.56, -57460.0, 0.0, 10.000001, 9.999181 
1.3249958e+3, 2.2503746e+2, -784249.56, -828392.1, 2517.191, -0.015838133, -0.1357838, -784106.5, -49487.68, 0.0, 9.999961, 9.999375 
1.3249855e+3, 2.3503645e+2, -689165.44, -728560.4, 6517.5986, -0.032954447, -0.17753004, -688115.1, -51488.47, 0.0, 9.999927, 9.999405 
1.324975e+3, 2.450358e+2, -585455.5, -610554.2, -5674.2393, -0.032420058, -0.19061795, -584232.3, -45600.344, 0.0, 9.999891, 9.999559 
1.3249646e+3, 2.550355e+2, -490499.13, -510462.97, -3764.925, -0.014632014, -0.17866309, -489812.7, -49178.12, 0.0, 9.999855, 9.999591 
1.324954e+3, 2.6503506e+2, -385933.25, -390181.06, -12710.234, -0.0099139325, -0.18798387, -375170.7, -32533.078, 0.0, 9.999819, 9.999762 
1.3249432e+3, 2.7503455e+2, -291487.2, -290668.44, -11951.916, -0.017782345, -0.21911724, -279118.9, -34478.254, 0.0, 9.99978, 9.99979 
1.3249324e+3, 2.850341e+2, -243358.97, -283334.97, 3765.496, -0.012818334, -0.21145879, -243007.38, -96363.62, 0.0, 9.999725, 9.999193 
1.3249221e+3, 2.9503372e+2, -156109.22, -190895.16, 4343.543, 0.00398832, -0.17202033, -155575.08, -106927.94, 0.0, 9.999653, 9.999189 
1.3249117e+3, 3.050314e+2, -136855.78, -204421.84, 11999.315, -0.004753768, -0.29804486, -134788.05, -134788.05, 0.0, 9.999657, 9.99876 
1.3249016e+3, 3.150307e+2, -5016.212, 51806.78, 6467.573, 0.007202799, -0.24939594, 52533.62, 52533.62, 0.0, 9.999732, 10.0004835 
1.3350922e+3, 1.2505296e+2, -1686001.3, -1706215.4, -33318.68, -0.017331753, -0.062296204, -1661290.4, 53185.785, 0.0042385682, 10.000223, 9.999952 
1.3350835e+3, 1.3505322e+2, -1572112.8, -1582252.9, 35390.8, 0.0070043034, -0.046156287, -1541430.8, 75041.875, 0.0025235927, 10.00025, 10.000119 
1.3350742e+3, 1.4505278e+2, -1494296.5, -1525162.9, 9452.174, -0.019926738, -0.0865124, -1491632.0, 26844.424, 0.0010875799, 10.000246, 9.999837 
1.3350648e+3, 1.5505293e+2, -1401958.6, -1428704.8, 3912.6904, 0.0111477915, -0.056806184, -1401398.0, 19077.264, 0.00026189684, 10.000202, 9.999847 
1.3350552e+3, 1.6505274e+2, -1329942.3, -1376086.5, 13808.272, 0.013810476, -0.04503171, -1326125.9, -3649.0989, 0.000016032998, 10.000165, 9.999555 
1.3350457e+3, 1.7505221e+2, -1234399.6, -1276180.4, 18363.049, -0.008215315, -0.05576021, -1227476.1, -2995.3127, 0.00000000003443261, 10.000134, 9.999582 
1.335036e+3, 1.8505132e+2, -1170637.8, -1243216.1, 4918.0654, -0.015219717, -0.08091702, -1170306.0, -43817.77, 0.0, 10.000109, 9.999148 
1.3350262e+3, 1.9505009e+2, -1074396.4, -1143052.0, 7969.7627, -0.008431546, -0.12114393, -1073483.4, -44984.875, 0.0, 10.000084, 9.999175 
1.3350162e+3, 2.050491e+2, -979310.75, -1043236.9, -4451.821, -0.0071920697, -0.13757384, -979002.25, -48495.47, 0.0, 10.00005, 9.999205 
1.3350059e+3, 2.1504837e+2, -885827.94, -944055.0, -2471.1123, -0.010700302, -0.13385862, -885723.25, -53210.375, 0.0, 10.000004, 9.999234 
1.3349958e+3, 2.2504762e+2, -775957.8, -812034.1, 1238.4274, -0.015857609, -0.1440966, -775915.4, -41396.5, 0.0, 9.999963, 9.999488 
1.3349855e+3, 2.3504688e+2, -680930.56, -712223.5, 5392.3564, -0.023153152, -0.17003071, -680027.44, -43503.063, 0.0, 9.999928, 9.9995165 
1.3349749e+3, 2.4504633e+2, -581192.5, -602344.1, -6724.6406, -0.025040679, -0.18029645, -579235.6, -40706.83, 0.0, 9.999893, 9.999616 
1.3349645e+3, 2.5504598e+2, -486337.78, -502404.06, -4695.0635, -0.02158819, -0.17800087, -485066.34, -44534.523, 0.0, 9.999857, 9.999646 
1.3349538e+3, 2.6504552e+2, -383983.0, -386650.9, -13516.829, -0.018377345, -0.1934285, -371734.47, -29199.492, 0.0, 9.99982, 9.999785 
1.3349429e+3, 2.75045e+2, -289404.3, -286907.34, -12647.303, -0.015304611, -0.22736874, -275447.06, -30909.271, 0.0, 9.999782, 9.999816 
1.3349323e+3, 2.8504458e+2, -241825.78, -280562.53, 1751.0029, -0.002160955, -0.22153704, -241746.78, -95206.02, 0.0, 9.999725, 9.999212 
1.334922e+3, 2.950442e+2, -154924.27, -188633.44, 2508.424, 0.0204913, -0.18285027, -154738.64, -106194.6, 0.0, 9.999652, 9.999207 
1.3349114e+3, 3.05042e+2, -141992.05, -215298.9, 15817.022, 0.0029200346, -0.2954604, -138724.9, -138724.9, 0.0, 9.999657, 9.998687 
1.3349013e+3, 3.1504124e+2, -3777.2107, 53991.66, 10966.989, -0.004933685, -0.247018, 56003.59, 56003.59, 0.0, 9.999733, 10.0005 
1.3450924e+3, 1.2506261e+2, -1690299.6, -1713031.0, -32819.22, -0.012905587, -0.061215404, -1666933.8, 47447.227, 0.0044024647, 10.000216, 9.999908 
1.3450837e+3, 1.3506284e+2, -1576498.8, -1583860.3, 32823.09, 0.008932702, -0.04742013, -1547150.8, 69227.1, 0.0026278205, 10.000218, 10.000123 
1.3450743e+3, 1.4506242e+2, -1497506.1, -1520891.3, 4518.9946, -0.013196384, -0.090161875, -1496663.3, 21718.404, 0.0011408281, 10.0002, 9.999887 
1.345065e+3, 1.550626e+2, -1405474.6, -1424647.5, 5241.362, 0.013221132, -0.06281801, -1404135.4, 16244.714, 0.00028088767, 10.0001545, 9.999898 
1.3450554e+3, 1.6506247e+2, -1330024.4, -1367280.4, 18054.05, 0.011636199, -0.05155946, -1322711.0, -330.07373, 0.000018979208, 10.000128, 9.999632 
1.3450457e+3, 1.7506205e+2, -1231620.6, -1265887.1, 20093.936, -0.013417974, -0.060427878, -1222347.1, 2037.0344, 0.0000000014653116, 10.000116, 9.9996605 
1.345036e+3, 1.8506126e+2, -1171982.5, -1232931.6, 3887.5872, -0.020021357, -0.08230312, -1171735.5, -45345.004, 0.0, 10.000053, 9.999246 
1.3450262e+3, 1.9506018e+2, -1088794.3, -1138894.0, 7653.872, -0.0097683575, -0.11825056, -1087651.0, -59251.574, 0.0, 9.999938, 9.999273 
1.3450162e+3, 2.0505925e+2, -997589.06, -1043288.56, -1493.4945, -0.0072818547, -0.13788486, -997540.3, -67133.23, 0.0, 9.999887, 9.999282 
1.345006e+3, 2.1505849e+2, -895635.75, -939885.3, 1922.6233, -0.011696886, -0.1445133, -895552.4, -63139.383, 0.0, 9.999899, 9.999312 
1.3449956e+3, 2.2505778e+2, -787264.7, -813200.94, 1994.7529, -0.015819212, -0.15594885, -787112.2, -52693.527, 0.0, 9.999868, 9.999524 
1.3449854e+3, 2.3505716e+2, -697713.06, -715699.6, 154.4976, -0.020080429, -0.17407864, -697711.75, -61288.11, 0.0, 9.999795, 9.999557 
1.3449748e+3, 2.4505673e+2, -590716.56, -596016.7, -11259.63, -0.02257073, -0.17796029, -581799.3, -43372.4, 0.0, 9.999783, 9.999711 
1.3449642e+3, 2.5505656e+2, -483854.78, -490322.78, -6559.279, -0.023352629, -0.17085436, -479775.6, -39347.223, 0.0, 9.999828, 9.999742 
1.3449535e+3, 2.650561e+2, -383329.2, -392948.63, -18127.076, -0.018649941, -0.18710898, -369384.6, -26953.027, 0.0, 9.999854, 9.999725 
1.3449427e+3, 2.7505544e+2, -282144.38, -289875.25, -24037.305, -0.008482993, -0.22721009, -261663.69, -17227.682, 0.0, 9.999861, 9.999757 
1.3449322e+3, 2.85055e+2, -214110.11, -253673.19, -10302.748, 0.0042056846, -0.22539914, -211587.92, -65148.953, 0.0, 9.999859, 9.999332 
1.3449217e+3, 2.9505473e+2, -118624.17, -158082.64, -2230.7908, 0.018975778, -0.18864122, -118498.45, -70057.88, 0.0, 9.999846, 9.999322 
1.3449112e+3, 3.0505267e+2, -118499.086, -214415.73, 17826.354, -0.0036178657, -0.2865128, -115293.17, -115293.17, 0.0, 9.999864, 9.998592 
1.344901e+3, 3.1505182e+2, 21145.49, 64617.582, 11961.437, -0.010233575, -0.2387487, 67691.445, 67691.445, 0.0, 9.999911, 10.000486 
1.3550925e+3, 1.2507233e+2, -1699346.1, -1732421.0, -36547.24, -0.01605784, -0.05981226, -1675768.9, 38516.313, 0.0045679878, 10.0002165, 9.999775 
1.355084e+3, 1.350725e+2, -1581679.3, -1595495.1, 32295.53, 0.020586561, -0.0449027, -1555561.1, 60722.305, 0.0027314809, 10.000221, 10.000042 
1.3550746e+3, 1.4507207e+2, -1487837.6, -1501728.6, 2165.1506, 0.0022849666, -0.08992227, -1487508.0, 30779.291, 0.0011927416, 10.000203, 10.000019 
1.3550651e+3, 1.5507232e+2, -1395710.8, -1405323.1, 2949.7197, 0.0027299507, -0.069921926, -1394877.8, 25406.545, 0.00029931884, 10.000157, 10.00003 
1.3550554e+3, 1.6507222e+2, -1326400.8, -1360621.3, 17079.578, -0.0021246765, -0.062462248, -1319335.1, 2949.3477, 0.00002192539, 10.00013, 9.999678 
1.3550459e+3, 1.7507185e+2, -1228108.3, -1259340.0, 19183.791, -0.007276297, -0.07106796, -1218988.0, 5299.561, 0.0000000068048798, 10.000118, 9.999705 
1.3550362e+3, 1.8507122e+2, -1164267.3, -1217685.5, -858.3441, -0.008644596, -0.08609459, -1164253.5, -37960.72, 0.0, 10.000055, 9.99935 
1.3550262e+3, 1.9507036e+2, -1080780.5, -1123174.9, 3046.1213, -0.008031595, -0.10958117, -1080562.8, -52263.13, 0.0, 9.999941, 9.999381 
1.3550161e+3, 2.050695e+2, -990372.4, -1029232.56, -1246.332, -0.008990051, -0.13086507, -990332.44, -60026.316, 0.0, 9.99989, 9.999377 
1.3550058e+3, 2.150687e+2, -888400.9, -925826.8, 2277.0085, -0.010891293, -0.1523612, -888262.9, -55950.824, 0.0, 9.999902, 9.999409 
1.3549955e+3, 2.2506794e+2, -789734.8, -819277.25, -694.1183, -0.015867732, -0.17135578, -789718.5, -55400.227, 0.0, 9.999871, 9.999482 
1.3549851e+3, 2.3506728e+2, -700207.75, -721668.1, -2437.635, -0.023820683, -0.18984579, -699934.4, -63609.92, 0.0, 9.999797, 9.999516 
1.3549747e+3, 2.45067e+2, -581011.56, -576562.9, -9178.448, -0.025109112, -0.18376963, -569343.1, -31016.602, 0.0, 9.9997835, 9.999845 
1.3549641e+3, 2.5506714e+2, -474260.16, -471099.2, -4353.3716, -0.02004425, -0.15705453, -468048.28, -27723.977, 0.0, 9.99983, 9.999874 
1.3549535e+3, 2.6506674e+2, -393784.3, -415278.53, -17294.832, -0.010798302, -0.16872011, -384169.4, -41841.83, 0.0, 9.999855, 9.999572 
1.3549428e+3, 2.7506584e+2, -292509.66, -311967.53, -23089.732, 0.0026807047, -0.21856038, -277182.9, -32847.26, 0.0, 9.999862, 9.999605 
1.354932e+3, 2.8506538e+2, -198741.11, -222257.05, -9965.693, 0.005932625, -0.22303335, -195085.94, -48747.164, 0.0, 9.99986, 9.999549 
1.3549215e+3, 2.9506528e+2, -103533.95, -127414.19, -1862.9495, -0.001535504, -0.18910006, -103389.49, -55052.37, 0.0, 9.999848, 9.999532 
1.3549107e+3, 3.0506343e+2, -126490.39, -231811.16, 20372.246, -0.025212927, -0.27071378, -122687.12, -122687.12, 0.0, 9.999866, 9.998472 
1.354901e+3, 3.1506243e+2, 18156.41, 57706.543, 15533.559, -0.008866591, -0.22265552, 63077.94, 63077.94, 0.0, 9.999912, 10.000439 
1.3650928e+3, 1.2508208e+2, -1692172.0, -1736766.1, -27252.768, -0.013445156, -0.0694299, -1679257.3, 34931.664, 0.0047382293, 10.000301, 9.999704 
1.3650842e+3, 1.3508222e+2, -1579277.8, -1596555.8, 48246.93, 0.01690164, -0.054350242, -1538902.5, 77285.234, 0.0028363883, 10.000249, 10.000021 
1.365075e+3, 1.4508182e+2, -1484086.0, -1494858.4, 16224.418, 0.0050434964, -0.097362384, -1472377.0, 45814.156, 0.0012438492, 10.000208, 10.000063 
1.3650651e+3, 1.5508209e+2, -1389803.3, -1397450.5, 10327.042, 0.003532588, -0.07860365, -1382614.8, 37572.85, 0.0003170788, 10.000177, 10.000073 
1.3650556e+3, 1.6508204e+2, -1332575.1, -1361015.3, 18047.617, -0.0018617046, -0.07096058, -1323818.6, -1631.1056, 0.00002472805, 10.000077, 9.9997 
1.3650459e+3, 1.750817e+2, -1257247.5, -1270835.4, 18102.08, -0.005341329, -0.07790192, -1244706.4, -20515.879, 0.000000016360648, 9.999908, 9.999727 
1.365036e+3, 1.8508112e+2, -1188662.3, -1221013.8, -1897.484, -0.007140677, -0.09119899, -1188551.4, -62356.07, 0.0, 9.999853, 9.999424 
1.3650261e+3, 1.9508037e+2, -1080559.8, -1114633.3, -689.7788, -0.0093158, -0.1128919, -1080545.9, -52344.56, 0.0, 9.999907, 9.9994545 
1.365016e+3, 2.050796e+2, -984224.4, -1015847.94, -6975.0513, -0.010595092, -0.1335731, -982754.25, -52547.418, 0.0, 9.999888, 9.99947 
1.3650057e+3, 2.1507889e+2, -897035.75, -919591.94, -4148.3477, -0.010361305, -0.15563402, -896297.0, -64085.367, 0.0, 9.9998, 9.9995 
1.3649954e+3, 2.2507817e+2, -801723.6, -825777.0, -4819.4883, -0.015785672, -0.17499179, -800793.9, -66576.29, 0.0, 9.999794, 9.999475 
1.3649848e+3, 2.3507749e+2, -690474.2, -717690.1, -4400.4863, -0.026652327, -0.19358279, -689780.4, -53556.168, 0.0, 9.999868, 9.999507 
1.3649745e+3, 2.4507722e+2, -563254.4, -564185.8, -13663.398, -0.027199226, -0.1867238, -550048.75, -11822.508, 0.0, 9.999891, 9.999878 
1.364964e+3, 2.5507742e+2, -467187.03, -463860.25, -16816.219, -0.01792031, -0.15831448, -448625.38, -8401.907, 0.0, 9.999864, 9.999907 
1.3649534e+3, 2.6507708e+2, -390950.25, -415793.25, -27646.877, -0.008963891, -0.1635718, -373062.63, -30836.361, 0.0, 9.999885, 9.999554 
1.3649426e+3, 2.750763e+2, -280940.3, -308267.16, -23673.068, 0.000009176435, -0.20267184, -267270.53, -23036.572, 0.0, 9.99995, 9.999586 
1.3649319e+3, 2.8507575e+2, -174173.06, -205275.88, -12962.147, 0.0027634073, -0.21319856, -169479.39, -23241.908, 0.0, 10.000008, 9.999593 
1.3649213e+3, 2.950755e+2, -70319.43, -106690.32, -18118.148, -0.001656784, -0.20116432, -62834.316, -14597.455, 0.0, 10.000057, 9.999573 
1.3649108e+3, 3.0507377e+2, -101079.57, -218469.97, 1010.55316, -0.028136972, -0.27296457, -101070.87, -101070.87, 0.0, 10.000037, 9.998481 
1.3649008e+3, 3.150728e+2, 27808.77, 70202.44, 6541.875, -0.016491562, -0.22238466, 71188.98, 71188.98, 0.0, 9.999947, 10.000507 
1.3750933e+3, 1.250919e+2, -1693075.6, -1739193.5, -32300.262, -0.005442902, -0.0893306, -1676448.0, 37643.523, 0.0049160505, 10.000302, 9.999688 
1.3750842e+3, 1.3509205e+2, -1576497.8, -1591825.1, 45517.43, -0.001852277, -0.075534426, -1538003.4, 78086.85, 0.0029444871, 10.000252, 10.000053 
1.3750751e+3, 1.4509171e+2, -1486742.4, -1501400.3, 14231.51, -0.004649867, -0.112390324, -1478063.5, 40029.72, 0.0012949365, 10.000211, 10.000017 
1.3750654e+3, 1.5509199e+2, -1392597.0, -1404184.0, 8530.81, 0.015347433, -0.08870193, -1388078.4, 32011.254, 0.0003342444, 10.00018, 10.000027 
1.3750556e+3, 1.6509193e+2, -1332528.3, -1361861.3, 11113.36, 0.011988318, -0.07698671, -1328793.3, -6703.686, 0.000027345353, 10.00008, 9.999693 
1.3750458e+3, 1.7509162e+2, -1256895.8, -1271190.4, 11346.577, -0.007684037, -0.080996424, -1250633.1, -26540.316, 0.000000027808229, 9.999911, 9.999724 
1.375036e+3, 1.8509103e+2, -1185537.8, -1215600.8, -264.74927, -0.0154219335, -0.09766367, -1185535.4, -59437.52, 0.0, 9.999856, 9.99946 
1.375026e+3, 1.9509022e+2, -1077416.4, -1109076.0, 1049.8042, -0.01366886, -0.12817575, -1077381.6, -49277.14, 0.0, 9.999909, 9.999493 
1.3750157e+3, 2.0508955e+2, -978012.3, -1003878.5, -10526.581, -0.012209767, -0.1459896, -974269.9, -44160.72, 0.0, 9.999891, 9.999551 
1.3750055e+3, 2.1508905e+2, -890807.7, -907641.06, -7495.629, -0.010136506, -0.1543402, -887953.8, -55842.066, 0.0, 9.999803, 9.999581 
1.3749951e+3, 2.2508846e+2, -799698.7, -822569.3, -1894.8525, -0.015595534, -0.16688247, -799542.75, -65426.19, 0.0, 9.999797, 9.9994955 
1.3749847e+3, 2.350878e+2, -688575.5, -714692.94, -1354.6072, -0.02869415, -0.1851903, -688505.44, -52382.37, 0.0, 9.999871, 9.999528 
1.3749743e+3, 2.4508743e+2, -568037.7, -574993.94, -14360.832, -0.029002812, -0.18678634, -556739.75, -18613.469, 0.0, 9.999893, 9.999803 
1.3749638e+3, 2.5508738e+2, -471975.56, -474523.66, -17401.146, -0.017094057, -0.17499895, -455801.88, -15675.838, 0.0, 9.999866, 9.999833 
1.3749532e+3, 2.6508716e+2, -382786.63, -399440.28, -24522.057, -0.013389625, -0.1719506, -365216.22, -23088.342, 0.0, 9.999886, 9.999665 
1.3749424e+3, 2.7508676e+2, -272814.8, -292077.6, -20376.102, -0.017185835, -0.17922725, -259908.48, -15777.257, 0.0, 9.999952, 9.999698 
1.374932e+3, 2.8508618e+2, -183439.95, -225237.03, -10324.207, -0.005773401, -0.19561815, -181028.88, -34893.44, 0.0, 10.00001, 9.999455 
1.3749215e+3, 2.9508537e+2, -79617.04, -126683.83, -15629.192, 0.019217882, -0.22529794, -74899.91, -26759.602, 0.0, 10.000059, 9.999435 
1.3749109e+3, 3.0508366e+2, -91533.08, -199245.39, -1679.5846, -0.011946171, -0.29399732, -91506.9, -91506.9, 0.0, 10.000038, 9.998612 
1.3749005e+3, 3.150829e+2, 40704.4, 96365.34, 4982.695, -0.034428045, -0.23663813, 96807.87, 96807.87, 0.0, 9.999948, 10.000688 
1.3850936e+3, 1.251019e+2, -1697840.5, -1747374.8, -21738.557, 0.0010182494, -0.10178773, -1689653.5, 24339.068, 0.0051032617, 10.000297, 9.999634 
1.3850845e+3, 1.351021e+2, -1557900.5, -1583894.9, 54509.707, -0.012662615, -0.08392478, -1514859.9, 101131.12, 0.003057239, 10.000385, 10.000043 
1.3850753e+3, 1.4510176e+2, -1472952.6, -1502513.4, 15790.692, -0.008061077, -0.11560368, -1466104.1, 51889.89, 0.0013467348, 10.00034, 9.999947 
1.3850656e+3, 1.551019e+2, -1399399.1, -1415340.1, 7988.8145, 0.019146474, -0.09771714, -1396084.6, 23907.244, 0.0003509688, 10.000169, 9.999955 
1.3850558e+3, 1.6510183e+2, -1336167.9, -1364418.5, 9130.14, 0.016154444, -0.08608108, -1333474.0, -11481.599, 0.000029813278, 10.00006, 9.999685 
1.3850458e+3, 1.7510156e+2, -1242730.8, -1265111.9, 8865.708, -0.00897633, -0.08390211, -1239644.5, -15649.285, 0.000000039188958, 10.000013, 9.999716 
1.3850358e+3, 1.8510102e+2, -1167607.5, -1201202.3, 975.9619, -0.018953238, -0.09772027, -1167579.3, -41579.31, 0.0, 9.999955, 9.999511 
1.3850258e+3, 1.9510025e+2, -1077400.4, -1103296.1, 2939.7024, -0.01657338, -0.12872522, -1077070.9, -49064.793, 0.0, 9.9998865, 9.999543 
1.3850157e+3, 2.0509963e+2, -977053.44, -995930.2, -9905.898, -0.015421557, -0.14844915, -972809.3, -42798.902, 0.0, 9.9998665, 9.999617 
1.3850053e+3, 2.1509916e+2, -872733.7, -891417.7, -8383.939, -0.014315564, -0.16003293, -869523.25, -37510.67, 0.0, 9.999895, 9.999647 
1.3849948e+3, 2.2509862e+2, -783625.9, -812644.3, -1731.7524, -0.0180227, -0.16933466, -783522.9, -49506.33, 0.0, 9.999899, 9.999514 
1.3849846e+3, 2.3509808e+2, -686059.5, -711110.2, -1695.6166, -0.02694113, -0.17824343, -685945.25, -49923.42, 0.0, 9.99988, 9.999547 
1.3849743e+3, 2.4509765e+2, -576000.94, -586788.8, -16350.075, -0.026015736, -0.18340664, -564178.0, -26152.19, 0.0, 9.999875, 9.99973 
1.3849637e+3, 2.550974e+2, -474539.72, -483630.03, -19554.545, -0.015731597, -0.18751828, -459009.03, -18980.908, 0.0, 9.999884, 9.999762 
1.3849531e+3, 2.6509714e+2, -368732.84, -388467.4, -25380.584, -0.015895281, -0.1823878, -351368.94, -9338.957, 0.0, 9.999966, 9.9997015 
1.3849422e+3, 2.7509698e+2, -246125.23, -275025.56, -27490.074, -0.025724826, -0.17044795, -229518.81, 14512.079, 0.0, 10.000119, 9.999734 
1.3849318e+3, 2.8509638e+2, -163607.64, -218805.1, -20718.992, -0.014420404, -0.1891697, -156695.98, -10660.716, 0.0, 10.000161, 9.999426 
1.3849217e+3, 2.950953e+2, -76693.54, -128614.94, -18214.75, 0.016297212, -0.24131058, -70940.914, -22898.168, 0.0, 10.000095, 9.999404 
1.384911e+3, 3.050937e+2, -80977.65, -190918.36, -4481.2764, -0.011272442, -0.29897118, -80795.3, -80795.3, 0.0, 10.000098, 9.99864 
1.3849007e+3, 3.15093e+2, 77412.6, 121248.9, -4812.3257, -0.02915905, -0.24172184, 121770.98, 121770.98, 0.0, 10.000171, 10.00075 
1.3950938e+3, 1.2511213e+2, -1703915.4, -1761118.6, -20911.582, 0.005803649, -0.10737401, -1697086.1, 16805.268, 0.005300489, 10.000299, 9.999538 
1.3950849e+3, 1.3511238e+2, -1561493.6, -1592182.6, 56784.594, -0.015826622, -0.079649866, -1518016.9, 97872.78, 0.0031755816, 10.000387, 9.999986 
1.3950756e+3, 1.45112e+2, -1479646.4, -1517108.4, 8413.139, -0.0055397246, -0.10720632, -1477843.8, 40049.625, 0.0013999565, 10.000342, 9.999846 
1.3950658e+3, 1.5511188e+2, -1405802.1, -1429631.8, 865.5372, 0.014963944, -0.105726585, -1405770.6, 14123.424, 0.0003674642, 10.000172, 9.999857 
1.3950558e+3, 1.6511169e+2, -1336804.4, -1366891.4, 6756.9395, 0.010807873, -0.09818692, -1335356.6, -13460.902, 0.00003219316, 10.000063, 9.999667 
1.3950458e+3, 1.7511153e+2, -1243316.8, -1267426.8, 6659.4365, -0.009284204, -0.08668251, -1241599.6, -17702.139, 0.00000005013657, 10.000017, 9.9997 
1.3950358e+3, 1.8511109e+2, -1163036.5, -1192700.1, -2003.7555, -0.017924894, -0.09151658, -1162901.8, -37000.656, 0.0, 9.999958, 9.999568 
1.3950257e+3, 1.9511046e+2, -1072877.3, -1094871.1, 146.20808, -0.018115563, -0.11465555, -1072876.3, -44970.15, 0.0, 9.999889, 9.9996 
1.3950156e+3, 2.051098e+2, -973452.0, -989413.4, -8995.92, -0.020269185, -0.14104664, -969407.0, -39496.41, 0.0, 9.999869, 9.9996605 
1.3950051e+3, 2.151092e+2, -869196.3, -885041.6, -7317.15, -0.022999987, -0.17278719, -866334.3, -34420.258, 0.0, 9.999898, 9.999691 
1.3949947e+3, 2.2510867e+2, -782321.5, -810911.0, -2348.6877, -0.023179311, -0.18235616, -782129.9, -48212.266, 0.0, 9.999902, 9.999525 
1.3949844e+3, 2.3510833e+2, -684749.44, -709293.3, -2138.6829, -0.0214149, -0.17275311, -684564.44, -48643.72, 0.0, 9.999882, 9.999559 
1.3949741e+3, 2.4510787e+2, -580882.3, -597748.7, -15642.296, -0.018266233, -0.17658356, -571544.75, -33619.742, 0.0, 9.999877, 9.999655 
1.3949636e+3, 2.551074e+2, -479423.66, -494514.1, -18617.076, -0.014015671, -0.19580062, -466880.94, -26951.055, 0.0, 9.999885, 9.999686 
1.394953e+3, 2.6510707e+2, -371825.63, -395592.75, -18921.035, -0.016650332, -0.19491321, -361365.84, -19433.035, 0.0, 9.999968, 9.999653 
1.3949424e+3, 2.751069e+2, -249020.13, -281722.2, -21076.7, -0.02548745, -0.17670035, -238695.63, 5237.7134, 0.0, 10.000121, 9.999688 
1.3949318e+3, 2.8510633e+2, -158114.14, -208072.69, -22435.209, -0.023391923, -0.19409938, -149518.08, -3580.6648, 0.0, 10.000162, 9.9995 
1.3949214e+3, 2.951053e+2, -71601.79, -118616.57, -19993.395, -0.011798234, -0.24877292, -64249.285, -16304.717, 0.0, 10.000096, 9.999473 
1.394911e+3, 3.0510387e+2, -86611.484, -203316.2, -951.544, -0.027177801, -0.28724828, -86603.73, -86603.73, 0.0, 10.0001, 9.998555 
1.3949011e+3, 3.1510305e+2, 73462.43, 111957.91, -137.9923, 0.00012770212, -0.23565386, 111958.4, 111958.4, 0.0, 10.000174, 10.000686 
1.4050944e+3, 1.2512232e+2, -1661080.9, -1746222.9, -33162.965, 0.010836905, -0.10249183, -1649688.3, 64103.24, 0.0055082403, 10.000623, 9.999484 
1.4050852e+3, 1.3512248e+2, -1565842.4, -1596501.6, 47303.066, -0.013394664, -0.08024181, -1531447.0, 84343.445, 0.0033006065, 10.000368, 9.999965 
1.4050761e+3, 1.4512214e+2, -1499145.4, -1533636.1, 1115.7021, 0.0033509007, -0.10021369, -1499109.4, 18684.613, 0.0014556336, 10.00024, 9.999782 
1.405066e+3, 1.55122e+2, -1400003.0, -1433609.8, -3814.9846, 0.01232899, -0.09576351, -1399575.4, 20220.004, 0.00038406154, 10.000242, 9.999794 
1.405056e+3, 1.6512175e+2, -1318058.3, -1357006.8, 4307.418, 0.0037924512, -0.09253939, -1317587.6, 4210.0396, 0.00003454216, 10.00019, 9.999673 
1.4050458e+3, 1.7512146e+2, -1233222.4, -1261829.3, 5464.7944, -0.012840584, -0.09154321, -1232214.0, -8413.964, 0.00000006103049, 10.000084, 9.999704 
1.4050357e+3, 1.8512103e+2, -1158671.1, -1187211.8, -4320.9976, -0.018559141, -0.09702359, -1158031.3, -32227.73, 0.0, 9.999975, 9.999597 
1.4050256e+3, 1.9512053e+2, -1074439.3, -1092216.6, -4538.6226, -0.016724741, -0.11141295, -1073347.5, -45540.055, 0.0, 9.999865, 9.999629 
1.4050154e+3, 2.0511994e+2, -973155.8, -988490.1, -10466.439, -0.019003166, -0.1342955, -967848.7, -38037.156, 0.0, 9.999869, 9.999666 
1.405005e+3, 2.1511929e+2, -856333.06, -878132.1, -12030.708, -0.02391471, -0.16763122, -850998.75, -19183.588, 0.0, 9.999985, 9.999696 
1.4049947e+3, 2.2511874e+2, -767900.56, -799962.7, -13049.97, -0.023249403, -0.18321894, -763260.44, -29441.592, 0.0, 9.999985, 9.999559 
1.4049844e+3, 2.3511833e+2, -683707.6, -705098.94, -11503.186, -0.017596915, -0.18383084, -678695.94, -42873.8, 0.0, 9.999875, 9.999591 
1.404974e+3, 2.451179e+2, -585495.5, -606983.2, -19575.64, -0.014900294, -0.18485951, -573909.2, -36082.875, 0.0, 9.999877, 9.999591 
1.4049634e+3, 2.551175e+2, -469379.6, -496615.16, -22133.123, -0.015301099, -0.1889387, -457010.47, -17179.664, 0.0, 9.999986, 9.999623 
1.404953e+3, 2.6511708e+2, -359728.0, -390184.2, -19350.477, -0.019115845, -0.1913668, -350332.2, -8497.868, 0.0, 10.000053, 9.999647 
1.4049426e+3, 2.7511674e+2, -254713.4, -284906.9, -18670.969, -0.02577445, -0.19409417, -245799.39, -1963.0597, 0.0, 10.000085, 9.999682 
1.404932e+3, 2.851161e+2, -160901.84, -213077.33, -25314.11, -0.026828596, -0.21036732, -150638.88, -4798.2505, 0.0, 10.00016, 9.999466 
1.4049216e+3, 2.9511532e+2, -47385.28, -110690.88, -31325.387, -0.023772335, -0.24223612, -34505.176, 13341.497, 0.0, 10.00028, 9.999438 
1.404911e+3, 3.0511403e+2, -62051.805, -191791.31, -15050.35, -0.032977827, -0.26426506, -60328.78, -60328.78, 0.0, 10.000272, 9.998551 
1.4049014e+3, 3.1511283e+2, 69413.42, 110433.0, -6965.3267, 0.017412819, -0.24869363, 111583.48, 111583.48, 0.0, 10.000146, 10.000688 
1.415095e+3, 1.2513252e+2, -1662684.5, -1749679.9, -44064.984, 0.015713213, -0.08783055, -1644264.8, 69427.36, 0.0057284734, 10.000622, 9.999462 
1.4150856e+3, 1.3513249e+2, -1564923.9, -1595659.8, 36919.57, -0.00564647, -0.08558318, -1540301.5, 75391.42, 0.00343434, 10.000372, 9.9999695 
1.4150764e+3, 1.4513223e+2, -1500860.4, -1538509.1, 140.75642, 0.01833295, -0.09452197, -1500859.9, 16835.783, 0.001515353, 10.000244, 9.999747 
1.4150661e+3, 1.5513228e+2, -1401515.3, -1437909.9, -4370.245, 0.011089892, -0.06822906, -1400997.9, 18697.723, 0.00040130108, 10.000245, 9.999764 
1.4150558e+3, 1.6513197e+2, -1315956.3, -1353701.1, -177.98811, -0.004994515, -0.06959351, -1315955.4, 5742.7017, 0.000036934056, 10.000193, 9.999695 
1.4150457e+3, 1.7513141e+2, -1231243.4, -1258764.0, 1039.8696, -0.019679194, -0.098458536, -1231204.1, -7501.464, 0.00000007226826, 10.000087, 9.999725 
1.4150356e+3, 1.851309e+2, -1158445.4, -1187825.8, -8847.003, -0.02087903, -0.11400027, -1155987.1, -30280.307, 0.0, 9.999978, 9.999592 
1.4150254e+3, 1.9513048e+2, -1074205.3, -1092852.9, -8794.1, -0.012520358, -0.118950665, -1070712.3, -43002.266, 0.0, 9.999868, 9.999624 
1.4150153e+3, 2.0513e+2, -975199.5, -993792.2, -6237.1177, -0.011792711, -0.12826417, -973301.06, -43587.836, 0.0, 9.999873, 9.999629 
1.415005e+3, 2.1512948e+2, -858363.44, -883332.9, -7782.9844, -0.01718886, -0.144581, -856136.1, -24420.31, 0.0, 9.999988, 9.99966 
1.4149947e+3, 2.2512883e+2, -763942.5, -792683.9, -16997.576, -0.018340742, -0.17198493, -756054.8, -22334.44, 0.0, 9.999988, 9.999609 
1.4149843e+3, 2.3512807e+2, -679955.4, -698166.4, -15236.016, -0.015582832, -0.2116712, -671311.3, -35585.117, 0.0, 9.999877, 9.999639 
1.4149739e+3, 2.4512766e+2, -589259.2, -615629.75, -15026.709, -0.016052546, -0.20829035, -582453.1, -44723.223, 0.0, 9.999879, 9.999531 
1.4149635e+3, 2.5512767e+2, -473023.38, -504981.06, -17507.63, -0.019752612, -0.1665304, -465299.06, -25567.936, 0.0, 9.999988, 9.999565 
1.414953e+3, 2.6512724e+2, -357095.63, -385457.53, -17511.059, -0.023467114, -0.17147222, -348743.6, -7008.8105, 0.0, 10.000055, 9.99968 
1.4149426e+3, 2.7512643e+2, -252488.53, -280844.6, -16700.094, -0.026908329, -0.22304937, -244759.72, -1019.50397, 0.0, 10.000086, 9.999711 
1.4149322e+3, 2.8512576e+2, -171076.53, -234717.1, -20016.174, -0.024930112, -0.23826648, -165304.56, -19559.27, 0.0, 10.000161, 9.999318 
1.4149217e+3, 2.9512528e+2, -57324.19, -132060.22, -26262.342, -0.019199569, -0.22108544, -49018.59, -1269.0986, 0.0, 10.000282, 9.999291 
1.4149114e+3, 3.051241e+2, -56500.527, -181020.08, -19249.908, -0.028510666, -0.22959237, -53592.527, -53592.527, 0.0, 10.000274, 9.998625 
1.4149016e+3, 3.151223e+2, 74145.58, 119728.14, -9598.537, 0.02136217, -0.27999768, 121666.89, 121666.89, 0.0, 10.000146, 10.000752 
1.4250956e+3, 1.2514256e+2, -1683080.0, -1758362.6, -42535.11, 0.018834176, -0.08961581, -1663922.5, 49671.17, 0.005965021, 10.000477, 9.999471 
1.4250861e+3, 1.351425e+2, -1539144.3, -1580133.8, 39506.145, -0.010222097, -0.09416804, -1515133.1, 100461.74, 0.0035795863, 10.000537, 9.999995 
1.4250767e+3, 1.4514236e+2, -1465054.4, -1519550.4, 5623.672, 0.021785423, -0.093481824, -1464480.1, 53116.457, 0.0015810293, 10.000485, 9.99976 
1.4250666e+3, 1.5514246e+2, -1387050.4, -1429358.5, 4308.8115, 0.009864943, -0.062826395, -1386616.0, 32979.777, 0.00041995206, 10.0003395, 9.999777 
1.4250562e+3, 1.6514212e+2, -1317670.8, -1360251.3, 5318.221, -0.0070927385, -0.0650819, -1317016.6, 4582.161, 0.000039492217, 10.000208, 9.999642 
1.4250459e+3, 1.7514147e+2, -1234774.9, -1265936.0, 725.6913, -0.018173441, -0.09947565, -1234757.9, -11153.411, 0.00000008454083, 10.000089, 9.999674 
1.4250356e+3, 1.8514091e+2, -1147097.0, -1179343.3, -8258.352, -0.01881758, -0.116079, -1145105.0, -19496.172, 0.0, 10.000045, 9.999618 
1.4250255e+3, 1.9514056e+2, -1042679.06, -1074655.1, -6222.883, -0.013099369, -0.11796843, -1041510.7, -13899.345, 0.0, 10.000073, 9.999649 
1.4250153e+3, 2.0514008e+2, -952910.4, -984168.44, -207.90546, -0.011730994, -0.12595797, -952909.0, -23294.758, 0.0, 10.000032, 9.999618 
1.425005e+3, 2.1513957e+2, -868103.25, -889079.94, -90.226, -0.013251549, -0.1424725, -868102.9, -36485.926, 0.0, 9.999927, 9.999648 
1.4249948e+3, 2.2513887e+2, -776764.5, -802431.7, -12533.178, -0.015669677, -0.17231622, -771659.8, -38037.855, 0.0, 9.999916, 9.999576 
1.4249842e+3, 2.3513803e+2, -665055.8, -694469.44, -17436.184, -0.019125165, -0.21660829, -656952.3, -21323.678, 0.0, 9.999995, 9.999606 
1.4249739e+3, 2.4513762e+2, -567380.3, -604163.94, -15616.004, -0.019175844, -0.21384408, -561645.0, -24012.615, 0.0, 10.000027, 9.999537 
1.4249635e+3, 2.5513765e+2, -469186.38, -502239.25, -13382.242, -0.016166277, -0.16878207, -464447.63, -24814.875, 0.0, 10.000011, 9.999572 
1.4249532e+3, 2.6513717e+2, -358978.25, -390278.72, -13075.687, -0.01955792, -0.17510238, -354234.78, -12598.316, 0.0, 10.00006, 9.999644 
1.4249428e+3, 2.7513626e+2, -242651.28, -280046.34, -17876.594, -0.028636811, -0.23296009, -235480.48, 8162.2915, 0.0, 10.000172, 9.999674 
1.4249323e+3, 2.8513557e+2, -170201.3, -240172.84, -21534.8, -0.026205866, -0.25008494, -164104.81, -18456.057, 0.0, 10.000194, 9.999264 
1.424922e+3, 2.9513508e+2, -82826.09, -150422.92, -20916.281, -0.014386035, -0.22957864, -76877.516, -29223.775, 0.0, 10.000134, 9.999236 
1.4249116e+3, 3.0513406e+2, -78751.73, -186996.58, -15448.937, -0.024675999, -0.21770112, -76589.99, -76589.99, 0.0, 10.000101, 9.998666 
1.4249018e+3, 3.1513223e+2, 68526.805, 118871.305, -7153.6655, 0.019631164, -0.27788025, 119868.06, 119868.06, 0.0, 10.000101, 10.000767 
1.4350963e+3, 1.2515253e+2, -1680058.6, -1753221.9, -40586.633, 0.019960867, -0.10763392, -1662000.6, 51495.125, 0.006222031, 10.000481, 9.999505 
1.4350864e+3, 1.3515258e+2, -1535704.4, -1573888.5, 40636.926, -0.026908364, -0.10585452, -1509898.0, 105598.05, 0.0037388622, 10.00054, 10.000038 
1.4350772e+3, 1.4515255e+2, -1461034.5, -1512043.3, -936.2783, 0.0139141865, -0.09710143, -1461017.4, 56479.03, 0.0016542807, 10.000487, 9.999811 
1.4350668e+3, 1.5515259e+2, -1383092.9, -1422309.5, -1839.6548, 0.008592349, -0.07901869, -1383006.8, 36489.137, 0.00044086375, 10.000343, 9.999825 
1.4350563e+3, 1.6515224e+2, -1326323.9, -1379441.1, 173.01413, -0.0026855513, -0.07845326, -1326323.3, -4824.0107, 0.000042391872, 10.000212, 9.99951 
1.4350462e+3, 1.7515162e+2, -1243090.8, -1284380.8, -4111.6567, -0.00853207, -0.09469858, -1242685.3, -19179.838, 0.00000010052836, 10.000092, 9.999547 
1.4350358e+3, 1.8515113e+2, -1142957.6, -1171861.9, -7492.1694, -0.012577229, -0.103628, -1141131.0, -15621.442, 0.0, 10.000048, 9.999668 
1.4350255e+3, 1.9515078e+2, -1038742.3, -1067539.8, -5399.7437, -0.018546754, -0.108598396, -1037763.1, -10251.755, 0.0, 10.000076, 9.999698 
1.4350152e+3, 2.0515022e+2, -951661.06, -982576.2, -4281.1094, -0.01882446, -0.12735409, -951079.1, -21564.615, 0.0, 10.000034, 9.999628 
1.435005e+3, 2.1514955e+2, -866945.4, -887662.44, -3917.3064, -0.012152987, -0.16130716, -866229.4, -34710.938, 0.0, 9.999929, 9.999658 
1.4349946e+3, 2.2514887e+2, -784824.44, -820145.1, -9326.651, -0.015358276, -0.18414304, -782512.94, -48989.3, 0.0, 9.999919, 9.999454 
1.434984e+3, 2.351482e+2, -672992.4, -711879.6, -14141.722, -0.028417233, -0.19834016, -668393.5, -32863.96, 0.0, 9.999998, 9.999486 
1.4349738e+3, 2.451477e+2, -561982.9, -593876.94, -15708.605, -0.02443391, -0.20141861, -555545.3, -18011.564, 0.0, 10.000029, 9.999608 
1.4349636e+3, 2.551474e+2, -464174.5, -492627.84, -13310.519, -0.0046049077, -0.19627373, -458918.7, -19382.695, 0.0, 10.000013, 9.999638 
1.4349532e+3, 2.651469e+2, -366439.03, -406458.9, -8070.2446, -0.0074265134, -0.20262015, -364872.9, -23333.201, 0.0, 10.000062, 9.999533 
1.434943e+3, 2.7514628e+2, -249967.34, -295885.34, -12911.576, -0.031057548, -0.22310464, -246585.8, -3041.482, 0.0, 10.000173, 9.999565 
1.4349325e+3, 2.8514546e+2, -167300.03, -234687.81, -23098.227, -0.030905634, -0.2453928, -160142.89, -14591.539, 0.0, 10.000195, 9.999302 
1.4349222e+3, 2.9514456e+2, -80373.05, -145629.67, -22506.174, -0.009859161, -0.2689021, -73363.82, -25803.893, 0.0, 10.0001335, 9.9992695 
1.4349118e+3, 3.0514386e+2, -78775.875, -187230.9, -14685.099, -0.022009645, -0.22939777, -76822.65, -76822.65, 0.0, 10.000101, 9.998665 
1.4349018e+3, 3.1514254e+2, 65734.57, 112742.305, -4840.853, 0.011811654, -0.23881586, 113235.64, 113235.64, 0.0, 10.000101, 10.000726 
1.4450967e+3, 1.251627e+2, -1646052.6, -1740416.9, -28422.482, 0.011235051, -0.1181293, -1638153.1, 75242.66, 0.006501599, 10.000733, 9.99947 
1.4450869e+3, 1.3516286e+2, -1540227.3, -1580356.3, 44875.023, -0.031375535, -0.10164739, -1511135.4, 104260.14, 0.003913358, 10.000528, 9.999998 
1.4450778e+3, 1.4516295e+2, -1469095.0, -1515525.3, -1596.2611, 0.02251965, -0.08200678, -1469040.3, 48354.746, 0.0017359345, 10.000432, 9.999813 
1.4450672e+3, 1.5516281e+2, -1366835.1, -1414097.5, -6188.636, 0.010362069, -0.07966573, -1366038.3, 53357.574, 0.000464682, 10.000455, 9.9998255 
1.4450566e+3, 1.651624e+2, -1306199.3, -1375654.6, -6449.826, -0.002333582, -0.08203995, -1305605.4, 15794.407, 0.000045794342, 10.000377, 9.9994545 
1.4450462e+3, 1.7516184e+2, -1230754.6, -1284371.0, -5447.3447, -0.003685559, -0.08825091, -1230206.8, -6800.9673, 0.00000012546444, 10.000204, 9.999492 
1.445036e+3, 1.8516134e+2, -1134214.3, -1167523.1, -2959.5337, -0.0072512776, -0.09451824, -1133953.4, -8543.385, 0.0, 10.00011, 9.999667 
1.4450255e+3, 1.9516094e+2, -1036856.5, -1066536.0, -4998.017, -0.016906042, -0.10427688, -1036037.44, -8625.603, 0.0, 10.000091, 9.999697 
1.4450152e+3, 2.0516032e+2, -948319.25, -981125.06, -9426.78, -0.02040983, -0.12888232, -945803.4, -16388.014, 0.0, 10.00006, 9.999625 
1.445005e+3, 2.151596e+2, -854613.56, -882141.2, -10373.941, -0.016262323, -0.16924982, -851141.94, -19722.102, 0.0, 10.000017, 9.999653 
1.4449945e+3, 2.2515891e+2, -776133.4, -822501.25, -9632.439, -0.017314672, -0.18683755, -774212.0, -40786.93, 0.0, 10.000008, 9.999393 
1.4449841e+3, 2.3515835e+2, -672540.94, -718104.5, -10186.204, -0.023958458, -0.18505219, -670367.44, -34936.934, 0.0, 10.0000305, 9.999427 
1.444974e+3, 2.4515781e+2, -555634.8, -583435.4, -12143.447, -0.018632898, -0.19291, -551077.56, -13642.711, 0.0, 10.000042, 9.999673 
1.4449637e+3, 2.5515732e+2, -455566.1, -481403.13, -10552.79, -0.002217074, -0.21197668, -451803.78, -12366.224, 0.0, 10.000043, 9.9997 
1.4449534e+3, 2.6515678e+2, -375382.16, -419439.6, -2326.7576, -0.0051127016, -0.22260112, -375259.63, -33818.06, 0.0, 10.000039, 9.9994545 
1.444943e+3, 2.7515623e+2, -275937.16, -316762.2, -5044.947, -0.02568671, -0.22864263, -275322.97, -31876.764, 0.0, 10.000031, 9.99949 
1.4449327e+3, 2.851554e+2, -179278.75, -234200.44, -14421.018, -0.02660257, -0.250448, -175722.45, -30268.904, 0.0, 10.000087, 9.999357 
1.4449224e+3, 2.9515445e+2, -66958.016, -133180.16, -12899.685, -0.010502971, -0.28605804, -64533.965, -17071.408, 0.0, 10.000201, 9.999322 
1.4449118e+3, 3.0515397e+2, -75112.59, -183523.89, -9540.638, -0.022875987, -0.22694412, -74279.38, -74279.38, 0.0, 10.000119, 9.998681 
1.4449017e+3, 3.1515273e+2, 28246.738, 90289.555, 2925.8894, 0.016214231, -0.22932261, 90427.23, 90427.23, 0.0, 9.999864, 10.000686 
1.4550972e+3, 1.2517315e+2, -1653513.4, -1756788.8, -35452.39, -0.0075318143, -0.12234516, -1642514.6, 70778.73, 0.0068028797, 10.000735, 9.999357 
1.4550875e+3, 1.3517341e+2, -1548427.4, -1598677.3, 36167.7, -0.024069019, -0.08199774, -1529514.1, 85778.61, 0.004102922, 10.000532, 9.999871 
1.4550784e+3, 1.4517353e+2, -1472033.5, -1522972.4, -1946.2794, 0.047007814, -0.048663333, -1471959.3, 45332.88, 0.0018261482, 10.000436, 9.999761 
1.4550677e+3, 1.5517315e+2, -1369641.8, -1421024.9, -6147.3037, 0.014948476, -0.065265365, -1368916.5, 50378.668, 0.00049169204, 10.000458, 9.999777 
1.455057e+3, 1.6517265e+2, -1304756.0, -1373737.8, -13592.8545, -0.006056747, -0.07618287, -1302174.1, 19125.883, 0.0000497536, 10.00038, 9.999467 
1.4550465e+3, 1.7517212e+2, -1229483.3, -1282954.8, -12283.472, -0.0036355956, -0.080147885, -1226796.5, -3491.078, 0.00000016567238, 10.000208, 9.9995 
1.455036e+3, 1.8517157e+2, -1137505.6, -1175589.6, -4046.52, -0.0028824694, -0.08861658, -1137080.4, -11770.571, 0.0, 10.0001135, 9.999611 
1.4550258e+3, 1.9517106e+2, -1040046.1, -1074277.3, -5872.1895, -0.008323011, -0.104970254, -1039066.75, -11754.013, 0.0, 10.000094, 9.999642 
1.4550152e+3, 2.0517041e+2, -949450.9, -984490.7, -11108.052, -0.016666792, -0.13054758, -946226.25, -16909.498, 0.0, 10.000063, 9.999601 
1.4550048e+3, 2.1516968e+2, -855793.75, -885535.4, -11867.06, -0.025696347, -0.16629829, -851639.1, -20318.057, 0.0, 10.00002, 9.999629 
1.4549945e+3, 2.2516903e+2, -775930.56, -823035.2, -8566.656, -0.021587878, -0.18043289, -774421.0, -41094.79, 0.0, 10.0000105, 9.99939 
1.4549844e+3, 2.3516849e+2, -672197.44, -718346.1, -8976.526, -0.005728918, -0.17688699, -670512.9, -35181.21, 0.0, 10.000033, 9.999425 
1.4549741e+3, 2.4516794e+2, -551514.6, -575759.2, -11588.719, -0.0018194495, -0.18834898, -546866.44, -9530.771, 0.0, 10.000044, 9.999725 
1.4549637e+3, 2.5516742e+2, -451635.2, -473938.97, -9815.307, -0.009242863, -0.21555924, -447930.94, -8593.226, 0.0, 10.000044, 9.999751 
1.4549534e+3, 2.651668e+2, -378620.63, -426766.4, -1855.204, -0.012847079, -0.23490249, -378549.25, -37206.918, 0.0, 10.00004, 9.999404 
1.4549431e+3, 2.7516606e+2, -279197.75, -324008.84, -4443.3237, -0.012626762, -0.25017, -278761.44, -35412.574, 0.0, 10.000032, 9.99944 
1.4549328e+3, 2.8516534e+2, -174229.84, -224256.3, -9131.157, -0.013400389, -0.26555502, -172615.27, -27259.57, 0.0, 10.000087, 9.999426 
1.4549226e+3, 2.9516464e+2, -61885.96, -123330.6, -7950.913, -0.016481856, -0.28015622, -60873.79, -13511.837, 0.0, 10.000203, 9.999391 
1.4549118e+3, 3.0516434e+2, -73049.43, -179684.22, -18538.023, -0.027365217, -0.20990591, -69918.59, -69918.59, 0.0, 10.000119, 9.998709 
1.4549018e+3, 3.1516275e+2, 24898.186, 83470.445, -4185.3066, 0.032742564, -0.24920367, 83767.99, 83767.99, 0.0, 9.999862, 10.00064 
1.465098e+3, 1.2518363e+2, -1649111.1, -1756946.6, -41307.09, 0.0008214626, -0.1126699, -1635106.9, 78084.29, 0.0071233953, 10.000778, 9.999335 
1.4650881e+3, 1.351838e+2, -1520074.5, -1590683.0, 32808.402, -0.025438588, -0.076166674, -1507183.5, 108007.695, 0.004306822, 10.000754, 9.999818 
1.465079e+3, 1.4518392e+2, -1448541.6, -1523495.1, -3548.2356, 0.054211892, -0.036712933, -1448374.0, 68816.94, 0.0019247683, 10.000651, 9.999653 
1.4650683e+3, 1.5518336e+2, -1371806.9, -1433483.8, -12023.083, 0.020426262, -0.058787484, -1369546.0, 49650.207, 0.0005218786, 10.000494, 9.999673 
1.4650574e+3, 1.6518283e+2, -1297919.3, -1362833.0, -21512.973, -0.0029266856, -0.07053392, -1291437.0, 29764.148, 0.0000541964, 10.000396, 9.999534 
1.4650467e+3, 1.751824e+2, -1204523.4, -1263515.1, -16528.88, -0.0025903794, -0.070705585, -1200207.9, 22997.123, 0.00000022299002, 10.000349, 9.999565 
1.4650363e+3, 1.8518184e+2, -1118467.4, -1168423.4, -4072.1182, -0.0015182568, -0.08253333, -1118137.6, 7071.473, 0.0, 10.000255, 9.999591 
1.4650258e+3, 1.9518122e+2, -1038445.44, -1075741.6, -3482.2522, -0.0046485527, -0.10875177, -1038123.06, -10910.115, 0.0, 10.000116, 9.99962 
1.4650154e+3, 2.051805e+2, -958060.44, -996956.75, -8075.66, -0.013827107, -0.1359012, -956450.44, -27232.693, 0.0, 10.000041, 9.999525 
1.4650048e+3, 2.1517977e+2, -860256.25, -895864.0, -13123.126, -0.026663952, -0.16559038, -855942.4, -24719.746, 0.0, 10.000026, 9.999554 
1.4649945e+3, 2.2517912e+2, -772588.75, -816394.7, -8980.754, -0.021365114, -0.17632078, -770819.06, -37591.355, 0.0, 10.000013, 9.9994335 
1.4649846e+3, 2.3517863e+2, -673618.1, -713869.8, -6083.554, 0.0003493878, -0.17203405, -672718.75, -37486.367, 0.0, 10.000002, 9.99947 
1.4649743e+3, 2.4517806e+2, -551950.1, -572962.9, -7435.179, 0.0046187323, -0.1891404, -549585.4, -12349.102, 0.0, 10.00003, 9.999751 
1.4649637e+3, 2.5517747e+2, -443327.44, -466881.75, -8154.7266, -0.007553345, -0.22768833, -440779.75, -1540.9917, 0.0, 10.00009, 9.999778 
1.4649534e+3, 2.6517686e+2, -366636.03, -415104.25, 490.8736, -0.013472476, -0.24715526, -366631.06, -25388.201, 0.0, 10.000098, 9.999455 
1.4649433e+3, 2.751763e+2, -271660.72, -314621.88, 5285.1685, -0.013210127, -0.25248227, -271020.1, -27772.143, 0.0, 10.00006, 9.999491 
1.464933e+3, 2.851756e+2, -187244.23, -231642.88, 2797.0916, -0.010680928, -0.2664941, -187068.7, -41814.06, 0.0, 10.000004, 9.999414 
1.4649226e+3, 2.9517484e+2, -101885.5, -143535.95, -2571.888, -0.0076830583, -0.28664815, -101727.29, -54465.45, 0.0, 9.999933, 9.99938 
1.464912e+3, 3.0517465e+2, -101553.234, -184364.63, -20121.678, -0.0180798, -0.20736614, -96922.92, -96922.92, 0.0, 9.999886, 9.998788 
1.4649017e+3, 3.15173e+2, 25537.266, 82822.41, -182.7614, 0.03743437, -0.2609231, 82822.99, 82822.99, 0.0, 9.999871, 10.00063 
1.4750992e+3, 1.2519418e+2, -1644384.1, -1748747.3, -40160.477, 0.034754314, -0.09034153, -1630719.0, 82369.65, 0.007461449, 10.000784, 9.99939 
1.4750889e+3, 1.3519408e+2, -1518529.3, -1588635.6, 30698.36, -0.035430018, -0.083982475, -1506987.3, 108103.17, 0.0045245043, 10.000758, 9.999831 
1.4750797e+3, 1.451941e+2, -1459994.4, -1548284.4, -10630.045, 0.04453745, -0.045680493, -1458732.6, 58358.52, 0.0020316239, 10.000653, 9.999482 
1.4750688e+3, 1.5519346e+2, -1382786.9, -1457423.0, -18448.576, 0.02674196, -0.059945002, -1378475.8, 40622.48, 0.0005551441, 10.000498, 9.999508 
1.4750579e+3, 1.6519298e+2, -1289392.4, -1346356.5, -23812.197, 0.0068250876, -0.06499834, -1280749.6, 40353.28, 0.000059017875, 10.0004, 9.999645 
1.4750472e+3, 1.751927e+2, -1196106.1, -1247193.0, -18739.537, -0.0007016266, -0.060019135, -1189969.4, 33134.883, 0.0000002932695, 10.000353, 9.999676 
1.4750364e+3, 1.8519215e+2, -1117157.3, -1166814.1, -9642.967, -0.003226015, -0.076350674, -1115350.4, 9757.209, 0.0, 10.0002575, 9.999601 
1.475026e+3, 1.9519141e+2, -1037459.8, -1074830.3, -8786.555, -0.005889945, -0.1155816, -1035497.0, -8384.631, 0.0, 10.000119, 9.999626 
1.4750154e+3, 2.051906e+2, -966968.75, -1016530.56, -8759.202, -0.011939423, -0.14492227, -965466.25, -36347.945, 0.0, 10.000044, 9.999391 
1.4750049e+3, 2.151898e+2, -869071.9, -915157.9, -13606.803, -0.019310737, -0.1671038, -865354.3, -34229.73, 0.0, 10.000029, 9.999421 
1.4749946e+3, 2.2518918e+2, -765945.94, -803570.75, -9176.95, -0.016824009, -0.1744597, -763827.0, -30697.379, 0.0, 10.000016, 9.99952 
1.4749844e+3, 2.3518878e+2, -667141.3, -701298.6, -6027.554, -0.005865247, -0.17043115, -666108.9, -30976.15, 0.0, 10.000005, 9.999556 
1.4749742e+3, 2.4518816e+2, -552045.94, -574038.56, -4633.8936, 0.0005916632, -0.19533919, -551109.44, -13972.636, 0.0, 10.000031, 9.999743 
1.4749639e+3, 2.5518742e+2, -443337.2, -467779.6, -5310.361, 0.0027655722, -0.24861982, -442233.3, -3092.2654, 0.0, 10.000092, 9.999771 
1.4749534e+3, 2.6518697e+2, -355655.63, -393104.4, -64.29971, -0.007167883, -0.25936487, -355655.5, -14512.022, 0.0, 10.0001, 9.999607 
1.4749432e+3, 2.7518687e+2, -261061.14, -293311.34, 4835.75, -0.027752984, -0.23501106, -260351.66, -17207.902, 0.0, 10.000062, 9.999638 
1.4749329e+3, 2.851861e+2, -194020.45, -246244.92, 952.38336, -0.01863041, -0.2529266, -194003.1, -48852.34, 0.0, 10.000005, 9.999315 
1.4749229e+3, 2.9518494e+2, -108634.82, -157673.63, -4577.0337, 0.016015451, -0.30612984, -108211.28, -61048.543, 0.0, 9.999932, 9.999285 
1.4749122e+3, 3.0518484e+2, -92651.37, -165968.63, -19828.48, 0.00499488, -0.21995862, -87632.38, -87632.38, 0.0, 9.999885, 9.998916 
1.4749014e+3, 3.1518343e+2, 27311.705, 85836.49, 2125.04, 0.029601373, -0.2621192, 85913.55, 85913.55, 0.0, 9.999873, 10.000651 
1.4851001e+3, 1.2520473e+2, -1598989.0, -1728853.5, -28879.246, 0.04173767, -0.08358389, -1592856.4, 120129.086, 0.007817738, 10.001109, 9.999369 
1.4850897e+3, 1.352044e+2, -1511328.3, -1592823.8, 31626.025, -0.036413047, -0.09202514, -1500495.1, 114493.82, 0.004756172, 10.000843, 9.999761 
1.4850803e+3, 1.4520438e+2, -1466140.9, -1562021.4, -9584.447, 0.04901306, -0.049206726, -1465192.1, 51798.02, 0.0021468382, 10.00066, 9.999384 
1.4850694e+3, 1.5520371e+2, -1379033.4, -1465815.6, -12042.702, 0.024077155, -0.05670205, -1377393.1, 41605.133, 0.00059159106, 10.000569, 9.999415 
1.4850584e+3, 1.6520321e+2, -1273283.0, -1330506.8, -14811.062, 0.00434948, -0.062071547, -1269676.8, 51326.293, 0.0000641918, 10.000477, 9.999716 
1.4850475e+3, 1.7520295e+2, -1186894.9, -1234974.6, -13301.1045, 0.0043011135, -0.063535325, -1183460.5, 39543.043, 0.00000037325287, 10.000383, 9.999744 
1.4850369e+3, 1.8520239e+2, -1115286.0, -1169329.9, -9612.356, 0.0022553704, -0.08266566, -1113627.3, 11379.553, 0.0, 10.000287, 9.999569 
1.4850262e+3, 1.9520162e+2, -1030182.56, -1074814.8, -12227.232, -0.0065433844, -0.12155568, -1027052.4, -40.41864, 0.0, 10.000186, 9.999594 
1.4850155e+3, 2.052008e+2, -963646.7, -1018483.6, -7834.7686, -0.012600329, -0.14721118, -962549.3, -33531.207, 0.0, 10.000084, 9.999357 
1.485005e+3, 2.1520005e+2, -878490.8, -923101.3, -5293.8203, -0.014320402, -0.16267937, -877871.25, -46846.8, 0.0, 9.99998, 9.999389 
1.4849946e+3, 2.2519942e+2, -776546.5, -805573.0, 2183.3896, -0.012086757, -0.17098498, -776383.2, -43353.73, 0.0, 9.999931, 9.999547 
1.4849843e+3, 2.3519896e+2, -676066.6, -702676.44, 371.1185, -0.0069000185, -0.1747373, -676061.5, -41028.86, 0.0, 9.999932, 9.99958 
1.4849742e+3, 2.4519834e+2, -565852.3, -581518.25, 714.2414, -0.0016840295, -0.20142823, -565819.8, -28783.031, 0.0, 9.999942, 9.999734 
1.484964e+3, 2.551976e+2, -463362.34, -478166.47, -619.4337, 0.0035002765, -0.25105554, -463336.47, -24295.25, 0.0, 9.999959, 9.999763 
1.4849536e+3, 2.6519725e+2, -370589.94, -386997.53, -141.27328, -0.004523666, -0.25920555, -370588.72, -29545.824, 0.0, 9.999942, 9.999724 
1.4849432e+3, 2.7519727e+2, -277785.78, -288496.22, 1781.0188, -0.024231512, -0.2334669, -277497.38, -34455.93, 0.0, 9.999893, 9.999751 
1.4849329e+3, 2.851966e+2, -211529.33, -254256.25, 1376.7749, -0.014261685, -0.25263953, -211485.02, -66437.04, 0.0, 9.999884, 9.999317 
1.4849229e+3, 2.9519537e+2, -111277.34, -158667.56, 3105.7173, 0.02115992, -0.30855718, -111074.68, -64014.195, 0.0, 9.999914, 9.999286 
1.484912e+3, 3.0519536e+2, -86037.78, -159191.58, -12189.334, 0.0097706, -0.21535903, -84060.18, -84060.18, 0.0, 9.999916, 9.998946 
1.4849013e+3, 3.151939e+2, 25643.06, 75723.1, 4099.207, 0.031717885, -0.2685357, 76056.414, 76056.414, 0.0, 9.999904, 10.0005665 
1.495101e+3, 1.252153e+2, -1605639.9, -1743887.8, -35956.51, 0.021996051, -0.09270866, -1596847.3, 116033.86, 0.0081952335, 10.001112, 9.999265 
1.4950906e+3, 1.3521484e+2, -1521715.0, -1615498.1, 20671.004, -0.028646959, -0.10016774, -1517361.0, 97525.28, 0.005003208, 10.000846, 9.999604 
1.495081e+3, 1.4521481e+2, -1467949.5, -1566933.5, -14035.113, 0.06710194, -0.047275927, -1465997.9, 50889.94, 0.0022711838, 10.000663, 9.99935 
1.4950697e+3, 1.5521418e+2, -1380578.9, -1470139.0, -16033.117, 0.012466869, -0.049303308, -1377795.1, 41100.797, 0.00063171395, 10.000572, 9.999385 
1.4950585e+3, 1.652136e+2, -1271128.0, -1327125.4, -18888.299, -0.010136242, -0.06183943, -1265352.5, 55548.773, 0.000069858055, 10.000481, 9.999739 
1.495048e+3, 1.7521319e+2, -1185002.9, -1232166.1, -17255.613, 0.012315172, -0.08094949, -1179363.9, 43538.86, 0.00000046463128, 10.000387, 9.999763 
1.4950372e+3, 1.8521258e+2, -1120331.4, -1180910.4, -13698.854, 0.014689524, -0.10119786, -1117377.6, 7528.693, 0.0, 10.00029, 9.999489 
1.4950262e+3, 1.9521186e+2, -1034991.44, -1085916.1, -16184.041, -0.0067460053, -0.12669647, -1030283.4, -3371.8142, 0.0, 10.00019, 9.9995165 
1.4950155e+3, 2.0521113e+2, -958748.94, -1009394.8, -11833.165, -0.015880112, -0.1428266, -956120.56, -27203.53, 0.0, 10.000087, 9.999419 
1.495005e+3, 2.152105e+2, -873657.75, -914086.75, -9079.893, -0.011701847, -0.15227322, -871712.1, -40789.996, 0.0, 9.999983, 9.999451 
1.4949946e+3, 2.2520982e+2, -778838.2, -811328.3, 2475.9832, -0.007187884, -0.16592301, -778650.56, -45723.2, 0.0, 9.999934, 9.999507 
1.4949843e+3, 2.3520917e+2, -678477.1, -708638.7, 806.6164, -0.0029568556, -0.18506716, -678455.56, -43523.42, 0.0, 9.999935, 9.999538 
1.494974e+3, 2.4520856e+2, -566657.0, -584077.3, 1916.6724, -0.0024226867, -0.20735015, -566448.6, -29512.213, 0.0, 9.999944, 9.999717 
1.4949638e+3, 2.5520805e+2, -464132.97, -480481.66, 693.5688, -0.005480913, -0.23459105, -464103.6, -25164.096, 0.0, 9.99996, 9.999747 
1.4949535e+3, 2.6520768e+2, -364993.25, -376019.1, -1119.8416, -0.005529005, -0.24648412, -364880.7, -23939.305, 0.0, 9.999943, 9.9998 
1.4949432e+3, 2.752075e+2, -272316.97, -277699.6, 857.5927, -0.0024329321, -0.24845688, -272183.66, -29242.111, 0.0, 9.999894, 9.9998255 
1.4949329e+3, 2.852069e+2, -204285.19, -239734.78, 3478.834, 0.002359612, -0.26607934, -203947.02, -59000.2, 0.0, 9.999885, 9.999417 
1.4949226e+3, 2.952061e+2, -104366.87, -145048.11, 5076.9536, 0.00704396, -0.29327804, -103742.84, -56787.37, 0.0, 9.999916, 9.999379 
1.4949118e+3, 3.0520615e+2, -90957.53, -170307.95, -11947.685, -0.0043267887, -0.19302745, -89197.62, -89197.62, 0.0, 9.999919, 9.99887 
1.4949013e+3, 3.1520426e+2, 11825.049, 46253.484, 6320.176, 0.04393494, -0.27887717, 47377.04, 47377.04, 0.0, 9.999905, 10.000363 
1.5051022e+3, 1.2522598e+2, -1589421.8, -1741004.5, -35009.457, 0.02171383, -0.097022295, -1581726.6, 131049.29, 0.008597475, 10.001248, 9.999218 
1.5050915e+3, 1.352254e+2, -1516362.1, -1624564.3, 20400.674, -0.0290441, -0.10558321, -1512643.6, 102138.875, 0.0052676955, 10.000936, 9.999498 
1.505082e+3, 1.4522535e+2, -1461124.1, -1564460.0, -4934.186, 0.07550689, -0.049673904, -1460889.0, 55895.207, 0.0024058474, 10.000715, 9.999341 
1.5050703e+3, 1.552247e+2, -1376737.3, -1469120.3, -5266.3657, 0.015320789, -0.05207149, -1376438.0, 42354.387, 0.0006761825, 10.000604, 9.999376 
1.5050592e+3, 1.6522408e+2, -1273098.0, -1333648.8, -10675.19, -0.010699059, -0.06523938, -1271271.0, 49527.082, 0.0000762831, 10.000492, 9.999687 
1.5050483e+3, 1.752236e+2, -1190124.0, -1240096.4, -14916.371, 0.010831575, -0.08556358, -1186010.3, 36790.23, 0.00000057502143, 10.000377, 9.999712 
1.5050375e+3, 1.85223e+2, -1123652.8, -1180974.6, -10753.507, 0.014881391, -0.10428066, -1121701.8, 3102.4568, 0.0, 10.000262, 9.999501 
1.5050265e+3, 1.9522232e+2, -1040411.7, -1087283.8, -6684.6753, -0.002855598, -0.12550502, -1039476.94, -12668.308, 0.0, 10.000149, 9.999526 
1.5050156e+3, 2.052216e+2, -965407.06, -1020325.0, -3151.217, -0.012726364, -0.1401307, -965226.9, -36412.42, 0.0, 10.000076, 9.999349 
1.505005e+3, 2.1522087e+2, -870134.25, -919806.6, -10766.015, -0.013144159, -0.1504898, -867901.2, -37080.53, 0.0, 10.000041, 9.999383 
1.5049945e+3, 2.2522017e+2, -770920.1, -801891.5, -420.3721, -0.010077115, -0.16632079, -770914.44, -38088.23, 0.0, 9.999966, 9.999556 
1.5049842e+3, 2.3521952e+2, -687044.2, -707443.3, 4233.726, -0.0044471794, -0.1890256, -686200.4, -51369.97, 0.0, 9.999855, 9.999584 
1.5049739e+3, 2.4521896e+2, -587735.7, -592999.1, 11389.553, -0.0027837, -0.20884375, -578677.75, -41843.62, 0.0, 9.999796, 9.999725 
1.5049636e+3, 2.5521854e+2, -489458.97, -491580.8, 11596.356, -0.0049925307, -0.2278366, -478875.1, -40038.473, 0.0, 9.9997835, 9.999755 
1.5049534e+3, 2.6521817e+2, -387680.25, -384885.56, 7151.9966, -0.003542397, -0.24057244, -378995.7, -38156.97, 0.0, 9.999781, 9.999816 
1.504943e+3, 2.7521792e+2, -287029.94, -282839.9, 4177.3257, 0.0017191358, -0.25204405, -280261.7, -37421.81, 0.0, 9.999786, 9.999841 
1.5049328e+3, 2.852174e+2, -211148.05, -231524.02, 5814.4473, 0.005618802, -0.2685186, -209605.61, -64761.152, 0.0, 9.99979, 9.999518 
1.5049224e+3, 2.952168e+2, -115947.21, -139409.77, 7082.5874, 0.0065029166, -0.28399315, -113974.99, -67124.3, 0.0, 9.99979, 9.999478 
1.5049116e+3, 3.05217e+2, -111395.6, -177756.11, -7445.3457, -0.0061951256, -0.17654932, -110570.53, -110570.53, 0.0, 9.999769, 9.998889 
1.5049012e+3, 3.1521502e+2, -19975.287, 18089.521, 19910.852, 0.040436756, -0.27353668, 26601.162, 26601.162, 0.0, 9.999743, 10.000247 
1.5151036e+3, 1.2523681e+2, -1588975.3, -1740649.6, -42829.293, 0.03951074, -0.09711354, -1577717.0, 134952.47, 0.009026395, 10.001249, 9.999221 
1.5150923e+3, 1.3523613e+2, -1520073.1, -1633474.3, 7680.7275, -0.037617326, -0.108608656, -1519555.4, 95121.59, 0.0055510993, 10.000938, 9.999435 
1.5150826e+3, 1.4523603e+2, -1459861.4, -1563211.8, -10172.593, 0.07441169, -0.056412917, -1458869.6, 57809.527, 0.002551727, 10.00072, 9.999348 
1.5150711e+3, 1.5523532e+2, -1375942.6, -1468615.8, -10000.06, 0.032239072, -0.06459172, -1374875.9, 43811.32, 0.0007254567, 10.0006075, 9.999379 
1.5150596e+3, 1.652347e+2, -1281529.5, -1352292.3, -15546.279, 0.0021909687, -0.07203563, -1278264.8, 42428.613, 0.00008370529, 10.000496, 9.999558 
1.5150486e+3, 1.7523424e+2, -1198237.3, -1258160.9, -19665.262, -0.0001167078, -0.07765801, -1192360.1, 30336.553, 0.00000071310234, 10.0003805, 9.999587 
1.5150376e+3, 1.8523365e+2, -1116184.6, -1166669.3, -15387.721, 0.0029951604, -0.09215608, -1111864.1, 12836.02, 0.0, 10.000265, 9.9995985 
1.5150267e+3, 1.9523305e+2, -1033559.9, -1074210.6, -11079.194, 0.0050852536, -0.11802452, -1030736.4, -4033.2537, 0.0, 10.000152, 9.999615 
1.5150158e+3, 2.0523217e+2, -979450.9, -1050567.5, -4579.4478, -0.0032910176, -0.1391483, -979157.25, -50447.055, 0.0, 10.000079, 9.99914 
1.515005e+3, 2.1523117e+2, -883754.1, -949124.56, -12131.371, -0.018852143, -0.15735094, -881575.4, -50855.273, 0.0, 10.000044, 9.999181 
1.5149944e+3, 2.2523044e+2, -761170.7, -782698.94, -4347.139, -0.020882344, -0.17216244, -760326.0, -27600.008, 0.0, 9.999969, 9.999686 
1.514984e+3, 2.3523003e+2, -677548.75, -688746.75, 547.25085, -0.011361741, -0.186462, -677522.06, -42794.426, 0.0, 9.999858, 9.999712 
1.5149738e+3, 2.4522954e+2, -585234.06, -588763.06, 11527.063, -0.0027574894, -0.2058785, -575337.25, -38607.03, 0.0, 9.999799, 9.999755 
1.5149635e+3, 2.552291e+2, -487184.7, -487635.78, 11894.075, 0.004907686, -0.23112682, -475514.03, -36781.184, 0.0, 9.999785, 9.999783 
1.5149532e+3, 2.6522872e+2, -391106.25, -392656.44, 8322.105, 0.0012346657, -0.2416923, -383523.22, -42788.01, 0.0, 9.999782, 9.9997635 
1.5149428e+3, 2.7522847e+2, -290363.2, -290502.6, 5421.599, -0.012365619, -0.24384959, -285010.84, -42273.97, 0.0, 9.999788, 9.999788 
1.5149325e+3, 2.85228e+2, -204082.52, -217641.75, 6680.768, -0.00492215, -0.25961894, -201343.94, -56602.62, 0.0, 9.999791, 9.999614 
1.5149224e+3, 2.9522744e+2, -108869.11, -125252.58, 7692.0264, 0.01992548, -0.28118768, -105823.77, -59077.043, 0.0, 9.99979, 9.999576 
1.5149115e+3, 3.0522782e+2, -103449.16, -161597.81, -7628.346, 0.0043775397, -0.16641435, -102465.07, -102465.07, 0.0, 9.999769, 9.9990015 
1.5149008e+3, 3.1522608e+2, -22167.969, 13031.068, 22012.11, 0.020090284, -0.24988501, 23614.453, 23614.453, 0.0, 9.999744, 10.000213 
1.5251048e+3, 1.252477e+2, -1606560.1, -1745320.0, -35368.605, 0.041493118, -0.09878421, -1598065.1, 114497.37, 0.009480747, 10.001113, 9.999253 
1.5250932e+3, 1.3524692e+2, -1502437.4, -1628604.3, 11123.622, -0.04695941, -0.11790827, -1501464.3, 113106.57, 0.0058531812, 10.001079, 9.999401 
1.5250833e+3, 1.4524674e+2, -1430113.0, -1546695.8, -6390.746, 0.0702985, -0.06969866, -1429763.6, 86809.47, 0.002708946, 10.0009165, 9.999366 
1.5250717e+3, 1.5524608e+2, -1368626.0, -1463509.3, -5405.7227, 0.03037646, -0.076640874, -1368319.0, 50261.52, 0.00077962264, 10.000652, 9.999392 
1.5250602e+3, 1.6524544e+2, -1290447.9, -1372186.8, -7444.934, -0.00013059311, -0.078523375, -1289775.3, 30811.87, 0.000092205315, 10.000504, 9.999417 
1.5250489e+3, 1.7524493e+2, -1196919.4, -1272942.5, -12881.548, -0.005241455, -0.07478066, -1194796.0, 27795.938, 0.0000008739153, 10.000458, 9.999448 
1.5250379e+3, 1.8524432e+2, -1104370.6, -1161304.4, -15581.529, -0.00033622637, -0.08631364, -1100385.3, 24210.87, 0.0, 10.00035, 9.999594 
1.5250269e+3, 1.9524367e+2, -1029421.25, -1072789.9, -19162.7, 0.007724776, -0.114958756, -1022167.4, 4431.559, 0.0, 10.000184, 9.999609 
1.5250158e+3, 2.0524274e+2, -986749.25, -1059443.4, -7693.604, -0.0013863685, -0.14029, -985943.94, -57337.35, 0.0, 10.000053, 9.99909 
1.525005e+3, 2.1524163e+2, -900132.75, -962319.06, -3646.1274, -0.023789356, -0.16381037, -899919.7, -69302.01, 0.0, 9.999956, 9.999132 
1.5249942e+3, 2.252409e+2, -773618.7, -788336.0, 3779.5205, -0.025525961, -0.17515148, -772704.8, -40081.152, 0.0, 9.999884, 9.999688 
1.524984e+3, 2.352406e+2, -680604.44, -689569.44, -1380.166, -0.009417812, -0.1782877, -680396.75, -45772.523, 0.0, 9.999836, 9.999717 
1.5249735e+3, 2.4524012e+2, -585520.94, -581284.8, 7132.929, 0.001469103, -0.19913888, -575962.1, -39335.684, 0.0, 9.999765, 9.999821 
1.5249632e+3, 2.552396e+2, -498940.2, -486106.97, 9881.871, 0.007719222, -0.2368649, -480741.22, -42111.96, 0.0, 9.999676, 9.999845 
1.524953e+3, 2.652393e+2, -420864.1, -412807.5, 8117.246, 0.0033430764, -0.24581714, -407773.97, -67142.29, 0.0, 9.999604, 9.999709 
1.5249424e+3, 2.7523914e+2, -329091.75, -314595.0, 4847.341, -0.010399509, -0.23397636, -313123.53, -70490.2, 0.0, 9.999548, 9.999738 
1.5249321e+3, 2.852387e+2, -233363.17, -221587.34, 7731.3345, -0.0023742134, -0.2474456, -217757.17, -73119.65, 0.0, 9.999549, 9.999702 
1.5249221e+3, 2.9523817e+2, -129579.67, -124870.46, 7612.794, 0.02364008, -0.2764992, -119256.45, -72614.086, 0.0, 9.999606, 9.999666 
1.5249111e+3, 3.0523863e+2, -125504.336, -157791.67, -11545.297, 0.00285005, -0.16191024, -121800.79, -121800.79, 0.0, 9.9995575, 9.999128 
1.5249002e+3, 3.152371e+2, -71246.93, -12877.643, 21329.426, 0.0032207828, -0.2378696, -5914.149, -5914.149, 0.0, 9.999418, 10.000191 
1.5351059e+3, 1.2525868e+2, -1602656.1, -1738215.5, -32028.213, 0.027093513, -0.10273872, -1595469.9, 116984.66, 0.009956889, 10.001116, 9.999301 
1.5350941e+3, 1.3525778e+2, -1503134.0, -1630910.1, 8554.083, -0.057059217, -0.13317566, -1502563.9, 111899.69, 0.0061724978, 10.0010805, 9.999385 
1.5350842e+3, 1.4525756e+2, -1428134.9, -1543500.0, -17317.28, 0.063226916, -0.08903802, -1425591.5, 90874.43, 0.0028771062, 10.000919, 9.999388 
1.5350722e+3, 1.55257e+2, -1366780.8, -1460917.0, -15791.596, 0.01008826, -0.088327415, -1364202.3, 54269.875, 0.000838507, 10.000656, 9.999408 
1.5350606e+3, 1.6525635e+2, -1301018.8, -1395473.1, -9697.554, -0.01735466, -0.08479662, -1300033.4, 20445.924, 0.000101727834, 10.000507, 9.999256 
1.5350494e+3, 1.7525572e+2, -1207502.4, -1296155.0, -15020.178, -0.0046587507, -0.07683331, -1205026.6, 17459.533, 0.0000010362653, 10.000462, 9.999288 
1.5350384e+3, 1.8525499e+2, -1111499.4, -1177288.1, -22099.367, 0.0046019945, -0.086675264, -1104765.3, 19726.664, 0.0, 10.000353, 9.999483 
1.535027e+3, 1.952542e+2, -1036292.8, -1088274.8, -25459.69, 0.004908391, -0.11626262, -1025900.7, 595.261, 0.0, 10.000188, 9.999501 
1.5350159e+3, 2.0525324e+2, -978895.1, -1044322.2, -11478.883, -0.007047873, -0.14350657, -976939.7, -48436.125, 0.0, 10.000057, 9.999193 
1.5350048e+3, 2.1525222e+2, -892854.8, -948362.94, -7197.24, -0.027919615, -0.1698953, -891936.75, -61423.355, 0.0, 9.999959, 9.999227 
1.5349941e+3, 2.2525154e+2, -782349.5, -807579.25, 2189.4707, -0.024032468, -0.17533775, -782160.9, -49641.723, 0.0, 9.9998865, 9.999556 
1.5349838e+3, 2.3525123e+2, -688948.56, -707945.4, -2752.976, 0.0012689134, -0.16453394, -688557.6, -54037.152, 0.0, 9.999839, 9.99959 
1.5349734e+3, 2.4525073e+2, -578223.3, -567116.94, 4319.879, 0.009791359, -0.18866846, -565634.56, -29111.434, 0.0, 9.999768, 9.999917 
1.534963e+3, 2.5525013e+2, -492181.6, -472964.34, 7305.17, 0.003216735, -0.24502036, -470502.72, -31976.592, 0.0, 9.999678, 9.999934 
1.5349525e+3, 2.6524982e+2, -424858.03, -421868.0, 6900.039, 0.0026249401, -0.25293276, -416302.88, -75774.45, 0.0, 9.999606, 9.999647 
1.5349421e+3, 2.7524978e+2, -332846.8, -322993.03, 3679.1895, 0.0080347555, -0.22274461, -321770.88, -79241.195, 0.0, 9.999549, 9.9996805 
1.534932e+3, 2.8524938e+2, -227994.92, -210917.25, 10835.654, 0.0135230785, -0.23227525, -205660.33, -61126.742, 0.0, 9.999549, 9.999777 
1.5349217e+3, 2.9524884e+2, -124056.086, -114052.97, 10258.366, 0.016797751, -0.2696378, -107641.83, -61103.668, 0.0, 9.999607, 9.999741 
1.5349105e+3, 3.0524936e+2, -115758.62, -138114.63, -16108.305, -0.011631088, -0.16305076, -107329.86, -107329.86, 0.0, 9.999558, 9.999264 
1.5348995e+3, 3.1524795e+2, -72342.57, -15330.495, 19194.156, -0.0099317, -0.23676771, -9470.709, -9470.709, 0.0, 9.999417, 10.000175 
1.5451069e+3, 1.2526983e+2, -1584250.9, -1718862.0, -21766.1, 0.023897674, -0.098753214, -1580818.9, 131526.44, 0.010452642, 10.001202, 9.9993925 
1.5450951e+3, 1.3526887e+2, -1512914.0, -1632080.6, 15823.211, -0.060331203, -0.13905443, -1510848.8, 103505.41, 0.006508303, 10.001, 9.999415 
1.545085e+3, 1.4526856e+2, -1441093.1, -1554518.0, -13151.804, 0.062287174, -0.104262926, -1439588.1, 76769.305, 0.0030559867, 10.000853, 9.999343 
1.5450728e+3, 1.5526797e+2, -1352952.0, -1459033.5, -16460.295, -0.000033457178, -0.100201644, -1350456.5, 67907.4, 0.0009019718, 10.000773, 9.999364 
1.545061e+3, 1.6526732e+2, -1280028.6, -1388859.1, -5108.9297, -0.026859837, -0.091901824, -1279789.3, 40581.855, 0.000112228045, 10.000669, 9.999224 
1.54505e+3, 1.7526673e+2, -1199327.9, -1296145.6, -1465.8048, -0.0046101985, -0.0786549, -1199305.8, 23072.05, 0.0000011877057, 10.000536, 9.999251 
1.5450387e+3, 1.8526588e+2, -1112792.9, -1193163.0, -7367.6274, 0.0045921453, -0.089426346, -1112123.0, 12261.672, 0.0, 10.000411, 9.999346 
1.5450272e+3, 1.952649e+2, -1030535.56, -1100381.3, -12996.599, -0.003856562, -0.12507623, -1028195.56, -1804.4491, 0.0, 10.000293, 9.999367 
1.5450159e+3, 2.0526393e+2, -963871.75, -1035952.94, -3397.2798, -0.011672582, -0.14862137, -963712.0, -35312.88, 0.0, 10.000157, 9.999202 
1.5450048e+3, 2.1526302e+2, -885540.44, -943859.1, -6458.7188, -0.01690065, -0.1628928, -884833.75, -54426.14, 0.0, 10.000007, 9.999234 
1.5449941e+3, 2.2526233e+2, -788016.1, -811668.94, 4724.513, -0.010547205, -0.16961299, -787107.4, -54694.04, 0.0, 9.999855, 9.999541 
1.5449837e+3, 2.3526189e+2, -709943.1, -719608.56, 8408.056, 0.005576659, -0.17184335, -705077.9, -70662.125, 0.0, 9.999702, 9.999575 
1.544973e+3, 2.4526133e+2, -602320.7, -584927.1, 15143.6875, 0.008702908, -0.19773975, -576160.6, -39741.516, 0.0, 9.999632, 9.99986 
1.5449625e+3, 2.5526074e+2, -502796.25, -484109.66, 5975.6685, -0.000051542713, -0.24587238, -482362.16, -43939.773, 0.0, 9.999633, 9.999879 
1.5449521e+3, 2.6526046e+2, -426359.97, -417280.63, 2634.5374, 0.000642815, -0.24863495, -416571.53, -76147.1, 0.0, 9.999575, 9.999692 
1.5449417e+3, 2.7526054e+2, -342195.28, -322518.47, 7094.2666, 0.010611375, -0.21613693, -320227.47, -77802.59, 0.0, 9.999465, 9.9997225 
1.5449312e+3, 2.8526017e+2, -254643.38, -223746.28, 17282.217, 0.016572123, -0.22500262, -216014.39, -71585.88, 0.0, 9.999369, 9.999775 
1.544921e+3, 2.952596e+2, -171636.39, -136422.08, 10367.13, 0.01647475, -0.26260778, -133596.67, -87163.414, 0.0, 9.99928, 9.999743 
1.5449099e+3, 3.0526006e+2, -158900.52, -141198.98, -21430.453, -0.01223331, -0.16586393, -126863.53, -126863.53, 0.0, 9.999188, 9.99942 
1.5448987e+3, 3.1525886e+2, -118082.23, -36386.207, 17475.389, -0.014240261, -0.2396709, -32805.07, -32805.07, 0.0, 9.999101, 10.000182 
1.5551081e+3, 1.252812e+2, -1575275.9, -1700786.5, -24070.047, 0.030595435, -0.08647044, -1570818.1, 141416.27, 0.010971542, 10.001203, 9.999517 
1.5550962e+3, 1.3528019e+2, -1507833.1, -1622147.8, 7296.923, -0.057238184, -0.13630457, -1507369.3, 106873.195, 0.006862425, 10.001001, 9.999483 
1.555086e+3, 1.4527972e+2, -1448767.4, -1571391.0, -17094.6, 0.06705441, -0.11578472, -1446428.9, 69818.29, 0.0032463204, 10.0008545, 9.999227 
1.5550736e+3, 1.5527903e+2, -1360087.9, -1474887.4, -20002.313, -0.00038231307, -0.11213431, -1356702.5, 61553.043, 0.0009703306, 10.000776, 9.999254 
1.5550616e+3, 1.652784e+2, -1273508.1, -1376430.9, -10575.035, -0.028933043, -0.09972994, -1272432.8, 47829.543, 0.00012386087, 10.000671, 9.999309 
1.5550505e+3, 1.7527795e+2, -1193411.8, -1285064.0, -6819.5884, -0.0051922933, -0.080256954, -1192907.1, 29359.537, 0.0000013544981, 10.00054, 9.999327 
1.555039e+3, 1.8527703e+2, -1123987.8, -1217626.8, -12166.247, -0.00035005895, -0.09449237, -1122432.9, 1841.5236, 0.0, 10.000415, 9.999177 
1.5550274e+3, 1.9527577e+2, -1041612.94, -1124647.0, -17669.234, -0.018530771, -0.14138913, -1038009.44, -11725.1, 0.0, 10.000297, 9.999199 
1.555016e+3, 2.0527475e+2, -969683.9, -1049212.3, -9139.879, -0.015286101, -0.1556856, -968647.0, -40353.816, 0.0, 10.00016, 9.99911 
1.5550052e+3, 2.1527404e+2, -891037.8, -956336.0, -12054.671, 0.009090229, -0.14276858, -888883.44, -58583.24, 0.0, 10.00001, 9.999148 
1.5549943e+3, 2.2527325e+2, -780488.4, -797157.25, -693.315, 0.0147738755, -0.15802288, -780459.6, -48153.457, 0.0, 9.999859, 9.99964 
1.5549833e+3, 2.3527251e+2, -703175.44, -706666.6, 3299.2488, 0.0033673123, -0.20034106, -701188.44, -66878.234, 0.0, 9.999706, 9.999662 
1.5549725e+3, 2.4527186e+2, -617204.1, -616843.5, 15868.252, -0.0020085769, -0.22645178, -601154.56, -64839.938, 0.0, 9.999634, 9.99964 
1.5549621e+3, 2.5527143e+2, -517023.34, -514617.03, 6713.602, -0.0021402407, -0.23952943, -508999.63, -70681.24, 0.0, 9.999636, 9.999668 
1.5549517e+3, 2.6527122e+2, -415691.84, -396071.63, -571.41504, -0.0027345729, -0.23297006, -396055.0, -55734.957, 0.0, 9.9995775, 9.999837 
1.554941e+3, 2.7527127e+2, -332362.13, -302942.03, 3983.21, -0.0035222885, -0.21399009, -302412.28, -60093.035, 0.0, 9.999467, 9.999857 
1.5549305e+3, 2.852709e+2, -260394.72, -236387.3, 14875.385, 0.006001162, -0.22556578, -229276.45, -84953.68, 0.0, 9.99937, 9.999688 
1.5549204e+3, 2.9527032e+2, -176964.58, -147914.44, 7572.755, 0.023090903, -0.2559558, -146058.9, -99730.62, 0.0, 9.999281, 9.999665 
1.5549092e+3, 3.0527076e+2, -146933.23, -116635.78, -23988.936, 0.0016700632, -0.17106298, -103412.81, -103412.81, 0.0, 9.999187, 9.99959 
1.5548979e+3, 3.1526968e+2, -116211.92, -32796.586, 17288.297, -0.010141993, -0.24481118, -29355.447, -29355.447, 0.0, 9.999101, 10.000208 
1.5651093e+3, 1.2529264e+2, -1590817.5, -1706160.9, -1293.2085, 0.035751138, -0.09234474, -1590803.0, 121318.45, 0.0115225995, 10.001088, 9.999535 
1.5650971e+3, 1.3529167e+2, -1521079.4, -1631048.6, 16179.353, -0.05342551, -0.1391535, -1518748.4, 95380.914, 0.0072392947, 10.000922, 9.999459 
1.5650868e+3, 1.4529108e+2, -1463361.4, -1587935.6, -6576.61, 0.073566526, -0.124379635, -1463015.1, 53120.223, 0.003449955, 10.000796, 9.999141 
1.5650743e+3, 1.5529037e+2, -1374069.6, -1491042.5, -7576.0996, 0.0042315666, -0.114301324, -1373581.0, 44563.484, 0.00104445, 10.000723, 9.999168 
1.5650624e+3, 1.6528969e+2, -1276965.5, -1378717.1, -2130.8242, -0.027676592, -0.10180962, -1276920.9, 43230.664, 0.00013699086, 10.000652, 9.999301 
1.5650511e+3, 1.7528915e+2, -1188157.8, -1283744.4, -5548.402, -0.008753684, -0.08858389, -1187836.8, 34319.207, 0.0000015912761, 10.000583, 9.999313 
1.5650395e+3, 1.8528818e+2, -1121227.6, -1232468.0, -13537.667, -0.0049126446, -0.10032675, -1119603.9, 4560.485, 0.0, 10.000505, 9.99903 
1.5650277e+3, 1.9528688e+2, -1033953.1, -1137212.8, -17881.373, -0.020743404, -0.13657102, -1030944.3, -4768.674, 0.0, 10.000422, 9.999052 
1.5650162e+3, 2.052858e+2, -957729.2, -1050159.6, -10614.735, -0.014232393, -0.14823054, -956525.8, -28340.254, 0.0, 10.000274, 9.999049 
1.5650052e+3, 2.1528496e+2, -886902.06, -960867.75, -11711.986, 0.0143640945, -0.13997525, -885091.8, -54898.277, 0.0, 10.000068, 9.999088 
1.5649942e+3, 2.2528413e+2, -766413.3, -784774.44, 660.5954, 0.017240485, -0.15964288, -766389.56, -34190.117, 0.0, 9.999932, 9.999689 
1.564983e+3, 2.352834e+2, -677780.5, -689702.56, 347.38223, -0.003425574, -0.20610377, -677770.44, -43567.688, 0.0, 9.999862, 9.999703 
1.5649721e+3, 2.4528272e+2, -613251.94, -631023.56, 14495.703, -0.008847939, -0.22984485, -605135.3, -68927.68, 0.0, 9.999733, 9.999495 
1.5649618e+3, 2.5528222e+2, -539013.56, -540748.4, 10425.72, -0.0006968166, -0.23471275, -529419.25, -91206.08, 0.0, 9.999554, 9.999528 
1.5649512e+3, 2.6528198e+2, -430426.8, -393360.0, 3004.3176, 0.0006193582, -0.22812991, -393118.1, -52902.957, 0.0, 9.999436, 9.999924 
1.5649404e+3, 2.7528206e+2, -340813.1, -297896.9, 2678.6377, -0.0040294616, -0.21669368, -297730.38, -55516.906, 0.0, 9.999372, 9.999936 
1.5649298e+3, 2.8528172e+2, -281330.34, -251783.45, 11385.216, 0.0034322536, -0.22575401, -247905.42, -103688.95, 0.0, 9.999251, 9.999639 
1.5649195e+3, 2.9528123e+2, -209368.17, -168349.45, 6480.1333, 0.020240013, -0.24406798, -167350.08, -121128.36, 0.0, 9.999081, 9.99962 
1.5649083e+3, 3.052815e+2, -179829.61, -125154.664, -27306.842, 0.008348203, -0.17279403, -113852.766, -113852.766, 0.0, 9.998932, 9.999654 
1.5648969e+3, 3.152805e+2, -163771.78, -62965.2, 8273.415, 0.00599471, -0.24711895, -62290.695, -62290.695, 0.0, 9.998807, 10.000141 
1.5751104e+3, 1.2530427e+2, -1597115.5, -1720048.4, -2271.9023, 0.03799705, -0.11503722, -1597073.6, 114932.48, 0.01211553, 10.00109, 9.999438 
1.5750982e+3, 1.353033e+2, -1528982.9, -1648649.0, 8823.203, -0.04905466, -0.14701067, -1528335.8, 85678.57, 0.0076441537, 10.000926, 9.999338 
1.5750876e+3, 1.4530264e+2, -1467051.6, -1596950.9, -10389.477, 0.08184047, -0.12970509, -1466225.9, 49795.66, 0.0036693097, 10.000801, 9.999078 
1.5750751e+3, 1.5530199e+2, -1378311.4, -1501143.4, -10966.125, 0.0136369085, -0.10716012, -1377340.1, 40690.242, 0.0011253739, 10.000727, 9.999099 
1.575063e+3, 1.6530119e+2, -1283519.1, -1393571.4, -5293.332, -0.023302654, -0.09847773, -1283265.1, 36773.465, 0.00015191178, 10.000655, 9.999198 
1.5750515e+3, 1.7530039e+2, -1194885.3, -1298945.6, -8564.262, -0.015385823, -0.10355885, -1194185.1, 27860.318, 0.0000019351096, 10.0005865, 9.999208 
1.5750399e+3, 1.8529937e+2, -1129750.3, -1251338.3, -16981.514, -0.009212923, -0.10690912, -1127423.1, -3368.5195, 0.0, 10.000509, 9.9989 
1.5750282e+3, 1.9529827e+2, -1042547.5, -1156204.3, -21272.537, -0.010745671, -0.110784546, -1038696.5, -12631.626, 0.0, 10.000424, 9.998921 
1.5750165e+3, 2.0529704e+2, -959941.4, -1055901.6, -18394.658, -0.008716994, -0.12639953, -956536.1, -28459.912, 0.0, 10.000277, 9.999008 
1.575005e+3, 2.152958e+2, -889042.5, -966532.0, -19184.455, -0.0011482576, -0.15455727, -884553.0, -54465.438, 0.0, 10.000072, 9.999048 
1.5749939e+3, 2.2529495e+2, -766436.44, -786044.44, -1733.4584, -0.0032249237, -0.17444612, -766284.4, -34190.98, 0.0, 9.999936, 9.99968 
1.5749827e+3, 2.3529452e+2, -678064.6, -691431.6, -1930.9484, -0.014887231, -0.18906908, -677791.25, -43697.785, 0.0, 9.999865, 9.999691 
1.574972e+3, 2.4529386e+2, -618287.75, -642557.7, 8378.686, -0.011888208, -0.20784217, -615676.2, -79577.72, 0.0, 9.999736, 9.999414 
1.5749612e+3, 2.5529307e+2, -543997.7, -552001.75, 4657.057, 0.0040805647, -0.23122583, -541859.3, -103752.414, 0.0, 9.999556, 9.999451 
1.5749507e+3, 2.6529273e+2, -428850.72, -390948.25, 1619.1924, 0.010591146, -0.23415372, -390879.22, -50769.152, 0.0, 9.999438, 9.99994 
1.57494e+3, 2.7529278e+2, -339146.72, -295482.6, 1107.8977, 0.009467454, -0.22488981, -295454.5, -53346.52, 0.0, 9.999374, 9.999952 
1.5749292e+3, 2.8529254e+2, -282208.7, -254567.81, 5726.3022, 0.009015481, -0.22598127, -253428.47, -109318.336, 0.0, 9.999253, 9.9996195 
1.5749185e+3, 2.9529217e+2, -210559.05, -171375.55, 614.28186, 0.006923286, -0.22632653, -171365.92, -125251.87, 0.0, 9.999082, 9.9996 
1.5749072e+3, 3.052923e+2, -183374.3, -132903.84, -31306.443, 0.0069325007, -0.17055441, -117928.25, -117928.25, 0.0, 9.998932, 9.999601 
1.574896e+3, 3.152912e+2, -175302.58, -87429.52, 6683.094, 0.0346695, -0.24570191, -86924.15, -86924.15, 0.0, 9.998808, 9.999973 
1.5851116e+3, 1.2531585e+2, -1600379.8, -1727201.4, -2621.0735, 0.035129417, -0.13471395, -1600325.6, 111565.65, 0.012755513, 10.001094, 9.999387 
1.585099e+3, 1.3531499e+2, -1528593.0, -1655368.0, 5836.6084, -0.054298487, -0.15040444, -1528324.9, 85574.48, 0.008080295, 10.000961, 9.999274 
1.5850885e+3, 1.4531426e+2, -1461493.3, -1599054.0, -7912.8696, 0.079505086, -0.13472275, -1461039.6, 54867.97, 0.0039060588, 10.000862, 9.999033 
1.5850759e+3, 1.5531361e+2, -1369632.8, -1502195.3, -7282.5454, 0.016097698, -0.10601439, -1369233.9, 48682.293, 0.0012136656, 10.000811, 9.99905 
1.5850638e+3, 1.6531274e+2, -1276559.0, -1399647.6, -882.1371, -0.019349428, -0.09803174, -1276552.6, 43372.465, 0.0001685595, 10.000746, 9.999112 
1.5850522e+3, 1.7531177e+2, -1189349.4, -1306152.1, -3423.642, -0.013249215, -0.11058325, -1189249.1, 32684.305, 0.0000023797534, 10.000669, 9.999119 
1.5850404e+3, 1.8531066e+2, -1134009.1, -1266022.3, -13375.584, -0.006769939, -0.111506626, -1132667.6, -8723.9795, 0.0, 10.000536, 9.998786 
1.5850286e+3, 1.9530956e+2, -1061075.3, -1177572.1, -16798.74, -0.005931209, -0.10386848, -1058701.3, -32746.742, 0.0, 10.000353, 9.998808 
1.5850168e+3, 2.0530829e+2, -963469.8, -1057873.9, -11539.761, -0.0074322484, -0.119533874, -962079.7, -34113.242, 0.0, 10.000256, 9.999004 
1.5850052e+3, 2.1530695e+2, -866079.9, -956061.4, -9963.07, -0.008791354, -0.15798922, -864989.94, -35011.69, 0.0, 10.000234, 9.999042 
1.5849937e+3, 2.2530603e+2, -747086.25, -783546.06, 4671.119, -0.01183829, -0.18063085, -746497.3, -14512.845, 0.0, 10.0001, 9.999617 
1.5849826e+3, 2.3530558e+2, -681900.4, -700221.7, 77.96199, -0.017328262, -0.19148965, -681900.06, -47915.254, 0.0, 9.99987, 9.999627 
1.5849715e+3, 2.4530487e+2, -624404.0, -648507.4, 10403.453, -0.014007207, -0.20870744, -620534.8, -84544.62, 0.0, 9.999708, 9.999387 
1.5849608e+3, 2.5530407e+2, -538925.06, -552701.2, 10001.391, -0.0028857584, -0.23234472, -533669.25, -95670.31, 0.0, 9.999606, 9.99942 
1.5849501e+3, 2.6530364e+2, -431462.56, -398972.66, 5653.2803, 0.004591454, -0.23713261, -398017.1, -58014.3, 0.0, 9.999451, 9.999878 
1.5849392e+3, 2.7530363e+2, -361733.78, -313062.8, -1064.8076, 0.009621041, -0.23121546, -313039.53, -71037.78, 0.0, 9.99925, 9.999891 
1.5849283e+3, 2.8530335e+2, -304707.72, -262912.75, 1468.4553, 0.010766332, -0.23080802, -262861.22, -118857.336, 0.0, 9.99909, 9.9996395 
1.5849175e+3, 2.9530308e+2, -226301.9, -176201.48, -1103.43, 0.0061726985, -0.22535904, -176177.19, -130170.35, 0.0, 9.998963, 9.999623 
1.5849063e+3, 3.053031e+2, -190671.42, -132264.69, -25948.717, 0.012209723, -0.18232046, -122401.8, -122401.8, 0.0, 9.998865, 9.999637 
1.584895e+3, 3.1530228e+2, -180819.47, -96408.07, 20956.146, 0.04221458, -0.23450936, -91491.79, -91491.79, 0.0, 9.998798, 9.999915 
1.5951125e+3, 1.2532747e+2, -1601323.0, -1729226.3, -2522.0898, 0.026010096, -0.15009072, -1601273.3, 110503.23, 0.013441269, 10.001092, 9.999375 
1.5950999e+3, 1.3532676e+2, -1529490.9, -1657568.3, -329.7127, -0.06896625, -0.15004222, -1529490.0, 84293.91, 0.008547444, 10.000961, 9.99926 
1.5950893e+3, 1.4532594e+2, -1463645.4, -1604166.8, -10919.4375, 0.066742815, -0.13988575, -1462801.9, 52991.25, 0.004160194, 10.000863, 9.998999 
1.5950766e+3, 1.5532528e+2, -1371706.6, -1507401.1, -9840.014, 0.011691353, -0.1105084, -1370996.9, 46804.773, 0.0013091589, 10.000813, 9.999014 
1.5950646e+3, 1.6532438e+2, -1281406.3, -1410747.4, -4364.258, -0.015850049, -0.10018072, -1281259.3, 38551.52, 0.00018659334, 10.000749, 9.999036 
1.595053e+3, 1.7532334e+2, -1194446.5, -1317823.4, -6871.606, -0.0025482704, -0.10983943, -1194065.0, 27754.758, 0.0000028938316, 10.000671, 9.999038 
1.595041e+3, 1.853221e+2, -1140958.0, -1281590.6, -20562.293, 0.0022094054, -0.114244446, -1138013.1, -14181.793, 0.0, 10.000539, 9.998678 
1.595029e+3, 1.9532081e+2, -1067619.3, -1192443.8, -23614.432, -0.006342546, -0.115707755, -1063301.1, -37456.707, 0.0, 10.000357, 9.998705 
1.595017e+3, 2.0531954e+2, -961001.25, -1053999.6, -12357.564, -0.010410526, -0.12751941, -959387.2, -31531.027, 0.0, 10.000259, 9.99903 
1.5950055e+3, 2.1531838e+2, -864141.5, -953154.06, -10844.332, -0.0086732395, -0.15030047, -862839.44, -32973.76, 0.0, 10.0002365, 9.999061 
1.5949939e+3, 2.2531736e+2, -755178.44, -801469.44, -3690.6929, -0.008679561, -0.17831136, -754886.06, -23013.28, 0.0, 10.000104, 9.999493 
1.5949826e+3, 2.3531653e+2, -689816.7, -717783.7, -7895.279, -0.010806106, -0.21341306, -687741.75, -53864.848, 0.0, 9.999873, 9.999506 
1.5949713e+3, 2.4531576e+2, -622750.44, -646172.1, 7227.4033, -0.015363412, -0.23253414, -620699.75, -84816.836, 0.0, 9.999711, 9.999402 
1.5949602e+3, 2.5531512e+2, -537673.06, -551234.8, 6896.5264, -0.021895431, -0.23833449, -534782.2, -96892.71, 0.0, 9.999609, 9.99943 
1.5949492e+3, 2.653147e+2, -441282.8, -420446.4, -988.8784, -0.017798157, -0.23719846, -420399.6, -80505.89, 0.0, 9.999454, 9.999729 
1.5949383e+3, 2.7531448e+2, -371549.88, -334173.38, -7668.1665, -0.0042006285, -0.23530495, -332661.34, -90766.16, 0.0, 9.999251, 9.999746 
1.5949273e+3, 2.853141e+2, -300710.94, -255346.89, -2398.4683, 0.008292878, -0.24016765, -255220.44, -111322.21, 0.0, 9.999091, 9.999692 
1.5949164e+3, 2.9531384e+2, -221766.94, -167939.45, -5131.429, 0.018297346, -0.2421888, -167454.64, -121553.9, 0.0, 9.998966, 9.99968 
1.5949051e+3, 3.0531386e+2, -181537.83, -114474.055, -27890.355, 0.024127556, -0.20897672, -104391.05, -104391.05, 0.0, 9.998869, 9.999759 
1.5948935e+3, 3.1531364e+2, -176835.53, -89021.27, 21335.7, 0.0271279, -0.2122586, -84111.93, -84111.93, 0.0, 9.998801, 9.999966 
1.6051134e+3, 1.25339e+2, -1660474.8, -1754826.0, -6309.3125, 0.019294716, -0.15869862, -1660054.6, 51608.7, 0.01416758, 10.000669, 9.999402 
1.6051006e+3, 1.3533856e+2, -1567712.9, -1671335.8, -7375.909, -0.06903155, -0.13446876, -1567190.5, 46478.184, 0.009042928, 10.000678, 9.999301 
1.6050899e+3, 1.453377e+2, -1488184.0, -1613394.9, -12386.531, 0.06762604, -0.1322839, -1486970.4, 28707.8, 0.004430615, 10.000685, 9.999021 
1.6050774e+3, 1.5533693e+2, -1386010.6, -1512529.6, -7541.7407, 0.0111489305, -0.11525876, -1385562.6, 32124.313, 0.0014114145, 10.000709, 9.999028 
1.6050653e+3, 1.6533597e+2, -1300199.1, -1431794.3, -4545.3374, -0.014152321, -0.105994865, -1300042.3, 19654.322, 0.00020576516, 10.000673, 9.998926 
1.6050535e+3, 1.7533492e+2, -1214766.3, -1339362.1, -9789.255, 0.004143308, -0.1075613, -1214001.9, 7704.5664, 0.0000034510517, 10.000585, 9.998931 
1.6050416e+3, 1.8533364e+2, -1143409.1, -1283544.9, -21894.08, 0.0063334215, -0.11153337, -1140068.1, -16349.435, 0.0, 10.000527, 9.99867 
1.6050293e+3, 1.9533227e+2, -1048230.8, -1184209.1, -18089.852, -0.011311173, -0.11890475, -1045865.4, -20133.309, 0.0, 10.000497, 9.998693 
1.6050173e+3, 2.0533097e+2, -945076.56, -1049099.5, -5889.024, -0.016238919, -0.13148907, -944744.2, -17000.44, 0.0, 10.000382, 9.999003 
1.6050056e+3, 2.1532983e+2, -872453.2, -960323.25, -8937.58, -0.008178488, -0.15058996, -871553.3, -41800.336, 0.0, 10.000195, 9.99903 
1.6049941e+3, 2.2532868e+2, -767682.8, -815932.75, -4289.093, -0.0077474033, -0.18207416, -767304.5, -35543.527, 0.0, 10.000055, 9.999416 
1.6049823e+3, 2.3532769e+2, -683044.3, -722783.8, -5497.937, -0.014448985, -0.22689858, -682297.7, -48530.727, 0.0, 9.999957, 9.99943 
1.604971e+3, 2.453269e+2, -611830.9, -639327.2, 10461.657, -0.02029755, -0.24587648, -608303.06, -72529.9, 0.0, 9.999781, 9.999414 
1.6049598e+3, 2.553264e+2, -547692.2, -555240.75, 9534.5, -0.02536248, -0.24285558, -541212.1, -103433.68, 0.0, 9.999538, 9.999436 
1.6049486e+3, 2.6532593e+2, -458244.22, -440442.94, 4216.7524, -0.02103393, -0.23732631, -439494.6, -99711.66, 0.0, 9.99939, 9.999622 
1.6049375e+3, 2.7532563e+2, -368422.1, -344280.8, 231.80974, -0.008349226, -0.23493075, -344278.6, -102492.46, 0.0, 9.999325, 9.99964 
1.6049266e+3, 2.853252e+2, -288405.44, -244983.83, 4253.3257, 0.0042209616, -0.24289942, -244571.13, -100781.336, 0.0, 9.999158, 9.99973 
1.6049154e+3, 2.953249e+2, -228526.55, -166512.55, 306.40457, 0.015393765, -0.25150183, -166511.03, -120719.15, 0.0, 9.998901, 9.99972 
1.6049041e+3, 3.0532476e+2, -196059.95, -110507.516, -20380.041, 0.028728446, -0.23550391, -105900.71, -105900.71, 0.0, 9.998724, 9.999855 
1.6048922e+3, 3.1532502e+2, -198963.33, -93337.25, 28868.945, 0.029644702, -0.20215404, -85961.98, -85961.98, 0.0, 9.998623, 10.000021 
1.6151139e+3, 1.2535052e+2, -1656316.5, -1746781.1, -893.5614, 0.01310014, -0.15933049, -1656307.6, 55243.563, 0.014930091, 10.00067, 9.999457 
1.6151014e+3, 1.353505e+2, -1561542.3, -1659017.4, -8244.555, -0.055224672, -0.10376666, -1560849.9, 52703.055, 0.009564833, 10.000679, 9.999386 
1.6150908e+3, 1.453496e+2, -1482921.1, -1603300.6, -12489.501, 0.0815745, -0.11195047, -1481639.0, 33923.227, 0.0047169235, 10.000687, 9.999089 
1.6150782e+3, 1.5534863e+2, -1381614.8, -1504549.4, -7393.8633, 0.01419244, -0.12046702, -1381171.6, 36400.12, 0.0015205952, 10.000711, 9.999082 
1.615066e+3, 1.6534758e+2, -1309789.0, -1452924.0, -8475.631, -0.014353806, -0.115528494, -1309288.9, 10293.528, 0.00022625244, 10.000677, 9.998781 
1.6150542e+3, 1.7534651e+2, -1223965.1, -1359638.1, -13398.591, 0.00678662, -0.10373134, -1222654.5, -1061.2212, 0.0000040571203, 10.000588, 9.998791 
1.6150421e+3, 1.8534526e+2, -1137125.9, -1271689.0, -23300.398, 0.0055601974, -0.103389144, -1133205.5, -9600.161, 0.0, 10.000531, 9.99875 
1.6150297e+3, 1.9534393e+2, -1042537.44, -1173593.9, -19521.129, -0.020877538, -0.11357801, -1039691.56, -14074.195, 0.0, 10.0005, 9.998766 
1.6150177e+3, 2.0534258e+2, -950584.5, -1061696.4, -12928.85, -0.02493802, -0.13155386, -949099.94, -21470.652, 0.0, 10.000385, 9.998917 
1.6150059e+3, 2.1534124e+2, -878004.94, -973027.06, -15697.324, -0.007429497, -0.15880443, -875478.94, -45838.605, 0.0, 10.000198, 9.998942 
1.614994e+3, 2.2534005e+2, -769616.6, -821085.7, -7682.1953, -0.009242516, -0.19179116, -768494.5, -36845.25, 0.0, 10.000059, 9.99938 
1.6149822e+3, 2.3533906e+2, -685021.6, -728006.8, -8861.633, -0.028413888, -0.2319478, -683266.4, -49611.14, 0.0, 9.99996, 9.999393 
1.6149707e+3, 2.4533828e+2, -611109.9, -638915.7, 1996.3483, -0.028849397, -0.24876021, -610967.25, -75306.04, 0.0, 9.9997835, 9.999416 
1.6149595e+3, 2.5533774e+2, -547391.4, -555548.75, 1470.825, -0.013135496, -0.2457969, -547134.25, -109468.23, 0.0, 9.99954, 9.9994335 
1.6149482e+3, 2.6533732e+2, -462901.47, -451174.44, 2757.1362, -0.004927719, -0.23744325, -450558.56, -110887.69, 0.0, 9.9993925, 9.999548 
1.6149369e+3, 2.7533695e+2, -372716.75, -354655.97, -1478.1375, -0.0028952402, -0.23017101, -354535.78, -112860.68, 0.0, 9.999329, 9.999569 
1.6149256e+3, 2.853365e+2, -286463.3, -242299.97, -4726.1035, -0.0018924575, -0.23896587, -241799.86, -98120.805, 0.0, 9.999163, 9.999747 
1.6149142e+3, 2.9533616e+2, -226800.38, -163590.77, -8667.658, -0.0032554537, -0.25296193, -162423.75, -116742.98, 0.0, 9.998902, 9.99974 
1.6149028e+3, 3.0533585e+2, -191550.13, -101741.42, -23472.94, 0.025586715, -0.26188537, -95976.45, -95976.45, 0.0, 9.998724, 9.999915 
1.6148911e+3, 3.1533638e+2, -194710.27, -85397.81, 27830.252, 0.05007217, -0.2039084, -78720.31, -78720.31, 0.0, 9.998626, 10.000075 
1.6251145e+3, 1.2536216e+2, -1668224.8, -1744322.9, 2317.149, 0.011588998, -0.1434157, -1668154.3, 43284.14, 0.015727159, 10.000554, 9.99953 
1.625102e+3, 1.3536221e+2, -1586251.1, -1658255.6, -9347.511, -0.04996464, -0.08981809, -1585057.5, 28381.258, 0.0101132095, 10.000455, 9.999497 
1.6250914e+3, 1.4536127e+2, -1506161.0, -1607796.4, -7872.975, 0.08194822, -0.11270439, -1505554.8, 9893.298, 0.005019992, 10.000499, 9.999148 
1.6250788e+3, 1.553603e+2, -1382257.0, -1499113.1, -3895.559, 0.007449278, -0.1282665, -1382127.4, 35329.7, 0.0016376381, 10.000685, 9.999131 
1.6250665e+3, 1.6535923e+2, -1309322.1, -1461480.3, -10244.987, -0.022018794, -0.12261492, -1308635.4, 10832.398, 0.00024865236, 10.00072, 9.9987 
1.6250548e+3, 1.7535815e+2, -1224639.4, -1368539.8, -10683.639, 0.002918339, -0.103578106, -1223850.5, -2370.999, 0.00000475879, 10.000623, 9.998713 
1.6250427e+3, 1.8535689e+2, -1129667.3, -1261562.5, -17671.045, 0.0052009467, -0.10243226, -1127340.9, -3849.2424, 0.0, 10.000556, 9.998807 
1.6250303e+3, 1.9535558e+2, -1036778.06, -1164815.5, -16278.07, -0.017677383, -0.11731447, -1034741.0, -9238.155, 0.0, 10.000516, 9.998817 
1.6250181e+3, 2.0535418e+2, -951531.7, -1064716.6, -14218.761, -0.023691833, -0.13865487, -949772.8, -22258.063, 0.0, 10.000392, 9.998892 
1.625006e+3, 2.1535282e+2, -880794.1, -977196.5, -12447.736, -0.012960272, -0.16823193, -879212.8, -49686.504, 0.0, 10.000194, 9.998916 
1.624994e+3, 2.2535159e+2, -772579.5, -827347.44, 857.16736, -0.015071895, -0.19982156, -772566.06, -41030.56, 0.0, 10.000061, 9.999335 
1.6249822e+3, 2.3535062e+2, -684409.5, -732643.4, -1676.2312, -0.029027395, -0.23502387, -684351.3, -50809.633, 0.0, 9.999988, 9.999348 
1.6249704e+3, 2.4534978e+2, -605164.5, -636289.06, 2537.0188, -0.024612103, -0.25327006, -604959.06, -69411.14, 0.0, 9.999827, 9.9994135 
1.6249591e+3, 2.553492e+2, -540498.44, -552779.9, 1287.352, -0.004237459, -0.2577322, -540364.94, -102811.78, 0.0, 9.999592, 9.999427 
1.6249476e+3, 2.653487e+2, -469043.88, -459496.38, 7066.223, 0.0019724849, -0.24869138, -455742.5, -116184.19, 0.0, 9.999374, 9.999499 
1.6249362e+3, 2.753484e+2, -398859.72, -372493.66, 4582.266, -0.0038700774, -0.23333557, -371719.97, -130157.24, 0.0, 9.999173, 9.99952 
1.6249245e+3, 2.8534797e+2, -302167.8, -247228.38, 1111.0128, -0.0075861504, -0.23691556, -247205.9, -103639.56, 0.0, 9.999044, 9.999769 
1.6249129e+3, 2.9534766e+2, -214275.0, -154759.16, -2970.709, -0.010766934, -0.24864319, -154611.23, -109043.98, 0.0, 9.998978, 9.9997635 
1.6249014e+3, 3.053471e+2, -178489.66, -90661.05, -19501.096, 0.030552205, -0.28691992, -86525.805, -86525.805, 0.0, 9.998795, 9.999957 
1.6248898e+3, 3.153478e+2, -206129.03, -82616.02, 32133.154, 0.061781384, -0.21912129, -74756.4, -74756.4, 0.0, 9.998513, 10.000148 
1.6351151e+3, 1.2537397e+2, -1661810.8, -1731860.8, 3372.788, 0.012334345, -0.109395735, -1661648.8, 49675.387, 0.016557895, 10.000557, 9.999616 
1.6351025e+3, 1.353738e+2, -1576389.0, -1639027.5, -13725.637, -0.053141486, -0.09238852, -1573513.4, 39812.207, 0.010688402, 10.00046, 9.999628 
1.6350918e+3, 1.4537275e+2, -1502397.4, -1601374.9, -1835.489, 0.0691366, -0.13414188, -1502363.4, 12971.969, 0.0053406963, 10.000504, 9.99919 
1.6350794e+3, 1.5537192e+2, -1379175.8, -1493611.0, 2123.0981, -0.008864902, -0.13838345, -1379136.4, 38206.133, 0.0017634478, 10.000687, 9.999169 
1.6350672e+3, 1.6537091e+2, -1310656.3, -1464998.0, -14465.508, -0.037026025, -0.12710808, -1309312.1, 10040.496, 0.00027359868, 10.000721, 9.998676 
1.6350552e+3, 1.7536983e+2, -1225885.8, -1372105.4, -14648.764, -0.007426978, -0.10704886, -1224432.6, -3067.8071, 0.000005604758, 10.000625, 9.998688 
1.6350432e+3, 1.8536852e+2, -1127372.4, -1257863.4, -19445.38, 0.005199975, -0.108622916, -1124536.3, -1159.1492, 0.0, 10.000559, 9.998832 
1.635031e+3, 1.9536719e+2, -1034648.06, -1161435.3, -18095.38, -0.0019691065, -0.12993643, -1032116.0, -6727.5474, 0.0, 10.000519, 9.99884 
1.6350186e+3, 2.053658e+2, -948812.3, -1060123.4, -21691.826, -0.012778504, -0.15260299, -944734.5, -17334.48, 0.0, 10.000395, 9.998923 
1.635006e+3, 2.153645e+2, -878335.9, -973196.06, -19590.88, -0.02480638, -0.17897592, -874449.1, -45038.223, 0.0, 10.000196, 9.998942 
1.634994e+3, 2.2536331e+2, -776347.0, -836275.7, -1575.4706, -0.02516523, -0.20629737, -776305.56, -44885.61, 0.0, 10.000064, 9.999273 
1.6349822e+3, 2.3536232e+2, -688171.9, -741629.06, -4137.255, -0.016298201, -0.23601688, -687853.56, -54427.082, 0.0, 9.99999, 9.999286 
1.6349705e+3, 2.4536139e+2, -605692.56, -638556.56, -5644.1997, -0.0076724538, -0.2593605, -604750.25, -69316.664, 0.0, 9.99983, 9.999397 
1.6349587e+3, 2.5536063e+2, -541144.9, -555354.9, -6660.1665, 0.0009989525, -0.27882808, -538511.4, -101071.195, 0.0, 9.999595, 9.999409 
1.634947e+3, 2.6536012e+2, -470475.8, -463658.84, 314.55392, -0.00072905835, -0.271249, -463644.34, -124198.67, 0.0, 9.999378, 9.99947 
1.6349351e+3, 2.753599e+2, -400527.6, -376790.88, -2089.1074, -0.011377684, -0.24466068, -376608.4, -135158.9, 0.0, 9.999175, 9.999491 
1.6349235e+3, 2.853596e+2, -300280.88, -244210.17, -477.84064, -0.0128319375, -0.23693785, -244206.1, -100753.96, 0.0, 9.999046, 9.99979 
1.634912e+3, 2.9535937e+2, -212175.3, -151845.03, -4975.7124, -0.0072615864, -0.2383459, -151437.4, -105985.51, 0.0, 9.998982, 9.999783 
1.6349004e+3, 3.053585e+2, -176861.69, -88566.8, -29718.13, 0.043353774, -0.31051773, -79496.164, -79496.164, 0.0, 9.998798, 9.99997 
1.6348884e+3, 3.1535915e+2, -199847.98, -70147.56, 23770.037, 0.064589635, -0.24849194, -65928.5, -65928.5, 0.0, 9.998513, 10.000235 
1.6451158e+3, 1.2538558e+2, -1671178.5, -1735878.1, 21392.877, 0.020576239, -0.10674692, -1664744.8, 46465.805, 0.017420573, 10.00049, 9.9996195 
1.6451028e+3, 1.3538541e+2, -1548936.0, -1618770.1, -7003.91, -0.0675058, -0.09641795, -1548240.5, 64971.098, 0.011289107, 10.000623, 9.999688 
1.6450922e+3, 1.4538436e+2, -1485550.6, -1592345.6, 1381.0433, 0.049397774, -0.14190811, -1485532.8, 29688.46, 0.0056783757, 10.000617, 9.999197 
1.64508e+3, 1.5538363e+2, -1405094.4, -1505868.4, 2151.1313, -0.006875805, -0.13623667, -1405048.5, 12179.098, 0.0018979618, 10.000509, 9.99917 
1.6450678e+3, 1.6538265e+2, -1346562.4, -1479548.0, -17196.38, -0.029631434, -0.1228923, -1344374.8, -25137.184, 0.00030132462, 10.000464, 9.9987 
1.6450559e+3, 1.7538154e+2, -1246356.0, -1379508.4, -14270.294, -0.009423263, -0.10779061, -1244843.8, -23593.955, 0.0000066039856, 10.000476, 9.998709 
1.6450436e+3, 1.8538024e+2, -1145480.3, -1263521.6, -19051.223, 0.002649562, -0.113296375, -1142481.6, -19219.484, 0.0, 10.000423, 9.998857 
1.6450314e+3, 1.9537888e+2, -1063072.0, -1172423.8, -18141.664, 0.0027795571, -0.13739705, -1060140.9, -34867.457, 0.0, 10.000313, 9.998862 
1.6450189e+3, 2.0537755e+2, -961172.0, -1061593.3, -21687.197, -0.008866468, -0.15963386, -956688.56, -29403.979, 0.0, 10.000293, 9.998961 
1.6450062e+3, 2.153763e+2, -854071.9, -957516.6, -19707.809, -0.028859131, -0.1829613, -850444.44, -21149.805, 0.0, 10.000347, 9.998977 
1.6449942e+3, 2.2537512e+2, -752066.8, -827134.3, -3516.9365, -0.027578838, -0.20929708, -751902.4, -20598.713, 0.0, 10.000243, 9.9992485 
1.6449822e+3, 2.353741e+2, -688559.94, -744685.0, -3893.801, -0.008666128, -0.23976897, -688291.06, -54980.363, 0.0, 10.000002, 9.999258 
1.6449703e+3, 2.4537317e+2, -612608.25, -642666.6, -6301.413, 0.0010095517, -0.2611267, -611340.7, -76022.74, 0.0, 9.999787, 9.999389 
1.6449584e+3, 2.5537243e+2, -541821.4, -556590.9, -7145.5273, 0.0028982447, -0.27635607, -538930.3, -101606.02, 0.0, 9.999596, 9.999399 
1.6449463e+3, 2.653719e+2, -462356.78, -456467.53, 3425.3147, 0.000597757, -0.27445856, -454895.13, -115565.16, 0.0, 9.999421, 9.999497 
1.6449346e+3, 2.7537152e+2, -386206.03, -367235.66, 5075.155, -0.0052750926, -0.26178467, -365963.25, -124628.88, 0.0, 9.999264, 9.999514 
1.6449228e+3, 2.8537127e+2, -298562.78, -246569.89, 7794.4253, -0.005503048, -0.2486332, -245426.55, -102090.01, 0.0, 9.999073, 9.999761 
1.644911e+3, 2.9537126e+2, -233348.25, -165345.78, -634.5556, -0.0013591473, -0.22883475, -165339.86, -120004.85, 0.0, 9.998853, 9.999751 
1.6448992e+3, 3.053701e+2, -182161.78, -97834.58, -29052.313, 0.055614293, -0.32676452, -88794.61, -88794.61, 0.0, 9.998793, 9.999908 
1.644887e+3, 3.153706e+2, -143558.9, -37122.543, 19911.838, 0.067998014, -0.27136096, -33519.46, -33519.46, 0.0, 9.998877, 10.000285 
1.6551164e+3, 1.253971e+2, -1675674.0, -1746822.4, 30293.443, 0.03321716, -0.13240838, -1664523.4, 46573.44, 0.01831341, 10.000495, 9.999543 
1.6551031e+3, 1.353971e+2, -1549315.4, -1620630.5, -3505.3171, -0.09292114, -0.10143424, -1549143.5, 63952.695, 0.011912873, 10.000626, 9.999675 
1.6550925e+3, 1.4539613e+2, -1487775.3, -1597986.1, -3616.5317, 0.022934292, -0.13624729, -1487656.8, 27448.85, 0.0060311556, 10.00062, 9.999158 
1.6550806e+3, 1.5539546e+2, -1407465.0, -1511772.6, -2403.9978, 0.01272665, -0.12226527, -1407409.6, 9702.558, 0.002040319, 10.000511, 9.999129 
1.6550685e+3, 1.6539448e+2, -1341623.1, -1470359.3, -17322.367, -0.00066219084, -0.11035334, -1339333.0, -20210.957, 0.00033169176, 10.000467, 9.998762 
1.6550563e+3, 1.7539331e+2, -1241694.1, -1370943.3, -14354.63, -0.003391958, -0.10589296, -1240119.1, -18984.879, 0.000007747774, 10.000479, 9.998767 
1.6550441e+3, 1.8539199e+2, -1143648.9, -1260818.5, -23424.193, -0.0025128652, -0.11636069, -1139139.5, -15993.032, 0.0, 10.000426, 9.998875 
1.6550316e+3, 1.9539067e+2, -1061307.9, -1169974.1, -22131.852, -0.0033313953, -0.13984923, -1056973.3, -31815.584, 0.0, 10.000317, 9.9988785 
1.6550192e+3, 2.0538938e+2, -957916.44, -1056054.0, -19587.174, -0.011870038, -0.15994835, -954151.44, -26983.086, 0.0, 10.000296, 9.998999 
1.6550066e+3, 2.153882e+2, -851111.1, -952507.75, -17848.264, -0.025328793, -0.18004315, -848061.1, -18883.496, 0.0, 10.000351, 9.99901 
1.6549943e+3, 2.2538702e+2, -751158.1, -826332.6, -12332.616, -0.022550093, -0.20864652, -749186.6, -17999.879, 0.0, 10.000246, 9.999254 
1.6549823e+3, 2.3538592e+2, -687893.56, -744391.06, -12398.595, -0.0062539214, -0.2463696, -685292.4, -52097.723, 0.0, 10.000005, 9.99926 
1.6549702e+3, 2.4538508e+2, -612626.4, -643835.6, -12855.802, 0.0013160955, -0.25852835, -608012.8, -72811.46, 0.0, 9.999791, 9.99938 
1.6549578e+3, 2.553846e+2, -541626.56, -557352.06, -13489.454, 0.0014272379, -0.24990182, -533875.56, -96669.83, 0.0, 9.999599, 9.999393 
1.6549459e+3, 2.6538396e+2, -456175.84, -444952.84, -1660.9758, 0.006033156, -0.25807244, -444712.2, -105500.64, 0.0, 9.999425, 9.999576 
1.654934e+3, 2.753833e+2, -380644.03, -357139.4, -35.77977, 0.014357933, -0.28482163, -357139.34, -115921.59, 0.0, 9.999268, 9.999581 
1.654922e+3, 2.8538302e+2, -304129.72, -259379.72, 129.45976, 0.014319664, -0.27215168, -259379.34, -116159.305, 0.0, 9.999077, 9.999672 
1.6549098e+3, 2.9538324e+2, -239523.89, -178784.36, -8055.4204, 0.0071979514, -0.22023897, -177734.19, -132517.02, 0.0, 9.998854, 9.99966 
1.6548982e+3, 3.0538177e+2, -191820.53, -118918.1, -25215.193, 0.06739704, -0.33541346, -111046.67, -111046.67, 0.0, 9.9987955, 9.9997635 
1.6548859e+3, 3.1538206e+2, -141475.84, -35032.066, 24443.17, 0.071664825, -0.28751352, -29687.43, -29687.43, 0.0, 9.998884, 10.000297 
1.6651168e+3, 1.2540859e+2, -1653425.5, -1742813.0, 32723.506, 0.024313167, -0.15085523, -1642726.5, 68256.59, 0.019234147, 10.000683, 9.99948 
1.6651037e+3, 1.3540874e+2, -1554893.9, -1623348.1, -5518.6294, -0.09457563, -0.106558055, -1554451.8, 58529.855, 0.01255734, 10.000589, 9.999673 
1.665093e+3, 1.4540787e+2, -1507180.1, -1608147.4, -8677.623, 0.017405663, -0.13181227, -1506439.8, 8550.839, 0.0063973893, 10.00049, 9.99915 
1.6650811e+3, 1.5540724e+2, -1424499.3, -1521066.3, -5190.179, 0.00944291, -0.11040341, -1424221.1, -7224.03, 0.0021897932, 10.000401, 9.999118 
1.6650689e+3, 1.6540624e+2, -1351432.9, -1468138.5, -15341.608, -0.0031564955, -0.10421337, -1349449.8, -30442.64, 0.00036457216, 10.000371, 9.998823 
1.6650568e+3, 1.7540497e+2, -1250286.5, -1368529.8, -13104.686, -0.007118801, -0.116362445, -1248851.6, -27831.908, 0.000009059679, 10.000393, 9.998824 
1.6650444e+3, 1.8540367e+2, -1147525.9, -1258375.6, -25047.457, -0.006248459, -0.12859271, -1142129.0, -19097.498, 0.0, 10.000382, 9.998912 
1.6650319e+3, 1.954025e+2, -1054754.4, -1162582.0, -22588.361, -0.00576089, -0.14140992, -1050213.6, -25172.14, 0.0, 10.000345, 9.998915 
1.6650194e+3, 2.0540126e+2, -954292.2, -1047412.56, -16449.508, -0.012249695, -0.16001585, -951471.8, -24420.27, 0.0, 10.000293, 9.999059 
1.665007e+3, 2.1540008e+2, -865707.75, -953062.56, -13795.289, -0.023025094, -0.18607233, -863580.94, -34520.207, 0.0, 10.000224, 9.999066 
1.6649947e+3, 2.2539894e+2, -771070.2, -833240.2, -14452.156, -0.020003524, -0.21482013, -767874.9, -36805.285, 0.0, 10.0001, 9.999276 
1.6649823e+3, 2.353979e+2, -697891.9, -746806.5, -13653.819, -0.0055894256, -0.2479352, -694338.7, -61261.543, 0.0, 9.9999275, 9.99928 
1.6649699e+3, 2.4539714e+2, -615721.94, -642505.56, -11488.235, 0.0031865607, -0.2560418, -611469.5, -76386.12, 0.0, 9.999759, 9.999404 
1.6649576e+3, 2.553967e+2, -540859.75, -554486.8, -10261.655, 0.0071788775, -0.24370039, -535355.56, -98268.336, 0.0, 9.999595, 9.999414 
1.6649453e+3, 2.6539603e+2, -455387.7, -439633.53, 775.50995, 0.01459131, -0.25884575, -439595.44, -100502.43, 0.0, 9.999411, 9.999619 
1.6649334e+3, 2.7539527e+2, -387116.8, -356280.88, -408.2892, 0.02467295, -0.30167562, -356275.47, -115175.83, 0.0, 9.999208, 9.999616 
1.6649212e+3, 2.8539497e+2, -310815.44, -273892.6, -810.10815, 0.022069877, -0.28550985, -273874.84, -130772.8, 0.0, 9.999082, 9.999569 
1.6649088e+3, 2.9539528e+2, -223055.84, -182649.14, -10233.677, 0.009107601, -0.21410342, -180205.13, -135106.0, 0.0, 9.999019, 9.999553 
1.6648972e+3, 3.0539358e+2, -176358.05, -125600.26, -21505.525, 0.076634, -0.3376703, -117713.914, -117713.914, 0.0, 9.998964, 9.999635 
1.6648848e+3, 3.1539384e+2, -132410.39, -23585.977, 29705.473, 0.07380358, -0.28204098, -16005.415, -16005.415, 0.0, 9.998918, 10.000359 
1.6751172e+3, 1.2542015e+2, -1657046.5, -1751105.0, 32221.139, -0.0081830025, -0.16027224, -1647067.4, 63801.17, 0.020177929, 10.000684, 9.999423 
1.6751046e+3, 1.3542035e+2, -1554693.8, -1623219.6, -10088.901, -0.07338297, -0.111850224, -1553239.3, 59628.12, 0.013220325, 10.000588, 9.999674 
1.6750936e+3, 1.4541955e+2, -1505728.8, -1605843.0, -12917.726, 0.031852394, -0.1288155, -1504088.8, 10787.083, 0.0067765256, 10.000492, 9.999166 
1.6750811e+3, 1.5541902e+2, -1422881.8, -1519068.1, -8966.512, -0.016216405, -0.10061767, -1422053.1, -5171.199, 0.0023464474, 10.000404, 9.999131 
1.675069e+3, 1.6541795e+2, -1347144.0, -1460645.5, -14986.717, -0.03625951, -0.10419392, -1345198.5, -26306.084, 0.00040014452, 10.000376, 9.998873 
1.675057e+3, 1.754165e+2, -1246299.3, -1361388.0, -12733.895, -0.020442897, -0.13890907, -1244907.1, -24001.129, 0.00001061599, 10.000396, 9.998872 
1.6750447e+3, 1.8541528e+2, -1143455.5, -1250980.8, -26694.357, -0.0087034125, -0.14984603, -1137193.1, -14276.125, 0.0, 10.000385, 9.998962 
1.6750322e+3, 1.9541435e+2, -1050818.8, -1155498.9, -24068.639, -0.0046897456, -0.14195609, -1045550.0, -20625.348, 0.0, 10.000348, 9.998963 
1.6750197e+3, 2.0541319e+2, -948442.44, -1036326.0, -19003.324, -0.010145239, -0.15971914, -944509.3, -17575.176, 0.0, 10.000296, 9.999134 
1.6750072e+3, 2.1541195e+2, -860166.06, -942656.44, -16372.788, -0.021946682, -0.20120749, -857035.25, -28091.172, 0.0, 10.000227, 9.999137 
1.6749947e+3, 2.2541086e+2, -768203.4, -828410.0, -20653.328, -0.019951511, -0.22795638, -761799.56, -30847.168, 0.0, 10.000103, 9.999309 
1.6749822e+3, 2.3541003e+2, -695058.2, -742057.75, -19626.969, -0.0068366565, -0.24432068, -687940.06, -54981.645, 0.0, 9.99993, 9.999311 
1.6749698e+3, 2.4540928e+2, -611763.5, -635470.7, -16991.832, 0.006501461, -0.25366127, -602899.25, -67934.9, 0.0, 9.999763, 9.999452 
1.6749573e+3, 2.5540873e+2, -537320.7, -548355.94, -15632.922, 0.020078598, -0.25808305, -526260.25, -89291.16, 0.0, 9.9995985, 9.999455 
1.6749448e+3, 2.6540804e+2, -454833.97, -439751.16, -6074.9775, 0.026126686, -0.27697197, -437608.63, -98633.84, 0.0, 9.999414, 9.999617 
1.6749325e+3, 2.754073e+2, -387095.03, -357343.9, -7121.517, 0.025553454, -0.3121264, -355727.1, -114746.63, 0.0, 9.999211, 9.999607 
1.6749202e+3, 2.8540704e+2, -318943.16, -291926.38, -2463.4336, 0.017448252, -0.28855366, -291703.6, -148720.48, 0.0, 9.999084, 9.999444 
1.6749078e+3, 2.9540733e+2, -231189.84, -201048.9, -11922.838, 0.0035531337, -0.21052435, -196902.89, -151921.4, 0.0, 9.999023, 9.999425 
1.6748962e+3, 3.0540553e+2, -184067.75, -143312.58, -22837.895, 0.08270844, -0.3328569, -133082.73, -133082.73, 0.0, 9.99897, 9.999512 
1.6748838e+3, 3.1540585e+2, -124342.414, -8245.974, 28525.344, 0.074689716, -0.25233373, -1615.8278, -1615.8278, 0.0, 9.998922, 10.000463 
1.6851176e+3, 1.2543169e+2, -1667429.9, -1754621.0, 23730.938, -0.024244463, -0.16187769, -1661389.5, 49365.89, 0.021138081, 10.000607, 9.999435 
1.6851051e+3, 1.3543189e+2, -1584787.1, -1630404.0, -17843.357, -0.065288804, -0.11976695, -1578636.9, 34117.26, 0.013899301, 10.000349, 9.99974 
1.685094e+3, 1.4543118e+2, -1528643.5, -1609813.8, -9556.338, 0.032362476, -0.13371818, -1527533.5, -12771.889, 0.0071684015, 10.000305, 9.9992285 
1.6850814e+3, 1.5543073e+2, -1412810.6, -1507616.8, -2671.3096, -0.032385513, -0.102045804, -1412735.4, 4031.4294, 0.0025108194, 10.000446, 9.999188 
1.6850692e+3, 1.6542971e+2, -1332944.6, -1446902.9, -9925.648, -0.053073596, -0.107034355, -1332086.6, -13309.787, 0.0004388093, 10.000444, 9.998934 
1.6850573e+3, 1.7542829e+2, -1253034.3, -1357961.9, -7242.282, -0.025198475, -0.14682236, -1252536.8, -31746.7, 0.000012516376, 10.000322, 9.99893 
1.685045e+3, 1.854271e+2, -1156155.6, -1248414.6, -19232.008, -0.009296617, -0.1594779, -1152307.1, -29506.725, 0.0, 10.000262, 9.999039 
1.6850324e+3, 1.9542626e+2, -1060011.5, -1151729.9, -15242.399, -0.0074415756, -0.15045515, -1057544.8, -32737.613, 0.0, 10.000251, 9.999035 
1.6850199e+3, 2.0542516e+2, -965852.75, -1042783.44, -14960.517, -0.011457286, -0.16579649, -963045.8, -36229.65, 0.0, 10.00017, 9.999149 
1.6850074e+3, 2.1542396e+2, -888285.0, -954211.4, -17230.102, -0.018890828, -0.20384398, -884053.44, -55227.344, 0.0, 10.000028, 9.999153 
1.6849947e+3, 2.2542296e+2, -785893.6, -826585.25, -21702.492, -0.016195243, -0.22842292, -776491.4, -45657.453, 0.0, 9.999939, 9.999399 
1.684982e+3, 2.3542222e+2, -694322.25, -731888.3, -16995.52, -0.0055038375, -0.24346279, -687774.44, -54935.676, 0.0, 9.999895, 9.999397 
1.6849695e+3, 2.4542156e+2, -605777.4, -627219.56, -15125.365, 0.0066789496, -0.25295964, -597958.8, -63114.813, 0.0, 9.999783, 9.999497 
1.6849568e+3, 2.55421e+2, -533150.3, -541760.1, -14223.575, 0.020296851, -0.25915602, -522594.47, -85746.07, 0.0, 9.999609, 9.999495 
1.6849443e+3, 2.6542032e+2, -451699.44, -442672.44, -6550.58, 0.028131038, -0.2796132, -439230.94, -100376.7, 0.0, 9.999456, 9.999576 
1.6849318e+3, 2.7541956e+2, -374059.72, -355859.5, -10814.139, 0.030663038, -0.31557798, -350826.03, -109965.6, 0.0, 9.999323, 9.999563 
1.6849193e+3, 2.8541926e+2, -303415.97, -287733.25, -742.40356, 0.020955421, -0.2920289, -287698.2, -144834.72, 0.0, 9.9992075, 9.9994135 
1.684907e+3, 2.9541945e+2, -222151.5, -200940.0, -3394.0994, 0.0020134219, -0.21446069, -200410.14, -155547.89, 0.0, 9.999105, 9.999385 
1.6848953e+3, 3.054176e+2, -186198.06, -160360.17, -11310.323, 0.084899515, -0.33352026, -156108.72, -156108.72, 0.0, 9.999026, 9.999367 
1.6848826e+3, 3.1541795e+2, -112118.945, 8473.003, 37641.742, 0.058503166, -0.23888697, 19258.006, 19258.006, 0.0, 9.998961, 10.000558 
1.6951181e+3, 1.2544325e+2, -1662247.8, -1743841.5, 16201.498, -0.027980013, -0.15420268, -1659148.5, 51494.24, 0.022110628, 10.000606, 9.999511 
1.6951054e+3, 1.3544339e+2, -1575794.5, -1612842.4, -27591.383, -0.07017317, -0.13018432, -1561085.6, 51555.63, 0.014592254, 10.000353, 9.99986 
1.6950941e+3, 1.4544278e+2, -1520906.1, -1595235.4, -4908.4805, 0.01925254, -0.14625818, -1520583.4, -5935.847, 0.007572671, 10.00031, 9.999327 
1.6950817e+3, 1.5544243e+2, -1405782.5, -1493816.8, 1614.3212, -0.039438345, -0.11432968, -1405752.9, 10898.589, 0.002683379, 10.000448, 9.999284 
1.6950695e+3, 1.6544154e+2, -1328144.1, -1437629.9, -15084.921, -0.05420224, -0.1126641, -1326103.8, -7443.6284, 0.0004809482, 10.000446, 9.998998 
1.6950576e+3, 1.754403e+2, -1248197.3, -1348906.3, -12024.986, -0.021689713, -0.14049351, -1246781.4, -26109.51, 0.000014849569, 10.000324, 9.998992 
1.6950452e+3, 1.8543915e+2, -1148996.9, -1234645.4, -19843.875, -0.008151686, -0.1577759, -1144622.6, -21940.914, 0.0, 10.000265, 9.999133 
1.6950327e+3, 1.9543822e+2, -1053327.3, -1138972.6, -15979.128, -0.014066178, -0.16697949, -1050443.1, -25754.285, 0.0, 10.000254, 9.999122 
1.69502e+3, 2.0543718e+2, -968835.7, -1050054.8, -20322.213, -0.016236436, -0.17827521, -964034.56, -37336.902, 0.0, 10.000173, 9.9991 
1.6950074e+3, 2.1543615e+2, -890851.56, -960655.9, -22265.982, -0.014018435, -0.193801, -884354.0, -55647.125, 0.0, 10.0000305, 9.999108 
1.6949947e+3, 2.2543521e+2, -775393.0, -805963.6, -23011.605, -0.00884758, -0.2160512, -763052.7, -32338.582, 0.0, 9.999942, 9.99954 
1.694982e+3, 2.3543449e+2, -684394.25, -712444.44, -18304.664, -0.0016270593, -0.2454908, -675359.3, -42640.758, 0.0, 9.999899, 9.999531 
1.6949692e+3, 2.454339e+2, -602508.25, -621676.8, -20958.2, 0.0035782473, -0.25401, -589046.8, -54324.105, 0.0, 9.999785, 9.999535 
1.6949563e+3, 2.5543353e+2, -530356.2, -537243.5, -19861.824, 0.007523675, -0.24663769, -513641.7, -76916.24, 0.0, 9.999613, 9.999525 
1.6949438e+3, 2.654328e+2, -457323.94, -455712.38, -10833.367, 0.02035401, -0.26641956, -445654.88, -106923.1, 0.0, 9.999461, 9.999485 
1.6949312e+3, 2.7543184e+2, -379451.22, -368540.03, -15050.513, 0.039729357, -0.3118523, -357986.84, -117246.79, 0.0, 9.999328, 9.999475 
1.6949187e+3, 2.8543144e+2, -298629.03, -279311.75, -3979.8655, 0.03248983, -0.29599223, -278523.9, -135780.19, 0.0, 9.999212, 9.99947 
1.694906e+3, 2.9543164e+2, -218513.42, -194758.88, -6562.3022, 0.0048773903, -0.22615466, -193066.56, -148324.56, 0.0, 9.99911, 9.999427 
1.6948941e+3, 3.054298e+2, -197632.1, -185517.78, -13146.056, 0.08309033, -0.33963475, -177100.55, -177100.55, 0.0, 9.99903, 9.999193 
1.6948812e+3, 3.1543e+2, -105702.36, 20170.453, 34574.402, 0.024451893, -0.24026519, 29041.988, 29041.988, 0.0, 9.998966, 10.000637 
1.7051187e+3, 1.25455e+2, -1685430.8, -1749197.3, 31463.934, -0.019239357, -0.14614238, -1672519.8, 38008.195, 0.023094978, 10.000419, 9.999563 
1.7051058e+3, 1.3545512e+2, -1556918.1, -1593676.4, -17175.35, -0.07613985, -0.13274671, -1550142.0, 62383.914, 0.0152980285, 10.000443, 9.9999485 
1.7050944e+3, 1.4545454e+2, -1511544.8, -1589267.8, 4666.5957, 0.0052813245, -0.15085784, -1511265.5, 3266.0918, 0.007988725, 10.000369, 9.999338 
1.7050822e+3, 1.5545413e+2, -1438724.5, -1508213.5, 4231.932, -0.03807545, -0.127157, -1438467.8, -21931.42, 0.0028641522, 10.000217, 9.999295 
1.70507e+3, 1.6545333e+2, -1366043.6, -1445800.1, -16813.56, -0.048903003, -0.12260168, -1362644.0, -44099.758, 0.0005267183, 10.000144, 9.999086 
1.7050579e+3, 1.7545229e+2, -1269726.4, -1349344.3, -12197.458, -0.022625316, -0.13761924, -1267899.8, -47345.625, 0.000017669796, 10.000135, 9.99908 
1.7050456e+3, 1.8545124e+2, -1163449.9, -1231067.4, -17650.965, -0.011418576, -0.15440305, -1159119.5, -36556.63, 0.0, 10.000122, 9.999226 
1.7050329e+3, 1.954503e+2, -1069400.8, -1136988.3, -14469.991, -0.01624441, -0.17358506, -1066433.3, -41863.47, 0.0, 10.000103, 9.9992075 
1.70502e+3, 2.0544928e+2, -985337.25, -1057108.8, -20413.568, -0.017815303, -0.18660244, -979937.4, -53359.016, 0.0, 10.000057, 9.999105 
1.7050073e+3, 2.1544832e+2, -897073.4, -962671.75, -18566.947, -0.015368908, -0.19676983, -892182.75, -63595.355, 0.0, 9.999985, 9.999116 
1.7049946e+3, 2.2544745e+2, -775436.75, -797521.25, -18977.213, -0.009850925, -0.21672663, -764523.0, -33928.78, 0.0, 9.9999075, 9.999615 
1.7049819e+3, 2.354468e+2, -690589.3, -707629.6, -19838.416, -0.0022582363, -0.24641612, -677518.8, -44920.945, 0.0, 9.999825, 9.9995985 
1.704969e+3, 2.4544623e+2, -608112.9, -623923.4, -28810.545, 0.0022556903, -0.25471634, -586142.7, -51540.96, 0.0, 9.999747, 9.9995365 
1.704956e+3, 2.5544587e+2, -521545.22, -532894.44, -30879.6, 0.0047697555, -0.24673389, -495823.16, -59218.633, 0.0, 9.999675, 9.999524 
1.7049432e+3, 2.654452e+2, -448608.34, -452843.94, -21969.383, 0.019063195, -0.26213527, -428654.9, -90044.28, 0.0, 9.999529, 9.999471 
1.7049305e+3, 2.754443e+2, -381669.44, -371102.3, -20326.418, 0.04205166, -0.30012417, -355384.0, -114765.48, 0.0, 9.999321, 9.999459 
1.7049178e+3, 2.854438e+2, -299829.56, -277988.75, -5169.115, 0.036112282, -0.29094523, -276827.16, -134204.56, 0.0, 9.999198, 9.999485 
1.7049052e+3, 2.9544383e+2, -213776.98, -191830.83, -11199.516, 0.008786652, -0.23979469, -187124.69, -142502.8, 0.0, 9.999142, 9.999431 
1.7048933e+3, 3.0544195e+2, -201385.34, -202356.67, -17477.908, 0.09144694, -0.3475126, -184386.36, -184386.36, 0.0, 9.999071, 9.999057 
1.70488e+3, 3.1544197e+2, -94751.21, 37680.855, 31004.729, 0.008704377, -0.2589185, 44580.184, 44580.184, 0.0, 9.998991, 10.000744 
1.7151193e+3, 1.2546703e+2, -1683252.8, -1745816.8, 33034.88, -0.0023963102, -0.13586548, -1669038.9, 41371.72, 0.024090363, 10.0004225, 9.999586 
1.715106e+3, 1.3546714e+2, -1552973.4, -1586510.4, -17518.805, -0.08307027, -0.12762637, -1545491.4, 66916.46, 0.016015902, 10.000446, 9.999998 
1.7150946e+3, 1.4546654e+2, -1516537.5, -1600744.4, -1721.9276, -0.00940234, -0.14785336, -1516502.3, -2088.6711, 0.008416149, 10.000372, 9.999259 
1.7150824e+3, 1.5546587e+2, -1443400.5, -1519043.3, -1868.6404, -0.028714342, -0.14064921, -1443354.4, -26933.484, 0.0030529583, 10.00022, 9.999221 
1.7150702e+3, 1.6546507e+2, -1357916.0, -1430145.6, -17515.188, -0.037563886, -0.13670918, -1353892.8, -35463.813, 0.00057611073, 10.000147, 9.999193 
1.7150578e+3, 1.7546427e+2, -1261677.0, -1333876.3, -12864.728, -0.02805, -0.1380562, -1259453.3, -39016.8, 0.00002102365, 10.000139, 9.999186 
1.7150456e+3, 1.8546338e+2, -1156846.5, -1218566.5, -18531.191, -0.019091232, -0.14939056, -1151710.0, -29266.283, 0.0, 10.000125, 9.9993105 
1.7150329e+3, 1.9546251e+2, -1063236.9, -1125380.9, -15317.972, -0.014105388, -0.17040928, -1059666.3, -35216.617, 0.0, 10.000107, 9.999287 
1.7150202e+3, 2.0546149e+2, -980990.5, -1049262.5, -23076.457, -0.016293047, -0.19081922, -973922.25, -47464.07, 0.0, 10.00006, 9.999159 
1.7150073e+3, 2.1546045e+2, -892952.0, -955290.0, -21107.373, -0.022993455, -0.21287183, -886477.56, -58009.81, 0.0, 9.999989, 9.999166 
1.7149943e+3, 2.2545962e+2, -774779.94, -797395.56, -21803.094, -0.019305376, -0.23058638, -761526.8, -31052.525, 0.0, 9.99991, 9.999615 
1.7149816e+3, 2.3545912e+2, -690243.94, -708139.56, -22406.932, -0.007590588, -0.24614461, -675064.3, -42587.344, 0.0, 9.999828, 9.999595 
1.7149687e+3, 2.4545853e+2, -610458.1, -630002.56, -30891.057, 0.0026411982, -0.25499412, -587830.44, -53349.043, 0.0, 9.999751, 9.999495 
1.7149557e+3, 2.55458e+2, -523685.56, -538684.5, -33099.906, 0.012057012, -0.25967726, -497246.2, -60760.188, 0.0, 9.999679, 9.999483 
1.7149428e+3, 2.654574e+2, -443821.5, -444314.56, -29194.938, 0.024188971, -0.26695162, -414872.06, -76380.72, 0.0, 9.999533, 9.999528 
1.7149298e+3, 2.7545682e+2, -377381.34, -363506.94, -27176.492, 0.03750844, -0.2800243, -342396.2, -101899.88, 0.0, 9.999325, 9.999511 
1.714917e+3, 2.854563e+2, -301720.8, -283140.2, -6707.0835, 0.031648487, -0.27654216, -280972.1, -138471.48, 0.0, 9.999201, 9.999449 
1.7149043e+3, 2.9545596e+2, -216087.77, -198007.39, -12959.193, 0.013222888, -0.25567338, -191246.77, -146744.11, 0.0, 9.9991455, 9.999387 
1.7148925e+3, 3.0545408e+2, -207998.03, -217687.55, -20203.275, 0.10990723, -0.35714918, -192066.75, -192066.75, 0.0, 9.999076, 9.99895 
1.714879e+3, 3.1545374e+2, -85290.16, 55700.914, 25768.35, 0.013399395, -0.29214224, 60262.88, 60262.88, 0.0, 9.998996, 10.000866 
1.7251198e+3, 1.2547916e+2, -1656686.6, -1740211.4, 49566.465, -0.003525797, -0.13383372, -1633634.5, 76656.85, 0.025095664, 10.000644, 9.999518 
1.7251065e+3, 1.3547921e+2, -1549725.0, -1589567.3, -9868.305, -0.07830989, -0.12955496, -1547414.8, 64874.504, 0.016745616, 10.000491, 9.999953 
1.7250949e+3, 1.4547859e+2, -1525148.8, -1607556.9, 1179.5328, -0.009296254, -0.14686573, -1525131.9, -10836.695, 0.008854771, 10.000326, 9.999234 
1.7250827e+3, 1.554778e+2, -1454973.8, -1527076.9, 4747.4697, -0.025596127, -0.14788623, -1454662.5, -38358.973, 0.003249545, 10.000153, 9.999197 
1.7250703e+3, 1.6547705e+2, -1359773.5, -1421676.5, -3802.599, -0.035521843, -0.14432271, -1359540.9, -41229.543, 0.00062906195, 10.000095, 9.999275 
1.725058e+3, 1.7547642e+2, -1256871.8, -1322728.0, -1643.6376, -0.031370047, -0.13875929, -1256830.8, -36513.605, 0.00002497822, 10.000135, 9.999263 
1.7250456e+3, 1.8547556e+2, -1153471.8, -1212252.9, -12131.261, -0.023228517, -0.15031186, -1151066.5, -28742.617, 0.0, 10.00013, 9.999351 
1.7250331e+3, 1.9547465e+2, -1063614.1, -1120763.6, -12727.298, -0.014900642, -0.1777127, -1060907.9, -36577.664, 0.0, 10.000085, 9.999328 
1.7250203e+3, 2.0547368e+2, -974907.56, -1033790.94, -20553.293, -0.016623862, -0.20184532, -968443.06, -42104.88, 0.0, 10.00005, 9.9992695 
1.7250071e+3, 2.1547273e+2, -881230.8, -937986.75, -14782.095, -0.025330083, -0.22521318, -877611.6, -49265.12, 0.0, 10.00002, 9.999269 
1.7249943e+3, 2.2547202e+2, -770029.5, -796548.56, -16163.28, -0.022899643, -0.23701838, -762382.9, -32030.73, 0.0, 9.999951, 9.999599 
1.7249815e+3, 2.354716e+2, -688340.0, -708797.1, -18457.166, -0.011782452, -0.24076001, -677466.6, -45112.28, 0.0, 9.999849, 9.999578 
1.7249686e+3, 2.4547099e+2, -610742.2, -627798.1, -25401.443, 0.0016800612, -0.2521635, -592475.4, -58116.24, 0.0, 9.999741, 9.999514 
1.7249554e+3, 2.5547034e+2, -530485.8, -540256.5, -23320.305, 0.017377425, -0.27136317, -511544.63, -75179.79, 0.0, 9.999627, 9.999496 
1.7249423e+3, 2.6546976e+2, -440349.72, -445729.5, -21799.283, 0.029808402, -0.27510917, -421075.0, -82704.94, 0.0, 9.999572, 9.999498 
1.7249294e+3, 2.7546933e+2, -344769.5, -351080.75, -26673.848, 0.038516212, -0.26957557, -321065.28, -80691.39, 0.0, 9.999565, 9.999479 
1.7249164e+3, 2.8546876e+2, -268361.16, -269465.25, -9917.365, 0.030476578, -0.26925004, -258980.48, -116601.78, 0.0, 9.999442, 9.999425 
1.7249034e+3, 2.954682e+2, -206830.2, -197000.02, -15250.747, 0.012460926, -0.26942834, -185891.9, -141509.28, 0.0, 9.999227, 9.999354 
1.7248918e+3, 3.0546644e+2, -210854.69, -228005.69, -19045.943, 0.12282579, -0.35011306, -198542.7, -198542.7, 0.0, 9.999097, 9.998868 
1.7248781e+3, 3.1546575e+2, -72879.29, 72941.61, 25159.682, 0.01964921, -0.31236714, 77160.55, 77160.55, 0.0, 9.999035, 10.000965 
1.7351204e+3, 1.254915e+2, -1667138.0, -1763815.9, 43611.2, -0.024439856, -0.1380619, -1650372.5, 59796.91, 0.026112983, 10.000649, 9.999354 
1.7351073e+3, 1.3549134e+2, -1558962.1, -1609673.5, -16558.87, -0.06256434, -0.13826412, -1554034.1, 58135.832, 0.017487902, 10.000494, 9.999813 
1.7350954e+3, 1.4549075e+2, -1523306.6, -1604788.3, -5922.3066, 0.0046357107, -0.14780709, -1522878.4, -8702.466, 0.0093043, 10.000329, 9.999252 
1.7350827e+3, 1.5549e+2, -1452667.8, -1523891.0, -2026.6318, -0.028595654, -0.14896505, -1452610.1, -36426.08, 0.0034534705, 10.000158, 9.999217 
1.7350703e+3, 1.6548926e+2, -1355354.1, -1414167.3, -2672.5562, -0.04247483, -0.1456467, -1355233.0, -37041.746, 0.00068548496, 10.000101, 9.999326 
1.7350581e+3, 1.7548867e+2, -1253202.0, -1316389.8, -629.0751, -0.0327243, -0.13982032, -1253195.6, -32999.47, 0.00002961696, 10.000139, 9.999306 
1.7350456e+3, 1.8548778e+2, -1153626.5, -1213737.5, -13971.378, -0.024029316, -0.15708196, -1150537.9, -28334.4, 0.0, 10.000133, 9.99934 
1.7350331e+3, 1.9548675e+2, -1063194.6, -1121129.6, -14448.058, -0.01871781, -0.19537017, -1059791.4, -35580.105, 0.0, 10.000089, 9.999325 
1.7350203e+3, 2.0548585e+2, -962970.56, -1010261.8, -21556.803, -0.018905092, -0.21963252, -954619.1, -28400.72, 0.0, 10.000053, 9.99943 
1.7350073e+3, 2.1548517e+2, -870163.7, -916279.25, -15781.802, -0.022586763, -0.23378827, -865280.0, -37056.34, 0.0, 10.000024, 9.999416 
1.7349942e+3, 2.2548461e+2, -772029.25, -802013.4, -19639.346, -0.02076662, -0.23595792, -762313.7, -32085.738, 0.0, 9.999955, 9.999561 
1.7349812e+3, 2.3548424e+2, -690213.5, -713938.25, -21798.004, -0.014878172, -0.23017348, -677259.2, -45028.91, 0.0, 9.999853, 9.999542 
1.7349681e+3, 2.4548359e+2, -604862.25, -616850.44, -29047.564, -0.00074652483, -0.24625088, -581196.75, -46961.45, 0.0, 9.999744, 9.999588 
1.734955e+3, 2.5548285e+2, -525463.25, -531089.25, -26560.17, 0.020588256, -0.28184623, -501567.56, -65326.164, 0.0, 9.999631, 9.999558 
1.734942e+3, 2.6548225e+2, -448687.5, -464432.94, -21316.309, 0.03586605, -0.2866881, -433836.56, -95589.33, 0.0, 9.999577, 9.99937 
1.734929e+3, 2.7548182e+2, -352639.53, -369194.75, -26625.2, 0.04478901, -0.26900846, -333034.88, -92783.09, 0.0, 9.999571, 9.999352 
1.7349158e+3, 2.8548115e+2, -268458.22, -271514.22, -17717.701, 0.03225185, -0.2692978, -252202.75, -109945.26, 0.0, 9.999449, 9.99941 
1.7349027e+3, 2.9548046e+2, -207911.3, -200820.88, -22692.607, 0.0065620188, -0.28099805, -181398.22, -137135.75, 0.0, 9.999231, 9.999327 
1.734891e+3, 3.05479e+2, -214615.97, -237379.44, -21002.576, 0.13017827, -0.3253735, -202109.38, -202109.38, 0.0, 9.999102, 9.998802 
1.7348772e+3, 3.15478e+2, -67786.98, 81757.57, 19076.6, 0.028150128, -0.31320935, 84152.71, 84152.71, 0.0, 9.999041, 10.001024 
1.745121e+3, 1.2550382e+2, -1626910.1, -1751676.9, 40272.84, -0.034648996, -0.14961691, -1615040.0, 95007.5, 0.027146768, 10.000968, 9.999283 
1.7451078e+3, 1.3550366e+2, -1563796.9, -1618459.0, -13857.839, -0.055303082, -0.14710543, -1560484.4, 51564.555, 0.018243046, 10.00049, 9.999754 
1.7450957e+3, 1.4550312e+2, -1524749.6, -1604913.3, 8737.248, 0.008016316, -0.14781085, -1523808.4, -9753.802, 0.009763315, 10.000319, 9.999256 
1.745083e+3, 1.5550233e+2, -1417468.4, -1506459.5, 10724.845, -0.03381933, -0.15137866, -1416194.1, -131.30783, 0.0036636468, 10.0004, 9.99922 
1.7450704e+3, 1.6550156e+2, -1321693.8, -1395125.8, 6592.024, -0.046452094, -0.15169153, -1321106.6, -3036.6106, 0.0007450982, 10.000321, 9.999349 
1.7450583e+3, 1.7550096e+2, -1255408.0, -1314925.4, 6374.1553, -0.027895113, -0.1500148, -1254733.0, -34658.176, 0.00003499582, 10.000114, 9.999326 
1.7450458e+3, 1.855001e+2, -1163838.4, -1215174.9, -3254.753, -0.021756444, -0.16639394, -1163632.9, -41550.953, 0.0, 10.00005, 9.99937 
1.7450331e+3, 1.9549917e+2, -1059494.1, -1115856.0, -1300.6262, -0.02806553, -0.19971418, -1059464.1, -35374.77, 0.0, 10.000101, 9.999354 
1.7450203e+3, 2.0549834e+2, -947796.94, -993252.06, -11478.342, -0.02727659, -0.22245775, -945062.9, -18967.111, 0.0, 10.000117, 9.999515 
1.7450073e+3, 2.1549773e+2, -852854.44, -898886.9, -12143.432, -0.019744933, -0.23774439, -849847.44, -21747.416, 0.0, 10.000106, 9.9994955 
1.7449944e+3, 2.2549717e+2, -760660.94, -792726.56, -19863.076, -0.013589786, -0.24263208, -751167.44, -21063.506, 0.0, 10.000019, 9.999594 
1.7449813e+3, 2.354968e+2, -686008.2, -708812.2, -17066.158, -0.0090557365, -0.24111241, -676885.56, -44779.215, 0.0, 9.99987, 9.999568 
1.7449678e+3, 2.4549618e+2, -602926.1, -619190.9, -25257.541, 0.0022698785, -0.25462443, -584524.0, -50412.6, 0.0, 9.999774, 9.999557 
1.7449547e+3, 2.554955e+2, -515118.16, -529736.9, -31040.426, 0.019966397, -0.28175473, -490538.13, -54420.887, 0.0, 9.99972, 9.999524 
1.7449416e+3, 2.6549485e+2, -442110.7, -467686.44, -25205.316, 0.03778699, -0.28285006, -426634.84, -88511.484, 0.0, 9.999651, 9.99931 
1.7449287e+3, 2.7549437e+2, -356557.1, -377634.34, -25449.201, 0.05368248, -0.26566803, -339550.78, -99422.13, 0.0, 9.999574, 9.999292 
1.7449152e+3, 2.8549358e+2, -259290.42, -267577.66, -17412.754, 0.03651016, -0.2750445, -245535.06, -103399.56, 0.0, 9.999516, 9.999403 
1.744902e+3, 2.9549274e+2, -174519.08, -186277.52, -21816.977, -0.0020406845, -0.30183315, -157803.05, -113661.23, 0.0, 9.99947, 9.9993105 
1.7448902e+3, 3.0549166e+2, -186458.89, -234724.39, -20584.143, 0.13399377, -0.30075115, -178872.63, -178872.63, 0.0, 9.999344, 9.998703 
1.7448764e+3, 3.1549037e+2, -55531.574, 80668.766, 11514.493, 0.0369216, -0.31112745, 81635.35, 81635.35, 0.0, 9.999157, 10.000959 
1.755122e+3, 1.2551622e+2, -1626601.4, -1750479.0, 21498.213, -0.037798345, -0.16743657, -1622976.5, 86948.586, 0.02820003, 10.000964, 9.999292 
1.7551082e+3, 1.3551615e+2, -1562557.1, -1616963.3, -31544.992, -0.05606787, -0.15592419, -1548105.8, 63820.125, 0.019010184, 10.000493, 9.999764 
1.755096e+3, 1.455157e+2, -1525354.4, -1607733.4, 11152.2705, 0.0013058394, -0.14680248, -1523871.4, -9940.643, 0.010229628, 10.000323, 9.999235 
1.7550832e+3, 1.5551487e+2, -1418523.6, -1509681.8, 12602.219, -0.041377377, -0.155081, -1416813.5, -873.83136, 0.003878522, 10.000402, 9.999197 
1.7550708e+3, 1.65514e+2, -1321931.6, -1396577.3, -1630.4586, -0.047698073, -0.16229108, -1321896.0, -3948.5598, 0.0008073514, 10.000324, 9.999338 
1.7550585e+3, 1.7551331e+2, -1255206.8, -1315823.8, -1215.7758, -0.017126089, -0.16909368, -1255182.4, -35229.277, 0.00004108452, 10.000118, 9.999319 
1.755046e+3, 1.8551256e+2, -1158803.9, -1206156.1, -1452.7131, -0.016620036, -0.17815387, -1158759.4, -36800.2, 0.000000000016639355, 10.000054, 9.999431 
1.7550331e+3, 1.9551188e+2, -1054893.8, -1107636.3, 480.4295, -0.043046165, -0.19094598, -1054889.4, -30924.885, 0.0, 10.000105, 9.99941 
1.7550203e+3, 2.0551111e+2, -947113.8, -993095.6, -11794.613, -0.04172698, -0.2105013, -944264.94, -18294.53, 0.0, 10.000121, 9.999516 
1.7550075e+3, 2.1551038e+2, -852027.25, -898426.4, -12601.902, -0.016764197, -0.2370901, -848825.5, -20849.889, 0.0, 10.00011, 9.999498 
1.7549945e+3, 2.2550972e+2, -753234.7, -778621.4, -25086.398, -0.0014114268, -0.25713482, -737813.1, -7832.952, 0.0, 10.000023, 9.999689 
1.7549811e+3, 2.3550928e+2, -679592.5, -696790.0, -21884.258, 0.005513209, -0.2738832, -664678.3, -32695.357, 0.0, 9.999874, 9.99965 
1.7549677e+3, 2.4550872e+2, -612578.1, -640559.4, -26641.975, 0.010609343, -0.27734953, -596476.7, -62488.97, 0.0, 9.999778, 9.999409 
1.7549543e+3, 2.555082e+2, -524297.0, -550229.06, -32446.563, 0.015198756, -0.2706174, -502321.7, -66328.95, 0.0, 9.999723, 9.999382 
1.7549412e+3, 2.655076e+2, -440806.84, -466501.88, -27561.906, 0.035237387, -0.26320806, -423245.2, -85246.31, 0.0, 9.999656, 9.999316 
1.7549282e+3, 2.7550694e+2, -355604.4, -377140.22, -27587.635, 0.06539782, -0.25975296, -336757.72, -96752.74, 0.0, 9.999578, 9.999294 
1.754915e+3, 2.85506e+2, -258895.48, -268393.94, -18643.691, 0.04340613, -0.28694534, -244405.63, -102392.31, 0.0, 9.999521, 9.999396 
1.7549013e+3, 2.95505e+2, -174383.52, -188029.19, -23573.428, -0.014261846, -0.33227912, -156665.42, -112644.04, 0.0, 9.999476, 9.999296 
1.7548895e+3, 3.0550438e+2, -195024.47, -254700.89, -27406.633, 0.13332151, -0.27578843, -184347.97, -184347.97, 0.0, 9.9993515, 9.998564 
1.7548756e+3, 3.1550285e+2, -69127.14, 50593.145, -1152.8329, 0.047331978, -0.29350254, 50604.246, 50604.246, 0.0, 9.999163, 10.000751 
1.7651229e+3, 1.2552884e+2, -1664479.8, -1771004.8, 23645.127, -0.03971796, -0.17579234, -1659467.1, 50333.78, 0.029275268, 10.000707, 9.999275 
1.7651087e+3, 1.3552874e+2, -1544219.1, -1609801.6, -31939.271, -0.06836295, -0.16392733, -1531235.0, 80567.14, 0.019789457, 10.000632, 9.999746 
1.7650962e+3, 1.4552838e+2, -1501186.4, -1594079.9, 18137.07, -0.012958373, -0.1460331, -1497770.9, 16035.455, 0.010701914, 10.000484, 9.99925 
1.7650837e+3, 1.5552758e+2, -1434894.8, -1515648.4, 21680.63, -0.040763043, -0.15252341, -1429442.1, -13627.517, 0.004096641, 10.000283, 9.999212 
1.765071e+3, 1.6552669e+2, -1340092.0, -1402379.0, 8204.067, -0.04224648, -0.16642268, -1339029.6, -21206.91, 0.00087147695, 10.000189, 9.999363 
1.7650588e+3, 1.7552587e+2, -1244916.1, -1308145.4, 10849.117, -0.015502579, -0.1860433, -1243106.4, -23277.51, 0.000047732003, 10.00018, 9.999341 
1.765046e+3, 1.8552515e+2, -1143866.5, -1198202.8, 13115.939, -0.017035158, -0.1937735, -1140866.3, -19031.45, 0.0000000004293444, 10.000155, 9.999435 
1.765033e+3, 1.955246e+2, -1052487.4, -1105645.1, 10320.152, -0.04391344, -0.19391423, -1050554.1, -26714.88, 0.0, 10.000119, 9.999415 
1.7650202e+3, 2.0552388e+2, -952887.5, -990972.6, -4260.941, -0.042968195, -0.20990455, -952416.6, -26571.912, 0.0, 10.000062, 9.9995575 
1.7650075e+3, 2.1552317e+2, -867430.56, -901520.06, -2444.5574, -0.018214712, -0.24042109, -867256.2, -39406.34, 0.0, 9.999987, 9.999535 
1.7649946e+3, 2.2552247e+2, -765111.5, -786237.9, -19739.492, -0.00087453926, -0.26377735, -753286.56, -23431.906, 0.0, 9.999951, 9.999671 
1.7649812e+3, 2.3552197e+2, -670403.25, -694424.44, -25649.566, 0.009768571, -0.28330645, -654091.5, -22233.61, 0.0, 9.9999485, 9.99963 
1.7649676e+3, 2.4552143e+2, -592788.06, -632922.6, -28315.605, 0.014129573, -0.28470084, -578149.9, -44287.098, 0.0, 9.999924, 9.999391 
1.764954e+3, 2.5552097e+2, -502981.78, -542150.7, -24725.139, 0.014242005, -0.27166682, -491024.47, -55156.97, 0.0, 9.999881, 9.999361 
1.7649409e+3, 2.6552036e+2, -414343.47, -453107.84, -16401.82, 0.032992862, -0.26321477, -408334.94, -70461.445, 0.0, 9.999837, 9.999321 
1.7649278e+3, 2.7551967e+2, -324877.8, -362157.16, -16766.73, 0.06463372, -0.26384184, -318446.38, -78566.766, 0.0, 9.99979, 9.999294 
1.7649144e+3, 2.855186e+2, -232975.53, -262564.66, -10137.128, 0.041511763, -0.3004543, -229835.77, -87946.57, 0.0, 9.999729, 9.999334 
1.7649007e+3, 2.9551736e+2, -152357.64, -183701.6, -19617.578, -0.01899327, -0.35737458, -142920.66, -99021.4, 0.0, 9.999657, 9.999238 
1.764889e+3, 3.0551723e+2, -167096.97, -236022.78, -22077.121, 0.13937761, -0.2571957, -160632.0, -160632.0, 0.0, 9.999523, 9.998608 
1.7648749e+3, 3.1551543e+2, -53457.33, 42972.457, 11323.657, 0.052743264, -0.30511332, 44284.336, 44284.336, 0.0, 9.999338, 10.000613 
1.7751235e+3, 1.2554173e+2, -1668163.1, -1779092.6, 19532.484, -0.042925186, -0.17397736, -1664824.4, 44849.992, 0.030378198, 10.000707, 9.99922 
1.7751092e+3, 1.3554148e+2, -1547735.4, -1617884.1, -36026.676, -0.09208614, -0.17116712, -1532529.3, 79148.25, 0.020584289, 10.000633, 9.999691 
1.7750965e+3, 1.455412e+2, -1497733.1, -1587899.5, 9819.918, -0.034700554, -0.14539868, -1496676.1, 17004.758, 0.011180918, 10.000486, 9.999292 
1.775084e+3, 1.5554051e+2, -1431156.0, -1509159.9, 13885.888, -0.032177325, -0.14390314, -1428757.8, -13070.197, 0.0043172166, 10.000287, 9.999256 
1.7750715e+3, 1.6553959e+2, -1335836.9, -1394989.9, 7455.7295, -0.030350126, -0.16430244, -1334911.6, -17216.24, 0.0009367269, 10.000193, 9.999413 
1.7750587e+3, 1.7553866e+2, -1241218.8, -1301869.0, 10102.447, -0.022973279, -0.2009183, -1239580.3, -19878.014, 0.00005469773, 10.000184, 9.999384 
1.7750461e+3, 1.8553789e+2, -1147192.0, -1206441.8, 11621.569, -0.022917187, -0.21318775, -1144994.0, -23285.299, 0.0000000022461928, 10.000159, 9.999378 
1.7750333e+3, 1.9553734e+2, -1055442.4, -1113063.6, 8864.193, -0.03085659, -0.20842211, -1054109.6, -30395.965, 0.0, 10.000123, 9.999363 
1.7750205e+3, 2.0553666e+2, -946847.3, -979744.25, -6957.3735, -0.031294387, -0.22050986, -945436.44, -19717.701, 0.0, 10.000066, 9.999634 
1.7750074e+3, 2.1553606e+2, -862227.44, -892050.7, -4879.6816, -0.024430122, -0.24775596, -861449.3, -33726.652, 0.0, 9.99999, 9.999599 
1.7749943e+3, 2.2553542e+2, -774376.7, -806828.7, -19439.504, -0.012156139, -0.26249737, -765281.25, -35553.805, 0.0, 9.999955, 9.999528 
1.774981e+3, 2.355349e+2, -678826.1, -713303.9, -25276.553, 0.0037024333, -0.26901153, -665469.5, -33738.06, 0.0, 9.999952, 9.999499 
1.7749675e+3, 2.4553429e+2, -584600.56, -617403.5, -29244.664, 0.012753074, -0.2765799, -567472.06, -33735.22, 0.0, 9.999928, 9.9994955 
1.774954e+3, 2.555337e+2, -495370.78, -527992.4, -25488.406, 0.017012997, -0.2855652, -481421.03, -45679.105, 0.0, 9.9998865, 9.999456 
1.7749408e+3, 2.6553306e+2, -413995.63, -454103.84, -17455.566, 0.030880596, -0.28347638, -407462.84, -69715.15, 0.0, 9.999842, 9.999312 
1.7749277e+3, 2.7553248e+2, -324781.78, -363788.9, -17907.385, 0.050474785, -0.2777742, -317807.75, -78054.71, 0.0, 9.999797, 9.999281 
1.7749141e+3, 2.8553128e+2, -240373.53, -279895.5, -12485.182, 0.030045172, -0.31534487, -236759.81, -94996.13, 0.0, 9.999736, 9.999213 
1.7749006e+3, 2.955299e+2, -158547.0, -198732.25, -22229.22, -0.015644034, -0.37751842, -148675.45, -104899.31, 0.0, 9.999663, 9.999133 
1.7748886e+3, 3.0553013e+2, -149961.39, -202559.95, -28619.229, 0.15261547, -0.24581034, -137392.78, -137392.78, 0.0, 9.99953, 9.998836 
1.7748743e+3, 3.1552815e+2, -58915.28, 29827.082, -1961.1794, 0.0526247, -0.33066547, 29870.402, 29870.402, 0.0, 9.999344, 10.000521 
1.785124e+3, 1.2555471e+2, -1678906.8, -1784013.5, 21816.047, -0.058812954, -0.16379754, -1674558.5, 34988.9, 0.031514455, 10.000631, 9.999222 
1.7851096e+3, 1.3555437e+2, -1551285.5, -1619848.4, -30686.443, -0.10081587, -0.17095552, -1539557.5, 71994.234, 0.021398189, 10.000612, 9.999686 
1.785097e+3, 1.4555411e+2, -1488427.5, -1573558.1, 13405.183, -0.040862314, -0.1450965, -1486366.5, 27187.71, 0.011667826, 10.000511, 9.999378 
1.7850843e+3, 1.5555348e+2, -1417021.6, -1493234.9, 20371.66, -0.030823596, -0.14709643, -1411918.0, 3641.761, 0.004539834, 10.000347, 9.999335 
1.7850716e+3, 1.6555257e+2, -1329126.3, -1394379.4, 17524.459, -0.029977651, -0.17067355, -1324717.6, -7150.3, 0.0010024497, 10.000253, 9.999387 
1.7850588e+3, 1.7555158e+2, -1238176.6, -1303007.9, 14006.877, -0.030983007, -0.20975883, -1235279.9, -15705.023, 0.00006171727, 10.000218, 9.999358 
1.7850462e+3, 1.8555075e+2, -1144892.6, -1203138.1, 14693.548, -0.027365843, -0.22509082, -1141395.8, -19814.186, 0.0000000068240182, 10.000168, 9.999395 
1.7850336e+3, 1.9555019e+2, -1057220.4, -1111931.8, 17102.57, -0.021899361, -0.22392613, -1052314.1, -28727.5, 0.0, 10.000105, 9.999379 
1.7850207e+3, 2.0554958e+2, -938383.06, -973224.9, 2716.7275, -0.023923442, -0.23242946, -938172.5, -12581.155, 0.0, 10.000115, 9.999654 
1.7850074e+3, 2.1554907e+2, -832923.0, -876058.6, 21.362604, -0.03084442, -0.25016946, -832922.94, -5328.5234, 0.0, 10.000186, 9.999614 
1.7849943e+3, 2.2554846e+2, -746991.94, -799302.5, -14641.43, -0.0214485, -0.26093873, -743172.75, -13573.515, 0.0, 10.000169, 9.9994755 
1.7849809e+3, 2.3554789e+2, -663561.9, -711391.44, -14202.418, 0.0004131702, -0.2680669, -659662.56, -28058.49, 0.0, 10.000082, 9.999449 
1.7849675e+3, 2.455472e+2, -571724.44, -607834.44, -19225.576, 0.01265492, -0.27997726, -563405.1, -29795.19, 0.0, 10.000004, 9.999524 
1.7849539e+3, 2.555466e+2, -486774.63, -520718.56, -21530.605, 0.018018376, -0.29637313, -476331.0, -40715.9, 0.0, 9.999933, 9.999483 
1.7849405e+3, 2.6554596e+2, -408273.63, -450036.94, -15055.304, 0.032741755, -0.29495555, -403412.22, -65791.68, 0.0, 9.999877, 9.999323 
1.7849274e+3, 2.7554542e+2, -319339.16, -360373.03, -14302.209, 0.052494626, -0.28463602, -314846.16, -75220.984, 0.0, 9.999832, 9.999288 
1.7849138e+3, 2.855442e+2, -236979.58, -281959.1, -5715.4077, 0.03298935, -0.324231, -236264.69, -94628.39, 0.0, 9.999777, 9.999179 
1.7849001e+3, 2.9554272e+2, -152356.88, -197306.22, -9277.929, -0.010119089, -0.39226794, -150517.14, -106867.09, 0.0, 9.999715, 9.999117 
1.7848884e+3, 3.0554324e+2, -125000.7, -161990.31, -15539.302, 0.16012727, -0.24241507, -119339.19, -119339.19, 0.0, 9.99958, 9.999089 
1.7848736e+3, 3.1554124e+2, -64521.434, 10596.244, 5050.9053, 0.045020204, -0.35794732, 10934.345, 10934.345, 0.0, 9.999378, 10.000371 
1.7951243e+3, 1.2556785e+2, -1675607.0, -1777338.6, 19858.512, -0.08905337, -0.14513244, -1671867.9, 37551.62, 0.032682225, 10.000631, 9.999269 
1.7951104e+3, 1.3556743e+2, -1548498.3, -1614643.4, -32501.354, -0.095044635, -0.16372362, -1535201.4, 76222.99, 0.022230543, 10.000613, 9.9997225 
1.7950976e+3, 1.4556716e+2, -1479765.6, -1556361.8, 6488.9004, -0.03208631, -0.14515822, -1479219.8, 34206.38, 0.012162478, 10.000514, 9.9994955 
1.7950846e+3, 1.5556651e+2, -1409025.9, -1477822.8, 13749.515, -0.036718708, -0.16166723, -1406379.8, 9051.254, 0.0047642384, 10.000351, 9.99944 
1.7950718e+3, 1.6556558e+2, -1335989.3, -1410028.1, 15729.716, -0.040901292, -0.18518776, -1332786.1, -15347.6, 0.0010682015, 10.000257, 9.999278 
1.795059e+3, 1.7556462e+2, -1244301.3, -1317182.9, 12356.145, -0.039563242, -0.21265477, -1242263.5, -22817.045, 0.00006858208, 10.000223, 9.99926 
1.7950463e+3, 1.8556377e+2, -1138362.3, -1191013.6, 12165.797, -0.030555665, -0.22962977, -1135687.1, -14233.692, 0.000000015228453, 10.000172, 9.999477 
1.7950337e+3, 1.9556317e+2, -1051240.0, -1100902.8, 14980.951, -0.017194133, -0.24050012, -1047070.9, -23612.627, 0.0, 10.000109, 9.999454 
1.7950207e+3, 2.055626e+2, -940773.2, -979560.56, 5541.159, -0.020904308, -0.24567856, -939997.1, -14534.467, 0.0, 10.000119, 9.999609 
1.7950076e+3, 2.1556221e+2, -835167.7, -882039.1, 2603.7915, -0.037371922, -0.24754973, -835023.5, -7558.276, 0.0, 10.00019, 9.999572 
1.7949943e+3, 2.2556159e+2, -744180.06, -794799.0, -17471.568, -0.028783092, -0.25908658, -738735.25, -9264.995, 0.0, 10.000173, 9.999506 
1.794981e+3, 2.355609e+2, -661269.2, -707985.3, -16904.225, -0.00041767608, -0.28071767, -655794.06, -24318.064, 0.0, 10.000086, 9.999471 
1.7949675e+3, 2.4556018e+2, -574957.2, -615967.75, -21161.459, 0.013647775, -0.29500252, -565996.0, -32513.719, 0.0, 10.000008, 9.999468 
1.7949538e+3, 2.555596e+2, -489656.8, -528139.4, -23398.6, 0.01715242, -0.30367425, -478604.2, -43116.734, 0.0, 9.999938, 9.999432 
1.7949405e+3, 2.65559e+2, -405783.88, -446436.4, -16101.306, 0.038564287, -0.29733428, -400179.28, -62686.76, 0.0, 9.999882, 9.999346 
1.7949274e+3, 2.7555847e+2, -317035.75, -357350.4, -15428.894, 0.07118188, -0.28491354, -311808.66, -72312.086, 0.0, 9.999838, 9.999307 
1.7949139e+3, 2.8555724e+2, -232726.27, -274827.56, -7694.9497, 0.050719578, -0.32739082, -231363.92, -89856.266, 0.0, 9.999782, 9.999227 
1.7949e+3, 2.955558e+2, -146723.33, -187160.92, -11552.633, -0.003116897, -0.40076742, -143655.58, -100134.08, 0.0, 9.99972, 9.999186 
1.794888e+3, 3.0555654e+2, -104619.25, -121339.02, -22454.29, 0.16094968, -0.24696185, -89019.11, -89019.11, 0.0, 9.999585, 9.999367 
1.7948727e+3, 3.1555477e+2, -79758.08, -22987.875, -10231.9, 0.029986471, -0.36180547, -21200.045, -21200.045, 0.0, 9.999385, 10.000138 
1.8051247e+3, 1.2558107e+2, -1678870.5, -1774039.9, 37560.67, -0.09893286, -0.13947932, -1665832.5, 43457.355, 0.03387297, 10.00059, 9.9993105 
1.805111e+3, 1.355806e+2, -1557207.9, -1615738.6, -15788.755, -0.08453986, -0.16589797, -1553220.5, 58074.35, 0.023077281, 10.000542, 9.999747 
1.805098e+3, 1.4558034e+2, -1483777.4, -1556245.6, 15853.503, -0.02438942, -0.15085109, -1480460.9, 32835.605, 0.012663681, 10.00048, 9.999512 
1.805085e+3, 1.555796e+2, -1399243.1, -1471420.6, 15234.654, -0.04216458, -0.17724943, -1396159.3, 19142.5, 0.0049904073, 10.000413, 9.999454 
1.805072e+3, 1.6557866e+2, -1322575.5, -1405286.0, 19786.955, -0.047517758, -0.20101677, -1318085.5, -776.3117, 0.0011338704, 10.000359, 9.999261 
1.8050593e+3, 1.7557774e+2, -1232507.1, -1313220.6, 22427.5, -0.038212042, -0.22063969, -1226694.0, -7377.192, 0.0000752009, 10.000314, 9.999242 
1.8050465e+3, 1.855769e+2, -1129894.5, -1184785.9, 20144.8, -0.02848331, -0.23756072, -1123294.9, -1971.204, 0.000000026593373, 10.000223, 9.999495 
1.8050338e+3, 1.9557625e+2, -1051689.6, -1099100.1, 17864.766, -0.019995414, -0.25481603, -1045711.7, -22382.766, 0.0, 10.000099, 9.99947 
1.8050207e+3, 2.0557572e+2, -950312.94, -982292.8, 12971.104, -0.02468888, -0.25893524, -945713.4, -20380.203, 0.0, 10.000048, 9.999623 
1.8050078e+3, 2.1557541e+2, -853959.9, -889532.7, 13848.935, -0.039076794, -0.25351936, -849204.1, -21868.984, 0.0, 10.000055, 9.999584 
1.8049945e+3, 2.2557479e+2, -759258.9, -801462.06, -8376.451, -0.028019203, -0.26324305, -757657.1, -28317.025, 0.0, 10.000069, 9.99951 
1.8049812e+3, 2.355741e+2, -661322.75, -707652.06, -10259.016, 0.0031138258, -0.28763708, -659152.7, -27806.508, 0.0, 10.000086, 9.999473 
1.8049677e+3, 2.4557337e+2, -562853.1, -611499.3, -13822.585, 0.017142544, -0.30132523, -559199.9, -25847.277, 0.0, 10.000098, 9.999454 
1.8049538e+3, 2.555728e+2, -466246.53, -517948.38, -13187.9375, 0.01842631, -0.30639586, -463076.94, -27719.25, 0.0, 10.000105, 9.99942 
1.8049406e+3, 2.655722e+2, -376171.06, -426291.03, -4677.5645, 0.04136737, -0.29983565, -375738.25, -38375.82, 0.0, 10.000062, 9.999397 
1.8049274e+3, 2.755717e+2, -292816.97, -340284.03, -2106.3997, 0.078427605, -0.29046226, -292723.66, -53357.652, 0.0, 9.999982, 9.999353 
1.8049137e+3, 2.8557056e+2, -225837.13, -272437.0, 1726.3878, 0.056473687, -0.3310899, -225773.25, -84396.51, 0.0, 9.999835, 9.999217 
1.8048997e+3, 2.9556912e+2, -158738.78, -191682.05, -6335.578, -0.0029403567, -0.39755893, -157562.34, -114172.18, 0.0, 9.999633, 9.999196 
1.8048875e+3, 3.0556983e+2, -80713.64, -85832.47, -17540.16, 0.16524407, -0.26347014, -65547.15, -65547.15, 0.0, 9.999648, 9.999579 
1.8048725e+3, 3.155682e+2, -34455.89, -31134.453, -19606.387, 0.03502575, -0.38206458, -13118.577, -13118.577, 0.0, 9.999827, 9.999868 
1.8151253e+3, 1.2559445e+2, -1675563.8, -1769164.3, 34270.684, -0.09121391, -0.14583378, -1664357.6, 44800.215, 0.035080627, 10.000598, 9.999342 
1.8151116e+3, 1.3559395e+2, -1556341.0, -1614968.0, -18661.027, -0.06991036, -0.17715387, -1550905.1, 60257.707, 0.023936015, 10.000545, 9.999753 
1.8150987e+3, 1.4559363e+2, -1489577.9, -1569479.9, 12537.36, -0.018016415, -0.16207775, -1487656.9, 25508.057, 0.013171479, 10.000483, 9.99942 
1.8150853e+3, 1.5559274e+2, -1404232.5, -1483431.4, 12169.754, -0.04728066, -0.1938909, -1402404.8, 12766.983, 0.0052190083, 10.000418, 9.99937 
1.8150723e+3, 1.6559179e+2, -1317455.1, -1396217.8, 17582.543, -0.050027546, -0.21811405, -1313708.4, 3470.9526, 0.0011998421, 10.000363, 9.999322 
1.8150596e+3, 1.7559099e+2, -1228058.9, -1305256.1, 20190.736, -0.027262317, -0.23357512, -1223096.9, -3911.1975, 0.00008165094, 10.000317, 9.999296 
1.8150468e+3, 1.8559015e+2, -1133202.6, -1192957.1, 15274.941, -0.021375429, -0.24880919, -1129524.3, -8331.679, 0.000000038391406, 10.000227, 9.999437 
1.8150339e+3, 1.9558944e+2, -1054444.0, -1106266.4, 13428.976, -0.030258078, -0.26678342, -1051170.9, -27972.213, 0.0, 10.000103, 9.999419 
1.8150207e+3, 2.0558889e+2, -944968.8, -972620.7, 13418.657, -0.035241682, -0.27211684, -939527.75, -14324.8545, 0.0, 10.000052, 9.999689 
1.8150078e+3, 2.1558864e+2, -849236.75, -881014.2, 14395.614, -0.036240827, -0.26814112, -843685.2, -16480.879, 0.0, 10.000059, 9.999641 
1.8149947e+3, 2.2558808e+2, -760734.75, -805833.4, -7304.0894, -0.01933721, -0.27343214, -759581.25, -30372.31, 0.0, 10.0000725, 9.999479 
1.8149813e+3, 2.3558745e+2, -662573.7, -711637.44, -9065.775, 0.011136078, -0.28858668, -660952.2, -29737.338, 0.0, 10.00009, 9.999444 
1.8149678e+3, 2.4558675e+2, -560442.06, -608020.06, -12823.145, 0.023167375, -0.2987465, -557206.1, -23984.943, 0.0, 10.000103, 9.999476 
1.8149541e+3, 2.555862e+2, -463754.3, -514516.7, -12416.047, 0.02156492, -0.3047789, -460880.2, -25653.97, 0.0, 10.000111, 9.999442 
1.8149406e+3, 2.6558563e+2, -370041.13, -415358.66, -7023.9365, 0.040830694, -0.30266374, -368977.44, -31746.664, 0.0, 10.000068, 9.999471 
1.8149273e+3, 2.7558514e+2, -287372.2, -330645.06, -4765.948, 0.073621586, -0.3009353, -286853.5, -47619.527, 0.0, 9.999988, 9.999418 
1.8149135e+3, 2.85584e+2, -230016.9, -282786.06, -5532.9175, 0.049550056, -0.33494332, -229443.02, -88198.914, 0.0, 9.99984, 9.999145 
1.8148991e+3, 2.955827e+2, -161780.25, -199655.61, -12808.304, -0.009952472, -0.38291466, -157855.55, -114598.85, 0.0, 9.999638, 9.99914 
1.8148872e+3, 3.0558297e+2, -69974.15, -65539.055, -10059.327, 0.17309995, -0.29377398, -57455.746, -57455.746, 0.0, 9.999655, 9.999717 
1.8148725e+3, 3.1558174e+2, -55652.633, -77908.875, -22336.191, 0.060893867, -0.38902333, -41825.984, -41825.984, 0.0, 9.999837, 9.999543 
1.8251261e+3, 1.2560782e+2, -1610016.4, -1740235.5, 35737.082, -0.09974244, -0.16432637, -1600853.5, 108171.93, 0.0363064, 10.001082, 9.999306 
1.8251123e+3, 1.356073e+2, -1546389.0, -1616378.5, -21188.328, -0.06300297, -0.19045886, -1540474.4, 70556.125, 0.024808751, 10.000645, 9.999694 
1.8250991e+3, 1.4560696e+2, -1488199.8, -1573825.4, 18768.465, -0.012699454, -0.17299633, -1484266.5, 28766.354, 0.01368808, 10.000516, 9.999373 
1.8250859e+3, 1.5560594e+2, -1376589.0, -1474822.1, 20624.566, -0.048835184, -0.2128429, -1372434.5, 42606.582, 0.005451592, 10.000632, 9.999325 
1.8250728e+3, 1.65605e+2, -1292309.9, -1381012.8, 18729.771, -0.053217467, -0.23583584, -1288517.3, 28531.451, 0.0012669698, 10.000525, 9.999347 
1.82506e+3, 1.7560431e+2, -1237103.1, -1306808.8, 18404.133, -0.028364172, -0.24237663, -1232542.4, -13488.337, 0.0000881637, 10.000245, 9.999319 
1.825047e+3, 1.856035e+2, -1142802.4, -1195041.6, 19642.33, -0.023300057, -0.256981, -1136240.9, -15180.267, 0.00000004824908, 10.000152, 9.999458 
1.8250339e+3, 1.9560274e+2, -1038320.0, -1096501.5, 23041.332, -0.035142157, -0.28090024, -1030300.44, -7233.53, 0.0, 10.000208, 9.999435 
1.8250209e+3, 2.056022e+2, -928144.0, -966780.6, 21032.742, -0.036950994, -0.2856965, -918904.06, 6167.227, 0.0, 10.000179, 9.999667 
1.825008e+3, 2.15602e+2, -847106.06, -882164.5, 15123.524, -0.02989167, -0.27629372, -841483.75, -14411.091, 0.0, 10.000085, 9.99962 
1.8249947e+3, 2.2560143e+2, -760279.06, -803695.94, -5227.7734, -0.011651642, -0.28049085, -759658.5, -30581.092, 0.0, 10.00007, 9.999495 
1.8249814e+3, 2.3560078e+2, -658066.9, -707539.2, -3922.978, 0.014681944, -0.29766884, -657757.75, -26674.385, 0.0, 10.000114, 9.999459 
1.8249679e+3, 2.4560016e+2, -549012.0, -598381.6, -6094.2925, 0.023941474, -0.3046331, -548270.8, -15181.516, 0.0, 10.000166, 9.999512 
1.8249542e+3, 2.555997e+2, -445415.75, -501539.97, -5460.289, 0.020809988, -0.30362287, -444889.44, -9795.908, 0.0, 10.00022, 9.999477 
1.8249407e+3, 2.6559916e+2, -352689.28, -399014.8, -5315.2954, 0.041403014, -0.3038258, -352087.25, -14989.469, 0.0, 10.000154, 9.99954 
1.8249272e+3, 2.7559865e+2, -282684.88, -321102.0, -3576.4072, 0.0775517, -0.3111305, -282354.75, -43253.813, 0.0, 9.9999895, 9.999481 
1.8249133e+3, 2.8559762e+2, -222110.72, -280765.84, -1848.7999, 0.05128796, -0.33724338, -222052.5, -80942.46, 0.0, 9.999904, 9.999126 
1.8248989e+3, 2.955965e+2, -125745.164, -182690.67, -4233.426, -0.014119991, -0.36563927, -125432.164, -82311.23, 0.0, 9.999888, 9.999135 
1.8248871e+3, 3.0559626e+2, -22141.898, -36099.78, 6043.9204, 0.17794041, -0.33067405, -19888.582, -19888.582, 0.0, 9.999958, 9.999772 
1.8248725e+3, 3.1559542e+2, -40489.797, -96586.32, -23028.967, 0.08284873, -0.38735682, -32247.037, -32247.037, 0.0, 10.000055, 9.99931 
1.835127e+3, 1.2562123e+2, -1617638.5, -1756017.6, 18032.768, -0.12558441, -0.19509439, -1615327.3, 93565.04, 0.037556387, 10.001079, 9.999199 
1.8351129e+3, 1.3562074e+2, -1554230.4, -1634772.3, -37183.527, -0.06352569, -0.20570679, -1539689.3, 71208.15, 0.02570087, 10.00065, 9.999566 
1.8350998e+3, 1.4562038e+2, -1488035.5, -1575583.3, 22316.197, -0.008433324, -0.1835006, -1482675.1, 30224.924, 0.014217793, 10.000524, 9.999359 
1.8350865e+3, 1.5561925e+2, -1377024.4, -1476867.3, 23445.994, -0.04709205, -0.23406985, -1371792.8, 43116.625, 0.005690783, 10.000635, 9.9993105 
1.8350732e+3, 1.656183e+2, -1293179.0, -1383932.0, 7568.378, -0.05725023, -0.25425133, -1292552.3, 24364.824, 0.0013364826, 10.000528, 9.999327 
1.8350601e+3, 1.7561772e+2, -1237271.8, -1308817.8, 8252.141, -0.04137242, -0.24715693, -1236332.3, -17410.832, 0.000095082636, 10.00025, 9.999304 
1.835047e+3, 1.8561696e+2, -1135712.0, -1181988.3, 21549.11, -0.034134038, -0.26210472, -1127231.5, -6303.8813, 0.000000055274803, 10.000157, 9.999546 
1.835034e+3, 1.9561619e+2, -1032472.1, -1085734.9, 24739.184, -0.034852017, -0.2971913, -1022754.4, 179.36069, 0.0, 10.000212, 9.999508 
1.8350211e+3, 2.0561562e+2, -935733.3, -983855.44, 17587.521, -0.030041924, -0.299708, -929990.75, -5052.3896, 0.0, 10.000183, 9.999549 
1.8350081e+3, 2.1561542e+2, -854077.75, -897966.25, 12084.539, -0.019996913, -0.27782416, -850970.3, -24030.006, 0.0, 10.000089, 9.999511 
1.8349949e+3, 2.2561483e+2, -755729.9, -795593.5, -3124.5444, -0.0049846545, -0.28429127, -755486.44, -26540.879, 0.0, 10.0000725, 9.999549 
1.8349816e+3, 2.3561409e+2, -653737.0, -699947.3, -1684.275, 0.013350027, -0.31503367, -653675.7, -22723.65, 0.0, 10.000118, 9.999511 
1.834968e+3, 2.4561353e+2, -545420.06, -592418.6, -3307.3394, 0.019176455, -0.31912956, -545188.44, -12231.102, 0.0, 10.00017, 9.999552 
1.8349543e+3, 2.5561327e+2, -441838.4, -495736.44, -3156.1682, 0.01613604, -0.30269992, -441654.2, -6694.1646, 0.0, 10.000225, 9.999516 
1.8349408e+3, 2.6561275e+2, -347559.75, -390089.53, -10915.11, 0.04307205, -0.30318946, -344922.03, -7958.086, 0.0, 10.000159, 9.9996 
1.8349274e+3, 2.756122e+2, -278016.4, -313126.4, -9140.146, 0.09023706, -0.3216179, -275779.5, -36811.89, 0.0, 9.999995, 9.999535 
1.8349133e+3, 2.8561133e+2, -218844.97, -275708.2, -2106.4563, 0.061762664, -0.33821923, -218767.05, -77791.81, 0.0, 9.999909, 9.99916 
1.8348987e+3, 2.9561046e+2, -121988.055, -176872.2, -3620.8428, -0.01563629, -0.344753, -121750.2, -78766.74, 0.0, 9.999895, 9.999172 
1.8348871e+3, 3.0560955e+2, -23105.025, -40814.797, 10492.626, 0.17924398, -0.3744794, -18230.229, -18230.229, 0.0, 9.999967, 9.999737 
1.8348728e+3, 3.1560948e+2, -48519.473, -116346.6, -30439.13, 0.101659186, -0.35070327, -36862.54, -36862.54, 0.0, 10.000067, 9.999169 
1.845128e+3, 1.256347e+2, -1658271.9, -1773809.5, 12610.899, -0.11518256, -0.21172765, -1656911.4, 51847.617, 0.03883764, 10.00078, 9.99922 
1.8451136e+3, 1.3563421e+2, -1499163.1, -1608493.6, -33450.652, -0.07639356, -0.22206326, -1489740.8, 121023.04, 0.026618557, 10.001044, 9.999556 
1.8451004e+3, 1.4563385e+2, -1428017.4, -1553019.3, 26234.502, -0.024058927, -0.19547907, -1422734.8, 90031.76, 0.014765603, 10.000973, 9.999296 
1.8450871e+3, 1.5563267e+2, -1380893.8, -1485002.6, 23229.545, -0.040952947, -0.24437417, -1375945.8, 38830.758, 0.0059396694, 10.000637, 9.999252 
1.8450737e+3, 1.6563171e+2, -1295162.3, -1380050.9, 7127.591, -0.050464686, -0.2672038, -1294568.0, 22216.55, 0.0014096296, 10.000496, 9.999368 
1.8450603e+3, 1.756311e+2, -1197737.4, -1285450.3, 11937.714, -0.05095127, -0.26593053, -1196141.8, 22647.23, 0.00010278079, 10.0005045, 9.99934 
1.8450472e+3, 1.856304e+2, -1102175.1, -1164859.0, 25157.13, -0.042877406, -0.2773554, -1093327.5, 27466.967, 0.00000006030829, 10.000385, 9.999553 
1.8450344e+3, 1.9562973e+2, -1039063.44, -1088544.0, 21924.486, -0.029253706, -0.30180818, -1030746.7, -7947.0674, 0.0, 10.000167, 9.999509 
1.8450214e+3, 2.0562913e+2, -951689.2, -997709.75, 16513.932, -0.020587627, -0.30642703, -946376.6, -21571.734, 0.0, 10.000102, 9.999492 
1.8450081e+3, 2.1562874e+2, -847693.1, -900417.1, 15320.908, -0.014945723, -0.29649, -843564.4, -16755.693, 0.0, 10.000158, 9.999459 
1.844995e+3, 2.2562815e+2, -735168.5, -778963.06, 3489.8416, -0.0038380849, -0.3030161, -734892.2, -6078.176, 0.0, 10.000187, 9.999607 
1.8449818e+3, 2.3562758e+2, -639070.75, -686299.0, 4530.8325, 0.01114116, -0.3244723, -638640.06, -7820.962, 0.0, 10.000194, 9.999568 
1.8449682e+3, 2.4562712e+2, -546112.0, -585007.5, 1936.7014, 0.018128553, -0.3236712, -546015.75, -13192.501, 0.0, 10.0001335, 9.999619 
1.8449545e+3, 2.5562695e+2, -466954.38, -500524.84, 3723.1355, 0.01975185, -0.30608222, -466546.4, -31721.244, 0.0, 10.000024, 9.999579 
1.844941e+3, 2.656264e+2, -367306.66, -395845.78, -5257.675, 0.046590183, -0.31410542, -366368.88, -29539.428, 0.0, 10.00001, 9.999632 
1.8449275e+3, 2.7562574e+2, -264660.44, -303067.56, -6050.7173, 0.08970593, -0.34576532, -263729.75, -24895.51, 0.0, 10.000073, 9.999565 
1.8449132e+3, 2.8562507e+2, -200124.11, -257559.83, 383.367, 0.06267887, -0.34722942, -200121.55, -59281.645, 0.0, 10.000001, 9.999239 
1.8448986e+3, 2.956246e+2, -127617.87, -171602.63, 3328.0537, -0.008252323, -0.319636, -127367.48, -84523.51, 0.0, 9.999825, 9.999242 
1.8448871e+3, 3.0562308e+2, -33007.215, -58394.297, 25996.291, 0.18230447, -0.41279075, -16770.959, -16770.959, 0.0, 9.999956, 9.9996195 
1.844873e+3, 3.1562334e+2, -13859.795, -95657.914, -33075.273, 0.10368384, -0.3402822, -2159.361, -2159.361, 0.0, 10.000289, 9.999203 
1.8551292e+3, 1.256483e+2, -1648324.5, -1753887.0, 20413.154, -0.07187261, -0.21529022, -1644514.5, 64110.62, 0.040156323, 10.000786, 9.999355 
1.8551144e+3, 1.3564779e+2, -1492623.6, -1595235.6, -26080.174, -0.10160676, -0.2397691, -1486375.5, 124253.734, 0.027566783, 10.001045, 9.999649 
1.855101e+3, 1.4564744e+2, -1436016.0, -1570385.3, 12854.52, -0.05907643, -0.20907795, -1434797.3, 77834.375, 0.015335415, 10.000973, 9.999178 
1.8550879e+3, 1.5564626e+2, -1387773.0, -1500703.0, 10824.973, -0.030702539, -0.24411625, -1386744.8, 27897.393, 0.0062008454, 10.000641, 9.999144 
1.8550745e+3, 1.6564523e+2, -1287813.4, -1366299.3, 6987.74, -0.033323836, -0.27482894, -1287196.1, 29454.758, 0.0014874892, 10.0005, 9.999461 
1.8550608e+3, 1.7564447e+2, -1191516.1, -1273855.9, 11360.585, -0.057321288, -0.29839376, -1189977.4, 28678.924, 0.000111600515, 10.000508, 9.999419 
1.8550475e+3, 1.8564382e+2, -1107249.3, -1176701.9, 16622.73, -0.049689468, -0.30248967, -1103475.8, 17185.531, 0.00000006571913, 10.000389, 9.999471 
1.8550345e+3, 1.956434e+2, -1043823.0, -1099904.5, 14233.124, -0.018441657, -0.29475212, -1040417.56, -17752.945, 0.0, 10.000171, 9.999431 
1.8550214e+3, 2.0564269e+2, -951101.2, -997939.75, 18725.375, -0.008675997, -0.30588368, -944535.44, -19864.549, 0.0, 10.000106, 9.999489 
1.8550085e+3, 2.1564193e+2, -847111.56, -900479.2, 17616.578, -0.015020768, -0.33234096, -841820.9, -15142.956, 0.0, 10.000162, 9.999458 
1.8549952e+3, 2.256414e+2, -730788.4, -771188.56, 4064.12, -0.008387044, -0.33668247, -730383.56, -1700.7415, 0.0, 10.000191, 9.99966 
1.8549818e+3, 2.356412e+2, -634600.2, -678488.6, 5015.186, 0.008148987, -0.3257521, -634034.4, -3349.7078, 0.0, 10.000197, 9.99962 
1.8549682e+3, 2.4564089e+2, -539202.2, -572176.0, -1638.315, 0.020853193, -0.31804034, -539121.0, -6433.5283, 0.0, 10.000138, 9.999705 
1.8549547e+3, 2.5564066e+2, -460693.3, -488805.75, 539.1663, 0.03154954, -0.31392547, -460682.97, -25993.578, 0.0, 10.000027, 9.999659 
1.8549411e+3, 2.6564002e+2, -367016.53, -396613.97, -2279.158, 0.0517755, -0.33690715, -366842.06, -30147.266, 0.0, 10.000013, 9.999625 
1.8549274e+3, 2.7563918e+2, -263768.53, -302941.25, -3773.853, 0.07542195, -0.38379782, -263408.28, -24706.828, 0.0, 10.000079, 9.999564 
1.8549132e+3, 2.8563875e+2, -190885.4, -240191.77, -6104.6504, 0.05362404, -0.36440036, -190140.83, -49436.137, 0.0, 10.000007, 9.999357 
1.8548986e+3, 2.956389e+2, -120213.85, -157875.58, -1396.3346, 0.00823415, -0.2905633, -120162.15, -77458.914, 0.0, 9.999829, 9.999334 
1.8548872e+3, 3.0563664e+2, -46778.508, -89086.95, 39393.336, 0.18678963, -0.44608465, -23218.795, -23218.795, 0.0, 9.999963, 9.999407 
1.8548732e+3, 3.156371e+2, 3040.0293, -63111.28, -33662.22, 0.08928325, -0.3369515, 17157.0, 17157.0, 0.0, 10.0002985, 9.999423 
1.86513e+3, 1.2566178e+2, -1609276.0, -1720848.1, 17331.174, -0.07485322, -0.21817489, -1606645.9, 101846.94, 0.041514024, 10.00101, 9.999474 
1.8651155e+3, 1.3566126e+2, -1501402.1, -1590271.4, -30705.557, -0.09531657, -0.25122264, -1491825.0, 118670.97, 0.02854696, 10.000946, 9.999731 
1.8651018e+3, 1.4566094e+2, -1449669.9, -1573302.4, 2065.8462, -0.058206387, -0.22347417, -1449635.4, 62862.42, 0.015928667, 10.000864, 9.999209 
1.8650885e+3, 1.5565978e+2, -1368981.6, -1488551.4, 10789.76, -0.037975803, -0.2616014, -1368015.8, 46492.37, 0.006475788, 10.000759, 9.999168 
1.865075e+3, 1.6565874e+2, -1272133.8, -1362078.5, 11189.597, -0.036872145, -0.29105523, -1270762.6, 45754.387, 0.0015707911, 10.000625, 9.99943 
1.8650612e+3, 1.75658e+2, -1199969.6, -1281270.4, 5780.4, -0.048544805, -0.30995658, -1199560.8, 18961.771, 0.0001217937, 10.000467, 9.999387 
1.865048e+3, 1.8565734e+2, -1110675.5, -1179228.3, 7639.252, -0.04140858, -0.31326118, -1109834.5, 10693.193, 0.00000007494837, 10.000371, 9.999461 
1.8650348e+3, 1.9565688e+2, -1022493.1, -1090495.0, 10430.307, -0.020320032, -0.30761713, -1020929.25, 1602.0161, 0.0, 10.000323, 9.999421 
1.8650216e+3, 2.0565617e+2, -933529.44, -986005.8, 21105.658, -0.013003295, -0.32018408, -926094.3, -1556.8496, 0.0, 10.000214, 9.999518 
1.8650085e+3, 2.1565543e+2, -860474.1, -903876.44, 21871.19, -0.015936296, -0.3477003, -851364.75, -24820.592, 0.0, 10.000059, 9.999484 
1.8649952e+3, 2.2565493e+2, -760993.44, -784811.2, 8671.165, -0.0061934586, -0.35041207, -758171.06, -29622.06, 0.0, 9.999982, 9.999666 
1.864982e+3, 2.3565477e+2, -667992.94, -693228.94, 5478.7217, 0.013130738, -0.33544448, -666854.8, -36303.977, 0.0, 9.999965, 9.99963 
1.8649684e+3, 2.4565452e+2, -555980.0, -567410.6, -3412.1387, 0.025207525, -0.3272069, -555038.94, -22486.066, 0.0, 9.99997, 9.999818 
1.8649547e+3, 2.5565436e+2, -458663.53, -476152.72, 249.73552, 0.03284215, -0.32586536, -458659.97, -24106.465, 0.0, 9.999993, 9.999761 
1.864941e+3, 2.6565376e+2, -373026.28, -397100.9, 609.00085, 0.050356876, -0.35295245, -373010.88, -36452.105, 0.0, 9.999965, 9.999644 
1.8649273e+3, 2.756529e+2, -289579.44, -312907.72, 269.85168, 0.071390636, -0.40368003, -289576.3, -51010.246, 0.0, 9.999893, 9.999584 
1.8649131e+3, 2.8565264e+2, -208072.39, -240295.17, -6476.6563, 0.05356751, -0.37316054, -206819.34, -66251.34, 0.0, 9.999856, 9.999428 
1.8648985e+3, 2.9565305e+2, -113859.91, -149869.17, -3969.4685, 0.017538583, -0.2800901, -113427.52, -70863.48, 0.0, 9.999854, 9.999376 
1.864887e+3, 3.0565035e+2, -52696.832, -114233.195, 48567.254, 0.18195657, -0.46966887, -25971.89, -25971.89, 0.0, 10.000021, 9.999206 
1.8648735e+3, 3.1565082e+2, 23880.965, -11580.037, -36565.27, 0.085650854, -0.34326503, 46787.758, 46787.758, 0.0, 10.000265, 9.999791 
1.8751307e+3, 1.2567517e+2, -1602937.5, -1707560.3, 13136.64, -0.12346439, -0.22120544, -1601313.3, 107047.96, 0.042906, 10.001011, 9.999565 
1.8751168e+3, 1.3567472e+2, -1496630.5, -1581271.6, -33809.28, -0.058785584, -0.256426, -1484783.8, 125579.67, 0.029556876, 10.000949, 9.999794 
1.875103e+3, 1.4567441e+2, -1437339.5, -1548540.1, -2527.17, -0.023156917, -0.23840885, -1437282.0, 75082.336, 0.01654497, 10.000867, 9.999379 
1.875089e+3, 1.5567322e+2, -1358174.4, -1467395.4, 5991.163, -0.062542066, -0.29627484, -1357846.6, 56527.703, 0.006765209, 10.000764, 9.999313 
1.8750753e+3, 1.6567226e+2, -1282580.4, -1385267.1, 4674.576, -0.06056392, -0.31558284, -1282368.0, 34014.656, 0.0016600671, 10.000628, 9.9992695 
1.875062e+3, 1.756717e+2, -1209627.4, -1302846.3, -180.68478, -0.025018612, -0.30104065, -1209627.1, 8760.239, 0.00013349493, 10.000471, 9.999238 
1.8750486e+3, 1.8567093e+2, -1105952.0, -1170943.9, 5630.1934, -0.018555053, -0.31002188, -1105467.9, 14925.667, 0.00000009512311, 10.000376, 9.999517 
1.8750349e+3, 1.9567017e+2, -1018109.06, -1082831.1, 8329.045, -0.03498806, -0.34023413, -1017054.4, 5345.24, 0.0, 10.000327, 9.999473 
1.8750216e+3, 2.0566955e+2, -929204.75, -978379.56, 15310.755, -0.033489846, -0.3490927, -924827.3, -422.58176, 0.0, 10.000217, 9.99957 
1.8750085e+3, 2.156692e+2, -856810.2, -897598.56, 16603.62, -0.017634457, -0.34245992, -850906.0, -24498.441, 0.0, 10.000063, 9.999526 
1.8749952e+3, 2.2566871e+2, -763674.4, -791717.7, 8288.396, 0.0027089948, -0.34417403, -761407.9, -32995.24, 0.0, 9.999986, 9.999618 
1.8749821e+3, 2.3566826e+2, -670033.25, -698758.9, 5441.0884, 0.025911532, -0.35368422, -669037.1, -38619.3, 0.0, 9.999969, 9.999591 
1.8749684e+3, 2.45668e+2, -546344.6, -548839.0, -1898.2134, 0.031045781, -0.35140574, -545320.56, -12900.677, 0.0, 9.999974, 9.999945 
1.8749546e+3, 2.5566807e+2, -449600.2, -459000.47, 1560.7966, 0.023350548, -0.34205604, -449347.8, -14929.879, 0.0, 9.999998, 9.999877 
1.8749408e+3, 2.6566756e+2, -369826.47, -392094.2, -1647.613, 0.042095456, -0.36205024, -369705.22, -33283.344, 0.0, 9.9999695, 9.999678 
1.8749273e+3, 2.7566683e+2, -286728.2, -308326.5, -2156.2815, 0.07775337, -0.4049021, -286515.03, -48086.402, 0.0, 9.999897, 9.999615 
1.8749131e+3, 2.856666e+2, -206554.3, -238467.22, -6349.747, 0.0626852, -0.37342006, -205337.3, -64906.793, 0.0, 9.999859, 9.999439 
1.8748984e+3, 2.9566693e+2, -114230.516, -152450.38, -2544.4338, 0.019263847, -0.28904372, -114061.87, -71634.55, 0.0, 9.99986, 9.999357 
1.8748869e+3, 3.056641e+2, -65653.3, -143430.73, 58395.16, 0.16706243, -0.48263094, -34382.72, -34382.72, 0.0, 10.000028, 9.999002 
1.8748738e+3, 3.1566447e+2, 61535.242, 64570.188, -39741.18, 0.09443957, -0.3482772, 102822.85, 102822.85, 0.0, 10.000272, 10.000313 
1.8851316e+3, 1.2568891e+2, -1594842.4, -1710313.4, 33095.805, -0.12759723, -0.22319478, -1586029.3, 122196.27, 0.044327244, 10.0011015, 9.999503 
1.8851177e+3, 1.3568816e+2, -1496985.0, -1590557.3, -23908.408, -0.05448072, -0.2764009, -1491230.1, 119000.516, 0.030593988, 10.00099, 9.999708 
1.8851039e+3, 1.4568783e+2, -1424471.6, -1535375.3, -1383.5831, -0.021539198, -0.25956187, -1424454.4, 87777.31, 0.017183522, 10.00093, 9.999438 
1.8850897e+3, 1.556868e+2, -1334216.3, -1449723.5, -1651.0327, -0.06456849, -0.3083533, -1334192.6, 80047.336, 0.0070692445, 10.000905, 9.999365 
1.8850759e+3, 1.6568586e+2, -1260133.9, -1375242.4, -4506.1367, -0.06394653, -0.32654837, -1259957.8, 56290.016, 0.0017555967, 10.000789, 9.99926 
1.8850625e+3, 1.7568524e+2, -1192263.4, -1295896.0, 1517.2515, -0.028156538, -0.31680667, -1192241.3, 26011.93, 0.00014669658, 10.000599, 9.999224 
1.8850489e+3, 1.8568443e+2, -1095750.4, -1168578.1, 11840.4, -0.021150697, -0.32786015, -1093873.8, 26386.064, 0.0000001366546, 10.000459, 9.999493 
1.8850353e+3, 1.9568364e+2, -1015469.2, -1084162.0, 7852.7515, -0.03694697, -0.35839882, -1014582.9, 7683.2217, 0.0, 10.000359, 9.999447 
1.8850219e+3, 2.0568302e+2, -927170.75, -976642.2, 7182.5645, -0.034547195, -0.36551356, -926149.0, -1877.7802, 0.0, 10.000231, 9.999575 
1.8850085e+3, 2.1568273e+2, -854080.94, -895685.94, 4812.469, -0.017453436, -0.35517597, -853531.56, -27257.824, 0.0, 10.000081, 9.99953 
1.8849953e+3, 2.256823e+2, -763895.75, -787789.3, 1651.1641, 0.002150646, -0.35271862, -763782.2, -35503.832, 0.0, 9.999969, 9.999651 
1.884982e+3, 2.3568192e+2, -679778.1, -699581.6, 4494.9204, 0.023093127, -0.3579447, -678805.7, -48522.61, 0.0, 9.9998865, 9.999623 
1.8849683e+3, 2.4568166e+2, -566743.3, -553420.94, -3065.068, 0.027767058, -0.3597847, -552749.6, -20464.533, 0.0, 9.999814, 9.9999895 
1.8849543e+3, 2.5568166e+2, -483129.47, -470001.88, -6092.05, 0.020900501, -0.36094236, -467610.4, -33326.953, 0.0, 9.999748, 9.999921 
1.8849407e+3, 2.6568127e+2, -400059.03, -399322.56, -10920.981, 0.041152645, -0.3754718, -388763.63, -52477.176, 0.0, 9.999733, 9.999741 
1.8849272e+3, 2.7568078e+2, -303445.44, -309655.44, -9505.178, 0.07902743, -0.40026364, -296550.97, -58259.83, 0.0, 9.999756, 9.999672 
1.884913e+3, 2.8568053e+2, -208041.83, -234625.55, -8883.05, 0.06875337, -0.37577808, -205346.75, -65053.492, 0.0, 9.999832, 9.999477 
1.8848984e+3, 2.956806e+2, -101195.57, -145592.66, -2692.5337, 0.03173483, -0.31893626, -101032.875, -58740.723, 0.0, 9.999949, 9.999359 
1.8848868e+3, 3.0567795e+2, -92236.266, -179368.47, 58834.773, 0.1569307, -0.48311475, -62593.516, -62593.516, 0.0, 9.999948, 9.998794 
1.884874e+3, 3.156779e+2, 23320.943, 90089.45, -51379.31, 0.09960121, -0.36893293, 117977.88, 117977.88, 0.0, 9.999824, 10.000703 
1.8951331e+3, 1.2570296e+2, -1609376.9, -1742125.0, 26761.09, -0.091578424, -0.22476514, -1604185.0, 103900.49, 0.045780357, 10.001102, 9.999284 
1.8951185e+3, 1.3570164e+2, -1512586.4, -1624914.8, -28898.71, -0.08153058, -0.3107077, -1505587.6, 104509.52, 0.03165952, 10.000995, 9.999468 
1.8951045e+3, 1.4570124e+2, -1427323.1, -1542929.0, -2984.9812, -0.052095424, -0.28668696, -1427246.1, 84853.33, 0.017844489, 10.000935, 9.999385 
1.8950908e+3, 1.5570053e+2, -1336699.8, -1456041.5, -3577.4448, -0.044848297, -0.29847804, -1336592.6, 77512.04, 0.00738753, 10.000908, 9.999321 
1.895077e+3, 1.6569957e+2, -1250465.5, -1356328.4, -12165.8545, -0.047936648, -0.32436746, -1249085.4, 67026.96, 0.0018571934, 10.000792, 9.99939 
1.8950629e+3, 1.7569865e+2, -1183890.3, -1279985.8, -5824.0894, -0.057581514, -0.35666418, -1183538.5, 34581.133, 0.00016122115, 10.000603, 9.999331 
1.895049e+3, 1.8569785e+2, -1102841.5, -1184757.1, 7829.8174, -0.04866468, -0.36620703, -1102099.8, 18026.443, 0.00000020674742, 10.000463, 9.99938 
1.8950358e+3, 1.956973e+2, -1022433.9, -1099992.4, 3897.9192, -0.026317688, -0.36223072, -1022238.44, -107.67316, 0.0, 10.000362, 9.999338 
1.8950222e+3, 2.0569661e+2, -929862.56, -983571.1, 1629.2998, -0.0164971, -0.36964962, -929813.2, -5676.157, 0.0, 10.000235, 9.999526 
1.8950087e+3, 2.1569598e+2, -856262.6, -901535.3, -381.95517, -0.015684167, -0.38588044, -856259.44, -30116.62, 0.0, 10.000085, 9.999489 
1.8949951e+3, 2.2569567e+2, -755720.3, -772251.6, -1064.4413, -0.008040859, -0.3759904, -755652.06, -27505.664, 0.0, 9.999973, 9.999757 
1.8949816e+3, 2.356957e+2, -672519.94, -685989.56, 1961.7289, 0.004494863, -0.34797615, -672240.06, -42093.336, 0.0, 9.999891, 9.999716 
1.8949679e+3, 2.4569546e+2, -569198.6, -560006.7, -5008.6597, 0.0152215315, -0.35213158, -557804.94, -25656.111, 0.0, 9.999819, 9.999943 
1.8949543e+3, 2.556951e+2, -485213.13, -475664.8, -7866.535, 0.025551183, -0.38258854, -471237.06, -37086.523, 0.0, 9.999752, 9.999881 
1.8949404e+3, 2.656948e+2, -393555.5, -387194.53, -9671.629, 0.047580536, -0.39329076, -380193.88, -44040.87, 0.0, 9.999737, 9.999823 
1.8949267e+3, 2.7569467e+2, -297530.8, -298886.44, -8127.5933, 0.074836574, -0.38953796, -290052.8, -51898.53, 0.0, 9.999761, 9.999745 
1.8949127e+3, 2.8569433e+2, -203156.78, -226181.2, -4403.6313, 0.071528494, -0.38045317, -202343.3, -62186.24, 0.0, 9.999838, 9.999534 
1.8948987e+3, 2.9569396e+2, -98920.72, -142990.25, 1467.6122, 0.055379417, -0.37110648, -98871.9, -56712.38, 0.0, 9.999957, 9.999375 
1.8948866e+3, 3.0569184e+2, -107100.96, -211944.34, 54364.223, 0.15146133, -0.47010326, -84001.12, -84001.12, 0.0, 9.999952, 9.998569 
1.8948737e+3, 3.1569126e+2, 39902.297, 124296.08, -65423.902, 0.10185541, -0.39543998, 159950.73, 159950.73, 0.0, 9.999822, 10.000939 
1.9051345e+3, 1.2571673e+2, -1609800.6, -1752028.0, 16819.45, -0.069859415, -0.23898493, -1607838.6, 100110.34, 0.047271304, 10.001144, 9.999194 
1.9051196e+3, 1.3571537e+2, -1479639.4, -1621166.0, -29117.998, -0.089021035, -0.31769136, -1473882.8, 136079.0, 0.032756284, 10.0012865, 9.999352 
1.9051054e+3, 1.4571491e+2, -1393441.0, -1527212.4, -4351.8857, -0.065833054, -0.29307863, -1393299.5, 118665.23, 0.018527925, 10.001179, 9.999374 
1.9050919e+3, 1.5571412e+2, -1343014.5, -1460142.3, -2398.882, -0.04002714, -0.30998382, -1342965.4, 71005.22, 0.007718689, 10.000872, 9.9993105 
1.9050777e+3, 1.6571318e+2, -1258983.6, -1356643.6, -12160.637, -0.041624773, -0.33568707, -1257492.1, 58485.918, 0.001963835, 10.000719, 9.999421 
1.9050634e+3, 1.7571233e+2, -1170560.1, -1270770.9, -13707.256, -0.06333019, -0.36400053, -1168719.0, 49265.496, 0.00017665364, 10.000685, 9.999354 
1.9050495e+3, 1.857115e+2, -1094689.4, -1185277.6, -2439.639, -0.054559737, -0.37566596, -1094623.8, 25367.582, 0.00000030333933, 10.00054, 9.999338 
1.9050361e+3, 1.9571084e+2, -1033040.2, -1109810.4, -1621.712, -0.022981552, -0.37803596, -1033005.94, -11009.173, 0.0, 10.000312, 9.999293 
1.9050224e+3, 2.057101e+2, -943743.5, -990457.7, 663.6575, -0.012265799, -0.38753968, -943734.06, -19730.633, 0.0, 10.000142, 9.999522 
1.9050087e+3, 2.157095e+2, -866540.2, -906973.8, 1461.6354, -0.017135877, -0.4029911, -866487.44, -40478.117, 0.0, 10.000018, 9.999482 
1.904995e+3, 2.257092e+2, -767133.25, -776900.8, -1266.986, -0.013863832, -0.3888443, -766971.56, -38959.004, 0.0, 9.999893, 9.999763 
1.9049813e+3, 2.3570932e+2, -690349.06, -693903.6, -5999.6675, -0.0045544286, -0.35386825, -685869.0, -55856.8, 0.0, 9.999768, 9.99972 
1.9049677e+3, 2.4570903e+2, -582714.6, -564268.4, -11252.004, 0.009136121, -0.3623895, -558942.5, -26927.969, 0.0, 9.999719, 9.99996 
1.9049539e+3, 2.5570858e+2, -487845.47, -474840.38, -9566.405, 0.027106721, -0.40540975, -469775.78, -35758.453, 0.0, 9.999727, 9.999897 
1.9049402e+3, 2.6570836e+2, -395032.28, -382659.25, -10581.591, 0.048526216, -0.4105813, -376588.38, -40569.434, 0.0, 9.999707, 9.999867 
1.9049264e+3, 2.7570847e+2, -308795.9, -299163.6, -11780.976, 0.069050945, -0.38855603, -291252.34, -53234.273, 0.0, 9.999664, 9.999788 
1.9049124e+3, 2.8570804e+2, -222114.28, -227358.56, -5442.7124, 0.07136211, -0.39294088, -218695.0, -78673.51, 0.0, 9.999676, 9.999602 
1.9048987e+3, 2.957074e+2, -130041.81, -153107.92, 1007.08905, 0.06952174, -0.41846406, -129997.93, -87971.45, 0.0, 9.999724, 9.999416 
1.9048864e+3, 3.0570596e+2, -145082.66, -238544.19, 55269.84, 0.13923828, -0.44381127, -119435.805, -119435.805, 0.0, 9.999729, 9.998492 
1.9048735e+3, 3.157047e+2, 24273.285, 122598.29, -61609.504, 0.11324632, -0.4311001, 152256.36, 152256.36, 0.0, 9.999692, 10.00099 
1.9151357e+3, 1.2573025e+2, -1607325.8, -1748079.5, 19188.725, -0.06353032, -0.2657111, -1604756.6, 103058.49, 0.04879973, 10.00115, 9.99922 
1.915121e+3, 1.3572934e+2, -1479705.9, -1621892.6, -25895.854, -0.077954814, -0.2983409, -1475136.4, 134687.47, 0.033883143, 10.001288, 9.999347 
1.9151066e+3, 1.4572884e+2, -1391654.5, -1524135.4, -16533.12, -0.0637187, -0.27960002, -1389622.4, 122205.11, 0.019231623, 10.00118, 9.999396 
1.9150925e+3, 1.5572761e+2, -1341527.4, -1458390.8, -13968.413, -0.049824663, -0.3421957, -1339881.0, 73956.29, 0.008060078, 10.000875, 9.999321 
1.9150783e+3, 1.6572672e+2, -1263220.5, -1366979.5, -13967.301, -0.04470616, -0.35991114, -1261373.1, 54471.324, 0.002073773, 10.000723, 9.99935 
1.9150642e+3, 1.757263e+2, -1174577.3, -1280478.9, -15846.1045, -0.04604552, -0.33959195, -1172257.0, 45590.484, 0.00019241177, 10.000689, 9.999288 
1.9150501e+3, 1.8572538e+2, -1092705.4, -1182512.3, -11235.385, -0.03951349, -0.3569482, -1091321.1, 28533.703, 0.0000004124449, 10.000544, 9.999357 
1.9150364e+3, 1.9572426e+2, -1031239.5, -1107555.9, -9969.46, -0.02707274, -0.4056315, -1029958.6, -8094.7036, 0.0, 10.000316, 9.999309 
1.9150224e+3, 2.0572351e+2, -940856.06, -985957.4, -3859.5547, -0.021773065, -0.41890192, -940528.2, -16657.686, 0.0, 10.000146, 9.999552 
1.9150087e+3, 2.157232e+2, -864549.8, -904239.9, -2921.9893, -0.021790618, -0.40642977, -864335.9, -38462.47, 0.0, 10.000023, 9.9995 
1.9149949e+3, 2.2572288e+2, -773546.0, -791662.0, -5684.286, -0.015335197, -0.39132434, -771910.1, -44033.04, 0.0, 9.999897, 9.9996605 
1.914981e+3, 2.3572272e+2, -696094.75, -707240.6, -9858.953, -0.0041572964, -0.37588915, -690342.6, -60462.945, 0.0, 9.999772, 9.999627 
1.9149674e+3, 2.4572235e+2, -576782.4, -553552.1, -10282.54, 0.009399621, -0.3907995, -549654.6, -17771.945, 0.0, 9.999723, 10.000032 
1.9149536e+3, 2.5572202e+2, -482715.38, -465904.53, -8837.657, 0.025339356, -0.42937872, -462113.4, -28229.191, 0.0, 9.999733, 9.999957 
1.9149399e+3, 2.6572186e+2, -394311.3, -382825.88, -11901.6, 0.043764584, -0.427303, -375353.94, -39469.1, 0.0, 9.999712, 9.999865 
1.914926e+3, 2.7572206e+2, -307923.47, -298869.75, -12929.775, 0.061547898, -0.3976383, -289697.28, -51814.08, 0.0, 9.999668, 9.999789 
1.9149122e+3, 2.8572157e+2, -216259.44, -216639.69, -3635.6978, 0.06802421, -0.4135864, -212808.9, -72921.51, 0.0, 9.99968, 9.999676 
1.9148985e+3, 2.9572076e+2, -125475.34, -144972.67, 2422.4233, 0.07351633, -0.46090856, -125178.88, -83285.0, 0.0, 9.999728, 9.999472 
1.914886e+3, 3.0572024e+2, -139208.97, -227605.31, 54041.1, 0.11966824, -0.40341613, -113593.68, -113593.68, 0.0, 9.999733, 9.998567 
1.9148734e+3, 3.1571835e+2, 13200.872, 98278.81, -66971.73, 0.13394074, -0.4607474, 135079.47, 135079.47, 0.0, 9.999695, 10.000822 
1.9251367e+3, 1.2574373e+2, -1563720.1, -1722246.8, 17787.773, -0.07216785, -0.29574317, -1561748.6, 145932.77, 0.050357446, 10.001452, 9.99925 
1.9251221e+3, 1.3574299e+2, -1494527.3, -1628762.6, -25779.52, -0.07268947, -0.31080717, -1489746.6, 119942.195, 0.03503257, 10.001184, 9.999349 
1.9251078e+3, 1.4574258e+2, -1411443.9, -1532365.3, -20873.73, -0.060253203, -0.28374895, -1407942.0, 103749.836, 0.019949425, 10.001039, 9.999407 
1.9250934e+3, 1.557414e+2, -1326327.9, -1450236.0, -19525.693, -0.054686874, -0.34466678, -1323323.9, 90377.81, 0.00840757, 10.00098, 9.999326 
1.9250791e+3, 1.6574046e+2, -1246849.9, -1362928.8, -16136.983, -0.04846948, -0.362981, -1244648.4, 71060.9, 0.002184992, 10.000855, 9.999312 
1.9250649e+3, 1.7573997e+2, -1178697.3, -1286305.3, -16360.557, -0.041730143, -0.34471348, -1176264.9, 41447.99, 0.00020795391, 10.000679, 9.99925 
1.9250508e+3, 1.8573904e+2, -1094770.1, -1179741.3, -13614.229, -0.037032444, -0.3649918, -1092642.1, 27078.098, 0.0000005155152, 10.000516, 9.999388 
1.9250366e+3, 1.9573791e+2, -1023228.44, -1101151.9, -11899.688, -0.033857033, -0.4175987, -1021451.75, 277.3533, 0.0, 10.000362, 9.999329 
1.9250226e+3, 2.0573716e+2, -937397.75, -991529.4, -8182.2393, -0.028780933, -0.42919213, -936188.0, -12452.2295, 0.0, 10.000203, 9.999485 
1.9250086e+3, 2.1573684e+2, -866487.5, -912208.06, -14879.433, -0.022211954, -0.41057277, -862071.56, -36332.56, 0.0, 10.000042, 9.999434 
1.9249947e+3, 2.2573645e+2, -773800.75, -791093.5, -16196.494, -0.013005498, -0.39946026, -764087.2, -36344.02, 0.0, 9.999895, 9.999664 
1.9249809e+3, 2.3573616e+2, -697962.3, -707963.75, -12604.093, -0.0019318602, -0.3959269, -689403.1, -59656.723, 0.0, 9.999761, 9.999627 
1.924967e+3, 2.457358e+2, -585699.44, -560107.6, -10255.715, 0.011712851, -0.41026926, -556504.9, -24755.377, 0.0, 9.999675, 10.0000105 
1.9249533e+3, 2.5573555e+2, -499892.47, -475953.9, -16052.453, 0.027651055, -0.4383142, -467899.56, -34148.86, 0.0, 9.999625, 9.999939 
1.9249395e+3, 2.6573548e+2, -406089.5, -380616.8, -19387.48, 0.042079855, -0.43344614, -370156.4, -34405.727, 0.0, 9.999599, 9.999932 
1.9249256e+3, 2.7573565e+2, -315445.88, -295570.22, -14983.561, 0.05360508, -0.4081193, -287528.4, -49780.113, 0.0, 9.999589, 9.999848 
1.9249117e+3, 2.8573507e+2, -230243.42, -224217.17, -5432.9893, 0.06409184, -0.43601084, -221017.7, -81264.32, 0.0, 9.99959, 9.999665 
1.924898e+3, 2.9573414e+2, -144293.08, -152970.53, -5858.2036, 0.07958078, -0.49656394, -141341.88, -99580.266, 0.0, 9.999597, 9.999478 
1.9248852e+3, 3.057343e+2, -143783.36, -194279.53, 51259.867, 0.097119324, -0.38430542, -111890.92, -111890.92, 0.0, 9.999551, 9.998882 
1.9248731e+3, 3.1573227e+2, -32800.734, 56840.34, -53623.19, 0.14452508, -0.4882225, 81907.766, 81907.766, 0.0, 9.999465, 10.000647 
1.935138e+3, 1.2575723e+2, -1561956.6, -1718471.4, 5377.4595, -0.096709035, -0.33029976, -1561772.0, 145775.44, 0.051934242, 10.001453, 9.999276 
1.9351234e+3, 1.357564e+2, -1494064.4, -1629047.3, -35991.86, -0.0730725, -0.35359392, -1485067.1, 124488.664, 0.036193907, 10.001188, 9.999347 
1.9351089e+3, 1.4575621e+2, -1411184.4, -1533264.4, -23697.787, -0.055683862, -0.30445915, -1406745.6, 104811.73, 0.020672923, 10.001043, 9.999399 
1.9350943e+3, 1.5575549e+2, -1326257.4, -1451430.1, -22649.762, -0.054957822, -0.31835628, -1322285.0, 91278.42, 0.008756633, 10.000984, 9.999317 
1.93508e+3, 1.6575445e+2, -1247088.6, -1364791.3, -23227.787, -0.05305717, -0.34572566, -1242670.6, 72901.42, 0.0022959346, 10.000859, 9.999299 
1.9350655e+3, 1.7575343e+2, -1179001.8, -1288370.5, -23257.713, -0.05021161, -0.37862077, -1174261.4, 43318.918, 0.000223007, 10.000683, 9.999235 
1.9350511e+3, 1.857525e+2, -1091585.1, -1174591.8, -19515.46, -0.04688515, -0.39904872, -1087225.9, 32361.59, 0.000000599565, 10.00052, 9.999423 
1.935037e+3, 1.9575179e+2, -1021291.1, -1098556.9, -17738.002, -0.043310147, -0.4141346, -1017413.6, 4178.589, 0.0, 10.000366, 9.999346 
1.9350228e+3, 2.05751e+2, -948588.3, -1016230.56, -14145.6455, -0.033377748, -0.418716, -945749.3, -22150.016, 0.0, 10.000208, 9.999314 
1.9350088e+3, 2.1575038e+2, -876479.8, -934420.25, -20563.23, -0.01862276, -0.41549626, -869923.75, -44317.453, 0.0, 10.000046, 9.999282 
1.9349948e+3, 2.2574988e+2, -766005.94, -776398.1, -20855.1, -0.0070236954, -0.41322672, -749709.4, -22098.277, 0.0, 9.999899, 9.999764 
1.9349808e+3, 2.3574965e+2, -691621.6, -696289.4, -16875.87, 0.0020951668, -0.4137875, -676919.0, -47306.375, 0.0, 9.999765, 9.999706 
1.9349667e+3, 2.4574932e+2, -593574.8, -578098.25, -11629.465, 0.016084695, -0.4205166, -571867.8, -40252.383, 0.0, 9.99968, 9.999886 
1.934953e+3, 2.557491e+2, -506542.56, -491391.1, -17310.373, 0.0339232, -0.43202502, -480071.3, -46454.023, 0.0, 9.99963, 9.999831 
1.934939e+3, 2.6574904e+2, -396034.94, -361281.06, -19520.512, 0.043334328, -0.4289784, -352523.56, -16906.494, 0.0, 9.999604, 10.000064 
1.934925e+3, 2.757492e+2, -307077.97, -279749.8, -15080.032, 0.0450418, -0.42014757, -273064.1, -35450.113, 0.0, 9.999594, 9.999956 
1.9349113e+3, 2.8574848e+2, -236671.4, -239152.66, -5345.4063, 0.05944896, -0.46011725, -232424.53, -92804.28, 0.0, 9.999595, 9.999561 
1.9348979e+3, 2.957474e+2, -146962.98, -160102.11, -6212.502, 0.087699205, -0.5248685, -144490.73, -102860.22, 0.0, 9.999601, 9.999429 
1.9348845e+3, 3.057481e+2, -103960.24, -112827.625, 47642.668, 0.07113517, -0.3879664, -60545.41, -60545.41, 0.0, 9.999554, 9.999441 
1.9348726e+3, 3.1574658e+2, -45932.234, 28508.488, -54029.42, 0.1436836, -0.49130583, 56897.07, 56897.07, 0.0, 9.999467, 10.000452 
1.9451395e+3, 1.2577112e+2, -1574048.0, -1722190.3, 12569.642, -0.098512225, -0.33883834, -1572989.0, 134421.39, 0.05352074, 10.00136, 9.999295 
1.9451246e+3, 1.3577026e+2, -1475638.9, -1620222.0, -27896.252, -0.074870385, -0.36760622, -1470443.1, 138976.06, 0.03735767, 10.001326, 9.999339 
1.94511e+3, 1.4577006e+2, -1388659.5, -1523460.1, -15386.202, -0.05880801, -0.31637913, -1386925.6, 124495.16, 0.02139506, 10.00121, 9.999385 
1.9450954e+3, 1.5576942e+2, -1320881.3, -1450171.6, -15557.598, -0.05658412, -0.3204223, -1319035.5, 94390.805, 0.009103926, 10.00103, 9.999302 
1.9450808e+3, 1.657684e+2, -1245391.9, -1363447.5, -17604.992, -0.055730816, -0.3463868, -1242822.4, 72612.59, 0.002405855, 10.000871, 9.999301 
1.9450662e+3, 1.7576733e+2, -1172971.4, -1285610.4, -17059.271, -0.0560005, -0.38460615, -1170444.4, 46999.363, 0.0002375857, 10.000728, 9.999231 
1.9450517e+3, 1.8576637e+2, -1088450.4, -1177750.9, -16693.143, -0.05172715, -0.4056159, -1085431.9, 34019.242, 0.0000006629477, 10.000564, 9.999378 
1.9450372e+3, 1.9576564e+2, -1021944.9, -1104013.6, -21169.027, -0.044144645, -0.41732696, -1016806.25, 4649.832, 0.0, 10.000387, 9.999297 
1.945023e+3, 2.0576482e+2, -948616.8, -1023146.56, -15257.12, -0.031533483, -0.4200786, -945614.44, -22150.898, 0.0, 10.000239, 9.99925 
1.9450088e+3, 2.1576412e+2, -871118.56, -938774.6, -14339.445, -0.015086062, -0.4166073, -868204.9, -42733.715, 0.0, 10.000114, 9.999217 
1.9449946e+3, 2.2576351e+2, -757780.2, -775994.7, -17289.785, -0.0052181766, -0.42010984, -747345.75, -19868.963, 0.0, 9.999973, 9.99973 
1.9449805e+3, 2.3576315e+2, -686428.7, -697685.06, -23552.977, -0.00027400773, -0.4307133, -667840.75, -38361.555, 0.0, 9.99982, 9.999669 
1.9449665e+3, 2.4576281e+2, -592923.06, -582269.6, -16669.371, 0.015108902, -0.43461066, -570096.56, -38614.46, 0.0, 9.999705, 9.999843 
1.9449526e+3, 2.5576267e+2, -511112.66, -498009.28, -16224.333, 0.038350977, -0.43341482, -487063.72, -53580.234, 0.0, 9.9996195, 9.99979 
1.9449387e+3, 2.6576257e+2, -403751.38, -365254.38, -20603.682, 0.045749586, -0.43123788, -356306.84, -20823.234, 0.0, 9.999555, 10.00006 
1.9449246e+3, 2.7576265e+2, -320421.53, -286284.1, -26471.072, 0.040379703, -0.43438897, -271855.84, -34374.34, 0.0, 9.999505, 9.999953 
1.9449107e+3, 2.8576192e+2, -255647.73, -241922.44, -14463.626, 0.059415013, -0.47469947, -232775.95, -93288.49, 0.0, 9.999439, 9.999617 
1.9448973e+3, 2.9576102e+2, -176462.92, -164085.42, -3665.188, 0.09924937, -0.5281772, -163081.52, -121585.47, 0.0, 9.999357, 9.999517 
1.9448836e+3, 3.0576178e+2, -123793.33, -77157.05, 45360.734, 0.04563297, -0.41287655, -49471.93, -49471.93, 0.0, 9.999226, 9.999844 
1.9448718e+3, 3.1576073e+2, -119859.555, -31159.387, -61282.53, 0.13944711, -0.5023116, 137.59442, 137.59442, 0.0, 9.999065, 10.000235 
1.9551408e+3, 1.2578547e+2, -1573312.4, -1721744.8, 8590.595, -0.080494195, -0.3233857, -1572816.9, 134453.02, 0.05510992, 10.001365, 9.999296 
1.955126e+3, 1.3578457e+2, -1476614.0, -1623426.3, -30575.08, -0.07825638, -0.35438338, -1470501.0, 138777.67, 0.038519535, 10.001329, 9.999317 
1.955111e+3, 1.4578418e+2, -1390231.9, -1527841.8, -22881.643, -0.0693963, -0.3201535, -1386526.9, 124754.96, 0.022113826, 10.001213, 9.999354 
1.9550963e+3, 1.5578325e+2, -1322439.3, -1454634.5, -22900.914, -0.059633307, -0.34984717, -1318584.4, 94705.71, 0.009448931, 10.001033, 9.999271 
1.9550817e+3, 1.6578233e+2, -1244085.0, -1362076.1, -23478.12, -0.05666075, -0.36414108, -1239584.9, 75712.94, 0.0025148941, 10.0008745, 9.99931 
1.9550669e+3, 1.7578167e+2, -1172544.3, -1286108.8, -22932.723, -0.059271578, -0.36329007, -1168088.1, 49214.83, 0.0002518684, 10.000731, 9.999228 
1.9550523e+3, 1.8578061e+2, -1096719.1, -1196440.0, -23537.309, -0.05174289, -0.38535562, -1091442.8, 27868.652, 0.00000071117205, 10.000568, 9.999249 
1.9550377e+3, 1.9577944e+2, -1029535.56, -1121404.1, -27637.324, -0.036665004, -0.4270956, -1021862.2, -541.4414, 0.0, 10.000392, 9.999177 
1.9550233e+3, 2.0577857e+2, -945560.5, -1018351.56, -19754.928, -0.023443555, -0.43308088, -940544.75, -17216.076, 0.0, 10.000244, 9.999283 
1.9550091e+3, 2.1577807e+2, -869397.1, -936632.7, -18776.62, -0.011618926, -0.41378143, -864508.9, -39175.016, 0.0, 10.000119, 9.999231 
1.9549946e+3, 2.2577733e+2, -769322.44, -801450.2, -22739.275, -0.0076408866, -0.42005256, -757545.3, -30204.824, 0.0, 9.999977, 9.999555 
1.95498e+3, 2.3577663e+2, -697004.4, -721142.8, -28580.904, -0.0093863, -0.44693708, -678048.9, -48702.367, 0.0, 9.999825, 9.999507 
1.954966e+3, 2.4577622e+2, -589743.9, -577289.56, -19375.668, 0.008509987, -0.4527773, -563164.94, -31814.92, 0.0, 9.99971, 9.999876 
1.9549523e+3, 2.5577623e+2, -509200.78, -495693.0, -18884.049, 0.040863667, -0.44240746, -482391.4, -49041.594, 0.0, 9.999624, 9.9998045 
1.9549382e+3, 2.6577604e+2, -413542.1, -387276.94, -22319.36, 0.049298827, -0.44017473, -374513.22, -39162.34, 0.0, 9.999559, 9.9999075 
1.954924e+3, 2.7577585e+2, -328380.9, -304465.13, -28378.238, 0.039459646, -0.45104364, -285628.28, -48276.63, 0.0, 9.99951, 9.999826 
1.9549103e+3, 2.8577533e+2, -240164.58, -211123.86, -17888.781, 0.06384894, -0.47945854, -202604.05, -63248.29, 0.0, 9.999443, 9.999827 
1.9548969e+3, 2.957749e+2, -160281.11, -131428.55, -7252.438, 0.11426526, -0.50523144, -129708.15, -88349.27, 0.0, 9.999359, 9.999742 
1.9548827e+3, 3.0577517e+2, -107500.875, -44103.305, 38428.223, 0.020575473, -0.46080956, -25987.02, -25987.02, 0.0, 9.999227, 10.000071 
1.9548707e+3, 3.157748e+2, -135807.81, -65330.906, -56877.29, 0.130209, -0.5045184, -33660.66, -33660.66, 0.0, 9.999068, 10.0 
1.9651423e+3, 1.2579978e+2, -1556015.4, -1707248.5, 3781.1938, -0.08062157, -0.3092803, -1555920.9, 151209.42, 0.056699432, 10.001471, 9.999344 
1.9651273e+3, 1.3579883e+2, -1482234.3, -1623529.4, -31245.355, -0.06652613, -0.34614006, -1475633.3, 133505.6, 0.039681073, 10.001281, 9.999339 
1.9651122e+3, 1.4579836e+2, -1399132.0, -1531772.8, -22174.434, -0.06006495, -0.32163325, -1395523.1, 115619.39, 0.022831904, 10.001152, 9.999356 
1.9650973e+3, 1.5579733e+2, -1318205.9, -1452355.8, -20540.734, -0.05973103, -0.36100137, -1315131.3, 98020.35, 0.009793364, 10.001064, 9.99927 
1.9650826e+3, 1.6579643e+2, -1237062.0, -1359368.9, -22023.752, -0.059211254, -0.37346298, -1233217.1, 81942.08, 0.0026236707, 10.000929, 9.999301 
1.9650677e+3, 1.7579585e+2, -1169619.1, -1286116.1, -23171.592, -0.0593279, -0.36229387, -1165179.5, 51984.105, 0.0002660043, 10.00076, 9.999212 
1.9650528e+3, 1.8579479e+2, -1089557.3, -1200221.5, -21003.273, -0.051947687, -0.3809674, -1085705.0, 33467.31, 0.0000007473898, 10.000651, 9.999182 
1.965038e+3, 1.9579355e+2, -1006171.4, -1117163.3, -21307.055, -0.038804267, -0.4244384, -1002221.6, 18961.176, 0.0, 10.000585, 9.999111 
1.9650236e+3, 2.0579259e+2, -924997.94, -1009478.8, -16681.158, -0.0237147, -0.43419048, -921823.5, 1367.7699, 0.0, 10.000392, 9.99927 
1.9650091e+3, 2.15792e+2, -872631.4, -940170.06, -19106.227, -0.0072949585, -0.42007524, -867601.0, -42404.645, 0.0, 10.000108, 9.999211 
1.9649947e+3, 2.257912e+2, -780887.56, -817256.94, -18050.004, -0.004083727, -0.42892748, -773450.3, -46246.63, 0.0, 9.999945, 9.99946 
1.9649799e+3, 2.3579039e+2, -696795.06, -731043.8, -18259.207, -0.010434232, -0.45659196, -688886.6, -59675.7, 0.0, 9.99987, 9.999415 
1.9649658e+3, 2.4578993e+2, -585871.25, -579369.5, -9866.581, 0.00830375, -0.46109244, -572232.06, -41017.156, 0.0, 9.999756, 9.999839 
1.9649519e+3, 2.557899e+2, -514298.28, -502568.7, -14661.449, 0.04522045, -0.44788158, -492642.53, -59427.97, 0.0, 9.999611, 9.999763 
1.9649377e+3, 2.657896e+2, -425250.94, -398759.2, -14330.191, 0.049284983, -0.4520182, -392490.78, -57273.98, 0.0, 9.999506, 9.999853 
1.9649233e+3, 2.7578923e+2, -343657.84, -316745.47, -13492.459, 0.02949449, -0.4755256, -311146.1, -73926.47, 0.0, 9.999428, 9.999781 
1.9649096e+3, 2.8578892e+2, -259563.52, -209689.02, -8182.99, 0.06079206, -0.48695952, -208380.75, -69158.92, 0.0, 9.999265, 9.999922 
1.9648962e+3, 2.9578897e+2, -198533.75, -137779.88, -6308.2603, 0.12782222, -0.47539356, -137131.78, -95911.53, 0.0, 9.999046, 9.999847 
1.9648814e+3, 3.0578867e+2, -148136.63, -51909.49, 29989.918, -0.00079458504, -0.5006151, -43328.164, -43328.164, 0.0, 9.9988985, 10.0001745 
1.9648696e+3, 3.157888e+2, -171611.47, -79563.22, -57549.64, 0.12227714, -0.50066054, -51897.58, -51897.58, 0.0, 9.998811, 10.000025 
1.9751436e+3, 1.2581408e+2, -1549786.1, -1695677.9, -5367.0967, -0.098997556, -0.29748932, -1549589.0, 157402.16, 0.058294192, 10.001477, 9.999426 
1.9751288e+3, 1.3581312e+2, -1477850.5, -1615595.5, -38554.043, -0.040417727, -0.3424655, -1467793.6, 141205.4, 0.040848214, 10.0012865, 9.9993925 
1.9751137e+3, 1.4581265e+2, -1396882.0, -1528343.0, -26052.977, -0.031898677, -0.32059923, -1391907.0, 119095.26, 0.02355414, 10.001156, 9.999378 
1.9750986e+3, 1.5581171e+2, -1316407.9, -1449896.5, -24633.482, -0.057270523, -0.354444, -1312007.1, 101003.26, 0.010139796, 10.001068, 9.999287 
1.9750834e+3, 1.658107e+2, -1238727.0, -1364203.5, -28842.084, -0.0634373, -0.37467757, -1232414.9, 82603.94, 0.0027330357, 10.000933, 9.999267 
1.9750683e+3, 1.7580992e+2, -1171422.5, -1291234.4, -29450.584, -0.056366034, -0.3811277, -1164574.8, 52450.49, 0.0002801359, 10.000764, 9.999176 
1.9750534e+3, 1.8580891e+2, -1089968.6, -1202425.0, -23595.465, -0.05244503, -0.39201555, -1085218.5, 33815.31, 0.00000077122036, 10.000655, 9.999166 
1.9750386e+3, 1.958079e+2, -1007025.2, -1120287.4, -24443.809, -0.050510693, -0.40945375, -1001975.0, 19067.328, 0.0, 10.000588, 9.999089 
1.9750239e+3, 2.0580685e+2, -928576.3, -1018368.3, -27251.643, -0.032305107, -0.42355162, -920952.75, 2098.5942, 0.0, 10.000397, 9.999209 
1.9750093e+3, 2.1580595e+2, -876165.9, -949003.1, -28831.773, -0.002323591, -0.43556097, -866134.6, -41075.754, 0.0, 10.000112, 9.999149 
1.9749947e+3, 2.2580509e+2, -781618.56, -820246.9, -20435.168, 0.005321025, -0.4467172, -772814.56, -45747.934, 0.0, 9.9999485, 9.999439 
1.9749798e+3, 2.3580441e+2, -698141.44, -735380.94, -20707.71, -0.0033217994, -0.45931366, -688913.3, -59840.53, 0.0, 9.999875, 9.999385 
1.9749656e+3, 2.4580391e+2, -593131.75, -596099.8, -14857.816, 0.014528971, -0.45926312, -579684.06, -48606.926, 0.0, 9.999761, 9.9997225 
1.9749515e+3, 2.5580373e+2, -520920.5, -517917.7, -19522.357, 0.05111656, -0.44999203, -499839.1, -66760.84, 0.0, 9.999616, 9.999657 
1.9749373e+3, 2.6580328e+2, -421765.7, -393117.7, -17029.506, 0.045385752, -0.46703923, -385189.03, -50107.098, 0.0, 9.999511, 9.99989 
1.9749226e+3, 2.7580276e+2, -340892.06, -312575.3, -16864.096, 0.010229305, -0.5080679, -304714.22, -67628.21, 0.0, 9.999433, 9.999808 
1.9749087e+3, 2.8580266e+2, -261404.75, -214850.14, -16697.629, 0.049883574, -0.49716243, -209480.56, -70394.22, 0.0, 9.999269, 9.999886 
1.9748954e+3, 2.9580316e+2, -199925.42, -141621.78, -14283.424, 0.139252, -0.43808386, -138310.63, -97229.65, 0.0, 9.999048, 9.999822 
1.9748802e+3, 3.0580217e+2, -150624.5, -57751.516, 25051.455, -0.0185895, -0.5318617, -51425.113, -51425.113, 0.0, 9.998899, 10.000134 
1.9748683e+3, 3.158027e+2, -149056.36, -33809.902, -41793.844, 0.11407978, -0.48505983, -20249.129, -20249.129, 0.0, 9.998813, 10.0003395 
1.985145e+3, 1.2582847e+2, -1533187.3, -1684444.0, 6033.493, -0.10135496, -0.3006527, -1532946.9, 173903.02, 0.059905183, 10.001589, 9.999453 
1.9851302e+3, 1.3582748e+2, -1461234.1, -1606091.8, -29419.676, -0.04310385, -0.34783766, -1455487.1, 153370.53, 0.04202892, 10.001405, 9.999399 
1.9851148e+3, 1.4582701e+2, -1385617.6, -1521861.9, -17302.504, -0.030212585, -0.32830974, -1383454.6, 127406.414, 0.024285633, 10.001235, 9.999384 
1.9850996e+3, 1.5582606e+2, -1315308.9, -1448632.0, -17670.492, -0.04533577, -0.36077306, -1313006.6, 99862.414, 0.010490902, 10.001076, 9.99929 
1.9850844e+3, 1.6582508e+2, -1238869.9, -1362476.0, -21940.787, -0.05176006, -0.3809442, -1235090.9, 79786.484, 0.0028440533, 10.000927, 9.999281 
1.9850692e+3, 1.758243e+2, -1168642.3, -1289371.0, -19332.508, -0.052627094, -0.3886401, -1165622.0, 51261.543, 0.00029456127, 10.000784, 9.999179 
1.985054e+3, 1.8582328e+2, -1097999.9, -1216546.0, -13837.001, -0.05299498, -0.39562124, -1096406.3, 22486.3, 0.0000007914033, 10.000647, 9.999072 
1.9850391e+3, 1.9582227e+2, -1023871.25, -1137782.5, -21283.67, -0.052674375, -0.40523767, -1020024.4, 877.4578, 0.0, 10.000516, 9.999003 
1.9850244e+3, 2.0582114e+2, -922885.3, -1011461.8, -25574.66, -0.035189804, -0.42402795, -916031.44, 6879.8774, 0.0, 10.00042, 9.999244 
1.9850095e+3, 2.1582013e+2, -840312.75, -928919.44, -20502.188, -0.0052594393, -0.44988477, -835798.8, -10879.791, 0.0, 10.000348, 9.999172 
1.9849946e+3, 2.2581926e+2, -756678.6, -816521.4, -11686.234, 0.0060487627, -0.45885316, -754477.5, -27550.754, 0.0, 10.000157, 9.999363 
1.9849798e+3, 2.3581865e+2, -703114.9, -746277.2, -16357.379, 0.0039199186, -0.45740327, -697616.3, -68683.664, 0.0, 9.99988, 9.999306 
1.9849654e+3, 2.4581803e+2, -610184.2, -612766.5, -9812.594, 0.020969557, -0.4592551, -601578.2, -70640.15, 0.0, 9.999682, 9.999645 
1.9849512e+3, 2.5581765e+2, -536775.9, -533395.25, -11511.586, 0.051154114, -0.46382335, -523450.53, -90509.445, 0.0, 9.999542, 9.999584 
1.9849366e+3, 2.6581717e+2, -432733.63, -395964.44, -6867.389, 0.040652327, -0.48329958, -394723.7, -59778.49, 0.0, 9.999427, 9.99991 
1.9849218e+3, 2.7581674e+2, -355350.63, -317730.8, -8461.2705, 0.0027726947, -0.5176752, -315915.34, -78966.805, 0.0, 9.999328, 9.999823 
1.984908e+3, 2.858167e+2, -266158.72, -216951.52, -9641.51, 0.048185486, -0.49695653, -215129.83, -76181.69, 0.0, 9.999237, 9.999886 
1.9848946e+3, 2.9581732e+2, -185835.97, -135585.98, -5159.75, 0.14694118, -0.428218, -135061.66, -94119.48, 0.0, 9.99915, 9.999813 
1.984879e+3, 3.0581594e+2, -183885.38, -88829.69, 22386.223, -0.031374257, -0.5495936, -83821.45, -83821.45, 0.0, 9.998738, 9.999997 
1.9848667e+3, 3.1581664e+2, -223220.23, -28622.38, -26338.588, 0.112206705, -0.4770648, -25120.502, -25120.502, 0.0, 9.99813, 10.000703 
1.9951467e+3, 1.2584299e+2, -1535236.0, -1689422.5, -2836.2417, -0.09010548, -0.31857765, -1535183.9, 171522.4, 0.061545417, 10.001593, 9.999416 
1.9951312e+3, 1.3584201e+2, -1464358.0, -1613698.3, -36780.78, -0.07371156, -0.36168945, -1455790.8, 152923.58, 0.043232605, 10.001408, 9.999348 
1.995116e+3, 1.4584146e+2, -1386410.3, -1524573.6, -23824.303, -0.053976454, -0.34431687, -1382417.4, 128301.055, 0.02503264, 10.001238, 9.999365 
1.995101e+3, 1.5584049e+2, -1315851.6, -1451005.4, -24059.953, -0.024166856, -0.37945154, -1311696.3, 101030.96, 0.010850317, 10.001079, 9.999273 
1.9950856e+3, 1.658396e+2, -1234553.0, -1354841.1, -27720.795, -0.024793029, -0.3920052, -1228472.0, 86262.43, 0.0029583636, 10.000931, 9.999332 
1.99507e+3, 1.75839e+2, -1165772.6, -1284909.0, -24966.732, -0.048375297, -0.384999, -1160752.1, 55986.293, 0.0003098211, 10.000788, 9.999208 
1.9950546e+3, 1.8583791e+2, -1109854.4, -1242715.0, -18896.678, -0.0537157, -0.39188915, -1107219.0, 11529.512, 0.00000083281077, 10.000651, 9.998891 
1.9950397e+3, 1.958366e+2, -1034165.9, -1160609.4, -25945.629, -0.045540936, -0.4116304, -1029049.06, -8287.634, 0.0, 10.00052, 9.998845 
1.9950247e+3, 2.0583542e+2, -913642.06, -993722.75, -28031.256, -0.032536868, -0.4354474, -904805.2, 17966.049, 0.0, 10.000424, 9.999365 
1.9950096e+3, 2.1583451e+2, -832816.44, -914810.1, -23479.215, -0.016193235, -0.46291655, -826569.1, -1792.1178, 0.0, 10.000353, 9.999269 
1.9949947e+3, 2.2583368e+2, -765671.94, -836636.0, -21834.559, -0.0019654396, -0.4652593, -759492.0, -32707.658, 0.0, 10.000162, 9.999224 
1.9949797e+3, 2.3583305e+2, -711803.75, -765753.44, -25903.232, 0.0110943075, -0.4510054, -701380.5, -72589.47, 0.0, 9.999884, 9.999171 
1.9949651e+3, 2.4583228e+2, -612638.56, -619448.7, -14645.697, 0.027441533, -0.46120438, -601007.3, -70209.22, 0.0, 9.999687, 9.999598 
1.9949506e+3, 2.558316e+2, -539062.5, -539819.6, -16257.612, 0.045131948, -0.48943377, -523179.0, -90375.47, 0.0, 9.999547, 9.999539 
1.994936e+3, 2.6583117e+2, -432436.47, -396951.4, -10469.892, 0.035000805, -0.50060433, -394092.6, -59285.438, 0.0, 9.999432, 9.999903 
1.9949213e+3, 2.7583104e+2, -355328.88, -319142.66, -12214.928, 0.007168763, -0.5034179, -315405.4, -78597.555, 0.0, 9.999331, 9.999812 
1.9949073e+3, 2.8583103e+2, -263126.2, -212328.44, -13057.3545, 0.05568032, -0.4861159, -209168.64, -70360.734, 0.0, 9.999242, 9.999916 
1.9948937e+3, 2.9583132e+2, -184657.42, -135258.42, -10425.191, 0.15064295, -0.4475748, -133148.4, -92343.63, 0.0, 9.999157, 9.999813 
1.9948776e+3, 3.0582997e+2, -200913.44, -125099.89, -3030.4136, -0.03863229, -0.5525042, -124978.95, -124978.95, 0.0, 9.99874, 9.999748 
1.994865e+3, 3.158305e+2, -195169.23, 30190.783, -23188.05, 0.11381532, -0.47747698, 32551.941, 32551.941, 0.0, 9.998125, 10.001111 
2.0051482e+3, 1.2585765e+2, -1537226.5, -1689818.1, 1766.9384, -0.09906317, -0.3397586, -1537206.0, 169355.1, 0.063225694, 10.00158, 9.999418 
2.0051326e+3, 1.3585678e+2, -1480973.9, -1623455.8, -27839.363, -0.068754785, -0.3704831, -1475727.6, 132841.02, 0.044468734, 10.001299, 9.9993305 
2.0051171e+3, 1.4585625e+2, -1403978.9, -1535753.9, -10595.203, -0.051475324, -0.35015637, -1403132.5, 107440.51, 0.02580235, 10.001128, 9.99934 
2.0051019e+3, 1.5585524e+2, -1324451.9, -1457975.9, -11590.691, -0.033328842, -0.3851481, -1323453.3, 89128.836, 0.0112224715, 10.001034, 9.999247 
2.0050864e+3, 1.658543e+2, -1231482.0, -1353963.4, -17428.607, -0.031074043, -0.40016696, -1229050.3, 85539.42, 0.0030779804, 10.000957, 9.999325 
2.0050709e+3, 1.7585365e+2, -1151574.9, -1279475.0, -19725.06, -0.04175842, -0.39764696, -1148601.9, 67991.96, 0.0003265317, 10.000894, 9.999193 
2.0050555e+3, 1.8585254e+2, -1097320.8, -1241333.8, -12053.837, -0.04574163, -0.4029121, -1096318.8, 22285.37, 0.0000009170216, 10.00076, 9.998847 
2.0050403e+3, 1.9585125e+2, -1030137.75, -1163843.1, -9472.1455, -0.04429178, -0.41652375, -1029470.06, -8852.973, 0.0, 10.000572, 9.998796 
2.005025e+3, 2.0585e+2, -924176.4, -1005948.44, -14885.87, -0.033444177, -0.4406415, -921550.8, 1076.8347, 0.0, 10.000384, 9.999299 
2.00501e+3, 2.15849e+2, -860186.8, -935190.44, -24971.941, -0.016122002, -0.47303703, -852633.3, -27998.729, 0.0, 10.000197, 9.999202 
2.0049949e+3, 2.2584811e+2, -783066.44, -849029.06, -27166.225, -0.0016239459, -0.47351155, -773318.75, -46676.492, 0.0, 10.000062, 9.999186 
2.0049797e+3, 2.3584752e+2, -703709.6, -766380.8, -24066.086, 0.0114395125, -0.4524379, -695534.56, -66885.88, 0.0, 9.999961, 9.999129 
2.0049648e+3, 2.4584669e+2, -598160.25, -618970.6, -9348.9795, 0.026151659, -0.46323335, -594577.2, -63920.855, 0.0, 9.999816, 9.999537 
2.0049502e+3, 2.558459e+2, -529715.25, -541288.2, -12170.112, 0.040753, -0.49756208, -522026.0, -89362.96, 0.0, 9.9996395, 9.999483 
2.0049354e+3, 2.6584545e+2, -436546.75, -398078.72, -7524.743, 0.032816447, -0.5055678, -396659.2, -61992.582, 0.0, 9.999402, 9.999908 
2.0049205e+3, 2.7584547e+2, -385968.9, -333330.53, -7817.211, 0.011725808, -0.4982563, -332194.13, -95527.79, 0.0, 9.999122, 9.999815 
2.0049064e+3, 2.8584537e+2, -302259.06, -229974.77, -5205.1606, 0.061022673, -0.48672816, -229601.88, -90934.64, 0.0, 9.998971, 9.999925 
2.0048927e+3, 2.958455e+2, -222471.5, -153998.61, -6244.3184, 0.15050198, -0.4656784, -153433.83, -112767.61, 0.0, 9.998902, 9.999806 
2.0048763e+3, 3.058446e+2, -230015.98, -147595.23, -9089.253, -0.034897726, -0.5215451, -146604.78, -146604.78, 0.0, 9.99858, 9.99967 
2.004863e+3, 3.1584468e+2, -174926.64, 69184.97, 10251.199, 0.11308127, -0.48186097, 69614.695, 69614.695, 0.0, 9.99814, 10.00137 
2.0151496e+3, 1.2587248e+2, -1535616.8, -1685695.9, -10663.246, -0.12851006, -0.36495665, -1534862.9, 171551.17, 0.064955264, 10.001577, 9.999452 
2.0151342e+3, 1.3587184e+2, -1480076.4, -1622102.0, -38241.727, -0.029825157, -0.3744895, -1470434.0, 137986.06, 0.045745816, 10.0013, 9.999342 
2.0151186e+3, 1.4587137e+2, -1406198.1, -1541670.5, -14743.569, -0.024120536, -0.34634474, -1404612.3, 105812.05, 0.02660151, 10.001131, 9.999299 
2.0151025e+3, 1.5587035e+2, -1326774.5, -1464372.9, -15605.076, -0.072171174, -0.37832636, -1325026.9, 87406.61, 0.011611653, 10.001039, 9.999202 
2.015087e+3, 1.6586924e+2, -1235878.8, -1364707.6, -20144.506, -0.06959789, -0.40549406, -1232802.3, 81640.555, 0.0032048475, 10.000961, 9.999249 
2.015072e+3, 1.7586827e+2, -1155332.6, -1288716.1, -22673.504, -0.03273682, -0.42614388, -1151583.9, 64865.996, 0.00034520094, 10.000897, 9.999129 
2.0150565e+3, 1.858672e+2, -1090982.1, -1229538.4, -19239.635, -0.029349295, -0.42829204, -1088360.1, 30099.242, 0.0000010607014, 10.000764, 9.998928 
2.0150408e+3, 1.9586623e+2, -1026003.25, -1156709.3, -16565.818, -0.049029242, -0.4198382, -1023936.3, -3467.3408, 0.0, 10.000577, 9.998845 
2.0150253e+3, 2.0586489e+2, -941635.5, -1043708.8, -21787.486, -0.03793552, -0.43962392, -937179.5, -14698.798, 0.0, 10.000389, 9.999039 
2.0150103e+3, 2.1586354e+2, -875970.44, -969436.06, -31380.582, -0.0051538846, -0.48029748, -866412.06, -41920.06, 0.0, 10.000202, 9.998966 
2.014995e+3, 2.2586255e+2, -778566.9, -841156.9, -30646.146, 0.0069633285, -0.48357922, -766060.5, -39559.7, 0.0, 10.000066, 9.999239 
2.0149796e+3, 2.3586202e+2, -700088.25, -760428.94, -27623.293, 0.004733082, -0.4615836, -689352.7, -60846.71, 0.0, 9.999966, 9.999169 
2.0149647e+3, 2.4586123e+2, -602914.8, -630608.94, -15624.984, 0.016922312, -0.46522796, -595884.06, -65370.883, 0.0, 9.999822, 9.999456 
2.0149498e+3, 2.5586048e+2, -534140.25, -552204.25, -18884.059, 0.037904013, -0.48784247, -522239.4, -89719.336, 0.0, 9.999645, 9.999407 
2.0149349e+3, 2.6586e+2, -434786.34, -396038.22, -18173.322, 0.03406689, -0.49787727, -388848.7, -54324.54, 0.0, 9.999407, 9.999921 
2.0149197e+3, 2.7585986e+2, -384675.53, -332025.72, -17637.342, 0.016366566, -0.50259346, -326663.47, -90138.74, 0.0, 9.999125, 9.999824 
2.0149054e+3, 2.858597e+2, -303299.8, -233291.36, -8053.995, 0.06391316, -0.4993929, -232376.75, -93849.875, 0.0, 9.998973, 9.999901 
2.0148917e+3, 2.9585978e+2, -223876.92, -157714.39, -11260.588, 0.14578664, -0.48233664, -155850.4, -115323.09, 0.0, 9.998903, 9.999782 
2.014875e+3, 3.0585974e+2, -223033.17, -133811.47, -27798.049, -0.019388368, -0.45421946, -125859.414, -125859.414, 0.0, 9.998581, 9.999765 
2.0148611e+3, 3.158593e+2, -169002.5, 79401.42, 17894.727, 0.10638195, -0.4819136, 80683.914, 80683.914, 0.0, 9.998147, 10.001438 
2.025151e+3, 1.2588753e+2, -1591421.8, -1714198.8, -8761.988, -0.118987635, -0.3793576, -1590799.6, 115465.695, 0.0667436, 10.001176, 9.999438 
2.0251353e+3, 1.3588694e+2, -1517479.5, -1643232.0, -38190.84, -0.033890877, -0.3821882, -1506789.8, 101481.97, 0.047070254, 10.001044, 9.999319 
2.0251195e+3, 1.458865e+2, -1416886.1, -1543530.1, -6343.1416, -0.031911686, -0.35148543, -1416569.3, 93706.42, 0.02743433, 10.001044, 9.999327 
2.0251036e+3, 1.5588553e+2, -1312034.9, -1455087.0, -3028.0466, -0.075370684, -0.37956816, -1311970.8, 100313.18, 0.01202056, 10.001134, 9.999218 
2.025088e+3, 1.6588438e+2, -1224203.4, -1366093.8, -9335.902, -0.07052874, -0.40929466, -1223591.8, 90701.99, 0.0033402527, 10.001074, 9.999186 
2.0250727e+3, 1.7588326e+2, -1158603.5, -1297073.3, -11733.279, -0.03285956, -0.437296, -1157616.4, 58686.023, 0.0003661045, 10.000907, 9.999066 
2.0250571e+3, 1.8588215e+2, -1089165.6, -1228131.5, -12846.734, -0.028779708, -0.4399899, -1087988.0, 30324.154, 0.0000012791296, 10.000775, 9.998931 
2.0250414e+3, 1.9588123e+2, -1013181.6, -1151571.3, -16575.465, -0.047945112, -0.42710662, -1011224.0, 9096.965, 0.0, 10.000671, 9.998834 
2.025026e+3, 2.0587987e+2, -931915.94, -1052847.9, -20248.143, -0.03685983, -0.4427075, -928615.75, -6282.5234, 0.0, 10.000518, 9.998913 
2.0250104e+3, 2.1587841e+2, -866043.2, -977583.2, -20150.709, -0.004373802, -0.47934073, -862514.4, -38168.31, 0.0, 10.000328, 9.998848 
2.024995e+3, 2.2587733e+2, -766821.94, -835782.44, -16271.409, 0.0060506393, -0.48683122, -763175.5, -36819.742, 0.0, 10.000151, 9.999234 
2.0249794e+3, 2.358767e+2, -698945.06, -760942.0, -18258.521, 0.0010987441, -0.4750801, -693967.44, -65606.125, 0.0, 9.999981, 9.999157 
2.0249644e+3, 2.4587587e+2, -612677.9, -641209.2, -9431.855, 0.013010627, -0.4784875, -609841.8, -79472.88, 0.0, 9.999783, 9.999401 
2.0249493e+3, 2.5587514e+2, -549824.94, -565392.8, -11033.522, 0.03549857, -0.49294156, -544106.0, -111730.016, 0.0, 9.999564, 9.999354 
2.0249341e+3, 2.6587468e+2, -444438.97, -401967.1, -12490.795, 0.034725454, -0.49552065, -398565.97, -64186.008, 0.0, 9.999349, 9.9999075 
2.0249188e+3, 2.7587464e+2, -384486.94, -333397.97, -13561.588, 0.021457328, -0.49411264, -330021.22, -93640.94, 0.0, 9.999135, 9.999808 
2.0249043e+3, 2.8587437e+2, -311934.88, -237695.72, -876.7821, 0.064331025, -0.49744758, -237685.38, -99302.055, 0.0, 9.998918, 9.999897 
2.0248902e+3, 2.9587433e+2, -255156.36, -172116.8, -4151.38, 0.13452692, -0.4937559, -171909.77, -131524.53, 0.0, 9.998688, 9.999784 
2.0248736e+3, 3.0587482e+2, -237025.8, -128000.734, -25947.104, 0.0036561678, -0.4184618, -122140.52, -122140.52, 0.0, 9.998433, 9.999875 
2.0248592e+3, 3.15874e+2, -176242.61, 51046.39, 38797.496, 0.105002746, -0.48856324, 57486.516, 57486.516, 0.0, 9.998206, 10.001214 
2.0351526e+3, 1.2590283e+2, -1596756.0, -1724934.6, -16055.166, -0.074185066, -0.385395, -1594775.5, 111339.12, 0.068599164, 10.001171, 9.999369 
2.0351359e+3, 1.3590208e+2, -1520879.9, -1652328.5, -43188.457, -0.07951618, -0.39334404, -1507959.9, 100163.03, 0.04844632, 10.001051, 9.999254 
2.0351201e+3, 1.4590164e+2, -1409931.8, -1530625.5, -3688.91, -0.07331892, -0.3649785, -1409819.0, 100307.695, 0.028302716, 10.001051, 9.9994135 
2.035105e+3, 1.5590082e+2, -1306838.4, -1444966.9, -1148.1611, -0.044183962, -0.38854802, -1306828.9, 105304.3, 0.012450322, 10.001136, 9.999288 
2.0350894e+3, 1.6589971e+2, -1228346.9, -1375522.6, -16210.942, -0.035416503, -0.41160345, -1226582.4, 87559.97, 0.0034848975, 10.001075, 9.999121 
2.0350735e+3, 1.7589864e+2, -1162721.0, -1306962.3, -18250.4, -0.042307146, -0.43155062, -1160447.8, 55703.75, 0.0003893878, 10.00091, 9.998999 
2.0350577e+3, 1.8589741e+2, -1094249.5, -1240110.0, -16958.0, -0.043796193, -0.43834078, -1092304.0, 25858.47, 0.0000015848547, 10.00078, 9.998847 
2.035042e+3, 1.9589625e+2, -1017956.0, -1162796.4, -20747.273, -0.041080967, -0.43826553, -1015042.75, 5130.262, 0.0, 10.000674, 9.998756 
2.0350264e+3, 2.0589492e+2, -931357.6, -1053029.8, -27244.39, -0.030334035, -0.4497157, -925535.75, -3350.388, 0.0, 10.000522, 9.998911 
2.0350108e+3, 2.1589361e+2, -866051.56, -978982.4, -26921.695, -0.014003539, -0.47009355, -859962.06, -35765.035, 0.0, 10.000332, 9.998837 
2.0349951e+3, 2.2589244e+2, -771134.3, -846199.44, -22367.314, -0.0044904924, -0.48332986, -764974.9, -38767.48, 0.0, 10.0001545, 9.999162 
2.0349795e+3, 2.3589149e+2, -703243.0, -771417.1, -24358.244, 0.00050921144, -0.49310392, -695434.4, -67219.21, 0.0, 9.999985, 9.999084 
2.0349641e+3, 2.4589056e+2, -614299.06, -646233.44, -17376.645, 0.014384282, -0.503087, -606667.56, -76443.67, 0.0, 9.999787, 9.999366 
2.0349489e+3, 2.5588983e+2, -551605.5, -570705.2, -18970.738, 0.03327642, -0.5130517, -539916.5, -107685.22, 0.0, 9.999568, 9.999317 
2.0349334e+3, 2.6588953e+2, -447134.4, -409154.63, -20532.15, 0.03462153, -0.49867797, -400176.94, -65942.35, 0.0, 9.999353, 9.999857 
2.0349179e+3, 2.7588964e+2, -387172.47, -340496.06, -21643.27, 0.02702292, -0.4722184, -332004.97, -95771.375, 0.0, 9.999139, 9.999759 
2.0349032e+3, 2.8588936e+2, -310744.13, -236586.64, -9890.648, 0.062084537, -0.4801305, -235290.16, -97052.945, 0.0, 9.99892, 9.999904 
2.0348887e+3, 2.9588905e+2, -253130.1, -168987.45, -14003.579, 0.11594789, -0.49983904, -166718.08, -126477.336, 0.0, 9.998691, 9.999806 
2.0348725e+3, 3.058897e+2, -228033.69, -110439.82, -36022.39, 0.034640126, -0.41689438, -100282.484, -100282.484, 0.0, 9.998436, 9.999995 
2.0348574e+3, 3.1588906e+2, -214459.86, -30486.254, 40440.668, 0.10860535, -0.47760332, -21989.129, -21989.129, 0.0, 9.998213, 10.000652 
2.0451535e+3, 1.2591818e+2, -1672178.8, -1758246.8, -9032.948, -0.058855694, -0.37911662, -1671241.0, 34722.99, 0.07052423, 10.000593, 9.999417 
2.045137e+3, 1.3591734e+2, -1490615.1, -1633034.8, -27865.525, -0.09254336, -0.40100023, -1485357.1, 122615.8, 0.04987525, 10.001255, 9.999287 
2.045121e+3, 1.4591685e+2, -1377459.3, -1514113.0, -4269.9375, -0.08755742, -0.37745184, -1377326.0, 132650.94, 0.029206946, 10.001282, 9.999414 
2.0451061e+3, 1.559161e+2, -1347601.3, -1465370.9, -7966.7285, -0.038869273, -0.3952519, -1347064.8, 64917.945, 0.012900946, 10.000856, 9.999282 
2.0450905e+3, 1.6591501e+2, -1274778.0, -1401993.5, -18952.656, -0.027813703, -0.4127673, -1272014.4, 41977.492, 0.0036389919, 10.000774, 9.9990835 
2.0450744e+3, 1.7591396e+2, -1161622.5, -1309844.9, -20125.158, -0.045056377, -0.42751798, -1158938.6, 57062.684, 0.00041515523, 10.000934, 9.998966 
2.0450586e+3, 1.8591268e+2, -1080147.1, -1226684.6, -18547.926, -0.04561805, -0.43986344, -1077835.9, 40176.55, 0.0000019870433, 10.00085, 9.998905 
2.0450428e+3, 1.9591145e+2, -1026928.94, -1162051.0, -12396.446, -0.033770375, -0.4528448, -1025801.06, -5778.043, 0.0, 10.000593, 9.998799 
2.045027e+3, 2.0591015e+2, -949177.06, -1068069.9, -16314.811, -0.024934828, -0.460483, -946978.94, -24943.676, 0.0, 10.000429, 9.998851 
2.0450109e+3, 2.1590894e+2, -870520.4, -987393.6, -20984.223, -0.018421186, -0.4651129, -866866.94, -42820.234, 0.0, 10.000331, 9.998779 
2.0449953e+3, 2.259077e+2, -767676.0, -845934.6, -16953.37, -0.009168081, -0.48041576, -764161.2, -38103.555, 0.0, 10.000187, 9.999147 
2.0449795e+3, 2.359066e+2, -700991.4, -771922.75, -15289.465, 0.0024272818, -0.50486666, -697836.06, -69769.64, 0.0, 10.00001, 9.999067 
2.0449638e+3, 2.4590564e+2, -612438.94, -645244.0, -6976.658, 0.014080651, -0.5170106, -611016.9, -80941.55, 0.0, 9.999802, 9.999364 
2.0449483e+3, 2.5590497e+2, -552087.06, -572042.6, -6275.273, 0.02472951, -0.52018577, -550277.8, -118195.58, 0.0, 9.999572, 9.999305 
2.0449327e+3, 2.6590466e+2, -453960.28, -421227.5, -8186.4873, 0.030922158, -0.50154257, -419294.25, -85208.26, 0.0, 9.999347, 9.999776 
2.0449172e+3, 2.7590472e+2, -394578.1, -351923.94, -11668.707, 0.036995497, -0.4725918, -348940.47, -112854.375, 0.0, 9.999125, 9.999685 
2.0449021e+3, 2.859044e+2, -315381.0, -236005.72, -1255.249, 0.06351704, -0.47564787, -235985.88, -97896.51, 0.0, 9.998879, 9.999927 
2.0448871e+3, 2.9590425e+2, -262214.06, -169526.02, -4359.1025, 0.09444614, -0.48912296, -169321.45, -129229.836, 0.0, 9.998614, 9.999838 
2.0448712e+3, 3.059046e+2, -216356.44, -97557.83, -24636.975, 0.05996602, -0.44008973, -92651.164, -92651.164, 0.0, 9.998487, 10.000057 
2.0448558e+3, 3.1590426e+2, -205057.78, -67090.25, 51545.156, 0.11686591, -0.47317386, -49959.773, -49959.773, 0.0, 9.998457, 10.000282 
2.055154e+3, 1.2593362e+2, -1660722.5, -1735858.0, 12719.928, -0.07214689, -0.36238676, -1658627.6, 47185.066, 0.07251364, 10.000607, 9.999566 
2.0551385e+3, 1.3593273e+2, -1482943.6, -1616148.4, -8261.526, -0.07479935, -0.40566614, -1482433.1, 125388.1, 0.051355157, 10.001255, 9.999402 
2.0551226e+3, 1.4593215e+2, -1383827.1, -1527661.3, -20819.535, -0.07640267, -0.3892629, -1380874.1, 128951.75, 0.030146558, 10.00128, 9.999325 
2.0551068e+3, 1.5593138e+2, -1352655.0, -1477650.6, -22599.799, -0.058869537, -0.39974523, -1348694.4, 63137.992, 0.013372168, 10.000861, 9.999196 
2.0550911e+3, 1.659303e+2, -1275150.0, -1404663.8, -13301.684, -0.046852678, -0.41274568, -1273798.0, 40044.023, 0.0038025365, 10.00078, 9.9990635 
2.0550755e+3, 1.7592925e+2, -1161278.1, -1310321.8, -15741.995, -0.04122698, -0.42517215, -1159633.6, 56218.125, 0.0004435064, 10.000937, 9.998962 
2.0550595e+3, 1.85928e+2, -1066651.3, -1199705.0, -28405.35, -0.03463275, -0.44449827, -1060840.9, 57021.27, 0.0000024928308, 10.000852, 9.99909 
2.0550434e+3, 1.9592683e+2, -1015604.75, -1139739.1, -21609.432, -0.026331186, -0.47085187, -1011950.5, 7920.6, 0.0, 10.000596, 9.998953 
2.0550273e+3, 2.0592554e+2, -957331.25, -1086347.1, -19910.873, -0.020811953, -0.47498068, -954328.3, -32445.195, 0.0, 10.000433, 9.998725 
2.0550112e+3, 2.1592438e+2, -877752.5, -1003880.25, -24634.053, -0.017657429, -0.464264, -873111.94, -49216.695, 0.0, 10.000335, 9.998666 
2.0549953e+3, 2.259231e+2, -764546.0, -840923.6, -23333.78, -0.007995788, -0.47791773, -757981.6, -32075.023, 0.0, 10.000191, 9.999181 
2.0549795e+3, 2.3592196e+2, -697986.3, -767212.8, -21655.05, 0.0066032903, -0.51026016, -691770.44, -63854.97, 0.0, 10.000014, 9.999099 
2.0549636e+3, 2.4592105e+2, -609910.9, -641678.9, -15341.943, 0.011890234, -0.52016443, -603711.5, -73787.86, 0.0, 9.999807, 9.999388 
2.0549478e+3, 2.559205e+2, -550848.0, -571102.6, -14683.065, 0.009684808, -0.5140684, -543138.44, -111209.18, 0.0, 9.999577, 9.9993105 
2.0549321e+3, 2.6592e+2, -461570.2, -438667.75, -16544.682, 0.023507811, -0.50415, -429997.9, -96063.25, 0.0, 9.9993515, 9.999655 
2.0549165e+3, 2.7591977e+2, -401118.4, -367270.78, -20224.387, 0.051132195, -0.4961712, -357823.38, -121885.016, 0.0, 9.99913, 9.999578 
2.0549011e+3, 2.8591958e+2, -312457.38, -231360.05, -11744.819, 0.068432465, -0.48446643, -229693.36, -91752.875, 0.0, 9.998883, 9.999958 
2.0548855e+3, 2.959198e+2, -259480.05, -164692.58, -14145.196, 0.069942474, -0.46025002, -162626.7, -122688.266, 0.0, 9.998615, 9.999872 
2.0548698e+3, 3.059194e+2, -216066.95, -98636.734, -26163.29, 0.079475485, -0.49024203, -93071.35, -93071.35, 0.0, 9.998492, 10.000049 
2.0548545e+3, 3.1591973e+2, -214422.67, -89857.23, 43940.13, 0.13252112, -0.45331022, -75917.43, -75917.43, 0.0, 9.998468, 10.000121 
2.0651548e+3, 1.2594886e+2, -1584155.3, -1691122.4, 23099.438, -0.079635024, -0.37265465, -1579380.1, 126282.55, 0.07455795, 10.001151, 9.999617 
2.0651397e+3, 1.3594805e+2, -1539152.5, -1640199.6, -3785.534, -0.051086973, -0.41026112, -1539010.9, 68659.125, 0.052880682, 10.000832, 9.99944 
2.0651238e+3, 1.4594749e+2, -1447254.1, -1558249.1, -24083.225, -0.05709606, -0.39765802, -1442253.9, 67420.914, 0.031119075, 10.00083, 9.9993305 
2.0651074e+3, 1.5594664e+2, -1326695.1, -1464301.8, -19258.451, -0.06797046, -0.41412994, -1324050.6, 87631.414, 0.01386304, 10.001041, 9.9992 
2.0650917e+3, 1.6594562e+2, -1243410.5, -1385572.4, -3364.859, -0.058804754, -0.42318025, -1243330.9, 70360.49, 0.0039753728, 10.000985, 9.999095 
2.0650762e+3, 1.7594469e+2, -1187305.3, -1319246.1, -3007.9832, -0.03825067, -0.42509514, -1187236.8, 28463.201, 0.00047454174, 10.000745, 9.998993 
2.0650603e+3, 1.859435e+2, -1098542.3, -1209169.8, -24316.365, -0.028230423, -0.44515532, -1093433.4, 24276.496, 0.0000031175111, 10.000609, 9.999141 
2.0650439e+3, 1.9594228e+2, -1019610.7, -1136340.5, -27793.97, -0.024511764, -0.47992504, -1013330.7, 6388.4507, 0.0, 10.000547, 9.998998 
2.0650278e+3, 2.0594102e+2, -955346.44, -1082460.1, -22786.613, -0.020779653, -0.48413038, -951385.1, -29654.357, 0.0, 10.000436, 9.998749 
2.0650117e+3, 2.1593994e+2, -883236.1, -1004070.1, -16980.568, -0.017414464, -0.46767777, -880895.2, -57153.094, 0.0, 10.000289, 9.998686 
2.0649956e+3, 2.2593868e+2, -771341.6, -842427.75, -13766.213, -0.011226484, -0.482654, -768768.9, -43015.473, 0.0, 10.000139, 9.999194 
2.0649795e+3, 2.3593749e+2, -701447.1, -767462.3, -14270.767, -0.002565996, -0.5209301, -698494.25, -70731.48, 0.0, 9.999987, 9.999109 
2.0649634e+3, 2.4593663e+2, -608185.2, -639128.25, -10820.219, 0.003643676, -0.52596635, -604776.94, -75006.64, 0.0, 9.999814, 9.9994 
2.0649473e+3, 2.559362e+2, -543198.8, -566490.3, -11424.695, 0.0071196305, -0.5080275, -538530.56, -106755.875, 0.0, 9.999628, 9.999316 
2.0649314e+3, 2.6593563e+2, -465850.03, -444623.0, -12688.57, 0.025316613, -0.50544924, -438694.25, -104913.266, 0.0, 9.999341, 9.999618 
2.0649156e+3, 2.7593514e+2, -425911.38, -383420.78, -10057.0625, 0.05636042, -0.51709443, -381160.6, -145373.64, 0.0, 9.99898, 9.999539 
2.0649e+3, 2.8593504e+2, -339020.8, -247591.98, 109.56052, 0.06760675, -0.49402642, -247591.86, -109803.45, 0.0, 9.998718, 9.999925 
2.064884e+3, 2.959355e+2, -274251.78, -176058.47, -6613.906, 0.057304263, -0.4401787, -175614.98, -135831.08, 0.0, 9.998535, 9.999831 
2.0648684e+3, 3.0593452e+2, -235224.45, -119771.59, -20421.775, 0.0916823, -0.5220374, -116265.766, -116265.766, 0.0, 9.998415, 9.99994 
2.0648527e+3, 3.1593516e+2, -228033.28, -77310.22, 35304.71, 0.1308548, -0.44604805, -69450.47, -69450.47, 0.0, 9.998295, 10.00029 
2.075156e+3, 1.2596393e+2, -1587073.5, -1697645.8, 9719.383, -0.08274589, -0.4096476, -1586225.6, 119287.914, 0.076646104, 10.001153, 9.999568 
2.0751409e+3, 1.359634e+2, -1540993.0, -1646002.0, -14300.957, -0.022007164, -0.41454518, -1539080.3, 68438.31, 0.05444277, 10.000838, 9.999398 
2.0751248e+3, 1.4596285e+2, -1440368.9, -1545272.6, -16728.096, -0.030289985, -0.40272003, -1437766.0, 71757.34, 0.03211882, 10.000835, 9.999418 
2.0751086e+3, 1.559619e+2, -1320465.5, -1452223.9, -13540.44, -0.066895895, -0.43814427, -1319088.4, 92443.3, 0.014371255, 10.001044, 9.999283 
2.0750928e+3, 1.65961e+2, -1237919.0, -1375090.0, -12966.062, -0.06413563, -0.44374916, -1236704.1, 76835.66, 0.004157122, 10.000987, 9.999167 
2.0750768e+3, 1.7596033e+2, -1182874.9, -1311193.9, -11831.457, -0.036394123, -0.427216, -1181793.0, 33752.563, 0.0005083953, 10.000747, 9.999048 
2.0750608e+3, 1.8595915e+2, -1104109.3, -1222033.1, -26821.164, -0.026504647, -0.44188073, -1098295.6, 19260.172, 0.0000038992757, 10.000613, 9.999052 
2.0750444e+3, 1.9595781e+2, -1023607.4, -1146109.0, -30400.207, -0.028211722, -0.48006955, -1016478.1, 3088.934, 0.0, 10.000552, 9.99893 
2.0750281e+3, 2.059566e+2, -943130.9, -1058532.0, -28152.24, -0.024771737, -0.48796007, -936629.4, -15051.159, 0.0, 10.00044, 9.998913 
2.075012e+3, 2.1595562e+2, -872462.7, -982997.0, -22182.834, -0.01799383, -0.4755875, -868177.0, -44589.65, 0.0, 10.000292, 9.99883 
2.0749956e+3, 2.2595435e+2, -771858.06, -844908.3, -19195.432, -0.019113747, -0.49474207, -767121.25, -41522.94, 0.0, 10.000143, 9.999177 
2.0749792e+3, 2.3595312e+2, -701951.6, -770090.06, -19744.598, -0.025274089, -0.5367958, -696643.7, -69035.12, 0.0, 9.999991, 9.99909 
2.0749632e+3, 2.4595234e+2, -607753.2, -639880.7, -17591.201, -0.010695601, -0.534321, -599994.8, -70379.0, 0.0, 9.999819, 9.999394 
2.074947e+3, 2.5595203e+2, -542469.75, -566655.6, -18784.635, 0.017074836, -0.5019525, -532222.1, -100603.1, 0.0, 9.999633, 9.999313 
2.074931e+3, 2.6595145e+2, -462229.06, -438704.9, -26428.92, 0.03633267, -0.50542665, -421538.9, -87913.38, 0.0, 9.999346, 9.999658 
2.0749146e+3, 2.7595082e+2, -423750.84, -380175.9, -23432.6, 0.052333478, -0.5353439, -369966.8, -134334.34, 0.0, 9.998983, 9.999561 
2.0748985e+3, 2.8595072e+2, -346173.22, -263537.63, -7295.839, 0.060876485, -0.50442195, -262898.4, -125264.64, 0.0, 9.99872, 9.999815 
2.0748824e+3, 2.959513e+2, -282639.38, -194791.94, -13296.846, 0.05672308, -0.4292051, -192823.39, -153194.56, 0.0, 9.998538, 9.999702 
2.0748667e+3, 3.0594987e+2, -250444.88, -152843.69, -25222.18, 0.09544994, -0.5343309, -146711.08, -146711.08, 0.0, 9.998419, 9.999712 
2.0748508e+3, 3.1595045e+2, -190271.83, 5.122237, 17984.75, 0.11523862, -0.44758213, 1690.0981, 1690.0981, 0.0, 9.998298, 10.000821 
2.0851572e+3, 1.259794e+2, -1585137.0, -1697125.6, 16640.508, -0.06453108, -0.4274234, -1582716.8, 122644.11, 0.07876326, 10.001174, 9.999561 
2.0851418e+3, 1.3597889e+2, -1516941.5, -1635072.1, -2406.486, -0.012552215, -0.4266479, -1516892.5, 90472.82, 0.056028813, 10.001021, 9.999384 
2.0851257e+3, 1.4597836e+2, -1429860.5, -1542358.1, 1636.7207, -0.023623105, -0.4116769, -1429836.6, 79533.664, 0.033137266, 10.000922, 9.999394 
2.0851097e+3, 1.5597744e+2, -1348154.0, -1467276.3, -4336.593, -0.0587859, -0.44206655, -1347996.4, 63382.535, 0.014892742, 10.00086, 9.999267 
2.0850936e+3, 1.6597655e+2, -1263051.1, -1378818.6, -15306.765, -0.05765361, -0.44935727, -1261061.5, 52325.316, 0.0043465937, 10.000779, 9.99924 
2.0850776e+3, 1.7597589e+2, -1187569.8, -1306379.0, -14256.934, -0.03363743, -0.439098, -1185882.9, 29509.287, 0.0005450198, 10.000687, 9.999109 
2.0850615e+3, 1.8597476e+2, -1106177.9, -1225771.5, -23347.549, -0.027595963, -0.45078394, -1101781.5, 15620.567, 0.000004891204, 10.000612, 9.999025 
2.085045e+3, 1.959735e+2, -1024469.6, -1147726.9, -23097.623, -0.033142414, -0.47947842, -1020283.44, -870.0417, 0.0, 10.000553, 9.998918 
2.0850286e+3, 2.0597228e+2, -927703.3, -1034669.5, -22202.91, -0.03265739, -0.49075928, -923277.75, -1853.824, 0.0, 10.000477, 9.999057 
2.0850122e+3, 2.1597135e+2, -849544.0, -957415.06, -18449.49, -0.028150324, -0.49077824, -846475.75, -23043.828, 0.0, 10.000389, 9.998958 
2.0849957e+3, 2.2597015e+2, -764860.06, -842591.75, -19102.014, -0.027379671, -0.5097803, -760419.56, -34977.313, 0.0, 10.000197, 9.999165 
2.084979e+3, 2.3596898e+2, -711195.75, -775692.8, -19765.193, -0.028790185, -0.54295033, -705620.56, -78168.34, 0.0, 9.999935, 9.999078 
2.0849626e+3, 2.4596816e+2, -628460.5, -648176.5, -17376.824, -0.010313521, -0.54159683, -618340.2, -88880.47, 0.0, 9.999672, 9.999407 
2.0849465e+3, 2.5596783e+2, -574723.2, -581044.1, -17519.846, 0.02097757, -0.5172041, -560081.0, -128617.54, 0.0, 9.999409, 9.999322 
2.0849302e+3, 2.6596725e+2, -482459.47, -449269.5, -28077.313, 0.037003364, -0.5162337, -433249.63, -99780.1, 0.0, 9.999212, 9.999648 
2.0849136e+3, 2.7596673e+2, -413130.47, -376095.1, -28811.068, 0.04499497, -0.5330966, -360363.94, -124888.69, 0.0, 9.999063, 9.999549 
2.0848972e+3, 2.8596655e+2, -328188.38, -255947.72, -8542.09, 0.052004784, -0.51218945, -254951.39, -117473.73, 0.0, 9.998851, 9.999804 
2.0848809e+3, 2.9596683e+2, -278020.97, -196774.58, -6973.0557, 0.051199198, -0.46360266, -196180.45, -156704.92, 0.0, 9.99859, 9.999662 
2.084865e+3, 3.059657e+2, -275370.16, -178791.38, -11276.973, 0.09270778, -0.53090334, -177492.11, -177492.11, 0.0, 9.99831, 9.999585 
2.0848489e+3, 3.1596604e+2, -207805.48, 32446.568, 28210.354, 0.102855675, -0.45811355, 35714.57, 35714.57, 0.0, 9.998003, 10.001184 
2.095159e+3, 1.2599526e+2, -1583176.9, -1694091.1, 9047.222, -0.027144512, -0.42786333, -1582443.8, 122760.484, 0.080892436, 10.00118, 9.999582 
2.0951428e+3, 1.359946e+2, -1516044.3, -1634909.3, -8639.2, -0.022180313, -0.44631872, -1515419.6, 91790.305, 0.05762656, 10.001029, 9.999382 
2.0951265e+3, 1.4599405e+2, -1438065.8, -1561913.0, -1490.2993, -0.03634213, -0.42438635, -1438047.9, 71167.51, 0.03416663, 10.000929, 9.999258 
2.0951106e+3, 1.5599328e+2, -1355401.0, -1484228.0, -7404.7954, -0.044038586, -0.42664564, -1354976.8, 56246.707, 0.015423303, 10.000865, 9.999149 
2.0950945e+3, 1.659923e+2, -1257597.4, -1368987.6, -19229.555, -0.039995417, -0.4405987, -1254371.3, 58861.07, 0.004541982, 10.000784, 9.999307 
2.0950784e+3, 1.7599142e+2, -1182689.9, -1297733.4, -17984.145, -0.030225538, -0.46054786, -1179944.1, 35295.22, 0.00058404374, 10.00069, 9.999168 
2.095062e+3, 1.8599032e+2, -1103769.1, -1222107.3, -25716.08, -0.031546284, -0.4715167, -1098422.4, 18826.508, 0.0000061235637, 10.000616, 9.99905 
2.0950454e+3, 1.9598931e+2, -1021712.6, -1143102.8, -25396.5, -0.039555844, -0.47832176, -1016613.56, 2644.7249, 0.0, 10.000556, 9.998949 
2.0950288e+3, 2.0598814e+2, -918835.9, -1017495.75, -25310.934, -0.044607826, -0.4926519, -912721.4, 8546.655, 0.0, 10.000481, 9.999175 
2.0950122e+3, 2.1598712e+2, -841555.75, -942375.06, -22026.287, -0.047894496, -0.5129176, -836953.7, -13677.655, 0.0, 10.000394, 9.99906 
2.0949957e+3, 2.25986e+2, -765176.6, -844712.6, -28730.94, -0.03593546, -0.52754605, -755883.8, -30598.316, 0.0, 10.000202, 9.999149 
2.0949793e+3, 2.3598503e+2, -711421.7, -777566.56, -29291.484, -0.013191695, -0.53947777, -700315.2, -73021.06, 0.0, 9.999939, 9.999064 
2.0949626e+3, 2.4598414e+2, -626174.06, -644914.1, -27151.697, 0.0047036815, -0.5480472, -606821.06, -77518.54, 0.0, 9.999676, 9.999429 
2.094946e+3, 2.559835e+2, -573283.2, -579381.4, -26994.148, 0.018500242, -0.5543761, -549166.5, -117857.77, 0.0, 9.999413, 9.999332 
2.0949292e+3, 2.6598305e+2, -486581.4, -459237.25, -33850.336, 0.026989106, -0.5379783, -436402.2, -103088.56, 0.0, 9.999216, 9.999578 
2.0949124e+3, 2.7598292e+2, -415995.44, -383838.63, -35042.344, 0.033908416, -0.50912493, -361362.13, -126046.195, 0.0, 9.999068, 9.999495 
2.0948957e+3, 2.8598246e+2, -321466.56, -243895.61, -19020.4, 0.040706728, -0.5174691, -239482.84, -102161.99, 0.0, 9.998857, 9.999885 
2.0948794e+3, 2.9598206e+2, -273686.63, -189502.45, -17737.36, 0.040627558, -0.5462899, -185917.88, -146592.86, 0.0, 9.998595, 9.999711 
2.0948634e+3, 3.0598193e+2, -277180.94, -183759.39, -23236.29, 0.08282194, -0.5097074, -178299.1, -178299.1, 0.0, 9.998313, 9.999551 
2.094847e+3, 3.1598186e+2, -196494.19, 55719.3, 7717.7104, 0.09556065, -0.47530806, 55955.24, 55955.24, 0.0, 9.998002, 10.001346 
2.1051604e+3, 1.2601104e+2, -1556890.0, -1680021.0, 7582.0225, -0.007952236, -0.4396288, -1556424.9, 148623.84, 0.08301783, 10.001374, 9.999593 
2.1051438e+3, 1.3601038e+2, -1482044.3, -1617340.5, -10122.992, -0.029724333, -0.4584413, -1481291.0, 125763.305, 0.05922472, 10.00128, 9.999381 
2.1051274e+3, 1.4600985e+2, -1411891.1, -1554102.5, 106.16267, -0.046400968, -0.43254137, -1411891.0, 97168.76, 0.0351993, 10.001142, 9.999208 
2.1051116e+3, 1.5600912e+2, -1342980.8, -1482861.1, -262.72498, -0.039812267, -0.42410105, -1342980.3, 68087.58, 0.015958209, 10.000975, 9.9991045 
2.1050954e+3, 1.6600811e+2, -1250332.4, -1363084.9, -11942.525, -0.03449839, -0.4390485, -1249081.4, 63995.66, 0.0047409055, 10.000826, 9.999326 
2.1050791e+3, 1.7600715e+2, -1181004.8, -1294085.9, -14595.3125, -0.0325805, -0.46821, -1179151.3, 35933.39, 0.00062479224, 10.000692, 9.999191 
2.1050625e+3, 1.8600613e+2, -1105932.5, -1213829.9, -20883.88, -0.035413846, -0.47847772, -1102031.5, 15062.091, 0.0000075799267, 10.000564, 9.999131 
2.1050459e+3, 1.9600527e+2, -1033448.3, -1139746.5, -16878.023, -0.040503137, -0.4777104, -1030832.8, -11731.365, 0.0, 10.000439, 9.999027 
2.1050292e+3, 2.0600417e+2, -936677.94, -1017627.06, -17630.682, -0.045470573, -0.49512023, -933004.6, -11894.155, 0.0, 10.000323, 9.9992485 
2.1050124e+3, 2.1600309e+2, -862871.1, -944840.56, -18881.566, -0.050573323, -0.5256702, -858730.9, -35612.457, 0.0, 10.000216, 9.999127 
2.1049958e+3, 2.2600202e+2, -786535.0, -849865.5, -29676.066, -0.037104193, -0.5413098, -774802.56, -49675.113, 0.0, 10.000035, 9.999193 
2.104979e+3, 2.3600115e+2, -728362.94, -780869.94, -25936.584, -0.010459561, -0.54785377, -717711.75, -90576.45, 0.0, 9.9998045, 9.999105 
2.1049622e+3, 2.4600028e+2, -629024.7, -641114.44, -19403.484, 0.00544761, -0.55784893, -614746.3, -85603.01, 0.0, 9.999637, 9.999473 
2.1049453e+3, 2.5599962e+2, -556756.0, -567478.94, -18098.832, 0.013165993, -0.5702725, -543241.2, -112091.89, 0.0, 9.999511, 9.999366 
2.1049285e+3, 2.6599914e+2, -481466.16, -460196.22, -24002.324, 0.019478641, -0.5545427, -444578.3, -111424.16, 0.0, 9.999269, 9.999546 
2.1049114e+3, 2.75999e+2, -435790.8, -396924.75, -22378.107, 0.027116157, -0.52337986, -386719.6, -151563.1, 0.0, 9.99895, 9.999461 
2.1048945e+3, 2.8599843e+2, -348307.88, -259693.94, -11095.153, 0.034119785, -0.5403628, -258325.86, -121163.14, 0.0, 9.998687, 9.999857 
2.104878e+3, 2.9599786e+2, -296007.13, -202004.83, -18255.146, 0.033804603, -0.5820162, -198584.17, -159415.44, 0.0, 9.998451, 9.999694 
2.1048616e+3, 3.0599847e+2, -276381.9, -163654.56, -16630.975, 0.08150273, -0.4829297, -161252.16, -161252.16, 0.0, 9.998236, 9.999725 
2.1048449e+3, 3.1599793e+2, -205521.03, 30876.54, 19005.521, 0.09731549, -0.51537806, 32394.764, 32394.764, 0.0, 9.998031, 10.001161 
2.1151616e+3, 1.2602676e+2, -1557069.3, -1681035.1, 2342.079, -0.0066715786, -0.46253586, -1557025.0, 147868.92, 0.08512452, 10.001378, 9.999585 
2.115145e+3, 1.3602628e+2, -1482144.8, -1618671.9, -14604.069, -0.0355554, -0.46335486, -1480600.1, 126297.81, 0.060809094, 10.001284, 9.999372 
2.1151285e+3, 1.4602576e+2, -1409647.4, -1550563.3, -6710.083, -0.05422671, -0.43632, -1409328.6, 99574.68, 0.03622391, 10.001145, 9.999232 
2.1151125e+3, 1.56025e+2, -1341369.0, -1480648.1, -6995.2285, -0.045952637, -0.43384847, -1341018.5, 69893.125, 0.016490392, 10.0009775, 9.99912 
2.1150962e+3, 1.6602403e+2, -1252172.1, -1368205.4, -17335.186, -0.040883176, -0.44430703, -1249637.6, 63283.082, 0.0049402528, 10.00083, 9.99929 
2.1150796e+3, 1.7602313e+2, -1181811.5, -1297120.8, -19836.21, -0.04065259, -0.46243516, -1178494.5, 36433.543, 0.00066643907, 10.000696, 9.99917 
2.1150629e+3, 1.8602219e+2, -1096094.8, -1194823.8, -25665.566, -0.03929098, -0.4720259, -1089821.4, 27114.836, 0.000009223164, 10.000567, 9.999261 
2.1150464e+3, 1.9602138e+2, -1024576.7, -1122851.9, -21424.992, -0.036193617, -0.47755095, -1020108.94, -1166.0991, 0.0, 10.0004425, 9.999143 
2.1150298e+3, 2.0602031e+2, -934610.1, -1014754.9, -21451.7, -0.03541313, -0.49807873, -929229.56, -8278.076, 0.0, 10.000327, 9.999268 
2.115013e+3, 2.1601926e+2, -860567.94, -941288.6, -23003.938, -0.03651011, -0.52939063, -854472.5, -31513.146, 0.0, 10.000219, 9.999151 
2.1149959e+3, 2.2601819e+2, -779227.2, -836062.06, -38113.08, -0.031161115, -0.55130875, -760103.5, -35135.125, 0.0, 10.000039, 9.999288 
2.1149787e+3, 2.360173e+2, -721332.8, -767864.7, -33877.03, -0.020869462, -0.5679739, -703501.8, -76525.69, 0.0, 9.999808, 9.999194 
2.1149617e+3, 2.4601658e+2, -624120.25, -632605.75, -23883.598, -0.008250981, -0.57080644, -604105.5, -75123.06, 0.0, 9.999641, 9.99953 
2.1149448e+3, 2.5601614e+2, -552436.1, -560311.9, -23459.576, 0.0046739164, -0.5643356, -532586.25, -101600.516, 0.0, 9.9995165, 9.9994135 
2.1149275e+3, 2.6601553e+2, -480841.94, -460593.66, -36308.332, 0.014342059, -0.5660235, -433024.38, -100032.766, 0.0, 9.999273, 9.999542 
2.1149102e+3, 2.7601495e+2, -436560.25, -399779.13, -34229.555, 0.024644138, -0.5775217, -379312.56, -144314.89, 0.0, 9.998953, 9.999441 
2.1148933e+3, 2.8601444e+2, -358292.47, -281552.94, -20507.139, 0.032357007, -0.5814527, -276416.6, -139412.56, 0.0, 9.99869, 9.999706 
2.1148762e+3, 2.9601425e+2, -301892.13, -215494.67, -28105.004, 0.030605229, -0.5680664, -207156.8, -168149.55, 0.0, 9.998455, 9.9996 
2.1148598e+3, 3.0601522e+2, -248583.7, -107307.05, -24813.295, 0.088996425, -0.4502417, -103075.67, -103075.67, 0.0, 9.9982395, 10.000112 
2.114843e+3, 3.1601426e+2, -245799.02, -54087.426, 3622.198, 0.108988516, -0.5570317, -54019.01, -54019.01, 0.0, 9.9980345, 10.000576 
2.1251631e+3, 1.2604287e+2, -1546925.6, -1683044.8, 14066.378, -0.012747163, -0.46803087, -1545487.3, 159248.39, 0.087195285, 10.0014925, 9.999514 
2.1251462e+3, 1.3604233e+2, -1477523.6, -1622349.9, -6609.8228, -0.03307642, -0.46695477, -1477222.6, 129517.87, 0.062361255, 10.0013485, 9.999313 
2.1251297e+3, 1.4604183e+2, -1403219.8, -1537556.9, -555.4758, -0.04842949, -0.44030485, -1403217.4, 105528.17, 0.03722527, 10.001152, 9.999316 
2.1251135e+3, 1.5604118e+2, -1344343.3, -1474268.1, 3370.0562, -0.040744416, -0.43673366, -1344255.9, 66496.81, 0.017010711, 10.000926, 9.999187 
2.1250969e+3, 1.660402e+2, -1262109.1, -1378642.0, -3128.3582, -0.03804161, -0.4481409, -1262025.3, 50736.66, 0.0051362677, 10.000788, 9.999238 
2.1250804e+3, 1.7603922e+2, -1182559.3, -1301349.8, -7587.095, -0.04121566, -0.46846646, -1182076.6, 32693.863, 0.0007080475, 10.00071, 9.999133 
2.1250637e+3, 1.8603833e+2, -1085361.1, -1176232.4, -16002.139, -0.040022444, -0.47609615, -1082625.6, 34152.28, 0.000011018927, 10.000586, 9.999379 
2.1250468e+3, 1.960377e+2, -1018744.8, -1107650.3, -13264.619, -0.034909487, -0.47705027, -1016807.94, 1974.5369, 0.0, 10.000432, 9.999251 
2.12503e+3, 2.0603664e+2, -942708.8, -1012819.6, -13177.495, -0.031679302, -0.50223416, -940313.9, -19523.295, 0.0, 10.000249, 9.999317 
2.1250132e+3, 2.1603554e+2, -882374.06, -946037.1, -12838.2, -0.029993778, -0.5440487, -879882.6, -57083.62, 0.0, 10.000047, 9.999201 
2.1249959e+3, 2.2603454e+2, -787828.3, -831855.0, -27418.09, -0.028719017, -0.56561077, -774680.06, -49872.727, 0.0, 9.999947, 9.99936 
2.1249785e+3, 2.3603378e+2, -701602.44, -750746.94, -25739.16, -0.027017312, -0.57497066, -690589.56, -63775.914, 0.0, 9.999913, 9.99926 
2.1249612e+3, 2.460331e+2, -612176.2, -621992.2, -20471.777, -0.016190289, -0.57869595, -596032.3, -67212.9, 0.0, 9.999704, 9.999571 
2.124944e+3, 2.5603265e+2, -570052.06, -564517.2, -21399.031, -0.00041067984, -0.5783259, -545707.4, -114884.71, 0.0, 9.999379, 9.99945 
2.1249267e+3, 2.6603204e+2, -493192.1, -463987.8, -33444.496, 0.011569907, -0.58405095, -442096.72, -109268.22, 0.0, 9.99918, 9.999563 
2.1249092e+3, 2.7603143e+2, -420897.1, -391756.72, -29949.121, 0.023913871, -0.59880924, -373021.63, -138187.17, 0.0, 9.999061, 9.999443 
2.1248919e+3, 2.8603095e+2, -354936.56, -293680.06, -17727.5, 0.0313623, -0.5931518, -288919.7, -152078.98, 0.0, 9.998774, 9.999582 
2.1248744e+3, 2.9603085e+2, -317725.78, -231122.86, -22382.125, 0.02787037, -0.5601138, -225680.33, -186836.67, 0.0, 9.998383, 9.999527 
2.1248579e+3, 3.0603144e+2, -223065.9, -63615.047, -14591.289, 0.08368613, -0.49351186, -62290.8, -62290.8, 0.0, 9.9982815, 10.00039 
2.1248414e+3, 3.1603092e+2, -224869.86, -80027.31, -2466.1123, 0.10795187, -0.57660836, -79985.336, -79985.336, 0.0, 9.998335, 10.000252 
2.1351643e+3, 1.2605938e+2, -1554892.1, -1701168.3, 7322.9663, -0.026570825, -0.45786932, -1554526.4, 150047.31, 0.089213125, 10.001501, 9.999374 
2.1351478e+3, 1.3605858e+2, -1484309.0, -1638610.0, -12824.631, -0.022753049, -0.4691172, -1483250.4, 123331.2, 0.06386603, 10.001353, 9.999201 
2.135131e+3, 1.460581e+2, -1393503.8, -1517995.4, -9363.028, -0.029810274, -0.44434965, -1392803.5, 115782.75, 0.03819201, 10.001157, 9.99945 
2.1351145e+3, 1.5605763e+2, -1335991.5, -1458332.1, -5105.241, -0.024902834, -0.4330514, -1335778.9, 74811.76, 0.017512362, 10.000932, 9.999295 
2.1350978e+3, 1.6605659e+2, -1266647.8, -1389814.5, -6402.04, -0.02645341, -0.45061636, -1266315.9, 46284.523, 0.0053258575, 10.0007925, 9.99916 
2.135081e+3, 1.760554e+2, -1186203.3, -1310344.9, -11020.586, -0.03472646, -0.48595238, -1185232.5, 29379.266, 0.00074871694, 10.000713, 9.99907 
2.1350642e+3, 1.8605457e+2, -1077859.3, -1162066.0, -21822.639, -0.03788723, -0.49036863, -1072539.9, 44078.67, 0.0000129273485, 10.000589, 9.9994755 
2.1350473e+3, 1.9605418e+2, -1011512.4, -1094059.5, -19109.979, -0.0367676, -0.4762944, -1007303.0, 11317.37, 0.0, 10.000436, 9.999344 
2.1350303e+3, 2.0605315e+2, -936862.9, -1002164.06, -20601.58, -0.0342687, -0.5075904, -930906.6, -10278.658, 0.0, 10.000254, 9.99939 
2.1350132e+3, 2.160519e+2, -876907.5, -936312.7, -19387.057, -0.031117948, -0.569309, -871140.3, -48502.9, 0.0, 10.0000515, 9.999267 
2.1349959e+3, 2.2605103e+2, -784215.1, -825973.44, -28300.205, -0.029813068, -0.5840062, -769925.56, -45280.99, 0.0, 9.999951, 9.999399 
2.1349783e+3, 2.3605056e+2, -698348.94, -745527.8, -27799.285, -0.029147822, -0.56887, -685479.3, -58831.113, 0.0, 9.999918, 9.999294 
2.1349609e+3, 2.460498e+2, -610151.9, -619341.6, -32695.588, -0.01850988, -0.58169293, -581729.9, -53075.21, 0.0, 9.999709, 9.999588 
2.1349436e+3, 2.5604907e+2, -568126.9, -561911.7, -32847.836, -0.0021207118, -0.6126385, -532024.75, -101363.97, 0.0, 9.999383, 9.999467 
2.134926e+3, 2.6604858e+2, -489727.56, -458306.56, -38034.027, 0.011210232, -0.60857815, -432866.03, -100200.65, 0.0, 9.999184, 9.999601 
2.1349081e+3, 2.760484e+2, -418509.97, -388844.7, -35878.42, 0.024647485, -0.5860196, -364853.78, -130186.414, 0.0, 9.999067, 9.999461 
2.1348906e+3, 2.8604788e+2, -361525.13, -309215.25, -33429.387, 0.030879065, -0.57439667, -292924.88, -156251.5, 0.0, 9.998779, 9.999474 
2.134873e+3, 2.960475e+2, -321606.75, -240324.72, -35815.23, 0.025495252, -0.5584916, -226795.42, -188116.69, 0.0, 9.998385, 9.999463 
2.1348561e+3, 3.060469e+2, -211032.83, -40293.42, -12605.411, 0.064584844, -0.61802953, -39367.805, -39367.805, 0.0, 9.998286, 10.000549 
2.1348393e+3, 3.1604806e+2, -225860.33, -84912.47, -11227.678, 0.09617016, -0.54761916, -84023.695, -84023.695, 0.0, 9.998345, 10.000215 
2.145166e+3, 1.2607625e+2, -1500999.0, -1679800.3, 20492.223, -0.035344325, -0.44552898, -1498680.5, 205728.28, 0.09116392, 10.001935, 9.999325 
2.1451491e+3, 1.3607529e+2, -1472473.3, -1637386.8, 7821.023, -0.01354516, -0.46807122, -1472103.1, 134314.84, 0.06531552, 10.001465, 9.999154 
2.1451323e+3, 1.460747e+2, -1387499.1, -1515018.0, 12568.302, -0.019346654, -0.44992414, -1386272.1, 122151.27, 0.039119765, 10.001204, 9.999447 
2.1451154e+3, 1.5607424e+2, -1314207.8, -1447840.4, 7086.8726, -0.024521256, -0.439483, -1313833.0, 96594.55, 0.017992288, 10.001088, 9.99929 
2.1450986e+3, 1.6607323e+2, -1250407.6, -1381054.6, 5775.522, -0.02498462, -0.4541422, -1250152.8, 62284.39, 0.005506994, 10.000904, 9.999165 
2.1450818e+3, 1.7607208e+2, -1191039.0, -1311479.0, 6872.858, -0.024986316, -0.48423386, -1190648.0, 23800.135, 0.00078764785, 10.000678, 9.999079 
2.1450649e+3, 1.8607125e+2, -1077754.9, -1155631.1, -1692.37, -0.028971182, -0.49219552, -1077718.1, 38736.656, 0.000014882025, 10.000566, 9.99953 
2.1450478e+3, 1.9607082e+2, -994626.75, -1079854.4, -3072.7783, -0.034522735, -0.48729008, -994516.1, 23940.553, 0.0, 10.000528, 9.999395 
2.1450305e+3, 2.0606984e+2, -913344.44, -985313.2, -11052.36, -0.035075016, -0.5185558, -911685.3, 8778.339, 0.0, 10.000393, 9.999436 
2.1450132e+3, 2.1606871e+2, -853093.8, -919399.94, -12098.692, -0.032512184, -0.5741495, -850955.2, -28483.06, 0.0, 10.000194, 9.999312 
2.1449958e+3, 2.2606786e+2, -776755.9, -814957.06, -18516.88, -0.03048619, -0.59033763, -769253.7, -44774.945, 0.0, 9.999972, 9.999463 
2.1449783e+3, 2.360674e+2, -721039.5, -749836.7, -16903.504, -0.028235123, -0.58163226, -713233.4, -86751.2, 0.0, 9.999736, 9.9993515 
2.1449608e+3, 2.4606669e+2, -636085.44, -630267.44, -25705.465, -0.015509507, -0.5926518, -607306.9, -78818.66, 0.0, 9.999526, 9.9996 
2.1449429e+3, 2.5606605e+2, -574720.8, -563514.6, -26068.996, 0.003470762, -0.6167958, -542453.4, -111959.445, 0.0, 9.999332, 9.999479 
2.144925e+3, 2.660655e+2, -487585.84, -451729.38, -26409.371, 0.014084489, -0.6175986, -437737.75, -105239.13, 0.0, 9.999177, 9.999649 
2.1449073e+3, 2.760653e+2, -419152.56, -384631.16, -24514.813, 0.021324968, -0.6065002, -371910.06, -137409.11, 0.0, 9.999045, 9.9995 
2.1448894e+3, 2.860649e+2, -358074.94, -308869.34, -24883.871, 0.033665977, -0.5829668, -298479.22, -161973.64, 0.0, 9.998811, 9.99946 
2.1448717e+3, 2.9606476e+2, -305032.66, -235799.69, -18659.256, 0.042135302, -0.5435551, -231091.0, -192582.28, 0.0, 9.998516, 9.999431 
2.1448542e+3, 3.0606323e+2, -223490.67, -70614.38, -1593.5955, 0.05158621, -0.67807025, -70597.77, -70597.77, 0.0, 9.998307, 10.000329 
2.1448377e+3, 3.160648e+2, -240751.61, -63275.88, -31499.203, 0.09081013, -0.54452133, -57851.074, -57851.074, 0.0, 9.998121, 10.000469 
2.1551679e+3, 1.260935e+2, -1498805.5, -1676095.4, 2662.1416, -0.03990844, -0.43163922, -1498765.5, 205474.88, 0.09303584, 10.001941, 9.9993515 
2.1551509e+3, 1.3609245e+2, -1471579.0, -1636554.9, -8534.398, -0.005810339, -0.46406212, -1471138.6, 135110.98, 0.06670477, 10.00147, 9.999159 
2.1551335e+3, 1.4609167e+2, -1396378.3, -1535708.3, 7803.92, -0.016911997, -0.45703396, -1395942.5, 112314.17, 0.040006436, 10.001209, 9.999303 
2.1551165e+3, 1.5609099e+2, -1321712.6, -1465379.8, 1845.7366, -0.03901394, -0.4555018, -1321689.0, 88574.32, 0.01844864, 10.001093, 9.999168 
2.1550997e+3, 1.6609009e+2, -1244167.5, -1369747.0, -3069.6282, -0.03331754, -0.45849496, -1244092.5, 68179.34, 0.005678194, 10.000909, 9.999241 
2.1550828e+3, 1.7608926e+2, -1185399.0, -1301481.5, -1152.9327, -0.012209886, -0.46381915, -1185387.5, 28892.11, 0.0008241895, 10.000683, 9.9991455 
2.1550657e+3, 1.8608837e+2, -1076541.0, -1154856.8, -3141.575, -0.013519509, -0.48195842, -1076415.3, 39871.496, 0.000016789034, 10.00057, 9.999534 
2.1550484e+3, 1.960876e+2, -993615.3, -1079342.3, -5079.4414, -0.028463712, -0.5098816, -993315.44, 24976.055, 0.0, 10.000533, 9.999398 
2.155031e+3, 2.0608668e+2, -911820.8, -983611.9, -18341.813, -0.03430355, -0.534914, -907406.1, 12891.6875, 0.0, 10.000398, 9.999448 
2.1550134e+3, 2.160859e+2, -851213.5, -916821.0, -19413.207, -0.034385476, -0.5586722, -845899.56, -23596.234, 0.0, 10.000197, 9.99933 
2.1549957e+3, 2.2608499e+2, -770264.7, -802897.56, -27136.764, -0.030824903, -0.5848174, -754916.75, -30606.605, 0.0, 9.999976, 9.999545 
2.154978e+3, 2.3608424e+2, -715233.44, -739318.2, -25348.994, -0.02432002, -0.6133889, -699211.75, -72895.805, 0.0, 9.999741, 9.999423 
2.1549602e+3, 2.4608369e+2, -635520.75, -630622.6, -32848.414, -0.0071551367, -0.6113963, -600132.06, -71811.484, 0.0, 9.999531, 9.999598 
2.1549425e+3, 2.560835e+2, -573965.7, -563534.06, -33083.21, 0.016069889, -0.5900573, -535258.0, -104935.54, 0.0, 9.999337, 9.999478 
2.1549243e+3, 2.660828e+2, -483160.97, -444242.3, -31601.992, 0.01992057, -0.6110063, -426588.97, -94260.23, 0.0, 9.999182, 9.999699 
2.1549062e+3, 2.7608198e+2, -414782.03, -377076.25, -30718.963, 0.013733404, -0.6615593, -359886.3, -125550.33, 0.0, 9.999049, 9.999551 
2.1548884e+3, 2.8608185e+2, -351707.03, -297117.44, -36673.26, 0.039987992, -0.6196834, -278696.44, -142358.44, 0.0, 9.998815, 9.99954 
2.1548703e+3, 2.9608244e+2, -304588.72, -236909.16, -29109.148, 0.07843961, -0.5144994, -226111.81, -187777.63, 0.0, 9.998523, 9.999421 
2.1548526e+3, 3.0608037e+2, -266927.34, -162782.44, -9488.102, 0.044565666, -0.6703389, -161925.1, -161925.1, 0.0, 9.998313, 9.999695 
2.1548358e+3, 3.1608102e+2, -199711.39, 21121.238, -40937.21, 0.09394085, -0.5737762, 28465.773, 28465.773, 0.0, 9.998122, 10.00105 
2.1651699e+3, 1.2611105e+2, -1479077.1, -1672199.1, 13712.341, -0.034288116, -0.42516997, -1478108.3, 225960.55, 0.09481582, 10.002123, 9.999292 
2.1651523e+3, 1.3610996e+2, -1446226.4, -1630200.3, -1380.5969, -0.0044283043, -0.4547938, -1446216.0, 159862.16, 0.0680243, 10.00169, 9.999095 
2.1651347e+3, 1.4610906e+2, -1374987.6, -1534002.4, 24932.996, -0.015059437, -0.45369014, -1371169.9, 136916.66, 0.040845696, 10.001404, 9.99922 
2.1651177e+3, 1.5610819e+2, -1309141.5, -1467704.9, 22748.732, -0.03392239, -0.46126965, -1305942.4, 104152.35, 0.01887772, 10.001221, 9.99909 
2.1651006e+3, 1.6610724e+2, -1226029.8, -1361883.0, 13803.085, -0.02840384, -0.46373796, -1224641.5, 87462.03, 0.0058378065, 10.001041, 9.99923 
2.1650834e+3, 1.7610648e+2, -1159628.4, -1290215.9, 9297.836, -0.00969322, -0.4623557, -1158969.8, 55140.887, 0.0008577964, 10.000868, 9.999133 
2.1650662e+3, 1.8610555e+2, -1056389.1, -1146364.0, 7309.693, -0.012373274, -0.48171005, -1055799.1, 60318.848, 0.000018546296, 10.000716, 9.99952 
2.1650489e+3, 1.961047e+2, -987389.56, -1077086.3, 3059.3232, -0.028020682, -0.51602435, -987285.4, 30838.111, 0.0, 10.000581, 9.999389 
2.1650313e+3, 2.0610383e+2, -904916.06, -973668.56, -12586.509, -0.032685038, -0.5406136, -902684.3, 17445.232, 0.0, 10.000419, 9.999504 
2.1650137e+3, 2.1610314e+2, -841665.8, -906005.2, -10978.216, -0.03031957, -0.55936974, -839844.2, -17710.168, 0.0, 10.000238, 9.999383 
2.1649958e+3, 2.2610228e+2, -760578.5, -793028.6, -21046.326, -0.02471853, -0.5864687, -750229.1, -26088.77, 0.0, 10.000023, 9.99959 
2.1649778e+3, 2.3610152e+2, -706802.1, -731480.75, -22269.51, -0.01626543, -0.61990374, -693681.9, -67535.87, 0.0, 9.999784, 9.9994545 
2.1649598e+3, 2.4610096e+2, -629780.7, -632432.25, -30920.238, -0.00066140684, -0.6176695, -600157.8, -72006.89, 0.0, 9.999592, 9.999555 
2.1649416e+3, 2.5610077e+2, -562869.94, -561422.75, -34363.035, 0.018420974, -0.59280473, -527775.7, -97622.375, 0.0, 9.99943, 9.999447 
2.1649235e+3, 2.6610014e+2, -476780.66, -433055.9, -34151.703, 0.021015156, -0.6094666, -414368.28, -82209.31, 0.0, 9.999192, 9.99977 
2.1649052e+3, 2.760994e+2, -431373.94, -377528.4, -31642.545, 0.016255707, -0.6552187, -362904.97, -128740.14, 0.0, 9.998904, 9.999617 
2.1648872e+3, 2.8609926e+2, -348228.97, -289025.72, -35518.195, 0.046979405, -0.62619853, -272391.03, -136223.72, 0.0, 9.998813, 9.999596 
2.1648692e+3, 2.9609963e+2, -257500.06, -213142.31, -30516.443, 0.08983302, -0.54530805, -197596.45, -159431.36, 0.0, 9.998843, 9.999429 
2.1648505e+3, 3.0609804e+2, -261378.47, -188422.52, -3628.6326, 0.021247888, -0.63654846, -188242.48, -188242.48, 0.0, 9.998476, 9.999439 
2.1648337e+3, 3.16098e+2, -211126.72, 55818.88, -869.3027, 0.0899862, -0.5910466, 55821.71, 55821.71, 0.0, 9.997874, 10.001407 
2.1751721e+3, 1.2612893e+2, -1488677.4, -1692092.9, -2700.8591, -0.01963966, -0.42641744, -1488641.5, 215252.28, 0.09649051, 10.002125, 9.999142 
2.1751541e+3, 1.3612786e+2, -1454295.3, -1650015.8, -16598.076, -0.009415831, -0.44030476, -1452897.6, 153005.88, 0.06926157, 10.001698, 9.998957 
2.1751362e+3, 1.4612685e+2, -1376132.4, -1538656.1, 17670.965, -0.013927435, -0.4402469, -1374233.3, 133679.27, 0.041628785, 10.001412, 9.999185 
2.175119e+3, 1.5612584e+2, -1311356.8, -1474122.4, 15349.676, -0.010156175, -0.45719475, -1309921.9, 99999.68, 0.0192755, 10.001226, 9.999044 
2.1751018e+3, 1.6612473e+2, -1232446.3, -1377012.3, 6907.9746, -0.010911522, -0.46991238, -1232116.9, 79815.086, 0.0059846696, 10.001046, 9.999125 
2.1750842e+3, 1.7612375e+2, -1165690.1, -1304541.0, 2703.1343, -0.01738148, -0.47928885, -1165637.5, 48303.59, 0.00088817236, 10.000874, 9.999033 
2.1750669e+3, 1.8612282e+2, -1058417.4, -1152190.4, 2210.0063, -0.025318716, -0.49100643, -1058365.4, 57583.05, 0.000020075104, 10.000721, 9.999479 
2.1750493e+3, 1.9612212e+2, -988595.1, -1081042.5, -2160.1426, -0.03318006, -0.50583, -988544.7, 29408.043, 0.0, 10.000585, 9.999361 
2.1750318e+3, 2.0612125e+2, -897642.8, -960050.1, -19092.768, -0.030228712, -0.5358811, -892265.06, 27693.875, 0.0, 10.0004225, 9.999597 
2.1750139e+3, 2.1612042e+2, -835332.6, -894353.06, -17667.16, -0.020483555, -0.5762227, -830448.3, -8483.985, 0.0, 10.000243, 9.999462 
2.1749958e+3, 2.2611967e+2, -760143.3, -793666.44, -29768.088, -0.012299455, -0.5950031, -742742.2, -18772.629, 0.0, 10.000027, 9.999584 
2.1749778e+3, 2.3611918e+2, -707253.56, -733897.94, -30818.99, -0.004354555, -0.60072, -687000.6, -61027.902, 0.0, 9.999788, 9.999437 
2.1749595e+3, 2.4611846e+2, -635277.7, -645507.7, -36952.86, 0.0037185396, -0.6114926, -603087.5, -75107.84, 0.0, 9.999597, 9.999463 
2.1749412e+3, 2.5611776e+2, -566858.5, -571525.9, -40993.15, 0.010253417, -0.6257865, -528132.7, -98145.61, 0.0, 9.999435, 9.999376 
2.1749227e+3, 2.6611742e+2, -470080.5, -420741.78, -45493.574, 0.01732775, -0.61270595, -393659.4, -61669.51, 0.0, 9.999197, 9.999853 
2.1749043e+3, 2.7611756e+2, -425654.3, -366959.5, -41699.88, 0.02881985, -0.5852337, -345315.25, -111327.23, 0.0, 9.998908, 9.999689 
2.174886e+3, 2.8611696e+2, -345796.9, -285691.6, -34946.91, 0.054116752, -0.60194296, -269652.5, -133658.3, 0.0, 9.998818, 9.999618 
2.174868e+3, 2.9611617e+2, -254844.9, -210240.2, -33029.94, 0.07488074, -0.6392103, -192688.17, -154685.53, 0.0, 9.998852, 9.999446 
2.1748486e+3, 3.0611625e+2, -250576.55, -168060.98, -28409.332, -0.019256687, -0.5735474, -159225.9, -159225.9, 0.0, 9.998482, 9.9995775 
2.1748313e+3, 3.1611562e+2, -204870.88, 68077.71, -8358.347, 0.07566098, -0.6001859, 68333.43, 68333.43, 0.0, 9.997875, 10.001492 
2.1851745e+3, 1.2614706e+2, -1486517.4, -1698548.3, 11311.878, 0.004508906, -0.43423718, -1485915.6, 217800.14, 0.09805127, 10.002183, 9.999064 
2.1851557e+3, 1.3614596e+2, -1414493.9, -1638544.1, 3270.2725, -0.012403707, -0.44279188, -1414446.3, 191279.47, 0.070408754, 10.002035, 9.998871 
2.1851377e+3, 1.4614485e+2, -1334552.3, -1533475.4, 36132.05, -0.015176865, -0.4416974, -1328192.6, 179543.33, 0.042350892, 10.001781, 9.9990425 
2.1851206e+3, 1.5614371e+2, -1286207.6, -1476012.6, 26317.924, 0.008216249, -0.45832378, -1282626.0, 127120.63, 0.019640561, 10.001467, 9.998915 
2.185103e+3, 1.6614252e+2, -1207218.5, -1365611.3, 21161.658, 0.0049202614, -0.4714846, -1204440.0, 107317.48, 0.006118843, 10.001226, 9.999115 
2.1850853e+3, 1.7614152e+2, -1143339.3, -1295424.4, 23307.027, -0.018184483, -0.48193124, -1139847.6, 73918.82, 0.0009154211, 10.001037, 9.999016 
2.1850677e+3, 1.8614052e+2, -1048136.0, -1152862.0, 24508.906, -0.02852271, -0.496875, -1042684.06, 73090.37, 0.000021349408, 10.000818, 9.999427 
2.1850501e+3, 1.9613974e+2, -991654.56, -1087332.6, 18932.258, -0.02960718, -0.5161526, -988044.56, 29735.258, 0.0, 10.000587, 9.999315 
2.1850322e+3, 2.0613885e+2, -893374.7, -955499.1, -370.3305, -0.02523079, -0.5436177, -893372.44, 26413.592, 0.0, 10.000443, 9.999617 
2.1850142e+3, 2.1613812e+2, -817680.56, -883609.5, -5259.7534, -0.017483016, -0.5768376, -817263.56, 4527.2725, 0.0, 10.000357, 9.999479 
2.1849962e+3, 2.2613741e+2, -737237.75, -781690.25, -22507.443, -0.011100278, -0.59227926, -727831.9, -4036.1292, 0.0, 10.000183, 9.99959 
2.1849775e+3, 2.3613694e+2, -683400.4, -721685.2, -22779.14, -0.00466364, -0.5971659, -672788.44, -46989.57, 0.0, 9.999951, 9.999441 
2.184959e+3, 2.461362e+2, -618505.3, -635925.2, -23150.096, 0.007068138, -0.6094112, -602480.9, -74674.94, 0.0, 9.999708, 9.999475 
2.1849407e+3, 2.561355e+2, -564112.25, -570075.6, -20021.92, 0.020367796, -0.626358, -546851.2, -117037.74, 0.0, 9.999455, 9.999375 
2.1849218e+3, 2.661352e+2, -466245.2, -427254.22, -29697.438, 0.023428047, -0.60783434, -411224.9, -79408.555, 0.0, 9.999262, 9.999777 
2.184903e+3, 2.7613533e+2, -401392.75, -362362.94, -37318.277, 0.02454631, -0.57088506, -339765.06, -105950.45, 0.0, 9.999107, 9.999623 
2.1848847e+3, 2.8613454e+2, -326252.94, -270532.44, -29677.3, 0.04743072, -0.60255283, -257687.22, -121865.13, 0.0, 9.99893, 9.999666 
2.1848667e+3, 2.9613358e+2, -269333.38, -209297.69, -27811.219, 0.069245294, -0.6659823, -198394.45, -160562.34, 0.0, 9.99872, 9.999515 
2.184847e+3, 3.0613446e+2, -244389.06, -137769.28, -29980.0, -0.02946159, -0.53544295, -129917.55, -129917.55, 0.0, 9.998409, 9.99982 
2.1848291e+3, 3.1613347e+2, -204747.89, 20032.027, 11329.639, 0.06081201, -0.6172757, 20601.635, 20601.635, 0.0, 9.998085, 10.00106 
2.195177e+3, 1.261655e+2, -1487204.1, -1700614.5, 4553.715, 0.036446776, -0.4486231, -1487107.0, 216427.55, 0.099500686, 10.002187, 9.999047 
2.1951577e+3, 1.3616434e+2, -1416313.1, -1644656.4, -3573.2505, -0.013479979, -0.46139142, -1416257.1, 189287.3, 0.071469806, 10.002044, 9.998826 
2.1951397e+3, 1.4616309e+2, -1350570.9, -1570100.9, 24061.834, -0.018704098, -0.45735395, -1347964.5, 159591.97, 0.043016076, 10.001789, 9.998787 
2.1951221e+3, 1.5616179e+2, -1300619.4, -1507795.5, 14630.838, 0.020950869, -0.46430326, -1299591.3, 109978.29, 0.019976018, 10.001471, 9.998695 
2.1951042e+3, 1.6616063e+2, -1201345.0, -1354886.4, 13665.104, 0.018853068, -0.46843305, -1200138.3, 111441.74, 0.006242001, 10.001231, 9.999187 
2.1950862e+3, 1.7615978e+2, -1138483.8, -1287365.6, 15628.509, -0.012396488, -0.47053862, -1136860.9, 76725.875, 0.0009401602, 10.001042, 9.999069 
2.1950683e+3, 1.8615863e+2, -1052205.4, -1163317.1, 15599.953, -0.022301449, -0.49944618, -1050056.6, 65539.3, 0.000022413657, 10.000825, 9.999352 
2.1950507e+3, 1.961575e+2, -995972.4, -1098009.3, 10755.706, -0.017650783, -0.5467408, -994850.94, 22753.88, 0.0, 10.000592, 9.999241 
2.1950327e+3, 2.0615666e+2, -896742.4, -964111.06, -3497.159, -0.017909074, -0.5634222, -896561.3, 23049.73, 0.0, 10.000448, 9.999557 
2.1950147e+3, 2.1615621e+2, -820666.1, -891259.56, -8820.037, -0.021546913, -0.5609728, -819580.8, 2032.8015, 0.0, 10.0003605, 9.999427 
2.194996e+3, 2.2615549e+2, -735773.1, -780138.3, -30983.465, -0.02126023, -0.57839394, -719850.06, 3769.178, 0.0, 10.000187, 9.9996 
2.1949773e+3, 2.3615475e+2, -681285.25, -718995.44, -31355.336, -0.017409297, -0.6096028, -663552.5, -37927.617, 0.0, 9.999956, 9.999458 
2.1949588e+3, 2.4615417e+2, -610296.3, -620608.56, -32606.088, 0.009431284, -0.6112486, -582441.2, -54811.11, 0.0, 9.999713, 9.999578 
2.1949404e+3, 2.5615394e+2, -559006.56, -561071.2, -29188.404, 0.04892669, -0.59356487, -530832.2, -101199.375, 0.0, 9.99946, 9.999436 
2.1949214e+3, 2.6615328e+2, -483031.47, -463833.38, -35826.605, 0.03918952, -0.59494346, -436342.16, -104703.305, 0.0, 9.999267, 9.999524 
2.1949022e+3, 2.761526e+2, -415495.7, -393694.4, -43571.88, 0.002690316, -0.6143237, -359680.3, -126034.836, 0.0, 9.999114, 9.999407 
2.1948835e+3, 2.8615198e+2, -320513.6, -260389.61, -38400.883, 0.026509339, -0.6285504, -241683.27, -106031.484, 0.0, 9.998936, 9.999735 
2.1948652e+3, 2.9615176e+2, -260548.6, -192335.73, -37945.008, 0.07306719, -0.62248284, -175421.86, -137767.88, 0.0, 9.998724, 9.999631 
2.1948457e+3, 3.0615255e+2, -219677.1, -87816.87, -44389.043, -0.007856645, -0.5252848, -74266.37, -74266.37, 0.0, 9.998412, 10.000163 
2.1948272e+3, 3.1615177e+2, -274758.13, -127805.41, 15583.632, 0.040936384, -0.61390084, -126171.016, -126171.016, 0.0, 9.998094, 10.000041 
2.2051795e+3, 1.2618414e+2, -1473703.9, -1696966.0, 15957.943, 0.041464143, -0.45458347, -1472569.0, 230782.55, 0.10084932, 10.002309, 9.999015 
2.2051601e+3, 1.3618295e+2, -1358543.1, -1619668.6, 5202.942, -0.012116414, -0.46601933, -1358439.4, 246922.02, 0.07245561, 10.002497, 9.998778 
2.2051416e+3, 1.4618163e+2, -1302641.8, -1561912.6, 21129.785, -0.01587487, -0.46000504, -1300931.0, 206443.39, 0.043632787, 10.002205, 9.998642 
2.2051238e+3, 1.5618022e+2, -1290104.8, -1516938.4, 20437.85, 0.028562708, -0.4628711, -1288278.0, 121111.05, 0.020286694, 10.001608, 9.998566 
2.2051057e+3, 1.6617899e+2, -1182957.5, -1345638.9, 30889.639, 0.026302887, -0.4685131, -1177289.8, 134110.31, 0.006356315, 10.001359, 9.999188 
2.2050874e+3, 1.7617808e+2, -1096805.9, -1268188.1, 26430.441, -0.008607385, -0.47582805, -1092822.4, 120584.4, 0.00096326123, 10.001336, 9.999059 
2.2050694e+3, 1.8617688e+2, -1011710.7, -1153906.9, 17932.164, -0.02102632, -0.5047183, -1009484.2, 105932.38, 0.000023369355, 10.001149, 9.99926 
2.2050515e+3, 1.961757e+2, -963338.44, -1091534.8, 11772.58, -0.017918708, -0.5484622, -962266.25, 55160.133, 0.0, 10.000858, 9.999156 
2.2050332e+3, 2.0617485e+2, -871703.8, -952804.56, 3038.433, -0.018479466, -0.56158954, -871590.1, 47842.85, 0.0, 10.000626, 9.999548 
2.2050148e+3, 2.1617444e+2, -811128.44, -887525.06, 476.85156, -0.0217107, -0.55563194, -811125.5, 10309.975, 0.0, 10.000432, 9.999416 
2.2049963e+3, 2.261737e+2, -727721.6, -775526.56, -23010.338, -0.019780444, -0.57113755, -718445.75, 4995.454, 0.0, 10.000241, 9.999604 
2.2049773e+3, 2.3617299e+2, -667018.9, -711285.25, -24234.598, -0.013488421, -0.6016015, -656331.44, -30884.38, 0.0, 10.000053, 9.999463 
2.2049585e+3, 2.4617246e+2, -587478.3, -605786.2, -29746.793, 0.012300551, -0.6001703, -565508.9, -38057.15, 0.0, 9.999856, 9.99961 
2.2049399e+3, 2.5617227e+2, -530089.2, -544704.9, -31634.766, 0.048594765, -0.5779374, -504929.2, -75475.77, 0.0, 9.999651, 9.999455 
2.2049206e+3, 2.6617154e+2, -458065.56, -456965.1, -29057.076, 0.03791415, -0.588931, -428453.03, -96992.54, 0.0, 9.999463, 9.9994755 
2.2049011e+3, 2.761706e+2, -395458.84, -389889.53, -22306.703, 0.002134831, -0.6265312, -370194.34, -136724.86, 0.0, 9.99928, 9.9993515 
2.2048824e+3, 2.8617013e+2, -323476.6, -268896.28, -22598.283, 0.022273047, -0.61957794, -260754.33, -125279.92, 0.0, 9.998948, 9.999669 
2.2048637e+3, 2.961703e+2, -290600.06, -209695.75, -32104.4, 0.061965358, -0.56896836, -198504.23, -161031.31, 0.0, 9.998532, 9.999602 
2.204844e+3, 3.0617017e+2, -218391.2, -74473.56, -49536.867, 0.0027937633, -0.5711241, -59071.215, -59071.215, 0.0, 9.998369, 10.000274 
2.2048251e+3, 3.1616998e+2, -258367.4, -156115.39, 9374.077, 0.031159878, -0.60182434, -155263.11, -155263.11, 0.0, 9.998364, 9.999715 
2.2151814e+3, 1.2620303e+2, -1476080.5, -1704386.9, 20849.744, 0.021226695, -0.45323431, -1474192.1, 228974.36, 0.1021057, 10.00232, 9.998957 
2.2151627e+3, 1.3620186e+2, -1363250.8, -1629054.3, 7779.2075, -0.009259705, -0.4570616, -1363023.3, 242152.84, 0.07337336, 10.002492, 9.998717 
2.2151437e+3, 1.4620048e+2, -1306328.0, -1569596.3, -1453.5654, -0.0077421246, -0.44999436, -1306320.0, 200869.53, 0.04420635, 10.002202, 9.998591 
2.2151256e+3, 1.5619902e+2, -1292560.1, -1524643.4, -18.886972, 0.03127166, -0.45426014, -1292560.1, 116644.69, 0.020575888, 10.0016165, 9.998509 
2.2151072e+3, 1.661976e+2, -1186750.4, -1356222.1, 29682.139, 0.027551174, -0.4716601, -1181702.1, 129515.33, 0.00646361, 10.0013685, 9.999112 
2.2150889e+3, 1.7619644e+2, -1101882.8, -1280231.5, 24076.406, -0.0069665336, -0.49736854, -1098689.8, 114536.63, 0.0009856035, 10.00134, 9.998975 
2.2150706e+3, 1.8619527e+2, -1019266.3, -1170971.3, 6785.8145, -0.024777569, -0.51239204, -1018963.4, 96272.76, 0.00002434694, 10.001153, 9.999143 
2.215052e+3, 1.961943e+2, -969575.4, -1106149.1, 1285.7499, -0.030386686, -0.521561, -969563.25, 47681.305, 0.0, 10.000863, 9.999054 
2.2150336e+3, 2.0619339e+2, -868675.8, -948138.5, -4135.903, -0.026885286, -0.5385141, -868461.1, 50790.754, 0.0, 10.00063, 9.999578 
2.2150154e+3, 2.1619272e+2, -808817.0, -884149.06, -6564.6353, -0.018046098, -0.5609847, -808249.25, 13007.352, 0.0, 10.000436, 9.999438 
2.2149965e+3, 2.2619206e+2, -727764.25, -777156.3, -29898.756, -0.0066507515, -0.57033056, -713681.06, 9580.885, 0.0, 10.000246, 9.999592 
2.2149776e+3, 2.3619162e+2, -667319.9, -713561.7, -31208.988, 0.007063088, -0.5726369, -651600.4, -26334.654, 0.0, 10.000058, 9.999447 
2.2149585e+3, 2.4619101e+2, -590100.9, -612979.6, -37493.223, 0.015355259, -0.5760233, -562340.75, -35069.508, 0.0, 9.999861, 9.999559 
2.2149391e+3, 2.5619048e+2, -531212.94, -548958.25, -39285.07, 0.01840854, -0.580072, -499811.03, -70535.3, 0.0, 9.999658, 9.999424 
2.2149199e+3, 2.6618984e+2, -446527.8, -434949.56, -36304.383, 0.019245967, -0.5898513, -403975.63, -72693.82, 0.0, 9.99947, 9.999624 
2.2149007e+3, 2.761893e+2, -387202.44, -374708.28, -30869.883, 0.023499152, -0.60648465, -349459.72, -116172.6, 0.0, 9.999286, 9.999454 
2.2148816e+3, 2.8618896e+2, -337989.63, -300464.56, -39305.664, 0.034943968, -0.5742564, -275672.9, -140382.39, 0.0, 9.998952, 9.999452 
2.2148621e+3, 2.9618913e+2, -303728.13, -237689.2, -46766.313, 0.03489981, -0.504359, -213460.31, -176170.67, 0.0, 9.998533, 9.999412 
2.2148426e+3, 3.061871e+2, -227816.5, -95472.375, -51485.297, 0.0020120826, -0.67724913, -77802.46, -77802.46, 0.0, 9.998373, 10.00013 
2.2148235e+3, 3.1618828e+2, -225130.78, -90530.44, 12545.246, 0.031411853, -0.56397384, -89371.164, -89371.164, 0.0, 9.998376, 10.000161 
2.2251835e+3, 1.2622204e+2, -1405262.8, -1672185.5, 15655.303, -0.010363071, -0.44154167, -1404347.8, 298632.6, 0.10327044, 10.002878, 9.998931 
2.2251652e+3, 1.362208e+2, -1404682.9, -1652672.8, 5215.971, 0.019008566, -0.4520651, -1404573.3, 200417.67, 0.07422241, 10.002197, 9.998695 
2.2251463e+3, 1.4621934e+2, -1334656.1, -1582882.1, -358.4805, 0.019233633, -0.45137972, -1334655.6, 172349.11, 0.044736758, 10.001998, 9.998598 
2.2251272e+3, 1.5621783e+2, -1225195.8, -1492026.8, 4596.267, 0.018352354, -0.46005264, -1225116.5, 183903.47, 0.020844676, 10.002094, 9.998503 
2.2251084e+3, 1.6621634e+2, -1122479.4, -1335204.5, 34916.92, 0.012862189, -0.47952053, -1116894.6, 194138.6, 0.0065651424, 10.001859, 9.99902 
2.2250903e+3, 1.7621507e+2, -1096729.9, -1287557.0, 27852.566, 0.00060771883, -0.5057173, -1092747.8, 120295.44, 0.0010078596, 10.001419, 9.998886 
2.2250718e+3, 1.8621388e+2, -1019835.5, -1175652.4, 14070.979, -0.015744947, -0.5157503, -1018575.0, 96478.28, 0.000025475509, 10.00117, 9.999102 
2.225053e+3, 1.9621296e+2, -947155.7, -1100078.0, 13238.78, -0.033030756, -0.51662314, -946018.06, 71043.56, 0.0, 10.00104, 9.99901 
2.2250344e+3, 2.0621198e+2, -848324.6, -944813.1, 4083.413, -0.028767861, -0.5341385, -848152.1, 70917.74, 0.0, 10.000801, 9.999518 
2.2250159e+3, 2.162112e+2, -803753.75, -886766.3, -5095.6763, -0.011367828, -0.562763, -803442.1, 17633.865, 0.0, 10.000495, 9.999392 
2.2249968e+3, 2.2621062e+2, -716967.9, -765408.06, -25099.436, -0.00006631732, -0.56669056, -706308.25, 16772.576, 0.0, 10.000295, 9.999648 
2.2249778e+3, 2.3621035e+2, -649198.5, -698955.4, -21814.34, 0.0081771035, -0.5561942, -640989.1, -15906.185, 0.0, 10.00016, 9.999496 
2.2249582e+3, 2.4620971e+2, -571848.44, -602041.5, -24787.887, 0.010531995, -0.56390595, -557921.75, -30833.314, 0.0, 9.99998, 9.999576 
2.2249387e+3, 2.5620908e+2, -513837.0, -538470.94, -22009.84, 0.007399681, -0.5834709, -500932.16, -71838.055, 0.0, 9.99977, 9.99944 
2.2249195e+3, 2.6620847e+2, -444294.28, -430595.56, -24885.877, 0.014386262, -0.59179825, -411633.7, -80533.805, 0.0, 9.999474, 9.999651 
2.2248998e+3, 2.7620807e+2, -410007.88, -382950.78, -28977.21, 0.032515425, -0.59483564, -364499.66, -131395.8, 0.0, 9.999121, 9.9994755 
2.2248803e+3, 2.8620782e+2, -345424.84, -303548.9, -31114.352, 0.038457785, -0.55586594, -286983.53, -151877.0, 0.0, 9.998901, 9.999453 
2.2248606e+3, 2.962079e+2, -273312.97, -227978.1, -22025.883, 0.02134541, -0.48856077, -219039.33, -181933.44, 0.0, 9.998767, 9.999364 
2.2248408e+3, 3.0620536e+2, -243933.17, -141634.13, -30675.46, 0.011427447, -0.69628483, -133140.9, -133140.9, 0.0, 9.99843, 9.999783 
2.2248216e+3, 3.162066e+2, -251090.78, -42645.367, 18379.059, 0.028898682, -0.54377615, -41037.254, -41037.254, 0.0, 9.997941, 10.000698 
2.2351861e+3, 1.2624122e+2, -1406076.0, -1672582.5, -8900.659, -0.053407915, -0.42006773, -1405779.0, 297013.7, 0.10434496, 10.002873, 9.998931 
2.2351679e+3, 1.3623978e+2, -1403476.8, -1651454.4, -16290.763, 0.07123317, -0.45105764, -1402411.1, 202394.17, 0.07500382, 10.002203, 9.998703 
2.2351487e+3, 1.4623822e+2, -1329892.8, -1574809.6, 2697.5283, 0.06368411, -0.46372992, -1329863.0, 176956.67, 0.045225833, 10.002006, 9.998651 
2.2351289e+3, 1.562367e+2, -1222313.5, -1487506.8, 5232.277, -0.010116145, -0.4795019, -1222210.3, 186624.1, 0.021095254, 10.002099, 9.998532 
2.2351101e+3, 1.6623522e+2, -1129752.4, -1352002.8, 17927.166, -0.017279, -0.49155962, -1128315.6, 182531.67, 0.006662328, 10.0018635, 9.998903 
2.2350918e+3, 1.76234e+2, -1102749.4, -1302094.4, 12358.3125, 0.013822431, -0.5009244, -1101986.1, 110870.97, 0.0010305197, 10.001426, 9.998784 
2.235073e+3, 1.8623276e+2, -1017191.3, -1172126.1, 9083.538, 0.0055039776, -0.51493466, -1016660.56, 98207.414, 0.00002688948, 10.001176, 9.999124 
2.2350542e+3, 1.9623168e+2, -946362.0, -1100032.6, 7442.338, -0.026176026, -0.5333346, -946002.44, 70875.195, 0.0, 10.001045, 9.999009 
2.2350352e+3, 2.0623064e+2, -858558.0, -967571.0, -7386.6216, -0.024269322, -0.54803354, -858059.75, 60827.08, 0.0, 10.000805, 9.999361 
2.2350164e+3, 2.1622986e+2, -811765.06, -904859.3, -15599.857, -0.0019067749, -0.5607335, -809220.56, 11673.196, 0.0, 10.000499, 9.999267 
2.2349973e+3, 2.2622932e+2, -708143.3, -748630.75, -29847.998, -0.00023980158, -0.5602292, -692321.7, 30576.484, 0.0, 10.0002985, 9.999763 
2.2349775e+3, 2.3622914e+2, -640882.06, -683325.8, -27122.137, -0.010542174, -0.55256736, -627665.9, -2766.819, 0.0, 10.000165, 9.999602 
2.2349583e+3, 2.4622856e+2, -565670.25, -590895.0, -32593.338, -0.0022096392, -0.56396806, -543334.1, -16430.367, 0.0, 9.999985, 9.999651 
2.2349387e+3, 2.5622794e+2, -509241.47, -530708.4, -30598.357, 0.015956175, -0.588029, -487548.6, -58639.734, 0.0, 9.999776, 9.999492 
2.2349189e+3, 2.662273e+2, -451241.53, -446491.5, -38728.613, 0.023451779, -0.5947664, -410065.16, -79149.945, 0.0, 9.999477, 9.999541 
2.234899e+3, 2.7622688e+2, -414524.3, -393348.2, -42084.832, 0.028509315, -0.5917885, -360539.94, -127619.57, 0.0, 9.999123, 9.999404 
2.2348791e+3, 2.8622657e+2, -329407.38, -271461.38, -36889.45, 0.03250415, -0.5657614, -253527.39, -118604.09, 0.0, 9.998904, 9.999673 
2.2348593e+3, 2.9622662e+2, -265578.53, -214128.67, -29025.559, 0.021621939, -0.52477956, -201068.88, -164146.31, 0.0, 9.998774, 9.999456 
2.2348396e+3, 3.0622488e+2, -283451.28, -225342.02, -50008.87, 0.031161511, -0.62168825, -196560.16, -196560.16, 0.0, 9.998435, 9.9992075 
2.2348195e+3, 3.1622472e+2, -206564.67, 49873.895, -12594.121, 0.02345142, -0.5606393, 50490.93, 50490.93, 0.0, 9.997937, 10.001337 
2.245189e+3, 1.2626047e+2, -1420890.1, -1686875.3, -4022.452, -0.03956786, -0.4231309, -1420829.3, 281774.66, 0.105338566, 10.002799, 9.998857 
2.2451702e+3, 1.3625893e+2, -1373709.3, -1642807.9, -13639.012, 0.07673763, -0.45508924, -1373019.8, 231597.92, 0.075726904, 10.002458, 9.998638 
2.2451508e+3, 1.4625736e+2, -1283411.3, -1549382.3, 19043.66, 0.06560229, -0.46841663, -1282054.6, 224577.44, 0.04568088, 10.002335, 9.998666 
2.2451311e+3, 1.5625584e+2, -1187085.4, -1470017.0, 16555.947, -0.0095974775, -0.48367572, -1186119.9, 222526.06, 0.021331616, 10.002348, 9.998531 
2.245112e+3, 1.662543e+2, -1100550.0, -1348613.1, 13422.369, -0.017685464, -0.49746683, -1099825.9, 210833.8, 0.0067564347, 10.002114, 9.998805 
2.2450933e+3, 1.7625296e+2, -1065582.5, -1293648.4, 9531.332, 0.013171622, -0.5099755, -1065184.9, 147486.11, 0.0010538278, 10.001724, 9.998697 
2.2450745e+3, 1.8625169e+2, -982084.0, -1154022.1, 13032.109, 0.007958117, -0.52202666, -981101.9, 133580.28, 0.000028719203, 10.001414, 9.999132 
2.2450551e+3, 1.9625066e+2, -929979.44, -1091563.9, 9602.767, -0.018748654, -0.5352233, -929410.75, 87280.43, 0.0, 10.001157, 9.999012 
2.245036e+3, 2.0624965e+2, -848268.5, -964687.3, -3083.087, -0.01842809, -0.5468789, -848186.94, 70513.48, 0.0, 10.000887, 9.99934 
2.2450171e+3, 2.1624885e+2, -796861.5, -899296.06, -1253.4036, -0.0016327442, -0.5579522, -796846.1, 23861.58, 0.0, 10.00061, 9.999249 
2.2449976e+3, 2.2624831e+2, -694527.3, -738850.3, -11897.536, -0.0030745217, -0.5597283, -691535.56, 31176.742, 0.0, 10.000381, 9.999788 
2.2449778e+3, 2.3624809e+2, -636585.0, -677496.44, -16254.03, -0.015018886, -0.55673474, -630913.5, -6200.237, 0.0, 10.00018, 9.999634 
2.244958e+3, 2.4624759e+2, -572159.3, -584536.5, -27639.748, -0.0058881664, -0.56697255, -550023.8, -23306.455, 0.0, 9.999903, 9.999733 
2.2449382e+3, 2.562471e+2, -533803.9, -534412.1, -25212.213, 0.014847519, -0.58599675, -508893.94, -80172.62, 0.0, 9.999575, 9.999562 
2.2449182e+3, 2.662466e+2, -470917.47, -456089.94, -28185.635, 0.021828856, -0.58575, -434359.34, -103632.53, 0.0, 9.999346, 9.9995365 
2.2448982e+3, 2.762462e+2, -406314.88, -388734.97, -23452.588, 0.02424996, -0.5755462, -372479.22, -139747.84, 0.0, 9.999179, 9.999407 
2.2448781e+3, 2.862457e+2, -321521.72, -261894.23, -21741.691, 0.02719582, -0.5738337, -254808.66, -120072.37, 0.0, 9.998937, 9.999722 
2.2448578e+3, 2.962454e+2, -284303.16, -220982.98, -27363.371, 0.017291343, -0.5731056, -210796.75, -174057.9, 0.0, 9.998638, 9.999474 
2.2448379e+3, 3.0624476e+2, -293807.44, -235347.0, -32468.719, 0.04006672, -0.556086, -220889.42, -220889.42, 0.0, 9.998388, 9.99916 
2.2448176e+3, 3.162439e+2, -180765.53, 62656.105, 20441.049, 0.025604479, -0.5637957, 64360.684, 64360.684, 0.0, 9.9981165, 10.001337 
2.2551927e+3, 1.2627982e+2, -1430804.4, -1707853.6, -17245.648, 0.025953062, -0.44980317, -1429735.0, 272678.5, 0.106260926, 10.002798, 9.998702 
2.2551724e+3, 1.362783e+2, -1381149.5, -1662533.4, -25066.22, 0.037413076, -0.46339867, -1378934.0, 225493.7, 0.07640236, 10.00247, 9.998499 
2.2551526e+3, 1.4627676e+2, -1283702.9, -1553184.8, 18837.576, 0.027391663, -0.46543583, -1282392.5, 224049.25, 0.046109818, 10.002347, 9.998635 
2.2551338e+3, 1.562753e+2, -1188937.1, -1475391.1, 14568.884, 0.018449223, -0.47300044, -1188198.0, 220256.58, 0.021557188, 10.002352, 9.998493 
2.2551145e+3, 1.6627358e+2, -1106231.6, -1361713.5, -1753.4597, 0.009853555, -0.49755746, -1106219.5, 204250.47, 0.006848074, 10.002117, 9.998714 
2.255095e+3, 1.7627193e+2, -1070352.9, -1305393.6, -4952.986, -0.0011700516, -0.5325551, -1070248.5, 142236.25, 0.001077814, 10.00173, 9.998614 
2.2550757e+3, 1.8627068e+2, -981940.7, -1155550.4, 3246.3843, -0.007749439, -0.5366053, -981880.0, 132615.67, 0.000031062955, 10.00142, 9.99912 
2.2550564e+3, 1.9626993e+2, -929127.4, -1091229.3, -142.17615, -0.010873035, -0.52236396, -929127.25, 87375.02, 0.0, 10.001161, 9.999014 
2.2550371e+3, 2.0626901e+2, -840427.75, -949794.75, -13287.785, -0.011473936, -0.5309519, -838836.44, 79674.14, 0.0, 10.000891, 9.999442 
2.2550176e+3, 2.1626818e+2, -790614.4, -887666.3, -11088.85, -0.010617844, -0.5544714, -789363.5, 31154.586, 0.0, 10.000614, 9.999329 
2.2549978e+3, 2.2626755e+2, -698719.25, -749030.5, -19127.627, -0.008522981, -0.5651499, -692273.1, 30250.502, 0.0, 10.000385, 9.999718 
2.254978e+3, 2.362672e+2, -639445.06, -685083.7, -24284.775, -0.0052484656, -0.56877893, -628940.7, -4414.719, 0.0, 10.000185, 9.99958 
2.254958e+3, 2.4626678e+2, -565836.8, -572907.8, -40057.945, -0.0005915333, -0.57294744, -529158.6, -2629.0576, 0.0, 9.999907, 9.999812 
2.2549377e+3, 2.562665e+2, -527732.0, -523046.88, -37092.1, 0.0035711196, -0.57725626, -488223.44, -59691.527, 0.0, 9.999578, 9.9996395 
2.2549175e+3, 2.662662e+2, -463632.9, -442148.25, -34856.285, 0.009175851, -0.56429017, -416416.5, -85881.34, 0.0, 9.999349, 9.999632 
2.2548972e+3, 2.7626598e+2, -400802.06, -378829.0, -30616.547, 0.01946259, -0.54547495, -357287.44, -124750.08, 0.0, 9.999184, 9.999475 
2.254877e+3, 2.8626508e+2, -330624.4, -282255.38, -33930.37, 0.022218935, -0.5802538, -264772.63, -130226.42, 0.0, 9.99894, 9.999581 
2.2548564e+3, 2.962641e+2, -288889.47, -231505.5, -39701.68, 0.007930382, -0.6345152, -211213.27, -174657.61, 0.0, 9.99864, 9.999401 
2.2548364e+3, 3.062649e+2, -257910.9, -161866.97, -41560.164, 0.037515685, -0.49886045, -146380.22, -146380.22, 0.0, 9.99839, 9.999664 
2.2548157e+3, 3.162641e+2, -232263.44, -45949.906, -13903.323, 0.036840905, -0.5414712, -44918.11, -44918.11, 0.0, 9.99812, 10.00059 
2.2651955e+3, 1.262994e+2, -1439400.0, -1724486.0, -5260.9, 0.06060289, -0.4622707, -1439303.0, 262918.1, 0.10710363, 10.002789, 9.998591 
2.2651748e+3, 1.3629791e+2, -1277094.5, -1620391.0, -11555.203, 0.007396566, -0.46152326, -1276706.0, 327529.3, 0.077026024, 10.0033, 9.998386 
2.265155e+3, 1.4629628e+2, -1189465.9, -1516915.4, 16082.384, 0.0013261857, -0.4626361, -1188677.9, 317572.6, 0.04651053, 10.0030775, 9.99853 
2.2651362e+3, 1.5629464e+2, -1187567.3, -1484373.8, 6425.698, 0.038377743, -0.4762579, -1187428.3, 220836.75, 0.021770446, 10.002406, 9.9984045 
2.2651167e+3, 1.662929e+2, -1108109.5, -1358606.1, -3748.0002, 0.02865707, -0.5005775, -1108053.5, 202227.05, 0.006936265, 10.0020895, 9.998748 
2.2650968e+3, 1.7629132e+2, -1030314.8, -1282254.5, 786.21, -0.01261135, -0.531629, -1030312.4, 181982.13, 0.001102139, 10.001991, 9.998647 
2.265077e+3, 1.8629009e+2, -947519.5, -1135515.1, 9251.449, -0.019428425, -0.5394329, -947065.3, 167240.06, 0.00003393106, 10.001643, 9.999148 
2.2650576e+3, 1.9628926e+2, -929759.06, -1088306.4, 8724.082, -0.004242409, -0.533562, -929280.5, 87031.8, 0.0, 10.001145, 9.999041 
2.265038e+3, 2.0628841e+2, -847772.1, -950190.8, -2529.4377, -0.004725013, -0.53800446, -847709.75, 70610.43, 0.0, 10.000829, 9.999468 
2.2650181e+3, 2.1628773e+2, -786597.5, -881738.4, -6361.203, -0.014892752, -0.5498145, -786174.06, 34152.563, 0.0, 10.0006275, 9.999362 
2.2649981e+3, 2.2628713e+2, -696551.44, -738585.25, -10016.457, -0.011762333, -0.5624484, -694286.56, 28045.129, 0.0, 10.000361, 9.9998 
2.2649783e+3, 2.3628676e+2, -652927.06, -683306.5, -4246.7485, -0.000072578274, -0.5764925, -652344.6, -28010.596, 0.0, 10.000059, 9.999652 
2.2649577e+3, 2.4628642e+2, -580642.0, -577387.3, -19712.412, 0.0007915119, -0.576369, -559235.2, -32898.113, 0.0, 9.999796, 9.999833 
2.2649373e+3, 2.5628632e+2, -529157.0, -520090.22, -20991.367, -0.0062855114, -0.56700206, -503148.3, -74809.77, 0.0, 9.999555, 9.99967 
2.2649167e+3, 2.6628608e+2, -464166.44, -429334.1, -17541.084, -0.0010873693, -0.55392164, -422031.6, -91690.63, 0.0, 9.999291, 9.999746 
2.2648962e+3, 2.762859e+2, -419507.16, -376955.44, -12325.408, 0.01573061, -0.5442749, -373643.13, -141300.64, 0.0, 9.999011, 9.999569 
2.2648758e+3, 2.8628498e+2, -362701.56, -299206.5, -11875.019, 0.02622754, -0.5822714, -297058.28, -162707.19, 0.0, 9.99873, 9.999565 
2.2648552e+3, 2.96284e+2, -313183.63, -238118.23, -7537.7314, 0.01972661, -0.6334667, -237368.81, -201008.5, 0.0, 9.998454, 9.999444 
2.2648345e+3, 3.062848e+2, -245945.86, -111591.54, -6244.829, 0.020328628, -0.5227062, -111301.9, -111301.9, 0.0, 9.998283, 10.00006 
2.264814e+3, 3.1628457e+2, -262980.97, -110215.59, -1241.7449, 0.041596588, -0.5421363, -110205.5, -110205.5, 0.0, 9.998125, 10.000146 
2.2751985e+3, 1.2631926e+2, -1442570.8, -1735294.1, 10745.638, 0.06615667, -0.4614908, -1442176.8, 259849.38, 0.10783482, 10.002804, 9.99851 
2.275178e+3, 1.363178e+2, -1283086.6, -1634214.6, 167.17215, -0.014637466, -0.44995555, -1283086.5, 320953.84, 0.077573106, 10.003302, 9.998292 
2.275158e+3, 1.4631593e+2, -1201778.5, -1544035.5, -9170.836, -0.014039129, -0.45999098, -1201533.0, 304525.03, 0.046866845, 10.0030775, 9.998345 
2.2751386e+3, 1.5631393e+2, -1196617.4, -1505268.5, -16440.398, 0.050464645, -0.49284938, -1195744.1, 212332.45, 0.021963378, 10.002412, 9.99826 
2.2751188e+3, 1.6631232e+2, -1097082.1, -1337539.4, -7603.3984, 0.03917455, -0.5061532, -1096842.0, 213248.75, 0.0070181265, 10.002096, 9.998891 
2.2750986e+3, 1.7631115e+2, -1020316.1, -1262863.9, -4985.1724, -0.02153851, -0.50778824, -1020213.7, 191886.42, 0.0011260561, 10.001995, 9.998779 
2.2750786e+3, 1.8630984e+2, -942982.3, -1127348.3, -9786.467, -0.02748053, -0.53106374, -942464.25, 171646.94, 0.000037226386, 10.001647, 9.999205 
2.2750588e+3, 1.9630866e+2, -926359.5, -1082670.3, -8749.904, 0.0010619158, -0.56832886, -925871.25, 90250.055, 0.000000000000000002497382, 10.001149, 9.999078 
2.2750388e+3, 2.0630784e+2, -850815.75, -958023.3, -9982.309, 0.0018119023, -0.56744796, -849894.2, 68234.95, 0.0, 10.0008335, 9.999413 
2.2750188e+3, 2.1630746e+2, -787245.1, -884482.6, -14051.648, -0.0147233885, -0.5439483, -785255.3, 34878.17, 0.0, 10.000631, 9.999343 
2.2749986e+3, 2.2630702e+2, -680110.7, -705897.75, -21182.055, -0.012972472, -0.5517325, -668206.56, 53930.25, 0.0, 10.000366, 10.000023 
2.2749783e+3, 2.3630673e+2, -639057.06, -655908.1, -15216.789, 0.0003490912, -0.5797729, -630088.9, -5951.156, 0.0, 10.000063, 9.99984 
2.2749574e+3, 2.4630648e+2, -583184.06, -584104.2, -28777.727, -0.0018429096, -0.57703567, -554862.7, -28722.467, 0.0, 9.9998, 9.999786 
2.2749366e+3, 2.5630647e+2, -530198.94, -523823.25, -30283.621, -0.014924919, -0.5551257, -496560.16, -68418.57, 0.0, 9.999559, 9.999643 
2.2749157e+3, 2.6630613e+2, -454881.28, -411410.22, -28612.816, -0.009064931, -0.5551928, -397213.5, -67068.76, 0.0, 9.999295, 9.999869 
2.2748953e+3, 2.763058e+2, -411015.63, -360335.28, -23675.635, 0.012929401, -0.57345, -350996.06, -118848.64, 0.0, 9.999013, 9.999683 
2.2748747e+3, 2.863053e+2, -355187.8, -284221.2, -23163.133, 0.039705973, -0.5792306, -277330.03, -143178.56, 0.0, 9.99873, 9.999669 
2.274854e+3, 2.963051e+2, -302183.84, -215704.52, -17519.162, 0.053620905, -0.56566215, -212290.25, -176137.34, 0.0, 9.998454, 9.999599 
2.2748326e+3, 3.0630434e+2, -226303.42, -71627.086, -11781.178, -0.0133804735, -0.63482463, -70734.9, -70734.9, 0.0, 9.998284, 10.000336 
2.274812e+3, 3.1630552e+2, -270456.44, -126997.55, -9885.148, 0.044520155, -0.5364231, -126319.6, -126319.6, 0.0, 9.998128, 10.0000305 
2.2852014e+3, 1.2633905e+2, -1346237.1, -1694414.4, 14955.337, 0.048625737, -0.4637421, -1345595.9, 356236.22, 0.10841066, 10.003593, 9.998415 
2.2851814e+3, 1.3633765e+2, -1290076.0, -1646091.5, 1240.1945, 0.0058372407, -0.43858662, -1290071.8, 313774.53, 0.0780065, 10.003288, 9.998216 
2.2851612e+3, 1.4633574e+2, -1213073.5, -1545164.9, -17482.04, 0.001103775, -0.45019844, -1212155.8, 293708.56, 0.047152665, 10.00298, 9.9983835 
2.285141e+3, 1.5633368e+2, -1157437.8, -1481140.6, -8513.911, 0.034110162, -0.4928329, -1157214.0, 250669.34, 0.02212211, 10.002668, 9.998301 
2.2851208e+3, 1.6633211e+2, -1058542.0, -1311892.0, 11000.818, 0.024205575, -0.50713485, -1058065.3, 251831.72, 0.0070884903, 10.002336, 9.99895 
2.2851005e+3, 1.7633106e+2, -1017238.5, -1255227.6, 5817.603, -0.015349677, -0.50445306, -1017096.4, 194808.8, 0.0011483129, 10.001992, 9.998831 
2.2850803e+3, 1.8632977e+2, -946334.3, -1127133.9, -11128.421, -0.020233009, -0.52805245, -945651.94, 168264.03, 0.000040776646, 10.001618, 9.999218 
2.28506e+3, 1.9632855e+2, -913347.44, -1073091.9, -12686.516, -0.0026375446, -0.56861496, -912346.2, 103580.23, 0.00000000020988672, 10.001226, 9.9991045 
2.2850396e+3, 2.0632781e+2, -838851.6, -939857.25, -2050.3247, -0.0025301296, -0.5681073, -838810.0, 79123.445, 0.0, 10.000865, 9.999521 
2.2850193e+3, 2.1632756e+2, -796007.06, -877225.3, 5016.39, -0.013648497, -0.54314375, -795698.4, 24238.03, 0.0, 10.000524, 9.999443 
2.2849987e+3, 2.2632718e+2, -700561.75, -709184.75, -6770.2217, -0.014312836, -0.55129397, -696846.75, 25092.424, 0.0, 10.000199, 10.000079 
2.284978e+3, 2.3632693e+2, -660520.6, -658602.9, -13091.7, -0.007757849, -0.5806589, -646435.0, -22495.117, 0.0, 9.999886, 9.999906 
2.2849573e+3, 2.4632682e+2, -605183.0, -579972.94, -21746.008, -0.0041999295, -0.57478136, -567442.8, -41501.766, 0.0, 9.999588, 9.999915 
2.284936e+3, 2.5632697e+2, -559652.75, -524553.75, -9948.448, -0.0044960584, -0.54753435, -521930.1, -93989.66, 0.0, 9.999302, 9.999761 
2.284915e+3, 2.6632667e+2, -482176.47, -419024.66, -5781.748, -0.005273279, -0.55530185, -418499.7, -88556.05, 0.0, 9.999086, 9.999916 
2.284894e+3, 2.763262e+2, -422253.78, -358789.22, -6860.139, -0.00027041632, -0.58785564, -358056.16, -126108.75, 0.0, 9.998908, 9.999743 
2.2848733e+3, 2.86326e+2, -349199.2, -262160.97, -6174.394, 0.038309418, -0.577831, -261725.16, -127776.54, 0.0, 9.998691, 9.999839 
2.2848526e+3, 2.9632625e+2, -291861.8, -193291.34, 4174.1367, 0.07732339, -0.5344875, -193114.9, -157169.58, 0.0, 9.998452, 9.999754 
2.2848304e+3, 3.0632484e+2, -252986.38, -84263.016, -4099.3657, -0.03858268, -0.6746917, -84163.48, -84163.48, 0.0, 9.998102, 10.000335 
2.2848101e+3, 3.1632638e+2, -296379.78, -92005.26, 258.28943, 0.046866402, -0.5421243, -92004.93, -92004.93, 0.0, 9.997749, 10.000451 
2.2952046e+3, 1.2635887e+2, -1351474.9, -1709534.0, 3589.1724, 0.008797142, -0.46868074, -1351439.0, 350199.22, 0.10879294, 10.00361, 9.998299 
2.2951853e+3, 1.3635752e+2, -1294034.1, -1655864.8, -10021.412, 0.06632949, -0.42726845, -1293756.8, 309895.66, 0.078293145, 10.003291, 9.998149 
2.2951646e+3, 1.4635576e+2, -1196579.8, -1510295.6, -29026.54, 0.04464527, -0.4335483, -1193916.6, 311752.16, 0.047343306, 10.002982, 9.998624 
2.2951433e+3, 1.5635392e+2, -1142349.1, -1451044.9, -20693.39, -0.009994256, -0.47687528, -1140968.1, 266716.97, 0.022232022, 10.002675, 9.998505 
2.2951227e+3, 1.6635232e+2, -1059861.6, -1316399.5, -2223.8345, -0.01521986, -0.5038285, -1059842.4, 249856.6, 0.0071412507, 10.002341, 9.998917 
2.2951028e+3, 1.7635101e+2, -1019275.3, -1260582.5, -7625.5757, 0.005514353, -0.52083915, -1019034.56, 192674.8, 0.0011673318, 10.001995, 9.998795 
2.295082e+3, 1.8634985e+2, -948116.6, -1132055.1, -25952.666, 0.0016592968, -0.529906, -944525.0, 169194.6, 0.000044358083, 10.001621, 9.999184 
2.295061e+3, 1.9634895e+2, -912111.8, -1071950.1, -27078.078, -0.01546736, -0.53518784, -907649.1, 108078.47, 0.0000000020348991, 10.00123, 9.999112 
2.2950403e+3, 2.063483e+2, -820074.5, -902236.94, -14635.931, -0.017637677, -0.54075474, -817545.2, 100188.14, 0.0, 10.000868, 9.999779 
2.2950198e+3, 2.1634798e+2, -780958.25, -847162.94, -7371.5938, -0.0116926655, -0.5472724, -780147.4, 39588.332, 0.0, 10.000526, 9.999649 
2.2949988e+3, 2.2634758e+2, -708168.56, -726383.6, -18333.23, -0.015909657, -0.56088054, -696805.25, 24933.709, 0.0, 10.000203, 9.999961 
2.2949778e+3, 2.3634732e+2, -664222.4, -667809.8, -24859.967, -0.024785059, -0.5792837, -641091.5, -17350.8, 0.0, 9.999889, 9.999841 
2.2949567e+3, 2.4634738e+2, -583393.7, -536113.6, -32645.506, -0.006317333, -0.56978077, -519447.56, 6292.3145, 0.0, 9.999592, 10.000216 
2.2949357e+3, 2.563478e+2, -541226.56, -487393.28, -20298.625, 0.025427898, -0.5443227, -480597.3, -52861.78, 0.0, 9.999304, 10.000016 
2.2949143e+3, 2.6634756e+2, -484413.56, -424647.1, -12833.313, 0.010493085, -0.553991, -422008.0, -92269.95, 0.0, 9.999088, 9.999878 
2.2948925e+3, 2.7634707e+2, -421934.72, -359239.0, -14547.079, -0.024679733, -0.5866529, -356028.13, -124285.31, 0.0, 9.99891, 9.99974 
2.2948718e+3, 2.8634697e+2, -332677.06, -228903.34, -15983.943, 0.0211466, -0.57823217, -226497.19, -92754.01, 0.0, 9.9986925, 10.000067 
2.2948511e+3, 2.9634738e+2, -281283.22, -172423.19, -6291.4175, 0.09023457, -0.5421011, -172060.78, -136322.39, 0.0, 9.998454, 9.999897 
2.2948281e+3, 3.0634633e+2, -274639.63, -129619.46, -21747.021, -0.055008847, -0.63708705, -126428.516, -126428.516, 0.0, 9.998101, 10.000025 
2.2948076e+3, 3.163469e+2, -224883.17, 56799.5, 23187.691, 0.044938497, -0.57535076, 58695.51, 58695.51, 0.0, 9.9977455, 10.001476 
2.3052084e+3, 1.2637925e+2, -1246728.1, -1660329.9, 13893.25, -0.008774089, -0.4650246, -1246262.0, 455176.63, 0.10895604, 10.00443, 9.998274 
2.3051888e+3, 1.3637778e+2, -1286877.1, -1652867.6, 9312.706, 0.08854959, -0.4329408, -1286640.4, 316813.63, 0.07841184, 10.00335, 9.998139 
2.3051678e+3, 1.463761e+2, -1195884.3, -1500179.8, 3745.9927, 0.061662942, -0.43622556, -1195838.1, 309631.5, 0.047422588, 10.002949, 9.998709 
2.305146e+3, 1.5637445e+2, -1097185.6, -1420439.1, -316.43796, -0.025383366, -0.46867684, -1097185.3, 310298.8, 0.022282496, 10.00296, 9.998576 
2.305125e+3, 1.6637287e+2, -1028982.1, -1302812.1, 2990.45, -0.029616065, -0.4951785, -1028949.5, 280548.34, 0.0071711424, 10.002563, 9.998902 
2.3051047e+3, 1.763715e+2, -1030253.44, -1266004.3, -726.9069, 0.012280828, -0.51819956, -1030251.2, 181257.88, 0.0011814176, 10.001924, 9.99879 
2.3050837e+3, 1.8637034e+2, -958214.25, -1129290.4, -8625.013, 0.010596311, -0.52899915, -957780.5, 155738.6, 0.0000476708, 10.001523, 9.9992485 
2.3050623e+3, 1.9636953e+2, -902341.4, -1059395.5, -3893.9934, -0.015969155, -0.5330627, -902244.9, 113281.5, 0.000000006496825, 10.0012665, 9.99918 
2.3050413e+3, 2.0636894e+2, -819338.1, -891225.75, -1081.4918, -0.020486096, -0.53890485, -819321.9, 98209.29, 0.0, 10.000831, 9.999871 
2.3050202e+3, 2.163687e+2, -809608.06, -850562.4, -5489.354, -0.012343784, -0.5470511, -808885.06, 10647.509, 0.0, 10.000288, 9.999739 
2.3049991e+3, 2.2636838e+2, -742231.56, -734460.06, -6758.409, -0.014805461, -0.5606364, -730550.0, -9015.028, 0.0, 9.999936, 10.000033 
2.3049775e+3, 2.3636821e+2, -687257.3, -670947.44, 806.7354, -0.02229147, -0.5778198, -670907.6, -47371.613, 0.0, 9.9997, 9.99991 
2.3049563e+3, 2.4636827e+2, -599934.56, -537230.44, -13356.042, -0.004995432, -0.5741667, -534504.1, -8969.117, 0.0, 9.999451, 10.000275 
2.3049349e+3, 2.5636867e+2, -553183.3, -485563.44, -18873.951, 0.024023546, -0.55860597, -480652.1, -53121.246, 0.0, 9.999191, 10.000082 
2.3049134e+3, 2.663686e+2, -503781.63, -421487.4, -10239.174, 0.011228317, -0.5599445, -420232.56, -90700.984, 0.0, 9.998903, 9.999988 
2.3048913e+3, 2.763684e+2, -459915.22, -366070.7, -474.16666, -0.01832714, -0.5739317, -366068.28, -134534.77, 0.0, 9.998602, 9.999841 
2.3048703e+3, 2.863682e+2, -366804.97, -240682.47, -4629.2666, 0.020634513, -0.58229864, -240512.78, -106977.72, 0.0, 9.998441, 10.000107 
2.3048493e+3, 2.963683e+2, -297156.6, -178179.47, -10935.8955, 0.073392555, -0.58174276, -177182.64, -141649.0, 0.0, 9.998339, 9.999912 
2.3048264e+3, 3.063681e+2, -292696.4, -144905.38, -28253.707, -0.049857877, -0.5847215, -139688.19, -139688.19, 0.0, 9.998009, 9.999964 
2.3048052e+3, 3.163679e+2, -221523.58, 91345.08, 59259.355, 0.038607623, -0.60219735, 102193.055, 102193.055, 0.0, 9.997629, 10.001768 
2.315213e+3, 1.2640023e+2, -1243881.0, -1653741.1, -23447.889, -0.006343215, -0.45375594, -1242543.9, 458689.25, 0.108884916, 10.004425, 9.998328 
2.3151919e+3, 1.3639848e+2, -1283410.0, -1647298.8, -24169.418, 0.074048534, -0.454386, -1281811.8, 321438.75, 0.07835158, 10.003357, 9.998176 
2.3151706e+3, 1.4639679e+2, -1199323.0, -1510216.5, 3887.4717, 0.05354223, -0.4569327, -1199274.4, 305992.1, 0.04738296, 10.002957, 9.998634 
2.3151489e+3, 1.563953e+2, -1101308.8, -1430102.9, -3271.9658, -0.013483875, -0.46765786, -1101276.3, 306003.84, 0.022268422, 10.002961, 9.99851 
2.3151277e+3, 1.6639379e+2, -1029373.3, -1304169.1, -21233.969, -0.02049968, -0.48126614, -1027742.2, 281551.03, 0.0071749436, 10.002563, 9.998894 
2.3151067e+3, 1.7639248e+2, -1028496.4, -1263496.5, -23058.463, 0.0051423674, -0.49729183, -1026255.25, 185048.86, 0.0011891417, 10.001926, 9.998807 
2.3150852e+3, 1.8639125e+2, -947102.75, -1107592.3, -18097.088, 0.007024686, -0.52564913, -945087.4, 168227.17, 0.000050385515, 10.001526, 9.999397 
2.3150638e+3, 1.9639027e+2, -893735.5, -1042665.06, -14846.461, -0.004433922, -0.56134075, -892269.9, 123052.88, 0.000000012642861, 10.001269, 9.999294 
2.315042e+3, 2.0638974e+2, -824298.44, -902753.56, -21390.22, -0.011476179, -0.5618235, -818845.56, 98481.52, 0.0, 10.0008335, 9.999792 
2.3150203e+3, 2.163897e+2, -811151.56, -855174.44, -24123.19, -0.01591399, -0.5426275, -800506.7, 18820.393, 0.0, 10.000292, 9.999707 
2.3149988e+3, 2.2638956e+2, -723624.0, -697297.25, -15363.55, -0.011022402, -0.55075175, -690229.1, 31098.262, 0.0, 9.99994, 10.000287 
2.3149775e+3, 2.3638956e+2, -673115.25, -642864.1, -8128.923, -0.00007264371, -0.5760585, -640818.1, -17492.146, 0.0, 9.999702, 10.000103 
2.3149557e+3, 2.4638943e+2, -612972.6, -565636.2, -23082.945, -0.00046306182, -0.58796775, -556243.75, -30916.914, 0.0, 9.9994545, 10.000079 
2.3149335e+3, 2.5638947e+2, -561976.0, -505220.88, -29219.361, -0.01001666, -0.5910232, -492866.9, -65540.055, 0.0, 9.999195, 9.999947 
2.314912e+3, 2.6638964e+2, -485481.5, -384479.06, -22420.998, -0.0034606038, -0.5733971, -379725.66, -50400.87, 0.0, 9.998905, 10.000242 
2.3148903e+3, 2.763901e+2, -446066.84, -337747.16, -11180.26, 0.020245781, -0.5490783, -336605.22, -105285.195, 0.0, 9.998602, 10.000036 
2.3148689e+3, 2.8638956e+2, -378415.88, -265161.2, -9101.156, 0.03728353, -0.59048134, -264434.47, -131109.47, 0.0, 9.99844, 9.99994 
2.3148471e+3, 2.9638883e+2, -305928.13, -197092.88, -18545.545, 0.024550274, -0.6556522, -194019.5, -158687.4, 0.0, 9.99834, 9.999783 
2.3148248e+3, 3.063901e+2, -278780.06, -116488.75, -46348.527, -0.021161929, -0.5150696, -104184.93, -104184.93, 0.0, 9.998008, 10.000161 
2.3148027e+3, 3.163892e+2, -259322.11, 12077.615, 57613.082, 0.01881763, -0.6212309, 23801.36, 23801.36, 0.0, 9.99763, 10.001225 
2.3252173e+3, 1.2642172e+2, -1280519.3, -1677587.4, -3099.7285, 0.013194804, -0.45726973, -1280495.0, 420527.6, 0.108568974, 10.004172, 9.998265 
2.3251954e+3, 1.364199e+2, -1228850.6, -1624863.6, -8388.994, 0.044299502, -0.45858687, -1228673.0, 374367.7, 0.0781042, 10.003791, 9.998119 
2.3251733e+3, 1.464182e+2, -1149252.5, -1488591.0, 33447.324, 0.02951271, -0.45891088, -1145987.1, 359069.6, 0.047218896, 10.003333, 9.998606 
2.3251522e+3, 1.564167e+2, -1121161.8, -1442538.9, 28180.443, 0.00052364176, -0.4650416, -1118709.4, 288360.78, 0.022186173, 10.002836, 9.998484 
2.3251304e+3, 1.6641515e+2, -1055959.5, -1317016.0, 2534.6233, -0.004881781, -0.4802155, -1055934.9, 253148.94, 0.0071502347, 10.002383, 9.998891 
2.3251083e+3, 1.7641382e+2, -1023507.0, -1260181.5, 1480.7124, 0.00077493634, -0.50109196, -1023497.75, 187597.72, 0.0011893669, 10.00196, 9.998812 
2.3250867e+3, 1.8641265e+2, -940564.2, -1097633.1, 8221.63, 0.00094151736, -0.5259498, -940135.0, 172970.27, 0.000052244875, 10.001545, 9.999455 
2.325065e+3, 1.9641179e+2, -909727.25, -1044086.4, 3678.1157, -0.001328852, -0.5538551, -909626.7, 105485.43, 0.000000017833118, 10.001136, 9.999348 
2.3250428e+3, 2.0641127e+2, -835633.1, -905813.8, -5038.167, -0.0077343984, -0.5578402, -835273.3, 81842.984, 0.0, 10.000748, 9.999811 
2.3250207e+3, 2.1641114e+2, -798174.2, -846522.6, -568.08374, -0.01660032, -0.54826385, -798167.56, 20949.414, 0.0, 10.000373, 9.999726 
2.3249988e+3, 2.2641104e+2, -719791.56, -692185.75, 3620.8823, -0.011923319, -0.5551176, -691718.7, 29398.143, 0.0, 9.999954, 10.000314 
2.324977e+3, 2.3641114e+2, -698940.3, -652000.2, -5390.3584, 0.0013439602, -0.5730639, -651389.1, -28274.676, 0.0, 9.999514, 10.00013 
2.324955e+3, 2.46411e+2, -637195.2, -572911.9, -10971.377, -0.002003453, -0.5897422, -571091.0, -45975.703, 0.0, 9.999271, 10.000116 
2.3249328e+3, 2.5641093e+2, -567647.06, -504270.1, -555.42664, -0.0174099, -0.6043914, -504265.22, -77149.41, 0.0, 9.999143, 9.999977 
2.3249109e+3, 2.6641116e+2, -485494.16, -383050.7, -2868.4475, -0.005203211, -0.58554566, -382970.44, -53856.99, 0.0, 9.998901, 10.000253 
2.3248892e+3, 2.7641168e+2, -446953.75, -336444.34, -8984.573, 0.030443318, -0.55291915, -335718.66, -104610.67, 0.0, 9.99859, 10.00005 
2.3248672e+3, 2.864112e+2, -391565.78, -266227.16, 688.3354, 0.036538284, -0.59497815, -266223.38, -133110.78, 0.0, 9.998329, 9.999985 
2.3248452e+3, 2.9641044e+2, -339899.94, -210573.4, 6339.192, 0.001871745, -0.6641782, -210263.42, -175144.0, 0.0, 9.998096, 9.999806 
2.3248227e+3, 3.064117e+2, -278279.66, -126892.49, -29604.285, 0.0065845777, -0.52057946, -121309.19, -121309.19, 0.0, 9.998059, 10.000063 
2.3248003e+3, 3.1641057e+2, -225018.08, -13416.737, 40049.53, -0.004239419, -0.6355334, -6090.2817, -6090.2817, 0.0, 9.998048, 10.000848 
2.3352219e+3, 1.2644374e+2, -1292252.0, -1701468.5, -17047.184, 0.04687595, -0.47463426, -1291543.0, 409263.78, 0.108001634, 10.004165, 9.998087 
2.3351985e+3, 1.3644205e+2, -1237200.3, -1646348.0, -22877.775, -0.000059746857, -0.44628292, -1235925.0, 366899.25, 0.07766264, 10.0037985, 9.99797 
2.3351763e+3, 1.4644031e+2, -1147742.3, -1487977.0, 14992.738, -0.009407451, -0.44309244, -1147082.9, 357757.63, 0.04692422, 10.003342, 9.998608 
2.335155e+3, 1.5643871e+2, -1120896.6, -1442504.5, 9542.411, 0.01631687, -0.46100137, -1120613.8, 286240.66, 0.022031294, 10.002835, 9.998486 
2.3351328e+3, 1.6643701e+2, -1056518.6, -1318730.8, -13628.021, 0.01667855, -0.49149498, -1055812.3, 253057.25, 0.0070946203, 10.002383, 9.99888 
2.3351103e+3, 1.7643549e+2, -1024203.5, -1262773.3, -14522.439, -0.0011230354, -0.5284713, -1023322.7, 187560.31, 0.0011813338, 10.001963, 9.998795 
2.3350881e+3, 1.8643452e+2, -942771.7, -1103408.1, -7244.1367, -0.007744373, -0.52948314, -942445.6, 170445.61, 0.000053136322, 10.001548, 9.999415 
2.3350659e+3, 1.9643408e+2, -910387.06, -1046537.44, -11466.3125, -0.0066488595, -0.5114586, -909428.2, 105466.31, 0.000000019606611, 10.001138, 9.9993305 
2.3350434e+3, 2.064335e+2, -827597.2, -890326.1, -18974.408, -0.009214747, -0.5276608, -822304.4, 94594.65, 0.0, 10.000751, 9.999917 
2.335021e+3, 2.1643302e+2, -793357.6, -837759.5, -14625.042, -0.014473301, -0.5637823, -788973.3, 29928.924, 0.0, 10.000376, 9.999785 
2.3349988e+3, 2.2643279e+2, -733986.2, -723025.25, -12937.377, -0.017698811, -0.57348603, -714455.4, 6448.1484, 0.0, 9.999958, 10.000102 
2.3349763e+3, 2.3643291e+2, -708366.9, -672994.3, -20459.979, -0.018639566, -0.56896544, -663635.9, -40734.105, 0.0, 9.999517, 9.999985 
2.3349541e+3, 2.4643292e+2, -617808.4, -534030.1, -15850.825, -0.009669487, -0.57932454, -531131.44, -6230.7744, 0.0, 9.999274, 10.000382 
2.3349321e+3, 2.5643307e+2, -553573.5, -476403.78, -6370.8057, 0.0026562894, -0.5979911, -475881.38, -48983.42, 0.0, 9.999146, 10.000168 
2.3349099e+3, 2.6643303e+2, -502598.53, -419784.94, -15120.51, 0.0061397124, -0.5964424, -417110.53, -88212.46, 0.0, 9.998904, 10.0 
2.3348874e+3, 2.764331e+2, -459270.4, -363229.38, -21124.813, 0.010506249, -0.5870824, -358788.22, -127890.03, 0.0, 9.998593, 9.999866 
2.3348655e+3, 2.86433e+2, -373173.47, -228794.69, -9294.694, 0.017475892, -0.5952595, -228198.78, -95300.27, 0.0, 9.99833, 10.000242 
2.3348433e+3, 2.9643315e+2, -327855.22, -185688.53, -1912.4647, 0.006838979, -0.602919, -185662.8, -150767.03, 0.0, 9.998095, 9.999979 
2.3348212e+3, 3.0643278e+2, -307299.8, -188298.08, -27614.977, 0.03321082, -0.6085947, -182202.14, -182202.14, 0.0, 9.998062, 9.999641 
2.3347981e+3, 3.1643227e+2, -237225.61, -41527.453, -3870.4836, -0.025521858, -0.6145986, -41450.934, -41450.934, 0.0, 9.998056, 10.000651 
2.3452261e+3, 1.2646636e+2, -1336098.4, -1728348.6, -1310.2941, 0.07268431, -0.45525384, -1336094.0, 364491.94, 0.10718187, 10.0038395, 9.998058 
2.3452021e+3, 1.3646452e+2, -1207339.1, -1633900.0, -41.800915, -0.025569053, -0.4380002, -1207339.1, 395265.44, 0.07702433, 10.004034, 9.997939 
2.3451795e+3, 1.464627e+2, -1121840.4, -1481374.4, 20128.934, -0.032048006, -0.44046974, -1120716.9, 383904.72, 0.046495408, 10.003556, 9.99855 
2.345158e+3, 1.56461e+2, -1143658.1, -1458188.9, 11902.228, 0.027711205, -0.46024996, -1143208.4, 263427.88, 0.021800611, 10.002697, 9.998443 
2.3451352e+3, 1.6645935e+2, -1079240.8, -1324539.6, 263.28552, 0.030631995, -0.48748642, -1079240.5, 229410.44, 0.007006479, 10.002206, 9.998924 
2.3451123e+3, 1.7645793e+2, -1026920.8, -1259855.3, 2253.3044, -0.0027339733, -0.5186429, -1026899.06, 183764.56, 0.0011647528, 10.001928, 9.998829 
2.3450896e+3, 1.8645695e+2, -951978.75, -1110162.0, 7687.7275, -0.009763058, -0.5204172, -951606.0, 161065.9, 0.000053067106, 10.001497, 9.999392 
2.3450671e+3, 1.9645645e+2, -935045.7, -1060414.1, 4628.0483, -0.0004298805, -0.5063926, -934875.06, 79800.586, 0.000000017443154, 10.000979, 9.9993105 
2.3450442e+3, 2.0645584e+2, -852667.56, -902517.25, -4457.584, -0.003220075, -0.5238526, -852272.1, 64408.22, 0.0, 10.000582, 9.999913 
2.3450212e+3, 2.1645536e+2, -812234.1, -848054.4, -8691.217, -0.013428041, -0.5601538, -810236.7, 8446.894, 0.0, 10.000254, 9.999772 
2.3449986e+3, 2.2645508e+2, -738629.75, -733365.9, -3765.786, -0.019475784, -0.56983054, -731403.44, -10718.031, 0.0, 9.999964, 10.000027 
2.3449758e+3, 2.3645513e+2, -687644.7, -669837.5, -822.07935, -0.021959018, -0.56473845, -669799.6, -47115.164, 0.0, 9.999692, 9.999922 
2.3449534e+3, 2.4645512e+2, -613459.5, -531067.44, -3202.433, -0.009163519, -0.57248807, -530943.1, -6259.823, 0.0, 9.999303, 10.000388 
2.3449312e+3, 2.5645533e+2, -595862.9, -495074.47, -12399.095, 0.010223281, -0.5880102, -493571.53, -66891.37, 0.0, 9.998851, 10.00018 
2.3449087e+3, 2.6645526e+2, -533740.56, -427322.1, -9539.866, 0.0073936824, -0.5959976, -426473.66, -97793.08, 0.0, 9.998661, 10.000064 
2.3448859e+3, 2.7645522e+2, -452114.3, -352373.63, 7543.9116, -0.0025876565, -0.60182893, -351806.28, -121124.96, 0.0, 9.998613, 9.999929 
2.3448637e+3, 2.8645533e+2, -357983.1, -213025.03, 16393.506, 0.010674847, -0.59656423, -211194.19, -78514.63, 0.0, 9.998401, 10.000316 
2.3448415e+3, 2.9645574e+2, -326034.75, -182531.88, 11010.012, 0.019261312, -0.5794325, -181692.06, -147018.33, 0.0, 9.9981, 9.999997 
2.3448192e+3, 3.0645466e+2, -348886.78, -238612.23, -6459.7417, 0.021199802, -0.6439812, -238235.13, -238235.13, 0.0, 9.99791, 9.999368 
2.3447959e+3, 3.1645438e+2, -251552.14, 12597.015, 2544.5657, -0.02959568, -0.60748255, 12621.523, 12621.523, 0.0, 9.997699, 10.001194 
2.35523e+3, 1.2648961e+2, -1328163.0, -1712850.0, 4179.5376, 0.09097465, -0.40183058, -1328117.6, 372242.16, 0.106113754, 10.003846, 9.998162 
2.355206e+3, 1.3648738e+2, -1203411.4, -1624295.9, 549.5313, -0.03419874, -0.43378147, -1203410.6, 398970.6, 0.07619453, 10.004025, 9.998011 
2.355183e+3, 1.4648537e+2, -1130661.8, -1499257.8, -11711.201, -0.040055424, -0.4503125, -1130290.0, 374109.94, 0.045936737, 10.00355, 9.9984255 
2.3551607e+3, 1.5648362e+2, -1149528.0, -1471903.0, -17291.217, 0.034681156, -0.46233177, -1148603.1, 257812.14, 0.021496285, 10.0027, 9.998349 
2.3551375e+3, 1.664822e+2, -1072306.1, -1311683.4, -10246.066, 0.037351105, -0.46865368, -1071868.4, 236559.66, 0.0068864487, 10.002211, 9.999011 
2.3551142e+3, 1.7648113e+2, -1021223.5, -1249039.1, -9682.496, -0.0041951747, -0.47314137, -1020812.75, 189624.52, 0.0011397512, 10.00193, 9.998904 
2.3550911e+3, 1.8647994e+2, -952741.94, -1112721.3, -11983.831, -0.0054549747, -0.49940518, -951849.25, 160598.03, 0.00005205263, 10.001499, 9.999374 
2.3550682e+3, 1.964789e+2, -936891.6, -1065412.5, -13880.36, 0.016912926, -0.53775114, -935409.6, 79046.055, 0.000000012769815, 10.000982, 9.999276 
2.355045e+3, 2.0647828e+2, -860472.5, -920137.6, -16667.709, 0.009972307, -0.545636, -856132.0, 60328.387, 0.0, 10.000586, 9.999792 
2.3550215e+3, 2.1647812e+2, -818149.9, -861826.75, -20505.092, -0.013777052, -0.5373808, -810032.06, 8429.122, 0.0, 10.000258, 9.999677 
2.3549986e+3, 2.2647788e+2, -733870.8, -724966.9, -13678.33, -0.017297883, -0.54425335, -715034.25, 5428.46, 0.0, 9.999968, 10.000084 
2.3549758e+3, 2.3647775e+2, -686307.75, -668539.5, -12039.773, -0.008474963, -0.56033045, -662460.9, -39998.15, 0.0, 9.999696, 9.999929 
2.3549528e+3, 2.464776e+2, -631842.7, -570514.9, -20555.234, -0.0005778192, -0.5691645, -564262.75, -39799.18, 0.0, 9.999307, 10.000116 
2.3549299e+3, 2.5647762e+2, -607760.06, -520659.03, -27737.871, 0.0045240475, -0.57450455, -512575.88, -86112.88, 0.0, 9.998853, 10.000005 
2.3549072e+3, 2.664777e+2, -506349.34, -371347.9, -11766.117, -0.0018350038, -0.58379793, -370330.13, -41868.625, 0.0, 9.998662, 10.000449 
2.3548846e+3, 2.76478e+2, -429526.78, -306805.3, 3843.148, -0.008513069, -0.5961883, -306685.06, -76227.44, 0.0, 9.998617, 10.000241 
2.3548621e+3, 2.8647807e+2, -366800.84, -232358.97, 4048.8152, 0.016713, -0.59906924, -232237.14, -99780.9, 0.0, 9.998403, 10.000182 
2.3548399e+3, 2.964782e+2, -336616.56, -205256.05, -159.39499, 0.03931962, -0.59637237, -205255.86, -170801.56, 0.0, 9.998101, 9.999842 
2.3548163e+3, 3.0647734e+2, -357726.94, -257397.72, -13542.432, -0.03303104, -0.62285, -255601.9, -255601.9, 0.0, 9.99791, 9.99924 
2.3547937e+3, 3.1647664e+2, -156918.2, 210053.34, -19153.15, -0.0072442177, -0.6288707, 211050.28, 211050.28, 0.0, 9.997693, 10.002555 
2.3652336e+3, 1.265125e+2, -1320910.9, -1698413.9, 7998.788, 0.067994915, -0.3876586, -1320741.5, 379395.13, 0.10480172, 10.003851, 9.998259 
2.3652099e+3, 1.365104e+2, -1257300.1, -1641145.9, 545.6924, -0.01603901, -0.41622138, -1257299.4, 344857.3, 0.0751807, 10.003574, 9.998112 
2.3651865e+3, 1.4650844e+2, -1176879.0, -1509667.5, -20615.465, -0.023343412, -0.43849814, -1175606.8, 328567.8, 0.0452557, 10.003162, 9.998539 
2.3651631e+3, 1.5650672e+2, -1146072.8, -1459709.5, -8756.347, 0.026217598, -0.46081132, -1145828.5, 260361.11, 0.021123243, 10.00268, 9.998441 
2.3651397e+3, 1.6650532e+2, -1065305.5, -1309839.3, 10235.297, 0.02787804, -0.46529025, -1064877.9, 243323.98, 0.006736333, 10.002267, 9.998996 
2.365116e+3, 1.7650431e+2, -1027318.25, -1252727.8, 2001.5416, -0.0011054736, -0.4609425, -1027300.44, 182910.22, 0.0011064293, 10.001894, 9.998895 
2.3650925e+3, 1.8650311e+2, -958723.4, -1112500.1, -7184.367, -0.0006766804, -0.48968908, -958388.44, 153832.14, 0.000050042654, 10.001447, 9.9994 
2.3650691e+3, 1.96502e+2, -940299.2, -1067034.0, -5403.2466, 0.017455462, -0.5372738, -940069.2, 74160.016, 0.000000007665355, 10.000961, 9.999273 
2.3650454e+3, 2.0650129e+2, -868262.3, -941462.0, -2682.1704, 0.011380073, -0.545488, -868164.2, 48070.867, 0.0, 10.00061, 9.999632 
2.365022e+3, 2.1650103e+2, -817257.3, -876783.4, -10111.474, -0.00874313, -0.53201187, -815586.6, 2650.655, 0.0, 10.000333, 9.999537 
2.3649986e+3, 2.265007e+2, -741451.4, -731999.5, -11302.362, -0.010523286, -0.53806716, -724474.8, -4235.2993, 0.0, 9.999932, 10.0000515 
2.3649754e+3, 2.3650053e+2, -722379.56, -689702.8, -15570.6875, -0.00089277246, -0.556099, -683471.56, -61231.65, 0.0, 9.999467, 9.999893 
2.3649521e+3, 2.4650034e+2, -644899.7, -582991.7, -13293.804, 0.0036141379, -0.5652331, -580257.75, -56016.527, 0.0, 9.999246, 10.000059 
2.364929e+3, 2.565003e+2, -566416.0, -505220.03, -4643.5073, 0.0027551986, -0.5697416, -504869.7, -78628.48, 0.0, 9.999159, 9.999963 
2.3649058e+3, 2.6650038e+2, -481035.0, -354712.72, 507.97665, -0.004923102, -0.57796305, -354710.66, -26471.094, 0.0, 9.99882, 10.000485 
2.3648828e+3, 2.7650073e+2, -466027.38, -319069.34, -9307.391, -0.009172937, -0.5892833, -318482.22, -88247.055, 0.0, 9.998346, 10.000286 
2.3648606e+3, 2.8650084e+2, -393584.1, -238033.22, -5881.7627, 0.025508855, -0.5931142, -237811.14, -105577.85, 0.0, 9.998191, 10.000244 
2.3648381e+3, 2.9650104e+2, -318624.1, -189014.4, 3739.0503, 0.05789931, -0.59252936, -188906.63, -154675.67, 0.0, 9.998195, 9.999907 
2.364814e+3, 3.0650026e+2, -366983.66, -248714.05, 1054.4628, -0.062794395, -0.6205115, -248704.64, -248704.64, 0.0, 9.997791, 9.999356 
2.3647913e+3, 3.1649965e+2, -204023.78, 216170.23, 16657.896, 0.0049385773, -0.6294732, 216829.58, 216829.58, 0.0, 9.997249, 10.0028105 
2.3752367e+3, 1.2653513e+2, -1315044.1, -1687849.5, -1615.5525, 0.0073970705, -0.40992817, -1315037.1, 384878.44, 0.10325145, 10.003852, 9.99834 
2.3752141e+3, 1.3653365e+2, -1250229.8, -1624318.4, -10340.409, 0.026256066, -0.38553122, -1249944.1, 351986.0, 0.07398817, 10.003564, 9.998233 
2.37519e+3, 1.4653194e+2, -1155579.5, -1465031.4, -38267.883, 0.015529384, -0.40611276, -1150917.5, 353027.75, 0.044456936, 10.003157, 9.998861 
2.3751655e+3, 1.5653025e+2, -1128047.5, -1422596.8, -26325.773, 0.0029088398, -0.45603368, -1125713.1, 280245.78, 0.020684918, 10.002681, 9.998696 
2.3751415e+3, 1.6652873e+2, -1073436.6, -1327907.8, -4039.4832, 0.0031242226, -0.47671577, -1073372.5, 234599.88, 0.0065578343, 10.00227, 9.998872 
2.375118e+3, 1.7652753e+2, -1033790.25, -1266872.4, -12866.748, 0.006215835, -0.48060736, -1033082.1, 176901.48, 0.0010650834, 10.001895, 9.998798 
2.375094e+3, 1.865265e+2, -954219.9, -1104256.5, -25653.271, 0.004366053, -0.49058172, -949954.94, 162036.84, 0.000047060163, 10.00145, 9.999456 
2.3750699e+3, 1.9652577e+2, -938253.1, -1064339.9, -22576.313, 0.0013874746, -0.5055633, -934332.6, 79663.83, 0.000000003596552, 10.000966, 9.99929 
2.3750459e+3, 2.0652486e+2, -881799.8, -971107.0, -12967.406, 0.0011839104, -0.5239319, -879955.06, 36049.26, 0.0, 10.000614, 9.999428 
2.3750222e+3, 2.1652405e+2, -830199.56, -904993.06, -21293.188, 0.0016063835, -0.54406565, -824562.44, -6550.4507, 0.0, 10.000337, 9.999343 
2.3749985e+3, 2.2652355e+2, -750150.44, -751316.25, -28888.193, 0.0006830713, -0.5511368, -721839.3, -1823.2319, 0.0, 9.999936, 9.999918 
2.3749748e+3, 2.3652342e+2, -728061.44, -702706.75, -31157.32, 0.00034446642, -0.55197203, -681746.4, -59730.145, 0.0, 9.99947, 9.999804 
2.3749514e+3, 2.4652329e+2, -633307.1, -560417.3, -16502.08, 0.0032448268, -0.56070274, -556855.3, -32838.73, 0.0, 9.99925, 10.000214 
2.374928e+3, 2.565233e+2, -559686.4, -493209.13, -10228.5625, 0.004916594, -0.5739504, -491670.88, -65655.73, 0.0, 9.999165, 10.000043 
2.3749046e+3, 2.6652327e+2, -503799.72, -403359.94, -18451.082, -0.0017991937, -0.57867306, -400077.7, -72062.35, 0.0, 9.998824, 10.000151 
2.3748814e+3, 2.7652338e+2, -483155.25, -354882.28, -25495.64, -0.0046227043, -0.58126444, -350000.53, -119985.86, 0.0, 9.998345, 10.000042 
2.3748587e+3, 2.8652358e+2, -375242.75, -200302.28, -6589.365, 0.037078645, -0.57844543, -200054.44, -68042.97, 0.0, 9.99819, 10.000505 
2.3748364e+3, 2.9652417e+2, -297349.9, -146205.77, -1012.27954, 0.07480898, -0.5667787, -146198.98, -112194.65, 0.0, 9.9981985, 10.0002 
2.3748115e+3, 3.065233e+2, -341466.88, -195802.36, -24074.865, -0.06660653, -0.6377181, -191926.48, -191926.48, 0.0, 9.997789, 9.999722 
2.3747885e+3, 3.1652346e+2, -275924.28, 68554.414, 34464.703, -0.0018191641, -0.59320694, 71968.734, 71968.734, 0.0, 9.997239, 10.0018015 
2.3852405e+3, 1.2655848e+2, -1309624.5, -1672870.6, 19837.906, -0.017753493, -0.4194701, -1308544.3, 391141.84, 0.10147277, 10.003827, 9.998466 
2.3852175e+3, 1.3655712e+2, -1321334.6, -1647196.9, 16604.678, 0.048748493, -0.3970897, -1320490.6, 281208.9, 0.07262089, 10.002973, 9.998361 
2.3851931e+3, 1.4655557e+2, -1219539.6, -1483349.0, -9088.502, 0.033890784, -0.41252512, -1219226.9, 284486.34, 0.0435418, 10.00264, 9.998978 
2.385168e+3, 1.5655409e+2, -1134283.5, -1414418.9, -12197.957, -0.011238573, -0.45301083, -1133753.4, 271971.88, 0.020182766, 10.002589, 9.9987955 
2.3851438e+3, 1.6655262e+2, -1078778.4, -1330508.3, 4321.602, -0.0092406105, -0.47406536, -1078704.1, 229034.33, 0.0063527673, 10.002234, 9.99887 
2.38512e+3, 1.7655134e+2, -1060848.5, -1281117.6, 4370.8535, 0.014721719, -0.48386213, -1060761.9, 148988.42, 0.0010167558, 10.001716, 9.998786 
2.3850955e+3, 1.8655026e+2, -965897.1, -1118265.8, -8276.038, 0.010714309, -0.49464843, -965448.94, 146310.08, 0.000043354004, 10.001408, 9.999379 
2.3850708e+3, 1.9654948e+2, -907810.25, -1058040.3, -15649.064, -0.0072557717, -0.5070927, -906197.5, 107566.76, 0.0000000010889621, 10.001213, 9.999214 
2.3850466e+3, 2.0654851e+2, -857821.2, -967898.8, -5676.4946, -0.0054090084, -0.52333343, -857529.25, 58243.426, 0.0, 10.000817, 9.999351 
2.3850226e+3, 2.1654762e+2, -840035.94, -919360.2, -4792.9546, 0.0066715227, -0.5420979, -839747.4, -21966.465, 0.0, 10.000313, 9.999254 
2.3849985e+3, 2.2654697e+2, -748667.8, -768166.5, -8075.482, 0.0062871333, -0.5524676, -745757.7, -25971.002, 0.0, 10.000024, 9.999759 
2.3849744e+3, 2.3654664e+2, -682307.4, -696091.3, -12192.15, 0.00043631837, -0.55875164, -675194.06, -53404.973, 0.0, 9.999853, 9.999663 
2.3849507e+3, 2.4654643e+2, -601152.5, -549345.7, -6663.693, 0.004830487, -0.5635692, -548502.3, -24712.416, 0.0, 9.999493, 10.000171 
2.3849273e+3, 2.565465e+2, -582621.06, -508984.25, -15215.097, 0.011568542, -0.56789595, -505964.3, -80176.414, 0.0, 9.99903, 9.999998 
2.3849036e+3, 2.6654637e+2, -518472.9, -417317.78, -17537.457, 0.00425179, -0.5777289, -414363.53, -86574.29, 0.0, 9.998755, 10.000087 
2.3848796e+3, 2.7654627e+2, -453786.06, -347043.88, -3938.8389, -0.0014240298, -0.59286696, -346898.72, -117107.98, 0.0, 9.998576, 9.999983 
2.384857e+3, 2.8654668e+2, -372324.47, -198771.72, 12396.811, 0.038649447, -0.5670574, -197890.7, -66105.086, 0.0, 9.998212, 10.000504 
2.3848343e+3, 2.965477e+2, -356924.5, -165677.4, -2911.0442, 0.073171474, -0.5137152, -165633.11, -131858.84, 0.0, 9.997753, 10.000279 
2.3848093e+3, 3.0654594e+2, -354631.47, -159619.06, -37824.246, -0.055366307, -0.6988664, -152539.73, -152539.73, 0.0, 9.997518, 10.000099 
2.3847859e+3, 3.1654733e+2, -286335.7, 2133.5623, 52038.945, -0.0020594937, -0.5614796, 11234.123, 11234.123, 0.0, 9.997435, 10.001249 
2.3952444e+3, 1.2658258e+2, -1300635.4, -1652488.8, -10316.738, -0.012794906, -0.41679376, -1300333.1, 399115.4, 0.09948083, 10.003809, 9.99863 
2.3952204e+3, 1.3658082e+2, -1312235.1, -1628873.3, -9671.893, 0.052990638, -0.4480395, -1311940.0, 289524.9, 0.071086586, 10.002975, 9.998486 
2.3951955e+3, 1.4657937e+2, -1223886.6, -1494797.9, -11144.747, 0.033512868, -0.45510143, -1223429.0, 280049.4, 0.042514775, 10.0026455, 9.998894 
2.3951706e+3, 1.5657826e+2, -1137785.6, -1422453.3, -17133.781, -0.017333914, -0.4514143, -1136758.1, 268730.3, 0.01962111, 10.002588, 9.998742 
2.395146e+3, 1.6657697e+2, -1071123.1, -1315241.6, -15646.463, -0.0103036165, -0.45797136, -1070124.4, 237375.63, 0.0061249505, 10.002234, 9.998976 
2.3951216e+3, 1.7657577e+2, -1056185.3, -1272861.5, -13682.1, 0.024186108, -0.47138458, -1055324.6, 154185.97, 0.0009634804, 10.001719, 9.998841 
2.3950969e+3, 1.8657438e+2, -980269.8, -1149511.3, -15652.55, 0.018194752, -0.5018051, -978834.3, 132687.92, 0.000039368104, 10.001411, 9.999165 
2.395072e+3, 1.9657312e+2, -919632.1, -1083680.9, -24705.299, -0.008824011, -0.54110265, -915992.3, 97540.164, 0.0000000001152025, 10.001216, 9.999038 
2.3950474e+3, 2.0657223e+2, -854574.44, -962352.9, -24760.275, -0.008577629, -0.54309773, -849158.4, 66381.65, 0.0, 10.00082, 9.999389 
2.395023e+3, 2.1657175e+2, -839150.6, -918863.5, -21766.7, 0.006181878, -0.5259606, -833594.25, -16049.968, 0.0, 10.000317, 9.999257 
2.3949985e+3, 2.2657092e+2, -761434.56, -796117.5, -14229.902, 0.0061671925, -0.54208523, -756343.56, -36792.01, 0.0, 10.000029, 9.999566 
2.3949741e+3, 2.365701e+2, -695630.5, -725381.0, -20344.092, -0.00066719943, -0.5766561, -685303.5, -63744.9, 0.0, 9.999858, 9.999461 
2.3949502e+3, 2.4656977e+2, -618067.06, -585915.75, -24474.227, 0.00836959, -0.5738381, -572709.75, -49148.395, 0.0, 9.999497, 9.999919 
2.3949262e+3, 2.5656986e+2, -594800.8, -535263.6, -31553.72, 0.02263959, -0.5513048, -521652.44, -96092.555, 0.0, 9.999033, 9.999818 
2.3949024e+3, 2.665696e+2, -503419.56, -387152.72, -24716.723, 0.013228421, -0.57519156, -382116.44, -54554.613, 0.0, 9.998758, 10.000294 
2.3948784e+3, 2.7656937e+2, -444083.66, -328749.47, -12817.508, 0.00011721158, -0.62514096, -327342.2, -97778.36, 0.0, 9.998582, 10.000107 
2.394855e+3, 2.865701e+2, -392479.66, -241475.17, -6460.7026, 0.029400714, -0.55901945, -241199.25, -109642.99, 0.0, 9.998214, 10.000211 
2.3948318e+3, 2.9657152e+2, -368874.4, -189311.38, -19727.574, 0.051531713, -0.43174613, -187169.58, -153628.13, 0.0, 9.9977455, 10.000122 
2.3948072e+3, 3.0656803e+2, -328309.0, -104115.7, -44034.52, -0.027548492, -0.8087515, -95776.9, -95776.9, 0.0, 9.997512, 10.000484 
2.3947832e+3, 3.165713e+2, -288777.63, -4987.2173, 58354.33, -0.0004669549, -0.5178244, 6543.3804, 6543.3804, 0.0, 9.99744, 10.001199 
2.4052478e+3, 1.2660685e+2, -1373365.9, -1674570.6, 726.60455, -0.010705643, -0.43952423, -1373364.1, 325845.0, 0.0972921, 10.003186, 9.99876 
2.4052234e+3, 1.366052e+2, -1316764.5, -1620107.1, 1906.5016, 0.04733525, -0.4729338, -1316752.5, 284471.7, 0.0693987, 10.002891, 9.998586 
2.4051982e+3, 1.4660382e+2, -1233999.0, -1508557.1, 11826.542, 0.030622877, -0.4720195, -1233490.5, 269746.94, 0.04138761, 10.002611, 9.998812 
2.405173e+3, 1.5660277e+2, -1178270.8, -1450142.1, 4708.4863, -0.011223288, -0.4543181, -1178189.3, 227058.7, 0.019009793, 10.002339, 9.998671 
2.4051481e+3, 1.6660146e+2, -1092106.6, -1326433.9, -5776.8564, -0.0076683224, -0.4567683, -1091964.4, 215295.42, 0.0058806916, 10.002095, 9.998964 
2.4051233e+3, 1.7660025e+2, -1036010.1, -1264852.3, -12033.556, 0.016490905, -0.47167814, -1035379.06, 173891.52, 0.0009078612, 10.001867, 9.998824 
2.4050984e+3, 1.8659884e+2, -966294.56, -1149022.6, -7345.4995, 0.01342222, -0.50140417, -965999.75, 145282.89, 0.00003557309, 10.001536, 9.999106 
2.4050732e+3, 1.9659752e+2, -934477.6, -1099062.4, -6190.5117, -0.0034015847, -0.5389178, -934245.06, 79048.36, 0.000000000004061441, 10.001152, 9.998962 
2.4050482e+3, 2.0659651e+2, -862632.1, -985304.3, -15592.339, -0.00479701, -0.5395324, -860681.25, 54621.094, 0.0, 10.00085, 9.999216 
2.4050231e+3, 2.1659587e+2, -810110.6, -921602.0, -28037.99, 0.0019397059, -0.52085066, -803456.75, 13851.686, 0.0, 10.00059, 9.999105 
2.4049985e+3, 2.2659497e+2, -740666.3, -790888.6, -17410.926, 0.0053760833, -0.5350581, -735220.75, -15904.436, 0.0, 10.000195, 9.999521 
2.4049741e+3, 2.3659413e+2, -719098.44, -742949.06, -12498.241, 0.008159667, -0.5679203, -713748.94, -92425.47, 0.0, 9.999726, 9.999403 
2.4049497e+3, 2.4659362e+2, -637753.75, -609891.5, -7803.3857, 0.013228634, -0.5697223, -607854.9, -84527.234, 0.0, 9.999427, 9.999787 
2.4049252e+3, 2.5659353e+2, -576745.75, -539814.25, -5846.924, 0.016587263, -0.5546905, -538910.7, -113582.414, 0.0, 9.999216, 9.999697 
2.4049011e+3, 2.6659322e+2, -490743.47, -387652.9, -7811.6357, 0.010325962, -0.5753799, -387064.34, -59733.582, 0.0, 9.998877, 10.000232 
2.404877e+3, 2.76593e+2, -465566.44, -345223.5, -16449.414, 0.0074956086, -0.61695606, -343015.56, -113683.07, 0.0, 9.998465, 10.00005 
2.4048533e+3, 2.865936e+2, -406209.78, -253581.64, -7628.061, 0.029038198, -0.5564874, -253201.36, -121875.24, 0.0, 9.998146, 10.000159 
2.4048294e+3, 2.9659492e+2, -351469.44, -184448.88, -1890.4897, 0.035055485, -0.44084692, -184427.48, -151114.33, 0.0, 9.997883, 10.000089 
2.4048047e+3, 3.0659178e+2, -298034.63, -77261.89, -29884.799, -0.016716862, -0.78142357, -73288.07, -73288.07, 0.0, 9.99767, 10.000591 
2.4047808e+3, 3.1659502e+2, -316944.6, -49087.746, 44448.004, -0.00011232611, -0.49803883, -41904.695, -41904.695, 0.0, 9.997382, 10.000923 
2.415251e+3, 1.2663132e+2, -1366846.0, -1662196.9, -10665.153, -0.011880893, -0.48635912, -1366461.4, 332506.22, 0.09492361, 10.003182, 9.998856 
2.4152261e+3, 1.3663025e+2, -1311313.9, -1609966.3, -9228.252, 0.031669267, -0.47329748, -1311029.0, 289948.3, 0.067578346, 10.002892, 9.998656 
2.4152006e+3, 1.466289e+2, -1238816.4, -1521316.5, 911.2554, 0.024948193, -0.4649514, -1238813.4, 264176.97, 0.040180787, 10.002616, 9.998723 
2.4151756e+3, 1.5662763e+2, -1184066.3, -1464081.3, -6011.364, 0.006258792, -0.46161366, -1183937.3, 221066.38, 0.018363832, 10.002343, 9.998574 
2.4151501e+3, 1.6662616e+2, -1100687.1, -1345592.5, -14826.958, -0.0018666256, -0.4696939, -1099792.8, 207224.86, 0.005627946, 10.002098, 9.998833 
2.415125e+3, 1.766248e+2, -1042128.06, -1278504.0, -21869.406, -0.008077139, -0.48420656, -1040121.7, 168908.22, 0.00085262675, 10.001869, 9.998731 
2.4150996e+3, 1.8662362e+2, -959977.44, -1136798.8, -22201.752, -0.0031562373, -0.49360678, -957232.4, 153807.64, 0.000032342843, 10.001538, 9.99919 
2.4150744e+3, 1.9662267e+2, -933485.75, -1097928.3, -20210.734, 0.008788279, -0.5013236, -931038.2, 82008.98, 0.000000000003904099, 10.001154, 9.99897 
2.4150491e+3, 2.0662133e+2, -889368.7, -1041953.44, -25306.566, 0.0055765095, -0.51315415, -885281.06, 29778.82, 0.0, 10.000853, 9.998827 
2.4150237e+3, 2.1661998e+2, -831294.94, -966884.94, -38739.082, -0.006203663, -0.52691793, -821007.44, -3933.9207, 0.0, 10.000594, 9.998795 
2.4149987e+3, 2.2661911e+2, -733632.1, -777542.4, -34967.254, 0.0039272294, -0.53123504, -714298.8, 4782.398, 0.0, 10.000197, 9.999612 
2.4149738e+3, 2.3661867e+2, -713201.7, -731881.4, -28732.281, 0.026680838, -0.53218114, -692329.3, -71245.43, 0.0, 9.999729, 9.999478 
2.4149492e+3, 2.4661803e+2, -638289.94, -612338.0, -15746.165, 0.019095855, -0.5511809, -604910.1, -81821.16, 0.0, 9.99943, 9.99977 
2.4149244e+3, 2.5661746e+2, -580870.3, -550032.5, -15108.721, -0.007390873, -0.5788432, -543864.0, -118770.66, 0.0, 9.999221, 9.999625 
2.4148996e+3, 2.6661715e+2, -514723.16, -438746.94, -24155.842, -0.004913397, -0.5781218, -431717.28, -104620.87, 0.0, 9.998879, 9.999881 
2.4148755e+3, 2.7661714e+2, -483286.1, -382604.38, -32275.441, 0.020992089, -0.5662178, -373146.38, -144049.17, 0.0, 9.998465, 9.999793 
2.4148513e+3, 2.866172e+2, -392150.8, -225020.81, -18666.813, 0.037914474, -0.56041193, -222961.28, -91865.39, 0.0, 9.998146, 10.000356 
2.4148272e+3, 2.9661766e+2, -344705.56, -171792.38, -11802.209, 0.023462318, -0.54745495, -170990.53, -137900.05, 0.0, 9.997886, 10.0001745 
2.4148023e+3, 3.0661726e+2, -312244.1, -107884.836, -39082.637, -0.024336638, -0.6034442, -100665.52, -100665.52, 0.0, 9.997673, 10.000381 
2.414778e+3, 3.166181e+2, -354543.63, -126927.9, -397.29443, 0.001930036, -0.5421282, -126927.2, -126927.2, 0.0, 9.997378, 10.000392 
2.4252541e+3, 1.2665635e+2, -1395135.6, -1681786.8, -1525.1334, -0.00057438295, -0.4969328, -1395127.5, 303593.78, 0.09239423, 10.002988, 9.9988 
2.4252288e+3, 1.3665532e+2, -1314247.6, -1617606.1, -10291.5205, 0.015574543, -0.47480097, -1313898.9, 286832.2, 0.06565151, 10.002892, 9.998603 
2.4252033e+3, 1.4665397e+2, -1238349.5, -1526954.0, -6297.357, 0.013145107, -0.46381605, -1238212.3, 264532.53, 0.03891836, 10.002644, 9.99867 
2.425178e+3, 1.566526e+2, -1190685.4, -1472021.1, -11229.636, 0.015779871, -0.4616717, -1190237.9, 214520.95, 0.017698789, 10.002317, 9.998531 
2.4251524e+3, 1.666511e+2, -1108124.3, -1349095.4, -11114.764, 0.005571007, -0.47267205, -1107612.6, 199160.48, 0.0053739953, 10.002048, 9.998832 
2.4251267e+3, 1.766497e+2, -1052707.6, -1286009.4, -10290.669, -0.015363916, -0.49050203, -1052254.6, 156531.16, 0.0008000376, 10.001809, 9.998707 
2.4251011e+3, 1.866485e+2, -974902.5, -1159971.0, -22866.484, -0.009548363, -0.48972648, -972119.06, 138677.16, 0.000029880799, 10.001507, 9.999045 
2.4250756e+3, 1.966476e+2, -939257.4, -1113668.1, -37166.414, 0.01183427, -0.4803315, -931667.6, 81136.32, 0.0000000000084542815, 10.001172, 9.998852 
2.42505e+3, 2.0664614e+2, -886603.7, -1038518.2, -26243.281, 0.010640163, -0.49876365, -882197.94, 32619.564, 0.0, 10.000865, 9.998843 
2.4250244e+3, 2.1664463e+2, -834680.25, -968680.0, -11481.436, -0.003178158, -0.53173, -833703.6, -16871.344, 0.0, 10.000574, 9.998791 
2.424999e+3, 2.2664373e+2, -732222.8, -788767.1, -11141.7, 0.004361846, -0.53177357, -730106.6, -11266.336, 0.0, 10.00026, 9.999503 
2.4249737e+3, 2.3664334e+2, -690264.7, -731481.1, -19190.309, 0.024348242, -0.51588446, -682713.25, -61870.43, 0.0, 9.999935, 9.999381 
2.4249485e+3, 2.466426e+2, -621082.06, -608914.25, -9989.842, 0.016540911, -0.5369139, -603301.5, -80452.76, 0.0, 9.999572, 9.999723 
2.4249233e+3, 2.566419e+2, -589338.1, -559833.0, -11514.051, -0.008920427, -0.57650673, -555871.6, -131017.0, 0.0, 9.99919, 9.999572 
2.4248984e+3, 2.6664153e+2, -518469.13, -450900.06, -9778.325, -0.0077105104, -0.5718055, -449513.44, -122655.6, 0.0, 9.9989, 9.999785 
2.424874e+3, 2.7664152e+2, -461981.28, -382331.34, 211.45732, 0.016143572, -0.5485153, -382330.78, -153472.5, 0.0, 9.998656, 9.999702 
2.4248496e+3, 2.8664124e+2, -393658.03, -234201.64, 2806.027, 0.03963924, -0.5686331, -234152.27, -103291.68, 0.0, 9.998175, 10.000278 
2.424825e+3, 2.966412e+2, -396003.53, -203242.72, -8178.76, 0.036060866, -0.5954412, -202896.31, -170036.03, 0.0, 9.997566, 10.000112 
2.4247998e+3, 3.066423e+2, -346653.34, -111510.38, -14138.5625, -0.027945478, -0.5079604, -110663.32, -110663.32, 0.0, 9.997383, 10.000495 
2.4247754e+3, 3.166418e+2, -360782.34, -140622.58, 25747.094, 0.010140922, -0.5928808, -137651.61, -137651.61, 0.0, 9.997383, 10.000295 
2.4352573e+3, 1.2668197e+2, -1408155.3, -1709476.3, -6446.7944, 0.0218048, -0.47420266, -1408017.4, 290452.63, 0.08972744, 10.002977, 9.998604 
2.4352315e+3, 1.3668047e+2, -1324931.9, -1643007.6, -16187.531, -0.0021770427, -0.47814858, -1324110.1, 276374.84, 0.0636437, 10.002892, 9.998429 
2.4352056e+3, 1.46679e+2, -1239652.0, -1531867.1, -19042.012, -0.005255439, -0.46853206, -1238416.4, 264083.44, 0.0376206, 10.002646, 9.998636 
2.4351802e+3, 1.5667774e+2, -1190655.0, -1472749.6, -23506.377, 0.01752352, -0.45468974, -1188709.6, 215803.14, 0.01702603, 10.002317, 9.998528 
2.4351545e+3, 1.6667628e+2, -1099862.8, -1332419.9, -20486.088, 0.014573086, -0.4661428, -1098071.9, 208454.22, 0.005123642, 10.002048, 9.998948 
2.4351284e+3, 1.7667495e+2, -1050306.5, -1281582.5, -20288.893, -0.0061660586, -0.49081045, -1048540.06, 159997.75, 0.00075144495, 10.001809, 9.998738 
2.4351026e+3, 1.8667354e+2, -1001077.9, -1215030.4, -35693.594, -0.006457291, -0.48961237, -995280.25, 115270.93, 0.000028194901, 10.001508, 9.998668 
2.4350767e+3, 1.966723e+2, -956016.56, -1149391.0, -49387.56, 0.00556951, -0.47563225, -944133.3, 68430.164, 0.00000000002968512, 10.001174, 9.998607 
2.4350508e+3, 2.0667097e+2, -857779.6, -979777.7, -37002.227, 0.0104947835, -0.49612933, -847434.1, 67141.08, 0.0, 10.000867, 9.999247 
2.4350251e+3, 2.1666978e+2, -814206.06, -927261.9, -22431.99, 0.0107996585, -0.53509974, -809917.8, 6666.9604, 0.0, 10.000576, 9.999075 
2.4349992e+3, 2.266688e+2, -753835.8, -834928.56, -23267.178, 0.006392272, -0.5366309, -747634.25, -29040.553, 0.0, 10.000264, 9.999186 
2.4349734e+3, 2.3666812e+2, -709017.8, -771930.2, -31888.252, 0.00080513617, -0.5192716, -695681.7, -75081.195, 0.0, 9.999939, 9.999102 
2.434948e+3, 2.4666736e+2, -626272.5, -621151.8, -24699.889, 0.005587716, -0.52677625, -598879.94, -76272.58, 0.0, 9.999576, 9.999639 
2.4349229e+3, 2.5666675e+2, -591760.8, -565998.44, -25556.951, 0.012577135, -0.54681504, -550260.0, -125647.67, 0.0, 9.999193, 9.999529 
2.4348974e+3, 2.6666632e+2, -506494.3, -427205.4, -19374.102, 0.0020960562, -0.5564022, -422724.63, -96109.2, 0.0, 9.998903, 9.9999485 
2.4348724e+3, 2.7666613e+2, -456220.6, -372002.16, -11418.661, -0.008421085, -0.5658607, -370481.44, -141865.19, 0.0, 9.998661, 9.999772 
2.4348477e+3, 2.866657e+2, -420152.06, -289956.34, -21539.45, 0.033794876, -0.58096695, -286485.4, -155864.83, 0.0, 9.998176, 9.999896 
2.434823e+3, 2.9666558e+2, -412717.72, -237075.2, -28796.557, 0.074654505, -0.5804102, -232474.53, -199851.7, 0.0, 9.99756, 9.999883 
2.4347971e+3, 3.0666676e+2, -314886.22, -44834.727, -13231.813, -0.027585788, -0.503506, -44187.953, -44187.953, 0.0, 9.997377, 10.000957 
2.434773e+3, 3.166664e+2, -335110.44, -87558.16, 19383.105, 0.027739873, -0.621668, -86049.67, -86049.67, 0.0, 9.997382, 10.00066 
2.44526e+3, 1.2670733e+2, -1465618.8, -1737796.0, -11659.867, 0.0305861, -0.45878974, -1465120.1, 233101.77, 0.08694763, 10.002528, 9.998626 
2.445234e+3, 1.367057e+2, -1338609.0, -1647176.9, -10091.607, -0.002276283, -0.47706145, -1338279.3, 261958.95, 0.061572913, 10.002775, 9.998456 
2.4452083e+3, 1.4670423e+2, -1246607.5, -1529950.8, -18462.744, -0.007571428, -0.4734249, -1245409.5, 256843.56, 0.03629785, 10.002573, 9.998683 
2.4451824e+3, 1.5670298e+2, -1212691.4, -1478482.1, -17131.967, 0.016605424, -0.46045452, -1211591.8, 192673.56, 0.016349573, 10.002143, 9.998571 
2.4451564e+3, 1.6670163e+2, -1124805.5, -1341957.0, -11838.645, 0.015170382, -0.46494928, -1124162.0, 182115.61, 0.0048778974, 10.001866, 9.998968 
2.4451303e+3, 1.7670041e+2, -1069778.3, -1289994.3, -19259.1, -0.0038992525, -0.47918564, -1068106.6, 140181.64, 0.0007068101, 10.001674, 9.998745 
2.445104e+3, 1.8669887e+2, -1019261.06, -1231263.9, -25526.398, -0.0054073897, -0.48782146, -1016230.9, 94072.12, 0.000027088983, 10.001418, 9.998599 
2.4450779e+3, 1.9669737e+2, -965464.56, -1158575.5, -17532.234, 0.0039460114, -0.49365443, -963885.75, 48432.28, 0.00000000008671795, 10.001131, 9.998563 
2.4450518e+3, 2.0669615e+2, -852935.44, -968613.6, -12502.736, 0.0077646077, -0.506596, -851599.56, 62729.074, 0.0, 10.000865, 9.999323 
2.4450256e+3, 2.1669523e+2, -806002.6, -916910.2, -22457.932, 0.007963321, -0.5242166, -801627.6, 14707.566, 0.0, 10.0006075, 9.999129 
2.4449995e+3, 2.2669421e+2, -756228.44, -842690.0, -21727.74, 0.006180422, -0.5297228, -751075.4, -32730.766, 0.0, 10.000278, 9.999125 
2.4449734e+3, 2.366933e+2, -717721.44, -783538.1, -11361.527, 0.0045409002, -0.52903587, -715815.4, -95461.52, 0.0, 9.999913, 9.999034 
2.4449475e+3, 2.4669251e+2, -632355.1, -634930.94, 1123.7026, 0.009673567, -0.5311433, -631933.8, -109572.49, 0.0, 9.999583, 9.999539 
2.4449222e+3, 2.5669196e+2, -585904.94, -570737.75, -970.7796, 0.015277024, -0.5347316, -570675.9, -146309.86, 0.0, 9.999268, 9.99946 
2.4448965e+3, 2.666915e+2, -510985.4, -421987.88, -614.23755, 0.0037516314, -0.54866797, -421983.63, -95614.37, 0.0, 9.998843, 10.000012 
2.4448709e+3, 2.7669123e+2, -497148.7, -387167.06, -78.17989, -0.007201634, -0.5720473, -387167.0, -158796.64, 0.0, 9.998363, 9.99981 
2.4448457e+3, 2.866909e+2, -440814.13, -308989.4, 479.15967, 0.03843576, -0.5764485, -308987.66, -178613.45, 0.0, 9.9980755, 9.999812 
2.4448206e+3, 2.9669085e+2, -373462.9, -228680.78, 15175.152, 0.08234039, -0.55788976, -227107.31, -194731.16, 0.0, 9.997876, 9.999787 
2.4447945e+3, 3.0669138e+2, -342044.78, -82102.445, 5429.3345, -0.030462505, -0.52896905, -81989.09, -81989.09, 0.0, 9.997297, 10.000738 
2.4447703e+3, 3.1669125e+2, -388745.8, -20803.92, 7367.7656, 0.051878892, -0.6061869, -20656.443, -20656.443, 0.0, 9.996618, 10.001485 
2.4552624e+3, 1.2673251e+2, -1449618.9, -1704880.6, -3476.6646, 0.02590559, -0.450066, -1449571.6, 248404.66, 0.08407503, 10.002536, 9.998848 
2.455237e+3, 1.3673107e+2, -1325532.1, -1617996.4, -6143.122, 0.013644566, -0.4710064, -1325403.1, 274586.84, 0.0594478, 10.002767, 9.998661 
2.455211e+3, 1.4672965e+2, -1239521.0, -1514889.9, -35101.324, 0.0047100214, -0.4780575, -1235117.0, 266886.88, 0.034950867, 10.002567, 9.998792 
2.4551846e+3, 1.5672837e+2, -1207071.8, -1467497.4, -32343.135, 0.012672614, -0.4782692, -1203115.1, 200900.8, 0.015666911, 10.002143, 9.998648 
2.4551582e+3, 1.6672716e+2, -1129972.5, -1353540.0, -19318.652, 0.0074462327, -0.46883315, -1128315.5, 177711.81, 0.004634123, 10.001867, 9.99889 
2.4551319e+3, 1.7672613e+2, -1071438.8, -1293823.0, -27298.336, -0.008747959, -0.45612317, -1068136.9, 139899.81, 0.00066451624, 10.001673, 9.99872 
2.4551055e+3, 1.8672451e+2, -1003785.6, -1199697.5, -36427.07, -0.0064184796, -0.48454446, -997231.8, 112819.86, 0.000026177097, 10.001418, 9.9988165 
2.4550788e+3, 1.9672279e+2, -955565.2, -1138740.4, -28150.28, 0.0068358523, -0.5335199, -951336.7, 60730.95, 0.00000000016280782, 10.001132, 9.9987 
2.4550524e+3, 2.0672165e+2, -870145.8, -1005356.2, -22042.676, 0.0023117724, -0.52952826, -866643.06, 47434.87, 0.0, 10.000867, 9.999071 
2.4550259e+3, 2.1672098e+2, -817618.75, -942328.8, -32534.033, -0.011751767, -0.49935323, -809641.56, 6441.995, 0.0, 10.00061, 9.998955 
2.4549997e+3, 2.2671992e+2, -742721.9, -816008.2, -35278.24, 0.0038575619, -0.51139873, -728499.75, -10406.554, 0.0, 10.000282, 9.999307 
2.4549736e+3, 2.3671883e+2, -707940.4, -764466.0, -24838.701, 0.035701178, -0.5454062, -698576.75, -78473.64, 0.0, 9.999917, 9.999165 
2.4549472e+3, 2.4671799e+2, -640270.4, -652569.2, -10792.039, 0.028706372, -0.5502672, -633998.75, -111887.734, 0.0, 9.999586, 9.999418 
2.4549212e+3, 2.5671747e+2, -592640.4, -586087.44, -14134.772, -0.0017437022, -0.5407773, -574854.3, -150738.33, 0.0, 9.999271, 9.999353 
2.4548951e+3, 2.66717e+2, -513907.5, -428925.78, -19620.154, -0.0029608097, -0.548853, -424614.66, -98494.914, 0.0, 9.998845, 9.999965 
2.4548694e+3, 2.7671674e+2, -497382.03, -387624.9, -17202.504, 0.02127309, -0.56638545, -384991.88, -156870.8, 0.0, 9.998361, 9.999809 
2.454844e+3, 2.8671667e+2, -424801.72, -276024.56, -7124.148, 0.053982444, -0.55394876, -275684.2, -145562.42, 0.0, 9.998075, 10.00004 
2.4548183e+3, 2.9671696e+2, -370179.75, -223668.0, 3986.8906, 0.056330793, -0.52732444, -223559.6, -191439.25, 0.0, 9.997882, 9.999821 
2.4547915e+3, 3.06716e+2, -410232.47, -223744.58, -25610.393, -0.0374132, -0.5877672, -220291.45, -220291.45, 0.0, 9.997295, 9.999767 
2.4547671e+3, 3.1671646e+2, -295453.7, 175991.86, 14225.928, 0.07876436, -0.53240144, 176420.75, 176420.75, 0.0, 9.996602, 10.002846 
2.4652651e+3, 1.2675793e+2, -1407202.1, -1676817.3, 15442.278, 0.018521583, -0.4495414, -1406320.5, 291407.34, 0.0811216, 10.002811, 9.99892 
2.4652398e+3, 1.3675676e+2, -1381190.9, -1636080.8, 1932.4489, 0.026277682, -0.4529289, -1381176.1, 218563.13, 0.05726747, 10.002312, 9.998755 
2.4652134e+3, 1.4675541e+2, -1297091.3, -1523554.6, -30830.807, 0.017906548, -0.46380147, -1292968.9, 208782.86, 0.033572104, 10.002071, 9.998969 
2.4651866e+3, 1.5675418e+2, -1220177.0, -1456836.5, -23456.84, 0.016529009, -0.4791205, -1217874.5, 185888.58, 0.014970309, 10.00198, 9.998798 
2.4651599e+3, 1.6675298e+2, -1143561.1, -1357826.1, -3779.353, 0.007300088, -0.4746128, -1143494.5, 162279.69, 0.004387014, 10.001766, 9.998908 
2.4651334e+3, 1.7675197e+2, -1095722.8, -1301358.6, -5671.8774, -0.010117633, -0.46105742, -1095566.4, 112217.14, 0.0006219308, 10.001491, 9.998755 
2.4651067e+3, 1.8675047e+2, -1020397.56, -1195139.8, -18497.072, -0.0106130475, -0.48553213, -1018461.0, 91336.17, 0.000025000976, 10.001252, 9.998926 
2.4650799e+3, 1.9674891e+2, -964144.0, -1133275.3, -18219.625, -0.0008512262, -0.52962756, -962203.56, 49607.793, 0.00000000021615258, 10.001034, 9.998784 
2.4650532e+3, 2.0674771e+2, -887096.4, -1018885.8, -5742.2944, -0.0010514945, -0.53117454, -886846.7, 26975.465, 0.0, 10.000776, 9.999021 
2.4650267e+3, 2.1674688e+2, -836757.75, -955459.6, -2776.5342, -0.0069368393, -0.51106495, -836692.8, -20863.354, 0.0, 10.000499, 9.998918 
2.465e+3, 2.2674586e+2, -752734.94, -817804.3, -10739.601, 0.0078032683, -0.5185416, -751008.2, -33169.49, 0.0, 10.000202, 9.999332 
2.4649733e+3, 2.3674493e+2, -710093.0, -763541.9, -11434.242, 0.034528513, -0.54125756, -707749.7, -87902.39, 0.0, 9.999896, 9.99918 
2.464947e+3, 2.4674404e+2, -635276.1, -654646.56, 4462.246, 0.029618263, -0.54886687, -634297.6, -112441.97, 0.0, 9.999641, 9.999376 
2.4649204e+3, 2.5674334e+2, -576092.8, -583458.06, 5234.4565, 0.004389565, -0.5487777, -573375.3, -149513.25, 0.0, 9.99941, 9.999304 
2.464894e+3, 2.667429e+2, -501357.13, -432430.72, -8180.2856, 0.002964517, -0.5501782, -431473.16, -105606.92, 0.0, 9.998974, 9.999878 
2.4648677e+3, 2.7674267e+2, -491548.47, -392206.66, -7130.638, 0.025242621, -0.552787, -391697.44, -163829.98, 0.0, 9.998434, 9.999742 
2.464842e+3, 2.8674266e+2, -425599.9, -274324.9, -224.4335, 0.055489905, -0.538792, -274324.56, -144456.52, 0.0, 9.998061, 10.000057 
2.464816e+3, 2.9674286e+2, -387922.75, -233647.52, -7524.664, 0.053651184, -0.51853096, -233281.38, -201414.73, 0.0, 9.997768, 9.999805 
2.464789e+3, 3.0674157e+2, -420244.13, -247817.02, -16431.139, -0.019289924, -0.6025877, -246265.22, -246265.22, 0.0, 9.997312, 9.999593 
2.4647637e+3, 3.1674233e+2, -276584.63, 182058.44, 82618.4, 0.0742016, -0.4992576, 196487.11, 196487.11, 0.0, 9.996748, 10.002816 
2.4752678e+3, 1.2678362e+2, -1410195.9, -1685767.3, -2237.7954, 0.00836534, -0.45664775, -1410177.6, 287298.78, 0.07808844, 10.002815, 9.998851 
2.4752422e+3, 1.3678275e+2, -1381908.6, -1638499.6, -14237.509, 0.034358814, -0.4236575, -1381121.0, 218364.66, 0.05502221, 10.00231, 9.99874 
2.4752156e+3, 1.4678156e+2, -1280695.3, -1490292.8, -34350.68, 0.031074198, -0.4320422, -1275209.1, 226287.38, 0.032148287, 10.002072, 9.9992 
2.4751887e+3, 1.5678039e+2, -1205262.4, -1426404.6, -28257.91, 0.027498161, -0.46386114, -1201708.6, 201797.81, 0.014249484, 10.00198, 9.999008 
2.4751616e+3, 1.6677912e+2, -1136440.6, -1343517.3, -14377.177, 0.0141971335, -0.48197716, -1135447.3, 170070.8, 0.0041307975, 10.001766, 9.999007 
2.4751347e+3, 1.7677797e+2, -1089808.8, -1289696.9, -15982.515, -0.008322417, -0.4924082, -1088539.0, 118989.65, 0.0005767445, 10.001492, 9.9988365 
2.4751076e+3, 1.8677676e+2, -1020035.0, -1195359.8, -26726.625, -0.018118478, -0.49038076, -1016051.3, 93488.31, 0.000023236666, 10.001254, 9.998925 
2.4750808e+3, 1.967757e+2, -961737.94, -1129427.0, -26703.441, -0.01915584, -0.483535, -957588.25, 53961.04, 0.00000000023303823, 10.001037, 9.99881 
2.475054e+3, 2.0677432e+2, -877068.94, -999124.9, -16095.337, -0.0023071356, -0.5125174, -874982.1, 38579.24, 0.0, 10.000778, 9.999156 
2.4750273e+3, 2.1677296e+2, -830344.9, -943069.25, -13211.971, 0.022113686, -0.5587984, -828817.06, -13244.091, 0.0, 10.000501, 9.999002 
2.4750002e+3, 2.2677207e+2, -761886.4, -838102.9, -22169.959, 0.017618624, -0.55052936, -755906.7, -38325.336, 0.0, 10.000206, 9.999192 
2.4749729e+3, 2.3677154e+2, -716779.75, -778949.4, -22550.207, 0.00041810775, -0.51632816, -709461.75, -89875.22, 0.0, 9.9999, 9.999073 
2.4749462e+3, 2.467706e+2, -632415.94, -650151.56, -4212.302, 0.0122723235, -0.5269161, -631466.3, -109870.8, 0.0, 9.999646, 9.999406 
2.4749202e+3, 2.5676963e+2, -575425.9, -583474.94, -5791.1255, 0.034392875, -0.55898577, -572398.2, -148793.61, 0.0, 9.9994135, 9.999303 
2.474893e+3, 2.6676917e+2, -510515.72, -452544.8, -29332.068, 0.02167889, -0.5524588, -440292.8, -114683.78, 0.0, 9.998977, 9.99974 
2.4748659e+3, 2.7676907e+2, -501403.3, -413612.75, -26514.09, 0.0028586513, -0.530671, -406226.53, -178616.7, 0.0, 9.998436, 9.999595 
2.4748398e+3, 2.8676867e+2, -440578.88, -306124.6, -12205.75, 0.042089034, -0.5319771, -305025.56, -175411.89, 0.0, 9.998062, 9.99984 
2.4748139e+3, 2.9676846e+2, -392745.16, -243794.14, -21794.834, 0.07628698, -0.5336758, -240670.56, -209054.52, 0.0, 9.9977665, 9.999738 
2.474787e+3, 3.0676806e+2, -372761.3, -149562.72, -37696.91, 0.026176816, -0.5667965, -143367.86, -143367.86, 0.0, 9.997311, 10.000269 
2.47476e+3, 3.1676874e+2, -391416.63, -57330.79, 46342.313, 0.031889584, -0.5189548, -51021.62, -51021.62, 0.0, 9.996749, 10.001173 
2.4852708e+3, 1.2680995e+2, -1388492.6, -1678186.8, 14324.408, 0.010419986, -0.45179302, -1387786.0, 309432.53, 0.07496051, 10.002981, 9.998827 
2.4852444e+3, 1.3680893e+2, -1379494.1, -1636980.8, 8057.547, 0.042539395, -0.43079022, -1379242.3, 219987.02, 0.052693795, 10.002322, 9.998744 
2.4852176e+3, 1.4680785e+2, -1288320.8, -1480844.6, -2199.741, 0.033286, -0.4362203, -1288295.6, 212943.4, 0.030663727, 10.00196, 9.999319 
2.4851905e+3, 1.568069e+2, -1226918.1, -1423958.3, -4724.899, 0.018296544, -0.45737422, -1226804.9, 176442.02, 0.013494704, 10.001775, 9.999123 
2.4851634e+3, 1.6680571e+2, -1158733.0, -1344421.9, 2491.771, 0.008273654, -0.4767255, -1158699.5, 146558.06, 0.0038611556, 10.001572, 9.999094 
2.4851362e+3, 1.7680457e+2, -1103241.8, -1286812.8, 12.21075, -0.0037529683, -0.49455157, -1103241.8, 104026.29, 0.0005278061, 10.001361, 9.998918 
2.4851088e+3, 1.8680348e+2, -1027211.9, -1192313.6, -6886.663, -0.014536836, -0.48830858, -1026925.1, 82352.97, 0.000020785536, 10.001179, 9.998981 
2.4850816e+3, 1.9680259e+2, -961866.4, -1123469.0, -4237.6797, -0.02219923, -0.47118968, -961755.3, 49531.08, 0.00000000017417703, 10.001013, 9.998861 
2.4850547e+3, 2.0680119e+2, -883611.2, -999338.06, -2087.6267, -0.0038657174, -0.50366455, -883573.5, 29724.871, 0.0, 10.000723, 9.999181 
2.4850276e+3, 2.1679975e+2, -847504.2, -948926.94, -6663.9976, 0.02611518, -0.56078, -847068.2, -31757.602, 0.0, 10.000375, 9.9990225 
2.4850002e+3, 2.2679883e+2, -763710.1, -839619.9, -8404.56, 0.016810264, -0.5540534, -762790.7, -45471.656, 0.0, 10.000198, 9.999184 
2.4849726e+3, 2.3679835e+2, -687579.7, -765322.56, -634.87915, -0.010437573, -0.5159586, -687574.5, -68250.484, 0.0, 10.000105, 9.999066 
2.4849461e+3, 2.4679743e+2, -628663.8, -647983.6, 12208.228, 0.007158988, -0.5238712, -622756.0, -101423.21, 0.0, 9.999672, 9.999408 
2.4849194e+3, 2.5679648e+2, -625868.9, -608666.8, 9393.799, 0.04350861, -0.5541084, -604531.25, -181189.6, 0.0, 9.999074, 9.999293 
2.4848922e+3, 2.6679596e+2, -537225.94, -473569.78, -8330.65, 0.029317286, -0.5472274, -472497.63, -147150.84, 0.0, 9.998831, 9.999664 
2.4848644e+3, 2.7679577e+2, -460096.1, -400537.3, -2322.6848, 0.0003862625, -0.5265671, -400446.88, -173098.14, 0.0, 9.998751, 9.999532 
2.4848379e+3, 2.867953e+2, -419946.03, -297244.13, 16849.482, 0.0410931, -0.53457963, -294972.4, -165619.0, 0.0, 9.998211, 9.999828 
2.4848115e+3, 2.9679498e+2, -437157.5, -262512.9, 24094.428, 0.08424849, -0.54181933, -259249.75, -227893.69, 0.0, 9.997453, 9.99976 
2.4847841e+3, 3.0679503e+2, -370974.53, -126850.234, -3183.95, 0.031854324, -0.54192644, -126808.71, -126808.71, 0.0, 9.9972315, 10.000463 
2.4847569e+3, 3.1679535e+2, -370515.47, -112006.72, 32456.527, 0.021104435, -0.54225165, -107993.99, -107993.99, 0.0, 9.997173, 10.000591 
2.4952736e+3, 1.2683694e+2, -1387104.8, -1675632.3, -9013.567, 0.022622824, -0.43523377, -1386823.4, 310130.78, 0.07170964, 10.002972, 9.99885 
2.4952468e+3, 1.3683537e+2, -1378049.3, -1634993.9, -13297.308, 0.04975056, -0.4710002, -1377362.9, 221606.6, 0.050261144, 10.00232, 9.998759 
2.4952193e+3, 1.4683433e+2, -1286938.5, -1480650.5, -9135.807, 0.024873128, -0.473052, -1286508.5, 214470.6, 0.02910622, 10.001966, 9.999319 
2.4951918e+3, 1.5683374e+2, -1224821.4, -1421621.5, -12096.651, -0.0098374095, -0.45877886, -1224080.6, 178903.64, 0.012701049, 10.00178, 9.999137 
2.4951646e+3, 1.6683277e+2, -1153416.6, -1334562.3, -5677.432, -0.009748514, -0.45966256, -1153238.9, 151754.06, 0.0035770952, 10.0015745, 9.999161 
2.4951378e+3, 1.7683178e+2, -1097784.0, -1276177.9, -7895.4736, 0.0031562177, -0.46904373, -1097435.3, 109566.55, 0.00047530854, 10.001362, 9.998992 
2.4951103e+3, 1.8683061e+2, -1019865.2, -1177818.0, -13125.963, -0.0004682399, -0.4796453, -1018781.8, 90230.72, 0.000017741677, 10.001181, 9.999082 
2.4950828e+3, 1.9682953e+2, -956933.5, -1114002.5, -11705.833, -0.0105238585, -0.49107724, -956065.9, 54956.668, 0.00000000005180779, 10.001014, 9.998927 
2.4950552e+3, 2.0682831e+2, -889528.06, -1012741.2, -15298.638, -0.006021147, -0.5039012, -887656.94, 25376.232, 0.0, 10.000726, 9.999088 
2.4950278e+3, 2.1682721e+2, -850389.3, -956421.3, -17900.695, 0.0049885544, -0.5180219, -847448.8, -32406.23, 0.0, 10.000379, 9.99897 
2.4950005e+3, 2.2682615e+2, -755056.7, -823143.5, -11427.623, 0.0055461363, -0.52980393, -753189.9, -36137.805, 0.0, 10.000203, 9.999296 
2.494973e+3, 2.3682529e+2, -680953.6, -752889.4, -7533.7993, 0.0021257547, -0.5402911, -680173.06, -61113.16, 0.0, 10.000109, 9.999151 
2.4949455e+3, 2.4682446e+2, -630706.2, -653188.3, -10973.142, 0.014160763, -0.53957975, -626238.25, -105170.63, 0.0, 9.999675, 9.999372 
2.4949183e+3, 2.5682384e+2, -627663.6, -612862.9, -10145.691, 0.03068862, -0.53359514, -607705.3, -184631.7, 0.0, 9.999074, 9.999266 
2.4948908e+3, 2.668232e+2, -538094.94, -476161.34, -11178.026, 0.025513783, -0.53455997, -474205.63, -149125.83, 0.0, 9.998832, 9.999647 
2.4948633e+3, 2.7682275e+2, -457661.5, -397492.1, -10232.923, 0.019027594, -0.54167205, -395799.4, -168714.8, 0.0, 9.998757, 9.999551 
2.4948362e+3, 2.868224e+2, -405495.13, -268301.16, -13179.71, 0.052992377, -0.5467321, -267046.5, -137959.02, 0.0, 9.998213, 10.000027 
2.4948089e+3, 2.9682246e+2, -430608.63, -247840.53, 563.5154, 0.07559168, -0.54175913, -247838.78, -216752.16, 0.0, 9.997445, 9.999865 
2.4947807e+3, 3.0682245e+2, -394993.03, -176747.73, -2019.4824, -0.006035812, -0.53127074, -176729.05, -176729.05, 0.0, 9.997229, 10.000122 
2.4947542e+3, 3.1682217e+2, -325431.6, -20692.053, 5072.488, 0.052504007, -0.56293267, -20607.645, -20607.645, 0.0, 9.99718, 10.001216 
2.5052765e+3, 1.268643e+2, -1415941.1, -1677770.1, 12166.948, 0.04373576, -0.43629467, -1415377.0, 281309.3, 0.068311416, 10.002694, 9.998967 
2.505249e+3, 1.3686281e+2, -1372858.9, -1624199.8, 16247.89, 0.03854027, -0.4750893, -1371812.9, 226887.14, 0.047711678, 10.002318, 9.998834 
2.505221e+3, 1.4686176e+2, -1285750.0, -1495386.5, 26638.91, 0.009726126, -0.47360748, -1282417.9, 218292.36, 0.027473433, 10.002042, 9.999177 
2.5051937e+3, 1.5686108e+2, -1225281.4, -1433521.4, 13447.686, -0.013369775, -0.4522365, -1224416.5, 178300.16, 0.01187157, 10.001828, 9.999031 
2.5051662e+3, 1.6686009e+2, -1154475.1, -1328124.3, 13740.6875, -0.008923914, -0.4553745, -1153394.5, 151331.25, 0.0032819086, 10.001539, 9.999221 
2.5051388e+3, 1.7685908e+2, -1113912.6, -1275870.8, 11392.745, 0.0045657475, -0.47144508, -1113115.1, 93619.42, 0.00042065585, 10.001219, 9.999062 
2.5051114e+3, 1.8685804e+2, -1035453.9, -1172836.9, 9916.414, 0.00078506797, -0.47875857, -1034741.8, 74002.13, 0.0000143640455, 10.001021, 9.99919 
2.5050837e+3, 1.9685715e+2, -969598.44, -1110693.4, 10723.291, -0.00982347, -0.4823964, -968788.1, 41963.977, 0.0000000000010010511, 10.000889, 9.999009 
2.505056e+3, 2.0685592e+2, -897790.8, -1021829.5, 4878.801, -0.008596079, -0.49680197, -897599.2, 15163.731, 0.0, 10.000693, 9.999041 
2.505028e+3, 2.168547e+2, -839672.9, -953446.5, 5135.58, -0.001903016, -0.516465, -839441.56, -24668.03, 0.0, 10.000464, 9.998948 
2.5050005e+3, 2.2685368e+2, -763641.5, -817205.0, 12034.33, 0.0036503896, -0.52863044, -761061.94, -44279.47, 0.0, 10.000103, 9.999384 
2.5049728e+3, 2.3685291e+2, -738299.5, -772028.0, 13597.714, 0.009804822, -0.5377499, -733500.4, -114711.3, 0.0, 9.9996805, 9.999225 
2.5049454e+3, 2.468521e+2, -657752.75, -665710.0, 8514.495, 0.016922636, -0.5398647, -652333.2, -131536.53, 0.0, 9.999489, 9.999374 
2.5049174e+3, 2.5685143e+2, -580839.94, -590004.3, 11740.004, 0.021438826, -0.53808856, -572819.56, -150016.6, 0.0, 9.999395, 9.999266 
2.5048897e+3, 2.6685083e+2, -527150.2, -472260.4, 11069.275, 0.022081187, -0.5359791, -470112.2, -145303.06, 0.0, 9.998915, 9.999633 
2.504862e+3, 2.768504e+2, -529568.75, -430014.7, 11941.905, 0.03065786, -0.53630316, -428602.25, -201788.6, 0.0, 9.998257, 9.999567 
2.5048345e+3, 2.8685006e+2, -423408.1, -261292.77, 4269.7275, 0.061236512, -0.5516515, -261180.39, -132363.83, 0.0, 9.998025, 10.000165 
2.5048065e+3, 2.9685e+2, -349546.7, -201237.08, 12913.753, 0.06981189, -0.56686544, -200121.03, -169304.92, 0.0, 9.997972, 9.99993 
2.5047782e+3, 3.0685055e+2, -394449.44, -199606.2, 14553.519, -0.012696728, -0.49300382, -198525.16, -198525.16, 0.0, 9.9973345, 9.999913 
2.504751e+3, 3.168496e+2, -378193.84, 23531.516, 33355.844, 0.06046004, -0.58412987, 26282.264, 26282.264, 0.0, 9.996522, 10.001836 
2.5152797e+3, 1.2689206e+2, -1402489.8, -1650642.6, -1969.0938, 0.07179821, -0.45364004, -1402474.1, 293940.53, 0.064767376, 10.002688, 9.999168 
2.515251e+3, 1.3689123e+2, -1363545.8, -1606524.5, 2503.4968, 0.010233846, -0.44544423, -1363519.9, 234901.27, 0.04505621, 10.002322, 9.998953 
2.515223e+3, 1.4689009e+2, -1303405.1, -1535973.5, 18102.695, -0.0115250535, -0.4406445, -1302004.5, 198427.98, 0.025779799, 10.002049, 9.998896 
2.5151956e+3, 1.5688896e+2, -1240205.4, -1466156.1, 4247.905, 0.0056145536, -0.43846884, -1240125.5, 162318.9, 0.01101863, 10.00183, 9.998807 
2.515168e+3, 1.668877e+2, -1150956.8, -1321827.8, 1330.8488, 0.0091820145, -0.4629729, -1150946.4, 153509.64, 0.0029826919, 10.001541, 9.999264 
2.5151402e+3, 1.7688651e+2, -1109115.9, -1267396.1, 334.9387, 0.00056539965, -0.5000241, -1109115.1, 97350.766, 0.00036615646, 10.001223, 9.999119 
2.5151122e+3, 1.8688579e+2, -1026802.75, -1156446.8, 4830.972, -0.010355385, -0.48516676, -1026623.0, 81849.1, 0.000011028373, 10.001026, 9.999302 
2.5150844e+3, 1.9688542e+2, -962789.6, -1097763.9, 4927.342, -0.020174513, -0.44653776, -962610.0, 47865.14, 0.0, 10.000892, 9.999097 
2.5150567e+3, 2.06884e+2, -898380.2, -1024063.75, -3640.5303, -0.011583236, -0.48287734, -898274.8, 14212.995, 0.0, 10.000696, 9.999024 
2.5150284e+3, 2.1688224e+2, -839386.44, -953674.7, -4626.758, 0.0052755033, -0.5550145, -839199.44, -24696.006, 0.0, 10.000465, 9.998946 
2.5150007e+3, 2.2688144e+2, -759158.9, -809104.25, -3961.5193, 0.010926527, -0.5498745, -758846.6, -42336.164, 0.0, 10.000106, 9.999439 
2.5149727e+3, 2.3688123e+2, -733881.3, -764176.75, -108.21444, 0.012240702, -0.50845647, -733880.94, -115369.19, 0.0, 9.999684, 9.999278 
2.5149447e+3, 2.4688031e+2, -654939.06, -661024.44, 5432.835, 0.015289609, -0.52495515, -651754.9, -131234.86, 0.0, 9.999492, 9.999406 
2.5149167e+3, 2.568792e+2, -578410.8, -586655.44, 4052.7007, 0.015670363, -0.56842476, -576752.3, -154222.22, 0.0, 9.999401, 9.999288 
2.5148883e+3, 2.6687875e+2, -528188.7, -475284.5, -15107.026, 0.01889306, -0.5516948, -471274.56, -146739.5, 0.0, 9.998917, 9.999612 
2.5148603e+3, 2.7687874e+2, -529934.1, -429734.3, -9175.341, 0.03468851, -0.50907356, -428901.06, -202364.98, 0.0, 9.99825, 9.999574 
2.5148326e+3, 2.868782e+2, -419164.56, -252471.89, 2788.93, 0.06560976, -0.5492051, -252425.23, -123884.234, 0.0, 9.998022, 10.000227 
2.5148043e+3, 2.9687765e+2, -346456.2, -197915.63, 4113.525, 0.0673731, -0.6193782, -197801.8, -167256.6, 0.0, 9.997982, 9.9999485 
2.5147757e+3, 3.0687937e+2, -399362.2, -210498.0, -21488.443, 0.014323299, -0.42367363, -208083.97, -208083.97, 0.0, 9.997335, 9.999839 
2.5147474e+3, 3.1687748e+2, -339622.13, 106957.47, 32729.55, 0.033787653, -0.6096821, 109343.445, 109343.445, 0.0, 9.996505, 10.0024185 
2.5252822e+3, 1.2692037e+2, -1413394.5, -1661402.1, 12055.003, 0.07542353, -0.4472937, -1412809.9, 283327.66, 0.06111087, 10.002624, 9.999119 
2.5252533e+3, 1.3691954e+2, -1351027.1, -1605428.4, 376.04398, 0.0035779092, -0.43507487, -1351026.6, 247117.67, 0.042331323, 10.002429, 9.998909 
2.525225e+3, 1.4691836e+2, -1295205.0, -1536175.5, 20459.896, -0.01610519, -0.43159512, -1293480.1, 206676.0, 0.024054969, 10.002125, 9.998857 
2.5251973e+3, 1.5691712e+2, -1251650.3, -1474351.6, 22975.871, 0.010452576, -0.43401155, -1249304.6, 152864.44, 0.010160197, 10.001762, 9.998782 
2.5251696e+3, 1.6691586e+2, -1152745.9, -1318833.3, 26531.303, 0.014653875, -0.45787475, -1148610.6, 155569.8, 0.0026876489, 10.0015135, 9.999296 
2.5251412e+3, 1.7691477e+2, -1092249.8, -1256189.4, 24711.98, 0.002005999, -0.4916952, -1088605.6, 117583.76, 0.00031428054, 10.0013275, 9.999144 
2.5251132e+3, 1.8691397e+2, -1017524.75, -1153618.5, 24250.773, -0.0093138665, -0.48311418, -1013332.6, 94863.53, 0.000008091692, 10.0011, 9.999285 
2.5250852e+3, 1.9691347e+2, -967866.8, -1098556.9, 14468.866, -0.01769293, -0.45479968, -966284.1, 43916.21, 0.0, 10.000852, 9.99911 
2.5250572e+3, 2.069122e+2, -904040.4, -1010947.9, 8285.982, -0.011369926, -0.4858159, -903402.0, 8809.58, 0.0, 10.000591, 9.999164 
2.5250292e+3, 2.169107e+2, -852855.5, -948644.75, 17683.55, 0.0014214518, -0.5458001, -849695.2, -35470.51, 0.0, 10.000326, 9.999047 
2.525001e+3, 2.2690983e+2, -760445.5, -818617.0, 13662.843, 0.00603388, -0.5447746, -757396.3, -41164.086, 0.0, 10.000138, 9.999357 
2.5249726e+3, 2.3690943e+2, -694463.06, -750177.94, 7085.2646, 0.008139021, -0.5144531, -693576.1, -75340.76, 0.0, 9.999979, 9.999231 
2.524944e+3, 2.4690858e+2, -642854.3, -644598.44, 10613.157, 0.013414271, -0.5292064, -633077.44, -112834.35, 0.0, 9.999532, 9.999498 
2.5249156e+3, 2.5690764e+2, -638836.6, -607816.0, 13427.18, 0.016350951, -0.5652825, -602811.5, -180560.08, 0.0, 9.998955, 9.999356 
2.5248873e+3, 2.669072e+2, -558417.9, -493910.97, -6507.8765, 0.02111813, -0.54921794, -493260.97, -169004.48, 0.0, 9.998729, 9.999574 
2.5248587e+3, 2.7690712e+2, -474218.56, -407213.94, -1920.893, 0.03866972, -0.5112157, -407158.9, -180900.36, 0.0, 9.998653, 9.999533 
2.5248307e+3, 2.869066e+2, -395726.38, -247001.08, 4482.8657, 0.066868156, -0.5423264, -246866.08, -118603.03, 0.0, 9.998211, 10.000174 
2.5248024e+3, 2.9690617e+2, -401728.34, -223913.9, -4339.205, 0.06307735, -0.5963191, -223808.08, -193542.13, 0.0, 9.997602, 9.999952 
2.5247732e+3, 3.0690733e+2, -393315.4, -187512.61, -25651.672, 0.039688926, -0.4671569, -184363.52, -184363.52, 0.0, 9.9972925, 10.000016 
2.524744e+3, 3.1690606e+2, -278111.9, 98489.125, 47852.984, 0.015096839, -0.59922105, 104474.46, 104474.46, 0.0, 9.997093, 10.002076 
2.5352848e+3, 1.2694925e+2, -1431205.0, -1699823.4, 3755.222, 0.05612007, -0.41957307, -1431152.5, 264702.53, 0.05739333, 10.00262, 9.998842 
2.5352558e+3, 1.369478e+2, -1363471.3, -1633954.5, -7892.8965, 0.016574522, -0.44228256, -1363241.1, 234627.25, 0.039584756, 10.002429, 9.9987135 
2.535227e+3, 1.4694656e+2, -1282292.3, -1510902.9, 6619.6895, -0.005653126, -0.4443132, -1282100.8, 217779.8, 0.022332769, 10.002129, 9.999029 
2.535199e+3, 1.569456e+2, -1240450.5, -1452660.3, 9797.541, 0.0017618388, -0.43802363, -1239999.1, 161891.13, 0.009313713, 10.001767, 9.99893 
2.535171e+3, 1.6694462e+2, -1150872.0, -1316454.1, 19029.977, 0.008272678, -0.44077688, -1148713.1, 155185.72, 0.0024035233, 10.001518, 9.999311 
2.5351426e+3, 1.7694381e+2, -1092688.1, -1258273.0, 16755.299, 0.008431633, -0.44852415, -1091009.8, 114895.53, 0.000266946, 10.00133, 9.999129 
2.5351146e+3, 1.8694258e+2, -1027523.3, -1175345.6, 14675.724, 0.0032831598, -0.47320628, -1026080.4, 81835.695, 0.0000057652073, 10.0011015, 9.999136 
2.5350863e+3, 1.9694133e+2, -972167.1, -1108297.5, 5007.669, -0.0028229395, -0.5052717, -971983.1, 37944.227, 0.0, 10.000854, 9.999043 
2.5350577e+3, 2.0694052e+2, -883634.44, -969852.4, -1739.7118, -0.00830279, -0.5046203, -883599.4, 28334.793, 0.0, 10.000594, 9.999446 
2.535029e+3, 2.1694005e+2, -838930.9, -921344.2, 8504.365, -0.013879694, -0.4898868, -838062.5, -24125.06, 0.0, 10.000331, 9.999233 
2.5350004e+3, 2.2693886e+2, -775668.5, -851585.9, 8061.3735, -0.011067939, -0.51393986, -774821.94, -58873.992, 0.0, 10.000142, 9.99913 
2.534972e+3, 2.3693754e+2, -704748.6, -772662.25, -2057.179, -0.0025313732, -0.5557653, -704686.4, -86726.1, 0.0, 9.999982, 9.999077 
2.5349435e+3, 2.4693686e+2, -632253.56, -623534.44, -11929.221, 0.011272986, -0.5523597, -615193.1, -95227.1, 0.0, 9.999534, 9.999643 
2.534915e+3, 2.569367e+2, -631281.4, -592387.2, -5215.0586, 0.023468547, -0.5274001, -591700.06, -169732.94, 0.0, 9.998954, 9.999464 
2.534886e+3, 2.6693606e+2, -562732.5, -503514.34, -9188.842, 0.028833814, -0.5282119, -502121.28, -178147.53, 0.0, 9.998729, 9.999509 
2.5348574e+3, 2.7693537e+2, -479869.66, -421316.47, -9128.164, 0.042174783, -0.54480296, -419926.4, -193944.66, 0.0, 9.998661, 9.9994335 
2.5348285e+3, 2.8693515e+2, -408495.97, -274664.94, -20455.012, 0.06453553, -0.5302387, -271608.38, -143625.22, 0.0, 9.998214, 9.999983 
2.5347996e+3, 2.969355e+2, -404449.3, -227732.92, -25741.082, 0.05661289, -0.49163282, -224059.75, -194081.28, 0.0, 9.997593, 9.999931 
2.5347704e+3, 3.0693418e+2, -362181.6, -122994.055, -32750.814, 0.063349724, -0.63507307, -118590.71, -118590.71, 0.0, 9.997291, 10.000462 
2.534741e+3, 3.169357e+2, -374883.63, -107469.99, 27134.838, 0.0065915375, -0.5107222, -104744.37, -104744.37, 0.0, 9.997111, 10.000654 
2.545287e+3, 1.2697798e+2, -1434498.5, -1691949.3, 5214.236, 0.04641488, -0.41243, -1434392.9, 261181.08, 0.05366061, 10.002543, 9.998934 
2.5452584e+3, 1.3697653e+2, -1365978.9, -1627188.0, 16968.293, 0.025391368, -0.44290388, -1364881.3, 232705.56, 0.036853123, 10.002371, 9.998788 
2.5452292e+3, 1.4697532e+2, -1283474.9, -1511478.4, 27391.299, 0.0073302854, -0.4461302, -1280230.4, 219368.28, 0.02063714, 10.002119, 9.999029 
2.545201e+3, 1.5697438e+2, -1231005.6, -1448090.5, 18835.53, 0.011071881, -0.43737257, -1229383.4, 172224.94, 0.008490762, 10.001834, 9.998928 
2.5451723e+3, 1.6697346e+2, -1142802.6, -1315033.6, 25589.918, 0.01292489, -0.43433058, -1139081.0, 164535.75, 0.002134245, 10.001585, 9.999289 
2.545144e+3, 1.7697266e+2, -1088828.0, -1256327.6, 19857.182, 0.008687161, -0.43511203, -1086506.1, 119116.87, 0.00022501893, 10.001358, 9.999128 
2.5451154e+3, 1.8697141e+2, -1026002.06, -1164120.0, 25928.707, 0.0057972735, -0.46969295, -1021294.94, 86338.945, 0.0000040749073, 10.001069, 9.999228 
2.545087e+3, 1.9697006e+2, -982157.06, -1105950.6, 33401.734, 0.004917371, -0.5196038, -973719.75, 35925.63, 0.0, 10.000756, 9.9991045 
2.5450584e+3, 2.0696932e+2, -885606.1, -978841.7, 18274.186, -0.005036036, -0.50995314, -882152.3, 29499.508, 0.0, 10.000618, 9.999372 
2.5450295e+3, 2.16969e+2, -808666.75, -910600.3, 1499.9696, -0.019464254, -0.47295654, -808644.7, 5009.69, 0.0, 10.000558, 9.999197 
2.5450006e+3, 2.2696784e+2, -759548.5, -831809.06, 3686.6545, -0.014237281, -0.50040346, -759360.94, -43696.266, 0.0, 10.000203, 9.999235 
2.544972e+3, 2.3696643e+2, -738887.7, -780631.9, 17400.188, 0.0019010655, -0.5585557, -732586.06, -114908.99, 0.0, 9.999713, 9.99915 
2.544943e+3, 2.4696577e+2, -646194.2, -636591.4, 3753.0269, 0.015161984, -0.55556655, -635298.6, -115615.664, 0.0, 9.999467, 9.999584 
2.5449142e+3, 2.569656e+2, -579438.06, -570942.94, -3873.29, 0.023536587, -0.52271444, -569442.06, -147757.92, 0.0, 9.999327, 9.99943 
2.5448847e+3, 2.66965e+2, -526013.94, -479605.0, -3969.8848, 0.029139094, -0.52285373, -479267.84, -155577.45, 0.0, 9.998957, 9.999562 
2.544856e+3, 2.7696434e+2, -502849.63, -427591.8, 4136.759, 0.044029124, -0.54281956, -427365.13, -201667.3, 0.0, 9.998486, 9.999474 
2.544827e+3, 2.86964e+2, -412698.13, -280214.13, -155.8894, 0.062687844, -0.538617, -280213.94, -152513.81, 0.0, 9.998202, 9.999949 
2.5447974e+3, 2.9696417e+2, -350750.25, -208639.52, 5388.1904, 0.04962102, -0.51203823, -208435.52, -178738.47, 0.0, 9.9979925, 9.999869 
2.5447682e+3, 3.0696312e+2, -324455.22, -118780.13, -28420.47, 0.06461591, -0.62079126, -114925.2, -114925.2, 0.0, 9.997612, 10.000335 
2.544738e+3, 3.169647e+2, -378552.56, -116422.9, 944.8867, 0.008954386, -0.47697836, -116419.49, -116419.49, 0.0, 9.99712, 10.0005865 
2.5552896e+3, 1.2700666e+2, -1404905.8, -1633214.4, -1118.1802, 0.044354424, -0.4231693, -1404900.3, 290393.2, 0.04994017, 10.002546, 9.999356 
2.5552604e+3, 1.3700578e+2, -1344083.1, -1582753.8, 8990.28, 0.02985167, -0.43759927, -1343745.0, 253554.39, 0.034152754, 10.002373, 9.999096 
2.5552315e+3, 1.4700462e+2, -1294273.4, -1536298.6, 15805.205, 0.02247675, -0.43815622, -1293245.5, 206065.16, 0.01897764, 10.002122, 9.998858 
2.5552028e+3, 1.5700348e+2, -1240778.8, -1469598.5, 7942.0796, 0.036872078, -0.4323139, -1240503.4, 160819.58, 0.007696237, 10.001835, 9.998781 
2.555174e+3, 1.6700236e+2, -1147027.3, -1324908.1, 16892.223, 0.02763303, -0.43772766, -1145437.4, 157896.31, 0.0018811532, 10.001588, 9.999221 
2.5551453e+3, 1.7700142e+2, -1087635.6, -1255103.4, 10498.3545, 0.002675001, -0.44947854, -1086980.1, 118361.94, 0.00018830437, 10.001362, 9.999136 
2.5551164e+3, 1.8700045e+2, -1003206.9, -1118436.1, 13709.024, -0.0015567704, -0.47189295, -1001598.3, 105750.914, 0.0000029076905, 10.001074, 9.99954 
2.5550878e+3, 1.9699965e+2, -969304.3, -1081135.3, 22885.271, 0.005461721, -0.49926597, -964802.25, 44552.254, 0.0, 10.000762, 9.999273 
2.555059e+3, 2.0699859e+2, -914787.0, -1040936.7, 16138.081, -0.0014724439, -0.50249445, -912755.2, -1390.4883, 0.0, 10.000623, 9.998944 
2.55503e+3, 2.1699756e+2, -826333.9, -948147.06, -3618.0583, -0.015238965, -0.4942208, -826226.5, -12850.908, 0.0, 10.000559, 9.9989395 
2.555001e+3, 2.2699673e+2, -729316.94, -770056.44, -14913.257, -0.003634312, -0.5035662, -724441.25, -9058.912, 0.0, 10.000206, 9.999659 
2.554972e+3, 2.3699613e+2, -718110.25, -738670.1, 1305.7795, 0.02094723, -0.5225299, -718027.6, -100641.78, 0.0, 9.999716, 9.999437 
2.5549427e+3, 2.4699523e+2, -664780.25, -676416.5, -1367.2549, 0.024961377, -0.538938, -664621.75, -145227.58, 0.0, 9.999471, 9.9993105 
2.5549132e+3, 2.5699434e+2, -591510.56, -597729.56, -12034.055, 0.016097995, -0.55273545, -582190.75, -160787.75, 0.0, 9.999332, 9.999245 
2.5548837e+3, 2.6699397e+2, -513665.1, -455199.72, -22933.285, 0.021602858, -0.53330666, -447277.5, -123870.76, 0.0, 9.9989605, 9.999729 
2.5548542e+3, 2.7699393e+2, -490250.75, -401425.1, -12338.72, 0.04419189, -0.502613, -399743.0, -174336.16, 0.0, 9.998483, 9.999656 
2.554825e+3, 2.869931e+2, -403515.78, -261798.3, -8015.142, 0.061350655, -0.56978106, -261346.42, -133931.98, 0.0, 9.998202, 10.000077 
2.554795e+3, 2.9699206e+2, -357886.03, -226094.77, -4404.064, 0.04132911, -0.66809344, -225947.75, -196524.88, 0.0, 9.998002, 9.999746 
2.5547653e+3, 3.0699423e+2, -377603.4, -231046.58, -47772.2, 0.04099534, -0.40408728, -216849.81, -216849.81, 0.0, 9.997619, 9.999562 
2.5547352e+3, 3.169923e+2, -272845.78, 103427.695, -17182.367, 0.027584072, -0.56386846, 104210.69, 104210.69, 0.0, 9.997116, 10.0021 
2.565292e+3, 1.2703574e+2, -1383095.6, -1631605.8, 24763.303, 0.02012006, -0.44096312, -1380652.0, 314355.53, 0.046247803, 10.002733, 9.999276 
2.5652632e+3, 1.3703498e+2, -1339452.3, -1585405.1, 1438.206, 0.048868343, -0.4358116, -1339443.8, 257569.23, 0.03148773, 10.002421, 9.999052 
2.565234e+3, 1.4703384e+2, -1293125.0, -1525876.3, 6882.1294, 0.043652352, -0.43695274, -1292921.8, 206102.34, 0.017354742, 10.002086, 9.998946 
2.5652045e+3, 1.570327e+2, -1247250.3, -1464586.1, 17287.803, 0.040220864, -0.4412956, -1245883.8, 155152.36, 0.0069304747, 10.001756, 9.998853 
2.5651756e+3, 1.670316e+2, -1151534.6, -1326790.1, 39262.89, 0.029878885, -0.44639897, -1143140.5, 159906.1, 0.0016439282, 10.001556, 9.999222 
2.5651467e+3, 1.770307e+2, -1079353.9, -1251681.1, 36160.418, 0.011604073, -0.45283002, -1072073.6, 132981.1, 0.00015606394, 10.001423, 9.999129 
2.5651178e+3, 1.870298e+2, -982934.1, -1114346.3, 20381.0, 0.0018728506, -0.4673689, -979845.75, 127216.12, 0.0000021053752, 10.001239, 9.999488 
2.5650886e+3, 1.9702902e+2, -931701.7, -1065433.1, 4277.331, -0.001784751, -0.48562977, -931565.0, 77502.1, 0.0, 10.001033, 9.99925 
2.5650597e+3, 2.0702793e+2, -894659.1, -1021425.75, 15690.591, -0.0023369528, -0.49730006, -892745.9, 18331.572, 0.0, 10.000721, 9.99903 
2.5650305e+3, 2.1702681e+2, -850861.2, -953230.2, 30874.766, -0.0022687844, -0.5057236, -842270.25, -29181.498, 0.0, 10.000364, 9.998997 
2.5650012e+3, 2.2702606e+2, -742156.25, -782327.5, 3564.6304, 0.003980427, -0.50583386, -741842.4, -26747.334, 0.0, 10.000146, 9.999602 
2.5649717e+3, 2.3702562e+2, -680777.0, -723349.8, -14698.818, 0.015133764, -0.50335175, -676195.1, -59097.49, 0.0, 9.999987, 9.999412 
2.5649422e+3, 2.4702467e+2, -637251.75, -655082.7, -10313.903, 0.023571089, -0.52625316, -632534.1, -113428.0, 0.0, 9.999627, 9.99938 
2.5649127e+3, 2.5702366e+2, -609017.3, -598252.0, 3700.3958, 0.02628189, -0.55983365, -597102.7, -175987.0, 0.0, 9.999181, 9.999313 
2.5648826e+3, 2.6702335e+2, -519489.34, -450489.44, -6340.4067, 0.027448164, -0.5421739, -449911.66, -126792.984, 0.0, 9.99889, 9.999794 
2.5648528e+3, 2.7702343e+2, -460917.9, -382054.66, -3456.8118, 0.04018508, -0.5040424, -381903.4, -156786.19, 0.0, 9.998664, 9.999701 
2.5648233e+3, 2.8702262e+2, -385704.03, -257714.08, -9870.711, 0.06024555, -0.565372, -256957.31, -129832.89, 0.0, 9.998346, 10.000034 
2.5647932e+3, 2.970216e+2, -364610.97, -234756.9, -18480.762, 0.045596685, -0.66179466, -232177.95, -203044.66, 0.0, 9.997982, 9.999695 
2.5647628e+3, 3.070234e+2, -398664.94, -253847.22, -33191.477, 0.040962208, -0.42369467, -246602.34, -246602.34, 0.0, 9.997531, 9.999446 
2.5647324e+3, 3.1702116e+2, -245503.19, 155177.52, 44110.164, 0.035825144, -0.6120329, 159976.06, 159976.06, 0.0, 9.99714, 10.002443 
2.575294e+3, 1.2706523e+2, -1416373.8, -1705159.3, 13102.742, -0.0240055, -0.46556163, -1415780.4, 278935.9, 0.042601936, 10.002742, 9.998747 
2.5752658e+3, 1.3706419e+2, -1363100.5, -1637517.8, -10381.117, 0.080723286, -0.43617105, -1362708.4, 234018.77, 0.02886385, 10.002422, 9.9986925 
2.575236e+3, 1.4706306e+2, -1269909.3, -1480065.3, -5560.6914, 0.0697061, -0.44121453, -1269762.3, 228975.73, 0.015768772, 10.002092, 9.99926 
2.5752062e+3, 1.5706205e+2, -1226585.9, -1425257.4, 5940.106, 0.02234396, -0.46307564, -1226408.4, 174338.92, 0.0061930204, 10.001768, 9.999118 
2.575177e+3, 1.670612e+2, -1145768.1, -1317704.8, 33772.48, 0.020606412, -0.45999184, -1139372.3, 163383.02, 0.0014220574, 10.001567, 9.99928 
2.575148e+3, 1.7706053e+2, -1080957.1, -1256366.9, 29883.62, 0.0346788, -0.44603342, -1076005.8, 128755.49, 0.0001276747, 10.001427, 9.999096 
2.5751188e+3, 1.8705942e+2, -1010893.3, -1173457.8, 12410.093, 0.015381474, -0.456468, -1009951.4, 96820.36, 0.0000015362658, 10.001242, 9.999082 
2.5750893e+3, 1.9705823e+2, -945701.6, -1095419.0, -4481.3774, -0.016738828, -0.4781266, -945567.56, 63215.188, 0.0, 10.001035, 9.999045 
2.57506e+3, 2.0705734e+2, -853961.8, -938024.2, 2169.8384, -0.0076484233, -0.49407452, -853905.9, 56884.05, 0.0, 10.000723, 9.999602 
2.575031e+3, 2.1705674e+2, -825841.8, -902608.2, 18730.13, 0.018707369, -0.5076047, -821515.7, -8721.693, 0.0, 10.000368, 9.999344 
2.575001e+3, 2.270558e+2, -779274.1, -860730.56, -2194.044, 0.008370259, -0.5072362, -779215.06, -64412.05, 0.0, 10.00015, 9.9990635 
2.5749713e+3, 2.3705487e+2, -704150.0, -773102.75, -23032.137, -0.0155698275, -0.5013042, -697164.3, -80351.59, 0.0, 9.9999895, 9.999069 
2.5749415e+3, 2.4705411e+2, -608079.9, -595621.25, -27728.613, 0.01088885, -0.5173031, -573430.9, -54611.84, 0.0, 9.999631, 9.999787 
2.574912e+3, 2.5705358e+2, -586387.75, -551988.4, -11848.403, 0.05430346, -0.54279107, -548302.3, -127480.05, 0.0, 9.999182, 9.999631 
2.5748816e+3, 2.670531e+2, -522753.84, -457982.72, -15085.032, 0.04704331, -0.5498244, -454641.78, -131815.39, 0.0, 9.998891, 9.999743 
2.5748512e+3, 2.7705276e+2, -467938.13, -397964.34, -13545.946, 0.031247763, -0.5502253, -395433.56, -170603.86, 0.0, 9.998668, 9.999591 
2.5748214e+3, 2.8705263e+2, -401828.47, -292223.38, -24829.117, 0.059197284, -0.52170193, -286861.13, -160030.81, 0.0, 9.998349, 9.999797 
2.5747913e+3, 2.9705283e+2, -362888.66, -231305.31, -34790.37, 0.06385791, -0.47917354, -222673.1, -193845.36, 0.0, 9.99798, 9.999721 
2.5747606e+3, 3.0705035e+2, -356277.4, -165563.42, -52557.176, 0.066525914, -0.7073775, -152038.77, -152038.77, 0.0, 9.997527, 10.000055 
2.5747296e+3, 3.17052e+2, -320200.1, -772.9947, 61206.703, 0.02750951, -0.5382164, 10553.447, 10553.447, 0.0, 9.997142, 10.001372 
2.585297e+3, 1.2709518e+2, -1355328.6, -1691707.9, 15788.506, -0.04308357, -0.4740597, -1354589.1, 339832.2, 0.0390263, 10.0032425, 9.998598 
2.5852683e+3, 1.3709392e+2, -1375204.4, -1655367.9, 20159.805, 0.10305829, -0.45340806, -1373761.1, 222674.03, 0.026293956, 10.002384, 9.998589 
2.5852382e+3, 1.4709277e+2, -1254672.1, -1466545.9, 36077.01, 0.08502719, -0.45845935, -1248697.5, 249748.56, 0.014224891, 10.002171, 9.999315 
2.585208e+3, 1.5709186e+2, -1152710.1, -1386057.6, 27619.799, 0.009241736, -0.4760092, -1149485.5, 250968.64, 0.0054854946, 10.002265, 9.999147 
2.5851786e+3, 1.6709097e+2, -1099886.3, -1303966.9, 35702.36, 0.01344522, -0.4704364, -1093820.6, 208641.6, 0.0012158366, 10.00192, 9.999204 
2.58515e+3, 1.7709027e+2, -1092056.3, -1268582.0, 23861.492, 0.04884209, -0.4546634, -1088887.6, 115581.46, 0.000102820115, 10.001382, 9.999034 
2.5851202e+3, 1.8708915e+2, -1029798.6, -1184378.1, 27587.92, 0.029873477, -0.46224067, -1025022.56, 81457.53, 0.0000011114956, 10.0011215, 9.9990635 
2.5850904e+3, 1.9708797e+2, -952074.75, -1098329.9, 35651.242, -0.011491208, -0.48097524, -943847.25, 64644.23, 0.0, 10.000992, 9.999044 
2.585061e+3, 2.0708714e+2, -846948.9, -928399.56, 20064.357, -0.006469674, -0.49391508, -842274.56, 68223.37, 0.0, 10.000747, 9.999656 
2.5850314e+3, 2.1708661e+2, -810850.75, -890040.56, 989.02625, 0.018499136, -0.50432724, -810838.4, 1662.4794, 0.0, 10.00045, 9.99939 
2.5850016e+3, 2.2708565e+2, -768396.2, -855629.4, -239.70622, 0.007268402, -0.50886196, -768395.56, -53885.25, 0.0, 10.000228, 9.99906 
2.5849712e+3, 2.3708463e+2, -696416.9, -767601.1, 15710.772, -0.017696943, -0.5110183, -693103.6, -76582.41, 0.0, 10.000037, 9.9990835 
2.584941e+3, 2.4708399e+2, -584632.06, -574871.7, -341.6277, 0.009349004, -0.5212344, -574859.7, -56333.266, 0.0, 9.999753, 9.99987 
2.584911e+3, 2.5708365e+2, -547064.5, -525106.7, -7762.9507, 0.054966107, -0.53500503, -522639.44, -102111.83, 0.0, 9.99942, 9.9997 
2.5848806e+3, 2.6708317e+2, -497958.16, -446084.34, -13536.691, 0.049920402, -0.5441231, -442764.38, -120232.78, 0.0, 9.999064, 9.999741 
2.5848502e+3, 2.7708274e+2, -465015.6, -397248.8, -8658.889, 0.035664666, -0.5535449, -396159.9, -171624.19, 0.0, 9.998693, 9.999582 
2.5848198e+3, 2.8708258e+2, -411520.72, -300457.1, -9579.096, 0.061906096, -0.52695143, -299636.97, -173100.1, 0.0, 9.9983, 9.9997635 
2.5847894e+3, 2.9708275e+2, -372734.88, -233137.72, -5779.9937, 0.0643691, -0.47962338, -232898.81, -204364.47, 0.0, 9.997902, 9.999745 
2.5847584e+3, 3.0708048e+2, -312824.06, -118233.15, -42181.777, 0.0804097, -0.70700246, -109482.83, -109482.83, 0.0, 9.997714, 10.000289 
2.5847268e+3, 3.1708264e+2, -303612.78, -43940.5, 54322.805, 0.04166829, -0.5002435, -33034.355, -33034.355, 0.0, 9.997479, 10.000912 
2.5953004e+3, 1.2712562e+2, -1343447.5, -1666532.3, -16473.855, -0.041372824, -0.46748522, -1342609.6, 351512.56, 0.03554215, 10.003229, 9.998784 
2.595271e+3, 1.3712415e+2, -1364958.6, -1638315.0, -6103.722, 0.11627759, -0.48707235, -1364822.4, 231314.72, 0.023794545, 10.002398, 9.998699 
2.5952405e+3, 1.4712296e+2, -1265004.3, -1493065.1, 38938.992, 0.090739146, -0.48821405, -1258539.1, 239609.22, 0.01273292, 10.002187, 9.999125 
2.59521e+3, 1.571221e+2, -1165391.3, -1413945.3, 25693.512, 0.00028607307, -0.4806726, -1162763.1, 237393.31, 0.004812382, 10.002268, 9.998956 
2.5951803e+3, 1.6712101e+2, -1113967.1, -1334346.5, 14731.771, 0.007829209, -0.47773334, -1112986.6, 189180.56, 0.0010265025, 10.001923, 9.998995 
2.595151e+3, 1.7711996e+2, -1097365.9, -1281856.4, 6456.419, 0.054262366, -0.47733834, -1097140.3, 107037.75, 0.000081372455, 10.0013895, 9.9989395 
2.5951216e+3, 1.8711899e+2, -1004633.7, -1134429.1, 22702.34, 0.045306895, -0.48369873, -1000777.44, 105409.27, 0.0000007755459, 10.00113, 9.999404 
2.5950915e+3, 1.9711822e+2, -938773.6, -1072380.3, 29008.555, 0.012892798, -0.49379945, -932747.1, 75446.13, 0.0, 10.000998, 9.999221 
2.5950617e+3, 2.0711729e+2, -878013.9, -994209.3, 8591.324, 0.0007753266, -0.49667102, -877382.06, 32819.51, 0.0, 10.000751, 9.999204 
2.595032e+3, 2.1711645e+2, -827666.1, -925990.5, -9245.367, -0.0023352527, -0.4964905, -826804.3, -14594.995, 0.0, 10.000453, 9.999143 
2.5950015e+3, 2.271156e+2, -731765.3, -780618.2, -7025.769, 0.0009130048, -0.51100814, -730775.0, -16558.045, 0.0, 10.00023, 9.999575 
2.5949714e+3, 2.3711489e+2, -670922.3, -715866.75, 7433.5786, 0.008286068, -0.5321429, -669724.75, -53501.543, 0.0, 10.000041, 9.999437 
2.594941e+3, 2.4711427e+2, -601956.0, -612105.5, -12986.312, 0.018673506, -0.5381378, -593088.1, -74859.53, 0.0, 9.999757, 9.999614 
2.5949103e+3, 2.5711384e+2, -559942.0, -553217.94, -20945.398, 0.027208792, -0.5371144, -535366.44, -115134.36, 0.0, 9.999424, 9.999506 
2.5948796e+3, 2.6711354e+2, -494686.97, -440390.25, -28175.563, 0.03545209, -0.52412987, -428411.94, -106177.47, 0.0, 9.999066, 9.99978 
2.594849e+3, 2.7711338e+2, -458270.03, -383873.38, -23670.781, 0.054262225, -0.5108981, -376980.63, -152745.27, 0.0, 9.998694, 9.999674 
2.5948182e+3, 2.8711233e+2, -399061.97, -274737.44, -25460.303, 0.06843832, -0.5859236, -269725.5, -143480.61, 0.0, 9.998299, 9.999942 
2.594787e+3, 2.971113e+2, -372294.13, -231933.0, -18579.82, 0.044830035, -0.6792472, -229515.22, -201260.38, 0.0, 9.997899, 9.999756 
2.5947562e+3, 3.07114e+2, -325973.06, -146846.72, -46686.902, 0.081125386, -0.38841388, -135408.75, -135408.75, 0.0, 9.997718, 10.0000925 
2.5947246e+3, 3.171121e+2, -284453.97, -6618.732, 511.25436, 0.08379789, -0.5878945, -6617.791, -6617.791, 0.0, 9.997486, 10.001166 
2.6053035e+3, 1.2715636e+2, -1370415.1, -1685717.5, -4267.17, -0.013854815, -0.46860555, -1370357.4, 323463.0, 0.03216082, 10.003054, 9.998732 
2.6052734e+3, 1.371547e+2, -1288835.5, -1607860.6, -7522.6445, 0.09935046, -0.50116, -1288658.3, 307178.66, 0.021379057, 10.002958, 9.998637 
2.605243e+3, 1.4715347e+2, -1209919.0, -1480507.6, 43761.508, 0.07888338, -0.49737588, -1203017.6, 294831.1, 0.011303201, 10.002631, 9.998996 
2.6052123e+3, 1.5715261e+2, -1180056.5, -1431918.8, 32610.795, 0.017099723, -0.47740278, -1175902.6, 223954.44, 0.004179176, 10.002214, 9.998857 
2.6051822e+3, 1.6715142e+2, -1110770.8, -1331637.6, 27279.416, 0.020519735, -0.47925422, -1107451.3, 194417.34, 0.000855522, 10.001942, 9.999003 
2.6051527e+3, 1.7715023e+2, -1047215.56, -1257212.3, 34099.3, 0.048090283, -0.49138305, -1041817.25, 162062.94, 0.000063243526, 10.001734, 9.998941 
2.6051226e+3, 1.871493e+2, -965010.4, -1118466.6, 40232.227, 0.038620263, -0.49471766, -955102.3, 150786.63, 0.0000005058523, 10.001418, 9.999373 
2.6050925e+3, 1.971486e+2, -931522.4, -1070953.9, 20525.42, 0.014035983, -0.49438906, -928563.7, 79331.305, 0.0, 10.001059, 9.9992 
2.6050624e+3, 2.0714764e+2, -871909.3, -991314.2, 13782.385, 0.0021040018, -0.50048006, -870339.1, 39564.77, 0.0, 10.000795, 9.999201 
2.605032e+3, 2.171467e+2, -808770.2, -914443.6, 26848.566, -0.0044061677, -0.50948125, -802340.0, 9572.632, 0.0, 10.000574, 9.999163 
2.6050016e+3, 2.2714598e+2, -720594.94, -763646.94, 17372.32, 0.0019028364, -0.51780695, -714459.3, -540.25037, 0.0, 10.000259, 9.999676 
2.6049715e+3, 2.371455e+2, -684592.8, -712496.25, 2308.248, 0.015594036, -0.5266221, -684403.1, -68480.01, 0.0, 9.999907, 9.999524 
2.6049405e+3, 2.4714488e+2, -610903.44, -615424.06, -13133.517, 0.019983346, -0.5356615, -599837.2, -81908.66, 0.0, 9.999693, 9.99962 
2.6049095e+3, 2.5714436e+2, -543075.8, -542875.25, -3252.6335, 0.016660677, -0.5434602, -539721.4, -119788.33, 0.0, 9.999533, 9.999523 
2.6048785e+3, 2.6714417e+2, -478369.28, -426536.7, -9097.703, 0.025924616, -0.5229686, -424986.22, -103051.984, 0.0, 9.999155, 9.999831 
2.6048476e+3, 2.771442e+2, -456383.9, -377764.75, -3386.8843, 0.052067913, -0.49631006, -377619.13, -153685.89, 0.0, 9.998687, 9.999719 
2.6048163e+3, 2.8714287e+2, -383073.47, -266893.5, -12557.114, 0.07088369, -0.60024995, -265551.78, -139606.28, 0.0, 9.99841, 9.999941 
2.604785e+3, 2.9714137e+2, -328145.5, -209918.22, -17227.986, 0.05057843, -0.7363296, -207458.92, -179499.08, 0.0, 9.998201, 9.99976 
2.6047537e+3, 3.0714577e+2, -304779.28, -125127.21, -28893.184, 0.06383542, -0.28700054, -120594.72, -120594.72, 0.0, 9.997816, 10.000193 
2.604722e+3, 3.1714237e+2, -312100.16, -24795.053, 6843.2373, 0.10334852, -0.64555657, -24632.148, -24632.148, 0.0, 9.99732, 10.00112 
2.6153073e+3, 1.2718743e+2, -1386423.9, -1722651.0, -9219.976, 0.03634307, -0.47760192, -1386171.3, 307344.4, 0.028886074, 10.003057, 9.998475 
2.615276e+3, 1.3718563e+2, -1302868.8, -1639542.3, -14490.289, 0.0532804, -0.49602544, -1302246.3, 293287.3, 0.01905575, 10.002959, 9.99842 
2.615245e+3, 1.4718434e+2, -1214784.8, -1493061.4, 27487.746, 0.050479807, -0.48670822, -1212095.6, 285450.94, 0.009943568, 10.002636, 9.998908 
2.6152152e+3, 1.571834e+2, -1180723.5, -1435267.5, 17962.248, 0.057728734, -0.46651995, -1179462.1, 220093.6, 0.0035902862, 10.002219, 9.998832 
2.6151845e+3, 1.6718225e+2, -1095754.5, -1302139.3, 18982.041, 0.049965672, -0.47563806, -1094023.1, 207543.14, 0.00070380565, 10.001946, 9.999205 
2.615154e+3, 1.7718115e+2, -1041005.2, -1245790.3, 24277.037, 0.030537339, -0.49783358, -1038166.5, 165409.6, 0.00004826116, 10.001739, 9.999019 
2.6151237e+3, 1.8718007e+2, -991393.56, -1174598.5, 26218.248, 0.01072744, -0.49591282, -987715.4, 117871.46, 0.0000003029616, 10.001422, 9.998987 
2.6150936e+3, 1.9717912e+2, -945595.7, -1101386.5, 8149.2104, -0.007045125, -0.4836035, -945170.6, 62425.895, 0.0, 10.001062, 9.99899 
2.615063e+3, 2.0717818e+2, -841889.94, -930152.5, 5752.407, -0.002260109, -0.50555706, -841516.6, 68087.984, 0.0, 10.000798, 9.9996195 
2.6150328e+3, 2.1717735e+2, -789919.06, -876232.5, 17450.82, 0.011207794, -0.5420463, -786524.4, 25086.41, 0.0, 10.000576, 9.999425 
2.615002e+3, 2.2717677e+2, -742136.3, -809360.2, 3916.141, 0.009822281, -0.52858704, -741908.94, -28292.227, 0.0, 10.000261, 9.999362 
2.614971e+3, 2.371764e+2, -697046.8, -739371.25, -9655.27, 0.0043804394, -0.49494454, -694948.25, -79327.0, 0.0, 9.999909, 9.99934 
2.61494e+3, 2.4717578e+2, -591777.56, -576718.44, -19057.74, 0.0133216735, -0.513894, -563756.75, -46130.26, 0.0, 9.999696, 9.999886 
2.614909e+3, 2.571752e+2, -526695.25, -509970.2, -11985.102, 0.023390088, -0.5540038, -503718.53, -84088.0, 0.0, 9.999536, 9.999749 
2.6148775e+3, 2.6717505e+2, -474079.94, -418370.53, -27505.646, 0.02113251, -0.5416247, -407078.78, -85447.56, 0.0, 9.999157, 9.999887 
2.614846e+3, 2.7717516e+2, -457413.88, -380157.34, -19160.865, 0.027436426, -0.51168907, -375666.22, -152036.48, 0.0, 9.998686, 9.999704 
2.6148146e+3, 2.8717422e+2, -396980.34, -296630.53, -20600.807, 0.06904564, -0.5656811, -292566.03, -166927.36, 0.0, 9.998411, 9.999737 
2.6147833e+3, 2.971732e+2, -327479.4, -210663.6, -28095.586, 0.08389017, -0.63780236, -204257.56, -176608.9, 0.0, 9.998208, 9.999752 
2.614751e+3, 3.0717546e+2, -274545.72, -63100.906, -47574.61, 0.026006337, -0.42940298, -52889.84, -52889.84, 0.0, 9.997817, 10.00062 
2.6147196e+3, 3.171742e+2, -344091.56, -89469.49, -5149.671, 0.10028141, -0.596931, -89365.39, -89365.39, 0.0, 9.997311, 10.000681 
2.6253104e+3, 1.2721854e+2, -1371592.8, -1711289.1, -7447.5327, 0.0700496, -0.47720766, -1371429.5, 321781.63, 0.025724195, 10.003135, 9.998515 
2.6252785e+3, 1.3721687e+2, -1271225.8, -1622471.3, 2587.044, 0.041950267, -0.48798567, -1271206.8, 324020.78, 0.0168317, 10.003169, 9.998435 
2.6252478e+3, 1.472155e+2, -1193873.6, -1492397.6, 37538.33, 0.040619247, -0.48228744, -1189225.6, 308015.47, 0.008659627, 10.002821, 9.998821 
2.6252174e+3, 1.5721437e+2, -1171967.3, -1437998.9, 29393.922, 0.07164247, -0.47046745, -1168758.3, 230493.83, 0.0030482584, 10.002312, 9.998768 
2.6251867e+3, 1.672132e+2, -1088420.8, -1297846.1, 28193.568, 0.058443453, -0.48115432, -1084691.6, 216571.3, 0.0005712194, 10.001997, 9.999208 
2.6251557e+3, 1.7721213e+2, -1034553.7, -1240016.1, 19119.791, 0.020172192, -0.501691, -1032789.56, 170482.81, 0.000036096004, 10.001775, 9.99904 
2.625125e+3, 1.8721108e+2, -975571.8, -1159757.6, 35407.598, -0.0008453547, -0.5004959, -968999.6, 136282.97, 0.00000016598092, 10.001502, 9.999049 
2.6250944e+3, 1.9721016e+2, -921112.0, -1084112.4, 47837.2, -0.01154207, -0.49033102, -908109.94, 99181.89, 0.0, 10.001208, 9.999038 
2.625064e+3, 2.0720926e+2, -833698.56, -926814.44, 34192.684, -0.004033626, -0.5086032, -822491.6, 86808.02, 0.0, 10.000859, 9.999612 
2.6250333e+3, 2.1720849e+2, -802260.9, -881272.9, 15504.261, 0.010254707, -0.5388028, -799327.44, 11978.23, 0.0, 10.00049, 9.99943 
2.6250023e+3, 2.2720791e+2, -744809.9, -807488.2, 10238.938, 0.0070623117, -0.5255495, -743179.7, -29868.127, 0.0, 10.000232, 9.999388 
2.624971e+3, 2.3720756e+2, -677529.9, -723642.2, 21281.023, -0.0013852873, -0.4944108, -669209.75, -53893.668, 0.0, 10.000018, 9.999394 
2.62494e+3, 2.4720705e+2, -585268.75, -557329.1, 13063.652, 0.010857806, -0.5131599, -552172.6, -34852.54, 0.0, 9.999672, 10.00003 
2.6249084e+3, 2.5720662e+2, -557222.4, -512686.8, 10469.992, 0.026956603, -0.5526521, -510348.22, -91025.695, 0.0, 9.999276, 9.999854 
2.6248768e+3, 2.6720643e+2, -491640.16, -430914.53, -14475.11, 0.020347178, -0.54418045, -427640.63, -106317.055, 0.0, 9.999056, 9.999849 
2.6248446e+3, 2.7720645e+2, -427889.1, -367211.7, -12435.049, 0.018904317, -0.5197389, -364762.2, -141438.84, 0.0, 9.998897, 9.99969 
2.6248133e+3, 2.8720573e+2, -372534.03, -276460.53, -616.10706, 0.06675911, -0.55840117, -276456.6, -151126.33, 0.0, 9.998546, 9.99981 
2.6247814e+3, 2.97205e+2, -336375.16, -206160.77, 10273.074, 0.09075571, -0.6071131, -205355.27, -178018.34, 0.0, 9.998111, 9.999829 
2.6247486e+3, 3.0720648e+2, -278821.03, -63713.477, -30051.54, 0.027390378, -0.47739267, -59594.027, -59594.027, 0.0, 9.997784, 10.00063 
2.6247168e+3, 3.17206e+2, -315486.84, -104892.33, 7570.1563, 0.09700515, -0.56734806, -104620.555, -104620.555, 0.0, 9.997636, 10.000417 
2.635314e+3, 1.2724982e+2, -1349035.3, -1668700.0, -5899.0254, 0.088542044, -0.4667046, -1348926.5, 343979.4, 0.022693224, 10.003145, 9.998806 
2.635282e+3, 1.3724844e+2, -1255414.5, -1592289.9, -1156.7642, 0.06102799, -0.4778239, -1255410.5, 339507.66, 0.014718925, 10.003175, 9.998641 
2.6352504e+3, 1.4724694e+2, -1198832.0, -1505487.6, 17222.393, 0.046986163, -0.4842384, -1197867.9, 299064.47, 0.007457806, 10.002828, 9.99873 
2.6352194e+3, 1.5724558e+2, -1178424.9, -1453492.0, 11553.49, 0.06074811, -0.4881978, -1177940.5, 221005.25, 0.0025548777, 10.002317, 9.998659 
2.6351884e+3, 1.672443e+2, -1100498.1, -1324662.3, 19603.82, 0.047429476, -0.49482372, -1098796.6, 202161.48, 0.00045697592, 10.002003, 9.9990225 
2.6351574e+3, 1.7724317e+2, -1036373.44, -1245156.9, 10215.455, 0.016387986, -0.5027064, -1035874.8, 167093.83, 0.000026377018, 10.001779, 9.999003 
2.6351264e+3, 1.8724234e+2, -941821.94, -1090839.5, 24357.54, 0.00289265, -0.5082323, -937941.6, 167034.34, 0.00000008213487, 10.001505, 9.999521 
2.6350957e+3, 1.9724172e+2, -901555.75, -1044267.2, 35720.887, -0.00071641733, -0.51317495, -893114.1, 113866.805, 0.0, 10.00121, 9.999311 
2.6350647e+3, 2.072409e+2, -863247.8, -988998.56, 19912.547, -0.0035294152, -0.50918335, -860170.0, 48819.113, 0.0, 10.000861, 9.999186 
2.6350334e+3, 2.172401e+2, -819157.94, -917395.7, 2902.3064, -0.0066353427, -0.5016218, -819072.25, -8074.7954, 0.0, 10.000493, 9.999182 
2.635002e+3, 2.2723943e+2, -719409.06, -755698.4, 2607.973, -0.006253268, -0.50972134, -719222.56, -6218.8647, 0.0, 10.000235, 9.999743 
2.6349708e+3, 2.3723897e+2, -657262.44, -682464.8, 11680.118, -0.0024806373, -0.5246524, -652681.75, -37673.996, 0.0, 10.00002, 9.999677 
2.6349396e+3, 2.4723867e+2, -584161.5, -555854.5, -2311.252, 0.0124301, -0.5332718, -555667.06, -38657.547, 0.0, 9.999674, 10.000039 
2.6349077e+3, 2.5723857e+2, -558902.7, -516589.16, -2770.2324, 0.027278692, -0.5388338, -516408.56, -97399.484, 0.0, 9.999275, 9.999828 
2.6348758e+3, 2.6723832e+2, -501651.16, -452174.63, -20414.84, 0.023846809, -0.52992344, -444838.8, -123827.28, 0.0, 9.999056, 9.999704 
2.6348436e+3, 2.7723804e+2, -428316.7, -369487.88, -21048.861, 0.027290741, -0.5199142, -362732.38, -139718.03, 0.0, 9.9989, 9.999674 
2.6348114e+3, 2.8723732e+2, -346607.66, -223360.94, -17831.508, 0.063564934, -0.5808246, -220832.9, -95812.195, 0.0, 9.998547, 10.0001745 
2.6347795e+3, 2.9723668e+2, -325922.53, -183672.13, -5233.618, 0.068522155, -0.65077734, -183479.84, -156454.6, 0.0, 9.998106, 9.999988 
2.6347467e+3, 3.07239e+2, -311461.66, -131324.52, -40901.734, 0.07261746, -0.4191764, -122472.41, -122472.41, 0.0, 9.997781, 10.000169 
2.6347142e+3, 3.1723735e+2, -317447.94, -112758.19, 29677.492, 0.08172058, -0.58741206, -108542.16, -108542.16, 0.0, 9.997649, 10.000359 
2.645317e+3, 1.2728135e+2, -1306684.6, -1650447.1, 28358.914, 0.10057619, -0.47696814, -1304360.8, 388236.3, 0.0198222, 10.003443, 9.99879 
2.645285e+3, 1.3728017e+2, -1227008.8, -1579740.4, 9541.181, 0.06368102, -0.46662807, -1226750.9, 367856.78, 0.012735441, 10.003373, 9.9986315 
2.6452535e+3, 1.4727867e+2, -1176043.5, -1495995.0, 10776.733, 0.045392737, -0.47391817, -1175680.9, 320941.0, 0.0063468274, 10.002992, 9.998714 
2.645222e+3, 1.5727718e+2, -1153941.5, -1441521.6, 12152.519, 0.05764002, -0.48873, -1153428.9, 245207.39, 0.0021122305, 10.002487, 9.998659 
2.6451904e+3, 1.6727586e+2, -1075424.6, -1308387.6, 40522.563, 0.044645146, -0.49940163, -1068577.3, 232071.53, 0.00036024698, 10.002158, 9.999058 
2.645159e+3, 1.7727476e+2, -1014491.44, -1229129.5, 44003.227, 0.015142845, -0.50804496, -1005820.56, 196838.34, 0.000018812569, 10.001907, 9.999051 
2.645128e+3, 1.8727405e+2, -935966.9, -1078406.4, 38624.473, 0.0028127462, -0.5077628, -926167.44, 178497.64, 0.000000036221024, 10.001507, 9.999605 
2.6450968e+3, 1.9727361e+2, -920065.2, -1044789.1, 23710.73, -0.000067120076, -0.5044013, -915709.7, 90958.8, 0.0, 10.00105, 9.999383 
2.6450655e+3, 2.072728e+2, -874394.0, -993770.75, 24501.29, -0.0063401167, -0.5013094, -869560.94, 39115.656, 0.0, 10.000785, 9.999188 
2.645034e+3, 2.1727195e+2, -801814.6, -905180.3, 37053.59, -0.014666657, -0.49818102, -789904.4, 20781.082, 0.0, 10.000597, 9.999214 
2.6450023e+3, 2.2727135e+2, -713971.06, -738495.75, 31946.658, -0.01193952, -0.5107309, -692014.2, 20676.889, 0.0, 10.000211, 9.999871 
2.6449707e+3, 2.3727095e+2, -689774.0, -686322.5, 24980.297, -0.002220297, -0.5304838, -663008.44, -48314.27, 0.0, 9.999748, 9.99978 
2.6449388e+3, 2.4727076e+2, -601147.06, -563622.7, 8200.321, 0.010557302, -0.53206444, -561908.94, -45214.0, 0.0, 9.9995575, 10.000041 
2.644907e+3, 2.5727078e+2, -529055.75, -498720.03, 7101.949, 0.01996453, -0.5256154, -497139.7, -78446.13, 0.0, 9.999468, 9.999857 
2.6448748e+3, 2.6727048e+2, -486864.34, -432924.75, 774.7788, 0.021621656, -0.528025, -432913.63, -112217.36, 0.0, 9.999107, 9.99981 
2.6448423e+3, 2.7727014e+2, -459954.75, -374294.28, 18267.867, 0.034222394, -0.5380184, -370561.16, -147861.4, 0.0, 9.99864, 9.999765 
2.64481e+3, 2.8726962e+2, -359674.38, -226414.67, 9158.862, 0.0644986, -0.57958364, -225788.13, -101084.22, 0.0, 9.998445, 10.000202 
2.6447776e+3, 2.9726937e+2, -291186.25, -167581.8, -3417.7446, 0.0588311, -0.6173307, -167487.36, -140781.97, 0.0, 9.998349, 9.99998 
2.6447448e+3, 3.0727106e+2, -281857.7, -129752.984, -29125.44, 0.08956488, -0.4398098, -124366.7, -124366.7, 0.0, 9.99804, 10.000053 
2.644712e+3, 3.1726936e+2, -322131.7, -91003.38, 67772.805, 0.080780104, -0.6021765, -72596.54, -72596.54, 0.0, 9.997516, 10.00057 
2.6553205e+3, 1.2731317e+2, -1321293.6, -1688109.4, 25501.084, 0.10627943, -0.50610226, -1319529.3, 372755.34, 0.017141426, 10.003466, 9.998515 
2.6552883e+3, 1.3731214e+2, -1239381.1, -1607995.5, 3168.499, 0.051186167, -0.45324987, -1239353.9, 354941.3, 0.010900169, 10.003376, 9.998436 
2.6552564e+3, 1.4731069e+2, -1172290.3, -1490156.1, -8553.462, 0.036197852, -0.4517267, -1172060.3, 324249.0, 0.0053358055, 10.0029955, 9.9987545 
2.6552245e+3, 1.5730916e+2, -1146419.8, -1428489.0, -5041.056, 0.061011963, -0.47310483, -1146329.8, 251993.69, 0.0017222441, 10.002496, 9.998745 
2.6551926e+3, 1.6730791e+2, -1058321.3, -1274726.1, 30893.14, 0.049191568, -0.49550602, -1053997.5, 246337.13, 0.00028014154, 10.002165, 9.999287 
2.655161e+3, 1.773069e+2, -1006535.3, -1213104.9, 32201.072, 0.016008671, -0.51732016, -1001632.06, 200711.13, 0.000013158939, 10.001907, 9.999162 
2.6551294e+3, 1.8730623e+2, -956106.1, -1120882.0, 20813.826, -0.0010682684, -0.49942234, -953517.7, 150832.2, 0.000000014940222, 10.001508, 9.999313 
2.6550975e+3, 1.9730581e+2, -928118.75, -1062764.3, 8622.86, -0.008986593, -0.46631536, -927568.75, 78785.875, 0.0, 10.001054, 9.999259 
2.6550663e+3, 2.0730498e+2, -845041.25, -933744.9, 17908.154, -0.0124128815, -0.4858912, -841562.3, 66799.8, 0.0, 10.000787, 9.9996 
2.6550344e+3, 2.173041e+2, -781129.44, -862445.0, 27863.88, -0.0148251755, -0.5268047, -772497.75, 37871.773, 0.0, 10.000597, 9.999509 
2.6550025e+3, 2.2730365e+2, -721342.75, -754498.1, 14165.481, -0.010192562, -0.52759457, -716114.94, -3741.2092, 0.0, 10.000213, 9.999762 
2.6549706e+3, 2.373035e+2, -695160.75, -698518.94, 10500.892, -0.0004715789, -0.51209456, -686205.56, -71830.125, 0.0, 9.999751, 9.999696 
2.6549384e+3, 2.473033e+2, -601383.4, -565060.2, 5150.488, 0.004977175, -0.5096085, -564343.94, -47967.438, 0.0, 9.999559, 10.000031 
2.6549062e+3, 2.5730327e+2, -522830.47, -486962.4, 266.33466, 0.004259054, -0.5131869, -486960.4, -68584.195, 0.0, 9.999472, 9.999937 
2.6548734e+3, 2.6730296e+2, -461199.4, -380199.22, -17789.855, 0.0132949725, -0.5392712, -376464.28, -56086.29, 0.0, 9.999107, 10.000173 
2.654841e+3, 2.7730268e+2, -446828.4, -346377.13, 3769.0225, 0.03940636, -0.5751932, -346235.9, -123856.23, 0.0, 9.998635, 9.999961 
2.6548085e+3, 2.873027e+2, -384061.47, -277004.66, 5937.6045, 0.06984523, -0.5522238, -276676.34, -152296.56, 0.0, 9.998443, 9.999857 
2.654776e+3, 2.9730302e+2, -303556.75, -194994.2, -10179.076, 0.062352654, -0.49898103, -194048.05, -167670.81, 0.0, 9.998355, 9.99979 
2.6547426e+3, 3.073025e+2, -262918.63, -91980.21, -45429.816, 0.07452482, -0.5496737, -80656.586, -80656.586, 0.0, 9.998045, 10.000311 
2.6547095e+3, 3.1730238e+2, -288855.53, -20448.162, 20073.725, 0.10563078, -0.58366865, -18955.188, -18955.188, 0.0, 9.997507, 10.001061 
2.665324e+3, 1.2734567e+2, -1248389.0, -1673232.0, 35023.19, 0.08246812, -0.496857, -1245521.1, 446445.3, 0.014671492, 10.004055, 9.998334 
2.665292e+3, 1.373445e+2, -1243501.9, -1623828.6, 17874.926, 0.06315064, -0.43979123, -1242663.6, 351315.56, 0.009225728, 10.003403, 9.998313 
2.6652592e+3, 1.4734297e+2, -1163019.0, -1478173.8, 9293.4375, 0.04267165, -0.44367865, -1162745.3, 333248.34, 0.004430293, 10.003026, 9.998821 
2.6652268e+3, 1.5734144e+2, -1103178.6, -1400660.1, 13893.0, 0.04595552, -0.47426468, -1102531.3, 295476.28, 0.0013850862, 10.002765, 9.998806 
2.665195e+3, 1.6734022e+2, -1039868.75, -1263546.0, 38600.598, 0.040703353, -0.49424145, -1033394.75, 266623.28, 0.00021523162, 10.002284, 9.999305 
2.665163e+3, 1.7733932e+2, -1031997.5, -1222642.0, 26197.676, 0.025065549, -0.5088609, -1028463.06, 173562.78, 0.000009125485, 10.001724, 9.999183 
2.6651308e+3, 1.8733864e+2, -969309.3, -1126191.9, 27963.06, 0.0027458426, -0.49200872, -964474.1, 139558.53, 0.000000005798, 10.001415, 9.999321 
2.6650986e+3, 1.973382e+2, -901360.8, -1042902.4, 35576.152, -0.019264592, -0.4631903, -892921.94, 113115.98, 0.0, 10.001209, 9.999319 
2.6650667e+3, 2.0733748e+2, -832759.2, -901417.56, 40159.51, -0.018727843, -0.48749137, -814255.8, 93787.945, 0.0, 10.00076, 9.999834 
2.6650348e+3, 2.1733677e+2, -823942.4, -862764.44, 37641.715, -0.009660577, -0.5335351, -801001.5, 9047.24, 0.0, 10.000217, 9.999687 
2.6650026e+3, 2.273364e+2, -755600.4, -773465.94, 27224.582, -0.006029497, -0.530993, -735880.56, -23828.402, 0.0, 9.9999895, 9.999738 
2.6649702e+3, 2.3733631e+2, -674691.25, -687385.9, 30728.895, -0.002517202, -0.50850135, -649660.94, -35607.25, 0.0, 9.999888, 9.999705 
2.664938e+3, 2.4733612e+2, -591842.8, -549742.06, 33983.406, 0.0031829316, -0.5133471, -530817.56, -14762.641, 0.0, 9.999581, 10.000125 
2.6649055e+3, 2.57336e+2, -556367.1, -492838.47, 35432.086, 0.0051865573, -0.52964884, -477017.03, -58962.18, 0.0, 9.999198, 10.000028 
2.6648727e+3, 2.6733586e+2, -468637.38, -375291.0, 1934.3433, 0.009872236, -0.546936, -375250.94, -55195.832, 0.0, 9.999022, 10.000247 
2.6648396e+3, 2.7733585e+2, -403433.34, -320010.84, 3456.9688, 0.030568589, -0.5660593, -319867.8, -97813.164, 0.0, 9.998912, 10.000008 
2.664807e+3, 2.8733587e+2, -358381.13, -270156.2, 17946.14, 0.077024676, -0.5394391, -266645.4, -142590.77, 0.0, 9.998645, 9.999805 
2.6647744e+3, 2.9733613e+2, -311784.7, -202822.34, 21326.83, 0.08926475, -0.48848894, -198796.84, -172743.92, 0.0, 9.998317, 9.999753 
2.6647404e+3, 3.0733517e+2, -280835.53, -102306.555, -30113.59, 0.0480787, -0.58101916, -97363.945, -97363.945, 0.0, 9.9979315, 10.000294 
2.6647073e+3, 3.1733567e+2, -260411.5, 7328.4917, 26735.402, 0.12091108, -0.5516561, 9972.076, 9972.076, 0.0, 9.997644, 10.001184 
2.6753274e+3, 1.2737882e+2, -1255009.8, -1689804.0, 9929.549, 0.031685207, -0.45347086, -1254783.1, 436859.44, 0.012418904, 10.004058, 9.998219 
2.6752958e+3, 1.3737725e+2, -1246910.0, -1633664.6, -3649.4404, 0.09683797, -0.42627764, -1246875.6, 346783.66, 0.0077153114, 10.0034075, 9.998244 
2.6752624e+3, 1.4737557e+2, -1155528.8, -1464914.6, -477.41913, 0.06293445, -0.44834659, -1155528.0, 340146.78, 0.0036302481, 10.003032, 9.998911 
2.6752293e+3, 1.5737398e+2, -1100337.5, -1396203.6, 1272.1923, 0.013692001, -0.4909313, -1100332.1, 297356.34, 0.0010984509, 10.0027685, 9.998836 
2.6751968e+3, 1.6737285e+2, -1052002.3, -1290168.1, 17065.932, 0.020168047, -0.49542338, -1050785.6, 248913.17, 0.00016352923, 10.002289, 9.999121 
2.675165e+3, 1.7737201e+2, -1035704.44, -1232096.5, 8083.2666, 0.041733038, -0.48408204, -1035372.3, 166334.28, 0.0000063491566, 10.00173, 9.999116 
2.6751325e+3, 1.8737131e+2, -949039.25, -1085279.4, 20740.48, 0.013583312, -0.48559454, -945951.8, 157761.4, 0.0000000017280947, 10.001418, 9.999601 
2.6751e+3, 1.9737077e+2, -885679.56, -1010324.75, 25028.348, -0.031551145, -0.49270806, -880841.75, 124876.43, 0.0, 10.001207, 9.999545 
2.6750675e+3, 2.073703e+2, -829045.6, -894233.3, 19240.139, -0.025322845, -0.5049438, -823790.5, 83931.05, 0.0, 10.00076, 9.999884 
2.6750353e+3, 2.1736996e+2, -819260.06, -854298.8, 20776.574, 0.0008759405, -0.51950604, -809602.4, 120.93393, 0.0, 10.000221, 9.999744 
2.6750028e+3, 2.273696e+2, -750795.3, -764510.25, 23783.318, 0.000282021, -0.5217566, -732900.6, -21174.148, 0.0, 9.999992, 9.999799 
2.67497e+3, 2.3736937e+2, -667446.7, -673158.2, 24535.404, -0.0089428, -0.5197662, -645601.44, -31872.342, 0.0, 9.99989, 9.999803 
2.6749375e+3, 2.4736914e+2, -578207.9, -522253.88, 19075.48, 0.0053759636, -0.5437131, -516369.6, -639.3512, 0.0, 9.999583, 10.000314 
2.6749048e+3, 2.5736904e+2, -549898.25, -479834.4, 23316.338, 0.023047328, -0.57567805, -472784.44, -55054.824, 0.0, 9.999199, 10.000118 
2.6748717e+3, 2.6736927e+2, -485036.9, -409764.66, -1942.1241, 0.011111047, -0.5502897, -409714.6, -89986.9, 0.0, 9.999022, 10.000011 
2.674838e+3, 2.7736962e+2, -410565.88, -336372.5, -3077.6943, 0.006351826, -0.5072261, -336245.03, -114520.305, 0.0, 9.998917, 9.999893 
2.6748055e+3, 2.8736913e+2, -339586.03, -232292.58, 4624.289, 0.08630483, -0.5435011, -232093.64, -108364.7, 0.0, 9.998648, 10.000065 
2.6747733e+3, 2.973686e+2, -303684.25, -185679.33, 8283.993, 0.14192161, -0.5969849, -185100.63, -159367.17, 0.0, 9.998314, 9.999874 
2.674738e+3, 3.0736914e+2, -304555.38, -150723.48, -46773.285, 0.007705561, -0.52207917, -137618.31, -137618.31, 0.0, 9.997926, 9.999966 
2.6747048e+3, 3.173689e+2, -282154.2, -39421.59, 72364.05, 0.125793, -0.53293693, -19485.611, -19485.611, 0.0, 9.99765, 10.000861 
2.6853314e+3, 1.2741219e+2, -1250323.0, -1691102.6, 12310.469, 0.02266089, -0.4261173, -1249979.4, 441337.06, 0.010378329, 10.004098, 9.998189 
2.6852992e+3, 1.3741022e+2, -1248205.0, -1634900.8, 8779.418, 0.09919165, -0.43498114, -1248005.8, 345330.72, 0.006364034, 10.003399, 9.998239 
2.6852652e+3, 1.4740857e+2, -1155796.8, -1460360.8, 23938.42, 0.06336004, -0.4564686, -1153926.8, 341424.88, 0.0029307047, 10.00301, 9.998951 
2.685232e+3, 1.5740718e+2, -1099959.9, -1392416.9, 19898.748, 0.00647078, -0.48332116, -1098612.1, 298751.22, 0.00085799553, 10.002757, 9.998866 
2.685199e+3, 1.6740607e+2, -1041090.1, -1286976.6, 35612.49, 0.012102206, -0.48468676, -1036036.1, 263337.47, 0.00012279267, 10.002374, 9.999101 
2.6851666e+3, 1.774052e+2, -1004102.6, -1214668.6, 38191.027, 0.036373403, -0.47571772, -997389.8, 203992.16, 0.0000044684857, 10.001939, 9.999134 
2.6851338e+3, 1.8740448e+2, -942003.25, -1067412.0, 49038.152, 0.015686309, -0.48643485, -925104.94, 178283.36, 0.0000000002885943, 10.001407, 9.999728 
2.6851007e+3, 1.9740395e+2, -930404.6, -1019362.0, 42846.965, -0.020704579, -0.505306, -913123.94, 92268.734, 0.0, 10.00085, 9.999654 
2.6850682e+3, 2.074036e+2, -845447.3, -898898.8, 35216.582, -0.02066336, -0.5110491, -827963.6, 79431.33, 0.0, 10.000636, 9.99991 
2.6850355e+3, 2.1740343e+2, -766586.75, -821672.5, 34949.383, -0.006405546, -0.5117562, -749631.7, 59763.72, 0.0, 10.000554, 9.999807 
2.6850027e+3, 2.2740312e+2, -721446.25, -732299.1, 41246.715, -0.0048564947, -0.5224926, -685270.56, 26127.26, 0.0, 10.000118, 9.999958 
2.6849696e+3, 2.3740284e+2, -708200.25, -678286.2, 49712.754, -0.00601039, -0.5377507, -641329.1, -27929.107, 0.0, 9.99955, 9.99993 
2.684937e+3, 2.4740273e+2, -607399.56, -534612.0, 40486.875, 0.0065579955, -0.5572683, -516565.97, -1165.6582, 0.0, 9.999377, 10.000327 
2.684904e+3, 2.5740278e+2, -527062.8, -468012.44, 32334.273, 0.018863695, -0.57645875, -453751.3, -36352.605, 0.0, 9.999354, 10.000123 
2.6848707e+3, 2.6740298e+2, -471858.25, -407946.53, 13899.955, 0.012437458, -0.5469434, -405054.38, -85657.47, 0.0, 9.999134, 9.999969 
2.684837e+3, 2.7740332e+2, -423240.7, -344187.63, 26039.768, 0.017111154, -0.5029747, -336381.13, -114986.62, 0.0, 9.998839, 9.999876 
2.6848045e+3, 2.8740275e+2, -338263.4, -225656.6, 24073.373, 0.086749315, -0.5523231, -220726.02, -97326.53, 0.0, 9.998633, 10.000116 
2.684771e+3, 2.9740202e+2, -285619.84, -177754.89, 12443.7705, 0.12504858, -0.6233894, -176337.94, -150933.11, 0.0, 9.998443, 9.999865 
2.684736e+3, 3.0740303e+2, -252563.25, -148147.1, -38886.34, 0.029837595, -0.4953649, -135256.55, -135256.55, 0.0, 9.998382, 9.999763 
2.6847026e+3, 3.1740206e+2, -217018.22, -35932.36, 84936.93, 0.12710954, -0.55713785, -2328.9878, -2328.9878, 0.0, 9.99822, 10.000609 
2.6953357e+3, 1.2744577e+2, -1246499.4, -1683407.6, -14515.267, 0.048897367, -0.4130333, -1246017.6, 444970.38, 0.008538921, 10.004091, 9.998246 
2.695302e+3, 1.3744345e+2, -1242993.3, -1627301.6, -13828.347, 0.073030494, -0.4641143, -1242496.3, 350514.38, 0.0051628007, 10.0034075, 9.998288 
2.695268e+3, 1.4744198e+2, -1155533.9, -1462304.6, 14666.967, 0.045941036, -0.4677828, -1154834.3, 340189.8, 0.0023240016, 10.003017, 9.998935 
2.6952347e+3, 1.57441e+2, -1098229.3, -1389165.4, 8742.044, 0.0217382, -0.45315307, -1097966.9, 299065.56, 0.00065835734, 10.002756, 9.998889 
2.6952013e+3, 1.674399e+2, -1032486.3, -1269326.6, 19242.705, 0.01502007, -0.46290386, -1030933.1, 268109.38, 0.00009083877, 10.002374, 9.999223 
2.6951683e+3, 1.7743886e+2, -997776.06, -1202066.3, 20494.588, 0.009928603, -0.4824455, -995740.3, 205311.69, 0.0000031725767, 10.00194, 9.999221 
2.695135e+3, 1.8743816e+2, -943286.75, -1071092.6, 27397.803, 0.009740831, -0.49394995, -937661.06, 165397.0, 0.000000000007316074, 10.00141, 9.999702 
2.695102e+3, 1.9743772e+2, -930352.7, -1020766.56, 25714.613, 0.0125309555, -0.50235623, -923550.9, 81510.78, 0.0, 10.0008545, 9.999642 
2.6950687e+3, 2.0743738e+2, -844805.6, -898497.25, 32720.791, -0.0055085695, -0.50658303, -829327.1, 77736.89, 0.0, 10.000638, 9.999912 
2.6950356e+3, 2.1743718e+2, -762153.3, -812456.8, 27860.186, -0.031888902, -0.5098249, -749771.06, 59293.82, 0.0, 10.000552, 9.999872 
2.6950026e+3, 2.2743693e+2, -704089.4, -696832.7, 19302.938, -0.021232892, -0.53266436, -680820.06, 30246.197, 0.0, 10.000119, 10.000202 
2.6949695e+3, 2.3743676e+2, -697463.5, -656887.9, 32910.406, 0.0059831557, -0.5619971, -638514.44, -25447.744, 0.0, 9.999552, 10.000077 
2.6949364e+3, 2.4743687e+2, -618854.25, -559152.25, 39900.902, 0.0061207623, -0.5534424, -539171.94, -24106.629, 0.0, 9.999379, 10.000158 
2.694903e+3, 2.5743717e+2, -532604.0, -480583.9, 28819.076, -0.00848388, -0.53053856, -467773.06, -50710.836, 0.0, 9.999357, 10.000036 
2.6948696e+3, 2.674371e+2, -460806.1, -385810.75, 2076.261, 0.014286819, -0.5372692, -385753.3, -66690.4, 0.0, 9.999136, 10.00012 
2.6948363e+3, 2.774369e+2, -418253.16, -333815.94, 16145.782, 0.06521394, -0.55725414, -330833.94, -109769.56, 0.0, 9.998837, 9.9999485 
2.694803e+3, 2.8743666e+2, -351134.6, -252444.7, 16825.512, 0.076686636, -0.5654848, -249655.0, -126588.59, 0.0, 9.998632, 9.999934 
2.694769e+3, 2.974366e+2, -296078.97, -200291.33, 5334.739, 0.031087521, -0.55895334, -199995.14, -174928.5, 0.0, 9.998445, 9.99971 
2.6947352e+3, 3.0743667e+2, -256025.95, -158372.72, -38543.254, 0.123301655, -0.50564873, -144993.06, -144993.06, 0.0, 9.998393, 9.999687 
2.6947007e+3, 3.1743518e+2, -228334.38, -63338.95, 5572.1514, 0.10538936, -0.613354, -63150.984, -63150.984, 0.0, 9.998233, 10.000417 
2.7053395e+3, 1.2747972e+2, -1285151.1, -1690558.5, 5052.4785, 0.05494621, -0.41531855, -1285088.1, 405567.44, 0.0068914695, 10.003768, 9.998352 
2.7053055e+3, 1.3747746e+2, -1218475.5, -1606453.5, 8727.276, 0.060415443, -0.4684616, -1218279.3, 374397.7, 0.0041028163, 10.003536, 9.998368 
2.705271e+3, 1.4747603e+2, -1148833.5, -1462191.4, 38774.21, 0.038116314, -0.47031352, -1144106.9, 350583.13, 0.0018022743, 10.0030775, 9.998905 
2.7052373e+3, 1.5747505e+2, -1130173.3, -1404636.6, 31756.871, 0.028626682, -0.45238248, -1126546.8, 270152.0, 0.00049404067, 10.002538, 9.998887 
2.7052036e+3, 1.6747397e+2, -1061991.6, -1276128.9, 39453.918, 0.022379173, -0.46310404, -1054953.8, 243754.8, 0.00006574034, 10.002141, 9.999287 
2.70517e+3, 1.7747296e+2, -1013940.7, -1204063.0, 35569.133, 0.011625553, -0.48527887, -1007504.1, 193213.6, 0.0000022107067, 10.001806, 9.9992695 
2.7051362e+3, 1.8747231e+2, -939953.6, -1071807.9, 39059.496, 0.009052258, -0.4920319, -929251.56, 173471.77, 0.0, 10.001445, 9.99968 
2.705103e+3, 1.974719e+2, -898547.44, -1004462.6, 39011.215, 0.0115611125, -0.49303526, -885729.75, 118996.8, 0.0, 10.00107, 9.99965 
2.7050695e+3, 2.0747155e+2, -846754.2, -890084.9, 54417.055, -0.0014158214, -0.5054931, -809848.2, 96880.836, 0.0, 10.0005865, 9.999994 
2.7050358e+3, 2.174713e+2, -826307.6, -834472.6, 54216.664, -0.021300014, -0.5224731, -776019.94, 32710.281, 0.0, 10.000075, 9.999949 
2.7050024e+3, 2.2747116e+2, -731649.06, -704617.44, 36583.04, -0.017609663, -0.53901976, -679133.3, 31597.063, 0.0, 9.999908, 10.000249 
2.704969e+3, 2.3747118e+2, -649153.5, -629364.25, 37082.3, -0.0018584954, -0.55484426, -600879.2, 11850.014, 0.0, 9.999867, 10.000113 
2.7049357e+3, 2.4747129e+2, -597759.0, -551030.4, 49862.625, 0.0028980754, -0.5468525, -519329.5, -4601.605, 0.0, 9.999536, 10.000137 
2.7049023e+3, 2.5747153e+2, -570574.6, -499265.4, 50031.95, -0.0007707976, -0.529365, -473483.5, -56757.793, 0.0, 9.999101, 10.0000305 
2.704869e+3, 2.674714e+2, -479420.66, -391479.8, 21787.611, 0.026740123, -0.5404762, -386377.84, -67651.29, 0.0, 9.998997, 10.000148 
2.7048352e+3, 2.774712e+2, -392752.8, -319507.03, 25820.457, 0.07859036, -0.56529695, -311319.97, -90591.92, 0.0, 9.999006, 9.999965 
2.7048016e+3, 2.87471e+2, -337171.0, -248566.69, 27826.195, 0.069897264, -0.5654613, -240552.7, -117823.52, 0.0, 9.998743, 9.999906 
2.704767e+3, 2.9747105e+2, -303727.88, -201639.0, 31604.295, 0.0032512636, -0.54627097, -192647.06, -167918.86, 0.0, 9.998385, 9.999728 
2.7047342e+3, 3.0747074e+2, -232014.25, -130730.24, 15690.655, 0.16851445, -0.5440275, -128355.18, -128355.18, 0.0, 9.998491, 9.999828 
2.7046987e+3, 3.174695e+2, -197046.36, -71681.97, 5986.3584, 0.08292183, -0.63171905, -71396.76, -71396.76, 0.0, 9.99855, 10.000205 
2.7153432e+3, 1.2751399e+2, -1274913.9, -1670454.9, -3373.5544, 0.043040153, -0.43120402, -1274885.0, 415434.13, 0.00543188, 10.003767, 9.998491 
2.715309e+3, 1.3751222e+2, -1211532.1, -1592553.6, -3027.614, 0.05926632, -0.4500273, -1211508.1, 380827.53, 0.0031783462, 10.003534, 9.998466 
2.715274e+3, 1.4751066e+2, -1151746.6, -1469073.4, 17875.451, 0.03852319, -0.46510172, -1150742.9, 343607.06, 0.0013592315, 10.0030775, 9.998858 
2.7152398e+3, 1.5750933e+2, -1131685.1, -1409076.9, 12904.799, 0.027715072, -0.47895867, -1131086.0, 265276.1, 0.00036018944, 10.002542, 9.998856 
2.7152058e+3, 1.675083e+2, -1061074.6, -1275550.0, 26802.748, 0.033973146, -0.48366338, -1057775.9, 240595.86, 0.000045949084, 10.002145, 9.9992895 
2.715172e+3, 1.775075e+2, -1013094.0, -1203266.3, 22433.648, 0.039507117, -0.4846639, -1010483.44, 189895.63, 0.000001439657, 10.001809, 9.999275 
2.7151376e+3, 1.8750694e+2, -941409.7, -1075636.0, 25037.424, 0.01278768, -0.4812254, -936891.5, 165492.67, 0.0, 10.001447, 9.999653 
2.7151036e+3, 1.9750658e+2, -896898.0, -1001550.2, 23587.377, -0.022740845, -0.47732347, -891827.4, 112560.01, 0.0, 10.001071, 9.99967 
2.71507e+3, 2.0750614e+2, -836019.56, -868719.8, 34540.805, -0.007674663, -0.50745976, -814154.6, 92235.375, 0.0, 10.000589, 10.00014 
2.7150363e+3, 2.1750578e+2, -820247.0, -823140.44, 38947.46, 0.024489122, -0.5492254, -782719.44, 25672.01, 0.0, 10.000079, 10.000027 
2.7150023e+3, 2.2750583e+2, -741483.25, -726186.8, 35491.387, 0.0052850842, -0.541536, -697528.94, 12861.417, 0.0, 9.999911, 10.0001 
2.7149686e+3, 2.375061e+2, -654099.56, -640546.4, 32035.037, -0.029870132, -0.51646256, -614579.0, -2191.4268, 0.0, 9.99987, 10.000035 
2.714935e+3, 2.4750595e+2, -588905.0, -533336.44, 32679.53, -0.0026741817, -0.53787124, -518226.44, -3838.1394, 0.0, 9.9995365, 10.000259 
2.714902e+3, 2.5750577e+2, -565933.44, -489722.7, 37482.26, 0.04292694, -0.57413083, -474377.72, -57988.418, 0.0, 9.9991, 10.000097 
2.714868e+3, 2.6750588e+2, -487239.2, -407972.88, 22544.166, 0.049538683, -0.5565421, -402009.7, -83621.695, 0.0, 9.998996, 10.000035 
2.714834e+3, 2.775062e+2, -395766.44, -326760.28, 22633.07, 0.054258037, -0.52355987, -319999.34, -99613.914, 0.0, 9.999009, 9.999914 
2.7148e+3, 2.8750578e+2, -327903.9, -229823.13, 12888.532, 0.06712975, -0.55162615, -228157.75, -105769.805, 0.0, 9.998743, 10.000035 
2.7147657e+3, 2.9750535e+2, -290371.13, -173379.42, 23591.377, 0.04811975, -0.5912419, -168801.36, -144411.23, 0.0, 9.998382, 9.999925 
2.7147326e+3, 3.075051e+2, -205335.0, -75859.0, 26779.451, 0.15804623, -0.6140311, -70538.83, -70538.83, 0.0, 9.998492, 10.000206 
2.714697e+3, 3.1750515e+2, -214200.64, -108437.016, -36889.395, 0.07715208, -0.6024458, -96841.59, -96841.59, 0.0, 9.998553, 9.999952 
2.7253467e+3, 1.2754866e+2, -1306944.1, -1681827.5, 23651.78, 0.03311978, -0.45704362, -1305457.8, 384519.94, 0.0041593593, 10.003525, 9.998529 
2.725312e+3, 1.3754715e+2, -1255810.9, -1610291.8, 15489.772, 0.06863765, -0.4543125, -1255135.3, 336857.0, 0.0023860584, 10.003213, 9.998497 
2.7252772e+3, 1.475456e+2, -1183221.4, -1484971.3, 31477.578, 0.046375193, -0.4688132, -1179972.8, 314033.9, 0.0009901132, 10.002866, 9.99885 
2.725242e+3, 1.5754418e+2, -1135510.9, -1411133.9, 29582.314, 0.026690518, -0.49030888, -1132371.6, 263648.22, 0.00025276057, 10.002519, 9.998851 
2.725208e+3, 1.6754316e+2, -1061282.5, -1277326.5, 45697.92, 0.032798044, -0.49368927, -1052014.0, 246015.5, 0.000030382693, 10.002153, 9.999272 
2.7251738e+3, 1.7754239e+2, -1017782.44, -1207131.3, 39370.9, 0.04165951, -0.48951778, -1009922.44, 190114.23, 0.0000008235445, 10.001785, 9.999259 
2.7251393e+3, 1.8754184e+2, -946826.5, -1081688.6, 40573.637, 0.014659296, -0.48286813, -935560.9, 166481.1, 0.0, 10.001427, 9.9996195 
2.7251044e+3, 1.9754146e+2, -897043.06, -1002537.7, 37453.23, -0.022650886, -0.47680822, -885098.6, 118946.95, 0.0, 10.001077, 9.999659 
2.7250704e+3, 2.0754103e+2, -811440.1, -853926.2, 40058.953, -0.009586121, -0.5060724, -787340.2, 118707.72, 0.0, 10.000748, 10.000165 
2.7250367e+3, 2.1754071e+2, -769529.25, -797319.7, 38033.13, 0.021336213, -0.54749066, -742932.56, 65116.19, 0.0, 10.000423, 10.000037 
2.7250025e+3, 2.2754072e+2, -722225.75, -721841.4, 43598.69, 0.0069009364, -0.5416212, -678434.44, 31613.715, 0.0, 10.000068, 10.000054 
2.7249682e+3, 2.3754093e+2, -680267.3, -656438.9, 46256.426, -0.02184215, -0.51862794, -620586.94, -8540.625, 0.0, 9.999706, 10.000004 
2.7249345e+3, 2.4754079e+2, -594560.9, -536733.2, 38729.402, 0.004738604, -0.5376613, -517315.06, -3268.1536, 0.0, 9.999503, 10.000251 
2.7249008e+3, 2.575406e+2, -529837.6, -472834.13, 36086.535, 0.047599576, -0.5711422, -455351.25, -39303.68, 0.0, 9.9993515, 10.000091 
2.724867e+3, 2.675407e+2, -465700.25, -398371.97, 29474.6, 0.05339797, -0.5605241, -387292.1, -69245.36, 0.0, 9.99915, 10.000026 
2.724833e+3, 2.7754083e+2, -406700.13, -330359.13, 35671.01, 0.058464736, -0.536974, -316285.88, -96240.984, 0.0, 9.99893, 9.999926 
2.724799e+3, 2.875405e+2, -314997.03, -217573.81, 19586.809, 0.07124102, -0.5631891, -213783.39, -91736.734, 0.0, 9.998809, 10.000087 
2.724764e+3, 2.9754016e+2, -239299.84, -142367.39, 26013.83, 0.049798906, -0.59870696, -135827.31, -111779.49, 0.0, 9.998707, 9.99998 
2.724731e+3, 3.0753973e+2, -203726.94, -66332.56, 16622.027, 0.16520801, -0.6448879, -64350.223, -64350.223, 0.0, 9.998467, 10.000282 
2.7246955e+3, 3.175402e+2, -212803.88, -96591.234, -53182.87, 0.07519388, -0.6046439, -75927.24, -75927.24, 0.0, 9.998519, 10.000049 
2.73535e+3, 1.2758376e+2, -1309084.1, -1688820.0, 11751.588, 0.024724687, -0.49129495, -1308720.8, 380910.63, 0.0030737806, 10.003531, 9.998478 
2.7353156e+3, 1.3758227e+2, -1257423.1, -1614575.4, 2938.291, 0.08703186, -0.4794702, -1257399.0, 334247.63, 0.0017229668, 10.003213, 9.998468 
2.73528e+3, 1.4758088e+2, -1181330.0, -1482352.3, 18197.67, 0.06061437, -0.4807277, -1180233.9, 313426.16, 0.00069047586, 10.00287, 9.998867 
2.7352446e+3, 1.575796e+2, -1133969.9, -1409336.1, 16045.534, 0.025032867, -0.48746544, -1133038.1, 262633.75, 0.00016836295, 10.002523, 9.998862 
2.73521e+3, 1.6757853e+2, -1063677.0, -1283517.3, 31613.184, 0.019454619, -0.4939283, -1059221.4, 238460.63, 0.000018432016, 10.002157, 9.9992285 
2.7351752e+3, 1.7757763e+2, -1020122.75, -1213001.3, 25371.334, 0.01952771, -0.49950695, -1016841.25, 182849.16, 0.00000037747915, 10.001788, 9.999218 
2.7351406e+3, 1.87577e+2, -949646.9, -1088503.8, 27191.523, 0.015012396, -0.49624932, -944512.0, 157184.69, 0.0, 10.001429, 9.999573 
2.735106e+3, 1.9757657e+2, -900317.44, -1010132.56, 24341.102, 0.009977574, -0.49071404, -895163.94, 108537.29, 0.0, 10.001079, 9.999606 
2.7350712e+3, 2.0757626e+2, -817775.44, -867835.0, 27818.816, -0.007971006, -0.50128657, -805383.6, 100319.09, 0.0, 10.00075, 10.000069 
2.7350363e+3, 2.1757609e+2, -773110.44, -805286.56, 25442.967, -0.03000295, -0.51827043, -759095.8, 48606.42, 0.0, 10.000424, 9.999983 
2.7350023e+3, 2.2757582e+2, -718606.0, -715024.3, 29834.059, -0.012095498, -0.5395989, -686927.4, 22776.453, 0.0, 10.000069, 10.0001 
2.7349684e+3, 2.3757562e+2, -679702.7, -656047.1, 34607.652, 0.021829823, -0.5608004, -631301.9, -19596.586, 0.0, 9.999708, 10.000007 
2.7349344e+3, 2.4757574e+2, -604525.0, -558147.4, 33006.727, 0.024502963, -0.5457305, -540998.06, -27294.248, 0.0, 9.999504, 10.000104 
2.7348998e+3, 2.5757605e+2, -535359.0, -485328.22, 29548.494, 0.011382664, -0.5187505, -471628.2, -55927.63, 0.0, 9.999354, 10.000004 
2.7348658e+3, 2.6757568e+2, -459114.38, -385327.63, 20419.033, 0.037792355, -0.55269307, -380053.97, -62350.92, 0.0, 9.999151, 10.000115 
2.7348322e+3, 2.7757514e+2, -402401.28, -321193.66, 28273.088, 0.09326744, -0.60958505, -312319.8, -92612.92, 0.0, 9.998928, 9.99999 
2.7347976e+3, 2.8757513e+2, -317644.75, -223488.78, 15806.101, 0.08234028, -0.60145026, -220906.22, -99200.516, 0.0, 9.998809, 10.000047 
2.734762e+3, 2.9757547e+2, -245984.45, -157750.66, 19645.215, 0.0034436712, -0.5639376, -153574.34, -129873.086, 0.0, 9.998712, 9.999873 
2.7347296e+3, 3.0757463e+2, -223361.5, -106458.25, 3643.807, 0.1915111, -0.63143736, -106344.79, -106344.79, 0.0, 9.998463, 10.00001 
2.7346942e+3, 3.1757432e+2, -178017.56, -25780.684, 21679.244, 0.06810032, -0.649103, -22753.646, -22753.646, 0.0, 9.998522, 10.000535 
2.7453536e+3, 1.2761928e+2, -1330908.5, -1703286.1, 25447.47, 0.015386282, -0.5162335, -1329177.6, 360103.53, 0.0021739125, 10.003396, 9.998444 
2.7453187e+3, 1.3761787e+2, -1284313.1, -1629335.0, 17861.059, 0.08917328, -0.49381956, -1283391.0, 307905.4, 0.0011851127, 10.0030365, 9.998451 
2.745283e+3, 1.4761649e+2, -1199146.5, -1491127.1, 33747.33, 0.0650646, -0.4931701, -1195296.6, 298013.28, 0.00045554715, 10.0027485, 9.998864 
2.7452472e+3, 1.576152e+2, -1138317.8, -1411397.1, 29120.258, 0.02918241, -0.500754, -1135247.0, 260075.03, 0.00010423969, 10.002494, 9.998861 
2.745212e+3, 1.6761415e+2, -1064223.1, -1285563.9, 43620.332, 0.020641217, -0.50398874, -1055936.9, 241395.03, 0.000009845442, 10.002163, 9.99921 
2.7451771e+3, 1.7761327e+2, -1020129.9, -1216607.0, 38873.52, 0.016799338, -0.50534767, -1012718.25, 186622.02, 0.00000012200492, 10.001806, 9.999183 
2.745142e+3, 1.8761253e+2, -954730.25, -1103385.3, 37971.645, 0.014557226, -0.5041884, -945592.6, 155755.14, 0.0, 10.00145, 9.999459 
2.7451068e+3, 1.9761196e+2, -903579.06, -1020925.7, 30878.285, 0.014344954, -0.50244266, -895949.9, 107404.09, 0.0, 10.001098, 9.999523 
2.745072e+3, 2.0761164e+2, -814928.06, -868831.9, 37838.125, -0.0035265738, -0.50987583, -795424.3, 109931.31, 0.0, 10.000781, 10.000046 
2.7450368e+3, 2.1761148e+2, -766856.44, -805563.56, 39979.516, -0.027807087, -0.5212396, -741792.4, 65562.5, 0.0, 10.0004835, 9.999951 
2.7450025e+3, 2.2761115e+2, -702780.0, -715986.44, 38581.918, -0.010242683, -0.54259074, -670240.3, 39116.742, 0.0, 10.0002165, 10.000022 
2.7449682e+3, 2.3761086e+2, -648157.75, -648014.7, 35529.223, 0.025182463, -0.56670403, -612556.94, -1197.3928, 0.0, 9.999958, 9.999941 
2.744934e+3, 2.4761087e+2, -581393.3, -552002.4, 39494.734, 0.028691694, -0.55687505, -524557.7, -11198.84, 0.0, 9.999687, 10.000057 
2.7448994e+3, 2.576111e+2, -528385.2, -484109.28, 43439.31, 0.015100184, -0.534993, -457492.13, -42135.793, 0.0, 9.999415, 9.999982 
2.744865e+3, 2.6761073e+2, -446480.16, -375778.44, 33268.168, 0.038651176, -0.5673763, -362585.97, -45227.652, 0.0, 9.999226, 10.000144 
2.744831e+3, 2.7761024e+2, -384179.03, -314133.84, 36690.73, 0.09170454, -0.6214102, -298433.75, -79072.3, 0.0, 9.999062, 9.999974 
2.7447966e+3, 2.8761008e+2, -318153.66, -241019.67, 17388.156, 0.09052949, -0.6203424, -237281.1, -115918.9, 0.0, 9.998882, 9.99989 
2.744761e+3, 2.9761016e+2, -254474.27, -174232.38, 14186.672, 0.023539636, -0.59074444, -171798.05, -148437.63, 0.0, 9.99871, 9.999759 
2.744728e+3, 3.076098e+2, -175577.33, -83171.92, 12293.885, 0.16792913, -0.60746115, -81564.28, -81564.28, 0.0, 9.998792, 10.0000105 
2.7446926e+3, 3.1760907e+2, -175982.5, -17078.383, 44778.08, 0.06776277, -0.6661127, -5328.9844, -5328.9844, 0.0, 9.998506, 10.000601 
2.7553567e+3, 1.2765525e+2, -1332050.0, -1706349.5, 11119.163, 0.0048979814, -0.53299636, -1331720.0, 357206.9, 0.0014556497, 10.003396, 9.998423 
2.7553216e+3, 1.3765395e+2, -1284805.4, -1631348.4, 4889.1064, 0.07593745, -0.49783152, -1284736.5, 306205.0, 0.00076691614, 10.003037, 9.998438 
2.7552855e+3, 1.4765245e+2, -1200370.6, -1495206.4, 24065.617, 0.060365457, -0.5058089, -1198419.3, 294537.0, 0.0002798758, 10.002753, 9.998835 
2.7552497e+3, 1.5765099e+2, -1138605.6, -1413515.5, 18273.344, 0.03861408, -0.52892685, -1137396.3, 257573.81, 0.00005822764, 10.0025, 9.998845 
2.755214e+3, 1.6765003e+2, -1063584.6, -1285167.9, 29944.82, 0.035244294, -0.5231291, -1059609.3, 237370.11, 0.0000044041435, 10.002166, 9.999213 
2.7551788e+3, 1.776493e+2, -1022756.3, -1222402.3, 25128.889, 0.03187379, -0.5072621, -1019642.0, 179344.25, 0.000000024025011, 10.001806, 9.999144 
2.7551433e+3, 1.8764843e+2, -967143.7, -1129819.4, 24532.488, 0.012929047, -0.5069599, -963524.56, 137470.6, 0.0, 10.0014515, 9.999277 
2.7551076e+3, 1.976476e+2, -911142.0, -1037623.0, 18070.584, -0.008313369, -0.51259923, -908610.9, 94392.88, 0.0, 10.001101, 9.999408 
2.7550727e+3, 2.0764716e+2, -811698.8, -863004.4, 26589.924, 0.0040856386, -0.5316714, -800404.5, 104602.086, 0.0, 10.000783, 10.000086 
2.7550378e+3, 2.1764691e+2, -768089.25, -808692.2, 29171.023, 0.026110739, -0.5549394, -752850.6, 54155.957, 0.0, 10.000485, 9.999929 
2.7550027e+3, 2.2764672e+2, -716996.06, -746335.7, 28787.514, 0.011457501, -0.55001, -699356.06, 9651.809, 0.0, 10.000219, 9.999813 
2.7549678e+3, 2.3764661e+2, -657307.56, -667792.8, 25535.781, -0.012103228, -0.53665, -636481.8, -25472.736, 0.0, 9.99996, 9.9998045 
2.7549332e+3, 2.4764615e+2, -577573.4, -544681.2, 28927.627, 0.017610189, -0.57219416, -527851.44, -14839.194, 0.0, 9.999689, 10.000107 
2.7548993e+3, 2.5764567e+2, -525849.6, -479323.84, 34187.184, 0.060009964, -0.62213355, -461235.47, -46220.36, 0.0, 9.999415, 10.000015 
2.7548644e+3, 2.676458e+2, -449345.84, -382331.63, 26939.19, 0.055998567, -0.60448694, -372845.16, -55832.5, 0.0, 9.999227, 10.000099 
2.7548295e+3, 2.7764618e+2, -391760.6, -330405.38, 29888.914, 0.050366465, -0.5676249, -318252.38, -99244.06, 0.0, 9.999063, 9.999863 
2.7547956e+3, 2.8764525e+2, -339091.0, -284467.84, 9411.682, 0.09602394, -0.6195907, -282891.66, -161875.16, 0.0, 9.99888, 9.999593 
2.7547607e+3, 2.976441e+2, -263907.94, -193488.0, 10505.113, 0.116903745, -0.68625534, -191954.27, -168927.67, 0.0, 9.998707, 9.999629 
2.754726e+3, 3.0764523e+2, -153254.2, -38718.23, 17587.945, 0.08730508, -0.5689501, -36078.305, -36078.305, 0.0, 9.998798, 10.000314 
2.7546912e+3, 3.1764445e+2, -209979.56, -84165.48, -52359.51, 0.0957126, -0.65680057, -65226.23, -65226.23, 0.0, 9.998488, 10.00015 
2.76536e+3, 1.2769143e+2, -1369897.1, -1713150.1, 8213.794, 0.0016481905, -0.53800094, -1369700.6, 318870.72, 0.0009102589, 10.003085, 9.998526 
2.765324e+3, 1.3769013e+2, -1311848.4, -1635075.8, 10972.585, 0.068140976, -0.5129003, -1311476.4, 279109.44, 0.00045971203, 10.002812, 9.99852 
2.765288e+3, 1.4768866e+2, -1220859.4, -1504903.1, 37010.78, 0.056332454, -0.52137756, -1216116.1, 276484.2, 0.00015660137, 10.002613, 9.998836 
2.7652523e+3, 1.5768723e+2, -1148190.9, -1418701.8, 31198.049, 0.042636745, -0.5411946, -1144639.4, 249974.5, 0.000028159127, 10.002438, 9.998838 
2.7652162e+3, 1.6768628e+2, -1077383.0, -1297715.6, 35814.68, 0.04030655, -0.52909505, -1071707.6, 224915.67, 0.0000015734015, 10.002098, 9.999159 
2.7651808e+3, 1.7768559e+2, -1039219.4, -1233644.3, 28374.395, 0.034998022, -0.50629497, -1035163.06, 163467.3, 0.0000000017471812, 10.001709, 9.999114 
2.7651447e+3, 1.8768464e+2, -966284.1, -1128131.8, 39622.258, 0.016181618, -0.5128755, -957104.75, 143534.88, 0.0, 10.001453, 9.999288 
2.765109e+3, 1.976837e+2, -892023.1, -1031595.9, 45182.984, -0.0040450003, -0.5301456, -878673.25, 123975.56, 0.0, 10.001247, 9.999377 
2.7650735e+3, 2.0768316e+2, -803451.2, -878018.0, 44125.555, 0.0074371276, -0.54499334, -782966.8, 121685.86, 0.0, 10.000924, 9.999914 
2.7650383e+3, 2.1768287e+2, -767000.5, -823753.2, 33070.414, 0.028416166, -0.5583812, -751800.8, 54853.164, 0.0, 10.000562, 9.999788 
2.7650028e+3, 2.2768258e+2, -705230.7, -748682.56, 39019.18, 0.013449444, -0.55346745, -682296.6, 26359.56, 0.0, 10.000337, 9.99974 
2.7649677e+3, 2.3768234e+2, -632355.5, -661593.1, 44546.88, -0.010813091, -0.5437156, -600090.06, 10568.2, 0.0, 10.000158, 9.99975 
2.764933e+3, 2.4768178e+2, -552349.06, -535386.44, 43568.41, 0.019985612, -0.58602864, -499481.5, 13180.614, 0.0, 9.999876, 10.000079 
2.7648985e+3, 2.576812e+2, -509610.0, -478920.38, 44442.35, 0.06480846, -0.6436399, -447248.3, -32582.52, 0.0, 9.99956, 9.999948 
2.7648637e+3, 2.6768133e+2, -433401.94, -395637.0, 32094.625, 0.057022043, -0.6120362, -377282.22, -60618.387, 0.0, 9.999429, 9.999909 
2.7648288e+3, 2.7768174e+2, -359853.25, -332161.63, 24700.98, 0.04561283, -0.5541858, -317690.56, -99030.69, 0.0, 9.999359, 9.999706 
2.7647945e+3, 2.8768054e+2, -289678.78, -270690.4, 11835.098, 0.0970039, -0.6201762, -265011.97, -144341.64, 0.0, 9.999266, 9.9995 
2.7647597e+3, 2.9767904e+2, -207520.72, -173417.47, 26269.906, 0.12675926, -0.71218884, -159150.31, -136467.14, 0.0, 9.999126, 9.999564 
2.7647245e+3, 3.0768034e+2, -191009.69, -57070.395, 15771.026, 0.082037844, -0.5771644, -55238.45, -55238.45, 0.0, 9.998543, 10.000309 
2.7646896e+3, 3.1767955e+2, -226405.13, -109383.17, -52998.027, 0.11445565, -0.65754014, -88949.07, -88949.07, 0.0, 9.998452, 9.999992 
2.7753627e+3, 1.2772784e+2, -1357026.9, -1683927.1, -2477.54, 0.0036691176, -0.53263235, -1357008.1, 331206.22, 0.00052211084, 10.003073, 9.998733 
2.775327e+3, 1.3772644e+2, -1299014.3, -1610815.8, 1234.05, 0.0652818, -0.5380338, -1299009.4, 291219.7, 0.00024992198, 10.002821, 9.998684 
2.7752906e+3, 1.4772512e+2, -1218220.8, -1500852.8, 30264.49, 0.053141147, -0.53956705, -1215016.3, 277225.72, 0.00007711832, 10.002618, 9.998861 
2.7752545e+3, 1.577239e+2, -1149076.3, -1419653.6, 22047.602, 0.04142171, -0.53885233, -1147291.5, 246962.1, 0.000011151193, 10.002433, 9.998835 
2.7752182e+3, 1.6772293e+2, -1085587.3, -1314451.3, 20754.053, 0.03612335, -0.52283245, -1083720.5, 212543.14, 0.00000042374444, 10.002095, 9.999045 
2.775182e+3, 1.7772211e+2, -1040389.44, -1236966.0, 15265.869, 0.026656024, -0.50275016, -1039211.0, 159061.48, 0.00000000000031093438, 10.001711, 9.99909 
2.7751464e+3, 1.8772116e+2, -952802.0, -1100837.4, 31888.654, 0.024140049, -0.52190834, -946225.0, 154056.14, 0.0, 10.001455, 9.999475 
2.7751103e+3, 1.9772023e+2, -889355.94, -1026187.75, 35693.32, 0.02534951, -0.5541744, -880604.8, 121684.19, 0.0, 10.001246, 9.999414 
2.7750745e+3, 2.0771967e+2, -830036.8, -933832.4, 30012.94, 0.00607552, -0.5496155, -821983.3, 82310.62, 0.0, 10.000926, 9.999531 
2.7750382e+3, 2.177193e+2, -784570.0, -861183.25, 21130.082, -0.019670311, -0.53288203, -779128.7, 27168.543, 0.0, 10.000565, 9.999531 
2.7750033e+3, 2.277187e+2, -700880.9, -740304.7, 32668.479, -0.0036173416, -0.5538237, -682438.0, 25864.203, 0.0, 10.000339, 9.999797 
2.774968e+3, 2.3771808e+2, -630871.7, -659118.06, 36647.168, 0.0285831, -0.58762205, -605720.44, 4586.5244, 0.0, 10.00016, 9.999767 
2.774933e+3, 2.4771777e+2, -560214.06, -552470.06, 31176.914, 0.035197474, -0.59724456, -524925.6, -12617.151, 0.0, 9.999878, 9.999962 
2.7748978e+3, 2.5771764e+2, -521791.25, -504921.28, 34743.78, 0.02737727, -0.5966944, -477603.22, -63294.973, 0.0, 9.999562, 9.999768 
2.774863e+3, 2.6771724e+2, -457560.4, -446461.16, 29169.797, 0.04134701, -0.5896149, -422317.78, -106005.74, 0.0, 9.999431, 9.999559 
2.7748284e+3, 2.777168e+2, -373953.63, -362649.84, 21392.797, 0.080272086, -0.58422726, -346174.94, -127858.016, 0.0, 9.999363, 9.9994955 
2.7747938e+3, 2.877159e+2, -279860.03, -252103.88, 6930.205, 0.09212987, -0.6207312, -250469.73, -130145.93, 0.0, 9.999272, 9.999626 
2.7747577e+3, 2.9771507e+2, -206643.14, -173206.6, 14476.839, 0.0439215, -0.6608911, -167809.72, -145480.11, 0.0, 9.999131, 9.999563 
2.7747238e+3, 3.0771494e+2, -218731.94, -111139.555, -13873.004, 0.16192977, -0.6420876, -109379.555, -109379.555, 0.0, 9.998526, 9.999947 
2.774688e+3, 3.177146e+2, -213207.34, -84146.7, 81079.53, 0.0899152, -0.64962465, -45052.453, -45052.453, 0.0, 9.998459, 10.000164 
2.7853656e+3, 1.2776428e+2, -1445738.5, -1717464.5, 17544.582, 0.024922036, -0.5486843, -1444610.4, 243246.06, 0.00026778044, 10.002423, 9.998816 
2.7853292e+3, 1.3776308e+2, -1312265.4, -1607586.5, 9171.593, 0.036367666, -0.5421539, -1311980.9, 277888.53, 0.00011908332, 10.002689, 9.998769 
2.785293e+3, 1.4776187e+2, -1240434.9, -1504182.6, 28668.783, 0.031185122, -0.5396096, -1237354.6, 254526.64, 0.000031577423, 10.002434, 9.998927 
2.7852568e+3, 1.5776074e+2, -1207495.8, -1442160.8, 23605.29, 0.046890676, -0.53782666, -1205144.8, 188747.33, 0.0000033549736, 10.0020075, 9.998885 
2.78522e+3, 1.6775972e+2, -1129591.5, -1337534.6, 29806.666, 0.043276124, -0.52705884, -1125403.4, 170499.28, 0.00000007042765, 10.001802, 9.999028 
2.7851838e+3, 1.777588e+2, -1045676.94, -1240225.0, 30213.71, 0.026640173, -0.5142405, -1041092.7, 156819.67, 0.0, 10.001679, 9.999083 
2.7851474e+3, 1.877579e+2, -955175.4, -1102500.1, 38309.965, 0.024367355, -0.5291611, -945808.9, 154111.69, 0.0, 10.001443, 9.999469 
2.7851117e+3, 1.9775704e+2, -903381.94, -1037142.9, 28976.375, 0.028261105, -0.5530627, -897374.6, 104552.97, 0.0, 10.00117, 9.999376 
2.7850753e+3, 2.0775639e+2, -830893.4, -950914.4, 31897.494, 0.006691882, -0.5478079, -822942.8, 80990.94, 0.0, 10.000993, 9.99938 
2.785039e+3, 2.1775582e+2, -751644.8, -858038.7, 39220.805, -0.023240013, -0.53333354, -738749.5, 67189.55, 0.0, 10.000847, 9.999415 
2.7850035e+3, 2.2775511e+2, -670471.1, -730583.3, 49092.098, -0.005960017, -0.55929, -642965.06, 64980.0, 0.0, 10.00057, 9.999751 
2.7849683e+3, 2.3775437e+2, -623075.56, -663202.9, 45730.03, 0.030569594, -0.5985066, -593201.44, 16749.242, 0.0, 10.000249, 9.999696 
2.7849331e+3, 2.4775408e+2, -541340.56, -560630.1, 36701.73, 0.040861357, -0.5945649, -513037.5, -1085.2942, 0.0, 10.000084, 9.999806 
2.7848974e+3, 2.57754e+2, -474555.88, -499802.38, 38489.547, 0.034868613, -0.57505333, -446672.44, -32720.412, 0.0, 9.999966, 9.999608 
2.7848625e+3, 2.6775324e+2, -430556.1, -455237.9, 41586.28, 0.046303008, -0.58608377, -399518.22, -83558.83, 0.0, 9.999712, 9.999363 
2.784828e+3, 2.7775228e+2, -378930.63, -383434.78, 45021.13, 0.08374013, -0.6095738, -336105.28, -118136.29, 0.0, 9.999409, 9.99933 
2.784793e+3, 2.8775162e+2, -288345.84, -266300.84, 22782.469, 0.101201065, -0.6144659, -252014.52, -132040.48, 0.0, 9.999259, 9.999534 
2.784757e+3, 2.9775113e+2, -208618.78, -186126.42, 11179.178, 0.05502924, -0.608944, -181515.4, -159539.03, 0.0, 9.999172, 9.999454 
2.7847224e+3, 3.0774978e+2, -158630.42, -105419.11, -23662.588, 0.15073273, -0.69369227, -96418.875, -96418.875, 0.0, 9.999041, 9.999737 
2.7846864e+3, 3.1774983e+2, -222376.34, -87867.81, 122658.34, 0.0886692, -0.64619404, -15235.675, -15235.675, 0.0, 9.998395, 10.000169 
2.7953684e+3, 1.2780079e+2, -1445917.3, -1720989.3, 27914.736, 0.06236931, -0.5830625, -1443113.0, 244384.55, 0.0001178132, 10.002436, 9.998785 
2.7953315e+3, 1.3780007e+2, -1312190.8, -1606257.8, 11811.66, -0.016565882, -0.5274695, -1311717.1, 277789.8, 0.00004669238, 10.002683, 9.998781 
2.7952948e+3, 1.4779894e+2, -1234530.6, -1490866.9, 11820.856, -0.008038748, -0.52349293, -1233986.6, 257531.48, 0.000009788546, 10.002428, 9.999022 
2.7952588e+3, 1.5779772e+2, -1200439.1, -1428226.0, 10004.493, 0.058070034, -0.5379069, -1200000.6, 193528.7, 0.00000067164456, 10.00201, 9.9989805 
2.795222e+3, 1.6779666e+2, -1124498.0, -1327625.8, 25092.115, 0.06089773, -0.5410582, -1121444.4, 174095.66, 0.0000000035986794, 10.001804, 9.999096 
2.7951854e+3, 1.777957e+2, -1045948.56, -1240569.1, 23860.027, 0.034231186, -0.53972, -1043066.06, 154483.86, 0.0, 10.0016775, 9.999082 
2.7951488e+3, 1.8779486e+2, -968775.75, -1131082.5, 27727.967, 0.016843926, -0.53431165, -964169.5, 135388.27, 0.0, 10.001443, 9.999272 
2.7951124e+3, 1.9779411e+2, -910702.5, -1053321.4, 19876.842, 0.005835778, -0.52825576, -907984.1, 93580.37, 0.0, 10.001173, 9.999265 
2.795076e+3, 2.077933e+2, -825555.0, -940320.6, 26695.049, 0.009530708, -0.54047304, -819649.5, 83922.46, 0.0, 10.000994, 9.999453 
2.79504e+3, 2.1779248e+2, -750869.6, -856272.1, 32187.436, 0.016020268, -0.5587704, -741817.7, 63761.55, 0.0, 10.000845, 9.999429 
2.7950042e+3, 2.2779183e+2, -681295.94, -753559.7, 36736.094, 0.0055700745, -0.56895256, -665900.6, 41684.195, 0.0, 10.000571, 9.999593 
2.7949682e+3, 2.3779126e+2, -634209.94, -687062.6, 35590.984, -0.005221666, -0.5759883, -616307.2, -6717.9146, 0.0, 10.000251, 9.999531 
2.7949327e+3, 2.4779072e+2, -554786.6, -589249.8, 32468.842, 0.037326213, -0.5785561, -535260.2, -23666.678, 0.0, 10.000086, 9.999609 
2.794898e+3, 2.577902e+2, -484153.34, -520891.3, 32330.564, 0.08889667, -0.5799572, -465337.84, -51740.5, 0.0, 9.9999695, 9.999462 
2.7948624e+3, 2.6778927e+2, -432954.06, -461225.47, 29673.145, 0.07216073, -0.60197645, -414221.63, -98615.55, 0.0, 9.999715, 9.999321 
2.794827e+3, 2.7778825e+2, -387764.56, -401848.72, 35258.766, 0.052714176, -0.62965983, -358851.53, -141235.5, 0.0, 9.999408, 9.999205 
2.7947924e+3, 2.8778762e+2, -312717.1, -316212.75, 18912.777, 0.12589122, -0.60113066, -295471.56, -175850.4, 0.0, 9.999255, 9.999194 
2.7947572e+3, 2.977872e+2, -225778.11, -220926.9, 7541.9614, 0.16948724, -0.5558308, -215430.1, -193806.11, 0.0, 9.999167, 9.999218 
2.7947202e+3, 3.0778491e+2, -159715.97, -110289.76, -31098.596, 0.0349374, -0.72910535, -95280.58, -95280.58, 0.0, 9.99905, 9.9997 
2.7946854e+3, 3.1778517e+2, -240505.89, -120573.055, 15411.18, 0.14616954, -0.6509891, -118624.41, -118624.41, 0.0, 9.998373, 9.999954 
2.8053707e+3, 1.2783778e+2, -1457619.1, -1723246.4, 34444.17, 0.04396638, -0.57746804, -1453225.4, 233909.61, 0.00004090907, 10.002342, 9.998815 
2.8053337e+3, 1.3783698e+2, -1393518.5, -1638570.1, 18874.723, -0.014915031, -0.53102314, -1392073.3, 197071.84, 0.000013370687, 10.002095, 9.998842 
2.8052968e+3, 1.4783597e+2, -1298828.9, -1509154.4, 13514.702, -0.009954754, -0.5253165, -1297964.1, 193191.11, 0.000001926778, 10.001933, 9.999134 
2.8052604e+3, 1.5783493e+2, -1222766.9, -1427971.3, 13660.705, 0.046411697, -0.53487056, -1221861.5, 171303.3, 0.000000061834285, 10.00181, 9.999078 
2.8052238e+3, 1.6783386e+2, -1146805.1, -1334493.8, 30214.668, 0.051735617, -0.5434784, -1142061.0, 153114.2, 0.0, 10.001636, 9.999129 
2.805187e+3, 1.7783284e+2, -1077558.9, -1253257.6, 26833.441, 0.030923823, -0.5506092, -1073552.3, 123633.03, 0.0, 10.001451, 9.999104 
2.8051502e+3, 1.87832e+2, -984677.5, -1142870.9, 38359.25, 0.012312046, -0.54311854, -975866.75, 123326.38, 0.0, 10.001353, 9.999235 
2.8051135e+3, 1.9783129e+2, -897184.2, -1049640.4, 40273.19, -0.0016242571, -0.5316459, -887199.44, 114000.48, 0.0, 10.00128, 9.999237 
2.805077e+3, 2.078304e+2, -825725.06, -942567.3, 42254.027, 0.005628861, -0.5474732, -812046.06, 91161.85, 0.0, 10.001004, 9.999432 
2.8050408e+3, 2.178295e+2, -779073.06, -873804.94, 42521.93, 0.018186806, -0.5719321, -762786.44, 42429.434, 0.0, 10.00067, 9.9993925 
2.8050047e+3, 2.2782885e+2, -676804.56, -761848.0, 52084.715, 0.009448259, -0.57437736, -652088.56, 55132.996, 0.0, 10.0006485, 9.999498 
2.8049684e+3, 2.3782831e+2, -573343.1, -668562.8, 54219.88, -0.0019436798, -0.5694879, -548796.94, 60429.164, 0.0, 10.000717, 9.999433 
2.8049332e+3, 2.4782759e+2, -514970.56, -584277.94, 51834.223, 0.040927228, -0.57754785, -487273.1, 23959.068, 0.0, 10.0004225, 9.99948 
2.804898e+3, 2.5782686e+2, -486728.3, -534860.2, 57432.207, 0.094471894, -0.5895377, -448523.63, -35285.227, 0.0, 10.000008, 9.999348 
2.804862e+3, 2.678259e+2, -416938.56, -463904.5, 55051.074, 0.07734453, -0.6033912, -380571.13, -65323.97, 0.0, 9.999871, 9.999228 
2.8048265e+3, 2.7782488e+2, -336087.16, -389829.38, 56540.832, 0.055629387, -0.6186872, -300356.97, -83100.37, 0.0, 9.999821, 9.999087 
2.8047916e+3, 2.8782392e+2, -289960.3, -327993.5, 45095.68, 0.13352138, -0.6075471, -260035.6, -140770.05, 0.0, 9.999511, 9.998989 
2.8047565e+3, 2.978231e+2, -243472.34, -240122.23, 45646.094, 0.18659993, -0.5836249, -196120.47, -174847.5, 0.0, 9.999093, 9.999122 
2.804719e+3, 3.0782154e+2, -168211.1, -97144.86, 22675.188, 0.024559278, -0.68870157, -90526.27, -90526.27, 0.0, 9.998919, 9.999853 
2.804684e+3, 3.1782156e+2, -183495.94, -123665.51, 20437.617, 0.17090836, -0.6449734, -117350.67, -117350.67, 0.0, 9.998898, 9.99968 
2.8153723e+3, 1.278752e+2, -1452767.9, -1712089.8, 24247.793, -0.022152971, -0.5375074, -1450520.1, 236248.56, 0.000009398705, 10.0023365, 9.998894 
2.8153363e+3, 1.3787389e+2, -1388589.8, -1625352.9, 10205.38, 0.034545116, -0.5507528, -1388150.6, 200632.84, 0.0000021889277, 10.002082, 9.9989395 
2.815299e+3, 1.47873e+2, -1291339.4, -1491880.0, 8757.9795, 0.020668976, -0.5429364, -1290957.6, 199834.6, 0.00000016251443, 10.0019245, 9.999257 
2.815262e+3, 1.5787232e+2, -1216496.6, -1414544.3, 8088.927, 0.013879288, -0.5290237, -1216166.9, 176631.64, 0.0000000005064632, 10.001807, 9.999171 
2.8152248e+3, 1.6787131e+2, -1147146.1, -1335152.8, 23013.879, 0.017678373, -0.53515124, -1144370.0, 150438.08, 0.0, 10.001635, 9.999126 
2.8151882e+3, 1.7787024e+2, -1074828.0, -1247686.5, 20984.941, 0.01689986, -0.547814, -1072316.9, 124501.4, 0.0, 10.001451, 9.999143 
2.8151515e+3, 1.8786934e+2, -977391.94, -1127216.8, 36018.582, 0.010649575, -0.55576444, -969182.75, 129643.79, 0.0, 10.001349, 9.999344 
2.815115e+3, 1.9786854e+2, -894693.5, -1043245.06, 34913.29, 0.004756189, -0.56189287, -886897.2, 113936.56, 0.0, 10.001273, 9.999285 
2.815078e+3, 2.078677e+2, -834224.2, -960292.0, 29051.684, -0.005247195, -0.56781274, -827851.56, 74989.97, 0.0, 10.001003, 9.9993105 
2.815041e+3, 2.1786687e+2, -784812.3, -886713.25, 34175.44, -0.01589008, -0.57322246, -774412.06, 30436.959, 0.0, 10.000673, 9.999303 
2.8150052e+3, 2.2786616e+2, -678708.94, -766496.3, 55590.26, 0.006095186, -0.57631254, -651772.3, 55083.08, 0.0, 10.00065, 9.999466 
2.8149697e+3, 2.3786551e+2, -575575.1, -673895.25, 52178.66, 0.040023196, -0.5794098, -553046.1, 55815.063, 0.0, 10.000719, 9.999395 
2.8149337e+3, 2.478647e+2, -519226.3, -593876.2, 35614.266, 0.050871383, -0.5915188, -504961.25, 5906.9443, 0.0, 10.000424, 9.999414 
2.8148976e+3, 2.5786388e+2, -492689.8, -547674.1, 45425.297, 0.048788235, -0.6035271, -467085.13, -54209.953, 0.0, 10.000009, 9.99926 
2.8148618e+3, 2.678631e+2, -427442.2, -486348.03, 53749.555, 0.061269913, -0.58933294, -395604.9, -80722.35, 0.0, 9.999873, 9.999073 
2.8148267e+3, 2.7786225e+2, -343048.03, -405856.25, 51591.61, 0.095310144, -0.57394904, -314054.2, -97163.68, 0.0, 9.999826, 9.998975 
2.814791e+3, 2.8786048e+2, -293554.72, -335965.47, 29183.5, 0.12138922, -0.63640493, -278685.94, -159778.63, 0.0, 9.999512, 9.998935 
2.8147545e+3, 2.9785872e+2, -240558.75, -232545.95, 32798.902, 0.09543086, -0.7019828, -203509.67, -182585.77, 0.0, 9.999084, 9.999178 
2.814719e+3, 3.0785987e+2, -144763.23, -46562.523, 21300.53, 0.1346983, -0.55784315, -42141.32, -42141.32, 0.0, 9.998909, 10.000206 
2.8146824e+3, 3.178588e+2, -206845.47, -174240.38, 3611.4966, 0.11980734, -0.6535822, -173845.14, -173845.14, 0.0, 9.998904, 9.9993305 
2.825374e+3, 1.279124e+2, -1512464.3, -1716784.5, 14318.809, -0.032050885, -0.52200437, -1511465.6, 174939.3, 0.000000966965, 10.001823, 9.999108 
2.8253382e+3, 1.3791119e+2, -1479798.5, -1647664.4, 12350.106, 0.05101911, -0.5471353, -1478894.8, 109523.445, 0.000000116965474, 10.001364, 9.999132 
2.8253004e+3, 1.479104e+2, -1373595.1, -1519446.1, 22831.682, 0.026631221, -0.54334533, -1370104.5, 120321.234, 0.0000000014119189, 10.001309, 9.999364 
2.825263e+3, 1.5790983e+2, -1267964.0, -1426830.0, 19369.693, -0.002450958, -0.5304243, -1265636.4, 126794.69, 0.0, 10.001402, 9.999283 
2.8252262e+3, 1.6790889e+2, -1185925.9, -1343204.8, 35021.223, 0.0027270282, -0.53804797, -1178480.1, 115959.48, 0.0, 10.001324, 9.99922 
2.8251895e+3, 1.779079e+2, -1106978.6, -1253291.6, 39499.777, 0.012062741, -0.5524352, -1096996.0, 99452.82, 0.0, 10.001188, 9.999229 
2.8251526e+3, 1.8790704e+2, -1025587.06, -1144844.8, 53074.16, 0.009245185, -0.5614127, -1005388.2, 93068.414, 0.0, 10.000997, 9.9993925 
2.8251156e+3, 1.9790629e+2, -960566.3, -1070087.8, 48790.105, 0.0039119166, -0.5682596, -941983.94, 58479.594, 0.0, 10.000802, 9.999327 
2.825079e+3, 2.0790546e+2, -849107.4, -966876.9, 50632.797, -0.008889042, -0.57459265, -830332.0, 72139.02, 0.0, 10.0009, 9.999315 
2.8250417e+3, 2.1790463e+2, -727151.5, -859692.2, 63351.81, -0.023045179, -0.5802327, -701741.94, 102736.46, 0.0, 10.001075, 9.999294 
2.825006e+3, 2.2790387e+2, -665015.2, -766157.44, 81924.25, 0.004685989, -0.58448696, -619310.56, 87174.83, 0.0, 10.000772, 9.999409 
2.8249702e+3, 2.3790313e+2, -636672.44, -709195.7, 77619.805, 0.047851637, -0.58867633, -587261.75, 21230.207, 0.0, 10.000326, 9.999342 
2.824934e+3, 2.4790233e+2, -530805.44, -606013.3, 62857.38, 0.054108266, -0.59655267, -495162.5, 15336.759, 0.0, 10.000374, 9.999354 
2.8248975e+3, 2.5790152e+2, -417368.13, -518646.47, 71676.43, 0.04177522, -0.60323846, -380247.2, 32259.227, 0.0, 10.000558, 9.999193 
2.8248617e+3, 2.6790062e+2, -377663.63, -472581.7, 79827.52, 0.052056532, -0.58929986, -332252.88, -17738.252, 0.0, 10.000259, 9.9989805 
2.8248262e+3, 2.7789965e+2, -351566.5, -417242.28, 81528.77, 0.08860797, -0.575421, -296510.88, -79987.22, 0.0, 9.999801, 9.998909 
2.8247905e+3, 2.8789777e+2, -293422.44, -339848.7, 58853.668, 0.114195734, -0.64444333, -253369.44, -134827.61, 0.0, 9.999531, 9.9988985 
2.8247535e+3, 2.978959e+2, -203985.1, -213944.33, 64476.17, 0.08480486, -0.7155271, -144296.53, -123736.9, 0.0, 9.999333, 9.999186 
2.824718e+3, 3.0789778e+2, -110613.75, -19423.055, 42587.54, 0.13994856, -0.5085236, -2627.4253, -2627.4253, 0.0, 9.999099, 10.0003 
2.8246808e+3, 3.1789622e+2, -246713.72, -206122.47, -6328.4854, 0.104396485, -0.66022843, -205158.7, -205158.7, 0.0, 9.998688, 9.999215 
2.8353763e+3, 1.2794946e+2, -1491434.0, -1670325.3, -3578.6016, 0.0056949016, -0.5271984, -1491362.5, 194680.61, 0.000000016734337, 10.001811, 9.999434 
2.8353393e+3, 1.3794887e+2, -1460402.9, -1608359.8, 141.02068, 0.037268005, -0.522229, -1460402.8, 127646.49, 0.00000000000042985277, 10.001367, 9.999401 
2.8353018e+3, 1.4794815e+2, -1367204.1, -1506479.6, 26545.941, 0.010284177, -0.5283569, -1362316.0, 127739.984, 0.0, 10.00131, 9.999454 
2.8352645e+3, 1.5794742e+2, -1260386.1, -1409483.3, 20412.754, -0.0046621785, -0.53824514, -1257641.9, 134420.69, 0.0, 10.001394, 9.999406 
2.8352275e+3, 1.679466e+2, -1174445.5, -1317695.4, 29947.84, 0.0052462956, -0.5512306, -1168436.6, 125633.16, 0.0, 10.001315, 9.999399 
2.8351903e+3, 1.7794581e+2, -1099005.9, -1235387.0, 33653.523, 0.015768664, -0.56414574, -1091153.5, 104923.445, 0.0, 10.001182, 9.999356 
2.8351533e+3, 1.8794511e+2, -1026769.75, -1147322.8, 45083.883, 0.00765501, -0.560289, -1011774.7, 86308.73, 0.0, 10.000996, 9.999376 
2.8351164e+3, 1.979445e+2, -957642.2, -1065055.0, 45401.152, -0.004152891, -0.55184907, -941023.3, 59065.992, 0.0, 10.000806, 9.99936 
2.8350797e+3, 2.0794366e+2, -840194.9, -948784.4, 58307.914, -0.005556369, -0.5686549, -814817.0, 87279.586, 0.0, 10.000901, 9.999439 
2.835043e+3, 2.1794276e+2, -722900.6, -850283.2, 63788.316, -0.004599284, -0.5929592, -696450.2, 107653.86, 0.0, 10.001071, 9.999361 
2.8350067e+3, 2.2794196e+2, -671314.6, -779338.44, 64047.273, 0.004726941, -0.59844923, -641545.0, 64566.434, 0.0, 10.000772, 9.999319 
2.8349704e+3, 2.379412e+2, -641867.8, -720285.0, 67457.586, 0.021007434, -0.5968365, -603051.8, 5066.769, 0.0, 10.000327, 9.999267 
2.8349343e+3, 2.4794045e+2, -534322.3, -613990.06, 71209.64, 0.050750595, -0.59264594, -492562.38, 17562.977, 0.0, 10.000377, 9.999299 
2.8348985e+3, 2.579397e+2, -419688.16, -525123.0, 72379.914, 0.07481403, -0.5884783, -382862.4, 29269.645, 0.0, 10.000565, 9.999146 
2.834862e+3, 2.6793844e+2, -379148.8, -476628.88, 62062.83, 0.049217068, -0.6044829, -348975.06, -34831.61, 0.0, 10.000263, 9.998952 
2.8348255e+3, 2.779371e+2, -353458.44, -420623.38, 66667.6, 0.030833753, -0.6271078, -312392.72, -96236.47, 0.0, 9.999797, 9.998888 
2.8347898e+3, 2.8793588e+2, -295888.3, -344291.22, 51864.16, 0.1130695, -0.62828434, -262856.88, -144688.31, 0.0, 9.999527, 9.99887 
2.834754e+3, 2.979349e+2, -207791.36, -222111.95, 57582.285, 0.1631372, -0.61084986, -156925.89, -136747.13, 0.0, 9.999333, 9.99913 
2.8347158e+3, 3.079351e+2, -124540.945, -47867.23, 31742.55, 0.02408402, -0.55451024, -36431.566, -36431.566, 0.0, 9.999096, 10.000108 
2.83468e+3, 3.1793416e+2, -240710.19, -187654.8, -30218.246, 0.16449349, -0.6267621, -173972.28, -173972.28, 0.0, 9.998662, 9.999354 
2.8453776e+3, 1.2798695e+2, -1577789.6, -1690998.6, 13801.626, 0.01621326, -0.5284194, -1576131.3, 109545.086, 0.0, 10.001128, 9.99962 
2.8453404e+3, 1.3798656e+2, -1490343.9, -1603281.9, 10325.164, 0.02709601, -0.5198925, -1489407.8, 98272.06, 0.0, 10.001078, 9.999575 
2.8453028e+3, 1.4798598e+2, -1415774.8, -1517520.5, 40889.094, 0.0027171634, -0.5261702, -1401379.3, 88305.9, 0.0, 10.000924, 9.999563 
2.8452656e+3, 1.5798534e+2, -1344345.4, -1435233.9, 35712.02, -0.0010365148, -0.53754145, -1331992.3, 59698.684, 0.0, 10.000755, 9.9995365 
2.8452286e+3, 1.679847e+2, -1251144.1, -1336479.0, 43867.477, 0.008834662, -0.5497005, -1232616.3, 61080.418, 0.0, 10.000712, 9.99956 
2.8451914e+3, 1.7798406e+2, -1157120.1, -1248130.0, 46705.39, 0.014878088, -0.56108564, -1137417.0, 58285.19, 0.0, 10.000719, 9.999491 
2.845154e+3, 1.8798345e+2, -1050727.6, -1153141.4, 62019.426, 0.0017597108, -0.55643797, -1021507.25, 76200.5, 0.0, 10.000808, 9.999426 
2.8451172e+3, 1.9798289e+2, -937813.75, -1048699.5, 66943.82, -0.013872605, -0.5474149, -906334.9, 93378.26, 0.0, 10.000914, 9.99942 
2.8450802e+3, 2.0798212e+2, -855071.94, -948690.6, 77784.1, -0.0061345217, -0.56395674, -811098.7, 90620.97, 0.0, 10.000769, 9.999503 
2.8450438e+3, 2.179813e+2, -794566.9, -879397.6, 78108.52, 0.0073590847, -0.5881041, -748100.25, 55626.168, 0.0, 10.000557, 9.999409 
2.8450072e+3, 2.2798048e+2, -689131.1, -789610.25, 77994.805, 0.009361224, -0.59412074, -646595.7, 59138.113, 0.0, 10.000658, 9.999303 
2.8449708e+3, 2.3797971e+2, -569838.1, -688233.94, 87231.15, 0.012298222, -0.5934055, -523614.7, 84126.48, 0.0, 10.000834, 9.999242 
2.8449345e+3, 2.4797885e+2, -510051.8, -608854.9, 92846.63, 0.047076084, -0.5936301, -454282.0, 55466.715, 0.0, 10.000572, 9.99924 
2.8448987e+3, 2.57978e+2, -479220.7, -557398.7, 92214.984, 0.082332775, -0.59422743, -418152.03, -6395.751, 0.0, 10.000173, 9.999113 
2.844862e+3, 2.6797673e+2, -408334.9, -488456.25, 80292.33, 0.049483716, -0.60996866, -358664.22, -44896.395, 0.0, 10.000054, 9.998971 
2.844825e+3, 2.7797544e+2, -320906.56, -402241.06, 87358.15, 0.018949512, -0.6309821, -265213.72, -49433.188, 0.0, 10.00001, 9.998912 
2.8447896e+3, 2.8797436e+2, -268201.97, -329286.0, 75499.266, 0.11867497, -0.6186685, -217301.03, -99509.63, 0.0, 9.999711, 9.998884 
2.8447536e+3, 2.979735e+2, -208103.89, -223773.64, 85041.79, 0.19011953, -0.5868915, -130536.83, -110736.664, 0.0, 9.999339, 9.999115 
2.8447142e+3, 3.0797306e+2, -138875.33, -73338.15, 61877.547, -0.02835297, -0.58732283, -36088.086, -36088.086, 0.0, 9.999079, 9.999939 
2.844679e+3, 3.1797257e+2, -187499.48, -135313.11, -5682.973, 0.21070494, -0.60089356, -134701.42, -134701.42, 0.0, 9.998914, 9.999591 
2.8553787e+3, 1.2802482e+2, -1573519.8, -1681567.4, 11961.251, 0.0021932614, -0.5257403, -1572211.5, 113093.66, 0.0, 10.001125, 9.999687 
2.8553414e+3, 1.3802429e+2, -1484122.9, -1590377.5, 7060.315, 0.020330092, -0.5378218, -1483655.8, 103653.9, 0.0, 10.001078, 9.999664 
2.8553036e+3, 1.480239e+2, -1407289.5, -1499711.0, 34154.777, 0.0031484275, -0.5353199, -1396037.4, 93275.84, 0.0, 10.000923, 9.999686 
2.8552663e+3, 1.580236e+2, -1335346.3, -1416063.8, 30928.004, 0.007656968, -0.52902097, -1324858.5, 66457.89, 0.0, 10.000752, 9.999669 
2.8552294e+3, 1.6802314e+2, -1241448.1, -1316349.3, 43832.24, 0.012650314, -0.5346121, -1221246.1, 72074.164, 0.0, 10.000711, 9.999699 
2.8551918e+3, 1.7802265e+2, -1147294.4, -1228114.3, 47960.324, 0.008971199, -0.5440311, -1124989.5, 70334.94, 0.0, 10.00072, 9.999628 
2.855155e+3, 1.8802208e+2, -1043176.94, -1137296.3, 66476.25, -0.008308814, -0.55009294, -1008789.0, 88540.555, 0.0, 10.000807, 9.9995365 
2.855118e+3, 1.9802149e+2, -932855.25, -1037382.5, 67560.78, -0.025590792, -0.5545762, -899702.56, 99632.38, 0.0, 10.000908, 9.9995 
2.855081e+3, 2.0802084e+2, -855229.6, -949057.3, 69027.234, -0.010528975, -0.56018114, -818682.9, 82657.44, 0.0, 10.000769, 9.999501 
2.8550443e+3, 2.180202e+2, -792550.6, -875843.6, 74562.01, 0.012967739, -0.56595, -748792.6, 54553.016, 0.0, 10.000559, 9.999433 
2.855008e+3, 2.2801945e+2, -684912.6, -781482.8, 85720.26, 0.018310405, -0.571867, -634813.7, 70538.76, 0.0, 10.00066, 9.999358 
2.8549713e+3, 2.3801865e+2, -567829.44, -684828.44, 88097.86, 0.021061175, -0.5787209, -520577.22, 86782.555, 0.0, 10.000836, 9.999264 
2.854935e+3, 2.4801755e+2, -514477.25, -618502.44, 76922.85, 0.04281845, -0.5995171, -473632.78, 35736.547, 0.0, 10.000573, 9.999173 
2.8548986e+3, 2.580164e+2, -481347.06, -561227.2, 80765.43, 0.06271227, -0.6210298, -431185.72, -19806.57, 0.0, 10.000169, 9.999089 
2.854862e+3, 2.6801553e+2, -404281.75, -479506.06, 79703.32, 0.05317936, -0.6048207, -353761.66, -40374.066, 0.0, 10.000051, 9.999035 
2.8548256e+3, 2.7801472e+2, -315824.3, -392342.2, 82058.08, 0.05651144, -0.58281386, -263544.47, -48148.453, 0.0, 10.000011, 9.99898 
2.8547892e+3, 2.8801322e+2, -264212.7, -320909.34, 61491.63, 0.13081707, -0.6175423, -224849.52, -107439.14, 0.0, 9.99971, 9.998942 
2.8547522e+3, 2.9801175e+2, -207247.83, -220346.27, 72439.75, 0.15951274, -0.6549181, -141061.84, -121637.27, 0.0, 9.999332, 9.999143 
2.8547135e+3, 3.080117e+2, -151037.1, -96156.07, 54458.816, -0.010233422, -0.60381997, -62615.074, -62615.074, 0.0, 9.999068, 9.999788 
2.8546783e+3, 3.180113e+2, -164150.22, -86274.5, -14682.775, 0.21912424, -0.60333693, -83598.17, -83598.17, 0.0, 9.998909, 9.999931 
2.8653798e+3, 1.2806278e+2, -1629254.0, -1687794.5, 22228.055, 0.008261003, -0.52840745, -1621770.5, 63162.24, 0.0, 10.000654, 9.999872 
2.865342e+3, 1.3806245e+2, -1543445.3, -1601358.4, 23575.004, 0.018480854, -0.5400773, -1535062.0, 51873.227, 0.0, 10.000595, 9.999821 
2.865304e+3, 1.4806215e+2, -1466177.4, -1521027.6, 46836.652, 0.001922642, -0.5394379, -1439327.3, 49610.848, 0.0, 10.000489, 9.999748 
2.8652668e+3, 1.5806188e+2, -1384417.4, -1430098.8, 41720.527, 0.01022506, -0.53516203, -1359694.5, 31246.473, 0.0, 10.000375, 9.999754 
2.8652298e+3, 1.6806158e+2, -1277194.9, -1320159.3, 57514.363, 0.012149963, -0.5355205, -1237281.8, 55661.723, 0.0, 10.000409, 9.999818 
2.8651923e+3, 1.7806128e+2, -1171729.3, -1225856.8, 60138.695, 0.003634611, -0.5378309, -1132845.3, 62100.61, 0.0, 10.000492, 9.999753 
2.8651553e+3, 1.880608e+2, -1080227.9, -1140876.3, 78624.48, -0.011326942, -0.5469412, -1026282.44, 70667.44, 0.0, 10.000491, 9.999663 
2.8651184e+3, 1.9806027e+2, -989174.4, -1052262.8, 80197.07, -0.024222596, -0.55776906, -934540.8, 64413.613, 0.0, 10.00047, 9.999609 
2.8650817e+3, 2.0805968e+2, -879990.7, -955328.94, 82422.17, -0.009264378, -0.5656424, -827037.6, 73921.7, 0.0, 10.000575, 9.999551 
2.865045e+3, 2.1805908e+2, -768098.25, -858890.06, 91972.66, 0.012738115, -0.571623, -710928.25, 92036.05, 0.0, 10.000706, 9.999477 
2.8650084e+3, 2.280584e+2, -693396.56, -783738.5, 102559.48, 0.016098514, -0.5726519, -626501.2, 78469.21, 0.0, 10.000595, 9.999373 
2.864972e+3, 2.3805766e+2, -626293.2, -708977.44, 101070.06, 0.017541517, -0.5737091, -558436.75, 48540.297, 0.0, 10.00042, 9.999299 
2.8649354e+3, 2.4805655e+2, -529680.3, -621692.7, 90153.94, 0.041804772, -0.60114294, -474472.34, 34514.324, 0.0, 10.000452, 9.999209 
2.864899e+3, 2.5805533e+2, -431052.84, -535026.56, 100183.8, 0.06462092, -0.63301265, -370170.66, 40826.426, 0.0, 10.000506, 9.999106 
2.864862e+3, 2.6805452e+2, -386298.66, -473596.72, 93900.42, 0.056890216, -0.61210215, -326398.06, -13392.71, 0.0, 10.000187, 9.999009 
2.864825e+3, 2.7805373e+2, -352818.88, -406612.0, 89820.07, 0.06313682, -0.5794892, -285954.75, -70941.56, 0.0, 9.999744, 9.999009 
2.8647888e+3, 2.880523e+2, -259951.64, -305779.13, 75174.49, 0.13154633, -0.6219089, -204276.3, -87249.02, 0.0, 9.999684, 9.999058 
2.8647518e+3, 2.980508e+2, -138484.77, -180151.0, 86368.97, 0.15088801, -0.67333853, -70471.84, -51430.293, 0.0, 9.999776, 9.999204 
2.8647128e+3, 3.0805102e+2, -112669.44, -95113.77, 64591.266, 0.021687366, -0.5875051, -38706.625, -38706.625, 0.0, 9.999409, 9.99963 
2.864677e+3, 3.1805012e+2, -100393.34, -38280.496, 33551.887, 0.20651223, -0.62896156, -23617.879, -23617.879, 0.0, 9.999274, 10.000085 
2.8753805e+3, 1.2810087e+2, -1608571.0, -1645546.8, 19936.824, 0.03126952, -0.53566945, -1599869.3, 84689.96, 0.0, 10.000657, 10.00016 
2.8753427e+3, 1.3810101e+2, -1528397.3, -1570687.0, 20169.123, 0.01989879, -0.5279685, -1520320.5, 66236.15, 0.0, 10.000597, 10.0000305 
2.8753045e+3, 1.4810067e+2, -1465337.1, -1520033.6, 41770.33, -0.0015559864, -0.5390894, -1442758.5, 45801.293, 0.0, 10.000492, 9.999754 
2.875267e+3, 1.581002e+2, -1381141.8, -1424430.0, 39428.367, 0.0067298245, -0.554585, -1357807.4, 32757.203, 0.0, 10.00038, 9.999791 
2.87523e+3, 1.6810003e+2, -1270112.9, -1306118.8, 60769.254, 0.007712441, -0.5510217, -1224736.0, 67829.99, 0.0, 10.000412, 9.999914 
2.8751928e+3, 1.7809996e+2, -1164209.1, -1209964.4, 62074.61, -0.0012401904, -0.5419301, -1120930.5, 73635.73, 0.0, 10.00049, 9.999864 
2.8751558e+3, 1.8809964e+2, -1070632.1, -1120837.9, 77403.88, -0.007837057, -0.5469197, -1014362.3, 82206.305, 0.0, 10.00049, 9.999802 
2.875119e+3, 1.9809926e+2, -980140.44, -1033511.1, 81111.77, -0.010625156, -0.5571813, -921437.1, 77134.49, 0.0, 10.000469, 9.999739 
2.8750822e+3, 2.0809862e+2, -873191.8, -941335.5, 87909.09, -0.003063609, -0.5801309, -812982.7, 87594.03, 0.0, 10.000575, 9.999647 
2.8750455e+3, 2.1809793e+2, -763862.5, -849938.75, 93567.95, 0.0057686474, -0.6047398, -703909.1, 98673.24, 0.0, 10.000705, 9.999539 
2.875009e+3, 2.2809735e+2, -695051.94, -787548.9, 95325.914, 0.002860533, -0.5960947, -635347.8, 69239.87, 0.0, 10.000597, 9.999348 
2.8749722e+3, 2.3809679e+2, -623093.2, -702690.25, 97654.77, 0.001619865, -0.5784236, -557438.5, 49154.39, 0.0, 10.000421, 9.999342 
2.8749362e+3, 2.4809586e+2, -520132.22, -602137.25, 93350.14, 0.04384897, -0.59857905, -459176.63, 49424.18, 0.0, 10.000453, 9.999344 
2.8748998e+3, 2.5809476e+2, -426623.66, -526949.56, 97367.39, 0.08840428, -0.6298585, -367257.0, 43352.945, 0.0, 10.00051, 9.99916 
2.8748623e+3, 2.6809362e+2, -394561.1, -491085.1, 76400.18, 0.060261123, -0.63281727, -352456.0, -39834.85, 0.0, 10.000188, 9.998889 
2.8748247e+3, 2.7809253e+2, -354519.06, -409320.25, 76843.305, 0.035132866, -0.6250529, -300337.28, -85704.85, 0.0, 9.99974, 9.998993 
2.8747883e+3, 2.8809154e+2, -248364.77, -281267.28, 80202.63, 0.11869354, -0.63089836, -182943.52, -66301.45, 0.0, 9.999682, 9.999228 
2.8747514e+3, 2.9809067e+2, -131097.78, -165880.83, 82672.4, 0.16575621, -0.63342357, -64007.402, -45357.117, 0.0, 9.999781, 9.999299 
2.874713e+3, 3.0809104e+2, -125082.09, -119697.43, 46050.99, 0.07003617, -0.5319292, -76260.14, -76260.14, 0.0, 9.999405, 9.999463 
2.874676e+3, 3.1808892e+2, -105950.61, -50577.33, 107429.48, 0.1664276, -0.6760416, 32675.844, 32675.844, 0.0, 9.999275, 10.000001 
2.8853807e+3, 1.2813908e+2, -1656546.0, -1669895.1, 30351.58, 0.019867625, -0.55120087, -1632143.8, 52039.953, 0.0, 10.000332, 10.00015 
2.885343e+3, 1.3813935e+2, -1579924.0, -1589069.0, 12317.851, 0.029988373, -0.52880883, -1571357.3, 14823.18, 0.0, 10.000216, 10.000088 
2.885305e+3, 1.4813915e+2, -1493979.8, -1514126.4, 38684.62, 0.0047636065, -0.54185957, -1464078.5, 24103.824, 0.0, 10.000211, 9.999929 
2.8852674e+3, 1.5813877e+2, -1392512.4, -1414798.6, 48277.688, 0.0014941039, -0.5645027, -1354108.5, 36077.063, 0.0, 10.0002365, 9.999927 
2.8852302e+3, 1.6813862e+2, -1292727.5, -1312938.8, 71078.266, 0.002317676, -0.5648419, -1231040.0, 61146.625, 0.0, 10.000238, 9.99995 
2.8851932e+3, 1.7813857e+2, -1197225.8, -1217228.1, 67944.05, -0.0030125997, -0.5585425, -1138550.8, 55636.137, 0.0, 10.000227, 9.99994 
2.885156e+3, 1.8813835e+2, -1099151.6, -1116363.4, 81826.6, -0.0050029038, -0.5659163, -1025479.6, 70708.43, 0.0, 10.0002165, 9.999964 
2.8851193e+3, 1.981381e+2, -1006933.56, -1029614.94, 89099.44, -0.0033704182, -0.5779573, -928456.0, 69733.445, 0.0, 10.000214, 9.999888 
2.8850827e+3, 2.0813768e+2, -902030.75, -941019.9, 101744.71, -0.0031432495, -0.59476477, -817929.8, 82262.82, 0.0, 10.000317, 9.999774 
2.885046e+3, 2.1813717e+2, -793765.25, -851424.9, 106884.92, -0.00444393, -0.61192656, -711890.3, 90306.17, 0.0, 10.000444, 9.999655 
2.8850093e+3, 2.281366e+2, -712951.3, -786021.6, 108335.445, -0.002385493, -0.6132005, -635156.3, 69045.46, 0.0, 10.000431, 9.999437 
2.8849727e+3, 2.38136e+2, -624901.5, -692786.94, 119480.55, 0.0050224517, -0.60923404, -534635.9, 71571.5, 0.0, 10.000362, 9.999437 
2.884936e+3, 2.4813525e+2, -551082.7, -607427.5, 115300.97, 0.036471415, -0.61748177, -460562.22, 47651.29, 0.0, 10.0002, 9.999429 
2.8848997e+3, 2.5813445e+2, -486475.72, -542558.75, 116851.39, 0.06665662, -0.6292902, -394348.28, 15871.906, 0.0, 10.000046, 9.999275 
2.8848624e+3, 2.6813337e+2, -399690.4, -481945.56, 103096.54, 0.05504742, -0.63960266, -329820.8, -17589.86, 0.0, 10.000105, 9.998991 
2.8848246e+3, 2.781322e+2, -298913.78, -375529.25, 115032.625, 0.05282889, -0.64837027, -215978.02, -1735.1631, 0.0, 10.000093, 9.999054 
2.884788e+3, 2.881313e+2, -243520.19, -301937.25, 115109.06, 0.10648262, -0.6356644, -153971.69, -37719.824, 0.0, 9.999818, 9.999019 
2.8847507e+3, 2.9813048e+2, -158127.5, -208366.48, 89486.02, 0.115214266, -0.6089151, -90302.19, -72042.445, 0.0, 9.999725, 9.999033 
2.8847128e+3, 3.0812973e+2, -62253.027, -152627.05, 21386.756, 0.11115136, -0.5752901, -57447.445, -57447.445, 0.0, 10.00011, 9.9988985 
2.8846756e+3, 3.1812745e+2, 51373.28, 7194.054, 84037.12, 0.14339301, -0.68697673, 116175.484, 116175.484, 0.0, 10.000434, 9.999842 
2.8953803e+3, 1.2817739e+2, -1675086.0, -1709253.3, 24843.691, -0.020954102, -0.57377404, -1662019.0, 21787.268, 0.0, 10.000337, 9.999877 
2.8953433e+3, 1.3817753e+2, -1584296.3, -1599835.4, 9739.276, 0.04761336, -0.5413274, -1579607.1, 6199.057, 0.0, 10.000223, 10.0000105 
2.8953052e+3, 1.4817756e+2, -1470848.8, -1467012.4, 39448.95, 0.019484302, -0.5473172, -1429435.0, 58370.16, 0.0, 10.000215, 10.000252 
2.8952676e+3, 1.5817755e+2, -1377455.5, -1383310.1, 48611.363, -0.0054302844, -0.5656761, -1331683.4, 58120.86, 0.0, 10.000236, 10.000143 
2.8952304e+3, 1.6817735e+2, -1293985.8, -1315646.5, 70374.22, -0.004212414, -0.5774582, -1233613.4, 58192.313, 0.0, 10.000238, 9.999932 
2.8951934e+3, 1.7817712e+2, -1193929.9, -1210833.1, 67538.38, -0.0024286201, -0.58670026, -1134316.4, 59491.316, 0.0, 10.000228, 9.999984 
2.895156e+3, 1.8817697e+2, -1086211.5, -1089851.3, 81320.06, -0.00322115, -0.60249823, -1006690.94, 89117.08, 0.0, 10.000217, 10.000146 
2.8951195e+3, 1.9817686e+2, -995240.1, -1005257.0, 90391.06, -0.0028542746, -0.61886734, -909718.8, 88088.95, 0.0, 10.000213, 10.000056 
2.8950828e+3, 2.0817684e+2, -891157.94, -918540.75, 106799.61, -0.009284171, -0.6094138, -797175.75, 102631.45, 0.0, 10.000316, 9.999928 
2.8950462e+3, 2.1817681e+2, -782394.3, -827680.44, 109693.234, -0.017691491, -0.5942398, -693031.5, 108775.18, 0.0, 10.0004425, 9.999819 
2.8950098e+3, 2.2817613e+2, -698839.94, -756729.75, 105990.19, 0.00008893779, -0.62443334, -617913.44, 85899.266, 0.0, 10.00043, 9.999639 
2.8949732e+3, 2.3817526e+2, -615032.6, -672284.8, 115236.09, 0.026929203, -0.666356, -524920.3, 80900.22, 0.0, 10.000362, 9.999578 
2.894936e+3, 2.4817477e+2, -549135.75, -603086.0, 108167.28, 0.018925713, -0.65787804, -464630.75, 43194.05, 0.0, 10.000199, 9.999459 
2.894899e+3, 2.5817442e+2, -474561.78, -517303.75, 115684.6, -0.0033123116, -0.6315635, -378290.75, 31537.072, 0.0, 10.000043, 9.999451 
2.894862e+3, 2.681737e+2, -376409.9, -434469.38, 105170.375, 0.04091541, -0.63130033, -296336.3, 15498.229, 0.0, 10.000107, 9.999316 
2.8948253e+3, 2.7817276e+2, -287863.56, -355087.3, 106096.2, 0.12005235, -0.6476034, -210182.3, 3661.7698, 0.0, 10.000103, 9.99919 
2.8947875e+3, 2.8817153e+2, -287088.0, -390278.25, 110358.016, 0.095247515, -0.63817835, -216859.7, -101003.016, 0.0, 9.999811, 9.998414 
2.894749e+3, 2.9817018e+2, -207101.94, -304672.8, 94345.27, -0.009275102, -0.6091289, -149675.1, -131804.28, 0.0, 9.999703, 9.998382 
2.8947133e+3, 3.081669e+2, -131396.27, -297704.06, 39334.19, 0.14174269, -0.7418068, -122562.4, -122562.4, 0.0, 10.000116, 9.997899 
2.8946757e+3, 3.1816575e+2, 36696.734, -23924.875, 58916.82, 0.1419622, -0.6416843, 72642.52, 72642.52, 0.0, 10.00044, 9.999623 
2.9053807e+3, 1.2821569e+2, -1716266.5, -1727806.1, 9356.162, -0.032374106, -0.5758897, -1711044.1, -27614.398, 0.0, 10.000049, 9.999889 
2.9053435e+3, 1.3821568e+2, -1600628.1, -1601934.0, 12421.271, 0.054505195, -0.56102467, -1588842.6, -3411.2842, 0.0, 10.000086, 10.000062 
2.905305e+3, 1.4821586e+2, -1490830.9, -1463238.1, 34955.914, 0.024102962, -0.5624409, -1439454.5, 47974.516, 0.0, 10.000019, 10.000372 
2.9052675e+3, 1.5821606e+2, -1414397.9, -1386352.0, 32801.03, -0.009058564, -0.57021827, -1364702.1, 24723.748, 0.0, 9.999918, 10.000276 
2.9052302e+3, 1.6821602e+2, -1319824.5, -1310083.0, 63029.242, -0.006034754, -0.58251613, -1251736.6, 39689.094, 0.0, 9.999983, 10.000093 
2.9051933e+3, 1.782159e+2, -1205294.4, -1201389.5, 71013.68, 0.00023472296, -0.5959916, -1132301.4, 61125.023, 0.0, 10.000085, 10.000117 
2.9051563e+3, 1.8821585e+2, -1100567.5, -1087419.5, 79946.945, -0.0023083452, -0.6120746, -1013776.7, 81649.23, 0.0, 10.000078, 10.00023 
2.9051194e+3, 1.9821584e+2, -1013806.6, -1001467.7, 83603.1, -0.0046204436, -0.62761325, -923806.75, 73618.055, 0.0, 10.00003, 10.000171 
2.905083e+3, 2.0821592e+2, -926784.56, -913852.25, 102144.125, -0.0055856714, -0.6233745, -817969.8, 81453.266, 0.0, 9.999976, 10.000125 
2.9050463e+3, 2.1821605e+2, -843691.1, -834590.3, 107291.35, -0.0075741694, -0.61366785, -731752.94, 69668.234, 0.0, 9.999924, 10.000022 
2.9050097e+3, 2.2821571e+2, -757214.1, -757079.8, 104611.47, 0.002523417, -0.6316947, -652535.44, 50888.305, 0.0, 9.999909, 9.999887 
2.904973e+3, 2.3821524e+2, -666585.5, -675533.8, 117646.09, 0.019896219, -0.6584799, -553328.56, 52099.285, 0.0, 9.999915, 9.999771 
2.904936e+3, 2.4821472e+2, -561979.06, -591491.2, 117587.97, 0.020039598, -0.66715294, -458224.94, 49207.2, 0.0, 10.000034, 9.999618 
2.9048988e+3, 2.582143e+2, -448147.84, -479389.47, 131576.2, 0.006953454, -0.6649483, -331268.44, 78167.28, 0.0, 10.000116, 9.999675 
2.904862e+3, 2.682141e+2, -405874.75, -402960.9, 117805.305, 0.027923714, -0.64590865, -286603.5, 24833.951, 0.0, 9.99971, 9.999723 
2.9048246e+3, 2.7821386e+2, -375878.03, -355921.38, 131880.67, 0.0860596, -0.6318159, -233642.08, -20201.838, 0.0, 9.999324, 9.9995575 
2.904787e+3, 2.8821293e+2, -380934.5, -362968.4, 169051.92, 0.12802655, -0.64236456, -202661.03, -87210.79, 0.0, 9.99886, 9.999056 
2.9153806e+3, 1.28254e+2, -1697865.6, -1689693.5, 10851.049, -0.019227566, -0.5602064, -1682184.8, 869.03845, 0.0, 10.00005, 10.00015 
2.9153436e+3, 1.3825381e+2, -1589158.3, -1578507.3, 12777.187, 0.05126965, -0.58692116, -1569990.1, 15065.793, 0.0, 10.000087, 10.000222 
2.9153052e+3, 1.4825402e+2, -1494769.4, -1472084.9, 30684.65, 0.019749053, -0.5862078, -1450713.3, 36340.324, 0.0, 10.000021, 10.00031 
2.9152673e+3, 1.5825436e+2, -1409742.9, -1377401.4, 31945.314, -0.009677865, -0.57792264, -1357767.1, 31282.902, 0.0, 9.99992, 10.000336 
2.91523e+3, 1.6825464e+2, -1296836.9, -1262899.0, 67256.3, -0.0035535726, -0.5806144, -1210504.0, 80542.64, 0.0, 9.999985, 10.000417 
2.9151934e+3, 1.782549e+2, -1190537.9, -1170446.4, 73195.59, 0.0044705924, -0.5877154, -1106610.4, 86433.13, 0.0, 10.000083, 10.000331 
2.9151565e+3, 1.8825497e+2, -1101398.5, -1088754.4, 77900.17, -0.0022584233, -0.5966404, -1016920.1, 78121.77, 0.0, 10.000075, 10.000222 
2.9151195e+3, 1.9825503e+2, -1009565.25, -992260.4, 81900.57, -0.008362768, -0.60631704, -918556.5, 78484.07, 0.0, 10.000027, 10.000236 
2.915083e+3, 2.0825495e+2, -910231.2, -879536.6, 99896.29, 0.007494828, -0.63674825, -793815.56, 105224.69, 0.0, 9.999976, 10.000361 
2.9150465e+3, 2.182549e+2, -826916.5, -799868.1, 105756.94, 0.02437265, -0.66876614, -706774.1, 94265.55, 0.0, 9.999924, 10.00026 
2.9150096e+3, 2.2825536e+2, -736285.7, -713997.4, 104302.3, 0.004376878, -0.6340164, -620245.56, 82789.305, 0.0, 9.99991, 10.000183 
2.9149726e+3, 2.382559e+2, -649118.0, -639884.6, 119760.71, -0.016350266, -0.58560395, -524651.7, 80377.63, 0.0, 9.999917, 10.000016 
2.9149362e+3, 2.4825513e+2, -541814.0, -550158.0, 122805.195, 0.041003928, -0.64557064, -423109.97, 83925.586, 0.0, 10.000036, 9.999902 
2.9149e+3, 2.582541e+2, -429246.8, -441056.6, 126164.92, 0.09969601, -0.731012, -308848.7, 100195.38, 0.0, 10.00012, 9.999936 
2.9148614e+3, 2.6825458e+2, -374130.3, -335318.75, 97158.2, 0.013485036, -0.68449503, -255647.28, 55392.625, 0.0, 9.999702, 10.000191 
2.9148224e+3, 2.782555e+2, -336816.9, -272204.6, 133999.22, -0.0597555, -0.6003901, -166672.16, 46359.438, 0.0, 9.999312, 10.000138 
2.914787e+3, 2.8825545e+2, -246602.6, -92150.016, 118521.74, 0.21283172, -0.64526117, -27914.988, 87117.51, 0.0, 9.998889, 10.000906 
2.9253805e+3, 1.28292e+2, -1727600.5, -1689060.8, 13308.224, -0.00910352, -0.5771688, -1684911.9, -2231.7017, 0.0, 9.999782, 10.000283 
2.9253432e+3, 1.3829187e+2, -1617120.1, -1578902.8, 6371.2783, 0.0443634, -0.61039686, -1577868.6, 6812.763, 0.0, 9.999838, 10.00034 
2.925305e+3, 1.4829224e+2, -1515047.6, -1473754.5, 25821.713, 0.015214978, -0.60566485, -1461339.9, 25338.059, 0.0, 9.999846, 10.000383 
2.9252672e+3, 1.5829271e+2, -1419133.0, -1373398.9, 37365.117, -0.0049550487, -0.58936775, -1352458.9, 36214.46, 0.0, 9.999818, 10.000414 
2.92523e+3, 1.6829309e+2, -1314820.4, -1260389.5, 64750.063, -0.0018068765, -0.59044814, -1217367.9, 73301.29, 0.0, 9.999812, 10.000519 
2.9251933e+3, 1.7829347e+2, -1224167.8, -1172896.3, 55793.805, 0.0007034874, -0.59670097, -1137130.5, 55534.45, 0.0, 9.999791, 10.000456 
2.9251564e+3, 1.8829374e+2, -1133702.6, -1084276.6, 65058.625, -0.001067058, -0.6022251, -1039395.4, 55266.086, 0.0, 9.999765, 10.000403 
2.9251194e+3, 1.9829401e+2, -1041129.44, -991497.9, 82450.6, -0.0006933323, -0.60887164, -930209.5, 66448.484, 0.0, 9.99974, 10.00038 
2.9250827e+3, 2.0829405e+2, -932613.5, -880627.6, 95669.46, 0.01287389, -0.63645244, -807482.9, 91173.734, 0.0, 9.99978, 10.000449 
2.9250464e+3, 2.1829413e+2, -832460.0, -789867.75, 91077.3, 0.026064275, -0.66589534, -717629.94, 83025.16, 0.0, 9.99983, 10.000375 
2.925009e+3, 2.2829472e+2, -735392.1, -690155.5, 81610.64, 0.0008421423, -0.63554364, -628086.8, 74562.06, 0.0, 9.999814, 10.000394 
2.9249722e+3, 2.382954e+2, -653874.3, -617980.8, 92796.8, -0.02500102, -0.5933796, -541411.25, 63230.37, 0.0, 9.999778, 10.000235 
2.9249364e+3, 2.4829496e+2, -570175.9, -527710.56, 97660.65, 0.052923284, -0.64775306, -449001.06, 57643.305, 0.0, 9.999683, 10.000227 
2.9249e+3, 2.5829437e+2, -495445.88, -440780.9, 98264.625, 0.13805127, -0.7233113, -366118.28, 42530.242, 0.0, 9.999523, 10.000228 
2.9248607e+3, 2.6829502e+2, -392726.7, -303801.28, 59512.406, 0.017118368, -0.69098103, -273976.3, 36665.957, 0.0, 9.999397, 10.000555 
2.9248214e+3, 2.7829602e+2, -307975.28, -216669.0, 98398.445, -0.104633905, -0.63634574, -153848.81, 58784.008, 0.0, 9.999325, 10.000519 
2.9247862e+3, 2.8829634e+2, -113783.48, 23359.758, 6304.876, 0.24309373, -0.6918406, 23649.0, 138278.97, 0.0, 9.99957, 10.00138 
2.9353803e+3, 1.2832971e+2, -1723967.4, -1684782.8, 15779.572, -0.0014768331, -0.62285554, -1679218.5, 3090.4148, 0.0, 9.999796, 10.000305 
2.9353428e+3, 1.3832986e+2, -1612285.3, -1567547.1, 9054.76, 0.03395003, -0.6320321, -1565784.0, 18523.682, 0.0, 9.999832, 10.000421 
2.9353046e+3, 1.4833045e+2, -1502149.5, -1446113.8, 25113.455, 0.00983318, -0.6212167, -1436506.0, 49796.168, 0.0, 9.999843, 10.000575 
2.9352668e+3, 1.583311e+2, -1412804.9, -1360280.3, 37270.508, 0.0032911957, -0.6036881, -1340948.8, 47347.063, 0.0, 9.999818, 10.000504 
2.9352298e+3, 1.6833138e+2, -1321675.6, -1275025.1, 64307.727, -0.001669648, -0.6105471, -1229943.1, 60349.98, 0.0, 9.999813, 10.000418 
2.935193e+3, 1.7833164e+2, -1220678.0, -1165813.3, 55380.21, -0.010687104, -0.6212021, -1131443.5, 60847.133, 0.0, 9.999791, 10.0005045 
2.935156e+3, 1.8833217e+2, -1108209.3, -1031882.6, 63857.258, 0.0008316279, -0.6269844, -995653.8, 98630.51, 0.0, 9.999767, 10.000762 
2.9351193e+3, 1.9833277e+2, -1025684.8, -959891.1, 82446.664, 0.01660696, -0.6336593, -904020.56, 92256.46, 0.0, 9.999742, 10.000596 
2.9350826e+3, 2.0833324e+2, -936402.4, -888502.8, 97384.91, 0.0103225075, -0.6227033, -812165.94, 86106.195, 0.0, 9.999779, 10.000396 
2.935046e+3, 2.183337e+2, -833043.94, -790769.44, 92101.734, -0.0015383667, -0.6071918, -717410.56, 82856.95, 0.0, 9.999828, 10.00037 
2.935009e+3, 2.2833377e+2, -726147.25, -670999.25, 79946.59, -0.0077314023, -0.63715184, -614005.06, 88260.84, 0.0, 9.999814, 10.000526 
2.934972e+3, 2.3833376e+2, -640261.94, -590239.3, 90940.35, -0.00676277, -0.6815486, -520933.53, 83331.23, 0.0, 9.99978, 10.000424 
2.9349357e+3, 2.4833424e+2, -543978.5, -473965.5, 92802.07, 0.054098208, -0.6724174, -409786.94, 96471.64, 0.0, 9.999685, 10.000596 
2.9348993e+3, 2.583351e+2, -472137.63, -392893.63, 91857.3, 0.11853054, -0.6387769, -332477.3, 75771.6, 0.0, 9.999525, 10.000556 
2.9348603e+3, 2.6833546e+2, -372747.78, -263688.2, 54895.543, 0.041911356, -0.6640542, -240842.14, 69402.164, 0.0, 9.999402, 10.000829 
2.934821e+3, 2.783353e+2, -292589.97, -190971.64, 93548.05, -0.046281297, -0.74709785, -135325.16, 76919.445, 0.0, 9.99935, 10.000684 
2.9347855e+3, 2.883359e+2, -156999.86, -64238.676, 27973.105, 0.20243381, -0.7498324, -56456.05, 57783.332, 0.0, 9.999563, 10.000779 
2.9453805e+3, 1.2836793e+2, -1706738.5, -1675322.4, 16766.588, 0.02233664, -0.6329501, -1668055.3, 13878.073, 0.0, 9.9999075, 10.000318 
2.9453424e+3, 1.3836814e+2, -1650431.6, -1580820.9, 14482.084, 0.017380353, -0.63684696, -1577928.1, 6003.143, 0.0, 9.999548, 10.000467 
2.9453042e+3, 1.483688e+2, -1536583.6, -1454482.3, 27827.75, 0.0013032246, -0.62427205, -1445939.3, 39985.816, 0.0, 9.999569, 10.00065 
2.945267e+3, 1.5836951e+2, -1432926.8, -1363675.1, 32526.92, 0.0145190125, -0.6095367, -1350793.5, 37124.79, 0.0, 9.999651, 10.000562 
2.9452294e+3, 1.683699e+2, -1335373.0, -1274050.1, 65410.465, 0.008065373, -0.61303395, -1232471.4, 57443.258, 0.0, 9.999684, 10.000487 
2.9451928e+3, 1.7837024e+2, -1234949.0, -1166270.5, 66739.75, -0.010540093, -0.6213817, -1125553.9, 66357.336, 0.0, 9.999664, 10.000564 
2.9451555e+3, 1.883708e+2, -1116481.5, -1030883.94, 61034.344, -0.0014408451, -0.6302952, -999137.94, 94766.99, 0.0, 9.999687, 10.00081 
2.9451188e+3, 1.9837141e+2, -1023083.6, -951479.4, 59946.258, 0.016640248, -0.6398412, -917457.8, 78439.695, 0.0, 9.999725, 10.000664 
2.945082e+3, 2.0837192e+2, -942250.5, -881693.6, 77786.15, 0.008058114, -0.63302505, -828500.7, 69391.47, 0.0, 9.999694, 10.000484 
2.9450455e+3, 2.1837246e+2, -851029.44, -790626.3, 83293.88, -0.007611498, -0.61875486, -732227.6, 67659.11, 0.0, 9.999663, 10.000452 
2.945009e+3, 2.283726e+2, -729191.4, -661024.94, 71979.016, -0.0019766644, -0.64981186, -615467.44, 86416.625, 0.0, 9.999741, 10.000631 
2.9449722e+3, 2.3837262e+2, -629216.94, -575901.75, 78721.57, 0.011659448, -0.70184076, -519446.7, 84435.8, 0.0, 9.999813, 10.000508 
2.9449353e+3, 2.4837315e+2, -525017.06, -458963.22, 59999.715, 0.042942185, -0.6958991, -423501.16, 82375.055, 0.0, 9.999786, 10.000652 
2.9448983e+3, 2.5837418e+2, -432989.78, -357541.63, 34861.113, 0.07552404, -0.65143144, -343900.3, 63964.63, 0.0, 9.99972, 10.000707 
2.9448602e+3, 2.683748e+2, -349176.63, -228496.16, -7965.966, 0.0632472, -0.67172116, -227972.61, 81884.59, 0.0, 9.999455, 10.001049 
2.9448214e+3, 2.7837446e+2, -308876.1, -199746.66, 30458.236, 0.037856724, -0.7899839, -191821.28, 20037.61, 0.0, 9.999234, 10.000682 
2.9447845e+3, 2.8837538e+2, -80554.36, -35481.375, 8533.972, 0.13585272, -0.7353018, -33919.688, 79930.03, 0.0, 10.000119, 10.00071 
2.9553807e+3, 1.2840658e+2, -1706207.3, -1674206.3, 3497.7832, 0.057300117, -0.608393, -1673828.4, 7725.3667, 0.0, 9.999908, 10.000325 
2.9553416e+3, 1.3840671e+2, -1648162.6, -1578837.4, 8422.74, -0.004315673, -0.6245695, -1577828.8, 5723.9287, 0.0, 9.99956, 10.000475 
2.9553038e+3, 1.4840731e+2, -1537176.9, -1458260.4, 31300.818, -0.008364643, -0.61633724, -1447353.0, 38193.87, 0.0, 9.99958, 10.00062 
2.9552662e+3, 1.584079e+2, -1429688.4, -1358262.4, 35020.934, 0.031226529, -0.6090931, -1343956.5, 43584.703, 0.0, 9.999656, 10.000596 
2.9552296e+3, 1.6840857e+2, -1318133.3, -1239866.1, 64984.984, 0.028056541, -0.60168463, -1203141.4, 86392.86, 0.0, 9.999691, 10.000719 
2.955192e+3, 1.7840919e+2, -1230029.4, -1156911.0, 65597.766, 0.00021214677, -0.6012259, -1118372.6, 73154.8, 0.0, 9.999668, 10.000627 
2.955155e+3, 1.8840955e+2, -1133723.8, -1066780.5, 62045.457, -0.007256111, -0.61462164, -1029754.0, 63769.582, 0.0, 9.999687, 10.000563 
2.9551184e+3, 1.9840993e+2, -1027843.2, -961091.44, 60696.984, 0.0013158431, -0.62851006, -925199.2, 70320.29, 0.0, 9.999724, 10.000598 
2.9550818e+3, 2.0841013e+2, -926232.8, -848623.25, 75451.99, 0.006143668, -0.66628474, -802582.2, 94934.3, 0.0, 9.999695, 10.000711 
2.955045e+3, 2.1841042e+2, -839520.44, -766994.25, 84067.86, 0.005971916, -0.6982359, -711701.8, 87810.586, 0.0, 9.999664, 10.000614 
2.9550087e+3, 2.2841124e+2, -723728.3, -649666.25, 75331.71, 0.017513698, -0.6724935, -602755.8, 98747.484, 0.0, 9.99974, 10.0007105 
2.9549718e+3, 2.3841201e+2, -630332.8, -578327.25, 79625.71, 0.030367307, -0.6545658, -520566.06, 82928.81, 0.0, 9.999813, 10.000492 
2.9549348e+3, 2.4841166e+2, -541894.94, -494457.94, 57919.55, 0.018655475, -0.720047, -455588.56, 49908.848, 0.0, 9.999787, 10.000408 
2.9548976e+3, 2.5841162e+2, -433267.84, -360002.84, 28493.049, 0.006718116, -0.7645309, -350226.38, 57270.527, 0.0, 9.999727, 10.000687 
2.9548597e+3, 2.684131e+2, -336195.38, -202324.86, -17426.094, 0.07963035, -0.7137516, -200093.67, 109387.22, 0.0, 9.999458, 10.001227 
2.9548216e+3, 2.7841347e+2, -321817.56, -224501.78, 32950.12, 0.14801587, -0.7600157, -214394.88, -2919.6716, 0.0, 9.999226, 10.000516 
2.954783e+3, 2.8841388e+2, -62418.527, 4054.7212, 57991.49, 0.016758205, -0.7456327, 37658.848, 151129.67, 0.0, 10.000117, 10.000978 
2.9653803e+3, 1.2844495e+2, -1718674.8, -1680666.3, -6334.574, 0.033748657, -0.61979955, -1679638.3, 1539.5067, 0.0, 9.999824, 10.000321 
2.9653412e+3, 1.3844505e+2, -1621061.0, -1577124.8, 4739.7407, 0.0063061435, -0.6345413, -1576619.3, 6557.3984, 0.0, 9.999793, 10.000376 
2.9653034e+3, 1.4844534e+2, -1513164.6, -1470298.4, 22112.541, 0.010873365, -0.6399598, -1460936.3, 24237.541, 0.0, 9.999845, 10.00041 
2.9652664e+3, 1.584457e+2, -1407099.8, -1357067.0, 16560.92, 0.056862183, -0.6402804, -1352082.0, 35088.53, 0.0, 9.999851, 10.000512 
2.9652292e+3, 1.6844626e+2, -1300516.4, -1227123.5, 31182.283, 0.044114627, -0.6430612, -1215664.4, 73499.92, 0.0, 9.999791, 10.00076 
2.965192e+3, 1.7844693e+2, -1226629.5, -1152086.4, 20194.605, 0.00996171, -0.64305484, -1146967.0, 44189.875, 0.0, 9.999674, 10.000659 
2.965155e+3, 1.8844748e+2, -1132020.8, -1063567.9, 32490.727, 0.009346858, -0.6399054, -1050602.1, 42548.996, 0.0, 9.999685, 10.000587 
2.9651183e+3, 1.9844797e+2, -1025651.4, -960525.5, 45633.887, 0.01788557, -0.64304274, -937027.8, 58118.293, 0.0, 9.99974, 10.000595 
2.9650816e+3, 2.084482e+2, -907984.6, -832868.44, 52651.22, 0.01068291, -0.6818119, -805752.25, 91390.25, 0.0, 9.999788, 10.000775 
2.965045e+3, 2.184485e+2, -806925.56, -744468.7, 52881.746, 0.002032702, -0.7191125, -714283.0, 84854.914, 0.0, 9.999856, 10.000678 
2.9650083e+3, 2.284494e+2, -708204.56, -640947.5, 38045.184, 0.019104242, -0.68896145, -623798.9, 77329.305, 0.0, 9.999838, 10.000725 
2.9649717e+3, 2.3845033e+2, -630485.1, -561890.1, 38590.4, 0.038426403, -0.6612544, -544558.75, 58559.734, 0.0, 9.999739, 10.000643 
2.9649344e+3, 2.4845015e+2, -552765.3, -471252.3, 45764.402, 0.00903902, -0.7334351, -450726.9, 54392.113, 0.0, 9.999586, 10.000667 
2.964897e+3, 2.584502e+2, -456343.75, -369130.38, 52843.207, -0.021239255, -0.791559, -344224.66, 62892.723, 0.0, 9.999555, 10.00071 
2.9648593e+3, 2.6845154e+2, -253124.28, -223150.66, -18228.334, 0.08725359, -0.7204061, -214539.23, 94564.48, 0.0, 10.000288, 10.000687 
2.9648218e+3, 2.7845174e+2, -95860.21, -156868.94, -27448.217, 0.19154865, -0.73375463, -85328.97, 125772.12, 0.0, 10.000954, 10.000152 
2.964782e+3, 2.884516e+2, -200538.77, -54977.848, -17619.424, -0.041531365, -0.7575803, -52875.473, 60225.65, 0.0, 9.999136, 10.001049 
2.9753792e+3, 1.284829e+2, -1712909.9, -1679102.8, -20816.531, -0.032791443, -0.67373484, -1669191.1, 11615.723, 0.0, 9.999871, 10.000308 
2.9753414e+3, 1.3848309e+2, -1631136.1, -1599797.4, 555.388, 0.043161813, -0.67047787, -1599787.6, -16983.498, 0.0, 9.999802, 10.000216 
2.9753038e+3, 1.4848295e+2, -1533441.9, -1518239.3, 18779.836, 0.049735084, -0.69081664, -1505580.8, -20775.25, 0.0, 9.999871, 10.000069 
2.9752663e+3, 1.5848298e+2, -1418710.3, -1383993.1, 14248.178, 0.0811628, -0.69500136, -1378894.4, 7910.944, 0.0, 9.999865, 10.00032 
2.975229e+3, 1.6848314e+2, -1311082.9, -1247557.3, 24952.549, 0.051330585, -0.7254159, -1238928.1, 49875.21, 0.0, 9.999784, 10.000623 
2.9751918e+3, 1.7848359e+2, -1227103.4, -1151240.3, 15636.591, 0.017435307, -0.7349488, -1148143.8, 42654.36, 0.0, 9.999667, 10.000668 
2.9751548e+3, 1.8848465e+2, -1113149.0, -1023676.44, 32528.146, 0.04466254, -0.7006904, -1013100.75, 79686.086, 0.0, 9.999682, 10.000862 
2.9751182e+3, 1.9848554e+2, -1021363.1, -951664.6, 45919.62, 0.061644483, -0.6824405, -928867.7, 65909.54, 0.0, 9.99974, 10.000656 
2.9750812e+3, 2.0848614e+2, -913977.4, -845090.6, 53620.363, 0.02066406, -0.6807696, -815804.2, 80966.1, 0.0, 9.999787, 10.000691 
2.9750445e+3, 2.1848673e+2, -809170.44, -748428.44, 54460.77, -0.018075831, -0.68350524, -716442.6, 82320.77, 0.0, 9.999852, 10.000652 
2.9750082e+3, 2.2848715e+2, -711455.8, -647371.0, 35800.89, 0.002634242, -0.6989263, -631367.44, 69391.1, 0.0, 9.999836, 10.000682 
2.9749715e+3, 2.3848763e+2, -608727.5, -516048.72, 32847.41, 0.033904057, -0.7193531, -505587.66, 97165.4, 0.0, 9.999736, 10.000958 
2.974934e+3, 2.4848868e+2, -499191.7, -359308.03, 40932.355, 0.014627598, -0.732658, -348210.88, 156529.73, 0.0, 9.999583, 10.001436 
2.974896e+3, 2.5848997e+2, -452156.4, -360537.6, 63769.426, -0.0063837394, -0.72849125, -327829.22, 78896.6, 0.0, 9.999555, 10.00077 
2.9748595e+3, 2.6849014e+2, -340094.72, -407775.75, 19398.275, 0.08414387, -0.6929304, -334929.16, -26203.307, 0.0, 10.000305, 9.999411 
2.9748225e+3, 2.784893e+2, -128043.02, -230019.44, -43211.01, 0.1596177, -0.70564276, -112195.695, 98540.516, 0.0, 10.000985, 9.999632 
2.9747817e+3, 2.8848884e+2, -229061.64, -104047.98, -109016.05, 0.0065982672, -0.75492066, -40890.168, 71848.23, 0.0, 9.999099, 10.000728 
2.9853803e+3, 1.2852116e+2, -1630926.1, -1643020.3, -95313.5, 0.08680933, -0.5709751, -1541468.1, 138964.66, 0.0, 10.000456, 10.000272 
2.985341e+3, 1.3852152e+2, -1580102.0, -1559852.6, -68118.51, -0.004838093, -0.5558518, -1501110.5, 81317.984, 0.0, 10.000094, 10.000344 
2.9853028e+3, 1.48522e+2, -1489269.4, -1483389.6, -25340.486, -0.037031256, -0.5283156, -1460819.0, 23604.178, 0.0, 10.000121, 10.000184 
2.9852653e+3, 1.5852211e+2, -1436142.6, -1401519.3, -15852.999, -0.028693711, -0.5298761, -1395357.4, -8935.56, 0.0, 9.99979, 10.000233 
2.9852283e+3, 1.6852249e+2, -1336636.5, -1281544.1, -3471.9111, 0.016725164, -0.51881486, -1281326.3, 7091.547, 0.0, 9.999709, 10.0004225 
2.9851913e+3, 1.7852265e+2, -1221317.0, -1165753.3, -14577.406, 0.039202396, -0.53992295, -1162161.1, 28254.932, 0.0, 9.999788, 10.000505 
2.9851544e+3, 1.8852268e+2, -1105635.3, -1030802.0, -21868.725, 0.015315555, -0.59639406, -1024879.9, 67535.2, 0.0, 9.999787, 10.000761 
2.9851174e+3, 1.9852306e+2, -1001602.5, -929089.9, -22604.29, 0.010969547, -0.62795794, -922620.6, 71789.93, 0.0, 9.999822, 10.0007715 
2.9850808e+3, 2.0852368e+2, -893754.2, -806751.6, -144.4662, 0.011799749, -0.64416504, -806751.44, 89651.625, 0.0, 9.999804, 10.000948 
2.9850444e+3, 2.1852444e+2, -821535.8, -730281.6, 19554.275, 0.0034854664, -0.6541981, -726268.0, 72126.266, 0.0, 9.999664, 10.000868 
2.9850078e+3, 2.2852495e+2, -725415.8, -633876.8, 19653.479, 0.026655672, -0.6811138, -629835.6, 70552.945, 0.0, 9.999653, 10.000863 
2.984971e+3, 2.3852545e+2, -598089.94, -493905.53, 22043.824, 0.047816638, -0.7143145, -489433.38, 112949.555, 0.0, 9.999734, 10.001112 
2.9849336e+3, 2.4852681e+2, -488356.53, -334721.5, -8659.829, 0.026843721, -0.7154647, -334234.9, 170132.42, 0.0, 9.999574, 10.001611 
2.984896e+3, 2.5852832e+2, -458376.38, -339497.47, -5296.212, 0.01652815, -0.7060919, -339262.0, 67088.086, 0.0, 9.999407, 10.000986 
2.9848596e+3, 2.685284e+2, -368353.56, -389022.25, 61365.348, 0.0904528, -0.7072339, -316458.47, -8107.4805, 0.0, 9.999967, 9.999705 
2.9848227e+3, 2.7852803e+2, -147063.13, -175197.83, 61432.125, 0.12148034, -0.7132005, -98108.28, 112248.49, 0.0, 10.000576, 10.00021 
2.984781e+3, 2.8852832e+2, -269315.25, -106661.98, -32768.64, 0.046965532, -0.74572337, -100308.48, 12043.342, 0.0, 9.998738, 10.000895 
2.9953802e+3, 1.2855756e+2, -1695478.3, -1695003.6, 89138.125, 0.0173979, -0.598245, -1606102.5, 73974.57, 0.0, 10.00008, 10.000107 
2.9953408e+3, 1.385573e+2, -1654841.1, -1569259.8, 59338.17, -0.0059153824, -0.6426452, -1538892.6, 43186.35, 0.0, 9.99945, 10.0006 
2.9953036e+3, 1.48558e+2, -1468213.1, -1432479.4, 29310.215, 0.046753876, -0.6280131, -1416019.8, 68051.08, 0.0, 10.000073, 10.000566 
2.9952657e+3, 1.5855782e+2, -1333283.6, -1356615.1, -1896.8069, 0.07897385, -0.6819099, -1333130.5, 52940.758, 0.0, 10.000503, 10.000205 
2.995228e+3, 1.6855757e+2, -1244853.3, -1270409.5, 24090.854, 0.0016052721, -0.71238524, -1230361.5, 57712.42, 0.0, 10.0004635, 10.000145 
2.9951915e+3, 1.7855878e+2, -1171848.9, -1181417.4, 10448.346, 0.06156572, -0.602643, -1165141.5, 24921.42, 0.0, 10.000278, 10.000173 
2.995154e+3, 1.8855838e+2, -1085517.8, -1073646.1, 15772.389, 0.034443323, -0.65564996, -1062729.6, 29337.35, 0.0, 10.000133, 10.00031 
2.995117e+3, 1.9855905e+2, -1010690.75, -921969.75, 8976.209, -0.020180909, -0.63663125, -921070.7, 72989.695, 0.0, 9.999696, 10.000888 
2.9950812e+3, 2.0856038e+2, -917415.44, -756134.6, 11780.341, 0.076293156, -0.624282, -755278.7, 140766.67, 0.0, 9.999367, 10.00151 
2.9950443e+3, 2.1856128e+2, -821317.8, -681911.6, 10058.345, 0.034714445, -0.6704125, -681189.6, 116844.5, 0.0, 9.999456, 10.0013 
2.9950076e+3, 2.285625e+2, -719976.3, -586499.9, 4835.3945, 0.03578774, -0.6672211, -586324.94, 113696.44, 0.0, 9.999498, 10.001262 
2.994971e+3, 2.3856366e+2, -585755.5, -488052.3, 10406.479, 0.06778682, -0.6617169, -486956.22, 115053.375, 0.0, 9.999819, 10.001111 
2.9949334e+3, 2.4856451e+2, -512967.25, -393934.88, -18313.26, 0.044194046, -0.68474257, -391181.1, 112818.375, 0.0, 9.999609, 10.001186 
2.9948956e+3, 2.5856525e+2, -430698.2, -282160.34, -1127.1046, 0.04637978, -0.7270352, -282151.8, 123838.7, 0.0, 9.999407, 10.00138 
2.9948598e+3, 2.6856634e+2, -233253.61, -108491.516, 92807.5, 0.10495505, -0.76566553, -59048.477, 248930.42, 0.0, 9.999966, 10.001634 
2.994823e+3, 2.7856806e+2, -30088.455, 73736.78, 49899.61, 0.072224066, -0.7632276, 93830.35, 303792.38, 0.0, 10.000557, 10.001926 
2.99478e+3, 2.885714e+2, -208881.95, 29306.371, -119992.625, 0.089160345, -0.6199798, 79273.29, 191201.6, 0.0, 9.9987, 10.001844 
