coord_x,coord_y,stress_xx,stress_yy,tau_xy,velocity_x,velocity_y,stress_1,eps,damage,lx,ly
4.9977207e+0, 1.2626272e+2, -2050040.0, -1488497.0, 61220.484, -0.028951101, 0.15562087, -1481900.1, 220746.1, 0.0026898824, 9.995927, 10.003514 
4.99864e+0, 1.3626555e+2, -1994607.1, -1641001.5, 41359.355, 0.028111609, 0.22264999, -1636228.4, -31612.96, 0.0015908045, 9.996667, 10.001426 
4.99901e+0, 1.4626668e+2, -1764079.1, -1490672.8, 32104.506, 0.016676452, 0.21186188, -1486953.5, 19648.25, 0.0007108368, 9.997638, 10.00131 
4.9990135e+0, 1.5626769e+2, -1530445.6, -1353243.3, -3057.3196, -0.034901086, 0.13345526, -1353190.5, 55399.145, 0.00020845741, 9.998681, 10.001078 
4.9994603e+0, 1.6626772e+2, -1532158.8, -1577498.6, 11615.528, -0.014910985, 0.16742693, -1529356.3, -218763.98, 0.000030560106, 9.999178, 9.99863 
5.000157e+0, 1.7626643e+2, -1393180.9, -1428844.0, 56561.23, 0.047436364, 0.13917603, -1351707.0, -139096.4, 0.0000010193884, 9.999327, 9.998905 
5.0002426e+0, 1.8626668e+2, -1113654.3, -1005682.6, 33170.438, 0.044218004, 0.15599902, -996306.44, 118301.516, 0.0, 9.999557, 10.001024 
4.999947e+0, 1.9626783e+2, -999961.0, -939619.25, -56664.0, 0.0010147975, 0.13536975, -905594.4, 110998.3, 0.0, 9.999834, 10.000673 
5.000075e+0, 2.0626853e+2, -998986.4, -1140621.3, -34016.813, -0.0077028368, 0.27038422, -991240.1, -72651.484, 0.0, 10.000261, 9.998411 
5.000439e+0, 2.1626876e+2, -819464.3, -989923.94, 28543.725, 0.0037929276, 0.41539347, -814811.56, 5781.9717, 0.0, 10.00076, 9.998533 
5.000593e+0, 2.2626777e+2, -638549.3, -749869.9, 36906.348, 0.012830357, 0.41468093, -627425.25, 95179.55, 0.0, 10.000891, 9.999445 
5.000622e+0, 2.3626587e+2, -566791.2, -685826.0, 4523.6147, 0.020170145, 0.24023312, -566619.5, 58001.91, 0.0, 10.0008, 9.999257 
5.0008285e+0, 2.4626485e+2, -453165.16, -723905.25, 42796.813, 0.0050501097, 0.28753808, -446561.2, 80070.54, 0.0, 10.001522, 9.997976 
5.001159e+0, 2.5626415e+2, -172008.75, -529836.7, 63116.92, -0.023581449, 0.3851493, -161202.0, 267438.16, 0.0, 10.002747, 9.998047 
5.000898e+0, 2.6626238e+2, -60322.664, -328292.44, 26899.373, -0.03336634, 0.36108652, -57649.12, 273006.94, 0.000000019594776, 10.002426, 9.998907 
5.000278e+0, 2.7626e+2, -148449.6, -319718.88, 909.9521, -0.031854548, 0.1892999, -148444.77, 84231.84, 0.00000068486895, 10.001145, 9.998909 
5.0008905e+0, 2.8625858e+2, 20988.81, -216726.33, 18491.477, -0.0014980532, 0.17554533, 22418.63, 157105.14, 0.0000056407102, 10.001767, 9.998639 
5.0022197e+0, 2.962571e+2, 365901.56, -26758.178, -36892.504, 0.04061957, 0.12525533, 369337.75, 406034.88, 0.00003698917, 10.003569, 9.998406 
5.0022674e+0, 3.0625555e+2, 281053.56, -314059.1, -55065.668, 0.03338595, 0.25718406, 286105.88, 286105.88, 0.00018828975, 10.0038185, 9.995981 
5.001612e+0, 3.162497e+2, 288034.94, -114349.4, 604.36414, 0.006979325, 0.044634894, 288035.84, 288035.84, 0.00054299436, 10.002974, 9.997769 
1.499308e+1, 1.2626335e+2, -2100490.5, -1544232.8, 62840.91, -0.09294843, 0.094879635, -1537221.9, 165411.95, 0.0025876667, 9.995751, 10.0032215 
1.4995943e+1, 1.362651e+2, -2025967.9, -1683541.9, 77109.37, 0.08726366, 0.10861478, -1666979.1, -62365.777, 0.0015348786, 9.9965925, 10.001181 
1.4997023e+1, 1.4626603e+2, -1820639.5, -1579425.4, 65032.742, 0.050951373, 0.11814303, -1563009.4, -56404.824, 0.00068435894, 9.997527, 10.000763 
1.4997035e+1, 1.5626733e+2, -1569122.3, -1409437.5, 39765.746, -0.10451615, 0.14768258, -1400082.8, 8511.598, 0.00019662973, 9.998592, 10.000742 
1.4998397e+1, 1.6626811e+2, -1445478.1, -1372507.3, 10421.435, -0.042649187, 0.1899497, -1371048.0, -60459.805, 0.000026649353, 9.999079, 10.0000925 
1.5000498e+1, 1.7626797e+2, -1330671.6, -1281237.0, 69339.57, 0.14409605, 0.1484243, -1232341.0, -19750.482, 0.00000066228677, 9.999254, 9.999963 
1.5000704e+1, 1.8626755e+2, -1284190.8, -1328343.1, 37766.74, 0.13170055, 0.17251375, -1262521.3, -147924.27, 0.0, 9.999438, 9.998871 
1.4999847e+1, 1.9626705e+2, -1130510.4, -1185438.0, -37667.5, 0.003594276, 0.21742748, -1111357.6, -94752.266, 0.0, 9.999735, 9.999041 
1.5000202e+1, 2.0626667e+2, -881093.5, -861836.3, -20455.676, -0.023524722, 0.20255907, -848856.4, 69751.82, 0.0, 10.0001335, 10.000389 
1.5001303e+1, 2.1626623e+2, -722758.75, -756664.56, 52963.297, 0.010911512, 0.10222772, -684101.3, 136507.63, 0.0, 10.000637, 10.000197 
1.5001768e+1, 2.2626606e+2, -702792.4, -852094.4, 24882.127, 0.03918703, 0.1456409, -698754.8, 23856.357, 0.0, 10.000773, 9.998806 
1.5001847e+1, 2.3626603e+2, -615870.1, -757642.5, 14794.383, 0.0597464, 0.24520873, -614342.75, 10271.757, 0.0, 10.000687, 9.998824 
1.5002495e+1, 2.4626482e+2, -402134.13, -596001.4, 82350.98, 0.015814297, 0.23842803, -371875.75, 154750.6, 0.0, 10.001436, 9.998904 
1.5003467e+1, 2.5626272e+2, -134303.64, -419247.06, 104058.83, -0.07142633, 0.119586, -100348.516, 328296.03, 0.0, 10.002619, 9.998874 
1.5002704e+1, 2.6626164e+2, -117254.5, -421789.88, -30008.434, -0.099279106, 0.1521062, -114325.69, 216330.81, 0.0000000045160005, 10.002335, 9.998315 
1.5000857e+1, 2.762611e+2, -216614.45, -432537.34, -28845.168, -0.09328122, 0.25070345, -212827.44, 19837.246, 0.0000004592844, 10.00103, 9.9981985 
1.5002635e+1, 2.862592e+2, -72210.95, -384128.97, 80907.13, -0.006939116, 0.28296474, -52473.7, 82210.28, 0.00000436483, 10.001672, 9.99754 
1.5006652e+1, 2.9625598e+2, 296390.84, -136094.58, 30972.66, 0.12002496, 0.18377972, 298597.7, 335312.9, 0.000032381515, 10.003426, 9.997731 
1.500682e+1, 3.062553e+2, 384911.28, -60622.473, -92139.484, 0.10462757, 0.3333424, 403214.47, 403214.47, 0.00017490126, 10.003699, 9.997786 
1.5004838e+1, 3.162515e+2, 330828.4, 40458.164, -1777.9724, 0.024044545, 0.17809255, 330839.28, 330839.28, 0.00051276246, 10.00273, 9.998959 
2.498951e+1, 1.262629e+2, -1978030.5, -1553291.8, -14903.491, -0.07449877, 0.1167305, -1552769.5, 149867.47, 0.002469487, 9.996884, 10.002606 
2.4993542e+1, 1.3626383e+2, -1838483.3, -1645515.5, -38920.234, 0.11794184, 0.09405613, -1637961.3, -33335.426, 0.0014658497, 9.998116, 10.000705 
2.4995264e+1, 1.4626452e+2, -1736236.0, -1544041.0, -37863.703, 0.09682981, 0.10348848, -1536850.6, -30229.99, 0.0006493342, 9.998143, 10.000695 
2.4995695e+1, 1.5626594e+2, -1739862.6, -1492719.1, -29449.164, -0.035409376, 0.14460543, -1489258.4, -80647.99, 0.00018140074, 9.997432, 10.000722 
2.4997275e+1, 1.6626737e+2, -1509171.5, -1321769.5, -25070.268, -0.019866198, 0.21380325, -1318473.6, -7876.2227, 0.000022322774, 9.998305, 10.0008 
2.4999544e+1, 1.7626825e+2, -1163301.1, -1136065.4, -35507.246, 0.08188527, 0.19787796, -1111654.1, 100933.87, 0.00000035252413, 10.000149, 10.000512 
2.5000054e+1, 1.8626775e+2, -1140100.6, -1326525.9, -30707.273, 0.062688656, 0.22334658, -1135173.0, -20577.115, 0.0, 10.000712, 9.998264 
2.4999566e+1, 1.9626652e+2, -1067302.1, -1206828.8, 5299.765, -0.027350212, 0.2478072, -1067101.0, -50488.13, 0.0, 10.000396, 9.998565 
2.500033e+1, 2.0626576e+2, -880261.44, -829147.7, 13280.481, -0.013219798, 0.2005027, -825903.1, 92715.26, 0.0, 9.999986, 10.000686 
2.500186e+1, 2.1626519e+2, -877541.25, -807710.75, -41298.88, 0.06512475, 0.050526913, -788545.75, 32072.385, 0.0, 9.999465, 10.00041 
2.5002447e+1, 2.2626503e+2, -818005.8, -930915.7, -53929.848, 0.06772229, 0.09909239, -796386.5, -73766.9, 0.0, 10.000073, 9.998594 
2.5002468e+1, 2.3626514e+2, -532346.6, -735636.0, -39380.81, 0.023719653, 0.2237537, -524984.5, 99637.914, 0.0, 10.00133, 9.998658 
2.500345e+1, 2.4626401e+2, -423002.47, -556502.8, 20205.734, -0.011941528, 0.21035156, -420011.28, 106621.41, 0.0, 10.00109, 9.9993305 
2.500501e+1, 2.5626197e+2, -503724.3, -563572.1, -2139.6694, -0.040667146, 0.049810678, -503647.9, -74998.86, 0.0, 9.999936, 9.9991665 
2.50048e+1, 2.6626116e+2, -315655.7, -558089.75, -98387.375, -0.060513612, 0.124539904, -280752.13, 49906.887, 0.00000000030772893, 10.001158, 9.997938 
2.500351e+1, 2.762612e+2, 167133.89, -284670.16, -89547.88, -0.067335725, 0.31052732, 184235.05, 416899.47, 0.000000332103, 10.003841, 9.99785 
2.5005546e+1, 2.8625894e+2, 238568.13, -255556.2, 74166.65, 0.010562583, 0.32956612, 249460.23, 384148.97, 0.000003312623, 10.003891, 9.9973545 
2.5009683e+1, 2.962548e+2, 120126.7, -226922.13, 83898.39, 0.14513774, 0.15093663, 139344.77, 176074.13, 0.000027299557, 10.002248, 9.997669 
2.5009882e+1, 3.062552e+2, 246065.08, -43233.938, -30488.678, 0.11423868, 0.36694196, 249243.31, 249243.31, 0.00015832737, 10.00239, 9.998539 
2.5008002e+1, 3.1625283e+2, 453150.53, 100563.09, -43559.492, 0.037394065, 0.27699077, 458452.25, 458452.25, 0.0004751241, 10.003585, 9.998953 
3.4986892e+1, 1.262613e+2, -2048386.1, -1675961.5, 9900.627, -0.063792266, 0.18736735, -1675698.5, 26957.63, 0.0023442833, 9.996799, 10.001804 
3.4991238e+1, 1.3626179e+2, -1871501.8, -1709911.0, 4609.169, 0.054280177, 0.19458452, -1709779.6, -105127.016, 0.0013882996, 9.99811, 10.000264 
3.4993473e+1, 1.4626211e+2, -1704587.0, -1463879.4, -72333.266, 0.08041158, 0.15296018, -1443815.5, 62835.15, 0.0006086515, 9.998086, 10.001269 
3.4994763e+1, 1.5626352e+2, -1708261.3, -1414899.0, -36126.246, 0.10730202, 0.13641444, -1410515.8, -1877.9054, 0.00016439817, 9.997388, 10.001272 
3.4995976e+1, 1.6626546e+2, -1509551.4, -1312779.5, 36269.047, -0.00051220646, 0.22691584, -1306307.4, 4312.47, 0.000017966355, 9.998258, 10.000893 
3.499715e+1, 1.7626713e+2, -1153627.0, -1109833.5, 31618.908, -0.1914853, 0.28917134, -1093269.6, 119334.76, 0.00000014192928, 10.00012, 10.000711 
3.4998116e+1, 1.862671e+2, -1073310.4, -1166689.3, -48140.42, -0.22022052, 0.28840184, -1052937.1, 61668.7, 0.0, 10.0006275, 9.9994 
3.499892e+1, 1.9626604e+2, -1017121.06, -1087537.1, 371.14697, -0.15078665, 0.22252876, -1017119.06, -502.27866, 0.0, 10.000331, 9.999416 
3.5000274e+1, 2.0626572e+2, -980292.25, -1008998.06, -15505.739, -0.032616735, 0.24612297, -973516.2, -54895.93, 0.0, 9.999876, 9.999502 
3.5001948e+1, 2.1626565e+2, -959614.44, -954804.4, -45555.613, 0.11030674, 0.2710975, -911590.4, -90969.38, 0.0, 9.999372, 9.999444 
3.500248e+1, 2.2626472e+2, -807573.25, -880334.44, -11489.6045, 0.046932746, 0.2588741, -805802.06, -83171.91, 0.0, 9.999957, 9.998998 
3.5002297e+1, 2.3626322e+2, -520788.8, -686212.06, 4345.877, -0.14353582, 0.19037013, -520674.72, 103969.76, 0.0, 10.001228, 9.999045 
3.500354e+1, 2.4626242e+2, -433616.88, -560777.25, -31265.023, -0.12747227, 0.19365253, -426345.53, 100305.1, 0.0, 10.001014, 9.99934 
3.500564e+1, 2.5626194e+2, -517472.06, -568772.56, -20833.713, 0.01085947, 0.19084817, -510077.22, -81424.02, 0.0, 9.999841, 9.999175 
3.5007054e+1, 2.6626116e+2, -322802.0, -564297.3, -2384.6016, 0.032876182, 0.27143475, -322778.47, 7884.1357, 0.00000000006499392, 10.001116, 9.997919 
3.5007998e+1, 2.7626035e+2, 163410.36, -273572.63, 1071.3365, -0.022295028, 0.37630612, 163412.98, 396088.53, 0.0000002836276, 10.003757, 9.99797 
3.500945e+1, 2.8625777e+2, 291560.34, -129272.086, 3961.9504, -0.006470202, 0.30926973, 291597.63, 426298.56, 0.000002745044, 10.003829, 9.99825 
3.5011142e+1, 2.9625356e+2, 159749.1, -126914.03, 41566.004, 0.045159195, 0.038771063, 165654.5, 202394.22, 0.000022379118, 10.002174, 9.998394 
3.5011214e+1, 3.06255e+2, 236356.95, -60664.46, 9899.74, -0.008019453, 0.3358772, 236686.55, 236686.55, 0.00013928866, 10.002367, 9.99843 
3.501071e+1, 3.1625375e+2, 367684.25, -70890.25, 13277.506, -0.088582225, 0.37634835, 368085.84, 368085.84, 0.00043208266, 10.003543, 9.997799 
4.4985378e+1, 1.2625912e+2, -1807765.4, -1596100.6, 19176.6, 0.031600058, 0.21481825, -1594377.4, 108304.47, 0.0022184679, 9.9986315, 10.00146 
4.4988275e+1, 1.3625993e+2, -2055473.0, -1807235.1, 18090.93, 0.019220492, 0.2704638, -1805923.6, -201247.55, 0.0013082918, 9.996902, 10.000175 
4.499078e+1, 1.4626013e+2, -1820076.1, -1503442.6, -24191.049, 0.055852454, 0.21234801, -1501605.1, 5069.781, 0.00056754425, 9.997208, 10.001441 
4.499347e+1, 1.5626146e+2, -1506970.0, -1307127.1, -38231.453, 0.18166381, 0.17657122, -1300062.9, 108599.07, 0.00014805637, 9.998711, 10.00139 
4.4994953e+1, 1.6626339e+2, -1461422.4, -1296921.6, 31037.93, 0.061004262, 0.26353034, -1291260.3, 19384.037, 0.000013959289, 9.998623, 10.000826 
4.4995716e+1, 1.7626506e+2, -1517148.0, -1277328.0, 1191.9475, -0.21378718, 0.332081, -1277322.1, -64692.19, 0.000000037538413, 9.997583, 10.000789 
4.4997233e+1, 1.8626545e+2, -1387215.8, -1196047.3, -67516.234, -0.23059179, 0.31129947, -1174606.8, -59981.516, 0.0, 9.997943, 10.0005 
4.4999164e+1, 1.962652e+2, -1134696.0, -1045280.25, -36065.074, -0.09107145, 0.2196688, -1032547.0, -15922.119, 0.0, 9.999102, 10.0003 
4.5000535e+1, 2.0626526e+2, -1016438.94, -1091271.0, -23520.053, 0.011052699, 0.27368635, -1009660.44, -91034.734, 0.0, 9.999905, 9.998925 
4.500159e+1, 2.1626526e+2, -839765.94, -951253.9, -19197.87, 0.09150357, 0.36214852, -836552.75, -15923.4, 0.0, 10.000423, 9.998964 
4.5002702e+1, 2.2626404e+2, -679667.56, -786603.8, 66659.81, 0.04331048, 0.32904163, -647681.8, 74958.7, 0.0, 10.000699, 9.999285 
4.500384e+1, 2.3626208e+2, -566889.4, -685690.4, 56983.51, -0.08499937, 0.18687193, -543976.2, 80680.1, 0.0, 10.000817, 9.999249 
4.5005408e+1, 2.4626131e+2, -392253.28, -567563.94, -7105.627, -0.05580048, 0.19540082, -391965.75, 134696.34, 0.0, 10.001417, 9.999095 
4.5007214e+1, 2.5626102e+2, -172860.2, -429989.22, -21757.152, 0.06483752, 0.23913409, -171032.2, 257631.75, 0.0, 10.00232, 9.998936 
4.5009032e+1, 2.6625988e+2, -144655.52, -473930.84, 44838.168, 0.064253725, 0.28847367, -138659.0, 192017.61, 0.00000000016705606, 10.002329, 9.997951 
4.501089e+1, 2.7625832e+2, -115826.61, -407185.72, 30205.422, -0.006317711, 0.31938195, -112728.14, 119966.69, 0.00000025698242, 10.001834, 9.997981 
4.5012224e+1, 2.8625602e+2, -9179.414, -270052.88, -49696.164, -0.002073416, 0.27670062, -33.01731, 134685.16, 0.0000023157831, 10.001757, 9.9982815 
4.5013115e+1, 2.962527e+2, 132679.78, -139202.5, -81673.16, 0.039972052, 0.09172926, 155327.72, 192078.16, 0.000017842196, 10.001999, 9.998394 
4.5013654e+1, 3.062542e+2, 358789.6, -4029.8171, -43512.14, -0.036634713, 0.40296912, 363934.94, 363934.94, 0.0001190779, 10.003209, 9.998416 
4.5014542e+1, 3.1625235e+2, 514373.94, -68653.67, -57333.5, -0.115346335, 0.38062721, 519958.47, 519958.47, 0.00038610314, 10.004843, 9.997187 
5.4984075e+1, 1.2625657e+2, -1797872.4, -1602596.3, -75758.74, -0.016489154, 0.2057984, -1576652.1, 126059.93, 0.0020911084, 9.99873, 10.001372 
5.498436e+1, 1.3625824e+2, -2031809.6, -1778090.4, -24061.54, -0.09167862, 0.32083097, -1775828.6, -171132.16, 0.0012261746, 9.996978, 10.000341 
5.498703e+1, 1.4625858e+2, -1831651.9, -1537335.3, 24760.557, -0.06853549, 0.28252277, -1535266.6, -28572.928, 0.0005263589, 9.997245, 10.001192 
5.499152e+1, 1.5625983e+2, -1522165.3, -1345003.3, 14555.799, 0.09047165, 0.26828995, -1343815.4, 64866.656, 0.00013276051, 9.998735, 10.001119 
5.499381e+1, 1.6626114e+2, -1484081.4, -1337288.0, -16698.666, 0.06196533, 0.32040492, -1335412.4, -24741.514, 0.0000106646075, 9.998597, 10.000559 
5.4994875e+1, 1.7626187e+2, -1525993.8, -1289985.9, -21056.73, -0.077877015, 0.31797493, -1288122.0, -75456.12, 0.000000007551507, 9.997564, 10.000709 
5.4997146e+1, 1.8626285e+2, -1318860.9, -1042980.8, -31515.943, -0.0542064, 0.29621583, -1039426.3, 75227.76, 0.0, 9.997894, 10.001574 
5.500005e+1, 1.9626406e+2, -1072583.9, -909208.3, 10233.569, 0.06501781, 0.24301222, -908569.8, 108067.305, 0.0, 9.999073, 10.001246 
5.500087e+1, 2.0626438e+2, -1024807.1, -1091598.1, -10486.283, 0.03549544, 0.28067365, -1023199.44, -104564.625, 0.0, 9.999834, 9.998955 
5.500045e+1, 2.1626392e+2, -844254.0, -947075.2, 5342.573, -0.08526348, 0.3205515, -843977.1, -23333.344, 0.0, 10.000367, 9.999018 
5.500278e+1, 2.2626302e+2, -674500.75, -762971.0, 63880.805, -0.038815256, 0.30498198, -641034.5, 81616.32, 0.0, 10.000643, 9.999474 
5.500688e+1, 2.3626183e+2, -568177.5, -675161.1, 71921.47, 0.117320076, 0.21989875, -532036.3, 92620.664, 0.0, 10.000758, 9.999351 
5.5008763e+1, 2.4626063e+2, -435202.63, -645891.94, 22177.072, 0.117523246, 0.21224323, -432893.56, 93773.45, 0.0, 10.001372, 9.998579 
5.500934e+1, 2.5625926e+2, -216856.38, -497225.8, 12531.101, 0.023481123, 0.19730933, -216297.42, 212383.73, 0.0, 10.002224, 9.998517 
5.501045e+1, 2.6625732e+2, -144035.88, -467049.7, 18526.021, -0.04784786, 0.1804006, -142976.81, 187723.89, 0.00000000012003064, 10.002301, 9.998013 
5.5011976e+1, 2.762551e+2, -126881.92, -418136.28, 20951.549, -0.101033494, 0.13902548, -125382.484, 107340.164, 0.00000017731924, 10.001777, 9.997937 
5.501362e+1, 2.862536e+2, -70105.984, -392732.4, -49421.344, -0.058196515, 0.22601679, -62705.176, 72035.88, 0.0000014956321, 10.0017395, 9.997448 
5.5015284e+1, 2.9625204e+2, 74508.63, -250379.02, -56811.92, 0.03290962, 0.30173618, 84156.62, 120919.25, 0.000012909044, 10.00195, 9.997656 
5.5016893e+1, 3.062528e+2, 366024.94, 23935.814, 15088.622, -0.053400233, 0.5570465, 366689.16, 366689.16, 0.00009809623, 10.003164, 9.998628 
5.50189e+1, 3.1624863e+2, 501956.84, -79975.266, 22077.406, -0.20593521, 0.2833471, 502793.22, 502793.22, 0.00033783057, 10.004786, 9.997132 
6.498234e+1, 1.2625588e+2, -1857251.6, -1665970.8, -13164.488, -0.038559664, 0.29023537, -1665068.9, 37653.184, 0.0019647046, 9.998454, 10.001077 
6.498358e+1, 1.3625677e+2, -1634791.5, -1584750.4, 12065.6455, 0.0055493806, 0.32333395, -1581993.1, 22719.457, 0.0011417874, 9.999675, 10.000374 
6.498591e+1, 1.4625686e+2, -1583277.5, -1481207.3, 75189.16, 0.0012440844, 0.28724027, -1441368.9, 65344.39, 0.0004823996, 9.999239, 10.000606 
6.49893e+1, 1.5625837e+2, -1666391.0, -1467057.0, 22516.863, 0.03876377, 0.35788864, -1464545.1, -55843.777, 0.00011742101, 9.997979, 10.000637 
6.499181e+1, 1.662595e+2, -1576892.8, -1343679.5, 10612.762, 0.04769744, 0.39153314, -1343197.5, -32506.271, 0.000008467286, 9.997792, 10.000904 
6.4993906e+1, 1.762598e+2, -1414449.0, -1208014.3, 41854.758, 0.04217365, 0.31299055, -1199851.0, 12836.482, 0.000000004638606, 9.998209, 10.000961 
6.499655e+1, 1.8626074e+2, -1263074.0, -1041389.3, 30998.967, 0.077829845, 0.29272652, -1037136.2, 77539.836, 0.0, 9.998397, 10.001337 
6.4999425e+1, 1.9626217e+2, -1173597.0, -976842.7, -39898.19, 0.13136898, 0.28453255, -969059.9, 47599.188, 0.0, 9.998457, 10.001082 
6.5000445e+1, 2.0626253e+2, -1092107.3, -1079350.0, -63838.848, 0.047160696, 0.3114367, -1021571.9, -102915.68, 0.0, 9.999177, 9.999357 
6.500034e+1, 2.1626209e+2, -839132.5, -906038.0, -36540.465, -0.12252706, 0.31546813, -823044.44, -2381.252, 0.0, 10.00024, 9.999361 
6.500315e+1, 2.2626133e+2, -646931.9, -754083.06, 13623.522, -0.07132912, 0.3030321, -645226.9, 77441.76, 0.0, 10.000847, 9.999442 
6.50078e+1, 2.3626037e+2, -513575.94, -653081.25, -10242.668, 0.11848915, 0.24447852, -512827.9, 111845.37, 0.0, 10.001147, 9.999319 
6.500993e+1, 2.4625929e+2, -515439.8, -707011.0, -40682.598, 0.12579437, 0.25822896, -507158.34, 19525.086, 0.0, 10.000905, 9.998399 
6.5010536e+1, 2.5625795e+2, -504879.2, -655804.5, -37936.914, 0.021662978, 0.26806867, -495879.9, -67181.695, 0.0, 10.000325, 9.998354 
6.501233e+1, 2.6625556e+2, -300214.53, -560657.4, 573.06177, -0.035037875, 0.22031224, -300213.28, 30508.467, 0.00000000000043891748, 10.001302, 9.997858 
6.501492e+1, 2.762525e+2, 77596.84, -335725.97, -29611.73, -0.052488614, 0.11198111, 79707.54, 312457.44, 0.00000007111923, 10.003261, 9.997783 
6.501648e+1, 2.862511e+2, 191431.7, -305984.13, -98015.625, -0.03771691, 0.23358192, 210048.86, 344816.5, 0.00000065443334, 10.003701, 9.997099 
6.501742e+1, 2.9625028e+2, 225127.3, -214408.98, -78083.38, -0.001532497, 0.41887954, 238586.61, 275369.84, 0.000008482825, 10.003147, 9.997324 
6.501975e+1, 3.0624998e+2, 327019.6, -26557.242, 35098.098, -0.068684116, 0.5956508, 330469.97, 330469.97, 0.000079328915, 10.003025, 9.998352 
6.50235e+1, 3.1624463e+2, 251507.17, -212693.45, -20550.191, -0.12974013, 0.23760545, 252415.16, 252415.16, 0.00029260584, 10.003101, 9.997046 
7.4979746e+1, 1.2625687e+2, -1869301.6, -1701986.3, 3767.6943, -0.19173066, 0.466075, -1701901.5, 812.62335, 0.0018421272, 9.998504, 10.000805 
7.498559e+1, 1.3625555e+2, -1635030.8, -1591005.6, 48655.668, 0.21570222, 0.27630505, -1559614.8, 45109.516, 0.0010580781, 9.999707, 10.000314 
7.4987e+1, 1.4625502e+2, -1644044.3, -1614194.8, 19786.207, 0.16081885, 0.22974762, -1604335.6, -97602.53, 0.0004375462, 9.999266, 9.999681 
7.498648e+1, 1.5625705e+2, -1715009.4, -1572161.3, -9356.429, -0.06334258, 0.44372645, -1571551.0, -162830.63, 0.00010224, 9.997995, 9.999911 
7.498866e+1, 1.6625848e+2, -1511339.5, -1204924.5, 20950.316, -0.067520596, 0.48737794, -1203498.6, 107206.375, 0.000007138289, 9.997777, 10.001864 
7.499258e+1, 1.7625889e+2, -1368975.9, -1115570.3, 62402.332, 0.066322245, 0.32387114, -1101036.9, 111657.234, 0.00000003688298, 9.998215, 10.001594 
7.4995196e+1, 1.8625917e+2, -1376469.8, -1275937.9, 26559.059, 0.08191563, 0.2991437, -1269352.8, -154661.67, 0.0, 9.998388, 9.999735 
7.4997e+1, 1.9625944e+2, -1268785.4, -1168842.8, -25757.771, 0.022964263, 0.33343527, -1162595.0, -145902.97, 0.0, 9.998432, 9.999779 
7.4998975e+1, 2.0625971e+2, -1048596.5, -975223.8, -28616.885, -0.035705555, 0.36800018, -965382.56, -46692.914, 0.0, 9.999121, 10.000097 
7.500104e+1, 2.1625982e+2, -803557.3, -820731.5, 6840.2104, -0.09565702, 0.3485762, -801165.94, 19521.27, 0.0, 10.000187, 9.999973 
7.500352e+1, 2.2625905e+2, -675671.9, -800299.4, 20011.1, -0.1360308, 0.322561, -672537.56, 50155.914, 0.0, 10.000789, 9.999151 
7.500632e+1, 2.3625769e+2, -540445.94, -695156.4, 5485.107, -0.16218166, 0.25148147, -540251.75, 84453.93, 0.0, 10.001083, 9.999063 
7.500858e+1, 2.4625722e+2, -514345.5, -693201.1, -69438.4, -0.11609907, 0.3318364, -490552.2, 36159.285, 0.0, 10.000859, 9.99851 
7.501057e+1, 2.5625715e+2, -510080.3, -654532.3, -42776.695, -0.025797062, 0.45044434, -498363.25, -69648.266, 0.0, 10.000268, 9.99839 
7.501438e+1, 2.6625457e+2, -330955.94, -613244.4, 69712.984, 0.023160823, 0.40967697, -314678.44, 16060.777, 0.0, 10.001259, 9.997516 
7.5019366e+1, 2.7625054e+2, 46299.11, -384551.84, 43099.184, 0.044364717, 0.23642823, 50568.137, 283344.2, 0.000000009748358, 10.003191, 9.997481 
7.5020516e+1, 2.8624853e+2, 200813.16, -283000.1, -124525.22, -0.025196642, 0.29845607, 230982.53, 365779.94, 0.00000018808618, 10.003683, 9.997267 
7.501926e+1, 2.962474e+2, 219037.6, -215816.19, -88993.586, -0.15389687, 0.4364807, 236545.39, 273357.72, 0.000005696117, 10.003089, 9.997346 
7.5022054e+1, 3.062456e+2, 264776.7, -147962.78, 37920.95, -0.16037598, 0.5106012, 268231.8, 268231.8, 0.00006526179, 10.0029955, 9.997526 
7.502784e+1, 3.162401e+2, 229052.8, -234020.1, 4058.724, -0.042432293, 0.20550935, 229088.36, 229088.36, 0.0002552255, 10.002992, 9.996948 
8.4978163e+1, 1.262549e+2, -2017374.4, -1807910.3, -21205.162, -0.14884926, 0.43865514, -1805785.0, -103051.33, 0.0017237901, 9.997647, 10.000485 
8.4985113e+1, 1.362542e+2, -1859820.1, -1693526.8, -9203.159, 0.2837953, 0.31226403, -1693019.0, -88278.625, 0.0009802121, 9.998147, 10.00036 
8.4986085e+1, 1.4625362e+2, -1741643.4, -1646565.3, -18553.715, 0.18483989, 0.25029984, -1643073.0, -136323.47, 0.00039778455, 9.998527, 9.999821 
8.4984297e+1, 1.5625533e+2, -1581583.5, -1498342.5, 22223.32, -0.12034519, 0.42034423, -1492781.0, -84042.984, 0.000088897265, 9.99887, 9.999995 
8.4986734e+1, 1.6625674e+2, -1286963.0, -1122905.4, 76350.01, -0.115761645, 0.4721267, -1092871.5, 217850.89, 0.000006071428, 9.999435, 10.001626 
8.499181e+1, 1.7625734e+2, -1110142.4, -1017073.3, 12377.324, 0.078423195, 0.3500727, -1015455.4, 197254.78, 0.000000076650345, 10.000108, 10.001356 
8.499439e+1, 1.8625739e+2, -1130293.5, -1204045.8, -11762.558, 0.07232229, 0.33604226, -1128462.9, -13752.437, 0.0, 10.000282, 9.999318 
8.499548e+1, 1.9625728e+2, -1044409.4, -1096269.8, 16915.732, -0.052917212, 0.37388155, -1039379.7, -22663.082, 0.0, 10.000133, 9.999454 
8.499815e+1, 2.0625736e+2, -866931.44, -867775.8, 58348.297, -0.083725736, 0.39177623, -809003.75, 109711.82, 0.0, 10.000271, 10.000288 
8.500173e+1, 2.162574e+2, -740461.1, -771554.25, 35269.684, -0.05661449, 0.349619, -717463.6, 103248.03, 0.0, 10.000535, 10.000148 
8.5004485e+1, 2.2625686e+2, -718597.5, -819998.06, 35004.418, -0.099515826, 0.34062427, -707687.5, 15028.8, 0.0, 10.000495, 9.999153 
8.5006773e+1, 2.36256e+2, -660860.75, -755413.2, 30126.248, -0.17909096, 0.31911552, -652077.75, -27351.479, 0.0, 10.000272, 9.999036 
8.5009485e+1, 2.4625538e+2, -452388.9, -683379.56, -14942.521, -0.13257946, 0.39855817, -451426.28, 75307.81, 0.0, 10.001368, 9.998331 
8.501252e+1, 2.5625485e+2, -82573.79, -463544.06, -24409.709, -0.0031052276, 0.49034503, -81016.164, 347725.44, 0.0, 10.003278, 9.998246 
8.501672e+1, 2.662524e+2, -54513.223, -477544.16, 95332.16, 0.04293086, 0.46365458, -34022.2, 296742.2, 0.0, 10.003135, 9.99755 
8.502172e+1, 2.7624875e+2, -175007.16, -490861.4, 81273.37, 0.04288233, 0.323389, -155321.4, 77475.86, 0.0, 10.001658, 9.997496 
8.50232e+1, 2.8624627e+2, -87968.375, -440675.4, -74470.32, -0.024107818, 0.35222146, -72889.42, 61932.363, 0.000000024133003, 10.001775, 9.997107 
8.502251e+1, 2.962444e+2, 188181.38, -249609.56, -78366.8, -0.12555549, 0.43266177, 201786.61, 238629.34, 0.0000041706858, 10.002956, 9.997178 
8.502556e+1, 3.0624145e+2, 281607.72, -168260.4, 66545.555, -0.11380435, 0.4125299, 291244.84, 291244.84, 0.00005536609, 10.003228, 9.997277 
8.503138e+1, 3.1623727e+2, 224653.06, -180572.73, 46554.01, 0.0363634, 0.2552808, 229932.6, 229932.6, 0.0002256567, 10.002722, 9.997434 
9.4977117e+1, 1.262502e+2, -2053125.0, -1875482.5, -24145.965, -0.060033333, 0.2295551, -1872259.0, -169480.48, 0.0016162735, 9.997625, 10.000027 
9.4981784e+1, 1.3625275e+2, -1850611.3, -1682551.1, 14076.765, 0.11478136, 0.4346333, -1681380.1, -76619.69, 0.000914127, 9.99818, 10.000416 
9.4982827e+1, 1.4625269e+2, -1654376.1, -1466016.0, -11468.779, -0.014473072, 0.35215035, -1465320.3, 41441.95, 0.00036652523, 9.998529, 10.001057 
9.4982576e+1, 1.5625326e+2, -1518177.3, -1370437.6, 44820.2, -0.20305893, 0.28855932, -1357903.8, 50850.33, 0.00007896126, 9.998885, 10.000865 
9.4985855e+1, 1.6625439e+2, -1392467.1, -1338165.5, 94884.68, -0.16628878, 0.35463125, -1266623.5, 44119.063, 0.000005121987, 9.999419, 10.000156 
9.4991326e+1, 1.7625512e+2, -1194060.8, -1189903.8, 39606.35, -0.00062973547, 0.39232484, -1152321.4, 60414.21, 0.00000007826353, 10.0001, 10.000173 
9.4993865e+1, 1.8625538e+2, -1082871.8, -1097083.0, -23372.045, -0.023411129, 0.41061017, -1065549.0, 49184.926, 0.0, 10.000244, 10.000071 
9.499462e+1, 1.9625558e+2, -1005415.2, -1008421.4, 20595.93, -0.17178473, 0.401091, -986267.56, 30466.037, 0.0, 10.000102, 10.000072 
9.4997686e+1, 2.0625539e+2, -899721.7, -923893.94, 62174.945, -0.173862, 0.3846978, -848469.06, 70265.016, 0.0, 10.000218, 9.9999275 
9.500215e+1, 2.1625473e+2, -768109.2, -818537.7, 51722.086, -0.08609134, 0.30743188, -735782.75, 84954.586, 0.0, 10.000484, 9.999851 
9.500579e+1, 2.2625473e+2, -712316.8, -792311.3, 20883.244, -0.03682522, 0.35180426, -707193.25, 15544.595, 0.0, 10.000433, 9.999372 
9.5008904e+1, 2.362551e+2, -658440.56, -738369.9, 37507.76, -0.011964499, 0.43183842, -643596.44, -18859.441, 0.0, 10.000216, 9.99918 
9.5012397e+1, 2.4625371e+2, -492264.3, -751543.6, 50809.86, 0.0053710663, 0.4506512, -482662.88, 44089.242, 0.0, 10.001308, 9.9978895 
9.501613e+1, 2.5625113e+2, -114480.45, -518878.2, 40697.664, 0.012495972, 0.38033038, -110425.4, 318352.84, 0.0, 10.003226, 9.997893 
9.501915e+1, 2.6624897e+2, -35832.156, -428642.38, 33032.484, -0.043635253, 0.37584996, -33073.734, 297724.3, 0.0, 10.003094, 9.997904 
9.502176e+1, 2.762469e+2, -166494.11, -457261.66, 44456.156, -0.1377505, 0.36266124, -159848.97, 72965.91, 0.0, 10.001589, 9.997759 
9.502432e+1, 2.8624436e+2, -126930.086, -512990.53, -36235.418, -0.10790274, 0.39529175, -123558.5, 11282.629, 0.000000004406078, 10.0017395, 9.996623 
9.5026827e+1, 2.962414e+2, 147557.02, -315137.25, -28543.742, -0.0105503, 0.4111606, 149311.23, 186185.02, 0.0000031909003, 10.002877, 9.996766 
9.5029974e+1, 3.0623764e+2, 303697.28, -120349.37, 45684.79, -0.013183517, 0.31198812, 308563.28, 308563.28, 0.000047523536, 10.003214, 9.997614 
9.5033514e+1, 3.162362e+2, 277443.94, -47212.906, 57458.82, -0.064010665, 0.39374095, 287313.16, 287313.16, 0.00020078663, 10.002618, 9.998403 
1.04976185e+2, 1.2624785e+2, -2036563.0, -1847487.0, 22322.117, 0.09453582, 0.21492384, -1844887.4, -142084.28, 0.0015309328, 9.997615, 10.000235 
1.04978286e+2, 1.3625138e+2, -1901805.9, -1657051.4, 88089.62, -0.016206048, 0.4688228, -1628644.1, -23869.182, 0.0008642909, 9.997588, 10.000884 
1.0498019e+2, 1.4625168e+2, -1681976.8, -1460830.6, 63919.59, -0.1128755, 0.39000392, -1443684.9, 63087.258, 0.00034447288, 9.998271, 10.001213 
1.04982965e+2, 1.5625198e+2, -1445456.3, -1334198.5, 18809.5, -0.07097599, 0.29053286, -1331104.5, 77660.9, 0.00007296801, 9.999384, 10.000877 
1.0498609e+2, 1.6625258e+2, -1441864.5, -1415780.4, 72422.68, -0.075298406, 0.334669, -1355234.8, -44475.563, 0.000004414203, 9.999321, 9.999664 
1.04989536e+2, 1.762528e+2, -1450845.3, -1363117.8, 76681.52, -0.10819086, 0.36611238, -1318640.8, -105881.61, 0.000000050630582, 9.998563, 9.999719 
1.04992464e+2, 1.8625306e+2, -1259534.9, -1181827.0, 37666.105, -0.12452425, 0.40292063, -1166566.5, -51808.92, 0.0, 9.999025, 10.000072 
1.0499506e+2, 1.9625352e+2, -1004765.44, -1012102.9, 7716.3125, -0.1341852, 0.42048, -999890.06, 16863.477, 0.0, 10.000121, 10.000034 
1.0499829e+2, 2.0625304e+2, -909668.44, -957236.4, 25869.873, -0.13338707, 0.3917524, -898310.9, 20446.072, 0.0, 10.000283, 9.999664 
1.0500198e+2, 2.1625179e+2, -879331.44, -896051.6, 10704.735, -0.11516467, 0.27971017, -874109.1, -53342.438, 0.0, 9.999837, 9.999625 
1.0500621e+2, 2.2625189e+2, -703807.0, -805075.75, 2367.7788, -0.039555717, 0.3537736, -703751.6, 19014.959, 0.0, 10.000556, 9.999234 
1.05010815e+2, 2.3625283e+2, -411365.06, -635676.06, -19933.514, 0.07478916, 0.50533175, -409607.44, 215153.55, 0.0, 10.001985, 9.999037 
1.05014674e+2, 2.4625096e+2, -399473.47, -731255.5, 3821.817, 0.06874103, 0.49554515, -399429.44, 127351.586, 0.0, 10.002051, 9.997668 
1.05018124e+2, 2.5624728e+2, -409580.47, -674445.4, -7996.8486, -0.008421455, 0.3391322, -409339.25, 19478.549, 0.0, 10.001265, 9.997766 
1.05021074e+2, 2.662455e+2, -235516.36, -460907.06, -17558.111, -0.074256115, 0.34701514, -234156.77, 96676.65, 0.0, 10.001451, 9.998469 
1.0502378e+2, 2.7624482e+2, -34291.73, -343224.47, -1197.9468, -0.123809546, 0.4092858, -34287.086, 198549.8, 0.0, 10.002277, 9.998211 
1.0502724e+2, 2.8624237e+2, 28395.754, -460411.03, -11186.25, -0.041481383, 0.44891584, 28651.613, 163513.11, 0.0000000012345152, 10.002886, 9.996443 
1.0503111e+2, 2.962389e+2, 203588.9, -301104.75, -5812.5938, 0.11463557, 0.4277521, 203655.84, 240555.22, 0.0000025074758, 10.003306, 9.996661 
1.05033614e+2, 3.062343e+2, 260668.2, -114168.625, 38060.426, 0.05641659, 0.23885486, 264493.75, 264493.75, 0.000040782536, 10.002813, 9.997848 
1.05035275e+2, 3.1623447e+2, 191767.63, -23870.777, 28148.947, -0.09760786, 0.45468104, 195381.56, 195381.56, 0.00017888253, 10.001751, 9.998983 
1.1497475e+2, 1.2624757e+2, -1966669.9, -1715102.4, -10843.748, 0.1419751, 0.37820825, -1714635.9, -11825.756, 0.001474528, 9.997668, 10.001119 
1.1497448e+2, 1.3624999e+2, -1829775.3, -1514732.8, 95946.52, -0.17795236, 0.40603063, -1487812.4, 116972.58, 0.00083337264, 9.997619, 10.001845 
1.14978045e+2, 1.4625058e+2, -1755054.3, -1604996.9, 98583.68, -0.17598808, 0.3661717, -1556138.4, -49358.883, 0.00033260565, 9.9982395, 10.000239 
1.1498504e+2, 1.5625148e+2, -1499693.0, -1449249.4, 62133.344, 0.17739089, 0.4228714, -1407413.8, 1358.2319, 0.0000710648, 9.999402, 10.000074 
1.1498714e+2, 1.6625139e+2, -1410711.3, -1354165.6, 37145.605, 0.07710815, 0.41086736, -1335757.1, -24984.873, 0.0000041843605, 9.999324, 10.0000925 
1.1498628e+2, 1.762503e+2, -1424878.6, -1315737.9, 64038.438, -0.3109411, 0.26730368, -1286172.4, -73391.2, 0.000000024917117, 9.998586, 10.000036 
1.1498999e+2, 1.8625033e+2, -1320381.3, -1293762.9, 74417.48, -0.29148743, 0.30980423, -1231473.8, -116692.17, 0.0, 9.998965, 9.999334 
1.14996485e+2, 1.962511e+2, -1056411.9, -1111348.5, 47660.027, -0.02437518, 0.4307691, -1028871.25, -12094.582, 0.0, 10.000089, 9.999369 
1.14999734e+2, 2.0625034e+2, -931945.75, -992320.9, 1454.6852, -0.03250247, 0.41583794, -931910.75, -13126.706, 0.0, 10.000231, 9.999452 
1.1500093e+2, 2.162485e+2, -903629.44, -933782.94, 8245.642, -0.22007084, 0.26507473, -901521.94, -80721.71, 0.0, 9.999778, 9.999396 
1.15005545e+2, 2.2624834e+2, -746953.8, -880792.7, 49950.098, -0.17640132, 0.34905857, -730367.4, -7564.266, 0.0, 10.000497, 9.998743 
1.1501227e+2, 2.3624913e+2, -451105.53, -702560.75, 31658.627, 0.0047078957, 0.53426147, -447180.9, 177617.78, 0.0, 10.001914, 9.998612 
1.1501615e+2, 2.4624713e+2, -412436.4, -742048.2, -32483.426, -0.0074771997, 0.5308255, -409265.66, 117555.336, 0.0, 10.001985, 9.997627 
1.1501822e+2, 2.562433e+2, -413492.1, -668558.2, -25767.725, -0.14268745, 0.359598, -410914.97, 17945.992, 0.0, 10.001204, 9.997835 
1.15022264e+2, 2.6624203e+2, -184544.75, -350740.1, 7431.7476, -0.11766834, 0.37449387, -184213.1, 146658.02, 0.0, 10.00143, 9.99924 
1.1502754e+2, 2.7624235e+2, 4150.545, -251578.3, 36551.35, 0.006410397, 0.46599907, 9272.257, 242135.63, 0.0, 10.002221, 9.998873 
1.1503171e+2, 2.8624037e+2, 28743.492, -447210.94, -887.25134, 0.10067051, 0.5141231, 28745.146, 163628.1, 0.00000000007947066, 10.002841, 9.9965515 
1.1503512e+2, 2.962369e+2, 193914.8, -291405.28, 10431.3125, 0.16485102, 0.48841235, 194138.89, 231058.55, 0.000001910546, 10.003188, 9.996781 
1.1503623e+2, 3.0623147e+2, 266305.53, -92694.805, -4286.9326, 0.019024696, 0.19939041, 266356.72, 266356.72, 0.000034748213, 10.002779, 9.998009 
1.1503614e+2, 3.16232e+2, 196101.67, 5154.0225, 27903.021, -0.2299514, 0.43241134, 200095.58, 200095.58, 0.00015878698, 10.00167, 9.99922 
1.2497164e+2, 1.2624578e+2, -2115948.0, -1753519.3, -19192.691, 0.12727976, 0.45043373, -1752505.8, -49675.813, 0.0014451224, 9.996526, 10.001398 
1.24972835e+2, 1.362474e+2, -1754162.9, -1443179.9, 10370.726, -0.116015494, 0.3584371, -1442834.4, 161974.66, 0.000820366, 9.997996, 10.002155 
1.249767e+2, 1.4624801e+2, -1774072.8, -1669923.3, 22438.387, -0.13178405, 0.3363494, -1665294.6, -158491.25, 0.00033115427, 9.998348, 9.999739 
1.2498335e+2, 1.562489e+2, -1710964.4, -1600586.1, -70.80443, 0.13442713, 0.44091788, -1600586.1, -191786.98, 0.00007354598, 9.9981575, 9.999635 
1.24985956e+2, 1.6624892e+2, -1454955.0, -1350674.8, -15605.871, 0.050224543, 0.4444017, -1348389.4, -37590.207, 0.0000047036624, 9.998907, 10.000322 
1.249861e+2, 1.7624807e+2, -1185733.9, -1180825.6, -16296.837, -0.25960258, 0.30737922, -1166799.1, 46005.773, 0.000000012759114, 10.000131, 10.000226 
1.2499006e+2, 1.8624787e+2, -1100351.1, -1189339.3, 40267.484, -0.2513991, 0.31718832, -1084835.3, 29971.377, 0.0, 10.000485, 9.999317 
1.2499638e+2, 1.9624807e+2, -1036572.8, -1115314.5, 52701.297, -0.049159992, 0.38754573, -1010160.0, 6645.4287, 0.0, 10.000282, 9.999251 
1.2500021e+2, 2.0624729e+2, -883675.94, -1030265.56, 16129.834, -0.03346405, 0.40589544, -881922.1, 36892.04, 0.0, 10.000828, 9.998898 
1.250025e+2, 2.1624577e+2, -647928.0, -866281.75, -17747.127, -0.13554285, 0.34420782, -646495.0, 174335.02, 0.0, 10.001773, 9.998896 
1.2500687e+2, 2.2624496e+2, -606896.5, -810054.6, 46853.145, -0.13554074, 0.3807964, -596611.7, 126227.375, 0.0, 10.001444, 9.998768 
1.2501256e+2, 2.3624447e+2, -677070.3, -800201.5, 51704.074, -0.072762124, 0.43665838, -658239.2, -33394.785, 0.0, 10.000321, 9.998704 
1.250168e+2, 2.4624303e+2, -555460.4, -746515.44, 50061.387, -0.07186751, 0.45266432, -543137.75, -16278.437, 0.0, 10.000722, 9.998207 
1.2502018e+2, 2.5624087e+2, -251782.78, -545897.56, 90910.74, -0.108069964, 0.39519057, -225951.08, 202930.33, 0.0, 10.0021105, 9.998248 
1.2502484e+2, 2.6623943e+2, -85381.34, -368420.8, 86011.31, -0.047509484, 0.40624747, -61293.766, 269601.4, 0.0, 10.002402, 9.998644 
1.2503035e+2, 2.762384e+2, -52954.49, -324801.8, 1686.3896, 0.079029135, 0.41868073, -52944.027, 179960.25, 0.0, 10.002044, 9.998445 
1.2503469e+2, 2.862368e+2, -7950.281, -395147.34, -25255.021, 0.14531314, 0.48808378, -6309.9653, 128610.5, 0.00000000021645001, 10.002296, 9.997167 
1.2503822e+2, 2.9623488e+2, 191787.0, -229589.81, 5116.1563, 0.17649192, 0.55258703, 191849.11, 228789.66, 0.0000014014497, 10.002909, 9.997336 
1.2503938e+2, 3.0622947e+2, 288404.5, -88266.34, -26803.197, 0.057040364, 0.24484435, 290302.22, 290302.22, 0.000028996776, 10.002932, 9.997984 
1.2503947e+2, 3.1622934e+2, 293586.66, 31653.176, -28716.84, -0.09219813, 0.41903678, 296698.06, 296698.06, 0.00013884061, 10.002424, 9.999048 
1.3496633e+2, 1.2624238e+2, -2148530.3, -1812443.8, 9146.477, -0.09802449, 0.4205368, -1812195.0, -109331.12, 0.0014399097, 9.996498, 10.001003 
1.3497299e+2, 1.3624367e+2, -1768199.1, -1475933.6, 64068.047, 0.08049654, 0.32697588, -1462506.0, 142340.4, 0.0008240123, 9.998028, 10.001906 
1.3497593e+2, 1.4624411e+2, -1775798.1, -1687346.6, 6030.6357, -0.06877378, 0.30450425, -1686937.4, -180094.19, 0.00033951883, 9.998393, 9.999601 
1.3497762e+2, 1.5624425e+2, -1716148.6, -1614239.3, 7256.539, -0.2735802, 0.34451973, -1613725.3, -204878.52, 0.00008018549, 9.998164, 9.999539 
1.3498221e+2, 1.6624513e+2, -1462353.4, -1352476.3, 24142.533, -0.23168038, 0.4399148, -1347405.5, -36565.543, 0.0000062149566, 9.998856, 10.000332 
1.3498864e+2, 1.7624615e+2, -1181227.9, -1168356.8, 31966.643, -0.039295975, 0.486076, -1142184.3, 70646.15, 0.000000017143847, 10.000128, 10.000306 
1.3499236e+2, 1.862457e+2, -1057195.0, -1097237.3, 25055.098, -0.09059843, 0.43198007, -1045144.25, 69687.86, 0.0, 10.0004635, 9.999965 
1.349944e+2, 1.9624442e+2, -1005886.06, -1046470.5, 57673.047, -0.29437152, 0.28787827, -965039.5, 51800.367, 0.0, 10.000258, 9.999735 
1.3499951e+2, 2.0624386e+2, -957156.4, -1170936.1, 45933.137, -0.20356716, 0.3599607, -947704.94, -28857.52, 0.0, 10.000774, 9.997961 
1.3500643e+2, 2.1624357e+2, -712328.7, -980072.2, 16248.796, 0.06087638, 0.51276493, -711346.2, 109510.18, 0.0, 10.001691, 9.998154 
1.3500996e+2, 2.2624171e+2, -580779.2, -743423.7, -4185.445, 0.009857592, 0.45142773, -580671.5, 142202.81, 0.0, 10.001382, 9.999259 
1.3501137e+2, 2.362388e+2, -642184.6, -718098.9, 25490.096, -0.24159336, 0.2134763, -634419.94, -9521.307, 0.0, 10.000276, 9.99929 
1.3501643e+2, 2.4623863e+2, -475504.06, -572185.2, 95004.984, -0.19883989, 0.2629144, -417248.38, 109648.125, 0.0, 10.000687, 9.999422 
1.3502379e+2, 2.562401e+2, -203463.34, -430450.78, 141582.45, 0.025782917, 0.44880816, -135500.69, 293378.2, 0.0, 10.002047, 9.999071 
1.3502859e+2, 2.6623777e+2, -229731.34, -659611.56, 66638.37, 0.07045367, 0.4447567, -219638.3, 111266.81, 0.0, 10.002367, 9.996659 
1.350319e+2, 2.7623287e+2, -173958.92, -558628.5, 706.91187, 0.008526675, 0.26793152, -173957.61, 59002.57, 0.0, 10.00197, 9.996873 
1.350359e+2, 2.8623158e+2, 71511.0, -222750.89, -8920.552, 0.01938226, 0.3683706, 71781.18, 206756.05, 0.000000004047862, 10.002266, 9.998366 
1.3504027e+2, 2.9623258e+2, 254832.22, -85886.914, 31470.992, 0.0688589, 0.60967445, 257714.69, 294678.06, 0.0000011638989, 10.002851, 9.998355 
1.3504276e+2, 3.062282e+2, 267170.4, -121201.22, -49013.703, 0.08829556, 0.36865115, 273260.56, 273260.56, 0.00002379093, 10.002887, 9.997777 
1.3504466e+2, 3.1622648e+2, 241370.52, -61847.465, -16900.32, 0.145729, 0.41228658, 242309.56, 242309.56, 0.00011909773, 10.002357, 9.998441 
1.4496295e+2, 1.2623873e+2, -2175736.3, -1873177.0, 78868.055, -0.07392691, 0.36145267, -1853852.6, -150956.72, 0.0014542761, 9.996512, 10.000584 
1.4497131e+2, 1.3624048e+2, -1862893.0, -1561144.9, 93590.63, 0.1395071, 0.35003924, -1534474.0, 70403.37, 0.0008417685, 9.997537, 10.001559 
1.449744e+2, 1.4624093e+2, -1831288.5, -1713586.8, 12295.895, -0.03707456, 0.3421233, -1712315.9, -205441.08, 0.0003553583, 9.998009, 9.999614 
1.4497511e+2, 1.5624003e+2, -1725324.4, -1618583.8, 11380.198, -0.3323697, 0.28127405, -1617383.9, -208496.25, 0.00008912462, 9.998098, 9.999548 
1.4498045e+2, 1.6624124e+2, -1553488.4, -1399580.6, 72380.3, -0.25878105, 0.40826333, -1370889.8, -60010.85, 0.000008328298, 9.99825, 10.000298 
1.4498867e+2, 1.7624345e+2, -1436275.3, -1299355.1, 56893.098, 0.041954245, 0.57917315, -1278800.5, -65940.75, 0.0000000715251, 9.998406, 10.000238 
1.4499305e+2, 1.8624297e+2, -1270825.8, -1198101.5, 18475.426, 0.01129484, 0.52513725, -1193677.0, -78815.03, 0.0, 9.998992, 9.999981 
1.4499499e+2, 1.9624084e+2, -1066514.5, -1073129.9, -10682.957, -0.23373681, 0.29572868, -1058638.9, -41761.688, 0.0, 9.999822, 9.999771 
1.4500025e+2, 2.0624031e+2, -1010068.94, -1157704.5, 38267.223, -0.1772755, 0.35226506, -1000739.6, -81856.31, 0.0, 10.000254, 9.998298 
1.4500745e+2, 2.1624066e+2, -877597.25, -1034014.56, 83163.78, 0.060911577, 0.5362842, -841644.6, -20759.604, 0.0, 10.000446, 9.998383 
1.4501134e+2, 2.2623886e+2, -637913.1, -788603.2, 60047.992, 0.029485483, 0.48083416, -616911.75, 105990.8, 0.0, 10.0010805, 9.999089 
1.4501321e+2, 2.362357e+2, -398192.7, -613243.8, 27223.63, -0.16708782, 0.23444541, -394799.94, 230130.17, 0.0, 10.002009, 9.999178 
1.450184e+2, 2.4623549e+2, -247209.72, -410515.97, 72291.555, -0.13298172, 0.26021206, -219806.44, 307120.44, 0.0, 10.002034, 9.999883 
1.450257e+2, 2.5623712e+2, -254711.73, -410155.88, 47401.938, 0.04291785, 0.4147716, -241397.2, 187507.69, 0.0, 10.001515, 9.999458 
1.4503063e+2, 2.6623476e+2, -350340.75, -762409.2, 27416.287, 0.07570941, 0.4110675, -348524.66, -17592.85, 0.0, 10.001721, 9.996272 
1.4503418e+2, 2.762297e+2, -136812.1, -575461.06, 67870.59, 0.027972309, 0.2599951, -126550.76, 106439.81, 0.0, 10.002366, 9.996577 
1.45038e+2, 2.8622833e+2, 122145.14, -158090.4, 81479.414, -0.00026033306, 0.34604672, 144113.4, 279119.72, 0.000000009906891, 10.002428, 9.99874 
1.4504181e+2, 2.9622936e+2, 173998.9, -87545.88, 46665.92, -0.020812873, 0.552417, 182075.81, 219069.53, 0.0000010398929, 10.00213, 9.998691 
1.4504524e+2, 3.0622607e+2, 248657.28, -148188.06, -32120.928, 0.05657997, 0.41387737, 251240.34, 251240.34, 0.000019274365, 10.002848, 9.997597 
1.4504935e+2, 3.162238e+2, 461126.75, 11776.12, -14512.501, 0.30497167, 0.41809905, 461594.97, 461594.97, 0.00010043125, 10.004018, 9.998135 
1.5496108e+2, 1.262352e+2, -2202072.3, -1945494.5, 88467.64, 0.043717932, 0.29516292, -1917948.3, -215025.56, 0.0014746141, 9.996585, 10.000055 
1.5496755e+2, 1.3623789e+2, -1894232.6, -1630808.3, 131748.47, -0.012946186, 0.43707487, -1576225.6, 28675.729, 0.00086313457, 9.997549, 10.0010805 
1.549718e+2, 1.4623843e+2, -1822443.1, -1687280.9, 6851.8438, -0.11671427, 0.44945866, -1686934.4, -180035.44, 0.00037152023, 9.99798, 9.999807 
1.5497555e+2, 1.5623629e+2, -1713934.6, -1595213.9, 23035.756, -0.118134245, 0.24833438, -1590900.9, -181979.17, 0.00009663115, 9.998105, 9.999702 
1.5498039e+2, 1.6623731e+2, -1566327.1, -1417721.0, 71070.8, -0.10539523, 0.35494652, -1389203.9, -78288.82, 0.000009881803, 9.998217, 10.00019 
1.5498601e+2, 1.7624013e+2, -1452674.5, -1324704.9, 74098.664, -0.08363199, 0.5980275, -1290788.4, -77896.86, 0.00000020107916, 9.998373, 10.00008 
1.5499191e+2, 1.8623975e+2, -1322108.1, -1298572.3, 43160.145, -0.021047654, 0.59876436, -1265604.5, -150708.81, 0.0, 9.998965, 9.999307 
1.5499794e+2, 1.9623734e+2, -1103176.5, -1134264.0, 24823.443, 0.061297234, 0.4084389, -1089431.9, -72514.51, 0.0, 9.999767, 9.999374 
1.5500219e+2, 2.0623672e+2, -907114.5, -935211.5, 39130.41, -0.025464056, 0.3870628, -879587.2, 39334.22, 0.0, 10.000208, 9.999852 
1.5500526e+2, 2.1623714e+2, -796864.7, -851015.94, 100030.55, -0.21971337, 0.4226646, -720310.2, 100605.266, 0.0, 10.000381, 9.99967 
1.550108e+2, 2.2623649e+2, -708966.5, -922441.8, 89006.875, -0.1493051, 0.47599977, -676725.25, 46197.51, 0.0, 10.0010195, 9.998201 
1.550179e+2, 2.3623511e+2, -463939.6, -738003.4, 63771.66, 0.084593125, 0.49637267, -449827.28, 175111.89, 0.0, 10.001955, 9.998349 
1.5502247e+2, 2.4623358e+2, -272056.47, -454798.38, 46130.82, 0.053339772, 0.44142944, -261071.66, 265878.9, 0.0, 10.002, 9.999596 
1.550256e+2, 2.5623184e+2, -271123.22, -432375.1, 40745.355, -0.13640384, 0.28814858, -261412.42, 167547.6, 0.0, 10.001455, 9.999339 
1.5503073e+2, 2.6623031e+2, -271114.72, -587287.94, 45171.137, -0.10383852, 0.306741, -264787.8, 66187.914, 0.0, 10.001683, 9.997488 
1.5503708e+2, 2.762288e+2, -77966.36, -437812.25, 95880.0, 0.06440337, 0.38687393, -54013.754, 178982.63, 0.0, 10.002299, 9.997554 
1.550407e+2, 2.8622702e+2, 87396.234, -221512.47, 65180.945, 0.010385348, 0.41522953, 100586.45, 235601.84, 0.000000005626964, 10.002394, 9.998318 
1.5504254e+2, 2.962252e+2, 140518.13, -143370.97, 54622.71, -0.18307841, 0.37436065, 150665.31, 187697.69, 0.00000084127635, 10.002068, 9.998338 
1.550466e+2, 3.0622315e+2, 232368.56, -170650.47, 9346.975, -0.10879301, 0.3830279, 232585.22, 232585.22, 0.000015268795, 10.0028105, 9.997452 
1.5505315e+2, 3.1622148e+2, 448232.1, 4611.9297, 56634.723, 0.24489766, 0.46201655, 455348.22, 455348.22, 0.00008386637, 10.003944, 9.998114 
1.6495837e+2, 1.2622942e+2, -2108447.0, -1853860.5, -108869.4, 0.09858245, 0.28138286, -1813654.1, -110675.13, 0.0014821975, 9.997013, 10.00048 
1.6496398e+2, 1.362322e+2, -2064282.0, -1679962.5, -12022.732, -0.053344455, 0.4063011, -1679586.8, -74629.836, 0.0008719991, 9.996244, 10.001372 
1.6496898e+2, 1.4623374e+2, -1960332.8, -1676955.5, -54828.96, -0.12818964, 0.4671366, -1666716.9, -159772.55, 0.0003781117, 9.996728, 10.000467 
1.6497445e+2, 1.5623257e+2, -1684052.4, -1522079.1, -22890.121, -0.031509917, 0.2970765, -1518906.4, -109949.79, 0.000098805474, 9.998069, 10.000213 
1.6497958e+2, 1.6623314e+2, -1499340.8, -1415732.9, 29304.682, -0.031332184, 0.3538961, -1406484.6, -95530.84, 0.000009884257, 9.998792, 9.999927 
1.649846e+2, 1.7623474e+2, -1370530.5, -1308795.4, 12153.735, -0.089604236, 0.4982779, -1306488.9, -93546.95, 0.0000002904704, 9.999032, 9.999871 
1.6499119e+2, 1.8623458e+2, -1230976.9, -1256207.1, 42263.953, -0.018296806, 0.5298079, -1199485.5, -84540.13, 0.0, 9.999611, 9.999276 
1.6499867e+2, 1.962332e+2, -1006725.8, -1085436.9, 53577.598, 0.13102804, 0.44536224, -979602.6, 37356.395, 0.0, 10.000418, 9.99939 
1.6500318e+2, 2.0623279e+2, -803961.5, -833956.8, 26102.55, 0.03146506, 0.41662458, -788854.8, 130106.18, 0.0, 10.000704, 10.000305 
1.6500574e+2, 2.1623294e+2, -722419.8, -767435.8, -6512.914, -0.22037925, 0.38315663, -721496.44, 99459.32, 0.0, 10.00069, 10.000095 
1.6501191e+2, 2.2623268e+2, -686977.4, -891009.06, 35127.55, -0.13860422, 0.4446889, -681098.94, 41860.105, 0.0, 10.001087, 9.998381 
1.6502029e+2, 2.3623213e+2, -492694.5, -737935.94, 68025.82, 0.14653172, 0.5316948, -475089.13, 149878.53, 0.0, 10.001713, 9.998458 
1.6502495e+2, 2.4623044e+2, -363269.9, -554755.06, 41521.598, 0.12320849, 0.48440367, -354654.06, 172328.7, 0.0, 10.001618, 9.999093 
1.6502734e+2, 2.5622797e+2, -345030.75, -499363.28, 11566.51, -0.08552074, 0.30886367, -344168.72, 84833.67, 0.0, 10.001086, 9.999055 
1.6503263e+2, 2.662269e+2, -239944.28, -441439.75, 65118.97, -0.0596268, 0.318642, -220731.25, 110280.24, 0.0, 10.001324, 9.998666 
1.6503976e+2, 2.7622652e+2, -42820.98, -308156.56, 95482.11, 0.12016923, 0.3943338, -12033.653, 220981.73, 0.0, 10.002062, 9.9985485 
1.6504368e+2, 2.862246e+2, 53793.957, -315090.4, 46453.15, 0.07104737, 0.4029353, 59553.81, 194589.39, 0.00000000009995645, 10.002501, 9.997621 
1.6504566e+2, 2.9622188e+2, 204618.16, -180199.42, 5202.519, -0.108626574, 0.34241042, 204688.47, 241752.94, 0.00000051342266, 10.002803, 9.997731 
1.6504976e+2, 3.062202e+2, 302596.88, -175011.95, -7254.4663, -0.09787971, 0.43336245, 302707.03, 302707.03, 0.000011747977, 10.003448, 9.997126 
1.6505666e+2, 3.162174e+2, 480627.2, 27565.951, 2760.531, 0.20128717, 0.43218297, 480644.0, 480644.0, 0.00007014343, 10.004124, 9.99819 
1.7495428e+2, 1.262212e+2, -2007503.4, -1635354.1, -165089.34, -0.049711555, 0.3024078, -1572675.4, 130391.59, 0.001464911, 9.996985, 10.0019865 
1.7496037e+2, 1.3622347e+2, -1984548.5, -1512066.4, -28510.959, -0.05570262, 0.25865433, -1510352.1, 94691.35, 0.0008580161, 9.9962435, 10.002519 
1.7496575e+2, 1.4622685e+2, -1885552.1, -1522851.6, -11040.797, -0.1411426, 0.3971938, -1522515.9, -15505.516, 0.00036898247, 9.996722, 10.0015335 
1.7497157e+2, 1.5622877e+2, -1619616.9, -1389358.5, 32658.45, -0.14877047, 0.42738673, -1384816.0, 24176.836, 0.00009401229, 9.998068, 10.001126 
1.7497778e+2, 1.6622868e+2, -1529391.0, -1469206.6, 31665.99, -0.11056126, 0.398529, -1455615.0, -144619.69, 0.000008393363, 9.9987545, 9.9995775 
1.7498423e+2, 1.7622735e+2, -1389215.0, -1342858.9, 30218.564, -0.048647687, 0.28394994, -1327953.0, -114942.46, 0.00000020811186, 9.999019, 9.999641 
1.7499061e+2, 1.8622753e+2, -1187338.0, -1166834.1, 67427.56, -0.05369603, 0.32640675, -1108883.6, 6126.5283, 0.0, 9.999603, 9.999898 
1.7499694e+2, 1.9622855e+2, -979790.7, -1020489.2, 87681.98, -0.10217329, 0.41821942, -910127.56, 106873.555, 0.0, 10.000374, 9.999859 
1.7500292e+2, 2.0622861e+2, -858134.5, -935781.3, 16725.523, -0.079851516, 0.45378262, -854684.94, 64315.996, 0.0, 10.000654, 9.999631 
1.7500867e+2, 2.16228e+2, -763036.2, -839557.4, 3012.7937, -0.012755408, 0.40971556, -762917.75, 58089.066, 0.0, 10.000638, 9.999626 
1.7501444e+2, 2.2622742e+2, -607590.25, -713953.44, 52354.313, -0.012342468, 0.39154512, -586144.4, 136866.78, 0.0, 10.001032, 9.999622 
1.750202e+2, 2.3622674e+2, -429627.6, -596978.4, 93578.46, -0.0499895, 0.34134358, -387770.13, 237245.58, 0.0, 10.001662, 9.999452 
1.7502557e+2, 2.4622609e+2, -422953.38, -667438.06, 13630.483, 0.008848592, 0.39586127, -422195.8, 104827.43, 0.0, 10.001574, 9.998337 
1.7503065e+2, 2.5622544e+2, -392092.13, -581488.2, 2170.9385, 0.12237727, 0.4729993, -392067.25, 36965.574, 0.0, 10.001022, 9.99852 
1.7503619e+2, 2.6622438e+2, -156690.94, -267234.44, 86370.875, 0.14933605, 0.44455153, -109420.54, 221619.3, 0.0, 10.001314, 9.999867 
1.75042e+2, 2.762229e+2, 16900.965, -175167.88, 127494.36, 0.12051556, 0.2871105, 80483.03, 313530.63, 0.0, 10.002019, 9.999485 
1.7504674e+2, 2.862211e+2, -13090.339, -453893.9, 47899.152, 0.10786318, 0.32092467, -7945.509, 127121.3, 0.0, 10.002499, 9.996667 
1.7505078e+2, 2.9621944e+2, 135010.58, -312893.88, 27907.027, 0.102881886, 0.4591317, 136742.66, 173832.95, 0.00000027417164, 10.002757, 9.996838 
1.7505449e+2, 3.0621722e+2, 271985.16, -244036.42, 14476.903, 0.013593158, 0.56126994, 272390.97, 272390.97, 0.000009335192, 10.003464, 9.996649 
1.7505927e+2, 3.162116e+2, 479131.16, 43875.87, 57523.516, 0.012731311, 0.33056718, 486605.16, 486605.16, 0.000059812894, 10.00405, 9.998336 
1.8495096e+2, 1.2621501e+2, -1949448.8, -1577960.4, -18662.63, -0.08710494, 0.32910082, -1577025.3, 126105.37, 0.0014182838, 9.997243, 10.00226 
1.849572e+2, 1.3621649e+2, -1825137.5, -1434136.9, 15105.354, -0.045858175, 0.20654666, -1433554.1, 171559.39, 0.00082149997, 9.997329, 10.002531 
1.8496317e+2, 1.4622015e+2, -1739018.0, -1432201.6, 19357.967, -0.11366175, 0.36212072, -1430985.0, 76092.13, 0.00034638878, 9.997624, 10.00172 
1.8496972e+2, 1.5622286e+2, -1591364.9, -1348400.0, -20596.63, -0.13958614, 0.45147595, -1346666.4, 62385.082, 0.000084445885, 9.9981365, 10.001377 
1.849765e+2, 1.6622308e+2, -1538573.3, -1420299.9, -17087.133, -0.095552124, 0.41362852, -1417880.8, -106830.78, 0.000006352812, 9.998473, 10.000045 
1.8498349e+2, 1.7622171e+2, -1398650.3, -1296900.8, 30184.803, -0.0077769835, 0.24962659, -1288620.1, -75556.28, 0.000000056960435, 9.9987335, 10.000095 
1.8498994e+2, 1.8622221e+2, -1262299.1, -1146616.8, 102676.22, -0.040376987, 0.27569836, -1086610.5, 28448.213, 0.0, 9.998855, 10.000396 
1.8499602e+2, 1.9622383e+2, -1168928.1, -1064001.4, 100196.02, -0.15337786, 0.3770891, -1003364.56, 13677.917, 0.0, 9.998878, 10.000279 
1.8500282e+2, 2.0622401e+2, -1061168.6, -1065347.6, 57983.227, -0.08694627, 0.42183062, -1005237.3, -86195.266, 0.0, 9.999389, 9.999352 
1.8501006e+2, 2.1622327e+2, -839753.2, -895925.25, 61504.4, 0.089268744, 0.3901629, -800225.5, 20826.23, 0.0, 10.000183, 9.999459 
1.8501596e+2, 2.262228e+2, -656552.56, -681207.06, 98847.19, 0.07039441, 0.3607107, -569266.9, 153788.05, 0.0, 10.000442, 10.000141 
1.8502106e+2, 2.3622243e+2, -585665.7, -623364.4, 73056.93, -0.06172069, 0.2919898, -529065.6, 95989.12, 0.0, 10.000369, 9.999901 
1.850266e+2, 2.4622197e+2, -501240.97, -718450.56, 17286.158, -0.018160835, 0.35327396, -499873.88, 27186.889, 0.0, 10.001086, 9.998224 
1.850324e+2, 2.562214e+2, -217044.36, -511100.88, 37576.516, 0.13414538, 0.45253113, -212318.53, 216752.4, 0.0, 10.00228, 9.9984 
1.8503809e+2, 2.6622045e+2, -25554.17, -227054.02, 76590.75, 0.15997088, 0.44799054, 252.96867, 331331.6, 0.0, 10.002319, 9.999658 
1.8504374e+2, 2.7621898e+2, -42333.586, -220226.88, 4158.1055, 0.1121237, 0.31865877, -42236.445, 190850.48, 0.0, 10.0016775, 9.999345 
1.8504919e+2, 2.8621712e+2, 27790.672, -383626.6, -3504.2668, 0.10462537, 0.32399434, 27820.518, 162926.16, 0.0, 10.002553, 9.997129 
1.8505451e+2, 2.9621533e+2, 393248.4, -155354.36, 57995.895, 0.12256977, 0.40713653, 399312.44, 436439.97, 0.00000021710767, 10.004376, 9.997149 
1.850587e+2, 3.0621317e+2, 436897.78, -202131.08, 71593.984, 0.030655142, 0.5196419, 444820.63, 444820.63, 0.0000079127085, 10.00476, 9.996307 
1.8506391e+2, 3.1620786e+2, 501608.9, 54614.66, 110980.63, 0.07276072, 0.34932703, 527646.7, 527646.7, 0.00005116492, 10.004172, 9.998365 
1.9494797e+2, 1.2621093e+2, -2022083.0, -1718941.1, -43727.95, -0.15021738, 0.36985877, -1712759.5, -9590.474, 0.0013429979, 9.997216, 10.0013 
1.9495428e+2, 1.3621122e+2, -1913256.8, -1602440.1, 22371.6, -0.08814552, 0.24471548, -1600838.3, 4329.5703, 0.0007683095, 9.997283, 10.00139 
1.94961e+2, 1.4621355e+2, -1787174.9, -1529018.1, 29794.082, -0.11496678, 0.35645732, -1525624.1, -18478.73, 0.00031677555, 9.997602, 10.00107 
1.9496864e+2, 1.5621492e+2, -1619898.8, -1406192.9, 3974.5862, -0.07958731, 0.37317634, -1406118.9, 3013.2102, 0.000073711046, 9.998129, 10.000984 
1.9497554e+2, 1.6621645e+2, -1449672.3, -1234236.4, -12138.696, -0.055322506, 0.41048744, -1233554.6, 77562.0, 0.0000047225935, 9.998457, 10.001333 
1.9498219e+2, 1.7621796e+2, -1319414.6, -1128705.0, 48383.746, -0.029344833, 0.40525362, -1117132.1, 95968.46, 0.0000000036456946, 9.998711, 10.001265 
1.9498894e+2, 1.8621871e+2, -1244304.4, -1098854.6, 95962.234, -0.043460622, 0.38591385, -1051173.3, 63917.082, 0.0, 9.998806, 10.00075 
1.9499569e+2, 1.9621895e+2, -1151188.1, -1019634.44, 111934.76, -0.09153001, 0.31566468, -955580.7, 61503.2, 0.0, 9.998841, 10.000606 
1.9500263e+2, 2.0621896e+2, -1059113.5, -1044694.06, 82441.47, -0.061977215, 0.32045853, -969147.6, -50063.14, 0.0, 9.99932, 9.999525 
1.9500968e+2, 2.1621875e+2, -841174.6, -883081.7, 94856.98, 0.016236449, 0.32348365, -764984.5, 56106.01, 0.0, 10.000115, 9.999578 
1.9501628e+2, 2.2621888e+2, -681983.8, -719117.1, 87811.42, 0.044404764, 0.36157554, -610797.7, 112292.03, 0.0, 10.00038, 9.999908 
1.950226e+2, 2.3621918e+2, -603096.94, -645318.56, 82656.99, 0.03990192, 0.38221174, -538897.5, 86187.53, 0.0, 10.000309, 9.999778 
1.950278e+2, 2.4621807e+2, -472276.3, -646787.06, 56073.26, -0.021268172, 0.35380104, -455812.28, 71283.31, 0.0, 10.001037, 9.99874 
1.9503227e+2, 2.56216e+2, -208102.17, -476947.84, 81515.3, -0.120932214, 0.24957845, -185317.38, 243799.08, 0.0, 10.002214, 9.998664 
1.9503807e+2, 2.6621518e+2, -141225.83, -464495.75, 45173.777, -0.08964628, 0.33932814, -135031.92, 196094.8, 0.0, 10.002304, 9.998037 
1.950447e+2, 2.762149e+2, -132522.33, -400238.16, 52.336685, 0.023862889, 0.48854348, -132522.31, 100610.35, 0.0, 10.001639, 9.998131 
1.9505084e+2, 2.8621268e+2, 149429.36, -124066.62, 60522.91, -0.0023957677, 0.4100655, 162224.13, 297376.16, 0.0, 10.002527, 9.998922 
1.9505666e+2, 2.962097e+2, 483596.47, 55277.6, 127123.6, -0.11944188, 0.19841158, 518484.56, 555659.56, 0.0000002787285, 10.004287, 9.998636 
1.950622e+2, 3.0620813e+2, 421423.78, -230151.31, 44995.582, -0.11419011, 0.32215622, 424516.34, 424516.34, 0.000006930128, 10.004741, 9.996123 
1.9507001e+2, 3.162064e+2, 500716.88, 67893.47, 121062.14, 0.22692822, 0.5107597, 532277.06, 532277.06, 0.00004299831, 10.004118, 9.998475 
2.0494391e+2, 1.2620585e+2, -2297584.3, -1896296.4, -57455.023, -0.18712652, 0.41525286, -1888232.1, -185011.9, 0.0012444656, 9.995529, 10.000892 
2.0495202e+2, 1.3620639e+2, -1803329.3, -1616838.6, 23627.191, -0.085027255, 0.37777615, -1613891.8, -8672.685, 0.00070293987, 9.998311, 10.000806 
2.0495954e+2, 1.4620788e+2, -1611711.1, -1423825.5, 48135.813, -0.07219609, 0.42396376, -1412211.3, 94992.53, 0.00028321997, 9.9987335, 10.001244 
2.0496686e+2, 1.5620823e+2, -1657218.9, -1406274.4, 65540.16, -0.049115468, 0.32021198, -1390188.1, 19008.658, 0.000063005726, 9.997799, 10.001141 
2.0497398e+2, 1.6620985e+2, -1509473.1, -1267471.0, 54384.563, -0.034586962, 0.3625452, -1255811.1, 55368.5, 0.0000035155435, 9.998074, 10.0012865 
2.0498124e+2, 1.762122e+2, -1264427.6, -1105103.0, -5230.966, -0.0119685205, 0.4477436, -1104931.4, 108225.3, 0.0000000004928599, 9.99911, 10.00123 
2.0498824e+2, 1.862129e+2, -1163793.6, -1049339.8, -19753.03, -0.0149186095, 0.41867706, -1046026.56, 69119.984, 0.0, 9.999307, 10.000851 
2.0499502e+2, 1.9621252e+2, -1124484.0, -992117.7, -32552.227, -0.043146, 0.27571115, -984545.44, 32599.254, 0.0, 9.998956, 10.000739 
2.0500216e+2, 2.0621249e+2, -1038765.2, -1001260.56, -17328.188, -0.03629931, 0.2538985, -994480.25, -75335.3, 0.0, 9.999315, 9.999828 
2.0500956e+2, 2.1621262e+2, -826856.1, -846495.4, -11661.814, -0.0012475065, 0.26297998, -821430.3, -282.7924, 0.0, 10.000089, 9.9998455 
2.0501654e+2, 2.2621335e+2, -677171.1, -712172.2, -16408.652, 0.035877697, 0.34803993, -670681.8, 52459.684, 0.0, 10.000395, 9.999945 
2.0502324e+2, 2.3621437e+2, -586321.8, -631961.1, -11861.193, 0.0713863, 0.43654874, -583423.3, 41707.6, 0.0, 10.000403, 9.999822 
2.0502877e+2, 2.4621311e+2, -526490.2, -647441.7, -6642.4316, 0.0010122235, 0.37669596, -526126.5, 1016.0037, 0.0, 10.000551, 9.998968 
2.0503363e+2, 2.562103e+2, -397894.88, -554271.3, -17555.838, -0.13589557, 0.17726809, -395948.2, 33220.633, 0.0, 10.000843, 9.998795 
2.0503981e+2, 2.662094e+2, -281741.97, -573798.44, -13947.185, -0.10376717, 0.27355313, -281077.44, 50102.938, 0.0, 10.001526, 9.997658 
2.0504685e+2, 2.7620944e+2, -34431.156, -386556.56, 16380.637, 0.036906525, 0.4911056, -33670.78, 199514.11, 0.0, 10.002471, 9.997818 
2.0505375e+2, 2.86207e+2, 162115.66, -103049.35, 69984.42, 0.03759745, 0.40067664, 179452.94, 314658.72, 0.0, 10.002557, 9.99905 
2.0506048e+2, 2.9620352e+2, 180224.72, -73559.0, 5253.626, -0.0505459, 0.12294463, 180333.44, 217565.36, 0.00000036340376, 10.002133, 9.998783 
2.0506611e+2, 3.0620185e+2, 214909.44, -283282.75, -82308.07, -0.11036, 0.20704104, 228155.64, 228155.64, 0.000006339283, 10.003133, 9.996533 
2.0507428e+2, 3.1620154e+2, 639134.6, 165612.64, 7314.495, 0.20841682, 0.49939576, 639247.6, 639247.6, 0.00003637647, 10.004971, 9.998724 
2.149382e+2, 1.2619977e+2, -2296778.0, -1880644.5, 16753.78, -0.35089758, 0.46069893, -1879971.0, -176686.5, 0.0011273269, 9.995475, 10.001025 
2.1495026e+2, 1.3620216e+2, -1797912.3, -1608642.8, 119749.89, -0.110660516, 0.6147272, -1550648.0, 54618.332, 0.0006276391, 9.998329, 10.000853 
2.1495855e+2, 1.4620334e+2, -1547847.9, -1293287.5, 1641.4446, -0.06973555, 0.57846385, -1293276.9, 213973.47, 0.0002466057, 9.998735, 10.002142 
2.1496414e+2, 1.5620284e+2, -1608674.3, -1309562.6, 45382.652, -0.1210621, 0.29777086, -1302828.5, 106416.39, 0.000052325075, 9.997811, 10.0018015 
2.149716e+2, 1.6620329e+2, -1613388.6, -1474175.5, 86269.016, -0.09843724, 0.2732534, -1432933.5, -121694.46, 0.000002586899, 9.998035, 9.9998865 
2.149804e+2, 1.7620434e+2, -1356323.9, -1287459.0, 35293.875, -0.023116296, 0.36751837, -1272583.8, -59350.81, 0.000000000052014764, 9.999079, 9.99999 
2.149876e+2, 1.862047e+2, -1181650.3, -1077456.4, -39540.62, -0.022689115, 0.36794135, -1064150.3, 51077.88, 0.0, 9.999263, 10.000683 
2.1499385e+2, 1.9620448e+2, -1133221.3, -1005167.56, -33909.086, -0.07524804, 0.25732636, -996742.6, 20482.717, 0.0, 9.99893, 10.000664 
2.1500126e+2, 2.0620458e+2, -1016564.8, -942798.6, 4509.3022, -0.0730553, 0.2258292, -942524.0, -23300.203, 0.0, 9.999262, 10.000254 
2.150095e+2, 2.1620482e+2, -805976.2, -787894.75, 19964.576, -0.034368947, 0.20473029, -775019.3, 46204.098, 0.0, 10.000021, 10.000279 
2.1501651e+2, 2.2620612e+2, -666550.9, -672179.7, -23049.336, -0.021965615, 0.31107512, -646144.75, 77066.43, 0.0, 10.0003195, 10.000254 
2.1502274e+2, 2.36208e+2, -581241.7, -599608.3, -1795.0529, -0.0325312, 0.4518392, -581067.9, 44124.727, 0.0, 10.000311, 10.000086 
2.1502933e+2, 2.4620707e+2, -537270.0, -662188.0, -2532.6343, -0.017679047, 0.42084917, -537218.6, -10017.366, 0.0, 10.00052, 9.998882 
2.1503618e+2, 2.5620434e+2, -407070.0, -554669.1, 2422.5654, 0.018538438, 0.2403517, -407030.25, 22197.242, 0.0, 10.000766, 9.998831 
2.1504304e+2, 2.662031e+2, -229874.4, -460702.53, 15323.634, 0.05111991, 0.2538593, -228861.58, 102377.64, 0.0, 10.001501, 9.998445 
2.150499e+2, 2.762025e+2, -9318.652, -320950.38, 53405.473, 0.076982856, 0.33238286, -420.43723, 232823.66, 0.0, 10.002411, 9.998298 
2.150576e+2, 2.8620005e+2, 63476.215, -304234.47, 45314.89, 0.14992748, 0.29650185, 68978.27, 204245.48, 0.0, 10.0025425, 9.997675 
2.1506584e+2, 2.961968e+2, 95561.33, -244282.39, 5090.7393, 0.2524134, 0.17784339, 95637.56, 132935.63, 0.0000004878426, 10.00211, 9.997623 
2.1507028e+2, 3.0619425e+2, 281288.7, -150772.47, -16819.232, -0.022805005, 0.1772816, 281942.44, 281942.44, 0.0000063211505, 10.00315, 9.99744 
2.150765e+2, 3.1619346e+2, 646575.2, 189503.73, 92398.29, -0.10340418, 0.32861033, 664547.06, 664547.06, 0.000031870084, 10.004924, 9.99892 
2.2493494e+2, 1.261922e+2, -1968272.8, -1673501.6, -44925.18, -0.31362, 0.49952483, -1666806.8, 36554.523, 0.0009979393, 9.997502, 10.001478 
2.2494781e+2, 1.3619447e+2, -2037921.8, -1686488.9, 66680.22, -0.09073133, 0.60044295, -1674262.5, -68921.97, 0.0005469221, 9.996532, 10.001179 
2.2495678e+2, 1.4619549e+2, -1804835.9, -1434877.0, -88293.33, -0.030032257, 0.5425556, -1414885.4, 92440.8, 0.00020906674, 9.997052, 10.001984 
2.2496252e+2, 1.5619558e+2, -1509265.1, -1275313.0, -139115.14, -0.096515365, 0.34018868, -1210529.8, 198787.27, 0.000042237294, 9.998555, 10.00168 
2.2497037e+2, 1.66196e+2, -1450037.9, -1372499.4, -36901.45, -0.071437545, 0.30490527, -1357745.1, -46434.203, 0.0000020119714, 9.999049, 10.000099 
2.2497968e+2, 1.7619652e+2, -1380751.6, -1286989.4, 14882.366, 0.014219369, 0.32613784, -1284683.9, -71376.39, 0.0, 9.998847, 10.000112 
2.2498718e+2, 1.861968e+2, -1215202.6, -1122741.8, -14110.661, 0.015815679, 0.3298931, -1120636.3, -5331.9033, 0.0, 9.999168, 10.000409 
2.2499348e+2, 1.9619688e+2, -1026919.94, -977865.56, -32457.621, -0.042683914, 0.2747403, -961710.1, 55591.715, 0.0, 9.99978, 10.000437 
2.2500083e+2, 2.0619722e+2, -960676.3, -883771.25, 3175.461, -0.051645607, 0.26270014, -883640.4, 35657.16, 0.0, 9.999503, 10.000548 
2.2500885e+2, 2.1619767e+2, -988282.3, -844925.8, 319.5655, -0.026118025, 0.2311947, -844925.06, -23632.281, 0.0, 9.998634, 10.000558 
2.2501628e+2, 2.2619866e+2, -830611.0, -740354.4, -20187.68, -0.013468301, 0.2874743, -736044.75, -12762.541, 0.0, 9.999144, 10.000355 
2.2502334e+2, 2.3619987e+2, -551830.0, -578808.9, -32880.266, -0.006732943, 0.35194626, -529779.6, 95489.586, 0.0, 10.000484, 10.000145 
2.2503062e+2, 2.461991e+2, -492048.28, -683242.06, -55064.99, 0.038120247, 0.35461032, -477323.28, 49954.234, 0.0, 10.001015, 9.998502 
2.25038e+2, 2.56197e+2, -378568.75, -572270.1, -81766.6, 0.11411703, 0.27265415, -348668.38, 80631.58, 0.0, 10.001094, 9.998553 
2.2504532e+2, 2.661956e+2, -154778.16, -382658.22, -51358.21, 0.114633344, 0.26546058, -143738.2, 187573.67, 0.0, 10.001835, 9.99882 
2.2505254e+2, 2.761945e+2, 101548.68, -239594.19, -60529.55, 0.07321342, 0.25541598, 111970.17, 345288.72, 0.0, 10.003048, 9.99855 
2.2506079e+2, 2.8619218e+2, 167032.64, -343134.06, -76708.266, 0.1659263, 0.26213235, 178316.84, 313658.7, 0.00000000075483947, 10.003624, 9.996894 
2.2506967e+2, 2.9618922e+2, 288536.6, -227317.92, -85413.77, 0.34747213, 0.25509703, 302311.34, 339684.72, 0.00000073344995, 10.003756, 9.996952 
2.2507396e+2, 3.0618632e+2, 439097.9, -22444.912, -47850.58, -0.0052967123, 0.22251096, 444006.63, 444006.63, 0.0000072746466, 10.004009, 9.997905 
2.2508064e+2, 3.161844e+2, 565896.25, 137227.9, -4613.6665, -0.1482632, 0.21155725, 565945.94, 565945.94, 0.000030412204, 10.004417, 9.998807 
2.3493384e+2, 1.2618306e+2, -1903461.6, -1552399.3, -114992.766, -0.21850061, 0.5297964, -1518086.4, 185364.89, 0.0008671324, 9.997561, 10.002282 
2.3494442e+2, 1.3618316e+2, -1989689.9, -1599587.3, 37920.047, -0.101433076, 0.33258772, -1595935.4, 9507.8125, 0.0004662031, 9.996574, 10.001763 
2.3495394e+2, 1.461841e+2, -1894571.0, -1608711.4, -40120.094, -0.0358603, 0.30524704, -1603187.3, -95753.95, 0.00017258529, 9.997006, 10.000812 
2.3496176e+2, 1.5618642e+2, -1565195.3, -1392939.8, -82369.836, -0.049379975, 0.44080758, -1359892.1, 49522.03, 0.000033446406, 9.998564, 10.000869 
2.3497006e+2, 1.661879e+2, -1330527.1, -1118050.1, -53919.043, -0.025172163, 0.4513911, -1105150.5, 206245.66, 0.0000017722703, 9.999021, 10.0018635 
2.3497893e+2, 1.7618866e+2, -1271264.9, -1058863.9, 17254.662, 0.035404567, 0.31980917, -1057471.3, 155909.86, 0.0000000001389195, 9.998839, 10.001683 
2.349867e+2, 1.8618922e+2, -1254444.1, -1190438.3, 1909.4111, 0.03376223, 0.30519885, -1190381.3, -75006.336, 0.0, 9.99911, 9.999975 
2.3499367e+2, 1.9618964e+2, -1056609.8, -1031805.0, -10442.551, -0.01812021, 0.32903343, -1027994.25, -10619.561, 0.0, 9.999745, 10.000084 
2.3500054e+2, 2.0619036e+2, -956559.6, -857825.7, -36762.77, -0.043171056, 0.35810745, -845641.06, 73725.836, 0.0, 9.99943, 10.000761 
2.3500745e+2, 2.1619116e+2, -987371.8, -826153.8, -15693.8955, -0.048099622, 0.33970878, -824640.3, -3284.7317, 0.0, 9.99856, 10.000724 
2.350157e+2, 2.2619095e+2, -853983.9, -768363.94, 25151.227, -0.00068827026, 0.27771732, -761522.4, -38168.17, 0.0, 9.99906, 10.000203 
2.3502482e+2, 2.3619e+2, -576826.56, -614141.1, 19040.248, 0.07504761, 0.14590532, -568826.25, 56533.957, 0.0, 10.000413, 9.999939 
2.3503233e+2, 2.461891e+2, -541695.9, -776949.6, -60874.652, 0.090153076, 0.17873552, -526877.25, 494.21082, 0.0, 10.000975, 9.997876 
2.3503886e+2, 2.5618815e+2, -427795.78, -659096.1, -67173.38, 0.071909934, 0.27192926, -409702.8, 19683.967, 0.0, 10.001027, 9.99799 
2.3504642e+2, 2.6618692e+2, -159120.8, -384367.2, -12012.381, 0.024404766, 0.30922332, -158482.0, 172916.08, 0.0, 10.001805, 9.998823 
2.3505457e+2, 2.7618542e+2, 92346.29, -244526.7, -11330.113, -0.047251895, 0.25927228, 92726.93, 326135.22, 0.0, 10.002983, 9.99855 
2.3506303e+2, 2.8618333e+2, 148580.06, -373227.34, -78269.266, 0.010509947, 0.2980861, 160067.28, 295497.03, 0.00000003119879, 10.00359, 9.996703 
2.3507181e+2, 2.9618078e+2, 267036.56, -260162.05, -73250.87, 0.16401082, 0.35181722, 277025.06, 314483.28, 0.0000012360658, 10.003697, 9.996758 
2.3507692e+2, 3.0617797e+2, 444763.63, -9473.471, -36678.305, -0.12882532, 0.33881244, 447706.22, 447706.22, 0.000009095473, 10.003999, 9.998002 
2.3508611e+2, 3.1617445e+2, 532032.4, 71651.39, 20464.723, -0.07751786, 0.15574968, 532940.3, 532940.3, 0.000031780583, 10.004383, 9.99838 
2.4493167e+2, 1.2617393e+2, -2068457.1, -1623403.3, -9975.263, -0.12575723, 0.4583048, -1623179.8, 80354.56, 0.0007416808, 9.996399, 10.002355 
2.4494207e+2, 1.3617375e+2, -1774196.8, -1482171.3, 76237.21, -0.059155, 0.21335864, -1463466.6, 142060.36, 0.00038814702, 9.997999, 10.001883 
2.4495211e+2, 1.4617433e+2, -1731196.4, -1606897.1, 32908.305, 0.013675524, 0.18426709, -1598722.3, -91199.42, 0.00013769997, 9.998452, 10.000126 
2.4496053e+2, 1.56177e+2, -1648181.4, -1492551.0, 8832.964, -0.008601198, 0.4210955, -1492051.3, -82546.086, 0.000025817635, 9.998259, 10.00033 
2.4496883e+2, 1.6617884e+2, -1392592.1, -1067679.1, -8821.136, -0.008783629, 0.45003757, -1067439.9, 244044.4, 0.0000016011192, 9.998253, 10.002576 
2.4497743e+2, 1.7617984e+2, -1306039.5, -1007262.2, -31012.033, 0.033473086, 0.27330282, -1004077.25, 209386.89, 0.0000000006420841, 9.99831, 10.002294 
2.4498574e+2, 1.8618083e+2, -1305530.9, -1206328.8, -19850.693, 0.05292109, 0.27143705, -1202504.0, -87050.43, 0.0, 9.99872, 10.000052 
2.4499376e+2, 1.9618182e+2, -1118690.9, -1060785.1, -10799.375, 0.04240431, 0.3432563, -1058836.6, -41387.31, 0.0, 9.999314, 10.00009 
2.450007e+2, 2.0618235e+2, -911527.75, -882204.44, -65876.37, 0.009285524, 0.37629747, -829377.9, 90066.55, 0.0, 9.999939, 10.000349 
2.4500713e+2, 2.1618252e+2, -737905.0, -752458.75, -104313.5, -0.024944825, 0.3370612, -640614.9, 180825.02, 0.0, 10.000481, 10.000304 
2.450156e+2, 2.2618183e+2, -681821.0, -739748.94, -61461.203, 0.01847158, 0.2748018, -642840.94, 80602.836, 0.0, 10.000473, 9.999718 
2.4502537e+2, 2.3618056e+2, -649540.6, -692244.8, -103394.875, 0.108106, 0.15686727, -565316.1, 60137.746, 0.0, 10.000106, 9.999548 
2.450331e+2, 2.4617967e+2, -571167.9, -758200.56, -133048.98, 0.09037497, 0.1929444, -502057.8, 25406.514, 0.0, 10.00063, 9.998174 
2.4503963e+2, 2.5617895e+2, -309380.72, -578383.5, -86162.33, 0.014829097, 0.28335974, -284149.3, 145326.27, 0.0, 10.00174, 9.998201 
2.4504791e+2, 2.6617756e+2, -160687.73, -438571.28, -16339.019, -0.013520696, 0.31618083, -159730.33, 171759.05, 0.0, 10.002019, 9.998351 
2.4505726e+2, 2.7617562e+2, -108911.336, -376577.44, -63062.16, -0.0099564595, 0.26921812, -94798.04, 138707.33, 0.0, 10.001763, 9.998225 
2.4506602e+2, 2.861733e+2, 2085.5781, -377407.5, -87110.96, 0.018399907, 0.26995572, 21126.176, 156653.36, 0.00000009388162, 10.0023, 9.997294 
2.4507444e+2, 2.9617062e+2, 248484.38, -212017.25, -42329.02, 0.080054455, 0.25008523, 252342.9, 289896.38, 0.0000018075962, 10.003336, 9.997257 
2.4508017e+2, 3.0616865e+2, 393590.1, -93492.83, 3280.9976, -0.19279596, 0.3223516, 393612.2, 393612.2, 0.000010445255, 10.003911, 9.997462 
2.4509159e+2, 3.1616437e+2, 462823.03, -10473.291, -29680.777, 0.051593374, 0.12441972, 464677.06, 464677.06, 0.000032571545, 10.004143, 9.997915 
2.5492787e+2, 1.2616493e+2, -2116088.3, -1721213.6, 34489.89, -0.18235508, 0.29264376, -1718223.8, -14615.063, 0.000622871, 9.996397, 10.001683 
2.549406e+2, 1.3616623e+2, -1795247.0, -1524751.8, 131985.88, -0.022219114, 0.2336514, -1471022.6, 134569.27, 0.00031436078, 9.998003, 10.001585 
2.5495127e+2, 1.4616624e+2, -1747695.5, -1642452.0, 17820.223, 0.061598267, 0.17144649, -1639516.5, -131922.02, 0.00010539114, 9.998452, 9.999884 
2.5495845e+2, 1.5616736e+2, -1663113.1, -1527386.9, 10478.409, -0.058610015, 0.2753313, -1526582.6, -116992.34, 0.000019009012, 9.998269, 10.000086 
2.5496632e+2, 1.6616876e+2, -1427230.0, -1128869.4, -12819.034, -0.10150393, 0.29491815, -1128319.6, 183255.64, 0.0000013062046, 9.998213, 10.002173 
2.5497493e+2, 1.7617014e+2, -1327911.6, -1047234.0, -19316.34, -0.06436028, 0.19300419, -1045910.94, 167644.84, 0.000000000635992, 9.998293, 10.002024 
2.5498414e+2, 1.861717e+2, -1273603.1, -1128790.9, -3440.615, 0.0020380449, 0.22883712, -1128709.1, -13169.45, 0.0, 9.99867, 10.000611 
2.5499353e+2, 1.9617333e+2, -1096275.3, -1006973.9, 17921.7, 0.06912384, 0.30904636, -1003511.5, 14015.097, 0.0, 9.99928, 10.000477 
2.5500116e+2, 2.0617309e+2, -1001046.94, -1048643.4, -50975.902, 0.045776613, 0.3097435, -968587.75, -49056.89, 0.0, 9.999855, 9.999247 
2.5500768e+2, 2.1617156e+2, -817954.2, -909114.0, -80712.48, -0.034503296, 0.21120284, -770840.9, 50706.297, 0.0, 10.000437, 9.99925 
2.5501573e+2, 2.261712e+2, -745920.4, -857924.5, -83348.516, -0.031223439, 0.26870978, -701507.25, 22044.918, 0.0, 10.00041, 9.998938 
2.5502473e+2, 2.3617142e+2, -695465.4, -776296.3, -103542.56, 0.019066174, 0.37532702, -624730.2, 820.9723, 0.0, 10.000053, 9.998998 
2.5503272e+2, 2.4617076e+2, -494011.1, -589324.3, -97634.8, -0.02577938, 0.3935802, -433022.84, 94533.55, 0.0, 10.000595, 9.999349 
2.5504008e+2, 2.5616944e+2, -252533.89, -446346.9, -45956.38, -0.13053408, 0.304486, -242189.02, 187377.89, 0.0, 10.001677, 9.99914 
2.5504956e+2, 2.6616743e+2, -229956.77, -574257.94, -33486.64, -0.06645046, 0.28851402, -226730.11, 104855.95, 0.0, 10.001984, 9.997439 
2.5506037e+2, 2.7616495e+2, -160415.8, -475086.47, -59746.617, 0.1068129, 0.2741747, -149453.58, 84157.836, 0.0, 10.001718, 9.997578 
2.5506943e+2, 2.8616205e+2, 90502.4, -179513.2, -57652.965, 0.113000594, 0.17146668, 102297.086, 237932.39, 0.00000013919723, 10.002252, 9.998672 
2.5507724e+2, 2.961588e+2, 314177.03, -51447.92, -2958.6062, 0.012039584, -0.04477656, 314200.97, 351860.53, 0.0000021199414, 10.00324, 9.9984045 
2.5508344e+2, 3.061581e+2, 309962.97, -264786.7, 7505.7285, -0.2719594, 0.16862741, 310060.97, 310060.97, 0.000010666905, 10.003898, 9.996294 
2.5509652e+2, 3.1615394e+2, 412355.7, -110025.516, -19275.404, 0.08842858, 0.10650548, 413065.97, 413065.97, 0.000032132757, 10.004114, 9.997252 
2.6492548e+2, 1.2615365e+2, -2069460.0, -1746466.0, -103051.82, -0.07893872, 0.14417692, -1716388.0, -12674.538, 0.0005136847, 9.99691, 10.001259 
2.649382e+2, 1.361569e+2, -1974127.6, -1618415.3, -20379.78, 0.008660152, 0.29211807, -1617251.5, -11569.363, 0.0002486243, 9.996782, 10.001538 
2.6494944e+2, 1.4615713e+2, -1874025.5, -1624394.4, -75724.26, 0.09712766, 0.21652307, -1603220.0, -95538.75, 0.00007773356, 9.997259, 10.000578 
2.649569e+2, 1.5615731e+2, -1597394.9, -1437818.5, -32136.678, -0.050136074, 0.15819706, -1431589.8, -21908.645, 0.000013419433, 9.998477, 10.000598 
2.649649e+2, 1.6615844e+2, -1377192.4, -1215460.1, -54121.082, -0.09959331, 0.1802352, -1199020.5, 112650.17, 0.0000010267595, 9.999027, 10.001193 
2.649737e+2, 1.7615995e+2, -1272862.9, -1113782.1, -115985.21, -0.053250708, 0.19077252, -1052683.9, 160971.78, 0.0000000012219834, 9.99907, 10.001193 
2.6498327e+2, 1.8616152e+2, -1148525.6, -1035838.25, -102045.29, 0.017276954, 0.24892166, -975615.0, 140025.33, 0.0, 9.999391, 10.0009 
2.6499322e+2, 1.9616309e+2, -1004036.2, -942458.8, -118111.91, 0.08833038, 0.2974488, -851188.6, 166436.97, 0.0, 9.999827, 10.000658 
2.6500154e+2, 2.0616265e+2, -988716.3, -1094113.1, -157020.23, 0.08695357, 0.2939424, -875787.2, 43845.555, 0.0, 10.00017, 9.998778 
2.650088e+2, 2.161608e+2, -855760.6, -975942.75, -156087.55, 0.04158245, 0.21239698, -748596.56, 73058.27, 0.0, 10.000393, 9.998811 
2.6501676e+2, 2.2616039e+2, -643704.3, -797568.94, -93787.836, 0.0020811579, 0.2815211, -599332.3, 124327.89, 0.0, 10.001059, 9.9990425 
2.6502517e+2, 2.3616087e+2, -415494.9, -639096.4, -66507.01, -0.032938812, 0.40494013, -397208.8, 228446.27, 0.0, 10.001963, 9.999024 
2.6503366e+2, 2.4615993e+2, -328751.47, -559589.2, -95868.625, -0.054625984, 0.41841778, -294129.3, 233533.61, 0.0, 10.001947, 9.998902 
2.6504222e+2, 2.5615793e+2, -326515.16, -524289.0, -173047.45, -0.0658095, 0.30992648, -226093.16, 203587.17, 0.0, 10.001362, 9.998751 
2.6505193e+2, 2.6615572e+2, -263116.5, -604536.25, -153545.72, -0.015168184, 0.29865983, -204222.03, 127480.734, 0.0, 10.001817, 9.997311 
2.6506242e+2, 2.7615345e+2, 14932.287, -398161.63, -137750.42, 0.08228386, 0.31598228, 56652.977, 290381.1, 0.0, 10.002963, 9.997502 
2.6507187e+2, 2.8615087e+2, 232075.94, -91551.22, -157649.7, 0.09559384, 0.23606274, 296176.2, 431925.47, 0.00000017298198, 10.003129, 9.998856 
2.6508063e+2, 2.9614788e+2, 241895.98, -62636.35, -201494.4, 0.062023077, 0.030321268, 342186.7, 379956.5, 0.0000022646286, 10.002627, 9.998625 
2.650875e+2, 3.061473e+2, 219901.44, -344017.13, -143534.4, -0.22595507, 0.25630304, 254333.0, 254333.0, 0.000010678338, 10.003426, 9.995989 
2.651012e+2, 3.1614247e+2, 568764.75, 22930.59, -147220.78, 0.11407594, 0.16096243, 605940.75, 605940.75, 0.000032089163, 10.004935, 9.997776 
2.7492416e+2, 1.2613982e+2, -2078632.9, -1767973.4, -132193.72, 0.052016538, -0.0051918346, -1719336.1, -15484.965, 0.00042107303, 9.996917, 10.001106 
2.749345e+2, 1.3614583e+2, -1951111.9, -1574749.8, -22646.814, -0.057875875, 0.40381598, -1573392.0, 32405.21, 0.00019522583, 9.9967985, 10.001827 
2.749463e+2, 1.4614716e+2, -1762008.8, -1391198.8, -42824.668, 0.03498899, 0.33555534, -1386317.1, 121464.77, 0.000056360343, 9.997255, 10.00218 
2.7495557e+2, 1.5614694e+2, -1510083.4, -1254082.4, 16757.498, -0.047756664, 0.07920391, -1252990.1, 156787.13, 0.000009372096, 9.998472, 10.001861 
2.7496445e+2, 1.6614786e+2, -1484245.4, -1438172.0, -59804.477, -0.06693121, 0.10825064, -1397120.8, -85350.62, 0.0000008660051, 9.999025, 9.999663 
2.7497336e+2, 1.761492e+2, -1370923.4, -1317076.0, -106414.914, -0.012087339, 0.25624475, -1234231.6, -20467.361, 0.000000004874734, 9.999068, 9.999797 
2.7498287e+2, 1.8615025e+2, -1161077.3, -1047019.2, -92559.445, 0.024595363, 0.32762387, -995330.44, 120425.63, 0.0, 9.9993305, 10.000851 
2.7499261e+2, 1.9615115e+2, -1008840.2, -942961.5, -94871.24, 0.02681003, 0.3097495, -875474.0, 142271.92, 0.0, 9.999791, 10.000669 
2.7500165e+2, 2.0615108e+2, -990691.0, -1084809.6, -156064.6, 0.06903479, 0.33886904, -874745.0, 45004.156, 0.0, 10.000109, 9.998877 
2.750103e+2, 2.1615016e+2, -850678.75, -949451.94, -137729.52, 0.1333048, 0.33687454, -753749.06, 68014.086, 0.0, 10.000321, 9.999027 
2.750185e+2, 2.2614941e+2, -596235.2, -674971.8, -65936.48, 0.056282107, 0.31303775, -558808.44, 164959.47, 0.0, 10.0009575, 9.999935 
2.7502644e+2, 2.3614877e+2, -386924.78, -561253.25, -32972.348, -0.11795944, 0.23849116, -380896.84, 244870.11, 0.0, 10.001883, 9.9995985 
2.7503568e+2, 2.4614704e+2, -477143.7, -855212.5, -125712.15, -0.063965306, 0.25829747, -439159.25, 88625.61, 0.0, 10.001898, 9.996895 
2.7504572e+2, 2.561444e+2, -455036.22, -780750.2, -180780.27, 0.13135272, 0.2840605, -374574.7, 55242.0, 0.0, 10.00131, 9.997018 
2.7505478e+2, 2.661425e+2, -225876.28, -515642.28, -118005.836, 0.07306508, 0.34263527, -183899.81, 147939.75, 0.0, 10.001773, 9.99794 
2.7506322e+2, 2.7614102e+2, 35911.793, -340126.0, -93330.67, -0.1533003, 0.38288337, 57801.74, 291658.5, 0.00000000009324417, 10.002898, 9.997933 
2.7507323e+2, 2.8613952e+2, 161536.08, -228600.28, -183290.98, -0.100629635, 0.44614595, 234137.81, 370008.8, 0.00000023612336, 10.003089, 9.99793 
2.7508423e+2, 2.9613787e+2, 186524.72, -169203.5, -202851.63, 0.13526513, 0.46012607, 278446.5, 316331.7, 0.0000024951785, 10.002584, 9.997914 
2.750919e+2, 3.061363e+2, 262108.02, -248537.23, -91250.586, -0.14559232, 0.585119, 277924.3, 277924.3, 0.000011113361, 10.003406, 9.996645 
2.7510524e+2, 3.1613e+2, 658507.75, 241415.9, -97230.58, -0.016654447, 0.27680546, 680060.06, 680060.06, 0.000032683794, 10.004802, 9.999339 
2.849228e+2, 1.2612958e+2, -1972166.5, -1733688.8, -4252.9053, 0.19454703, 0.07167964, -1733613.0, -29660.344, 0.00034660724, 9.997725, 10.000951 
2.849312e+2, 1.361342e+2, -1807972.4, -1497546.0, 59909.38, -0.10711982, 0.3389363, -1486385.3, 119526.67, 0.00015383559, 9.997762, 10.001884 
2.8494367e+2, 1.4613593e+2, -1661020.6, -1348126.3, 13577.99, 0.01850304, 0.30955097, -1347538.1, 160354.47, 0.00004093297, 9.997968, 10.002137 
2.8495485e+2, 1.5613644e+2, -1508493.0, -1260552.6, -67999.22, 0.03650846, 0.13184175, -1243127.9, 166752.8, 0.0000066741927, 9.9985, 10.00181 
2.8496417e+2, 1.6613726e+2, -1490799.1, -1449225.4, -135962.34, 0.007325643, 0.16152246, -1332470.0, -20595.664, 0.00000074756446, 9.999031, 9.999582 
2.8497267e+2, 1.7613804e+2, -1305926.6, -1302479.1, -90828.71, -0.012848831, 0.2638028, -1213357.9, 516.47363, 0.000000006090155, 9.999587, 9.999654 
2.849824e+2, 1.861386e+2, -1104404.3, -1062920.6, -32041.787, 0.021215858, 0.31330097, -1045493.06, 70377.86, 0.0, 9.999904, 10.000465 
2.8499293e+2, 1.9613907e+2, -997116.56, -974939.6, -76275.76, 0.07112838, 0.29304, -908950.56, 108914.49, 0.0, 10.00003, 10.000339 
2.850022e+2, 2.061392e+2, -926073.94, -1022932.5, -128072.09, 0.10174792, 0.34163192, -837580.44, 82285.38, 0.0, 10.000425, 9.999138 
2.8501076e+2, 2.1613891e+2, -745772.8, -878002.3, -114421.44, 0.11852929, 0.37866014, -679738.3, 142134.36, 0.0, 10.00096, 9.999205 
2.8501958e+2, 2.2613795e+2, -581720.1, -693648.56, -71162.05, 0.05909472, 0.3386736, -547152.4, 176727.23, 0.0, 10.001174, 9.999697 
2.8502858e+2, 2.3613653e+2, -507848.38, -644762.06, -136316.6, -0.05135863, 0.20763071, -423764.88, 202122.16, 0.0, 10.0011635, 9.99937 
2.850382e+2, 2.4613456e+2, -498526.53, -883438.44, -169361.64, 0.00811387, 0.22523043, -434618.16, 93289.43, 0.0, 10.0018215, 9.996737 
2.8504828e+2, 2.5613227e+2, -231756.45, -690386.8, -105549.93, 0.18118815, 0.2969866, -208631.06, 221305.75, 0.0, 10.002925, 9.996857 
2.850567e+2, 2.661304e+2, -142933.55, -500281.2, -27443.951, 0.056692, 0.38230786, -140838.17, 191121.73, 0.0, 10.002453, 9.997715 
2.850641e+2, 2.7612874e+2, -264259.53, -501863.22, -76800.21, -0.24836753, 0.4253089, -241597.08, -7617.0728, 0.0000000018932573, 10.0009165, 9.997771 
2.850749e+2, 2.8612715e+2, -117181.0, -367375.34, -108832.53, -0.14289638, 0.48107132, -76465.56, 59530.305, 0.00000028816427, 10.001188, 9.997901 
2.8508782e+2, 2.9612556e+2, 201239.89, -160373.31, -73901.48, 0.23622115, 0.5072973, 215759.83, 253768.63, 0.0000027347362, 10.0026865, 9.997925 
2.850961e+2, 3.0612326e+2, 245372.77, -284105.75, 43358.918, -0.05397876, 0.56584686, 248899.92, 248899.92, 0.000011990512, 10.003392, 9.996408 
2.85109e+2, 3.1611812e+2, 434984.8, 163390.81, -75636.695, -0.023148807, 0.39912596, 454628.28, 454628.28, 0.000033758955, 10.00314, 9.999594 
2.9492086e+2, 1.2612322e+2, -1981657.6, -1765784.5, -9374.535, 0.1755101, 0.39300138, -1765378.1, -61363.227, 0.00028487924, 9.997769, 10.000714 
2.949281e+2, 1.3612208e+2, -1824533.3, -1540130.1, 62197.016, -0.2181458, 0.09457445, -1527123.0, 78902.84, 0.000121053716, 9.9978, 10.001573 
2.9494137e+2, 1.4612335e+2, -1777868.8, -1598000.4, 19908.738, -0.030768711, 0.13093412, -1595823.1, -87809.08, 0.000029834508, 9.997989, 10.000417 
2.9495436e+2, 1.5612583e+2, -1607673.3, -1465866.1, -43638.11, 0.11892865, 0.31883636, -1453513.5, -43521.902, 0.000004731658, 9.998496, 10.000402 
2.949638e+2, 1.6612674e+2, -1402626.4, -1258574.6, -121421.94, 0.051626384, 0.3481386, -1189423.3, 122559.72, 0.00000054097734, 9.9990015, 10.000902 
2.9497126e+2, 1.7612655e+2, -1227586.0, -1136240.5, -61244.41, -0.12794864, 0.2189069, -1105513.9, 108470.695, 0.0000000012704189, 9.99958, 10.000792 
2.9498166e+2, 1.8612663e+2, -1161228.9, -1175771.0, -34204.32, -0.064691536, 0.20951854, -1133531.4, -17547.143, 0.0, 9.999877, 9.999707 
2.9499385e+2, 1.9612677e+2, -1049301.8, -1073613.3, -62871.254, 0.14312753, 0.23455136, -997421.9, 20561.705, 0.0, 9.999988, 9.9996805 
2.950029e+2, 2.0612693e+2, -910794.0, -972860.3, -112952.93, 0.110558316, 0.29353943, -824688.7, 95294.68, 0.0, 10.000347, 9.999519 
2.9500985e+2, 2.16127e+2, -743327.3, -853225.4, -87876.83, -0.082031205, 0.3292077, -694634.0, 127350.22, 0.0, 10.000878, 9.999412 
2.950197e+2, 2.2612596e+2, -690404.9, -898112.94, -78591.25, -0.061148394, 0.347483, -664019.7, 59976.05, 0.0, 10.001081, 9.998339 
2.9503137e+2, 2.3612411e+2, -590382.4, -796749.06, -123780.66, 0.09999322, 0.30888766, -532418.44, 93596.71, 0.0, 10.001081, 9.998365 
2.9504117e+2, 2.4612264e+2, -387445.6, -641996.9, -134051.38, 0.104664385, 0.32655877, -329873.03, 198156.7, 0.0, 10.001772, 9.998425 
2.9504964e+2, 2.5612137e+2, -144313.67, -496827.84, -67982.766, 0.008570474, 0.34103155, -131657.52, 298384.34, 0.0, 10.002866, 9.998221 
2.9505742e+2, 2.661193e+2, -218609.64, -652606.4, -92980.914, -0.13472255, 0.40136674, -199528.06, 132537.86, 0.0, 10.002428, 9.996682 
2.950647e+2, 2.7611658e+2, -326908.25, -625743.25, -117488.93, -0.29960927, 0.43620738, -286248.84, -52149.59, 0.0000000016821552, 10.000883, 9.996941 
2.9507652e+2, 2.861137e+2, -56735.47, -235628.13, -62033.39, -0.11673077, 0.35423672, -37329.664, 98794.23, 0.00000022409213, 10.001166, 9.998815 
2.9509118e+2, 2.9611093e+2, 242142.97, -67417.46, -11510.712, 0.27856627, 0.17564642, 242570.39, 280711.47, 0.0000026529046, 10.002646, 9.998587 
2.9509994e+2, 3.0610803e+2, 166516.73, -439728.2, 32960.406, -0.028127022, 0.2029465, 168303.45, 168303.45, 0.000012335517, 10.003358, 9.995355 
2.9511184e+2, 3.1610626e+2, 362412.13, 14345.952, -69562.914, -0.09955558, 0.47563186, 375799.75, 375799.75, 0.000034800534, 10.003122, 9.998577 
3.049187e+2, 1.261124e+2, -2158535.3, -1904990.6, -61003.332, 0.24237041, 0.43567485, -1891076.6, -186954.73, 0.00023189351, 9.996795, 10.000234 
3.0492678e+2, 1.3611035e+2, -1762713.3, -1569374.4, -78195.945, -0.15733425, 0.10387744, -1541707.3, 64435.68, 0.000094942065, 9.998464, 10.001061 
3.049401e+2, 1.4611164e+2, -1709641.5, -1563433.4, -69099.75, 0.022880021, 0.16275656, -1535944.4, -27813.006, 0.000021738364, 9.998481, 10.0004 
3.0495247e+2, 1.5611376e+2, -1716534.8, -1520263.4, -21996.627, 0.1264509, 0.3210962, -1517828.4, -107716.62, 0.0000030875526, 9.997771, 10.000371 
3.049627e+2, 1.6611472e+2, -1490079.0, -1281930.9, -50181.133, 0.08333974, 0.3456721, -1270464.6, 41637.34, 0.0000002653173, 9.998308, 10.001077 
3.0497178e+2, 1.7611489e+2, -1215595.6, -1112847.5, -96740.445, -0.02957993, 0.23424825, -1054686.1, 159413.08, 0.0, 9.999586, 10.000947 
3.0498227e+2, 1.8611485e+2, -1150860.0, -1190447.8, -96738.02, 0.0053568063, 0.21777363, -1071911.5, 44188.125, 0.0, 10.000039, 9.999528 
3.0499357e+2, 1.9611453e+2, -1062240.0, -1101234.8, -93481.914, 0.11972547, 0.21547133, -986243.8, 31859.844, 0.0, 9.999984, 9.999498 
3.0500272e+2, 2.061144e+2, -932312.94, -983571.4, -113412.02, 0.07013962, 0.25389832, -841670.25, 78435.16, 0.0, 10.000199, 9.999522 
3.0501053e+2, 2.1611433e+2, -789757.1, -884194.44, -134134.05, -0.0819311, 0.2779576, -694773.3, 127332.79, 0.0, 10.000587, 9.999346 
3.0502063e+2, 2.261132e+2, -755003.4, -988022.94, -95836.766, -0.058832087, 0.31856465, -720651.6, 3468.2622, 0.0, 10.00089, 9.997814 
3.050322e+2, 2.361113e+2, -610934.25, -851716.5, -92109.445, 0.07588823, 0.32577038, -579739.8, 46403.047, 0.0, 10.001141, 9.997955 
3.0504233e+2, 2.461102e+2, -452445.1, -614003.3, -103471.43, 0.08439947, 0.36829373, -401955.0, 126199.35, 0.0, 10.00108, 9.998942 
3.0505148e+2, 2.5610957e+2, -399978.47, -562738.3, -134162.16, 0.010235647, 0.39215428, -324443.84, 105714.945, 0.0, 10.000879, 9.998716 
3.0505988e+2, 2.661074e+2, -337904.25, -714187.8, -148682.13, -0.08672046, 0.4238153, -286246.75, 45935.414, 0.0, 10.001621, 9.996652 
3.0506775e+2, 2.7610412e+2, -22059.55, -487420.72, -111023.99, -0.18630768, 0.4068024, 3070.9978, 237290.6, 0.00000000014964384, 10.00301, 9.996869 
3.0507943e+2, 2.8610107e+2, 220537.81, -125139.45, -44115.832, -0.037022714, 0.32045144, 226079.11, 362325.0, 0.00000013461268, 10.003183, 9.998594 
3.0509353e+2, 2.9609847e+2, 208961.19, -99766.74, -90567.76, 0.26475963, 0.1823303, 233568.6, 271830.1, 0.0000024042524, 10.00251, 9.998418 
3.0510285e+2, 3.0609486e+2, 88495.59, -425670.94, -7519.5283, -0.030179383, 0.118825346, 88605.54, 88605.54, 0.000011969342, 10.002594, 9.995828 
3.051155e+2, 3.16094e+2, 330527.03, -11657.306, -35566.395, -0.031256236, 0.44023126, 334184.7, 334184.7, 0.00003458678, 10.002939, 9.998504 
3.1491596e+2, 1.2609723e+2, -2202535.5, -2003665.3, 172.46172, 0.24740744, 0.21162458, -2003665.0, -299392.1, 0.00018871382, 9.996836, 9.999535 
3.1492695e+2, 1.3609931e+2, -1813809.4, -1663873.0, -25775.018, -0.0030118432, 0.38519695, -1659565.9, -53304.824, 0.00007509751, 9.998436, 10.000419 
3.1493953e+2, 1.4610098e+2, -1597901.5, -1335457.8, -107952.79, 0.09625309, 0.4259798, -1296759.1, 211483.5, 0.00001598166, 9.998484, 10.001967 
3.1494898e+2, 1.5610018e+2, -1622492.6, -1330685.3, -31613.803, -0.02528228, 0.13386719, -1327299.6, 82941.945, 0.00000170519, 9.997791, 10.001661 
3.1496066e+2, 1.6610108e+2, -1561346.9, -1428705.6, -13715.233, 0.0295292, 0.14939877, -1427302.4, -115070.016, 0.000000057148895, 9.998299, 10.000078 
3.1497398e+2, 1.7610303e+2, -1279268.1, -1237399.3, -50791.305, 0.2149307, 0.31416255, -1203397.3, 10821.141, 0.0, 9.999555, 10.000108 
3.1498396e+2, 1.8610333e+2, -1126458.0, -1135296.3, -107149.734, 0.15634914, 0.34751427, -1023636.3, 92580.484, 0.0, 10.000011, 9.999923 
3.1499177e+2, 1.961024e+2, -1045770.06, -1054017.3, -86412.55, -0.075829886, 0.24226741, -963382.75, 54841.965, 0.0, 9.9999275, 9.999849 
3.1500146e+2, 2.0610169e+2, -974576.44, -1050631.1, -106457.11, -0.08963734, 0.22979812, -899558.7, 20672.463, 0.0, 10.000113, 9.999103 
3.1501254e+2, 2.1610099e+2, -826886.7, -940711.0, -113333.06, 0.044279777, 0.23340023, -756978.6, 65258.848, 0.0, 10.000501, 9.998999 
3.1502217e+2, 2.2609977e+2, -740197.0, -942195.5, -93350.85, -0.011524778, 0.2615359, -703663.6, 20587.422, 0.0, 10.000824, 9.998163 
3.1503078e+2, 2.3609808e+2, -603269.56, -821139.5, -76982.15, -0.19431213, 0.25774997, -578813.9, 47456.805, 0.0, 10.001076, 9.998199 
3.1504148e+2, 2.4609716e+2, -497299.63, -701111.7, -118989.14, -0.12930422, 0.34110847, -442542.78, 85739.24, 0.0, 10.001054, 9.998356 
3.1505346e+2, 2.560968e+2, -436966.2, -624877.7, -131512.67, 0.10255601, 0.4477535, -369295.0, 60992.78, 0.0, 10.0008135, 9.998322 
3.1506377e+2, 2.660948e+2, -271988.4, -569535.2, -102850.46, 0.12764311, 0.4558168, -239897.94, 92410.18, 0.0, 10.001587, 9.9976635 
3.150729e+2, 2.7609146e+2, 23938.611, -380130.28, -58767.88, 0.012810497, 0.33713263, 32312.295, 266653.25, 0.00000000001473293, 10.002955, 9.997635 
3.1508338e+2, 2.8608918e+2, 119577.01, -324645.7, -76593.445, 0.019925896, 0.36948776, 132412.48, 268774.75, 0.000000108201135, 10.003142, 9.997242 
3.1509465e+2, 2.96088e+2, 126935.62, -259734.45, -102662.664, 0.09971096, 0.50359964, 152502.52, 190874.48, 0.0000022594174, 10.00246, 9.997347 
3.151045e+2, 3.060835e+2, 225320.11, -135503.66, 4580.681, -0.13790208, 0.2947381, 225378.25, 225378.25, 0.00001165084, 10.002572, 9.99783 
3.1511936e+2, 3.160814e+2, 391814.72, 128735.2, -13136.061, 0.020762734, 0.28381705, 392469.0, 392469.0, 0.000033846463, 10.002879, 9.999498 
3.2491383e+2, 1.2608431e+2, -1893478.3, -1805046.4, 28984.01, 0.2637768, 0.2308475, -1796393.4, -91989.05, 0.00015750076, 9.998724, 9.99999 
3.2492512e+2, 1.3608663e+2, -1954923.4, -1724759.1, 32383.59, 0.03029247, 0.41705972, -1720289.6, -113901.445, 0.00006189271, 9.99741, 10.000508 
3.249381e+2, 1.4608854e+2, -1684634.9, -1361855.8, -48378.246, 0.14300473, 0.4708316, -1354760.8, 153605.48, 0.000012633238, 9.997806, 10.002121 
3.2494834e+2, 1.560875e+2, -1344806.5, -1182958.8, -93984.58, 0.047046546, 0.1383662, -1139859.4, 270507.9, 0.0000008198343, 9.999626, 10.001799 
3.2496023e+2, 1.6608839e+2, -1358025.3, -1347410.9, -75818.11, 0.08749069, 0.15455656, -1276714.4, 35644.324, 0.000000004124255, 9.999783, 9.999912 
3.2497317e+2, 1.7609052e+2, -1392503.1, -1311098.1, -66471.06, 0.2217722, 0.3582565, -1273857.8, -59513.91, 0.0, 9.998856, 9.99994 
3.2498336e+2, 1.8609107e+2, -1241753.8, -1162817.0, -83684.4, 0.14247245, 0.40981993, -1109760.6, 6579.67, 0.0, 9.999111, 10.000157 
3.2499164e+2, 1.9609043e+2, -1002409.2, -1008794.4, -95714.305, -0.0843928, 0.30841818, -909834.25, 108511.13, 0.0, 10.000133, 10.0000515 
3.2500207e+2, 2.0608963e+2, -878552.5, -1012613.94, -94051.93, -0.06911734, 0.28180888, -830089.1, 90262.91, 0.0, 10.000802, 9.999036 
3.2501394e+2, 2.1608867e+2, -729097.6, -897147.25, -86852.27, 0.1069762, 0.2648215, -692277.56, 130082.65, 0.0, 10.001189, 9.998968 
3.250236e+2, 2.260874e+2, -631036.8, -864712.5, -52498.242, 0.020697758, 0.277945, -619784.25, 104588.875, 0.0, 10.001464, 9.998388 
3.250317e+2, 2.3608583e+2, -503951.97, -756276.4, -60190.74, -0.23687397, 0.2625156, -490329.25, 136061.1, 0.0, 10.00168, 9.998356 
3.250424e+2, 2.460846e+2, -450746.72, -728907.5, -101218.05, -0.16404003, 0.33128968, -417814.2, 110590.88, 0.0, 10.001581, 9.997918 
3.2505473e+2, 2.5608358e+2, -381839.56, -636706.94, -109738.59, 0.12911025, 0.4187262, -341101.0, 89317.09, 0.0, 10.001347, 9.997989 
3.250656e+2, 2.6608166e+2, -266066.5, -502370.78, -50445.516, 0.16653845, 0.41530946, -255748.1, 76688.29, 0.0, 10.001366, 9.998224 
3.250754e+2, 2.7607882e+2, -147584.22, -409265.5, -57692.66, 0.037455376, 0.2924006, -135429.34, 99031.52, 0.00000000010851988, 10.001565, 9.9980955 
3.2508582e+2, 2.860768e+2, -59025.348, -456064.56, -56407.027, 0.010957593, 0.35556883, -51167.176, 85313.01, 0.00000014601811, 10.002093, 9.996854 
3.2509673e+2, 2.9607576e+2, 148793.9, -284750.53, -26321.348, 0.056543823, 0.53975004, 150386.08, 188878.14, 0.000002235968, 10.00276, 9.997031 
3.2510725e+2, 3.060713e+2, 275400.44, -46865.05, 56426.676, -0.11904136, 0.32208207, 284994.75, 284994.75, 0.000011376777, 10.002657, 9.998387 
3.2512265e+2, 3.1606877e+2, 242876.81, 51738.51, -107446.6, 0.12316245, 0.20386498, 291106.97, 291106.97, 0.000032649332, 10.001913, 9.999415 
3.3491173e+2, 1.260737e+2, -1780204.8, -1571537.6, -32215.39, 0.13741851, 0.50547343, -1566677.3, 137838.66, 0.00013853858, 9.998736, 10.001583 
3.3492103e+2, 1.3607231e+2, -1893010.3, -1591574.0, -6310.137, -0.13742414, 0.20258644, -1591442.0, 15082.145, 0.000055370125, 9.99741, 10.00141 
3.3493552e+2, 1.4607431e+2, -1774382.8, -1545426.3, 7245.5547, 0.08347179, 0.29564485, -1545197.1, -36694.58, 0.000011804474, 9.997795, 10.000866 
3.349504e+2, 1.5607594e+2, -1414846.8, -1326533.1, -29588.092, 0.27042845, 0.3502634, -1317536.5, 92950.49, 0.00000057438905, 9.999622, 10.000813 
3.3496115e+2, 1.6607684e+2, -1315086.4, -1257243.9, -118402.73, 0.18270844, 0.3775277, -1164281.4, 148197.9, 0.00000000201948, 9.999773, 10.000541 
3.3496922e+2, 1.7607746e+2, -1354520.1, -1231411.1, -85963.74, -0.08311801, 0.3665934, -1187236.1, 27238.818, 0.0, 9.998848, 10.000493 
3.349801e+2, 1.8607806e+2, -1251849.6, -1168993.9, -53338.816, -0.11348046, 0.4007894, -1142884.4, -26414.244, 0.0, 9.999046, 10.000149 
3.3499297e+2, 1.960785e+2, -1007008.4, -1007915.2, -54055.152, 0.016592372, 0.40745947, -953404.7, 65061.98, 0.0, 10.000088, 10.00008 
3.350043e+2, 2.0607819e+2, -864885.06, -969387.9, -88009.164, 0.05972518, 0.41181663, -814785.0, 105683.54, 0.0, 10.00074, 9.999362 
3.3501458e+2, 2.1607728e+2, -718813.9, -854985.5, -65762.195, 0.03737433, 0.36612657, -692240.56, 130234.35, 0.0, 10.001101, 9.999301 
3.3502465e+2, 2.2607604e+2, -639604.8, -861722.0, -51975.51, -0.03219728, 0.36177313, -628044.25, 96442.414, 0.0, 10.001375, 9.998451 
3.350346e+2, 2.3607449e+2, -513524.44, -755387.94, -49363.914, -0.12957346, 0.34354228, -503837.3, 122664.98, 0.0, 10.001591, 9.9984045 
3.3504483e+2, 2.4607247e+2, -471743.47, -765434.5, -117040.18, -0.094767295, 0.34189087, -430807.16, 97716.375, 0.0, 10.001549, 9.997684 
3.350552e+2, 2.5607002e+2, -401233.0, -669527.56, -111030.12, 0.022427917, 0.30604342, -361244.75, 69304.555, 0.0, 10.001314, 9.99778 
3.350652e+2, 2.6606798e+2, -265060.53, -498130.0, -49868.41, -0.025580801, 0.30251586, -254838.78, 77727.94, 0.0, 10.001355, 9.998259 
3.350749e+2, 2.7606606e+2, -147190.33, -396449.38, -42046.336, -0.1857665, 0.2666856, -140288.81, 94291.67, 0.000000000044508567, 10.00151, 9.998211 
3.350866e+2, 2.8606397e+2, -17359.424, -364573.16, -37419.074, -0.13769065, 0.27604324, -13372.565, 123227.31, 0.00000018850986, 10.0020685, 9.997498 
3.3509958e+2, 2.96062e+2, 172825.13, -229037.53, 420.79507, 0.040551886, 0.30366632, 172825.56, 211446.2, 0.0000021997091, 10.002725, 9.997438 
3.3511063e+2, 3.060583e+2, 204219.5, -187187.11, 24121.086, -0.062185407, 0.20147954, 205700.39, 205700.39, 0.000010801098, 10.002626, 9.997437 
3.3512488e+2, 3.16056e+2, 143940.06, -136731.28, -113970.28, 0.11468918, 0.20148072, 184389.69, 184389.69, 0.000030818417, 10.001835, 9.998163 
3.4490925e+2, 1.2606132e+2, -1859037.1, -1562437.3, -4625.2437, 0.061081775, 0.6050771, -1562365.1, 142276.55, 0.00012841672, 9.998006, 10.001997 
3.4492004e+2, 1.3605891e+2, -1667977.4, -1487355.9, -109345.914, -0.043529507, 0.19616228, -1435847.9, 170808.72, 0.00005393956, 9.998958, 10.001393 
3.449343e+2, 1.4606056e+2, -1646499.8, -1513920.4, -35777.69, 0.13980289, 0.2712954, -1504881.8, 3757.439, 0.00001321429, 9.9988165, 10.00058 
3.449487e+2, 1.5606287e+2, -1642782.8, -1460888.3, -26684.732, 0.21779087, 0.4236939, -1457054.3, -46434.438, 0.00000089811203, 9.998166, 10.000589 
3.4495965e+2, 1.6606392e+2, -1444496.3, -1250614.9, -91858.64, 0.12104544, 0.44114268, -1214005.9, 98604.01, 0.0000000015154811, 9.998584, 10.001159 
3.449682e+2, 1.7606428e+2, -1191330.4, -1085966.3, -73084.18, -0.10349184, 0.34267092, -1048555.6, 166048.98, 0.0, 9.999692, 10.00108 
3.449796e+2, 1.86065e+2, -1106838.4, -1103373.5, -14387.154, -0.10984951, 0.36267978, -1090614.9, 25983.037, 0.0, 10.000052, 10.000119 
3.449931e+2, 1.9606574e+2, -1039175.3, -1025710.2, -26713.586, 0.037427202, 0.4040751, -1004893.8, 13698.578, 0.0, 9.999867, 10.000071 
3.4500468e+2, 2.0606561e+2, -954057.75, -988472.5, -57240.617, 0.064646736, 0.41629905, -911494.0, 9098.427, 0.0, 10.000017, 9.999579 
3.4501496e+2, 2.1606481e+2, -815069.3, -883017.3, -60948.504, 0.006466004, 0.35860246, -779265.44, 43332.145, 0.0, 10.000348, 9.999472 
3.450257e+2, 2.2606376e+2, -766872.5, -926670.8, -49256.863, -0.018817406, 0.36768886, -752909.5, -28301.992, 0.0, 10.000521, 9.998417 
3.4503675e+2, 2.3606248e+2, -661102.4, -829922.8, -68992.67, -0.01733783, 0.38139156, -636493.94, -9872.853, 0.0, 10.000593, 9.998375 
3.450469e+2, 2.460604e+2, -549634.3, -789460.56, -113388.07, -0.009536866, 0.3700622, -504514.1, 24128.086, 0.0, 10.000965, 9.997798 
3.4505635e+2, 2.5605765e+2, -363943.16, -643393.2, -96072.16, 0.0005930287, 0.29625547, -334101.25, 96568.164, 0.0, 10.001537, 9.997854 
3.4506625e+2, 2.6605546e+2, -228358.84, -490017.88, -24968.535, -0.06801955, 0.2760046, -225997.56, 106689.98, 0.0, 10.001644, 9.9981785 
3.4507635e+2, 2.7605346e+2, -159530.55, -412649.7, -36119.535, -0.18224174, 0.2439858, -154477.27, 80223.68, 0.0, 10.001469, 9.998122 
3.4508845e+2, 2.860511e+2, -115041.97, -417307.78, -43531.94, -0.12389252, 0.23318706, -108897.46, 27826.518, 0.00000016974016, 10.001447, 9.997423 
3.4510165e+2, 2.960485e+2, -5409.9604, -320320.2, -76747.08, 0.042472865, 0.21168903, 12298.354, 51050.805, 0.0000019719364, 10.001542, 9.997375 
3.4511304e+2, 3.0604595e+2, 111098.8, -222726.47, -21304.459, -0.0381031, 0.2204938, 112452.94, 112452.94, 0.000009630792, 10.001921, 9.997542 
3.451271e+2, 3.1604454e+2, 224109.38, -88887.33, -99241.23, 0.13829859, 0.2923497, 252923.08, 252923.08, 0.000028581368, 10.002319, 9.9982605 
3.5490587e+2, 1.2604722e+2, -1911971.5, -1684011.8, 25904.182, -0.12443298, 0.53951937, -1681105.3, 23675.697, 0.00012227354, 9.998049, 10.001144 
3.549219e+2, 1.3604657e+2, -1726278.5, -1608143.6, -76278.35, 0.22740723, 0.40898475, -1570736.4, 36048.15, 0.00005490219, 9.998967, 10.000556 
3.5493422e+2, 1.4604752e+2, -1601808.8, -1428525.8, -70779.625, 0.22152263, 0.41704232, -1403290.1, 105483.9, 0.000015641235, 9.99884, 10.001161 
3.5494304e+2, 1.5604836e+2, -1599579.8, -1379779.3, -38401.313, -0.18921681, 0.36920872, -1373263.4, 37501.926, 0.0000017221555, 9.998199, 10.001133 
3.5495546e+2, 1.6604951e+2, -1401316.4, -1157100.8, -59813.11, -0.17685325, 0.34029505, -1143238.3, 169512.9, 0.000000007086625, 9.998563, 10.001811 
3.5496998e+2, 1.7605095e+2, -1149168.5, -1000330.4, -29298.936, 0.08595342, 0.28125206, -994770.5, 219962.67, 0.0, 9.999693, 10.00167 
3.549817e+2, 1.8605185e+2, -1117508.1, -1110571.4, -27455.873, 0.0764054, 0.29395568, -1086365.6, 30358.135, 0.0, 9.999992, 10.000097 
3.549918e+2, 1.9605225e+2, -1046696.2, -1029796.3, -24330.506, -0.09488063, 0.3041993, -1012490.2, 6231.4404, 0.0, 9.999819, 10.000065 
3.55003e+2, 2.0605202e+2, -960479.06, -986347.4, -51253.348, -0.11972963, 0.30212474, -920553.06, 169.9487, 0.0, 9.999947, 9.99963 
3.5501483e+2, 2.160513e+2, -822524.6, -883037.94, -42773.72, -0.056134503, 0.246156, -800388.0, 22339.426, 0.0, 10.000279, 9.999506 
3.5502645e+2, 2.2605062e+2, -787761.9, -956675.25, -52193.152, -0.00659588, 0.30152422, -772935.9, -48200.88, 0.0, 10.000462, 9.9982395 
3.55038e+2, 2.3604986e+2, -677039.3, -852101.9, -57355.117, 0.032192353, 0.38256568, -659922.0, -33176.168, 0.0, 10.000544, 9.998246 
3.5504836e+2, 2.4604842e+2, -528628.6, -736476.9, -98809.24, 0.026504992, 0.42097047, -489153.0, 39607.73, 0.0, 10.000927, 9.9981785 
3.5505798e+2, 2.5604638e+2, -350431.94, -599560.7, -72984.375, -0.008992022, 0.38023216, -330625.25, 100154.26, 0.0, 10.001472, 9.998183 
3.5506842e+2, 2.6604396e+2, -245943.53, -517937.1, -36630.36, -0.027524078, 0.33207086, -241096.77, 91702.516, 0.0, 10.00161, 9.998 
3.550795e+2, 2.7604115e+2, -183823.8, -454586.72, -32891.273, -0.030516598, 0.23090236, -179885.56, 54935.45, 0.0, 10.001433, 9.99785 
3.5509107e+2, 2.860382e+2, -176661.83, -543966.44, -46373.434, -0.021093884, 0.22615983, -170897.5, -34045.5, 0.00000011654808, 10.00144, 9.996556 
3.5510284e+2, 2.960352e+2, -53208.297, -412990.75, -62640.883, -0.013195975, 0.24344379, -42614.004, -3725.1438, 0.0000016005947, 10.001511, 9.996754 
3.551144e+2, 3.0603418e+2, 196891.6, -39798.816, -6249.527, -0.111218244, 0.36239102, 197056.48, 197056.48, 0.000008029012, 10.001902, 9.998808 
3.551288e+2, 3.160348e+2, 309785.97, 111190.48, -52180.527, 0.029805735, 0.514372, 322661.5, 322661.5, 0.00002594716, 10.00223, 9.999678 
3.6490524e+2, 1.2603314e+2, -1722270.1, -1660092.5, 131561.6, -0.060961623, 0.3762346, -1555996.4, 148919.08, 0.000118926524, 9.999638, 10.000544 
3.6492082e+2, 1.3603449e+2, -1787030.6, -1699427.3, 17354.25, 0.24258904, 0.5088833, -1696114.6, -89209.945, 0.000056465244, 9.9988165, 9.999993 
3.6493233e+2, 1.4603508e+2, -1633252.3, -1418659.3, 25722.566, 0.17111354, 0.49318865, -1415619.0, 93279.11, 0.00001794202, 9.998524, 10.001382 
3.6494133e+2, 1.5603487e+2, -1539309.1, -1329258.6, 20334.348, -0.18796188, 0.31916195, -1327308.3, 83588.98, 0.000002788093, 9.998522, 10.0013275 
3.6495447e+2, 1.660361e+2, -1392745.9, -1165301.9, 8571.717, -0.13332273, 0.29528588, -1164979.3, 147903.06, 0.00000008230677, 9.998676, 10.001701 
3.649698e+2, 1.7603834e+2, -1261253.8, -1062928.9, -39079.645, 0.13999923, 0.3279397, -1055506.1, 159351.75, 0.0, 9.998963, 10.001592 
3.6498162e+2, 1.8603937e+2, -1207572.0, -1147517.8, -64114.05, 0.10816396, 0.35385844, -1106747.8, 10099.995, 0.0, 9.999349, 10.000154 
3.6499146e+2, 1.9603941e+2, -1051634.3, -1025724.2, -65385.73, -0.10500501, 0.323244, -972022.44, 46826.54, 0.0, 9.999762, 10.00012 
3.65003e+2, 2.0603915e+2, -916653.25, -960375.3, -68431.74, -0.12529454, 0.3125945, -866675.5, 54175.105, 0.0, 10.0002365, 9.999667 
3.650156e+2, 2.1603855e+2, -753239.9, -843236.06, -78343.2, -0.025843842, 0.26989728, -707891.5, 114961.85, 0.0, 10.00074, 9.999557 
3.650275e+2, 2.2603774e+2, -674762.0, -882073.8, -67935.93, 0.022107676, 0.2974804, -654483.1, 70378.56, 0.0, 10.00115, 9.998419 
3.6503902e+2, 2.3603664e+2, -532030.5, -761801.75, -58158.8, 0.04232585, 0.3268059, -518148.3, 108726.414, 0.0, 10.001452, 9.998426 
3.6504963e+2, 2.4603549e+2, -414665.1, -664718.3, -81417.125, 0.027138365, 0.37766337, -390492.5, 138394.05, 0.0, 10.001623, 9.998344 
3.6505947e+2, 2.560342e+2, -311235.0, -566242.4, -85784.195, -0.010414842, 0.39668328, -285063.3, 145835.14, 0.0, 10.001674, 9.99832 
3.6507025e+2, 2.6603186e+2, -225941.53, -539909.3, -58090.3, -0.015787799, 0.36566284, -215538.38, 117380.66, 0.0, 10.001885, 9.997718 
3.650817e+2, 2.760287e+2, -87346.01, -429531.3, -76766.08, 0.010251778, 0.25813505, -70913.39, 164033.28, 0.0, 10.002192, 9.997656 
3.6509308e+2, 2.8602597e+2, -51583.285, -434341.75, -27922.002, 0.008406141, 0.2609495, -49557.117, 87417.64, 0.000000055764154, 10.002068, 9.997016 
3.6510435e+2, 2.960236e+2, -1591.5646, -334543.72, 37002.75, -0.015562407, 0.2949401, 2471.1743, 41474.15, 0.0000011854916, 10.001631, 9.997236 
3.651159e+2, 3.060226e+2, 126556.875, -38809.77, 111417.63, -0.110968634, 0.37476176, 182619.44, 182619.44, 0.000006614604, 10.001284, 9.999109 
3.6513022e+2, 3.160229e+2, 131176.58, 67593.37, -19103.256, 0.029031552, 0.46850815, 136474.6, 136474.6, 0.000023524617, 10.0008335, 10.000053 
3.7490678e+2, 1.2601936e+2, -1739463.3, -1704872.0, 75214.58, 0.08140351, 0.13999395, -1644990.1, 60052.094, 0.0001191897, 9.999676, 10.000213 
3.7491658e+2, 1.3602287e+2, -1798125.5, -1733552.0, -3053.9714, -0.09036873, 0.5119607, -1733407.9, -126392.945, 0.00005856906, 9.99886, 9.999736 
3.7492833e+2, 1.4602329e+2, -1643656.0, -1436910.1, 16253.611, -0.104916625, 0.49679625, -1435640.1, 73371.2, 0.000020069963, 9.99851, 10.001263 
3.7494338e+2, 1.5602235e+2, -1549438.1, -1354087.4, 29442.89, 0.14798728, 0.2621078, -1349746.4, 61270.008, 0.0000038584762, 9.998537, 10.00115 
3.749565e+2, 1.6602369e+2, -1461165.1, -1300920.3, 12309.595, 0.17947207, 0.30443087, -1299980.1, 13023.116, 0.00000020238203, 9.99865, 10.000782 
3.749674e+2, 1.7602655e+2, -1320366.5, -1184432.0, -19739.404, -0.012090829, 0.49239618, -1181623.5, 33354.17, 0.0, 9.998954, 10.000763 
3.7497917e+2, 1.8602756e+2, -1203892.9, -1126620.9, -55000.348, -0.09007789, 0.5442487, -1098042.5, 18927.242, 0.0, 9.999295, 10.0003195 
3.7499177e+2, 1.9602719e+2, -1050730.8, -1008088.56, -41773.62, -0.064746894, 0.45516825, -982509.5, 36465.117, 0.0, 9.9997, 10.000268 
3.750044e+2, 2.0602691e+2, -928482.9, -972076.4, -55976.863, -0.016590798, 0.4412355, -890208.75, 30766.967, 0.0, 10.000177, 9.999618 
3.75017e+2, 2.160266e+2, -761040.3, -842979.7, -53122.656, 0.027224625, 0.43028206, -734924.0, 88051.266, 0.0, 10.0006695, 9.999592 
3.7502864e+2, 2.2602512e+2, -649348.3, -811650.5, -64151.64, 0.007158767, 0.36056697, -627054.1, 97933.13, 0.0, 10.001069, 9.998944 
3.750397e+2, 2.3602271e+2, -506229.72, -694747.7, -41697.824, -0.052266896, 0.20443131, -497418.5, 129590.11, 0.0, 10.001387, 9.99892 
3.750504e+2, 2.460216e+2, -426693.44, -672653.6, -84479.625, -0.07127563, 0.23640944, -400472.63, 128547.05, 0.0, 10.0015545, 9.9983225 
3.750607e+2, 2.560212e+2, -324762.4, -582977.5, -74470.67, -0.07292879, 0.3479496, -304824.2, 126201.125, 0.0, 10.001621, 9.998232 
3.750715e+2, 2.660192e+2, -261049.08, -604822.44, -51871.23, -0.094680086, 0.37908494, -253392.84, 79653.57, 0.0, 10.001854, 9.997286 
3.7508267e+2, 2.7601603e+2, -110206.96, -462685.44, -59542.64, -0.1293326, 0.31274584, -100420.414, 134658.25, 0.0, 10.002128, 9.99746 
3.7509418e+2, 2.860144e+2, 67017.09, -177121.33, -50149.277, -0.10742491, 0.3357754, 76916.98, 214009.69, 0.00000003400916, 10.002021, 9.998807 
3.7510583e+2, 2.960138e+2, 100413.76, -114303.54, 28835.133, -0.048726644, 0.37068197, 104218.7, 143313.92, 0.0000008994765, 10.001587, 9.9987755 
3.7511724e+2, 3.0601126e+2, 72514.44, -139923.25, 88687.47, -0.11868187, 0.26604104, 104671.56, 104671.56, 0.000005653841, 10.0012455, 9.998432 
3.7513092e+2, 3.1600872e+2, 75661.47, -31753.074, 1150.5728, -0.021295255, 0.14975964, 75673.8, 75673.8, 0.000021891798, 10.000769, 9.999402 
3.8490713e+2, 1.2600777e+2, -1846887.8, -1727305.6, 41789.813, 0.20404658, 0.17805828, -1714149.1, -8994.601, 0.00012316402, 9.9988165, 10.000477 
3.849146e+2, 1.3601032e+2, -1663468.1, -1633209.1, 54.77448, -0.20574194, 0.41655755, -1633209.1, -26075.244, 0.000061385945, 9.999627, 10.000065 
3.8492617e+2, 1.4601049e+2, -1435110.8, -1401154.8, 40732.49, -0.25100744, 0.3922842, -1374003.5, 135129.63, 0.000022093489, 10.000217, 10.000684 
3.8494393e+2, 1.5601046e+2, -1315134.5, -1304955.8, -10314.458, 0.26189795, 0.3079117, -1298543.4, 112588.27, 0.000004863891, 10.000428, 10.00057 
3.8495708e+2, 1.6601144e+2, -1300889.4, -1283609.6, -23096.223, 0.3108738, 0.36851308, -1267590.1, 45533.133, 0.00000029520132, 9.999997, 10.0002575 
3.8496605e+2, 1.7601302e+2, -1327670.3, -1242372.0, -32927.14, -0.048434556, 0.47812468, -1231140.3, -16029.634, 0.0, 9.99913, 10.000283 
3.84978e+2, 1.8601365e+2, -1237090.6, -1159900.0, -28586.313, -0.12308399, 0.52323574, -1150466.4, -33359.918, 0.0, 9.999135, 10.000173 
3.849924e+2, 1.9601351e+2, -1056813.9, -1028420.44, -55429.113, 0.034454007, 0.470839, -985398.9, 33710.918, 0.0, 9.999718, 10.000126 
3.8500568e+2, 2.060134e+2, -929544.7, -963783.7, -60855.86, 0.0963395, 0.47507906, -883446.2, 37663.492, 0.0, 10.000128, 9.9997 
3.8501793e+2, 2.1601321e+2, -791231.1, -847574.2, -62843.82, 0.07229092, 0.46939227, -750533.4, 72574.914, 0.0, 10.000404, 9.999694 
3.8502932e+2, 2.2601199e+2, -750393.2, -803745.7, -75964.68, 0.019781692, 0.39530793, -696556.94, 28560.025, 0.0, 10.000135, 9.999445 
3.8504016e+2, 2.3601002e+2, -748921.06, -757944.4, -69746.99, -0.046922255, 0.23114805, -683539.94, -56406.79, 0.0, 9.999501, 9.999391 
3.8505125e+2, 2.4600913e+2, -626744.25, -739082.8, -60913.11, -0.06122142, 0.24946341, -600055.9, -70914.11, 0.0, 10.000055, 9.99858 
3.850624e+2, 2.5600883e+2, -342989.6, -564902.56, -45533.41, -0.046650592, 0.34552327, -334010.13, 97136.48, 0.0, 10.001383, 9.998466 
3.8507348e+2, 2.6600713e+2, -277242.9, -584167.3, 1877.2122, -0.06315461, 0.38235396, -277231.4, 55933.83, 0.0, 10.001606, 9.997551 
3.8508457e+2, 2.7600443e+2, -249182.58, -499385.88, 30346.928, -0.09002954, 0.33316094, -245554.44, -10360.8955, 0.0, 10.00104, 9.99773 
3.850962e+2, 2.8600302e+2, -42118.477, -214962.4, 15398.02, -0.058869287, 0.35773695, -40757.44, 96447.7, 0.000000026095549, 10.001213, 9.998933 
3.8510814e+2, 2.9600245e+2, 143250.27, -84422.21, -39411.4, 0.014761421, 0.3857211, 149879.58, 189085.78, 0.0000006696504, 10.001856, 9.998846 
3.8511923e+2, 3.0599952e+2, 174225.19, -139522.11, -13998.833, -0.08275206, 0.25948113, 174848.55, 174848.55, 0.0000049598348, 10.002141, 9.998001 
3.8513252e+2, 3.1599647e+2, 217996.84, -37639.668, -91869.445, 0.0063867033, 0.13215329, 247587.3, 247587.3, 0.000021460863, 10.002062, 9.998736 
3.9490598e+2, 1.2599845e+2, -1794398.4, -1608335.0, 34704.027, 0.16269751, 0.50213355, -1602072.8, 103178.52, 0.0001272644, 9.998795, 10.001301 
3.9491478e+2, 1.3599677e+2, -1595997.5, -1494292.4, 38386.016, -0.17113134, 0.20642543, -1481431.0, 125831.016, 0.00006380605, 9.999643, 10.00101 
3.9492565e+2, 1.4599662e+2, -1518088.6, -1573707.6, 44481.164, -0.34746036, 0.17064491, -1493439.1, 15824.974, 0.000023677207, 10.00021, 9.999508 
3.9494264e+2, 1.5599929e+2, -1383610.5, -1457155.3, 1660.1465, 0.06420926, 0.46835008, -1383573.1, 27669.67, 0.000005569423, 10.000465, 9.99951 
3.949559e+2, 1.6599931e+2, -1308933.8, -1294819.8, -67987.68, 0.17620376, 0.48893762, -1233523.8, 79719.22, 0.00000035120044, 9.999977, 10.000191 
3.9496547e+2, 1.7599763e+2, -1336533.1, -1254882.1, -54758.94, -0.035004653, 0.27903524, -1227404.9, -12147.591, 0.0, 9.999109, 10.000207 
3.9497805e+2, 1.8599756e+2, -1279587.3, -1234417.0, -12817.92, -0.04746794, 0.2816884, -1231033.1, -113774.14, 0.0, 9.999074, 9.999693 
3.9499316e+2, 1.9599843e+2, -1094292.0, -1089117.3, -28212.41, 0.121773034, 0.380633, -1063373.9, -44120.25, 0.0, 9.999648, 9.999742 
3.9500645e+2, 2.0599864e+2, -926332.0, -936268.94, -58207.047, 0.14582053, 0.4208195, -872881.75, 48369.992, 0.0, 10.00004, 9.99993 
3.9501816e+2, 2.1599837e+2, -788297.94, -813971.75, -47668.42, 0.04089303, 0.3804993, -751768.25, 71484.28, 0.0, 10.000293, 9.999974 
3.950294e+2, 2.2599839e+2, -731928.75, -747873.06, -106936.06, -0.0022673567, 0.39308184, -632668.06, 92582.88, 0.0, 10.000056, 9.99987 
3.9504018e+2, 2.3599842e+2, -728456.8, -699553.7, -78705.83, -0.008041201, 0.39399642, -633983.7, -6734.3457, 0.0, 9.999431, 9.999827 
3.95052e+2, 2.4599794e+2, -596916.06, -666295.25, -16182.2705, -0.009149931, 0.40519217, -593327.3, -64073.473, 0.0, 10.000009, 9.999104 
3.9506438e+2, 2.5599697e+2, -310515.6, -484681.63, 5037.8027, -0.0057247547, 0.3789556, -310370.0, 120893.55, 0.0, 10.001322, 9.999049 
3.9507604e+2, 2.6599562e+2, -217182.08, -445115.16, -25758.742, 0.014346387, 0.37020165, -214307.34, 118968.66, 0.0, 10.001547, 9.998534 
3.9508718e+2, 2.7599385e+2, -203100.02, -395509.66, 20254.473, 0.047584783, 0.3215447, -200991.0, 34300.863, 0.0, 10.001, 9.9984665 
3.950989e+2, 2.8599182e+2, -146463.86, -423322.28, 32338.234, 0.07461081, 0.32794157, -142736.78, -5424.736, 0.000000010243951, 10.001184, 9.997514 
3.9511093e+2, 2.9598966e+2, 39917.652, -279454.63, -7198.995, 0.09123373, 0.33999306, 40079.844, 79414.836, 0.00000051187845, 10.001775, 9.997545 
3.9512163e+2, 3.0598733e+2, 158996.56, -162414.23, -19358.299, -0.07260424, 0.34219033, 160158.3, 160158.3, 0.0000058228006, 10.002104, 9.997859 
3.9513448e+2, 3.1598592e+2, 164260.27, -134135.36, -65022.445, -0.038267564, 0.39497715, 177813.5, 177813.5, 0.00002601799, 10.002007, 9.998095 
4.0490365e+2, 1.2598598e+2, -1759615.5, -1618951.8, 20179.129, 0.049157254, 0.5405228, -1616114.3, 89261.02, 0.0001282802, 9.999137, 10.001063 
4.049156e+2, 1.3598436e+2, -1668689.9, -1524765.4, -54846.785, -0.019631496, 0.2400587, -1506247.0, 101137.89, 0.00006493345, 9.999116, 10.001055 
4.0492624e+2, 1.4598414e+2, -1669070.4, -1654152.5, -25427.582, -0.25312182, 0.19924295, -1635112.4, -125725.445, 0.00002457309, 9.999211, 9.9994335 
4.049417e+2, 1.5598632e+2, -1584538.5, -1567947.0, -6706.786, -0.00093184196, 0.45781645, -1565575.0, -154205.44, 0.000005781208, 9.999142, 9.999389 
4.049552e+2, 1.6598584e+2, -1389300.8, -1366094.5, -38993.09, 0.13568158, 0.44879714, -1337014.9, -23640.633, 0.0000003430959, 9.999571, 9.999893 
4.04966e+2, 1.7598364e+2, -1174845.5, -1209160.0, -62185.188, 0.050331656, 0.21670249, -1127494.0, 87898.836, 0.0, 10.000356, 9.99992 
4.0497863e+2, 1.8598339e+2, -1076469.3, -1138271.6, 10466.793, 0.040157378, 0.2151182, -1074744.8, 42650.22, 0.0, 10.000477, 9.999676 
4.049931e+2, 1.9598426e+2, -1028627.25, -1060456.1, 20172.54, 0.13058008, 0.31688383, -1018847.3, 540.58215, 0.0, 10.000111, 9.999719 
4.0500617e+2, 2.0598447e+2, -932620.2, -933037.7, 8628.563, 0.124302454, 0.35625997, -924197.9, -2811.4207, 0.0, 9.999973, 9.999983 
4.0501815e+2, 2.1598417e+2, -832494.5, -833134.75, -13851.1, 0.031687114, 0.3090487, -818959.8, 4429.638, 0.0, 9.999976, 9.999998 
4.0502968e+2, 2.2598457e+2, -736841.6, -733435.8, -95072.586, 0.033845622, 0.35152444, -640050.9, 85334.51, 0.0, 9.999955, 10.000014 
4.050409e+2, 2.3598532e+2, -644023.6, -644744.2, -97040.86, 0.098428965, 0.40825117, -547342.4, 80035.35, 0.0, 9.999944, 9.999958 
4.050529e+2, 2.4598499e+2, -548435.5, -612077.94, 2371.4646, 0.07864688, 0.41378623, -548347.25, -18966.64, 0.0, 10.000208, 9.999381 
4.0506542e+2, 2.559839e+2, -381896.28, -481691.75, -11983.721, 0.0048747617, 0.34662095, -380477.4, 50913.258, 0.0, 10.000688, 9.999369 
4.050774e+2, 2.659829e+2, -249985.14, -440793.63, -100658.664, 0.016103784, 0.3480642, -206702.19, 126697.58, 0.0, 10.001229, 9.998719 
4.0508893e+2, 2.7598178e+2, -80113.516, -322679.3, -123215.516, 0.09046608, 0.34441215, -28504.523, 206905.9, 0.0, 10.001783, 9.998591 
4.0510094e+2, 2.8597978e+2, -66126.53, -416013.63, -63817.55, 0.13481013, 0.36146984, -54849.984, 82581.74, 0.0000000008315615, 10.001862, 9.997239 
4.051133e+2, 2.9597712e+2, 4001.9841, -319787.9, -34718.01, 0.16525564, 0.35092375, 7682.7427, 47143.2, 0.00000071034475, 10.001617, 9.997341 
4.0512407e+2, 3.059752e+2, 181562.27, -142256.44, 29433.613, -0.03863733, 0.39563313, 184215.89, 184215.89, 0.0000094188645, 10.002212, 9.9979515 
4.051376e+2, 3.159731e+2, 350046.75, -61481.86, -18192.1, 0.016139222, 0.37715754, 350849.38, 350849.38, 0.00003801625, 10.00333, 9.997968 
4.148998e+2, 1.2597013e+2, -1845780.4, -1806350.5, -45025.223, -0.29716292, 0.26685634, -1776913.1, -71384.93, 0.0001259659, 9.999172, 9.999756 
4.1491672e+2, 1.3597322e+2, -1716599.3, -1639686.6, -46549.54, 0.16300824, 0.5360937, -1617762.9, -10261.731, 0.00006410072, 9.999168, 10.000242 
4.1492766e+2, 1.459731e+2, -1596985.6, -1501623.8, -32406.248, -0.054320294, 0.4836953, -1491653.8, 17847.668, 0.00002430965, 9.999207, 10.000483 
4.1494107e+2, 1.5597163e+2, -1523362.8, -1433544.6, 2397.501, 0.0018454012, 0.27279773, -1433480.8, -21968.959, 0.0000053776803, 9.999117, 10.00032 
4.149548e+2, 1.6597101e+2, -1438482.6, -1457927.4, -15754.762, 0.12001247, 0.24043493, -1429691.9, -116175.14, 0.0000002359893, 9.999524, 9.999286 
4.149674e+2, 1.7597112e+2, -1210063.4, -1281587.0, -28173.09, 0.13325235, 0.29826462, -1200299.0, 15217.365, 0.0, 10.00035, 9.999425 
4.149795e+2, 1.8597117e+2, -1051064.8, -1075367.1, -10624.316, 0.06011028, 0.32622856, -1047075.06, 70439.055, 0.0, 10.000437, 10.000125 
4.1499186e+2, 1.9597106e+2, -1008759.75, -1003057.06, 13281.444, -0.018603718, 0.28144035, -992324.3, 27187.691, 0.0, 10.00005, 10.000137 
4.1500467e+2, 2.0597093e+2, -956517.25, -968730.7, 1791.8147, -0.034820665, 0.2795178, -956259.8, -34746.3, 0.0, 9.999904, 9.999778 
4.1501763e+2, 2.1597071e+2, -857091.44, -864252.6, -8405.377, -0.032224014, 0.25961953, -851535.75, -28017.17, 0.0, 9.999889, 9.999826 
4.1502997e+2, 2.2597066e+2, -761830.4, -765852.1, -101523.09, 0.053046297, 0.27615055, -662298.2, 63221.348, 0.0, 9.99987, 9.999834 
4.1504195e+2, 2.3597068e+2, -662991.25, -669347.4, -88303.9, 0.1946011, 0.27394256, -577808.25, 49710.29, 0.0, 9.99988, 9.99982 
4.1505373e+2, 2.4597031e+2, -548278.44, -604838.0, 13759.297, 0.12334042, 0.27789363, -545108.8, -15587.275, 0.0, 10.000178, 9.999443 
4.150653e+2, 2.5596955e+2, -388283.4, -484921.94, 13826.71, -0.095451266, 0.23820159, -386344.06, 45184.516, 0.0, 10.00064, 9.99937 
4.1507733e+2, 2.6596892e+2, -292270.56, -522241.3, -85197.016, -0.1275973, 0.30766582, -264147.0, 69390.05, 0.0, 10.001205, 9.998169 
4.1508964e+2, 2.7596828e+2, -118261.74, -389071.75, -95990.195, -0.03790998, 0.40666524, -87688.94, 147858.88, 0.0, 10.001729, 9.99816 
4.1510218e+2, 2.8596684e+2, -7131.552, -296138.4, -80552.16, 0.048938744, 0.45652357, 13803.5, 151366.83, 0.00000000001177225, 10.001864, 9.998065 
4.1511494e+2, 2.9596478e+2, 54911.914, -207730.72, -32771.33, 0.14327233, 0.41817802, 58939.215, 98522.31, 0.0000013022876, 10.001582, 9.998131 
4.1512623e+2, 3.059631e+2, 205828.11, -85424.58, 67067.84, -0.062104948, 0.4294302, 220529.94, 220529.94, 0.000014524035, 10.002196, 9.998344 
4.1514128e+2, 3.1595853e+2, 365408.53, 404.91626, 36524.773, 0.012704651, 0.11811036, 369027.56, 369027.56, 0.000053920798, 10.003217, 9.99844 
4.248994e+2, 1.2595642e+2, -1890180.1, -1819644.5, -79169.98, -0.22772032, 0.21333201, -1768242.3, -62580.164, 0.000120138786, 9.998811, 9.999848 
4.2491603e+2, 1.359604e+2, -1711259.9, -1622047.8, 43505.06, 0.18323381, 0.5529552, -1604345.0, 3282.145, 0.00006079175, 9.999126, 10.000389 
4.2492726e+2, 1.459606e+2, -1526010.4, -1472362.9, 57627.28, -0.03289272, 0.5276238, -1435622.4, 74001.92, 0.00002257458, 9.999708, 10.000443 
4.2494154e+2, 1.5595834e+2, -1396830.8, -1375908.3, -14438.308, 0.09890957, 0.24091986, -1368539.8, 43102.37, 0.0000044461326, 10.000001, 10.000291 
4.2495528e+2, 1.6595794e+2, -1345098.6, -1410621.4, -7988.4404, 0.19235818, 0.23324744, -1344138.8, -30493.855, 0.00000009724189, 10.000156, 9.999306 
4.249674e+2, 1.759589e+2, -1218937.3, -1282728.1, 9033.447, 0.10771946, 0.37558147, -1217682.8, -2045.9049, 0.0, 10.000277, 9.999455 
4.2497927e+2, 1.8595879e+2, -1113822.9, -1091511.4, 9437.36, 0.024695884, 0.3759059, -1088055.0, 29580.148, 0.0, 9.999942, 10.000254 
4.2499158e+2, 1.9595772e+2, -1115696.9, -1044629.06, -1332.7614, -0.005281176, 0.22502804, -1044604.1, -24964.19, 0.0, 9.999265, 10.000231 
4.2500442e+2, 2.059577e+2, -1063229.0, -1016661.06, 22769.44, -0.00957324, 0.22581138, -1007378.3, -85738.07, 0.0, 9.999164, 9.999798 
4.2501736e+2, 2.159583e+2, -920904.7, -896240.9, 16122.904, -0.020445915, 0.28721607, -888274.4, -64635.7, 0.0, 9.99946, 9.999811 
4.2503e+2, 2.2595806e+2, -714760.3, -757855.8, -43386.25, 0.054350585, 0.2920255, -687865.6, 37776.117, 0.0, 10.000258, 9.9997015 
4.2504248e+2, 2.3595724e+2, -457952.03, -586048.0, -44948.5, 0.18819106, 0.21974014, -443753.53, 183894.75, 0.0, 10.00136, 9.999678 
4.2505464e+2, 2.459568e+2, -355394.44, -541791.1, 39411.254, 0.12768728, 0.2375654, -347403.97, 182248.7, 0.0, 10.00163, 9.999179 
4.2506656e+2, 2.5595644e+2, -304261.38, -475837.47, 1750.8884, -0.063323215, 0.26683366, -304243.53, 127413.72, 0.0, 10.001347, 9.999095 
4.2507878e+2, 2.6595566e+2, -297041.4, -554025.5, -73502.9, -0.104389906, 0.34622863, -277503.44, 56165.418, 0.0, 10.001301, 9.997909 
4.2509112e+2, 2.7595446e+2, -174232.66, -434380.84, -78407.945, -0.04010668, 0.41635713, -152428.25, 83258.02, 0.0, 10.001431, 9.997992 
4.2510396e+2, 2.85953e+2, 5451.8174, -245957.77, -65379.977, 0.053253826, 0.4459999, 21437.66, 159139.53, 0.0000000012455732, 10.00177, 9.99845 
4.251172e+2, 2.9595107e+2, 174169.58, -112245.836, -64597.55, 0.18564871, 0.3910161, 188064.67, 227782.64, 0.0000019825331, 10.00224, 9.998471 
4.2512888e+2, 3.0595013e+2, 229234.84, -95942.445, 29885.52, -0.01889146, 0.4714483, 231958.67, 231958.67, 0.000019596095, 10.002447, 9.998157 
4.2514485e+2, 3.1594545e+2, 269874.9, -11686.754, -85456.195, 0.09816225, 0.16568196, 293781.7, 293781.7, 0.00006922057, 10.002417, 9.998744 
4.3490207e+2, 1.2594502e+2, -1788967.1, -1592783.1, -142795.33, 0.11823424, 0.3926818, -1517633.9, 188141.58, 0.000112459136, 9.99877, 10.001414 
4.349133e+2, 1.3594592e+2, -1626886.9, -1448817.8, 71710.52, -0.022970602, 0.2833732, -1423530.3, 184232.0, 0.000055857796, 9.999142, 10.00157 
4.349248e+2, 1.4594653e+2, -1614946.3, -1653327.3, 68710.77, -0.27343434, 0.3138115, -1562796.4, -53039.934, 0.000019900395, 9.99969, 9.999213 
4.349428e+2, 1.5594643e+2, -1464396.4, -1525049.0, 4345.405, 0.20291612, 0.3620323, -1464086.6, -52325.918, 0.0000034951138, 10.000031, 9.999257 
4.3495643e+2, 1.6594662e+2, -1301417.1, -1313174.1, -12359.019, 0.27030006, 0.4216397, -1293609.8, 20149.826, 0.000000032016867, 10.000133, 9.999983 
4.349658e+2, 1.7594706e+2, -1180756.9, -1197936.4, 18500.79, -0.097827494, 0.44509324, -1168949.0, 46805.043, 0.0, 10.000254, 10.000048 
4.3497768e+2, 1.8594621e+2, -1138384.8, -1126916.9, -22229.77, -0.14318673, 0.35835192, -1109693.5, 8064.9165, 0.0, 9.999877, 10.000042 
4.3499205e+2, 1.9594434e+2, -1135845.4, -1072090.8, -16879.25, 0.095671706, 0.14643241, -1067897.6, -48126.67, 0.0, 9.999207, 10.00007 
4.3500513e+2, 2.0594487e+2, -1061216.6, -992968.75, 26312.26, 0.12973037, 0.19961363, -984002.3, -62236.43, 0.0, 9.99908, 10.0 
4.3501714e+2, 2.1594697e+2, -918797.0, -876003.2, 36168.184, -0.0049596536, 0.39028114, -855376.7, -31627.19, 0.0, 9.999392, 9.999981 
4.350295e+2, 2.2594684e+2, -740784.4, -786462.1, -9586.544, -0.033416186, 0.40500733, -738854.0, -13102.834, 0.0, 10.000152, 9.999557 
4.350422e+2, 2.35945e+2, -483089.97, -616867.2, -2232.9858, 0.011586739, 0.2473725, -483052.72, 144713.92, 0.0, 10.001269, 9.999509 
4.3505538e+2, 2.4594443e+2, -407863.7, -639251.25, 21141.584, 0.028337803, 0.29531553, -405947.88, 123825.91, 0.0, 10.001578, 9.998535 
4.350689e+2, 2.559446e+2, -353376.16, -564128.2, -1206.0278, 0.020808138, 0.43788964, -353369.25, 78407.055, 0.0, 10.0012865, 9.998518 
4.350814e+2, 2.6594308e+2, -296405.5, -549065.8, -75714.12, 0.011965653, 0.46847472, -275453.8, 58341.05, 0.0, 10.001283, 9.9979515 
4.350931e+2, 2.7594027e+2, -175937.64, -430984.88, -64693.59, -0.0023765257, 0.37109926, -160466.39, 75359.625, 0.0, 10.001394, 9.998035 
4.3510604e+2, 2.8593808e+2, -1363.1654, -253003.98, -53427.008, 0.067887306, 0.32948837, 9510.319, 147357.84, 0.000000012355592, 10.001744, 9.998412 
4.3511987e+2, 2.9593617e+2, 157809.36, -137322.19, -39601.035, 0.20977928, 0.2759603, 163030.69, 202894.61, 0.0000027659546, 10.002202, 9.998321 
4.351318e+2, 3.059364e+2, 177049.77, -206572.38, 25312.027, 0.0085477745, 0.5246698, 178712.69, 178712.69, 0.000024042205, 10.002449, 9.997396 
4.3514776e+2, 3.1593367e+2, 266142.1, -7397.163, -78610.73, 0.10854332, 0.49185097, 287124.1, 287124.1, 0.00008111006, 10.002363, 9.998799 
4.449014e+2, 1.259321e+2, -1837301.6, -1580125.6, -156313.03, 0.2088733, 0.4114991, -1506306.5, 199595.02, 0.00010599228, 9.998304, 10.0017185 
4.4491243e+2, 1.3593283e+2, -1659157.9, -1448925.9, -7446.287, 0.0014229134, 0.2708468, -1448662.4, 159227.42, 0.00005101591, 9.998872, 10.0016985 
4.449245e+2, 1.4593364e+2, -1660187.3, -1684213.4, 12662.377, -0.252839, 0.32165498, -1654746.1, -144864.22, 0.000017295639, 9.999414, 9.999134 
4.4494227e+2, 1.5593351e+2, -1533569.6, -1559280.6, 10870.407, 0.17726032, 0.37167045, -1529589.8, -117703.65, 0.0000027656245, 9.999562, 9.999245 
4.4495586e+2, 1.6593367e+2, -1378981.9, -1326314.5, 19373.527, 0.23725384, 0.4140622, -1319955.8, -6070.5054, 0.000000035556127, 9.999483, 10.000213 
4.449654e+2, 1.7593409e+2, -1308964.6, -1235157.6, 3692.21, -0.10934383, 0.41240573, -1234973.4, -19093.383, 0.0, 9.99927, 10.000263 
4.449774e+2, 1.8593359e+2, -1197881.8, -1161745.9, -30044.371, -0.13297355, 0.35307524, -1144755.1, -26873.543, 0.0, 9.999493, 9.999989 
4.449919e+2, 1.9593225e+2, -1029334.56, -1028433.75, -28512.674, 0.12924172, 0.20134088, -1000367.94, 19522.05, 0.0, 9.999968, 10.000003 
4.4500497e+2, 2.0593242e+2, -946419.44, -958963.8, 17442.865, 0.16881216, 0.23097052, -934155.4, -12267.253, 0.0, 9.999969, 9.999802 
4.4501695e+2, 2.1593352e+2, -903354.2, -891115.6, -13551.402, 0.028851103, 0.3440459, -882365.94, -58485.76, 0.0, 9.999602, 9.999776 
4.4502947e+2, 2.2593322e+2, -771739.56, -820976.06, -23128.479, -0.03884631, 0.36174142, -762579.3, -36696.176, 0.0, 10.000015, 9.999382 
4.450426e+2, 2.3593183e+2, -544203.94, -669587.6, -38104.2, -0.052958664, 0.26361614, -533532.3, 94362.81, 0.0, 10.000942, 9.999305 
4.450564e+2, 2.4593112e+2, -499947.28, -709914.5, -32457.922, 0.0007702434, 0.3193779, -495044.25, 34859.965, 0.0, 10.001056, 9.998301 
4.4507056e+2, 2.5593078e+2, -465636.94, -638891.1, -36285.445, 0.09546069, 0.43326715, -458344.47, -26432.008, 0.0, 10.000605, 9.998332 
4.4508323e+2, 2.659294e+2, -358152.75, -540258.6, -49533.14, 0.10165824, 0.46858814, -345551.6, -11622.359, 0.0, 10.000693, 9.998292 
4.4509488e+2, 2.7592722e+2, -186453.17, -406772.03, -29195.318, 0.049782682, 0.4014209, -182650.05, 53303.25, 0.0, 10.001196, 9.998295 
4.4510776e+2, 2.8592482e+2, -31351.354, -311429.13, -5414.71, 0.07165847, 0.35043958, -31246.709, 106730.305, 0.00000003062236, 10.001728, 9.998016 
4.4512156e+2, 2.959222e+2, 137403.31, -177870.48, -38414.4, 0.16031429, 0.25846592, 142016.4, 182018.22, 0.0000032981313, 10.00221, 9.998027 
4.451338e+2, 3.0592206e+2, 151293.23, -209913.02, 50352.563, -0.012564805, 0.47745648, 158181.1, 158181.1, 0.000027025699, 10.00223, 9.997478 
4.4515064e+2, 3.1592014e+2, 234582.45, 45664.406, -34064.273, 0.19398649, 0.51665473, 240536.98, 240536.98, 0.00008860118, 10.001843, 9.999411 
4.5489672e+2, 1.2591746e+2, -1907416.6, -1725120.4, -209419.36, -0.1361586, 0.24961494, -1587873.1, 118168.836, 0.00010140695, 9.998314, 10.000713 
4.549131e+2, 1.35921e+2, -1725836.4, -1595099.6, 24267.342, 0.16447046, 0.50758725, -1590740.5, 17270.867, 0.00004730018, 9.9989, 10.000684 
4.549261e+2, 1.4592181e+2, -1580232.6, -1515149.6, 17234.334, -0.05443721, 0.54273087, -1510867.5, -865.51447, 0.000015080613, 9.999404, 10.000298 
4.549397e+2, 1.5591964e+2, -1460889.1, -1406952.1, 24797.367, -0.057381496, 0.272877, -1397284.5, 14733.269, 0.0000021144335, 9.99956, 10.00029 
4.5495334e+2, 1.6591914e+2, -1391650.8, -1353955.0, 1474.6995, 0.01567428, 0.2135059, -1353897.5, -39876.055, 0.00000004449902, 9.99948, 10.000028 
4.5496598e+2, 1.7591995e+2, -1317332.8, -1258591.6, 4656.0205, 0.0038444495, 0.26890454, -1258224.8, -42209.71, 0.0, 9.999285, 10.000101 
4.5497826e+2, 1.8592085e+2, -1200926.4, -1152029.0, -18222.004, -0.01230495, 0.35135305, -1145985.4, -27979.832, 0.0, 9.999431, 10.000082 
4.5499092e+2, 1.9592151e+2, -1038455.0, -1031128.75, -6778.1094, 0.02018368, 0.39117, -1027087.25, -7090.697, 0.0, 9.999903, 10.000012 
4.550037e+2, 2.0592037e+2, -1002516.3, -1054133.0, -5227.796, 0.031200007, 0.32400998, -1001992.1, -79985.48, 0.0, 9.999875, 9.999194 
4.550164e+2, 2.1591793e+2, -955322.44, -976507.56, -15046.5, 0.0055078124, 0.14183365, -947513.94, -123483.36, 0.0, 9.999505, 9.999236 
4.5502973e+2, 2.2591726e+2, -801745.6, -861722.44, 6822.1665, -0.033865485, 0.1586619, -800979.4, -74942.0, 0.0, 9.999921, 9.999151 
4.5504346e+2, 2.3591769e+2, -566436.0, -700155.7, 204.06363, -0.080374755, 0.26685473, -566435.7, 61597.88, 0.0, 10.000874, 9.999128 
4.5505732e+2, 2.4591686e+2, -496749.94, -688019.4, -57013.44, -0.027190132, 0.30820283, -481044.94, 48998.883, 0.0, 10.000994, 9.998482 
4.5507127e+2, 2.5591502e+2, -457651.25, -607130.8, -43168.55, 0.09015592, 0.25464162, -446080.2, -14015.027, 0.0, 10.000539, 9.998584 
4.5508412e+2, 2.6591468e+2, -321521.78, -456278.4, -35479.254, 0.105973735, 0.34819505, -312751.47, 21320.074, 0.0, 10.000661, 9.998884 
4.550962e+2, 2.759153e+2, -161438.11, -344936.22, -1482.982, 0.04338416, 0.50018954, -161426.13, 74642.516, 0.0, 10.001152, 9.99874 
4.551089e+2, 2.8591323e+2, -87296.1, -420751.03, 6627.4346, -0.0051154555, 0.5040466, -87164.43, 50925.99, 0.000000022691747, 10.001694, 9.997286 
4.5512205e+2, 2.9590908e+2, 95347.914, -258284.9, -13143.274, -0.033395544, 0.33878964, 95835.73, 135967.39, 0.0000033719941, 10.002166, 9.997503 
4.551349e+2, 3.05907e+2, 212797.6, -75458.45, 34698.086, -0.1453961, 0.33078903, 216915.45, 216915.45, 0.000028147611, 10.002212, 9.998404 
4.551531e+2, 3.1590477e+2, 306307.88, 206541.16, -50259.055, 0.21799786, 0.24405546, 327236.4, 327236.4, 0.00009108323, 10.001799, 10.000537 
4.6489418e+2, 1.2590401e+2, -2054694.5, -1838612.5, -194412.94, -0.1755034, 0.20019558, -1724236.8, -18065.975, 0.000096649455, 9.99746, 10.00035 
4.649128e+2, 1.3590726e+2, -1744071.3, -1661279.9, 107755.164, 0.24754895, 0.4800269, -1587242.5, 20902.807, 0.00004344866, 9.998993, 10.000195 
4.6492723e+2, 1.4590798e+2, -1519754.8, -1439860.0, 71872.03, 0.10924609, 0.5089039, -1397579.8, 112556.75, 0.000012657647, 9.999617, 10.000713 
4.649388e+2, 1.5590607e+2, -1452643.4, -1361549.1, 1332.9417, -0.091950364, 0.22049762, -1361529.6, 50618.3, 0.0000014631825, 9.999433, 10.000667 
4.6495202e+2, 1.6590574e+2, -1440766.6, -1396228.6, -30430.605, -0.046284877, 0.16987929, -1380789.1, -66639.09, 0.000000030371112, 9.999246, 9.999842 
4.6496573e+2, 1.7590657e+2, -1351382.9, -1294196.0, -42457.23, 0.06292272, 0.24657112, -1271601.5, -55456.492, 0.0, 9.999147, 9.999919 
4.6497846e+2, 1.8590736e+2, -1179494.6, -1146512.1, -29763.418, 0.058696438, 0.32822785, -1128976.6, -10839.616, 0.0, 9.999591, 10.000045 
4.6499094e+2, 1.9590786e+2, -973890.4, -1008243.2, -39174.76, 0.012627085, 0.35787827, -948291.94, 71837.3, 0.0, 10.000371, 9.999951 
4.650038e+2, 2.0590678e+2, -858101.94, -1002232.8, -27600.48, 0.0014843328, 0.30634424, -852997.4, 69141.766, 0.0, 10.000934, 9.999043 
4.650167e+2, 2.1590452e+2, -701648.44, -873974.94, -20939.357, -0.00308011, 0.15728398, -699140.6, 125021.47, 0.0, 10.001325, 9.9990635 
4.6503034e+2, 2.2590387e+2, -642632.2, -796852.25, 36211.984, -0.016972017, 0.1896248, -634552.6, 91616.68, 0.0, 10.001073, 9.999037 
4.650445e+2, 2.3590417e+2, -642854.0, -748956.06, 23295.88, -0.03365773, 0.29750827, -637964.44, -9797.332, 0.0, 10.000405, 9.999019 
4.650584e+2, 2.4590293e+2, -559695.9, -702116.1, -20098.05, 0.00924294, 0.2950909, -556914.0, -26733.941, 0.0, 10.000487, 9.99863 
4.6507204e+2, 2.559005e+2, -367634.53, -553513.9, -21306.1, 0.08973105, 0.1680499, -365223.63, 66980.984, 0.0, 10.001109, 9.998677 
4.65085e+2, 2.6590016e+2, -208077.11, -444223.97, -33598.176, 0.08259703, 0.28031018, -203389.9, 130821.21, 0.0, 10.001615, 9.998512 
4.650974e+2, 2.7590123e+2, -60640.242, -328975.97, -88297.87, 0.011696761, 0.51300734, -34192.016, 202014.48, 0.0, 10.001983, 9.998454 
4.6511066e+2, 2.8589967e+2, -54218.754, -346102.22, -56783.75, 0.00870017, 0.54913926, -43561.05, 94662.98, 0.00000001636591, 10.001658, 9.997821 
4.6512455e+2, 2.958961e+2, -52512.43, -270251.53, 1226.6891, 0.072523735, 0.38856924, -52505.52, -12247.07, 0.0000038591365, 10.000894, 9.998034 
4.651376e+2, 3.0589345e+2, 112743.84, -130760.29, 84181.03, -0.053666934, 0.30402994, 139012.08, 139012.08, 0.00002953643, 10.001549, 9.998354 
4.6515495e+2, 3.1589127e+2, 455981.88, 255089.77, -123479.0, 0.17327672, 0.23221666, 514710.16, 514710.16, 0.00009247593, 10.002934, 10.000331 
4.7489297e+2, 1.2589177e+2, -2034924.9, -1779059.8, -189902.75, -0.08367803, 0.27174512, -1678016.8, 28271.068, 0.000091564856, 9.997403, 10.000773 
4.7491127e+2, 1.3589165e+2, -1736722.5, -1637568.9, 171996.34, 0.17688143, 0.19273534, -1508146.8, 100144.24, 0.000038474074, 9.998975, 10.000356 
4.7492757e+2, 1.4589223e+2, -1541501.8, -1489356.9, 60637.043, 0.15771039, 0.21976314, -1449424.6, 60860.18, 0.000009911169, 9.999622, 10.000378 
4.7493923e+2, 1.5589283e+2, -1467803.9, -1401014.4, 2560.5933, -0.013287675, 0.21430723, -1400916.4, 11360.202, 0.0000009593812, 9.999459, 10.000387 
4.7495168e+2, 1.6589345e+2, -1457688.8, -1428706.0, -42668.45, -0.023010526, 0.28244516, -1398135.3, -83863.72, 0.000000014696447, 9.999231, 9.999627 
4.749644e+2, 1.7589387e+2, -1367513.6, -1326310.1, -35078.06, -0.0017675221, 0.34262818, -1306231.4, -89960.88, 0.0, 9.999142, 9.9997015 
4.7497764e+2, 1.858931e+2, -1193190.8, -1163105.5, -5969.553, 0.0020817933, 0.28266826, -1161964.4, -43687.984, 0.0, 9.999539, 9.999958 
4.7499165e+2, 1.9589135e+2, -982268.06, -1018276.0, -3205.1487, 0.029533599, 0.096316226, -981985.0, 38303.066, 0.0, 10.000335, 9.999903 
4.750049e+2, 2.058917e+2, -851366.25, -971024.06, -19100.543, 0.0069409944, 0.1755312, -848391.25, 73894.17, 0.0, 10.000861, 9.999291 
4.7501752e+2, 2.1589334e+2, -697616.0, -847310.56, -3426.2146, -0.0682693, 0.3949147, -697537.6, 126736.5, 0.0, 10.0012455, 9.999285 
4.750311e+2, 2.2589304e+2, -652899.9, -803849.75, 4188.4966, -0.062457755, 0.451952, -652783.75, 73495.25, 0.0, 10.001005, 9.999026 
4.750455e+2, 2.3589124e+2, -654795.9, -754094.75, 9937.574, 0.0130478265, 0.35178256, -653811.1, -25515.086, 0.0, 10.000318, 9.999028 
4.7505933e+2, 2.4588929e+2, -559821.5, -691020.06, -2109.815, 0.038675632, 0.27459973, -559787.56, -29474.338, 0.0, 10.000436, 9.998732 
4.7507262e+2, 2.5588715e+2, -378360.9, -568315.06, 9274.134, 0.02147015, 0.16569215, -377909.2, 54422.617, 0.0, 10.001067, 9.9986 
4.7508556e+2, 2.658859e+2, -305794.94, -637113.25, -24010.584, -0.03540461, 0.25839534, -304063.94, 30284.814, 0.0, 10.001574, 9.997206 
4.7509822e+2, 2.7588508e+2, -139690.75, -479622.28, -68268.4, -0.12129036, 0.43778765, -126492.836, 109873.7, 0.0, 10.001926, 9.997444 
4.7511283e+2, 2.858841e+2, 64707.7, -95595.44, -93311.45, 0.041043628, 0.4853383, 107565.49, 245943.1, 0.0000000367379, 10.00164, 9.999551 
4.751287e+2, 2.9588306e+2, 43292.99, -64920.297, -11888.518, 0.37918603, 0.39741227, 44583.688, 84967.586, 0.000004901276, 10.000852, 9.999469 
4.751416e+2, 3.0588126e+2, 34245.94, -276401.38, 133361.13, 0.17754494, 0.38574836, 83643.14, 83643.14, 0.000032485186, 10.001479, 9.997385 
4.7515577e+2, 3.158793e+2, 344564.72, 34994.953, -67140.266, -0.07838262, 0.43938324, 358499.06, 358499.06, 0.000096372605, 10.002883, 9.998843 
4.8489258e+2, 1.2587902e+2, -1941787.6, -1691604.0, -162498.81, 0.12277024, 0.31848168, -1611625.5, 94788.11, 0.00008660855, 9.9978485, 10.001166 
4.8490873e+2, 1.3587813e+2, -1766959.4, -1623764.1, 190460.89, 0.04972188, 0.13108175, -1491888.0, 116532.766, 0.000032757685, 9.998618, 10.000637 
4.8492667e+2, 1.4587861e+2, -1666428.3, -1572229.8, 68105.83, 0.14955455, 0.1485877, -1536523.5, -26107.719, 0.000007215262, 9.998881, 10.000156 
4.8493904e+2, 1.5588012e+2, -1568366.8, -1472941.0, -6049.605, 0.056188773, 0.25537315, -1472559.0, -60156.906, 0.00000059770906, 9.998881, 10.000167 
4.849515e+2, 1.6588075e+2, -1402835.5, -1402810.0, -357.45648, 0.023490842, 0.33430743, -1402465.1, -88067.75, 0.0000000048834687, 9.99961, 9.999623 
4.849642e+2, 1.7588054e+2, -1116828.3, -1207351.6, 11580.705, -0.018762283, 0.33053556, -1115370.1, 101030.81, 0.0, 10.000874, 9.99968 
4.8497775e+2, 1.8587941e+2, -977655.2, -1078026.3, 41804.75, -0.013412039, 0.24613878, -962524.4, 155884.92, 0.0, 10.001098, 9.999787 
4.849922e+2, 1.9587761e+2, -966389.8, -1026367.9, 26202.564, 0.0481331, 0.06602817, -956555.3, 63866.2, 0.0, 10.000521, 9.999749 
4.850055e+2, 2.0587793e+2, -966216.56, -1057633.8, -474.97037, 0.017785968, 0.16661853, -966214.1, -43794.57, 0.0, 10.000206, 9.999018 
4.85018e+2, 2.1587957e+2, -888486.8, -965606.3, -32906.152, -0.0827412, 0.4127447, -876354.7, -51945.14, 0.0, 10.000051, 9.99905 
4.850316e+2, 2.258792e+2, -787768.3, -864705.75, -41389.176, -0.060826473, 0.47245157, -769731.25, -43316.145, 0.0, 10.000062, 9.999063 
4.8504615e+2, 2.358773e+2, -671722.06, -760963.94, -42118.734, 0.05551497, 0.35700387, -654983.25, -26550.475, 0.0, 10.000195, 9.999039 
4.8506027e+2, 2.4587548e+2, -508164.38, -686987.0, -11994.06, 0.073208414, 0.30020034, -507363.5, 23085.563, 0.0, 10.000883, 9.998541 
4.8507404e+2, 2.5587362e+2, -259552.48, -524060.84, -40879.953, 0.017435804, 0.23929928, -253378.56, 179086.83, 0.0, 10.001953, 9.998469 
4.8508728e+2, 2.6587185e+2, -252439.33, -582829.7, -41187.293, -0.02990128, 0.27466828, -247382.22, 87103.33, 0.0, 10.001821, 9.997457 
4.8510018e+2, 2.7586994e+2, -279826.4, -523363.22, 17547.27, -0.05884717, 0.31864312, -278568.6, -42057.73, 0.0, 10.000858, 9.997659 
4.8511475e+2, 2.858691e+2, -46142.965, -164110.77, -14344.903, 0.10901566, 0.37583745, -44423.68, 94097.65, 0.00000008825205, 10.000947, 9.999411 
4.851303e+2, 2.958692e+2, 157687.02, -25822.572, -88348.086, 0.414556, 0.42311642, 193306.97, 233826.23, 0.0000056074396, 10.001719, 9.999313 
4.8514363e+2, 3.0586797e+2, 77573.58, -252859.16, 76929.76, 0.23107794, 0.47549197, 94606.04, 94606.04, 0.000034672463, 10.001758, 9.997402 
4.851577e+2, 3.1586578e+2, 75507.52, -115975.07, -84538.69, -0.07407042, 0.4977896, 107489.305, 107489.305, 0.000099448036, 10.001122, 9.998641 
4.9489233e+2, 1.2586574e+2, -1913433.3, -1636058.4, -156676.5, 0.267489, 0.3432554, -1565505.0, 141043.5, 0.00007902746, 9.99787, 10.0015335 
4.9490476e+2, 1.3586682e+2, -1736595.8, -1557510.4, 222657.27, -0.22550611, 0.30041853, -1407065.3, 201468.11, 0.000026309019, 9.998611, 10.001091 
4.9492416e+2, 1.4586729e+2, -1684563.5, -1604730.1, 59022.13, -0.013134913, 0.3064051, -1573394.0, -62865.574, 0.0000047383246, 9.9988575, 9.999946 
4.9493793e+2, 1.5586798e+2, -1582181.1, -1499317.5, 4201.3896, 0.038201965, 0.35267377, -1499105.0, -86580.875, 0.0000002991547, 9.998873, 9.999989 
4.949513e+2, 1.6586769e+2, -1388663.4, -1367385.4, 39560.453, 0.02119797, 0.3349333, -1337058.4, -22531.389, 0.0000000005507737, 9.999582, 9.99988 
4.9496487e+2, 1.7586653e+2, -1102395.8, -1175795.0, 60206.035, -0.055906672, 0.21041225, -1068585.6, 147950.78, 0.0, 10.000867, 9.999899 
4.9497858e+2, 1.858663e+2, -1000906.75, -1115815.6, 12464.871, -0.058001816, 0.21697797, -999570.1, 118965.914, 0.0, 10.001052, 9.999552 
4.949924e+2, 1.9586654e+2, -990208.94, -1068671.3, 9396.345, -0.002616368, 0.26686934, -989099.4, 31430.918, 0.0, 10.000484, 9.999479 
4.9500534e+2, 2.0586547e+2, -1025042.7, -1163653.4, -14092.964, -0.030561944, 0.2777936, -1023624.3, -101082.39, 0.0, 10.000133, 9.998329 
4.9501783e+2, 2.1586336e+2, -941955.6, -1063363.8, -30195.297, -0.116807126, 0.21511434, -934860.44, -110293.22, 0.0, 9.999984, 9.998418 
4.9503154e+2, 2.2586241e+2, -797932.06, -866172.5, -41297.785, -0.088027574, 0.24555501, -778482.75, -51904.914, 0.0, 9.999981, 9.999089 
4.9504614e+2, 2.3586226e+2, -684388.44, -768224.44, -26769.545, 0.020741457, 0.30315366, -676569.8, -47991.305, 0.0, 10.0001135, 9.999028 
4.9506098e+2, 2.458614e+2, -545182.5, -755984.44, 23523.402, 0.038210303, 0.36653167, -542589.4, -12001.325, 0.0, 10.000849, 9.998085 
4.9507594e+2, 2.5585982e+2, -286563.6, -567626.44, 766.80756, -0.0083277235, 0.38289896, -286561.5, 146044.2, 0.0, 10.001896, 9.998199 
4.950898e+2, 2.6585793e+2, -135599.36, -328364.38, -85313.76, 0.02381114, 0.32333234, -103265.02, 231357.55, 0.0, 10.001771, 9.999227 
4.951029e+2, 2.758557e+2, -189512.64, -318162.22, -5168.72, 0.10718749, 0.15165433, -189305.31, 47335.47, 0.0, 10.000785, 9.999102 
4.9511608e+2, 2.8585464e+2, -190240.95, -452733.75, 9820.833, 0.13254961, 0.23106077, -189874.03, -51219.54, 0.00000018947561, 10.000904, 9.99745 
4.951292e+2, 2.9585463e+2, 36145.992, -276268.9, -50304.082, 0.11211645, 0.46292287, 44046.035, 84710.3, 0.000005616016, 10.001711, 9.997597 
4.951438e+2, 3.0585364e+2, 148705.17, -109852.75, 51329.883, 0.049227733, 0.5661849, 158522.61, 158522.61, 0.000033520122, 10.00177, 9.99838 
4.9516e+2, 3.1585085e+2, 139631.89, 29678.64, -83602.85, 0.00072829286, 0.42494512, 184714.58, 184714.58, 0.000095768366, 10.001064, 9.999667 
5.048917e+2, 1.2585162e+2, -1689778.8, -1563425.5, -138967.39, 0.3399781, 0.32715875, -1473948.1, 232741.06, 0.00006639799, 9.999582, 10.001198 
5.0490195e+2, 1.358537e+2, -1642991.6, -1535685.6, 125784.83, -0.3959345, 0.40848348, -1452589.0, 156076.72, 0.00001955312, 9.999351, 10.00089 
5.0492287e+2, 1.458541e+2, -1637196.8, -1550459.9, -25919.299, -0.027317334, 0.40497777, -1543304.8, -32643.447, 0.0000028130235, 9.999055, 10.00022 
5.0493723e+2, 1.5585448e+2, -1532687.3, -1446196.3, -61238.05, 0.07950275, 0.39442846, -1414473.3, -1814.5735, 0.00000011765629, 9.999094, 10.000245 
5.049509e+2, 1.6585407e+2, -1438460.3, -1397992.5, 17141.363, 0.047021978, 0.35321227, -1391707.9, -77045.516, 0.000000000026416515, 9.99926, 9.999827 
5.049649e+2, 1.7585282e+2, -1317909.0, -1290211.9, -5196.5947, -0.064977586, 0.22839339, -1289269.0, -72596.37, 0.0, 9.99942, 9.999817 
5.0497884e+2, 1.858528e+2, -1216182.9, -1232114.8, -73646.91, -0.06414204, 0.26962978, -1150072.4, -31401.408, 0.0, 9.999639, 9.999431 
5.0499266e+2, 1.9585359e+2, -1083774.9, -1124855.1, -81000.164, 0.0070913667, 0.38799292, -1020751.1, -89.462204, 0.0, 9.999908, 9.999365 
5.050058e+2, 2.0585203e+2, -1009661.1, -1153244.8, -52082.14, 0.0023577162, 0.35494682, -992759.0, -70082.55, 0.0, 10.000227, 9.998348 
5.0501865e+2, 2.1584871e+2, -868800.1, -1029151.8, -31681.533, -0.050772972, 0.16926198, -862767.56, -38057.793, 0.0, 10.000501, 9.998397 
5.0503236e+2, 2.2584723e+2, -689170.7, -857212.6, -15965.266, -0.04510458, 0.16836287, -687667.3, 39057.305, 0.0, 10.000911, 9.998705 
5.0504667e+2, 2.3584698e+2, -520219.8, -725441.44, -45524.64, 0.0029586158, 0.2545993, -510574.34, 118152.69, 0.0, 10.001399, 9.9987 
5.050617e+2, 2.4584626e+2, -506098.28, -722388.75, 24464.709, 0.020923948, 0.34023058, -503365.6, 27370.283, 0.0, 10.0010605, 9.998215 
5.0507724e+2, 2.55845e+2, -519369.7, -661260.94, 32499.346, 0.027022926, 0.37663504, -512280.13, -79529.28, 0.0, 10.00022, 9.998365 
5.050913e+2, 2.6584366e+2, -308382.25, -355257.44, -81708.38, 0.07399042, 0.3327474, -246816.42, 87945.4, 0.0, 10.000338, 9.999737 
5.051042e+2, 2.758421e+2, -115749.83, -235655.02, -113059.766, 0.14458355, 0.18310739, -47730.453, 189040.86, 0.00000000061010413, 10.001091, 9.99952 
5.051171e+2, 2.858407e+2, -93154.33, -450495.63, -25085.102, 0.10501069, 0.22796284, -91401.96, 47386.188, 0.00000027597625, 10.001766, 9.997046 
5.0513005e+2, 2.958395e+2, 110171.52, -279782.28, 8562.129, -0.0076227123, 0.38376862, 110359.43, 151169.02, 0.0000049400037, 10.002393, 9.997246 
5.0514543e+2, 3.0583835e+2, 227941.36, -15822.8, 97111.15, 0.029933246, 0.4591518, 261898.34, 261898.34, 0.000029285811, 10.002087, 9.998877 
5.0516176e+2, 3.158358e+2, 165960.08, 117169.24, -92161.375, 0.08515897, 0.29471105, 236900.16, 236900.16, 0.000085814645, 10.000916, 10.000356 
5.148898e+2, 1.2583663e+2, -1761441.0, -1723789.0, -126001.19, 0.14357454, 0.2716621, -1615215.3, 91620.74, 0.0000519356, 9.999629, 10.000073 
5.1490015e+2, 1.3583882e+2, -1699181.4, -1659622.8, 121654.23, -0.52917135, 0.46055394, -1556150.4, 52666.516, 0.000013925394, 9.999381, 10.000023 
5.149228e+2, 1.4583912e+2, -1583897.0, -1443463.4, -36656.117, 0.03164261, 0.45052367, -1434471.1, 76342.27, 0.000001645238, 9.999066, 10.000953 
5.1493675e+2, 1.5583958e+2, -1485277.0, -1350849.4, -49671.04, 0.10213769, 0.37332496, -1334487.4, 78318.695, 0.00000003629146, 9.9991045, 10.000897 
5.149501e+2, 1.6583976e+2, -1474042.3, -1460106.5, 17684.74, 0.01926178, 0.3839718, -1448066.5, -133262.39, 0.0, 9.999213, 9.999419 
5.149639e+2, 1.7583941e+2, -1347682.5, -1348735.0, 9083.061, -0.12295596, 0.38673353, -1339110.5, -122301.3, 0.0, 9.999408, 9.999417 
5.149782e+2, 1.8583912e+2, -1222876.9, -1237553.0, -72027.12, -0.11082726, 0.417853, -1157815.0, -39002.516, 0.0, 9.999602, 9.999408 
5.1499265e+2, 1.9583878e+2, -1085851.3, -1122922.9, -62219.504, 0.0028267736, 0.42501268, -1039465.25, -18650.285, 0.0, 9.999876, 9.999394 
5.1500666e+2, 2.0583753e+2, -979241.56, -1069016.8, -48133.293, 0.04636755, 0.38692662, -958313.44, -35489.535, 0.0, 10.000135, 9.998971 
5.1502025e+2, 2.1583548e+2, -841434.44, -959036.3, -14573.7295, 0.047135614, 0.26473102, -839655.3, -14816.46, 0.0, 10.000437, 9.998911 
5.150339e+2, 2.2583352e+2, -752305.6, -972561.44, -5470.227, 0.0021626279, 0.2331924, -752169.9, -25313.07, 0.0, 10.000842, 9.997947 
5.1504743e+2, 2.3583154e+2, -575445.5, -822078.56, -25699.797, -0.07699529, 0.21996987, -572795.94, 56081.914, 0.0, 10.001324, 9.998073 
5.150622e+2, 2.4583016e+2, -459286.1, -617905.9, -14902.636, -0.054119747, 0.23143646, -457898.1, 72993.62, 0.0, 10.001027, 9.998949 
5.150778e+2, 2.5582916e+2, -484344.5, -576184.75, 16104.329, 0.039991748, 0.2160787, -481602.44, -48701.246, 0.0, 10.000164, 9.998979 
5.1509154e+2, 2.6582894e+2, -368176.03, -469374.0, -59073.387, 0.04635222, 0.30134058, -340993.78, -6090.321, 0.0, 10.000301, 9.99897 
5.151039e+2, 2.758291e+2, -164944.98, -327133.7, -75472.63, -0.0136300735, 0.40191185, -135258.42, 101644.58, 0.0000000018853024, 10.001047, 9.998914 
5.151175e+2, 2.8582716e+2, -20369.16, -294533.1, -8950.089, -0.04550515, 0.36293587, -20077.295, 118845.3, 0.00000034894228, 10.001744, 9.998129 
5.151321e+2, 2.9582387e+2, 171125.05, -142668.64, 37591.77, -0.056934085, 0.19531111, 175565.61, 216520.97, 0.0000043002137, 10.002344, 9.998211 
5.151482e+2, 3.0582204e+2, 220614.36, -21501.523, 48770.355, 0.077172354, 0.16356432, 230069.14, 230069.14, 0.00002546161, 10.002055, 9.998854 
5.1516277e+2, 3.158205e+2, 179454.05, 168280.73, -90113.14, 0.056523316, 0.10299957, 264153.53, 264153.53, 0.00007750593, 10.0008335, 10.000742 
5.248879e+2, 1.2582268e+2, -1921738.6, -1830403.8, -70868.41, 0.05629007, 0.3420444, -1791763.3, -84789.914, 0.000041741634, 9.998642, 9.999822 
5.2489954e+2, 1.3582347e+2, -1865747.1, -1754986.0, 141076.48, -0.46615714, 0.4018071, -1658809.4, -49841.582, 0.000010470756, 9.998298, 9.999892 
5.249231e+2, 1.4582345e+2, -1696466.6, -1508787.6, 27489.902, 0.19998772, 0.3703976, -1504843.9, 6123.248, 0.0000009776196, 9.998344, 10.000852 
5.249351e+2, 1.5582421e+2, -1483275.8, -1356377.5, -65681.28, 0.033153657, 0.3327091, -1328504.0, 84452.79, 0.000000005050013, 9.999145, 10.000837 
5.249485e+2, 1.6582488e+2, -1416775.1, -1397571.1, 10283.796, -0.06825269, 0.37646577, -1393103.5, -78153.46, 0.0, 9.999453, 9.999741 
5.24964e+2, 1.7582515e+2, -1331104.1, -1307695.1, 40927.563, -0.04733341, 0.41191897, -1276831.3, -59882.617, 0.0, 9.999379, 9.99972 
5.249787e+2, 1.8582477e+2, -1218790.3, -1240947.9, 7447.8096, -0.015479498, 0.42386368, -1216519.5, -97566.86, 0.0, 9.999654, 9.999364 
5.249926e+2, 1.9582379e+2, -1054804.5, -1109775.0, -1507.6913, 0.0005705923, 0.37150684, -1054763.1, -33801.613, 0.0, 10.000104, 9.999373 
5.25007e+2, 2.058226e+2, -884968.2, -1016080.0, 9080.757, 0.046435323, 0.33644813, -884342.25, 38626.953, 0.0, 10.000751, 9.999039 
5.25022e+2, 2.1582112e+2, -680801.8, -874370.3, -14511.8545, 0.12469063, 0.26605156, -679719.9, 145257.38, 0.0, 10.001515, 9.998967 
5.250358e+2, 2.2581927e+2, -650870.6, -953477.8, -2644.1423, 0.07822861, 0.25718418, -650847.56, 76147.195, 0.0, 10.001673, 9.997676 
5.250489e+2, 2.35817e+2, -582934.9, -851353.0, -4539.438, -0.05968715, 0.24366988, -582858.1, 46162.516, 0.0, 10.001385, 9.997846 
5.250632e+2, 2.4581549e+2, -446867.63, -559404.44, -9335.439, -0.04138025, 0.22544871, -446098.47, 84936.23, 0.0, 10.000881, 9.99942 
5.2507836e+2, 2.5581446e+2, -449535.0, -515419.13, -9678.548, 0.0867906, 0.16127777, -448142.63, -15101.836, 0.0, 10.000216, 9.999369 
5.250922e+2, 2.6581413e+2, -397101.0, -548613.8, -16244.597, 0.08017411, 0.24587557, -395378.9, -60334.42, 0.0, 10.000381, 9.998388 
5.2510494e+2, 2.7581403e+2, -184111.81, -390775.4, -32965.52, -0.01394545, 0.38099042, -178980.78, 58068.094, 0.00000000009174081, 10.001157, 9.998422 
5.251191e+2, 2.8581214e+2, -66973.73, -274104.8, 2560.1187, -0.028982742, 0.34666866, -66942.09, 72125.57, 0.00000033351301, 10.001242, 9.99851 
5.251342e+2, 2.9580903e+2, -33520.96, -210351.98, -25043.914, 0.0020097073, 0.16051531, -30042.51, 11053.535, 0.0000041079616, 10.0008, 9.998491 
5.2515054e+2, 3.0580682e+2, 78876.52, -117900.65, -35452.363, 0.15448329, 0.09136267, 85068.93, 85068.93, 0.000024461535, 10.001203, 9.998601 
5.251643e+2, 3.1580573e+2, 345922.97, 223719.13, -195210.34, 0.078077815, 0.101740755, 489370.63, 489370.63, 0.000075222786, 10.002069, 10.000535 
5.3488576e+2, 1.2580968e+2, -1867440.1, -1721209.0, -28034.354, -0.07778449, 0.52557415, -1716018.8, -8916.127, 0.000035627574, 9.998668, 10.000555 
5.3489983e+2, 1.3580762e+2, -1825598.9, -1663694.4, 128831.0, -0.27847466, 0.22812922, -1592493.1, 16625.035, 0.000008273398, 9.998269, 10.000535 
5.349235e+2, 1.4580701e+2, -1765982.3, -1648217.1, 48458.945, 0.38509774, 0.15946732, -1630840.8, -119717.74, 0.00000061502607, 9.998321, 9.999905 
5.349321e+2, 1.5580839e+2, -1538659.0, -1473565.3, -29071.232, -0.20427644, 0.27383086, -1462472.3, -49361.438, 0.00000000036285042, 9.999148, 10.000032 
5.3494585e+2, 1.6580944e+2, -1346218.6, -1245074.9, -1055.665, -0.29031914, 0.33672476, -1245063.9, 70035.8, 0.0, 9.999429, 10.000799 
5.34965e+2, 1.7581005e+2, -1262413.3, -1167162.4, 49070.586, 0.094885506, 0.30398604, -1146405.8, 70685.1, 0.0, 9.999384, 10.000687 
5.349801e+2, 1.858097e+2, -1230169.0, -1256217.3, 18675.975, 0.14615566, 0.28017247, -1220424.3, -101332.18, 0.0, 9.999619, 9.999274 
5.349921e+2, 1.9580851e+2, -1071436.9, -1137277.0, 24724.098, -0.073464565, 0.21606159, -1063186.5, -42084.293, 0.0, 10.000067, 9.999207 
5.350067e+2, 2.0580724e+2, -927483.0, -1086851.4, 31019.209, -0.07286106, 0.20333736, -921658.4, 1454.0453, 0.0, 10.000679, 9.998584 
5.350235e+2, 2.1580577e+2, -719485.44, -938395.4, 17910.838, 0.11031026, 0.17965291, -718029.7, 107093.91, 0.0, 10.001442, 9.998564 
5.3503805e+2, 2.2580455e+2, -649420.75, -934810.2, -21358.73, 0.11213282, 0.2421869, -647831.06, 79306.766, 0.0, 10.001601, 9.997841 
5.3505087e+2, 2.3580335e+2, -581314.56, -831890.2, -9987.187, -0.020999776, 0.3174122, -580917.1, 48238.52, 0.0, 10.001313, 9.998013 
5.350645e+2, 2.4580212e+2, -441881.6, -537987.56, -40178.207, -0.01170804, 0.31245866, -427297.7, 103867.95, 0.0, 10.000837, 9.999588 
5.350789e+2, 2.5580078e+2, -445074.56, -499999.03, -23186.648, 0.09471235, 0.20223759, -436595.25, -3424.3123, 0.0, 10.000187, 9.99949 
5.350929e+2, 2.6579913e+2, -421494.7, -598429.7, 6301.2534, 0.102058485, 0.16699466, -421270.56, -86085.266, 0.0, 10.000376, 9.998048 
5.351069e+2, 2.75797e+2, -211467.48, -442032.6, 2276.085, 0.046156257, 0.12899955, -211445.02, 25763.367, 0.0, 10.001126, 9.998087 
5.351215e+2, 2.8579563e+2, -93108.15, -327251.4, -21006.51, 0.064639665, 0.18215187, -91238.45, 47984.977, 0.00000019037492, 10.001238, 9.998147 
5.351363e+2, 2.9579484e+2, -65749.97, -269580.4, -27382.166, 0.108235925, 0.26711974, -62135.594, -20903.127, 0.0000040138116, 10.000766, 9.998102 
5.3515226e+2, 3.057925e+2, 41877.035, -194220.38, -3492.2622, 0.19461001, 0.23183303, 41928.68, 41928.68, 0.000024849203, 10.001196, 9.998079 
5.351658e+2, 3.1579116e+2, 297890.8, 117538.26, -106443.805, -0.030956453, 0.26568142, 347220.97, 347220.97, 0.00007616266, 10.002088, 9.999797 
5.4488486e+2, 1.2579466e+2, -1697982.1, -1681164.8, 92154.81, -0.086704135, 0.47849965, -1597035.8, 110210.52, 0.000030309948, 10.000005, 10.000208 
5.448996e+2, 1.3579285e+2, -1618824.6, -1595340.6, 38319.344, -0.19578055, 0.24247436, -1567004.6, 42256.863, 0.000006366235, 9.999833, 10.00025 
5.449232e+2, 1.4579229e+2, -1650297.0, -1586093.8, 8443.797, 0.48375976, 0.1911428, -1585001.8, -73735.9, 0.00000037085837, 9.9990835, 9.999967 
5.4493064e+2, 1.5579334e+2, -1611423.4, -1499605.6, -6678.955, -0.22910744, 0.263823, -1499208.1, -85952.29, 0.00000000007720086, 9.998613, 10.000111 
5.4494464e+2, 1.6579413e+2, -1416158.4, -1294130.4, 28795.82, -0.33090183, 0.3050277, -1287676.5, 27570.443, 0.0, 9.999027, 10.0006485 
5.449649e+2, 1.7579457e+2, -1188320.4, -1143144.4, -27932.434, 0.12793319, 0.26885945, -1129809.8, 87431.06, 0.0, 9.999961, 10.000564 
5.449805e+2, 1.8579419e+2, -1090755.9, -1180023.3, -76321.37, 0.18761955, 0.2428787, -1046975.1, 72266.76, 0.0, 10.000518, 9.999375 
5.449925e+2, 1.9579312e+2, -953632.0, -1067724.3, -68053.41, -0.075215235, 0.17960757, -921877.6, 99371.54, 0.0, 10.000813, 9.999327 
5.450073e+2, 2.0579185e+2, -882489.06, -1085598.9, -22132.736, -0.10443124, 0.1711612, -880105.25, 43154.78, 0.0, 10.001073, 9.998408 
5.450243e+2, 2.1579023e+2, -755353.9, -970663.94, -28174.729, 0.059075583, 0.15034446, -751728.06, 73546.95, 0.0, 10.001262, 9.998431 
5.450393e+2, 2.2578919e+2, -713499.94, -940820.1, -74974.01, 0.114096, 0.22635017, -690999.44, 36288.82, 0.0, 10.001055, 9.998061 
5.450527e+2, 2.357884e+2, -677799.2, -860552.56, -73931.02, 0.084634304, 0.3247099, -651636.56, -22334.855, 0.0, 10.000572, 9.998174 
5.4506594e+2, 2.4578722e+2, -457969.03, -576991.5, -92002.15, 0.047109768, 0.32994103, -407908.47, 123403.03, 0.0, 10.000855, 9.999314 
5.450788e+2, 2.5578564e+2, -240792.23, -429262.88, -121361.88, -0.0022507913, 0.22092348, -181375.34, 251944.1, 0.0, 10.001715, 9.999239 
5.450934e+2, 2.657835e+2, -170115.8, -487888.06, -68780.586, 0.034094058, 0.15588851, -155867.38, 179470.38, 0.0, 10.0021515, 9.9979515 
5.451095e+2, 2.757807e+2, -48160.06, -373602.5, -74674.83, 0.14900275, 0.0640372, -31843.502, 205522.38, 0.0, 10.002291, 9.997998 
5.4512423e+2, 2.8577942e+2, 34498.035, -267899.9, -93538.19, 0.16938837, 0.12937297, 61092.543, 200472.02, 0.00000011177434, 10.002131, 9.998123 
5.4513747e+2, 2.957792e+2, 80230.695, -202042.75, -85112.625, 0.10063029, 0.2758271, 103908.21, 145290.4, 0.0000045059896, 10.001801, 9.998059 
5.4515344e+2, 3.0577657e+2, 152340.33, -210344.7, 9648.309, 0.1472991, 0.24752125, 152596.81, 152596.81, 0.00002638034, 10.002251, 9.997456 
5.4516846e+2, 3.1577486e+2, 363044.22, 34941.836, -106938.59, -0.011101907, 0.3036546, 394821.16, 394821.16, 0.00007851539, 10.003041, 9.998757 
5.548849e+2, 1.2577777e+2, -1788059.8, -1869411.5, 152784.9, -0.12467027, 0.2225738, -1670628.9, 36774.285, 0.000026661139, 10.000025, 9.998899 
5.548986e+2, 1.3577925e+2, -1707888.6, -1776655.9, 23337.146, -0.29536656, 0.4585678, -1700716.8, -91319.7, 0.0000052899522, 9.999832, 9.9990015 
5.549218e+2, 1.457794e+2, -1567764.8, -1419727.0, -24979.957, 0.4233844, 0.47473928, -1415625.5, 95769.75, 0.00000021782215, 9.999099, 10.001103 
5.549306e+2, 1.557791e+2, -1543068.5, -1363239.1, -9574.006, -0.11343279, 0.30207694, -1362730.9, 50660.484, 0.00000000000011946363, 9.998626, 10.001047 
5.5494446e+2, 1.6577893e+2, -1515830.0, -1496229.6, 57798.203, -0.27015635, 0.27900428, -1447406.6, -132014.44, 0.0, 9.999011, 9.999265 
5.549636e+2, 1.7577861e+2, -1279111.9, -1327654.8, 12079.637, -0.018785715, 0.3032569, -1276272.0, -58872.816, 0.0, 9.999945, 9.999303 
5.549798e+2, 1.8577822e+2, -1072688.4, -1130657.4, -72449.805, 0.04447663, 0.3137207, -1023640.4, 95761.37, 0.0, 10.000468, 9.999738 
5.5499345e+2, 1.9577764e+2, -938211.4, -1025468.44, -49791.043, -0.07332319, 0.265958, -915638.7, 105763.414, 0.0, 10.000762, 9.999647 
5.550083e+2, 2.0577635e+2, -880840.0, -1066084.6, -21203.682, -0.12251794, 0.23523329, -878444.0, 44968.54, 0.0, 10.001005, 9.998572 
5.550241e+2, 2.157744e+2, -756538.25, -956683.25, -15365.634, -0.09965173, 0.1653416, -755365.44, 70066.45, 0.0, 10.001185, 9.998567 
5.550395e+2, 2.2577311e+2, -711237.5, -913511.4, -99101.73, 0.01672251, 0.19765371, -670777.0, 56669.53, 0.0, 10.000963, 9.99829 
5.5505455e+2, 2.357722e+2, -679659.44, -843321.1, -79620.914, 0.19115676, 0.2601006, -647315.94, -17857.29, 0.0, 10.0004835, 9.998334 
5.550671e+2, 2.4577086e+2, -516179.4, -685801.1, -64347.617, 0.06697024, 0.28046545, -494531.38, 36939.957, 0.0, 10.000802, 9.998594 
5.5507797e+2, 2.55769e+2, -295739.16, -529205.2, -81502.85, -0.27730125, 0.21937287, -270101.84, 163383.86, 0.0, 10.001651, 9.998584 
5.550936e+2, 2.6576716e+2, -168588.08, -474979.0, -68961.05, -0.18388589, 0.20431612, -153782.13, 181720.1, 0.0, 10.002112, 9.998056 
5.551128e+2, 2.7576503e+2, -51916.13, -366231.88, -61393.242, 0.22886361, 0.17272724, -40350.184, 197172.03, 0.0, 10.002228, 9.998079 
5.55127e+2, 2.8576335e+2, 54522.637, -225115.42, -112368.63, 0.2239053, 0.18264659, 94080.5, 233616.94, 0.00000024371042, 10.00212, 9.998426 
5.5513746e+2, 2.95762e+2, 99331.82, -167945.17, -83644.77, -0.10290968, 0.18104474, 123350.22, 164896.63, 0.0000058589785, 10.001812, 9.998296 
5.5515367e+2, 3.0575904e+2, 98090.57, -318833.4, 37407.08, -0.0705792, 0.14616466, 101420.2, 101420.2, 0.000029983938, 10.002241, 9.996708 
5.551718e+2, 3.1575656e+2, 258459.33, -166442.98, -34431.695, -0.015084682, 0.20414889, 261231.39, 261231.39, 0.00008393316, 10.002969, 9.99741 
5.648854e+2, 1.2576017e+2, -1763415.4, -1832423.0, 28934.498, -0.0652143, 0.16328247, -1752889.0, -45314.47, 0.000022362587, 10.000056, 9.99914 
5.648972e+2, 1.3576244e+2, -1885132.5, -1838698.8, -99339.586, -0.34969354, 0.45321852, -1759899.1, -150338.7, 0.000004259607, 9.998497, 9.999218 
5.649195e+2, 1.4576292e+2, -1689465.1, -1440531.9, -68561.72, 0.3334626, 0.4761019, -1422897.8, 88656.87, 0.00000013010742, 9.998103, 10.001443 
5.649304e+2, 1.5576275e+2, -1462276.3, -1288583.3, -126118.81, -0.018517777, 0.2821742, -1222301.5, 191247.23, 0.0, 9.999039, 10.001357 
5.649446e+2, 1.657625e+2, -1469601.0, -1531339.3, -15325.955, -0.17352843, 0.26397964, -1466005.9, -150454.75, 0.0, 9.999566, 9.998767 
5.649631e+2, 1.7576191e+2, -1332099.0, -1403364.9, -10743.043, -0.048994247, 0.31081367, -1330514.8, -112952.18, 0.0, 9.999788, 9.998863 
5.649796e+2, 1.857613e+2, -1152363.6, -1173783.1, -83137.34, 0.0081834, 0.32420805, -1079249.1, 40319.2, 0.0, 9.999945, 9.99969 
5.649942e+2, 1.9576062e+2, -1048934.4, -1075486.9, -101801.1, -0.031248273, 0.2666285, -959547.5, 62023.082, 0.0, 9.999994, 9.999666 
5.650093e+2, 2.0575976e+2, -982970.25, -1060890.0, -57722.42, -0.06802728, 0.2517659, -952289.94, -28712.822, 0.0, 10.000077, 9.999052 
5.6502503e+2, 2.157587e+2, -869595.75, -953615.8, -42157.566, -0.07379762, 0.22172177, -852090.2, -26502.355, 0.0, 10.0001745, 9.999066 
5.6504023e+2, 2.257576e+2, -717981.4, -875911.5, -90533.0, 0.0071384893, 0.231002, -676814.4, 50784.242, 0.0, 10.000732, 9.998662 
5.6505513e+2, 2.3575638e+2, -494930.8, -717131.4, -72192.53, 0.15130368, 0.2232241, -473535.7, 156075.03, 0.0, 10.001591, 9.998665 
5.650681e+2, 2.4575488e+2, -446087.5, -701323.8, -32931.133, 0.052610938, 0.2385356, -441907.13, 89717.96, 0.0, 10.001522, 9.998126 
5.650796e+2, 2.5575295e+2, -447820.34, -652068.1, -49957.39, -0.22268592, 0.21654764, -436255.94, -2612.6584, 0.0, 10.00083, 9.998131 
5.650952e+2, 2.6575112e+2, -360829.03, -544230.9, -5011.9424, -0.1531768, 0.21822828, -360692.16, -25032.68, 0.0, 10.000699, 9.998255 
5.651138e+2, 2.757493e+2, -213852.25, -420389.6, -2666.4727, 0.16954689, 0.18726851, -213817.84, 23857.285, 0.0, 10.001029, 9.998271 
5.651282e+2, 2.857472e+2, -26797.934, -308482.9, -56338.227, 0.15735514, 0.16716208, -15947.962, 123744.664, 0.00000046127252, 10.001744, 9.998037 
5.6513965e+2, 2.9574496e+2, 211802.1, -151081.9, -92252.75, -0.10512372, 0.115687065, 233908.05, 275619.4, 0.000007820285, 10.002743, 9.997965 
5.651564e+2, 3.0574238e+2, 203771.48, -255843.98, 51869.313, -0.05300935, 0.12801847, 209552.42, 209552.42, 0.000035959114, 10.002908, 9.99683 
5.6517535e+2, 3.157395e+2, 150782.55, -226993.81, 29041.18, 0.08315634, 0.13479412, 153002.03, 153002.03, 0.000094359246, 10.002274, 9.99733 
5.748861e+2, 1.257418e+2, -1628427.0, -1554740.9, 15530.507, -0.040204883, 0.29778382, -1551601.4, 156160.25, 0.000015098279, 10.000068, 10.001034 
5.7489485e+2, 1.3574228e+2, -1767154.8, -1587212.3, -156482.58, -0.44596192, 0.21867412, -1496679.8, 113072.875, 0.0000026568694, 9.998471, 10.00095 
5.749158e+2, 1.4574283e+2, -1728585.5, -1514654.9, -48531.25, 0.13738622, 0.19238043, -1504160.1, 7584.083, 0.000000050157187, 9.9980755, 10.000947 
5.749296e+2, 1.557442e+2, -1493834.5, -1351210.8, -86528.03, -0.017368147, 0.20622551, -1310395.5, 103333.18, 0.0, 9.99903, 10.000934 
5.7494503e+2, 1.6574475e+2, -1437523.0, -1463260.4, -17333.89, -0.109504975, 0.26017514, -1428803.1, -113078.7, 0.0, 9.999553, 9.999242 
5.749632e+2, 1.7574441e+2, -1307246.3, -1349759.4, 4811.095, -0.034992773, 0.28678262, -1306708.6, -88977.66, 0.0, 9.999773, 9.999241 
5.7497966e+2, 1.8574356e+2, -1186647.4, -1234200.8, -86372.336, 0.0049601546, 0.27739823, -1120838.9, -1098.3064, 0.0, 9.999903, 9.999294 
5.7499444e+2, 1.9574212e+2, -1078993.4, -1124654.3, -91978.88, -0.023843905, 0.18659826, -1007053.9, 14700.298, 0.0, 9.99994, 9.999356 
5.750101e+2, 2.0574208e+2, -938535.44, -950806.3, -61954.96, -0.006462536, 0.22605318, -882412.9, 41340.71, 0.0, 9.999999, 9.9998455 
5.750267e+2, 2.1574302e+2, -828465.2, -848770.75, -29654.111, 0.060892906, 0.3184997, -807274.0, 18469.38, 0.0, 10.000087, 9.99983 
5.750412e+2, 2.2574258e+2, -687534.5, -791078.06, -64815.605, 0.016010923, 0.3235043, -656352.2, 71392.97, 0.0, 10.000642, 9.999287 
5.750543e+2, 2.3574096e+2, -471219.06, -645771.06, -35760.25, -0.11183568, 0.2157014, -464177.03, 165580.5, 0.0, 10.001495, 9.999201 
5.7506853e+2, 2.4573924e+2, -470382.78, -748517.7, -67154.08, -0.074144185, 0.20143664, -455017.63, 76755.81, 0.0, 10.001495, 9.997821 
5.7508373e+2, 2.5573733e+2, -470432.8, -691803.25, -66439.05, 0.08352475, 0.21157359, -452023.63, -18230.299, 0.0, 10.0007925, 9.99788 
5.750983e+2, 2.6573542e+2, -336165.72, -497278.13, 253.40605, 0.058896624, 0.19610485, -336165.3, -355.28247, 0.0, 10.000707, 9.998579 
5.751122e+2, 2.757333e+2, -199332.58, -389543.13, 16534.447, -0.10372888, 0.10873452, -197905.98, 39919.8, 0.0, 10.001011, 9.9985 
5.751275e+2, 2.8573084e+2, -102120.2, -453273.13, -27392.975, -0.10662621, 0.08942523, -99996.16, 39852.5, 0.0000006054728, 10.0016985, 9.997064 
5.7514364e+2, 2.9572797e+2, 143630.52, -278582.88, -48341.87, 0.0034750858, 0.07765997, 149094.77, 190972.3, 0.000009307056, 10.002685, 9.997117 
5.751613e+2, 3.0572644e+2, 270442.22, -116212.6, 25779.73, 0.12676997, 0.18367821, 272153.47, 272153.47, 0.00004067109, 10.002898, 9.9978 
5.751785e+2, 3.157234e+2, 225658.66, -68465.68, 29840.31, 0.13740292, 0.07733268, 228655.56, 228655.56, 0.00010363106, 10.00225, 9.998438 
5.848864e+2, 1.2572524e+2, -1723031.6, -1544988.1, 252297.9, 0.036955338, 0.35019794, -1366467.1, 341455.5, 0.000008007214, 9.999164, 10.001543 
5.8489424e+2, 1.357245e+2, -1671540.8, -1490990.6, -106475.26, -0.36813462, 0.10112182, -1441671.4, 168250.25, 0.0000012151539, 9.998912, 10.001399 
5.849135e+2, 1.457248e+2, -1656025.8, -1551322.4, 32204.525, 0.06523461, 0.06403809, -1542210.0, -30293.62, 0.000000012980553, 9.998891, 10.000294 
5.849287e+2, 1.5572682e+2, -1471663.3, -1407640.6, -34081.824, -0.019359406, 0.20386459, -1392894.1, 21004.785, 0.0, 9.999469, 10.000328 
5.8494484e+2, 1.6572735e+2, -1376871.6, -1393844.1, 19638.871, -0.08644635, 0.26324993, -1363963.9, -48068.66, 0.0, 9.999795, 9.999597 
5.8496296e+2, 1.7572653e+2, -1263402.9, -1288218.5, 18111.166, -0.033278987, 0.20429873, -1253856.9, -35952.785, 0.0, 9.9999, 9.999598 
5.849795e+2, 1.857261e+2, -1136864.0, -1188665.1, -34615.434, -0.010565516, 0.21158405, -1119531.9, 377.59662, 0.0, 10.000156, 9.999485 
5.849944e+2, 1.9572583e+2, -983410.3, -1058672.6, -11353.323, -0.044746406, 0.21954228, -981734.94, 40178.652, 0.0, 10.000512, 9.999535 
5.850106e+2, 2.0572594e+2, -844047.9, -913564.5, 12761.433, 0.010116128, 0.26714852, -841779.25, 82132.945, 0.0, 10.000679, 9.999775 
5.850279e+2, 2.1572621e+2, -742265.56, -812934.7, -31034.031, 0.14766367, 0.2972781, -730572.06, 95335.92, 0.0, 10.000702, 9.999781 
5.8504236e+2, 2.2572564e+2, -705184.3, -790714.8, -96910.09, 0.08098538, 0.28671876, -642023.0, 85887.58, 0.0, 10.000495, 9.999361 
5.850547e+2, 2.3572423e+2, -668036.94, -732541.1, -124611.56, -0.13878666, 0.19668351, -571571.4, 58348.816, 0.0, 10.000111, 9.999277 
5.850696e+2, 2.4572268e+2, -582052.8, -770727.1, -131271.66, -0.06870282, 0.1806141, -514736.8, 17196.87, 0.0, 10.0005865, 9.998109 
5.850863e+2, 2.5572094e+2, -303350.44, -581386.3, -99875.57, 0.2154936, 0.17616759, -271192.7, 162758.28, 0.0, 10.001811, 9.998144 
5.8510077e+2, 2.6571903e+2, -154827.67, -434437.0, -34653.973, 0.17452063, 0.16156422, -150596.78, 185371.05, 0.0, 10.002071, 9.998347 
5.8511347e+2, 2.757168e+2, -123043.66, -377499.4, -71311.24, -0.10493258, 0.087629765, -104421.52, 133564.47, 0.0, 10.001651, 9.99827 
5.851292e+2, 2.857143e+2, -81553.32, -442333.88, -47013.688, -0.10643092, 0.07763083, -75527.555, 64482.73, 0.00000055145284, 10.001836, 9.997071 
5.851471e+2, 2.9571158e+2, 104928.25, -297466.7, -16245.462, 0.09900532, 0.07761625, 105583.04, 147622.2, 0.000008783807, 10.002425, 9.9971075 
5.851646e+2, 3.0571035e+2, 197105.0, -156545.08, 15254.225, 0.20567167, 0.21710373, 197761.75, 197761.75, 0.000039664603, 10.002413, 9.997746 
5.851811e+2, 3.1570676e+2, 196667.77, -33132.125, -74396.87, 0.19468503, 0.053539738, 218650.58, 218650.58, 0.00010367087, 10.001836, 9.998868 
5.948861e+2, 1.257105e+2, -1780133.1, -1661663.5, 258056.42, 0.049173396, 0.3146274, -1456130.8, 251926.53, 0.0000033726953, 9.999171, 10.000733 
5.948951e+2, 1.3570927e+2, -1732991.8, -1614689.3, -114807.07, -0.18508142, 0.102695026, -1544691.3, 65374.867, 0.00000044999516, 9.99891, 10.000546 
5.949123e+2, 1.4570907e+2, -1712721.8, -1668314.0, 42276.563, 0.033872914, 0.09282979, -1642765.1, -130695.5, 0.000000014541682, 9.998885, 9.999494 
5.9492755e+2, 1.557107e+2, -1525786.6, -1520037.9, -5393.0977, -0.10368819, 0.2776711, -1516801.0, -102742.53, 0.0, 9.999467, 9.999558 
5.9494394e+2, 1.657104e+2, -1366379.5, -1362262.8, 15660.584, -0.17341447, 0.28167135, -1348525.9, -32463.46, 0.0, 9.999756, 9.999833 
5.9496224e+2, 1.7570831e+2, -1242943.5, -1242993.8, 29652.979, -0.11584445, 0.07128657, -1213315.6, 4765.58, 0.0, 9.99989, 9.999914 
5.9497875e+2, 1.8570898e+2, -1085705.8, -1076412.8, -28769.504, -0.11578083, 0.13126622, -1051916.9, 68157.93, 0.0, 10.000128, 10.000271 
5.9499377e+2, 1.957117e+2, -945486.25, -967767.3, 8127.7563, -0.176341, 0.35961372, -942836.5, 79213.31, 0.0, 10.000458, 10.000186 
5.950104e+2, 2.0571132e+2, -914355.6, -1042793.7, 6519.9536, -0.09151456, 0.37287942, -914025.5, 10027.881, 0.0, 10.000607, 9.998923 
5.950284e+2, 2.1570835e+2, -811073.56, -940108.0, -22860.398, 0.114886954, 0.16704383, -807143.25, 18937.361, 0.0, 10.000633, 9.998943 
5.950435e+2, 2.2570682e+2, -748395.6, -868031.0, -118775.86, 0.1277281, 0.12662949, -675225.1, 52868.93, 0.0, 10.000436, 9.99886 
5.950563e+2, 2.357062e+2, -707074.5, -798434.8, -127296.9, -0.010425877, 0.1638768, -617509.8, 12588.828, 0.0, 10.000039, 9.998863 
5.9507096e+2, 2.4570517e+2, -523100.3, -642425.75, -91658.984, -0.008695932, 0.17120129, -473396.63, 58709.387, 0.0, 10.000555, 9.999007 
5.950871e+2, 2.5570378e+2, -255892.45, -469253.13, -52176.68, 0.10109921, 0.11107577, -243816.31, 190299.83, 0.0, 10.001748, 9.998947 
5.951025e+2, 2.6570204e+2, -217124.39, -551979.5, -57655.598, 0.12502122, 0.117410704, -207475.25, 128657.21, 0.0, 10.002024, 9.997563 
5.9511715e+2, 2.7569973e+2, -178647.45, -480459.47, -74433.2, 0.07603991, 0.11676038, -161289.0, 76866.91, 0.0, 10.001596, 9.997591 
5.9513307e+2, 2.856976e+2, -22433.258, -310994.1, -31630.365, 0.07504073, 0.12487515, -19006.807, 121170.9, 0.0000003359344, 10.0018, 9.997989 
5.9514976e+2, 2.956956e+2, 148364.72, -187979.39, 10816.498, 0.10534308, 0.10515192, 148712.2, 190909.6, 0.000006914508, 10.002343, 9.997896 
5.951664e+2, 3.0569398e+2, 119100.945, -309038.44, -10396.98, 0.12402768, 0.22003789, 119353.28, 119353.28, 0.000035630153, 10.002372, 9.99672 
5.951824e+2, 3.1568956e+2, 173352.56, -69520.79, -71147.31, 0.10200836, 0.07583621, 192659.64, 192659.64, 0.0000986736, 10.001788, 9.99864 
6.04884e+2, 1.2569328e+2, -2105743.5, -1858912.3, 192294.89, 0.038107213, 0.17852575, -1753835.5, -45615.605, 0.0000011578151, 9.997085, 10.000405 
6.048955e+2, 1.3569362e+2, -1831819.3, -1685653.6, -171632.31, -0.0079458635, 0.14836012, -1572192.3, 38024.938, 0.00000014603442, 9.998336, 10.000335 
6.0491127e+2, 1.4569359e+2, -1670061.1, -1648183.8, 64386.23, 0.029569509, 0.167092, -1593813.6, -81593.375, 0.0000000031309833, 9.999181, 9.999495 
6.049268e+2, 1.5569438e+2, -1461062.9, -1490810.3, 56148.332, -0.13584378, 0.27221283, -1417851.6, -3634.774, 0.0, 9.999918, 9.999548 
6.0494363e+2, 1.6569395e+2, -1362540.8, -1358294.3, 77480.99, -0.18112938, 0.2623479, -1282907.4, 33314.17, 0.0, 9.999768, 9.999856 
6.049619e+2, 1.7569236e+2, -1382942.8, -1309627.9, 62228.32, -0.091159604, 0.09848997, -1274062.5, -55827.434, 0.0, 9.998925, 9.999924 
6.049785e+2, 1.8569303e+2, -1275240.9, -1172788.3, -429.16772, -0.0810927, 0.157674, -1172786.4, -52557.457, 0.0, 9.998847, 10.000227 
6.0499394e+2, 1.9569528e+2, -1110866.5, -1050375.8, -39820.914, -0.14309177, 0.3440397, -1030616.25, -8407.499, 0.0, 9.999334, 10.000158 
6.050106e+2, 2.0569475e+2, -1027710.06, -1097215.4, -21561.922, -0.085242406, 0.34466955, -1021564.5, -97351.09, 0.0, 9.999827, 9.998928 
6.0502833e+2, 2.1569191e+2, -864820.3, -967852.8, -1521.8368, 0.06983717, 0.15238053, -864797.9, -38559.07, 0.0, 10.000269, 9.998931 
6.0504395e+2, 2.2569023e+2, -728677.4, -887716.8, -52694.58, 0.12639873, 0.11217279, -712802.6, 15451.528, 0.0, 10.000697, 9.998598 
6.0505795e+2, 2.3568928e+2, -564191.8, -751493.44, -55207.348, 0.10784895, 0.13945578, -549130.5, 81132.87, 0.0, 10.001127, 9.998652 
6.050726e+2, 2.456881e+2, -425143.6, -596383.25, -16846.283, 0.076022044, 0.14210145, -423502.0, 108771.055, 0.0, 10.001255, 9.998979 
6.050879e+2, 2.5568664e+2, -340642.3, -511166.25, -63380.574, 0.036999837, 0.08076272, -319665.38, 114618.875, 0.0, 10.001183, 9.998928 
6.051034e+2, 2.656853e+2, -340320.38, -578559.1, -73070.516, 0.07184765, 0.11582839, -319694.53, 16601.916, 0.0, 10.001018, 9.997874 
6.0511917e+2, 2.7568394e+2, -277309.16, -495245.0, -23379.57, 0.16432807, 0.17333339, -274829.28, -36518.047, 0.0, 10.00076, 9.997901 
6.0513526e+2, 2.856819e+2, -172620.95, -362469.22, 65302.39, 0.18045534, 0.16994736, -152327.92, -11996.206, 0.00000016006682, 10.000674, 9.998179 
6.051516e+2, 2.956795e+2, -69353.25, -271178.34, 40043.617, 0.1449195, 0.08712003, -61698.617, -19342.982, 0.0000052467194, 10.000744, 9.998098 
6.051684e+2, 3.0567762e+2, 48696.18, -305815.7, 76246.57, 0.1271422, 0.15109904, 64399.324, 64399.324, 0.000031327, 10.001739, 9.997051 
6.051851e+2, 3.156747e+2, 443247.13, 129040.38, 72627.37, 0.1243871, 0.12687142, 459222.34, 459222.34, 0.00009198692, 10.00335, 9.999268 
6.148797e+2, 1.2567364e+2, -2085788.5, -1807055.3, 197304.08, -0.13701859, -0.04825719, -1704860.4, 3550.084, 0.00000031033701, 9.997054, 10.000766 
6.14895e+2, 1.3567767e+2, -1802161.6, -1616383.0, -121057.07, 0.087092206, 0.24645995, -1556683.9, 53690.188, 0.000000018009526, 9.998315, 10.0008135 
6.1491007e+2, 1.4567848e+2, -1617598.1, -1542161.9, 78562.7, -0.024578093, 0.28932294, -1492732.1, 19635.451, 0.0, 9.999182, 10.000225 
6.149264e+2, 1.5567787e+2, -1406433.8, -1388619.5, 87459.37, -0.1915706, 0.17926104, -1309614.9, 104759.195, 0.0, 9.999951, 10.000238 
6.1494344e+2, 1.6567805e+2, -1379879.5, -1386757.1, 38475.492, -0.19270323, 0.20579207, -1344689.5, -28316.99, 0.0, 9.999742, 9.999672 
6.149616e+2, 1.7567864e+2, -1402762.4, -1351844.8, 42316.14, -0.019972734, 0.2811671, -1327919.4, -109552.75, 0.0, 9.998924, 9.999639 
6.149786e+2, 1.8567812e+2, -1345206.8, -1301032.5, 11470.739, 0.027412914, 0.28500167, -1298231.5, -177858.88, 0.0, 9.998778, 9.999374 
6.1499465e+2, 1.9567665e+2, -1171663.1, -1164410.5, -12861.338, -0.019906871, 0.18060781, -1154674.0, -132284.61, 0.0, 9.999282, 9.999401 
6.150109e+2, 2.0567638e+2, -978083.1, -976574.44, -12217.602, -0.048875425, 0.1951306, -965087.9, -40696.695, 0.0, 9.999753, 9.999789 
6.1502755e+2, 2.1567687e+2, -821881.4, -859978.4, 20904.936, -0.056747034, 0.25020975, -812648.0, 13734.87, 0.0, 10.000185, 9.999713 
6.150437e+2, 2.2567585e+2, -739960.56, -892774.25, -42669.613, 0.014453985, 0.24008253, -728853.4, -462.03564, 0.0, 10.000615, 9.998604 
6.150596e+2, 2.3567352e+2, -579912.6, -765267.06, -32523.879, 0.14626548, 0.12836255, -574371.4, 56042.805, 0.0, 10.001041, 9.998601 
6.1507446e+2, 2.4567145e+2, -501494.3, -744196.25, -27916.355, 0.11312665, 0.09511405, -498324.66, 34110.535, 0.0, 10.0012045, 9.997988 
6.150884e+2, 2.5566941e+2, -406612.63, -639306.7, -60470.29, -0.04896697, 0.075340606, -391836.47, 42619.797, 0.0, 10.00114, 9.998071 
6.1510336e+2, 2.6566884e+2, -247679.72, -380446.97, -88964.0, -0.04860456, 0.15344507, -203061.64, 133398.7, 0.0, 10.000994, 9.999245 
6.151192e+2, 2.7566928e+2, -197724.78, -316868.66, -24946.928, 0.08036675, 0.25307336, -192712.16, 45740.69, 0.0, 10.000707, 9.999149 
6.1513567e+2, 2.8566724e+2, -209471.45, -436214.28, 57907.363, 0.13728753, 0.21520656, -195538.73, -55066.125, 0.00000012615395, 10.000658, 9.997681 
6.151524e+2, 2.956633e+2, -101027.23, -325526.38, 52982.85, 0.12836683, 0.02746933, -89151.266, -46638.215, 0.000004351736, 10.000696, 9.9977455 
6.1517036e+2, 3.0566144e+2, 153162.84, -86527.086, 131746.0, 0.1333842, 0.02756127, 211418.48, 211418.48, 0.000027327762, 10.001725, 9.998572 
6.1518866e+2, 3.1566194e+2, 528740.25, 329544.25, 142126.7, 0.1069748, 0.19817501, 602692.7, 602692.7, 0.00008366508, 10.003255, 10.000695 
6.2487704e+2, 1.2565568e+2, -2122746.0, -1774941.9, 190350.61, -0.077974156, -0.026752433, -1691016.0, 17570.992, 0.000000031381585, 9.996574, 10.00123 
6.2489396e+2, 1.3565975e+2, -1624142.3, -1475215.6, -119898.04, 0.12024532, 0.22521092, -1408539.5, 202007.38, 0.000000000001578113, 9.999286, 10.001327 
6.249086e+2, 1.4566055e+2, -1572395.5, -1537813.4, -16236.656, -0.097984195, 0.24792303, -1531385.1, -18844.709, 0.0, 9.999569, 10.000066 
6.249265e+2, 1.5565966e+2, -1672799.5, -1526738.9, -87603.016, -0.08099333, 0.12598534, -1485717.9, -71166.75, 0.0, 9.998189, 10.000127 
6.249437e+2, 1.6566022e+2, -1529790.3, -1410680.1, -102000.55, -0.07465802, 0.17244388, -1352121.3, -35575.34, 0.0, 9.998506, 10.000105 
6.2496084e+2, 1.7566168e+2, -1217844.8, -1212125.9, -69929.52, -0.04395669, 0.28998217, -1144997.4, 73532.87, 0.0, 9.999996, 10.000071 
6.249779e+2, 1.856609e+2, -1160923.6, -1263495.3, -60486.8, 0.012671099, 0.26938534, -1132906.9, -12368.224, 0.0, 10.000248, 9.998933 
6.2499505e+2, 1.956582e+2, -1165001.9, -1202768.9, -64530.23, 0.08473126, 0.0873356, -1116648.9, -94081.22, 0.0, 9.999498, 9.999038 
6.250115e+2, 2.0565796e+2, -1014978.44, -956713.4, -39803.63, 0.054830316, 0.105512165, -936520.1, -11950.681, 0.0, 9.999333, 10.000132 
6.250275e+2, 2.1565944e+2, -879982.56, -845752.5, -57881.16, -0.0435599, 0.22265916, -802509.0, 24043.074, 0.0, 9.999612, 10.000084 
6.2504375e+2, 2.2565895e+2, -834826.06, -915050.5, -116697.4, 0.0042912606, 0.23603903, -751539.44, -22983.607, 0.0, 9.999861, 9.998814 
6.250603e+2, 2.3565677e+2, -708157.75, -806072.75, -105852.73, 0.1677239, 0.120637, -640489.2, -9911.466, 0.0, 10.000065, 9.998794 
6.250756e+2, 2.4565516e+2, -587155.56, -762837.9, -30832.002, 0.143329, 0.11535209, -581901.75, -49307.324, 0.0, 10.000504, 9.998206 
6.250897e+2, 2.556539e+2, -389767.28, -609314.5, 11246.437, -0.026006985, 0.1485444, -389192.7, 45415.473, 0.0, 10.001156, 9.998271 
6.251048e+2, 2.6565284e+2, -209744.14, -414367.28, -56296.063, -0.02627167, 0.19248496, -195278.55, 141338.77, 0.0, 10.001476, 9.998781 
6.251205e+2, 2.7565175e+2, -110718.66, -321932.7, -140966.53, 0.107771225, 0.18763721, -40188.215, 198436.84, 0.0, 10.001505, 9.998729 
6.2513685e+2, 2.8564975e+2, -62066.69, -349040.13, -65247.66, 0.1430431, 0.16786712, -47928.24, 92716.07, 0.000000116905284, 10.001605, 9.997824 
6.251533e+2, 2.9564703e+2, 67695.2, -232486.52, -42174.32, 0.09875692, 0.08742292, 73507.96, 116180.64, 0.000004287332, 10.001794, 9.997864 
6.2517214e+2, 3.056448e+2, 198376.5, -38970.164, 46460.75, 0.13958584, 0.03855546, 207147.13, 207147.13, 0.000025839543, 10.001932, 9.998788 
6.251923e+2, 3.1564474e+2, 335053.25, 231312.6, -71066.164, 0.21536496, 0.12648448, 371165.47, 371165.47, 0.00007841617, 10.001944, 10.000636 
6.3487566e+2, 1.2563935e+2, -2081854.1, -1692393.4, 212442.89, 0.08801175, 0.23999606, -1598936.5, 109813.61, 0.0000000061075784, 9.996593, 10.001785 
6.348924e+2, 1.3563983e+2, -1590032.8, -1406689.9, -25791.863, 0.018148048, 0.074733324, -1403130.8, 207606.4, 0.0, 9.999292, 10.001797 
6.3490665e+2, 1.4563972e+2, -1647850.4, -1687721.1, -80905.99, -0.27337095, 0.040623173, -1584459.9, -71720.336, 0.0, 9.999544, 9.999049 
6.3492703e+2, 1.5563968e+2, -1735107.0, -1661471.5, -123184.805, 0.13307981, 0.10725309, -1569720.1, -154971.0, 0.0, 9.998203, 9.999201 
6.349441e+2, 1.6564032e+2, -1457836.9, -1252020.4, -54880.86, 0.102717176, 0.14728367, -1238301.0, 78442.56, 0.0, 9.998468, 10.001209 
6.3495904e+2, 1.7564136e+2, -1145893.8, -1064973.1, -12696.986, -0.23566255, 0.11343572, -1063027.6, 155699.9, 0.0, 9.999997, 10.001085 
6.3497615e+2, 1.8564114e+2, -1166048.1, -1264588.0, -96098.52, -0.20628078, 0.10285309, -1107325.3, 13403.434, 0.0, 10.000213, 9.9989395 
6.349948e+2, 1.9563983e+2, -1172805.6, -1208835.9, -84633.94, 0.09949054, 0.057550125, -1104290.8, -81546.04, 0.0, 9.999452, 9.999019 
6.35012e+2, 2.0563945e+2, -1038046.75, -981938.8, -37507.766, 0.16140595, 0.070979014, -963154.2, -38405.273, 0.0, 9.999239, 10.000002 
6.35028e+2, 2.1563965e+2, -900715.2, -864692.1, -39153.063, 0.034901135, 0.07211, -839606.4, -12860.716, 0.0, 9.999509, 10.000003 
6.350439e+2, 2.2563952e+2, -820794.1, -865297.6, -115848.83, 0.0241942, 0.1045851, -725079.4, 3667.8843, 0.0, 9.99977, 9.9992 
6.3505983e+2, 2.3563896e+2, -687129.7, -745730.8, -88680.27, 0.09910056, 0.11081806, -623034.8, 7719.601, 0.0, 9.9999895, 9.999247 
6.3507575e+2, 2.4563923e+2, -495783.97, -563124.75, -12601.368, 0.095267, 0.19735196, -493503.16, 39247.76, 0.0, 10.000462, 9.999598 
6.350916e+2, 2.5564e+2, -317203.97, -445217.88, 39595.99, 0.0321961, 0.297302, -305946.5, 128794.06, 0.0, 10.001095, 9.99943 
6.3510734e+2, 2.6563728e+2, -374566.2, -741843.3, -63835.074, 0.06897131, 0.23710828, -363787.56, -27020.115, 0.0, 10.00142, 9.996556 
6.351229e+2, 2.756316e+2, -264300.38, -623862.4, -129771.34, 0.17415202, -0.007827181, -222356.77, 16468.945, 0.0, 10.001437, 9.996688 
6.3513845e+2, 2.8562963e+2, -9448.091, -238366.13, -66261.445, 0.1290897, 0.03358686, 8348.123, 149193.39, 0.0000001448745, 10.0016, 9.998589 
6.35154e+2, 2.9563063e+2, 102620.766, -143972.77, -26931.035, -0.030401226, 0.25753045, 105527.7, 148362.02, 0.000005079309, 10.001739, 9.998494 
6.351734e+2, 3.0562794e+2, 126753.805, -196606.4, 43864.95, 0.058390882, 0.18649325, 132598.6, 132598.6, 0.000027818513, 10.001955, 9.997699 
6.351952e+2, 3.1562367e+2, 213893.75, 901.397, -47126.4, 0.2752348, -0.042845268, 223855.0, 223855.0, 0.00008105603, 10.00185, 9.9991 
6.448738e+2, 1.2562062e+2, -1868766.3, -1599107.3, 220283.58, 0.18513212, 0.2584784, -1475665.9, 233267.55, 0.0000000021671396, 9.998092, 10.001701 
6.4489156e+2, 1.3562039e+2, -1808501.0, -1516173.4, -31909.352, 0.08805267, 0.030188113, -1512730.9, 98195.734, 0.0, 9.997831, 10.001734 
6.4490515e+2, 1.4562054e+2, -1849114.3, -1757377.4, -95229.68, -0.2986831, 0.010428632, -1697545.3, -184618.73, 0.0, 9.998046, 9.999295 
6.449258e+2, 1.5562095e+2, -1671500.8, -1601378.8, -55346.39, 0.17589076, 0.09578297, -1570922.6, -155990.33, 0.0, 9.998515, 9.999461 
6.4494324e+2, 1.6562168e+2, -1424108.5, -1229972.3, 69898.79, 0.16632031, 0.13103388, -1207424.0, 109502.16, 0.0, 9.99867, 10.001267 
6.449587e+2, 1.7562261e+2, -1340030.3, -1148183.8, 19694.914, -0.1991981, 0.08135717, -1146182.8, 72728.75, 0.0, 9.998618, 10.001182 
6.449758e+2, 1.8562292e+2, -1285371.6, -1271911.4, -85921.516, -0.20418648, 0.09084756, -1192456.9, -71549.45, 0.0, 9.999174, 9.999391 
6.4499426e+2, 1.9562249e+2, -1042652.7, -1098547.4, -55942.96, 0.06919703, 0.09011314, -1008064.75, 14848.854, 0.0, 10.000152, 9.999433 
6.4501166e+2, 2.0562218e+2, -884005.4, -941648.94, 10249.992, 0.15304725, 0.10445523, -882237.0, 42681.055, 0.0, 10.000442, 9.999697 
6.4502835e+2, 2.1562177e+2, -829428.0, -864168.94, -21183.166, 0.09549856, 0.077299364, -819403.94, 7518.967, 0.0, 10.000137, 9.999705 
6.4504445e+2, 2.2562174e+2, -682905.0, -750129.5, -67816.1, 0.06486246, 0.11117681, -640828.4, 88095.16, 0.0, 10.000501, 9.999641 
6.4506e+2, 2.3562184e+2, -454281.2, -585852.6, -56371.215, 0.05306554, 0.13781786, -433432.78, 197489.47, 0.0, 10.001386, 9.999669 
6.4507633e+2, 2.4562205e+2, -370037.16, -526098.2, -48213.93, 0.06674285, 0.20986551, -356343.4, 176575.81, 0.0, 10.001433, 9.999385 
6.450932e+2, 2.556222e+2, -368351.4, -488198.97, -123332.82, 0.10590027, 0.27100968, -291155.38, 143760.8, 0.0, 10.00083, 9.999263 
6.451094e+2, 2.6561952e+2, -376693.72, -704172.1, -133646.44, 0.14705452, 0.2051866, -329075.66, 7866.3896, 0.0, 10.001231, 9.99691 
6.45125e+2, 2.756144e+2, -93617.945, -506991.7, -29798.383, 0.19818023, -0.017235942, -91480.95, 147511.52, 0.000000000000000000046744374, 10.002457, 9.997003 
6.4514077e+2, 2.8561231e+2, 149670.33, -217756.61, 59825.824, 0.14048019, 0.01689186, 159165.98, 300179.28, 0.00000034821963, 10.002932, 9.998091 
6.451565e+2, 2.9561237e+2, 214935.48, -147365.05, -8242.043, -0.001837343, 0.19626032, 215122.89, 258135.42, 0.0000068469953, 10.002741, 9.997996 
6.451755e+2, 3.0561012e+2, 195284.83, -189742.2, 76051.27, 0.05494854, 0.20729396, 209762.27, 209762.27, 0.00003363737, 10.002555, 9.997447 
6.4519644e+2, 3.1560645e+2, 273540.88, -16447.164, 11352.918, 0.19207056, 0.06571799, 273984.66, 273984.66, 0.000093360155, 10.002461, 9.99868 
6.548711e+2, 1.2559937e+2, -1907854.8, -1687307.1, 108645.95, 0.06434428, 0.0098293135, -1642777.0, 66361.18, 0.0000000012982254, 9.998124, 10.001078 
6.5489125e+2, 1.3560152e+2, -1846902.6, -1600104.1, -35360.043, 0.2552804, 0.09239028, -1595137.9, 15977.3, 0.0, 9.9978485, 10.001149 
6.54904e+2, 1.4560305e+2, -1739120.0, -1529678.4, -87617.56, -0.23895727, 0.1535459, -1497858.8, 15242.614, 0.0, 9.998044, 10.000863 
6.5492237e+2, 1.5560347e+2, -1574193.4, -1399921.1, -32153.094, -0.037204526, 0.089593515, -1394178.1, 20922.754, 0.0, 9.998511, 10.000851 
6.549407e+2, 1.6560435e+2, -1495573.1, -1372945.5, 59641.273, 0.029145682, 0.12656352, -1348723.0, -31629.393, 0.0, 9.998646, 10.000294 
6.549593e+2, 1.7560554e+2, -1399767.9, -1275231.3, 27999.352, -0.008506313, 0.1963553, -1269225.9, -50144.207, 0.0, 9.998626, 10.000306 
6.549767e+2, 1.8560615e+2, -1224729.0, -1135797.9, -57526.266, -0.045942698, 0.23107372, -1107555.4, 13519.688, 0.0, 9.999132, 10.000344 
6.549931e+2, 1.9560619e+2, -987826.2, -971986.1, -13804.505, -0.08025095, 0.17857626, -963991.06, 59083.38, 0.0, 10.000098, 10.000327 
6.550104e+2, 2.056061e+2, -934923.44, -1028278.7, -8053.7026, -0.039585497, 0.20392975, -934233.75, -9156.645, 0.0, 10.000359, 9.999144 
6.550283e+2, 2.1560575e+2, -875360.44, -938690.0, -22517.432, 0.058156006, 0.23497139, -868170.5, -41086.023, 0.0, 10.000049, 9.999236 
6.550449e+2, 2.2560558e+2, -666554.44, -690642.06, -42566.11, 0.053064637, 0.25275055, -634361.06, 94723.734, 0.0, 10.000397, 10.000096 
6.550606e+2, 2.356054e+2, -447754.97, -545338.56, -19547.094, -0.041658826, 0.20646125, -443985.1, 187096.25, 0.0, 10.001275, 9.999997 
6.5507716e+2, 2.4560368e+2, -504345.53, -785999.06, -79618.57, -0.009760718, 0.16288133, -483396.88, 49701.79, 0.0, 10.001354, 9.997637 
6.550943e+2, 2.5560057e+2, -478756.9, -703944.06, -133113.45, 0.118145704, 0.07062901, -417004.56, 18129.334, 0.0, 10.000777, 9.997802 
6.551108e+2, 2.655996e+2, -176732.86, -290419.34, -95792.195, 0.14331639, 0.09280326, -122188.055, 214952.69, 0.0, 10.001229, 9.999757 
6.5512663e+2, 2.7560022e+2, 79812.41, -136633.75, 19871.865, 0.0942053, 0.16037229, 81621.72, 320747.78, 0.0000000002377775, 10.002405, 9.999576 
6.551433e+2, 2.855977e+2, 25320.232, -460892.22, 43220.254, 0.08547394, 0.124002315, 29132.268, 170281.16, 0.0000008000927, 10.002874, 9.996444 
6.5516037e+2, 2.9559246e+2, 98931.37, -368553.75, -6155.0894, 0.08877838, -0.069227256, 99012.39, 142216.94, 0.000010270006, 10.00267, 9.996504 
6.551783e+2, 3.055915e+2, 232324.84, -122815.35, 67556.555, 0.04879644, 0.115926325, 244741.66, 244741.66, 0.00004390313, 10.002583, 9.997905 
6.551956e+2, 3.1559294e+2, 309028.97, 63689.992, 41372.035, -0.18219055, 0.44785675, 315817.78, 315817.78, 0.000113456364, 10.002428, 9.999255 
6.6486937e+2, 1.255817e+2, -1771101.5, -1633267.6, 104369.84, 0.044626713, 0.02873783, -1577114.1, 132198.1, 0.00000000035571668, 9.999109, 10.000972 
6.648894e+2, 1.3558343e+2, -1825925.0, -1621206.6, 47806.645, 0.28391033, 0.096210726, -1610592.9, 701.3066, 0.0, 9.998107, 10.000892 
6.649022e+2, 1.455852e+2, -1691590.8, -1477767.8, 20360.697, -0.22352022, 0.17854996, -1475846.3, 37432.047, 0.0, 9.998266, 10.001103 
6.6492075e+2, 1.5558629e+2, -1417827.5, -1301136.3, -46362.9, -0.08527587, 0.15530947, -1284958.5, 130312.2, 0.0, 9.999495, 10.001051 
6.6493964e+2, 1.655871e+2, -1367138.4, -1330032.4, 10224.643, 0.015793713, 0.18493207, -1327401.5, -10138.349, 0.0, 9.999607, 10.000127 
6.649589e+2, 1.755876e+2, -1390364.6, -1286545.3, 27765.766, 0.08877841, 0.20427027, -1279586.0, -60329.53, 0.0, 9.998759, 10.00016 
6.649764e+2, 1.8558797e+2, -1276803.9, -1186287.6, -15369.388, 0.03397505, 0.23111446, -1183749.1, -62495.777, 0.0, 9.998894, 10.00011 
6.6499263e+2, 1.9558802e+2, -1041267.2, -1023113.6, -82613.02, -0.12071135, 0.20847456, -949080.25, 74174.68, 0.0, 9.999837, 10.000104 
6.650097e+2, 2.0558815e+2, -970106.9, -1002928.6, -115769.96, -0.11094863, 0.24369134, -869590.44, 55665.54, 0.0, 9.999932, 9.999527 
6.6502756e+2, 2.1558811e+2, -957791.6, -938415.2, -73229.37, 0.029342292, 0.2704947, -874235.94, -46977.563, 0.0, 9.999313, 9.999593 
6.6504484e+2, 2.2558802e+2, -789717.7, -744711.06, -18307.988, 0.054226596, 0.2768161, -738204.4, -8947.246, 0.0, 9.999527, 10.000145 
6.650616e+2, 2.3558778e+2, -579835.6, -609734.9, -41780.43, -0.016740358, 0.21947333, -550410.75, 80843.695, 0.0, 10.000363, 9.999999 
6.6507834e+2, 2.4558572e+2, -574534.2, -847987.44, -70998.93, 0.005628748, 0.15687872, -557199.06, -23923.701, 0.0, 10.000978, 9.997396 
6.6509515e+2, 2.5558206e+2, -402255.78, -695224.44, -32048.695, 0.0991262, 0.034632567, -398790.84, 36525.9, 0.0, 10.001402, 9.997569 
6.651119e+2, 2.655815e+2, -100463.53, -227566.69, -13837.599, 0.113047086, 0.09294938, -98974.49, 238346.2, 0.0, 10.00164, 9.999989 
6.6512835e+2, 2.7558318e+2, 4256.6416, -146868.83, -104974.66, 0.06717112, 0.24633348, 58036.113, 297332.25, 0.0000000023427176, 10.001774, 9.999805 
6.651456e+2, 2.8558075e+2, -66106.766, -488686.3, -87805.02, 0.06812336, 0.19804695, -48588.563, 92728.86, 0.0000014418595, 10.002177, 9.996584 
6.651631e+2, 2.9557472e+2, 128314.98, -336387.13, -29795.686, 0.09823421, -0.0887083, 130217.625, 173595.88, 0.000014823799, 10.0028, 9.996655 
6.6518086e+2, 3.0557346e+2, 209789.55, -180842.22, 53397.793, 0.052871943, 0.08215436, 216957.3, 216957.3, 0.000057815294, 10.002645, 9.997475 
6.65197e+2, 3.1557474e+2, 199576.27, 6091.688, -48104.01, -0.23986645, 0.44347274, 210875.95, 210875.95, 0.0001407211, 10.001707, 9.999208 
6.748683e+2, 1.2556791e+2, -1742296.8, -1575978.0, -21890.654, -0.015943613, 0.3276911, -1573145.0, 136308.11, 0.0000000023126079, 9.999135, 10.001346 
6.748858e+2, 1.3556632e+2, -1819416.9, -1604257.3, 19381.281, 0.094206356, 0.04128757, -1602525.3, 8937.016, 0.0, 9.998102, 10.001006 
6.7489946e+2, 1.455672e+2, -1773554.1, -1649693.4, 59022.46, -0.34500477, 0.09322099, -1626072.5, -112617.25, 0.0, 9.998265, 9.999927 
6.749208e+2, 1.5556951e+2, -1484810.3, -1450390.0, 5361.8525, -0.058756802, 0.3084231, -1449574.1, -34133.656, 0.0, 9.999532, 10.000011 
6.749398e+2, 1.6556995e+2, -1316150.4, -1225093.1, -31375.064, 0.05297077, 0.3119492, -1215329.4, 102104.96, 0.0, 9.99961, 10.000847 
6.749573e+2, 1.7556886e+2, -1351381.1, -1200398.5, 6623.4272, 0.026442718, 0.09986506, -1200108.5, 19327.246, 0.0, 9.998737, 10.000762 
6.749748e+2, 1.8556835e+2, -1385288.3, -1404605.9, 11603.822, -0.041236527, 0.08807394, -1379849.3, -258407.05, 0.0, 9.998858, 9.998631 
6.7499244e+2, 1.955681e+2, -1142871.4, -1220595.6, -42751.727, -0.13788131, 0.18293084, -1123958.3, -100503.77, 0.0, 9.999778, 9.998777 
6.7500955e+2, 2.0556839e+2, -893873.75, -826475.2, -146348.61, -0.1366571, 0.23237443, -709996.06, 215457.72, 0.0, 9.999849, 10.000781 
6.750262e+2, 2.1556893e+2, -885336.06, -770594.0, -85885.07, -0.05973179, 0.18909995, -724680.56, 102763.695, 0.0, 9.999236, 10.000783 
6.75044e+2, 2.2556917e+2, -828202.8, -800056.5, 7562.0464, 0.0029356154, 0.1904587, -798153.44, -68713.92, 0.0, 9.999426, 9.999813 
6.750627e+2, 2.3556904e+2, -612857.94, -651499.06, -677.29346, 0.04966345, 0.1784878, -612846.06, 18594.217, 0.0, 10.000255, 9.999762 
6.750798e+2, 2.4556826e+2, -505704.06, -686625.8, -60832.938, 0.037228826, 0.19188756, -487152.03, 46296.363, 0.0, 10.000901, 9.998539 
6.750955e+2, 2.5556675e+2, -347553.88, -565124.2, -10156.798, -0.022560373, 0.1704837, -347080.75, 88383.58, 0.0, 10.001329, 9.998497 
6.7511237e+2, 2.6556522e+2, -266201.6, -561862.8, -16217.035, -0.014073696, 0.21203737, -265314.75, 72166.42, 0.0, 10.001598, 9.997713 
6.7513007e+2, 2.755635e+2, -144608.17, -444426.75, -88761.84, 0.040625975, 0.24854556, -120300.76, 119199.61, 0.0000000015372758, 10.001727, 9.997784 
6.7514753e+2, 2.855615e+2, 64977.28, -220969.27, -70479.26, 0.024429262, 0.23953639, 81405.016, 222922.3, 0.0000017821444, 10.002189, 9.998422 
6.7516464e+2, 2.955591e+2, 237073.69, -97755.75, -748.0793, -0.052947555, 0.13635659, 237075.36, 280609.13, 0.000019076204, 10.002743, 9.998324 
6.751829e+2, 3.05556e+2, 111463.016, -373338.53, 12962.732, -0.02321955, 0.11178617, 111809.37, 111809.37, 0.000073988194, 10.002598, 9.996169 
6.7519975e+2, 3.1555185e+2, 141010.11, -97604.29, -46843.227, -0.16884716, 0.05848561, 149876.61, 149876.61, 0.00017623325, 10.00164, 9.998519 
6.8486696e+2, 1.2555134e+2, -1760752.5, -1593732.3, -82843.87, -0.049487993, 0.37213454, -1559611.4, 150006.17, 0.0000000036242784, 9.999038, 10.001277 
6.848846e+2, 1.3554956e+2, -1580761.5, -1511501.1, -43425.355, 0.083266355, 0.086637124, -1490588.4, 121039.6, 0.0, 9.999846, 10.000797 
6.8489903e+2, 1.455498e+2, -1551394.8, -1601453.6, 52851.594, -0.29525334, 0.11420349, -1517945.5, -4318.958, 0.0, 10.000033, 9.999407 
6.849203e+2, 1.5555139e+2, -1485268.9, -1504900.1, 31922.492, -0.06349459, 0.30791575, -1461687.0, -46068.656, 0.0, 9.999758, 9.999531 
6.8493915e+2, 1.6555141e+2, -1295572.0, -1217152.8, -28937.572, 0.023615427, 0.29136863, -1207630.8, 109985.53, 0.0, 9.999762, 10.00083 
6.8495625e+2, 1.755501e+2, -1172207.3, -1116684.5, -62990.48, -0.0045659123, 0.061440527, -1075609.3, 144010.44, 0.0, 9.999977, 10.000743 
6.8497396e+2, 1.8554969e+2, -1251484.4, -1312809.1, 19682.928, -0.042455018, 0.049105346, -1245710.5, -124086.39, 0.0, 9.999664, 9.998871 
6.849922e+2, 1.9554976e+2, -1257575.5, -1248366.4, 82443.97, -0.090151235, 0.14926267, -1170398.5, -146766.89, 0.0, 9.998878, 9.999017 
6.850095e+2, 2.0555004e+2, -974642.7, -872824.8, 8068.56, -0.09477463, 0.19046947, -872189.4, 53440.902, 0.0, 9.999333, 10.000702 
6.8502605e+2, 2.1555038e+2, -664240.4, -674127.56, -49852.9, -0.068847515, 0.1343043, -619086.56, 208536.81, 0.0, 10.000798, 10.0006895 
6.8504393e+2, 2.255507e+2, -650160.0, -735675.7, -6119.19, -0.006761029, 0.15445928, -649724.4, 79895.26, 0.0, 10.000726, 9.999639 
6.850629e+2, 2.3555082e+2, -750937.4, -733979.1, -16022.074, 0.08500753, 0.18648922, -724330.9, -92710.78, 0.0, 9.999361, 9.999634 
6.8508065e+2, 2.4555063e+2, -645858.3, -686118.06, -30550.467, 0.09566017, 0.23352633, -629402.06, -95780.06, 0.0, 9.999643, 9.999147 
6.8509734e+2, 2.5555006e+2, -314128.34, -486691.7, -33436.09, 0.03882945, 0.24136938, -307876.25, 127750.43, 0.0, 10.0013, 9.999044 
6.851144e+2, 2.6554796e+2, -282183.9, -654387.56, -20479.074, 0.02031059, 0.24477032, -281060.53, 56589.13, 0.0, 10.001857, 9.996951 
6.851316e+2, 2.7554452e+2, -225412.7, -560177.9, 1240.4984, 0.039202828, 0.18428884, -225408.11, 14281.224, 0.00000000039754933, 10.001499, 9.9971 
6.8514955e+2, 2.8554305e+2, 47316.56, -155888.72, 63053.906, 0.0307922, 0.22559927, 65291.895, 206994.13, 0.000001935021, 10.00175, 9.999081 
6.851677e+2, 2.9554302e+2, 256623.77, -22872.563, 29739.652, -0.0063554975, 0.29527625, 259753.16, 303448.3, 0.000022833043, 10.002584, 9.998921 
6.851859e+2, 3.0553913e+2, 120199.3, -397204.2, 14243.657, 0.022969026, 0.17838432, 120591.12, 120591.12, 0.00009092674, 10.0027685, 9.995921 
6.85202e+2, 3.1553355e+2, 204538.69, -81273.93, 20114.33, -0.12791824, 0.0023214705, 205947.31, 205947.31, 0.00021661, 10.002106, 9.998415 
6.948647e+2, 1.2553199e+2, -1789523.8, -1658685.0, -119928.99, -0.22199152, 0.15653007, -1587493.0, 122312.32, 0.00000000017840025, 9.999076, 10.000802 
6.948856e+2, 1.3553321e+2, -1618306.4, -1593875.6, -9347.2, 0.18430561, 0.23373191, -1590709.6, 21080.781, 0.0, 9.999869, 10.0002165 
6.949009e+2, 1.4553304e+2, -1535839.8, -1573990.3, 35592.793, -0.13789378, 0.23597856, -1514533.0, -741.05414, 0.0, 10.000052, 9.999589 
6.9491917e+2, 1.555319e+2, -1472786.9, -1487546.8, 32832.676, -0.17022575, 0.13864663, -1446515.0, -30710.08, 0.0, 9.999786, 9.999641 
6.949372e+2, 1.6553144e+2, -1353216.4, -1334953.3, -27818.924, -0.15678415, 0.11360444, -1314805.5, 3003.553, 0.0, 9.999757, 10.000021 
6.9495565e+2, 1.755315e+2, -1220533.9, -1214648.1, -47968.77, -0.08053133, 0.10102493, -1169532.0, 50274.58, 0.0, 9.999965, 10.000077 
6.9497377e+2, 1.8553215e+2, -1117869.9, -1025103.9, -15911.169, -0.04441877, 0.12017249, -1022450.7, 99347.164, 0.0, 9.999622, 10.000864 
6.9499165e+2, 1.9553304e+2, -1140450.4, -990603.75, 65941.25, -0.04749268, 0.10366171, -965718.5, 58067.484, 0.0, 9.998818, 10.000813 
6.9500935e+2, 2.0553313e+2, -1086930.3, -1086927.3, 55665.66, -0.056937344, 0.11519582, -1031263.06, -105477.36, 0.0, 9.99925, 9.999273 
6.95027e+2, 2.1553245e+2, -773272.25, -878854.75, 6961.281, -0.07159796, 0.10146856, -772815.25, 54980.81, 0.0, 10.000706, 9.999329 
6.9504446e+2, 2.2553255e+2, -665856.94, -746094.9, -64630.703, -0.039920438, 0.16714485, -629905.8, 99891.84, 0.0, 10.000633, 9.999609 
6.950617e+2, 2.3553309e+2, -762753.1, -741149.25, -53863.844, 0.023738353, 0.24218026, -697014.9, -65220.832, 0.0, 9.9992895, 9.999616 
6.950806e+2, 2.4553291e+2, -643879.7, -669810.0, 25210.088, 0.1091505, 0.28447405, -628496.25, -94700.55, 0.0, 9.999591, 9.999287 
6.9510055e+2, 2.5553203e+2, -309541.47, -464558.4, 32790.48, 0.2073735, 0.24670453, -302890.7, 132912.36, 0.0, 10.001242, 9.999227 
6.951177e+2, 2.6552978e+2, -242471.63, -560660.9, -40505.336, 0.1531997, 0.19052452, -237396.27, 100429.58, 0.0, 10.001813, 9.997615 
6.9513273e+2, 2.7552631e+2, -193084.48, -480494.84, -1671.2938, -0.015888683, 0.063359946, -193074.77, 46788.45, 0.0000000054780975, 10.001448, 9.997671 
6.951511e+2, 2.855254e+2, 9721.647, -226823.17, 87148.734, -0.002403513, 0.16212814, 38361.676, 180234.7, 0.000002364329, 10.001719, 9.998607 
6.951719e+2, 2.9552656e+2, 219795.14, -84157.41, 71960.65, 0.13247895, 0.39202228, 235970.95, 279832.5, 0.000027093956, 10.002521, 9.9985285 
6.951898e+2, 3.055229e+2, 168275.14, -292976.84, -13893.036, 0.112936206, 0.2774588, 168693.23, 168693.23, 0.00010798756, 10.00275, 9.996648 
6.9520336e+2, 3.155193e+2, 227353.02, -21049.54, 38749.42, -0.24283695, 0.2368986, 233257.38, 233257.38, 0.00025660693, 10.002057, 9.998853 
7.048628e+2, 1.2551321e+2, -2005490.9, -1781297.1, -132509.16, -0.23775862, 0.06724359, -1719830.3, -9841.795, 0.0, 9.997657, 10.00066 
7.0488507e+2, 1.3551533e+2, -1603155.9, -1604901.3, 16223.235, 0.14125848, 0.25296548, -1587781.9, 24184.262, 0.0, 10.000037, 10.000066 
7.0490134e+2, 1.4551492e+2, -1484533.1, -1521608.9, 14242.182, -0.09416174, 0.22670375, -1479693.9, 34275.313, 0.0, 10.000291, 9.999831 
7.049184e+2, 1.555134e+2, -1561856.4, -1500229.9, 1398.615, -0.18538596, 0.06806438, -1500198.1, -84214.734, 0.0, 9.999065, 9.999891 
7.049363e+2, 1.6551328e+2, -1514562.8, -1446020.3, 20473.424, -0.17247267, 0.07785407, -1440370.6, -122385.07, 0.0, 9.998799, 9.999718 
7.0495564e+2, 1.7551407e+2, -1346935.4, -1303197.8, 21406.865, -0.036401242, 0.16820723, -1294464.3, -74484.48, 0.0, 9.999227, 9.99982 
7.049738e+2, 1.8551467e+2, -1115146.0, -1006407.06, -11222.5, 0.010042639, 0.18688282, -1005260.94, 116710.27, 0.0, 9.99956, 10.001025 
7.049911e+2, 1.9551489e+2, -983781.9, -900799.25, -81263.61, -0.027679479, 0.08813576, -851047.5, 172915.1, 0.0, 9.9998255, 10.000949 
7.05009e+2, 2.0551473e+2, -1029724.25, -1083108.0, -58328.348, -0.038085822, 0.08019486, -992270.56, -66306.8, 0.0, 9.999747, 9.9990635 
7.050274e+2, 2.1551414e+2, -986605.25, -1004097.0, -30351.842, -0.024994517, 0.09886185, -963764.4, -135790.38, 0.0, 9.999337, 9.99913 
7.05045e+2, 2.2551404e+2, -758107.06, -797870.25, -62290.258, -0.012518265, 0.15745081, -712602.44, 17375.057, 0.0, 10.000039, 9.999533 
7.0506185e+2, 2.3551413e+2, -422361.5, -585896.4, -69211.9, -0.00910617, 0.19531967, -397001.9, 234975.58, 0.0, 10.001676, 9.999528 
7.050809e+2, 2.4551366e+2, -352190.78, -561047.75, 6983.638, 0.08846145, 0.2269485, -351957.53, 182025.3, 0.0, 10.001737, 9.998996 
7.0510185e+2, 2.5551257e+2, -434865.1, -549487.7, -29865.191, 0.26331902, 0.1988563, -427550.44, 8443.654, 0.0, 10.000492, 9.999001 
7.0511967e+2, 2.65511e+2, -333065.1, -501015.72, -79391.76, 0.22863717, 0.17030784, -301476.97, 36532.67, 0.0, 10.000749, 9.998538 
7.05135e+2, 2.7550885e+2, -22497.25, -299376.28, -39806.27, 0.033511125, 0.083510995, -16888.03, 223142.69, 0.000000016182126, 10.002202, 9.998548 
7.051533e+2, 2.855081e+2, 46326.938, -282900.84, 44353.688, 0.021470133, 0.18767639, 52197.6, 194238.23, 0.0000030357212, 10.002277, 9.997959 
7.0517373e+2, 2.955084e+2, -15546.9795, -258724.97, 4653.7285, 0.14171968, 0.40052295, -15457.953, 28584.154, 0.000031540207, 10.001163, 9.997986 
7.05192e+2, 3.055049e+2, 79265.336, -231139.9, -32848.063, 0.12473753, 0.2736591, 82703.34, 82703.34, 0.00012311795, 10.00169, 9.997581 
7.0520735e+2, 3.1550315e+2, 452742.97, 133065.25, 11650.192, -0.10825702, 0.32265398, 453166.97, 453166.97, 0.00029058926, 10.003418, 9.999251 
7.1486074e+2, 1.2549512e+2, -1981026.0, -1726388.0, -77944.586, -0.25227433, 0.12555358, -1704423.8, 5742.2915, 0.0, 9.997649, 10.001033 
7.148826e+2, 1.3549578e+2, -1574567.8, -1556137.0, 103643.31, -0.12205087, 0.1293665, -1461300.3, 150855.97, 0.0, 10.000079, 10.000382 
7.1490026e+2, 1.4549543e+2, -1460708.6, -1477435.5, -44245.633, -0.25532195, 0.07886964, -1424042.9, 90115.69, 0.0, 10.000317, 10.000117 
7.149176e+2, 1.5549605e+2, -1544243.1, -1461114.0, -34280.598, -0.18687691, 0.10210304, -1448801.1, -32648.145, 0.0, 9.999049, 10.000168 
7.149361e+2, 1.6549693e+2, -1506124.0, -1414678.9, 30762.84, -0.09039457, 0.18778533, -1405293.4, -87147.69, 0.0, 9.998748, 9.999954 
7.14956e+2, 1.7549776e+2, -1341904.4, -1288824.8, 45622.734, 0.06523662, 0.25964603, -1262583.9, -42444.543, 0.0, 9.999213, 9.999925 
7.149739e+2, 1.8549721e+2, -1236279.3, -1251182.9, -8088.619, 0.0517015, 0.24529697, -1232733.1, -110588.47, 0.0, 9.999532, 9.999357 
7.149903e+2, 1.9549537e+2, -1102304.0, -1129680.4, -63896.047, -0.10808339, 0.10729223, -1050646.4, -26485.732, 0.0, 9.999752, 9.999413 
7.150081e+2, 2.0549494e+2, -974242.8, -945446.8, -80983.81, -0.11378696, 0.093353234, -877591.06, 48572.39, 0.0, 9.999655, 10.00005 
7.1502715e+2, 2.1549547e+2, -938315.0, -877678.6, -36631.96, 0.004227575, 0.124721244, -860445.9, -32288.635, 0.0, 9.999231, 10.000046 
7.1504533e+2, 2.2549516e+2, -778239.1, -818863.44, -7959.122, 0.0077723605, 0.12618893, -776735.44, -46576.203, 0.0, 9.999946, 9.999435 
7.1506286e+2, 2.3549402e+2, -443631.2, -611336.25, -5364.659, -0.086159326, 0.049911816, -443459.75, 188710.02, 0.0, 10.001591, 9.999395 
7.1508163e+2, 2.4549295e+2, -412839.6, -670113.8, -47898.063, -0.032961186, 0.065963455, -404211.5, 129971.25, 0.0, 10.001664, 9.998284 
7.1510124e+2, 2.5549176e+2, -485044.1, -642490.06, -64357.39, 0.13652201, 0.1029457, -462085.3, -25885.813, 0.0, 10.000444, 9.998387 
7.151201e+2, 2.654916e+2, -251397.89, -328170.5, -32023.66, 0.17177168, 0.18187806, -239793.97, 98407.2, 0.0, 10.000731, 9.999734 
7.151381e+2, 2.754921e+2, 42597.496, -147638.44, 19091.283, 0.09897491, 0.23599227, 44494.5, 284687.13, 0.000000020828322, 10.002127, 9.999627 
7.1515584e+2, 2.8549105e+2, -11596.044, -393974.5, -6894.7363, 0.033519093, 0.3000336, -11471.765, 130733.664, 0.0000037854625, 10.002242, 9.997212 
7.151732e+2, 2.9548874e+2, -70527.21, -363856.44, -21195.227, -0.050026312, 0.32982033, -69003.61, -24767.6, 0.000035842306, 10.001131, 9.997278 
7.151924e+2, 3.054852e+2, 160348.9, -66372.19, 27978.898, -0.025216693, 0.17863819, 163750.64, 163750.64, 0.00013552581, 10.001696, 9.998713 
7.15213e+2, 3.1548518e+2, 461055.25, 175649.56, 98070.32, 0.07340833, 0.28217325, 491505.2, 491505.2, 0.00031572883, 10.003301, 9.999606 
7.248605e+2, 1.2547728e+2, -1672678.8, -1584243.8, -19737.768, -0.12981823, 0.18352604, -1580038.4, 130303.35, 0.0, 9.99975, 10.001026 
7.2488123e+2, 1.3547754e+2, -1733460.0, -1610573.6, 120733.3, -0.20383668, 0.13416588, -1536548.0, 75787.586, 0.0, 9.998902, 10.000578 
7.248998e+2, 1.4547712e+2, -1658372.9, -1566006.0, -57498.27, -0.25656483, 0.06504072, -1538440.1, -24101.357, 0.0, 9.998927, 10.000184 
7.249176e+2, 1.5547834e+2, -1427636.3, -1393660.9, -78946.49, -0.12266344, 0.14427154, -1329895.0, 86432.59, 0.0, 9.9998, 10.000269 
7.2493595e+2, 1.6547927e+2, -1284088.8, -1295692.1, 6774.758, -0.044081606, 0.22329597, -1280971.0, 37347.957, 0.0, 10.000201, 10.000078 
7.2495526e+2, 1.7547968e+2, -1189835.4, -1201412.8, -1620.5531, 0.026070083, 0.23835477, -1189612.8, 30702.178, 0.0, 10.000191, 10.000052 
7.249734e+2, 1.854789e+2, -1167930.3, -1275354.4, 1016.36597, 0.013946604, 0.22178356, -1167920.6, -45597.684, 0.0, 10.000237, 9.998855 
7.249906e+2, 1.9547702e+2, -1054636.8, -1159971.1, 18261.129, -0.07370486, 0.12999745, -1051560.8, -27218.355, 0.0, 10.0002985, 9.998946 
7.250084e+2, 2.0547648e+2, -881314.9, -891400.75, 5102.5615, -0.07087802, 0.12015303, -879183.75, 47162.52, 0.0, 10.000245, 10.000143 
7.250267e+2, 2.1547677e+2, -807260.06, -808943.25, -28287.137, 0.0039837523, 0.119063355, -779802.0, 48537.797, 0.0, 10.000095, 10.000109 
7.250453e+2, 2.2547616e+2, -763191.0, -848143.06, 23255.996, 0.00242714, 0.105862334, -757241.25, -26897.037, 0.0, 10.000207, 9.999109 
7.250642e+2, 2.3547475e+2, -615548.5, -730333.94, -9863.518, -0.055098347, 0.036640313, -614707.1, 17651.682, 0.0, 10.000565, 9.999075 
7.2508305e+2, 2.4547374e+2, -509622.8, -709319.4, -62318.52, -0.014771119, 0.069861494, -491771.16, 42600.42, 0.0, 10.000965, 9.998349 
7.251017e+2, 2.554729e+2, -336312.88, -566198.56, -34407.336, 0.09113639, 0.13293742, -331273.56, 105111.05, 0.0, 10.001442, 9.998431 
7.251206e+2, 2.654726e+2, -175235.86, -311132.53, 10583.47, 0.1267788, 0.20375198, -174416.58, 163971.27, 0.0, 10.001345, 9.999551 
7.2513974e+2, 2.754725e+2, -160370.81, -264299.06, -56460.87, 0.12547341, 0.22160116, -135600.97, 104784.15, 0.000000011844985, 10.000812, 9.99946 
7.251577e+2, 2.8547123e+2, -149792.63, -450050.1, -86299.14, 0.04941625, 0.26487565, -126756.18, 15643.719, 0.000004675658, 10.001267, 9.99729 
7.2517437e+2, 2.9546884e+2, 139563.95, -253725.86, -60245.332, -0.10644385, 0.27808568, 148585.58, 193015.73, 0.000040333267, 10.002544, 9.997351 
7.251938e+2, 3.054659e+2, 249535.63, 18110.373, -3880.3499, -0.06684716, 0.16771798, 249600.67, 249600.67, 0.00014552723, 10.002139, 9.999079 
7.2521627e+2, 3.1546554e+2, 15331.344, -37333.516, -23489.195, 0.23063089, 0.2023032, 24285.443, 24285.443, 0.0003309744, 10.000227, 9.999622 
7.3486185e+2, 1.254598e+2, -1685707.6, -1613113.6, -69425.73, -0.005422666, 0.26160443, -1571069.0, 139445.36, 0.0, 9.999778, 10.000801 
7.348806e+2, 1.3546064e+2, -1741035.6, -1621581.6, 92098.86, -0.17214316, 0.27409133, -1571538.3, 40965.375, 0.0, 9.998879, 10.000511 
7.3489976e+2, 1.454599e+2, -1676905.5, -1589292.8, -32496.68, -0.1734508, 0.18046851, -1578555.3, -64044.91, 0.0, 9.998872, 10.000043 
7.3491824e+2, 1.5546024e+2, -1441034.1, -1423645.4, -36487.746, -0.06553875, 0.18521804, -1394830.5, 21677.49, 0.0, 9.999812, 10.000055 
7.349357e+2, 1.6546029e+2, -1275566.0, -1283251.3, -4442.981, -0.107229605, 0.18294832, -1273534.5, 44971.383, 0.0, 10.000221, 10.000153 
7.3495305e+2, 1.7545985e+2, -1183547.6, -1186338.9, 5092.53, -0.22797419, 0.105665706, -1179662.9, 40843.344, 0.0, 10.000176, 10.000165 
7.349719e+2, 1.854598e+2, -1129329.8, -1181958.8, -3705.4724, -0.1763266, 0.12093175, -1129070.1, -6563.9517, 0.0, 10.000184, 9.99952 
7.3499185e+2, 1.954599e+2, -1024108.8, -1077870.6, 27504.52, 0.0064840657, 0.16220312, -1012530.9, 11976.256, 0.0, 10.000225, 9.999541 
7.3500973e+2, 2.0545939e+2, -944773.2, -1007049.75, -7624.7417, 0.022844717, 0.16798237, -943853.25, -17341.75, 0.0, 10.000173, 9.999385 
7.350259e+2, 2.1545812e+2, -869323.8, -918891.06, -24770.03, -0.104230314, 0.08474346, -859067.7, -30547.059, 0.0, 10.000016, 9.999389 
7.3504466e+2, 2.2545718e+2, -817064.56, -942770.44, 28560.273, -0.09755067, 0.10228131, -810880.0, -80348.91, 0.0, 10.00013, 9.998498 
7.3506564e+2, 2.3545632e+2, -666648.9, -813813.3, 12292.026, 0.01636821, 0.14693731, -665629.25, -33084.797, 0.0, 10.000465, 9.99855 
7.3508495e+2, 2.45456e+2, -460830.53, -592078.6, -49705.957, 0.06487285, 0.23010753, -444130.84, 90418.74, 0.0, 10.000897, 9.9991865 
7.3510295e+2, 2.554559e+2, -298463.53, -468095.22, -10385.221, 0.05636879, 0.2852666, -297830.1, 138719.84, 0.0, 10.001361, 9.999143 
7.351212e+2, 2.6545402e+2, -288514.94, -535150.2, -14735.799, 0.042453986, 0.24413373, -287637.66, 50931.17, 0.0, 10.001296, 9.998037 
7.351398e+2, 2.7545038e+2, -263644.22, -470795.84, -59980.934, 0.03253916, 0.057565298, -247530.17, -6924.4854, 0.000000051096855, 10.000776, 9.998061 
7.3515844e+2, 2.8544873e+2, -86791.445, -322345.53, -42045.723, -0.020060275, 0.087372325, -79511.41, 63111.316, 0.0000058850314, 10.001275, 9.998162 
7.351769e+2, 2.9544872e+2, 184794.36, -145420.45, -2538.102, -0.12586021, 0.25029957, 184813.86, 229437.72, 0.000044056193, 10.0024805, 9.998125 
7.35196e+2, 3.05447e+2, 218325.61, -49674.164, -76163.53, -0.081240125, 0.24825831, 238458.3, 238458.3, 0.00015023218, 10.002144, 9.998614 
7.352166e+2, 3.1544453e+2, -16137.123, -102696.836, -72917.375, 0.20226729, 0.11278068, 25377.414, 25377.414, 0.0003328002, 10.000224, 9.999175 
7.448615e+2, 1.254412e+2, -1778125.0, -1733847.6, -50650.44, 0.004403318, 0.23075238, -1700709.0, 9984.804, 0.0, 9.99948, 10.000105 
7.448804e+2, 1.3544184e+2, -1645664.9, -1620545.8, 36579.836, -0.11674348, 0.2711405, -1594429.4, 18258.895, 0.0, 9.999745, 10.000091 
7.4490017e+2, 1.4544109e+2, -1547328.9, -1533834.1, -53023.793, -0.056936793, 0.2003608, -1487130.1, 27566.482, 0.0, 9.999784, 9.999985 
7.449182e+2, 1.5544164e+2, -1435807.0, -1424400.4, -69105.14, -0.04146313, 0.23131154, -1360763.6, 55928.508, 0.0, 9.999864, 10.00002 
7.449357e+2, 1.6544142e+2, -1347243.1, -1318607.3, -39993.156, -0.10555092, 0.20541152, -1290446.3, 28245.547, 0.0, 9.999732, 10.000152 
7.4495333e+2, 1.754403e+2, -1288362.9, -1233843.8, -52017.637, -0.18040627, 0.060415883, -1202375.9, 18322.041, 0.0, 9.999441, 10.000198 
7.4497205e+2, 1.8544042e+2, -1210808.6, -1180978.4, -49443.08, -0.13502365, 0.07195281, -1144249.8, -21554.535, 0.0, 9.999455, 9.999877 
7.449916e+2, 1.9544137e+2, -1072623.4, -1065716.1, -55416.473, -0.011382179, 0.16181773, -1013645.75, 11041.483, 0.0, 9.99974, 9.999857 
7.450099e+2, 2.0544097e+2, -910603.5, -1028282.06, -56111.25, 0.008432764, 0.18271132, -888137.56, 38553.555, 0.0, 10.000579, 9.999033 
7.450273e+2, 2.1543926e+2, -622160.8, -839580.56, -61756.01, -0.05236369, 0.092933774, -605844.1, 222862.64, 0.0, 10.001887, 9.99903 
7.450462e+2, 2.2543828e+2, -567253.1, -816646.56, 8057.5547, -0.037957244, 0.12195488, -566993.06, 163725.13, 0.0, 10.001822, 9.9985485 
7.4506617e+2, 2.3543775e+2, -646392.3, -796258.4, 24152.756, 0.025415352, 0.19375242, -642596.0, -9868.136, 0.0, 10.0005665, 9.998623 
7.4508554e+2, 2.4543734e+2, -543659.0, -596559.3, 11096.441, 0.06858224, 0.24785693, -541425.7, -6693.4224, 0.0, 10.0001745, 9.999507 
7.451044e+2, 2.5543687e+2, -390458.4, -479352.16, -4842.6436, 0.105726704, 0.2323156, -390195.38, 46538.72, 0.0, 10.000585, 9.999442 
7.4512255e+2, 2.65435e+2, -352615.03, -596428.25, 22138.227, 0.0681097, 0.19498956, -350621.2, -11868.584, 0.0, 10.000981, 9.997771 
7.4514014e+2, 2.754318e+2, -192514.61, -458900.16, 52134.64, -0.030022694, 0.07987989, -182674.75, 58112.242, 0.00000017449423, 10.0013685, 9.997855 
7.4515945e+2, 2.854301e+2, -32979.676, -235215.77, 132026.28, -0.044753067, 0.08459354, 32202.61, 175005.47, 0.0000070145306, 10.001383, 9.998707 
7.451801e+2, 2.954296e+2, 26896.68, -164378.06, 130061.05, 0.0128859095, 0.13803464, 92697.79, 137501.97, 0.00004543542, 10.00115, 9.998632 
7.4519897e+2, 3.0542806e+2, 103159.836, -192778.28, 25382.875, 0.027045254, 0.16988806, 105321.164, 105321.164, 0.00014809403, 10.001733, 9.99783 
7.4521756e+2, 3.154252e+2, 322939.53, 10521.507, -28441.58, 0.15793759, 0.07770673, 325507.66, 325507.66, 0.00032277982, 10.002773, 9.998725 
7.548588e+2, 1.2542138e+2, -1866390.9, -1905293.9, -40671.85, -0.2549159, 0.08030795, -1840758.5, -129878.49, 0.0, 9.999444, 9.9989395 
7.548803e+2, 1.35421e+2, -1709115.8, -1751438.5, 48942.895, -0.11272217, 0.107178375, -1676955.4, -64064.73, 0.0, 9.999753, 9.999185 
7.5490093e+2, 1.4542057e+2, -1541131.9, -1527641.4, -62899.59, 0.021598758, 0.11398054, -1471126.4, 43772.03, 0.0, 9.999807, 10.000019 
7.549173e+2, 1.5542266e+2, -1431372.0, -1413398.4, -58980.11, -0.1377278, 0.29402676, -1362724.4, 54154.633, 0.0, 9.999853, 10.000104 
7.5493544e+2, 1.6542281e+2, -1353429.3, -1327813.1, -60194.766, -0.11825462, 0.30022946, -1279078.9, 39797.164, 0.0, 9.999717, 10.000096 
7.5495577e+2, 1.754211e+2, -1298253.5, -1250478.6, -54710.76, 0.104758486, 0.10680843, -1214667.9, 6221.4106, 0.0, 9.999428, 10.000092 
7.549737e+2, 1.8542078e+2, -1210003.8, -1171229.6, -47124.71, 0.06900292, 0.078296766, -1139659.9, -16769.959, 0.0, 9.999419, 9.999963 
7.549895e+2, 1.9542143e+2, -1076588.4, -1056802.4, -35061.6, -0.20755464, 0.12960365, -1030264.75, -5382.681, 0.0, 9.999668, 9.999952 
7.5500864e+2, 2.0542124e+2, -923822.2, -1039320.7, -14794.898, -0.18633723, 0.16807212, -921957.1, 4927.67, 0.0, 10.000503, 9.999 
7.5503075e+2, 2.1542016e+2, -637435.5, -843807.06, -9146.746, 0.092160925, 0.14306723, -637030.9, 191867.22, 0.0, 10.001773, 9.999056 
7.5504965e+2, 2.2541954e+2, -533820.3, -721819.3, -45301.96, 0.111272015, 0.17019273, -523473.38, 207431.58, 0.0, 10.001715, 9.999251 
7.5506556e+2, 2.3541912e+2, -614563.94, -708490.6, -10946.976, -0.10037776, 0.18580885, -613304.94, 19603.387, 0.0, 10.000476, 9.9992695 
7.5508434e+2, 2.4541792e+2, -565039.56, -632002.2, 18240.879, -0.07550347, 0.14101237, -560393.06, -25474.691, 0.0, 10.0001335, 9.999283 
7.551056e+2, 2.554158e+2, -404780.22, -503425.72, 17468.492, 0.15348554, -0.01853481, -401778.2, 35158.293, 0.0, 10.000556, 9.99929 
7.551242e+2, 2.6541552e+2, -288564.28, -458700.3, 28950.928, 0.11874809, 0.058109567, -283772.84, 55166.58, 0.0, 10.000965, 9.998724 
7.551406e+2, 2.7541664e+2, -140216.5, -334222.7, 73928.836, -0.13923933, 0.2803756, -115256.19, 125675.12, 0.0000002213921, 10.0013, 9.998745 
7.551605e+2, 2.854152e+2, -21590.912, -205683.05, 113057.71, -0.090682335, 0.2550575, 32152.338, 175094.78, 0.000006961638, 10.001351, 9.998929 
7.551834e+2, 2.9541135e+2, 35634.152, -138588.03, 130122.95, 0.2109421, -0.04411485, 105112.73, 150084.75, 0.00004401986, 10.001107, 9.998837 
7.552022e+2, 3.054089e+2, 18934.324, -350206.75, 59247.832, 0.15819699, -0.05830637, 28210.605, 28210.605, 0.0001416952, 10.001674, 9.996769 
7.552187e+2, 3.1540737e+2, 277127.0, -63538.4, 22822.613, -0.04965912, 0.08889981, 278649.2, 278649.2, 0.00030697437, 10.002694, 9.998248 
7.648589e+2, 1.2540163e+2, -1826490.0, -1900877.9, -55937.504, -0.19026996, 0.021887567, -1796509.5, -85437.65, 0.00000000032551553, 9.999728, 9.998846 
7.648799e+2, 1.3540198e+2, -1694068.9, -1739551.4, 52058.273, -0.1292379, 0.111619316, -1660001.4, -46926.21, 0.0, 9.9998, 9.999252 
7.649007e+2, 1.4540157e+2, -1598873.8, -1586472.9, -16273.743, 0.03659743, 0.1291041, -1575258.4, -60175.215, 0.0, 9.999546, 9.999742 
7.649173e+2, 1.5540256e+2, -1512396.5, -1484466.5, -56253.457, -0.0963553, 0.22832505, -1440470.6, -23395.547, 0.0, 9.999429, 9.999826 
7.649355e+2, 1.6540283e+2, -1372988.1, -1334577.9, -47075.29, -0.0712261, 0.25901663, -1302940.9, 16131.154, 0.0, 9.9995775, 10.0001135 
7.6495564e+2, 1.7540227e+2, -1223113.9, -1209618.6, -49002.695, 0.13146542, 0.17749153, -1166901.1, 54174.293, 0.0, 9.999931, 10.000125 
7.6497376e+2, 1.8540193e+2, -1078183.0, -1100731.5, -11395.979, 0.09132538, 0.13997647, -1073426.8, 49649.28, 0.0, 10.000293, 10.000025 
7.649899e+2, 1.9540155e+2, -930769.0, -983156.44, -15373.326, -0.1724451, 0.08310922, -926590.8, 98485.445, 0.0, 10.000645, 9.999992 
7.6500946e+2, 2.0540129e+2, -924794.5, -1055988.5, 18890.203, -0.15137362, 0.119779035, -922128.7, 4951.569, 0.0, 10.0005665, 9.998856 
7.650318e+2, 2.154009e+2, -886441.7, -980755.56, -2576.9937, 0.10999718, 0.17833509, -886371.4, -57281.723, 0.0, 10.000123, 9.998917 
7.650506e+2, 2.2540057e+2, -720223.9, -758534.44, -66065.82, 0.1218708, 0.2164683, -670592.4, 60501.09, 0.0, 10.000215, 9.999721 
7.650663e+2, 2.3540017e+2, -540732.44, -625674.2, -64450.027, -0.08303793, 0.18845586, -506017.94, 127075.984, 0.0, 10.000785, 9.999687 
7.650852e+2, 2.4539882e+2, -422466.22, -612541.4, -7578.1113, -0.06255492, 0.13353342, -422164.56, 112940.59, 0.0, 10.001329, 9.998841 
7.651066e+2, 2.5539652e+2, -247661.55, -472848.25, -41827.195, 0.14681879, 0.00045203857, -240143.39, 196983.73, 0.0, 10.001842, 9.99888 
7.6512533e+2, 2.6539618e+2, -159541.72, -367814.56, -75826.984, 0.10225058, 0.07871656, -134859.95, 204270.73, 0.0, 10.001735, 9.998976 
7.6514167e+2, 2.7539733e+2, -153027.92, -311094.72, -97373.97, -0.14803705, 0.2789505, -106650.12, 134470.33, 0.00000016204108, 10.001095, 9.998999 
7.651618e+2, 2.8539604e+2, -80172.41, -238781.7, -63820.477, -0.07455211, 0.2579138, -57681.766, 85447.84, 0.000006290961, 10.000967, 9.998888 
7.6518506e+2, 2.9539242e+2, 50966.37, -130733.0, -80216.555, 0.26503554, -0.012194654, 81312.234, 126469.32, 0.000041719115, 10.001221, 9.998831 
7.652043e+2, 3.053896e+2, 44350.54, -341936.16, -70385.03, 0.20558389, -0.06077963, 56775.684, 56775.684, 0.00013461517, 10.00186, 9.996738 
7.6522154e+2, 3.1538847e+2, 263290.8, -49850.547, -71780.65, -0.016594008, 0.12668605, 278960.78, 278960.78, 0.00029000925, 10.002521, 9.998421 
7.748614e+2, 1.2538186e+2, -1752955.3, -1735335.0, -55128.566, 0.04387183, 0.049271297, -1688317.0, 22953.57, 0.00000000045588486, 9.999684, 9.999999 
7.748787e+2, 1.3538496e+2, -1611170.6, -1568199.9, 54048.758, -0.24935994, 0.2957174, -1531522.6, 81717.79, 0.0, 9.9998045, 10.000424 
7.748992e+2, 1.453842e+2, -1639581.8, -1672548.3, -33779.074, -0.09679887, 0.24891746, -1618478.9, -103229.22, 0.0, 9.999552, 9.99915 
7.7491796e+2, 1.5538143e+2, -1554581.9, -1574564.1, -51644.04, 0.0123292655, 0.038064238, -1511971.4, -94691.85, 0.0, 9.999436, 9.9992075 
7.749356e+2, 1.6538155e+2, -1365981.0, -1315013.5, -42451.145, -0.03669678, 0.07760505, -1290984.4, 28295.043, 0.0, 9.999557, 10.0002575 
7.749527e+2, 1.753839e+2, -1213645.4, -1186245.6, -26106.877, -0.17759117, 0.27006075, -1170462.4, 50793.563, 0.0, 9.999913, 10.000295 
7.749718e+2, 1.8538395e+2, -1083072.9, -1099646.6, -4074.389, -0.1472916, 0.2614109, -1082125.5, 41127.242, 0.0, 10.000244, 10.000059 
7.749927e+2, 1.9538185e+2, -939609.5, -984051.0, 4856.137, 0.020368915, 0.030964646, -939085.06, 86183.55, 0.0, 10.000569, 10.000024 
7.750121e+2, 2.0538121e+2, -959212.06, -1104373.8, -6387.984, 0.04061316, 0.042493224, -958931.5, -31654.7, 0.0, 10.000467, 9.998572 
7.7503026e+2, 2.1538158e+2, -921481.94, -1027770.0, -10230.163, -0.06768944, 0.20608367, -920506.25, -91225.63, 0.0, 10.000017, 9.998643 
7.75049e+2, 2.253815e+2, -722086.1, -737041.2, -53207.953, -0.078686304, 0.27212575, -675832.8, 55449.84, 0.0, 10.000107, 9.999921 
7.7506804e+2, 2.3538081e+2, -541012.2, -605469.9, -35455.926, -0.0035935943, 0.19488458, -525326.3, 107959.06, 0.0, 10.000692, 9.999872 
7.750876e+2, 2.4537997e+2, -480174.47, -715290.06, 3193.7466, 0.027964804, 0.21697788, -480131.1, 55162.2, 0.0, 10.001257, 9.998172 
7.751074e+2, 2.5537893e+2, -305086.16, -576259.9, -14783.036, 0.020897431, 0.27745825, -304282.63, 133024.08, 0.0, 10.001772, 9.998205 
7.751258e+2, 2.6537699e+2, -195905.78, -433904.66, -104403.65, -0.040249787, 0.25169268, -156598.6, 182727.31, 0.0, 10.001693, 9.998544 
7.7514297e+2, 2.7537405e+2, -186199.75, -373656.1, -110162.15, -0.14378126, 0.08523474, -135288.14, 106064.586, 0.00000014054619, 10.001062, 9.998589 
7.751628e+2, 2.8537273e+2, -102327.69, -277240.97, -58808.64, -0.085027814, 0.0969471, -84394.0, 58968.707, 0.0000059856334, 10.000939, 9.998634 
7.751849e+2, 2.953727e+2, 34092.14, -164530.17, -58281.336, 0.10827335, 0.20620942, 49930.54, 95290.53, 0.0000396548, 10.00121, 9.998605 
7.752053e+2, 3.0537012e+2, 105347.91, -207873.95, -45229.035, 0.10933007, 0.14365432, 111748.17, 111748.17, 0.00012692052, 10.001827, 9.997677 
7.7522534e+2, 3.1536832e+2, 304177.72, 51424.902, -28680.77, 0.068151124, 0.17576198, 307391.38, 307391.38, 0.00027213217, 10.002437, 9.999165 
7.8486174e+2, 1.2536289e+2, -1535540.4, -1604303.1, -2161.9832, 0.05705139, 0.12101777, -1535472.5, 175985.08, 0.0000000009851104, 10.00106, 10.000239 
7.848787e+2, 1.3536526e+2, -1645860.9, -1550762.9, -21079.676, -0.20134613, 0.2659057, -1546299.8, 67132.39, 0.0, 9.999438, 10.000713 
7.8489894e+2, 1.4536476e+2, -1695604.5, -1678434.3, -51291.027, -0.042017646, 0.21992245, -1635014.8, -119577.19, 0.0, 9.999074, 9.999341 
7.849178e+2, 1.5536228e+2, -1466150.0, -1513647.5, -22527.727, 0.025889149, 0.019472873, -1457165.0, -39700.46, 0.0, 9.9999695, 9.999367 
7.849352e+2, 1.6536243e+2, -1291873.4, -1291301.6, 4792.597, -0.05401849, 0.060315583, -1286786.4, 32678.102, 0.0, 10.00012, 10.00014 
7.84952e+2, 1.7536457e+2, -1275968.5, -1228755.0, -18537.89, -0.21671946, 0.2428408, -1222346.3, -902.4267, 0.0, 9.999544, 10.000172 
7.849715e+2, 1.8536471e+2, -1237413.6, -1204254.3, 6886.1904, -0.15015736, 0.26342943, -1202881.1, -79439.734, 0.0, 9.999317, 9.999787 
7.8499335e+2, 1.9536296e+2, -1137929.5, -1103752.0, -22066.152, 0.09947744, 0.09305406, -1092931.3, -67474.71, 0.0, 9.999325, 9.999797 
7.850127e+2, 2.0536226e+2, -1017818.1, -1072368.6, 6260.291, 0.093009934, 0.082953386, -1017108.9, -89644.875, 0.0, 9.99981, 9.999105 
7.850299e+2, 2.153623e+2, -803474.44, -916543.8, 47761.793, -0.1301897, 0.15997003, -785999.94, 43466.73, 0.0, 10.000599, 9.999125 
7.85049e+2, 2.2536196e+2, -600940.56, -744103.9, 31466.824, -0.12983465, 0.20681529, -594329.56, 137141.23, 0.0, 10.001208, 9.999343 
7.8506976e+2, 2.3536111e+2, -441965.53, -618410.3, -25012.75, 0.06121919, 0.1721456, -438488.28, 194989.75, 0.0, 10.001634, 9.999329 
7.850894e+2, 2.4536048e+2, -449953.56, -681945.3, 11199.911, 0.08416575, 0.23072727, -449414.13, 86071.086, 0.0, 10.001393, 9.998325 
7.851079e+2, 2.553598e+2, -466301.84, -638145.2, 35976.637, -0.03750601, 0.31304124, -459073.9, -21579.813, 0.0, 10.000597, 9.998339 
7.8512657e+2, 2.653577e+2, -342545.7, -522480.1, 12795.741, -0.0753888, 0.270239, -341640.28, -2126.0002, 0.0, 10.000757, 9.99839 
7.8514534e+2, 2.7535412e+2, -99021.06, -350270.6, 9769.895, -0.038081463, 0.05784782, -98641.73, 142904.66, 0.0000001311964, 10.001738, 9.998426 
7.851652e+2, 2.8535247e+2, 5510.0566, -276808.47, 64681.07, 0.0163987, 0.06537401, 19623.387, 163184.25, 0.0000058891046, 10.0019, 9.998177 
7.85186e+2, 2.953524e+2, 14265.213, -220985.81, 36318.7, 0.091948956, 0.22124878, 19744.57, 65305.383, 0.000037489564, 10.001285, 9.99818 
7.8520656e+2, 3.0534986e+2, 42909.164, -190333.9, 64517.684, 0.09152056, 0.15698184, 59565.96, 59565.96, 0.00011865352, 10.001177, 9.998111 
7.8522813e+2, 3.1534877e+2, 151347.98, -17807.957, 10386.334, 0.17081256, 0.2147472, 151983.33, 151983.33, 0.0002544846, 10.001349, 9.999214 
7.948594e+2, 1.253449e+2, -1582612.1, -1709051.4, -64635.277, -0.3278646, 0.2345919, -1555419.1, 156211.6, 0.0000000034592607, 10.001103, 9.999497 
7.948797e+2, 1.353429e+2, -1686974.5, -1638891.8, -78362.27, -0.06541378, 0.012112377, -1580965.9, 32684.23, 0.0, 9.999462, 10.000092 
7.948999e+2, 1.4534318e+2, -1627669.6, -1533582.5, -28900.441, 0.12880605, 0.024601586, -1525414.4, -9766.611, 0.0, 9.999057, 10.000343 
7.949163e+2, 1.5534517e+2, -1394189.8, -1368917.1, 20238.605, -0.14146951, 0.16515787, -1357693.9, 59935.48, 0.0, 9.999985, 10.000353 
7.94934e+2, 1.6534555e+2, -1327032.8, -1357747.4, -24374.4, -0.20506173, 0.20556279, -1313581.1, 6045.203, 0.0, 10.000091, 9.999701 
7.949533e+2, 1.7534436e+2, -1307586.1, -1294644.6, -33181.05, -0.051252726, 0.09842407, -1267309.3, -45670.758, 0.0, 9.999541, 9.999723 
7.949726e+2, 1.8534423e+2, -1287150.4, -1292418.3, -1081.316, 0.013121822, 0.14368518, -1286937.1, -163295.0, 0.0, 9.999251, 9.999212 
7.949916e+2, 1.9534485e+2, -1180380.6, -1178972.5, -12738.224, -0.021084625, 0.26521504, -1166918.9, -141278.73, 0.0, 9.999268, 9.999305 
7.950109e+2, 2.0534447e+2, -938546.5, -884904.3, 27339.086, -0.074986, 0.24039759, -873426.6, 54215.086, 0.0, 9.999712, 10.000441 
7.950305e+2, 2.1534294e+2, -728913.9, -741231.2, 84375.305, -0.14736114, 0.028941184, -650472.75, 179176.02, 0.0, 10.000509, 10.000373 
7.950506e+2, 2.2534193e+2, -710624.5, -944512.1, 40772.863, -0.103532106, 0.016082885, -703720.5, 27937.52, 0.0, 10.001092, 9.998022 
7.9507136e+2, 2.3534122e+2, -542707.0, -807939.44, -1739.5955, 0.038549494, 0.12589216, -542695.56, 90975.27, 0.0, 10.001542, 9.998074 
7.950904e+2, 2.4534036e+2, -395956.8, -552925.4, -28058.67, 0.030140087, 0.17734168, -391092.0, 144588.45, 0.0, 10.001321, 9.999247 
7.951079e+2, 2.5533918e+2, -412044.88, -512380.1, 14592.271, -0.11143226, 0.116634265, -409965.72, 27723.719, 0.0, 10.000538, 9.999232 
7.951274e+2, 2.653382e+2, -335416.6, -505725.78, 40081.188, -0.08482454, 0.13916421, -326455.25, 13241.531, 0.0, 10.000741, 9.998515 
7.951485e+2, 2.753373e+2, -99646.65, -344872.8, 53310.5, 0.086698726, 0.1814392, -88558.66, 153145.69, 0.000000103459534, 10.001701, 9.998485 
7.9516864e+2, 2.853351e+2, -42956.742, -372670.97, 34019.816, 0.1542104, 0.16431423, -39483.184, 104242.42, 0.0000054454867, 10.001881, 9.997527 
7.951877e+2, 2.9533163e+2, -33176.203, -313497.75, 26292.063, 0.116400205, 0.044555407, -30731.523, 15028.028, 0.00003447301, 10.001255, 9.997562 
7.952076e+2, 3.053288e+2, 39971.95, -196022.83, 70256.305, 0.061947536, -0.017003478, 59303.844, 59303.844, 0.0001104858, 10.001173, 9.998073 
7.952296e+2, 3.1532952e+2, 92931.195, -128049.75, 41863.242, 0.13520159, 0.22480918, 100596.03, 100596.03, 0.000240168, 10.001295, 9.998486 
8.048591e+2, 1.2532449e+2, -1968532.3, -1873629.4, -66721.19, -0.32244393, 0.1463069, -1839206.8, -127378.39, 0.0000000057252847, 9.998369, 9.999695 
8.04879e+2, 1.3532287e+2, -1667547.5, -1625209.3, -66738.19, -0.072260715, -0.041386295, -1576363.3, 37481.645, 0.0, 9.999565, 10.0001545 
8.048991e+2, 1.4532381e+2, -1515019.4, -1445305.0, 13121.453, 0.11660206, 0.018671846, -1442917.1, 72919.27, 0.0, 9.999684, 10.000648 
8.04916e+2, 1.5532619e+2, -1520029.8, -1401626.1, -17826.35, -0.1099266, 0.17203155, -1399000.4, 18813.066, 0.0, 9.999001, 10.000606 
8.049342e+2, 1.653265e+2, -1465389.9, -1441089.5, -56944.53, -0.1436317, 0.2014479, -1395013.4, -75202.46, 0.0, 9.9992075, 9.999564 
8.049539e+2, 1.753249e+2, -1228006.0, -1274009.3, -58557.95, 0.020488424, 0.07065452, -1188094.1, 33733.164, 0.0, 10.000166, 9.999572 
8.0497277e+2, 1.8532458e+2, -1113223.4, -1231292.1, -59.939457, 0.051904652, 0.114171535, -1113223.4, 10610.322, 0.0, 10.000547, 9.999003 
8.0499107e+2, 1.9532515e+2, -1042285.0, -1142327.8, -2483.8713, -0.050745472, 0.25447267, -1042223.4, -16389.746, 0.0, 10.00034, 9.999046 
8.0501074e+2, 2.0532486e+2, -852350.06, -844568.0, 28364.04, -0.09115506, 0.25413644, -819829.3, 108005.29, 0.0, 10.000307, 10.000434 
8.0503154e+2, 2.1532363e+2, -749013.9, -749781.5, -33565.387, -0.07424201, 0.07242829, -715830.1, 114008.33, 0.0, 10.000372, 10.000377 
8.050521e+2, 2.2532256e+2, -821965.94, -994553.7, -69328.16, -0.016686486, 0.051676624, -797566.44, -65718.98, 0.0, 10.000318, 9.998048 
8.050724e+2, 2.3532148e+2, -753921.7, -906728.56, -25379.723, 0.073029906, 0.12324578, -749816.6, -115954.125, 0.0, 10.00009, 9.99809 
8.0509144e+2, 2.4532017e+2, -519210.3, -625640.7, -28551.168, 0.049420137, 0.13329661, -512034.9, 23840.824, 0.0, 10.000519, 9.999142 
8.051093e+2, 2.553184e+2, -278778.03, -461528.5, -77399.664, -0.06993365, 0.027033081, -250402.94, 187486.94, 0.0, 10.001502, 9.999127 
8.051291e+2, 2.653176e+2, -187092.34, -420859.84, -66404.67, -0.033478674, 0.06402382, -169546.22, 170349.33, 0.0, 10.00171, 9.998625 
8.051505e+2, 2.753174e+2, -156633.1, -357120.25, -69455.03, 0.14455847, 0.16556577, -134922.69, 106973.2, 0.00000004701224, 10.0012455, 9.998612 
8.051706e+2, 2.853154e+2, -103190.46, -400993.4, -47887.992, 0.19298881, 0.16379811, -95679.31, 48236.355, 0.000004093495, 10.001465, 9.997532 
8.0518943e+2, 2.953117e+2, 129242.37, -231093.06, -29931.322, 0.119790226, 0.015423382, 131711.7, 177665.34, 0.000029631305, 10.002354, 9.997597 
8.0520916e+2, 3.0530936e+2, 237807.2, -56272.48, 48779.484, 0.051213216, -0.017967451, 245687.19, 245687.19, 0.00010221737, 10.002354, 9.998469 
8.0523103e+2, 3.1530955e+2, 113606.2, -98031.15, 24092.488, 0.15375385, 0.13487355, 116314.2, 116314.2, 0.00023173615, 10.001381, 9.998646 
8.148604e+2, 1.2530155e+2, -1897994.1, -1721555.1, -30016.764, -0.07076985, -0.15803899, -1716588.3, -4537.054, 0.000000004999778, 9.998352, 10.000743 
8.148763e+2, 1.3530533e+2, -1603528.4, -1496929.9, -17653.092, -0.3173063, 0.10024355, -1494082.5, 119932.61, 0.0, 9.999591, 10.001016 
8.148961e+2, 1.4530687e+2, -1557147.6, -1532718.8, -22684.148, -0.1740238, 0.20981638, -1519169.6, -3168.5159, 0.0, 9.999685, 10.00005 
8.1491673e+2, 1.5530539e+2, -1556965.0, -1478994.0, -32640.787, 0.043831095, 0.036366828, -1467133.8, -49117.125, 0.0, 9.999003, 10.000073 
8.1493556e+2, 1.6530527e+2, -1459783.8, -1423331.9, -31140.264, 0.057510715, 0.039434087, -1405476.0, -85457.26, 0.0, 9.99918, 9.999699 
8.1495315e+2, 1.7530622e+2, -1218301.6, -1251824.8, -15711.259, -0.08363486, 0.14751357, -1212089.4, 9920.742, 0.0, 10.000154, 9.999728 
8.149718e+2, 1.853058e+2, -1118106.3, -1226570.4, -14144.67, -0.11578654, 0.17072953, -1116292.0, 7723.6772, 0.0, 10.000483, 9.999068 
8.149915e+2, 1.953039e+2, -1047717.94, -1142914.0, -1546.1805, -0.068780616, 0.058504816, -1047692.9, -21656.445, 0.0, 10.000292, 9.999064 
8.150118e+2, 2.0530355e+2, -966278.5, -1057744.1, 22056.01, -0.026917908, 0.12327705, -961237.7, -33195.883, 0.0, 10.000206, 9.999021 
8.1503296e+2, 2.153044e+2, -854844.3, -947461.0, -23259.895, 0.014783729, 0.28861007, -849331.0, -19295.826, 0.0, 10.000273, 9.999068 
8.150533e+2, 2.2530384e+2, -743794.5, -804432.25, -85945.68, 0.053817995, 0.31510383, -682976.7, 49061.95, 0.0, 10.000199, 9.999411 
8.150728e+2, 2.3530185e+2, -675291.0, -724353.94, -24839.72, 0.081504524, 0.15781017, -664911.06, -30857.643, 0.0, 10.000007, 9.999383 
8.150922e+2, 2.4529982e+2, -606331.7, -791707.94, 77.24967, 0.06398307, 0.08945898, -606331.6, -70260.08, 0.0, 10.000452, 9.998035 
8.1511176e+2, 2.5529757e+2, -362525.5, -623314.6, -34304.6, 0.010340871, 0.045811884, -358088.5, 80005.89, 0.0, 10.001446, 9.998046 
8.151314e+2, 2.6529592e+2, -183124.47, -401258.94, -89731.16, 0.010573192, 0.04480329, -150956.66, 189152.5, 0.0, 10.001665, 9.99878 
8.15151e+2, 2.752946e+2, -157545.5, -338858.28, -74305.23, 0.05547338, 0.02028278, -130984.79, 111134.07, 0.000000004527389, 10.001165, 9.998776 
8.151709e+2, 2.8529352e+2, -62749.05, -316513.1, -23136.916, 0.055944335, 0.06788275, -60656.793, 83473.36, 0.0000024308686, 10.001453, 9.998121 
8.1519103e+2, 2.9529244e+2, 155617.02, -162464.66, 10398.651, 0.019031413, 0.13095161, 155956.6, 202100.47, 0.00002455122, 10.002288, 9.998103 
8.15211e+2, 3.0529138e+2, 291483.47, 62017.39, 7934.738, -0.01649041, 0.1587929, 291757.5, 291757.5, 0.00009685274, 10.002328, 9.9992895 
8.152318e+2, 3.152889e+2, 156977.8, 16409.05, 4482.8613, 0.05044758, -0.042964783, 157120.63, 157120.63, 0.00023258898, 10.001278, 9.999481 
8.248603e+2, 1.2528212e+2, -1697146.9, -1580342.3, 15587.085, 0.035387434, -0.11783325, -1578298.0, 133947.63, 0.0000000017683296, 9.999509, 10.001156 
8.2487506e+2, 1.352864e+2, -1692036.6, -1517773.6, -61126.547, -0.35974994, 0.16428591, -1498470.4, 115732.414, 0.0, 9.998874, 10.00122 
8.248946e+2, 1.4528778e+2, -1665184.1, -1599559.0, -54577.223, -0.25394383, 0.2560874, -1568690.0, -52501.01, 0.0, 9.999017, 9.999905 
8.249165e+2, 1.5528548e+2, -1423092.1, -1431986.1, -51153.008, 0.077154726, 0.0154792005, -1376193.3, 42018.55, 0.0, 10.000008, 9.999904 
8.2493585e+2, 1.652851e+2, -1277221.5, -1335700.0, -13720.18, 0.11546996, 0.0011385594, -1274162.5, 46053.38, 0.0, 10.00044, 9.999683 
8.249534e+2, 1.7528632e+2, -1195816.4, -1247652.6, -30917.305, -0.079917766, 0.13760228, -1181390.6, 40813.82, 0.0, 10.000331, 9.999671 
8.249723e+2, 1.8528591e+2, -1117396.0, -1222655.0, -33520.92, -0.11093632, 0.16252303, -1107627.5, 16581.326, 0.0, 10.000478, 9.999097 
8.249924e+2, 1.952838e+2, -973669.94, -1104209.9, -42612.375, -0.01285929, 0.026972407, -960991.3, 65238.53, 0.0, 10.000801, 9.99908 
8.250128e+2, 2.0528315e+2, -918712.4, -1093286.3, 22948.738, 0.03390526, 0.090059884, -915746.0, 12492.538, 0.0, 10.00079, 9.998486 
8.250335e+2, 2.1528369e+2, -870650.4, -1015020.06, 25347.564, 0.0408657, 0.27892673, -866329.3, -36091.617, 0.0, 10.000425, 9.99853 
8.2505363e+2, 2.2528288e+2, -670319.4, -772795.44, -27622.578, 0.05078776, 0.30524945, -663347.94, 68896.6, 0.0, 10.000711, 9.999389 
8.2507324e+2, 2.3528063e+2, -456062.7, -623112.5, -87574.66, 0.058698267, 0.12658888, -418568.06, 215692.78, 0.0, 10.001527, 9.9993515 
8.2509315e+2, 2.4527867e+2, -473289.63, -736260.0, -66433.48, 0.069501884, 0.07270124, -457459.63, 78818.46, 0.0, 10.001413, 9.997951 
8.251134e+2, 2.5527683e+2, -501988.75, -694902.3, -40744.402, 0.085229404, 0.07702424, -493736.34, -55438.652, 0.0, 10.0005245, 9.997992 
8.2513314e+2, 2.652751e+2, -309796.9, -457814.25, -38108.855, 0.06761897, 0.06512082, -300561.56, 39752.027, 0.0, 10.000771, 9.998827 
8.2515216e+2, 2.7527317e+2, -32819.563, -273396.6, -47412.008, 0.020405164, -0.025886742, -23812.967, 218515.83, 0.0, 10.001993, 9.998831 
8.2517207e+2, 2.8527215e+2, 26711.479, -246614.2, -15502.349, 0.0093419505, 0.016529482, 27587.922, 171926.77, 0.000001518397, 10.001964, 9.998354 
8.251927e+2, 2.9527175e+2, -49887.04, -235609.6, -23888.957, 0.04302569, 0.12215753, -46863.492, -517.64197, 0.000022026383, 10.00077, 9.998329 
8.2521284e+2, 3.0527124e+2, 54592.887, -58528.227, -41073.85, 0.021443315, 0.20126566, 67933.38, 67933.38, 0.00009707927, 10.000722, 9.999227 
8.252331e+2, 3.1526777e+2, 237959.28, 102590.875, -146257.0, 0.046392087, -0.10468731, 331434.2, 331434.2, 0.00024342752, 10.001623, 9.999895 
8.3485806e+2, 1.2526648e+2, -1714218.9, -1613371.6, -26642.613, -0.18327262, 0.28525546, -1606765.6, 105643.56, 0.000000000051048894, 9.999507, 10.000925 
8.3487505e+2, 1.352662e+2, -1711484.6, -1560588.6, -76943.586, -0.26799825, 0.14766675, -1528274.3, 86132.63, 0.0, 9.998891, 10.000915 
8.3489436e+2, 1.4526664e+2, -1651547.4, -1574117.1, -26584.998, -0.19787326, 0.15008406, -1565868.3, -49468.74, 0.0, 9.999026, 10.000076 
8.349149e+2, 1.5526655e+2, -1405551.1, -1398883.6, -6407.9517, -0.10762986, 0.108920075, -1394994.1, 23404.27, 0.0, 10.00002, 10.000125 
8.349348e+2, 1.652661e+2, -1296391.1, -1366555.4, -25768.277, -0.058972802, 0.08667963, -1287944.5, 32457.203, 0.0, 10.000403, 9.999491 
8.3495426e+2, 1.752653e+2, -1209091.4, -1273620.3, -24102.775, -0.035271067, 0.043511182, -1201082.5, 21326.627, 0.0, 10.000328, 9.999493 
8.3497405e+2, 1.8526497e+2, -1124630.0, -1233675.6, -30590.664, 0.00018571682, 0.08923711, -1116634.6, 7777.6772, 0.0, 10.000454, 9.999037 
8.3499396e+2, 1.9526476e+2, -981469.2, -1109583.6, -22775.754, 0.03718502, 0.14674716, -977540.6, 48873.746, 0.0, 10.000749, 9.999071 
8.350135e+2, 2.0526366e+2, -914092.56, -1058816.9, 1136.8578, 0.010695856, 0.14768293, -914083.6, 14341.64, 0.0, 10.000682, 9.998774 
8.3503294e+2, 2.1526155e+2, -866299.44, -985337.75, 21562.469, -0.0721436, 0.041285563, -862514.0, -32068.014, 0.0, 10.000338, 9.998773 
8.3505297e+2, 2.2525972e+2, -783026.4, -983827.5, -7064.5825, -0.09380139, 0.024990732, -782778.1, -50313.465, 0.0, 10.0006075, 9.9979925 
8.350736e+2, 2.3525795e+2, -561699.94, -823749.8, -49397.97, -0.068936735, 0.03330943, -552697.4, 81786.016, 0.0, 10.001438, 9.998019 
8.350939e+2, 2.4525686e+2, -420544.16, -611265.44, -106939.72, -0.008743755, 0.084815264, -372622.72, 163871.55, 0.0, 10.001344, 9.998843 
8.3511406e+2, 2.5525618e+2, -449890.63, -575632.75, -62041.09, 0.08370887, 0.11506616, -424433.5, 14066.548, 0.0, 10.000471, 9.998839 
8.3513397e+2, 2.6525494e+2, -320665.75, -469232.8, 2225.0103, 0.06852349, 0.11809495, -320632.44, 19877.588, 0.0, 10.000722, 9.998773 
8.3515376e+2, 2.7525306e+2, -50235.863, -290494.13, 6760.2227, -0.04377159, 0.03390794, -50045.8, 192480.17, 0.0, 10.001909, 9.998755 
8.3517385e+2, 2.8525138e+2, 15717.045, -257601.42, -68007.74, -0.028142538, 0.02016027, 31703.803, 176245.02, 0.0000012583888, 10.001915, 9.998301 
8.3519423e+2, 2.9524967e+2, -65499.184, -254586.83, -55613.08, 0.10117299, -0.00040773608, -50355.504, -3796.9224, 0.000022671806, 10.000712, 9.998229 
8.352144e+2, 3.0524907e+2, -6428.774, -183306.13, -7542.0737, 0.08137749, 0.116837665, -6107.7617, -6107.7617, 0.0001036696, 10.000712, 9.998378 
8.3523446e+2, 3.152464e+2, 219618.02, 78787.1, -85727.19, -0.028103786, -0.01695218, 260141.67, 260141.67, 0.00026236358, 10.001565, 9.999764 
8.448565e+2, 1.2524797e+2, -1858114.8, -1700495.8, 10074.624, -0.22882117, 0.39910564, -1699854.4, 12739.221, 0.0, 9.998598, 10.000772 
8.448754e+2, 1.3524619e+2, -1590990.3, -1537613.6, -69588.97, -0.16664515, 0.14366727, -1489770.8, 124834.77, 0.0, 9.999878, 10.000598 
8.448949e+2, 1.4524609e+2, -1451377.3, -1493425.0, -2399.171, -0.1130577, 0.11809834, -1451240.8, 65361.504, 0.0, 10.000473, 9.99993 
8.44915e+2, 1.5524662e+2, -1322750.4, -1379786.5, -29880.354, -0.12356587, 0.15321971, -1309963.4, 108631.13, 0.0, 10.000677, 9.999942 
8.44935e+2, 1.6524594e+2, -1256435.6, -1387968.8, -74825.266, -0.08956847, 0.13567697, -1222582.6, 98017.23, 0.0, 10.00085, 9.999134 
8.4495515e+2, 1.7524417e+2, -1153278.1, -1286335.3, -103104.52, -0.0046557696, 0.03264894, -1097101.4, 125515.734, 0.0, 10.000885, 9.99914 
8.449752e+2, 1.8524364e+2, -1023471.3, -1169411.8, -81957.84, 0.043526657, 0.068902, -986706.7, 137914.92, 0.0, 10.001085, 9.999169 
8.449951e+2, 1.9524395e+2, -879121.2, -1050093.5, -79753.445, 0.048188593, 0.16834623, -847695.0, 178921.95, 0.0, 10.001405, 9.999165 
8.4501433e+2, 2.0524272e+2, -822899.0, -1011891.56, -73368.85, 0.0005055809, 0.14989598, -797760.3, 130867.85, 0.0, 10.001288, 9.998812 
8.450332e+2, 2.1523985e+2, -816707.5, -961754.44, -89548.055, -0.09108202, -0.03288323, -773998.56, 56657.22, 0.0, 10.000673, 9.99878 
8.4505343e+2, 2.2523819e+2, -799920.56, -971811.06, -15505.214, -0.098307155, -0.038850088, -798533.1, -65860.375, 0.0, 10.000423, 9.99815 
8.450749e+2, 2.3523752e+2, -690201.2, -866076.7, 34542.59, -0.033130895, 0.06240859, -683660.2, -48978.973, 0.0, 10.000496, 9.99817 
8.450953e+2, 2.4523652e+2, -519148.72, -684308.3, -20611.596, 0.024264736, 0.12552156, -516615.28, 20076.516, 0.0, 10.000773, 9.998615 
8.4511477e+2, 2.552349e+2, -359782.4, -554222.8, -76179.98, 0.0731466, 0.086543225, -333490.84, 105216.21, 0.0, 10.001191, 9.9986315 
8.451347e+2, 2.6523367e+2, -294134.34, -469898.3, -20015.79, 0.058437847, 0.10390657, -291883.8, 48834.414, 0.0, 10.000969, 9.998643 
8.451552e+2, 2.7523264e+2, -306230.4, -423650.13, -34984.926, -0.0016925026, 0.11786665, -296597.06, -53870.004, 0.0000000050987805, 10.000201, 9.998658 
8.451752e+2, 2.8523082e+2, -193866.06, -348943.22, -97598.336, 0.0049889022, 0.08917579, -146754.47, -2011.5874, 0.0000017149706, 10.000425, 9.99839 
8.45195e+2, 2.9522794e+2, 54539.047, -180374.08, -93457.77, 0.07532582, -0.06141685, 87183.78, 133952.44, 0.0000255943, 10.001468, 9.998366 
8.4521556e+2, 3.0522668e+2, 67613.18, -246138.5, -11257.5205, 0.09561541, 0.025941202, 68016.586, 68016.586, 0.000114907256, 10.00164, 9.997509 
8.4523696e+2, 3.1522477e+2, 108764.66, -7478.039, -117026.164, 0.10539164, 0.0563724, 181307.83, 181307.83, 0.00028673265, 10.000923, 9.999493 
8.548553e+2, 1.252268e+2, -1878774.0, -1736353.6, 32590.316, -0.24896468, 0.2304046, -1729250.3, -16453.572, 0.0, 9.998577, 10.000533 
8.548757e+2, 1.3522644e+2, -1620261.5, -1592794.8, -19461.344, -0.13521533, 0.15578447, -1582709.0, 32088.352, 0.0, 9.999874, 10.000212 
8.5489595e+2, 1.452263e+2, -1477596.4, -1561937.4, -4784.253, -0.077597894, 0.16751882, -1477325.9, 39470.27, 0.0, 10.000517, 9.999447 
8.5491663e+2, 1.552257e+2, -1351109.3, -1448552.3, -11000.563, -0.047222607, 0.13929953, -1349882.8, 68917.1, 0.0, 10.000712, 9.999454 
8.549365e+2, 1.6522466e+2, -1303508.9, -1481396.1, -83036.195, -0.044169433, 0.14369766, -1270772.8, 50037.047, 0.0, 10.000832, 9.998502 
8.549556e+2, 1.7522292e+2, -1194243.0, -1369302.9, -94365.04, -0.062160905, 0.10107519, -1153063.0, 69765.164, 0.0, 10.000875, 9.998576 
8.5497534e+2, 1.8522193e+2, -1011434.3, -1132868.8, -76940.16, -0.063631445, 0.10377735, -974139.44, 150697.02, 0.0, 10.00103, 9.999449 
8.5499555e+2, 1.9522142e+2, -863550.1, -1013190.0, -60637.14, -0.056329697, 0.0938263, -842063.9, 184773.39, 0.0, 10.001378, 9.999433 
8.550151e+2, 2.0522042e+2, -851055.94, -1055502.5, -105855.39, -0.064336106, 0.099531144, -806123.0, 122723.59, 0.0, 10.001221, 9.9985485 
8.55034e+2, 2.1521866e+2, -839889.06, -991731.75, -103467.805, -0.09007645, 0.05263846, -787476.3, 43390.035, 0.0, 10.00059, 9.998616 
8.5505456e+2, 2.2521833e+2, -705089.75, -747112.6, -20256.209, -0.039204054, 0.10355645, -696915.6, 35953.105, 0.0, 10.000305, 9.99975 
8.550767e+2, 2.3521921e+2, -593884.44, -647259.6, 46148.742, 0.08546222, 0.20005631, -567262.25, 67593.76, 0.0, 10.000412, 9.999714 
8.550969e+2, 2.4521752e+2, -623062.4, -883108.06, -14885.851, 0.09239973, 0.18778668, -622213.06, -85340.88, 0.0, 10.000701, 9.997288 
8.5511523e+2, 2.5521314e+2, -459978.88, -747926.94, -54729.707, -0.00967797, 0.0027210417, -449927.4, -11009.328, 0.0, 10.001126, 9.997335 
8.551351e+2, 2.652113e+2, -309375.47, -494856.06, -57281.996, -0.013387939, 0.032851953, -293111.22, 47826.266, 0.0, 10.0009365, 9.998491 
8.551561e+2, 2.7521178e+2, -326586.28, -452303.25, -51392.215, 0.0663071, 0.21751553, -308251.47, -65318.42, 0.0000001292932, 10.000142, 9.998494 
8.551761e+2, 2.8521034e+2, -179197.19, -309388.63, -62768.14, 0.028610772, 0.21637593, -153864.53, -8919.876, 0.0000031613251, 10.000385, 9.998681 
8.5519475e+2, 2.9520655e+2, 69414.75, -144823.66, -46809.367, -0.116519965, -0.050505962, 79195.67, 126171.69, 0.000030116835, 10.001442, 9.998628 
8.5521626e+2, 3.05204e+2, 3997.2188, -368570.6, -42887.332, -0.012080987, -0.06076624, 8870.36, 8870.36, 0.0001273879, 10.001614, 9.996676 
8.5524e+2, 3.152026e+2, 54521.613, -85066.28, -118645.94, 0.2805986, 0.11062627, 122379.59, 122379.59, 0.00031292601, 10.00079, 9.999021 
8.6485463e+2, 1.2520525e+2, -1782592.6, -1723621.0, -16574.264, -0.20600292, 0.14971383, -1719282.0, -6276.712, 0.00000000000000000000885557, 9.999375, 10.000233 
8.648758e+2, 1.3520552e+2, -1671160.3, -1660572.3, -90565.57, -0.09191367, 0.17134841, -1575146.1, 39855.094, 0.0, 9.999681, 9.999848 
8.648966e+2, 1.4520514e+2, -1565800.0, -1626253.6, -59338.934, -0.030608093, 0.18613833, -1529432.8, -12429.306, 0.0, 10.000019, 9.99924 
8.649181e+2, 1.5520394e+2, -1388064.8, -1493202.3, -65527.992, 0.03728129, 0.12357456, -1356625.3, 62388.266, 0.0, 10.000578, 9.999216 
8.649379e+2, 1.6520283e+2, -1288640.3, -1472267.4, -94092.45, 0.020754242, 0.13301525, -1248988.5, 72035.28, 0.0, 10.000925, 9.998511 
8.6495644e+2, 1.7520158e+2, -1165092.3, -1357425.3, -79508.26, -0.07374504, 0.13807333, -1136480.8, 86555.92, 0.0, 10.001079, 9.998554 
8.649759e+2, 1.8520026e+2, -1055552.1, -1161049.4, -50319.117, -0.084425054, 0.11210395, -1035400.56, 89646.76, 0.0, 10.000765, 9.999378 
8.649965e+2, 1.9519874e+2, -1072656.3, -1121122.1, -72552.48, -0.021291448, 0.007869388, -1020396.7, 6660.8403, 0.0, 9.999986, 9.999355 
8.650163e+2, 2.0519787e+2, -977054.5, -1097056.1, -80955.766, -0.012644336, 0.025228571, -936288.56, -7223.498, 0.0, 10.000285, 9.998704 
8.650353e+2, 2.151974e+2, -695494.0, -906667.44, -70008.78, -0.06099543, 0.089256406, -674392.94, 156679.56, 0.0, 10.001528, 9.998741 
8.650557e+2, 2.2519712e+2, -527540.6, -674031.06, -54399.473, -0.011224213, 0.14636724, -509549.0, 223525.3, 0.0, 10.001567, 9.999652 
8.650775e+2, 2.3519693e+2, -595872.3, -659455.94, -126421.65, 0.13497612, 0.14577477, -497306.34, 137765.78, 0.0, 10.000442, 9.999618 
8.650978e+2, 2.4519512e+2, -628931.94, -860461.94, -123586.18, 0.13036044, 0.11476299, -575359.75, -38270.402, 0.0, 10.00056, 9.997504 
8.6511666e+2, 2.5519153e+2, -336151.75, -665029.9, -70115.12, -0.017924286, -0.011251307, -321827.47, 117299.61, 0.0, 10.001883, 9.997538 
8.651362e+2, 2.6518962e+2, -164270.17, -425108.38, -64376.113, -0.03223242, -0.00077406736, -149247.1, 191900.23, 0.0000000005766255, 10.001929, 9.99849 
8.6515665e+2, 2.7518913e+2, -231197.1, -406233.56, -64634.305, 0.07943534, 0.083045445, -209917.19, 33235.523, 0.000000514823, 10.00079, 9.998496 
8.6517674e+2, 2.8518793e+2, -129301.914, -310832.47, 4716.505, 0.04616332, 0.121120594, -129179.45, 15982.952, 0.0000054394536, 10.000835, 9.998459 
8.651965e+2, 2.951857e+2, 136199.44, -131225.84, -30986.05, -0.10763978, 0.031127524, 139742.78, 186922.92, 0.000035908153, 10.001983, 9.998464 
8.652182e+2, 3.0518255e+2, 57108.875, -359100.84, -76680.86, 0.009455754, -0.02512895, 70786.766, 70786.766, 0.00014004746, 10.002038, 9.996532 
8.652411e+2, 3.1518072e+2, 38051.797, -111172.11, -129103.84, 0.324109, 0.11247153, 112553.05, 112553.05, 0.00033713353, 10.000761, 9.998838 
8.748536e+2, 1.2518361e+2, -1798445.5, -1767960.5, -34351.1, -0.28193972, 0.18506561, -1745622.0, -32405.373, 0.0000000055054987, 9.99942, 9.999904 
8.748754e+2, 1.3518351e+2, -1688517.6, -1689742.4, -75092.984, -0.11725842, 0.18819904, -1614034.5, 1181.8411, 0.0, 9.999657, 9.999653 
8.7489665e+2, 1.4518271e+2, -1574137.3, -1642227.4, -49301.29, -0.048525207, 0.17696352, -1548268.4, -31045.283, 0.0, 10.000011, 9.999136 
8.7491894e+2, 1.551814e+2, -1391241.0, -1496221.1, -35745.645, 0.053317364, 0.10696278, -1380225.5, 39009.26, 0.0, 10.00057, 9.999195 
8.749391e+2, 1.6518058e+2, -1242332.8, -1378732.3, -97289.12, 0.024740975, 0.111064725, -1191720.1, 129520.68, 0.0, 10.000927, 9.999157 
8.7495726e+2, 1.7518021e+2, -1120839.0, -1269326.8, -67588.945, -0.11209818, 0.14313477, -1094681.6, 128560.32, 0.0, 10.001089, 9.999157 
8.749769e+2, 1.8517877e+2, -1091175.8, -1227165.6, -87818.15, -0.08855882, 0.10053907, -1048106.1, 77146.82, 0.0, 10.000731, 9.998941 
8.749977e+2, 1.9517596e+2, -1105601.9, -1179365.3, -92254.56, 0.079016894, -0.093296714, -1043129.8, -15852.686, 0.0, 9.999938, 9.99898 
8.7501764e+2, 2.0517515e+2, -957837.06, -1032809.2, -41464.816, 0.08229294, -0.08054366, -939425.6, -10142.005, 0.0, 10.000181, 9.999196 
8.7503684e+2, 2.1517608e+2, -677071.56, -848631.6, -17820.59, -0.07083485, 0.0767659, -675240.06, 156034.4, 0.0, 10.00144, 9.999182 
8.750567e+2, 2.251747e+2, -664003.56, -936905.0, -104437.695, -0.07655681, 0.092312194, -628622.9, 104665.914, 0.0, 10.001477, 9.9978895 
8.7507725e+2, 2.3517093e+2, -725999.1, -909360.4, -157878.23, 0.05304101, -0.09112048, -635112.3, 215.0759, 0.0, 10.000351, 9.997946 
8.750979e+2, 2.4516948e+2, -525714.5, -627782.75, -80169.914, 0.0679517, -0.087257534, -481713.38, 55628.207, 0.0, 10.000477, 9.999143 
8.751185e+2, 2.5517005e+2, -240253.6, -438692.2, -11612.804, -0.03084147, 0.03812136, -239576.31, 199758.2, 0.0, 10.001766, 9.999146 
8.75138e+2, 2.651685e+2, -165096.89, -414495.9, -113482.59, -0.06574756, -0.0019255541, -121189.555, 220159.17, 0.0000000691861, 10.001869, 9.998595 
8.7515646e+2, 2.7516466e+2, -230825.75, -394838.44, -97326.77, -0.042184055, -0.2589415, -185562.53, 57822.465, 0.000001269736, 10.000742, 9.998599 
8.751772e+2, 2.851638e+2, -173605.08, -402404.88, 39508.14, -0.016472576, -0.16550237, -166975.1, -21580.887, 0.000008255043, 10.00083, 9.997836 
8.751999e+2, 2.9516518e+2, 85139.875, -222389.47, 22821.96, 0.011692393, 0.17376214, 86824.29, 134206.42, 0.000042714033, 10.001915, 9.997874 
8.752212e+2, 3.0516204e+2, 81872.875, -288878.6, -121514.13, 0.08713144, 0.11637855, 118149.68, 118149.68, 0.00015286829, 10.001961, 9.997049 
8.7524e+2, 3.1515858e+2, 29882.816, -123456.64, -148444.4, 0.09040753, 0.04451998, 120287.88, 120287.88, 0.00035722472, 10.000742, 9.998765 
8.848539e+2, 1.2516125e+2, -1823265.8, -1786230.3, 2170.912, -0.18629622, 0.16261755, -1786103.4, -72669.98, 0.00000006865043, 9.999279, 9.999856 
8.8487566e+2, 1.3516091e+2, -1445660.3, -1575329.1, -41891.29, -0.12995544, 0.1441795, -1433304.1, 182131.31, 0.0, 10.001328, 9.999642 
8.848968e+2, 1.4515992e+2, -1347645.6, -1534882.4, -37649.805, -0.10160742, 0.1164647, -1340358.6, 177085.36, 0.0, 10.001581, 9.999111 
8.8491905e+2, 1.5515883e+2, -1426004.5, -1517879.0, -42971.164, 0.024887362, 0.07379491, -1409039.0, 10414.316, 0.0, 10.00035, 9.999149 
8.8493973e+2, 1.6515814e+2, -1321890.9, -1380611.6, -67386.25, 0.038918972, 0.07799963, -1277746.6, 43711.344, 0.0, 10.000243, 9.999472 
8.849591e+2, 1.751579e+2, -1078165.4, -1213526.6, -79316.0, -0.04345517, 0.09279317, -1041578.56, 181878.66, 0.0, 10.001246, 9.999463 
8.849785e+2, 1.8515667e+2, -989750.9, -1188587.3, -129290.79, -0.029559884, 0.06132372, -926073.75, 199393.03, 0.0, 10.001471, 9.99885 
8.849979e+2, 1.9515422e+2, -969610.06, -1123255.0, -128910.695, 0.06387711, -0.08631543, -896367.0, 131122.02, 0.0, 10.000919, 9.99889 
8.850179e+2, 2.0515338e+2, -874540.75, -968391.5, -15153.598, 0.070169345, -0.083626404, -872154.6, 57340.21, 0.0, 10.000638, 9.999424 
8.8503844e+2, 2.1515392e+2, -792848.6, -880893.6, -23498.033, 0.00006625686, 0.013722982, -786969.8, 44516.43, 0.0, 10.000539, 9.999401 
8.8505834e+2, 2.251521e+2, -780171.56, -1037385.75, -81347.164, -0.02246702, -0.0058313147, -756603.94, -23098.934, 0.0, 10.000878, 9.997483 
8.8507766e+2, 2.351478e+2, -569069.8, -879383.56, -57869.6, -0.004932744, -0.19983152, -558629.1, 76922.57, 0.0, 10.00163, 9.997535 
8.85098e+2, 2.4514699e+2, -385064.28, -483120.94, 46363.746, 0.00269574, -0.1473849, -366613.94, 170946.73, 0.0, 10.001108, 9.999831 
8.8511926e+2, 2.551492e+2, -532525.4, -504814.84, 28234.152, -0.0013912354, 0.07288546, -487219.6, -47683.22, 0.00000000006372724, 9.999426, 9.999821 
8.851391e+2, 2.651481e+2, -525981.1, -611336.2, -82452.555, -0.0183642, 0.057888895, -475815.8, -134269.61, 0.00000025387644, 9.999495, 9.9983835 
8.8515735e+2, 2.751437e+2, -167954.95, -386281.72, -107253.86, -0.045257125, -0.23907456, -124082.28, 119507.695, 0.0000021793016, 10.00127, 9.998401 
8.851784e+2, 2.8514257e+2, -15322.0625, -280887.56, 65411.414, -0.014277258, -0.17928575, -84.841545, 145516.72, 0.000011106664, 10.001743, 9.99822 
8.8520193e+2, 2.9514414e+2, -21307.098, -228432.75, 103070.695, 0.07914528, 0.14013377, 21242.455, 68828.88, 0.000049522223, 10.0009985, 9.998268 
8.8522327e+2, 3.0514136e+2, -14630.479, -287400.2, -7551.2896, 0.15277079, 0.07643821, -14421.591, -14421.591, 0.00016466355, 10.001083, 9.997495 
8.852414e+2, 3.151391e+2, 156392.17, -81462.68, -63267.723, 0.1092698, 0.091870986, 172173.83, 172173.83, 0.00037254568, 10.001687, 9.99862 
8.9485466e+2, 1.2513798e+2, -1816405.6, -1756125.5, 46772.24, -0.068020955, 0.07018944, -1730623.3, -16965.926, 0.00000033567557, 9.9992285, 10.000078 
8.9487654e+2, 1.3513789e+2, -1427132.5, -1535725.9, 38056.918, -0.1955566, 0.052122626, -1415123.4, 200533.06, 0.00000000007521531, 10.001343, 9.9999 
8.948969e+2, 1.4513704e+2, -1341041.3, -1532347.6, -95731.55, -0.27365825, 0.02595658, -1301364.9, 216298.06, 0.0, 10.001619, 9.999116 
8.949181e+2, 1.5513644e+2, -1427820.4, -1522572.1, -78966.82, -0.12617938, 0.033179168, -1383108.0, 36559.625, 0.0, 10.000349, 9.999122 
8.949396e+2, 1.6513571e+2, -1328044.9, -1393320.0, -38098.85, -0.018452896, 0.0411847, -1310515.4, 11158.114, 0.0, 10.000237, 9.999387 
8.949616e+2, 1.7513466e+2, -1082888.1, -1221423.3, -32436.193, 0.06825704, -0.020231044, -1075669.8, 148012.75, 0.0, 10.001235, 9.999415 
8.9498067e+2, 1.85134e+2, -982082.5, -1163013.6, -158159.73, 0.026495937, -0.006363744, -890343.5, 235345.08, 0.0, 10.001425, 9.99905 
8.9499694e+2, 1.9513349e+2, -966151.75, -1103164.6, -142617.02, -0.14124863, 0.023348106, -876440.8, 151252.66, 0.0, 10.000857, 9.999061 
8.9501673e+2, 2.0513257e+2, -889232.94, -976051.1, -26720.338, -0.121557854, 0.012166829, -881668.25, 48030.688, 0.0, 10.000543, 9.999415 
8.950399e+2, 2.1513101e+2, -807415.8, -884439.9, -17674.027, 0.07907148, -0.102621414, -803553.94, 28153.268, 0.0, 10.000427, 9.999427 
8.950604e+2, 2.2512938e+2, -740606.7, -929417.3, -61009.535, 0.081982054, -0.14565283, -722608.6, 11113.81, 0.0, 10.00076, 9.998285 
8.950783e+2, 2.351275e+2, -526788.9, -770484.6, -23227.416, -0.11330745, -0.18065341, -524594.75, 111151.086, 0.0, 10.001534, 9.99833 
8.9509785e+2, 2.451275e+2, -408798.3, -520323.75, -25982.725, -0.1383679, -0.07276148, -403042.06, 134705.7, 0.0, 10.001054, 9.999605 
8.9511883e+2, 2.5512907e+2, -557463.0, -543408.44, -25407.217, -0.0041766493, 0.10499503, -524074.6, -84342.82, 0.0000000002378373, 9.999368, 9.999587 
8.951393e+2, 2.6512864e+2, -564540.75, -685342.44, -23070.543, 0.035398994, 0.19106115, -560284.7, -218546.34, 0.00000030747992, 9.999471, 9.997885 
8.951591e+2, 2.75126e+2, -214774.05, -465196.2, -31594.691, -0.014522117, 0.12555894, -210849.39, 32919.53, 0.0000026197797, 10.001196, 9.997894 
8.951802e+2, 2.8512403e+2, 66367.984, -103664.81, 30176.186, -0.024239037, 0.06497019, 71564.61, 217351.14, 0.000013171274, 10.0017, 9.99946 
8.9520246e+2, 2.9512256e+2, 60751.78, -48707.863, 84206.93, 0.00594554, -0.051910844, 106451.836, 154245.14, 0.000055655084, 10.000947, 9.99953 
8.952242e+2, 3.051205e+2, -2801.9817, -238020.17, 7222.6963, 0.12701283, -0.12675081, -2580.4077, -2580.4077, 0.00017577781, 10.000993, 9.997869 
8.952443e+2, 3.1512126e+2, 124778.72, -112692.75, -16795.203, 0.20183605, 0.15364641, 125960.68, 125960.68, 0.0003866523, 10.001558, 9.998453 
9.04855e+2, 1.2511511e+2, -1458593.5, -1586088.8, 60079.477, -0.059250552, 0.026973622, -1434743.8, 279136.38, 0.0000010657902, 10.001683, 10.00007 
9.0487725e+2, 1.3511576e+2, -1658141.5, -1643780.0, 11983.226, -0.16708471, 0.08285624, -1636990.8, -21118.334, 0.000000007369457, 9.999735, 9.999938 
9.0489763e+2, 1.4511515e+2, -1625208.8, -1612727.4, -91802.29, -0.2464266, 0.052594967, -1526953.9, -9078.049, 0.0, 9.999431, 9.99961 
9.0491843e+2, 1.551143e+2, -1311822.0, -1410999.5, -58078.215, -0.14723344, -0.017526865, -1285042.4, 134838.13, 0.0, 10.000909, 9.999612 
9.0493983e+2, 1.6511355e+2, -1241180.0, -1356267.5, 11272.416, -0.0426011, -0.033513233, -1240086.3, 81799.734, 0.0, 10.000851, 9.999351 
9.0496194e+2, 1.7511263e+2, -1366718.6, -1359703.8, 428.69522, 0.07884338, -0.077335306, -1359677.6, -135782.81, 0.0, 9.999295, 9.999398 
9.049814e+2, 1.8511234e+2, -1261026.0, -1292561.5, -79263.47, 0.05870921, -0.030229017, -1195977.3, -70078.77, 0.0, 9.999484, 9.999095 
9.049984e+2, 1.9511244e+2, -884822.6, -1060809.1, -86248.25, -0.100151606, 0.05515096, -849602.4, 178296.16, 0.0, 10.001387, 9.999101 
9.0501815e+2, 2.0511127e+2, -720590.4, -927784.3, -15141.019, -0.09706284, 0.032684885, -719489.75, 210417.42, 0.0, 10.0018425, 9.999117 
9.050403e+2, 2.1510865e+2, -758034.56, -894824.25, -50186.715, 0.061562516, -0.15928666, -741596.9, 90329.69, 0.0, 10.000911, 9.999123 
9.050609e+2, 2.2510743e+2, -742551.44, -869362.0, -63108.84, 0.07540432, -0.17199485, -716497.44, 17439.896, 0.0, 10.000487, 9.998829 
9.050799e+2, 2.351074e+2, -628249.6, -762187.25, -61115.363, -0.052725967, -0.07387251, -604554.7, 31387.08, 0.0, 10.000592, 9.99884 
9.050993e+2, 2.4510714e+2, -475296.84, -609631.56, -109777.266, -0.084816515, 0.009739517, -413768.8, 124177.25, 0.0, 10.000853, 9.999083 
9.051188e+2, 2.551065e+2, -314393.72, -482214.06, -148854.03, -0.030808229, 0.018008186, -227428.39, 212523.63, 0.0, 10.001284, 9.999079 
9.051395e+2, 2.651058e+2, -268310.56, -501890.53, -59413.25, 0.022620099, 0.085723445, -254066.81, 87893.65, 0.0000002007212, 10.001337, 9.998247 
9.051612e+2, 2.7510473e+2, -211408.83, -422844.0, -23422.871, 0.08661474, 0.14246559, -208845.11, 35128.836, 0.0000025589381, 10.001045, 9.998259 
9.05182e+2, 2.8510314e+2, -125840.27, -183896.75, -14568.116, 0.06076934, 0.09756001, -122389.77, 23598.15, 0.000014749117, 10.000321, 9.999579 
9.0520185e+2, 2.9510108e+2, -196660.56, -154735.84, -60197.887, -0.046497572, -0.08804627, -111954.92, -63952.55, 0.00006245814, 9.999112, 9.999684 
9.0522414e+2, 3.0509958e+2, -155274.94, -217489.25, -61338.918, 0.09633942, -0.15781157, -117606.234, -117606.234, 0.00018870574, 9.999536, 9.998716 
9.05247e+2, 3.1510043e+2, 117691.25, -59404.297, -80312.51, 0.33822352, 0.051086098, 148687.64, 148687.64, 0.00040376265, 10.001246, 9.99898 
9.148542e+2, 1.2509315e+2, -1465337.5, -1614906.4, -44592.18, -0.35206074, 0.07385654, -1453052.0, 261044.58, 0.000002613721, 10.001758, 9.999832 
9.1487765e+2, 1.3509473e+2, -1674134.4, -1667712.1, -57198.977, -0.11964475, 0.23909582, -1613634.3, 2447.58, 0.00000007607973, 9.999698, 9.999789 
9.1489875e+2, 1.4509425e+2, -1564441.8, -1475295.1, -44269.97, -0.10079041, 0.1794187, -1457046.4, 61036.35, 0.0, 9.999379, 10.00058 
9.1491985e+2, 1.5509252e+2, -1242010.5, -1268102.4, 8521.775, -0.11311699, -0.07381907, -1239473.8, 180617.17, 0.0, 10.000917, 10.000589 
9.149402e+2, 1.6509186e+2, -1239927.3, -1355608.1, -58401.387, -0.11088605, -0.13220078, -1215571.4, 106522.25, 0.0, 10.000859, 9.999351 
9.149597e+2, 1.75092e+2, -1373414.6, -1366119.0, -49864.973, -0.087558314, -0.06931992, -1319768.6, -95676.05, 0.0, 9.99926, 9.9993725 
9.1498035e+2, 1.8509181e+2, -1272921.1, -1302975.3, -14771.123, -0.011914996, -0.0054441965, -1266876.9, -140781.55, 0.0, 9.999422, 9.999055 
9.1500205e+2, 1.9509113e+2, -901979.25, -1076180.1, -4814.919, 0.112218924, 0.0060676606, -901846.25, 126257.33, 0.0, 10.001302, 9.999037 
9.150218e+2, 2.0508958e+2, -780333.6, -1030725.25, -57326.668, 0.07049482, -0.018901289, -767832.9, 162285.81, 0.0, 10.001749, 9.998456 
9.150395e+2, 2.1508692e+2, -817807.6, -997021.7, -76971.016, -0.12564147, -0.14593369, -789287.8, 42855.055, 0.0, 10.000814, 9.998467 
9.1505957e+2, 2.2508632e+2, -734829.9, -836343.4, -67418.414, -0.11762209, -0.0800823, -701197.7, 32951.34, 0.0, 10.000408, 9.999096 
9.150821e+2, 2.3508754e+2, -624780.7, -732606.8, -47442.633, 0.09605842, 0.1156986, -606878.56, 29260.793, 0.0, 10.000495, 9.999091 
9.1510195e+2, 2.4508606e+2, -543053.75, -734629.06, -98622.27, 0.07986803, 0.10448601, -501358.2, 36795.906, 0.0, 10.00078, 9.998261 
9.1511905e+2, 2.5508168e+2, -380658.56, -607203.75, -121907.57, -0.15667114, -0.17455567, -327521.6, 112673.65, 0.0, 10.001223, 9.998255 
9.1513956e+2, 2.650798e+2, -191489.25, -334742.94, -75595.11, -0.12523963, -0.24176663, -158976.64, 183234.3, 0.00000011562638, 10.001305, 9.999411 
9.151633e+2, 2.750801e+2, -137320.38, -258341.11, -23853.068, 0.17032388, -0.16876373, -132788.66, 111415.305, 0.0000025826089, 10.000996, 9.9994135 
9.151834e+2, 2.8508008e+2, -196567.77, -323034.75, -68064.92, 0.15658723, -0.06832091, -166896.4, -20691.633, 0.000017159802, 10.000289, 9.99864 
9.1520005e+2, 2.9507968e+2, -264901.88, -297565.28, -91769.945, -0.15520689, 0.0074493787, -188021.72, -139807.56, 0.00007135739, 9.999112, 9.998707 
9.152227e+2, 3.050786e+2, -75179.17, -39219.12, 1466.0122, -0.008935811, -0.030574739, -39159.453, -39159.453, 0.00020552066, 9.999495, 9.999955 
9.152488e+2, 3.1507665e+2, 187407.16, 119261.7, 16353.437, 0.35928917, -0.23248161, 191128.42, 191128.42, 0.00042645857, 10.001116, 10.000263 
9.248558e+2, 1.2507226e+2, -1676441.3, -1762583.5, 62230.96, -0.29785353, 0.07955239, -1643830.1, 70465.66, 0.0000053718704, 10.000488, 9.99943 
9.2487824e+2, 1.3507259e+2, -1485292.6, -1610852.8, 13340.211, -0.08425914, 0.14348148, -1483890.9, 132402.97, 0.00000033393198, 10.00113, 9.999494 
9.248992e+2, 1.4507194e+2, -1348549.8, -1397474.6, 39311.96, -0.059673168, 0.094977885, -1326710.6, 191587.53, 0.0, 10.000972, 10.000352 
9.2492074e+2, 1.5507104e+2, -1357108.4, -1350987.5, -22564.521, -0.07931258, -0.05336768, -1331276.9, 89024.84, 0.0, 10.00024, 10.000351 
9.249411e+2, 1.6507062e+2, -1290512.3, -1356146.5, -133053.7, -0.07196842, -0.0835881, -1186288.3, 136014.16, 0.0, 10.000403, 9.999565 
9.2496043e+2, 1.750706e+2, -1034326.1, -1178676.6, -122733.61, -0.03898471, -0.059239574, -964118.8, 260182.77, 0.0, 10.001482, 9.999588 
9.249811e+2, 1.8507022e+2, -984073.56, -1160619.6, -38592.848, 0.03428325, -0.025763623, -976005.9, 150299.56, 0.0, 10.001397, 9.999079 
9.25003e+2, 1.9506928e+2, -1069980.4, -1150202.9, -46233.797, 0.14162311, -0.044183213, -1048883.3, -20567.012, 0.0, 10.000131, 9.999084 
9.2502266e+2, 2.0506804e+2, -1023938.44, -1144317.3, -59202.36, 0.07529015, -0.042424172, -999702.25, -69372.83, 0.0, 10.000058, 9.998497 
9.250402e+2, 2.150663e+2, -759865.06, -962201.06, -37009.188, -0.15071225, -0.08296492, -753308.2, 79038.664, 0.0, 10.001182, 9.998532 
9.250602e+2, 2.2506566e+2, -612350.4, -785171.25, -17488.912, -0.13369071, -0.0192798, -610598.3, 123755.23, 0.0, 10.001289, 9.999016 
9.250827e+2, 2.3506595e+2, -643554.7, -751020.25, -41618.773, 0.11772809, 0.090632275, -629321.75, 7029.539, 0.0, 10.000404, 9.999005 
9.2510295e+2, 2.4506412e+2, -610218.9, -767038.0, -21842.89, 0.13545012, 0.049495608, -607233.3, -68865.1, 0.0, 10.000319, 9.998267 
9.2512095e+2, 2.5506002e+2, -401995.06, -613145.5, -368.02176, -0.07007247, -0.20289335, -401994.44, 38411.336, 0.0, 10.001065, 9.998289 
9.251413e+2, 2.65058e+2, -203400.77, -334651.53, 14013.943, -0.066575915, -0.28678808, -201921.14, 140499.84, 0.00000007319143, 10.001185, 9.999474 
9.2516375e+2, 2.750578e+2, -184735.81, -272921.97, -29000.646, 0.14751026, -0.27426934, -176053.55, 68363.26, 0.0000027897247, 10.00063, 9.999489 
9.251836e+2, 2.8505754e+2, -189940.44, -373160.38, -73655.836, 0.13518576, -0.17731884, -164002.25, -17581.916, 0.000020180585, 10.000566, 9.9981575 
9.252008e+2, 2.9505718e+2, -23865.564, -236843.61, -83139.98, -0.08517044, -0.045221094, 4745.9956, 53177.902, 0.00008284934, 10.001004, 9.998209 
9.252239e+2, 3.050565e+2, 154623.9, 103916.305, 40493.414, 0.097532816, -0.03359208, 177045.95, 177045.95, 0.00022869528, 10.000905, 10.000266 
9.252501e+2, 3.150543e+2, 75170.375, 125854.4, -36705.477, 0.43822107, -0.30094713, 145116.3, 145116.3, 0.0004606453, 10.000063, 10.00082 
9.348592e+2, 1.2505217e+2, -1727747.6, -1840680.3, 61522.26, -0.052080553, -0.006782801, -1700706.9, 13772.858, 0.000009857008, 10.000386, 9.998936 
9.34879e+2, 1.3504942e+2, -1505746.6, -1663453.1, 45080.01, -0.14025694, -0.2121739, -1493770.1, 122737.03, 0.0000009955157, 10.001183, 9.999103 
9.3489885e+2, 1.4504842e+2, -1449693.5, -1623300.0, 334.41824, -0.21466412, -0.19688775, -1449692.9, 68827.234, 0.00000000002439963, 10.001035, 9.998776 
9.349207e+2, 1.5504982e+2, -1471009.6, -1579897.1, -42528.813, -0.1264722, 0.04354317, -1456367.8, -35855.383, 0.0, 10.000205, 9.998799 
9.3494236e+2, 1.6504988e+2, -1261405.9, -1283834.9, -102977.01, -0.003996867, 0.10998877, -1169034.5, 153477.97, 0.0, 10.000354, 10.000085 
9.3496406e+2, 1.7504853e+2, -998539.56, -1105303.0, -73926.4, 0.15463874, -0.049518242, -960736.2, 263785.25, 0.0, 10.001487, 10.000091 
9.349836e+2, 1.8504766e+2, -987514.1, -1161256.6, -93723.15, 0.12273966, -0.090195194, -946594.0, 179934.2, 0.0, 10.0013685, 9.99909 
9.350009e+2, 1.9504696e+2, -1078528.6, -1153105.0, -86139.02, -0.097094394, -0.08428015, -1021953.4, 6582.398, 0.0, 10.000067, 9.999098 
9.3502045e+2, 2.0504671e+2, -973300.4, -1026225.7, -27415.844, -0.16547015, -0.02689774, -961659.2, -31120.389, 0.0, 9.999998, 9.999336 
9.350422e+2, 2.150467e+2, -718557.3, -854873.06, 12348.01, -0.083857484, 0.025677327, -717447.8, 115091.12, 0.0, 10.0010805, 9.999323 
9.350626e+2, 2.2504546e+2, -660323.56, -858033.7, -57035.938, -0.04505974, 0.010384458, -645049.6, 89501.16, 0.0, 10.001174, 9.99857 
9.350816e+2, 2.3504272e+2, -688500.3, -824733.7, -65140.945, -0.04545645, -0.13677527, -662366.1, -25789.328, 0.0, 10.000316, 9.998545 
9.3510216e+2, 2.4504137e+2, -560907.56, -652590.56, -1768.2775, 0.011873073, -0.1477646, -560873.5, -22285.36, 0.0, 10.000266, 9.999077 
9.3512434e+2, 2.5504124e+2, -356547.63, -505408.94, 35984.22, 0.14356688, -0.08569808, -348305.5, 92280.984, 0.0, 10.000999, 9.999064 
9.3514454e+2, 2.6504016e+2, -275960.1, -470162.3, -12058.328, 0.12418034, -0.07155714, -275214.22, 67379.37, 0.00000003612581, 10.001122, 9.998571 
9.3516266e+2, 2.7503783e+2, -255596.8, -410499.66, -37293.527, -0.045333114, -0.17899886, -247085.84, -2473.3667, 0.0000027030533, 10.000593, 9.998561 
9.351823e+2, 2.8503567e+2, -193173.14, -381648.9, -61357.75, -0.06972238, -0.22027676, -174958.58, -28325.482, 0.000022488803, 10.000568, 9.998098 
9.352035e+2, 2.950338e+2, -32550.527, -254830.25, -52475.285, 0.060892787, -0.23579447, -20785.041, 27869.656, 0.000095232324, 10.000997, 9.998092 
9.3522716e+2, 3.0503342e+2, 108814.94, 16208.892, 6978.1533, 0.31492528, -0.15868987, 109337.81, 109337.81, 0.0002574787, 10.000878, 9.999674 
9.352503e+2, 3.150328e+2, 53567.96, 108380.69, -31704.346, 0.41163, -0.2078886, 122882.25, 122882.25, 0.00050761335, 9.999951, 10.00075 
9.448605e+2, 1.2503046e+2, -1651504.6, -1811155.9, -11547.263, 0.035505142, -0.10312184, -1650673.8, 64013.754, 0.000016753027, 10.000918, 9.9988985 
9.448802e+2, 1.350281e+2, -1490173.5, -1660225.9, -30313.31, -0.13948944, -0.26451296, -1484931.5, 131780.9, 0.000002343361, 10.001306, 9.999072 
9.448999e+2, 1.4502732e+2, -1433420.8, -1630322.1, -32005.518, -0.21917708, -0.21608135, -1428349.0, 90375.195, 0.0000000053592455, 10.001215, 9.998636 
9.4492126e+2, 1.5502857e+2, -1390785.1, -1559325.4, 14884.797, -0.1113258, 0.019245246, -1389480.6, 31238.744, 0.0, 10.0008335, 9.998637 
9.4494313e+2, 1.6502869e+2, -1220880.0, -1253348.4, 54769.176, 0.029161679, 0.09469604, -1179989.6, 142730.38, 0.0, 10.0005865, 10.000179 
9.4496554e+2, 1.7502762e+2, -1140427.1, -1162480.6, 32025.805, 0.20512895, -0.044639036, -1117582.9, 107144.11, 0.0, 10.000467, 10.000186 
9.4498485e+2, 1.8502697e+2, -1064574.0, -1186958.0, -12707.576, 0.14936417, -0.07398237, -1063268.4, 63463.39, 0.0, 10.000795, 9.999183 
9.450013e+2, 1.9502644e+2, -847792.1, -1032782.7, -11305.433, -0.13582766, -0.06328466, -847103.75, 181633.39, 0.0, 10.001612, 9.999178 
9.450208e+2, 2.0502608e+2, -790059.2, -937203.7, 36771.652, -0.18724692, -0.019903773, -781381.6, 149359.42, 0.0, 10.001261, 9.999333 
9.450433e+2, 2.150258e+2, -913666.4, -943977.75, -4276.6426, -0.0026519208, 0.0019590694, -913074.56, -80330.03, 0.0, 9.999733, 9.999349 
9.4506377e+2, 2.250247e+2, -825866.06, -901147.8, -31288.293, 0.030529771, -0.014585032, -814560.06, -79805.7, 0.0, 9.99988, 9.9989 
9.450822e+2, 2.3502265e+2, -463243.6, -674678.94, 2836.317, -0.079826415, -0.12867096, -463205.53, 173566.78, 0.0, 10.001692, 9.998909 
9.451028e+2, 2.4502154e+2, -335432.2, -551080.06, 47149.5, -0.02610065, -0.13035749, -325574.03, 213206.69, 0.0, 10.001841, 9.999016 
9.451255e+2, 2.550212e+2, -459909.28, -557106.06, 6732.3623, 0.20431574, -0.08319403, -459445.2, -18663.94, 0.0, 10.000302, 9.999042 
9.4514614e+2, 2.6502e+2, -385926.34, -557970.9, 6295.54, 0.21108581, -0.06205055, -385696.28, -42906.414, 0.000000027783642, 10.00052, 9.998258 
9.451646e+2, 2.7501768e+2, -1391.0771, -320474.94, 6228.821, 0.0032004532, -0.13719693, -1269.531, 243539.94, 0.000002329391, 10.002483, 9.998269 
9.45184e+2, 2.8501508e+2, 117134.12, -257386.86, -30765.055, -0.06054559, -0.19981861, 119644.484, 266478.16, 0.000023981273, 10.002808, 9.99788 
9.4520426e+2, 2.950122e+2, 11835.738, -257106.33, -50677.58, 0.027460156, -0.2958831, 21068.135, 69930.5, 0.000106754764, 10.001408, 9.997881 
9.4522715e+2, 3.050113e+2, -40364.473, -145634.95, 1359.7113, 0.2695176, -0.21703047, -40346.91, -40346.91, 0.00028782972, 10.000253, 9.998868 
9.452497e+2, 3.1501094e+2, -75745.516, -4505.745, -71665.86, 0.40468192, -0.16028166, 39904.184, 39904.184, 0.0005617437, 9.999283, 10.000307 
9.548591e+2, 1.2500729e+2, -1626599.0, -1760236.3, -22112.176, -0.24688579, -0.19345747, -1623035.3, 91882.69, 0.00002677623, 10.000938, 9.999224 
9.548815e+2, 1.3500884e+2, -1477007.1, -1618826.1, -12665.849, -0.15737544, 0.00069598394, -1475884.9, 141022.98, 0.0000047533053, 10.001254, 9.999372 
9.549021e+2, 1.4500874e+2, -1345381.5, -1438900.6, -57502.582, -0.14706796, 0.03412722, -1318026.3, 200883.88, 0.000000046136613, 10.001174, 9.999971 
9.549222e+2, 1.5500726e+2, -1289250.0, -1361056.1, 9238.218, -0.122870274, -0.1331699, -1288080.5, 132842.05, 0.0, 10.000884, 9.999975 
9.54943e+2, 1.650071e+2, -1242294.9, -1303942.1, 41921.535, -0.061030805, -0.1340768, -1221084.8, 101839.484, 0.0, 10.000611, 9.999821 
9.5496446e+2, 1.7500806e+2, -1168079.6, -1216013.9, 35624.254, 0.039099842, -0.038405173, -1149110.6, 75806.39, 0.0, 10.000447, 9.99983 
9.549847e+2, 1.850083e+2, -1053743.5, -1157977.6, 10399.799, 0.03869087, 0.029476134, -1052716.0, 74199.26, 0.0, 10.000765, 9.999399 
9.5500386e+2, 1.9500768e+2, -840424.25, -1005749.56, 27319.521, -0.05930192, 0.012220887, -836026.75, 192893.86, 0.0, 10.00156, 9.99939 
9.550234e+2, 2.050062e+2, -857840.06, -1063300.8, -29455.857, -0.061483268, -0.027561277, -853700.56, 77235.375, 0.0, 10.001194, 9.998503 
9.5504344e+2, 2.1500361e+2, -987953.0, -1076500.0, -52727.54, 0.026625847, -0.15103501, -963376.44, -130413.08, 0.0, 9.999634, 9.998491 
9.550637e+2, 2.2500345e+2, -760319.3, -741165.94, 29842.34, 0.025590174, -0.08904423, -719401.3, 15562.764, 0.0, 9.99978, 10.000046 
9.550842e+2, 2.3500548e+2, -403013.66, -522973.3, 80698.42, -0.06206165, 0.095898606, -362445.9, 274494.22, 0.0, 10.001572, 10.000014 
9.551045e+2, 2.4500443e+2, -409815.53, -679221.5, -16922.842, -0.056836907, 0.085026525, -408756.7, 130191.016, 0.0, 10.001736, 9.998181 
9.5512444e+2, 2.5500005e+2, -525977.0, -686996.3, -41718.676, 0.04803383, -0.18597774, -515810.03, -74821.18, 0.0, 10.000268, 9.998166 
9.55146e+2, 2.6499778e+2, -377109.8, -528664.2, 74311.586, 0.13436961, -0.24342874, -346753.16, -3744.4878, 0.000000030362223, 10.000478, 9.998477 
9.551692e+2, 2.7499732e+2, -2939.0305, -300255.44, 92078.72, 0.19750859, -0.15124704, 23267.719, 268276.84, 0.000002140531, 10.002383, 9.998457 
9.551883e+2, 2.8499547e+2, 79713.63, -311663.06, -90416.98, 0.07142949, -0.12988794, 99592.34, 246617.27, 0.000025889522, 10.002708, 9.997552 
9.552032e+2, 2.9499218e+2, -20321.738, -311672.3, -92537.8, -0.24108979, -0.23354894, 6584.936, 55641.29, 0.000117742304, 10.001352, 9.997532 
9.5522404e+2, 3.0499017e+2, -112638.586, -289903.28, -33514.21, -0.07864561, -0.19966388, -106513.9, -106513.9, 0.00031737162, 10.000228, 9.997892 
9.55248e+2, 3.149889e+2, -128826.8, -110081.08, -66195.31, 0.26919937, -0.13406456, -52598.348, -52598.348, 0.0006187078, 9.999259, 9.999597 
9.6485996e+2, 1.2498702e+2, -1495834.1, -1710448.1, 129353.26, -0.28528214, -0.18497452, -1435072.5, 280045.1, 0.000040530904, 10.00188, 9.99912 
9.64883e+2, 1.3498889e+2, -1537190.3, -1654287.3, 80027.1, -0.09430828, 0.046883885, -1496581.0, 120523.7, 0.000008656152, 10.00086, 9.999322 
9.6490383e+2, 1.4498894e+2, -1413524.5, -1404587.5, 35744.402, -0.04185379, 0.068239965, -1373033.4, 146071.28, 0.00000019058375, 10.000435, 10.000554 
9.649231e+2, 1.5498732e+2, -1252924.6, -1277074.9, 21455.965, -0.11320601, -0.17099741, -1240379.4, 180736.94, 0.0, 10.000869, 10.00055 
9.6494323e+2, 1.6498737e+2, -1203113.3, -1282703.1, 41103.51, -0.10561321, -0.18062578, -1185696.9, 137418.58, 0.0, 10.000879, 9.999835 
9.649643e+2, 1.7498887e+2, -1159561.8, -1211942.5, 47288.277, -0.01989286, -0.030447168, -1131695.5, 93408.875, 0.0, 10.000509, 9.999827 
9.6498495e+2, 1.849893e+2, -1102058.6, -1168030.0, 74467.65, 0.009548621, 0.050194737, -1053598.0, 73503.3, 0.0, 10.000367, 9.99953 
9.6500516e+2, 1.949885e+2, -993864.2, -1066310.3, 69221.43, -0.016402455, 0.0020635047, -951960.94, 77147.24, 0.0, 10.000442, 9.999517 
9.65025e+2, 2.04987e+2, -906943.4, -1091547.5, 24955.586, -0.0033595965, -0.0423841, -903629.25, 27493.813, 0.0, 10.000892, 9.9984455 
9.650443e+2, 2.1498464e+2, -682778.3, -934504.5, 41565.52, 0.048442654, -0.14153937, -676092.5, 157055.23, 0.0, 10.001761, 9.998433 
9.650644e+2, 2.249842e+2, -556772.0, -684904.9, 129001.57, 0.04526334, -0.08616276, -476804.0, 258347.2, 0.0, 10.001355, 9.999678 
9.650853e+2, 2.3498549e+2, -705310.9, -702478.8, 54523.35, -0.0026526765, 0.05948907, -649353.1, -12217.872, 0.0, 9.99965, 9.999701 
9.6510565e+2, 2.4498424e+2, -688302.44, -824931.06, -41762.887, -0.011421471, 0.050066803, -676548.2, -137402.83, 0.0, 9.999868, 9.998086 
9.651254e+2, 2.5498036e+2, -275690.13, -575565.1, -26755.777, 0.03402139, -0.16196607, -273321.6, 167860.95, 0.0, 10.002039, 9.998076 
9.6514696e+2, 2.6497802e+2, -132161.55, -427035.5, 107128.266, 0.099022076, -0.20867595, -97351.09, 245851.56, 0.000000012060779, 10.002215, 9.9983425 
9.6517026e+2, 2.7497703e+2, -312603.8, -465478.4, 83508.54, 0.17857422, -0.16123715, -275831.88, -30623.447, 0.0000023356135, 10.00031, 9.9983225 
9.651897e+2, 2.849752e+2, -304959.9, -458697.6, -71744.984, 0.09198517, -0.14924692, -276680.47, -129457.54, 0.000028869204, 9.999911, 9.997882 
9.652052e+2, 2.9497254e+2, -47746.3, -288485.16, -50077.95, -0.15028894, -0.22246696, -37744.72, 11501.556, 0.00012890252, 10.001023, 9.997844 
9.652251e+2, 3.0497012e+2, 12059.852, -257840.52, 43865.336, -0.036637478, -0.23182328, 19010.055, 19010.055, 0.00034520676, 10.001197, 9.997642 
9.6524674e+2, 3.1496844e+2, -8635.499, -69615.83, 38487.137, 0.18493707, -0.18883349, 9975.3545, 9975.3545, 0.0006746709, 10.0001745, 9.999418 
9.748628e+2, 1.249697e+2, -1519876.1, -1763012.0, 65596.945, -0.23616873, -0.0815362, -1503307.5, 211978.31, 0.000058506626, 10.001896, 9.998745 
9.748846e+2, 1.3496839e+2, -1557381.3, -1698222.3, 44764.52, -0.03285077, -0.13319506, -1544357.6, 72943.72, 0.00001444443, 10.000875, 9.999007 
9.7490495e+2, 1.4496809e+2, -1430859.3, -1448507.0, 43615.08, 0.004301008, -0.11682767, -1395184.4, 124121.42, 0.0000005546723, 10.0004635, 10.000243 
9.749238e+2, 1.5496883e+2, -1277908.8, -1326085.4, 47467.74, -0.15222453, -0.08900944, -1248767.1, 172532.27, 0.0, 10.000853, 10.000225 
9.749436e+2, 1.6496953e+2, -1178182.5, -1226885.6, 15179.074, -0.17351879, -0.03667795, -1173839.0, 149454.34, 0.0, 10.000858, 10.00023 
9.7496474e+2, 1.7497006e+2, -1130143.1, -1154869.6, 37892.473, -0.042551674, -0.021883218, -1102648.0, 122641.05, 0.0, 10.000524, 10.000214 
9.7498524e+2, 1.8496996e+2, -1100320.6, -1160313.0, 70397.586, -0.011067721, -0.017611442, -1053795.0, 73495.16, 0.0, 10.000349, 9.999591 
9.750052e+2, 1.9496898e+2, -998424.44, -1062569.6, 80847.164, -0.07933523, -0.09196412, -943520.5, 85778.68, 0.0, 10.000383, 9.999572 
9.750253e+2, 2.0496862e+2, -871704.9, -1001437.06, 48146.28, -0.080388956, -0.058101825, -855789.3, 75512.44, 0.0, 10.0008135, 9.999105 
9.750456e+2, 2.149687e+2, -650843.3, -846939.94, 80461.74, -0.015295117, 0.024010988, -622054.9, 211244.52, 0.0, 10.001665, 9.999084 
9.750655e+2, 2.2496681e+2, -693533.56, -946158.06, 55436.008, 0.013947696, -0.010167651, -681904.06, 53412.926, 0.0, 10.001258, 9.997929 
9.750853e+2, 2.349627e+2, -845218.25, -969617.8, -1365.9412, 0.013976938, -0.22901729, -845203.25, -207846.28, 0.0, 9.99955, 9.997915 
9.751061e+2, 2.4496111e+2, -651735.5, -738603.6, 32335.615, 0.036655914, -0.21518625, -641020.6, -101648.17, 0.0, 9.999819, 9.998706 
9.7512805e+2, 2.5496188e+2, -241123.8, -489672.88, 64823.33, 0.07896811, -0.025200395, -225233.34, 216131.08, 0.0, 10.001969, 9.998704 
9.751486e+2, 2.649605e+2, -172821.25, -491363.7, 30520.033, 0.029661495, 0.012364612, -169923.44, 173451.8, 0.0000000034767167, 10.002135, 9.997935 
9.751679e+2, 2.749568e+2, -346140.66, -527796.2, 23917.523, -0.11390008, -0.16852976, -343044.34, -97636.9, 0.0000028342504, 10.000281, 9.997908 
9.7518826e+2, 2.8495434e+2, -242141.23, -328631.0, -35948.816, -0.062106986, -0.24168323, -229150.56, -81723.984, 0.000032313746, 9.999915, 9.998775 
9.752097e+2, 2.949531e+2, 10049.398, -161118.64, 4636.5557, 0.18140267, -0.26376137, 10174.9, 59608.44, 0.00013997531, 10.000992, 9.998736 
9.752296e+2, 3.049507e+2, 23062.912, -216870.81, -448.4015, 0.28331727, -0.32570758, 23063.75, 23063.75, 0.00037147623, 10.001123, 9.997956 
9.752454e+2, 3.149491e+2, -2487.17, -42677.313, 30661.158, -0.009832658, -0.3132609, 14077.253, 14077.253, 0.0007275027, 10.000116, 9.999626 
9.848655e+2, 1.2495137e+2, -1606358.3, -1729335.1, 10510.148, -0.106330566, -0.0050239544, -1605466.5, 110002.16, 0.00008108169, 10.000979, 9.99942 
9.848853e+2, 1.3494924e+2, -1495463.1, -1598667.5, 35163.92, -0.06027765, -0.20186293, -1484621.0, 132865.6, 0.000022462764, 10.000989, 9.999642 
9.849052e+2, 1.44949e+2, -1417507.8, -1471592.5, 109995.87, -0.018679086, -0.1983034, -1331278.9, 188210.36, 0.0000013019285, 10.000671, 9.999987 
9.849248e+2, 1.5495074e+2, -1384985.4, -1403938.6, 98584.055, -0.09404105, -0.0480121, -1295423.5, 126052.41, 0.0, 10.000228, 9.999988 
9.849448e+2, 1.6495153e+2, -1277509.0, -1283399.6, 77638.04, -0.10130709, 0.030140871, -1202760.4, 120710.016, 0.0, 10.000219, 10.000146 
9.8496544e+2, 1.7495127e+2, -1112864.1, -1152795.6, 47840.734, -0.02758952, -0.02735504, -1080990.0, 144483.92, 0.0, 10.000679, 10.000147 
9.8498577e+2, 1.8495095e+2, -1019739.1, -1099364.0, 73956.87, -0.008986351, -0.052200694, -975559.56, 151917.17, 0.0, 10.000811, 9.999785 
9.8500586e+2, 1.9495036e+2, -962447.4, -1023721.6, 75726.3, -0.054493643, -0.10489457, -911395.4, 118085.45, 0.0, 10.000543, 9.999761 
9.8502624e+2, 2.0495021e+2, -885831.6, -1009297.9, 72845.914, -0.053633574, -0.059046276, -852079.1, 79401.734, 0.0, 10.00071, 9.999109 
9.850471e+2, 2.1495028e+2, -709377.9, -874218.06, 40728.86, -0.0044283117, 0.020863835, -699863.7, 133614.97, 0.0, 10.001257, 9.999098 
9.850672e+2, 2.24948e+2, -646550.8, -966046.44, 8681.34, 0.031401195, -0.034454674, -646315.06, 89184.74, 0.0, 10.001756, 9.997553 
9.850866e+2, 2.349432e+2, -488614.44, -839971.9, 38390.098, 0.06362295, -0.28620157, -484468.75, 153077.53, 0.0, 10.002174, 9.99754 
9.8510736e+2, 2.4494156e+2, -360645.47, -597181.8, 161772.06, 0.081929915, -0.25738502, -278520.13, 261041.89, 0.0, 10.001826, 9.998704 
9.8512936e+2, 2.549429e+2, -419787.56, -576562.06, 128887.65, 0.082436055, -0.00975027, -347321.97, 94226.93, 0.0, 10.000748, 9.998693 
9.851498e+2, 2.649414e+2, -386230.7, -602343.7, 61513.242, 0.01247237, 0.016532691, -369948.6, -26387.184, 0.00000001775074, 10.000703, 9.99787 
9.8516876e+2, 2.7493688e+2, -147327.11, -439722.78, 62404.188, -0.11534566, -0.23506665, -134565.56, 111035.68, 0.000003544514, 10.001681, 9.997845 
9.8518944e+2, 2.8493434e+2, 30260.61, -217666.98, 17114.738, -0.027261714, -0.30495316, 31436.484, 179058.39, 0.00003520851, 10.001862, 9.998607 
9.852118e+2, 2.9493362e+2, 31266.107, -170686.53, -34862.836, 0.28143516, -0.256812, 37115.04, 86740.21, 0.00014919741, 10.001213, 9.998567 
9.852313e+2, 3.0493113e+2, 57418.652, -165949.69, -70169.5, 0.33801013, -0.34122157, 77632.59, 77632.59, 0.00039500848, 10.001208, 9.998265 
9.8524576e+2, 3.1492957e+2, 234379.94, 90982.92, -65126.754, -0.050894573, -0.35179132, 259543.05, 259543.05, 0.0007743285, 10.0016365, 9.999825 
9.9486727e+2, 1.24932155e+2, -1490042.3, -1485296.5, -13302.862, -0.06277761, 0.05588026, -1474156.5, 241508.84, 0.000108580556, 10.000978, 10.001091 
9.948846e+2, 1.3493161e+2, -1380554.9, -1355753.1, 40466.17, -0.24086201, -0.1507251, -1325830.4, 291828.7, 0.000033028722, 10.000977, 10.001313 
9.949044e+2, 1.4493191e+2, -1431589.9, -1500659.9, 80947.914, -0.18707404, -0.16641888, -1378117.9, 141534.45, 0.0000026281716, 10.000665, 9.999793 
9.94926e+2, 1.5493318e+2, -1392615.5, -1427111.3, 90194.09, -0.02011106, -0.044816095, -1318034.9, 103609.766, 0.00000000019976186, 10.000254, 9.99982 
9.9494654e+2, 1.6493346e+2, -1316476.4, -1364879.9, 86511.1, 0.02843833, 0.016889865, -1250845.5, 72800.53, 0.0, 10.000223, 9.999584 
9.949662e+2, 1.749325e+2, -1151748.8, -1234729.1, 72478.5, -0.037153237, -0.053546056, -1109725.1, 115933.79, 0.0, 10.000679, 9.999586 
9.9498636e+2, 1.8493225e+2, -1006151.94, -1062939.6, 54603.566, -0.052895777, -0.055133287, -973001.0, 154660.11, 0.0, 10.000776, 10.000052 
9.950069e+2, 1.949326e+2, -946695.94, -983248.44, 72853.17, -0.019081287, -0.042942032, -889861.56, 139792.22, 0.0, 10.000506, 10.000057 
9.9502766e+2, 2.0493177e+2, -941952.75, -1104448.4, 82671.46, 0.0022576184, -0.050637387, -907287.75, 24373.012, 0.0, 10.000621, 9.998499 
9.9504864e+2, 2.1492946e+2, -768610.44, -970798.94, 68946.6, 0.012020197, -0.14489207, -747337.7, 86346.92, 0.0, 10.0011425, 9.99849 
9.950691e+2, 2.2492787e+2, -598767.6, -833328.56, 16854.05, 0.03392546, -0.14992493, -597562.75, 138135.92, 0.0, 10.001616, 9.9985285 
9.9508893e+2, 2.3492685e+2, -437335.38, -702946.5, 61108.72, 0.06689941, -0.12227647, -423950.66, 213753.48, 0.0, 10.0020485, 9.99854 
9.95109e+2, 2.4492545e+2, -416356.28, -695796.7, 111537.734, 0.048113346, -0.08781113, -377296.2, 162419.61, 0.0, 10.001748, 9.998066 
9.9512917e+2, 2.5492346e+2, -474272.22, -675334.94, 96294.055, -0.025073431, -0.109854124, -435594.75, 6141.2183, 0.0, 10.000681, 9.99805 
9.951503e+2, 2.649208e+2, -379974.22, -576013.2, 90529.71, -0.01934373, -0.17770867, -344564.13, -803.99744, 0.000000028595345, 10.000648, 9.998076 
9.951724e+2, 2.7491727e+2, -146537.19, -415320.9, 109479.79, 0.06170461, -0.3540157, -107588.35, 138201.84, 0.000003781716, 10.001586, 9.998057 
9.9519277e+2, 2.8491506e+2, -60296.395, -386064.16, -13689.22, 0.10084279, -0.34394762, -59722.168, 88088.04, 0.000036350866, 10.001774, 9.997495 
9.9521136e+2, 2.949142e+2, -47467.598, -329362.75, -45670.75, 0.09893084, -0.20428091, -40252.977, 9567.986, 0.00015454051, 10.001192, 9.997486 
9.9523014e+2, 3.0491135e+2, 71167.01, -128809.695, -53604.3, 0.09019394, -0.2800681, 84629.484, 84629.484, 0.00041140616, 10.001178, 9.998534 
9.952471e+2, 3.1490988e+2, 211916.72, 100618.62, -20170.688, -0.12128307, -0.30379462, 215459.52, 215459.52, 0.0008072484, 10.001414, 9.99999 
1.0048688e+3, 1.2491322e+2, -1521462.3, -1512868.8, 116291.6, 0.013963561, 0.0016484979, -1400794.6, 315055.47, 0.00014134821, 10.000819, 10.000976 
1.0048853e+3, 1.3491361e+2, -1412352.3, -1381483.9, 6095.3276, -0.2532864, -0.10246991, -1380323.9, 237512.83, 0.000046426092, 10.000815, 10.0012045 
1.0049049e+3, 1.4491391e+2, -1417810.9, -1476927.1, 5068.377, -0.19962773, -0.118656084, -1417379.5, 102450.81, 0.00000474816, 10.000707, 9.999927 
1.0049261e+3, 1.5491433e+2, -1332523.1, -1386699.0, 12396.929, -0.041404784, -0.090223275, -1329821.1, 92008.14, 0.000000004412824, 10.000626, 9.999917 
1.0049466e+3, 1.649144e+2, -1293491.3, -1353328.5, 67242.48, 0.013565548, -0.053393107, -1249811.8, 74019.92, 0.0, 10.000366, 9.999607 
1.0049664e+3, 1.7491396e+2, -1261343.9, -1284170.4, 82179.98, -0.033381376, -0.07483845, -1189788.5, 36050.855, 0.0, 9.999909, 9.999624 
1.00498684e+3, 1.8491393e+2, -1105317.0, -1123383.9, 102779.62, -0.039360624, -0.05072907, -1011174.56, 116664.836, 0.0, 10.000157, 9.99993 
1.0050078e+3, 1.9491416e+2, -864472.7, -958474.25, 72413.68, -0.006062537, -0.03739312, -825143.8, 204689.58, 0.0, 10.001147, 9.999913 
1.005029e+3, 2.0491308e+2, -826712.94, -1094033.0, 82997.52, 0.03223359, -0.04115767, -803040.25, 128803.586, 0.0, 10.0016, 9.9980955 
1.0050505e+3, 2.1491049e+2, -757416.94, -1012735.7, 66144.21, 0.073723316, -0.12566072, -741298.8, 92574.25, 0.0, 10.001421, 9.998066 
1.00507095e+3, 2.2490902e+2, -627816.94, -805487.4, 15160.75, 0.09103681, -0.11407209, -626532.56, 109353.305, 0.0, 10.001239, 9.998904 
1.00509055e+3, 2.349085e+2, -556174.0, -720828.7, -3526.3977, 0.08155835, -0.07251213, -556098.5, 81785.58, 0.0, 10.001058, 9.998899 
1.00511044e+3, 2.4490687e+2, -517347.8, -777247.6, 35286.918, 0.051694144, -0.06522136, -512642.06, 27255.348, 0.0, 10.001189, 9.997777 
1.0051306e+3, 2.5490394e+2, -357680.44, -649169.4, 29034.174, 0.008406326, -0.15156639, -354816.6, 87111.266, 0.0, 10.001617, 9.997774 
1.0051519e+3, 2.6490158e+2, -259265.53, -484948.38, 63884.207, 0.04267302, -0.19058041, -242436.69, 101513.75, 0.000000017098808, 10.001349, 9.998355 
1.00517415e+3, 2.7489954e+2, -308678.16, -461145.5, 67570.234, 0.1508928, -0.24382584, -283042.75, -37075.62, 0.000003428396, 10.00034, 9.998335 
1.0051942e+3, 2.8489769e+2, -248838.69, -470912.0, 22380.676, 0.14107803, -0.21962139, -246605.6, -98621.16, 0.00003625069, 10.000449, 9.99755 
1.005212e+3, 2.9489583e+2, 17802.758, -294416.66, 55285.91, 0.026054153, -0.17942454, 27303.354, 77307.1, 0.00015742959, 10.001612, 9.99753 
1.0052307e+3, 3.0489308e+2, 120996.87, -75071.71, 62984.586, 0.027360912, -0.2662099, 139486.31, 139486.31, 0.00042159262, 10.001383, 9.998808 
1.0052487e+3, 3.148927e+2, -52226.023, -30888.225, 60898.53, 0.005361468, -0.20507519, 20268.896, 20268.896, 0.0008274756, 9.999588, 9.999979 
1.0148695e+3, 1.2489469e+2, -1656012.5, -1797689.5, 88729.92, -0.04273912, -0.17828177, -1613312.1, 102708.72, 0.0001798155, 10.000838, 9.99901 
1.014887e+3, 1.3489525e+2, -1544888.1, -1667806.8, 11715.736, -0.17879964, -0.068959445, -1543781.5, 74237.805, 0.000062927356, 10.000851, 9.999225 
1.0149065e+3, 1.4489502e+2, -1394985.6, -1430293.4, -9143.966, -0.14000876, -0.05800822, -1392758.1, 127264.95, 0.000007860604, 10.0007105, 10.000245 
1.014925e+3, 1.5489423e+2, -1311701.9, -1340703.8, 16754.01, -0.23110285, -0.18268152, -1304044.9, 117984.62, 0.000000028517778, 10.000617, 10.000236 
1.0149448e+3, 1.6489449e+2, -1247402.4, -1259118.4, 39878.46, -0.22150192, -0.17413239, -1212953.9, 111072.4, 0.0, 10.000369, 10.000251 
1.014966e+3, 1.7489573e+2, -1213724.9, -1189606.6, 72056.36, -0.08889943, -0.094093844, -1128607.3, 97407.195, 0.0, 9.999921, 10.000269 
1.01498716e+3, 1.8489602e+2, -1148069.8, -1206257.1, 130529.92, -0.04061118, -0.042573195, -1043430.5, 84580.625, 0.0, 10.00013, 9.999376 
1.0150083e+3, 1.9489507e+2, -913435.94, -1045909.7, 117521.9, -0.08606223, -0.09075012, -844770.2, 185248.97, 0.0, 10.001079, 9.999349 
1.01503e+3, 2.0489421e+2, -858272.4, -1134237.9, 68091.66, -0.04001086, -0.033971097, -842386.0, 89643.82, 0.0, 10.001495, 9.997868 
1.0150523e+3, 2.148933e+2, -785763.6, -1050252.8, 65853.164, 0.10296741, 0.071693376, -770274.44, 63770.137, 0.0, 10.001332, 9.997849 
1.0150728e+3, 2.2489144e+2, -661651.2, -847521.4, -453.93088, 0.12893057, 0.065499686, -661650.06, 74411.88, 0.0, 10.00112, 9.998672 
1.0150913e+3, 2.3488837e+2, -587868.75, -761386.5, -1683.4364, 0.031460848, -0.12546445, -587852.44, 50231.727, 0.0, 10.000948, 9.9986725 
1.0151114e+3, 2.4488606e+2, -533843.9, -783526.9, 43026.707, 0.02136019, -0.17549612, -526637.25, 13467.13, 0.0, 10.001074, 9.997788 
1.01513326e+3, 2.5488433e+2, -370099.88, -654151.9, 55055.61, 0.09732493, -0.14224721, -359802.2, 82322.2, 0.0, 10.00153, 9.997783 
1.0151541e+3, 2.6488355e+2, -245005.47, -441604.9, 21109.604, 0.120518535, -0.038406927, -242764.4, 101369.266, 0.000000011022683, 10.001285, 9.998686 
1.015174e+3, 2.748836e+2, -288078.28, -410846.8, 42718.883, 0.08749901, 0.08005323, -274676.63, -28543.574, 0.0000031084232, 10.000304, 9.998699 
1.01519376e+3, 2.8488204e+2, -178175.2, -314594.38, 58549.1, 0.036280494, 0.06394292, -156492.94, -8347.572, 0.000035475467, 10.000415, 9.998634 
1.0152132e+3, 2.9487863e+2, 74411.7, -144652.77, 110460.64, -0.03697665, -0.16264606, 120439.305, 170612.52, 0.00015859005, 10.001485, 9.998611 
1.0152324e+3, 3.0487615e+2, 130180.07, -41250.316, -7807.53, 0.043817785, -0.2872331, 130534.914, 130534.914, 0.00042792628, 10.001313, 9.999076 
1.0152502e+3, 3.148779e+2, -63541.008, -43659.97, 19079.363, 0.15401569, -0.045633174, -32086.863, -32086.863, 0.00084052904, 9.999549, 9.999906 
1.0248696e+3, 1.2487616e+2, -1844625.9, -1923756.3, 20886.662, -0.047809165, -0.2358654, -1839451.1, -123252.06, 0.00022439056, 9.999682, 9.998712 
1.0248878e+3, 1.3487709e+2, -1581890.5, -1725093.4, 49624.84, -0.1742701, -0.052793972, -1566374.8, 51823.73, 0.0000828242, 10.000757, 9.998887 
1.0249078e+3, 1.4487694e+2, -1368733.8, -1451498.4, 60132.887, -0.08567853, -0.002632736, -1337119.8, 183084.1, 0.000012107546, 10.001027, 9.99995 
1.0249259e+3, 1.5487614e+2, -1333103.5, -1383092.0, 21581.809, -0.19697604, -0.10153999, -1325075.3, 97135.36, 0.00000009714164, 10.0006, 9.999953 
1.02494545e+3, 1.6487616e+2, -1215365.1, -1240070.9, 28322.102, -0.19754218, -0.10351912, -1196819.3, 127389.42, 0.0, 10.000585, 10.000272 
1.0249667e+3, 1.7487699e+2, -1039688.5, -1101025.4, -4692.3, -0.05956928, -0.06737855, -1039331.6, 186866.72, 0.0, 10.001104, 10.000302 
1.0249881e+3, 1.8487686e+2, -995486.94, -1161888.0, 69464.266, -0.012488927, -0.04626972, -970301.06, 157897.13, 0.0, 10.001294, 9.999123 
1.0250094e+3, 1.9487557e+2, -925114.9, -1078818.0, 64490.996, -0.07317195, -0.10408534, -901640.7, 128569.97, 0.0, 10.001114, 9.999105 
1.025031e+3, 2.0487475e+2, -926537.6, -1121319.4, 42232.418, -0.04647955, -0.048641257, -917775.0, 14445.116, 0.0, 10.000845, 9.99827 
1.0250529e+3, 2.148743e+2, -880303.9, -1051842.0, 67664.37, 0.07883474, 0.06606867, -856826.44, -22598.404, 0.0, 10.000504, 9.9982395 
1.02507345e+3, 2.2487251e+2, -761922.7, -930404.9, 51007.44, 0.13063958, 0.062680095, -747683.7, -11438.656, 0.0, 10.000578, 9.998364 
1.0250929e+3, 2.348692e+2, -604566.5, -805344.5, 26499.596, 0.10499852, -0.12048489, -601127.9, 37145.12, 0.0, 10.000998, 9.998347 
1.0251132e+3, 2.4486683e+2, -544146.0, -764647.44, 79967.07, 0.10074564, -0.16827655, -518198.53, 22096.31, 0.0, 10.000913, 9.997986 
1.0251342e+3, 2.5486526e+2, -546662.6, -717675.3, 83607.08, 0.11090657, -0.14020044, -512580.16, -70267.77, 0.0, 10.000233, 9.997966 
1.0251548e+3, 2.6486456e+2, -378308.9, -503692.63, 67960.97, 0.10742436, -0.03805035, -348540.16, -4219.4863, 0.00000001218603, 10.000346, 9.998718 
1.0251748e+3, 2.7486464e+2, -150302.83, -337206.44, 50770.637, 0.101949684, 0.07835559, -137401.92, 108918.52, 0.0000027111198, 10.001221, 9.998762 
1.025195e+3, 2.8486347e+2, -14359.498, -169708.03, 58562.684, 0.084329255, 0.06636309, 5243.569, 153572.17, 0.00003356273, 10.001272, 9.999209 
1.02521494e+3, 2.948607e+2, -41368.414, -135007.8, 50619.65, 0.055065535, -0.15214339, -19235.715, 31112.572, 0.00015687123, 10.000417, 9.999187 
1.025234e+3, 3.0485827e+2, 44078.21, -103693.9, -84117.41, 0.10448876, -0.28671554, 82151.47, 82151.47, 0.0004299211, 10.000826, 9.998878 
1.0252512e+3, 3.1485936e+2, 314612.84, 91789.64, -126616.92, 0.16285075, -0.08870361, 371855.88, 371855.88, 0.00084804866, 10.002352, 9.999486 
1.03486866e+3, 1.2485773e+2, -1748189.9, -1720734.4, 20409.814, -0.15776235, -0.1560256, -1709865.1, 6519.261, 0.00027553758, 9.999679, 10.000103 
1.03488736e+3, 1.3485925e+2, -1493793.6, -1533838.8, 95136.63, -0.31280413, -0.048230343, -1416595.4, 201777.81, 0.000106410545, 10.000731, 10.000211 
1.0349087e+3, 1.4485982e+2, -1426329.0, -1578908.6, 34343.336, -0.12286571, 0.05376346, -1418955.1, 101416.17, 0.000017580353, 10.001053, 9.999067 
1.0349285e+3, 1.5486012e+2, -1392316.1, -1510810.6, 12915.029, -0.013512763, 0.15428852, -1390924.8, 31447.178, 0.00000023822265, 10.000613, 9.999075 
1.0349484e+3, 1.6485955e+2, -1260107.8, -1328586.5, 35961.117, 0.0139040155, 0.16345188, -1244692.9, 79684.57, 0.0, 10.000571, 9.999668 
1.0349684e+3, 1.7485781e+2, -1088198.3, -1194633.9, 22805.326, -0.014341075, 0.005911886, -1083517.8, 142872.28, 0.0, 10.001077, 9.999672 
1.03498936e+3, 1.8485656e+2, -997644.5, -1158675.6, 53503.023, -0.031711597, -0.054111548, -981488.8, 146910.7, 0.0, 10.00126, 9.999163 
1.035011e+3, 1.9485565e+2, -928522.44, -1075515.5, 63172.83, -0.04330662, -0.07849323, -905103.8, 125303.734, 0.0, 10.001065, 9.999154 
1.0350318e+3, 2.0485473e+2, -872621.44, -986933.9, 19108.432, -0.05698388, -0.08596276, -869511.9, 62902.92, 0.0, 10.000746, 9.999239 
1.0350521e+3, 2.1485353e+2, -821660.25, -913053.0, 63831.473, -0.06680269, -0.14557865, -788854.3, 45569.16, 0.0, 10.000424, 9.999231 
1.0350731e+3, 2.2485226e+2, -808298.56, -1000026.7, 58055.293, 0.02589815, -0.12594706, -792089.7, -55654.227, 0.0, 10.000465, 9.997941 
1.0350952e+3, 2.3485084e+2, -646984.2, -872833.4, 51270.5, 0.21994576, -0.077190734, -635890.1, 2561.826, 0.0, 10.000907, 9.997927 
1.0351152e+3, 2.4484904e+2, -539622.0, -729600.1, 48415.957, 0.20890984, -0.061551336, -527994.8, 12475.647, 0.0, 10.000804, 9.998281 
1.0351333e+3, 2.5484666e+2, -530143.3, -675379.2, 68816.53, -0.016207233, -0.1466911, -502715.88, -60223.06, 0.0, 10.000194, 9.998278 
1.0351536e+3, 2.648447e+2, -398307.53, -535192.2, 92285.13, -0.05649374, -0.17613882, -351854.72, -7343.6416, 0.00000000560088, 10.00031, 9.998516 
1.0351763e+3, 2.7484295e+2, -182565.14, -377577.84, 95017.76, 0.09902996, -0.22055772, -143925.02, 102602.24, 0.0000022721786, 10.001117, 9.998531 
1.0351975e+3, 2.8484204e+2, -20605.477, -165943.98, 20470.629, 0.1902269, -0.19494472, -17777.268, 130755.98, 0.000031159278, 10.001197, 9.999273 
1.0352172e+3, 2.9484203e+2, -43396.098, -127151.34, 33085.31, 0.21119729, -0.14753243, -31903.57, 18624.928, 0.00015252481, 10.000365, 9.999266 
1.0352354e+3, 3.0483958e+2, -11508.142, -214043.27, -31772.068, 0.13693985, -0.2574278, -6640.9614, -6640.9614, 0.00042681675, 10.000807, 9.998125 
1.03525095e+3, 3.1483757e+2, 232583.72, -34833.71, -42188.867, -0.13298497, -0.2919999, 239081.72, 239081.72, 0.0008482355, 10.002187, 9.998682 
1.0448684e+3, 1.2483918e+2, -1716628.3, -1657264.8, 4364.111, -0.13313879, -0.052639868, -1656945.6, 59624.74, 0.0003338259, 9.999677, 10.000544 
1.0448877e+3, 1.3484012e+2, -1678239.6, -1581281.1, -1877.0281, -0.27041063, -0.04015169, -1581244.8, 37316.445, 0.00013404706, 9.999272, 10.000589 
1.0449099e+3, 1.4484031e+2, -1616324.1, -1642332.1, -25288.926, -0.030968532, -0.006138494, -1600891.6, -80331.914, 0.000024406929, 9.999637, 9.999312 
1.0449303e+3, 1.5484081e+2, -1311924.6, -1440776.8, 16373.827, 0.088064514, 0.08784097, -1309876.5, 112679.66, 0.0000004785213, 10.001043, 9.999342 
1.0449502e+3, 1.6484004e+2, -1153900.3, -1368030.8, 82655.125, 0.095431566, 0.106135935, -1125707.1, 198856.73, 0.0, 10.001686, 9.998862 
1.04496986e+3, 1.7483778e+2, -1079278.9, -1281103.9, 38069.08, 0.003520531, -0.022222638, -1072337.0, 154248.64, 0.0, 10.001527, 9.99886 
1.04499035e+3, 1.8483634e+2, -1051759.4, -1157383.4, 50394.48, -0.019377513, -0.07204463, -1031573.4, 97024.84, 0.0, 10.000779, 9.999401 
1.04501195e+3, 1.9483568e+2, -1151214.8, -1153046.1, 56743.45, 0.029305166, -0.09819145, -1095379.6, -64777.2, 0.0, 9.99942, 9.999412 
1.0450328e+3, 2.0483483e+2, -993991.5, -984788.6, 78477.42, 0.023321278, -0.13588294, -910777.9, 21828.494, 0.0, 9.999641, 9.99979 
1.0450532e+3, 2.148336e+2, -633229.1, -759021.56, 75148.07, -0.035155777, -0.25479677, -598129.6, 236482.73, 0.0, 10.001448, 9.999795 
1.0450743e+3, 2.2483261e+2, -615845.8, -919965.44, 38129.844, 0.03882919, -0.23145556, -611138.06, 125483.81, 0.0, 10.001837, 9.997831 
1.0450962e+3, 2.3483172e+2, -686164.2, -909992.75, 33428.93, 0.24309702, -0.11515397, -681278.25, -42641.613, 0.0, 10.000705, 9.997776 
1.04511596e+3, 2.4483044e+2, -555142.56, -714936.56, 75570.4, 0.21922435, -0.05039685, -525064.94, 15586.735, 0.0, 10.000584, 9.998496 
1.0451339e+3, 2.548286e+2, -317169.06, -546041.2, 74349.79, -0.039598152, -0.10426055, -295137.16, 147531.22, 0.0, 10.001536, 9.99852 
1.0451543e+3, 2.6482648e+2, -222608.1, -472885.28, 98641.96, -0.07419392, -0.15418524, -188404.6, 156283.52, 0.0000000009945924, 10.001621, 9.998312 
1.04517736e+3, 2.7482367e+2, -256788.25, -440856.03, 82410.74, 0.13186751, -0.28101653, -225283.63, 21430.834, 0.0000020282196, 10.000712, 9.998297 
1.0451986e+3, 2.8482243e+2, -165157.17, -270675.13, 5157.8223, 0.23753084, -0.25998524, -164905.64, -16181.531, 0.00002862002, 10.000337, 9.998978 
1.04521774e+3, 2.948229e+2, -49285.984, -161736.8, -31358.35, 0.24353056, -0.1363628, -41132.492, 9583.656, 0.00014590684, 10.000447, 9.998997 
1.0452364e+3, 3.0482033e+2, 52773.188, -189244.81, 735.0543, 0.14560296, -0.23999716, 52775.418, 52775.418, 0.0004167961, 10.001276, 9.998066 
1.0452534e+3, 3.1481725e+2, 302734.9, -20874.123, 5356.344, -0.1216696, -0.37399662, 302823.53, 302823.53, 0.0008355391, 10.002721, 9.998537 
1.0548684e+3, 1.248206e+2, -1749811.5, -1721805.0, -63356.066, -0.15118779, 0.076751426, -1670923.0, 45832.754, 0.00039971265, 9.999673, 10.0000925 
1.0548885e+3, 1.3481979e+2, -1723324.0, -1666516.0, -12684.376, -0.12515837, -0.027313756, -1663812.5, -45050.938, 0.00016604259, 9.999243, 10.000016 
1.0549112e+3, 1.4481857e+2, -1518851.0, -1443000.3, 13821.518, 0.109738864, -0.17300844, -1440560.1, 80207.66, 0.000032768716, 9.999644, 10.000678 
1.05493106e+3, 1.5481816e+2, -1215234.8, -1243397.0, 77436.35, 0.033415664, -0.30698997, -1150609.6, 272152.94, 0.0000008393984, 10.00105, 10.000699 
1.05495065e+3, 1.6481768e+2, -1223660.3, -1508818.3, 68910.24, -0.039710376, -0.28335625, -1207880.8, 116886.79, 0.0, 10.001673, 9.997898 
1.0549707e+3, 1.7481692e+2, -1149223.9, -1428666.8, 38194.36, -0.082096145, -0.16164434, -1144097.5, 82687.59, 0.0, 10.001535, 9.997844 
1.0549911e+3, 1.848163e+2, -1028752.8, -1100267.3, -10652.902, -0.04906663, -0.09867903, -1027199.6, 101594.18, 0.0, 10.000742, 9.99981 
1.0550118e+3, 1.9481562e+2, -1126961.5, -1093204.5, 13783.19, 0.06272093, -0.16846631, -1088291.6, -57496.695, 0.0, 9.999376, 9.999844 
1.0550334e+3, 2.0481513e+2, -998781.5, -973085.44, 134366.44, 0.1164513, -0.2001764, -850954.1, 81840.23, 0.0, 9.999548, 9.999917 
1.0550563e+3, 2.1481462e+2, -639322.3, -749285.2, 150005.39, 0.10592264, -0.2603164, -534539.6, 300254.16, 0.0, 10.001347, 9.999913 
1.055077e+3, 2.2481363e+2, -626575.56, -913419.94, -11169.351, 0.101567715, -0.24848117, -626141.3, 110662.28, 0.0, 10.001709, 9.997937 
1.0550956e+3, 2.3481192e+2, -688983.75, -897749.25, -1222.2157, 0.10484407, -0.2283671, -688976.6, -50150.21, 0.0, 10.000622, 9.997898 
1.0551151e+3, 2.4481113e+2, -556394.25, -700226.7, 100388.6, 0.05743453, -0.12720199, -504820.34, 36017.414, 0.0, 10.000508, 9.998634 
1.0551355e+3, 2.5481117e+2, -321183.25, -533116.6, 115871.47, -0.042053036, -0.010398905, -270130.4, 172708.23, 0.0, 10.001441, 9.998655 
1.0551566e+3, 2.6480973e+2, -255506.6, -515705.2, 58183.035, -0.02075203, 0.016772432, -243088.89, 101764.16, 0.000000000012280949, 10.001517, 9.998063 
1.0551782e+3, 2.7480665e+2, -283787.75, -481932.38, 60704.137, 0.12601876, -0.11746981, -266669.2, -19785.916, 0.0000016155456, 10.000652, 9.998041 
1.0551984e+3, 2.8480458e+2, -210384.78, -366379.63, 1933.1942, 0.15980123, -0.13311806, -210360.83, -61459.23, 0.000025303238, 10.000338, 9.998323 
1.0552168e+3, 2.948034e+2, -100876.875, -263133.94, -12724.233, 0.07606982, -0.105716154, -99885.1, -48975.42, 0.000137169, 10.000421, 9.998318 
1.0552368e+3, 3.0480063e+2, 83447.12, -111461.53, 52412.824, 0.04590258, -0.22381844, 96647.43, 96647.43, 0.00040068463, 10.00122, 9.998626 
1.0552579e+3, 3.147984e+2, 308460.4, 40418.793, 84795.516, 0.0114118215, -0.33216107, 333032.97, 333032.97, 0.0008105275, 10.002523, 9.999051 
1.0648684e+3, 1.24800496e+2, -1796350.8, -1763447.3, -70876.02, -0.08823588, 0.08159765, -1707138.6, 9813.3125, 0.00047318285, 9.999426, 9.999931 
1.0648893e+3, 1.3479908e+2, -1497787.4, -1582825.3, 5911.5366, -0.04703415, -0.060503453, -1497378.4, 121584.72, 0.00020250746, 10.0009, 9.99979 
1.064912e+3, 1.4479755e+2, -1314900.8, -1348449.9, -128.31227, 0.1704889, -0.22524855, -1314900.4, 206071.75, 0.000042863663, 10.001062, 10.000647 
1.0649314e+3, 1.5479712e+2, -1381980.9, -1324335.9, -67529.62, 0.037610356, -0.35756883, -1279735.1, 143232.02, 0.0000013547858, 9.999916, 10.000686 
1.06495105e+3, 1.6479692e+2, -1513949.1, -1611381.0, -61929.887, -0.057181258, -0.31819162, -1483870.8, -158901.28, 0.0, 9.999514, 9.998241 
1.06497146e+3, 1.7479692e+2, -1362205.9, -1489198.8, -6782.8926, -0.07106641, -0.15489611, -1361844.6, -134864.16, 0.0, 9.999898, 9.9982195 
1.0649918e+3, 1.8479666e+2, -1034527.7, -1097550.3, -7548.709, -0.033364933, -0.077505626, -1033636.1, 95349.45, 0.0, 10.000666, 9.999869 
1.0650122e+3, 1.9479594e+2, -768755.2, -916689.6, -27937.049, 0.05045077, -0.15888996, -763655.1, 267331.34, 0.0, 10.001808, 9.999889 
1.065034e+3, 2.047954e+2, -746088.6, -881668.56, 77155.24, 0.12079001, -0.18115582, -711173.1, 221813.88, 0.0, 10.001419, 9.999638 
1.0650572e+3, 2.1479501e+2, -949171.44, -931540.9, 42226.15, 0.17637928, -0.19958054, -897219.7, -62231.195, 0.0, 9.999369, 9.999611 
1.06507786e+3, 2.2479397e+2, -946611.94, -1000003.75, -80140.695, 0.1554755, -0.20530196, -888837.7, -151839.42, 0.0, 9.999217, 9.998546 
1.06509596e+3, 2.3479208e+2, -581054.56, -773113.56, -48045.098, 0.054441623, -0.26523784, -569706.25, 69312.49, 0.0, 10.001059, 9.998541 
1.0651156e+3, 2.4479122e+2, -438191.06, -662168.1, 54473.145, 0.014346321, -0.19634598, -425645.47, 115384.055, 0.0, 10.001409, 9.99846 
1.06513694e+3, 2.547912e+2, -524502.1, -655059.9, 25882.188, 0.031828452, -0.06019309, -519558.34, -76525.984, 0.0, 10.000146, 9.9984455 
1.0651581e+3, 2.6479015e+2, -451316.53, -579037.7, 2315.5295, 0.06380722, -0.00015175046, -451274.56, -106230.43, 0.0, 10.000023, 9.998354 
1.06517896e+3, 2.7478787e+2, -206910.31, -408072.4, 23635.34, 0.12025559, -0.082551196, -204170.61, 42895.47, 0.00000091217555, 10.001016, 9.998374 
1.065199e+3, 2.8478593e+2, -21590.018, -304951.84, 25544.918, 0.1208155, -0.09584679, -19305.574, 129778.71, 0.000020741376, 10.001781, 9.99804 
1.065218e+3, 2.947839e+2, 161282.0, -169052.03, 16260.795, 0.06410406, -0.120309316, 162080.52, 213182.33, 0.0001251533, 10.002364, 9.998021 
1.06523864e+3, 3.0478114e+2, 188841.36, -75052.7, 74802.65, 0.07862406, -0.21634983, 208569.83, 208569.83, 0.0003777452, 10.001989, 9.998509 
1.0652605e+3, 3.1477964e+2, -14037.414, -125482.57, 20690.867, 0.14345667, -0.24518359, -10319.958, -10319.958, 0.00077370065, 10.000336, 9.998963 
1.0748681e+3, 1.2477878e+2, -1786913.8, -1731912.0, -72918.18, -0.11184536, -0.055119365, -1681481.1, 35678.75, 0.00055371417, 9.999401, 10.000146 
1.0748897e+3, 1.34778e+2, -1494041.5, -1567110.4, 64777.27, -0.11927306, -0.14385737, -1456206.3, 162959.14, 0.00024334127, 10.000884, 9.999897 
1.07491225e+3, 1.4477728e+2, -1413333.6, -1563283.6, -55847.957, 0.06619183, -0.16002515, -1394819.4, 126352.54, 0.00005483326, 10.001093, 9.999164 
1.07493125e+3, 1.5477765e+2, -1483839.1, -1542769.3, -105219.445, 0.01631573, -0.063846864, -1404037.0, 19132.703, 0.000002073113, 9.999937, 9.99918 
1.0749511e+3, 1.6477792e+2, -1399858.5, -1368601.3, -59424.95, -0.027106544, 0.016231956, -1322784.1, 2384.427, 0.0000000000166348, 9.999492, 9.999915 
1.0749719e+3, 1.7477785e+2, -1239155.6, -1236352.5, 15297.262, -0.02980673, -0.0040018256, -1222392.8, 4778.4106, 0.0, 9.999902, 9.999953 
1.0749926e+3, 1.8477748e+2, -1062600.3, -1141152.0, 25741.412, -0.043179736, -0.012540805, -1054916.4, 74256.71, 0.0, 10.00061, 9.999596 
1.0750129e+3, 1.9477662e+2, -799094.06, -964510.7, 23094.459, -0.07776771, -0.07433653, -795930.25, 235246.0, 0.0, 10.001747, 9.999589 
1.0750341e+3, 2.0477575e+2, -812328.5, -998684.75, -7795.814, -0.030790262, -0.07814676, -812002.94, 121180.5, 0.0, 10.00133, 9.9988785 
1.07505605e+3, 2.1477474e+2, -1014703.8, -1046636.5, -25350.232, 0.105394684, -0.083955705, -1000710.9, -165514.25, 0.0, 9.999275, 9.998867 
1.07507706e+3, 2.2477366e+2, -886074.8, -847748.7, -20020.723, 0.1284021, -0.11046372, -839198.0, -101992.016, 0.0, 9.999105, 9.999644 
1.0750968e+3, 2.3477232e+2, -516670.5, -614369.44, 31389.705, 0.028518995, -0.22873126, -507454.63, 131758.08, 0.0, 10.000953, 9.999681 
1.0751172e+3, 2.4477081e+2, -490960.1, -749212.4, 4402.2217, 0.020274084, -0.2564927, -490885.06, 50341.023, 0.0, 10.001312, 9.997908 
1.0751381e+3, 2.5476888e+2, -570191.44, -740799.2, -9327.493, 0.10792389, -0.25398695, -569683.0, -126434.33, 0.0, 10.000105, 9.997876 
1.0751588e+3, 2.6476786e+2, -406520.72, -470656.66, 30933.557, 0.11719477, -0.20030396, -394032.66, -48772.414, 0.000000000031670343, 9.999957, 9.999132 
1.07517935e+3, 2.7476758e+2, -162450.81, -297479.3, 72058.5, 0.04019749, -0.16408573, -131219.92, 116041.6, 0.00000057346807, 10.000935, 9.999177 
1.0752001e+3, 2.8476655e+2, -28366.975, -303191.97, 37833.055, 0.04019838, -0.12737991, -23253.914, 126017.42, 0.000016659129, 10.001711, 9.998087 
1.0752211e+3, 2.947644e+2, 153493.31, -167652.94, 52126.035, 0.11898222, -0.16763923, 161742.14, 213034.25, 0.00011189467, 10.002287, 9.99807 
1.0752416e+3, 3.0476186e+2, 130073.73, -188206.67, 13778.063, 0.15826936, -0.20754653, 130669.05, 130669.05, 0.00035149738, 10.001952, 9.99775 
1.075261e+3, 3.147609e+2, -74288.984, -244499.95, -12829.327, 0.11132249, -0.10378027, -73327.43, -73327.43, 0.00073256163, 10.000309, 9.998162 
1.08486794e+3, 1.2475687e+2, -1743312.9, -1682161.9, -87328.69, -0.07041232, -0.15264414, -1620210.9, 97161.766, 0.00064071716, 9.999562, 10.000425 
1.08489e+3, 1.3475724e+2, -1643353.3, -1617425.9, 56643.594, -0.10336138, -0.14650825, -1572281.4, 47085.67, 0.00028839763, 9.999751, 10.000112 
1.0849126e+3, 1.4475729e+2, -1571209.8, -1643947.8, -25569.943, 0.045872625, -0.09457663, -1563120.6, -41753.008, 0.00006873226, 10.000059, 9.999092 
1.08493224e+3, 1.5475765e+2, -1383794.6, -1507169.6, 4031.457, 0.08977735, 0.012932595, -1383663.0, 39704.81, 0.0000030594845, 10.000689, 9.999057 
1.08495206e+3, 1.6475779e+2, -1192596.4, -1232677.0, 76554.33, 0.061262913, 0.06887323, -1133502.8, 191865.06, 0.000000000186287, 10.000756, 10.000237 
1.08497195e+3, 1.7475753e+2, -1175078.0, -1169669.9, 26450.885, -0.022972109, -0.0013077013, -1145785.1, 81583.76, 0.0, 10.000195, 10.000268 
1.08499266e+3, 1.8475695e+2, -1192571.0, -1203877.8, 24959.361, -0.046722725, -0.047657304, -1172632.8, -43260.715, 0.0, 9.999717, 9.999595 
1.08501405e+3, 1.9475585e+2, -1161384.4, -1139920.9, 27130.982, -0.0062387707, -0.1304064, -1121476.3, -90097.836, 0.0, 9.999272, 9.999573 
1.0850349e+3, 2.047552e+2, -1062163.9, -1100959.6, 26890.363, 0.022832945, -0.12064098, -1048405.0, -115020.17, 0.0, 9.999536, 9.999039 
1.0850552e+3, 2.147548e+2, -817106.75, -935333.7, 56608.48, 0.034765907, -0.082887985, -794373.3, 41020.37, 0.0, 10.000558, 9.999012 
1.0850762e+3, 2.247542e+2, -584391.2, -695209.8, 130237.24, 0.047260538, -0.0712742, -498266.28, 239132.8, 0.0, 10.001159, 9.9997015 
1.0850982e+3, 2.347532e+2, -457533.75, -581023.2, 81166.93, 0.062896945, -0.1582491, -417295.72, 222106.77, 0.0, 10.001346, 9.999721 
1.085119e+3, 2.4475156e+2, -477744.3, -726640.56, -12438.617, 0.085612856, -0.20741482, -477124.25, 64291.863, 0.0, 10.001326, 9.998064 
1.0851387e+3, 2.5474906e+2, -433943.0, -658351.75, 9891.752, 0.11689011, -0.2769338, -433507.84, 9934.376, 0.0, 10.000971, 9.99803 
1.085159e+3, 2.6474765e+2, -304285.97, -428349.6, 107714.46, 0.11967459, -0.26580727, -242018.36, 103438.2, 0.000000020287489, 10.000691, 9.999061 
1.0851804e+3, 2.747472e+2, -236481.28, -342527.22, 64367.9, 0.08830647, -0.2402797, -206109.64, 41350.402, 0.0000009638229, 10.00047, 9.9990835 
1.0852018e+3, 2.8474647e+2, -180281.92, -357907.2, 26705.82, 0.09912519, -0.1753043, -176353.61, -26885.643, 0.000015514439, 10.000583, 9.998256 
1.085223e+3, 2.9474524e+2, -29581.588, -233792.6, 26268.893, 0.16335784, -0.1429009, -26256.6, 25225.45, 0.00010321646, 10.0009365, 9.998266 
1.08524375e+3, 3.047433e+2, 133951.27, -172704.19, 26945.213, 0.18694983, -0.13958138, 136300.89, 136300.89, 0.0003319706, 10.001938, 9.997859 
1.0852632e+3, 3.1474268e+2, 393643.34, -8420.07, 20169.125, 0.15398028, -0.009919024, 394652.56, 394652.56, 0.00070415816, 10.003506, 9.998232 
1.0948676e+3, 1.24734946e+2, -1719173.9, -1630141.4, -125259.7, -0.1021559, -0.20619313, -1541722.8, 175866.19, 0.000734217, 9.999552, 10.000788 
1.09489016e+3, 1.3473713e+2, -1617870.9, -1562316.8, 67375.68, -0.08370781, -0.058668107, -1517216.9, 102348.09, 0.00033773432, 9.9997425, 10.000492 
1.0949126e+3, 1.4473778e+2, -1487438.1, -1468432.8, -10301.684, 0.025977489, -0.024281755, -1463920.3, 57636.33, 0.0000845864, 10.000051, 10.000299 
1.09493405e+3, 1.5473709e+2, -1298212.1, -1327631.9, 38864.71, 0.18590829, -0.14312053, -1271366.6, 152194.77, 0.0000043925156, 10.000686, 10.000288 
1.0949537e+3, 1.6473654e+2, -1264828.6, -1387512.1, 46424.336, 0.13597795, -0.1667909, -1249241.6, 76324.85, 0.0000000006358386, 10.000772, 9.99917 
1.0949713e+3, 1.7473592e+2, -1247531.5, -1331383.4, 14811.853, -0.12316978, -0.16394605, -1244992.0, -17417.777, 0.0, 10.000233, 9.999145 
1.0949918e+3, 1.8473504e+2, -1180161.6, -1170760.8, -1259.6746, -0.11762693, -0.19158266, -1170594.9, -41012.74, 0.0, 9.99969, 9.999831 
1.0950155e+3, 1.9473372e+2, -1151211.3, -1102598.6, 20174.0, 0.19210367, -0.32772946, -1095317.1, -63725.027, 0.0, 9.999204, 9.99986 
1.0950365e+3, 2.0473376e+2, -1002899.06, -959631.94, 53913.348, 0.21012262, -0.31265885, -923173.7, 10417.564, 0.0, 9.999453, 10.0000515 
1.09505445e+3, 2.1473522e+2, -757324.75, -789623.0, 101996.91, -0.09921868, -0.18980819, -670206.44, 165372.89, 0.0, 10.000463, 10.000062 
1.09507546e+3, 2.2473565e+2, -675368.75, -856662.06, 129147.43, -0.15576388, -0.079675086, -608231.1, 129346.22, 0.0, 10.001042, 9.998646 
1.0950998e+3, 2.3473464e+2, -554079.0, -751755.3, 98726.19, 0.07264258, -0.061134577, -513218.06, 126370.85, 0.0, 10.001217, 9.998609 
1.095121e+3, 2.4473333e+2, -437523.53, -614777.8, -32590.727, 0.12879574, -0.058612008, -431721.2, 109879.72, 0.0, 10.001204, 9.998891 
1.0951386e+3, 2.547316e+2, -379775.38, -532875.0, 6933.621, -0.005585414, -0.14299326, -379462.0, 64152.47, 0.0, 10.000913, 9.99892 
1.0951588e+3, 2.647295e+2, -377948.94, -565490.56, 93801.33, 0.0076905615, -0.20041099, -339086.22, 6547.2817, 0.00000010014453, 10.000627, 9.99815 
1.095182e+3, 2.7472675e+2, -305207.97, -480747.03, 71653.914, 0.17581712, -0.30842435, -279673.6, -32012.584, 0.0000018004142, 10.000448, 9.998146 
1.0952036e+3, 2.847256e+2, -166022.14, -324575.1, 32222.605, 0.21222326, -0.24709114, -159723.77, -10049.094, 0.000016749296, 10.000565, 9.998494 
1.0952237e+3, 2.9472613e+2, -14061.321, -198216.56, 53208.008, 0.11114195, -0.072207876, 206.62747, 51880.61, 0.000099959936, 10.0009165, 9.998523 
1.0952449e+3, 3.047252e+2, 181796.39, -57534.74, 79235.91, 0.086789094, -0.020652935, 205651.47, 205651.47, 0.00032156563, 10.001873, 9.998682 
1.0952667e+3, 3.147248e+2, 428921.34, 92921.92, 98596.41, 0.11354574, 0.04848373, 455716.78, 455716.78, 0.0006902416, 10.003379, 9.998997 
1.1048684e+3, 1.247158e+2, -1379859.4, -1499739.0, -6458.836, -0.07868364, -0.15247601, -1379512.4, 338262.84, 0.00083503575, 10.002037, 10.000468 
1.10489085e+3, 1.3471696e+2, -1596556.3, -1584615.1, 106988.36, 0.011453811, -0.08384921, -1483430.9, 136330.28, 0.0003918232, 10.000014, 10.000209 
1.1049124e+3, 1.4471723e+2, -1605886.4, -1491059.1, 45288.48, 0.04432521, -0.08994794, -1475347.0, 46408.523, 0.000102570426, 9.999083, 10.000617 
1.104934e+3, 1.5471654e+2, -1449303.3, -1363654.4, 10501.129, 0.17261304, -0.24134156, -1362385.6, 61373.266, 0.0000061708192, 9.999485, 10.000621 
1.1049539e+3, 1.6471611e+2, -1420657.0, -1468774.5, 13432.749, 0.12854822, -0.26623896, -1417161.1, -91398.484, 0.0000000015512864, 9.999743, 9.9991 
1.1049719e+3, 1.7471585e+2, -1295374.3, -1360886.3, 36957.258, -0.074249, -0.21820097, -1278746.0, -50977.945, 0.0, 9.9999485, 9.999068 
1.104992e+3, 1.8471543e+2, -1132928.8, -1123186.9, 68303.97, -0.060454715, -0.20809042, -1059580.4, 70192.16, 0.0, 9.999907, 10.000058 
1.1050147e+3, 1.9471464e+2, -1084119.6, -1042447.44, 68515.74, 0.18507314, -0.3156719, -991669.6, 40107.973, 0.0, 9.999548, 10.000108 
1.1050358e+3, 2.0471483e+2, -967247.44, -942554.56, 131812.67, 0.18741602, -0.2992465, -822511.4, 111264.03, 0.0, 9.9997, 10.000053 
1.1050551e+3, 2.1471599e+2, -757816.8, -789633.06, 83581.055, -0.077170715, -0.20449309, -688643.44, 147122.72, 0.0, 10.000464, 10.00006 
1.1050765e+3, 2.2471632e+2, -718998.4, -874167.5, 88707.54, -0.13423584, -0.1043755, -678733.94, 59031.58, 0.0, 10.000722, 9.998679 
1.1051002e+3, 2.3471549e+2, -676369.94, -807815.25, 123897.1, 0.04075938, -0.07020475, -601843.0, 37933.688, 0.0, 10.000362, 9.998637 
1.10512145e+3, 2.447145e+2, -507842.8, -623226.0, 49187.574, 0.10119785, -0.04956662, -489720.6, 52065.36, 0.0, 10.00062, 9.999105 
1.10514015e+3, 2.5471318e+2, -267623.9, -454773.97, 16019.023, 0.033775404, -0.11304964, -266262.66, 177532.03, 0.0, 10.001589, 9.999124 
1.10516064e+3, 2.647113e+2, -196693.75, -501254.38, 95405.91, 0.0691491, -0.14789435, -169275.48, 176536.38, 0.00000018749917, 10.001967, 9.997949 
1.1051834e+3, 2.747087e+2, -155679.44, -434490.63, 104875.79, 0.2186952, -0.22006105, -120634.9, 127204.98, 0.0000025324416, 10.001592, 9.997917 
1.105205e+3, 2.8470713e+2, -35412.563, -300502.78, 116280.87, 0.2386264, -0.17296147, 8364.325, 158222.58, 0.000018771152, 10.001641, 9.998137 
1.1052253e+3, 2.9470655e+2, 128270.055, -171671.11, 68448.055, 0.12937059, -0.06887321, 143151.88, 195019.22, 0.00010053436, 10.002089, 9.998136 
1.10524684e+3, 3.0470484e+2, 249358.72, 4618.517, 80055.65, 0.095571764, -0.08459537, 273219.06, 273219.06, 0.00031863083, 10.002186, 9.998966 
1.1052696e+3, 3.147043e+2, 198376.6, 31662.35, 22814.096, 0.16016732, -0.06629265, 201442.22, 201442.22, 0.00068520685, 10.00159, 9.999427 
1.1148702e+3, 1.2469968e+2, -1461172.4, -1665654.4, -91881.45, -0.14191796, -0.008932657, -1425952.8, 291976.03, 0.000944546, 10.002042, 9.999323 
1.1148922e+3, 1.3469695e+2, -1675026.8, -1739641.3, 40134.95, 0.12817533, -0.21796834, -1655811.5, -35858.254, 0.00045159098, 9.999992, 9.999153 
1.11491136e+3, 1.4469576e+2, -1643725.8, -1573991.5, 44890.27, 0.025217177, -0.28769445, -1552018.1, -30054.77, 0.00012308804, 9.999093, 10.000047 
1.1149316e+3, 1.5469615e+2, -1485957.4, -1442927.3, 33036.367, -0.035533287, -0.27738327, -1425017.8, -1059.2385, 0.000008505592, 9.999493, 10.000077 
1.11495204e+3, 1.6469671e+2, -1360299.5, -1341852.4, 9004.294, -0.0476087, -0.21886198, -1338186.0, -12231.949, 0.0000000033697685, 9.999734, 9.99998 
1.1149734e+3, 1.7469738e+2, -1229983.8, -1227276.1, 52086.137, 0.059590105, -0.1643546, -1176526.3, 51423.832, 0.0, 9.9999485, 9.999993 
1.1149933e+3, 1.8469809e+2, -1119859.6, -1091699.6, 45130.555, 0.052127484, -0.10104352, -1058503.8, 71439.53, 0.0, 9.99989, 10.00028 
1.1150115e+3, 1.9469866e+2, -1078180.8, -1018868.2, 61278.37, -0.09989845, -0.09367281, -980447.06, 51487.523, 0.0, 9.999499, 10.000295 
1.1150324e+3, 2.046984e+2, -1048719.0, -1095059.6, 146888.0, -0.119809076, -0.08145451, -923185.1, 10752.109, 0.0, 9.999628, 9.999038 
1.11505665e+3, 2.1469697e+2, -851406.0, -954734.4, 122597.32, 0.020023338, -0.1420992, -770031.5, 65923.5, 0.0, 10.000336, 9.998988 
1.115079e+3, 2.2469611e+2, -662538.3, -726000.3, 68774.79, 0.029767549, -0.15667267, -618527.44, 119437.016, 0.0, 10.000593, 9.999758 
1.1150993e+3, 2.3469584e+2, -609569.3, -645725.75, 119208.73, -0.096951835, -0.18232554, -507075.8, 132889.4, 0.0, 10.000263, 9.999798 
1.1151206e+3, 2.4469513e+2, -553425.1, -695679.75, 76595.164, -0.06519546, -0.17135772, -520025.3, 21945.322, 0.0, 10.000523, 9.998656 
1.1151429e+3, 2.5469372e+2, -313416.44, -534174.7, 64067.48, 0.14695436, -0.19291793, -296170.34, 147813.11, 0.0, 10.001518, 9.998613 
1.1151643e+3, 2.6469296e+2, -177216.64, -445145.56, 73363.91, 0.21908344, -0.1127657, -158443.61, 187549.05, 0.00000020790911, 10.0019, 9.998366 
1.11518435e+3, 2.746927e+2, -134279.33, -372957.06, 102516.48, 0.13702482, 0.005706831, -96292.44, 151706.72, 0.0000030041272, 10.0015135, 9.998378 
1.1152054e+3, 2.8469077e+2, -118146.96, -447562.13, 125202.48, 0.10653946, 0.038757198, -75962.664, 74057.625, 0.000021469468, 10.001539, 9.997174 
1.11522764e+3, 2.946866e+2, 54508.426, -319447.3, 103662.83, 0.13235934, -0.117230915, 81321.83, 133382.56, 0.00010455908, 10.002067, 9.99713 
1.11524954e+3, 3.046825e+2, 231234.25, -32100.322, 56139.246, 0.12987544, -0.30941975, 242702.88, 242702.88, 0.0003215128, 10.00218, 9.998717 
1.11527115e+3, 3.1468108e+2, 178873.5, 12481.004, 26258.746, 0.11338791, -0.3553983, 182919.08, 182919.08, 0.00068624306, 10.001493, 9.999344 
1.124871e+3, 1.2468148e+2, -1921917.6, -1918518.1, -128602.336, -0.11712641, 0.010159182, -1791604.3, -73499.54, 0.0010643419, 9.998986, 9.999078 
1.1248928e+3, 1.3467766e+2, -1651022.5, -1747708.1, 23687.19, 0.18695605, -0.28869283, -1645531.1, -25391.848, 0.00051804923, 10.000242, 9.998978 
1.12491086e+3, 1.4467621e+2, -1447664.5, -1518841.1, 113285.21, -0.0041970387, -0.35787776, -1364509.1, 157643.31, 0.00014661087, 10.000617, 9.999685 
1.1249313e+3, 1.546773e+2, -1431303.3, -1458806.3, 87107.375, -0.036436956, -0.24267358, -1356868.6, 67274.28, 0.00001150662, 10.000054, 9.999695 
1.1249519e+3, 1.6467811e+2, -1349623.0, -1314647.6, 73368.31, -0.019823207, -0.14807276, -1256711.6, 69424.875, 0.0000000061074554, 9.999703, 10.000184 
1.1249735e+3, 1.7467855e+2, -1251660.9, -1207553.9, 48972.875, 0.09793978, -0.14512767, -1175898.0, 52236.31, 0.0, 9.999673, 10.0002575 
1.1249934e+3, 1.8467909e+2, -1116569.6, -1110166.5, 23044.191, 0.07841033, -0.102712624, -1090102.6, 40026.17, 0.0, 10.000001, 10.000097 
1.12501144e+3, 1.9467954e+2, -903060.75, -958711.1, -8777.869, -0.10970252, -0.08551033, -901709.06, 130412.375, 0.0, 10.000793, 10.000087 
1.1250326e+3, 2.0467916e+2, -897332.0, -1022741.9, 101271.32, -0.12442722, -0.07336838, -840924.44, 93200.734, 0.0, 10.000681, 9.999023 
1.12505704e+3, 2.1467763e+2, -960804.5, -1002782.25, 131337.69, 0.06400892, -0.14688148, -848789.2, -12645.688, 0.0, 9.999577, 9.999017 
1.1250795e+3, 2.2467671e+2, -822631.06, -798580.94, 121093.26, 0.08639838, -0.17184229, -688917.1, 49235.973, 0.0, 9.999466, 9.999807 
1.1250999e+3, 2.3467644e+2, -563713.25, -615517.2, 75109.47, -0.07134478, -0.20138992, -510164.94, 129988.79, 0.0, 10.00054, 9.99987 
1.1251215e+3, 2.4467552e+2, -459883.9, -654911.56, 29665.846, -0.055875603, -0.21288116, -455471.25, 86689.75, 0.0, 10.001189, 9.998612 
1.1251444e+3, 2.5467372e+2, -341188.53, -553521.0, 33436.742, 0.15093485, -0.27034217, -336047.6, 108130.1, 0.0, 10.001358, 9.998557 
1.1251659e+3, 2.6467305e+2, -258715.8, -486984.3, 31175.154, 0.22860347, -0.17136565, -254534.72, 91651.68, 0.00000016860811, 10.001362, 9.998335 
1.1251859e+3, 2.7467358e+2, -182311.13, -397623.6, 52.583263, 0.1659129, 0.024332304, -182311.11, 65876.766, 0.0000038179373, 10.001202, 9.99835 
1.1252072e+3, 2.8467184e+2, -89455.42, -427175.06, 101710.12, 0.13114245, 0.0781809, -61189.426, 89017.33, 0.000026281929, 10.001698, 9.997242 
1.12523e+3, 2.946674e+2, 173604.55, -250930.64, 134839.7, 0.12776783, -0.11591975, 212811.17, 265058.75, 0.00011344339, 10.002838, 9.997227 
1.1252521e+3, 3.046629e+2, 271234.2, -61934.926, 66256.945, 0.1427119, -0.3296057, 283927.06, 283927.06, 0.00033239592, 10.002687, 9.998263 
1.1252734e+3, 3.146613e+2, 59939.93, -94664.46, -21415.527, 0.23484723, -0.3416245, 62851.54, 62851.54, 0.000697837, 10.000876, 9.9989195 
1.1348703e+3, 1.2466092e+2, -1862749.4, -1783926.6, -63893.387, -0.13112137, -0.12162192, -1748267.3, -29961.559, 0.0011953667, 9.998956, 10.000008 
1.1348923e+3, 1.3465928e+2, -1587599.5, -1613629.8, 78009.234, 0.09284803, -0.29595304, -1521527.1, 98790.56, 0.00059164723, 10.000234, 9.999902 
1.1349104e+3, 1.4465891e+2, -1461745.5, -1546259.1, 85895.3, -0.1403286, -0.29778895, -1408275.5, 114044.875, 0.00017336896, 10.00061, 9.999502 
1.134933e+3, 1.546602e+2, -1445517.1, -1492871.4, 77582.56, 0.10329598, -0.13487677, -1388079.1, 36230.93, 0.000015247707, 10.00007, 9.999457 
1.13495335e+3, 1.646605e+2, -1380894.0, -1379781.0, 61055.76, 0.12899487, -0.058089882, -1319279.3, 7029.617, 0.000000009421829, 9.999704, 9.999734 
1.1349719e+3, 1.7465945e+2, -1283166.0, -1275306.1, 54928.6, -0.04301266, -0.15960974, -1224167.0, 4152.616, 0.0, 9.9996805, 9.999788 
1.1349922e+3, 1.8465848e+2, -1156262.8, -1193082.6, 40921.863, -0.06370287, -0.21595366, -1129800.4, 528.1625, 0.0, 9.999999, 9.99953 
1.1350144e+3, 1.9465743e+2, -954088.44, -1048678.9, 28853.309, 0.07786898, -0.29285654, -945981.94, 86355.39, 0.0, 10.000718, 9.999508 
1.1350355e+3, 2.0465726e+2, -846197.56, -898385.06, 51485.01, 0.09776661, -0.27224344, -814571.4, 119766.79, 0.0, 10.000602, 9.999916 
1.13505594e+3, 2.14658e+2, -908943.56, -872871.7, 95376.27, -0.009548751, -0.21091542, -793841.0, 42490.11, 0.0, 9.999476, 9.999961 
1.13507785e+3, 2.246581e+2, -899261.2, -932206.7, 147178.52, -0.0357369, -0.14198709, -767636.44, -29304.883, 0.0, 9.999358, 9.9989395 
1.1351017e+3, 2.3465729e+2, -649604.75, -765078.44, 125343.234, 0.036587466, -0.13371469, -569339.9, 71002.35, 0.0, 10.000416, 9.998903 
1.13512374e+3, 2.4465571e+2, -451660.0, -616180.56, 28702.213, 0.04230616, -0.1742011, -446796.4, 95560.39, 0.0, 10.001095, 9.998925 
1.13514416e+3, 2.546532e+2, -321390.9, -500350.38, 49549.37, -0.019591881, -0.34009117, -308587.88, 135788.86, 0.0, 10.001303, 9.998952 
1.1351654e+3, 2.646518e+2, -295446.5, -558376.75, 21204.79, 0.03388203, -0.316096, -293747.34, 52644.594, 0.00000020663475, 10.001336, 9.997861 
1.13518775e+3, 2.7465147e+2, -223251.31, -480855.0, 10583.79, 0.21800388, -0.1513983, -222817.2, 25586.955, 0.0000055002247, 10.001188, 9.99779 
1.1352099e+3, 2.8465042e+2, -26376.645, -285499.47, 132908.86, 0.21779266, -0.045525216, 29671.545, 180088.56, 0.00003348711, 10.001659, 9.998228 
1.1352321e+3, 2.9464856e+2, 231186.69, -105009.164, 188186.36, 0.023503415, -0.08470392, 315419.94, 367851.1, 0.00012779766, 10.002725, 9.998283 
1.1352539e+3, 3.0464557e+2, 208797.27, -161464.1, -3823.358, 0.05398306, -0.1720572, 208836.75, 208836.75, 0.00035415098, 10.002563, 9.997638 
1.1352759e+3, 3.146446e+2, 11105.209, -186954.06, -67890.086, 0.35424644, -0.05406763, 32141.941, 32141.941, 0.0007275568, 10.000847, 9.998294 
1.1448695e+3, 1.2464052e+2, -1638625.8, -1641263.6, -792.21674, -0.1476357, -0.20926142, -1638406.1, 80098.61, 0.0013373722, 10.000326, 10.000343 
1.14489235e+3, 1.346408e+2, -1696699.8, -1634732.9, 6302.1772, 0.122041754, -0.21850908, -1634098.4, -13599.128, 0.000672049, 9.999329, 10.00021 
1.1449104e+3, 1.4464074e+2, -1675207.5, -1620587.8, 25654.672, -0.109368846, -0.21559103, -1610427.8, -87929.56, 0.0002032588, 9.999019, 9.999761 
1.1449335e+3, 1.54641e+2, -1497092.9, -1488053.1, 28420.049, 0.18652156, -0.1808529, -1463795.8, -39300.16, 0.000019742625, 9.9995985, 9.999713 
1.1449539e+3, 1.6464083e+2, -1342249.9, -1388028.6, 63722.74, 0.196601, -0.15336485, -1297430.3, 29067.291, 0.000000013934886, 10.00008, 9.9995 
1.14497155e+3, 1.7463994e+2, -1192720.3, -1260670.1, 56984.887, -0.07163262, -0.21445201, -1160350.9, 68155.54, 0.0, 10.00042, 9.9995365 
1.14499204e+3, 1.8463889e+2, -1106366.3, -1192233.9, 84491.31, -0.09393824, -0.25612065, -1054526.1, 75990.76, 0.0, 10.00045, 9.999315 
1.14501536e+3, 1.9463748e+2, -1042614.7, -1107402.6, 78804.12, 0.14582545, -0.3465801, -989806.25, 42724.535, 0.0, 10.000204, 9.999339 
1.145037e+3, 2.0463733e+2, -880870.9, -903345.56, 86305.28, 0.19595906, -0.32190344, -805074.44, 129457.484, 0.0, 10.000305, 10.00003 
1.1450565e+3, 2.1463847e+2, -709000.56, -761065.9, 55093.76, 0.04552991, -0.23308039, -674098.7, 162421.03, 0.0, 10.00078, 10.000104 
1.1450781e+3, 2.2463863e+2, -690582.44, -839216.25, 143088.78, -0.009322506, -0.16201952, -603662.25, 134856.69, 0.0, 10.00082, 9.998876 
1.1451021e+3, 2.3463747e+2, -664627.94, -779055.44, 165587.81, 0.04392702, -0.18161826, -546648.25, 93884.86, 0.0, 10.000337, 9.998848 
1.14512466e+3, 2.4463601e+2, -501332.44, -636842.0, 131997.33, 0.034933906, -0.21016043, -420716.06, 121831.06, 0.0, 10.000748, 9.998945 
1.14514574e+3, 2.5463408e+2, -177318.84, -421600.22, 108920.09, -0.035973057, -0.32024103, -135807.66, 308754.5, 0.0, 10.0022745, 9.99901 
1.14516735e+3, 2.6463252e+2, -62313.742, -474005.84, 54139.355, 0.011251069, -0.30516255, -55313.215, 291265.94, 0.00000038376965, 10.003046, 9.997621 
1.1451895e+3, 2.7463117e+2, 13621.656, -393774.72, 44372.64, 0.19032976, -0.21969904, 18398.605, 266999.13, 0.0000075917305, 10.002922, 9.997555 
1.1452119e+3, 2.846301e+2, 107518.74, -203336.19, 184379.63, 0.22000322, -0.11220341, 193241.73, 343855.53, 0.0000412879, 10.002494, 9.998399 
1.14523485e+3, 2.946294e+2, 81451.414, -157067.86, 157504.11, 0.108443856, -0.052745353, 159752.92, 212370.94, 0.0001447931, 10.001604, 9.99847 
1.1452568e+3, 3.046268e+2, 84547.125, -274936.97, -43397.01, 0.12627454, -0.08984361, 89711.82, 89711.82, 0.00038302585, 10.00191, 9.997179 
1.14527784e+3, 3.1462538e+2, 355288.7, -59242.7, -135055.5, 0.3384283, 0.030324107, 395407.4, 395407.4, 0.00077395706, 10.003376, 9.997949 
1.1548689e+3, 1.2462022e+2, -1661746.4, -1674506.0, 6512.173, -0.28645754, -0.26403627, -1659009.8, 59692.41, 0.001489488, 10.000283, 10.000123 
1.1548926e+3, 1.3462238e+2, -1719672.5, -1681984.5, -24722.703, 0.20263712, -0.054748356, -1669743.0, -49060.613, 0.00075867696, 9.999331, 9.999878 
1.1549109e+3, 1.4462182e+2, -1631612.5, -1532181.4, 34536.844, 0.012834104, -0.11534914, -1521362.4, 1323.2826, 0.0002361324, 9.999018, 10.000373 
1.15493275e+3, 1.546197e+2, -1442640.1, -1386028.9, 58742.355, 0.121343225, -0.38902467, -1349128.1, 75571.78, 0.000024990082, 9.999634, 10.0004015 
1.154953e+3, 1.6461904e+2, -1338049.5, -1379776.0, 65421.44, 0.08954685, -0.4462938, -1290245.1, 36457.98, 0.000000023716384, 10.000089, 9.999551 
1.1549724e+3, 1.7462008e+2, -1195590.9, -1260702.3, 76599.11, -0.05619674, -0.31758612, -1144916.1, 83778.07, 0.0, 10.000399, 9.999544 
1.1549928e+3, 1.8462041e+2, -1106341.0, -1187616.5, 66023.76, -0.08224889, -0.22155295, -1069450.9, 61241.676, 0.0, 10.000427, 9.999359 
1.1550144e+3, 1.9461975e+2, -1044088.4, -1103003.8, 75985.28, 0.01272044, -0.24543518, -992050.56, 40650.992, 0.0, 10.000163, 9.999393 
1.15503624e+3, 2.0461933e+2, -928546.94, -987016.56, 89007.01, 0.087039314, -0.22429468, -864096.5, 70610.266, 0.0, 10.000238, 9.999486 
1.15505844e+3, 2.1461901e+2, -765320.56, -855499.25, 81018.78, 0.15021843, -0.22636773, -717689.4, 119020.19, 0.0, 10.000672, 9.999511 
1.15508005e+3, 2.2461832e+2, -661091.56, -749589.0, 116996.914, 0.0912494, -0.24049483, -580255.4, 158459.92, 0.0, 10.000702, 9.999546 
1.15510084e+3, 2.3461708e+2, -627791.9, -680066.06, 155830.94, -0.11488492, -0.33949482, -495921.28, 144804.42, 0.0, 10.000242, 9.999573 
1.1551236e+3, 2.446164e+2, -534015.94, -680414.8, 173646.22, -0.14703797, -0.3154388, -418771.3, 123960.86, 0.0, 10.000644, 9.998695 
1.1551487e+3, 2.546163e+2, -216472.36, -477516.66, 173034.44, 0.022465436, -0.21784532, -130252.84, 314482.25, 0.0, 10.002162, 9.998681 
1.15517125e+3, 2.6461506e+2, -77612.42, -482549.44, 41422.125, 0.08268264, -0.14991455, -73418.67, 273331.34, 0.0000005356376, 10.002947, 9.99761 
1.1551908e+3, 2.746124e+2, 6928.213, -385902.0, 49147.4, 0.005737509, -0.19613671, 12983.748, 261763.94, 0.000008957139, 10.0028305, 9.997653 
1.15521304e+3, 2.846108e+2, 60750.02, -280157.28, 144132.23, 0.06432211, -0.12885644, 113519.45, 264317.9, 0.00004724257, 10.002408, 9.997912 
1.1552384e+3, 2.9461008e+2, 39697.785, -244412.86, 141912.8, 0.27922228, -0.014145976, 98438.27, 151244.48, 0.00015956932, 10.001596, 9.997879 
1.1552603e+3, 3.046067e+2, 41426.242, -344245.3, 6230.0005, 0.26081273, -0.07494431, 41526.85, 41526.85, 0.00041272215, 10.001837, 9.996731 
1.15527846e+3, 3.1460354e+2, 314848.06, -104097.625, -49696.78, 0.028906424, -0.090436935, 320662.56, 320662.56, 0.00082886074, 10.003213, 9.997713 
1.1648688e+3, 1.2460029e+2, -1798171.4, -1741366.8, 72590.99, -0.2599328, -0.28585622, -1691819.4, 27075.04, 0.0016512593, 9.99933, 10.000121 
1.16489224e+3, 1.346024e+2, -1703716.9, -1686885.9, -32605.578, 0.22389452, -0.06590127, -1661627.3, -40750.9, 0.0008513687, 9.999507, 9.999751 
1.164911e+3, 1.4460167e+2, -1501529.9, -1491024.6, 67989.18, 0.08226062, -0.12900904, -1428085.5, 94797.125, 0.00027198074, 10.000007, 10.000175 
1.16493225e+3, 1.5459941e+2, -1287532.5, -1334515.6, 6805.535, 0.05872629, -0.39431465, -1286566.5, 138332.84, 0.00003101119, 10.0008, 10.000192 
1.1649529e+3, 1.645988e+2, -1201672.8, -1289330.8, -28656.15, 0.024585776, -0.4497425, -1193136.1, 133766.61, 0.00000004774233, 10.000931, 9.999761 
1.1649734e+3, 1.745999e+2, -1182540.1, -1229668.9, -24951.998, 0.019380853, -0.32988212, -1171784.1, 57107.27, 0.0, 10.00039, 9.99976 
1.1649942e+3, 1.846004e+2, -1119012.6, -1194087.0, -1660.1124, 0.017099304, -0.22939603, -1118975.9, 11911.625, 0.0, 10.000329, 9.999366 
1.1650148e+3, 1.9460005e+2, -948019.44, -1055677.0, -10096.253, -0.0018138953, -0.22203429, -947080.8, 85812.57, 0.0, 10.000812, 9.999409 
1.1650365e+3, 2.0459945e+2, -823955.94, -981140.2, 31131.855, 0.04099367, -0.20019878, -818014.56, 116886.47, 0.0, 10.001151, 9.999082 
1.1650596e+3, 2.1459846e+2, -698980.94, -864622.44, 11538.721, 0.16920811, -0.23005518, -698181.0, 138730.8, 0.0, 10.001319, 9.9991255 
1.1650814e+3, 2.245976e+2, -563738.6, -682138.2, 31209.281, 0.12858117, -0.24893719, -556015.8, 182903.33, 0.0, 10.001291, 9.9997225 
1.1651015e+3, 2.3459668e+2, -500906.25, -595173.5, 13272.991, -0.10460635, -0.33618173, -499073.03, 141851.97, 0.0, 10.001021, 9.999778 
1.1651245e+3, 2.445962e+2, -483063.44, -654443.4, 82900.22, -0.14009151, -0.30471218, -449525.8, 93403.36, 0.0, 10.000969, 9.998725 
1.1651505e+3, 2.5459614e+2, -366409.16, -550561.56, 89833.94, 0.048930675, -0.20027566, -329845.7, 115086.47, 0.0, 10.001112, 9.998697 
1.1651736e+3, 2.6459485e+2, -261033.83, -538175.4, -17333.002, 0.096530855, -0.15081877, -259954.0, 86992.51, 0.00000056359414, 10.0015545, 9.997892 
1.165193e+3, 2.74592e+2, -50565.297, -384593.22, -15895.031, -0.017144555, -0.24315351, -49810.62, 199165.08, 0.00000928475, 10.002316, 9.9979105 
1.1652151e+3, 2.845902e+2, 88138.67, -281926.66, 84562.5, 0.03193285, -0.20273563, 106546.18, 257541.4, 0.000050363375, 10.002662, 9.997772 
1.16524026e+3, 2.945894e+2, 160878.72, -197349.83, 82556.69, 0.26813677, -0.08510401, 178989.02, 231994.77, 0.00017039297, 10.002497, 9.997755 
1.1652623e+3, 3.0458605e+2, 186574.97, -234828.98, 62803.57, 0.25054538, -0.15035532, 195735.7, 195735.7, 0.00043955247, 10.00266, 9.997096 
1.1652816e+3, 3.14583e+2, 298104.38, -45517.61, 36639.6, 0.054711875, -0.18773195, 301967.72, 301967.72, 0.0008813095, 10.002804, 9.998327 
1.174869e+3, 1.2458066e+2, -1790810.6, -1706131.9, 93143.99, -0.20826313, -0.29183105, -1646156.0, 72926.24, 0.0018234614, 9.999258, 10.000394 
1.1748908e+3, 1.3458079e+2, -1697475.3, -1680863.3, -19512.252, 0.11155745, -0.27256638, -1667962.6, -46881.0, 0.0009506097, 9.999531, 9.999784 
1.1749107e+3, 1.4458023e+2, -1574532.4, -1637793.8, 86916.46, 0.016675211, -0.27228314, -1513670.0, 9419.533, 0.00031097958, 9.999993, 9.999169 
1.1749319e+3, 1.5458032e+2, -1363676.8, -1492678.1, 44891.87, -0.07627258, -0.19696127, -1349592.4, 75500.53, 0.00003785508, 10.000803, 9.999103 
1.1749529e+3, 1.645801e+2, -1183622.1, -1251587.4, -57208.24, -0.080510564, -0.16469209, -1151064.5, 176030.98, 0.00000010132158, 10.000929, 10.000018 
1.1749746e+3, 1.7457947e+2, -1158602.6, -1179005.5, -37234.98, 0.082388006, -0.25771612, -1130196.9, 98901.02, 0.0, 10.000383, 10.00011 
1.17499575e+3, 1.8457896e+2, -1121095.4, -1194307.8, 3986.592, 0.13022059, -0.27806374, -1120879.0, 10221.968, 0.0, 10.000311, 9.999374 
1.175016e+3, 1.9457838e+2, -956386.6, -1063809.6, 18406.082, 0.027195813, -0.29152074, -953320.4, 79785.87, 0.0, 10.000765, 9.999379 
1.17503725e+3, 2.0457779e+2, -856140.1, -1028354.06, 27763.133, -0.016831838, -0.2545258, -851774.94, 83338.69, 0.0, 10.001069, 9.9987955 
1.1750597e+3, 2.1457697e+2, -735675.06, -918344.9, 26074.176, 0.027878167, -0.23568864, -732026.1, 105098.68, 0.0, 10.001215, 9.998812 
1.1750818e+3, 2.2457644e+2, -602048.3, -731781.25, 11743.243, 0.031918038, -0.19179845, -600993.94, 138136.92, 0.0, 10.001164, 9.999442 
1.1751036e+3, 2.3457618e+2, -535901.7, -640655.7, 14006.662, -0.012434244, -0.18698366, -534061.2, 107070.32, 0.0, 10.000906, 9.99952 
1.1751266e+3, 2.4457537e+2, -479019.1, -621196.44, 80257.0, -0.03408858, -0.18720919, -442894.03, 100243.78, 0.0, 10.000861, 9.999006 
1.175151e+3, 2.5457376e+2, -350571.25, -501319.56, 106313.77, -0.029867295, -0.26970527, -295623.2, 149528.88, 0.0, 10.001041, 9.999067 
1.17517434e+3, 2.6457208e+2, -241223.14, -478050.88, 1864.3652, -0.005615191, -0.30303022, -241208.47, 105958.875, 0.0000005132723, 10.001471, 9.998349 
1.17519595e+3, 2.745701e+2, -28976.932, -326569.72, 25367.764, 0.027243132, -0.3585256, -26829.99, 222356.13, 0.000009286575, 10.002258, 9.998339 
1.175218e+3, 2.8456846e+2, 84898.37, -275614.28, 71273.12, 0.03387249, -0.3244404, 98477.54, 249680.47, 0.00005131962, 10.002603, 9.997846 
1.1752405e+3, 2.9456714e+2, 168577.08, -176344.17, 88055.516, 0.010577331, -0.26665205, 189756.44, 242974.67, 0.00017698437, 10.00246, 9.997923 
1.1752629e+3, 3.0456463e+2, 253627.33, -63416.168, 63746.86, 0.035320755, -0.32391804, 265964.63, 265964.63, 0.00045726626, 10.002539, 9.998325 
1.1752864e+3, 3.1456384e+2, 385650.28, 168659.06, 63865.04, 0.21904878, -0.25908425, 403051.63, 403051.63, 0.00091290916, 10.002682, 9.99985 
1.18486986e+3, 1.2456021e+2, -1788637.9, -1676369.6, 104217.56, -0.042237055, -0.3191556, -1614130.0, 105150.586, 0.0020081834, 9.99914, 10.000661 
1.1848895e+3, 1.345597e+2, -1584596.0, -1614712.3, -32130.637, 0.008277561, -0.37963524, -1564170.0, 57115.184, 0.0010574218, 10.0002365, 9.999909 
1.1849105e+3, 1.4455974e+2, -1513028.8, -1609653.4, 112124.74, -0.00054498634, -0.32598507, -1439250.8, 84037.33, 0.00035351914, 10.000424, 9.999152 
1.1849319e+3, 1.54561e+2, -1528943.8, -1570424.8, 123380.33, -0.081184626, -0.1331144, -1424572.8, 710.42694, 0.00004562391, 9.999669, 9.99911 
1.18495315e+3, 1.6456108e+2, -1370300.1, -1364182.1, 76861.31, -0.08379432, -0.062231764, -1290319.0, 36965.656, 0.00000019883093, 9.999736, 9.999827 
1.1849748e+3, 1.745597e+2, -1109057.4, -1174589.9, 41830.383, 0.050354894, -0.21384494, -1088687.9, 140606.48, 0.0, 10.000801, 9.999942 
1.1849962e+3, 1.845586e+2, -986169.44, -1148013.4, 71073.94, 0.10363168, -0.2740518, -959388.7, 171913.81, 0.0, 10.001332, 9.999194 
1.1850172e+3, 1.9455773e+2, -891136.7, -1047755.1, 46683.465, 0.04515075, -0.30231515, -878277.5, 155032.72, 0.0, 10.001297, 9.999225 
1.1850383e+3, 2.0455697e+2, -826895.06, -1004404.0, 75493.195, -0.0059971143, -0.27533194, -799130.94, 136187.0, 0.0, 10.001224, 9.998895 
1.18506014e+3, 2.1455619e+2, -750248.4, -907612.8, 90796.95, -0.028759208, -0.26618797, -708784.94, 128542.65, 0.0, 10.001047, 9.998965 
1.18508264e+3, 2.2455572e+2, -607855.4, -774821.1, 118825.08, -0.0043000844, -0.20826782, -546118.5, 193214.6, 0.0, 10.001286, 9.999089 
1.1851058e+3, 2.3455553e+2, -398428.3, -615672.3, 92488.13, 0.070489176, -0.15934554, -364387.1, 276947.4, 0.0, 10.002017, 9.999158 
1.1851291e+3, 2.4455449e+2, -329140.1, -557354.0, 137649.67, 0.08349246, -0.16200773, -264451.56, 278891.47, 0.0, 10.001933, 9.998927 
1.18515246e+3, 2.545522e+2, -375456.9, -526615.1, 113759.64, 0.02801646, -0.305207, -314458.38, 130903.85, 0.0, 10.000928, 9.998952 
1.18517555e+3, 2.645503e+2, -300886.8, -496038.88, 49872.27, 0.003430426, -0.357007, -288880.34, 58498.203, 0.0000005059796, 10.001028, 9.998431 
1.1851979e+3, 2.745487e+2, 352.1373, -305519.16, 22876.857, -0.0026584037, -0.37564158, 2053.6873, 251447.02, 0.000009353779, 10.002441, 9.998391 
1.1852202e+3, 2.8454712e+2, 122263.05, -238574.83, 20488.055, -0.009591933, -0.3459204, 123422.61, 274832.1, 0.000051335024, 10.002793, 9.998 
1.18524246e+3, 2.945455e+2, 90136.02, -195445.31, 18603.012, 0.0009748668, -0.33142513, 91342.74, 144769.94, 0.0001797707, 10.001862, 9.998072 
1.1852647e+3, 3.0454352e+2, 164344.16, -81414.164, 12641.45, 0.021416655, -0.35583177, 164992.7, 164992.7, 0.00046111151, 10.00179, 9.998571 
1.1852887e+3, 3.145436e+2, 390695.97, 220989.19, -93511.43, 0.20274389, -0.22820385, 432114.06, 432114.06, 0.0009128904, 10.002467, 10.000323 
1.1948701e+3, 1.24538936e+2, -1775401.9, -1632204.6, 75602.63, 0.030266285, -0.38193682, -1599677.8, 119811.97, 0.0022081332, 9.999082, 10.000985 
1.19488806e+3, 1.3453926e+2, -1564131.0, -1567030.1, 16918.365, -0.17349207, -0.3948261, -1548600.1, 72885.516, 0.0011730703, 10.000219, 10.000242 
1.19491056e+3, 1.4454028e+2, -1449590.0, -1474715.9, 76530.03, -0.06506873, -0.3028225, -1384598.6, 138878.78, 0.00040013902, 10.000409, 10.000087 
1.1949324e+3, 1.5454155e+2, -1458308.3, -1429267.9, 104997.9, -0.021829458, -0.20559584, -1337791.0, 87678.38, 0.00005450229, 9.999683, 10.000077 
1.1949534e+3, 1.645418e+2, -1409654.5, -1445504.3, 102012.4, -0.055735584, -0.1444602, -1324004.1, 3465.0806, 0.00000035173326, 9.999735, 9.99927 
1.1949739e+3, 1.7454068e+2, -1158668.1, -1272704.5, 89472.22, -0.1417546, -0.20196956, -1109590.4, 119889.19, 0.0, 10.000779, 9.999281 
1.1949953e+3, 1.845395e+2, -1019542.2, -1214280.9, 62029.984, -0.14052442, -0.21660241, -1001462.4, 130028.73, 0.0, 10.001318, 9.998747 
1.19501784e+3, 1.9453806e+2, -930096.7, -1118169.9, 53757.688, -0.029444164, -0.2545634, -915815.3, 117689.86, 0.0, 10.001244, 9.998772 
1.1950398e+3, 2.0453693e+2, -802157.06, -930540.44, 57104.145, -0.0038331654, -0.26925018, -780433.4, 155081.67, 0.0, 10.001133, 9.999442 
1.19506076e+3, 2.14536e+2, -724325.06, -829180.75, 91207.984, -0.07517623, -0.3330429, -671550.3, 165970.61, 0.0, 10.000943, 9.999554 
1.1950835e+3, 2.2453533e+2, -652901.8, -843765.44, 134542.84, -0.05643315, -0.30674642, -583382.06, 156144.56, 0.0, 10.001178, 9.998668 
1.195108e+3, 2.3453481e+2, -446318.2, -691010.2, 127648.375, 0.071579956, -0.24255134, -391851.72, 249681.47, 0.0, 10.001912, 9.998691 
1.1951317e+3, 2.4453361e+2, -374424.47, -631521.0, 91735.14, 0.13619168, -0.215978, -345048.72, 198495.67, 0.0, 10.001843, 9.998465 
1.19515456e+3, 2.5453138e+2, -414993.6, -594544.1, 84784.31, 0.12981696, -0.30706275, -381286.16, 64276.39, 0.0, 10.000868, 9.998512 
1.195177e+3, 2.6452944e+2, -336533.22, -562102.7, 90794.21, 0.035433855, -0.31778562, -304528.5, 43051.598, 0.0000006389743, 10.000985, 9.998006 
1.1951988e+3, 2.745278e+2, -35206.625, -361217.72, 87945.484, -0.17360263, -0.3032866, -12995.497, 236602.56, 0.000009301616, 10.002361, 9.99805 
1.19522154e+3, 2.8452617e+2, 122297.41, -219785.2, -19404.914, -0.1619553, -0.26947105, 123394.65, 275009.97, 0.000051838055, 10.002705, 9.998176 
1.19524576e+3, 2.9452434e+2, 96922.23, -176819.03, -3109.697, 0.12256426, -0.29898182, 96957.555, 150591.44, 0.0001815093, 10.001827, 9.998222 
1.1952676e+3, 3.0452263e+2, 95754.73, -198653.03, 30866.547, 0.10140423, -0.26091576, 98956.055, 98956.055, 0.00045696262, 10.001696, 9.997805 
1.1952883e+3, 3.145222e+2, 333294.38, 144263.8, -35419.215, -0.12301855, -0.11358229, 339713.03, 339713.03, 0.00089152856, 10.002295, 9.999873 
1.2048707e+3, 1.2451999e+2, -1542049.4, -1549493.6, 73076.37, 0.1140323, -0.27076793, -1472600.4, 247078.8, 0.0024257244, 10.000821, 10.000722 
1.2048875e+3, 1.3451967e+2, -1710552.0, -1636536.5, 16978.217, -0.19767609, -0.34213063, -1632827.8, -11146.084, 0.0012988481, 9.999232, 10.000233 
1.20491065e+3, 1.4452074e+2, -1600919.0, -1510225.9, 91640.27, -0.03001807, -0.26072547, -1453326.4, 70344.984, 0.00045139206, 9.999195, 10.000436 
1.2049325e+3, 1.5452158e+2, -1250334.4, -1282904.6, 54005.523, -0.033465337, -0.24603423, -1210212.0, 215452.42, 0.00006471426, 10.000913, 10.000492 
1.20495364e+3, 1.6452175e+2, -1164110.3, -1344296.4, 54061.95, -0.08542379, -0.20442802, -1149134.5, 178529.19, 0.00000057087306, 10.001498, 9.99911 
1.20497435e+3, 1.7452097e+2, -1158324.6, -1290001.6, 53503.16, -0.16095763, -0.21408945, -1139326.3, 90345.99, 0.0, 10.000868, 9.999111 
1.2049961e+3, 1.8452007e+2, -1129005.0, -1267236.9, 74364.91, -0.14589453, -0.1899243, -1096596.8, 35084.7, 0.0, 10.0005665, 9.998741 
1.2050188e+3, 1.945189e+2, -1011360.3, -1152734.6, 85648.48, -0.029318772, -0.20497945, -970996.44, 62696.832, 0.0, 10.00067, 9.998802 
1.2050409e+3, 2.0451753e+2, -845675.5, -992428.06, 101504.01, 0.01540087, -0.22688822, -793803.44, 141901.63, 0.0, 10.001008, 9.999073 
1.20506264e+3, 2.1451579e+2, -650905.0, -838832.9, 41303.125, -0.020974508, -0.33327368, -642227.94, 195490.6, 0.0, 10.001632, 9.999155 
1.2050853e+3, 2.245146e+2, -568157.5, -821470.75, 72134.555, -0.021127062, -0.3289905, -549056.44, 190671.9, 0.0, 10.001841, 9.998506 
1.2051091e+3, 2.3451391e+2, -513854.13, -739952.94, 72214.17, 0.027169786, -0.26684055, -492757.88, 148977.31, 0.0, 10.001524, 9.998543 
1.20513305e+3, 2.4451233e+2, -384403.22, -681917.94, 65985.58, 0.08415649, -0.24839473, -370425.06, 173324.38, 0.0, 10.001972, 9.998049 
1.20515674e+3, 2.545095e+2, -84335.16, -484208.47, 41678.93, 0.138529, -0.35770756, -80037.15, 365737.25, 0.00000000020898414, 10.003347, 9.998075 
1.20517954e+3, 2.6450747e+2, -25106.496, -439716.63, 56631.453, 0.082442716, -0.34500408, -17510.395, 330283.72, 0.00000074892756, 10.003249, 9.997747 
1.2052013e+3, 2.7450627e+2, -193371.05, -465156.75, 41966.04, -0.106198885, -0.26228496, -187038.67, 62770.39, 0.000009032264, 10.001392, 9.997793 
1.2052239e+3, 2.8450444e+2, -136589.67, -355633.4, -36078.633, -0.104834095, -0.22828993, -130800.195, 21027.873, 0.000052112464, 10.000972, 9.998079 
1.2052477e+3, 2.9450184e+2, 142773.44, -164754.84, -65424.55, 0.12345577, -0.32777825, 156113.4, 209966.72, 0.00018290883, 10.002192, 9.998129 
1.2052693e+3, 3.045e+2, 198918.25, -226756.11, -19259.021, 0.05893317, -0.26129124, 199787.81, 199787.81, 0.0004542555, 10.002753, 9.997092 
1.20529056e+3, 3.1449887e+2, 267306.28, 44972.055, -117372.086, -0.11009421, -0.10808946, 317800.3, 317800.3, 0.00087136845, 10.00217, 9.99923 
1.21486984e+3, 1.24502756e+2, -1605478.6, -1675811.9, -101303.33, -0.09026258, -0.071229935, -1533411.6, 186443.72, 0.0026624324, 10.000816, 9.999846 
1.2148876e+3, 1.3450108e+2, -1748526.6, -1718069.8, -34456.69, -0.11965652, -0.22098953, -1695626.4, -73754.88, 0.0014356553, 9.999236, 9.999676 
1.21491075e+3, 1.4450118e+2, -1613527.5, -1525568.3, 139956.2, 0.03784723, -0.20636034, -1422844.3, 101025.42, 0.0005075534, 9.99916, 10.000344 
1.2149319e+3, 1.5450117e+2, -1260530.0, -1303768.5, 130474.375, -0.19591595, -0.26377994, -1149895.9, 275972.13, 0.000076397075, 10.000908, 10.000355 
1.2149535e+3, 1.6450101e+2, -1149688.9, -1314315.9, 24335.72, -0.26656836, -0.25666982, -1146166.9, 181701.42, 0.0000008702971, 10.001501, 9.9993105 
1.2149763e+3, 1.7450054e+2, -1145682.1, -1261631.1, 37410.03, -0.07462211, -0.2549647, -1134659.9, 95212.29, 0.0, 10.000852, 9.999317 
1.21499844e+3, 1.8450029e+2, -1094132.3, -1188479.1, 66548.19, 0.015314411, -0.2028017, -1059733.8, 72140.25, 0.0, 10.000542, 9.999293 
1.2150195e+3, 1.9450021e+2, -980052.56, -1078766.9, 98354.58, -0.032375436, -0.1631844, -919365.4, 114508.93, 0.0, 10.0006275, 9.999334 
1.21504165e+3, 2.0449883e+2, -951332.5, -1188458.0, 112809.055, -0.027846977, -0.15348653, -906240.06, 29647.865, 0.0, 10.000913, 9.99777 
1.21506505e+3, 2.1449572e+2, -767785.1, -1050928.3, 72201.23, 0.051119596, -0.25878182, -750436.8, 87482.03, 0.0, 10.001499, 9.997761 
1.2150878e+3, 2.2449365e+2, -580659.06, -820033.5, 50973.344, 0.02684635, -0.27205646, -570256.6, 169680.45, 0.0, 10.001719, 9.998576 
1.2151094e+3, 2.3449281e+2, -515797.4, -722174.75, 69497.95, -0.121258765, -0.23961073, -494576.0, 147364.22, 0.0, 10.001428, 9.9987135 
1.21513285e+3, 2.444907e+2, -429240.9, -746362.6, 108305.125, -0.14346619, -0.26776493, -395782.13, 148175.9, 0.0, 10.001853, 9.997661 
1.2151587e+3, 2.5448674e+2, -128999.44, -554083.25, 103521.13, -0.00715895, -0.44612703, -105129.234, 340866.72, 0.00000000018849695, 10.003249, 9.997642 
1.21518284e+3, 2.6448447e+2, -46651.742, -466686.3, -14966.487, 0.070150934, -0.42876944, -46119.14, 301900.13, 0.00000061447383, 10.003166, 9.997605 
1.2152048e+3, 2.7448404e+2, -205219.13, -485907.8, -16402.754, 0.090909764, -0.25611314, -204263.84, 45762.715, 0.000008322687, 10.001365, 9.997668 
1.2152266e+3, 2.84482e+2, -175860.16, -420752.13, -1698.516, 0.053738087, -0.21985881, -175848.38, -23801.023, 0.000050693892, 10.00091, 9.997661 
1.2152482e+3, 2.9447803e+2, 110864.74, -223150.58, -1516.3995, -0.06530337, -0.41117358, 110871.63, 164955.94, 0.00018219525, 10.002158, 9.997744 
1.2152699e+3, 3.0447564e+2, 131904.2, -350210.38, -40851.63, -0.16672029, -0.34182462, 135341.23, 135341.23, 0.00045297266, 10.002686, 9.996277 
1.2152945e+3, 3.1447354e+2, 188676.89, -93164.914, -101032.36, 0.03213453, -0.20473132, 221152.17, 221152.17, 0.0008607727, 10.002066, 9.998329 
1.2248681e+3, 1.2448383e+2, -2165798.5, -1944649.4, -166785.56, -0.158783, 0.023342622, -1855113.6, -135066.5, 0.0029179724, 9.996913, 9.999901 
1.2248878e+3, 1.3448219e+2, -1681039.6, -1650741.1, 1524.9894, -0.02470115, -0.15565853, -1650664.6, -28605.291, 0.0015834377, 9.999537, 9.999992 
1.2249106e+3, 1.4448185e+2, -1481756.6, -1553574.6, 197403.11, 0.055727646, -0.16330285, -1317023.0, 207037.48, 0.00056846405, 10.000464, 9.999518 
1.22493215e+3, 1.5448117e+2, -1547555.0, -1534294.5, 103518.18, -0.18574946, -0.20466642, -1437194.5, -11126.708, 0.00008951281, 9.9993515, 9.999507 
1.224954e+3, 1.6448055e+2, -1455715.5, -1429582.4, -9298.181, -0.24922338, -0.21445636, -1426611.8, -98539.625, 0.0000012652538, 9.99923, 9.999635 
1.22497715e+3, 1.744799e+2, -1198291.9, -1238743.3, 6557.6953, -0.041850936, -0.2689825, -1197255.4, 32818.6, 0.0, 10.000269, 9.999764 
1.22499965e+3, 1.8447955e+2, -1041811.06, -1192995.9, 36835.957, 0.067244604, -0.23901397, -1033313.6, 98761.87, 0.0, 10.001027, 9.999034 
1.2250213e+3, 1.9447938e+2, -873685.75, -1058005.6, -18134.59, 0.049053825, -0.1808939, -871918.5, 162160.06, 0.0, 10.001498, 9.999058 
1.2250436e+3, 2.0447797e+2, -836076.06, -1153821.3, 22571.38, 0.037497237, -0.15020362, -834480.7, 101612.31, 0.0, 10.001776, 9.997599 
1.22506656e+3, 2.1447496e+2, -745202.9, -1057317.9, 59222.203, 0.041168284, -0.2278306, -734343.56, 103778.71, 0.0, 10.001723, 9.997612 
1.22508936e+3, 2.2447243e+2, -569723.7, -846791.8, 88987.21, 0.01620147, -0.266367, -543605.4, 196538.53, 0.0, 10.001938, 9.998282 
1.2251119e+3, 2.3447034e+2, -381658.1, -691350.44, 48600.04, -0.049580783, -0.3310825, -374210.4, 267947.03, 0.0, 10.002495, 9.998409 
1.2251358e+3, 2.4446781e+2, -362883.03, -756836.56, 93984.78, -0.066522755, -0.36452085, -341609.97, 202569.88, 0.0, 10.002486, 9.997292 
1.225161e+3, 2.5446463e+2, -361788.1, -703727.1, 76781.82, -0.02345609, -0.427373, -345338.25, 100875.984, 0.0, 10.00182, 9.9973 
1.22518495e+3, 2.6446262e+2, -220557.83, -524830.4, -37718.633, 0.033455677, -0.37497097, -215951.83, 132284.17, 0.0000003685213, 10.001864, 9.997834 
1.225207e+3, 2.7446187e+2, 8977.819, -350976.9, -33561.94, 0.1111705, -0.2621163, 12080.371, 262324.56, 0.0000073761885, 10.002721, 9.997936 
1.2252289e+3, 2.8445956e+2, 127254.6, -322612.13, 47196.3, 0.08405435, -0.24322161, 132152.72, 284418.53, 0.00004908337, 10.00318, 9.997245 
1.2252505e+3, 2.9445553e+2, 199676.5, -232335.39, 27142.283, -0.07823586, -0.39691654, 201375.11, 255678.6, 0.00018065568, 10.002985, 9.997285 
1.2252725e+3, 3.04453e+2, 176359.14, -316435.78, 9352.86, -0.18172155, -0.33089703, 176536.58, 176536.58, 0.00045038539, 10.002928, 9.996397 
1.2252976e+3, 3.1444886e+2, 276941.03, -76838.875, -15350.693, 0.10202383, -0.40584603, 277605.84, 277605.84, 0.0008532649, 10.002738, 9.9981365 
1.234865e+3, 1.2446287e+2, -2077631.6, -1746949.1, -97655.6, -0.18850003, -0.022315467, -1720263.5, -5.548482, 0.0031899144, 9.996856, 10.00128 
1.23488784e+3, 1.3446301e+2, -1584613.8, -1455897.5, 104865.984, -0.001643581, -0.15704611, -1397215.6, 225028.9, 0.0017411282, 9.999554, 10.001325 
1.2349099e+3, 1.4446273e+2, -1590017.3, -1786665.0, 153338.33, -0.08284359, -0.15265319, -1506186.8, 18057.41, 0.0006337289, 10.000493, 9.99791 
1.2349328e+3, 1.5446149e+2, -1666447.1, -1793752.1, 67983.47, -0.072895795, -0.071946725, -1636968.5, -210704.05, 0.00010392506, 9.999385, 9.997723 
1.2349548e+3, 1.6446029e+2, -1409663.6, -1331528.8, 12291.892, -0.09789286, -0.07947311, -1329640.8, -1364.4042, 0.0000017603737, 9.999225, 10.000306 
1.2349766e+3, 1.7445916e+2, -1145312.9, -1127587.8, 52047.72, -0.1400687, -0.2618155, -1083653.4, 146623.63, 0.0, 10.000258, 10.000534 
1.2349995e+3, 1.844579e+2, -1125384.8, -1359200.9, 46245.76, -0.0707263, -0.30914903, -1116570.3, 15715.6875, 0.0, 10.000998, 9.997908 
1.23502396e+3, 1.9445631e+2, -966248.25, -1240275.9, 9571.484, 0.1352019, -0.2671614, -965914.3, 68392.016, 0.0, 10.001449, 9.997834 
1.2350465e+3, 2.0445487e+2, -779250.9, -1011984.8, 9095.518, 0.13620608, -0.22394697, -778895.94, 157424.97, 0.0, 10.0016775, 9.998617 
1.2350668e+3, 2.1445356e+2, -681574.94, -902060.4, 63774.97, -0.11573983, -0.24444704, -664457.1, 173871.45, 0.0, 10.001619, 9.99873 
1.23509e+3, 2.2445096e+2, -634527.6, -955233.8, 97848.836, -0.1277349, -0.31619197, -607031.06, 133317.66, 0.0, 10.001824, 9.997595 
1.2351166e+3, 2.3444654e+2, -457513.0, -821690.75, 79377.87, 0.15473597, -0.5341631, -440963.5, 201422.61, 0.0, 10.002375, 9.997575 
1.2351411e+3, 2.4444377e+2, -401993.0, -812734.56, 62156.44, 0.21530518, -0.5295776, -392793.1, 151620.89, 0.0, 10.002378, 9.996958 
1.23516336e+3, 2.5444305e+2, -391025.97, -751424.25, 61848.42, 0.008664378, -0.31985176, -380707.5, 65722.875, 0.0, 10.001754, 9.99701 
1.2351856e+3, 2.6444176e+2, -200357.08, -456358.28, -14321.282, -0.101229295, -0.20366433, -199558.4, 148887.5, 0.00000016286783, 10.001756, 9.998354 
1.2352078e+3, 2.7443963e+2, 35508.566, -276984.4, 11592.418, -0.09846088, -0.28439733, 35938.016, 286400.72, 0.000006622681, 10.002639, 9.998484 
1.2352306e+3, 2.8443706e+2, 83369.22, -388694.84, 35458.598, -0.07779696, -0.3028546, 86017.79, 238502.67, 0.00004875032, 10.003077, 9.996839 
1.23525426e+3, 2.9443404e+2, 158323.53, -306518.56, 35610.86, -0.025094189, -0.30548048, 161035.81, 215549.3, 0.00018162774, 10.002929, 9.996806 
1.2352764e+3, 3.0443162e+2, 229967.52, -184517.28, 3346.305, -0.09979828, -0.24840944, 229994.53, 229994.53, 0.0004514282, 10.002842, 9.997345 
1.2352993e+3, 3.144249e+2, 288940.16, -15282.311, 13439.818, -0.04610017, -0.6870218, 289532.75, 289532.75, 0.00085099565, 10.002583, 9.998634 
1.24486245e+3, 1.2444161e+2, -1875019.1, -1683495.9, 17373.89, -0.19287552, -0.053104397, -1681932.6, 38531.535, 0.003475539, 9.998422, 10.000952 
1.2448883e+3, 1.3444129e+2, -1642726.4, -1545823.5, -10843.495, 0.10985126, -0.17599009, -1544625.0, 77832.16, 0.0019075654, 9.99943, 10.0007715 
1.2449097e+3, 1.4444041e+2, -1682851.0, -1798897.1, -42329.28, -0.11416874, -0.213716, -1669051.8, -144589.27, 0.0007030745, 9.999715, 9.998202 
1.24493234e+3, 1.5443973e+2, -1648145.8, -1746319.4, 8369.742, -0.036079038, -0.10868496, -1647437.3, -220962.31, 0.00011956255, 9.999351, 9.998064 
1.2449551e+3, 1.6443875e+2, -1379921.5, -1355984.1, 84284.62, -0.015380081, -0.09378695, -1282822.6, 45661.973, 0.0000023468863, 9.999617, 9.99994 
1.244978e+3, 1.744374e+2, -1109420.1, -1154268.8, 13704.893, -0.041049108, -0.25501567, -1105563.8, 124926.87, 0.0, 10.000718, 10.000117 
1.24500126e+3, 1.8443595e+2, -1074736.9, -1338591.1, -15064.789, -0.0016660385, -0.29997268, -1073879.5, 58623.156, 0.0, 10.001349, 9.997881 
1.245025e+3, 1.9443414e+2, -983573.9, -1250458.8, 24620.008, 0.117107764, -0.28114262, -981321.75, 53202.28, 0.0, 10.001328, 9.997826 
1.2450476e+3, 2.0443268e+2, -804483.1, -1035684.4, 55389.414, 0.09457529, -0.2354606, -791898.4, 144640.1, 0.0, 10.00155, 9.99852 
1.2450688e+3, 2.1443157e+2, -627663.25, -884781.44, -1953.5319, -0.09211442, -0.22762091, -627648.4, 210896.83, 0.0, 10.00203, 9.99865 
1.2450925e+3, 2.2442892e+2, -586494.44, -962317.7, 16282.273, -0.070047475, -0.2851076, -585790.3, 154776.58, 0.0, 10.002288, 9.997318 
1.24511935e+3, 2.3442417e+2, -492718.3, -868417.75, 16076.293, 0.20915365, -0.5081729, -492031.66, 150577.77, 0.0, 10.002262, 9.997304 
1.2451438e+3, 2.4442169e+2, -399486.2, -758068.7, 44028.324, 0.25794864, -0.48449844, -394159.34, 150475.36, 0.0, 10.00216, 9.997442 
1.2451653e+3, 2.5442204e+2, -327650.72, -658890.6, 84656.73, 0.026663737, -0.21972118, -307268.72, 139369.78, 0.0, 10.001928, 9.997558 
1.2451872e+3, 2.644208e+2, -186548.84, -480977.06, 66303.68, -0.106537566, -0.11748518, -172306.55, 176346.05, 0.000000050542315, 10.001974, 9.998081 
1.24520995e+3, 2.7441737e+2, -32835.184, -350173.53, 10373.586, -0.117214754, -0.29557943, -32496.44, 218185.6, 0.0000061370592, 10.002325, 9.998141 
1.2452335e+3, 2.8441423e+2, 45676.152, -375289.84, 25720.594, -0.071418665, -0.36233675, 47241.83, 199951.02, 0.000049451537, 10.002693, 9.997112 
1.2452579e+3, 2.944116e+2, 199080.88, -246605.6, 54511.29, 0.048189625, -0.35954687, 205651.22, 260384.73, 0.00018698946, 10.003055, 9.997149 
1.24527976e+3, 3.0441016e+2, 265158.44, -105576.336, 34151.34, -0.029923894, -0.24564707, 268278.13, 268278.13, 0.00046381343, 10.0028, 9.997917 
1.2453014e+3, 3.144051e+2, 162808.81, -64189.758, -16131.958, -0.033842556, -0.57338566, 163949.52, 163949.52, 0.00086841185, 10.001671, 9.998739 
1.2548612e+3, 1.2442087e+2, -2016704.3, -1996911.5, 141354.5, -0.19778788, 0.0020690311, -1865107.4, -144450.17, 0.0037739007, 9.99849, 9.998773 
1.2548892e+3, 1.3441697e+2, -1818923.1, -1923944.8, 28320.512, 0.24826065, -0.22251855, -1811772.9, -189075.36, 0.0020822603, 9.999468, 9.998163 
1.2549098e+3, 1.4441492e+2, -1521151.0, -1466382.1, -66268.32, -0.09304144, -0.34755635, -1422063.0, 102652.61, 0.0007764397, 9.999726, 10.000479 
1.2549308e+3, 1.54416e+2, -1461357.9, -1367668.9, 3218.0173, -0.15849973, -0.32231513, -1367558.5, 59139.65, 0.00013646827, 9.999383, 10.0006485 
1.2549542e+3, 1.64416e+2, -1486693.0, -1581363.9, 111637.39, -0.08006214, -0.27299535, -1412770.3, -84073.47, 0.0000030208696, 9.999629, 9.998388 
1.2549812e+3, 1.7441468e+2, -1231943.6, -1413852.3, 62276.605, 0.18935052, -0.2566111, -1212666.0, 18048.723, 0.0, 10.0007305, 9.998331 
1.2550049e+3, 1.8441367e+2, -996234.25, -1172918.3, -25010.408, 0.20998296, -0.21500324, -992762.2, 139964.17, 0.0, 10.001336, 9.999026 
1.2550245e+3, 1.9441287e+2, -894981.7, -1059898.8, 30513.764, -0.08210905, -0.22816388, -889516.94, 145214.55, 0.0, 10.001291, 9.999152 
1.2550467e+3, 2.0441139e+2, -903292.56, -1214455.8, 61733.313, -0.15908813, -0.19784933, -891492.44, 45253.074, 0.0, 10.001443, 9.997345 
1.2550722e+3, 2.14409e+2, -740587.7, -1090256.6, 25531.693, 0.030023523, -0.18512858, -738733.3, 100038.21, 0.0, 10.001906, 9.997303 
1.2550966e+3, 2.2440629e+2, -597875.3, -954647.25, 6825.027, 0.10478916, -0.18335712, -597744.8, 143053.94, 0.0, 10.0021515, 9.997437 
1.2551202e+3, 2.3440312e+2, -489864.9, -843913.75, 23927.336, 0.048149247, -0.26871362, -488255.2, 154573.03, 0.0, 10.002174, 9.997518 
1.2551436e+3, 2.4440147e+2, -323965.47, -576969.06, 26331.238, 0.0020149145, -0.23488553, -321254.13, 223588.39, 0.0, 10.002055, 9.998735 
1.2551667e+3, 2.544016e+2, -249495.45, -474988.38, 84469.95, -0.039233204, -0.12943693, -221362.75, 225476.45, 0.0, 10.001829, 9.998869 
1.2551898e+3, 2.643996e+2, -276955.22, -642015.6, 68504.86, -0.059313167, -0.12020414, -264523.38, 84333.914, 0.00000007625481, 10.001861, 9.997029 
1.2552133e+3, 2.743949e+2, -126696.82, -527430.06, 36617.902, -0.0441573, -0.30414894, -123378.266, 127524.87, 0.0000061507535, 10.002248, 9.996962 
1.255237e+3, 2.8439108e+2, 97805.43, -257120.0, 32022.787, 0.00010816103, -0.41967002, 100671.51, 253610.02, 0.000051588435, 10.002645, 9.997949 
1.2552613e+3, 2.943882e+2, 256099.34, -114738.98, 81123.86, 0.06710436, -0.53872466, 273069.28, 328031.56, 0.00019949443, 10.002985, 9.998093 
1.2552826e+3, 3.0438843e+2, 266878.78, -83319.516, -12183.297, -0.045199417, -0.3203797, 267302.13, 267302.13, 0.00049676397, 10.002725, 9.998102 
1.2553033e+3, 3.1438896e+2, 123813.5, -130843.95, -25475.484, -0.050736863, -0.10686544, 126337.016, 126337.016, 0.00092521386, 10.001605, 9.998316 
1.2648608e+3, 1.24395825e+2, -1912854.6, -1949864.3, 99707.48, -0.1286475, -0.13511965, -1829949.4, -109053.21, 0.004085261, 9.999231, 9.998733 
1.2648886e+3, 1.3439293e+2, -1960853.8, -2012046.4, 21807.0, 0.29233658, -0.23401034, -1952824.0, -329892.4, 0.0022650692, 9.998607, 9.997955 
1.2649097e+3, 1.4439145e+2, -1660376.3, -1510359.6, -15538.761, -0.021924777, -0.30240119, -1508767.0, 16179.566, 0.00085386867, 9.998673, 10.000684 
1.2649304e+3, 1.543921e+2, -1364293.9, -1293208.9, -145488.61, -0.15977171, -0.34315953, -1178984.3, 247948.67, 0.00015477135, 9.999941, 10.000888 
1.2649539e+3, 1.6439217e+2, -1392482.8, -1530603.8, -66576.81, -0.087472, -0.29916847, -1365617.1, -36686.125, 0.0000038088367, 10.000247, 9.998437 
1.2649816e+3, 1.7439157e+2, -1419936.3, -1499604.1, 4172.7876, 0.23032296, -0.21454881, -1419718.3, -188774.89, 0.0, 9.999419, 9.998376 
1.2650059e+3, 1.8439105e+2, -1221526.4, -1225833.9, 3963.582, 0.2769238, -0.1498457, -1219169.1, -86219.16, 0.0, 9.999556, 9.999518 
1.2650262e+3, 1.9439049e+2, -913917.06, -1010251.6, -21616.438, -0.017245514, -0.18883593, -909288.9, 125662.164, 0.0, 10.000926, 9.999663 
1.2650488e+3, 2.0438896e+2, -892456.9, -1237153.4, 7338.6895, -0.096778415, -0.17824274, -892300.75, 44664.535, 0.0, 10.001638, 9.997088 
1.2650743e+3, 2.1438612e+2, -834454.6, -1169661.0, 25350.615, 0.08485275, -0.1803319, -832548.25, 6449.0005, 0.0, 10.001411, 9.996988 
1.2650988e+3, 2.243835e+2, -670113.6, -993469.25, 73912.96, 0.13015208, -0.15234533, -654019.56, 87006.04, 0.0, 10.00166, 9.9974165 
1.265122e+3, 2.3438117e+2, -450751.13, -820872.7, 59910.164, 0.02158292, -0.1538867, -441295.28, 201753.77, 0.0, 10.00243, 9.997555 
1.2651454e+3, 2.4437952e+2, -235934.86, -516202.28, -805.2008, -0.039390698, -0.13092811, -235932.55, 309130.7, 0.0, 10.002584, 9.998894 
1.2651685e+3, 2.5437847e+2, -224118.4, -445438.78, -49913.246, -0.044167347, -0.15287177, -213382.52, 233685.34, 0.0, 10.001929, 9.999022 
1.265192e+3, 2.6437622e+2, -238402.6, -627486.06, -12880.27, -0.036053576, -0.17669363, -237976.67, 111111.125, 0.00000015326442, 10.002136, 9.997002 
1.2652163e+3, 2.7437237e+2, 30167.832, -452877.78, 16439.133, -0.002866494, -0.27300778, 30726.646, 281854.16, 0.0000068361555, 10.003329, 9.996954 
1.2652402e+3, 2.843692e+2, 209550.3, -155357.14, 9873.185, 0.037124183, -0.34159547, 209817.23, 362974.8, 0.000055435252, 10.00321, 9.998371 
1.2652637e+3, 2.9436675e+2, 84801.11, -144900.75, -2489.9863, 0.077652074, -0.46309972, 84828.09, 140005.53, 0.00021908835, 10.001592, 9.998547 
1.2652849e+3, 3.0436674e+2, 162222.7, -127462.51, -45137.55, -0.039380006, -0.2944285, 169092.92, 169092.92, 0.0005508417, 10.001987, 9.998145 
1.265307e+3, 3.1436798e+2, 551837.9, 44515.133, -93090.2, 0.029018808, -0.005911984, 568379.94, 568379.94, 0.0010267287, 10.004699, 9.99802 
1.2748607e+3, 1.24366835e+2, -1757713.3, -1635969.5, 135386.13, -0.08460678, -0.4339508, -1548400.1, 172777.86, 0.0044096503, 9.999264, 10.000874 
1.274886e+3, 1.3436931e+2, -1802577.5, -1690417.3, -2468.7222, 0.15494451, -0.21497619, -1690362.9, -67204.97, 0.0024558255, 9.998622, 10.000162 
1.2749088e+3, 1.4437017e+2, -1795901.9, -1792256.8, 17327.455, 0.0045614666, -0.07813276, -1776656.3, -251502.44, 0.00093550276, 9.998679, 9.998744 
1.2749308e+3, 1.5436804e+2, -1519876.5, -1620731.1, -88761.43, -0.108904116, -0.17304116, -1468218.0, -41038.984, 0.00017466526, 9.999956, 9.998634 
1.2749542e+3, 1.6436723e+2, -1268679.4, -1281756.8, -106414.555, -0.111218706, -0.17743656, -1168602.8, 160585.38, 0.0000047674703, 10.000274, 10.000134 
1.274979e+3, 1.7436811e+2, -1278062.6, -1212365.4, -20911.727, 0.008587574, -0.13911411, -1206273.9, 24902.283, 0.0, 9.999441, 10.0003395 
1.2750041e+3, 1.8436816e+2, -1240440.1, -1260723.3, 41644.875, 0.12091967, -0.11271603, -1207719.6, -74546.67, 0.0, 9.999536, 9.9992895 
1.2750298e+3, 1.94367e+2, -943079.94, -1067377.5, 39775.313, 0.23082153, -0.17532627, -931441.56, 103740.805, 0.0, 10.000901, 9.999287 
1.2750536e+3, 2.0436536e+2, -863669.6, -1156233.8, -8915.492, 0.20394237, -0.18488726, -863398.2, 73799.74, 0.0, 10.001548, 9.997686 
1.2750751e+3, 2.14363e+2, -803165.94, -1078570.8, 23167.715, 0.0024122621, -0.2061193, -801230.56, 37991.625, 0.0, 10.001296, 9.997669 
1.2750986e+3, 2.2436067e+2, -695315.4, -1014404.1, 90479.836, -0.06276706, -0.18046558, -671444.9, 69801.695, 0.0, 10.001529, 9.997333 
1.2751248e+3, 2.3435836e+2, -480492.75, -855135.44, 99877.266, 0.04761061, -0.16942815, -455529.5, 187742.42, 0.0, 10.002308, 9.997378 
1.275149e+3, 2.443558e+2, -326885.8, -672119.8, -29633.021, 0.053128254, -0.17577589, -324360.72, 220936.33, 0.0, 10.002443, 9.99789 
1.2751701e+3, 2.543529e+2, -306055.97, -596321.5, -61700.004, -0.07434804, -0.28533703, -293485.2, 153837.47, 0.0, 10.001844, 9.998026 
1.2751935e+3, 2.643509e+2, -187597.66, -504051.7, 21442.736, -0.11943201, -0.27715668, -186151.33, 163190.52, 0.00000020123079, 10.002058, 9.997886 
1.2752192e+3, 2.7434975e+2, 77314.8, -320578.1, 74717.47, -0.06833103, -0.20191282, 90882.8, 342237.4, 0.0000077157165, 10.003183, 9.9979315 
1.275243e+3, 2.843485e+2, 192810.0, -163487.4, -55192.21, -0.029470308, -0.13216946, 201163.69, 354531.06, 0.000060403843, 10.003094, 9.99837 
1.2752645e+3, 2.943469e+2, 71554.336, -157545.72, -50548.16, -0.007274424, -0.16509873, 82211.44, 137593.05, 0.00024205422, 10.001526, 9.998493 
1.2752865e+3, 3.04345e+2, 143226.39, -159302.83, 40027.965, -0.09791638, -0.16941898, 148432.94, 148432.94, 0.0006157275, 10.001951, 9.997943 
1.2753123e+3, 3.143433e+2, 503551.5, -8208.981, 44686.73, 0.04163616, -0.16441567, 507424.25, 507424.25, 0.0011558497, 10.004506, 9.997744 
1.2848608e+3, 1.24340445e+2, -1857793.4, -1599677.4, 138456.1, 0.06746495, -0.41597265, -1539457.8, 181982.39, 0.0047468157, 9.998182, 10.001656 
1.2848827e+3, 1.3434374e+2, -1705965.4, -1525479.8, -143799.28, -0.04045384, -0.21662666, -1445952.1, 177458.13, 0.0026545508, 9.998773, 10.001221 
1.2849078e+3, 1.4434583e+2, -1705937.0, -1719573.3, -39833.336, 0.016974442, -0.024428397, -1672342.4, -146948.75, 0.0010215283, 9.999169, 9.999011 
1.2849313e+3, 1.5434442e+2, -1541125.3, -1601536.3, 24967.729, -0.043022156, -0.072503276, -1532142.0, -104728.89, 0.00019628371, 9.999688, 9.998892 
1.2849548e+3, 1.6434354e+2, -1280118.5, -1276173.6, 32639.563, -0.063255064, -0.10263265, -1245447.0, 83975.34, 0.0000059623408, 10.000149, 10.000238 
1.2849781e+3, 1.7434335e+2, -1117390.6, -1125590.5, -45450.535, -0.07673899, -0.17953001, -1075855.5, 155563.03, 0.0, 10.00051, 10.0004225 
1.2850031e+3, 1.8434298e+2, -1077205.6, -1216578.1, -8281.092, 0.00724844, -0.18151744, -1076715.4, 56703.844, 0.0, 10.000811, 9.998974 
1.2850307e+3, 1.9434233e+2, -941704.4, -1103623.5, -25372.1, 0.21801485, -0.16037685, -937821.75, 97604.71, 0.0, 10.001084, 9.998944 
1.2850554e+3, 2.0434095e+2, -836325.0, -1092847.5, -82648.83, 0.23733293, -0.14490326, -812002.6, 125437.73, 0.0, 10.001517, 9.99814 
1.2850767e+3, 2.143385e+2, -653197.56, -947448.5, -81070.78, 0.017893724, -0.2239013, -632339.8, 207123.97, 0.0, 10.002075, 9.998195 
1.2851003e+3, 2.2433662e+2, -577182.56, -885620.0, 12667.696, -0.05547463, -0.21169093, -576663.2, 164819.39, 0.0, 10.002039, 9.997967 
1.2851267e+3, 2.3433541e+2, -592689.4, -836208.75, 55857.555, 0.055614814, -0.151772, -580488.3, 63007.74, 0.0, 10.001233, 9.99802 
1.2851508e+3, 2.4433321e+2, -518764.0, -810338.5, 9504.235, 0.053073958, -0.1399069, -518454.53, 27064.049, 0.0, 10.001309, 9.997494 
1.2851721e+3, 2.5432962e+2, -249919.73, -622899.25, -2069.3909, -0.0898079, -0.27052528, -249908.25, 197645.48, 0.0, 10.002454, 9.997557 
1.2851955e+3, 2.643276e+2, -107091.61, -430494.0, 83404.99, -0.13687693, -0.2542322, -86848.664, 262726.2, 0.00000014147287, 10.00247, 9.998185 
1.2852213e+3, 2.7432734e+2, -193134.31, -410866.28, 65753.38, -0.062318474, -0.12687875, -174818.11, 76761.16, 0.000007879153, 10.001157, 9.99828 
1.2852453e+3, 2.8432646e+2, -128318.28, -376674.03, -76862.39, -0.012843934, -0.009845473, -106455.164, 47133.95, 0.000065258544, 10.001139, 9.997851 
1.2852667e+3, 2.9432458e+2, 200393.73, -160423.48, -135284.84, 0.005104234, -0.011871088, 245482.92, 301091.28, 0.00026845583, 10.002688, 9.997917 
1.2852892e+3, 3.0432147e+2, 356723.0, -26849.314, 6294.7856, -0.08040695, -0.11802515, 356826.28, 356826.28, 0.0006902029, 10.003288, 9.998215 
1.2853163e+3, 3.143192e+2, 270414.56, -71674.02, 22214.008, 0.103837185, -0.20441711, 271851.03, 271851.03, 0.0013021678, 10.002652, 9.998217 
1.2948586e+3, 1.2431633e+2, -1906561.8, -1692909.1, 66370.07, -0.009631151, -0.12726595, -1673970.4, 47715.29, 0.0050962004, 9.998156, 10.001024 
1.2948784e+3, 1.3431627e+2, -1723425.0, -1556148.4, -118771.62, -0.3622547, -0.24413101, -1494521.1, 129167.55, 0.0028611089, 9.9987545, 10.001018 
1.2949063e+3, 1.443184e+2, -1524821.1, -1346727.8, -36012.5, -0.0672829, -0.15367386, -1339721.3, 185945.92, 0.00111182, 9.999179, 10.001566 
1.2949312e+3, 1.543214e+2, -1343433.1, -1198267.5, 53879.867, -0.04135411, -0.03823703, -1180455.1, 247178.31, 0.000219555, 9.999707, 10.001656 
1.2949556e+3, 1.6432124e+2, -1385962.4, -1495341.8, 35024.02, -0.030218674, -0.07305449, -1375708.6, -46076.777, 0.0000074533, 10.000146, 9.998735 
1.2949786e+3, 1.7431727e+2, -1244195.9, -1391607.0, -24856.928, -0.091486834, -0.3480948, -1240117.3, -8447.179, 0.0, 10.000518, 9.998593 
1.2950027e+3, 1.8431555e+2, -1111551.1, -1284647.5, -7482.067, -0.13354762, -0.3666393, -1111228.3, 22460.06, 0.0, 10.000793, 9.998518 
1.2950285e+3, 1.9431654e+2, -970201.8, -1157733.8, -6537.8394, -0.12413318, -0.14338967, -969974.2, 65708.38, 0.0, 10.001055, 9.998591 
1.295054e+3, 2.0431577e+2, -826488.5, -1051433.6, -71008.56, -0.06717729, -0.06486918, -805948.7, 131743.47, 0.0, 10.001429, 9.9984665 
1.2950793e+3, 2.1431266e+2, -647470.1, -904560.8, -51161.184, 0.052865762, -0.24736865, -637663.1, 202058.72, 0.0, 10.001942, 9.998553 
1.2951037e+3, 2.2431135e+2, -509854.22, -714772.3, -23181.91, 0.074575335, -0.253364, -507264.44, 234468.92, 0.0, 10.001904, 9.999207 
1.2951271e+3, 2.3431234e+2, -514877.34, -649279.2, 36952.848, -0.03186313, -0.10566083, -505387.5, 138334.14, 0.0, 10.001119, 9.999361 
1.2951505e+3, 2.4431162e+2, -529562.9, -796523.94, 38088.707, -0.115874976, -0.025966577, -524234.88, 21494.012, 0.0, 10.001163, 9.997656 
1.2951739e+3, 2.543085e+2, -269535.94, -624901.56, 51480.156, -0.16605544, -0.117915735, -262228.5, 185534.13, 0.0, 10.002298, 9.997614 
1.2951979e+3, 2.643062e+2, -138665.95, -481820.9, 31053.154, -0.15866889, -0.11293622, -135878.5, 213909.6, 0.000000052302592, 10.002394, 9.997877 
1.2952223e+3, 2.7430505e+2, -218235.95, -455784.25, 28807.254, -0.07621228, -0.042480994, -214792.44, 37009.082, 0.000007172051, 10.001119, 9.997994 
1.2952465e+3, 2.843033e+2, -203865.1, -526899.56, -32786.617, -0.012744421, 0.043960813, -200570.98, -46749.75, 0.00006966216, 10.001105, 9.996836 
1.2952697e+3, 2.943002e+2, 110133.7, -330652.72, -58714.797, 0.013276518, 0.027056953, 117820.73, 173674.86, 0.00029972047, 10.002611, 9.996784 
1.2952928e+3, 3.042964e+2, 384407.84, 54122.355, -17610.264, -0.06734774, -0.11194685, 385344.16, 385344.16, 0.00077769125, 10.0032, 9.998813 
1.2953192e+3, 3.142956e+2, 328637.3, 97124.5, 39216.047, 0.07747278, -0.13019127, 335099.75, 335099.75, 0.001468833, 10.002469, 9.999459 
1.3048571e+3, 1.242912e+2, -2087807.1, -1789621.0, 68781.03, 0.101153456, 0.0070823655, -1774520.4, -52582.68, 0.0054552136, 9.996964, 10.000929 
1.3048759e+3, 1.3429083e+2, -1756822.8, -1548554.6, -17729.332, -0.4589372, -0.15715075, -1547056.1, 76887.06, 0.003073975, 9.998433, 10.001221 
1.3049056e+3, 1.4429267e+2, -1517728.1, -1293808.8, -1617.7065, -0.040315375, -0.12894785, -1293797.1, 232125.88, 0.0012055306, 9.999009, 10.00201 
1.3049303e+3, 1.5429556e+2, -1461680.1, -1203125.8, -107276.31, -0.04969344, -0.06931388, -1164412.5, 263474.8, 0.000244213, 9.998679, 10.002113 
1.304955e+3, 1.6429572e+2, -1555656.0, -1560916.6, -123119.69, -0.02486544, -0.104046695, -1435138.6, -105256.69, 0.000009295233, 9.998923, 9.99887 
1.3049793e+3, 1.7429253e+2, -1310235.3, -1409739.0, -57896.188, -0.024403986, -0.30829674, -1283650.9, -51737.56, 0.0, 10.000018, 9.998704 
1.3050039e+3, 1.84291e+2, -1140497.1, -1297170.8, 47688.668, -0.07093825, -0.31572437, -1127123.1, 6807.056, 0.0, 10.000577, 9.998542 
1.3050285e+3, 1.9429137e+2, -1065344.1, -1200916.8, 57285.742, -0.16817784, -0.1583242, -1044380.06, -8449.978, 0.0, 10.000385, 9.998619 
1.3050541e+3, 2.042906e+2, -954314.8, -1083718.4, 37446.313, -0.1276044, -0.090847895, -944260.0, -6320.719, 0.0, 10.000431, 9.998723 
1.305081e+3, 2.1428844e+2, -795008.3, -943249.56, 32598.766, 0.0882902, -0.20798986, -788156.44, 51803.9, 0.0, 10.000802, 9.998833 
1.3051058e+3, 2.242875e+2, -597974.5, -727701.8, 18254.965, 0.13133253, -0.20526728, -595454.6, 146513.45, 0.0, 10.001171, 9.999466 
1.3051282e+3, 2.3428804e+2, -445645.9, -584306.4, -21104.209, -0.048452448, -0.13074607, -442504.97, 201454.66, 0.0, 10.001466, 9.999631 
1.3051516e+3, 2.4428745e+2, -454157.03, -713569.0, -12194.377, -0.12528834, -0.07293068, -453585.06, 92379.89, 0.0, 10.001478, 9.998072 
1.3051766e+3, 2.5428522e+2, -407632.84, -643782.9, 9878.484, -0.06192026, -0.11803207, -407220.34, 40769.465, 0.0, 10.001136, 9.998044 
1.305201e+3, 2.642832e+2, -262226.75, -572406.0, 17783.684, -0.042314313, -0.09324035, -261210.47, 88802.58, 0.000000026393016, 10.001688, 9.997595 
1.3052246e+3, 2.7428144e+2, 93129.3, -347369.6, -11203.242, -0.08568695, -0.04912313, 93414.05, 345448.47, 0.0000066700077, 10.003433, 9.997632 
1.3052486e+3, 2.8427932e+2, 234275.56, -290544.66, -12143.673, -0.053429596, 0.011363537, 234556.4, 388614.06, 0.00007503933, 10.004008, 9.99706 
1.305273e+3, 2.942764e+2, 201748.1, -257557.48, 30715.781, 0.07663678, -0.014868835, 203793.1, 259879.6, 0.0003340975, 10.003115, 9.997043 
1.3052966e+3, 3.042725e+2, 277858.34, -94804.625, 89680.27, 0.022864819, -0.13974494, 298316.56, 298316.56, 0.0008727027, 10.002867, 9.997957 
1.305322e+3, 3.142717e+2, 432578.4, 91371.57, 4929.5244, 0.08214916, -0.061306488, 432649.63, 432649.63, 0.0016510802, 10.003398, 9.998985 
1.3148534e+3, 1.24264844e+2, -2052576.3, -1719991.1, -40997.465, -0.012584679, -0.06262872, -1715012.0, 7186.0566, 0.005819013, 9.996968, 10.0014105 
1.3148752e+3, 1.3426763e+2, -1719067.0, -1473209.6, 49252.62, -0.39232522, 0.039722256, -1463709.9, 160461.64, 0.0032902497, 9.998436, 10.001741 
1.3149053e+3, 1.4426887e+2, -1636957.3, -1537258.1, -25010.137, 0.007553544, 0.055494316, -1531335.9, -5177.2954, 0.0013013786, 9.9990015, 10.0003395 
1.3149282e+3, 1.5426701e+2, -1597925.0, -1482501.1, -112954.84, -0.1328438, -0.16919768, -1413368.8, 14805.393, 0.00026992275, 9.998665, 10.000204 
1.3149531e+3, 1.6426691e+2, -1435251.4, -1313645.4, -97409.27, -0.11997091, -0.20637777, -1259620.0, 70552.8, 0.00001153221, 9.998924, 10.00057 
1.3149805e+3, 1.7426918e+2, -1166756.0, -1117859.6, -9312.839, 0.05832856, -0.06514234, -1116146.0, 116001.94, 0.0, 10.000031, 10.000705 
1.3150065e+3, 1.8426941e+2, -1108725.0, -1223901.5, 33418.582, 0.11387847, -0.026759984, -1099730.9, 34413.1, 0.0, 10.000547, 9.999058 
1.3150309e+3, 1.9426678e+2, -1043477.7, -1146555.9, 56513.37, 0.012291154, -0.2089463, -1018531.25, 17637.783, 0.0, 10.00034, 9.999017 
1.315056e+3, 2.0426546e+2, -954045.0, -1061471.5, 40046.457, -0.018139247, -0.22928765, -940759.5, -2577.3767, 0.0, 10.00034, 9.998919 
1.3150816e+3, 2.1426582e+2, -798220.94, -927738.9, 55034.742, 0.054519653, -0.109259985, -777994.3, 62185.23, 0.0, 10.000699, 9.998993 
1.3151062e+3, 2.2426501e+2, -663816.1, -833373.8, 20849.11, 0.0412257, -0.071045384, -661290.1, 80897.1, 0.0, 10.001041, 9.998804 
1.3151295e+3, 2.3426256e+2, -516662.22, -702694.9, 1569.9366, -0.07722796, -0.22303717, -516648.97, 127560.36, 0.0, 10.00134, 9.998882 
1.315154e+3, 2.442608e+2, -427423.63, -626924.0, -32959.074, -0.063080266, -0.26990646, -422119.53, 124105.875, 0.0, 10.001342, 9.9987335 
1.3151798e+3, 2.5426003e+2, -369024.3, -538202.94, 6803.4287, 0.1324891, -0.24683765, -368751.16, 79481.79, 0.0, 10.001022, 9.998827 
1.3152045e+3, 2.6425877e+2, -301839.3, -628295.8, 68285.56, 0.120873146, -0.17761746, -288131.47, 62117.223, 0.000000066602475, 10.001575, 9.997265 
1.3152273e+3, 2.742566e+2, 38388.81, -419573.84, 69570.91, -0.17240445, -0.13275129, 48724.34, 301001.3, 0.0000067822207, 10.003267, 9.99721 
1.3152513e+3, 2.8425467e+2, 311894.72, -109477.125, -46620.55, -0.2020708, -0.08645578, 316991.16, 471288.34, 0.00008160277, 10.003905, 9.9983635 
1.3152768e+3, 2.9425296e+2, 290086.9, -54560.28, 9244.35, 0.10969954, -0.14024357, 290334.7, 346642.78, 0.0003678658, 10.003017, 9.998494 
1.3153003e+3, 3.042495e+2, 111258.9, -415563.75, 98780.04, 0.0909433, -0.19891842, 129171.27, 129171.27, 0.0009642348, 10.002772, 9.995789 
1.3153243e+3, 3.142475e+2, 262996.6, -202093.97, 72999.96, -0.063536696, 0.0027160773, 274185.4, 274185.4, 0.0018274339, 10.00317, 9.997066 
1.3248508e+3, 1.2423895e+2, -1897060.1, -1660261.9, -47205.34, -0.009169508, -0.13493682, -1651198.5, 71253.14, 0.006183249, 9.998056, 10.001316 
1.3248746e+3, 1.3424242e+2, -1781875.8, -1516800.8, 61159.004, -0.26336682, 0.052891888, -1503370.5, 121048.055, 0.0035072896, 9.998083, 10.001598 
1.3249041e+3, 1.4424352e+2, -1772671.3, -1633389.4, -194.88132, 0.048660208, 0.0734305, -1633389.1, -106981.85, 0.0013982238, 9.998198, 10.000069 
1.3249268e+3, 1.5424092e+2, -1626479.8, -1529341.8, 15350.192, -0.13881004, -0.19889492, -1526973.9, -98543.21, 0.00029637254, 9.998605, 9.999915 
1.3249521e+3, 1.6424075e+2, -1415574.3, -1297591.0, 87252.93, -0.12831503, -0.22947407, -1251259.0, 79171.586, 0.000014169166, 9.999037, 10.00062 
1.3249804e+3, 1.7424384e+2, -1232395.3, -1145256.0, 12558.526, 0.097301885, -0.014961393, -1143482.3, 88917.44, 0.0, 9.999565, 10.00074 
1.3250074e+3, 1.8424445e+2, -1198228.5, -1220053.9, -47015.97, 0.19053645, 0.044584647, -1160875.4, -26483.584, 0.0, 9.999743, 9.999466 
1.3250317e+3, 1.9424184e+2, -1134182.0, -1139481.8, -44199.805, 0.10845151, -0.18045579, -1092552.6, -56137.734, 0.0, 9.999519, 9.999451 
1.3250566e+3, 2.0424055e+2, -1008694.8, -1065142.8, -10668.934, 0.045576844, -0.23020123, -1006745.6, -68319.39, 0.0, 9.999859, 9.999128 
1.3250819e+3, 2.1424097e+2, -756350.6, -885380.94, -8380.253, 0.013585081, -0.12419753, -755808.6, 84613.805, 0.0, 10.000887, 9.999195 
1.3251068e+3, 2.2424015e+2, -640738.25, -837660.9, -33149.758, -0.006919662, -0.08945501, -635307.6, 107122.91, 0.0, 10.001278, 9.998656 
1.3251312e+3, 2.3423767e+2, -597892.94, -757265.4, -33711.004, -0.0040588817, -0.22534777, -591055.6, 53399.016, 0.0, 10.000861, 9.9987335 
1.325156e+3, 2.4423608e+2, -464548.44, -620473.44, -28311.744, 0.03819437, -0.2570039, -459566.94, 86902.805, 0.0, 10.0009775, 9.998956 
1.325181e+3, 2.5423568e+2, -242936.19, -445613.03, -46363.586, 0.1273445, -0.22421609, -232833.78, 215639.22, 0.0, 10.001759, 9.999104 
1.3252059e+3, 2.6423457e+2, -233862.66, -563913.8, 42066.082, 0.085574664, -0.16577289, -228585.56, 121900.58, 0.0000000978673, 10.001907, 9.997545 
1.3252299e+3, 2.7423227e+2, -237760.02, -522183.13, 71689.12, -0.13131459, -0.1612464, -220712.48, 31802.258, 0.000006920427, 10.001231, 9.99749 
1.3252546e+3, 2.8423047e+2, -42700.777, -273679.72, -41442.492, -0.14140986, -0.12174125, -35490.215, 119043.79, 0.000086783104, 10.001461, 9.998403 
1.3252796e+3, 2.942293e+2, 295691.97, -49132.49, -115820.98, 0.107715756, -0.11925623, 330982.6, 387523.75, 0.00039350512, 10.003054, 9.9985075 
1.3253035e+3, 3.0422637e+2, 248465.42, -358616.84, -757.99255, 0.08243062, -0.118319646, 248466.38, 248466.38, 0.0010365263, 10.003763, 9.995701 
1.3253276e+3, 3.142237e+2, 292982.84, -167158.14, 105804.766, -0.04452587, 0.023902882, 316145.6, 316145.6, 0.0019683393, 10.003278, 9.997257 
1.3348486e+3, 1.2421377e+2, -1937097.6, -1739890.4, -89255.39, -0.08917001, -0.20158145, -1705493.3, 17202.602, 0.0065457188, 9.998051, 10.000768 
1.3348742e+3, 1.342152e+2, -1844779.5, -1645394.3, 63857.04, -0.13563436, -0.13114896, -1626696.3, -2012.2167, 0.0037237175, 9.998076, 10.000716 
1.334902e+3, 1.4421646e+2, -1685356.1, -1453025.8, 2868.8438, -0.004158146, -0.10598658, -1452990.4, 73680.24, 0.0014951822, 9.998194, 10.001314 
1.3349256e+3, 1.5421739e+2, -1524115.0, -1322772.4, 41559.594, -0.14110366, -0.16408306, -1314531.3, 114123.75, 0.00032323142, 9.998616, 10.001333 
1.3349512e+3, 1.642175e+2, -1537014.4, -1545366.1, 96608.33, -0.13118331, -0.16603453, -1444491.8, -113838.91, 0.000017128494, 9.999019, 9.998928 
1.3349795e+3, 1.7421657e+2, -1369471.1, -1429417.6, 41085.31, 0.027169676, -0.16022348, -1348587.8, -115920.13, 0.00000000003443261, 9.999559, 9.998794 
1.3350062e+3, 1.8421619e+2, -1180669.3, -1185710.5, -63190.305, 0.087343596, -0.108839355, -1119949.4, 14724.053, 0.0, 9.999746, 9.999704 
1.335031e+3, 1.9421647e+2, -1106852.8, -1081716.8, -44793.082, 0.050496742, -0.0823376, -1047761.94, -11093.94, 0.0, 9.999502, 9.999861 
1.335056e+3, 2.0421587e+2, -1004614.8, -1035949.3, 14668.429, -0.010110888, -0.09738931, -998819.9, -60148.42, 0.0, 9.99977, 9.999372 
1.3350816e+3, 2.1421392e+2, -759053.6, -865206.6, 39153.055, -0.10683541, -0.25074106, -746175.0, 94513.08, 0.0, 10.000767, 9.999397 
1.3351072e+3, 2.2421291e+2, -635268.4, -795888.0, -52040.945, -0.092399254, -0.26222783, -619881.1, 122816.49, 0.0, 10.0011425, 9.999009 
1.3351332e+3, 2.3421328e+2, -587277.06, -713693.3, -38353.355, 0.0872258, -0.15089911, -576551.1, 68145.414, 0.0, 10.000759, 9.999086 
1.3351576e+3, 2.442131e+2, -493071.7, -653931.0, -10708.963, 0.088732526, -0.053111803, -492361.88, 54337.91, 0.0, 10.000868, 9.998776 
1.3351801e+3, 2.542121e+2, -275901.22, -489735.75, -6670.8247, -0.15026322, -0.057065997, -275693.34, 173016.72, 0.0, 10.001655, 9.998849 
1.3352048e+3, 2.642106e+2, -187182.72, -453640.3, 12456.226, -0.21623217, -0.05704322, -186601.69, 164123.81, 0.00000008871969, 10.00184, 9.99834 
1.335232e+3, 2.7420834e+2, -184994.61, -395805.78, 58466.273, -0.051840715, -0.14372095, -169865.38, 82883.82, 0.000006673535, 10.001153, 9.998398 
1.3352577e+3, 2.8420654e+2, -133316.67, -450730.06, 993.01654, 0.021040889, -0.09643883, -133313.56, 21455.715, 0.00008870036, 10.001408, 9.997211 
1.3352817e+3, 2.9420552e+2, 183633.19, -256209.31, -39053.152, -0.015675643, 0.05017873, 187073.77, 243857.84, 0.0004060733, 10.00294, 9.99714 
1.3353057e+3, 3.0420336e+2, 361502.13, -99261.45, -15301.327, -0.08347909, 0.12102004, 362009.7, 362009.7, 0.0010792791, 10.003668, 9.997523 
1.3353314e+3, 3.1419978e+2, 397078.78, 106533.06, 125030.12, -0.028903268, -0.035439678, 443474.22, 443474.22, 0.0020577214, 10.003044, 9.999249 
1.3448459e+3, 1.24189414e+2, -1941552.8, -1737548.8, -91344.82, -0.1319308, -0.121586196, -1702626.4, 20308.78, 0.0069055543, 9.998015, 10.000792 
1.3448729e+3, 1.3418984e+2, -1909003.6, -1702028.4, 58522.645, -0.045406807, -0.13120861, -1686627.0, -61694.86, 0.0039389143, 9.997757, 10.000482 
1.3448998e+3, 1.4419071e+2, -1755033.4, -1496002.0, 22972.648, -0.022402856, -0.124542765, -1493980.5, 32941.93, 0.0015916337, 9.997767, 10.001217 
1.3449247e+3, 1.5419239e+2, -1514791.8, -1324742.1, -72485.58, -0.075580634, -0.10290966, -1300251.8, 128649.72, 0.0003501717, 9.998732, 10.001252 
1.3449511e+3, 1.6419248e+2, -1514753.8, -1540063.0, -19806.197, -0.052904125, -0.095532954, -1503904.6, -173005.08, 0.000020254476, 9.999206, 9.998873 
1.3449785e+3, 1.7419058e+2, -1457684.1, -1472944.9, 44982.617, 0.011032221, -0.18026863, -1419689.4, -186766.81, 0.0000000014653116, 9.9989805, 9.998767 
1.3450052e+3, 1.8418995e+2, -1235786.1, -1210047.4, 37407.375, 0.044704393, -0.15496364, -1183357.6, -48427.137, 0.0, 9.999358, 9.999723 
1.3450308e+3, 1.9419092e+2, -942292.7, -999320.6, 10636.592, 0.058818396, -0.06353268, -940373.4, 96545.72, 0.0, 10.000623, 9.9998865 
1.3450567e+3, 2.0419057e+2, -835055.56, -961025.44, 45896.28, 0.03758231, -0.049763355, -820107.4, 118813.77, 0.0, 10.000966, 9.999308 
1.3450827e+3, 2.1418841e+2, -873247.5, -918698.1, 25853.117, -0.038256984, -0.2205033, -861551.56, -20610.025, 0.0, 10.0, 9.999383 
1.3451083e+3, 2.2418763e+2, -805719.8, -820910.06, -47927.043, -0.037143644, -0.23356022, -764789.8, -21840.83, 0.0, 9.999713, 9.999534 
1.3451335e+3, 2.3418868e+2, -607845.6, -656944.2, -32566.668, 0.077704154, -0.11144746, -591611.9, 53327.156, 0.0, 10.000328, 9.999686 
1.345158e+3, 2.441887e+2, -504506.66, -664625.94, 40205.586, 0.058967207, -0.023211965, -494978.16, 51961.26, 0.0, 10.00083, 9.998719 
1.3451816e+3, 2.5418726e+2, -352787.38, -539240.25, 35334.92, -0.13861811, -0.05940576, -346315.63, 102639.06, 0.0, 10.001193, 9.998733 
1.3452068e+3, 2.641858e+2, -214024.98, -445414.88, 35002.465, -0.18059061, -0.058353808, -208846.06, 142123.72, 0.000000062099474, 10.001578, 9.998516 
1.3452339e+3, 2.7418414e+2, -31223.354, -296267.75, 4861.214, -0.021023374, -0.102075316, -31134.225, 221851.86, 0.0000065347235, 10.00211, 9.998611 
1.3452598e+3, 2.8418228e+2, 41662.7, -395180.13, 13868.56, 0.03609766, -0.060699943, 42102.547, 197109.06, 0.00008983349, 10.002723, 9.996968 
1.3452847e+3, 2.9418048e+2, 239460.89, -249747.64, 23942.445, -0.027774988, 0.036654018, 240629.86, 297659.63, 0.0004117743, 10.003412, 9.996958 
1.3453095e+3, 3.0417863e+2, 379848.53, -48473.293, 9062.057, -0.055900298, 0.12296648, 380040.16, 380040.16, 0.0010985263, 10.003584, 9.997933 
1.345335e+3, 3.1417513e+2, 406464.97, 136809.97, 2555.8213, 0.035374966, -0.06606034, 406489.2, 406489.2, 0.0020991834, 10.002981, 9.999495 
1.3548447e+3, 1.241658e+2, -1909803.9, -1662120.4, -43753.375, -0.096827, 0.068274006, -1654618.5, 68552.16, 0.0072628423, 9.997989, 10.001322 
1.3548705e+3, 1.3416657e+2, -1881454.3, -1642881.1, 49506.68, -0.072730385, 0.048050717, -1633015.9, -7855.161, 0.004152666, 9.997754, 10.000889 
1.354897e+3, 1.441666e+2, -1868649.3, -1727454.4, 43535.51, -0.09626852, 0.028421212, -1715110.0, -187950.03, 0.0016872559, 9.99775, 9.999637 
1.3549241e+3, 1.5416597e+2, -1630524.9, -1571331.5, -26668.998, -0.023139363, -0.012509256, -1561088.5, -131919.38, 0.0003769789, 9.998751, 9.999555 
1.3549511e+3, 1.6416563e+2, -1400340.1, -1310616.0, -37666.563, 0.028336419, -0.030128906, -1296900.1, 34271.652, 0.000023370363, 9.99923, 10.000441 
1.3549775e+3, 1.7416577e+2, -1329037.5, -1208793.5, 42547.77, -0.014869832, -0.09348902, -1195261.1, 37904.41, 0.0000000068048798, 9.998977, 10.000589 
1.3550042e+3, 1.8416569e+2, -1254696.6, -1240606.4, 70413.04, -0.021841338, -0.10253795, -1176886.9, -41723.5, 0.0, 9.999324, 9.999526 
1.3550316e+3, 1.9416513e+2, -972682.2, -1055641.6, 68068.18, 0.052475378, -0.12872835, -934450.94, 102717.54, 0.0, 10.000587, 9.999517 
1.3550586e+3, 2.0416464e+2, -871873.3, -1019281.6, 5875.5146, 0.10961137, -0.09177989, -871639.5, 67535.695, 0.0, 10.000889, 9.998944 
1.3550846e+3, 2.141643e+2, -913677.06, -980457.56, -3520.708, 0.14455262, -0.044304118, -913491.94, -72308.29, 0.0, 9.999897, 9.999013 
1.3551094e+3, 2.2416407e+2, -775488.5, -723012.56, -41247.695, 0.08790216, -0.016048744, -700364.94, 42821.46, 0.0, 9.999567, 10.000275 
1.3551322e+3, 2.3416393e+2, -566959.2, -544319.25, -1890.6232, -0.09632134, -0.097685106, -544162.5, 101019.15, 0.0, 10.000209, 10.000516 
1.3551572e+3, 2.4416304e+2, -516331.13, -664464.7, 44210.25, -0.120841846, -0.14716329, -504139.94, 43047.332, 0.0, 10.000717, 9.998778 
1.355185e+3, 2.5416115e+2, -369880.1, -547719.9, 58780.367, 0.071414426, -0.22665395, -352207.88, 96999.25, 0.0, 10.001076, 9.9987335 
1.3552113e+3, 2.6416e+2, -258435.38, -518046.9, 43823.586, 0.09567746, -0.17409614, -251237.33, 99982.88, 0.000000036385206, 10.001491, 9.998061 
1.3552353e+3, 2.7415964e+2, -83980.625, -380922.9, 36952.746, -0.107218444, -0.035456493, -79451.164, 173774.52, 0.0000068750182, 10.002001, 9.998086 
1.3552608e+3, 2.8415778e+2, 70129.27, -315095.78, 31412.389, -0.17049251, 0.0022897348, 72673.92, 227919.08, 0.00009118057, 10.002632, 9.9975605 
1.3552882e+3, 2.9415402e+2, 265355.56, -164567.94, 63346.992, -0.03052955, -0.15945892, 274495.13, 331776.53, 0.00041364625, 10.003269, 9.997617 
1.3553144e+3, 3.0415192e+2, 300312.06, -169794.22, -20489.234, 0.059957437, -0.09881906, 301203.38, 301203.38, 0.0010984994, 10.003416, 9.99717 
1.3553376e+3, 3.1414965e+2, 273026.66, -80609.93, 14663.7, -0.030616192, -0.073999316, 273633.66, 273633.66, 0.0020944665, 10.0027485, 9.9981 
1.3648418e+3, 1.2413835e+2, -1991645.9, -1681695.0, -81843.164, -0.13831306, 0.032725923, -1661411.5, 62026.977, 0.0076198755, 9.997316, 10.001519 
1.3648686e+3, 1.3413942e+2, -1797427.1, -1586013.5, -94197.44, -0.042572994, 0.024065768, -1550132.5, 75292.27, 0.004366158, 9.998232, 10.00106 
1.3648959e+3, 1.4413974e+2, -1770414.1, -1696558.5, -24642.559, -0.007102, 0.029695747, -1689091.4, -161669.14, 0.0017823466, 9.9985, 9.999485 
1.3649233e+3, 1.54139e+2, -1666931.5, -1605661.3, 6894.0825, 0.034202643, -0.0028140289, -1604895.1, -175460.6, 0.0004035849, 9.998589, 9.999391 
1.3649507e+3, 1.641387e+2, -1398437.8, -1257855.6, 33470.844, 0.07181703, -0.029388333, -1250293.4, 81143.51, 0.000026350568, 9.999009, 10.00091 
1.3649772e+3, 1.741392e+2, -1144331.5, -1056769.9, -4036.992, 0.023704277, -0.112602256, -1056584.1, 176839.98, 0.000000016360648, 9.999974, 10.001148 
1.3650042e+3, 1.8413937e+2, -1086517.8, -1134547.5, 9512.129, 0.0055529643, -0.13496979, -1084702.5, 50715.69, 0.0, 10.000373, 9.999748 
1.3650319e+3, 1.9413902e+2, -1048734.3, -1064903.4, 29225.969, 0.057206843, -0.16087745, -1026495.3, 10927.369, 0.0, 9.999966, 9.999746 
1.3650589e+3, 2.0413889e+2, -1032665.6, -1091327.1, -10089.425, 0.118051305, -0.10415914, -1030978.8, -91551.625, 0.0, 9.999758, 9.9990015 
1.3650848e+3, 2.1413907e+2, -919028.0, -978013.44, -6933.3286, 0.18520689, -0.007339861, -918224.0, -76792.53, 0.0, 9.99984, 9.999062 
1.3651095e+3, 2.2413892e+2, -702198.6, -689925.9, -995.88873, 0.13136967, 0.028070936, -689845.56, 53588.168, 0.0, 10.000078, 10.00025 
1.3651326e+3, 2.341383e+2, -536924.4, -536465.6, -44160.625, -0.09071144, -0.097734615, -492533.78, 152899.72, 0.0, 10.000441, 10.000459 
1.3651581e+3, 2.4413726e+2, -513476.88, -646175.1, -22329.34, -0.09696546, -0.16637872, -509820.25, 37620.086, 0.0, 10.0006695, 9.998921 
1.365187e+3, 2.5413558e+2, -403416.38, -545484.94, -18529.418, 0.18664512, -0.24000596, -401039.44, 48417.777, 0.0, 10.000765, 9.998894 
1.3652137e+3, 2.6413444e+2, -291145.78, -548077.94, 26355.582, 0.21244304, -0.18817179, -288470.13, 62999.23, 0.000000033203506, 10.001332, 9.997931 
1.3652372e+3, 2.7413392e+2, -9583.743, -355073.72, 25394.406, -0.12006596, -0.055956736, -7727.165, 245748.88, 0.0000069323874, 10.002563, 9.997987 
1.3652627e+3, 2.8413177e+2, 100383.85, -284012.8, 6102.68, -0.23581398, -0.046098687, 100480.72, 255977.55, 0.00008947194, 10.002795, 9.997685 
1.3652907e+3, 2.941276e+2, 70406.6, -231498.72, -20036.557, -0.027432598, -0.2609726, 71730.56, 129265.195, 0.00040406178, 10.001836, 9.997835 
1.3653176e+3, 3.0412552e+2, 134569.89, -211833.28, -34950.543, 0.12843575, -0.2315371, 138061.06, 138061.06, 0.001070079, 10.002097, 9.997523 
1.3653412e+3, 3.1412393e+2, 406337.72, -29806.035, 41288.027, 0.023960274, -0.16988991, 410211.88, 410211.88, 0.0020370646, 10.00368, 9.998024 
1.374838e+3, 1.24106765e+2, -2016456.0, -1715519.4, -77927.74, -0.2934738, -0.25865358, -1696537.4, 27203.588, 0.0079810945, 9.997268, 10.001297 
1.374867e+3, 1.3410828e+2, -1798146.4, -1589549.8, -61806.266, -0.056206673, -0.21852043, -1572612.1, 53113.78, 0.0045821774, 9.9982395, 10.001031 
1.3748963e+3, 1.4411001e+2, -1678228.9, -1509679.8, -39313.848, 0.16826814, -0.12662502, -1500960.9, 26748.545, 0.0018779465, 9.998517, 10.00076 
1.374922e+3, 1.5411136e+2, -1570479.6, -1405518.6, 19291.121, 0.022751132, -0.09138255, -1403292.8, 26405.71, 0.00043006244, 9.998585, 10.000766 
1.374949e+3, 1.6411172e+2, -1436736.5, -1341641.0, 55085.477, -0.0069614197, -0.09927407, -1316420.6, 15273.523, 0.000029160963, 9.99902, 10.000336 
1.3749777e+3, 1.7411093e+2, -1192646.5, -1164141.1, 40957.18, 0.0490485, -0.23714705, -1135027.6, 98669.93, 0.000000027808229, 9.999987, 10.000415 
1.3750051e+3, 1.841111e+2, -1043640.9, -1042967.9, -12994.067, 0.04728393, -0.2494709, -1030305.94, 105388.305, 0.0, 10.000367, 10.000379 
1.3750315e+3, 1.9411251e+2, -1006505.94, -964361.6, 18588.219, 0.0051104953, -0.17216662, -957334.7, 80347.984, 0.0, 9.999907, 10.000469 
1.3750575e+3, 2.0411316e+2, -1007900.7, -1019963.1, -18591.035, -0.013021922, -0.09923907, -994387.06, -54708.504, 0.0, 9.999674, 9.99953 
1.375083e+3, 2.1411274e+2, -900123.6, -914674.5, 6070.1504, 0.0060192198, -0.111416504, -897923.9, -56239.32, 0.0, 9.999734, 9.999548 
1.3751085e+3, 2.2411235e+2, -778273.0, -814552.44, 3605.6396, 0.012193216, -0.0919747, -777918.1, -34228.46, 0.0, 9.999937, 9.999461 
1.375134e+3, 2.3411189e+2, -617559.5, -675694.5, -20752.303, 0.0036142212, -0.11172143, -610911.75, 34782.035, 0.0, 10.000321, 9.9995575 
1.3751602e+3, 2.441113e+2, -518785.13, -633938.9, -30718.982, 0.040969614, -0.09188011, -511102.88, 36595.97, 0.0, 10.0005665, 9.999057 
1.3751876e+3, 2.5411057e+2, -399518.88, -515037.63, -7719.261, 0.15030262, -0.099014565, -399005.34, 50699.336, 0.0, 10.000666, 9.999153 
1.3752142e+3, 2.6410925e+2, -291775.78, -524364.5, 58814.293, 0.109857745, -0.08728164, -277749.38, 73966.64, 0.000000022673568, 10.001226, 9.998143 
1.3752398e+3, 2.7410692e+2, -20313.826, -338648.03, 80530.21, -0.14463714, -0.15429115, -1101.3295, 252636.1, 0.0000066245593, 10.002406, 9.998173 
1.3752656e+3, 2.841043e+2, 72841.92, -319942.88, -36160.21, -0.24738945, -0.19517626, 76143.13, 231905.06, 0.00008472814, 10.002697, 9.997488 
1.375292e+3, 2.9410142e+2, 37664.83, -272729.1, -40161.242, -0.10281734, -0.25972986, 42777.016, 100565.33, 0.0003804188, 10.001716, 9.997615 
1.3753192e+3, 3.0409938e+2, 210716.0, -28740.326, 15710.107, 0.064443745, -0.27238667, 211742.3, 211742.3, 0.0010069014, 10.001999, 9.998822 
1.3753451e+3, 3.140976e+2, 435844.56, 100284.74, 115930.88, 0.020098347, -0.3609947, 472001.1, 472001.1, 0.0019208379, 10.003414, 9.999033 
1.384836e+3, 1.2407868e+2, -2073475.3, -1746733.5, -4400.349, -0.18870243, -0.2736416, -1746674.3, -22660.984, 0.008351057, 9.996883, 10.001273 
1.3848652e+3, 1.3407978e+2, -1823350.4, -1572793.3, 39926.87, -0.027587464, -0.29554263, -1566584.6, 59416.84, 0.004803759, 9.99794, 10.001294 
1.3848954e+3, 1.4408168e+2, -1647085.9, -1460277.6, 48306.426, 0.23891191, -0.21808048, -1448525.5, 79457.57, 0.0019753822, 9.998581, 10.001068 
1.3849205e+3, 1.5408352e+2, -1423607.9, -1301392.0, 3202.2808, -0.015366835, -0.16315189, -1301308.1, 128658.54, 0.00045665295, 9.999447, 10.001066 
1.3849477e+3, 1.6408433e+2, -1342812.4, -1274086.5, 29853.64, -0.06958403, -0.14988355, -1262929.6, 69028.64, 0.00003186285, 9.999597, 10.000511 
1.3849773e+3, 1.7408401e+2, -1360026.3, -1222278.8, 58590.65, 0.08135112, -0.25792074, -1200728.8, 33229.406, 0.000000039188958, 9.998774, 10.000587 
1.3850051e+3, 1.8408445e+2, -1318116.3, -1206312.8, 36388.79, 0.11260652, -0.24114996, -1195512.6, -59558.37, 0.0, 9.998608, 10.0001135 
1.385031e+3, 1.9408596e+2, -1074708.8, -1024608.75, -22820.262, -0.0075757606, -0.12668526, -1015772.6, 22172.334, 0.0, 9.999555, 10.000223 
1.3850568e+3, 2.0408651e+2, -909393.06, -923518.44, -88086.54, -0.06501123, -0.069711566, -828086.5, 111855.26, 0.0, 10.000138, 9.999966 
1.3850825e+3, 2.1408576e+2, -793345.9, -805035.2, -85621.414, -0.030628866, -0.16958956, -713369.9, 128577.13, 0.0, 10.000212, 10.000072 
1.3851084e+3, 2.2408526e+2, -727963.6, -849369.6, -41323.582, -0.010074802, -0.16445242, -715233.0, 28719.195, 0.0, 10.000523, 9.998953 
1.3851346e+3, 2.3408507e+2, -516196.3, -694790.75, -60330.703, -0.009123933, -0.09450094, -497726.25, 148231.73, 0.0, 10.0013, 9.998964 
1.3851611e+3, 2.440846e+2, -374181.2, -585422.9, -67858.13, 0.022452835, -0.019783266, -354261.25, 193702.98, 0.0, 10.001661, 9.998854 
1.3851881e+3, 2.540838e+2, -286131.0, -474546.16, -101221.99, 0.09693783, -0.014789033, -242060.02, 207910.2, 0.0, 10.00152, 9.999009 
1.385215e+3, 2.6408216e+2, -264253.53, -488042.56, -17782.654, 0.08663653, -0.041638564, -262849.28, 89135.11, 0.0000000049794013, 10.001312, 9.99835 
1.3852423e+3, 2.7407908e+2, -190111.08, -394152.34, -7403.451, -0.050237905, -0.20621572, -189842.81, 64168.688, 0.0000064670485, 10.00111, 9.99842 
1.3852689e+3, 2.840768e+2, -85432.82, -341770.5, -94786.93, -0.117409065, -0.24228671, -54190.83, 101840.15, 0.000079933714, 10.00137, 9.997984 
1.3852943e+3, 2.9407576e+2, 179458.2, -135885.13, -73162.8, -0.06325205, -0.18205722, 195605.84, 253645.1, 0.0003519979, 10.002398, 9.998224 
1.3853218e+3, 3.040736e+2, 348973.03, 150.76314, 3415.4607, 0.07554534, -0.22410344, 349006.47, 349006.47, 0.00092815317, 10.003114, 9.998486 
1.3853486e+3, 3.140708e+2, 362196.47, 10677.147, -62313.56, 0.04592096, -0.37319973, 372915.84, 372915.84, 0.0017753835, 10.003132, 9.998554 
1.3948347e+3, 1.2405383e+2, -2069831.0, -1713930.8, -97517.03, -0.045284748, -0.05126839, -1688962.6, 35295.996, 0.008733579, 9.996798, 10.001531 
1.3948633e+3, 1.340542e+2, -1784973.4, -1489002.8, 82794.67, -0.036185786, -0.2034777, -1467416.3, 158833.34, 0.005033633, 9.997925, 10.001876 
1.3948932e+3, 1.44055e+2, -1689458.5, -1555592.3, 61509.84, 0.11838768, -0.23910873, -1531621.6, -3381.2915, 0.002076125, 9.998606, 10.000405 
1.3949184e+3, 1.5405567e+2, -1481068.4, -1421517.5, 46733.457, -0.1768662, -0.21880153, -1395880.0, 34357.73, 0.00048381835, 9.999443, 10.000248 
1.394946e+3, 1.6405667e+2, -1282217.1, -1153437.0, -7953.2954, -0.21596982, -0.1794179, -1152947.8, 179280.53, 0.000034571214, 9.999614, 10.001333 
1.3949758e+3, 1.740583e+2, -1297574.5, -1086119.9, 32263.93, 0.05441491, -0.18695205, -1081306.6, 152900.86, 0.00000005013657, 9.99874, 10.001543 
1.3950041e+3, 1.8405932e+2, -1385844.9, -1347807.1, 52320.996, 0.12688145, -0.11768498, -1311155.5, -174956.48, 0.0, 9.998608, 9.999144 
1.3950302e+3, 1.9405943e+2, -1165334.8, -1205373.5, 20803.598, -0.05580172, -0.025948513, -1156482.5, -118273.695, 0.0, 9.999512, 9.999011 
1.3950565e+3, 2.0405906e+2, -896969.56, -876423.94, -92346.66, -0.117873766, -0.0113537535, -793780.5, 146435.38, 0.0, 10.00005, 10.000328 
1.395083e+3, 2.140581e+2, -776846.6, -741996.75, -75827.02, -0.0069536413, -0.18049161, -681618.3, 160599.92, 0.0, 10.00009, 10.000563 
1.395109e+3, 2.2405763e+2, -755443.8, -886916.25, -24841.11, -0.018857135, -0.18911804, -750906.75, -6685.4067, 0.0, 10.000429, 9.998742 
1.3951343e+3, 2.340579e+2, -554696.44, -747384.7, -20552.582, -0.19180456, -0.047846712, -552528.6, 93696.75, 0.0, 10.001173, 9.998667 
1.3951606e+3, 2.4405734e+2, -433193.78, -674982.25, -77967.0, -0.223725, 0.057098478, -410232.97, 138001.73, 0.0, 10.001521, 9.998305 
1.3951883e+3, 2.5405544e+2, -350015.97, -576120.0, -95053.6, -0.0480813, 0.010110855, -315365.78, 134887.36, 0.0, 10.001391, 9.998371 
1.3952163e+3, 2.6405317e+2, -259239.19, -463213.44, -33484.883, 0.062382456, -0.050636545, -253882.88, 98391.09, 0.0000000011462398, 10.0012455, 9.998555 
1.3952449e+3, 2.7405053e+2, -188678.23, -360983.4, -1887.1848, 0.08043937, -0.20345205, -188657.56, 65638.75, 0.0000063015364, 10.000974, 9.998717 
1.395272e+3, 2.840496e+2, -31512.531, -196066.72, -67617.445, 0.05499605, -0.17347588, -7292.491, 149009.34, 0.00007549202, 10.001229, 9.999051 
1.3952975e+3, 2.9405048e+2, 232094.33, 7125.209, -19495.771, -0.008105791, -0.027895648, 233771.33, 292060.0, 0.0003283141, 10.0022545, 9.999276 
1.3953249e+3, 3.0404794e+2, 221052.38, -244489.58, -745.7217, 0.06252618, -0.087252066, 221053.58, 221053.58, 0.0008653395, 10.003019, 9.996849 
1.3953511e+3, 3.1404385e+2, 208451.1, -252767.67, -45629.69, -0.04211203, -0.18641517, 212922.03, 212922.03, 0.0016584882, 10.002894, 9.996859 
1.4048338e+3, 1.24027334e+2, -1742681.6, -1601623.5, -94650.33, 0.08844215, -0.012842498, -1554114.3, 170402.97, 0.009133226, 9.999214, 10.001147 
1.404862e+3, 1.3402748e+2, -1751827.8, -1511878.0, 28187.768, 0.038744893, -0.15840496, -1508611.3, 117899.83, 0.005275387, 9.998308, 10.001539 
1.4048907e+3, 1.4402759e+2, -1769703.5, -1593077.9, 44310.754, 0.058237195, -0.24533318, -1582584.9, -54076.883, 0.0021822979, 9.998047, 10.000419 
1.4049177e+3, 1.5402795e+2, -1536021.5, -1445041.9, 73132.98, -0.16974907, -0.26009023, -1404405.3, 26101.402, 0.00051218417, 9.999054, 10.000275 
1.4049457e+3, 1.6402893e+2, -1280754.1, -1183178.5, 3507.3955, -0.20976624, -0.21214126, -1183052.5, 149445.23, 0.000037386584, 9.999756, 10.001059 
1.4049748e+3, 1.7403084e+2, -1089810.1, -1015794.75, -74248.11, -0.0076254522, -0.16731729, -969842.5, 264635.16, 0.00000006103049, 10.00029, 10.001277 
1.4050028e+3, 1.8403189e+2, -1132791.9, -1189938.9, -33208.355, 0.06678246, -0.095317826, -1117556.3, 18913.541, 0.0, 10.0002, 9.999453 
1.4050297e+3, 1.9403179e+2, -1163453.1, -1158470.6, 31127.756, -0.036595985, -0.061951265, -1129734.5, -91255.836, 0.0, 9.999337, 9.99941 
1.4050567e+3, 2.0403145e+2, -1012442.75, -958405.8, 5328.545, -0.06532051, -0.057211436, -957885.44, -17401.041, 0.0, 9.999369, 10.000098 
1.4050837e+3, 2.1403082e+2, -692250.9, -726372.7, -48724.605, 0.012395435, -0.1658455, -657686.56, 184798.22, 0.0, 10.00079, 10.000327 
1.4051099e+3, 2.2403035e+2, -649749.94, -842676.44, -35167.34, -0.009466101, -0.15727274, -643539.4, 100949.17, 0.0, 10.001214, 9.998655 
1.405135e+3, 2.3403011e+2, -693710.3, -813105.44, -41212.08, -0.17160363, -0.060994405, -680866.6, -34369.594, 0.0, 10.00024, 9.998651 
1.4051613e+3, 2.4402922e+2, -623966.25, -779887.6, -28842.17, -0.21218188, 0.016242715, -618802.1, -70292.37, 0.0, 10.000257, 9.998203 
1.4051893e+3, 2.5402725e+2, -303225.56, -562975.2, -23166.607, -0.084920794, -0.027721094, -301175.56, 149354.17, 0.0, 10.001745, 9.998298 
1.4052175e+3, 2.6402524e+2, -123973.336, -383710.63, 29318.357, 0.022330785, -0.06163791, -120705.09, 231843.36, 0.0000000047036606, 10.002113, 9.998684 
1.4052458e+3, 2.740236e+2, -177018.64, -332709.0, 15569.227, 0.09733281, -0.13030927, -175476.97, 79084.49, 0.000006310061, 10.000968, 9.998911 
1.4052734e+3, 2.840228e+2, -119274.234, -242170.73, -10769.964, 0.11307849, -0.094862066, -118337.55, 38228.2, 0.000071733004, 10.00065, 9.999003 
1.4053e+3, 2.940225e+2, 123156.89, -51568.95, -56811.88, 0.0756542, -0.06135951, 140004.67, 198568.97, 0.0003149259, 10.001547, 9.999205 
1.4053282e+3, 3.040197e+2, 144141.05, -299535.75, -27077.424, 0.12594377, -0.13629259, 145787.45, 145787.45, 0.00083511043, 10.002559, 9.996696 
1.4053543e+3, 3.1401783e+2, 340483.1, -154347.48, -12823.06, -0.05751778, 0.00011197666, 340815.2, 340815.2, 0.0016026316, 10.003649, 9.997169 
1.4148323e+3, 1.2399902e+2, -1807296.6, -1737917.4, -154120.56, -0.047811832, -0.21163504, -1614630.8, 110160.195, 0.009556688, 9.999233, 10.0002 
1.4148612e+3, 1.3399966e+2, -1848339.5, -1702664.0, 438.68616, 0.11966568, -0.17360699, -1702662.6, -75877.234, 0.0055341963, 9.998279, 10.000238 
1.4148879e+3, 1.4399946e+2, -1718122.0, -1492835.9, 60120.273, -0.0499308, -0.25589746, -1477796.0, 50990.43, 0.0022969088, 9.998068, 10.001101 
1.414918e+3, 1.5400045e+2, -1476306.4, -1320894.0, 118819.51, -0.06538905, -0.28851148, -1256627.3, 174145.66, 0.0005425403, 9.999049, 10.001132 
1.4149465e+3, 1.6400132e+2, -1365514.5, -1363779.6, 11924.135, -0.12378844, -0.24335873, -1352691.5, -19926.582, 0.000040406845, 9.999774, 9.999812 
1.4149734e+3, 1.7400178e+2, -1198614.8, -1234665.8, -46467.547, -0.1767011, -0.19205132, -1166799.0, 67967.79, 0.00000007226826, 10.000256, 9.999794 
1.415001e+3, 1.8400232e+2, -1024098.5, -963478.4, -72003.06, -0.15198934, -0.16109224, -915665.9, 221098.55, 0.0, 10.000195, 10.00101 
1.4150293e+3, 1.94003e+2, -1038068.2, -890758.8, 5619.4077, -0.028848968, -0.23365723, -890544.75, 148210.05, 0.0, 9.999301, 10.001267 
1.415057e+3, 2.0400357e+2, -1069459.9, -1064010.3, 35614.613, 0.016966894, -0.20965895, -1031016.4, -90268.086, 0.0, 9.999309, 9.999402 
1.415084e+3, 2.140039e+2, -782585.56, -883787.1, 12035.262, -0.035707746, -0.12680224, -781174.0, 61572.746, 0.0, 10.00065, 9.999318 
1.4151107e+3, 2.2400336e+2, -669204.94, -849788.0, -75251.805, -0.05818368, -0.07147938, -641957.56, 102796.57, 0.0, 10.00107, 9.9986725 
1.4151368e+3, 2.3400167e+2, -707843.1, -811412.1, -68100.85, -0.037911944, -0.13156012, -674074.4, -27300.936, 0.0, 10.000112, 9.998722 
1.4151634e+3, 2.4400026e+2, -606595.3, -729008.7, 9309.824, -0.0467226, -0.12380522, -605891.3, -57102.313, 0.0, 10.000183, 9.998589 
1.4151911e+3, 2.5399923e+2, -288825.16, -509899.9, 43649.75, -0.09286994, -0.1183389, -280518.9, 170281.28, 0.0, 10.0016365, 9.998717 
1.4152186e+3, 2.639984e+2, -142185.64, -393551.3, -13383.532, -0.10206261, -0.06237889, -141475.06, 211333.27, 0.000000079284355, 10.001995, 9.998671 
1.4152454e+3, 2.7399793e+2, -199004.84, -358463.06, -15061.429, -0.067724094, -0.003926933, -197594.7, 57215.84, 0.000007370644, 10.000885, 9.998773 
1.415273e+3, 2.839962e+2, -184794.9, -379320.22, 6183.141, -0.018049609, -0.009799582, -184598.56, -27773.254, 0.000072022085, 10.000641, 9.998071 
1.4153022e+3, 2.9399204e+2, 33545.26, -217963.83, -5445.5435, 0.100152425, -0.26324373, 33663.11, 92526.91, 0.0003160208, 10.001438, 9.998126 
1.4153314e+3, 3.0398902e+2, 184644.52, -167845.22, 9131.052, 0.16504253, -0.34424636, 184880.9, 184880.9, 0.0008386739, 10.002379, 9.99767 
1.4153571e+3, 3.1399238e+2, 425081.9, 89012.336, 39095.23, -0.15444256, 0.18825437, 429569.94, 429569.94, 0.0016067583, 10.003391, 9.998946 
1.4248316e+3, 1.2397173e+2, -1698192.9, -1750989.8, -98933.18, -0.082170025, -0.29595256, -1622196.8, 102859.46, 0.010011913, 10.00027, 9.99961 
1.4248607e+3, 1.3397229e+2, -1682094.4, -1743483.1, -23164.234, 0.1567382, -0.15729736, -1674334.5, -47279.12, 0.0058154534, 9.999963, 9.999137 
1.4248857e+3, 1.4397183e+2, -1489692.8, -1369266.1, 86802.05, -0.14443463, -0.20765238, -1323837.5, 205222.52, 0.002423067, 9.999605, 10.0012 
1.4249174e+3, 1.5397285e+2, -1434851.1, -1272422.5, 76203.12, -0.029256908, -0.2635416, -1242269.5, 188774.03, 0.00057589856, 9.999227, 10.00137 
1.4249463e+3, 1.6397358e+2, -1534359.6, -1471716.8, -11234.095, -0.046705257, -0.23253475, -1469763.0, -136726.9, 0.00004378684, 9.998716, 9.999585 
1.4249727e+3, 1.73974e+2, -1506416.9, -1410356.6, 1243.8792, -0.1672401, -0.16227457, -1410340.6, -175299.42, 0.00000008454083, 9.99826, 9.999549 
1.4250001e+3, 1.8397446e+2, -1287364.6, -1079133.5, -451.41644, -0.1575059, -0.1310202, -1079132.5, 57907.496, 0.0, 9.998344, 10.001105 
1.4250289e+3, 1.9397502e+2, -1024042.6, -867285.7, -69850.8, 0.012214153, -0.23045367, -840676.94, 198352.27, 0.0, 9.999332, 10.00141 
1.425057e+3, 2.0397551e+2, -990009.94, -1039236.3, -49593.95, 0.06288153, -0.21416855, -959257.4, -18234.99, 0.0, 9.999913, 9.999281 
1.4250842e+3, 2.139758e+2, -890001.4, -951743.1, -31480.617, -0.048239436, -0.119321056, -876780.94, -33758.664, 0.0, 9.999974, 9.99918 
1.425111e+3, 2.2397517e+2, -771696.9, -877128.25, -89512.36, -0.08303978, -0.076114506, -720530.9, 24499.574, 0.0, 10.000265, 9.998876 
1.4251375e+3, 2.3397328e+2, -564120.94, -715078.4, -94692.57, -0.01650602, -0.17841277, -518505.8, 128543.73, 0.0, 10.00097, 9.998976 
1.4251646e+3, 2.4397203e+2, -435751.38, -628722.2, 27413.506, 0.001984714, -0.17723168, -431932.56, 117130.09, 0.0, 10.00129, 9.998744 
1.4251928e+3, 2.5397164e+2, -337788.72, -512357.06, 18873.951, -0.048437983, -0.122766174, -335771.44, 115296.266, 0.00000000006254562, 10.001216, 9.998901 
1.4252204e+3, 2.6397085e+2, -257856.92, -478868.28, -72619.555, -0.07572325, -0.05732042, -236131.34, 116944.08, 0.00000036239143, 10.001326, 9.99841 
1.4252464e+3, 2.739696e+2, -99834.195, -340751.2, -107618.06, -0.073991574, -0.048044953, -58762.832, 196322.83, 0.000010087366, 10.001688, 9.9985075 
1.4252739e+3, 2.8396747e+2, -32145.773, -336756.34, -24300.156, -0.036839865, -0.06660461, -30219.424, 126885.99, 0.00007867192, 10.001827, 9.997798 
1.4253035e+3, 2.9396364e+2, 74655.33, -226142.94, -17379.047, 0.087570846, -0.25629032, 75656.09, 134798.53, 0.00033170477, 10.00185, 9.99787 
1.4253333e+3, 3.0396068e+2, 170258.95, -176036.14, 44442.984, 0.14715049, -0.31578568, 175871.72, 175871.72, 0.00087102765, 10.002255, 9.997693 
1.4253606e+3, 3.1396267e+2, 407535.66, 122606.086, -36105.598, -0.12574361, 0.06797856, 412039.7, 412039.7, 0.0016626937, 10.003061, 9.999356 
1.434832e+3, 1.23946175e+2, -1698545.1, -1759869.8, 3946.3694, -0.103931755, -0.21964993, -1698292.3, 27014.246, 0.010506618, 10.000291, 9.999535 
1.43486e+3, 1.3394575e+2, -1751761.8, -1884149.5, -26963.871, 0.072018474, -0.092555515, -1746480.6, -119163.43, 0.006123269, 9.9999485, 9.998173 
1.4348839e+3, 1.4394511e+2, -1511098.5, -1431541.6, 61393.016, -0.31536976, -0.08764733, -1398166.6, 131158.34, 0.002563054, 9.999671, 10.000748 
1.4349157e+3, 1.5394524e+2, -1464571.5, -1332922.6, 68643.31, -0.13758881, -0.19034229, -1303643.1, 127674.86, 0.0006133788, 9.999214, 10.000969 
1.4349452e+3, 1.6394587e+2, -1477708.5, -1354873.4, -40498.473, -0.07188596, -0.18359776, -1342723.0, -9412.22, 0.000047750204, 9.998716, 10.000389 
1.4349721e+3, 1.7394744e+2, -1440343.3, -1276571.8, -8490.724, -0.057978358, -0.091128156, -1276132.8, -40831.387, 0.00000010052836, 9.998264, 10.000469 
1.435e+3, 1.8394826e+2, -1380864.9, -1268718.4, 18337.516, -0.02422832, -0.014325676, -1265796.1, -128498.93, 0.0, 9.998328, 9.999811 
1.4350285e+3, 1.939479e+2, -1145076.3, -1101831.3, -24316.754, 0.011593759, -0.054077562, -1090914.0, -51612.574, 0.0, 9.999259, 9.999838 
1.4350563e+3, 2.0394737e+2, -971399.1, -982583.75, -55332.23, -0.015051817, -0.07142402, -921377.3, 19928.393, 0.0, 9.999833, 9.999709 
1.4350836e+3, 2.1394667e+2, -868467.5, -875688.75, -19988.97, -0.10807802, -0.1383463, -851765.7, -8455.4795, 0.0, 9.999837, 9.999769 
1.4351106e+3, 2.2394584e+2, -766804.7, -832079.25, -75769.01, -0.16455717, -0.16030933, -716942.7, 28374.11, 0.0, 10.000116, 9.999256 
1.435137e+3, 2.3394501e+2, -560874.94, -672155.1, -60510.76, -0.1703466, -0.19578907, -534311.75, 113013.4, 0.0, 10.000819, 9.999343 
1.4351647e+3, 2.4394442e+2, -459296.53, -652126.25, 13660.325, -0.13604112, -0.14365208, -458333.6, 90997.71, 0.0, 10.001171, 9.998645 
1.4351943e+3, 2.5394425e+2, -370596.4, -551249.3, 23892.809, -0.03683551, -0.049088266, -367489.8, 83844.13, 0.000000006122379, 10.001091, 9.998696 
1.4352228e+3, 2.6394266e+2, -291924.88, -533397.5, -70755.73, 0.014769597, -0.035617694, -272719.66, 80629.71, 0.0000008787704, 10.001246, 9.998079 
1.4352489e+3, 2.73939e+2, -138711.86, -399874.3, -80482.125, -0.013883022, -0.23121059, -115901.99, 139481.39, 0.000014147242, 10.001585, 9.99816 
1.4352758e+3, 2.8393692e+2, -29617.686, -314674.06, -31572.918, -0.039057977, -0.23947804, -26162.54, 131241.14, 0.00009061613, 10.001748, 9.997987 
1.4353041e+3, 2.9393682e+2, 72823.195, -215907.45, -3759.7803, -0.043653414, -0.077513486, 72872.15, 132277.84, 0.00036054887, 10.001783, 9.997975 
1.4353342e+3, 3.0393437e+2, 120679.34, -259813.64, 62417.668, -0.005273526, -0.067944035, 130656.95, 130656.95, 0.00093364663, 10.002182, 9.997149 
1.4353639e+3, 3.139294e+2, 313424.8, 3781.5608, 22787.678, -0.1278004, -0.31540245, 315092.84, 315092.84, 0.0017759766, 10.002731, 9.998702 
1.4448316e+3, 1.2391905e+2, -1784883.8, -1757497.9, 20020.59, -0.12109672, -0.1549353, -1746935.5, -21361.385, 0.011047917, 9.999494, 9.999942 
1.4448592e+3, 1.339176e+2, -1783900.3, -1863969.8, -48002.223, 0.046552736, -0.16583428, -1761429.0, -133837.83, 0.00646129, 9.999555, 9.998506 
1.4448841e+3, 1.439173e+2, -1577840.0, -1517856.9, 105791.4, -0.2343366, -0.12054233, -1437887.9, 91707.1, 0.0027186894, 9.999459, 10.000244 
1.4449146e+3, 1.5391743e+2, -1514000.9, -1417240.4, 72539.53, -0.15035513, -0.16839796, -1378427.6, 53164.35, 0.0006559602, 9.999148, 10.000411 
1.4449435e+3, 1.639179e+2, -1451304.8, -1328208.9, -40857.37, -0.10191291, -0.1522529, -1315882.0, 17705.266, 0.000052490832, 9.9988575, 10.000493 
1.4449713e+3, 1.7391911e+2, -1328175.8, -1198887.4, -82007.0, 0.0036740422, -0.11261663, -1159109.3, 76468.875, 0.00000012546444, 9.998949, 10.000664 
1.4449996e+3, 1.8391983e+2, -1274677.5, -1258525.9, -4143.1895, 0.070641324, -0.042278126, -1257525.1, -119951.14, 0.0, 9.999217, 9.999459 
1.445028e+3, 1.9391976e+2, -1097130.1, -1119349.8, 22730.193, 0.033872258, -0.011488928, -1082940.0, -43362.926, 0.0, 9.999763, 9.999472 
1.4450559e+3, 2.0391919e+2, -959845.94, -971242.5, 11340.866, -0.02787036, -0.018677268, -952852.25, -11269.581, 0.0, 9.999888, 9.99976 
1.4450833e+3, 2.1391779e+2, -920600.3, -883850.1, -14803.349, -0.10007613, -0.1675205, -878628.94, -35036.45, 0.0, 9.999412, 9.999913 
1.4451106e+3, 2.239168e+2, -853111.2, -902526.4, -42770.81, -0.14424379, -0.20353636, -828424.4, -82824.07, 0.0, 9.999639, 9.999007 
1.445138e+3, 2.3391646e+2, -553857.2, -701388.2, -88102.555, -0.1563215, -0.1615894, -512716.6, 134888.56, 0.0, 10.000991, 9.999063 
1.4451659e+3, 2.4391584e+2, -405215.63, -634055.1, -64469.664, -0.13596612, -0.093824, -388302.9, 161308.81, 0.0, 10.001588, 9.998559 
1.4451951e+3, 2.5391477e+2, -362722.25, -559893.9, -69089.766, -0.07465221, -0.0814834, -340923.03, 110698.805, 0.000000012932129, 10.001183, 9.998598 
1.4452235e+3, 2.639129e+2, -299432.28, -509537.6, -97128.984, -0.019360937, -0.10259287, -261411.17, 92228.14, 0.0000016431604, 10.001087, 9.99831 
1.4452508e+3, 2.7390993e+2, -106805.266, -348861.2, -90001.15, 0.020389428, -0.2591226, -77008.91, 178657.72, 0.000019343763, 10.001668, 9.998456 
1.4452782e+3, 2.8390816e+2, 22710.465, -329279.75, -19544.52, 0.0028300623, -0.23090804, 23792.363, 181476.81, 0.00010729349, 10.002283, 9.9976225 
1.4453061e+3, 2.939082e+2, 195138.53, -201343.3, -48375.504, -0.079085246, -0.0194174, 200955.56, 260643.95, 0.00040473163, 10.002812, 9.997574 
1.445336e+3, 3.0390608e+2, 181017.4, -196904.63, 26214.115, -0.044818256, 0.040440574, 182827.05, 182827.05, 0.00103285, 10.002452, 9.997456 
1.4453667e+3, 3.139002e+2, 70069.3, -79537.51, 2284.9766, -0.015763221, -0.34415898, 70104.19, 70104.19, 0.001956194, 10.00093, 9.998983 
1.4548314e+3, 1.2389093e+2, -1731112.9, -1646197.6, 60051.96, -0.14006148, -0.06314971, -1615110.1, 110743.35, 0.011640448, 9.999499, 10.000707 
1.4548586e+3, 1.3388799e+2, -1675740.5, -1623337.1, -34933.496, 0.0096655395, -0.38859135, -1605871.0, 22005.076, 0.0068325973, 9.999489, 10.000188 
1.4548863e+3, 1.4388855e+2, -1621498.1, -1607918.0, 88080.89, 0.011471056, -0.31988296, -1526365.8, 3502.9077, 0.0028915813, 9.999453, 9.999628 
1.4549139e+3, 1.5388949e+2, -1577225.0, -1542915.9, 68220.64, -0.15370739, -0.20535965, -1489726.0, -57861.29, 0.00070428615, 9.999125, 9.999558 
1.4549413e+3, 1.638898e+2, -1485736.5, -1407654.1, -53170.348, -0.22166558, -0.1324938, -1380730.9, -46866.223, 0.000058062662, 9.998887, 9.999935 
1.45497e+3, 1.7388915e+2, -1367688.1, -1278635.9, -68960.87, -0.049368266, -0.22850373, -1241075.6, -5204.965, 0.00000016567238, 9.998934, 10.000126 
1.4549989e+3, 1.8388925e+2, -1234793.5, -1173935.8, 4258.8906, 0.04694569, -0.21446519, -1173639.1, -35769.66, 0.0, 9.999209, 10.000044 
1.4550276e+3, 1.938907e+2, -1056766.4, -1025401.7, 51367.832, -0.0010410347, -0.10080535, -987375.7, 52480.465, 0.0, 9.999713, 10.000146 
1.4550556e+3, 2.0389086e+2, -991993.1, -1014364.25, -13284.851, -0.058861032, -0.057302527, -985811.94, -43957.605, 0.0, 9.999793, 9.999506 
1.4550827e+3, 2.1388909e+2, -963182.7, -943360.6, -25382.275, -0.10325222, -0.20778017, -926023.0, -82153.16, 0.0, 9.999292, 9.999562 
1.4551108e+3, 2.2388794e+2, -920275.9, -1017945.0, -9825.484, -0.11013057, -0.20972842, -919297.25, -173415.4, 0.0, 9.999534, 9.998265 
1.45514e+3, 2.3388779e+2, -639765.94, -836862.1, -25253.709, -0.0636028, -0.06471479, -636581.7, 11305.965, 0.0, 10.000815, 9.998215 
1.4551683e+3, 2.4388646e+2, -424776.1, -654592.3, -79945.0, -0.08897617, -0.017596375, -399701.78, 150200.36, 0.0, 10.001485, 9.998474 
1.4551948e+3, 2.5388342e+2, -373406.47, -560335.1, -72416.664, -0.22857986, -0.2045814, -348634.78, 103294.07, 0.000000017460069, 10.001083, 9.998645 
1.4552224e+3, 2.6388168e+2, -266424.1, -421950.25, -85921.95, -0.24452022, -0.24294767, -228300.69, 125642.5, 0.000002726617, 10.000997, 9.99896 
1.4552519e+3, 2.7388194e+2, -77473.914, -256514.2, -56562.664, -0.05972993, -0.15043072, -61101.703, 194837.17, 0.000025176965, 10.001534, 9.999153 
1.4552808e+3, 2.838809e+2, -41839.617, -434149.44, -7327.9243, 0.0063994396, -0.05924529, -41702.79, 116248.39, 0.0001274956, 10.002152, 9.99697 
1.4553088e+3, 2.9387802e+2, 117400.32, -327934.7, -12125.143, -0.10421774, -0.05693236, 117730.21, 177717.6, 0.00046125852, 10.002653, 9.996789 
1.4553384e+3, 3.0387634e+2, 225218.42, -67479.25, -27512.176, -0.06277208, 0.041090123, 227781.98, 227781.98, 0.0011631551, 10.002295, 9.998416 
1.4553685e+3, 3.1387427e+2, 96178.24, 12898.702, -31406.727, 0.041630376, -0.07111287, 106694.516, 106694.516, 0.00219637, 10.000774, 9.999689 
1.4648306e+3, 1.2386226e+2, -1889865.0, -1684704.1, 104291.33, -0.09780999, -0.049029, -1640999.1, 85137.04, 0.012283002, 9.998234, 10.0010605 
1.4648576e+3, 1.3386028e+2, -1526865.8, -1417380.4, -36089.066, -0.041311394, -0.3915094, -1406554.9, 221591.08, 0.00723705, 9.999938, 10.001393 
1.464888e+3, 1.438614e+2, -1491077.9, -1589435.1, 56334.8, 0.17765337, -0.31409818, -1465475.9, 64656.535, 0.0030819494, 10.000521, 9.999252 
1.4649132e+3, 1.5386203e+2, -1501840.3, -1564378.4, 32648.945, -0.16337784, -0.18053801, -1487901.9, -55767.445, 0.0007585455, 9.999868, 9.999064 
1.46494e+3, 1.6386195e+2, -1405061.1, -1400058.0, -17215.764, -0.2781906, -0.108781815, -1385163.0, -51024.113, 0.00006440502, 9.999571, 9.999662 
1.4649697e+3, 1.7386062e+2, -1210938.8, -1230447.6, -29913.412, -0.014576791, -0.24503466, -1189229.6, 46918.62, 0.00000022299002, 10.000124, 9.9998865 
1.4649989e+3, 1.8386008e+2, -1107700.6, -1128781.8, 38009.96, 0.101707004, -0.27547094, -1078796.8, 59354.645, 0.0, 10.000167, 9.999884 
1.465027e+3, 1.9386087e+2, -1079138.5, -1047702.3, 2060.6516, -0.02400848, -0.21649985, -1047567.8, -7423.938, 0.0, 9.999617, 10.000029 
1.465055e+3, 2.0386101e+2, -1015036.4, -1044073.3, -58972.266, -0.0829904, -0.16179045, -968821.7, -26678.875, 0.0, 9.999712, 9.999345 
1.4650835e+3, 2.1386024e+2, -734411.75, -847368.3, -69406.85, -0.023261493, -0.19658764, -701407.56, 142743.08, 0.0, 10.000927, 9.999435 
1.4651123e+3, 2.2385941e+2, -639822.7, -877419.1, -3609.0686, 0.008554391, -0.1593617, -639767.9, 106392.16, 0.0, 10.001454, 9.9983015 
1.4651413e+3, 2.3385838e+2, -603278.9, -812439.06, 23924.21, -0.0067389556, -0.10730239, -600577.25, 47595.613, 0.0, 10.001037, 9.998277 
1.4651695e+3, 2.4385661e+2, -510757.78, -686999.44, 15110.757, -0.07388776, -0.11027719, -509471.6, 40719.176, 0.0, 10.000871, 9.998545 
1.4651959e+3, 2.538539e+2, -338980.25, -529980.2, 2037.505, -0.22765432, -0.27244, -338958.53, 113255.97, 0.000000044837254, 10.001277, 9.998752 
1.4652237e+3, 2.6385242e+2, -212878.58, -420068.7, -13466.277, -0.23029985, -0.28168428, -212007.02, 142220.03, 0.0000038968087, 10.001478, 9.998735 
1.4652538e+3, 2.7385283e+2, -115026.43, -306311.4, -65196.79, -0.00561605, -0.14650564, -94918.73, 161304.06, 0.000030518888, 10.001406, 9.998879 
1.4652829e+3, 2.8385153e+2, -145734.22, -452603.63, -3746.0833, 0.07263831, -0.07578395, -145688.48, 12549.378, 0.00014638911, 10.001301, 9.997256 
1.4653109e+3, 2.938481e+2, -61311.563, -366511.2, 32541.895, -0.0769076, -0.16245706, -57880.36, 2397.814, 0.00051755557, 10.001239, 9.997194 
1.4653403e+3, 3.038468e+2, 156953.53, -84736.79, 48634.457, -0.071415074, -0.05861455, 166372.97, 166372.97, 0.001301741, 10.001757, 9.998549 
1.4653707e+3, 3.138465e+2, 382242.44, 95377.76, -54105.73, 0.07185522, 0.0023170589, 392108.06, 392108.06, 0.0024605144, 10.002943, 9.999228 
1.4748283e+3, 1.2383179e+2, -1895656.5, -1679945.9, 15420.886, -0.18926948, -0.22811222, -1678849.1, 47585.016, 0.012969953, 9.99819, 10.001092 
1.474856e+3, 1.3383469e+2, -1488064.8, -1323107.4, 34720.79, -0.22300746, -0.15457353, -1316097.1, 312302.16, 0.0076708426, 9.999888, 10.002063 
1.4748885e+3, 1.4383604e+2, -1481495.0, -1588698.8, 22206.33, 0.15411814, -0.09047161, -1477077.1, 53307.664, 0.0032881629, 10.00059, 9.9992285 
1.4749123e+3, 1.5383531e+2, -1515682.3, -1585782.0, 15061.737, -0.2527815, -0.078998856, -1512583.0, -80184.555, 0.00081847684, 9.999834, 9.998936 
1.474939e+3, 1.6383451e+2, -1400991.1, -1401516.6, -14036.537, -0.3585054, -0.06876919, -1387214.9, -52807.074, 0.000071419374, 9.999604, 9.999638 
1.4749704e+3, 1.738337e+2, -1214498.8, -1234656.0, -1654.5024, 0.024265872, -0.15591656, -1214363.9, 22045.758, 0.0000002932695, 10.000107, 9.999866 
1.4749998e+3, 1.8383239e+2, -1164448.0, -1252734.0, 10914.494, 0.15263426, -0.2227398, -1163118.8, -24699.707, 0.0, 10.000185, 9.999028 
1.4750259e+3, 1.9383034e+2, -1153722.6, -1193350.6, -11014.363, -0.10924219, -0.35170528, -1150867.0, -110427.01, 0.0, 9.999572, 9.999057 
1.475054e+3, 2.0382968e+2, -1023399.44, -1047883.4, -33671.004, -0.18179265, -0.32378083, -999814.0, -57366.18, 0.0, 9.999651, 9.999349 
1.4750853e+3, 2.1383135e+2, -748809.1, -845863.3, -16977.672, 0.057000913, -0.12605582, -745924.94, 98508.89, 0.0, 10.0007925, 9.99951 
1.4751151e+3, 2.2383125e+2, -608541.2, -782566.6, -22825.346, 0.13363479, -0.049261734, -605597.2, 140837.66, 0.0, 10.001318, 9.999022 
1.475142e+3, 2.3382838e+2, -562323.7, -699981.0, 17573.098, -0.058140274, -0.26419607, -560115.75, 88343.86, 0.0, 10.000916, 9.999109 
1.4751694e+3, 2.438264e+2, -510597.7, -667517.06, 14925.003, -0.17607579, -0.34384248, -509190.75, 41286.207, 0.0, 10.000778, 9.998726 
1.475198e+3, 2.5382593e+2, -355266.8, -530819.9, 25858.61, -0.16081701, -0.2907817, -351537.13, 100944.336, 0.000000082863835, 10.001132, 9.998818 
1.4752269e+3, 2.6382485e+2, -299769.9, -572804.44, -20707.77, -0.0788902, -0.22003898, -298208.28, 56284.727, 0.0000048986644, 10.001355, 9.997745 
1.4752562e+3, 2.738227e+2, -208711.17, -475631.53, -50936.184, 0.0919659, -0.23464537, -199321.38, 57195.316, 0.00003489947, 10.001296, 9.997766 
1.4752848e+3, 2.8382033e+2, -93576.71, -329612.8, -15252.858, 0.10906479, -0.24812593, -92595.14, 65946.484, 0.00016158463, 10.001226, 9.99814 
1.475312e+3, 2.9381815e+2, 6117.976, -204603.08, 40913.457, -0.1006787, -0.3274284, 13782.896, 74347.08, 0.0005683203, 10.001141, 9.998355 
1.4753412e+3, 3.038171e+2, 105797.57, -158996.36, 82048.766, -0.16414304, -0.24385475, 129159.89, 129159.89, 0.0014328049, 10.001627, 9.9980955 
1.4753725e+3, 3.138171e+2, 236731.23, -121791.016, 23596.744, -0.06842256, -0.08839424, 238277.63, 238277.63, 0.0027090134, 10.002596, 9.9978895 
1.4848278e+3, 1.2380364e+2, -1831443.4, -1703962.6, 52886.79, -0.061109826, -0.30441248, -1684878.9, 41827.625, 0.013700781, 9.9988365, 10.000637 
1.4848551e+3, 1.338074e+2, -1634692.9, -1458867.3, 64678.88, -0.2474665, -0.08382991, -1437637.9, 191029.11, 0.00813248, 9.999128, 10.001509 
1.4848879e+3, 1.43808e+2, -1698358.6, -1660849.4, -13123.904, 0.12961292, -0.0734463, -1656713.6, -126052.99, 0.0035089266, 9.99899, 9.999493 
1.4849128e+3, 1.5380697e+2, -1578225.5, -1565232.8, -8198.879, -0.14849946, -0.1343426, -1561268.5, -128595.38, 0.0008836724, 9.999202, 9.999371 
1.4849398e+3, 1.6380604e+2, -1430592.9, -1450406.4, 31523.986, -0.22666563, -0.1499258, -1407455.6, -72773.33, 0.00007901186, 9.999576, 9.999305 
1.4849702e+3, 1.7380525e+2, -1196436.6, -1268037.5, -4190.6846, -0.01047589, -0.19208604, -1196192.3, 40493.39, 0.00000037325287, 10.00043, 9.999473 
1.4849992e+3, 1.8380377e+2, -1114736.8, -1285553.5, -12975.587, 0.07078897, -0.23094457, -1113756.8, 24941.232, 0.0, 10.000771, 9.998525 
1.4850262e+3, 1.9380134e+2, -1036065.94, -1188532.4, -22729.047, -0.06596608, -0.3482101, -1032749.7, 7973.5493, 0.0, 10.000608, 9.9985895 
1.4850548e+3, 2.0380034e+2, -909041.4, -1000283.2, 20777.957, -0.09258231, -0.32465127, -904532.5, 38202.31, 0.0, 10.000476, 9.999272 
1.485086e+3, 2.1380164e+2, -801070.06, -870446.06, 13610.019, 0.06289549, -0.16134109, -798495.6, 46228.66, 0.0, 10.00043, 9.999514 
1.4851156e+3, 2.2380151e+2, -725542.44, -790783.75, -11031.137, 0.111427136, -0.10722083, -723727.75, 22997.088, 0.0, 10.000301, 9.999453 
1.4851427e+3, 2.3379935e+2, -635471.9, -678026.1, -19937.361, -0.030315133, -0.3028248, -627590.56, 21150.625, 0.0, 10.00017, 9.999616 
1.4851703e+3, 2.4379787e+2, -601728.06, -706353.44, -7558.958, -0.11750808, -0.3609088, -601184.75, -50431.797, 0.0, 10.000131, 9.998774 
1.485199e+3, 2.5379756e+2, -478157.66, -591047.8, -19914.486, -0.11261679, -0.28918755, -474747.66, -21990.557, 0.00000011463164, 10.000286, 9.9988165 
1.4852281e+3, 2.637964e+2, -391210.63, -615987.8, -15299.26, -0.055156846, -0.22634533, -390174.1, -35403.727, 0.000005857849, 10.000728, 9.997751 
1.4852574e+3, 2.737939e+2, -142415.55, -442845.94, 4481.2183, 0.07161232, -0.26886368, -142348.72, 114448.63, 0.000039275426, 10.001753, 9.997772 
1.4852862e+3, 2.8379172e+2, 45442.23, -273951.28, 51494.125, 0.09411121, -0.2631188, 53539.094, 212359.94, 0.0001769937, 10.002255, 9.9980135 
1.4853142e+3, 2.937901e+2, 128862.734, -161623.38, -3389.4434, -0.03932036, -0.26665017, 128902.28, 189739.25, 0.00061951595, 10.002051, 9.998214 
1.4853434e+3, 3.037883e+2, 172745.53, -91580.67, 52653.902, -0.11071523, -0.26672783, 182848.1, 182848.1, 0.0015545744, 10.001921, 9.99843 
1.485374e+3, 3.1378794e+2, 124498.14, -152478.02, 18655.414, -0.10950144, -0.18224274, 125749.0, 125749.0, 0.0029229536, 10.001722, 9.998096 
1.494828e+3, 1.2377861e+2, -1864728.0, -1779770.3, -84968.89, 0.008251164, -0.20666601, -1727253.5, -308.5592, 0.014485426, 9.9988785, 10.000086 
1.494855e+3, 1.3377883e+2, -1779707.0, -1735992.9, 76481.23, -0.18969424, -0.16100839, -1678306.8, -49361.645, 0.008627366, 9.999045, 9.99963 
1.494886e+3, 1.4377742e+2, -1653357.4, -1579600.9, -26604.248, 0.01628327, -0.27013892, -1571006.1, -40047.406, 0.0037456865, 9.999022, 10.000044 
1.4949143e+3, 1.5377715e+2, -1518745.0, -1439267.6, 9120.193, 0.0621282, -0.34354705, -1438234.5, -5277.1094, 0.0009542572, 9.999183, 10.000252 
1.4949422e+3, 1.6377662e+2, -1461617.6, -1530128.6, 48502.348, 0.020648744, -0.34148124, -1436493.6, -101532.79, 0.00008722728, 9.999639, 9.998725 
1.4949691e+3, 1.7377533e+2, -1262567.3, -1395910.9, 33274.3, -0.18463743, -0.35290682, -1254725.3, -17749.676, 0.0000004647829, 10.000393, 9.998612 
1.4949973e+3, 1.837743e+2, -1117883.4, -1301402.5, -28365.803, -0.22933872, -0.29298097, -1113599.0, 25388.742, 0.0, 10.000801, 9.9984045 
1.4950278e+3, 1.9377393e+2, -1044881.75, -1198695.6, -23381.07, 0.012521756, -0.20179613, -1041406.1, -412.62372, 0.0, 10.000567, 9.998543 
1.4950573e+3, 2.0377299e+2, -926252.94, -1021649.3, 8253.872, 0.09732145, -0.16276532, -925544.06, 17459.818, 0.0, 10.000409, 9.999159 
1.4950852e+3, 2.137712e+2, -826802.75, -895137.56, 19864.08, -0.06799763, -0.3003335, -821448.06, 23573.414, 0.0, 10.000309, 9.9994 
1.4951137e+3, 2.2377032e+2, -732284.2, -783690.94, -27444.873, -0.124505155, -0.3196038, -720385.94, 26643.03, 0.0, 10.0002, 9.999555 
1.4951432e+3, 2.3377113e+2, -642504.5, -666330.0, -16811.873, -0.005227874, -0.23231834, -633812.56, 15205.917, 0.0, 10.000053, 9.999754 
1.495172e+3, 2.4377087e+2, -622795.06, -727714.8, -10676.098, 0.008720297, -0.17203918, -621719.75, -70700.11, 0.0, 10.0000305, 9.998675 
1.4951989e+3, 2.537688e+2, -503002.56, -620143.25, -1466.7118, -0.15485758, -0.26497293, -502984.2, -49943.633, 0.00000015644366, 10.000189, 9.998664 
1.4952274e+3, 2.6376715e+2, -349269.0, -507996.72, 10473.129, -0.2250022, -0.2795257, -348580.97, 6476.83, 0.000006865855, 10.000633, 9.99854 
1.4952573e+3, 2.737663e+2, -100001.05, -322919.03, 52791.69, -0.13662341, -0.24954246, -88130.93, 168935.95, 0.00004412312, 10.001616, 9.998663 
1.4952873e+3, 2.8376526e+2, -44631.094, -433838.63, 39186.277, -0.058340844, -0.1310625, -40724.934, 118354.11, 0.00019336937, 10.00213, 9.99698 
1.4953169e+3, 2.9376373e+2, 20458.793, -358463.13, 9417.678, 0.008025983, -0.004448394, 20692.715, 81790.87, 0.000667863, 10.0019245, 9.996926 
1.4953463e+3, 3.037603e+2, 212119.05, 27580.385, 40926.047, -0.021754542, -0.13491221, 220788.17, 220788.17, 0.0016538163, 10.001774, 9.999312 
1.4953747e+3, 3.137589e+2, 181850.13, 22929.982, 40960.965, -0.24597003, -0.2669761, 191786.38, 191786.38, 0.003077113, 10.0014925, 9.99941 
1.5048268e+3, 1.23750865e+2, -1835320.6, -1785294.9, -159530.13, -0.00007277138, -0.25335443, -1648828.6, 78383.56, 0.015336173, 9.999191, 9.9998865 
1.5048558e+3, 1.3375017e+2, -1737190.1, -1801377.5, 67619.75, -0.04152461, -0.235238, -1694434.4, -65211.313, 0.0091627855, 9.999694, 9.998877 
1.5048853e+3, 1.437484e+2, -1573629.5, -1557046.8, 12903.24, 0.010246258, -0.33006516, -1550000.6, -18759.412, 0.0040015904, 9.999658, 9.99988 
1.5049145e+3, 1.5374798e+2, -1390726.3, -1377853.8, -43877.39, 0.12968074, -0.41610417, -1339943.1, 93297.34, 0.001031135, 10.000073, 10.000236 
1.5049429e+3, 1.6374768e+2, -1365539.6, -1475079.8, 3790.1333, 0.1050097, -0.39159957, -1365408.6, -30166.945, 0.000096309515, 10.000245, 9.998823 
1.5049694e+3, 1.7374727e+2, -1266041.4, -1378026.0, 42474.086, -0.17167847, -0.3303499, -1251754.4, -14504.476, 0.000000575819, 10.000271, 9.998798 
1.5049976e+3, 1.8374662e+2, -1169862.9, -1310050.6, 45891.645, -0.24256155, -0.24813376, -1156176.1, -16917.244, 0.0, 10.000393, 9.998528 
1.5050286e+3, 1.9374591e+2, -987550.7, -1152775.6, 42330.47, 0.021985047, -0.20479047, -977337.0, 63929.746, 0.0, 10.000897, 9.998686 
1.5050581e+3, 2.0374477e+2, -869372.56, -1003819.3, 80806.18, 0.118352786, -0.19267033, -831483.56, 111794.78, 0.0, 10.000852, 9.999069 
1.5050854e+3, 2.1374302e+2, -868525.5, -930372.75, 69378.78, -0.063274205, -0.3115625, -823490.7, 21804.596, 0.0, 10.000087, 9.999271 
1.5051138e+3, 2.237421e+2, -764965.1, -817102.0, 65067.832, -0.11842949, -0.3198394, -720938.0, 26365.578, 0.0, 10.00008, 9.9993725 
1.5051442e+3, 2.3374261e+2, -461486.88, -602007.2, 31086.002, 0.024758255, -0.240087, -454917.16, 194380.14, 0.0, 10.001404, 9.99954 
1.5051733e+3, 2.4374215e+2, -346078.28, -609633.25, 13098.395, 0.062922314, -0.1813064, -345428.9, 205872.5, 0.0, 10.002008, 9.998526 
1.5052004e+3, 2.5374022e+2, -322886.47, -544880.3, -8383.907, -0.08204424, -0.251037, -322570.28, 130751.09, 0.00000020302433, 10.001491, 9.99854 
1.5052286e+3, 2.6373845e+2, -268739.3, -474847.6, 22077.107, -0.16409296, -0.26490018, -266401.06, 88938.375, 0.0000077496, 10.001216, 9.998483 
1.5052587e+3, 2.7373725e+2, -126758.42, -340274.53, -16141.53, -0.14238477, -0.26582575, -125545.04, 131806.81, 0.00004843342, 10.001438, 9.998632 
1.5052886e+3, 2.8373617e+2, -92785.34, -429911.5, -21696.566, -0.08711761, -0.15784289, -91394.74, 67968.62, 0.0002078638, 10.001685, 9.997221 
1.505319e+3, 2.9373506e+2, 74075.13, -293792.0, 21350.06, 0.022406625, -0.018277045, 75310.086, 136686.55, 0.0007072892, 10.002148, 9.99725 
1.5053487e+3, 3.0373102e+2, 239565.38, -44804.082, 68640.336, 0.024601785, -0.19211411, 255266.66, 255266.66, 0.001718545, 10.0023, 9.998582 
1.5053771e+3, 3.137296e+2, 156774.77, -42356.277, -98851.12, -0.1337256, -0.2374473, 197511.9, 197511.9, 0.0031512629, 10.001514, 9.998975 
1.5148239e+3, 1.2372138e+2, -1815702.9, -1761755.9, -91567.375, -0.26177996, -0.37953016, -1693271.8, 34226.883, 0.016257107, 9.999257, 10.000021 
1.514857e+3, 1.3372172e+2, -1720603.3, -1750448.9, 87481.33, 0.099399544, -0.30654585, -1646781.1, -17282.795, 0.009740974, 9.999638, 9.9992485 
1.5148851e+3, 1.4372139e+2, -1632127.1, -1700438.4, 8569.704, 0.0061458284, -0.22816792, -1631068.5, -99565.055, 0.0042781597, 9.999737, 9.998864 
1.5149131e+3, 1.537196e+2, -1471903.3, -1542588.9, -20764.225, -0.036358465, -0.33564764, -1466255.0, -32734.197, 0.0011151112, 10.000056, 9.999112 
1.5149415e+3, 1.637194e+2, -1292843.4, -1338703.3, -8585.394, -0.07182864, -0.28051192, -1291288.9, 44234.445, 0.000106548556, 10.000299, 9.999734 
1.5149711e+3, 1.7372125e+2, -1181905.8, -1203227.8, 50181.97, -0.051935192, -0.115798235, -1141264.9, 96241.84, 0.0000007145684, 10.000262, 10.000006 
1.5150002e+3, 1.8372095e+2, -1139753.3, -1252450.6, 52671.773, -0.052815467, -0.08591718, -1118969.0, 20540.625, 0.0, 10.000411, 9.998917 
1.5150283e+3, 1.9371739e+2, -979142.94, -1121556.8, 67818.52, -0.105866276, -0.3511071, -952014.8, 89527.21, 0.0, 10.00084, 9.998928 
1.515057e+3, 2.0371571e+2, -884895.44, -1022254.7, 43378.746, -0.10509193, -0.4023118, -872343.25, 71214.37, 0.0, 10.000788, 9.998977 
1.515086e+3, 2.1371718e+2, -893504.9, -954838.8, 46568.914, -0.0038337759, -0.18657875, -868412.3, -22867.746, 0.0, 9.999969, 9.999162 
1.5151155e+3, 2.2371693e+2, -821229.4, -902655.2, 94518.02, 0.040283553, -0.10045928, -759028.75, -11481.023, 0.0, 9.999941, 9.9988575 
1.5151453e+3, 2.3371394e+2, -524898.06, -699800.4, 91645.57, -0.0150109995, -0.31141278, -485673.97, 163902.5, 0.0, 10.001257, 9.998941 
1.5151745e+3, 2.4371193e+2, -383399.78, -658059.9, -9892.774, -0.032013416, -0.36218888, -383043.94, 168552.42, 0.0, 10.001873, 9.998263 
1.5152031e+3, 2.5371167e+2, -353511.0, -582260.56, -19444.936, 0.018641742, -0.24146275, -351869.84, 101730.445, 0.00000026346208, 10.001371, 9.998345 
1.5152319e+3, 2.637101e+2, -339073.16, -597781.3, 19328.871, 0.02584692, -0.18799427, -337637.03, 17980.104, 0.0000083363275, 10.001113, 9.99769 
1.5152612e+3, 2.7370685e+2, -207938.61, -477644.1, 7878.6836, -0.0466062, -0.31125277, -207708.66, 49942.54, 0.00005084747, 10.00131, 9.997749 
1.5152906e+3, 2.837048e+2, -20409.57, -256930.48, -14280.265, -0.09377857, -0.3081528, -19550.502, 140120.27, 0.00021983829, 10.001575, 9.998465 
1.5153202e+3, 2.937042e+2, 159597.77, -83777.99, 54756.816, -0.08472091, -0.26652768, 171349.94, 233020.98, 0.00074040476, 10.002001, 9.998764 
1.5153503e+3, 3.037005e+2, 66699.984, -353204.4, 38778.754, -0.059097227, -0.4055964, 70251.22, 70251.22, 0.0017581307, 10.002108, 9.996543 
1.5153807e+3, 3.1369996e+2, -440.20187, -310351.88, -95342.75, 0.0338807, -0.12352742, 26542.28, 26542.28, 0.0031630676, 10.0013075, 9.997211 
1.5248223e+3, 1.2369176e+2, -1980779.9, -1776810.1, -109991.266, -0.26648134, -0.33462644, -1728798.4, -1007.62213, 0.017244658, 9.997866, 10.000582 
1.5248565e+3, 1.336919e+2, -1802095.0, -1714800.4, -34925.195, 0.15449373, -0.35076842, -1702547.3, -72758.266, 0.010359608, 9.998752, 9.99992 
1.5248846e+3, 1.4369202e+2, -1667986.6, -1685649.3, -18284.613, 0.0022596559, -0.2755547, -1656512.3, -124724.016, 0.0045741852, 9.9993725, 9.999134 
1.5249124e+3, 1.5369132e+2, -1404859.4, -1483648.0, 35793.617, -0.12561677, -0.302186, -1391026.9, 42769.234, 0.0012060112, 10.000396, 9.999356 
1.5249409e+3, 1.6369121e+2, -1295442.3, -1353536.3, 49760.5, -0.1521983, -0.2438893, -1266871.3, 68927.04, 0.000118081814, 10.000374, 9.999587 
1.5249716e+3, 1.7369206e+2, -1358138.6, -1306686.6, -28306.932, 0.029221263, -0.15576006, -1294162.0, -56370.26, 0.0000008766353, 9.999166, 9.999815 
1.5250011e+3, 1.8369156e+2, -1329474.4, -1296274.5, -17504.67, 0.08426048, -0.15172791, -1288750.4, -148953.78, 0.0, 9.998901, 9.999349 
1.525029e+3, 1.9368912e+2, -1006496.5, -1080189.4, 7161.251, -0.10507412, -0.35548043, -1005807.06, 36010.273, 0.0, 10.000404, 9.999432 
1.5250574e+3, 2.0368777e+2, -828519.4, -1015406.2, -39157.24, -0.14416438, -0.39066496, -820646.6, 123182.14, 0.0, 10.00125, 9.998799 
1.5250872e+3, 2.1368836e+2, -763362.6, -923992.94, -74194.77, 0.06582177, -0.23888128, -734337.06, 111486.99, 0.0, 10.000988, 9.998879 
1.5251169e+3, 2.2368765e+2, -719962.1, -878011.5, 30458.734, 0.14256316, -0.17270695, -714295.4, 33536.65, 0.0, 10.000728, 9.99865 
1.525146e+3, 2.3368505e+2, -648356.56, -780270.6, 45547.965, -0.014788553, -0.32772478, -634157.9, 15701.056, 0.0, 10.000494, 9.998758 
1.5251754e+3, 2.436833e+2, -560868.2, -743049.44, -21849.32, -0.06332001, -0.3416724, -558284.4, -6406.8584, 0.0, 10.000674, 9.998245 
1.525205e+3, 2.53683e+2, -314514.44, -564353.9, -40520.86, 0.06676823, -0.22321634, -308106.8, 145775.7, 0.0000003530132, 10.001647, 9.998333 
1.5252344e+3, 2.6368132e+2, -209211.61, -552655.3, 31632.025, 0.11949098, -0.17196918, -206322.53, 149577.97, 0.00000861748, 10.002082, 9.997534 
1.5252633e+3, 2.7367786e+2, -166348.61, -473028.75, 43372.895, 0.031992875, -0.2986369, -160332.52, 97603.59, 0.00005158201, 10.001674, 9.9976 
1.5252925e+3, 2.8367573e+2, -16736.896, -209595.45, 55785.504, -0.037766878, -0.31469402, -1763.1761, 158192.48, 0.00023167011, 10.001415, 9.998867 
1.5253219e+3, 2.9367527e+2, 113440.375, -57280.098, 29276.543, -0.07658655, -0.30604973, 118321.41, 180274.81, 0.0007727991, 10.001466, 9.999215 
1.5253523e+3, 3.036717e+2, 63808.785, -376217.16, 59798.207, -0.056470558, -0.44323817, 71790.41, 71790.41, 0.0017907068, 10.002165, 9.996368 
1.5253842e+3, 3.1367072e+2, 376848.38, -101748.54, 35085.53, 0.1322568, -0.18085839, 379406.78, 379406.78, 0.0031567547, 10.003756, 9.997485 
1.5348226e+3, 1.2366165e+2, -1927025.1, -1664006.5, -29987.477, -0.072315596, -0.15886866, -1660630.9, 67461.41, 0.018294634, 9.997843, 10.001378 
1.5348542e+3, 1.3366105e+2, -1742117.4, -1577055.1, -2435.6848, 0.023421854, -0.3423305, -1577019.1, 53073.168, 0.011016667, 9.998698, 10.000893 
1.5348832e+3, 1.4366066e+2, -1540325.6, -1444472.9, 1633.2119, -0.10233492, -0.44117492, -1444445.0, 87646.89, 0.0048880493, 9.99946, 10.000759 
1.5349118e+3, 1.5366328e+2, -1293408.5, -1235467.1, 80832.14, -0.22286034, -0.3060834, -1178570.9, 255493.36, 0.0013030368, 10.000335, 10.001091 
1.5349409e+3, 1.636634e+2, -1379553.4, -1542087.6, 666.0766, -0.21604094, -0.2654294, -1379550.6, -43487.14, 0.00013086536, 10.000419, 9.998279 
1.5349704e+3, 1.736598e+2, -1485010.4, -1567473.4, -67188.664, 0.0011850635, -0.44672874, -1447410.8, -209306.9, 0.0000010420176, 9.999153, 9.998034 
1.535e+3, 1.8365853e+2, -1294441.1, -1231730.6, 14877.053, 0.08228501, -0.43926987, -1228380.3, -88261.234, 0.0, 9.998932, 9.999779 
1.5350299e+3, 1.9366112e+2, -954385.3, -965326.56, 71411.61, -0.060951393, -0.21817465, -888235.1, 153857.03, 0.0, 10.000372, 10.0002365 
1.5350594e+3, 2.0366105e+2, -863298.94, -1061931.3, -49949.207, -0.091033846, -0.16023901, -851445.75, 92645.36, 0.0, 10.001143, 9.9985285 
1.5350884e+3, 2.1365666e+2, -815215.25, -1000919.5, -76594.38, 0.069119, -0.4608355, -787700.4, 58432.203, 0.0, 10.000858, 9.998411 
1.5351173e+3, 2.2365439e+2, -731499.25, -872870.44, 11389.822, 0.10784613, -0.5280257, -730587.5, 17567.871, 0.0, 10.000596, 9.998752 
1.5351462e+3, 2.336559e+2, -646164.75, -751286.8, 47608.734, -0.048725963, -0.29441687, -627808.56, 22336.053, 0.0, 10.000385, 9.999011 
1.5351756e+3, 2.436561e+2, -572722.6, -733467.1, 362.25385, -0.11495276, -0.13451445, -572721.8, -20575.645, 0.0, 10.000527, 9.998381 
1.535206e+3, 2.536542e+2, -327434.3, -559210.9, 7422.6333, -0.012905396, -0.18921126, -327196.84, 126970.67, 0.0000004707298, 10.001515, 9.998428 
1.5352358e+3, 2.6365215e+2, -195190.92, -502193.13, 9937.563, 0.03831719, -0.1994745, -194869.6, 161319.36, 0.000008627056, 10.001983, 9.997932 
1.5352648e+3, 2.7365014e+2, -145828.3, -411819.0, 35348.32, 0.0047944104, -0.22456107, -141210.9, 116997.19, 0.00005250251, 10.001593, 9.99806 
1.5352942e+3, 2.8364858e+2, -58153.594, -275906.72, 45277.96, -0.022544658, -0.18964188, -49114.086, 111107.69, 0.00024464625, 10.001321, 9.998465 
1.5353237e+3, 2.9364768e+2, 58029.09, -149164.8, 46367.97, -0.052998163, -0.17536223, 67932.43, 130159.74, 0.0008062841, 10.00136, 9.998637 
1.5353546e+3, 3.0364433e+2, 132438.0, -187683.08, 98836.484, -0.06336938, -0.316272, 160494.53, 160494.53, 0.0018299954, 10.001982, 9.997743 
1.5353869e+3, 3.1364176e+2, 470395.1, 189354.56, 120075.32, 0.0021745474, -0.3891443, 514709.97, 514709.97, 0.0031748605, 10.003371, 9.999657 
1.5448219e+3, 1.2362996e+2, -1815711.9, -1537926.4, 44783.516, 0.08096054, -0.20044325, -1530885.0, 197519.25, 0.019406972, 9.998286, 10.002039 
1.5448521e+3, 1.3363051e+2, -1796980.1, -1535260.0, 14230.68, -0.009225794, -0.32721776, -1534488.5, 95902.52, 0.0117135905, 9.998015, 10.001507 
1.5448824e+3, 1.4363094e+2, -1807416.8, -1548536.9, -8693.545, -0.026438653, -0.39449757, -1548245.3, -15862.631, 0.0052204016, 9.99753, 10.000973 
1.5449116e+3, 1.5363312e+2, -1690427.6, -1420349.4, -72368.875, -0.13813752, -0.30847508, -1402180.0, 32180.799, 0.0014059248, 9.9975605, 10.001171 
1.5449408e+3, 1.6363306e+2, -1640941.0, -1621891.5, -139938.31, -0.1645561, -0.30766845, -1491154.1, -154792.16, 0.00014487762, 9.998433, 9.998677 
1.54497e+3, 1.7362976e+2, -1183927.4, -1375548.0, -60411.254, -0.056447677, -0.5069319, -1166472.0, 71924.37, 0.000001197513, 10.0009985, 9.998461 
1.5449998e+3, 1.836287e+2, -871949.5, -1059152.6, 91192.35, 0.010853795, -0.48903072, -834870.9, 305537.63, 0.0, 10.00198, 9.999489 
1.5450309e+3, 1.9363154e+2, -959824.6, -1011355.9, 39927.527, -0.0002558954, -0.200804, -938071.06, 104311.2, 0.0, 10.000535, 9.999841 
1.545061e+3, 2.036316e+2, -1008333.8, -1113503.1, -85730.83, 0.020777404, -0.11709648, -960345.5, -15963.442, 0.0, 10.000081, 9.998686 
1.5450896e+3, 2.1362719e+2, -727097.6, -930240.6, -79252.05, 0.091678694, -0.44097385, -699837.2, 146585.5, 0.0, 10.001357, 9.998653 
1.5451181e+3, 2.2362496e+2, -559363.3, -789103.8, 16216.248, 0.089895934, -0.516711, -558224.4, 190220.33, 0.0, 10.00179, 9.998745 
1.5451469e+3, 2.3362653e+2, -588867.94, -727959.8, 897.7251, -0.04414323, -0.271209, -588862.2, 61571.78, 0.0, 10.000816, 9.998957 
1.5451762e+3, 2.4362673e+2, -558772.6, -711137.8, 8171.116, -0.10571222, -0.11362943, -558335.6, -5900.221, 0.000000000009610117, 10.000545, 9.998534 
1.545207e+3, 2.536248e+2, -324043.4, -536885.4, 12489.505, -0.04454968, -0.18826178, -323313.03, 131142.94, 0.0000005675007, 10.001446, 9.998623 
1.5452375e+3, 2.63623e+2, -165308.39, -457054.72, 242.78928, 0.0075781085, -0.19683532, -165308.19, 191165.94, 0.000008574752, 10.002068, 9.9981985 
1.545267e+3, 2.7362153e+2, -29685.797, -333493.97, -16408.902, 0.021166831, -0.18914959, -28802.11, 229685.31, 0.000054092365, 10.002285, 9.998275 
1.5452965e+3, 2.836199e+2, 44645.637, -283234.2, -5620.38, 0.028469682, -0.14933161, 44741.95, 205244.22, 0.00025774646, 10.002289, 9.997931 
1.5453258e+3, 2.9361814e+2, 90330.64, -210380.61, -39672.43, -0.007989178, -0.1556213, 95476.516, 157995.38, 0.00084183685, 10.001926, 9.997931 
1.5453565e+3, 3.0361512e+2, 153315.3, -114057.17, 46785.254, -0.045213938, -0.24649674, 161265.45, 161265.45, 0.0018861917, 10.001834, 9.998327 
1.5453891e+3, 3.1361258e+2, 342495.56, 207166.78, -32027.441, -0.02714797, -0.38633975, 349692.56, 349692.56, 0.0032430727, 10.002108, 10.000405 
1.5548202e+3, 1.23597585e+2, -1759452.1, -1446229.3, -83532.94, 0.046668917, -0.37585947, -1425344.5, 303372.97, 0.020587768, 9.9983835, 10.002641 
1.55485e+3, 1.3360052e+2, -1785362.8, -1487754.0, 2783.3208, -0.03422092, -0.28697577, -1487728.0, 142955.17, 0.012455585, 9.997923, 10.001882 
1.5548818e+3, 1.4360292e+2, -1889172.1, -1724926.6, -25523.803, 0.13171004, -0.1305762, -1721051.6, -188392.36, 0.0055746003, 9.997545, 9.99976 
1.554911e+3, 1.536011e+2, -1809576.6, -1658241.8, -61953.59, 0.040459543, -0.29186445, -1636114.5, -201430.75, 0.001515748, 9.997528, 9.99955 
1.5549402e+3, 1.6360039e+2, -1484898.8, -1312069.6, -66940.97, -0.08557893, -0.35135835, -1289174.8, 47517.082, 0.00016035176, 9.998481, 10.000786 
1.5549695e+3, 1.7360196e+2, -995331.94, -976881.0, 42780.777, -0.21090353, -0.3297926, -942342.3, 296326.38, 0.0000013687348, 10.000968, 10.001213 
1.5549998e+3, 1.8360229e+2, -941837.0, -1205986.5, 45978.87, -0.20760098, -0.28721482, -934062.56, 206600.4, 0.0, 10.0019865, 9.998479 
1.5550315e+3, 1.9360054e+2, -1081179.1, -1251771.4, -7230.085, 0.00029757505, -0.3026118, -1080873.3, -38186.652, 0.0, 10.000487, 9.998212 
1.5550621e+3, 2.0359945e+2, -978230.8, -1040308.5, -59870.637, 0.1100856, -0.25879857, -941831.5, 2869.0972, 0.0, 10.000023, 9.999223 
1.5550907e+3, 2.1359989e+2, -677147.3, -804491.25, -20364.602, 0.06301857, -0.18854107, -673969.94, 172724.73, 0.0, 10.001247, 9.999578 
1.5551192e+3, 2.2359927e+2, -596922.75, -832319.6, -17853.816, -0.0016318717, -0.14808968, -595576.3, 153124.36, 0.0, 10.001639, 9.998521 
1.5551473e+3, 2.3359694e+2, -634253.7, -800418.1, -25931.822, -0.08182186, -0.2504678, -630300.75, 20425.725, 0.0, 10.000719, 9.9985075 
1.5551767e+3, 2.4359523e+2, -561693.2, -694780.56, 25293.455, -0.1289127, -0.2653657, -557048.25, -4303.5503, 0.0, 10.000443, 9.998698 
1.555208e+3, 2.5359476e+2, -318168.94, -500072.63, 57112.8, -0.10512125, -0.22162172, -301723.8, 153024.1, 0.0000005355393, 10.001337, 9.998931 
1.555239e+3, 2.6359376e+2, -182203.67, -461169.06, 5945.326, -0.06553061, -0.17141216, -182077.02, 174679.73, 0.000008556659, 10.00193, 9.998236 
1.5552692e+3, 2.7359203e+2, -51563.406, -349347.22, 6249.415, 0.007994709, -0.19371551, -51432.313, 207341.44, 0.000056207, 10.002156, 9.998224 
1.555299e+3, 2.8358975e+2, -25802.695, -401419.84, -23690.543, 0.033263687, -0.18180631, -24314.406, 136481.8, 0.00027237786, 10.002165, 9.99718 
1.5553276e+3, 2.9358676e+2, 21616.688, -329814.22, -37870.863, -0.033465825, -0.2314412, 25651.402, 88477.86, 0.00088338385, 10.001829, 9.997155 
1.5553579e+3, 3.0358422e+2, 112403.19, -155654.58, 47939.387, -0.1021474, -0.22084667, 120718.7, 120718.7, 0.0019680208, 10.001674, 9.998108 
1.5553908e+3, 3.135829e+2, 260046.73, 127195.4, 11234.512, -0.11765056, -0.23255406, 260990.08, 260990.08, 0.0033748897, 10.001759, 10.000002 
1.564819e+3, 1.2356698e+2, -1859641.3, -1540744.4, -127212.0, 0.11279022, -0.38530824, -1496215.6, 232801.25, 0.021849003, 9.997904, 10.002224 
1.5648486e+3, 1.3356969e+2, -1722464.4, -1457039.5, -18237.238, 0.014314645, -0.315894, -1455792.4, 175194.52, 0.013250772, 9.998322, 10.001925 
1.56488e+3, 1.4357278e+2, -1721396.4, -1651492.5, 5653.7026, 0.16142736, -0.0908521, -1651038.3, -118081.12, 0.0059556314, 9.998748, 9.999679 
1.5649101e+3, 1.5357062e+2, -1511268.6, -1528502.8, 60530.207, 0.10539845, -0.27225217, -1458745.3, -23760.85, 0.0016345053, 9.999643, 9.999415 
1.5649399e+3, 1.6357003e+2, -1291650.6, -1174138.4, 92792.67, -0.0050151916, -0.331193, -1123063.9, 213926.77, 0.00017771397, 9.999617, 10.00119 
1.5649699e+3, 1.7357251e+2, -1345245.5, -1091186.9, 21003.408, -0.12923865, -0.26684588, -1089462.3, 149495.47, 0.0000016137079, 9.998326, 10.001707 
1.5650004e+3, 1.8357298e+2, -1462993.4, -1430504.6, -22136.555, -0.14123164, -0.24822786, -1419291.6, -278342.28, 0.0, 9.998287, 9.998721 
1.565032e+3, 1.9357021e+2, -1041698.9, -1210561.6, 41464.5, -0.0050453264, -0.38706475, -1032066.6, 10914.642, 0.0, 10.000654, 9.998417 
1.5650623e+3, 2.03569e+2, -744328.9, -903226.3, 52192.254, 0.059076756, -0.3778544, -728719.06, 216276.66, 0.0, 10.001534, 9.999427 
1.5650907e+3, 2.1357077e+2, -832544.0, -851948.9, 19284.871, -0.0017337283, -0.19550455, -820658.4, 26318.85, 0.0, 10.00008, 9.999803 
1.5651193e+3, 2.2357066e+2, -886473.94, -1010858.25, 24417.111, -0.043766864, -0.10200371, -881852.44, -132873.6, 0.0, 9.999809, 9.998179 
1.5651488e+3, 2.3356743e+2, -534607.5, -797992.4, 4876.6465, -0.048614647, -0.25500536, -534517.25, 116496.875, 0.0, 10.001589, 9.998105 
1.5651788e+3, 2.4356493e+2, -285413.13, -581352.8, 49587.445, -0.059620354, -0.31810087, -277325.3, 275714.38, 0.0, 10.002422, 9.998527 
1.5652095e+3, 2.5356394e+2, -281783.13, -496062.66, 28554.318, -0.09701834, -0.31068677, -278043.3, 177002.89, 0.00000039469393, 10.001645, 9.998808 
1.5652403e+3, 2.6356286e+2, -275318.72, -505469.2, -19570.172, -0.072210684, -0.26162335, -273666.5, 83388.516, 0.000008163994, 10.001294, 9.998236 
1.5652715e+3, 2.7356166e+2, -118294.49, -375693.97, -37319.848, 0.05230408, -0.23375419, -112992.76, 146074.6, 0.000058093792, 10.001682, 9.998264 
1.5653016e+3, 2.835593e+2, -21087.75, -397088.66, -22556.691, 0.102821276, -0.23223953, -19739.385, 141351.05, 0.00028837356, 10.002186, 9.997211 
1.5653305e+3, 2.9355526e+2, 182304.17, -251567.78, -8964.329, 0.014398461, -0.3778943, 182489.31, 245618.64, 0.0009303234, 10.00292, 9.997182 
1.5653604e+3, 3.0355284e+2, 294032.56, -111566.82, 109818.05, -0.07056431, -0.3477627, 321857.5, 321857.5, 0.002071048, 10.003089, 9.997731 
1.565393e+3, 3.135527e+2, 262689.97, 28356.623, 7188.1113, -0.05643843, -0.18929994, 262910.25, 262910.25, 0.0035608946, 10.002164, 9.999139 
1.5748163e+3, 1.2353806e+2, -1965831.4, -1758412.4, -203644.0, 0.0076577226, -0.24540372, -1633590.6, 95712.695, 0.023204513, 9.997904, 10.00071 
1.5748471e+3, 1.3353857e+2, -1751112.8, -1505339.3, 1232.4636, 0.04122278, -0.36512172, -1505333.1, 125963.516, 0.014108494, 9.998293, 10.0015955 
1.574877e+3, 1.4354086e+2, -1629839.1, -1490294.4, 21467.346, -0.027868703, -0.24610154, -1487066.6, 46206.203, 0.0063687824, 9.998852, 10.000748 
1.5749088e+3, 1.535418e+2, -1415957.8, -1330146.4, 101350.54, -0.012070985, -0.24694738, -1262993.8, 172268.17, 0.00176415, 9.999639, 10.000786 
1.5749396e+3, 1.6354218e+2, -1374098.8, -1356926.6, 43991.242, -0.01306129, -0.23692243, -1320691.4, 16565.508, 0.00019721544, 9.999661, 9.999915 
1.5749706e+3, 1.7354152e+2, -1474053.3, -1353540.6, -20652.229, 0.11185125, -0.3144882, -1350099.8, -110837.49, 0.0000019795527, 9.998304, 9.999916 
1.5750016e+3, 1.8354088e+2, -1354018.4, -1211991.1, 39153.414, 0.12512238, -0.3663851, -1201912.8, -60646.246, 0.0, 9.998313, 10.000211 
1.5750319e+3, 1.9354065e+2, -909709.6, -922579.25, 138691.89, -0.08586321, -0.4491282, -777303.3, 265962.0, 0.0, 10.000591, 10.000427 
1.5750612e+3, 2.0354031e+2, -765630.8, -931018.9, 7518.377, -0.21523319, -0.46171302, -765289.75, 179976.52, 0.0, 10.001459, 9.999272 
1.5750891e+3, 2.135399e+2, -887087.06, -941182.4, -30667.793, -0.1762416, -0.446761, -873243.5, -25973.518, 0.0, 9.999975, 9.999241 
1.5751186e+3, 2.2353914e+2, -928281.4, -1073404.5, 66696.79, -0.118024185, -0.37169182, -902285.1, -153005.55, 0.0, 9.999702, 9.9978 
1.5751508e+3, 2.335379e+2, -582253.7, -862133.5, 80490.65, -0.023625169, -0.28848112, -560756.5, 90541.055, 0.0, 10.001438, 9.997738 
1.575182e+3, 2.4353583e+2, -350108.38, -674881.75, 24078.523, 0.005217552, -0.2659767, -348332.9, 204987.61, 0.0, 10.002243, 9.99797 
1.5752113e+3, 2.5353247e+2, -342423.6, -596870.2, 7287.844, -0.085880995, -0.44141132, -342215.03, 113135.0, 0.00000029448665, 10.00153, 9.998172 
1.5752415e+3, 2.6353037e+2, -298459.4, -528832.06, -16923.361, -0.087061726, -0.45008335, -297222.84, 60145.35, 0.000007127328, 10.001186, 9.998129 
1.5752734e+3, 2.7353042e+2, -131334.64, -375475.84, -8709.14, 0.067958035, -0.29749638, -131024.35, 128343.414, 0.00005845978, 10.001568, 9.998322 
1.5753043e+3, 2.8352845e+2, 6023.168, -320876.9, -6620.5625, 0.1365062, -0.28737587, 6157.1963, 167542.67, 0.000301475, 10.0020895, 9.997784 
1.5753338e+3, 2.935236e+2, 203581.31, -173168.19, 34709.633, 0.0451845, -0.58230543, 206752.39, 270181.03, 0.0009761355, 10.002766, 9.997799 
1.5753637e+3, 3.035208e+2, 232694.44, -188523.11, 76755.21, -0.06600808, -0.60526186, 246245.03, 246245.03, 0.0021803575, 10.002894, 9.99728 
1.5753958e+3, 3.13522e+2, 142407.42, -155348.53, 1517.2789, -0.03785506, -0.25329354, 142415.16, 142415.16, 0.0037681665, 10.001904, 9.997984 
1.5848148e+3, 1.235094e+2, -1946445.5, -1837648.0, -88620.07, 0.05092514, -0.16514306, -1788062.5, -58478.313, 0.024665277, 9.998441, 9.999882 
1.584846e+3, 1.335089e+2, -1845873.5, -1633506.4, 31517.414, 0.1093421, -0.31141838, -1628927.6, 2662.0034, 0.0150364665, 9.998014, 10.00083 
1.5848744e+3, 1.4350967e+2, -1712236.5, -1480659.5, 65436.91, -0.13460775, -0.3201535, -1463448.1, 70131.85, 0.0068181083, 9.998086, 10.001173 
1.5849078e+3, 1.535113e+2, -1430276.3, -1269435.9, 71056.72, -0.03404641, -0.31060603, -1242541.3, 193016.11, 0.0019058621, 9.999243, 10.00139 
1.5849397e+3, 1.6351204e+2, -1370959.4, -1406040.5, -28889.58, 0.021412155, -0.28014225, -1354702.4, -17155.08, 0.0002187055, 9.99991, 9.999453 
1.5849704e+3, 1.73511e+2, -1261716.1, -1316165.4, -39254.52, 0.15963703, -0.33329493, -1241169.5, -1609.3071, 0.000002466339, 10.000058, 9.999318 
1.5850012e+3, 1.8351033e+2, -1111717.1, -1081361.0, 95982.305, 0.18261553, -0.36178342, -999364.06, 142203.05, 0.0, 9.99992, 10.000335 
1.585032e+3, 1.9351056e+2, -1041293.9, -954325.4, 56766.785, -0.058544323, -0.4211462, -926301.94, 117258.47, 0.0, 9.999551, 10.000709 
1.5850618e+3, 2.0351033e+2, -1001012.7, -1043484.56, -154770.73, -0.1999054, -0.44017527, -866027.8, 79531.87, 0.0, 9.999832, 9.999293 
1.5850902e+3, 2.135093e+2, -685058.1, -848141.44, -178527.47, -0.1349241, -0.48102942, -570331.8, 277237.16, 0.0, 10.00136, 9.999226 
1.5851198e+3, 2.2350824e+2, -587444.6, -906314.2, -10999.659, -0.081079066, -0.43537813, -587065.6, 162515.45, 0.0, 10.002046, 9.997822 
1.5851517e+3, 2.3350729e+2, -570422.2, -854428.4, 12952.046, -0.059500918, -0.3209026, -569832.75, 81762.67, 0.0, 10.001515, 9.997762 
1.585183e+3, 2.4350545e+2, -513599.28, -758622.2, -26733.785, -0.041699387, -0.27132097, -510716.34, 42899.383, 0.0, 10.001167, 9.997896 
1.585213e+3, 2.5350225e+2, -389513.2, -630394.06, -35570.645, -0.040487185, -0.41727847, -384370.3, 71273.7, 0.00000023115544, 10.001264, 9.998058 
1.5852435e+3, 2.634999e+2, -259577.86, -509435.66, 6001.946, -0.013533198, -0.4494233, -259433.77, 98231.26, 0.0000061293663, 10.001456, 9.998126 
1.5852751e+3, 2.7349895e+2, -73532.91, -342930.22, -3308.4595, 0.059882894, -0.392242, -73492.28, 186179.98, 0.000059474278, 10.001956, 9.998352 
1.5853061e+3, 2.8349704e+2, 26661.975, -318257.22, -7822.0576, 0.09962555, -0.37679663, 26839.271, 188528.53, 0.00031290337, 10.002272, 9.997707 
1.5853362e+3, 2.9349366e+2, 122318.1, -214106.25, -47078.62, 0.04987879, -0.5177979, 128782.01, 192502.16, 0.001018314, 10.00222, 9.997768 
1.5853663e+3, 3.0349052e+2, 233096.69, -158177.84, 12161.161, -0.0679645, -0.5877233, 233474.3, 233474.3, 0.0022823438, 10.0027275, 9.9976015 
1.5853982e+3, 3.1349018e+2, 443035.9, 10067.93, -42644.22, -0.07044271, -0.41620713, 447196.06, 447196.06, 0.0039566252, 10.003874, 9.99819 
1.594814e+3, 1.234811e+2, -1937273.0, -1848415.6, -14544.776, 0.09596121, -0.16832016, -1846095.4, -116237.21, 0.026239868, 9.998538, 9.999771 
1.5948446e+3, 1.3348085e+2, -1938463.8, -1822179.1, 24303.932, 0.15840574, -0.1663559, -1817303.9, -185439.97, 0.016040104, 9.997995, 9.999543 
1.5948716e+3, 1.4347936e+2, -1722843.5, -1525666.1, 89468.375, -0.25015888, -0.31689987, -1491122.1, 42755.1, 0.0073062, 9.998166, 10.000833 
1.5949072e+3, 1.5347934e+2, -1447918.9, -1309196.5, 121985.15, -0.037123416, -0.44961753, -1238231.8, 197637.06, 0.002060233, 9.999245, 10.001123 
1.5949397e+3, 1.6347982e+2, -1338828.3, -1348037.6, -31418.828, 0.010254033, -0.44261473, -1311678.5, 26181.428, 0.00024185247, 9.9999485, 9.999831 
1.5949684e+3, 1.734811e+2, -1231319.9, -1248616.1, -26550.488, -0.049310584, -0.3123203, -1212044.5, 27805.867, 0.0000030340082, 10.00004, 9.99979 
1.594999e+3, 1.8348135e+2, -1188807.4, -1248766.5, 72868.65, -0.0510086, -0.2261115, -1139992.1, 1858.4078, 0.0, 9.999948, 9.999171 
1.5950324e+3, 1.9348001e+2, -1155298.4, -1176148.4, 52050.734, -0.001557792, -0.3003056, -1112638.9, -68773.375, 0.0, 9.99949, 9.999214 
1.5950641e+3, 2.0347907e+2, -1000287.9, -1024021.2, -114819.04, 0.020694502, -0.3101507, -896723.9, 49151.242, 0.0, 9.999755, 9.999462 
1.5950933e+3, 2.1347903e+2, -675541.25, -789582.8, -112460.945, 0.037031166, -0.29995844, -606471.5, 241401.94, 0.0, 10.001201, 9.9997015 
1.5951224e+3, 2.2347811e+2, -581073.0, -864530.56, -28838.297, -0.024111558, -0.28327855, -578168.8, 171712.72, 0.0, 10.00191, 9.998178 
1.5951517e+3, 2.3347576e+2, -568725.5, -822043.6, 5203.567, -0.22492287, -0.34427726, -568618.7, 83287.016, 0.0, 10.001382, 9.998052 
1.595182e+3, 2.4347393e+2, -515883.56, -728906.8, -31051.084, -0.2777816, -0.31961197, -511449.72, 42473.89, 0.0, 10.001021, 9.998168 
1.5952143e+3, 2.534732e+2, -390191.78, -595122.56, -20892.752, -0.046595447, -0.2514655, -388083.44, 67846.08, 0.00000009760233, 10.001116, 9.998366 
1.5952459e+3, 2.634712e+2, -273641.06, -517450.9, 11917.752, 0.064855605, -0.26371107, -273059.9, 84886.805, 0.0000054247644, 10.001355, 9.998123 
1.595276e+3, 2.7346727e+2, -95099.24, -365098.5, 28400.857, -0.048120435, -0.50301045, -92144.13, 167836.1, 0.00006233866, 10.001848, 9.998255 
1.5953065e+3, 2.834649e+2, -39581.16, -425548.22, -15472.987, -0.09668075, -0.49982738, -38961.86, 123040.71, 0.0003236723, 10.002141, 9.997035 
1.5953375e+3, 2.9346484e+2, 54212.13, -328039.5, -29438.434, -0.056793727, -0.23564753, 56465.99, 120473.96, 0.0010474791, 10.002093, 9.997054 
1.5953682e+3, 3.0346143e+2, 263970.03, -39883.617, 44515.63, -0.16877437, -0.32767466, 270357.44, 270357.44, 0.0023494298, 10.002524, 9.998501 
1.5954001e+3, 3.134574e+2, 474155.63, 159753.13, 40290.617, -0.29829785, -0.64021856, 479236.75, 479236.75, 0.004074849, 10.003535, 9.99938 
1.604812e+3, 1.234494e+2, -2102951.8, -1870685.5, -95963.875, 0.111959144, -0.2289288, -1836166.8, -105998.234, 0.027939666, 9.997162, 10.000281 
1.6048434e+3, 1.3344967e+2, -1845835.8, -1770388.0, -84202.805, 0.22463657, -0.17691366, -1715844.9, -83676.58, 0.01712635, 9.998612, 9.999596 
1.6048715e+3, 1.4344841e+2, -1568348.6, -1483828.3, 63529.684, -0.1281392, -0.29187796, -1449786.8, 84392.69, 0.007836914, 9.999399, 10.000509 
1.6049066e+3, 1.5344812e+2, -1456120.4, -1353825.1, 59401.38, -0.018276637, -0.41629192, -1326585.3, 109590.74, 0.0022287087, 9.999385, 10.000734 
1.604939e+3, 1.6344823e+2, -1420951.4, -1394882.0, -100482.17, -0.022520062, -0.42036855, -1306592.6, 31579.059, 0.00026665046, 9.999415, 9.999767 
1.6049679e+3, 1.7344917e+2, -1231722.5, -1247737.6, -149999.47, -0.092922725, -0.32278684, -1089517.0, 150648.0, 0.0000036433328, 10.000023, 9.99981 
1.6049986e+3, 1.8344948e+2, -1150048.4, -1216666.0, -41510.46, -0.085603185, -0.23786186, -1130135.0, 12029.416, 0.0, 10.000157, 9.999289 
1.6050318e+3, 1.9344866e+2, -1110630.1, -1137725.4, 32398.104, -0.0036256998, -0.2725918, -1089061.3, -44887.305, 0.0, 9.999715, 9.999368 
1.6050641e+3, 2.0344798e+2, -1008682.4, -1037708.06, 858.37787, 0.053620856, -0.2612984, -1008657.06, -62475.816, 0.0, 9.999743, 9.999374 
1.6050947e+3, 2.1344776e+2, -742762.56, -832323.06, -49225.56, 0.08188036, -0.25601074, -720996.44, 127186.11, 0.0, 10.000792, 9.999599 
1.6051245e+3, 2.2344677e+2, -636928.75, -845232.8, -28174.672, 0.024748612, -0.25588566, -633185.2, 117005.93, 0.0, 10.00134, 9.998571 
1.6051531e+3, 2.334447e+2, -573444.3, -761688.4, -13517.891, -0.20129426, -0.3399853, -572478.56, 79731.41, 0.0, 10.001101, 9.99858 
1.605183e+3, 2.4344297e+2, -503801.22, -716494.06, -9939.619, -0.265382, -0.3419859, -503337.75, 50887.46, 0.0, 10.001058, 9.998255 
1.6052158e+3, 2.5344202e+2, -348705.53, -572127.25, -28920.406, -0.020616556, -0.29248607, -345022.7, 111209.79, 0.000000007673713, 10.001379, 9.998412 
1.6052476e+3, 2.634399e+2, -218213.17, -502116.53, 17989.893, 0.08147759, -0.3138501, -217077.75, 141173.03, 0.0000049768487, 10.001792, 9.998016 
1.6052777e+3, 2.7343607e+2, -36006.09, -357395.34, -1621.7351, -0.075173885, -0.52823967, -35997.91, 224287.23, 0.00006447964, 10.0023365, 9.998078 
1.6053085e+3, 2.8343388e+2, 52713.813, -357800.8, -14816.036, -0.13052647, -0.4999681, 53247.848, 215554.0, 0.0003297949, 10.002664, 9.997249 
1.6053401e+3, 2.934344e+2, 168201.44, -235696.8, 11161.156, -0.03472595, -0.20525861, 168509.63, 232815.38, 0.001054947, 10.002723, 9.99738 
1.6053711e+3, 3.0343094e+2, 309838.47, -32016.154, 144819.88, -0.1314097, -0.3200903, 362940.03, 362940.03, 0.0023614643, 10.002897, 9.998368 
1.6054039e+3, 3.1342652e+2, 429585.5, 157036.61, 15939.651, -0.22782351, -0.6549848, 430514.53, 430514.53, 0.00409404, 10.003129, 9.999553 
1.614809e+3, 1.2341479e+2, -2006110.3, -1702878.6, 7032.5303, 0.054480925, -0.29927853, -1702715.6, 27795.262, 0.02978273, 9.997277, 10.001393 
1.6148421e+3, 1.334158e+2, -1751768.1, -1575419.9, -26347.996, 0.2268035, -0.31265622, -1571567.4, 60931.227, 0.018308382, 9.998603, 10.000951 
1.6148737e+3, 1.4341718e+2, -1580090.6, -1524847.3, 61655.254, 0.13299856, -0.2245395, -1484909.1, 49574.273, 0.008418617, 9.999464, 10.000197 
1.6149057e+3, 1.5341768e+2, -1498528.0, -1442401.5, 64764.195, -0.053319234, -0.20908779, -1399881.9, 36596.496, 0.0024150687, 9.99939, 10.000123 
1.6149372e+3, 1.6341726e+2, -1438055.6, -1455217.0, -95072.59, -0.16412783, -0.21234131, -1351177.3, -12694.428, 0.0002938315, 9.999507, 9.999315 
1.6149686e+3, 1.7341529e+2, -1262765.0, -1314636.3, -120309.75, -0.042523425, -0.36348954, -1165627.1, 74876.414, 0.000004294035, 10.000019, 9.999359 
1.6149998e+3, 1.8341464e+2, -1053365.1, -1019849.0, -62308.51, -0.0035774745, -0.4020363, -972084.4, 170424.64, 0.0, 10.000177, 10.000627 
1.6150305e+3, 1.9341657e+2, -999620.9, -898762.1, 23218.7, -0.13642749, -0.32953736, -893673.6, 150811.56, 0.0, 9.999678, 10.001027 
1.6150615e+3, 2.0341718e+2, -1042977.1, -1089837.1, 18564.25, -0.18876463, -0.27119622, -1036514.0, -90036.945, 0.0, 9.999661, 9.999055 
1.6150941e+3, 2.1341561e+2, -810588.06, -945770.5, -2241.4788, -0.06357802, -0.33680847, -810550.9, 37944.87, 0.0, 10.000673, 9.998878 
1.6151255e+3, 2.234143e+2, -637141.6, -803968.8, -40253.715, -0.007780229, -0.3411493, -627936.7, 122572.86, 0.0, 10.001164, 9.998938 
1.6151555e+3, 2.3341388e+2, -551960.4, -685509.4, -13020.918, -0.081984945, -0.31541485, -550702.7, 101807.93, 0.0, 10.000968, 9.9991665 
1.6151857e+3, 2.4341235e+2, -521379.6, -730772.0, -11745.618, -0.10939574, -0.3315676, -520722.78, 33799.42, 0.0, 10.000956, 9.998206 
1.615217e+3, 2.534089e+2, -377046.0, -606578.7, -5348.261, -0.047443353, -0.5177968, -376921.47, 79629.54, 0.00000000987263, 10.001273, 9.998224 
1.6152483e+3, 2.6340616e+2, -263234.47, -562340.4, 28380.492, -0.04180859, -0.5782631, -260565.42, 98010.43, 0.000004852571, 10.001652, 9.997669 
1.6152798e+3, 2.7340493e+2, -82595.766, -416473.5, 34619.855, -0.11681281, -0.4965425, -79043.81, 181546.16, 0.000064250504, 10.00219, 9.997737 
1.6153115e+3, 2.8340384e+2, 95881.234, -236629.56, -22135.045, -0.10627187, -0.37753022, 97348.28, 259949.86, 0.00032947832, 10.0025215, 9.998153 
1.6153434e+3, 2.9340264e+2, 225554.44, -84339.125, 27628.29, 0.003894033, -0.37503248, 227998.33, 292610.22, 0.0010456778, 10.002577, 9.998495 
1.6153747e+3, 3.033989e+2, 208752.44, -188596.1, 136181.22, -0.079110965, -0.5343103, 250944.92, 250944.92, 0.002329441, 10.002695, 9.997372 
1.6154088e+3, 3.1339723e+2, 331917.03, 48017.598, 69394.18, -0.085848324, -0.47145852, 347971.34, 347971.34, 0.0040265364, 10.002773, 9.998947 
1.624808e+3, 1.23381816e+2, -1729955.3, -1585287.1, 167785.98, 0.13540481, -0.35107303, -1474907.4, 255922.92, 0.03179242, 9.999246, 10.001273 
1.6248403e+3, 1.3338315e+2, -1491746.1, -1436397.8, 26695.504, 0.11379216, -0.34931555, -1425620.5, 207195.08, 0.019603958, 10.000338, 10.001082 
1.6248742e+3, 1.4338468e+2, -1493755.4, -1506596.1, 23415.07, 0.20583297, -0.2421158, -1475896.4, 58904.496, 0.009062119, 10.000164, 9.999986 
1.6249055e+3, 1.5338542e+2, -1591590.4, -1501607.8, 32222.82, 0.011501836, -0.18431418, -1491258.9, -54462.613, 0.002624408, 9.998819, 9.999988 
1.6249369e+3, 1.6338538e+2, -1577607.4, -1472131.4, -8573.516, -0.08358978, -0.16300608, -1471439.0, -132640.6, 0.00032476612, 9.998351, 9.999746 
1.624969e+3, 1.7338371e+2, -1272106.9, -1254408.0, 28788.42, 0.018368583, -0.33894044, -1233139.5, 7674.2754, 0.000005034694, 9.999699, 9.999913 
1.6250004e+3, 1.8338306e+2, -1035681.7, -1024713.2, 57594.266, 0.0379455, -0.40340066, -972342.6, 170475.05, 0.0, 10.000358, 10.000511 
1.6250303e+3, 1.9338462e+2, -985699.4, -906959.6, -18684.346, -0.101760454, -0.35083637, -902750.94, 142046.33, 0.0, 9.999857, 10.000875 
1.6250613e+3, 2.0338504e+2, -1050385.5, -1081844.4, -36697.7, -0.16498633, -0.3076457, -1026188.25, -79397.59, 0.0, 9.999569, 9.99915 
1.625094e+3, 2.1338356e+2, -933485.94, -988158.6, -9060.756, -0.078181446, -0.37535542, -932023.44, -83215.54, 0.0, 9.999763, 9.999025 
1.6251262e+3, 2.2338246e+2, -745744.56, -847609.5, -7005.0083, -0.023364767, -0.37165844, -745265.1, 5554.587, 0.0, 10.000364, 9.99903 
1.625157e+3, 2.3338228e+2, -448801.3, -631032.06, -34845.477, -0.045541268, -0.32810566, -442365.6, 210453.38, 0.0, 10.001638, 9.999227 
1.6251881e+3, 2.4338095e+2, -294071.6, -615463.3, -46305.363, -0.039226837, -0.32587552, -287533.06, 267295.97, 0.0, 10.002498, 9.998249 
1.6252193e+3, 2.533776e+2, -172606.1, -509098.2, -54098.07, -0.009204775, -0.5079226, -164122.6, 292735.6, 0.000000011745934, 10.002667, 9.998225 
1.6252504e+3, 2.6337484e+2, -129172.28, -507441.66, 10229.224, -0.030932881, -0.5618273, -128895.87, 229987.83, 0.0000048598445, 10.002616, 9.997582 
1.6252816e+3, 2.7337366e+2, -85188.016, -431107.6, 8549.735, -0.13500178, -0.46450257, -84976.83, 175921.58, 0.00006262469, 10.002224, 9.997621 
1.6253138e+3, 2.833725e+2, 45697.676, -237959.98, -29455.73, -0.10371319, -0.35514712, 48724.145, 211634.97, 0.0003255941, 10.002087, 9.998352 
1.6253468e+3, 2.9337105e+2, 223220.84, -61949.3, -77683.97, 0.105473354, -0.39709315, 243009.72, 307931.9, 0.0010299269, 10.002454, 9.998711 
1.6253783e+3, 3.033675e+2, 182980.95, -243241.47, 38121.07, 0.025452478, -0.5305481, 186363.64, 186363.64, 0.002274669, 10.002682, 9.997025 
1.625411e+3, 3.1336558e+2, 321279.8, 16401.9, -4787.3315, -0.11253022, -0.43837658, 321354.97, 321354.97, 0.0039006188, 10.002751, 9.998785 
1.634808e+3, 1.23350166e+2, -1822835.6, -1788475.8, 67121.29, 0.17854866, -0.45152637, -1736370.6, -5241.858, 0.03398967, 9.99931, 9.999796 
1.6348378e+3, 1.3335179e+2, -1577235.5, -1621289.9, 69321.46, -0.19337244, -0.29395422, -1526525.8, 106592.945, 0.02102759, 10.000379, 9.999767 
1.6348723e+3, 1.433508e+2, -1477789.4, -1502830.0, -37617.4, -0.014031157, -0.35463554, -1450663.5, 84469.5, 0.009775217, 10.000279, 9.999961 
1.6349052e+3, 1.5335153e+2, -1568621.6, -1449952.4, -12805.13, 0.08527278, -0.33517426, -1448586.4, -11458.335, 0.002860367, 9.9988, 10.000353 
1.6349377e+3, 1.6335271e+2, -1483599.5, -1284576.6, 17652.418, 0.13671352, -0.26690754, -1283023.0, 56093.598, 0.00036087315, 9.998375, 10.001026 
1.6349688e+3, 1.7335443e+2, -1172571.8, -1048077.56, 85500.43, 0.02205319, -0.24296848, -1004565.4, 236530.48, 0.000005927034, 9.999697, 10.001333 
1.6350001e+3, 1.8335474e+2, -1126983.1, -1225310.6, 38456.895, -0.04138497, -0.23626722, -1113728.9, 29361.605, 0.0, 10.0004, 9.999117 
1.6350316e+3, 1.9335276e+2, -1126049.4, -1193075.5, -31204.54, 0.024359718, -0.3474002, -1113771.1, -68660.57, 0.0, 9.999829, 9.99893 
1.6350631e+3, 2.0335141e+2, -1027884.3, -1017008.4, -41909.22, 0.04054681, -0.38860565, -980185.8, -33062.27, 0.0, 9.999492, 9.999632 
1.6350943e+3, 2.133515e+2, -880448.4, -860350.2, 9250.264, -0.038108237, -0.389078, -856740.94, -7620.32, 0.0, 9.999678, 9.9999485 
1.6351256e+3, 2.2335109e+2, -787052.5, -893816.9, 27459.883, -0.117254324, -0.35823736, -780403.8, -29280.62, 0.0, 10.0001955, 9.998791 
1.6351576e+3, 2.3335e+2, -502890.03, -708221.9, 23068.996, -0.162435, -0.3667662, -500330.16, 152803.83, 0.0, 10.001486, 9.998768 
1.6351898e+3, 2.4334884e+2, -323512.97, -626924.94, -42506.504, -0.13422687, -0.3238334, -317670.53, 237474.89, 0.0, 10.002287, 9.99827 
1.6352223e+3, 2.5334778e+2, -185444.17, -497713.22, -36800.27, 0.012214357, -0.28297436, -181165.95, 275989.63, 0.000000006263202, 10.002513, 9.998374 
1.6352537e+3, 2.6334584e+2, -139691.0, -504910.28, -9796.025, 0.018630922, -0.27020735, -139428.44, 219746.39, 0.000005059976, 10.002496, 9.997665 
1.6352832e+3, 2.7334234e+2, -92049.46, -425808.3, 11497.212, -0.21744244, -0.41661718, -91653.875, 169555.1, 0.000060713708, 10.00213, 9.997707 
1.6353148e+3, 2.833399e+2, -8162.6777, -325187.16, -26944.629, -0.22163309, -0.42002454, -5888.901, 157344.28, 0.0003182201, 10.001988, 9.997796 
1.63535e+3, 2.9333946e+2, 155430.23, -169781.84, -44271.35, 0.16356151, -0.29366195, 161349.2, 226586.75, 0.0010069184, 10.002323, 9.998028 
1.6353816e+3, 3.0333668e+2, 159411.2, -240606.92, 29789.047, 0.0826584, -0.31456935, 161617.4, 161617.4, 0.0022050568, 10.002469, 9.997139 
1.6354111e+3, 3.1333184e+2, 300243.47, 50247.703, 40983.656, -0.42983896, -0.5504568, 306790.75, 306790.75, 0.00374414, 10.002433, 9.999161 
1.6448075e+3, 1.2331856e+2, -1853574.6, -1814208.1, -69954.67, 0.2062432, -0.48513833, -1761220.4, -29783.969, 0.036383986, 9.999156, 9.999702 
1.6448373e+3, 1.3332014e+2, -1861748.3, -1828443.6, 69875.64, -0.19638753, -0.26995957, -1773263.5, -139834.02, 0.022584815, 9.998715, 9.999149 
1.6448714e+3, 1.4331868e+2, -1767139.1, -1628488.4, 2892.9565, -0.031517893, -0.34702632, -1628428.0, -92978.54, 0.010560797, 9.998232, 10.000084 
1.644904e+3, 1.5331927e+2, -1488134.6, -1383331.3, 4189.133, 0.08811899, -0.3669401, -1383164.0, 54279.844, 0.0031241647, 9.999216, 10.000615 
1.6449368e+3, 1.6332044e+2, -1300605.6, -1196247.5, 31024.695, 0.16308957, -0.3166546, -1187720.9, 151710.69, 0.0004029895, 9.999631, 10.001029 
1.644968e+3, 1.7332259e+2, -1266825.1, -1100765.3, -25514.043, 0.014996418, -0.24474204, -1096933.6, 144473.7, 0.0000070009137, 9.999077, 10.001276 
1.6449997e+3, 1.8332307e+2, -1321198.1, -1322501.3, -78757.1, -0.035456043, -0.21266216, -1243089.9, -99689.1, 0.0, 9.999095, 9.999067 
1.6450326e+3, 1.9332087e+2, -1035443.94, -1155554.9, -32981.793, 0.11502497, -0.33983824, -1026983.3, 18440.273, 0.0, 10.000484, 9.998865 
1.6450645e+3, 2.0331939e+2, -770511.6, -912140.25, 22176.75, 0.15959239, -0.3850381, -767120.3, 180317.8, 0.0, 10.001328, 9.999471 
1.6450949e+3, 2.1331954e+2, -675625.6, -774210.5, -23149.848, -0.010945521, -0.36579475, -670460.2, 178973.47, 0.0, 10.001146, 9.999822 
1.6451259e+3, 2.23319e+2, -680205.94, -838289.7, -9942.733, -0.14102378, -0.3419668, -679583.06, 71853.62, 0.0, 10.000913, 9.998836 
1.6451584e+3, 2.3331724e+2, -624083.9, -757561.0, 7990.437, -0.17657457, -0.42137784, -623607.25, 29845.975, 0.0, 10.000617, 9.998856 
1.6451912e+3, 2.4331596e+2, -559040.44, -713077.2, -16062.636, -0.123226404, -0.40347147, -557383.25, -1917.5111, 0.0, 10.00056, 9.998508 
1.6452244e+3, 2.533159e+2, -392404.6, -573244.1, -22059.908, 0.055820927, -0.29053202, -389752.47, 67715.64, 0.000000005166704, 10.000987, 9.998595 
1.6452563e+3, 2.6331466e+2, -240831.28, -524135.7, 35354.54, 0.0835461, -0.227071, -236485.9, 122994.9, 0.000005473011, 10.001676, 9.997919 
1.6452861e+3, 2.7331135e+2, 54343.29, -326229.47, 37492.664, -0.17605022, -0.38408336, 58001.76, 319514.6, 0.00005878461, 10.003018, 9.997952 
1.6453178e+3, 2.8330857e+2, 209358.78, -283039.6, 8706.539, -0.20449609, -0.40922442, 209512.67, 373053.4, 0.00030601537, 10.003766, 9.997227 
1.6453527e+3, 2.9330742e+2, 217465.72, -222722.7, -46140.07, 0.16985035, -0.27562958, 222250.06, 287805.06, 0.0009737511, 10.003129, 9.997267 
1.6453843e+3, 3.0330512e+2, 213469.95, -198339.17, 63225.344, 0.10733105, -0.21245028, 222958.38, 222958.38, 0.0021281093, 10.002725, 9.997314 
1.6454142e+3, 3.1330025e+2, 345464.66, 94654.01, 30223.084, -0.3527461, -0.49017084, 349055.2, 349055.2, 0.0035924353, 10.002642, 9.999349 
1.6548045e+3, 1.2328733e+2, -1725545.8, -1572578.8, -225146.3, -0.046525776, -0.39787757, -1411279.6, 320470.7, 0.03897044, 9.999267, 10.001359 
1.6548383e+3, 1.3328855e+2, -1856426.6, -1803594.1, 44051.465, 0.024059279, -0.2493629, -1778645.5, -144900.58, 0.024272982, 9.99865, 9.999354 
1.6548708e+3, 1.4328863e+2, -1750823.5, -1591585.0, 10807.879, 0.07713147, -0.2017907, -1590854.8, -55107.156, 0.0114189135, 9.998215, 10.000347 
1.654902e+3, 1.5328887e+2, -1481328.8, -1368948.8, 51907.84, -0.05767426, -0.26588973, -1348642.1, 89099.94, 0.0034161112, 9.999216, 10.000715 
1.654934e+3, 1.6328873e+2, -1371691.6, -1370993.4, 8240.699, -0.11336239, -0.29694724, -1363094.4, -23352.95, 0.00045137366, 9.999733, 9.999785 
1.6549663e+3, 1.7328826e+2, -1370464.5, -1314351.9, -41726.305, -0.076982394, -0.34495324, -1292126.6, -50379.387, 0.000008273259, 9.999068, 9.999813 
1.6549993e+3, 1.832881e+2, -1234960.5, -1151986.6, -45609.984, -0.017037427, -0.34041217, -1131817.8, 11930.427, 0.0, 9.999122, 10.00023 
1.6550331e+3, 1.9328889e+2, -922847.8, -916833.75, 26301.523, 0.09913721, -0.3317783, -893367.9, 152369.53, 0.0, 10.00045, 10.000527 
1.6550656e+3, 2.0328893e+2, -834508.56, -1021783.3, 16179.631, 0.1068997, -0.28990933, -833121.0, 114613.945, 0.0, 10.001233, 9.998762 
1.6550955e+3, 2.1328774e+2, -776673.25, -955824.7, -23541.785, -0.07019837, -0.29316068, -773631.4, 76115.23, 0.0, 10.001023, 9.998634 
1.6551265e+3, 2.232861e+2, -679196.0, -803327.3, -30271.207, -0.1852344, -0.32250744, -672207.4, 79553.58, 0.0, 10.000771, 9.9991455 
1.6551591e+3, 2.3328394e+2, -600590.2, -680230.94, 9044.734, -0.16890076, -0.4997062, -599575.9, 54201.85, 0.0, 10.000491, 9.999452 
1.6551921e+3, 2.4328229e+2, -553454.0, -669673.2, -8985.471, -0.10741736, -0.56832355, -552763.44, 3027.7397, 0.0, 10.0004225, 9.998872 
1.6552253e+3, 2.53282e+2, -386403.03, -531577.94, 5871.2114, 0.050362155, -0.5115241, -386165.97, 71628.67, 0.00000000856411, 10.0008745, 9.998927 
1.6552582e+3, 2.6328146e+2, -239136.63, -498406.1, 69661.95, 0.08798954, -0.41052988, -221604.95, 138195.98, 0.0000057188686, 10.00157, 9.998153 
1.65529e+3, 2.7328035e+2, 50476.62, -296256.34, 100279.31, -0.102915004, -0.36824965, 77389.63, 339202.2, 0.00005715205, 10.002849, 9.998242 
1.6553222e+3, 2.8327823e+2, 130506.45, -389306.1, -15604.072, -0.15638919, -0.3211402, 130974.445, 294810.6, 0.00029400203, 10.00351, 9.996624 
1.6553546e+3, 2.932748e+2, 139363.1, -350923.97, -52171.285, 0.03607022, -0.34651893, 144853.16, 210730.0, 0.0009429052, 10.00297, 9.996466 
1.6553861e+3, 3.032726e+2, 181354.4, -197610.0, 47036.14, -0.004543834, -0.22732097, 187105.16, 187105.16, 0.0020703655, 10.00246, 9.997438 
1.6554198e+3, 3.1327012e+2, 284093.72, 46924.813, 84439.76, -0.09275345, -0.30160582, 311085.2, 311085.2, 0.003493175, 10.002295, 9.999188 
1.6648029e+3, 1.2325694e+2, -1768945.3, -1619443.3, -141708.53, -0.13427489, -0.32386535, -1533978.6, 198073.05, 0.041736465, 9.99904, 10.001148 
1.6648392e+3, 1.3325709e+2, -1738741.5, -1756639.1, 63475.004, 0.22657222, -0.26943043, -1683587.6, -49532.32, 0.026087236, 9.999476, 9.999287 
1.66487e+3, 1.4325789e+2, -1586984.0, -1525162.8, 49731.566, 0.10984811, -0.14173886, -1497518.3, 38531.02, 0.012349877, 9.999405, 10.000224 
1.664901e+3, 1.5325756e+2, -1461896.4, -1372021.9, 62731.438, -0.09430983, -0.25011334, -1339793.1, 98254.54, 0.003737191, 9.99942, 10.000586 
1.6649327e+3, 1.6325696e+2, -1444213.0, -1452284.6, 29114.672, -0.17710102, -0.30288163, -1418855.8, -78804.53, 0.00050616945, 9.999458, 9.999349 
1.6649657e+3, 1.7325595e+2, -1297567.0, -1337212.5, 26223.094, -0.060960967, -0.35472313, -1284517.4, -42454.152, 0.000009797576, 9.999815, 9.999295 
1.6649991e+3, 1.8325554e+2, -1125489.9, -1108735.0, 72057.0, 0.033203084, -0.3427443, -1044570.1, 99497.77, 0.0, 9.999925, 10.000132 
1.6650327e+3, 1.9325665e+2, -998671.0, -946606.4, 9677.0, 0.051076673, -0.30317926, -944865.94, 101188.72, 0.0, 9.9999275, 10.000556 
1.6650651e+3, 2.0325677e+2, -1015640.75, -1089584.6, -54903.945, 0.028214114, -0.26327953, -986420.75, -38369.652, 0.0, 9.999906, 9.998936 
1.6650961e+3, 2.132553e+2, -928405.25, -1004133.8, -14762.52, -0.053005256, -0.31362656, -925629.2, -75565.72, 0.0, 9.999876, 9.998857 
1.6651276e+3, 2.2325365e+2, -776546.8, -845889.5, 58206.3, -0.10405351, -0.35981303, -743468.06, 8608.934, 0.0, 10.00009, 9.999169 
1.6651602e+3, 2.3325194e+2, -553026.8, -654533.25, 33735.254, -0.109372556, -0.49380317, -542837.8, 111252.555, 0.0, 10.0008135, 9.9994545 
1.6651933e+3, 2.4325046e+2, -393324.84, -602139.9, 3755.6912, -0.08248634, -0.5431559, -393257.3, 162845.23, 0.0, 10.001542, 9.998812 
1.6652264e+3, 2.5324965e+2, -188152.11, -441855.75, -22177.7, 0.0038046401, -0.531311, -186228.02, 271882.75, 0.0000000057748837, 10.00225, 9.99889 
1.6652595e+3, 2.632488e+2, -147551.06, -469972.1, 18185.713, 0.039216667, -0.44980776, -146528.58, 213591.61, 0.0000055479773, 10.002282, 9.998 
1.6652925e+3, 2.7324787e+2, -215111.0, -456216.72, -10553.176, -0.04168745, -0.36686996, -214649.97, 47482.11, 0.000055344583, 10.001145, 9.997976 
1.6653252e+3, 2.8324583e+2, -244077.27, -525857.25, -88257.68, -0.052475315, -0.31008577, -218716.22, -54560.742, 0.00028408016, 10.000743, 9.997014 
1.6653568e+3, 2.9324263e+2, 811.54706, -358376.13, -74497.93, 0.032997772, -0.35432315, 15649.928, 81841.445, 0.00092112675, 10.001782, 9.996977 
1.6653885e+3, 3.0324084e+2, 214456.77, -147572.92, 97284.555, -0.010338981, -0.24523236, 238942.92, 238942.92, 0.0020421273, 10.002542, 9.997741 
1.6654235e+3, 3.132385e+2, 248793.14, 13396.189, 73819.195, 0.07235437, -0.3167046, 270027.03, 270027.03, 0.003463114, 10.002151, 9.99902 
1.6748014e+3, 1.2322782e+2, -1919947.5, -1923551.0, -42053.074, -0.22718883, -0.23027359, -1879657.6, -147321.89, 0.044670317, 9.999011, 9.999028 
1.6748399e+3, 1.33226e+2, -1766119.3, -1815897.8, 74021.695, 0.33190122, -0.31945783, -1712914.5, -78556.31, 0.028026333, 9.999491, 9.998875 
1.6748682e+3, 1.432265e+2, -1604100.1, -1578637.6, 39194.19, -0.030180974, -0.18429191, -1550158.9, -13804.357, 0.013357116, 9.999477, 9.999821 
1.6749004e+3, 1.5322547e+2, -1494974.4, -1440246.8, 71965.66, -0.09678231, -0.3209499, -1390618.1, 47742.098, 0.004090086, 9.999409, 10.000128 
1.6749331e+3, 1.6322502e+2, -1414862.1, -1401107.8, 30240.254, -0.116109736, -0.3449796, -1376972.5, -36610.773, 0.0005678562, 9.999497, 9.999682 
1.6749664e+3, 1.732257e+2, -1269956.9, -1272972.0, 45748.652, -0.003791568, -0.26861957, -1225691.0, 16664.115, 0.000011659807, 9.999789, 9.99975 
1.6749993e+3, 1.8322557e+2, -1207969.8, -1292408.1, 63578.035, 0.025961543, -0.20463902, -1173869.6, -29511.82, 0.0, 9.999966, 9.998859 
1.6750312e+3, 1.9322412e+2, -1121007.5, -1194009.1, 15865.711, -0.108702846, -0.2561272, -1117708.5, -71332.914, 0.0, 9.99989, 9.998883 
1.6750634e+3, 2.0322284e+2, -948442.94, -937323.5, -65314.805, -0.15920584, -0.30378133, -877332.2, 71055.22, 0.0, 9.999848, 10.000009 
1.6750962e+3, 2.132221e+2, -831563.75, -780742.1, -8976.878, -0.0353543, -0.43552235, -779203.06, 71182.37, 0.0, 9.99977, 10.000445 
1.675129e+3, 2.2322145e+2, -819214.8, -896109.6, 71820.38, 0.013354519, -0.46556377, -776198.3, -23811.713, 0.0, 9.999927, 9.9989 
1.6751616e+3, 2.3322113e+2, -619263.75, -762828.4, 68199.055, -0.07510798, -0.3970402, -592031.8, 62360.113, 0.0, 10.000688, 9.998771 
1.6751944e+3, 2.4322027e+2, -444999.03, -673125.1, 18771.197, -0.13721305, -0.32775807, -443464.75, 112937.02, 0.0, 10.001384, 9.998401 
1.675227e+3, 2.5321868e+2, -238875.11, -505742.28, 13791.816, -0.1540445, -0.3575523, -238164.23, 220252.9, 0.0000000017385277, 10.002073, 9.998534 
1.67526e+3, 2.6321664e+2, -213047.81, -569422.8, -21118.951, -0.14753297, -0.35118672, -211800.66, 148637.89, 0.0000048816705, 10.002113, 9.997404 
1.6752934e+3, 2.7321383e+2, -272022.06, -559539.44, -35365.453, -0.07538678, -0.39118153, -267735.9, -5264.749, 0.000051549574, 10.001074, 9.997305 
1.6753267e+3, 2.8321147e+2, -186053.31, -381361.06, -67790.72, -0.000014144143, -0.37112868, -164829.67, -332.4638, 0.0002709475, 10.000637, 9.99806 
1.675359e+3, 2.9321074e+2, 99669.06, -137519.58, -12110.924, 0.04564827, -0.31365842, 100285.84, 166787.97, 0.00089568296, 10.001697, 9.998544 
1.6753909e+3, 3.0320942e+2, 199776.06, -115293.57, 81475.055, -0.036813863, -0.2717555, 219597.97, 219597.97, 0.002017622, 10.002287, 9.998078 
1.6754249e+3, 3.1320515e+2, 192070.9, -43732.39, 84361.195, -0.04775598, -0.542607, 219143.77, 219143.77, 0.0034630077, 10.001898, 9.99874 
1.6848007e+3, 1.23196155e+2, -1938797.8, -2001845.5, -28443.988, -0.1952952, -0.19823477, -1927862.1, -195218.31, 0.04776628, 9.999198, 9.998388 
1.6848385e+3, 1.3319404e+2, -1825608.1, -1827293.3, -31293.727, 0.2803532, -0.32769573, -1795145.6, -160476.98, 0.030093629, 9.999038, 9.998998 
1.684866e+3, 1.4319357e+2, -1690439.6, -1648379.6, -21186.223, -0.1572119, -0.28417704, -1639558.0, -102884.0, 0.0144471, 9.999, 9.999573 
1.6849e+3, 1.5319285e+2, -1575749.9, -1512154.1, -4210.814, -0.058636595, -0.36145014, -1511876.5, -73198.39, 0.004479329, 9.998995, 9.999834 
1.6849332e+3, 1.6319256e+2, -1472366.3, -1409972.0, -7483.4365, -0.0108195655, -0.3571145, -1409087.0, -68408.8, 0.0006375465, 9.999029, 9.999847 
1.6849661e+3, 1.7319302e+2, -1265123.8, -1230200.0, -13581.086, 0.0009070446, -0.3341827, -1225540.3, 17131.28, 0.00001399049, 9.999664, 10.000092 
1.6849987e+3, 1.8319282e+2, -1233110.5, -1333985.8, 19670.537, -0.009160084, -0.28641832, -1229410.5, -84736.31, 0.0, 9.999927, 9.998589 
1.6850309e+3, 1.9319162e+2, -1189651.3, -1277235.1, 47140.105, -0.099904224, -0.2709281, -1169100.9, -122409.375, 0.0, 9.999617, 9.998453 
1.6850635e+3, 2.0319028e+2, -966977.2, -965128.9, 21666.537, -0.12599775, -0.29209143, -944366.8, 4338.891, 0.0, 9.999802, 9.999845 
1.6850966e+3, 2.1318904e+2, -660003.44, -704949.56, -61636.445, -0.026827822, -0.46454766, -616870.94, 233838.25, 0.0, 10.00099, 10.000375 
1.6851297e+3, 2.231882e+2, -577837.5, -800158.5, -45173.727, 0.030063286, -0.5006901, -569009.1, 183703.66, 0.0, 10.001657, 9.998741 
1.6851632e+3, 2.3318833e+2, -555865.25, -751753.1, -31114.563, -0.0008644196, -0.36769927, -551041.8, 103673.05, 0.0, 10.001199, 9.998615 
1.6851962e+3, 2.4318773e+2, -515368.38, -699394.7, -21946.031, -0.04695952, -0.26495218, -512787.4, 43935.28, 0.0, 10.000871, 9.998457 
1.6852285e+3, 2.531859e+2, -403333.84, -581798.6, -17144.695, -0.14996108, -0.32774854, -401701.72, 57037.918, 0.0000000018399801, 10.000906, 9.998579 
1.6852613e+3, 2.6318374e+2, -337225.7, -602997.6, -4089.2961, -0.1874379, -0.34535038, -337162.78, 23599.066, 0.0000039092515, 10.001154, 9.997633 
1.6852947e+3, 2.7318117e+2, -119568.125, -446818.25, 16328.598, -0.089096814, -0.38559705, -118755.41, 144036.52, 0.000046409757, 10.0019865, 9.9976225 
1.6853282e+3, 2.831791e+2, 104468.69, -224779.47, 38723.137, 0.015846802, -0.35960978, 108961.63, 273775.97, 0.00025641202, 10.002558, 9.998217 
1.6853614e+3, 2.9317862e+2, 246760.7, -46064.055, -16644.473, 0.084066026, -0.2930488, 247703.75, 314518.78, 0.00086490717, 10.002621, 9.998729 
1.6853935e+3, 3.0317682e+2, 219258.55, -124426.984, -2232.853, 0.000023091574, -0.30351093, 219273.05, 219273.05, 0.00198046, 10.002473, 9.997945 
1.6854265e+3, 3.1317264e+2, 102690.11, -148306.48, -81931.68, -0.027309159, -0.5233709, 127067.17, 127067.17, 0.0034473017, 10.00149, 9.998262 
1.6948009e+3, 1.2316053e+2, -1857212.6, -1854975.5, 69046.79, -0.13015884, -0.3839393, -1787038.3, -54048.453, 0.051028147, 9.999277, 9.999367 
1.6948345e+3, 1.3316108e+2, -1795693.9, -1748845.8, -31573.977, -0.024563733, -0.30735224, -1732955.6, -97968.16, 0.032295942, 9.998963, 9.999574 
1.6948631e+3, 1.4315905e+2, -1692026.9, -1657999.3, -25989.363, -0.367521, -0.45314753, -1643950.0, -106941.336, 0.015627254, 9.999018, 9.999503 
1.694899e+3, 1.531599e+2, -1588488.8, -1542926.3, 2684.9338, -0.061695095, -0.35073254, -1542768.6, -103769.24, 0.004910431, 9.999009, 9.99962 
1.6949332e+3, 1.631597e+2, -1456354.1, -1390532.6, -1264.3082, 0.04714032, -0.32869825, -1390508.4, -49509.156, 0.0007170378, 9.999083, 9.999957 
1.6949648e+3, 1.7315792e+2, -1255474.6, -1208722.0, 16730.9, -0.116935246, -0.5474421, -1203351.6, 39660.633, 0.000016975888, 9.999652, 10.000249 
1.6949973e+3, 1.8315724e+2, -1178071.3, -1228684.6, 3493.6157, -0.16209522, -0.5855227, -1177831.1, -32813.918, 0.0, 9.999959, 9.999298 
1.6950317e+3, 1.9315907e+2, -1139522.5, -1161508.3, 39261.97, -0.007250177, -0.3505194, -1109743.5, -62739.887, 0.0, 9.999565, 9.999272 
1.695065e+3, 2.0315918e+2, -1078231.8, -1170335.4, 45534.004, 0.04323001, -0.21880136, -1059521.6, -110516.47, 0.0, 9.999692, 9.998488 
1.695097e+3, 2.1315612e+2, -804988.1, -982266.94, -6973.5415, -0.10319742, -0.39351848, -804714.25, 46319.77, 0.0, 10.000882, 9.998525 
1.6951297e+3, 2.2315392e+2, -598914.44, -809073.56, -60005.008, -0.14606372, -0.45792767, -582988.56, 170066.34, 0.0, 10.001509, 9.99875 
1.6951647e+3, 2.3315364e+2, -552370.3, -707139.8, -36190.73, 0.03056813, -0.40092224, -544325.75, 110731.836, 0.0, 10.001038, 9.998999 
1.6951986e+3, 2.4315287e+2, -512407.5, -651295.6, -30191.416, 0.09430402, -0.35621846, -506128.38, 50936.234, 0.0, 10.000687, 9.998879 
1.6952303e+3, 2.531514e+2, -390651.75, -525444.06, -4350.07, -0.066998936, -0.42779902, -390511.5, 68565.87, 0.0000000033657745, 10.00078, 9.999027 
1.6952626e+3, 2.6315013e+2, -297431.8, -485333.84, 12869.08, -0.18318747, -0.4185999, -296554.53, 64535.188, 0.0000030031388, 10.000999, 9.998518 
1.695296e+3, 2.731496e+2, -71642.66, -310836.88, 58113.082, -0.16667241, -0.3581015, -58271.35, 204826.89, 0.000041455987, 10.001831, 9.9986315 
1.69533e+3, 2.8314835e+2, 30388.805, -334107.7, 29586.38, -0.09183847, -0.28276825, 32774.73, 197886.61, 0.0002433747, 10.002362, 9.997562 
1.6953638e+3, 2.931459e+2, 153755.88, -205712.38, -868.56165, 0.05173887, -0.30960286, 153757.97, 220891.73, 0.0008324831, 10.002466, 9.997713 
1.6953959e+3, 3.031428e+2, 137009.56, -233484.55, -37667.17, -0.014292625, -0.36681467, 140800.3, 140800.3, 0.0019236389, 10.002225, 9.997307 
1.695428e+3, 3.1314126e+2, 48390.742, -207343.94, -84596.36, -0.05347411, -0.27015468, 73842.03, 73842.03, 0.0033805245, 10.001284, 9.99794 
1.7047998e+3, 1.2312599e+2, -2038082.1, -1822175.4, 150502.7, -0.07106039, -0.4855901, -1744912.6, -11585.95, 0.054460447, 9.9975, 10.000462 
1.7048319e+3, 1.3312773e+2, -1866154.4, -1718883.4, -9283.4795, -0.14773859, -0.35117808, -1718300.5, -82989.734, 0.034638863, 9.99819, 10.000161 
1.7048623e+3, 1.4312619e+2, -1709844.4, -1661445.6, 26559.656, -0.3342371, -0.48258016, -1649714.1, -112387.55, 0.016903277, 9.998907, 9.999527 
1.7048986e+3, 1.5312709e+2, -1513866.5, -1517240.1, 33968.6, -0.012097441, -0.36488444, -1481542.9, -42223.824, 0.00538814, 9.999584, 9.999512 
1.704933e+3, 1.6312672e+2, -1372650.4, -1388740.1, 29448.754, 0.09971491, -0.3396108, -1350167.4, -8844.874, 0.0008082668, 9.999807, 9.999623 
1.7049642e+3, 1.7312491e+2, -1317431.0, -1279720.8, -5742.3623, -0.10995828, -0.52420306, -1278865.8, -35528.21, 0.000020835996, 9.99939, 9.999898 
1.7049968e+3, 1.8312417e+2, -1222212.3, -1205663.1, -22192.852, -0.17319496, -0.5615541, -1190252.4, -44909.824, 0.0, 9.999469, 9.999698 
1.7050318e+3, 1.9312567e+2, -916860.2, -989979.0, -20187.43, 0.0150195, -0.41355765, -911656.9, 135670.64, 0.0, 10.00082, 9.99985 
1.705066e+3, 2.031257e+2, -842214.06, -1087281.0, 14900.405, 0.08629277, -0.3121461, -841311.44, 108016.52, 0.0, 10.001456, 9.998196 
1.7050977e+3, 2.1312323e+2, -858078.44, -1065776.3, 39513.617, -0.08326156, -0.38016438, -850815.1, 540.07275, 0.0, 10.000774, 9.997997 
1.705131e+3, 2.2312117e+2, -737027.7, -891011.56, 53523.38, -0.12698437, -0.39321643, -720251.25, 33126.03, 0.0, 10.0006275, 9.998608 
1.7051665e+3, 2.3312023e+2, -475298.25, -672813.3, 23502.693, 0.08672214, -0.3973934, -472540.13, 182845.61, 0.0, 10.001588, 9.998961 
1.7052005e+3, 2.4311908e+2, -335107.84, -577667.1, -5084.269, 0.16512582, -0.38528284, -335001.3, 222394.88, 0.0, 10.001963, 9.99877 
1.7052312e+3, 2.5311753e+2, -345864.7, -513698.0, -45159.734, -0.060546674, -0.449116, -334484.9, 124924.57, 0.0000000026261497, 10.001145, 9.998926 
1.7052631e+3, 2.6311633e+2, -326226.4, -479987.3, -20604.057, -0.20390348, -0.43441465, -323513.34, 37907.715, 0.0000021613648, 10.000719, 9.998688 
1.7052975e+3, 2.7311626e+2, -149958.83, -327670.03, -43649.195, -0.16189152, -0.34684086, -139816.61, 123607.78, 0.000036656253, 10.001194, 9.998827 
1.7053321e+3, 2.831152e+2, -55670.875, -356465.06, -66830.945, -0.07440714, -0.26934686, -41490.75, 123944.836, 0.00022920681, 10.0016985, 9.997724 
1.7053658e+3, 2.9311213e+2, 129577.945, -205593.4, -50264.188, 0.015348588, -0.37274292, 136953.55, 204416.77, 0.00079222047, 10.0022545, 9.997816 
1.7053977e+3, 3.0310863e+2, 258267.98, -186885.47, -5987.04, -0.08797107, -0.46495384, 258348.48, 258348.48, 0.0018352459, 10.003095, 9.997206 
1.7054313e+3, 3.1310824e+2, 500094.9, 20847.623, -82506.94, 0.008438291, -0.2441306, 513901.5, 513901.5, 0.0032403683, 10.00435, 9.998016 
1.7147966e+3, 1.2309346e+2, -1964209.8, -1647679.1, 84981.45, -0.19529898, -0.42525065, -1626306.5, 107339.26, 0.058051143, 9.997404, 10.001736 
1.71483e+3, 1.3309446e+2, -1836371.3, -1637491.6, 34101.387, -0.16637334, -0.42549327, -1631806.9, 3826.7512, 0.037118543, 9.998124, 10.000744 
1.7148633e+3, 1.430954e+2, -1689827.8, -1648232.6, 44848.082, -0.14635167, -0.34589744, -1619594.5, -81970.28, 0.018276531, 9.999004, 9.999582 
1.7148986e+3, 1.5309428e+2, -1520852.0, -1533445.6, 68402.164, 0.0077570304, -0.42115763, -1458457.4, -18818.81, 0.005915651, 9.999579, 9.999409 
1.7149326e+3, 1.6309357e+2, -1421325.0, -1491444.6, 8774.368, 0.05852061, -0.39547256, -1420243.8, -78594.79, 0.0009130136, 9.999822, 9.998905 
1.7149642e+3, 1.7309423e+2, -1383746.3, -1407083.6, -15590.556, -0.056536093, -0.25271404, -1375941.3, -132295.73, 0.000025810483, 9.999356, 9.999032 
1.714997e+3, 1.8309385e+2, -1216697.1, -1199512.4, 7639.6074, -0.12785901, -0.20385553, -1196607.3, -50958.93, 0.0, 9.99948, 9.999739 
1.7150316e+3, 1.9309156e+2, -901250.25, -950446.25, 39872.176, -0.10961981, -0.46185395, -878999.0, 168663.13, 0.0, 10.000782, 10.000142 
1.7150658e+3, 2.0308997e+2, -805953.6, -996799.75, -5390.5596, -0.08802636, -0.56614685, -805801.44, 143871.6, 0.0, 10.001386, 9.998855 
1.715099e+3, 2.1309021e+2, -823846.9, -964347.0, 20692.816, -0.04749921, -0.43677118, -820862.6, 30811.803, 0.0, 10.000637, 9.998762 
1.715133e+3, 2.2308972e+2, -785454.8, -949013.1, 70398.58, 0.006091613, -0.32610074, -759327.56, -5645.174, 0.0, 10.00044, 9.998304 
1.7151682e+3, 2.3308803e+2, -530749.2, -760523.44, 71691.98, 0.090297475, -0.35443974, -510215.53, 145484.72, 0.0, 10.001462, 9.9984255 
1.7152016e+3, 2.4308619e+2, -403792.56, -679885.6, -32210.438, 0.06284302, -0.35427544, -400084.53, 157634.34, 0.0, 10.001793, 9.998147 
1.7152311e+3, 2.5308412e+2, -409674.97, -618848.06, -64688.008, -0.19799349, -0.40648454, -391286.38, 68451.77, 0.0000000000058928205, 10.001026, 9.998261 
1.7152625e+3, 2.630822e+2, -383458.84, -566040.0, -21083.088, -0.33321118, -0.4016763, -381055.97, -19298.629, 0.0000014626683, 10.000583, 9.998162 
1.7152987e+3, 2.7308127e+2, -202496.13, -403194.7, -11092.547, -0.16631638, -0.35104015, -201884.9, 61884.54, 0.000032258973, 10.001054, 9.998375 
1.715334e+3, 2.8307986e+2, -27811.44, -260586.31, -52688.336, -0.04364929, -0.314069, -16440.918, 149342.42, 0.00021422045, 10.001528, 9.998468 
1.7153668e+3, 2.9307726e+2, 184245.72, -59889.516, -8660.428, -0.121968836, -0.4737188, 184552.56, 252355.28, 0.00074489583, 10.0021105, 9.998886 
1.7153987e+3, 3.0307424e+2, 220746.72, -191020.1, 20156.936, -0.31502032, -0.5864352, 221731.1, 221731.1, 0.0017239766, 10.002802, 9.997312 
1.7154358e+3, 3.1307316e+2, 461462.66, 67728.44, 1497.7386, -0.014028739, -0.4387433, 461468.34, 461468.34, 0.0030507322, 10.003845, 9.998567 
1.7247938e+3, 1.23060584e+2, -1938284.1, -1618499.8, 57419.617, -0.18495685, -0.3579072, -1608502.3, 125466.93, 0.06177432, 9.997479, 10.00192 
1.7248285e+3, 1.3306098e+2, -1795345.5, -1569965.6, 14113.78, -0.11460646, -0.47121426, -1569085.3, 66875.77, 0.039721623, 9.998178, 10.001195 
1.7248628e+3, 1.4306292e+2, -1773137.8, -1691412.0, 19788.785, -0.05673378, -0.31504816, -1686872.6, -148931.78, 0.019743169, 9.998438, 9.9995575 
1.7248978e+3, 1.5306136e+2, -1716742.9, -1636274.1, 17890.123, 0.03418132, -0.42860472, -1632476.0, -192515.4, 0.006494274, 9.998252, 9.9993515 
1.7249319e+3, 1.6306064e+2, -1599554.4, -1603980.6, 13713.482, 0.06825755, -0.38913667, -1587876.6, -245904.61, 0.001032908, 9.998719, 9.998668 
1.7249648e+3, 1.7306152e+2, -1197809.3, -1350376.9, 15218.205, 0.008730404, -0.19307758, -1196306.1, 47661.168, 0.00003215152, 10.000769, 9.998745 
1.7249982e+3, 1.8306093e+2, -956551.75, -1113872.3, 37368.605, -0.035954647, -0.13495451, -948126.7, 197846.34, 0.0, 10.001448, 9.999372 
1.725032e+3, 1.9305782e+2, -1091138.1, -1083357.8, -6753.9043, -0.088541165, -0.4348734, -1079453.9, -31458.8, 0.0, 9.999668, 9.999759 
1.7250657e+3, 2.0305581e+2, -1153227.6, -1122311.0, -60117.35, -0.10104493, -0.5729122, -1075696.3, -125686.8, 0.0, 9.998817, 9.999238 
1.7250995e+3, 2.130564e+2, -865325.44, -921000.44, -62370.73, -0.033667296, -0.4633303, -824861.9, 27143.877, 0.0, 10.00008, 9.999333 
1.725134e+3, 2.2305624e+2, -684764.7, -885452.6, 23560.49, 0.027144875, -0.35694999, -682035.8, 71973.3, 0.0, 10.001088, 9.998417 
1.7251693e+3, 2.3305488e+2, -518295.16, -755089.1, 44297.977, 0.061556343, -0.3512175, -510279.47, 145744.34, 0.0, 10.001572, 9.998399 
1.7252031e+3, 2.430531e+2, -403514.56, -705028.0, -43317.723, 0.030988025, -0.33208695, -397414.63, 160627.39, 0.0, 10.001905, 9.997915 
1.7252328e+3, 2.5305077e+2, -297455.03, -591290.1, -73484.89, -0.16078754, -0.38467652, -280102.06, 179962.47, 0.0000000000049057277, 10.001925, 9.998008 
1.7252643e+3, 2.630485e+2, -198990.9, -495362.94, 35082.65, -0.27241334, -0.39383048, -194894.66, 167192.5, 0.0000011502509, 10.001928, 9.997998 
1.7253e+3, 2.7304685e+2, -100613.08, -373734.03, 48620.438, -0.17836486, -0.40113768, -92215.94, 171889.33, 0.000029351942, 10.001832, 9.998204 
1.7253354e+3, 2.830452e+2, 27804.084, -242726.08, 29226.783, -0.06764349, -0.37235528, 30925.59, 197046.73, 0.0002033291, 10.001956, 9.998376 
1.7253697e+3, 2.930435e+2, 238676.33, -48042.79, -37246.426, -0.05856362, -0.43365875, 243435.83, 311569.97, 0.00070474244, 10.002561, 9.998739 
1.7254022e+3, 3.03041e+2, 232874.34, -202382.52, -37965.414, -0.23099056, -0.47497076, 236161.08, 236161.08, 0.0016267578, 10.002933, 9.99719 
1.7254391e+3, 3.1303832e+2, 308438.3, -13154.674, -98369.19, -0.0016123223, -0.46792525, 336141.2, 336141.2, 0.002882315, 10.002754, 9.99858 
1.7347908e+3, 1.23027354e+2, -1999940.6, -1744555.8, 26637.156, -0.2869031, -0.29381362, -1741807.0, -7510.0757, 0.06561491, 9.997516, 10.000976 
1.7348272e+3, 1.3302723e+2, -1786171.4, -1536559.9, 40308.313, -0.08022351, -0.4931506, -1530212.1, 106081.516, 0.042436883, 9.998108, 10.001473 
1.7348604e+3, 1.430284e+2, -1782537.4, -1707774.1, 4878.4946, -0.17462581, -0.41678095, -1707457.1, -169176.97, 0.021297567, 9.998427, 9.999444 
1.7348954e+3, 1.5302843e+2, -1720367.1, -1637063.0, 17172.1, -0.031597357, -0.37355456, -1633662.1, -193378.28, 0.0071235094, 9.998229, 9.99935 
1.7349304e+3, 1.6302815e+2, -1573203.5, -1565041.0, 66960.664, 0.030018963, -0.30034935, -1502037.4, -159747.98, 0.0011691477, 9.998772, 9.998917 
1.7349659e+3, 1.730269e+2, -1175916.5, -1310774.5, 101774.17, 0.01759472, -0.34799355, -1121260.9, 123041.33, 0.00004011834, 10.000779, 9.999017 
1.7350003e+3, 1.8302546e+2, -1012660.75, -1239197.8, -15965.715, 0.013640276, -0.35343784, -1011541.06, 134775.45, 0.0, 10.001482, 9.998496 
1.7350326e+3, 1.9302437e+2, -1181989.3, -1255992.1, -70026.6, -0.000020576186, -0.34194854, -1139789.5, -91462.2, 0.0, 9.999596, 9.99861 
1.7350651e+3, 2.030232e+2, -1160385.1, -1115860.0, -43674.03, -0.040177066, -0.33294716, -1089101.8, -138763.88, 0.0, 9.998724, 9.999328 
1.7350988e+3, 2.130219e+2, -851725.9, -873116.75, -3851.5452, -0.12454041, -0.44595474, -851053.5, 1293.9198, 0.0, 9.999989, 9.999707 
1.7351332e+3, 2.2302084e+2, -678290.3, -836976.0, 37696.11, -0.16498347, -0.4699814, -669790.75, 84565.15, 0.0, 10.000938, 9.998821 
1.7351696e+3, 2.3302063e+2, -508640.16, -701458.94, 70952.51, -0.08387299, -0.39397207, -485345.63, 171012.3, 0.0, 10.001421, 9.99884 
1.7352046e+3, 2.4301966e+2, -424392.6, -697285.5, -49352.8, -0.02553155, -0.3276538, -415741.4, 142626.14, 0.0, 10.001691, 9.998073 
1.7352359e+3, 2.5301746e+2, -310685.03, -582045.56, -61273.4, -0.0479642, -0.37929288, -297490.97, 162898.25, 0.000000000000012544113, 10.001776, 9.99814 
1.7352678e+3, 2.630151e+2, -212296.8, -491472.25, 23978.383, -0.13098083, -0.40966278, -210252.27, 152159.81, 0.0000010511417, 10.00179, 9.998094 
1.7353007e+3, 2.7301285e+2, -108775.2, -367475.28, 56492.62, -0.28574815, -0.48552015, -96976.92, 167456.28, 0.000029114979, 10.001735, 9.998292 
1.7353359e+3, 2.8301105e+2, -62425.086, -400759.97, 30438.74, -0.23971392, -0.43991756, -59708.438, 106743.125, 0.00019954717, 10.001828, 9.9973545 
1.7353737e+3, 2.9301026e+2, 126099.74, -245613.48, 704.6137, 0.08508594, -0.28573215, 126101.08, 194563.27, 0.0006830725, 10.002408, 9.997456 
1.7354076e+3, 3.030085e+2, 168140.38, -273790.7, -53306.645, -0.0033925634, -0.16556928, 174479.4, 174479.4, 0.0015752185, 10.002676, 9.996812 
1.7354406e+3, 3.1300288e+2, 230650.34, -74404.65, -52047.836, -0.14879179, -0.4441567, 239286.17, 239286.17, 0.0028011068, 10.002352, 9.998334 
1.7447884e+3, 1.2299305e+2, -2081646.9, -1826400.1, 79556.77, -0.23825176, -0.3108451, -1803634.0, -69003.11, 0.06957688, 9.997148, 10.000596 
1.7448257e+3, 1.3299291e+2, -1890355.6, -1627696.9, -26502.71, -0.00097296474, -0.46911007, -1625049.4, 11580.647, 0.045260757, 9.997589, 10.001071 
1.7448589e+3, 1.4299376e+2, -1783951.8, -1677862.4, -49114.895, -0.14123388, -0.4110945, -1658616.0, -119995.516, 0.022935338, 9.998298, 9.999707 
1.7448941e+3, 1.5299413e+2, -1503112.3, -1480570.8, -32699.604, -0.04085326, -0.37757093, -1457254.1, -16635.691, 0.0078018596, 9.999507, 9.999801 
1.7449294e+3, 1.6299382e+2, -1378495.5, -1459196.8, 60032.332, 0.008357418, -0.33941114, -1346513.3, -3890.5571, 0.0013223152, 10.000057, 9.999026 
1.7449662e+3, 1.729922e+2, -1325626.0, -1380600.0, 60654.406, 0.032992937, -0.42214394, -1286521.0, -41881.742, 0.000049909977, 9.999752, 9.999033 
1.7450012e+3, 1.8299086e+2, -1287413.8, -1377667.4, -77178.26, 0.057505894, -0.41643664, -1243137.5, -96483.68, 0.0000000000000006446772, 9.999636, 9.998426 
1.7450327e+3, 1.929905e+2, -1123575.3, -1237860.5, -84753.0, 0.034048, -0.32402214, -1078500.8, -29840.781, 0.0, 10.000048, 9.998507 
1.745065e+3, 2.0298971e+2, -910291.8, -1006281.0, 53311.754, -0.006712941, -0.26495552, -886553.4, 64114.445, 0.0, 10.000485, 9.999227 
1.7450996e+3, 2.1298832e+2, -692490.25, -802838.6, 51916.02, -0.08589903, -0.3837913, -671905.2, 180771.83, 0.0, 10.001118, 9.9996395 
1.7451346e+3, 2.2298676e+2, -619838.3, -831231.44, 43308.734, -0.119394004, -0.44355333, -611309.6, 143379.36, 0.0, 10.001419, 9.998641 
1.745171e+3, 2.3298539e+2, -588638.75, -764368.2, 7993.1084, -0.054714195, -0.45897684, -588275.94, 68426.47, 0.0, 10.000969, 9.998634 
1.7452061e+3, 2.429841e+2, -503432.78, -697604.0, -100955.41, -0.0008546091, -0.42546022, -460455.5, 98259.75, 0.0, 10.000996, 9.998398 
1.7452382e+3, 2.5298312e+2, -232078.9, -498052.0, -111621.8, -0.014504493, -0.39839485, -191442.73, 269281.94, 0.0, 10.002112, 9.998557 
1.7452705e+3, 2.6298138e+2, -67218.54, -459143.72, -20899.223, -0.093122646, -0.37629232, -66107.25, 296633.94, 0.0000010008785, 10.002949, 9.997757 
1.7453033e+3, 2.729784e+2, 92081.984, -332459.2, -56425.273, -0.27843237, -0.47246078, 99453.41, 364224.22, 0.000030147008, 10.003379, 9.997739 
1.7453386e+3, 2.8297588e+2, 206185.38, -295835.97, -57610.926, -0.24072917, -0.44878504, 212711.84, 379508.44, 0.00019895253, 10.003788, 9.997127 
1.7453772e+3, 2.9297492e+2, 309566.72, -184615.14, -50863.566, 0.13122888, -0.29555976, 314747.53, 383557.88, 0.00067913963, 10.0037775, 9.99722 
1.7454113e+3, 3.0297348e+2, 302789.44, -187749.77, -32132.371, 0.06976988, -0.13489012, 304885.3, 304885.3, 0.0015789078, 10.0034895, 9.997019 
1.7454438e+3, 3.1296816e+2, 395057.78, 9247.396, -45559.68, -0.09948258, -0.4140412, 400364.84, 400364.84, 0.0028336905, 10.003445, 9.998376 
1.7547867e+3, 1.2295712e+2, -2078108.0, -1792301.0, 151467.61, -0.15720978, -0.47284836, -1726964.6, 8011.5576, 0.07366958, 9.997048, 10.000873 
1.7548238e+3, 1.3295814e+2, -1982537.5, -1802410.9, -4261.1772, 0.025007227, -0.39793006, -1802310.1, -165341.16, 0.048192136, 9.997532, 9.99989 
1.7548583e+3, 1.4295952e+2, -1734135.4, -1584300.5, -17488.05, -0.050816014, -0.24833685, -1582286.4, -43329.754, 0.024652572, 9.998332, 10.000338 
1.7548935e+3, 1.529585e+2, -1439142.1, -1351166.1, 20501.816, -0.066509984, -0.4384097, -1346623.0, 94340.625, 0.008527423, 9.999511, 10.000698 
1.7549287e+3, 1.6295743e+2, -1382436.4, -1472321.4, 41852.133, -0.08934194, -0.5245082, -1365967.0, -22993.402, 0.0014925194, 10.000079, 9.998926 
1.7549655e+3, 1.7295738e+2, -1352892.9, -1425101.0, 55434.51, -0.024332026, -0.4233057, -1322841.9, -77863.03, 0.00006156021, 9.999703, 9.99875 
1.7550005e+3, 1.8295714e+2, -1239252.6, -1273414.0, -74330.48, 0.006474257, -0.3214248, -1180065.6, -33081.05, 0.0000000010737394, 9.999619, 9.999149 
1.7550318e+3, 1.9295625e+2, -1063547.4, -1104875.4, -60619.484, -0.068865135, -0.37237006, -1020166.7, 28825.787, 0.0, 10.000011, 9.999437 
1.7550649e+3, 2.0295541e+2, -940396.7, -1054245.0, 62816.625, -0.0984738, -0.36210293, -912548.9, 38450.215, 0.0, 10.000419, 9.998931 
1.7551017e+3, 2.129553e+2, -749854.1, -895996.8, 81451.89, 0.0024314371, -0.29780746, -713500.44, 139496.6, 0.0, 10.000997, 9.999063 
1.755138e+3, 2.2295374e+2, -697261.4, -950612.56, 24263.402, 0.0733518, -0.29625073, -694958.6, 60052.19, 0.0, 10.001245, 9.997905 
1.755173e+3, 2.3294936e+2, -664877.75, -891005.2, 986.4282, 0.05647681, -0.5355218, -664873.44, -7817.796, 0.0, 10.000833, 9.997831 
1.755207e+3, 2.4294657e+2, -503957.9, -660701.06, -75348.57, -0.007839737, -0.6155521, -473611.88, 85471.94, 0.0, 10.000825, 9.998737 
1.755239e+3, 2.5294775e+2, -207039.48, -410092.56, -58830.08, -0.1409846, -0.43502346, -191226.28, 269844.4, 0.0, 10.00196, 9.999233 
1.7552722e+3, 2.629473e+2, -146800.3, -592311.94, -12044.747, -0.23924074, -0.2943274, -146474.89, 216600.6, 0.00000094846536, 10.0028, 9.996919 
1.7553072e+3, 2.729434e+2, -16298.584, -511533.2, -23433.072, -0.25912887, -0.36677366, -15192.2705, 249925.28, 0.000030605133, 10.003186, 9.996597 
1.7553431e+3, 2.8293988e+2, 201631.52, -260290.27, -56703.34, -0.19408205, -0.399755, 208490.3, 375645.5, 0.00020031627, 10.003584, 9.997473 
1.7553796e+3, 2.9293767e+2, 324045.7, -104355.85, -35672.926, -0.021660777, -0.43816212, 326995.84, 396172.75, 0.00069413544, 10.003562, 9.997874 
1.755413e+3, 3.029364e+2, 288969.44, -142199.63, -54091.75, -0.1255541, -0.31603974, 295651.88, 295651.88, 0.0016346293, 10.0031805, 9.997474 
1.7554481e+3, 3.1293446e+2, 314118.03, -45663.277, 17686.43, -0.05400973, -0.31667805, 314985.38, 314985.38, 0.0029570481, 10.002981, 9.99821 
1.7647853e+3, 1.2292001e+2, -1778937.8, -1627715.6, -20643.773, -0.07226393, -0.4812276, -1624948.1, 110392.41, 0.07790593, 9.998948, 10.001147 
1.7648213e+3, 1.3292064e+2, -1814091.9, -1677683.8, -107852.91, 0.004051504, -0.4747875, -1618278.9, 19056.795, 0.05123237, 9.998483, 10.000296 
1.7648578e+3, 1.4292286e+2, -1767825.8, -1560482.8, -16658.902, 0.09668162, -0.282122, -1559152.9, -19838.734, 0.026445003, 9.997925, 10.000703 
1.7648926e+3, 1.5292221e+2, -1643186.5, -1420642.4, -41723.91, -0.007856562, -0.4609334, -1413076.9, 28241.258, 0.009296644, 9.998001, 10.000945 
1.7649278e+3, 1.6292162e+2, -1627576.4, -1545206.8, -32727.43, -0.083005324, -0.52920073, -1533786.8, -190462.89, 0.0016790463, 9.998221, 9.999308 
1.7649646e+3, 1.72922e+2, -1474530.9, -1439188.9, 3601.708, -0.019191068, -0.4253167, -1438825.6, -193500.67, 0.000074904594, 9.998682, 9.999137 
1.765e+3, 1.829219e+2, -1270273.4, -1276487.1, -65936.55, 0.020173589, -0.33527076, -1207370.5, -60041.996, 0.000000009428086, 9.999341, 9.99927 
1.7650324e+3, 1.9292088e+2, -936783.25, -1035710.25, -129415.67, -0.042896807, -0.40728518, -847700.56, 201636.25, 0.0, 10.000841, 9.999521 
1.7650662e+3, 2.0291978e+2, -796092.8, -1018424.1, -64245.402, -0.041677307, -0.41387036, -778863.44, 172482.13, 0.0, 10.001563, 9.998622 
1.7651033e+3, 2.1291919e+2, -837999.75, -984095.9, -58695.242, 0.11252233, -0.35226327, -817340.0, 36009.582, 0.0, 10.000599, 9.998645 
1.7651397e+3, 2.2291762e+2, -865751.06, -1028133.75, -61263.695, 0.18618558, -0.3265731, -845230.7, -89865.93, 0.0, 10.000078, 9.997925 
1.7651737e+3, 2.3291416e+2, -667211.06, -874662.3, -39281.367, 0.047505654, -0.48583493, -660022.1, -2620.6057, 0.0, 10.000749, 9.997976 
1.7652072e+3, 2.4291186e+2, -430768.44, -613914.06, -49881.254, -0.07616838, -0.5298581, -418064.13, 141361.31, 0.0, 10.00127, 9.998852 
1.7652406e+3, 2.5291246e+2, -272799.88, -431789.5, -82243.51, -0.14810614, -0.4152716, -237911.92, 223505.36, 0.0, 10.001458, 9.999331 
1.7652749e+3, 2.629117e+2, -284452.94, -627990.8, -18135.688, -0.17959024, -0.31833142, -283498.2, 79925.9, 0.0000007067664, 10.0017395, 9.997176 
1.7653106e+3, 2.7290818e+2, -136962.31, -541775.2, 40977.707, -0.1664149, -0.38351485, -132855.95, 132606.38, 0.000029110019, 10.00223, 9.996857 
1.7653467e+3, 2.829049e+2, 52732.563, -321809.53, 66101.78, -0.12037816, -0.40839168, 64056.305, 231553.38, 0.00020317562, 10.002517, 9.997568 
1.7653824e+3, 2.9290286e+2, 191945.31, -173508.9, 1183.4034, -0.036510132, -0.42595884, 191949.14, 261467.11, 0.00072233164, 10.002671, 9.997834 
1.765416e+3, 3.0290136e+2, 266911.34, -106812.14, -23058.568, -0.10875312, -0.3413029, 268328.66, 268328.66, 0.0017127431, 10.002831, 9.997888 
1.765452e+3, 3.1289935e+2, 284272.8, -29571.682, 20790.037, 0.06980133, -0.38787696, 285644.03, 285644.03, 0.003093255, 10.002629, 9.998506 
1.7747845e+3, 1.22882724e+2, -1757169.6, -1596949.1, -159324.05, -0.0965207, -0.22559121, -1498728.8, 236986.11, 0.08231803, 9.999033, 10.001363 
1.7748185e+3, 1.3288033e+2, -1660825.6, -1373287.6, -116783.03, -0.15573753, -0.70524925, -1331833.0, 305898.16, 0.054393712, 9.998484, 10.002489 
1.7748569e+3, 1.428834e+2, -1759909.0, -1545620.8, -39048.855, 0.19557597, -0.56598055, -1538726.9, 970.0839, 0.02831169, 9.997927, 10.000806 
1.7748913e+3, 1.5288529e+2, -1678996.3, -1484260.1, -28672.352, 0.042010088, -0.452324, -1480126.3, -38444.41, 0.010105246, 9.997956, 10.000526 
1.7749263e+3, 1.6288655e+2, -1574828.5, -1435916.8, -26714.494, -0.06442236, -0.34175593, -1430956.3, -87284.22, 0.0018804772, 9.9982195, 10.00006 
1.7749633e+3, 1.7288607e+2, -1405545.6, -1289877.9, 28818.273, -0.025835112, -0.42422575, -1283095.5, -37418.242, 0.00008970714, 9.998657, 10.000173 
1.7749994e+3, 1.8288524e+2, -1297759.3, -1341661.5, -27567.482, 0.005197193, -0.45357198, -1284471.0, -136785.45, 0.000000028818846, 9.999372, 9.99881 
1.7750342e+3, 1.928843e+2, -1000361.94, -1159847.3, -64070.49, 0.02636219, -0.43554574, -977811.25, 71882.28, 0.0, 10.0008, 9.998693 
1.7750691e+3, 2.0288275e+2, -833756.2, -1074951.0, -91272.54, 0.06642745, -0.4244231, -803110.7, 148597.08, 0.0, 10.00148, 9.998267 
1.7751047e+3, 2.1288015e+2, -879425.2, -1034406.9, -89591.67, 0.16795503, -0.54133517, -838461.4, 15271.715, 0.0, 10.000457, 9.99836 
1.7751396e+3, 2.2287856e+2, -840068.4, -946793.5, -55201.85, 0.1430056, -0.52276576, -816653.3, -60903.758, 0.0, 9.999945, 9.998555 
1.7751727e+3, 2.328797e+2, -616160.1, -746080.8, -1296.2418, -0.14589661, -0.3144856, -616147.2, 41594.47, 0.0, 10.00064, 9.998917 
1.7752065e+3, 2.4287967e+2, -463203.94, -641978.6, -48318.703, -0.29104683, -0.18643683, -450980.28, 108763.27, 0.0, 10.0011015, 9.998738 
1.7752425e+3, 2.5287727e+2, -326862.78, -503671.47, -66501.35, -0.113820605, -0.33627594, -304642.72, 157121.64, 0.0, 10.001293, 9.998913 
1.7752783e+3, 2.6287478e+2, -232786.78, -480809.88, -9976.666, -0.0141249355, -0.43068573, -232386.11, 131400.05, 0.00000032366296, 10.001563, 9.998276 
1.7753135e+3, 2.7287272e+2, -61383.51, -335171.97, 69964.805, -0.10170752, -0.49479303, -44540.613, 221264.86, 0.00002512301, 10.002031, 9.998365 
1.7753492e+3, 2.8287095e+2, 1033.3289, -389662.44, 56720.973, -0.13215081, -0.44293258, 9101.435, 176925.36, 0.00020074962, 10.002333, 9.997198 
1.7753854e+3, 2.9287013e+2, 109825.39, -297424.63, 21223.516, -0.032698967, -0.26955533, 110928.45, 180766.08, 0.0007393441, 10.002465, 9.997084 
1.7754199e+3, 3.0286795e+2, 242968.61, -82705.5, -34262.473, -0.026123164, -0.2245643, 246534.16, 246534.16, 0.0017547982, 10.002524, 9.998196 
1.7754552e+3, 3.1286463e+2, 266008.4, 52874.105, 63745.926, 0.095761, -0.45629397, 283618.97, 283618.97, 0.0031372139, 10.002165, 9.999272 
1.7847838e+3, 1.22846946e+2, -2044255.6, -1812954.6, 33897.758, 0.0071983347, -0.18101516, -1808089.1, -72024.44, 0.08696164, 9.997441, 10.000527 
1.784817e+3, 1.328442e+2, -1633515.4, -1361942.9, 12566.473, -0.14344445, -0.6870903, -1361362.6, 276723.4, 0.057701517, 9.998673, 10.0024805 
1.7848557e+3, 1.4284708e+2, -1589892.6, -1469598.5, -6696.374, 0.23690951, -0.56558216, -1469226.9, 70827.8, 0.030258754, 9.999114, 10.00077 
1.7848904e+3, 1.5284911e+2, -1501216.5, -1409420.0, 11229.802, 0.09215588, -0.43132034, -1408066.1, 33972.223, 0.0109521225, 9.999211, 10.0004425 
1.7849256e+3, 1.6285054e+2, -1395115.8, -1353084.3, 43482.203, -0.012601632, -0.29828534, -1325805.4, 18221.584, 0.0020959692, 9.9994545, 10.000034 
1.7849629e+3, 1.7285009e+2, -1175480.8, -1182750.8, 2208.468, 0.00067856064, -0.37998822, -1174862.5, 71169.31, 0.000105867584, 10.000246, 10.000143 
1.7849995e+3, 1.8284908e+2, -1122838.6, -1272591.4, -75930.13, 0.024872454, -0.41647044, -1091076.1, 56965.32, 0.0000000562377, 10.000648, 9.9986725 
1.785035e+3, 1.9284783e+2, -1068908.3, -1205787.5, -79905.51, 0.05380925, -0.41333765, -1032139.1, 17913.17, 0.0, 10.000395, 9.9985695 
1.78507e+3, 2.0284605e+2, -997669.9, -1156904.8, -77126.75, 0.0916948, -0.41850477, -966438.44, -14369.426, 0.0, 10.000358, 9.998258 
1.7851052e+3, 2.1284328e+2, -793686.06, -991047.4, -78404.75, 0.15029427, -0.55236495, -766330.3, 87765.94, 0.0, 10.001022, 9.998399 
1.7851397e+3, 2.2284187e+2, -601391.75, -776665.1, -5730.901, 0.11307141, -0.53696406, -601204.56, 154905.75, 0.0, 10.001355, 9.999043 
1.7851733e+3, 2.3284386e+2, -528990.75, -638441.8, 3360.3533, -0.1381811, -0.30168372, -528887.7, 129204.11, 0.0, 10.000965, 9.999499 
1.7852078e+3, 2.4284403e+2, -544066.94, -713600.25, -49326.465, -0.24288304, -0.17536774, -530759.75, 29331.096, 0.0, 10.0007, 9.998435 
1.7852442e+3, 2.5284046e+2, -428438.25, -619634.94, -98135.03, -0.04705863, -0.38505498, -387034.66, 75090.91, 0.0, 10.000877, 9.99832 
1.7852804e+3, 2.6283774e+2, -246442.31, -434709.94, -32708.563, 0.06241194, -0.48943198, -240921.6, 123230.125, 0.00000018370703, 10.001232, 9.998755 
1.7853157e+3, 2.7283713e+2, -509.77597, -227963.28, -21653.348, -0.0688226, -0.47244537, 1533.2502, 267688.47, 0.000020759246, 10.002082, 9.99909 
1.7853513e+3, 2.8283632e+2, 31651.941, -299332.25, -45609.383, -0.13368815, -0.39721373, 37821.867, 205984.73, 0.00019246414, 10.0022545, 9.997833 
1.7853871e+3, 2.9283527e+2, -29040.63, -298407.44, -31825.604, -0.02288872, -0.3030739, -25331.518, 44844.434, 0.00073561596, 10.001249, 9.997647 
1.7854223e+3, 3.0283263e+2, 83448.58, -172964.34, 28522.125, 0.046399318, -0.32902777, 86582.92, 86582.92, 0.0017390973, 10.001475, 9.998078 
1.7854585e+3, 3.128299e+2, 487722.88, 122446.46, 10969.834, 0.14953226, -0.45966294, 488052.03, 488052.03, 0.0030548186, 10.003812, 9.998975 
1.7947812e+3, 1.22812025e+2, -2178335.8, -2094606.5, -104397.664, -0.03239886, -0.47827888, -2023992.1, -287596.5, 0.09190124, 9.997446, 9.9986 
1.7948167e+3, 1.3281268e+2, -1802941.1, -1701227.4, 65392.387, -0.047387306, -0.4056851, -1669243.6, -30847.662, 0.06119029, 9.998679, 10.000038 
1.794854e+3, 1.4281431e+2, -1611412.6, -1519489.0, -19360.629, 0.11756844, -0.24645826, -1515577.8, 24805.494, 0.03230053, 9.999142, 10.000406 
1.7948894e+3, 1.5281382e+2, -1486424.9, -1372529.0, 23991.945, 0.06234123, -0.38314316, -1367681.5, 74705.03, 0.011841973, 9.999188, 10.000708 
1.7949253e+3, 1.6281368e+2, -1446197.0, -1468863.4, 56725.23, -0.01677263, -0.39412215, -1399683.9, -55295.92, 0.0023264778, 9.999485, 9.999231 
1.7949632e+3, 1.7281398e+2, -1249083.6, -1339636.0, 37091.797, -0.012142491, -0.2909546, -1235830.0, 10558.911, 0.00012352158, 10.000256, 9.999067 
1.795e+3, 1.8281347e+2, -1107940.0, -1245394.6, -86625.9, -0.012593826, -0.22182675, -1066089.4, 82306.76, 0.000000085167756, 10.000667, 9.998848 
1.7950346e+3, 1.9281152e+2, -1045629.7, -1143857.3, -83804.18, -0.036148496, -0.33476147, -997608.0, 52805.086, 0.0, 10.000334, 9.999024 
1.7950693e+3, 2.0280968e+2, -985655.0, -1112935.4, -69704.44, -0.051403753, -0.38496906, -954908.8, -2479.6062, 0.0, 10.00027, 9.998603 
1.7951046e+3, 2.1280861e+2, -785862.2, -951010.6, -44271.0, -0.013825552, -0.38388222, -774743.2, 79695.83, 0.0, 10.000913, 9.998731 
1.7951402e+3, 2.2280747e+2, -609339.25, -758470.4, -21977.45, 0.0068407636, -0.37020463, -606167.9, 150280.48, 0.0, 10.001205, 9.999241 
1.7951757e+3, 2.3280658e+2, -541584.9, -625930.56, -4423.1504, -0.016704533, -0.4403729, -541353.56, 117099.28, 0.0, 10.000802, 9.9996605 
1.7952107e+3, 2.42805e+2, -607083.4, -805670.75, -55547.15, -0.037396066, -0.47541636, -592602.2, -32135.361, 0.0, 10.00053, 9.997887 
1.7952454e+3, 2.5280228e+2, -496036.88, -732768.75, -79314.39, -0.026175724, -0.5308972, -471920.28, -9421.337, 0.0, 10.00077, 9.997591 
1.7952807e+3, 2.6280054e+2, -270316.03, -462656.6, -12765.635, -0.033621762, -0.48325324, -269472.47, 95047.555, 0.00000013255313, 10.001132, 9.998616 
1.7953171e+3, 2.7280143e+2, -19328.086, -223657.64, 22755.494, -0.14912355, -0.32984307, -16824.559, 249686.67, 0.0000188634, 10.001905, 9.9992 
1.7953528e+3, 2.8280118e+2, 97068.6, -121592.234, -83875.02, -0.22783624, -0.25833446, 125535.72, 294047.16, 0.00018763484, 10.002061, 9.999155 
1.7953877e+3, 2.9279855e+2, 68767.31, -59977.984, -53571.25, -0.11211376, -0.48389852, 88142.59, 158672.45, 0.0007279235, 10.001108, 9.999349 
1.7954233e+3, 3.0279565e+2, 2452.9639, -307225.63, 76281.94, -0.0122681875, -0.6024452, 20223.463, 20223.463, 0.001696841, 10.001312, 9.997244 
1.7954612e+3, 3.1279516e+2, 368675.53, -20184.361, 129179.164, 0.0051555433, -0.39662012, 407677.1, 407677.1, 0.0029077495, 10.003384, 9.998183 
1.8047796e+3, 1.2277643e+2, -1902744.4, -1894694.5, -305926.44, -0.0056060553, -0.54137963, -1592766.5, 143977.11, 0.097200245, 9.999102, 9.999223 
1.8048172e+3, 1.3277727e+2, -1787198.8, -1794709.8, -43896.137, 0.10955621, -0.37745067, -1746897.8, -108154.56, 0.06490086, 9.99922, 9.999141 
1.8048517e+3, 1.4277875e+2, -1669580.1, -1599499.6, -31407.232, -0.0014263447, -0.162012, -1587484.3, -46751.29, 0.034457777, 9.998973, 9.999923 
1.8048885e+3, 1.5277718e+2, -1418536.8, -1386925.6, -50718.664, 0.042902887, -0.36632398, -1349606.9, 93139.53, 0.0127833225, 9.999864, 10.000275 
1.8049254e+3, 1.6277614e+2, -1359729.1, -1451694.6, -24427.018, 0.008021573, -0.4272792, -1353643.8, -8887.526, 0.0025744103, 10.000206, 9.998999 
1.8049629e+3, 1.7277656e+2, -1365394.1, -1408524.0, -768.3785, -0.015267651, -0.29455885, -1365380.4, -118624.23, 0.00014305822, 9.99954, 9.998929 
1.8049999e+3, 1.8277627e+2, -1302180.8, -1322473.3, -60693.55, -0.0074340794, -0.20150639, -1250791.3, -102029.58, 0.00000010953618, 9.999243, 9.999008 
1.8050347e+3, 1.9277465e+2, -1074807.3, -1128354.6, -89071.57, -0.0068966066, -0.30847505, -1008572.5, 42203.44, 0.0, 10.000001, 9.99929 
1.8050697e+3, 2.027732e+2, -932667.44, -1062157.1, -64588.746, -0.021998065, -0.34600767, -905959.56, 46829.047, 0.0, 10.000522, 9.998836 
1.8051049e+3, 2.1277258e+2, -831371.75, -946799.7, -64187.555, -0.040113993, -0.31867945, -802766.9, 52026.47, 0.0, 10.000493, 9.998958 
1.8051405e+3, 2.2277145e+2, -723410.7, -814646.75, -53772.727, -0.021567702, -0.3172144, -698512.7, 58289.492, 0.0, 10.00045, 9.999207 
1.8051767e+3, 2.3276953e+2, -582599.3, -663135.75, -79988.49, 0.04403988, -0.47461352, -533314.8, 125501.77, 0.0, 10.000602, 9.999497 
1.8052123e+3, 2.4276766e+2, -507385.63, -739532.25, -81863.234, 0.05833192, -0.5375898, -481421.63, 79412.125, 0.0, 10.001119, 9.99807 
1.8052468e+3, 2.5276622e+2, -240814.28, -585214.06, -51306.133, -0.019465523, -0.4872254, -233333.56, 229520.14, 0.0, 10.002393, 9.997842 
1.8052825e+3, 2.6276517e+2, -13505.404, -344019.8, 48143.8, -0.06258391, -0.38191554, -6635.42, 358232.88, 0.00000007008213, 10.002933, 9.998558 
1.8053192e+3, 2.727654e+2, -36218.08, -256010.78, 34144.19, -0.124680154, -0.27348086, -31036.05, 235830.48, 0.000018211349, 10.001893, 9.998989 
1.8053551e+3, 2.827646e+2, 44550.52, -118742.016, -74025.7, -0.17234865, -0.25075403, 73112.77, 241984.36, 0.00018383289, 10.00156, 9.999423 
1.8053898e+3, 2.9276183e+2, 405387.8, 136090.02, -150917.1, -0.08893165, -0.5203455, 472991.94, 543881.1, 0.00071480655, 10.003247, 9.999683 
1.8054263e+3, 3.0275914e+2, 400286.94, -127640.71, -36473.09, 0.032275386, -0.6316804, 402794.84, 402794.84, 0.0016441797, 10.004127, 9.99711 
1.8054648e+3, 3.1275895e+2, 199786.0, -121463.34, -7569.478, 0.09316509, -0.35560954, 199964.25, 199964.25, 0.0027675093, 10.002254, 9.998061 
1.8147777e+3, 1.22740544e+2, -1672013.9, -1440402.0, -191215.33, -0.1565175, -0.3046022, -1332658.5, 404447.56, 0.10291468, 9.999116, 10.002525 
1.8148178e+3, 1.3273758e+2, -1727771.8, -1663162.1, -58405.05, 0.22566333, -0.62235826, -1628723.0, 10408.262, 0.06887483, 9.999194, 10.000056 
1.8148488e+3, 1.4274023e+2, -1702204.0, -1674225.4, -25239.02, -0.21705364, -0.33182234, -1659358.0, -118253.445, 0.036753505, 9.998991, 9.99941 
1.8148877e+3, 1.52739e+2, -1491597.6, -1547870.8, -7608.05, -0.05415119, -0.39487502, -1490587.3, -47467.71, 0.01378539, 9.99989, 9.99916 
1.8149251e+3, 1.6273803e+2, -1332490.3, -1402662.0, -50000.855, -0.052441053, -0.3954195, -1306493.4, 38637.926, 0.002842686, 10.000237, 9.999319 
1.8149619e+3, 1.7273787e+2, -1316517.8, -1308379.9, -18896.387, -0.073968105, -0.38834727, -1293119.4, -45985.73, 0.00016504708, 9.999533, 9.999625 
1.8149988e+3, 1.8273751e+2, -1288684.4, -1293013.5, -52203.54, -0.037862714, -0.3506609, -1238600.5, -89462.836, 0.00000012908751, 9.999235, 9.999216 
1.8150356e+3, 1.927372e+2, -1072573.5, -1118166.1, -50945.805, 0.05636272, -0.3347977, -1039556.3, 11584.979, 0.0, 9.999973, 9.999376 
1.8150714e+3, 2.0273651e+2, -937693.7, -1054393.9, -67129.71, 0.08329438, -0.30666348, -907099.25, 46048.84, 0.0, 10.000445, 9.998924 
1.8151058e+3, 2.1273519e+2, -844031.8, -945233.25, -57487.906, -0.0015350062, -0.3602537, -818047.4, 37112.355, 0.0, 10.000371, 9.999028 
1.8151407e+3, 2.2273383e+2, -770200.4, -875998.5, -59506.49, -0.05283193, -0.3742754, -743479.5, 13692.586, 0.0, 10.000291, 9.998866 
1.8151768e+3, 2.3273277e+2, -635025.4, -742308.75, -62689.324, -0.03295971, -0.3993182, -606160.2, 53022.25, 0.0, 10.000471, 9.999019 
1.8152125e+3, 2.4273187e+2, -484186.44, -650008.3, -49351.875, -0.045782644, -0.3605409, -470609.9, 90581.94, 0.0, 10.000937, 9.998772 
1.8152486e+3, 2.5273183e+2, -185177.83, -429991.44, 8025.0835, -0.099688865, -0.27993497, -184915.05, 278278.44, 0.0, 10.00222, 9.998988 
1.815285e+3, 2.627312e+2, -51933.11, -377192.03, 16515.502, -0.11712195, -0.20236714, -51096.664, 314104.03, 0.0000000874347, 10.002725, 9.998433 
1.8153216e+3, 2.7272916e+2, -100787.49, -340894.66, 6836.239, -0.09341395, -0.28127924, -100593.016, 166627.58, 0.00001648955, 10.001692, 9.998496 
1.8153575e+3, 2.8272697e+2, -43757.203, -257503.27, -41363.176, -0.0977464, -0.3339895, -36031.992, 133208.58, 0.00017253889, 10.001355, 9.998572 
1.8153934e+3, 2.9272515e+2, 316549.16, 199.69528, -63764.87, -0.08214662, -0.43014967, 328918.28, 400171.28, 0.00068025076, 10.003034, 9.998849 
1.8154308e+3, 3.027231e+2, 363078.13, -137028.92, -84982.71, 0.03594697, -0.42775834, 377124.63, 377124.63, 0.0015745051, 10.0038395, 9.997186 
1.8154672e+3, 3.127194e+2, 189467.63, -30703.18, -79466.07, 0.07937139, -0.5480521, 215152.81, 215152.81, 0.0026622687, 10.00183, 9.998859 
1.824776e+3, 1.2270308e+2, -1786476.1, -1371838.1, -82446.77, -0.1531069, -0.15653297, -1356045.9, 381434.0, 0.10907774, 9.997651, 10.003768 
1.8248165e+3, 1.3269795e+2, -2006354.3, -1850011.6, -230640.36, 0.28443742, -0.66640276, -1684655.3, -45131.44, 0.07313931, 9.997483, 9.999604 
1.8248464e+3, 1.4270096e+2, -1873388.4, -1710196.1, -169296.61, -0.26669213, -0.33200154, -1603858.0, -62365.414, 0.039204508, 9.997641, 9.999805 
1.8248866e+3, 1.5270044e+2, -1601109.6, -1540462.4, -45267.87, -0.07457277, -0.37290043, -1516300.3, -72801.586, 0.014855209, 9.998896, 9.999687 
1.8249248e+3, 1.6269979e+2, -1400722.6, -1426091.0, -42728.504, -0.062073234, -0.37524876, -1368835.4, -23329.242, 0.0031336718, 9.999713, 9.999413 
1.8249618e+3, 1.7269939e+2, -1291102.5, -1294623.5, -91006.8, -0.045812998, -0.39634869, -1201839.3, 45671.945, 0.00019006866, 9.9997015, 9.999634 
1.8249987e+3, 1.8269901e+2, -1229801.9, -1218688.5, -121703.51, 0.023057496, -0.3762847, -1102414.9, 47100.547, 0.00000015151502, 9.999453, 9.999616 
1.825035e+3, 1.9269924e+2, -1193458.1, -1115978.9, -104018.47, 0.06315501, -0.35463023, -1043720.3, 7792.6353, 0.0, 9.99891, 9.999893 
1.825071e+3, 2.0269899e+2, -1124768.1, -1107668.9, -60587.74, 0.07129681, -0.32506606, -1055030.5, -101515.766, 0.0, 9.99901, 9.99924 
1.8251066e+3, 2.1269777e+2, -789901.6, -889105.44, -47007.676, 0.0296519, -0.39606982, -771165.6, 84359.586, 0.0, 10.000619, 9.999288 
1.8251419e+3, 2.2269657e+2, -601086.0, -823599.1, -51576.285, -0.0093894135, -0.39887255, -589712.5, 167824.08, 0.0, 10.001553, 9.998628 
1.8251769e+3, 2.3269589e+2, -611932.44, -769752.7, -75983.38, -0.06318823, -0.35357562, -581296.75, 78249.27, 0.0, 10.0007925, 9.998675 
1.8252125e+3, 2.4269518e+2, -531430.8, -633432.44, -9121.663, -0.102165006, -0.29072836, -530621.5, 30933.213, 0.0, 10.00045, 9.999111 
1.82525e+3, 2.5269496e+2, -297793.94, -424603.78, 1866.6888, -0.10530998, -0.27890307, -297766.47, 165788.77, 0.0, 10.001193, 9.99951 
1.8252873e+3, 2.6269424e+2, -210019.72, -425391.4, -45365.418, -0.07838415, -0.25063255, -200854.11, 164706.52, 0.00000011582431, 10.001531, 9.9986725 
1.8253234e+3, 2.7269217e+2, -197883.0, -379410.28, -62192.094, -0.020897025, -0.34027204, -178619.84, 88959.83, 0.000015405387, 10.000976, 9.998585 
1.8253596e+3, 2.826897e+2, -162963.42, -386372.25, 9938.788, 0.013526982, -0.39792827, -162522.16, 7080.473, 0.00016027999, 10.000861, 9.997918 
1.8253966e+3, 2.926875e+2, 88629.48, -215016.4, -23943.344, 0.001218218, -0.43919942, 90505.875, 162129.06, 0.00063761644, 10.001918, 9.99791 
1.8254346e+3, 3.0268565e+2, 285598.44, -128646.59, -53487.86, 0.08298368, -0.38123095, 292393.4, 292393.4, 0.0015046491, 10.003095, 9.997603 
1.825471e+3, 3.1268203e+2, 589339.2, 210856.38, -158431.0, 0.18640605, -0.54869014, 646902.75, 646902.75, 0.002602594, 10.004303, 9.9993725 
1.834775e+3, 1.2266327e+2, -1873559.1, -1523003.3, 26051.66, -0.04972114, -0.18711385, -1521077.9, 216793.84, 0.11569034, 9.9975815, 10.002649 
1.8348132e+3, 1.3265866e+2, -2138793.5, -2112495.8, -236240.97, 0.18664524, -0.48523208, -1889038.0, -249119.4, 0.07769921, 9.997443, 9.997814 
1.8348442e+3, 1.4266104e+2, -1788164.3, -1538533.9, -144062.86, -0.2638769, -0.14721434, -1472737.0, 69159.42, 0.04181763, 9.997651, 10.0009985 
1.8348855e+3, 1.5266149e+2, -1448119.4, -1227714.5, 11867.229, -0.102477945, -0.29885834, -1227077.4, 216807.06, 0.015997248, 9.998887, 10.001866 
1.8349244e+3, 1.6266146e+2, -1404065.0, -1433588.6, -45128.055, -0.10463337, -0.37018275, -1371345.8, -25465.234, 0.0034491862, 9.999719, 9.999359 
1.834962e+3, 1.7266093e+2, -1340821.5, -1402834.8, -86620.664, -0.0032960617, -0.3352525, -1279825.1, -31934.717, 0.00021871291, 9.999715, 9.99889 
1.8349989e+3, 1.8266049e+2, -1191840.6, -1140455.5, -147137.7, 0.06848323, -0.2979023, -1016784.06, 133113.06, 0.00000018976193, 9.999459, 10.000146 
1.8350329e+3, 1.9266064e+2, -1138365.9, -993844.3, -116894.484, -0.06042304, -0.36982244, -928678.94, 123212.88, 0.0, 9.998872, 10.000751 
1.835068e+3, 2.0266058e+2, -1095256.6, -1028760.75, -26229.922, -0.13750674, -0.39917943, -1019659.7, -65770.53, 0.0, 9.998933, 9.999819 
1.8351068e+3, 2.1266034e+2, -776576.6, -829372.1, 22241.135, -0.033287715, -0.4175378, -768456.1, 87433.484, 0.0, 10.000483, 9.999762 
1.8351439e+3, 2.2265978e+2, -637560.0, -856022.7, -67626.82, 0.005747356, -0.3803782, -618320.06, 139574.98, 0.0, 10.001363, 9.998499 
1.8351772e+3, 2.3265874e+2, -651466.94, -818246.7, -95479.51, -0.11881706, -0.34599948, -608088.5, 51820.793, 0.0, 10.000647, 9.998416 
1.8352123e+3, 2.4265741e+2, -555561.3, -645560.8, -1369.209, -0.18941331, -0.32833505, -555540.5, 6383.6973, 0.0, 10.000283, 9.999113 
1.8352512e+3, 2.5265592e+2, -321372.8, -433654.78, 45140.594, -0.12155197, -0.44445658, -305475.72, 158459.7, 0.0, 10.001027, 9.999529 
1.8352892e+3, 2.626548e+2, -209475.45, -390568.47, -62128.973, -0.058296885, -0.46731508, -190209.95, 175733.22, 0.000000090536304, 10.001373, 9.998992 
1.8353246e+3, 2.7265444e+2, -170010.8, -308154.94, -69350.89, -0.0069109085, -0.4369496, -141202.86, 126741.08, 0.00001528185, 10.000914, 9.9991045 
1.8353611e+3, 2.8265265e+2, -214358.86, -484096.75, 18566.67, 0.0465688, -0.43607005, -213086.86, -43126.508, 0.00015297295, 10.000815, 9.9972725 
1.8353993e+3, 2.926489e+2, 254.11209, -356300.0, 36671.71, 0.061518308, -0.54090947, 3986.7344, 75986.77, 0.0006053897, 10.001752, 9.99701 
1.8354376e+3, 3.026471e+2, 270438.84, -94955.47, -13487.271, 0.045307804, -0.43997973, 270936.0, 270936.0, 0.001453225, 10.002807, 9.997977 
1.8354745e+3, 3.126472e+2, 520276.75, 169875.92, -112289.67, 0.07257952, -0.31854215, 553172.9, 553172.9, 0.0025773707, 10.00388, 9.999284 
1.8447728e+3, 1.2262324e+2, -2001582.3, -1586845.3, 93763.0, 0.026462577, -0.22263366, -1566632.6, 171630.97, 0.12272786, 9.996749, 10.002583 
1.8448102e+3, 1.3262038e+2, -1918177.6, -1980069.9, -68516.22, 0.08230477, -0.36945897, -1873943.0, -233648.34, 0.08254445, 9.998874, 9.998025 
1.8448444e+3, 1.4262196e+2, -1394374.6, -1347491.9, 60880.57, -0.14316049, -0.1213318, -1305695.8, 236585.31, 0.04459436, 10.000367, 10.00105 
1.8448845e+3, 1.526224e+2, -1486204.5, -1232334.4, 31111.191, -0.07375309, -0.2863591, -1228577.4, 215691.5, 0.017215712, 9.998575, 10.001985 
1.8449226e+3, 1.626226e+2, -1710699.3, -1512566.1, -65307.45, -0.11125578, -0.36520588, -1492976.6, -146714.69, 0.0037916328, 9.997333, 9.999967 
1.8449609e+3, 1.7262262e+2, -1515085.3, -1399565.4, -12408.92, 0.0057655517, -0.35041872, -1398247.5, -149983.06, 0.00025177147, 9.99816, 9.999659 
1.8449982e+3, 1.8262258e+2, -1260533.8, -1180132.4, -10069.581, 0.08761988, -0.3186516, -1178890.4, -28624.357, 0.00000025167606, 9.999007, 10.000094 
1.8450323e+3, 1.9262274e+2, -1008523.94, -964008.75, -83583.91, -0.04906446, -0.3648009, -899769.7, 152492.73, 0.0, 9.999891, 10.000467 
1.8450674e+3, 2.0262267e+2, -907732.44, -945877.94, -41680.176, -0.13428721, -0.37518963, -880968.5, 73293.086, 0.0, 10.000243, 9.9997635 
1.8451063e+3, 2.126224e+2, -909081.5, -889897.56, -41980.95, -0.059877742, -0.39580327, -856426.7, -163.59964, 0.0, 9.999561, 9.999793 
1.8451437e+3, 2.2262196e+2, -897518.9, -927741.5, -121409.19, -0.028642964, -0.36661464, -790284.2, -32016.783, 0.0, 9.999372, 9.998954 
1.8451776e+3, 2.3262127e+2, -620245.1, -738590.75, -110779.31, -0.13804005, -0.3531205, -553825.44, 106450.75, 0.0, 10.00059, 9.998981 
1.8452132e+3, 2.4262019e+2, -400132.47, -557145.56, 34291.324, -0.16654383, -0.35297877, -392970.03, 169317.22, 0.0, 10.001307, 9.99922 
1.8452528e+3, 2.526186e+2, -366901.97, -460788.97, 50088.477, -0.023867674, -0.47439632, -345197.47, 119102.11, 0.0, 10.000737, 9.999479 
1.8452913e+3, 2.626174e+2, -289269.34, -443493.34, -25071.521, 0.052445922, -0.5003652, -285295.94, 81012.84, 0.00000009817215, 10.000897, 9.998853 
1.8453263e+3, 2.7261713e+2, 115307.414, -191866.67, -88979.52, -0.032088287, -0.43978664, 139220.61, 407530.06, 0.000013983738, 10.0029745, 9.998902 
1.8453628e+3, 2.8261545e+2, 284412.1, -219015.08, -18406.27, -0.0140302805, -0.42375606, 285084.16, 455409.16, 0.00014293527, 10.004149, 9.997489 
1.8454023e+3, 2.9261163e+2, 227957.52, -204322.42, 34875.234, 0.13257475, -0.56185967, 230753.1, 303116.16, 0.0005725451, 10.003122, 9.997412 
1.8454401e+3, 3.0260956e+2, 249907.17, -69970.4, 106315.43, 0.07499202, -0.5316215, 282018.88, 282018.88, 0.0013987414, 10.002532, 9.998281 
1.8454772e+3, 3.1261006e+2, 438335.7, 90986.38, -104274.42, -0.008719618, -0.37127876, 467234.56, 467234.56, 0.0025301157, 10.003489, 9.998919 
1.8547691e+3, 1.2258302e+2, -1924855.8, -1469231.1, 8044.9556, -0.04862077, -0.28406495, -1469089.1, 269566.22, 0.13014582, 9.99682, 10.003483 
1.8548074e+3, 1.3258314e+2, -1759294.0, -1649867.1, 47619.03, -0.10219958, -0.34379607, -1632046.9, 8604.059, 0.08765755, 9.99886, 10.000301 
1.8548465e+3, 1.4258388e+2, -1464220.8, -1503401.6, 29473.42, 0.00006558323, -0.2767526, -1448421.0, 94223.17, 0.04753598, 10.000418, 9.99991 
1.854883e+3, 1.5258317e+2, -1630117.0, -1536001.5, -35493.086, -0.075483985, -0.3535755, -1524117.0, -79464.836, 0.01851746, 9.998605, 9.999866 
1.8549195e+3, 1.6258313e+2, -1620701.1, -1329507.8, -69474.93, -0.18993293, -0.37287816, -1313781.3, 32870.258, 0.0041650403, 9.997345, 10.001217 
1.8549582e+3, 1.725844e+2, -1357573.5, -1072463.1, 31145.053, -0.095485196, -0.4471324, -1069100.5, 179532.97, 0.00029041685, 9.998148, 10.001915 
1.8549965e+3, 1.8258522e+2, -1299881.1, -1262317.8, 14010.314, -0.0037500956, -0.44739613, -1257667.8, -107045.05, 0.0000003514084, 9.999013, 9.999528 
1.8550329e+3, 1.9258553e+2, -1119157.0, -1180823.0, -44440.87, 0.010659448, -0.34164044, -1095900.6, -43275.715, 0.0, 9.999834, 9.999008 
1.8550691e+3, 2.0258525e+2, -967404.5, -1049729.5, -62403.98, -0.016997563, -0.25391814, -933810.0, 20821.89, 0.0, 10.000158, 9.999093 
1.8551053e+3, 2.1258394e+2, -956932.25, -960350.25, -60364.2, -0.11086213, -0.33440349, -898252.9, -41607.04, 0.0, 9.999437, 9.99937 
1.8551417e+3, 2.2258306e+2, -849266.75, -793903.0, -98150.1, -0.18421288, -0.3628289, -719605.8, 39048.53, 0.0, 9.999219, 9.999951 
1.8551776e+3, 2.3258357e+2, -543516.9, -546935.5, -51730.51, -0.20581089, -0.36109847, -493467.44, 167178.58, 0.0, 10.000445, 10.000372 
1.8552148e+3, 2.4258362e+2, -415796.22, -548677.06, 18528.572, -0.1407883, -0.33660957, -413261.0, 149381.72, 0.0, 10.001126, 9.999367 
1.855255e+3, 2.525828e+2, -399489.2, -493612.66, 35486.883, 0.10784333, -0.37205818, -387609.2, 77040.69, 0.0, 10.000595, 9.999319 
1.8552935e+3, 2.6258168e+2, -347720.72, -534174.75, 19645.297, 0.17345677, -0.36003476, -345673.34, 20987.355, 0.00000008466028, 10.000762, 9.998299 
1.855328e+3, 2.7258015e+2, 29847.326, -315694.5, 7608.533, -0.16388322, -0.35485363, 30014.78, 298691.44, 0.000011476472, 10.002751, 9.998158 
1.8553647e+3, 2.8257808e+2, 295419.0, -136217.67, -45420.758, -0.2556508, -0.3514895, 300146.8, 470842.4, 0.00012751702, 10.00388, 9.998194 
1.8554053e+3, 2.925755e+2, 295464.22, -14425.214, 4589.423, 0.11355255, -0.4933903, 295532.16, 368246.34, 0.00053064205, 10.00291, 9.99882 
1.8554425e+3, 3.0257285e+2, 219558.94, -83769.02, 102646.04, 0.02590407, -0.61611426, 251029.27, 251029.27, 0.001324133, 10.0023155, 9.998292 
1.8554801e+3, 3.1257266e+2, 320521.78, -40353.5, -35029.25, -0.10499052, -0.47122964, 323890.53, 323890.53, 0.0024247223, 10.003019, 9.998237 
1.8647675e+3, 1.2254294e+2, -1684507.1, -1405359.3, -43359.684, 0.025633065, -0.35443258, -1398779.4, 340266.34, 0.1378835, 9.998727, 10.003082 
1.8648048e+3, 1.3254462e+2, -1857236.3, -1603180.8, -511.88098, -0.16819778, -0.33826137, -1603179.8, 37845.055, 0.09301642, 9.99776, 10.001174 
1.8648458e+3, 1.425449e+2, -1919873.4, -1712985.0, -75967.98, 0.06490084, -0.37205398, -1688086.6, -145064.56, 0.050644647, 9.997242, 9.999977 
1.8648817e+3, 1.5254472e+2, -1750939.9, -1613441.0, -40675.3, -0.02993186, -0.3796296, -1602309.5, -157282.73, 0.01991141, 9.997872, 9.999678 
1.8649176e+3, 1.6254514e+2, -1465441.4, -1224609.1, 37405.47, -0.13246255, -0.353543, -1218933.3, 128089.875, 0.0045744055, 9.998285, 10.00148 
1.8649563e+3, 1.7254639e+2, -1337657.4, -1013768.6, -4112.2515, -0.08291976, -0.4712324, -1013716.44, 235287.64, 0.0003360051, 9.99809, 10.002332 
1.8649948e+3, 1.825472e+2, -1425372.0, -1305183.9, -57691.77, -0.020852186, -0.5048767, -1281973.4, -130980.64, 0.00000050835786, 9.998081, 9.9996805 
1.865032e+3, 1.9254771e+2, -1245593.4, -1229866.9, -15748.158, 0.003330062, -0.3874854, -1220128.0, -167135.45, 0.0, 9.998928, 9.999106 
1.865069e+3, 2.0254764e+2, -1070712.5, -1117878.0, 36370.082, 0.009336874, -0.28169444, -1050948.6, -95950.81, 0.0, 9.999541, 9.998915 
1.8651055e+3, 2.1254626e+2, -947520.1, -988516.6, 23950.863, -0.04796265, -0.3443121, -936493.44, -79479.555, 0.0, 9.999637, 9.999081 
1.8651418e+3, 2.2254527e+2, -760776.4, -736553.56, 16977.63, -0.10073192, -0.37097278, -727810.1, 31213.936, 0.0, 9.9997635, 10.000085 
1.8651782e+3, 2.3254581e+2, -574230.3, -532575.9, -24862.24, -0.15646853, -0.3918285, -520970.0, 140044.3, 0.0, 10.000113, 10.000635 
1.8652159e+3, 2.4254598e+2, -505126.3, -601514.8, -16055.356, -0.10128971, -0.36784294, -502522.34, 60487.074, 0.0, 10.000553, 9.999279 
1.8652563e+3, 2.5254536e+2, -323530.5, -484319.84, -25186.355, 0.15809292, -0.35975534, -319677.6, 145338.03, 0.0, 10.001226, 9.999083 
1.8652952e+3, 2.6254407e+2, -220154.17, -505759.88, 16031.212, 0.22372681, -0.33752945, -219257.16, 147772.17, 0.000000065173005, 10.001787, 9.997995 
1.8653306e+3, 2.7254173e+2, -86519.305, -413809.4, 6555.514, -0.13325676, -0.37879547, -86388.05, 182666.73, 0.000009433609, 10.002126, 9.99779 
1.865368e+3, 2.8253964e+2, 88592.46, -224940.11, -60224.195, -0.21172483, -0.35912523, 99762.54, 270837.4, 0.00011541111, 10.002422, 9.998271 
1.8654087e+3, 2.925385e+2, 289722.28, 12809.249, -124905.94, 0.1810657, -0.3803203, 337737.47, 410816.72, 0.0004954094, 10.002755, 9.999057 
1.865445e+3, 3.0253568e+2, 283727.1, -85002.22, -35998.063, 0.036124963, -0.52062964, 287208.63, 287208.63, 0.001249624, 10.002884, 9.998004 
1.8654835e+3, 3.1253394e+2, 339794.22, -36159.17, -184693.06, -0.056294993, -0.4912597, 415345.06, 415345.06, 0.0022871592, 10.003138, 9.998211 
1.8747668e+3, 1.22503325e+2, -1816078.3, -1658294.1, -196695.63, 0.020600187, -0.43665496, -1525259.0, 214172.25, 0.14588223, 9.998791, 10.001122 
1.8748026e+3, 1.3250487e+2, -1904546.0, -1690811.8, -26720.404, -0.18840335, -0.3559737, -1687521.9, -46106.285, 0.0986057, 9.997731, 10.000562 
1.8748417e+3, 1.4250503e+2, -1835031.3, -1533588.0, -73644.69, -0.065227844, -0.40962878, -1516558.1, 26856.39, 0.053927336, 9.997214, 10.001232 
1.8748797e+3, 1.5250716e+2, -1620383.9, -1346935.3, -660.595, -0.026098043, -0.36606297, -1346933.6, 98458.56, 0.021407956, 9.9978695, 10.001528 
1.8749173e+3, 1.6250877e+2, -1508928.8, -1321856.8, 30042.39, -0.029385794, -0.31112465, -1317150.6, 30224.543, 0.0050250688, 9.998315, 10.000798 
1.874955e+3, 1.7250861e+2, -1446770.9, -1238386.5, -5831.9404, -0.04202859, -0.42458707, -1238223.5, 11152.706, 0.00038988978, 9.998073, 10.000803 
1.8749924e+3, 1.8250844e+2, -1361068.6, -1172452.1, -45226.586, -0.0733754, -0.49460414, -1162168.4, -10791.603, 0.000000733184, 9.998087, 10.000591 
1.8750295e+3, 1.925093e+2, -1134763.0, -989587.2, 24579.16, -0.14536837, -0.4991947, -985538.7, 67826.945, 0.0, 9.998882, 10.000781 
1.8750672e+3, 2.0250972e+2, -1052961.5, -1071758.6, 33889.875, -0.14349234, -0.46085438, -1027191.06, -71830.516, 0.0, 9.999492, 9.99926 
1.875106e+3, 2.1250933e+2, -972697.1, -1017047.7, 34255.934, 0.035841595, -0.41726145, -954065.4, -96697.664, 0.0, 9.999525, 9.998944 
1.8751438e+3, 2.2250867e+2, -832132.06, -852078.1, 18772.607, 0.107098415, -0.37460762, -820847.8, -61471.516, 0.0, 9.999613, 9.999368 
1.8751793e+3, 2.3250787e+2, -655312.1, -667621.6, -1536.7847, -0.07426234, -0.44503835, -655123.2, 6258.968, 0.0, 9.999968, 9.999775 
1.8752162e+3, 2.4250706e+2, -553294.2, -663719.56, -1269.8475, -0.13721, -0.4552537, -553279.6, 10109.377, 0.0, 10.000387, 9.998937 
1.8752566e+3, 2.5250643e+2, -361454.84, -523660.28, 13111.289, 0.05397868, -0.42649034, -360401.88, 104993.9, 0.0, 10.001062, 9.998891 
1.8752961e+3, 2.625049e+2, -256248.16, -546440.7, 22140.475, 0.11872898, -0.40731737, -254568.66, 112843.37, 0.00000004605578, 10.001623, 9.997806 
1.8753336e+3, 2.7250203e+2, -122244.15, -445420.97, 33843.586, -0.05367989, -0.48448783, -118738.04, 150704.58, 0.000008319171, 10.001936, 9.997669 
1.8753724e+3, 2.8250024e+2, 25735.63, -310753.06, -56721.066, -0.037044678, -0.41481975, 35039.7, 206501.47, 0.00010877432, 10.002221, 9.997786 
1.8754122e+3, 2.925005e+2, 195426.23, -119879.7, -90938.42, 0.23966278, -0.22424446, 219773.97, 293231.97, 0.0004719854, 10.002489, 9.998276 
1.8754473e+3, 3.024979e+2, 211039.53, -177109.75, -44657.11, -0.037051782, -0.26851186, 216111.14, 216111.14, 0.0011856594, 10.002631, 9.997494 
1.8754885e+3, 3.1249297e+2, 321043.0, 25754.012, -69343.59, 0.08978251, -0.53070194, 336516.38, 336516.38, 0.0021480394, 10.002723, 9.998836 
1.8847659e+3, 1.22464836e+2, -2006065.0, -1764725.6, -230027.23, 0.12636581, -0.38327706, -1625638.4, 114172.484, 0.15411249, 9.997522, 10.00094 
1.8848011e+3, 1.324658e+2, -1830889.4, -1659395.8, 8606.664, -0.13187256, -0.36930186, -1658965.0, -17163.52, 0.10442951, 9.99826, 10.000518 
1.8848392e+3, 1.4246659e+2, -1619875.6, -1402070.9, -22435.791, -0.09952108, -0.36314496, -1399783.8, 144009.75, 0.057399224, 9.998538, 10.001545 
1.8848775e+3, 1.5246849e+2, -1597858.1, -1266234.5, -59061.42, -0.0093354015, -0.39957276, -1256029.9, 189741.05, 0.023018045, 9.997737, 10.002149 
1.8849155e+3, 1.6247007e+2, -1678709.1, -1422614.3, -49044.11, 0.04451349, -0.37982056, -1413543.3, -65790.086, 0.005521801, 9.997226, 10.000631 
1.884953e+3, 1.7247078e+2, -1504804.0, -1314631.9, -18561.227, -0.01778477, -0.3694896, -1312837.1, -63088.02, 0.0004532519, 9.9978695, 10.000386 
1.8849908e+3, 1.8247111e+2, -1286427.6, -1125491.4, 13365.101, -0.06803274, -0.36615452, -1124389.0, 27357.465, 0.0000010252129, 9.998549, 10.000687 
1.8850292e+3, 1.924712e+2, -1023164.56, -906727.7, -23486.643, -0.09029095, -0.4749311, -902168.6, 151571.86, 0.0, 9.999517, 10.00104 
1.8850677e+3, 2.0247115e+2, -950320.1, -986303.1, -96474.984, -0.06154427, -0.5103287, -870173.4, 85564.55, 0.0, 10.000052, 9.999571 
1.8851058e+3, 2.1247122e+2, -903892.0, -940430.75, -97171.21, 0.069321275, -0.4530095, -823287.7, 34451.785, 0.0, 9.999837, 9.999307 
1.8851435e+3, 2.2247086e+2, -823970.56, -872742.1, -46158.53, 0.12986343, -0.391894, -796152.2, -36407.656, 0.0, 9.99979, 9.999129 
1.88518e+3, 2.3246971e+2, -628360.0, -707964.1, -44808.93, 0.0015286688, -0.45404768, -608228.44, 53527.11, 0.0, 10.000372, 9.999306 
1.8852176e+3, 2.424685e+2, -506506.06, -685018.75, -7999.406, -0.057933006, -0.45856732, -506148.34, 57619.348, 0.0, 10.000904, 9.998535 
1.8852572e+3, 2.5246742e+2, -353006.16, -567706.1, -32913.55, 0.015932709, -0.4331663, -348073.8, 117706.43, 0.0, 10.001327, 9.99846 
1.8852967e+3, 2.6246592e+2, -245310.06, -494895.25, -12430.721, 0.05535535, -0.40415576, -244692.47, 123104.33, 0.000000017635879, 10.001515, 9.998202 
1.8853359e+3, 2.7246398e+2, -149407.69, -377940.63, 29704.063, 0.02888691, -0.44951388, -145609.94, 124204.97, 0.000007223604, 10.001419, 9.998372 
1.8853757e+3, 2.8246233e+2, -84039.75, -378713.16, 24556.07, 0.099883415, -0.40225026, -82007.43, 89823.09, 0.00010058898, 10.001562, 9.997623 
1.8854144e+3, 2.9246083e+2, 133977.52, -219440.72, -28291.496, 0.23677327, -0.34776506, 136227.95, 210073.4, 0.00044319447, 10.002364, 9.997657 
1.8854496e+3, 3.0245784e+2, 220213.06, -276380.25, 41203.176, -0.079808675, -0.3465477, 223608.55, 223608.55, 0.0011127426, 10.003123, 9.9965925 
1.8854931e+3, 3.1245434e+2, 554539.94, 144380.39, -27246.59, 0.23148541, -0.38742918, 556342.0, 556342.0, 0.0020053464, 10.004299, 9.998894 
1.8947639e+3, 1.224273e+2, -1877430.5, -1533755.4, -172820.63, 0.14101112, -0.23814811, -1461881.9, 278304.72, 0.16258536, 9.997559, 10.002724 
1.8947996e+3, 1.3242742e+2, -1800210.9, -1600310.3, 47366.336, -0.10240157, -0.3825527, -1589654.8, 52527.023, 0.110513955, 9.998239, 10.000988 
1.8948376e+3, 1.4242965e+2, -1659392.5, -1472980.4, -47915.207, -0.13446075, -0.23578735, -1461385.5, 82772.47, 0.06108175, 9.99852, 10.001038 
1.894875e+3, 1.5242876e+2, -1653902.8, -1374956.8, -82949.33, -0.05615532, -0.4817576, -1352154.4, 94008.13, 0.024752133, 9.997716, 10.0014 
1.8949124e+3, 1.6242893e+2, -1646263.3, -1363175.0, -45553.344, -0.016434351, -0.57126874, -1356025.4, -7866.6133, 0.0060684755, 9.997256, 10.001026 
1.8949503e+3, 1.7243285e+2, -1452477.3, -1202323.5, 15758.137, -0.08329933, -0.30915588, -1201334.8, 48788.508, 0.0005270964, 9.997851, 10.001169 
1.8949893e+3, 1.8243521e+2, -1327143.4, -1214663.9, 39220.273, -0.09014959, -0.13069874, -1202338.8, -50236.92, 0.0000013718216, 9.99857, 10.000062 
1.8950306e+3, 1.9243361e+2, -1111345.3, -1074919.9, 19480.717, 0.074501865, -0.30534315, -1066464.3, -12348.787, 0.0, 9.999456, 9.999911 
1.89507e+3, 2.0243211e+2, -942817.7, -962845.0, -101672.6, 0.14913689, -0.42110318, -850666.8, 105461.26, 0.0, 10.000004, 9.9997635 
1.895105e+3, 2.1243195e+2, -869446.5, -849067.3, -99357.945, -0.011906261, -0.45014632, -759377.8, 98750.87, 0.0, 9.999737, 9.999989 
1.8951412e+3, 2.2243164e+2, -834976.06, -858673.8, -41777.086, -0.10220789, -0.43442005, -803400.06, -43269.117, 0.0, 9.999627, 9.999307 
1.8951803e+3, 2.3243135e+2, -650333.1, -719313.25, -10977.32, -0.015450311, -0.41267213, -648628.4, 13505.633, 0.0, 10.000228, 9.999294 
1.8952195e+3, 2.4243045e+2, -562089.75, -774816.7, 114.036674, 0.033780653, -0.3647834, -562089.7, 2054.469, 0.0, 10.000777, 9.997989 
1.8952581e+3, 2.5242838e+2, -424218.8, -680085.94, -6133.411, -0.033196628, -0.37235385, -424071.88, 42096.8, 0.0, 10.001171, 9.997765 
1.8952973e+3, 2.6242682e+2, -208337.63, -381055.75, -20413.59, -0.05821783, -0.32997876, -205957.73, 162227.47, 0.0000000071100716, 10.0013485, 9.999067 
1.8953376e+3, 2.7242726e+2, -76902.34, -180044.19, 36010.215, 0.029665058, -0.28298736, -65574.18, 204601.0, 0.0000064443307, 10.001225, 9.999819 
1.8953773e+3, 2.8242576e+2, -97410.32, -378799.25, 28377.957, 0.09849679, -0.31493536, -94576.945, 77606.98, 0.0000894982, 10.001422, 9.997698 
1.8954152e+3, 2.9241943e+2, 68414.0, -320351.56, 16773.549, 0.06438754, -0.70450526, 69136.37, 143378.77, 0.00040204253, 10.002203, 9.997046 
1.8954512e+3, 3.0241576e+2, 94600.16, -488508.22, 61478.113, -0.2528444, -0.67241794, 101011.41, 101011.41, 0.0010225481, 10.0029335, 9.995216 
1.8954974e+3, 3.1241727e+2, 376861.44, -65840.164, 130427.58, 0.19671606, -0.07827803, 412429.94, 412429.94, 0.0018580131, 10.003664, 9.99774 
1.9047622e+3, 1.22389674e+2, -1679117.1, -1403028.9, -53288.32, 0.1695277, -0.21335737, -1393100.6, 347457.94, 0.1713416, 9.9987135, 10.003226 
1.9047983e+3, 1.3239e+2, -1836188.4, -1613995.4, 85136.98, -0.03204971, -0.36789393, -1585125.0, 57425.766, 0.11689223, 9.998003, 10.0009985 
1.9048364e+3, 1.4239281e+2, -1813379.5, -1576411.9, -2468.5693, -0.04552709, -0.14287311, -1576386.3, -31864.895, 0.06499328, 9.997598, 10.000742 
1.9048738e+3, 1.5239176e+2, -1498679.9, -1307936.1, -8625.504, 0.0178508, -0.39878654, -1307546.9, 138980.6, 0.026617203, 9.998795, 10.001354 
1.9049112e+3, 1.6239147e+2, -1336116.6, -1245808.9, 64700.133, 0.04561156, -0.5200873, -1212064.1, 136463.27, 0.0066676727, 9.9995165, 10.000748 
1.904949e+3, 1.7239408e+2, -1254778.8, -1139245.1, 33343.418, -0.06931634, -0.35830683, -1130312.8, 120190.086, 0.0006122247, 9.999358, 10.000865 
1.9049878e+3, 1.823957e+2, -1246904.4, -1202898.1, 41753.52, -0.09407599, -0.22790079, -1177704.9, -25216.824, 0.0000017786746, 9.999247, 9.999816 
1.9050303e+3, 1.9239478e+2, -1082823.4, -1088725.4, 70399.7, 0.10543807, -0.30698702, -1015312.8, 39183.848, 0.0, 9.99977, 9.999672 
1.9050702e+3, 2.0239387e+2, -948683.0, -953708.6, -28333.879, 0.19797522, -0.35117266, -922750.75, 33754.176, 0.0, 9.999932, 9.999849 
1.9051044e+3, 2.1239364e+2, -914853.44, -856001.56, -89694.445, -0.014805011, -0.4010842, -791029.56, 67476.25, 0.0, 9.999361, 10.000123 
1.9051403e+3, 2.2239318e+2, -872763.5, -897475.44, 723.133, -0.13182005, -0.40176293, -872742.4, -112233.01, 0.0, 9.999452, 9.999126 
1.9051811e+3, 2.323926e+2, -496811.94, -681223.94, 7381.1943, -0.0073165786, -0.3842317, -496516.97, 165998.4, 0.0, 10.001434, 9.998975 
1.9052215e+3, 2.4239153e+2, -317287.72, -666675.2, -16282.416, 0.085674055, -0.3290221, -316530.53, 247996.66, 0.0, 10.002527, 9.997871 
1.9052601e+3, 2.5238955e+2, -396384.34, -670327.2, -18521.176, 0.052843776, -0.32238415, -395137.8, 71413.12, 0.0, 10.001388, 9.997717 
1.9052991e+3, 2.623879e+2, -337849.53, -477861.4, 7141.089, 0.048149828, -0.27543488, -337486.28, 31082.068, 0.000000016068412, 10.000614, 9.99875 
1.905339e+3, 2.7238756e+2, -105892.79, -247572.52, -74482.42, 0.08197484, -0.257557, -73942.0, 196623.5, 0.000006020835, 10.00123, 9.999364 
1.9053791e+3, 2.823854e+2, 30258.035, -298140.3, -102852.23, 0.10899344, -0.3365184, 59811.152, 232391.83, 0.00007835106, 10.002211, 9.997878 
1.9054188e+3, 2.9237947e+2, 393747.44, -119695.68, -92739.71, 0.11350477, -0.72219455, 409984.88, 484618.94, 0.00035541307, 10.0042515, 9.997435 
1.9054565e+3, 3.0237666e+2, 423275.9, -318520.53, -38.254566, -0.1089116, -0.6280878, 423275.94, 423275.94, 0.0009231034, 10.005158, 9.995314 
1.9055004e+3, 3.1237623e+2, 250882.69, -161015.84, 107609.055, 0.20679495, -0.21918552, 277301.25, 277301.25, 0.0017128557, 10.002879, 9.997498 
1.9147594e+3, 1.2235226e+2, -1743021.9, -1512409.9, -113320.734, -0.029786054, -0.29881558, -1466046.3, 274876.9, 0.18042894, 9.998679, 10.002352 
1.9147967e+3, 1.3235362e+2, -1879713.3, -1692074.1, 59976.26, -0.014063335, -0.32997516, -1674541.8, -31634.361, 0.12358676, 9.99798, 10.000421 
1.9148354e+3, 1.4235574e+2, -1806876.8, -1575213.0, 15349.527, 0.06615871, -0.116484635, -1574200.4, -29314.152, 0.069141634, 9.997651, 10.000724 
1.9148739e+3, 1.523575e+2, -1451799.8, -1214067.9, 47027.35, 0.12714107, -0.14846306, -1205103.1, 241761.89, 0.028615344, 9.998794, 10.002023 
1.9149119e+3, 1.6235797e+2, -1389107.8, -1368651.8, 60748.19, 0.12797178, -0.20576042, -1317276.5, 31580.064, 0.0073205116, 9.999576, 9.999869 
1.9149487e+3, 1.7235468e+2, -1360141.6, -1353779.8, 30512.518, -0.054481044, -0.49848092, -1326282.8, -75397.15, 0.00070924795, 9.999343, 9.999397 
1.9149867e+3, 1.8235257e+2, -1236166.0, -1189894.4, 46005.14, -0.1690011, -0.64925164, -1161535.1, -8630.578, 0.0000023137907, 9.999279, 9.999896 
1.9150284e+3, 1.9235478e+2, -1046581.8, -1000525.4, 98916.68, -0.064743206, -0.46833515, -921991.75, 132891.97, 0.0, 9.999709, 10.000312 
1.9150685e+3, 2.023564e+2, -964720.1, -974035.5, -47464.145, 0.0013741986, -0.29786834, -921685.7, 35183.293, 0.0, 9.999866, 9.999744 
1.9151038e+3, 2.1235636e+2, -954737.4, -916569.75, -106052.72, -0.029672055, -0.29812753, -827897.5, 30973.242, 0.0, 9.99926, 9.999755 
1.9151406e+3, 2.2235559e+2, -930823.75, -985145.3, 46337.813, -0.054624286, -0.28768557, -904273.25, -143394.13, 0.0, 9.999306, 9.998599 
1.9151822e+3, 2.323536e+2, -565586.1, -779055.56, 96257.016, -0.04739161, -0.34844843, -528592.94, 134305.31, 0.0, 10.001249, 9.998391 
1.9152234e+3, 2.4235165e+2, -330346.66, -650101.44, -39408.777, 0.0017072929, -0.3494101, -325561.28, 239356.31, 0.0, 10.002329, 9.998086 
1.9152628e+3, 2.5235078e+2, -380159.16, -603089.8, -57922.902, 0.16950577, -0.2794127, -366007.66, 100921.05, 0.0, 10.001248, 9.998244 
1.9153021e+3, 2.6234925e+2, -450514.28, -690049.5, -805.31866, 0.25803384, -0.20642671, -450511.56, -81565.94, 0.000000038925435, 10.00051, 9.997351 
1.9153404e+3, 2.7234545e+2, -272895.56, -561496.0, -36506.715, 0.08762459, -0.3361301, -268349.25, 2632.4316, 0.0000054500297, 10.001094, 9.997274 
1.9153805e+3, 2.8234178e+2, 13047.835, -297327.16, -48205.055, 0.008342653, -0.43623948, 20362.297, 193377.77, 0.00006657065, 10.0020485, 9.997965 
1.9154245e+3, 2.923404e+2, 406456.16, -10540.159, 3343.0144, 0.24705167, -0.4420981, 406482.97, 481506.44, 0.00030456812, 10.003905, 9.99835 
1.9154648e+3, 3.0234018e+2, 468024.8, -145457.22, -63978.03, 0.18278354, -0.20203006, 474625.84, 474625.84, 0.00081260083, 10.004798, 9.996673 
1.9154997e+3, 3.123341e+2, 230337.19, -88889.56, 36638.23, -0.1893903, -0.51641953, 234488.23, 234488.23, 0.0015525428, 10.002415, 9.998196 
1.9247575e+3, 1.2231577e+2, -1758628.8, -1528301.9, -92001.21, -0.06619935, -0.24963816, -1496065.1, 245213.6, 0.18987963, 9.998574, 10.002298 
1.9247961e+3, 1.3231637e+2, -1806265.8, -1741821.3, -34032.742, 0.10056014, -0.30553484, -1727176.6, -83906.375, 0.13060497, 9.998838, 9.999671 
1.9248338e+3, 1.4231639e+2, -1733850.6, -1587690.1, -28146.47, 0.11134043, -0.2330509, -1582457.3, -37187.277, 0.07352615, 9.998358, 10.0002985 
1.9248728e+3, 1.523188e+2, -1500269.8, -1249132.8, -55080.18, 0.16106622, -0.18175615, -1237583.5, 209659.48, 0.030745408, 9.998522, 10.001906 
1.9249114e+3, 1.6231966e+2, -1501677.4, -1442526.6, -55688.313, 0.17645715, -0.18546875, -1409047.4, -59816.047, 0.008026891, 9.998909, 9.999674 
1.9249493e+3, 1.7231616e+2, -1255945.1, -1330934.6, -19682.418, 0.036325864, -0.4772578, -1251093.1, 168.84523, 0.0008187495, 10.00018, 9.99915 
1.9249876e+3, 1.823138e+2, -1069962.6, -1141567.1, 31768.074, -0.05944085, -0.62678045, -1057900.3, 95382.695, 0.0000031359323, 10.000558, 9.999608 
1.9250278e+3, 1.9231537e+2, -1171894.6, -1090852.0, -2306.5642, -0.04865148, -0.48154208, -1090786.4, -35517.324, 0.0, 9.998979, 10.000037 
1.9250672e+3, 2.0231646e+2, -1220457.4, -1135364.8, -142743.02, -0.01859673, -0.335251, -1028962.25, -71702.266, 0.0, 9.99828, 9.999401 
1.9251043e+3, 2.1231627e+2, -806543.2, -881561.44, -206064.5, 0.043491386, -0.31424353, -634601.8, 224661.25, 0.0, 10.000451, 9.999414 
1.9251423e+3, 2.2231534e+2, -567432.06, -829147.7, -36905.71, 0.06540563, -0.29255503, -562327.4, 198945.45, 0.0, 10.0019, 9.998414 
1.9251831e+3, 2.323128e+2, -581169.44, -801814.75, 26328.502, -0.059451334, -0.3890452, -578071.3, 85225.734, 0.0, 10.001203, 9.998261 
1.925224e+3, 2.423106e+2, -550808.7, -747271.56, -92723.195, -0.07877077, -0.41397244, -513958.66, 51360.188, 0.0, 10.0007715, 9.998171 
1.9252641e+3, 2.5231025e+2, -327175.28, -569742.06, -160693.33, 0.17911269, -0.30022612, -247133.06, 220190.94, 0.0, 10.001556, 9.998341 
1.9253042e+3, 2.6230878e+2, -234357.53, -630665.25, -59107.848, 0.34908333, -0.20758002, -225729.64, 143610.0, 0.000000047147957, 10.002193, 9.996945 
1.9253428e+3, 2.72304e+2, -132709.11, -556131.6, -19314.33, 0.17317905, -0.38083065, -131829.92, 139556.77, 0.0000044268, 10.002332, 9.996712 
1.925383e+3, 2.8229985e+2, 6102.815, -322393.2, 55636.945, 0.080744565, -0.48702097, 15270.141, 188696.69, 0.000054025306, 10.002121, 9.997742 
1.9254273e+3, 2.9229933e+2, 74440.625, -188157.95, 24253.514, 0.26357803, -0.38935262, 76661.88, 152089.6, 0.00025235597, 10.001684, 9.998203 
1.9254684e+3, 3.022987e+2, 103505.4, -223876.1, -89655.78, 0.22569337, -0.2157606, 126450.18, 126450.18, 0.000694764, 10.001862, 9.997554 
1.9255042e+3, 3.122935e+2, 412425.38, 95678.72, -115243.055, -0.0037146024, -0.54446524, 449917.0, 449917.0, 0.0013677371, 10.003202, 9.999107 
1.9347554e+3, 1.222787e+2, -1685206.6, -1405403.3, -31989.969, -0.16633809, -0.21861123, -1401792.5, 339847.8, 0.1997211, 9.998628, 10.003341 
1.9347961e+3, 1.3227798e+2, -1874862.4, -1882793.1, -53608.78, 0.20194826, -0.31526622, -1825072.5, -181430.8, 0.13795441, 9.998832, 9.99871 
1.934831e+3, 1.4227498e+2, -1785006.6, -1701221.4, -38653.715, -0.03598227, -0.46604255, -1686113.1, -140443.5, 0.07814733, 9.998386, 9.999506 
1.9348702e+3, 1.5227562e+2, -1568940.0, -1388456.1, -41677.26, 0.029935105, -0.49908632, -1379296.9, 68364.63, 0.033007, 9.998518, 10.000928 
1.9349097e+3, 1.622762e+2, -1461913.6, -1365598.5, -27689.002, 0.0876943, -0.48726127, -1358205.8, -8551.303, 0.008786739, 9.99893, 10.0001955 
1.9349505e+3, 1.7227842e+2, -1186912.0, -1185363.4, 36494.98, 0.1332667, -0.2989765, -1149634.5, 101997.97, 0.00094156526, 10.000165, 10.000164 
1.9349903e+3, 1.8227938e+2, -1106338.9, -1222761.4, -8899.9795, 0.14147928, -0.15929006, -1105662.4, 47960.965, 0.0000044945964, 10.000581, 9.99904 
1.9350281e+3, 1.9227669e+2, -1260892.1, -1267178.0, -58143.32, 0.07195367, -0.33346328, -1205806.9, -150155.5, 0.0, 9.9989395, 9.998847 
1.9350661e+3, 2.0227414e+2, -1267825.4, -1224127.3, -104880.16, 0.038915165, -0.45282426, -1138844.5, -181167.47, 0.0, 9.998233, 9.998818 
1.9351056e+3, 2.1227337e+2, -853998.0, -948464.25, -111236.82, 0.13050465, -0.44557023, -780381.6, 79301.055, 0.0, 10.000311, 9.999026 
1.935145e+3, 2.2227225e+2, -589513.56, -825801.94, -43730.785, 0.13016501, -0.4227585, -581679.9, 180012.5, 0.0, 10.001696, 9.998531 
1.9351836e+3, 2.3227026e+2, -584189.3, -765731.4, 4795.187, -0.13345182, -0.49649757, -584062.7, 79649.16, 0.0, 10.001032, 9.998585 
1.935223e+3, 2.422685e+2, -579901.06, -770271.25, -88820.08, -0.26045886, -0.4910213, -544897.0, 20832.322, 0.0, 10.000604, 9.998098 
1.9352642e+3, 2.5226808e+2, -364107.4, -610319.2, -120818.69, 0.016671052, -0.36886913, -314724.97, 153010.27, 0.0, 10.001406, 9.998134 
1.9353054e+3, 2.6226667e+2, -231382.03, -584206.06, -58117.84, 0.24125972, -0.27246118, -222055.3, 147694.36, 0.00000001782158, 10.002027, 9.997343 
1.9353461e+3, 2.7226302e+2, -117113.79, -472504.97, -6383.9873, 0.2450376, -0.390533, -116999.15, 154784.08, 0.0000033385966, 10.002133, 9.997371 
1.9353867e+3, 2.8225955e+2, -50298.27, -413669.47, 22192.693, 0.20481381, -0.4501397, -48947.883, 124867.805, 0.00004416703, 10.001989, 9.997188 
1.9354272e+3, 2.9225665e+2, -16240.504, -332486.34, 24538.904, 0.0680074, -0.5046451, -14347.751, 61496.086, 0.00021030295, 10.001501, 9.997298 
1.9354674e+3, 3.0225307e+2, 81634.78, -212228.08, -60230.445, -0.07906442, -0.5778625, 93500.555, 93500.555, 0.0005914213, 10.001614, 9.997754 
1.9355114e+3, 3.1225282e+2, 399814.0, 211797.48, -70566.88, 0.3662127, -0.47790593, 423352.5, 423352.5, 0.0011860685, 10.002645, 10.000149 
1.9447549e+3, 1.22238725e+2, -1720894.8, -1455999.1, -1290.6962, -0.077785805, -0.32574508, -1455992.9, 286035.53, 0.20999403, 9.998479, 10.003014 
1.9447961e+3, 1.3223836e+2, -1892419.1, -1962869.3, -188996.53, 0.32751712, -0.3045986, -1735393.0, -91364.77, 0.14565058, 9.998998, 9.998094 
1.9448297e+3, 1.422344e+2, -1688516.9, -1695966.3, -106105.14, -0.015559801, -0.5080699, -1586071.0, -40004.707, 0.083007626, 9.9992075, 9.999157 
1.9448695e+3, 1.5223438e+2, -1464170.9, -1402432.9, -97062.74, 0.0658258, -0.55398846, -1331448.8, 116615.67, 0.03539992, 9.999512, 10.000361 
1.9449092e+3, 1.6223447e+2, -1385339.9, -1344936.4, -55053.145, 0.13355878, -0.55078906, -1306495.5, 43566.984, 0.009600047, 9.99951, 10.00007 
1.9449505e+3, 1.7223734e+2, -1301683.8, -1231369.8, -71842.53, 0.19080473, -0.29817933, -1186543.1, 65492.957, 0.0010784023, 9.999338, 10.000242 
1.9449909e+3, 1.822388e+2, -1293102.0, -1314455.8, -164785.73, 0.21806996, -0.11296797, -1138647.6, 15376.031, 0.0000066792873, 9.999307, 9.999024 
1.945028e+3, 1.922359e+2, -1111519.4, -1198532.3, -160301.92, 0.122968115, -0.3036925, -988924.9, 67128.33, 0.0, 9.999989, 9.99881 
1.9450659e+3, 2.0223317e+2, -923823.5, -1044069.7, -68356.04, 0.07517488, -0.4437548, -892911.8, 65167.543, 0.0, 10.000542, 9.998936 
1.9451064e+3, 2.12232e+2, -749178.94, -881453.44, -29615.344, 0.151303, -0.49086967, -742851.0, 117235.2, 0.0, 10.000955, 9.999177 
1.9451462e+3, 2.222307e+2, -706488.44, -912279.1, 15344.685, 0.14995211, -0.48548397, -705350.56, 56745.51, 0.0, 10.001009, 9.998269 
1.9451846e+3, 2.3222926e+2, -713985.75, -877653.75, -21429.584, -0.07866165, -0.4625093, -711226.44, -47113.41, 0.0, 10.000342, 9.998157 
1.9452241e+3, 2.4222764e+2, -663477.7, -825703.6, -82062.625, -0.18042743, -0.41261822, -629206.1, -63075.316, 0.0, 10.000116, 9.99795 
1.9452657e+3, 2.522256e+2, -362707.2, -619323.5, -107667.58, 0.036473356, -0.44014886, -323518.2, 144631.25, 0.0, 10.001458, 9.998046 
1.945307e+3, 2.6222327e+2, -154584.61, -516119.6, -57523.977, 0.19730665, -0.44215035, -145652.61, 224518.14, 0.000000002142629, 10.00241, 9.997627 
1.9453473e+3, 2.7222133e+2, -63864.37, -414178.3, -55627.434, 0.16119576, -0.42659232, -55243.28, 216945.48, 0.0000030022966, 10.0023155, 9.997705 
1.945388e+3, 2.8221923e+2, -17686.846, -378237.53, -5529.893, 0.15680072, -0.37224004, -17602.05, 156606.48, 0.00003904193, 10.002131, 9.997366 
1.9454296e+3, 2.9221615e+2, 44591.008, -284595.2, 25221.637, 0.16070077, -0.45454153, 46512.23, 122751.55, 0.0001845939, 10.001825, 9.997477 
1.9454697e+3, 3.0221134e+2, 48595.254, -218715.38, 38505.977, 0.010090973, -0.67078626, 54031.47, 54031.47, 0.0005147017, 10.001366, 9.997816 
1.9455126e+3, 3.1221238e+2, 227934.44, 133228.53, -57749.43, 0.30680278, -0.42601046, 255262.8, 255262.8, 0.0010261646, 10.001413, 10.00021 
1.9547552e+3, 1.2219729e+2, -1843985.1, -1686884.8, 131299.44, 0.0682664, -0.39859283, -1612432.8, 129995.805, 0.22070916, 9.998575, 10.001065 
1.9547959e+3, 1.3219732e+2, -1889644.4, -1975834.1, -176377.55, 0.3896885, -0.26990935, -1751173.3, -106741.98, 0.15369554, 9.99906, 9.99798 
1.9548301e+3, 1.4219464e+2, -1665329.5, -1668520.8, -105629.29, 0.07249901, -0.36305073, -1561283.8, -14822.946, 0.08810495, 9.999296, 9.999302 
1.9548702e+3, 1.5219511e+2, -1474425.6, -1429670.0, -81061.05, 0.18846305, -0.33993095, -1367954.6, 80497.12, 0.037922986, 9.99953, 10.000163 
1.9549099e+3, 1.6219462e+2, -1427383.4, -1446728.4, -67932.96, 0.21011582, -0.35604978, -1368437.8, -17984.113, 0.010466628, 9.999568, 9.999342 
1.9549495e+3, 1.7219295e+2, -1366421.9, -1374184.9, -73678.55, 0.13005164, -0.46936584, -1296522.6, -44049.684, 0.0012294218, 9.999361, 9.999255 
1.9549888e+3, 1.8219188e+2, -1250863.5, -1233081.0, -154554.64, 0.06819246, -0.49260235, -1087162.0, 67323.555, 0.000009908067, 9.999342, 9.999562 
1.9550271e+3, 1.9219296e+2, -1040639.0, -1040191.06, -126849.75, 0.029281182, -0.38714364, -913565.06, 142909.89, 0.0, 9.999941, 9.999921 
1.9550657e+3, 2.0219335e+2, -884644.0, -938725.44, -59671.504, 0.0017338747, -0.31357792, -846172.2, 112296.836, 0.0, 10.000441, 9.999706 
1.9551061e+3, 2.12192e+2, -722289.4, -791099.25, -7155.48, 0.025279686, -0.44775552, -721553.2, 138921.67, 0.0, 10.000813, 9.999862 
1.9551462e+3, 2.2219056e+2, -769443.6, -1008627.25, -7283.0205, 0.03056251, -0.482104, -769222.06, -6736.3794, 0.0, 10.000852, 9.997688 
1.955186e+3, 2.3218979e+2, -811107.8, -1045393.9, -39681.957, 0.01243257, -0.29005197, -804569.2, -140068.05, 0.0, 10.000207, 9.997066 
1.9552265e+3, 2.4218789e+2, -707926.0, -885851.75, -57875.19, 0.03487931, -0.18627015, -690757.2, -124232.81, 0.0, 9.999975, 9.997604 
1.9552684e+3, 2.5218287e+2, -386631.03, -627974.4, -41642.36, 0.1432683, -0.5062407, -379647.97, 88918.664, 0.0, 10.001294, 9.998057 
1.9553089e+3, 2.6217896e+2, -173545.5, -513871.9, -55529.4, 0.12555689, -0.67397815, -164714.2, 205885.75, 0.00000003752054, 10.002216, 9.997744 
1.9553466e+3, 2.7217907e+2, -79011.13, -404314.22, -47269.582, -0.14936689, -0.46736994, -72281.63, 200319.61, 0.0000033251551, 10.002138, 9.99786 
1.9553871e+3, 2.8217903e+2, -7983.621, -306803.44, -27935.268, -0.15613444, -0.23978189, -5394.516, 169208.94, 0.000036409245, 10.001909, 9.997965 
1.955434e+3, 2.9217762e+2, 85300.71, -153161.23, 24285.797, 0.41164315, -0.23639524, 87748.93, 164365.25, 0.00016708692, 10.0016365, 9.998464 
1.9554742e+3, 3.0217317e+2, 20842.215, -246487.3, 5077.329, 0.30674088, -0.48516357, 20938.611, 20938.611, 0.00045037686, 10.001215, 9.997709 
1.9555101e+3, 3.1217155e+2, 135276.27, 12460.782, -2027.3379, -0.11484217, -0.44822362, 135309.72, 135309.72, 0.000871658, 10.00113, 9.999506 
1.9647536e+3, 1.2215465e+2, -1842849.0, -1668619.0, 125381.94, 0.061708573, -0.48380277, -1603059.0, 139783.44, 0.23177752, 9.998542, 10.001212 
1.9647942e+3, 1.3215601e+2, -1840102.3, -1899468.8, -149961.95, 0.3284493, -0.26322892, -1716914.1, -72080.195, 0.1620495, 9.999224, 9.9984 
1.9648309e+3, 1.4215387e+2, -1562398.4, -1639936.6, -77403.67, 0.19598019, -0.3177607, -1514597.5, 32262.44, 0.093428105, 10.000142, 9.999078 
1.9648707e+3, 1.521541e+2, -1349583.1, -1410529.3, -92787.61, 0.24658756, -0.28353736, -1282392.8, 166462.14, 0.04057487, 10.000625, 9.999747 
1.9649099e+3, 1.6215338e+2, -1317111.4, -1426567.4, -100329.52, 0.23838465, -0.28543752, -1257553.9, 93306.46, 0.011385711, 10.000482, 9.999039 
1.9649483e+3, 1.7215103e+2, -1458364.6, -1442013.0, -82682.086, 0.12401282, -0.44175088, -1367103.5, -114217.07, 0.0013940044, 9.998846, 9.999035 
1.9649872e+3, 1.8214965e+2, -1425075.8, -1268441.3, -56479.85, 0.04814427, -0.5004622, -1250200.0, -95298.2, 0.000014255441, 9.997926, 10.000008 
1.9650269e+3, 1.9215141e+2, -1054712.5, -967749.7, -47962.688, 0.04112316, -0.3938954, -946492.75, 110388.586, 0.0, 9.999503, 10.0006275 
1.9650666e+3, 2.0215227e+2, -840999.5, -927521.5, -34656.215, 0.03818895, -0.31659538, -828829.75, 130039.19, 0.0, 10.000767, 9.999633 
1.9651069e+3, 2.1215062e+2, -752341.0, -847696.3, -84503.69, 0.04072331, -0.44962382, -702992.75, 157886.97, 0.0, 10.000774, 9.999497 
1.9651473e+3, 2.2214903e+2, -762802.6, -1000067.2, -106659.305, 0.05632412, -0.47519067, -721904.9, 40988.047, 0.0, 10.000881, 9.997734 
1.9651875e+3, 2.3214826e+2, -572588.25, -914813.6, -71709.86, 0.07454429, -0.29631484, -558169.7, 106737.71, 0.0, 10.001757, 9.997225 
1.9652283e+3, 2.4214625e+2, -385892.47, -732323.4, -4375.812, 0.12641878, -0.21147095, -385837.22, 181092.97, 0.0, 10.002174, 9.997605 
1.9652699e+3, 2.521414e+2, -403933.9, -649232.1, -9997.466, 0.19627035, -0.5103016, -403527.13, 65442.844, 0.0, 10.001216, 9.997956 
1.9653103e+3, 2.621374e+2, -416335.0, -639584.1, -11208.513, 0.14403701, -0.67294997, -415773.66, -44770.555, 0.00000006167767, 10.000606, 9.99765 
1.9653478e+3, 2.721365e+2, -212135.75, -479431.7, -46311.285, -0.17657168, -0.5561239, -204339.33, 68675.03, 0.000003603985, 10.0013, 9.997732 
1.9653888e+3, 2.8213552e+2, -24687.455, -334135.34, -41584.64, -0.17025477, -0.4037246, -19196.602, 155829.44, 0.00003430298, 10.00188, 9.997788 
1.9654366e+3, 2.9213488e+2, 148453.53, -143415.88, -87751.625, 0.5049372, -0.30033293, 172804.72, 249838.34, 0.00015136057, 10.002148, 9.998296 
1.9654769e+3, 3.0213237e+2, 241469.5, -111582.27, -112368.8, 0.41727635, -0.36433417, 274199.75, 274199.75, 0.0003913985, 10.00261, 9.997966 
1.9655108e+3, 3.1212962e+2, 356711.88, 3459.0808, -110760.28, -0.23602735, -0.44296235, 388567.44, 388567.44, 0.0007264296, 10.003112, 9.998513 
1.9747499e+3, 1.22111045e+2, -1671140.4, -1397298.4, 10151.429, -0.20907159, -0.5912642, -1396922.6, 346345.22, 0.24301729, 9.998682, 10.003552 
1.974791e+3, 1.3211462e+2, -1784874.0, -1788385.8, -89400.36, 0.061943363, -0.28282285, -1697212.3, -51978.72, 0.17062773, 9.999232, 9.999166 
1.9748318e+3, 1.4211214e+2, -1591850.6, -1725947.3, -64040.867, 0.2420397, -0.3829338, -1566180.5, -18917.637, 0.09895461, 10.000217, 9.998451 
1.9748706e+3, 1.5211117e+2, -1392583.3, -1515525.1, -71224.55, 0.15307546, -0.39591244, -1359971.1, 89304.0, 0.04335473, 10.000676, 9.998999 
1.9749095e+3, 1.6211054e+2, -1293323.9, -1390092.6, -150793.28, 0.11940651, -0.3487991, -1183342.6, 167941.66, 0.012356995, 10.000548, 9.999258 
1.9749472e+3, 1.7211153e+2, -1418022.5, -1353930.5, -140798.97, 0.09989844, -0.22203402, -1241576.8, 11700.821, 0.0015709848, 9.998835, 9.999643 
1.9749855e+3, 1.82112e+2, -1399404.0, -1214953.6, -37269.516, 0.0735916, -0.14522514, -1207707.6, -52434.633, 0.000019593592, 9.997922, 10.00038 
1.9750267e+3, 1.921112e+2, -1042025.4, -928875.6, 25625.873, 0.0667233, -0.32617286, -923342.5, 133930.67, 0.0, 9.999449, 10.000921 
1.9750679e+3, 2.0210987e+2, -919727.44, -1065759.9, -23665.639, 0.07590753, -0.4533196, -915988.0, 43291.984, 0.0, 10.000664, 9.998731 
1.9751084e+3, 2.12108e+2, -872721.75, -1064445.9, -80220.27, 0.11743738, -0.4744401, -843584.5, 17714.393, 0.0, 10.000633, 9.9980755 
1.9751488e+3, 2.2210619e+2, -749504.94, -935896.8, -92083.82, 0.12392673, -0.4511088, -711685.94, 51631.35, 0.0, 10.000717, 9.998256 
1.9751891e+3, 2.3210476e+2, -501703.9, -733661.94, -27587.623, 0.046177424, -0.46083197, -498467.97, 166862.95, 0.0, 10.001605, 9.998542 
1.9752297e+3, 2.4210297e+2, -399036.03, -713453.75, -31862.738, 0.020247867, -0.45041445, -395839.6, 171507.28, 0.0, 10.001972, 9.997835 
1.9752705e+3, 2.5210094e+2, -434693.78, -684288.0, -41721.496, 0.122909255, -0.44908172, -427904.4, 41457.18, 0.0, 10.001094, 9.997774 
1.9753109e+3, 2.6209825e+2, -463048.0, -708105.2, -14581.407, 0.1343932, -0.45636612, -462183.44, -90799.55, 0.000000055759365, 10.000483, 9.997237 
1.9753505e+3, 2.7209362e+2, -261403.38, -549252.44, -7838.929, -0.037898656, -0.67059046, -261190.06, 12238.239, 0.0000036492006, 10.001168, 9.997309 
1.9753924e+3, 2.8208935e+2, -116404.0, -487127.75, -43938.816, -0.01842705, -0.7894288, -111267.47, 64203.848, 0.00003270768, 10.001706, 9.99683 
1.9754376e+3, 2.9208836e+2, 44276.273, -307675.28, -56380.258, 0.3659393, -0.6130902, 53087.42, 130574.98, 0.00013942833, 10.001924, 9.997277 
1.975478e+3, 3.0208936e+2, 186566.94, -117109.17, -104901.26, 0.23513445, -0.2772136, 219279.88, 219279.88, 0.00034788088, 10.002165, 9.998139 
1.9755161e+3, 3.1208625e+2, 205163.03, -200089.11, 20982.707, -0.04653716, -0.42823073, 206246.56, 206246.56, 0.00061963446, 10.002653, 9.997329 
1.9847488e+3, 1.2207005e+2, -1569428.4, -1299685.6, 34382.65, -0.19944766, -0.5615102, -1295372.1, 448294.5, 0.25424254, 9.999315, 10.004209 
1.9847901e+3, 1.3207126e+2, -1634340.5, -1729929.0, -61408.33, 0.012765954, -0.5005505, -1604319.1, 41335.07, 0.17932345, 10.000388, 9.999023 
1.9848314e+3, 1.4207111e+2, -1594820.8, -1748671.3, -80149.64, 0.18971123, -0.3437249, -1560653.9, -12992.954, 0.104643695, 10.000287, 9.998268 
1.98487e+3, 1.5206973e+2, -1546314.3, -1588775.0, -61118.15, 0.091342516, -0.3954503, -1502844.1, -53164.195, 0.046255346, 9.999594, 9.999016 
1.9849092e+3, 1.6206881e+2, -1466988.4, -1454919.3, -92538.61, 0.11531453, -0.38377324, -1368218.6, -16525.635, 0.013380272, 9.999261, 9.999427 
1.9849469e+3, 1.7207026e+2, -1185817.1, -1215044.4, -119231.27, 0.1347708, -0.23629726, -1080307.3, 173371.77, 0.0017591557, 10.000301, 9.999894 
1.9849852e+3, 1.8207096e+2, -998143.8, -1052217.1, -16080.88, 0.12692267, -0.14537755, -993722.94, 161947.38, 0.0000256483, 10.000807, 10.000103 
1.9850264e+3, 1.9206937e+2, -1009915.94, -971570.1, -20049.572, 0.09408304, -0.359241, -963001.6, 94677.97, 0.0, 9.999906, 10.000411 
1.985068e+3, 2.0206751e+2, -1113404.9, -1191034.8, -64733.11, 0.09187085, -0.497143, -1076741.5, -117048.055, 0.0, 9.999474, 9.9984455 
1.9851093e+3, 2.1206585e+2, -841406.7, -1074651.6, -51185.125, 0.13393953, -0.472844, -830668.56, 31043.385, 0.0, 10.000958, 9.997849 
1.9851501e+3, 2.2206411e+2, -577602.5, -838880.7, -24488.635, 0.14594947, -0.431697, -575327.06, 188403.19, 0.0, 10.001841, 9.998376 
1.9851904e+3, 2.3206231e+2, -616461.3, -758570.6, -60824.234, 0.07055029, -0.5021177, -593983.4, 71761.91, 0.0, 10.0007, 9.998796 
1.9852307e+3, 2.4206045e+2, -652858.3, -808763.44, -82485.52, 0.04909762, -0.52257836, -617318.75, -49558.305, 0.0, 10.000139, 9.998049 
1.985272e+3, 2.5205895e+2, -310959.53, -605174.25, -79340.59, 0.1426086, -0.48746353, -290927.72, 178843.48, 0.0, 10.001868, 9.997942 
1.9853131e+3, 2.6205665e+2, -113307.84, -592566.9, -30739.09, 0.18803611, -0.44889274, -111344.32, 260446.73, 0.00000004684117, 10.003112, 9.996763 
1.9853537e+3, 2.7205205e+2, -119984.94, -574088.3, -75102.664, 0.09163802, -0.58211917, -107886.3, 165951.11, 0.000003631824, 10.002516, 9.9965 
1.985395e+3, 2.8204748e+2, -132246.47, -490987.56, -92716.45, 0.08629964, -0.67955494, -109700.85, 66183.98, 0.000030883682, 10.001597, 9.996848 
1.9854374e+3, 2.9204512e+2, -139572.38, -371861.4, -50537.926, 0.24867855, -0.6606, -129053.43, -51140.95, 0.00012822116, 10.000578, 9.997474 
1.9854787e+3, 3.0204618e+2, -18067.004, -179855.3, 12493.899, 0.19940254, -0.3369799, -17107.863, -17107.863, 0.00031412422, 10.000585, 9.998465 
1.9855206e+3, 3.1204408e+2, 200785.1, -117751.85, 109330.86, 0.18430808, -0.43130416, 234699.66, 234699.66, 0.0005494111, 10.002237, 9.998092 
1.9947487e+3, 1.22032054e+2, -1625560.5, -1430517.4, -16021.065, -0.19887872, -0.37409332, -1429210.3, 314824.8, 0.26535824, 9.999395, 10.003003 
1.9947916e+3, 1.3202551e+2, -1696243.9, -1892718.5, -49116.652, 0.10241809, -0.95966464, -1684649.5, -38549.47, 0.18805622, 10.000466, 9.997859 
1.9948292e+3, 1.4203076e+2, -1566954.4, -1704195.0, -107906.484, -0.07600761, -0.19677997, -1507697.6, 40356.766, 0.11045076, 10.000372, 9.998542 
1.9948687e+3, 1.5202978e+2, -1489940.3, -1470315.9, -80234.68, -0.021228898, -0.27979958, -1399295.6, 50773.258, 0.04926506, 9.999592, 9.999841 
1.9949089e+3, 1.6202816e+2, -1451280.1, -1427565.0, -78586.5, 0.14107369, -0.39723748, -1359946.5, -7859.6377, 0.014456319, 9.999279, 9.999607 
1.9949475e+3, 1.7202726e+2, -1189645.0, -1225775.5, -72902.2, 0.15660648, -0.4839902, -1132603.1, 121487.32, 0.0019582892, 10.000307, 9.999818 
1.9949862e+3, 1.8202643e+2, -1061232.9, -1188932.6, -37757.918, 0.118171066, -0.50675565, -1050904.1, 105190.38, 0.000032105352, 10.000835, 9.99915 
1.9950262e+3, 1.9202588e+2, -1106507.6, -1159512.6, -50739.72, 0.05382142, -0.49058118, -1075765.9, -17664.629, 0.0, 9.999862, 9.999138 
1.9950667e+3, 2.0202507e+2, -1104973.5, -1156798.0, -43765.0, 0.008670431, -0.45178455, -1080025.0, -119914.67, 0.0, 9.999394, 9.998721 
1.9951092e+3, 2.1202406e+2, -793429.0, -947847.06, 17800.334, 0.01640616, -0.44688496, -791403.6, 70716.39, 0.0, 10.000839, 9.998778 
1.995151e+3, 2.2202276e+2, -621236.44, -893200.3, -43844.37, 0.029075487, -0.4134557, -614342.9, 149789.73, 0.0, 10.001681, 9.99808 
1.995191e+3, 2.3202087e+2, -691163.56, -884000.7, -95437.85, 0.06368139, -0.42020565, -651917.4, 14233.153, 0.0, 10.000567, 9.997998 
1.9952315e+3, 2.420185e+2, -673626.06, -810496.56, -56156.754, 0.09829044, -0.44326556, -653534.7, -85362.375, 0.0, 9.999957, 9.998128 
1.9952741e+3, 2.520155e+2, -299437.75, -541917.44, -693.62476, 0.16966155, -0.60539156, -299435.75, 170761.52, 0.0, 10.0017, 9.998454 
1.9953166e+3, 2.6201278e+2, -192302.77, -702962.0, -35851.87, 0.2153886, -0.61951333, -189798.0, 182424.31, 0.000000042002604, 10.002883, 9.996118 
1.9953567e+3, 2.7201146e+2, -224878.6, -747623.9, -85851.48, 0.1326563, -0.3221575, -211140.11, 63103.773, 0.0000035134383, 10.0023365, 9.99539 
1.9953962e+3, 2.8200915e+2, -112937.03, -417031.53, -137457.75, 0.031280678, -0.14272918, -60013.547, 116259.0, 0.00002820436, 10.001448, 9.99743 
1.9954361e+3, 2.920046e+2, -75855.03, -216659.42, -68408.445, 0.03251836, -0.47078115, -48093.16, 30220.943, 0.00011358975, 10.000473, 9.9985895 
1.9954792e+3, 3.020026e+2, -54882.344, -180513.3, 38275.97, 0.16024081, -0.5065265, -44139.45, -44139.45, 0.00027761376, 10.000277, 9.998598 
1.995523e+3, 3.1200355e+2, 267396.06, 134867.52, 187219.16, 0.15528506, -0.34986654, 399731.8, 399731.8, 0.0004898738, 10.001771, 10.000038 
2.0047493e+3, 1.21992275e+2, -1493761.9, -1501284.9, -17710.977, -0.14428842, -0.26705045, -1479417.4, 265006.38, 0.27641812, 10.00143, 10.001387 
2.0047927e+3, 1.3198276e+2, -1726301.3, -1939771.5, -109350.46, 0.1856317, -1.0929779, -1680229.6, -33710.7, 0.1968332, 10.000384, 9.997573 
2.0048283e+3, 1.4198956e+2, -1719557.6, -1734626.4, -72417.94, -0.14495929, -0.18162508, -1654283.1, -105825.766, 0.11636926, 9.999119, 9.9989195 
2.0048684e+3, 1.5198879e+2, -1347697.9, -1359426.5, -65729.6, -0.028875438, -0.2843084, -1287571.5, 162896.06, 0.05238356, 10.00041, 10.000231 
2.0049092e+3, 1.619869e+2, -1154402.6, -1297043.4, -70879.68, 0.14852257, -0.44921994, -1125171.9, 227314.23, 0.015589432, 10.001393, 9.999494 
2.0049481e+3, 1.7198497e+2, -1058252.0, -1201973.5, -102867.26, 0.13658331, -0.6081743, -1004631.1, 249867.55, 0.0021699998, 10.001384, 9.999464 
2.004987e+3, 1.8198347e+2, -1048770.0, -1239637.5, -84539.38, 0.10339185, -0.6554846, -1016710.6, 139799.0, 0.00003871999, 10.001176, 9.998633 
2.0050265e+3, 1.9198349e+2, -961476.8, -1159178.1, -74615.05, 0.05155653, -0.52321476, -936477.4, 122037.31, 0.0, 10.001167, 9.9985075 
2.0050669e+3, 2.0198317e+2, -844743.9, -1016444.06, 10152.071, 0.00799603, -0.40027878, -844145.7, 116375.805, 0.0, 10.001119, 9.998852 
2.0051095e+3, 2.1198209e+2, -719612.7, -861665.75, 38336.754, -0.029633034, -0.444055, -709926.94, 152603.0, 0.0, 10.001123, 9.999235 
2.0051517e+3, 2.2198068e+2, -712785.0, -931544.4, -64606.36, -0.015956461, -0.4500392, -695129.6, 69412.23, 0.0, 10.001036, 9.998127 
2.005192e+3, 2.3197885e+2, -641049.7, -874150.56, -108146.33, 0.10533612, -0.44029078, -598604.44, 67956.5, 0.0, 10.000989, 9.997861 
2.0052327e+3, 2.4197656e+2, -520641.9, -754640.44, 15448.847, 0.19354527, -0.44092765, -519626.38, 48956.914, 0.0, 10.001054, 9.997997 
2.0052753e+3, 2.5197354e+2, -388601.97, -603382.6, 31864.098, 0.16807258, -0.58896285, -383974.44, 86635.086, 0.0, 10.001144, 9.998309 
2.0053181e+3, 2.6197085e+2, -395339.38, -757223.6, -13223.805, 0.17232682, -0.6052493, -394856.8, -22222.31, 0.000000029896977, 10.001308, 9.996494 
2.0053594e+3, 2.719696e+2, -203687.45, -675332.75, 15547.718, 0.1901479, -0.35721627, -203175.47, 71477.91, 0.0000031274246, 10.002214, 9.995943 
2.0053992e+3, 2.819676e+2, 86261.875, -338113.63, 17932.555, 0.13499205, -0.17795269, 87018.29, 263695.47, 0.000025154262, 10.00289, 9.997279 
2.0054367e+3, 2.9196346e+2, 133779.67, -195158.98, -77324.18, -0.008798843, -0.40756187, 151049.69, 229766.36, 0.00009776422, 10.002261, 9.997873 
2.00548e+3, 3.019599e+2, 108244.016, -184065.19, 7465.6772, 0.15363264, -0.5114956, 108434.56, 108434.56, 0.0002403355, 10.001721, 9.997904 
2.0055252e+3, 3.1195942e+2, 225859.16, 194827.75, -3736.728, 0.26688188, -0.45277485, 226302.78, 226302.78, 0.00043342356, 10.001115, 10.000788 
2.0147505e+3, 1.2194884e+2, -1591139.5, -1718469.0, 81959.57, -0.22882445, -0.41099322, -1551022.9, 193828.69, 0.28771394, 10.001543, 9.999313 
2.014793e+3, 1.3194337e+2, -1682625.3, -1826119.0, -177905.61, 0.15344754, -0.85564655, -1562544.0, 84363.664, 0.20582092, 10.000391, 9.998401 
2.0148282e+3, 1.4194731e+2, -1684570.1, -1665541.0, -66235.01, -0.09245379, -0.31407806, -1608140.8, -59268.96, 0.12247417, 9.9991255, 9.999393 
2.0148692e+3, 1.5194659e+2, -1347482.3, -1360898.1, -7359.1797, -0.011947208, -0.4162642, -1344232.6, 106644.71, 0.055639356, 10.00042, 10.0002165 
2.0149097e+3, 1.6194506e+2, -1171818.8, -1350323.8, -65346.324, 0.029604921, -0.53639746, -1150454.1, 202436.25, 0.016791714, 10.001468, 9.99909 
2.0149483e+3, 1.7194332e+2, -1104270.5, -1295265.9, -100839.94, 0.007201291, -0.60892665, -1060885.1, 194019.16, 0.0023981123, 10.001375, 9.998828 
2.0149872e+3, 1.8194203e+2, -1053572.4, -1257127.1, -98374.11, -0.0041852533, -0.59391886, -1013800.9, 143115.39, 0.000045425786, 10.001201, 9.998507 
2.0150274e+3, 1.9194221e+2, -964050.25, -1154276.3, -69398.22, 0.00434051, -0.44579443, -941423.75, 117496.016, 0.0, 10.0011215, 9.998567 
2.015068e+3, 2.0194188e+2, -857462.5, -1018984.1, 2473.224, -0.014221179, -0.33074692, -857424.6, 103501.69, 0.0, 10.001018, 9.998882 
2.0151103e+3, 2.1193996e+2, -748247.9, -881241.8, 46733.76, -0.07901944, -0.4522229, -733468.25, 129473.02, 0.0, 10.000958, 9.999179 
2.0151523e+3, 2.2193784e+2, -721086.25, -908086.5, -73312.625, -0.084060594, -0.5347326, -695771.3, 69187.875, 0.0, 10.000848, 9.9983835 
2.0151933e+3, 2.319361e+2, -624522.25, -820789.75, -99495.375, 0.11812733, -0.5544504, -582907.75, 84069.95, 0.0, 10.000889, 9.998284 
2.0152344e+3, 2.4193439e+2, -568982.94, -815636.9, 14482.739, 0.23142317, -0.51385224, -568135.5, 860.0529, 0.0, 10.000894, 9.997651 
2.0152757e+3, 2.5193283e+2, -458471.84, -713340.25, 45667.816, 0.06366144, -0.4496938, -450536.1, 20473.803, 0.0, 10.00101, 9.997613 
2.0153175e+3, 2.619304e+2, -338476.34, -603175.06, 4621.8945, -0.03104217, -0.43073422, -338395.66, 34635.97, 0.0000000091701935, 10.001149, 9.997632 
2.0153615e+3, 2.7192652e+2, -89183.11, -392767.66, 65935.95, 0.16854747, -0.63255066, -75480.836, 199584.97, 0.0000023642951, 10.002023, 9.997974 
2.0154034e+3, 2.8192344e+2, -24602.043, -499680.03, -2419.5864, 0.24647401, -0.6710185, -24589.72, 152505.52, 0.000021595964, 10.002601, 9.9963045 
2.0154393e+3, 2.919215e+2, -56212.277, -556849.2, -86708.586, 0.002154562, -0.470376, -41619.977, 37503.254, 0.000083873885, 10.002101, 9.995474 
2.0154803e+3, 3.0191752e+2, -45591.83, -431179.88, -12491.066, 0.011116309, -0.39688885, -45187.605, -45187.605, 0.00020822523, 10.001435, 9.99633 
2.0155257e+3, 3.1191415e+2, 134271.84, 157013.28, -98719.56, 0.18019295, -0.5349718, 245014.81, 245014.81, 0.00038320478, 10.0005245, 10.000778 
2.0247512e+3, 1.21906474e+2, -1924349.5, -1922897.1, 256542.88, -0.1719812, -0.4493951, -1667079.4, 78189.37, 0.29983783, 9.999043, 9.999116 
2.0247926e+3, 1.319039e+2, -1682632.1, -1736124.1, -162671.22, 0.10696366, -0.6552006, -1544522.8, 102773.27, 0.21537028, 10.000014, 9.999221 
2.0248288e+3, 1.4190614e+2, -1354375.6, -1473982.4, -35685.348, -0.021172943, -0.35822472, -1344537.9, 204737.25, 0.12892798, 10.001455, 9.999667 
2.0248695e+3, 1.5190512e+2, -1443066.8, -1439240.9, -29381.22, 0.025433796, -0.4683991, -1411710.4, 39571.625, 0.05909158, 9.999873, 9.999917 
2.0249093e+3, 1.6190352e+2, -1557567.4, -1515450.0, -48475.957, 0.0046307715, -0.5812366, -1483656.1, -130361.5, 0.018083457, 9.998714, 9.999273 
2.0249489e+3, 1.7190267e+2, -1208070.3, -1306332.8, -11375.312, -0.019485472, -0.5996076, -1206770.6, 48530.32, 0.0026487417, 10.000514, 9.999156 
2.0249885e+3, 1.8190186e+2, -970964.94, -1238393.4, 22884.168, -0.009309053, -0.55157095, -969020.8, 188287.64, 0.000052423693, 10.001855, 9.998317 
2.0250286e+3, 1.9190109e+2, -933907.5, -1194764.6, -10530.175, 0.005071543, -0.45984897, -933483.1, 125837.71, 0.0, 10.001552, 9.998083 
2.0250691e+3, 2.0189998e+2, -875467.0, -1042550.5, 40516.047, 0.020254951, -0.3880742, -866160.6, 95174.07, 0.0, 10.000965, 9.99874 
2.0251115e+3, 2.1189804e+2, -863008.5, -936684.8, 67089.79, 0.00945591, -0.5106988, -823308.5, 40041.58, 0.0, 10.000173, 9.999171 
2.0251533e+3, 2.2189611e+2, -862884.1, -962291.9, -5038.4297, 0.012837608, -0.57966685, -862629.44, -97263.086, 0.0, 9.999822, 9.998498 
2.0251934e+3, 2.31895e+2, -599657.7, -788359.44, -51394.15, 0.051196482, -0.55179226, -586568.1, 80810.65, 0.0, 10.000983, 9.998451 
2.0252341e+3, 2.4189368e+2, -429995.06, -746355.56, 52723.867, 0.08878355, -0.4872813, -421439.6, 147953.52, 0.0, 10.001857, 9.997652 
2.0252769e+3, 2.5189152e+2, -351865.06, -675675.4, 98825.81, 0.061511, -0.4714847, -324086.75, 147326.78, 0.0, 10.001809, 9.99748 
2.0253196e+3, 2.6188892e+2, -222961.27, -501582.4, 92505.4, 0.052116632, -0.48053965, -195045.39, 178391.63, 0.000000001074916, 10.001734, 9.998054 
2.0253627e+3, 2.7188584e+2, -142791.5, -348783.88, 47004.72, 0.12861194, -0.6618038, -132572.6, 142889.3, 0.0000018159459, 10.001355, 9.998597 
2.0254046e+3, 2.8188285e+2, -238580.11, -601984.5, -50280.773, 0.20130464, -0.7251703, -231751.56, -54262.645, 0.000018189116, 10.0011, 9.996332 
2.0254424e+3, 2.918803e+2, -131204.66, -583779.7, -31627.055, 0.12971677, -0.573603, -129005.164, -49482.75, 0.000072171526, 10.001558, 9.995541 
2.0254824e+3, 3.0187747e+2, 65696.69, -344371.75, 219308.48, 0.07502145, -0.4223315, 160887.78, 160887.78, 0.00017992307, 10.001994, 9.996687 
2.0255259e+3, 3.1187525e+2, 95526.43, 45850.082, 47815.684, 0.15878496, -0.44794625, 124570.3, 124570.3, 0.00033557636, 10.000611, 9.999989 
2.0347522e+3, 1.21865794e+2, -1819276.4, -1717848.4, 245631.88, -0.024712501, -0.3468295, -1517749.9, 227919.02, 0.3135409, 9.999089, 10.000829 
2.034791e+3, 1.3186415e+2, -1622259.0, -1627505.5, -67289.234, -0.06822891, -0.5115895, -1557541.9, 90143.734, 0.22593072, 10.000046, 9.999959 
2.0348305e+3, 1.4186612e+2, -1330421.8, -1459432.1, -58966.223, -0.053118296, -0.3041984, -1307531.6, 242135.38, 0.13594478, 10.0016365, 9.999704 
2.0348693e+3, 1.5186438e+2, -1481951.0, -1519908.3, -98620.37, 0.007933304, -0.4351035, -1400499.8, 51182.094, 0.06282382, 9.999882, 9.999358 
2.034908e+3, 1.6186227e+2, -1503994.8, -1406925.8, -33673.57, -0.02739478, -0.5861903, -1396388.3, -42688.707, 0.019494196, 9.998721, 10.000016 
2.0349495e+3, 1.7186294e+2, -1107700.5, -1102040.9, 71575.29, -0.02595374, -0.58252746, -1033239.44, 222449.27, 0.0029308582, 10.000521, 10.000561 
2.0349906e+3, 1.8186298e+2, -984345.0, -1275074.8, 31945.508, -0.01204915, -0.53761804, -980876.2, 176810.02, 0.00006041413, 10.001893, 9.99805 
2.03503e+3, 1.9186011e+2, -1013016.06, -1347214.6, -18001.857, -0.019826135, -0.5605064, -1012049.2, 47668.914, 0.0, 10.001501, 9.997065 
2.0350699e+3, 2.0185739e+2, -905460.2, -1090138.6, 6036.0005, -0.0014793219, -0.5721671, -905263.1, 56484.55, 0.0, 10.000904, 9.998443 
2.0351131e+3, 2.1185628e+2, -870193.25, -929704.2, 44796.477, 0.14887264, -0.6137873, -846170.4, 17586.7, 0.0, 10.000076, 9.999268 
2.0351548e+3, 2.2185549e+2, -888920.1, -972977.4, 12931.776, 0.17147979, -0.5771367, -886975.6, -121211.84, 0.0, 9.999643, 9.998508 
2.0351924e+3, 2.318554e+2, -627769.1, -812625.0, 8791.832, -0.15972102, -0.43953386, -627351.94, 40414.05, 0.0, 10.000842, 9.998352 
2.035232e+3, 2.4185407e+2, -438530.5, -723773.06, 57571.7, -0.31930375, -0.37686217, -427348.88, 142430.78, 0.0, 10.00168, 9.997895 
2.0352788e+3, 2.5184962e+2, -342644.38, -628348.44, 104789.59, 0.0738323, -0.6303775, -308331.06, 163490.0, 0.0, 10.001677, 9.997877 
2.0353237e+3, 2.6184642e+2, -279811.0, -559190.94, 76567.734, 0.27601323, -0.7150846, -260202.81, 113647.52, 0.000000023664393, 10.001487, 9.99777 
2.0353627e+3, 2.718468e+2, -210425.84, -455549.2, 45009.008, -0.017994437, -0.4973447, -202422.69, 73424.234, 0.0000019634658, 10.001206, 9.997937 
2.035403e+3, 2.818449e+2, -215600.5, -501126.9, -54745.027, -0.08241535, -0.42646548, -205463.9, -27598.238, 0.000016146072, 10.000885, 9.997123 
2.0354456e+3, 2.9183954e+2, -12054.599, -300477.2, 8974.504, 0.2772525, -0.71719736, -11775.619, 68142.13, 0.00006227005, 10.001394, 9.997569 
2.035485e+3, 3.0183932e+2, 130614.8, -102935.81, 181089.4, 0.12471458, -0.53545946, 229315.34, 229315.34, 0.00015436458, 10.001569, 9.998531 
2.0355266e+3, 3.1183866e+2, -52508.42, -167766.9, 28557.033, 0.13005918, -0.5174032, -45820.996, -45820.996, 0.00029086007, 10.000243, 9.998679 
2.0447522e+3, 1.21823914e+2, -1731647.4, -1570157.6, 232010.38, 0.08370677, -0.44438064, -1405243.1, 340835.06, 0.3294151, 9.999149, 10.002163 
2.0447917e+3, 1.3182366e+2, -1737033.8, -1689381.1, -3526.9333, 0.047732387, -0.47596353, -1689121.5, -41040.51, 0.23787552, 9.999226, 9.99985 
2.0448302e+3, 1.4182456e+2, -1616991.5, -1583241.8, -75872.375, -0.10915175, -0.37174648, -1522390.4, 27683.139, 0.14372098, 9.999376, 9.999861 
2.0448692e+3, 1.5182355e+2, -1462219.0, -1472209.1, -93483.766, 0.017491918, -0.4607304, -1373597.0, 78484.0, 0.06692591, 9.999856, 9.999706 
2.0449083e+3, 1.6182233e+2, -1301424.6, -1297103.8, 56296.32, 0.07573114, -0.55311036, -1242926.5, 111163.86, 0.021061258, 10.0000725, 10.000121 
2.0449498e+3, 1.7182313e+2, -1226694.8, -1164864.3, 61626.605, 0.022850562, -0.53551525, -1126833.3, 129246.67, 0.003256253, 9.999735, 10.000502 
2.0449914e+3, 1.8182313e+2, -1276974.9, -1368469.1, -31716.682, -0.0042678686, -0.5007063, -1267055.6, -108977.75, 0.00007088071, 9.999689, 9.998468 
2.0450312e+3, 1.9182007e+2, -1027508.75, -1276307.5, 15284.512, -0.0060111606, -0.60847694, -1026573.25, 33534.453, 0.0, 10.001082, 9.997743 
2.0450717e+3, 2.018172e+2, -749811.6, -1049873.6, 111012.35, 0.027871884, -0.66741633, -713206.5, 248929.66, 0.0, 10.002119, 9.998141 
2.0451142e+3, 2.1181631e+2, -652274.5, -903821.94, 68275.51, 0.16861887, -0.6199931, -634937.9, 229209.11, 0.0, 10.001926, 9.998551 
2.0451558e+3, 2.2181559e+2, -595492.1, -857175.6, 40876.42, 0.19803022, -0.5220015, -589255.6, 176900.2, 0.0, 10.001762, 9.998283 
2.0451939e+3, 2.3181476e+2, -445920.66, -722488.8, 39065.836, -0.12783372, -0.45776856, -440508.44, 227655.78, 0.0, 10.002078, 9.998371 
2.0452344e+3, 2.4181299e+2, -388403.84, -709286.9, 63290.703, -0.2625369, -0.43783918, -376371.63, 193809.94, 0.0, 10.002055, 9.997816 
2.0452803e+3, 2.518093e+2, -476109.84, -700133.5, 43798.855, 0.12131219, -0.60257083, -467851.2, 4365.6836, 0.0, 10.000798, 9.997799 
2.0453243e+3, 2.6180673e+2, -495013.5, -647259.56, 47538.53, 0.28677157, -0.6297093, -481388.97, -107147.305, 0.00000011200642, 9.9999275, 9.997922 
2.045363e+3, 2.7180693e+2, -275752.34, -460456.7, 58270.715, -0.05984205, -0.45018202, -258905.63, 17334.537, 0.000002326167, 10.000648, 9.99817 
2.0454039e+3, 2.8180507e+2, -51873.133, -335605.47, 33702.35, -0.087304756, -0.41613823, -47924.836, 130332.266, 0.000014696717, 10.001632, 9.997902 
2.045448e+3, 2.918004e+2, 184656.5, -86544.21, 27298.67, 0.35517442, -0.7259532, 187377.06, 267674.56, 0.00005375532, 10.002241, 9.998629 
2.0454858e+3, 3.0180088e+2, 210627.02, -26260.879, 78190.95, 0.044233054, -0.56296897, 234108.38, 234108.38, 0.00013253847, 10.00195, 9.998868 
2.0455274e+3, 3.1179902e+2, 86769.45, -76206.96, -182452.78, 0.16452654, -0.6486307, 205104.53, 205104.53, 0.0002538957, 10.001065, 9.998919 
2.0547502e+3, 1.2178242e+2, -1653208.9, -1478566.5, 56180.133, -0.08119745, -0.61416227, -1462055.1, 284425.5, 0.3476065, 9.9992695, 10.002945 
2.0547947e+3, 1.3178295e+2, -1811973.9, -1842207.5, 22093.088, 0.40821517, -0.52234924, -1800320.9, -151844.02, 0.2513395, 9.99922, 9.998801 
2.0548277e+3, 1.4178133e+2, -1601972.9, -1553168.8, -69374.11, -0.33959377, -0.58862907, -1504030.1, 46465.098, 0.15236652, 9.9993725, 10.00009 
2.0548686e+3, 1.5178281e+2, -1366195.3, -1282430.5, -59018.07, -0.053258326, -0.5488417, -1251943.9, 200533.77, 0.071473114, 9.999878, 10.001073 
2.0549099e+3, 1.6178392e+2, -1337984.6, -1393359.1, 46494.99, 0.21833135, -0.4742637, -1311557.5, 42907.184, 0.022826005, 10.000152, 9.999423 
2.0549501e+3, 1.7178325e+2, -1344881.3, -1410747.8, 52069.758, 0.056522086, -0.45024028, -1316204.0, -59729.84, 0.0036400491, 9.999729, 9.99882 
2.0549902e+3, 1.8178217e+2, -1197993.8, -1210967.5, -6272.2417, -0.09344985, -0.4472376, -1195457.3, -36972.0, 0.00008593674, 9.999707, 9.999544 
2.055032e+3, 1.9178075e+2, -862147.9, -931434.5, 78155.38, -0.044913135, -0.6077925, -811301.9, 249189.89, 0.0, 10.001062, 10.000126 
2.0550737e+3, 2.0177925e+2, -782434.56, -1099087.9, 114292.85, 0.00440059, -0.68002427, -745491.7, 217010.44, 0.0, 10.002039, 9.997841 
2.0551145e+3, 2.1177788e+2, -782885.06, -1145943.9, 67479.9, -0.0010129723, -0.5433832, -770748.56, 93773.87, 0.0, 10.001793, 9.996957 
2.0551555e+3, 2.2177604e+2, -657610.44, -937198.7, 40020.46, -0.013741725, -0.4373912, -651994.7, 114551.41, 0.0, 10.001561, 9.997827 
2.0551978e+3, 2.3177299e+2, -464061.13, -720224.7, 62852.63, 0.039400455, -0.59426695, -449470.56, 219103.72, 0.0, 10.001909, 9.998467 
2.0552403e+3, 2.4177045e+2, -449958.6, -776348.0, 25976.838, 0.1159972, -0.64613944, -447904.1, 122694.484, 0.0, 10.001806, 9.99747 
2.0552813e+3, 2.5177017e+2, -535236.25, -788693.06, 5919.4307, 0.12751247, -0.42159155, -535098.06, -62493.035, 0.0, 10.00066, 9.997255 
2.0553218e+3, 2.617692e+2, -481450.38, -586165.56, 47848.95, 0.017810527, -0.2690506, -462879.56, -88263.18, 0.00000017468948, 9.999788, 9.998406 
2.0553632e+3, 2.71766e+2, -223611.28, -330966.6, 106438.516, -0.10213273, -0.51042163, -158081.34, 118561.234, 0.0000023499456, 10.000547, 9.999111 
2.055407e+3, 2.817634e+2, -53785.926, -268465.25, 53586.34, 0.025206707, -0.64342284, -41153.51, 137509.36, 0.000012296112, 10.001343, 9.998496 
2.0554495e+3, 2.9176262e+2, 165357.05, -79439.69, 59385.38, 0.26094085, -0.61235803, 179002.72, 259667.3, 0.000044415407, 10.002039, 9.998774 
2.0554847e+3, 3.0176094e+2, 55498.523, -243509.02, 17169.566, -0.28856534, -0.6036709, 56481.203, 56481.203, 0.00011238554, 10.00153, 9.997564 
2.0555283e+3, 3.117572e+2, 95568.805, 56416.832, -44571.535, 0.09809577, -0.76707786, 124673.836, 124673.836, 0.00022330276, 10.000568, 10.0000725 
2.0647489e+3, 1.2174348e+2, -1727459.1, -1552862.9, 70839.805, -0.102806166, -0.6296366, -1527736.6, 219123.39, 0.36771804, 9.998747, 10.002459 
2.0647961e+3, 1.317445e+2, -1829954.4, -1851922.9, 120854.72, 0.64866453, -0.49634486, -1719585.8, -70735.375, 0.26616043, 9.999093, 9.998787 
2.0648265e+3, 1.4174148e+2, -1720908.0, -1641842.0, 116469.84, -0.33223766, -0.6890633, -1558378.8, -7497.329, 0.1618756, 9.998682, 9.999777 
2.0648679e+3, 1.5174295e+2, -1395974.1, -1328066.0, 12339.644, -0.07643917, -0.62583876, -1325893.3, 126972.14, 0.07651462, 9.999806, 10.000771 
2.0649104e+3, 1.6174424e+2, -1299462.4, -1439286.8, 30725.176, 0.2203802, -0.49488997, -1293008.6, 61843.684, 0.024829434, 10.000701, 9.998839 
2.0649506e+3, 1.7174287e+2, -1261434.9, -1443999.4, 73247.734, 0.11511574, -0.47415763, -1235680.1, 21190.105, 0.0041003036, 10.000626, 9.998157 
2.0649911e+3, 1.8174139e+2, -1098867.1, -1155185.1, 83853.84, 0.009123312, -0.47166494, -1038570.5, 120316.125, 0.000108260756, 10.000366, 9.999599 
2.0650332e+3, 1.9174089e+2, -960423.75, -931692.5, 23675.8, 0.02105348, -0.5751075, -918364.94, 142519.84, 0.0, 10.0002, 10.000531 
2.0650749e+3, 2.0174013e+2, -1031991.7, -1185768.3, -23747.227, 0.03633104, -0.6081191, -1028408.0, -65520.195, 0.0, 10.000179, 9.998137 
2.0651154e+3, 2.1173856e+2, -910080.44, -1176573.0, 27486.19, -0.02939517, -0.5173554, -907275.06, -42366.87, 0.0, 10.0007925, 9.997223 
2.0651563e+3, 2.2173648e+2, -715425.8, -994988.4, 111920.51, -0.06353907, -0.44307783, -676140.06, 90793.01, 0.0, 10.001274, 9.997582 
2.0651998e+3, 2.3173346e+2, -604862.06, -842393.6, 85979.1, 0.08247615, -0.55262, -577006.8, 91956.72, 0.0, 10.001173, 9.997989 
2.0652427e+3, 2.4173102e+2, -529131.56, -789848.6, 37406.844, 0.23215395, -0.569445, -523870.75, 47117.11, 0.0, 10.001151, 9.997696 
2.0652829e+3, 2.517305e+2, -376711.53, -645672.25, 60805.44, 0.19633456, -0.42037594, -363603.72, 109388.91, 0.0, 10.001464, 9.997847 
2.0653227e+3, 2.6172912e+2, -219410.88, -468709.06, 173088.53, 0.06325364, -0.34643525, -130759.63, 244245.1, 0.00000012472299, 10.001626, 9.998326 
2.0653646e+3, 2.717256e+2, -121126.53, -320576.22, 142271.22, -0.073544584, -0.5918614, -47109.777, 229925.83, 0.0000018192295, 10.001429, 9.998753 
2.0654082e+3, 2.817232e+2, -29960.09, -244266.16, 44586.766, 0.040403605, -0.6806276, -21053.861, 158000.42, 0.000008845643, 10.001439, 9.99862 
2.0654511e+3, 2.9172337e+2, 71786.25, -105199.49, -9154.713, 0.28672144, -0.581563, 72258.52, 153306.44, 0.000033872344, 10.001326, 9.998936 
2.0654868e+3, 3.0172068e+2, -46081.973, -354038.78, -15481.722, -0.17363338, -0.6572663, -45305.625, -45305.625, 0.00009226444, 10.001051, 9.997062 
2.0655292e+3, 3.1171668e+2, 210891.56, 66066.22, 3016.347, 0.12842959, -0.7790194, 210954.36, 210954.36, 0.00019349271, 10.001518, 9.999704 
2.074746e+3, 1.217062e+2, -1864497.5, -1773061.8, 145380.48, -0.30796534, -0.5917095, -1666380.1, 80844.78, 0.38886976, 9.99883, 10.00037 
2.0747949e+3, 1.3170822e+2, -1735093.6, -1680493.4, 94850.0, 0.5975823, -0.41891342, -1609092.9, 40110.2, 0.28190908, 9.999192, 9.999991 
2.074827e+3, 1.4170536e+2, -1777218.5, -1771059.3, 126379.48, -0.17460722, -0.64931625, -1647721.9, -96493.51, 0.17213808, 9.998731, 9.998871 
2.0748675e+3, 1.5170397e+2, -1532683.9, -1617569.6, 69155.73, -0.1398794, -0.68447554, -1493985.4, -40741.215, 0.08207624, 9.99983, 9.998702 
2.0749088e+3, 1.6170304e+2, -1320146.3, -1492683.6, 30175.225, -0.04106875, -0.6264123, -1315021.1, 40234.79, 0.027111659, 10.000738, 9.998456 
2.0749514e+3, 1.7170194e+2, -1227145.4, -1376652.0, 72829.945, 0.11461136, -0.6092837, -1197532.8, 59736.098, 0.0046569863, 10.00064, 9.998613 
2.0749938e+3, 1.8170081e+2, -1158512.1, -1292557.3, 71806.62, 0.21399154, -0.57061356, -1127309.4, 31972.62, 0.00014131474, 10.000424, 9.998629 
2.0750344e+3, 1.9170034e+2, -1083108.1, -1179695.9, 24229.313, 0.12092053, -0.5145126, -1077370.9, -16083.048, 0.0000000002137382, 10.000169, 9.998846 
2.0750752e+3, 2.016996e+2, -984939.5, -1071212.3, -16785.82, 0.02741092, -0.46065986, -981788.56, -18493.37, 0.0, 10.000104, 9.99896 
2.0751165e+3, 2.1169817e+2, -785821.7, -889330.94, 60296.594, -0.008198508, -0.54099363, -758114.25, 107191.56, 0.0, 10.000661, 9.999259 
2.0751578e+3, 2.2169676e+2, -746549.1, -1008646.06, 110655.48, -0.047298335, -0.5387787, -706079.9, 61238.742, 0.0, 10.001067, 9.997581 
2.0751995e+3, 2.3169588e+2, -701711.56, -1006054.56, 92226.375, -0.05946275, -0.34914884, -675945.25, -6610.753, 0.0, 10.001019, 9.996938 
2.0752417e+3, 2.4169421e+2, -507541.53, -702425.9, 40750.62, 0.0013843788, -0.24189943, -499363.7, 71990.41, 0.0, 10.000975, 9.998376 
2.0752849e+3, 2.5169024e+2, -287798.47, -433421.03, 80108.664, 0.23036177, -0.5774988, -252355.97, 221025.22, 0.0, 10.001348, 9.999357 
2.0753266e+3, 2.6168665e+2, -290154.66, -568900.4, 154740.13, 0.28538415, -0.8034415, -221274.55, 154132.31, 0.000000021824269, 10.001435, 9.997728 
2.0753662e+3, 2.716852e+2, -250064.17, -551775.94, 146322.67, -0.06282145, -0.69994956, -190758.64, 86664.56, 0.00000084431264, 10.00128, 9.997235 
2.075408e+3, 2.8168374e+2, -97373.25, -323514.16, 33078.66, -0.15615064, -0.58280104, -92634.01, 86804.97, 0.000005133315, 10.001184, 9.998196 
2.0754527e+3, 2.9168224e+2, 53489.566, -114859.85, -3273.594, 0.2930765, -0.65024006, 53553.195, 135003.58, 0.000023723636, 10.0011835, 9.998943 
2.0754917e+3, 3.0168012e+2, -113380.43, -371206.47, -32630.52, 0.1864068, -0.68147624, -109314.81, -109314.81, 0.00007269625, 10.00058, 9.997148 
2.0755295e+3, 3.116781e+2, -27582.338, -274691.66, 122673.09, -0.038983885, -0.6114308, 22973.434, 22973.434, 0.0001604189, 10.000925, 9.997623 
2.084746e+3, 1.2166524e+2, -1957334.6, -2063346.8, 30196.318, -0.20309225, -0.53170586, -1949336.9, -201708.83, 0.40993002, 9.999251, 9.997943 
2.084792e+3, 1.3166833e+2, -1632361.9, -1518347.0, -166190.66, 0.37791926, -0.33159897, -1399658.1, 249938.84, 0.29801235, 9.999427, 10.001405 
2.0848271e+3, 1.4166573e+2, -1726640.1, -1712883.5, -99484.15, -0.038165335, -0.645372, -1620040.1, -68421.98, 0.18298064, 9.998955, 9.999152 
2.084868e+3, 1.5166445e+2, -1603713.8, -1696102.8, -32712.418, -0.050244518, -0.6370433, -1593304.1, -139670.4, 0.088167645, 9.999543, 9.998304 
2.0849086e+3, 1.616636e+2, -1413505.5, -1513913.3, 22573.092, -0.050666228, -0.5462946, -1408664.1, -53019.605, 0.029713616, 9.999985, 9.998675 
2.0849518e+3, 1.7166235e+2, -1281119.3, -1345352.8, 43682.902, 0.12964974, -0.5946445, -1259017.3, -1360.5143, 0.005333032, 10.000014, 9.99913 
2.0849946e+3, 1.8166104e+2, -1245600.6, -1371426.0, 78421.21, 0.276481, -0.59545296, -1207975.4, -48305.266, 0.00018960002, 9.999977, 9.998313 
2.0850351e+3, 1.9166055e+2, -1102258.4, -1267554.5, 88663.66, 0.1627603, -0.47802216, -1063696.1, -2017.0422, 0.000000020895914, 10.00037, 9.998152 
2.0850757e+3, 2.016597e+2, -909153.4, -1025477.6, 97094.48, 0.06196901, -0.39391968, -854133.44, 109555.945, 0.0, 10.000607, 9.999027 
2.0851178e+3, 2.1165767e+2, -748887.25, -821871.8, 53032.99, 0.074867055, -0.5685754, -721004.2, 144698.23, 0.0, 10.000717, 9.999688 
2.0851597e+3, 2.2165596e+2, -756060.44, -975548.25, 36980.22, 0.07793438, -0.634764, -749997.4, 17717.715, 0.0, 10.000825, 9.997935 
2.0852011e+3, 2.3165585e+2, -670445.9, -949835.44, 85372.586, 0.014483559, -0.40313092, -646424.06, 23298.516, 0.0, 10.001042, 9.99732 
2.0852429e+3, 2.416547e+2, -453529.78, -684375.25, 115299.12, 0.014721147, -0.2707469, -405807.5, 165929.38, 0.0, 10.001371, 9.998314 
2.085286e+3, 2.5164995e+2, -186275.31, -420856.0, 33228.273, 0.18115799, -0.6557831, -181659.36, 292113.13, 0.0, 10.002189, 9.999047 
2.0853281e+3, 2.6164597e+2, -108305.945, -477394.2, 26806.936, 0.24399564, -0.8979719, -106369.12, 269433.6, 0.0, 10.002669, 9.997761 
2.0853682e+3, 2.7164555e+2, -151697.06, -481297.72, 87569.07, -0.0014923909, -0.7072927, -129876.14, 147932.8, 0.000000115745564, 10.0018635, 9.997434 
2.0854096e+3, 2.8164458e+2, -119536.45, -362818.34, 94615.85, -0.067194805, -0.5468007, -87071.336, 92749.32, 0.0000020138657, 10.00114, 9.99795 
2.0854534e+3, 2.916421e+2, 22298.324, -175672.6, 2907.4893, 0.25594294, -0.6666722, 22341.016, 104186.086, 0.000014504671, 10.001182, 9.998521 
2.0854934e+3, 3.0164036e+2, 89779.625, -237099.64, 1410.6472, 0.25879624, -0.6462493, 89785.72, 89785.72, 0.000053401804, 10.001768, 9.997517 
2.0855318e+3, 3.1164e+2, 230800.95, -132490.19, 103483.44, 0.024526257, -0.46423778, 258210.25, 258210.25, 0.00012544218, 10.00254, 9.99785 
2.0947488e+3, 1.2161969e+2, -2149190.5, -2474882.5, 210563.95, 0.08407374, -0.48911345, -2045848.6, -297770.2, 0.42994058, 9.999314, 9.995096 
2.0947863e+3, 1.3162461e+2, -1526353.5, -1333073.1, -168276.03, -0.1479025, -0.22405766, -1235661.4, 414373.63, 0.31401625, 9.999453, 10.003175 
2.0948261e+3, 1.4162219e+2, -1621426.9, -1515606.6, -99478.12, -0.050480224, -0.67915267, -1455843.0, 96211.805, 0.19429262, 9.999008, 10.000608 
2.0948692e+3, 1.5162423e+2, -1497162.5, -1489046.8, -2074.8115, 0.10069675, -0.47862667, -1488547.0, -34511.586, 0.094824284, 9.999592, 9.999707 
2.0949104e+3, 1.6162601e+2, -1342936.3, -1389651.3, 23287.229, 0.087834686, -0.24864312, -1333310.9, 22707.389, 0.032688897, 10.00008, 9.999485 
2.0949514e+3, 1.7162412e+2, -1241620.9, -1268087.8, 46867.79, 0.08245641, -0.41483817, -1206154.0, 51879.277, 0.0061590113, 10.00003, 9.999657 
2.0949928e+3, 1.8162213e+2, -1215741.5, -1317771.5, 78533.945, 0.0938251, -0.5321999, -1173107.6, -13056.981, 0.00026052183, 10.000011, 9.998665 
2.0950344e+3, 1.9162156e+2, -1087602.9, -1232929.9, 109623.44, 0.061046794, -0.45085534, -1028747.2, 33311.207, 0.00000016154512, 10.000349, 9.998401 
2.0950764e+3, 2.0162034e+2, -968301.56, -1131646.9, 93827.77, 0.04567565, -0.3959335, -925579.4, 38491.5, 0.0, 10.000537, 9.998329 
2.0951194e+3, 2.11617e+2, -854488.7, -1008217.25, 63891.75, 0.14357623, -0.595583, -831401.6, 34697.133, 0.0, 10.000578, 9.998473 
2.0951621e+3, 2.2161399e+2, -737215.06, -891601.3, 37009.49, 0.21522297, -0.7319817, -728801.6, 39322.06, 0.0, 10.000632, 9.998604 
2.0952041e+3, 2.3161346e+2, -581426.94, -725175.7, 101798.58, 0.19749968, -0.68756807, -528686.44, 141441.31, 0.0, 10.000873, 9.998944 
2.0952456e+3, 2.4161252e+2, -533502.7, -798840.75, 128697.77, 0.1419116, -0.6198993, -481336.13, 90800.414, 0.0, 10.001151, 9.997634 
2.0952864e+3, 2.516095e+2, -345550.34, -710222.5, 75712.516, -0.015996084, -0.66340876, -330455.84, 143711.28, 0.0, 10.002008, 9.997149 
2.0953271e+3, 2.6160672e+2, -116116.195, -427057.22, 11340.232, -0.14159136, -0.67572117, -115703.16, 260491.28, 0.0, 10.002393, 9.998235 
2.0953701e+3, 2.7160627e+2, -61346.344, -255884.97, 65773.086, 0.0024162664, -0.637678, -41195.82, 236999.89, 0.0, 10.001703, 9.999057 
2.0954134e+3, 2.8160554e+2, -168094.9, -397227.1, 69043.92, 0.15520675, -0.55843717, -148898.31, 31302.56, 0.00000039293647, 10.000865, 9.997843 
2.0954531e+3, 2.9160288e+2, -64879.355, -311049.8, 27826.273, 0.101593286, -0.6137359, -61773.16, 20458.617, 0.000007667558, 10.000988, 9.9976845 
2.0954917e+3, 3.015999e+2, 31980.402, -220217.25, 20903.89, -0.10804423, -0.67034036, 33701.32, 33701.32, 0.000037309004, 10.001226, 9.997875 
2.0955357e+3, 3.1160092e+2, 320713.94, 223949.28, 86439.234, 0.10658666, -0.44397998, 371390.13, 371390.13, 0.000096027696, 10.001895, 10.000577 
2.1047492e+3, 1.2157449e+2, -2340193.8, -2530743.0, 332231.28, 0.30388674, -0.51119244, -2089845.9, -341321.47, 0.44859928, 9.997837, 9.995425 
2.1047835e+3, 1.3158059e+2, -1689643.5, -1322221.6, -114526.59, -0.2669582, -0.25723305, -1289446.9, 361022.66, 0.3298663, 9.997458, 10.004358 
2.1048252e+3, 1.4157994e+2, -1674562.9, -1472180.8, -43974.723, 0.00808959, -0.62740546, -1463038.6, 89433.05, 0.20615475, 9.998296, 10.00127 
2.1048693e+3, 1.515823e+2, -1518957.9, -1427023.5, -9966.303, 0.20553343, -0.46742436, -1425955.5, 28491.947, 0.10215144, 9.999136, 10.000357 
2.1049114e+3, 1.6158395e+2, -1373371.4, -1386563.6, -31538.643, 0.19474846, -0.29616186, -1347746.5, 8683.643, 0.036114734, 9.999793, 9.9996395 
2.1049516e+3, 1.7158264e+2, -1170285.3, -1236277.8, -69662.625, 0.077833876, -0.40536895, -1126199.5, 132240.23, 0.007176738, 10.000539, 9.999625 
2.1049924e+3, 1.815811e+2, -1074160.6, -1249340.9, -68751.09, 0.02555238, -0.47518036, -1050401.1, 110051.73, 0.0003661867, 10.000994, 9.998656 
2.1050349e+3, 1.9157976e+2, -1008009.6, -1196828.3, -80122.414, 0.03794942, -0.46387914, -978593.56, 83874.14, 0.00000091193453, 10.000925, 9.9983635 
2.1050772e+3, 2.0157814e+2, -925685.3, -1101192.0, -84003.625, 0.07252964, -0.4481509, -891959.2, 72524.87, 0.0, 10.000743, 9.998457 
2.1051198e+3, 2.1157579e+2, -863739.5, -986903.8, -33477.617, 0.16467626, -0.5683586, -855228.06, 11274.537, 0.0, 10.000373, 9.998735 
2.1051626e+3, 2.2157356e+2, -779253.6, -876041.7, 39654.04, 0.23827341, -0.6545786, -765082.3, 3437.4268, 0.0, 10.000206, 9.998901 
2.105205e+3, 2.3157191e+2, -503872.4, -654648.0, 14451.227, 0.20410457, -0.7518088, -502499.8, 168032.42, 0.0, 10.00127, 9.999223 
2.1052474e+3, 2.4157041e+2, -406313.84, -708197.25, -10219.754, 0.16036656, -0.7649408, -405968.28, 166576.89, 0.0, 10.001897, 9.9979 
2.105288e+3, 2.515694e+2, -529534.8, -762483.6, 42467.387, 0.037807003, -0.63402236, -522034.38, -47475.0, 0.0, 10.0006075, 9.997457 
2.105329e+3, 2.6156813e+2, -446712.66, -554584.0, 117617.77, -0.058748707, -0.5297797, -371253.6, 5320.707, 0.0, 9.999951, 9.998551 
2.1053718e+3, 2.7156648e+2, -33649.098, -210190.89, 87153.12, 0.02238775, -0.63799125, 2126.033, 280710.56, 0.0, 10.001729, 9.999372 
2.105415e+3, 2.8156486e+2, 121783.2, -269284.2, 18743.69, 0.15962014, -0.66647315, 122679.53, 303276.06, 0.00000006547354, 10.002919, 9.997723 
2.1054551e+3, 2.9156253e+2, 11278.75, -323543.53, -45362.76, 0.16306823, -0.6441127, 17315.787, 99941.555, 0.000004738257, 10.001734, 9.997236 
2.1054934e+3, 3.015598e+2, 60212.86, -184936.8, 61532.78, -0.041489664, -0.6553581, 74790.766, 74790.766, 0.00002905632, 10.00128, 9.998105 
2.1055384e+3, 3.1155995e+2, 555026.2, 393135.13, 7738.0415, 0.15611431, -0.55766976, 555395.25, 555395.25, 0.00007990002, 10.003221, 10.001112 
2.1147478e+3, 1.2152859e+2, -2063772.9, -1963330.0, 61456.844, 0.31134462, -0.7494265, -1934184.4, -185207.73, 0.46656317, 9.997864, 9.999293 
2.1147834e+3, 1.3153642e+2, -1651869.0, -1284165.4, -81338.95, -0.032663126, -0.4440132, -1266976.1, 383922.8, 0.34608045, 9.997465, 10.004816 
2.1148239e+3, 1.4153881e+2, -1689477.8, -1521341.9, -12727.669, 0.013260631, -0.50671417, -1520383.9, 32485.922, 0.21890919, 9.998408, 10.000793 
2.1148682e+3, 1.5153843e+2, -1513668.6, -1435876.5, 21003.012, 0.15917973, -0.6074049, -1430568.1, 24303.277, 0.110347085, 9.999216, 10.000255 
2.114911e+3, 1.615373e+2, -1394478.5, -1443914.0, -12867.747, 0.15477376, -0.69511044, -1391329.8, -34448.566, 0.040102176, 9.999849, 9.999217 
2.1149519e+3, 1.7153779e+2, -1209149.3, -1322131.1, -36468.727, 0.034780875, -0.57097435, -1198400.3, 60476.53, 0.008443992, 10.000552, 9.99903 
2.1149932e+3, 1.8153772e+2, -1101197.6, -1311601.9, -72371.58, -0.031329304, -0.4392362, -1078708.3, 82170.15, 0.00052604213, 10.001022, 9.998213 
2.1150357e+3, 1.9153506e+2, -1042904.2, -1258960.4, -76670.79, 0.01241422, -0.519964, -1018461.6, 44446.207, 0.0000034897541, 10.000881, 9.997956 
2.1150777e+3, 2.0153295e+2, -875876.9, -972304.0, -99832.12, 0.041951552, -0.55725116, -813225.6, 151704.27, 0.0, 10.000633, 9.999395 
2.1151191e+3, 2.1153407e+2, -769880.44, -757992.8, -42587.75, 0.06029175, -0.4802201, -720936.06, 145977.81, 0.0, 10.000236, 10.000371 
2.1151608e+3, 2.2153443e+2, -811877.3, -899096.8, 56339.85, 0.049327366, -0.41796163, -784241.1, -15335.371, 0.0, 10.0000105, 9.998837 
2.115204e+3, 2.3153102e+2, -598892.7, -813398.9, 69592.945, -0.025944136, -0.606252, -578292.75, 92644.49, 0.0, 10.0011015, 9.998217 
2.1152472e+3, 2.4152821e+2, -366699.56, -566043.6, -34064.848, -0.030697824, -0.7189344, -361039.13, 211924.25, 0.0, 10.001644, 9.998992 
2.1152905e+3, 2.515293e+2, -393524.16, -455816.4, -4645.5264, 0.22807187, -0.5801352, -393179.6, 81772.68, 0.0, 10.000504, 9.999609 
2.1153331e+3, 2.6152974e+2, -455804.44, -533414.4, 136854.64, 0.3294834, -0.45462242, -352359.56, 24586.734, 0.0, 9.999787, 9.998771 
2.1153733e+3, 2.7152625e+2, -109265.05, -334100.9, 169309.48, -0.03141582, -0.6884771, -18450.373, 260524.53, 0.0, 10.001583, 9.99859 
2.1154147e+3, 2.8152236e+2, 44221.676, -356437.34, -5454.773, -0.18147628, -0.8748335, 44295.926, 225305.13, 0.00000005479561, 10.002605, 9.997273 
2.1154583e+3, 2.9152063e+2, -22610.652, -378092.4, -77434.414, 0.28588837, -0.78063613, -6475.518, 76556.21, 0.0000044706885, 10.001647, 9.996909 
2.1154971e+3, 3.0151993e+2, -7978.2026, -194985.19, 74021.64, 0.16660327, -0.58439654, 17774.78, 17774.78, 0.000027145721, 10.000776, 9.998247 
2.1155408e+3, 3.1151757e+2, 288866.63, 36367.746, 200485.27, 0.020136988, -0.7537246, 399541.78, 399541.78, 0.00007500409, 10.002422, 9.999027 
2.1247432e+3, 1.2149434e+2, -1606598.6, -1668996.6, 64710.25, -0.11389705, -0.060791656, -1565959.0, 183351.42, 0.48543465, 10.0015, 10.000082 
2.1247832e+3, 1.3149399e+2, -1588169.3, -1382327.0, -75039.25, 0.1460682, -0.51996183, -1357876.0, 293436.66, 0.3637423, 9.998912, 10.003136 
2.124823e+3, 1.414962e+2, -1785136.3, -1619640.1, -31763.367, 0.117947966, -0.46418163, -1613753.3, -60465.246, 0.23315269, 9.998002, 10.000257 
2.1248674e+3, 1.5149565e+2, -1527795.9, -1426920.9, 6144.261, 0.18669067, -0.582784, -1426548.0, 28742.27, 0.1197026, 9.999026, 10.000434 
2.1249111e+3, 1.6149417e+2, -1406058.9, -1456737.0, -8336.544, 0.20316118, -0.7174985, -1404722.8, -47420.066, 0.044803485, 9.999795, 9.9991665 
2.1249524e+3, 1.7149405e+2, -1283438.3, -1390983.3, -25664.42, 0.06477595, -0.62432367, -1277627.8, -18323.268, 0.01004214, 10.000175, 9.998745 
2.1249937e+3, 1.8149364e+2, -1201918.9, -1348730.6, -41418.113, -0.023633199, -0.5125256, -1191040.3, -29730.754, 0.0007722133, 10.000258, 9.998326 
2.1250358e+3, 1.914914e+2, -1166616.1, -1282039.6, -18349.783, 0.024415972, -0.5821944, -1163769.1, -100435.44, 0.000010944595, 9.99986, 9.998289 
2.1250778e+3, 2.0148985e+2, -1017076.94, -1007399.25, 2170.2158, 0.06942543, -0.5969929, -1006934.9, -41585.15, 0.0, 9.99956, 9.999653 
2.1251191e+3, 2.1149132e+2, -764562.4, -731580.7, -49719.45, 0.03501872, -0.50615865, -695688.6, 171643.31, 0.0, 10.000197, 10.000556 
2.1251608e+3, 2.2149204e+2, -698454.3, -805301.2, 8278.665, 0.017099205, -0.43133917, -697816.6, 71504.734, 0.0, 10.00061, 9.999198 
2.1252048e+3, 2.3148955e+2, -727587.3, -820997.8, 98055.24, 0.00978329, -0.5730951, -665682.2, 5660.951, 0.0, 9.999991, 9.998697 
2.1252488e+3, 2.4148734e+2, -632024.56, -676884.94, 55245.29, 0.05854632, -0.66645056, -594829.6, -21467.037, 0.0, 9.999752, 9.999143 
2.1252912e+3, 2.514875e+2, -301446.78, -418595.8, -73653.53, 0.2348732, -0.6116975, -265915.94, 209444.14, 0.0, 10.0011635, 9.999554 
2.1253335e+3, 2.6148733e+2, -125063.0, -396043.88, -24432.203, 0.29753563, -0.5360657, -122877.76, 254482.78, 0.0, 10.002174, 9.998556 
2.1253748e+3, 2.714844e+2, -177798.69, -397067.66, 7342.74, -0.00077802327, -0.6761903, -177553.08, 101833.39, 0.0, 10.00128, 9.99829 
2.1254173e+3, 2.814811e+2, -178991.33, -467909.78, -99283.586, -0.10677787, -0.7879862, -148163.08, 33254.465, 0.000000117451826, 10.00107, 9.997264 
2.1254605e+3, 2.9147914e+2, 250082.66, -234273.3, -175845.38, 0.2569809, -0.71666723, 307190.13, 390630.4, 0.0000050467984, 10.003476, 9.997012 
2.1254995e+3, 3.0147788e+2, 529872.75, -33990.918, -74620.555, 0.15459712, -0.5459647, 539580.75, 539580.75, 0.00002697455, 10.004827, 9.997449 
2.1255437e+3, 3.1147557e+2, 15913.095, -160720.52, -79633.586, 0.1965258, -0.5903391, 46513.76, 46513.76, 0.00007158717, 10.0007715, 9.998506 
2.1347827e+3, 1.3145322e+2, -1825566.8, -1791289.1, -196877.69, 0.17167084, -0.45697904, -1610805.6, 40905.715, 0.38411817, 9.998953, 9.999334 
2.1348223e+3, 1.4145221e+2, -1822391.3, -1715746.6, -26839.037, 0.19726726, -0.46799368, -1709373.0, -155647.55, 0.24951555, 9.998084, 9.999552 
2.134867e+3, 1.5145402e+2, -1488062.5, -1359824.0, 47397.273, 0.20577402, -0.38073024, -1344207.6, 111496.47, 0.13052814, 9.999059, 10.000949 
2.1349114e+3, 1.6145442e+2, -1380711.9, -1425227.9, 3250.31, 0.23468074, -0.36770403, -1380475.8, -22779.797, 0.050404422, 9.999878, 9.999345 
2.1349528e+3, 1.7145136e+2, -1283668.6, -1393222.6, -8993.877, 0.08476817, -0.5717472, -1282935.3, -23211.744, 0.012084308, 10.000181, 9.998725 
2.134994e+3, 1.814488e+2, -1150049.9, -1251425.5, -53276.52, -0.055764202, -0.6952259, -1127201.0, 34545.297, 0.001155736, 10.000299, 9.998977 
2.1350357e+3, 1.9144878e+2, -1097881.0, -1137675.0, -30032.693, -0.010704772, -0.6400486, -1081752.3, -18006.64, 0.000030850606, 9.999845, 9.999292 
2.1350774e+3, 2.014486e+2, -1060579.0, -1074854.4, 1427.1221, 0.035746958, -0.5719414, -1060437.8, -94691.33, 0.0, 9.999462, 9.999237 
2.1351191e+3, 2.1144737e+2, -865921.44, -912337.06, -15078.691, 0.015121898, -0.6453826, -861453.1, 6305.3433, 0.0, 10.000066, 9.99938 
2.1351616e+3, 2.214465e+2, -678893.8, -709593.0, -3425.506, 0.027578542, -0.676299, -678516.2, 91249.47, 0.0, 10.000383, 9.999959 
2.1352068e+3, 2.3144735e+2, -621536.44, -576405.9, 78847.96, 0.21056806, -0.6433954, -516957.8, 154793.63, 0.0, 9.999884, 10.000431 
2.135251e+3, 2.4144737e+2, -704463.4, -794539.3, 72708.09, 0.29552385, -0.607115, -663974.25, -90227.19, 0.0, 9.999616, 9.998398 
2.1352904e+3, 2.5144407e+2, -463761.03, -729874.7, -7044.0273, 0.0076480573, -0.71920204, -463574.72, 12207.584, 0.0, 10.001048, 9.997472 
2.1353307e+3, 2.614411e+2, -210685.77, -520309.63, -35858.77, -0.20945525, -0.7603555, -206587.08, 171227.55, 0.0, 10.001956, 9.997803 
2.1353762e+3, 2.714407e+2, -194089.58, -411757.3, -18307.162, 0.013221218, -0.6332981, -192560.56, 87260.42, 0.00000000014169585, 10.001195, 9.998233 
2.1354213e+3, 2.814402e+2, -190316.17, -436976.38, -55548.105, 0.17555024, -0.4729651, -178383.92, 3444.046, 0.000000256191, 10.000856, 9.997564 
2.1354614e+3, 2.9143766e+2, 233859.53, -221950.36, -49500.18, 0.004821544, -0.49799976, 239173.23, 323026.88, 0.0000052967753, 10.003257, 9.997207 
2.1355005e+3, 3.014327e+2, 292944.1, -343719.06, -148563.5, -0.26449543, -0.62233025, 325904.56, 325904.56, 0.000025200057, 10.004108, 9.995635 
2.1355456e+3, 3.1143102e+2, -31386.982, -92298.695, -112411.06, 0.2600807, -0.420289, 54620.918, 54620.918, 0.00006359548, 10.000119, 9.999263 
2.1447808e+3, 1.3140889e+2, -2373452.5, -2118225.8, -253968.39, 0.27651212, -0.48855558, -1961611.9, -309467.3, 0.40760165, 9.995382, 9.998723 
2.1448217e+3, 1.4140788e+2, -1506636.1, -1541587.3, -20840.006, 0.25108588, -0.47250235, -1496914.3, 57247.234, 0.26811564, 10.000291, 9.999717 
2.144866e+3, 1.5141019e+2, -1401639.0, -1287906.3, 15900.66, 0.21191725, -0.36458123, -1285725.1, 170409.23, 0.14296411, 9.999526, 10.001309 
2.1449108e+3, 1.6141135e+2, -1516997.8, -1451150.0, -2754.397, 0.25925112, -0.31354576, -1451035.0, -92916.78, 0.057087187, 9.998786, 9.999688 
2.1449532e+3, 1.7140849e+2, -1336220.9, -1376540.6, -660.15137, 0.13994385, -0.53258365, -1336210.0, -76066.31, 0.014719365, 9.999661, 9.999084 
2.1449949e+3, 1.8140607e+2, -1131047.0, -1202133.1, -44430.145, 0.02600665, -0.6793312, -1109692.4, 52472.99, 0.0017550356, 10.000275, 9.999326 
2.1450363e+3, 1.9140634e+2, -1010681.6, -1058441.6, -93860.945, 0.06712061, -0.6231875, -937710.56, 126449.62, 0.00008036648, 10.000296, 9.999619 
2.1450776e+3, 2.0140627e+2, -977542.75, -1053278.9, -65114.508, 0.11593956, -0.5617827, -940085.56, 26073.797, 0.000000018813253, 10.000097, 9.999083 
2.1451195e+3, 2.114044e+2, -945182.75, -1000593.56, -44807.414, 0.06391971, -0.6599394, -920207.1, -52028.3, 0.0, 9.999723, 9.9989395 
2.145162e+3, 2.2140309e+2, -776808.6, -739591.6, 3161.8252, 0.063897096, -0.71055835, -739324.9, 30866.455, 0.0, 9.999638, 10.000117 
2.1452075e+3, 2.3140436e+2, -455062.5, -441654.28, -7621.546, 0.2577041, -0.67451507, -438207.88, 233964.22, 0.0, 10.000802, 10.000916 
2.1452522e+3, 2.4140476e+2, -401674.97, -656559.8, -38428.336, 0.35250887, -0.6274427, -396007.28, 178155.73, 0.0, 10.00173, 9.998328 
2.1452913e+3, 2.514012e+2, -432505.5, -755307.94, -27720.0, -0.0014509835, -0.7309987, -430142.38, 46059.22, 0.0, 10.001443, 9.997101 
2.1453318e+3, 2.613978e+2, -324636.3, -627484.6, 35572.46, -0.24243933, -0.7780508, -320514.06, 57725.5, 0.0, 10.001384, 9.997349 
2.1453784e+3, 2.7139714e+2, -33139.65, -388159.5, 3091.7837, 0.04598496, -0.6222545, -33112.723, 247138.0, 0.00000000016893417, 10.002529, 9.99775 
2.145424e+3, 2.8139707e+2, 192594.17, -227414.53, -30253.602, 0.2595263, -0.40167108, 194762.17, 377017.4, 0.0000002738674, 10.003351, 9.997811 
2.1454641e+3, 2.9139492e+2, 146622.55, -171333.98, -35427.004, 0.0065859137, -0.44062135, 150522.03, 234795.75, 0.0000047479944, 10.002277, 9.998015 
2.1455042e+3, 3.0138934e+2, 18604.404, -439624.53, -38167.45, -0.18721084, -0.70598423, 21761.746, 21761.746, 0.000021563434, 10.001976, 9.996044 
2.1455479e+3, 3.1138772e+2, 570898.06, 233049.42, 10474.581, 0.3021604, -0.50465846, 571222.5, 571222.5, 0.000054127435, 10.004061, 9.999604 
2.1547766e+3, 1.3136114e+2, -2186327.0, -1711358.9, 37406.434, 0.29394892, -0.5653871, -1708430.9, -55820.184, 0.43279883, 9.995313, 10.001539 
2.1548209e+3, 1.413628e+2, -1432722.8, -1416468.9, -11206.508, 0.08626094, -0.52022815, -1410752.6, 143847.3, 0.28823382, 10.00046, 10.000852 
2.1548648e+3, 1.5136413e+2, -1385828.4, -1272950.0, -18088.086, 0.1100656, -0.54667574, -1270122.4, 186459.25, 0.15688464, 9.999609, 10.001415 
2.1549089e+3, 1.6136503e+2, -1469313.1, -1376593.9, 161.79872, 0.15523858, -0.5423448, -1376593.6, -18025.533, 0.06501248, 9.998894, 10.000145 
2.1549529e+3, 1.7136537e+2, -1290709.0, -1281467.9, 39732.797, 0.13407795, -0.50616205, -1246087.9, 14478.053, 0.018139776, 9.999662, 9.999732 
2.1549964e+3, 1.8136527e+2, -1124334.8, -1202593.8, -43143.594, 0.11117845, -0.4613914, -1105219.3, 57348.79, 0.0026903055, 10.00033, 9.999298 
2.1550378e+3, 1.9136408e+2, -1030651.6, -1097830.3, -88999.64, 0.16552266, -0.5307234, -969113.8, 95464.01, 0.00019736934, 10.000288, 9.999348 
2.1550788e+3, 2.013629e+2, -986575.4, -1057495.1, -81945.234, 0.19462402, -0.5625896, -932746.8, 33841.01, 0.0000007869328, 10.000033, 9.999085 
2.1551193e+3, 2.1136223e+2, -946840.0, -984944.5, -52695.61, 0.09498407, -0.556305, -909858.2, -41263.277, 0.0, 9.999632, 9.999093 
2.1551612e+3, 2.2136149e+2, -832497.56, -815494.75, 21213.408, 0.013894884, -0.54914117, -801142.6, -30541.023, 0.0, 9.999469, 9.999674 
2.1552065e+3, 2.313605e+2, -526687.94, -557917.56, 49940.297, 0.08275994, -0.6706112, -489978.22, 182626.92, 0.0, 10.000658, 10.000186 
2.155252e+3, 2.4135959e+2, -408325.7, -605294.44, -33955.297, 0.14183211, -0.723387, -402636.5, 171972.72, 0.0, 10.00146, 9.998805 
2.155294e+3, 2.5135863e+2, -373145.38, -605189.0, -33464.1, 0.10562227, -0.66536695, -368415.75, 108204.805, 0.0, 10.001326, 9.998189 
2.1553361e+3, 2.613568e+2, -362267.22, -670083.2, 52982.094, 0.034116883, -0.62074184, -353403.06, 25238.492, 0.0, 10.001236, 9.997126 
2.1553805e+3, 2.7135348e+2, -126339.54, -543705.5, 64999.996, 0.014016444, -0.652517, -116450.83, 164228.53, 0.0, 10.00236, 9.996767 
2.1554255e+3, 2.8135142e+2, 137203.2, -240924.5, -44128.867, 0.051877066, -0.5578045, 142284.9, 324987.78, 0.000000100631844, 10.002946, 9.997898 
2.1554677e+3, 2.9135078e+2, 183774.77, -43343.89, -57264.57, 0.120096855, -0.52702415, 197396.23, 282099.06, 0.0000031808167, 10.002056, 9.9990015 
2.1555085e+3, 3.013465e+2, 86131.05, -154493.55, -10681.277, 0.024443777, -0.82574135, 86604.26, 86604.26, 0.000016664693, 10.001401, 9.998252 
2.1555495e+3, 3.113464e+2, 388734.47, -3406.4424, 80149.78, 0.0023062732, -0.6933118, 404483.78, 404483.78, 0.00004561872, 10.003459, 9.998262 
2.1647736e+3, 1.3131517e+2, -1462588.8, -1460872.0, 155383.4, 0.19815244, -0.7168052, -1306344.6, 346712.84, 0.45757636, 10.001478, 10.00138 
2.1648198e+3, 1.4131917e+2, -1828802.6, -1551910.3, 21907.688, 0.10993004, -0.43747067, -1550187.6, 4838.8896, 0.3088363, 9.997317, 10.001053 
2.1648638e+3, 1.5131962e+2, -1435141.5, -1285639.6, -13096.052, 0.08874931, -0.57104653, -1284501.0, 172515.72, 0.17204043, 9.999156, 10.00154 
2.1649078e+3, 1.6131984e+2, -1268681.3, -1277543.0, -10278.379, 0.10876999, -0.6471134, -1261919.4, 97090.91, 0.07433442, 10.000281, 10.000205 
2.1649529e+3, 1.713211e+2, -1344559.4, -1306862.0, -32132.314, 0.18782489, -0.5213469, -1288458.0, -27456.82, 0.022589553, 9.999268, 9.999761 
2.164997e+3, 1.8132189e+2, -1375005.5, -1278436.5, -104108.67, 0.26486441, -0.39944485, -1211960.4, -48964.4, 0.00413868, 9.998427, 9.999692 
2.1650386e+3, 1.913209e+2, -1085328.8, -1069272.8, -105814.89, 0.2679623, -0.4955026, -971181.8, 93821.555, 0.00045452762, 9.9996805, 9.999841 
2.1650796e+3, 2.0131984e+2, -870339.56, -974059.5, -64516.465, 0.2544737, -0.55428827, -839423.75, 127587.484, 0.000007502901, 10.000712, 9.9993305 
2.1651201e+3, 2.1131955e+2, -774779.25, -888691.5, -62817.105, 0.1411214, -0.52213615, -746941.56, 122072.4, 0.0, 10.000776, 9.999198 
2.1651614e+3, 2.2131895e+2, -699660.6, -784248.9, 35646.535, 0.04834337, -0.49510038, -686642.25, 84376.78, 0.0, 10.00053, 9.999371 
2.1652064e+3, 2.313173e+2, -691527.4, -697288.56, 65491.66, 0.05225483, -0.6364163, -628853.0, 44178.906, 0.0, 9.999787, 9.999643 
2.165252e+3, 2.4131593e+2, -671016.94, -715748.5, 13393.1875, 0.11249157, -0.7005248, -667313.44, -92271.0, 0.0, 9.999573, 9.998961 
2.1652961e+3, 2.513158e+2, -309704.0, -500819.9, -21430.178, 0.21163164, -0.6082765, -307330.47, 169713.95, 0.0, 10.001467, 9.998825 
2.1653399e+3, 2.6131484e+2, -77727.15, -467518.4, 48268.703, 0.21288338, -0.5401244, -71838.875, 307216.22, 0.0, 10.002914, 9.997703 
2.1653825e+3, 2.713113e+2, -166471.9, -497480.8, 120531.82, 0.0024967666, -0.650533, -127233.484, 153858.89, 0.0, 10.001823, 9.997331 
2.1654265e+3, 2.8130865e+2, -157583.47, -396245.13, 107936.18, -0.02142432, -0.64788914, -116010.4, 67108.65, 0.0000000029805467, 10.000959, 9.997796 
2.165471e+3, 2.9130805e+2, 161832.33, -83256.8, -2352.7007, 0.25302044, -0.5692656, 161854.9, 246975.08, 0.000001345268, 10.00205, 9.998724 
2.1655124e+3, 3.013054e+2, 420840.8, 81040.73, -226.42528, 0.19836093, -0.7397331, 420840.97, 420840.97, 0.000010778314, 10.003358, 9.99893 
2.1655525e+3, 3.1130376e+2, 365984.97, -135065.61, -96872.375, -0.05876735, -0.8033449, 384061.97, 384061.97, 0.00003608632, 10.003854, 9.9971485 
2.1747725e+3, 1.3127205e+2, -1582770.6, -1819770.9, -62752.03, -0.14603347, -0.88928866, -1567180.9, 86292.93, 0.48078975, 10.00201, 9.997503 
2.1748187e+3, 1.4127755e+2, -1897404.3, -1715010.0, 24069.816, 0.2085482, -0.19021644, -1711887.1, -156451.52, 0.32934, 9.997426, 9.999862 
2.1748628e+3, 1.5127681e+2, -1439840.5, -1293015.8, 58753.8, 0.068924464, -0.4232313, -1272399.4, 185039.28, 0.18832743, 9.999132, 10.001517 
2.174907e+3, 1.6127557e+2, -1279167.6, -1326906.9, -19602.758, -0.022807771, -0.62730545, -1272150.0, 87296.78, 0.0852701, 10.000408, 9.999782 
2.1749523e+3, 1.712757e+2, -1371902.9, -1378698.4, -70625.34, 0.20913962, -0.56700903, -1304593.6, -43144.637, 0.028395085, 9.999331, 9.999232 
2.1749969e+3, 1.8127598e+2, -1327945.4, -1195371.0, -95259.164, 0.38295117, -0.48247576, -1145605.1, 17843.77, 0.006367479, 9.998487, 10.000233 
2.1750386e+3, 1.9127658e+2, -1007859.9, -905182.94, -46944.867, 0.2887042, -0.52288115, -886955.2, 178483.64, 0.0009868387, 9.999664, 10.000974 
2.1750799e+3, 2.0127685e+2, -850941.7, -917404.4, -54676.95, 0.1773004, -0.5412529, -820189.5, 147242.5, 0.000047582707, 10.000634, 9.999761 
2.1751206e+3, 2.1127619e+2, -791855.56, -890670.6, -57422.48, 0.12500367, -0.559148, -765510.56, 103926.85, 0.00000000032497088, 10.000628, 9.999257 
2.1751621e+3, 2.2127539e+2, -749025.1, -833998.44, 10868.188, 0.07197569, -0.5499082, -747657.06, 23787.71, 0.0, 10.00031, 9.999133 
2.1752065e+3, 2.3127441e+2, -741431.7, -771356.44, 45130.17, 0.07540892, -0.58300763, -708848.25, -35392.766, 0.0, 9.999664, 9.99919 
2.1752517e+3, 2.4127336e+2, -708265.94, -744824.7, 42916.23, 0.12844798, -0.5839956, -679898.3, -104431.56, 0.0, 9.999375, 9.998852 
2.175298e+3, 2.5127256e+2, -326661.4, -493816.44, 65847.266, 0.23536986, -0.5695496, -303838.44, 173636.27, 0.0, 10.00129, 9.998956 
2.1753427e+3, 2.6127183e+2, -39842.43, -312846.06, 40638.71, 0.19839591, -0.5266311, -33921.46, 345559.72, 0.0, 10.0026, 9.998912 
2.1753836e+3, 2.7127028e+2, -64295.34, -242802.94, 80335.98, -0.08512166, -0.6130157, -33465.38, 248027.69, 0.0, 10.001647, 9.999162 
2.1754265e+3, 2.812681e+2, -221824.61, -455182.8, 102230.8, -0.13160118, -0.6811767, -183374.25, 137.24973, 0.0, 10.00066, 9.997527 
2.1754734e+3, 2.9126602e+2, 31615.773, -322139.97, 60007.746, 0.27466854, -0.6238538, 41517.75, 127050.445, 0.00000028754212, 10.001912, 9.997149 
2.1755154e+3, 3.012645e+2, 280267.16, -89918.39, 17672.203, 0.14254421, -0.5407169, 281108.88, 281108.88, 0.0000061263827, 10.002897, 9.99795 
2.1755572e+3, 3.1126067e+2, 197602.33, -311687.8, 32811.74, -0.012374141, -0.75730336, 199707.56, 199707.56, 0.000027574106, 10.003124, 9.9962845 
2.1848184e+3, 1.412347e+2, -1655216.6, -1642342.3, -118374.69, 0.38624588, -0.14441028, -1530229.9, 25627.62, 0.34983045, 9.999263, 9.999524 
2.184862e+3, 1.5123323e+2, -1542840.9, -1350955.9, 113888.055, 0.12510881, -0.4105351, -1297984.1, 159883.14, 0.2059314, 9.998486, 10.001417 
2.1849072e+3, 1.6123223e+2, -1573394.9, -1449140.1, 36214.008, 0.06604405, -0.5922992, -1439356.0, -79483.43, 0.09816949, 9.998273, 9.99995 
2.1849523e+3, 1.7123227e+2, -1384310.8, -1354674.9, 8230.444, 0.29448378, -0.56304204, -1352542.5, -90667.82, 0.036017943, 9.99917, 9.999459 
2.1849959e+3, 1.8123232e+2, -1131540.8, -1094800.5, 39257.15, 0.39638346, -0.51975435, -1069828.0, 94047.97, 0.009796201, 9.999791, 10.000304 
2.1850379e+3, 1.9123301e+2, -1032628.44, -915237.3, 13499.467, 0.27290714, -0.55543286, -913704.94, 152160.36, 0.0020521113, 9.999475, 10.000995 
2.1850796e+3, 2.0123355e+2, -1035808.8, -962433.2, -36910.047, 0.18640086, -0.5620465, -947079.25, 20776.848, 0.00020967671, 9.999182, 10.000156 
2.1851213e+3, 2.1123326e+2, -882232.5, -873086.06, -35928.105, 0.17910868, -0.59494364, -841441.3, 28415.506, 0.00000086887735, 9.999734, 9.999818 
2.1851633e+3, 2.2123268e+2, -773788.06, -900212.9, 63214.332, 0.16726364, -0.5852912, -747603.25, 24258.822, 0.0, 10.000358, 9.998666 
2.1852075e+3, 2.3123126e+2, -578297.6, -802801.44, 45183.656, 0.14544557, -0.5661252, -569545.2, 104336.24, 0.0, 10.001277, 9.998193 
2.1852528e+3, 2.4122992e+2, -332840.44, -544936.25, 47290.39, 0.16602, -0.5332799, -322774.0, 253125.2, 0.0, 10.001866, 9.999023 
2.1852988e+3, 2.5122985e+2, -297360.44, -391394.63, 98072.71, 0.20662943, -0.51759493, -235616.94, 242282.05, 0.0, 10.001082, 9.999772 
2.1853438e+3, 2.6123017e+2, -318081.44, -387478.72, 86770.93, 0.1728838, -0.44691825, -259328.55, 120565.26, 0.0, 10.000403, 9.999474 
2.1853855e+3, 2.712292e+2, -166760.16, -254207.25, 1366.3048, 0.018560627, -0.5007057, -166738.81, 115159.03, 0.0, 10.000762, 9.999525 
2.1854292e+3, 2.8122687e+2, -113413.88, -384633.47, 17066.332, 0.045342676, -0.6238813, -112344.22, 71573.25, 0.0, 10.001301, 9.997715 
2.1854761e+3, 2.9122332e+2, 146121.48, -277477.5, 66272.664, 0.32419932, -0.70579123, 156247.86, 242203.17, 0.000000027227998, 10.002736, 9.997065 
2.1855195e+3, 3.0122316e+2, 455879.75, -14792.165, 81631.305, 0.22641158, -0.48046577, 469635.53, 469635.53, 0.0000044959556, 10.00409, 9.997924 
2.1855603e+3, 3.1122154e+2, 287459.3, -102672.01, 63966.355, 0.022175083, -0.4784447, 297679.56, 297679.56, 0.000025056477, 10.002931, 9.997859 
2.1948177e+3, 1.4118902e+2, -1618440.4, -1514545.3, -371675.47, 0.30713576, -0.35597298, -1191204.6, 365102.88, 0.371045, 9.999351, 10.001139 
2.1948609e+3, 1.5118837e+2, -1543848.0, -1359921.4, 116921.92, 0.14506476, -0.53952837, -1303129.9, 155177.73, 0.22535217, 9.998524, 10.001358 
2.194908e+3, 1.6118985e+2, -1508988.8, -1330915.5, 36985.42, 0.27948734, -0.51643217, -1323539.3, 36748.54, 0.113554515, 9.998321, 10.000769 
2.1949527e+3, 1.7119044e+2, -1324974.9, -1228178.0, 50954.016, 0.3757385, -0.51346797, -1206300.4, 55980.957, 0.046104282, 9.999152, 10.000351 
2.194994e+3, 1.8119046e+2, -1141199.9, -1124903.9, 39885.113, 0.19837198, -0.5271007, -1092343.0, 71937.85, 0.015073848, 9.999833, 10.000078 
2.1950361e+3, 1.9119015e+2, -1099806.4, -1051984.0, 4340.0117, 0.13999732, -0.5819181, -1051593.4, 14689.418, 0.004138987, 9.999468, 10.000056 
2.1950789e+3, 2.0118997e+2, -1029573.7, -936168.9, -35471.473, 0.1593889, -0.60301566, -924225.44, 44057.613, 0.00072646124, 9.9991255, 10.000362 
2.1951213e+3, 2.111906e+2, -834713.0, -744102.2, -8528.381, 0.20495526, -0.62418085, -743306.44, 126967.02, 0.000022642807, 9.999607, 10.000759 
2.1951643e+3, 2.2119065e+2, -846525.56, -1007215.94, 84330.81, 0.22123033, -0.5998165, -810393.1, -38120.74, 0.000000000011542125, 10.000163, 9.998024 
2.1952093e+3, 2.311878e+2, -705432.44, -1040265.7, 90042.6, 0.17084524, -0.5884577, -682754.3, -8444.092, 0.0, 10.001155, 9.996622 
2.195254e+3, 2.4118559e+2, -355083.38, -524040.06, 33469.57, 0.10187052, -0.5450416, -348694.75, 227645.44, 0.0, 10.001587, 9.999297 
2.1952984e+3, 2.5118747e+2, -225626.1, -200494.5, 69072.86, 0.040987935, -0.45232543, -142853.75, 335465.3, 0.0, 10.000905, 10.001166 
2.1953428e+3, 2.6118943e+2, -375103.38, -426911.3, 70510.78, 0.017442591, -0.3106671, -325888.88, 54407.867, 0.0, 10.000086, 9.999342 
2.1953882e+3, 2.7118784e+2, -262028.9, -412857.5, 26301.174, 0.18849474, -0.35039863, -257574.14, 24735.57, 0.0, 10.00061, 9.998497 
2.1954334e+3, 2.8118455e+2, -115915.31, -340191.6, 44333.117, 0.3169328, -0.51078695, -107469.92, 76870.53, 0.0, 10.001102, 9.998109 
2.1954785e+3, 2.9118013e+2, 175078.69, -151245.56, 143422.8, 0.2897035, -0.78553724, 229153.7, 315539.3, 0.000000020729713, 10.002453, 9.998069 
2.1955237e+3, 3.0118066e+2, 390489.75, 20101.473, 76449.07, 0.19890471, -0.54415214, 405648.63, 405648.63, 0.0000055230016, 10.003396, 9.998468 
2.195562e+3, 3.1118342e+2, 322785.1, 138338.78, 77234.72, -0.12251245, -0.21896465, 350854.56, 350854.56, 0.000029811183, 10.002286, 9.999787 
2.2048166e+3, 1.4114678e+2, -1607719.4, -1489773.0, -280904.56, 0.29730946, -0.4535318, -1261718.0, 295001.03, 0.39437363, 9.999204, 10.001345 
2.2048602e+3, 1.5114504e+2, -1420462.4, -1427576.8, 150764.77, 0.14841889, -0.6049406, -1273212.9, 185518.05, 0.24751917, 10.000144, 10.000068 
2.2049077e+3, 1.6114679e+2, -1368959.6, -1284084.9, -3674.2832, 0.40029672, -0.47646183, -1283926.1, 76784.09, 0.13222682, 9.999325, 10.000668 
2.2049513e+3, 1.7114724e+2, -1356090.9, -1222708.0, -29190.953, 0.38919422, -0.5009614, -1216599.4, 46105.574, 0.059555795, 9.998782, 10.000606 
2.2049926e+3, 1.8114719e+2, -1332369.0, -1189118.0, -47149.03, 0.17235611, -0.54891956, -1174992.5, -10287.479, 0.023171267, 9.998397, 10.000334 
2.2050357e+3, 1.911471e+2, -1119651.8, -1042623.0, -26437.021, 0.1712135, -0.59640896, -1034422.56, 32281.47, 0.008108057, 9.999242, 10.000247 
2.2050789e+3, 2.0114715e+2, -914096.6, -910557.56, 1721.3433, 0.2375074, -0.5983709, -909858.44, 58843.79, 0.0021629941, 10.000047, 10.000098 
2.2051215e+3, 2.111476e+2, -696898.9, -735637.1, -69629.305, 0.22199659, -0.5882804, -643994.9, 226702.53, 0.00023583506, 10.000798, 10.000246 
2.2051647e+3, 2.2114749e+2, -674501.44, -910995.25, -29048.955, 0.21035205, -0.54454917, -670985.56, 101714.766, 0.0000019906881, 10.0012865, 9.998145 
2.2052105e+3, 2.3114546e+2, -716595.5, -998850.06, 74644.75, 0.2252176, -0.4910506, -698070.9, -23341.14, 0.0, 10.0008545, 9.997066 
2.205256e+3, 2.4114366e+2, -566862.9, -666185.4, 98122.59, 0.22486855, -0.41963044, -506550.16, 70204.88, 0.0, 10.000288, 9.998957 
2.2052988e+3, 2.511443e+2, -446111.34, -380935.2, -29815.1, 0.09227626, -0.38647178, -369354.0, 109393.65, 0.0, 9.999756, 10.000459 
2.2053425e+3, 2.61145e+2, -437015.0, -462938.13, -67143.02, 0.03527715, -0.32057688, -381593.9, -854.9625, 0.0, 9.9996805, 9.999292 
2.2053896e+3, 2.7114356e+2, -87044.03, -291422.78, -17241.133, 0.25297883, -0.367741, -85599.8, 197150.28, 0.0, 10.001637, 9.998839 
2.2054362e+3, 2.8114158e+2, 232572.33, -75988.86, 53888.504, 0.40483844, -0.45628655, 241712.88, 426480.28, 0.0, 10.003091, 9.998961 
2.20548e+3, 2.9113907e+2, 96001.75, -87325.91, 81802.17, 0.25905022, -0.62478507, 127194.96, 213987.5, 0.00000007580395, 10.00147, 9.998983 
2.2055252e+3, 3.0113903e+2, -137942.44, -360368.16, 53649.625, 0.20099373, -0.45299187, -125678.25, -125678.25, 0.0000083740215, 10.000274, 9.997378 
2.2055665e+3, 3.111395e+2, 635738.94, 368620.28, -134484.39, 0.019553943, -0.1899546, 691716.25, 691716.25, 0.000042885644, 10.004054, 10.000524 
2.2148198e+3, 1.4111122e+2, -1662403.5, -1597494.8, -208653.27, 0.64714074, -0.10179424, -1418786.9, 138272.63, 0.4221777, 9.999161, 10.000219 
2.2148599e+3, 1.5110308e+2, -1583894.5, -1787612.0, 182514.92, 0.09922982, -0.6018665, -1476739.1, -17601.15, 0.27423543, 10.000099, 9.997417 
2.214906e+3, 1.6110273e+2, -1427737.1, -1407854.5, -45780.9, 0.26899865, -0.47437394, -1370948.0, -9805.121, 0.15564767, 9.999384, 9.999703 
2.2149487e+3, 1.711027e+2, -1377304.6, -1263514.0, -47467.305, 0.23523691, -0.5148889, -1246313.3, 16831.965, 0.07778218, 9.998774, 10.000318 
2.2149917e+3, 1.811025e+2, -1284270.1, -1102877.4, -41036.45, 0.21745384, -0.5722642, -1094025.6, 71122.57, 0.035576556, 9.998438, 10.000928 
2.2150362e+3, 1.9110377e+2, -1045295.06, -872878.75, 12820.18, 0.28909057, -0.5933361, -871930.7, 195199.5, 0.0154146915, 9.999171, 10.001464 
2.2150798e+3, 2.0110491e+2, -972406.0, -1013013.6, 25575.473, 0.3108868, -0.5532026, -960054.8, 9060.906, 0.005714695, 9.999962, 9.999435 
2.2151215e+3, 2.1110415e+2, -844232.56, -1015199.75, -33976.86, 0.1404361, -0.49939838, -837727.7, 33401.836, 0.0013616167, 10.00068, 9.998384 
2.215164e+3, 2.211034e+2, -669225.6, -840782.0, -38060.195, 0.018756272, -0.40837678, -661161.0, 111983.016, 0.00013056793, 10.001033, 9.998751 
2.2152114e+3, 2.3110396e+2, -586321.06, -687822.2, 61942.723, 0.22819537, -0.28754488, -556993.44, 118149.11, 0.0000045921656, 10.000674, 9.9992895 
2.215258e+3, 2.4110383e+2, -676810.4, -817265.4, 63729.434, 0.39860526, -0.17446536, -652204.6, -75057.27, 0.000000030624218, 9.999974, 9.998062 
2.2153004e+3, 2.5110024e+2, -659817.5, -788384.3, -40754.613, 0.25446913, -0.32712296, -647987.2, -168801.77, 0.0, 9.999609, 9.997728 
2.215343e+3, 2.6109686e+2, -474205.47, -489686.4, -35389.21, 0.09813845, -0.47336215, -445720.1, -64500.363, 0.0, 9.999481, 9.999198 
2.2153904e+3, 2.7109665e+2, -17131.31, -80890.266, 72777.03, 0.13472588, -0.53140986, 30442.328, 313658.84, 0.0, 10.001368, 10.000409 
2.2154373e+3, 2.810978e+2, 225267.27, 34011.926, 31873.818, 0.17780435, -0.44468182, 230439.36, 415639.3, 0.0, 10.002574, 9.999952 
2.2154802e+3, 2.9109943e+2, 114927.92, -24947.504, 13444.977, 0.13556126, -0.27906385, 116208.54, 203392.23, 0.00000027397763, 10.001388, 9.999438 
2.2155242e+3, 3.010976e+2, -315939.78, -699264.25, 91129.25, 0.024193835, -0.2219268, -295378.2, -295378.2, 0.000015050563, 10.000189, 9.995067 
2.2155704e+3, 3.1109053e+2, 424600.5, 164901.27, 105129.586, -0.04514507, -0.423992, 461823.2, 461823.2, 0.00007034586, 10.003099, 9.999559 
2.2248147e+3, 1.410582e+2, -1487188.3, -1302200.1, -29796.598, 0.21395174, -0.8452809, -1297519.1, 260054.98, 0.45833316, 9.99887, 10.00344 
2.2248611e+3, 1.5105897e+2, -1601500.3, -1829907.3, 47240.82, 0.2482821, -0.70286787, -1592115.3, -132548.16, 0.30885017, 10.000115, 9.997104 
2.2249047e+3, 1.610585e+2, -1366684.1, -1466367.9, -21832.348, 0.19200562, -0.52106446, -1362112.3, -535.93994, 0.18666483, 10.000168, 9.998924 
2.2249483e+3, 1.7105912e+2, -1254233.4, -1250103.1, -65625.1, 0.25740194, -0.4501759, -1186510.8, 77065.35, 0.103338934, 9.999865, 9.999897 
2.2249922e+3, 1.8105952e+2, -1189236.3, -1088662.6, -46359.78, 0.39978746, -0.4069844, -1070553.5, 95021.766, 0.054786276, 9.999206, 10.000681 
2.2250359e+3, 1.910599e+2, -963195.44, -848552.75, -71363.195, 0.31999606, -0.5045105, -814340.25, 253224.67, 0.028543482, 9.999778, 10.001365 
2.2250788e+3, 2.0106012e+2, -946067.4, -1026647.5, -112965.85, 0.21160462, -0.54375595, -866421.75, 103136.78, 0.013685946, 10.000269, 9.999189 
2.2251216e+3, 2.1105954e+2, -985158.2, -1128729.0, -114319.24, 0.11757987, -0.43340662, -921954.56, -50381.527, 0.005262215, 9.999921, 9.99797 
2.225165e+3, 2.2105892e+2, -859474.9, -908959.3, -43823.066, 0.08749227, -0.3063882, -833891.75, -60304.18, 0.001420654, 9.999603, 9.998978 
2.2252117e+3, 2.3105934e+2, -699762.75, -663085.06, -56154.855, 0.25743872, -0.25594777, -622350.4, 53233.504, 0.0002619265, 9.999547, 10.000008 
2.2252578e+3, 2.4105921e+2, -701060.4, -821890.4, -76329.61, 0.3977324, -0.1906304, -664129.7, -86543.9, 0.000035642544, 9.999762, 9.998142 
2.2253008e+3, 2.5105605e+2, -463184.2, -728407.75, -28443.504, 0.26473525, -0.28049403, -460168.1, 19452.705, 0.0000011567587, 10.001062, 9.997463 
2.2253437e+3, 2.610527e+2, -165503.89, -349721.4, 92813.39, 0.1340295, -0.4023577, -126852.0, 254804.06, 0.0, 10.001631, 9.999127 
2.2253908e+3, 2.7105215e+2, -213265.58, -161996.1, 84471.92, 0.15906224, -0.49432287, -99354.875, 184302.2, 0.0, 9.999987, 10.000516 
2.2254382e+3, 2.8105378e+2, -250083.17, -207756.05, 9095.65, 0.22229682, -0.3691873, -205884.27, -20247.738, 0.0, 9.999351, 9.999861 
2.2254825e+3, 2.9105526e+2, 419801.97, 95430.94, -77412.45, 0.10746791, -0.17662084, 437329.66, 524948.75, 0.00000073017384, 10.003612, 9.99919 
2.2255264e+3, 3.010508e+2, 548298.94, -278483.2, -31086.082, -0.0554954, -0.3846425, 549466.1, 549466.1, 0.00002755439, 10.006076, 9.995145 
2.2255723e+3, 3.1104368e+2, 160666.6, 37320.633, 105616.48, -0.032522347, -0.56176484, 221298.14, 221298.14, 0.000118261974, 10.001221, 9.999626 
2.2348638e+3, 1.5101308e+2, -1474838.9, -1499192.0, -13493.548, 0.47312638, -0.8267733, -1468840.0, -8825.388, 0.35698506, 9.999889, 9.999443 
2.2349043e+3, 1.6101381e+2, -1425007.8, -1573459.5, -22315.094, 0.080129184, -0.6411652, -1421725.9, -59712.59, 0.23053116, 10.0001, 9.998223 
2.2349495e+3, 1.710161e+2, -1312866.9, -1351089.5, -85941.31, 0.37843484, -0.33264628, -1243937.5, 20063.03, 0.14104874, 9.9997635, 9.9992285 
2.2349937e+3, 1.8101804e+2, -1268557.0, -1242065.1, -52710.477, 0.5919031, -0.069027476, -1200961.8, -34973.047, 0.08532412, 9.999169, 9.999611 
2.2350344e+3, 1.9101547e+2, -1059898.3, -1038502.06, -38211.63, 0.18325068, -0.33399338, -1009519.25, 58489.516, 0.05187056, 9.999728, 10.000056 
2.2350754e+3, 2.0101309e+2, -962107.3, -1028412.7, -117581.07, -0.17065272, -0.5428437, -873094.5, 96933.62, 0.030293982, 10.000144, 9.99924 
2.2351211e+3, 2.1101369e+2, -937930.4, -999176.2, -122671.984, 0.067819834, -0.39169392, -842116.8, 29911.92, 0.015773455, 9.999785, 9.998926 
2.2351667e+3, 2.2101387e+2, -907639.8, -945192.94, -58311.984, 0.29022092, -0.24275367, -865155.9, -91122.836, 0.0069356123, 9.999341, 9.998846 
2.235211e+3, 2.3101173e+2, -763063.8, -770632.4, -47994.414, 0.21713817, -0.39761466, -718704.75, -42651.676, 0.002541045, 9.999439, 9.999315 
2.235255e+3, 2.4101013e+2, -686041.2, -721489.7, -55686.855, 0.11336277, -0.45101738, -645325.94, -67258.18, 0.00075579167, 9.999477, 9.998961 
2.2352995e+3, 2.5101167e+2, -362278.56, -460526.4, 27754.818, 0.04665471, -0.25166085, -354980.06, 125074.76, 0.00014769337, 10.0008135, 9.999419 
2.2353442e+3, 2.6101205e+2, -249800.61, -416785.2, 44025.09, 0.0011960337, -0.12256661, -238904.5, 143148.39, 0.000007045108, 10.001191, 9.998862 
2.2353916e+3, 2.7100965e+2, -333104.5, -380351.06, 20015.05, 0.2062754, -0.2853519, -325765.53, -41689.285, 0.00000000065814787, 9.999862, 9.9990635 
2.2354393e+3, 2.81009e+2, -370972.06, -397655.84, 70854.71, 0.35609612, -0.2545683, -312214.03, -126133.3, 0.0, 9.999121, 9.998647 
2.2354856e+3, 2.9100725e+2, 261892.14, -105807.586, 109311.88, 0.0356658, -0.2823649, 291934.47, 380026.56, 0.0000012574419, 10.003096, 9.998035 
2.2355305e+3, 3.0099905e+2, 508697.78, -120448.38, -119762.125, -0.2730379, -0.8570482, 530724.1, 530724.1, 0.000044073433, 10.005091, 9.996678 
2.235574e+3, 3.1100067e+2, 51145.01, -12855.775, 39540.31, -0.006877146, -0.3981885, 70011.71, 70011.71, 0.00018419352, 10.000534, 9.999586 
2.2448635e+3, 1.5097369e+2, -1475950.5, -1329222.4, -66386.69, 0.49099737, -0.22925457, -1303644.6, 156763.03, 0.42759266, 9.998867, 10.001718 
2.2449058e+3, 1.6097097e+2, -1537654.8, -1513601.3, 30686.87, 0.30906233, -0.6093346, -1492668.5, -130233.94, 0.29616648, 9.998829, 9.999253 
2.2449492e+3, 1.7097156e+2, -1238634.5, -1400100.3, -26316.5, 0.3640687, -0.42723915, -1234453.6, 29983.031, 0.19952731, 10.000697, 9.998427 
2.244992e+3, 1.8097214e+2, -953425.56, -1161219.3, -10644.105, 0.39622256, -0.22261691, -952881.75, 213555.48, 0.13536815, 10.001928, 9.998841 
2.2450334e+3, 1.9097006e+2, -997949.7, -1083100.6, 1457.6283, 0.10182921, -0.3644488, -997924.75, 70530.89, 0.09319166, 10.000537, 9.999357 
2.2450757e+3, 2.0096831e+2, -1091653.1, -1132437.9, -20071.287, -0.111024685, -0.45460108, -1083432.4, -112960.69, 0.06306426, 9.999355, 9.998941 
2.2451216e+3, 2.1096851e+2, -898153.4, -988122.44, -91737.734, 0.1332514, -0.32935467, -840964.44, 31511.23, 0.0400799, 10.000054, 9.998904 
2.2451672e+3, 2.2096814e+2, -704547.0, -872066.1, -65515.895, 0.33320102, -0.2228853, -681967.5, 92516.64, 0.023131557, 10.000835, 9.998647 
2.2452104e+3, 2.3096548e+2, -653215.0, -759126.8, -75211.64, 0.20003583, -0.3970106, -614186.56, 62322.05, 0.011994159, 10.000372, 9.998953 
2.2452539e+3, 2.4096344e+2, -608281.0, -663554.5, -46487.125, 0.08415306, -0.46833414, -581835.94, -3308.95, 0.0054928027, 9.9999, 9.99916 
2.2452995e+3, 2.5096536e+2, -447793.66, -410873.2, -43260.652, 0.03426942, -0.29470167, -382298.72, 98209.88, 0.002050329, 9.99984, 10.000225 
2.245345e+3, 2.6096624e+2, -444156.3, -534584.56, -81638.836, 0.033543546, -0.15714918, -396047.25, -13546.483, 0.0004876709, 9.9999485, 9.998662 
2.2453928e+3, 2.7096415e+2, -78499.82, -333609.56, -75249.05, 0.2584161, -0.22400087, -57957.883, 226565.28, 0.000047167257, 10.001934, 9.998392 
2.2454406e+3, 2.809632e+2, 93773.73, -201184.92, 37940.285, 0.43238074, -0.17387523, 98575.77, 285108.25, 0.00000034188096, 10.0024185, 9.998414 
2.2454871e+3, 2.9096034e+2, -184758.84, -331262.75, 124487.125, 0.056575026, -0.28518996, -113570.875, -25016.193, 0.0000013302117, 10.000036, 9.997986 
2.2455332e+3, 3.0095312e+2, -241723.4, -361880.6, -25187.56, -0.1972525, -0.821913, -236657.16, -236657.16, 0.0000584347, 9.999365, 9.997788 
2.2455789e+3, 3.1095704e+2, 528179.75, 226806.42, -116347.44, 0.2678489, -0.22623861, 567869.56, 567869.56, 0.00025945, 10.003701, 9.999704 
2.254909e+3, 1.6093042e+2, -1481590.5, -1295391.0, 32589.814, 0.66580003, -0.36561668, -1289851.8, 72984.52, 0.39765337, 9.998184, 10.001372 
2.254948e+3, 1.7092538e+2, -1311842.5, -1542396.9, 33627.832, 0.12335231, -0.7338825, -1307037.8, -42152.86, 0.29298013, 10.000569, 9.997511 
2.2549875e+3, 1.809216e+2, -1035175.1, -1278204.5, -41544.063, -0.30876803, -0.8776938, -1028269.7, 138653.48, 0.21888196, 10.001753, 9.99811 
2.255033e+3, 1.909232e+2, -1043733.0, -1134453.4, -59327.832, -0.03170828, -0.6233522, -1014411.6, 54499.086, 0.16615056, 10.000356, 9.999096 
2.2550786e+3, 2.0092523e+2, -1166319.8, -1237963.1, -31759.879, 0.22929896, -0.3124773, -1154267.9, -183372.77, 0.12546477, 9.9991455, 9.9983015 
2.2551224e+3, 2.1092372e+2, -984739.75, -1138955.3, -51672.76, 0.19468659, -0.27479017, -969026.8, -96110.4, 0.0914258, 9.999925, 9.997915 
2.2551657e+3, 2.2092178e+2, -779116.2, -968727.5, -66525.93, 0.0978877, -0.2429878, -758103.8, 16836.857, 0.062582165, 10.000575, 9.99811 
2.2552104e+3, 2.3092046e+2, -688490.75, -795768.94, -89144.66, 0.13866164, -0.26369107, -638091.75, 38860.273, 0.039919913, 10.000196, 9.998796 
2.2552547e+3, 2.4091892e+2, -722797.5, -772850.75, -72557.34, 0.1544774, -0.24798754, -671071.94, -92106.68, 0.023601582, 9.999369, 9.998655 
2.2553003e+3, 2.509173e+2, -500338.78, -462980.56, -39813.773, 0.09871819, -0.4050679, -437681.88, 43298.152, 0.012405956, 9.999609, 9.99997 
2.2553454e+3, 2.609156e+2, -521611.5, -608791.6, -61566.58, 0.07718638, -0.48346707, -489765.9, -106769.73, 0.005154125, 9.999598, 9.998314 
2.2553943e+3, 2.7091604e+2, -138349.2, -364269.16, 7304.5313, 0.20701946, -0.3020655, -138113.27, 146881.22, 0.0013586987, 10.001548, 9.998361 
2.2554417e+3, 2.809165e+2, 12158.722, -210391.3, -40279.168, 0.2880816, -0.11967891, 19224.488, 206215.66, 0.00015517221, 10.001776, 9.998637 
2.255487e+3, 2.9091418e+2, -171438.25, -232060.77, 38189.13, 0.05320511, -0.22018652, -152993.16, -63983.62, 0.0000026982873, 9.999802, 9.99874 
2.2555336e+3, 3.0091214e+2, -249484.9, -310012.0, 44031.355, -0.11225408, -0.3370746, -226319.61, -226319.61, 0.000065484004, 9.999113, 9.99825 
2.2555833e+3, 3.1091034e+2, 418179.47, 172061.0, 22366.473, 0.28917813, -0.29264218, 420195.56, 420195.56, 0.00034262822, 10.003009, 9.999649 
2.2649461e+3, 1.7088276e+2, -1222962.4, -1068964.5, -175418.95, -0.017873151, -0.11723899, -954389.25, 310924.66, 0.44342524, 9.998757, 10.002964 
2.2649948e+3, 1.808839e+2, -1078075.8, -1249755.5, -13886.32, 0.28337428, -0.2957016, -1076959.8, 90335.53, 0.3585124, 10.001222, 9.998587 
2.2650369e+3, 1.9088122e+2, -1149581.6, -1414507.1, -203925.55, 0.3334907, -0.28012806, -1038873.6, 30453.76, 0.29413474, 10.000636, 9.996999 
2.2650786e+3, 2.0087871e+2, -983184.2, -1200631.1, -185435.2, 0.25362805, -0.27382466, -876949.5, 94409.27, 0.24160613, 10.000716, 9.9978695 
2.2651216e+3, 2.1087722e+2, -869894.4, -1057885.0, -149115.8, 0.097675286, -0.23766933, -787621.0, 85756.266, 0.1940874, 10.000665, 9.998167 
2.2651656e+3, 2.2087567e+2, -749611.7, -959552.94, -99201.31, 0.020056894, -0.18471244, -710153.4, 65241.535, 0.14888066, 10.000812, 9.998087 
2.2652104e+3, 2.308743e+2, -697216.06, -809846.0, -158629.58, 0.14682645, -0.18812056, -585201.8, 92204.77, 0.108788945, 10.000216, 9.99872 
2.2652552e+3, 2.4087232e+2, -638817.3, -743586.7, -74057.63, 0.25324878, -0.21119949, -600489.9, -21065.934, 0.07581198, 9.999894, 9.99864 
2.265301e+3, 2.5087044e+2, -403857.22, -481331.8, -49706.574, 0.1964408, -0.35939422, -379576.1, 101865.945, 0.048806984, 10.000468, 9.999503 
2.2653459e+3, 2.6086855e+2, -368302.0, -581233.25, -65481.883, 0.12518966, -0.39180744, -349776.4, 33683.836, 0.026684597, 10.000766, 9.997973 
2.2653951e+3, 2.7086797e+2, -115023.98, -327713.8, 13133.503, 0.15987247, -0.3220255, -114216.055, 171250.52, 0.010897145, 10.001522, 9.998665 
2.2654426e+3, 2.808675e+2, -131877.98, -300659.38, -78656.055, 0.269121, -0.24928574, -100905.93, 86565.29, 0.002788968, 10.000847, 9.998483 
2.2654897e+3, 2.9086608e+2, 235483.52, -85725.38, -48378.527, 0.21326014, -0.20686279, 242611.8, 332093.53, 0.0003034348, 10.002823, 9.998294 
2.2655371e+3, 3.00865e+2, 383485.63, -74399.48, -78342.3, 0.09378425, -0.21829426, 396518.72, 396518.72, 0.000074942734, 10.0038185, 9.997601 
2.2655861e+3, 3.108587e+2, 235369.16, -50613.97, -216551.11, 0.32940266, -0.39232975, 351878.97, 351878.97, 0.00045627946, 10.002227, 9.998581 
2.2750762e+3, 2.0083053e+2, -953538.25, -1308552.1, -174297.67, -0.12989873, -0.138168, -882271.4, 89574.03, 0.4526298, 10.001821, 9.996576 
2.2751215e+3, 2.1082915e+2, -666552.3, -800376.06, -75732.17, 0.016682057, -0.19793616, -632407.0, 241449.83, 0.38963944, 10.002236, 9.999425 
2.27517e+3, 2.208291e+2, -851813.4, -1004435.3, -84306.05, 0.34182474, -0.10361842, -814410.4, -38556.31, 0.32267725, 10.000032, 9.998105 
2.275212e+3, 2.3082541e+2, -914597.4, -927374.5, -142185.31, 0.2574574, -0.34841913, -778657.1, -100769.6, 0.25840095, 9.998751, 9.998546 
2.2752552e+3, 2.4082233e+2, -778921.4, -863370.1, -62733.152, 0.1917735, -0.46714914, -745526.0, -165610.0, 0.20062341, 9.9991865, 9.998128 
2.2753023e+3, 2.5082433e+2, -527597.6, -618629.6, -16472.85, 0.24001211, -0.22416295, -524708.5, -42810.008, 0.14660953, 9.999953, 9.998758 
2.2753462e+3, 2.608251e+2, -644699.1, -836636.0, -77276.89, 0.045850314, 0.115742095, -617453.7, -233561.25, 0.09444842, 9.999431, 9.996826 
2.2753955e+3, 2.7082056e+2, -163563.39, -279450.16, 30535.465, 0.03069613, -0.25109947, -156009.83, 129923.96, 0.04983968, 10.000959, 9.999229 
2.275443e+3, 2.8081676e+2, -319343.7, -470814.22, -118740.484, 0.19525032, -0.5250004, -254241.69, -66274.414, 0.019500945, 9.999953, 9.997714 
2.2754939e+3, 2.90817e+2, 48580.61, -349858.97, 36954.887, 0.33520514, -0.22009157, 51979.152, 141941.94, 0.004786881, 10.002339, 9.996684 
2.2755417e+3, 3.0081326e+2, 115161.984, -415497.8, -154429.34, 0.13219936, -0.34768763, 156831.08, 156831.08, 0.0007184054, 10.002977, 9.995623 
2.2755864e+3, 3.1080478e+2, -149549.81, -531658.6, -71653.25, 0.08682, -0.4760397, -136555.27, -136555.27, 0.0007782504, 10.0010395, 9.995763 
2.2852558e+3, 2.4077746e+2, -480325.13, -1033390.7, 190217.7, 0.037477806, -0.47074553, -421219.5, 159131.28, 0.45869297, 10.002943, 9.995696 
2.2853054e+3, 2.507815e+2, -313648.66, -689965.8, -234864.61, 0.38848385, 0.40745568, -200866.98, 281451.44, 0.36361384, 10.0031805, 9.997033 
2.2853494e+3, 2.6076964e+2, -507266.78, -608154.75, -153421.55, 0.36700732, -0.47909626, -396209.16, -11770.746, 0.26167566, 9.999479, 9.998431 
2.285399e+3, 2.7076995e+2, -1472.402, -113691.266, 91693.61, 0.26234448, -0.47872186, 49916.94, 336348.06, 0.1640845, 10.001839, 10.000278 
2.2854416e+3, 2.8077114e+2, -126413.46, -363250.72, -71707.32, 0.018511856, -0.28486887, -106394.7, 82020.09, 0.0825175, 10.001164, 9.997924 
2.2854966e+3, 2.9076913e+2, 446534.47, -98469.81, 331279.22, 0.2682195, -0.25658908, 602988.44, 693417.8, 0.030766618, 10.004809, 9.997328 
2.2855505e+3, 3.0076322e+2, 565266.2, -92995.5, 73202.02, 0.61170435, -0.66771924, 573308.4, 573308.4, 0.009050311, 10.005528, 9.996652 
2.2855823e+3, 3.1076336e+2, -327837.56, -169888.84, 190263.88, -0.25540668, -0.07721601, -42860.063, -42860.063, 0.0039651874, 9.99785, 9.999766 
2.2953968e+3, 2.7072147e+2, -677850.0, -248845.69, -38349.215, -0.15405996, -0.4959508, -245444.58, 41462.598, 0.434636, 9.995914, 10.002085 
2.295437e+3, 2.8073102e+2, -811801.7, -784056.06, -272050.66, -0.6208094, 0.4254765, -525524.75, -336715.25, 0.25417694, 9.996903, 9.997 
2.2954983e+3, 2.9072487e+2, 437743.38, 182367.23, 465844.47, -0.103446774, -0.24548554, 793082.56, 883941.56, 0.12176146, 10.00404, 9.999789 
2.2955629e+3, 3.0071634e+2, -210104.44, -288068.0, -164337.23, 1.1931291, -1.1292989, -80188.9, -80188.9, 0.053959318, 9.999551, 9.99808 
2.2955765e+3, 3.1073084e+2, 123382.9, 966823.44, -206570.45, -0.74346036, 0.43836847, 1014698.06, 1014698.06, 0.031298026, 9.9971485, 10.007988 
2.3055182e+3, 2.9067785e+2, 73445.51, -44673.457, -270890.44, 1.1948286, -0.7112921, 291639.8, 382962.0, 0.360881, 10.001509, 10.000287 
2.305535e+3, 3.006898e+2, -780350.56, -318940.16, -323354.72, -1.8216733, 0.14688902, -152426.05, -152426.05, 0.21404682, 9.994218, 10.000531 
2.3055959e+3, 3.1066677e+2, 288824.3, -796079.44, 131719.47, 0.91756594, -1.057106, 304587.5, 304587.5, 0.16545653, 10.006047, 9.992032 
2.3523413e+3, 2.7795616e+2, -853150.25, -2107194.5, -406989.75, -0.028412083, -0.19481057, -732644.8, -516647.16, 0.44961017, 10.001795, 9.985552 
2.351969e+3, 2.8794307e+2, 1104192.4, 479361.66, 54451.574, -0.2523721, -0.54049826, 1108902.1, 1227042.1, 0.35272983, 10.012021, 10.000233 
2.3516294e+3, 2.979426e+2, -451000.16, 251017.3, 920579.8, -0.06827092, -0.918467, 885236.6, 905367.94, 0.27592477, 9.995003, 10.00574 
2.3512757e+3, 3.079371e+2, -388050.6, -451665.94, -747372.4, -0.7034732, -0.42155063, 328190.7, 328190.7, 0.2217099, 10.00001, 9.997462 
2.3658824e+3, 1.7838717e+2, -1967369.1, -2060036.5, 85450.164, 0.39675966, 0.3592153, -1916499.3, -724686.0, 0.43640915, 9.996313, 9.995291 
2.3655197e+3, 1.8837753e+2, -470537.22, -601634.75, 168483.22, -0.42267928, 0.027208785, -355300.94, 738604.8, 0.3775989, 10.005242, 10.0023 
2.3651713e+3, 1.983758e+2, -1516377.1, -1223157.4, 60545.43, 0.1959908, 0.12747325, -1211147.6, -215240.42, 0.33353588, 9.995909, 9.999859 
2.3648132e+3, 2.0836742e+2, -201863.0, -922349.1, -252409.48, -0.11186185, 0.23809214, -122236.07, 775744.4, 0.30097756, 10.008578, 9.995296 
2.364456e+3, 2.1834552e+2, -1713650.0, -1566553.1, 67216.984, 0.0067215306, -0.97526073, -1540464.8, -740275.9, 0.27814138, 9.99454, 9.996918 
2.3641141e+3, 2.283444e+2, -1143681.4, -1108496.5, 279623.5, 0.55834085, -0.30230004, -845912.56, -143712.78, 0.26103863, 9.997308, 9.997995 
2.3637559e+3, 2.3833877e+2, 403611.7, -321722.6, 221913.67, -0.8253744, -0.123340845, 466118.78, 1070375.4, 0.24561481, 10.009822, 9.997364 
2.3634085e+3, 2.4832904e+2, 457879.38, -473080.5, 7545.6367, 0.46634656, -0.03553082, 457940.53, 964289.6, 0.23008135, 10.010453, 9.994802 
2.3630425e+3, 2.5831366e+2, -1735143.1, -1110829.1, 30433.34, -0.08567403, -0.5001164, -1109349.0, -700854.9, 0.209828, 9.990536, 9.999324 
2.3626809e+3, 2.6831225e+2, -746742.4, 231688.52, -144696.5, -0.47063416, -0.59431994, 252638.56, 563150.3, 0.17456202, 9.99256, 10.007787 
2.3623355e+3, 2.7831408e+2, -345332.72, -489050.16, 136005.17, -0.15005396, -0.24066523, -263369.84, -50867.176, 0.12475033, 9.999627, 9.997808 
2.3619752e+3, 2.883134e+2, 613744.44, 99306.7, -488683.56, -0.075719334, 0.51385146, 908769.4, 1023281.1, 0.081781656, 10.005568, 9.99853 
2.3616177e+3, 2.9831553e+2, -318229.84, 8227.847, 86911.23, -0.35103887, 0.9419348, 29923.896, 46413.383, 0.055158615, 9.997118, 10.001486 
2.3612712e+3, 3.0829325e+2, 80252.3, -167215.75, -109134.47, -0.4437276, -0.38543686, 121504.46, 121504.46, 0.039485745, 10.001898, 9.998072 
2.3765747e+3, 1.5875183e+2, -959351.8, -644879.2, -107236.97, -1.0798236, -0.2187784, -611792.0, 772413.6, 0.40916085, 10.000381, 10.007947 
2.3762374e+3, 1.6873926e+2, -868035.2, -1413628.9, 38175.563, 0.6313828, -0.8544387, -865376.94, 420957.06, 0.31914034, 10.00569, 9.995876 
2.3758791e+3, 1.7873894e+2, -679383.25, -1157561.3, 13714.17, 0.053683627, 0.061975434, -678990.25, 509365.22, 0.25440004, 10.005466, 9.997221 
2.3755215e+3, 1.8873158e+2, -854433.6, -891979.3, -199126.38, 0.21140471, 0.018678334, -673197.1, 417228.7, 0.20803122, 10.0012245, 10.000657 
2.375164e+3, 1.9872382e+2, -1638962.9, -1356786.9, -195480.05, 0.4989256, -0.21882592, -1256797.6, -264302.88, 0.17323056, 9.995257, 9.999401 
2.3748088e+3, 2.0871687e+2, -1181881.5, -1286080.4, 45463.137, 0.21803208, -0.11844944, -1164834.4, -270274.97, 0.14628343, 9.998588, 9.997574 
2.3744535e+3, 2.187095e+2, -178090.05, -625293.7, 72904.664, -0.07553733, -0.04581395, -166505.0, 630123.44, 0.1255341, 10.004943, 9.998556 
2.3741008e+3, 2.2869933e+2, -640250.1, -761185.5, 210614.75, -0.24638397, -0.34281775, -481594.75, 217125.86, 0.10829949, 10.000405, 9.999013 
2.3737468e+3, 2.3868743e+2, -1613602.6, -1237663.9, 121747.53, -0.57886136, -0.77239805, -1201680.3, -600850.06, 0.09199208, 9.993196, 9.998481 
2.3733892e+3, 2.4868296e+2, -757479.56, -727862.6, -35114.24, -0.6840613, -0.47206905, -704562.06, -201681.81, 0.07586676, 9.998181, 9.998928 
2.3730347e+3, 2.5867954e+2, 291417.6, -281616.16, 110759.05, -0.5780592, 0.04466113, 312080.6, 717002.0, 0.059159193, 10.0056505, 9.99772 
2.3726793e+3, 2.6867175e+2, 726905.4, 398235.03, -70963.49, -0.3942116, -0.16022268, 741572.6, 1048562.75, 0.040411934, 10.006013, 10.001724 
2.3723298e+3, 2.786619e+2, -159272.13, -545804.94, 97602.41, -0.20685932, -0.55259746, -136024.94, 73053.07, 0.02171765, 10.001724, 9.996308 
2.3719707e+3, 2.8865516e+2, -205228.86, -697054.75, -447807.2, -0.18330611, -0.1020101, 59744.145, 170896.22, 0.009488271, 10.001606, 9.994572 
2.3716146e+3, 2.986509e+2, -36249.063, -76972.69, -61124.113, -0.099872984, 0.2304744, 7815.522, 21020.107, 0.0043429043, 10.000257, 9.999122 
2.3712713e+3, 3.0863622e+2, 291888.9, 216859.33, -106529.22, -0.053132247, -0.44680446, 367315.84, 367315.84, 0.002573521, 10.001943, 10.000329 
2.3869367e+3, 1.4910385e+2, -1485469.1, -1206223.3, 127769.57, 0.24440838, -0.54167944, -1156585.5, 322199.1, 0.38967916, 9.997971, 10.003555 
2.386579e+3, 1.5910912e+2, -1405689.5, -1257754.9, -60394.89, -0.05463423, 0.20654547, -1236230.4, 144490.08, 0.2783623, 9.998663, 10.001456 
2.3862249e+3, 1.6910194e+2, -1464443.6, -1362945.1, 137205.6, -0.21807222, 0.0849182, -1267404.0, 15387.818, 0.19862524, 9.99841, 9.999754 
2.3858693e+3, 1.7909242e+2, -1451453.0, -1459310.8, 48702.777, -0.5354598, -0.24878697, -1406520.9, -221631.69, 0.1461588, 9.998404, 9.998471 
2.3855083e+3, 1.8908364e+2, -962248.9, -1181998.6, -151117.64, -0.62858015, -0.3170101, -885284.2, 201689.03, 0.11113541, 10.0013485, 9.9982815 
2.3851487e+3, 1.99075e+2, -481293.94, -927955.1, -50882.723, -0.4537843, -0.4250808, -475570.8, 513483.78, 0.08556882, 10.00421, 9.9980545 
2.3848005e+3, 2.0907032e+2, -611634.1, -905244.94, 216531.06, -0.10683462, -0.11200573, -496833.84, 394265.47, 0.065839775, 10.002303, 9.99841 
2.3844531e+3, 2.190659e+2, -835484.25, -962033.56, 72630.83, 0.15810181, 0.18726963, -802431.75, -9290.283, 0.050802168, 9.999896, 9.998495 
2.3841023e+3, 2.2905642e+2, -672826.9, -675516.7, -37363.88, 0.44860646, -0.10701672, -636783.7, 58442.094, 0.038884565, 9.999743, 9.999831 
2.3837513e+3, 2.3904555e+2, -788929.06, -850126.44, -54636.3, 0.7748939, -0.5071276, -756906.6, -159583.63, 0.028499383, 9.998986, 9.998352 
2.3833923e+3, 2.490409e+2, -597204.2, -605666.6, 28736.34, 0.34110603, -0.2655213, -572389.2, -73013.08, 0.019239577, 9.999217, 9.999214 
2.3830362e+3, 2.5903574e+2, -715499.1, -874727.25, 101510.91, -0.18147497, 0.029280148, -666106.0, -264669.5, 0.011432521, 9.998947, 9.996802 
2.3826799e+3, 2.6902586e+2, 105487.81, -122276.49, -144700.28, -0.19148298, -0.21523197, 175745.06, 479264.34, 0.005416997, 10.002604, 9.999519 
2.3823261e+3, 2.7901366e+2, -5991.6016, -548666.94, -14446.48, -0.23003614, -0.7329054, -5607.296, 200014.25, 0.001679893, 10.003115, 9.995627 
2.3819655e+3, 2.8900048e+2, 20788.748, -776911.75, -274606.72, -0.35383338, -0.78173226, 106180.56, 213941.95, 0.00032890253, 10.003946, 9.9929285 
2.3816116e+3, 2.989934e+2, -178790.55, -475525.78, 160217.1, 0.028966961, -0.46085966, -108795.01, -98948.78, 0.000101582686, 10.000606, 9.996308 
2.3812698e+3, 3.089859e+2, -178599.45, 116760.87, 258363.84, 0.1256705, -0.3805788, 266673.22, 266673.22, 0.00014343517, 9.99809, 10.001554 
2.3972891e+3, 1.3946918e+2, -1711472.1, -1783416.4, 234159.84, 0.8693745, -0.28440148, -1510537.5, 62660.92, 0.42782384, 9.999508, 9.99839 
2.3969233e+3, 1.4947072e+2, -1681008.0, -1556615.8, 22581.148, -0.37165385, 0.48617762, -1552643.5, -77456.34, 0.2998544, 9.9981365, 9.999943 
2.3965642e+3, 1.5945658e+2, -1389530.4, -1340795.1, -31612.734, -0.86768043, -0.3185952, -1325248.5, 52080.793, 0.19614406, 9.999226, 10.000397 
2.3962176e+3, 1.6945615e+2, -1170194.6, -940174.94, 61996.99, -0.26008877, 0.04049107, -924529.1, 354802.28, 0.12585048, 9.999035, 10.002746 
2.3958713e+3, 1.7945646e+2, -1292663.0, -1226803.0, 55243.227, 0.39739063, 0.45347348, -1195419.8, -14093.852, 0.083471425, 9.998765, 9.999922 
2.395511e+3, 1.8944566e+2, -919009.75, -1260025.3, -55654.32, 0.09376334, 0.18462518, -910156.7, 173272.2, 0.057587944, 10.001956, 9.99744 
2.3951489e+3, 1.9943306e+2, -397747.16, -996391.1, 3339.8167, -0.30723566, -0.20954622, -397728.53, 587821.1, 0.03970386, 10.005056, 9.997132 
2.3947974e+3, 2.0942427e+2, -565715.8, -988011.06, 95601.77, -0.11704044, -0.2141749, -545081.1, 342553.53, 0.026570952, 10.003007, 9.997446 
2.3944473e+3, 2.1941644e+2, -834240.2, -1040014.5, 44695.387, 0.13487305, -0.13380086, -824951.4, -35240.684, 0.017417854, 10.000259, 9.997772 
2.3940933e+3, 2.294105e+2, -560351.44, -693259.56, -22769.152, 0.11029796, -0.0061827805, -556558.94, 135209.6, 0.011141793, 10.000826, 9.999185 
2.3937392e+3, 2.3940344e+2, -339250.78, -616982.9, -46096.754, 0.052523807, 0.03677804, -331799.75, 262036.48, 0.0065593217, 10.002025, 9.998457 
2.3933831e+3, 2.493948e+2, -292435.28, -387454.6, -50945.65, -0.052337825, -0.170418, -270284.13, 225634.0, 0.0032030866, 10.001021, 9.999819 
2.3930293e+3, 2.5938594e+2, -644772.8, -735083.9, 131360.73, -0.16059977, -0.32810324, -551023.1, -153020.72, 0.0011282732, 9.998999, 9.997694 
2.3926768e+3, 2.693797e+2, -99052.055, -284226.3, 53448.54, -0.100849986, -0.18044649, -84732.11, 215324.95, 0.00023273825, 10.001504, 9.9988985 
2.392325e+3, 2.793723e+2, 178174.94, -214625.89, 57763.676, -0.11695048, -0.20458946, 186493.27, 388614.84, 0.000018051116, 10.003342, 9.997759 
2.3919636e+3, 2.893589e+2, 175858.34, -354218.28, -149556.72, -0.32324633, -0.56507546, 215143.08, 319395.5, 0.000004039042, 10.003505, 9.996014 
2.3916072e+3, 2.9935127e+2, 125785.38, -350197.22, 241752.88, -0.029649261, -0.42901853, 227034.88, 233364.22, 0.00001362104, 10.002706, 9.9961605 
2.3912595e+3, 3.0934167e+2, -218148.36, -84066.266, 104974.32, -0.084633745, -0.26822698, -26551.662, -26551.662, 0.00005414364, 9.998581, 9.999971 
2.4076334e+3, 1.2981443e+2, -1069888.4, -766114.56, 79071.69, 0.08253522, -0.7515264, -746764.94, 921060.94, 0.4904351, 10.002814, 10.01015 
2.40727e+3, 1.398321e+2, -1754527.9, -1287142.6, -39663.14, -0.23237208, 0.67500347, -1283800.6, 285837.94, 0.36336103, 9.996081, 10.004543 
2.4069153e+3, 1.4982387e+2, -1772279.1, -1686867.6, 108057.06, -0.37135065, 0.37866667, -1613383.4, -141656.38, 0.24041095, 9.998024, 9.999003 
2.4065611e+3, 1.598114e+2, -1263562.6, -1302229.9, 39672.316, -0.576918, -0.19719513, -1238763.8, 135094.94, 0.14389461, 10.000447, 9.999988 
2.4062121e+3, 1.6980958e+2, -1060241.0, -901524.7, -8166.842, -0.16251533, 0.05691521, -901105.56, 374766.25, 0.08188297, 10.000026, 10.00241 
2.4058643e+3, 1.7980869e+2, -1271674.6, -1226252.6, -157438.52, 0.4104994, 0.37686643, -1089895.5, 87978.984, 0.047678713, 9.998966, 9.999868 
2.4055073e+3, 1.8979982e+2, -1172272.4, -1319307.3, -156103.39, 0.2557521, 0.23556907, -1073241.0, 6719.7563, 0.028905774, 9.999926, 9.997989 
2.4051484e+3, 1.9978935e+2, -988396.25, -1284201.3, -88840.09, -0.053413235, 0.00012313902, -963765.56, 18297.67, 0.017015342, 10.000866, 9.99717 
2.4047944e+3, 2.0977968e+2, -691088.06, -1025107.0, 23294.826, -0.05790858, -0.11401793, -689471.25, 194685.16, 0.00915297, 10.0020485, 9.997645 
2.4044417e+3, 2.1977034e+2, -575792.1, -959226.94, 37911.656, 0.056350324, -0.18578719, -572079.6, 214167.31, 0.0045936005, 10.002307, 9.997339 
2.4040861e+3, 2.297651e+2, -579590.25, -773450.25, 50005.594, -0.086092554, 0.06531271, -567451.5, 120850.52, 0.0022051786, 10.001017, 9.998534 
2.4037308e+3, 2.3975894e+2, -754753.56, -852843.9, 23130.951, -0.27346107, 0.24588811, -749572.6, -159207.17, 0.0009056362, 9.999339, 9.99814 
2.4033758e+3, 2.497496e+2, -266678.44, -298083.78, -42019.477, -0.2531991, -0.07015491, -237523.44, 254924.94, 0.00023937336, 10.000968, 10.000403 
2.4030232e+3, 2.5973997e+2, -359102.84, -588881.2, 84046.836, -0.16258834, -0.3914466, -331642.47, 62890.973, 0.000025130046, 10.000952, 9.997769 
2.4026723e+3, 2.6973513e+2, -232656.7, -404076.66, 81932.93, -0.070469156, -0.061938655, -199795.16, 96785.11, 0.00000030344088, 10.000891, 9.998349 
2.4023218e+3, 2.7973047e+2, -373256.38, -352217.22, -25483.121, -0.043248788, 0.15638861, -335167.78, -136542.53, 0.000000006555133, 9.999006, 9.998933 
2.4019617e+3, 2.8971887e+2, 155949.53, -33387.613, -196386.0, -0.1946456, -0.30220136, 279293.78, 380023.72, 0.00000087941476, 10.001994, 9.998936 
2.4016033e+3, 2.9971007e+2, -27491.205, -550755.9, 64960.89, -0.1769824, -0.42376634, -19547.213, -16739.135, 0.0000072209577, 10.002246, 9.995006 
2.4012503e+3, 3.0970082e+2, -217374.16, -296553.53, 98454.64, -0.40981916, -0.086529054, -150847.58, -150847.58, 0.00003484927, 9.999577, 9.997958 
2.4176297e+3, 1.3019004e+2, -1522379.0, -1330290.5, -184795.47, 0.12007358, 0.6109359, -1218070.8, 446080.53, 0.44509998, 9.999515, 10.003893 
2.4172579e+3, 1.4017664e+2, -1821293.9, -1605699.1, -110587.375, -0.51909256, -0.45419025, -1559062.5, 7200.989, 0.31930807, 9.997539, 10.000603 
2.4169104e+3, 1.5017466e+2, -1649896.5, -1645524.4, 195064.75, -0.118781835, 0.012125874, -1452633.5, 15657.582, 0.20041417, 9.998939, 9.998876 
2.416564e+3, 1.6017169e+2, -1335137.1, -1442402.9, 74391.9, 0.20200925, 0.42264876, -1297060.4, 73269.45, 0.110025235, 10.000377, 9.998978 
2.4162066e+3, 1.7016146e+2, -1181776.0, -1190466.8, -60166.883, -0.13147265, 0.018910779, -1125797.8, 146625.27, 0.054970514, 10.000196, 10.000127 
2.4158494e+3, 1.8015149e+2, -1246304.5, -1269804.3, -141655.61, -0.4117889, -0.37504247, -1115912.4, 58600.727, 0.027314784, 9.999378, 9.9993515 
2.4154976e+3, 1.9014753e+2, -1024019.5, -1097693.8, -112414.1, -0.10420431, -0.111330114, -942560.8, 133994.39, 0.013986388, 10.000278, 9.999355 
2.4151458e+3, 2.0014332e+2, -820602.5, -1042266.44, -25757.494, 0.14305763, 0.15534468, -817648.9, 160951.44, 0.006556314, 10.001296, 9.99863 
2.4147914e+3, 2.1013579e+2, -527715.8, -805633.75, 53953.67, 0.022594495, 0.11922704, -517609.03, 363062.9, 0.002469395, 10.002543, 9.998933 
2.4144371e+3, 2.2012743e+2, -367749.03, -776123.2, 42857.42, -0.106974624, 0.04541747, -363299.78, 419451.7, 0.00078321603, 10.00332, 9.998123 
2.4140823e+3, 2.3011969e+2, -511552.5, -751070.3, -17928.488, -0.0023896443, 0.032848738, -510217.94, 174611.45, 0.00023610769, 10.00149, 9.998465 
2.4137278e+3, 2.4011175e+2, -710623.25, -825424.2, 60153.918, 0.048876088, 0.040617548, -684877.44, -97968.56, 0.000047296035, 9.999578, 9.99821 
2.4133722e+3, 2.5010484e+2, -326989.5, -411798.38, 47798.77, -0.09452588, 0.03038984, -305496.7, 183473.86, 0.0000020598873, 10.000907, 9.999666 
2.4130188e+3, 2.6009747e+2, -217278.1, -498043.66, 84791.95, -0.20435472, -0.0076142065, -193657.83, 197378.58, 0.0, 10.001811, 9.997962 
2.412668e+3, 2.7008915e+2, -374335.2, -534150.44, 23592.375, 0.023580527, 0.006260389, -370925.16, -77807.125, 0.0, 10.000218, 9.997763 
2.4123167e+3, 2.8008127e+2, -425021.1, -360268.6, -30827.494, 0.17407732, -0.02770079, -347939.63, -152744.7, 0.0, 9.998499, 9.999141 
2.4119587e+3, 2.9007247e+2, 160180.97, 31241.059, -161482.88, -0.038882513, -0.2566556, 269587.66, 366862.4, 0.0000001537889, 10.001648, 9.999613 
2.4116018e+3, 3.0006605e+2, 495923.78, -106114.43, -55550.844, -0.18029487, -0.1960895, 501006.6, 501006.6, 0.000003139397, 10.004879, 9.996817 
2.4112456e+3, 3.1005552e+2, 345706.0, 179683.58, -54613.805, -0.40428796, -0.20965749, 362060.4, 362060.4, 0.000017281642, 10.002347, 9.999966 
2.427621e+3, 1.3054548e+2, -2057821.4, -1743090.6, -305225.7, 0.18215597, 0.5701279, -1557051.6, 103619.47, 0.4141129, 9.996429, 10.001112 
2.4272557e+3, 1.4053082e+2, -1287603.9, -1480460.4, -125169.43, -0.18332462, -0.3922048, -1226026.5, 336777.44, 0.28877336, 10.002582, 9.999243 
2.4269062e+3, 1.505281e+2, -1378321.8, -1481452.3, 100586.01, 0.036378194, 0.0022216865, -1316853.8, 147978.13, 0.17287979, 10.000741, 9.999213 
2.4265577e+3, 1.6052534e+2, -1630364.9, -1618044.6, 41822.047, 0.2587428, 0.41684136, -1581931.5, -215069.98, 0.08747846, 9.998323, 9.998806 
2.4262005e+3, 1.7051452e+2, -1382591.5, -1351270.9, 7657.1855, -0.07318024, -0.0027413927, -1349499.1, -80537.266, 0.038149297, 9.9990225, 9.999575 
2.4258433e+3, 1.8050373e+2, -1216850.5, -1283017.4, 499.0279, -0.37571856, -0.418457, -1216846.6, -45784.176, 0.01570925, 9.999691, 9.999108 
2.4254917e+3, 1.9050005e+2, -1031627.2, -1074664.1, 395.77658, -0.10306613, -0.13986768, -1031623.56, 41479.11, 0.0064830934, 10.000089, 9.999601 
2.4251409e+3, 2.0049663e+2, -1021141.94, -1124572.6, 3162.599, 0.2122885, 0.1853736, -1021045.3, -45904.836, 0.0021827125, 9.999879, 9.998743 
2.4247867e+3, 2.104895e+2, -880585.6, -930958.75, 29620.209, 0.024343964, 0.15272003, -866891.3, 10316.526, 0.00044835047, 9.999963, 9.999293 
2.4244322e+3, 2.2048174e+2, -874082.94, -964601.5, -70007.99, -0.15436576, 0.074841544, -835978.44, -56697.36, 0.000068581576, 9.999672, 9.998577 
2.4240771e+3, 2.3047449e+2, -610594.9, -701393.75, -100749.45, 0.00089987897, 0.035139494, -545488.4, 135863.73, 0.0000096515805, 10.000528, 9.999224 
2.4237229e+3, 2.4046682e+2, -622351.9, -821130.94, 49475.63, 0.18139063, 0.0036162254, -610718.3, -27291.0, 0.00000040342232, 10.000433, 9.997823 
2.4233681e+3, 2.5045976e+2, -352931.84, -539788.2, 87632.13, -0.012127128, 0.05942221, -318265.47, 167226.66, 0.0, 10.001263, 9.998605 
2.4230146e+3, 2.6045236e+2, -421658.6, -692313.0, 19270.646, -0.17859338, 0.09721782, -420293.4, -32732.582, 0.0, 10.000859, 9.997109 
2.4226633e+3, 2.7044272e+2, -223968.44, -498863.3, -43586.984, 0.10614294, 0.0011630901, -217222.86, 72435.19, 0.0, 10.001461, 9.997374 
2.4223115e+3, 2.8043324e+2, -285757.5, -446227.6, -50224.543, 0.34204257, -0.13227232, -271334.4, -79581.66, 0.0, 10.000149, 9.997771 
2.4219538e+3, 2.9042566e+2, -155036.77, -162705.77, -78184.01, -0.03619225, -0.1584037, -80593.29, 13230.007, 0.0000000009564638, 9.9997635, 9.99914 
2.4215984e+3, 3.004197e+2, -464827.44, -437779.78, -24905.264, -0.2585322, -0.09190277, -422963.44, -422963.44, 0.0000004799063, 9.997811, 9.997943 
2.42124e+3, 3.1041116e+2, 380123.5, 353466.94, -361362.88, -0.6830125, -0.21786246, 728403.8, 728403.8, 0.0000055147566, 10.001968, 10.001337 
2.4376099e+3, 1.308985e+2, -2060466.3, -1954056.0, -76341.16, -0.055026315, 0.48415083, -1914208.8, -256994.55, 0.39271495, 9.997398, 9.998822 
2.437257e+3, 1.4088847e+2, -1342311.1, -1526004.3, -42103.297, 0.2739356, 0.17562127, -1333120.8, 226193.73, 0.26710206, 10.002135, 9.998983 
2.4369009e+3, 1.5088125e+2, -1294606.6, -1343231.3, 9572.897, 0.013132279, 0.048239805, -1292789.9, 168586.27, 0.15331793, 10.000915, 10.000174 
2.4365456e+3, 1.6087474e+2, -1520115.1, -1487133.6, 36448.074, -0.21346757, 0.0075342013, -1463619.3, -100187.57, 0.07196278, 9.998763, 9.999496 
2.4361946e+3, 1.7086911e+2, -1291749.1, -1264893.4, 43059.43, 0.024208406, 0.06318968, -1233216.6, 32269.027, 0.027363949, 9.999458, 9.999972 
2.435843e+3, 1.808629e+2, -1188641.8, -1280428.9, 25508.898, 0.19131523, 0.084386125, -1182028.9, -14482.602, 0.009079448, 9.99996, 9.998975 
2.4354881e+3, 1.9085605e+2, -1048965.0, -1150647.9, -1110.4008, 0.12491979, 0.102551684, -1048952.9, 20662.639, 0.002868925, 10.000279, 9.998979 
2.4351336e+3, 2.0084883e+2, -988381.94, -1149058.9, 12712.379, 0.03713015, 0.11379353, -987382.4, -15694.573, 0.00059867656, 10.000258, 9.998395 
2.4347799e+3, 2.1084036e+2, -884085.3, -988920.5, 22600.072, -0.06988797, -0.0045253597, -879420.8, -5652.446, 0.000045539302, 10.000143, 9.998825 
2.4344258e+3, 2.208326e+2, -749872.06, -787959.0, -49430.47, -0.18116003, -0.07149268, -715943.6, 59898.055, 0.0000022398012, 9.9999895, 9.999628 
2.4340701e+3, 2.3082891e+2, -452003.72, -431315.3, -64508.117, -0.15320635, 0.08973162, -376327.28, 301547.7, 0.000000052409952, 10.000773, 10.000965 
2.4337156e+3, 2.408238e+2, -447901.16, -679678.9, 87750.01, -0.1039845, 0.18788862, -418427.4, 161494.55, 0.0, 10.001353, 9.99835 
2.433363e+3, 2.5081214e+2, -426042.97, -721752.1, 93988.805, -0.073015064, -0.11961406, -398698.03, 83333.19, 0.0, 10.00135, 9.997337 
2.433011e+3, 2.608012e+2, -379031.97, -692320.75, 35970.934, -0.0698623, -0.325448, -374954.97, 9181.029, 0.0, 10.001171, 9.996961 
2.4326591e+3, 2.7079532e+2, -141380.75, -494714.47, -28956.277, 0.08538621, -0.021864893, -139023.47, 147179.8, 0.0, 10.002073, 9.997156 
2.4323064e+3, 2.807892e+2, 88811.45, -220485.81, -93939.734, 0.20769694, 0.21056932, 115107.22, 303378.13, 0.0, 10.002413, 9.99825 
2.4319458e+3, 2.9078004e+2, -76891.54, -97491.98, -127881.42, -0.20290004, -0.0022566782, 41103.813, 131459.47, 0.0, 10.000066, 9.999492 
2.4315889e+3, 3.0077183e+2, -341757.63, -321957.56, 107794.414, -0.45147935, -0.17648433, -223609.52, -223609.52, 0.000000008678429, 9.998303, 9.998518 
2.4312422e+3, 3.107672e+2, 513222.0, 223319.1, -330916.84, -0.16164139, 0.18164615, 729541.75, 729541.75, 0.0000009202062, 10.00345, 9.999857 
2.4479558e+3, 1.2125094e+2, -1840595.3, -1760992.0, 188706.81, 0.22439222, -0.337998, -1607935.1, 143804.31, 0.4945417, 9.999054, 10.000618 
2.4476035e+3, 1.3125257e+2, -1880676.3, -1851499.5, 69564.42, 0.105924115, 0.45782924, -1795010.3, -141271.89, 0.3775347, 9.998646, 9.998955 
2.4472524e+3, 1.4124379e+2, -1516831.4, -1577639.0, 72551.23, 0.3193457, 0.2684494, -1468570.9, 87261.375, 0.25111946, 10.00028, 9.999516 
2.4468952e+3, 1.5123573e+2, -1265782.4, -1309043.1, 56039.64, -0.031146923, 0.03404696, -1227343.5, 230556.98, 0.13882844, 10.001002, 10.0004015 
2.4465388e+3, 1.6122812e+2, -1229683.9, -1372571.9, 57546.92, -0.2699806, -0.11115505, -1209389.6, 150575.95, 0.060861234, 10.000969, 9.999215 
2.446188e+3, 1.7122318e+2, -1168893.9, -1266541.6, 36841.344, -0.028282117, 0.0630193, -1156553.6, 105462.16, 0.02025213, 10.000672, 9.999325 
2.4458371e+3, 1.812178e+2, -1194704.1, -1342850.3, -33318.05, 0.21445599, 0.2279846, -1187555.8, -23485.068, 0.0052852775, 10.000199, 9.998422 
2.4454826e+3, 1.9121014e+2, -1049229.3, -1199265.8, -40806.605, 0.14482044, 0.19510473, -1038848.9, 27297.969, 0.0012089658, 10.000499, 9.998543 
2.445128e+3, 2.0120174e+2, -970157.8, -1153563.1, -15304.69, 0.063026495, 0.11908243, -968889.44, -660.6585, 0.00012403581, 10.000481, 9.998252 
2.4447739e+3, 2.1119235e+2, -838940.56, -950998.2, 30706.637, -0.06083828, -0.116520375, -831077.9, 39238.168, 0.000001917801, 10.000418, 9.9989195 
2.4444199e+3, 2.2118416e+2, -770420.1, -817554.6, -14847.291, -0.14250495, -0.23701072, -766133.2, 6258.677, 0.000000018702426, 9.99996, 9.999425 
2.4440642e+3, 2.3118182e+2, -365434.47, -377720.28, -112764.766, -0.20571606, 0.043814104, -258645.42, 415766.7, 0.0, 10.001315, 10.001056 
2.44371e+3, 2.4117754e+2, -448586.0, -752616.0, -74898.08, -0.20228373, 0.2088007, -431136.3, 145314.34, 0.0, 10.001708, 9.997671 
2.4433589e+3, 2.5116435e+2, -364406.38, -753095.5, -33438.313, -0.056030277, -0.21479231, -361550.72, 117025.234, 0.0, 10.002132, 9.9967 
2.4430075e+3, 2.611522e+2, -419090.78, -784105.75, -38634.637, 0.053282127, -0.4978428, -415046.34, -34352.566, 0.0, 10.001272, 9.996278 
2.4426538e+3, 2.7114818e+2, -363967.5, -599761.44, -35007.09, 0.0016176342, -0.0043218853, -358879.94, -76133.9, 0.0, 10.000586, 9.99714 
2.4422996e+3, 2.811436e+2, -363180.28, -452550.88, -117959.04, -0.013477587, 0.3768155, -281726.34, -96925.45, 0.0, 9.999432, 9.998108 
2.4419397e+3, 2.9113403e+2, 183758.42, 54645.848, -211665.94, -0.25649962, 0.07529539, 340493.75, 427384.06, 0.0, 10.001806, 9.999678 
2.4415822e+3, 3.0112523e+2, -131803.27, -310085.22, 88721.914, -0.5107363, -0.15787953, -95175.836, -95175.836, 0.0, 10.000203, 9.997703 
2.4412407e+3, 3.1111938e+2, -262178.13, -193730.83, 103468.98, 0.0065754084, 0.07160567, -118972.42, -118972.42, 0.00000009984614, 9.998624, 9.999184 
2.4579482e+3, 1.216017e+2, -1897519.0, -1975025.6, -196876.34, 0.08426784, -0.540685, -1735618.1, 12671.956, 0.48539782, 9.999411, 9.998454 
2.4575992e+3, 1.3160542e+2, -1664864.5, -1575072.6, 99030.84, 0.37661773, 0.35169896, -1511236.1, 139035.69, 0.36593348, 9.999378, 10.000875 
2.4572444e+3, 1.4159843e+2, -1509594.3, -1531370.9, 105125.06, 0.02839146, 0.20018554, -1414795.1, 137554.72, 0.23856215, 10.000184, 9.9999275 
2.4568895e+3, 1.5159126e+2, -1290825.3, -1334501.3, 60206.332, -0.11888424, 0.059538223, -1248618.8, 205793.48, 0.1275105, 10.000864, 10.000233 
2.456535e+3, 1.615837e+2, -1293350.4, -1495685.4, 50617.89, -0.20992452, -0.04376354, -1281393.9, 75085.97, 0.052560914, 10.000921, 9.998364 
2.4561805e+3, 1.715762e+2, -1229286.9, -1444490.0, 22287.502, -0.26967126, -0.0036843037, -1227002.9, 31553.758, 0.01541553, 10.000875, 9.998003 
2.4558268e+3, 1.8156886e+2, -1190727.6, -1397763.0, -22496.906, -0.27290222, 0.07691401, -1188311.3, -27679.22, 0.0031067657, 10.000465, 9.997914 
2.4554756e+3, 1.915624e+2, -1023154.1, -1195016.4, -21795.695, -0.015413509, 0.18658252, -1020433.06, 42262.887, 0.00048131414, 10.000707, 9.998473 
2.4551238e+3, 2.0155488e+2, -890446.3, -1042252.8, -2758.5562, 0.15140335, 0.18684626, -890396.25, 74371.29, 0.000015932997, 10.000702, 9.998892 
2.4547693e+3, 2.1154468e+2, -762764.94, -834352.8, 18440.277, 0.008767904, -0.19472037, -758294.1, 108563.57, 0.0000000054715246, 10.00059, 9.9996395 
2.4544148e+3, 2.2153558e+2, -706636.25, -840542.2, 6645.627, -0.12620099, -0.42693946, -706307.25, 62631.93, 0.0, 10.000587, 9.998976 
2.4540608e+3, 2.3153143e+2, -446346.75, -623449.6, -81970.375, -0.11657941, -0.16581473, -414231.3, 256749.52, 0.0, 10.001587, 9.999277 
2.4537075e+3, 2.4152622e+2, -370953.88, -732619.6, -79097.06, -0.07746466, 0.047497116, -354411.78, 218621.31, 0.0, 10.002243, 9.997567 
2.4533564e+3, 2.5151625e+2, -277833.22, -666183.06, -52387.496, 0.0747113, -0.076263085, -270890.38, 204240.34, 0.0, 10.002478, 9.997168 
2.4530044e+3, 2.6150647e+2, -204241.47, -548588.9, -109291.02, 0.12093301, -0.1815076, -172483.05, 204744.84, 0.0, 10.002091, 9.997521 
2.4526468e+3, 2.7149892e+2, -362734.44, -508708.72, -127118.336, -0.12052764, -0.13223782, -289139.9, -9832.222, 0.0, 10.000121, 9.998032 
2.4522908e+3, 2.8149208e+2, -371474.47, -478659.88, -73329.27, -0.23817264, -0.021874612, -334241.2, -152860.38, 0.0, 9.999374, 9.9979725 
2.4519387e+3, 2.9148582e+2, 288523.97, -65648.96, -136658.66, -0.04123102, 0.12657434, 335123.0, 418567.72, 0.0, 10.003149, 9.998247 
2.4515857e+3, 3.0147877e+2, 609288.0, 129580.16, -125933.25, 0.0042603253, 0.16553132, 640338.3, 640338.3, 0.0, 10.004764, 9.998552 
2.4512309e+3, 3.1146985e+2, -38525.04, 202566.14, -85289.92, -0.25353003, -0.034688987, 229687.78, 229687.78, 0.000000000000427524, 9.998691, 10.001924 
2.4679404e+3, 1.21959634e+2, -1760397.1, -2013974.4, -132079.61, -0.15516727, -0.23698579, -1704100.0, 40685.645, 0.47722325, 10.000928, 9.997506 
2.4675944e+3, 1.319581e+2, -1541272.1, -1498533.4, 95419.625, 0.50226563, 0.1326267, -1422119.5, 224693.19, 0.3557266, 10.0002575, 10.001195 
2.4672368e+3, 1.4195204e+2, -1687832.9, -1667790.5, 77648.42, -0.05764189, 0.08317657, -1599519.3, -50641.227, 0.22774403, 9.998995, 9.999456 
2.4668838e+3, 1.5194565e+2, -1556562.4, -1550881.9, 4265.422, -0.055029478, 0.09129845, -1548597.6, -97658.91, 0.11809006, 9.999315, 9.999357 
2.466531e+3, 1.6193847e+2, -1477839.9, -1618575.8, -30675.738, -0.006947494, 0.08925028, -1471444.1, -118437.44, 0.04605504, 9.999753, 9.998087 
2.4661756e+3, 1.7192978e+2, -1286373.9, -1478075.0, -261.5789, -0.21105129, 0.0037865222, -1286373.5, -31281.492, 0.012013259, 10.000501, 9.997963 
2.465821e+3, 1.8192144e+2, -1138612.8, -1381705.8, 11905.989, -0.30727878, -0.011015874, -1138031.0, 19143.248, 0.0018483637, 10.0008545, 9.997851 
2.46547e+3, 1.9191457e+2, -955352.2, -1177418.3, 22475.992, -0.04460627, 0.06169072, -953100.1, 106141.234, 0.00018026956, 10.001215, 9.9983635 
2.4651186e+3, 2.0190726e+2, -873639.8, -1084782.9, 18473.316, 0.16863449, 0.10667106, -872035.75, 89275.62, 0.0000007906511, 10.001093, 9.99841 
2.464764e+3, 2.1189812e+2, -702209.44, -861371.5, -37445.305, -0.004020577, -0.12799656, -693839.94, 169554.44, 0.0, 10.001285, 9.999122 
2.4644096e+3, 2.2188914e+2, -706678.6, -936833.7, -76438.96, -0.10702811, -0.29747257, -683604.94, 81871.49, 0.0, 10.001092, 9.998058 
2.4640574e+3, 2.3188245e+2, -441769.0, -706477.4, -70009.45, -0.016535155, -0.22701386, -424393.6, 243148.0, 0.0, 10.002114, 9.99839 
2.4637051e+3, 2.4187598e+2, -445981.72, -763524.25, -39889.5, 0.08192049, -0.08738508, -441047.5, 128558.17, 0.0, 10.001781, 9.997565 
2.4633521e+3, 2.5186896e+2, -498598.75, -674491.9, 35476.547, 0.07814111, 0.0045606312, -491712.9, -20037.283, 0.0, 10.000548, 9.998038 
2.4629985e+3, 2.618609e+2, -612563.1, -747161.4, -4531.829, 0.042265806, 0.018671257, -612410.75, -238654.02, 0.0, 9.999335, 9.997491 
2.4626411e+3, 2.7185062e+2, -82951.234, -351312.9, -77792.555, -0.14055148, -0.22901668, -62031.53, 213829.02, 0.0, 10.001989, 9.998176 
2.4622859e+3, 2.818422e+2, 9429.032, -402374.75, 7675.1353, -0.20062552, -0.25885892, 9572.03, 187518.95, 0.0, 10.002522, 9.996977 
2.4619363e+3, 2.9183805e+2, -42263.105, -362683.63, 43823.07, 0.04730435, 0.20432042, -36377.645, 43616.566, 0.0, 10.001513, 9.996987 
2.4615867e+3, 3.0183038e+2, -418719.4, -539942.5, -120482.01, 0.36698928, 0.34642875, -344461.88, -344461.88, 0.0, 9.998602, 9.99691 
2.4612224e+3, 3.1181878e+2, -196457.73, 220149.47, -257639.89, -0.44117755, -0.108570725, 343159.47, 343159.47, 0.0, 9.997542, 10.002471 
2.4779345e+3, 1.223187e+2, -1877642.6, -2117775.3, -101637.13, -0.26660392, 0.13043927, -1840400.3, -99125.35, 0.4678463, 10.000203, 9.997042 
2.4775887e+3, 1.3231108e+2, -1575696.5, -1557456.9, 44380.332, 0.4814, -0.054598738, -1521269.0, 122083.35, 0.34520847, 10.000251, 10.000489 
2.4772297e+3, 1.4230463e+2, -1744906.1, -1824797.8, 42582.94, -0.11863853, -0.05973641, -1726465.5, -181048.94, 0.21743059, 9.999191, 9.998274 
2.4768782e+3, 1.5229894e+2, -1588001.8, -1687648.6, 20131.322, 0.0282374, 0.13030048, -1584088.4, -136610.36, 0.109704144, 9.999669, 9.998227 
2.4765268e+3, 1.6229232e+2, -1421484.3, -1551421.8, 10729.659, 0.15411513, 0.24743162, -1420604.3, -71059.02, 0.040704507, 9.999997, 9.998419 
2.4761723e+3, 1.7228328e+2, -1194591.5, -1336622.3, 27030.092, -0.00063954166, 0.052539032, -1189621.3, 62006.375, 0.00953522, 10.000716, 9.998837 
2.4758181e+3, 1.8227434e+2, -1080596.5, -1302814.6, 27239.412, -0.13146056, -0.08531291, -1077306.1, 76404.125, 0.0011160366, 10.001035, 9.998305 
2.4754655e+3, 1.9226612e+2, -924849.94, -1152058.4, 32021.492, -0.03179929, -0.15747333, -920423.25, 135365.75, 0.00006263998, 10.001378, 9.998462 
2.4751125e+3, 2.0225868e+2, -900374.4, -1193553.9, 30489.646, 0.0039993953, -0.092640035, -897237.1, 60625.453, 0.0000000031066179, 10.001323, 9.997549 
2.474758e+3, 2.1225275e+2, -763944.0, -1069742.6, -29079.215, -0.13208006, 0.14688616, -761203.3, 98723.67, 0.0, 10.001598, 9.997569 
2.4744046e+3, 2.222452e+2, -592828.75, -864461.44, -48429.668, -0.19372515, 0.22872975, -584452.5, 177550.19, 0.0, 10.001752, 9.998251 
2.4740544e+3, 2.3223484e+2, -354909.6, -615427.2, -36153.88, 0.05228454, -0.10284517, -349985.34, 314111.03, 0.0, 10.002454, 9.998882 
2.4737021e+3, 2.4222621e+2, -196848.63, -414653.2, -75345.125, 0.14080065, -0.2675291, -173325.11, 392849.1, 0.0, 10.0024395, 9.9996605 
2.4733438e+3, 2.5222194e+2, -363008.66, -366835.4, -18117.32, -0.19357868, -0.11294128, -346703.97, 121509.414, 0.0, 10.000388, 10.000256 
2.4729882e+3, 2.6221615e+2, -549502.56, -723468.56, 115356.43, -0.34474263, 0.008069869, -492010.13, -121739.62, 0.0, 9.999712, 9.99748 
2.4726401e+3, 2.7220643e+2, 23944.865, -464502.97, 84395.07, 0.06277215, -0.054585572, 38115.703, 310489.4, 0.0, 10.003354, 9.996774 
2.472289e+3, 2.8219792e+2, 435888.25, -140362.92, -50261.652, 0.25179145, 0.0011494294, 440239.3, 614702.56, 0.0, 10.005137, 9.9975195 
2.4719302e+3, 2.9219133e+2, -7982.0464, -282330.66, -70516.08, -0.09225315, 0.15692115, 9081.478, 85612.8, 0.0, 10.001331, 9.997701 
2.4715781e+3, 3.0218193e+2, -477334.16, -788310.7, -36729.79, 0.21133989, 0.17268145, -473054.84, -473054.84, 0.0, 9.998967, 9.995084 
2.4712214e+3, 3.1217095e+2, 161706.73, -2271.9768, -195612.52, 0.056820884, 0.15035497, 291817.63, 291817.63, 0.0, 10.001379, 9.999222 
2.4879283e+3, 1.2267168e+2, -2081046.6, -2069183.0, 3325.2932, -0.20880365, 0.10672828, -2068314.5, -330497.84, 0.45571515, 9.998028, 9.998474 
2.4875823e+3, 1.3266294e+2, -1633204.3, -1678052.4, -40680.527, 0.43691438, -0.1332737, -1609176.8, 30727.238, 0.33319858, 10.000137, 9.999471 
2.4872242e+3, 1.4265692e+2, -1515662.4, -1697434.9, -49586.906, -0.06943536, -0.038709477, -1503015.3, 38948.586, 0.20679392, 10.000761, 9.998414 
2.4868721e+3, 1.5265138e+2, -1392563.0, -1573604.1, -17415.945, -0.019109387, 0.13690513, -1390902.9, 53121.652, 0.10179194, 10.000932, 9.99845 
2.4865206e+3, 1.626447e+2, -1315091.6, -1485751.9, 4135.7173, 0.11146744, 0.23491834, -1314991.5, 31101.443, 0.036105353, 10.00068, 9.998543 
2.4861676e+3, 1.7263559e+2, -1197029.6, -1335912.4, -16535.637, 0.061368175, 0.024499325, -1195088.0, 53088.42, 0.0076701324, 10.000709, 9.99884 
2.4858142e+3, 1.8262681e+2, -1117240.3, -1299204.8, -35628.063, 0.00025708217, -0.10411793, -1110513.0, 39743.793, 0.000687035, 10.000722, 9.998461 
2.4854602e+3, 1.9261932e+2, -925950.25, -1112857.4, -27396.295, -0.07012084, -0.15606116, -922017.3, 130309.44, 0.000019881356, 10.001254, 9.99875 
2.4851067e+3, 2.026121e+2, -940008.3, -1270053.8, 778.73804, -0.096864894, -0.073845744, -940006.44, 14391.704, 0.0, 10.001335, 9.996995 
2.4847531e+3, 2.126063e+2, -822675.0, -1167087.4, 17028.303, -0.1539355, 0.23462124, -821835.2, 34630.434, 0.0, 10.00156, 9.996867 
2.4844006e+3, 2.2259915e+2, -726663.5, -917408.2, 34682.97, -0.11331481, 0.39426497, -720552.9, 37987.5, 0.0, 10.000798, 9.998342 
2.4840502e+3, 2.3258837e+2, -735302.3, -746419.0, 60597.082, 0.1341928, -0.025159523, -680009.2, -19373.086, 0.0, 9.999601, 9.999364 
2.4836975e+3, 2.4257922e+2, -719750.06, -641890.3, -24409.473, 0.19759369, -0.27507287, -634870.7, -72153.94, 0.0, 9.998817, 9.999828 
2.483337e+3, 2.525751e+2, -275647.94, -267534.1, -123927.08, -0.29753795, -0.15987086, -147597.56, 317155.63, 0.0, 10.000802, 10.0007 
2.4829814e+3, 2.6256987e+2, -430582.34, -710101.6, 7131.074, -0.4590287, -0.01423934, -430400.53, -63596.914, 0.0, 10.000802, 9.997045 
2.4826375e+3, 2.725613e+2, -537486.7, -771035.75, 119990.85, 0.18779957, 0.05435773, -486827.34, -217931.84, 0.0, 9.999723, 9.996405 
2.482288e+3, 2.8255287e+2, -482626.4, -586062.6, -38669.246, 0.44673386, 0.14016466, -469768.4, -298783.88, 0.0, 9.998907, 9.9974575 
2.4819238e+3, 2.925442e+2, -38626.355, -182408.33, -93166.18, -0.24539283, 0.014663118, 7161.249, 80231.26, 0.0, 10.000773, 9.998587 
2.481571e+3, 3.0253565e+2, -378315.38, -914791.94, 82677.914, 0.09864178, 0.11653644, -365862.72, -365862.72, 0.0, 10.000528, 9.99344 
2.4812219e+3, 3.1252724e+2, -34863.996, -351255.38, 11310.528, 0.45565987, 0.50962543, -34460.18, -34460.18, 0.0, 10.001195, 9.996916 
2.4979211e+3, 1.2302289e+2, -1954601.8, -1834611.1, 236097.45, -0.22824562, 0.069630675, -1651005.5, 83367.305, 0.43991756, 9.998332, 10.000171 
2.4975759e+3, 1.3301425e+2, -1717955.1, -1793558.9, 22857.9, 0.382973, -0.13607943, -1711581.6, -75120.31, 0.31901658, 9.999837, 9.998778 
2.497219e+3, 1.4300898e+2, -1561168.9, -1675562.9, -10594.223, -0.0978227, 0.06026825, -1560196.0, -21680.418, 0.19536594, 10.000223, 9.998797 
2.4968655e+3, 1.5300313e+2, -1347218.1, -1448316.6, 9191.186, -0.17990954, 0.12626365, -1346389.4, 94187.34, 0.094030365, 10.00085, 9.999336 
2.4965131e+3, 1.6299605e+2, -1305920.6, -1504571.0, 20410.846, -0.14565118, 0.1446087, -1303845.1, 38803.164, 0.032013185, 10.000868, 9.998305 
2.4961616e+3, 1.729869e+2, -1199926.3, -1384999.8, 6073.2646, -0.014569921, -0.030710835, -1199727.3, 45009.2, 0.0062260167, 10.000903, 9.998386 
2.495809e+3, 1.8297891e+2, -1068945.5, -1221406.1, -733.0041, -0.024371266, -0.07234903, -1068942.0, 77869.766, 0.00043419475, 10.000817, 9.998938 
2.4954545e+3, 1.9297354e+2, -845847.25, -1010235.4, 4403.172, -0.19856673, 0.03507713, -845729.4, 203130.53, 0.0000058323185, 10.001503, 9.999341 
2.4951011e+3, 2.029668e+2, -849213.06, -1177512.4, 10607.614, -0.2680154, 0.124103785, -848870.7, 102053.914, 0.000000000090419006, 10.001723, 9.997438 
2.4947497e+3, 2.129578e+2, -743587.1, -1091394.1, 27376.86, -0.09408309, 0.080140494, -741445.4, 111572.914, 0.0, 10.001891, 9.9972315 
2.4943975e+3, 2.2294976e+2, -571504.25, -719935.25, -13042.579, 0.033564243, 0.08352173, -570366.94, 184732.55, 0.0, 10.001298, 9.999447 
2.4940442e+3, 2.3294358e+2, -670946.9, -618854.0, 11022.991, 0.1694279, 0.03890021, -616617.5, 40537.11, 0.0, 9.999591, 10.000259 
2.4936904e+3, 2.4293645e+2, -795234.8, -869706.0, 38677.332, 0.18710901, 0.013321043, -778782.2, -219561.61, 0.0, 9.999079, 9.998132 
2.493335e+3, 2.529281e+2, -399897.47, -647815.4, -62187.7, -0.023823678, -0.019771496, -385172.88, 76129.414, 0.0, 10.001258, 9.997892 
2.4929802e+3, 2.6292008e+2, -147196.67, -373476.75, -104070.07, -0.15427174, -0.042621434, -106612.125, 256767.78, 0.0, 10.001824, 9.998865 
2.4926284e+3, 2.7291268e+2, -444011.2, -407942.8, 15314.132, -0.016196456, -0.123245984, -402317.84, -136868.27, 0.0, 9.998948, 9.99929 
2.4922758e+3, 2.829058e+2, -488069.53, -412969.28, 69953.23, 0.025464276, -0.10991622, -371125.03, -203608.75, 0.0, 9.997992, 9.999115 
2.4919194e+3, 2.9289973e+2, 103345.92, -28402.955, 65245.023, -0.18826789, -0.0439657, 130188.016, 199765.81, 0.0, 10.001276, 9.999456 
2.491569e+3, 3.0289277e+2, 183860.83, -475033.78, 160758.2, 0.21363886, 0.11817343, 220990.56, 220990.56, 0.0, 10.003573, 9.995002 
2.4912146e+3, 3.1288156e+2, 300746.22, -115136.61, 77009.305, 0.07133589, 0.18253703, 314548.06, 314548.06, 0.0, 10.0029955, 9.997731 
2.507913e+3, 1.2337384e+2, -1903736.1, -1859198.8, 216802.0, -0.33049628, -0.0073926263, -1663524.8, 67402.555, 0.42027465, 9.99882, 9.999753 
2.507569e+3, 1.3336578e+2, -1883481.9, -1797770.8, 1545.3722, 0.39472443, -0.20171809, -1797742.9, -164731.97, 0.30251706, 9.99836, 9.999512 
2.5072128e+3, 1.4336105e+2, -1780522.8, -1741052.8, 68257.664, -0.03965363, 0.011513035, -1689734.4, -154673.44, 0.18302314, 9.998441, 9.999247 
2.506861e+3, 1.5335529e+2, -1343899.3, -1425377.1, 71211.836, -0.088818714, 0.048985854, -1302596.9, 134524.33, 0.08629053, 10.000677, 9.999623 
2.5065094e+3, 1.633488e+2, -1184522.0, -1452864.8, 23238.055, -0.042082585, 0.110053256, -1182524.4, 156663.8, 0.028287582, 10.001722, 9.998256 
2.5061572e+3, 1.7334096e+2, -1173090.1, -1406304.5, 9650.848, 0.05459182, 0.07861954, -1172691.5, 68576.47, 0.0050760456, 10.001184, 9.998129 
2.5058043e+3, 1.8333335e+2, -1107562.6, -1249593.4, 39027.18, 0.046757527, 0.09879087, -1097545.3, 45796.96, 0.00028139996, 10.000633, 9.998838 
2.5054497e+3, 1.9332705e+2, -928622.44, -1047559.25, 11256.668, -0.1943253, 0.1190981, -927566.44, 117831.98, 0.0000014559199, 10.001011, 9.999311 
2.5050965e+3, 2.0331949e+2, -919499.5, -1129962.3, -3879.5579, -0.24772595, 0.102296166, -919428.0, 28040.582, 0.0, 10.000924, 9.9981575 
2.5047457e+3, 2.1330966e+2, -880010.4, -1026688.1, 61447.152, -0.008166579, -0.13898653, -857670.94, -8106.5015, 0.0, 10.000477, 9.99834 
2.5043935e+3, 2.2330202e+2, -718551.8, -803957.6, 25116.568, 0.15554945, -0.14872718, -711713.0, 39927.055, 0.0, 10.0004015, 9.999305 
2.5040382e+3, 2.3329844e+2, -353175.47, -484532.1, -40507.35, 0.13339938, 0.07953368, -341688.47, 311988.5, 0.0, 10.001891, 10.000057 
2.503684e+3, 2.4329247e+2, -429761.44, -803849.2, 42665.86, 0.11432491, 0.21378744, -424956.97, 130778.84, 0.0, 10.002084, 9.997144 
2.5033313e+3, 2.5328186e+2, -365574.97, -732855.1, 132936.94, 0.06714333, 0.03643805, -322508.4, 135330.55, 0.0, 10.00198, 9.996943 
2.5029773e+3, 2.6327243e+2, -169658.48, -289893.0, 53096.98, -0.016392265, -0.085732855, -149567.44, 210360.67, 0.0, 10.001299, 9.999699 
2.5026202e+3, 2.732654e+2, -106827.0, -72708.08, 7851.656, -0.16791654, -0.27898782, -70987.93, 191000.88, 0.0, 10.0005245, 10.000849 
2.5022665e+3, 2.8325927e+2, -241661.9, -285372.0, 87902.85, -0.19447146, -0.27669328, -172937.95, -8893.758, 0.0, 9.99974, 9.999127 
2.501916e+3, 2.9325515e+2, 160771.9, -5163.4507, 54407.96, -0.076578364, -0.046009734, 177020.45, 243109.39, 0.0, 10.001753, 9.999352 
2.5015652e+3, 3.0324808e+2, 84827.14, -437667.3, 4.98611, 0.065828085, 0.07578265, 84827.14, 84827.14, 0.0, 10.002647, 9.995675 
2.501207e+3, 3.1323457e+2, 200019.81, -132036.89, -40747.93, -0.43868485, -0.28533444, 204947.03, 204947.03, 0.0, 10.002371, 9.997841 
2.5179103e+3, 1.2372393e+2, -1928906.3, -1856348.1, 163389.78, 0.0003783075, -0.065160684, -1725258.1, 2230.9897, 0.39734322, 9.998616, 9.999646 
2.5175607e+3, 1.3371657e+2, -1744810.8, -1600868.6, -28418.375, 0.3520436, -0.31572136, -1595461.1, 34104.99, 0.28406283, 9.998773, 10.000709 
2.5172055e+3, 1.4371234e+2, -1734692.8, -1694251.4, 119899.07, -0.028730968, -0.12228594, -1592879.9, -61268.42, 0.16993596, 9.998708, 9.999407 
2.5168577e+3, 1.5370722e+2, -1358085.3, -1407250.1, 151506.06, 0.08063672, -0.050860353, -1229180.3, 204485.9, 0.078587286, 10.000497, 9.999837 
2.5165072e+3, 1.6370198e+2, -1238271.6, -1478288.1, 5873.6587, 0.1449974, 0.12623665, -1238128.0, 97595.164, 0.024857625, 10.001348, 9.998254 
2.5161538e+3, 1.7369643e+2, -1157692.1, -1385076.4, -2537.6362, 0.16091003, 0.31931847, -1157663.8, 80121.15, 0.0041356636, 10.001238, 9.998247 
2.5157997e+3, 1.8368895e+2, -1094952.6, -1275862.9, 40482.77, 0.07741445, 0.3622178, -1086306.9, 53553.19, 0.00018434241, 10.000866, 9.998531 
2.5154456e+3, 1.9367918e+2, -937626.5, -1112094.3, 37809.58, -0.11688265, 0.088962846, -929785.06, 112164.35, 0.00000026313862, 10.00119, 9.998788 
2.5150925e+3, 2.0366997e+2, -763899.25, -858451.6, -15222.068, -0.17220522, -0.13250275, -761509.06, 182523.3, 0.0, 10.0011425, 9.999909 
2.5147408e+3, 2.1366172e+2, -705957.4, -732321.94, 54693.176, 0.05062539, -0.39591694, -662880.3, 183224.83, 0.0, 10.000742, 10.000256 
2.5143883e+3, 2.2365531e+2, -679617.6, -885279.2, 80609.22, 0.12383341, -0.34223786, -651788.5, 96379.16, 0.0, 10.001038, 9.99846 
2.514033e+3, 2.3365198e+2, -372680.63, -679438.4, 11701.85, -0.023589848, 0.072891414, -372234.88, 277977.84, 0.0, 10.002496, 9.998455 
2.513678e+3, 2.4364647e+2, -98294.43, -383460.9, 35712.54, -0.16306531, 0.25231367, -93890.03, 458379.5, 0.0, 10.003189, 9.999499 
2.5133243e+3, 2.5363705e+2, -78022.14, -292649.1, 147557.88, -0.26918596, -0.07013515, -2881.498, 451468.75, 0.0, 10.00258, 9.999713 
2.512971e+3, 2.6362854e+2, -109858.98, -326306.0, 74417.73, -0.22327806, -0.22829378, -86741.984, 269683.66, 0.0, 10.001915, 9.999174 
2.512618e+3, 2.7362162e+2, -101108.016, -251838.03, 2494.7278, 0.07060919, -0.24332988, -101066.734, 157423.86, 0.0, 10.001261, 9.999311 
2.5122645e+3, 2.8361434e+2, -132653.1, -456790.9, 116554.33, 0.10280688, -0.17275575, -95094.234, 65468.938, 0.0, 10.001366, 9.997185 
2.5119108e+3, 2.9360697e+2, 154280.06, -285326.56, 45347.797, -0.25094596, -0.035374887, 158909.19, 221554.11, 0.0, 10.002769, 9.996986 
2.5115594e+3, 3.0359915e+2, 320875.44, -219910.17, -89897.305, -0.24432652, 0.10627608, 335427.9, 335427.9, 0.0, 10.003712, 9.996682 
2.5112092e+3, 3.1358925e+2, 527921.8, 107195.8, -108386.516, 0.016530892, -0.001964967, 554202.5, 554202.5, 0.0, 10.004096, 9.998711 
2.5279084e+3, 1.2407582e+2, -1821580.1, -1826050.1, -14277.84, 0.51728565, -0.09751197, -1809363.4, -85323.414, 0.3720952, 9.999318, 9.999524 
2.5275528e+3, 1.3406833e+2, -1621544.5, -1691276.6, -87645.35, 0.18977489, -0.2297935, -1562084.8, 64036.94, 0.26429757, 10.000335, 9.999327 
2.5271994e+3, 1.4406304e+2, -1485737.5, -1487598.0, 3285.3918, 0.001664954, -0.11518671, -1483253.1, 44923.777, 0.15642525, 10.000087, 10.000197 
2.5268522e+3, 1.5405822e+2, -1535309.4, -1422846.0, 48575.938, 0.1468663, -0.096215434, -1404770.0, 25452.156, 0.071005836, 9.998954, 10.000433 
2.526502e+3, 1.6405298e+2, -1564891.6, -1574636.3, -45748.004, 0.22669771, 0.026274458, -1523757.3, -191481.47, 0.021693112, 9.998858, 9.998802 
2.526148e+3, 1.7404717e+2, -1235001.5, -1347394.3, -40380.31, 0.107575715, 0.13497716, -1221998.3, 12342.036, 0.00335279, 10.000482, 9.998862 
2.525794e+3, 1.8404025e+2, -1067716.8, -1285055.4, 11958.499, 0.018958544, 0.20395327, -1067060.8, 69351.305, 0.00011963712, 10.001116, 9.998366 
2.525441e+3, 1.9403124e+2, -1021823.2, -1192903.8, 20552.576, -0.08600996, 0.019468259, -1019388.8, 19109.955, 0.00000002568285, 10.000726, 9.998477 
2.5250876e+3, 2.0402308e+2, -892739.3, -910760.6, -60013.336, -0.0858244, -0.09459188, -841063.94, 99510.81, 0.0, 10.000187, 10.000019 
2.5247347e+3, 2.1401615e+2, -815787.75, -762994.8, -113569.12, 0.04648946, -0.27007553, -672794.9, 169840.27, 0.0, 9.999838, 10.000491 
2.524382e+3, 2.2401e+2, -921093.25, -1037835.0, -36914.816, 0.075682215, -0.20803195, -910399.94, -165705.25, 0.0, 9.999608, 9.998075 
2.5240278e+3, 2.3400535e+2, -683631.4, -864364.2, 13812.349, -0.10245697, 0.074528515, -682581.9, -35830.785, 0.0, 10.000563, 9.998102 
2.5236735e+3, 2.439993e+2, -461714.1, -477164.94, -14790.147, -0.2507352, 0.19270262, -452753.28, 96057.67, 0.0, 10.000416, 10.000179 
2.5233185e+3, 2.5399092e+2, -452848.44, -346610.7, -62641.957, -0.36764178, -0.15190586, -317597.78, 133279.73, 0.0, 9.99953, 10.000793 
2.5229657e+3, 2.6398307e+2, -564873.8, -711378.44, -172261.22, -0.24946311, -0.25610974, -450936.84, -97990.875, 0.0, 9.999588, 9.997623 
2.5226146e+3, 2.7397612e+2, -147137.13, -437734.78, -206579.08, 0.22724529, -0.16610378, -39875.734, 215140.58, 0.0, 10.001747, 9.997743 
2.522262e+3, 2.8396773e+2, -106244.68, -627030.75, -4575.0117, 0.25717363, -0.06640472, -106204.49, 50898.703, 0.0, 10.002418, 9.995498 
2.521906e+3, 2.939575e+2, -59659.1, -547922.75, 49124.95, -0.4139804, -0.093592376, -54765.61, 4447.7295, 0.0, 10.002056, 9.99551 
2.521556e+3, 3.039499e+2, 34176.62, -296072.78, -40158.145, -0.34488797, 0.13002211, 38989.684, 38989.684, 0.0, 10.001582, 9.997156 
2.5212067e+3, 3.139405e+2, 163547.25, 27300.973, 7013.992, -0.005448861, -0.048693605, 163907.38, 163907.38, 0.0, 10.001378, 9.9994 
2.5379005e+3, 1.2442854e+2, -1825737.5, -1976774.3, -55540.17, 0.307461, -0.060069393, -1807513.0, -86927.51, 0.34545994, 9.999998, 9.998137 
2.5375453e+3, 1.3442029e+2, -1707581.6, -1979786.5, -34141.285, -0.004042011, -0.055885613, -1703364.8, -80685.195, 0.24384509, 10.00071, 9.997107 
2.5371933e+3, 1.444132e+2, -1462413.1, -1396699.8, -258.65988, -0.06616685, -0.035061423, -1396698.8, 128052.125, 0.14280653, 9.999956, 10.000938 
2.5368446e+3, 1.5440837e+2, -1410731.4, -1255386.1, 33747.18, 0.10459775, -0.10829059, -1248371.6, 178415.39, 0.06363834, 9.999374, 10.001414 
2.5364944e+3, 1.6440217e+2, -1440647.0, -1434532.5, 3425.0862, 0.124378115, -0.15800554, -1432998.8, -104155.03, 0.0187796, 9.9993725, 9.999505 
2.5361404e+3, 1.7439412e+2, -1144063.3, -1221462.5, 26386.15, -0.113866515, -0.35246286, -1135923.9, 95003.445, 0.0026956536, 10.000706, 9.999629 
2.5357872e+3, 1.8438776e+2, -1044711.1, -1238952.6, -2448.8235, -0.22829077, -0.27905756, -1044680.25, 88315.555, 0.00007576087, 10.001149, 9.998643 
2.5354353e+3, 1.9438304e+2, -989129.06, -1156894.1, 10284.891, -0.14347383, -0.044837955, -988500.9, 46548.156, 0.00000000011876218, 10.000852, 9.99866 
2.5350824e+3, 2.0437813e+2, -924865.5, -1014966.7, -75223.61, -0.09726149, 0.19806708, -882234.0, 54868.86, 0.0, 10.000342, 9.999212 
2.5347278e+3, 2.1437317e+2, -846234.44, -902781.9, -117039.31, -0.067954645, 0.3340502, -754102.2, 85053.19, 0.0, 10.000144, 9.999383 
2.5343746e+3, 2.2436644e+2, -721975.44, -760584.25, -20212.168, -0.07632246, 0.32628545, -713330.06, 27889.691, 0.0, 10.000159, 9.999713 
2.5340223e+3, 2.3435779e+2, -530198.3, -606902.06, 46202.984, -0.100499295, 0.059961777, -508503.7, 134794.02, 0.0, 10.000773, 9.999791 
2.5336698e+3, 2.4434978e+2, -531628.7, -660546.6, -66949.54, -0.081070386, -0.04550496, -503151.13, 42219.125, 0.0, 10.00051, 9.998891 
2.5333154e+3, 2.5434238e+2, -617879.7, -629738.2, -137883.84, 0.0067918543, -0.1016033, -485797.7, -38361.22, 0.0, 9.99923, 9.999009 
2.532962e+3, 2.643343e+2, -593919.25, -830966.1, -135746.53, 0.023316002, -0.086145505, -532234.6, -182719.89, 0.0, 9.999789, 9.996718 
2.532609e+3, 2.7432534e+2, -92043.805, -536878.56, -162863.52, 0.048449032, -0.078393444, -38791.063, 212817.66, 0.0, 10.002588, 9.996687 
2.5322574e+3, 2.8431657e+2, 204225.58, -253907.3, -76374.25, 0.046172414, -0.05691175, 216622.3, 370319.44, 0.0, 10.0035515, 9.997508 
2.5319052e+3, 2.9430765e+2, 101319.42, -261660.34, 2299.5366, -0.09006812, -0.13231567, 101333.99, 157116.05, 0.0, 10.002199, 9.997441 
2.5315553e+3, 3.0429965e+2, 113736.16, -133159.6, -20279.217, 0.04217467, -0.095923804, 115390.734, 115390.734, 0.0, 10.001508, 9.99835 
2.5312018e+3, 3.1429163e+2, 263069.63, 156899.97, 26465.5, -0.023934264, -0.16598646, 269301.06, 269301.06, 0.0, 10.001518, 10.000326 
2.5478974e+3, 1.2477792e+2, -1472300.5, -1664760.4, 83604.336, 0.40214655, -0.15025163, -1441055.4, 276108.47, 0.31815657, 10.002753, 9.999089 
2.5475428e+3, 1.3477156e+2, -1581080.9, -1897582.9, -97102.06, 0.21245989, 0.013272119, -1553665.0, 65574.73, 0.22319712, 10.001646, 9.997211 
2.5471893e+3, 1.4476417e+2, -1287210.6, -1303442.5, 18237.688, 0.0693537, -0.012195879, -1275364.6, 245948.66, 0.12934339, 10.001227, 10.001072 
2.5468388e+3, 1.5475836e+2, -1126244.1, -1138844.4, -634.7398, 0.059188515, -0.16651864, -1126212.3, 297145.03, 0.05657354, 10.001489, 10.001281 
2.5464875e+3, 1.647525e+2, -1191582.6, -1311495.6, -43301.953, 0.02314851, -0.17573681, -1177580.8, 147830.81, 0.016116831, 10.001053, 9.999546 
2.546134e+3, 1.7474598e+2, -1181637.0, -1248530.0, -70398.52, -0.18501149, -0.24268499, -1137143.6, 90339.01, 0.0021455006, 10.000423, 9.999592 
2.5457814e+3, 1.8474016e+2, -1173967.5, -1234810.9, -96550.75, -0.23323677, -0.14977334, -1103159.1, 26386.248, 0.000046550977, 9.99997, 9.999249 
2.54543e+3, 1.9473544e+2, -1062485.8, -1115717.3, -61232.094, -0.092505224, -0.000012974562, -1022335.0, 9261.847, 0.0, 10.00004, 9.999337 
2.5450772e+3, 2.0473082e+2, -969030.0, -1083460.9, -78700.67, -0.022420077, 0.2556894, -928944.9, 4703.058, 0.0, 10.000292, 9.998753 
2.5447223e+3, 2.1472606e+2, -768306.2, -920271.4, -85086.805, -0.07273591, 0.45008782, -730213.75, 105487.09, 0.0, 10.000965, 9.99885 
2.5443685e+3, 2.2471893e+2, -567439.5, -669934.56, 9738.39, -0.107978605, 0.4319249, -566522.4, 171246.56, 0.0, 10.001173, 9.999855 
2.544017e+3, 2.347089e+2, -447143.72, -523001.03, -31065.758, -0.14196537, -0.020773888, -436045.2, 203810.8, 0.0, 10.001203, 10.000149 
2.543665e+3, 2.4470061e+2, -506886.44, -771536.44, -189612.75, -0.011830438, -0.12577574, -407990.97, 133940.11, 0.0, 10.001297, 9.997722 
2.543312e+3, 2.5469413e+2, -322275.56, -607664.3, -180887.72, 0.22927722, -0.010024438, -234574.52, 209420.33, 0.0, 10.001838, 9.997876 
2.5429583e+3, 2.6468578e+2, -344951.63, -779746.8, -14619.273, 0.19884627, 0.078837045, -344460.63, 1619.5664, 0.0, 10.001847, 9.99607 
2.542604e+3, 2.746754e+2, -221636.75, -642774.1, 24016.152, -0.10366165, -0.036707345, -220271.61, 27918.87, 0.0, 10.001938, 9.9962635 
2.5422528e+3, 2.8466693e+2, 11083.608, -188597.86, 20251.775, -0.092531644, -0.008654723, 13116.849, 163389.39, 0.0, 10.001624, 9.998868 
2.541904e+3, 2.9466e+2, 77254.15, -70037.23, 57084.977, 0.16042122, -0.06979902, 96787.766, 149117.38, 0.0, 10.001275, 9.999154 
2.5415525e+3, 3.046504e+2, -17199.348, -195933.89, 22084.002, 0.23252167, -0.2690778, -14511.134, -14511.134, 0.0, 10.000718, 9.99827 
2.541196e+3, 3.146428e+2, 104065.16, 271932.2, 21.738644, -0.16645753, -0.3401087, 271932.22, 271932.22, 0.0, 9.999745, 10.001933 
2.557891e+3, 1.2512742e+2, -1642886.9, -1923732.4, -71549.15, -0.0057003074, -0.091530226, -1625709.4, 88031.53, 0.29081753, 10.001827, 9.997583 
2.5575414e+3, 1.3512193e+2, -1525224.9, -1723708.5, -105446.414, 0.5096989, 0.039243076, -1479663.8, 136143.33, 0.2027681, 10.001508, 9.998499 
2.557186e+3, 1.4511482e+2, -1326854.5, -1336948.9, 29366.703, 0.14199425, -0.014973703, -1302104.4, 215773.08, 0.11625642, 10.001011, 10.000865 
2.5568333e+3, 1.5510799e+2, -1206753.8, -1211567.3, 33394.14, -0.057538666, -0.24892144, -1175679.8, 244254.03, 0.04988728, 10.001064, 10.000924 
2.556481e+3, 1.6510344e+2, -1265837.3, -1389443.1, -45072.785, -0.14117147, -0.07769609, -1251147.4, 70832.805, 0.013707004, 10.000732, 9.999165 
2.5561288e+3, 1.751007e+2, -1204303.8, -1290084.9, -53138.766, -0.17634685, 0.27952784, -1178905.8, 45114.793, 0.0016894786, 10.0004, 9.999324 
2.5557765e+3, 1.8509537e+2, -1040137.3, -1009660.56, -76354.56, -0.14990243, 0.3662691, -947038.6, 179038.3, 0.000027889511, 10.000205, 10.0006695 
2.5554252e+3, 1.9508769e+2, -931335.94, -910932.6, -34759.43, -0.006017988, 0.09361212, -884908.7, 143239.27, 0.0, 10.000331, 10.0006 
2.5550726e+3, 2.0508055e+2, -897268.9, -1012005.06, -47127.57, 0.043345213, 0.025591867, -880393.4, 49821.316, 0.0, 10.000603, 9.9991 
2.5547183e+3, 2.1507373e+2, -685614.5, -857975.9, -36683.902, 0.002294228, -0.000857259, -678131.9, 154147.58, 0.0, 10.001388, 9.999093 
2.5543645e+3, 2.2506663e+2, -561958.0, -786379.75, 19885.422, -0.11468481, 0.022978572, -560209.6, 174139.22, 0.0, 10.001703, 9.998803 
2.554011e+3, 2.3505905e+2, -465223.8, -679826.44, -24592.957, -0.29282895, -0.042728323, -462441.56, 173982.08, 0.0, 10.001688, 9.998848 
2.5536588e+3, 2.4505208e+2, -331016.47, -612290.6, -170548.97, -0.2148927, 0.018268907, -250597.58, 287895.5, 0.0, 10.002131, 9.998426 
2.553307e+3, 2.5504562e+2, -138535.84, -470527.4, -145023.86, 0.09558068, 0.099266514, -84108.13, 356450.56, 0.0, 10.002826, 9.998368 
2.5529543e+3, 2.6503798e+2, -79422.336, -472944.6, -9659.74, 0.13669793, 0.159524, -79185.37, 263450.2, 0.0, 10.002836, 9.997728 
2.5526005e+3, 2.750291e+2, -92438.51, -434475.63, 50076.793, -0.050526764, 0.0813825, -85257.65, 159467.72, 0.0, 10.002123, 9.99765 
2.5522482e+3, 2.8502172e+2, 109276.97, -30348.7, 79134.586, -0.11327977, 0.10039171, 144991.92, 291787.97, 0.0, 10.001733, 9.999931 
2.5518966e+3, 2.9501578e+2, 180176.98, 46807.613, 101137.61, -0.11182266, 0.09049583, 234635.45, 283483.97, 0.0, 10.001602, 9.999841 
2.5515452e+3, 3.0500704e+2, 39483.016, -235833.36, 18871.63, 0.011233528, -0.023505952, 40770.555, 40770.555, 0.0, 10.001298, 9.997762 
2.5511864e+3, 3.1499892e+2, 3096.0122, -36058.05, -78687.64, -0.4942019, -0.014678931, 64605.383, 64605.383, 0.0, 9.999989, 9.999769 
2.567888e+3, 1.2547855e+2, -1628902.6, -1679634.9, -164742.4, 0.1937465, 0.1003517, -1487584.9, 222723.38, 0.26403108, 10.000812, 10.00003 
2.567534e+3, 1.3547122e+2, -1581616.1, -1668342.5, -161056.84, 0.2955741, -0.022309855, -1458187.0, 154201.06, 0.18292536, 10.000668, 9.999377 
2.5671798e+3, 1.454659e+2, -1409947.1, -1292916.8, 287.84943, 0.12059298, 0.014316692, -1292916.0, 221523.55, 0.1037245, 9.999885, 10.001747 
2.5668287e+3, 1.5546201e+2, -1447407.6, -1287829.5, 25510.443, 0.111003004, -0.006089358, -1283850.6, 132618.77, 0.043632858, 9.999071, 10.001366 
2.5664768e+3, 1.6545694e+2, -1526978.9, -1486017.6, 42718.99, 0.064534105, 0.089026146, -1459123.5, -140603.22, 0.011545959, 9.998843, 9.999374 
2.5661233e+3, 1.754514e+2, -1353580.3, -1350669.4, 39962.26, -0.09401596, 0.15474036, -1312136.0, -91551.2, 0.0013158798, 9.999376, 9.999362 
2.5657713e+3, 1.8544574e+2, -1089752.8, -1050427.8, 9513.743, -0.08754256, 0.22410658, -1048247.06, 74396.24, 0.000016496271, 9.999969, 10.000504 
2.5654203e+3, 1.9543931e+2, -915223.1, -934688.4, -49553.41, 0.061795782, 0.090819575, -874455.6, 150246.73, 0.0, 10.000572, 10.000343 
2.565068e+3, 2.0543192e+2, -828133.3, -907681.8, -70706.54, 0.12997909, -0.016449485, -786781.7, 139986.13, 0.0, 10.000813, 9.99972 
2.5647143e+3, 2.154238e+2, -757893.4, -843306.44, -43227.56, 0.08539857, -0.23945378, -739834.2, 89004.57, 0.0, 10.000725, 9.999519 
2.5643602e+3, 2.2541654e+2, -819478.6, -1025746.44, 22846.264, -0.04970228, -0.19123468, -816978.5, -86067.6, 0.0, 10.00049, 9.997712 
2.564006e+3, 2.3540992e+2, -803068.4, -964821.4, -7631.5825, -0.31066668, -0.069317654, -802709.1, -169724.81, 0.0, 9.999942, 9.99771 
2.5636533e+3, 2.4540362e+2, -594246.6, -688727.56, -84466.0, -0.27777797, 0.098439574, -544708.1, -9656.838, 0.0, 10.000157, 9.998834 
2.563302e+3, 2.5539717e+2, -374851.13, -545731.4, -67098.03, -0.02726392, 0.12442098, -351653.5, 85463.25, 0.0, 10.001062, 9.998699 
2.5629503e+3, 2.6539022e+2, -196915.64, -425721.44, 19357.281, 0.07214776, 0.20022447, -195289.55, 143895.86, 0.0, 10.001684, 9.99855 
2.5625974e+3, 2.7538258e+2, 20192.35, -272003.7, 32760.354, -0.007694794, 0.12808263, 23820.32, 265079.75, 0.0, 10.00251, 9.998535 
2.5622436e+3, 2.8537568e+2, 28742.906, -113205.0, -33703.094, -0.15068425, 0.16912743, 36338.668, 179666.34, 0.0, 10.001423, 9.999489 
2.5618887e+3, 2.9536983e+2, -205836.75, -190911.0, -78641.75, -0.38656005, 0.17112985, -119378.81, -73992.69, 0.0, 9.999211, 9.999335 
2.5615385e+3, 3.053635e+2, -186340.47, -457477.8, -136679.6, -0.11995534, 0.36614627, -129398.95, -129398.95, 0.0, 10.000344, 9.996638 
2.5611848e+3, 3.153594e+2, 177914.47, -286765.97, 11818.058, -0.18353416, 0.81427974, 178214.84, 178214.84, 0.0, 10.00284, 9.99658 
2.577878e+3, 1.2582771e+2, -1751708.4, -1749088.6, -109201.55, -0.33565465, 0.12878174, -1641189.1, 65706.91, 0.23823552, 9.999815, 9.999842 
2.5775245e+3, 1.3581985e+2, -1555605.6, -1558891.6, -115466.484, -0.15948653, -0.13666977, -1441770.5, 167205.7, 0.16394834, 10.000387, 10.00025 
2.577173e+3, 1.4581731e+2, -1352639.5, -1137165.5, 6290.3413, 0.021423543, 0.07692554, -1136982.0, 374017.25, 0.09188186, 9.999754, 10.002948 
2.576825e+3, 1.5581794e+2, -1370921.4, -1126736.8, 22044.773, 0.4082439, 0.3946721, -1124762.6, 288224.53, 0.03784501, 9.999066, 10.002514 
2.5764728e+3, 1.6581103e+2, -1470326.5, -1406740.4, 55113.74, 0.3582599, 0.23307641, -1374907.0, -59854.74, 0.009625426, 9.999051, 9.999795 
2.5761175e+3, 1.7579867e+2, -1284347.1, -1290260.4, 76029.18, -0.04820177, -0.4155711, -1211217.1, 5956.578, 0.0010124295, 9.999742, 9.999592 
2.5757653e+3, 1.8579265e+2, -1127753.6, -1181598.5, 30480.76, -0.12580946, -0.33421004, -1114007.9, 5227.171, 0.000009793076, 10.000212, 9.99947 
2.575415e+3, 1.9579071e+2, -963200.6, -1064852.9, 1194.985, 0.06396543, 0.10407699, -963186.56, 58070.867, 0.0, 10.000693, 9.99939 
2.575063e+3, 2.0578486e+2, -724859.06, -744785.5, -60189.668, 0.14075555, 0.13685426, -673813.56, 249494.92, 0.0, 10.000995, 10.000756 
2.5747094e+3, 2.1577626e+2, -635073.0, -704172.44, -14970.185, 0.14143385, -0.21283947, -631969.2, 193410.47, 0.0, 10.001177, 10.000273 
2.5743556e+3, 2.2576836e+2, -782635.5, -1053508.3, 8796.497, 0.0130444085, -0.2407617, -782350.1, -54891.66, 0.0, 10.0008955, 9.99732 
2.5740013e+3, 2.3576076e+2, -778286.94, -1005511.06, -7711.0166, -0.19275594, -0.151762, -778025.56, -148481.27, 0.0, 10.000264, 9.997289 
2.573648e+3, 2.4575466e+2, -483930.47, -536705.1, -35474.19, -0.21905504, 0.0057990123, -466105.7, 65502.316, 0.0, 10.000442, 9.999753 
2.573296e+3, 2.557494e+2, -288081.72, -429456.84, 1191.6273, -0.10567336, 0.09687508, -288071.7, 145586.16, 0.0, 10.0012665, 9.999429 
2.5729445e+3, 2.657419e+2, -114683.72, -374069.3, 80959.33, -0.09056394, 0.08115438, -91488.86, 244241.23, 0.0, 10.002147, 9.998681 
2.572593e+3, 2.757327e+2, 97506.04, -264787.78, 62878.703, -0.13707075, -0.12312602, 108108.8, 345928.44, 0.0, 10.003094, 9.998324 
2.5722393e+3, 2.8572616e+2, -64603.355, -397105.34, -170312.52, -0.1554705, 0.074415565, 7149.321, 147041.14, 0.0, 10.001745, 9.997394 
2.5718835e+3, 2.957218e+2, -423447.03, -553705.0, -227389.08, -0.16469115, 0.4639737, -252043.61, -210094.77, 0.0, 9.998741, 9.9971 
2.5715333e+3, 3.0571342e+2, -152809.42, -403452.4, 1973.8059, -0.09832401, 0.53706557, -152793.88, -152793.88, 0.0, 10.000321, 9.9970455 
2.571187e+3, 3.1569892e+2, 709822.4, 215341.9, 138493.0, 0.12330524, -0.051240534, 745968.94, 745968.94, 0.0, 10.005273, 9.998906 
2.587871e+3, 1.2617879e+2, -1934238.3, -1687199.1, 21880.742, -0.28070158, 0.0063040745, -1685276.0, 18179.443, 0.21373183, 9.997727, 10.001246 
2.5875175e+3, 1.361747e+2, -1509423.9, -1476734.8, 25823.012, -0.2458195, 0.02310089, -1462518.4, 142977.4, 0.14603193, 10.000324, 10.000914 
2.5871667e+3, 1.4617035e+2, -1342466.1, -1274331.8, 32127.764, -0.012867642, 0.11022776, -1261572.0, 245966.23, 0.080827504, 10.000534, 10.001486 
2.5868177e+3, 1.5616709e+2, -1423501.0, -1291885.4, -82891.664, 0.38673317, 0.18581451, -1251855.1, 157714.52, 0.032553293, 9.9993725, 10.001157 
2.586466e+3, 1.6616149e+2, -1298623.4, -1236717.5, 1348.7023, 0.32422101, 0.1628376, -1236688.1, 74935.555, 0.007938516, 9.999839, 10.000586 
2.5861117e+3, 1.761534e+2, -1028892.1, -1112077.5, 19624.14, -0.06926423, -0.1441702, -1024495.06, 189207.1, 0.00076767127, 10.00125, 10.000102 
2.5857598e+3, 1.8614705e+2, -971936.94, -1101908.9, -5882.085, -0.11615512, -0.12470926, -971671.25, 144092.47, 0.000005913737, 10.00128, 9.999482 
2.5854093e+3, 1.9614238e+2, -1063681.8, -1117446.8, 21793.688, 0.06458081, 0.028281001, -1055957.5, -38147.977, 0.0, 10.000069, 9.999295 
2.5850576e+3, 2.0613642e+2, -861897.94, -870152.75, -6624.6265, 0.15907893, 0.08718041, -858220.1, 61643.11, 0.0, 10.000326, 10.000206 
2.584705e+3, 2.1612902e+2, -651673.5, -773249.75, -73027.516, 0.17425089, -0.11699866, -617444.7, 204482.25, 0.0, 10.001322, 9.999726 
2.584351e+3, 2.261211e+2, -681698.94, -976212.9, -65078.926, 0.040246297, -0.1331001, -667959.4, 56045.67, 0.0, 10.001539, 9.997536 
2.5839958e+3, 2.3611274e+2, -643458.5, -923410.8, -26922.396, -0.18611002, -0.15042289, -640892.94, -14798.304, 0.0, 10.00119, 9.9974 
2.5836432e+3, 2.4610616e+2, -363175.94, -506202.03, -27953.73, -0.18444633, -0.03106926, -357906.66, 170254.05, 0.0, 10.001452, 9.99945 
2.583292e+3, 2.5610062e+2, -220884.84, -430933.78, -78909.0, -0.07676979, 0.026443047, -194544.28, 235667.25, 0.0, 10.001939, 9.999071 
2.5829402e+3, 2.6609275e+2, -273238.22, -479295.06, -45812.293, -0.1241266, -0.003320961, -263511.97, 68775.664, 0.0, 10.001203, 9.998426 
2.582588e+3, 2.7608317e+2, -422392.88, -556541.44, -60222.51, -0.2552093, -0.25969982, -399324.44, -164942.48, 0.0, 9.999767, 9.997906 
2.5822344e+3, 2.860772e+2, -313032.4, -629619.7, -226461.5, -0.149832, 0.069128096, -195026.06, -58574.22, 0.0, 10.000597, 9.996323 
2.5818798e+3, 2.9607338e+2, 2769.5955, -469838.53, -135391.84, 0.069591306, 0.60575086, 38808.258, 77316.99, 0.0, 10.002267, 9.995952 
2.5815272e+3, 3.0606225e+2, 75309.914, -246934.31, 270710.5, -0.20898198, 0.45190212, 229218.77, 229218.77, 0.0, 10.00175, 9.99741 
2.5811854e+3, 3.1605184e+2, 215168.02, 393092.1, -47346.363, 0.15877828, 0.20457007, 404906.66, 404906.66, 0.0, 10.000169, 10.002577 
2.5978652e+3, 1.2653258e+2, -1879900.4, -1583225.1, -24192.85, -0.10829729, 0.021820137, -1581265.3, 118719.71, 0.19077104, 9.997767, 10.002091 
2.5975123e+3, 1.3653179e+2, -1584886.9, -1484893.9, 63532.445, -0.21914656, 0.29651752, -1454044.8, 147945.8, 0.12932456, 9.999631, 10.001169 
2.5971603e+3, 1.4652313e+2, -1598082.0, -1673475.5, -37534.43, -0.10613942, 0.09104282, -1582582.3, -78504.11, 0.07062259, 9.999962, 9.998871 
2.596809e+3, 1.5651193e+2, -1551065.3, -1591819.0, -75983.24, 0.11515833, -0.35724574, -1492774.0, -86580.82, 0.027766839, 9.99955, 9.998977 
2.5964576e+3, 1.6651036e+2, -1176933.4, -1043006.1, 74813.125, 0.039083462, 0.052320402, -1009564.9, 298648.44, 0.0064744665, 10.0001, 10.001798 
2.5961065e+3, 1.7651328e+2, -941012.44, -944886.6, 89037.53, -0.18390587, 0.7399517, -853890.94, 356297.84, 0.0005723583, 10.001293, 10.001243 
2.595755e+3, 1.8650597e+2, -907880.6, -956450.8, -44275.855, -0.16270287, 0.55957735, -881667.06, 230587.69, 0.0000035552432, 10.001226, 10.000509 
2.595403e+3, 1.9649325e+2, -989479.75, -1014850.6, 14096.911, -0.0056249094, -0.17556506, -983200.9, 31167.547, 0.0, 10.000262, 9.999921 
2.5950515e+3, 2.0648623e+2, -916470.25, -1062537.0, 42966.438, 0.07249556, -0.16575955, -904768.8, 11668.167, 0.0, 10.000654, 9.998737 
2.5947002e+3, 2.1648195e+2, -652962.25, -919569.5, -21282.223, 0.112128474, 0.12125721, -651274.06, 167209.28, 0.0, 10.0018835, 9.998487 
2.5943458e+3, 2.2647502e+2, -496384.16, -719542.8, -70406.625, -0.06890815, 0.1748305, -476027.75, 244521.94, 0.0, 10.002076, 9.999035 
2.5939897e+3, 2.3646654e+2, -470484.3, -731413.94, -2335.6003, -0.3681907, 0.019832214, -470463.4, 152165.56, 0.0, 10.001863, 9.9984045 
2.593639e+3, 2.4645755e+2, -379899.25, -718578.25, -6298.9136, -0.23222005, -0.04304509, -379782.16, 144933.44, 0.0, 10.002151, 9.997676 
2.5932905e+3, 2.564484e+2, -228255.02, -612967.56, -83424.04, 0.13521352, -0.14782946, -210943.67, 215861.25, 0.0, 10.002577, 9.997541 
2.5929374e+3, 2.6644146e+2, -228967.08, -422060.34, -152498.1, 0.052596003, -0.041920934, -145022.94, 183852.75, 0.0, 10.001341, 9.998749 
2.5925812e+3, 2.7643546e+2, -453521.2, -514357.72, -137914.58, -0.23350747, 0.06309914, -342710.22, -111771.35, 0.0, 9.999261, 9.998452 
2.5922287e+3, 2.8642815e+2, -95304.08, -255809.44, -102015.02, -0.2073506, 0.08853842, -45758.62, 87253.69, 0.0, 10.000901, 9.998746 
2.591876e+3, 2.964201e+2, 479880.16, -8309.331, -6943.485, -0.07587154, -0.0016393329, 479978.88, 515071.47, 0.0, 10.004483, 9.998073 
2.5915238e+3, 3.0641097e+2, 243972.64, -186089.17, 146806.45, -0.19313546, -0.035738718, 289307.7, 289307.7, 0.0, 10.002962, 9.99726 
2.591177e+3, 3.164026e+2, -99627.83, 57187.965, 262432.28, 0.015711201, -0.022311097, 252675.13, 252675.13, 0.0, 9.998708, 10.000997 
2.607856e+3, 1.2688333e+2, -1800053.9, -1723524.5, -120287.086, -0.25350004, 0.032952912, -1635562.5, 60988.566, 0.16949531, 9.999183, 10.000333 
2.6075068e+3, 1.3688071e+2, -1833208.0, -1653687.9, -151645.47, -0.0033591827, 0.19049291, -1567228.8, 31344.99, 0.11391174, 9.998162, 10.000631 
2.6071548e+3, 1.4687343e+2, -1696022.3, -1629209.5, -125247.31, 0.01982698, 0.07584373, -1532990.0, -32343.564, 0.061296463, 9.998885, 9.999684 
2.6068017e+3, 1.5686426e+2, -1341916.5, -1438872.3, -24406.941, -0.00867926, -0.2463831, -1336119.1, 66621.16, 0.023481611, 10.000755, 9.999447 
2.606451e+3, 1.6686204e+2, -1064322.5, -999516.25, 124041.22, -0.061804526, 0.086857915, -903715.7, 401050.28, 0.005220199, 10.000898, 10.001744 
2.6061016e+3, 1.7686372e+2, -1170122.4, -1079018.9, 44289.594, -0.11381805, 0.66055787, -1061036.9, 145716.63, 0.00041937284, 9.999807, 10.001067 
2.60575e+3, 1.8685666e+2, -1113759.6, -1051583.3, -123518.0, -0.06668399, 0.5061816, -955301.25, 153517.0, 0.0000020172258, 9.999761, 10.000575 
2.605397e+3, 1.9684449e+2, -1032418.25, -1061214.9, -127030.76, 0.029028134, -0.19641341, -918972.4, 91955.87, 0.0, 10.000064, 9.999707 
2.605046e+3, 2.0683789e+2, -844688.4, -1076100.0, 3921.1338, 0.04653072, -0.115631156, -844621.94, 68373.61, 0.0, 10.001418, 9.998245 
2.604696e+3, 2.1683425e+2, -579266.56, -940248.6, -4703.9253, 0.03600191, 0.27257726, -579205.25, 235834.78, 0.0, 10.002723, 9.997905 
2.6043415e+3, 2.268274e+2, -370934.2, -639340.7, -124571.57, -0.11979343, 0.34888715, -322029.3, 395076.16, 0.0, 10.002865, 9.999207 
2.603986e+3, 2.368186e+2, -472262.38, -733240.44, -147724.13, -0.3500692, 0.12098709, -405647.88, 213536.1, 0.0, 10.0018835, 9.998373 
2.6036352e+3, 2.4680904e+2, -540752.5, -834278.8, -60210.063, -0.17985639, 0.016018081, -528881.9, -7607.8545, 0.0, 10.001266, 9.997292 
2.603287e+3, 2.5679883e+2, -564264.6, -836083.94, -18689.598, 0.1973473, -0.16579972, -562985.6, -139612.44, 0.0, 10.000589, 9.996952 
2.6029328e+3, 2.667922e+2, -399951.47, -542134.25, -110279.305, 0.10814357, 0.027654285, -339834.97, -14392.058, 0.0, 10.000374, 9.998386 
2.6025748e+3, 2.7678734e+2, -396450.56, -511164.7, -112467.65, -0.19572532, 0.269402, -327558.66, -100060.82, 0.0, 9.999796, 9.9982195 
2.602223e+3, 2.8677854e+2, -90383.04, -97852.36, -15833.727, -0.24809039, 0.081989765, -77849.49, 51729.535, 0.0, 10.000291, 10.000126 
2.601872e+3, 2.9676774e+2, 59774.754, -103518.586, -41413.117, -0.262999, -0.44414288, 69677.12, 101350.48, 0.0, 10.001188, 9.999002 
2.601521e+3, 3.0676106e+2, -20112.656, -358197.34, -83833.28, -0.13554247, -0.2583847, -466.54526, -466.54526, 0.0, 10.001412, 9.996795 
2.60117e+3, 3.167575e+2, -147950.9, -147951.58, 110736.76, -0.06136728, 0.2643112, -37214.48, -37214.48, 0.0, 9.999316, 9.999247 
2.617849e+3, 1.272336e+2, -1898599.5, -1756428.9, -76131.39, -0.34232554, 0.13730428, -1723355.1, -30230.883, 0.1498841, 9.998474, 10.000373 
2.6175016e+3, 1.372265e+2, -1731712.8, -1672975.5, -75983.44, 0.22357962, -0.04484072, -1620882.5, -25692.225, 0.09979623, 9.999169, 9.999983 
2.6171494e+3, 1.4722304e+2, -1454091.4, -1246064.3, -4143.9053, 0.15326554, 0.10951172, -1245981.8, 251241.0, 0.05285716, 9.999397, 10.00215 
2.6167956e+3, 1.5722048e+2, -1296384.3, -1243467.3, 54652.93, -0.12904005, 0.2266269, -1209205.1, 190041.89, 0.019694533, 10.000308, 10.001035 
2.6164454e+3, 1.6721424e+2, -1173924.1, -1131570.8, 85009.67, -0.12925845, 0.13929315, -1065139.9, 236167.78, 0.004163879, 10.000505, 10.000996 
2.6160967e+3, 1.7720681e+2, -1223038.9, -1196572.6, 30607.771, -0.020032518, -0.11618987, -1176459.9, 26920.271, 0.00030229846, 9.999856, 10.000214 
2.615745e+3, 1.8720154e+2, -1100165.9, -1089960.3, -103146.9, 0.046652574, -0.03266544, -991790.06, 113643.516, 0.0000010444409, 10.000029, 10.000183 
2.6153922e+3, 1.971965e+2, -995751.3, -1087162.8, -71673.49, 0.08748799, 0.03399131, -956450.56, 51034.32, 0.0, 10.0004425, 9.999363 
2.6150414e+3, 2.0719089e+2, -753131.3, -955661.0, 72834.375, -0.0033054599, 0.18755461, -729658.75, 179883.98, 0.0, 10.001694, 9.9989395 
2.6146913e+3, 2.1718512e+2, -466060.06, -854551.44, 48604.98, -0.14899, 0.31147453, -460071.3, 351531.94, 0.0, 10.00333, 9.998198 
2.614339e+3, 2.2717696e+2, -367479.3, -753668.5, -154234.47, -0.12462653, 0.30739897, -313442.78, 400241.47, 0.0, 10.003347, 9.998205 
2.6139852e+3, 2.3716775e+2, -405582.13, -744348.44, -171553.86, -0.04581831, 0.15240414, -333881.5, 281892.44, 0.0, 10.002448, 9.998054 
2.6136318e+3, 2.4716079e+2, -326958.47, -457151.22, -90381.68, -0.054474153, 0.17161259, -280670.88, 237165.6, 0.0, 10.0015335, 9.999755 
2.613279e+3, 2.5715452e+2, -415834.84, -577033.5, -9530.329, -0.081175774, 0.17401735, -415273.34, 4617.921, 0.0, 10.000754, 9.998666 
2.6129252e+3, 2.6714623e+2, -416906.38, -652278.6, -72461.37, -0.076252356, 0.18943284, -396387.3, -74412.28, 0.0, 10.000642, 9.997522 
2.6125705e+3, 2.7713737e+2, -318606.63, -562092.5, -70258.734, -0.08044407, 0.1459905, -299787.72, -75718.89, 0.0, 10.000627, 9.997496 
2.6122177e+3, 2.8712958e+2, -79838.59, -153664.47, 9992.068, -0.20683263, 0.11748691, -78510.11, 47633.984, 0.0, 10.000568, 9.999625 
2.611865e+3, 2.9712224e+2, -42397.48, -183832.47, -31581.79, -0.4086282, 0.015771832, -35665.81, -7454.6836, 0.0, 10.000553, 9.998778 
2.611516e+3, 3.0711645e+2, 41463.375, -159745.78, -48798.875, -0.118674465, 0.20933957, 52673.87, 52673.87, 0.0, 10.001011, 9.9983835 
2.611167e+3, 3.171089e+2, 341349.4, 341662.47, -228900.72, 0.19846128, 0.19817081, 570406.75, 570406.75, 0.0, 10.001488, 10.001564 
2.6278433e+3, 1.2758751e+2, -1878572.3, -1688312.3, 165258.73, -0.15465212, 0.2369183, -1592758.8, 96898.086, 0.13183984, 9.998316, 10.000982 
2.627495e+3, 1.375782e+2, -1249657.4, -1425531.1, 140549.97, 0.013476573, -0.20071286, -1171801.8, 419935.88, 0.08692974, 10.002612, 10.000139 
2.627143e+3, 1.4757428e+2, -1236388.5, -1273432.6, 35784.547, 0.04629873, -0.010413896, -1214616.6, 279159.47, 0.045284748, 10.001465, 10.001006 
2.6267904e+3, 1.5757215e+2, -1666681.1, -1516904.6, -32300.758, 0.035336744, 0.26142967, -1510235.6, -114435.05, 0.01638905, 9.998124, 10.000235 
2.6264393e+3, 1.6756487e+2, -1552018.9, -1368457.6, 45571.79, -0.042223014, 0.12080167, -1357766.4, -59895.164, 0.0032885466, 9.99815, 10.000505 
2.6260895e+3, 1.7755541e+2, -1336874.5, -1322911.9, -10035.943, -0.10896923, -0.2889999, -1317667.9, -117705.625, 0.00021471751, 9.999368, 9.9995985 
2.6257384e+3, 1.8755086e+2, -1078655.0, -1139460.9, -124124.89, -0.012691723, -0.08241919, -981263.9, 120747.586, 0.00000047553752, 10.000457, 9.999632 
2.6253873e+3, 1.9754827e+2, -953274.9, -1106653.4, -114844.97, 0.12884603, 0.27452523, -891867.75, 112175.77, 0.0, 10.000959, 9.998971 
2.6250365e+3, 2.0754196e+2, -848397.4, -918741.4, 46221.39, -0.010608282, 0.32380423, -825487.7, 80617.67, 0.0, 10.000667, 9.9997015 
2.624686e+3, 2.1753412e+2, -987278.5, -1069273.1, 24561.943, -0.23633032, 0.15836594, -980483.9, -172303.8, 0.0, 9.999604, 9.998528 
2.624335e+3, 2.275263e+2, -790834.75, -986036.44, -114388.86, -0.09151198, 0.19291128, -738066.94, -27807.088, 0.0, 10.000613, 9.997907 
2.6239833e+3, 2.3751833e+2, -579233.1, -844350.25, -97778.49, 0.18963157, 0.18564408, -547072.5, 65270.156, 0.0, 10.001387, 9.99787 
2.623628e+3, 2.4751246e+2, -278777.84, -309804.3, -84413.92, 0.034428295, 0.2585909, -208463.52, 305930.47, 0.0, 10.001377, 10.000827 
2.6232716e+3, 2.5750732e+2, -434203.8, -540092.44, -103920.72, -0.2685561, 0.26405266, -370517.88, 45916.51, 0.0, 10.0004635, 9.999063 
2.622919e+3, 2.6749828e+2, -297863.5, -625586.5, -98227.516, -0.18219002, 0.20168471, -270677.25, 47846.773, 0.0, 10.001636, 9.997195 
2.622567e+3, 2.774877e+2, -47289.254, -504991.4, -44977.98, 0.023740878, 0.00096707395, -42911.188, 177722.33, 0.0, 10.002864, 9.996792 
2.622213e+3, 2.8748125e+2, 182299.88, -62002.566, 38101.684, -0.19456221, 0.16046512, 188104.34, 310803.6, 0.0, 10.002601, 9.99925 
2.621859e+3, 2.9747626e+2, 12706.704, -231571.23, 30492.85, -0.52981514, 0.31654054, 16455.549, 41205.035, 0.0, 10.001313, 9.99808 
2.6215124e+3, 3.074711e+2, 260305.25, 23718.383, -55817.164, -0.02187625, 0.5804234, 272812.78, 272812.78, 0.0, 10.002252, 9.999024 
2.6211593e+3, 3.1745446e+2, 567800.6, 324782.25, 94660.414, -0.26828098, -0.44701743, 600320.94, 600320.94, 0.0, 10.003658, 10.000417 
2.6378384e+3, 1.279428e+2, -1811301.1, -1540845.8, 235470.95, 0.030152814, 0.40792975, -1404535.1, 281638.9, 0.11528822, 9.998334, 10.00208 
2.637487e+3, 1.3793162e+2, -1438177.5, -1525709.4, 175444.56, -0.4532051, -0.33388147, -1301122.4, 287141.56, 0.07524984, 10.001234, 10.000069 
2.6371357e+3, 1.4792562e+2, -1481920.1, -1652686.6, -112415.766, -0.20567669, -0.19328932, -1426138.3, 64188.297, 0.038529176, 10.00091, 9.998577 
2.6367852e+3, 1.5792109e+2, -1669090.0, -1711181.3, -81237.31, 0.27776346, 0.070666194, -1606216.5, -213834.58, 0.013527696, 9.998982, 9.998467 
2.636433e+3, 1.6791478e+2, -1438078.1, -1332356.3, 104413.94, 0.045557678, 0.09966, -1268184.9, 26260.904, 0.0025719018, 9.999017, 10.000339 
2.6360804e+3, 1.7790778e+2, -1302131.3, -1342274.6, 54326.5, -0.40785456, -0.03839401, -1264287.1, -67773.625, 0.00015054179, 9.9997425, 9.99929 
2.635731e+3, 1.8790305e+2, -1100434.4, -1229157.5, -88581.8, -0.2540186, 0.20767611, -1055301.0, 43264.26, 0.0000001940375, 10.000661, 9.99891 
2.635382e+3, 1.9789891e+2, -921938.2, -1105703.3, -72354.23, 0.05268331, 0.47980824, -896869.7, 103742.805, 0.0, 10.0012045, 9.998864 
2.6350313e+3, 2.0789066e+2, -752915.9, -734895.56, 22104.184, -0.038191862, 0.25764775, -720035.75, 182651.61, 0.0, 10.000742, 10.000913 
2.6346797e+3, 2.1788119e+2, -844893.3, -880382.44, 36825.594, -0.2678244, -0.1780162, -821760.06, -16989.541, 0.0, 10.000026, 9.999625 
2.6343295e+3, 2.2787546e+2, -699500.44, -866817.06, -48098.32, -0.08405026, -0.018385483, -686659.2, 20170.684, 0.0, 10.000876, 9.998615 
2.6339796e+3, 2.3787071e+2, -433081.16, -719003.7, -40568.754, 0.20645571, 0.2472994, -427436.4, 181446.6, 0.0, 10.002098, 9.998401 
2.633624e+3, 2.4786288e+2, -277734.22, -411791.1, -103036.984, 0.061262377, 0.15523748, -221842.22, 289112.34, 0.0, 10.001791, 9.999932 
2.6332667e+3, 2.578542e+2, -368827.25, -533890.0, -94821.09, -0.22314364, -0.1015423, -325650.75, 87379.695, 0.0, 10.000967, 9.998864 
2.632915e+3, 2.678464e+2, -117435.27, -425049.9, -20528.875, -0.17080927, -0.098360814, -116071.31, 199035.02, 0.0, 10.00233, 9.998261 
2.632565e+3, 2.7783886e+2, 241782.64, -241002.83, 18432.04, -0.0057030614, -0.07609728, 242485.31, 459668.38, 0.0, 10.004234, 9.997966 
2.6322117e+3, 2.8783256e+2, 367945.78, 49978.336, 8316.279, -0.095333666, 0.029884666, 368163.16, 487408.66, 0.0, 10.003699, 9.999524 
2.6318574e+3, 2.9782656e+2, 123750.195, -243716.0, 45468.824, -0.27488822, 0.10324373, 129292.73, 150596.66, 0.0, 10.002275, 9.997561 
2.63151e+3, 3.0781835e+2, 180318.8, -484573.72, -13344.3545, 0.017104015, 0.33045927, 180586.5, 180586.5, 0.0, 10.003659, 9.99489 
2.6311588e+3, 3.1780657e+2, 839939.94, 578885.7, -91582.09, -0.17822222, 0.1889861, 868863.75, 868863.75, 0.0, 10.004876, 10.001614 
2.6478344e+3, 1.2829228e+2, -1629465.9, -1414410.1, 47444.164, 0.32914463, 0.4131521, -1404408.5, 278345.38, 0.10017183, 9.999339, 10.002516 
2.64748e+3, 1.3828267e+2, -1945697.9, -1702074.9, -41118.395, -0.4276248, -0.21378492, -1695322.3, -110491.85, 0.06469282, 9.997416, 10.000623 
2.6471293e+3, 1.4827755e+2, -1581786.1, -1667069.9, -181473.94, -0.24866326, -0.051571272, -1438011.5, 48873.168, 0.032530583, 10.000078, 9.998862 
2.64678e+3, 1.5827315e+2, -1028737.75, -1423497.5, -76707.45, 0.22890349, 0.19937778, -1014356.3, 374582.3, 0.011066901, 10.003492, 9.9982605 
2.6464283e+3, 1.6826601e+2, -891636.1, -1167881.3, 68966.01, 0.06413692, 0.20344937, -875375.56, 415634.06, 0.0019930317, 10.003171, 9.999471 
2.6460758e+3, 1.782584e+2, -1119519.3, -1316768.5, -19220.309, -0.3042899, 0.08820562, -1117663.8, 75418.46, 0.00010503105, 10.001249, 9.998755 
2.6457262e+3, 1.8825307e+2, -972585.8, -1081925.1, -52123.46, -0.18725011, 0.23668396, -951719.9, 143415.16, 0.00000008640195, 10.0012245, 9.99962 
2.6453775e+3, 1.9824812e+2, -910496.25, -1098113.1, 2944.236, 0.081913345, 0.37326306, -910450.06, 86735.25, 0.0, 10.001299, 9.998872 
2.6450253e+3, 2.082396e+2, -885672.1, -868350.75, -14208.214, -0.079418145, 0.1705826, -860371.7, 38893.207, 0.0, 10.000155, 10.00028 
2.6446724e+3, 2.182302e+2, -1131805.8, -1032363.0, -106798.65, -0.32246828, -0.21423796, -964278.75, -162928.16, 0.0, 9.998127, 9.999517 
2.6443234e+3, 2.2822565e+2, -760088.44, -720898.2, -62724.18, -0.11381335, -0.049242187, -674779.6, 28616.266, 0.0, 9.999712, 10.000169 
2.6439753e+3, 2.3822235e+2, -526962.3, -717711.75, -22943.422, 0.20089743, 0.20705707, -524241.44, 81189.68, 0.0, 10.001293, 9.998791 
2.6436198e+3, 2.4821357e+2, -332876.7, -586053.5, -143665.33, 0.083591685, 0.09207117, -267985.72, 239528.86, 0.0, 10.002078, 9.998588 
2.643263e+3, 2.5820312e+2, -372258.2, -653343.5, -153383.81, -0.14753245, -0.22939673, -304765.2, 104846.88, 0.0, 10.0015, 9.997786 
2.642911e+3, 2.68196e+2, -211657.77, -403868.7, -68771.29, -0.16044752, -0.1675309, -189586.47, 122094.82, 0.0, 10.001472, 9.99878 
2.6425612e+3, 2.7818978e+2, -243103.47, -462767.34, -99472.31, -0.08877812, -0.08449306, -204753.77, 8988.33, 0.0, 10.000931, 9.998015 
2.642209e+3, 2.8818327e+2, -20755.55, -123410.89, -187175.0, -0.035271503, -0.018693397, 122001.84, 237805.05, 0.0, 10.001064, 9.999551 
2.6418555e+3, 2.981766e+2, -200397.95, -530883.5, -111235.85, -0.06702033, -0.03428985, -166445.88, -148579.9, 0.0, 10.000697, 9.996326 
2.6415065e+3, 3.0816427e+2, -190776.8, -1002240.25, 63663.04, -0.076383494, 0.00496457, -185812.5, -185812.5, 0.0, 10.002623, 9.991799 
2.6411533e+3, 3.1815022e+2, 392926.75, 104626.16, 86815.414, -0.62989837, -0.09543418, 417050.7, 417050.7, 0.0, 10.002988, 9.999236 
2.6578307e+3, 1.2864007e+2, -1787592.9, -1457212.9, 746.2841, 0.5469361, 0.40393206, -1457211.3, 222141.16, 0.08643012, 9.998203, 10.002662 
2.6574737e+3, 1.3863294e+2, -1863694.5, -1611463.3, -21.953766, -0.27031028, -0.0041341847, -1611463.3, -30051.979, 0.055199515, 9.997772, 10.001067 
2.6571232e+3, 1.486297e+2, -1456308.5, -1430845.3, -24663.66, -0.28854504, 0.228488, -1415821.0, 67625.516, 0.027235242, 10.000214, 10.000407 
2.656775e+3, 1.5862665e+2, -1043996.6, -1372665.9, 17867.875, -0.0618281, 0.48111767, -1043028.06, 342455.5, 0.0089680515, 10.003136, 9.9987755 
2.656425e+3, 1.686178e+2, -1008862.94, -1350769.5, 16086.477, 0.007486637, 0.3768734, -1008107.75, 279461.4, 0.0015322798, 10.002966, 9.998284 
2.6560748e+3, 1.7860775e+2, -1098465.9, -1311271.3, -24169.305, -0.01701142, 0.122082315, -1095755.4, 93908.38, 0.00007382683, 10.001414, 9.998708 
2.655724e+3, 1.8860142e+2, -819383.9, -815559.1, -16642.04, 0.041135978, 0.056651883, -800719.94, 290997.13, 0.000000036839044, 10.001424, 10.001365 
2.6553732e+3, 1.9859597e+2, -844483.5, -1024354.2, 11611.829, 0.08483286, 0.0037812935, -843737.0, 150025.6, 0.0, 10.001543, 9.999263 
2.6550183e+3, 2.0858866e+2, -1048367.75, -1230557.4, -77063.76, -0.19648129, 0.07646119, -1020143.3, -124302.555, 0.0, 10.000275, 9.997722 
2.6546627e+3, 2.18581e+2, -1075711.0, -1062603.5, -103264.13, -0.5356891, 0.09433767, -965685.4, -167761.72, 0.0, 9.99872, 9.999026 
2.6543158e+3, 2.285765e+2, -505110.13, -276847.4, 25768.93, -0.2669591, 0.08114962, -273974.47, 425988.16, 0.0, 10.000041, 10.003074 
2.6539704e+3, 2.3857261e+2, -322880.0, -478912.16, 49484.13, 0.123700984, 0.030428639, -308510.0, 293483.38, 0.0, 10.002015, 10.000101 
2.653616e+3, 2.4856488e+2, -397472.84, -823971.5, -128881.414, 0.085774064, 0.10753785, -361552.16, 142521.3, 0.0, 10.002493, 9.996775 
2.6532596e+3, 2.585561e+2, -320726.2, -753962.5, -142580.92, -0.082257256, 0.1431736, -278013.0, 128152.89, 0.0, 10.002344, 9.9966955 
2.6529065e+3, 2.6854804e+2, -234718.73, -485549.34, -108485.91, -0.19676933, 0.18614677, -194308.27, 113938.664, 0.0, 10.001577, 9.998178 
2.6525545e+3, 2.7854028e+2, -285764.78, -503583.9, -151373.89, -0.23826249, 0.17888084, -208192.84, 2130.2314, 0.0, 10.000651, 9.997883 
2.652202e+3, 2.8853273e+2, -105758.84, -235685.02, -225262.9, -0.19202894, 0.17891635, 63721.188, 176111.92, 0.0, 10.000719, 9.998984 
2.6518488e+3, 2.9852512e+2, -88631.97, -395417.56, -142403.38, -0.20660694, 0.12558813, -32720.99, -18262.352, 0.0, 10.001039, 9.997102 
2.6515052e+3, 3.085108e+2, -40817.074, -585392.6, 129015.375, 0.14970458, -0.26808396, -11798.361, -11798.361, 0.0, 10.0021105, 9.994935 
2.6511508e+3, 3.185035e+2, 364435.28, 108232.34, 93827.9, -0.5633809, 0.07260622, 395121.94, 395121.94, 0.0, 10.002587, 9.999498 
2.6678213e+3, 1.2898806e+2, -1968298.8, -1650419.1, 95939.48, 0.44676274, 0.2268263, -1623708.1, 52231.01, 0.07399976, 9.997396, 10.001605 
2.6674685e+3, 1.3898304e+2, -1638016.4, -1592080.9, 21344.78, -0.06577168, 0.13832836, -1583693.9, -5708.9805, 0.04671147, 9.999621, 10.000336 
2.6671195e+3, 1.4897884e+2, -1339656.9, -1352127.5, -17177.25, -0.1232089, 0.2823254, -1327618.3, 152410.73, 0.022592494, 10.0008955, 10.000671 
2.6667714e+3, 1.5897474e+2, -1226325.9, -1402044.9, -70359.586, -0.029124476, 0.39718324, -1201625.4, 180447.98, 0.0071954923, 10.001578, 9.999364 
2.6664203e+3, 1.6896737e+2, -1096634.8, -1292561.8, -38463.88, -0.074958734, 0.3478383, -1089354.1, 194789.28, 0.001170623, 10.001911, 9.99921 
2.666069e+3, 1.7895903e+2, -1062420.8, -1260563.3, 14679.779, -0.10467263, 0.18781549, -1061339.1, 124881.88, 0.00005271245, 10.001544, 9.998995 
2.665719e+3, 1.889517e+2, -915568.1, -923762.2, -41834.375, 0.021686941, 0.05109698, -877630.6, 210653.64, 0.000000014947995, 10.001045, 10.000808 
2.665369e+3, 1.9894487e+2, -1123631.4, -1236473.3, -153466.61, 0.15905577, -0.09108987, -1016542.9, -26200.098, 0.0, 10.000009, 9.998542 
2.6650134e+3, 2.0893778e+2, -1015104.75, -1282266.5, -147256.13, -0.12544368, 0.055957578, -949868.6, -57448.164, 0.0, 10.000845, 9.997056 
2.6646575e+3, 2.1893106e+2, -791332.44, -950299.2, -55822.95, -0.45809606, 0.2182098, -773688.06, 20809.457, 0.0, 10.000878, 9.998718 
2.6643097e+3, 2.2892708e+2, -493597.03, -182593.13, -6380.7803, -0.2882169, 0.21275839, -182462.27, 514068.94, 0.0, 9.999817, 10.003784 
2.6639637e+3, 2.3892328e+2, -895740.7, -743699.5, -135724.06, 0.030649863, 0.08579147, -664156.1, -65596.26, 0.0, 9.9980955, 10.000162 
2.6636115e+3, 2.489162e+2, -735362.1, -1000576.8, -190706.4, 0.067555785, 0.2211581, -635690.25, -135054.2, 0.0, 10.000276, 9.996621 
2.6632568e+3, 2.5890824e+2, -424584.75, -867355.75, -99835.85, -0.009203769, 0.35414118, -403114.88, -390.45847, 0.0, 10.001953, 9.996109 
2.662902e+3, 2.6889986e+2, -288460.78, -537665.25, -52553.277, -0.19089909, 0.40442637, -277831.5, 26977.66, 0.0, 10.001382, 9.997891 
2.6625478e+3, 2.788914e+2, -483402.13, -678951.8, -36011.863, -0.3381509, 0.3615798, -476981.1, -270089.03, 0.0, 9.999709, 9.997129 
2.6621956e+3, 2.8888297e+2, -94025.01, -298193.44, -69920.61, -0.32751626, 0.34100738, -72375.32, 36593.086, 0.0, 10.001174, 9.998297 
2.661843e+3, 2.9887405e+2, 58383.875, -308979.03, 5223.786, -0.35777676, 0.21753983, 58458.14, 69505.2, 0.0, 10.002071, 9.997184 
2.661504e+3, 3.088596e+2, 108394.87, -180875.13, 200566.77, 0.40198177, -0.38341367, 211037.67, 211037.67, 0.0, 10.001784, 9.997826 
2.661147e+3, 3.1885597e+2, 32461.357, -53508.844, -104828.87, -0.55281353, 0.052713014, 102775.91, 102775.91, 0.0, 10.000458, 9.999373 
2.6778108e+3, 1.2933598e+2, -1827725.3, -1732834.1, 160137.89, 0.15581176, 0.039869744, -1613261.1, 59262.01, 0.06278177, 9.99913, 10.000165 
2.6774645e+3, 1.393325e+2, -1582676.9, -1701594.8, 83556.46, 0.08768288, 0.23777707, -1539583.1, 34978.49, 0.039146893, 10.000628, 9.999101 
2.6771167e+3, 1.493261e+2, -1330601.5, -1374524.1, 17534.229, 0.082074545, 0.22116224, -1324460.4, 152165.55, 0.018543635, 10.001134, 10.000367 
2.676769e+3, 1.5931958e+2, -1212769.8, -1306147.8, -30920.416, 0.07631033, 0.10610193, -1203459.3, 175231.14, 0.005710664, 10.001293, 10.000156 
2.6764148e+3, 1.6931567e+2, -980760.9, -974314.4, -34085.293, -0.24786039, 0.21038522, -943300.25, 337425.97, 0.0008890518, 10.001589, 10.001536 
2.6760605e+3, 1.793115e+2, -1038765.75, -1197278.5, 11888.152, -0.5702835, 0.2738634, -1037879.1, 144884.88, 0.000037964888, 10.001486, 9.999441 
2.6757118e+3, 1.8930312e+2, -1049161.9, -1234933.4, -65634.086, -0.21281105, 0.17877106, -1028312.8, 56531.51, 0.0000000057994387, 10.001196, 9.998597 
2.6753637e+3, 1.9929427e+2, -1104753.0, -1302924.6, -132722.72, 0.19918811, 0.035015117, -1038208.75, -51279.3, 0.0, 10.000436, 9.997881 
2.6750106e+3, 2.0928688e+2, -880836.94, -1059487.5, -94329.06, 0.09030638, 0.07401294, -840250.8, 48752.98, 0.0, 10.001069, 9.998484 
2.6746562e+3, 2.1928021e+2, -637735.0, -843610.25, -37813.324, -0.14653756, 0.12908888, -631009.5, 160062.94, 0.0, 10.001723, 9.999058 
2.6743045e+3, 2.292771e+2, -604168.25, -482074.94, -77964.47, -0.20490678, 0.34860045, -444100.63, 249005.28, 0.0, 10.000082, 10.001617 
2.673954e+3, 2.3927414e+2, -858681.75, -741021.2, -144491.0, -0.18642451, 0.50385785, -643843.0, -48706.297, 0.0, 9.99836, 10.000067 
2.6736048e+3, 2.492666e+2, -515265.84, -585798.1, -88566.125, -0.024772283, 0.40348956, -455202.75, 42009.348, 0.0, 10.000406, 9.999429 
2.673254e+3, 2.5925827e+2, -142278.67, -481434.6, -35528.04, 0.093384326, 0.24644236, -138596.92, 260698.66, 0.0, 10.00273, 9.998409 
2.6728985e+3, 2.6925093e+2, -182171.84, -418079.63, -74970.19, -0.086152785, 0.28254125, -160362.9, 141003.77, 0.0, 10.00175, 9.998571 
2.6725423e+3, 2.792435e+2, -368918.13, -582826.1, 22280.246, -0.27410492, 0.3067134, -366622.1, -163184.5, 0.0, 10.0002575, 9.997533 
2.6721913e+3, 2.8923452e+2, -65408.89, -367967.34, 75272.44, -0.28873217, 0.284626, -47716.684, 57806.26, 0.0, 10.001702, 9.997586 
2.6718408e+3, 2.9922536e+2, 277486.5, -178725.63, 98831.15, -0.31793487, 0.21464269, 297976.44, 305585.97, 0.0, 10.003377, 9.997483 
2.671498e+3, 3.092158e+2, 231217.69, -6541.888, 185140.13, 0.21504147, 0.03340687, 332358.97, 332358.97, 0.0, 10.002066, 9.998921 
2.6711428e+3, 3.1921008e+2, 57537.074, -46690.848, -100988.29, -0.4232827, 0.19388485, 119065.09, 119065.09, 0.0, 10.00048, 9.99945 
2.6878083e+3, 1.2968628e+2, -1158203.0, -1679435.8, 160288.94, 0.20891424, 0.12078693, -1112856.3, 556231.1, 0.052677374, 10.005006, 9.997772 
2.6874638e+3, 1.3967957e+2, -1075800.6, -1570740.6, -4298.4917, 0.34036073, 0.21053818, -1075763.4, 495399.3, 0.032425035, 10.004724, 9.998024 
2.6871136e+3, 1.4967316e+2, -1141717.0, -1288213.1, -78057.48, 0.17113908, 0.20860057, -1107921.8, 365306.2, 0.015032841, 10.002454, 10.000311 
2.6867628e+3, 1.5966703e+2, -1396733.4, -1332350.1, -122653.23, 0.02685354, 0.11524743, -1237734.4, 137554.22, 0.0044764117, 9.9997635, 10.000705 
2.686409e+3, 1.6966432e+2, -1224919.5, -959699.94, -132769.44, -0.25327113, 0.23568448, -904658.2, 372652.5, 0.00066900725, 9.999352, 10.002723 
2.6860553e+3, 1.796616e+2, -1350315.3, -1306755.9, -129572.34, -0.5054204, 0.3363884, -1197145.5, -17812.451, 0.000027210404, 9.999168, 9.999825 
2.685707e+3, 1.8965356e+2, -1093076.3, -1305415.6, -97950.14, -0.20110267, 0.28459966, -1054794.5, 26618.504, 0.000000001728097, 10.00111, 9.998166 
2.685359e+3, 1.9964485e+2, -822149.44, -1143311.9, -86117.02, 0.19542995, 0.18435319, -800515.2, 182984.22, 0.0, 10.002294, 9.998091 
2.685006e+3, 2.0963715e+2, -664655.94, -816944.06, -44427.12, 0.101887956, 0.094559096, -652642.9, 232927.5, 0.0, 10.001954, 9.999732 
2.6846522e+3, 2.1963012e+2, -859232.3, -975564.7, -28827.807, -0.048727456, 0.026967233, -852480.5, -64845.145, 0.0, 10.000335, 9.998835 
2.6843e+3, 2.2962609e+2, -798030.56, -768015.25, -67691.1, -0.073243745, 0.280159, -713688.1, -24005.557, 0.0, 9.999603, 9.999878 
2.6839477e+3, 2.396225e+2, -940563.75, -851033.9, -49639.363, -0.066496395, 0.523452, -828955.94, -237229.75, 0.0, 9.9981575, 9.999405 
2.683599e+3, 2.496158e+2, -543607.5, -410122.16, 19515.652, 0.01888957, 0.40153188, -407327.44, 86464.984, 0.0, 9.999467, 10.00103 
2.6832503e+3, 2.5960854e+2, -447007.84, -536570.44, -79572.875, 0.11056735, 0.18843463, -400480.84, -4619.004, 0.0, 10.000331, 9.999151 
2.6828945e+3, 2.6960197e+2, -189704.17, -358056.84, -196082.73, -0.03503018, 0.23173398, -60493.324, 237430.1, 0.0, 10.0015, 9.999051 
2.682538e+3, 2.7959502e+2, -220178.95, -544677.5, -65275.723, -0.19145653, 0.24684043, -207540.4, -7551.6997, 0.0, 10.001477, 9.997197 
2.682188e+3, 2.895857e+2, -77437.17, -428755.66, 55506.156, -0.21382672, 0.22238262, -68876.16, 33204.707, 0.0, 10.001876, 9.997075 
2.6818383e+3, 2.9957682e+2, -41391.188, -348991.4, 61477.168, -0.24425633, 0.20331968, -29559.428, -25390.568, 0.0, 10.001328, 9.997288 
2.681491e+3, 3.095716e+2, 105325.664, 28882.2, 76689.4, -0.041713845, 0.39271522, 152790.36, 152790.36, 0.0, 10.000892, 9.999673 
2.681141e+3, 3.1956157e+2, -222036.38, -227375.05, -114491.55, -0.054344237, 0.060908094, -110183.05, -110183.05, 0.0, 9.998938, 9.998903 
2.6978087e+3, 1.3003658e+2, -1422229.3, -2069560.6, 129052.02, 0.265487, 0.2687313, -1397449.9, 268203.56, 0.043618955, 10.004292, 9.995349 
2.6974645e+3, 1.4002563e+2, -1340879.9, -1808419.3, -1628.8236, 0.5042447, 0.11596627, -1340874.3, 226899.66, 0.026486207, 10.003337, 9.99703 
2.6971096e+3, 1.5002033e+2, -1231122.4, -1316186.8, -121801.766, 0.14125378, 0.23626843, -1144640.4, 325190.2, 0.012009438, 10.001776, 10.000437 
2.6967546e+3, 1.6001588e+2, -1365384.3, -1280339.5, -131800.02, -0.19201829, 0.30096066, -1184372.3, 187503.81, 0.003455713, 9.99983, 10.001018 
2.6964033e+3, 1.7001292e+2, -1169377.8, -881077.06, -113148.15, -0.17610198, 0.34494194, -841973.94, 431924.66, 0.00049606664, 9.999493, 10.003188 
2.6960525e+3, 1.8000989e+2, -1267956.8, -1206714.5, -74685.086, -0.16067255, 0.37177286, -1156616.9, 19305.006, 0.00001910138, 9.999453, 10.000371 
2.6957035e+3, 1.900032e+2, -1003292.25, -1147517.5, -17486.355, -0.06798503, 0.36808768, -1001202.44, 76786.016, 0.0000000002885943, 10.001226, 9.999178 
2.6953542e+3, 1.9999595e+2, -683332.9, -944578.6, -48856.25, 0.009550323, 0.31217757, -674495.1, 305564.44, 0.0, 10.002641, 9.999283 
2.6949996e+3, 2.0998812e+2, -549403.2, -640759.7, -62732.11, -0.16551913, 0.09542765, -517481.03, 364643.44, 0.0, 10.00216, 10.000866 
2.6946446e+3, 2.199804e+2, -740298.3, -892368.4, -44467.875, -0.30225453, -0.12202487, -728249.75, 55939.594, 0.0, 10.00099, 9.999089 
2.6942953e+3, 2.2997303e+2, -829745.56, -904254.0, -88129.43, 0.11511159, -0.12729178, -771319.7, -85051.95, 0.0, 9.99987, 9.998828 
2.693946e+3, 2.3996663e+2, -834033.7, -819465.4, -13771.127, 0.48572034, -0.07091436, -811170.6, -222831.53, 0.0, 9.998927, 9.99925 
2.693595e+3, 2.4996294e+2, -519520.38, -425530.8, 79894.25, 0.2344414, 0.12868343, -379834.72, 110545.87, 0.0, 9.999701, 10.000837 
2.693243e+3, 2.5995892e+2, -360625.53, -468267.47, -38357.18, -0.06694913, 0.2731266, -348355.88, 44067.73, 0.0, 10.000729, 9.999441 
2.6928893e+3, 2.6995224e+2, -89747.57, -271289.44, -159584.42, -0.09573752, 0.2730076, 3074.9219, 297562.97, 0.0, 10.001962, 9.99945 
2.6925358e+3, 2.799449e+2, 18092.389, -380189.22, -57957.184, -0.07046702, 0.226059, 26354.805, 222913.36, 0.0, 10.00282, 9.997687 
2.692186e+3, 2.8993565e+2, 11297.952, -363399.75, 23724.912, -0.047841772, 0.17523606, 12794.179, 111443.89, 0.0, 10.002298, 9.997338 
2.6918352e+3, 2.9992688e+2, 33048.117, -238988.13, 31198.201, -0.08945195, 0.14251602, 36580.19, 37315.613, 0.0, 10.001441, 9.997986 
2.691484e+3, 3.0992103e+2, 107779.766, 70759.95, 36390.387, -0.22015123, 0.21545021, 130097.266, 130097.266, 0.0, 10.000649, 10.0001135 
2.6911345e+3, 3.199135e+2, -101464.266, -92239.805, -225530.42, 0.023675663, 0.107296854, 128725.55, 128725.55, 0.0, 9.999287, 9.999698 
2.707805e+3, 1.3038504e+2, -1312181.9, -1751110.6, -17986.914, 0.08131031, 0.28191882, -1311446.0, 350798.75, 0.035549667, 10.003858, 9.997762 
2.707458e+3, 1.4037591e+2, -1687051.5, -1851610.3, 34555.402, 0.32878774, 0.12921964, -1680089.8, -115748.516, 0.021269761, 10.000297, 9.998247 
2.7071038e+3, 1.5037166e+2, -1448695.3, -1424205.6, -8716.437, 0.08868873, 0.33162677, -1421420.0, 44966.8, 0.009415533, 10.000228, 10.000473 
2.706749e+3, 1.6036743e+2, -1362943.4, -1393670.4, -32266.48, -0.122272365, 0.46259886, -1342569.5, 25860.71, 0.0026134893, 10.000309, 10.000026 
2.706398e+3, 1.7036062e+2, -1222234.5, -1128815.9, -121988.96, -0.039530627, 0.2998089, -1044899.56, 225590.48, 0.0003600524, 10.00006, 10.00121 
2.7060482e+3, 1.8035427e+2, -1323473.1, -1292111.4, -161572.28, 0.05409582, 0.148271, -1145460.8, 27085.031, 0.000012952271, 9.999349, 9.999824 
2.705699e+3, 1.9034903e+2, -1118351.6, -1097508.6, -94707.18, 0.015864093, 0.21715412, -1012651.25, 61947.152, 0.000000000007316074, 10.000016, 10.000088 
2.7053487e+3, 2.0034376e+2, -986477.2, -992951.2, -173869.55, -0.047966823, 0.25518423, -815814.5, 160835.89, 0.0, 10.000156, 10.000159 
2.7049938e+3, 2.1033801e+2, -777506.56, -624614.6, -227057.78, -0.23218787, 0.12345976, -461479.25, 417215.6, 0.0, 10.00008, 10.001976 
2.7046388e+3, 2.2033164e+2, -960642.5, -1004036.94, -173941.4, -0.32513675, -0.054430198, -807050.3, -26304.256, 0.0, 9.999545, 9.999018 
2.7042904e+3, 2.303225e+2, -612711.75, -848295.5, -148860.47, 0.17641987, -0.21801783, -540676.44, 142163.17, 0.0, 10.001635, 9.998319 
2.703942e+3, 2.4031432e+2, -379253.47, -671913.2, -35626.816, 0.6397997, -0.30363917, -374978.88, 209947.3, 0.0, 10.002406, 9.998579 
2.7035895e+3, 2.5031155e+2, -268601.06, -322372.6, 55025.35, 0.2553802, 0.006628417, -234244.39, 252714.95, 0.0, 10.0015335, 10.000639 
2.7032366e+3, 2.6030895e+2, -527288.6, -574015.0, -35455.87, -0.17375803, 0.2983031, -508190.6, -119200.66, 0.0, 9.999781, 9.999152 
2.7028844e+3, 2.7030239e+2, -221781.55, -278666.25, -114215.61, -0.1606678, 0.2801671, -132520.14, 158533.78, 0.0, 10.000877, 9.999899 
2.7025324e+3, 2.8029513e+2, -215610.1, -463237.1, -33370.176, -0.06014774, 0.19457147, -211191.95, -18067.766, 0.0, 10.001182, 9.997894 
2.7021825e+3, 2.902866e+2, -145336.67, -369344.84, 40289.207, 0.035207722, 0.16120686, -138310.78, -43102.895, 0.0, 10.001013, 9.997878 
2.7018312e+3, 3.0027804e+2, -204978.11, -351683.28, 80189.97, -0.0064477758, 0.10558073, -169652.11, -169652.11, 0.0, 9.999868, 9.997969 
2.701477e+3, 3.1027052e+2, 48096.53, 50259.973, 57676.234, -0.37912023, 0.000023802137, 106864.63, 106864.63, 0.0, 10.0002575, 10.000145 
2.701128e+3, 3.202654e+2, -8102.3813, -2290.9976, -302092.56, 0.016938865, 0.101095, 296909.84, 296909.84, 0.0, 9.999857, 10.000033 
2.7178e+3, 1.3073355e+2, -1271689.8, -1292335.9, -99131.55, -0.23124611, 0.30914974, -1182345.3, 476491.44, 0.02841461, 10.002253, 10.001741 
2.717449e+3, 1.4072795e+2, -1548259.6, -1597984.1, -9948.101, -0.052962348, 0.17258053, -1546343.3, 14546.775, 0.016713174, 10.0005, 9.999867 
2.717097e+3, 1.507247e+2, -1400589.9, -1401228.4, 7285.381, -0.01616898, 0.4412023, -1393616.8, 69307.13, 0.0071980846, 10.000614, 10.000413 
2.7167454e+3, 1.6072005e+2, -1456277.3, -1645621.1, -27694.393, 0.0073598837, 0.5881203, -1452309.6, -87339.445, 0.0019202423, 10.000587, 9.99815 
2.7163935e+3, 1.707075e+2, -1404975.4, -1587984.0, -110485.82, 0.06947332, 0.14990804, -1353021.9, -85935.03, 0.00025324232, 10.000432, 9.997873 
2.7160424e+3, 1.8069589e+2, -1323900.5, -1393366.5, -114034.31, 0.08552606, -0.24736883, -1239426.9, -70232.19, 0.000008369746, 9.999766, 9.998932 
2.7156934e+3, 1.9069186e+2, -1053215.4, -964710.7, -36031.53, 0.027104376, -0.104970634, -951896.9, 119338.84, 0.0, 10.0000305, 10.000996 
2.7153435e+3, 2.0068906e+2, -878982.0, -796643.56, -148640.64, -0.059181117, 0.086245775, -683576.1, 289688.44, 0.0, 10.00026, 10.00146 
2.714989e+3, 2.1068698e+2, -672971.6, -448518.56, -219501.84, -0.12282483, 0.21075334, -314217.5, 561063.25, 0.0, 10.000255, 10.003113 
2.7146345e+3, 2.2068381e+2, -785816.4, -817273.75, -119345.56, -0.18358833, 0.2608634, -681167.5, 96140.39, 0.0, 10.000268, 9.999959 
2.7142844e+3, 2.3067522e+2, -500982.72, -751684.7, -52694.523, -0.022406837, 0.1107337, -490357.28, 189036.95, 0.0, 10.002184, 9.998746 
2.7139345e+3, 2.4066687e+2, -154457.45, -509421.16, -15330.729, 0.11797398, -0.015340469, -153796.56, 427682.28, 0.0, 10.003656, 9.999099 
2.713583e+3, 2.5066206e+2, -187947.72, -286483.75, -3035.6594, -0.021136256, 0.08318459, -187854.28, 295672.84, 0.0, 10.002064, 10.0006485 
2.7132308e+3, 2.6065773e+2, -387504.8, -425677.66, -40244.152, -0.20476311, 0.19677202, -362050.44, 23520.152, 0.0, 10.000341, 9.999899 
2.712878e+3, 2.7065176e+2, -164516.75, -192255.61, -65356.71, -0.29205275, 0.18173222, -111574.05, 176053.39, 0.0, 10.000962, 10.000477 
2.7125254e+3, 2.8064564e+2, -63092.61, -226324.44, -18155.273, -0.30107707, 0.14548701, -61097.69, 128588.47, 0.0, 10.001487, 9.999365 
2.7121758e+3, 2.9063934e+2, -56869.047, -150975.03, 37659.84, -0.102721095, 0.19085813, -43653.906, 48092.84, 0.0, 10.000868, 9.999451 
2.711825e+3, 3.0063218e+2, -116415.234, -247070.06, 116601.46, -0.029584188, 0.1650338, -48087.977, -48087.977, 0.0, 10.000137, 9.998569 
2.7114728e+3, 3.1062192e+2, 29533.348, -61439.79, 101362.305, -0.22069883, -0.14748095, 95147.39, 95147.39, 0.0, 10.0005, 9.99931 
2.7111217e+3, 3.2061613e+2, 109491.766, -82283.16, -266883.9, -0.076775, 0.010790446, 297191.03, 297191.03, 0.0, 10.001166, 9.998879 
2.727796e+3, 1.3108526e+2, -1702480.6, -1719088.3, 117784.89, -0.107045904, 0.14807747, -1592707.1, 62673.402, 0.022190902, 10.000059, 9.999879 
2.727446e+3, 1.4107971e+2, -1369209.3, -1642770.9, -35705.71, 0.116907865, 0.20691955, -1364625.6, 192815.63, 0.012784307, 10.002227, 9.998774 
2.7270934e+3, 1.5107436e+2, -1168943.5, -1378138.3, -60226.164, 0.053936873, 0.3395678, -1152843.8, 306652.2, 0.00532732, 10.002554, 9.999674 
2.726741e+3, 1.6106826e+2, -1217657.0, -1554760.5, -96144.49, 0.047271784, 0.40098968, -1192163.8, 169392.48, 0.0013580795, 10.002336, 9.997948 
2.7263895e+3, 1.710573e+2, -1086304.1, -1418479.9, -27219.787, 0.08537724, 0.10990532, -1084088.4, 179568.56, 0.00016970174, 10.002599, 9.997996 
2.7260375e+3, 1.810469e+2, -1012963.75, -1248176.6, 89851.68, 0.10544527, -0.14942798, -982568.1, 183185.03, 0.0000049540654, 10.00195, 9.998881 
2.7256867e+3, 1.910423e+2, -1115251.4, -999667.75, 124101.58, 0.008215542, -0.04907279, -920561.44, 147238.86, 0.0, 9.999618, 10.000952 
2.7253363e+3, 2.0103887e+2, -1365755.8, -1058007.4, -16729.77, -0.03399249, 0.10134754, -1057100.6, -87264.516, 0.0, 9.997062, 10.00119 
2.724983e+3, 2.1103647e+2, -1048352.5, -650506.75, -148932.83, 0.021486573, 0.21955186, -600931.5, 270927.66, 0.0, 9.997827, 10.0028515 
2.7246302e+3, 2.2103363e+2, -1062090.0, -940418.75, -75048.85, 0.04717727, 0.319019, -904645.4, -130758.29, 0.0, 9.998387, 10.000011 
2.7242792e+3, 2.3102683e+2, -674315.9, -734227.4, 40169.9, -0.061559238, 0.2737612, -654162.06, 21793.555, 0.0, 10.000619, 9.999599 
2.7239287e+3, 2.410198e+2, -506860.16, -659679.6, 22686.074, -0.13796577, 0.216684, -503563.53, 74462.2, 0.0, 10.001246, 9.999209 
2.7235767e+3, 2.510137e+2, -503118.97, -428334.03, -22025.014, -0.15224592, 0.17327535, -422329.53, 57754.03, 0.0, 9.999926, 10.000669 
2.7232245e+3, 2.6100793e+2, -742164.0, -605832.56, 3267.4426, -0.17732118, 0.14439866, -605754.3, -223616.67, 0.0, 9.997998, 9.999798 
2.7228716e+3, 2.7100202e+2, -442394.06, -269413.06, 16338.626, -0.32389984, 0.08843315, -267883.34, 16308.316, 0.0, 9.998865, 10.000939 
2.7225193e+3, 2.809964e+2, -420337.66, -373621.2, 18651.098, -0.38901433, 0.064130925, -367088.44, -180844.66, 0.0, 9.998966, 9.999581 
2.72217e+3, 2.909914e+2, -127995.41, -88938.82, -9176.072, -0.15827028, 0.1522133, -86890.4, 1402.3582, 0.0, 9.999976, 10.0002985 
2.721819e+3, 3.009855e+2, -156662.8, -299034.0, 47118.426, -0.058698867, 0.18593653, -142481.33, -142481.33, 0.0, 10.000068, 9.99823 
2.721469e+3, 3.1097454e+2, 128898.97, -70292.89, 86432.4, -0.05809326, -0.16690747, 161173.84, 161173.84, 0.0, 10.001482, 9.998726 
2.7211142e+3, 3.209673e+2, 207098.58, -180952.14, -159062.56, -0.38384393, -0.090019085, 263965.1, 263965.1, 0.0, 10.00259, 9.997463 
2.737792e+3, 1.3143794e+2, -1929088.4, -2246962.3, 115736.07, 0.0556672, -0.005777332, -1891414.6, -239503.23, 0.016853184, 10.000403, 9.996025 
2.7374452e+3, 1.414313e+2, -1547900.6, -1963324.4, 11697.352, 0.38952437, 0.24428247, -1547571.6, 6422.7915, 0.009467199, 10.002042, 9.996636 
2.7370906e+3, 1.5142246e+2, -1268840.3, -1530275.8, -23242.746, 0.12436685, 0.14290524, -1266789.9, 189294.97, 0.0037924992, 10.0023575, 9.9986925 
2.7367365e+3, 1.6141437e+2, -1177752.1, -1420415.8, -54745.746, -0.077674836, 0.04797178, -1165973.1, 192191.45, 0.0009170214, 10.002145, 9.998937 
2.736385e+3, 1.7140946e+2, -963654.4, -1103712.6, 16184.418, -0.010040621, 0.16881874, -961808.5, 298396.88, 0.0001065257, 10.002372, 10.000249 
2.736033e+3, 1.8140447e+2, -981582.44, -1163270.5, 57020.777, 0.009660804, 0.2834808, -965169.75, 197079.0, 0.0000025959862, 10.001867, 9.999496 
2.7356797e+3, 1.9139826e+2, -1144268.5, -1092322.3, 44478.617, -0.071317315, 0.26968828, -1066788.5, -2476.4387, 0.0, 9.999734, 10.0002775 
2.7353272e+3, 2.0139216e+2, -1363593.0, -1167334.9, -24491.652, -0.096741125, 0.2396455, -1164324.8, -197950.33, 0.0, 9.997524, 10.000212 
2.734976e+3, 2.1138585e+2, -1121163.4, -860597.44, -95849.12, 0.1275466, 0.109414846, -829137.7, 39298.15, 0.0, 9.998045, 10.001313 
2.7346253e+3, 2.2138059e+2, -909861.8, -815687.25, 12319.356, 0.25277215, 0.07032511, -814102.4, -43614.598, 0.0, 9.999167, 10.000491 
2.7342758e+3, 2.3137714e+2, -525674.2, -503650.72, 133220.13, 0.077632114, 0.24006037, -380988.0, 291536.63, 0.0, 10.000914, 10.001057 
2.733925e+3, 2.4137324e+2, -360205.53, -484472.25, 12922.869, -0.079082124, 0.3782883, -358875.88, 215688.95, 0.0, 10.001752, 10.000168 
2.733571e+3, 2.5136706e+2, -486003.4, -412786.47, -73664.94, -0.089140035, 0.30796164, -367134.97, 109488.09, 0.0, 9.999954, 10.000786 
2.7332175e+3, 2.613607e+2, -627240.94, -466594.94, 19603.031, -0.09043084, 0.2029212, -464237.44, -85556.305, 0.0, 9.998371, 10.000569 
2.7328664e+3, 2.7135372e+2, -425642.13, -214060.39, 64887.69, -0.107523575, -0.0029714305, -195745.98, 84993.53, 0.0, 9.998724, 10.0014105 
2.7325156e+3, 2.8134695e+2, -381303.25, -367441.56, 78667.64, -0.073006816, -0.15260237, -295400.06, -112600.58, 0.0, 9.999174, 9.999553 
2.7321658e+3, 2.9134098e+2, -155074.45, -194484.13, 30509.502, 0.05378497, -0.084209636, -138459.73, -53595.42, 0.0, 10.00008, 9.999579 
2.731815e+3, 3.0133593e+2, 31900.008, -135210.27, 89634.484, 0.037309702, 0.07819675, 70883.85, 70883.85, 0.0, 10.000983, 9.99892 
2.7314657e+3, 3.11332e+2, 325693.4, 120576.234, 151111.06, -0.06930811, 0.3401796, 405762.34, 405762.34, 0.0, 10.002355, 9.999643 
2.731112e+3, 3.2132268e+2, 570347.56, 60335.918, 14110.316, -0.43253186, 0.16369012, 570737.7, 570737.7, 0.0, 10.004661, 9.998161 
2.74779e+3, 1.3178846e+2, -1441405.9, -1793677.1, -8176.589, 0.1962968, 0.06414062, -1441216.1, 207265.72, 0.012356598, 10.002777, 9.997985 
2.74744e+3, 1.41782e+2, -1374102.0, -1788403.0, 1696.7797, 0.23174822, 0.18845707, -1374095.0, 176459.53, 0.0067446986, 10.0028305, 9.99744 
2.747086e+3, 1.517747e+2, -1243307.5, -1513560.4, 8317.146, 0.030942885, 0.21622223, -1243051.8, 209581.39, 0.0025850064, 10.0024605, 9.99876 
2.7467325e+3, 1.617677e+2, -1197256.6, -1339300.4, 7074.0786, -0.07109148, 0.20576836, -1196905.3, 157799.05, 0.0005889778, 10.001585, 9.999758 
2.7463806e+3, 1.717627e+2, -1094270.0, -1052255.9, 30357.205, 0.022794146, 0.206977, -1036346.0, 220396.9, 0.00006228534, 10.000922, 10.001308 
2.7460283e+3, 1.8175776e+2, -1249123.4, -1320650.6, 26044.41, 0.07101687, 0.2636022, -1240645.0, -81861.21, 0.0000011486238, 10.000146, 9.999245 
2.745674e+3, 1.9175105e+2, -1021390.44, -1104481.9, 1633.3768, -0.049555898, 0.2475772, -1021358.4, 39494.266, 0.0, 10.000901, 9.999613 
2.7453208e+3, 2.0174426e+2, -900144.2, -1032102.06, -11538.469, -0.08687173, 0.21699418, -899142.9, 63779.01, 0.0, 10.001131, 9.999397 
2.74497e+3, 2.1173693e+2, -655156.06, -734571.2, -18353.611, 0.12620468, 0.06111172, -651119.56, 213874.02, 0.0, 10.001665, 10.000443 
2.7446198e+3, 2.2173057e+2, -677929.5, -763144.4, 113331.234, 0.27955642, -0.0002542287, -599461.06, 167595.89, 0.0, 10.001048, 9.999941 
2.7442703e+3, 2.3172759e+2, -597295.5, -533104.5, 113979.44, 0.074716054, 0.21316175, -446787.9, 222303.73, 0.0, 10.000436, 10.00106 
2.7439198e+3, 2.4172455e+2, -736851.06, -691976.94, -137428.95, -0.080472976, 0.43377563, -575165.56, -4040.0918, 0.0, 9.999322, 9.999907 
2.743565e+3, 2.5171906e+2, -594311.44, -449127.16, -238731.22, -0.011742822, 0.39829788, -272195.3, 200982.47, 0.0, 9.999171, 10.0008955 
2.7432114e+3, 2.617129e+2, -663140.06, -529197.94, -100567.93, 0.03429878, 0.30347025, -475342.56, -100109.016, 0.0, 9.998392, 10.000114 
2.7428606e+3, 2.7170488e+2, -416676.3, -225183.28, -84633.37, 0.027045479, -0.009981637, -193140.13, 84158.57, 0.0, 9.9989, 10.001219 
2.74251e+3, 2.8169718e+2, -485629.25, -498543.2, -82009.89, 0.073040135, -0.23748344, -409822.53, -230456.42, 0.0, 9.998912, 9.99875 
2.7421612e+3, 2.916907e+2, -214157.42, -263685.94, -81314.63, 0.17168312, -0.19761671, -153919.69, -72480.375, 0.0, 9.99996, 9.999118 
2.7418104e+3, 3.016865e+2, -118506.44, -185957.31, 16001.056, 0.08120434, 0.060773596, -114903.08, -114903.08, 0.0, 9.999962, 9.999044 
2.7414596e+3, 3.1168824e+2, 52248.27, 105350.875, 79347.45, -0.20431478, 0.77443147, 162471.48, 162471.48, 0.0, 10.00008, 10.000578 
2.7411103e+3, 3.216753e+2, 55583.516, -144493.94, 74694.75, -0.37523684, 0.14314587, 80392.91, 80392.91, 0.0, 10.00106, 9.998453 
2.7577868e+3, 1.3213816e+2, -1285274.6, -1290334.3, 51606.063, 0.17410418, 0.18713906, -1236136.4, 408928.75, 0.008683989, 10.00206, 10.001796 
2.757433e+3, 1.4213239e+2, -1352701.3, -1608235.5, 16843.057, -0.19866395, 0.07183657, -1351595.9, 195520.73, 0.0045924764, 10.002283, 9.998926 
2.7570805e+3, 1.5212934e+2, -1290707.8, -1458714.0, 17331.645, -0.15420263, 0.44349796, -1288938.4, 160219.94, 0.001678222, 10.001838, 9.999426 
2.7567285e+3, 1.6212481e+2, -1225170.3, -1283763.4, -1783.2947, -0.064114325, 0.6186826, -1225116.0, 126091.82, 0.0003582281, 10.001115, 10.00036 
2.7563763e+3, 1.7211609e+2, -1059089.8, -991035.3, 15403.327, 0.0919749, 0.20568052, -987711.3, 265567.34, 0.000033741435, 10.00098, 10.001694 
2.7560237e+3, 1.8210807e+2, -1199404.6, -1315556.8, 38790.45, 0.14174728, -0.059146773, -1187641.4, -32294.818, 0.00000040337267, 10.000558, 9.999071 
2.7556694e+3, 1.9210154e+2, -1038243.3, -1170825.3, 45181.617, -0.01879308, -0.010390868, -1024310.4, 33103.53, 0.0, 10.001024, 9.999096 
2.755316e+3, 2.0209554e+2, -851923.9, -1016674.3, 16440.045, -0.13393399, 0.0783129, -850299.4, 109176.234, 0.0, 10.00146, 9.999356 
2.7549642e+3, 2.1208987e+2, -614056.7, -723579.25, 20491.69, -0.032315776, 0.09895678, -610348.25, 251182.56, 0.0, 10.001924, 10.00043 
2.7546132e+3, 2.2208403e+2, -645613.2, -858195.75, 114479.086, 0.011202582, 0.13354337, -595688.94, 167901.2, 0.0, 10.001735, 9.998948 
2.754263e+3, 2.3207776e+2, -684048.0, -780055.6, 95666.47, -0.15095477, 0.19826123, -625017.06, 40643.695, 0.0, 10.000696, 9.999256 
2.7539122e+3, 2.4207234e+2, -661186.0, -650717.2, -163813.25, -0.21647938, 0.30783102, -492054.75, 75666.42, 0.0, 9.999753, 10.0 
2.7535594e+3, 2.5206852e+2, -538002.06, -390314.88, -245667.3, 0.07555671, 0.4251256, -207633.05, 262127.61, 0.0, 9.999381, 10.001225 
2.7532062e+3, 2.6206344e+2, -582883.6, -543090.06, -96761.54, 0.21692272, 0.44949758, -464200.84, -92391.75, 0.0, 9.9991045, 9.999686 
2.7528527e+3, 2.7205455e+2, -430203.6, -380252.3, -94387.94, -0.056917995, 0.17464468, -307591.56, -33704.53, 0.0, 9.999395, 9.999944 
2.7525014e+3, 2.8204644e+2, -351082.2, -400910.66, -104237.11, -0.20046756, -0.0074576964, -268823.22, -92862.3, 0.0, 9.999666, 9.999051 
2.7521536e+3, 2.920407e+2, -131861.9, -169351.02, -103847.484, 0.0041105975, 0.06724553, -45080.824, 32943.04, 0.0, 10.00029, 9.999616 
2.7518034e+3, 3.0203635e+2, 30558.518, 10607.121, -38389.543, -0.04350752, 0.24878979, 60247.305, 60247.305, 0.0, 10.000375, 10.000222 
2.7514505e+3, 3.1203553e+2, 54360.547, 206910.72, -1133.6764, -0.493151, 0.6172151, 206919.14, 206919.14, 0.0, 9.99955, 10.0015955 
2.7511057e+3, 3.2202455e+2, -217086.84, -386955.25, 131084.64, -0.24918623, 0.16313674, -145825.66, -145825.66, 0.0, 9.999522, 9.997555 
2.767782e+3, 1.3249108e+2, -1373744.9, -1387451.9, 219514.89, 0.10842121, 0.19177824, -1160976.6, 480625.72, 0.0058217254, 10.001627, 10.001374 
2.7674276e+3, 1.4248393e+2, -1404342.6, -1601775.8, -16470.84, -0.32099038, -0.002719638, -1402978.0, 140689.27, 0.0029696182, 10.001776, 9.999234 
2.7670762e+3, 1.5248051e+2, -1508351.1, -1511844.6, -41325.816, -0.031078681, 0.28611305, -1468735.1, -23024.602, 0.0010279779, 10.000138, 9.999881 
2.7667248e+3, 1.6247617e+2, -1496701.3, -1446789.0, -1276.6637, 0.18268417, 0.4629987, -1446756.4, -98997.94, 0.0002033788, 9.999367, 10.000113 
2.766371e+3, 1.7246827e+2, -983485.4, -1019591.94, -15080.778, 0.056659456, 0.17963079, -978015.25, 271811.97, 0.000016580547, 10.001749, 10.001159 
2.766018e+3, 1.8246062e+2, -892356.44, -1184745.0, -68731.57, -0.009605517, -0.011673994, -877005.7, 274890.06, 0.00000009587778, 10.00276, 9.998917 
2.765665e+3, 1.9245379e+2, -1001679.8, -1149688.6, -69647.984, 0.035178725, -0.0053363354, -974059.94, 79904.555, 0.0, 10.001279, 9.999126 
2.765312e+3, 2.0244755e+2, -1100041.3, -1190194.8, -29413.79, 0.029513603, 0.07792768, -1091293.4, -135266.02, 0.0, 10.000017, 9.998866 
2.764959e+3, 2.1244222e+2, -800112.06, -856425.94, -56049.83, -0.05624112, 0.15873379, -765544.25, 92536.49, 0.0, 10.000879, 10.000004 
2.764607e+3, 2.2243655e+2, -853984.8, -994143.1, 9736.403, -0.11693759, 0.24135296, -853311.7, -93173.1, 0.0, 10.000506, 9.998605 
2.7642563e+3, 2.3242913e+2, -946200.06, -921267.2, 102087.32, -0.19895367, 0.18908246, -830887.94, -168669.72, 0.0, 9.999001, 9.999089 
2.7639052e+3, 2.4242274e+2, -1012841.06, -874593.6, -27082.04, -0.17368822, 0.24131528, -869477.7, -305189.9, 0.0, 9.997643, 9.999459 
2.7635527e+3, 2.5241897e+2, -619279.25, -456786.53, -126636.02, 0.1333706, 0.38534036, -387574.75, 78755.04, 0.0, 9.998981, 10.000939 
2.7632e+3, 2.6241413e+2, -588385.8, -655477.56, 15414.908, 0.27245384, 0.493373, -585013.6, -216634.3, 0.0, 9.999608, 9.998672 
2.762846e+3, 2.7240568e+2, -346893.75, -427092.94, 50608.21, -0.11441137, 0.34433034, -322424.25, -51966.402, 0.0, 10.000429, 9.999103 
2.7624938e+3, 2.8239772e+2, -350919.66, -454106.66, 53697.83, -0.33988625, 0.2647377, -328046.1, -155513.13, 0.0, 9.999951, 9.99855 
2.7621463e+3, 2.9239148e+2, -292415.4, -245483.55, 23029.418, -0.12102818, 0.29232037, -236070.86, -161474.06, 0.0, 9.9991865, 9.999625 
2.761796e+3, 3.023862e+2, -269750.5, -149661.16, 28844.06, -0.16909145, 0.39406958, -143092.44, -143092.44, 0.0, 9.998451, 10.000034 
2.7614427e+3, 3.12382e+2, 136692.2, 258968.98, -39539.168, -0.6720892, 0.4090023, 270640.25, 270640.25, 0.0, 10.000131, 10.001647 
2.7611002e+3, 3.223737e+2, -150246.86, -405498.38, 183085.98, -0.24427745, 0.2133234, -54693.734, -54693.734, 0.0, 10.000403, 9.996935 
2.7777767e+3, 1.3284484e+2, -1621227.1, -1715211.4, 181911.17, -0.04845442, 0.20065296, -1480336.5, 157790.63, 0.0036884123, 10.000915, 9.999404 
2.777423e+3, 1.4283569e+2, -1560806.3, -1701391.4, -53763.215, -0.37216, -0.08351687, -1542602.9, -2387.0137, 0.0018041466, 10.000854, 9.998969 
2.7770725e+3, 1.5282992e+2, -1484317.6, -1464613.8, -76774.68, 0.18005729, -0.064388394, -1397061.4, 45215.38, 0.00058556965, 10.00017, 10.000173 
2.776721e+3, 1.6282466e+2, -1473967.5, -1511608.1, 74362.336, 0.42972302, 0.031883977, -1416080.9, -71748.125, 0.00010501939, 9.999846, 9.999432 
2.7763653e+3, 1.728201e+2, -1050553.6, -1153421.8, 105628.836, -0.12926485, 0.17134961, -984501.9, 261878.83, 0.0000068884756, 10.001716, 10.000259 
2.7760112e+3, 1.8281475e+2, -919479.2, -1183918.8, -81827.97, -0.39125165, 0.27022168, -896206.56, 252228.45, 0.00000000965895, 10.00253, 9.9990225 
2.7756608e+3, 1.928073e+2, -975821.56, -1096403.9, -95016.97, 0.08055426, 0.18566455, -923581.6, 126926.09, 0.0, 10.0012665, 9.999509 
2.775309e+3, 2.0280026e+2, -1090044.3, -1218125.6, 4697.022, 0.2945804, 0.18378437, -1089872.3, -137294.44, 0.0, 10.000234, 9.998552 
2.7749547e+3, 2.1279384e+2, -836223.0, -970414.3, 5269.3315, -0.007496724, 0.24204716, -836016.4, 18628.682, 0.0, 10.001058, 9.999129 
2.7746013e+3, 2.2278787e+2, -644666.0, -703210.0, -21622.084, -0.18747911, 0.29139036, -637546.2, 119159.44, 0.0, 10.001084, 10.000338 
2.7742508e+3, 2.3278227e+2, -763313.06, -588322.4, 62340.81, -0.053064384, 0.22151819, -568384.9, 90373.46, 0.0, 9.999156, 10.001334 
2.7738994e+3, 2.4277663e+2, -931737.7, -811220.25, 29534.826, 0.033931803, 0.21093152, -804371.44, -243556.95, 0.0, 9.998078, 9.999676 
2.7735454e+3, 2.5277063e+2, -624448.94, -581172.6, -32523.39, 0.069771826, 0.23792416, -563747.0, -100867.49, 0.0, 9.999445, 9.999882 
2.7731925e+3, 2.627651e+2, -410868.34, -528829.6, 94889.29, 0.0630911, 0.34471902, -358123.0, 6815.078, 0.0, 10.000596, 9.999077 
2.7728415e+3, 2.7275988e+2, -183341.63, -302057.16, 136655.88, -0.08942967, 0.4934698, -93708.875, 173279.77, 0.0, 10.001292, 9.999579 
2.7724904e+3, 2.8275344e+2, -179170.72, -373596.4, 94409.336, -0.17256518, 0.54947495, -140871.72, 28178.973, 0.0, 10.001063, 9.998571 
2.7721396e+3, 2.9274455e+2, -304555.4, -333133.88, 36777.434, -0.08820172, 0.37617996, -279388.8, -208252.5, 0.0, 9.999333, 9.998994 
2.7717885e+3, 3.0273643e+2, -380490.16, -457395.16, 145564.38, -0.18719648, 0.3299779, -268385.06, -268385.06, 0.0, 9.998692, 9.997809 
2.7714396e+3, 3.1272936e+2, 38968.22, -130651.4, 53266.895, -0.462303, 0.3585532, 54308.625, 54308.625, 0.0, 10.000855, 9.998632 
2.7710968e+3, 3.2272077e+2, 347699.6, 124011.984, 156950.05, -0.20753686, 0.24585235, 428579.3, 428579.3, 0.0, 10.002456, 9.999595 
2.7877715e+3, 1.3319458e+2, -1601696.8, -1646983.9, 57934.855, -0.050788775, -0.007198186, -1562137.6, 72561.38, 0.0021706265, 10.000727, 9.999971 
2.7874207e+3, 1.4319044e+2, -1695644.1, -1677512.6, -66699.39, 0.04220764, 0.14383067, -1619265.8, -82524.0, 0.0010072021, 9.999462, 9.999835 
2.787067e+3, 1.5318303e+2, -1262608.6, -1282563.3, -49359.867, 0.20408173, -0.08271965, -1222227.8, 216585.22, 0.00030058064, 10.001261, 10.000952 
2.7867147e+3, 1.6317686e+2, -1222705.0, -1439879.6, 110810.92, 0.29038742, -0.09877964, -1176146.4, 164729.78, 0.000046417692, 10.001778, 9.999001 
2.786361e+3, 1.7317325e+2, -1300441.4, -1360547.3, 122939.516, -0.06413687, 0.20718965, -1203934.9, 38986.563, 0.0000020738605, 10.0004015, 9.999467 
2.7860072e+3, 1.8316849e+2, -1337214.4, -1369136.8, -45250.273, -0.25127703, 0.41689992, -1305192.8, -160219.27, 0.00000000000031198744, 9.999598, 9.999156 
2.785655e+3, 1.931609e+2, -987838.25, -1045065.5, -62763.645, 0.035281215, 0.264975, -947473.5, 99571.46, 0.0, 10.000962, 9.999982 
2.785303e+3, 2.0315371e+2, -914099.94, -1135752.9, 92066.06, 0.20076607, 0.22283457, -880847.75, 68267.21, 0.0, 10.001496, 9.998503 
2.7849495e+3, 2.1314673e+2, -793931.9, -952956.3, 146301.63, -0.021572167, 0.2322956, -706931.75, 144255.92, 0.0, 10.001414, 9.999065 
2.7845967e+3, 2.2314067e+2, -717665.7, -710696.75, 72105.51, -0.11176883, 0.28383428, -641991.56, 111257.55, 0.0, 10.000505, 10.000547 
2.7842453e+3, 2.331362e+2, -641246.0, -462413.84, -815.2313, 0.08138918, 0.2704131, -462410.13, 192879.66, 0.0, 9.99975, 10.001885 
2.7838933e+3, 2.4313083e+2, -838762.4, -837115.56, -16311.259, 0.18056722, 0.27509493, -821606.94, -264265.47, 0.0, 9.999067, 9.999022 
2.783539e+3, 2.531231e+2, -509402.53, -592812.4, -21862.1, 0.051744055, 0.17893629, -504019.75, -44597.81, 0.0, 10.000581, 9.999243 
2.7831864e+3, 2.6311666e+2, -394278.13, -566262.8, 99760.87, -0.030266767, 0.25441262, -348562.78, 12926.341, 0.0, 10.001005, 9.99859 
2.782837e+3, 2.731125e+2, -219001.33, -323230.66, 73957.52, -0.05840173, 0.5033748, -180641.39, 82890.49, 0.0, 10.001141, 9.999474 
2.7824867e+3, 2.8310663e+2, -230407.6, -482983.66, -39184.492, -0.069900684, 0.64409673, -224468.2, -58878.516, 0.0, 10.001165, 9.997754 
2.7821344e+3, 2.9309636e+2, 99863.805, -210306.34, -101764.69, -0.08195134, 0.38313308, 130271.14, 197957.11, 0.0, 10.002519, 9.998256 
2.781783e+3, 3.030864e+2, 13359.787, -527735.5, 115710.05, -0.2017954, 0.28616494, 37065.168, 37065.168, 0.0, 10.002638, 9.9953985 
2.7814376e+3, 3.1307673e+2, 51366.04, -391322.7, 121107.805, -0.21443234, 0.27007166, 82331.86, 82331.86, 0.0, 10.002209, 9.996157 
2.7810937e+3, 3.2306778e+2, 195666.53, 307325.34, 151563.47, -0.17961569, 0.20152132, 413015.0, 413015.0, 0.0, 10.000409, 10.0018425 
2.797767e+3, 1.3354406e+2, -1603630.0, -1488153.4, 4873.709, -0.002183724, -0.2129863, -1487948.0, 143328.4, 0.0011672289, 10.000088, 10.0013485 
2.7974188e+3, 1.4354677e+2, -1670833.4, -1566537.6, 391.6938, 0.5069227, 0.51354796, -1566536.1, -33281.895, 0.00050489313, 9.999247, 10.000683 
2.797061e+3, 1.5353818e+2, -1221434.1, -1131494.4, 44852.574, 0.044728417, 0.059885573, -1112950.1, 322381.97, 0.00013439951, 10.001023, 10.00208 
2.796707e+3, 1.6353118e+2, -1292515.6, -1535796.5, 79294.875, -0.09242993, -0.07280552, -1268952.5, 68449.07, 0.000016423304, 10.001592, 9.998422 
2.7963573e+3, 1.7352703e+2, -1355925.8, -1479131.4, 86787.88, 0.14325015, 0.26524696, -1311100.0, -71644.586, 0.0000003300107, 10.000436, 9.998629 
2.796005e+3, 1.8352197e+2, -1255759.6, -1270427.5, -9429.209, 0.12153611, 0.4703112, -1251148.0, -109636.78, 0.0, 9.999871, 9.999712 
2.795648e+3, 1.9351448e+2, -927972.94, -948420.2, 8117.421, -0.196431, 0.27400935, -925142.25, 118436.375, 0.0, 10.001059, 10.00062 
2.7952936e+3, 2.0350751e+2, -802698.6, -960540.8, 101706.38, -0.30681518, 0.18234396, -752884.6, 192758.33, 0.0, 10.001741, 9.999576 
2.794944e+3, 2.135008e+2, -703308.56, -803895.5, 168580.72, -0.12138259, 0.13132448, -577679.06, 270029.53, 0.0, 10.001578, 10.000017 
2.794593e+3, 2.2349504e+2, -687312.75, -808470.5, 65321.13, 0.009650068, 0.20613074, -658803.75, 90963.41, 0.0, 10.0011425, 9.999569 
2.7942398e+3, 2.3349072e+2, -685595.25, -676839.4, -13935.015, 0.10392465, 0.37529925, -666610.8, -14795.609, 0.0, 10.000219, 10.000192 
2.7938867e+3, 2.434852e+2, -679574.4, -746190.2, 26316.379, 0.14888255, 0.46395427, -670432.7, -116560.734, 0.0, 10.000046, 9.999182 
2.7935347e+3, 2.5347692e+2, -370157.06, -501086.38, 51066.313, 0.10123476, 0.2969456, -352595.28, 103356.85, 0.0, 10.001345, 9.999549 
2.7931827e+3, 2.634687e+2, -309132.78, -610229.94, 117171.016, 0.033283345, 0.2158573, -268909.44, 89122.8, 0.0, 10.001891, 9.997868 
2.7928326e+3, 2.734606e+2, -239189.25, -487852.72, 63614.938, -0.0631683, 0.2039631, -223859.83, 36253.223, 0.0, 10.001602, 9.998142 
2.792482e+3, 2.8345284e+2, -130374.4, -507017.0, 11304.441, -0.121932104, 0.2704077, -130035.414, 32154.25, 0.0, 10.002143, 9.997104 
2.7921316e+3, 2.9344493e+2, 333614.16, -184647.52, -43858.457, -0.15733159, 0.33433348, 337299.53, 401565.94, 0.0, 10.004471, 9.997492 
2.7917826e+3, 3.0343547e+2, 460333.6, -268344.88, 81243.68, -0.15104751, 0.31282458, 469281.94, 469281.94, 0.0, 10.005428, 9.995859 
2.7914396e+3, 3.134235e+2, 357901.72, -219234.3, 94168.46, 0.20368658, 0.05753854, 372878.1, 372878.1, 0.0, 10.004102, 9.996485 
2.791088e+3, 3.2341394e+2, -9565.946, -15912.585, -48382.805, -0.16929407, 0.0033234744, 35747.492, 35747.492, 0.0, 9.999837, 9.999935 
2.807763e+3, 1.3389948e+2, -1651151.3, -1591103.8, 66759.98, 0.20098948, -0.17763399, -1547927.0, 79860.02, 0.0005662577, 10.000021, 10.000713 
2.8074092e+3, 1.4389893e+2, -1618834.5, -1635738.5, 88835.055, 0.19674657, 0.313383, -1538050.3, -8251.199, 0.00022570654, 9.999984, 9.999864 
2.8070554e+3, 1.5389225e+2, -1260698.8, -1248685.6, 51837.438, 0.015920429, 0.13695283, -1202507.9, 229355.23, 0.00005282333, 10.001156, 10.001223 
2.8067034e+3, 1.6388561e+2, -1312299.4, -1577179.9, -8178.773, 0.010215639, 0.098305106, -1312047.1, 21883.336, 0.000004777361, 10.001602, 9.998105 
2.8063527e+3, 1.7387925e+2, -1204413.3, -1438318.8, 3816.9583, 0.17433625, 0.22032419, -1204351.0, 31651.057, 0.00000002399446, 10.001565, 9.998359 
2.8059998e+3, 1.8387294e+2, -1097873.0, -1204307.8, -48052.184, 0.16504623, 0.3138045, -1079388.9, 58679.26, 0.0, 10.001054, 9.999577 
2.8056428e+3, 1.93866e+2, -1016315.44, -1004835.06, -86629.36, -0.14722516, 0.17537686, -923755.94, 116375.734, 0.0, 10.000545, 10.000473 
2.805289e+3, 2.0385945e+2, -1010781.6, -1053201.0, -15528.112, -0.273383, 0.12493901, -1005704.94, -63512.85, 0.0, 10.000274, 9.999657 
2.8049397e+3, 2.1385324e+2, -757396.1, -789913.3, -16251.032, -0.07660678, 0.06425055, -750666.94, 93584.3, 0.0, 10.00102, 10.000378 
2.8045887e+3, 2.238476e+2, -794750.94, -997830.75, -132674.38, 0.06645134, 0.163649, -729219.5, 17090.104, 0.0, 10.001087, 9.998283 
2.804234e+3, 2.3384243e+2, -645678.4, -815122.0, -203909.81, 0.096936435, 0.3682766, -509590.34, 138780.13, 0.0, 10.00123, 9.99876 
2.803881e+3, 2.4383646e+2, -640552.44, -787442.5, -107573.836, 0.13037324, 0.50943613, -583742.7, -33308.41, 0.0, 10.000654, 9.998591 
2.8035298e+3, 2.5382856e+2, -542715.9, -591350.44, -130647.9, 0.13777027, 0.37349793, -434141.44, 18366.855, 0.0, 10.000293, 9.9993925 
2.8031787e+3, 2.6381975e+2, -611063.94, -857716.3, -51427.688, 0.08029488, 0.26444134, -600770.7, -246178.9, 0.0, 10.000295, 9.996937 
2.8028283e+3, 2.7380902e+2, -222425.52, -567064.8, -39890.84, -0.06516959, 0.033740148, -217868.55, 38827.234, 0.0, 10.00211, 9.997352 
2.8024784e+3, 2.8380015e+2, -137459.05, -598911.6, -6725.3267, -0.14858058, 0.063827, -137361.06, 21421.598, 0.0, 10.00253, 9.996283 
2.802129e+3, 2.9379365e+2, -35059.477, -415406.03, -18920.791, -0.1679729, 0.30484602, -34120.56, 26727.463, 0.0, 10.002228, 9.996982 
2.8017816e+3, 3.0378476e+2, -67512.47, -464209.63, 62161.91, -0.09490796, 0.35194048, -57999.887, -57999.887, 0.0, 10.001646, 9.996297 
2.801439e+3, 3.1377184e+2, -2601.2747, -298571.25, 109913.445, 0.43353367, -0.08972822, 33751.8, 33751.8, 0.0, 10.001312, 9.997231 
2.8010795e+3, 3.2376233e+2, -382947.72, -318838.2, -139942.38, -0.35503945, -0.13456933, -207326.33, -207326.33, 0.0, 9.998036, 9.99863 
2.8177574e+3, 1.3425621e+2, -1823214.5, -1819268.9, -54413.945, 0.22397073, -0.07777299, -1766792.0, -142509.42, 0.00024922597, 9.9995365, 9.999354 
2.8173968e+3, 1.4424935e+2, -1758769.5, -1865297.9, 80319.66, -0.47233987, -0.09846064, -1715657.8, -189298.98, 0.00009135414, 9.9997835, 9.998362 
2.817051e+3, 1.542461e+2, -1411282.8, -1500115.6, 98338.32, 0.047345765, 0.21946283, -1347795.4, 80601.734, 0.000018191195, 10.000924, 9.999599 
2.8167015e+3, 1.6424002e+2, -1334346.1, -1572714.5, -2634.298, 0.24986748, 0.32613596, -1334317.0, -3856.2078, 0.000001253609, 10.001395, 9.99824 
2.8163463e+3, 1.7423049e+2, -1216127.3, -1405590.6, 37007.086, -0.011390922, 0.10400743, -1209155.4, 23400.533, 0.0000000065346386, 10.001331, 9.9987 
2.8159925e+3, 1.8422249e+2, -1142007.3, -1267067.9, -61638.152, -0.08572219, 0.037176456, -1116734.9, 17900.656, 0.0, 10.00097, 9.999159 
2.8156403e+3, 1.942159e+2, -1059861.0, -1108352.4, -75688.74, 0.100363776, 0.011279081, -1004629.44, 32071.045, 0.0, 10.000608, 9.999728 
2.8152877e+3, 2.0420988e+2, -967636.75, -1026076.9, 20688.229, 0.138565, 0.059439745, -961054.4, -22295.125, 0.0, 10.00053, 9.999714 
2.8149357e+3, 2.142043e+2, -728263.9, -789663.4, 39516.063, 0.00431472, 0.07804249, -708923.7, 131890.25, 0.0, 10.001241, 10.000286 
2.814583e+3, 2.241979e+2, -753800.44, -1062810.6, -130807.55, -0.049992356, 0.14935426, -705864.3, 37016.79, 0.0, 10.00171, 9.99754 
2.8142288e+3, 2.3419015e+2, -614719.1, -914846.9, -181714.48, -0.00018556426, 0.20371117, -529115.2, 115852.61, 0.0, 10.001887, 9.997778 
2.8138754e+3, 2.4418303e+2, -561759.5, -847530.5, -134382.98, 0.045039404, 0.3265541, -508494.44, 38550.207, 0.0, 10.001571, 9.997739 
2.8135237e+3, 2.5417632e+2, -570208.3, -734378.8, -177669.05, 0.08358122, 0.43110263, -456578.75, -7466.745, 0.0, 10.000614, 9.998275 
2.8131732e+3, 2.641685e+2, -459531.44, -699058.06, -9704.209, 0.06076397, 0.44251972, -459138.94, -107951.67, 0.0, 10.000884, 9.997771 
2.812825e+3, 2.7415854e+2, -43429.813, -409421.88, 21630.45, -0.045927685, 0.23143184, -42155.867, 211123.16, 0.0, 10.002925, 9.998098 
2.8124765e+3, 2.8414983e+2, 53577.645, -420045.1, -40408.766, -0.04877291, 0.20323847, 57000.523, 212361.88, 0.0, 10.003383, 9.997127 
2.8121275e+3, 2.9414254e+2, -25493.568, -362388.06, -48453.344, 0.05285304, 0.3289958, -18663.318, 38769.914, 0.0, 10.001995, 9.997501 
2.811777e+3, 3.0413494e+2, -3088.3098, -173014.3, 88934.734, -0.021572342, 0.37649667, 34945.023, 34945.023, 0.0, 10.000924, 9.998643 
2.811429e+3, 3.1412655e+2, 58190.145, -29683.13, 166715.13, -0.047064595, 0.186204, 186661.06, 186661.06, 0.0, 10.000627, 9.9994335 
2.8110734e+3, 3.2412016e+2, -15491.711, 316033.94, -225717.86, -0.16554883, 0.14734682, 430317.3, 430317.3, 0.0, 9.99843, 10.002851 
2.82775e+3, 1.34609e+2, -1667767.0, -1691749.4, -290500.44, 0.13098064, 0.17758001, -1389010.4, 231826.39, 0.00010695086, 10.000368, 9.999823 
2.8273913e+3, 1.4459902e+2, -1618050.4, -1735541.5, -54753.348, -0.41169378, -0.19429429, -1596490.5, -73553.7, 0.000035101017, 10.000484, 9.998901 
2.827046e+3, 1.5459643e+2, -1371502.8, -1449300.6, 12957.249, 0.053833827, 0.14887486, -1369401.4, 55563.914, 0.0000055355054, 10.001099, 9.999845 
2.8266966e+3, 1.6459125e+2, -1345003.9, -1476423.4, -65281.113, 0.24169558, 0.28665143, -1318088.6, 8929.525, 0.0000002527922, 10.000911, 9.999138 
2.8263402e+3, 1.7458242e+2, -1373620.0, -1377510.0, -16580.81, -0.049181536, 0.044003844, -1358870.5, -129766.3, 0.0, 9.999858, 9.99961 
2.8259864e+3, 1.84575e+2, -1326778.5, -1378894.5, -19760.549, -0.108014695, -0.0044284672, -1320133.3, -188955.47, 0.0, 9.999755, 9.999004 
2.8256354e+3, 1.9456884e+2, -1015013.4, -1125197.9, -6182.6387, 0.18048747, 0.03138746, -1014667.56, 18573.256, 0.0, 10.001034, 9.999432 
2.825284e+3, 2.0456314e+2, -934336.56, -1014899.56, 102488.09, 0.27773649, 0.13473226, -864498.06, 70800.48, 0.0, 10.000829, 9.999616 
2.8249305e+3, 2.1455759e+2, -1015613.9, -932707.3, 105116.48, 0.07526044, 0.15595451, -861165.7, -23811.791, 0.0, 9.99934, 10.000191 
2.8245777e+3, 2.245508e+2, -1075495.6, -1250241.5, 40820.438, -0.048278958, 0.22332904, -1066430.3, -327005.47, 0.0, 9.999692, 9.9972 
2.8242242e+3, 2.3454191e+2, -573074.56, -907583.56, 51208.42, -0.042443085, 0.1735569, -565410.9, 76109.84, 0.0, 10.002295, 9.997598 
2.8238714e+3, 2.445337e+2, -386604.56, -921885.6, 71314.1, -0.020904932, 0.29110837, -377266.47, 166342.45, 0.0, 10.003539, 9.996264 
2.823519e+3, 2.5452608e+2, -225552.4, -722859.25, -11423.723, 0.03660065, 0.44619343, -225290.13, 220399.78, 0.0, 10.003696, 9.996858 
2.8231692e+3, 2.645183e+2, -147553.83, -513435.06, 193801.11, 0.047933392, 0.54712915, -63987.152, 283779.1, 0.0, 10.002972, 9.998001 
2.8228226e+3, 2.7450937e+2, -133960.83, -380762.53, 197367.95, -0.0040405425, 0.37564483, -24591.668, 225254.33, 0.0, 10.002078, 9.99866 
2.8224742e+3, 2.84501e+2, -155856.53, -472689.9, 64597.52, -0.000776037, 0.35057354, -143192.3, 8731.021, 0.0, 10.001837, 9.997474 
2.8221247e+3, 2.9449284e+2, 137097.39, -211036.95, 54151.797, 0.1179591, 0.31668937, 145326.13, 199328.53, 0.0, 10.002876, 9.998082 
2.821772e+3, 3.044862e+2, 170199.66, 54398.746, 119642.31, -0.06614319, 0.38295835, 245215.5, 245215.5, 0.0, 10.001558, 9.999887 
2.8214192e+3, 3.1448126e+2, -203396.39, 20804.676, 102152.836, -0.42246068, 0.37431017, 60367.363, 60367.363, 0.0, 9.998118, 10.000975 
2.8210688e+3, 3.2447696e+2, 298391.78, 834497.06, -447268.75, 0.102529496, 0.28429508, 1087886.3, 1087886.3, 0.0, 9.999157, 10.006017 
2.8377438e+3, 1.3496016e+2, -1750885.8, -1609820.0, -266551.34, 0.008810358, 0.48526427, -1404627.5, 212785.73, 0.000050519295, 9.999315, 10.000877 
2.8373888e+3, 1.4494859e+2, -1551808.1, -1570505.1, 7973.8354, -0.15064698, -0.15717879, -1548869.4, -29349.854, 0.000015386411, 10.000405, 10.000052 
2.83704e+3, 1.5494516e+2, -1391562.3, -1345425.3, 80326.75, -0.04852575, -0.0096276, -1284920.3, 136628.34, 0.0000020566958, 10.000496, 10.000839 
2.8366894e+3, 1.649408e+2, -1326156.3, -1325937.4, -100244.55, 0.029440135, 0.10852921, -1225802.3, 97787.46, 0.00000005936716, 10.000455, 10.000371 
2.8363344e+3, 1.7493476e+2, -1267062.4, -1203135.8, -43465.574, -0.044489574, 0.022902677, -1181146.1, 44503.9, 0.0, 10.0000515, 10.000713 
2.835981e+3, 1.849293e+2, -1229812.0, -1279697.4, 16435.002, -0.06502723, 0.09167474, -1224884.3, -97178.664, 0.0, 10.000173, 9.9994955 
2.8356293e+3, 1.9492404e+2, -965933.4, -1062702.9, 59268.137, 0.03659777, 0.18580654, -937808.06, 91952.19, 0.0, 10.001187, 9.999797 
2.8352773e+3, 2.0491888e+2, -887284.6, -955528.94, 56549.496, 0.11378108, 0.30919895, -855360.06, 76453.16, 0.0, 10.000996, 9.999945 
2.8349245e+3, 2.1491326e+2, -980851.25, -914740.4, 81704.555, 0.100120515, 0.33118218, -859657.9, -25788.293, 0.0, 9.999548, 10.000232 
2.8345725e+3, 2.2490686e+2, -915989.06, -1043008.6, 157963.2, 0.031249873, 0.3870122, -809246.5, -73312.02, 0.0, 10.000197, 9.998386 
2.8342208e+3, 2.3489922e+2, -419900.78, -725883.2, 194793.77, -0.0651901, 0.37251756, -325200.8, 312811.78, 0.0, 10.002832, 9.998612 
2.833869e+3, 2.4489006e+2, -349265.88, -1045174.6, 129298.57, -0.08642654, 0.4111672, -326019.0, 214089.34, 0.0, 10.004368, 9.9950285 
2.8335172e+3, 2.5487915e+2, -164937.48, -875444.56, 67974.75, -0.020682063, 0.40832156, -158492.75, 283731.22, 0.0, 10.004829, 9.995293 
2.8331673e+3, 2.6487017e+2, 57132.297, -363143.28, 207001.81, 0.033076875, 0.4509242, 141965.08, 486278.38, 0.0, 10.004115, 9.998484 
2.8328192e+3, 2.748627e+2, -88685.836, -349612.06, 192085.4, 0.05300942, 0.42848626, 13052.312, 259433.14, 0.0, 10.002322, 9.998766 
2.8324696e+3, 2.8485495e+2, -24082.836, -293408.9, 189774.19, -0.039401777, 0.41366982, 73952.164, 222403.4, 0.0, 10.002191, 9.998551 
2.8321183e+3, 2.9484653e+2, 358491.38, -37711.613, 192980.17, -0.25215352, 0.3044033, 436950.1, 487478.84, 0.0, 10.00404, 9.99874 
2.8317663e+3, 3.0483872e+2, 257950.72, -11748.714, 7869.431, -0.2797276, 0.27221975, 258180.14, 258180.14, 0.0, 10.0025425, 9.998983 
2.8314158e+3, 3.1483188e+2, -375345.2, -234761.53, -80097.73, 0.07096768, 0.21788166, -198486.08, -198486.08, 0.0, 9.997575, 9.999521 
2.831063e+3, 3.248247e+2, 280440.63, 227870.73, -133719.7, 0.088561654, 0.1726506, 390434.28, 390434.28, 0.0, 10.001475, 10.000783 
2.847739e+3, 1.3530895e+2, -1803656.3, -1596918.4, 53259.65, 0.251924, 0.23425059, -1584004.4, 29994.99, 0.000026714957, 9.998653, 10.001359 
2.847383e+3, 1.4530398e+2, -1382262.9, -1418784.6, 60822.984, -0.20143653, 0.22460452, -1337018.8, 179021.33, 0.000008259592, 10.001231, 10.000714 
2.8470355e+3, 1.5529762e+2, -1537322.0, -1380306.5, 85354.055, 0.13221918, 0.04871575, -1342845.4, 75249.71, 0.0000013335809, 9.999295, 10.001198 
2.8466848e+3, 1.6529201e+2, -1493741.5, -1472632.1, -39054.445, 0.20555577, 0.06219715, -1442731.3, -122582.38, 0.000000073245815, 9.999621, 9.999746 
2.8463298e+3, 1.7528643e+2, -1011376.2, -1150960.5, -99625.34, -0.0003202842, 0.08462328, -959528.94, 262678.9, 0.0, 10.002137, 10.000053 
2.8459764e+3, 1.8528129e+2, -837788.94, -1047022.7, -123228.0, -0.062315047, 0.1887725, -780758.56, 343501.6, 0.0, 10.002715, 9.999859 
2.8456244e+3, 1.952762e+2, -881800.4, -994911.9, -114645.74, 0.015566528, 0.24494809, -810519.5, 215791.39, 0.0, 10.001672, 10.000025 
2.8452718e+3, 2.0527068e+2, -843349.75, -971060.3, -132598.63, 0.07201218, 0.32618955, -760032.06, 168334.13, 0.0, 10.00149, 9.999595 
2.8449193e+3, 2.1526434e+2, -657153.75, -806863.1, -161980.72, 0.09341075, 0.28128344, -553568.06, 276861.25, 0.0, 10.002035, 9.99976 
2.8445676e+3, 2.2525825e+2, -643017.8, -885253.5, -30036.371, 0.044992726, 0.36479986, -639349.0, 93141.24, 0.0, 10.001966, 9.998632 
2.844217e+3, 2.3525187e+2, -533236.9, -764609.6, -49326.08, -0.07488906, 0.40842173, -523160.0, 111393.57, 0.0, 10.001981, 9.99878 
2.843866e+3, 2.4524301e+2, -640745.75, -1152352.0, -67272.766, -0.10422549, 0.4343992, -632047.75, -95403.91, 0.0, 10.002249, 9.995323 
2.843515e+3, 2.552313e+2, -480614.1, -1001243.3, 26293.545, -0.018311609, 0.28912416, -479289.53, -40524.773, 0.0, 10.0026045, 9.995492 
2.8431645e+3, 2.6522228e+2, -309844.0, -571767.44, 155342.75, 0.039726935, 0.33860612, -237625.16, 103229.41, 0.0, 10.001823, 9.998119 
2.8428152e+3, 2.752154e+2, -404627.9, -539533.5, 100331.26, 0.07954946, 0.38258225, -351183.06, -108263.78, 0.0, 10.000394, 9.998353 
2.8424647e+3, 2.8520787e+2, -320021.47, -407817.4, 185351.52, -0.0987184, 0.3989973, -173440.53, -28452.355, 0.0, 10.000091, 9.998757 
2.842113e+3, 2.9519928e+2, -79204.94, -227913.4, 145833.94, -0.49764127, 0.21722622, 10135.935, 57201.84, 0.0, 10.000995, 9.99889 
2.841761e+3, 3.051909e+2, -50786.055, -272635.97, -209081.47, -0.3944928, 0.16763052, 74973.19, 74973.19, 0.0, 10.001023, 9.997884 
2.8414118e+3, 3.1518242e+2, -136473.95, -256139.98, -218508.1, 0.45757172, 0.03474939, 30244.96, 30244.96, 0.0, 9.999926, 9.998195 
2.8410566e+3, 3.2517296e+2, -169621.81, -499366.44, 421980.25, -0.1565553, 0.030101895, 118551.34, 118551.34, 0.0, 10.000744, 9.996061 
2.8577334e+3, 1.3565868e+2, -1644208.3, -1472600.6, 288481.1, 0.38029295, -0.028489217, -1257433.4, 353137.6, 0.000013313175, 9.999589, 10.001754 
2.8573763e+3, 1.4566132e+2, -1410100.0, -1412681.0, -31010.791, -0.41708162, 0.70603037, -1380352.9, 132186.11, 0.0000038169696, 10.000986, 10.000854 
2.8570318e+3, 1.556517e+2, -1494142.8, -1381844.5, 8166.8467, 0.40356788, 0.1865919, -1381253.6, 33372.188, 0.0000005153316, 9.999702, 10.000983 
2.8566816e+3, 1.6564417e+2, -1517876.6, -1651853.4, 26965.17, 0.50311005, 0.09821418, -1512653.0, -195951.97, 0.00000002542409, 10.000178, 9.998247 
2.8563258e+3, 1.7563787e+2, -1122304.6, -1375664.6, 11117.033, -0.017857954, 0.20957401, -1121817.8, 96953.39, 0.0, 10.002114, 9.998523 
2.8559723e+3, 1.8563198e+2, -826485.25, -993729.8, -144602.83, -0.14979196, 0.29217598, -743066.6, 377763.9, 0.0, 10.0026, 10.000265 
2.85562e+3, 1.9562608e+2, -872341.44, -966319.56, -113960.14, 0.025424043, 0.24641635, -796062.94, 226821.89, 0.0, 10.00162, 10.000246 
2.8552672e+3, 2.0561895e+2, -871040.9, -1065641.5, -97909.266, 0.04577029, 0.19552724, -830306.5, 94646.84, 0.0, 10.001613, 9.998886 
2.854914e+3, 2.1561043e+2, -675549.6, -904891.1, -110630.98, -0.049817603, 0.01892807, -630882.44, 196154.31, 0.0, 10.002246, 9.998991 
2.8545627e+3, 2.2560386e+2, -571356.0, -879162.44, -33403.188, -0.09369121, 0.105297215, -567772.8, 161330.23, 0.0, 10.002558, 9.998387 
2.8542128e+3, 2.3559827e+2, -478161.28, -771625.56, -47917.89, -0.12929542, 0.27857056, -470535.25, 160626.13, 0.0, 10.0024395, 9.998527 
2.8538626e+3, 2.4559104e+2, -338075.3, -607655.8, -66269.8, -0.07948022, 0.29409942, -322665.38, 210565.61, 0.0, 10.002553, 9.998932 
2.853512e+3, 2.5558218e+2, -208078.8, -498325.16, 63495.457, 0.03899609, 0.10597574, -194796.13, 240517.77, 0.0, 10.002801, 9.998875 
2.8531605e+3, 2.6557398e+2, -353219.56, -693308.6, 115791.9, 0.05639227, 0.11521738, -317538.78, 19854.629, 0.0, 10.001903, 9.997271 
2.8528085e+3, 2.755662e+2, -455456.4, -662081.94, 69234.164, -0.01823647, 0.19871071, -434403.22, -194932.53, 0.0, 10.000411, 9.997527 
2.8524587e+3, 2.855578e+2, -354200.2, -485325.06, 203424.86, -0.10808659, 0.18768759, -206033.58, -64479.938, 0.0, 10.000036, 9.998286 
2.85211e+3, 2.955487e+2, -181455.83, -332459.63, 134624.06, -0.23805398, 0.033536054, -102606.91, -58963.766, 0.0, 10.000479, 9.998447 
2.8517577e+3, 3.0554143e+2, 72636.58, -102519.98, -180272.56, -0.22103052, 0.056601536, 185478.25, 185478.25, 0.0, 10.001323, 9.998942 
2.8514048e+3, 3.1553528e+2, 316426.34, 46905.906, -139576.64, 0.18066847, 0.097543746, 375681.47, 375681.47, 0.0, 10.002613, 9.999018 
2.851053e+3, 3.255277e+2, 28712.584, -218769.66, 387030.5, -0.05166913, 0.16733378, 311301.97, 311301.97, 0.0, 10.001124, 9.997889 
2.8677282e+3, 1.360139e+2, -1305422.5, -1562137.8, 292511.4, 0.26479772, 0.20562099, -1114345.4, 492734.78, 0.000005962988, 10.002955, 9.999537 
2.8673735e+3, 1.460087e+2, -1349585.6, -1587281.6, -118201.04, -0.2318768, 0.36452633, -1300814.0, 208319.38, 0.0000015122073, 10.002273, 9.999043 
2.8670275e+3, 1.5600011e+2, -1171311.8, -1421113.3, -184496.03, 0.4494277, 0.12820844, -1073414.4, 337800.9, 0.0000000966577, 10.002735, 9.999261 
2.8666764e+3, 1.659938e+2, -1105062.5, -1335630.3, -100223.26, 0.45699802, 0.16417688, -1067588.3, 245690.92, 0.00000000026919006, 10.002466, 9.999342 
2.866321e+3, 1.7598885e+2, -1148902.1, -1312246.3, -15998.13, -0.1040628, 0.30503318, -1147350.0, 67982.84, 0.0, 10.00153, 9.99927 
2.8659672e+3, 1.8598272e+2, -1123940.6, -1185028.6, -161997.95, -0.19510718, 0.35668752, -989632.3, 127762.73, 0.0, 10.00082, 9.99978 
2.8656155e+3, 1.9597563e+2, -1112554.4, -1134080.8, -192747.28, 0.08727246, 0.23335956, -930270.06, 89193.67, 0.0, 10.00026, 9.999717 
2.8652626e+3, 2.0596842e+2, -1008267.75, -1102025.1, -78970.5, 0.08342935, 0.18503149, -963309.9, -41777.777, 0.0, 10.000557, 9.999142 
2.8649092e+3, 2.1596046e+2, -809326.4, -962982.94, -30023.32, -0.10770532, 0.03361017, -803668.4, 19939.19, 0.0, 10.001285, 9.999066 
2.864558e+3, 2.2595342e+2, -761364.06, -926727.1, 90135.016, -0.14397049, 0.05877493, -721732.25, 3944.4092, 0.0, 10.001121, 9.998707 
2.8642088e+3, 2.3594688e+2, -772641.7, -875134.1, 112192.15, -0.08079841, 0.10252376, -700545.9, -72803.125, 0.0, 10.000348, 9.998762 
2.8638586e+3, 2.4594088e+2, -557523.06, -528467.25, 71912.14, -0.040968347, 0.16030133, -469630.2, 60169.18, 0.0, 10.000358, 10.000459 
2.8635076e+3, 2.5593445e+2, -427488.44, -465807.97, 20310.521, 0.011891409, 0.036835942, -418726.66, 13129.566, 0.0, 10.000773, 10.000024 
2.863156e+3, 2.6592672e+2, -421510.56, -775870.25, 27026.246, 0.011600691, 0.06680926, -419461.2, -85531.305, 0.0, 10.001699, 9.9967785 
2.8628033e+3, 2.759179e+2, -175125.67, -599247.5, 47992.695, -0.050384108, 0.063140176, -169762.73, 66255.81, 0.0, 10.002665, 9.996875 
2.862454e+3, 2.8590927e+2, -218366.89, -445581.22, 217185.77, -0.041259065, 0.08592439, -86869.49, 51237.043, 0.0, 10.001192, 9.997962 
2.8621066e+3, 2.9590032e+2, -532030.5, -541903.25, 180847.9, 0.01605529, -0.027865505, -356051.56, -315852.4, 0.0, 9.99833, 9.998018 
2.861753e+3, 3.0589363e+2, -137681.88, -107488.19, -28711.557, -0.14078112, 0.03537908, -90146.34, -90146.34, 0.0, 9.99954, 9.999726 
2.8613973e+3, 3.158889e+2, 365893.3, 127226.94, -1633.3154, -0.23472875, 0.12183236, 365904.5, 365904.5, 0.0, 10.002776, 9.999463 
2.8610504e+3, 3.2588285e+2, 179676.97, 70686.08, 242265.6, 0.11742489, 0.21621388, 373500.63, 373500.63, 0.0, 10.001345, 9.99973 
2.877724e+3, 1.363689e+2, -1612498.3, -2044715.1, 101809.2, 0.108735286, 0.4730266, -1589717.8, 13872.279, 0.0000021473002, 10.002324, 9.996516 
2.8773722e+3, 1.4635234e+2, -1509614.9, -1931779.3, -118929.2, 0.023403555, -0.23946442, -1478416.6, 27347.193, 0.00000043033984, 10.002341, 9.996639 
2.8770226e+3, 1.5634625e+2, -1374220.1, -1734223.8, -121573.664, 0.27245978, 0.022189343, -1337010.5, 70818.17, 0.000000019645139, 10.002276, 9.997335 
2.8766704e+3, 1.6634238e+2, -1007616.9, -1006341.6, -103615.836, 0.18006076, 0.24846861, -903361.44, 406505.78, 0.0, 10.001931, 10.001854 
2.8763148e+3, 1.763398e+2, -1078346.0, -1062263.3, -22718.555, -0.28724504, 0.39389306, -1046204.9, 165685.67, 0.0, 10.001085, 10.001199 
2.8759614e+3, 1.8633346e+2, -1203775.8, -1336936.5, -176428.0, -0.26067927, 0.39889058, -1081783.0, 32173.38, 0.0, 10.0007305, 9.998792 
2.8756103e+3, 1.9632457e+2, -1158773.0, -1252420.8, -161313.66, 0.11514953, 0.21189332, -1037625.0, -21574.55, 0.0, 10.000319, 9.9988985 
2.8752577e+3, 2.0631899e+2, -861905.9, -841049.94, -29787.027, 0.10165328, 0.2696733, -819918.3, 98185.2, 0.0, 10.000761, 10.000817 
2.874904e+3, 2.1631484e+2, -659481.25, -721783.44, 32551.67, -0.17893904, 0.3611535, -645576.8, 174561.08, 0.0, 10.001569, 10.0005865 
2.8745535e+3, 2.2630765e+2, -603814.3, -682931.25, 85864.664, -0.1656777, 0.22252163, -548833.8, 173369.17, 0.0, 10.001457, 10.000222 
2.8742045e+3, 2.3629864e+2, -633026.2, -679154.7, 134839.19, 0.013674747, -0.104281485, -519292.9, 104994.055, 0.0, 10.000702, 9.999956 
2.873853e+3, 2.4629295e+2, -595315.75, -689872.25, 119299.36, -0.04014506, 0.0038330508, -514268.0, 12076.668, 0.0, 10.000657, 9.999239 
2.8735003e+3, 2.5628868e+2, -446082.5, -599824.06, 62591.258, -0.23675466, 0.25397956, -423823.16, 4568.536, 0.0, 10.001099, 9.998987 
2.8731504e+3, 2.662812e+2, -226555.63, -539151.0, 106591.984, -0.17442857, 0.27914345, -193668.7, 136796.25, 0.0, 10.002366, 9.998097 
2.8728023e+3, 2.762717e+2, 134318.4, -318212.16, 125689.12, 0.022445636, 0.1173026, 166884.61, 399439.97, 0.0, 10.004159, 9.998101 
2.8724515e+3, 2.8626472e+2, -25370.824, -275977.22, 114642.31, 0.12954372, 0.20591733, 19160.459, 153786.1, 0.0, 10.002148, 9.998676 
2.8721002e+3, 2.9625875e+2, -506482.38, -456021.03, 137244.86, 0.14914295, 0.35066813, -341706.94, -305018.53, 0.0, 9.9981165, 9.998732 
2.8717452e+3, 3.062511e+2, -63529.367, -1680.779, 224449.48, -0.28889474, 0.25070524, 193964.75, 193964.75, 0.0, 9.999666, 10.000417 
2.8713897e+3, 3.162432e+2, 677800.5, 304985.1, 197452.64, -0.7917264, -0.0076672356, 762935.4, 762935.4, 0.0, 10.0047, 9.999796 
2.871047e+3, 3.262386e+2, 200415.0, -216369.19, 23475.635, 0.14435437, 0.3769489, 201733.11, 201733.11, 0.0, 10.002664, 9.997138 
2.8877217e+3, 1.3671449e+2, -1494602.0, -1976788.4, -50729.48, 0.20336913, 0.36501762, -1489322.6, 110888.125, 0.0000003382392, 10.002991, 9.99667 
2.8873715e+3, 1.4670053e+2, -1163259.3, -1536841.8, -224865.16, 0.24621825, -0.227157, -1057723.0, 444633.13, 0.000000039050374, 10.003688, 9.9987135 
2.8870186e+3, 1.5669726e+2, -1300161.5, -1534714.4, -54243.227, 0.26520607, 0.14323841, -1288224.6, 116164.79, 0.0000000006124831, 10.002039, 9.998846 
2.8866652e+3, 1.6669312e+2, -1195521.3, -1106156.3, -17341.828, 0.16464418, 0.29630408, -1102908.9, 203520.44, 0.0, 10.000707, 10.00172 
2.8863102e+3, 1.7668863e+2, -1308528.8, -1173690.4, -78926.81, -0.12879682, 0.25007513, -1137307.9, 71163.42, 0.0, 9.999515, 10.001172 
2.8859565e+3, 1.8668307e+2, -1276418.5, -1276314.0, -139970.23, -0.15090102, 0.28008404, -1136396.0, -25867.174, 0.0, 9.999837, 9.999662 
2.885604e+3, 1.9667624e+2, -1057116.4, -1137435.4, -22125.605, 0.07491189, 0.21937333, -1051424.8, -38822.813, 0.0, 10.000733, 9.999518 
2.8852528e+3, 2.0667101e+2, -804919.1, -812729.25, 114669.16, 0.08809186, 0.30512646, -694088.56, 220564.17, 0.0, 10.001227, 10.000789 
2.884901e+3, 2.1666673e+2, -692820.75, -743038.25, 38981.004, -0.04364774, 0.38450083, -671561.75, 145128.61, 0.0, 10.001444, 10.000495 
2.8845495e+3, 2.2666033e+2, -646413.8, -635489.6, -20236.96, -0.06342308, 0.29880586, -619990.56, 98758.125, 0.0, 10.000942, 10.000795 
2.884199e+3, 2.3665233e+2, -755306.0, -711638.9, -39171.08, 0.031114278, 0.00041177438, -688627.4, -67804.875, 0.0, 9.999844, 10.000146 
2.883847e+3, 2.4664658e+2, -687542.25, -803347.06, 35085.914, -0.079430476, 0.12177034, -677741.56, -154859.03, 0.0, 10.000342, 9.998621 
2.8834945e+3, 2.5664195e+2, -503783.66, -700760.44, 43448.883, -0.31852147, 0.3821367, -494625.56, -69689.32, 0.0, 10.00108, 9.9983015 
2.8831455e+3, 2.6663476e+2, -382151.78, -497898.97, 110389.92, -0.2462258, 0.40876263, -315384.75, 11621.309, 0.0, 10.000877, 9.999076 
2.882799e+3, 2.7662557e+2, -451553.5, -529496.56, 85315.66, 0.04612982, 0.16256605, -396729.8, -167639.66, 0.0, 9.999916, 9.9986725 
2.8824475e+3, 2.8661954e+2, -284861.47, -390837.16, -66516.43, 0.16712241, 0.31065226, -252807.28, -121656.95, 0.0, 10.0003605, 9.998729 
2.8820932e+3, 2.966148e+2, -188357.52, -326275.0, -55448.402, 0.17055349, 0.54449064, -168829.9, -135629.27, 0.0, 10.000447, 9.99849 
2.8817382e+3, 3.0660638e+2, -77370.03, -5284.129, 146112.69, -0.37411746, 0.3656271, 109165.484, 109165.484, 0.0, 9.999669, 10.00037 
2.8813845e+3, 3.165961e+2, -282153.6, -257376.1, 49232.508, -1.0253696, -0.14055283, -218997.53, -218997.53, 0.0, 9.998632, 9.998844 
2.881043e+3, 3.2659322e+2, -306523.88, -676146.56, -220132.23, 0.13469438, 0.49224687, -203909.69, -203909.69, 0.0, 10.000353, 9.99499 
2.8977206e+3, 1.3705833e+2, -1468791.0, -1792459.8, 155213.03, 0.3299771, 0.24939296, -1406390.1, 190464.86, 0.0000000028010363, 10.002477, 9.998172 
2.8973705e+3, 1.4705099e+2, -1073159.3, -1073838.4, -196149.14, 0.36813492, 0.043519594, -877349.44, 621578.7, 0.0, 10.002535, 10.002426 
2.8970146e+3, 1.5705065e+2, -1190861.8, -1169728.9, -64891.895, 0.2669312, 0.34637168, -1114548.8, 286375.03, 0.0, 10.00145, 10.00163 
2.896661e+3, 1.6704467e+2, -1307980.0, -1320699.6, -44265.535, 0.24008901, 0.2808005, -1269619.8, 33361.777, 0.0, 10.000618, 10.000291 
2.896307e+3, 1.7703603e+2, -1336005.4, -1274271.9, -73670.43, 0.14697878, -0.029853808, -1225263.3, -20195.3, 0.0, 9.999693, 10.000399 
2.895952e+3, 1.8703227e+2, -1074189.6, -918687.9, -92607.65, -0.010232312, 0.07500936, -875519.9, 231584.58, 0.0, 10.000082, 10.002001 
2.895597e+3, 1.9703029e+2, -926322.6, -897185.5, 25314.621, -0.14503364, 0.29093057, -882546.6, 126576.42, 0.0, 10.000826, 10.001138 
2.8952473e+3, 2.0702375e+2, -883757.4, -1019076.06, 124126.45, 0.011908536, 0.26504192, -810047.9, 101140.84, 0.0, 10.001364, 9.999319 
2.8948995e+3, 2.1701518e+2, -730160.9, -895614.9, 65688.87, 0.22953711, 0.07233064, -707252.75, 106022.18, 0.0, 10.001704, 9.99934 
2.8945464e+3, 2.2701102e+2, -629306.6, -681468.9, -56871.242, 0.09521683, 0.2813258, -592821.3, 122498.25, 0.0, 10.001257, 10.000337 
2.894191e+3, 2.3700844e+2, -693551.4, -704458.3, -48365.15, -0.18701299, 0.5833662, -650333.25, -32984.016, 0.0, 10.000289, 10.000003 
2.8938407e+3, 2.470017e+2, -567078.44, -659678.56, 73914.72, -0.21641417, 0.55837524, -526159.94, -6743.8115, 0.0, 10.000747, 9.999427 
2.8934917e+3, 2.5699306e+2, -330816.97, -510957.22, 85411.35, -0.1741921, 0.34874418, -296759.22, 124741.516, 0.0, 10.001735, 9.999309 
2.8931415e+3, 2.6698592e+2, -306132.5, -386728.7, 71188.26, -0.14359644, 0.3001664, -264627.75, 58937.566, 0.0, 10.001036, 9.999779 
2.892791e+3, 2.7697906e+2, -456741.16, -490616.47, 69220.914, -0.10963921, 0.24581717, -402415.78, -176790.14, 0.0, 9.999643, 9.99908 
2.892439e+3, 2.869711e+2, -344584.13, -562697.56, -1825.8918, -0.092611775, 0.2583997, -344568.84, -216863.78, 0.0, 10.000492, 9.997503 
2.8920865e+3, 2.9696262e+2, 22103.523, -346449.56, -42920.566, -0.092091486, 0.2534718, 27035.912, 56828.96, 0.0, 10.002352, 9.997443 
2.8917348e+3, 3.0695343e+2, -119252.89, -226475.19, -35242.99, -0.09822564, 0.13386592, -108706.234, -108706.234, 0.0, 10.000226, 9.998612 
2.8913856e+3, 3.1694368e+2, -665307.06, -553812.2, -113640.0, 0.0024473746, -0.11657767, -482982.25, -482982.25, 0.0, 9.996425, 9.997933 
2.8910375e+3, 3.2694036e+2, 36207.145, -208707.28, -42177.727, 0.11772413, 0.4121592, 43267.227, 43267.227, 0.0, 10.0012455, 9.997915 
2.9077178e+3, 1.3741215e+2, -1310974.4, -1545465.4, 360945.13, 0.33416596, 0.2161732, -1048709.8, 544680.6, 0.00000000011876347, 10.002764, 9.999772 
2.9073638e+3, 1.4740805e+2, -1385435.0, -1332918.6, 36563.36, 0.20603184, 0.36044535, -1314161.5, 181267.77, 0.0, 10.000858, 10.001471 
2.9070106e+3, 1.5740252e+2, -1336650.5, -1310390.0, -34481.375, 0.36268774, 0.24390633, -1286623.5, 110854.195, 0.0, 10.000757, 10.000998 
2.906657e+3, 1.6739655e+2, -1250063.0, -1303076.8, -10980.899, 0.34334606, 0.21201122, -1247878.5, 51657.703, 0.0, 10.001069, 10.000197 
2.906302e+3, 1.7738977e+2, -1140464.9, -1206571.4, 22024.621, 0.20476675, 0.10149609, -1133799.0, 67806.12, 0.0, 10.001166, 10.000164 
2.9059467e+3, 1.8738547e+2, -964264.9, -893056.94, -41618.016, 0.014982701, 0.1882327, -873891.4, 229754.42, 0.0, 10.000978, 10.001714 
2.9055914e+3, 1.9738244e+2, -996321.7, -955641.56, -73448.164, -0.14543284, 0.29913446, -899769.06, 105903.6, 0.0, 10.000489, 10.000853 
2.9052418e+3, 2.0737557e+2, -1031714.44, -1112541.6, 44114.59, -0.03328275, 0.24401844, -1012300.3, -104558.61, 0.0, 10.000438, 9.999092 
2.9048944e+3, 2.1736659e+2, -980610.4, -1068941.4, 63642.47, 0.21693057, 0.019730916, -947310.06, -137476.39, 0.0, 10.0002165, 9.998852 
2.9045412e+3, 2.2736257e+2, -695205.25, -764119.2, -20053.342, 0.075183965, 0.28913835, -689794.7, 22084.215, 0.0, 10.001061, 9.999833 
2.9041857e+3, 2.3736073e+2, -532123.94, -683829.06, -16513.37, -0.23449142, 0.70303243, -530347.25, 83556.38, 0.0, 10.0016775, 9.9994545 
2.9038355e+3, 2.4735393e+2, -418911.5, -503609.94, 114143.484, -0.23537572, 0.65722656, -339514.3, 176455.06, 0.0, 10.001503, 10.00006 
2.9034877e+3, 2.5734448e+2, -490084.3, -542746.6, 92513.09, -0.08268659, 0.2909875, -420228.16, -2170.7622, 0.0, 10.000537, 9.999617 
2.9031366e+3, 2.6733792e+2, -326692.34, -349629.75, 38375.758, -0.114485085, 0.25613016, -298108.22, 22008.117, 0.0, 10.000745, 10.000144 
2.902784e+3, 2.7733228e+2, -352940.34, -468560.9, 23460.324, -0.22584838, 0.27089015, -348361.4, -126195.73, 0.0, 10.000514, 9.998814 
2.9024318e+3, 2.8732333e+2, -408579.0, -624325.3, 56711.793, -0.2747361, 0.22770825, -394579.9, -270325.6, 0.0, 10.000293, 9.997149 
2.90208e+3, 2.9731274e+2, -422073.16, -645383.75, 92160.2, -0.28477916, 0.061318718, -388951.38, -362588.97, 0.0, 9.999775, 9.9966 
2.901726e+3, 3.0730549e+2, 143344.22, -182371.13, 110582.99, -0.45296636, 0.21527207, 177339.84, 177339.84, 0.0, 10.002499, 9.997717 
2.9013735e+3, 3.1729946e+2, 404163.84, -274638.13, 204355.9, -0.48509118, 0.46996903, 460937.5, 460937.5, 0.0, 10.004939, 9.995662 
2.9010284e+3, 3.2729152e+2, 513856.72, 136376.63, 388519.88, -0.47495067, 0.56059545, 757054.75, 757054.75, 0.0, 10.004224, 9.998681 
2.9177123e+3, 1.3777027e+2, -1488130.9, -1450294.8, 65838.05, 0.12401215, 0.3202557, -1400710.8, 189168.52, 0.0000000000007792345, 10.000829, 10.0013485 
2.9173556e+3, 1.4776716e+2, -1612855.5, -1751240.5, -2614.9978, -0.0673711, 0.6772312, -1612806.1, -120897.73, 0.0, 10.000656, 9.998688 
2.9170057e+3, 1.5775327e+2, -1431313.3, -1581928.8, -12734.395, 0.41226324, -0.0021277105, -1430244.1, -36199.39, 0.0, 10.001081, 9.998982 
2.916652e+3, 1.67749e+2, -1170904.8, -1175499.6, -3477.395, 0.36305302, 0.15671544, -1169034.4, 127053.76, 0.0, 10.00124, 10.000976 
2.9162955e+3, 1.7774753e+2, -1151892.5, -1205894.8, 18312.016, 0.024126114, 0.51136863, -1146268.6, 51835.996, 0.0, 10.001039, 10.0002365 
2.9159406e+3, 1.877408e+2, -1092117.1, -1161470.5, -62269.07, -0.06516622, 0.46345872, -1055520.3, 44649.98, 0.0, 10.000972, 9.999878 
2.9155868e+3, 1.9773248e+2, -1066284.5, -1117810.4, -61192.688, -0.0703818, 0.23406002, -1025652.6, -23402.05, 0.0, 10.000519, 9.999741 
2.9152355e+3, 2.0772666e+2, -933367.6, -942304.4, 42751.652, -0.13251707, 0.2557897, -894851.5, 9457.069, 0.0, 10.000526, 10.000244 
2.9148844e+3, 2.1772118e+2, -872093.1, -918471.94, 78288.97, -0.22763957, 0.28420207, -813631.4, -7267.5386, 0.0, 10.000478, 9.999784 
2.9145342e+3, 2.277143e+2, -678046.5, -795238.56, 18537.008, -0.16357678, 0.25171262, -675184.25, 33247.336, 0.0, 10.001315, 9.999516 
2.914183e+3, 2.3770718e+2, -434172.94, -633795.8, 26901.158, -0.09626723, 0.18677135, -430611.28, 179890.14, 0.0, 10.002262, 9.999541 
2.9138327e+3, 2.4770191e+2, -326163.16, -405377.16, 89614.64, -0.13328247, 0.2537779, -267793.13, 244758.55, 0.0, 10.001844, 10.00058 
2.9134816e+3, 2.5769684e+2, -376668.97, -424444.97, 84833.03, -0.19892688, 0.283829, -312424.78, 102174.67, 0.0, 10.000936, 10.000259 
2.9131305e+3, 2.676909e+2, -295752.7, -343957.44, 68419.086, -0.21968304, 0.2883818, -247314.77, 69342.56, 0.0, 10.000913, 10.000139 
2.912779e+3, 2.7768466e+2, -195073.7, -312079.25, 39531.473, -0.25177437, 0.25518933, -182969.73, 35748.176, 0.0, 10.001169, 9.999595 
2.912427e+3, 2.8767815e+2, -209060.53, -300523.56, 83900.086, -0.19442603, 0.29542673, -159237.89, -38456.613, 0.0, 10.000637, 9.999225 
2.9120743e+3, 2.976714e+2, -285693.66, -254082.25, 230875.16, -0.18914747, 0.31556606, -38472.406, -15625.597, 0.0, 9.999192, 9.999585 
2.9277036e+3, 1.3812132e+2, -1753804.8, -1458060.5, -66387.58, -0.06906585, 0.16151577, -1443841.6, 142603.67, 0.0, 9.9984455, 10.002453 
2.927355e+3, 1.4812154e+2, -1440254.3, -1614018.8, -15114.905, 0.3515714, 0.76549375, -1438949.3, 49487.766, 0.0, 10.001572, 9.999199 
2.9270008e+3, 1.5810773e+2, -1005171.6, -1370874.6, 55903.992, 0.2237812, 0.052438837, -996816.6, 393755.75, 0.0, 10.003958, 9.999051 
2.9266468e+3, 1.6810277e+2, -958224.3, -1163070.9, -24928.64, 0.2209321, 0.19623512, -955234.25, 337389.34, 0.0, 10.003075, 10.000185 
2.9262915e+3, 1.781006e+2, -1182134.6, -1264463.9, -64838.26, 0.13911639, 0.55361754, -1146497.4, 48150.773, 0.0, 10.00101, 9.999863 
2.925936e+3, 1.8809378e+2, -1063586.5, -1114910.6, -29466.346, -0.019626942, 0.47791165, -1050174.1, 46539.926, 0.0, 10.001038, 10.00016 
2.9255816e+3, 1.9808517e+2, -964685.94, -1075752.1, 81885.92, -0.09499452, 0.20425083, -921278.5, 77518.11, 0.0, 10.001234, 9.999704 
2.9252297e+3, 2.080803e+2, -845587.25, -890232.44, 174888.55, -0.16466197, 0.33403325, -691602.44, 209243.78, 0.0, 10.001135, 10.000294 
2.9248786e+3, 2.180763e+2, -907541.25, -951138.1, 136183.14, -0.26082343, 0.5002376, -791422.94, 11465.2, 0.0, 10.000352, 9.999613 
2.924529e+3, 2.280676e+2, -774164.3, -878499.06, 100334.97, -0.17649281, 0.31689414, -713245.25, -8273.3955, 0.0, 10.000836, 9.999169 
2.9241797e+3, 2.380576e+2, -612998.06, -729030.5, 82467.76, -0.004111569, -0.020700332, -570183.7, 36883.31, 0.0, 10.001112, 9.999437 
2.9238278e+3, 2.4805321e+2, -524289.94, -401019.16, 120832.37, -0.099035695, 0.08580366, -327010.22, 182095.86, 0.0, 10.000104, 10.001452 
2.9234752e+3, 2.5805044e+2, -753740.1, -559280.7, 159021.86, -0.25271007, 0.26285282, -470119.5, -58989.902, 0.0, 9.99822, 10.000643 
2.9231244e+3, 2.68045e+2, -506366.7, -430207.22, 203806.89, -0.26862982, 0.31301197, -260953.13, 52232.527, 0.0, 9.9995365, 10.000144 
2.922774e+3, 2.7803874e+2, -217967.31, -269666.94, 146565.64, -0.2528745, 0.25255165, -94989.375, 120262.06, 0.0, 10.000884, 9.999992 
2.922422e+3, 2.88034e+2, -58517.207, -28640.35, 101118.62, -0.16792549, 0.34420803, 58637.324, 175932.72, 0.0, 10.000924, 10.000889 
2.9220682e+3, 2.980301e+2, -217745.52, 47128.62, 198998.14, -0.113764144, 0.4185203, 153730.95, 173059.72, 0.0, 9.998612, 10.001912 
2.937697e+3, 1.3847056e+2, -1538937.0, -1240426.4, 68728.47, -0.058547053, -0.01066521, -1225362.6, 357668.53, 0.0, 9.999485, 10.003429 
2.937356e+3, 1.4847402e+2, -1272546.1, -1314566.6, 78977.07, 0.8906793, 0.7576709, -1211832.4, 273152.72, 0.0, 10.001779, 10.001156 
2.9369947e+3, 1.5846395e+2, -1103299.3, -1334038.5, 73960.03, -0.20470107, 0.2463772, -1081627.9, 305452.66, 0.0, 10.002913, 9.999812 
2.9366413e+3, 1.6845685e+2, -1155983.6, -1432872.3, -103652.445, -0.011699267, 0.24619222, -1121481.0, 167673.1, 0.0, 10.00246, 9.998632 
2.9362887e+3, 1.7845076e+2, -1217991.3, -1323053.0, -76458.375, 0.3352274, 0.3511403, -1177757.0, 13461.909, 0.0, 10.00092, 9.999511 
2.9359317e+3, 1.884456e+2, -921795.75, -843928.3, -10072.556, 0.041048795, 0.33354867, -842646.5, 250619.84, 0.0, 10.001131, 10.001979 
2.9355747e+3, 1.9844043e+2, -879170.2, -920588.06, 89929.27, -0.34141815, 0.24380977, -807596.2, 187716.34, 0.0, 10.001312, 10.000734 
2.935225e+3, 2.0843619e+2, -906932.0, -1015188.75, 145401.58, -0.1705597, 0.45972526, -805910.5, 91448.234, 0.0, 10.001143, 9.999427 
2.9348767e+3, 2.1843182e+2, -905192.9, -1022621.3, 129317.15, 0.04881135, 0.6847324, -821885.0, -22476.607, 0.0, 10.000626, 9.999006 
2.934526e+3, 2.284232e+2, -739650.2, -900263.6, 114317.03, 0.007524374, 0.5505433, -680251.6, 21242.727, 0.0, 10.001138, 9.998924 
2.9341742e+3, 2.3841363e+2, -487250.06, -588831.44, 67516.28, -0.118498705, 0.27754545, -453553.22, 150033.92, 0.0, 10.00152, 10.00025 
2.933821e+3, 2.4840909e+2, -409690.3, -181271.61, 44739.395, -0.17844984, 0.23036425, -172821.31, 332800.72, 0.0, 10.000095, 10.003014 
2.9334676e+3, 2.584058e+2, -651600.8, -392537.06, 149290.2, -0.23583145, 0.2254107, -324417.56, 83225.98, 0.0, 9.998305, 10.001785 
2.9331183e+3, 2.6840067e+2, -523705.94, -474222.16, 288830.88, -0.23787965, 0.2864193, -209075.4, 100620.695, 0.0, 9.999484, 9.999899 
2.9327694e+3, 2.7839494e+2, -86728.79, -176512.94, 171810.98, -0.25508884, 0.3059624, 45958.176, 257715.72, 0.0, 10.001519, 10.000366 
2.9324168e+3, 2.8838864e+2, -10133.613, -6087.195, 30729.4, -0.1974429, 0.21473925, 22685.527, 136500.08, 0.0, 10.001092, 10.001052 
2.932063e+3, 2.983823e+2, -70630.445, -73584.45, 56662.492, -0.014582198, 0.07633915, -15425.713, 444.95563, 0.0, 10.000203, 10.000395 
2.9476938e+3, 1.3882673e+2, -919895.0, -1070364.1, 332825.0, -0.01318403, 0.23132962, -653907.2, 925632.06, 0.0, 10.004202, 10.002365 
2.9473493e+3, 1.4882465e+2, -1078750.8, -1303724.6, 36389.918, 0.5592947, 0.5434706, -1073011.1, 408539.97, 0.0, 10.003448, 10.000444 
2.9469904e+3, 1.5881734e+2, -1473332.3, -1482554.0, -71915.74, -0.13587984, 0.35459, -1405879.8, -22257.09, 0.0, 10.000233, 10.000106 
2.9466367e+3, 1.6881101e+2, -1333837.4, -1327994.3, -102201.31, 0.023640472, 0.30348676, -1228672.8, 57011.06, 0.0, 10.000449, 10.000325 
2.9462832e+3, 1.788047e+2, -1126294.0, -1226006.9, 69486.22, 0.29236555, 0.25059414, -1090628.6, 97116.69, 0.0, 10.001348, 9.999955 
2.945927e+3, 1.8879923e+2, -866422.9, -969722.8, 57353.547, -0.00040331905, 0.2870861, -840890.3, 248908.89, 0.0, 10.002171, 10.00061 
2.945571e+3, 1.9879404e+2, -755726.8, -917013.0, -42027.934, -0.31470302, 0.3034268, -745432.25, 246417.27, 0.0, 10.002418, 10.000219 
2.945221e+3, 2.0878968e+2, -840061.5, -884046.25, 35205.977, -0.099031866, 0.43442574, -820543.3, 73350.64, 0.0, 10.001165, 10.000312 
2.9448724e+3, 2.1878512e+2, -1136409.3, -1120709.0, 158014.44, 0.22459024, 0.5764896, -970349.8, -174408.17, 0.0, 9.998995, 9.99913 
2.944521e+3, 2.2877784e+2, -1014556.4, -1007180.8, 251797.11, 0.078132845, 0.5654131, -759044.5, -61027.023, 0.0, 9.999247, 9.999032 
2.9441682e+3, 2.3876977e+2, -812645.4, -748255.7, 184558.11, -0.17044465, 0.42663398, -593105.4, 6994.265, 0.0, 9.999397, 10.0001335 
2.9438144e+3, 2.4876465e+2, -440013.5, -173633.16, 35815.79, -0.24275418, 0.32080203, -168901.64, 333237.9, 0.0, 9.999916, 10.003085 
2.9434606e+3, 2.5876048e+2, -475209.28, -317761.6, 62802.52, -0.23011276, 0.20256639, -295779.94, 108387.81, 0.0, 9.999674, 10.001613 
2.9431126e+3, 2.6875558e+2, -525314.3, -478034.8, 259184.33, -0.19977738, 0.28923053, -241414.39, 64802.82, 0.0, 9.999524, 9.999857 
2.9427648e+3, 2.7875018e+2, -509623.84, -406776.38, 147621.84, -0.18942754, 0.33206835, -301877.97, -93602.93, 0.0, 9.998811, 10.000077 
2.942411e+3, 2.8874272e+2, -204772.06, -101118.1, -33167.28, -0.220614, 0.13201283, -91413.76, 18929.037, 0.0, 9.99985, 10.000967 
2.9420584e+3, 2.987342e+2, -252678.5, -366614.6, 53142.652, 0.056046836, -0.17376828, -231739.55, -219318.6, 0.0, 10.000036, 9.998408 
2.9576895e+3, 1.3918369e+2, -1222669.4, -1387055.9, 405479.5, -0.3343799, 0.49527493, -891136.44, 684899.6, 0.0, 10.00288, 10.000829 
2.9573402e+3, 1.4917493e+2, -1403259.4, -1663741.8, -83890.71, -0.094203316, 0.30126017, -1378579.9, 99540.19, 0.0, 10.0021105, 9.998609 
2.956987e+3, 1.5916954e+2, -1553691.1, -1504903.9, -99813.6, 0.09641323, 0.45574337, -1426546.3, -46367.668, 0.0, 9.999599, 10.000267 
2.9566318e+3, 1.6916528e+2, -1115764.9, -841340.75, -59735.434, 0.11658164, 0.36584723, -828901.7, 453310.0, 0.0, 10.000287, 10.003744 
2.956276e+3, 1.7916094e+2, -1094380.0, -1137160.5, 89649.125, -0.026135499, 0.22618508, -1023604.56, 160640.25, 0.0, 10.001228, 10.000628 
2.955922e+3, 1.8915354e+2, -1113470.5, -1479515.4, 62211.58, -0.13579227, 0.2887376, -1103186.1, -16861.791, 0.0, 10.002132, 9.997131 
2.9555687e+3, 1.9914581e+2, -812922.3, -1052438.5, -51879.723, -0.1997124, 0.3560072, -802167.94, 186240.52, 0.0, 10.002437, 9.999296 
2.9552168e+3, 2.0914088e+2, -631470.06, -492476.2, -45979.66, -0.037130896, 0.27092552, -478642.75, 411806.94, 0.0, 10.001244, 10.003007 
2.9548645e+3, 2.1913643e+2, -928188.44, -799306.75, 115496.95, 0.10188153, 0.17384289, -731489.6, 60995.523, 0.0, 9.999397, 10.001165 
2.954513e+3, 2.2913152e+2, -956153.25, -924521.0, 262452.53, -0.03562679, 0.303585, -677408.44, 17131.58, 0.0, 9.999406, 9.999529 
2.9541615e+3, 2.3912606e+2, -754142.3, -750569.75, 187987.48, -0.242114, 0.4018081, -564360.06, 32241.725, 0.0, 9.999854, 9.999908 
2.9538077e+3, 2.491198e+2, -532675.6, -476200.34, 36061.313, -0.31348872, 0.34035563, -458636.44, 40023.285, 0.0, 10.000293, 10.000876 
2.9534543e+3, 2.5911358e+2, -369693.7, -372394.84, 32175.209, -0.32163268, 0.23425023, -338840.72, 61873.7, 0.0, 10.000735, 10.0007715 
2.953107e+3, 2.6910874e+2, -389264.5, -335373.25, 173943.9, -0.13242672, 0.2877216, -186300.27, 116462.24, 0.0, 10.00003, 10.000637 
2.9527596e+3, 2.79104e+2, -408953.94, -319788.1, 101316.59, -0.0007000593, 0.3443283, -253679.16, -48868.277, 0.0, 9.999213, 10.00052 
2.952405e+3, 2.890975e+2, -171887.89, -158885.53, -29580.756, -0.22614878, 0.25882712, -135099.97, -28225.709, 0.0, 10.000251, 10.000438 
2.9520538e+3, 2.9909265e+2, 118520.375, -4135.5996, 45540.74, 0.1031511, 0.3561428, 133580.08, 142500.64, 0.0, 10.00156, 10.000216 
2.9676864e+3, 1.3953595e+2, -1576453.3, -1450413.8, 257581.42, -0.2052537, 0.43660855, -1248254.9, 324326.4, 0.0, 9.999992, 10.0017805 
2.967334e+3, 1.4952876e+2, -1720582.8, -1643281.4, -50928.727, -0.09232706, 0.26522598, -1617997.6, -143349.23, 0.0, 9.999206, 10.000154 
2.966982e+3, 1.5952381e+2, -1607017.9, -1455731.0, 93323.09, 0.31768817, 0.34905326, -1411244.8, -34544.125, 0.0, 9.998892, 10.000955 
2.966627e+3, 1.6951971e+2, -1171902.5, -929376.8, 66852.58, 0.21210532, 0.30484948, -912169.7, 366563.63, 0.0, 10.000117, 10.003241 
2.96627e+3, 1.7951538e+2, -1121562.6, -1213941.8, 42898.883, -0.07361232, 0.20765439, -1104714.3, 76053.38, 0.0, 10.001297, 10.000082 
2.9659176e+3, 1.8950723e+2, -1208911.4, -1574087.9, 94618.14, -0.14237325, 0.24047855, -1185851.8, -102996.555, 0.0, 10.001738, 9.99666 
2.9655662e+3, 1.9949852e+2, -980642.25, -1172241.0, 105341.97, -0.044184558, 0.2646486, -934053.25, 50896.61, 0.0, 10.001511, 9.998911 
2.9652128e+3, 2.094937e+2, -599442.0, -452097.0, -28761.12, 0.030530958, 0.20227644, -446681.97, 440307.47, 0.0, 10.001468, 10.003137 
2.964858e+3, 2.1948938e+2, -742703.9, -711005.75, -28247.463, 0.059080508, 0.09683065, -694464.8, 94557.42, 0.0, 10.000755, 10.001099 
2.9645064e+3, 2.2948493e+2, -790953.2, -826180.44, 102852.92, -0.11711977, 0.2503586, -704216.6, -13142.856, 0.0, 10.000468, 9.999697 
2.964155e+3, 2.3948044e+2, -793594.7, -814215.6, 22635.62, -0.26332435, 0.41570142, -779031.94, -185904.25, 0.0, 9.999811, 9.999506 
2.963802e+3, 2.4947378e+2, -571248.1, -588841.0, -13791.926, -0.30106583, 0.36637536, -563686.25, -68493.93, 0.0, 10.000457, 10.000007 
2.9634494e+3, 2.5946683e+2, -456073.94, -490486.97, 88103.79, -0.2768652, 0.25587335, -383512.2, 13746.114, 0.0, 10.000546, 10.000023 
2.9631022e+3, 2.6946238e+2, -178076.95, -179234.22, 193070.55, -0.074296094, 0.33733317, 14415.827, 313716.84, 0.0, 10.001307, 10.001051 
2.9627544e+3, 2.79458e+2, -184443.22, -268398.7, 99572.11, 0.0649977, 0.39492348, -118362.016, 82982.23, 0.0, 10.001112, 9.999928 
2.9623982e+3, 2.8945076e+2, -148579.88, -243800.38, -23969.918, -0.3205081, 0.31463486, -142886.34, -39467.887, 0.0, 10.000942, 9.999463 
2.96205e+3, 2.9944822e+2, -8716.136, 111428.086, 13881.11, 0.16073638, 0.6517699, 113011.016, 118456.62, 0.0, 10.000075, 10.001688 
2.977683e+3, 1.3988838e+2, -1539682.5, -1237072.4, 120440.71, 0.012322233, 0.4324942, -1194988.8, 374136.72, 0.0, 9.999484, 10.003462 
2.9773292e+3, 1.4988391e+2, -1527679.1, -1229583.0, -73574.586, 0.11907284, 0.28492278, -1212412.6, 258748.27, 0.0, 9.999184, 10.002986 
2.976976e+3, 1.5987897e+2, -1518106.4, -1367078.8, 60737.44, 0.41198155, 0.14395642, -1345683.5, 27524.193, 0.0, 9.99932, 10.00135 
2.9766214e+3, 1.6987433e+2, -1304883.5, -1275417.6, 92288.2, 0.2557874, 0.21035078, -1196693.8, 78557.695, 0.0, 10.000429, 10.000714 
2.976266e+3, 1.7986894e+2, -1136186.9, -1310387.8, 53191.45, -0.07755857, 0.2380137, -1121229.4, 56073.44, 0.0, 10.001556, 9.999305 
2.9759142e+3, 1.8986067e+2, -1036814.06, -1313309.3, 70757.77, -0.08667999, 0.15908413, -1019758.56, 59629.094, 0.0, 10.00208, 9.998318 
2.9755625e+3, 1.9985233e+2, -916898.56, -1134703.3, 65112.93, -0.00773062, 0.08794926, -898917.44, 82556.16, 0.0, 10.001845, 9.999036 
2.975208e+3, 2.0984775e+2, -759705.06, -805333.06, -67433.44, 0.026089549, 0.22318119, -711330.94, 172186.86, 0.0, 10.001528, 10.000703 
2.974853e+3, 2.1984367e+2, -765436.06, -857187.25, -59196.863, -0.018069368, 0.36144406, -736419.5, 49137.375, 0.0, 10.001085, 9.999971 
2.9745007e+3, 2.298381e+2, -731124.8, -820664.8, 64948.36, -0.17387438, 0.44000325, -697011.06, -9391.205, 0.0, 10.000845, 9.999619 
2.9741493e+3, 2.3983234e+2, -613232.06, -643624.9, -7210.3716, -0.31773007, 0.47485057, -611608.25, -21923.639, 0.0, 10.000595, 10.000334 
2.973798e+3, 2.4982645e+2, -402859.44, -370508.38, -17142.709, -0.19405715, 0.38294873, -363114.44, 128624.945, 0.0, 10.000925, 10.001322 
2.973447e+3, 2.5982064e+2, -253960.16, -298458.97, 98297.79, -0.05215009, 0.28282696, -175425.19, 218366.58, 0.0, 10.0013895, 10.000973 
2.9730988e+3, 2.6981732e+2, -53249.207, -128807.625, 209042.45, -0.038610253, 0.46045414, 121400.43, 417223.3, 0.0, 10.002118, 10.001074 
2.9727486e+3, 2.7981308e+2, 29475.84, -223304.92, 76012.92, -0.15472895, 0.5754763, 50572.723, 248436.8, 0.0, 10.00269, 9.999538 
2.9723912e+3, 2.898006e+2, -121730.93, -387302.16, -76770.6, -0.5312188, 0.07442396, -101135.49, -1144.7174, 0.0, 10.001695, 9.998184 
2.9720426e+3, 2.9979807e+2, 86381.75, 156633.73, -27894.674, -0.057945427, 0.5473881, 166362.48, 168379.84, 0.0, 10.000645, 10.001768 
2.9876792e+3, 1.4024009e+2, -1497544.1, -1251378.9, -15877.597, 0.2559081, 0.115898386, -1250359.0, 315311.03, 0.0, 9.99983, 10.003228 
2.9873222e+3, 1.502386e+2, -1398300.6, -1288381.6, -74487.63, 0.052095722, 0.36642957, -1250772.5, 216908.31, 0.0, 10.000524, 10.001966 
2.9869682e+3, 1.6023132e+2, -1114275.5, -1234623.6, -87020.305, 0.1297777, 0.052806173, -1068650.5, 301103.22, 0.0, 10.002324, 10.000842 
2.986615e+3, 1.7022762e+2, -961929.56, -1130107.3, 3552.066, 0.05035568, 0.22153796, -961854.56, 309936.78, 0.0, 10.002867, 10.000566 
2.986262e+3, 1.8022293e+2, -941104.1, -1246545.5, 75351.984, -0.09633828, 0.3466954, -923526.44, 250311.86, 0.0, 10.003026, 9.999062 
2.985911e+3, 1.9021465e+2, -776586.9, -1125262.3, 34130.96, -0.059705533, 0.23812932, -773277.25, 302643.34, 0.0, 10.003605, 9.998887 
2.985559e+3, 2.002067e+2, -662637.4, -993835.9, -52214.055, -0.0025573606, 0.13150066, -654600.75, 323398.75, 0.0, 10.003522, 9.9992 
2.9852018e+3, 2.102013e+2, -698305.9, -898913.75, -111265.99, -0.17836179, 0.23724481, -648806.6, 231245.56, 0.0, 10.002427, 9.999653 
2.9848447e+3, 2.2019693e+2, -898304.6, -960168.4, 15051.558, -0.27156615, 0.42333272, -894836.94, -112741.26, 0.0, 10.000383, 9.999607 
2.9844946e+3, 2.3019134e+2, -969180.06, -865024.06, 171103.4, -0.17880806, 0.47287062, -738248.75, -54093.625, 0.0, 9.999007, 10.000173 
2.9841444e+3, 2.4018475e+2, -1038027.75, -866291.56, 153599.97, -0.12085205, 0.41185322, -776187.25, -189962.7, 0.0, 9.997827, 10.000129 
2.983793e+3, 2.5017878e+2, -521203.2, -418067.94, 78202.28, -0.15524115, 0.32490522, -375961.56, 112320.66, 0.0, 10.000191, 10.001309 
2.9834422e+3, 2.601736e+2, -270726.44, -365950.06, 68512.66, -0.09629046, 0.30168238, -234906.42, 155424.73, 0.0, 10.001636, 10.000376 
2.9830933e+3, 2.7017066e+2, -297184.25, -244706.47, 131914.33, -0.12378803, 0.5274627, -136446.77, 155911.52, 0.0, 10.000488, 10.001042 
2.9827425e+3, 2.8016645e+2, -597273.44, -567773.44, 25193.555, -0.29843065, 0.6306222, -553329.6, -358930.1, 0.0, 9.998679, 9.999091 
2.9823866e+3, 2.9015157e+2, -321071.63, -496891.94, -36873.65, -0.52997464, -0.09326483, -313651.53, -217100.84, 0.0, 10.000523, 9.997961 
2.9820365e+3, 3.0014953e+2, 144258.48, 176663.63, 104875.03, -0.18674086, 0.45659676, 266580.3, 266580.3, 0.0, 10.00129, 10.001543 
2.9976743e+3, 1.4059159e+2, -1680369.4, -1418470.4, -155558.56, 0.3457002, -0.25527656, -1346082.1, 216132.9, 0.0, 9.9990015, 10.002486 
2.9973143e+3, 1.5059215e+2, -1640912.6, -1674528.8, 5297.088, -0.19606297, 0.4097542, -1640097.8, -175883.52, 0.0, 10.00007, 9.999535 
2.9969594e+3, 1.605817e+2, -1256367.1, -1374286.1, -17810.664, -0.40380794, -0.019576386, -1253735.6, 112589.32, 0.0, 10.001665, 10.000203 
2.996609e+3, 1.7057899e+2, -1000619.94, -1027873.4, -3259.4902, -0.24401453, 0.18587759, -1000235.5, 268118.94, 0.0, 10.00209, 10.001641 
2.9962584e+3, 1.8057653e+2, -979725.56, -1169887.1, 72775.92, -0.21458317, 0.4338034, -955070.44, 215309.69, 0.0, 10.002384, 9.99988 
2.9959077e+3, 1.9056867e+2, -804993.06, -1132573.4, 83865.695, -0.18779093, 0.34872764, -784770.56, 287686.94, 0.0, 10.003419, 9.998914 
2.9955557e+3, 2.005605e+2, -709773.0, -979964.9, -74559.1, -0.14167629, 0.2379311, -690564.1, 283972.44, 0.0, 10.003033, 9.99952 
2.9951945e+3, 2.1055526e+2, -681328.1, -787434.25, -165443.38, -0.5076532, 0.2869166, -560639.6, 315943.3, 0.0, 10.002105, 10.0005665 
2.994834e+3, 2.2054952e+2, -758320.44, -788839.75, -42561.504, -0.8352513, 0.26738685, -728365.75, 50267.863, 0.0, 10.000845, 10.000564 
2.994487e+3, 2.3054309e+2, -897413.7, -740476.1, 95398.664, -0.23124795, 0.15606764, -695420.6, -14728.491, 0.0, 9.9990425, 10.001047 
2.994141e+3, 2.4053736e+2, -987753.44, -879037.6, 190063.31, 0.30169332, 0.12418741, -735711.8, -152965.56, 0.0, 9.998272, 9.999837 
2.993787e+3, 2.5053084e+2, -572595.2, -702045.7, 170189.0, -0.2188537, 0.16683222, -455239.0, 29578.066, 0.0, 10.000909, 9.999051 
2.9934326e+3, 2.6052448e+2, -178125.02, -403095.0, 43290.477, -0.7148887, 0.22965193, -170082.27, 216803.25, 0.0, 10.002528, 9.999742 
2.9930845e+3, 2.70521e+2, -327567.84, -255585.45, 14637.058, -0.4358138, 0.42121312, -252722.95, 36196.56, 0.0, 10.000205, 10.001163 
2.9927358e+3, 2.8051668e+2, -532315.9, -369883.3, 10794.607, -0.18260837, 0.48924795, -369169.1, -178206.98, 0.0, 9.998318, 10.000683 
2.9923874e+3, 2.9050562e+2, -131645.28, -150582.8, 78616.89, 0.13431513, -0.06754835, -61928.984, 31148.273, 0.0, 10.000638, 10.000402 
2.9920357e+3, 3.0050185e+2, 238010.56, 72588.91, 142012.3, 0.11926875, 0.20915246, 319642.6, 319642.6, 0.0, 10.002325, 10.000521 
3.0076617e+3, 1.4095026e+2, -1663296.4, -1366339.4, -218561.78, -0.2533222, -0.03493921, -1250592.4, 308109.44, 0.0, 9.998733, 10.003045 
3.0073097e+3, 1.5095077e+2, -1629643.1, -1849688.6, 199808.77, -0.036076166, 0.73245686, -1511568.3, -50867.75, 0.0, 10.000895, 9.997916 
3.0069607e+3, 1.6093677e+2, -1426672.0, -1676067.6, 91494.69, 0.16313505, 0.13091128, -1396706.3, -33860.375, 0.0, 10.001346, 9.99827 
3.0066052e+3, 1.709309e+2, -1346185.4, -1403268.3, -58311.453, -0.09324869, 0.1961668, -1309805.0, -44896.516, 0.0, 10.000522, 9.999787 
3.0062535e+3, 1.80927e+2, -1201747.4, -1065077.1, 5203.4385, -0.19209823, 0.3205614, -1064879.4, 102070.0, 0.0, 9.99982, 10.00186 
3.0059037e+3, 1.9092712e+2, -999243.06, -725508.1, 223383.69, -0.12338858, 0.585075, -600396.6, 468543.94, 0.0, 9.999794, 10.003457 
3.005552e+3, 2.0092091e+2, -1155543.3, -1298790.9, 266145.47, -0.058912374, 0.42464992, -951552.5, 19442.477, 0.0, 10.000314, 9.998642 
3.005193e+3, 2.1090959e+2, -1253601.3, -1293084.9, 1871.6279, -0.12460422, 0.07701135, -1253512.6, -380408.5, 0.0, 9.999164, 9.998432 
3.0048338e+3, 2.2089931e+2, -1163242.6, -1261036.1, -37015.316, -0.29157364, -0.16151091, -1150812.1, -375610.25, 0.0, 9.999231, 9.998059 
3.0044842e+3, 2.3089252e+2, -231864.52, -606685.9, -41451.742, -0.02689291, -0.1539107, -227335.06, 449925.97, 0.0, 10.004411, 9.99929 
3.0041373e+3, 2.408877e+2, -15352.696, -626648.25, -134771.67, 0.31639823, 0.006599426, 13041.391, 592345.6, 0.0, 10.005894, 9.997847 
3.0037844e+3, 2.5088072e+2, -636283.4, -962421.75, -140815.84, 0.017410105, 0.14644441, -583898.0, -102512.72, 0.0, 10.001528, 9.996843 
3.0034298e+3, 2.60873e+2, -821023.56, -723984.9, -170385.95, -0.47970027, 0.16362713, -595344.7, -211872.9, 0.0, 9.998208, 9.999552 
3.0030802e+3, 2.7086687e+2, -13412.663, 61051.66, -46115.773, -0.32774004, -0.0620987, 83089.21, 368617.34, 0.0, 10.001746, 10.002478 
3.00273e+3, 2.8086346e+2, 375926.84, 99061.63, 50868.816, -0.23764735, -0.02388536, 384977.22, 572537.44, 0.0, 10.004466, 10.000884 
3.002382e+3, 2.908641e+2, 187067.31, 68124.375, -2678.6558, 0.04693766, 0.5266431, 187127.6, 276691.97, 0.0, 10.002695, 10.000778 
3.002021e+3, 3.0086228e+2, -138159.36, -191293.81, -160792.38, -0.8726427, 0.9324293, -1754.1742, -1754.1742, 0.0, 10.00033, 9.999516 
